coord_x,coord_y,stress_xx,stress_yy,tau_xy,velocity_x,velocity_y,stress_1,eps,damage,lx,ly
5.002057e+0, 1.24068394e+2, -1245021.8, -1843658.1, -62108.926, -0.032241587, -0.2988643, -1238645.9, 485458.66, 0.0026761086, 10.004684, 9.996852 
5.001821e+0, 1.340683e+2, -1258640.4, -1729705.3, -27749.967, -0.0021386493, -0.10152493, -1257011.3, 369101.34, 0.0015878021, 10.003644, 9.997456 
5.001621e+0, 1.440685e+2, -1193804.8, -1585413.1, 28240.541, 0.0023781757, 0.15137754, -1191778.6, 336335.1, 0.00071068737, 10.003157, 9.998001 
5.001518e+0, 1.5406334e+2, -1059074.0, -1467573.8, 29483.854, -0.01988524, -0.2031512, -1056957.0, 373204.63, 0.00020845665, 10.003397, 9.998024 
5.001398e+0, 1.6406116e+2, -929419.2, -1268324.3, 16168.839, -0.024119532, -0.25678733, -928649.5, 403532.63, 0.000030560015, 10.003244, 9.998794 
5.001228e+0, 1.740624e+2, -938614.9, -1221865.6, -6323.3945, -0.0041586645, -0.047296815, -938473.75, 295697.25, 0.0000010193884, 10.002506, 9.9987955 
5.001093e+0, 1.8406211e+2, -956827.94, -1236998.4, 11556.865, 0.009172065, 0.06793069, -956352.0, 179823.72, 0.0, 10.001964, 9.998278 
5.000979e+0, 1.940595e+2, -911304.8, -1182740.1, 39123.754, 0.012193245, -0.041212913, -905778.2, 132425.17, 0.0, 10.001679, 9.998117 
5.0008106e+0, 2.0405725e+2, -787663.7, -944391.9, 54036.027, 0.013773944, -0.12554115, -770839.44, 169384.34, 0.0, 10.00131, 9.999254 
5.000521e+0, 2.1405536e+2, -759226.4, -874759.9, 30578.793, 0.009872006, -0.28025794, -751632.1, 90603.086, 0.0, 10.000808, 9.999304 
5.0001395e+0, 2.240542e+2, -786158.8, -916900.94, 40153.832, -0.002611542, -0.29080814, -774811.56, -30567.238, 0.0, 10.000298, 9.998587 
4.999631e+0, 2.3405392e+2, -774303.56, -878681.8, 67618.73, -0.027802996, -0.20008695, -741076.06, -94824.46, 0.0, 9.999782, 9.998426 
4.999245e+0, 2.44054e+2, -572199.3, -401759.47, 50081.086, -0.03083058, -0.16533862, -388133.28, 160115.69, 0.0, 9.999077, 10.001368 
4.9990582e+0, 2.5405428e+2, -598720.9, -343825.44, -42396.773, -0.0027063484, -0.32915327, -336958.56, 113276.38, 0.0, 9.998135, 10.001549 
4.9989238e+0, 2.6405427e+2, -729007.4, -598567.9, -47681.156, 0.009948051, -0.38332045, -582997.06, -230765.44, 0.000000019594776, 9.997618, 9.99937 
4.998858e+0, 2.740541e+2, -639374.9, -534825.9, -1362.6296, -0.000615683, -0.3430532, -534808.1, -280567.63, 0.00000068486895, 9.997689, 9.999101 
4.9986896e+0, 2.840546e+2, -510457.72, -286823.84, 20292.21, 0.0010514875, -0.25957197, -284997.47, -128757.55, 0.0000056407102, 9.997322, 10.000301 
4.9983191e+0, 2.9405448e+2, -544242.2, -243631.77, 30511.275, 0.010982582, -0.3422486, -240566.2, -182326.11, 0.00003698917, 9.996369, 10.000387 
4.9978724e+0, 3.0405304e+2, -504813.28, -115225.13, 38089.93, -0.011886515, -0.55991775, -111536.02, -111536.02, 0.00018828975, 9.995942, 10.0011425 
4.99739e+0, 3.140575e+2, -332806.75, 212499.47, -21432.535, -0.06679726, -0.26714838, 213340.55, 213340.55, 0.00054298295, 9.996024, 10.003366 
1.5006119e+1, 1.2406914e+2, -1176058.3, -1665205.0, -114669.055, -0.100243755, -0.10281739, -1150511.0, 573593.9, 0.0025778182, 10.004557, 9.998147 
1.5005475e+1, 1.3406537e+2, -1174923.4, -1541558.0, -61742.17, -0.005521087, -0.37508044, -1164805.1, 461333.44, 0.0015328352, 10.003597, 9.99878 
1.5004866e+1, 1.4406478e+2, -1183817.9, -1544159.1, 28599.494, 0.009120487, -0.28762555, -1181562.1, 346579.9, 0.0006843033, 10.003079, 9.998329 
1.5004553e+1, 1.54063e+2, -1054899.1, -1440285.6, 46270.543, -0.0596916, -0.31093386, -1049421.6, 380736.97, 0.00019662829, 10.003327, 9.99825 
1.5004207e+1, 1.6406149e+2, -962738.44, -1316420.3, -13124.862, -0.069845095, -0.29527783, -962252.06, 369921.56, 0.00002664921, 10.003162, 9.998511 
1.5003715e+1, 1.740598e+2, -968669.6, -1270378.4, -27862.965, -0.0101551935, -0.33117345, -966118.06, 268074.03, 0.00000066228677, 10.002449, 9.9985 
1.5003248e+1, 1.8405865e+2, -914885.5, -1124355.6, -4676.7505, 0.02595821, -0.321803, -914781.1, 221423.13, 0.0, 10.001869, 9.999099 
1.5002945e+1, 1.9405833e+2, -856924.2, -1048797.5, 35705.39, 0.03738573, -0.28229567, -850495.2, 187711.64, 0.0, 10.001596, 9.9990835 
1.5002406e+1, 2.0405787e+2, -823843.06, -991163.9, 31694.578, 0.040559646, -0.22966754, -818040.56, 122170.13, 0.0, 10.001206, 9.998986 
1.500155e+1, 2.1405713e+2, -804523.8, -939513.25, 19087.316, 0.029371575, -0.2147998, -801876.8, 40340.254, 0.0, 10.000697, 9.998916 
1.50004e+1, 2.2405614e+2, -743935.75, -801158.6, 14613.875, -0.00794703, -0.22683798, -740419.6, 3805.7822, 0.0, 10.000193, 9.999434 
1.4998871e+1, 2.3405486e+2, -720522.2, -739267.0, 54905.15, -0.08421255, -0.31496125, -674195.25, -27959.574, 0.0, 9.999678, 9.999437 
1.4997743e+1, 2.4405415e+2, -722496.2, -695066.56, 10396.897, -0.09218261, -0.32637224, -691571.2, -143329.69, 0.0, 9.999003, 9.999396 
1.4997171e+1, 2.54054e+2, -769799.4, -670586.9, -72215.71, -0.008500138, -0.29584944, -632580.94, -182338.14, 0.0, 9.998019, 9.999366 
1.4996773e+1, 2.6405385e+2, -666674.06, -446878.88, -54314.94, 0.029828098, -0.29319367, -434189.38, -81944.55, 0.0000000045160005, 9.997535, 10.000455 
1.4996591e+1, 2.7405405e+2, -557747.2, -339619.4, 5736.507, -0.0005034832, -0.3462131, -339468.66, -85223.49, 0.0000004592844, 9.997585, 10.000497 
1.499604e+1, 2.8405583e+2, -485081.7, -211554.77, -17626.234, 0.0010066247, -0.2315667, -210423.6, -54194.473, 0.00000436483, 9.997238, 10.000864 
1.4994955e+1, 2.940589e+2, -526662.06, -175314.06, 4971.55, 0.031606533, -0.03181643, -175243.73, -117043.69, 0.000032381515, 9.996238, 10.000926 
1.499363e+1, 3.0405772e+2, -604668.0, -290241.9, 36269.203, -0.032553323, -0.19924988, -286112.47, -286112.47, 0.00017490126, 9.995839, 9.999996 
1.4992177e+1, 3.140561e+2, -441164.44, 44194.96, 3297.2627, -0.19776827, -0.35751912, 44217.36, 44217.36, 0.0005127624, 9.995811, 10.00232 
2.5010255e+1, 1.240706e+2, -1231675.8, -1696150.0, 90262.93, -0.118992314, -0.086934544, -1214751.4, 509338.13, 0.0024624474, 10.004199, 9.998096 
2.5009817e+1, 1.3406582e+2, -1037307.94, -1499221.9, 19386.371, 0.02000139, -0.44721723, -1036495.75, 589636.5, 0.0014642766, 10.004659, 9.998558 
2.5008956e+1, 1.4406502e+2, -989367.8, -1440186.8, 52849.61, 0.049148683, -0.37263742, -983255.1, 544882.4, 0.0006492728, 10.004383, 9.998404 
2.5008103e+1, 1.540642e+2, -1081024.8, -1445955.6, 53090.832, -0.023431567, -0.31507358, -1073457.9, 356687.47, 0.0001814002, 10.003125, 9.998301 
2.5007224e+1, 1.6406302e+2, -1069633.4, -1376935.4, 23213.514, -0.046252448, -0.26454854, -1067889.8, 264268.1, 0.000022322774, 10.002478, 9.998412 
2.500632e+1, 1.7406084e+2, -951951.8, -1272556.8, 20239.88, -0.00060598564, -0.3438564, -950679.1, 283502.72, 0.00000035252413, 10.00263, 9.998382 
2.5005385e+1, 1.840595e+2, -806395.44, -1039908.1, 43143.516, 0.025734238, -0.36048505, -798679.25, 337516.38, 0.0, 10.002469, 9.999388 
2.5004518e+1, 1.9405948e+2, -810116.25, -985841.9, 33292.863, 0.030553304, -0.3300643, -804020.1, 234173.27, 0.0, 10.001749, 9.999433 
2.5003558e+1, 2.040594e+2, -827951.3, -1002409.3, 31976.01, 0.037652984, -0.25474477, -822275.2, 117918.07, 0.0, 10.001206, 9.998909 
2.5002474e+1, 2.140591e+2, -797852.6, -952329.9, 36306.434, 0.05008918, -0.18920955, -789745.1, 52452.477, 0.0, 10.000804, 9.998775 
2.50008e+1, 2.2405818e+2, -707059.25, -763334.3, 38292.746, 0.007246693, -0.19374308, -687677.75, 56527.777, 0.0, 10.000347, 9.999617 
2.4998301e+1, 2.3405647e+2, -694584.0, -707059.0, 15689.827, -0.11056015, -0.35338178, -683937.25, -37719.426, 0.0, 9.999761, 9.999614 
2.4996743e+1, 2.4405542e+2, -701629.2, -765123.4, 5026.848, -0.11494834, -0.3734698, -701233.7, -153006.52, 0.0, 9.999498, 9.998668 
2.4996527e+1, 2.5405514e+2, -586162.44, -675878.1, 22028.41, 0.045245524, -0.27819964, -581045.5, -130811.445, 0.0, 9.999686, 9.998518 
2.499558e+1, 2.64055e+2, -461508.5, -344391.34, 58044.867, 0.090023465, -0.22888245, -320498.03, 31739.96, 0.00000000030772893, 9.998936, 10.000478 
2.4993604e+1, 2.7405533e+2, -655558.9, -373638.1, 11480.347, -0.018700778, -0.28087088, -373171.38, -118935.87, 0.000000332103, 9.996869, 10.0006 
2.4992193e+1, 2.8405702e+2, -681169.5, -307734.78, -39242.555, -0.036961116, -0.18238682, -303655.53, -147435.38, 0.000003312623, 9.995896, 10.000848 
2.4991678e+1, 2.940599e+2, -503155.78, -166061.83, -60491.188, 0.07618145, -0.0018324086, -155535.44, -97341.766, 0.000027299557, 9.996416, 10.0009 
2.499016e+1, 3.0405957e+2, -532291.56, -278394.94, 2155.5513, 0.012566071, -0.070744045, -278376.63, -278376.63, 0.00015832737, 9.996447, 9.999786 
2.4987243e+1, 3.1405672e+2, -444822.2, 63563.625, 26255.18, -0.25687325, -0.33778962, 64915.953, 64915.953, 0.0004751241, 9.995726, 10.002481 
3.5014367e+1, 1.240727e+2, -1334710.3, -1891729.8, 85096.24, -0.15984464, -0.28384638, -1322000.0, 402059.28, 0.002338794, 10.004134, 9.996784 
3.5014656e+1, 1.3406962e+2, -1146252.5, -1718441.4, 41130.043, 0.020861112, -0.31084886, -1143311.1, 482782.84, 0.001386895, 10.004647, 9.997052 
3.5013705e+1, 1.4406912e+2, -999802.75, -1454708.4, 5010.47, 0.06717636, -0.12084859, -999747.56, 528353.56, 0.0006085859, 10.00435, 9.998321 
3.5011986e+1, 1.5406688e+2, -1076964.4, -1432017.6, 12384.708, 0.033386055, -0.2091095, -1076533.0, 353589.28, 0.00016439817, 10.003107, 9.998403 
3.5010362e+1, 1.6406567e+2, -1058353.0, -1348482.5, 17998.746, 0.002391167, -0.1776775, -1057240.8, 274894.34, 0.000017966355, 10.002451, 9.998626 
3.5008916e+1, 1.7406535e+2, -938979.1, -1242996.6, 32242.695, -0.021104466, -0.0881078, -935597.25, 298544.6, 0.00000014192928, 10.002615, 9.998596 
3.5007346e+1, 1.8406446e+2, -821931.6, -1056509.5, 14762.097, -0.039870672, -0.06680885, -821006.3, 315145.03, 0.0, 10.002407, 9.999301 
3.5005543e+1, 1.940628e+2, -825767.7, -1007663.8, 13322.945, -0.058479156, -0.18534192, -824797.0, 213367.0, 0.0, 10.0017, 9.999309 
3.50041e+1, 2.040617e+2, -821737.44, -966107.5, 9221.27, -0.041089937, -0.21835905, -821150.8, 119021.78, 0.0, 10.001116, 9.999199 
3.5003155e+1, 2.1406126e+2, -785467.75, -905565.9, 27803.166, 0.02282542, -0.19570696, -779343.5, 62833.34, 0.0, 10.00072, 9.999135 
3.5001197e+1, 2.2406033e+2, -746820.44, -821556.3, 11725.288, -0.0017006525, -0.20524633, -745024.06, -839.1487, 0.0, 10.00025, 9.999263 
3.499775e+1, 2.3405878e+2, -736890.94, -771205.06, -604.866, -0.15679552, -0.30247036, -736880.3, -90682.67, 0.0, 9.999665, 9.999218 
3.4996104e+1, 2.4405786e+2, -672492.94, -688513.94, 3405.3616, -0.14188017, -0.31299168, -671799.1, -123593.38, 0.0, 9.999428, 9.99923 
3.4996986e+1, 2.5405777e+2, -552383.06, -583171.56, 35177.344, 0.10701957, -0.26393443, -529379.0, -79170.71, 0.0, 9.999594, 9.999198 
3.4995252e+1, 2.6405776e+2, -532319.0, -483836.4, -18840.018, 0.14949965, -0.19592436, -477376.13, -125165.57, 0.00000000006499392, 9.998898, 9.999542 
3.4989697e+1, 2.7405804e+2, -742549.0, -536718.5, -60172.598, -0.11318237, -0.14011009, -520418.47, -266207.22, 0.0000002836276, 9.99679, 9.999521 
3.4986997e+1, 2.8405812e+2, -726152.75, -382252.13, -34537.996, -0.16122597, -0.11686692, -378817.75, -222604.73, 0.000002745044, 9.995825, 10.000369 
3.4988338e+1, 2.9405752e+2, -546140.0, -235660.11, -34036.53, 0.08304863, -0.24455279, -231972.63, -173751.3, 0.000022379118, 9.996337, 10.000461 
3.4987244e+1, 3.040585e+2, -473949.97, -156423.52, -25828.482, 0.062376834, -0.19497938, -154336.27, -154336.27, 0.00013928866, 9.996427, 10.000637 
3.4982276e+1, 3.1405947e+2, -353512.84, 256805.8, 9037.702, -0.35918126, -0.17897937, 256939.6, 256939.6, 0.00043208257, 9.995686, 10.003838 
4.501976e+1, 1.2407465e+2, -1128382.4, -1800452.1, -46147.6, -0.092616156, -0.29423496, -1125228.5, 598812.06, 0.002214192, 10.005609, 9.996693 
4.5019603e+1, 1.3407196e+2, -1159336.1, -1764083.6, -32128.406, 0.056543253, -0.24872032, -1157634.0, 468438.84, 0.0013072699, 10.00473, 9.996702 
4.501784e+1, 1.4407144e+2, -1054804.5, -1465626.8, -22775.436, 0.076305605, -0.046153285, -1053545.6, 474535.22, 0.00056751084, 10.003896, 9.998476 
4.5014954e+1, 1.5406904e+2, -1052973.8, -1400504.1, -21993.469, 0.023238203, -0.16880536, -1051587.5, 378515.78, 0.00014805637, 10.003175, 9.998599 
4.5012653e+1, 1.6406786e+2, -1042542.3, -1299059.0, 29710.275, -0.004221206, -0.1607802, -1039146.1, 292968.53, 0.000013959289, 10.002384, 9.998999 
4.5011294e+1, 1.740679e+2, -1067956.8, -1262286.3, 45409.895, 0.014562363, -0.07483178, -1057869.3, 176247.14, 0.000000037538413, 10.00154, 9.998986 
4.500946e+1, 1.8406726e+2, -1027062.0, -1146358.5, 47639.992, 0.009164046, -0.05296796, -1010372.3, 125750.36, 0.0, 10.000957, 9.99939 
4.5006862e+1, 1.9406585e+2, -977022.8, -1073038.8, 49661.766, -0.03743535, -0.1512528, -955958.0, 82175.375, 0.0, 10.000634, 9.999373 
4.5004803e+1, 2.040646e+2, -930358.06, -1030975.1, 61686.855, -0.04199061, -0.19805026, -901066.25, 39077.816, 0.0, 10.000418, 9.999095 
4.5003602e+1, 2.1406342e+2, -860726.5, -956128.4, 35664.508, 0.024439897, -0.23736772, -848867.94, -6711.823, 0.0, 10.000259, 9.999013 
4.5001525e+1, 2.2406238e+2, -788479.06, -872784.44, 13254.916, 0.019398993, -0.23868902, -786444.2, -42277.64, 0.0, 10.0001, 9.998985 
4.4998178e+1, 2.3406157e+2, -721103.5, -798491.5, -540.8692, -0.088097245, -0.23052414, -721099.75, -74925.49, 0.0, 9.999924, 9.99891 
4.4996074e+1, 2.4406093e+2, -656086.9, -643491.75, 11275.192, -0.08006546, -0.2107303, -636874.6, -88694.61, 0.0, 9.999392, 9.99955 
4.499572e+1, 2.5406036e+2, -706734.8, -620516.8, 9522.8125, 0.08662446, -0.24489178, -619477.56, -169292.63, 0.0, 9.99837, 9.999533 
4.499315e+1, 2.6406008e+2, -707688.9, -601532.7, -42222.65, 0.10646493, -0.20758031, -586787.25, -234598.89, 0.00000000016705606, 9.997845, 9.999238 
4.4987458e+1, 2.7406043e+2, -580951.4, -502724.06, -42670.953, -0.07538837, -0.10770544, -483952.6, -229764.11, 0.00000025698242, 9.998089, 9.999133 
4.4984186e+1, 2.8405994e+2, -499820.34, -307818.3, 44234.832, -0.10453854, -0.10898759, -298117.3, -141921.1, 0.0000023157831, 9.997533, 10.000061 
4.498431e+1, 2.9405808e+2, -639869.7, -318114.38, 39871.445, 0.07552143, -0.3293891, -313247.2, -255030.22, 0.000017842196, 9.995863, 10.000124 
4.49829e+1, 3.0405974e+2, -664366.9, -220436.78, 58140.844, 0.062361076, -0.20094544, -212948.47, -212948.47, 0.0001190779, 9.994993, 10.000888 
4.497876e+1, 3.1406114e+2, -379659.53, 310572.9, 27220.205, -0.24795699, -0.1812032, 311644.72, 311644.72, 0.00038609168, 9.995215, 10.004433 
5.5025697e+1, 1.2407672e+2, -1042203.3, -1655964.3, -93783.234, -0.10908585, -0.10611625, -1028192.94, 695837.6, 0.0020881672, 10.005734, 9.997631 
5.5024403e+1, 1.340729e+2, -1094249.8, -1649442.3, -59225.98, 0.03748205, -0.25334445, -1088002.0, 538066.1, 0.0012256624, 10.0048065, 9.997455 
5.502121e+1, 1.4407207e+2, -1021222.1, -1407754.1, -57188.45, -0.0015222492, -0.14203449, -1012938.44, 515137.63, 0.00052635325, 10.003943, 9.998852 
5.501673e+1, 1.540707e+2, -1026769.7, -1350989.4, -42456.223, -0.13831735, -0.19072421, -1021302.3, 408785.34, 0.00013276051, 10.003198, 9.998928 
5.5013776e+1, 1.6406964e+2, -1009354.9, -1227908.1, -8322.093, -0.14895946, -0.21320927, -1009038.44, 323057.75, 0.0000106646075, 10.002376, 9.999491 
5.5013204e+1, 1.7406838e+2, -1032210.1, -1187759.5, 19620.385, 0.03218927, -0.30874112, -1029773.5, 204332.98, 0.000000007551507, 10.00154, 9.999497 
5.501155e+1, 1.8406786e+2, -1010482.06, -1106355.4, 27710.432, 0.1055727, -0.31508887, -1003049.1, 133060.66, 0.0, 10.000933, 9.999675 
5.500824e+1, 1.9406857e+2, -961463.06, -1035521.5, 42214.688, 0.017179048, -0.22735544, -942338.5, 95763.336, 0.0, 10.000615, 9.9996395 
5.500547e+1, 2.0406802e+2, -970419.9, -1102783.5, 49757.83, -0.032200824, -0.19776617, -953801.5, -13693.5, 0.0, 10.000371, 9.998622 
5.5003536e+1, 2.1406552e+2, -907558.8, -1041029.4, 34999.566, -0.02545061, -0.31465828, -898937.8, -56802.137, 0.0, 10.000209, 9.998452 
5.500151e+1, 2.240643e+2, -808118.75, -903107.5, 1109.0359, -0.008997604, -0.29600868, -808105.8, -63955.277, 0.0, 10.000054, 9.998798 
5.4999393e+1, 2.3406492e+2, -738736.3, -822317.9, -1264.9751, 0.024326848, -0.13026844, -738717.1, -92570.48, 0.0, 9.999869, 9.998771 
5.499644e+1, 2.4406467e+2, -659539.25, -642691.9, -29078.068, 0.00006039173, -0.067468725, -620841.94, -72692.35, 0.0, 9.999354, 9.999576 
5.4992396e+1, 2.5406295e+2, -715875.56, -617262.2, -23878.88, -0.102325164, -0.21883102, -611784.25, -161620.64, 0.0, 9.998278, 9.999598 
5.4989004e+1, 2.640621e+2, -692983.1, -560651.4, -43394.836, -0.108871914, -0.2588684, -547690.56, -195519.84, 0.00000000012003064, 9.9978, 9.99954 
5.498669e+1, 2.740625e+2, -566608.2, -458849.5, -27167.436, 0.022512076, -0.18818416, -452387.7, -198220.13, 0.00000017731924, 9.998025, 9.999466 
5.498357e+1, 2.8406236e+2, -515834.2, -334885.53, -19420.467, 0.0643271, -0.1643983, -332824.7, -176654.4, 0.0000014956321, 9.997506, 9.999888 
5.4979354e+1, 2.9406145e+2, -666049.5, -357081.3, -16398.258, -0.02618653, -0.26120204, -356213.4, -298032.0, 0.000012909044, 9.995792, 9.999892 
5.497691e+1, 3.0406326e+2, -691068.1, -260553.8, 56061.14, -0.053122375, -0.09750395, -253373.33, -253373.33, 0.00009809619, 9.994936, 10.000639 
5.497617e+1, 3.1406158e+2, -400811.72, 285236.78, 57790.38, -0.06309395, -0.35988244, 290070.78, 290070.78, 0.00033776127, 9.99514, 10.0042925 
6.5031654e+1, 1.24079965e+2, -1016078.1, -1571773.4, 54659.406, -0.0704674, -0.057822816, -1010752.75, 713248.94, 0.0019624, 10.005596, 9.998283 
6.5028787e+1, 1.34076e+2, -1230346.6, -1654552.1, 45344.86, 0.061664164, -0.2705552, -1225553.8, 400482.97, 0.0011414877, 10.003602, 9.998002 
6.5024453e+1, 1.440751e+2, -1241285.4, -1492321.3, 90451.055, 0.013621084, -0.20640697, -1212090.3, 315953.44, 0.0004823892, 10.002352, 9.999031 
6.501957e+1, 1.5407418e+2, -1114903.6, -1377988.1, 82635.29, -0.13533491, -0.22488292, -1091101.3, 338951.0, 0.00011742101, 10.002529, 9.99906 
6.501606e+1, 1.6407323e+2, -1004799.2, -1208809.8, 89890.914, -0.15096596, -0.25030383, -970843.25, 361216.34, 0.000008467286, 10.002332, 9.999642 
6.50147e+1, 1.740717e+2, -1028106.25, -1168013.3, 79863.71, 0.0346377, -0.38630372, -991891.44, 242178.64, 0.000000004638606, 10.001496, 9.999651 
6.50125e+1, 1.8407115e+2, -987979.9, -1083413.0, 103757.3, 0.1069478, -0.4091182, -921492.94, 214579.81, 0.0, 10.0010395, 9.999779 
6.500903e+1, 1.9407207e+2, -879558.9, -985196.6, 96969.05, 0.013293782, -0.31096488, -821956.6, 216106.56, 0.0, 10.001124, 9.9997425 
6.500618e+1, 2.0407191e+2, -866162.25, -1051472.4, 119533.56, -0.030045781, -0.24771053, -807578.3, 132488.17, 0.0, 10.001082, 9.998632 
6.500425e+1, 2.1407019e+2, -823358.1, -999986.2, 135960.7, 0.00031019576, -0.284919, -749546.6, 92541.74, 0.0, 10.000787, 9.998455 
6.5002096e+1, 2.2406922e+2, -760132.8, -861639.8, 137560.75, 0.0366428, -0.24732591, -664261.4, 79840.086, 0.0, 10.000303, 9.998967 
6.4999634e+1, 2.3406935e+2, -776284.56, -820405.56, 146066.94, 0.083292626, -0.14987779, -650621.6, -4519.9106, 0.0, 9.99952, 9.998959 
6.4995974e+1, 2.4406879e+2, -716588.75, -700410.56, 131157.5, 0.036287244, -0.113979846, -577092.94, -28985.406, 0.0, 9.999081, 9.999324 
6.499065e+1, 2.5406724e+2, -612307.2, -599933.9, 97883.63, -0.14046758, -0.2190876, -508041.6, -57920.277, 0.0, 9.9991255, 9.999318 
6.4986837e+1, 2.6406625e+2, -550280.5, -505521.34, 69781.26, -0.15215373, -0.25005725, -454618.8, -102488.9, 0.00000000000043891748, 9.998833, 9.999426 
6.4985275e+1, 2.7406603e+2, -565336.94, -465899.88, 43901.598, 0.08146003, -0.23080279, -449291.3, -195159.8, 0.00000007111923, 9.998075, 9.999388 
6.4981925e+1, 2.8406566e+2, -508977.22, -374413.5, 23109.094, 0.1440619, -0.20778523, -370555.5, -214419.56, 0.00000065443334, 9.997732, 9.999507 
6.497617e+1, 2.9406527e+2, -385966.5, -263932.6, -1653.6532, -0.02282493, -0.21757337, -263910.2, -205767.3, 0.000008482825, 9.997895, 9.9995165 
6.4972776e+1, 3.0406684e+2, -420969.16, -177084.11, 61753.547, -0.055775497, -0.042666048, -162339.11, -162339.11, 0.00007932554, 9.996989, 10.000225 
6.4972013e+1, 3.140637e+2, -521572.5, 145196.53, 29180.377, 0.04073295, -0.40114495, 146471.14, 146471.14, 0.00029245962, 9.994658, 10.003572 
7.5037193e+1, 1.2408425e+2, -966365.44, -1487105.0, -36229.82, -0.1171898, -0.1461814, -963856.9, 760098.4, 0.0018393053, 10.005674, 9.998829 
7.503248e+1, 1.3408124e+2, -1199129.8, -1601934.5, -29487.35, 0.04902874, -0.3007593, -1196982.5, 428996.22, 0.0010576496, 10.003655, 9.998339 
7.5027245e+1, 1.440805e+2, -1235823.4, -1490193.0, 83158.91, 0.035834454, -0.23641394, -1211049.6, 316934.2, 0.00043753645, 10.002391, 9.999027 
7.50232e+1, 1.5407936e+2, -1117707.3, -1389483.6, 96543.26, -0.045838635, -0.2721636, -1086903.5, 343094.06, 0.00010224, 10.002552, 9.998972 
7.5019246e+1, 1.6407862e+2, -1016838.56, -1232727.4, 57540.926, -0.0840779, -0.26293796, -1002459.8, 329544.63, 0.000007138289, 10.002326, 9.999481 
7.5015557e+1, 1.7407791e+2, -1038271.06, -1192640.8, 53052.777, -0.048848666, -0.30379462, -1021796.44, 212210.86, 0.00000003688298, 10.001511, 9.999476 
7.501212e+1, 1.840771e+2, -992968.7, -1095007.6, 98614.42, -0.053317126, -0.33930698, -932957.56, 203054.31, 0.0, 10.001042, 9.9997 
7.5008994e+1, 1.9407625e+2, -888390.2, -999459.1, 106371.96, -0.120482996, -0.41017973, -823928.5, 214089.73, 0.0, 10.001107, 9.999655 
7.50067e+1, 2.0407629e+2, -838736.1, -983964.1, 105218.25, -0.10240763, -0.344234, -783507.75, 156511.55, 0.0, 10.0010395, 9.999113 
7.500555e+1, 2.1407749e+2, -792572.94, -924676.25, 130451.23, 0.034225676, -0.14646599, -712404.4, 129609.35, 0.0, 10.000736, 9.998997 
7.500305e+1, 2.2407721e+2, -733875.3, -795792.4, 105142.82, 0.08705825, -0.091159046, -655228.0, 88790.88, 0.0, 10.000253, 9.999442 
7.4998647e+1, 2.3407479e+2, -752666.0, -758692.9, 123559.3, 0.017364495, -0.29670605, -632083.4, 13956.395, 0.0, 9.99946, 9.999412 
7.499436e+1, 2.4407333e+2, -763541.6, -784879.94, 125566.0, -0.04720006, -0.351445, -648192.3, -100138.65, 0.0, 9.999028, 9.998765 
7.499032e+1, 2.5407323e+2, -668307.06, -702929.8, 105205.6, -0.10135712, -0.24745017, -578998.06, -128940.29, 0.0, 9.999064, 9.998641 
7.498645e+1, 2.640726e+2, -593162.9, -582858.94, 39908.98, -0.087734036, -0.18207581, -547770.75, -195705.17, 0.0, 9.998785, 9.998918 
7.4982923e+1, 2.7407113e+2, -612169.4, -547266.1, 24023.9, 0.020643298, -0.23704551, -539341.3, -285261.4, 0.000000009748358, 9.998004, 9.998865 
7.4978983e+1, 2.8407001e+2, -551807.3, -453924.9, 22018.684, 0.05966672, -0.2401864, -449199.88, -293107.2, 0.00000018808618, 9.997693, 9.998979 
7.497448e+1, 2.9406953e+2, -433119.75, -347804.66, 10315.979, 0.0027126363, -0.20515096, -346575.0, -288473.7, 0.000005696117, 9.9978285, 9.998977 
7.4970317e+1, 3.0407035e+2, -472242.53, -275799.66, -19401.713, -0.016428085, -0.04200565, -273901.78, -273901.78, 0.00006525944, 9.996958, 9.999558 
7.4965876e+1, 3.1406724e+2, -632841.9, -55305.527, -41045.38, -0.06802615, -0.33321515, -52403.027, -52403.027, 0.00025509726, 9.994526, 10.002255 
8.504209e+1, 1.24089524e+2, -1177819.8, -1545186.5, 3463.7615, -0.10586759, -0.2399728, -1177787.1, 546113.94, 0.0017199437, 10.004038, 9.999212 
8.503585e+1, 1.340874e+2, -1240683.1, -1598347.5, -27512.73, 0.046337303, -0.3242871, -1238579.1, 387335.7, 0.0009794245, 10.00328, 9.99854 
8.502966e+1, 1.4408678e+2, -1217677.5, -1508952.1, 126392.414, 0.03193943, -0.24905442, -1170480.0, 357439.25, 0.0003977733, 10.002624, 9.998793 
8.5025835e+1, 1.5408534e+2, -1194587.9, -1455386.3, 118580.18, -0.012922418, -0.28627244, -1148733.8, 281203.88, 0.000088897265, 10.00215, 9.998713 
8.5021704e+1, 1.6408467e+2, -1084017.6, -1252056.3, 82197.87, -0.04150976, -0.26237652, -1050496.6, 281448.06, 0.000006071428, 10.001813, 9.999595 
8.501723e+1, 1.7408448e+2, -1004128.94, -1157729.9, 89801.45, -0.03724441, -0.26505515, -962765.9, 271175.47, 0.000000076650345, 10.001665, 9.999642 
8.501322e+1, 1.840835e+2, -952652.8, -1107210.8, 162218.92, -0.06407658, -0.31295124, -850245.9, 285700.97, 0.0, 10.00146, 9.999416 
8.5009974e+1, 1.9408162e+2, -908080.8, -1043688.6, 143325.7, -0.12920482, -0.45339245, -817329.94, 220633.22, 0.0, 10.001128, 9.999337 
8.500742e+1, 2.0408113e+2, -867179.7, -985350.06, 121458.31, -0.11736053, -0.4287842, -791197.56, 148771.53, 0.0, 10.000781, 9.999237 
8.500578e+1, 2.1408255e+2, -839933.1, -928695.56, 105018.414, 0.008402221, -0.2226333, -770303.1, 71657.68, 0.0, 10.000326, 9.999173 
8.5002863e+1, 2.2408254e+2, -730698.6, -769595.8, 67745.27, 0.05083185, -0.16021478, -679665.5, 64297.707, 0.0, 10.000173, 9.999658 
8.4998167e+1, 2.3408051e+2, -597266.6, -659201.94, 54439.008, -0.020478858, -0.34847668, -565603.56, 80377.234, 0.0, 10.000428, 9.999623 
8.4993875e+1, 2.4407937e+2, -566858.1, -679248.06, 78836.15, -0.06034998, -0.38613024, -526238.8, 21753.225, 0.0, 10.000331, 9.998861 
8.499022e+1, 2.5407955e+2, -565779.56, -641279.0, 105185.234, -0.046687208, -0.25973266, -491775.22, -41781.586, 0.0, 9.999725, 9.99874 
8.498609e+1, 2.6407903e+2, -528141.9, -585596.44, 84038.92, -0.02738975, -0.1789154, -468055.88, -116054.586, 0.0, 9.999367, 9.998626 
8.49814e+1, 2.740773e+2, -446323.72, -504434.47, 67803.945, 0.008730165, -0.22728433, -401611.97, -147592.88, 0.0, 9.999292, 9.998545 
8.497673e+1, 2.8407574e+2, -429480.97, -432351.28, 87159.6, 0.021301126, -0.23686977, -343744.72, -187708.81, 0.000000024133003, 9.998685, 9.998654 
8.497212e+1, 2.9407474e+2, -522064.5, -422734.63, 79251.24, 0.01252827, -0.22239016, -378872.22, -320823.28, 0.0000041706858, 9.997356, 9.998689 
8.496734e+1, 3.0407518e+2, -536802.7, -283014.1, 74044.58, 0.023775648, -0.09408897, -262990.84, -262990.84, 0.00005536609, 9.996405, 9.999777 
8.496177e+1, 3.140737e+2, -481787.06, -49389.61, 99360.805, 0.011997773, -0.24709703, -27650.404, -27650.404, 0.00022562832, 9.995847, 10.001649 
9.504597e+1, 1.2409587e+2, -1164373.0, -1519833.0, -39382.504, -0.15879151, -0.32594737, -1160062.0, 563775.8, 0.0016117445, 10.004051, 9.999376 
9.5038545e+1, 1.3409445e+2, -1234461.4, -1599061.0, -52516.023, -0.029922176, -0.34298682, -1227047.8, 398797.75, 0.00091292575, 10.003335, 9.998507 
9.503143e+1, 1.4409384e+2, -1241554.8, -1564987.9, 103329.836, -0.07358184, -0.24567929, -1211361.8, 316488.7, 0.00036647206, 10.002652, 9.998392 
9.5027304e+1, 1.5409215e+2, -1222606.4, -1519352.9, 107406.83, -0.101374336, -0.2676648, -1187810.8, 242061.88, 0.00007896108, 10.002175, 9.998259 
9.5023286e+1, 1.640914e+2, -1058234.6, -1199678.3, 69888.164, -0.08128231, -0.24193868, -1029528.4, 302351.56, 0.000005121987, 10.001816, 9.999953 
9.501942e+1, 1.740914e+2, -971611.06, -1092011.9, 89340.16, -0.0011529631, -0.27029172, -924081.5, 309791.0, 0.00000007826353, 10.001672, 10.00009 
9.501558e+1, 1.8409038e+2, -991213.5, -1183273.4, 145891.27, 0.012728683, -0.32369122, -912583.75, 223293.77, 0.0, 10.001441, 9.998903 
9.5011747e+1, 1.9408812e+2, -952830.3, -1131222.6, 137217.23, -0.0825161, -0.44452944, -878366.7, 159531.77, 0.0, 10.001106, 9.998746 
9.500812e+1, 2.0408641e+2, -890182.3, -1023601.25, 99454.82, -0.13925, -0.49901304, -837136.1, 102779.914, 0.0, 10.000739, 9.998994 
9.5004684e+1, 2.1408531e+2, -860244.56, -963362.9, 95527.586, -0.14909828, -0.52435315, -803250.2, 38680.16, 0.0, 10.000289, 9.998954 
9.500131e+1, 2.2408515e+2, -746802.6, -790474.94, 70577.23, -0.13658622, -0.4583953, -694760.75, 49174.3, 0.0, 10.000119, 9.999538 
9.4998e+1, 2.3408635e+2, -612157.75, -677508.25, 69129.17, -0.0961061, -0.31466126, -568370.5, 77555.65, 0.0, 10.00037, 9.999527 
9.499432e+1, 2.4408682e+2, -521831.16, -569745.94, 52865.36, -0.061861113, -0.2210129, -487748.03, 60175.066, 0.0, 10.000267, 9.99964 
9.4990104e+1, 2.5408626e+2, -514240.5, -521148.34, 89208.516, -0.044979144, -0.2622588, -428419.06, 21510.068, 0.0, 9.999667, 9.999593 
9.4985527e+1, 2.6408544e+2, -541862.06, -605093.3, 75215.61, -0.033115625, -0.24597912, -491887.63, -139949.94, 0.0, 9.999328, 9.998509 
9.49805e+1, 2.740844e+2, -469590.44, -537417.25, 72191.016, -0.026455725, -0.21076232, -423743.8, -169793.45, 0.0, 9.999223, 9.998352 
9.497501e+1, 2.8408292e+2, -441140.2, -447178.3, 35640.773, -0.03475284, -0.19941036, -408390.8, -252424.78, 0.000000004406078, 9.998649, 9.998567 
9.49688e+1, 2.9408097e+2, -540992.56, -441949.4, 38329.17, -0.072288044, -0.27104622, -428849.0, -370863.38, 0.0000031909003, 9.99727, 9.998598 
9.49636e+1, 3.0408138e+2, -461417.03, -117723.586, 48853.832, -0.0055064587, -0.19557151, -110914.234, -110914.234, 0.000047523536, 9.9963665, 10.000929 
9.4959176e+1, 3.1408322e+2, -496214.97, -50267.734, 103684.234, 0.13316421, -0.13366288, -27339.633, -27339.633, 0.00020078661, 9.995723, 10.001704 
1.0504954e+2, 1.2410506e+2, -1492922.6, -1690182.0, 91745.46, -0.08529327, -0.27465516, -1456848.8, 266899.1, 0.0015258539, 10.001815, 9.999289 
1.0504185e+2, 1.341029e+2, -1261239.6, -1643220.8, 40081.016, -0.023401909, -0.33978057, -1257079.3, 368683.88, 0.00086255383, 10.003266, 9.998243 
1.05034284e+2, 1.4410153e+2, -1122654.3, -1526332.8, 166403.13, -0.093815506, -0.2981297, -1062904.0, 464871.0, 0.00034425873, 10.003562, 9.998215 
1.0502965e+2, 1.5409979e+2, -1211884.6, -1540272.0, 170349.5, -0.08909, -0.29860982, -1139480.5, 290315.66, 0.00007295785, 10.002364, 9.998028 
1.0502517e+2, 1.6409887e+2, -1086779.3, -1234316.1, 164895.05, -0.06574911, -0.2689706, -979903.94, 351900.84, 0.0000044141693, 10.0017185, 9.999757 
1.0502117e+2, 1.740985e+2, -963112.06, -1112539.8, 125867.72, 0.0024787548, -0.31301725, -891453.6, 342348.06, 0.000000050630582, 10.001845, 9.999861 
1.0501726e+2, 1.840974e+2, -948987.1, -1197548.3, 164051.14, 0.0173865, -0.34981266, -867456.0, 268352.84, 0.0, 10.001873, 9.998595 
1.0501334e+2, 1.9409542e+2, -899092.4, -1142108.0, 162850.81, -0.056198798, -0.41394085, -817414.25, 220414.58, 0.0, 10.001626, 9.998421 
1.0500926e+2, 2.0409386e+2, -808704.9, -960452.56, 152802.89, -0.11884563, -0.4425668, -713975.2, 225870.19, 0.0, 10.001208, 9.999195 
1.05005e+2, 2.1409284e+2, -812797.7, -909944.2, 170359.98, -0.15239595, -0.48588374, -684221.6, 157636.53, 0.0, 10.000497, 9.999213 
1.05001055e+2, 2.2409272e+2, -791610.06, -806354.7, 191914.64, -0.15468885, -0.43154982, -606926.2, 136935.67, 0.0, 9.999784, 9.999598 
1.0499756e+2, 2.3409398e+2, -803372.75, -763806.06, 192895.45, -0.1067109, -0.2843105, -589682.1, 56170.17, 0.0, 9.999038, 9.999578 
1.0499366e+2, 2.4409445e+2, -743670.4, -661005.25, 170819.44, -0.07124053, -0.20040634, -526589.0, 21259.963, 0.0, 9.998677, 9.999779 
1.04989275e+2, 2.5409374e+2, -626226.7, -559124.44, 140163.03, -0.05016035, -0.26699468, -448552.88, 1302.5488, 0.0, 9.998834, 9.999731 
1.049846e+2, 2.6409298e+2, -575409.44, -606507.75, 126005.86, -0.041410267, -0.26293883, -463996.97, -112133.65, 0.0, 9.9990425, 9.998631 
1.0497964e+2, 2.7409217e+2, -443175.13, -511407.66, 135753.64, -0.036397126, -0.21341553, -337316.5, -83443.45, 0.0, 9.99935, 9.998467 
1.0497406e+2, 2.8409076e+2, -303306.06, -365273.7, 103822.97, -0.033814862, -0.20809628, -225942.27, -70055.48, 0.0000000012345152, 9.999518, 9.998718 
1.049675e+2, 2.9408857e+2, -203132.66, -254445.84, 107509.195, -0.034712266, -0.32495996, -118261.03, -60354.914, 0.0000025074758, 9.9994755, 9.998827 
1.04961395e+2, 3.0408868e+2, -94537.83, 71730.96, 97760.64, 0.021143017, -0.29895386, 116926.1, 116926.1, 0.000040782536, 9.998831, 10.001049 
1.0495578e+2, 3.1409094e+2, -329303.84, -63440.676, 50138.883, 0.15155157, -0.19610243, -54299.344, -54299.344, 0.0001788825, 9.997267, 10.000876 
1.1505228e+2, 1.2411682e+2, -1503867.6, -1735310.1, 117712.63, -0.03681694, -0.1002385, -1454520.1, 269113.34, 0.0014675308, 10.001907, 9.998938 
1.1504559e+2, 1.3411263e+2, -1287065.6, -1705165.3, 95042.65, 0.005493247, -0.32171243, -1266474.6, 359194.16, 0.0008305489, 10.0033045, 9.997797 
1.15038164e+2, 1.441098e+2, -1125224.8, -1531675.5, 122646.26, -0.08047682, -0.3998285, -1091084.1, 436609.13, 0.00033210375, 10.003558, 9.998182 
1.1503245e+2, 1.5410832e+2, -1204225.3, -1532142.1, 133439.83, -0.0638728, -0.3798825, -1156787.0, 272921.2, 0.00007103606, 10.002401, 9.998062 
1.1502709e+2, 1.641071e+2, -1139573.4, -1353279.0, 160096.78, -0.063187234, -0.34333432, -1053946.3, 277772.84, 0.0000041839003, 10.001748, 9.998934 
1.1502234e+2, 1.7410578e+2, -1019592.5, -1238124.8, 136107.81, -0.0838625, -0.39582813, -954318.06, 279411.3, 0.000000024917117, 10.001877, 9.998986 
1.1501811e+2, 1.8410453e+2, -961064.25, -1214571.3, 152200.47, -0.10084724, -0.3930816, -889748.5, 245992.58, 0.0, 10.001839, 9.998497 
1.1501447e+2, 1.9410345e+2, -902637.6, -1145468.8, 158364.6, -0.12485278, -0.36227736, -824500.94, 213253.45, 0.0, 10.00161, 9.998405 
1.15010634e+2, 2.0410353e+2, -771288.06, -875174.8, 121624.44, -0.115409166, -0.25592002, -690979.3, 248777.38, 0.0, 10.001171, 9.999803 
1.1500649e+2, 2.141051e+2, -771795.56, -813165.1, 148203.0, -0.06797748, -0.10892214, -642840.8, 198903.86, 0.0, 10.000443, 9.999905 
1.1500188e+2, 2.2410522e+2, -783320.7, -776193.0, 158657.7, -0.061391354, -0.07974659, -621059.1, 122685.05, 0.0, 9.999728, 9.999832 
1.1499658e+2, 2.3410332e+2, -799114.2, -740089.25, 171333.5, -0.12253056, -0.2665924, -595745.0, 50014.86, 0.0, 9.998971, 9.999774 
1.1499174e+2, 2.4410218e+2, -792752.6, -747296.56, 168327.78, -0.14585035, -0.3295721, -600169.3, -52399.31, 0.0, 9.99861, 9.99922 
1.1498749e+2, 2.5410202e+2, -678996.75, -653192.3, 150024.31, -0.12506746, -0.27901098, -515516.44, -65743.266, 0.0, 9.998766, 9.999119 
1.1498314e+2, 2.6410156e+2, -554086.06, -555363.6, 131651.08, -0.10496555, -0.22993171, -423072.22, -71293.57, 0.0, 9.999012, 9.999 
1.1497863e+2, 2.741006e+2, -422119.13, -454021.75, 154160.16, -0.0887149, -0.23473908, -283087.22, -29299.582, 0.0, 9.999287, 9.998897 
1.14973664e+2, 2.840993e+2, -281454.25, -307913.8, 98345.17, -0.03815988, -0.26276475, -195453.0, -39654.78, 0.00000000007947066, 9.999474, 9.999131 
1.14967994e+2, 2.940975e+2, -188471.08, -197331.13, 113107.28, 0.050473217, -0.37798223, -79707.1, -21896.738, 0.000001910546, 9.999368, 9.99927 
1.1496052e+2, 3.0409706e+2, -163169.53, -59366.145, 41868.145, 0.035751704, -0.39863294, -44584.055, -44584.055, 0.000034748213, 9.998792, 10.000161 
1.1495106e+2, 3.1409675e+2, -469774.78, -322870.38, 14241.194, -0.08088963, -0.4440801, -321502.53, -321502.53, 0.00015878698, 9.997138, 9.999152 
1.2505561e+2, 1.2412602e+2, -1375624.9, -1684557.0, 62159.605, 0.062003125, -0.05788212, -1363587.0, 359957.84, 0.0014351123, 10.002864, 9.998816 
1.2504923e+2, 1.3412198e+2, -1350151.1, -1763111.6, 38217.293, 0.060725614, -0.23736703, -1346644.1, 278937.0, 0.00081633194, 10.0029955, 9.997549 
1.2504178e+2, 1.4411876e+2, -1197942.9, -1556069.3, 49825.97, -0.040091988, -0.3476114, -1191139.9, 336469.66, 0.00033045214, 10.003012, 9.998276 
1.2503588e+2, 1.541169e+2, -1104146.1, -1474776.5, 45105.824, 0.011494011, -0.37419513, -1098735.8, 330889.2, 0.00007352079, 10.003042, 9.998148 
1.2503013e+2, 1.641155e+2, -981091.7, -1325318.8, 118183.14, 0.003552874, -0.34116092, -944422.25, 387214.88, 0.0000047035833, 10.003044, 9.998503 
1.2502462e+2, 1.7411433e+2, -897092.3, -1235012.8, 116520.7, -0.09352837, -0.32919168, -860809.7, 372839.34, 0.000000012759114, 10.002951, 9.998496 
1.2501976e+2, 1.8411307e+2, -873550.7, -1141724.8, 140730.19, -0.13918097, -0.31258264, -813255.9, 322406.0, 0.0, 10.002316, 9.998763 
1.2501577e+2, 1.9411185e+2, -990524.7, -1152058.6, 160136.27, -0.11555531, -0.32743096, -891940.25, 145734.4, 0.0, 10.000859, 9.998723 
1.2501155e+2, 2.0411187e+2, -949087.6, -970323.0, 137070.53, -0.07885865, -0.23865877, -822224.2, 117452.34, 0.0, 9.999987, 9.999718 
1.2500703e+2, 2.1411361e+2, -867260.8, -875536.9, 93597.805, -0.025335634, -0.062270712, -777709.6, 63954.176, 0.0, 9.999852, 9.999763 
1.2500213e+2, 2.2411379e+2, -724349.7, -728878.9, 92207.055, -0.021496646, -0.029341068, -634379.44, 109283.07, 0.0, 10.00005, 9.999998 
1.2499669e+2, 2.3411174e+2, -536819.4, -593590.2, 92557.02, -0.089337215, -0.2485593, -468392.94, 177284.44, 0.0, 10.000687, 9.99995 
1.24991626e+2, 2.4411045e+2, -490066.34, -609232.44, 108900.61, -0.11921269, -0.33334032, -425514.44, 122173.53, 0.0, 10.000722, 9.999151 
1.2498714e+2, 2.5411016e+2, -514303.75, -587886.56, 120263.766, -0.09222235, -0.28493088, -425329.6, 24363.379, 0.0, 9.999948, 9.999003 
1.2498251e+2, 2.641097e+2, -478690.22, -466796.16, 143467.0, -0.08033586, -0.24851292, -329153.0, 22544.322, 0.0, 9.999311, 9.999459 
1.2497775e+2, 2.7410898e+2, -441154.38, -402073.03, 159064.23, -0.0822156, -0.28630796, -261353.7, -7652.51, 0.0, 9.998909, 9.999426 
1.24972716e+2, 2.8410774e+2, -392076.8, -350079.56, 109009.016, -0.03517432, -0.33756134, -260065.1, -104355.56, 0.00000000021645001, 9.998668, 9.999228 
1.249673e+2, 2.9410604e+2, -285923.56, -232020.42, 89150.71, 0.0857395, -0.4497061, -165836.4, -108114.445, 0.0000014014497, 9.99865, 9.999373 
1.2495971e+2, 3.0410582e+2, -128446.13, -98448.84, 27355.486, 0.059306536, -0.43581638, -82250.016, -82250.016, 0.000028996776, 9.999249, 9.999686 
1.2494995e+2, 3.1410488e+2, -35316.707, -194707.95, 18006.527, -0.061759047, -0.48721448, -33307.816, -33307.816, 0.00013884061, 10.000458, 9.998444 
1.350591e+2, 1.24132656e+2, -1373899.9, -1680108.9, 46717.887, 0.08750831, -0.14622708, -1366930.8, 356550.63, 0.0014283952, 10.002869, 9.998841 
1.3505247e+2, 1.3413106e+2, -1342862.0, -1751456.4, 48618.605, 0.067455724, -0.08428877, -1337156.5, 288342.22, 0.000819765, 10.003026, 9.997605 
1.3504496e+2, 1.4412847e+2, -1184006.3, -1540005.6, 43801.1, -0.044267233, -0.13766085, -1178696.3, 348826.63, 0.00033887546, 10.003057, 9.998366 
1.3503978e+2, 1.541256e+2, -1095118.3, -1458717.6, 51806.723, 0.078216836, -0.27939954, -1087880.8, 341665.0, 0.0000801792, 10.003051, 9.998254 
1.3503404e+2, 1.6412413e+2, -991237.1, -1337807.5, 110017.64, 0.07574062, -0.25608298, -959262.4, 372295.75, 0.0000062149566, 10.003012, 9.99843 
1.350277e+2, 1.7412417e+2, -903813.8, -1247658.6, 121033.086, -0.09711686, -0.11450901, -865483.25, 368077.34, 0.000000017143847, 10.002954, 9.998402 
1.3502194e+2, 1.8412307e+2, -833333.94, -1058970.5, 84506.69, -0.16876172, -0.10353331, -805193.56, 330377.06, 0.0, 10.002309, 9.999339 
1.3501692e+2, 1.9412053e+2, -945037.1, -1055828.6, 111130.66, -0.101767585, -0.31517228, -876260.8, 161329.03, 0.0, 10.000848, 9.99939 
1.3501178e+2, 2.0411886e+2, -1012375.56, -1091076.1, 123830.24, -0.068282925, -0.39479485, -921793.7, 17811.469, 0.0, 9.999942, 9.998912 
1.350064e+2, 2.1411836e+2, -942118.3, -1015921.5, 96210.94, -0.09018209, -0.34793115, -875974.94, -34359.242, 0.0, 9.999791, 9.998827 
1.350016e+2, 2.2411844e+2, -727410.94, -725453.7, 107783.63, -0.09449987, -0.27576312, -618644.25, 124972.27, 0.0, 10.000001, 10.000048 
1.3499762e+2, 2.3411924e+2, -531462.2, -572740.3, 121368.76, -0.07966795, -0.22963665, -428990.13, 216614.78, 0.0, 10.000642, 10.000115 
1.3499315e+2, 2.4411923e+2, -467658.72, -552165.8, 78743.766, -0.05398838, -0.21241805, -420548.16, 127054.91, 0.0, 10.000676, 9.999565 
1.3498802e+2, 2.5411817e+2, -493232.16, -528422.44, 96850.41, -0.013277184, -0.28376502, -412391.56, 37223.016, 0.0, 9.99988, 9.999444 
1.3498253e+2, 2.641175e+2, -449736.56, -394798.06, 122708.2, -0.022262383, -0.31663433, -296522.1, 55096.715, 0.0, 9.999264, 9.999975 
1.3497671e+2, 2.741172e+2, -416927.2, -329738.25, 150584.11, -0.09205115, -0.367486, -216565.22, 37049.2, 0.0, 9.998818, 9.999965 
1.3497101e+2, 2.8411606e+2, -407669.34, -371476.13, 100666.414, -0.08792063, -0.43301243, -287292.66, -131670.95, 0.000000004047862, 9.998623, 9.999103 
1.3496527e+2, 2.9411414e+2, -312294.6, -269420.06, 95304.625, 0.0019233258, -0.5481106, -193171.47, -135529.11, 0.0000011638989, 9.998572, 9.999157 
1.3495873e+2, 3.0411497e+2, -136656.56, -100326.586, 68153.375, 0.026442766, -0.41370478, -47958.96, -47958.96, 0.00002379093, 9.999191, 9.999698 
1.3495208e+2, 3.1411558e+2, -27262.934, -156132.8, 84118.03, 0.07484998, -0.31064898, 14262.994, 14262.994, 0.00011909773, 10.000365, 9.9987545 
1.4506221e+2, 1.2413903e+2, -1564435.5, -1739991.9, 52428.688, 0.19590424, -0.23958847, -1549970.0, 173448.27, 0.0014440229, 10.001409, 9.99914 
1.4505535e+2, 1.3413915e+2, -1525086.9, -1804428.4, 51664.043, 0.12866278, -0.04245079, -1515837.9, 109582.96, 0.00083842565, 10.001607, 9.997931 
1.4504771e+2, 1.4413705e+2, -1334953.6, -1591958.9, 81416.68, -0.014667844, -0.072697535, -1311332.5, 216108.45, 0.00035495815, 10.001932, 9.998555 
1.4504267e+2, 1.5413398e+2, -1164191.4, -1472208.6, 81775.67, 0.09696403, -0.24976045, -1143827.0, 285638.06, 0.00008912459, 10.002493, 9.998433 
1.4503692e+2, 1.6413231e+2, -1099204.1, -1385166.1, 125235.56, 0.105552405, -0.257941, -1052112.8, 279366.38, 0.000008328298, 10.002254, 9.998467 
1.4503032e+2, 1.7413218e+2, -1216265.9, -1399737.9, 125770.87, -0.021314017, -0.13338953, -1152329.8, 81153.66, 0.0000000715251, 10.000808, 9.998395 
1.4502408e+2, 1.8413125e+2, -1106915.8, -1170691.3, 106842.78, -0.08345799, -0.11256155, -1027303.7, 108187.88, 0.0, 10.000344, 9.999519 
1.4501828e+2, 1.941293e+2, -875512.4, -1003562.1, 87859.89, -0.06643812, -0.28489575, -830824.1, 206680.27, 0.0, 10.001235, 9.999568 
1.4501242e+2, 2.0412752e+2, -792087.7, -1014165.56, 109879.65, -0.07675975, -0.37531582, -746911.44, 192608.86, 0.0, 10.001589, 9.998643 
1.4500642e+2, 2.1412593e+2, -768826.6, -970211.2, 115418.445, -0.12870088, -0.40360776, -716351.2, 125189.484, 0.0, 10.001147, 9.998486 
1.450014e+2, 2.2412552e+2, -657442.1, -687506.56, 167219.73, -0.1341942, -0.36266872, -504580.3, 238965.38, 0.0, 10.000471, 10.000081 
1.4499778e+2, 2.3412667e+2, -694856.56, -645160.06, 162134.67, -0.06845648, -0.28451973, -505980.63, 139549.27, 0.0, 9.9994955, 10.000173 
1.4499334e+2, 2.4412704e+2, -692885.44, -658727.8, 112442.48, -0.021769105, -0.23643002, -562074.5, -14549.743, 0.0, 9.999123, 9.999582 
1.4498778e+2, 2.5412634e+2, -534419.3, -541516.9, 86078.375, -0.0062215156, -0.2758632, -451816.6, -2282.748, 0.0, 9.999583, 9.99949 
1.4498214e+2, 2.641257e+2, -365609.13, -328326.4, 88354.34, -0.005819485, -0.31769323, -256668.33, 94869.19, 0.0, 9.999719, 10.000218 
1.4497663e+2, 2.74125e+2, -317466.5, -253577.22, 86718.88, -0.0051865904, -0.43194306, -193106.36, 60429.01, 0.0, 9.999366, 10.000234 
1.4497077e+2, 2.8412408e+2, -305767.25, -332714.34, 62628.047, -0.004804234, -0.48720187, -255179.81, -99638.48, 0.000000009906891, 9.999357, 9.999021 
1.4496419e+2, 2.9412335e+2, -130704.61, -192882.45, 54254.76, -0.024190703, -0.4723917, -99262.734, -41708.594, 0.0000010398929, 9.999865, 9.99906 
1.4495774e+2, 3.0412456e+2, 13534.697, -54137.805, 51315.66, -0.043546475, -0.28103855, 41165.42, 41165.42, 0.000019274365, 10.000339, 9.999455 
1.4495297e+2, 3.1412423e+2, 22725.826, -81609.19, 29664.96, 0.12725951, -0.2553126, 30570.473, 30570.473, 0.00010043125, 10.0005045, 9.999187 
1.5506451e+2, 1.2414534e+2, -1515941.9, -1660433.4, 37205.465, 0.24485677, -0.32479766, -1506924.5, 216428.88, 0.0014662774, 10.001498, 9.999645 
1.5505767e+2, 1.3414624e+2, -1479191.3, -1716944.9, 61441.406, 0.17919159, -0.10354592, -1464251.9, 161095.28, 0.0008607167, 10.001636, 9.998522 
1.5504974e+2, 1.4414449e+2, -1312202.0, -1545630.3, 93785.04, -0.022236625, -0.14878891, -1279190.4, 248173.66, 0.00037131715, 10.001936, 9.998872 
1.550444e+2, 1.5414204e+2, -1141744.5, -1429877.5, 110279.78, 0.000049364444, -0.28789374, -1104381.1, 325001.66, 0.00009663115, 10.002513, 9.998713 
1.550386e+2, 1.641401e+2, -1094181.4, -1369554.5, 71181.7, 0.0310291, -0.34350786, -1076869.9, 254529.42, 0.000009881803, 10.002234, 9.998585 
1.5503226e+2, 1.7413852e+2, -1210907.0, -1383712.0, 77654.81, 0.07500034, -0.3751756, -1181138.8, 52277.617, 0.00000020107916, 10.00079, 9.998513 
1.5502594e+2, 1.8413775e+2, -1126329.8, -1209876.9, 127727.24, 0.051270254, -0.33393627, -1033718.5, 101705.56, 0.0, 10.000338, 9.999255 
1.5501963e+2, 1.9413815e+2, -902252.94, -1049908.0, 127833.78, -0.072255425, -0.23895349, -828459.4, 208959.03, 0.0, 10.001202, 9.999264 
1.550133e+2, 2.041378e+2, -781874.3, -985135.3, 92280.5, -0.16347021, -0.17840223, -746229.75, 193192.25, 0.0, 10.00155, 9.998864 
1.5500687e+2, 2.1413629e+2, -755951.2, -930322.3, 103925.53, -0.2148921, -0.22759154, -707483.4, 133955.67, 0.0, 10.00109, 9.998788 
1.5500131e+2, 2.2413503e+2, -667991.2, -696233.44, 126414.625, -0.20387709, -0.28777912, -554911.44, 188538.52, 0.0, 10.000414, 10.00005 
1.5499698e+2, 2.3413405e+2, -707541.4, -660637.4, 132475.2, -0.10987679, -0.41602165, -549554.3, 95898.34, 0.0, 9.999445, 10.0000925 
1.5499197e+2, 2.441338e+2, -725767.0, -717853.1, 120149.79, -0.08279879, -0.40612456, -601595.1, -54141.867, 0.0, 9.999083, 9.999196 
1.5498614e+2, 2.5413448e+2, -574460.3, -609357.1, 110119.62, -0.14270142, -0.26356447, -480415.3, -30963.81, 0.0, 9.999514, 9.999062 
1.5498112e+2, 2.641342e+2, -370495.5, -328377.03, 72203.29, -0.09353243, -0.250919, -274224.53, 77229.76, 0.0, 9.99968, 10.000234 
1.5497732e+2, 2.741323e+2, -328305.6, -257463.16, 79405.48, 0.11497016, -0.48703444, -205936.72, 47528.375, 0.0, 9.999286, 10.000245 
1.5497184e+2, 2.8413182e+2, -312493.94, -336154.56, 74955.48, 0.15160827, -0.49958792, -248440.92, -92972.27, 0.000000005626964, 9.999314, 9.999015 
1.5496376e+2, 2.941337e+2, -141965.53, -201502.66, 84854.67, -0.07321084, -0.2247433, -81809.22, -24351.473, 0.00000084127635, 9.999796, 9.999035 
1.5495646e+2, 3.041347e+2, -29746.27, -127591.414, 54972.516, -0.21568881, -0.03125072, -5079.4707, -5079.4707, 0.000015268795, 10.000282, 9.998967 
1.5495217e+2, 3.141309e+2, 36592.203, -21426.793, 52782.41, -0.032994058, -0.30803487, 67811.72, 67811.72, 0.00008386637, 10.000382, 9.999652 
1.6506582e+2, 1.24152586e+2, -1481055.3, -1642329.9, 89536.39, 0.22107998, -0.3563553, -1441197.1, 282080.88, 0.0014745225, 10.001724, 9.999659 
1.6505978e+2, 1.34153e+2, -1378612.4, -1649304.1, 67268.336, 0.20124722, -0.19894129, -1362817.5, 262459.25, 0.00086981576, 10.002253, 9.998684 
1.6505203e+2, 1.4415132e+2, -1273051.3, -1505957.8, 74664.1, 0.008179561, -0.25356895, -1251171.3, 276122.6, 0.00037795518, 10.002138, 9.999034 
1.6504624e+2, 1.5415034e+2, -1312415.3, -1498657.9, 66864.53, -0.00027655726, -0.26270825, -1290896.1, 138405.22, 0.000098805474, 10.001289, 9.998824 
1.6504003e+2, 1.641489e+2, -1253551.5, -1433208.4, 25803.14, 0.0145740295, -0.2791573, -1249919.0, 81394.89, 0.000009884257, 10.001069, 9.998709 
1.6503334e+2, 1.7414664e+2, -1079495.1, -1303433.8, 22747.725, 0.06715301, -0.39477998, -1077207.8, 156127.9, 0.0000002904704, 10.001615, 9.998663 
1.65027e+2, 1.841455e+2, -960913.0, -1162229.4, 103361.24, 0.06283558, -0.38485354, -917295.0, 218051.83, 0.0, 10.001629, 9.998951 
1.6502115e+2, 1.9414595e+2, -973322.0, -1122836.0, 88553.52, -0.019893257, -0.2507386, -932189.7, 105153.05, 0.0, 10.000885, 9.99891 
1.6501473e+2, 2.0414583e+2, -971760.0, -1054881.0, 40287.49, -0.101078525, -0.15786998, -955438.2, -16093.9, 0.0, 10.0001545, 9.999056 
1.6500749e+2, 2.1414486e+2, -976949.6, -1008978.1, 35226.63, -0.17521626, -0.1770996, -954268.0, -112914.09, 0.0, 9.999455, 9.999035 
1.6500144e+2, 2.241435e+2, -824200.56, -797098.1, 79155.61, -0.18265112, -0.24819537, -730342.1, 13022.603, 0.0, 9.999458, 9.999812 
1.6499694e+2, 2.3414172e+2, -592775.3, -633623.3, 56944.383, -0.10081071, -0.43025634, -552703.0, 92673.66, 0.0, 10.00037, 9.999825 
1.6499184e+2, 2.4414109e+2, -504674.0, -590585.06, 60319.285, -0.072911546, -0.45159405, -473578.25, 73802.375, 0.0, 10.000511, 9.999382 
1.6498594e+2, 2.5414208e+2, -545928.5, -568538.0, 86874.734, -0.11411061, -0.30302402, -469626.1, -20252.549, 0.0, 9.999591, 9.999303 
1.649808e+2, 2.64142e+2, -490547.4, -434561.9, 76574.5, -0.057657536, -0.2631603, -381024.0, -29649.227, 0.0, 9.999054, 9.999809 
1.6497685e+2, 2.741402e+2, -389333.97, -335950.5, 31605.88, 0.15429033, -0.4433237, -321273.4, -67884.18, 0.0, 9.999078, 9.9998 
1.6497134e+2, 2.841396e+2, -283785.75, -296843.53, 56748.758, 0.17248248, -0.4519639, -233191.55, -77796.99, 0.00000000009995645, 9.999405, 9.99924 
1.6496357e+2, 2.9414114e+2, -69956.055, -134388.6, 77140.2, -0.083795674, -0.24071607, -18575.082, 38807.695, 0.00000051342266, 10.000154, 9.999326 
1.649563e+2, 3.041412e+2, -21144.668, -132321.14, 60304.047, -0.25852084, -0.14844719, 5283.132, 5283.132, 0.000011747977, 10.000363, 9.998907 
1.6495237e+2, 3.141377e+2, -9187.175, 26337.178, 63525.688, -0.011976006, -0.39224327, 74537.17, 74537.17, 0.00007014343, 9.999748, 10.000292 
1.7506577e+2, 1.2416066e+2, -1500148.5, -1690571.1, 87452.31, 0.00634797, -0.34524667, -1466080.6, 257112.84, 0.0014574766, 10.001763, 9.999306 
1.7506148e+2, 1.341595e+2, -1391553.9, -1680171.9, 88673.234, 0.13047239, -0.32357347, -1366487.5, 258720.94, 0.00085594517, 10.002272, 9.99846 
1.7505446e+2, 1.4415762e+2, -1273539.5, -1510516.3, 40212.906, 0.020333797, -0.38495857, -1266901.8, 260328.39, 0.0003688444, 10.002149, 9.999002 
1.7504802e+2, 1.5415879e+2, -1311248.0, -1497162.0, 42898.66, 0.028667578, -0.17735846, -1301826.9, 127394.39, 0.00009401229, 10.001295, 9.998833 
1.7504105e+2, 1.6415867e+2, -1241253.8, -1405457.4, 36807.355, -0.008211524, -0.07015639, -1233380.6, 97842.07, 0.000008393363, 10.001058, 9.998906 
1.7503338e+2, 1.7415659e+2, -1065673.4, -1274004.0, 48642.21, -0.10910624, -0.18906729, -1054875.8, 178365.39, 0.00000020811186, 10.001615, 9.998864 
1.7502707e+2, 1.8415459e+2, -984970.3, -1213682.4, 74441.945, -0.10839381, -0.26020682, -962875.25, 172384.1, 0.0, 10.001624, 9.998605 
1.7502262e+2, 1.9415276e+2, -1003094.9, -1180520.3, 67055.47, 0.022438016, -0.31693056, -980603.4, 56673.566, 0.0, 10.000863, 9.998528 
1.7501651e+2, 2.0415166e+2, -966114.3, -1036053.9, 7698.815, 0.04848713, -0.30596018, -965276.9, -25990.26, 0.0, 10.00012, 9.999202 
1.7500813e+2, 2.1415155e+2, -969612.9, -987197.2, 15485.629, -0.07137613, -0.25912374, -960597.5, -119311.66, 0.0, 9.999424, 9.999201 
1.7500153e+2, 2.2415097e+2, -862304.9, -864413.06, 103612.35, -0.13129655, -0.24197382, -759741.25, -16451.166, 0.0, 9.999409, 9.9993725 
1.7499743e+2, 2.3414965e+2, -635917.5, -712154.9, 98456.445, -0.1025615, -0.32925645, -568458.25, 76844.05, 0.0, 10.000316, 9.999312 
1.749927e+2, 2.4414888e+2, -459332.84, -485159.53, 24996.904, -0.052208908, -0.37008512, -444110.8, 103196.16, 0.0, 10.000465, 10.000124 
1.7498702e+2, 2.54149e+2, -497174.97, -451388.47, 56088.23, 0.020642688, -0.3966483, -413701.28, 35599.395, 0.0, 9.999522, 10.000139 
1.749811e+2, 2.64149e+2, -552304.1, -554619.3, 69146.49, 0.054741766, -0.35317916, -484305.53, -133006.16, 0.0, 9.999021, 9.999 
1.74975e+2, 2.7414867e+2, -465819.47, -482660.7, 38982.086, 0.044998027, -0.29476154, -434358.88, -181051.23, 0.0, 9.999024, 9.998819 
1.7496912e+2, 2.8414747e+2, -254947.73, -232652.52, 74515.56, -0.005957737, -0.33388028, -168455.33, -13136.114, 0.0, 9.999385, 9.999691 
1.7496334e+2, 2.9414546e+2, -40560.01, -58502.684, 112399.26, -0.1383677, -0.5282102, 63225.367, 120556.17, 0.00000027417164, 10.000091, 9.999876 
1.7495704e+2, 3.0414397e+2, 5928.965, -70966.58, 36724.69, -0.23376048, -0.6451195, 20650.113, 20650.113, 0.000009335192, 10.00034, 9.999342 
1.7495306e+2, 3.1414467e+2, 32298.85, 140625.33, 58977.12, 0.05184353, -0.5067877, 166536.8, 166536.8, 0.000059812894, 9.999639, 10.001126 
1.8506707e+2, 1.2416859e+2, -1445855.3, -1734337.4, 70437.15, -0.06697517, -0.3428479, -1429575.6, 293536.0, 0.0014119628, 10.00243, 9.998685 
1.8506286e+2, 1.3416697e+2, -1636473.4, -1849537.0, 36372.793, 0.11694333, -0.32153484, -1630435.1, -5301.7183, 0.0008198644, 10.000804, 9.998004 
1.8505596e+2, 1.4416471e+2, -1536456.9, -1635505.5, 22702.572, 0.049587954, -0.39530125, -1531501.3, -4341.1963, 0.0003462985, 10.000321, 9.999026 
1.850499e+2, 1.541661e+2, -1260916.3, -1463431.4, 22316.781, 0.0778227, -0.1739387, -1258486.1, 170663.39, 0.000084445885, 10.001591, 9.998925 
1.8504283e+2, 1.6416623e+2, -1157258.1, -1360152.9, -1333.4059, 0.039791442, -0.052117154, -1157249.4, 173899.8, 0.000006352812, 10.001632, 9.998936 
1.8503444e+2, 1.7416431e+2, -1298652.6, -1386336.8, -17364.543, -0.08024931, -0.15290332, -1295339.0, -62173.207, 0.000000056960435, 10.000018, 9.998866 
1.850277e+2, 1.8416227e+2, -1282981.1, -1349692.8, 49049.902, -0.0987671, -0.22959593, -1257020.0, -121835.93, 0.0, 9.999547, 9.998672 
1.8502317e+2, 1.9416022e+2, -1036195.06, -1188094.9, 66408.99, 0.009097761, -0.3163668, -1011256.2, 25947.236, 0.0, 10.000602, 9.998601 
1.8501706e+2, 2.0415866e+2, -817264.56, -981112.6, 8556.193, 0.0404505, -0.34886757, -816819.0, 122397.74, 0.0, 10.001213, 9.999053 
1.8500878e+2, 2.1415785e+2, -723251.2, -885991.7, -22680.02, -0.03524569, -0.35671583, -720149.56, 121071.68, 0.0, 10.001186, 9.999046 
1.8500207e+2, 2.2415718e+2, -708438.1, -849037.6, 68805.055, -0.07888913, -0.3172061, -680370.25, 62856.88, 0.0, 10.000702, 9.998865 
1.8499772e+2, 2.3415668e+2, -781969.56, -841993.75, 50750.77, -0.06389996, -0.26777557, -753020.94, -107785.74, 0.0, 9.999558, 9.998792 
1.8499272e+2, 2.4415596e+2, -642680.8, -534636.0, -31880.557, -0.02120164, -0.29235932, -525930.5, 21309.162, 0.0, 9.999033, 10.000477 
1.8498681e+2, 2.5415498e+2, -491298.1, -398022.4, -45185.313, 0.061714094, -0.47039455, -379723.34, 69515.195, 0.0, 9.999344, 10.000591 
1.8498066e+2, 2.6415464e+2, -437426.63, -545292.7, 4628.6377, 0.06281746, -0.4697177, -437228.38, -85988.91, 0.0, 10.000006, 9.9985895 
1.8497431e+2, 2.7415496e+2, -191194.02, -403088.1, 4431.5054, -0.026392883, -0.29534015, -191101.38, 62143.727, 0.0, 10.001137, 9.99835 
1.849687e+2, 2.8415394e+2, -1081.9767, -105066.1, 22930.914, -0.06801023, -0.29467914, 3750.264, 159006.17, 0.0, 10.001101, 9.9997425 
1.8496376e+2, 2.9415134e+2, -132853.52, -98934.18, 5575.7593, -0.06890733, -0.5606038, -98041.13, -40770.594, 0.00000021710767, 9.999437, 9.999913 
1.8495744e+2, 3.041487e+2, -216992.8, -187251.92, -76407.17, -0.14659823, -0.78267676, -124281.586, -124281.586, 0.0000079127085, 9.998838, 9.999268 
1.849531e+2, 3.1415024e+2, 19888.682, 115120.03, -112587.01, 0.099827416, -0.5580071, 189746.28, 189746.28, 0.00005116492, 9.999606, 10.000983 
1.9506942e+2, 1.2417635e+2, -1508988.0, -1862493.1, -16234.178, -0.11310136, -0.3490405, -1508244.0, 214788.7, 0.0013384911, 10.002427, 9.997805 
1.9506373e+2, 1.3417527e+2, -1690550.5, -1952481.3, -24245.988, 0.10946621, -0.20233724, -1688325.0, -63272.26, 0.0007672974, 10.000778, 9.997306 
1.9505638e+2, 1.4417256e+2, -1526135.8, -1617805.4, 54360.207, 0.04252066, -0.28950658, -1500866.0, 26218.371, 0.00031672008, 10.00033, 9.999146 
1.950517e+2, 1.5417239e+2, -1247249.8, -1434610.1, 76493.73, 0.081901245, -0.24448395, -1219986.6, 209098.8, 0.000073711046, 10.001589, 9.999123 
1.950452e+2, 1.6417168e+2, -1168324.9, -1383766.3, -57031.797, 0.09947346, -0.21052553, -1154158.8, 176933.17, 0.0000047225935, 10.001627, 9.998779 
1.9503641e+2, 1.7416991e+2, -1310799.4, -1412956.3, -70012.61, 0.098642975, -0.27960327, -1275213.0, -42104.33, 0.0000000036456946, 10.000019, 9.998684 
1.9502877e+2, 1.8416867e+2, -1255057.1, -1288502.0, 74980.305, 0.036501676, -0.28672647, -1194957.1, -59836.945, 0.0, 9.999528, 9.9991045 
1.9502261e+2, 1.9416825e+2, -1004690.8, -1118892.3, 112762.09, -0.12136224, -0.2559749, -935396.2, 101727.05, 0.0, 10.000581, 9.999089 
1.9501615e+2, 2.0416677e+2, -853538.1, -1044361.44, 5727.431, -0.18668158, -0.2907285, -853366.4, 85768.94, 0.0, 10.001162, 9.998641 
1.9500919e+2, 2.1416368e+2, -766212.4, -962563.75, -17082.645, -0.12733956, -0.4762023, -764737.25, 76423.39, 0.0, 10.001132, 9.998547 
1.950029e+2, 2.2416215e+2, -756846.5, -936254.1, 22998.197, -0.07959512, -0.46943018, -753945.3, -10769.734, 0.0, 10.000649, 9.998289 
1.9499758e+2, 2.341628e+2, -830808.25, -929190.94, 13591.8, -0.047182463, -0.24697886, -828965.06, -183789.36, 0.0, 9.999498, 9.998221 
1.9499177e+2, 2.4416225e+2, -653785.0, -545438.2, -30156.863, -0.032803822, -0.22172152, -537610.06, 9569.086, 0.0, 9.9989805, 10.000428 
1.9498515e+2, 2.5416002e+2, -501387.28, -403594.4, -27213.857, -0.053050924, -0.52763706, -396531.44, 52656.223, 0.0, 9.999278, 10.000584 
1.9497931e+2, 2.6415884e+2, -439383.06, -542246.44, 39551.313, -0.08633724, -0.6087835, -425933.9, -74739.04, 0.0, 9.999976, 9.998625 
1.9497465e+2, 2.7415904e+2, -195125.84, -400990.0, 55220.535, -0.12297623, -0.4482317, -181249.02, 71952.57, 0.0, 10.001088, 9.998391 
1.9496992e+2, 2.8415897e+2, -33812.918, -165080.39, -35888.465, -0.07028624, -0.33879945, -24641.777, 130563.38, 0.0, 10.001069, 9.999344 
1.9496469e+2, 2.941587e+2, -182316.08, -180855.2, -50091.984, 0.06539133, -0.32445586, -131488.33, -74286.91, 0.0000002787285, 9.9993515, 9.999392 
1.9495736e+2, 3.041555e+2, -262697.3, -267708.63, -58326.395, -0.050712842, -0.55160004, -206822.78, -206822.78, 0.000006930128, 9.998785, 9.998736 
1.9495207e+2, 3.141545e+2, -60318.766, -25573.957, -74432.36, 0.008243349, -0.53105915, 33486.465, 33486.465, 0.00004299831, 9.99951, 10.000056 
2.0507114e+2, 1.2418235e+2, -1745871.9, -1905098.4, -144577.89, -0.08159388, -0.3629191, -1660436.5, 62538.26, 0.0012408808, 10.000513, 9.99843 
2.0506485e+2, 1.3418196e+2, -1537935.0, -1782855.5, -54574.54, 0.11974032, -0.2344669, -1526324.8, 98658.234, 0.0007023467, 10.001408, 9.998173 
2.0505723e+2, 1.4417939e+2, -1360480.5, -1562207.3, 114234.33, 0.03646245, -0.34413278, -1308953.3, 218057.8, 0.0002832004, 10.001583, 9.998921 
2.050528e+2, 1.5417849e+2, -1359879.1, -1524684.4, 82741.28, 0.06752844, -0.33898935, -1325507.1, 103513.71, 0.000063005726, 10.000972, 9.998801 
2.0504634e+2, 1.6417748e+2, -1287416.0, -1446384.5, -85798.1, 0.09378412, -0.31470326, -1249942.8, 81088.76, 0.0000035155435, 10.000832, 9.998732 
2.0503731e+2, 1.7417611e+2, -1120981.5, -1323405.0, -101241.11, 0.124903075, -0.33913904, -1079037.5, 154007.94, 0.0000000004928599, 10.001334, 9.998664 
2.0502956e+2, 1.8417522e+2, -1012352.2, -1185436.5, 66134.77, 0.080250286, -0.30622745, -989975.4, 145079.45, 0.0, 10.001255, 9.998979 
2.0502351e+2, 1.9417498e+2, -1044707.75, -1154062.4, 45947.695, -0.07649722, -0.2469744, -1027965.2, 9092.584, 0.0, 10.000371, 9.998949 
2.0501715e+2, 2.0417368e+2, -1026402.75, -1126151.1, -59747.57, -0.13857009, -0.25403166, -998448.94, -59380.38, 0.0, 9.999968, 9.998658 
2.0501043e+2, 2.1417092e+2, -905563.75, -1026335.7, -54454.242, -0.064814985, -0.41036707, -884637.2, -43546.613, 0.0, 10.000163, 9.998576 
2.0500383e+2, 2.2416906e+2, -826707.7, -976946.1, 10681.795, -0.025843713, -0.43218967, -825952.0, -82844.875, 0.0, 10.000203, 9.99822 
2.0499751e+2, 2.3416854e+2, -759074.7, -903478.3, 24801.107, -0.027095092, -0.32016382, -754933.9, -109817.87, 0.0, 10.000033, 9.998137 
2.0499139e+2, 2.4416742e+2, -535679.44, -574163.3, 25442.729, -0.024350435, -0.3142186, -523021.75, 24103.54, 0.0, 10.000161, 9.99966 
2.0498542e+2, 2.5416535e+2, -347042.88, -424008.1, -39913.31, -0.023570882, -0.51841617, -330081.97, 119054.125, 0.0, 10.000745, 9.999738 
2.0497973e+2, 2.6416412e+2, -351905.16, -490727.53, -12951.371, -0.06656571, -0.5647625, -350707.22, 438.4398, 0.0, 10.000545, 9.998703 
2.0497459e+2, 2.7416393e+2, -448267.3, -503092.28, -6643.048, -0.14304316, -0.46228528, -447473.84, -194319.17, 0.0, 9.999276, 9.998558 
2.0496996e+2, 2.841639e+2, -344216.84, -338866.34, -80603.805, -0.06820058, -0.34621912, -260893.42, -105735.21, 0.0, 9.999044, 9.9991255 
2.0496553e+2, 2.9416427e+2, -67903.87, -152069.25, -85144.41, 0.17474373, -0.24124794, -15010.126, 42141.03, 0.00000036340376, 10.000256, 9.999151 
2.0495789e+2, 3.0416122e+2, 50499.31, -113529.55, -30299.037, 0.021913094, -0.44118086, 55917.13, 55917.13, 0.000006339283, 10.000934, 9.99876 
2.0495157e+2, 3.1415954e+2, 75543.55, 2269.6353, -42492.15, -0.042349238, -0.4968047, 95012.29, 95012.29, 0.00003635789, 10.000634, 9.999693 
2.150718e+2, 1.24186695e+2, -1598254.6, -1602262.6, -133762.61, -0.100093745, -0.3818503, -1466481.0, 256455.9, 0.0011227193, 10.000525, 10.0005045 
2.1506608e+2, 1.341872e+2, -1361390.0, -1427205.0, -16266.612, 0.0842996, -0.4042117, -1357589.1, 267333.63, 0.0006268979, 10.0014515, 10.000597 
2.1505827e+2, 1.4418532e+2, -1402773.9, -1655422.4, 87096.17, -0.037061617, -0.54445034, -1375659.0, 151280.25, 0.0002465844, 10.001604, 9.998274 
2.15053e+2, 1.5418439e+2, -1418787.3, -1651209.4, 64858.633, -0.026623208, -0.4538404, -1401913.3, 27042.387, 0.000052325075, 10.000988, 9.997927 
2.150461e+2, 1.6418357e+2, -1284612.8, -1436888.5, -77177.83, -0.030256588, -0.36562923, -1252337.5, 78630.805, 0.000002586899, 10.000814, 9.998806 
2.1503697e+2, 1.7418289e+2, -1111292.8, -1300190.9, -76295.02, -0.05628224, -0.33985618, -1084327.0, 148649.4, 0.000000000052014764, 10.001324, 9.998826 
2.1502991e+2, 1.8418185e+2, -1065543.1, -1291157.8, 31656.82, -0.02364861, -0.29608896, -1061185.4, 73803.266, 0.0, 10.00123, 9.998268 
2.1502565e+2, 1.9418031e+2, -1100053.8, -1266017.3, 18722.496, 0.08536735, -0.28862938, -1097967.9, -60960.62, 0.0, 10.000356, 9.998189 
2.1501994e+2, 2.0417944e+2, -1000424.2, -1064684.3, -61334.47, 0.13030154, -0.23275825, -963313.6, -24297.59, 0.0, 9.999935, 9.999095 
2.1501225e+2, 2.1417949e+2, -874777.44, -948825.5, -42378.01, 0.08721652, -0.16094662, -855528.25, -14516.749, 0.0, 10.000103, 9.999137 
2.1500467e+2, 2.2417785e+2, -804369.44, -915256.25, -706.0969, 0.02638963, -0.21354307, -804365.0, -61342.15, 0.0, 10.000139, 9.998674 
2.1499735e+2, 2.3417391e+2, -740191.8, -844754.7, 26101.879, -0.059276305, -0.48973712, -734038.2, -88981.84, 0.0, 9.99995, 9.99858 
2.1499144e+2, 2.4417144e+2, -645900.8, -794668.4, 40181.492, -0.048623472, -0.571078, -635741.75, -88663.54, 0.0, 10.000126, 9.998163 
2.1498746e+2, 2.5417104e+2, -474700.7, -670739.5, -12552.869, 0.09016929, -0.438369, -473900.16, -24816.52, 0.0, 10.000667, 9.998082 
2.1498178e+2, 2.6417047e+2, -352821.7, -483112.56, -60687.7, 0.06990792, -0.3339331, -328933.84, 22157.857, 0.0, 10.000504, 9.998772 
2.1497394e+2, 2.7416947e+2, -446514.28, -482809.53, -47750.8, -0.15130697, -0.3346713, -413578.88, -160473.77, 0.0, 9.999202, 9.998733 
2.1496858e+2, 2.8416854e+2, -344046.47, -326805.25, -49091.336, -0.12345684, -0.31820008, -285583.34, -130467.49, 0.0, 9.998998, 9.9992285 
2.1496616e+2, 2.9416803e+2, -69989.57, -147170.61, -32923.363, 0.19465815, -0.31780925, -57853.61, -733.3009, 0.0000004878426, 10.000214, 9.999207 
2.1495889e+2, 3.0416587e+2, 85412.8, -40079.71, -38305.363, 0.017096313, -0.45244548, 96181.125, 96181.125, 0.0000063211505, 10.000926, 9.999271 
2.1495134e+2, 3.1416547e+2, 67981.07, 832.6751, -53155.164, -0.16122009, -0.43728098, 97277.36, 97277.36, 0.0000317033, 10.000565, 9.9997225 
2.2507298e+2, 1.2419137e+2, -1649562.3, -1592346.6, -57914.84, 0.00069570396, -0.4091549, -1556359.3, 166532.38, 0.0009915447, 10.000003, 10.000833 
2.2506756e+2, 1.3419239e+2, -1373819.4, -1367933.6, -93908.555, 0.11062985, -0.44038528, -1276921.8, 347948.7, 0.000545711, 10.001097, 10.001166 
2.2505961e+2, 1.4419116e+2, -1428484.8, -1661400.1, -81722.89, -0.04901735, -0.5482594, -1402671.5, 124208.26, 0.00020902291, 10.001395, 9.99834 
2.2505367e+2, 1.5419032e+2, -1458797.9, -1667878.4, -50247.516, -0.041627634, -0.45278722, -1447349.0, -18452.555, 0.000042237294, 10.000698, 9.997957 
2.2504678e+2, 1.6418965e+2, -1293091.6, -1442342.5, -97145.91, -0.03624168, -0.352244, -1245216.9, 85691.95, 0.0000020119714, 10.000758, 9.998798 
2.2503865e+2, 1.741891e+2, -1049304.6, -1276306.8, -119324.96, -0.039349027, -0.30809078, -998121.3, 234794.88, 0.0, 10.001767, 9.998782 
2.250318e+2, 1.8418808e+2, -961556.5, -1249282.9, -43927.17, 0.008344942, -0.25784093, -954999.56, 179929.28, 0.0, 10.001984, 9.998188 
2.2502667e+2, 1.9418639e+2, -1007190.94, -1231233.3, -21285.44, 0.12053543, -0.25761136, -1005186.6, 31762.154, 0.0, 10.001049, 9.99809 
2.2502057e+2, 2.0418528e+2, -921293.4, -1049284.5, -48315.934, 0.17054686, -0.21127693, -905102.5, 33857.633, 0.0, 10.000574, 9.998897 
2.2501314e+2, 2.1418492e+2, -799782.56, -934485.25, -91145.12, 0.13838626, -0.16045523, -753804.1, 87156.06, 0.0, 10.0007105, 9.998944 
2.2500575e+2, 2.2418316e+2, -682814.94, -853727.94, -86997.12, 0.0822302, -0.21840915, -646323.44, 96649.43, 0.0, 10.000959, 9.998703 
2.2499852e+2, 2.3417936e+2, -543200.44, -743421.9, -103983.76, 0.0022509964, -0.48262173, -498968.6, 146035.23, 0.0, 10.001276, 9.998635 
2.2499259e+2, 2.4417713e+2, -543662.44, -770361.0, -62743.31, 0.016636832, -0.5326699, -527455.6, 19568.201, 0.0, 10.000934, 9.997946 
2.2498836e+2, 2.541771e+2, -627467.4, -769905.7, -20524.404, 0.16390155, -0.3437629, -624568.94, -175540.19, 0.0, 9.999724, 9.997858 
2.2498222e+2, 2.6417646e+2, -526717.9, -522741.47, 7051.6914, 0.13632818, -0.25065178, -517403.06, -166366.22, 0.0, 9.999118, 9.999167 
2.2497371e+2, 2.741749e+2, -386079.38, -401698.66, 26897.164, -0.09981887, -0.35150552, -365881.0, -112830.414, 0.0, 9.99939, 9.999199 
2.2496806e+2, 2.8417373e+2, -257267.97, -309563.84, 83157.484, -0.104602255, -0.37526798, -196244.34, -41181.68, 0.00000000075483947, 9.999688, 9.999022 
2.249659e+2, 2.941734e+2, -126307.22, -209133.78, 61783.54, 0.16325057, -0.3277032, -93341.305, -36271.67, 0.00000073344995, 9.99997, 9.998902 
2.24959e+2, 3.0417216e+2, 8367.506, -55392.547, 19778.992, -0.029240316, -0.3612272, 14004.736, 14004.736, 0.000007274646, 10.000294, 9.999469 
2.2495219e+2, 3.1417137e+2, 89918.63, 34565.223, -59151.094, -0.12620702, -0.41411406, 127547.766, 127547.766, 0.000030117351, 10.000594, 9.999948 
2.3507437e+2, 1.2419627e+2, -1735499.6, -1783478.4, -50035.438, 0.10166334, -0.4559844, -1703999.9, 18840.725, 0.0008595536, 10.000066, 9.99949 
2.3506908e+2, 1.3419737e+2, -1455233.0, -1550535.5, -55997.277, 0.13693424, -0.3482683, -1429356.4, 195471.19, 0.00046458573, 10.001145, 9.999896 
2.35061e+2, 1.4419672e+2, -1373201.5, -1538557.6, -110025.13, -0.06277438, -0.36986756, -1318252.5, 208581.89, 0.00017252294, 10.001366, 9.999196 
2.3505454e+2, 1.5419622e+2, -1381985.1, -1514864.6, -69923.57, -0.042715564, -0.34244302, -1351970.0, 76873.7, 0.000033446406, 10.000725, 9.998995 
2.3504822e+2, 1.641956e+2, -1306635.1, -1467152.5, -70771.98, 0.016448393, -0.2832665, -1279888.5, 50964.96, 0.0000017722703, 10.000746, 9.998636 
2.3504217e+2, 1.7419474e+2, -1064581.6, -1306291.0, -75310.836, 0.120220326, -0.24845378, -1043036.94, 189828.28, 0.0000000001389195, 10.00176, 9.998582 
2.3503502e+2, 1.8419388e+2, -933007.75, -1178736.9, -78700.016, 0.117924884, -0.19314426, -909963.5, 224911.9, 0.0, 10.001936, 9.998697 
2.3502634e+2, 1.9419312e+2, -970590.4, -1149816.8, -52974.926, -0.03147253, -0.15400943, -956103.3, 80779.76, 0.0, 10.001024, 9.998662 
2.350188e+2, 2.041911e+2, -982873.4, -1164874.4, -51510.34, -0.075239584, -0.19576201, -969306.2, -30404.445, 0.0, 10.000523, 9.998127 
2.3501287e+2, 2.141872e+2, -869479.2, -1067962.9, -79133.64, 0.026381262, -0.41041437, -841791.6, -855.1076, 0.0, 10.000659, 9.998054 
2.350069e+2, 2.2418496e+2, -722592.4, -921119.1, -79035.19, 0.088850945, -0.44674206, -694970.9, 47986.03, 0.0, 10.000898, 9.99827 
2.3500086e+2, 2.3418495e+2, -581174.44, -805331.2, -86016.21, 0.09376403, -0.29250237, -551971.7, 92986.44, 0.0, 10.001203, 9.998248 
2.3499453e+2, 2.4418448e+2, -473384.13, -612111.6, -109874.88, 0.10448127, -0.19889276, -412810.13, 134152.64, 0.0, 10.000882, 9.999054 
2.3498785e+2, 2.5418335e+2, -553552.3, -598541.25, -59776.727, 0.12758099, -0.23776591, -512177.7, -63205.508, 0.0, 9.999648, 9.999071 
2.349809e+2, 2.64182e+2, -479868.03, -415569.78, 7823.8364, 0.079507396, -0.31615895, -414631.47, -63650.125, 0.0, 9.999077, 9.999923 
2.349737e+2, 2.7418017e+2, -343617.75, -298664.06, 45314.22, -0.055698734, -0.51780033, -270558.4, -17566.717, 0.0, 9.999324, 9.99994 
2.3496817e+2, 2.8417942e+2, -299989.6, -388401.72, 89044.6, -0.07826606, -0.51649326, -244781.78, -89783.09, 0.00000003119879, 9.999649, 9.998498 
2.3496453e+2, 2.941804e+2, -184593.78, -314048.2, 79625.375, 0.013543187, -0.27391854, -146706.13, -89706.75, 0.0000012360658, 9.999896, 9.99822 
2.3495795e+2, 3.041801e+2, -2882.9133, -66414.45, 29467.771, -0.17705558, -0.17080443, 8680.449, 8680.449, 0.000009095323, 10.000243, 9.999418 
2.349537e+2, 3.1417733e+2, 107598.5, 90795.29, -49188.734, -0.06308131, -0.42131308, 149097.98, 149097.98, 0.00003154515, 10.00051, 10.000376 
2.450754e+2, 1.2420204e+2, -1582236.5, -1772244.5, 7781.337, 0.14020467, -0.4682986, -1581918.4, 140863.83, 0.0007335385, 10.001394, 9.998926 
2.450702e+2, 1.3420302e+2, -1513803.9, -1641570.0, 46703.426, 0.14608793, -0.3161281, -1498552.6, 126221.75, 0.00038622954, 10.00102, 9.999331 
2.4506223e+2, 1.4420249e+2, -1432597.9, -1563946.8, -10423.805, -0.053081974, -0.2969012, -1431775.9, 95006.03, 0.00013762695, 10.000941, 9.999222 
2.4505581e+2, 1.5420157e+2, -1291195.4, -1462544.8, -56174.8, -0.012185386, -0.31862977, -1274421.3, 154372.84, 0.000025817635, 10.001324, 9.99906 
2.450496e+2, 1.6420087e+2, -1209095.4, -1392169.8, -60179.43, 0.055015545, -0.28252092, -1191085.3, 139718.2, 0.0000016011192, 10.001294, 9.998885 
2.4504381e+2, 1.7420031e+2, -1214588.5, -1349773.9, -37060.06, 0.17089151, -0.24287896, -1205095.4, 27714.83, 0.0000000006420841, 10.000607, 9.998837 
2.4503653e+2, 1.8419953e+2, -1150891.8, -1273607.6, -38174.68, 0.1571909, -0.19993375, -1139985.6, -5166.948, 0.0, 10.000397, 9.998785 
2.4502715e+2, 1.9419841e+2, -1000838.7, -1156508.8, -61556.87, -0.035990298, -0.20496707, -979438.94, 57390.313, 0.0, 10.000781, 9.99873 
2.4501953e+2, 2.0419626e+2, -887365.1, -1122414.3, -28115.46, -0.08515717, -0.2603245, -884048.9, 54800.14, 0.0, 10.001195, 9.9980955 
2.450144e+2, 2.1419269e+2, -748358.3, -1012729.94, -3502.6904, 0.075563625, -0.43862638, -748311.94, 92569.35, 0.0, 10.0015135, 9.99802 
2.4500859e+2, 2.2419067e+2, -689757.4, -932738.1, 25491.816, 0.15615247, -0.43997988, -687111.75, 55789.24, 0.0, 10.001237, 9.998029 
2.4500187e+2, 2.3419075e+2, -758222.06, -917856.1, 18674.582, 0.1315439, -0.25124612, -756066.56, -111162.7, 0.0, 10.000106, 9.998003 
2.4499491e+2, 2.4419023e+2, -593779.7, -640197.7, -2928.3677, 0.10438647, -0.16110209, -593595.7, -46686.23, 0.0, 9.9999275, 9.999323 
2.4498774e+2, 2.5418887e+2, -323311.22, -452605.06, -33558.05, 0.083983205, -0.25789925, -315120.2, 133799.0, 0.0, 10.00108, 9.999385 
2.449806e+2, 2.6418734e+2, -166473.97, -294941.22, -37406.36, 0.03197089, -0.35637137, -156375.94, 194553.03, 0.0, 10.001352, 9.999662 
2.4497364e+2, 2.741856e+2, -207978.34, -264676.7, -90070.03, -0.041381165, -0.5158764, -141901.42, 111037.94, 0.0, 10.000399, 9.999653 
2.4496809e+2, 2.8418508e+2, -282444.16, -350963.1, -38197.723, -0.045991, -0.4910963, -265393.03, -110448.73, 0.00000009388162, 9.999647, 9.9987545 
2.4496403e+2, 2.9418623e+2, -268910.88, -317058.72, 10438.467, 0.014641413, -0.2584871, -266745.22, -209804.39, 0.0000018075962, 9.999165, 9.998548 
2.4495806e+2, 3.041859e+2, -172975.75, -192204.52, 31714.074, -0.13557531, -0.1635744, -149450.75, -149450.75, 0.000010445255, 9.999271, 9.999021 
2.449555e+2, 3.141821e+2, 61920.3, 89047.78, -123112.82, 0.09047431, -0.47403944, 199341.8, 199341.8, 0.00003251449, 10.0001335, 10.000535 
2.5507572e+2, 1.2420879e+2, -1561265.3, -1740780.6, -37426.61, -0.0022757004, -0.43910393, -1553774.9, 168940.38, 0.0006147494, 10.00144, 9.999123 
2.5507078e+2, 1.3420928e+2, -1496708.4, -1612867.0, 35766.133, 0.08703689, -0.35324755, -1486579.0, 138132.17, 0.00031221876, 10.001051, 9.999513 
2.550632e+2, 1.442084e+2, -1490571.0, -1687783.8, -4363.566, -0.06805092, -0.3372178, -1490474.5, 36247.875, 0.00010529937, 10.000954, 9.998366 
2.550572e+2, 1.5420632e+2, -1351976.1, -1593484.0, -35258.17, -0.024993662, -0.38727742, -1346934.0, 81814.48, 0.000019009012, 10.00134, 9.998154 
2.5505063e+2, 1.642054e+2, -1166624.8, -1298294.9, -87599.39, 0.0138478745, -0.355062, -1122879.3, 207880.03, 0.0000013062046, 10.001273, 9.999539 
2.5504342e+2, 1.7420594e+2, -1158591.6, -1233102.5, -57039.88, 0.05343167, -0.28245392, -1127718.4, 105032.14, 0.000000000635992, 10.000608, 9.999634 
2.550362e+2, 1.8420507e+2, -1177707.6, -1324785.3, -31971.168, 0.06937066, -0.27535284, -1171058.5, -36300.492, 0.0, 10.000376, 9.998446 
2.5502893e+2, 1.9420218e+2, -1032593.5, -1218458.5, -41611.938, 0.045957603, -0.417239, -1023702.56, 13085.495, 0.0, 10.000761, 9.998316 
2.550226e+2, 2.0420071e+2, -851323.44, -1032563.6, -20865.209, 0.08930625, -0.41040093, -848952.4, 89850.22, 0.0, 10.001131, 9.998743 
2.550175e+2, 2.142012e+2, -702067.7, -907734.9, 14367.703, 0.21726799, -0.25656387, -701068.8, 139727.19, 0.0, 10.001472, 9.998762 
2.550106e+2, 2.2420007e+2, -697666.9, -936038.1, -19095.707, 0.22030972, -0.20846379, -696146.8, 46659.934, 0.0, 10.00118, 9.998034 
2.550013e+2, 2.3419668e+2, -770159.0, -931340.0, -18108.434, 0.051535208, -0.3650886, -768149.56, -123307.625, 0.0, 10.000053, 9.997936 
2.5499353e+2, 2.4419439e+2, -641651.44, -729134.5, 28724.496, -0.039700273, -0.4218452, -633063.06, -86198.74, 0.0, 9.999886, 9.998731 
2.549878e+2, 2.5419348e+2, -377105.34, -548840.3, 14460.77, -0.032455508, -0.40646932, -375896.2, 72974.07, 0.0, 10.00101, 9.998758 
2.5498116e+2, 2.641924e+2, -261463.16, -482718.38, -72821.1, -0.06128717, -0.36937258, -239646.89, 111233.33, 0.0, 10.001311, 9.998394 
2.5497338e+2, 2.741911e+2, -310672.66, -463476.4, -119673.58, -0.12418602, -0.35425296, -245092.11, 7803.26, 0.0, 10.00033, 9.998326 
2.5496763e+2, 2.8419057e+2, -216299.02, -198245.48, -65862.97, -0.0723393, -0.3060518, -140793.58, 14107.412, 0.00000013919723, 9.999588, 9.999828 
2.549641e+2, 2.941909e+2, -188736.42, -130051.34, -3469.416, 0.09222328, -0.28539577, -129846.945, -72951.67, 0.0000021199414, 9.99908, 9.999871 
2.5495914e+2, 3.0418935e+2, -229224.67, -302248.6, 57126.125, 0.031419992, -0.34605145, -197939.02, -197939.02, 0.000010666905, 9.999242, 9.99828 
2.549571e+2, 3.1418532e+2, 34406.668, 49337.22, -88226.125, 0.20715873, -0.5847973, 130413.34, 130413.34, 0.00003213242, 10.000054, 10.000304 
2.6507697e+2, 1.2421529e+2, -1629967.5, -1753600.8, -73578.59, 0.012510872, -0.37748462, -1595684.8, 126969.49, 0.0005062773, 10.000878, 9.999299 
2.6507217e+2, 1.3421512e+2, -1421592.4, -1568210.6, -16426.365, 0.10553786, -0.37049994, -1419774.6, 204881.52, 0.0002464049, 10.001513, 9.999602 
2.6506478e+2, 1.4421448e+2, -1397298.6, -1638972.4, -17636.645, -0.03097385, -0.33604357, -1396018.3, 130645.98, 0.00007758306, 10.001585, 9.998397 
2.6505873e+2, 1.5421277e+2, -1365854.5, -1595615.5, 7673.5835, 0.004834253, -0.35074908, -1365598.5, 63086.84, 0.000013419433, 10.001227, 9.998194 
2.6505187e+2, 1.642117e+2, -1204657.5, -1332014.5, -31706.078, 0.026448784, -0.3302166, -1197200.8, 133496.1, 0.0000010267595, 10.001076, 9.999407 
2.65044e+2, 1.7421138e+2, -1091232.1, -1217286.5, -83199.3, 0.02854359, -0.32880604, -1049882.4, 182813.83, 0.0000000012219834, 10.001139, 9.99949 
2.650368e+2, 1.8421012e+2, -1055999.0, -1292554.9, -59279.453, 0.04834657, -0.3402299, -1041975.3, 92732.18, 0.0, 10.001326, 9.99821 
2.650306e+2, 1.9420762e+2, -927669.6, -1196468.9, -66034.95, 0.09674501, -0.41762236, -912323.2, 124412.055, 0.0, 10.001607, 9.99806 
2.6502445e+2, 2.0420654e+2, -824724.2, -1002966.56, -72037.57, 0.15885103, -0.36639538, -799250.5, 139496.8, 0.0, 10.001252, 9.998882 
2.6501837e+2, 2.1420737e+2, -911484.8, -991954.8, -95451.85, 0.23742573, -0.19514306, -848134.5, -7396.0015, 0.0, 9.999969, 9.998906 
2.6501095e+2, 2.2420637e+2, -875105.1, -976225.7, -111311.13, 0.21041805, -0.15956976, -803409.44, -60661.844, 0.0, 9.999766, 9.99844 
2.6500177e+2, 2.3420297e+2, -604471.0, -805868.06, -87852.734, 0.049321998, -0.3563853, -571534.6, 73246.18, 0.0, 10.000996, 9.998347 
2.64994e+2, 2.4420062e+2, -456321.78, -667845.9, 1075.9017, -0.050204374, -0.42908165, -456316.3, 90486.555, 0.0, 10.001277, 9.998483 
2.6498803e+2, 2.541996e+2, -507779.66, -641776.3, 5819.3257, -0.06712972, -0.39685178, -507527.4, -58716.7, 0.0, 10.000251, 9.998481 
2.6498145e+2, 2.641985e+2, -530364.44, -655294.3, -44715.145, -0.0759687, -0.33097166, -516009.34, -165186.6, 0.0, 9.999651, 9.998004 
2.649741e+2, 2.7419743e+2, -435101.44, -567869.8, -35726.75, -0.04870756, -0.25391322, -426098.22, -173259.11, 0.0, 9.99967, 9.997924 
2.6496795e+2, 2.841966e+2, -217080.7, -186323.55, 35131.47, 0.011144207, -0.21828882, -163352.16, -8504.767, 0.00000017298198, 9.999525, 9.999942 
2.6496306e+2, 2.9419577e+2, -175762.64, -98984.71, -39.823586, 0.08554777, -0.33118698, -98984.69, -42136.586, 0.0000022646286, 9.999057, 10.000095 
2.6495817e+2, 3.0419353e+2, -257177.58, -314007.47, 99479.3, 0.02752251, -0.47615752, -182134.61, -182134.61, 0.000010678338, 9.999027, 9.99831 
2.649573e+2, 3.1419212e+2, -13989.143, 64241.504, -766.488, 0.25576273, -0.45155716, 64249.01, 64249.01, 0.000032089163, 9.999541, 10.000658 
2.750788e+2, 1.24221385e+2, -1614041.4, -1729886.9, -80094.28, 0.06565107, -0.29464522, -1573120.1, 149480.22, 0.00041453895, 10.000914, 9.999445 
2.7507406e+2, 1.3422059e+2, -1410946.9, -1555524.9, 6992.6455, 0.122310035, -0.35927847, -1410609.4, 213999.1, 0.00019313562, 10.001552, 9.999668 
2.7506676e+2, 1.4422083e+2, -1333567.8, -1510428.8, -38230.695, -0.012098658, -0.28195867, -1325657.5, 200948.78, 0.000056136425, 10.001601, 9.999271 
2.750603e+2, 1.54221e+2, -1298748.4, -1457354.4, 857.2937, 0.021812055, -0.20202604, -1298743.8, 129860.86, 0.000009372096, 10.001236, 9.999138 
2.7505323e+2, 1.6421977e+2, -1266725.1, -1461510.4, -37762.066, 0.03695952, -0.20563188, -1259660.5, 70955.8, 0.0000008660051, 10.001078, 9.998513 
2.7504528e+2, 1.7421655e+2, -1167674.6, -1373489.5, -75474.1, 0.024433367, -0.39208817, -1142964.4, 89683.36, 0.000000004874734, 10.001133, 9.998416 
2.750381e+2, 1.842147e+2, -1074328.5, -1319984.0, -54874.85, 0.030307423, -0.39658445, -1062627.8, 72039.625, 0.0, 10.001283, 9.998041 
2.750319e+2, 1.9421484e+2, -936638.25, -1206736.0, -48562.277, 0.0509643, -0.20381643, -928172.4, 108497.69, 0.0, 10.001576, 9.998001 
2.7502492e+2, 2.0421386e+2, -859420.06, -1066654.0, -121164.99, 0.07090814, -0.12000166, -803608.56, 135073.5, 0.0, 10.001211, 9.99847 
2.7501687e+2, 2.1421115e+2, -948941.2, -1057202.6, -137263.36, 0.07773668, -0.25679284, -855520.7, -14811.93, 0.0, 9.999911, 9.998487 
2.7500948e+2, 2.2420956e+2, -835648.75, -877336.8, -77168.14, 0.07774073, -0.2925619, -776559.06, -33835.496, 0.0, 9.999692, 9.999157 
2.7500302e+2, 2.3420951e+2, -556048.3, -689990.4, -35702.344, 0.06473538, -0.23532616, -547126.2, 97595.71, 0.0, 10.000927, 9.999178 
2.7499604e+2, 2.442088e+2, -455083.5, -649629.44, -36499.207, 0.017647974, -0.19428988, -448461.22, 98265.33, 0.0, 10.001216, 9.998634 
2.749883e+2, 2.542071e+2, -513693.22, -637887.4, -27468.352, -0.08486279, -0.24051626, -507889.2, -59147.73, 0.0, 10.000177, 9.998545 
2.7498132e+2, 2.6420557e+2, -505299.03, -587336.8, -54315.516, -0.06772473, -0.2421678, -478253.8, -127496.98, 0.0, 9.999587, 9.998501 
2.749756e+2, 2.7420443e+2, -407291.34, -496490.16, -27499.309, 0.11808184, -0.22125606, -399494.97, -146723.48, 0.00000000009324417, 9.999611, 9.998443 
2.7496895e+2, 2.8420302e+2, -279254.4, -308588.22, 14446.465, 0.14438331, -0.23468722, -273334.47, -118549.96, 0.00000023612336, 9.999495, 9.999115 
2.7496064e+2, 2.9420072e+2, -249240.16, -236760.64, -11167.624, -0.08510312, -0.40067688, -230207.81, -173407.53, 0.0000024951785, 9.998986, 9.999186 
2.749548e+2, 3.0419838e+2, -200680.67, -179594.52, 111684.62, -0.22456153, -0.5516667, -77956.45, -77956.45, 0.000011113361, 9.998969, 9.999251 
2.7495566e+2, 3.1420246e+2, 28288.857, 186723.45, 23504.207, 0.10425389, -0.08741163, 190136.83, 190136.83, 0.000032683794, 9.999399, 10.001563 
2.8508103e+2, 1.2422827e+2, -1435639.9, -1684831.1, 26918.861, 0.13319802, -0.28751603, -1432765.3, 289767.72, 0.0003410361, 10.002323, 9.999069 
2.850752e+2, 1.3422719e+2, -1561194.5, -1689572.1, 46320.375, 0.1271331, -0.32182354, -1546226.6, 78320.164, 0.00015204525, 10.0008, 9.999102 
2.8506765e+2, 1.442274e+2, -1521057.1, -1571619.9, -7615.3394, -0.0055428203, -0.22882523, -1519935.0, 6610.2925, 0.000040681283, 10.000186, 9.9995365 
2.850612e+2, 1.5422718e+2, -1324121.6, -1432401.0, -25472.824, 0.013226741, -0.21898785, -1318428.5, 110115.97, 0.0000066741927, 10.000891, 9.999482 
2.850542e+2, 1.6422589e+2, -1297713.1, -1532067.4, -75293.11, 0.029907404, -0.22648816, -1275608.0, 54949.125, 0.00000074756446, 10.001116, 9.998013 
2.8504643e+2, 1.7422287e+2, -1266510.0, -1488248.4, -93304.92, 0.048129607, -0.3311434, -1232473.1, 117.20526, 0.000000006090155, 10.000742, 9.997826 
2.850393e+2, 1.8422113e+2, -1158361.9, -1324183.6, -11469.438, 0.063634865, -0.30776197, -1157572.3, -22962.664, 0.0, 10.000555, 9.998359 
2.8503308e+2, 1.942212e+2, -1052383.1, -1221224.9, 16801.08, 0.06622663, -0.15879984, -1050727.5, -14117.767, 0.0, 10.000601, 9.998374 
2.850257e+2, 2.0422003e+2, -940900.75, -1122313.5, -45439.5, 0.054464478, -0.106964074, -930155.7, 8466.655, 0.0, 10.000723, 9.998316 
2.8501666e+2, 2.1421705e+2, -822999.5, -1019490.94, -58520.78, 0.018692438, -0.25134698, -806890.94, 33762.42, 0.0, 10.000881, 9.998274 
2.8500912e+2, 2.2421539e+2, -666103.5, -798372.56, 35323.324, 0.016426103, -0.2816515, -657261.3, 85408.516, 0.0, 10.000874, 9.9991255 
2.8500375e+2, 2.3421551e+2, -602310.5, -712101.0, 6624.133, 0.063754946, -0.20573321, -601912.25, 42753.78, 0.0, 10.000613, 9.999173 
2.8499722e+2, 2.4421501e+2, -561115.4, -676230.2, -50291.117, 0.061118618, -0.15462631, -542239.5, 4429.016, 0.0, 10.000371, 9.998861 
2.849892e+2, 2.5421366e+2, -495700.16, -601360.2, -45242.05, -0.005905065, -0.19190831, -478975.5, -30295.578, 0.0, 10.00018, 9.998795 
2.8498176e+2, 2.642122e+2, -424976.56, -532448.8, -44682.543, -0.003699285, -0.20972233, -408826.38, -58131.957, 0.0, 10.000066, 9.998648 
2.8497535e+2, 2.7421066e+2, -343584.94, -446671.03, -57504.625, 0.119857304, -0.24277672, -317904.47, -65192.555, 0.0000000018932573, 9.999967, 9.998612 
2.8496853e+2, 2.8420925e+2, -210478.86, -281038.06, 6976.4478, 0.12987302, -0.26158613, -209795.69, -55071.617, 0.00000028816427, 9.99999, 9.99907 
2.8496066e+2, 2.942076e+2, -64378.203, -145644.6, 39400.758, -0.03668918, -0.35623616, -48412.137, 8321.036, 0.0000027347362, 10.000254, 9.999201 
2.8495446e+2, 3.0420518e+2, -80799.77, -84725.695, 164666.3, -0.1824595, -0.53730905, 81915.26, 81915.26, 0.000011990512, 9.9996195, 9.999595 
2.8495285e+2, 3.1421027e+2, -288928.47, 5644.222, -11356.933, -0.0037170148, 0.002049332, 6081.4277, 6081.4277, 0.000033758955, 9.997343, 10.001307 
2.9508308e+2, 1.24236114e+2, -1494107.3, -1826400.5, -61344.227, 0.062331885, -0.3433164, -1483144.3, 239306.22, 0.00028049768, 10.002394, 9.998071 
2.950755e+2, 1.3423494e+2, -1645830.4, -1880706.4, -10232.403, 0.05416604, -0.25933707, -1645385.5, -20914.363, 0.000119661214, 10.00086, 9.997763 
2.9506734e+2, 1.4423414e+2, -1537037.1, -1615134.4, 1395.8632, -0.07675027, -0.18164699, -1537012.3, -10529.997, 0.000029635712, 10.000224, 9.999223 
2.9506123e+2, 1.5423143e+2, -1341821.1, -1469443.3, 5480.504, -0.09501126, -0.39773637, -1341586.3, 86918.4, 0.0000047316526, 10.000891, 9.9992285 
2.9505458e+2, 1.642301e+2, -1311091.6, -1555253.3, -91090.64, -0.05795048, -0.38638017, -1280852.9, 49665.7, 0.00000054097734, 10.001099, 9.997859 
2.9504722e+2, 1.7423046e+2, -1273318.6, -1503925.0, -98319.766, 0.03882199, -0.14089684, -1237091.0, -4568.3364, 0.0000000012704189, 10.000755, 9.997706 
2.9504025e+2, 1.8422948e+2, -1105995.8, -1215190.0, -16158.982, 0.08809336, -0.070928104, -1103654.6, 30879.148, 0.0, 10.000549, 9.999113 
2.9503396e+2, 1.9422667e+2, -999475.5, -1105991.9, 24829.969, 0.07542306, -0.28988543, -993971.75, 42583.043, 0.0, 10.000576, 9.999177 
2.9502648e+2, 2.0422503e+2, -945239.06, -1116129.4, -43904.137, 0.047131278, -0.33099347, -934619.44, 3949.3132, 0.0, 10.00066, 9.998386 
2.950174e+2, 2.14225e+2, -832193.25, -1020367.4, -45319.695, -0.009972623, -0.1848936, -821847.3, 18725.934, 0.0, 10.000806, 9.998301 
2.9500964e+2, 2.242238e+2, -730369.0, -913758.3, 20826.771, -0.03344348, -0.13588595, -728033.56, 14553.406, 0.0, 10.000795, 9.998372 
2.9500374e+2, 2.3422098e+2, -671448.75, -836893.1, 3643.8953, -0.010742959, -0.26912376, -671368.5, -26755.145, 0.0, 10.000535, 9.998354 
2.9499742e+2, 2.4421933e+2, -544454.4, -631750.5, -63351.67, 0.03141769, -0.3047816, -511170.1, 35457.78, 0.0, 10.000325, 9.999194 
2.9499057e+2, 2.5421917e+2, -474693.3, -545399.6, -46451.598, 0.09919544, -0.26129237, -451671.84, -3044.8071, 0.0, 10.000121, 9.999213 
2.9498255e+2, 2.6421812e+2, -443079.97, -561136.94, -53314.32, 0.05521558, -0.2506349, -422567.4, -71930.125, 0.0, 10.000027, 9.99847 
2.9497305e+2, 2.742159e+2, -369635.78, -486447.8, -57273.52, -0.1246995, -0.32829398, -346240.1, -93578.3, 0.0000000016821552, 9.999901, 9.998373 
2.9496634e+2, 2.8421524e+2, -163763.36, -169526.28, 8195.869, -0.10240899, -0.2968968, -157957.19, -3290.6775, 0.00000022409213, 9.999932, 9.999864 
2.9496303e+2, 2.9421633e+2, -8383.055, -18807.422, 60978.316, 0.15626031, -0.20508121, 47605.434, 104252.97, 0.0000026529046, 10.000203, 10.0001 
2.9495698e+2, 3.042138e+2, -104780.055, -123615.414, 83280.11, 0.09177093, -0.4363817, -30386.816, -30386.816, 0.000012335517, 9.999577, 9.999345 
2.9494828e+2, 3.142152e+2, -403587.72, -209900.36, -77840.336, -0.2330536, -0.22379808, -182495.03, -182495.03, 0.000034800534, 9.997245, 9.99987 
3.0508393e+2, 1.2424319e+2, -1802714.5, -1935963.6, -126874.42, 0.030174293, -0.37310553, -1726035.4, -3654.3313, 0.00022859985, 10.000119, 9.998419 
3.0507636e+2, 1.342423e+2, -1525995.6, -1813781.0, 10897.196, 0.02019309, -0.26744974, -1525583.6, 98814.734, 0.00009393993, 10.0016365, 9.997856 
3.050685e+2, 1.4424142e+2, -1334789.9, -1566455.1, 77320.23, -0.061689984, -0.18226123, -1311354.4, 215056.66, 0.000021636553, 10.001847, 9.998759 
3.0506214e+2, 1.5423833e+2, -1436909.8, -1576565.6, 39129.293, -0.066389404, -0.38328892, -1426693.8, 1746.4861, 0.0000030875526, 10.000516, 9.998663 
3.050555e+2, 1.642371e+2, -1408261.1, -1555595.9, -12770.858, -0.027950464, -0.35090664, -1407162.4, -76708.555, 0.0000002653173, 10.000224, 9.998276 
3.0504832e+2, 1.7423822e+2, -1161325.5, -1389548.6, 18632.727, 0.050939776, -0.079848774, -1159814.3, 72633.6, 0.0, 10.001266, 9.9982395 
3.0504116e+2, 1.8423723e+2, -1015412.5, -1193067.1, 68265.2, 0.09173318, -0.03281354, -992211.1, 142246.58, 0.0, 10.001265, 9.998922 
3.0503422e+2, 1.9423328e+2, -1127005.3, -1197317.4, 14854.466, 0.08500936, -0.339251, -1123995.8, -87506.52, 0.0, 9.999825, 9.998918 
3.0502665e+2, 2.0423128e+2, -1117607.4, -1207688.8, -41430.48, 0.05726823, -0.39941174, -1101450.4, -162943.5, 0.0, 9.999509, 9.99832 
3.0501825e+2, 2.1423191e+2, -851327.44, -1037742.9, -56388.145, 0.0051662354, -0.17843696, -835598.0, 4907.717, 0.0, 10.0007, 9.99824 
3.0501062e+2, 2.2423099e+2, -708281.1, -908170.6, -2565.1604, -0.019861175, -0.095998414, -708248.2, 34269.168, 0.0, 10.000967, 9.998327 
3.0500397e+2, 2.3422791e+2, -756919.25, -883264.44, 22713.61, -0.007909784, -0.25441337, -752960.0, -108412.92, 0.0, 9.999972, 9.998305 
3.0499735e+2, 2.4422616e+2, -647889.1, -675076.94, 18501.654, 0.029471539, -0.29957396, -638524.25, -91960.984, 0.0, 9.999599, 9.999239 
3.0499065e+2, 2.542262e+2, -467192.1, -530698.9, 1883.8103, 0.09991523, -0.24066827, -467136.25, -18574.973, 0.0, 10.000142, 9.999294 
3.0498257e+2, 2.6422527e+2, -403970.56, -523031.06, -11200.745, 0.050653156, -0.23033977, -402926.0, -52356.145, 0.0, 10.000212, 9.998645 
3.0497262e+2, 2.7422303e+2, -389415.97, -476533.7, 3690.7322, -0.13966048, -0.33110067, -389259.88, -136667.23, 0.00000000014964384, 9.99968, 9.99855 
3.049659e+2, 2.842224e+2, -241980.2, -226192.58, 86895.945, -0.10900706, -0.29938537, -146832.64, 7764.574, 0.00000013461268, 9.999478, 9.99969 
3.0496338e+2, 2.9422387e+2, -99181.57, -83505.26, 47096.027, 0.19904824, -0.14669329, -43599.594, 12977.922, 0.0000024042524, 9.999684, 9.999897 
3.0495718e+2, 3.042218e+2, -107690.445, -107701.875, -18673.086, 0.16482624, -0.33119097, -89023.07, -89023.07, 0.000011969342, 9.999475, 9.999509 
3.0494615e+2, 3.1422195e+2, -278962.4, -222859.33, -157672.78, -0.21708757, -0.2610376, -90762.195, -90762.195, 0.00003458678, 9.998397, 9.99924 
3.150833e+2, 1.24249704e+2, -1672162.8, -1682487.8, -95393.84, -0.082628846, -0.35894224, -1581791.9, 140530.53, 0.00018624985, 10.000201, 10.000116 
3.1507748e+2, 1.3424948e+2, -1418931.5, -1588016.0, 69987.29, -0.04599876, -0.33644378, -1393721.3, 230605.14, 0.00007443096, 10.0016365, 9.999401 
3.1507078e+2, 1.4424941e+2, -1386726.5, -1677638.5, 26951.146, -0.035449453, -0.22026001, -1384250.8, 142079.94, 0.000015949841, 10.001851, 9.997999 
3.1506377e+2, 1.5424778e+2, -1497606.6, -1713324.9, -4321.5845, 0.026602665, -0.18216337, -1497520.1, -69167.914, 0.00000170519, 10.000558, 9.997706 
3.150568e+2, 1.642467e+2, -1335140.1, -1406495.3, 10141.875, 0.060306698, -0.13039376, -1333726.6, -3362.09, 0.000000057148895, 10.000232, 9.999298 
3.1504947e+2, 1.7424616e+2, -1080809.6, -1218283.5, 60597.668, 0.024320995, -0.14474477, -1057912.3, 174454.16, 0.0, 10.001249, 9.999423 
3.1504175e+2, 1.842444e+2, -1097343.9, -1360073.8, 13966.716, 0.010497402, -0.18332237, -1096603.5, 37777.59, 0.0, 10.001246, 9.997787 
3.1503364e+2, 1.94241e+2, -1223168.5, -1388126.5, -33773.73, 0.0277651, -0.30564618, -1216521.5, -180108.14, 0.0, 9.999786, 9.997627 
3.15026e+2, 2.0423874e+2, -1143544.4, -1244969.6, -10088.396, 0.0271137, -0.31261325, -1142550.8, -204113.75, 0.0, 9.999442, 9.998095 
3.15019e+2, 2.142379e+2, -872314.94, -1063667.3, -5184.0884, -0.0006666298, -0.2242663, -872174.6, -31724.617, 0.0, 10.0006275, 9.9980955 
3.150118e+2, 2.2423708e+2, -668353.75, -811906.0, -39393.203, -0.009388735, -0.15383689, -658254.1, 84206.0, 0.0, 10.00091, 9.999018 
3.1500423e+2, 2.3423624e+2, -713596.25, -778057.56, -8527.173, 0.006083718, -0.16250136, -712487.3, -68020.05, 0.0, 9.999907, 9.999061 
3.149967e+2, 2.4423543e+2, -667224.56, -708708.7, 27491.877, -0.010753411, -0.14410742, -653527.75, -107052.734, 0.0, 9.99957, 9.9990225 
3.1498924e+2, 2.5423473e+2, -496851.16, -576157.4, 25304.545, -0.07126515, -0.13100836, -489465.03, -40982.2, 0.0, 10.000071, 9.999018 
3.149817e+2, 2.642337e+2, -369311.78, -441715.28, -33727.99, -0.07228676, -0.14304073, -356034.8, -5542.972, 0.0, 10.000171, 9.999226 
3.1497395e+2, 2.74232e+2, -350591.5, -383295.5, -9080.447, 0.008923748, -0.25451872, -348239.44, -95734.94, 0.00000000001473293, 9.999622, 9.99922 
3.1496707e+2, 2.8423068e+2, -332951.7, -404430.63, 85757.26, 0.04447017, -0.27214673, -275784.66, -121268.39, 0.000000108201135, 9.999433, 9.998487 
3.1496125e+2, 2.9423013e+2, -209079.25, -294811.47, 61404.41, 0.0016964029, -0.18883172, -177058.75, -120534.35, 0.0000022594174, 9.999604, 9.9984865 
3.1495482e+2, 3.04229e+2, -70007.48, -14108.052, -56474.555, -0.034999847, -0.22931261, 20954.63, 20954.63, 0.00001165084, 9.999414, 10.000177 
3.1494617e+2, 3.1423047e+2, -266394.78, -174921.13, -176598.03, -0.09124281, -0.114667885, -38233.387, -38233.387, 0.000033846463, 9.998307, 9.999609 
3.2508376e+2, 1.24256775e+2, -1569151.4, -1615285.8, 14232.98, -0.079696536, -0.38369864, -1565113.8, 157141.19, 0.00015560584, 10.00082, 10.00028 
3.2507816e+2, 1.3425712e+2, -1536631.6, -1643461.5, 46415.29, -0.09212351, -0.30662578, -1519282.6, 104970.984, 0.000061447354, 10.000807, 9.999427 
3.2507208e+2, 1.4425722e+2, -1543269.1, -1739770.1, -54956.305, -0.027332468, -0.17979775, -1528943.6, -2687.6716, 0.000012624197, 10.000708, 9.998129 
3.2506484e+2, 1.5425599e+2, -1449542.6, -1671766.3, -21287.125, 0.06904445, -0.118041754, -1447521.9, -19249.197, 0.0000008198343, 10.000804, 9.997876 
3.2505763e+2, 1.6425452e+2, -1274849.8, -1408183.8, 43473.52, 0.09579682, -0.101432994, -1261927.6, 68360.7, 0.000000004124255, 10.00079, 9.999015 
3.250501e+2, 1.7425261e+2, -1198773.1, -1316070.0, -27676.297, -0.0035370607, -0.21830831, -1192570.9, 39732.74, 0.0, 10.000611, 9.9990635 
3.2504225e+2, 1.8425077e+2, -1175801.5, -1392486.8, -118357.63, -0.035488375, -0.24674185, -1123686.5, 10633.313, 0.0, 10.000697, 9.99782 
3.2503402e+2, 1.94249e+2, -1024652.44, -1284279.4, -82127.34, 0.027559988, -0.21345443, -1000854.56, 35483.13, 0.0, 10.001125, 9.997685 
3.2502633e+2, 2.0424704e+2, -916753.25, -1147627.1, 36821.438, 0.04430761, -0.19034691, -911022.94, 27336.02, 0.0, 10.001045, 9.997993 
3.2501942e+2, 2.1424478e+2, -944074.3, -1109877.3, 36438.45, 0.0014955071, -0.23306103, -936419.7, -96034.984, 0.0, 10.000186, 9.997993 
3.250123e+2, 2.2424369e+2, -798413.9, -833675.2, -12424.77, 0.003884854, -0.20403376, -794475.7, -52078.656, 0.0, 9.999839, 9.999385 
3.2500488e+2, 2.3424402e+2, -641162.44, -698670.75, -20755.998, 0.0700655, -0.1350022, -634453.75, 9938.748, 0.0, 10.000207, 9.999464 
3.2499707e+2, 2.4424379e+2, -572043.6, -658710.06, 34519.523, 0.041753136, -0.08087009, -559975.0, -13580.299, 0.0, 10.000197, 9.999067 
3.2498872e+2, 2.542429e+2, -539837.5, -595161.3, 47823.79, -0.11086633, -0.09056036, -512251.8, -63846.69, 0.0, 9.999758, 9.999042 
3.249813e+2, 2.6424196e+2, -417759.4, -435719.6, -1854.3448, -0.10013014, -0.105101034, -417569.94, -67156.91, 0.0, 9.9997225, 9.999477 
3.249751e+2, 2.7424073e+2, -245217.67, -301242.53, -20252.77, 0.13597819, -0.19700278, -238663.2, 13757.271, 0.00000000010851988, 10.000227, 9.999485 
3.2496795e+2, 2.8423935e+2, -242113.45, -351788.88, 99651.125, 0.16608484, -0.23769875, -183207.94, -28775.035, 0.00000014601811, 10.000012, 9.998573 
3.249596e+2, 2.9423827e+2, -322992.38, -342060.9, 172209.1, -0.07764934, -0.21378165, -160053.81, -103606.74, 0.000002235968, 9.998792, 9.998552 
3.2495284e+2, 3.042382e+2, -188096.0, -21586.926, 127193.49, -0.11241131, -0.1767894, 47176.637, 47176.637, 0.000011376777, 9.998398, 10.000613 
3.2494596e+2, 3.142394e+2, -124869.68, -44255.23, -38060.086, 0.027509212, -0.13596427, -29125.621, -29125.621, 0.000032649332, 9.999023, 10.000155 
3.3508483e+2, 1.2426436e+2, -1656189.5, -1805818.4, -4139.4346, -0.09351494, -0.44259873, -1656075.1, 66104.15, 0.00013659472, 10.000865, 9.99895 
3.350783e+2, 1.342652e+2, -1632115.6, -1846660.5, 44780.074, -0.17688058, -0.17524324, -1623144.1, 1036.1093, 0.000054929977, 10.000841, 9.998009 
3.3507234e+2, 1.4426483e+2, -1467673.0, -1584600.6, -62843.64, -0.09642428, -0.06664488, -1440303.6, 85883.87, 0.000011796083, 10.000716, 9.999187 
3.3506507e+2, 1.5426311e+2, -1357907.8, -1480503.6, -12542.719, -0.0069912346, -0.18130697, -1356637.6, 71562.77, 0.00000057438905, 10.000804, 9.999186 
3.350577e+2, 1.6426075e+2, -1388587.3, -1644008.5, 31906.283, 0.01320028, -0.2509807, -1384661.9, -54438.434, 0.00000000201948, 10.000785, 9.997401 
3.3504996e+2, 1.742577e+2, -1328908.0, -1586002.1, -27681.746, -0.09248489, -0.29850626, -1325961.1, -93702.59, 0.0, 10.000608, 9.997214 
3.350424e+2, 1.8425636e+2, -1102439.8, -1230110.1, -109654.79, -0.10571099, -0.22932093, -1039392.6, 94881.04, 0.0, 10.000652, 9.998958 
3.350352e+2, 1.9425721e+2, -933081.6, -1085951.5, -59980.824, 0.01704341, -0.06918469, -912356.9, 123906.53, 0.0, 10.001091, 9.9990635 
3.3502755e+2, 2.0425616e+2, -919633.2, -1141397.5, 1576.3562, 0.049673814, -0.030458467, -919621.94, 18651.299, 0.0, 10.000995, 9.998059 
3.3501923e+2, 2.1425253e+2, -957562.7, -1118061.0, 9570.062, -0.047997937, -0.20910652, -956994.06, -116683.76, 0.0, 10.000104, 9.997974 
3.3501184e+2, 2.242507e+2, -806751.25, -835938.7, -8404.756, -0.03643347, -0.2529102, -804504.06, -62175.258, 0.0, 9.999771, 9.999404 
3.3500573e+2, 2.342512e+2, -648507.25, -697425.7, -2841.2517, 0.12095131, -0.16932617, -648342.75, -4019.708, 0.0, 10.0001335, 9.999509 
3.3499822e+2, 2.4425127e+2, -552249.5, -608995.06, 14466.751, 0.12451461, -0.10681169, -548774.2, -2452.0754, 0.0, 10.00016, 9.999427 
3.3498892e+2, 2.5425074e+2, -521178.2, -545292.1, 36333.73, -0.08005026, -0.120051876, -494953.2, -46625.473, 0.0, 9.99971, 9.999407 
3.349813e+2, 2.6425013e+2, -432493.0, -460155.47, 8233.61, -0.085004225, -0.11539849, -430227.78, -79894.5, 0.0, 9.999694, 9.999324 
3.3497584e+2, 2.7424914e+2, -266469.78, -330571.06, 3650.4136, 0.17031792, -0.16148007, -266262.56, -13921.08, 0.000000000044508567, 10.00016, 9.999316 
3.3496836e+2, 2.8424838e+2, -142406.61, -139027.95, 52994.324, 0.18822773, -0.19995551, -87696.03, 66651.2, 0.00000018850986, 9.999984, 10.000051 
3.349582e+2, 2.9424846e+2, -222141.86, -124077.305, 132843.95, -0.115812704, -0.22108302, -31505.62, 24839.0, 0.0000021997091, 9.998748, 10.000076 
3.3495113e+2, 3.0424923e+2, -188588.81, -10191.09, 141223.05, -0.13579918, -0.17896125, 67644.14, 67644.14, 0.000010801098, 9.99835, 10.000711 
3.3494493e+2, 3.142487e+2, -103928.17, 35480.27, 15768.9, -0.0035644055, -0.320654, 37241.68, 37241.68, 0.000030818417, 9.998875, 10.000772 
3.4508628e+2, 1.2427304e+2, -1501070.5, -1744225.4, -63081.566, -0.08268652, -0.30988243, -1485679.5, 236419.97, 0.00012625929, 10.002, 9.998823 
3.4507918e+2, 1.3427301e+2, -1694977.8, -1897865.0, 39054.836, -0.14761549, -0.1147157, -1687719.6, -63612.453, 0.000053424294, 10.000485, 9.997842 
3.4507343e+2, 1.4427166e+2, -1565653.6, -1620518.0, 17476.72, -0.016554793, -0.10008281, -1560559.5, -34437.047, 0.0000131995685, 10.000004, 9.99928 
3.4506625e+2, 1.5426998e+2, -1294531.5, -1441706.9, -31717.385, 0.018931407, -0.21939343, -1287987.1, 140146.56, 0.00000089811203, 10.001203, 9.999259 
3.450588e+2, 1.6426788e+2, -1312033.5, -1613309.0, -18885.438, 0.020206219, -0.26157334, -1310854.3, 19299.834, 0.0000000015154811, 10.001338, 9.997341 
3.4505048e+2, 1.7426544e+2, -1412440.6, -1629925.4, 35656.37, -0.07216188, -0.24352516, -1406744.0, -174558.69, 0.0, 10.00006, 9.997171 
3.4504274e+2, 1.8426429e+2, -1227750.5, -1266847.9, 52382.383, -0.084740214, -0.16480185, -1191388.0, -57188.348, 0.0, 9.999679, 9.99918 
3.4503606e+2, 1.9426477e+2, -1013512.5, -1099334.5, 13667.67, 0.03188746, -0.0657585, -1011388.44, 24804.094, 0.0, 10.000416, 9.999304 
3.4502852e+2, 2.0426387e+2, -949230.6, -1127616.8, 2082.7207, 0.069133975, -0.0373079, -949206.3, -11006.207, 0.0, 10.000665, 9.998316 
3.4501976e+2, 2.1426095e+2, -923801.56, -1076126.8, 15573.283, -0.006295176, -0.16726676, -922225.7, -81996.95, 0.0, 10.000211, 9.998215 
3.4501195e+2, 2.2425921e+2, -805914.0, -867468.3, 38991.9, -0.004838702, -0.20130149, -787016.2, -44770.11, 0.0, 9.999921, 9.999114 
3.4500548e+2, 2.3425904e+2, -712929.44, -765512.25, 7074.5923, 0.10162801, -0.15263768, -711994.25, -67746.02, 0.0, 9.999855, 9.999174 
3.4499788e+2, 2.4425867e+2, -606832.3, -609070.2, -5544.8237, 0.10225539, -0.12607482, -602294.7, -56043.688, 0.0, 9.999679, 9.999659 
3.4498885e+2, 2.54258e+2, -559684.44, -535405.4, -5064.9873, -0.033603165, -0.17749791, -534391.1, -86135.84, 0.0, 9.999322, 9.999665 
3.4498137e+2, 2.642576e+2, -499896.56, -490487.3, 6741.4033, -0.01894161, -0.16406564, -486971.22, -136712.78, 0.0, 9.999222, 9.999342 
3.4497595e+2, 2.7425742e+2, -359786.1, -375184.53, 9098.45, 0.20245062, -0.13071604, -355566.44, -103304.5, 0.0, 9.999521, 9.999318 
3.4496808e+2, 2.8425717e+2, -195677.64, -106068.93, -8791.258, 0.20050615, -0.14443102, -105214.59, 49049.105, 0.00000016974016, 9.999383, 10.00056 
3.4495702e+2, 2.942571e+2, -207067.23, -58500.297, -28473.248, -0.09496689, -0.23075716, -53230.266, 3029.671, 0.0000019719364, 9.9986105, 10.000589 
3.4494996e+2, 3.0425808e+2, -173034.92, -12630.965, 9952.607, -0.09197627, -0.19042727, -12015.794, -12015.794, 0.000009630792, 9.998483, 10.000636 
3.4494454e+2, 3.142575e+2, -18339.285, 128504.18, -118632.03, 0.060670875, -0.33535764, 194597.0, 194597.0, 0.000028581368, 9.999215, 10.001253 
3.550878e+2, 1.2428289e+2, -1417084.1, -1598065.1, -123352.93, -0.18103328, 0.01815457, -1354589.4, 367425.38, 0.00012021515, 10.002107, 9.99978 
3.5508043e+2, 1.3428067e+2, -1611482.8, -1730860.0, -17125.217, -0.09000728, -0.11761644, -1609074.6, 14958.862, 0.000054251253, 10.000517, 9.998969 
3.550751e+2, 1.442779e+2, -1624651.6, -1756796.0, 47596.957, 0.12989566, -0.26173046, -1609292.9, -83233.766, 0.000015580335, 10.000055, 9.998325 
3.5506833e+2, 1.542767e+2, -1369042.9, -1605709.5, 19979.117, 0.08480582, -0.21875775, -1367368.0, 60703.19, 0.0000017221554, 10.00124, 9.998118 
3.5506067e+2, 1.6427593e+2, -1208501.0, -1396756.0, -68626.27, 0.054803465, -0.13694452, -1186140.1, 143940.16, 0.000000007086625, 10.0013275, 9.998833 
3.550513e+2, 1.7427574e+2, -1290691.3, -1381143.1, -6845.7993, -0.011764589, -0.06124713, -1290176.0, -58091.207, 0.0, 10.000072, 9.998875 
3.5504296e+2, 1.842745e+2, -1280922.0, -1367406.3, 69563.24, -0.040263202, -0.05456269, -1242256.1, -108157.734, 0.0, 9.999641, 9.998507 
3.5503638e+2, 1.9427174e+2, -1079981.5, -1225826.9, 47483.05, 0.0076662814, -0.19388221, -1065884.9, -29760.512, 0.0, 10.00037, 9.998456 
3.550291e+2, 2.0427018e+2, -928003.25, -1071708.5, -17431.912, 0.048786066, -0.20399337, -925918.94, 12220.078, 0.0, 10.000609, 9.998728 
3.5502085e+2, 2.1427011e+2, -895205.3, -1003660.9, 3567.535, 0.06710024, -0.103910126, -895088.06, -54948.52, 0.0, 10.000154, 9.99874 
3.5501245e+2, 2.2426932e+2, -857143.5, -962580.3, 30567.396, 0.041390117, -0.042161047, -848922.6, -106774.6, 0.0, 9.99987, 9.998486 
3.5500395e+2, 2.3426755e+2, -771950.56, -877030.25, 10857.6455, -0.049290393, -0.08137082, -770840.4, -126672.92, 0.0, 9.999805, 9.998433 
3.5499585e+2, 2.4426599e+2, -608920.25, -602319.4, -23801.947, -0.08103352, -0.13603613, -581590.1, -35408.918, 0.0, 9.999632, 9.999727 
3.549883e+2, 2.5426465e+2, -559413.7, -519348.16, -14308.572, -0.03498414, -0.26840252, -514762.9, -66574.54, 0.0, 9.999256, 9.999807 
3.5498136e+2, 2.6426446e+2, -493339.4, -465853.34, 12579.549, 0.04363321, -0.25273636, -460965.3, -110776.71, 0.0, 9.999176, 9.999531 
3.5497525e+2, 2.7426568e+2, -356953.38, -356788.78, 28818.748, 0.16587383, -0.09867443, -328052.22, -75871.305, 0.0, 9.999469, 9.999467 
3.54967e+2, 2.8426564e+2, -236458.69, -186712.25, -41231.86, 0.14034797, -0.07104131, -163432.14, -9249.76, 0.00000011654808, 9.999361, 10.000018 
3.5495594e+2, 2.9426408e+2, -253501.98, -146127.61, -53455.977, -0.08197259, -0.25397503, -124052.97, -67858.51, 0.0000016005947, 9.998565, 10.000012 
3.549491e+2, 3.0426463e+2, -187779.66, -29280.768, 31224.133, -0.038386423, -0.21694396, -23351.453, -23351.453, 0.000008029012, 9.99843, 10.0005455 
3.5494432e+2, 3.1426618e+2, -3814.8516, 184843.5, -53633.094, 0.079453774, -0.14705499, 199024.7, 199024.7, 0.00002594716, 9.999115, 10.001684 
3.6509022e+2, 1.2429036e+2, -1523426.9, -1659110.9, -51283.973, -0.10679216, 0.019566022, -1506224.3, 215719.67, 0.00011678404, 10.001426, 9.999687 
3.6508176e+2, 1.3428834e+2, -1427886.6, -1626904.1, -60839.406, -0.060342252, -0.10656093, -1410761.6, 213197.7, 0.000055597222, 10.001715, 9.999098 
3.6507636e+2, 1.4428547e+2, -1430523.1, -1651869.8, 42113.344, 0.18683587, -0.27183583, -1422781.5, 103203.766, 0.000017763748, 10.001348, 9.998421 
3.6506915e+2, 1.5428446e+2, -1512830.0, -1662001.6, 91514.305, 0.100905985, -0.2196224, -1469356.9, -41361.42, 0.000002786188, 10.000197, 9.998237 
3.650613e+2, 1.6428396e+2, -1410176.6, -1459652.5, 15257.17, 0.06710347, -0.13069972, -1405850.0, -75848.26, 0.00000008230677, 9.999794, 9.999144 
3.6505204e+2, 1.7428426e+2, -1221151.8, -1309895.0, -39187.668, 0.04218839, -0.038404245, -1206324.5, 25677.023, 0.0, 10.000388, 9.999213 
3.6504364e+2, 1.8428323e+2, -1154892.9, -1313011.9, 29518.848, 0.022341058, -0.025440896, -1149561.8, -15548.98, 0.0, 10.000537, 9.998448 
3.6503682e+2, 1.942802e+2, -1134061.5, -1261887.1, 55849.066, 0.031270694, -0.1825078, -1113098.1, -77056.85, 0.0, 10.000044, 9.998367 
3.650293e+2, 2.0427844e+2, -1012786.06, -1118355.0, 15213.432, 0.039061088, -0.20622094, -1010637.4, -72579.25, 0.0, 10.000061, 9.99867 
3.6502093e+2, 2.1427831e+2, -818535.6, -975335.7, -21340.682, 0.03705803, -0.10396354, -815683.06, 24376.766, 0.0, 10.000724, 9.998661 
3.6501238e+2, 2.2427753e+2, -720283.1, -899917.0, -4840.9546, 0.002785004, -0.03629704, -720152.8, 21915.785, 0.0, 10.000827, 9.998452 
3.650037e+2, 2.3427579e+2, -725175.0, -858251.0, 15278.198, -0.06958497, -0.067290224, -723443.44, -79356.02, 0.0, 10.000146, 9.998396 
3.6499563e+2, 2.4427418e+2, -579891.25, -594253.6, 25826.637, -0.07366953, -0.122166485, -560266.0, -14164.734, 0.0, 9.99985, 9.9996805 
3.6498842e+2, 2.5427276e+2, -448075.88, -467241.56, 12062.089, 0.015701542, -0.2611249, -442253.38, 5855.3223, 0.0, 10.000031, 9.999789 
3.649812e+2, 2.6427236e+2, -413275.28, -447496.75, 22718.963, 0.08305355, -0.2567231, -401944.34, -51833.742, 0.0, 9.999811, 9.999354 
3.6497408e+2, 2.7427322e+2, -435447.88, -416992.88, -1061.8845, 0.12931174, -0.11551729, -416931.97, -164825.4, 0.0, 9.999021, 9.999273 
3.649658e+2, 2.8427288e+2, -320388.44, -266652.13, -56021.457, 0.107022695, -0.09081843, -231388.95, -77277.45, 0.000000055764154, 9.998947, 9.99967 
3.649559e+2, 2.9427105e+2, -99125.47, -107674.11, -65869.68, 0.00063787925, -0.26562038, -37391.57, 18735.656, 0.0000011854916, 9.999786, 9.999686 
3.6494884e+2, 3.0427134e+2, -46824.125, -5548.3994, 14954.962, 0.044084553, -0.224053, -699.5545, -699.5545, 0.000006614604, 9.999582, 10.00016 
3.6494276e+2, 3.1427348e+2, -194900.8, 63295.48, -101602.13, 0.076947555, -0.050661035, 98481.62, 98481.62, 0.000023524617, 9.997928, 10.001429 
3.7509286e+2, 1.2429574e+2, -1594511.4, -1816329.5, -38964.324, -0.021737386, -0.26657772, -1587866.0, 134018.4, 0.000116595606, 10.001466, 9.998585 
3.750831e+2, 1.3429625e+2, -1478703.1, -1743396.9, -44990.273, -0.11964016, -0.06364679, -1471265.1, 152617.98, 0.000057458026, 10.001761, 9.998272 
3.7507695e+2, 1.442944e+2, -1352054.3, -1488190.4, -6734.534, 0.09108408, -0.13449316, -1351721.9, 174178.98, 0.000019792478, 10.001347, 9.999544 
3.7506852e+2, 1.5429316e+2, -1417348.8, -1470065.6, 54493.566, -0.0037856146, -0.2338705, -1383173.6, 44734.145, 0.000003853391, 10.000225, 9.99954 
3.750605e+2, 1.6429201e+2, -1470494.8, -1585171.3, 27019.922, -0.011016139, -0.24091886, -1464447.3, -134528.28, 0.00000020238203, 9.999796, 9.99828 
3.7505245e+2, 1.7429115e+2, -1293878.1, -1463676.5, -10203.362, 0.02998049, -0.16247553, -1293267.3, -61333.098, 0.0, 10.000398, 9.998153 
3.7504452e+2, 1.8429054e+2, -1118628.0, -1231653.5, 8531.283, 0.04337958, -0.07559251, -1117987.6, 15954.949, 0.0, 10.000511, 9.999017 
3.7503707e+2, 1.9429013e+2, -1090780.5, -1162077.8, 43746.86, 0.040425878, -0.04110528, -1069996.8, -34052.906, 0.0, 10.000004, 9.999068 
3.7502897e+2, 2.042886e+2, -1061893.6, -1210847.0, 32011.541, -0.014707968, -0.050754715, -1055305.4, -117347.36, 0.0, 10.000016, 9.998059 
3.7501985e+2, 2.1428557e+2, -875090.6, -1079568.5, 10983.069, -0.1581732, -0.16732153, -874502.4, -34512.934, 0.0, 10.000666, 9.997973 
3.7501156e+2, 2.2428383e+2, -691966.1, -826468.3, -32755.85, -0.17428471, -0.18185468, -684413.1, 57594.332, 0.0, 10.000758, 9.998992 
3.750045e+2, 2.342837e+2, -686491.8, -765952.4, -5339.3496, -0.019483067, -0.11882525, -686134.6, -42125.95, 0.0, 10.000088, 9.999059 
3.7499702e+2, 2.4428326e+2, -599859.25, -619442.44, 26709.967, 0.067349695, -0.08826813, -581202.7, -35191.58, 0.0, 9.999784, 9.999538 
3.7498897e+2, 2.5428233e+2, -472191.97, -505480.4, 26195.17, 0.056093384, -0.1545858, -457800.47, -9784.507, 0.0, 9.999977, 9.999555 
3.7498075e+2, 2.6428127e+2, -458437.38, -531125.4, -9956.457, 0.044665728, -0.17634864, -457098.25, -107073.44, 0.0, 9.999772, 9.998797 
3.7497225e+2, 2.7428004e+2, -484193.7, -502707.16, -24587.445, 0.027852973, -0.19098139, -467178.2, -215138.66, 0.0, 9.998955, 9.998716 
3.7496418e+2, 2.8427896e+2, -338085.16, -292851.56, -33106.504, 0.036432073, -0.20363563, -275373.97, -121322.92, 0.00000003400916, 9.998899, 9.999516 
3.7495667e+2, 2.942781e+2, -114852.24, -129912.12, -27135.17, 0.08268856, -0.26718494, -94221.62, -38162.984, 0.0000008994765, 9.999733, 9.999563 
3.7494898e+2, 3.0427808e+2, -107174.16, -111460.5, -46854.664, 0.08671061, -0.21417585, -62413.676, -62413.676, 0.000005653841, 9.999515, 9.99946 
3.7493932e+2, 3.1427926e+2, -282961.4, -82866.37, -137343.73, -0.0867664, -0.058851123, -12993.876, -12993.876, 0.000021891798, 9.9977865, 10.000486 
3.850946e+2, 1.2430324e+2, -1774153.0, -1903749.3, -12973.646, 0.072741434, -0.31666154, -1772867.0, -51060.277, 0.00011972094, 10.000238, 9.998579 
3.8508403e+2, 1.3430409e+2, -1711169.3, -1826063.8, 7645.804, -0.110375315, -0.10413624, -1710662.6, -86860.06, 0.000060093465, 10.000033, 9.998548 
3.850777e+2, 1.443026e+2, -1529316.1, -1558691.8, 55731.11, 0.10292761, -0.15907103, -1486369.9, 39447.895, 0.000021868578, 10.000058, 9.999683 
3.8506904e+2, 1.5430193e+2, -1387278.9, -1439474.1, 10762.582, 0.024721535, -0.21773349, -1385146.8, 42673.844, 0.000004862859, 10.000365, 9.9996805 
3.85061e+2, 1.6430072e+2, -1354535.1, -1566465.1, 666.4625, 0.016579282, -0.2229175, -1354533.0, -24700.26, 0.00000029520132, 10.000738, 9.997963 
3.8505307e+2, 1.7429891e+2, -1207794.4, -1460666.1, 8224.3, 0.019947624, -0.20408727, -1207527.1, 24329.023, 0.0, 10.001143, 9.997819 
3.850451e+2, 1.8429802e+2, -1039034.7, -1200019.9, 7392.11, 0.023646202, -0.12655379, -1038696.0, 95171.76, 0.0, 10.001084, 9.99896 
3.850374e+2, 1.9429812e+2, -1039315.1, -1145533.0, -29804.227, 0.057562895, -0.037385385, -1031523.75, 4341.7754, 0.0, 10.000383, 9.999004 
3.850291e+2, 2.042968e+2, -1074693.5, -1199753.3, -4524.821, 0.009852923, -0.028478574, -1074530.0, -136652.1, 0.0, 9.999848, 9.998217 
3.8501987e+2, 2.1429358e+2, -1032080.2, -1137330.3, 30897.955, -0.1575761, -0.18175246, -1023680.0, -183769.72, 0.0, 9.999501, 9.998141 
3.850116e+2, 2.2429188e+2, -885885.25, -883028.7, 8086.164, -0.16597208, -0.2173316, -876245.7, -134318.53, 0.0, 9.999268, 9.999323 
3.850047e+2, 2.3429213e+2, -795341.7, -778929.44, -1686.4977, 0.04315168, -0.15025152, -778757.9, -134833.97, 0.0, 9.999179, 9.999406 
3.8499725e+2, 2.4429187e+2, -664144.4, -695135.56, 51086.51, 0.1296147, -0.10188228, -626255.1, -80329.81, 0.0, 9.9995365, 9.999133 
3.849891e+2, 2.5429088e+2, -438705.97, -545439.0, 22515.904, 0.049438667, -0.12604111, -434150.53, 13782.804, 0.0, 10.000446, 9.999053 
3.8498044e+2, 2.6428965e+2, -305876.72, -452776.1, -32707.955, -0.012219972, -0.14127302, -298923.25, 51021.45, 0.0, 10.000789, 9.998847 
3.849712e+2, 2.742881e+2, -276586.2, -389041.94, -13533.049, -0.038240194, -0.19733387, -274980.53, -23020.164, 0.0, 10.000326, 9.998834 
3.8496312e+2, 2.8428698e+2, -203024.27, -238064.72, 51616.383, 0.0008792117, -0.21528178, -166035.69, -12064.438, 0.000000026095549, 9.999872, 9.999424 
3.8495666e+2, 2.9428646e+2, -168664.64, -165974.13, 52279.492, 0.13024992, -0.2321617, -115022.586, -59046.734, 0.0000006696504, 9.999415, 9.999464 
3.8494882e+2, 3.0428627e+2, -86684.99, -144045.8, 45588.996, 0.10899007, -0.17637908, -61505.184, -61505.184, 0.0000049598348, 9.999833, 9.999083 
3.8493845e+2, 3.1428605e+2, 169926.02, 73266.945, -36104.203, -0.113864474, -0.12014373, 181922.73, 181922.73, 0.000021460863, 10.001158, 9.999941 
3.9509508e+2, 1.24312714e+2, -1703800.9, -1758753.4, -6550.409, 0.058594204, -0.14221372, -1703030.9, 18681.145, 0.0001233599, 10.000259, 9.999561 
3.9508432e+2, 1.3431177e+2, -1614273.5, -1628483.6, 2448.2444, -0.101425804, -0.24112338, -1613863.5, 9855.645, 0.00006261113, 10.000059, 9.999887 
3.950784e+2, 1.4431009e+2, -1589399.3, -1690215.8, 59035.387, 0.14572595, -0.34432223, -1562179.1, -36442.996, 0.000023583854, 10.000075, 9.998778 
3.9507046e+2, 1.5431081e+2, -1452751.0, -1589188.0, 28410.137, 0.11205091, -0.15987645, -1447071.6, -19338.066, 0.000005569423, 10.000415, 9.998633 
3.9506257e+2, 1.6431e+2, -1335690.9, -1524510.1, 5972.5894, 0.08140291, -0.08098977, -1335502.1, -5758.3037, 0.00000035120044, 10.00073, 9.998254 
3.9505374e+2, 1.7430751e+2, -1179383.8, -1399188.9, 28731.453, -0.043597862, -0.17024444, -1175690.3, 56078.1, 0.0, 10.001135, 9.998244 
3.9504525e+2, 1.843056e+2, -1096887.8, -1309644.4, -21702.66, -0.083419815, -0.18358195, -1094696.5, 39092.137, 0.0, 10.001037, 9.998232 
3.9503756e+2, 1.9430423e+2, -1103421.3, -1264280.4, -50853.027, 0.020925773, -0.16005565, -1088693.4, -52887.883, 0.0, 10.000324, 9.998216 
3.9502952e+2, 2.0430309e+2, -1021122.7, -1069278.8, -25030.303, 0.056082442, -0.13478908, -1010469.3, -72651.91, 0.0, 9.99977, 9.999147 
3.9502087e+2, 2.1430227e+2, -971275.7, -985000.6, 24178.367, -0.021953458, -0.15363206, -953004.8, -113182.02, 0.0, 9.9994, 9.999229 
3.9501244e+2, 2.243016e+2, -888220.25, -874741.7, -1799.74, -0.023929423, -0.1491892, -874505.5, -132677.64, 0.0, 9.999205, 9.999414 
3.950042e+2, 2.3430097e+2, -802073.06, -779233.25, 1531.9258, 0.062108245, -0.17187859, -779130.94, -135296.98, 0.0, 9.999116, 9.999436 
3.949962e+2, 2.4429993e+2, -721068.1, -800380.06, 78004.57, 0.05638468, -0.17060862, -673218.06, -127373.38, 0.0, 9.999482, 9.998437 
3.949885e+2, 2.542983e+2, -499229.97, -657145.3, 63712.004, -0.07082071, -0.18534523, -476730.6, -28868.686, 0.0, 10.000381, 9.99832 
3.9498004e+2, 2.6429743e+2, -268960.8, -359409.78, -50872.137, -0.14401604, -0.15597804, -246117.48, 103752.945, 0.0, 10.000719, 9.999521 
3.949707e+2, 2.742974e+2, -229857.6, -279440.72, -23681.127, -0.13700671, -0.13637608, -220364.8, 31504.508, 0.0, 10.000269, 9.999615 
3.949625e+2, 2.84297e+2, -208083.89, -237949.58, 28496.855, -0.06560376, -0.12829332, -190844.38, -36972.203, 0.000000010243951, 9.999829, 9.999445 
3.9495566e+2, 2.9429626e+2, -183529.17, -177033.98, 44315.984, 0.07224698, -0.15944652, -135846.75, -79968.414, 0.00000051187845, 9.999331, 9.999429 
3.9494818e+2, 3.0429596e+2, -95143.8, -150797.3, 90783.5, 0.050653182, -0.11425551, -28018.078, -28018.078, 0.0000058228006, 9.999788, 9.999055 
3.9493966e+2, 3.142939e+2, 150226.02, 54964.016, 30085.848, -0.13417989, -0.23878053, 158932.13, 158932.13, 0.00002601799, 10.001073, 9.999848 
4.0509522e+2, 1.24319315e+2, -1656362.9, -1729953.1, 15193.825, 0.040331192, -0.21629705, -1653349.4, 68294.05, 0.00012458346, 10.000546, 9.999621 
4.0508476e+2, 1.3431866e+2, -1535300.6, -1563588.3, -116466.03, -0.07906792, -0.31461936, -1432122.8, 191524.64, 0.00006386204, 10.000476, 10.000134 
4.0507904e+2, 1.4431739e+2, -1566412.6, -1734612.1, -55964.457, 0.18729977, -0.3685092, -1549493.6, -23831.83, 0.000024485202, 10.000478, 9.998276 
4.0507123e+2, 1.5431774e+2, -1460495.0, -1656136.8, -64363.492, 0.14064799, -0.16508415, -1441219.5, -13553.441, 0.000005781208, 10.000631, 9.99807 
4.0506342e+2, 1.6431694e+2, -1308423.1, -1438363.9, -45799.652, 0.104819104, -0.08527188, -1293902.9, 35773.832, 0.0000003430959, 10.000609, 9.9988985 
4.0505454e+2, 1.7431496e+2, -1251242.3, -1354012.3, -16380.943, -0.031870764, -0.19727795, -1248694.4, -17001.396, 0.0, 10.000301, 9.998954 
4.0504596e+2, 1.8431328e+2, -1236358.6, -1393355.1, -38155.97, -0.06666516, -0.21795256, -1227576.6, -93866.33, 0.0, 10.000147, 9.998086 
4.050382e+2, 1.9431174e+2, -1146117.5, -1308445.9, -31713.355, 0.06879345, -0.19108652, -1140141.8, -104410.24, 0.0, 10.000131, 9.998009 
4.0502986e+2, 2.0431077e+2, -953311.25, -979445.2, 13514.189, 0.10810722, -0.15964276, -947579.8, -9837.552, 0.0, 9.999993, 9.999657 
4.0502068e+2, 2.1431056e+2, -897472.2, -891904.3, 10419.96, 0.01393254, -0.1733245, -883902.8, -44162.92, 0.0, 9.999653, 9.999753 
4.050121e+2, 2.2431025e+2, -846828.6, -890635.75, -21902.164, 0.0050366945, -0.14697999, -837756.8, -96015.18, 0.0, 9.999657, 9.999079 
4.050041e+2, 2.3430964e+2, -682557.9, -770436.56, -62806.39, 0.097194195, -0.12441304, -649846.6, -6096.6084, 0.0, 10.000149, 9.998997 
4.0499604e+2, 2.4430835e+2, -630121.5, -728577.7, 32044.184, 0.070975974, -0.13581434, -620610.9, -74847.26, 0.0, 9.999983, 9.998691 
4.0498775e+2, 2.543063e+2, -682084.4, -703887.0, 84132.59, -0.10605838, -0.2274618, -608149.75, -160366.95, 0.0, 9.998964, 9.998675 
4.049794e+2, 2.6430553e+2, -564502.25, -486983.16, 9495.959, -0.16994043, -0.21282165, -485836.88, -136047.67, 0.0, 9.998618, 9.999661 
4.0497097e+2, 2.7430624e+2, -388923.53, -345384.78, -21755.828, -0.072696544, -0.13043202, -336377.2, -84595.516, 0.0, 9.99912, 9.99972 
4.0496275e+2, 2.8430584e+2, -267221.06, -324192.28, -537.5761, -0.010697414, -0.10164208, -267216.0, -113430.55, 0.0000000008315615, 9.999677, 9.998921 
4.049547e+2, 2.943042e+2, -74384.96, -186542.66, -38852.953, -0.0007463387, -0.1739248, -62240.727, -6438.485, 0.00000071034475, 10.000349, 9.998868 
4.0494716e+2, 3.0430377e+2, -59034.582, -154517.5, -11211.62, -0.040752236, -0.09803584, -57735.777, -57735.777, 0.0000094188645, 10.000114, 9.998876 
4.049407e+2, 3.1430158e+2, -192542.73, -94117.25, -103605.97, -0.0083734095, -0.2242013, -28629.994, -28629.994, 0.00003801625, 9.998617, 10.000014 
4.1509467e+2, 1.2432307e+2, -1701985.3, -1842757.6, 32118.412, -0.11215441, -0.5407201, -1695003.4, 26597.137, 0.00012201354, 10.000621, 9.998809 
4.1508502e+2, 1.3432498e+2, -1575979.9, -1667112.0, -116873.41, -0.116193436, -0.31378818, -1496104.1, 127481.14, 0.00006271878, 10.000547, 9.99939 
4.1507939e+2, 1.4432456e+2, -1572288.8, -1749177.0, -55111.688, 0.15361229, -0.23685399, -1556523.1, -30929.201, 0.000024127196, 10.000497, 9.998166 
4.150712e+2, 1.5432282e+2, -1463856.8, -1659117.3, -49511.367, 0.054314967, -0.23454738, -1452019.9, -24402.744, 0.0000053776757, 10.000622, 9.998052 
4.1506344e+2, 1.6432163e+2, -1250533.5, -1308689.8, -61631.35, 0.030617911, -0.23793755, -1211465.0, 118165.66, 0.0000002359893, 10.000568, 9.999808 
4.1505525e+2, 1.7432132e+2, -1181781.0, -1210497.9, -20831.055, -0.01086272, -0.28051686, -1170839.3, 60790.082, 0.0, 10.000303, 9.999938 
4.1504696e+2, 1.8432103e+2, -1208331.1, -1330603.4, -45214.652, 0.005041769, -0.23385519, -1193427.8, -59795.06, 0.0, 10.000127, 9.998527 
4.150391e+2, 1.9432066e+2, -1122433.9, -1248826.0, -27205.22, 0.12925704, -0.13097136, -1116826.9, -81183.61, 0.0, 10.000089, 9.998435 
4.1503e+2, 2.043199e+2, -958151.56, -980331.9, -4402.6606, 0.10859554, -0.1045565, -957309.6, -19657.217, 0.0, 9.999944, 9.9996805 
4.1501915e+2, 2.1431853e+2, -905770.3, -892883.9, 2408.1926, -0.116684526, -0.23566458, -892448.5, -52787.707, 0.0, 9.99958, 9.999782 
4.150104e+2, 2.2431783e+2, -916880.94, -1020119.3, -10358.78, -0.14335036, -0.20585234, -915851.8, -174184.05, 0.0, 9.999587, 9.998225 
4.1500425e+2, 2.34318e+2, -755271.9, -905852.4, -37597.758, 0.08078096, -0.016288294, -746406.2, -102732.945, 0.0, 10.000081, 9.998099 
4.149965e+2, 2.443171e+2, -551458.6, -551750.4, -7989.7134, 0.10533715, -0.00056613307, -543613.44, 2069.0244, 0.0, 9.9999275, 9.999928 
4.1498667e+2, 2.5431472e+2, -593585.56, -505994.34, 52055.336, -0.12660868, -0.26278335, -481761.9, -34064.9, 0.0, 9.998899, 10.000066 
4.1497833e+2, 2.6431382e+2, -595618.4, -539070.4, 19203.41, -0.15090184, -0.3202061, -533165.56, -183463.55, 0.0, 9.998572, 9.999321 
4.1497183e+2, 2.7431473e+2, -435649.7, -421814.78, 4759.647, 0.08733486, -0.17163816, -420335.5, -168639.05, 0.0, 9.999039, 9.999231 
4.1496372e+2, 2.8431365e+2, -346938.3, -487611.53, 18850.69, 0.10181829, -0.13433592, -344456.03, -190745.55, 0.00000000001177225, 9.99966, 9.99781 
4.1495353e+2, 2.9431012e+2, -165521.88, -361685.53, -6809.752, -0.1733878, -0.276725, -165285.75, -109537.54, 0.0000013022876, 10.000283, 9.997699 
4.1494545e+2, 3.043098e+2, -80936.48, -191707.78, -65850.16, -0.23596704, -0.11995227, -50276.71, -50276.71, 0.000014524035, 10.000084, 9.998633 
4.149411e+2, 3.143094e+2, -177150.13, -28301.04, -158861.14, 0.13644513, -0.053895384, 72704.96, 72704.96, 0.000053920798, 9.998481, 10.00053 
4.250959e+2, 1.2433021e+2, -1675183.5, -1893314.6, 58095.047, -0.06608078, -0.48822856, -1660675.9, 60856.81, 0.000114420596, 10.001059, 9.9982605 
4.2508656e+2, 1.3433155e+2, -1487010.4, -1685751.0, -133081.38, -0.056594852, -0.26308054, -1420293.0, 203231.53, 0.00005866896, 10.001414, 9.998848 
4.2508024e+2, 1.443313e+2, -1447774.0, -1614251.9, -51102.242, 0.16578987, -0.17096275, -1433339.3, 92191.46, 0.00002226237, 10.0010195, 9.998842 
4.2507064e+2, 1.543295e+2, -1588952.4, -1635077.4, -7629.2173, 0.0058121597, -0.25341654, -1587723.3, -160172.44, 0.0000044458184, 9.999396, 9.998809 
4.2506257e+2, 1.6432853e+2, -1512394.3, -1418453.0, 31969.146, -0.014707326, -0.27960742, -1408605.9, -79045.234, 0.00000009724189, 9.998696, 9.999958 
4.2505538e+2, 1.7432873e+2, -1330345.1, -1268709.4, -445.4372, 0.033406116, -0.28229228, -1268706.3, -37150.133, 0.0, 9.999224, 10.00006 
4.2504743e+2, 1.8432899e+2, -1235467.1, -1268340.4, -43555.656, 0.065166846, -0.2193448, -1205350.0, -71795.664, 0.0, 9.999624, 9.999193 
4.2503875e+2, 1.9432916e+2, -1116698.4, -1170729.8, -14573.459, 0.105487086, -0.13176282, -1113018.3, -77460.32, 0.0, 9.9998045, 9.999107 
4.2502937e+2, 2.0432867e+2, -991298.8, -1010554.56, 10760.938, 0.06280002, -0.10760012, -986487.4, -48923.355, 0.0, 9.999784, 9.999541 
4.2501882e+2, 2.1432728e+2, -934742.9, -930221.56, -12054.966, -0.10004056, -0.22125424, -920217.1, -80642.695, 0.0, 9.999488, 9.999565 
4.250102e+2, 2.2432636e+2, -904617.8, -999711.1, 42163.05, -0.12101059, -0.2094165, -888616.0, -147032.0, 0.0, 9.999606, 9.998358 
4.2500398e+2, 2.3432612e+2, -723610.3, -871751.6, 84117.055, 0.039425865, -0.07647398, -685600.0, -42007.867, 0.0, 10.000218, 9.998268 
4.249963e+2, 2.4432535e+2, -515471.7, -519951.16, 72303.875, 0.08519511, -0.061954804, -445372.88, 100226.695, 0.0, 10.000105, 10.000068 
4.2498678e+2, 2.5432375e+2, -560160.44, -476059.47, 22786.781, -0.009833704, -0.25714007, -470282.34, -22675.328, 0.0, 9.999061, 10.000198 
4.2497844e+2, 2.6432303e+2, -569844.7, -579370.1, 11307.684, -0.015532784, -0.2846689, -562337.6, -212725.45, 0.0, 9.998974, 9.998857 
4.2497152e+2, 2.7432325e+2, -307005.72, -412662.75, -13273.056, 0.1022643, -0.1545688, -305363.8, -53747.973, 0.0, 10.000152, 9.998759 
4.2496333e+2, 2.8432205e+2, -217607.31, -395985.97, 27924.125, 0.062767714, -0.1147046, -213338.14, -59706.414, 0.0000000012455732, 10.000423, 9.99807 
4.2495343e+2, 2.9431906e+2, -256725.4, -373174.38, 97152.05, -0.16753104, -0.23358874, -201686.42, -146023.48, 0.0000019825331, 9.999512, 9.997997 
4.249455e+2, 3.0431834e+2, -211099.98, -286003.78, 103961.81, -0.19999288, -0.11476909, -138049.83, -138049.83, 0.000019596095, 9.999337, 9.998346 
4.249409e+2, 3.1431776e+2, 87767.484, 122336.84, -44284.605, 0.19328827, -0.039038137, 152590.42, 152590.42, 0.00006922057, 10.000217, 10.000729 
4.3509838e+2, 1.24340616e+2, -1689373.3, -1922505.9, 92542.55, 0.04024357, -0.07029193, -1657104.6, 64335.844, 0.00010246441, 10.001079, 9.998045 
4.3508923e+2, 1.3433844e+2, -1507115.6, -1728127.3, -111869.32, 0.04788511, -0.1656339, -1460375.5, 163089.19, 0.000052240124, 10.001424, 9.998552 
4.3508142e+2, 1.4433762e+2, -1353369.8, -1415669.4, -107845.92, 0.16441725, -0.17716725, -1272265.1, 253207.31, 0.000019361623, 10.001005, 10.000214 
4.3506932e+2, 1.5433767e+2, -1477109.0, -1414629.0, -61923.746, -0.08400409, -0.22583856, -1376511.3, 50956.766, 0.0000034941986, 9.99944, 10.000303 
4.3506056e+2, 1.6433755e+2, -1549994.3, -1497728.8, 39040.895, -0.103262514, -0.22279584, -1476881.6, -147413.6, 0.000000032016867, 9.998706, 9.999408 
4.3505487e+2, 1.7433725e+2, -1379230.5, -1369887.0, 26121.38, 0.0411111, -0.20523207, -1348022.9, -116550.125, 0.0, 9.999222, 9.999367 
4.3504703e+2, 1.8433717e+2, -1184233.3, -1148215.4, -40816.074, 0.051294506, -0.17818776, -1121611.9, 11863.137, 0.0, 9.999569, 10.000044 
4.35037e+2, 1.9433726e+2, -1056144.5, -1032200.0, -1858.5951, -0.06619249, -0.19477955, -1032056.56, 3418.397, 0.0, 9.999754, 10.000081 
4.350278e+2, 2.043372e+2, -1026043.94, -1066584.5, -5962.6978, -0.084558085, -0.16601564, -1025185.1, -87708.57, 0.0, 9.999715, 9.99919 
4.350195e+2, 2.1433681e+2, -975149.1, -999553.4, -18533.398, 0.0023790828, -0.13351344, -965161.6, -125680.766, 0.0, 9.999425, 9.999119 
4.3501124e+2, 2.2433583e+2, -842345.25, -847709.94, 56053.3, 0.010429783, -0.15480006, -788910.2, -47420.03, 0.0, 9.999512, 9.999447 
4.35003e+2, 2.3433398e+2, -650382.0, -700494.06, 111690.664, -0.08643097, -0.30246857, -560971.44, 82535.19, 0.0, 10.000137, 9.999482 
4.349952e+2, 2.4433313e+2, -593006.0, -668064.06, 29944.348, -0.041868884, -0.31396943, -582523.7, -37009.035, 0.0, 10.000049, 9.999078 
4.349878e+2, 2.5433347e+2, -651048.0, -647979.94, -12506.237, 0.17588763, -0.20205356, -636914.0, -189401.55, 0.0, 9.998989, 9.999053 
4.3497944e+2, 2.643331e+2, -613179.8, -663127.9, 44707.48, 0.17698191, -0.10522299, -586943.9, -237424.13, 0.0, 9.998945, 9.998297 
4.3496978e+2, 2.7433172e+2, -349056.84, -491368.6, 37508.46, -0.10369219, -0.08418545, -339776.13, -88235.74, 0.0, 10.000109, 9.998243 
4.3496126e+2, 2.8433102e+2, -106392.875, -155312.75, -7237.9355, -0.19783168, -0.045299463, -105344.45, 48205.184, 0.000000012355592, 10.000387, 9.999738 
4.349543e+2, 2.943311e+2, -142344.1, -119863.31, 68791.73, -0.04748211, -0.039639875, -61399.703, -5854.276, 0.0000027659546, 9.999446, 9.999768 
4.34947e+2, 3.0432957e+2, -241252.28, -345136.22, 129195.195, 0.008330961, -0.077621154, -153948.55, -153948.55, 0.000024042205, 9.999316, 9.997953 
4.3493974e+2, 3.1432635e+2, 62237.99, 88048.08, -6253.3867, 0.023652067, -0.20680082, 89483.37, 89483.37, 0.00008111006, 10.00014, 10.000527 
4.4510013e+2, 1.2434771e+2, -1572930.9, -1753655.8, 67345.13, 0.09996265, 0.077842094, -1550595.8, 170782.22, 0.000089493355, 10.001414, 9.999032 
4.4509006e+2, 1.3434476e+2, -1748788.6, -1747133.6, -111976.89, 0.09953038, -0.18279617, -1635981.1, -12576.497, 0.000044922584, 9.999357, 9.999416 
4.4508117e+2, 1.443442e+2, -1625511.6, -1523779.6, -49795.84, 0.14417674, -0.22481848, -1503463.0, 21944.672, 0.00001621496, 9.999044, 10.000414 
4.450697e+2, 1.543448e+2, -1257998.4, -1288011.6, -116203.1, -0.05729853, -0.23295572, -1155837.0, 271561.3, 0.0000027558995, 10.00086, 10.000485 
4.450609e+2, 1.6434506e+2, -1153668.8, -1286019.0, -44842.887, -0.065159135, -0.21097586, -1139906.3, 189488.5, 0.000000035556127, 10.001329, 9.9996 
4.4505438e+2, 1.743449e+2, -1249129.3, -1284383.6, -5805.7754, 0.034119923, -0.1994754, -1248197.8, -16799.887, 0.0, 10.000023, 9.999565 
4.450462e+2, 1.8434487e+2, -1227880.9, -1155136.8, -36622.016, 0.030792546, -0.1841297, -1139894.0, -6494.6045, 0.0, 9.999195, 10.000181 
4.4503644e+2, 1.9434491e+2, -1170037.8, -1071625.0, -71338.625, -0.04941918, -0.2213594, -1034168.44, 1231.4585, 0.0, 9.998896, 10.000227 
4.4502762e+2, 2.04345e+2, -1119678.4, -1093511.0, -71534.53, -0.035856154, -0.18979183, -1033873.5, -96473.65, 0.0, 9.999002, 9.999346 
4.4501972e+2, 2.1434513e+2, -941386.75, -966857.75, -51005.35, 0.07988808, -0.121446475, -901551.0, -62151.004, 0.0, 9.999591, 9.999263 
4.450114e+2, 2.2434445e+2, -826128.5, -788898.75, 21140.105, 0.088598765, -0.1422325, -779345.94, -37940.074, 0.0, 9.999396, 9.999903 
4.4500262e+2, 2.3434265e+2, -905878.8, -773576.9, 10333.196, -0.039520368, -0.33278957, -772774.7, -129354.56, 0.0, 9.998161, 9.999934 
4.4499448e+2, 2.4434209e+2, -862638.06, -799276.1, -34042.313, -0.025831698, -0.34020135, -784453.75, -239028.27, 0.0, 9.998205, 9.999061 
4.4498712e+2, 2.54343e+2, -522052.22, -591324.2, -3992.607, 0.16532016, -0.16690987, -521822.84, -74402.79, 0.0, 9.999899, 9.999 
4.4497886e+2, 2.6434273e+2, -407502.1, -553966.1, 118894.336, 0.15807329, -0.06385531, -341096.03, 8331.346, 0.0, 10.000318, 9.99838 
4.4496942e+2, 2.7434084e+2, -486260.28, -547626.75, 147233.78, -0.097765535, -0.09874048, -366546.56, -115095.125, 0.0, 9.999129, 9.998324 
4.4496095e+2, 2.8434035e+2, -364370.28, -273255.8, 67600.19, -0.1751384, -0.045769233, -237294.67, -83835.94, 0.00000003062236, 9.998585, 9.999797 
4.4495377e+2, 2.943414e+2, -233508.55, -150510.2, -5601.4995, -0.0046917554, 0.047519565, -150133.86, -94687.07, 0.0000032981313, 9.998773, 9.999876 
4.449466e+2, 3.043394e+2, -272827.44, -331410.4, 57605.543, 0.056110587, -0.05342653, -237493.94, -237493.94, 0.000027025699, 9.998965, 9.998214 
4.449391e+2, 3.143364e+2, -70179.7, 39460.926, -46037.21, 0.0049520084, -0.1920962, 56227.563, 56227.563, 0.00008860118, 9.999141, 10.000679 
4.551009e+2, 1.24351606e+2, -1421322.0, -1444880.5, 3464.794, -0.009000179, -0.040886883, -1420823.0, 300521.03, 0.00007906838, 10.001439, 10.001139 
4.550887e+2, 1.3435043e+2, -1605451.5, -1464711.1, -182212.08, 0.0127832, -0.31995803, -1339752.9, 283592.75, 0.00003857364, 9.999416, 10.001328 
4.550793e+2, 1.4435084e+2, -1682700.5, -1650470.1, 6731.431, 0.028973894, -0.32214123, -1649120.8, -123782.77, 0.000013268856, 9.999082, 9.999526 
4.550715e+2, 1.5435097e+2, -1334558.8, -1445469.4, -37587.195, 0.015985304, -0.2706043, -1323020.9, 104320.016, 0.0000020825275, 10.00086, 9.999403 
4.550634e+2, 1.643512e+2, -1090032.8, -1151576.1, -93588.625, 0.03478976, -0.23633845, -1022286.8, 307052.72, 0.00000004449902, 10.001313, 10.000533 
4.5505375e+2, 1.7435165e+2, -1171214.9, -1128924.6, -49084.17, -0.0491726, -0.27016875, -1096624.8, 134707.13, 0.0, 10.000041, 10.000627 
4.5504466e+2, 1.8435204e+2, -1272787.4, -1238453.1, -55475.832, -0.05540057, -0.2460626, -1197548.9, -64220.527, 0.0, 9.999157, 9.999625 
4.5503685e+2, 1.943521e+2, -1225567.8, -1174157.4, -76528.26, 0.08300532, -0.21055342, -1119132.6, -83800.414, 0.0, 9.998846, 9.999544 
4.5502847e+2, 2.0435217e+2, -1084753.0, -1004327.9, -59000.223, 0.13867843, -0.17606764, -973139.6, -35806.094, 0.0, 9.998927, 9.999996 
4.5501933e+2, 2.143522e+2, -900365.06, -860434.2, -22170.352, 0.067062296, -0.19132376, -850564.3, -11232.606, 0.0, 9.999499, 10.000037 
4.550106e+2, 2.2435223e+2, -851992.0, -822861.7, -26268.596, 0.054988377, -0.17435175, -807390.5, -66059.445, 0.0, 9.999311, 9.999713 
4.550025e+2, 2.3435216e+2, -932172.75, -812765.5, -30112.03, 0.11517879, -0.1672708, -805601.7, -162269.23, 0.0, 9.9980955, 9.999696 
4.549938e+2, 2.4435222e+2, -803447.0, -662084.8, 17145.375, 0.07224551, -0.14378667, -660035.0, -114703.07, 0.0, 9.998145, 10.000032 
4.5498446e+2, 2.5435233e+2, -457653.8, -439022.4, 65914.914, -0.1057051, -0.15503454, -381768.16, 65561.73, 0.0, 9.999821, 10.000084 
4.5497647e+2, 2.6435187e+2, -364882.06, -454528.22, 76795.49, -0.12269826, -0.16036628, -320785.75, 28549.037, 0.0, 10.000271, 9.999085 
4.5497024e+2, 2.7435064e+2, -449371.53, -455607.34, 109813.41, 0.058592755, -0.2019218, -342631.78, -91282.875, 0.0, 9.999062, 9.998988 
4.5496216e+2, 2.8435007e+2, -481974.94, -503343.97, 66700.56, 0.07576474, -0.12108845, -425108.56, -271749.7, 0.000000022691747, 9.998523, 9.99825 
4.549517e+2, 2.9434994e+2, -356558.7, -393910.56, 9299.993, -0.105781466, 0.027810657, -354371.25, -299004.16, 0.0000033719941, 9.998713, 9.998239 
4.5494395e+2, 3.043478e+2, -213437.31, -195578.81, 62673.58, -0.1173097, -0.047650326, -141201.6, -141201.6, 0.000028147611, 9.998921, 9.999164 
4.5493877e+2, 3.1434777e+2, -45766.117, 116664.29, -35126.895, 0.028950209, 0.0056635053, 123935.29, 123935.29, 0.00009108323, 9.999035, 10.001258 
4.6510103e+2, 1.2435734e+2, -1752892.4, -1582285.0, 185924.03, -0.01253864, -0.20513844, -1463029.5, 258255.64, 0.000072079085, 9.999053, 10.0013485 
4.65089e+2, 1.343582e+2, -1456666.1, -1394402.4, -177397.16, 0.053897064, -0.28218347, -1245426.1, 377844.72, 0.000033639506, 10.000427, 10.00133 
4.6507874e+2, 1.4435957e+2, -1461373.6, -1523570.5, 4876.9277, -0.0008173751, -0.19751605, -1460993.5, 64262.05, 0.000010536622, 10.000505, 9.999713 
4.6507156e+2, 1.5435927e+2, -1622436.4, -1562061.3, 38217.707, 0.04537555, -0.21050578, -1543546.9, -116285.055, 0.0000014175026, 9.99878, 9.999608 
4.6506348e+2, 1.6435939e+2, -1545758.6, -1334939.1, 16697.275, 0.07842618, -0.2134359, -1333624.9, -4364.0635, 0.000000030371112, 9.998043, 10.000845 
4.650532e+2, 1.7436008e+2, -1355052.0, -1181037.1, -8235.149, -0.032891028, -0.25640625, -1180648.3, 50601.855, 0.0, 9.998628, 10.00095 
4.6504387e+2, 1.8436055e+2, -1272473.1, -1237244.5, 1639.1086, -0.042767614, -0.24096519, -1237168.4, -103923.38, 0.0, 9.999159, 9.999631 
4.6503624e+2, 1.9436055e+2, -1123245.3, -1130057.3, 20769.52, 0.11154113, -0.20915696, -1105604.3, -70355.414, 0.0, 9.999567, 9.999503 
4.650279e+2, 2.0436054e+2, -965249.75, -939568.4, 62014.3, 0.15334624, -0.18230249, -889079.3, 48171.414, 0.0, 9.99971, 10.000065 
4.6501842e+2, 2.143605e+2, -897868.56, -854068.94, 34072.04, 0.036341876, -0.21232197, -835465.6, 3784.752, 0.0, 9.999487, 10.000089 
4.6500972e+2, 2.2436064e+2, -825363.8, -824479.75, -3682.254, 0.026596839, -0.18054825, -821213.1, -79963.53, 0.0, 9.999564, 9.999576 
4.650019e+2, 2.3436092e+2, -655000.1, -696710.6, -14179.88, 0.15755591, -0.12500897, -650636.1, -7386.883, 0.0, 10.000079, 9.999535 
4.649932e+2, 2.4436119e+2, -540378.8, -513632.13, 42771.773, 0.1175823, -0.07923251, -482191.75, 63055.773, 0.0, 9.999853, 10.000232 
4.649833e+2, 2.543614e+2, -607881.25, -487616.34, 18952.662, -0.14154647, -0.10424808, -484700.28, -37455.242, 0.0, 9.998681, 10.0003 
4.6497542e+2, 2.6436105e+2, -613293.3, -518401.13, -21115.918, -0.15809658, -0.13425389, -513914.44, -164666.5, 0.0, 9.998317, 9.999593 
4.6496996e+2, 2.7435994e+2, -431274.88, -387691.97, -13880.446, 0.13359553, -0.21359386, -383646.72, -132388.73, 0.0, 9.998926, 9.999524 
4.64962e+2, 2.8435943e+2, -342918.44, -441468.44, 29326.42, 0.16381751, -0.15255989, -334851.78, -181585.47, 0.00000001636591, 9.9994955, 9.998206 
4.6495092e+2, 2.943594e+2, -158921.05, -301375.6, 81899.69, -0.1183454, 0.007924963, -121608.54, -66333.21, 0.0000038591365, 10.000081, 9.998213 
4.6494323e+2, 3.0435765e+2, -60430.133, -81075.29, 151932.16, -0.121119484, -0.047356725, 81529.72, 81529.72, 0.00002953643, 9.999789, 9.999543 
4.6493757e+2, 3.1435853e+2, -184531.89, 35647.64, -29871.35, 0.05538282, 0.06591783, 39628.266, 39628.266, 0.00009247593, 9.998146, 10.001135 
4.7509998e+2, 1.2436476e+2, -1861612.1, -1802730.5, 223613.55, -0.064451024, -0.41122925, -1606628.0, 114575.164, 0.00006757851, 9.999049, 9.999827 
4.7509062e+2, 1.3436808e+2, -1584097.4, -1652877.4, -117251.19, 0.15944535, -0.06549378, -1496296.9, 126883.18, 0.000029630666, 10.000416, 9.999553 
4.7507936e+2, 1.4437038e+2, -1371929.5, -1340327.4, -54350.023, -0.011276688, 0.14691699, -1299528.1, 225632.23, 0.00000816001, 10.000505, 10.000977 
4.750696e+2, 1.5436964e+2, -1510019.3, -1342786.8, -19962.557, -0.048054647, -0.055112842, -1340436.9, 86724.92, 0.0000009257674, 9.998834, 10.00109 
4.750609e+2, 1.6436951e+2, -1562916.3, -1374103.5, 25875.941, 0.000509991, -0.14847745, -1370621.5, -41461.9, 0.000000014696447, 9.998059, 10.000569 
4.7505254e+2, 1.7437007e+2, -1381577.5, -1237783.8, 20381.451, 0.02192578, -0.16342635, -1234950.6, -3797.1882, 0.0, 9.998639, 10.000553 
4.7504365e+2, 1.8437038e+2, -1235019.4, -1153554.6, 12475.272, 0.0022504493, -0.17066672, -1151687.0, -18537.371, 0.0, 9.99913, 10.000222 
4.7503456e+2, 1.9437024e+2, -1079325.1, -1034213.44, 42219.37, -0.028677206, -0.2183236, -1008902.4, 26247.611, 0.0, 9.999544, 10.0001745 
4.750257e+2, 2.0437016e+2, -1012136.75, -1023267.0, 49260.273, -0.049315505, -0.20969453, -968128.25, -30976.744, 0.0, 9.999653, 9.999517 
4.7501695e+2, 2.1437009e+2, -952751.06, -950738.3, 30171.049, -0.07732757, -0.17923151, -921556.9, -82401.44, 0.0, 9.999415, 9.999458 
4.7500855e+2, 2.2436969e+2, -839254.6, -842486.2, 8261.446, -0.05957385, -0.16245838, -832452.44, -91290.875, 0.0, 9.99951, 9.999482 
4.750008e+2, 2.3436888e+2, -671047.2, -710497.0, 10970.837, 0.025045857, -0.20751505, -668201.5, -25030.875, 0.0, 9.999992, 9.999484 
4.749925e+2, 2.44369e+2, -589736.56, -604406.1, -2714.4521, 0.050014812, -0.14838931, -589250.4, -44078.01, 0.0, 9.9998, 9.999635 
4.7498348e+2, 2.5437015e+2, -664297.94, -591102.44, -19336.854, -0.005721955, -0.01646043, -586308.06, -139141.97, 0.0, 9.998615, 9.999625 
4.7497538e+2, 2.643702e+2, -599574.7, -475881.25, -6159.898, -0.006059289, 0.015718559, -475575.25, -126408.016, 0.0, 9.998258, 9.999909 
4.7496825e+2, 2.7436873e+2, -412155.97, -333450.88, 16161.534, 0.05584377, -0.13755995, -330261.47, -79082.38, 0.0, 9.998866, 9.999923 
4.7496027e+2, 2.843685e+2, -241735.47, -229421.8, 45713.227, 0.024370631, -0.14212401, -189452.66, -36271.406, 0.0000000367379, 9.999481, 9.999671 
4.7495127e+2, 2.9436958e+2, -59017.29, -85643.89, 112228.266, -0.10944883, -0.021437002, 40684.57, 95857.24, 0.000004901276, 10.0000305, 9.999726 
4.7494414e+2, 3.0436873e+2, -84458.06, -112742.17, 92542.12, -0.017752044, -0.059453152, -4983.6597, -4983.6597, 0.000032485186, 9.999715, 9.999357 
4.7493502e+2, 3.143684e+2, -253639.1, -92399.16, -69025.695, -0.044494256, -0.031491645, -66886.54, -66886.54, 0.000096372605, 9.998075, 10.000289 
4.8510015e+2, 1.2437381e+2, -1830261.5, -1797083.4, 208120.73, 0.04309241, -0.39755723, -1604891.6, 116220.484, 0.00006360682, 9.999294, 9.99975 
4.8509046e+2, 1.343768e+2, -1862554.9, -1818015.5, -42709.76, 0.19896804, -0.05912653, -1792118.1, -169024.64, 0.000025765483, 9.99862, 9.999293 
4.8507798e+2, 1.4437862e+2, -1613137.5, -1446852.3, 38813.453, -0.11073253, 0.114686154, -1438238.8, 86839.7, 0.000006126259, 9.998823, 10.001049 
4.850691e+2, 1.5437767e+2, -1320260.3, -1242488.3, -49582.555, -0.0411159, -0.116854906, -1218362.0, 208718.75, 0.0000005794279, 10.000108, 10.001163 
4.8506063e+2, 1.6437745e+2, -1247350.3, -1279970.0, -51800.016, 0.049361702, -0.1978266, -1209353.1, 119726.77, 0.0000000048834687, 10.000473, 10.000052 
4.8505175e+2, 1.7437807e+2, -1274375.5, -1249145.4, -77822.664, 0.035475254, -0.15274143, -1182922.0, 48154.633, 0.0, 9.999646, 9.999989 
4.8504257e+2, 1.8437853e+2, -1207861.1, -1095408.1, -79279.09, -0.012666666, -0.13166572, -1054441.0, 78630.93, 0.0, 9.999123, 10.000621 
4.8503345e+2, 1.9437878e+2, -1135852.3, -1007734.5, -73674.26, -0.062232733, -0.19134553, -974164.3, 60902.28, 0.0, 9.99893, 10.000647 
4.8502463e+2, 2.0437884e+2, -1127223.8, -1090296.9, -53044.934, -0.084454834, -0.18860155, -1052593.9, -115527.664, 0.0, 9.998915, 9.999415 
4.850161e+2, 2.143786e+2, -1007872.2, -991737.56, -41935.02, -0.08131513, -0.16159901, -957100.94, -118027.47, 0.0, 9.999101, 9.99933 
4.8500788e+2, 2.2437836e+2, -872302.3, -810359.25, -11198.969, -0.051576603, -0.14385399, -808396.7, -67318.23, 0.0, 9.999077, 9.999911 
4.850001e+2, 2.3437801e+2, -812002.7, -727847.1, 20514.703, 0.01809273, -0.18818991, -723112.56, -80030.85, 0.0, 9.998798, 9.999941 
4.8499173e+2, 2.4437818e+2, -749366.25, -709100.4, 33956.008, 0.045751162, -0.1378291, -689757.44, -144674.11, 0.0, 9.998828, 9.999381 
4.8498267e+2, 2.543789e+2, -592993.0, -587776.25, 27222.852, 0.0231276, -0.01592053, -563037.1, -115953.92, 0.0, 9.9992485, 9.999337 
4.8497424e+2, 2.643792e+2, -422337.2, -353214.94, 83396.68, 0.0073990226, 0.04055479, -297501.6, 51581.215, 0.0, 9.999314, 10.000243 
4.8496664e+2, 2.7437872e+2, -374982.47, -274242.1, 95606.7, 0.0065858318, -0.051169343, -216548.4, 34535.824, 0.0, 9.998936, 10.000299 
4.8495853e+2, 2.8437865e+2, -344378.9, -220927.92, 99679.17, -0.04763782, -0.07874208, -165410.2, -12327.448, 0.00000008825205, 9.998532, 10.000185 
4.8494998e+2, 2.943793e+2, -308135.06, -146752.75, 72388.375, -0.13945742, -0.05139425, -119041.234, -63965.465, 0.0000056074396, 9.998082, 10.0002365 
4.8494363e+2, 3.0437878e+2, -241729.58, -171131.16, 34106.52, 0.023770098, -0.092806704, -157345.86, -157345.86, 0.000034672463, 9.998556, 9.999503 
4.8493418e+2, 3.143784e+2, 51010.645, 63043.973, -97901.086, -0.029286087, -0.08796034, 155113.1, 155113.1, 0.000099448036, 10.000133, 10.000352 
4.951011e+2, 1.2438434e+2, -1736081.3, -1607901.1, 146847.7, 0.1668748, -0.18343748, -1511767.0, 209245.88, 0.00005696404, 9.999325, 10.001034 
4.9508822e+2, 1.3438441e+2, -1772753.0, -1636578.8, -62481.48, 0.0957121, -0.26034412, -1612254.9, 10755.859, 0.00002106699, 9.998646, 10.000523 
4.9507436e+2, 1.4438438e+2, -1690985.1, -1615150.6, 76764.37, -0.37264416, -0.28154835, -1567449.6, -42439.977, 0.000004231548, 9.998849, 9.999883 
4.9506977e+2, 1.5438345e+2, -1411353.9, -1432148.9, 4408.6094, -0.0033581224, -0.38261047, -1410457.9, 16559.697, 0.00000029436407, 10.0001135, 9.999856 
4.9506238e+2, 1.6438334e+2, -1301941.9, -1388274.4, -84698.84, 0.16174944, -0.3508517, -1250043.9, 78976.71, 0.0000000005507737, 10.000449, 9.999322 
4.9505073e+2, 1.7438413e+2, -1321982.8, -1347886.1, -103379.836, -0.049155366, -0.21875753, -1230746.5, 272.17822, 0.0, 9.999647, 9.999309 
4.9504057e+2, 1.8438508e+2, -1198015.8, -1067767.8, -93841.98, -0.14209571, -0.12382378, -1018666.4, 114345.26, 0.0, 9.99909, 10.000828 
4.950326e+2, 1.9438611e+2, -1120291.5, -968585.0, -77263.72, -0.05194003, -0.13074072, -936163.6, 98835.64, 0.0, 9.9988985, 10.000932 
4.9502438e+2, 2.0438655e+2, -1107219.6, -1035725.44, -53132.03, -0.009258652, -0.1247063, -1007434.5, -70439.04, 0.0, 9.998854, 9.999824 
4.9501577e+2, 2.1438617e+2, -987362.06, -936162.75, -29036.154, -0.03593372, -0.15270533, -923052.7, -84049.43, 0.0, 9.999038, 9.999746 
4.950075e+2, 2.2438666e+2, -819389.3, -682634.94, -24762.549, -0.012647195, -0.12538078, -678289.2, 62710.78, 0.0, 9.999003, 10.000822 
4.949996e+2, 2.3438823e+2, -758635.44, -596113.5, 15898.023, 0.07214581, -0.073271446, -594572.94, 48410.22, 0.0, 9.998713, 10.000886 
4.9499065e+2, 2.4438868e+2, -748918.3, -699732.0, 43462.94, 0.041077986, -0.04741647, -674386.7, -129406.19, 0.0, 9.998788, 9.999466 
4.9498054e+2, 2.5438762e+2, -598338.44, -588188.94, 49272.51, -0.13245215, -0.10819794, -543730.5, -96733.59, 0.0, 9.999197, 9.999361 
4.9497184e+2, 2.6438797e+2, -405898.78, -306016.03, 64782.105, -0.18019879, -0.06479051, -274159.72, 74835.79, 0.0, 9.999262, 10.000591 
4.9496478e+2, 2.7438986e+2, -362049.3, -227472.63, 89105.53, -0.08628888, 0.03782963, -183102.92, 67871.08, 0.0, 9.998853, 10.000658 
4.949565e+2, 2.8439015e+2, -389206.56, -299976.6, 77356.49, -0.1191014, 0.04936857, -255291.39, -102321.73, 0.00000018947561, 9.998472, 9.999671 
4.949468e+2, 2.9438856e+2, -354021.9, -233724.25, 64564.508, -0.28103378, -0.08542099, -205632.17, -150646.83, 0.000005616016, 9.998042, 9.99966 
4.949416e+2, 3.043877e+2, -211555.73, -99684.62, 85835.43, -0.05301471, -0.15271474, -53167.715, -53167.715, 0.000033520122, 9.998519, 10.00001 
4.9493456e+2, 3.143884e+2, 104172.62, 193973.42, 3482.9941, -0.04034073, -0.107670985, 194108.31, 194108.31, 0.000095768366, 10.000049, 10.0012865 
5.050993e+2, 1.24393634e+2, -1945597.1, -1658716.4, 146915.34, 0.14423452, -0.08960215, -1596829.5, 124096.88, 0.000046012723, 9.997696, 10.001464 
5.050881e+2, 1.3439277e+2, -1651224.1, -1535053.3, -117366.195, 0.19618797, -0.29953074, -1462185.5, 160742.28, 0.000015500982, 9.999286, 10.000921 
5.0507414e+2, 1.4439195e+2, -1594066.4, -1650185.1, 15266.248, -0.32826468, -0.38324305, -1590182.3, -65249.15, 0.0000026245805, 9.999877, 9.999142 
5.050699e+2, 1.543911e+2, -1606895.8, -1620445.0, -43161.223, 0.05230346, -0.39285, -1569980.8, -143035.97, 0.00000011750303, 9.999181, 9.999012 
5.0506234e+2, 1.643911e+2, -1503663.4, -1444416.1, -82383.52, 0.1921018, -0.32199773, -1386492.0, -57544.273, 0.000000000026416515, 9.998884, 9.999689 
5.050498e+2, 1.7439207e+2, -1373814.8, -1327520.6, -32325.96, -0.071988925, -0.2129299, -1310909.0, -79968.14, 0.0, 9.999086, 9.999723 
5.050393e+2, 1.843929e+2, -1243326.9, -1123033.8, 11790.461, -0.16557433, -0.13672557, -1121889.0, 11045.31, 0.0, 9.998931, 10.000523 
5.050315e+2, 1.9439349e+2, -1232935.9, -1061589.1, -30587.537, -0.01654283, -0.15084195, -1056292.6, -21363.795, 0.0, 9.998306, 10.000573 
5.050235e+2, 2.0439404e+2, -1161170.9, -983357.2, 11422.1045, 0.053404383, -0.1472569, -982626.5, -45702.563, 0.0, 9.998146, 10.000518 
5.05015e+2, 2.1439448e+2, -1014964.3, -864578.56, 48552.156, 0.016051015, -0.16902933, -850265.7, -11344.775, 0.0, 9.998489, 10.000497 
5.0500655e+2, 2.2439553e+2, -882094.8, -719860.44, 24248.47, 0.01762888, -0.12385227, -716313.6, 24598.344, 0.0, 9.998598, 10.000764 
5.04998e+2, 2.3439728e+2, -814632.0, -634413.75, -26784.863, 0.07128106, -0.042343237, -630517.06, 12378.828, 0.0, 9.998377, 10.000785 
5.049889e+2, 2.4439786e+2, -786286.06, -666372.0, 4434.867, 0.01201469, -0.01959462, -666208.2, -121316.195, 0.0, 9.998318, 9.999922 
5.0497895e+2, 2.5439683e+2, -659590.75, -562228.7, 35812.207, -0.1749942, -0.12505007, -550475.0, -103570.21, 0.0, 9.998543, 9.999857 
5.0497055e+2, 2.6439703e+2, -476436.38, -380752.75, 49015.426, -0.21282399, -0.10327466, -360101.13, -11197.509, 0.0, 9.998952, 10.000228 
5.04964e+2, 2.7439874e+2, -296761.28, -243835.38, -5608.921, -0.07658396, 0.023351813, -243247.48, 7638.646, 0.00000000061010413, 9.999514, 10.000223 
5.049559e+2, 2.843988e+2, -209424.94, -213611.44, -32820.703, -0.08399782, 0.038173433, -178630.8, -25746.068, 0.00000027597625, 9.999709, 9.999666 
5.04946e+2, 2.9439703e+2, -160754.64, -139743.73, -16382.374, -0.23096159, -0.11949788, -130787.766, -75885.85, 0.0000049400037, 9.9993725, 9.999664 
5.049406e+2, 3.043965e+2, -174917.48, -69330.47, 50665.203, -0.007436198, -0.15767708, -48952.14, -48952.14, 0.000029285811, 9.998714, 10.000135 
5.049328e+2, 3.143985e+2, -219097.3, 77050.88, -58947.813, -0.09616873, 0.004946106, 88353.016, 88353.016, 0.000085814645, 9.997645, 10.00166 
5.150943e+2, 1.2440179e+2, -1967603.6, -1716890.0, 149056.0, -0.16402355, -0.10128783, -1647485.4, 73365.95, 0.00003362694, 9.997753, 10.001033 
5.1509e+2, 1.3440198e+2, -1669942.0, -1584360.0, -46117.387, 0.43770567, -0.17293052, -1564239.3, 58603.668, 0.0000102900585, 9.999333, 10.000557 
5.15077e+2, 1.4440143e+2, -1617037.5, -1709585.6, -11721.261, -0.052276004, -0.1914056, -1615576.1, -90728.45, 0.0000014940234, 9.999922, 9.998716 
5.1506937e+2, 1.5440056e+2, -1633515.0, -1679988.4, -61023.684, 0.057632778, -0.15944938, -1591453.6, -164590.98, 0.00000003629146, 9.9992, 9.998594 
5.1506025e+2, 1.6440068e+2, -1409717.3, -1243432.9, -80381.25, 0.078379035, -0.119493894, -1210930.0, 117932.086, 0.0, 9.998861, 10.001077 
5.150488e+2, 1.744019e+2, -1268267.0, -1109108.9, -16854.871, -0.09803276, -0.13877283, -1107343.5, 123499.94, 0.0, 9.999091, 10.001218 
5.150385e+2, 1.8440212e+2, -1305853.6, -1248123.6, -16466.18, -0.15307075, -0.16336666, -1243757.3, -110917.98, 0.0, 9.998911, 9.999671 
5.1502997e+2, 1.9440098e+2, -1305476.1, -1209161.5, -46938.34, -0.02019719, -0.25247225, -1190070.5, -155216.06, 0.0, 9.998288, 9.999569 
5.150217e+2, 2.044013e+2, -1109177.6, -859587.25, 17115.281, 0.04478569, -0.2597097, -858419.06, 78432.79, 0.0, 9.998077, 10.001401 
5.1501364e+2, 2.144034e+2, -950346.0, -719680.25, 66765.43, 0.01613027, -0.21954103, -701749.1, 137078.69, 0.0, 9.998438, 10.001517 
5.150049e+2, 2.2440478e+2, -962238.94, -872480.06, 10100.242, -0.017374188, -0.14767106, -871357.56, -130541.695, 0.0, 9.998537, 9.999746 
5.149953e+2, 2.3440516e+2, -904158.7, -804600.7, -31019.066, -0.055107556, -0.08909325, -795727.06, -152907.31, 0.0, 9.99831, 9.999648 
5.1498616e+2, 2.4440575e+2, -734030.25, -547528.25, 5685.933, -0.10582506, -0.046807203, -547355.06, -2537.8923, 0.0, 9.998272, 10.000761 
5.149776e+2, 2.5440645e+2, -601171.0, -425240.97, 53266.65, -0.17468414, -0.07610818, -410370.3, 36437.09, 0.0, 9.998473, 10.000832 
5.1497024e+2, 2.6440644e+2, -563751.1, -549480.5, 64165.54, -0.1531135, -0.07575665, -492054.78, -143247.48, 0.0, 9.998902, 9.999094 
5.1496416e+2, 2.744053e+2, -393622.6, -431844.47, 23015.133, -0.031627133, -0.10053229, -382818.25, -131996.67, 0.0000000018853024, 9.999456, 9.998962 
5.149565e+2, 2.8440467e+2, -178816.11, -141058.47, -49547.484, -0.008352207, -0.117104426, -106915.0, 45914.02, 0.00000034894228, 9.999671, 10.000183 
5.1494706e+2, 2.9440472e+2, -123994.22, -58074.88, -20902.451, -0.07352893, -0.15782292, -52005.684, 2820.973, 0.0000043002137, 9.999345, 10.00024 
5.149404e+2, 3.044052e+2, -200518.6, -110844.74, 6017.08, 0.08672792, -0.10991273, -110442.8, -110442.8, 0.00002546161, 9.998675, 9.9998665 
5.1492846e+2, 3.1440875e+2, -255628.25, 44193.19, -46705.305, -0.3174401, 0.24101974, 51300.336, 51300.336, 0.00007750593, 9.997479, 10.001508 
5.250934e+2, 1.2441045e+2, -1804353.4, -1726539.8, 146463.13, -0.10366237, -0.042173732, -1613903.9, 106865.125, 0.000024083258, 9.999238, 10.000256 
5.2509063e+2, 1.344101e+2, -1574883.8, -1613452.6, -46990.59, 0.52914923, -0.10147382, -1543374.5, 79395.79, 0.000006343457, 10.0002985, 9.999895 
5.250772e+2, 1.4440976e+2, -1503026.6, -1569845.3, -45330.773, -0.040009163, -0.098893486, -1480123.8, 44650.254, 0.00000066930806, 10.000344, 9.999468 
5.250684e+2, 1.5441048e+2, -1582387.1, -1560512.8, -23410.188, 0.056706563, 0.0057977443, -1545610.9, -118839.836, 0.000000004981165, 9.999141, 9.999441 
5.250587e+2, 1.6441087e+2, -1482451.5, -1265304.9, 8987.053, 0.07642009, 0.022358282, -1264933.6, 63831.855, 0.0, 9.9983, 10.001207 
5.250475e+2, 1.7441075e+2, -1427520.1, -1175404.6, -44657.297, -0.07762878, -0.13818021, -1167728.1, 63029.563, 0.0, 9.997951, 10.001318 
5.250373e+2, 1.8441045e+2, -1428417.0, -1312719.1, -56789.586, -0.12189513, -0.21724561, -1289502.9, -156745.08, 0.0, 9.998095, 9.999624 
5.250287e+2, 1.944098e+2, -1238623.9, -1181490.9, -31172.203, 0.0019110953, -0.24992871, -1167775.6, -133006.81, 0.0, 9.998775, 9.999524 
5.250202e+2, 2.0441033e+2, -998327.94, -817289.75, 41889.027, 0.051175233, -0.23009206, -808067.2, 128697.35, 0.0, 9.998886, 10.001303 
5.250118e+2, 2.1441224e+2, -985070.06, -746683.1, -4559.698, 0.00036651964, -0.19456193, -746595.94, 92145.82, 0.0, 9.998246, 10.001423 
5.250031e+2, 2.244133e+2, -1015331.5, -916792.94, -48897.82, -0.038797013, -0.14234175, -896647.06, -155914.34, 0.0, 9.998263, 9.99957 
5.2499396e+2, 2.3441307e+2, -802183.3, -776977.5, -29355.162, -0.058939423, -0.12617922, -757634.25, -114891.45, 0.0, 9.999111, 9.999451 
5.2498525e+2, 2.4441355e+2, -586683.94, -501439.06, 667.4762, -0.07934783, -0.07116592, -501433.84, 43307.793, 0.0, 9.999389, 10.000538 
5.2497697e+2, 2.5441492e+2, -553811.7, -427173.2, -57470.895, -0.10055162, -0.014064645, -404980.84, 41745.918, 0.0, 9.998908, 10.000607 
5.2496964e+2, 2.6441476e+2, -602283.44, -566257.6, -25307.75, -0.083852164, -0.015539121, -553206.94, -204479.23, 0.0, 9.998624, 9.999116 
5.2496326e+2, 2.744126e+2, -514380.84, -482677.75, 25798.887, -0.017991787, -0.15095872, -468249.72, -217499.56, 0.00000000009174081, 9.998598, 9.999025 
5.249556e+2, 2.844119e+2, -332222.63, -218743.55, -13694.775, -0.009086126, -0.1759889, -217114.23, -64356.652, 0.00000033351301, 9.998636, 10.000148 
5.249464e+2, 2.9441303e+2, -227184.05, -116969.67, -56567.18, -0.038994625, -0.103746705, -93104.414, -38358.35, 0.0000041079616, 9.9986725, 10.000159 
5.249395e+2, 3.0441326e+2, -195762.5, -164700.89, -55332.496, 0.11647032, -0.052391905, -122760.914, -122760.914, 0.000024461535, 9.998943, 9.99937 
5.249272e+2, 3.1441584e+2, -12256.908, 77907.01, -119436.15, -0.28425804, 0.25413802, 160486.23, 160486.23, 0.000075222786, 9.999493, 10.000775 
5.350958e+2, 1.2441941e+2, -1867717.0, -1869613.9, 104399.04, 0.17306331, 0.07057947, -1764262.1, -43580.555, 0.000017799504, 9.9993, 9.999238 
5.3508997e+2, 1.3441715e+2, -1645983.4, -1752623.8, -2304.7344, 0.41483736, -0.0808446, -1645933.6, -23224.35, 0.0000036805177, 10.000269, 9.998957 
5.350746e+2, 1.4441699e+2, -1367810.4, -1291400.5, -89514.41, -0.35445666, -0.10018682, -1232279.0, 292432.8, 0.00000019448485, 10.000345, 10.001382 
5.350671e+2, 1.5442082e+2, -1433326.1, -1257374.9, -62338.008, -0.010800654, 0.106566004, -1237527.8, 189142.28, 0.00000000000050979853, 9.99916, 10.001515 
5.3505766e+2, 1.6442166e+2, -1560984.3, -1427618.8, -13945.104, 0.12193154, 0.10999329, -1426176.1, -97518.32, 0.0, 9.998301, 10.0000925 
5.3504574e+2, 1.7441864e+2, -1517671.6, -1365739.3, -50229.84, -0.06922487, -0.20782441, -1350634.6, -119951.14, 0.0, 9.997965, 10.000007 
5.350354e+2, 1.8441787e+2, -1378147.3, -1206952.1, -38098.137, -0.13490465, -0.29869014, -1198856.5, -66166.7, 0.0, 9.998087, 10.000354 
5.350274e+2, 1.9441983e+2, -1184191.4, -1064361.8, 1858.0416, -0.014434514, -0.15624958, -1064332.9, -29659.96, 0.0, 9.99875, 10.000343 
5.3501874e+2, 2.04421e+2, -1082602.5, -977171.4, 15233.0205, 0.0064058686, -0.06400331, -975014.56, -38351.895, 0.0, 9.998826, 10.00023 
5.350092e+2, 2.1442114e+2, -1078218.3, -925417.44, -23097.84, -0.09263329, -0.08904419, -922002.2, -83340.836, 0.0, 9.998182, 10.000226 
5.350008e+2, 2.2442117e+2, -980720.94, -833029.75, -26225.078, -0.105491035, -0.103423595, -828511.25, -87849.52, 0.0, 9.998207, 10.0001745 
5.349937e+2, 2.3442096e+2, -759056.06, -673941.9, 8977.25, -0.0048960987, -0.16141859, -673005.3, -30340.072, 0.0, 9.999051, 10.000187 
5.3498584e+2, 2.4442124e+2, -688651.25, -700270.3, -19531.998, 0.031677794, -0.101001635, -674083.1, -129417.11, 0.0, 9.999337, 9.999197 
5.349769e+2, 2.5442213e+2, -665209.1, -645964.94, -69534.12, -0.015850015, 0.05527595, -585390.3, -138726.36, 0.0, 9.998853, 9.999131 
5.3496855e+2, 2.6442203e+2, -518940.03, -383231.06, -31949.332, -0.06440235, 0.07614832, -376085.63, -27420.338, 0.0, 9.998581, 10.000392 
5.3496104e+2, 2.744206e+2, -420327.34, -275408.63, 34505.95, -0.11664668, -0.13138652, -267612.03, -16939.979, 0.0, 9.998544, 10.000477 
5.349529e+2, 2.844205e+2, -382571.13, -316004.22, -18244.592, -0.15928921, -0.14060587, -311331.75, -158661.06, 0.00000019037492, 9.998605, 9.9994955 
5.3494376e+2, 2.9442197e+2, -293721.63, -235588.23, -48239.535, -0.18411867, 0.045144737, -208335.08, -153674.88, 0.0000040138116, 9.998588, 9.999388 
5.349376e+2, 3.0442065e+2, -259634.31, -281860.03, -37768.273, 0.027462233, 0.018509354, -231377.92, -231377.92, 0.000024849203, 9.998881, 9.998591 
5.3492844e+2, 3.1441963e+2, -109286.25, -110589.65, -53062.527, -0.14183314, 0.036846127, -56871.414, -56871.414, 0.00007616266, 9.999448, 9.999494 
5.450959e+2, 1.2442647e+2, -1859649.9, -1801630.1, 45387.957, 0.2735647, 0.011294604, -1776773.1, -56158.6, 0.000013143151, 9.99909, 9.999818 
5.450889e+2, 1.3442564e+2, -1883728.1, -1783434.8, 103947.24, 0.38634774, -0.066265576, -1718170.4, -95543.52, 0.000002162896, 9.998278, 9.999709 
5.4507273e+2, 1.4442602e+2, -1675547.3, -1395326.9, 37995.43, -0.45216328, -0.09033715, -1390266.4, 134356.5, 0.000000029643958, 9.998045, 10.001777 
5.4506606e+2, 1.5442923e+2, -1448071.9, -1219653.8, -78204.88, -0.00890662, 0.015914032, -1195444.3, 231141.25, 0.0, 9.99887, 10.001911 
5.450569e+2, 1.6443008e+2, -1420701.6, -1399614.8, -51584.332, 0.16266082, 0.015836619, -1357507.4, -28933.234, 0.0, 9.999441, 9.999727 
5.4504466e+2, 1.7442787e+2, -1308629.6, -1308670.0, -32774.37, -0.043519005, -0.18058243, -1275875.4, -45279.035, 0.0, 9.999598, 9.999604 
5.450341e+2, 1.8442754e+2, -1197492.6, -1111366.0, 4579.229, -0.12345217, -0.20998351, -1111123.3, 21477.121, 0.0, 9.999275, 10.000446 
5.450259e+2, 1.9442953e+2, -1223619.9, -1066902.1, -21154.377, -0.021244042, -0.07869668, -1064096.8, -29515.127, 0.0, 9.998398, 10.000499 
5.450171e+2, 2.0443046e+2, -1179385.1, -1058232.1, 12887.198, -0.009248074, -0.0048933523, -1056876.4, -120303.41, 0.0, 9.998306, 9.999929 
5.4500777e+2, 2.1442997e+2, -958223.5, -901918.06, 31494.828, -0.10415141, -0.06031946, -887827.44, -49249.4, 0.0, 9.999156, 9.999919 
5.4499936e+2, 2.2442983e+2, -823804.2, -736853.3, 52448.598, -0.109925285, -0.08513063, -712204.1, 28375.143, 0.0, 9.999193, 10.000361 
5.449924e+2, 2.3442996e+2, -865478.44, -704154.94, 34514.188, 0.00079372054, -0.12716791, -697081.06, -54503.848, 0.0, 9.998221, 10.000383 
5.449848e+2, 2.4443004e+2, -886215.2, -839237.3, 42494.3, 0.058241643, -0.079963006, -814172.2, -269592.88, 0.0, 9.998162, 9.998811 
5.449765e+2, 2.5443003e+2, -634541.06, -675522.7, 60151.293, 0.043236803, 0.028442554, -591486.2, -144898.94, 0.0, 9.999261, 9.998729 
5.4496825e+2, 2.6442984e+2, -354297.03, -264925.22, 94972.586, 0.00015618597, 0.04561919, -204651.03, 143938.39, 0.0, 9.999545, 10.00074 
5.4496014e+2, 2.7442926e+2, -354885.28, -200202.8, 66473.914, -0.06953617, -0.1138948, -175561.45, 75024.7, 0.0, 9.998802, 10.000873 
5.4495186e+2, 2.844293e+2, -376218.75, -384949.13, 19449.984, -0.13401425, -0.09887486, -360650.13, -208066.53, 0.00000011177434, 9.998968, 9.998844 
5.449432e+2, 2.9443005e+2, -86410.1, -209895.13, -15900.514, -0.18169849, 0.08342913, -84395.55, -29812.717, 0.0000045059896, 10.000349, 9.998707 
5.4493684e+2, 3.0442822e+2, -31232.07, -161704.6, 170.45427, -0.009989238, 0.034363504, -31231.848, -31231.848, 0.00002638034, 10.0004015, 9.998683 
5.4492795e+2, 3.1442574e+2, -258536.83, -205555.0, 42894.125, -0.083853126, -0.09725806, -181630.89, -181630.89, 0.00007851539, 9.998517, 9.99929 
5.5509335e+2, 1.2443186e+2, -1698517.0, -1468839.4, -78463.18, 0.072350495, -0.18881066, -1444593.9, 275971.7, 0.000010165176, 9.999109, 10.002086 
5.550872e+2, 1.3443564e+2, -1711337.6, -1427390.6, 75862.93, 0.38203946, -0.04855015, -1408393.1, 214129.64, 0.0000015959415, 9.998292, 10.002143 
5.5507153e+2, 1.4443682e+2, -1745082.8, -1550613.1, 55493.15, -0.40189654, -0.06964378, -1535892.1, -11384.415, 0.000000016896806, 9.998085, 10.000694 
5.550651e+2, 1.5443572e+2, -1535750.1, -1406698.8, -38941.797, -0.005796074, -0.2639649, -1395858.5, 30658.365, 0.0, 9.998886, 10.000623 
5.550562e+2, 1.644362e+2, -1393761.8, -1341496.1, -50124.77, 0.13382936, -0.25310144, -1311101.0, 17412.666, 0.0, 9.999434, 10.000127 
5.5504423e+2, 1.7443842e+2, -1276731.3, -1238609.1, -21363.4, -0.059035804, -0.057073656, -1229039.5, 1457.2308, 0.0, 9.999583, 10.000092 
5.550334e+2, 1.8443947e+2, -1236474.9, -1184440.3, -31717.332, -0.14003731, 0.048063133, -1169434.5, -36945.3, 0.0, 9.999242, 9.999961 
5.5502385e+2, 1.9443893e+2, -1268585.6, -1154456.5, -47508.113, -0.07552652, -0.014817609, -1137268.9, -102774.05, 0.0, 9.998366, 9.999919 
5.550151e+2, 2.0443869e+2, -1146939.0, -980751.5, 36514.47, -0.05872681, -0.054063074, -973082.44, -36586.633, 0.0, 9.998266, 10.000478 
5.5500716e+2, 2.144387e+2, -927166.44, -822409.25, 70017.38, -0.09717299, -0.117864974, -787346.75, 51145.258, 0.0, 9.999087, 10.0005 
5.549987e+2, 2.2443917e+2, -856074.25, -783974.6, 14599.665, -0.11146975, -0.09847319, -781130.5, -40644.4, 0.0, 9.999113, 10.0000725 
5.5498976e+2, 2.3444007e+2, -903641.1, -761146.8, 5024.5596, -0.09764103, -0.028182432, -760969.8, -118491.23, 0.0, 9.998129, 10.000035 
5.54982e+2, 2.4444e+2, -854903.06, -760517.9, 75398.39, -0.059063308, -0.0049317777, -718760.75, -174279.64, 0.0, 9.998102, 9.999382 
5.5497557e+2, 2.5443864e+2, -600072.4, -589219.0, 109724.86, 0.010567521, -0.09492818, -484786.72, -38290.004, 0.0, 9.999196, 9.999354 
5.549685e+2, 2.6443815e+2, -402468.16, -354154.22, 65886.12, 0.054949507, -0.11422319, -308136.13, 40364.85, 0.0, 9.999503, 10.000144 
5.549604e+2, 2.7443862e+2, -414601.63, -307836.84, 45067.156, 0.064648814, -0.10010912, -291357.03, -40864.39, 0.0, 9.998736, 10.000163 
5.5495244e+2, 2.844383e+2, -424503.94, -484810.28, 62760.227, 0.014504818, -0.04910023, -385029.1, -232532.44, 0.00000024371042, 9.998956, 9.99817 
5.549445e+2, 2.9443705e+2, -129400.305, -305540.1, 46481.22, -0.10502337, -0.00050850346, -117887.016, -63371.05, 0.0000058589785, 10.0003605, 9.998054 
5.549367e+2, 3.0443576e+2, 33808.156, -16628.273, -66291.77, -0.073589504, -0.010983541, 79516.37, 79516.37, 0.000029983938, 10.000371, 9.999684 
5.549252e+2, 3.144342e+2, -205794.53, -69846.625, -1671.2839, -0.24622399, -0.1624257, -69826.086, -69826.086, 0.00008393316, 9.998411, 10.000268 
5.650909e+2, 1.24441184e+2, -1744346.4, -1456711.8, 6276.6563, -0.05180927, -0.1710889, -1456574.9, 263902.88, 0.000007999431, 9.998623, 10.002406 
5.650863e+2, 1.3444567e+2, -1501884.9, -1285774.8, 47539.14, 0.40264177, -0.0011649852, -1275779.5, 346646.4, 0.00000128022, 9.999536, 10.002516 
5.6507117e+2, 1.4444688e+2, -1562747.4, -1507068.6, -19497.258, -0.31277883, -0.017863743, -1500920.1, 23489.84, 0.000000037787355, 9.99953, 10.000298 
5.650637e+2, 1.5444465e+2, -1612277.6, -1490592.4, -64214.08, -0.01531291, -0.28177792, -1462974.4, -36542.188, 0.0, 9.998568, 10.000202 
5.6505436e+2, 1.6444516e+2, -1568888.0, -1376372.3, -19026.7, 0.086771175, -0.26561418, -1374509.9, -46080.4, 0.0, 9.998023, 10.00057 
5.650432e+2, 1.7444885e+2, -1459734.1, -1270574.5, -4333.6094, -0.04184624, 0.028431665, -1270475.3, -40077.61, 0.0, 9.998083, 10.000595 
5.6503266e+2, 1.8445016e+2, -1344125.0, -1260941.8, 7127.8286, -0.10357881, 0.14319445, -1260335.4, -127948.62, 0.0, 9.9986105, 9.999737 
5.6502277e+2, 1.9444843e+2, -1097929.0, -1095897.5, 5448.094, -0.083535746, -0.015884124, -1091371.3, -56968.81, 0.0, 9.999649, 9.999695 
5.65014e+2, 2.0444754e+2, -933695.5, -906741.56, 83161.77, -0.069263004, -0.0955784, -835971.8, 100437.48, 0.0, 9.999859, 10.0002165 
5.650067e+2, 2.1444762e+2, -951204.8, -858830.6, 39736.68, -0.04461415, -0.12847029, -844089.5, -5683.764, 0.0, 9.99904, 10.000267 
5.6499815e+2, 2.2444803e+2, -901833.3, -842601.5, -39972.4, -0.06617934, -0.08704459, -822469.1, -82067.87, 0.0, 9.998954, 9.999747 
5.6498826e+2, 2.3444876e+2, -688546.9, -688672.2, -57233.95, -0.1326257, -0.0034279723, -631375.56, 11020.919, 0.0, 9.999744, 9.999748 
5.649804e+2, 2.4444872e+2, -570025.6, -553050.06, 35914.56, -0.10364837, 0.008334141, -524633.94, 19763.434, 0.0, 9.999777, 9.999987 
5.6497496e+2, 2.5444752e+2, -594099.2, -515352.72, 57943.02, 0.046961397, -0.1294635, -484671.38, -38264.08, 0.0, 9.998937, 9.999983 
5.649682e+2, 2.6444715e+2, -571228.7, -505362.38, 15846.87, 0.12168734, -0.13851878, -501748.1, -153337.67, 0.0, 9.998652, 9.999512 
5.6495965e+2, 2.7444774e+2, -411985.28, -378609.63, -18105.318, 0.103764884, -0.044921674, -370674.56, -120268.734, 0.0, 9.99908, 9.9995 
5.6495184e+2, 2.8444722e+2, -381216.06, -416344.6, 73736.75, 0.056960583, 0.00005750429, -322980.5, -170567.38, 0.00000046127252, 9.999049, 9.998594 
5.649448e+2, 2.9444548e+2, -369131.56, -364369.53, 135348.3, -0.01751191, -0.04828976, -231381.31, -176947.52, 0.000007820285, 9.998477, 9.998554 
5.649365e+2, 3.0444494e+2, -231685.92, -119981.64, 11245.328, -0.027098253, -0.018525904, -118860.81, -118860.81, 0.000035959114, 9.998421, 9.999927 
5.6492394e+2, 3.1444392e+2, -120461.37, 30193.297, -9886.564, -0.22389777, -0.14430712, 30839.322, 30839.322, 0.000094359246, 9.998733, 10.000806 
5.75088e+2, 1.24454215e+2, -1843033.0, -1675719.5, -49086.516, -0.2392164, 0.045137797, -1662381.8, 57971.387, 0.0000055281434, 9.998686, 10.000868 
5.7508576e+2, 1.3445571e+2, -1616937.0, -1525342.0, 84610.7, 0.38141954, 0.07895642, -1474929.5, 147406.6, 0.00000085256136, 9.999537, 10.000869 
5.750715e+2, 1.444563e+2, -1545161.6, -1466281.3, -62451.406, -0.24389821, 0.07252033, -1431858.6, 92470.234, 0.00000002938157, 9.999516, 10.000585 
5.7506156e+2, 1.5445599e+2, -1585550.5, -1432039.9, -94922.445, -0.09729206, -0.03745447, -1386722.9, 39608.613, 0.0, 9.998561, 10.000607 
5.750513e+2, 1.6445689e+2, -1531352.1, -1301979.3, -25794.316, -0.03751671, -0.02723332, -1299114.3, 29207.893, 0.0, 9.998031, 10.001079 
5.750413e+2, 1.7445913e+2, -1423392.1, -1198751.8, 5004.37, -0.055384528, 0.069918185, -1198640.4, 31659.309, 0.0, 9.998095, 10.001084 
5.750317e+2, 1.844597e+2, -1338411.4, -1245371.0, 39606.03, -0.0760762, 0.08060468, -1230794.9, -98502.81, 0.0, 9.998599, 9.999848 
5.7502234e+2, 1.9445808e+2, -1098372.9, -1086157.0, 50704.258, -0.11088652, -0.07413999, -1041194.1, -6889.9604, 0.0, 9.999605, 9.9997835 
5.7501376e+2, 2.0445704e+2, -1015743.56, -1064125.9, 49347.563, -0.0948211, -0.12304888, -984976.6, -48663.37, 0.0, 9.999801, 9.999165 
5.750062e+2, 2.1445663e+2, -1041352.9, -1030027.6, 14218.51, -0.012395985, -0.09266463, -1020385.6, -182065.94, 0.0, 9.998967, 9.999128 
5.7499754e+2, 2.2445631e+2, -929264.5, -881928.4, -18892.838, -0.033595104, -0.05374477, -875312.5, -134987.27, 0.0, 9.99888, 9.999511 
5.749877e+2, 2.34456e+2, -715398.44, -725297.44, -19702.639, -0.1751476, -0.05186635, -700033.1, -57702.664, 0.0, 9.999662, 9.9995365 
5.7497996e+2, 2.4445611e+2, -530974.1, -468154.34, 626.9854, -0.14345054, -0.043366134, -468148.1, 76180.805, 0.0, 9.999749, 10.000588 
5.7497454e+2, 2.544566e+2, -557495.1, -426231.88, 31447.98, 0.09379623, -0.07419254, -419086.56, 27233.277, 0.0, 9.998875, 10.000628 
5.7496727e+2, 2.644568e+2, -621165.3, -600951.6, 24376.365, 0.14892085, -0.027891936, -584669.94, -236351.98, 0.0, 9.998613, 9.998876 
5.7495767e+2, 2.7445653e+2, -467424.4, -485535.6, 3081.8843, -0.023364887, 0.047857404, -466914.34, -216587.53, 0.0, 9.999034, 9.998793 
5.749497e+2, 2.84456e+2, -278491.1, -188573.75, 46160.54, -0.07795294, 0.05240318, -169095.81, -16762.205, 0.0000006054728, 9.998989, 10.000187 
5.749437e+2, 2.9445535e+2, -261352.97, -124993.945, 122634.12, 0.015174578, -0.05871398, -52861.047, 1475.4518, 0.000009307056, 9.998407, 10.000234 
5.7493615e+2, 3.0445582e+2, -273183.7, -192187.88, 22139.504, 0.079580225, 0.0075701997, -186531.28, -186531.28, 0.00004067109, 9.998366, 9.999458 
5.7492393e+2, 3.144547e+2, -124860.52, 38266.254, 13405.87, -0.12806039, -0.06708955, 39360.617, 39360.617, 0.00010363106, 9.998659, 10.000901 
5.850877e+2, 1.2446641e+2, -1714083.8, -1698476.8, -80707.58, -0.19495508, 0.14093307, -1625196.3, 95036.22, 0.0000029888902, 9.99993, 10.00011 
5.8508444e+2, 1.3446608e+2, -1846385.8, -1726397.0, 149206.08, 0.35578611, 0.07558913, -1625575.4, -3338.9077, 0.00000032572908, 9.998355, 10.000058 
5.8507055e+2, 1.444663e+2, -1787326.0, -1571746.6, 60541.348, -0.20703326, 0.07181052, -1555908.4, -31673.947, 0.0000000021906112, 9.997813, 10.000674 
5.850602e+2, 1.5446727e+2, -1524206.8, -1386195.4, -4362.184, -0.106614724, 0.07311431, -1386057.6, 40166.605, 0.0, 9.99891, 10.000749 
5.850498e+2, 1.6446805e+2, -1338231.8, -1266999.6, 33998.87, -0.06934307, 0.08700233, -1253377.1, 74838.2, 0.0, 9.9995985, 10.000563 
5.8504015e+2, 1.7446847e+2, -1215310.6, -1159511.5, -25362.816, -0.06498214, 0.057645038, -1149706.1, 80503.14, 0.0, 9.99978, 10.000541 
5.850309e+2, 1.8446824e+2, -1178310.0, -1170972.3, -17808.707, -0.06496318, 0.017526383, -1156458.4, -24249.527, 0.0, 9.999715, 9.99982 
5.8502203e+2, 1.9446708e+2, -1140289.9, -1106534.3, -26308.762, -0.08261209, -0.09105909, -1092154.9, -57938.266, 0.0, 9.999318, 9.999783 
5.850134e+2, 2.0446637e+2, -1103804.9, -1116662.9, -2171.4277, -0.078757815, -0.1042153, -1103448.1, -167225.3, 0.0, 9.999236, 9.999078 
5.850051e+2, 2.1446612e+2, -960443.0, -998224.6, 28764.121, -0.03951626, -0.04986637, -944921.06, -106692.99, 0.0, 9.999556, 9.999063 
5.8499646e+2, 2.2446582e+2, -818442.6, -809727.5, 79314.516, -0.06044021, -0.014711757, -734650.94, 5582.35, 0.0, 9.999565, 9.999682 
5.8498734e+2, 2.3446524e+2, -777305.7, -737560.0, 95086.34, -0.14754276, -0.056622006, -660292.0, -18051.916, 0.0, 9.999157, 9.999705 
5.849796e+2, 2.4446526e+2, -658497.3, -577705.06, 91895.73, -0.11642304, -0.04419141, -517718.6, 26521.1, 0.0, 9.999077, 10.000163 
5.8497334e+2, 2.5446597e+2, -496868.0, -446272.28, 28165.016, 0.05991059, -0.0084214695, -433711.84, 12518.642, 0.0, 9.999502, 10.000186 
5.849657e+2, 2.6446614e+2, -497282.47, -525281.56, 20564.936, 0.09513788, 0.046718396, -486404.25, -138174.16, 0.0, 9.9994, 9.999012 
5.849563e+2, 2.744654e+2, -506680.53, -486048.6, 54004.47, -0.03960303, 0.06313229, -441383.66, -191141.22, 0.0, 9.998692, 9.998952 
5.849483e+2, 2.8446496e+2, -328209.13, -160785.4, 102171.125, -0.0795781, 0.045099653, -112411.63, 39835.72, 0.00000055145284, 9.998417, 10.000654 
5.8494216e+2, 2.9446507e+2, -203705.39, -43726.563, 73055.2, 0.0075212824, -0.038990222, -15386.065, 38854.99, 0.000008783807, 9.998574, 10.000707 
5.849348e+2, 3.0446547e+2, -224160.95, -211112.1, -37607.57, 0.080720484, 0.019769818, -179467.2, -179467.2, 0.000039664603, 9.998881, 9.999075 
5.8492386e+2, 3.144644e+2, -19203.102, 102113.945, -58398.027, -0.027165625, -0.020735577, 125656.29, 125656.29, 0.00010367087, 9.999326, 10.001009 
5.950895e+2, 1.2447775e+2, -1702952.0, -1678006.8, -210707.13, -0.052265383, 0.120530866, -1479403.5, 240712.69, 0.000001124367, 9.999953, 10.000237 
5.9508204e+2, 1.344768e+2, -1843790.4, -1721971.9, 88706.36, 0.26365942, -0.010459256, -1675276.5, -53149.195, 0.000000025767086, 9.998367, 10.000081 
5.9506786e+2, 1.4447692e+2, -1790989.4, -1583881.0, 86389.695, -0.27483913, -0.02135192, -1552577.3, -28450.535, 0.0, 9.997829, 10.000585 
5.950593e+2, 1.544785e+2, -1530320.8, -1402989.5, 43516.29, -0.11121011, 0.052547876, -1389538.5, 36571.99, 0.0, 9.998926, 10.000627 
5.9504956e+2, 1.644787e+2, -1447773.0, -1487533.6, 34712.86, -0.06674891, 0.08732478, -1427650.8, -99542.36, 0.0, 9.999573, 9.999063 
5.950394e+2, 1.7447698e+2, -1323324.8, -1384365.8, -12881.557, -0.13004594, 0.0006749665, -1320717.8, -90591.89, 0.0, 9.9997835, 9.998998 
5.9503e+2, 1.8447582e+2, -1192261.0, -1196553.0, -37333.492, -0.13544397, -0.041130014, -1157011.9, -24874.918, 0.0, 9.9997, 9.999653 
5.950216e+2, 1.9447535e+2, -1153162.6, -1124649.1, -34995.58, -0.07041071, -0.07338926, -1101117.8, -66976.94, 0.0, 9.99928, 9.999678 
5.950127e+2, 2.0447545e+2, -1045700.94, -982864.2, 2369.9734, -0.08398493, -0.044861753, -982774.94, -46636.31, 0.0, 9.999181, 10.000022 
5.950033e+2, 2.1447617e+2, -899798.9, -858644.0, 47786.023, -0.18953732, 0.0065495563, -827193.2, 10936.906, 0.0, 9.999496, 10.000051 
5.9499466e+2, 2.2447656e+2, -785955.9, -731692.5, 59041.83, -0.20652138, 0.035298645, -693846.75, 46278.184, 0.0, 9.999515, 10.000243 
5.949869e+2, 2.3447642e+2, -750920.3, -666217.8, 85318.79, -0.119419836, -0.018437603, -613317.2, 28808.309, 0.0, 9.999083, 10.000232 
5.949791e+2, 2.444761e+2, -765700.5, -791667.56, 100227.79, -0.08854974, 0.0009551944, -677618.75, -133488.61, 0.0, 9.999035, 9.998716 
5.949711e+2, 2.5447553e+2, -613694.9, -673692.25, 49299.46, -0.12528251, 0.06362924, -585984.3, -139844.38, 0.0, 9.999434, 9.998659 
5.9496325e+2, 2.6447502e+2, -439677.97, -393411.28, -9879.851, -0.09972006, 0.08676122, -391389.84, -43242.92, 0.0, 9.999351, 9.999943 
5.9495544e+2, 2.7447426e+2, -442075.06, -338294.4, 35256.37, -0.012565735, -0.0051847845, -327450.25, -77297.04, 0.0, 9.998632, 9.999995 
5.949476e+2, 2.8447396e+2, -382258.34, -263512.53, 100347.23, -0.010457454, -0.02887319, -206289.1, -54134.246, 0.0000003359344, 9.998377, 9.999967 
5.949397e+2, 2.9447442e+2, -267634.84, -162672.28, 83607.66, -0.11024623, -0.0014112687, -116439.195, -62290.17, 0.000006914508, 9.998514, 9.999919 
5.9493214e+2, 3.0447385e+2, -252904.19, -257836.83, -26849.46, -0.08238793, 0.009831722, -228408.0, -228408.0, 0.000035630153, 9.99883, 9.998778 
5.9492326e+2, 3.144728e+2, -24205.111, 114915.13, -28219.697, -0.058147565, 0.0014059062, 120421.39, 120421.39, 0.0000986736, 9.999232, 10.001141 
6.050887e+2, 1.2448705e+2, -2085939.8, -1843424.9, -285797.9, 0.01899858, -0.026779097, -1654224.9, 65794.14, 0.00000033090242, 9.997222, 10.000439 
6.050802e+2, 1.3448697e+2, -1736779.9, -1649953.5, 36774.6, 0.22192848, -0.08650401, -1636471.4, -14449.294, 0.000000000013925105, 9.999018, 10.000261 
6.050672e+2, 1.4448722e+2, -1538986.0, -1527363.0, 52943.254, -0.22035258, -0.065730795, -1479913.3, 44107.97, 0.0, 9.999839, 10.000008 
6.05059e+2, 1.544881e+2, -1442116.3, -1430317.9, -41462.582, -0.06633202, 0.0016921364, -1394336.9, 31676.576, 0.0, 9.999833, 10.000004 
6.050496e+2, 1.6448788e+2, -1427524.4, -1478429.6, -23289.164, -0.02610826, 0.026650352, -1418477.5, -90461.69, 0.0, 9.99971, 9.999059 
6.050394e+2, 1.7448613e+2, -1379684.0, -1409133.6, 34886.207, -0.085678644, -0.06525668, -1356542.4, -126510.36, 0.0, 9.999388, 9.999019 
6.0502994e+2, 1.8448514e+2, -1249891.4, -1272502.6, 79932.83, -0.09920465, -0.07399532, -1180468.6, -48425.566, 0.0, 9.999509, 9.999224 
6.0502136e+2, 1.9448492e+2, -1058926.5, -1126827.5, 44738.406, -0.058589272, -0.03346405, -1036715.06, -2666.3938, 0.0, 10.000135, 9.999247 
6.0501206e+2, 2.0448507e+2, -896216.9, -862318.44, 43800.79, -0.09849187, 0.001561784, -832301.9, 103744.695, 0.0, 9.999996, 10.000461 
6.05002e+2, 2.144855e+2, -965762.4, -837839.7, 38676.34, -0.2284437, -0.023918573, -827055.4, 10981.139, 0.0, 9.99881, 10.000528 
6.0499346e+2, 2.244857e+2, -960428.25, -850983.94, 31025.396, -0.2222749, -0.02368635, -842800.7, -102769.42, 0.0, 9.998472, 9.999923 
6.049867e+2, 2.3448552e+2, -759718.94, -706678.8, -20998.43, -0.049191065, -0.046980686, -699372.1, -57338.836, 0.0, 9.999188, 9.999897 
6.0497886e+2, 2.4448507e+2, -721637.6, -768680.3, 16035.208, -0.028554255, -0.023529563, -716691.75, -172652.0, 0.0, 9.999348, 9.998715 
6.0496956e+2, 2.544842e+2, -700432.2, -714838.9, 69569.49, -0.19166325, 0.009881538, -637694.1, -191641.89, 0.0, 9.998843, 9.998659 
6.049615e+2, 2.6448348e+2, -519202.75, -442310.6, 44573.4, -0.18222634, 0.018004633, -421893.38, -73832.086, 0.0, 9.9988365, 9.999862 
6.049549e+2, 2.744828e+2, -331524.47, -296966.8, -9757.489, 0.037163783, -0.059810225, -294402.1, -44334.36, 0.0, 9.999424, 9.999908 
6.049471e+2, 2.8448272e+2, -242586.31, -201589.64, 38396.246, 0.054190554, -0.05115467, -178562.66, -26495.172, 0.00000016006682, 9.999365, 9.999915 
6.049377e+2, 2.9448363e+2, -269555.63, -170037.38, 61540.656, -0.15973039, 0.027535725, -140655.98, -86598.17, 0.0000052467194, 9.998529, 9.99986 
6.0493e+2, 3.0448258e+2, -346476.22, -296127.13, 29945.94, -0.14192195, -0.007100642, -282179.84, -282179.84, 0.000031327, 9.998163, 9.998838 
6.0492283e+2, 3.1448236e+2, -166845.55, 36639.168, 19187.52, 0.029964924, 0.06343792, 38432.64, 38432.64, 0.00009198692, 9.998298, 10.001063 
6.1508495e+2, 1.2449454e+2, -2053406.9, -1783094.6, -270543.06, -0.10725398, -0.28236118, -1615826.0, 104112.945, 0.000000091949275, 9.99726, 10.000829 
6.1507887e+2, 1.3449673e+2, -1710679.0, -1599124.9, 105312.695, 0.16549563, -0.14378138, -1535730.5, 86188.97, 0.0, 9.999042, 10.000594 
6.150683e+2, 1.4449722e+2, -1612343.0, -1687998.1, 42100.707, -0.11057281, -0.06325461, -1593572.0, -69654.445, 0.0, 9.999863, 9.998898 
6.1505926e+2, 1.5449601e+2, -1515131.6, -1594653.5, -36124.49, -0.04156436, -0.089157455, -1501172.0, -75238.32, 0.0, 9.999875, 9.998861 
6.1504954e+2, 1.6449557e+2, -1327913.4, -1264645.3, -39925.7, -0.019087935, -0.098302014, -1245340.4, 82597.25, 0.0, 9.999686, 10.000536 
6.1504e+2, 1.7449586e+2, -1266652.9, -1178948.0, 29037.072, 0.012532134, -0.1452084, -1170205.9, 59722.9, 0.0, 9.999403, 10.000593 
6.1503047e+2, 1.8449603e+2, -1303949.5, -1373044.0, 95564.07, -0.0135399075, -0.088448666, -1236879.8, -104951.47, 0.0, 9.999463, 9.998552 
6.150211e+2, 1.944959e+2, -1120912.6, -1247419.3, 74946.8, -0.11526263, 0.036967713, -1086094.5, -52155.023, 0.0, 10.0001, 9.998437 
6.150113e+2, 2.0449533e+2, -908468.6, -873994.25, -3969.3845, -0.18676786, 0.045841325, -873543.1, 62402.723, 0.0, 9.999937, 10.000408 
6.150011e+2, 2.1449412e+2, -977442.25, -845665.44, -1752.3362, -0.21581648, -0.14193533, -845642.1, -7694.7334, 0.0, 9.998737, 10.00051 
6.1499274e+2, 2.2449322e+2, -1054038.0, -1029475.75, 49452.383, -0.15887731, -0.19552094, -990802.3, -250849.78, 0.0, 9.998402, 9.9987335 
6.149866e+2, 2.3449257e+2, -857043.56, -892290.7, 13095.651, 0.001953315, -0.14043608, -852710.7, -210747.42, 0.0, 9.999115, 9.998659 
6.149786e+2, 2.4449216e+2, -630320.2, -567731.25, -8084.911, -0.0002966426, -0.11566438, -566703.75, -22735.324, 0.0, 9.999296, 10.00012 
6.149684e+2, 2.544919e+2, -602532.4, -498555.5, 55397.875, -0.20260832, -0.17950858, -474572.1, -28603.846, 0.0, 9.998784, 10.000174 
6.149602e+2, 2.6449153e+2, -604207.3, -607659.56, 59656.32, -0.20738108, -0.16349012, -546252.1, -198278.61, 0.0, 9.998791, 9.998747 
6.149544e+2, 2.7449092e+2, -429410.63, -482874.88, 20691.832, 0.031117193, -0.1038457, -422338.06, -172351.89, 0.0, 9.999353, 9.998663 
6.149465e+2, 2.844913e+2, -207654.83, -120757.35, 2189.0989, 0.04494376, -0.01591735, -120702.234, 31282.477, 0.00000012615395, 9.999326, 10.000489 
6.149358e+2, 2.9449275e+2, -232432.34, -75043.03, 35694.777, -0.2182044, 0.045059465, -67326.08, -13359.073, 0.000004351736, 9.998454, 10.0005455 
6.149281e+2, 3.0449188e+2, -329658.28, -247757.0, 29818.637, -0.16056865, -0.023104772, -238050.89, -238050.89, 0.000027327762, 9.998107, 9.999205 
6.1492217e+2, 3.1449315e+2, -200797.34, -5687.1816, 36533.29, 0.10289769, 0.16915146, 929.1104, 929.1104, 0.00008366508, 9.998186, 10.000827 
6.250823e+2, 1.2450297e+2, -2005723.1, -1781084.5, -272268.66, -0.11063829, -0.32064447, -1598877.3, 120976.49, 0.000000014013729, 9.997683, 10.00064 
6.25077e+2, 1.3450536e+2, -1537556.8, -1539719.3, 48188.547, 0.019166037, -0.14220452, -1490437.4, 131396.47, 0.0, 10.000326, 10.000389 
6.250684e+2, 1.4450584e+2, -1476424.9, -1594995.5, -83979.4, -0.122568525, -0.06253494, -1432912.9, 90919.45, 0.0, 10.000687, 9.999132 
6.250591e+2, 1.5450482e+2, -1641793.6, -1625044.1, -72038.78, 0.011389073, -0.09686951, -1560894.9, -135049.08, 0.0, 9.998895, 9.999114 
6.2504905e+2, 1.6450447e+2, -1504715.6, -1339044.9, -13148.402, 0.03367804, -0.113985576, -1338007.9, -10159.26, 0.0, 9.998425, 10.000637 
6.2503916e+2, 1.7450479e+2, -1266006.1, -1162063.0, -69648.66, 0.0014892546, -0.16959478, -1127132.5, 102707.19, 0.0, 9.9993515, 10.000728 
6.250297e+2, 1.8450518e+2, -1303091.4, -1343727.0, -36753.74, -0.031660315, -0.110843375, -1281413.4, -149576.95, 0.0, 9.99933, 9.998825 
6.2502044e+2, 1.9450548e+2, -1394427.0, -1348179.0, 12051.047, -0.08599219, 0.03023992, -1345227.1, -311385.44, 0.0, 9.998079, 9.998724 
6.2501085e+2, 2.0450479e+2, -1190490.3, -1090742.9, -8992.786, -0.14300106, 0.04723832, -1089938.6, -154088.58, 0.0, 9.998349, 9.999685 
6.250009e+2, 2.1450275e+2, -784347.25, -836584.6, -75304.1, -0.18913013, -0.14675078, -730760.94, 107102.63, 0.0, 10.000431, 9.999754 
6.249924e+2, 2.2450137e+2, -705769.75, -866535.2, -35974.457, -0.15150951, -0.20643103, -698086.9, 41787.688, 0.0, 10.000811, 9.998692 
6.249855e+2, 2.3450068e+2, -862151.44, -898078.1, 7715.901, -0.008869574, -0.15452793, -860564.4, -218680.38, 0.0, 9.999088, 9.998634 
6.2497735e+2, 2.4450028e+2, -755659.3, -612968.8, 19296.154, -0.0053858347, -0.13280942, -610405.44, -66517.59, 0.0, 9.998362, 10.000265 
6.249675e+2, 2.5450015e+2, -578468.9, -466966.16, -33572.688, -0.16868977, -0.1997598, -457638.03, -11752.027, 0.0, 9.998864, 10.000351 
6.249594e+2, 2.6450005e+2, -577493.9, -605250.5, -31278.027, -0.17575115, -0.15958865, -557153.44, -209265.02, 0.0, 9.999011, 9.998661 
6.249532e+2, 2.7449998e+2, -535933.3, -543637.0, 4329.631, 0.010241914, -0.044701762, -533990.1, -284093.06, 0.0, 9.998659, 9.99858 
6.2494504e+2, 2.845001e+2, -379397.1, -211584.61, -7225.2314, 0.03469828, 0.028131612, -211274.11, -59376.48, 0.000000116905284, 9.998177, 10.0004225 
6.2493455e+2, 2.9450032e+2, -365717.97, -150881.48, -48036.863, -0.13176706, -0.023028793, -140629.77, -86739.11, 0.000004287332, 9.99757, 10.0004635 
6.249271e+2, 3.0449924e+2, -301339.34, -177712.38, -1187.4686, -0.057535473, -0.1366413, -177700.98, -177700.98, 0.000025839543, 9.998061, 9.9997015 
6.2492126e+2, 3.145013e+2, 45766.71, 118289.44, -4035.211, 0.115358226, 0.08082324, 118513.266, 118513.266, 0.00007841617, 9.999843, 10.000879 
6.350803e+2, 1.2451231e+2, -2048884.9, -1890805.9, -191475.06, -0.121179156, -0.15911053, -1762698.3, -42934.305, 0.0000000049225286, 9.9977665, 9.99985 
6.3507456e+2, 1.3451278e+2, -1589466.1, -1650142.4, 145156.47, -0.27266142, -0.09355936, -1471511.3, 150254.19, 0.0, 10.000333, 9.999633 
6.350674e+2, 1.4451309e+2, -1374411.3, -1374375.6, -154855.1, -0.31173202, -0.06374653, -1219538.4, 304226.84, 0.0, 10.00065, 10.000665 
6.350584e+2, 1.5451443e+2, -1522821.0, -1384959.3, -130075.78, 0.033023376, -0.027161583, -1306678.8, 119072.01, 0.0, 9.9989195, 10.000752 
6.35048e+2, 1.6451445e+2, -1592430.5, -1517401.6, 9897.762, 0.06637853, -0.03521136, -1516117.9, -188368.17, 0.0, 9.998411, 9.999417 
6.3503695e+2, 1.745128e+2, -1360418.9, -1362316.3, -28986.469, -0.17921095, -0.14959824, -1332365.6, -102600.1, 0.0, 9.999365, 9.999351 
6.350273e+2, 1.8451248e+2, -1221226.4, -1166457.3, -85168.16, -0.2158075, -0.14789732, -1104379.4, 27388.662, 0.0, 9.999303, 10.000051 
6.3501924e+2, 1.945136e+2, -1304561.5, -1152483.9, -30078.61, -0.031206226, -0.060517382, -1146750.9, -112995.14, 0.0, 9.998041, 10.000083 
6.3501054e+2, 2.0451342e+2, -1300281.8, -1300256.4, 56503.633, -0.019735122, -0.000040952295, -1243765.4, -308005.75, 0.0, 9.998271, 9.998285 
6.3500124e+2, 2.145114e+2, -903948.1, -1065233.1, 9838.038, -0.2127844, -0.03798552, -903350.25, -65565.57, 0.0, 10.000346, 9.998224 
6.349921e+2, 2.245102e+2, -641566.75, -714527.94, -99415.51, -0.26349732, -0.052171297, -572149.9, 167647.22, 0.0, 10.000729, 9.999775 
6.3498336e+2, 2.3450981e+2, -786803.7, -725584.2, -50028.516, -0.1484816, -0.09255286, -697544.06, -55748.316, 0.0, 9.999016, 9.999855 
6.3497484e+2, 2.4450944e+2, -843876.3, -783892.56, 29639.404, -0.10691247, -0.077087075, -771718.0, -227920.16, 0.0, 9.998309, 9.999117 
6.3496673e+2, 2.5450897e+2, -676412.2, -656531.2, -8880.558, -0.15260553, -0.048752572, -653142.06, -207336.61, 0.0, 9.998801, 9.999083 
6.349588e+2, 2.645091e+2, -518657.63, -465651.5, -49733.395, -0.14591235, 0.033649012, -435800.13, -87993.98, 0.0, 9.998944, 9.999647 
6.34951e+2, 2.745099e+2, -473513.88, -390820.53, -1726.6309, -0.08777617, 0.12585017, -390784.5, -140984.81, 0.0, 9.998566, 9.999673 
6.349427e+2, 2.8450915e+2, -433713.84, -315777.63, -38098.81, -0.035112496, 0.083247714, -304540.63, -152734.73, 0.0000001448745, 9.998138, 9.999729 
6.349339e+2, 2.945064e+2, -434282.97, -272060.3, -64511.26, 0.022236422, -0.17768711, -249534.05, -195705.63, 0.000005079309, 9.997489, 9.999668 
6.3492674e+2, 3.0450463e+2, -266577.4, -100424.03, 58597.656, 0.085690334, -0.34458387, -81837.445, -81837.445, 0.000027818513, 9.9980345, 10.000245 
6.3491935e+2, 3.145069e+2, 43238.055, 149462.89, 82340.125, -0.08850871, -0.17270458, 194334.27, 194334.27, 0.00008105603, 9.999699, 10.001156 
6.450789e+2, 1.2452028e+2, -1798940.6, -1731234.0, -164580.14, -0.09855355, -0.11230664, -1597061.5, 122625.37, 0.0000000021351345, 9.999308, 10.000199 
6.4507306e+2, 1.3452081e+2, -1990242.1, -1788326.8, 220278.2, -0.301676, -0.08899725, -1646972.9, -25287.135, 0.0, 9.99737, 10.000097 
6.450668e+2, 1.4452128e+2, -1870993.9, -1572776.8, -63112.02, -0.25276288, -0.084461674, -1559970.3, -36287.723, 0.0, 9.997061, 10.001039 
6.45057e+2, 1.5452313e+2, -1498468.9, -1330625.5, -144857.11, 0.004535268, -0.034480877, -1247136.3, 178526.72, 0.0, 9.998897, 10.001139 
6.450467e+2, 1.6452336e+2, -1393621.3, -1455752.9, 7592.6885, 0.025776168, -0.027845962, -1392706.9, -65046.055, 0.0, 9.999914, 9.999121 
6.450369e+2, 1.745216e+2, -1294372.9, -1369315.3, 35881.242, -0.1438354, -0.12021314, -1279963.9, -50283.555, 0.0, 9.999974, 9.999016 
6.4502746e+2, 1.8452087e+2, -1091726.8, -1096906.4, -44505.176, -0.1650996, -0.1428634, -1049736.1, 81950.43, 0.0, 10.000158, 10.000118 
6.450184e+2, 1.9452125e+2, -952221.56, -972075.6, -99910.71, -0.033338316, -0.1402007, -861745.94, 171932.44, 0.0, 10.000417, 10.000175 
6.450095e+2, 2.0452103e+2, -1077208.3, -1202061.9, 23745.0, -0.026410732, -0.08433422, -1072844.9, -137162.81, 0.0, 9.999839, 9.998201 
6.45001e+2, 2.1451993e+2, -1224147.0, -1234934.9, 71090.95, -0.16017482, -0.020902192, -1158245.6, -320544.1, 0.0, 9.998207, 9.998094 
6.4499205e+2, 2.2451922e+2, -1010075.0, -858585.8, -9302.918, -0.20957497, 0.007913141, -858016.6, -118306.37, 0.0, 9.998048, 10.000081 
6.449825e+2, 2.3451887e+2, -673377.1, -631817.4, -44295.207, -0.15827443, -0.062238142, -603670.06, 38037.074, 0.0, 9.999628, 10.000203 
6.449738e+2, 2.4451837e+2, -621009.75, -710056.7, 34932.938, -0.11812041, -0.06324538, -608941.25, -65231.617, 0.0, 9.999984, 9.99882 
6.449662e+2, 2.5451759e+2, -688916.75, -697845.5, 58904.31, -0.085580245, -0.033519555, -634307.9, -188587.88, 0.0, 9.998867, 9.998769 
6.449581e+2, 2.6451725e+2, -604192.7, -472801.7, 48931.824, -0.07413074, 0.0022844684, -456581.22, -108857.52, 0.0, 9.998207, 9.999954 
6.449494e+2, 2.7451733e+2, -512124.3, -372484.88, 26428.309, -0.07936438, -0.008669737, -367650.4, -117929.82, 0.000000000000000000046744374, 9.9981365, 10.000008 
6.449411e+2, 2.8451654e+2, -410134.28, -375813.16, -8434.544, -0.025290797, -0.04356276, -373852.34, -222125.02, 0.00000034821963, 9.99861, 9.999088 
6.449333e+2, 2.9451442e+2, -163141.38, -219560.14, -40452.8, 0.11197923, -0.17524384, -142033.44, -88285.336, 0.0000068469953, 9.999679, 9.998976 
6.449261e+2, 3.0451283e+2, -85353.29, -11791.228, 71841.34, 0.15610062, -0.28670055, 32137.24, 32137.24, 0.00003363737, 9.999272, 10.000254 
6.44917e+2, 3.1451327e+2, -313222.9, -17575.193, 31032.809, -0.16824101, -0.29982656, -14352.939, -14352.939, 0.000093360155, 9.99721, 10.001211 
6.5507805e+2, 1.2452691e+2, -1687332.9, -1508443.1, -234513.8, -0.15455212, -0.18486786, -1346895.8, 372726.53, 0.0000000012982254, 9.999343, 10.001715 
6.550722e+2, 1.3452944e+2, -1867004.9, -1542708.9, 146336.03, -0.14439304, -0.12641932, -1486439.4, 135155.14, 0.0, 9.997416, 10.001759 
6.5506643e+2, 1.4453034e+2, -1917985.3, -1679032.8, -11910.659, -0.0151481815, -0.13326865, -1678440.5, -154855.02, 0.0, 9.997094, 10.000298 
6.550546e+2, 1.545309e+2, -1557069.9, -1458181.0, -70296.65, -0.1393174, -0.12187043, -1421681.4, 3901.2302, 0.0, 9.998917, 10.000258 
6.55045e+2, 1.6453123e+2, -1351975.3, -1366522.4, 5366.085, -0.15358059, -0.0872872, -1350210.1, -22628.441, 0.0, 9.999904, 9.999735 
6.550389e+2, 1.7453119e+2, -1245748.4, -1270451.5, 44772.707, 0.042819303, -0.0766911, -1211654.8, 17928.936, 0.0, 9.999982, 9.999689 
6.5503e+2, 1.8453033e+2, -1170250.1, -1252034.8, -42659.31, 0.05908129, -0.097220734, -1152049.4, -20457.268, 0.0, 10.000126, 9.999069 
6.550177e+2, 1.9452839e+2, -1036945.7, -1135660.1, -83153.16, -0.15863246, -0.21503155, -989604.5, 44004.863, 0.0, 10.00037, 9.999073 
6.550075e+2, 2.0452769e+2, -1006070.2, -1038303.25, -40749.56, -0.22335507, -0.20314811, -978365.8, -42749.06, 0.0, 9.999769, 9.999361 
6.549999e+2, 2.1452832e+2, -1144316.3, -1050792.3, 16010.494, -0.10154514, -0.09449977, -1048127.3, -210513.13, 0.0, 9.998131, 9.9993925 
6.5499175e+2, 2.2452845e+2, -1060324.3, -941927.9, 37564.566, -0.052556485, -0.026019668, -931015.25, -191401.16, 0.0, 9.997963, 9.999547 
6.5498286e+2, 2.3452783e+2, -731418.94, -728665.0, 21327.314, -0.10076604, -0.060932707, -708670.25, -67051.8, 0.0, 9.999533, 9.999579 
6.5497416e+2, 2.4452704e+2, -589830.1, -626884.75, -9695.906, -0.09732106, -0.08812753, -587446.4, -43823.066, 0.0, 9.9999075, 9.999427 
6.549657e+2, 2.545259e+2, -651880.75, -603219.6, 23672.246, -0.035944458, -0.16037652, -593603.9, -147974.03, 0.0, 9.998799, 9.999447 
6.5495706e+2, 2.645244e+2, -631863.4, -526998.7, 37495.883, -0.015902737, -0.2605, -514971.0, -167329.94, 0.0, 9.998186, 9.999597 
6.5494806e+2, 2.7452233e+2, -550035.5, -437344.0, 31680.555, -0.041737158, -0.44156548, -429048.44, -179389.69, 0.0000000002377775, 9.998073, 9.999596 
6.5493995e+2, 2.8452232e+2, -458204.8, -463095.63, 24088.637, -0.017255317, -0.34769174, -436437.78, -284776.63, 0.0000008000927, 9.998559, 9.998509 
6.549326e+2, 2.945245e+2, -212580.39, -304220.25, 7681.3667, 0.059394218, 0.0009835247, -211940.98, -158293.17, 0.000010270006, 9.999612, 9.99842 
6.549248e+2, 3.04524e+2, -120526.98, -87815.695, -6392.126, 0.08629098, 0.054213203, -86610.98, -86610.98, 0.00004390313, 9.999278, 9.999736 
6.549137e+2, 3.145207e+2, -338458.03, -45402.11, -14803.979, -0.25659263, -0.28173202, -44656.17, -44656.17, 0.000113456364, 9.99711, 10.00107 
6.6507715e+2, 1.24535225e+2, -1735012.1, -1569891.3, -80030.9, -0.16184123, -0.27727, -1537468.4, 182066.31, 0.00000000035571668, 9.99917, 10.001375 
6.650707e+2, 1.3453797e+2, -1635462.5, -1462893.9, 101455.36, -0.1085814, -0.17384852, -1415993.5, 205512.17, 0.0, 9.999125, 10.00149 
6.650656e+2, 1.4453845e+2, -1661740.8, -1587937.6, -27448.244, 0.10455123, -0.19272181, -1578848.6, -55347.266, 0.0, 9.999012, 9.999988 
6.6505355e+2, 1.5453804e+2, -1522535.0, -1477268.3, -54373.313, -0.15631124, -0.24824208, -1441005.8, -15496.927, 0.0, 9.999322, 9.999927 
6.650441e+2, 1.6453855e+2, -1402468.6, -1336241.0, 9256.261, -0.19865415, -0.20149438, -1334971.6, -7465.135, 0.0, 9.999328, 10.000218 
6.650388e+2, 1.7454004e+2, -1372619.5, -1268048.8, 20292.34, 0.10132528, -0.09174815, -1264249.0, -34755.527, 0.0, 9.998847, 10.000244 
6.650304e+2, 1.8453993e+2, -1322758.9, -1329270.0, 9466.271, 0.13981898, -0.065767884, -1316004.0, -184508.48, 0.0, 9.999103, 9.999029 
6.65018e+2, 1.9453774e+2, -1060639.4, -1158912.5, 35326.277, -0.15651521, -0.19708528, -1049258.6, -15741.803, 0.0, 10.000251, 9.998975 
6.650075e+2, 2.045369e+2, -875853.44, -952604.75, 29097.025, -0.24342139, -0.20640466, -866069.7, 69456.0, 0.0, 10.000566, 9.999566 
6.649992e+2, 2.1453744e+2, -880789.9, -899555.44, -11335.053, -0.06967416, -0.12668484, -875458.06, -37936.742, 0.0, 9.999841, 9.999605 
6.64991e+2, 2.245373e+2, -878116.44, -900567.6, 53291.152, 0.006690175, -0.07752499, -834881.44, -95357.84, 0.0, 9.999414, 9.99913 
6.649828e+2, 2.345362e+2, -797500.2, -814245.25, 41215.18, -0.041415904, -0.11336824, -763815.75, -122280.99, 0.0, 9.999303, 9.999107 
6.6497415e+2, 2.4453536e+2, -653656.7, -613733.3, -21781.332, -0.048668154, -0.13939531, -604150.2, -60610.16, 0.0, 9.999268, 9.99983 
6.64965e+2, 2.5453466e+2, -548395.44, -508554.8, -25785.396, -0.0062146373, -0.21211065, -495891.3, -50351.51, 0.0, 9.999296, 9.999867 
6.6495603e+2, 2.645331e+2, -496631.2, -530022.8, 1639.0302, 0.011340412, -0.30885568, -496550.9, -148999.86, 0.0, 9.999403, 9.998991 
6.649473e+2, 2.745305e+2, -367938.25, -421360.97, -34405.043, -0.00033139164, -0.4845011, -351092.7, -101515.72, 0.0000000023427176, 9.999629, 9.998954 
6.6493905e+2, 2.8453037e+2, -319959.28, -372608.2, -1198.331, -0.001644352, -0.3772965, -319932.03, -168350.77, 0.0000014418595, 9.999409, 9.998718 
6.649313e+2, 2.9453295e+2, -331963.22, -330196.4, 28176.234, 0.013655193, -0.0089857625, -302889.72, -249327.3, 0.000014823799, 9.998656, 9.9987 
6.649233e+2, 3.0453262e+2, -292084.97, -234709.33, 15985.99, 0.06006974, 0.06996174, -230555.97, -230555.97, 0.000057815294, 9.998386, 9.999157 
6.649124e+2, 3.1452963e+2, -137147.33, 19250.457, -11600.305, -0.16266835, -0.16393882, 20106.191, 20106.191, 0.0001407211, 9.998646, 10.000774 
6.7507595e+2, 1.2454518e+2, -1882364.6, -1884561.3, -60258.383, -0.23640963, -0.40050685, -1823194.5, -103769.81, 0.0000000023126079, 9.999217, 9.999189 
6.7506856e+2, 1.3454641e+2, -1782120.9, -1770186.9, 97831.555, -0.25859633, -0.23572922, -1678140.5, -56721.754, 0.0, 9.999146, 9.999366 
6.7506415e+2, 1.4454581e+2, -1653654.1, -1576302.4, -26575.402, 0.038570825, -0.25602257, -1568052.0, -44623.58, 0.0, 9.999028, 10.000062 
6.7505336e+2, 1.5454468e+2, -1503561.6, -1446244.5, -34054.617, -0.12871829, -0.4006946, -1430394.4, -4954.2163, 0.0, 9.999352, 10.000127 
6.750438e+2, 1.6454534e+2, -1373040.3, -1276386.1, -14690.224, -0.18099998, -0.36803365, -1274202.8, 53232.23, 0.0, 9.9993305, 10.000628 
6.750366e+2, 1.7454816e+2, -1342496.9, -1206034.1, 8272.618, -0.023979682, -0.16958907, -1205534.4, 23875.379, 0.0, 9.998849, 10.0006695 
6.7502844e+2, 1.8454963e+2, -1258726.3, -1194748.4, 41810.285, 0.015967399, -0.050201666, -1174093.3, -42696.457, 0.0, 9.99909, 9.999961 
6.750189e+2, 1.9454943e+2, -1000927.25, -1021918.6, 84800.71, -0.10120424, -0.08157155, -925975.2, 107424.77, 0.0, 10.000196, 9.999941 
6.75009e+2, 2.0454872e+2, -942295.44, -1074932.5, -1491.0684, -0.15350261, -0.0858965, -942278.7, -6870.887, 0.0, 10.000495, 9.998763 
6.749986e+2, 2.1454732e+2, -952640.7, -1031203.2, -32263.984, -0.12361795, -0.11397275, -941089.06, -103666.39, 0.0, 9.999765, 9.998738 
6.7498964e+2, 2.245458e+2, -910919.44, -946851.7, 43168.176, -0.08615277, -0.14167586, -882128.0, -142689.95, 0.0, 9.999323, 9.998857 
6.749822e+2, 2.3454408e+2, -828238.8, -854815.56, 46117.89, -0.046313692, -0.2175784, -793533.0, -152078.05, 0.0, 9.999209, 9.998871 
6.7497367e+2, 2.4454348e+2, -655553.94, -601407.06, -26515.674, -0.037159853, -0.21455605, -590585.25, -47126.633, 0.0, 9.9992, 9.999945 
6.749639e+2, 2.5454402e+2, -551514.56, -496681.28, -19645.627, -0.062407523, -0.17658728, -490369.25, -44920.99, 0.0, 9.999218, 9.999985 
6.749549e+2, 2.6454356e+2, -565354.9, -659738.2, 3612.1172, -0.055255882, -0.12973516, -565216.8, -217764.47, 0.0, 9.999349, 9.998127 
6.7494684e+2, 2.745418e+2, -438302.9, -554703.06, -18201.84, -0.024860444, -0.12625322, -435523.0, -186048.53, 0.0000000015372758, 9.99958, 9.99806 
6.749383e+2, 2.8454062e+2, -246007.13, -223931.08, -35362.285, -0.038800303, -0.12700915, -197924.14, -46436.832, 0.0000017821444, 9.99942, 9.999738 
6.7492896e+2, 2.945399e+2, -264555.56, -174709.0, 5731.6025, -0.09904904, -0.20262161, -174344.83, -120853.39, 0.000019076204, 9.998586, 9.9998045 
6.749212e+2, 3.0453864e+2, -352111.75, -341501.72, 20203.318, -0.0032040572, -0.23825073, -325918.53, -325918.53, 0.000073988194, 9.998315, 9.998452 
6.7491263e+2, 3.1453985e+2, -188294.1, -65321.113, 29066.422, -0.035181068, 0.024790548, -58796.977, -58796.977, 0.00017623325, 9.998562, 10.000224 
6.8507665e+2, 1.2455447e+2, -1741916.1, -1882819.0, -141198.28, -0.13927159, -0.4157533, -1654569.1, 64762.758, 0.0000000036242784, 10.000459, 9.9986105 
6.850677e+2, 1.345551e+2, -1663085.3, -1763311.6, 72235.05, -0.30858916, -0.26298457, -1625282.4, -3948.6455, 0.0, 10.000196, 9.998902 
6.8506306e+2, 1.4455464e+2, -1571495.0, -1532203.5, 26150.45, 0.009410824, -0.24648596, -1519141.4, 4201.155, 0.0, 9.999562, 10.00011 
6.8505293e+2, 1.545541e+2, -1582380.0, -1476263.1, 241.47145, -0.07149714, -0.34152356, -1476262.6, -50914.457, 0.0, 9.99877, 10.000205 
6.8504316e+2, 1.6455461e+2, -1448650.9, -1312477.5, 30944.434, -0.1464501, -0.3285258, -1305775.4, 21567.846, 0.0, 9.998808, 10.000637 
6.850347e+2, 1.745564e+2, -1206506.3, -1143094.6, 9640.955, -0.14296904, -0.22963977, -1141661.3, 87664.78, 0.0, 9.999787, 10.000655 
6.850266e+2, 1.8455778e+2, -1145913.3, -1121336.5, 2579.9187, -0.103426546, -0.12935412, -1121068.5, 10245.55, 0.0, 9.999786, 10.000127 
6.8501884e+2, 1.945584e+2, -1223995.6, -1108023.4, -25506.31, -0.044514578, -0.095950596, -1102661.5, -69350.83, 0.0, 9.998576, 10.000127 
6.850097e+2, 2.0455807e+2, -1196825.0, -1189325.1, -79638.29, -0.038935978, -0.076826446, -1113348.5, -178033.1, 0.0, 9.998715, 9.998829 
6.84999e+2, 2.1455653e+2, -847977.56, -975048.06, -51648.492, -0.09578869, -0.12546, -829633.06, 7697.929, 0.0, 10.000454, 9.998792 
6.849895e+2, 2.2455494e+2, -676871.9, -834048.75, 43876.824, -0.10334738, -0.16408192, -665453.0, 73893.48, 0.0, 10.000918, 9.998869 
6.8498164e+2, 2.345532e+2, -735741.25, -810674.9, 50633.06, -0.05242748, -0.2413344, -710220.2, -68857.3, 0.0, 9.999831, 9.998881 
6.8497294e+2, 2.4455248e+2, -638734.06, -638969.0, 15279.07, -0.040337812, -0.23172732, -623572.0, -80203.43, 0.0, 9.999511, 9.9995365 
6.8496335e+2, 2.545528e+2, -447478.25, -492962.13, -28184.53, -0.07646667, -0.17230582, -434004.7, 11358.01, 0.0, 10.000137, 9.999564 
6.8495446e+2, 2.645525e+2, -455416.53, -588832.06, -1361.7334, -0.06764312, -0.09670767, -455402.63, -108036.055, 0.0, 10.00003, 9.998282 
6.849463e+2, 2.745513e+2, -506478.88, -568804.0, 41776.91, -0.00406306, -0.056617837, -485522.2, -236139.11, 0.00000000039754933, 9.999027, 9.998233 
6.8493754e+2, 2.845501e+2, -359982.06, -278872.06, 46559.027, -0.008372961, -0.06769234, -257682.03, -106286.89, 0.000001935021, 9.998642, 9.999735 
6.849279e+2, 2.945486e+2, -195251.0, -142290.88, -10398.622, -0.091059566, -0.21407546, -140322.3, -86917.42, 0.000022833043, 9.999064, 9.999797 
6.849198e+2, 3.0454642e+2, -232009.94, -266356.03, 7416.6865, -0.0042271386, -0.3522574, -230476.81, -230476.81, 0.00009092674, 9.999052, 9.998612 
6.8491197e+2, 3.145482e+2, -234637.34, -95781.71, 79765.7, 0.06446572, -0.05172194, -59460.82, -59460.82, 0.00021661, 9.998247, 10.0001745 
6.950789e+2, 1.2456319e+2, -1663592.6, -1729149.0, -133852.64, 0.00047809604, -0.32654825, -1558563.3, 160691.69, 0.00000000017840025, 10.00051, 9.999631 
6.950679e+2, 1.3456409e+2, -1584902.1, -1598870.3, 63700.336, -0.3212533, -0.2580443, -1527804.1, 93445.42, 0.0, 10.000195, 10.000026 
6.9506234e+2, 1.445649e+2, -1568396.1, -1527026.8, -9752.612, -0.0392967, -0.17630942, -1524842.9, -1598.561, 0.0, 9.999566, 10.000145 
6.9505215e+2, 1.5456617e+2, -1576871.5, -1478835.3, -20713.26, -0.049891863, -0.085992195, -1474638.6, -49404.926, 0.0, 9.998823, 10.000166 
6.9504195e+2, 1.6456628e+2, -1475805.0, -1370969.8, 58263.305, -0.16451748, -0.09205923, -1345015.0, -17783.242, 0.0, 9.998821, 10.000227 
6.950329e+2, 1.7456497e+2, -1237868.4, -1205713.0, 53651.566, -0.31821787, -0.26135823, -1165781.9, 63459.03, 0.0, 9.999777, 10.00023 
6.950248e+2, 1.8456447e+2, -1191243.3, -1207949.5, -44346.133, -0.28180328, -0.29958934, -1154470.4, -23224.318, 0.0, 9.999755, 9.999548 
6.950176e+2, 1.9456473e+2, -1271843.6, -1197791.5, -64004.676, -0.044761304, -0.24117365, -1160874.8, -127626.35, 0.0, 9.998538, 9.999529 
6.9500935e+2, 2.0456496e+2, -1139514.6, -1057428.1, -25340.686, 0.040072262, -0.17978992, -1050235.5, -114987.07, 0.0, 9.998658, 9.9997635 
6.95e+2, 2.1456507e+2, -788134.7, -834401.25, 19837.645, -0.049945775, -0.16218653, -780793.7, 56452.75, 0.0, 10.000383, 9.999792 
6.949905e+2, 2.2456472e+2, -667300.75, -795990.25, 1820.9016, -0.103635386, -0.14522482, -667275.0, 71973.984, 0.0, 10.000842, 9.999165 
6.949809e+2, 2.3456362e+2, -730220.8, -777614.9, 16192.842, -0.118845336, -0.183968, -725216.6, -83958.125, 0.0, 9.999744, 9.999146 
6.949718e+2, 2.4456248e+2, -710199.25, -773020.3, 30748.611, -0.1195917, -0.18684931, -697654.1, -154384.89, 0.0, 9.999448, 9.998649 
6.9496334e+2, 2.5456113e+2, -520275.6, -632766.2, 2744.6797, -0.10886297, -0.20233673, -520208.66, -74925.97, 0.0, 10.000086, 9.998631 
6.949545e+2, 2.6455995e+2, -381191.63, -423985.75, -41272.844, -0.07520852, -0.21539114, -356099.1, -8805.586, 0.0, 9.999988, 9.9994335 
6.949455e+2, 2.74559e+2, -430310.47, -394665.16, 11983.047, -0.003567598, -0.276399, -391011.3, -141709.03, 0.0000000054780975, 9.9989605, 9.99946 
6.949366e+2, 2.845588e+2, -442240.9, -438721.13, 55911.914, 0.016134718, -0.20020911, -384541.4, -233236.94, 0.000002364329, 9.998594, 9.99866 
6.949275e+2, 2.9455924e+2, -283634.84, -314898.84, 17744.744, -0.049845435, -0.03687492, -275618.7, -222316.81, 0.000027093956, 9.999018, 9.998633 
6.94919e+2, 3.0455604e+2, -161360.1, -113866.7, -23371.494, -0.010724798, -0.26833162, -104294.75, -104294.75, 0.00010798756, 9.999034, 9.999666 
6.9491017e+2, 3.145545e+2, -217123.9, -31126.059, 81294.945, 0.020069161, -0.40692386, -603.048, -603.048, 0.00025660693, 9.998139, 10.000668 
7.050799e+2, 1.2457344e+2, -1737169.4, -1753866.6, -8304.545, 0.086900346, -0.21152674, -1733742.4, -14582.764, 0.0, 9.999939, 9.999751 
7.0506775e+2, 1.3457367e+2, -1699054.5, -1635166.5, 58196.848, -0.30050328, -0.22599386, -1600723.0, 20435.572, 0.0, 9.999318, 10.000204 
7.0506185e+2, 1.4457434e+2, -1635738.4, -1593194.8, -24807.393, -0.02747194, -0.152602, -1581787.9, -58634.316, 0.0, 9.999248, 9.999846 
7.0505196e+2, 1.5457553e+2, -1399055.1, -1424211.1, -69186.6, -0.011485437, -0.03858804, -1341312.5, 83831.664, 0.0, 10.000193, 9.999873 
7.05042e+2, 1.6457538e+2, -1279800.9, -1289793.5, 16526.275, -0.110961474, -0.050551508, -1267532.1, 59612.46, 0.0, 10.000229, 10.000101 
7.0503277e+2, 1.7457347e+2, -1344906.0, -1268199.5, 21802.14, -0.26793477, -0.26837248, -1262435.8, -33277.523, 0.0, 9.999096, 10.000124 
7.0502454e+2, 1.8457265e+2, -1264011.3, -1243673.5, -18677.33, -0.2498812, -0.3332029, -1232576.3, -101410.25, 0.0, 9.999258, 9.999542 
7.0501727e+2, 1.9457288e+2, -923606.7, -1031599.06, -6285.397, -0.04480729, -0.27767894, -923242.06, 109926.63, 0.0, 10.000928, 9.999522 
7.0500916e+2, 2.045733e+2, -752961.2, -832630.25, 43339.375, 0.035916116, -0.2119556, -733930.7, 201235.8, 0.0, 10.00115, 10.000108 
7.050002e+2, 2.1457389e+2, -875037.6, -834501.9, 28457.422, -0.02438554, -0.18266158, -819832.5, 17326.527, 0.0, 9.999612, 10.000163 
7.04991e+2, 2.2457395e+2, -887387.4, -891966.0, -14602.266, -0.062332045, -0.145773, -874896.06, -135739.03, 0.0, 9.999292, 9.9992485 
7.049813e+2, 2.3457326e+2, -626539.06, -719185.7, -26240.041, -0.07987571, -0.15292862, -619623.4, 21539.736, 0.0, 10.000424, 9.999218 
7.049719e+2, 2.4457201e+2, -573317.56, -716341.25, 9604.34, -0.09757357, -0.1668614, -572675.5, -29500.352, 0.0, 10.000431, 9.99856 
7.049628e+2, 2.5456995e+2, -668971.2, -713815.4, 34058.58, -0.11619471, -0.24408962, -650616.6, -205421.0, 0.0, 9.99911, 9.998541 
7.049538e+2, 2.6456866e+2, -533113.2, -465201.16, 13246.435, -0.08457026, -0.28099513, -462708.88, -115501.8, 0.0, 9.998809, 9.99972 
7.04945e+2, 2.7456817e+2, -304299.6, -295299.16, -18849.293, 0.021758648, -0.3230659, -280420.3, -31211.582, 0.000000016182126, 9.999666, 9.999799 
7.04936e+2, 2.845681e+2, -264718.88, -416682.7, 31318.285, 0.03311531, -0.2250845, -258517.53, -107307.24, 0.0000030357212, 10.000076, 9.998101 
7.0492655e+2, 2.9456833e+2, -188454.98, -333138.0, 27597.701, -0.0863867, -0.028389001, -183369.58, -130155.62, 0.000031540207, 9.99994, 9.998066 
7.0491785e+2, 3.0456528e+2, -25135.693, 7778.427, -24441.102, -0.056413624, -0.23728846, 20786.639, 20786.639, 0.00012311795, 9.999728, 10.00017 
7.0491e+2, 3.145637e+2, -59123.098, 46816.793, 6976.1157, 0.14665866, -0.43605706, 47274.195, 47274.195, 0.00029058926, 9.999219, 10.000683 
7.1507937e+2, 1.2458512e+2, -1773453.5, -1842982.6, -11430.58, 0.002256577, -0.07143743, -1771622.5, -52575.215, 0.0, 9.999999, 9.999108 
7.150672e+2, 1.3458374e+2, -1737707.1, -1736032.4, 35099.836, -0.31180525, -0.17795776, -1701759.9, -80698.05, 0.0, 9.999398, 9.999477 
7.150613e+2, 1.4458299e+2, -1673389.9, -1679117.9, -2354.9043, -0.026421152, -0.18085812, -1672546.0, -149475.5, 0.0, 9.999289, 9.999232 
7.1505225e+2, 1.5458229e+2, -1441574.8, -1513677.0, -26695.256, -0.01845515, -0.19475543, -1432767.0, -7688.1187, 0.0, 10.0001955, 9.999258 
7.1504295e+2, 1.6458195e+2, -1271143.3, -1264907.6, -27064.918, -0.045920387, -0.20231575, -1240781.5, 86299.87, 0.0, 10.000204, 10.000282 
7.150342e+2, 1.7458193e+2, -1328507.4, -1239400.5, -13530.405, -0.051827323, -0.25316113, -1237391.3, -8313.052, 0.0, 9.999119, 10.000313 
7.150258e+2, 1.8458226e+2, -1225171.6, -1159980.8, 34747.27, -0.069687225, -0.23842154, -1144933.4, -13859.021, 0.0, 9.999246, 10.000121 
7.150177e+2, 1.945829e+2, -891299.7, -948692.3, 64224.402, -0.112673886, -0.20299685, -849652.2, 183418.84, 0.0, 10.000863, 10.00012 
7.150089e+2, 2.0458323e+2, -783062.44, -875651.0, -15830.907, -0.11649839, -0.16739029, -780430.5, 154638.13, 0.0, 10.001071, 9.999847 
7.1499944e+2, 2.1458301e+2, -911496.8, -887082.1, -25620.305, -0.07508804, -0.18771164, -870909.56, -33840.87, 0.0, 9.999517, 9.999844 
7.149907e+2, 2.2458272e+2, -905913.25, -912361.4, 17591.84, -0.033271864, -0.16544941, -891252.5, -152181.77, 0.0, 9.99921, 9.99915 
7.1498275e+2, 2.345822e+2, -642819.0, -737468.1, 22941.1, 0.0029515033, -0.14552636, -637551.7, 3524.575, 0.0, 10.000357, 9.9991255 
7.1497315e+2, 2.4458115e+2, -531466.9, -615555.5, -43235.016, -0.034910355, -0.16792303, -513203.7, 29882.105, 0.0, 10.000371, 9.999283 
7.149615e+2, 2.545793e+2, -625778.75, -607700.3, -10698.027, -0.16261911, -0.2956854, -602734.0, -157632.45, 0.0, 9.999041, 9.999304 
7.14952e+2, 2.6457855e+2, -578016.0, -550267.7, 37077.258, -0.16150242, -0.29329953, -524553.75, -177446.56, 0.0, 9.998771, 9.999155 
7.149446e+2, 2.7457887e+2, -358562.84, -393373.34, 22621.3, -0.0043113655, -0.19525222, -347425.75, -98323.164, 0.000000020828322, 9.9996, 9.999159 
7.149358e+2, 2.8457803e+2, -267990.0, -416019.28, 21467.605, -0.021227917, -0.14070182, -264939.56, -113826.64, 0.0000037854625, 10.000049, 9.998118 
7.149249e+2, 2.9457578e+2, -198401.17, -337166.03, 32091.46, -0.2693858, -0.1903475, -191338.97, -138197.17, 0.000035842306, 9.999876, 9.998069 
7.1491617e+2, 3.0457416e+2, -29775.68, 510.0582, -44964.906, -0.21345544, -0.25733504, 32813.47, 32813.47, 0.00013552581, 9.999712, 10.000129 
7.149109e+2, 3.1457603e+2, -106473.03, -33139.95, -2226.4841, 0.2816001, -0.10758578, -33072.414, -33072.414, 0.00031572883, 9.999136, 10.0001745 
7.250791e+2, 1.2459409e+2, -1749880.1, -1809650.0, -58946.76, -0.016080044, -0.08692458, -1713675.5, 5286.45, 0.0, 10.000034, 9.999343 
7.2506803e+2, 1.345932e+2, -1583384.8, -1634906.3, -1876.8956, -0.20567307, -0.16188157, -1583316.5, 37653.984, 0.0, 10.000357, 9.999706 
7.2506213e+2, 1.4459257e+2, -1518817.6, -1622689.1, 47651.94, 0.07934569, -0.15615298, -1500269.1, 22707.648, 0.0, 10.000423, 9.999076 
7.250524e+2, 1.5459095e+2, -1438944.8, -1528760.5, 45172.523, -0.018285654, -0.24727036, -1420155.9, 4837.6377, 0.0, 10.000283, 9.999111 
7.2504294e+2, 1.6459028e+2, -1299613.6, -1333208.9, 19134.943, -0.061863724, -0.25397557, -1290949.4, 36050.793, 0.0, 10.000228, 9.999809 
7.2503453e+2, 1.745907e+2, -1197458.9, -1227080.0, -33765.133, 0.017496752, -0.2119195, -1175398.9, 53597.19, 0.0, 10.0002365, 9.999858 
7.2502595e+2, 1.845915e+2, -1141393.4, -1107379.9, 11632.825, 0.0039553037, -0.13369392, -1103782.0, 27206.865, 0.0, 9.999758, 10.000239 
7.250172e+2, 1.945926e+2, -1199984.5, -1080589.3, -1737.4187, -0.12915634, -0.06828948, -1080563.9, -47584.26, 0.0, 9.998665, 10.0002775 
7.250083e+2, 2.0459256e+2, -1136153.0, -1080088.3, -97471.35, -0.16853644, -0.0619827, -1006698.3, -71718.66, 0.0, 9.998787, 9.999551 
7.249991e+2, 2.1459101e+2, -819135.7, -880251.3, -119777.26, -0.093264565, -0.18214072, -726079.7, 110912.77, 0.0, 10.0003, 9.999521 
7.2499055e+2, 2.245903e+2, -693163.6, -785215.2, -51621.605, -0.02993611, -0.1974127, -670029.0, 68969.31, 0.0, 10.0005665, 9.99937 
7.2498274e+2, 2.3459041e+2, -767784.06, -772863.25, -35226.375, 0.022156172, -0.13685039, -735005.8, -94008.82, 0.0, 9.999388, 9.999352 
7.2497314e+2, 2.4458984e+2, -710123.2, -687108.2, -107574.24, 0.00006828503, -0.13117895, -590427.7, -47425.69, 0.0, 9.999084, 9.999409 
7.2496134e+2, 2.5458828e+2, -501107.38, -534183.2, -135579.63, -0.12143311, -0.243177, -381060.72, 63954.785, 0.0, 9.999837, 9.999425 
7.249514e+2, 2.645875e+2, -384551.44, -458477.75, -60327.203, -0.15582484, -0.24881865, -350764.0, -3743.055, 0.0, 10.000115, 9.999132 
7.2494364e+2, 2.745874e+2, -320057.03, -377262.16, -43878.43, -0.069058634, -0.18939632, -296281.88, -47263.176, 0.000000011844985, 9.99988, 9.999133 
7.2493505e+2, 2.8458634e+2, -326958.1, -409407.8, -17797.338, -0.06525527, -0.17300202, -323280.47, -172249.83, 0.000004675658, 9.999508, 9.998419 
7.2492516e+2, 2.94584e+2, -306649.7, -354334.7, -2350.4138, -0.17959578, -0.25888848, -306534.13, -253474.03, 0.000040333267, 9.998989, 9.998375 
7.2491634e+2, 3.0458355e+2, -92789.14, -51016.633, -32223.35, -0.1458816, -0.21361797, -33502.63, -33502.63, 0.00014552723, 9.999374, 9.999936 
7.249103e+2, 3.1458578e+2, 108933.0, 50806.074, -38145.98, 0.23519775, -0.009037861, 127825.77, 127825.77, 0.0003309744, 10.000688, 10.000009 
7.3507893e+2, 1.2460048e+2, -1665917.8, -1633861.9, -37924.906, -0.06784855, -0.24171501, -1608717.1, 110185.16, 0.0, 10.000043, 10.000535 
7.350702e+2, 1.3460207e+2, -1506864.4, -1479744.8, 10362.235, -0.042127214, -0.1764595, -1476238.6, 144645.36, 0.0, 10.000369, 10.000765 
7.3506415e+2, 1.4460297e+2, -1500101.1, -1576948.6, 36036.79, 0.22150566, -0.08960729, -1485846.3, 37027.266, 0.0, 10.000402, 9.999393 
7.350523e+2, 1.5460135e+2, -1417520.0, -1493203.9, 48696.527, -0.07940259, -0.20763566, -1393690.5, 31198.781, 0.0, 10.000321, 9.999336 
7.350418e+2, 1.6460031e+2, -1373121.1, -1489902.1, 10633.055, -0.21886273, -0.21287537, -1372160.9, -45258.902, 0.0, 10.000247, 9.998722 
7.3503363e+2, 1.7459986e+2, -1278051.3, -1393258.0, -27336.31, -0.11368013, -0.14415786, -1271894.0, -42982.285, 0.0, 10.000231, 9.998721 
7.35025e+2, 1.846004e+2, -1169097.6, -1156992.1, -32876.773, -0.08398704, -0.015963854, -1129615.5, 1293.7443, 0.0, 9.999726, 9.999913 
7.3501575e+2, 1.9460198e+2, -1228895.6, -1127413.1, -36589.348, -0.155634, 0.12923631, -1115596.8, -82702.62, 0.0, 9.998614, 9.999977 
7.350071e+2, 2.0460138e+2, -1164616.8, -1127595.4, -50180.61, -0.1794952, 0.1084901, -1092620.1, -157721.03, 0.0, 9.9987335, 9.999251 
7.34999e+2, 2.1459806e+2, -847420.06, -924051.2, -55719.79, -0.1486754, -0.16409472, -818113.3, 18815.977, 0.0, 10.000237, 9.9992485 
7.349904e+2, 2.2459683e+2, -668607.8, -718663.75, -99385.68, -0.1130769, -0.2369182, -591147.2, 147791.48, 0.0, 10.000497, 9.999863 
7.349812e+2, 2.3459794e+2, -743445.0, -700977.1, -73373.664, -0.07888349, -0.13315247, -645826.7, -4901.183, 0.0, 9.999295, 9.999892 
7.349718e+2, 2.4459805e+2, -753841.1, -760492.8, -86845.984, -0.055991463, -0.06104965, -670257.3, -127333.45, 0.0, 9.999011, 9.9989395 
7.349621e+2, 2.5459692e+2, -549501.75, -615738.5, -100681.09, -0.049964257, -0.08309327, -476631.9, -31694.553, 0.0, 9.99976, 9.998901 
7.349521e+2, 2.6459554e+2, -354722.94, -385841.66, -73125.59, -0.113327056, -0.14091781, -295519.72, 51428.195, 0.0, 10.00007, 9.999654 
7.349419e+2, 2.7459377e+2, -289340.5, -300975.9, -43585.26, -0.2454951, -0.30479544, -251186.39, -2229.0022, 0.000000051096855, 9.9998255, 9.999684 
7.349337e+2, 2.845929e+2, -285206.16, -320315.34, -43176.688, -0.17341444, -0.32689843, -256151.86, -105187.67, 0.0000058850314, 9.999495, 9.999036 
7.3492724e+2, 2.945931e+2, -276452.94, -274504.72, -11688.923, 0.11043353, -0.22677223, -263749.38, -210781.42, 0.000044056193, 9.998915, 9.998958 
7.349182e+2, 3.0459356e+2, -127819.81, -118958.14, 14751.442, 0.08205817, -0.096096136, -107986.47, -107986.47, 0.00015023218, 9.999349, 9.999483 
7.349076e+2, 3.1459293e+2, 96509.46, 44039.656, 23174.555, -0.14064527, -0.13415648, 105279.27, 105279.27, 0.0003328002, 10.000605, 10.0 
7.4507916e+2, 1.24608874e+2, -1779036.6, -1691049.9, 48639.625, -0.00030569933, -0.2302176, -1669459.5, 49361.984, 0.0, 9.999287, 10.000496 
7.450707e+2, 1.3461033e+2, -1546154.9, -1514678.6, -40632.48, -0.019056888, -0.16181725, -1486842.8, 133963.11, 0.0, 10.000186, 10.000604 
7.4506426e+2, 1.4461151e+2, -1451239.4, -1528821.4, -75551.09, 0.19144243, -0.04825712, -1405102.8, 117690.38, 0.0, 10.000626, 9.999617 
7.4505293e+2, 1.5461041e+2, -1347893.3, -1429688.9, -80551.63, -0.05997115, -0.14042199, -1298451.8, 126351.73, 0.0, 10.000676, 9.999596 
7.450426e+2, 1.6460969e+2, -1303265.6, -1473232.6, -65302.457, -0.1926427, -0.12210864, -1281073.6, 45739.36, 0.0, 10.000798, 9.998576 
7.4503404e+2, 1.7460921e+2, -1175437.6, -1360562.1, -42294.934, -0.12855001, -0.038616803, -1166232.3, 62590.793, 0.0, 10.001002, 9.998577 
7.4502534e+2, 1.8460892e+2, -1064597.4, -1160293.3, -43536.02, -0.06633732, 0.035932045, -1047755.2, 83073.164, 0.0, 10.000677, 9.9994335 
7.450162e+2, 1.9460863e+2, -1100664.5, -1122240.5, -76136.9, -0.022722775, 0.0438061, -1034555.1, -1725.2196, 0.0, 9.999733, 9.999476 
7.450075e+2, 2.046077e+2, -1078147.3, -1055151.8, -1587.8544, -0.032073252, 0.0029395046, -1055042.6, -120205.586, 0.0, 9.999199, 9.999518 
7.449992e+2, 2.1460587e+2, -987477.5, -960251.0, 27242.205, -0.097028136, -0.14685076, -943410.06, -106557.86, 0.0, 9.999144, 9.999528 
7.4499035e+2, 2.2460505e+2, -844323.0, -811278.4, -43304.71, -0.109289035, -0.1902124, -781451.1, -42593.348, 0.0, 9.99933, 9.999786 
7.4498075e+2, 2.346053e+2, -679986.75, -679538.6, -80990.73, -0.07165558, -0.16352211, -598771.6, 42081.906, 0.0, 9.999769, 9.99981 
7.449714e+2, 2.4460521e+2, -613986.7, -693605.25, -60684.56, -0.04222125, -0.109240256, -581219.1, -38364.887, 0.0, 9.9999695, 9.998941 
7.449622e+2, 2.546046e+2, -517275.4, -600772.94, -47494.42, -0.017204603, -0.07700154, -495789.06, -50926.79, 0.0, 9.999976, 9.998904 
7.4495244e+2, 2.6460338e+2, -378688.3, -413693.3, -28718.277, -0.07665515, -0.116781406, -362559.34, -15687.095, 0.0, 9.999967, 9.999516 
7.44942e+2, 2.7460125e+2, -277864.8, -309486.06, -64880.254, -0.22292714, -0.29924932, -226896.53, 21989.672, 0.00000017449423, 9.999964, 9.999559 
7.449333e+2, 2.846004e+2, -224278.78, -267977.63, -105538.85, -0.17126173, -0.32326984, -138351.38, 12541.094, 0.0000070145306, 9.999819, 9.999237 
7.4492633e+2, 2.94601e+2, -165888.58, -195353.75, -118552.02, 0.0987273, -0.20850204, -61157.23, -8267.208, 0.00004543542, 9.999566, 9.999185 
7.4491715e+2, 3.0460122e+2, -133940.28, -178280.84, -50416.65, 0.043482114, -0.08572166, -101034.62, -101034.62, 0.00014809403, 9.999549, 9.998984 
7.4490696e+2, 3.1459948e+2, -52049.844, -30586.46, -76348.555, -0.21129255, -0.18022865, 35780.94, 35780.94, 0.00032277982, 9.999602, 9.999971 
7.5507945e+2, 1.2461923e+2, -1865011.3, -1873370.9, 75906.305, 0.059442792, -0.062286492, -1793169.8, -74449.88, 0.0, 9.99931, 9.999231 
7.550692e+2, 1.346179e+2, -1641631.3, -1721232.9, -4088.19, -0.19719061, -0.13393913, -1641421.9, -20684.996, 0.0, 10.000223, 9.9991665 
7.550626e+2, 1.4461818e+2, -1439847.5, -1506960.6, -80966.51, -0.059998687, -0.041912958, -1385759.3, 136976.53, 0.0, 10.000633, 9.999764 
7.550541e+2, 1.5461825e+2, -1329997.9, -1393013.5, -71023.13, -0.028338982, -0.037136167, -1283807.4, 140927.23, 0.0, 10.000676, 9.999849 
7.55045e+2, 1.6461846e+2, -1247552.0, -1355956.3, -64642.266, -0.05196054, 0.023119884, -1217394.9, 109337.65, 0.0, 10.000791, 9.999384 
7.550356e+2, 1.7461883e+2, -1120959.3, -1246843.9, -28114.033, -0.089303374, 0.1083207, -1114965.9, 113763.85, 0.0, 10.001, 9.999359 
7.5502676e+2, 1.8461703e+2, -1110790.4, -1250571.1, -84523.98, -0.0057963333, 0.022986906, -1071004.1, 59741.86, 0.0, 10.000653, 9.998825 
7.5501835e+2, 1.9461253e+2, -1155436.1, -1221320.6, -105003.96, 0.20165426, -0.32341215, -1078328.3, -45541.832, 0.0, 9.999675, 9.998822 
7.550093e+2, 2.0461155e+2, -1030845.3, -945499.4, -11710.047, 0.21529417, -0.3733137, -943921.8, -9128.951, 0.0, 9.999145, 10.000301 
7.5499946e+2, 2.146145e+2, -940431.1, -840671.06, 31182.72, 0.0056996937, -0.13041142, -831726.1, 5034.733, 0.0, 9.999052, 10.000391 
7.549901e+2, 2.2461502e+2, -903892.25, -913259.8, -32227.9, -0.07578481, -0.054902986, -876009.56, -137254.63, 0.0, 9.999237, 9.999132 
7.549812e+2, 2.3461257e+2, -742467.6, -790505.56, -55924.555, -0.018093457, -0.22400303, -705622.25, -64841.55, 0.0, 9.999693, 9.999084 
7.5497174e+2, 2.4461132e+2, -587311.5, -628832.3, -66420.6, -0.02227772, -0.2684056, -538482.44, 4310.129, 0.0, 9.999928, 9.999405 
7.5496155e+2, 2.5461128e+2, -488716.0, -529933.3, -41543.684, -0.09559546, -0.2296986, -462950.16, -18159.467, 0.0, 9.999924, 9.999416 
7.5495213e+2, 2.646109e+2, -438948.88, -527962.7, -33091.445, -0.11566949, -0.17663828, -427994.9, -81201.07, 0.0, 9.999925, 9.99875 
7.5494367e+2, 2.7460992e+2, -348888.84, -437298.16, -55647.57, -0.06662191, -0.16384809, -322025.2, -73220.67, 0.0000002213921, 9.999883, 9.99872 
7.549338e+2, 2.8460887e+2, -246594.16, -306144.5, -120778.53, -0.11751177, -0.15114877, -151974.73, -1159.7369, 0.000006961638, 9.99978, 9.998998 
7.549221e+2, 2.9460758e+2, -188358.61, -230811.72, -120384.7, -0.2958484, -0.19905052, -87343.43, -34516.402, 0.00004401986, 9.999509, 9.998976 
7.54913e+2, 3.0460644e+2, -180670.2, -255739.2, -51230.17, -0.34543872, -0.18222174, -154695.89, -154695.89, 0.0001416952, 9.999479, 9.998479 
7.5490797e+2, 3.1460536e+2, -73650.24, -48535.09, -64508.594, -0.1039574, -0.16038762, 4626.824, 4626.824, 0.00030697437, 9.9994955, 9.999896 
7.650803e+2, 1.24627605e+2, -1573986.6, -1759620.4, 47186.52, 0.1150167, -0.015024563, -1562680.8, 155957.94, 0.0, 10.001383, 9.999022 
7.650701e+2, 1.3462552e+2, -1594438.0, -1742183.8, 8768.176, -0.15737951, -0.12548016, -1593919.5, 26743.717, 0.0, 10.000711, 9.998794 
7.65063e+2, 1.4462548e+2, -1499332.3, -1538282.1, -14028.715, -0.058855537, -0.04712872, -1494805.5, 27859.813, 0.0, 10.000232, 9.999745 
7.65055e+2, 1.5462568e+2, -1391297.3, -1426974.6, -37648.25, 0.016790114, -0.028407034, -1367475.3, 57187.543, 0.0, 10.000266, 9.999822 
7.650461e+2, 1.6462584e+2, -1344054.3, -1374781.6, -56357.734, 0.030844806, 0.016100915, -1301003.6, 25656.633, 0.0, 10.000009, 9.999634 
7.650368e+2, 1.746259e+2, -1338211.3, -1320349.6, -74132.6, 0.015255462, 0.04451162, -1254611.9, -25953.662, 0.0, 9.999377, 9.999636 
7.6502764e+2, 1.8462418e+2, -1259348.6, -1317738.9, -101167.69, 0.07468838, -0.052292645, -1183247.8, -52574.67, 0.0, 9.999613, 9.998866 
7.6501864e+2, 1.9462016e+2, -987153.7, -1138707.6, -80699.6, 0.20937239, -0.3535117, -952230.25, 80479.516, 0.0, 10.000815, 9.998844 
7.650093e+2, 2.0461944e+2, -765851.75, -815539.7, -758.9729, 0.21447991, -0.37965384, -765840.2, 168873.97, 0.0, 10.000958, 10.0003195 
7.649995e+2, 2.1462233e+2, -818150.06, -781972.75, -36366.832, 0.06960061, -0.1431209, -759444.4, 77238.39, 0.0, 9.999886, 10.000397 
7.649901e+2, 2.2462286e+2, -905278.1, -925831.6, -72981.44, 0.002604815, -0.06045131, -841853.44, -103176.46, 0.0, 9.999287, 9.999019 
7.6498103e+2, 2.3462056e+2, -817156.56, -840548.7, -63963.94, 0.019695735, -0.2021612, -763828.2, -123126.06, 0.0, 9.999245, 9.998955 
7.6497144e+2, 2.4461909e+2, -662610.94, -680619.7, -57873.574, -0.015893033, -0.25767237, -613045.44, -70329.01, 0.0, 9.99948, 9.999266 
7.649613e+2, 2.5461847e+2, -483724.94, -539167.06, -93791.89, -0.11172507, -0.26321614, -413643.25, 31075.854, 0.0, 10.000023, 9.999301 
7.649517e+2, 2.6461804e+2, -471476.34, -566131.2, -109760.516, -0.13819869, -0.1964593, -399274.47, -52551.2, 0.0, 9.999804, 9.998546 
7.649429e+2, 2.7461764e+2, -536749.44, -548655.5, -101389.21, -0.069895595, -0.10313199, -441138.63, -192407.78, 0.00000016204108, 9.998689, 9.9985285 
7.649329e+2, 2.8461656e+2, -434177.06, -404401.8, -86700.26, -0.11770802, -0.08218692, -331320.28, -180578.14, 0.000006290961, 9.998518, 9.998933 
7.6492137e+2, 2.9461443e+2, -207235.0, -240641.1, -84421.086, -0.30924615, -0.20893808, -137880.45, -85120.84, 0.000041719115, 9.999389, 9.998961 
7.649125e+2, 3.0461246e+2, -130028.94, -225169.16, 13226.341, -0.34694356, -0.27736536, -128224.445, -128224.445, 0.00013461517, 9.999801, 9.998532 
7.6490784e+2, 3.1461218e+2, -79021.19, -42561.383, 9947.917, -0.057626612, -0.18016168, -40023.754, -40023.754, 0.00029000925, 9.999433, 9.99996 
7.750812e+2, 1.2463406e+2, -1517304.9, -1635596.5, 6418.6816, 0.030844016, -0.08912609, -1516957.6, 201619.6, 0.00000000003061157, 10.001362, 9.999883 
7.750728e+2, 1.3463327e+2, -1540327.9, -1634969.0, -16264.808, 0.028918954, -0.13798124, -1537610.6, 82973.85, 0.0, 10.000733, 9.999519 
7.750652e+2, 1.4463347e+2, -1512116.4, -1567544.4, -23440.324, 0.11946541, -0.066307485, -1503532.8, 19049.137, 0.0, 10.000241, 9.999542 
7.7505535e+2, 1.5463276e+2, -1405021.4, -1463724.0, -29314.326, 0.011396818, -0.108882844, -1392889.9, 31697.945, 0.0, 10.000297, 9.999557 
7.7504593e+2, 1.6463186e+2, -1364700.6, -1415201.3, -86320.46, -0.0027832706, -0.14398228, -1300013.3, 26582.525, 0.0, 10.000001, 9.999357 
7.750374e+2, 1.7463051e+2, -1355777.6, -1356506.3, -89804.01, 0.12631685, -0.23014435, -1266337.3, -37729.445, 0.0, 9.999376, 9.999387 
7.7502775e+2, 1.8463041e+2, -1215591.8, -1219800.6, -63486.496, 0.115040995, -0.1851241, -1154174.9, -23565.945, 0.0, 9.99958, 9.999557 
7.750169e+2, 1.9463158e+2, -943410.2, -1035218.1, -28751.41, -0.06296322, -0.040546086, -935149.44, 97449.44, 0.0, 10.00076, 9.999581 
7.7500725e+2, 2.0463136e+2, -833178.06, -937061.4, -45527.813, -0.09533509, -0.015433676, -816049.3, 118551.234, 0.0, 10.000878, 9.999524 
7.749992e+2, 2.1462937e+2, -890683.1, -911883.1, -70904.4, 0.03486816, -0.18189503, -829590.75, 7026.7305, 0.0, 9.999801, 9.999544 
7.7499014e+2, 2.2462866e+2, -890023.9, -872665.25, -83174.02, 0.062233295, -0.19997384, -797718.94, -59095.5, 0.0, 9.999193, 9.99943 
7.7497995e+2, 2.3462918e+2, -796387.1, -777648.9, -59178.48, -0.025650293, -0.10456599, -727102.5, -86483.7, 0.0, 9.999158, 9.999429 
7.7497035e+2, 2.4462841e+2, -725055.6, -792720.44, -45167.42, -0.087814614, -0.077955924, -702454.6, -159828.64, 0.0, 9.999408, 9.998531 
7.7496135e+2, 2.546261e+2, -547580.75, -658430.2, -65975.766, -0.12356161, -0.17690092, -516838.75, -72191.05, 0.0, 9.999965, 9.998511 
7.7495104e+2, 2.6462474e+2, -453133.63, -519372.13, -154967.53, -0.19792747, -0.17822915, -327785.78, 18875.242, 0.0, 9.9997635, 9.998888 
7.7493936e+2, 2.7462432e+2, -517617.78, -496291.97, -136746.16, -0.3078541, -0.124096535, -369793.63, -121127.05, 0.00000014054619, 9.998628, 9.998922 
7.7493024e+2, 2.8462335e+2, -429333.53, -378834.88, -61240.27, -0.24811721, -0.123295285, -337842.97, -187168.1, 0.0000059856334, 9.998455, 9.999135 
7.7492404e+2, 2.9462144e+2, -197648.94, -215832.39, -42399.797, -0.0017854068, -0.25075355, -163377.06, -110687.98, 0.0000396548, 9.999363, 9.9991455 
7.7491575e+2, 3.0461925e+2, -91156.25, -135914.88, 692.8253, -0.011251627, -0.37808502, -91145.53, -91145.53, 0.00012692052, 9.999766, 9.999162 
7.74906e+2, 3.146199e+2, -78569.31, -24103.844, 11589.136, -0.2235817, -0.24797025, -21740.467, -21740.467, 0.00027213217, 9.999347, 10.0001335 
7.8508204e+2, 1.2464106e+2, -1619800.3, -1633673.0, 14168.558, 0.028648866, -0.10107029, -1610961.3, 107548.18, 0.0000000009851104, 10.000447, 10.000332 
7.8507406e+2, 1.3464087e+2, -1577802.3, -1617064.1, -68209.79, 0.10538663, -0.123091854, -1526454.6, 94054.31, 0.0, 10.000337, 9.9998255 
7.850658e+2, 1.446411e+2, -1511283.4, -1567592.3, -53136.574, 0.1645888, -0.0647779, -1479303.3, 43201.496, 0.0, 10.00025, 9.999536 
7.8505546e+2, 1.5464002e+2, -1411252.1, -1469526.3, -53648.05, -0.0008204346, -0.1435984, -1379339.4, 45174.332, 0.0, 10.000276, 9.999522 
7.85046e+2, 1.6463868e+2, -1298925.3, -1408366.8, -89382.445, -0.02437645, -0.20726122, -1248843.4, 77682.28, 0.0, 10.0005665, 9.999125 
7.850378e+2, 1.7463687e+2, -1125609.8, -1272152.1, -108408.336, 0.15105231, -0.31717655, -1068033.6, 160509.5, 0.0, 10.001079, 9.999139 
7.8502804e+2, 1.8463725e+2, -1032223.56, -1084473.8, -83919.97, 0.13280457, -0.23070858, -970456.2, 160084.05, 0.0, 10.000639, 9.999973 
7.8501624e+2, 1.9463998e+2, -1164719.3, -1090786.5, -84203.76, -0.11495048, 0.025495144, -1035792.06, -3276.0674, 0.0, 9.99903, 10.0000305 
7.8500646e+2, 2.0464014e+2, -1146188.8, -1101789.6, -63735.78, -0.15382382, 0.0703049, -1056497.9, -121983.164, 0.0, 9.998795, 9.999393 
7.849992e+2, 2.1463716e+2, -872992.25, -922380.8, -49923.992, 0.04847758, -0.17818315, -841989.0, -5447.505, 0.0, 10.000007, 9.999371 
7.849904e+2, 2.246359e+2, -707995.94, -816148.1, -53483.92, 0.10475471, -0.2284122, -686014.44, 52538.52, 0.0, 10.000569, 9.999158 
7.849799e+2, 2.3463646e+2, -640531.2, -733188.2, -98503.61, -0.0075740544, -0.10138747, -578005.25, 62542.875, 0.0, 10.00036, 9.999156 
7.8497005e+2, 2.4463576e+2, -643762.44, -756455.8, -71835.43, -0.084241584, -0.05394121, -608811.4, -66256.086, 0.0, 9.999984, 9.998495 
7.84961e+2, 2.546334e+2, -628876.44, -702372.06, -50548.945, -0.12249488, -0.15128066, -603129.44, -158551.66, 0.0, 9.999425, 9.998466 
7.849507e+2, 2.6463187e+2, -534378.2, -554821.56, -127570.78, -0.17854932, -0.1719228, -416620.22, -70027.01, 0.0, 9.9991865, 9.998925 
7.849389e+2, 2.7463108e+2, -412671.38, -440424.22, -148977.27, -0.24771158, -0.15928356, -276925.66, -28323.936, 0.0000001311964, 9.999324, 9.998971 
7.849298e+2, 2.846301e+2, -305406.97, -311740.06, -49852.34, -0.16959782, -0.16284047, -258620.7, -108011.086, 0.0000058891046, 9.999274, 9.999205 
7.84924e+2, 2.946288e+2, -257539.03, -234751.66, -53098.617, 0.08186133, -0.23526426, -191838.08, -139219.92, 0.000037489564, 9.998919, 9.9992285 
7.8491557e+2, 3.0462727e+2, -207899.34, -169469.5, -29339.91, 0.044730473, -0.31394276, -153612.44, -153612.44, 0.00011865352, 9.998842, 9.999382 
7.849051e+2, 3.1462833e+2, -152467.9, -80089.36, -76675.5, -0.21863955, -0.16602038, -31491.863, -31491.863, 0.0002544846, 9.998905, 9.999967 
7.950822e+2, 1.24648824e+2, -1614483.8, -1634352.6, -9540.3545, -0.034055635, -0.04902907, -1610644.6, 107788.72, 0.0000000034592607, 10.000503, 10.000301 
7.950736e+2, 1.3464843e+2, -1575430.0, -1622183.1, -69710.7, 0.008370865, -0.083366364, -1525280.8, 95154.734, 0.0, 10.000385, 9.999764 
7.950648e+2, 1.4464843e+2, -1497529.8, -1542422.9, -60893.355, 0.016271904, -0.04909352, -1455077.5, 67355.53, 0.0, 10.000264, 9.9997015 
7.950551e+2, 1.5464742e+2, -1392005.4, -1437391.6, -43610.004, -0.088375494, -0.1440471, -1365537.4, 58903.035, 0.0, 10.000304, 9.999728 
7.95046e+2, 1.6464633e+2, -1319945.9, -1447159.1, -76836.36, -0.099658646, -0.1827737, -1283804.8, 42645.37, 0.0, 10.000543, 9.998873 
7.950379e+2, 1.74645e+2, -1141937.9, -1310257.0, -82989.42, 0.031189531, -0.2164947, -1107902.3, 120561.38, 0.0, 10.001091, 9.998874 
7.9502815e+2, 1.846447e+2, -1028574.0, -1068138.6, -148200.84, 0.06682324, -0.19182926, -898841.0, 231626.25, 0.0, 10.0006, 10.000104 
7.9501635e+2, 1.9464538e+2, -1157415.3, -1069039.3, -137858.13, -0.021496825, -0.15882814, -968460.4, 64000.81, 0.0, 9.998999, 10.000193 
7.9500663e+2, 2.0464575e+2, -1122461.8, -1032293.0, -29222.836, -0.029088194, -0.12353192, -1023650.56, -89194.06, 0.0, 9.99871, 9.999912 
7.949993e+2, 2.1464561e+2, -845642.7, -849204.94, 2306.4236, 0.053470608, -0.1419113, -844509.7, -8054.227, 0.0, 9.999937, 9.999907 
7.949907e+2, 2.2464459e+2, -789754.5, -964148.1, -64972.215, 0.07033656, -0.14974216, -768210.0, -29744.393, 0.0, 10.000476, 9.998186 
7.9498047e+2, 2.3464245e+2, -722686.4, -888459.3, -98466.44, 0.00968921, -0.19238164, -676864.6, -36374.984, 0.0, 10.000288, 9.998126 
7.949703e+2, 2.4464105e+2, -609305.4, -669183.6, -99511.32, -0.07138638, -0.1884802, -535327.0, 7177.2314, 0.0, 9.999918, 9.999126 
7.949601e+2, 2.5464037e+2, -592248.7, -607801.94, -66358.12, -0.17497042, -0.18895991, -533213.06, -88703.01, 0.0, 9.999345, 9.999154 
7.949503e+2, 2.6463935e+2, -558305.1, -594167.75, -129155.42, -0.1439043, -0.18070698, -445842.22, -99321.914, 0.0, 9.999139, 9.998678 
7.949413e+2, 2.7463782e+2, -439732.2, -489462.63, -134151.56, 0.04558454, -0.21680161, -328160.88, -79623.79, 0.000000103459534, 9.999289, 9.998653 
7.9493153e+2, 2.8463686e+2, -316063.6, -327548.72, -67118.97, 0.059782878, -0.19697554, -254441.97, -103895.81, 0.0000054454867, 9.9992485, 9.999107 
7.949208e+2, 2.9463652e+2, -273048.8, -252305.58, -55312.65, -0.1441103, -0.16292293, -206400.56, -153853.64, 0.00003447301, 9.998851, 9.999143 
7.9491156e+2, 3.0463642e+2, -226831.77, -194923.97, -29202.48, -0.25910836, -0.089405276, -177601.56, -177601.56, 0.0001104858, 9.998786, 9.999232 
7.949047e+2, 3.1463736e+2, -207016.11, -175182.98, -55887.316, -0.1823856, 0.062958725, -132989.9, -132989.9, 0.000240168, 9.998826, 9.999353 
8.050831e+2, 1.24656e+2, -1663712.0, -1681511.6, 37120.406, 0.01897284, -0.10083011, -1634439.4, 83920.7, 0.0000000057252847, 10.000274, 10.000097 
8.050743e+2, 1.3465542e+2, -1578424.6, -1658396.5, -53705.195, 0.034878254, -0.121567555, -1551454.5, 68910.44, 0.0, 10.000506, 9.999475 
8.050651e+2, 1.4465523e+2, -1464278.8, -1537153.6, -50818.742, 0.016056903, -0.08703451, -1438184.3, 84181.42, 0.0, 10.000545, 9.999601 
8.0505604e+2, 1.5465458e+2, -1370201.5, -1441909.8, -77735.55, -0.03160471, -0.13380362, -1320449.9, 103921.27, 0.0, 10.000523, 9.999595 
8.050468e+2, 1.6465387e+2, -1338644.8, -1416529.1, -88629.7, -0.049699992, -0.14359161, -1280779.4, 45597.98, 0.0, 10.00024, 9.999235 
8.0503786e+2, 1.74653e+2, -1336110.8, -1362694.3, -59286.543, -0.0045726327, -0.16594817, -1288644.3, -60258.973, 0.0, 9.999587, 9.999241 
8.05028e+2, 1.8465236e+2, -1164975.5, -1171440.9, -112498.68, 0.03527615, -0.17758958, -1055663.1, 74728.586, 0.0, 9.999833, 9.99976 
8.050171e+2, 1.9465177e+2, -893417.9, -988558.8, -156725.8, 0.05595418, -0.22973098, -777202.1, 255196.0, 0.0, 10.001018, 9.999776 
8.050073e+2, 2.0465195e+2, -782689.5, -876120.06, -73833.16, 0.051923003, -0.19071528, -742034.0, 192362.45, 0.0, 10.001074, 9.999846 
8.049988e+2, 2.1465279e+2, -879193.2, -870518.2, -101940.63, 0.022028675, -0.10615522, -772822.8, 63564.676, 0.0, 9.999735, 9.999856 
8.049899e+2, 2.2465202e+2, -960361.0, -1027084.6, -134764.84, 0.004656837, -0.09278629, -854889.94, -116494.64, 0.0, 9.999223, 9.998354 
8.049803e+2, 2.3464932e+2, -815089.25, -912696.5, -89229.914, -0.0027253984, -0.20848145, -762188.56, -121765.086, 0.0, 9.999572, 9.998301 
8.0497015e+2, 2.4464804e+2, -661483.06, -675259.2, -70486.32, -0.04711484, -0.21332976, -597549.06, -55111.74, 0.0, 9.999467, 9.99931 
8.049596e+2, 2.5464818e+2, -653241.25, -616815.8, -90112.49, -0.12830333, -0.14994386, -543093.94, -98657.26, 0.0, 9.99883, 9.999349 
8.049499e+2, 2.6464766e+2, -577356.8, -610943.2, -106050.95, -0.09535693, -0.09589603, -486777.66, -140334.89, 0.0, 9.999038, 9.9986105 
8.049413e+2, 2.7464628e+2, -309121.78, -432271.88, -106475.39, 0.07732264, -0.11276461, -247698.88, 759.7087, 0.00000004701224, 10.000207, 9.998601 
8.049312e+2, 2.8464502e+2, -201744.33, -315146.16, -79569.04, 0.057867628, -0.10085301, -160740.45, -10268.991, 0.000004093495, 10.000222, 9.99872 
8.049192e+2, 2.946439e+2, -277632.78, -297436.0, -109593.48, -0.19088362, -0.10255656, -177494.53, -125013.21, 0.000029631305, 9.999009, 9.998752 
8.0490977e+2, 3.0464405e+2, -286544.72, -211862.5, -47736.1, -0.2834743, 0.0075122835, -188597.56, -188597.56, 0.00010221737, 9.998333, 9.999343 
8.049039e+2, 3.1464425e+2, -309895.63, -199071.88, -71537.25, -0.10378612, 0.076646104, -163995.89, -163995.89, 0.00023173615, 9.998032, 9.999573 
8.15084e+2, 1.24662735e+2, -1689366.3, -1744842.1, 19305.357, 0.045154013, -0.24627146, -1683309.4, 34978.83, 0.000000004999778, 10.000324, 9.999635 
8.150757e+2, 1.346619e+2, -1605131.9, -1719397.1, -40403.46, 0.11092321, -0.2489673, -1592289.0, 28007.873, 0.0, 10.000539, 9.999034 
8.1506664e+2, 1.4466158e+2, -1499565.3, -1612938.6, -57817.684, 0.0933364, -0.18015632, -1475281.3, 47020.387, 0.0, 10.000553, 9.999081 
8.1505805e+2, 1.5466152e+2, -1398267.4, -1510985.3, -68970.805, 0.10085394, -0.11480188, -1365557.3, 58748.02, 0.0, 10.000565, 9.999103 
8.150483e+2, 1.6466132e+2, -1272248.3, -1280621.1, -120378.8, 0.05681648, -0.0930257, -1155983.1, 170323.92, 0.0, 10.00025, 10.000161 
8.150374e+2, 1.7466085e+2, -1264622.5, -1215848.8, -77468.125, -0.023492808, -0.17699848, -1159019.8, 69288.34, 0.0, 9.999592, 10.000246 
8.150274e+2, 1.8466024e+2, -1233792.1, -1304489.1, -74799.586, -0.024508657, -0.1942989, -1186409.1, -56095.68, 0.0, 9.999789, 9.99887 
8.1501824e+2, 1.9465925e+2, -963736.75, -1130364.3, -103737.586, 0.051643077, -0.19152758, -913999.1, 118327.19, 0.0, 10.000994, 9.998815 
8.150082e+2, 2.0465873e+2, -846316.7, -987249.5, -127445.64, 0.027483793, -0.1348533, -771153.75, 163180.39, 0.0, 10.000985, 9.999127 
8.149974e+2, 2.1465866e+2, -938625.0, -976443.0, -145623.3, -0.10837033, -0.073418826, -810688.2, 25649.352, 0.0, 9.999656, 9.999168 
8.1498754e+2, 2.2465819e+2, -884300.7, -842143.0, -130756.2, -0.15733524, -0.05943017, -730777.5, 7564.7056, 0.0, 9.99911, 9.999679 
8.1497884e+2, 2.346571e+2, -729943.2, -715056.2, -69290.13, -0.1138444, -0.15550674, -652810.9, -12460.612, 0.0, 9.999483, 9.999701 
8.149695e+2, 2.4465665e+2, -688921.1, -718489.5, -100357.234, -0.077550694, -0.13496129, -602264.94, -59909.813, 0.0, 9.999403, 9.999046 
8.1495935e+2, 2.5465685e+2, -684470.56, -671432.2, -107830.32, -0.043632906, -0.032106355, -569924.2, -125566.555, 0.0, 9.998777, 9.999003 
8.149491e+2, 2.646569e+2, -573192.3, -587689.2, -69356.016, -0.09196713, 0.08474344, -510706.97, -164346.55, 0.0, 9.998983, 9.998793 
8.1493855e+2, 2.7465656e+2, -311067.13, -411376.25, -53075.133, -0.23370956, 0.1570017, -288198.06, -39832.387, 0.000000004527389, 10.00011, 9.998789 
8.149285e+2, 2.8465465e+2, -253585.83, -420796.53, -129585.25, -0.2527633, 0.1272652, -182976.4, -32590.688, 0.0000024308686, 10.000202, 9.99801 
8.14919e+2, 2.94651e+2, -338294.88, -419776.3, -148426.36, -0.13013549, -0.054515164, -225119.4, -172696.97, 0.00002455122, 9.998982, 9.997931 
8.1491023e+2, 3.046501e+2, -265346.16, -154607.92, -61237.85, -0.08644126, -0.02217131, -127419.1, -127419.1, 0.00009685274, 9.998288, 9.999748 
8.1490195e+2, 3.1464887e+2, -268031.34, -76477.664, -65084.746, -0.13011463, -0.14773999, -56456.29, -56456.29, 0.00023258898, 9.997886, 10.000481 
8.2508487e+2, 1.2467151e+2, -1622477.0, -1719060.3, 15482.753, 0.08666867, -0.1627583, -1620055.8, 98148.11, 0.0000000017683296, 10.000788, 9.999586 
8.25077e+2, 1.3466963e+2, -1552805.8, -1702035.5, -31292.318, 0.18008263, -0.26740694, -1546509.6, 73711.17, 0.0, 10.000917, 9.998971 
8.250678e+2, 1.4466882e+2, -1447758.9, -1600140.4, -2963.8145, 0.14203371, -0.23944817, -1447701.3, 74528.53, 0.0, 10.000965, 9.998966 
8.2505894e+2, 1.5466931e+2, -1337031.1, -1495605.8, -33.578915, 0.11190795, -0.10541366, -1337031.0, 87197.625, 0.0, 10.001055, 9.998965 
8.250487e+2, 1.6466922e+2, -1216668.5, -1285764.5, -94082.51, 0.052814614, -0.053489823, -1150991.4, 175239.83, 0.0, 10.000773, 9.999866 
8.250373e+2, 1.7466836e+2, -1221478.8, -1233675.3, -164524.19, -0.012237526, -0.14683896, -1062939.9, 165298.8, 0.0, 10.00005, 9.999902 
8.250272e+2, 1.8466777e+2, -1176109.6, -1243551.3, -95822.3, -0.02793407, -0.1569472, -1108248.0, 21996.0, 0.0, 10.0000515, 9.999158 
8.2501864e+2, 1.9466731e+2, -970320.6, -1097814.0, -44006.813, 0.0014645172, -0.13118006, -956606.06, 75643.086, 0.0, 10.00081, 9.999119 
8.250086e+2, 2.0466681e+2, -893854.56, -1051004.6, -68350.32, -0.028881244, -0.07207076, -868286.44, 65970.23, 0.0, 10.000832, 9.998759 
8.24997e+2, 2.1466622e+2, -927185.0, -1016116.6, -79501.65, -0.11947533, -0.022210196, -880559.0, -44291.5, 0.0, 9.99993, 9.998762 
8.2498676e+2, 2.2466567e+2, -819969.44, -762647.2, -28615.588, -0.15409303, -0.016601007, -750807.5, -12534.104, 0.0, 9.999337, 10.000119 
8.2497793e+2, 2.3466495e+2, -765720.5, -680214.4, -51136.203, -0.12763114, -0.12027207, -656313.56, -16037.423, 0.0, 9.999012, 10.00017 
8.249685e+2, 2.4466477e+2, -715131.5, -729624.5, -91978.93, -0.101759925, -0.09667553, -630114.06, -87836.484, 0.0, 9.9992285, 9.999048 
8.249585e+2, 2.5466514e+2, -488076.75, -572502.4, -88570.766, -0.070168614, 0.023121215, -432173.8, 12104.875, 0.0, 10.00013, 9.999022 
8.2494825e+2, 2.6466507e+2, -438980.44, -526308.2, -43984.023, -0.11577288, 0.12722012, -420667.47, -74384.65, 0.0, 9.999914, 9.99877 
8.2493764e+2, 2.7466422e+2, -562950.1, -534506.56, -57927.707, -0.24541362, 0.1487941, -489080.38, -240787.38, 0.0, 9.998383, 9.998776 
8.2492775e+2, 2.8466254e+2, -501160.6, -517161.22, -76929.59, -0.25085744, 0.13278225, -431816.44, -281505.06, 0.000001518397, 9.9984045, 9.998215 
8.249188e+2, 2.9465988e+2, -155777.31, -308588.56, -35505.023, -0.09918626, 0.030565763, -147930.77, -95591.164, 0.000022026383, 10.000137, 9.998137 
8.2491e+2, 3.04659e+2, 26284.785, -16373.783, 45958.75, -0.035880942, 0.057884593, 55622.5, 55622.5, 0.00009707927, 10.000292, 9.999723 
8.2490045e+2, 3.1465647e+2, -122278.78, 58445.023, -27301.947, -0.094572455, -0.20536153, 62479.465, 62479.465, 0.00024342752, 9.998594, 10.001055 
8.350852e+2, 1.2468221e+2, -1594805.3, -1665823.3, -6462.004, 0.0031831143, 0.13011594, -1594222.0, 123885.77, 0.000000000051048894, 10.000808, 9.99994 
8.350781e+2, 1.3467868e+2, -1513160.5, -1634081.1, -19446.775, 0.17990802, -0.18343122, -1510110.0, 110026.21, 0.0, 10.0009775, 9.999408 
8.3506846e+2, 1.4467706e+2, -1430052.4, -1571172.0, -7278.6978, 0.09230726, -0.26650706, -1429678.0, 92471.37, 0.0, 10.000999, 9.999147 
8.3505833e+2, 1.5467799e+2, -1318518.5, -1460723.8, 10590.094, -0.0710922, -0.11057609, -1317734.1, 106407.33, 0.0, 10.00107, 9.999195 
8.350479e+2, 1.6467758e+2, -1327682.1, -1509129.9, -126212.445, -0.121536024, -0.030236706, -1262969.9, 63179.84, 0.0, 10.000745, 9.998349 
8.350374e+2, 1.7467561e+2, -1327849.0, -1460946.3, -182069.23, -0.026423153, -0.07352376, -1200547.4, 27628.602, 0.0, 10.000079, 9.998328 
8.3502734e+2, 1.8467505e+2, -1079570.6, -1043098.44, -75315.29, -0.032929856, -0.06631315, -983842.94, 146339.23, 0.0, 10.000047, 10.000541 
8.3501786e+2, 1.9467586e+2, -866902.5, -877256.4, -7897.73, -0.1644711, -0.063716404, -862636.2, 169531.47, 0.0, 10.000778, 10.000652 
8.350079e+2, 2.0467608e+2, -909150.4, -1062243.8, -107092.164, -0.18468566, -0.012781677, -854060.75, 80104.27, 0.0, 10.000744, 9.998723 
8.349975e+2, 2.1467544e+2, -943776.5, -1033399.56, -105906.055, -0.07649193, 0.041940864, -873591.6, -37414.375, 0.0, 9.999858, 9.998674 
8.349873e+2, 2.2467448e+2, -865249.44, -836566.7, -49813.16, -0.042912032, 0.033973955, -799071.56, -60883.04, 0.0, 9.999246, 9.99966 
8.349772e+2, 2.34673e+2, -808810.7, -754656.94, -56448.523, -0.10678044, -0.10051609, -719127.2, -78926.95, 0.0, 9.9989395, 9.999697 
8.34967e+2, 2.4467252e+2, -706012.7, -695100.4, -65600.9, -0.18188877, -0.0967774, -634729.1, -92525.13, 0.0, 9.999161, 9.999319 
8.349567e+2, 2.5467303e+2, -478552.22, -538026.5, -45590.387, -0.27128118, 0.0072911293, -453857.94, -9657.423, 0.0, 10.000061, 9.999293 
8.3494717e+2, 2.6467207e+2, -460210.4, -558100.9, -103108.13, -0.2256485, 0.018631766, -395020.1, -48808.637, 0.0, 9.999862, 9.998576 
8.349384e+2, 2.7466923e+2, -590795.75, -574772.7, -106910.75, -0.02172021, -0.13634014, -475573.72, -227332.84, 0.0, 9.998306, 9.998539 
8.349288e+2, 2.8466868e+2, -428322.78, -349233.66, -20128.041, 0.0051999735, -0.0820237, -344405.8, -194157.58, 0.0000012583888, 9.99834, 9.999396 
8.3491844e+2, 2.9467055e+2, -82357.33, -138487.58, 40334.66, -0.16918467, 0.14759904, -61284.527, -9051.794, 0.000022671806, 10.000065, 9.999341 
8.349087e+2, 3.0467084e+2, -8741.281, -80952.625, -12888.113, -0.20110165, 0.25045106, -6509.9863, -6509.9863, 0.0001036696, 10.000258, 9.999299 
8.34899e+2, 3.1466728e+2, -120544.37, 75850.27, -64975.695, -0.14573805, -0.06462925, 95400.8, 95400.8, 0.00026236358, 9.998539, 10.0012045 
8.45087e+2, 1.24689974e+2, -1578226.5, -1644936.0, 71249.29, 0.10733841, 0.052602828, -1532911.0, 185120.52, 0.0, 10.000873, 10.000056 
8.450793e+2, 1.3468799e+2, -1430506.9, -1576615.8, 21978.496, 0.17213249, -0.11717525, -1427272.4, 192772.94, 0.0, 10.001483, 9.9995575 
8.450692e+2, 1.4468654e+2, -1365233.8, -1538287.1, 8873.733, 0.04458657, -0.19260086, -1364779.9, 157276.86, 0.0, 10.001443, 9.999156 
8.4505945e+2, 1.5468644e+2, -1344346.3, -1476078.1, -4850.713, -0.056515433, -0.13984539, -1344167.9, 79890.37, 0.0, 10.000905, 9.999172 
8.450491e+2, 1.6468559e+2, -1316645.0, -1559833.4, -88181.81, -0.09038076, -0.076159075, -1288035.4, 38035.81, 0.0, 10.001056, 9.997856 
8.450383e+2, 1.7468391e+2, -1111387.1, -1414148.6, -77756.8, -0.027729033, -0.03735677, -1092584.9, 135512.36, 0.0, 10.001819, 9.997812 
8.45028e+2, 1.8468343e+2, -879937.9, -949693.06, 10164.451, -0.042257134, 0.0045637623, -878486.94, 251617.03, 0.0, 10.001426, 10.000514 
8.450182e+2, 1.9468409e+2, -1032531.1, -961534.6, -50194.957, -0.15522452, -0.006986989, -935553.94, 96536.93, 0.0, 9.999659, 10.000613 
8.4500813e+2, 2.0468405e+2, -1085960.5, -1120148.5, -158874.47, -0.17079867, 0.009454722, -943263.06, -9173.43, 0.0, 9.999409, 9.998976 
8.449979e+2, 2.1468301e+2, -799748.1, -939226.56, -145755.78, -0.066687554, -0.000635772, -707906.7, 128197.336, 0.0, 10.000733, 9.998907 
8.449874e+2, 2.2468226e+2, -642985.75, -743530.6, -87770.98, -0.03959717, 0.005898751, -592109.5, 146004.02, 0.0, 10.000848, 9.999516 
8.449764e+2, 2.346817e+2, -727064.56, -731662.1, -91581.1, -0.107276976, -0.018204778, -637753.4, 2364.9395, 0.0, 9.99959, 9.999534 
8.4496593e+2, 2.4468142e+2, -711245.9, -645004.06, -25274.605, -0.18887769, -0.008843285, -636462.0, -94342.62, 0.0, 9.998892, 9.999792 
8.44956e+2, 2.5468123e+2, -629328.2, -551234.44, -3256.5833, -0.28751537, -0.024344271, -551098.9, -106980.6, 0.0, 9.998773, 9.999816 
8.4494674e+2, 2.6467997e+2, -540141.4, -583158.7, -46938.258, -0.22057231, -0.07773608, -510018.44, -163888.36, 0.0, 9.999258, 9.998693 
8.4493846e+2, 2.7467728e+2, -267787.75, -403777.8, -37896.58, 0.05025133, -0.22617017, -257940.14, -9782.309, 0.0000000050987805, 10.0004635, 9.998672 
8.449287e+2, 2.8467715e+2, -119220.164, -171257.69, 50553.855, 0.061471142, -0.15173669, -88382.37, 61778.75, 0.0000017149706, 10.000333, 9.999659 
8.4491724e+2, 2.9467955e+2, -277652.56, -195111.28, 22193.1, -0.21472396, 0.10119258, -189522.56, -137382.83, 0.0000255943, 9.998567, 9.999668 
8.4490746e+2, 3.0467954e+2, -332826.78, -289112.56, -57250.566, -0.24990368, 0.17441146, -249688.69, -249688.69, 0.000114907256, 9.998245, 9.998852 
8.4489846e+2, 3.1467676e+2, 15741.029, 120638.734, -129186.43, -0.099482134, -0.011686153, 207617.34, 207617.34, 0.00028673265, 9.999549, 10.0010395 
8.550898e+2, 1.2469517e+2, -1589787.0, -1679672.1, 64461.74, 0.26081893, -0.36428988, -1556147.4, 161824.33, 0.0, 10.000922, 9.999795 
8.550801e+2, 1.3469766e+2, -1444100.0, -1603490.6, 45523.91, 0.09859688, -0.065688536, -1432014.3, 187933.03, 0.0, 10.001492, 9.999363 
8.550698e+2, 1.4469725e+2, -1371506.1, -1560149.0, -16994.662, -0.05534312, -0.021140728, -1369987.3, 151964.64, 0.0, 10.001467, 9.9990015 
8.5506195e+2, 1.546946e+2, -1348716.3, -1498035.8, -13332.544, 0.083043106, -0.20482592, -1347535.1, 76443.62, 0.0, 10.000952, 9.9990015 
8.5505193e+2, 1.646933e+2, -1289005.0, -1498288.0, -67366.6, 0.07877929, -0.19587791, -1269195.4, 56799.88, 0.0, 10.00104, 9.998284 
8.550397e+2, 1.7469327e+2, -1075622.4, -1339845.6, -42242.36, -0.077201225, -0.045086645, -1069033.3, 158969.25, 0.0, 10.001818, 9.998322 
8.550288e+2, 1.8469289e+2, -989074.6, -1166847.1, -58504.52, -0.11834494, 0.051827285, -971548.75, 158461.16, 0.0, 10.001382, 9.999047 
8.5501915e+2, 1.94692e+2, -1140218.1, -1185750.9, -110049.234, -0.03766718, 0.039422642, -1050605.0, -18586.197, 0.0, 9.999655, 9.999078 
8.5500884e+2, 2.0469078e+2, -1057886.4, -1050591.4, -120119.38, -0.04528169, -0.006006668, -934064.1, -33.77038, 0.0, 9.999356, 9.999481 
8.549979e+2, 2.1468899e+2, -767209.0, -853663.5, -88367.59, -0.15572414, -0.15278178, -712062.3, 123984.88, 0.0, 10.000653, 9.999534 
8.549866e+2, 2.2468896e+2, -653493.44, -739783.5, -138522.47, -0.2084049, -0.108289875, -551552.4, 186495.78, 0.0, 10.000737, 9.999596 
8.549753e+2, 2.3469092e+2, -732223.75, -726220.44, -130390.586, -0.1959444, 0.112166114, -598796.94, 41234.883, 0.0, 9.999518, 9.999606 
8.5496503e+2, 2.4469139e+2, -673838.5, -550756.06, -38142.977, -0.18495178, 0.15837526, -539894.2, 2130.7046, 0.0, 9.998822, 10.000474 
8.5495603e+2, 2.5468984e+2, -592081.5, -455644.1, -1997.7072, -0.17213348, -0.06273645, -455614.84, -11583.18, 0.0, 9.998691, 10.000515 
8.549469e+2, 2.6468882e+2, -514149.25, -515567.25, -9749.729, -0.14115074, -0.1507932, -505082.78, -159044.6, 0.0, 9.999198, 9.999188 
8.5493755e+2, 2.7468836e+2, -243742.28, -339777.06, 17755.66, -0.09955696, -0.12417348, -240564.63, 7479.7476, 0.0000001292932, 10.000404, 9.999141 
8.54927e+2, 2.846879e+2, -168301.61, -264321.8, -16375.266, -0.15578479, -0.07890166, -165585.78, -15535.555, 0.0000031613251, 10.000293, 9.999039 
8.5491496e+2, 2.9468682e+2, -332950.28, -297424.75, -38228.984, -0.3146896, -0.10669778, -273033.38, -220972.22, 0.000030116835, 9.998504, 9.999 
8.5490584e+2, 3.0468482e+2, -378789.16, -360059.1, -15313.79, -0.249876, -0.1734984, -351473.75, -351473.75, 0.0001273879, 9.998159, 9.998397 
8.548985e+2, 3.1468448e+2, -46382.66, 33204.363, -57173.72, -0.07795596, -0.06548226, 63069.72, 63069.72, 0.00031292182, 9.999394, 10.000506 
8.65092e+2, 1.24703854e+2, -1309624.8, -1569767.6, 5450.5063, 0.2950981, -0.37246087, -1309510.6, 408376.2, 0.00000000000000000000885557, 10.00296, 9.999558 
8.650816e+2, 1.3470607e+2, -1510359.6, -1657021.8, -26028.992, 0.118417256, -0.08914458, -1505877.1, 113988.59, 0.0, 10.001108, 9.999187 
8.650708e+2, 1.4470574e+2, -1525401.5, -1619850.4, -34124.324, -0.045017563, -0.032362226, -1514362.6, 7507.798, 0.0, 10.00036, 9.99912 
8.650629e+2, 1.5470374e+2, -1332843.0, -1479287.0, -25427.195, 0.08428071, -0.16238758, -1328553.8, 95338.62, 0.0, 10.0010195, 9.999097 
8.650531e+2, 1.6470273e+2, -1239984.3, -1424515.4, -49523.35, 0.091557026, -0.1512577, -1227533.6, 98371.5, 0.0, 10.001157, 9.998732 
8.650414e+2, 1.7470267e+2, -1210617.4, -1357332.0, -41914.71, -0.03335375, -0.04850186, -1199487.3, 28422.137, 0.0, 10.000676, 9.998752 
8.650302e+2, 1.8470208e+2, -1149902.5, -1319559.4, -49334.56, -0.06946942, 0.03790723, -1136599.6, -6680.525, 0.0, 10.0006075, 9.998368 
8.6501974e+2, 1.9470079e+2, -1005080.06, -1202201.8, -51587.016, -0.008131099, 0.06014403, -992395.9, 39540.277, 0.0, 10.000942, 9.998341 
8.6500883e+2, 2.0469955e+2, -877380.75, -930121.2, -3688.5977, -0.036832076, 0.035342094, -877124.0, 56825.313, 0.0, 10.000461, 9.999766 
8.6499745e+2, 2.1469812e+2, -988320.25, -926460.3, -10148.234, -0.17183721, -0.105454445, -924838.06, -88877.8, 0.0, 9.998998, 9.9998255 
8.649861e+2, 2.2469814e+2, -933145.9, -865633.4, -57425.836, -0.227146, -0.07607023, -832777.25, -94818.34, 0.0, 9.998775, 9.999679 
8.6497504e+2, 2.3469971e+2, -671339.56, -688188.25, -60777.0, -0.18930796, 0.09751861, -618405.8, 21538.72, 0.0, 9.999897, 9.999682 
8.649647e+2, 2.4469982e+2, -497416.75, -490578.2, -2397.9016, -0.16259004, 0.11501008, -489821.16, 52119.605, 0.0, 10.000146, 10.000245 
8.6495525e+2, 2.5469798e+2, -497122.84, -436989.47, -53522.29, -0.14979714, -0.110330045, -405666.9, 38284.64, 0.0, 9.999464, 10.00027 
8.64946e+2, 2.6469734e+2, -532728.5, -466887.47, -57097.8, -0.12704927, -0.16965815, -433899.6, -87945.27, 0.0000000005766255, 9.998819, 9.999702 
8.649369e+2, 2.7469805e+2, -524398.4, -414504.7, -39768.586, -0.091954716, -0.08352037, -401623.13, -153674.75, 0.000000514823, 9.998208, 9.999684 
8.6492646e+2, 2.846979e+2, -451105.22, -408002.0, -61008.758, -0.14110395, -0.034628466, -364850.13, -214899.67, 0.0000054394536, 9.998381, 9.998976 
8.649144e+2, 2.9469612e+2, -192100.2, -231769.5, -50389.03, -0.2670339, -0.12264036, -157782.6, -105815.7, 0.000035908153, 9.999483, 9.9989805 
8.6490536e+2, 3.0469316e+2, -140676.69, -271390.47, 47348.66, -0.1917395, -0.27376333, -125327.83, -125327.83, 0.00014004746, 9.999891, 9.998171 
8.6489815e+2, 3.1469327e+2, -104889.664, -64035.035, 3811.5327, -0.038647283, -0.10222021, -63682.48, -63682.48, 0.0003371157, 9.999277, 9.999886 
8.750931e+2, 1.2471599e+2, -1319875.4, -1599179.9, -86798.66, 0.0740599, 0.015814513, -1295099.0, 422677.88, 0.0000000055054987, 10.002988, 9.999344 
8.750833e+2, 1.3471332e+2, -1510530.5, -1657417.3, -90587.38, 0.16393903, -0.18944882, -1467354.9, 152444.52, 0.0, 10.001112, 9.999177 
8.750719e+2, 1.4471222e+2, -1505880.6, -1585298.8, -18794.836, 0.009247753, -0.21829793, -1501657.4, 20152.861, 0.0, 10.000381, 9.999349 
8.750621e+2, 1.5471384e+2, -1310076.1, -1432023.9, 7543.2456, -0.1116256, -0.015115584, -1309611.3, 114187.28, 0.0, 10.001026, 9.9994135 
8.7505245e+2, 1.6471384e+2, -1206568.0, -1358366.5, -73485.01, -0.10870425, 0.057475485, -1176822.9, 148977.78, 0.0, 10.001162, 9.999188 
8.7504303e+2, 1.747121e+2, -1175733.9, -1292382.0, -53408.49, 0.04276056, -0.051050354, -1154974.6, 72843.0, 0.0, 10.000701, 9.999189 
8.750321e+2, 1.8471108e+2, -1149560.5, -1310822.0, -43841.395, 0.04188422, -0.03249219, -1138412.3, -8581.671, 0.0, 10.000575, 9.998443 
8.750196e+2, 1.9471052e+2, -1003318.8, -1189459.1, -31322.775, -0.13103847, 0.050868902, -998189.3, 33653.137, 0.0, 10.000902, 9.998446 
8.7500775e+2, 2.047103e+2, -891845.06, -938399.4, -63206.332, -0.2046777, 0.123276174, -847765.94, 86080.79, 0.0, 10.000368, 9.999755 
8.749966e+2, 2.1471043e+2, -1000422.9, -935294.7, -59352.934, -0.17093602, 0.14015593, -900159.56, -64316.305, 0.0, 9.998928, 9.999799 
8.749858e+2, 2.2470981e+2, -937185.5, -857560.3, -24752.527, -0.14963561, 0.10258478, -850492.94, -112647.664, 0.0, 9.9987, 9.999771 
8.749755e+2, 2.3470813e+2, -675954.9, -678198.1, -11114.384, -0.14259993, -0.058385614, -665905.7, -26050.0, 0.0, 9.999809, 9.999794 
8.749647e+2, 2.4470676e+2, -592387.1, -670447.94, -32528.063, -0.18635915, -0.13581152, -580609.56, -38743.395, 0.0, 10.00007, 9.999048 
8.7495345e+2, 2.547056e+2, -596434.06, -623609.1, -71419.57, -0.29320794, -0.17141613, -537321.0, -93442.734, 0.0, 9.999381, 9.999027 
8.7494385e+2, 2.6470548e+2, -502661.66, -396111.97, -85751.02, -0.23601855, -0.14281735, -348434.1, -2554.543, 0.0000000691861, 9.998776, 10.000212 
8.749362e+2, 2.7470636e+2, -497199.78, -337291.63, -56049.625, 0.0040162904, -0.09672372, -319602.4, -71732.24, 0.000001269736, 9.998117, 10.00026 
8.749268e+2, 2.847072e+2, -417785.34, -327459.6, -28323.828, 0.046101063, -0.003252457, -319312.78, -169451.75, 0.000008255043, 9.998329, 9.999557 
8.749154e+2, 2.9470748e+2, -158290.77, -149160.7, 607.1647, -0.13072224, 0.05728914, -149120.5, -97263.6, 0.000042714033, 9.999428, 9.9995775 
8.74906e+2, 3.0470458e+2, -144208.66, -266779.47, 27186.52, -0.13188174, -0.12535515, -138449.23, -138449.23, 0.00015286829, 9.999845, 9.998221 
8.748969e+2, 3.1470284e+2, -173121.0, -184456.03, 3871.6687, -0.12677342, -0.13072036, -171924.8, -171924.8, 0.0003572186, 9.999192, 9.999098 
8.850946e+2, 1.24726765e+2, -1504719.0, -1708766.5, -29569.938, -0.00786782, 0.1530844, -1500520.3, 217157.2, 0.00000006865043, 10.001804, 9.9991665 
8.8508475e+2, 1.3472311e+2, -1408066.0, -1620517.6, -55224.11, 0.17089964, -0.13899918, -1394568.8, 225140.1, 0.0, 10.001863, 9.999076 
8.8507324e+2, 1.4472164e+2, -1366115.8, -1507869.0, 53981.06, 0.064177416, -0.20466866, -1347900.0, 173822.6, 0.0, 10.001303, 9.9994335 
8.8506293e+2, 1.5472345e+2, -1409091.6, -1473884.6, 48930.41, -0.092356145, 0.010114859, -1382804.9, 40903.203, 0.0, 10.000313, 9.999473 
8.8505304e+2, 1.6472365e+2, -1335863.5, -1382872.5, -20460.88, -0.10761921, 0.08189081, -1328205.4, -2498.0242, 0.0, 10.000128, 9.999516 
8.8504374e+2, 1.7472215e+2, -1131507.5, -1233490.9, -24132.188, 0.04596509, -0.032196205, -1126085.4, 101635.336, 0.0, 10.000855, 9.999518 
8.8503283e+2, 1.8472134e+2, -1085162.0, -1238944.5, -10449.882, 0.05235537, -0.028012574, -1084455.1, 45275.465, 0.0, 10.000837, 9.998812 
8.8502014e+2, 1.9472097e+2, -1119759.5, -1203046.0, 5612.2666, -0.11274182, 0.038323842, -1119383.1, -87643.31, 0.0, 9.999925, 9.998822 
8.850081e+2, 2.047209e+2, -967284.2, -1008780.8, -8042.796, -0.18066151, 0.12166576, -965779.94, -32037.375, 0.0, 9.999989, 9.99946 
8.8499695e+2, 2.1472113e+2, -708707.3, -830266.94, -36094.324, -0.13277595, 0.18268098, -698797.75, 136941.16, 0.0, 10.001078, 9.99949 
8.8498616e+2, 2.2472006e+2, -608370.94, -709134.8, -5321.457, -0.09666018, 0.121083856, -608090.7, 129653.92, 0.0, 10.001006, 9.999676 
8.8497585e+2, 2.3471731e+2, -705317.25, -703521.56, -24979.943, -0.07807793, -0.1381372, -679423.3, -39660.297, 0.0, 9.99966, 9.999692 
8.8496494e+2, 2.4471572e+2, -748778.44, -800354.8, -12086.681, -0.12339347, -0.20881219, -746086.5, -204309.95, 0.0, 9.9992285, 9.998561 
8.8495356e+2, 2.5471523e+2, -562981.56, -663515.9, -8723.072, -0.24051903, -0.12758903, -562230.3, -118443.766, 0.00000000006372724, 9.999841, 9.998534 
8.849434e+2, 2.6471505e+2, -323301.72, -318287.94, -16454.559, -0.21947598, -0.072812155, -304150.4, 41639.332, 0.00000025387644, 10.0000515, 10.000128 
8.849348e+2, 2.7471513e+2, -245153.75, -221796.0, -50456.547, -0.039768744, -0.10142529, -181684.34, 66102.31, 0.0000021793016, 9.999881, 10.000198 
8.849255e+2, 2.8471583e+2, -234037.27, -200151.19, -21118.97, 0.025536828, -0.03231644, -190018.83, -40241.06, 0.000011106664, 9.999437, 9.999889 
8.849155e+2, 2.9471692e+2, -239463.17, -145914.98, -24113.123, -0.027374532, 0.07305286, -140065.33, -88299.22, 0.000049522223, 9.998694, 9.999948 
8.8490623e+2, 3.0471504e+2, -227590.06, -240510.5, 32196.838, -0.040665776, -0.05972441, -201211.72, -201211.72, 0.00016466355, 9.998981, 9.998829 
8.848959e+2, 3.147138e+2, -23162.746, -107065.336, 37011.81, -0.18943056, -0.066639654, -9169.559, -9169.559, 0.00037254568, 10.000199, 9.99916 
8.9509594e+2, 1.2473619e+2, -1522192.1, -1736419.4, -54693.0, -0.092902996, 0.041232746, -1509036.8, 208552.13, 0.00000033567557, 10.001781, 9.998982 
8.9508593e+2, 1.347356e+2, -1418500.5, -1638677.5, -50846.383, 0.087641105, 0.07245432, -1407325.5, 212267.53, 0.00000000007521531, 10.001865, 9.998942 
8.9507467e+2, 1.4473417e+2, -1367973.1, -1521922.8, 8578.922, 0.05669043, 0.022113357, -1367496.5, 154109.45, 0.0, 10.001335, 9.999328 
8.9506507e+2, 1.5473272e+2, -1414139.1, -1491047.9, 20585.602, 0.07100607, -0.07805658, -1408975.8, 14643.882, 0.0, 10.000337, 9.999347 
8.9505464e+2, 1.6473225e+2, -1323978.9, -1363449.1, -1101.2211, 0.020484524, -0.06790061, -1323948.1, 1675.4956, 0.0, 10.000144, 9.99964 
8.950435e+2, 1.7473277e+2, -1119140.1, -1209251.6, 11960.414, -0.07921375, 0.00048047482, -1117579.6, 110038.87, 0.0, 10.000859, 9.999682 
8.9503235e+2, 1.8473278e+2, -1046428.9, -1151757.8, -49724.105, -0.093342274, 0.04755956, -1026663.8, 102955.555, 0.0, 10.000804, 9.999428 
8.9502114e+2, 1.9473206e+2, -1081344.4, -1117214.0, -22876.027, -0.02086644, 0.017802764, -1070210.9, -38582.38, 0.0, 9.999891, 9.99943 
8.950097e+2, 2.0473129e+2, -1015883.56, -1093878.5, 23689.43, -0.028592104, 0.026685428, -1009252.2, -75615.17, 0.0, 9.999922, 9.998908 
8.9499825e+2, 2.147303e+2, -761698.9, -918619.56, 12578.768, -0.121767275, 0.018859552, -760697.0, 74949.78, 0.0, 10.000987, 9.998923 
8.949869e+2, 2.24729e+2, -647429.1, -770719.4, -60291.938, -0.13120025, -0.01662355, -622846.44, 114809.63, 0.0, 10.000915, 9.9993 
8.949758e+2, 2.3472726e+2, -742093.6, -762149.56, -68817.53, -0.060951233, -0.13827503, -682577.25, -42911.004, 0.0, 9.999579, 9.999329 
8.949653e+2, 2.4472663e+2, -740220.4, -770304.94, 2383.8713, -0.032894127, -0.10709269, -740032.7, -198360.66, 0.0, 9.999174, 9.998795 
8.949554e+2, 2.5472695e+2, -558854.9, -633879.0, 22346.846, -0.05295808, 0.031295955, -552703.0, -109027.94, 0.0000000002378373, 9.999753, 9.998781 
8.949444e+2, 2.647263e+2, -378378.56, -421102.78, -27851.766, -0.13884175, 0.059217602, -364639.94, -18957.248, 0.00000030747992, 10.000003, 9.999445 
8.949322e+2, 2.7472442e+2, -306879.84, -333965.47, -48052.883, -0.30051655, -0.09194992, -270497.84, -22800.672, 0.0000026197797, 9.999816, 9.999459 
8.949221e+2, 2.847238e+2, -235512.31, -199392.31, -54614.516, -0.2769087, -0.12177649, -159929.2, -10227.977, 0.000013171274, 9.999413, 9.9999075 
8.9491427e+2, 2.9472435e+2, -239079.17, -138682.56, -44613.133, -0.03794186, -0.07585135, -121722.84, -70027.25, 0.000055655084, 9.998657, 10.000017 
8.949059e+2, 3.047244e+2, -152554.6, -66366.6, 72182.82, 0.014620402, -0.076014504, -25392.451, -25392.451, 0.00017577781, 9.998916, 10.00005 
8.948947e+2, 3.1472555e+2, 26940.809, 23327.27, 106532.91, -0.3609734, 0.024715843, 131682.27, 131682.27, 0.0003866523, 10.000097, 10.000097 
9.050982e+2, 1.2474665e+2, -1574752.8, -1754428.0, -22417.371, -0.00862846, 0.020594692, -1571998.1, 145490.78, 0.0000010657902, 10.001384, 9.999056 
9.050878e+2, 1.3474716e+2, -1444916.8, -1639638.0, -21036.604, 0.10749216, 0.15055095, -1442670.0, 176813.8, 0.000000007369457, 10.001625, 9.999056 
9.0507627e+2, 1.4474605e+2, -1337453.9, -1506332.8, 40164.703, 0.07900246, 0.12635693, -1328388.1, 193105.4, 0.0, 10.001548, 9.999324 
9.050664e+2, 1.5474385e+2, -1276306.0, -1425712.9, 40827.273, 0.12022341, -0.048519455, -1265877.4, 157635.6, 0.0, 10.001293, 9.9993305 
9.0505546e+2, 1.6474316e+2, -1219129.8, -1301187.8, 61967.47, 0.06288523, -0.06689445, -1185839.5, 139679.13, 0.0, 10.000817, 9.999743 
9.050439e+2, 1.7474389e+2, -1225628.5, -1246687.1, 55845.895, -0.086353496, 0.014833515, -1179328.0, 48183.36, 0.0, 10.000074, 9.999799 
9.0503263e+2, 1.8474393e+2, -1137477.6, -1197923.3, -13703.576, -0.11260778, 0.05952636, -1134516.0, -5004.608, 0.0, 10.000186, 9.999408 
9.050218e+2, 1.9474307e+2, -880327.4, -1024503.9, -43950.277, -0.009518897, 0.017571012, -867986.1, 163534.72, 0.0, 10.001277, 9.999404 
9.050107e+2, 2.0474215e+2, -783706.06, -976780.44, 15090.171, -0.0014743618, 0.008882431, -782533.75, 150996.72, 0.0, 10.001494, 9.99895 
9.0499926e+2, 2.1474089e+2, -798627.75, -934194.44, 30929.799, -0.09615392, -0.025962595, -791904.5, 43638.16, 0.0, 10.00072, 9.998945 
9.049879e+2, 2.2473979e+2, -705261.0, -824351.5, -17257.445, -0.11601635, -0.032415815, -702810.6, 34740.453, 0.0, 10.000631, 9.999067 
9.049762e+2, 2.3473871e+2, -500692.7, -674118.8, -30166.775, -0.059467647, -0.064188845, -495595.13, 143961.92, 0.0, 10.001358, 9.999077 
9.049657e+2, 2.4473801e+2, -468272.84, -657523.7, 43002.473, 0.000121428515, -0.016625753, -458959.9, 82604.35, 0.0, 10.001126, 9.998624 
9.049563e+2, 2.547376e+2, -552957.25, -648994.5, 14836.319, 0.0611505, 0.06282836, -550717.5, -107143.195, 0.0, 9.999873, 9.998615 
9.049451e+2, 2.6473674e+2, -484349.72, -485660.97, -1919.1934, -0.038163047, 0.08423208, -482977.25, -137393.77, 0.0000002007212, 9.999339, 9.999322 
9.049318e+2, 2.7473518e+2, -342496.63, -365286.34, 7902.439, -0.30868766, -0.020950144, -340024.56, -92430.6, 0.0000025589381, 9.999629, 9.999337 
9.0492105e+2, 2.8473392e+2, -264797.44, -282101.94, -9235.982, -0.3142702, -0.07591541, -260794.06, -111189.59, 0.000014749117, 9.999507, 9.999297 
9.0491325e+2, 2.94733e+2, -247135.27, -209493.84, -66919.09, -0.011225984, -0.11461168, -158799.2, -107184.22, 0.00006245814, 9.9989, 9.999412 
9.0490514e+2, 3.0473354e+2, -151729.64, 6129.37, 60203.92, 0.06921867, -0.06572916, 26469.09, 26469.09, 0.00018870574, 9.998609, 10.000699 
9.048943e+2, 3.147355e+2, -171664.67, 2278.2349, 32080.604, -0.3275224, 0.05080497, 8006.2896, 8006.2896, 0.00040376265, 9.9984045, 10.000771 
9.1510093e+2, 1.2475848e+2, -1538848.0, -1701302.8, -33621.773, 0.08463536, 0.11343828, -1532164.6, 185209.97, 0.000002613721, 10.001473, 9.999378 
9.150902e+2, 1.347579e+2, -1415677.6, -1580828.3, -7433.548, 0.16373049, 0.09398643, -1415343.8, 204036.33, 0.00000007607973, 10.001629, 9.999457 
9.150778e+2, 1.4475729e+2, -1335757.9, -1500494.0, 23094.145, 0.058118314, 0.095600225, -1332581.5, 188804.03, 0.0, 10.001536, 9.999371 
9.1506654e+2, 1.5475689e+2, -1269241.0, -1415023.9, 40805.2, -0.006221814, 0.096577205, -1258596.8, 164791.4, 0.0, 10.00131, 9.999394 
9.150554e+2, 1.6475636e+2, -1213141.6, -1291988.5, 26111.01, -0.04334278, 0.089371316, -1205278.8, 120113.17, 0.0, 10.000829, 9.999802 
9.1504455e+2, 1.747556e+2, -1223381.0, -1241570.4, 34074.53, -0.040142056, 0.016016971, -1197208.4, 30189.922, 0.0, 10.000069, 9.999838 
9.150334e+2, 1.8475488e+2, -1183138.8, -1286545.5, 19441.537, -0.07012016, 0.012008337, -1179604.4, -50198.55, 0.0, 10.000158, 9.998816 
9.150219e+2, 1.9475405e+2, -931303.44, -1118231.4, 6491.631, -0.13962702, 0.03410456, -931078.25, 100338.08, 0.0, 10.001225, 9.998787 
9.1501075e+2, 2.047535e+2, -755959.2, -900626.8, -17737.594, -0.16017784, 0.06974316, -753816.1, 179606.11, 0.0, 10.001414, 9.999511 
9.149999e+2, 2.1475308e+2, -771867.7, -855439.1, 8838.186, -0.12133977, 0.059456598, -770943.25, 64481.965, 0.0, 10.000623, 9.999532 
9.149886e+2, 2.2475252e+2, -722695.8, -845918.56, 1471.6655, -0.116409175, 0.08024668, -722678.25, 14750.88, 0.0, 10.000564, 9.998955 
9.149769e+2, 2.3475164e+2, -520912.25, -698029.8, 5111.01, -0.14055684, 0.083427735, -520764.9, 118670.26, 0.0, 10.001281, 9.99895 
9.14966e+2, 2.4474996e+2, -517606.3, -747184.4, -7854.598, -0.096266486, 0.06755362, -517337.9, 24114.336, 0.0, 10.001069, 9.998038 
9.14956e+2, 2.5474718e+2, -606394.75, -743612.56, -24229.031, 0.027482238, -0.027655847, -602242.25, -158758.6, 0.0, 9.999801, 9.998004 
9.149451e+2, 2.6474634e+2, -458909.47, -424124.3, 2347.4963, 0.019192535, 0.002476183, -423966.6, -78474.57, 0.00000011562638, 9.9993, 9.9997635 
9.149333e+2, 2.7474734e+2, -316100.56, -299762.63, 27487.664, -0.13131295, 0.10843308, -279255.75, -31778.447, 0.0000025826089, 9.99958, 9.999812 
9.1492236e+2, 2.8474626e+2, -359338.9, -470002.7, -38018.39, -0.15055527, 0.10804523, -347536.5, -198049.27, 0.000017159802, 9.999468, 9.998028 
9.149123e+2, 2.9474285e+2, -350089.13, -412341.9, -80056.375, -0.016735893, -0.047372423, -295320.97, -243796.64, 0.00007135739, 9.998848, 9.998047 
9.149038e+2, 3.047424e+2, -163397.47, 2559.3542, 50150.844, 0.061239325, -0.02757027, 16537.242, 16537.242, 0.00020552066, 9.998526, 10.0007105 
9.148941e+2, 3.147431e+2, -163488.23, 51369.082, 53180.234, -0.21908826, -0.047393735, 63811.41, 63811.41, 0.00042645857, 9.998274, 10.001165 
9.251026e+2, 1.24769874e+2, -1405567.8, -1646333.8, 6327.945, 0.06278798, 0.1052048, -1405401.5, 311860.16, 0.0000053718704, 10.002416, 9.999301 
9.250918e+2, 1.3476904e+2, -1477234.4, -1613358.8, -22076.133, 0.18960038, 0.059381727, -1473743.8, 145527.81, 0.00000033393198, 10.001212, 9.999439 
9.2507935e+2, 1.4476877e+2, -1452492.0, -1516236.4, 40604.215, 0.11174039, 0.08107978, -1432745.0, 88528.73, 0.0, 10.000563, 9.999737 
9.250676e+2, 1.5476917e+2, -1335096.3, -1404546.8, 63388.96, 0.0063579497, 0.12464329, -1297544.3, 125722.88, 0.0, 10.000678, 9.999772 
9.250564e+2, 1.6476873e+2, -1269380.6, -1378743.3, 42523.2, -0.01663912, 0.13127945, -1254792.4, 70478.5, 0.0, 10.000699, 9.999267 
9.2504585e+2, 1.7476729e+2, -1175314.1, -1281430.8, -8010.1294, 0.053259064, 0.046455827, -1174712.9, 52574.086, 0.0, 10.00067, 9.999275 
9.2503446e+2, 1.8476635e+2, -1106790.0, -1215689.6, 29334.959, 0.008460514, 0.035288524, -1099390.6, 29906.297, 0.0, 10.000542, 9.999113 
9.2502236e+2, 1.9476576e+2, -1050221.3, -1136360.1, 67867.555, -0.16645588, 0.049238417, -1012910.5, 18391.707, 0.0, 10.000254, 9.999122 
9.250111e+2, 2.0476535e+2, -948699.75, -1000738.0, 43593.043, -0.19188021, 0.08244789, -923951.3, 9354.918, 0.0, 10.000114, 9.999455 
9.2500097e+2, 2.1476492e+2, -842982.8, -895470.0, 11313.861, -0.0464743, 0.07768264, -840647.94, -5337.252, 0.0, 10.000153, 9.999488 
9.2498994e+2, 2.2476445e+2, -784560.06, -855601.0, 28008.525, -0.010489118, 0.102023184, -774845.8, -37531.39, 0.0, 10.000056, 9.999129 
9.249779e+2, 2.347638e+2, -719372.2, -773921.06, 39652.117, -0.09305347, 0.10743954, -698519.9, -59201.266, 0.0, 9.99983, 9.999127 
9.249664e+2, 2.447621e+2, -662349.7, -831376.5, 53476.69, -0.11341348, 0.08724225, -646851.7, -105516.38, 0.0, 10.0001335, 9.997915 
9.249555e+2, 2.5475907e+2, -427138.56, -668093.5, 59282.99, -0.061943747, -0.019700011, -413342.8, 30024.84, 0.0, 10.0010805, 9.997907 
9.2494464e+2, 2.6475784e+2, -269254.75, -397050.5, 65500.848, -0.03489239, 0.007738064, -241646.89, 103732.94, 0.00000007319143, 10.000873, 9.999197 
9.2493385e+2, 2.7475837e+2, -384817.4, -395348.8, -63.65424, -0.02754342, 0.11997853, -384817.03, -137444.92, 0.0000027897247, 9.999373, 9.999255 
9.249229e+2, 2.8475717e+2, -362314.4, -476389.97, -280.57428, -0.040241934, 0.1403976, -362313.72, -212929.83, 0.000020180585, 9.999474, 9.997978 
9.2491186e+2, 2.9475415e+2, 8481.7295, -246983.69, 40431.27, -0.06359396, 0.028248422, 14727.872, 66144.71, 0.00008284934, 10.001341, 9.997982 
9.2490274e+2, 3.0475345e+2, 92531.36, 56837.31, 116303.32, 0.0014115561, 0.05794142, 192349.02, 192349.02, 0.00022869528, 10.000556, 10.000111 
9.2489237e+2, 3.1475294e+2, -404764.56, -89711.61, 47037.055, -0.1298655, -0.02780833, -82838.95, -82838.95, 0.0004606453, 9.996711, 10.000953 
9.3510264e+2, 1.2478057e+2, -1443987.9, -1710136.0, -59636.098, -0.20717314, -0.03816687, -1431236.1, 285916.72, 0.000009857008, 10.00236, 9.998886 
9.3509245e+2, 1.3478068e+2, -1496372.3, -1663528.8, -63218.55, 0.12137859, 0.047174897, -1475155.9, 144001.39, 0.0000009955157, 10.0012665, 9.999065 
9.3508065e+2, 1.4478076e+2, -1399995.3, -1424365.0, 35965.64, 0.16554226, 0.094664, -1374206.5, 146949.58, 0.00000000002439963, 10.000628, 10.000339 
9.3506926e+2, 1.5478082e+2, -1291981.4, -1314442.3, 75061.94, 0.08884423, 0.042640466, -1227314.4, 195834.5, 0.0, 10.000672, 10.000396 
9.350582e+2, 1.6478026e+2, -1346270.5, -1535226.1, 32018.012, 0.07549587, 0.057939287, -1340992.6, -15837.215, 0.0, 10.000686, 9.998199 
9.350475e+2, 1.7477898e+2, -1250533.3, -1441509.3, -1826.2207, 0.13370651, 0.09981434, -1250515.8, -23338.525, 0.0, 10.000688, 9.99817 
9.350357e+2, 1.8477838e+2, -1031320.75, -1053617.9, 13799.401, 0.058532942, 0.12500364, -1024729.1, 104455.35, 0.0, 10.000519, 10.00024 
9.350228e+2, 1.9477826e+2, -975303.25, -969838.94, 64075.01, -0.16428907, 0.06833429, -908437.9, 122740.53, 0.0, 10.000206, 10.00029 
9.350117e+2, 2.0477764e+2, -995212.44, -1087995.3, 35818.848, -0.1654297, 0.051503822, -982993.7, -49811.105, 0.0, 10.0000725, 9.9988785 
9.3500245e+2, 2.1477641e+2, -899364.2, -995530.8, 19465.387, 0.07297584, 0.028174194, -895573.56, -60374.42, 0.0, 10.000074, 9.998843 
9.3499166e+2, 2.2477564e+2, -766759.6, -795568.0, 13915.038, 0.14205542, 0.032951582, -761136.1, -23929.238, 0.0, 9.99996, 9.999586 
9.349791e+2, 2.3477514e+2, -702444.56, -715386.0, 38955.22, 0.031296615, 0.008542871, -669426.3, -30219.021, 0.0, 9.999729, 9.999579 
9.349667e+2, 2.4477439e+2, -646781.06, -782755.8, 81808.51, -0.11266351, 0.04106993, -608396.9, -67183.48, 0.0, 10.000064, 9.998281 
9.349546e+2, 2.547732e+2, -410744.9, -623284.1, 102279.305, -0.27307212, 0.08086636, -369521.16, 73705.89, 0.0, 10.001029, 9.998242 
9.349434e+2, 2.647713e+2, -380342.94, -619088.0, 6663.6187, -0.26194963, 0.09738638, -380157.1, -34909.926, 0.00000003612581, 10.000835, 9.997689 
9.3493307e+2, 2.7476835e+2, -507952.53, -632106.0, -47571.52, -0.060886018, 0.020991921, -491820.75, -244543.53, 0.0000027030533, 9.999294, 9.997667 
9.349224e+2, 2.8476682e+2, -286777.1, -306694.38, 64187.62, -0.049579784, 0.02940438, -231780.19, -82487.1, 0.000022488803, 9.999419, 9.9991665 
9.3491167e+2, 2.9476687e+2, 92456.336, -71620.06, 123707.34, -0.23171033, 0.099846885, 158855.9, 210148.44, 0.000095232324, 10.001336, 9.999188 
9.3490154e+2, 3.047667e+2, 2012.698, -130182.39, -26349.86, -0.18840015, 0.18428366, 7071.323, 7071.323, 0.0002574787, 10.00055, 9.99883 
9.3488866e+2, 3.147646e+2, -479437.16, -216069.31, -66843.14, -0.20892191, 0.06868049, -200075.67, -200075.67, 0.0005076133, 9.996589, 10.000143 
9.4510454e+2, 1.2479258e+2, -1677901.4, -1811517.4, -33354.227, -0.16343084, -0.058332074, -1670038.0, 46996.992, 0.000016753027, 10.000697, 9.999 
9.4509387e+2, 1.3479294e+2, -1426374.6, -1621112.4, -30870.656, 0.11892147, 0.04639988, -1421598.0, 197436.89, 0.000002343361, 10.001708, 9.999148 
9.45082e+2, 1.4479284e+2, -1199880.3, -1356576.6, 71879.06, 0.1711192, 0.08417346, -1171903.3, 349131.53, 0.0000000053592455, 10.002132, 10.000072 
9.450708e+2, 1.5479203e+2, -1098306.1, -1255649.1, 28490.75, 0.10760697, -0.02937533, -1093306.0, 329730.97, 0.0, 10.002146, 10.00009 
9.4505966e+2, 1.6479145e+2, -1156373.6, -1443579.6, 47.58767, 0.093740374, -0.00046737576, -1156373.6, 168671.28, 0.0, 10.001988, 9.998201 
9.4504863e+2, 1.7479108e+2, -1111727.6, -1372224.8, 32884.063, 0.1420475, 0.13111618, -1107640.6, 119418.72, 0.0, 10.001633, 9.998187 
9.4503677e+2, 1.8479075e+2, -936857.2, -1015629.75, 51854.523, 0.08147482, 0.18421015, -911126.9, 217937.92, 0.0, 10.001204, 10.000165 
9.450238e+2, 1.9479018e+2, -902971.1, -945015.2, -1513.7566, -0.10174568, 0.093341395, -902916.75, 128146.14, 0.0, 10.000744, 10.000201 
9.450123e+2, 2.0478949e+2, -946366.44, -1068406.6, -31719.705, -0.11993774, 0.07346121, -938614.5, -5545.9873, 0.0, 10.000435, 9.998832 
9.450023e+2, 2.1478856e+2, -873229.5, -983216.0, -20846.0, 0.048391126, 0.082706094, -869411.1, -34327.918, 0.0, 10.000268, 9.998823 
9.4499135e+2, 2.2478779e+2, -689705.56, -745808.8, 7200.659, 0.0979226, 0.08207914, -688796.1, 48295.055, 0.0, 10.000432, 9.999703 
9.449793e+2, 2.3478699e+2, -510924.78, -604436.2, -7016.2583, 0.023993863, 0.014583587, -510401.28, 128692.414, 0.0, 10.000967, 9.999741 
9.449674e+2, 2.4478647e+2, -490546.16, -651864.5, 42520.24, -0.079153426, 0.038610406, -480024.9, 61070.977, 0.0, 10.000891, 9.998785 
9.449558e+2, 2.547861e+2, -503593.8, -604555.8, 65363.945, -0.20009397, 0.11070866, -471486.8, -28388.12, 0.0, 10.00012, 9.998804 
9.449444e+2, 2.6478422e+2, -483423.06, -699315.75, 21924.996, -0.20800477, 0.110273965, -481218.97, -136101.0, 0.000000027783642, 10.000258, 9.997416 
9.4493306e+2, 2.747803e+2, -221372.2, -523931.1, 49906.242, -0.084405325, -0.03345491, -213352.88, 33805.25, 0.000002329391, 10.001393, 9.997399 
9.449221e+2, 2.847786e+2, -96979.73, -236806.34, 171987.4, -0.08778765, -0.020131674, 18761.316, 167938.08, 0.000023981273, 10.00081, 9.998985 
9.449116e+2, 2.947793e+2, -368925.47, -311412.44, 109714.555, -0.2149672, 0.1317722, -226748.4, -175577.27, 0.000106754764, 9.998246, 9.999031 
9.44901e+2, 3.0477887e+2, -378249.56, -315268.66, -53741.73, -0.16136427, 0.20146447, -284470.9, -284470.9, 0.00028782972, 9.997963, 9.998809 
9.448871e+2, 3.1477657e+2, 58010.094, 71443.19, -7526.2476, -0.1884153, 0.07487229, 74814.08, 74814.08, 0.00056174357, 10.000157, 10.000412 
9.5510745e+2, 1.24806136e+2, -1637200.9, -1735058.5, -11077.083, 0.017740976, 0.058903012, -1635962.6, 80942.91, 0.00002677623, 10.000746, 9.999492 
9.5509577e+2, 1.3480595e+2, -1396084.8, -1550100.8, 9977.339, 0.120437615, 0.056781545, -1395441.1, 223462.14, 0.0000047533053, 10.001684, 9.999638 
9.550834e+2, 1.4480494e+2, -1281927.6, -1524352.9, 64179.465, 0.07017268, 0.034625746, -1265985.3, 254925.6, 0.000000046136613, 10.002115, 9.998932 
9.550719e+2, 1.5480278e+2, -1173500.5, -1421600.0, 36030.363, -0.016546726, -0.095786065, -1168373.9, 254557.77, 0.0, 10.002187, 9.998933 
9.550605e+2, 1.6480237e+2, -1079460.0, -1288912.5, -20226.336, -0.036326792, -0.043005534, -1077524.6, 247413.98, 0.0, 10.002008, 9.999254 
9.550492e+2, 1.7480366e+2, -1036653.8, -1214938.6, 26271.523, 0.01972723, 0.14499177, -1032863.1, 194069.34, 0.0, 10.001625, 9.999271 
9.550375e+2, 1.848035e+2, -1024200.25, -1195848.5, 27839.908, 0.016064394, 0.22036372, -1019797.75, 109139.63, 0.0, 10.001196, 9.998933 
9.550252e+2, 1.9480157e+2, -997737.8, -1133241.0, -12013.997, -0.051170114, 0.1221843, -996680.8, 34274.84, 0.0, 10.000709, 9.998925 
9.5501286e+2, 2.0480089e+2, -919468.3, -1001395.7, -46065.77, -0.11584347, 0.14337908, -898787.25, 34176.75, 0.0, 10.000384, 9.999319 
9.550004e+2, 2.1480133e+2, -852383.56, -917940.5, -19806.648, -0.17991374, 0.23988517, -846864.06, -11900.823, 0.0, 10.000171, 9.999322 
9.549889e+2, 2.2480085e+2, -714024.6, -775590.3, 20187.87, -0.20334251, 0.25348613, -707995.4, 28972.057, 0.0, 10.000344, 9.999539 
9.549784e+2, 2.3479919e+2, -537804.56, -643263.56, 20411.896, -0.17814082, 0.11805163, -533991.7, 104987.37, 0.0, 10.000888, 9.999518 
9.5496845e+2, 2.4479824e+2, -448541.97, -546470.56, 8261.19, -0.080582134, 0.073984206, -447849.94, 93133.67, 0.0, 10.000821, 9.9995365 
9.549591e+2, 2.547979e+2, -462902.84, -504211.3, 42620.91, 0.10255726, 0.071746685, -436195.28, 6787.0615, 0.0, 10.00005, 9.999528 
9.5494765e+2, 2.6479664e+2, -426143.06, -561393.94, 58665.926, 0.07958722, 0.048339557, -404242.56, -59250.332, 0.000000030362223, 10.000185, 9.998395 
9.5493376e+2, 2.747941e+2, -162533.94, -387316.66, 103563.76, -0.17108361, -0.054558937, -122094.44, 124921.6, 0.000002140531, 10.001335, 9.998364 
9.549216e+2, 2.8479236e+2, -213179.4, -463698.8, 71570.93, -0.22769529, -0.016377123, -194174.11, -45138.055, 0.000025889522, 10.000751, 9.997453 
9.549115e+2, 2.9479143e+2, -495743.7, -552958.06, 18808.05, -0.06716245, 0.12876688, -490114.72, -439062.53, 0.000117742304, 9.998151, 9.997417 
9.5490104e+2, 3.0479005e+2, -300326.44, -132658.61, 27213.78, 0.03765872, 0.12109746, -128352.21, -128352.21, 0.00031737162, 9.997876, 10.000106 
9.548875e+2, 3.1478903e+2, 154717.48, 281426.63, 110621.2, -0.19850093, -0.016439894, 345550.9, 345550.9, 0.0006187058, 10.000121, 10.001873 
9.651099e+2, 1.2481892e+2, -1486057.0, -1664822.9, 13990.466, 0.1396676, 0.13874134, -1484968.8, 231813.14, 0.000040530904, 10.001785, 9.9994755 
9.6509784e+2, 1.3481739e+2, -1222287.9, -1464125.9, -28748.324, 0.10924729, -0.00006129531, -1218917.4, 399872.34, 0.000008656152, 10.002863, 9.999663 
9.650854e+2, 1.4481607e+2, -1252377.8, -1541203.0, -6361.9316, 0.049201857, -0.04145681, -1252237.8, 268562.5, 0.00000019058375, 10.002462, 9.998646 
9.650735e+2, 1.5481456e+2, -1409099.9, -1565825.9, 10314.059, 0.0058152364, -0.074999474, -1408424.0, 14393.521, 0.0, 10.000718, 9.998646 
9.650618e+2, 1.648143e+2, -1309551.3, -1351964.6, 16954.54, -0.015268389, -0.012955304, -1303606.9, 21215.79, 0.0, 10.000227, 9.999677 
9.650502e+2, 1.7481522e+2, -1080195.1, -1189504.5, 2815.934, -0.013501643, 0.091589674, -1080122.6, 146694.11, 0.0, 10.0011215, 9.999689 
9.650384e+2, 1.8481494e+2, -1013780.2, -1212033.4, 4696.448, -0.016594015, 0.144614, -1013669.0, 115152.73, 0.0, 10.001354, 9.998752 
9.650263e+2, 1.9481324e+2, -985251.8, -1150191.1, 31679.883, -0.021147639, 0.0865439, -979376.4, 51464.043, 0.0, 10.000886, 9.99873 
9.6501374e+2, 2.0481266e+2, -872540.7, -976575.5, 53287.582, -0.08626673, 0.13081385, -850090.75, 82757.6, 0.0, 10.000711, 9.999324 
9.6500057e+2, 2.148132e+2, -741966.9, -862266.1, 25335.752, -0.21771517, 0.23483637, -736848.75, 97997.34, 0.0, 10.000926, 9.999333 
9.649887e+2, 2.2481275e+2, -696910.4, -784585.6, 52643.418, -0.25666797, 0.25661066, -672242.06, 64608.27, 0.0, 10.000534, 9.999392 
9.6497846e+2, 2.3481107e+2, -749273.25, -755112.94, 45350.688, -0.18413311, 0.13406828, -706748.5, -67885.55, 0.0, 9.999486, 9.999422 
9.649688e+2, 2.4480996e+2, -659611.06, -626389.3, 36275.26, -0.044130288, 0.0675807, -603102.6, -62233.703, 0.0, 9.999276, 9.999735 
9.649599e+2, 2.5480932e+2, -459178.0, -477098.25, 15015.721, 0.1844369, 0.016889153, -450652.25, -7783.455, 0.0, 9.999977, 9.999746 
9.6494853e+2, 2.6480833e+2, -430575.6, -537379.4, 8246.077, 0.16312669, 0.00007178605, -429942.7, -85066.95, 0.000000012060779, 10.000029, 9.998639 
9.6493447e+2, 2.7480674e+2, -438074.0, -492572.75, -15148.578, -0.13119724, -0.037084065, -434146.34, -187254.14, 0.0000023356135, 9.999315, 9.998615 
9.649219e+2, 2.848053e+2, -366958.84, -482547.03, -23355.852, -0.2126974, -0.0057086805, -362417.9, -213510.14, 0.000028869204, 9.999456, 9.997943 
9.6491086e+2, 2.9480398e+2, -120201.63, -318610.72, 63169.957, -0.05087315, 0.054625314, -101796.72, -50873.73, 0.00012890252, 10.000504, 9.997893 
9.649003e+2, 3.0480212e+2, 19635.068, -43576.453, 138988.0, 0.06194676, 0.0023745308, 130565.58, 130565.58, 0.00034520676, 10.000345, 9.999527 
9.6488786e+2, 3.1480154e+2, -103622.336, 76226.74, 53496.027, -0.097801805, -0.030260697, 90936.08, 90936.08, 0.0006746552, 9.998702, 10.001135 
9.7511125e+2, 1.2483074e+2, -1506744.8, -1715690.5, 34973.734, 0.064860255, 0.1664907, -1501046.1, 215619.75, 0.000058506626, 10.001821, 9.999106 
9.7509986e+2, 1.3482736e+2, -1242641.0, -1509684.5, 13894.527, 0.01240262, -0.122096494, -1241920.0, 376773.03, 0.00001444443, 10.002879, 9.999338 
9.750878e+2, 1.4482637e+2, -1214751.4, -1469948.1, -77935.14, 0.03004247, -0.14008354, -1192833.1, 327868.2, 0.0000005546723, 10.002488, 9.999127 
9.7507554e+2, 1.5482739e+2, -1372562.3, -1495958.4, -47867.074, 0.11849584, 0.03178323, -1356171.3, 66523.21, 0.0, 10.000741, 9.999117 
9.750634e+2, 1.6482724e+2, -1320138.1, -1376834.8, 39384.176, 0.099286646, 0.08959937, -1299960.8, 24736.664, 0.0, 10.000237, 9.999502 
9.7505146e+2, 1.7482573e+2, -1091060.4, -1214847.9, 40453.727, -0.018643158, -0.02750883, -1079012.6, 147699.16, 0.0, 10.001133, 9.999511 
9.7503924e+2, 1.8482511e+2, -953364.6, -1084808.0, -17577.283, -0.077721275, -0.04477487, -951054.7, 177663.03, 0.0, 10.001346, 9.99963 
9.750268e+2, 1.948252e+2, -929991.56, -1024764.0, 21167.906, -0.0724328, -0.012267761, -925478.5, 105238.12, 0.0, 10.00084, 9.999612 
9.750145e+2, 2.0482494e+2, -914602.6, -1055882.0, 53066.004, -0.08934701, 0.043042347, -896890.94, 35829.99, 0.0, 10.0006695, 9.998803 
9.7500247e+2, 2.148241e+2, -791588.25, -949662.9, 39039.23, -0.1308078, 0.06605521, -782472.5, 52260.113, 0.0, 10.000853, 9.998774 
9.7499067e+2, 2.2482336e+2, -710670.25, -794553.06, 6045.778, -0.12665802, 0.08907473, -710236.7, 26503.822, 0.0, 10.000455, 9.999357 
9.749792e+2, 2.3482256e+2, -769807.56, -771784.9, 11750.017, -0.06635266, 0.05790624, -759004.7, -120258.74, 0.0, 9.999374, 9.999361 
9.749683e+2, 2.4482158e+2, -694176.75, -682643.7, 54596.895, -0.032710098, 0.025947077, -633509.6, -92757.94, 0.0, 9.999206, 9.999384 
9.749579e+2, 2.5482023e+2, -491197.06, -534409.0, 48891.723, -0.0286681, -0.06375359, -459350.1, -16590.625, 0.0, 9.99993, 9.999378 
9.749468e+2, 2.648191e+2, -472562.84, -608050.44, -24519.469, -0.02544147, -0.05103254, -468262.03, -123491.305, 0.0000000034767167, 9.999964, 9.998181 
9.7493494e+2, 2.748181e+2, -482421.0, -565152.7, -34924.133, -0.025739934, 0.018507931, -469649.72, -222862.45, 0.0000028342504, 9.999235, 9.998154 
9.749226e+2, 2.848174e+2, -196720.98, -114705.06, 10519.539, -0.09714336, 0.018710297, -113377.3, 35414.46, 0.000032313746, 9.999398, 10.000498 
9.7490954e+2, 2.9481685e+2, 57200.484, 59654.36, 115576.01, -0.25258866, -0.103842594, 174009.94, 224794.33, 0.00013997531, 10.000466, 10.000508 
9.748985e+2, 3.0481482e+2, -175707.36, -435783.38, 74296.22, -0.16772205, -0.17105015, -155979.52, -155979.52, 0.00037147623, 10.000287, 9.996862 
9.7488755e+2, 3.1481406e+2, -336569.22, -376832.7, 14849.016, -0.025108462, 0.048362114, -331685.38, -331685.38, 0.00072747667, 9.998574, 9.998079 
9.851143e+2, 1.2484201e+2, -1387746.8, -1674692.1, 97307.03, 0.14310783, 0.07701014, -1357861.3, 358692.63, 0.00008108169, 10.002708, 9.998962 
9.851015e+2, 1.3484015e+2, -1453253.9, -1629567.5, 61770.1, -0.03872166, -0.043519657, -1433767.0, 184802.72, 0.000022462764, 10.001506, 9.999182 
9.850895e+2, 1.4483958e+2, -1356730.6, -1531099.8, -25551.715, -0.002342731, -0.013816082, -1353063.5, 167512.06, 0.0000013019285, 10.001475, 9.999193 
9.8507786e+2, 1.5483999e+2, -1054183.8, -1332952.1, -40770.438, 0.17291607, 0.0866983, -1048343.3, 374230.94, 0.0, 10.002884, 9.999198 
9.850655e+2, 1.6483949e+2, -946779.4, -1205837.1, 47219.984, 0.16425931, 0.10942567, -938440.7, 386139.28, 0.0, 10.002844, 9.999417 
9.850525e+2, 1.7483789e+2, -1077088.0, -1215535.3, 41269.215, -0.023486858, -0.008242131, -1065719.6, 160874.7, 0.0, 10.001269, 9.999435 
9.850399e+2, 1.8483742e+2, -1075352.3, -1116589.5, -25147.871, -0.09143876, -0.01831735, -1063451.0, 65146.848, 0.0, 10.000393, 9.999869 
9.850276e+2, 1.9483796e+2, -1000820.4, -1030350.44, -48320.09, -0.042183302, 0.03275613, -965059.8, 65531.86, 0.0, 10.000233, 9.9998665 
9.8501545e+2, 2.0483746e+2, -990872.3, -1096762.3, 8267.478, -0.034446355, 0.054509934, -990230.7, -57633.99, 0.0, 10.000154, 9.998779 
9.8500353e+2, 2.1483569e+2, -899688.44, -1002816.0, 22064.531, -0.06701469, -0.014812008, -895166.0, -60550.33, 0.0, 10.0001135, 9.998767 
9.8499185e+2, 2.248347e+2, -722636.56, -821936.4, 9043.754, -0.055071186, -0.006975446, -721819.6, 14806.073, 0.0, 10.000459, 9.99917 
9.849803e+2, 2.3483445e+2, -517066.1, -669852.5, -9314.266, 0.015994377, 0.03466174, -516500.34, 122126.89, 0.0, 10.00119, 9.9991865 
9.849688e+2, 2.4483362e+2, -440861.63, -583686.94, 49935.195, 0.0077818097, 0.037460264, -425134.78, 115498.07, 0.0, 10.001055, 9.999168 
9.849573e+2, 2.54832e+2, -487738.75, -556910.2, 39574.934, -0.084893495, -0.05810444, -469766.44, -27121.563, 0.0, 10.000062, 9.999159 
9.8494583e+2, 2.648308e+2, -486062.25, -579578.3, 8372.962, -0.097874485, -0.05600287, -485318.5, -140661.55, 0.00000001775074, 9.999713, 9.998507 
9.849346e+2, 2.7483e+2, -349960.8, -465644.9, 43140.664, -0.013136595, 0.0024466128, -335644.56, -88974.32, 0.000003544514, 9.999982, 9.998487 
9.849227e+2, 2.8482962e+2, -103204.195, -45575.25, 66564.95, -0.047961466, 0.008772058, -1855.8245, 146814.81, 0.00003520851, 9.999934, 10.000718 
9.849099e+2, 2.948295e+2, -56642.26, 26656.443, -24047.227, -0.21469364, -0.09553885, 33100.1, 83759.09, 0.00014919741, 9.999581, 10.000711 
9.848985e+2, 3.0482727e+2, -215448.88, -474295.5, -65381.008, -0.17839098, -0.18517505, -199871.95, -199871.95, 0.00039500848, 10.000095, 9.996688 
9.848872e+2, 3.148261e+2, 43463.836, -246286.5, 48348.887, -0.057970967, 0.013728952, 51318.59, 51318.59, 0.00077431643, 10.001386, 9.997634 
9.951182e+2, 1.24852896e+2, -1381408.1, -1671943.1, 34218.973, 0.23068114, -0.11563077, -1377432.3, 339012.1, 0.000108580556, 10.002755, 9.99896 
9.951026e+2, 1.3485572e+2, -1447257.5, -1625963.8, 19213.58, -0.092419624, 0.2295168, -1445215.1, 173205.08, 0.000033028722, 10.001545, 9.999187 
9.950901e+2, 1.4485566e+2, -1375821.3, -1575413.3, 15338.433, -0.10459268, 0.3279717, -1374649.5, 145773.8, 0.0000026281716, 10.001492, 9.998883 
9.950802e+2, 1.5485242e+2, -1070879.9, -1372095.9, 19288.107, 0.102502495, 0.09125222, -1069649.8, 352806.8, 0.00000000019976186, 10.002899, 9.998924 
9.95068e+2, 1.6485111e+2, -949265.0, -1206889.1, -17073.99, 0.11190493, 0.047726434, -948138.4, 376331.56, 0.0, 10.00283, 9.999415 
9.950534e+2, 1.7485166e+2, -1075956.1, -1216316.8, -11729.174, -0.0796621, 0.14465696, -1074982.8, 151481.7, 0.0, 10.00128, 9.999426 
9.9504024e+2, 1.848518e+2, -1104426.3, -1174993.3, -39916.13, -0.11776324, 0.21734796, -1086434.9, 42027.945, 0.0, 10.000385, 9.999473 
9.9502844e+2, 1.9485143e+2, -1031266.2, -1087802.0, -49227.22, 0.0074911118, 0.21629652, -1002767.94, 27698.164, 0.0, 10.000207, 9.999484 
9.950162e+2, 2.0485026e+2, -963807.3, -1025041.2, -2251.0251, 0.019860152, 0.16288409, -963724.7, -31248.6, 0.0, 10.00009, 9.999302 
9.950036e+2, 2.1484803e+2, -877341.25, -931681.25, 26579.598, -0.08518717, -0.003388038, -866502.25, -32007.285, 0.0, 10.00001, 9.999306 
9.9499196e+2, 2.248469e+2, -760940.6, -873656.44, 30011.027, -0.0950895, -0.022219436, -753448.1, -16943.22, 0.0, 10.000343, 9.998867 
9.9498147e+2, 2.3484676e+2, -553048.25, -721536.2, 24378.885, -0.0035790578, 0.062787406, -549591.75, 88914.94, 0.0, 10.001097, 9.998874 
9.949701e+2, 2.4484609e+2, -455800.8, -602575.25, 5184.625, 0.014587067, 0.09989988, -455617.9, 84894.84, 0.0, 10.000998, 9.999068 
9.9495786e+2, 2.5484464e+2, -504506.6, -575431.2, 8867.916, -0.04458976, 0.03397865, -503414.63, -60889.69, 0.0, 9.999987, 9.99907 
9.9494565e+2, 2.648435e+2, -420364.3, -425013.94, 12967.109, -0.10777443, -0.009967004, -409515.25, -64981.543, 0.000000028595345, 9.999639, 9.999602 
9.949331e+2, 2.748425e+2, -284196.56, -309000.34, 62891.227, -0.1814792, -0.084711924, -232496.08, 14044.524, 0.000003781716, 9.999901, 9.999599 
9.9492186e+2, 2.84842e+2, -264281.63, -369008.88, 46729.43, -0.14215277, -0.036713574, -246462.72, -97917.91, 0.000036350866, 9.99988, 9.998526 
9.949119e+2, 2.9484195e+2, -217001.94, -295121.47, -29858.549, 0.011907979, 0.08924465, -206896.7, -156349.77, 0.00015454051, 9.999535, 9.998521 
9.949004e+2, 3.0483955e+2, -55720.746, -134148.92, -19809.783, -0.011843323, -0.02754498, -51001.11, -51001.11, 0.00041140616, 10.00006, 9.999041 
9.948859e+2, 3.148377e+2, 177231.3, 72419.516, 117800.69, -0.3523323, -0.13645187, 253757.1, 253757.1, 0.00080724823, 10.001226, 9.999894 
1.0051204e+3, 1.2486556e+2, -1333543.4, -1667015.5, 62370.484, 0.16269201, -0.16782986, -1322259.8, 394056.8, 0.00014134821, 10.003175, 9.998783 
1.0051056e+3, 1.3486837e+2, -1166642.0, -1508571.0, 11653.629, -0.04467147, 0.19226505, -1166245.4, 452049.63, 0.000046426092, 10.003561, 9.999014 
1.005093e+3, 1.448684e+2, -1181113.8, -1471106.5, 41796.703, -0.024163667, 0.30564636, -1175209.9, 345088.4, 0.00000474816, 10.002806, 9.998957 
1.0050814e+3, 1.5486552e+2, -1353076.1, -1502834.6, 50233.984, 0.029141624, 0.10207896, -1337786.9, 84541.13, 0.000000004412824, 10.000949, 9.998966 
1.00506864e+3, 1.6486435e+2, -1310130.3, -1377924.3, 34246.063, 0.024189144, 0.06784595, -1295842.3, 28498.088, 0.0, 10.000329, 9.999456 
1.00505486e+3, 1.7486483e+2, -1111839.1, -1226726.8, 30088.623, -0.041990425, 0.15368983, -1104436.0, 121899.33, 0.0, 10.001005, 9.999491 
1.0050417e+3, 1.8486466e+2, -980390.75, -1140537.3, 38288.5, -0.05084741, 0.20277396, -971707.44, 156628.81, 0.0, 10.0013485, 9.999244 
1.00502916e+3, 1.9486365e+2, -886612.4, -1045055.0, 27803.582, 0.0051378733, 0.16345604, -881875.0, 148469.58, 0.0, 10.001321, 9.999239 
1.00501694e+3, 2.048624e+2, -794500.0, -961801.0, 70794.05, 0.023629913, 0.12264138, -768564.0, 163791.28, 0.0, 10.0013275, 9.999135 
1.0050051e+3, 2.1486071e+2, -698262.8, -864466.25, 31270.775, 0.00010333036, 0.02471388, -692574.0, 141796.02, 0.0, 10.001317, 9.999136 
1.0049933e+3, 2.248596e+2, -672675.44, -843364.56, 34042.336, -0.017891407, 0.021880351, -666136.5, 70243.53, 0.0, 10.001005, 9.99876 
1.00498185e+3, 2.3485889e+2, -667653.0, -791050.3, 28993.594, -0.026192049, 0.061054908, -661180.1, -22792.969, 0.0, 10.000367, 9.998753 
1.0049703e+3, 2.4485794e+2, -568638.4, -677977.6, 15198.84, -0.024567576, 0.08919085, -566564.94, -26168.29, 0.0, 10.000306, 9.998886 
1.0049586e+3, 2.5485665e+2, -394101.88, -541302.6, -2164.9395, -0.008057994, 0.057140455, -394070.06, 48339.73, 0.0, 10.00083, 9.998898 
1.004946e+3, 2.648558e+2, -222925.22, -266351.0, -9389.226, -0.07495704, 0.021412702, -220982.1, 123433.164, 0.000000017098808, 10.000736, 10.0001545 
1.00493245e+3, 2.7485514e+2, -234364.5, -222978.64, -17360.875, -0.2346005, -0.074582286, -210401.13, 36013.813, 0.000003428396, 9.999983, 10.000146 
1.00492135e+3, 2.8485453e+2, -309196.1, -483425.34, 29619.283, -0.18146503, -0.026487343, -304298.44, -155877.31, 0.00003625069, 9.999966, 9.997698 
1.0049129e+3, 2.948538e+2, -112123.07, -343248.63, 43022.01, 0.10666443, 0.12113192, -104374.66, -53939.348, 0.00015742959, 10.000662, 9.997655 
1.0049016e+3, 3.0485162e+2, 61959.883, 49389.063, 58400.605, 0.095603354, 0.013792023, 114412.336, 114412.336, 0.00042159262, 10.000325, 10.00017 
1.0048863e+3, 3.1485015e+2, -105754.1, 33701.848, 65608.22, -0.31074572, -0.17367968, 59715.34, 59715.34, 0.0008274677, 9.998847, 10.000777 
1.01512045e+3, 1.24879986e+2, -1352784.5, -1716451.4, 53310.375, -0.188079, -0.09143266, -1345130.8, 371039.78, 0.0001798155, 10.003204, 9.998433 
1.01511e+3, 1.3487826e+2, -1186265.4, -1556337.3, 31393.553, 0.02948509, -0.15227316, -1183621.1, 434571.3, 0.000062927356, 10.00358, 9.998678 
1.0150979e+3, 1.44878e+2, -1158984.0, -1426822.1, -35263.918, 0.15919414, -0.06961789, -1154418.9, 365780.03, 0.000007860604, 10.002808, 9.999263 
1.0150811e+3, 1.5487938e+2, -1331369.0, -1461069.3, -13464.805, -0.10621228, 0.12352243, -1329985.9, 92202.68, 0.000000028517778, 10.000961, 9.999248 
1.0150673e+3, 1.6487925e+2, -1297329.9, -1358359.6, 49652.715, -0.15795235, 0.17464036, -1269564.8, 54625.83, 0.0, 10.000356, 9.999578 
1.0150568e+3, 1.7487743e+2, -1096483.6, -1205509.8, 61391.2, 0.03106817, 0.017181296, -1068895.9, 157311.02, 0.0, 10.001044, 9.9996195 
1.01504415e+3, 1.8487598e+2, -986741.8, -1151752.5, 29597.404, 0.049558718, -0.06481596, -981593.7, 146624.58, 0.0, 10.001338, 9.999172 
1.0150295e+3, 1.9487466e+2, -899643.94, -1060799.1, 32701.758, -0.11134001, -0.12687372, -893260.9, 136965.98, 0.0, 10.001267, 9.999159 
1.01501726e+3, 2.0487395e+2, -867969.3, -1093431.5, 64079.61, -0.090158954, -0.06815068, -851029.7, 81204.36, 0.0, 10.001243, 9.99827 
1.0150077e+3, 2.148737e+2, -768522.6, -995732.94, 36301.496, 0.1236399, 0.06580335, -762863.7, 71377.445, 0.0, 10.001256, 9.998262 
1.0149958e+3, 2.2487274e+2, -681639.56, -839324.9, 1910.3103, 0.11721589, 0.11970745, -681616.44, 54635.387, 0.0, 10.000909, 9.998833 
1.0149814e+3, 2.3487087e+2, -675346.4, -784177.9, 12076.194, -0.11933052, 0.03159277, -674022.5, -35754.35, 0.0, 10.000268, 9.998846 
1.0149693e+3, 2.4486934e+2, -606619.5, -729230.6, 27415.455, -0.17556962, 0.010733011, -600768.7, -60485.2, 0.0, 10.000194, 9.998585 
1.0149592e+3, 2.5486803e+2, -426324.97, -590272.0, 25356.066, -0.044722017, 0.006345685, -422492.94, 19806.469, 0.0, 10.000757, 9.998593 
1.0149471e+3, 2.648676e+2, -230073.38, -272010.5, -42737.508, -0.06020047, 0.03181599, -203437.56, 140864.83, 0.000000011022683, 10.0006895, 10.000143 
1.0149326e+3, 2.7486798e+2, -239741.25, -221140.23, -35501.92, -0.23167817, 0.038791068, -193740.8, 52552.03, 0.0000031084232, 9.999925, 10.000187 
1.014921e+3, 2.848673e+2, -280605.84, -409606.84, 49604.543, -0.21999653, 0.04783432, -263737.28, -115438.445, 0.000035475467, 9.999909, 9.998228 
1.0149125e+3, 2.9486525e+2, -92618.734, -271147.7, 81301.35, -0.016315417, 0.007778654, -61143.59, -10821.068, 0.00015859005, 10.000543, 9.998197 
1.0149018e+3, 3.0486357e+2, 35742.664, 7212.653, 1743.0946, 0.06259024, -0.059203826, 35848.766, 35848.766, 0.00042792628, 10.00026, 9.999917 
1.014888e+3, 3.1486362e+2, -165720.39, -53560.96, 29631.666, -0.05972419, -0.071961895, -46213.79, -46213.79, 0.0008405054, 9.9986925, 10.000248 
1.0251229e+3, 1.248949e+2, -1512905.4, -1850401.3, 82751.836, -0.21676415, -0.016458187, -1493707.1, 222316.63, 0.00022439056, 10.002349, 9.997927 
1.0251123e+3, 1.3489167e+2, -1539963.9, -1789390.8, 30061.324, 0.007449535, -0.17020728, -1536392.0, 81670.32, 0.0000828242, 10.001415, 9.998129 
1.0251001e+3, 1.4489076e+2, -1411255.5, -1522346.8, -49444.813, 0.20318969, -0.1376394, -1392436.4, 127638.61, 0.000012107546, 10.000955, 9.999502 
1.0250826e+3, 1.5489264e+2, -1281743.4, -1406848.1, -43577.574, -0.052974187, 0.077123016, -1268060.6, 153996.44, 0.00000009714164, 10.001166, 9.999518 
1.02506846e+3, 1.6489272e+2, -1161769.0, -1312302.4, 74187.72, -0.1238222, 0.14396997, -1131352.8, 192703.67, 0.0, 10.001376, 9.999398 
1.02505796e+3, 1.7489086e+2, -1021317.5, -1188547.9, 47616.41, 0.024828183, 0.0014065669, -1008709.94, 217364.39, 0.0, 10.001648, 9.999443 
1.0250458e+3, 1.848893e+2, -935839.44, -1155193.5, -9429.11, 0.051282447, -0.070550665, -935434.9, 192652.52, 0.0, 10.001805, 9.998924 
1.0250315e+3, 1.9488783e+2, -834054.6, -1053666.0, -32119.824, -0.062797084, -0.12406594, -829453.25, 200644.16, 0.0, 10.001829, 9.998934 
1.0250191e+3, 2.048867e+2, -853066.25, -1138151.4, 11413.862, -0.045259133, -0.07169555, -852610.0, 79499.13, 0.0, 10.001568, 9.997812 
1.0250088e+3, 2.1488582e+2, -841560.0, -1083342.0, 346.71597, 0.12142252, 0.046758376, -841559.5, -7435.8706, 0.0, 10.000983, 9.997796 
1.0249965e+3, 2.248847e+2, -697653.06, -834047.5, -4416.333, 0.10784567, 0.10210063, -697510.2, 38625.92, 0.0, 10.000741, 9.998949 
1.0249822e+3, 2.348832e+2, -595064.7, -731989.44, -6655.7544, -0.09615046, 0.042143665, -594741.94, 43405.99, 0.0, 10.000771, 9.998961 
1.02496974e+3, 2.448818e+2, -578942.75, -706000.3, 40120.266, -0.14698032, 0.022084009, -567334.75, -27173.04, 0.0, 10.000345, 9.99867 
1.0249592e+3, 2.5488025e+2, -626113.9, -679282.1, 49589.145, -0.04021841, -0.0115447845, -596432.56, -154253.11, 0.0, 9.999352, 9.998659 
1.0249472e+3, 2.6487982e+2, -488719.97, -450922.9, -1090.9172, -0.035814412, 0.032027587, -450891.44, -106707.38, 0.00000001218603, 9.999135, 9.999665 
1.0249334e+3, 2.7488035e+2, -308370.53, -306893.88, -44998.305, -0.13353199, 0.10012018, -262627.84, -16451.664, 0.0000027111198, 9.999675, 9.999719 
1.0249216e+3, 2.848796e+2, -252425.48, -304500.75, 49771.125, -0.13847291, 0.089811794, -222292.64, -74110.85, 0.00003356273, 9.999725, 9.999032 
1.024912e+3, 2.9487732e+2, -227405.8, -246804.27, 81227.73, -0.04860587, -0.058419492, -155300.27, -105096.5, 0.00015687123, 9.999234, 9.998995 
1.0249009e+3, 3.0487627e+2, -98418.305, -60236.746, 21795.697, -0.0015113564, -0.09664037, -50353.22, -50353.22, 0.0004299211, 9.999363, 9.999884 
1.0248877e+3, 3.148771e+2, 19630.781, 15734.901, 34784.69, -0.020137975, -0.028081514, 52522.03, 52522.03, 0.000848036, 10.000042, 10.000079 
1.03512704e+3, 1.2491034e+2, -1560293.4, -1955853.9, 12818.52, -0.07212049, 0.06189485, -1559878.5, 155997.16, 0.00027553758, 10.002385, 9.997184 
1.0351121e+3, 1.3490859e+2, -1598903.9, -1906566.1, -2183.6973, -0.16551001, 0.13310844, -1598888.4, 19016.229, 0.000106410545, 10.001407, 9.997325 
1.0350997e+3, 1.4490667e+2, -1387544.9, -1484438.1, -50980.617, 0.04425261, 0.09848646, -1365663.0, 154263.31, 0.000017580353, 10.000998, 9.999744 
1.0350857e+3, 1.5490526e+2, -1256476.0, -1361910.9, -29516.965, 0.12131757, -0.04306055, -1248775.1, 173158.9, 0.00000023822265, 10.001195, 9.999816 
1.0350719e+3, 1.6490482e+2, -1193522.5, -1379488.8, 74278.23, 0.05883495, -0.022805506, -1167496.8, 156440.17, 0.0, 10.001383, 9.998933 
1.03505835e+3, 1.7490517e+2, -1059945.1, -1265267.8, 63824.934, -0.11903283, 0.1054838, -1041722.3, 184214.63, 0.0, 10.001633, 9.998924 
1.0350461e+3, 1.8490466e+2, -970237.6, -1219846.6, -16611.408, -0.109580725, 0.18883331, -969137.0, 158805.9, 0.0, 10.001778, 9.998493 
1.0350349e+3, 1.9490312e+2, -869044.94, -1118072.3, -27314.234, 0.08864618, 0.16785313, -866084.25, 163872.27, 0.0, 10.001794, 9.998508 
1.0350222e+3, 2.0490065e+2, -866189.1, -1151349.3, -19726.28, 0.103599004, 0.109818116, -864831.0, 67149.73, 0.0, 10.001504, 9.997753 
1.03500806e+3, 2.1489702e+2, -853597.4, -1094011.6, -14515.928, -0.067509845, -0.042230126, -852724.06, -18706.22, 0.0, 10.000916, 9.997757 
1.03499524e+3, 2.2489542e+2, -706583.8, -826084.7, -11161.667, -0.10832544, -0.03838595, -705550.25, 30483.027, 0.0, 10.00063, 9.999056 
1.0349838e+3, 2.3489583e+2, -597382.6, -720342.5, 1525.9525, -0.020505225, 0.079311185, -597363.7, 40663.65, 0.0, 10.000697, 9.999077 
1.03497155e+3, 2.448952e+2, -562816.1, -648827.1, -2807.7407, -0.0036853617, 0.11214721, -562724.56, -22692.45, 0.0, 10.000246, 9.99911 
1.0349586e+3, 2.5489336e+2, -602838.06, -618059.9, 21184.291, -0.05531719, 0.0011901859, -587938.94, -145889.06, 0.0, 9.999292, 9.999111 
1.03494614e+3, 2.6489243e+2, -566364.94, -591840.1, 12635.274, -0.06176744, 0.019246455, -561161.06, -217100.9, 0.00000000560088, 9.999056, 9.998732 
1.0349343e+3, 2.7489224e+2, -393876.38, -456780.72, -14360.703, -0.016603883, 0.11219733, -390753.0, -144688.44, 0.0000022721786, 9.999567, 9.998736 
1.03492275e+3, 2.848915e+2, -190986.02, -161623.16, 26073.61, -0.013060425, 0.099233024, -146381.73, 1688.6875, 0.000031159278, 9.999656, 10.000049 
1.03491135e+3, 2.9489008e+2, -164179.6, -97597.46, 75817.14, -0.055989582, -0.0654536, -48084.34, 1993.4064, 0.00015252481, 9.99916, 10.000054 
1.0348987e+3, 3.0488986e+2, -94252.65, -45460.8, 44524.66, -0.16583034, -0.08347415, -19086.594, -19086.594, 0.00042681675, 9.999335, 9.999997 
1.0348847e+3, 3.1489077e+2, 4793.74, 29182.188, 83412.875, -0.3650867, -0.015611147, 101287.48, 101287.48, 0.0008482349, 9.999872, 10.000244 
1.0451305e+3, 1.2492431e+2, -1568539.4, -1870902.5, -60097.004, 0.055548605, 0.061291303, -1557032.5, 158709.27, 0.0003338259, 10.001926, 9.997996 
1.0451134e+3, 1.3492419e+2, -1467792.4, -1759866.0, 36118.418, -0.19457209, 0.22148229, -1463392.3, 154359.92, 0.00013404706, 10.001923, 9.998092 
1.0451007e+3, 1.4492242e+2, -1300624.6, -1489611.0, 65543.07, 0.01126065, 0.18158159, -1280118.5, 239653.02, 0.000024406929, 10.001804, 9.999319 
1.04508765e+3, 1.5491985e+2, -1205113.3, -1384872.4, 15156.308, 0.16625477, -0.03013005, -1203844.3, 217946.94, 0.0000004785213, 10.0017605, 9.999384 
1.0450739e+3, 1.6491881e+2, -1211854.3, -1416525.8, 102943.23, 0.12801372, -0.035317346, -1169035.3, 154764.84, 0.0, 10.001381, 9.998676 
1.0450598e+3, 1.7491914e+2, -1211031.5, -1364280.6, 97014.08, -0.09297491, 0.11627262, -1164031.4, 61768.113, 0.0, 10.0007105, 9.998683 
1.04504734e+3, 1.8491852e+2, -1156105.8, -1345917.8, 64426.203, -0.09481532, 0.21530415, -1136304.0, -8496.101, 0.0, 10.000661, 9.998167 
1.04503684e+3, 1.949168e+2, -971350.06, -1205056.8, 48057.453, 0.13053301, 0.21011806, -961853.75, 67972.875, 0.0, 10.001252, 9.998177 
1.0450238e+3, 2.049145e+2, -878016.25, -1119562.5, 53384.023, 0.122309156, 0.17098494, -866743.9, 65105.82, 0.0, 10.001272, 9.998078 
1.04500815e+3, 2.1491136e+2, -865321.2, -1061465.5, 70887.086, -0.12606546, 0.037026968, -842384.56, -8505.01, 0.0, 10.000684, 9.998087 
1.0449951e+3, 2.249095e+2, -786405.5, -909336.25, 99564.805, -0.15439087, 0.01825958, -730861.7, 5035.254, 0.0, 10.000267, 9.998662 
1.04498476e+3, 2.3490888e+2, -728707.44, -831491.7, 57332.777, 0.0414378, 0.07459703, -703104.75, -65202.344, 0.0, 9.99999, 9.998659 
1.0449722e+3, 2.4490805e+2, -590449.94, -676306.6, 22615.574, 0.04583121, 0.11298462, -584857.1, -44947.184, 0.0, 10.000107, 9.998993 
1.04495764e+3, 2.5490686e+2, -417186.78, -537363.2, -9244.756, -0.1396432, 0.07852394, -416479.75, 25441.076, 0.0, 10.00061, 9.999026 
1.0449452e+3, 2.6490584e+2, -370185.3, -506438.94, 3817.3118, -0.13240078, 0.09553056, -370078.47, -26147.088, 0.0000000009945924, 10.000443, 9.998652 
1.0449347e+3, 2.7490473e+2, -413612.34, -477625.06, 27180.557, 0.07964838, 0.10161094, -403628.34, -157683.97, 0.0000020282196, 9.999468, 9.998647 
1.0449232e+3, 2.8490376e+2, -270430.84, -209782.44, 84345.87, 0.09661941, 0.082547404, -150475.28, -2523.9028, 0.00002862002, 9.999135, 9.999976 
1.04491025e+3, 2.9490307e+2, -126001.11, -84838.32, 30906.438, -0.085275665, -0.008035179, -68287.5, -18335.285, 0.00014590684, 9.999432, 10.000017 
1.0448972e+3, 3.0490327e+2, -157678.47, -77887.84, -44446.387, -0.222461, 0.014415065, -58057.805, -58057.805, 0.0004167961, 9.998919, 9.999968 
1.0448838e+3, 3.1490332e+2, -343578.16, -137531.05, -48551.848, -0.3101291, 0.0049768123, -126663.7, -126663.7, 0.0008355391, 9.9974575, 10.000269 
1.0551323e+3, 1.2493695e+2, -1400290.9, -1515725.5, -106501.19, 0.013155517, -0.011663618, -1336872.8, 378748.16, 0.00039971265, 10.001913, 10.000431 
1.0551158e+3, 1.349387e+2, -1309486.6, -1422235.3, 39657.91, -0.15202004, 0.10289222, -1296934.9, 320668.44, 0.00016604259, 10.001893, 10.000419 
1.0551029e+3, 1.4493822e+2, -1375572.0, -1651530.3, 52300.055, 0.028502373, 0.128996, -1365992.5, 153616.38, 0.000032768716, 10.001826, 9.9981985 
1.0550881e+3, 1.549365e+2, -1285594.8, -1557120.3, 18513.234, 0.02311384, 0.11889281, -1284338.4, 137289.58, 0.0000008393984, 10.001777, 9.998198 
1.0550743e+3, 1.6493474e+2, -1214388.5, -1420386.0, 70259.04, 0.017197449, 0.104342215, -1192707.4, 130937.89, 0.0, 10.001378, 9.998649 
1.05506204e+3, 1.7493281e+2, -1209076.8, -1364885.0, 76580.09, 0.038725816, 0.027767345, -1177740.0, 47921.94, 0.0, 10.000731, 9.998669 
1.05504945e+3, 1.8493092e+2, -1173865.6, -1378499.1, 77296.984, 0.032663282, 0.012299491, -1147950.0, -20267.947, 0.0, 10.000644, 9.9979515 
1.05503686e+3, 1.9492894e+2, -992627.44, -1240847.4, 76611.195, -0.004971423, 0.0035896883, -970886.25, 58820.69, 0.0, 10.001215, 9.997949 
1.05502345e+3, 2.0492831e+2, -842558.6, -1030237.56, 22909.992, -0.051174954, 0.11273204, -839802.44, 91912.72, 0.0, 10.001202, 9.998727 
1.05500914e+3, 2.1492893e+2, -829178.56, -970847.44, 54933.73, -0.106461726, 0.2852733, -810373.56, 23334.377, 0.0, 10.000613, 9.998744 
1.05499625e+3, 2.2492704e+2, -865830.1, -1053854.9, 83054.78, -0.08333404, 0.2760032, -834397.56, -98671.13, 0.0, 10.000176, 9.997715 
1.0549846e+3, 2.349224e+2, -804868.8, -973384.94, 53985.88, 0.022867532, 0.025312252, -789057.44, -151284.42, 0.0, 9.999916, 9.997721 
1.0549713e+3, 2.4492036e+2, -649431.0, -780201.5, 33984.273, -0.06775135, 0.02354567, -641126.6, -101332.055, 0.0, 10.000027, 9.998318 
1.0549562e+3, 2.5492084e+2, -473470.88, -642089.8, 16367.122, -0.3599117, 0.22131853, -471896.88, -30104.807, 0.0, 10.000554, 9.998336 
1.05494395e+3, 2.6492006e+2, -326869.97, -396817.34, -37555.152, -0.30973992, 0.25677696, -310525.56, 33272.816, 0.000000000012280949, 10.000366, 9.999438 
1.0549344e+3, 2.7491775e+2, -368437.2, -365428.47, 1385.5172, 0.089636534, 0.06882202, -364887.66, -119072.41, 0.0000016155456, 9.999393, 9.999452 
1.0549227e+3, 2.849166e+2, -360387.9, -386009.88, 90191.22, 0.12367405, 0.043514825, -282102.38, -134278.25, 0.000025303238, 9.999087, 9.998791 
1.0549087e+3, 2.9491642e+2, -223638.23, -270780.56, 54179.066, -0.21234378, 0.12623931, -188124.95, -138298.67, 0.000137169, 9.99936, 9.998777 
1.054896e+3, 3.049164e+2, -182140.2, -114048.74, -102408.54, -0.24778457, 0.20722249, -40174.957, -40174.957, 0.00040068463, 9.998853, 9.999751 
1.0548849e+3, 3.1491482e+2, -375105.75, -167575.36, -86040.0, 0.026113795, 0.05214055, -136544.05, -136544.05, 0.00081052736, 9.997311, 10.0001335 
1.06513254e+3, 1.2495005e+2, -1733103.1, -1622534.5, -57094.766, -0.026303938, -0.109445006, -1598344.5, 117146.305, 0.00047318285, 9.999393, 10.000915 
1.06511734e+3, 1.3495226e+2, -1577796.0, -1503117.4, -45861.344, -0.09130103, 0.008461545, -1481317.1, 136149.58, 0.00020250746, 9.999847, 10.000844 
1.06510475e+3, 1.4495222e+2, -1558253.9, -1747539.6, -34417.86, 0.09268435, 0.06266727, -1552190.0, -32722.223, 0.000042863663, 10.00061, 9.998126 
1.0650893e+3, 1.5495105e+2, -1286123.4, -1563953.9, -7978.604, -0.02864006, 0.11463915, -1285894.5, 135589.03, 0.0000013547858, 10.001806, 9.998134 
1.0650755e+3, 1.6494924e+2, -1136850.9, -1415823.6, 44495.45, -0.043702375, 0.11195047, -1129925.9, 193576.98, 0.0, 10.002048, 9.9983635 
1.0650635e+3, 1.7494668e+2, -1147183.1, -1366380.4, 15953.095, 0.08815615, 0.0051706117, -1146028.3, 79498.2, 0.0, 10.001294, 9.998392 
1.06505066e+3, 1.8494464e+2, -1152925.5, -1351243.5, 63236.824, 0.08144343, -0.020328179, -1134477.5, -6929.5303, 0.0, 10.000709, 9.998107 
1.0650369e+3, 1.9494294e+2, -1113815.9, -1282068.4, 76247.15, -0.08151872, -0.01737474, -1084404.3, -54834.83, 0.0, 10.000306, 9.998104 
1.0650235e+3, 2.0494251e+2, -936126.3, -1053948.1, 32199.676, -0.1321456, 0.093127675, -927900.7, 3674.636, 0.0, 10.000465, 9.998918 
1.06501035e+3, 2.149433e+2, -735617.75, -905198.1, 12726.277, -0.06476092, 0.2656686, -734668.0, 98898.55, 0.0, 10.001168, 9.998927 
1.0649977e+3, 2.2494175e+2, -706212.1, -992167.6, 52510.957, -0.013833361, 0.28754297, -696874.25, 38708.4, 0.0, 10.001341, 9.997578 
1.064985e+3, 2.3493756e+2, -664722.25, -918964.7, 72042.27, 0.022834789, 0.09804962, -645727.44, -8101.2715, 0.0, 10.000946, 9.997595 
1.0649715e+3, 2.4493526e+2, -591073.56, -768692.1, 126844.08, -0.061369337, 0.08216264, -525039.4, 14611.241, 0.0, 10.000503, 9.998168 
1.0649573e+3, 2.5493467e+2, -567435.06, -706276.56, 131659.66, -0.27237532, 0.19163139, -488015.28, -46358.047, 0.0, 9.999988, 9.998172 
1.0649448e+3, 2.6493353e+2, -381784.1, -466589.66, 65221.57, -0.24356422, 0.22054188, -346393.25, -2726.7568, 0.0, 10.000167, 9.999058 
1.06493406e+3, 2.749317e+2, -161397.5, -304348.94, -1514.0254, 0.040393844, 0.11317507, -161381.47, 84297.93, 0.00000091217555, 10.000983, 9.999104 
1.06492184e+3, 2.8493014e+2, -215101.84, -365405.4, 52394.824, 0.07708399, 0.0873296, -198640.27, -50947.313, 0.000020741376, 10.000315, 9.998334 
1.06490806e+3, 2.9492864e+2, -432185.34, -420049.16, 56418.01, -0.13743028, 0.08644851, -369373.84, -319664.7, 0.0001251533, 9.998144, 9.998331 
1.0648954e+3, 3.0492863e+2, -360530.47, -187835.81, -15281.0, -0.12920415, 0.1811112, -186494.08, -186494.08, 0.0003777452, 9.9975605, 9.999872 
1.0648838e+3, 3.149278e+2, -185284.34, -45302.25, -3279.0686, 0.13110031, 0.086580634, -45225.48, -45225.48, 0.00077367935, 9.998464, 10.000422 
1.0751305e+3, 1.249636e+2, -1819868.4, -1807811.4, -93518.266, -0.203911, -0.23306105, -1720127.5, -4775.878, 0.00055371417, 9.999432, 9.999617 
1.07511744e+3, 1.3496496e+2, -1675165.3, -1705921.6, -26597.15, -0.075386725, -0.06110132, -1659820.5, -42479.277, 0.00024334127, 9.999861, 9.999438 
1.075106e+3, 1.449646e+2, -1487038.9, -1610621.1, 149.91473, 0.13494769, -0.014672642, -1487038.6, 32307.809, 0.00005483326, 10.000648, 9.999051 
1.0750909e+3, 1.5496358e+2, -1216172.4, -1424306.4, 43340.98, -0.058063414, -0.044859685, -1207507.9, 213849.44, 0.000002073113, 10.001824, 9.999085 
1.0750769e+3, 1.649624e+2, -1175538.8, -1495228.5, 7686.0474, -0.11684569, -0.0033080855, -1175354.0, 148017.75, 0.0000000000166348, 10.002044, 9.997819 
1.07506394e+3, 1.7496087e+2, -1182372.0, -1446231.5, -6158.9585, 0.00024011268, 0.043425698, -1182228.3, 43163.75, 0.0, 10.001317, 9.997833 
1.0750505e+3, 1.849597e+2, -1120211.8, -1277226.0, 39964.707, -0.008466858, 0.10965551, -1110624.9, 16780.6, 0.0, 10.000689, 9.998623 
1.0750365e+3, 1.9495882e+2, -1080546.8, -1205648.9, 67349.31, -0.15638046, 0.14185329, -1051181.8, -21768.18, 0.0, 10.0002775, 9.99864 
1.07502356e+3, 2.0495713e+2, -967498.9, -1105879.3, 49596.17, -0.17629546, 0.1144271, -951559.4, -20129.678, 0.0, 10.000407, 9.998592 
1.0750117e+3, 2.1495445e+2, -769968.6, -957690.8, 45586.652, -0.0632435, -0.028286245, -759483.94, 73971.85, 0.0, 10.001085, 9.998608 
1.0749991e+3, 2.2495359e+2, -671618.56, -897890.75, 31312.252, -0.008570643, 0.048019834, -667365.44, 68100.39, 0.0, 10.001245, 9.998271 
1.0749857e+3, 2.3495448e+2, -627438.6, -821641.3, 65395.836, -0.012413255, 0.29235443, -607470.4, 29990.627, 0.0, 10.000863, 9.9983015 
1.07497305e+3, 2.449528e+2, -581577.25, -731209.5, 103239.97, 0.012311513, 0.28950536, -528894.56, 10582.671, 0.0, 10.000424, 9.998463 
1.0749608e+3, 2.5494832e+2, -552428.1, -664208.44, 121366.49, 0.06501123, -0.022973966, -474701.16, -33184.406, 0.0, 9.999936, 9.9984865 
1.07494764e+3, 2.6494625e+2, -502783.25, -699524.0, 90064.08, 0.017145649, -0.022136977, -467780.94, -124244.836, 0.000000000031670343, 10.00009, 9.997497 
1.0749335e+3, 2.7494657e+2, -282547.9, -540558.25, 38997.516, -0.13354386, 0.23954405, -276782.4, -31245.91, 0.00000057346807, 10.000916, 9.997517 
1.0749205e+3, 2.8494447e+2, -201244.44, -324341.06, -37110.4, -0.11171046, 0.22822192, -190922.19, -43364.906, 0.000016659129, 10.000263, 9.99864 
1.0749086e+3, 2.9493982e+2, -418202.72, -376244.72, -14207.77, 0.08176476, -0.12339191, -371886.4, -322286.06, 0.00011189467, 9.998079, 9.998666 
1.07489504e+3, 3.0493984e+2, -335910.44, -122060.24, 19315.281, 0.06896591, -0.0636028, -120329.664, -120329.664, 0.00035149738, 9.997501, 10.000352 
1.0748798e+3, 3.1494218e+2, -162380.5, 27384.797, 55963.473, -0.15161134, 0.10728882, 42659.434, 42659.434, 0.00073250505, 9.998356, 10.000976 
1.0851307e+3, 1.2497867e+2, -1733566.1, -1789553.6, -133814.61, -0.15088096, -0.1087036, -1624848.5, 90360.586, 0.00064071716, 10.000112, 9.999431 
1.08511806e+3, 1.3497873e+2, -1427133.1, -1613360.9, 21682.621, -0.08454997, -0.039943766, -1424642.0, 192567.52, 0.00028839763, 10.001675, 9.99921 
1.0851066e+3, 1.4497791e+2, -1305688.3, -1497188.4, 43939.1, 0.08180871, -0.03883213, -1296087.9, 223129.92, 0.00006873226, 10.0018, 9.999266 
1.0850924e+3, 1.5497698e+2, -1394862.4, -1487342.5, 10851.231, -0.032107033, -0.07857011, -1393606.3, 27620.424, 0.0000030594845, 10.000506, 9.999284 
1.0850785e+3, 1.649763e+2, -1392377.6, -1573074.5, 1089.6735, -0.07368796, -0.0099821, -1392371.0, -69134.43, 0.000000000186287, 10.000443, 9.998054 
1.0850653e+3, 1.7497568e+2, -1112532.6, -1386962.9, 29506.379, -0.011664373, 0.106580496, -1109396.0, 115853.625, 0.0, 10.001692, 9.998058 
1.08505175e+3, 1.8497473e+2, -890966.25, -1158889.9, 81920.63, -0.031420007, 0.17761905, -867903.4, 259357.39, 0.0, 10.002224, 9.998696 
1.08503774e+3, 1.9497335e+2, -824130.6, -1074298.8, 60720.01, -0.14152539, 0.15446058, -810171.75, 219099.16, 0.0, 10.002008, 9.998707 
1.0850246e+3, 2.0497131e+2, -857311.06, -1100682.4, 40808.734, -0.14472505, 0.11056095, -850650.5, 80640.15, 0.0, 10.001369, 9.99816 
1.08501256e+3, 2.1496835e+2, -914013.9, -1077020.6, 12144.962, -0.04084432, -0.017483246, -913114.0, -79791.336, 0.0, 10.000307, 9.998162 
1.08499974e+3, 2.2496744e+2, -857587.3, -927597.94, -1689.5405, 0.015316176, 0.048182704, -857546.6, -122213.1, 0.0, 9.999721, 9.9988 
1.0849863e+3, 2.3496848e+2, -771772.25, -833382.25, 630.89636, 0.02458232, 0.2593875, -771765.75, -134441.7, 0.0, 9.999626, 9.998818 
1.08497374e+3, 2.4496727e+2, -611628.2, -730973.2, 58504.484, 0.06783772, 0.2705091, -587732.9, -48398.566, 0.0, 10.0001545, 9.998598 
1.0849622e+3, 2.549636e+2, -351101.78, -552158.1, 50197.145, 0.14630154, 0.02788738, -339265.94, 102099.95, 0.0, 10.001264, 9.998618 
1.08494885e+3, 2.649613e+2, -369436.78, -692549.8, 48004.41, 0.07686868, 0.021310072, -362455.66, -19066.629, 0.000000020287489, 10.001248, 9.996983 
1.0849338e+3, 2.7496025e+2, -446774.0, -678736.56, 59912.688, -0.14419699, 0.19822383, -432213.38, -186808.17, 0.0000009638229, 10.000039, 9.996986 
1.0849203e+3, 2.849582e+2, -292505.16, -331652.78, 8375.6045, -0.11045627, 0.2058195, -290788.47, -143362.44, 0.000015514439, 9.99947, 9.998977 
1.0849085e+3, 2.949552e+2, -191878.31, -225604.97, 11476.849, 0.19351499, -0.01675316, -188343.36, -138890.95, 0.00010321646, 9.999457, 9.999038 
1.0848942e+3, 3.0495533e+2, -116182.98, -60050.3, 75672.01, 0.15176621, 0.050189633, -7407.456, -7407.456, 0.0003319706, 9.999213, 9.99995 
1.0848773e+3, 3.149559e+2, -147895.92, -607.29517, 12042.209, -0.23513895, 0.09349079, 370.7721, 370.7721, 0.0007041168, 9.998632, 10.000636 
1.0951328e+3, 1.2499531e+2, -1666202.6, -1655549.8, -116724.65, 0.009831241, 0.25227022, -1544030.0, 171032.05, 0.000734217, 10.000135, 10.000339 
1.0951189e+3, 1.3499373e+2, -1365315.8, -1485085.0, 84928.97, -0.18692836, 0.06761399, -1321281.8, 295787.88, 0.00033773432, 10.001675, 10.000092 
1.09510645e+3, 1.4499226e+2, -1345421.4, -1579117.1, -11975.792, -0.1366767, -0.012697047, -1344809.3, 174271.31, 0.0000845864, 10.001799, 9.998702 
1.0950933e+3, 1.5499128e+2, -1435993.5, -1572835.6, -30274.178, -0.010122752, 0.001471832, -1429595.0, -8503.716, 0.0000043925156, 10.000512, 9.998693 
1.0950801e+3, 1.6499096e+2, -1317602.4, -1428100.0, 39395.91, 0.02370253, 0.08798967, -1304994.9, 18102.021, 0.0000000006358386, 10.00048, 9.999035 
1.09506726e+3, 1.7499113e+2, -1038057.7, -1241691.5, 84828.43, -0.00523879, 0.18309689, -1007350.9, 217748.56, 0.0, 10.001722, 9.999045 
1.0950539e+3, 1.8498975e+2, -921262.5, -1215796.3, 65948.68, -0.048421297, 0.18067126, -907170.25, 219943.1, 0.0, 10.002202, 9.998313 
1.09504044e+3, 1.9498661e+2, -860060.0, -1134693.6, 60116.105, -0.096716166, 0.021028452, -847477.3, 181663.25, 0.0, 10.001949, 9.99832 
1.0950266e+3, 2.0498511e+2, -904864.3, -1186263.1, -8334.586, -0.097940795, 0.07718149, -904617.6, 26540.297, 0.0, 10.001308, 9.997606 
1.09501295e+3, 2.149851e+2, -963164.25, -1161245.4, -21745.55, -0.052313462, 0.30077016, -960805.1, -127638.71, 0.0, 10.000228, 9.997625 
1.0949995e+3, 2.2498332e+2, -854213.25, -897949.94, -12490.495, 0.0011756184, 0.29269788, -850897.5, -115712.5, 0.0, 9.999626, 9.999047 
1.0949864e+3, 2.3497951e+2, -768972.06, -805044.3, 5128.8174, 0.06687868, -0.009963794, -768257.0, -131040.82, 0.0, 9.999529, 9.999059 
1.09497376e+3, 2.449786e+2, -626765.7, -740750.56, 92751.12, 0.03432195, 0.022778379, -574896.25, -35673.695, 0.0, 10.000062, 9.998575 
1.0949612e+3, 2.5498056e+2, -360174.6, -557359.3, 100923.01, -0.093105145, 0.34214008, -317678.66, 123526.08, 0.0, 10.0012045, 9.99861 
1.09494835e+3, 2.6497868e+2, -345357.3, -624277.1, -2234.2495, -0.12110016, 0.35255164, -345339.44, -2114.4976, 0.00000010014453, 10.001171, 9.997489 
1.09493494e+3, 2.7497265e+2, -417299.75, -604646.9, 25764.527, -0.058783, -0.01728335, -413821.16, -168535.19, 0.0000018004142, 9.999983, 9.997522 
1.09492116e+3, 2.8497133e+2, -274081.16, -284496.06, 1394.0741, 0.017646449, 0.012138963, -273897.78, -126597.94, 0.000016749296, 9.999427, 9.999323 
1.0949074e+3, 2.949747e+2, -173604.73, -182429.27, 22991.645, 0.1170992, 0.39484394, -154605.81, -105339.49, 0.000099959936, 9.999424, 9.999354 
1.0948925e+3, 3.049749e+2, -223863.69, -266309.84, 49961.11, 0.042507473, 0.52809316, -190804.8, -190804.8, 0.00032156563, 9.999146, 9.998562 
1.0948762e+3, 3.1496888e+2, -259379.78, -214941.17, 5201.7754, -0.24409403, 0.04574207, -214340.4, -214340.4, 0.0006902331, 9.998553, 9.9992075 
1.1051329e+3, 1.2500992e+2, -1535476.5, -1590186.4, -89085.46, -0.028331747, 0.40850696, -1469640.8, 245287.19, 0.00083503575, 10.001024, 10.000345 
1.1051206e+3, 1.3500804e+2, -1546169.1, -1568368.1, 38134.492, -0.10632885, 0.18544504, -1517551.6, 99385.55, 0.0003918232, 10.000398, 10.000135 
1.1051078e+3, 1.450066e+2, -1525268.9, -1641390.1, -67427.09, -0.10088086, 0.092140265, -1494349.4, 24597.05, 0.000102570426, 10.000459, 9.998921 
1.10509425e+3, 1.5500557e+2, -1304409.1, -1482023.5, -42233.63, 0.008277763, 0.08022707, -1294878.1, 126077.59, 0.0000061708192, 10.001298, 9.998935 
1.1050809e+3, 1.6500512e+2, -1214425.9, -1381302.1, 50505.277, 0.02738039, 0.14015086, -1200330.9, 122630.94, 0.0000000015512864, 10.00121, 9.998998 
1.1050681e+3, 1.7500508e+2, -1249118.4, -1342378.1, 2570.0806, -0.0115084, 0.21887279, -1249047.6, -24081.635, 0.0, 10.000283, 9.999037 
1.1050549e+3, 1.8500382e+2, -1252481.4, -1342218.5, -26113.227, -0.041881613, 0.21368268, -1245435.8, -118457.086, 0.0, 9.9997835, 9.998618 
1.10504135e+3, 1.9500108e+2, -1164490.8, -1244810.8, 6948.9194, -0.069133095, 0.06125584, -1163894.0, -134891.94, 0.0, 9.999702, 9.998648 
1.1050276e+3, 2.0499988e+2, -1075444.6, -1235963.4, 13068.551, -0.066834256, 0.11884511, -1074387.6, -143372.3, 0.0, 10.000002, 9.997893 
1.1050136e+3, 2.1500015e+2, -868781.4, -1083533.4, 45661.137, -0.032613482, 0.3413308, -859476.0, -26456.803, 0.0, 10.000739, 9.9979105 
1.10500015e+3, 2.249982e+2, -605120.44, -796964.75, 99258.01, 0.01959888, 0.31158078, -563009.2, 172028.81, 0.0, 10.001417, 9.998875 
1.1049874e+3, 2.349938e+2, -420541.06, -655801.4, 70163.04, 0.09212363, -0.030965714, -401205.13, 235868.9, 0.0, 10.002007, 9.998887 
1.1049746e+3, 2.4499263e+2, -436886.1, -680895.25, 130010.3, 0.049892243, -0.0032198294, -380599.34, 158484.83, 0.0, 10.001505, 9.998287 
1.10496156e+3, 2.5499457e+2, -570335.0, -691633.1, 97371.47, -0.10476761, 0.34606513, -516269.16, -75199.89, 0.0, 9.999903, 9.998313 
1.1049486e+3, 2.6499316e+2, -545664.2, -628653.6, 4548.407, -0.114648394, 0.377884, -545415.6, -202330.34, 0.00000018749917, 9.999402, 9.998311 
1.1049357e+3, 2.7498814e+2, -366405.47, -489787.2, 37434.98, 0.02063761, 0.02937774, -355935.8, -110801.17, 0.0000025324416, 9.999952, 9.998327 
1.1049215e+3, 2.849871e+2, -177767.95, -257699.86, 29270.34, 0.07542225, 0.055419657, -168195.73, -21049.895, 0.000018771152, 10.000192, 9.999129 
1.10490635e+3, 2.9499003e+2, -98248.805, -167617.28, -10875.801, 0.060739424, 0.41537794, -96583.64, -47465.223, 0.00010053436, 10.000054, 9.999142 
1.10489145e+3, 3.0499014e+2, -135866.94, -252677.73, 42804.32, 0.010538094, 0.5601281, -121861.01, -121861.01, 0.00031863083, 9.999848, 9.998328 
1.1048766e+3, 3.1498435e+2, -163485.53, -181042.69, 53590.918, -0.08711073, 0.122481346, -117958.95, -117958.95, 0.00068517454, 9.999273, 9.999086 
1.11513086e+3, 1.2502255e+2, -1594944.8, -1714460.9, -130020.39, -0.37640852, 0.34089983, -1511607.4, 203198.98, 0.000944546, 10.001047, 9.999475 
1.11512326e+3, 1.3502187e+2, -1605778.9, -1684728.8, 22723.455, 0.10332312, 0.3214423, -1599705.8, 17104.482, 0.00045159098, 10.000381, 9.99934 
1.11511074e+3, 1.4502105e+2, -1445390.0, -1487694.4, -45434.43, 0.116342396, 0.28197706, -1416425.3, 102388.56, 0.00012308804, 10.000501, 9.999961 
1.11509524e+3, 1.5502e+2, -1227876.5, -1329647.4, -3918.4907, -0.047655158, 0.16065134, -1227725.8, 193092.45, 0.000008505592, 10.001319, 9.999975 
1.1150808e+3, 1.6501886e+2, -1286228.5, -1533806.8, 5015.5454, -0.1303454, 0.15345542, -1286127.0, 36702.883, 0.0000000033697685, 10.001222, 9.997949 
1.1150679e+3, 1.7501758e+2, -1322246.9, -1497636.5, -26323.695, -0.08561027, 0.21360259, -1318381.3, -93532.06, 0.0, 10.000292, 9.997973 
1.11505456e+3, 1.8501693e+2, -1178227.0, -1190388.1, -37350.1, -0.07830294, 0.27352014, -1146465.8, -19608.95, 0.0, 9.999793, 9.999655 
1.1150408e+3, 1.950168e+2, -1097495.3, -1098093.1, 9014.543, -0.11995429, 0.27675536, -1088774.8, -59920.082, 0.0, 9.99967, 9.999671 
1.1150272e+3, 2.0501567e+2, -1005519.9, -1079975.5, 30579.557, -0.11134778, 0.2357582, -994570.7, -63708.35, 0.0, 9.999953, 9.998985 
1.11501426e+3, 2.1501338e+2, -807662.75, -934811.56, 81034.17, -0.04518703, 0.0912247, -768240.8, 64641.145, 0.0, 10.000643, 9.998978 
1.11500144e+3, 2.2501202e+2, -659046.9, -888335.2, 114685.24, 0.0037029707, 0.097050026, -611530.6, 123362.47, 0.0, 10.00133, 9.998288 
1.114989e+3, 2.3501147e+2, -471389.4, -744553.8, 100174.16, 0.04405743, 0.19701141, -438591.66, 198305.36, 0.0, 10.001934, 9.998315 
1.1149763e+3, 2.4500936e+2, -494158.66, -778459.75, 63645.53, 0.05685792, 0.19180325, -480560.9, 58358.086, 0.0, 10.001412, 9.997662 
1.11496314e+3, 2.5500554e+2, -624520.0, -789733.6, 46020.496, 0.045362867, 0.025121486, -612565.9, -171605.33, 0.0, 9.99984, 9.997669 
1.1149496e+3, 2.6500472e+2, -475940.3, -472116.34, 17855.824, 0.030245453, 0.094769605, -456070.4, -113099.664, 0.00000020790911, 9.999348, 9.999413 
1.11493565e+3, 2.7500674e+2, -296430.53, -330294.06, 69816.0, 0.019126074, 0.3359002, -241522.47, 3428.6707, 0.0000030041272, 9.999887, 9.999454 
1.11492105e+3, 2.8500554e+2, -250620.77, -387069.34, 19494.105, -0.0044530774, 0.3353191, -247890.33, -100926.54, 0.000021469468, 10.000099, 9.998284 
1.1149056e+3, 2.95001e+2, -159801.0, -289737.28, -1748.8998, -0.047025446, 0.027899655, -159777.47, -110767.31, 0.00010455908, 10.0000305, 9.998314 
1.1148913e+3, 3.0500078e+2, -71981.7, -114142.03, 18021.754, -0.004282031, 0.13517389, -65328.188, -65328.188, 0.00032151054, 9.999824, 9.999291 
1.11487806e+3, 3.1500202e+2, -102460.836, -38257.977, 53906.36, 0.08607548, 0.3000013, -7618.69, -7618.69, 0.0006861148, 9.999198, 10.000105 
1.12513304e+3, 1.2503555e+2, -1343404.1, -1642596.6, -128501.4, -0.34274924, 0.28917, -1295790.8, 418887.3, 0.0010643419, 10.002976, 9.999049 
1.12512425e+3, 1.3503493e+2, -1522788.5, -1684149.4, 20403.754, 0.13730039, 0.3115683, -1520248.5, 96435.97, 0.00051804923, 10.001118, 9.998991 
1.1251104e+3, 1.4503442e+2, -1470909.9, -1472489.9, 28237.67, 0.054623596, 0.30675948, -1443451.1, 75235.56, 0.00014661087, 10.000216, 10.000198 
1.12509586e+3, 1.5503386e+2, -1352991.0, -1364836.9, -11722.048, -0.05730205, 0.20890093, -1345780.5, 74906.11, 0.00001150662, 10.000352, 10.0002 
1.1250818e+3, 1.6503277e+2, -1367031.0, -1525593.9, 7865.6313, -0.11061745, 0.17710947, -1366641.8, -43946.313, 0.0000000061074554, 10.000462, 9.998374 
1.1250684e+3, 1.7503111e+2, -1240589.4, -1407061.0, 73218.84, -0.07094662, 0.1568361, -1212968.5, 11745.548, 0.0, 10.000632, 9.99843 
1.1250548e+3, 1.8503056e+2, -1056575.1, -1155757.4, 100260.05, -0.07283413, 0.2128876, -994312.1, 132408.23, 0.0, 10.000738, 9.999431 
1.1250409e+3, 1.9503093e+2, -937697.75, -1047167.56, 37854.98, -0.12860519, 0.28815937, -925882.6, 102833.836, 0.0, 10.000871, 9.999443 
1.1250276e+3, 2.0502977e+2, -837165.44, -945963.56, 16757.963, -0.122541666, 0.23279138, -834642.7, 96081.07, 0.0, 10.00089, 9.999451 
1.1250149e+3, 2.1502694e+2, -744420.4, -846818.8, 2024.018, -0.049314097, -0.0123253325, -744380.4, 88363.73, 0.0, 10.000841, 9.99948 
1.1250024e+3, 2.2502577e+2, -762882.8, -968640.1, 37508.207, 0.004371673, -0.0005092225, -756258.6, -21505.629, 0.0, 10.000737, 9.99803 
1.12499036e+3, 2.3502617e+2, -677638.1, -870376.0, 33343.953, 0.044686485, 0.21886615, -672032.6, -35281.25, 0.0, 10.000626, 9.998081 
1.1249774e+3, 2.4502416e+2, -606550.25, -801528.9, 17039.88, 0.08431122, 0.22022027, -605072.3, -66298.76, 0.0, 10.000513, 9.997933 
1.124964e+3, 2.5501958e+2, -525199.06, -711203.94, 54571.523, 0.122111745, -0.04788272, -510370.6, -69549.33, 0.0, 10.000398, 9.997938 
1.1249498e+3, 2.6501894e+2, -369044.25, -410809.13, 68381.1, 0.09058375, 0.021331066, -318428.06, 24401.527, 0.00000016860811, 10.000049, 9.999493 
1.1249351e+3, 2.75022e+2, -350172.94, -347436.63, 20812.553, -0.00480719, 0.35994402, -327947.3, -83146.7, 0.0000038179373, 9.999484, 9.999526 
1.1249204e+3, 2.8502095e+2, -343570.66, -409246.1, -8881.179, -0.03580965, 0.35657123, -342390.84, -195578.56, 0.000026281929, 9.999354, 9.998495 
1.1249058e+3, 2.9501563e+2, -215163.67, -292804.78, 28966.305, -0.005520793, -0.04646434, -205547.86, -156682.13, 0.00011344339, 9.999547, 9.998527 
1.12489164e+3, 3.0501568e+2, -56287.98, -5625.028, 82045.164, 0.05604942, 0.03036621, 54910.21, 54910.21, 0.00033238306, 9.999513, 10.000181 
1.1248773e+3, 3.150183e+2, -56589.04, 74882.875, 80884.51, 0.11215218, 0.2561897, 113375.125, 113375.125, 0.0006975335, 9.999112, 10.000936 
1.1351394e+3, 1.2504888e+2, -1333356.9, -1618142.6, -184912.63, -0.052678477, 0.24105383, -1242365.1, 472178.75, 0.0011953667, 10.002984, 9.999207 
1.1351235e+3, 1.350474e+2, -1511575.8, -1657549.3, -44308.9, -0.07082827, 0.16206089, -1499179.0, 117379.37, 0.00059164723, 10.001113, 9.999174 
1.1351068e+3, 1.4504686e+2, -1506575.6, -1552280.4, 25517.559, -0.3463329, 0.17090717, -1495173.4, 23390.28, 0.00017336896, 10.0002365, 9.999645 
1.1350962e+3, 1.5504725e+2, -1389038.9, -1445269.5, 2412.5315, -0.07945578, 0.22879322, -1388935.5, 31623.977, 0.000015247707, 10.000373, 9.99964 
1.1350836e+3, 1.6504696e+2, -1233029.4, -1249808.8, 5546.0435, 0.009843063, 0.20892204, -1231362.0, 91195.68, 0.000000009421829, 10.000472, 10.000258 
1.1350694e+3, 1.7504582e+2, -1108935.8, -1135658.1, 85217.875, -0.03834373, 0.050911188, -1036037.94, 188522.0, 0.0, 10.000641, 10.000287 
1.1350556e+3, 1.850447e+2, -1155182.4, -1365607.1, 94713.016, -0.09036865, 0.0314025, -1118831.4, 7737.978, 0.0, 10.000756, 9.997984 
1.13504164e+3, 1.9504347e+2, -1047201.2, -1262812.4, 48680.477, -0.15613976, 0.09192377, -1036719.7, -8132.192, 0.0, 10.000817, 9.997992 
1.1350282e+3, 2.0504226e+2, -858753.3, -979147.06, 6487.6206, -0.16398571, 0.1121997, -858404.75, 72194.07, 0.0, 10.000837, 9.9992485 
1.1350154e+3, 2.150409e+2, -771057.9, -882976.1, 4629.5225, -0.10201243, 0.035224557, -770866.7, 61738.31, 0.0, 10.000754, 9.999277 
1.1350029e+3, 2.250395e+2, -768725.0, -955996.5, 23310.957, -0.03839862, 0.025978426, -765867.0, -31249.568, 0.0, 10.000633, 9.998164 
1.134991e+3, 2.3503788e+2, -685391.7, -862862.44, 36592.1, 0.031946704, 0.030559514, -678142.94, -41505.7, 0.0, 10.0005245, 9.998182 
1.1349779e+3, 2.4503702e+2, -533790.3, -634397.25, 4808.602, 0.0623648, 0.08492753, -533561.0, 5086.8066, 0.0, 10.000442, 9.999117 
1.13496386e+3, 2.550368e+2, -448752.84, -538906.8, 57399.26, 0.064134344, 0.13233031, -420846.2, 19804.287, 0.0, 10.000336, 9.999152 
1.1349491e+3, 2.650358e+2, -447520.44, -559441.0, 42697.89, 0.0044367714, 0.15369625, -433091.38, -90429.48, 0.00000020663475, 9.999986, 9.998506 
1.1349336e+3, 2.750338e+2, -429642.22, -500184.4, 11930.48, -0.120252594, 0.08863122, -427679.1, -182994.94, 0.0000055002247, 9.99943, 9.998507 
1.1349193e+3, 2.8503314e+2, -267237.0, -233936.95, -10222.651, -0.09209033, 0.117497474, -231049.17, -84357.06, 0.00003348711, 9.999288, 9.999727 
1.1349066e+3, 2.950338e+2, -139294.06, -114783.85, 46179.316, 0.10965223, 0.1886446, -79261.17, -30575.29, 0.00012779766, 9.999459, 9.99979 
1.1348919e+3, 3.0503473e+2, -16816.463, 103577.664, 64113.7, 0.12040564, 0.24309398, 131325.2, 131325.2, 0.00035402225, 9.999398, 10.000986 
1.13487415e+3, 3.1503305e+2, -22169.375, 171103.02, 88202.97, -0.15603696, -0.0416632, 205303.81, 205303.81, 0.0007264602, 9.999011, 10.001641 
1.14514224e+3, 1.2506273e+2, -1632161.5, -1786632.1, -73764.56, 0.046654362, 0.14875254, -1602595.6, 111809.16, 0.0013373722, 10.001012, 9.99902 
1.1451251e+3, 1.3506201e+2, -1465731.3, -1658497.3, -30598.77, -0.032296676, 0.16507857, -1460990.8, 155422.98, 0.000672049, 10.001501, 9.999001 
1.1451069e+3, 1.450614e+2, -1389138.4, -1548537.5, 62005.703, -0.3963949, 0.20016949, -1367859.0, 150562.64, 0.0002032588, 10.001271, 9.99917 
1.1450964e+3, 1.5506132e+2, -1410968.0, -1508494.6, 23161.344, -0.088858664, 0.2594736, -1405747.0, 14677.347, 0.000019742625, 10.000456, 9.999164 
1.145084e+3, 1.6506094e+2, -1269230.0, -1237907.6, 4196.7075, 0.030078616, 0.24053481, -1237355.0, 85068.34, 0.000000013934886, 10.000094, 10.000523 
1.1450702e+3, 1.7506006e+2, -1155159.0, -1129473.8, -48985.56, -0.0072214203, 0.07996469, -1091675.4, 132745.67, 0.0, 10.000195, 10.000547 
1.14505626e+3, 1.8505877e+2, -1245287.9, -1391734.6, -31422.879, -0.057571143, 0.02424748, -1238830.3, -112400.21, 0.0, 10.0000725, 9.99813 
1.1450421e+3, 1.9505699e+2, -1179037.8, -1304219.1, 23818.941, -0.13456273, 0.0138108125, -1174658.8, -146207.11, 0.0, 9.999831, 9.998172 
1.1450287e+3, 2.050559e+2, -1014037.5, -1076186.4, 64732.094, -0.13719817, 0.048882138, -973307.56, -42845.56, 0.0, 9.999866, 9.999056 
1.14501625e+3, 2.1505542e+2, -865674.1, -947037.6, 52068.58, -0.051981527, 0.07677144, -840279.1, -7816.7886, 0.0, 10.00019, 9.99911 
1.14500344e+3, 2.2505404e+2, -848598.6, -954121.7, 71392.484, -0.011449409, 0.061386336, -812587.0, -78112.06, 0.0, 9.999907, 9.9985285 
1.14499025e+3, 2.3505162e+2, -877730.8, -913445.1, 87056.336, -0.013936802, -0.051076043, -806719.06, -170217.69, 0.0, 9.999013, 9.998566 
1.14497684e+3, 2.4505122e+2, -740626.2, -687968.0, 77635.75, -0.0006438295, 0.0101208845, -632318.25, -93811.375, 0.0, 9.99883, 9.999521 
1.1449635e+3, 2.5505272e+2, -553282.56, -539248.4, 54758.406, 0.03741789, 0.1858627, -491059.28, -50565.97, 0.0, 9.999419, 9.999582 
1.1449488e+3, 2.6505193e+2, -461561.78, -554419.44, 49251.703, -0.005292953, 0.20270513, -440304.8, -97802.65, 0.00000038376965, 9.9998255, 9.998622 
1.1449331e+3, 2.7504876e+2, -335585.66, -441181.16, 90355.83, -0.13293783, 0.006024205, -283732.66, -39197.625, 0.0000075917305, 10.000007, 9.998636 
1.1449188e+3, 2.8504822e+2, -183375.75, -162237.7, 91858.96, -0.0809075, 0.022774074, -80341.74, 66199.484, 0.0000412879, 9.9997225, 10.000014 
1.14490636e+3, 2.9505023e+2, -201898.36, -113167.95, 58178.34, 0.17513853, 0.20317262, -84369.016, -35848.336, 0.00014478626, 9.998888, 10.000079 
1.1448916e+3, 3.0505106e+2, -129526.83, 4913.704, 24380.656, 0.193818, 0.25570783, 9198.547, 9198.547, 0.00038253577, 9.998795, 10.000604 
1.1448735e+3, 3.1504798e+2, -19575.186, 123573.78, -76635.32, -0.11562188, -0.13454007, 156860.53, 156860.53, 0.00077112904, 9.99924, 10.0012 
1.15514174e+3, 1.2507689e+2, -1660398.4, -1842349.6, -10726.597, -0.13114372, -0.004374451, -1659768.1, 54495.035, 0.001489488, 10.001012, 9.998627 
1.1551289e+3, 1.3507883e+2, -1491661.3, -1717441.4, -7507.0703, 0.17397064, 0.3179116, -1491412.0, 124837.81, 0.00075867696, 10.001526, 9.998577 
1.1551106e+3, 1.450781e+2, -1418817.0, -1620806.4, 22238.438, -0.17725892, 0.38814935, -1416397.6, 101862.6, 0.0002361324, 10.001307, 9.998664 
1.1550963e+3, 1.5507606e+2, -1437505.5, -1574977.3, -277.84866, -0.16032238, 0.29783016, -1437505.0, -17223.611, 0.000024990082, 10.000496, 9.998692 
1.1550827e+3, 1.6507468e+2, -1352309.1, -1414672.8, -1032.3871, -0.12034586, 0.26478842, -1352292.0, -29999.023, 0.000000023716384, 10.000117, 9.999296 
1.1550703e+3, 1.7507385e+2, -1243192.1, -1307417.5, -39055.133, -0.033907495, 0.23540753, -1224742.8, -446.12027, 0.0, 10.00018, 9.999329 
1.1550567e+3, 1.8507287e+2, -1130944.6, -1154749.0, -48242.285, -0.036581635, 0.18765996, -1093158.0, 33143.133, 0.0, 10.00007, 9.99976 
1.1550421e+3, 1.9507155e+2, -1069860.4, -1070780.4, 20220.885, -0.13490614, 0.05828123, -1050094.3, -21785.746, 0.0, 9.999795, 9.999795 
1.15502894e+3, 2.0507078e+2, -1027032.8, -1093299.1, 63572.277, -0.11236218, 0.048621725, -988477.5, -58164.234, 0.0, 9.999821, 9.99896 
1.1550175e+3, 2.1507044e+2, -886354.56, -970549.9, 70478.76, 0.036854748, 0.10025234, -846358.0, -14041.277, 0.0, 10.000097, 9.998996 
1.15500376e+3, 2.2506937e+2, -823362.0, -876359.56, 29616.504, 0.0218511, 0.09291102, -810120.06, -75793.83, 0.0, 9.999802, 9.99911 
1.1549879e+3, 2.3506744e+2, -850886.0, -835774.5, 60820.164, -0.1542851, -0.028308539, -782042.56, -145699.27, 0.0, 9.998923, 9.999141 
1.1549741e+3, 2.4506679e+2, -779611.9, -748754.9, 89597.445, -0.16549918, -0.0037766516, -673267.25, -134916.38, 0.0, 9.99874, 9.999147 
1.15496255e+3, 2.5506726e+2, -592090.94, -601751.3, 83063.21, -0.017437853, 0.10932199, -513717.6, -73367.29, 0.0, 9.999337, 9.999193 
1.15494885e+3, 2.650673e+2, -384278.7, -376454.75, 49653.656, 0.0009976189, 0.16717665, -330559.2, 11791.502, 0.0000005356376, 9.999752, 9.999879 
1.1549335e+3, 2.750668e+2, -254460.14, -254327.28, 106298.9, -0.109449886, 0.106105976, -148094.78, 96259.305, 0.000008957139, 9.999929, 9.999956 
1.1549188e+3, 2.8506604e+2, -238820.88, -254399.2, 55280.734, -0.07088299, 0.06486991, -190783.25, -44423.402, 0.00004724257, 9.999625, 9.999428 
1.1549048e+3, 2.950649e+2, -252901.56, -211399.86, 42026.805, 0.112089165, -0.009318395, -185280.14, -136910.7, 0.0001595295, 9.998847, 9.999429 
1.15489066e+3, 3.050647e+2, -271194.25, -262762.34, 38532.168, 0.20069349, 0.06483013, -228216.17, -228216.17, 0.000411773, 9.998696, 9.998805 
1.1548752e+3, 3.1506288e+2, -166911.27, -147965.44, -39964.355, 0.09804771, -0.025855841, -116366.64, -116366.64, 0.0008237991, 9.999098, 9.999397 
1.1651428e+3, 1.2509266e+2, -1473552.9, -1753091.4, -20525.135, -0.18382557, 0.12340609, -1472053.9, 242057.06, 0.0016512593, 10.002307, 9.9986 
1.1651305e+3, 1.3509345e+2, -1507677.6, -1743435.8, -88078.234, 0.19698039, 0.3464179, -1478406.3, 137701.23, 0.0008513687, 10.001494, 9.998411 
1.1651127e+3, 1.4509204e+2, -1444721.9, -1621805.0, -17109.277, -0.085672066, 0.35140938, -1443084.0, 75039.38, 0.00027198074, 10.001089, 9.998756 
1.1650974e+3, 1.5509024e+2, -1338075.5, -1516907.5, -14080.545, -0.1364749, 0.27703816, -1336973.6, 83167.125, 0.00003101119, 10.001138, 9.998778 
1.1650833e+3, 1.6508894e+2, -1268013.4, -1409182.6, 58803.016, -0.124544196, 0.26340112, -1246728.6, 75423.875, 0.00000004774233, 10.0008545, 9.998979 
1.1650705e+3, 1.7508803e+2, -1245609.4, -1344128.4, 70895.99, -0.030102525, 0.2593029, -1208539.6, 15620.133, 0.0, 10.000319, 9.999014 
1.1650569e+3, 1.8508725e+2, -1101125.1, -1096133.4, 69880.586, -0.01862486, 0.22614495, -1028704.1, 97458.19, 0.0, 10.00007, 10.000166 
1.1650424e+3, 1.9508645e+2, -994144.2, -988008.94, 35938.203, -0.10087126, 0.1095669, -955007.7, 73154.17, 0.0, 10.00011, 10.000214 
1.165029e+3, 2.0508568e+2, -1055686.6, -1109134.1, 44429.6, -0.06831966, 0.08014964, -1030563.0, -100396.62, 0.0, 9.9996395, 9.998934 
1.1650173e+3, 2.1508484e+2, -1092982.5, -1067415.9, 36697.55, 0.085872844, 0.08178277, -1041338.9, -209162.02, 0.0, 9.998677, 9.999008 
1.1650034e+3, 2.2508414e+2, -912588.1, -864821.44, 36146.668, 0.060098644, 0.08488999, -845380.5, -111197.63, 0.0, 9.998956, 9.999596 
1.16498776e+3, 2.3508333e+2, -598128.1, -658253.44, 45938.094, -0.13359365, 0.027615407, -573290.25, 62896.625, 0.0, 10.000424, 9.999634 
1.1649739e+3, 2.4508262e+2, -521508.53, -629327.2, 76956.164, -0.15675887, 0.023339987, -481457.94, 56735.76, 0.0, 10.0005245, 9.99911 
1.1649617e+3, 2.550819e+2, -602694.7, -612923.75, 80685.53, -0.022752916, 0.021646585, -526961.75, -86757.6, 0.0, 9.999273, 9.999154 
1.1649481e+3, 2.650822e+2, -494973.47, -386243.38, 62598.336, 0.00031851887, 0.086775154, -357698.16, -15495.826, 0.00000056359414, 9.9988165, 10.000257 
1.1649334e+3, 2.750833e+2, -350092.94, -261558.83, 30022.662, -0.07664067, 0.15355062, -252338.2, -8147.4263, 0.00000928475, 9.999114, 10.0003 
1.16491884e+3, 2.850826e+2, -254457.39, -303972.13, -42660.918, -0.024120979, 0.119585864, -229890.52, -83694.13, 0.000050363375, 9.999688, 9.99906 
1.16490476e+3, 2.9508013e+2, -36162.906, -143121.61, -57942.02, 0.1520546, -0.05358436, -10792.283, 37426.637, 0.00017032117, 10.000501, 9.999096 
1.1648906e+3, 3.050796e+2, 4838.681, -182533.3, 22602.672, 0.24112439, 0.030083962, 7526.6787, 7526.6787, 0.0004381968, 10.0008135, 9.998346 
1.1648756e+3, 3.1507882e+2, -31038.691, -148126.7, 20309.158, 0.1666901, 0.09603532, -27616.072, -27616.072, 0.0008746987, 10.00031, 9.998826 
1.1751451e+3, 1.2511005e+2, -1461001.6, -1716579.8, -16233.492, -0.22108136, 0.51120085, -1459974.6, 253972.98, 0.0018234614, 10.002271, 9.998868 
1.17513e+3, 1.3510603e+2, -1504775.9, -1738077.6, -113588.305, -0.015113641, 0.2508993, -1458608.6, 157376.75, 0.0009506097, 10.001495, 9.998449 
1.175113e+3, 1.4510341e+2, -1398596.3, -1523641.9, -22983.63, -0.17826353, 0.09691873, -1394505.6, 123503.78, 0.00031097958, 10.001078, 9.999434 
1.17509924e+3, 1.5510398e+2, -1292121.5, -1421673.0, -3880.7207, -0.0826942, 0.19357862, -1292005.3, 127996.586, 0.00003785508, 10.00114, 9.999431 
1.1750849e+3, 1.6510376e+2, -1233152.6, -1340282.8, 30788.77, -0.058631342, 0.23248737, -1224934.5, 97067.25, 0.00000010132158, 10.000867, 9.999444 
1.1750707e+3, 1.7510262e+2, -1211248.6, -1273255.4, 57445.664, -0.05555124, 0.15361856, -1176974.0, 47036.156, 0.0, 10.000318, 9.9995 
1.1750566e+3, 1.8510199e+2, -1154372.0, -1203481.5, 61841.258, -0.06621302, 0.14814343, -1112389.0, 13623.972, 0.0, 10.00006, 9.999433 
1.1750426e+3, 1.951017e+2, -1051804.4, -1098582.1, 44609.035, -0.09767738, 0.15542084, -1024824.56, 3187.2366, 0.0, 10.000071, 9.999475 
1.1750288e+3, 2.0510064e+2, -1063769.6, -1111858.1, -941.3372, -0.07004051, 0.13404505, -1063751.1, -133730.08, 0.0, 9.999578, 9.998945 
1.1750155e+3, 2.150987e+2, -1103868.3, -1072424.9, 7241.2153, 0.02712923, 0.024984421, -1070837.4, -238795.4, 0.0, 9.998595, 9.999017 
1.1750023e+3, 2.250983e+2, -896740.25, -807807.75, 81962.03, 0.04509268, 0.03626747, -759026.9, -24981.775, 0.0, 9.998853, 10.000039 
1.1749895e+3, 2.3509929e+2, -580760.8, -597883.44, 108535.54, -0.01688654, 0.11293321, -480449.47, 155582.61, 0.0, 10.000321, 10.000098 
1.17497556e+3, 2.4509875e+2, -516677.38, -596682.2, 22308.36, -0.0471117, 0.09033193, -510877.44, 27157.69, 0.0, 10.000423, 9.999386 
1.1749608e+3, 2.5509658e+2, -589194.5, -571569.1, 41664.902, -0.04389405, -0.08611714, -537795.1, -97739.875, 0.0, 9.999213, 9.999467 
1.1749464e+3, 2.6509652e+2, -549265.1, -480812.66, 65675.25, -0.06188551, -0.04480633, -440980.3, -98922.516, 0.0000005132723, 9.998738, 9.999645 
1.1749323e+3, 2.7509823e+2, -403891.47, -357011.1, 50950.563, -0.11025694, 0.14242545, -324367.4, -80321.57, 0.000009286575, 9.999044, 9.999678 
1.17491886e+3, 2.8509793e+2, -280761.88, -343698.8, -18586.932, -0.0136680575, 0.19371605, -275682.6, -129631.96, 0.00005131962, 9.999622, 9.99882 
1.1749063e+3, 2.950957e+2, -45919.39, -165225.22, -17579.248, 0.22674306, 0.063197225, -43383.074, 4688.474, 0.00017691198, 10.000494, 9.998952 
1.17489174e+3, 3.0509564e+2, 68252.05, -28947.627, 1418.0283, 0.24981724, 0.13904476, 68272.73, 68272.73, 0.00045575172, 10.000733, 9.999435 
1.1748738e+3, 3.1509614e+2, 13323.184, -32219.021, 24491.201, -0.074763104, 0.2292611, 23993.703, 23993.703, 0.00090608484, 10.000218, 9.9996605 
1.1851467e+3, 1.251233e+2, -1730750.9, -1768875.1, 20670.451, -0.16751403, 0.48278403, -1721694.8, -7879.259, 0.0020081834, 10.000086, 9.99956 
1.18513085e+3, 1.3511927e+2, -1626960.5, -1744474.3, -89571.586, -0.025684634, 0.16971919, -1578594.0, 37257.23, 0.0010574218, 10.000424, 9.998928 
1.185115e+3, 1.4511716e+2, -1481065.4, -1538529.9, 22727.867, -0.049312346, 0.032637294, -1473163.0, 44706.684, 0.00035351914, 10.000409, 9.999649 
1.1851004e+3, 1.5511844e+2, -1431497.0, -1461463.0, -13038.67, -0.028139388, 0.17678598, -1426618.1, -6761.4995, 0.00004562391, 10.00007, 9.999668 
1.18508555e+3, 1.6511835e+2, -1340924.1, -1381782.1, 12050.7, -0.03748054, 0.21183842, -1337634.8, -15779.544, 0.00000019883093, 10.000075, 9.999547 
1.1850713e+3, 1.751168e+2, -1179644.8, -1242019.9, -1206.113, -0.037027836, 0.079165414, -1179621.4, 44245.07, 0.0, 10.000466, 9.999641 
1.185057e+3, 1.8511602e+2, -1107353.9, -1211405.8, 21573.023, -0.052070823, 0.06741623, -1103058.5, 22813.027, 0.0, 10.000525, 9.999151 
1.18504286e+3, 1.951159e+2, -1034679.3, -1116720.8, 17627.896, -0.0937868, 0.117161445, -1031052.06, -3180.5313, 0.0, 10.000316, 9.999227 
1.1850287e+3, 2.051151e+2, -938598.75, -1033147.0, 2599.9148, -0.072913945, 0.12581006, -938527.3, -8648.154, 0.0, 10.000354, 9.999114 
1.185015e+3, 2.1511345e+2, -798542.75, -906203.6, 12000.039, 0.019296428, 0.030468198, -797221.44, 34675.05, 0.0, 10.000609, 9.999187 
1.1850021e+3, 2.2511305e+2, -695931.6, -736615.9, 109296.28, 0.06167584, 0.045014698, -605100.56, 128799.76, 0.0, 10.000341, 9.999807 
1.18498996e+3, 2.3511377e+2, -706234.56, -682392.9, 64886.063, 0.0485496, 0.1157833, -628341.7, 7550.345, 0.0, 9.99956, 9.999883 
1.1849761e+3, 2.4511349e+2, -618091.4, -583581.7, -44278.04, 0.009148102, 0.10023236, -553315.25, -15423.134, 0.0, 9.999468, 9.999936 
1.18496045e+3, 2.5511202e+2, -431947.56, -438947.7, -21471.424, -0.04933933, -0.05771407, -413692.8, 26209.652, 0.0, 10.000052, 9.999975 
1.1849458e+3, 2.651118e+2, -363072.34, -442087.78, 42345.445, -0.06484974, -0.031508807, -344666.38, -2760.3816, 0.0000005059796, 10.000235, 9.99919 
1.1849322e+3, 2.7511266e+2, -297513.3, -356657.2, 19691.932, -0.05179442, 0.11533539, -291556.8, -47652.21, 0.000009353779, 9.999998, 9.999219 
1.1849192e+3, 2.8511223e+2, -210093.25, -283291.78, 10186.343, 0.041634064, 0.16549894, -208702.16, -62791.19, 0.000051335024, 10.000015, 9.999035 
1.1849067e+3, 2.951106e+2, -72259.766, -153760.97, 24244.75, 0.23332873, 0.07748137, -65592.87, -17668.168, 0.00017968877, 10.000233, 9.999146 
1.18489206e+3, 3.051105e+2, 42305.395, -44931.01, 160.19287, 0.23128033, 0.1386779, 42305.688, 42305.688, 0.00045955076, 10.000547, 9.99942 
1.184874e+3, 3.1511137e+2, 77517.805, -24075.28, -94436.24, -0.09086713, 0.26838452, 133952.28, 133952.28, 0.0009064869, 10.00073, 9.999478 
1.195147e+3, 1.2513272e+2, -1653252.0, -1603378.4, -4128.4756, -0.18842876, 0.055135544, -1603039.0, 110673.59, 0.0022081332, 10.000065, 10.000705 
1.1951324e+3, 1.3513319e+2, -1556442.8, -1599788.8, -69870.7, 0.084412165, 0.09146848, -1504960.9, 110743.96, 0.0011730703, 10.000429, 9.999918 
1.1951183e+3, 1.4513326e+2, -1500760.5, -1582185.9, 3470.1145, 0.21460998, 0.13737774, -1500612.9, 17091.863, 0.00040013902, 10.000422, 9.999345 
1.1951006e+3, 1.5513368e+2, -1449652.8, -1506016.5, -17680.846, -0.026960602, 0.22723332, -1444565.6, -24861.346, 0.00005450229, 10.000092, 9.999356 
1.195085e+3, 1.651328e+2, -1348720.9, -1403027.9, 15547.646, -0.12043884, 0.20826799, -1344584.8, -22872.814, 0.00000035173326, 10.000095, 9.9993925 
1.1950719e+3, 1.7513064e+2, -1193702.0, -1269088.5, 19249.082, -0.031397965, 0.0291985, -1189071.4, 34656.914, 0.0, 10.000455, 9.999464 
1.1950577e+3, 1.8512943e+2, -1099849.1, -1194824.6, 5716.4126, -0.044980332, -0.021571273, -1099506.4, 26231.068, 0.0, 10.000521, 9.999267 
1.1950426e+3, 1.9512907e+2, -1032157.0, -1104526.6, 17147.588, -0.15630463, -0.0055449046, -1028299.56, -558.8142, 0.0, 10.00028, 9.9993305 
1.1950286e+3, 2.0512903e+2, -921190.2, -981357.0, 1957.0204, -0.1412013, 0.052581757, -921126.56, 8614.503, 0.0, 10.00029, 9.999499 
1.1950155e+3, 2.1512912e+2, -786126.94, -857692.0, 26811.35, -0.0014632549, 0.09241379, -777196.6, 54543.574, 0.0, 10.000515, 9.999564 
1.19500235e+3, 2.2512841e+2, -775902.56, -879575.0, 71589.15, 0.04334479, 0.10448975, -739353.3, -5604.8804, 0.0, 10.000239, 9.998876 
1.19498916e+3, 2.3512684e+2, -781892.06, -820363.06, 42547.98, 0.00025856216, 0.0374637, -754433.5, -118667.164, 0.0, 9.999478, 9.998974 
1.194975e+3, 2.4512686e+2, -573728.06, -474508.88, -30479.201, -0.05442286, 0.059109412, -465893.97, 71870.47, 0.0, 9.999392, 10.000725 
1.1949598e+3, 2.551283e+2, -388122.97, -329214.0, 8362.957, -0.116902344, 0.11035083, -328049.78, 111695.445, 0.0, 9.999973, 10.000767 
1.194946e+3, 2.651282e+2, -401644.84, -506100.66, 26409.5, -0.08275681, 0.13077576, -395347.4, -53601.26, 0.0000006389743, 10.000159, 9.998791 
1.1949332e+3, 2.7512658e+2, -329216.5, -409598.63, 20587.06, 0.034118816, 0.06697811, -324250.63, -80483.17, 0.000009301616, 9.999943, 9.99888 
1.19491965e+3, 2.8512552e+2, -174918.78, -198050.2, 11014.315, 0.08440429, 0.03807447, -170513.25, -24735.816, 0.000051838055, 9.999957, 9.999651 
1.19490564e+3, 2.9512483e+2, -38411.77, -73952.07, 45294.793, 0.0832572, -0.02347768, -7526.0186, 40252.62, 0.00018142357, 10.000182, 9.9997225 
1.1948915e+3, 3.0512404e+2, -70919.2, -248877.23, 5008.132, 0.10382337, 0.019859288, -70778.375, -70778.375, 0.00045547623, 10.000424, 9.998073 
1.194876e+3, 3.1512433e+2, -37498.91, -222028.55, -66840.17, -0.0067413617, 0.21321687, -15832.146, -15832.146, 0.0008857679, 10.0005665, 9.998188 
1.2051474e+3, 1.251453e+2, -1803707.6, -1648291.0, 33321.984, -0.08779791, -0.11232171, -1641448.0, 72131.49, 0.0024257244, 9.998904, 10.000966 
1.20513245e+3, 1.35147e+2, -1551032.0, -1552208.3, -50028.94, 0.050536454, 0.011949026, -1501587.8, 113974.03, 0.0012988481, 10.000281, 10.000312 
1.2051194e+3, 1.4514783e+2, -1475631.1, -1599627.9, -23945.11, 0.27539763, 0.12750174, -1471167.6, 46388.33, 0.00045139206, 10.000715, 9.999089 
1.2051007e+3, 1.5514746e+2, -1459700.6, -1533467.8, -60534.402, -0.012291438, 0.1615059, -1425698.4, -6133.2246, 0.00006471426, 10.000126, 9.999152 
1.205085e+3, 1.6514665e+2, -1372712.5, -1395128.5, 31929.922, -0.11275441, 0.15045793, -1350080.6, -28507.299, 0.00000057087306, 9.999855, 9.999556 
1.2050725e+3, 1.7514531e+2, -1242813.8, -1271570.0, 42154.96, 0.00811719, 0.038118705, -1212652.4, 10929.503, 0.0, 10.000035, 9.999641 
1.2050587e+3, 1.8514423e+2, -1166253.5, -1237018.1, 36175.32, 0.024425333, -0.007052481, -1151033.9, -25443.273, 0.0, 10.000106, 9.999174 
1.2050437e+3, 1.951432e+2, -1065165.1, -1128046.0, 20430.566, -0.06686455, -0.04935648, -1059110.1, -31508.832, 0.0, 10.000085, 9.999258 
1.20502956e+3, 2.0514314e+2, -923760.9, -989680.75, 15157.755, -0.06268576, 0.014111619, -920442.5, 9160.249, 0.0, 10.0002985, 9.999438 
1.20501645e+3, 2.1514386e+2, -756024.0, -850008.6, -11819.704, 0.037487462, 0.12141679, -754560.3, 77036.586, 0.0, 10.00074, 9.999514 
1.2050028e+3, 2.251433e+2, -715547.25, -820758.5, 35429.926, 0.05901767, 0.1379307, -704728.7, 28874.164, 0.0, 10.000528, 9.999142 
1.2049887e+3, 2.3514138e+2, -730794.06, -767952.0, 81684.85, 0.007071158, 0.014656462, -665602.0, -29980.512, 0.0, 9.999712, 9.999224 
1.2049746e+3, 2.4514115e+2, -568279.4, -509251.8, 71952.98, -0.041881297, 0.013379123, -460994.8, 76627.375, 0.0, 9.999586, 10.000388 
1.20496005e+3, 2.5514233e+2, -389182.53, -366828.53, 9366.156, -0.09913366, 0.07195518, -363423.0, 76184.49, 0.00000000020898414, 10.000116, 10.00044 
1.2049466e+3, 2.6514223e+2, -316206.06, -427178.5, 12966.72, -0.054968584, 0.091275364, -314711.1, 26897.045, 0.00000074892756, 10.000594, 9.999113 
1.2049342e+3, 2.7514085e+2, -148689.55, -288130.88, 41701.836, 0.08465437, 0.019070007, -137169.73, 106455.08, 0.000009032264, 10.001034, 9.999184 
1.2049204e+3, 2.851401e+2, -6625.745, -116355.14, 42017.1, 0.10169429, 0.0076115453, 7615.0703, 153246.13, 0.000052112464, 10.001106, 9.999663 
1.2049053e+3, 2.9513985e+2, 44824.5, -33452.75, 6917.888, 0.0056855776, -0.0067046573, 45431.176, 93060.39, 0.00018285186, 10.000753, 9.999728 
1.2048912e+3, 3.051382e+2, -18519.102, -230898.73, 22668.578, 0.032532383, -0.050173152, -16126.499, -16126.499, 0.00045304873, 10.000817, 9.998002 
1.2048774e+3, 3.1513768e+2, 20413.623, -194940.9, 9098.219, 0.070292555, 0.076793365, 20797.318, 20797.318, 0.00086639443, 10.00098, 9.998167 
1.2151465e+3, 1.2516032e+2, -1843650.3, -1729724.9, -28517.164, -0.10521656, -0.09874418, -1722985.3, -9562.232, 0.0026624324, 9.998911, 10.000398 
1.21513076e+3, 1.351608e+2, -1576724.4, -1598666.1, 6921.0034, -0.16193497, -0.06437102, -1574723.8, 40696.79, 0.0014356553, 10.000259, 10.000001 
1.2151184e+3, 1.4516103e+2, -1478914.1, -1605547.4, -52638.53, 0.08588408, 0.0063199983, -1459891.1, 57530.855, 0.0005075534, 10.000714, 9.999048 
1.2151006e+3, 1.5515986e+2, -1463594.1, -1547657.1, -72371.88, -0.050255556, -0.029780408, -1421933.6, -2495.2893, 0.000076397075, 10.000147, 9.999049 
1.21508524e+3, 1.6515988e+2, -1339686.8, -1329990.3, 30435.875, -0.08972132, 0.024771575, -1304018.9, 17420.338, 0.0000008702971, 9.999872, 9.999991 
1.2150729e+3, 1.7516087e+2, -1214471.6, -1212476.3, 55322.355, 0.026561273, 0.10447685, -1158142.6, 65284.125, 0.0, 10.0000305, 10.0000515 
1.2150597e+3, 1.8516037e+2, -1180392.8, -1265614.3, 26280.457, 0.096355826, 0.10635014, -1172940.3, -47509.133, 0.0, 10.000104, 9.99898 
1.2150457e+3, 1.9515829e+2, -1086746.6, -1165228.5, 27620.13, 0.10468843, -0.019925311, -1078000.9, -50547.996, 0.0, 10.000049, 9.9990225 
1.2150315e+3, 2.0515749e+2, -970870.0, -1070502.4, 22804.217, 0.08959366, 0.0072127082, -965898.56, -36434.71, 0.0, 10.000229, 9.998914 
1.2150176e+3, 2.1515775e+2, -805800.0, -928484.5, 10706.046, 0.06765631, 0.1204438, -804872.75, 26592.98, 0.0, 10.000634, 9.9990225 
1.2150033e+3, 2.2515778e+2, -631654.56, -622725.94, -5597.9517, 0.042392854, 0.14772339, -620030.1, 113432.96, 0.0, 10.0004225, 10.000554 
1.2149887e+3, 2.351575e+2, -646842.1, -571923.7, 59292.832, 0.012262908, 0.04513515, -539248.5, 96208.51, 0.0, 9.999618, 10.000616 
1.2149745e+3, 2.4515636e+2, -685648.44, -729425.8, 85840.31, -0.022329535, -0.04150219, -618950.0, -81484.82, 0.0, 9.999487, 9.998921 
1.2149608e+3, 2.5515416e+2, -499765.8, -580910.56, 37038.926, -0.055126205, -0.1738385, -485401.88, -45912.98, 0.00000000018849695, 10.000052, 9.998998 
1.2149475e+3, 2.6515394e+2, -254351.33, -285402.94, 23233.25, -0.041766535, -0.149326, -241933.72, 99558.11, 0.00000061447383, 10.000533, 10.000119 
1.2149348e+3, 2.751554e+2, -86281.96, -147081.28, 68373.08, 0.021103917, -0.03497936, -41855.04, 201621.72, 0.000008322687, 10.00098, 10.000181 
1.21492065e+3, 2.85156e+2, -71776.83, -228843.53, 21869.973, 0.0088719055, 0.074964695, -68788.51, 76683.12, 0.000050693892, 10.001011, 9.998937 
1.2149054e+3, 2.9515573e+2, -10361.837, -135211.7, 7936.399, -0.07316753, 0.12813285, -9859.362, 37617.484, 0.00018217303, 10.000697, 9.999055 
1.21489145e+3, 3.0515286e+2, 48691.832, -70141.63, 24743.941, -0.045131505, -0.06586596, 53638.215, 53638.215, 0.00045205725, 10.000733, 9.999144 
1.214878e+3, 3.151513e+2, 93024.92, -4646.6143, 35590.207, -0.008069421, -0.15597503, 104617.586, 104617.586, 0.00085648143, 10.000828, 9.99954 
1.2251466e+3, 1.2517475e+2, -1663547.8, -1675138.8, -136228.48, -0.040753454, -0.06903443, -1532991.5, 180290.83, 0.0029179724, 10.000248, 10.000148 
1.22512974e+3, 1.3517487e+2, -1748713.8, -1679863.8, -21867.01, -0.21424162, -0.07186468, -1673505.9, -58222.973, 0.0015834377, 9.99906, 10.000027 
1.2251171e+3, 1.4517511e+2, -1650245.4, -1638980.5, -20551.34, -0.047295928, -0.023455514, -1623303.8, -106021.086, 0.00056846405, 9.9993305, 9.999481 
1.2251012e+3, 1.5517417e+2, -1312877.0, -1423654.5, -24809.898, -0.04518728, -0.08366583, -1307574.4, 111720.26, 0.00008951281, 10.000967, 9.9994955 
1.2250863e+3, 1.6517423e+2, -1172780.4, -1303941.5, 46520.977, -0.038521595, -0.024468258, -1157955.6, 163339.94, 0.0000012652538, 10.001232, 9.999529 
1.225073e+3, 1.7517513e+2, -1216812.9, -1261636.1, -2109.6453, 0.027756419, 0.090664476, -1216713.8, 6573.2563, 0.0, 10.000211, 9.999636 
1.2250595e+3, 1.8517493e+2, -1223624.9, -1259535.9, -15240.649, 0.0886164, 0.13152842, -1218028.8, -92739.17, 0.0, 9.999689, 9.999226 
1.2250456e+3, 1.951735e+2, -1119559.4, -1149157.3, 1525.9476, 0.12818085, 0.046481937, -1119480.9, -92176.42, 0.0, 9.999694, 9.999304 
1.22503184e+3, 2.0517263e+2, -1012923.7, -1085107.9, 68312.68, 0.12352122, 0.048169207, -971754.75, -42439.086, 0.0, 9.999909, 9.99897 
1.2250182e+3, 2.1517208e+2, -855877.3, -945694.25, 86759.805, 0.08941403, 0.07652178, -803092.2, 28232.635, 0.0, 10.000262, 9.999083 
1.22500405e+3, 2.2517209e+2, -600429.94, -616125.5, 30581.24, 0.05767858, 0.101920485, -576705.6, 156616.75, 0.0, 10.000668, 10.000481 
1.224989e+3, 2.3517245e+2, -431143.44, -477343.22, -37468.23, 0.01828953, 0.06959706, -410226.6, 225083.69, 0.0, 10.001128, 10.00054 
1.2249751e+3, 2.4517126e+2, -493444.03, -681262.3, -4562.8438, 0.016920201, 0.0024456247, -493333.25, 43986.563, 0.0, 10.000998, 9.998529 
1.224962e+3, 2.5516847e+2, -481743.47, -611640.2, 13453.565, 0.053718496, -0.1509682, -480364.72, -41013.484, 0.0, 10.000355, 9.998641 
1.2249484e+3, 2.6516807e+2, -300686.9, -260132.02, 37907.395, 0.025121832, -0.1493235, -237419.4, 103935.63, 0.0000003685213, 10.000008, 10.000549 
1.2249343e+3, 2.7516973e+2, -219315.23, -165351.95, 20876.729, -0.06782712, -0.0555344, -158218.39, 85116.06, 0.0000073761885, 9.999876, 10.0005865 
1.2249204e+3, 2.8517064e+2, -216962.1, -335282.25, -17980.842, -0.06656802, 0.08195118, -214289.94, -68963.31, 0.00004908337, 10.000162, 9.99861 
1.224907e+3, 2.9517072e+2, -26370.652, -180910.5, -19432.781, 0.025578767, 0.20432684, -23964.518, 23367.615, 0.00018062291, 10.000749, 9.998715 
1.2248933e+3, 3.051675e+2, 158309.73, 9579.355, 1496.4424, 0.042477485, -0.02006291, 158324.8, 158324.8, 0.00044944658, 10.001363, 9.999397 
1.2248784e+3, 3.1516558e+2, 271064.8, 140112.53, -91537.805, -0.08504517, -0.17190674, 318133.3, 318133.3, 0.0008490022, 10.0017605, 10.000105 
1.23514734e+3, 1.2518838e+2, -1638938.1, -1625851.9, -239883.13, -0.020992462, -0.05145013, -1392422.8, 320735.9, 0.0031899144, 10.0002575, 10.000482 
1.2351294e+3, 1.3518924e+2, -1715817.6, -1617825.6, -58939.96, -0.17759798, -0.020620475, -1590176.1, 24971.623, 0.0017411282, 9.999084, 10.000439 
1.235115e+3, 1.4519003e+2, -1586416.0, -1515648.8, 36061.402, -0.20568083, 0.021225372, -1500510.8, 16627.453, 0.0006337289, 9.999363, 10.000316 
1.2351022e+3, 1.5519026e+2, -1252583.1, -1308351.6, 41162.695, -0.057064626, -0.004934132, -1230749.3, 188385.66, 0.00010392506, 10.000993, 10.000284 
1.2350879e+3, 1.6518958e+2, -1255385.0, -1470174.6, -3494.9656, -0.018268162, -0.0010488409, -1255328.1, 65815.2, 0.0000017603737, 10.001217, 9.99839 
1.23507254e+3, 1.7518808e+2, -1298138.0, -1429856.9, -33582.13, -0.051703583, -0.010138833, -1290070.4, -66907.98, 0.0, 10.000207, 9.998483 
1.23505786e+3, 1.851879e+2, -1179003.3, -1166667.5, -22559.041, -0.06301503, 0.05928903, -1149448.4, -24282.566, 0.0, 9.999689, 9.999864 
1.2350437e+3, 1.9518882e+2, -1078202.3, -1057563.9, 10158.197, -0.05654377, 0.14347856, -1053402.9, -26246.541, 0.0, 9.999666, 9.9999485 
1.2350305e+3, 2.0518851e+2, -973338.56, -986458.6, 70590.414, -0.020726424, 0.13383035, -909004.0, 20154.848, 0.0, 9.999841, 9.999679 
1.2350182e+3, 2.1518695e+2, -822881.3, -858581.25, 106104.734, 0.044396747, -0.009754392, -733135.56, 98037.98, 0.0, 10.000179, 9.9997225 
1.2350045e+3, 2.2518627e+2, -726559.06, -854232.1, 39628.09, 0.03669373, -0.0011801318, -715259.1, 17921.137, 0.0, 10.0005665, 9.998895 
1.23498976e+3, 2.3518628e+2, -555692.6, -713781.1, -12728.07, -0.038985804, 0.08805011, -554674.44, 80506.836, 0.0, 10.001036, 9.9989605 
1.23497605e+3, 2.4518596e+2, -457003.3, -587773.9, -37398.527, 0.0038613316, 0.15246676, -447063.38, 90122.266, 0.0, 10.000921, 9.9992075 
1.2349636e+3, 2.5518522e+2, -441670.1, -516641.6, -2521.4048, 0.16196592, 0.13630538, -441585.38, -2390.984, 0.0, 10.000297, 9.999324 
1.234949e+3, 2.6518455e+2, -331171.6, -298664.63, 26187.96, 0.074980654, 0.08572614, -284096.28, 57101.906, 0.00000016286783, 9.999906, 10.000332 
1.2349325e+3, 2.7518374e+2, -246666.28, -204087.11, 26504.242, -0.24638979, -0.0478704, -191380.78, 51817.87, 0.000006622681, 9.9998, 10.000356 
1.2349196e+3, 2.851839e+2, -226397.69, -330995.6, -814.69165, -0.19031778, 0.021259807, -226391.34, -81194.13, 0.0000487502, 10.000064, 9.998685 
1.23491004e+3, 2.951847e+2, -32837.805, -179028.42, 15343.953, 0.23320965, 0.20962621, -31244.69, 15951.731, 0.00018150224, 10.000679, 9.998765 
1.2348966e+3, 3.0518207e+2, 95024.89, -101545.25, 15133.786, 0.21550153, 0.07910371, 96183.21, 96183.21, 0.00045012333, 10.001276, 9.998676 
1.2348783e+3, 3.151807e+2, 239510.33, 103535.75, -53251.734, -0.30976552, 0.04989088, 257882.86, 257882.86, 0.0008459935, 10.001637, 9.999911 
1.245147e+3, 1.2520438e+2, -1807926.8, -1674709.4, -73918.89, -0.018622497, 0.031471312, -1641815.6, 71193.09, 0.003475539, 9.9989805, 10.000749 
1.24513015e+3, 1.3520543e+2, -1554615.4, -1521390.4, 44355.0, -0.050612174, 0.062939756, -1490638.9, 124352.88, 0.0019075654, 10.000116, 10.000607 
1.2451139e+3, 1.4520553e+2, -1544152.6, -1557025.1, 102932.75, -0.26749867, 0.056767195, -1447455.1, 69532.62, 0.0007030745, 9.999914, 9.999771 
1.2451019e+3, 1.552053e+2, -1616994.3, -1538699.3, -5655.7275, -0.06379036, 0.03739614, -1538292.8, -119302.66, 0.00011956255, 9.998734, 9.999791 
1.2450879e+3, 1.6520435e+2, -1565972.1, -1593879.6, -26492.96, -0.01663818, 0.026477175, -1549982.9, -228981.77, 0.0000023468863, 9.998976, 9.99862 
1.24507226e+3, 1.7520267e+2, -1236589.3, -1372807.5, 26925.334, -0.11013856, -0.02307937, -1231460.3, -8439.979, 0.0, 10.000519, 9.998715 
1.2450575e+3, 1.852023e+2, -991638.8, -1104563.0, 52787.0, -0.12748964, 0.026940702, -970806.44, 154218.3, 0.0, 10.00109, 9.999614 
1.2450437e+3, 1.9520293e+2, -935400.44, -1016956.6, 8961.419, -0.06917744, 0.10635111, -934427.4, 92590.305, 0.0, 10.000758, 9.999704 
1.2450305e+3, 2.0520282e+2, -870026.9, -919855.5, 42780.41, -0.023066936, 0.12235375, -845434.8, 83583.1, 0.0, 10.00047, 9.999836 
1.2450181e+3, 2.1520194e+2, -806767.44, -830374.56, 20862.896, 0.017376037, 0.027846925, -794600.5, 36425.27, 0.0, 10.0002, 9.999906 
1.2450049e+3, 2.2520116e+2, -774622.06, -925142.6, 15931.491, 0.023983419, 0.036214083, -772954.3, -39919.46, 0.0, 10.000447, 9.998465 
1.2449912e+3, 2.3520026e+2, -564360.75, -762929.2, 34741.98, -0.0005570064, 0.078239605, -558457.7, 76589.44, 0.0, 10.001172, 9.998556 
1.2449774e+3, 2.4520002e+2, -385419.72, -542364.75, 7137.7476, 0.025359964, 0.1670162, -385095.75, 151955.66, 0.0, 10.001366, 9.999305 
1.2449636e+3, 2.5520036e+2, -328174.47, -451153.56, -19348.928, 0.10139674, 0.24778445, -325202.03, 113847.055, 0.0, 10.001036, 9.999414 
1.24494895e+3, 2.6519942e+2, -199074.38, -300802.22, 9388.137, 0.029155595, 0.20036586, -198215.22, 142839.84, 0.000000050542315, 10.001089, 9.999747 
1.2449337e+3, 2.7519724e+2, -43795.094, -172842.05, -37424.29, -0.18422337, -0.013588515, -33727.31, 209342.67, 0.0000061370592, 10.001467, 9.999774 
1.2449208e+3, 2.851967e+2, -61311.87, -207460.33, -64564.85, -0.11926128, -0.0053111045, -36874.754, 108199.68, 0.000049450737, 10.001013, 9.999081 
1.24491006e+3, 2.951974e+2, -137791.34, -184418.42, -44203.055, 0.2161446, 0.13236511, -111130.586, -64058.266, 0.00018681613, 9.999774, 9.999161 
1.2448966e+3, 3.0519554e+2, -176482.86, -248827.61, 37826.313, 0.19552702, 0.06839021, -160317.19, -160317.19, 0.00046226173, 9.999463, 9.998543 
1.2448799e+3, 3.151955e+2, 15019.137, 31673.373, -16744.455, -0.2236228, 0.18290931, 42046.992, 42046.992, 0.0008624877, 9.999934, 10.000239 
1.2551458e+3, 1.2522326e+2, -1782429.3, -1641649.5, 31112.54, -0.058846056, 0.22743544, -1635080.1, 77748.15, 0.0037739007, 9.999059, 10.000937 
1.2551321e+3, 1.3522331e+2, -1558670.4, -1543982.8, 86134.16, 0.11388442, 0.16841501, -1464879.9, 149936.25, 0.0020822603, 10.000158, 10.00044 
1.2551138e+3, 1.4522158e+2, -1667502.5, -1814205.3, 47336.42, -0.28971294, 0.07859067, -1653554.6, -136723.44, 0.0007764397, 9.999923, 9.997999 
1.2551002e+3, 1.5521932e+2, -1728900.0, -1781804.0, -38880.285, -0.12884824, 0.032405317, -1708326.6, -289466.78, 0.00013646827, 9.998777, 9.998104 
1.2550864e+3, 1.6521849e+2, -1458304.8, -1376390.1, 23790.898, -0.09275517, 0.041377876, -1369981.8, -49112.813, 0.0000030208696, 9.9990015, 10.000098 
1.255072e+3, 1.7521891e+2, -1136048.6, -1165548.4, 88535.555, -0.19747992, 0.05150534, -1061042.8, 161817.98, 0.0, 10.000521, 10.000139 
1.2550585e+3, 1.8521805e+2, -1063136.4, -1251031.8, 30426.252, -0.16234493, 0.033859506, -1058332.3, 66534.836, 0.0, 10.0010805, 9.998613 
1.2550455e+3, 1.9521587e+2, -1008043.5, -1162815.0, 2849.556, 0.017532071, -0.067010164, -1007991.06, 18897.22, 0.0, 10.000733, 9.998714 
1.255032e+3, 2.0521563e+2, -907787.75, -979539.4, 24093.68, 0.053464368, 0.003971763, -900448.06, 28444.236, 0.0, 10.000394, 9.999465 
1.2550177e+3, 2.1521708e+2, -845532.8, -889485.9, 18390.684, -0.052179422, 0.18229687, -838853.0, -7971.628, 0.0, 10.000109, 9.999547 
1.2550047e+3, 2.2521666e+2, -737312.8, -824850.44, 34534.1, -0.046825435, 0.2069823, -725329.4, 7557.2637, 0.0, 10.000347, 9.999202 
1.2549932e+3, 2.3521437e+2, -523400.66, -663207.75, 68602.49, 0.06992526, 0.03649142, -495361.34, 139546.56, 0.0, 10.001102, 9.999277 
1.2549788e+3, 2.452135e+2, -433526.63, -620274.7, -12951.007, 0.018412227, 0.048402075, -432632.75, 104284.06, 0.0, 10.001269, 9.9988165 
1.2549618e+3, 2.5521377e+2, -377199.56, -536483.4, -22075.482, -0.19094084, 0.17146683, -374196.7, 64719.367, 0.0, 10.000958, 9.998866 
1.2549482e+3, 2.6521263e+2, -286492.28, -457383.34, 16194.618, -0.17173994, 0.18174616, -284971.13, 55956.086, 0.00000007625481, 10.000987, 9.998719 
1.2549378e+3, 2.7521014e+2, -124821.79, -319287.44, -14901.426, 0.056295842, 0.041663606, -123686.56, 119263.086, 0.0000061507535, 10.001377, 9.998811 
1.2549238e+3, 2.8520897e+2, -21337.748, -112008.4, -119222.2, 0.069785975, 0.0023075459, 60877.8, 205836.8, 0.000051587293, 10.000951, 9.999766 
1.2549068e+3, 2.9520875e+2, -99435.31, -94968.375, -78086.52, -0.1090826, -0.026726363, -19083.38, 27876.447, 0.0001993085, 9.999721, 9.999803 
1.2548934e+3, 3.052078e+2, -157947.1, -189914.95, 50179.008, -0.0933884, -0.052283388, -121267.76, -121267.76, 0.00049473415, 9.99938, 9.998983 
1.2548827e+3, 3.152095e+2, 38601.055, 128235.8, 19562.37, 0.04044741, 0.18935972, 132319.17, 132319.17, 0.0009169739, 9.999733, 10.001 
1.2651452e+3, 1.2523888e+2, -1565289.4, -1576838.6, 35472.305, -0.09753702, 0.26690367, -1535124.8, 177551.69, 0.004085261, 10.000735, 10.00057 
1.2651332e+3, 1.3523802e+2, -1653582.5, -1651368.9, -84362.01, 0.23374395, 0.17771855, -1568106.4, 46568.957, 0.0022650692, 9.999788, 9.9998665 
1.2651144e+3, 1.452361e+2, -1693168.3, -1802048.1, -48656.867, -0.20495376, 0.086066976, -1674593.1, -157900.52, 0.00085386867, 9.999642, 9.998219 
1.2650998e+3, 1.5523432e+2, -1446172.0, -1616305.0, -3383.6, -0.123009905, 0.06619853, -1446104.8, -27389.098, 0.00015477135, 10.000603, 9.998354 
1.2650861e+3, 1.652338e+2, -1233198.1, -1291408.0, 100026.01, -0.090896085, 0.10384612, -1158128.6, 162593.0, 0.0000038088367, 10.000642, 9.999891 
1.2650727e+3, 1.7523432e+2, -1236974.5, -1233881.5, 27924.602, -0.15344621, 0.14212222, -1207460.6, 15252.568, 0.0, 9.999914, 9.999962 
1.2650593e+3, 1.8523319e+2, -1224139.0, -1303750.8, -37023.082, -0.120561324, 0.09323377, -1209583.0, -84861.766, 0.0, 9.999871, 9.998835 
1.265046e+3, 1.952304e+2, -1036652.25, -1152370.0, 8494.998, 0.017437939, -0.09004395, -1036031.94, -9285.8955, 0.0, 10.000443, 9.998923 
1.2650323e+3, 2.0522986e+2, -918625.4, -1028608.56, 69908.664, 0.04854597, -0.038653053, -884671.5, 44080.36, 0.0, 10.00051, 9.999067 
1.265018e+3, 2.1523124e+2, -878187.3, -949199.44, 48341.004, -0.030998852, 0.1727717, -853713.94, -22972.125, 0.0, 10.000074, 9.999149 
1.2650052e+3, 2.2523075e+2, -775557.3, -824878.8, 90009.83, -0.015955633, 0.2030286, -706891.1, 25856.57, 0.0, 10.000001, 9.999371 
1.264994e+3, 2.3522851e+2, -642103.06, -699808.0, 64495.582, 0.09612868, 0.018898599, -600300.44, 34468.2, 0.0, 10.000204, 9.999457 
1.2649797e+3, 2.4522759e+2, -567236.9, -682582.3, -27387.795, 0.0387836, 0.014912103, -561064.25, -24286.68, 0.0, 10.000344, 9.99883 
1.2649627e+3, 2.5522766e+2, -454147.34, -573363.6, -14153.627, -0.17415956, 0.11964625, -452490.03, -13712.525, 0.0, 10.000429, 9.998866 
1.2649493e+3, 2.6522633e+2, -421409.28, -576872.9, 85407.85, -0.12259389, 0.13867605, -383656.3, -42864.992, 0.00000015326442, 10.000286, 9.998243 
1.2649395e+3, 2.7522367e+2, -377010.66, -490702.9, 77309.24, 0.17188987, 0.027515953, -337897.44, -95078.88, 0.0000068361555, 9.999855, 9.998367 
1.2649249e+3, 2.8522256e+2, -158108.0, -174871.73, -27138.818, 0.14204279, 0.011172251, -138086.16, 6742.117, 0.00005543398, 10.000007, 9.999781 
1.2649062e+3, 2.9522258e+2, 56179.984, -18968.813, -57706.79, -0.17641734, 0.010011069, 87467.11, 134292.0, 0.00021874357, 10.0007925, 9.999801 
1.2648925e+3, 3.0522186e+2, 33772.957, -86858.89, 44489.574, -0.169193, 0.001612923, 48405.902, 48405.902, 0.0005474256, 10.000663, 9.999069 
1.2648831e+3, 3.1522238e+2, 26784.852, 152178.86, -52271.277, 0.12806618, 0.11750343, 171110.28, 171110.28, 0.0010137463, 9.999533, 10.001257 
1.2751453e+3, 1.2525181e+2, -1624832.0, -1701458.3, 99350.984, -0.21255666, 0.19429506, -1556662.8, 155884.8, 0.0044096503, 10.0007515, 9.9997 
1.2751332e+3, 1.3524972e+2, -1721410.8, -1801077.0, -119310.914, 0.23889193, 0.09213181, -1635459.3, -20892.0, 0.0024558255, 9.999812, 9.998836 
1.2751153e+3, 1.4524919e+2, -1540614.4, -1486824.1, -22580.752, -0.08979479, 0.07834049, -1478601.8, 37969.215, 0.00093550276, 9.999654, 10.000371 
1.2751009e+3, 1.5525033e+2, -1303600.6, -1323851.9, 38336.91, -0.10686467, 0.13403387, -1274074.6, 144483.2, 0.00017466526, 10.000616, 10.000355 
1.275087e+3, 1.652502e+2, -1350453.8, -1543234.3, 62405.93, -0.078339234, 0.2037521, -1332015.5, -11454.985, 0.0000047674703, 10.000673, 9.99815 
1.2750739e+3, 1.7524894e+2, -1349506.3, -1473853.4, 6843.487, -0.046761762, 0.23935737, -1349130.8, -126553.375, 0.0, 9.999936, 9.998307 
1.2750599e+3, 1.8524775e+2, -1128400.5, -1104757.4, -21922.123, -0.07000286, 0.19557598, -1091672.5, 32914.33, 0.0, 9.999869, 10.0002 
1.2750451e+3, 1.952465e+2, -945852.6, -961586.3, 36451.06, -0.13104142, 0.029593777, -916429.2, 110161.53, 0.0, 10.000429, 10.00024 
1.2750316e+3, 2.0524547e+2, -958519.56, -1097175.4, 43609.824, -0.098420866, -0.0111202765, -945944.0, -17347.09, 0.0, 10.000448, 9.998628 
1.2750186e+3, 2.1524447e+2, -921055.56, -1015511.1, 38183.53, 0.017203836, 0.0038733901, -907550.75, -76944.1, 0.0, 9.999977, 9.99874 
1.275006e+3, 2.2524358e+2, -818241.75, -886045.75, 89762.92, 0.05358611, 0.02996091, -756192.06, -23574.926, 0.0, 9.9998865, 9.999004 
1.2749936e+3, 2.3524264e+2, -681850.25, -760887.8, 81106.05, 0.018184647, 0.014671032, -631147.5, 3482.052, 0.0, 10.000111, 9.999082 
1.2749802e+3, 2.4524218e+2, -551757.94, -625291.44, -32141.938, 0.031164369, 0.05544375, -539689.3, -3054.846, 0.0, 10.000237, 9.999275 
1.2749659e+3, 2.5524208e+2, -432354.63, -507185.2, -3161.0798, 0.08811646, 0.09142855, -432221.3, 6411.9634, 0.0, 10.00034, 9.999361 
1.274952e+3, 2.6524073e+2, -427072.1, -568736.9, 62089.555, 0.10773178, 0.075679205, -403711.38, -63064.797, 0.00000020123079, 10.000198, 9.998341 
1.2749386e+3, 2.75238e+2, -388111.34, -490718.16, 73649.92, 0.085340664, -0.05127324, -349657.56, -106982.234, 0.0000077157165, 9.99976, 9.998411 
1.274924e+3, 2.852375e+2, -223689.92, -293162.1, -5578.7983, 0.02769139, 0.032403212, -223244.78, -78563.375, 0.000060402712, 9.999928, 9.999004 
1.2749085e+3, 2.9523888e+2, -9166.84, -132083.16, -17171.605, -0.053150665, 0.24088757, -6813.014, 39854.84, 0.00024154171, 10.000699, 9.999067 
1.274894e+3, 3.0523765e+2, -4450.4907, -151541.95, -3550.3445, -0.09999879, 0.23959988, -4364.846, -4364.846, 0.0006104457, 10.000595, 9.998658 
1.2748805e+3, 3.1523427e+2, -23274.207, 87384.64, -76493.27, -0.12458671, -0.0026856693, 126461.6, 126461.6, 0.0011368401, 9.999381, 10.0008745 
1.2851469e+3, 1.2526473e+2, -1720038.4, -1711438.4, 166253.89, -0.0647717, 0.11940384, -1549428.9, 162990.75, 0.0047468157, 9.999932, 10.000032 
1.2851316e+3, 1.352634e+2, -1736248.4, -1760934.0, -50235.484, 0.12536801, 0.057280444, -1696861.6, -82427.5, 0.0026545508, 9.999515, 9.999249 
1.2851155e+3, 1.452639e+2, -1523884.0, -1453362.4, 106997.16, -0.043879703, 0.11245382, -1375965.6, 140462.66, 0.0010215283, 9.999654, 10.000605 
1.2851018e+3, 1.552654e+2, -1280921.6, -1284429.4, 15481.954, -0.06147497, 0.18253423, -1267094.5, 151316.34, 0.00019628371, 10.000651, 10.000606 
1.285088e+3, 1.6526501e+2, -1356790.8, -1557316.0, -8711.774, -0.028728824, 0.21791214, -1356412.9, -35997.113, 0.0000059623408, 10.000679, 9.998057 
1.2850742e+3, 1.752629e+2, -1376316.6, -1498765.3, 41896.84, 0.0076254844, 0.17999142, -1363353.6, -140912.53, 0.0, 9.999805, 9.998205 
1.2850599e+3, 1.852619e+2, -1166397.1, -1148958.6, 73908.32, -0.03466977, 0.17458238, -1083257.0, 41192.6, 0.0, 9.999723, 9.999965 
1.2850454e+3, 1.9526178e+2, -961500.7, -993679.56, -2444.0571, -0.14079565, 0.14323357, -961316.1, 65128.434, 0.0, 10.000434, 10.000015 
1.285032e+3, 2.0526044e+2, -867464.25, -1055951.6, -42306.69, -0.100219, 0.084223345, -858403.9, 70049.31, 0.0, 10.001083, 9.998606 
1.28502e+3, 2.1525787e+2, -683910.0, -903935.25, -33671.81, 0.07404879, -0.056247167, -678872.3, 151603.05, 0.0, 10.001615, 9.998719 
1.285007e+3, 2.2525679e+2, -661260.4, -826893.1, 26166.26, 0.110607155, -0.039706733, -657225.0, 75262.18, 0.0, 10.001037, 9.998855 
1.2849934e+3, 2.3525694e+2, -784754.2, -824585.4, 17565.252, 0.02147795, 0.06981665, -778114.8, -143624.11, 0.0, 9.99947, 9.998951 
1.28498e+3, 2.4525665e+2, -625855.1, -639017.56, -21467.264, 0.037490327, 0.12278632, -609982.94, -73488.71, 0.0, 9.99962, 9.999485 
1.2849672e+3, 2.5525585e+2, -284418.38, -416053.06, -29341.37, 0.15150085, 0.07024703, -278174.38, 160324.36, 0.0, 10.001262, 9.999552 
1.2849534e+3, 2.652547e+2, -211939.28, -464456.22, -17591.193, 0.15040715, 0.06685335, -210719.72, 129790.03, 0.00000014147287, 10.00168, 9.998335 
1.2849385e+3, 2.7525306e+2, -200638.58, -402068.9, -35215.332, 0.040994838, 0.047674324, -194659.48, 47869.16, 0.000007879153, 10.001055, 9.998393 
1.284924e+3, 2.8525215e+2, -138830.4, -287742.16, -49401.434, 0.0064691324, 0.108481966, -123932.05, 20606.287, 0.00006525831, 10.000664, 9.998693 
1.2849098e+3, 2.952518e+2, -73465.82, -199723.58, -51545.72, 0.050289612, 0.17439656, -55094.906, -8553.866, 0.00026775803, 10.000409, 9.998746 
1.2848952e+3, 3.0525053e+2, -62284.55, -201702.94, -25602.924, -0.026121262, 0.19466618, -57731.496, -57731.496, 0.0006827303, 10.000298, 9.998456 
1.2848797e+3, 3.1524724e+2, 85890.08, 88845.34, -120748.5, -0.17558086, -0.014999106, 208125.25, 208125.25, 0.0012767545, 10.000321, 10.000447 
1.2951487e+3, 1.2527716e+2, -1621386.4, -1503174.0, 135785.94, 0.070742324, -0.011040647, -1414187.8, 298109.5, 0.0050962004, 9.999918, 10.001472 
1.2951285e+3, 1.3527891e+2, -1618435.9, -1517748.9, -65421.617, -0.16260965, 0.059541695, -1485542.6, 128734.68, 0.0028611089, 9.999521, 10.0009165 
1.2951145e+3, 1.4528006e+2, -1626021.6, -1673602.3, 130750.47, -0.124916695, 0.17635149, -1516914.8, -648.26025, 0.00111182, 9.999688, 9.999077 
1.2951028e+3, 1.5527977e+2, -1379636.6, -1495665.1, 58210.47, -0.052429974, 0.21902086, -1355467.5, 62805.52, 0.000219555, 10.00067, 9.999149 
1.2950891e+3, 1.6527839e+2, -1253010.1, -1341022.8, -52535.105, -0.016435899, 0.15202676, -1228485.5, 91800.68, 0.0000074533, 10.000675, 9.999541 
1.2950736e+3, 1.7527626e+2, -1276642.9, -1296277.8, 14766.418, -0.044770267, -0.0382076, -1268728.1, -46424.4, 0.0, 9.999824, 9.999583 
1.2950595e+3, 1.852757e+2, -1292817.8, -1415073.6, 91813.516, -0.069780745, 0.026859535, -1243644.5, -119335.26, 0.0, 9.999736, 9.998137 
1.2950468e+3, 1.952763e+2, -1086322.9, -1250799.3, 31404.127, -0.07415597, 0.25152352, -1080530.8, -54224.008, 0.0, 10.000422, 9.998259 
1.2950341e+3, 2.052748e+2, -851153.2, -1005916.75, -29617.006, -0.02143006, 0.24307376, -845679.0, 82641.15, 0.0, 10.001017, 9.99898 
1.2950218e+3, 2.152714e+2, -674336.44, -860377.8, -8992.152, 0.079162896, -0.019925555, -673902.8, 156445.45, 0.0, 10.001514, 9.999065 
1.2950079e+3, 2.2527039e+2, -677816.4, -833899.3, -40601.457, 0.094376214, -0.011469933, -667886.56, 64471.285, 0.0, 10.000918, 9.998864 
1.294993e+3, 2.3527145e+2, -796784.2, -825784.2, -28930.438, 0.035206545, 0.18441385, -778923.44, -144571.56, 0.0, 9.999367, 9.998993 
1.2949793e+3, 2.4527101e+2, -645442.44, -650180.25, 32641.92, -0.014896318, 0.22037706, -615083.56, -78726.65, 0.0, 9.999499, 9.999465 
1.2949665e+3, 2.5526905e+2, -301945.75, -427638.97, 39711.594, -0.054214936, 0.055691008, -290450.53, 147923.08, 0.0, 10.001164, 9.999515 
1.2949531e+3, 2.6526842e+2, -236262.2, -502620.84, -49052.61, -0.057824552, 0.11588462, -227515.88, 112864.5, 0.000000052302592, 10.001615, 9.998111 
1.2949389e+3, 2.752689e+2, -222608.47, -429619.75, -48470.21, -0.03485696, 0.3317347, -211821.6, 30556.639, 0.000007172051, 10.000974, 9.998245 
1.2949246e+3, 2.852666e+2, -141741.22, -275327.2, -67125.48, -0.0013787992, 0.24763452, -113839.266, 30559.88, 0.000069658236, 10.000577, 9.998823 
1.2949105e+3, 2.9526138e+2, -80226.96, -194170.98, -49287.195, 0.048355382, -0.18450373, -61866.13, -15422.146, 0.0002984911, 10.000324, 9.998825 
1.2948957e+3, 3.0526048e+2, -85031.84, -225522.28, -31740.629, -0.020001758, -0.12015438, -78193.61, -78193.61, 0.0007671863, 10.000208, 9.998332 
1.2948808e+3, 3.1526145e+2, 24830.498, 17697.87, -95554.71, -0.1413395, 0.10162902, 116885.42, 116885.42, 0.001436353, 10.000111, 10.000046 
1.3051498e+3, 1.2529153e+2, -1914950.1, -1672461.4, 153299.64, 0.2948313, 0.043643694, -1598255.1, 113904.41, 0.0054552136, 9.998009, 10.001233 
1.3051271e+3, 1.3529369e+2, -1425877.6, -1417336.3, -147779.1, -0.29292488, 0.15459038, -1273766.1, 340369.7, 0.003073975, 10.000818, 10.00098 
1.3051154e+3, 1.4529452e+2, -1425993.0, -1622984.6, -2280.6855, -0.08270235, 0.2513275, -1425966.6, 90162.24, 0.0012055306, 10.001255, 9.998671 
1.3051033e+3, 1.5529284e+2, -1557632.1, -1626194.9, -9794.895, -0.012654497, 0.2007338, -1556260.3, -138111.27, 0.000244213, 9.999645, 9.998748 
1.3050894e+3, 1.652916e+2, -1378483.3, -1356660.6, -86209.32, 0.009693877, 0.1477805, -1280674.9, 39485.67, 0.000009295233, 9.99963, 9.999935 
1.3050742e+3, 1.7529091e+2, -1061486.9, -1149164.4, -115331.28, -0.032773588, 0.061122783, -981943.5, 240219.64, 0.0, 10.001123, 9.999963 
1.3050602e+3, 1.8529035e+2, -1052646.4, -1314150.9, -9767.153, -0.04186695, 0.11285202, -1052282.1, 71885.61, 0.0, 10.001445, 9.998005 
1.3050477e+3, 1.9528969e+2, -1059428.6, -1254680.8, 37578.83, -0.023527848, 0.22524731, -1052445.9, -26269.402, 0.0, 10.000675, 9.998112 
1.3050349e+3, 2.0528802e+2, -989876.9, -1079265.5, 36766.21, 0.005424062, 0.21237095, -976697.75, -48505.727, 0.0, 10.000097, 9.998918 
1.3050218e+3, 2.1528548e+2, -941662.1, -992162.94, 9567.405, 0.042974863, 0.0413943, -939910.3, -109696.516, 0.0, 9.999706, 9.999028 
1.3050081e+3, 2.2528467e+2, -777403.0, -853988.44, -22704.287, 0.060128413, 0.058550563, -771178.1, -38957.367, 0.0, 10.000109, 9.999115 
1.3049935e+3, 2.352853e+2, -520978.1, -668336.94, -10004.459, 0.058342054, 0.1858959, -520301.97, 113913.94, 0.0, 10.00115, 9.999213 
1.3049796e+3, 2.4528457e+2, -482854.84, -624095.6, 68888.91, -0.00054102746, 0.20728539, -454819.66, 81403.945, 0.0, 10.000842, 9.998994 
1.3049662e+3, 2.552825e+2, -594927.1, -620541.94, 25086.098, -0.106570154, 0.07654034, -579568.2, -141324.0, 0.0, 9.999365, 9.99906 
1.3049532e+3, 2.6528177e+2, -550587.75, -605480.5, -32508.018, -0.08347242, 0.13013923, -535489.2, -195237.94, 0.000000026393016, 9.999258, 9.998538 
1.3049403e+3, 2.7528217e+2, -278520.2, -415439.38, -5916.432, 0.044280063, 0.29436246, -278265.0, -36017.87, 0.0000066700077, 10.000408, 9.99862 
1.3049261e+3, 2.852797e+2, -147073.44, -307730.28, -24158.682, 0.07958316, 0.19336778, -143519.22, 749.8263, 0.00007501981, 10.000674, 9.998549 
1.3049106e+3, 2.952745e+2, -114527.984, -240537.6, -57890.914, 0.039527953, -0.2069566, -91970.164, -45654.363, 0.00033195864, 10.000215, 9.998561 
1.3048956e+3, 3.0527398e+2, -33770.258, -176109.5, 7380.0894, -0.047664702, -0.10613181, -33388.633, -33388.633, 0.00085839094, 10.000429, 9.998575 
1.304882e+3, 3.152753e+2, 164130.55, 58121.516, -64349.293, -0.06593196, 0.13096453, 194494.55, 194494.55, 0.0016111253, 10.001148, 9.999845 
1.3151479e+3, 1.253075e+2, -2025417.1, -1917768.4, 122871.56, 0.26730666, 0.24078071, -1837449.3, -125440.3, 0.005819013, 9.998066, 9.999526 
1.3151278e+3, 1.3530791e+2, -1532094.0, -1635329.4, -38722.18, -0.32473475, 0.33638456, -1519184.3, 94823.38, 0.0032902497, 10.00081, 9.999483 
1.3151176e+3, 1.4530739e+2, -1379158.8, -1522777.5, -72648.47, -0.004110865, 0.3336566, -1348819.3, 167194.02, 0.0013013786, 10.001246, 9.999362 
1.3151032e+3, 1.5530476e+2, -1513262.3, -1539960.0, -60451.64, 0.0006683792, 0.12578231, -1464703.1, -46665.617, 0.00026992275, 9.99967, 9.999329 
1.3150892e+3, 1.6530469e+2, -1422733.9, -1457406.9, -38429.52, -0.00499926, 0.19539922, -1397911.4, -77872.86, 0.00001153221, 9.99966, 9.999232 
1.3150758e+3, 1.7530684e+2, -1100383.6, -1237093.4, -53876.793, -0.009483676, 0.4623818, -1081703.5, 140315.55, 0.0, 10.001144, 9.9993515 
1.3150622e+3, 1.8530583e+2, -954817.56, -1102743.8, -46378.29, -0.020692857, 0.42302322, -941479.56, 182545.11, 0.0, 10.001412, 9.999471 
1.3150483e+3, 1.9530188e+2, -965390.2, -1052157.0, 14802.378, -0.048281044, 0.058564108, -962934.44, 63119.543, 0.0, 10.000643, 9.999517 
1.3150343e+3, 2.0530008e+2, -1033450.8, -1154198.4, 13575.159, -0.07784116, -0.011971938, -1031943.44, -103874.6, 0.0, 10.0000305, 9.998436 
1.3150203e+3, 2.153001e+2, -985065.1, -1065945.9, 4468.3125, -0.09639097, 0.123362064, -984819.0, -154747.03, 0.0, 9.999629, 9.998562 
1.315007e+3, 2.252996e+2, -759371.1, -788361.8, 9449.96, -0.06245345, 0.16697131, -756562.8, -24486.633, 0.0, 9.999992, 9.99962 
1.3149944e+3, 2.3529851e+2, -504455.47, -610300.9, 36252.984, 0.02063043, 0.07381334, -493229.2, 140853.38, 0.0, 10.001051, 9.99966 
1.3149807e+3, 2.452974e+2, -566438.0, -771866.2, 5519.1543, 0.011924127, 0.086374834, -566289.8, -30196.027, 0.0, 10.000729, 9.998035 
1.3149661e+3, 2.5529632e+2, -673712.1, -756026.7, -19539.398, -0.07028583, 0.14721808, -669309.44, -231200.22, 0.0, 9.999245, 9.998187 
1.3149536e+3, 2.6529485e+2, -494288.53, -463315.4, 2901.3872, 0.00373896, 0.11577717, -463045.97, -122923.914, 0.000000066602475, 9.999146, 9.999569 
1.3149425e+3, 2.752928e+2, -226940.19, -279932.13, 48471.527, 0.21023569, -0.065974355, -198195.55, 43939.656, 0.0000067822207, 10.000299, 9.999597 
1.314928e+3, 2.8529164e+2, -207073.64, -423864.56, -47415.246, 0.18476899, -0.042290483, -197156.88, -53010.45, 0.00008157081, 10.000623, 9.997786 
1.3149102e+3, 2.952913e+2, -177842.33, -348984.44, -59376.203, -0.046705917, 0.111911744, -159259.95, -113104.13, 0.0003645955, 10.000107, 9.997874 
1.3148949e+3, 3.0529112e+2, -9447.326, -94823.52, 31654.326, -0.19067234, 0.2460429, 1008.43884, 1008.43884, 0.0009459137, 10.000311, 9.999184 
1.3148831e+3, 3.1528902e+2, 137384.5, 61787.734, -8054.529, -0.10175419, 0.085761376, 138233.14, 138233.14, 0.0017802492, 10.000927, 9.999963 
1.3251466e+3, 1.2532245e+2, -1647635.9, -1759665.5, 30225.412, 0.20181017, 0.39181697, -1640001.4, 71866.27, 0.006183249, 10.000734, 9.999341 
1.3251288e+3, 1.3532124e+2, -1724051.3, -1740115.3, 51332.168, -0.24628708, 0.34491262, -1680126.5, -66246.086, 0.0035072896, 9.999569, 9.999349 
1.3251191e+3, 1.4532045e+2, -1577629.1, -1592155.8, 28644.143, 0.11322297, 0.3077584, -1555341.8, -39454.957, 0.0013982238, 9.99977, 9.999598 
1.325104e+3, 1.5531869e+2, -1278686.1, -1405816.9, -3009.9724, 0.030607274, 0.16456768, -1278614.9, 139285.45, 0.00029637254, 10.001187, 9.999521 
1.3250898e+3, 1.6531843e+2, -1206559.0, -1410388.3, 41423.965, 0.0027185988, 0.23411833, -1198462.1, 121441.266, 0.000014169166, 10.0014, 9.998708 
1.325077e+3, 1.7531948e+2, -1221888.1, -1353559.8, 18555.15, 0.027754325, 0.44375172, -1219323.3, 2574.288, 0.0, 10.000565, 9.998829 
1.3250633e+3, 1.8531838e+2, -1099012.8, -1109855.3, -15859.279, 0.017530374, 0.39296156, -1087673.8, 36230.39, 0.0, 10.000155, 10.000026 
1.3250488e+3, 1.9531526e+2, -996106.75, -1006026.7, -37531.188, -0.03506154, 0.05737812, -963209.2, 62713.617, 0.0, 10.000178, 10.000053 
1.3250346e+3, 2.0531382e+2, -954721.8, -1125942.6, -20744.064, -0.065083355, -0.0012107681, -952244.44, -24310.828, 0.0, 10.000605, 9.998356 
1.325021e+3, 2.1531373e+2, -742544.1, -959835.7, -15146.459, -0.06915506, 0.13327122, -741493.4, 88444.88, 0.0, 10.001332, 9.998473 
1.3250078e+3, 2.2531301e+2, -606070.2, -744282.7, -14859.994, -0.038375665, 0.17270198, -604490.56, 127455.1, 0.0, 10.001186, 9.999344 
1.3249952e+3, 2.3531158e+2, -627248.94, -693531.75, -63791.68, 0.025105039, 0.071783096, -588503.44, 45453.25, 0.0, 10.000327, 9.999432 
1.3249812e+3, 2.4531059e+2, -599467.94, -753768.44, -69749.95, 0.019935332, 0.090277076, -572612.4, -36646.016, 0.0, 10.000352, 9.998343 
1.3249664e+3, 2.5530994e+2, -380400.9, -580174.25, -16503.79, -0.049162053, 0.16730326, -379046.66, 58928.664, 0.0, 10.001113, 9.998493 
1.3249539e+3, 2.6530838e+2, -238427.97, -345712.75, 37999.49, 0.041237127, 0.113092564, -226332.48, 113655.88, 0.0000000978673, 10.000928, 9.999518 
1.3249432e+3, 2.7530572e+2, -282728.13, -313778.66, -17462.25, 0.26421162, -0.12541234, -274887.5, -32879.652, 0.000006920427, 9.999933, 9.999549 
1.3249288e+3, 2.85305e+2, -273835.63, -441371.7, -86476.74, 0.24148434, -0.06363175, -237207.17, -93191.63, 0.00008668865, 10.000116, 9.997902 
1.3249114e+3, 2.9530603e+2, 30583.938, -234974.47, -57891.742, -0.0040408736, 0.21822938, 42655.59, 88668.04, 0.00038909205, 10.001483, 9.99799 
1.324896e+3, 3.0530542e+2, 176980.08, -48715.055, 32786.97, -0.16745448, 0.32395238, 181646.6, 181646.6, 0.0010147934, 10.001786, 9.99879 
1.3248846e+3, 3.153023e+2, 119737.484, -23080.34, -112562.734, -0.046677478, 0.101892605, 181631.25, 181631.25, 0.0019149169, 10.001108, 9.999302 
1.3351446e+3, 1.2533662e+2, -1558120.3, -1570190.3, -96046.97, -0.09889529, 0.50033367, -1467918.9, 243814.33, 0.0065457188, 10.000719, 10.000657 
1.3351299e+3, 1.3533388e+2, -1647652.9, -1584799.6, 12002.754, -0.10696272, 0.18593101, -1582585.5, 31167.422, 0.0037237175, 9.999586, 10.000404 
1.33512e+3, 1.4533363e+2, -1583349.9, -1611575.5, 72921.336, 0.19972531, 0.16323338, -1523188.3, -7437.8774, 0.0014951822, 9.999796, 9.999456 
1.3351052e+3, 1.5533465e+2, -1284634.4, -1422680.0, 56322.082, 0.018045828, 0.3083624, -1264571.1, 153166.28, 0.00032323142, 10.001199, 9.999403 
1.335091e+3, 1.6533293e+2, -1243844.1, -1482434.0, 541.2363, -0.03199195, 0.26336473, -1243842.9, 75911.8, 0.000017128494, 10.001375, 9.998227 
1.3350776e+3, 1.7532891e+2, -1254389.3, -1420906.5, -4924.445, 0.022841362, 0.012784916, -1254243.8, -32445.895, 0.00000000003443261, 10.000562, 9.998369 
1.3350634e+3, 1.8532807e+2, -1122703.4, -1161897.1, -23883.533, 0.010461857, 0.028446944, -1111405.9, 12399.351, 0.0, 10.000165, 9.999666 
1.3350491e+3, 1.9532982e+2, -1020225.6, -1055835.5, -29008.129, -0.04275868, 0.21510139, -1003994.0, 21789.135, 0.0, 10.00017, 9.999717 
1.3350359e+3, 2.0532921e+2, -943536.0, -1084377.3, -2801.1917, -0.021705871, 0.23912686, -943480.3, -15694.074, 0.0, 10.000529, 9.998676 
1.3350238e+3, 2.153264e+2, -740267.7, -930572.1, 17369.621, 0.0637188, 0.06919646, -738695.3, 91117.234, 0.0, 10.001224, 9.998731 
1.3350101e+3, 2.2532485e+2, -694251.06, -903740.1, -53120.105, 0.06522425, 0.07007807, -681551.3, 50278.387, 0.0, 10.00108, 9.998302 
1.3349953e+3, 2.3532441e+2, -706590.9, -840297.75, -84666.8, 0.0055759274, 0.17225584, -665565.44, -31726.486, 0.0, 10.000243, 9.998467 
1.334981e+3, 2.45324e+2, -501142.34, -528878.7, -49141.195, -0.057290163, 0.21116333, -463949.94, 71892.54, 0.0, 10.000262, 9.999929 
1.3349669e+3, 2.5532347e+2, -286970.44, -369196.44, 17850.576, -0.12022675, 0.13867226, -283262.44, 154579.84, 0.0, 10.001041, 9.999975 
1.334954e+3, 2.6532245e+2, -331331.28, -526385.9, -6839.9775, -0.046686545, 0.13170215, -331091.72, 8758.009, 0.00000008871969, 10.00087, 9.998309 
1.3349418e+3, 2.7532092e+2, -377951.97, -485107.4, -41702.438, 0.13998668, 0.1223585, -363635.2, -121769.914, 0.000006673535, 9.999821, 9.9984255 
1.3349284e+3, 2.853197e+2, -216920.52, -306976.44, -45480.656, 0.1738934, 0.13897927, -197948.42, -54071.47, 0.00008850924, 10.000039, 9.998864 
1.334914e+3, 2.953187e+2, 76125.84, -113942.22, 5129.342, 0.09256611, 0.12261033, 76264.17, 122149.82, 0.00040084837, 10.0013685, 9.998878 
1.334899e+3, 3.05317e+2, 71629.77, -247576.75, 4757.808, -0.059711486, 0.14928082, 71700.67, 71700.67, 0.0010550291, 10.001708, 9.997456 
1.3348861e+3, 3.1531507e+2, -18850.729, -249145.67, -106197.37, -0.027565733, 0.17706713, 22644.135, 22644.135, 0.0019990124, 10.00086, 9.997862 
1.3451436e+3, 1.2534869e+2, -1825927.0, -1690305.3, -72061.39, -0.16497272, 0.4003855, -1659165.9, 52445.6, 0.0069055543, 9.998842, 10.000726 
1.3451311e+3, 1.3534662e+2, -1443019.9, -1502798.4, -55754.844, -0.011935193, 0.16325447, -1409648.0, 203976.34, 0.0039389143, 10.001068, 10.0002575 
1.3451204e+3, 1.4534628e+2, -1380840.6, -1520203.0, -42828.066, 0.1929147, 0.14497063, -1368731.1, 146892.17, 0.0015916337, 10.001228, 9.999382 
1.345106e+3, 1.5534694e+2, -1478226.4, -1519052.6, -76117.125, 0.060494658, 0.25780907, -1419832.6, -2217.6375, 0.0003501717, 9.9999, 9.999356 
1.3450919e+3, 1.6534548e+2, -1486657.8, -1552432.9, -84944.32, 0.02667791, 0.21775404, -1428456.8, -108826.67, 0.000020254476, 9.999506, 9.998651 
1.3450779e+3, 1.7534217e+2, -1324007.0, -1408113.1, -40646.098, 0.0449331, -0.0015015041, -1307574.5, -85909.33, 0.0000000014653116, 9.999894, 9.998776 
1.3450639e+3, 1.8534157e+2, -1101281.8, -1197891.3, 4741.7734, 0.024164319, 0.03933986, -1101049.6, 22622.035, 0.0, 10.000512, 9.999252 
1.34505e+3, 1.9534315e+2, -872582.56, -1028859.9, -20911.338, -0.017515395, 0.25075042, -869832.8, 155821.98, 0.0, 10.001374, 9.999325 
1.3450369e+3, 2.0534252e+2, -852845.0, -999850.94, -8841.734, 0.0140430955, 0.27462968, -852315.1, 75343.31, 0.0, 10.000978, 9.999038 
1.3450246e+3, 2.1533984e+2, -967540.1, -992464.25, -2958.4907, 0.104384616, 0.078183524, -967193.8, -137513.06, 0.0, 9.999477, 9.999132 
1.3450105e+3, 2.2533834e+2, -974543.7, -1071651.4, -7786.6733, 0.08462767, 0.07520377, -973923.3, -242225.89, 0.0, 9.999285, 9.998022 
1.3449952e+3, 2.3533773e+2, -727178.75, -881064.0, 6724.021, -0.0233847, 0.19150302, -726885.5, -93175.68, 0.0, 10.000227, 9.998199 
1.3449813e+3, 2.4533711e+2, -472676.06, -530706.5, 23058.826, -0.060360737, 0.23093548, -464629.28, 71087.01, 0.0, 10.000545, 9.999777 
1.3449684e+3, 2.553363e+2, -397186.5, -436025.84, -58148.543, -0.03827922, 0.14774717, -355300.56, 82418.164, 0.0, 10.000359, 9.999845 
1.3449553e+3, 2.653355e+2, -394011.22, -533918.94, -97936.836, 0.011157884, 0.15840395, -343610.72, -3886.4795, 0.000000062099474, 10.000353, 9.9985 
1.3449416e+3, 2.7533457e+2, -251644.88, -401556.25, -46472.516, 0.080755815, 0.18854529, -238407.31, 3326.9844, 0.0000065347235, 10.000595, 9.998619 
1.3449283e+3, 2.8533322e+2, -135262.11, -253883.97, 19045.08, 0.13378505, 0.18004322, -132279.36, 11466.337, 0.00008965579, 10.000537, 9.998992 
1.3449155e+3, 2.9533166e+2, -73753.92, -162299.06, -18631.066, 0.17899188, 0.09056769, -69993.41, -24236.08, 0.0004062936, 10.000235, 9.999091 
1.3449009e+3, 3.0532926e+2, -110255.625, -352058.06, 753.29443, 0.022431863, 0.036647752, -110253.28, -110253.28, 0.0010727071, 10.0005045, 9.997336 
1.3448873e+3, 3.1532782e+2, 41140.46, -216348.81, -37834.66, 0.0029958454, 0.1281194, 46584.656, 46584.656, 0.0020364497, 10.0012455, 9.997904 
1.3551447e+3, 1.2535854e+2, -1902060.9, -1855451.6, 42749.117, 0.013710884, 0.06137909, -1830067.5, -118563.5, 0.0072628423, 9.998889, 9.999565 
1.3551322e+3, 1.3535956e+2, -1526853.4, -1677400.8, 24812.162, -0.019523818, 0.2563272, -1522869.4, 90624.68, 0.004152666, 10.001079, 9.999048 
1.3551201e+3, 1.4535856e+2, -1393134.3, -1546552.6, -101331.91, 0.03010854, 0.24529693, -1342751.1, 172752.8, 0.0016872559, 10.0012245, 9.9992075 
1.3551064e+3, 1.5535578e+2, -1477830.8, -1524855.8, -115428.05, 0.089626044, 0.021684727, -1383544.8, 33986.477, 0.0003769789, 9.99992, 9.9993105 
1.3550924e+3, 1.6535613e+2, -1389673.0, -1359830.6, -79850.63, 0.10854533, 0.09585061, -1293519.0, 26009.578, 0.000023370363, 9.999536, 9.999962 
1.3550779e+3, 1.7535909e+2, -1235653.0, -1230895.6, -18816.158, 0.040440015, 0.37434795, -1214308.4, 7192.603, 0.0000000068048798, 9.99991, 9.999991 
1.3550642e+3, 1.8535869e+2, -1136637.8, -1269876.8, 29126.568, -0.01344361, 0.40554532, -1130548.9, -7043.8745, 0.0, 10.000506, 9.998758 
1.3550514e+3, 1.9535525e+2, -907773.56, -1097190.9, 16775.457, -0.029324621, 0.16162843, -906299.3, 119238.31, 0.0, 10.0013485, 9.998869 
1.3550377e+3, 2.0535381e+2, -832698.1, -943889.4, -73898.77, -0.026175471, 0.10462888, -795817.25, 131732.02, 0.0, 10.0009165, 9.999452 
1.355023e+3, 2.1535403e+2, -950398.56, -939646.44, -50439.008, -0.0066231396, 0.15683351, -894297.8, -64754.555, 0.0, 9.999397, 9.9995365 
1.3550086e+3, 2.2535329e+2, -955426.0, -1002974.56, 16648.838, -0.040572386, 0.18471645, -950176.1, -218626.23, 0.0, 9.999166, 9.9985485 
1.3549946e+3, 2.353516e+2, -711796.75, -824689.44, 47193.586, -0.12085353, 0.1383341, -694667.06, -61098.523, 0.0, 10.000125, 9.998634 
1.3549821e+3, 2.4535002e+2, -618782.56, -814162.7, 8563.789, -0.052152775, 0.16035777, -618407.94, -82821.16, 0.0, 10.000452, 9.997879 
1.3549706e+3, 2.5534844e+2, -536243.8, -702499.56, -56116.2, 0.14102371, 0.18987432, -519075.78, -81470.49, 0.0, 10.000263, 9.998062 
1.354957e+3, 2.653474e+2, -293076.94, -309581.7, -97549.625, 0.15336801, 0.17907864, -203431.27, 136182.7, 0.000000036385206, 10.000284, 10.000075 
1.3549416e+3, 2.7534664e+2, -163202.22, -191722.27, -27756.205, 0.018790359, 0.07333695, -146257.19, 95358.336, 0.0000068750182, 10.0004835, 10.000115 
1.354928e+3, 2.8534573e+2, -198639.9, -367998.25, 263.08496, 0.036521643, 0.07121324, -198639.5, -55018.332, 0.000091050126, 10.00046, 9.998245 
1.354916e+3, 2.9534465e+2, -141083.53, -277403.63, -17795.143, 0.1772476, 0.11150574, -138798.86, -93168.58, 0.0004082825, 10.000125, 9.998357 
1.3549013e+3, 3.053418e+2, -41184.492, -176483.25, 19766.207, 0.002596962, -0.016286282, -38355.92, -38355.92, 0.001072397, 10.000384, 9.998591 
1.3548878e+3, 3.1534034e+2, 107607.21, -13107.954, 30189.209, -0.11140171, -0.053627685, 114736.12, 114736.12, 0.0020302255, 10.000991, 9.999413 
1.3651457e+3, 1.253704e+2, -1466614.5, -1698412.9, 79198.125, 0.086536616, -0.00956471, -1442139.4, 269242.25, 0.0076198755, 10.00211, 9.999092 
1.3651334e+3, 1.3537113e+2, -1572401.5, -1765127.4, 26975.06, -0.009321557, 0.21161482, -1568697.1, 44680.875, 0.004366158, 10.001018, 9.9984865 
1.3651203e+3, 1.4537023e+2, -1569838.6, -1602716.5, -88827.09, -0.008776531, 0.22466694, -1495942.1, 19446.91, 0.0017823466, 9.999891, 9.999461 
1.3651061e+3, 1.5536794e+2, -1545749.8, -1526091.0, -84019.33, 0.09702053, 0.02503356, -1451328.1, -33915.78, 0.0004035849, 9.999327, 9.999584 
1.3650922e+3, 1.653686e+2, -1308263.8, -1267140.8, 15930.941, 0.13290477, 0.09416518, -1261691.3, 57714.313, 0.000026350568, 9.9998665, 10.000432 
1.3650787e+3, 1.7537187e+2, -990293.3, -1058689.4, -3737.096, 0.046895783, 0.3529996, -990089.75, 231282.95, 0.000000016360648, 10.0013685, 10.000463 
1.3650653e+3, 1.8537167e+2, -1022142.1, -1223566.1, 8619.257, 0.004115015, 0.38350853, -1021773.94, 101600.586, 0.0, 10.001332, 9.998679 
1.3650526e+3, 1.9536832e+2, -1106684.6, -1195209.4, 11884.618, 0.02319222, 0.15405236, -1105116.9, -79709.086, 0.0, 10.000007, 9.998836 
1.3650383e+3, 2.0536686e+2, -988778.9, -1043732.75, -74377.99, 0.0059277546, 0.10914587, -936964.8, -9543.593, 0.0, 9.999951, 9.999235 
1.3650227e+3, 2.1536702e+2, -729038.3, -856329.2, -108091.164, -0.048057362, 0.17790335, -667246.75, 162171.3, 0.0, 10.001018, 9.999332 
1.3650085e+3, 2.2536634e+2, -600603.56, -787262.4, -30619.395, -0.07315904, 0.20112349, -595709.1, 135714.45, 0.0, 10.001416, 9.998936 
1.3649957e+3, 2.3536484e+2, -531417.9, -696166.25, -30434.625, -0.07345198, 0.13337997, -525975.4, 107462.06, 0.0, 10.001186, 9.9990015 
1.3649835e+3, 2.4536331e+2, -555528.1, -780053.9, -5003.92, 0.022694552, 0.14054595, -555416.6, -19962.582, 0.0, 10.00087, 9.997911 
1.3649715e+3, 2.5536162e+2, -497899.16, -683081.7, 59948.793, 0.1951619, 0.15452275, -480186.28, -42711.9, 0.0, 10.00051, 9.998077 
1.3649577e+3, 2.6536053e+2, -290579.9, -345112.22, 44183.324, 0.19261013, 0.15841135, -265926.8, 73558.29, 0.000000033203506, 10.000463, 9.999748 
1.3649423e+3, 2.7535993e+2, -150355.48, -215855.14, -49057.65, 0.042396087, 0.09702026, -124120.53, 117367.65, 0.0000069323874, 10.000703, 9.999846 
1.3649288e+3, 2.8535914e+2, -140681.63, -318635.56, -44498.04, 0.048138462, 0.1115427, -130175.05, 13318.317, 0.00008927096, 10.000791, 9.998416 
1.3649166e+3, 2.9535818e+2, -16994.56, -193245.17, -6757.8193, 0.18725221, 0.14486915, -16735.83, 28764.807, 0.00039892914, 10.000894, 9.998554 
1.3649021e+3, 3.053554e+2, 67827.9, -139212.33, 54314.645, 0.005157231, 0.023798687, 81211.57, 81211.57, 0.0010452198, 10.001182, 9.99847 
1.3648894e+3, 3.1535456e+2, 200168.11, 57468.92, -63968.62, -0.06414899, 0.060419504, 224645.17, 224645.17, 0.0019747745, 10.001465, 9.999695 
1.3751481e+3, 1.2538406e+2, -1467686.5, -1686018.6, 54402.04, 0.075117834, 0.1603447, -1454882.0, 256363.75, 0.0079810945, 10.002071, 9.999185 
1.3751338e+3, 1.3538148e+2, -1565339.9, -1747494.9, -17761.848, -0.066476084, 0.040491007, -1563624.1, 49650.824, 0.0045821774, 10.001007, 9.998611 
1.3751206e+3, 1.453814e+2, -1522081.6, -1508003.9, -125019.664, 0.009585847, 0.096845485, -1389825.1, 125452.46, 0.0018779465, 9.999905, 10.000108 
1.3751048e+3, 1.5538323e+2, -1501598.5, -1439795.8, -92678.65, 0.022694604, 0.24620897, -1373002.6, 44257.617, 0.00043006244, 9.999351, 10.000164 
1.3750914e+3, 1.6538289e+2, -1324474.0, -1312447.5, 61773.594, 0.032519758, 0.20372158, -1256395.1, 62866.4, 0.000029160963, 9.999907, 10.000109 
1.3750796e+3, 1.7538074e+2, -1009252.8, -1100236.3, 54290.492, -0.001620994, -0.047715098, -983914.06, 237364.4, 0.000000027808229, 10.001364, 10.000188 
1.3750668e+3, 1.8538067e+2, -996747.25, -1169066.9, -52176.555, 0.00908915, -0.010245524, -982180.2, 141098.6, 0.0, 10.001327, 9.999058 
1.3750534e+3, 1.9538222e+2, -1092140.8, -1155731.0, -31237.367, 0.08265632, 0.21717946, -1079363.4, -54097.04, 0.0, 9.999964, 9.999132 
1.3750388e+3, 2.0538154e+2, -1050617.5, -1158548.5, -43040.23, 0.042721294, 0.27600896, -1035555.9, -108280.06, 0.0, 9.999892, 9.998475 
1.3750234e+3, 2.153789e+2, -793892.3, -970292.06, -61231.008, -0.092020355, 0.13906448, -774721.56, 54583.21, 0.0, 10.000927, 9.998594 
1.37501e+3, 2.253776e+2, -603697.4, -765087.8, -45208.5, -0.084268644, 0.12834854, -591896.5, 139420.8, 0.0, 10.001293, 9.999147 
1.3749982e+3, 2.3537746e+2, -527680.2, -662533.4, -30809.77, 0.049553204, 0.17356634, -520974.53, 112341.93, 0.0, 10.00108, 9.999282 
1.3749851e+3, 2.4537688e+2, -434288.1, -507098.3, -29040.256, 0.09391009, 0.16549654, -424124.25, 111194.62, 0.0, 10.000772, 9.999835 
1.3749708e+3, 2.5537586e+2, -386724.03, -429104.34, 54591.64, 0.0638674, 0.053504452, -349354.22, 87970.8, 0.0, 10.000408, 9.999873 
1.374957e+3, 2.6537508e+2, -462073.63, -678865.6, 46219.195, 0.062071316, 0.1167483, -452631.13, -113295.19, 0.000000022673568, 10.000368, 9.9975 
1.3749436e+3, 2.7537435e+2, -318752.56, -536328.94, -32285.154, 0.08535546, 0.26837996, -314063.0, -72710.37, 0.000006624494, 10.00059, 9.997694 
1.3749303e+3, 2.8537342e+2, -65650.45, -151808.19, -50344.547, 0.10638609, 0.30948538, -42469.51, 100893.42, 0.00008435929, 10.000735, 9.999593 
1.374917e+3, 2.9537225e+2, 40387.168, -42505.492, 11525.894, 0.13163681, 0.20520054, 41959.953, 87327.61, 0.00037578115, 10.000757, 9.9996605 
1.3749029e+3, 3.0537012e+2, -58848.754, -374749.4, 62979.45, -0.05324465, 0.17067525, -46755.805, -46755.805, 0.0009853418, 10.001067, 9.996902 
1.3748917e+3, 3.1537e+2, 93145.62, -106088.98, -19997.572, -0.0059974203, 0.44197753, 95132.984, 95132.984, 0.0018645666, 10.001242, 9.998662 
1.3851497e+3, 1.2539676e+2, -1537516.3, -1682412.1, 48949.023, 0.061433632, 0.18881688, -1522530.1, 188591.69, 0.008351057, 10.001422, 9.999525 
1.3851337e+3, 1.3539436e+2, -1640459.4, -1724171.4, -11074.897, -0.14530838, 0.039028354, -1639018.9, -25870.709, 0.004803759, 10.00023, 9.99915 
1.3851209e+3, 1.4539473e+2, -1503173.4, -1468018.0, -46996.754, 0.058997825, 0.09578652, -1435419.4, 79725.555, 0.0019753822, 9.999902, 10.000384 
1.3851048e+3, 1.5539652e+2, -1282378.1, -1311828.6, -57504.992, 0.027534084, 0.21736176, -1237743.0, 179382.27, 0.00045665295, 10.0007515, 10.000373 
1.3850914e+3, 1.6539584e+2, -1274802.5, -1351690.1, 95732.555, 0.014572426, 0.16333243, -1210083.1, 109046.81, 0.00003186285, 10.00054, 9.999526 
1.3850798e+3, 1.7539321e+2, -1318904.6, -1307237.3, 48985.227, -0.013805247, -0.080064796, -1263739.6, -42585.414, 0.000000039188958, 9.999506, 9.999653 
1.3850671e+3, 1.8539283e+2, -1261775.9, -1259183.6, -70747.72, 0.0144602815, -0.06554285, -1189720.1, -66562.85, 0.0, 9.999344, 9.999394 
1.3850534e+3, 1.9539434e+2, -1053408.3, -1097414.4, -62738.59, 0.09566802, 0.1209693, -1008926.3, 16216.809, 0.0, 10.000063, 9.999481 
1.3850395e+3, 2.0539387e+2, -966513.44, -1141295.8, 2863.9065, 0.09528265, 0.19273014, -966466.5, -39315.367, 0.0, 10.00057, 9.998264 
1.3850255e+3, 2.1539159e+2, -804974.06, -995018.06, 7809.5845, 0.027913705, 0.11443572, -804653.7, 24525.549, 0.0, 10.00093, 9.998423 
1.3850123e+3, 2.253905e+2, -662453.44, -789264.56, 17643.57, 0.034450278, 0.12518781, -660044.4, 71146.92, 0.0, 10.000853, 9.999209 
1.3849995e+3, 2.3539026e+2, -609084.06, -697902.4, 6189.329, 0.10629057, 0.15960863, -608654.9, 24535.79, 0.0, 10.0004835, 9.99934 
1.3849859e+3, 2.4538985e+2, -485650.9, -531345.7, -46951.023, 0.10894895, 0.16559184, -456283.34, 78908.72, 0.0, 10.000436, 9.999818 
1.3849711e+3, 2.5538927e+2, -336244.4, -400473.25, -131989.38, 0.045769386, 0.09681731, -232518.73, 204676.63, 0.0, 10.000756, 9.999888 
1.3849574e+3, 2.6538846e+2, -422499.53, -644791.5, -103278.266, 0.055720437, 0.14745758, -381922.63, -42716.316, 0.0000000049794013, 10.000578, 9.99763 
1.3849443e+3, 2.7538726e+2, -388345.03, -558383.7, -13839.711, 0.13105154, 0.2403584, -387225.97, -146000.1, 0.0000064646365, 10.000048, 9.9978075 
1.3849314e+3, 2.853864e+2, -131606.72, -196006.6, 41727.9, 0.16770105, 0.29418808, -111099.41, 32136.623, 0.00007935542, 10.000334, 9.999486 
1.3849184e+3, 2.9538587e+2, 127139.57, -4103.3877, -18379.334, 0.16473217, 0.25668606, 129664.836, 174903.14, 0.00034767005, 10.001364, 9.99963 
1.3849042e+3, 3.0538398e+2, 9309.375, -327448.94, 48206.043, -0.027115788, 0.24311672, 16074.054, 16074.054, 0.0009104193, 10.00149, 9.997016 
1.3848932e+3, 3.1538266e+2, 73117.32, -69731.164, 79818.586, 0.04446112, 0.38542902, 108802.5, 108802.5, 0.0017264709, 10.000899, 9.999077 
1.3951497e+3, 1.2540816e+2, -1507849.0, -1598324.8, -102651.18, -0.115412146, 0.048482336, -1440909.6, 270103.1, 0.008733579, 10.001328, 10.000152 
1.3951324e+3, 1.354097e+2, -1574366.6, -1584324.8, -52360.418, -0.31568542, 0.19502832, -1526749.0, 86249.664, 0.005033633, 10.000221, 10.000113 
1.3951212e+3, 1.4541018e+2, -1500181.1, -1473510.9, -32070.342, 0.07291651, 0.21694061, -1452113.8, 62877.074, 0.002076125, 9.999945, 10.000331 
1.3951059e+3, 1.55408e+2, -1291140.8, -1329705.8, -20365.762, 0.031363726, -0.04934951, -1282377.3, 134628.19, 0.00048381835, 10.000749, 10.000254 
1.3950919e+3, 1.6540767e+2, -1332176.8, -1480152.4, 46272.688, -0.006571732, -0.01601397, -1318898.5, 110.314545, 0.000034571214, 10.000572, 9.998635 
1.3950792e+3, 1.7540906e+2, -1382009.4, -1435672.6, 17873.297, -0.045040596, 0.2349234, -1376601.5, -155599.69, 0.00000005013657, 9.999492, 9.998784 
1.3950661e+3, 1.8540801e+2, -1228159.4, -1196063.0, -55213.426, -0.046020344, 0.20238905, -1154612.8, -31601.344, 0.0, 9.999367, 9.999819 
1.3950527e+3, 1.9540472e+2, -1028334.75, -1041528.4, -30455.188, -0.0034522212, -0.13059519, -1003770.1, 21266.838, 0.0, 10.000037, 9.999882 
1.3950403e+3, 2.0540388e+2, -950184.4, -1092356.1, 7512.8843, 0.096199416, -0.13303235, -949788.5, -22742.316, 0.0, 10.000507, 9.998629 
1.3950287e+3, 2.1540512e+2, -799074.0, -956050.4, 25495.865, 0.24524456, 0.10447535, -795036.9, 34004.9, 0.0, 10.000819, 9.998743 
1.3950148e+3, 2.254049e+2, -678319.4, -802965.2, -5780.026, 0.21096231, 0.19274129, -678051.9, 52994.18, 0.0, 10.00076, 9.999162 
1.3949993e+3, 2.3540334e+2, -631228.6, -722666.2, 1248.0635, 0.033658355, 0.095652275, -631211.56, 1847.4395, 0.0, 10.000388, 9.999217 
1.3949853e+3, 2.4540235e+2, -639440.5, -829862.8, -42747.35, -0.00458823, 0.15158889, -630284.5, -95212.516, 0.0, 10.000344, 9.997813 
1.3949724e+3, 2.554017e+2, -483850.28, -680884.4, -113421.3, 0.0760831, 0.28000468, -432134.2, 4951.9473, 0.0, 10.000649, 9.998013 
1.3949588e+3, 2.6540047e+2, -253538.64, -278557.8, -131382.73, 0.109492406, 0.24725473, -134071.28, 205026.22, 0.0000000011462398, 10.000505, 10.000182 
1.3949443e+3, 2.7539867e+2, -238242.47, -216078.34, -20663.428, 0.11265849, 0.021191586, -203712.81, 37394.137, 0.000006299897, 9.999915, 10.000223 
1.3949317e+3, 2.8539833e+2, -251866.69, -419230.7, 73664.95, 0.15057807, 0.085413106, -224062.36, -80951.57, 0.00007482128, 10.000219, 9.998007 
1.3949203e+3, 2.9539895e+2, 12324.634, -218968.83, 29691.3, 0.21172763, 0.3139368, 16075.306, 61187.965, 0.00032370954, 10.001267, 9.9981985 
1.3949062e+3, 3.0539694e+2, 137554.42, -47622.734, 17546.793, 0.0031578264, 0.25805965, 139202.44, 139202.44, 0.00084908167, 10.00143, 9.998967 
1.3948934e+3, 3.1539252e+2, 169257.19, 193263.69, 98105.73, -0.044318058, -0.11189699, 280097.75, 280097.75, 0.0016133434, 10.000635, 10.001013 
1.4051506e+3, 1.2542213e+2, -1922543.8, -1750196.0, -113467.79, 0.01361526, 0.11798808, -1693888.8, 16989.252, 0.009133226, 9.998259, 10.00058 
1.4051323e+3, 1.354237e+2, -1589642.9, -1507232.9, -23502.404, -0.3277224, 0.18419029, -1501001.4, 111858.65, 0.005275387, 9.99975, 10.00087 
1.405121e+3, 1.4542395e+2, -1433938.0, -1495280.1, 5618.9063, 0.032904204, 0.17031927, -1433427.6, 81425.555, 0.0021822979, 10.000635, 9.999841 
1.4051066e+3, 1.5542123e+2, -1281503.3, -1381776.6, -36271.08, 0.028421624, -0.0980741, -1269758.9, 147115.0, 0.00051218417, 10.001062, 9.999741 
1.4050926e+3, 1.6542071e+2, -1303783.8, -1491405.6, 11099.3125, -0.003901663, -0.04907889, -1303129.4, 15750.391, 0.000037386584, 10.000881, 9.998404 
1.405079e+3, 1.7542207e+2, -1260488.9, -1400827.3, 18132.152, -0.044531822, 0.2198496, -1258184.0, -37310.91, 0.00000006103049, 10.0004225, 9.998573 
1.4050661e+3, 1.8542105e+2, -1103711.3, -1153681.9, 9902.776, -0.022535523, 0.2082091, -1101820.4, 21062.977, 0.0, 10.000303, 9.999656 
1.4050533e+3, 1.9541793e+2, -962262.75, -1023304.7, -25457.857, 0.045683887, -0.09568928, -953039.1, 71869.63, 0.0, 10.000553, 9.999755 
1.4050412e+3, 2.0541716e+2, -964957.7, -1096255.3, -23589.855, 0.15502253, -0.08803972, -960848.0, -33930.41, 0.0, 10.000388, 9.998665 
1.4050296e+3, 2.1541838e+2, -920231.44, -1007211.25, -40469.766, 0.29896453, 0.14376949, -904314.5, -75401.9, 0.0, 9.999956, 9.998808 
1.4050154e+3, 2.2541802e+2, -780530.4, -847050.3, -54828.758, 0.2288758, 0.21251008, -749662.2, -18744.225, 0.0, 10.000065, 9.99918 
1.4049992e+3, 2.354162e+2, -584319.25, -691920.7, -61815.664, -0.022956472, 0.08552181, -556170.6, 76762.58, 0.0, 10.000696, 9.999268 
1.4049853e+3, 2.4541518e+2, -554886.1, -809910.56, -12261.236, -0.05779853, 0.14528376, -554298.0, -19350.893, 0.0, 10.001009, 9.997635 
1.4049733e+3, 2.554147e+2, -427888.16, -670610.75, 41514.547, 0.08283272, 0.30912116, -420984.0, 15977.079, 0.0, 10.001097, 9.997872 
1.4049596e+3, 2.6541355e+2, -178245.94, -205706.83, -11520.606, 0.13372716, 0.27627102, -174052.95, 164918.11, 0.0000000047036606, 10.000864, 10.00051 
1.4049445e+3, 2.7541193e+2, -137613.83, -129720.15, -91760.39, 0.11227712, 0.035252184, -41821.754, 199154.9, 0.000006310048, 10.000444, 10.000561 
1.4049317e+3, 2.854113e+2, -255065.39, -460489.44, 31672.316, 0.1389435, 0.07220941, -250293.03, -107309.68, 0.00007120588, 10.00038, 9.997639 
1.4049211e+3, 2.954112e+2, -100955.74, -307819.56, 52627.44, 0.20225511, 0.26865572, -88336.766, -43342.69, 0.00031037428, 10.000646, 9.997884 
1.4049073e+3, 3.0540994e+2, 29524.129, 25485.389, 7777.9575, 0.03524668, 0.24527961, 35540.582, 35540.582, 0.0008184522, 10.000129, 10.000109 
1.404894e+3, 3.1540608e+2, -6878.1743, 219894.42, 4235.6494, 0.040567447, -0.18267661, 219973.52, 219973.52, 0.0015564455, 9.998929, 10.002021 
1.415151e+3, 1.2543847e+2, -1903891.3, -1718656.9, -169085.42, 0.18071376, 0.34112996, -1618484.5, 92235.52, 0.009556688, 9.9982815, 10.000797 
1.4151329e+3, 1.3543658e+2, -1559843.9, -1433589.4, 40953.98, -0.24517071, 0.008997599, -1421468.5, 191261.67, 0.0055341963, 9.999714, 10.001391 
1.41512e+3, 1.4543617e+2, -1494303.1, -1631249.3, 10122.779, -0.15646178, -0.048285577, -1493559.0, 21171.686, 0.0022969088, 10.00067, 9.998897 
1.4151071e+3, 1.5543632e+2, -1345129.6, -1514919.1, -16060.243, -0.045967404, 0.068966, -1343623.8, 73105.77, 0.0005425403, 10.001065, 9.998826 
1.4150932e+3, 1.6543509e+2, -1266115.8, -1420378.3, -18830.701, -0.04461118, 0.06714969, -1263850.3, 54891.06, 0.000040406845, 10.000908, 9.99888 
1.4150794e+3, 1.7543249e+2, -1233202.8, -1337707.8, 8506.242, -0.07512744, -0.10738327, -1232514.9, -11748.754, 0.00000007226826, 10.000394, 9.999022 
1.4150669e+3, 1.8543223e+2, -1153715.1, -1259944.4, 10061.955, 0.011338674, -0.027698759, -1152770.5, -29999.693, 0.0, 10.000312, 9.998922 
1.4150554e+3, 1.954339e+2, -1018947.3, -1133809.8, -11318.703, 0.17603339, 0.22400151, -1017842.6, 6916.171, 0.0, 10.000523, 9.999011 
1.4150424e+3, 2.0543356e+2, -983611.3, -1126262.1, -52481.742, 0.20521422, 0.32157525, -966383.6, -39617.434, 0.0, 10.000345, 9.998481 
1.4150281e+3, 2.154314e+2, -948201.25, -1041724.4, -49040.168, 0.13639587, 0.23434266, -927201.56, -98410.27, 0.0, 9.999848, 9.998627 
1.4150137e+3, 2.2542983e+2, -791482.0, -842782.25, -40183.742, 0.023718307, 0.18606721, -769459.7, -38653.137, 0.0, 9.9999485, 9.999264 
1.4149992e+3, 2.3542877e+2, -595337.6, -685883.2, -30568.758, -0.12533763, 0.12881902, -585983.75, 46829.75, 0.0, 10.000577, 9.999364 
1.4149858e+3, 2.4542834e+2, -445447.75, -567105.3, -16530.717, -0.12661366, 0.1561405, -443241.56, 91575.484, 0.0, 10.000934, 9.999339 
1.4149737e+3, 2.5542828e+2, -330712.78, -450249.38, 53038.555, 0.002868483, 0.18943448, -310572.78, 126246.586, 0.0, 10.001011, 9.999429 
1.4149599e+3, 2.6542783e+2, -332116.25, -502118.84, -33434.355, 0.06125605, 0.2506017, -325777.13, 13048.651, 0.000000079284355, 10.000768, 9.998516 
1.4149445e+3, 2.7542692e+2, -286623.66, -416918.78, -95278.79, 0.061979808, 0.2823841, -236349.17, 4486.804, 0.000007370017, 10.000356, 9.998627 
1.4149316e+3, 2.8542516e+2, -200536.58, -341382.28, 34551.777, 0.05592056, 0.2589038, -192517.08, -49662.13, 0.00007169882, 10.00034, 9.998481 
1.4149205e+3, 2.9542252e+2, -60456.44, -202283.58, 75463.13, 0.05621233, 0.112071365, -27816.066, 17067.328, 0.00031191297, 10.000534, 9.9986725 
1.414907e+3, 3.0542293e+2, 15165.823, 43798.98, -42681.426, -0.020369072, 0.21147552, 74500.94, 74500.94, 0.00082090637, 9.999948, 10.000304 
1.4148945e+3, 3.1542358e+2, -67623.56, 162337.47, -9073.946, 0.16413482, 0.20664121, 162694.95, 162694.95, 0.001557211, 9.998668, 10.001732 
1.4251499e+3, 1.2545216e+2, -1742989.6, -1710946.0, -95211.984, 0.18201777, 0.24579327, -1630417.3, 80165.08, 0.010011913, 9.999685, 10.000177 
1.4251344e+3, 1.3545042e+2, -1583423.0, -1529076.1, 15318.28, -0.06483357, 0.0032781505, -1525055.9, 87537.766, 0.0058154534, 9.999918, 10.000636 
1.4251201e+3, 1.454496e+2, -1566384.1, -1682125.1, -22948.111, -0.18069871, -0.04802119, -1562000.1, -47399.375, 0.002423067, 10.000271, 9.998732 
1.4251077e+3, 1.554506e+2, -1384752.5, -1549215.0, -13126.154, -0.06288561, 0.165727, -1383711.5, 32882.992, 0.00057589856, 10.000867, 9.998685 
1.4250943e+3, 1.6544926e+2, -1225514.4, -1369523.0, -5718.5317, -0.046891637, 0.14777638, -1225287.8, 93318.484, 0.00004378684, 10.001044, 9.999165 
1.4250802e+3, 1.7544588e+2, -1128141.5, -1255936.1, -8911.063, -0.06479046, -0.13635845, -1127523.1, 93111.41, 0.00000008454083, 10.00098, 9.999299 
1.4250676e+3, 1.8544543e+2, -1096998.6, -1277231.5, 31043.43, 0.025787292, -0.06733813, -1091801.5, 30838.96, 0.0, 10.000905, 9.998513 
1.4250562e+3, 1.9544744e+2, -984677.44, -1159441.9, 18951.889, 0.18315291, 0.25882092, -982645.9, 41981.766, 0.0, 10.000946, 9.998629 
1.4250429e+3, 2.054471e+2, -870973.56, -1050404.8, 13000.75, 0.19696675, 0.36398557, -870036.5, 56598.74, 0.0, 10.00103, 9.998669 
1.4250281e+3, 2.1544461e+2, -734305.75, -915326.2, 26624.873, 0.10009365, 0.22381227, -730470.94, 98190.48, 0.0, 10.001218, 9.99883 
1.4250138e+3, 2.2544293e+2, -658366.5, -801097.94, 57342.805, -0.0010358322, 0.16326195, -638182.94, 92494.35, 0.0, 10.00095, 9.999073 
1.4249997e+3, 2.3544192e+2, -638982.5, -724298.44, 33588.56, -0.112439446, 0.13207456, -627346.0, 5338.4854, 0.0, 10.000339, 9.999222 
1.4249863e+3, 2.4544138e+2, -571306.7, -570606.25, 3814.16, -0.11068846, 0.12860109, -567126.25, -32438.695, 0.0, 9.999836, 9.999843 
1.4249738e+3, 2.554411e+2, -509379.4, -480524.13, -38441.34, -0.0139395995, 0.08595779, -453892.16, -17203.72, 0.00000000006254562, 9.99955, 9.999924 
1.4249599e+3, 2.654407e+2, -453298.38, -650901.44, -74437.125, 0.027771812, 0.17456903, -428396.13, -89700.734, 0.00000036239143, 10.00032, 9.997717 
1.4249453e+3, 2.7544022e+2, -102509.984, -408404.1, -59016.07, 0.029485488, 0.32603893, -91518.95, 149188.88, 0.000010082052, 10.00196, 9.997916 
1.4249323e+3, 2.854386e+2, 53709.965, -144822.38, 76871.82, 0.042298786, 0.31658518, 79994.77, 222720.67, 0.000078412035, 10.001766, 9.999149 
1.4249209e+3, 2.9543594e+2, -68241.42, -132725.88, 75604.56, 0.068463266, 0.102823384, -18291.125, 26458.943, 0.00032778483, 10.00017, 9.999325 
1.4249073e+3, 3.0543673e+2, -41099.582, -75546.48, -46938.727, 0.020536892, 0.24735251, -8324.118, -8324.118, 0.00085219153, 9.999936, 9.9995 
1.4248945e+3, 3.1543773e+2, 147849.19, 124347.2, -106650.43, 0.20957787, 0.36215645, 243394.05, 243394.05, 0.001610581, 10.000733, 10.000491 
1.4351471e+3, 1.2546375e+2, -1821439.0, -1885520.0, -36746.25, -0.10217873, -0.13501403, -1804726.3, -94265.97, 0.010506618, 9.99973, 9.99895 
1.4351366e+3, 1.3546558e+2, -1727173.5, -1819219.4, 33969.484, 0.14927414, 0.17847118, -1715994.6, -103547.81, 0.006123269, 9.999891, 9.998646 
1.4351211e+3, 1.454645e+2, -1518857.5, -1597249.1, -10128.474, -0.12657285, 0.1697669, -1517570.0, -3108.957, 0.002563054, 10.000316, 9.999302 
1.4351086e+3, 1.5546411e+2, -1342465.0, -1459938.6, 16629.504, -0.08802456, 0.18596451, -1340156.4, 76311.46, 0.0006133788, 10.0008545, 9.999309 
1.435095e+3, 1.6546336e+2, -1219601.8, -1358168.4, -17464.967, -0.0885891, 0.19143109, -1217434.4, 101038.766, 0.000047750204, 10.001046, 9.999244 
1.435081e+3, 1.7546219e+2, -1124419.9, -1249659.3, -4692.7837, -0.0824354, 0.12099232, -1124244.4, 96234.58, 0.00000010052836, 10.000983, 9.999342 
1.435068e+3, 1.8546061e+2, -1099995.4, -1285253.0, 21003.143, -0.045908038, 0.080543056, -1097644.0, 24848.953, 0.0, 10.000912, 9.998457 
1.4350554e+3, 1.9545865e+2, -993639.25, -1167057.5, 27191.084, 0.0052513178, 0.013918881, -989475.8, 35038.824, 0.0, 10.000898, 9.998601 
1.4350426e+3, 2.0545788e+2, -838827.8, -972608.4, 10349.008, 0.054625597, 0.049354427, -838032.0, 88491.34, 0.0, 10.000977, 9.99923 
1.4350297e+3, 2.1545802e+2, -717439.44, -855725.3, 39169.44, 0.118308745, 0.11696786, -707115.44, 121406.94, 0.0, 10.001109, 9.999293 
1.4350156e+3, 2.2545725e+2, -706395.7, -871596.75, 25681.94, 0.07948808, 0.14851062, -702495.3, 28035.07, 0.0, 10.000828, 9.998647 
1.4350007e+3, 2.3545568e+2, -687141.7, -795045.9, 17590.943, -0.045158837, 0.10137652, -684346.4, -51800.35, 0.0, 10.0002165, 9.9987955 
1.4349867e+3, 2.4545425e+2, -637714.6, -683808.1, -17139.008, -0.08165443, 0.0687363, -632040.3, -97481.58, 0.0, 9.9997225, 9.999124 
1.4349733e+3, 2.554529e+2, -576281.7, -593186.3, -38552.273, -0.036376156, -0.0040344535, -545266.06, -108696.44, 0.000000006122379, 9.999437, 9.999205 
1.4349598e+3, 2.6545215e+2, -424901.38, -577459.1, -19891.691, -0.030349147, 0.054158997, -422350.4, -83769.9, 0.0000008787704, 10.000251, 9.998259 
1.4349465e+3, 2.754518e+2, -76913.05, -337892.84, 9920.886, -0.056285392, 0.16873343, -76536.45, 164055.4, 0.000014138208, 10.001878, 9.998446 
1.4349341e+3, 2.854516e+2, 68772.25, -94156.84, 7961.101, 0.014509058, 0.25105634, 69160.32, 211756.27, 0.00009033198, 10.00168, 9.9995365 
1.434922e+3, 2.9545128e+2, -69678.17, -111354.15, 30663.121, 0.1641872, 0.23639636, -53442.598, -8846.849, 0.00035666508, 10.000065, 9.999521 
1.4349079e+3, 3.054511e+2, -169630.53, -320467.4, -23619.678, 0.083170235, 0.35794723, -166018.4, -166018.4, 0.00091448583, 9.99985, 9.997856 
1.4348938e+3, 3.154487e+2, -32946.777, -200357.72, -44020.324, 0.038067255, 0.29606867, -22077.44, -22077.44, 0.0017228713, 10.00052, 9.998363 
1.445148e+3, 1.2547812e+2, -1435749.4, -1683932.4, -44328.742, -0.1217019, -0.09734077, -1428069.4, 282252.6, 0.011047917, 10.002334, 9.99908 
1.4451377e+3, 1.3547924e+2, -1676199.8, -1857388.4, 7982.4595, 0.2381589, 0.19713952, -1675848.8, -63533.277, 0.00646129, 10.000494, 9.998098 
1.4451215e+3, 1.4547792e+2, -1600430.8, -1598146.8, 65375.41, -0.098603435, 0.17815007, -1533903.4, -19572.123, 0.0027186894, 9.999603, 9.999627 
1.4451095e+3, 1.5547772e+2, -1484550.3, -1487110.6, 52715.137, -0.008012129, 0.17345403, -1433099.8, -16765.332, 0.0006559602, 9.99971, 9.999665 
1.4450964e+3, 1.6547726e+2, -1356965.6, -1448541.8, 20158.115, -0.0050003626, 0.2028354, -1352724.8, -34387.484, 0.000052490832, 10.000227, 9.999008 
1.4450826e+3, 1.7547655e+2, -1095931.3, -1258934.9, -6884.9043, -0.055713743, 0.20305791, -1095641.0, 124699.53, 0.00000012546444, 10.0012865, 9.999128 
1.445069e+3, 1.8547459e+2, -1028770.25, -1219627.8, 5743.9805, -0.048464853, 0.11898878, -1028597.56, 93759.84, 0.0, 10.001252, 9.998748 
1.4450559e+3, 1.9547157e+2, -1053567.5, -1160303.6, 22786.27, -0.010693818, -0.084762685, -1048906.6, -24520.703, 0.0, 10.000332, 9.9989195 
1.4450431e+3, 2.0547087e+2, -938654.2, -1015143.94, 42108.53, 0.038734183, -0.061110415, -920015.0, 6377.9014, 0.0, 10.000275, 9.999273 
1.4450306e+3, 2.15472e+2, -733984.44, -858814.2, 15863.798, 0.109473996, 0.10167172, -731999.94, 96383.17, 0.0, 10.00098, 9.999331 
1.4450167e+3, 2.2547136e+2, -708091.3, -929562.3, -29922.76, 0.09135828, 0.17230056, -704119.7, 26272.002, 0.0, 10.001057, 9.998139 
1.4450015e+3, 2.354692e+2, -659351.56, -832894.06, -58907.22, -0.0068340083, 0.11466395, -641245.2, -8829.167, 0.0, 10.000624, 9.998336 
1.444987e+3, 2.4546756e+2, -552196.6, -655095.0, -43110.38, -0.030815404, 0.08499777, -536522.6, -2091.3098, 0.0, 10.000364, 9.999009 
1.4449735e+3, 2.554662e+2, -454595.3, -549186.7, -28842.75, 0.005626304, 0.023133479, -446494.38, -10053.946, 0.000000012932129, 10.0003195, 9.999088 
1.4449601e+3, 2.6546526e+2, -461222.3, -568911.8, 39841.168, -0.008775281, 0.057437047, -448085.16, -109633.61, 0.0000016431604, 9.999895, 9.998481 
1.444947e+3, 2.7546465e+2, -440233.13, -485342.63, 21515.557, -0.063467085, 0.12055686, -431616.78, -191152.53, 0.00001933506, 9.999272, 9.998677 
1.4449345e+3, 2.8546438e+2, -305586.3, -322340.88, -43648.08, 0.016247744, 0.20682226, -269518.88, -127049.76, 0.000106984284, 9.99932, 9.999101 
1.4449225e+3, 2.9546416e+2, -124601.97, -182785.61, -90738.15, 0.21076904, 0.242253, -58406.086, -13936.631, 0.00040085675, 9.999875, 9.999117 
1.4449082e+3, 3.054633e+2, -90544.02, -261889.94, -30025.35, 0.109195255, 0.31152755, -85434.95, -85434.95, 0.0010133042, 10.000302, 9.998048 
1.4448936e+3, 3.1546125e+2, -14045.375, -200074.23, 54611.86, -0.04258963, 0.25931507, 801.8619, 801.8619, 0.0019009939, 10.000693, 9.998278 
1.4551531e+3, 1.2549588e+2, -1347109.6, -1493070.9, 14060.461, 0.12531869, 0.39778277, -1345767.5, 364392.9, 0.011640448, 10.002317, 10.000408 
1.4551373e+3, 1.3549155e+2, -1619383.1, -1733918.0, -54765.996, 0.14321251, 0.054950036, -1597411.3, 14787.1045, 0.0068325973, 10.00047, 9.998959 
1.4551204e+3, 1.4549015e+2, -1596899.8, -1594611.5, 60221.68, -0.17024149, -0.009752435, -1535523.0, -21314.26, 0.0028915813, 9.999617, 9.999644 
1.4551106e+3, 1.5549153e+2, -1481784.1, -1483006.6, 63526.4, 0.09730585, 0.13518967, -1418866.0, -2672.4097, 0.00070428615, 9.999721, 9.999685 
1.4550982e+3, 1.6549106e+2, -1383411.5, -1517361.4, 48110.703, 0.12190031, 0.18823479, -1367922.6, -49724.707, 0.000058062662, 10.000279, 9.998514 
1.455084e+3, 1.7548905e+2, -1129492.5, -1325631.0, 38188.73, -0.043213733, 0.10986414, -1122319.4, 97899.17, 0.00000016567238, 10.00127, 9.99868 
1.4550704e+3, 1.8548748e+2, -986260.8, -1129038.1, -37412.32, -0.052729834, 0.05087563, -977051.56, 145181.0, 0.0, 10.001243, 9.999373 
1.4550571e+3, 1.9548619e+2, -1021622.5, -1086112.3, -2691.9644, 0.06490558, -0.037489068, -1021510.4, 2730.9937, 0.0, 10.000297, 9.999449 
1.4550439e+3, 2.0548591e+2, -981394.06, -1086271.1, 60066.734, 0.07485252, 0.028576432, -954096.7, -27851.77, 0.0, 10.000203, 9.9988165 
1.4550306e+3, 2.1548639e+2, -780694.75, -930531.06, 47228.953, 0.008234228, 0.16880134, -767050.5, 61194.37, 0.0, 10.000874, 9.99889 
1.4550166e+3, 2.2548524e+2, -758659.94, -1007756.9, -54455.625, -0.037707046, 0.23174527, -747275.6, -17013.79, 0.0, 10.000944, 9.997655 
1.4550015e+3, 2.3548263e+2, -715924.25, -913863.9, -65791.05, -0.06547331, 0.18384968, -696051.75, -63758.45, 0.0, 10.000476, 9.9978485 
1.4549877e+3, 2.4548131e+2, -527037.56, -586173.8, -52648.12, -0.03299856, 0.18301407, -496222.75, 38082.18, 0.0, 10.000279, 9.999527 
1.4549744e+3, 2.5548097e+2, -430834.2, -480558.7, -23381.557, 0.046903502, 0.16986458, -421566.84, 14733.567, 0.000000017460069, 10.000234, 9.999602 
1.4549604e+3, 2.6548007e+2, -484197.0, -595692.5, 8384.965, 0.024049364, 0.19037, -483569.94, -145261.94, 0.000002726617, 9.9998, 9.998345 
1.4549462e+3, 2.7547866e+2, -474626.44, -522151.16, 8143.1377, -0.070423305, 0.18539369, -473269.88, -232943.92, 0.0000251694, 9.999131, 9.998488 
1.4549336e+3, 2.8547686e+2, -400691.66, -496385.8, -29265.64, -0.020738581, 0.1878164, -392451.13, -250104.48, 0.00012713004, 9.99921, 9.997965 
1.4549218e+3, 2.9547456e+2, -205761.17, -329912.13, -59106.938, 0.136053, 0.12766218, -182122.03, -137750.89, 0.00045719108, 9.999776, 9.998162 
1.4549078e+3, 3.0547357e+2, 32509.154, 27288.188, -23131.662, 0.024032805, 0.12028439, 53177.168, 53177.168, 0.0011417216, 10.000166, 10.000095 
1.4548932e+3, 3.1547552e+2, 75029.75, 43299.496, 91071.27, -0.17250018, 0.2715403, 151607.47, 151607.47, 0.0021348668, 10.00046, 10.000055 
1.4651556e+3, 1.2550929e+2, -1797456.9, -1704766.5, 107570.63, 0.3157731, 0.463014, -1633982.3, 76049.766, 0.012283002, 9.999169, 10.000463 
1.4651372e+3, 1.355047e+2, -1498803.5, -1637329.8, -116406.96, 0.056816563, 0.063150674, -1432612.0, 179460.64, 0.00723705, 10.001138, 9.999304 
1.4651214e+3, 1.4550397e+2, -1265930.4, -1455549.9, 10593.165, -0.15920594, 0.05618146, -1265340.4, 248735.44, 0.0030819494, 10.00197, 9.999473 
1.4651117e+3, 1.5550448e+2, -1109059.6, -1322127.0, -21438.906, 0.10614506, 0.1329246, -1106923.9, 309143.22, 0.0007585455, 10.002343, 9.999536 
1.4650993e+3, 1.6550365e+2, -1212506.0, -1441761.9, -31951.738, 0.14660916, 0.15739742, -1208136.1, 109939.39, 0.00006440502, 10.001478, 9.998459 
1.465085e+3, 1.7550166e+2, -1346740.3, -1432322.9, -27342.31, 0.0011316745, 0.08519895, -1338750.6, -118652.16, 0.00000022299002, 9.999785, 9.998665 
1.4650713e+3, 1.8550085e+2, -1222536.9, -1181507.5, -65625.195, 0.007983819, 0.0757211, -1133265.3, -11159.711, 0.0, 9.999373, 9.999906 
1.465058e+3, 1.9550091e+2, -1006744.5, -1018351.06, -51671.746, 0.13843687, 0.06721499, -960551.1, 63548.875, 0.0, 10.000144, 9.999978 
1.4650443e+3, 2.0550078e+2, -990633.9, -1100491.4, 48841.543, 0.111320324, 0.12561344, -972059.8, -45957.832, 0.0, 10.0001745, 9.998738 
1.4650305e+3, 2.1550046e+2, -957375.4, -1018868.25, 50746.832, -0.040737793, 0.19319221, -928787.3, -100677.33, 0.0, 9.999673, 9.998865 
1.4650163e+3, 2.2549932e+2, -920928.9, -1045475.3, 5085.422, -0.081998974, 0.24178655, -920721.56, -190595.47, 0.0, 9.999665, 9.998014 
1.4650021e+3, 2.3549734e+2, -743290.56, -889958.94, 43476.383, -0.029740347, 0.2211131, -731371.6, -99221.35, 0.0, 10.000124, 9.998187 
1.4649886e+3, 2.4549614e+2, -526368.75, -614342.4, 75270.63, 0.027100388, 0.23155093, -483174.66, 50986.074, 0.0, 10.000428, 9.999254 
1.464975e+3, 2.5549555e+2, -374126.56, -480216.03, 24140.732, 0.08025052, 0.22159876, -368891.66, 67268.13, 0.000000044837254, 10.000755, 9.999345 
1.464961e+3, 2.6549417e+2, -366062.34, -569856.94, 13590.174, 0.063511536, 0.2214743, -365160.06, -26988.482, 0.0000038968087, 10.000755, 9.998059 
1.4649467e+3, 2.7549207e+2, -298474.84, -471524.63, -8444.11, -0.010670002, 0.17789313, -298063.78, -57869.22, 0.000030512307, 10.000479, 9.998193 
1.4649338e+3, 2.8549007e+2, -223765.97, -411768.38, 45169.04, 0.01664161, 0.17547399, -213476.86, -71259.82, 0.00014596309, 10.000432, 9.997955 
1.4649218e+3, 2.9548812e+2, -73906.586, -263035.56, 67575.664, 0.11498915, 0.15614994, -52243.23, -8004.2886, 0.0005129789, 10.00068, 9.99818 
1.4649078e+3, 3.054864e+2, 89059.39, 97162.73, 66020.766, 0.011975215, 0.057280213, 159256.03, 159256.03, 0.0012767037, 10.000368, 10.00047 
1.4648935e+3, 3.1548858e+2, -31559.307, 43616.914, 27915.994, -0.12409152, 0.19253579, 52849.406, 52849.406, 0.002388808, 9.999466, 10.000548 
1.4751558e+3, 1.2551776e+2, -1878486.4, -1877000.0, 166585.22, 0.36142, 0.06109876, -1711156.3, -1213.5677, 0.012969953, 9.999205, 9.999248 
1.4751367e+3, 1.3551873e+2, -1507137.8, -1647957.5, -47478.535, -0.12767169, 0.22661097, -1492625.5, 119312.875, 0.0076708426, 10.001117, 9.999233 
1.4751236e+3, 1.455193e+2, -1276943.9, -1489514.9, 8549.48, -0.15122123, 0.36099532, -1276600.6, 237332.05, 0.0032881629, 10.0020075, 9.999227 
1.4751127e+3, 1.5551682e+2, -1141677.9, -1371550.5, -3755.632, -0.033866573, 0.17176989, -1141616.6, 274335.97, 0.00081847684, 10.002267, 9.999233 
1.4750996e+3, 1.6551524e+2, -1189506.1, -1397022.3, -105969.48, 0.0023135783, 0.12163567, -1144956.1, 173011.77, 0.000071419374, 10.00148, 9.998767 
1.475085e+3, 1.7551444e+2, -1326756.4, -1386054.9, -79535.836, 0.0055474844, 0.13722846, -1271523.3, -51544.137, 0.0000002932695, 9.999764, 9.998992 
1.4750715e+3, 1.855147e+2, -1183358.1, -1109879.4, -45072.55, 0.059149724, 0.1946579, -1088469.6, 33506.324, 0.0, 9.999406, 10.000386 
1.4750583e+3, 1.9551568e+2, -978653.4, -953390.25, -18060.197, 0.14550701, 0.22691847, -943982.6, 79979.82, 0.0, 10.000112, 10.000444 
1.4750443e+3, 2.0551546e+2, -972608.2, -1050944.9, 18420.17, 0.07610886, 0.23658438, -968493.06, -42529.207, 0.0, 10.000122, 9.999103 
1.4750296e+3, 2.1551429e+2, -950422.94, -976436.6, 38389.395, -0.10894445, 0.18361238, -922896.8, -94919.0, 0.0, 9.9995575, 9.99921 
1.4750159e+3, 2.2551365e+2, -854374.8, -883224.56, 13487.036, -0.10938842, 0.20806514, -849051.9, -119067.336, 0.0, 9.999555, 9.999185 
1.475003e+3, 2.355134e+2, -680340.44, -737764.25, 68703.62, 0.032609034, 0.23762077, -634590.56, -2604.4583, 0.0, 10.00003, 9.999279 
1.4749895e+3, 2.455121e+2, -612461.8, -780027.0, 78564.85, 0.07127786, 0.24402694, -581388.2, -47390.223, 0.0, 10.000363, 9.998151 
1.4749756e+3, 2.5550988e+2, -465151.9, -647024.3, 43493.742, 0.038385373, 0.18171468, -455285.8, -19266.928, 0.000000082863835, 10.000658, 9.998247 
1.4749616e+3, 2.6550752e+2, -408777.56, -637772.25, -1831.9652, 0.03229309, 0.15603091, -408762.9, -70720.234, 0.0000048986644, 10.000663, 9.997637 
1.474948e+3, 2.755049e+2, -336139.72, -525610.44, -6435.3276, 0.04363783, 0.09894047, -335921.4, -95851.77, 0.00003489618, 10.000379, 9.997866 
1.4749347e+3, 2.8550407e+2, -170400.14, -283355.63, 45251.906, 0.05111471, 0.18215623, -154507.52, -12428.368, 0.0001611451, 10.000346, 9.998882 
1.4749222e+3, 2.9550475e+2, -32579.676, -151431.73, 85434.164, 0.06013845, 0.329084, 12063.738, 56137.64, 0.0005625148, 10.00057, 9.998997 
1.4749081e+3, 3.0550173e+2, -21278.086, -99228.6, 27582.24, -0.010543688, 0.12642863, -12505.5625, -12505.5625, 0.0014021061, 10.000233, 9.999182 
1.4748943e+3, 3.1550023e+2, -120473.875, -69045.914, 14096.338, -0.032991767, 0.01736969, -65435.582, -65435.582, 0.0026234915, 9.99918, 9.999898 
1.4851558e+3, 1.255291e+2, -1603841.6, -1798339.6, 107516.93, 0.34120798, 0.024162835, -1556117.4, 153715.1, 0.013700781, 10.001321, 9.998784 
1.4851381e+3, 1.3553144e+2, -1479947.5, -1618557.8, -66843.94, -0.10593091, 0.31900573, -1452965.0, 158852.55, 0.00813248, 10.001214, 9.999402 
1.4851268e+3, 1.4553224e+2, -1513888.1, -1577750.6, -17457.957, 0.055275388, 0.45583943, -1509427.3, 4384.107, 0.0035089266, 10.000289, 9.999438 
1.4851134e+3, 1.5552963e+2, -1574229.0, -1548333.9, -9984.398, -0.04258763, 0.23088466, -1544931.3, -129097.75, 0.0008836724, 9.99917, 9.999504 
1.4850993e+3, 1.6552858e+2, -1489636.4, -1426467.0, -46462.95, -0.03551585, 0.1672649, -1401869.9, -84027.766, 0.00007901186, 9.998947, 9.999775 
1.4850855e+3, 1.7552878e+2, -1280642.0, -1255819.1, 14478.94, 0.09436091, 0.17893896, -1249160.1, -29320.094, 0.00000037325287, 9.999628, 9.999945 
1.485072e+3, 1.8552917e+2, -1130918.0, -1137211.4, 87871.43, 0.15398149, 0.23163272, -1046136.94, 75698.2, 0.0, 9.999992, 9.99992 
1.4850585e+3, 1.9552974e+2, -977639.1, -997720.25, 27770.33, 0.13241556, 0.26918113, -958150.0, 65678.266, 0.0, 10.000311, 10.000047 
1.4850442e+3, 2.0552924e+2, -981236.5, -1038365.1, -3174.3743, 0.060122028, 0.26113874, -981060.6, -55228.09, 0.0, 9.999998, 9.999245 
1.4850296e+3, 2.1552782e+2, -989267.25, -975611.75, -9261.211, -0.04307604, 0.16972911, -970933.5, -143086.88, 0.0, 9.999204, 9.999384 
1.4850162e+3, 2.2552715e+2, -815283.25, -823434.94, 5180.9644, -0.034389872, 0.16179255, -812767.06, -82915.664, 0.0, 9.999647, 9.999543 
1.4850038e+3, 2.3552711e+2, -488290.56, -608161.9, -23639.14, 0.050266463, 0.17712705, -483797.25, 148051.05, 0.0, 10.001191, 9.999604 
1.4849906e+3, 2.4552596e+2, -490282.72, -778446.2, -50273.918, 0.094712995, 0.2074876, -481763.63, 52096.605, 0.0, 10.00144, 9.997652 
1.4849769e+3, 2.555238e+2, -500066.5, -712771.1, -51287.99, 0.11064647, 0.19982174, -488345.66, -52460.57, 0.00000011463164, 10.000622, 9.997821 
1.4849627e+3, 2.655214e+2, -408621.63, -585137.6, -12189.218, 0.0866096, 0.16985175, -407783.88, -69874.7, 0.000005857849, 10.000446, 9.9981 
1.4849482e+3, 2.755188e+2, -228530.0, -427363.0, 24842.58, 0.023483537, 0.07183788, -225473.13, 14459.9, 0.0000392753, 10.000919, 9.998282 
1.4849348e+3, 2.855184e+2, -158251.81, -272441.5, 60829.063, 0.036636952, 0.17940094, -131920.06, 10017.337, 0.0001765315, 10.000429, 9.998907 
1.4849225e+3, 2.9551986e+2, -239558.03, -251698.03, 13717.677, 0.10876181, 0.4036233, -230627.38, -186701.63, 0.00061170605, 9.999148, 9.998995 
1.4849083e+3, 3.0551642e+2, -208832.02, -185382.16, 11332.528, 0.057843972, 0.15793578, -180800.64, -180800.64, 0.0015158497, 9.998916, 9.999234 
1.4848943e+3, 3.1551394e+2, -28462.607, 41415.69, 54167.3, 0.04001944, -0.05573831, 70934.59, 70934.59, 0.0028185756, 9.999518, 10.0005 
1.4951545e+3, 1.2554319e+2, -1556076.4, -1711477.6, -51726.73, 0.03835601, 0.32677943, -1540433.4, 169268.55, 0.014485426, 10.00137, 9.999357 
1.495141e+3, 1.3554336e+2, -1469385.1, -1573623.1, -69273.21, 0.04921068, 0.3728, -1434814.0, 176890.75, 0.008627366, 10.00113, 9.999744 
1.4951307e+3, 1.4554301e+2, -1464096.3, -1488821.5, -74188.2, 0.3772425, 0.34655377, -1401247.8, 112462.336, 0.0037456865, 10.000328, 10.000041 
1.495113e+3, 1.5554304e+2, -1524818.8, -1443943.5, -40560.734, -0.010496255, 0.31944695, -1427106.5, -11397.603, 0.0009542572, 9.999161, 10.000229 
1.4950983e+3, 1.6554378e+2, -1356673.8, -1169074.9, -32194.578, -0.058296222, 0.306904, -1163703.6, 153993.6, 0.00008722728, 9.99902, 10.001508 
1.4950864e+3, 1.7554459e+2, -1178477.8, -1036791.0, 42516.14, 0.2076644, 0.21338503, -1025012.3, 194669.31, 0.0000004647829, 9.999603, 10.001459 
1.4950727e+3, 1.8554431e+2, -1219671.5, -1333199.9, 87491.68, 0.2210821, 0.19814283, -1172143.0, -50460.24, 0.0, 10.000033, 9.998559 
1.4950578e+3, 1.9554321e+2, -1074264.9, -1191830.6, 42325.12, 0.021537855, 0.20560855, -1060612.6, -36915.707, 0.0, 10.000279, 9.998732 
1.4950436e+3, 2.0554216e+2, -988820.0, -1044309.75, -42282.133, -0.013056134, 0.2065776, -965992.56, -40284.883, 0.0, 9.99995, 9.999228 
1.4950302e+3, 2.1554106e+2, -1005961.5, -986697.4, -28803.809, 0.09567386, 0.14640674, -965957.8, -138241.2, 0.0, 9.999106, 9.999352 
1.4950171e+3, 2.2553983e+2, -861598.7, -904391.7, 53266.43, 0.07740723, 0.1112626, -825592.06, -95865.69, 0.0, 9.99957, 9.99903 
1.4950041e+3, 2.3553848e+2, -537569.25, -686510.7, 35399.258, -0.045956884, 0.043531958, -529583.94, 102153.42, 0.0, 10.001084, 9.999119 
1.4949915e+3, 2.4553768e+2, -498681.34, -768259.44, -88434.836, 0.019359345, 0.12777877, -472259.94, 61487.734, 0.0, 10.001319, 9.997781 
1.4949788e+3, 2.5553724e+2, -502419.2, -692726.9, -70997.234, 0.23376995, 0.27444786, -478851.25, -43092.543, 0.00000015644366, 10.000516, 9.998008 
1.494964e+3, 2.655359e+2, -335048.88, -411413.66, -2049.8792, 0.15802002, 0.27506196, -334993.88, 2777.0498, 0.000006865855, 10.000352, 9.99934 
1.4949477e+3, 2.7553383e+2, -165280.72, -272592.5, 49031.71, -0.14509435, 0.10502279, -146251.94, 93532.65, 0.00004412312, 10.00082, 9.9993925 
1.494934e+3, 2.8553307e+2, -241104.39, -420940.38, 5719.141, -0.114509605, 0.17577681, -240922.7, -99130.59, 0.0001927378, 10.000321, 9.997941 
1.4949225e+3, 2.9553342e+2, -317315.8, -381096.44, -17389.105, 0.18108924, 0.37826788, -312882.94, -269087.84, 0.00065815035, 9.999011, 9.998172 
1.494908e+3, 3.055306e+2, -141616.53, -4408.618, 28402.16, 0.12745407, 0.16597591, 1238.2544, 1238.2544, 0.0016072446, 9.998748, 10.000551 
1.494893e+3, 3.1552956e+2, 65465.984, 286592.3, 105564.64, -0.069614254, -0.040433265, 328895.47, 328895.47, 0.0029540178, 9.999316, 10.00228 
1.5051553e+3, 1.2555662e+2, -1660442.5, -1725238.5, 27348.813, 0.026825566, 0.35588682, -1650442.5, 59129.098, 0.015336173, 10.000508, 9.999662 
1.5051419e+3, 1.3555586e+2, -1604858.4, -1640710.9, 44394.074, 0.08701594, 0.300841, -1574907.9, 36674.465, 0.0091627855, 10.000193, 9.999738 
1.5051307e+3, 1.4555554e+2, -1527723.4, -1430799.0, 32383.299, 0.39967772, 0.24218349, -1420975.1, 92611.27, 0.0040015904, 9.999531, 10.000811 
1.5051126e+3, 1.5555742e+2, -1476092.4, -1333099.0, 63007.535, 0.049699683, 0.3142594, -1309297.6, 106269.33, 0.001031135, 9.999117, 10.001009 
1.5050982e+3, 1.6555871e+2, -1326135.3, -1193617.8, 70122.766, 0.00571438, 0.34111926, -1163401.5, 154148.8, 0.000096309515, 9.999393, 10.001165 
1.5050867e+3, 1.7555907e+2, -1074938.9, -1023522.56, -23534.998, 0.23656239, 0.23436812, -1014376.6, 205164.25, 0.000000575819, 10.000455, 10.001146 
1.5050732e+3, 1.8555844e+2, -1139266.4, -1294599.8, -5985.3223, 0.23024932, 0.19969004, -1139036.1, -17490.018, 0.0, 10.000606, 9.998533 
1.5050578e+3, 1.9555718e+2, -1090673.6, -1196784.5, 33523.637, 0.017147796, 0.19099328, -1080969.9, -57408.01, 0.0, 10.000171, 9.998735 
1.505044e+3, 2.0555621e+2, -926243.75, -1011489.44, 14154.002, 0.0046270047, 0.19819985, -923955.06, 1616.2316, 0.0, 10.000378, 9.999249 
1.5050308e+3, 2.1555538e+2, -702104.06, -841962.2, 13432.101, 0.15567149, 0.166475, -700825.7, 126751.09, 0.0, 10.001196, 9.999347 
1.5050179e+3, 2.2555406e+2, -670360.25, -851432.44, 129536.82, 0.13299802, 0.14133891, -602856.56, 126731.76, 0.0, 10.001073, 9.998663 
1.5050049e+3, 2.3555231e+2, -685141.2, -794116.3, 103121.81, -0.036943633, 0.07371134, -622996.8, 8608.008, 0.0, 10.000233, 9.99879 
1.5049921e+3, 2.4555151e+2, -644657.7, -767937.2, -1098.9828, 0.018175421, 0.14138842, -644647.9, -111033.13, 0.0, 10.00003, 9.99839 
1.5049794e+3, 2.5555146e+2, -479807.38, -616839.5, 30502.834, 0.2459506, 0.2690325, -473324.28, -37704.8, 0.00000020302433, 10.0004015, 9.998573 
1.5049645e+3, 2.655505e+2, -335414.72, -419549.22, 85453.195, 0.16618288, 0.28356132, -282235.44, 55392.19, 0.0000077496, 10.000385, 9.999265 
1.5049478e+3, 2.7554873e+2, -275030.0, -334096.16, 22359.25, -0.15934622, 0.15385081, -267520.7, -27881.664, 0.0000484326, 10.000092, 9.999326 
1.5049344e+3, 2.8554738e+2, -237042.5, -430525.6, -24137.29, -0.09533157, 0.17108758, -234076.8, -92424.19, 0.00020691432, 10.000405, 9.997834 
1.5049234e+3, 2.955464e+2, 6358.286, -233341.88, -13737.009, 0.27911276, 0.25496876, 7142.973, 50810.5, 0.0006962151, 10.001285, 9.998084 
1.5049085e+3, 3.055444e+2, 85645.24, 54764.133, -11907.976, 0.21404046, 0.14567868, 89703.68, 89703.68, 0.001668208, 10.000495, 10.000138 
1.504892e+3, 3.155445e+2, -110574.22, 179795.36, -87640.14, -0.04133903, 0.10538611, 204196.6, 204196.6, 0.0030196507, 9.998165, 10.002123 
1.5151569e+3, 1.2557079e+2, -1647400.8, -1721383.6, -49759.49, 0.0881677, 0.22129841, -1622389.1, 87039.16, 0.016257107, 10.00059, 9.999664 
1.5151407e+3, 1.355692e+2, -1644212.8, -1704780.1, 39153.156, -0.06371324, 0.11547898, -1624998.3, -13550.435, 0.009740974, 10.000131, 9.999322 
1.515127e+3, 1.4557017e+2, -1459696.0, -1310162.0, 1179.9984, 0.037177127, 0.17259504, -1310152.8, 203284.67, 0.0042781597, 9.999601, 10.001616 
1.515112e+3, 1.5557286e+2, -1424356.3, -1220532.3, 54906.82, 0.06750257, 0.2346388, -1206682.4, 208724.11, 0.0011151112, 9.999104, 10.001783 
1.5150985e+3, 1.6557361e+2, -1474566.8, -1522234.8, 97544.27, 0.08031334, 0.2885258, -1397986.9, -80587.234, 0.000106548556, 9.999469, 9.9988785 
1.515086e+3, 1.7557241e+2, -1221876.0, -1326033.0, 19863.33, 0.11251555, 0.25008428, -1218216.6, 1199.3022, 0.0000007145684, 10.0004425, 9.999075 
1.5150727e+3, 1.8557177e+2, -1045753.3, -1107363.5, -30081.588, 0.10827216, 0.24608666, -1033502.0, 87921.05, 0.0, 10.000628, 9.999812 
1.5150586e+3, 1.9557169e+2, -1012242.2, -1023767.7, 25204.555, 0.05527547, 0.2273798, -992149.94, 31272.43, 0.0, 10.000131, 9.999942 
1.5150449e+3, 2.0557141e+2, -930627.56, -1012516.7, 33401.613, 0.0444355, 0.246125, -918731.56, 6691.5776, 0.0, 10.000336, 9.999267 
1.5150313e+3, 2.1557088e+2, -715681.9, -845501.1, 46046.84, 0.07457004, 0.23963417, -701007.8, 126418.46, 0.0, 10.001088, 9.999375 
1.5150185e+3, 2.2556995e+2, -707614.7, -896273.9, 89299.664, 0.06116743, 0.26528317, -672050.06, 57385.496, 0.0, 10.000932, 9.9984255 
1.5150057e+3, 2.3556866e+2, -714221.44, -827684.7, 82528.1, 0.011614842, 0.2681653, -670806.4, -39355.957, 0.0, 10.000121, 9.998612 
1.5149923e+3, 2.4556752e+2, -587203.0, -628926.9, 4222.0444, 0.020640863, 0.25676548, -586780.06, -53319.332, 0.0, 9.999935, 9.999397 
1.5149783e+3, 2.555665e+2, -432110.53, -495331.2, 51276.688, 0.08043456, 0.1876783, -403483.72, 31983.73, 0.00000026346208, 10.000299, 9.999461 
1.5149638e+3, 2.6556516e+2, -451752.66, -632796.6, 68237.8, 0.03656035, 0.19794406, -428914.03, -91434.22, 0.0000083363275, 10.000263, 9.99786 
1.5149488e+3, 2.7556354e+2, -385054.6, -529420.8, 24381.982, -0.09177805, 0.2180555, -381047.9, -141550.9, 0.000050839903, 9.99996, 9.998043 
1.5149361e+3, 2.8556135e+2, -203769.13, -343968.56, 1220.6508, 0.014010041, 0.1792572, -203758.48, -62239.715, 0.00021853887, 10.000314, 9.998478 
1.5149254e+3, 2.9555878e+2, 29002.951, -168157.48, 27759.37, 0.32020906, 0.03857564, 32836.805, 76380.39, 0.0007285583, 10.0012, 9.998573 
1.5149093e+3, 3.0555764e+2, -92815.2, -270249.4, -108641.2, 0.23304917, 0.107821256, -41269.566, -41269.566, 0.0017078614, 10.000327, 9.9979725 
1.5148905e+3, 3.1555858e+2, -304698.9, -135441.0, -148991.05, -0.022262301, 0.3611743, -48721.21, -48721.21, 0.0030333768, 9.997845, 10.000083 
1.5251584e+3, 1.2558612e+2, -1591325.9, -1662009.6, -63997.992, 0.18950915, 0.22098574, -1553559.6, 155720.53, 0.017244658, 10.000861, 9.999936 
1.5251406e+3, 1.3558531e+2, -1731890.6, -1720263.3, 28811.787, -0.04879408, 0.15490028, -1696684.5, -85394.516, 0.010359608, 9.999399, 9.999574 
1.5251249e+3, 1.4558598e+2, -1561786.9, -1449465.4, 37491.645, -0.1044974, 0.21582846, -1438100.9, 75181.46, 0.0045741852, 9.999309, 10.000791 
1.5251122e+3, 1.555871e+2, -1206216.3, -1203038.5, -53536.73, 0.09601821, 0.20022872, -1151067.0, 264201.34, 0.0012060112, 10.000965, 10.001015 
1.5250994e+3, 1.6558744e+2, -1280885.9, -1411154.6, 15904.561, 0.15912428, 0.24245217, -1278972.3, 38294.297, 0.000118081814, 10.000755, 9.99901 
1.5250859e+3, 1.7558703e+2, -1373934.9, -1382288.6, 94665.95, 0.11956303, 0.27321178, -1283353.6, -64078.297, 0.0000008766353, 9.999346, 9.999215 
1.5250728e+3, 1.855868e+2, -1212315.6, -1143420.9, 120418.39, 0.111138664, 0.28319418, -1052619.6, 68658.3, 0.0, 9.999295, 10.000209 
1.5250593e+3, 1.9558677e+2, -936038.1, -955316.2, 92866.09, 0.09965334, 0.23471715, -852312.2, 170962.98, 0.0, 10.000496, 10.000248 
1.5250458e+3, 2.0558652e+2, -881259.1, -1026027.8, 68705.66, 0.08466756, 0.26007688, -853843.9, 71432.234, 0.0, 10.000832, 9.998928 
1.5250319e+3, 2.1558608e+2, -819572.44, -929103.9, 35972.637, 0.062066052, 0.29534146, -808814.75, 18465.281, 0.0, 10.000514, 9.999073 
1.525019e+3, 2.2558513e+2, -823973.6, -920997.5, 68496.516, 0.07046489, 0.3174702, -788550.0, -59260.246, 0.0, 9.999989, 9.998712 
1.5250063e+3, 2.3558374e+2, -816605.8, -845416.44, 90127.586, 0.098362245, 0.28152865, -739739.56, -108435.31, 0.0, 9.999278, 9.998898 
1.5249926e+3, 2.4558268e+2, -592567.2, -608101.25, 71771.055, 0.07169269, 0.25466925, -528144.1, 5168.305, 0.0, 9.999807, 9.999596 
1.5249781e+3, 2.555819e+2, -263610.78, -395053.22, 37880.934, -0.0022148292, 0.18753381, -253475.27, 181840.4, 0.0000003530132, 10.001371, 9.999632 
1.524964e+3, 2.6558042e+2, -270172.28, -574729.06, 37375.19, -0.02780727, 0.19036517, -265652.66, 71677.336, 0.00000861748, 10.001637, 9.997598 
1.5249498e+3, 2.755784e+2, -266397.8, -496354.03, 62504.17, -0.02035717, 0.19851914, -250506.75, -11153.228, 0.000051572304, 10.000883, 9.997824 
1.5249372e+3, 2.8557655e+2, -140689.4, -275979.22, 117907.234, 0.07096244, 0.18519108, -72400.695, 68971.65, 0.00023012148, 10.00059, 9.998812 
1.5249254e+3, 2.955749e+2, -17412.979, -164235.55, 96440.445, 0.23149526, 0.1038757, 30377.951, 73765.055, 0.0007602401, 10.0007515, 9.998828 
1.5249091e+3, 3.0557388e+2, -24777.914, -324557.38, -24599.604, 0.15667665, 0.21642305, -22772.707, -22772.707, 0.0017408301, 10.001156, 9.997209 
1.5248908e+3, 3.1557316e+2, 172613.5, -24212.068, 9332.409, 0.049422022, 0.38532636, 173055.0, 173055.0, 0.003031587, 10.001592, 9.999062 
1.5351601e+3, 1.2560233e+2, -1580521.9, -1633895.8, -47545.367, 0.23084784, 0.32018, -1552685.9, 156443.83, 0.018294634, 10.000836, 10.000144 
1.535141e+3, 1.3560437e+2, -1666635.6, -1576443.3, -23679.059, 0.04479277, 0.42961866, -1570604.5, 40502.332, 0.011016667, 9.999374, 10.000569 
1.5351243e+3, 1.4560331e+2, -1716004.5, -1796195.8, 85555.51, -0.112082906, 0.39637694, -1661615.1, -148497.28, 0.0048880493, 9.999411, 9.998372 
1.5351132e+3, 1.5560047e+2, -1368909.6, -1519037.8, 10064.782, 0.06341607, 0.22915585, -1368237.9, 46911.297, 0.0013030368, 10.000887, 9.9988785 
1.5351003e+3, 1.6560057e+2, -1112738.0, -1072090.9, -46690.223, 0.16681755, 0.22538012, -1041492.7, 275654.4, 0.00013086536, 10.00078, 10.001334 
1.5350862e+3, 1.7560302e+2, -1224744.0, -1067852.5, 54171.09, 0.19568513, 0.31035835, -1050966.0, 168152.33, 0.0000010420176, 9.999328, 10.001381 
1.5350726e+3, 1.8560354e+2, -1241391.1, -1217925.0, 156755.89, 0.15995187, 0.32264957, -1072463.8, 48646.617, 0.0, 9.999348, 9.999676 
1.5350598e+3, 1.9560246e+2, -974559.25, -1030785.1, 140725.0, 0.08180409, 0.21888123, -859166.6, 163953.11, 0.0, 10.000476, 9.999741 
1.5350464e+3, 2.0560162e+2, -940854.3, -1132496.5, 48810.28, 0.048720207, 0.2463287, -929138.75, -4009.74, 0.0, 10.000759, 9.998231 
1.5350325e+3, 2.15601e+2, -879554.8, -1027327.44, 30317.498, 0.049399324, 0.33151177, -873576.6, -46438.492, 0.0, 10.000404, 9.998448 
1.5350191e+3, 2.2559959e+2, -786474.75, -815292.56, 33804.74, 0.088521205, 0.29757506, -764136.2, -34985.5, 0.0, 9.999862, 9.999502 
1.5350063e+3, 2.3559755e+2, -777159.06, -743904.56, 76717.66, 0.16339208, 0.11325126, -682033.0, -50866.438, 0.0, 9.999188, 9.9996395 
1.5349928e+3, 2.4559699e+2, -658619.94, -712186.1, 123034.64, 0.097293764, 0.13466278, -559486.94, -26316.643, 0.0, 9.999671, 9.998943 
1.534979e+3, 2.5559762e+2, -321079.84, -486064.1, 100890.7, -0.07245716, 0.27369624, -273249.72, 161914.56, 0.0000004707298, 10.001259, 9.999057 
1.534965e+3, 2.655963e+2, -219730.05, -452633.63, -1426.6282, -0.10428063, 0.272558, -219721.3, 117456.68, 0.000008627056, 10.001553, 9.998483 
1.5349507e+3, 2.7559337e+2, -219351.78, -378959.66, 43886.94, -0.024589455, 0.10239195, -208080.31, 31127.777, 0.00005249674, 10.000798, 9.9986725 
1.534937e+3, 2.8559294e+2, -162611.36, -296942.63, 116158.41, -0.016269129, 0.19546002, -95598.016, 45615.65, 0.00024287593, 10.000476, 9.998729 
1.5349233e+3, 2.9559463e+2, -38657.48, -178849.7, 117084.375, -0.07192099, 0.45379344, 27709.645, 70908.17, 0.0007925894, 10.000627, 9.998787 
1.534908e+3, 3.0559313e+2, -1428.1493, -237549.28, -14658.19, -0.10006533, 0.48518088, -521.662, -521.662, 0.0017781113, 10.001003, 9.997872 
1.5348925e+3, 3.1558838e+2, 144781.52, -8667.802, 63320.15, 0.022810042, 0.17774528, 167536.06, 167536.06, 0.003049598, 10.001314, 9.999285 
1.5451589e+3, 1.256184e+2, -1887862.4, -1812056.4, 98153.484, 0.13483371, 0.31867662, -1744741.9, -35770.56, 0.019406972, 9.9988575, 9.999853 
1.5451412e+3, 1.35621e+2, -1495611.3, -1515917.3, -68419.6, 0.076069005, 0.5059793, -1436595.5, 174349.3, 0.0117135905, 10.000635, 10.000383 
1.5451255e+3, 1.4561927e+2, -1598660.6, -1744236.4, 111897.125, 0.034397822, 0.4124952, -1537960.5, -24997.23, 0.0052204016, 10.000237, 9.998327 
1.5451139e+3, 1.5561642e+2, -1677833.5, -1682655.0, 191462.75, 0.15909006, 0.25601098, -1488766.3, -73771.47, 0.0014059248, 9.998803, 9.998775 
1.5451007e+3, 1.656165e+2, -1402974.8, -1201984.3, 133793.77, 0.21197605, 0.25301737, -1135147.4, 181845.08, 0.00014487762, 9.998752, 10.0014105 
1.5450858e+3, 1.7561895e+2, -1127386.3, -1019270.1, 52696.086, 0.19694795, 0.32643273, -997835.44, 221127.42, 0.000001197513, 9.999968, 10.00141 
1.5450725e+3, 1.8561931e+2, -1150083.5, -1214239.1, 120624.86, 0.16621491, 0.34106955, -1057344.1, 63612.55, 0.0, 10.000165, 9.999301 
1.5450601e+3, 1.956181e+2, -1100683.1, -1125290.1, 100917.78, 0.1144805, 0.26086092, -1011321.6, 11646.896, 0.0, 9.999771, 9.999426 
1.5450467e+3, 2.0561698e+2, -1067415.9, -1161526.3, 53851.17, 0.06776752, 0.2592147, -1042957.8, -117977.28, 0.0, 9.999765, 9.998511 
1.5450324e+3, 2.1561597e+2, -912662.5, -1015587.9, 91623.14, 0.024773868, 0.28169158, -859038.5, -32046.12, 0.0, 10.000068, 9.998693 
1.545019e+3, 2.2561474e+2, -700749.3, -781161.25, 104181.62, 0.06762732, 0.25945652, -629284.7, 99718.36, 0.0, 10.000495, 9.999426 
1.5450063e+3, 2.3561336e+2, -515104.8, -624495.94, 59572.52, 0.16781688, 0.15061635, -488927.06, 142085.81, 0.0, 10.001034, 9.999565 
1.5449932e+3, 2.4561271e+2, -550465.25, -664354.75, 118975.48, 0.13689433, 0.16948272, -475509.0, 57508.75, 0.000000000009610117, 10.000422, 9.998918 
1.5449798e+3, 2.5561267e+2, -671415.94, -655638.3, 130539.82, 0.0037731167, 0.24619666, -532749.2, -97730.555, 0.0000005675007, 9.998856, 9.999057 
1.5449661e+3, 2.6561183e+2, -551282.7, -548965.9, 64119.746, -0.014955393, 0.2614148, -485994.06, -148966.47, 0.000008574752, 9.999016, 9.999037 
1.5449521e+3, 2.7561018e+2, -213829.39, -325545.66, 61726.664, 0.042311247, 0.16691224, -186439.02, 52605.45, 0.000054083346, 10.000609, 9.999136 
1.5449381e+3, 2.8560972e+2, -55178.19, -264188.06, 118903.93, 0.013957148, 0.24578767, -1381.4342, 139667.95, 0.00025576144, 10.001316, 9.998534 
1.544924e+3, 2.956103e+2, 48707.62, -161227.78, 90754.46, -0.10171713, 0.4194331, 82500.83, 125544.74, 0.0008265112, 10.001339, 9.998558 
1.5449092e+3, 3.0560857e+2, 165462.36, -142406.84, -20893.094, -0.12333719, 0.42950702, 166873.77, 166873.77, 0.0018294866, 10.0020685, 9.998022 
1.544895e+3, 3.1560457e+2, 405923.03, 75281.21, -17537.707, 0.05310653, 0.1877803, 406850.66, 406850.66, 0.0031096644, 10.003249, 9.998952 
1.5551555e+3, 1.2563469e+2, -1922237.5, -1900717.3, 163698.83, -0.14048773, 0.2562293, -1747425.3, -38623.0, 0.020587768, 9.998929, 9.999214 
1.5551409e+3, 1.3563554e+2, -1593954.4, -1694993.5, -16355.936, -0.04105714, 0.4209397, -1591372.8, 19427.785, 0.012455585, 10.000536, 9.99919 
1.5551282e+3, 1.4563394e+2, -1436422.3, -1415397.6, 43146.883, 0.24207681, 0.2727697, -1381500.9, 131316.98, 0.0055746003, 10.0002575, 10.000584 
1.5551142e+3, 1.5563507e+2, -1544468.4, -1405908.8, 151416.84, 0.30079168, 0.29609185, -1308675.0, 106129.57, 0.001515748, 9.998814, 10.000664 
1.5550995e+3, 1.6563542e+2, -1536783.9, -1505232.5, 168431.84, 0.21047924, 0.34521604, -1351839.1, -35037.918, 0.00016035176, 9.998849, 9.999289 
1.5550846e+3, 1.7563489e+2, -1267148.1, -1306235.1, 98106.19, 0.07129856, 0.33246505, -1186657.8, 32150.32, 0.0000013687348, 9.999956, 9.999445 
1.5550718e+3, 1.8563429e+2, -1162340.8, -1244469.0, 97526.89, 0.062418144, 0.35300574, -1097585.5, 23229.328, 0.0, 10.000184, 9.9990835 
1.5550603e+3, 1.9563371e+2, -1118120.5, -1150530.4, 95071.0, 0.13133211, 0.35933575, -1037883.25, -15062.334, 0.0, 9.999729, 9.9992695 
1.5550467e+3, 2.0563257e+2, -989141.9, -991383.56, 57712.934, 0.07086656, 0.30062586, -932538.9, -7708.4766, 0.0, 9.99972, 9.999707 
1.5550317e+3, 2.1563098e+2, -846744.9, -863761.1, 110416.76, -0.07418686, 0.14384787, -744508.94, 82333.88, 0.0, 9.999993, 9.999777 
1.5550183e+3, 2.2563058e+2, -788527.44, -938702.6, 116932.875, -0.072162904, 0.20599219, -724649.44, 4197.128, 0.0, 10.000386, 9.998399 
1.5550062e+3, 2.3563111e+2, -594153.3, -768575.56, 84203.63, 0.043092422, 0.3906461, -560137.25, 70706.53, 0.0, 10.000945, 9.998619 
1.5549935e+3, 2.456298e+2, -526490.3, -586792.9, 53570.008, 0.11356318, 0.35772878, -495169.28, 37685.996, 0.0, 10.0003, 9.999511 
1.5549803e+3, 2.5562707e+2, -645694.8, -576899.1, 87198.23, 0.16063978, 0.103796065, -517559.34, -82681.06, 0.0000005355393, 9.998748, 9.999651 
1.5549669e+3, 2.6562694e+2, -560008.8, -541424.75, 120516.0, 0.15597871, 0.15402551, -429843.13, -92964.15, 0.000008556659, 9.998902, 9.999144 
1.5549536e+3, 2.7562875e+2, -224321.52, -324031.1, 130999.336, 0.11617789, 0.39528215, -134010.95, 104851.32, 0.00005618316, 10.000511, 9.999189 
1.5549405e+3, 2.8562677e+2, -98221.52, -329698.4, 113757.07, 0.09147723, 0.33932757, -51676.082, 89203.79, 0.0002701419, 10.001209, 9.998137 
1.5549272e+3, 2.9562175e+2, 9013.096, -216240.7, 106929.016, 0.07074893, -0.012829554, 51687.945, 94612.41, 0.0008663048, 10.001226, 9.998232 
1.5549126e+3, 3.0562007e+2, 97333.42, -234616.34, 18479.756, -0.0018363608, 0.046299715, 98359.03, 98359.03, 0.0019044692, 10.001881, 9.99747 
1.5548979e+3, 3.1562176e+2, 304172.97, -59533.695, 56762.742, -0.01226238, 0.4255211, 312825.94, 312825.94, 0.003225979, 10.002961, 9.998142 
1.5651545e+3, 1.2564951e+2, -1940636.8, -1849141.9, 73917.72, -0.12019001, 0.18772918, -1807960.3, -99308.18, 0.021849003, 9.99853, 9.999772 
1.5651402e+3, 1.3564917e+2, -1911316.6, -1829690.5, 22126.193, -0.052738093, 0.21377307, -1824078.6, -213416.86, 0.013250772, 9.998242, 9.999394 
1.5651287e+3, 1.4564845e+2, -1586162.9, -1453657.6, 51455.824, 0.3435852, 0.12565921, -1436022.8, 76648.484, 0.0059556314, 9.99911, 10.000863 
1.5651134e+3, 1.5565163e+2, -1240726.0, -1240197.0, -2366.0903, 0.24107254, 0.3294914, -1238080.8, 176558.8, 0.0016345053, 10.000826, 10.000827 
1.5650985e+3, 1.6565199e+2, -1248229.6, -1444226.6, 34922.613, 0.10888822, 0.41036275, -1242193.0, 74444.77, 0.00017771397, 10.001175, 9.998587 
1.5650849e+3, 1.7564999e+2, -1194066.8, -1340894.5, 53928.93, 0.05554733, 0.320309, -1176387.6, 42273.848, 0.0000016137079, 10.000762, 9.998819 
1.5650724e+3, 1.8564901e+2, -1116359.8, -1202538.1, 104626.45, 0.09452456, 0.3209935, -1046297.0, 74375.53, 0.0, 10.000407, 9.999268 
1.5650605e+3, 1.956489e+2, -1036836.5, -1093905.6, 119937.195, 0.1546968, 0.3570979, -942086.25, 80586.88, 0.0, 10.0001955, 9.999442 
1.5650468e+3, 2.0564823e+2, -939477.0, -945423.2, 80608.29, 0.089309566, 0.32707143, -861787.0, 62890.95, 0.0, 9.999971, 9.999896 
1.5650316e+3, 2.1564712e+2, -849843.5, -841803.1, 44332.355, -0.06425804, 0.19911057, -801309.06, 25376.908, 0.0, 9.999882, 9.999972 
1.5650187e+3, 2.2564678e+2, -825419.4, -952293.8, 90735.016, -0.06285165, 0.25548202, -778144.75, -49455.93, 0.0, 10.000111, 9.998436 
1.5650071e+3, 2.3564701e+2, -650667.5, -795515.1, 121530.73, 0.051746145, 0.4059066, -581617.2, 49070.785, 0.0, 10.000544, 9.998629 
1.5649942e+3, 2.456456e+2, -507675.6, -627409.8, 47882.934, 0.13838841, 0.3852756, -490882.13, 41819.234, 0.0, 10.000639, 9.999069 
1.5649803e+3, 2.5564292e+2, -415653.72, -511754.38, -10093.373, 0.19450346, 0.18190104, -414605.06, 20120.648, 0.00000039469393, 10.000524, 9.999239 
1.5649672e+3, 2.656423e+2, -324184.25, -462312.72, 46675.645, 0.20266828, 0.21846674, -309890.9, 26840.664, 0.000008163994, 10.000675, 9.998835 
1.5649548e+3, 2.7564317e+2, -172022.27, -329463.9, 5427.549, 0.17250277, 0.39447302, -171835.38, 66888.23, 0.00005803459, 10.001003, 9.998914 
1.5649422e+3, 2.8564098e+2, -109193.16, -305654.56, -18030.732, 0.15994744, 0.32083896, -107552.05, 33189.645, 0.00028587523, 10.001003, 9.998411 
1.5649289e+3, 2.9563648e+2, -37029.38, -214106.67, 623.2934, 0.15048534, -0.0052157394, -37027.188, 5752.8633, 0.0009117836, 10.000796, 9.998465 
1.5649147e+3, 3.0563438e+2, -4995.5537, -308326.84, 7708.1216, 0.06854866, 0.009883047, -4799.8047, -4799.8047, 0.0020009489, 10.001265, 9.997262 
1.5649006e+3, 3.1563625e+2, 179007.2, -152309.88, 40369.92, 0.007671035, 0.43779537, 183855.2, 183855.2, 0.0033957218, 10.0022, 9.997889 
1.5751542e+3, 1.2566355e+2, -1818771.0, -1605480.8, -70344.0, -0.025609368, 0.16302246, -1584370.4, 124143.74, 0.023204513, 9.998544, 10.001464 
1.5751386e+3, 1.3566236e+2, -1802323.5, -1600340.8, 24562.793, -0.043732736, -0.0777669, -1597396.6, 13127.512, 0.014108494, 9.998247, 10.000957 
1.5751274e+3, 1.4566322e+2, -1685077.5, -1692570.5, 106094.74, 0.270654, 0.009374643, -1582663.1, -70143.76, 0.0063687824, 9.999237, 9.999172 
1.5751113e+3, 1.5566619e+2, -1350980.0, -1463212.1, 60499.08, -0.06661773, 0.36229828, -1324578.4, 89919.59, 0.00176415, 10.000799, 9.999311 
1.5750971e+3, 1.6566639e+2, -1195948.9, -1339015.0, 8894.721, -0.16212368, 0.45735347, -1195398.0, 121102.36, 0.00019721544, 10.001184, 9.999306 
1.575086e+3, 1.7566434e+2, -1153020.0, -1246443.9, 46564.273, 0.08460339, 0.29558, -1133775.6, 84746.37, 0.0000019795527, 10.000728, 9.999482 
1.5750739e+3, 1.8566355e+2, -1068747.0, -1115041.6, 89485.9, 0.18377906, 0.25353247, -999463.1, 121065.79, 0.0, 10.000449, 9.999849 
1.5750605e+3, 1.9566374e+2, -1007177.75, -1025501.9, 117163.984, 0.11952896, 0.26149753, -898818.1, 123706.125, 0.0, 10.000166, 9.999927 
1.5750463e+3, 2.0566404e+2, -1004646.9, -1071493.1, 69477.26, 0.047545522, 0.35074323, -960971.4, -36449.508, 0.0, 9.999926, 9.999053 
1.5750322e+3, 2.1566437e+2, -916816.5, -956881.0, 48956.2, -0.009620934, 0.45093003, -883952.6, -57430.906, 0.0, 9.999781, 9.999229 
1.5750198e+3, 2.2566326e+2, -762434.44, -796048.56, 101532.445, 0.02370939, 0.40379697, -676327.4, 52202.86, 0.0, 9.999998, 9.999562 
1.5750085e+3, 2.35661e+2, -602807.9, -666955.06, 143097.22, 0.12574124, 0.1933756, -488233.84, 142312.1, 0.0, 10.00042, 9.999571 
1.5749949e+3, 2.4566014e+2, -635108.25, -859747.94, 36210.11, 0.12620662, 0.26457566, -629415.75, -96860.45, 0.0, 10.000498, 9.99754 
1.5749794e+3, 2.556603e+2, -533468.0, -737155.75, -6069.2026, 0.050158296, 0.496031, -533287.3, -98727.125, 0.00000029448665, 10.000438, 9.997731 
1.5749666e+3, 2.6565784e+2, -392867.44, -583784.94, 53192.7, 0.062212784, 0.46258438, -379047.47, -42461.28, 0.000007127328, 10.000584, 9.998045 
1.5749557e+3, 2.7565318e+2, -232809.84, -429091.4, 26155.111, 0.13797228, 0.16207887, -229384.38, 9245.338, 0.000058416226, 10.000895, 9.998281 
1.574943e+3, 2.8565228e+2, -66774.734, -197730.58, -34093.07, 0.12768859, 0.19871321, -58430.6, 82205.016, 0.00029913065, 10.000906, 9.999205 
1.5749289e+3, 2.9565442e+2, -2728.924, -120017.33, 10267.002, 0.058447205, 0.45828325, -1836.9711, 40773.64, 0.0009576331, 10.00069, 9.9991665 
1.5749153e+3, 3.0565128e+2, -21203.621, -295294.38, 38250.14, -0.014886289, 0.33017597, -15965.8, -15965.8, 0.0021078228, 10.001085, 9.997423 
1.5749025e+3, 3.156478e+2, 171320.31, -94885.93, 102863.63, -0.046161544, 0.19541818, 206435.4, 206435.4, 0.0035946025, 10.001911, 9.998405 
1.5851535e+3, 1.2567817e+2, -1898976.9, -1644878.6, -45353.44, 0.08493487, 0.1569744, -1637026.3, 71347.76, 0.024665277, 9.99803, 10.001421 
1.5851386e+3, 1.3567859e+2, -1414249.1, -1413225.0, -25688.365, -0.0014280356, 0.075141676, -1388043.6, 222325.31, 0.0150364665, 10.000941, 10.000954 
1.5851268e+3, 1.4567927e+2, -1444234.3, -1599036.8, 10349.942, 0.20684293, 0.15413424, -1443545.4, 68819.45, 0.0068181083, 10.001004, 9.998952 
1.5851104e+3, 1.5567975e+2, -1653460.4, -1632320.5, 52230.766, -0.11956834, 0.2849717, -1589600.9, -175236.13, 0.0019058621, 9.998817, 9.9991045 
1.5850969e+3, 1.6567957e+2, -1531891.9, -1479497.8, 74114.945, -0.18141729, 0.34093958, -1427086.3, -110716.24, 0.0002187055, 9.99879, 9.999492 
1.5850867e+3, 1.7567876e+2, -1160502.5, -1229519.5, 56523.04, 0.10384256, 0.28004226, -1128786.5, 89593.81, 0.000002466339, 10.000584, 9.999666 
1.5850745e+3, 1.8567845e+2, -1012613.5, -1096157.8, 31851.879, 0.18883435, 0.2821636, -1001855.2, 118527.9, 0.0, 10.000881, 9.999769 
1.5850599e+3, 1.956786e+2, -1002023.44, -1028747.8, -2410.477, 0.05562672, 0.29453135, -1001807.75, 20571.867, 0.0, 10.000233, 9.999868 
1.5850459e+3, 2.0567867e+2, -1011839.4, -1095900.6, -13471.158, 0.0059260735, 0.37078327, -1009733.4, -85353.72, 0.0, 9.999969, 9.998867 
1.5850326e+3, 2.1567853e+2, -888516.2, -965793.56, 1345.7249, 0.04628698, 0.44571403, -888492.75, -62109.414, 0.0, 10.0000515, 9.99905 
1.5850206e+3, 2.2567709e+2, -738763.4, -773554.8, 59414.305, 0.110464714, 0.3703466, -694250.5, 34143.492, 0.0, 10.000125, 9.99966 
1.5850094e+3, 2.3567471e+2, -606545.5, -660362.5, 6556.7964, 0.18169598, 0.1413869, -605758.1, 24651.133, 0.0, 10.000363, 9.999649 
1.5849957e+3, 2.4567361e+2, -607762.7, -887185.9, -71818.99, 0.15552863, 0.20440476, -590384.2, -57963.297, 0.0, 10.0008745, 9.997163 
1.5849803e+3, 2.5567347e+2, -388294.0, -709920.6, -46149.926, 0.050274275, 0.44293085, -381803.0, 52626.94, 0.00000023115544, 10.001614, 9.997351 
1.5849675e+3, 2.6567096e+2, -244209.77, -505133.94, 83268.75, 0.05441794, 0.42451295, -219900.92, 116555.54, 0.0000061293663, 10.001578, 9.998098 
1.5849565e+3, 2.7566662e+2, -208914.86, -411832.84, 100318.414, 0.137895, 0.15088402, -167693.4, 70803.46, 0.000059467606, 10.001043, 9.998322 
1.5849437e+3, 2.856659e+2, -76294.57, -237438.92, 38358.813, 0.11537586, 0.22040015, -67629.56, 72872.46, 0.00031124914, 10.001007, 9.998873 
1.5849294e+3, 2.956681e+2, 63575.15, -115186.03, -27611.7, 0.0026235392, 0.5174563, 67742.914, 110221.195, 0.001001838, 10.001276, 9.998903 
1.5849166e+3, 3.0566442e+2, 132053.94, -188482.23, 25122.123, -0.029554334, 0.33159903, 134010.95, 134010.95, 0.00221268, 10.001957, 9.997764 
1.5849055e+3, 3.156607e+2, 363337.78, 89261.35, 62928.33, 0.022471784, 0.13927194, 377095.6, 377095.6, 0.0037863106, 10.002825, 9.999244 
1.5951513e+3, 1.2569319e+2, -2005289.0, -1909775.6, -848.284, 0.013614268, 0.12855333, -1909768.0, -201534.75, 0.026239868, 9.998191, 9.999529 
1.59514e+3, 1.3569787e+2, -1528057.9, -1640126.5, 86026.914, 0.03685482, 0.65017974, -1481425.4, 128769.79, 0.016040104, 10.0009, 9.999396 
1.5951267e+3, 1.456965e+2, -1355959.9, -1432782.5, -78868.445, 0.06798863, 0.5372023, -1306646.3, 205561.06, 0.0073062, 10.001062, 10.000077 
1.5951107e+3, 1.5569258e+2, -1580034.5, -1486447.8, -13181.096, 0.005128358, 0.11281851, -1484626.8, -70389.26, 0.002060233, 9.99884, 10.000097 
1.5950973e+3, 1.6569187e+2, -1544638.0, -1521861.5, 131467.7, -0.033724688, 0.08848136, -1401289.6, -85045.56, 0.00024185247, 9.998856, 9.99917 
1.595087e+3, 1.7569335e+2, -1189020.8, -1281420.9, 123679.29, 0.05946813, 0.2880759, -1103194.3, 115040.99, 0.0000030340082, 10.000556, 9.999322 
1.5950741e+3, 1.856938e+2, -1057454.9, -1194019.1, -2574.665, 0.045092385, 0.41753688, -1057406.4, 62827.78, 0.0, 10.000897, 9.999088 
1.5950589e+3, 1.9569355e+2, -1054895.6, -1124841.6, -16989.914, -0.095625386, 0.45916066, -1050987.1, -28748.84, 0.0, 10.000181, 9.999229 
1.595045e+3, 2.056921e+2, -988026.9, -1037450.2, -17898.953, -0.09907834, 0.39289287, -982225.6, -57974.77, 0.0, 9.999926, 9.9992895 
1.5950327e+3, 2.1568964e+2, -881605.6, -921744.56, 10215.626, 0.0354168, 0.18991661, -879155.25, -52884.81, 0.0, 9.999932, 9.999406 
1.595021e+3, 2.2568849e+2, -821403.75, -921994.75, 60933.36, 0.11821621, 0.17543548, -792689.7, -64411.496, 0.0, 10.000014, 9.998697 
1.5950096e+3, 2.3568827e+2, -682357.7, -795560.0, 26601.078, 0.15454899, 0.25529268, -676418.44, -46141.156, 0.0, 10.000261, 9.998773 
1.5949968e+3, 2.4568604e+2, -575729.7, -793173.2, -47911.33, 0.14844438, 0.21000679, -565641.06, -33342.977, 0.0, 10.000756, 9.997863 
1.5949827e+3, 2.5568226e+2, -355136.3, -611245.25, -12915.296, 0.12161417, 0.014587899, -354486.66, 79849.26, 0.00000009760233, 10.001493, 9.99808 
1.5949698e+3, 2.656817e+2, -199021.8, -392160.53, 55708.777, 0.109289914, 0.11130389, -184105.25, 152236.69, 0.0000054247644, 10.001485, 9.998924 
1.5949574e+3, 2.7568358e+2, -175422.23, -325195.72, 94949.93, 0.10219555, 0.3743242, -129381.26, 108942.71, 0.00006233866, 10.0009575, 9.998961 
1.5949441e+3, 2.856817e+2, -204014.0, -472363.66, 42161.316, 0.030351687, 0.38275874, -197545.8, -57203.637, 0.00032281963, 10.000877, 9.997323 
1.5949298e+3, 2.9567695e+2, -50349.22, -325484.63, -2663.1636, -0.09825381, 0.13583167, -50323.44, -7935.432, 0.0010343667, 10.001156, 9.997522 
1.5949185e+3, 3.056734e+2, 135766.14, -129328.5, 49432.69, -0.063171476, 0.0020587603, 144683.95, 144683.95, 0.0022871916, 10.001764, 9.998251 
1.5949091e+3, 3.1567478e+2, 394235.0, 219706.72, 124588.01, 0.07715514, 0.26821584, 459080.03, 459080.03, 0.0039191097, 10.002565, 10.000261 
1.6051507e+3, 1.2570922e+2, -1546070.8, -1727031.4, 30074.674, -0.014753632, 0.22698775, -1541203.5, 166875.22, 0.027939666, 10.001561, 9.99915 
1.6051404e+3, 1.3571212e+2, -1856861.5, -1887003.5, 134755.67, 0.08996969, 0.6525137, -1736336.8, -126278.16, 0.01712635, 9.99902, 9.9986 
1.6051257e+3, 1.4571032e+2, -1636569.0, -1528577.9, -24669.361, -0.031172832, 0.5208396, -1523209.4, -11135.427, 0.007836914, 9.9989805, 10.000405 
1.6051109e+3, 1.557071e+2, -1207708.0, -1270648.0, -33749.4, 0.03178889, 0.12908036, -1193032.8, 221062.4, 0.0022287087, 10.001242, 10.00042 
1.605098e+3, 1.6570657e+2, -1228452.4, -1391363.8, 109934.58, 0.03505445, 0.11878516, -1173084.6, 143014.36, 0.00026665046, 10.001132, 9.998964 
1.6050869e+3, 1.757079e+2, -1353587.9, -1383323.1, 94974.32, 0.041163243, 0.32445326, -1272324.5, -54232.977, 0.0000036433328, 9.999526, 9.999118 
1.6050738e+3, 1.8570778e+2, -1321565.4, -1368187.9, -1725.2042, 0.015912073, 0.42847136, -1321501.6, -201405.1, 0.0, 9.999278, 9.998675 
1.6050592e+3, 1.9570656e+2, -1079074.6, -1180774.9, -9569.442, -0.06352569, 0.41071653, -1078182.0, -56070.89, 0.0, 10.00018, 9.998853 
1.6050461e+3, 2.057049e+2, -844308.8, -962926.8, 7707.5674, -0.02398792, 0.33927938, -843810.1, 80315.23, 0.0, 10.000896, 9.999333 
1.6050342e+3, 2.1570294e+2, -637912.44, -801630.25, -11249.724, 0.11135338, 0.18171309, -637143.0, 188995.84, 0.0, 10.0016, 9.999423 
1.6050223e+3, 2.2570173e+2, -593292.8, -874434.5, 46985.008, 0.16098349, 0.19281606, -585648.44, 142499.64, 0.0, 10.001857, 9.998125 
1.6050103e+3, 2.3570113e+2, -487502.75, -749394.06, 25080.025, 0.13272479, 0.290056, -485122.56, 145031.23, 0.0, 10.001815, 9.998324 
1.6049972e+3, 2.4569884e+2, -468892.84, -649457.8, -28264.936, 0.10855108, 0.21254086, -464571.78, 67602.125, 0.0, 10.00109, 9.998699 
1.6049832e+3, 2.5569528e+2, -539567.0, -614461.4, 4828.7817, 0.09737234, -0.039216008, -539256.94, -105052.32, 0.000000007673713, 9.999862, 9.998853 
1.6049704e+3, 2.6569495e+2, -475951.0, -566641.5, 51838.89, 0.11962799, 0.06287785, -452423.47, -116215.62, 0.0000049768487, 9.999766, 9.998552 
1.6049588e+3, 2.7569702e+2, -267336.22, -415132.0, -24189.305, 0.16172934, 0.38559237, -263477.94, -25287.479, 0.00006447964, 10.00052, 9.998559 
1.6049455e+3, 2.856944e+2, -174891.92, -514454.66, -33947.277, 0.07851476, 0.36621186, -171531.36, -31314.477, 0.00032949253, 10.001304, 9.996832 
1.6049312e+3, 2.956883e+2, 65152.652, -317920.22, -22563.025, -0.10572516, 0.034188487, 66477.04, 108752.695, 0.0010457553, 10.002155, 9.997091 
1.60492e+3, 3.056852e+2, 100159.43, -176452.14, 24982.791, -0.056761984, -0.025735104, 102397.695, 102397.695, 0.0023104926, 10.001645, 9.997981 
1.6049111e+3, 3.156869e+2, 24169.186, 44177.742, -3190.3008, 0.15824677, 0.305293, 44674.113, 44674.113, 0.0039605508, 9.999981, 10.000298 
1.6151522e+3, 1.2572673e+2, -1450436.0, -1550981.9, 37499.918, -0.06857695, 0.47797662, -1437990.4, 269915.53, 0.02978273, 10.001657, 10.000347 
1.6151395e+3, 1.35722e+2, -1864298.0, -1906521.0, 50735.79, 0.09097958, 0.14002539, -1830456.6, -220503.81, 0.018308382, 9.999033, 9.998462 
1.6151235e+3, 1.4572118e+2, -1657713.3, -1591676.9, 53641.56, -0.18003197, 0.14599968, -1561706.1, -49745.723, 0.008418617, 9.999055, 9.99994 
1.6151111e+3, 1.5572333e+2, -1236684.4, -1323556.6, 47484.574, -0.09497114, 0.33187392, -1215766.3, 198171.61, 0.0024150687, 10.001221, 10.000063 
1.6150986e+3, 1.6572364e+2, -1219123.0, -1396109.6, 37641.91, -0.041214395, 0.42307487, -1211449.9, 104485.45, 0.0002938315, 10.001218, 9.998896 
1.615086e+3, 1.7572245e+2, -1357768.8, -1398499.9, 46831.395, -0.013364703, 0.38558868, -1327066.4, -109117.24, 0.000004294035, 9.999544, 9.999008 
1.6150735e+3, 1.8572041e+2, -1325938.6, -1387558.6, 24975.398, 0.027868662, 0.31298712, -1317087.3, -197117.05, 0.0, 9.999325, 9.998518 
1.615061e+3, 1.9571772e+2, -1094802.6, -1206930.4, 30998.94, 0.086608864, 0.16275625, -1086803.4, -64806.21, 0.0, 10.000157, 9.998683 
1.615049e+3, 2.057172e+2, -878542.56, -1019141.56, 22872.377, 0.14787924, 0.23406422, -874915.3, 49086.29, 0.0, 10.000832, 9.998979 
1.615037e+3, 2.157184e+2, -675938.4, -859700.56, 18756.596, 0.21813765, 0.42406502, -674043.44, 151945.27, 0.0, 10.001511, 9.999066 
1.6150244e+3, 2.2571683e+2, -630776.5, -915731.75, 36558.855, 0.1755077, 0.42748564, -626160.9, 101843.03, 0.0, 10.001706, 9.997912 
1.6150115e+3, 2.3571321e+2, -516152.56, -775854.94, 28474.658, 0.04692964, 0.2448733, -513067.16, 116972.92, 0.0, 10.001681, 9.998204 
1.614997e+3, 2.4571198e+2, -417287.97, -515497.2, -83275.51, -0.042111177, 0.22691281, -369717.5, 162331.03, 0.0, 10.000969, 9.99968 
1.6149811e+3, 2.5571263e+2, -502009.8, -507874.1, -25961.91, -0.09594629, 0.28960097, -478814.97, -44779.605, 0.00000000987263, 9.999741, 9.99964 
1.6149694e+3, 2.6571062e+2, -619697.44, -829195.1, 72521.055, 0.010010192, 0.28197268, -597042.9, -260988.06, 0.000004852571, 9.999615, 9.996823 
1.6149601e+3, 2.7570653e+2, -397223.22, -649662.6, 15736.189, 0.23996066, 0.16090746, -396246.06, -158145.97, 0.000064250504, 10.000385, 9.997006 
1.614948e+3, 2.857038e+2, -152786.72, -440013.9, -11382.653, 0.17892651, 0.17190348, -152336.34, -12208.4795, 0.00032939267, 10.001178, 9.997403 
1.6149336e+3, 2.9570225e+2, 80779.125, -257703.94, 17640.607, -0.11174014, 0.2295193, 81696.01, 123836.72, 0.0010398368, 10.002034, 9.997564 
1.6149214e+3, 3.056996e+2, -4494.7466, -343634.47, -49035.996, -0.10883443, 0.25328955, 2453.0027, 2453.0027, 0.0022907362, 10.001457, 9.996908 
1.6149108e+3, 3.1569698e+2, -97885.03, -113548.31, -42565.02, 0.09723682, 0.25629324, -62437.168, -62437.168, 0.0039168783, 9.999625, 9.999357 
1.6251528e+3, 1.2574032e+2, -1765780.5, -1698142.3, 59992.684, -0.05046935, 0.42455286, -1663093.0, 44674.34, 0.03179242, 9.999429, 10.000379 
1.6251396e+3, 1.3573472e+2, -1635390.8, -1772691.6, -39594.69, 0.12079764, -0.028305436, -1624790.9, -14968.695, 0.019603958, 10.000486, 9.998685 
1.6251235e+3, 1.4573504e+2, -1564194.4, -1609698.8, 54657.73, -0.12202159, 0.11219109, -1527742.4, -15922.132, 0.009062119, 9.999981, 9.999366 
1.6251116e+3, 1.5573709e+2, -1537208.8, -1520896.0, 28486.738, -0.07898401, 0.341079, -1499420.9, -85618.48, 0.002624408, 9.999392, 9.999582 
1.6250995e+3, 1.6573705e+2, -1387932.1, -1482738.5, 1584.124, -0.016533002, 0.42163113, -1387905.6, -72101.195, 0.00032476612, 10.0000925, 9.998837 
1.625087e+3, 1.7573538e+2, -1040446.7, -1249431.4, -5018.276, 0.0251259, 0.34223142, -1040326.3, 177495.48, 0.000005034694, 10.001744, 9.998968 
1.6250747e+3, 1.8573338e+2, -928265.75, -1175276.0, 7168.7515, 0.090322465, 0.26473826, -928057.9, 191783.28, 0.0, 10.001969, 9.998704 
1.6250627e+3, 1.9573115e+2, -922171.56, -1098462.5, 27178.207, 0.18050997, 0.14050715, -918076.7, 103785.03, 0.0, 10.001251, 9.998895 
1.6250503e+3, 2.0573065e+2, -868081.56, -1039611.6, 65788.75, 0.20559129, 0.21329394, -845754.94, 78110.97, 0.0, 10.0010195, 9.998744 
1.6250378e+3, 2.1573143e+2, -735155.56, -910720.4, 55188.17, 0.17853042, 0.38821247, -719248.6, 106609.38, 0.0, 10.001204, 9.998868 
1.6250253e+3, 2.2572987e+2, -717419.2, -922095.0, 84765.195, 0.13192692, 0.38520175, -686873.0, 41000.63, 0.0, 10.000943, 9.998242 
1.6250125e+3, 2.3572655e+2, -692569.2, -834691.6, 100124.42, 0.056241047, 0.2006857, -640851.75, -10944.678, 0.0, 10.0003395, 9.998457 
1.6249982e+3, 2.4572575e+2, -489346.56, -600728.0, -33848.168, 0.0008164255, 0.24056433, -479867.06, 52045.945, 0.0, 10.000689, 9.999224 
1.6249824e+3, 2.5572687e+2, -233773.84, -432513.78, -105665.16, -0.053210303, 0.3969551, -188093.77, 245804.7, 0.000000011745934, 10.001792, 9.999175 
1.62497e+3, 2.6572424e+2, -303373.06, -695362.94, 34969.652, 0.012152474, 0.35802853, -300277.84, 35646.53, 0.0000048598445, 10.001867, 9.996656 
1.6249602e+3, 2.7571878e+2, -287181.94, -613500.7, 77123.48, 0.16689572, 0.11784609, -269872.44, -31891.049, 0.00006262461, 10.001201, 9.996866 
1.6249488e+3, 2.8571615e+2, -151018.33, -407670.1, 124774.664, 0.15607657, 0.13017075, -100357.49, 39650.164, 0.00032550952, 10.0010605, 9.9976845 
1.6249365e+3, 2.9571575e+2, 2311.3667, -269233.22, 92697.95, 0.003856563, 0.28108767, 30938.06, 72947.625, 0.0010260531, 10.001369, 9.997814 
1.6249236e+3, 3.0571362e+2, -31079.48, -352608.34, 27641.773, -0.01537197, 0.34051463, -28720.432, -28720.432, 0.0022458762, 10.001236, 9.996973 
1.6249102e+3, 3.157098e+2, 51424.38, -77275.35, 77660.8, 0.040120725, 0.23013891, 87931.37, 87931.37, 0.0038119992, 10.000732, 9.999121 
1.6351528e+3, 1.2575035e+2, -1853083.5, -1882178.3, 157426.48, -0.04004386, 0.09245035, -1709533.8, -1873.7938, 0.03398967, 9.99946, 9.9990835 
1.6351402e+3, 1.3575006e+2, -1598488.9, -1697612.0, -19328.563, 0.11285714, 0.12606534, -1594853.3, 14815.394, 0.02102759, 10.000503, 9.999189 
1.6351254e+3, 1.4575174e+2, -1587162.1, -1685804.4, 8469.261, 0.059637636, 0.40628025, -1586440.3, -74785.016, 0.009775217, 10.00009, 9.9987955 
1.6351119e+3, 1.5574862e+2, -1573959.0, -1600138.5, 19615.857, -0.0038737284, 0.17527203, -1563466.5, -149779.64, 0.002860367, 9.999405, 9.999031 
1.6351002e+3, 1.6574706e+2, -1385877.9, -1493348.9, 57410.984, 0.028153718, 0.13196139, -1360978.0, -45273.938, 0.00036087315, 10.000151, 9.998742 
1.6350897e+3, 1.7574677e+2, -1046346.3, -1260480.1, 53821.637, 0.099637836, 0.20491475, -1033579.6, 184129.58, 0.000005927034, 10.001741, 9.998895 
1.6350773e+3, 1.8574667e+2, -877839.75, -1082421.1, -29642.56, 0.13509415, 0.28999114, -873631.3, 246078.14, 0.0, 10.002012, 9.999325 
1.6350639e+3, 1.9574672e+2, -885862.25, -1017152.5, 8277.458, 0.15762529, 0.328376, -885342.44, 136363.78, 0.0, 10.001224, 9.999468 
1.6350503e+3, 2.05745e+2, -884120.44, -1056818.9, 64559.28, 0.07937089, 0.25881013, -862654.56, 61065.87, 0.0, 10.000952, 9.998659 
1.6350368e+3, 2.1574196e+2, -751777.6, -924535.6, 68689.04, -0.06890272, 0.06300036, -727795.75, 97952.016, 0.0, 10.00111, 9.99882 
1.6350244e+3, 2.2574084e+2, -686734.44, -820068.94, 56201.637, -0.05597004, 0.064140104, -666205.7, 61552.09, 0.0, 10.000779, 9.99902 
1.6350134e+3, 2.3574117e+2, -667899.8, -755740.6, 90153.766, 0.09263086, 0.16273156, -611537.1, 18217.418, 0.0, 10.00022, 9.999054 
1.6350006e+3, 2.457401e+2, -650231.75, -898052.56, 65.03848, 0.15920226, 0.25215226, -650231.75, -118463.625, 0.0, 10.000533, 9.997256 
1.6349864e+3, 2.5573802e+2, -369212.66, -686347.3, -60688.95, 0.15871677, 0.28710464, -357995.6, 75798.555, 0.000000006263202, 10.001686, 9.997478 
1.6349724e+3, 2.6573598e+2, -219845.66, -501600.06, 2405.3618, 0.04658194, 0.31122968, -219825.13, 115989.945, 0.000005059976, 10.001769, 9.998039 
1.6349584e+3, 2.7573395e+2, -213184.11, -434758.8, 68743.164, -0.1452089, 0.26781806, -193589.48, 44243.41, 0.00006071332, 10.00109, 9.998147 
1.6349478e+3, 2.857315e+2, -185426.45, -444719.13, 128860.086, -0.08682738, 0.25001368, -132280.3, 7575.7686, 0.00031809925, 10.000918, 9.997498 
1.6349395e+3, 2.9572883e+2, -25422.291, -291216.16, 117541.17, 0.1567862, 0.19394824, 19099.834, 60982.406, 0.0010037773, 10.001227, 9.997727 
1.6349263e+3, 3.057273e+2, 18944.748, -195197.94, -1301.0265, 0.13066855, 0.25356224, 18952.652, 18952.652, 0.00218191, 10.001019, 9.998151 
1.634909e+3, 3.157254e+2, 58398.844, 9195.375, 89333.99, -0.17738852, 0.20520811, 126456.74, 126456.74, 0.003670205, 10.000449, 9.999835 
1.6451526e+3, 1.2576193e+2, -1919736.3, -1980149.0, 122652.48, 0.00561008, 0.028655715, -1823625.4, -116083.36, 0.036383986, 9.999304, 9.998487 
1.6451402e+3, 1.3576305e+2, -1632724.1, -1661494.1, -92333.484, 0.10775626, 0.16461053, -1553661.8, 55877.81, 0.022584815, 10.000044, 9.999663 
1.6451277e+3, 1.4576447e+2, -1502421.4, -1633587.0, -40027.74, 0.24221984, 0.38591412, -1491171.1, 20357.8, 0.010560797, 10.000627, 9.9988985 
1.6451125e+3, 1.5576102e+2, -1228183.1, -1430247.0, 7005.488, 0.012391196, 0.11802734, -1227940.5, 185621.61, 0.0031241647, 10.001753, 9.999072 
1.645101e+3, 1.6575952e+2, -1144510.9, -1373289.6, 93069.93, 0.017378824, 0.07902595, -1111431.9, 204146.45, 0.0004029895, 10.001796, 9.998774 
1.6450916e+3, 1.7575957e+2, -1132172.6, -1301172.8, 84500.5, 0.16564049, 0.18278281, -1097171.3, 120409.734, 0.0000070009137, 10.001149, 9.998904 
1.6450793e+3, 1.8575963e+2, -1055528.9, -1192449.3, -42685.61, 0.18559632, 0.2960632, -1043311.5, 76269.33, 0.0, 10.000917, 9.999083 
1.6450645e+3, 1.957597e+2, -912664.25, -1055107.8, -88680.69, 0.10501557, 0.3615013, -870145.94, 151432.88, 0.0, 10.001152, 9.999236 
1.6450506e+3, 2.0575783e+2, -891424.7, -1059374.9, -38838.43, 0.038421247, 0.2842923, -882878.2, 40717.03, 0.0, 10.00088, 9.998681 
1.6450378e+3, 2.1575455e+2, -869957.0, -971830.8, -38911.156, -0.021023482, 0.05831441, -856795.2, -31170.28, 0.0, 10.000261, 9.998896 
1.6450256e+3, 2.2575352e+2, -757994.8, -839815.56, -53577.855, 0.022717627, 0.05659043, -731494.2, -3860.7295, 0.0, 10.000226, 9.999157 
1.6450143e+3, 2.3575409e+2, -600849.3, -712727.5, -80305.34, 0.14736643, 0.16991453, -558920.5, 70706.32, 0.0, 10.000636, 9.999155 
1.6450018e+3, 2.4575277e+2, -584249.2, -903949.75, -73697.11, 0.20129324, 0.24594274, -568078.5, -36434.42, 0.0, 10.001163, 9.996909 
1.6449884e+3, 2.557499e+2, -377756.84, -729613.7, -35714.848, 0.18314013, 0.2454307, -374168.25, 59511.6, 0.000000005166704, 10.001799, 9.997133 
1.6449744e+3, 2.6574835e+2, -221550.61, -460183.8, -10110.214, 0.07585583, 0.3126731, -221123.03, 114574.04, 0.000005473011, 10.001577, 9.998409 
1.6449596e+3, 2.757477e+2, -227530.88, -399343.6, -45740.26, -0.10657347, 0.36960962, -216112.66, 21588.32, 0.00005878461, 10.000814, 9.998518 
1.6449487e+3, 2.8574553e+2, -166411.94, -367830.03, 74729.81, -0.06398419, 0.33389091, -141714.22, -1993.8882, 0.0003059286, 10.00077, 9.998091 
1.6449405e+3, 2.957425e+2, 4257.3394, -209288.77, 97658.75, 0.14976701, 0.18565743, 42183.0, 83932.56, 0.0009705867, 10.001163, 9.99831 
1.6449277e+3, 3.0574143e+2, 182200.86, -22378.54, 3484.9102, 0.13999422, 0.21805249, 182260.2, 182260.2, 0.002106459, 10.001692, 9.999022 
1.644911e+3, 3.1574062e+2, 331363.44, 186255.25, 15531.74, -0.10483798, 0.18841411, 333007.25, 333007.25, 0.0035252424, 10.002118, 10.000241 
1.6551515e+3, 1.2577395e+2, -1871473.3, -1911815.6, 36360.42, -0.06645285, 0.1303293, -1850063.8, -142639.55, 0.03897044, 9.999434, 9.99889 
1.6551396e+3, 1.357742e+2, -1599979.6, -1588493.1, -70572.57, 0.021518761, 0.12957835, -1523430.5, 85999.17, 0.024272982, 10.000015, 10.000184 
1.6551296e+3, 1.4577346e+2, -1451419.5, -1530764.6, -14770.62, 0.35683125, 0.06379145, -1448759.0, 62679.96, 0.0114189135, 10.000641, 9.9995985 
1.6551134e+3, 1.5577438e+2, -1196392.3, -1356717.9, 48879.414, -0.08666803, 0.17878132, -1182665.4, 230762.02, 0.0034161112, 10.001727, 9.999591 
1.6551016e+3, 1.6577454e+2, -1116810.6, -1337213.3, 58080.383, -0.13599354, 0.27291518, -1102442.0, 212984.58, 0.00045137366, 10.001872, 9.998989 
1.6550928e+3, 1.7577384e+2, -1121108.9, -1276338.5, 66265.7, 0.15930744, 0.27436754, -1096668.8, 120767.84, 0.000008273259, 10.001141, 9.999077 
1.6550803e+3, 1.8577227e+2, -1130486.8, -1361006.1, -40852.51, 0.17445925, 0.27622366, -1123461.1, -4005.7856, 0.0, 10.000962, 9.9979105 
1.6550644e+3, 1.9577013e+2, -993602.2, -1218917.3, -76491.57, -0.03544114, 0.24246918, -970088.2, 51391.133, 0.0, 10.001126, 9.99813 
1.6550514e+3, 2.0576921e+2, -888999.1, -1039257.9, -68287.55, 0.0050873375, 0.30472782, -862602.1, 60887.2, 0.0, 10.000817, 9.998849 
1.6550408e+3, 2.1576914e+2, -873433.4, -960023.3, -53335.504, 0.25281808, 0.37975946, -848032.44, -22542.959, 0.0, 10.000177, 9.999018 
1.6550288e+3, 2.257677e+2, -806118.3, -915112.94, -47225.227, 0.28228456, 0.35698426, -788503.4, -61001.035, 0.0, 10.000116, 9.998694 
1.655015e+3, 2.357653e+2, -641889.5, -773669.1, -54994.73, 0.15166488, 0.21721022, -621954.56, 7569.9985, 0.0, 10.000529, 9.998791 
1.6550015e+3, 2.4576363e+2, -521911.34, -741326.56, -53714.703, 0.03780243, 0.21559875, -509467.28, 22074.707, 0.0, 10.001021, 9.998093 
1.654988e+3, 2.5576255e+2, -321535.3, -582619.6, -6139.825, -0.046663336, 0.26634818, -321391.0, 112164.98, 0.00000000856411, 10.001682, 9.998189 
1.6549756e+3, 2.657613e+2, -294077.53, -589612.4, -46735.703, 0.031651046, 0.36089134, -286862.9, 48708.05, 0.0000057188686, 10.001476, 9.997577 
1.654964e+3, 2.7575985e+2, -284811.75, -494274.4, -60090.668, 0.22174135, 0.4237431, -268797.3, -31210.209, 0.00005715205, 10.000709, 9.997919 
1.6549517e+3, 2.8575823e+2, -92397.75, -178451.67, 81229.25, 0.14264649, 0.3916922, -43503.492, 96097.61, 0.00029385844, 10.000611, 9.999471 
1.6549392e+3, 2.9575652e+2, 81164.766, -26082.662, 129852.68, -0.11814765, 0.23554625, 168030.28, 209643.45, 0.00093917665, 10.001056, 9.999621 
1.6549273e+3, 3.0575573e+2, 177222.33, 27699.863, 11962.164, -0.093335755, 0.21156749, 178173.28, 178173.28, 0.0020481069, 10.001456, 9.999471 
1.654916e+3, 3.157555e+2, 284651.6, 161830.44, 65428.617, 0.14405096, 0.19245553, 312974.88, 312974.88, 0.003428113, 10.001815, 10.000216 
1.6651528e+3, 1.2578489e+2, -1873405.4, -1849919.4, -27111.705, 0.12715772, 0.13811289, -1832116.8, -124796.72, 0.041736465, 9.999113, 9.999494 
1.6651386e+3, 1.3578567e+2, -1583070.6, -1598006.3, -105275.625, -0.082793005, 0.20758371, -1484998.3, 124320.63, 0.026087236, 10.000197, 10.000042 
1.6651295e+3, 1.4578399e+2, -1438357.9, -1469362.4, -89530.016, 0.29755828, 0.03161334, -1362997.9, 148337.64, 0.012349877, 10.000504, 10.000084 
1.6651146e+3, 1.5578552e+2, -1406785.8, -1400331.3, -43067.637, -0.05425599, 0.14993228, -1360370.1, 52945.984, 0.003737191, 10.000037, 10.000096 
1.6651028e+3, 1.6578622e+2, -1349074.4, -1444502.1, -33102.117, -0.105118826, 0.27400863, -1338716.3, -23405.836, 0.00050616945, 10.000276, 9.99901 
1.6650939e+3, 1.757858e+2, -1097968.0, -1264427.9, -60479.24, 0.1394181, 0.29788163, -1078314.8, 139005.36, 0.000009797576, 10.001284, 9.999091 
1.6650812e+3, 1.8578406e+2, -1081560.6, -1325166.0, -117489.76, 0.16108511, 0.27669993, -1034130.5, 85210.09, 0.0, 10.001256, 9.998007 
1.6650653e+3, 1.9578157e+2, -1048587.8, -1228985.4, -70333.88, -0.026286831, 0.195968, -1024407.0, -3040.196, 0.0, 10.000698, 9.998249 
1.6650525e+3, 2.057807e+2, -872001.0, -1042763.94, -5822.54, 0.033085376, 0.2603552, -871802.75, 51573.887, 0.0, 10.00099, 9.998739 
1.6650423e+3, 2.1578094e+2, -624538.06, -852370.1, -24428.053, 0.29395816, 0.38150132, -621948.3, 203426.55, 0.0, 10.001941, 9.998909 
1.66503e+3, 2.2577973e+2, -559094.94, -808966.94, -10972.554, 0.32502323, 0.39213583, -558614.0, 168773.08, 0.0, 10.001877, 9.998569 
1.665016e+3, 2.3577741e+2, -566163.1, -741719.06, -11099.386, 0.17296495, 0.27228874, -565464.1, 63945.605, 0.0, 10.001073, 9.998737 
1.6650023e+3, 2.4577603e+2, -522776.88, -695313.9, 3494.0923, 0.044833634, 0.27674946, -522706.16, 8718.053, 0.0, 10.000788, 9.998537 
1.664989e+3, 2.5577533e+2, -401413.16, -574978.2, -17557.799, -0.06041833, 0.32376438, -399654.8, 33778.316, 0.0000000057748837, 10.000917, 9.99862 
1.664977e+3, 2.6577368e+2, -332366.1, -599244.44, -47688.27, 0.047050428, 0.35613397, -324100.7, 11349.813, 0.0000055479773, 10.001183, 9.997648 
1.6649657e+3, 2.7577132e+2, -154516.66, -432240.3, -17690.262, 0.29007727, 0.32322943, -153394.36, 84080.016, 0.000055344583, 10.001585, 9.997933 
1.664953e+3, 2.857702e+2, 1269.4548, -97043.8, 115133.03, 0.1993872, 0.3221737, 77300.65, 216784.31, 0.0002837419, 10.001093, 9.999794 
1.6649395e+3, 2.957701e+2, -63557.17, -65658.88, 55652.86, -0.13741268, 0.29914165, -8945.249, 32535.518, 0.0009166585, 9.999942, 9.99988 
1.664928e+3, 3.0576915e+2, 20797.137, -82794.984, -56088.6, -0.11439759, 0.26153377, 45347.414, 45347.414, 0.0020189087, 10.000526, 9.999163 
1.6649185e+3, 3.157686e+2, 303188.16, 126079.78, -107053.44, 0.21779172, 0.25143534, 353566.63, 353566.63, 0.003398234, 10.002151, 9.999808 
1.6751547e+3, 1.2579587e+2, -1796724.3, -1689101.6, -132273.84, 0.3667997, 0.15384771, -1600112.3, 107106.055, 0.044670317, 9.999102, 10.000625 
1.6751373e+3, 1.3579758e+2, -1653565.4, -1735784.1, -57729.285, -0.25434548, 0.39616162, -1623804.1, -14597.828, 0.028026333, 10.000165, 9.999097 
1.6751271e+3, 1.457962e+2, -1399351.5, -1403093.5, -109144.18, -0.009414025, 0.2776213, -1292062.4, 219155.63, 0.013357116, 10.000559, 10.000519 
1.6751157e+3, 1.557946e+2, -1376381.9, -1337102.4, -47551.31, 0.038527567, 0.03373473, -1305294.6, 107932.12, 0.004090086, 10.000027, 10.000543 
1.6751048e+3, 1.657946e+2, -1358630.3, -1471945.9, -4444.7236, 0.025109645, 0.07761355, -1358456.3, -43226.785, 0.0005678562, 10.000307, 9.998808 
1.6750945e+3, 1.757956e+2, -1114900.9, -1284893.3, -21912.873, 0.05162423, 0.269283, -1112121.6, 105107.75, 0.000011659807, 10.00123, 9.998975 
1.6750818e+3, 1.8579525e+2, -978416.7, -1122177.1, -146129.45, 0.06978849, 0.31798586, -887445.5, 231788.72, 0.0, 10.00129, 9.999391 
1.675067e+3, 1.9579396e+2, -965093.6, -1052757.5, -81103.54, 0.05858948, 0.22090295, -916735.44, 104506.53, 0.0, 10.000681, 9.999473 
1.6750538e+3, 2.0579217e+2, -897549.94, -1089611.8, 21191.041, 0.045874793, 0.15436088, -895239.6, 28018.695, 0.0, 10.000961, 9.998431 
1.6750419e+3, 2.1578996e+2, -660901.5, -906297.25, 12257.198, 0.04484937, 0.06314302, -660290.75, 164990.64, 0.0, 10.0018425, 9.998588 
1.6750295e+3, 2.2578952e+2, -570908.25, -797172.6, -47290.734, 0.08008172, 0.15861592, -561421.94, 165866.3, 0.0, 10.00172, 9.998723 
1.675017e+3, 2.3579037e+2, -573827.9, -733115.5, -32157.73, 0.14789836, 0.34009054, -567580.75, 61702.363, 0.0, 10.000966, 9.998847 
1.6750042e+3, 2.4578987e+2, -558071.5, -739688.25, -1385.3595, 0.14138131, 0.43823048, -558060.94, -26769.123, 0.0, 10.00066, 9.998294 
1.6749914e+3, 2.5578836e+2, -429481.44, -604114.2, -4021.5522, 0.0777207, 0.42698115, -429388.88, 3921.8713, 0.0000000017385277, 10.000794, 9.998476 
1.6749783e+3, 2.657856e+2, -290497.03, -481685.2, -39462.938, 0.036632054, 0.30601087, -282671.8, 52663.516, 0.0000048816705, 10.001043, 9.998527 
1.6749647e+3, 2.7578187e+2, -115093.23, -330397.25, 7311.329, 0.017585399, 0.049176235, -114845.23, 122519.51, 0.000051549086, 10.001496, 9.998677 
1.6749524e+3, 2.8578126e+2, -86380.234, -245406.2, 64746.008, 0.011286697, 0.1169902, -63353.66, 76015.555, 0.00027036015, 10.000945, 9.99885 
1.6749412e+3, 2.957831e+2, -140839.58, -203563.55, 37588.24, 0.013997579, 0.37523606, -123248.01, -81894.29, 0.00089050346, 9.999827, 9.998995 
1.6749296e+3, 3.0578142e+2, -104844.984, -276642.63, -3061.3433, -0.029371249, 0.3691691, -104790.45, -104790.45, 0.001993897, 10.0002575, 9.997952 
1.674918e+3, 3.1577936e+2, 212657.03, -9327.591, -7997.2993, -0.093647994, 0.32779518, 212944.78, 212944.78, 0.0033966575, 10.001942, 9.998963 
1.685154e+3, 1.2580697e+2, -1756968.0, -1585208.0, -168403.14, 0.40627828, 0.24932162, -1482051.0, 225062.06, 0.04776628, 9.999022, 10.001393 
1.6851375e+3, 1.3580702e+2, -1720173.6, -1729186.4, 11713.545, -0.21924134, 0.2830342, -1712129.5, -103018.42, 0.030093629, 9.999564, 9.999415 
1.6851267e+3, 1.4580669e+2, -1505152.3, -1470342.3, -42741.523, -0.079001606, 0.26441765, -1441597.9, 69514.7, 0.0144471, 9.999894, 10.000372 
1.6851167e+3, 1.5580535e+2, -1420702.5, -1364124.6, -50322.57, 0.15380077, 0.056582164, -1334684.6, 78438.71, 0.004479329, 9.999747, 10.000491 
1.6851054e+3, 1.6580555e+2, -1443529.9, -1448202.0, 50208.035, 0.12407862, 0.09329581, -1395603.6, -80478.85, 0.0006375465, 9.999457, 9.999378 
1.685094e+3, 1.7580697e+2, -1337855.3, -1319539.6, 84289.086, -0.038147785, 0.26619393, -1243912.4, -26794.1, 0.00001399049, 9.999399, 9.99961 
1.6850814e+3, 1.8580712e+2, -1106599.8, -1122354.8, -37576.895, -0.03327985, 0.30658737, -1076083.5, 43032.965, 0.0, 10.000152, 9.999935 
1.6850682e+3, 1.958063e+2, -795561.56, -920253.9, -45308.746, 0.060428664, 0.2013863, -780836.8, 240281.97, 0.0, 10.001607, 9.999948 
1.6850553e+3, 2.0580477e+2, -795114.75, -1049676.1, 37366.64, 0.06367575, 0.14550899, -789743.1, 133389.94, 0.0, 10.001707, 9.99835 
1.6850428e+3, 2.1580285e+2, -811799.56, -979940.6, 29370.098, 0.007029715, 0.090056315, -806816.94, 18338.049, 0.0, 10.00082, 9.998572 
1.68503e+3, 2.2580235e+2, -761847.56, -879495.06, -22200.117, 0.031690113, 0.17529596, -757797.8, -30635.22, 0.0, 10.000354, 9.998827 
1.685017e+3, 2.358029e+2, -681041.25, -775151.2, -19779.635, 0.10865592, 0.31841165, -677053.06, -47893.324, 0.0, 10.000185, 9.998944 
1.6850048e+3, 2.4580254e+2, -608057.25, -764024.9, 56458.367, 0.16688474, 0.42834035, -589765.25, -58597.953, 0.0, 10.000325, 9.998278 
1.6849934e+3, 2.5580144e+2, -442817.53, -615430.75, 50411.28, 0.19797778, 0.46043015, -429173.5, 4009.7678, 0.0000000018399801, 10.000705, 9.998448 
1.68498e+3, 2.65799e+2, -243678.73, -407855.13, 28490.217, 0.10474209, 0.34796298, -238875.25, 96328.9, 0.0000039092515, 10.001148, 9.99898 
1.6849652e+3, 2.7579552e+2, -55679.246, -255948.28, 18598.57, -0.08303645, 0.07154515, -53966.68, 183262.27, 0.00004640097, 10.001732, 9.999063 
1.684953e+3, 2.857945e+2, 7825.4004, -299469.1, 44486.26, -0.06974288, 0.12723699, 14135.974, 153373.77, 0.00025559173, 10.002015, 9.997969 
1.6849427e+3, 2.9579553e+2, 121474.58, -168584.1, 277.55582, 0.083898656, 0.39448485, 121474.84, 162707.0, 0.0008589189, 10.00203, 9.998176 
1.6849314e+3, 3.057932e+2, 115414.8, -230385.11, 63038.016, 0.05517603, 0.38646957, 126547.95, 126547.95, 0.0019565516, 10.001998, 9.997448 
1.6849196e+3, 3.1579056e+2, 182949.36, -55537.65, 76901.98, -0.11055912, 0.35086954, 205596.4, 205596.4, 0.003380258, 10.001814, 9.998746 
1.6951504e+3, 1.2581767e+2, -1728896.8, -1556893.6, -119253.7, 0.09995035, 0.3546477, -1495865.6, 211143.64, 0.051028147, 9.999124, 10.001553 
1.6951388e+3, 1.3581404e+2, -1624723.1, -1518559.5, 41664.023, -0.051466245, -0.13052665, -1504161.3, 104872.195, 0.032295942, 9.999494, 10.000919 
1.6951276e+3, 1.4581555e+2, -1549154.3, -1568850.3, -49032.348, -0.0017438546, -0.0020137152, -1508990.8, 2028.0831, 0.015627254, 9.999918, 9.999683 
1.6951174e+3, 1.558179e+2, -1464266.0, -1456502.6, -49406.375, 0.22164655, 0.23788157, -1410825.8, 2178.6863, 0.004910431, 9.999755, 9.999855 
1.6951051e+3, 1.6581908e+2, -1331635.5, -1232463.0, 37435.027, 0.110583805, 0.32300827, -1219919.0, 95077.164, 0.0007170378, 9.99952, 10.000831 
1.6950919e+3, 1.758199e+2, -1246227.5, -1131163.3, 91242.62, -0.18995701, 0.2918766, -1080829.0, 136158.27, 0.000016975888, 9.999402, 10.000904 
1.6950798e+3, 1.8581967e+2, -1120440.3, -1160608.4, 7572.1094, -0.22615102, 0.24839427, -1119060.3, -71.969795, 0.0, 10.000187, 9.999656 
1.6950683e+3, 1.9581853e+2, -823187.9, -960781.25, 5561.996, -0.0898847, 0.13974725, -822963.44, 198034.31, 0.0, 10.001539, 9.999699 
1.6950567e+3, 2.0581858e+2, -801117.3, -1038034.56, -6072.885, 0.0151963895, 0.24430719, -800961.75, 122038.16, 0.0, 10.0016, 9.998483 
1.6950448e+3, 2.1581952e+2, -815916.44, -968825.7, 4478.529, 0.110522546, 0.46206588, -815785.4, 9210.8545, 0.0, 10.000732, 9.998692 
1.6950311e+3, 2.2581814e+2, -768649.1, -867262.1, -37202.14, 0.09102064, 0.4444985, -756188.94, -29178.041, 0.0, 10.000241, 9.998963 
1.6950162e+3, 2.3581499e+2, -692992.8, -767674.7, -14017.635, -0.016432999, 0.20384856, -690448.44, -61408.902, 0.0, 10.000046, 9.999062 
1.6950041e+3, 2.4581395e+2, -626826.56, -759222.0, 64505.55, 0.043468304, 0.2341828, -600595.4, -69543.64, 0.0, 10.000138, 9.998404 
1.6949946e+3, 2.558145e+2, -451492.16, -604918.6, 74723.25, 0.2376882, 0.41933653, -421114.38, 11937.113, 0.0000000033657745, 10.000588, 9.998575 
1.6949819e+3, 2.6581386e+2, -266535.88, -424828.22, 44086.984, 0.16858387, 0.48282388, -255085.27, 79971.84, 0.0000030031388, 10.001016, 9.998928 
1.6949672e+3, 2.7581227e+2, -81407.0, -281716.8, 50352.375, -0.08560298, 0.3958143, -69462.09, 167605.42, 0.000041424442, 10.0016165, 9.998939 
1.6949546e+3, 2.8580981e+2, -75875.83, -437085.34, 34764.668, -0.13070302, 0.3633842, -72560.33, 66529.93, 0.00024223694, 10.001859, 9.997102 
1.6949439e+3, 2.9580694e+2, 51902.867, -286649.16, 12774.884, -0.019865895, 0.32967716, 52384.23, 93504.47, 0.0008256541, 10.001912, 9.997424 
1.6949333e+3, 3.0580392e+2, 86739.64, -227517.77, 46620.31, 0.035384122, 0.2773223, 93509.94, 93509.94, 0.0018998468, 10.001747, 9.99758 
1.6949229e+3, 3.1580254e+2, 187134.17, 36553.21, 111447.28, 0.01341032, 0.347863, 246339.63, 246339.63, 0.0033156949, 10.001489, 9.9995165 
1.705149e+3, 1.2582761e+2, -1664975.1, -1539269.8, 6319.844, 0.013890575, 0.28044906, -1538952.9, 167957.34, 0.054460447, 9.999595, 10.001464 
1.7051394e+3, 1.358249e+2, -1640813.6, -1466333.4, 36166.02, 0.09197329, -0.16536143, -1459134.0, 149791.14, 0.034638863, 9.999096, 10.001493 
1.7051281e+3, 1.4582705e+2, -1664090.6, -1608652.8, -28802.15, 0.10722582, -0.008195088, -1596397.9, -85493.04, 0.016903277, 9.99909, 9.999804 
1.7051165e+3, 1.5583003e+2, -1468444.3, -1445055.5, 11372.256, 0.16904388, 0.28562304, -1440437.8, -27552.43, 0.00538814, 9.999679, 9.999965 
1.7051041e+3, 1.6583103e+2, -1282264.1, -1193748.8, 76011.86, 0.059992697, 0.3401232, -1150048.8, 164829.16, 0.0008082668, 9.999779, 10.000984 
1.7050919e+3, 1.7583111e+2, -1203198.9, -1094157.3, 27437.965, -0.13373466, 0.22091314, -1087642.3, 129231.66, 0.000020835996, 9.999612, 10.001071 
1.7050803e+3, 1.8583106e+2, -1221336.1, -1207370.5, -39549.93, -0.16507846, 0.18786742, -1174191.6, -55317.902, 0.0, 9.999486, 9.9996805 
1.7050688e+3, 1.9583073e+2, -1104904.4, -1090095.9, -35011.01, -0.10331572, 0.15958379, -1061714.8, -40837.07, 0.0, 9.999571, 9.999768 
1.7050573e+3, 2.0583111e+2, -1015412.3, -1083173.3, -38071.207, 0.0021069364, 0.26720357, -998329.06, -75452.695, 0.0, 9.999886, 9.998987 
1.7050457e+3, 2.1583213e+2, -826459.06, -929957.75, -15971.48, 0.1361203, 0.44103444, -824050.44, 819.69635, 0.0, 10.000467, 9.999084 
1.7050321e+3, 2.2583073e+2, -671010.8, -845783.2, -40302.555, 0.13433889, 0.4187417, -662164.75, 64719.688, 0.0, 10.001024, 9.998732 
1.7050174e+3, 2.3582754e+2, -489029.34, -691965.4, -63947.227, 0.029206032, 0.1950561, -470559.84, 158354.52, 0.0, 10.001545, 9.998857 
1.7050052e+3, 2.4582587e+2, -379643.3, -650941.4, 15906.8125, 0.039866302, 0.17805994, -378713.84, 152217.97, 0.0, 10.001882, 9.998311 
1.7049947e+3, 2.5582537e+2, -234805.17, -509560.4, -7837.398, 0.12770337, 0.26914376, -234581.8, 198358.08, 0.0000000026261497, 10.002123, 9.9984865 
1.7049831e+3, 2.658251e+2, -100082.984, -386280.53, -41907.504, 0.124509744, 0.39499295, -94072.74, 240870.88, 0.0000021613648, 10.00234, 9.998556 
1.7049704e+3, 2.7582502e+2, 29470.89, -268479.34, -80955.51, 0.04588103, 0.49621284, 50046.297, 286990.6, 0.000036573332, 10.002549, 9.998587 
1.7049576e+3, 2.8582233e+2, 25127.707, -363627.2, -57019.7, -0.03795325, 0.44458166, 33318.367, 172287.66, 0.00022753773, 10.002453, 9.997314 
1.7049447e+3, 2.9581776e+2, 95817.21, -247360.52, -23690.564, -0.12959756, 0.22292425, 97444.92, 138457.05, 0.0007845109, 10.0021305, 9.997593 
1.7049345e+3, 3.0581486e+2, 132442.14, -177904.19, 65260.41, -0.023200167, 0.16500694, 145606.83, 145606.83, 0.001811542, 10.001937, 9.997822 
1.7049259e+3, 3.1581438e+2, 257618.14, 104563.086, 91122.414, 0.16330245, 0.29835108, 300085.4, 300085.4, 0.0031792617, 10.001807, 9.9998255 
1.7151493e+3, 1.258364e+2, -1679218.6, -1559044.9, 14614.515, 0.050283577, -0.009887226, -1557293.1, 149527.13, 0.058051143, 9.999561, 10.001331 
1.715139e+3, 1.3583991e+2, -1670451.3, -1517113.5, 24493.643, 0.12703542, 0.20930783, -1513296.0, 95486.85, 0.037118543, 9.999071, 10.00114 
1.7151281e+3, 1.4584112e+2, -1583293.3, -1472539.6, -15397.935, 0.16465265, 0.24228242, -1470438.8, 40331.953, 0.018276531, 9.999198, 10.000702 
1.7151138e+3, 1.5584154e+2, -1417702.1, -1339505.9, 37409.19, -0.07223248, 0.18989521, -1324492.0, 88276.25, 0.005915651, 9.999668, 10.000702 
1.7151025e+3, 1.6584145e+2, -1352954.4, -1342417.9, 58607.242, -0.10075692, 0.15630071, -1288842.6, 25927.48, 0.0009130136, 9.999791, 9.999952 
1.7150937e+3, 1.7584085e+2, -1274952.4, -1232673.0, 27512.645, 0.060574368, 0.070878044, -1219116.4, -2340.1704, 0.000025810483, 9.999576, 10.000132 
1.7150821e+3, 1.8584146e+2, -1196929.0, -1162389.0, -43321.55, 0.064620316, 0.13230148, -1133022.0, -14250.748, 0.0, 9.999502, 9.999984 
1.715069e+3, 1.95843e+2, -1081565.6, -1039233.6, -22405.453, -0.05028906, 0.25623763, -1029577.5, -8819.679, 0.0, 9.999558, 10.000123 
1.7150566e+3, 2.0584252e+2, -964280.9, -971345.75, -22719.656, -0.05951813, 0.2201363, -944820.7, -22059.414, 0.0, 9.999856, 9.999772 
1.715045e+3, 2.1584065e+2, -794587.4, -837371.56, 12469.267, 0.019955765, 0.02655387, -791218.56, 33558.313, 0.0, 10.000352, 9.999776 
1.7150329e+3, 2.2584012e+2, -740829.9, -953129.2, -26923.342, 0.09705944, 0.092546776, -737468.7, -10685.114, 0.0, 10.000857, 9.998078 
1.7150204e+3, 2.3584056e+2, -548363.75, -790630.56, -36639.715, 0.17419629, 0.29840976, -542943.75, 85840.25, 0.0, 10.001436, 9.998233 
1.7150073e+3, 2.4583827e+2, -423440.94, -708066.6, 18099.512, 0.055439673, 0.2633465, -422294.6, 108513.47, 0.0, 10.001737, 9.997986 
1.7149937e+3, 2.5583398e+2, -276753.8, -571508.25, 11341.077, -0.20191237, 0.0034980336, -276318.1, 156531.5, 0.0000000000058928205, 10.002013, 9.998114 
1.7149833e+3, 2.6583263e+2, -174657.03, -505645.2, -43951.266, -0.108745486, 0.0822505, -168920.27, 165944.98, 0.0000014626683, 10.002193, 9.997807 
1.7149751e+3, 2.7583358e+2, -30448.045, -356939.5, -65211.855, 0.2372276, 0.36356297, -17904.826, 218956.28, 0.000032081512, 10.002403, 9.998045 
1.7149618e+3, 2.8583178e+2, 84990.48, -201745.06, -76785.1, 0.117073506, 0.35800225, 104258.09, 243134.86, 0.00021186807, 10.002283, 9.998512 
1.714945e+3, 2.9582793e+2, 157224.47, -89909.65, -17455.357, -0.34032956, 0.07956145, 158451.27, 199358.81, 0.00073607016, 10.002, 9.998735 
1.7149347e+3, 3.0582598e+2, 99182.164, -183435.61, 49892.8, -0.2234933, 0.059152596, 107731.52, 107731.52, 0.0016998283, 10.001682, 9.997903 
1.7149283e+3, 3.1582513e+2, 199155.7, 82004.42, 120713.61, 0.19042538, 0.14655754, 274754.88, 274754.88, 0.0029923418, 10.001421, 9.999843 
1.7251495e+3, 1.2584746e+2, -1767054.4, -1624575.0, -15903.194, 0.14156964, -0.020902356, -1622821.5, 83891.31, 0.06177432, 9.999063, 10.001097 
1.7251378e+3, 1.3585243e+2, -1560807.9, -1488969.1, 3614.7927, 0.056974277, 0.36409682, -1488787.6, 119877.47, 0.039721623, 9.999943, 10.000915 
1.7251277e+3, 1.4585343e+2, -1454528.9, -1372765.6, -47682.543, 0.1680222, 0.36656323, -1350838.6, 159815.25, 0.019743169, 9.999909, 10.001059 
1.7251131e+3, 1.5585226e+2, -1469776.3, -1321635.1, -50031.07, -0.090139955, 0.11625003, -1306321.4, 106340.62, 0.006494274, 9.9991, 10.001111 
1.7251019e+3, 1.6585214e+2, -1472472.3, -1388987.5, 32619.41, -0.09800816, 0.05665023, -1377754.0, -63091.586, 0.001032908, 9.998934, 10.00004 
1.7250936e+3, 1.7585248e+2, -1282226.8, -1225341.0, 65940.39, 0.11553279, 0.052758466, -1181970.8, 34689.52, 0.00003215152, 9.999484, 10.00022 
1.7250824e+3, 1.8585332e+2, -1141511.5, -1125727.8, 38361.66, 0.12856783, 0.12858957, -1094454.6, 24198.254, 0.0, 9.999844, 10.000067 
1.7250691e+3, 1.9585472e+2, -976174.6, -978970.3, 27107.477, -0.03184851, 0.23167653, -950429.0, 70211.28, 0.0, 10.000247, 10.000198 
1.7250566e+3, 2.058539e+2, -904742.3, -965451.56, -10826.252, -0.06482663, 0.1665273, -902869.44, 19777.701, 0.0, 10.000365, 9.999573 
1.7250451e+3, 2.1585137e+2, -808571.25, -864188.06, -62615.45, 0.00018953926, -0.06959539, -767866.9, 56802.02, 0.0, 10.000341, 9.999602 
1.7250335e+3, 2.2585097e+2, -777905.9, -954934.44, -77179.72, 0.09242878, 0.011599955, -748983.0, -22308.268, 0.0, 10.000555, 9.998199 
1.7250217e+3, 2.358522e+2, -606303.4, -807138.75, -50119.746, 0.18878393, 0.28626013, -594490.5, 34177.58, 0.0, 10.001008, 9.998318 
1.7250091e+3, 2.4585024e+2, -497302.7, -747274.7, 44143.453, 0.0932194, 0.28210708, -489736.25, 40952.39, 0.0, 10.001246, 9.997949 
1.7249958e+3, 2.558459e+2, -383987.25, -628283.06, 45342.4, -0.14946617, 0.025680372, -375843.0, 56886.246, 0.0000000000049057277, 10.0013075, 9.998056 
1.7249855e+3, 2.6584393e+2, -281744.75, -586486.25, 41708.813, -0.07879909, 0.055592235, -276139.3, 58611.656, 0.0000011502509, 10.00158, 9.997543 
1.7249769e+3, 2.758437e+2, -109140.98, -426933.72, 34253.88, 0.21561764, 0.24523546, -105490.79, 131267.83, 0.000029088935, 10.001983, 9.99777 
1.7249642e+3, 2.858421e+2, 80139.25, -209807.94, -12973.077, 0.13427968, 0.27528614, 80718.54, 219492.44, 0.00020043374, 10.002282, 9.998451 
1.7249481e+3, 2.9583943e+2, 234151.52, -61393.29, -83998.75, -0.24184485, 0.12322787, 256356.97, 297152.38, 0.00069488265, 10.002577, 9.998647 
1.7249377e+3, 3.0583784e+2, 231493.84, -124848.21, -48688.355, -0.12640138, 0.14595723, 238026.56, 238026.56, 0.0016016935, 10.002588, 9.997892 
1.7249295e+3, 3.158364e+2, 289530.16, 75989.984, -33934.95, 0.13640535, 0.18521342, 294793.25, 294793.25, 0.0028259312, 10.00221, 9.999458 
1.7351486e+3, 1.2586154e+2, -1773271.4, -1654534.3, -111986.195, 0.09976748, 0.3134176, -1587153.0, 119427.76, 0.06561491, 9.999141, 10.000861 
1.7351355e+3, 1.358624e+2, -1581950.0, -1517956.5, 39104.77, -0.19424516, 0.290582, -1499426.3, 109146.14, 0.042436883, 9.999876, 10.000742 
1.7351265e+3, 1.4586392e+2, -1463904.4, -1392224.6, -84408.414, 0.03331804, 0.365871, -1336362.4, 174192.39, 0.021297567, 9.999914, 10.000916 
1.7351136e+3, 1.5586239e+2, -1464112.1, -1304893.0, -71146.914, 0.027023798, 0.07651593, -1277733.9, 134831.14, 0.0071235094, 9.999086, 10.001226 
1.7351018e+3, 1.6586329e+2, -1379937.5, -1216063.1, 44451.473, -0.023723168, 0.04865022, -1204782.1, 109771.22, 0.0011691477, 9.998999, 10.0012045 
1.735092e+3, 1.7586589e+2, -1210412.0, -1079198.5, 91391.19, -0.02321937, 0.15892743, -1032303.75, 184223.03, 0.00004011834, 9.999485, 10.001228 
1.7350808e+3, 1.8586656e+2, -1149305.3, -1148052.8, 41183.813, -0.042792775, 0.17873405, -1107490.4, 11029.017, 0.0, 9.999867, 9.999901 
1.7350687e+3, 1.9586587e+2, -1005771.75, -1022661.94, 44687.26, -0.10917036, 0.09131481, -968738.6, 51787.016, 0.0, 10.000173, 9.999932 
1.735057e+3, 2.0586516e+2, -996100.0, -1141297.5, -21482.021, -0.09103873, 0.112757616, -992988.4, -70454.08, 0.0, 10.000301, 9.998397 
1.7350456e+3, 2.1586432e+2, -892000.4, -1018129.8, -55286.008, 0.0031701226, 0.1591319, -871197.94, -46652.22, 0.0, 10.000256, 9.998587 
1.7350335e+3, 2.258633e+2, -741992.3, -850470.94, -67974.15, 0.024660729, 0.18210676, -709269.6, 17287.84, 0.0, 10.000425, 9.998979 
1.735021e+3, 2.3586226e+2, -568487.75, -703509.4, -26421.094, 0.000097602024, 0.147929, -563501.75, 65066.703, 0.0, 10.000896, 9.999082 
1.7350104e+3, 2.4586159e+2, -505279.28, -722694.1, 38551.613, 0.072351955, 0.22487406, -498645.78, 31929.645, 0.0, 10.001074, 9.998201 
1.7350009e+3, 2.558612e+2, -383485.38, -596239.06, 59420.02, 0.21166638, 0.33413965, -368014.88, 64564.477, 0.000000000000012544113, 10.001183, 9.998335 
1.7349893e+3, 2.6585892e+2, -292459.1, -573326.3, 52061.527, 0.12692386, 0.31149638, -283119.53, 51482.094, 0.0000010511417, 10.001426, 9.997709 
1.7349759e+3, 2.7585536e+2, -127295.695, -431879.44, 61518.777, -0.107949376, 0.14955598, -115339.664, 121296.79, 0.000028849088, 10.001846, 9.997798 
1.7349645e+3, 2.858532e+2, -53626.613, -448784.34, -13740.407, -0.0885994, 0.20747258, -53149.41, 85511.37, 0.00019664556, 10.002113, 9.996892 
1.7349543e+3, 2.9585186e+2, 106200.07, -284323.78, -60888.25, 0.09078258, 0.34178972, 115473.23, 156152.42, 0.0006730319, 10.002398, 9.997198 
1.7349432e+3, 3.058501e+2, 177813.27, -171513.27, -73965.19, 0.15274775, 0.42182964, 192828.95, 192828.95, 0.0015496872, 10.002319, 9.997694 
1.7349288e+3, 3.1584728e+2, 184901.3, -45943.56, -27544.295, -0.1914014, 0.3329175, 188142.36, 188142.36, 0.002746368, 10.001822, 9.998792 
1.7451485e+3, 1.2587427e+2, -1638116.3, -1662283.4, -42752.555, 0.114833996, 0.3658083, -1605772.4, 100680.17, 0.06957688, 10.000431, 10.000168 
1.7451356e+3, 1.3587278e+2, -1650370.5, -1582122.5, 114888.96, -0.13788946, 0.1425979, -1496396.9, 112071.41, 0.045260757, 9.999551, 10.000455 
1.7451257e+3, 1.4587452e+2, -1572686.0, -1484675.5, -5774.2905, -0.0060869106, 0.2715721, -1484298.3, 26152.35, 0.022935338, 9.999345, 10.000541 
1.7451136e+3, 1.5587407e+2, -1390351.4, -1300042.3, -38296.24, 0.08739622, 0.124646716, -1285989.3, 126463.45, 0.0078018596, 9.99973, 10.000946 
1.7451015e+3, 1.6587518e+2, -1338831.9, -1176782.8, 36862.6, 0.035779018, 0.12068502, -1168791.4, 145647.58, 0.0013223152, 9.999194, 10.001385 
1.7450902e+3, 1.7587747e+2, -1374502.1, -1143046.8, 3687.8203, -0.07230655, 0.18570364, -1142988.0, 73425.68, 0.000049909977, 9.998285, 10.001377 
1.7450798e+3, 1.8587793e+2, -1313381.3, -1220210.9, -15004.159, -0.07676866, 0.17514409, -1217854.3, -99446.766, 0.0000000000000006446772, 9.998721, 9.999954 
1.7450695e+3, 1.95877e+2, -1011069.56, -1023812.0, -14027.586, -0.039272737, 0.055391926, -1002034.1, 18381.488, 0.0, 10.000127, 9.999945 
1.7450583e+3, 2.0587637e+2, -937556.56, -1145409.5, -43781.875, -0.010980957, 0.10054231, -928710.8, -6286.9536, 0.0, 10.000841, 9.998105 
1.7450464e+3, 2.1587598e+2, -772950.5, -987900.3, -30720.215, 0.012341028, 0.21995035, -768646.2, 55785.527, 0.0, 10.001191, 9.998339 
1.745034e+3, 2.2587465e+2, -607958.9, -805627.6, -36024.105, -0.011250255, 0.2327184, -601598.3, 124848.305, 0.0, 10.001418, 9.998819 
1.7450215e+3, 2.358727e+2, -486927.84, -683092.0, -79864.17, -0.071499325, 0.12659857, -458525.22, 169940.94, 0.0, 10.001531, 9.998924 
1.7450114e+3, 2.4587199e+2, -378427.53, -665423.94, -42890.332, 0.029532807, 0.20931153, -372154.84, 158319.03, 0.0, 10.001968, 9.998157 
1.7450029e+3, 2.5587216e+2, -169505.42, -500031.38, -70500.58, 0.23089035, 0.37873632, -155095.97, 277377.44, 0.0, 10.002677, 9.998278 
1.7449914e+3, 2.6586983e+2, -126098.43, -479248.0, -95109.47, 0.15168765, 0.34530663, -102112.836, 232382.8, 0.0000010008785, 10.002506, 9.997838 
1.7449772e+3, 2.7586576e+2, -124968.19, -419652.38, -106795.26, -0.13721529, 0.12270171, -90335.23, 146198.58, 0.00002996529, 10.00181, 9.997901 
1.7449662e+3, 2.8586367e+2, -115869.266, -471897.5, -80503.516, -0.097492926, 0.18373767, -98512.34, 40044.473, 0.00019663884, 10.001666, 9.996943 
1.744957e+3, 2.9586282e+2, 11529.922, -343651.13, -37194.797, 0.1652695, 0.36675018, 15383.183, 55954.418, 0.00067006296, 10.001795, 9.997088 
1.7449465e+3, 3.058607e+2, 154975.03, -248504.3, 9531.6875, 0.25166515, 0.4484263, 155200.08, 155200.08, 0.0015536589, 10.002427, 9.997116 
1.7449318e+3, 3.1585792e+2, 408999.5, -6888.1694, -56202.99, -0.14966911, 0.4150342, 416460.88, 416460.88, 0.0027788058, 10.003648, 9.998169 
1.755148e+3, 1.25885e+2, -1738275.1, -1854821.1, -105399.41, -0.012085692, 0.07101232, -1676112.4, 30222.58, 0.07366958, 10.0003605, 9.9988575 
1.7551382e+3, 1.3588378e+2, -1693266.4, -1654998.3, 92111.23, 0.14662223, -0.06555688, -1580054.8, 28296.566, 0.048192136, 9.999491, 9.999963 
1.7551248e+3, 1.4588553e+2, -1610340.0, -1567328.8, -814.36237, -0.048376855, 0.12023388, -1567313.4, -56975.074, 0.024652572, 9.999363, 9.999963 
1.7551129e+3, 1.5588732e+2, -1439934.1, -1401169.9, -22071.334, 0.027069146, 0.26225117, -1391178.4, 21146.605, 0.008527423, 9.999723, 10.000252 
1.7551006e+3, 1.6588771e+2, -1392514.4, -1294995.6, -10759.864, 0.0047479407, 0.2644884, -1293822.5, 20497.803, 0.0014925194, 9.999222, 10.000561 
1.7550884e+3, 1.758873e+2, -1426137.0, -1244372.6, -16071.233, -0.100916386, 0.13634625, -1242962.6, -26642.055, 0.00006156021, 9.998264, 10.0006895 
1.7550789e+3, 1.8588756e+2, -1292520.5, -1178907.6, 32964.1, -0.056550518, 0.122395016, -1170036.0, -51720.06, 0.0000000010737394, 9.99873, 10.000233 
1.7550711e+3, 1.9588816e+2, -997733.25, -986525.56, 42592.137, 0.10128987, 0.12841612, -949170.2, 71139.08, 0.0, 10.00009, 10.000217 
1.7550603e+3, 2.0588754e+2, -907645.56, -1071378.4, -41013.504, 0.089241475, 0.1354495, -897946.6, 24368.414, 0.0, 10.000785, 9.998642 
1.7550473e+3, 2.1588622e+2, -757590.0, -934797.0, -12820.477, -0.036366396, 0.10408521, -756667.3, 67660.875, 0.0, 10.001095, 9.998752 
1.7550348e+3, 2.258849e+2, -703157.9, -974397.7, -39087.04, -0.08950843, 0.15851718, -697637.6, 28705.857, 0.0, 10.001294, 9.997721 
1.7550229e+3, 2.3588358e+2, -577269.94, -845452.1, -63595.63, -0.09743119, 0.22523157, -562953.4, 65407.195, 0.0, 10.001421, 9.997864 
1.7550118e+3, 2.4588141e+2, -433446.34, -744876.75, -21744.828, -0.13413769, 0.23624243, -431935.4, 98448.87, 0.0, 10.001815, 9.997687 
1.7550018e+3, 2.5587872e+2, -213790.92, -565831.5, -40075.64, -0.16786554, 0.16299331, -209286.42, 223125.66, 0.0, 10.002566, 9.997877 
1.7549917e+3, 2.6587653e+2, -143242.23, -491815.78, -131110.14, -0.08753219, 0.16381016, -99433.27, 235001.0, 0.00000094846536, 10.002401, 9.997804 
1.7549811e+3, 2.758748e+2, -134745.83, -403622.2, -119875.914, 0.05254478, 0.1733558, -89062.23, 147389.06, 0.000030532858, 10.001664, 9.998075 
1.754969e+3, 2.8587344e+2, -26580.83, -251763.19, -82877.37, 0.012670662, 0.20753522, 632.9658, 139095.86, 0.00019885889, 10.001508, 9.998536 
1.7549561e+3, 2.9587218e+2, 76561.22, -171550.52, -14635.325, -0.12895711, 0.19089983, 77421.52, 117894.15, 0.0006867094, 10.001634, 9.998348 
1.754947e+3, 3.0586964e+2, 27891.81, -449900.84, 41600.1, 0.032450147, 0.24968897, 31486.77, 31486.77, 0.0016096956, 10.002167, 9.995852 
1.7549385e+3, 3.1586877e+2, 272913.5, -194763.92, -12650.108, 0.11596172, 0.51008725, 273255.4, 273255.4, 0.002898753, 10.003263, 9.997052 
1.7651488e+3, 1.2589715e+2, -1760868.6, -1877753.9, -119693.55, 0.060463317, 0.02894748, -1686111.9, 20105.291, 0.07790593, 10.000231, 9.998762 
1.7651388e+3, 1.3589622e+2, -1824058.9, -1765570.0, -30839.467, 0.30432147, -0.03425619, -1752313.8, -144083.97, 0.05123237, 9.998769, 9.999556 
1.7651232e+3, 1.4589739e+2, -1759022.4, -1652273.1, -3016.5552, -0.093353346, 0.117593445, -1652187.9, -141964.98, 0.026445003, 9.998404, 9.999843 
1.7651132e+3, 1.5589938e+2, -1379911.1, -1390766.0, -4809.187, 0.068133034, 0.29430404, -1378087.0, 34121.668, 0.009296644, 10.00023, 10.000076 
1.7651013e+3, 1.6589949e+2, -1224351.5, -1265348.3, -12925.856, 0.07924426, 0.30149403, -1220616.5, 93590.914, 0.0016790463, 10.000612, 10.000087 
1.7650875e+3, 1.7589827e+2, -1241504.0, -1205426.3, -9075.116, -0.083031334, 0.14026222, -1203272.1, 12943.213, 0.000074904594, 9.999754, 10.000233 
1.7650782e+3, 1.8589813e+2, -1215103.9, -1183017.0, 96208.875, -0.031418484, 0.1268008, -1101523.0, 16691.902, 0.000000009428086, 9.9994335, 9.999872 
1.7650719e+3, 1.9589871e+2, -1062691.5, -1050984.0, 42865.27, 0.18470572, 0.16880578, -1013574.6, 6634.2876, 0.0, 9.999778, 9.999936 
1.7650615e+3, 2.0589809e+2, -958256.9, -1061168.1, -66608.0, 0.14913578, 0.17121704, -925544.2, -3330.0955, 0.0, 10.000298, 9.998942 
1.7650479e+3, 2.1589667e+2, -761928.9, -910639.06, -72779.04, -0.072905794, 0.10420375, -732238.44, 91987.99, 0.0, 10.00096, 9.99898 
1.765036e+3, 2.2589514e+2, -728710.5, -1023548.44, -74857.11, -0.09841803, 0.14533222, -710793.6, 15449.87, 0.0, 10.001287, 9.997378 
1.7650253e+3, 2.3589353e+2, -592911.2, -881628.56, -61705.914, 0.0032819896, 0.21671368, -580276.06, 47987.863, 0.0, 10.001446, 9.997596 
1.765014e+3, 2.458914e+2, -503624.9, -745620.0, 50907.484, -0.07223654, 0.22574097, -493351.8, 36935.754, 0.0, 10.001186, 9.9979925 
1.7650025e+3, 2.5588894e+2, -471047.6, -657087.7, 76905.414, -0.26667854, 0.14883977, -443373.1, -11059.967, 0.0, 10.000659, 9.998173 
1.7649928e+3, 2.658871e+2, -313157.63, -546349.1, 38989.273, -0.14440924, 0.16297548, -306811.38, 27520.053, 0.0000007067664, 10.00113, 9.998036 
1.7649844e+3, 2.7588576e+2, -28245.006, -333714.5, 44896.34, 0.17537151, 0.19030048, -21783.068, 214561.75, 0.00002910251, 10.002307, 9.998255 
1.7649719e+3, 2.8588444e+2, 171192.02, -131663.19, 35938.18, 0.08138705, 0.20814113, 175398.19, 313753.28, 0.00020251243, 10.002762, 9.998754 
1.7649567e+3, 2.9588318e+2, 266892.63, -65508.285, -32070.674, -0.2805816, 0.17354241, 269958.6, 310321.47, 0.0007167565, 10.002882, 9.998472 
1.764948e+3, 3.058801e+2, 113466.484, -452652.38, 64912.973, -0.10372017, 0.19592527, 120814.24, 120814.24, 0.0016880381, 10.002944, 9.995461 
1.7649429e+3, 3.1587833e+2, 191696.72, -242402.02, 3576.047, 0.25724885, 0.415095, 191726.19, 191726.19, 0.0030287413, 10.002722, 9.997002 
1.7751512e+3, 1.2591116e+2, -1668380.6, -1683711.5, -11342.445, 0.23535696, 0.27070218, -1662356.3, 43737.973, 0.08231803, 10.000243, 10.0000925 
1.7751373e+3, 1.3591014e+2, -1836929.0, -1801201.1, -97140.56, 0.2597058, 0.22628467, -1720295.6, -112192.35, 0.054393712, 9.9987955, 9.999303 
1.7751205e+3, 1.4590977e+2, -1732482.3, -1605603.3, 42855.848, -0.22293779, 0.22540545, -1592484.4, -82377.23, 0.02831169, 9.998433, 10.000151 
1.7751141e+3, 1.559103e+2, -1365363.8, -1348610.3, 66369.76, 0.12728873, 0.2211119, -1290090.8, 122012.664, 0.010105246, 10.000182, 10.00039 
1.7751029e+3, 1.6591063e+2, -1238103.0, -1294398.4, -50933.707, 0.1716796, 0.24403393, -1208056.8, 106042.15, 0.0018804772, 10.000614, 9.999886 
1.7750874e+3, 1.7591038e+2, -1264468.9, -1249676.4, -33705.574, -0.0820057, 0.20256795, -1222565.0, -6466.9556, 0.00008970714, 9.999744, 9.999929 
1.7750774e+3, 1.8590961e+2, -1276541.5, -1323447.0, 99334.44, -0.07835128, 0.19400103, -1197928.9, -79824.1, 0.000000028818846, 9.999483, 9.998886 
1.7750715e+3, 1.9590864e+2, -1125881.3, -1179555.9, 64177.848, 0.14261135, 0.1755615, -1083155.4, -63040.508, 0.0, 9.999764, 9.999062 
1.7750613e+3, 2.0590791e+2, -961109.5, -1056483.0, -48392.9, 0.085742, 0.20629022, -940855.9, -18734.262, 0.0, 10.000258, 9.998988 
1.775048e+3, 2.1590732e+2, -780125.8, -915158.2, -43340.55, -0.16501711, 0.21634667, -767412.06, 56714.67, 0.0, 10.000828, 9.999003 
1.7750372e+3, 2.2590536e+2, -725470.6, -987308.25, -75557.125, -0.11132923, 0.19770093, -705231.9, 20914.918, 0.0, 10.001151, 9.997697 
1.7750284e+3, 2.3590255e+2, -575050.75, -824794.0, -48804.11, 0.16638109, 0.10794481, -565852.4, 62324.316, 0.0, 10.001353, 9.9980345 
1.7750174e+3, 2.4590184e+2, -448831.1, -600534.1, 22003.836, 0.13242047, 0.1824693, -445704.0, 84481.0, 0.0, 10.001053, 9.999052 
1.7750046e+3, 2.559028e+2, -422535.25, -523151.4, 70396.14, -0.12550093, 0.34088182, -386318.66, 45858.08, 0.0, 10.000524, 9.999154 
1.7749946e+3, 2.659015e+2, -306352.4, -499285.66, 77302.516, -0.09272762, 0.34253848, -279200.72, 54987.52, 0.00000032366296, 10.000984, 9.998432 
1.7749864e+3, 2.7589864e+2, -36407.445, -308246.13, 97258.43, 0.14524141, 0.17693338, -5194.2993, 231020.3, 0.00002512301, 10.002139, 9.998505 
1.7749742e+3, 2.8589672e+2, 48466.805, -353253.88, 29355.674, 0.0046139387, 0.2067146, 50600.63, 188833.08, 0.00020058491, 10.0026045, 9.997315 
1.7749587e+3, 2.958957e+2, 162933.98, -248539.34, -16175.84, -0.38316593, 0.32769603, 163568.9, 203811.63, 0.0007353983, 10.002737, 9.997286 
1.7749494e+3, 3.0589184e+2, 113219.945, -393372.5, 50009.137, -0.27670586, 0.29379752, 118109.49, 118109.49, 0.001730267, 10.002699, 9.995982 
1.7749445e+3, 3.158882e+2, 200243.63, -99964.59, 13804.911, 0.11917052, 0.2728836, 200877.11, 200877.11, 0.0030651416, 10.002241, 9.998187 
1.785151e+3, 1.259239e+2, -1913804.8, -1714226.3, 158588.11, 0.29381505, 0.37591577, -1626644.0, 79330.43, 0.08696164, 9.9981985, 10.000872 
1.7851362e+3, 1.3592273e+2, -1549872.3, -1646355.6, -67497.125, 0.17333694, 0.30230275, -1515149.3, 92833.51, 0.057701517, 10.000737, 9.9994335 
1.7851202e+3, 1.4592198e+2, -1480458.6, -1500316.1, 77478.35, -0.17699109, 0.26302448, -1412275.5, 97713.81, 0.030258754, 10.000246, 10.00001 
1.785114e+3, 1.5592177e+2, -1616221.4, -1493104.9, 59912.86, 0.16901903, 0.20545086, -1468762.3, -56770.367, 0.0109521225, 9.9985485, 10.000188 
1.7851028e+3, 1.6592205e+2, -1479731.4, -1437651.8, -37145.438, 0.18113287, 0.2446397, -1416001.3, -102013.31, 0.0020959692, 9.999065, 9.999645 
1.7850879e+3, 1.7592221e+2, -1065218.4, -1184067.5, -44528.887, -0.07736964, 0.2654851, -1050386.0, 165598.2, 0.000105867584, 10.001238, 9.999661 
1.7850778e+3, 1.85921e+2, -971978.9, -1217034.6, 103024.36, -0.08846415, 0.24816458, -934422.1, 183572.67, 0.0000000562377, 10.001757, 9.99852 
1.7850713e+3, 1.9591913e+2, -934360.5, -1122121.8, 101594.13, 0.07606876, 0.17354083, -889912.06, 130100.984, 0.0, 10.001232, 9.998744 
1.7850615e+3, 2.0591818e+2, -903020.8, -1046288.5, 17252.16, 0.071860336, 0.20318438, -900972.6, 21049.639, 0.0, 10.000734, 9.998837 
1.7850497e+3, 2.1591783e+2, -850943.75, -959115.94, -5561.0845, -0.053307746, 0.25524163, -850658.6, -26632.719, 0.0, 10.000379, 9.998931 
1.7850392e+3, 2.259162e+2, -763749.4, -933006.5, -2478.94, 0.002251308, 0.23915625, -763713.06, -37670.734, 0.0, 10.000574, 9.998353 
1.7850298e+3, 2.3591378e+2, -565045.2, -754703.2, 23309.916, 0.18178613, 0.12752101, -562222.3, 65844.75, 0.0, 10.0011425, 9.998621 
1.7850187e+3, 2.4591328e+2, -448646.9, -599585.75, 36594.836, 0.17176148, 0.19524169, -440242.53, 89830.27, 0.0, 10.001054, 9.999054 
1.7850065e+3, 2.5591418e+2, -417322.28, -524633.2, -6278.265, 0.013045383, 0.34977266, -416956.22, 15108.532, 0.0, 10.000564, 9.999128 
1.7849962e+3, 2.6591307e+2, -321344.8, -485027.2, 26756.33, -0.008982048, 0.35649663, -317082.1, 16992.408, 0.00000018370703, 10.000786, 9.998625 
1.7849873e+3, 2.7591038e+2, -101347.375, -330365.94, 7843.362, 0.05203238, 0.19595666, -101079.07, 135019.19, 0.000020759246, 10.001624, 9.998609 
1.784976e+3, 2.8590795e+2, -39068.04, -438260.97, -22784.965, -0.041750494, 0.19276935, -37771.74, 100350.25, 0.00019242667, 10.002223, 9.996899 
1.784963e+3, 2.959061e+2, 143551.17, -294212.44, -24177.313, -0.22628307, 0.2765504, 144882.4, 185024.84, 0.00073228433, 10.002776, 9.996946 
1.7849526e+3, 3.0590314e+2, 174985.94, -270550.3, 77215.72, -0.22290842, 0.3029189, 187988.69, 187988.69, 0.0017135036, 10.00272, 9.996813 
1.7849457e+3, 3.1590042e+2, 224127.05, -8118.138, -5339.4873, 0.04627329, 0.30380824, 224249.75, 224249.75, 0.0029749514, 10.002023, 9.998937 
1.7951483e+3, 1.259354e+2, -1896650.5, -1695962.1, 267918.25, 0.14747442, 0.33961648, -1510213.4, 195644.75, 0.09190124, 9.998269, 10.001021 
1.7951348e+3, 1.359341e+2, -1521684.1, -1580405.5, -2003.6223, -0.058070917, 0.20348944, -1521615.9, 86252.14, 0.06119029, 10.000706, 9.9999075 
1.7951222e+3, 1.4593422e+2, -1526356.3, -1596290.3, -9478.891, -0.03599874, 0.25835624, -1525094.3, -15227.132, 0.03230053, 10.0002365, 9.999349 
1.7951122e+3, 1.5593383e+2, -1670944.0, -1597527.1, 15452.714, 0.13042906, 0.25652334, -1594407.3, -182533.45, 0.011841973, 9.998519, 9.99948 
1.7951007e+3, 1.6593376e+2, -1490484.8, -1473088.1, 35457.93, 0.033161335, 0.30941975, -1445277.1, -131402.55, 0.0023264778, 9.999108, 9.999389 
1.7950888e+3, 1.7593367e+2, -1077777.9, -1210748.0, 32915.496, -0.1332255, 0.3308182, -1070076.0, 145797.98, 0.00012352158, 10.001234, 9.999484 
1.7950793e+3, 1.8593235e+2, -954732.56, -1180387.5, 75046.49, -0.14483176, 0.292932, -932053.5, 185831.4, 0.000000085167756, 10.001758, 9.998769 
1.795071e+3, 1.9593021e+2, -933772.4, -1105721.5, 87323.48, -0.0792207, 0.17099793, -897203.0, 122700.52, 0.0, 10.00117, 9.998885 
1.795062e+3, 2.0592892e+2, -934255.2, -1099018.1, -5236.6323, 0.028938413, 0.17917757, -934088.94, -12173.199, 0.0, 10.000676, 9.998506 
1.7950526e+3, 2.1592827e+2, -876754.4, -994477.9, -8325.111, 0.193922, 0.23104632, -876168.56, -52245.316, 0.0, 10.000296, 9.998731 
1.7950416e+3, 2.259276e+2, -721277.1, -815930.25, 12464.313, 0.16291925, 0.2724436, -719663.3, 6267.391, 0.0, 10.000453, 9.999214 
1.795029e+3, 2.3592706e+2, -540606.6, -667845.9, 48539.164, -0.014856917, 0.26281375, -524204.34, 103732.73, 0.0, 10.000994, 9.999284 
1.795018e+3, 2.4592552e+2, -548871.56, -771667.9, 11603.491, -0.030355161, 0.25531566, -548268.9, -18315.875, 0.0, 10.0008955, 9.9979515 
1.7950079e+3, 2.5592318e+2, -505208.28, -676407.5, -11274.411, 0.07853134, 0.19612652, -504468.97, -72492.75, 0.0, 10.000441, 9.998142 
1.7949976e+3, 2.6592177e+2, -344516.3, -506222.6, 50586.633, 0.017758539, 0.2236489, -329995.25, 3994.257, 0.00000013255313, 10.000662, 9.998544 
1.7949869e+3, 2.7592102e+2, -122768.94, -338150.34, 47295.23, -0.18612395, 0.2576268, -112841.08, 123154.38, 0.0000188634, 10.001477, 9.998621 
1.7949773e+3, 2.8591827e+2, -27524.48, -382136.6, -14657.821, -0.15595286, 0.19173492, -26919.635, 111102.836, 0.00018750537, 10.00207, 9.997364 
1.7949693e+3, 2.959144e+2, 155683.72, -222229.06, 10619.988, 0.09420529, 0.026749875, 155981.92, 196043.58, 0.00072388566, 10.002583, 9.997529 
1.7949572e+3, 3.0591398e+2, 190965.2, -180429.02, 41900.07, -0.06415147, 0.23997249, 195633.63, 195633.63, 0.0016682546, 10.002463, 9.997561 
1.7949459e+3, 3.159149e+2, 220006.02, 65468.367, 22135.963, -0.1697839, 0.511909, 223114.27, 223114.27, 0.00282097, 10.001698, 9.999583 
1.8051468e+3, 1.2594564e+2, -1660007.9, -1599678.3, 170789.23, 0.09361289, 0.27848214, -1456410.4, 249344.8, 0.097200245, 10.000018, 10.0008545 
1.8051337e+3, 1.3594493e+2, -1848914.9, -1744479.0, -121593.375, -0.12787688, 0.2159616, -1664365.4, -56602.43, 0.06490086, 9.998445, 9.9998665 
1.8051235e+3, 1.4594536e+2, -1739323.9, -1664828.8, -109921.5, 0.16415058, 0.27840415, -1586015.5, -76256.65, 0.034457777, 9.998635, 9.999641 
1.8051118e+3, 1.5594487e+2, -1477043.5, -1488624.5, -29402.637, 0.17043385, 0.24571998, -1452866.6, -41103.402, 0.0127833225, 9.9997835, 9.999613 
1.8051003e+3, 1.6594434e+2, -1355534.3, -1431159.5, 84574.72, 0.02986262, 0.25979093, -1300704.1, 13063.716, 0.0025744103, 10.000157, 9.999166 
1.8050906e+3, 1.7594375e+2, -1230622.3, -1299095.6, 64171.86, -0.029058352, 0.25020024, -1192125.3, 23647.38, 0.00014305822, 10.000274, 9.999331 
1.8050814e+3, 1.8594253e+2, -1151177.6, -1292685.8, 62608.64, -0.029649137, 0.2359923, -1127454.3, -9670.504, 0.00000010953618, 10.000465, 9.998628 
1.805072e+3, 1.9594087e+2, -998107.4, -1145303.9, 32546.813, -0.070629686, 0.17637289, -991232.06, 28567.113, 0.0, 10.000761, 9.998811 
1.8050626e+3, 2.0593968e+2, -863088.94, -1012657.4, -16321.822, 0.016886821, 0.16970076, -861328.56, 60480.918, 0.0, 10.000927, 9.998985 
1.8050537e+3, 2.1593879e+2, -736279.0, -882050.9, 27525.953, 0.22795051, 0.15242644, -731254.5, 92561.83, 0.0, 10.001061, 9.999133 
1.8050425e+3, 2.2593842e+2, -688141.25, -845557.25, 34144.676, 0.19962719, 0.22618489, -681054.1, 44768.08, 0.0, 10.0008955, 9.998786 
1.8050298e+3, 2.3593846e+2, -628873.3, -756832.9, -42745.06, -0.015988506, 0.32061732, -615908.0, 11919.253, 0.0, 10.000586, 9.998869 
1.8050186e+3, 2.4593675e+2, -509643.34, -718229.44, -39315.074, -0.04047456, 0.29968852, -502479.16, 27365.207, 0.0, 10.001016, 9.998265 
1.805009e+3, 2.5593382e+2, -266451.3, -541741.6, 22414.346, 0.07364357, 0.15461059, -264638.25, 167231.72, 0.0, 10.001977, 9.998342 
1.804999e+3, 2.6593196e+2, -181601.77, -502238.88, 112810.875, 0.034817062, 0.1685082, -145888.86, 187999.16, 0.00000007008213, 10.0021105, 9.997872 
1.8049887e+3, 2.7593094e+2, -127370.84, -408078.13, 40646.93, -0.14742263, 0.2453984, -121603.586, 114296.79, 0.000018211342, 10.001735, 9.998025 
1.8049799e+3, 2.8592864e+2, -47775.85, -325077.7, -14322.819, -0.075635776, 0.22131547, -47038.03, 90885.98, 0.00018362651, 10.001628, 9.997976 
1.8049724e+3, 2.9592574e+2, 87986.51, -193291.6, -7903.4043, 0.21253264, 0.09969203, 88208.41, 128161.39, 0.0007097157, 10.001829, 9.998105 
1.8049598e+3, 3.0592555e+2, 171142.14, -154739.86, 8690.442, -0.017393885, 0.28819853, 171373.72, 171373.72, 0.0016129982, 10.002173, 9.997876 
1.8049486e+3, 3.15926e+2, 298011.1, 41131.4, -69412.1, -0.10415445, 0.50695854, 315567.25, 315567.25, 0.0026760024, 10.002432, 9.999104 
1.8151453e+3, 1.2595452e+2, -1697317.6, -1681249.9, -66891.67, -0.08104607, 0.17570946, -1621911.4, 83755.305, 0.10291468, 9.999998, 10.000247 
1.8151323e+3, 1.3595532e+2, -1883483.0, -1808135.0, -152805.42, -0.12556441, 0.33883306, -1688427.9, -80761.34, 0.06887483, 9.9984255, 9.999433 
1.8151242e+3, 1.4595543e+2, -1640474.9, -1479447.3, -73290.76, 0.330471, 0.31500888, -1451084.9, 58578.797, 0.036753505, 9.998702, 10.000903 
1.8151121e+3, 1.5595493e+2, -1403405.8, -1344308.0, 16416.365, 0.21048094, 0.16913398, -1340054.0, 71606.32, 0.01378539, 9.999808, 10.000604 
1.8151009e+3, 1.6595392e+2, -1366949.6, -1463057.3, 76395.32, 0.068362065, 0.10583877, -1324751.5, -11085.16, 0.002842686, 10.000189, 9.998933 
1.815093e+3, 1.7595246e+2, -1249174.5, -1337552.9, 75492.07, 0.1776378, 0.031825487, -1205889.5, 9790.215, 0.00016504708, 10.000264, 9.999076 
1.8150842e+3, 1.8595158e+2, -1184474.1, -1360671.5, 66898.59, 0.18295021, 0.085583165, -1161952.8, -44261.816, 0.00000012908751, 10.000461, 9.998164 
1.815074e+3, 1.9595109e+2, -1022152.44, -1189100.6, 50033.715, 0.027328635, 0.19082619, -1008305.94, 11394.229, 0.0, 10.000735, 9.998524 
1.815063e+3, 2.0595032e+2, -781527.94, -831267.3, -18692.443, -0.042909544, 0.16848648, -775286.4, 146418.27, 0.0, 10.000876, 10.000255 
1.8150523e+3, 2.159493e+2, -684131.5, -748459.4, 37952.695, -0.008422203, 0.011006384, -666546.8, 157159.45, 0.0, 10.000954, 10.000101 
1.815042e+3, 2.259486e+2, -831797.4, -1113129.1, 14424.7, 0.04698431, 0.10418712, -831059.7, -105342.09, 0.0, 10.000755, 9.997023 
1.8150316e+3, 2.3594809e+2, -746903.0, -977395.9, -39471.805, 0.10379066, 0.3197767, -740330.9, -112594.64, 0.0, 10.000479, 9.997408 
1.8150207e+3, 2.459471e+2, -418966.78, -499654.38, -9386.647, 0.04868182, 0.3534356, -417889.2, 111856.484, 0.0, 10.00088, 9.999831 
1.8150096e+3, 2.5594595e+2, -188394.73, -352648.06, 63295.484, -0.06844398, 0.21889484, -166833.84, 264913.6, 0.0, 10.0018635, 9.999691 
1.8150006e+3, 2.659435e+2, -299290.88, -714261.8, 90315.24, -0.035893157, 0.18606444, -280486.56, 53285.297, 0.0000000874347, 10.001964, 9.996489 
1.8149929e+3, 2.759401e+2, -235117.75, -595368.5, 40877.793, 0.09246813, 0.15967554, -230537.56, 5275.734, 0.00001648955, 10.001588, 9.996803 
1.8149833e+3, 2.8593916e+2, -32807.375, -260132.48, -15509.519, 0.08837167, 0.30090082, -31754.102, 106071.62, 0.00017232615, 10.00147, 9.998502 
1.8149725e+3, 2.9594013e+2, 107608.08, -124083.3, 16531.006, 0.018820466, 0.49942186, 108781.61, 148597.83, 0.0006746177, 10.001701, 9.998641 
1.8149604e+3, 3.0593774e+2, 102269.414, -238523.98, 6888.466, -0.21573342, 0.46693462, 102408.59, 102408.59, 0.0015412994, 10.001927, 9.9974165 
1.8149519e+3, 3.159313e+2, 139453.47, -168294.16, 32073.572, -0.04705933, 0.04088741, 142760.66, 142760.66, 0.0025647236, 10.001966, 9.99786 
1.8251453e+3, 1.2596464e+2, -1997559.4, -1788802.8, -120753.43, 0.018564925, 0.17333451, -1733568.4, -27999.916, 0.10907774, 9.99774, 10.000559 
1.8251316e+3, 1.3596533e+2, -1603651.6, -1687635.8, -51914.688, -0.12793767, 0.32459414, -1578871.9, 28697.037, 0.07313931, 10.0004, 9.999316 
1.8251239e+3, 1.4596532e+2, -1279063.6, -1311360.6, -25043.145, 0.31547517, 0.29835463, -1265414.0, 244153.45, 0.039204508, 10.0012865, 10.000844 
1.825113e+3, 1.5596518e+2, -1305311.8, -1307145.3, -47969.863, 0.30053607, 0.19605592, -1258249.9, 153310.88, 0.014855209, 10.000545, 10.000506 
1.8251021e+3, 1.6596407e+2, -1334899.3, -1473179.4, -1597.8353, 0.15743403, 0.13945743, -1334880.8, -21312.07, 0.0031336718, 10.00051, 9.998709 
1.8250939e+3, 1.759623e+2, -1130444.5, -1289945.9, -15599.286, 0.20099808, 0.051447805, -1128933.3, 86653.15, 0.00019006866, 10.0011215, 9.998986 
1.8250851e+3, 1.859617e+2, -1095495.4, -1218954.8, 20752.027, 0.22444704, 0.09294408, -1092100.6, 25492.586, 0.00000015151502, 10.000656, 9.999036 
1.825075e+3, 1.9596198e+2, -1138990.8, -1158043.0, 91247.09, 0.113749966, 0.18624008, -1056773.9, -37181.68, 0.0, 9.999578, 9.999285 
1.8250641e+3, 2.0596148e+2, -937038.94, -935337.75, 46990.18, 0.013600107, 0.17395648, -889190.5, 32403.145, 0.0, 9.999949, 9.999972 
1.8250532e+3, 2.1596035e+2, -646235.3, -759105.06, -29612.867, -0.043395296, 0.03306464, -638937.8, 184660.16, 0.0, 10.001345, 9.999834 
1.8250428e+3, 2.2595918e+2, -705377.8, -1060745.1, -47725.82, 0.012319934, 0.09291778, -699079.8, 26533.58, 0.0, 10.001648, 9.996956 
1.8250325e+3, 2.3595801e+2, -645846.44, -935400.3, 11074.547, 0.120391056, 0.24814634, -645423.44, -17787.283, 0.0, 10.0012045, 9.997345 
1.825022e+3, 2.4595697e+2, -429005.13, -549539.0, 52538.676, 0.08882276, 0.29910952, -409319.47, 120327.9, 0.0, 10.001003, 9.999427 
1.8250112e+3, 2.5595605e+2, -339253.44, -461394.53, -42081.0, -0.033438016, 0.2301611, -326159.16, 105491.04, 0.0, 10.000979, 9.999366 
1.8250023e+3, 2.659539e+2, -338319.72, -666756.25, 11523.674, -0.026534263, 0.20752515, -337915.88, -4243.8667, 0.00000011582431, 10.001426, 9.997068 
1.8249945e+3, 2.759508e+2, -104492.05, -483419.72, 81608.12, 0.05675091, 0.16144569, -87663.79, 148044.23, 0.000015405387, 10.002261, 9.997254 
1.8249851e+3, 2.8594998e+2, 64969.17, -261364.13, 53546.555, 0.07990945, 0.31893042, 73530.766, 211250.1, 0.0001600689, 10.002362, 9.998059 
1.8249746e+3, 2.9595098e+2, 121768.07, -163091.02, -21216.832, 0.045995295, 0.57529587, 123339.67, 163050.72, 0.0006309656, 10.001993, 9.998235 
1.8249628e+3, 3.0594754e+2, 91802.66, -181126.4, 301.95746, -0.14020318, 0.42267722, 91802.99, 91802.99, 0.0014656942, 10.001596, 9.997962 
1.8249546e+3, 3.159409e+2, 81536.22, -177190.94, 93193.89, 0.076143615, -0.06323154, 111609.26, 111609.26, 0.002489003, 10.001437, 9.998081 
1.8351452e+3, 1.259758e+2, -1913510.8, -1632807.0, -96392.76, 0.19405992, 0.22691521, -1602893.8, 102568.67, 0.11569034, 9.9977665, 10.001706 
1.8351316e+3, 1.3597518e+2, -1591553.4, -1649899.1, 53294.563, -0.1898669, 0.18680128, -1559969.6, 47498.477, 0.07769921, 10.000365, 9.999586 
1.8351224e+3, 1.4597523e+2, -1377252.3, -1514939.8, -55544.266, 0.020540262, 0.24138913, -1357639.0, 151828.89, 0.04181763, 10.001284, 9.999399 
1.8351145e+3, 1.5597567e+2, -1388259.4, -1479617.4, -63208.266, 0.36236447, 0.3258919, -1355952.1, 55511.93, 0.015997248, 10.000538, 9.999319 
1.8351036e+3, 1.6597475e+2, -1343562.8, -1496290.6, 11022.498, 0.2215501, 0.35148847, -1342771.4, -29296.568, 0.0034491862, 10.000531, 9.998541 
1.835093e+3, 1.7597304e+2, -1126874.0, -1284031.0, 7739.9023, -0.016567446, 0.28788224, -1126493.8, 89000.234, 0.00021871291, 10.001122, 9.999028 
1.8350838e+3, 1.8597274e+2, -944533.8, -905719.8, -27043.924, 0.0068723746, 0.23845927, -891840.1, 225652.06, 0.00000018976193, 10.000659, 10.0011835 
1.8350749e+3, 1.9597344e+2, -1021678.56, -906678.06, 65613.52, 0.12299382, 0.16168833, -876934.9, 142541.02, 0.0, 9.999542, 10.001027 
1.8350652e+3, 2.0597312e+2, -1069220.9, -1198614.6, 92020.33, 0.110146515, 0.18503149, -1021430.25, -99953.23, 0.0, 9.999898, 9.998193 
1.8350555e+3, 2.1597204e+2, -764986.4, -979802.9, 22224.803, 0.047568325, 0.22749324, -762711.1, 60779.68, 0.0, 10.001236, 9.998369 
1.8350446e+3, 2.2597025e+2, -614691.8, -838025.06, -70382.02, 0.0071536796, 0.20717444, -594362.0, 131146.69, 0.0, 10.001497, 9.99856 
1.8350324e+3, 2.3596804e+2, -575996.25, -760513.1, 5441.2764, -0.02761177, 0.096005715, -575835.94, 51693.23, 0.0, 10.001078, 9.998607 
1.8350224e+3, 2.4596608e+2, -615828.9, -902580.4, 44337.72, 0.012578092, 0.12541762, -609129.8, -79577.73, 0.0, 10.000849, 9.997083 
1.8350138e+3, 2.5596422e+2, -495428.66, -754991.0, -28598.41, 0.110730484, 0.20281288, -492315.06, -60737.73, 0.0, 10.0008545, 9.997412 
1.8350038e+3, 2.6596332e+2, -190779.64, -336020.47, 37583.496, -0.034573033, 0.26845512, -181630.6, 151955.64, 0.000000090536304, 10.001309, 9.9994 
1.8349929e+3, 2.75963e+2, 22770.223, -194059.86, 122598.836, -0.34336406, 0.26025137, 78014.266, 313599.03, 0.00001528185, 10.002152, 9.999293 
1.8349849e+3, 2.85961e+2, -65650.66, -502454.44, 25059.348, -0.20540641, 0.28937522, -64217.703, 73388.08, 0.00015262204, 10.002222, 9.996477 
1.8349785e+3, 2.9595813e+2, 2773.4077, -363813.6, -21159.584, 0.21154737, 0.31075394, 3990.7073, 43630.14, 0.000595642, 10.001805, 9.996939 
1.834967e+3, 3.0595496e+2, 141038.45, -20804.787, -21548.932, 0.094857275, 0.18063426, 143858.48, 143858.48, 0.0014012378, 10.001343, 9.9991865 
1.8349549e+3, 3.1595585e+2, 122585.71, -7028.7573, 172684.3, -0.070299245, 0.30114058, 242223.17, 242223.17, 0.0024329247, 10.001089, 9.999411 
1.845145e+3, 1.259874e+2, -1622820.5, -1505835.6, -36732.867, 0.29762545, 0.31696165, -1495258.1, 210092.2, 0.12272786, 9.999852, 10.001683 
1.8451324e+3, 1.3598594e+2, -1857040.3, -1816922.4, 17621.422, -0.056942362, 0.22181818, -1810281.6, -202920.23, 0.08254445, 9.998715, 9.999222 
1.845122e+3, 1.4598425e+2, -1717944.0, -1727735.9, -69771.76, -0.037138075, 0.1492024, -1652896.5, -143517.9, 0.04459436, 9.999086, 9.999003 
1.8451145e+3, 1.5598524e+2, -1412309.5, -1510889.1, -23250.51, 0.33131784, 0.31395045, -1407101.0, 4271.6113, 0.017215712, 10.000447, 9.999151 
1.8451041e+3, 1.6598527e+2, -1290897.8, -1405182.8, 122973.336, 0.21819937, 0.4106678, -1212439.0, 100935.22, 0.0037916328, 10.000627, 9.999116 
1.845093e+3, 1.7598447e+2, -1226737.9, -1282466.5, 155436.9, -0.07466989, 0.38227928, -1096687.5, 118695.51, 0.00025177147, 10.000229, 9.999469 
1.845084e+3, 1.8598385e+2, -1030392.1, -1013799.75, 24663.494, -0.028276594, 0.31468078, -996074.5, 121310.484, 0.00000025167606, 10.000356, 10.000587 
1.8450755e+3, 1.9598345e+2, -850301.7, -882947.3, -95046.89, 0.18260531, 0.18745023, -770186.2, 249195.16, 0.0, 10.00096, 10.000514 
1.8450661e+3, 2.0598298e+2, -954609.44, -1132425.1, -38246.09, 0.18545458, 0.21242219, -946732.1, -25347.404, 0.0, 10.000628, 9.9983015 
1.8450561e+3, 2.1598244e+2, -966054.1, -1061107.1, 18483.514, 0.061119452, 0.2970431, -962586.44, -139193.48, 0.0, 9.999785, 9.998516 
1.8450452e+3, 2.2598071e+2, -793434.0, -865019.25, -45012.348, 0.003102542, 0.24652946, -771718.2, -46310.285, 0.0, 10.00003, 9.999071 
1.8450335e+3, 2.359781e+2, -546734.3, -699724.56, -68321.77, -0.029549656, 0.04669852, -520665.47, 106762.73, 0.0, 10.001079, 9.999019 
1.8450238e+3, 2.4597624e+2, -519337.38, -888380.8, 34178.88, 0.031138005, 0.08287348, -516198.6, 13251.951, 0.0, 10.00167, 9.996775 
1.8450154e+3, 2.5597492e+2, -349397.56, -711735.7, 92677.984, 0.1431202, 0.24425822, -327068.63, 104405.25, 0.0, 10.001978, 9.997163 
1.8450053e+3, 2.659741e+2, -143619.86, -290643.06, 142464.1, -0.013118812, 0.3146996, -56819.348, 276663.1, 0.00000009817215, 10.001539, 9.999599 
1.8449941e+3, 2.759735e+2, -188424.81, -276633.25, 50870.13, -0.3545764, 0.26526248, -165201.83, 70279.52, 0.000013983738, 10.000626, 9.999456 
1.8449864e+3, 2.859712e+2, -199437.23, -549325.06, -254.39589, -0.22015661, 0.24721266, -199437.05, -61933.04, 0.0001420209, 10.001244, 9.99662 
1.8449806e+3, 2.9596797e+2, 171027.28, -272416.47, 36484.934, 0.20239992, 0.22280203, 174009.08, 213548.9, 0.0005571277, 10.002906, 9.99705 
1.8449698e+3, 3.0596447e+2, 279177.4, 1500.3723, -7305.805, 0.21347667, 0.07839811, 279369.5, 279369.5, 0.0013278592, 10.002485, 9.998798 
1.8449566e+3, 3.159662e+2, 136098.27, 25413.963, 30272.85, -0.002348985, 0.32763225, 143837.02, 143837.02, 0.0023466824, 10.001057, 9.999647 
1.8551445e+3, 1.2599908e+2, -1697416.3, -1668021.9, -21216.773, 0.23155765, 0.40422398, -1656909.0, 48326.29, 0.13014582, 9.99988, 10.000405 
1.8551338e+3, 1.3599755e+2, -1931492.5, -1969225.9, -13934.333, 0.19560368, 0.41176638, -1926904.6, -319655.56, 0.08765755, 9.998702, 9.998182 
1.855122e+3, 1.4599231e+2, -1671002.9, -1635503.8, -22388.584, 0.040997773, 0.0012574893, -1624682.5, -115381.97, 0.04753598, 9.999107, 9.999627 
1.8551132e+3, 1.5599386e+2, -1356873.5, -1397468.1, 26406.172, 0.13280414, 0.15596339, -1343865.1, 67421.4, 0.01851746, 10.000457, 9.999929 
1.8551032e+3, 1.6599564e+2, -1195656.0, -1214666.0, 98043.35, 0.056571685, 0.31676033, -1106658.0, 206609.31, 0.0041650403, 10.000651, 10.000416 
1.8550937e+3, 1.7599659e+2, -1171615.4, -1169671.8, 150116.69, -0.043038655, 0.3403422, -1020523.75, 194730.22, 0.00029041685, 10.000226, 10.000248 
1.8550852e+3, 1.85995e+2, -1255327.9, -1486128.8, 38594.81, 0.038856104, 0.31975737, -1249045.1, -131772.75, 0.0000003514084, 10.000378, 9.997338 
1.855077e+3, 1.9599207e+2, -1046296.3, -1283062.3, -71405.555, 0.21777588, 0.26204902, -1026428.5, -7120.163, 0.0, 10.000927, 9.9977865 
1.8550667e+3, 2.0599112e+2, -826109.94, -850867.7, -76107.79, 0.15594737, 0.25760135, -761380.9, 159935.23, 0.0, 10.000565, 10.000267 
1.855055e+3, 2.1599148e+2, -859851.6, -817550.94, 1136.823, -0.05346444, 0.23811582, -817520.44, 5784.893, 0.0, 9.999686, 10.0002365 
1.8550447e+3, 2.259904e+2, -848333.8, -952745.9, -11282.657, -0.06837945, 0.20268364, -847128.56, -121815.9, 0.0, 9.999911, 9.99853 
1.8550354e+3, 2.3598829e+2, -587748.44, -762021.5, -22036.793, 0.043560393, 0.111048006, -585005.06, 42327.484, 0.0, 10.000977, 9.998644 
1.8550259e+3, 2.4598765e+2, -425185.2, -659950.3, 38397.617, 0.055122934, 0.19924575, -419064.53, 110276.28, 0.0, 10.001524, 9.998414 
1.8550162e+3, 2.5598806e+2, -275036.97, -523262.7, 108381.04, 0.0026826437, 0.36529002, -234375.9, 196964.8, 0.0, 10.00184, 9.99852 
1.855007e+3, 2.6598606e+2, -295186.72, -577890.3, 97361.09, -0.026760181, 0.35878304, -264900.78, 68461.21, 0.00000008466028, 10.001416, 9.99769 
1.854998e+3, 2.7598223e+2, -324757.44, -519635.9, 39006.74, -0.04213833, 0.1779262, -317239.88, -81841.14, 0.000011475633, 10.000463, 9.997864 
1.8549895e+3, 2.8598052e+2, -111503.75, -325459.28, 52083.9, -0.055524044, 0.20497532, -99498.43, 37915.504, 0.00012583715, 10.001056, 9.998255 
1.8549809e+3, 2.9598048e+2, 240005.75, -84093.03, 99921.72, -0.08020099, 0.32742152, 268335.88, 307748.06, 0.0005096421, 10.00272, 9.998432 
1.8549713e+3, 3.059761e+2, 86928.664, -349636.25, -84308.35, 0.08243064, 0.15397857, 102644.35, 102644.35, 0.0012369246, 10.002272, 9.9964905 
1.8549603e+3, 3.1597358e+2, 975.7592, -146649.8, 7356.6123, 0.23154764, 0.20938535, 1341.4548, 1341.4548, 0.0022135882, 10.000613, 9.99867 
1.8651423e+3, 1.2600699e+2, -2126509.0, -1843655.3, -94513.45, 0.18707305, 0.31519336, -1814981.1, -109825.05, 0.1378835, 9.99682, 10.000633 
1.8651345e+3, 1.3600802e+2, -1718120.9, -1757850.8, 22171.25, 0.3540355, 0.47083288, -1708217.1, -101073.664, 0.09301642, 9.999686, 9.999163 
1.8651225e+3, 1.4600207e+2, -1551397.5, -1587347.5, 45937.285, 0.12711605, -0.05021437, -1520043.6, -10841.687, 0.050644647, 9.999994, 9.999515 
1.8651125e+3, 1.5600382e+2, -1600919.0, -1523806.9, 17000.64, 0.10305169, 0.13224521, -1520225.3, -109038.04, 0.01991141, 9.998829, 9.999836 
1.865103e+3, 1.6600554e+2, -1414850.1, -1311187.4, 39123.004, 0.03099813, 0.2887615, -1298079.5, 15088.383, 0.0045744055, 9.99911, 10.000489 
1.865094e+3, 1.7600603e+2, -1143389.5, -1149561.1, -10951.502, -0.04520655, 0.2580416, -1135097.4, 80060.3, 0.0003360051, 10.000408, 10.000286 
1.8650855e+3, 1.8600436e+2, -1260281.8, -1531699.5, -31065.95, 0.040381778, 0.2479418, -1256771.4, -139593.06, 0.00000050835786, 10.000536, 9.996945 
1.8650775e+3, 1.9600174e+2, -1202364.8, -1390716.3, 56226.754, 0.20809804, 0.26010746, -1186856.8, -167642.13, 0.0, 10.000008, 9.997486 
1.8650669e+3, 2.0600107e+2, -840844.94, -799938.94, 86223.28, 0.14385878, 0.26585793, -731776.0, 189443.66, 0.0, 10.00023, 10.00077 
1.865055e+3, 2.1600148e+2, -632492.5, -661551.2, 43797.33, -0.08325853, 0.20082183, -600877.44, 222328.13, 0.0, 10.001048, 10.0006485 
1.8650453e+3, 2.2600053e+2, -650998.9, -903066.7, 28265.662, -0.072575144, 0.18426248, -647868.2, 77343.836, 0.0, 10.001462, 9.998128 
1.8650371e+3, 2.3599881e+2, -514799.28, -762742.9, 12996.087, 0.08579347, 0.16945964, -514119.97, 113111.35, 0.0, 10.001633, 9.998328 
1.8650277e+3, 2.4599808e+2, -432683.2, -631033.6, 9368.449, 0.09689604, 0.24636859, -432241.7, 96998.18, 0.0, 10.001324, 9.998711 
1.8650173e+3, 2.5599793e+2, -424800.0, -571731.06, -34000.105, -0.002877105, 0.32835844, -417313.75, 13928.296, 0.0, 10.000695, 9.998742 
1.8650086e+3, 2.6599574e+2, -331099.72, -598648.06, 23858.451, 0.017268687, 0.29941118, -328988.8, 4275.2725, 0.000000065173005, 10.0012, 9.997643 
1.865001e+3, 2.7599216e+2, -19748.152, -379341.25, 78414.11, 0.11374105, 0.1439972, -3392.792, 231906.89, 0.000009431519, 10.00257, 9.99782 
1.8649924e+3, 2.8599074e+2, 151773.56, -178955.05, 120446.586, 0.06318518, 0.19550432, 190988.66, 328300.38, 0.00011328213, 10.002785, 9.998421 
1.864983e+3, 2.9599106e+2, 186528.95, -99740.88, 19853.883, -0.11200937, 0.33976093, 187899.33, 227205.17, 0.00047190647, 10.002307, 9.99851 
1.8649739e+3, 3.059866e+2, 110708.266, -408224.38, -137893.27, 0.10350015, 0.18616731, 145074.08, 145074.08, 0.0011580472, 10.002738, 9.995852 
1.8649624e+3, 3.159821e+2, 475525.66, 61976.535, -774.19543, 0.23166837, 0.10923584, 475527.13, 475527.13, 0.0020773846, 10.003927, 9.998516 
1.875138e+3, 1.2601203e+2, -2015540.8, -1635698.0, -39692.543, 0.00925197, 0.12776305, -1631594.5, 73509.2, 0.14588223, 9.996858, 10.0021305 
1.8751344e+3, 1.3601746e+2, -1523964.9, -1354818.8, 103202.94, 0.34804615, 0.39733827, -1305962.3, 301081.84, 0.0986057, 9.999649, 10.002135 
1.8751228e+3, 1.4601366e+2, -1609136.6, -1711658.0, -6674.525, 0.13529116, -0.0029273392, -1608703.9, -99621.586, 0.053927336, 10.000006, 9.998659 
1.8751122e+3, 1.56015e+2, -1662828.6, -1660855.8, -6193.1157, 0.1651807, 0.23426208, -1655571.0, -244495.83, 0.021407956, 9.998857, 9.998886 
1.8751025e+3, 1.6601495e+2, -1484218.4, -1465070.8, 81467.79, 0.0544536, 0.31529543, -1392616.1, -79540.13, 0.0050250688, 9.999152, 9.9994135 
1.8750936e+3, 1.7601284e+2, -1196449.8, -1257289.5, 37993.82, -0.1522317, 0.13180616, -1178198.3, 36895.094, 0.00038988978, 10.00039, 9.999559 
1.8750848e+3, 1.8601194e+2, -1090531.6, -1178111.5, -60087.79, -0.11522409, 0.09976846, -1059970.4, 57132.41, 0.000000733184, 10.000533, 9.999374 
1.8750764e+3, 1.9601247e+2, -1062618.6, -1091396.6, 46054.035, 0.09342441, 0.18605831, -1028758.1, -9657.069, 0.0, 9.9999695, 9.99956 
1.8750666e+3, 2.0601262e+2, -905679.2, -931201.94, 105819.16, 0.07232561, 0.23159933, -811854.7, 109242.66, 0.0, 10.000205, 9.999886 
1.8750559e+3, 2.1601237e+2, -706728.6, -795212.8, 77764.86, -0.10376552, 0.19251384, -661501.5, 161592.36, 0.0, 10.000952, 9.999782 
1.8750466e+3, 2.260112e+2, -691266.06, -952865.5, 27893.201, -0.099632055, 0.20668516, -688325.0, 36780.414, 0.0, 10.00131, 9.997861 
1.8750383e+3, 2.3600951e+2, -556097.4, -816700.44, 25843.625, 0.03198529, 0.21993198, -553559.2, 73566.45, 0.0, 10.001499, 9.998017 
1.8750289e+3, 2.4600723e+2, -525994.0, -789045.44, -20320.045, 0.07582213, 0.20984988, -524433.56, 4716.643, 0.0, 10.001168, 9.9977045 
1.8750186e+3, 2.560045e+2, -498935.7, -690359.94, -39190.49, 0.0522637, 0.13805388, -491222.94, -60045.246, 0.0, 10.000552, 9.997994 
1.8750103e+3, 2.6600337e+2, -231739.89, -364885.72, 68377.055, 0.035804443, 0.15165612, -202880.23, 130306.95, 0.00000004605578, 10.001066, 9.999322 
1.875003e+3, 2.7600327e+2, 57117.37, -183832.6, 136217.17, 0.028149107, 0.18081994, 118492.16, 353675.84, 0.000008317367, 10.002416, 9.99924 
1.8749951e+3, 2.8600195e+2, 35986.324, -386135.25, 90452.18, 0.02097178, 0.24864878, 54551.87, 191748.4, 0.00010640216, 10.002634, 9.997076 
1.8749869e+3, 2.9599968e+2, 66749.77, -291258.22, 24640.299, 0.028253803, 0.27033812, 68437.71, 107659.71, 0.00044874792, 10.002074, 9.997305 
1.8749774e+3, 3.0599588e+2, 155409.19, -264356.44, -105506.13, 0.14549096, 0.18458405, 180435.6, 180435.6, 0.001101345, 10.002514, 9.996951 
1.8749642e+3, 3.1599033e+2, 462541.4, 147937.45, 32736.283, -0.019248148, -0.112870164, 465911.7, 465911.7, 0.001964711, 10.00347, 9.99932 
1.8851352e+3, 1.2601836e+2, -1887331.6, -1668990.4, 60839.09, -0.010506688, -0.0028892353, -1653182.5, 51852.32, 0.15411249, 9.998164, 10.001244 
1.8851332e+3, 1.3602474e+2, -1842213.8, -1436165.3, -1287.7052, 0.39991647, 0.30247617, -1436161.3, 170808.97, 0.10442951, 9.997108, 10.002745 
1.8851212e+3, 1.460232e+2, -1888810.3, -1832524.1, -154170.58, 0.08789089, 0.08689846, -1703949.0, -194960.72, 0.057399224, 9.998028, 9.998783 
1.8851121e+3, 1.5602422e+2, -1405898.9, -1520368.5, -90838.375, 0.18836945, 0.27588737, -1355767.9, 55216.164, 0.023018045, 10.000569, 9.999018 
1.8851028e+3, 1.6602363e+2, -1306774.9, -1418111.6, 41939.234, 0.12291049, 0.31344873, -1292744.8, 20246.387, 0.005521801, 10.000536, 9.99907 
1.8850933e+3, 1.7602101e+2, -1443258.3, -1403413.6, 39548.805, -0.12923089, 0.11534542, -1379052.6, -164037.67, 0.0004532519, 9.998808, 9.999327 
1.8850844e+3, 1.8602072e+2, -1259167.9, -1164701.9, -61706.11, -0.13546756, 0.106471606, -1134226.4, -17209.16, 0.0000010252129, 9.998958, 10.000228 
1.885076e+3, 1.9602238e+2, -929032.1, -949064.75, -80249.58, 0.04311596, 0.21819434, -858176.2, 160824.81, 0.0, 10.000541, 10.000262 
1.885067e+3, 2.0602232e+2, -897704.56, -1017289.4, -67923.63, 0.066364355, 0.25531796, -867005.25, 53994.883, 0.0, 10.000655, 9.999074 
1.885057e+3, 2.1602103e+2, -900601.1, -958326.25, -103631.43, -0.03443412, 0.19059172, -821888.0, 1122.6136, 0.0, 9.999939, 9.999141 
1.8850477e+3, 2.2601996e+2, -849738.5, -961887.44, -88023.44, -0.038758192, 0.21137455, -801445.94, -76424.83, 0.0, 9.999943, 9.998447 
1.885039e+3, 2.3601897e+2, -670724.25, -817653.5, -42811.727, 0.02020028, 0.23851618, -659160.06, -32127.643, 0.0, 10.000468, 9.998509 
1.8850303e+3, 2.4601656e+2, -503116.4, -765846.7, -5552.0933, 0.09708167, 0.18794714, -502999.13, 26057.393, 0.0, 10.00128, 9.997806 
1.8850212e+3, 2.560132e+2, -232347.16, -557954.7, 37048.523, 0.16891712, 0.042732235, -228184.89, 202903.94, 0.0, 10.002358, 9.998037 
1.8850128e+3, 2.6601207e+2, -63097.547, -315641.3, 111805.35, 0.1279956, 0.07644048, -20712.9, 312385.34, 0.000000017635879, 10.00237, 9.999028 
1.8850045e+3, 2.7601257e+2, -53237.574, -256469.67, 10597.341, -0.011040431, 0.18779986, -52686.48, 182404.81, 0.000007212163, 10.001756, 9.999048 
1.8849967e+3, 2.860111e+2, -137105.8, -417630.03, -18612.188, -0.0074678753, 0.22325602, -135876.31, 1229.5505, 0.00009812263, 10.001251, 9.997512 
1.8849894e+3, 2.9600808e+2, -60770.715, -313291.9, 30090.064, 0.13370907, 0.1314271, -57234.74, -18097.742, 0.00042173456, 10.001021, 9.997665 
1.8849804e+3, 3.060059e+2, 111953.83, -234533.27, 10391.802, 0.22753374, 0.16362602, 112265.22, 112265.22, 0.0010400804, 10.001974, 9.997435 
1.8849674e+3, 3.1600246e+2, 463229.3, 163212.66, -12319.853, -0.039091222, 0.027562372, 463734.38, 463734.38, 0.0018543331, 10.003389, 9.99947 
1.8951331e+3, 1.2602589e+2, -2091312.4, -2113578.0, 19443.725, -0.07029249, -0.111451976, -2080039.9, -375089.34, 0.16258536, 9.998283, 9.998081 
1.8951307e+3, 1.3603006e+2, -1968617.6, -1676497.3, -21901.342, 0.42257392, 0.18222336, -1674864.3, -67944.13, 0.110513955, 9.997092, 10.000975 
1.8951176e+3, 1.4603083e+2, -1813489.6, -1665022.9, -68091.27, -0.10033621, 0.21843575, -1638523.9, -129605.71, 0.06108175, 9.997989, 9.999948 
1.895112e+3, 1.560316e+2, -1336900.9, -1364596.3, -956.99603, 0.10887797, 0.2626216, -1336867.8, 74044.51, 0.024752133, 10.0005245, 10.0001135 
1.895104e+3, 1.6603154e+2, -1274129.0, -1360531.9, -29029.477, 0.14787999, 0.28505382, -1265281.6, 47631.746, 0.0060684755, 10.000574, 9.99945 
1.8950932e+3, 1.7603044e+2, -1423075.1, -1363707.3, -8109.1646, -0.042266823, 0.20167147, -1362619.5, -147695.83, 0.0005270964, 9.998813, 9.999599 
1.895084e+3, 1.860305e+2, -1298133.3, -1247252.9, -8853.231, -0.10008337, 0.2487531, -1245756.4, -128833.23, 0.0000013718216, 9.998972, 9.999649 
1.8950762e+3, 1.9603163e+2, -980849.9, -1039864.94, -24017.557, -0.022143317, 0.36397052, -972310.9, 46601.816, 0.0, 10.000477, 9.999662 
1.8950675e+3, 2.0603034e+2, -955935.94, -1135150.1, -101955.445, 0.035439614, 0.34611377, -909806.7, 11119.476, 0.0, 10.000627, 9.998286 
1.895058e+3, 2.160274e+2, -948039.25, -1042103.4, -118655.59, 0.061780646, 0.19224115, -867434.44, -44478.527, 0.0, 9.999865, 9.998607 
1.8950486e+3, 2.2602656e+2, -771377.25, -768908.4, -75088.26, 0.037434638, 0.18326895, -695044.4, 29917.56, 0.0, 9.999811, 9.999837 
1.8950392e+3, 2.3602721e+2, -596971.75, -629008.3, -12169.911, -0.024813896, 0.2344828, -592873.06, 34078.42, 0.0, 10.000323, 9.999868 
1.8950316e+3, 2.4602617e+2, -445253.2, -614437.4, 26476.742, 0.07306045, 0.19893226, -441206.47, 87751.28, 0.0, 10.001132, 9.998922 
1.8950249e+3, 2.5602394e+2, -198499.45, -453629.66, 79557.195, 0.28609008, 0.056006983, -175724.27, 255251.34, 0.0, 10.0022135, 9.998823 
1.8950163e+3, 2.6602185e+2, -240117.22, -654054.9, 81106.375, 0.21203132, 0.081791736, -224792.67, 108205.83, 0.0000000071100716, 10.002239, 9.996768 
1.8950057e+3, 2.760199e+2, -203949.05, -527810.3, -143.33287, -0.08454182, 0.16920306, -203948.98, 31075.063, 0.0000064261117, 10.001588, 9.997261 
1.8949969e+3, 2.860181e+2, -4758.5947, -110746.95, -41367.844, -0.12627393, 0.13064484, 9475.802, 146516.08, 0.00008727804, 10.001095, 9.9997015 
1.8949902e+3, 2.9601622e+2, 31423.268, -67214.42, 48880.855, 0.10114726, -0.069101505, 51542.79, 90595.234, 0.00038336558, 10.000783, 9.999474 
1.8949822e+3, 3.0601656e+2, 54571.76, -288137.1, 61590.457, 0.18845454, 0.16013049, 65304.47, 65304.47, 0.00096103176, 10.001712, 9.997183 
1.8949717e+3, 3.1601834e+2, 288013.22, -66293.03, 57819.83, 0.02184767, 0.56793797, 297210.2, 297210.2, 0.0017327515, 10.002866, 9.998127 
1.9051324e+3, 1.260346e+2, -1880457.3, -2009764.4, 14221.745, -0.04034162, -0.027787188, -1878911.6, -174045.9, 0.1713416, 9.999733, 9.998092 
1.9051285e+3, 1.3603567e+2, -1690337.8, -1621717.9, -5321.325, 0.38885367, 0.01427145, -1621307.8, -14441.968, 0.11689223, 9.999355, 10.000255 
1.9051154e+3, 1.46039e+2, -1671051.8, -1552096.6, 32599.568, -0.15944476, 0.32877487, -1543748.5, -34911.285, 0.06499328, 9.998768, 10.000348 
1.9051114e+3, 1.5603882e+2, -1601631.1, -1432264.9, 32744.164, 0.102230206, 0.21640539, -1426154.8, -15315.6, 0.026617203, 9.998425, 10.000658 
1.905104e+3, 1.6603859e+2, -1536944.0, -1503133.8, -59633.2, 0.19009228, 0.20299962, -1458055.8, -145213.25, 0.0066676727, 9.998834, 9.999311 
1.9050932e+3, 1.7603844e+2, -1245863.9, -1287149.9, -85300.695, 0.024217699, 0.22727586, -1178743.9, 36101.953, 0.0006122247, 10.000075, 9.99951 
1.9050838e+3, 1.8603857e+2, -1162877.5, -1174579.1, -44167.145, -0.038275816, 0.28151566, -1124175.4, -7330.851, 0.0000017786746, 9.999875, 9.999711 
1.905076e+3, 1.960389e+2, -1218928.6, -1152806.3, -26185.691, 0.0029798562, 0.31346285, -1143692.4, -124852.1, 0.0, 9.99883, 9.999688 
1.9050679e+3, 2.0603748e+2, -1105748.9, -1191903.1, -20344.453, 0.06500462, 0.27918705, -1101186.4, -180332.16, 0.0, 9.999558, 9.998396 
1.9050592e+3, 2.160349e+2, -691512.0, -909652.9, 5820.635, 0.11736747, 0.15210052, -691356.8, 131523.73, 0.0, 10.001594, 9.998678 
1.9050501e+3, 2.2603412e+2, -488495.94, -619825.7, -939.2823, 0.12429185, 0.13848512, -488489.22, 236397.08, 0.0, 10.001692, 9.999959 
1.9050407e+3, 2.3603466e+2, -559862.2, -601126.75, -43055.56, 0.09078611, 0.1671018, -532750.6, 94126.37, 0.0, 10.000523, 9.999971 
1.9050333e+3, 2.4603437e+2, -517657.28, -627759.06, -22004.98, 0.16628999, 0.19187276, -513422.25, 15455.013, 0.0, 10.0005665, 9.999089 
1.905027e+3, 2.5603336e+2, -282835.8, -474376.6, -65039.61, 0.30731684, 0.14943577, -262838.7, 168046.81, 0.0, 10.001557, 9.998987 
1.9050182e+3, 2.660312e+2, -328401.84, -699188.44, -28374.783, 0.2295412, 0.1641942, -326243.0, 6666.1216, 0.000000016068412, 10.00165, 9.9967375 
1.9050075e+3, 2.7602848e+2, -258889.81, -563364.25, 34249.42, -0.030904332, 0.18344043, -255084.75, -20143.21, 0.000006012962, 10.001223, 9.997203 
1.9049987e+3, 2.8602672e+2, 10068.466, -82377.414, 7023.1606, -0.06588583, 0.1384975, 10598.975, 147556.33, 0.000076659555, 10.001099, 9.999901 
1.9049914e+3, 2.9602545e+2, 129842.41, 13036.03, -77477.234, 0.12805209, -0.015644828, 168463.2, 207425.94, 0.00034009657, 10.001313, 9.999768 
1.9049835e+3, 3.0602548e+2, 99349.72, -196034.94, -13652.906, 0.16287367, 0.12763669, 99979.42, 99979.42, 0.00087139563, 10.001727, 9.997808 
1.9049753e+3, 3.1602725e+2, 221445.88, -56756.145, -6291.2603, 0.14589216, 0.47907525, 221588.08, 221588.08, 0.0016054219, 10.00218, 9.998547 
1.9151323e+3, 1.2604453e+2, -1667497.1, -1548391.1, 68394.81, -0.072138965, 0.24069251, -1517255.6, 187524.03, 0.18042894, 9.999603, 10.001535 
1.9151263e+3, 1.3604137e+2, -1677950.8, -1594982.0, -22878.59, 0.21038476, -0.21671048, -1589091.5, 17717.27, 0.12358676, 9.999354, 10.000445 
1.9151142e+3, 1.4604747e+2, -1678209.5, -1588562.6, 10114.214, -0.1757551, 0.39990327, -1587435.6, -78687.086, 0.069141634, 9.998858, 10.000055 
1.9151099e+3, 1.5604576e+2, -1599966.4, -1429258.1, 29611.324, 0.09111802, 0.13471453, -1424267.6, -13501.922, 0.028615344, 9.998422, 10.000683 
1.9151029e+3, 1.6604483e+2, -1570870.9, -1580882.5, -23845.38, 0.15480462, 0.07703605, -1551511.6, -238733.61, 0.0073205116, 9.998867, 9.998759 
1.9150932e+3, 1.7604515e+2, -1281606.9, -1357037.8, -40524.945, 0.001963543, 0.2060319, -1263962.3, -49182.47, 0.00070924795, 10.000059, 9.999037 
1.915084e+3, 1.8604502e+2, -1111489.8, -1075226.9, -89865.38, -0.030199952, 0.2168458, -1001682.06, 115098.266, 0.0000023137907, 9.999902, 10.000385 
1.9150756e+3, 1.9604431e+2, -1176591.4, -1057026.9, -47141.6, 0.056751035, 0.084666476, -1040676.0, -21893.629, 0.0, 9.9987955, 10.000364 
1.9150677e+3, 2.0604378e+2, -1050412.4, -1070540.6, 50360.887, 0.079553284, 0.060470697, -1009119.9, -88335.41, 0.0, 9.999521, 9.9992485 
1.9150604e+3, 2.1604353e+2, -661605.44, -821595.8, 76588.03, 0.061547313, 0.07968966, -630853.4, 191931.6, 0.0, 10.001481, 9.999336 
1.9150522e+3, 2.2604269e+2, -589533.9, -791841.75, -49644.625, 0.14512077, 0.09156562, -578008.1, 146785.5, 0.0, 10.001525, 9.998861 
1.9150434e+3, 2.3604146e+2, -656185.75, -766094.0, -69537.65, 0.30165216, 0.054028668, -622508.94, 4298.959, 0.0, 10.0003805, 9.998906 
1.9150351e+3, 2.4604106e+2, -595239.75, -757580.75, 8710.769, 0.28170243, 0.16342983, -594773.7, -65957.79, 0.0, 10.000426, 9.998268 
1.915027e+3, 2.5604126e+2, -337663.13, -556339.1, -23965.404, 0.14963415, 0.32180813, -335067.5, 95751.83, 0.0, 10.001428, 9.998485 
1.9150189e+3, 2.6604027e+2, -196159.66, -398469.13, -54967.688, 0.091283, 0.35501617, -182189.56, 150639.4, 0.000000038925435, 10.001528, 9.998867 
1.9150099e+3, 2.7603838e+2, -161169.67, -328000.25, 29800.438, 0.06511193, 0.24761455, -156006.31, 78837.375, 0.000005437274, 10.001086, 9.998885 
1.9150011e+3, 2.860369e+2, -143880.77, -370950.53, 3031.9727, 0.054236073, 0.2652387, -143840.28, -6983.047, 0.00006527873, 10.000961, 9.997986 
1.914993e+3, 2.960357e+2, -9492.792, -226277.64, -53225.65, 0.11606923, 0.30254212, 2870.269, 41739.938, 0.00029241332, 10.001107, 9.99822 
1.9149841e+3, 3.0603266e+2, 180994.75, 13910.772, -12113.054, 0.01885713, 0.12372234, 181868.34, 181868.34, 0.0007692978, 10.001539, 9.999338 
1.9149752e+3, 3.1603172e+2, 319919.63, 252817.06, 83180.35, -0.10863726, 0.0312805, 376060.38, 376060.38, 0.0014580134, 10.001753, 10.000864 
1.9251323e+3, 1.2605257e+2, -1874316.8, -1600605.3, 64534.742, 0.054686096, 0.42565536, -1586152.6, 118554.24, 0.18987963, 9.997926, 10.0019455 
1.925125e+3, 1.3604839e+2, -1581731.0, -1468635.3, -69585.57, 0.1393654, -0.23167767, -1435518.1, 171223.67, 0.13060497, 9.999613, 10.001325 
1.925115e+3, 1.4605574e+2, -1535720.8, -1566830.1, -23583.297, -0.040053133, 0.48962024, -1523024.4, -14356.907, 0.07352615, 10.000042, 9.999634 
1.9251092e+3, 1.5605257e+2, -1464046.3, -1399033.6, -52101.207, 0.12858097, 0.12029443, -1370129.9, 40568.84, 0.030745408, 9.999516, 10.000367 
1.9251019e+3, 1.6605128e+2, -1481205.9, -1481008.3, -24158.516, 0.14421791, 0.013500834, -1456948.4, -144234.77, 0.008026891, 9.999255, 9.9992485 
1.9250931e+3, 1.7605236e+2, -1334231.3, -1338763.9, 20866.305, 0.016429814, 0.16850023, -1315508.5, -100802.03, 0.0008187495, 9.9995165, 9.99942 
1.9250844e+3, 1.8605253e+2, -1086108.3, -1111516.3, -52466.74, 0.011741757, 0.21469596, -1044829.4, 71875.586, 0.0000031359323, 10.000283, 9.999953 
1.925076e+3, 1.9605157e+2, -801492.56, -907223.3, -97514.27, 0.089256726, 0.097197816, -743435.56, 275276.7, 0.0, 10.001498, 10.00009 
1.9250683e+3, 2.0605129e+2, -770473.2, -847444.7, -12877.799, 0.11679956, 0.062860034, -768375.8, 152334.94, 0.0, 10.001063, 10.000041 
1.9250613e+3, 2.160517e+2, -877446.2, -850188.1, -6501.597, 0.10284695, 0.06997953, -848716.8, -26015.686, 0.0, 9.9996805, 10.000005 
1.9250531e+3, 2.2605103e+2, -852258.6, -970902.4, -98779.07, 0.16774766, 0.094330706, -796357.25, -71648.69, 0.0, 9.999963, 9.99838 
1.925044e+3, 2.3604943e+2, -545200.25, -762781.3, -88045.17, 0.27141267, 0.07019681, -514036.03, 112693.65, 0.0, 10.001358, 9.99846 
1.9250357e+3, 2.4604867e+2, -407000.5, -680913.06, 65278.43, 0.2196803, 0.16982038, -392238.97, 136503.9, 0.0, 10.001776, 9.998145 
1.9250275e+3, 2.5604874e+2, -307293.3, -549908.3, 65718.74, 0.05409415, 0.33110368, -290635.38, 140112.84, 0.0, 10.001654, 9.99843 
1.9250199e+3, 2.66048e+2, -126003.29, -265000.13, -4479.8257, 0.060736634, 0.34418565, -125859.055, 206894.3, 0.000000047147957, 10.001589, 9.999753 
1.925012e+3, 2.7604654e+2, -33276.86, -177370.16, -31565.408, 0.15109642, 0.19046165, -26665.422, 208094.64, 0.0000043683804, 10.001592, 9.999672 
1.9250032e+3, 2.8604513e+2, -62830.645, -389005.66, 5123.192, 0.13799854, 0.20814683, -62750.195, 74022.91, 0.000052619915, 10.001796, 9.997443 
1.9249944e+3, 2.9604405e+2, 125464.83, -228379.08, 21333.926, 0.099513985, 0.31764507, 126746.445, 165533.88, 0.00024219825, 10.002316, 9.997626 
1.9249856e+3, 3.0604023e+2, 212539.61, -2708.1785, 25587.143, 0.018533139, 0.10496849, 215539.42, 215539.42, 0.0006583745, 10.001885, 9.999065 
1.924977e+3, 3.1603855e+2, 199612.47, 205154.45, -38679.49, -0.043845348, -0.029280415, 241162.08, 241162.08, 0.001285051, 10.0008335, 10.001003 
1.9351318e+3, 1.260573e+2, -2065928.4, -2000552.6, 20411.781, 0.18028173, 0.39715952, -1994703.0, -290041.6, 0.1997211, 9.998025, 9.99898 
1.9351241e+3, 1.3605656e+2, -1484419.1, -1261025.5, -17612.588, 0.07048032, -0.040414196, -1259645.4, 347020.84, 0.13795441, 9.999572, 10.003008 
1.9351171e+3, 1.4606413e+2, -1567467.3, -1633553.6, -45807.434, 0.1394602, 0.6217383, -1544028.9, -35437.953, 0.07814733, 10.000045, 9.999173 
1.9351089e+3, 1.5605941e+2, -1509236.6, -1496823.9, -61807.08, 0.13792801, 0.18040551, -1440912.4, -30275.72, 0.033007, 9.999529, 9.999685 
1.9351004e+3, 1.6605787e+2, -1368727.6, -1258196.4, -23680.44, 0.06730989, -0.001721407, -1253336.6, 59313.484, 0.008786739, 9.999296, 10.000765 
1.9350928e+3, 1.7605999e+2, -1251901.9, -1167531.9, 39775.617, 0.009432397, 0.1124885, -1151737.0, 62889.848, 0.00094156526, 9.999509, 10.000606 
1.9350849e+3, 1.8606101e+2, -1184468.9, -1316276.9, -11651.33, 0.005852195, 0.2687759, -1183446.9, -66826.945, 0.0000044945964, 10.000286, 9.998544 
1.935077e+3, 1.9606069e+2, -893550.4, -1083568.9, -54092.094, 0.030722855, 0.35187444, -879231.2, 139398.53, 0.0, 10.001437, 9.998907 
1.9350693e+3, 2.0605996e+2, -725707.56, -744332.8, -73337.07, 0.08797102, 0.28824925, -661094.2, 259539.11, 0.0, 10.001012, 10.000778 
1.935062e+3, 2.1605933e+2, -848251.44, -765899.06, -41911.83, 0.17546035, 0.12007973, -748320.9, 74308.766, 0.0, 9.999575, 10.000639 
1.9350526e+3, 2.2605887e+2, -869212.0, -967584.06, -52743.566, 0.10505426, 0.13496645, -846279.0, -121645.484, 0.0, 9.999804, 9.998474 
1.935042e+3, 2.3605844e+2, -555503.2, -747790.0, -34214.07, -0.07299948, 0.21614617, -549596.8, 77046.89, 0.0, 10.001213, 9.998625 
1.9350342e+3, 2.460573e+2, -388756.16, -613222.2, 50414.984, -0.1102812, 0.23880203, -377952.9, 150704.6, 0.0, 10.001639, 9.998681 
1.9350283e+3, 2.5605577e+2, -295203.94, -493971.4, 68797.63, -0.048703372, 0.18883355, -273714.84, 156957.67, 0.0, 10.001527, 9.998875 
1.9350216e+3, 2.660544e+2, -177484.33, -332570.75, -14349.542, 0.048779994, 0.13673028, -176167.8, 156515.11, 0.00000001782158, 10.001429, 9.999361 
1.9350138e+3, 2.7605292e+2, -78444.53, -222627.45, -20878.127, 0.14941704, 0.018601896, -75482.18, 159209.19, 0.0000032439186, 10.001409, 9.999437 
1.9350049e+3, 2.8605154e+2, -27590.914, -295254.56, 7380.45, 0.08992316, 0.008962991, -27387.563, 109316.09, 0.000042492127, 10.001684, 9.998152 
1.9349955e+3, 2.9605037e+2, 133986.66, -176411.8, 47574.39, -0.03468814, 0.039281696, 141114.64, 179831.53, 0.00020128557, 10.002173, 9.998052 
1.934988e+3, 3.0604824e+2, 19419.984, -356344.16, -29473.713, 0.03013927, 0.10175366, 21717.756, 21717.756, 0.00056117197, 10.001679, 9.996736 
1.934979e+3, 3.160461e+2, -3270.1018, -108289.43, -16302.493, 0.0393381, 0.14024286, -797.6222, -797.6222, 0.0011168965, 10.000417, 9.999024 
1.9451323e+3, 1.2606198e+2, -1825908.0, -2067099.6, 40362.086, 0.3117069, 0.28366125, -1819332.9, -114719.516, 0.20999403, 10.000464, 9.997339 
1.9451232e+3, 1.3606371e+2, -1528297.0, -1242852.1, -40296.37, 0.056234587, 0.07873482, -1237272.5, 369324.28, 0.14565058, 9.999005, 10.003454 
1.9451167e+3, 1.4606981e+2, -1710774.6, -1648491.8, -69352.89, 0.16786575, 0.53302413, -1603609.4, -95073.33, 0.083007626, 9.998809, 9.999677 
1.9451077e+3, 1.5606622e+2, -1473083.9, -1453150.4, -22561.781, 0.071715266, 0.17452374, -1438451.9, -27882.338, 0.03539992, 9.999655, 9.999927 
1.9450995e+3, 1.660652e+2, -1291497.8, -1239141.6, -8413.099, 0.013458444, 0.04232189, -1237822.9, 74755.23, 0.009600047, 9.999893, 10.000616 
1.9450928e+3, 1.7606714e+2, -1205969.0, -1150168.9, -71534.88, 0.052472048, 0.15018976, -1101285.8, 113271.83, 0.0010784023, 9.999843, 10.000561 
1.9450854e+3, 1.8606806e+2, -1273176.0, -1310552.8, -67295.1, 0.0693008, 0.27361038, -1222022.5, -105471.52, 0.0000066792873, 9.999471, 9.998974 
1.9450772e+3, 1.960678e+2, -1217808.1, -1199086.5, 9703.228, 0.031013848, 0.32060185, -1194964.9, -176406.52, 0.0, 9.999044, 9.999264 
1.9450697e+3, 2.0606723e+2, -977324.94, -893730.06, -6209.8003, 0.10287907, 0.26927975, -893271.3, 27289.99, 0.0, 9.999411, 10.000519 
1.9450626e+3, 2.1606658e+2, -743951.56, -743707.75, -56229.926, 0.2502642, 0.13020383, -687599.6, 134960.34, 0.0, 10.0004015, 10.000396 
1.945053e+3, 2.2606608e+2, -708153.06, -884075.94, -45846.582, 0.13255364, 0.14659172, -696922.1, 27642.473, 0.0, 10.000871, 9.998535 
1.9450422e+3, 2.3606563e+2, -568680.9, -743650.56, -45848.457, -0.17022862, 0.21815531, -557394.9, 69178.875, 0.0, 10.001062, 9.998734 
1.945035e+3, 2.4606448e+2, -461778.03, -591228.3, 16164.628, -0.16056904, 0.20759341, -459790.06, 68795.414, 0.0, 10.000907, 9.999184 
1.9450302e+3, 2.560628e+2, -394709.4, -497613.88, 13135.144, 0.042457208, 0.0948372, -393059.25, 37540.082, 0.0, 10.000642, 9.999282 
1.9450234e+3, 2.6606172e+2, -305240.3, -409113.22, -35949.945, 0.1328288, 0.063650504, -294011.97, 38595.09, 0.000000002142629, 10.000603, 9.999236 
1.9450146e+3, 2.760611e+2, -175334.33, -293034.63, -44284.086, 0.13179728, 0.04441052, -160533.81, 74076.38, 0.0000029419668, 10.000798, 9.999272 
1.9450057e+3, 2.8605968e+2, -130378.95, -324569.1, -5358.947, 0.04606498, 0.033117775, -130231.18, 6392.63, 0.000037529444, 10.000891, 9.998338 
1.9449966e+3, 2.9605812e+2, -18262.664, -224956.02, -36653.168, -0.08183392, 0.001034625, -11955.384, 26685.838, 0.00017698373, 10.001009, 9.998282 
1.9449905e+3, 3.0605638e+2, 31286.396, -375389.38, -16057.866, 0.112422295, 0.10397069, 31919.467, 31919.467, 0.00049046375, 10.001885, 9.996492 
1.9449809e+3, 3.1605437e+2, 397748.94, 31207.234, 91799.52, 0.052412186, 0.20564994, 419454.56, 419454.56, 0.000970849, 10.003374, 9.9985695 
1.9551323e+3, 1.2606704e+2, -1803361.4, -2065400.6, -79117.72, 0.20840496, 0.118934765, -1781326.3, -76767.7, 0.22070916, 10.000617, 9.9972925 
1.9551224e+3, 1.3607001e+2, -1571361.9, -1346093.5, -67888.2, 0.041436978, 0.14181356, -1327216.1, 279315.34, 0.15369554, 9.999047, 10.00263 
1.9551137e+3, 1.4607264e+2, -1600621.6, -1440454.5, -45354.58, -0.051041286, 0.20869814, -1428503.3, 80001.375, 0.08810495, 9.998867, 10.001125 
1.9551055e+3, 1.5607287e+2, -1398359.6, -1303557.6, 11556.708, -0.14034311, 0.09692227, -1302169.3, 108329.875, 0.037922986, 9.999659, 10.000983 
1.9550985e+3, 1.6607328e+2, -1401396.6, -1480151.8, -16506.47, -0.10953567, 0.15181424, -1398077.0, -85579.266, 0.010466628, 9.999946, 9.998932 
1.955093e+3, 1.7607379e+2, -1292156.3, -1337723.6, -69118.29, 0.07480274, 0.28120473, -1242163.4, -27664.701, 0.0012294218, 9.999869, 9.999263 
1.9550855e+3, 1.8607359e+2, -1111423.0, -982313.44, -89711.2, 0.111319505, 0.22862458, -936344.8, 180154.05, 0.000009908067, 9.999509, 10.001206 
1.9550765e+3, 1.9607295e+2, -1091660.3, -929803.7, 3942.1077, 0.026246773, 0.017764904, -929707.75, 88790.336, 0.0, 9.999014, 10.001127 
1.9550692e+3, 2.0607296e+2, -1077303.5, -1081931.5, 22941.723, 0.08384094, 0.010514647, -1056559.4, -136063.27, 0.0, 9.999329, 9.999267 
1.955063e+3, 2.1607342e+2, -838254.56, -908479.7, -14756.756, 0.25529653, 0.10343647, -835279.6, -12786.604, 0.0, 10.000277, 9.999321 
1.9550546e+3, 2.2607261e+2, -723456.0, -882714.75, -42811.266, 0.16473521, 0.13194053, -712677.2, 11825.302, 0.0, 10.000722, 9.998618 
1.9550441e+3, 2.3607107e+2, -584198.1, -739081.2, -32549.213, -0.09789148, 0.086105324, -577635.8, 48883.46, 0.0, 10.0009165, 9.998831 
1.9550374e+3, 2.4607019e+2, -459092.47, -550230.1, -1372.5619, -0.03390597, 0.08027925, -459071.78, 69455.35, 0.0, 10.0007515, 9.99954 
1.9550332e+3, 2.5606975e+2, -390598.0, -454407.94, 13564.674, 0.2515604, 0.052216016, -387834.13, 42695.082, 0.0, 10.000507, 9.999635 
1.9550252e+3, 2.6607022e+2, -317884.8, -409896.13, -37334.047, 0.23354301, 0.15518562, -304642.25, 27881.846, 0.00000003752054, 10.000481, 9.999297 
1.9550145e+3, 2.7607113e+2, -193272.81, -300653.8, -26028.432, 0.012728418, 0.28295675, -187296.33, 47219.684, 0.0000033154865, 10.000674, 9.999278 
1.9550052e+3, 2.8606972e+2, -194083.2, -413136.97, -14506.441, -0.104162574, 0.30210048, -193126.72, -56594.906, 0.00003554113, 10.000704, 9.99782 
1.9549973e+3, 2.9606736e+2, -54947.816, -253781.95, -13774.3545, -0.12232026, 0.23371664, -53998.125, -15439.288, 0.00016173386, 10.000821, 9.998167 
1.954993e+3, 3.060648e+2, 126125.03, -136677.31, 23834.799, 0.14652573, 0.1588982, 128269.23, 128269.23, 0.0004325806, 10.001688, 9.998236 
1.9549839e+3, 3.160628e+2, 415571.47, 154022.03, 116109.1, -0.030287348, 0.092547424, 459677.7, 459677.7, 0.00082958135, 10.003037, 9.999563 
1.9651334e+3, 1.2607431e+2, -1576718.9, -1809791.3, -5364.256, 0.19448443, 0.08977633, -1576595.4, 127891.16, 0.23177752, 10.001941, 9.9983835 
1.9651215e+3, 1.3607632e+2, -1670143.8, -1455941.3, -66105.9, 0.079545125, 0.075274445, -1437182.8, 169284.2, 0.1620495, 9.998714, 10.001905 
1.965111e+3, 1.4607824e+2, -1756940.1, -1502522.1, 32040.713, -0.13459548, 0.11630126, -1498549.0, 9898.032, 0.093428105, 9.997787, 10.0011635 
1.9651055e+3, 1.5607962e+2, -1417944.8, -1291583.4, -7716.7397, -0.09420535, 0.09648828, -1291113.9, 119318.15, 0.04057487, 9.999448, 10.001155 
1.9650991e+3, 1.6608024e+2, -1391838.8, -1493955.1, -34195.41, -0.040653586, 0.17245893, -1381445.6, -69015.92, 0.011385711, 10.000098, 9.998762 
1.9650923e+3, 1.7608018e+2, -1281564.8, -1342324.9, 6889.6465, 0.012576332, 0.26173228, -1280793.4, -66356.04, 0.0013940044, 9.999997, 9.9991665 
1.9650845e+3, 1.860802e+2, -1045039.56, -891027.56, -41549.086, 0.06453718, 0.20651282, -880533.56, 235901.28, 0.000014255441, 9.999693, 10.001754 
1.9650763e+3, 1.9608039e+2, -1004996.4, -838459.1, -76500.23, 0.10545705, 0.023038803, -808652.75, 209771.78, 0.0, 9.999386, 10.00158 
1.9650693e+3, 2.0608059e+2, -1029673.75, -1097228.1, -6587.0, 0.15660863, 0.0332264, -1029037.44, -108615.68, 0.0, 9.999811, 9.998933 
1.965063e+3, 2.1608075e+2, -783969.7, -911695.1, 3219.8057, 0.2097515, 0.12724552, -783888.6, 38535.887, 0.0, 10.000763, 9.999069 
1.9650553e+3, 2.2607999e+2, -667642.25, -818159.6, -9688.778, 0.16213903, 0.15146162, -667021.1, 57411.977, 0.0, 10.000948, 9.998956 
1.9650461e+3, 2.3607853e+2, -591317.9, -714766.3, 4037.8748, 0.02864659, 0.08927126, -591185.94, 35260.305, 0.0, 10.000727, 9.9991 
1.9650389e+3, 2.4607775e+2, -473989.22, -555288.1, 38959.207, 0.0683651, 0.07752032, -458334.16, 70118.23, 0.0, 10.000627, 9.999569 
1.9650333e+3, 2.560775e+2, -372804.9, -449042.63, 11803.749, 0.21451682, 0.067163214, -371019.2, 59433.484, 0.0, 10.00063, 9.999618 
1.9650254e+3, 2.660777e+2, -276926.97, -401551.78, -28270.803, 0.19534095, 0.15128863, -270813.7, 61636.816, 0.00000006167767, 10.000828, 9.999181 
1.9650157e+3, 2.76078e+2, -122889.97, -276891.0, -55338.117, 0.04388717, 0.23270307, -105067.56, 129380.914, 0.000003603985, 10.001221, 9.9991665 
1.9650069e+3, 2.8607684e+2, -102563.45, -366093.7, -12739.542, -0.022545928, 0.2802421, -101949.03, 34513.58, 0.00003406456, 10.001326, 9.997838 
1.9649994e+3, 2.960753e+2, 17853.96, -215863.81, 2258.7905, -0.017013453, 0.30409303, 17875.79, 56357.79, 0.0001486936, 10.001301, 9.998205 
1.9649945e+3, 3.0607247e+2, 150562.34, -58325.117, 45681.336, 0.13836335, 0.16117716, 160115.45, 160115.45, 0.00038063264, 10.001566, 9.998838 
1.9649841e+3, 3.1607103e+2, 239162.03, 91019.7, -84253.82, -0.22553521, 0.1089916, 277274.84, 277274.84, 0.00069817615, 10.001681, 9.999807 
1.9751354e+3, 1.2608486e+2, -1453184.0, -1533420.5, 56827.758, 0.15246236, 0.2790871, -1423740.3, 280646.2, 0.24301729, 10.001996, 10.000631 
1.9751208e+3, 1.3608241e+2, -1728473.4, -1570645.5, -177591.63, 0.114476286, -0.1433875, -1455224.1, 151180.98, 0.17062773, 9.99877, 10.001046 
1.9751087e+3, 1.4608672e+2, -1835339.6, -1684000.4, 80479.92, -0.18822289, 0.26522958, -1649203.3, -140840.64, 0.09895461, 9.997865, 9.999877 
1.9751075e+3, 1.5608639e+2, -1464192.6, -1391851.9, 55902.76, 0.13044843, 0.17158864, -1361438.4, 48930.344, 0.04335473, 9.999477, 10.000436 
1.9751012e+3, 1.6608597e+2, -1291783.8, -1293930.1, -42594.125, 0.13252585, 0.102629624, -1250249.4, 62125.67, 0.012356995, 10.00014, 10.000115 
1.9750905e+3, 1.7608619e+2, -1206233.6, -1182992.6, 8351.917, -0.19091924, 0.09009668, -1180302.6, 34072.08, 0.0015709848, 9.999991, 10.000262 
1.9750825e+3, 1.8608774e+2, -1119437.1, -1046028.7, -60011.957, -0.14490858, 0.1982329, -1012386.4, 103974.07, 0.000019593592, 9.999696, 10.00069 
1.9750766e+3, 1.9608997e+2, -1073336.9, -970561.3, -75288.84, 0.18919784, 0.32554257, -930794.75, 87544.17, 0.0, 9.999349, 10.0006895 
1.97507e+3, 2.0608999e+2, -1003640.4, -1025445.94, 25140.264, 0.2247911, 0.32768166, -987140.56, -66801.125, 0.0, 9.999738, 9.999459 
1.9750625e+3, 2.1608865e+2, -765815.3, -845155.9, 40572.297, 0.049487006, 0.22193184, -748741.94, 73611.414, 0.0, 10.000641, 9.999583 
1.9750552e+3, 2.2608812e+2, -654280.4, -754168.06, -26414.924, 0.039116096, 0.21740392, -647725.2, 76631.914, 0.0, 10.000789, 9.999472 
1.975048e+3, 2.3608801e+2, -578128.75, -659648.44, 4756.7896, 0.14908975, 0.23301241, -577852.1, 48503.04, 0.0, 10.000608, 9.999533 
1.9750398e+3, 2.4608718e+2, -521742.4, -623131.56, 32090.246, 0.068598546, 0.21796113, -512439.28, 15921.462, 0.0, 10.000486, 9.999175 
1.9750306e+3, 2.5608596e+2, -415850.78, -509615.6, 21026.23, -0.1328637, 0.14961866, -411351.63, 19018.55, 0.0, 10.000512, 9.999258 
1.9750237e+3, 2.6608405e+2, -329060.44, -469592.38, -23790.635, -0.07750153, 0.059137296, -325142.2, 7244.6143, 0.000000055759365, 10.000655, 9.998795 
1.9750181e+3, 2.7608165e+2, -164233.86, -325241.88, -32764.053, 0.15181503, -0.09260117, -157821.94, 76585.79, 0.0000036492006, 10.001072, 9.9988985 
1.9750108e+3, 2.8608117e+2, -93325.695, -315654.84, -26895.537, 0.19867398, 0.005295413, -90118.37, 46296.07, 0.00003270161, 10.001182, 9.9982605 
1.9750024e+3, 2.960819e+2, 20628.402, -178602.44, 19619.496, 0.14075984, 0.21224368, 22542.074, 60954.363, 0.00013867494, 10.001168, 9.998525 
1.9749944e+3, 3.0607927e+2, 40009.125, -212459.5, 41512.508, -0.04816074, 0.12380926, 46659.688, 46659.688, 0.0003432849, 10.001259, 9.997924 
1.9749841e+3, 3.1607908e+2, 150596.92, 713.49255, -102387.4, -0.43482664, 0.27758777, 202538.77, 202538.77, 0.0006047334, 10.001313, 9.99935 
1.9851345e+3, 1.2609361e+2, -1930927.1, -1709339.5, 180327.31, 0.07038659, 0.27428946, -1608489.3, 95808.95, 0.25424254, 9.9979725, 10.001162 
1.985122e+3, 1.3609025e+2, -1476759.1, -1542831.1, -212589.31, 0.24382941, -0.15868174, -1294654.3, 311674.72, 0.17932345, 10.001144, 10.000141 
1.9851094e+3, 1.4609554e+2, -1429481.9, -1544583.3, 91128.72, -0.03898765, 0.42438358, -1379252.6, 129025.4, 0.104643695, 10.000979, 9.999363 
1.9851066e+3, 1.5609309e+2, -1518567.1, -1446572.6, 104691.484, 0.118593864, 0.16078225, -1371862.5, 38442.355, 0.046255346, 9.999235, 10.0001745 
1.9851007e+3, 1.6609253e+2, -1434657.4, -1260923.0, 24400.117, 0.13039201, 0.036540903, -1257561.1, 54749.938, 0.013380272, 9.9987135, 10.00103 
1.9850907e+3, 1.7609428e+2, -1273485.6, -1139054.6, 32798.07, -0.11763188, 0.08785167, -1131479.5, 82813.695, 0.0017591557, 9.999189, 10.000957 
1.9850823e+3, 1.8609606e+2, -1201244.4, -1202477.8, -35379.914, -0.10409471, 0.2436522, -1166475.8, -50196.97, 0.0000256483, 9.999638, 9.999638 
1.9850758e+3, 1.9609739e+2, -1010759.4, -1042753.3, -64396.63, 0.12700735, 0.38374436, -960402.56, 57868.363, 0.0, 10.000205, 9.999782 
1.9850692e+3, 2.0609726e+2, -948822.5, -949711.56, 44592.465, 0.17337316, 0.38705078, -904672.4, 15600.954, 0.0, 9.999904, 9.999899 
1.9850625e+3, 2.1609633e+2, -958505.6, -894798.7, 42026.203, 0.068698384, 0.27933913, -873918.44, -51637.734, 0.0, 9.999137, 9.999966 
1.9850555e+3, 2.2609586e+2, -813654.44, -821461.1, -14625.757, 0.0687229, 0.25912768, -802420.1, -78136.96, 0.0, 9.999651, 9.9995575 
1.9850488e+3, 2.3609556e+2, -515051.56, -618921.94, -35337.29, 0.14095528, 0.24775408, -504169.66, 122113.664, 0.0, 10.001004, 9.999615 
1.9850405e+3, 2.4609478e+2, -448878.53, -594729.3, -27027.857, 0.069053106, 0.23755707, -444031.06, 84257.625, 0.0, 10.0010395, 9.999089 
1.985031e+3, 2.560936e+2, -452605.2, -537128.8, -28368.332, -0.11535185, 0.18181105, -443966.88, -13668.852, 0.0, 10.000307, 9.999165 
1.9850245e+3, 2.660915e+2, -336143.44, -467761.25, 3522.5564, -0.048327744, 0.07418363, -336049.22, -3733.5452, 0.00000004684117, 10.00058, 9.998845 
1.9850196e+3, 2.760889e+2, -103469.42, -305266.6, 832.1509, 0.18077317, -0.09847251, -103465.99, 130871.35, 0.000003631824, 10.001506, 9.9988365 
1.9850126e+3, 2.860879e+2, -8556.294, -333362.22, -24000.666, 0.22755557, -0.018116863, -6792.408, 129557.07, 0.000030883682, 10.002022, 9.997732 
1.9850041e+3, 2.9608765e+2, 155799.1, -163590.53, -77732.734, 0.14482938, 0.14748085, 173712.88, 212070.84, 0.00012816787, 10.002323, 9.998068 
1.9849941e+3, 3.0608588e+2, 137620.98, -96497.43, -27697.875, -0.20359387, 0.13437961, 140853.22, 140853.22, 0.00031301912, 10.001617, 9.998545 
1.984986e+3, 3.1608677e+2, 5531.5293, -43425.39, -103020.87, -0.30318457, 0.3375108, 86942.14, 86942.14, 0.0005440033, 10.000175, 9.9996 
1.9951303e+3, 1.260997e+2, -2004850.1, -1866616.3, 256757.2, -0.18116981, 0.0106746415, -1669835.9, 34394.65, 0.26535824, 9.998034, 9.999931 
1.9951244e+3, 1.3609968e+2, -1519617.9, -1646777.0, -147548.73, 0.3628602, 0.024329377, -1422533.1, 183706.95, 0.18805622, 10.001184, 9.999298 
1.9951133e+3, 1.4610456e+2, -1400899.5, -1498771.4, 17903.543, 0.23182969, 0.57652307, -1397727.3, 110467.94, 0.11045076, 10.001059, 9.999626 
1.9951029e+3, 1.560996e+2, -1504212.4, -1421516.4, 53380.816, -0.19178577, 0.05606047, -1395342.8, 14899.35, 0.04926506, 9.999253, 10.000335 
1.9950971e+3, 1.6609974e+2, -1390596.3, -1181455.9, 33580.754, -0.124223344, -0.034299973, -1176196.1, 136043.6, 0.014456319, 9.9987545, 10.001566 
1.995093e+3, 1.7610435e+2, -1244618.6, -1085003.6, 52939.133, 0.16307358, 0.24802066, -1069041.6, 145152.5, 0.0019582892, 9.999208, 10.00132 
1.9950843e+3, 1.8610503e+2, -1273066.0, -1355497.0, -19780.848, 0.10404455, 0.33588958, -1268565.0, -152373.84, 0.000032105352, 9.9996605, 9.998576 
1.9950736e+3, 1.9610259e+2, -1079066.6, -1173552.6, -42264.566, -0.13438244, 0.20678747, -1062920.4, -44699.133, 0.0, 10.000168, 9.998898 
1.995067e+3, 2.0610233e+2, -934202.94, -903443.25, 7279.0034, -0.065580904, 0.2151376, -901807.7, 18416.553, 0.0, 9.999832, 10.000253 
1.995063e+3, 2.1610367e+2, -953517.4, -862507.25, 28877.436, 0.1974937, 0.2982694, -854117.8, -31910.053, 0.0, 9.9990425, 10.000234 
1.9950563e+3, 2.2610313e+2, -856555.94, -881628.7, 34626.234, 0.1594928, 0.2789528, -832266.56, -108054.836, 0.0, 9.999522, 9.999207 
1.9950478e+3, 2.3610128e+2, -552255.06, -671041.94, 18601.309, -0.060261816, 0.14497028, -549410.4, 76819.57, 0.0, 10.00089, 9.999312 
1.9950408e+3, 2.4610044e+2, -466035.94, -590306.44, -63047.504, -0.02379825, 0.13453613, -439651.28, 88586.04, 0.0, 10.000866, 9.999205 
1.9950347e+3, 2.561003e+2, -458081.88, -519426.44, -42957.348, 0.19311573, 0.16966853, -435970.44, -5733.6973, 0.0, 10.000185, 9.999341 
1.9950277e+3, 2.661e+2, -332587.88, -424182.06, 31150.582, 0.1958701, 0.2099901, -322997.84, 9239.527, 0.000000042002604, 10.000426, 9.999219 
1.9950199e+3, 2.7609956e+2, -114616.984, -292021.2, 43412.027, 0.055236522, 0.214129, -104563.49, 129675.2, 0.0000035134383, 10.001361, 9.998993 
1.995012e+3, 2.860968e+2, -151081.66, -586657.7, -23570.377, -0.04733109, 0.20599335, -149809.9, -13540.499, 0.00002820436, 10.001839, 9.99608 
1.9950041e+3, 2.9609245e+2, 41343.844, -364926.6, -58750.516, -0.105467156, 0.111864634, 49669.117, 87989.73, 0.00011358975, 10.002164, 9.996761 
1.9949935e+3, 3.0609232e+2, 220952.36, 155097.83, -98476.12, -0.4554789, 0.22154814, 291860.3, 291860.3, 0.00027751442, 10.001296, 10.00042 
1.9949888e+3, 3.160941e+2, -3511.6116, 29734.553, -27848.355, -0.08482645, 0.30859146, 45543.83, 45543.83, 0.0004885508, 9.999816, 10.000256 
2.0051293e+3, 1.261072e+2, -1900449.4, -1833890.6, 53343.152, -0.13568237, 0.106656365, -1804297.0, -100136.414, 0.27641812, 9.9987955, 9.999735 
2.0051245e+3, 1.3610643e+2, -1647215.8, -1673976.5, -159175.5, 0.30867782, 0.03128551, -1500859.3, 105319.22, 0.1968332, 10.0000105, 9.999665 
2.0051146e+3, 1.46112e+2, -1414526.6, -1400879.3, -16921.082, 0.2669952, 0.56737906, -1389457.8, 118667.336, 0.11636926, 10.000456, 10.000668 
2.0051022e+3, 1.5610862e+2, -1414378.9, -1315122.5, 55559.883, -0.20624493, 0.11846295, -1290253.4, 119900.56, 0.05238356, 9.9995775, 10.000946 
2.0050956e+3, 1.661086e+2, -1362344.8, -1250893.5, 75503.87, -0.14497103, 0.029794889, -1212777.9, 99375.55, 0.015589432, 9.999314, 10.000816 
2.0050928e+3, 1.7611215e+2, -1195010.1, -1129608.6, -8647.276, 0.20303026, 0.2781288, -1128484.6, 85636.016, 0.0021699998, 9.999849, 10.000703 
2.005085e+3, 1.861125e+2, -1157940.4, -1260991.4, -44445.086, 0.17830454, 0.34185976, -1141420.0, -25299.682, 0.00003871999, 10.000288, 9.998919 
2.0050745e+3, 1.961102e+2, -970871.56, -1093424.9, 17213.441, -0.08205049, 0.19428949, -968499.75, 49646.83, 0.0, 10.000798, 9.99914 
2.0050673e+3, 2.0610961e+2, -851663.94, -892876.25, 47228.805, -0.035777118, 0.17439854, -820741.75, 99410.12, 0.0, 10.000524, 9.999992 
2.0050624e+3, 2.1611036e+2, -856108.1, -841398.56, 19802.773, 0.19734474, 0.2229632, -827628.9, -5487.5586, 0.0, 9.999817, 10.000008 
2.0050558e+3, 2.2611007e+2, -789103.8, -863118.0, 89430.85, 0.14358161, 0.24580237, -729325.56, -5181.4453, 0.0, 10.000054, 9.999078 
2.0050484e+3, 2.3610896e+2, -548354.1, -679319.9, 65609.45, -0.10307936, 0.2014806, -521140.66, 105016.44, 0.0, 10.000976, 9.999212 
2.005042e+3, 2.4610813e+2, -390328.34, -546736.5, -47352.863, -0.0056415983, 0.19165902, -377109.38, 151056.13, 0.0, 10.001326, 9.999298 
2.0050365e+3, 2.561075e+2, -295308.78, -433293.94, -39734.277, 0.30951202, 0.17170177, -284684.84, 145485.45, 0.0, 10.001247, 9.999432 
2.0050292e+3, 2.6610783e+2, -191494.73, -336117.16, 69974.234, 0.26198453, 0.26179746, -163181.36, 168983.94, 0.000000029896977, 10.001317, 9.999385 
2.0050205e+3, 2.7610853e+2, -70904.01, -256212.66, 46518.04, -0.031067066, 0.36622512, -59882.145, 174273.72, 0.0000031274246, 10.001598, 9.99912 
2.0050131e+3, 2.861056e+2, -147281.95, -569123.56, 58244.598, -0.117718354, 0.32388029, -139387.73, -3200.1602, 0.000025154262, 10.001789, 9.99623 
2.0050062e+3, 2.9610038e+2, -19605.988, -393595.16, 111865.51, -0.08942379, 0.1382089, 11300.478, 49545.62, 0.00009776422, 10.00174, 9.99677 
2.0049958e+3, 3.0610046e+2, 213317.86, 105259.64, 11712.967, -0.35899895, 0.2947229, 214572.9, 214572.9, 0.00024033496, 10.00142, 10.000036 
2.004991e+3, 3.1609973e+2, 172378.75, 28373.541, -18249.096, 0.084878325, 0.17529312, 174655.38, 174655.38, 0.00043298, 10.001354, 9.999534 
2.0151298e+3, 1.2611559e+2, -1848392.5, -1744114.4, -193736.8, -0.005575904, 0.4988541, -1595623.4, 108469.64, 0.28771394, 9.998886, 10.000511 
2.0151217e+3, 1.3611057e+2, -1543821.8, -1470940.6, -85637.3, 0.014380787, -0.12917462, -1414313.1, 191829.7, 0.20582092, 9.999986, 10.00123 
2.0151125e+3, 1.461179e+2, -1303678.1, -1175934.1, -47202.03, -0.007823809, 0.40033993, -1160385.3, 347682.66, 0.12247417, 10.000475, 10.002427 
2.0151038e+3, 1.5611996e+2, -1338081.6, -1160872.9, 29419.97, -0.0037381619, 0.34616208, -1156116.4, 253925.17, 0.055639356, 9.999583, 10.002064 
2.0150965e+3, 1.6611911e+2, -1494478.5, -1536247.8, 86437.58, -0.027068822, 0.23262866, -1426438.3, -114386.58, 0.016791714, 9.999366, 9.998827 
2.0150903e+3, 1.7611761e+2, -1307529.5, -1358193.6, 18355.355, -0.045193847, 0.17684966, -1301578.4, -87505.39, 0.0023981123, 9.999831, 9.999141 
2.0150842e+3, 1.8611841e+2, -1037091.75, -1014922.4, -33966.094, 0.04493728, 0.25880596, -990278.0, 125788.72, 0.000045425786, 10.000302, 10.000606 
2.0150784e+3, 1.9612014e+2, -881273.8, -897429.94, 36196.55, 0.20266281, 0.35112303, -852264.9, 165782.81, 0.0, 10.000753, 10.00051 
2.01507e+3, 2.0611912e+2, -921749.8, -1018726.3, 13311.171, 0.16345173, 0.27250552, -919955.9, 100.32853, 0.0, 10.000443, 9.999165 
2.0150605e+3, 2.1611646e+2, -928122.94, -962145.44, 6209.5938, 0.010086127, 0.065720014, -927025.06, -104943.75, 0.0, 9.9997015, 9.999231 
2.0150541e+3, 2.2611655e+2, -809368.0, -874231.8, 117300.19, -0.058282603, 0.16287106, -720098.8, 3983.0728, 0.0, 9.999911, 9.999073 
2.0150499e+3, 2.3611839e+2, -558253.75, -684487.94, 103677.54, -0.05709371, 0.41284344, -499992.13, 126074.89, 0.0, 10.000893, 9.999225 
2.0150438e+3, 2.461176e+2, -409853.53, -546058.5, -53859.363, 0.026496425, 0.40314114, -391129.88, 136945.75, 0.0, 10.001159, 9.999377 
2.0150363e+3, 2.561151e+2, -313962.34, -435919.94, -33521.434, 0.16645609, 0.19000615, -305355.94, 124743.36, 0.0, 10.001108, 9.999474 
2.0150287e+3, 2.6611477e+2, -222498.58, -366409.84, 72737.33, 0.06503835, 0.22253023, -192139.34, 139961.98, 0.0000000091701935, 10.001167, 9.999251 
2.015021e+3, 2.761158e+2, -81284.16, -246831.77, 69175.2, -0.16010506, 0.36532685, -56184.367, 177905.22, 0.0000023642951, 10.001468, 9.999248 
2.0150152e+3, 2.861144e+2, -54781.727, -330512.97, 45645.457, -0.10588681, 0.3676175, -47421.88, 88681.195, 0.000021595964, 10.001598, 9.997954 
2.0150101e+3, 2.961112e+2, 45418.395, -233266.88, 116788.88, 0.10121731, 0.21596839, 87888.89, 126023.1, 0.000083873885, 10.001619, 9.9979315 
2.0150003e+3, 3.0610985e+2, -21754.443, -316466.13, -13395.888, -0.07232469, 0.33097637, -21146.797, -21146.797, 0.00020822513, 10.001158, 9.997252 
2.0149909e+3, 3.161061e+2, -34614.957, -272707.38, 131904.19, -0.08575582, 0.1711135, 24020.336, 24020.336, 0.00038286584, 10.000854, 9.997681 
2.0251308e+3, 1.2612286e+2, -1588453.1, -1620426.8, -81983.68, 0.119252756, 0.53174484, -1520912.1, 183114.66, 0.29983783, 10.000946, 10.000419 
2.0251219e+3, 1.3611916e+2, -1588979.0, -1420433.9, 29000.064, 0.08970049, -0.046156254, -1415583.6, 190475.42, 0.21537028, 9.999221, 10.002043 
2.0251106e+3, 1.4612475e+2, -1501145.5, -1320946.1, -15977.914, -0.17270325, 0.2980053, -1319540.4, 188460.5, 0.12892798, 9.99917, 10.001933 
2.0251049e+3, 1.5612765e+2, -1321134.1, -1217548.1, -108995.65, 0.12794387, 0.3888734, -1148665.6, 261304.13, 0.05909158, 10.000001, 10.001454 
2.0250976e+3, 1.6612685e+2, -1392744.1, -1471649.4, -16901.8, 0.12675196, 0.3046493, -1389276.1, -77297.06, 0.018083457, 10.000001, 9.998959 
2.0250894e+3, 1.761247e+2, -1328455.9, -1351374.9, 60164.78, -0.089466654, 0.17022435, -1278669.0, -64664.42, 0.0026487417, 9.99963, 9.999279 
2.0250835e+3, 1.8612553e+2, -1155032.3, -1029187.9, 25911.629, -0.007847595, 0.22988074, -1024061.44, 91935.17, 0.000052423693, 9.999303, 10.000988 
2.0250787e+3, 1.961279e+2, -1087595.6, -966312.0, -7623.651, 0.25502914, 0.34322992, -965834.7, 52136.008, 0.0, 9.999188, 10.000794 
2.025071e+3, 2.061273e+2, -964028.6, -1091948.3, -18607.58, 0.2168323, 0.32026687, -961376.9, -41400.207, 0.0, 10.000384, 9.998687 
2.0250611e+3, 2.161248e+2, -544964.56, -826004.7, -18993.078, -0.032020252, 0.17906389, -543686.8, 278316.38, 0.0, 10.002537, 9.998799 
2.025055e+3, 2.261243e+2, -520060.97, -716316.9, 75623.945, -0.05739263, 0.22611482, -494301.56, 229707.16, 0.0, 10.001828, 9.999226 
2.0250511e+3, 2.3612516e+2, -779335.4, -774760.56, 67786.695, 0.058852926, 0.3606562, -709222.7, -83222.63, 0.0, 9.999318, 9.999353 
2.0250447e+3, 2.4612461e+2, -670872.5, -696132.8, -31881.484, 0.08686014, 0.3806942, -649210.5, -121203.555, 0.0, 9.999478, 9.999151 
2.0250364e+3, 2.56123e+2, -283360.4, -445964.28, -51117.79, 0.039251965, 0.27930778, -268625.72, 161399.63, 0.0, 10.001426, 9.999249 
2.0250289e+3, 2.6612234e+2, -175263.55, -339156.9, 20555.992, -0.033815417, 0.2861216, -172724.69, 159306.72, 0.000000001074916, 10.001459, 9.999305 
2.0250222e+3, 2.7612236e+2, -260062.55, -317155.44, 11727.747, -0.113744736, 0.3255513, -257747.38, -23718.604, 0.0000018159459, 10.000165, 9.999393 
2.0250167e+3, 2.8612164e+2, -174491.17, -289553.97, 7698.829, -0.0354932, 0.34526995, -173978.33, -37944.758, 0.000018189116, 10.000335, 9.998848 
2.0250115e+3, 2.9612038e+2, 79039.11, -126477.93, -10907.037, 0.09194415, 0.2914272, 79616.34, 117660.68, 0.000072171526, 10.001475, 9.998723 
2.0250042e+3, 3.0611825e+2, 39045.613, -429742.13, -83341.46, 0.15813917, 0.35949585, 53421.29, 53421.29, 0.00017992141, 10.00213, 9.996035 
2.0249924e+3, 3.1611395e+2, 165936.0, -145568.45, 136220.55, -0.06338108, 0.27341017, 217101.13, 217101.13, 0.00033497292, 10.002067, 9.997978 
2.0351319e+3, 1.2612894e+2, -1647541.1, -1767182.6, -91285.61, 0.060040683, 0.18108362, -1598221.8, 105741.35, 0.3135409, 10.001034, 9.999205 
2.035125e+3, 1.3613197e+2, -1582228.3, -1419115.0, 1729.5542, 0.4433923, 0.27128032, -1419096.8, 186832.27, 0.22593072, 9.99927, 10.002054 
2.0351084e+3, 1.4613241e+2, -1672171.9, -1678356.9, 5006.6304, -0.343912, 0.24651533, -1669379.6, -161453.73, 0.13594478, 9.999288, 9.999235 
2.0351051e+3, 1.5613164e+2, -1471309.5, -1531871.9, -85044.625, 0.12546152, 0.24881996, -1411315.9, -1377.6805, 0.06282382, 10.000017, 9.999204 
2.035099e+3, 1.6613191e+2, -1234247.5, -1155610.9, -38871.035, 0.22855298, 0.25168577, -1139640.0, 172294.53, 0.019494196, 10.000051, 10.001127 
2.0350902e+3, 1.7613338e+2, -1196125.9, -1082435.5, 53070.85, -0.0065200035, 0.257059, -1061512.5, 152403.38, 0.0029308582, 9.999643, 10.001122 
2.0350824e+3, 1.861338e+2, -1213060.4, -1157342.9, 17892.885, -0.07211215, 0.24502634, -1152091.8, -36180.953, 0.00006041413, 9.999339, 10.000092 
2.0350759e+3, 1.9613342e+2, -1147780.3, -1083131.1, 4027.9753, 0.017457653, 0.17398721, -1082881.1, -64965.14, 0.0, 9.999159, 10.000008 
2.0350698e+3, 2.0613405e+2, -978186.0, -1112055.9, 55866.33, 0.030583728, 0.3138288, -957935.3, -38020.977, 0.0, 10.000344, 9.998568 
2.0350641e+3, 2.1613532e+2, -563480.56, -841208.25, 49900.426, -0.0022255806, 0.5611477, -554786.94, 267121.1, 0.0, 10.002433, 9.998748 
2.035058e+3, 2.2613335e+2, -524325.6, -680534.56, -23906.96, 0.051121797, 0.4422167, -520748.72, 203176.06, 0.0, 10.001645, 9.999557 
2.0350517e+3, 2.361292e+2, -785456.9, -757970.5, 2107.1633, 0.17961632, 0.04789379, -757809.9, -131853.05, 0.0, 9.999198, 9.999524 
2.0350443e+3, 2.4612887e+2, -732093.3, -787866.44, 37086.94, 0.08648483, 0.11606353, -713578.4, -185616.4, 0.0, 9.999325, 9.998597 
2.0350361e+3, 2.5613102e+2, -327329.6, -518933.53, 17568.188, -0.14137276, 0.44078252, -325732.06, 104217.69, 0.0, 10.001338, 9.998796 
2.0350295e+3, 2.661304e+2, -192443.14, -330322.2, -33647.156, -0.14423883, 0.46166244, -184670.3, 147286.3, 0.000000023664393, 10.001282, 9.999445 
2.0350239e+3, 2.761279e+2, -273041.1, -312389.28, -16454.146, 0.022787407, 0.23351032, -267067.38, -33091.195, 0.0000019634658, 10.0000305, 9.999491 
2.0350176e+3, 2.8612715e+2, -201481.14, -296376.38, 39565.457, -0.0023995615, 0.24164177, -187149.3, -51167.27, 0.000016146072, 10.000132, 9.998897 
2.0350103e+3, 2.9612768e+2, 79318.57, -96662.18, 44799.65, -0.18909444, 0.36381993, 90066.81, 128043.46, 0.00006227005, 10.001335, 9.999003 
2.0350064e+3, 3.0612552e+2, -14603.882, -437001.03, -91634.83, 0.15724693, 0.3938285, 4418.699, 4418.699, 0.0001542965, 10.0017185, 9.9961605 
2.0349964e+3, 3.161206e+2, 278895.0, 186209.73, 132720.22, 0.09577957, 0.22625911, 373130.78, 373130.78, 0.0002896245, 10.001679, 10.000429 
2.0451319e+3, 1.2613688e+2, -1718413.0, -1820140.9, 30313.092, 0.016776023, 0.038266413, -1710065.3, -6182.0024, 0.3294151, 10.000343, 9.999102 
2.0451267e+3, 1.3614161e+2, -1428749.3, -1442813.0, -93933.016, 0.59848756, 0.4048961, -1341585.3, 264249.2, 0.23787552, 10.001185, 10.000955 
2.045108e+3, 1.4613995e+2, -1538010.9, -1662606.6, -33968.773, -0.37699166, 0.2510094, -1529351.8, -21499.072, 0.14372098, 10.000417, 9.9988 
2.045105e+3, 1.5613832e+2, -1490931.3, -1570898.3, 43768.56, 0.108315066, 0.20067571, -1471632.8, -61759.586, 0.06692591, 10.000007, 9.998943 
2.0450993e+3, 1.6613877e+2, -1247223.0, -1139165.1, 73831.31, 0.26575097, 0.21768896, -1101705.3, 210161.64, 0.021061258, 9.9998665, 10.0013275 
2.0450903e+3, 1.7614059e+2, -1159950.0, -1049966.9, 4775.1655, 0.043677203, 0.2390267, -1049759.9, 164083.14, 0.003256253, 9.999833, 10.00125 
2.0450823e+3, 1.8614087e+2, -1119090.3, -1160164.3, -39186.344, -0.061776597, 0.23075536, -1095385.4, 20454.596, 0.00007088071, 10.000198, 9.999659 
2.0450751e+3, 1.9614013e+2, -912471.4, -1009891.7, -28925.445, -0.044062227, 0.16652802, -904530.3, 113320.49, 0.0, 10.000957, 9.999641 
2.04507e+3, 2.0614061e+2, -873475.25, -1045005.0, 80784.92, -0.006277777, 0.30140564, -841419.0, 78432.14, 0.0, 10.000985, 9.998727 
2.0450659e+3, 2.1614197e+2, -805866.2, -931061.0, 72248.6, 0.028433714, 0.5375059, -772869.2, 48974.52, 0.0, 10.000667, 9.998976 
2.0450595e+3, 2.261404e+2, -619469.4, -706207.3, -48057.41, 0.09236878, 0.4395569, -598105.2, 125750.95, 0.0, 10.000884, 9.999752 
2.045052e+3, 2.3613675e+2, -446511.72, -576203.56, -35238.746, 0.16835949, 0.07536701, -437555.44, 188327.86, 0.0, 10.001434, 9.999694 
2.0450445e+3, 2.4613628e+2, -481615.2, -674758.8, 85791.08, 0.083324954, 0.122762404, -449011.8, 78877.33, 0.0, 10.001076, 9.998529 
2.045037e+3, 2.5613794e+2, -510522.63, -610575.8, 83397.43, -0.1183568, 0.40571716, -463298.03, -33417.5, 0.0, 10.000106, 9.998752 
2.0450304e+3, 2.661372e+2, -383606.25, -429285.63, 20557.713, -0.10371142, 0.42319146, -375716.94, -43828.914, 0.00000011200642, 9.9999895, 9.99939 
2.0450245e+3, 2.7613485e+2, -219532.2, -295649.06, 8467.932, 0.07112378, 0.21626207, -218601.53, 15305.456, 0.000002326167, 10.000444, 9.999402 
2.0450184e+3, 2.8613386e+2, -132294.28, -304834.44, 94898.97, 0.02908361, 0.22325766, -90313.27, 45602.766, 0.000014696717, 10.000773, 9.998533 
2.0450112e+3, 2.9613385e+2, -7021.4614, -163593.53, 33932.668, -0.20642771, 0.33526316, 16.176193, 37932.816, 0.00005375532, 10.000856, 9.998773 
2.0450085e+3, 3.0613193e+2, 13484.298, -355019.88, -77262.266, 0.21867965, 0.36098206, 29027.83, 29027.83, 0.00013235425, 10.001611, 9.99677 
2.0449996e+3, 3.161285e+2, 472983.06, 286509.66, 16429.75, 0.17817174, 0.29498518, 474419.56, 474419.56, 0.0002522823, 10.00295, 10.000511 
2.0551321e+3, 1.2614787e+2, -1680996.8, -1683433.9, 218089.94, -0.055041943, 0.21556632, -1464122.0, 239653.39, 0.3476065, 10.000411, 10.000436 
2.055127e+3, 1.361483e+2, -1551472.0, -1716227.4, -108371.18, 0.47043446, 0.3659359, -1497723.3, 108050.016, 0.2513395, 10.00122, 9.998762 
2.0551087e+3, 1.4614736e+2, -1427121.9, -1419855.5, -57814.44, -0.38109648, 0.30732018, -1365560.3, 142221.22, 0.15236652, 10.000423, 10.000572 
2.0551041e+3, 1.561477e+2, -1368853.6, -1320312.5, 37862.266, -0.009949283, 0.24448341, -1299609.6, 110165.31, 0.071473114, 10.000018, 10.000705 
2.0550984e+3, 1.6614737e+2, -1363027.3, -1396905.1, 68652.53, 0.1529877, 0.2025285, -1309254.8, 2521.8223, 0.022826005, 9.999935, 9.999508 
2.0550898e+3, 1.761463e+2, -1273934.4, -1290960.5, 10933.608, 0.00039369025, 0.12347929, -1268590.5, -54804.098, 0.0036400491, 9.999846, 9.999591 
2.0550825e+3, 1.861466e+2, -1108806.6, -1149751.1, -16833.648, -0.0696609, 0.18797895, -1102774.5, 13010.992, 0.00008593674, 10.000238, 9.999713 
2.0550767e+3, 1.9614783e+2, -906973.75, -998641.7, 1250.7517, -0.009975464, 0.3149504, -906956.7, 110820.375, 0.0, 10.000951, 9.999724 
2.0550713e+3, 2.0614688e+2, -851206.0, -989257.7, 62568.977, 0.012333685, 0.28012067, -827068.3, 92719.97, 0.0, 10.000945, 9.999126 
2.0550664e+3, 2.1614455e+2, -795554.06, -886979.4, 71132.0, -0.0050109187, 0.10589093, -756712.56, 65099.414, 0.0, 10.000564, 9.999329 
2.0550594e+3, 2.261452e+2, -637294.44, -700748.4, -32415.352, -0.030053804, 0.20506743, -623663.3, 100142.52, 0.0, 10.0007105, 9.99987 
2.0550515e+3, 2.3614766e+2, -453840.78, -560838.1, -13189.528, -0.043946546, 0.44009548, -452238.9, 173542.34, 0.0, 10.001306, 9.999862 
2.0550446e+3, 2.4614668e+2, -483415.88, -628502.0, 42304.47, -0.017122312, 0.40635842, -471981.78, 55808.16, 0.0, 10.000873, 9.9989395 
2.0550388e+3, 2.561435e+2, -509534.28, -575389.56, 60978.016, 0.035713393, 0.16892968, -473161.53, -43341.887, 0.0, 9.999973, 9.999054 
2.0550318e+3, 2.661426e+2, -426186.7, -478527.13, 30148.604, 0.0027922485, 0.1658423, -412434.25, -80606.195, 0.00000017468948, 9.999823, 9.999131 
2.0550239e+3, 2.7614304e+2, -257142.92, -353629.03, 36741.594, -0.05306068, 0.26548833, -244744.92, -10921.628, 0.0000023499456, 10.000348, 9.999053 
2.0550182e+3, 2.8614148e+2, -240539.75, -466155.88, 89410.18, -0.06490909, 0.28926468, -209403.94, -73565.37, 0.000012296112, 10.00052, 9.997539 
2.0550136e+3, 2.9613855e+2, -87317.09, -298624.13, 53694.34, -0.07202826, 0.18993121, -74455.85, -36588.26, 0.000044415407, 10.000723, 9.997906 
2.0550102e+3, 3.0613643e+2, 16683.406, -259548.19, -48184.16, 0.20420824, 0.19725092, 24847.092, 24847.092, 0.00011223961, 10.001257, 9.997584 
2.0550013e+3, 3.1613678e+2, 212651.7, -141661.92, -13814.862, 0.008963107, 0.4300332, 213189.53, 213189.53, 0.00022222151, 10.002471, 9.9978 
2.0651318e+3, 1.2615597e+2, -1642108.3, -1503174.8, 152149.23, -0.08754021, 0.2922439, -1405384.1, 298313.13, 0.36771804, 9.999615, 10.002445 
2.0651264e+3, 1.3615493e+2, -1717532.6, -1854333.4, -126517.36, 0.36288807, 0.31683913, -1642109.3, -36399.547, 0.26616043, 10.000088, 9.998308 
2.06511e+3, 1.4615452e+2, -1410151.8, -1401911.9, -53445.86, -0.271715, 0.33091995, -1352427.4, 155285.39, 0.1618756, 10.000515, 10.000681 
2.065105e+3, 1.5615511e+2, -1258538.4, -1246846.9, -98303.1, 0.05186682, 0.26762617, -1154215.9, 255488.22, 0.07651462, 10.000749, 10.000898 
2.0650984e+3, 1.6615483e+2, -1247189.0, -1350593.8, -39957.555, 0.13777387, 0.22489172, -1233548.1, 78157.07, 0.024829434, 10.000781, 9.999418 
2.0650893e+3, 1.7615357e+2, -1133230.1, -1236699.3, 20774.486, -0.09000377, 0.13438754, -1129214.9, 84501.85, 0.0041003036, 10.00087, 9.999469 
2.0650828e+3, 1.8615371e+2, -1033130.44, -1146399.9, 58865.035, -0.10561976, 0.20676632, -1008079.25, 107638.54, 0.000108260756, 10.000913, 9.999406 
2.0650783e+3, 1.9615494e+2, -899490.5, -1009924.8, 32464.418, 0.061982118, 0.36126056, -890654.0, 127056.98, 0.0, 10.001079, 9.999579 
2.0650728e+3, 2.0615396e+2, -822505.4, -898339.8, 79208.53, 0.06926955, 0.29120126, -772606.25, 147113.94, 0.0, 10.000814, 9.999812 
2.0650661e+3, 2.1615152e+2, -789102.0, -825972.4, 99135.81, -0.056140695, 0.042486213, -706701.8, 115038.53, 0.0, 10.000362, 9.9998455 
2.0650594e+3, 2.2615243e+2, -727676.4, -813204.4, 14524.86, -0.09253954, 0.18197459, -725277.0, -1543.5775, 0.0, 10.000387, 9.999259 
2.0650522e+3, 2.3615548e+2, -575939.0, -673153.3, -40554.414, -0.060078774, 0.53707945, -561242.8, 64466.313, 0.0, 10.000705, 9.99938 
2.0650457e+3, 2.461543e+2, -491952.34, -583869.8, -29728.959, 0.016817903, 0.47834665, -483175.2, 44543.676, 0.0, 10.000591, 9.999387 
2.0650396e+3, 2.561503e+2, -449252.03, -505635.5, -18214.928, 0.0999253, 0.110026516, -443879.53, -14127.986, 0.0, 10.000203, 9.999425 
2.0650327e+3, 2.661495e+2, -323091.16, -466973.88, 13033.171, 0.07523903, 0.12243556, -321920.13, 9837.963, 0.00000012472299, 10.000692, 9.998793 
2.0650254e+3, 2.7615076e+2, -74804.99, -298109.2, -7596.0205, -0.007753606, 0.3397634, -74546.91, 159201.11, 0.0000018192295, 10.001747, 9.998757 
2.06502e+3, 2.8614885e+2, -39011.355, -386423.22, 71897.03, -0.01844831, 0.34590623, -24720.125, 111047.46, 0.000008845643, 10.00197, 9.997394 
2.0650151e+3, 2.961446e+2, 13862.563, -271689.13, 62517.98, -0.029327039, 0.13548575, 26950.248, 64759.008, 0.000033872344, 10.001524, 9.997702 
2.065011e+3, 3.06143e+2, 63892.527, -186879.95, 19666.41, 0.14825359, 0.18144582, 65425.46, 65425.46, 0.00009224371, 10.001313, 9.998091 
2.0650037e+3, 3.1614342e+2, 49290.36, -213469.72, -32684.35, 0.07503768, 0.3745015, 53294.89, 53294.89, 0.00019318692, 10.001275, 9.997911 
2.0751294e+3, 1.2616064e+2, -1526464.8, -1290784.6, 31900.701, -0.33120874, 0.20561172, -1286543.0, 417111.5, 0.38886976, 9.999658, 10.004852 
2.0751245e+3, 1.3616137e+2, -1625937.5, -1656343.8, -89341.93, 0.15146089, 0.24590325, -1550514.4, 55131.133, 0.28190908, 10.00013, 9.999707 
2.0751123e+3, 1.4616157e+2, -1496332.6, -1606355.6, -59767.086, -0.13869046, 0.3357342, -1470113.8, 37531.9, 0.17213808, 10.0005865, 9.99912 
2.0751074e+3, 1.561605e+2, -1343364.0, -1429584.0, -86306.33, 0.211379, 0.27542558, -1289999.9, 119660.68, 0.08207624, 10.000773, 9.999561 
2.0750993e+3, 1.6616102e+2, -1129933.1, -1109461.6, -45803.28, 0.116425335, 0.28014013, -1072764.4, 238889.13, 0.027111659, 10.000795, 10.001104 
2.0750883e+3, 1.7616227e+2, -1032234.8, -1024772.0, 29226.607, -0.29718918, 0.2733303, -999039.56, 214595.03, 0.0046569863, 10.000864, 10.000933 
2.0750825e+3, 1.861622e+2, -1072236.8, -1241482.0, 60328.945, -0.24772203, 0.29199192, -1052933.6, 62704.027, 0.00014131474, 10.000969, 9.998727 
2.0750801e+3, 1.961613e+2, -939500.6, -1088126.5, 42079.62, 0.11201861, 0.30456316, -928413.9, 89240.1, 0.0000000002137382, 10.001055, 9.999056 
2.075074e+3, 2.0616162e+2, -763240.56, -762387.44, 54969.734, 0.07973504, 0.33281338, -707842.6, 211806.45, 0.0, 10.000754, 10.000773 
2.0750654e+3, 2.1616262e+2, -757177.1, -734759.8, 92864.21, -0.1976585, 0.33300012, -652430.25, 169201.19, 0.0, 10.000251, 10.0005245 
2.0750591e+3, 2.2616197e+2, -849311.4, -1022481.94, 24267.547, -0.17430225, 0.3600142, -845974.9, -122334.2, 0.0, 10.000214, 9.997897 
2.0750542e+3, 2.361602e+2, -676457.94, -852792.1, -21365.72, 0.051425107, 0.36701944, -673906.06, -48238.625, 0.0, 10.000587, 9.9982 
2.075047e+3, 2.4615896e+2, -482287.28, -526252.06, -49051.098, 0.08560599, 0.32958648, -450518.06, 77159.875, 0.0, 10.000437, 9.999853 
2.0750389e+3, 2.5615805e+2, -438952.53, -457539.13, -18841.393, -0.0013017394, 0.22449937, -427237.2, 2440.7886, 0.0, 10.000093, 9.999804 
2.0750329e+3, 2.6615775e+2, -385221.38, -550185.75, 44127.58, 0.01836855, 0.29481333, -374159.16, -42479.367, 0.000000021824269, 10.000503, 9.998311 
2.0750286e+3, 2.7615774e+2, -117344.14, -354373.06, 37029.902, 0.12572357, 0.42875338, -111693.82, 121990.055, 0.00000084431264, 10.0016165, 9.998433 
2.0750228e+3, 2.861554e+2, -29945.002, -312965.72, 42701.188, 0.043103702, 0.3716274, -23642.732, 112064.96, 0.000005133315, 10.001743, 9.998003 
2.0750153e+3, 2.9615164e+2, 21717.803, -232472.6, 58443.695, -0.18317214, 0.1547707, 34511.33, 72254.734, 0.000023723636, 10.00141, 9.99803 
2.07501e+3, 3.061513e+2, -7026.219, -212462.13, -85.84943, -0.092586264, 0.32154843, -7026.1836, -7026.1836, 0.00007269625, 10.000842, 9.998118 
2.0750053e+3, 3.1615058e+2, 135517.34, 117616.03, 76399.52, 0.08688014, 0.34282455, 203488.73, 203488.73, 0.00016039563, 10.000699, 10.000431 
2.0851307e+3, 1.2616989e+2, -1576273.0, -1315609.6, 74009.44, -0.13959998, 0.2178593, -1296062.3, 407501.34, 0.40993002, 9.999079, 10.005004 
2.085124e+3, 1.3616987e+2, -1717684.8, -1745733.1, 39530.51, 0.11772854, 0.22036107, -1689764.5, -84200.766, 0.29801235, 9.999627, 9.999269 
2.0851125e+3, 1.4617099e+2, -1558551.0, -1637612.3, 58139.125, -0.122653596, 0.42035747, -1527776.4, -20220.957, 0.18298064, 10.000134, 9.999103 
2.0851079e+3, 1.5616915e+2, -1504585.3, -1522926.1, 123329.05, 0.24585873, 0.29032767, -1390086.1, 19492.178, 0.088167645, 9.999688, 9.9994335 
2.0850997e+3, 1.6616938e+2, -1309037.6, -1222444.5, 158236.58, 0.14436778, 0.29084745, -1101688.0, 209886.66, 0.029713616, 9.999666, 10.000863 
2.0850891e+3, 1.7617096e+2, -1140020.8, -1099726.0, 79651.484, -0.26451898, 0.3384372, -1037713.3, 175840.2, 0.005333032, 10.0002165, 10.00073 
2.0850833e+3, 1.8617077e+2, -1157458.0, -1295266.8, 84067.07, -0.23121963, 0.36085287, -1117665.1, -2107.3188, 0.00018960002, 10.000434, 9.99862 
2.0850803e+3, 1.9616939e+2, -1006195.9, -1131774.9, 94148.805, 0.0627281, 0.33516106, -955819.5, 61759.402, 0.000000020895914, 10.000639, 9.9989605 
2.0850742e+3, 2.0616983e+2, -817632.1, -773864.4, 75298.97, 0.056018565, 0.3738376, -717333.7, 202238.48, 0.0, 10.0003395, 10.000891 
2.085066e+3, 2.1617138e+2, -809732.06, -745923.8, 41018.668, -0.1386432, 0.4182821, -725862.5, 95685.51, 0.0, 9.999843, 10.000639 
2.0850599e+3, 2.2617017e+2, -829290.25, -1015184.1, 62844.813, -0.12367254, 0.38473803, -810038.25, -86477.484, 0.0, 10.000334, 9.997908 
2.085055e+3, 2.3616713e+2, -548302.0, -795116.8, 104219.266, 0.021050489, 0.26365805, -510182.22, 115415.49, 0.0, 10.001463, 9.998188 
2.0850478e+3, 2.4616599e+2, -287427.47, -485908.8, 62627.297, 0.041613203, 0.26035786, -269318.72, 258289.31, 0.0, 10.002005, 9.999376 
2.0850398e+3, 2.5616595e+2, -162860.02, -377346.94, 8610.82, -0.02725749, 0.2955538, -162514.88, 267087.2, 0.0, 10.002212, 9.99934 
2.0850343e+3, 2.6616517e+2, -238410.19, -492647.44, 73795.32, 0.04669512, 0.34640923, -218542.78, 113065.945, 0.0, 10.001574, 9.998187 
2.0850305e+3, 2.7616382e+2, -299449.94, -456593.97, 72349.836, 0.20248553, 0.36105904, -271213.44, -37589.04, 0.000000115745564, 10.000433, 9.998298 
2.0850244e+3, 2.8616175e+2, -162727.23, -379424.44, 92552.17, 0.091896646, 0.3373328, -128579.086, 7067.268, 0.0000020138657, 10.000826, 9.997992 
2.0850167e+3, 2.961593e+2, 122636.36, -177826.48, 33208.99, -0.21857023, 0.25797904, 126263.05, 163933.97, 0.000014504671, 10.002089, 9.9980755 
2.0850118e+3, 3.0615863e+2, 218859.98, -105651.7, -27733.955, -0.08627027, 0.3822801, 221213.17, 221213.17, 0.000053401804, 10.00236, 9.9981365 
2.0850061e+3, 3.1615776e+2, 335030.34, 238560.94, -12913.156, 0.04876531, 0.39900908, 336728.97, 336728.97, 0.00012544217, 10.001894, 10.000708 
2.0951343e+3, 1.2618387e+2, -1659218.1, -1503867.6, -95627.91, 0.24483061, 0.35384354, -1458343.3, 245080.23, 0.42994058, 9.999157, 10.002873 
2.0951246e+3, 1.3618034e+2, -1869842.0, -2057639.9, 86179.56, 0.16538352, 0.23994808, -1836289.3, -230824.92, 0.31401625, 9.999629, 9.997123 
2.095111e+3, 1.4618269e+2, -1461348.0, -1447160.4, 31301.621, -0.33607695, 0.5891966, -1422158.8, 85284.16, 0.19429262, 10.0002, 10.000489 
2.0951062e+3, 1.5618084e+2, -1421684.1, -1369109.8, 108557.16, 0.07543202, 0.31405297, -1283702.4, 125757.09, 0.094824284, 9.99976, 10.000509 
2.0950995e+3, 1.6617976e+2, -1442623.0, -1526832.9, 173383.83, 0.12307221, 0.25518575, -1306304.9, 5165.494, 0.032688897, 9.999776, 9.998695 
2.0950915e+3, 1.761796e+2, -1265061.9, -1367363.0, 102538.13, -0.0652606, 0.34085935, -1201624.3, 11849.357, 0.0061590113, 10.000248, 9.998874 
2.0950848e+3, 1.8617944e+2, -1119785.4, -1225971.3, 84099.34, -0.148969, 0.42517018, -1073422.0, 42056.67, 0.00026052183, 10.00047, 9.999078 
2.0950791e+3, 1.9617915e+2, -986346.2, -1085819.0, 104748.64, -0.15494034, 0.46169263, -920125.75, 97360.66, 0.00000016154512, 10.000618, 9.999286 
2.0950733e+3, 2.061785e+2, -881565.0, -892896.75, 48056.53, -0.07897917, 0.4208606, -838841.5, 80648.734, 0.0, 10.000281, 10.000098 
2.0950678e+3, 2.1617767e+2, -862577.56, -832808.06, 35552.07, 0.054628436, 0.30437535, -809150.56, 12340.603, 0.0, 9.999746, 10.000085 
2.0950612e+3, 2.2617689e+2, -753179.6, -821252.25, 99824.7, -0.02334854, 0.2602238, -681748.2, 41746.957, 0.0, 10.00018, 9.999312 
2.095054e+3, 2.3617618e+2, -495138.16, -648060.4, 151178.67, -0.22523189, 0.23134583, -402184.7, 223316.34, 0.0, 10.001309, 9.99927 
2.0950475e+3, 2.4617518e+2, -417431.03, -707513.44, 64475.094, -0.21217456, 0.27605638, -403746.1, 123764.93, 0.0, 10.001797, 9.997954 
2.0950417e+3, 2.5617388e+2, -267708.72, -570689.0, 19053.166, -0.049019832, 0.3269335, -266515.25, 163009.61, 0.0, 10.002105, 9.998065 
2.095036e+3, 2.6617163e+2, -253581.81, -483926.25, 22627.277, 0.05334045, 0.27631897, -251380.13, 80166.12, 0.0, 10.00141, 9.998322 
2.0950302e+3, 2.7616876e+2, -316556.97, -463988.78, 50771.813, 0.13522547, 0.12694554, -300764.13, -67191.94, 0.0, 10.000316, 9.9983015 
2.0950249e+3, 2.8616765e+2, -256467.6, -500299.1, 130755.484, 0.020678166, 0.24172546, -199608.48, -64023.06, 0.00000039293647, 10.000519, 9.997307 
2.095019e+3, 2.961676e+2, 68465.76, -243481.58, 90130.28, -0.21420449, 0.45767564, 92634.41, 130225.75, 0.000007667558, 10.001892, 9.997719 
2.0950149e+3, 3.0616364e+2, 130278.99, -160980.72, -57498.523, -0.035424545, 0.26631725, 141219.03, 141219.03, 0.000037309004, 10.001856, 9.997978 
2.0950066e+3, 3.1616285e+2, 135635.05, -10740.109, 32116.756, -0.1597658, 0.34492487, 142371.86, 142371.86, 0.000096027696, 10.001265, 9.999266 
2.1051323e+3, 1.2619498e+2, -1801984.6, -1659127.0, -193896.06, 0.1668758, 0.36603537, -1523921.5, 179390.86, 0.44859928, 9.998876, 10.001593 
2.1051244e+3, 1.3618983e+2, -1849279.8, -2044691.5, 174617.02, 0.2095721, 0.06828928, -1746891.8, -141523.75, 0.3298663, 9.99974, 9.997175 
2.1051121e+3, 1.4619395e+2, -1542705.4, -1547091.3, 95094.484, -0.22245786, 0.633096, -1449778.6, 57551.227, 0.20615475, 9.99992, 9.999878 
2.1051064e+3, 1.5619126e+2, -1386343.4, -1396635.1, 17245.367, 0.10019571, 0.31957352, -1373492.5, 35863.773, 0.10215144, 10.000216, 10.000041 
2.1051002e+3, 1.661893e+2, -1322585.3, -1509129.8, 142229.5, 0.14945918, 0.21334948, -1245772.4, 65603.96, 0.036114734, 10.000792, 9.998325 
2.1050933e+3, 1.7618912e+2, -1080382.3, -1313419.0, 186455.22, 0.023433128, 0.3319359, -977032.25, 236347.28, 0.007176738, 10.00168, 9.998554 
2.1050867e+3, 1.8618909e+2, -1024187.2, -1174626.6, 168029.98, -0.045996796, 0.441078, -915308.9, 200073.81, 0.0003661867, 10.001119, 9.999115 
2.1050799e+3, 1.9618858e+2, -1111922.4, -1152205.1, 147462.92, -0.10196275, 0.45745373, -983231.7, 34159.582, 0.00000091193453, 9.999801, 9.999218 
2.105074e+3, 2.0618734e+2, -933787.7, -1014731.56, 128649.97, -0.03497709, 0.40565974, -839393.8, 80008.95, 0.0, 10.0003, 9.999266 
2.1050692e+3, 2.1618569e+2, -583221.8, -779066.06, 100574.78, 0.10291043, 0.28782496, -540772.9, 280642.16, 0.0, 10.001989, 9.999385 
2.1050628e+3, 2.2618502e+2, -487284.06, -671504.2, 100803.26, 0.016535826, 0.27599254, -442845.4, 280572.25, 0.0, 10.001935, 9.999478 
2.105055e+3, 2.3618479e+2, -551456.5, -660665.25, 45043.156, -0.22804317, 0.27825442, -535275.8, 90140.21, 0.0, 10.00087, 9.99938 
2.1050489e+3, 2.4618353e+2, -575439.4, -805996.94, 3991.0432, -0.20846857, 0.30415115, -575370.3, -47941.957, 0.0, 10.000806, 9.997758 
2.1050437e+3, 2.561816e+2, -388240.97, -647000.7, 34786.95, -0.03308154, 0.31109214, -383645.9, 45804.094, 0.0, 10.00137, 9.997889 
2.1050379e+3, 2.661792e+2, -111870.72, -445116.0, 66495.73, 0.055399377, 0.2687876, -99092.17, 232380.9, 0.0, 10.002475, 9.998092 
2.1050318e+3, 2.7617645e+2, 182690.55, -252889.95, 49921.547, 0.082286246, 0.15694763, 188338.78, 421836.34, 0.0, 10.003851, 9.998059 
2.1050265e+3, 2.861752e+2, 107198.43, -355011.34, 140659.88, 0.017126203, 0.28199533, 146638.67, 282151.38, 0.00000006547354, 10.0031595, 9.997023 
2.1050212e+3, 2.9617465e+2, -49674.94, -332237.06, 91518.06, -0.1318523, 0.48424456, -22623.31, 14900.984, 0.000004738257, 10.001224, 9.997427 
2.1050172e+3, 3.061702e+2, 43238.637, -202965.52, -4700.3223, 0.06757405, 0.2531211, 43328.34, 43328.34, 0.00002905632, 10.001207, 9.998021 
2.105008e+3, 3.1616908e+2, 244328.95, 42918.67, 1345.1812, -0.14668174, 0.30515966, 244337.94, 244337.94, 0.00007989996, 10.001943, 9.999331 
2.115126e+3, 1.262022e+2, -1805289.5, -1689044.8, 5701.689, -0.42388126, 0.12981284, -1688765.8, 14474.1875, 0.46656317, 9.998939, 10.000752 
2.115124e+3, 1.3619837e+2, -1704075.6, -1737678.9, 173935.66, 0.15427214, -0.28596637, -1546132.0, 59142.246, 0.34608045, 9.999806, 9.999341 
2.1151157e+3, 1.4620456e+2, -1711062.9, -1932762.1, 110760.484, 0.10258242, 0.5387591, -1665210.5, -157992.23, 0.21890919, 10.000029, 9.997132 
2.1151082e+3, 1.5620032e+2, -1503568.4, -1667562.6, 34197.652, 0.22886653, 0.30938655, -1496723.0, -87453.6, 0.110347085, 10.000312, 9.998124 
2.1151008e+3, 1.6619807e+2, -1215637.6, -1297917.4, 165487.67, 0.122852385, 0.17509367, -1086252.9, 225038.69, 0.040102176, 10.000858, 9.999764 
2.1150945e+3, 1.7619948e+2, -998446.3, -1144790.3, 214757.03, -0.06255885, 0.31331816, -844737.9, 368534.13, 0.008443992, 10.00168, 9.999721 
2.1150884e+3, 1.8619947e+2, -1054483.5, -1239657.5, 109242.5, -0.015423603, 0.3974362, -1003870.4, 111401.97, 0.00052604213, 10.001131, 9.998658 
2.1150823e+3, 1.9619755e+2, -1149616.5, -1229384.3, 116000.305, 0.1463419, 0.3204672, -1066835.0, -49539.9, 0.0000034897541, 9.999799, 9.998687 
2.1150759e+3, 2.0619616e+2, -1000336.6, -1137187.6, 187337.61, 0.09217149, 0.32271686, -869319.3, 49992.11, 0.0, 10.000235, 9.998458 
2.1150696e+3, 2.161954e+2, -662169.56, -911129.6, 157428.2, -0.06255378, 0.3761936, -585953.56, 235366.47, 0.0, 10.001862, 9.998537 
2.1150637e+3, 2.2619435e+2, -593849.3, -847626.8, 56299.69, -0.096307024, 0.4234893, -581920.2, 141409.89, 0.0, 10.0017395, 9.998363 
2.1150576e+3, 2.361928e+2, -630495.75, -798195.75, 20689.762, -0.056854025, 0.4072572, -627980.9, -2636.9768, 0.0, 10.000755, 9.998492 
2.1150513e+3, 2.4619088e+2, -530205.8, -670834.06, 20100.453, -0.054499056, 0.34811464, -527389.2, -27.875217, 0.0, 10.000633, 9.998764 
2.1150449e+3, 2.561888e+2, -346209.38, -536865.1, 68073.91, -0.05297032, 0.23817652, -324398.63, 104981.53, 0.0, 10.001273, 9.998688 
2.1150395e+3, 2.661877e+2, -180774.81, -539439.06, 114974.42, -0.04836282, 0.3196394, -147083.17, 184308.31, 0.0, 10.0022745, 9.997536 
2.1150346e+3, 2.7618688e+2, 132795.34, -330765.25, 99311.91, -0.03908441, 0.45551693, 153175.64, 386576.38, 0.0, 10.003737, 9.99758 
2.1150291e+3, 2.8618392e+2, 61271.8, -394815.16, 58067.223, -0.07674898, 0.4381653, 68548.59, 203980.89, 0.00000005479561, 10.002929, 9.996855 
2.1150231e+3, 2.9617995e+2, -96574.46, -399366.78, 54758.68, -0.086361945, 0.30998972, -86975.87, -49501.426, 0.0000044706885, 10.001082, 9.997037 
2.1150184e+3, 3.0617794e+2, -36293.754, -216168.58, 16767.209, 0.011355565, 0.34529427, -34744.133, -34744.133, 0.000027145721, 10.000609, 9.99819 
2.1150109e+3, 3.16177e+2, 197639.73, 109601.55, 17166.719, -0.090778865, 0.351089, 200868.67, 200868.67, 0.00007497601, 10.001294, 10.000081 
2.1251301e+3, 1.2621303e+2, -1797664.6, -1681605.4, 50491.6, 0.09065344, 0.54797715, -1662714.0, 40423.184, 0.48543465, 9.998895, 10.000959 
2.1251245e+3, 1.3620764e+2, -1792777.3, -1688616.1, -91114.82, 0.27556974, -0.19811432, -1635747.6, -30561.809, 0.3637423, 9.998739, 10.00007 
2.1251157e+3, 1.4621274e+2, -1700441.1, -1964045.4, -52677.984, 0.0995838, 0.50019604, -1690304.0, -183163.97, 0.23315269, 10.000246, 9.996819 
2.1251091e+3, 1.5620878e+2, -1255131.1, -1557401.9, -7200.5317, 0.1929493, 0.32888067, -1254959.6, 154228.33, 0.1197026, 10.002229, 9.997973 
2.1251018e+3, 1.6620672e+2, -1145562.9, -1216989.8, 77112.06, 0.12701698, 0.19207375, -1096295.6, 214911.56, 0.044803485, 10.001141, 10.000196 
2.1250947e+3, 1.7620786e+2, -1431192.6, -1318650.5, 50638.34, -0.032346454, 0.26946488, -1299220.4, -86032.09, 0.01004214, 9.998541, 10.000032 
2.1250886e+3, 1.862077e+2, -1348131.4, -1389433.0, -4653.1943, 0.015074973, 0.32878208, -1347613.6, -232424.75, 0.0007722133, 9.999128, 9.998597 
2.125083e+3, 1.9620581e+2, -870977.1, -1110276.5, 18897.68, 0.16554241, 0.2567457, -869493.94, 147717.05, 0.000010944595, 10.001763, 9.998558 
2.1250771e+3, 2.0620447e+2, -847598.4, -1136927.0, 94396.195, 0.14211625, 0.3070676, -819524.7, 99703.94, 0.0, 10.001627, 9.997776 
2.125071e+3, 2.1620366e+2, -991638.56, -1137286.6, 56979.945, 0.00007039109, 0.42506984, -971996.06, -150754.81, 0.0, 9.999905, 9.997921 
2.1250652e+3, 2.262021e+2, -853153.2, -965554.6, 33230.453, -0.023394974, 0.44628945, -844063.94, -120807.31, 0.0, 9.999916, 9.998438 
2.125059e+3, 2.361999e+2, -588392.6, -763337.6, 75294.61, 0.00071089563, 0.35674542, -560449.7, 64825.7, 0.0, 10.000986, 9.998621 
2.125053e+3, 2.4619824e+2, -359560.84, -549171.0, 107017.086, -0.0012727424, 0.29813176, -311395.1, 215893.73, 0.0, 10.0016365, 9.999117 
2.1250468e+3, 2.5619695e+2, -213490.31, -445669.44, 92148.7, -0.02380317, 0.2353028, -181363.23, 247935.75, 0.0, 10.002062, 9.998941 
2.125042e+3, 2.6619595e+2, -182419.3, -581937.3, 152781.75, -0.04061507, 0.33854252, -130690.88, 200619.22, 0.0, 10.00246, 9.997149 
2.1250376e+3, 2.7619475e+2, -28864.713, -438756.25, 115358.336, -0.077337235, 0.47803357, 1370.9667, 234696.5, 0.0, 10.002786, 9.997287 
2.125032e+3, 2.8619173e+2, 68498.91, -369321.9, 53727.63, -0.06538054, 0.45402065, 74995.74, 210352.94, 0.000000117451826, 10.002862, 9.997081 
2.1250261e+3, 2.9618794e+2, 165538.3, -244394.94, 59688.48, 0.0077034878, 0.3259867, 174052.42, 211447.69, 0.0000050467984, 10.002767, 9.997286 
2.12502e+3, 3.061865e+2, 238193.31, -75775.914, 98991.92, 0.054443482, 0.39569604, 266798.47, 266798.47, 0.00002697455, 10.002395, 9.998337 
2.1250135e+3, 3.1618586e+2, 166050.25, 51678.598, 2606.051, 0.026984394, 0.43678308, 166109.6, 166109.6, 0.00007155191, 10.001189, 9.999775 
2.1351255e+3, 1.362175e+2, -1823643.5, -1754543.9, -94839.82, 0.49759236, 0.34940118, -1688156.8, -83053.016, 0.38411817, 9.998758, 9.999595 
2.135112e+3, 1.4621855e+2, -1547522.9, -1664511.5, 25469.926, -0.3286012, 0.53328484, -1542218.3, -35124.355, 0.24951555, 10.000322, 9.998832 
2.1351089e+3, 1.5621656e+2, -1159850.4, -1337218.9, 40702.49, -0.07269324, 0.37569642, -1150956.0, 258157.16, 0.13052814, 10.002233, 9.999553 
2.1351027e+3, 1.6621496e+2, -1179072.0, -1299580.3, -28132.8, 0.071731225, 0.2457836, -1172827.9, 138298.08, 0.050404422, 10.001199, 9.9995775 
2.1350943e+3, 1.7621413e+2, -1463485.5, -1396853.4, -19791.875, 0.038574785, 0.19055513, -1391418.0, -178288.6, 0.012084308, 9.998587, 9.999473 
2.1350874e+3, 1.8621378e+2, -1312901.9, -1333863.0, 92169.28, -0.047420017, 0.23586014, -1230619.1, -115486.98, 0.001155736, 9.999199, 9.998947 
2.1350823e+3, 1.9621335e+2, -854545.25, -1076088.3, 103219.26, -0.106469035, 0.27356118, -813908.2, 203230.55, 0.000030850606, 10.001755, 9.998801 
2.1350779e+3, 2.0621206e+2, -903614.1, -1230689.0, 19136.12, 0.01445377, 0.3521818, -902498.4, 16658.031, 0.0, 10.0015335, 9.997176 
2.1350735e+3, 2.1621023e+2, -1032290.0, -1199137.6, 11214.925, 0.22699666, 0.42854974, -1031539.56, -210358.69, 0.0, 9.999809, 9.997541 
2.1350668e+3, 2.2620825e+2, -788978.94, -790665.0, 71938.63, 0.13796963, 0.3507454, -717878.4, 5319.3306, 0.0, 9.999744, 9.999717 
2.1350591e+3, 2.3620604e+2, -531877.8, -621787.6, 120614.164, -0.12111177, 0.13419656, -448113.16, 177097.95, 0.0, 10.00088, 9.999644 
2.1350534e+3, 2.4620543e+2, -410479.97, -616243.8, 114495.09, -0.14518581, 0.15824354, -359433.94, 167779.17, 0.0, 10.001474, 9.998733 
2.1350493e+3, 2.5620583e+2, -253329.06, -504285.2, 114104.41, -0.012947792, 0.29851684, -209205.95, 220002.4, 0.0, 10.001957, 9.998588 
2.1350446e+3, 2.6620367e+2, -232272.2, -642340.6, 157707.77, -0.021961547, 0.32095566, -178635.25, 152596.52, 0.0, 10.002285, 9.996813 
2.13504e+3, 2.761997e+2, -67004.625, -490706.94, 136420.14, -0.11082987, 0.21272787, -26880.846, 206394.64, 0.00000000014169585, 10.002667, 9.996988 
2.135035e+3, 2.86198e+2, 66456.34, -305403.78, 40866.426, -0.09209805, 0.30535847, 70894.484, 206187.94, 0.000000256191, 10.002589, 9.997637 
2.1350296e+3, 2.961982e+2, 183881.13, -174365.58, 76111.62, 0.06249255, 0.50955427, 199380.89, 236671.53, 0.0000052967753, 10.002617, 9.997841 
2.1350217e+3, 3.061946e+2, 156436.27, -102926.31, 54617.063, -0.0431573, 0.33832788, 167468.38, 167468.38, 0.000025200057, 10.001847, 9.998383 
2.1350132e+3, 3.1619203e+2, -57117.26, -206450.33, 108536.88, -0.15161683, 0.18847331, -44.101974, -44.101974, 0.00006359445, 10.000384, 9.998355 
2.1451241e+3, 1.3622336e+2, -1597172.6, -1618457.0, 40422.945, 0.41663054, 0.43862838, -1566014.5, 39036.21, 0.40760165, 10.000282, 9.999862 
2.1451135e+3, 1.4622502e+2, -1535861.8, -1528820.6, 40592.56, -0.18608394, 0.59829503, -1491596.3, 15438.088, 0.26811564, 9.999851, 10.000008 
2.1451089e+3, 1.5622312e+2, -1650159.0, -1472227.8, 8905.36, -0.076334566, 0.34012794, -1471783.1, -62733.918, 0.14296411, 9.998132, 10.000531 
2.1451028e+3, 1.662224e+2, -1485542.1, -1420456.8, -50108.22, 0.06990094, 0.24224807, -1393251.1, -82198.56, 0.057087187, 9.998929, 9.999838 
2.1450944e+3, 1.7622243e+2, -1095609.0, -1196119.5, 15977.734, 0.086616166, 0.24583104, -1093130.3, 119918.56, 0.014719365, 10.001041, 9.99967 
2.1450883e+3, 1.8622188e+2, -1034397.25, -1238077.6, 173066.94, 0.016601779, 0.28333095, -935430.06, 179624.36, 0.0017550356, 10.001293, 9.998595 
2.145084e+3, 1.9622086e+2, -1027614.94, -1189772.0, 112963.15, -0.05720321, 0.30020007, -969645.3, 47422.04, 0.00008036648, 10.000708, 9.998527 
2.1450791e+3, 2.0621945e+2, -962137.06, -1211161.3, 18191.469, 0.038925532, 0.35768157, -960815.2, -41730.047, 0.000000018813253, 10.000913, 9.997615 
2.1450737e+3, 2.1621785e+2, -725534.06, -1011625.56, 77880.56, 0.19767073, 0.4098238, -705707.3, 115398.54, 0.0, 10.001733, 9.997904 
2.1450676e+3, 2.2621618e+2, -511827.38, -683375.1, 133191.89, 0.15139903, 0.360622, -439180.16, 283940.03, 0.0, 10.001761, 9.999485 
2.145061e+3, 2.362143e+2, -487137.28, -630293.8, 59931.63, -0.025424778, 0.20559984, -465360.06, 159772.56, 0.0, 10.00132, 9.999379 
2.1450554e+3, 2.462134e+2, -424709.34, -664361.1, 33312.258, -0.08811017, 0.23399983, -420165.03, 106972.96, 0.0, 10.001554, 9.998366 
2.1450505e+3, 2.562131e+2, -233878.2, -524118.22, 17528.816, -0.092990614, 0.34130055, -232823.4, 196316.38, 0.0, 10.002215, 9.998326 
2.1450469e+3, 2.6621073e+2, -145988.19, -546987.6, 103230.55, -0.0593898, 0.32275054, -120973.64, 210190.4, 0.0, 10.002632, 9.997305 
2.1450439e+3, 2.7620685e+2, 446.03226, -404066.34, 120691.51, -0.009928268, 0.17887853, 33719.047, 266923.3, 0.00000000016893417, 10.0028925, 9.997472 
2.1450384e+3, 2.862054e+2, 168897.16, -228789.64, 48921.4, -0.01806068, 0.25766012, 174826.8, 310044.4, 0.0000002738674, 10.003148, 9.997904 
2.1450312e+3, 2.9620543e+2, 302136.06, -87594.73, 30205.96, -0.048904758, 0.42531154, 304463.28, 341678.06, 0.0000047479944, 10.003306, 9.9981 
2.1450244e+3, 3.0620226e+2, 357848.34, -83100.836, -29198.225, -0.032688744, 0.30636194, 359773.34, 359773.34, 0.000021563434, 10.003481, 9.997769 
2.1450156e+3, 3.1619874e+2, 358644.9, -23612.988, -73539.28, -0.07651941, 0.13397038, 372304.38, 372304.38, 0.000054127435, 10.003289, 9.998205 
2.1551196e+3, 1.3622561e+2, -1557572.4, -1536377.5, 95783.18, -0.11093026, 0.12040093, -1450607.3, 154416.08, 0.43279883, 10.000373, 10.000753 
2.1551192e+3, 1.4623182e+2, -1500067.3, -1481375.1, -51927.086, 0.3455748, 0.6654948, -1437959.8, 69005.0, 0.28823382, 9.999967, 10.000378 
2.1551089e+3, 1.5622848e+2, -1615091.8, -1416680.8, -28917.512, 0.091603406, 0.22953674, -1412552.0, -3556.3516, 0.15688464, 9.998201, 10.000879 
2.1551013e+3, 1.6622928e+2, -1394960.6, -1259995.9, 26645.035, 0.010853454, 0.21134348, -1254926.0, 56058.703, 0.06501248, 9.999038, 10.00091 
2.1550952e+3, 1.7623262e+2, -1036335.44, -1072792.4, 80127.02, 0.0356151, 0.4349449, -972389.6, 240558.38, 0.018139776, 10.001049, 10.000523 
2.1550909e+3, 1.8623178e+2, -1105060.6, -1396598.6, 139342.0, 0.10912157, 0.4668702, -1049174.5, 65783.45, 0.0026903055, 10.001337, 9.997488 
2.1550876e+3, 1.9622825e+2, -1079040.5, -1296314.9, 102043.44, 0.22726913, 0.33485836, -1038631.0, -21633.232, 0.00019736934, 10.000709, 9.99779 
2.155081e+3, 2.0622669e+2, -871955.8, -1012931.9, 43532.727, 0.10879828, 0.3277374, -859596.6, 59418.17, 0.0000007869328, 10.000861, 9.999001 
2.1550722e+3, 2.1622634e+2, -668487.8, -874233.56, 107811.64, -0.15358837, 0.36926517, -622343.3, 198674.45, 0.0, 10.001642, 9.998892 
2.1550672e+3, 2.2622561e+2, -660017.1, -951747.94, 109869.484, -0.07919778, 0.46801057, -623268.1, 99758.77, 0.0, 10.001594, 9.997721 
2.1550646e+3, 2.3622447e+2, -611835.6, -867065.6, 55545.98, 0.21033163, 0.56024754, -600271.06, 24770.615, 0.0, 10.001222, 9.997799 
2.1550585e+3, 2.46222e+2, -480805.28, -732450.1, 53952.453, 0.06830188, 0.51744133, -469725.72, 57339.32, 0.0, 10.001356, 9.997988 
2.1550505e+3, 2.5621864e+2, -264486.13, -562891.2, 49135.406, -0.33057034, 0.35833153, -256603.69, 172490.7, 0.0, 10.00211, 9.998111 
2.1550477e+3, 2.6621678e+2, -85444.91, -377638.44, 107196.9, -0.2537014, 0.33500674, -50336.156, 280772.97, 0.0, 10.002449, 9.998554 
2.1550485e+3, 2.7621588e+2, 60947.066, -250866.33, 139176.45, 0.1465945, 0.357366, 114030.75, 347146.16, 0.0, 10.002771, 9.998586 
2.1550423e+3, 2.8621337e+2, 122234.64, -255498.11, 46991.195, 0.036063183, 0.2861096, 127992.73, 263128.78, 0.000000100631844, 10.002876, 9.997838 
2.1550313e+3, 2.9620954e+2, 249033.4, -151522.4, 55004.664, -0.41209194, 0.07686187, 256449.39, 293618.66, 0.0000031808167, 10.003105, 9.99776 
2.1550266e+3, 3.0620822e+2, 162375.42, -330269.7, -46377.504, -0.19425283, 0.2458223, 166703.36, 166703.36, 0.000016664693, 10.002847, 9.996347 
2.1550195e+3, 3.1620792e+2, 260895.33, -98873.29, -27847.416, -0.08088891, 0.4908974, 263038.06, 263038.06, 0.00004561872, 10.002754, 9.997938 
2.1651204e+3, 1.3623232e+2, -1481232.9, -1548773.4, 59056.758, -0.13895148, 0.12477982, -1446972.8, 157982.31, 0.45757636, 10.001686, 9.999897 
2.1651192e+3, 1.462374e+2, -1744069.5, -1561196.3, -57458.32, 0.45440933, 0.5874995, -1544641.6, -37733.125, 0.3088363, 9.998118, 10.000598 
2.1651086e+3, 1.562349e+2, -1442330.6, -1343029.0, -31966.367, 0.1712075, 0.22190617, -1333628.5, 75302.74, 0.17204043, 9.999398, 10.000892 
2.1651013e+3, 1.662358e+2, -1321613.3, -1284823.1, -854.3706, 0.07235719, 0.23938593, -1284803.3, 26117.94, 0.07433442, 9.999785, 10.00037 
2.1650963e+3, 1.7623846e+2, -1187560.5, -1193036.9, -77154.21, 0.07516257, 0.4480252, -1113095.9, 99797.89, 0.022589553, 10.000179, 10.000115 
2.1650921e+3, 1.862376e+2, -1205187.1, -1390258.0, -33165.375, 0.14561476, 0.46818733, -1199423.3, -84519.54, 0.00413868, 10.000424, 9.997968 
2.1650887e+3, 1.9623455e+2, -1040466.3, -1231359.8, 23452.063, 0.24004519, 0.3424816, -1037627.4, -20690.549, 0.00045452762, 10.000777, 9.998206 
2.1650818e+3, 2.0623335e+2, -839941.5, -959493.6, -9948.054, 0.10901462, 0.33340713, -839119.4, 79829.7, 0.000007502901, 10.000912, 9.999343 
2.1650733e+3, 2.162332e+2, -738926.56, -883621.9, -37115.324, -0.17871441, 0.36559433, -729961.7, 90987.63, 0.0, 10.001061, 9.999106 
2.1650688e+3, 2.2623254e+2, -732317.8, -1038997.75, -10550.438, -0.06966008, 0.48963845, -731955.25, -8996.0205, 0.0, 10.001333, 9.997241 
2.1650669e+3, 2.3623143e+2, -564571.94, -889466.2, 13186.333, 0.2749248, 0.6295007, -564037.7, 60938.78, 0.0, 10.001744, 9.997388 
2.1650612e+3, 2.4622853e+2, -426061.9, -710831.06, 85573.01, 0.18738227, 0.5657431, -402325.72, 124678.164, 0.0, 10.0017395, 9.997956 
2.1650535e+3, 2.562244e+2, -348907.88, -594423.7, 97064.2, -0.19111666, 0.33342972, -315169.88, 113869.06, 0.0, 10.001508, 9.998173 
2.1650505e+3, 2.6622283e+2, -243832.94, -421410.16, 125457.37, -0.1562646, 0.31424513, -178923.89, 152126.83, 0.0, 10.001234, 9.998831 
2.1650504e+3, 2.762227e+2, -185104.11, -339632.22, 72512.92, 0.14922982, 0.3923802, -156406.58, 76643.14, 0.0, 10.000976, 9.998829 
2.1650447e+3, 2.862204e+2, -36622.395, -329554.63, -3124.9597, 0.061356846, 0.32224408, -36589.063, 98479.79, 0.0000000029805467, 10.001757, 9.997873 
2.1650349e+3, 2.962164e+2, 242586.6, -139967.0, -19837.266, -0.35366064, 0.10209915, 243612.5, 280716.2, 0.000001345268, 10.003019, 9.99787 
2.1650301e+3, 3.0621457e+2, 217863.33, -310928.38, -53690.09, -0.13170011, 0.2066344, 223259.6, 223259.6, 0.000010778314, 10.003229, 9.996304 
2.165022e+3, 3.1621516e+2, 315379.25, -48831.793, -53642.52, -0.11655653, 0.56449515, 323115.6, 323115.6, 0.00003608632, 10.003012, 9.99816 
2.1751258e+3, 1.3624373e+2, -1631496.5, -1932354.3, -306370.78, 0.17634757, 0.46105605, -1440616.3, 164226.6, 0.48078975, 10.002143, 9.996965 
2.1751137e+3, 1.462423e+2, -1743650.1, -1586488.0, 10131.884, 0.052799776, 0.39776325, -1585837.5, -78977.16, 0.32934, 9.998246, 10.000355 
2.1751074e+3, 1.5624234e+2, -1474926.8, -1401570.5, 6705.641, 0.09784214, 0.31052154, -1400962.6, 7894.052, 0.18832743, 9.999403, 10.000398 
2.1751021e+3, 1.6624168e+2, -1451852.8, -1582608.4, 5571.759, 0.13319083, 0.31299162, -1451615.8, -140750.95, 0.0852701, 9.999905, 9.998256 
2.1750972e+3, 1.7624013e+2, -1283458.0, -1408514.9, -54343.54, 0.12222529, 0.29591507, -1263143.1, -50258.625, 0.028395085, 10.000244, 9.998593 
2.1750915e+3, 1.8623954e+2, -1071787.9, -1128140.5, -26386.703, 0.032231614, 0.30657658, -1061361.6, 53528.31, 0.006367479, 10.000488, 9.999735 
2.1750864e+3, 1.962396e+2, -939985.75, -1024181.4, 39711.52, -0.08012601, 0.31988052, -924211.06, 92674.99, 0.0009868387, 10.000782, 9.999623 
2.1750814e+3, 2.0623921e+2, -896170.75, -1065606.9, -12259.969, -0.06270157, 0.36771145, -895288.25, 23601.936, 0.000047582707, 10.000862, 9.998641 
2.1750766e+3, 2.1623835e+2, -791097.4, -966271.75, -24159.945, 0.047100335, 0.3938184, -787826.3, 33074.977, 0.00000000032497088, 10.00095, 9.998594 
2.1750718e+3, 2.2623688e+2, -711275.5, -949460.9, 1570.3807, 0.0892785, 0.4204948, -711265.1, 11652.867, 0.0, 10.001141, 9.997945 
2.175067e+3, 2.3623501e+2, -539156.06, -803187.5, 33331.26, 0.10274317, 0.4152492, -535013.3, 89925.06, 0.0, 10.001608, 9.998041 
2.175063e+3, 2.4623281e+2, -433154.34, -673556.56, 69246.4, 0.16089174, 0.3703256, -414634.97, 112321.805, 0.0, 10.001524, 9.998311 
2.1750596e+3, 2.5623026e+2, -353307.06, -569509.1, 94061.29, 0.2459237, 0.25849292, -318113.44, 110861.88, 0.0, 10.001368, 9.998408 
2.1750547e+3, 2.6622865e+2, -326647.4, -542168.94, 107346.03, 0.12555423, 0.26218084, -282304.44, 48686.65, 0.0, 10.001023, 9.998098 
2.175049e+3, 2.7622727e+2, -251015.4, -447290.47, 81369.14, -0.086278446, 0.2906888, -221669.95, 11338.03, 0.0, 10.000856, 9.998143 
2.1750452e+3, 2.8622606e+2, -75583.41, -337349.25, 38667.973, -0.091496274, 0.3645671, -69990.87, 65028.383, 0.0, 10.001462, 9.997953 
2.1750414e+3, 2.9622534e+2, 238402.81, -115851.57, 30167.943, -0.011585355, 0.44763622, 240953.52, 277977.53, 0.00000028754212, 10.002876, 9.998104 
2.1750347e+3, 3.0621994e+2, 216891.86, -190645.88, -83895.29, -0.041414283, 0.12970768, 233486.7, 233486.7, 0.0000061263827, 10.002766, 9.997325 
2.1750239e+3, 3.1622085e+2, 250428.17, -16173.237, -43623.344, -0.25794467, 0.42047206, 257384.64, 257384.64, 0.000027574106, 10.002323, 9.998706 
2.185111e+3, 1.462483e+2, -1706671.9, -1706446.8, -157199.0, -0.06733676, 0.34655333, -1549360.3, -42560.22, 0.34983045, 9.999062, 9.999136 
2.1851082e+3, 1.5624811e+2, -1401358.1, -1414996.9, -30124.705, 0.20776482, 0.3060246, -1377290.5, 31509.209, 0.2059314, 10.000145, 9.999969 
2.1851029e+3, 1.6624725e+2, -1416643.6, -1592659.5, 32498.695, 0.18527985, 0.32302013, -1410834.9, -100024.305, 0.09816949, 10.000291, 9.998002 
2.1850976e+3, 1.7624554e+2, -1229155.5, -1399256.6, 88182.16, 0.13982396, 0.3173221, -1191692.0, 21140.176, 0.036017943, 10.000749, 9.998404 
2.185092e+3, 1.8624471e+2, -1011801.06, -1111865.5, 85096.83, 0.012694659, 0.3138491, -963118.06, 151721.56, 0.009796201, 10.00094, 9.999637 
2.1850869e+3, 1.9624428e+2, -912231.3, -1028566.06, 7807.0874, -0.10888629, 0.29118234, -911709.7, 105129.66, 0.0020521113, 10.001036, 9.999468 
2.1850826e+3, 2.0624387e+2, -884523.25, -1062422.5, -59306.29, -0.025056943, 0.34834027, -866565.1, 52278.617, 0.00020967671, 10.000964, 9.998617 
2.1850786e+3, 2.1624333e+2, -792031.3, -959676.2, -38344.24, 0.14653222, 0.40850136, -783677.4, 37174.9, 0.00000086887735, 10.000911, 9.998664 
2.1850738e+3, 2.2624177e+2, -642316.25, -874174.25, 30383.71, 0.1526182, 0.40036085, -638400.75, 84468.38, 0.0, 10.001419, 9.998341 
2.1850686e+3, 2.3623951e+2, -400928.06, -688518.6, 24669.217, 0.06479131, 0.3172096, -398827.3, 226064.19, 0.0, 10.002366, 9.998462 
2.185065e+3, 2.4623786e+2, -312336.13, -591378.75, 19595.986, 0.1582467, 0.29649976, -310966.72, 215937.89, 0.0, 10.002244, 9.998533 
2.1850617e+3, 2.5623643e+2, -331099.34, -548034.2, 17546.59, 0.33781496, 0.27525026, -329689.28, 99224.445, 0.0, 10.001451, 9.9985285 
2.1850567e+3, 2.6623493e+2, -297576.44, -568758.44, 76333.31, 0.20113917, 0.30932295, -277566.34, 53363.65, 0.0, 10.0013685, 9.9977665 
2.1850501e+3, 2.762331e+2, -125377.805, -414812.88, 63306.473, -0.12323838, 0.327973, -112136.88, 120817.45, 0.0, 10.001819, 9.997918 
2.1850468e+3, 2.8623238e+2, -39113.574, -261477.5, 72700.67, -0.06466628, 0.42383152, -17454.217, 117506.79, 0.0, 10.001435, 9.998498 
2.1850452e+3, 2.9623252e+2, -56799.652, -208525.72, 72156.75, 0.17616574, 0.5549506, -27964.088, 8991.502, 0.000000027227998, 10.000623, 9.998561 
2.1850383e+3, 3.0622676e+2, 192804.64, -165756.97, -8180.4136, 0.090591475, 0.15269214, 192991.17, 192991.17, 0.0000044959556, 10.002384, 9.997714 
2.1850279e+3, 3.1622744e+2, 697999.9, 220123.08, -82268.37, -0.23964383, 0.40985146, 711766.1, 711766.1, 0.000025056477, 10.005216, 9.998986 
2.1951096e+3, 1.4625445e+2, -1829003.4, -1939201.3, -450487.16, -0.18815558, 0.4230254, -1430258.1, 76478.1, 0.371045, 9.999113, 9.997659 
2.1951106e+3, 1.5625201e+2, -1407177.4, -1443789.0, -4380.6914, 0.40738073, 0.22074553, -1406660.5, 2102.1924, 0.22535217, 10.000196, 9.999728 
2.1951027e+3, 1.662526e+2, -1304042.6, -1369742.8, 25367.227, 0.13156989, 0.300186, -1295388.3, 15369.645, 0.113554515, 10.000347, 9.999507 
2.195098e+3, 1.7625426e+2, -1168069.6, -1261792.0, 107210.77, 0.06661797, 0.49690133, -1097926.0, 114815.44, 0.046104282, 10.000731, 9.999362 
2.195093e+3, 1.8625253e+2, -1131800.4, -1368730.9, 87156.34, -0.004284055, 0.4640651, -1103193.4, 11564.852, 0.015073848, 10.000966, 9.99786 
2.19509e+3, 1.9624856e+2, -1022226.44, -1253684.6, 16253.049, 0.07603561, 0.26670218, -1021090.75, -4293.7607, 0.004138987, 10.001027, 9.997926 
2.1950851e+3, 2.062474e+2, -854704.7, -992325.8, -68126.46, 0.10754127, 0.29130217, -826684.94, 92124.08, 0.00072646124, 10.000929, 9.999113 
2.1950786e+3, 2.1624811e+2, -770236.5, -890160.44, -33061.797, 0.04352096, 0.41824484, -761725.7, 59077.645, 0.000022642807, 10.000809, 9.999186 
2.195074e+3, 2.2624707e+2, -658268.5, -866105.25, 60495.21, 0.026551835, 0.43077874, -641942.56, 80871.62, 0.000000000011542125, 10.001237, 9.998482 
2.1950713e+3, 2.3624478e+2, -407053.44, -678196.7, 60130.938, 0.08064498, 0.32700557, -394316.6, 230520.42, 0.0, 10.00226, 9.998582 
2.1950664e+3, 2.4624354e+2, -348613.1, -608694.3, -18762.398, 0.06550018, 0.3395987, -347266.53, 179582.13, 0.0, 10.002007, 9.998521 
2.1950603e+3, 2.5624278e+2, -351238.88, -560124.5, -785.06244, 0.010437553, 0.38542446, -351235.9, 77618.91, 0.0, 10.00133, 9.998499 
2.1950556e+3, 2.6624152e+2, -342860.47, -596226.2, 85661.29, -0.03928689, 0.4499444, -316617.2, 14252.633, 0.0, 10.001102, 9.997693 
2.1950528e+3, 2.7623978e+2, -144238.81, -409591.75, 83326.25, -0.056943502, 0.4764317, -120242.664, 112649.984, 0.0, 10.001645, 9.998026 
2.1950494e+3, 2.8623864e+2, -15602.996, -153182.53, 30903.111, -0.0023117664, 0.4740965, -8980.335, 125920.01, 0.0, 10.001194, 9.999352 
2.1950454e+3, 2.9623795e+2, -44235.016, -141839.7, 77944.4, 0.117286496, 0.44031686, -1075.419, 35822.934, 0.000000020729713, 10.00045, 9.999101 
2.1950406e+3, 3.062344e+2, 95140.43, -251233.27, 103095.92, 0.015600053, 0.26795653, 123503.7, 123503.7, 0.0000055230016, 10.001919, 9.997321 
2.1950337e+3, 3.1623212e+2, 485467.16, -46702.082, 143941.94, -0.21869595, 0.24093872, 521905.78, 521905.78, 0.000029811183, 10.004548, 9.997428 
2.2051106e+3, 1.4625806e+2, -1581325.1, -1755401.1, -290014.94, -0.07174591, 0.29372337, -1365569.0, 141133.25, 0.39437363, 10.0007925, 9.998192 
2.2051108e+3, 1.5625677e+2, -1471383.9, -1519167.8, -88106.9, 0.42039576, 0.26615092, -1403987.0, 4731.0356, 0.24751917, 9.999933, 9.999347 
2.2051018e+3, 1.6625726e+2, -1535111.1, -1464030.0, -61999.58, 0.102489665, 0.33975172, -1428106.8, -117394.39, 0.13222682, 9.998651, 9.999687 
2.2050986e+3, 1.7625815e+2, -1202606.6, -1303194.5, -58521.125, 0.09757277, 0.46507835, -1175737.0, 36963.57, 0.059555795, 10.000525, 9.9992 
2.205095e+3, 1.8625593e+2, -1104384.4, -1396121.0, -91456.03, 0.07924458, 0.41557664, -1078084.9, 36637.43, 0.023171267, 10.001336, 9.9974985 
2.2050919e+3, 1.96252e+2, -1043906.6, -1291916.1, -74587.984, 0.17346579, 0.25089762, -1023202.9, -6440.066, 0.008108057, 10.000991, 9.997696 
2.205087e+3, 2.0625079e+2, -796734.2, -947909.9, -97561.9, 0.17511594, 0.2724507, -748904.7, 169871.11, 0.0021629941, 10.001253, 9.999268 
2.2050801e+3, 2.1625127e+2, -551821.9, -764667.4, -104299.6, 0.041432027, 0.36396882, -509233.88, 311537.84, 0.00023583506, 10.002215, 9.9993725 
2.2050755e+3, 2.2625075e+2, -537495.2, -748587.2, -15235.995, 0.0096149305, 0.39392275, -536401.1, 186375.6, 0.0000019906881, 10.00181, 9.999014 
2.2050722e+3, 2.3624973e+2, -626636.5, -737885.2, -5383.9585, 0.049250875, 0.36336198, -626376.56, -1590.1234, 0.0, 10.000529, 9.9990225 
2.2050671e+3, 2.4624866e+2, -542794.44, -720177.25, -51176.387, 0.015610253, 0.3891863, -529088.6, -2291.0579, 0.0, 10.000737, 9.998375 
2.2050607e+3, 2.5624755e+2, -262094.52, -512136.75, -62829.406, -0.09137687, 0.41177943, -247194.89, 181614.75, 0.0, 10.0019655, 9.998499 
2.2050567e+3, 2.6624644e+2, -250260.17, -513843.66, 28662.084, -0.06642011, 0.46323574, -247179.47, 83643.625, 0.0, 10.001563, 9.998044 
2.2050545e+3, 2.7624488e+2, -328945.0, -468029.03, 48419.906, 0.04616602, 0.47792047, -313748.72, -80907.36, 0.0, 10.00023, 9.998313 
2.205051e+3, 2.8624335e+2, -75139.055, -165083.86, 15198.614, 0.08432208, 0.41227442, -72640.26, 62211.285, 0.0, 10.000727, 9.999492 
2.2050461e+3, 2.9624158e+2, 266094.03, 17219.453, -18900.258, 0.052699666, 0.2708217, 267521.2, 304380.9, 0.00000007580395, 10.002542, 9.99919 
2.2050427e+3, 3.0624026e+2, 244856.86, -205151.38, 52752.457, 0.0084589925, 0.3198077, 250958.06, 250958.06, 0.0000083740215, 10.003028, 9.997122 
2.20504e+3, 3.162374e+2, 182605.81, -203793.28, 6409.538, 0.08538529, 0.27799633, 182712.1, 182712.1, 0.000042885644, 10.002467, 9.997362 
2.2151169e+3, 1.4626093e+2, -1428187.4, -1406323.1, 177516.05, 0.42622408, 0.16092081, -1239402.9, 267277.2, 0.4221777, 10.000717, 10.001076 
2.2151086e+3, 1.562619e+2, -1523399.1, -1611761.5, -173497.7, 0.20718034, 0.42547673, -1388545.6, 20124.602, 0.27423543, 9.999894, 9.9987545 
2.2150996e+3, 1.6626091e+2, -1593440.3, -1596196.6, -35102.57, -0.024309114, 0.4370555, -1559688.8, -249011.34, 0.15564767, 9.998699, 9.998752 
2.2150998e+3, 1.7625743e+2, -1277200.8, -1459107.5, 12718.569, 0.14699197, 0.241021, -1276315.9, -63608.305, 0.07778218, 10.000518, 9.998127 
2.2150974e+3, 1.8625514e+2, -1039226.4, -1266708.8, -101036.43, 0.16759293, 0.1882191, -1000831.4, 113898.25, 0.035576556, 10.001375, 9.998377 
2.2150925e+3, 1.9625449e+2, -986229.06, -1157155.9, -80128.2, 0.119711466, 0.2503801, -954540.75, 62197.063, 0.0154146915, 10.0009365, 9.998647 
2.2150874e+3, 2.0625383e+2, -815823.9, -972273.0, -67266.87, 0.08336521, 0.28779107, -790879.06, 127866.875, 0.005714695, 10.001186, 9.999133 
2.2150825e+3, 2.1625268e+2, -575115.8, -788392.75, -69205.2, 0.059044838, 0.23778245, -554627.9, 266130.94, 0.0013616167, 10.002108, 9.999262 
2.2150771e+3, 2.262529e+2, -517281.5, -655180.4, -69385.83, -0.010864725, 0.30588555, -488412.66, 234343.25, 0.00013056793, 10.00159, 9.999762 
2.2150715e+3, 2.3625416e+2, -595787.56, -645857.6, -35336.09, -0.09659093, 0.4211935, -577516.8, 47224.453, 0.0000045921656, 10.000403, 9.999715 
2.2150669e+3, 2.462531e+2, -606953.1, -786212.0, -14441.296, -0.101974964, 0.43700412, -605797.2, -79044.414, 0.000000030624218, 10.000466, 9.998044 
2.2150634e+3, 2.562506e+2, -299331.3, -544562.8, -21620.734, -0.04868581, 0.34341955, -297439.72, 131340.9, 0.0, 10.0017805, 9.998362 
2.2150594e+3, 2.6624924e+2, -236153.22, -422257.66, -35142.027, 0.0106183635, 0.3359797, -229738.47, 101055.49, 0.0, 10.001312, 9.998787 
2.2150554e+3, 2.7624834e+2, -316875.84, -402609.34, 16993.125, 0.09793941, 0.33919182, -313630.5, -80829.7, 0.0, 10.000067, 9.998833 
2.2150515e+3, 2.8624633e+2, -183955.33, -312134.97, 71650.58, 0.037768107, 0.25178424, -151913.4, -17097.24, 0.0, 10.000408, 9.998621 
2.2150472e+3, 2.9624298e+2, 186576.42, -104360.29, 53250.94, -0.120505236, 0.028566867, 196016.77, 232860.2, 0.00000027397763, 10.002374, 9.998422 
2.2150446e+3, 3.0624393e+2, 197434.14, -215074.89, 26710.92, -0.12624215, 0.3303233, 199156.55, 199156.55, 0.000015050563, 10.002692, 9.997189 
2.2150439e+3, 3.162424e+2, 123084.52, -153562.5, -31198.865, 0.19095606, 0.3960321, 126559.33, 126559.33, 0.00007034586, 10.001784, 9.998008 
2.2251084e+3, 1.4626482e+2, -1656862.9, -1363190.1, 387004.38, -0.37677526, 0.6157927, -1096102.3, 410543.06, 0.45833316, 9.998036, 10.003555 
2.2251077e+3, 1.5626262e+2, -1608598.3, -1646256.9, -328135.22, 0.15664604, 0.41425732, -1298752.6, 109914.664, 0.30885017, 9.999363, 9.998911 
2.2251008e+3, 1.662631e+2, -1065544.6, -1280190.0, -93755.875, 0.047736783, 0.54337317, -1030360.06, 280299.06, 0.18666483, 10.002529, 9.999125 
2.2251004e+3, 1.762586e+2, -1144899.9, -1330208.4, 9333.352, 0.10942977, 0.1960462, -1144431.0, 68266.73, 0.103338934, 10.001237, 9.998659 
2.2250979e+3, 1.8625689e+2, -1201406.9, -1268133.8, -58228.027, 0.15266627, 0.13718882, -1167661.3, -52948.44, 0.054786276, 9.999882, 9.999096 
2.2250928e+3, 1.9625781e+2, -1089144.1, -1135793.6, -60567.797, 0.119030386, 0.2842797, -1047565.06, -30860.254, 0.028543482, 9.999883, 9.999305 
2.2250876e+3, 2.0625764e+2, -1011020.1, -1067177.0, -21549.824, 0.0755132, 0.33815157, -1003703.75, -84995.336, 0.013685946, 9.999852, 9.999116 
2.225083e+3, 2.1625644e+2, -957892.0, -978304.1, -35735.816, 0.03051167, 0.2884265, -930933.4, -110210.586, 0.005262215, 9.99951, 9.9992075 
2.2250779e+3, 2.2625619e+2, -735908.8, -767203.06, -60508.676, -0.007675588, 0.31605247, -689056.9, 33666.77, 0.001420654, 10.000094, 9.999722 
2.2250727e+3, 2.3625678e+2, -475452.03, -581066.6, -99579.89, -0.054513033, 0.36566073, -415543.9, 209170.22, 0.0002619265, 10.001195, 9.999785 
2.2250679e+3, 2.462559e+2, -582682.1, -732016.06, -65514.188, -0.038115922, 0.37711966, -558015.0, -31291.709, 0.000035642544, 10.000429, 9.998445 
2.225064e+3, 2.5625417e+2, -717809.1, -707963.8, -22293.5, 0.0035233279, 0.32097727, -690055.94, -261312.27, 0.0000011567587, 9.998696, 9.998749 
2.22506e+3, 2.662529e+2, -521153.63, -549931.1, -13225.019, 0.057578955, 0.3002329, -515999.16, -185243.4, 0.0, 9.999317, 9.99887 
2.2250564e+3, 2.7625176e+2, -79506.58, -279223.88, -36172.855, 0.10907502, 0.27647355, -73156.83, 159606.63, 0.0, 10.001687, 9.998896 
2.225053e+3, 2.8625003e+2, -1585.095, -280408.22, 28166.264, 0.07516468, 0.23543409, 1231.7582, 136009.58, 0.0, 10.001883, 9.998148 
2.2250493e+3, 2.9624677e+2, -48610.934, -273406.4, 17736.467, -0.05421426, 0.08643584, -47220.125, -10412.768, 0.00000073017384, 10.001006, 9.997917 
2.2250476e+3, 3.0624756e+2, 126218.234, -241551.58, 20538.822, -0.0653041, 0.37898213, 127361.7, 127361.7, 0.00002755439, 10.002136, 9.9973 
2.2250469e+3, 3.1624264e+2, 590194.7, 188037.44, -122690.39, 0.15698275, 0.12363575, 624669.75, 624669.75, 0.000118261974, 10.004423, 9.9991255 
2.2351074e+3, 1.5625961e+2, -1553056.0, -1465879.4, -159671.94, 0.16274129, 0.3263207, -1343953.1, 64749.3, 0.35698506, 9.999044, 10.000257 
2.2351058e+3, 1.6626377e+2, -1012811.1, -1131763.1, -91670.91, 0.2333699, 0.64224225, -963012.44, 347645.9, 0.23053116, 10.002453, 10.000493 
2.2351001e+3, 1.7626125e+2, -1045555.1, -1081368.8, -42232.28, -0.07547344, 0.30139068, -1017590.2, 195084.66, 0.14104874, 10.001124, 10.000571 
2.2350956e+3, 1.8626079e+2, -1167066.0, -1182625.1, -77745.57, -0.07632, 0.23898771, -1096711.8, 17963.977, 0.08532412, 9.999829, 9.999709 
2.2350928e+3, 1.9626184e+2, -1062713.1, -1069609.5, -51847.58, 0.09734123, 0.3484622, -1014199.2, 2465.81, 0.05187056, 9.999838, 9.99978 
2.2350876e+3, 2.0626236e+2, -1020926.25, -1069395.0, -37120.74, 0.04658225, 0.44807458, -1000829.44, -82167.61, 0.030293982, 9.999775, 9.999137 
2.2350813e+3, 2.1626228e+2, -976878.2, -991912.56, -38309.24, -0.114381745, 0.50613976, -945355.6, -124689.73, 0.015773455, 9.999396, 9.99917 
2.2350773e+3, 2.2626036e+2, -832327.0, -903192.2, -24129.314, -0.08418721, 0.41272283, -824891.25, -102208.414, 0.0069356123, 9.99983, 9.998906 
2.2350754e+3, 2.362574e+2, -529065.0, -666102.5, -63872.12, 0.08703443, 0.18031795, -503911.63, 120795.16, 0.002541045, 10.001081, 9.999249 
2.2350699e+3, 2.4625702e+2, -548693.5, -599613.3, -145053.25, 0.08737764, 0.20916952, -426882.72, 99827.18, 0.00075579167, 10.000175, 9.99947 
2.2350627e+3, 2.562584e+2, -674671.3, -584117.4, -64633.848, -0.0213373, 0.34423327, -550479.56, -121781.016, 0.00014769337, 9.9985485, 9.999668 
2.2350584e+3, 2.6625744e+2, -632975.44, -694422.44, 57051.438, -0.061249446, 0.36654615, -598900.8, -268192.75, 0.000007045108, 9.998966, 9.998032 
2.235057e+3, 2.76255e+2, -154334.88, -388912.3, 45794.375, -0.008768018, 0.2809355, -145711.86, 87019.11, 0.00000000065814787, 10.001502, 9.998218 
2.235055e+3, 2.86254e+2, -67037.555, -334833.7, -28387.545, 0.061953302, 0.34581387, -64061.426, 70679.33, 0.0, 10.001562, 9.997909 
2.2350524e+3, 2.9625294e+2, -130304.16, -366293.8, 10136.709, 0.12658846, 0.4369618, -129869.55, -93118.055, 0.0000012574419, 10.000706, 9.997404 
2.2350505e+3, 3.0625054e+2, 1425.1854, -351553.34, 88732.68, -0.034640286, 0.46827397, 22475.662, 22475.662, 0.000044073433, 10.001543, 9.996805 
2.2350496e+3, 3.1624183e+2, 510619.25, 233002.78, 123990.6, -0.029146187, -0.14740711, 557933.0, 557933.0, 0.00018419352, 10.003618, 9.999784 
2.2451045e+3, 1.5625823e+2, -1379644.8, -1091514.9, 151874.03, -0.039888542, 0.21111783, -1026246.56, 382474.75, 0.42759266, 9.998372, 10.004557 
2.2451077e+3, 1.6626616e+2, -1219720.6, -1202613.9, -24782.426, 0.29110464, 0.7247936, -1184950.3, 125690.28, 0.29616648, 10.000479, 10.000909 
2.2450995e+3, 1.7626475e+2, -1438713.9, -1209861.6, -87315.57, -0.06108294, 0.44394022, -1180352.6, 32293.691, 0.19952731, 9.998001, 10.001085 
2.2450949e+3, 1.862642e+2, -1340949.8, -1264869.3, -66519.2, -0.06353802, 0.34169054, -1226281.5, -111635.01, 0.13536815, 9.998616, 9.999723 
2.2450933e+3, 1.9626418e+2, -881792.1, -988201.3, -97130.125, 0.10443171, 0.34741223, -824249.3, 192394.14, 0.09319166, 10.001208, 9.999726 
2.245088e+3, 2.0626435e+2, -837300.5, -1015578.7, -176498.5, 0.061050337, 0.4262012, -728708.7, 189933.77, 0.06306426, 10.001198, 9.998884 
2.2450808e+3, 2.1626404e+2, -966645.1, -1010602.6, -214368.73, -0.10159849, 0.49752384, -773131.4, 47517.043, 0.0400799, 9.999535, 9.999012 
2.2450773e+3, 2.262622e+2, -844415.2, -840573.3, -61017.28, -0.04613572, 0.38650602, -781446.75, -58782.676, 0.023131557, 9.999432, 9.999542 
2.2450764e+3, 2.3625962e+2, -638934.0, -665031.56, -28402.357, 0.14044951, 0.1318749, -620726.4, 3956.8884, 0.011994159, 10.000082, 9.999744 
2.2450708e+3, 2.4625948e+2, -489231.34, -639138.25, -175022.95, 0.13199839, 0.19796811, -373787.7, 152897.31, 0.0054928027, 10.00086, 9.998874 
2.2450627e+3, 2.562612e+2, -236502.13, -416563.47, -227155.97, -0.02544319, 0.4184038, -82186.01, 346486.3, 0.002050329, 10.001758, 9.9992695 
2.2450586e+3, 2.6625997e+2, -285067.56, -534733.2, -70771.555, -0.03610987, 0.43622956, -266401.78, 64282.68, 0.0004876709, 10.001362, 9.997989 
2.2450589e+3, 2.762567e+2, -240789.89, -426392.25, -24763.467, 0.049498837, 0.27185157, -237542.7, -4828.8296, 0.000047167257, 10.0008745, 9.998272 
2.245057e+3, 2.8625587e+2, -105518.44, -330890.28, -86682.65, 0.12610824, 0.3335438, -76035.45, 58685.906, 0.00000034188096, 10.001198, 9.998114 
2.2450542e+3, 2.962555e+2, 174546.4, -220335.52, -42131.375, 0.12841178, 0.50095904, 178991.52, 215715.95, 0.0000013302117, 10.002778, 9.997429 
2.2450542e+3, 3.0625027e+2, 213790.13, -317949.8, 114599.78, 0.10070866, 0.2603663, 237436.9, 237436.9, 0.0000584347, 10.003252, 9.996225 
2.245053e+3, 3.1624445e+2, 419505.16, 298457.16, 27964.2, 0.014210183, 0.023389826, 425653.13, 425653.13, 0.00025945, 10.002419, 10.000821 
2.2551063e+3, 1.6627014e+2, -1374235.5, -1388252.1, -143600.98, 0.018699985, 0.8082745, -1237471.9, 73134.87, 0.39765337, 9.999858, 9.999775 
2.2550994e+3, 1.7626889e+2, -1502434.5, -1330140.8, -177934.03, 0.06511524, 0.6121004, -1218596.5, -5981.9927, 0.29298013, 9.997947, 10.000241 
2.2550957e+3, 1.8626688e+2, -1417761.8, -1386276.9, 5488.4385, 0.08131188, 0.43550184, -1385347.6, -270720.13, 0.21888196, 9.998463, 9.998951 
2.2550942e+3, 1.9626439e+2, -956626.6, -1099052.5, -29238.896, 0.055231284, 0.25909448, -950857.75, 65786.41, 0.16615056, 10.00102, 9.999014 
2.2550888e+3, 2.0626315e+2, -909307.44, -1109913.0, -237382.39, -0.01624425, 0.24748011, -751906.8, 166747.7, 0.12546477, 10.001011, 9.99834 
2.2550811e+3, 2.162616e+2, -1002393.0, -1061615.3, -256506.72, -0.040692374, 0.24372327, -773793.94, 46877.688, 0.0914258, 9.999443, 9.998702 
2.2550774e+3, 2.2626176e+2, -747355.8, -596471.5, -35037.383, -0.01578966, 0.2450508, -588732.3, 133934.34, 0.062582165, 9.999214, 10.001383 
2.2550759e+3, 2.3626341e+2, -561742.5, -472951.75, 2518.1423, 0.047204964, 0.21536669, -472880.4, 151763.86, 0.039919913, 9.99992, 10.001193 
2.2550704e+3, 2.4626328e+2, -730210.7, -1015481.5, -157775.16, -0.024412522, 0.35230142, -660154.2, -133505.31, 0.023601582, 10.000344, 9.996527 
2.255064e+3, 2.5626248e+2, -395581.6, -689638.06, -196697.14, -0.10322517, 0.5307792, -297034.84, 131630.6, 0.012405956, 10.0015335, 9.997492 
2.2550605e+3, 2.662601e+2, -294828.28, -473812.1, -122366.734, -0.00013791068, 0.48723197, -232720.66, 97967.18, 0.005154125, 10.001034, 9.99856 
2.255061e+3, 2.7625692e+2, -236937.92, -338110.38, -30761.822, 0.16937476, 0.23890506, -228318.94, 4392.8857, 0.0013586987, 10.000545, 9.999029 
2.2550581e+3, 2.8625557e+2, -179998.53, -339617.22, -62457.43, 0.10095103, 0.20159678, -158464.58, -23744.64, 0.00015517221, 10.000614, 9.998313 
2.2550544e+3, 2.9625452e+2, 146430.89, -186339.64, 20108.791, -0.13076945, 0.280643, 147641.63, 184367.14, 0.0000026982873, 10.002457, 9.997777 
2.2550581e+3, 3.0624667e+2, 88204.055, -471112.34, 76973.2, 0.1084482, -0.21720143, 98603.75, 98603.75, 0.000065484004, 10.0028305, 9.9953575 
2.2550544e+3, 3.162475e+2, 402229.25, 397473.6, 45951.72, -0.13324459, 0.3265579, 445864.63, 445864.63, 0.00034262822, 10.001893, 10.001744 
2.2651003e+3, 1.7626701e+2, -1276468.6, -1050366.4, -17326.783, 0.40511823, 0.4365643, -1049046.3, 163591.1, 0.44342524, 9.997752, 10.003283 
2.2650973e+3, 1.8627204e+2, -759945.0, -1072361.8, 18458.64, 0.09845157, 0.71381676, -758858.2, 355721.97, 0.3585124, 10.004537, 9.998373 
2.2650953e+3, 1.9626735e+2, -1086029.4, -1196775.9, -37198.25, 0.09294819, 0.39221522, -1074695.0, -58077.203, 0.29413474, 10.000188, 9.998704 
2.2650893e+3, 2.062645e+2, -1059099.8, -1128195.3, -151709.69, 0.011895549, 0.2033189, -938053.8, -19412.473, 0.24160613, 9.999561, 9.998875 
2.2650808e+3, 2.1626283e+2, -779523.7, -935125.44, -114366.26, -0.085692905, 0.15653315, -719003.9, 101652.04, 0.1940874, 10.000963, 9.9988785 
2.2650759e+3, 2.2626369e+2, -671050.8, -679591.6, -13326.714, -0.14244963, 0.27036434, -661327.0, 61319.035, 0.14888066, 10.000274, 10.000315 
2.2650728e+3, 2.3626615e+2, -919975.5, -743877.25, -212922.61, -0.15357104, 0.44426712, -601516.56, 23104.082, 0.108788945, 9.997878, 10.000299 
2.265069e+3, 2.4626479e+2, -938904.1, -1060201.9, -221631.95, -0.07285025, 0.47620448, -769772.6, -243136.69, 0.07581198, 9.99857, 9.997113 
2.2650667e+3, 2.562615e+2, -417618.16, -673340.25, -92137.305, 0.038442098, 0.3563043, -387879.3, 40792.652, 0.048806984, 10.001146, 9.997859 
2.2650625e+3, 2.6625884e+2, -294773.38, -515231.38, -74849.85, 0.097904146, 0.29783988, -271762.25, 58933.582, 0.026684597, 10.001144, 9.998248 
2.2650608e+3, 2.7625713e+2, -265226.63, -358620.0, -49564.043, 0.12934354, 0.20376858, -243826.52, -11120.205, 0.010897145, 10.000303, 9.999038 
2.2650582e+3, 2.8625605e+2, -264269.84, -406713.66, -36947.355, 0.095951855, 0.2082185, -255256.67, -120544.67, 0.002788968, 10.000116, 9.998109 
2.2650582e+3, 2.9625452e+2, 264246.72, -161775.08, 36914.48, -0.06435645, 0.27102104, 267421.66, 304144.2, 0.0003034348, 10.003412, 9.997489 
2.2650617e+3, 3.062456e+2, 351924.47, -442829.53, -8747.01, 0.09989374, -0.3095615, 352020.72, 352020.72, 0.000074942734, 10.005128, 9.994439 
2.265059e+3, 3.1624442e+2, 787136.8, 404391.72, -160679.11, -0.034229215, 0.27635586, 845646.7, 845646.7, 0.00045627946, 10.0052185, 10.000269 
2.2750919e+3, 2.0626909e+2, -925106.75, -984184.75, -80556.21, 0.25170338, 0.39120114, -868844.5, 49751.58, 0.4526298, 10.000344, 9.999541 
2.275085e+3, 2.1626699e+2, -600287.7, -762458.5, -16559.105, 0.19624883, 0.1718818, -598614.1, 221995.03, 0.38963944, 10.002777, 9.99937 
2.2750781e+3, 2.2626667e+2, -860302.44, -1247383.9, -39683.74, 0.0063879597, 0.35697994, -856275.94, -133661.05, 0.32267725, 10.001001, 9.995978 
2.2750689e+3, 2.3626612e+2, -1197240.6, -1244260.6, -232873.77, -0.34751105, 0.62283576, -986693.1, -362064.16, 0.25840095, 9.997579, 9.996951 
2.2750671e+3, 2.4626271e+2, -855747.75, -727939.4, -118304.64, -0.19140926, 0.45401558, -657382.7, -130723.34, 0.20062341, 9.997909, 9.999684 
2.2750708e+3, 2.5625825e+2, -341101.6, -360084.5, -475.36197, 0.31170362, -0.12965484, -341089.7, 87602.86, 0.14660953, 10.000583, 10.00032 
2.2750647e+3, 2.6625678e+2, -610575.6, -883593.7, -146894.72, 0.138157, -0.072799884, -546553.44, -215850.81, 0.09444842, 9.999932, 9.996267 
2.2750588e+3, 2.7625787e+2, -394935.34, -506207.3, -79296.68, -0.1324788, 0.20385182, -353703.75, -121012.11, 0.04983968, 9.999816, 9.99822 
2.2750574e+3, 2.8625742e+2, -444670.0, -583837.0, -19287.51, -0.04377453, 0.34738505, -442046.38, -307350.13, 0.019500945, 9.999308, 9.997256 
2.2750637e+3, 2.962559e+2, 125022.07, -332208.38, 155065.42, 0.14344573, 0.46257526, 172649.86, 209361.3, 0.004786881, 10.002954, 9.996512 
2.2750644e+3, 3.062477e+2, 123038.46, -709834.8, -54977.38, -0.1849277, 0.04688614, 126651.805, 126651.805, 0.0007184054, 10.004312, 9.992964 
2.2750644e+3, 3.1623715e+2, 318086.63, -307037.56, -116546.68, -0.073340386, -0.075571746, 339108.4, 339108.4, 0.0007782504, 10.004288, 9.995731 
2.2850709e+3, 2.4625967e+2, -74113.766, -362221.97, -161984.83, -0.10647735, -0.17327628, -1394.5636, 525297.75, 0.45869297, 10.0055065, 9.999923 
2.2850676e+3, 2.5626883e+2, -874107.56, -975929.0, -327025.78, 0.0495501, 1.0258356, -594053.4, -165455.81, 0.36361384, 9.99835, 9.997198 
2.2850637e+3, 2.6625615e+2, -891612.9, -942600.44, -409718.2, 0.15421407, 0.09497914, -506596.1, -175880.58, 0.26167566, 9.997489, 9.99711 
2.285063e+3, 2.7625605e+2, -187826.6, -435852.56, -179151.7, 0.24636751, 0.21969363, -93953.016, 138756.81, 0.1640845, 10.001381, 9.9980955 
2.2850603e+3, 2.8625372e+2, -269562.38, -655927.8, -181720.28, 0.25378713, 0.3051949, -197524.77, -62793.438, 0.0825175, 10.001076, 9.995963 
2.2850682e+3, 2.9624984e+2, 244220.06, -281102.22, 106795.11, 0.2610038, 0.24456961, 265100.94, 301871.94, 0.030766618, 10.003765, 9.996531 
2.2850683e+3, 3.0624747e+2, 199155.77, -344594.94, -76886.35, -0.16337115, 0.245086, 209818.4, 209818.4, 0.009050205, 10.003314, 9.995985 
2.2850668e+3, 3.1624037e+2, -183368.95, -173440.47, 168284.73, 0.0060843364, 0.17376997, -10046.773, -10046.773, 0.0039626574, 9.999146, 9.999127 
2.2950613e+3, 2.7625206e+2, 70870.72, -151519.95, -146768.6, -0.10993468, 0.26301262, 143809.63, 376566.4, 0.434636, 10.004121, 9.99904 
2.2950646e+3, 2.8624633e+2, -1095884.5, -1457359.5, -389310.8, 0.5051171, 0.10833573, -847402.94, -712599.7, 0.25417677, 9.997223, 9.992258 
2.2950715e+3, 2.9623917e+2, 131402.67, -225149.88, 203728.38, 0.17519362, -0.2933078, 223843.38, 260717.08, 0.12174427, 10.002842, 9.997277 
2.295073e+3, 3.0624646e+2, -127139.94, 144039.92, -284362.84, -0.13991925, 0.2679692, 323484.7, 323484.7, 0.053861782, 9.998415, 10.001693 
2.2950691e+3, 3.162527e+2, 328591.75, 1148896.4, 176303.55, 0.17636931, 0.7394714, 1185183.3, 1185183.3, 0.031047536, 9.998206, 10.008793 
2.3050925e+3, 2.9625443e+2, 726145.8, 353361.6, -933703.06, 1.3246652, 1.1817063, 1491879.5, 1528631.4, 0.36034602, 10.007994, 10.001652 
2.305062e+3, 3.0624193e+2, -1431883.8, -965164.3, -2023.3756, -1.1809056, -0.33995402, -965155.56, -965155.56, 0.21293154, 9.99112, 9.997646 
2.3050806e+3, 3.1623712e+2, 1141288.5, -531154.9, 74627.945, 0.66328233, 0.39728606, 1144611.9, 1144611.9, 0.1636716, 10.014006, 9.990016 
2.3523049e+3, 2.7463636e+2, -132088.34, -314199.78, 390471.25, -0.20982744, -0.35003835, 177803.5, 426408.94, 0.44872534, 10.001944, 9.998696 
2.3519097e+3, 2.8464684e+2, -1006726.06, -1118279.8, -1078080.5, 0.5016136, 1.6105847, 17019.541, 167526.8, 0.35102087, 9.995682, 9.995224 
2.3515154e+3, 2.9463232e+2, 995713.2, 701967.0, 234834.34, 0.84289795, 0.44128755, 1125821.9, 1178477.5, 0.27322516, 10.008439, 10.002628 
2.3511335e+3, 3.0463243e+2, -514059.3, -790402.2, 264045.22, 0.42108372, 1.839154, -354218.6, -354218.6, 0.21843359, 9.999985, 9.994741 
2.3663154e+3, 1.7513263e+2, -1947704.8, -990129.8, 114364.2, -0.046309773, 0.40841016, -976660.6, 247074.89, 0.43640727, 9.991064, 10.006496 
2.3659092e+3, 1.8511905e+2, -1079806.6, -1622653.1, -108083.875, -0.9339438, -0.17405973, -1059078.0, 66790.49, 0.3775988, 10.002478, 9.9945965 
2.3655151e+3, 1.9511293e+2, -1116166.5, -1606990.5, 53271.824, 0.02534663, 0.41558728, -1110451.1, -82509.45, 0.33353588, 10.001188, 9.99468 
2.3651113e+3, 2.0510982e+2, -27110.545, -248786.1, -159124.45, -0.25987616, 1.045587, 55973.332, 985944.0, 0.30097756, 10.006832, 10.002614 
2.3647097e+3, 2.1509479e+2, -1484014.5, -804397.94, -147447.86, -0.17977405, -0.013947691, -773786.8, 58312.96, 0.27814138, 9.993252, 10.00293 
2.3643234e+3, 2.2508766e+2, 50840.805, -601238.6, 183257.39, 0.82750475, 0.04612355, 98813.34, 832976.8, 0.26103863, 10.008109, 9.996614 
2.363928e+3, 2.3507553e+2, 647516.5, -202239.1, 152353.77, 0.3196399, -0.15486684, 674006.4, 1310294.9, 0.24561462, 10.01207, 9.997473 
2.363516e+3, 2.4506815e+2, 832853.9, -355773.28, 46067.297, -0.794153, 0.32250568, 834636.6, 1373006.5, 0.23007916, 10.014213, 9.99412 
2.3631182e+3, 2.5505924e+2, 404838.63, -320863.66, 227309.9, -0.07602295, 0.8250431, 470158.88, 910627.4, 0.20982343, 10.008197, 9.996443 
2.3627138e+3, 2.6505235e+2, 766529.6, 381636.38, -304341.44, 0.7205865, 0.8888276, 934165.5, 1276705.6, 0.17454754, 10.007315, 10.002012 
2.3623018e+3, 2.7503902e+2, -470114.72, -1098663.9, -173258.6, 0.089320205, 0.46934178, -425520.16, -180851.94, 0.12469305, 10.001117, 9.9929285 
2.3618935e+3, 2.850234e+2, 300145.53, -79034.984, -98739.83, -0.23448318, 0.15398167, 324316.88, 471133.94, 0.081625424, 10.003293, 9.998329 
2.3615019e+3, 2.950131e+2, 198174.88, 453328.8, 510727.53, -0.4510352, -0.46850935, 852172.3, 901082.5, 0.05482473, 9.999891, 10.003409 
2.3611267e+3, 3.0500725e+2, -169201.11, 161200.5, -169057.25, 0.69595534, -0.3480983, 232371.56, 232371.56, 0.038974214, 9.998109, 10.002183 
2.3771086e+3, 1.5555382e+2, -1068001.9, -758564.9, 222954.53, 0.1098349, 1.270791, -641904.4, 773704.25, 0.40916, 9.999684, 10.007148 
2.376708e+3, 1.6552669e+2, -833807.4, -1457846.3, 259841.13, 0.22293617, -0.7320086, -739780.6, 578083.3, 0.31914034, 10.006439, 9.995437 
2.3763113e+3, 1.7553468e+2, -1262497.0, -1655514.5, -83934.38, 0.21313614, 1.2398456, -1245322.1, -25508.715, 0.25440004, 10.000886, 9.99595 
2.375912e+3, 1.855266e+2, -1019055.56, -815956.1, -217990.89, 0.25853887, 1.2705567, -677022.2, 444873.2, 0.20803122, 9.999035, 10.002465 
2.3755139e+3, 1.955113e+2, -764039.94, -708803.5, -24322.47, 0.5845434, 0.2693888, -699620.25, 324410.13, 0.17323056, 10.000507, 10.001773 
2.3751089e+3, 2.0550185e+2, -874707.75, -968809.25, -120770.32, 0.27663758, 0.099708, -792146.56, 133969.58, 0.14628343, 10.000091, 9.999085 
2.3746978e+3, 2.154968e+2, -1074168.3, -960714.75, -282511.8, -0.32326403, 0.42762792, -729290.75, 98872.95, 0.1255341, 9.997724, 9.999626 
2.3743008e+3, 2.2548918e+2, -1510921.5, -1280345.9, 181744.47, -0.22477137, 0.5563178, -1180407.4, -450169.47, 0.10829949, 9.994766, 9.998114 
2.3739138e+3, 2.354781e+2, -1767900.0, -1296917.1, 135481.4, 0.3107458, 0.4400639, -1260726.0, -628377.2, 0.09199208, 9.9921055, 9.998603 
2.3735142e+3, 2.4547096e+2, -1530548.8, -948477.94, -291630.72, 0.5088585, 0.5282675, -827505.94, -293081.4, 0.07586676, 9.992233, 10.000291 
2.3731092e+3, 2.5546455e+2, -1446836.3, -1148548.9, -90221.13, 0.41389287, 0.80825067, -1123383.4, -686887.25, 0.059159193, 9.993508, 9.997567 
2.3727015e+3, 2.654544e+2, -383263.88, -414498.72, -141201.7, 0.37954855, 0.72010523, -256818.55, 81775.19, 0.040411934, 9.999286, 9.999215 
2.3722996e+3, 2.7544022e+2, 184033.06, -504253.38, 253835.9, 0.3146605, 0.3119315, 267519.63, 508241.94, 0.021717511, 10.004712, 9.995159 
2.371894e+3, 2.8542742e+2, 172050.81, -561987.56, 133506.77, 0.08530792, 0.41007397, 195578.84, 338428.34, 0.009486635, 10.004392, 9.9941845 
2.3714958e+3, 2.9541844e+2, -734804.94, -472717.66, 409946.2, -0.05021201, 0.531941, -173379.72, -128431.234, 0.0043355683, 9.995785, 9.998539 
2.371113e+3, 3.0540535e+2, -127065.08, 497091.38, 153872.97, 0.39219233, 0.018392341, 532963.9, 532963.9, 0.002550165, 9.997076, 10.0045595 
2.3874988e+3, 1.4595564e+2, -1525589.0, -1302535.0, 138708.86, 0.031715747, 0.5710183, -1236077.6, 273606.34, 0.38967893, 9.998244, 10.002521 
2.3871025e+3, 1.5594411e+2, -1253961.5, -1224634.4, -66396.414, 0.1907833, -0.103734046, -1171301.6, 240465.53, 0.2783623, 10.000296, 10.001048 
2.3867014e+3, 1.6593325e+2, -1477748.5, -1933886.3, 9250.877, -0.039137837, -0.1598257, -1477560.9, -163684.9, 0.19862524, 10.000779, 9.994686 
2.386298e+3, 1.7592815e+2, -1392438.0, -1842406.1, 129918.59, -0.4730235, 0.6240836, -1357620.8, -141667.11, 0.1461588, 10.000611, 9.994782 
2.385896e+3, 1.8592094e+2, -931849.4, -732469.9, 64904.34, -0.54244286, 0.8154396, -713203.25, 404823.94, 0.11113541, 9.999531, 10.002552 
2.3854966e+3, 1.9590932e+2, -1173361.5, -843584.75, -78930.52, -0.28770554, 0.15240243, -825666.7, 194457.88, 0.08556882, 9.997208, 10.002091 
2.3850967e+3, 2.059008e+2, -1224017.3, -1276128.4, -200112.25, -0.087719575, 0.09246062, -1048271.4, -126068.6, 0.065839775, 9.99829, 9.997758 
2.3846921e+3, 2.1589491e+2, -607708.4, -940720.1, -215367.48, -0.13156392, 0.49035108, -501987.56, 322276.84, 0.050802168, 10.00198, 9.9976635 
2.3842913e+3, 2.2588748e+2, -540320.75, -628591.7, 111797.484, -0.22863083, 0.6261614, -464262.16, 262077.31, 0.038884565, 10.00077, 9.99969 
2.3838955e+3, 2.3587763e+2, -1178553.4, -1006880.1, 46026.29, -0.23520456, 0.5126415, -995318.9, -366881.84, 0.028499383, 9.996179, 9.998636 
2.3834933e+3, 2.458681e+2, -853507.44, -539937.94, -260993.72, -0.22272958, 0.31989068, -392257.28, 138277.05, 0.019239577, 9.996607, 10.000966 
2.3830917e+3, 2.558579e+2, -711852.2, -714870.25, -156058.86, -0.100873746, 0.10851177, -557295.06, -124654.82, 0.011432521, 9.99828, 9.998236 
2.3826924e+3, 2.658504e+2, -9548.199, -159691.98, -170532.11, 0.20485798, 0.20165345, 101704.875, 436412.88, 0.005416997, 10.001712, 9.999715 
2.382297e+3, 2.758424e+2, 36646.652, -332289.34, 1537.1088, 0.43107983, 0.21338235, 36653.06, 273424.84, 0.001679893, 10.002572, 9.997377 
2.381892e+3, 2.8583166e+2, 43418.992, -839488.75, -260866.08, 0.22636542, 0.4907793, 114734.69, 253617.92, 0.00032890253, 10.004396, 9.992307 
2.3814902e+3, 2.958264e+2, -297787.78, -777601.3, 109423.86, 0.29895738, 1.2796978, -274011.34, -233054.67, 0.000101577105, 10.000874, 9.994098 
2.3811008e+3, 3.0580786e+2, 34738.508, 587239.8, 486875.28, -0.028886722, 0.42957702, 870776.56, 870776.56, 0.00014327442, 9.99798, 10.004853 
2.3978867e+3, 1.3635504e+2, -1502277.6, -2277253.8, 8223.4795, 0.26453513, -0.59963787, -1502190.4, 101555.91, 0.4278238, 10.004023, 9.992735 
2.3974836e+3, 1.4635609e+2, -1620313.8, -1588816.3, 105925.125, -0.6137594, 0.5899218, -1497475.5, 8264.76, 0.2998544, 9.998826, 9.999415 
2.3970911e+3, 1.5634507e+2, -1332781.6, -1475050.9, -122.00081, -0.25240433, 0.3492058, -1332781.5, 75061.08, 0.19614406, 10.000522, 9.998774 
2.3966943e+3, 1.6633467e+2, -1123927.5, -1213194.5, -34433.688, -0.10178102, 0.1405924, -1112188.8, 197756.06, 0.12585048, 10.000891, 9.999745 
2.3962949e+3, 1.7632465e+2, -1114642.8, -1239693.3, 71194.01, -0.093678094, -0.04495952, -1082415.8, 129633.234, 0.083471425, 10.000512, 9.999007 
2.3958921e+3, 1.8631756e+2, -1089376.6, -1178190.5, -46551.273, -0.115361616, 0.15483078, -1069448.5, 44673.22, 0.057587944, 10.000008, 9.998959 
2.3954883e+3, 1.9631173e+2, -1227675.0, -1217561.9, -135577.45, -0.12908626, 0.45004562, -1086946.8, -70767.2, 0.03970386, 9.998391, 9.998826 
2.3950876e+3, 2.0630279e+2, -1050488.4, -1136423.0, -68444.8, -0.08391983, 0.47317272, -1012641.75, -94375.04, 0.026570952, 9.999257, 9.998238 
2.3946877e+3, 2.1629222e+2, -438924.4, -792579.6, -66494.98, -0.031852014, 0.38432133, -426835.13, 393535.03, 0.017417854, 10.002823, 9.998239 
2.3942879e+3, 2.262837e+2, -352737.94, -544928.7, -40382.11, 0.017891664, 0.39073643, -344597.84, 377857.38, 0.011141793, 10.002071, 9.999626 
2.393889e+3, 2.362747e+2, -831537.7, -846511.56, -53758.38, 0.06534383, 0.38285017, -784747.4, -160201.66, 0.0065593217, 9.998608, 9.998532 
2.3934868e+3, 2.4626589e+2, -569327.8, -515575.84, -167119.9, 0.07395659, 0.3321931, -373184.63, 153450.8, 0.0032030866, 9.999082, 9.99989 
2.3930867e+3, 2.5625718e+2, -363912.94, -591607.75, -61150.766, 0.123440064, 0.34428334, -348529.38, 80195.36, 0.0011282732, 10.000908, 9.997764 
2.392687e+3, 2.662488e+2, -92037.61, -385848.13, -133864.47, 0.22351652, 0.4921096, -40194.66, 290609.75, 0.00023273825, 10.002011, 9.99797 
2.392289e+3, 2.762393e+2, -125786.22, -337976.06, -81809.24, 0.20177847, 0.48238295, -97907.695, 134982.4, 0.000018051116, 10.001186, 9.997947 
2.3918864e+3, 2.8622583e+2, 118584.74, -367059.72, -211637.36, 0.07248667, 0.22676113, 197869.66, 332889.75, 0.000004039042, 10.003076, 9.996136 
2.391489e+3, 2.9621732e+2, 503663.97, -222443.23, 138285.44, 0.51051795, 0.44312832, 529108.5, 566214.4, 0.00001362104, 10.005588, 9.995637 
2.3910931e+3, 3.0620232e+2, 110545.34, 139796.78, 28119.32, 0.018264236, 0.22450928, 156866.61, 156866.61, 0.000054133918, 10.000523, 10.000592 
2.4082693e+3, 1.2676558e+2, -1632311.3, -1408271.3, 77842.664, -0.73904055, 0.71089077, -1383880.3, 313853.84, 0.49043462, 9.998486, 10.003835 
2.4078709e+3, 1.3675958e+2, -1489668.6, -1319243.1, 15018.764, -0.72427857, 0.46773538, -1317929.8, 281854.84, 0.36336103, 9.999177, 10.002822 
2.4074766e+3, 1.4675187e+2, -1541564.0, -1550321.9, 110003.53, -0.49135774, 0.35435706, -1435852.3, 66006.516, 0.24041095, 9.999557, 9.999292 
2.407083e+3, 1.5674375e+2, -1512472.8, -1543655.5, 95455.91, -0.28406066, 0.39551923, -1431343.3, -27403.273, 0.14389461, 9.999168, 9.998872 
2.4066858e+3, 1.6673544e+2, -1434506.0, -1306297.8, -52344.465, -0.11630635, 0.3786414, -1287641.5, 18381.904, 0.08188297, 9.9984, 10.000207 
2.406287e+3, 1.767256e+2, -1596315.4, -1434814.3, -171391.66, 0.0659744, 0.15756324, -1326103.1, -117981.68, 0.047678713, 9.996979, 9.999379 
2.405886e+3, 1.8671699e+2, -1256798.1, -1343157.3, -202859.5, 0.10845777, 0.19293587, -1092573.6, 17633.303, 0.028905774, 9.999273, 9.998154 
2.4054831e+3, 1.9671023e+2, -659698.75, -1060632.5, -175049.08, 0.06730384, 0.4782667, -594028.2, 418246.5, 0.017015342, 10.002908, 9.99773 
2.4050815e+3, 2.0670123e+2, -519497.7, -781932.25, -45307.285, -0.0072354763, 0.49030498, -511895.94, 402466.03, 0.00915297, 10.002548, 9.999096 
2.4046819e+3, 2.1669032e+2, -860772.56, -972234.25, -37108.004, 0.022156835, 0.29662302, -849548.7, -33082.297, 0.0045936005, 9.999823, 9.998448 
2.404282e+3, 2.2668123e+2, -797981.8, -859606.75, -105399.88, 0.14180842, 0.28068948, -718982.9, -424.39203, 0.0022051786, 9.999443, 9.998711 
2.4038818e+3, 2.366718e+2, -797910.06, -909188.44, -150093.56, 0.2599926, 0.29883432, -693474.9, -72818.836, 0.0009056362, 9.999217, 9.997814 
2.40348e+3, 2.466644e+2, -354533.13, -380949.6, -110938.02, 0.21493264, 0.38782236, -256019.81, 266710.28, 0.00023937336, 10.000521, 10.000073 
2.40308e+3, 2.5665742e+2, -408718.1, -643557.94, 7256.0415, 0.14226767, 0.5310389, -408494.1, 16304.497, 0.000025130046, 10.000742, 9.997505 
2.4026799e+3, 2.66648e+2, -196794.6, -571512.5, -26471.389, 0.10687618, 0.677012, -194933.8, 131957.27, 0.00000030344088, 10.00192, 9.996728 
2.4022806e+3, 2.7663743e+2, -171418.55, -344687.13, 74.29839, -0.010546884, 0.6272205, -171418.52, 57575.773, 0.000000006555133, 10.000791, 9.998133 
2.401881e+3, 2.8662312e+2, 250234.25, 110138.91, -5188.2393, 0.041075844, 0.047745302, 250426.13, 381551.75, 0.00000087941476, 10.002217, 9.999831 
2.4014863e+3, 2.9661056e+2, 6324.124, -421101.56, 208184.31, 0.46085903, -0.36448532, 90963.234, 124198.76, 0.0000072209577, 10.002009, 9.996007 
2.4010862e+3, 3.0660233e+2, -320905.7, -543470.94, 67735.29, -0.019414008, 0.29601637, -301912.1, -301912.1, 0.00003484927, 9.999639, 9.996276 
2.4182707e+3, 1.2716411e+2, -1718770.4, -1496214.0, 57546.69, 0.3514951, 0.5126292, -1482214.6, 211624.98, 0.44509998, 9.997995, 10.002781 
2.4178696e+3, 1.3715479e+2, -1499311.4, -1416083.0, 51537.613, -0.037719, 0.11004474, -1391456.3, 204460.38, 0.31930807, 9.99965, 10.001461 
2.4174722e+3, 1.4714855e+2, -1403274.4, -1403396.8, 79523.13, -0.15594189, 0.17601301, -1323812.4, 174162.19, 0.20041417, 10.000209, 10.000091 
2.4170756e+3, 1.5714267e+2, -1366347.9, -1423870.8, 69859.32, -0.21674037, 0.37593323, -1319561.0, 80473.37, 0.110025235, 10.000026, 9.999289 
2.416676e+3, 1.6713615e+2, -1429093.8, -1512303.6, -113802.63, -0.16710988, 0.6243476, -1349529.4, -47424.152, 0.054970514, 9.999342, 9.998313 
2.4162754e+3, 1.7712869e+2, -1531968.3, -1547085.0, -153090.05, -0.061547358, 0.8286345, -1386250.0, -182063.36, 0.027314784, 9.998023, 9.998102 
2.4158771e+3, 1.8711706e+2, -1105215.3, -1177757.4, -41945.75, 0.06069436, 0.5640509, -1086033.3, 20263.719, 0.013986388, 9.999878, 9.999014 
2.4154794e+3, 1.9710386e+2, -526394.9, -881501.2, -57478.74, 0.14350066, 0.13204764, -517322.97, 491095.0, 0.006556314, 10.00326, 9.998798 
2.4150777e+3, 2.0709553e+2, -396456.03, -603021.6, -154296.11, 0.10138172, 0.103582576, -314065.38, 596429.2, 0.002469395, 10.002846, 10.000193 
2.4146743e+3, 2.1708877e+2, -723445.4, -837074.75, -92373.85, 0.015433541, 0.23162188, -671812.6, 140744.97, 0.00078321603, 10.000419, 9.999102 
2.4142735e+3, 2.2708005e+2, -852408.94, -1052617.0, -92732.68, 0.12250056, 0.3221438, -816057.25, -101407.58, 0.00023610769, 9.999749, 9.997243 
2.413874e+3, 2.370699e+2, -734035.8, -927076.4, -102420.66, 0.2700006, 0.39733863, -689821.75, -73062.32, 0.000047296035, 9.999843, 9.997379 
2.4134716e+3, 2.4706192e+2, -252792.61, -194196.48, -61626.594, 0.07140763, 0.3831476, -155258.1, 363577.66, 0.0000020598873, 10.000615, 10.001325 
2.4130696e+3, 2.5705454e+2, -246938.53, -361105.72, 52753.414, -0.25053367, 0.34790885, -226295.3, 194605.98, 0.0, 10.0009575, 9.999325 
2.4126723e+3, 2.6704505e+2, -263190.3, -593675.44, 45915.785, -0.05979032, 0.42472184, -256929.63, 66063.4, 0.0, 10.001468, 9.996769 
2.4122769e+3, 2.7703503e+2, -29219.762, -227635.8, 52803.008, 0.26007488, 0.45380646, -16042.778, 209049.72, 0.0, 10.001488, 9.998617 
2.411876e+3, 2.870243e+2, 310143.4, 292558.84, -4114.3394, 0.110058434, 0.12981623, 311058.44, 438252.5, 0.0000001537889, 10.001868, 10.001313 
2.4114761e+3, 2.970157e+2, 212225.69, -113663.28, 167328.4, -0.03594872, -0.00409019, 282839.97, 312112.06, 0.000003139397, 10.0024185, 9.99794 
2.4110825e+3, 3.070082e+2, 38759.55, -91705.305, 55291.965, 0.376563, 0.4883957, 59040.11, 59040.11, 0.000017281642, 10.000782, 9.998866 
2.4282634e+3, 1.2756352e+2, -1603962.6, -1578064.1, 88775.38, 0.4698643, 0.4625789, -1501298.5, 188627.45, 0.4141129, 10.000034, 10.000708 
2.427862e+3, 1.3755505e+2, -1545709.4, -1561938.8, 23348.66, 0.0051800557, 0.31951264, -1529105.5, 62896.305, 0.28877336, 9.999932, 9.999809 
2.4274646e+3, 1.4754777e+2, -1305263.6, -1300948.9, 79036.73, -0.20763744, 0.3054947, -1224040.1, 270027.75, 0.17287979, 10.000663, 10.000715 
2.4270676e+3, 1.5754089e+2, -1107669.3, -1268121.1, 36947.094, -0.34447613, 0.34430933, -1099570.3, 296561.3, 0.08747846, 10.001713, 9.9996605 
2.426668e+3, 1.6753379e+2, -1037712.5, -1299216.5, -100962.05, -0.2573133, 0.50155896, -1003269.44, 294936.22, 0.038149297, 10.001977, 9.9985285 
2.4262676e+3, 1.7752665e+2, -994704.9, -1252557.8, -31236.844, -0.05197403, 0.73058724, -990974.75, 209307.92, 0.01570925, 10.001599, 9.998398 
2.4258691e+3, 1.8751587e+2, -1017481.0, -1049971.8, 143090.4, 0.02108422, 0.49651685, -889716.75, 212667.84, 0.0064830934, 10.000112, 9.999784 
2.4254714e+3, 1.9750312e+2, -1319207.6, -1226956.1, 112614.336, 0.08555788, 0.05483535, -1151387.3, -146886.03, 0.0021827125, 9.997677, 9.999104 
2.4250703e+3, 2.0749503e+2, -1013238.2, -956368.94, -55406.03, 0.09619396, 0.07735863, -922527.1, -15948.272, 0.00044835047, 9.99886, 9.999673 
2.4246675e+3, 2.174889e+2, -722986.9, -884094.25, -111455.54, 0.07728156, 0.30770543, -666022.44, 142617.56, 0.000068581576, 10.000678, 9.9986515 
2.4242659e+3, 2.2748038e+2, -590144.44, -872551.2, -28622.318, 0.11382886, 0.40852067, -587272.75, 123456.12, 0.0000096515805, 10.001434, 9.997627 
2.423866e+3, 2.3747018e+2, -580182.56, -862126.1, 76243.87, 0.21715377, 0.44965348, -560885.3, 51951.25, 0.00000040342232, 10.000998, 9.997272 
2.4234633e+3, 2.4746116e+2, -231695.78, -261936.3, 41562.156, -0.03953251, 0.387811, -202588.95, 312333.94, 0.0, 10.001159, 10.000573 
2.4230608e+3, 2.5745255e+2, -392009.0, -460673.47, -44580.363, -0.43198538, 0.2734037, -370073.03, 46926.957, 0.0, 10.000148, 9.999041 
2.4226658e+3, 2.67443e+2, -242609.81, -483070.66, -2130.3755, -0.07831321, 0.26391894, -242590.95, 76499.97, 0.0, 10.001226, 9.99761 
2.4222735e+3, 2.7743322e+2, -126686.61, -353243.7, 27297.97, 0.5267726, 0.27344432, -123443.88, 97742.38, 0.0, 10.001178, 9.99792 
2.4218692e+3, 2.8742495e+2, 32139.654, 106769.88, -72528.24, 0.07668756, 0.2661421, 151019.25, 274287.28, 0.0000000009564638, 10.000242, 10.000794 
2.4214655e+3, 2.974189e+2, -518205.34, -334046.94, 36046.742, -0.4924113, 0.34580162, -327242.66, -301914.1, 0.0000004799063, 9.9969, 9.999099 
2.4210766e+3, 3.074135e+2, 465536.34, 363830.66, -311996.53, 0.3598945, 0.68635756, 730797.2, 730797.2, 0.0000055147566, 10.002635, 10.00113 
2.438252e+3, 1.2796645e+2, -1620787.1, -1820111.4, 66754.84, -0.0130678965, 0.7877708, -1600496.1, 85478.914, 0.39271495, 10.001172, 9.997985 
2.4378523e+3, 1.3795601e+2, -1533568.6, -1696100.3, 43870.797, -0.25989717, 0.7130028, -1522483.0, 65597.84, 0.26710206, 10.00072, 9.998429 
2.4374554e+3, 1.4794664e+2, -1230043.4, -1175161.1, 104272.61, -0.4600787, 0.47981203, -1094779.3, 395384.9, 0.15331793, 10.000773, 10.001657 
2.4370588e+3, 1.5793778e+2, -1153990.8, -1192061.0, 49833.48, -0.6410785, 0.23035924, -1119680.6, 272558.63, 0.07196278, 10.000876, 10.000614 
2.4366611e+3, 1.6792953e+2, -1002579.75, -1148862.8, -120716.03, -0.37364754, 0.16663736, -934575.8, 359741.63, 0.027363949, 10.00159, 9.9997835 
2.4362622e+3, 1.7792149e+2, -882026.56, -1050262.1, -56573.79, -0.0069173477, 0.1752184, -864771.75, 331625.34, 0.009079448, 10.001749, 9.999704 
2.4358611e+3, 1.879145e+2, -934471.75, -923510.25, 40719.715, -0.0155329555, 0.22685786, -887904.1, 210560.36, 0.002868925, 10.000323, 10.000543 
2.4354595e+3, 1.9790718e+2, -1224731.8, -1158089.4, 74278.266, -0.14143343, 0.26752684, -1110000.8, -109466.37, 0.00059867656, 9.998205, 9.999322 
2.4350603e+3, 2.0789906e+2, -1093921.1, -1208597.5, 28980.238, -0.009715224, 0.4039934, -1087013.5, -184391.33, 0.000045539302, 9.999197, 9.99779 
2.4346617e+3, 2.1789065e+2, -682151.44, -918726.3, -33516.12, 0.16433297, 0.58214486, -677494.8, 127220.44, 0.0000022398012, 10.001165, 9.998169 
2.43426e+3, 2.2788183e+2, -343769.75, -455853.88, -5411.7466, 0.123293966, 0.5135601, -343509.06, 363290.16, 0.000000052409952, 10.001835, 10.000299 
2.4338582e+3, 2.3787247e+2, -366867.75, -607852.2, 117422.22, 0.032464836, 0.38944086, -319115.06, 289770.7, 0.0, 10.00179, 9.99863 
2.4334571e+3, 2.4786222e+2, -511624.03, -860428.7, 37859.434, -0.030747373, 0.43392223, -507562.06, 3428.2583, 0.0, 10.001204, 9.996459 
2.4330567e+3, 2.578518e+2, -486020.2, -702461.75, -59316.07, -0.12801924, 0.52034, -470830.53, -57732.69, 0.0, 10.0003, 9.997301 
2.4326617e+3, 2.678419e+2, -67012.945, -147439.95, 18259.75, 0.15271951, 0.39786434, -63061.484, 252127.47, 0.0, 10.001268, 9.999933 
2.4322686e+3, 2.7783233e+2, 161820.11, -83550.76, 26956.459, 0.57752526, 0.23655018, 164746.64, 382020.94, 0.0, 10.002502, 9.99915 
2.4318625e+3, 2.8782415e+2, -88917.8, -220984.69, -175044.66, 0.17770611, 0.35043955, 32134.436, 151490.61, 0.0, 10.000476, 9.998471 
2.4314566e+3, 2.9781693e+2, -525716.56, -428005.38, 53134.273, -0.3255118, 0.5202295, -404679.8, -383247.7, 0.000000008678429, 9.997168, 9.998333 
2.4310724e+3, 3.0780786e+2, 795299.06, 365800.5, -158993.55, 0.2654941, 0.57836443, 847750.44, 847750.44, 0.0000009202062, 10.005346, 9.999953 
2.4486329e+3, 1.1836703e+2, -1794177.3, -2196657.0, -121054.66, -1.1272789, 0.10643826, -1760573.1, 19453.516, 0.4945417, 10.001424, 9.995925 
2.4482433e+3, 1.28361e+2, -1483117.4, -1700098.8, -16069.463, -0.29297906, 0.50928134, -1481933.8, 200170.38, 0.3775347, 10.002625, 9.998099 
2.4478471e+3, 1.383525e+2, -1364855.5, -1559642.5, 26425.646, -0.17333202, 0.60905445, -1361334.1, 222857.06, 0.25111946, 10.002053, 9.998789 
2.447449e+3, 1.4834367e+2, -1387900.5, -1299019.1, 41735.625, -0.32913214, 0.44394562, -1282494.0, 203776.52, 0.13882844, 9.999713, 10.001146 
2.4470513e+3, 1.5833458e+2, -1765236.9, -1479848.1, -48712.797, -0.45941287, 0.21521473, -1471762.5, -83413.25, 0.060861234, 9.996606, 10.000569 
2.4466535e+3, 1.6832688e+2, -1433882.3, -1250208.9, -143069.3, -0.27631408, 0.13189523, -1172037.4, 118384.2, 0.02025213, 9.998206, 10.000653 
2.4462554e+3, 1.7831933e+2, -996114.5, -1042664.94, -145789.13, -0.0026282528, 0.099672765, -871754.4, 320740.3, 0.0052852775, 10.000701, 10.000252 
2.4458538e+3, 1.8831342e+2, -842020.4, -859266.94, -160766.38, -0.022540495, 0.20682216, -689646.2, 404906.38, 0.0012089658, 10.000899, 10.00069 
2.4454515e+3, 1.9830787e+2, -935733.06, -1002034.6, -134480.05, -0.09566839, 0.3876694, -830378.06, 166229.72, 0.00012403581, 10.000162, 9.999441 
2.4450527e+3, 2.0830004e+2, -847092.0, -1044385.25, 7771.524, 0.01948581, 0.4931118, -846786.4, 51906.555, 0.000001917801, 10.000756, 9.998131 
2.4446553e+3, 2.1829107e+2, -711394.06, -938653.06, 61932.79, 0.21407354, 0.58793235, -695612.06, 105178.98, 0.000000018702426, 10.001036, 9.998079 
2.444253e+3, 2.2828206e+2, -495210.03, -508008.5, -62717.29, 0.091723785, 0.48658168, -438566.38, 264309.63, 0.0, 10.000721, 10.0004635 
2.4438499e+3, 2.3827282e+2, -724963.75, -814825.94, -102718.96, -0.08751253, 0.33231533, -657778.9, -52820.117, 0.0, 9.999522, 9.998301 
2.4434504e+3, 2.4826266e+2, -555782.7, -988818.3, 26630.342, -0.026957083, 0.4314781, -554151.2, -47087.707, 0.0, 10.001436, 9.995431 
2.4430522e+3, 2.5825208e+2, -189478.16, -667822.9, 167827.81, 0.080557644, 0.61091536, -136469.77, 272706.47, 0.0, 10.002836, 9.9963255 
2.442656e+3, 2.682419e+2, 32678.146, -35525.973, 178270.84, 0.21079673, 0.47131008, 180079.38, 491349.6, 0.0, 10.001692, 10.000497 
2.4422607e+3, 2.78232e+2, -327413.56, -340653.7, 12196.346, 0.42807046, 0.22176051, -320156.44, -106799.336, 0.0, 9.999269, 9.998961 
2.4418567e+3, 2.8822365e+2, 52391.83, -321670.9, -192881.3, 0.2717229, 0.39590895, 134031.13, 249473.6, 0.0, 10.002233, 9.996917 
2.4414505e+3, 2.9821557e+2, 124547.04, -288336.78, 149514.95, -0.14303556, 0.6453518, 173003.13, 190531.86, 0.0, 10.002419, 9.996783 
2.441065e+3, 3.081991e+2, -523360.84, -293853.7, 513677.03, -0.13220415, -0.011370035, 117731.484, 117731.484, 0.00000009984614, 9.996668, 9.999477 
2.4586375e+3, 1.18764356e+2, -1710975.9, -2068767.1, -6652.8877, -0.1202557, 0.38287383, -1710852.3, 65282.563, 0.48539782, 10.002004, 9.99654 
2.4582371e+3, 1.2875196e+2, -1399327.8, -1526538.3, -23168.307, -0.44185376, 0.004051685, -1395239.6, 283028.2, 0.36593348, 10.00262, 9.999886 
2.4578428e+3, 1.3874792e+2, -1359030.1, -1491204.3, -3336.583, -0.06533262, 0.39240795, -1358945.9, 221361.83, 0.23856215, 10.001732, 9.999524 
2.4574436e+3, 1.4874028e+2, -1425176.4, -1411487.0, -42966.445, -0.08281046, 0.38809475, -1374823.4, 107554.87, 0.1275105, 9.999889, 10.00014 
2.457044e+3, 1.5873156e+2, -1651265.8, -1452786.3, -41612.59, -0.1395343, 0.28491545, -1444415.0, -59956.555, 0.052560914, 9.99752, 10.000297 
2.4566458e+3, 1.6872479e+2, -1297397.3, -1112399.8, -9297.868, -0.1334045, 0.262818, -1111933.6, 174590.86, 0.01541553, 9.998812, 10.00131 
2.4562475e+3, 1.7871824e+2, -947300.44, -973779.2, -73789.92, -0.119744636, 0.27842852, -885571.6, 303017.9, 0.0031067657, 10.000828, 10.000662 
2.455847e+3, 1.8871178e+2, -835205.3, -874088.1, -171987.55, -0.0152251525, 0.33449274, -681563.8, 409090.44, 0.00048131414, 10.001008, 10.000543 
2.455446e+3, 1.987051e+2, -822267.2, -843509.44, -118954.65, 0.09149006, 0.40262505, -713460.44, 279260.3, 0.000015932997, 10.00048, 10.000361 
2.455047e+3, 2.0869747e+2, -637458.06, -660616.75, 35993.21, 0.13465936, 0.34093264, -611227.44, 283566.78, 0.0000000054715246, 10.000964, 10.000669 
2.4546485e+3, 2.1868922e+2, -562269.2, -749644.0, 63663.082, 0.14757454, 0.28414392, -542685.56, 254188.88, 0.0, 10.001522, 9.999149 
2.4542451e+3, 2.286797e+2, -698343.4, -931575.1, -116912.88, 0.022269396, 0.303642, -649829.4, 49142.95, 0.0, 10.000684, 9.997606 
2.4538413e+3, 2.386698e+2, -715796.3, -812611.1, -116376.13, -0.12493099, 0.33050737, -638161.4, -37088.02, 0.0, 9.999537, 9.998318 
2.4534439e+3, 2.4866138e+2, -196514.39, -312055.63, 135330.44, -0.06784833, 0.31153995, -107139.61, 396010.75, 0.0, 10.0017, 9.999975 
2.4530478e+3, 2.5865304e+2, 167633.31, -246748.3, 237869.69, 0.003442511, 0.31621546, 275894.6, 681120.56, 0.0, 10.00414, 9.998609 
2.4526477e+3, 2.6864243e+2, -194908.11, -516012.38, 66868.03, -0.0051449416, 0.28102812, -181539.8, 125792.64, 0.0, 10.001636, 9.997269 
2.452248e+3, 2.7863154e+2, -526097.06, -639301.25, -11423.74, 0.043880798, 0.23993298, -524955.75, -315513.1, 0.0, 9.9986925, 9.997207 
2.4518514e+3, 2.8862265e+2, 259086.63, -229870.38, 5243.163, 0.20814902, 0.42334846, 259142.84, 370678.0, 0.0, 10.003593, 9.996925 
2.4514546e+3, 2.986137e+2, 1014423.0, 189929.78, -2751.1975, 0.30061626, 0.60335076, 1014432.2, 1028059.9, 0.0, 10.00817, 9.997325 
2.4510527e+3, 3.0859938e+2, -970972.44, -247334.28, -93869.2, 0.0828589, 0.090970375, -235355.98, -235355.98, 0.000000000000427524, 9.992328, 10.0019045 
2.4686314e+3, 1.1916068e+2, -1722203.1, -2086648.9, 112382.234, -0.2043262, 0.28954947, -1690335.0, 81918.88, 0.47722325, 10.001966, 9.996521 
2.4682316e+3, 1.2914993e+2, -1475924.3, -1553550.8, -26964.578, -0.39695105, 0.070296474, -1467477.0, 206891.94, 0.3557266, 10.00163, 10.00007 
2.4678373e+3, 1.3914637e+2, -1511372.0, -1509122.4, -56807.285, 0.1005278, 0.49615526, -1453428.8, 122974.805, 0.22774403, 10.000005, 10.0001955 
2.4674368e+3, 1.491387e+2, -1336449.9, -1242373.9, -30790.725, 0.037571054, 0.36873418, -1233192.4, 245279.0, 0.11809006, 9.999979, 10.00139 
2.467036e+3, 1.5913008e+2, -1249054.0, -1215904.0, 72356.95, -0.058724396, 0.17763817, -1158247.9, 222300.13, 0.04605504, 10.000108, 10.000739 
2.4666372e+3, 1.69123e+2, -1231185.9, -1148942.6, 111849.83, -0.1439995, 0.16533893, -1070894.8, 211723.75, 0.012013259, 9.99958, 10.000695 
2.4662387e+3, 1.7911632e+2, -1261339.4, -1156201.9, -7384.262, -0.19001587, 0.22714296, -1155685.8, 29001.158, 0.0018483637, 9.9988165, 10.00038 
2.4658391e+3, 1.8910995e+2, -980343.2, -937635.44, -94912.37, -0.03827458, 0.29451594, -861704.44, 225047.02, 0.00018026956, 9.999975, 10.000614 
2.4654394e+3, 1.9910334e+2, -778934.94, -826307.7, -43917.254, 0.16904002, 0.3743306, -752723.7, 236093.94, 0.0000007906511, 10.000836, 10.00031 
2.4650398e+3, 2.0909546e+2, -754397.3, -685837.5, -27114.605, 0.1486329, 0.26262355, -676410.25, 214480.92, 0.0, 10.000061, 10.000925 
2.4646404e+3, 2.190871e+2, -989498.1, -997082.0, -127996.81, 0.099608324, 0.16085865, -865237.06, -72268.01, 0.0, 9.998818, 9.99875 
2.4642381e+3, 2.2907783e+2, -712505.06, -1031380.75, -168908.19, 0.044213723, 0.24644779, -639670.6, 55397.043, 0.0, 10.001071, 9.996683 
2.4638356e+3, 2.3906836e+2, -288769.94, -625621.7, -35880.68, 0.0033081495, 0.38793904, -284990.4, 312178.8, 0.0, 10.00261, 9.99811 
2.4634382e+3, 2.4906033e+2, -151346.2, -98211.92, 63670.387, -0.012654966, 0.28143224, -55788.258, 443449.1, 0.0, 10.001169, 10.00171 
2.463042e+3, 2.590523e+2, -595141.2, -597768.25, -74792.945, -0.011815817, 0.1431673, -521650.22, -120347.77, 0.0, 9.998845, 9.998762 
2.4626404e+3, 2.6904142e+2, -466508.2, -828581.44, -174829.72, -0.06914744, 0.14209294, -395871.03, -92455.44, 0.0, 10.000588, 9.995602 
2.4622385e+3, 2.790307e+2, -189634.5, -584071.4, 22857.18, -0.11658619, 0.26213682, -188314.36, 17217.105, 0.0, 10.0015335, 9.996208 
2.4618447e+3, 2.8902212e+2, 6492.6665, -277611.53, 290088.13, 0.011627306, 0.4448048, 187441.98, 295062.16, 0.0, 10.0015745, 9.9975605 
2.461455e+3, 2.9901144e+2, -270554.66, -556682.25, 37573.746, 0.5035735, 0.48060003, -265702.8, -255975.6, 0.0, 9.999993, 9.996129 
2.4610426e+3, 3.089994e+2, 233278.61, 379945.1, -530099.6, 0.3074423, 0.23994018, 841759.8, 841759.8, 0.0, 10.000621, 10.002133 
2.4786232e+3, 1.1955921e+2, -1773342.9, -2093483.8, 91678.73, -0.49793226, 0.38366643, -1748947.8, 19404.807, 0.4678463, 10.001184, 9.996757 
2.4782258e+3, 1.2955025e+2, -1562658.1, -1620458.6, -58963.746, -0.35058832, 0.35624352, -1525893.0, 144555.89, 0.34520847, 10.000918, 9.999622 
2.4778311e+3, 1.3954522e+2, -1492003.8, -1437376.3, -45169.703, 0.21566091, 0.6549485, -1411904.1, 160594.16, 0.21743059, 9.999831, 10.000883 
2.4774292e+3, 1.495374e+2, -1194294.4, -955752.25, -7161.231, 0.045900445, 0.34223375, -955537.5, 519024.84, 0.109704144, 10.0000515, 10.003526 
2.4770273e+3, 1.5952894e+2, -1195269.9, -1116366.9, 57538.785, -0.18788518, -0.011697684, -1086053.6, 290578.38, 0.040704507, 10.000172, 10.001406 
2.476628e+3, 1.6952093e+2, -1285608.5, -1307503.3, 78699.72, -0.26387772, -0.046204243, -1217098.4, 61613.7, 0.00953522, 9.999764, 9.9995165 
2.476229e+3, 1.7951332e+2, -1228288.3, -1178408.5, 11408.594, -0.30363345, 0.026041998, -1175923.0, 4868.1157, 0.0011160366, 9.999197, 10.000044 
2.4758306e+3, 1.895077e+2, -912557.1, -860350.0, -38029.637, -0.11429697, 0.15476006, -840327.1, 242521.23, 0.00006263998, 10.000238, 10.001021 
2.4754322e+3, 1.9950207e+2, -764267.06, -856606.2, -30546.215, 0.07944326, 0.3102621, -755076.9, 229828.31, 0.0000000031066179, 10.001104, 9.999966 
2.4750315e+3, 2.0949343e+2, -851478.0, -933547.8, -79388.39, 0.07216357, 0.27429616, -803146.3, 83844.14, 0.0, 10.000239, 9.999163 
2.474631e+3, 2.194842e+2, -931523.8, -972857.06, -107597.016, 0.033057217, 0.23464951, -842626.6, -53545.203, 0.0, 9.999196, 9.998744 
2.4742329e+3, 2.2947621e+2, -526466.2, -735234.56, -60486.277, 0.1785847, 0.33268416, -510207.75, 180956.4, 0.0, 10.001417, 9.998578 
2.4738345e+3, 2.3946819e+2, -108857.4, -507020.53, -13560.796, 0.30543086, 0.47041652, -108396.07, 484851.56, 0.0, 10.003649, 9.998441 
2.473434e+3, 2.4945845e+2, -346666.3, -509558.38, -89028.664, 0.22635406, 0.39412922, -307449.34, 187889.83, 0.0, 10.001152, 9.998918 
2.4730341e+3, 2.5944835e+2, -682851.3, -672857.44, -154200.25, 0.14628385, 0.279906, -523573.2, -126140.52, 0.0, 9.9983225, 9.998505 
2.4726363e+3, 2.6943856e+2, -225089.34, -424540.16, -85791.375, 0.22833043, 0.2193507, -193265.08, 106264.43, 0.0, 10.000955, 9.998225 
2.4722373e+3, 2.7943006e+2, 401529.13, 78739.914, 47908.945, 0.18307033, 0.28880146, 408489.75, 610105.44, 0.0, 10.003916, 9.999613 
2.471835e+3, 2.894236e+2, 154624.52, 151494.72, 192506.81, -0.31734008, 0.35742736, 345572.78, 449250.1, 0.0, 10.000928, 10.000887 
2.47144e+3, 2.9941428e+2, -445042.0, -609247.1, 266199.34, -0.08359198, 0.29298487, -248571.58, -242804.48, 0.0, 9.99852, 9.996529 
2.4710442e+3, 3.0940115e+2, 1447340.9, 517673.22, -22520.186, 0.48783782, 0.27597198, 1447886.1, 1447886.1, 0.0, 10.010654, 9.998362 
2.4886155e+3, 1.19956836e+2, -1909408.6, -1836649.5, -95016.81, -0.50965476, 0.65524596, -1771285.9, -6817.319, 0.45571515, 9.998634, 9.999768 
2.48822e+3, 1.2994766e+2, -1600759.6, -1438564.8, -65092.28, -0.12518834, 0.30746832, -1415672.8, 250878.77, 0.33319858, 9.999158, 10.002335 
2.4878217e+3, 1.3994269e+2, -1447327.0, -1328219.4, 27193.379, 0.11141694, 0.38751784, -1322304.5, 246288.03, 0.20679392, 9.999742, 10.001861 
2.4874201e+3, 1.4993657e+2, -1305401.1, -1144576.9, -22939.422, -0.06800299, 0.32763502, -1141368.9, 329280.06, 0.10179194, 9.999826, 10.002194 
2.487019e+3, 1.5992978e+2, -1308944.3, -1184387.0, -80696.32, -0.19719906, 0.23820953, -1144731.8, 227979.9, 0.036105353, 9.999424, 10.001271 
2.4866201e+3, 1.699223e+2, -1251949.4, -1177176.5, 3172.4812, -0.21686561, 0.16731502, -1177042.1, 97742.03, 0.0076701324, 9.999509, 10.000531 
2.4862216e+3, 1.7991464e+2, -1183321.5, -1162553.1, 53209.26, -0.19933672, 0.1673426, -1118724.3, 58135.406, 0.000687035, 9.99955, 9.9999695 
2.485823e+3, 1.8990773e+2, -982889.06, -993860.0, -22607.762, -0.10922088, 0.2207335, -965110.8, 113817.766, 0.000019881356, 10.000212, 10.00009 
2.4854241e+3, 1.9990064e+2, -907701.1, -996899.6, -99721.17, 0.015680857, 0.3082974, -843060.25, 137938.81, 0.0, 10.000464, 9.999291 
2.4850231e+3, 2.0989147e+2, -859640.75, -967897.6, -89464.555, 0.023445847, 0.24299948, -809204.44, 73883.72, 0.0, 10.000366, 9.998828 
2.4846227e+3, 2.1988197e+2, -861541.6, -956709.56, 14372.744, 0.049616035, 0.21577989, -859418.4, -74237.19, 0.0, 9.999782, 9.998565 
2.4842265e+3, 2.2987425e+2, -565128.75, -692785.94, 51055.03, 0.2129034, 0.3045096, -547221.75, 140038.5, 0.0, 10.000898, 9.999121 
2.4838303e+3, 2.3986651e+2, -440051.13, -707212.44, -53186.14, 0.38122934, 0.43477118, -429852.22, 159487.39, 0.0, 10.001596, 9.998052 
2.483428e+3, 2.4985619e+2, -434942.94, -691672.8, -101240.34, 0.29651788, 0.38304257, -399823.44, 91617.82, 0.0, 10.001184, 9.997629 
2.4830267e+3, 2.598455e+2, -513140.2, -607657.7, 33891.227, 0.26003194, 0.32892615, -502243.94, -108698.39, 0.0, 9.999629, 9.998318 
2.4826314e+3, 2.6983696e+2, -242297.94, -228102.67, 141522.58, 0.43277496, 0.27225968, -93499.87, 202126.56, 0.0, 10.00001, 10.0000105 
2.4822341e+3, 2.798294e+2, -61541.74, -11502.325, 83922.76, 0.3593038, 0.28114846, 51050.88, 248748.42, 0.0, 10.0002, 10.000788 
2.481826e+3, 2.898229e+2, 282981.63, 398071.03, -80122.66, -0.5601097, 0.18801786, 439172.3, 538928.75, 0.0, 10.001137, 10.002421 
2.4814278e+3, 2.99816e+2, -174357.17, -494928.5, 66661.195, -0.5144153, 0.20779563, -161047.88, -159226.56, 0.0, 10.000553, 9.996315 
2.4810477e+3, 3.0980504e+2, 261572.23, -289907.53, 188267.89, 0.6471127, 0.4807639, 319714.5, 319714.5, 0.0, 10.003562, 9.996232 
2.4986087e+3, 1.20354265e+2, -1667303.0, -1473708.6, 25104.383, -0.35286385, 0.9469205, -1470506.3, 290077.97, 0.43991756, 9.999004, 10.003598 
2.4982138e+3, 1.3034423e+2, -1408907.1, -1066292.1, 7959.4277, 0.10179532, 0.145431, -1066107.4, 596551.9, 0.31901658, 9.999329, 10.005951 
2.4978113e+3, 1.4033976e+2, -1456533.6, -1305062.1, 35026.543, -0.17122035, 0.007407091, -1297354.8, 267331.47, 0.19536594, 9.999529, 10.002116 
2.4974106e+3, 1.5033577e+2, -1470798.9, -1490594.4, -2018.3424, -0.23411879, 0.35816443, -1470595.1, -3858.7717, 0.094030365, 9.99983, 9.999561 
2.497011e+3, 1.6033123e+2, -1269259.6, -1174084.5, -27286.822, -0.21818383, 0.7014759, -1166816.4, 201975.81, 0.032013185, 9.999763, 10.001161 
2.4966133e+3, 1.7032519e+2, -1042559.5, -822063.44, 30043.8, -0.10724277, 0.6066275, -818043.1, 452803.88, 0.0062260167, 9.99986, 10.002798 
2.4962154e+3, 1.8031828e+2, -1127656.0, -1104664.9, 64744.71, -0.04751558, 0.5057968, -1050403.1, 122506.2, 0.00043419475, 9.999798, 10.000235 
2.4958159e+3, 1.9030865e+2, -1066589.4, -1224201.4, 5238.928, -0.08856759, 0.41542265, -1066415.4, 8588.852, 0.0000058323185, 10.0004425, 9.998398 
2.495416e+3, 2.002987e+2, -855202.0, -983637.06, -94779.91, -0.12482474, 0.35346335, -804933.2, 172168.42, 0.000000000090419006, 10.000852, 9.99919 
2.4950156e+3, 2.102893e+2, -724788.7, -762452.44, -96515.55, -0.019984256, 0.17802383, -645284.94, 233901.22, 0.0, 10.000644, 10.000104 
2.4946155e+3, 2.2027993e+2, -758481.3, -875730.7, 36717.203, 0.05681883, 0.061659884, -747932.25, 33339.723, 0.0, 10.00032, 9.998848 
2.4942185e+3, 2.3027119e+2, -592111.06, -824460.3, 95041.766, 0.052181747, 0.12619077, -558187.44, 125175.22, 0.0, 10.00119, 9.998086 
2.4938211e+3, 2.4026251e+2, -338247.88, -588079.75, -52670.242, 0.03977071, 0.22771242, -327597.78, 257855.2, 0.0, 10.001956, 9.998683 
2.4934196e+3, 2.5025383e+2, -278145.66, -432697.44, -111764.16, 0.111593194, 0.19929461, -219543.69, 267993.06, 0.0, 10.001404, 9.99932 
2.4930188e+3, 2.60245e+2, -279488.44, -372398.6, 61889.473, 0.2104283, 0.18741363, -248558.89, 141062.08, 0.0, 10.000646, 9.999442 
2.4926227e+3, 2.702371e+2, -227209.64, -222527.0, 171135.94, 0.36407837, 0.18125144, -53716.37, 237979.06, 0.0, 10.000076, 10.0000305 
2.492226e+3, 2.802288e+2, -254825.38, -362271.84, 135995.75, 0.33428797, 0.18468942, -162326.08, 31448.83, 0.0, 9.999884, 9.998549 
2.491823e+3, 2.902177e+2, 51562.74, -251478.56, -85422.59, -0.2198797, 0.066029936, 73983.24, 169869.11, 0.0, 10.001784, 9.997685 
2.4914275e+3, 3.0020788e+2, 237580.95, -274090.8, -117847.805, -0.05875423, 0.11985138, 263418.84, 263418.84, 0.0, 10.003236, 9.996533 
2.4910368e+3, 3.1019983e+2, -21033.7, -23166.736, -65543.055, 0.2869398, 0.41598395, 43451.516, 43451.516, 0.0, 9.999761, 9.999923 
2.508602e+3, 1.2075317e+2, -1650589.6, -1511113.6, 141346.6, -0.18433484, 0.50294405, -1423237.4, 333416.5, 0.42027465, 9.999443, 10.002891 
2.5082052e+3, 1.3074355e+2, -1519904.0, -1260520.9, 45654.844, 0.10242409, -0.063958675, -1252719.8, 406013.1, 0.30251706, 9.999079, 10.004058 
2.5078025e+3, 1.4073905e+2, -1585527.5, -1407687.8, -11859.505, -0.14127134, -0.040441282, -1406900.4, 153865.14, 0.18302314, 9.998627, 10.001678 
2.5074026e+3, 1.5073434e+2, -1438245.1, -1399498.9, 58543.223, -0.20834434, 0.17220472, -1357206.6, 105613.77, 0.08629053, 9.999669, 10.000319 
2.5070035e+3, 1.607294e+2, -1210928.1, -1220159.5, 126031.664, -0.18679073, 0.4482319, -1089427.6, 275451.16, 0.028287582, 10.00048, 10.000491 
2.5066057e+3, 1.7072323e+2, -1048020.94, -1023342.5, 16925.986, -0.114170596, 0.49269858, -1014735.5, 252205.31, 0.0050760456, 10.000647, 10.001043 
2.5062078e+3, 1.8071617e+2, -1125274.3, -1192365.6, -104982.64, -0.02556816, 0.5146518, -1048608.0, 120401.78, 0.00028139996, 10.000244, 9.999422 
2.5058094e+3, 1.9070598e+2, -1214221.9, -1288475.3, -99235.42, 0.033296876, 0.37259197, -1145395.5, -74285.266, 0.0000014559199, 9.999504, 9.998392 
2.50541e+3, 2.0069556e+2, -1132077.9, -1116052.1, -97087.695, 0.06565545, 0.26557598, -1026647.2, -53435.57, 0.0, 9.99897, 9.999202 
2.5050086e+3, 2.106872e+2, -713142.94, -710584.1, -133945.1, 0.0075719864, 0.15400974, -577912.3, 297372.78, 0.0, 10.000595, 10.000474 
2.504608e+3, 2.2067885e+2, -600888.56, -802704.2, -56987.215, -0.020061564, 0.10849577, -585908.8, 191451.05, 0.0, 10.001458, 9.998808 
2.50421e+3, 2.3066947e+2, -758677.3, -904967.75, 63322.17, -0.0835355, 0.09003986, -735075.9, -55619.95, 0.0, 10.000068, 9.998063 
2.503812e+3, 2.4066022e+2, -809226.4, -782009.0, -19399.428, -0.120957114, 0.12935717, -771921.0, -190370.25, 0.0, 9.998585, 9.998993 
2.5034118e+3, 2.5065246e+2, -396609.34, -372544.5, -109243.81, 0.025082732, 0.09975502, -274672.47, 208951.58, 0.0, 10.000117, 10.000339 
2.5030115e+3, 2.6064485e+2, -227775.86, -339033.7, -4336.3413, 0.17824848, 0.12748082, -227607.11, 158088.13, 0.0, 10.001006, 9.999503 
2.5026146e+3, 2.7063707e+2, -204062.47, -262363.84, 48533.65, 0.26931858, 0.14540635, -176597.97, 111172.15, 0.0, 10.000487, 9.999567 
2.5022182e+3, 2.8062814e+2, -459142.25, -682519.5, 71318.0, 0.32033342, 0.17335862, -438314.44, -248457.4, 0.0, 9.999504, 9.996525 
2.501821e+3, 2.9061428e+2, -242924.69, -737049.1, 141665.33, 0.15060453, 0.02981249, -205190.83, -113192.4, 0.0, 10.001274, 9.994582 
2.501425e+3, 3.006012e+2, 69457.39, -313470.56, 149399.77, 0.14442788, 0.011557929, 120848.81, 120848.81, 0.0, 10.0019655, 9.996863 
2.501024e+3, 3.1059498e+2, -45725.766, 222603.95, 45103.746, -0.25007585, 0.19828635, 229982.58, 229982.58, 0.0, 9.998607, 10.002114 
2.5185955e+3, 1.2115239e+2, -1876484.3, -1715848.0, 108152.97, -0.052009147, -0.008795798, -1661451.4, 91264.07, 0.39734322, 9.998378, 10.001069 
2.5181952e+3, 1.3114303e+2, -1753105.8, -1619104.8, 30437.238, 0.007039971, -0.25435534, -1612515.3, 42289.426, 0.28406283, 9.998737, 10.000653 
2.5177947e+3, 1.4113833e+2, -1596332.1, -1421660.9, 14267.246, -0.0627087, -0.0018529524, -1420503.3, 136345.11, 0.16993596, 9.998661, 10.0014925 
2.5173953e+3, 1.5113205e+2, -1263991.1, -1077521.6, 80851.16, -0.15283704, -0.12611133, -1047348.0, 411560.0, 0.078587286, 9.999874, 10.0025835 
2.5169963e+3, 1.6112544e+2, -1274362.1, -1404043.8, 97198.0, -0.22198263, -0.13410994, -1222362.1, 138612.16, 0.024857625, 10.000704, 9.99909 
2.5165975e+3, 1.7111808e+2, -1281040.8, -1546455.3, 20010.0, -0.22068824, 0.11741251, -1279540.6, -16482.69, 0.0041356636, 10.000811, 9.997366 
2.5161994e+3, 1.8111005e+2, -1140641.6, -1276372.4, -111237.914, -0.15461542, 0.32943818, -1078201.3, 86944.85, 0.00018434241, 10.000463, 9.998731 
2.515803e+3, 1.9110039e+2, -1084930.1, -1086411.0, -105809.44, 0.2279107, 0.15874569, -979858.56, 87382.86, 0.00000026313862, 9.999759, 9.999666 
2.5154054e+3, 2.0109107e+2, -1043337.75, -1018354.06, -60736.203, 0.44580054, 0.05990877, -968838.4, 493.36575, 0.0, 9.99934, 9.999688 
2.515002e+3, 2.1108481e+2, -698086.8, -762102.1, -58383.73, 0.055496696, 0.20094733, -663512.56, 207876.8, 0.0, 10.000935, 9.999976 
2.5145996e+3, 2.2107817e+2, -450254.72, -640416.25, -66485.38, -0.26838875, 0.34643513, -429315.4, 344135.75, 0.0, 10.002047, 9.999659 
2.5142017e+3, 2.3106922e+2, -639700.9, -681235.25, -18752.621, -0.15571423, 0.24638346, -632487.06, 43052.23, 0.0, 10.000115, 9.999601 
2.5138038e+3, 2.4106035e+2, -733553.7, -655746.75, -4737.6006, -0.02897037, 0.19266959, -655459.3, -77832.53, 0.0, 9.998676, 9.999816 
2.5134045e+3, 2.510524e+2, -368854.72, -385494.3, -34342.824, 0.08223173, 0.15184723, -341838.3, 137864.16, 0.0, 10.000355, 10.000168 
2.5130057e+3, 2.6104456e+2, -161770.92, -380265.9, -14949.302, 0.19218402, 0.18936561, -160752.84, 221024.98, 0.0, 10.001713, 9.9988985 
2.512608e+3, 2.710366e+2, -256231.97, -441229.8, -30984.37, 0.30382195, 0.31930283, -251180.48, 32679.04, 0.0, 10.000727, 9.998262 
2.5122106e+3, 2.8102776e+2, -226153.48, -354092.4, 70180.81, 0.33842763, 0.3939769, -195162.75, -9214.679, 0.0, 10.000103, 9.998504 
2.5118142e+3, 2.910159e+2, 95334.414, -152200.42, 275103.75, 0.1233516, 0.106794365, 273229.8, 361289.4, 0.0, 10.001667, 9.998449 
2.511419e+3, 3.0100518e+2, 230891.48, -88661.29, 252942.77, 0.079490766, 0.018078363, 370294.88, 370294.88, 0.0, 10.002357, 9.9982395 
2.511019e+3, 3.1099945e+2, -28298.723, 36924.848, 49465.98, 0.11150722, 0.35804033, 63561.793, 63561.793, 0.0, 9.999423, 10.000492 
2.5285846e+3, 1.2155561e+2, -2097043.3, -1918549.9, -95261.97, -0.1148077, 0.14944369, -1877260.0, -128495.05, 0.3720952, 9.99728, 9.999894 
2.528187e+3, 1.3154513e+2, -1943018.3, -1861876.6, -2906.261, 0.13276908, -0.08685223, -1861772.8, -210903.89, 0.26429757, 9.998072, 9.999228 
2.5277862e+3, 1.4153874e+2, -1657395.4, -1551999.0, 39463.65, 0.014011663, 0.12363063, -1538860.4, 14070.001, 0.15642525, 9.998808, 10.000334 
2.527387e+3, 1.5153085e+2, -1345932.0, -1257342.8, -25628.637, -0.18687975, -0.039322387, -1250462.8, 204540.56, 0.071005836, 9.999974, 10.001166 
2.5269887e+3, 1.6152284e+2, -1268836.1, -1395558.4, -126055.11, -0.26408428, -0.10774408, -1191113.9, 165965.5, 0.021693112, 10.000757, 9.999128 
2.526591e+3, 1.7151494e+2, -1295560.1, -1454892.8, -50776.52, -0.15157516, 0.0051821335, -1280754.3, -21591.354, 0.00335279, 10.000382, 9.998189 
2.526193e+3, 1.8150699e+2, -1192657.5, -1252717.6, 7780.221, -0.016672, 0.16402254, -1191666.0, -30419.088, 0.00011963712, 9.999864, 9.999197 
2.5257942e+3, 1.9149862e+2, -1006134.56, -1009514.56, -3787.4414, 0.15558356, 0.08424727, -1003677.1, 59652.11, 0.00000002568285, 10.000076, 10.000056 
2.5253955e+3, 2.0149024e+2, -935500.7, -1036540.56, 54702.508, 0.28726432, 0.0742336, -911558.4, 53852.832, 0.0, 10.000356, 9.999081 
2.5249952e+3, 2.1148239e+2, -708471.5, -891954.56, 44299.832, 0.035191935, 0.14261387, -698335.75, 169152.03, 0.0, 10.001353, 9.998891 
2.5245944e+3, 2.2147493e+2, -554491.4, -692844.6, -77284.15, -0.19516651, 0.28163072, -519946.06, 249614.73, 0.0, 10.001398, 9.999591 
2.5241935e+3, 2.3146734e+2, -691088.25, -622024.3, -138172.39, -0.14636806, 0.23894376, -514134.13, 157501.25, 0.0, 9.999438, 10.000324 
2.5237942e+3, 2.414594e+2, -845655.94, -687562.1, -56394.707, -0.034813937, 0.22039638, -669507.2, -95794.77, 0.0, 9.997887, 9.999963 
2.5233972e+3, 2.5145116e+2, -434281.03, -415368.3, -8161.163, 0.105139695, 0.12960002, -412333.6, 63456.043, 0.0, 9.999984, 10.000115 
2.5229996e+3, 2.6144293e+2, -275984.22, -577299.6, -41546.605, 0.2335515, 0.17360653, -270360.56, 107509.234, 0.0, 10.001596, 9.997586 
2.5226012e+3, 2.7143428e+2, -189174.8, -573802.1, -97297.13, 0.3136404, 0.3564229, -165962.88, 114000.445, 0.0, 10.001949, 9.996728 
2.5222033e+3, 2.8142518e+2, 45513.945, -70372.66, 11923.476, 0.28498673, 0.4618127, 46728.023, 228784.66, 0.0, 10.00138, 9.999828 
2.5218064e+3, 2.914157e+2, 46887.973, 200639.53, 134352.31, -0.03320629, 0.09348259, 278555.3, 362693.13, 0.0, 9.999781, 10.001764 
2.521412e+3, 3.014083e+2, -272130.3, -284559.6, -26136.477, 0.03875458, 0.07081311, -251479.78, -251479.78, 0.0, 9.998787, 9.998594 
2.5210112e+3, 3.113998e+2, -22125.072, -114218.61, -97223.0, 0.10102242, 0.18620639, 39404.254, 39404.254, 0.0, 10.000317, 9.9989605 
2.5385743e+3, 1.2195911e+2, -2049082.9, -2031338.6, -119050.72, -0.13898034, 0.43795854, -1920830.0, -176011.23, 0.34545994, 9.998226, 9.998645 
2.5381792e+3, 1.3194767e+2, -1782398.6, -1860685.5, 41412.95, 0.2947592, 0.17665756, -1764557.5, -117624.1, 0.24384509, 9.999508, 9.998529 
2.5377777e+3, 1.419391e+2, -1654187.5, -1766840.8, 81409.0, -0.011093517, 0.28099653, -1611518.6, -62502.098, 0.14280653, 9.999832, 9.998322 
2.5373787e+3, 1.5192963e+2, -1448740.0, -1593549.5, 56272.82, -0.29882854, 0.2257512, -1429443.8, 21662.818, 0.06363834, 10.000541, 9.998466 
2.536981e+3, 1.6192047e+2, -1163474.4, -1207596.9, -86586.78, -0.38383156, 0.18816864, -1096182.5, 257009.98, 0.0187796, 10.0008955, 10.000355 
2.5365853e+3, 1.7191237e+2, -1064994.9, -993757.06, -55616.523, -0.013393956, 0.0029540136, -963331.25, 291934.13, 0.0026956536, 10.000418, 10.001352 
2.5361872e+3, 1.8190505e+2, -1086938.9, -1062088.1, -12343.085, 0.16499136, -0.027954996, -1056999.4, 100333.39, 0.00007576087, 10.000007, 10.000418 
2.5357834e+3, 1.9189928e+2, -955158.8, -979862.06, -10632.337, -0.19996467, 0.13573684, -951212.94, 108176.51, 0.00000000011876218, 10.000395, 10.000105 
2.535382e+3, 2.0189175e+2, -932193.06, -1115327.8, 81306.35, -0.3790114, 0.23714487, -901305.06, 60158.67, 0.0, 10.00071, 9.998359 
2.5349888e+3, 2.1187943e+2, -735303.7, -1037167.56, 93275.33, -0.0030645924, -0.02228292, -708807.5, 154777.75, 0.0, 10.001712, 9.99772 
2.5345922e+3, 2.2186872e+2, -496621.97, -691064.4, -127363.945, 0.18378334, -0.12338741, -433613.56, 332077.84, 0.0, 10.001871, 9.999377 
2.5341856e+3, 2.318629e+2, -665694.2, -630777.1, -221418.06, -0.10054454, 0.043122973, -426130.38, 241621.48, 0.0, 9.999647, 10.000187 
2.5337827e+3, 2.4185641e+2, -748270.06, -592680.2, -30614.041, -0.23925206, 0.16470903, -586873.25, -17057.3, 0.0, 9.998284, 10.000436 
2.5333896e+3, 2.518478e+2, -354457.0, -326582.97, 74390.6, 0.09946722, 0.0025636847, -264835.1, 207057.53, 0.0, 10.000278, 10.000599 
2.532995e+3, 2.6183838e+2, -242964.11, -657515.1, -2649.9907, 0.3290684, -0.0667944, -242947.17, 131034.41, 0.0, 10.002193, 9.996757 
2.5325954e+3, 2.7182662e+2, -164817.67, -747001.44, -82002.84, 0.24501754, -0.02776476, -153487.75, 122619.71, 0.0, 10.002845, 9.995134 
2.532196e+3, 2.8181627e+2, 202415.55, 13727.119, -73936.46, 0.100118294, 0.044285115, 227935.55, 406151.66, 0.0, 10.002406, 9.9999 
2.5317967e+3, 2.9181036e+2, -40226.613, 176738.55, -65217.477, -0.16014977, 0.028519927, 194833.17, 275100.22, 0.0, 9.99907, 10.001964 
2.531402e+3, 3.0180418e+2, -367378.28, -230932.11, -82679.23, 0.037328117, 0.086761534, -191962.64, -191962.64, 0.0, 9.997655, 9.999535 
2.5310093e+3, 3.117942e+2, 414727.4, 239876.73, -31837.055, 0.5137882, -0.036696535, 420343.9, 420343.9, 0.0, 10.002567, 10.000394 
2.5485685e+3, 1.2235825e+2, -1753935.3, -1872417.4, 93048.52, 0.08431938, 0.42370862, -1702869.8, 38034.023, 0.31815657, 10.000381, 9.998658 
2.5481725e+3, 1.3234621e+2, -1494196.0, -1815714.9, -12741.954, 0.30218646, 0.17965473, -1493691.8, 149334.47, 0.22319712, 10.002313, 9.997451 
2.5477716e+3, 1.42336e+2, -1225583.0, -1555908.4, 15415.452, 0.010003533, 0.18207633, -1224865.1, 320261.25, 0.12934339, 10.003121, 9.998222 
2.5473732e+3, 1.5232734e+2, -1258850.0, -1506460.8, 77825.63, -0.20073013, 0.20438156, -1236420.6, 210786.34, 0.05657354, 10.001883, 9.998484 
2.5469747e+3, 1.6231863e+2, -1258460.0, -1274767.6, -3333.5352, -0.25269806, 0.23108089, -1257805.0, 91482.625, 0.016116831, 10.000314, 10.00016 
2.546577e+3, 1.7230979e+2, -1244696.8, -1130213.3, -131456.73, -0.0344052, -0.0026496924, -1044076.1, 207291.9, 0.0021455006, 9.999368, 10.000917 
2.546178e+3, 1.8230158e+2, -1282954.1, -1275125.6, -164494.92, 0.076729804, -0.0697005, -1114498.4, 38945.81, 0.000046550977, 9.999193, 9.99935 
2.5457758e+3, 1.9229496e+2, -880200.5, -1075081.5, -233332.72, -0.23723105, 0.09448663, -724779.7, 330731.6, 0.0, 10.001505, 9.998917 
2.5453758e+3, 2.0228724e+2, -719027.6, -1024013.56, -237132.95, -0.37840763, 0.2292489, -589587.75, 368000.6, 0.0, 10.002271, 9.998222 
2.5449818e+3, 2.1227548e+2, -1091996.6, -1179328.1, -166364.63, 0.04682832, -0.03790616, -963662.7, -103959.61, 0.0, 9.999175, 9.997958 
2.5445852e+3, 2.2226472e+2, -1146942.3, -1004422.2, -270813.4, 0.3098462, -0.17068341, -795650.25, -33841.805, 0.0, 9.997453, 9.999356 
2.5441778e+3, 2.3225848e+2, -684987.6, -643535.8, -326581.94, -0.06843939, -0.06566666, -337022.78, 326849.06, 0.0, 9.999606, 10.000098 
2.5437745e+3, 2.4225219e+2, -375667.13, -469579.44, -80398.54, -0.25575787, 0.093896575, -329516.88, 236416.81, 0.0, 10.001157, 9.999881 
2.543383e+3, 2.5224397e+2, -136634.23, -272255.9, -28622.293, 0.11812468, -0.012315629, -130841.09, 337166.25, 0.0, 10.002029, 10.000112 
2.5429899e+3, 2.62234e+2, -263111.5, -690252.7, -155809.64, 0.35867593, -0.107354015, -212316.73, 157784.33, 0.0, 10.002195, 9.996526 
2.5425893e+3, 2.7222034e+2, -412821.5, -850636.0, -74536.94, 0.17232782, -0.30052724, -400479.66, -128237.12, 0.0, 10.001109, 9.995253 
2.542189e+3, 2.822098e+2, -180743.73, -239560.02, -28038.46, 0.000334912, -0.22399609, -169519.45, 4832.8687, 0.0, 10.000122, 9.999251 
2.5417882e+3, 2.9220665e+2, 41201.254, 126497.26, -113288.71, -0.17134579, 0.10014991, 204899.6, 281282.4, 0.0, 10.000095, 10.00109 
2.5413927e+3, 3.0219895e+2, -67398.02, -87614.83, -31295.758, 0.032237574, 0.08284873, -44618.67, -44618.67, 0.0, 9.999793, 9.999475 
2.541006e+3, 3.1218663e+2, 179902.8, 400743.34, 24595.229, 0.71011734, -0.38317794, 403449.38, 403449.38, 0.0, 9.999851, 10.002794 
2.5585586e+3, 1.22754864e+2, -1746601.1, -2086441.6, -378.87973, -0.2678045, 0.27949053, -1746600.8, -9589.905, 0.29081753, 10.001308, 9.996722 
2.558167e+3, 1.3274258e+2, -1491110.6, -1909399.5, 38313.5, 0.22436461, 0.09907398, -1487630.3, 151506.98, 0.2027681, 10.002719, 9.996621 
2.557767e+3, 1.4273123e+2, -1175752.8, -1429687.8, -9027.91, -0.05240649, 0.004340942, -1175432.1, 365816.66, 0.11625642, 10.003002, 9.999223 
2.557369e+3, 1.5272453e+2, -1199893.9, -1308925.6, 28827.428, -0.05506682, 0.06752972, -1192741.3, 250565.42, 0.04988728, 10.001568, 10.000008 
2.5569695e+3, 1.6271682e+2, -1345836.1, -1462232.4, -56533.445, -0.08353095, 0.15329568, -1322898.3, 22478.615, 0.013707004, 10.000332, 9.998864 
2.5565672e+3, 1.7270666e+2, -1310589.4, -1407966.0, -146764.97, -0.19329593, 0.009238888, -1204647.5, 42829.35, 0.0016894786, 9.999969, 9.99873 
2.556167e+3, 1.8269646e+2, -1294352.9, -1494233.1, -80111.71, -0.20805158, -0.043565564, -1266207.4, -116628.33, 0.000027889511, 10.000032, 9.997431 
2.5557724e+3, 1.9268635e+2, -954460.0, -1323106.1, -104065.07, -0.0096990075, -0.030697232, -927112.25, 124572.56, 0.0, 10.00191, 9.997014 
2.555375e+3, 2.0267755e+2, -609205.75, -853569.0, -289186.38, 0.10334642, 0.07751304, -417449.3, 536325.7, 0.0, 10.002494, 9.99929 
2.554974e+3, 2.1267085e+2, -930569.1, -896679.5, -273473.06, 0.09411252, 0.1517358, -639626.8, 216211.48, 0.0, 9.999357, 9.999826 
2.5545728e+3, 2.2266316e+2, -1046280.9, -859685.56, -227349.53, 0.08038674, 0.17260489, -707234.9, 50675.684, 0.0, 9.997706, 10.000229 
2.5541705e+3, 2.3265415e+2, -597573.94, -582485.3, -221274.13, -0.0078626005, -0.013320686, -368626.9, 291368.16, 0.0, 10.000102, 10.000286 
2.5537708e+3, 2.4264596e+2, -305238.78, -570965.94, -29535.746, -0.035698697, -0.011220555, -301995.47, 260079.13, 0.0, 10.002176, 9.998705 
2.553378e+3, 2.5263882e+2, -165058.7, -502276.72, -31478.23, 0.12898178, 0.18338351, -162145.48, 302003.53, 0.0, 10.002713, 9.998222 
2.5529835e+3, 2.6263046e+2, 7625.4707, -225486.45, -233911.9, 0.23686285, 0.25180236, 152412.33, 518644.06, 0.0, 10.00256, 9.999564 
2.5525826e+3, 2.726196e+2, -138855.39, -228727.39, -121577.41, 0.19632383, -0.0679937, -54175.387, 214157.16, 0.0, 10.000823, 9.999694 
2.5521827e+3, 2.8261054e+2, -255909.33, -372825.38, 48148.55, 0.15757887, -0.09176553, -238633.45, -68212.6, 0.0, 9.999959, 9.998434 
2.551784e+3, 2.9260507e+2, 6199.087, -238830.89, -46489.652, 0.098972455, 0.3005316, 14723.0625, 87205.99, 0.0, 10.001281, 9.998042 
2.551388e+3, 3.0259478e+2, 176320.58, -53843.63, -82318.15, 0.23795646, 0.23389968, 202731.13, 202731.13, 0.0, 10.001745, 9.998798 
2.5509888e+3, 3.1258047e+2, -76661.75, 87643.125, -148739.95, -0.11981667, -0.35860965, 175410.06, 175410.06, 0.0, 9.998777, 10.001198 
2.5685546e+3, 1.2314627e+2, -1436004.5, -1676841.5, -113157.08, -0.17875782, -0.05078167, -1391180.3, 341994.1, 0.26403108, 10.003157, 9.99883 
2.5681615e+3, 1.3313848e+2, -1396075.8, -1740677.9, -15391.09, 0.18890889, 0.104867704, -1395389.6, 239866.47, 0.18292536, 10.002978, 9.997696 
2.5677615e+3, 1.4312895e+2, -1216004.0, -1377639.9, -80120.74, -0.08381604, 0.09632819, -1183020.0, 354329.66, 0.1037245, 10.002263, 9.999973 
2.5673607e+3, 1.5312165e+2, -1326739.0, -1352318.9, -124879.39, -0.1461147, 0.038665883, -1213996.4, 225416.42, 0.043632858, 10.000492, 10.00024 
2.566961e+3, 1.6311346e+2, -1451448.8, -1570655.6, -117828.34, -0.1365264, 0.07233128, -1379006.4, -37517.914, 0.011545959, 9.999892, 9.998299 
2.5665608e+3, 1.7310339e+2, -1059216.9, -1391229.0, -139060.61, -0.14635332, 0.006180377, -1008668.44, 234923.34, 0.0013158798, 10.002191, 9.997741 
2.5661618e+3, 1.8309332e+2, -801129.1, -1212914.4, 3570.7593, -0.12349688, 0.0136662265, -801098.1, 344596.3, 0.000016496271, 10.003263, 9.997804 
2.565767e+3, 1.9308329e+2, -949420.44, -1270795.8, 121005.33, 0.032401122, -0.020860665, -908954.4, 138841.58, 0.0, 10.001717, 9.997493 
2.5653693e+3, 2.0307432e+2, -813138.75, -907741.56, -657.9236, 0.14201473, 0.06618567, -813134.2, 136751.36, 0.0, 10.000951, 9.9996605 
2.564966e+3, 2.1306807e+2, -527894.75, -669424.0, -100617.85, 0.022728229, 0.179661, -475648.84, 376296.06, 0.0, 10.002031, 10.000095 
2.5645638e+3, 2.2306073e+2, -382071.7, -603017.2, -89280.805, -0.027306108, 0.26160562, -350504.7, 403509.28, 0.0, 10.002566, 9.999637 
2.5641638e+3, 2.3305048e+2, -351911.66, -551104.94, -135162.75, 0.026368814, 0.0140719665, -283614.1, 372496.1, 0.0, 10.002177, 9.9994955 
2.5637662e+3, 2.4304116e+2, -473095.97, -711292.2, 14408.008, 0.08524565, -0.019106714, -472227.63, 85973.66, 0.0, 10.001341, 9.998117 
2.563372e+3, 2.5303388e+2, -684051.75, -823070.6, 106119.0, 0.100973524, 0.20886235, -626703.75, -166422.05, 0.0, 9.9994955, 9.99756 
2.562976e+3, 2.6302674e+2, -454966.1, -268806.75, -90151.45, 0.1654912, 0.39738724, -232305.89, 130049.33, 0.0, 9.998687, 10.001088 
2.5625753e+3, 2.7301887e+2, -100948.18, 46183.715, -190176.6, 0.2352938, 0.14756526, 176527.28, 440949.22, 0.0, 10.00004, 10.001929 
2.562176e+3, 2.8301027e+2, -232684.3, -513128.44, -84662.26, 0.25537556, 0.08376821, -209107.94, -42605.22, 0.0, 10.000801, 9.99706 
2.561779e+3, 2.9300132e+2, -160763.64, -584172.9, -39580.563, 0.22393316, 0.31150085, -157095.4, -88491.42, 0.0, 10.001308, 9.995642 
2.5613835e+3, 3.0299097e+2, 17420.941, -237295.6, -124169.72, 0.3845819, 0.42612597, 67934.11, 67934.11, 0.0, 10.001205, 9.997744 
2.560979e+3, 3.1298172e+2, -154675.27, 45415.26, -149140.4, -0.24308637, 0.36690292, 124958.18, 124958.18, 0.0, 9.998422, 10.001004 
2.5785494e+3, 1.235387e+2, -1561296.4, -1706582.1, -91918.5, -0.2491578, -0.18457514, -1516781.3, 212547.83, 0.23823552, 10.001716, 9.999245 
2.578156e+3, 1.3353445e+2, -1472890.9, -1582236.3, 51003.0, 0.11290356, 0.13841775, -1452794.6, 178580.66, 0.16394834, 10.001378, 9.999581 
2.5777552e+3, 1.4352743e+2, -1374736.8, -1418630.4, -71184.31, -0.15608032, 0.2624837, -1322192.9, 211251.13, 0.09188186, 10.000888, 10.0002985 
2.5773516e+3, 1.5351826e+2, -1318194.9, -1347426.6, -125036.83, -0.36462942, 0.035245016, -1206922.6, 228603.33, 0.03784501, 10.000551, 10.000245 
2.5769514e+3, 1.6350915e+2, -1373596.1, -1542427.5, -22917.64, -0.34554178, -0.01050065, -1370540.5, -32927.477, 0.009625426, 10.000502, 9.998179 
2.576557e+3, 1.7349988e+2, -1067517.8, -1405600.9, -11502.009, 0.0047917673, 0.025585752, -1067126.9, 172584.63, 0.0010124295, 10.002185, 9.997635 
2.5761598e+3, 1.834915e+2, -685195.2, -900609.1, -16962.633, 0.10920607, 0.117040634, -683867.6, 457928.47, 0.000009793076, 10.002963, 10.00008 
2.5757593e+3, 1.9348453e+2, -770780.7, -884067.3, 79799.85, -0.14070524, 0.1420744, -729564.5, 314293.34, 0.0, 10.001639, 10.000182 
2.5753587e+3, 2.0347628e+2, -810146.9, -964339.44, 21994.26, -0.24633497, 0.15722874, -807070.94, 138863.55, 0.0, 10.001176, 9.999174 
2.574959e+3, 2.1346629e+2, -548422.8, -829504.0, -32554.871, -0.1300853, 0.032098603, -544701.56, 303329.88, 0.0, 10.002491, 9.998792 
2.5745586e+3, 2.2345671e+2, -388908.72, -771897.0, -78054.05, -0.063324265, 0.026583226, -373612.06, 376513.22, 0.0, 10.003198, 9.998162 
2.574158e+3, 2.334473e+2, -375064.22, -751328.9, -133167.0, -0.04573025, 0.039311636, -332703.1, 319515.28, 0.0, 10.002772, 9.997841 
2.5737593e+3, 2.4343811e+2, -315548.47, -452437.38, -36671.367, 0.000009445527, 0.046583083, -306343.5, 247965.38, 0.0, 10.001596, 9.999783 
2.5733632e+3, 2.5342953e+2, -560319.56, -520300.2, 71555.05, 0.08474344, -0.050089028, -466009.72, -9616.036, 0.0, 9.999237, 9.999789 
2.5729662e+3, 2.6342177e+2, -623102.56, -553182.06, 2294.0342, 0.1472823, 0.026553404, -553106.9, -194635.0, 0.0, 9.998367, 9.999289 
2.5725675e+3, 2.7341497e+2, -272095.03, -365734.75, -132730.95, 0.196341, 0.18233867, -178168.3, 82374.086, 0.0, 10.000228, 9.999025 
2.5721693e+3, 2.834063e+2, -85829.46, -399830.56, -107027.47, 0.20795311, 0.26098073, -52819.348, 109811.234, 0.0, 10.0015745, 9.997473 
2.5717723e+3, 2.9339495e+2, -709.26605, -393663.75, -31588.006, 0.1816173, 0.16333914, 1813.765, 66559.21, 0.0, 10.001848, 9.996713 
2.5713754e+3, 3.0338433e+2, -415.7752, -228946.89, -141559.61, 0.2496862, 0.17690322, 67241.016, 67241.016, 0.0, 10.0009575, 9.997933 
2.570975e+3, 3.1337464e+2, -55685.035, 179701.44, -194509.25, 0.28197905, 0.12430873, 289352.75, 289352.75, 0.0, 9.9986105, 10.001871 
2.5885448e+3, 1.23939395e+2, -1750304.6, -1657443.6, 127106.29, 0.044035222, 0.002586935, -1568553.0, 156854.36, 0.2137318, 9.999304, 10.000861 
2.5881463e+3, 1.3393475e+2, -1828315.1, -1636161.3, 130732.88, -0.0099673215, 0.15399615, -1569998.1, 57451.664, 0.14603192, 9.998101, 10.000806 
2.5877464e+3, 1.4392681e+2, -1814761.4, -1695678.0, 91583.93, -0.14882894, 0.15519394, -1645982.1, -116458.11, 0.080827504, 9.998087, 9.999648 
2.5873455e+3, 1.5391684e+2, -1323167.0, -1454318.8, 7855.6987, -0.24483067, -0.04990208, -1322698.1, 108918.21, 0.032553293, 10.001013, 9.999235 
2.5869462e+3, 1.6390748e+2, -1160730.1, -1477516.1, 54842.38, -0.23271574, -0.04171416, -1151504.4, 182203.81, 0.007938516, 10.002147, 9.997822 
2.58655e+3, 1.7389907e+2, -1350082.1, -1582510.5, 49998.605, -0.03140697, 0.10394456, -1339783.0, -103983.08, 0.00076767127, 10.000419, 9.997281 
2.5861523e+3, 1.8389082e+2, -1198307.0, -1149527.0, -8561.234, 0.037001528, 0.23488753, -1148068.1, -10185.18, 0.000005913737, 9.99945, 10.000053 
2.585751e+3, 1.9388297e+2, -1138448.6, -1057101.9, -81930.66, -0.17110287, 0.15205953, -1006304.2, 33647.254, 0.0, 9.999129, 10.000177 
2.5853515e+3, 2.0387423e+2, -1092459.9, -1122479.5, -141599.66, -0.23168284, 0.10954152, -965076.7, -23046.393, 0.0, 9.999362, 9.998952 
2.584953e+3, 2.1386354e+2, -907918.1, -1040598.3, -110843.84, -0.053588472, -0.09764284, -845078.6, -946.3348, 0.0, 10.000184, 9.998455 
2.5845534e+3, 2.2385353e+2, -764182.5, -975738.0, -85007.65, 0.008101227, -0.11906834, -734257.5, 11972.71, 0.0, 10.00081, 9.997895 
2.5841516e+3, 2.3384468e+2, -682985.6, -940404.56, -44538.176, -0.10342891, -0.024402853, -675497.5, -27177.121, 0.0, 10.000921, 9.997419 
2.5837517e+3, 2.4383593e+2, -409355.03, -428323.7, 25128.234, -0.08494731, 0.03731218, -391980.8, 158426.2, 0.0, 10.000696, 10.000362 
2.5833544e+3, 2.5382704e+2, -472081.88, -397652.63, -9490.256, 0.063616954, -0.17747818, -396461.6, 56029.203, 0.0, 9.999547, 10.0004635 
2.582957e+3, 2.6381862e+2, -607267.06, -719074.7, 10854.362, 0.13162725, -0.13795298, -606223.06, -251647.83, 0.0, 9.999248, 9.997729 
2.582559e+3, 2.7381146e+2, -381057.4, -637705.8, 33074.84, 0.096900575, 0.14525336, -376863.5, -120206.375, 0.0, 10.000485, 9.99701 
2.582162e+3, 2.8380287e+2, -113666.98, -318248.63, 84621.81, 0.12556392, 0.3322947, -83201.39, 75545.82, 0.0, 10.001021, 9.99828 
2.581766e+3, 2.93791e+2, -189036.58, -346988.63, 134876.55, 0.15765151, 0.052866764, -111715.14, -50854.637, 0.0, 10.000005, 9.99791 
2.581366e+3, 3.037795e+2, -301701.88, -343507.06, -65591.16, 0.055767525, -0.08287416, -253763.22, -253763.22, 0.0, 9.998786, 9.998187 
2.5809637e+3, 3.137726e+2, -253106.33, 77959.33, -84954.52, 0.072347425, 0.14968611, 98486.67, 98486.67, 0.0, 9.997344, 10.001784 
2.5985363e+3, 1.24343626e+2, -1671724.6, -1529301.6, 68368.29, -0.01534793, 0.3858763, -1501794.9, 219655.73, 0.19077101, 9.999419, 10.001806 
2.5981352e+3, 1.3433601e+2, -1652598.9, -1469485.5, 24453.635, -0.16279805, 0.16102397, -1466276.1, 157237.95, 0.12932456, 9.998901, 10.001677 
2.597737e+3, 1.4432617e+2, -1761157.4, -1777587.3, 117626.69, -0.1506647, -0.031096384, -1651459.1, -125856.016, 0.07062259, 9.99894, 9.9986725 
2.5973412e+3, 1.5431587e+2, -1423244.0, -1629719.5, 106419.93, -0.01623345, -0.15072292, -1378214.3, 49486.87, 0.027766839, 10.00086, 9.998103 
2.5969425e+3, 1.6430682e+2, -1236987.0, -1530594.0, 8243.02, -0.059349332, -0.040191945, -1236755.8, 93036.336, 0.0064744665, 10.001684, 9.99768 
2.5965407e+3, 1.7429939e+2, -1338294.3, -1581500.1, 19534.1, -0.25387287, 0.21946122, -1336735.3, -104861.16, 0.0005723583, 10.000492, 9.997263 
2.5961414e+3, 1.8429017e+2, -1265650.6, -1344381.9, -1075.3147, -0.26589411, 0.3191325, -1265635.9, -131668.22, 0.0000035552432, 9.999685, 9.998603 
2.5957435e+3, 1.9427861e+2, -1203534.9, -1284304.9, -56101.04, -0.093647406, 0.051903896, -1174794.9, -138718.72, 0.0, 9.999502, 9.998449 
2.595346e+3, 2.0426849e+2, -971167.1, -963113.3, -92482.66, 0.049275927, -0.07668543, -874569.94, 63599.484, 0.0, 9.99975, 9.999865 
2.594948e+3, 2.142599e+2, -757168.9, -848940.1, -57306.156, 0.19108853, -0.16006607, -729641.4, 110605.35, 0.0, 10.000664, 9.999565 
2.5945482e+3, 2.242513e+2, -596845.94, -712582.1, -69468.35, 0.14733365, -0.17558381, -564300.7, 178027.48, 0.0, 10.001155, 9.999534 
2.5941446e+3, 2.3424271e+2, -510714.78, -677530.56, -4007.64, -0.13619791, -0.20248169, -510618.53, 133795.94, 0.0, 10.001286, 9.999057 
2.5937438e+3, 2.4423459e+2, -445011.25, -585304.6, 18993.303, -0.20004907, -0.111479126, -442485.34, 104010.75, 0.0, 10.000999, 9.999153 
2.5933462e+3, 2.5422698e+2, -512751.94, -598587.44, -39626.81, 0.020326523, -0.018338237, -497255.5, -48683.45, 0.0, 9.999986, 9.998891 
2.5929487e+3, 2.6421857e+2, -430721.28, -499908.8, 54569.28, 0.08918739, 0.0473555, -400704.4, -50048.2, 0.0, 9.999876, 9.998924 
2.5925514e+3, 2.7420926e+2, -181649.56, -376424.2, 125167.57, 0.0022694902, 0.001159957, -120445.55, 132304.66, 0.0, 10.0011, 9.998522 
2.592154e+3, 2.842004e+2, -7356.3467, -128402.63, 103863.02, -0.015591678, 0.02657048, 52331.07, 207169.5, 0.0, 10.001148, 9.999519 
2.591756e+3, 2.9419157e+2, -192006.73, -218085.66, 127547.44, 0.0038753622, -0.035409234, -76833.96, -19909.83, 0.0, 9.999392, 9.999099 
2.5913584e+3, 3.041823e+2, -372870.78, -378878.66, -51655.344, 0.27679884, -0.010628816, -324132.1, -324132.1, 0.0, 9.998248, 9.998221 
2.5909558e+3, 3.1416982e+2, -149373.55, 211761.4, 326498.94, 0.32884508, -0.2991647, 404297.34, 404297.34, 0.0, 9.997641, 10.002569 
2.6085263e+3, 1.24740526e+2, -1699597.3, -1745739.5, -84689.08, -0.24513789, 0.27463686, -1634893.0, 82662.85, 0.16949522, 10.000257, 9.999659 
2.6081276e+3, 1.347331e+2, -1423836.4, -1508111.4, -149547.48, -0.17178938, 0.20592745, -1310603.4, 309021.8, 0.11391173, 10.001382, 10.000156 
2.60773e+3, 1.4472389e+2, -1390943.5, -1515063.8, -83893.8, -0.11415808, 0.09468784, -1348650.3, 173059.67, 0.061296463, 10.00118, 9.9994 
2.607334e+3, 1.5471384e+2, -1519792.5, -1599758.5, -34276.5, 0.00004673927, -0.1092138, -1507111.3, -83309.125, 0.023481611, 9.999838, 9.998802 
2.6069352e+3, 1.6470526e+2, -1461747.6, -1494994.1, -52659.76, -0.024375733, -0.06101313, -1423149.6, -97265.23, 0.005220199, 9.999469, 9.99904 
2.6065338e+3, 1.7469837e+2, -1362482.3, -1461334.4, 11411.031, -0.1878126, 0.117604956, -1361182.1, -133226.78, 0.00041937284, 9.999735, 9.998491 
2.6061338e+3, 1.846888e+2, -1214725.0, -1373571.0, 105487.27, -0.21724468, 0.1448681, -1162104.1, -32053.89, 0.0000020172258, 10.000247, 9.998146 
2.6057363e+3, 1.9467609e+2, -1079667.9, -1313895.0, 108523.195, -0.066534944, -0.17159928, -1037116.56, -4943.364, 0.0, 10.0007305, 9.997666 
2.6053387e+3, 2.0466621e+2, -813813.2, -846001.4, 106785.164, 0.07528503, -0.23020649, -721916.1, 212350.94, 0.0, 10.000711, 10.000171 
2.6049405e+3, 2.1465945e+2, -908647.2, -891386.4, 90483.1, 0.19255641, -0.15484641, -809123.06, 27205.639, 0.0, 9.99957, 9.999765 
2.6045406e+3, 2.2465166e+2, -867929.4, -832855.5, 1231.6145, 0.16365252, -0.0899075, -832812.3, -94408.49, 0.0, 9.999241, 9.9996395 
2.604138e+3, 2.3464265e+2, -829948.6, -818246.0, -47188.977, -0.04127197, -0.19001597, -776546.94, -136051.95, 0.0, 9.999045, 9.999172 
2.603737e+3, 2.4463435e+2, -715284.56, -775924.94, -34497.24, -0.11553084, -0.1069916, -699676.8, -157098.33, 0.0, 9.999458, 9.998574 
2.603338e+3, 2.5462678e+2, -566767.5, -716486.1, -3366.0283, -0.01199644, 0.04560208, -566691.9, -122038.125, 0.0, 10.000058, 9.998037 
2.6029402e+3, 2.6461813e+2, -416736.25, -412365.63, 132790.97, 0.023063773, 0.1098899, -281742.0, 64996.363, 0.0, 9.999662, 9.999629 
2.6025432e+3, 2.746077e+2, -603937.9, -503294.25, 150643.75, -0.026818048, -0.1413617, -394789.7, -145951.63, 0.0, 9.997907, 9.999192 
2.6021454e+3, 2.8459877e+2, -563173.4, -310406.7, 32961.957, -0.07948983, -0.19545048, -306179.0, -155254.52, 0.0, 9.996978, 10.000279 
2.601745e+3, 2.9459217e+2, -612007.0, -359629.2, 41090.227, -0.16237679, -0.12116659, -353107.7, -300117.9, 0.0, 9.996288, 9.999618 
2.60135e+3, 3.0458504e+2, -522402.34, -490772.75, -69302.5, 0.4636082, 0.10910893, -435503.47, -435503.47, 0.0, 9.9974575, 9.9978075 
2.6009476e+3, 3.1457308e+2, -230510.63, -161013.48, 128577.664, 0.43357703, -0.10103188, -62571.67, -62571.67, 0.0, 9.998633, 9.999488 
2.6185185e+3, 1.2513562e+2, -1687331.6, -1840954.6, 6620.729, -0.3249518, 0.070353374, -1687046.9, 26629.607, 0.14988379, 10.000776, 9.998698 
2.6181215e+3, 1.3512893e+2, -1566724.8, -1810140.0, -43385.313, -0.16515985, 0.2917273, -1559223.1, 56526.934, 0.09979615, 10.001298, 9.998027 
2.6177233e+3, 1.4512074e+2, -1325281.8, -1294185.1, -57626.043, -0.13594793, 0.30916643, -1250046.8, 267781.72, 0.05285716, 10.000819, 10.001147 
2.6173246e+3, 1.551111e+2, -1415340.4, -1374398.5, -30472.387, -0.14923498, -0.008989678, -1358159.4, 61752.26, 0.019694533, 9.999795, 10.000383 
2.616926e+3, 1.6510297e+2, -1292462.1, -1167045.1, -30681.32, -0.091173574, -0.10142645, -1159941.8, 162041.28, 0.004163879, 9.999581, 10.00122 
2.616528e+3, 1.7509618e+2, -1193926.1, -1142503.3, 31636.574, -0.0008185361, -0.123652235, -1127447.6, 96596.36, 0.00030229846, 9.999885, 10.000585 
2.6161283e+3, 1.8508688e+2, -1154430.3, -1303007.3, 120982.695, -0.02805747, -0.19557405, -1086748.3, 39384.305, 0.0000010444409, 10.000462, 9.998528 
2.615729e+3, 1.9507499e+2, -1004032.8, -1244127.4, 145297.22, -0.15046659, -0.45093146, -935605.6, 92643.164, 0.0, 10.00105, 9.998004 
2.6153293e+3, 2.0506673e+2, -794888.75, -862553.2, 72550.09, -0.17102219, -0.3618931, -748670.1, 181661.33, 0.0, 10.000921, 9.999959 
2.6149297e+3, 2.1506181e+2, -865527.4, -908442.4, 67925.945, -0.11132053, -0.05850883, -815750.3, 16632.438, 0.0, 9.999992, 9.999444 
2.6145306e+3, 2.2505444e+2, -913288.6, -999940.7, 4544.7993, 0.04286952, 0.12927938, -913050.9, -178590.88, 0.0, 9.999518, 9.998374 
2.6141325e+3, 2.3504484e+2, -867109.0, -977722.56, -39215.71, 0.2754493, 0.115865916, -854616.75, -218055.44, 0.0, 9.999329, 9.997967 
2.6137325e+3, 2.4503522e+2, -593949.9, -570366.9, 6842.146, 0.23831065, 0.06299612, -568525.5, -29870.484, 0.0, 9.999642, 9.9999 
2.6133305e+3, 2.5502563e+2, -390892.0, -492479.7, 62133.137, -0.03162234, -0.09475783, -361432.88, 79308.914, 0.0, 10.000627, 9.999317 
2.6129314e+3, 2.6501653e+2, -382731.13, -409865.5, 77679.625, -0.04745533, -0.13235989, -317442.78, 25385.4, 0.0, 9.999916, 9.999538 
2.612535e+3, 2.7500767e+2, -696148.44, -561405.75, 79763.586, 0.17413312, -0.18466279, -524368.6, -279452.6, 0.0, 9.997271, 9.999119 
2.612135e+3, 2.8499985e+2, -691510.44, -302139.97, 35951.26, 0.10807097, -0.16136567, -298848.34, -151855.14, 0.0, 9.99576, 10.000932 
2.6117316e+3, 2.949936e+2, -677963.4, -321948.8, 55821.92, -0.2577866, -0.08640656, -313401.34, -264346.06, 0.0, 9.995493, 10.000274 
2.6113376e+3, 3.049877e+2, -480912.63, -375604.06, 107778.92, 0.27851552, 0.18870029, -308305.16, -308305.16, 0.0, 9.997294, 9.998685 
2.6109415e+3, 3.1497622e+2, 205561.88, 222582.56, -158887.94, 0.60591656, -0.038455896, 373187.9, 373187.9, 0.0, 10.000794, 10.001095 
2.6285148e+3, 1.2553243e+2, -1524589.8, -1762793.9, 44296.19, -0.123237014, -0.19620365, -1516619.1, 193152.6, 0.13183959, 10.002096, 9.998599 
2.6281157e+3, 1.3552526e+2, -1614223.0, -1845031.1, 48350.63, -0.074942596, -0.0042710816, -1604503.6, 7348.1895, 0.08692967, 10.00097, 9.997951 
2.6277158e+3, 1.4551729e+2, -1424950.3, -1385508.9, 53767.97, -0.12540258, 0.0692773, -1347959.1, 165972.6, 0.045284744, 10.000217, 10.000821 
2.627316e+3, 1.555084e+2, -1444847.6, -1416395.9, 6372.517, -0.18925568, -0.12989749, -1415033.9, 979.73346, 0.01638905, 9.999676, 10.000188 
2.6269174e+3, 1.6550101e+2, -1311449.5, -1177481.6, -28829.46, -0.1242856, -0.13875253, -1171541.0, 146539.45, 0.0032885466, 9.999481, 10.001185 
2.62652e+3, 1.7549464e+2, -1266048.1, -1191242.9, -74501.92, 0.041337613, -0.12782826, -1145281.9, 74855.47, 0.00021471751, 9.999436, 10.000479 
2.6261216e+3, 1.8548602e+2, -1212887.1, -1254061.5, -21943.885, 0.06561906, -0.1788658, -1203385.0, -81165.805, 0.00000047553752, 9.999761, 9.9991865 
2.6257226e+3, 1.9547553e+2, -1155789.3, -1262013.9, -3532.331, -0.037816588, -0.37728167, -1155671.9, -131350.28, 0.0, 9.999822, 9.998462 
2.625322e+3, 2.0546778e+2, -964648.5, -985571.9, -89220.95, -0.1398016, -0.25647664, -885278.0, 41122.61, 0.0, 9.999922, 9.999613 
2.6249206e+3, 2.154625e+2, -991370.6, -1022725.0, -98532.39, -0.2077136, 0.020617303, -907276.06, -78818.16, 0.0, 9.999383, 9.998958 
2.624522e+3, 2.2545482e+2, -873044.9, -961952.25, -49189.96, -0.040913906, 0.17904708, -851197.9, -120660.2, 0.0, 9.999772, 9.998484 
2.624125e+3, 2.3544495e+2, -788494.2, -952554.7, 12329.063, 0.33473653, 0.12223762, -787572.8, -154934.19, 0.0, 9.999986, 9.997806 
2.623725e+3, 2.4543515e+2, -594861.7, -537691.2, 62391.473, 0.32350394, 0.049710862, -497648.34, 37084.5, 0.0, 9.999523, 10.00017 
2.6233223e+3, 2.5542513e+2, -799050.25, -680411.6, 36330.42, -0.03965377, -0.18983734, -670170.3, -233347.16, 0.0, 9.997808, 9.999388 
2.6229227e+3, 2.654162e+2, -690175.94, -566417.7, -12805.897, -0.047249854, -0.21716551, -565106.5, -226198.2, 0.0, 9.997872, 9.999429 
2.6225257e+3, 2.7540836e+2, -553644.06, -529473.0, 1076.4138, 0.26374993, -0.17292568, -529425.1, -288437.22, 0.0, 9.998447, 9.998758 
2.6221246e+3, 2.8540093e+2, -236368.9, -73282.13, -17512.053, 0.13403934, -0.09980702, -71422.91, 71638.734, 0.0, 9.9988985, 10.000972 
2.6217195e+3, 2.9539388e+2, -215310.2, -115374.77, -33210.527, -0.36943614, -0.13961498, -105344.89, -60214.22, 0.0, 9.998779, 10.000106 
2.621327e+3, 3.0538923e+2, -216622.1, -149772.14, 48732.883, 0.19555487, 0.21497795, -124102.92, -124102.92, 0.0, 9.998732, 9.999538 
2.620934e+3, 3.1537712e+2, -30604.701, 191033.78, 102032.36, 0.5707176, -0.18735883, 230851.53, 230851.53, 0.0, 9.998878, 10.001812 
2.6385114e+3, 1.2593025e+2, -1445586.3, -1664951.6, -18025.555, 0.057386756, -0.39328986, -1444115.0, 261741.88, 0.11528716, 10.002445, 9.999119 
2.6381093e+3, 1.3592166e+2, -1602537.6, -1793004.0, 19693.994, -0.051971804, -0.40281194, -1600522.5, 7425.277, 0.07524967, 10.000844, 9.998367 
2.6377082e+3, 1.459137e+2, -1473905.0, -1496503.4, 49860.67, -0.16085687, -0.30195722, -1434079.3, 75951.74, 0.038529176, 10.00029, 9.999973 
2.6373082e+3, 1.5590583e+2, -1420358.0, -1485604.6, 17941.424, -0.23521931, -0.3161294, -1415749.9, -3638.1, 0.013527696, 10.000228, 9.999427 
2.636909e+3, 1.6589914e+2, -1276001.6, -1272420.8, -5234.83, -0.18591696, -0.16284439, -1268678.6, 45499.91, 0.0025719018, 10.000206, 10.000192 
2.636511e+3, 1.7589335e+2, -1238393.0, -1272937.6, -31025.502, -0.059104066, 0.015297264, -1220156.0, -3921.1914, 0.00015054179, 10.000014, 9.999644 
2.636114e+3, 1.8588582e+2, -1121683.1, -1120990.8, 4461.519, 0.07373108, 0.07398698, -1116862.0, 1446.5739, 0.0000001940375, 10.000016, 9.99997 
2.635717e+3, 1.958769e+2, -1064555.0, -1127658.8, 22055.115, 0.1689689, -0.03985756, -1057610.8, -37214.18, 0.0, 10.0000305, 9.999289 
2.6353166e+3, 2.0586874e+2, -947779.8, -979642.25, -88691.93, 0.08336408, 0.0033749524, -873599.6, 48879.23, 0.0, 10.000051, 9.99958 
2.6349133e+3, 2.1586137e+2, -905668.6, -964227.75, -80312.945, -0.12994598, 0.082590245, -849464.5, -24909.41, 0.0, 9.99986, 9.999132 
2.6345128e+3, 2.258522e+2, -684503.44, -668006.0, -10532.126, -0.16755548, -0.009405258, -662876.9, 63764.203, 0.0, 10.000159, 10.000329 
2.6341134e+3, 2.3584178e+2, -541181.9, -632652.0, 52324.02, -0.076305345, -0.28952962, -517422.38, 111312.06, 0.0, 10.000769, 9.999634 
2.6337138e+3, 2.458333e+2, -632807.0, -682438.06, 292.4603, 0.024509236, -0.25541142, -632805.25, -101988.47, 0.0, 9.999782, 9.999056 
2.6333132e+3, 2.5582606e+2, -881487.56, -807847.5, -19294.715, 0.08697393, -0.09708855, -803098.3, -370206.94, 0.0, 9.997583, 9.998618 
2.6329133e+3, 2.6581803e+2, -694044.25, -545564.1, 50421.72, 0.040993694, -0.011870628, -530060.44, -195088.28, 0.0, 9.997708, 9.999668 
2.6325142e+3, 2.7580968e+2, -383389.56, -414566.13, 60466.395, -0.033563394, -0.024095776, -336534.44, -99478.695, 0.0, 9.999415, 9.999097 
2.632115e+3, 2.858e+2, -99311.71, -170143.97, -16182.815, -0.07043312, -0.11798995, -95789.61, 43357.855, 0.0, 10.00047, 9.999573 
2.6317146e+3, 2.9578966e+2, 14058.233, -134342.5, -68933.02, -0.12952158, -0.33370897, 41136.97, 82380.13, 0.0, 10.000843, 9.9990015 
2.6313195e+3, 3.057828e+2, -79159.984, -178010.88, -110132.375, 0.2508201, -0.11504713, -7870.8306, -7870.8306, 0.0, 10.00002, 9.998753 
2.630921e+3, 3.157776e+2, -211539.08, 140330.77, -122513.53, 0.28462204, 0.26062346, 178784.88, 178784.88, 0.0, 9.997375, 10.0022135 
2.6485044e+3, 1.2633072e+2, -1236958.8, -1494157.6, -130219.414, -0.17299746, -0.2849108, -1182542.0, 519398.25, 0.10016987, 10.003663, 9.999838 
2.6481006e+3, 1.3632302e+2, -1569802.4, -1696397.1, -98421.15, -0.20148908, -0.27201778, -1516081.5, 87934.55, 0.064692505, 10.000784, 9.999055 
2.6477006e+3, 1.4631514e+2, -1452800.5, -1531106.8, 69001.555, -0.16427995, -0.18244317, -1412617.8, 93478.305, 0.032530583, 10.000678, 9.999517 
2.647303e+3, 1.5630692e+2, -1214013.1, -1445474.3, 36146.656, -0.077075236, -0.18559848, -1208499.5, 199681.58, 0.011066901, 10.00193, 9.998869 
2.6469037e+3, 1.6629899e+2, -967307.6, -1175040.8, 21429.666, -0.054430295, -0.116025835, -965119.94, 345139.72, 0.0019930317, 10.002513, 9.999762 
2.6465043e+3, 1.7629151e+2, -993392.44, -1224539.1, 8174.5376, -0.058078706, -0.053995695, -993103.75, 219227.86, 0.00010503105, 10.001988, 9.999043 
2.6461062e+3, 1.8628354e+2, -1039072.5, -1089710.3, 11996.881, 0.062070727, -0.0018712138, -1036374.06, 78036.055, 0.00000008640195, 10.000663, 9.999851 
2.6457092e+3, 1.9627517e+2, -1331371.5, -1281650.5, -29296.83, 0.2571071, -0.048479404, -1268087.8, -251593.83, 0.0, 9.998348, 9.999036 
2.645309e+3, 2.0626707e+2, -1133951.9, -1063678.1, -76886.77, 0.18431409, 0.0012627634, -1014279.94, -95704.04, 0.0, 9.998781, 9.999609 
2.6449066e+3, 2.162591e+2, -880560.9, -975237.3, -81167.29, -0.04142046, 0.018114299, -833936.2, -13278.906, 0.0, 10.000143, 9.9989395 
2.644505e+3, 2.262498e+2, -677112.1, -650586.8, -112331.94, -0.15934831, -0.09565229, -550737.3, 172005.69, 0.0, 10.000144, 10.00046 
2.6441044e+3, 2.3623975e+2, -892741.25, -808728.9, -173660.9, -0.20956287, -0.38231596, -672066.0, -47235.895, 0.0, 9.998417, 9.999563 
2.6437038e+3, 2.4623157e+2, -817030.3, -814793.06, -240676.28, -0.09740807, -0.3227495, -575232.8, -48323.637, 0.0, 9.998728, 9.998642 
2.643304e+3, 2.5622478e+2, -737943.56, -813076.7, -182971.06, 0.12358339, -0.101006284, -588722.4, -159740.48, 0.0, 9.998924, 9.997936 
2.642904e+3, 2.6621726e+2, -451690.78, -442445.56, -24056.709, 0.021697333, 0.052446585, -422571.38, -91511.32, 0.0, 9.999479, 9.999492 
2.6425037e+3, 2.7620885e+2, -402013.5, -481798.0, -35581.797, -0.27643386, 0.027925743, -388450.6, -155306.38, 0.0, 9.999589, 9.998539 
2.6421064e+3, 2.8619808e+2, -282432.7, -339334.94, -114442.57, -0.1590826, -0.12851463, -192957.69, -57712.83, 0.0, 9.999652, 9.998767 
2.6417097e+3, 2.96186e+2, -339076.22, -425006.4, -84627.97, 0.11924783, -0.44740003, -287131.38, -249777.67, 0.0, 9.999017, 9.997867 
2.6413095e+3, 3.061769e+2, -183751.83, -312710.3, -113435.89, 0.08278165, -0.36451337, -117750.15, -117750.15, 0.0, 9.999711, 9.997943 
2.6409084e+3, 3.1616893e+2, -452091.53, -757444.7, 18330.96, -0.02299016, -0.16577764, -450995.03, -450995.03, 0.0, 9.999152, 9.99517 
2.6584965e+3, 1.2673227e+2, -1376580.8, -1487560.3, -200380.22, -0.5371153, -0.07550774, -1224149.0, 473869.6, 0.08642937, 10.002276, 10.000504 
2.6580918e+3, 1.3672608e+2, -1426736.3, -1567211.6, -124771.47, -0.41636956, 0.02079622, -1353791.4, 246282.22, 0.05519947, 10.001561, 9.99958 
2.6576936e+3, 1.4671816e+2, -1376896.6, -1519843.3, 134142.83, -0.18568444, 0.09751436, -1296374.1, 205776.78, 0.027235242, 10.001347, 9.9992695 
2.6572993e+3, 1.5670922e+2, -1264019.0, -1489220.3, 109795.16, 0.11151508, 0.057981007, -1219349.6, 184891.19, 0.0089680515, 10.001667, 9.998692 
2.6569003e+3, 1.6669938e+2, -1034865.9, -1206420.9, 29898.9, 0.10974029, -0.052686244, -1029804.4, 276530.1, 0.0015322798, 10.002097, 9.999721 
2.6564988e+3, 1.766891e+2, -1013467.75, -1239492.1, 15689.4375, -0.075802244, -0.2569787, -1012383.9, 196045.84, 0.00007382683, 10.001873, 9.99899 
2.6560986e+3, 1.8667975e+2, -1061072.3, -1180216.6, -48110.074, -0.004154146, -0.29993552, -1044071.4, 66449.766, 0.000000036839044, 10.000835, 9.999157 
2.6556996e+3, 1.966709e+2, -1280750.9, -1305807.9, -62149.83, 0.17929134, -0.3170858, -1229879.4, -217268.92, 0.0, 9.998874, 9.998619 
2.6553e+3, 2.0666286e+2, -1082359.0, -1037412.94, 1483.7921, 0.15603021, -0.24517447, -1037364.0, -122672.11, 0.0, 9.999136, 9.999607 
2.6548997e+3, 2.1665522e+2, -792903.0, -947822.44, -14608.919, -0.0017743835, -0.18563071, -791537.44, 25231.95, 0.0, 10.0007715, 9.998826 
2.654499e+3, 2.2664733e+2, -759882.06, -873271.7, -167416.63, -0.0068611572, -0.059398063, -639821.0, 79027.23, 0.0, 10.000342, 9.998842 
2.654098e+3, 2.3663923e+2, -912488.25, -948193.7, -216832.4, 0.06343547, 0.017341996, -712774.9, -91847.29, 0.0, 9.998782, 9.998442 
2.653696e+3, 2.4662924e+2, -720917.44, -669700.1, -209250.5, 0.014208315, -0.10509947, -484497.06, 38524.535, 0.0, 9.998932, 9.99956 
2.6532936e+3, 2.5661865e+2, -534689.9, -615934.75, -144536.25, -0.08607555, -0.34126228, -425176.0, -55.564114, 0.0, 9.999851, 9.998845 
2.6528943e+3, 2.6661065e+2, -400700.78, -512039.66, -34402.67, -0.15626362, -0.22298945, -390928.4, -63726.715, 0.0, 10.000213, 9.998666 
2.6524967e+3, 2.7660385e+2, -319164.06, -467021.63, -78092.61, -0.17851561, -0.004123511, -285557.2, -56282.164, 0.0, 10.000216, 9.998347 
2.6520997e+3, 2.8659475e+2, -180559.61, -163414.03, -165926.52, -0.011737985, -0.05076283, -5838.993, 125523.414, 0.0, 9.999775, 9.99994 
2.651701e+3, 2.9658476e+2, -246850.78, -231176.11, -102001.89, 0.13619937, -0.26476896, -136710.9, -103256.336, 0.0, 9.9989605, 9.999228 
2.6513e+3, 3.0657807e+2, -142010.11, -211286.52, -33480.406, -0.058068063, -0.041346107, -128474.22, -128474.22, 0.0, 9.999606, 9.998711 
2.6509014e+3, 3.165697e+2, 102483.23, -93568.38, 170943.53, -0.049648814, 0.058111776, 201512.61, 201512.61, 0.0, 10.001161, 9.998793 
2.668493e+3, 1.2713291e+2, -1522103.9, -1554106.1, -134760.11, -0.20862867, -0.03691215, -1402398.3, 291695.0, 0.07399912, 10.001093, 10.000544 
2.6680884e+3, 1.3712631e+2, -1113973.8, -1439077.5, -113163.13, -0.23386626, 0.013461373, -1078462.5, 517688.5, 0.04671132, 10.00386, 9.999392 
2.667689e+3, 1.4711733e+2, -1132308.6, -1423061.9, 59716.367, -0.105502985, 0.0005041993, -1120521.6, 377715.13, 0.022592485, 10.0031185, 9.999109 
2.6672927e+3, 1.571075e+2, -1437866.6, -1596465.1, 40633.156, 0.14705786, -0.11411836, -1428062.4, -27729.32, 0.0071954923, 10.000535, 9.99853 
2.6668936e+3, 1.670983e+2, -1336782.3, -1354885.6, 17950.678, 0.16044357, -0.15649934, -1325730.3, -23309.28, 0.001170623, 10.00005, 9.99968 
2.666493e+3, 1.7708914e+2, -1316884.6, -1410793.4, -2923.813, 0.057538737, -0.24881375, -1316793.8, -112286.8, 0.00005271245, 9.999936, 9.9987335 
2.6660916e+3, 1.8707976e+2, -1101400.8, -1262034.0, -58084.707, -0.008392123, -0.25261292, -1082598.3, 24002.727, 0.000000014947995, 10.000853, 9.998588 
2.6656902e+3, 1.9707055e+2, -956944.6, -1220971.5, -69235.984, 0.01322381, -0.2453452, -939890.4, 68805.555, 0.0, 10.001451, 9.997957 
2.665291e+3, 2.070618e+2, -807892.2, -934825.0, 15362.117, 0.06719399, -0.20788737, -806059.44, 104724.016, 0.0, 10.001186, 9.999295 
2.6648933e+3, 2.1705352e+2, -1007890.56, -1097504.4, -35088.543, 0.112113915, -0.19059908, -995786.44, -182921.28, 0.0, 9.999575, 9.998348 
2.6644918e+3, 2.2704566e+2, -877926.8, -949186.2, -129349.6, 0.09548051, -0.03502153, -779389.5, -64443.703, 0.0, 9.999681, 9.998603 
2.6640895e+3, 2.3703796e+2, -861389.8, -971373.75, -76624.34, 0.10100835, 0.11640471, -822066.3, -205040.36, 0.0, 9.9994, 9.997976 
2.6636875e+3, 2.4702755e+2, -501034.34, -549952.2, -24840.674, 0.008709157, -0.02166293, -490632.16, 28490.809, 0.0, 10.000419, 9.99966 
2.6632854e+3, 2.570156e+2, -381432.4, -578653.9, -42449.395, -0.17624378, -0.39481398, -372683.78, 48546.242, 0.0, 10.001099, 9.998507 
2.662886e+3, 2.6700678e+2, -480154.72, -607425.75, 5784.2427, -0.19599392, -0.3133167, -479892.38, -156573.69, 0.0, 9.99995, 9.998119 
2.6624894e+3, 2.7699983e+2, -785731.3, -747928.8, 2581.2048, -0.08407122, -0.0570122, -747753.4, -522357.94, 0.0, 9.9973, 9.997827 
2.662092e+3, 2.8699183e+2, -348168.8, -146578.11, -78227.914, 0.083805844, -0.022366127, -119783.06, 7691.4775, 0.0, 9.998236, 10.000779 
2.6616922e+3, 2.969835e+2, -165301.28, -147574.17, -52042.324, 0.11492616, -0.14787376, -103646.01, -74092.77, 0.0, 9.999372, 9.999606 
2.6612908e+3, 3.069791e+2, -160947.94, -174911.61, -15275.23, -0.1521037, 0.26277843, -151134.58, -151134.58, 0.0, 9.999328, 9.999071 
2.660896e+3, 3.1696478e+2, 86080.555, 551863.56, 78729.97, 0.08985929, -0.34889397, 564811.1, 564811.1, 0.0, 9.998322, 10.004581 
2.6784906e+3, 1.2753284e+2, -1559002.5, -1570374.4, -41316.145, 0.15114886, -0.060288236, -1522982.9, 167187.67, 0.06277887, 10.000858, 10.000505 
2.6780868e+3, 1.3752504e+2, -1310811.6, -1558756.0, -42912.313, -0.024977691, -0.11984948, -1303594.8, 288645.78, 0.039145913, 10.00254, 9.9991665 
2.6776847e+3, 1.4751478e+2, -1225550.1, -1469473.4, -13963.599, -0.045749534, -0.2479357, -1224753.4, 269583.72, 0.01854353, 10.0025015, 9.999062 
2.6772848e+3, 1.5750381e+2, -1334056.0, -1540937.3, -543.34467, 0.039252054, -0.46461245, -1334054.5, 62387.063, 0.005710664, 10.001229, 9.998571 
2.6768857e+3, 1.6749653e+2, -1232629.1, -1296715.6, 36947.523, 0.13401426, -0.32208765, -1215765.5, 82747.46, 0.0008890518, 10.000723, 9.99975 
2.6764867e+3, 1.7749049e+2, -1241119.1, -1374792.9, 25090.965, 0.18137696, -0.105513595, -1236564.6, -35991.34, 0.000037964888, 10.000451, 9.99872 
2.6760843e+3, 1.8748209e+2, -1084220.1, -1296927.4, -13953.621, -0.02621905, 0.016951209, -1083308.6, 19353.713, 0.0000000057994387, 10.00115, 9.99821 
2.675681e+3, 1.974729e+2, -906389.75, -1220465.6, -29772.541, -0.3070708, 0.06942925, -903592.4, 101168.49, 0.0, 10.001871, 9.997759 
2.6752833e+3, 2.0746347e+2, -813136.0, -979590.06, -11980.364, -0.0895665, 0.07308979, -812278.1, 94575.47, 0.0, 10.001325, 9.998926 
2.674887e+3, 2.1745399e+2, -894618.44, -1017403.94, -48457.285, 0.25782904, 0.011959718, -877798.8, -68854.84, 0.0, 10.000185, 9.998612 
2.6744837e+3, 2.2744447e+2, -733721.25, -720823.5, -100847.414, 0.086758174, -0.09417619, -626218.94, 84817.85, 0.0, 9.999955, 10.000053 
2.674078e+3, 2.3743513e+2, -686218.1, -777840.4, -19287.395, -0.24864888, -0.22808403, -682323.5, -69194.47, 0.0, 10.000083, 9.998986 
2.673679e+3, 2.4742684e+2, -487973.94, -668721.06, 51561.91, -0.15257883, -0.11997106, -474299.38, 40908.26, 0.0, 10.00101, 9.998572 
2.6732817e+3, 2.5741863e+2, -271951.38, -584588.44, -259.38397, 0.06031669, -0.0041152695, -271951.16, 145332.44, 0.0, 10.002036, 9.998032 
2.672881e+3, 2.674082e+2, -427089.8, -554922.3, -74648.69, 0.026952457, -0.078987665, -392732.4, -73345.13, 0.0, 10.000134, 9.998424 
2.6724792e+3, 2.7739727e+2, -779971.8, -679935.4, -17407.467, -0.03204024, -0.23195551, -676992.9, -455494.53, 0.0, 9.997004, 9.998441 
2.6720825e+3, 2.873891e+2, -396031.13, -174724.13, 71327.33, 0.15707691, -0.23441318, -153727.38, -30149.297, 0.0, 9.997906, 10.000766 
2.6716864e+3, 2.97382e+2, -29288.947, -101843.375, 42009.223, 0.2982123, -0.2122594, -10061.108, 15584.497, 0.0, 10.00031, 9.999498 
2.67128e+3, 3.0737603e+2, -194931.25, -295530.66, -63348.996, -0.375628, 0.12262092, -164341.17, -164341.17, 0.0, 9.999505, 9.998182 
2.6708838e+3, 3.173617e+2, -298276.6, -1390.1827, 791.18646, -0.081664436, -0.3673136, -1388.0743, -1388.0743, 0.0, 9.997153, 10.001369 
2.6884818e+3, 1.2793303e+2, -1607416.9, -1706322.3, -38885.316, -0.011908029, -0.11655276, -1593959.8, 92278.0, 0.052670896, 10.0009, 9.99957 
2.6880804e+3, 1.3792361e+2, -1709409.6, -1815803.3, -64756.59, 0.07697386, -0.24774055, -1678801.1, -90469.53, 0.032423306, 9.999977, 9.99863 
2.6876795e+3, 1.4791444e+2, -1351039.8, -1513498.5, 14017.235, 0.020859474, -0.2666786, -1349839.3, 140580.33, 0.015032757, 10.001517, 9.999221 
2.6872793e+3, 1.5790516e+2, -1021864.8, -1386723.5, -4070.6587, 0.0047575906, -0.33648223, -1021819.4, 370688.25, 0.0044764117, 10.003377, 9.998594 
2.6868793e+3, 1.6789724e+2, -933992.8, -1194715.0, -21182.756, 0.09320359, -0.23887606, -932283.0, 362301.72, 0.00066900725, 10.002958, 9.99939 
2.68648e+3, 1.7788993e+2, -1162244.6, -1415033.4, -46930.875, 0.19908594, -0.10801709, -1153813.1, 42844.19, 0.000027210404, 10.001324, 9.998047 
2.686078e+3, 1.8788037e+2, -1132748.6, -1433995.3, -73202.96, 0.0006289387, -0.017415095, -1115902.4, -17142.81, 0.000000001728097, 10.00132, 9.997188 
2.685675e+3, 1.9787048e+2, -1067159.8, -1339221.9, -143681.3, -0.26849276, 0.044829592, -1005330.3, -4463.2983, 0.0, 10.000959, 9.997394 
2.6852766e+3, 2.078623e+2, -850610.8, -848076.3, -89758.81, -0.0497343, 0.08185443, -759575.8, 143370.1, 0.0, 10.000418, 10.000275 
2.6848796e+3, 2.1785444e+2, -1059681.8, -1040831.4, -3777.9832, 0.33812723, 0.06768164, -1040102.4, -235084.47, 0.0, 9.99884, 9.999109 
2.6844752e+3, 2.2784454e+2, -901720.8, -868283.2, -100119.66, 0.073635496, -0.057352316, -783496.0, -76379.46, 0.0, 9.999109, 9.999438 
2.6840684e+3, 2.3783422e+2, -890744.9, -937508.2, -150461.05, -0.3831392, -0.24938029, -761859.56, -152639.17, 0.0, 9.998988, 9.998414 
2.6836708e+3, 2.4782649e+2, -671703.3, -722244.44, 2822.0396, -0.20047753, -0.10913191, -671546.25, -160253.75, 0.0, 9.999656, 9.998814 
2.6832762e+3, 2.578199e+2, -645714.25, -787057.1, 26601.756, 0.1933676, 0.13721506, -640873.4, -227520.7, 0.0, 9.999634, 9.997779 
2.682874e+3, 2.678091e+2, -539583.75, -594063.0, -115116.39, 0.13937095, 0.030676667, -448528.06, -133068.25, 0.0, 9.999368, 9.998487 
2.682469e+3, 2.7779666e+2, -658602.2, -639942.25, -35076.26, -0.034229156, -0.28254244, -612976.3, -395391.88, 0.0, 9.997975, 9.998239 
2.682073e+3, 2.8778836e+2, -401999.66, -210331.77, 140306.13, 0.16905767, -0.28492445, -136254.11, -16588.934, 0.0, 9.9980135, 10.000456 
2.6816788e+3, 2.9778174e+2, -438059.06, -375484.56, 70657.53, 0.37879455, -0.18752113, -329497.1, -307768.9, 0.0, 9.997893, 9.998766 
2.6812696e+3, 3.0777353e+2, -247319.7, -371552.9, -62501.406, -0.5783515, -0.023836015, -221317.64, -221317.64, 0.0, 9.99943, 9.997653 
2.6808754e+3, 3.1776333e+2, -344977.0, -579190.06, 116514.305, 0.054637946, 0.0042788195, -296888.13, -296888.13, 0.0, 9.999357, 9.996296 
2.6984715e+3, 1.2833269e+2, -1783703.5, -1911755.4, -106226.805, -0.3479627, -0.20340262, -1723699.4, -41390.18, 0.043611515, 10.000265, 9.998402 
2.698073e+3, 1.3832195e+2, -1634678.3, -1838194.3, -69196.56, 0.08126803, -0.37505928, -1613380.0, -28954.26, 0.026484936, 10.0007925, 9.998056 
2.6976734e+3, 1.4831501e+2, -1329880.0, -1463720.8, 82998.78, 0.04692472, -0.17969763, -1290183.6, 196311.34, 0.012009427, 10.00151, 9.999559 
2.6972744e+3, 1.5830867e+2, -1160322.5, -1449234.5, 29822.25, -0.06532018, 0.017365076, -1157276.3, 231279.11, 0.003455713, 10.002404, 9.998622 
2.6968738e+3, 1.6829865e+2, -1049171.0, -1315271.8, -68095.8, 0.010450742, -0.064558625, -1032757.5, 257893.73, 0.00049606664, 10.002419, 9.99882 
2.696473e+3, 1.7828777e+2, -1175857.5, -1520383.9, -63781.977, 0.10003793, -0.22227477, -1164428.8, 28327.074, 0.00001910138, 10.001637, 9.9971695 
2.6960722e+3, 1.8827564e+2, -1205014.6, -1621743.4, -44823.36, 0.06343444, -0.26955098, -1200247.9, -105364.14, 0.0000000002885943, 10.001466, 9.995825 
2.695671e+3, 1.9826385e+2, -993188.3, -1276037.0, -112249.04, -0.021761762, -0.2785245, -954056.06, 42954.145, 0.0, 10.0013075, 9.997657 
2.6952708e+3, 2.0825852e+2, -607227.44, -398477.1, -104135.555, 0.09126343, -0.16467062, -355412.8, 543645.9, 0.0, 10.000599, 10.003299 
2.6948702e+3, 2.1825475e+2, -884479.25, -826207.1, -6219.4873, 0.25183016, -0.030715581, -825550.7, -24461.791, 0.0, 9.999436, 10.000295 
2.6944664e+3, 2.2824578e+2, -1073301.3, -1294886.8, -76310.766, 0.06009567, 0.10413132, -1049563.9, -346376.97, 0.0, 9.999374, 9.996396 
2.6940617e+3, 2.3823549e+2, -855071.5, -1006322.25, -133013.06, -0.22454247, 0.18914302, -777688.1, -172387.4, 0.0, 9.999566, 9.997658 
2.6936638e+3, 2.4822591e+2, -462769.6, -318572.9, 19980.588, -0.104940325, -0.009802612, -315855.53, 191529.13, 0.0, 9.999755, 10.001554 
2.6932675e+3, 2.5821677e+2, -470846.8, -486950.78, 50751.656, 0.12243608, -0.2531512, -427512.38, -18052.99, 0.0, 9.999843, 9.999745 
2.6928642e+3, 2.682088e+2, -516316.44, -609989.0, -99053.39, 0.045964405, -0.12411482, -453584.4, -142041.89, 0.0, 9.999599, 9.998285 
2.692459e+3, 2.7820086e+2, -501940.94, -583706.2, -10451.102, -0.09508896, 0.049454086, -500626.25, -286996.13, 0.0, 9.999073, 9.998099 
2.692062e+3, 2.8819272e+2, -418120.63, -319271.28, 132674.31, 0.020107893, 0.12832308, -227114.64, -111402.82, 0.0, 9.998278, 9.999589 
2.6916662e+3, 2.9818475e+2, -471546.0, -372428.6, 89481.43, 0.15299521, 0.16543345, -319698.53, -301909.28, 0.0, 9.997523, 9.99896 
2.6912645e+3, 3.0817363e+2, -57676.973, -76185.11, 89891.055, -0.27081397, -0.08248619, 23435.1, 23435.1, 0.0, 9.999792, 9.999539 
2.6908728e+3, 3.1816477e+2, 133035.14, -223139.97, 179767.36, 0.42267978, -0.06310978, 207992.02, 207992.02, 0.0, 10.001992, 9.997499 
2.7084637e+3, 1.2873131e+2, -1902871.3, -2148129.3, -52374.266, -0.38460976, -0.2928782, -1892155.0, -213758.4, 0.035542823, 10.000194, 9.996825 
2.708067e+3, 1.387202e+2, -1331357.0, -1787157.6, -103144.73, 0.043599293, -0.34957966, -1309102.6, 271420.53, 0.021268869, 10.00328, 9.997252 
2.7076674e+3, 1.4871317e+2, -1296791.8, -1393072.8, -54998.37, 0.0563514, -0.1867218, -1271841.0, 210751.86, 0.0094155185, 10.001488, 10.000074 
2.7072674e+3, 1.5870687e+2, -1720669.3, -1720147.8, -71992.086, 0.010515242, -0.026157444, -1648415.9, -263764.53, 0.0026134893, 9.998552, 9.998622 
2.7068666e+3, 1.6869645e+2, -1457488.6, -1581671.5, -114304.71, -0.019054497, -0.11832834, -1389499.6, -102745.98, 0.0003600524, 9.999917, 9.998179 
2.7064654e+3, 1.7868508e+2, -1166608.5, -1480012.5, -130176.9, -0.034994498, -0.28770408, -1119591.3, 69274.18, 0.000012952271, 10.001577, 9.99746 
2.7060652e+3, 1.8867478e+2, -1116456.4, -1327292.8, 10201.801, 0.0360305, -0.32255557, -1115963.9, -24993.998, 0.000000000007316074, 10.001001, 9.998058 
2.705665e+3, 1.9866478e+2, -1223622.1, -1280196.8, 141107.52, 0.11611898, -0.3324914, -1107994.5, -114921.914, 0.0, 9.999286, 9.9986105 
2.7052626e+3, 2.0865877e+2, -845980.4, -614121.75, 1858.2444, 0.10191881, -0.24160105, -614106.9, 281024.16, 0.0, 9.999409, 10.002389 
2.70486e+3, 2.1865413e+2, -965015.75, -955592.2, -121640.29, 0.07761818, -0.112926796, -838572.44, -41398.02, 0.0, 9.999308, 9.99947 
2.7044576e+3, 2.2864588e+2, -894355.56, -1199723.1, -16422.58, 0.0053203544, 0.0997304, -893474.9, -194209.42, 0.0, 10.00061, 9.996428 
2.7040556e+3, 2.3863661e+2, -659466.56, -937643.3, 118026.07, -0.08082237, 0.301882, -616138.56, -14769.73, 0.0, 10.001052, 9.997413 
2.7036566e+3, 2.4862598e+2, -456759.75, -285305.47, 90876.914, -0.019927245, -0.0041307453, -246101.6, 257362.06, 0.0, 9.999668, 10.001814 
2.7032584e+3, 2.5861537e+2, -865060.8, -666178.9, -56424.72, 0.08333953, -0.43174386, -651285.9, -245733.38, 0.0, 9.997158, 9.999793 
2.702855e+3, 2.6860923e+2, -664330.1, -621213.0, -146589.36, -0.015035413, -0.1701845, -494605.4, -186986.56, 0.0, 9.998384, 9.99877 
2.70245e+3, 2.7860418e+2, -477563.4, -582082.3, 650.0787, -0.14384907, 0.2442545, -477559.38, -267879.4, 0.0, 9.999353, 9.997967 
2.7020517e+3, 2.8859597e+2, -354165.53, -361546.84, 140788.63, -0.090326704, 0.35794133, -217019.2, -105255.41, 0.0, 9.999087, 9.998886 
2.7016544e+3, 2.985868e+2, -466570.53, -393638.44, 173192.47, -0.03994384, 0.34288514, -253114.66, -239260.83, 0.0, 9.997718, 9.99872 
2.701259e+3, 3.085741e+2, -98939.56, 59777.086, 191296.48, 0.025817554, -0.1563688, 187522.83, 187522.83, 0.0, 9.998898, 10.000889 
2.700864e+3, 3.1856716e+2, -130653.766, -164895.31, 40926.98, 0.15436235, -0.091302015, -103410.83, -103410.83, 0.0, 9.999461, 9.999125 
2.7184567e+3, 1.291298e+2, -2018397.6, -2337122.8, 14195.762, -0.38078085, -0.31590733, -2017766.6, -343277.8, 0.028407147, 10.000002, 9.995611 
2.718061e+3, 1.3911852e+2, -1629871.3, -1987605.1, -20874.666, -0.08855492, -0.28763738, -1628657.3, -52036.59, 0.016711945, 10.001458, 9.996732 
2.7176604e+3, 1.4911036e+2, -1377266.1, -1368506.4, -105134.57, 0.023596175, -0.25516474, -1267660.5, 211038.78, 0.007198073, 10.000689, 10.000609 
2.7172592e+3, 1.5910284e+2, -1637100.0, -1671902.4, -49200.867, 0.08515977, -0.2524547, -1602313.8, -221546.05, 0.0019202423, 9.9991, 9.998683 
2.716858e+3, 1.6909268e+2, -1471217.9, -1652264.6, 33057.938, -0.06842521, -0.26947266, -1465370.5, -182498.53, 0.00025324232, 10.000115, 9.997597 
2.7164572e+3, 1.7908238e+2, -1074330.8, -1252322.9, -39791.895, -0.2599859, -0.30593458, -1065839.9, 119138.36, 0.000008369746, 10.001398, 9.999115 
2.716057e+3, 1.8907687e+2, -815951.5, -654929.7, -12582.067, -0.08176134, -0.23324938, -653952.5, 433073.97, 0.0, 10.000792, 10.002781 
2.7156568e+3, 1.9907187e+2, -1084777.3, -1054070.8, 120297.32, 0.11546856, -0.14633581, -948150.8, 40918.516, 0.0, 9.999543, 10.000039 
2.7152532e+3, 2.09062e+2, -1115580.5, -1236108.6, 25978.227, -0.019225253, -0.17145185, -1110219.8, -219045.94, 0.0, 9.999674, 9.998002 
2.714849e+3, 2.190519e+2, -927609.1, -1037967.5, -83220.17, -0.21225324, -0.20798907, -882936.7, -89655.04, 0.0, 9.999963, 9.998595 
2.7144495e+3, 2.2904448e+2, -546739.56, -582841.2, 59559.652, -0.11664318, -0.15082562, -502555.44, 192797.66, 0.0, 10.001031, 10.000486 
2.7140504e+3, 2.3903729e+2, -434764.9, -684979.7, 156684.55, 0.007469723, -0.07314943, -359368.16, 238053.39, 0.0, 10.001917, 9.998736 
2.7136493e+3, 2.4902727e+2, -695164.44, -820470.5, 16267.094, 0.05722836, -0.089465186, -693087.1, -193565.27, 0.0, 9.9998045, 9.998093 
2.7132475e+3, 2.5901705e+2, -931656.75, -821578.75, -99216.445, 0.08384636, -0.14639962, -763157.6, -361534.22, 0.0, 9.997192, 9.998705 
2.7128452e+3, 2.690098e+2, -512746.0, -327253.84, -67686.59, 0.00044143802, -0.09605439, -305181.3, -1487.245, 0.0, 9.998431, 10.000786 
2.712443e+3, 2.790032e+2, -230840.3, -276196.0, 55008.895, -0.07173644, -0.016968861, -194018.03, 11740.852, 0.0, 10.000216, 9.99964 
2.712044e+3, 2.889942e+2, -230858.88, -258031.2, 132319.28, 0.0014367885, -0.051518302, -111430.086, -3583.9702, 0.0, 9.999745, 9.99928 
2.711646e+3, 2.9898468e+2, -334237.3, -344556.88, 206180.17, 0.028691156, -0.11610028, -133152.38, -123214.11, 0.0, 9.998635, 9.998619 
2.71125e+3, 3.0897528e+2, -241312.0, -187490.34, 213558.28, 0.043216243, -0.16052358, 845.967, 845.967, 0.0, 9.998641, 9.999339 
2.7108535e+3, 3.189677e+2, -242517.02, -143895.98, -109355.88, 0.06883283, -0.032363843, -73247.19, -73247.19, 0.0, 9.998308, 9.999837 
2.7284512e+3, 1.2952752e+2, -1733480.6, -1762151.1, -118512.5, -0.14598136, -0.19908394, -1628439.5, 42164.08, 0.022182321, 9.999982, 9.999616 
2.7280527e+3, 1.3951899e+2, -2033482.6, -1918989.5, 19479.11, -0.02255414, -0.24355614, -1915766.1, -343073.75, 0.012782481, 9.997474, 9.999167 
2.7276525e+3, 1.495106e+2, -1574509.3, -1428666.0, 35532.25, 0.08095922, -0.32931098, -1420469.9, 54300.785, 0.005327255, 9.999137, 10.000984 
2.7272525e+3, 1.5950243e+2, -1326530.5, -1445312.4, 87475.32, 0.19251557, -0.411524, -1280189.6, 96656.15, 0.0013580795, 10.000903, 9.9993925 
2.7268505e+3, 1.6949439e+2, -1375579.0, -1445561.4, 221848.55, -0.046584435, -0.32524693, -1185979.0, 92950.47, 0.00016970174, 10.000132, 9.999008 
2.726449e+3, 1.7948638e+2, -1457440.1, -1389725.8, 213324.11, -0.29533464, -0.22150293, -1207588.8, -26574.938, 0.0000049540654, 9.9986105, 9.999517 
2.7260482e+3, 1.8947954e+2, -1121845.5, -876309.25, 14243.0, -0.13162105, -0.23093641, -875485.8, 207590.89, 0.0, 9.999023, 10.002106 
2.725648e+3, 1.9947322e+2, -1194175.9, -1180072.3, -95879.74, 0.1007245, -0.22475687, -1090985.4, -105851.94, 0.0, 9.999145, 9.999354 
2.7252448e+3, 2.094638e+2, -1038376.2, -1260804.5, -4191.16, -0.06513483, -0.17611973, -1038297.2, -151062.4, 0.0, 10.000526, 9.997387 
2.724841e+3, 2.1945365e+2, -790435.56, -996181.3, 100924.63, -0.27810887, -0.15244156, -749195.25, 40149.52, 0.0, 10.001065, 9.9983425 
2.724442e+3, 2.2944549e+2, -596447.0, -470932.88, 68964.33, -0.15316911, -0.23833902, -440445.47, 250972.42, 0.0, 10.000166, 10.001644 
2.7240434e+3, 2.3943794e+2, -960774.25, -961371.75, -24421.51, 0.041205693, -0.29641014, -936649.7, -343166.4, 0.0, 9.998492, 9.998467 
2.723641e+3, 2.494282e+2, -798227.0, -1049131.9, -55872.305, 0.07231876, -0.1871231, -786347.6, -290761.25, 0.0, 9.999941, 9.996419 
2.7232382e+3, 2.5941843e+2, -498354.47, -715740.3, 17451.668, 0.060305156, -0.04348072, -496962.34, -99270.875, 0.0, 10.00066, 9.997765 
2.7228364e+3, 2.6941043e+2, -154384.83, -55435.082, 31726.191, -0.013256737, -0.11069223, -46136.54, 253629.02, 0.0, 10.00049, 10.001652 
2.7224356e+3, 2.7940264e+2, -315657.66, -283357.3, 35958.77, -0.050381165, -0.22957964, -260088.44, -58253.88, 0.0, 9.999518, 9.999941 
2.7220368e+3, 2.8939304e+2, -191119.83, -195596.9, 53154.605, 0.05973293, -0.37954825, -140156.64, -36232.426, 0.0, 9.999848, 9.999653 
2.7216375e+3, 2.9938355e+2, -292506.2, -394422.94, 144418.81, 0.058079544, -0.4659339, -190319.05, -184304.67, 0.0, 9.999265, 9.997971 
2.721241e+3, 3.0937704e+2, -302897.2, -356908.75, 225351.7, 0.04675458, -0.13006438, -102938.88, -102938.88, 0.0, 9.998857, 9.998035 
2.720843e+3, 3.1936604e+2, -290622.44, -110821.336, -100438.33, -0.031277094, -0.2585785, -65925.87, -65925.87, 0.0, 9.997853, 10.00023 
2.738445e+3, 1.2992549e+2, -1481442.6, -1088461.0, -123009.9, 0.015813708, -0.06556929, -1053132.8, 613584.94, 0.016844403, 9.99938, 10.004557 
2.738043e+3, 1.3992058e+2, -1882835.3, -1529257.3, 43009.51, 0.03920964, -0.20400517, -1524100.8, 44650.508, 0.009465075, 9.997177, 10.001968 
2.7376443e+3, 1.4991212e+2, -1593492.3, -1397271.6, 140031.22, 0.12556027, -0.39236328, -1324401.4, 146426.52, 0.0037924144, 9.998865, 10.001311 
2.7372462e+3, 1.5990368e+2, -1287222.5, -1280812.5, 105344.49, 0.2136076, -0.5537407, -1178624.3, 194282.39, 0.0009170214, 10.000572, 10.000659 
2.736843e+3, 1.6989912e+2, -1228748.9, -1106159.6, 143585.94, -0.033535752, -0.32026353, -1011332.7, 263621.0, 0.0001065257, 10.0000105, 10.001382 
2.73644e+3, 1.7989415e+2, -1442136.5, -1438779.9, 151720.25, -0.30466703, -0.08090177, -1288728.6, -111722.39, 0.0000025959862, 9.998955, 9.999006 
2.7360392e+3, 1.8988182e+2, -1374724.0, -1468007.8, 31100.557, -0.17174003, -0.31866285, -1365306.0, -286174.6, 0.0, 9.999288, 9.997934 
2.7356386e+3, 1.9986992e+2, -1169536.8, -1252140.0, -40236.496, -0.0063228537, -0.5247025, -1153177.3, -171925.22, 0.0, 9.999644, 9.998613 
2.7352372e+3, 2.098648e+2, -789250.44, -815233.75, 72906.98, -0.07899265, -0.23414937, -728186.6, 155119.72, 0.0, 10.000802, 10.000323 
2.7348357e+3, 2.1985969e+2, -631005.6, -839982.2, 125072.945, -0.19892672, 0.063140675, -572518.3, 212841.53, 0.0, 10.001778, 9.999069 
2.7344343e+3, 2.2984894e+2, -736888.2, -814174.6, 18313.078, -0.14312172, -0.1177304, -732768.5, -45307.188, 0.0, 10.000358, 9.999205 
2.7340332e+3, 2.3983791e+2, -919500.75, -961261.25, -30248.457, -0.055294927, -0.3222291, -903625.7, -314060.94, 0.0, 9.998818, 9.998306 
2.7336326e+3, 2.4982807e+2, -579605.44, -724057.2, 39466.16, -0.011662831, -0.35466975, -569526.06, -77862.45, 0.0, 10.000458, 9.998416 
2.7332318e+3, 2.598188e+2, -210558.38, -478947.03, 85317.05, 0.002050458, -0.32520834, -185733.47, 208024.14, 0.0, 10.002172, 9.998656 
2.732829e+3, 2.6981103e+2, -131519.08, -208317.27, 14973.276, -0.08737683, -0.27568656, -128703.016, 167128.53, 0.0, 10.001318, 10.000217 
2.7324268e+3, 2.798033e+2, -245296.08, -289356.34, 26286.428, -0.117597714, -0.25779003, -233028.94, -35125.41, 0.0, 10.00008, 9.999652 
2.732029e+3, 2.897946e+2, -86045.38, -98636.49, 64242.137, 0.055455495, -0.33317766, -27791.064, 72193.62, 0.0, 10.000279, 10.000162 
2.7316305e+3, 2.9978615e+2, -56790.3, -164745.3, 137962.66, 0.13282546, -0.3638966, 37378.297, 39442.004, 0.0, 10.000337, 9.999034 
2.7312335e+3, 3.0977932e+2, -174112.86, -171102.5, 224369.88, 0.142346, -0.16923124, 51767.246, 51767.246, 0.0, 9.999169, 9.999172 
2.7308357e+3, 3.1976917e+2, -205662.13, -110189.58, -11355.604, 0.21683304, -0.26207033, -108857.516, -108857.516, 0.0, 9.998519, 9.999932 
2.7484357e+3, 1.303267e+2, -1515857.0, -1150682.6, 5917.3906, -0.037649862, -0.29218373, -1150586.8, 512194.06, 0.012349123, 9.99931, 10.004137 
2.7480346e+3, 1.4032388e+2, -1912463.4, -1630597.6, 70510.13, 0.26531425, -0.14615543, -1613943.1, -49148.523, 0.0067429794, 9.99735, 10.001165 
2.747635e+3, 1.5031408e+2, -1751782.3, -1598373.5, 162216.9, 0.13687791, -0.37188315, -1495640.1, -28753.836, 0.0025849491, 9.99828, 10.000206 
2.7472362e+3, 1.603043e+2, -1572706.6, -1542587.5, 15840.019, 0.04223756, -0.5673385, -1535790.8, -166810.14, 0.0005889778, 9.999125, 9.999553 
2.7468348e+3, 1.7029905e+2, -1359751.3, -1296983.6, -130508.7, -0.046786077, -0.32031426, -1194138.3, 76900.43, 0.00006228534, 9.999599, 10.000285 
2.7464327e+3, 1.8029383e+2, -1378851.8, -1438179.5, -225910.75, -0.13698183, -0.054566316, -1180665.6, -7568.815, 0.0000011486238, 9.999505, 9.998751 
2.746032e+3, 1.90283e+2, -1239436.9, -1319208.1, -124313.23, -0.070616625, -0.23970631, -1148767.4, -73561.12, 0.0, 9.999875, 9.998646 
2.7456307e+3, 2.0027204e+2, -1129349.1, -1196982.6, 55661.98, -0.0026611239, -0.41324666, -1098036.5, -120719.91, 0.0, 9.999807, 9.998907 
2.74523e+3, 2.102663e+2, -798139.5, -770853.06, 54585.71, -0.0977294, -0.22457603, -728231.4, 151140.88, 0.0, 10.00055, 10.000742 
2.7448294e+3, 2.2026096e+2, -848742.1, -1007499.9, -71806.02, -0.17480956, 0.013350585, -821083.1, -39659.06, 0.0, 10.000604, 9.998474 
2.744427e+3, 2.3025018e+2, -763691.0, -974349.75, -152409.72, -0.11953977, -0.08693137, -683755.7, -226.20744, 0.0, 10.000862, 9.997835 
2.744025e+3, 2.4023876e+2, -778281.3, -969756.75, -87267.42, -0.05446118, -0.21566099, -744476.3, -158835.42, 0.0, 10.000172, 9.997591 
2.743625e+3, 2.5022867e+2, -628687.3, -657965.2, -61997.344, -0.018280601, -0.33662793, -579624.06, -91884.73, 0.0, 9.999768, 9.999189 
2.7432245e+3, 2.602194e+2, -667461.44, -697569.25, -118363.99, -0.012986902, -0.39289188, -563197.9, -173368.55, 0.0, 9.999082, 9.998637 
2.7428213e+3, 2.702118e+2, -436260.53, -407865.7, -132196.44, -0.10652168, -0.32845536, -289106.47, 2794.1702, 0.0, 9.999481, 9.999713 
2.7424186e+3, 2.8020424e+2, -408219.88, -442513.5, -2299.4993, -0.14152814, -0.24652605, -408066.38, -214094.7, 0.0, 9.999366, 9.998921 
2.742022e+3, 2.9019594e+2, -100006.34, -101015.6, 17109.344, 0.10687402, -0.27255303, -83394.19, 12654.618, 0.0, 10.000268, 10.000104 
2.7416244e+3, 3.0018798e+2, -74434.555, -145605.63, 3018.0088, 0.22359905, -0.2693476, -74306.81, -74306.81, 0.0, 10.000188, 9.999217 
2.7412245e+3, 3.1018013e+2, -159603.8, -44327.6, 19279.797, 0.12139317, -0.28878483, -41188.56, -41188.56, 0.0, 9.998816, 10.00018 
2.7408293e+3, 3.2017213e+2, -261574.53, -214014.94, -62354.715, 0.47949997, -0.25392148, -171059.52, -171059.52, 0.0, 9.998527, 9.999206 
2.758426e+3, 1.3072862e+2, -1715754.9, -1450869.9, -193201.22, -0.18909974, -0.5664429, -1349073.8, 309759.5, 0.008678365, 9.998885, 10.002239 
2.7580264e+3, 1.4072725e+2, -1763967.1, -1759883.3, -5697.8726, 0.4390425, -0.097909994, -1755872.5, -195032.97, 0.0045912247, 9.999261, 9.999348 
2.7576253e+3, 1.5071611e+2, -1695110.0, -1730971.6, 172314.9, 0.075347595, -0.30682218, -1539795.5, -76848.7, 0.0016781249, 9.999389, 9.9987545 
2.7572247e+3, 1.6070457e+2, -1666473.1, -1818791.8, 32549.203, -0.2608348, -0.51176757, -1659809.3, -294747.63, 0.0003582228, 9.999484, 9.9974785 
2.7568263e+3, 1.7069618e+2, -1532890.9, -1681860.9, -81622.25, -0.080051884, -0.32353875, -1496876.0, -229717.06, 0.000033741435, 9.999712, 9.997582 
2.7564272e+3, 1.8068907e+2, -1261453.0, -1243201.9, -166857.3, 0.07818069, -0.079355665, -1085220.8, 84020.88, 0.00000040337267, 9.9997, 9.999986 
2.7560252e+3, 1.9068427e+2, -939069.8, -713658.2, -84165.06, 0.07000078, -0.0034536703, -685700.0, 385585.38, 0.0, 9.99994, 10.002769 
2.7556232e+3, 2.0067847e+2, -995499.94, -1023942.44, 79041.16, 0.012101727, 0.018972127, -929410.9, 43926.734, 0.0, 10.000224, 9.999906 
2.7552223e+3, 2.1066745e+2, -879481.94, -1014248.94, 96197.45, -0.14417282, -0.19641978, -829415.5, 46026.086, 0.0, 10.000818, 9.998976 
2.7548218e+3, 2.2065698e+2, -807738.25, -1047793.8, -55679.15, -0.25256273, -0.31908587, -795452.6, -17910.441, 0.0, 10.001137, 9.99793 
2.7544203e+3, 2.306492e+2, -705490.94, -932580.1, -133954.97, -0.08731918, -0.10153856, -643432.8, 36190.23, 0.0, 10.001187, 9.997976 
2.754019e+3, 2.4064103e+2, -672117.3, -948697.44, -92739.72, 0.069463976, 0.09562777, -643899.7, -62191.7, 0.0, 10.000966, 9.997367 
2.753618e+3, 2.5063014e+2, -689357.75, -829528.06, -104327.28, 0.10205617, 0.012013281, -633760.3, -149943.16, 0.0, 9.999921, 9.997964 
2.753217e+3, 2.606198e+2, -603029.44, -553052.94, -151900.0, 0.100789204, -0.083729796, -424099.53, -38181.13, 0.0, 9.998979, 9.999687 
2.752814e+3, 2.7061245e+2, -298521.0, -106053.64, -118157.95, 0.031860568, -0.16908969, -49898.92, 238080.9, 0.0, 9.999379, 10.001853 
2.7524123e+3, 2.8060508e+2, -321389.38, -371083.06, 38108.234, 0.038010746, -0.22020611, -300743.34, -110700.375, 0.0, 9.999824, 9.999183 
2.7520168e+3, 2.905952e+2, -180987.89, -335101.78, 26144.863, 0.32551092, -0.25438735, -176673.31, -84535.76, 0.0, 10.000578, 9.998343 
2.7516186e+3, 3.0058512e+2, -8212.038, -175326.7, -78776.14, 0.3941434, -0.31680632, 23067.504, 23067.504, 0.0, 10.00085, 9.998718 
2.751213e+3, 3.1057397e+2, -89860.8, -19131.365, -141238.02, -0.151569, -0.64577883, 91102.14, 91102.14, 0.0, 9.9992285, 10.00022 
2.7508196e+3, 3.2056916e+2, -111468.31, -105488.24, 85976.82, 0.38753852, -0.3060754, -22449.477, -22449.477, 0.0, 9.999282, 9.999617 
2.7684185e+3, 1.3112906e+2, -1749194.0, -1632439.5, -249103.88, -0.037436906, -0.34653822, -1434964.0, 219950.45, 0.0058173942, 9.999335, 10.000813 
2.7680188e+3, 1.4112489e+2, -1059176.9, -1459671.9, -187763.52, 0.23039079, -0.03943952, -984917.2, 572037.1, 0.0029685057, 10.004278, 9.99901 
2.7676168e+3, 1.5111496e+2, -1187571.1, -1428005.6, -47486.676, -0.09800672, -0.18758188, -1178532.3, 280518.03, 0.0010278097, 10.002643, 9.999262 
2.7672163e+3, 1.6110483e+2, -1465921.5, -1635813.0, -70521.07, -0.33408082, -0.31681868, -1440463.5, -79313.555, 0.00020336722, 10.00048, 9.998277 
2.7668178e+3, 1.7109644e+2, -1428008.5, -1518039.3, -2592.7598, -0.0990137, -0.23069383, -1427933.9, -164693.38, 0.000016580547, 9.999933, 9.99862 
2.766419e+3, 1.8108906e+2, -1324329.8, -1266227.0, 38277.793, 0.12078717, -0.067085564, -1247224.6, -81903.23, 0.00000009587778, 9.999276, 10.0000305 
2.766017e+3, 1.9108419e+2, -1055703.8, -831074.1, -104210.31, 0.09129313, 0.055488225, -790175.4, 277193.75, 0.0, 9.999425, 10.002218 
2.7656153e+3, 2.0107865e+2, -1115661.9, -1089071.3, -107325.32, 0.015195265, 0.13704488, -994220.9, -24800.37, 0.0, 9.99946, 9.99983 
2.7652153e+3, 2.1106754e+2, -862662.44, -948052.56, 21152.652, -0.14755833, -0.16084512, -857709.8, 13812.114, 0.0, 10.000719, 9.999464 
2.764815e+3, 2.2105634e+2, -812497.5, -1094855.4, -29770.227, -0.24849853, -0.37498912, -809392.8, -35766.09, 0.0, 10.001329, 9.997518 
2.764414e+3, 2.3104815e+2, -678522.4, -973109.5, -141821.81, -0.07556776, -0.16426304, -621343.9, 54369.465, 0.0, 10.001614, 9.997493 
2.7640125e+3, 2.4104032e+2, -693570.06, -999973.3, -132153.39, 0.1084321, 0.11082073, -644447.06, -66649.84, 0.0, 10.001055, 9.996958 
2.7636108e+3, 2.510302e+2, -614754.7, -798031.5, -59838.11, 0.15062442, 0.10057141, -596948.1, -117048.34, 0.0, 10.000494, 9.997881 
2.763209e+3, 2.6102024e+2, -534490.2, -537351.7, -23125.799, 0.16679491, 0.06417499, -512750.9, -130752.53, 0.0, 9.999596, 9.999491 
2.762807e+3, 2.7101243e+2, -219323.58, -39452.84, -142362.86, 0.14939447, -0.08658206, 39002.867, 323066.8, 0.0, 9.999885, 10.002048 
2.762406e+3, 2.810045e+2, -408880.06, -505837.6, -108910.26, 0.19389763, -0.1912437, -338146.28, -152014.78, 0.0, 9.999669, 9.998333 
2.7620104e+3, 2.909938e+2, -357827.44, -552364.06, -32257.986, 0.42230606, -0.23283593, -352617.94, -264381.9, 0.0, 9.999937, 9.997163 
2.7616116e+3, 3.009826e+2, -236135.34, -357095.38, -95693.61, 0.40809128, -0.30324587, -183411.56, -183411.56, 0.0, 9.999658, 9.998025 
2.7612028e+3, 3.1096917e+2, 4886.4644, 21690.703, -169299.52, -0.3164671, -0.85986644, 182796.45, 182796.45, 0.0, 9.999959, 10.000113 
2.7608103e+3, 3.2096717e+2, -141655.2, -80100.55, 348163.97, 0.24835864, -0.24822809, 238643.78, 238643.78, 0.0, 9.999066, 9.99983 
2.7784115e+3, 1.315286e+2, -1735402.3, -1769122.6, 37435.23, 0.07145204, -0.024117215, -1711205.6, -60197.992, 0.0036854136, 10.0001, 9.999459 
2.7780116e+3, 1.415206e+2, -1290573.9, -1548592.3, -61344.152, -0.14452855, -0.019776031, -1276731.9, 276359.78, 0.001803296, 10.002615, 9.999177 
2.7776092e+3, 1.5151282e+2, -1237805.3, -1327269.5, -67165.0, -0.3257655, -0.043829735, -1201839.8, 253327.33, 0.00058549305, 10.001767, 10.000364 
2.7772087e+3, 1.6150519e+2, -1290952.0, -1287924.5, -91672.94, -0.37632146, -0.07057035, -1197752.8, 159486.66, 0.00010501676, 10.000533, 10.000637 
2.7768093e+3, 1.714986e+2, -1166609.6, -1047369.2, -11917.432, -0.16718353, -0.098165505, -1046189.75, 213108.67, 0.0000068884756, 10.000229, 10.001715 
2.7764097e+3, 1.8149166e+2, -1327243.9, -1388209.8, 19600.293, -0.0060371147, -0.06333157, -1321486.3, -160121.39, 0.00000000965895, 9.999783, 9.998942 
2.776008e+3, 1.9148256e+2, -1270006.9, -1356315.9, -71831.414, 0.005833289, -0.033338614, -1229363.6, -165900.19, 0.0, 9.999762, 9.998461 
2.7756068e+3, 2.0147413e+2, -1025327.75, -987960.8, -39167.176, -0.034766395, 0.008667992, -963249.1, 2301.575, 0.0, 9.999838, 10.000324 
2.7752084e+3, 2.114673e+2, -652288.6, -556578.0, 102323.445, -0.14676435, -0.069224924, -491472.2, 376133.34, 0.0, 10.000931, 10.002041 
2.7748093e+3, 2.2145905e+2, -693841.2, -996516.3, -2062.663, -0.2323174, -0.16568094, -693827.1, 75849.95, 0.0, 10.00193, 9.997913 
2.7744073e+3, 2.314462e+2, -699789.8, -1102952.6, -118831.68, -0.12923028, -0.3236893, -667371.2, 4435.5483, 0.0, 10.001937, 9.996479 
2.774005e+3, 2.414349e+2, -511019.13, -750831.8, -124510.83, -0.018220438, -0.36589998, -458065.78, 115855.89, 0.0, 10.0016, 9.998396 
2.773603e+3, 2.5142822e+2, -393885.97, -456481.13, -42343.848, 0.06923211, -0.22276236, -372528.66, 103459.41, 0.0, 10.000982, 10.000006 
2.773201e+3, 2.614208e+2, -509822.03, -687179.75, 20401.77, 0.14864938, -0.09114053, -507505.44, -129443.77, 0.0, 10.0004225, 9.998073 
2.7727994e+3, 2.714102e+2, -404522.53, -584569.94, -128188.47, 0.19515295, -0.14867607, -337904.75, -57738.625, 0.0, 10.000525, 9.998023 
2.772399e+3, 2.8140008e+2, -300026.63, -473700.0, -129551.15, 0.23221742, -0.18379983, -230901.42, -48636.16, 0.0, 10.000446, 9.9981785 
2.7719998e+3, 2.9139158e+2, -196609.28, -292090.16, -41741.547, 0.16064723, -0.13970904, -180934.38, -96584.84, 0.0, 10.000159, 9.998871 
2.7716002e+3, 3.01383e+2, -118927.53, -200262.52, -42934.664, 0.0605927, -0.09331833, -100457.64, -100457.64, 0.0, 9.999965, 9.998948 
2.7712002e+3, 3.113729e+2, 118637.3, 78756.69, -94745.19, 0.1587363, -0.3314189, 195517.78, 195517.78, 0.0, 10.000688, 10.000148 
2.7708036e+3, 3.2136816e+2, -76474.1, -145561.31, 213845.94, 0.34296575, 0.05749711, 105600.266, 105600.266, 0.0, 9.99985, 9.9990015 
2.788405e+3, 1.3192785e+2, -1541425.0, -1805499.4, 179226.16, 0.049301524, -0.25602213, -1450850.8, 196235.52, 0.0021692922, 10.001963, 9.998301 
2.7880067e+3, 1.4191957e+2, -1831566.9, -1913022.4, 87373.3, 0.12747133, -0.15673687, -1775895.3, -226717.86, 0.0010069286, 9.99929, 9.998297 
2.787603e+3, 1.5191247e+2, -1569126.3, -1582901.4, 31184.254, -0.22005431, -0.01999927, -1544078.0, -92824.25, 0.00030057676, 9.999839, 9.999573 
2.7872014e+3, 1.619052e+2, -1319225.8, -1298870.5, -59881.76, -0.36979255, 0.05127322, -1248307.6, 105018.75, 0.000046417692, 10.00035, 10.000648 
2.786802e+3, 1.718974e+2, -1018740.06, -933937.25, -115459.29, -0.18129265, -0.13200216, -853339.8, 402051.1, 0.0000020738605, 10.001107, 10.002057 
2.786402e+3, 1.818896e+2, -1095502.9, -1293128.1, -152100.11, -0.021151194, -0.21522623, -1012936.44, 144523.94, 0.00000000000031198744, 10.001447, 9.998792 
2.786001e+3, 1.918805e+2, -1008224.0, -1252957.1, -81252.734, 0.037483156, -0.19042008, -983704.3, 75854.02, 0.0, 10.001675, 9.998227 
2.7856004e+3, 2.0187214e+2, -872893.1, -984458.06, 87242.17, 0.052506134, -0.09766235, -825124.25, 136522.2, 0.0, 10.001234, 9.999665 
2.7852023e+3, 2.1186621e+2, -768640.06, -671534.4, 29560.95, -0.06638291, -0.02812483, -663243.3, 200454.53, 0.0, 10.000429, 10.001481 
2.784803e+3, 2.2185877e+2, -1048048.94, -1144495.9, -203533.0, -0.13664734, -0.023387179, -887104.56, -121340.67, 0.0, 9.999437, 9.998085 
2.7844006e+3, 2.3184524e+2, -923255.5, -1106250.0, -174916.92, -0.08289721, -0.35663363, -817350.44, -149455.03, 0.0, 10.000009, 9.99735 
2.7839977e+3, 2.418333e+2, -692037.3, -791638.56, -94695.69, -0.025947701, -0.5351439, -634845.56, -64832.797, 0.0, 10.000196, 9.998795 
2.7835953e+3, 2.5182766e+2, -352198.78, -375479.22, -148784.5, 0.026679983, -0.34517094, -214599.86, 257468.86, 0.0, 10.001044, 10.000529 
2.7831933e+3, 2.6182115e+2, -483771.3, -783484.9, -114330.96, 0.10571259, -0.13593695, -445137.72, -71003.8, 0.0, 10.001138, 9.997043 
2.7827927e+3, 2.718094e+2, -397838.56, -763372.44, -28418.338, 0.20316887, -0.17927048, -395642.38, -119388.36, 0.0, 10.001408, 9.996344 
2.7823916e+3, 2.8179842e+2, -266507.47, -457271.84, 106629.336, 0.21933594, -0.16247064, -218824.7, -40458.48, 0.0, 10.000743, 9.998136 
2.78199e+3, 2.9179102e+2, -240440.9, -187070.78, 105117.414, -0.06269292, -0.08945257, -105304.18, -24863.014, 0.0, 9.999374, 9.999943 
2.781589e+3, 3.0178404e+2, -347059.0, -294706.22, 70938.234, -0.2130148, 0.06241315, -245268.89, -245268.89, 0.0, 9.998412, 9.999039 
2.781197e+3, 3.1177652e+2, 941.7529, 18683.758, 10880.849, 0.56832665, 0.08029667, 23851.543, 23851.543, 0.0, 9.999979, 10.000063 
2.7807945e+3, 3.2176808e+2, -317233.38, -333534.9, 84274.09, 0.20657735, 0.14354436, -240716.81, -240716.81, 0.0, 9.99857, 9.998343 
2.798399e+3, 1.3232736e+2, -1638269.6, -1931492.3, -83823.09, 0.009143927, -0.57814115, -1615998.8, 27161.654, 0.0011658656, 10.001674, 9.997566 
2.798002e+3, 1.4232007e+2, -1838582.5, -2058156.0, 23050.217, 0.51876414, -0.28476924, -1836188.9, -290946.06, 0.00050457666, 9.999881, 9.9970045 
2.797597e+3, 1.523131e+2, -1614426.6, -1741104.1, 59609.89, -0.054266937, -0.013788864, -1590787.6, -143461.11, 0.0001343589, 10.000154, 9.99832 
2.7971938e+3, 1.6230512e+2, -1374300.9, -1448956.3, -26541.033, -0.39082178, 0.108686484, -1365827.0, -16415.434, 0.00001642319, 10.000504, 9.999544 
2.796795e+3, 1.7229427e+2, -1134557.4, -1126425.9, -56614.316, -0.20461057, -0.25413883, -1073731.5, 177772.11, 0.0000003300107, 10.0008955, 10.000842 
2.796396e+3, 1.8228488e+2, -1020016.4, -1112386.3, -117604.43, -0.03716163, -0.45643705, -939853.2, 213731.78, 0.0, 10.001306, 10.000111 
2.7959955e+3, 1.9227841e+2, -844417.0, -921901.3, -54020.754, 0.101472914, -0.36874682, -816682.1, 238967.8, 0.0, 10.001691, 10.000511 
2.7955955e+3, 2.0227174e+2, -918463.6, -1158286.3, 70903.7, 0.16790949, -0.19952707, -899069.25, 58649.95, 0.0, 10.0015745, 9.998298 
2.7951962e+3, 2.122637e+2, -968045.25, -1128117.1, 17155.063, 0.052583482, -0.037289925, -966227.3, -106422.07, 0.0, 10.000614, 9.9982605 
2.7947962e+3, 2.2225545e+2, -862616.0, -893701.5, -190379.22, -0.022323979, 0.050093785, -687146.1, 74742.414, 0.0, 9.999966, 9.999551 
2.7943942e+3, 2.3224592e+2, -651489.2, -622201.3, -136494.5, 0.050965916, -0.1684733, -499567.47, 164406.58, 0.0, 10.000301, 10.000535 
2.7939916e+3, 2.4223672e+2, -617407.1, -781178.56, -50730.793, 0.088701956, -0.26897496, -602965.9, -36905.375, 0.0, 10.000777, 9.99859 
2.7935886e+3, 2.522287e+2, -412786.7, -631412.44, -113767.98, 0.01945365, -0.13099155, -364326.13, 103819.88, 0.0, 10.001535, 9.998571 
2.7931866e+3, 2.6222092e+2, -181055.72, -357159.28, -104197.52, 0.011580126, -0.011540657, -132688.16, 237537.17, 0.0, 10.001947, 9.999587 
2.792786e+3, 2.7221233e+2, -12822.77, -135119.88, 34177.656, 0.14710675, -0.10306956, -3919.5007, 268382.4, 0.0, 10.002091, 10.000345 
2.792385e+3, 2.8220353e+2, -108581.35, -310017.88, 169467.39, 0.21044388, -0.14237833, -12161.685, 162222.56, 0.0, 10.001511, 9.99876 
2.7919817e+3, 2.9219437e+2, -303160.6, -345115.13, 121061.27, -0.010842624, -0.12992182, -201272.56, -124795.6, 0.0, 9.999464, 9.998813 
2.7915803e+3, 3.0218506e+2, -374038.38, -378255.25, 178418.17, -0.15094674, -0.116065994, -197716.17, -197716.17, 0.0, 9.998457, 9.998461 
2.7911875e+3, 3.1217492e+2, 60229.496, -46910.656, 139966.58, 0.37889042, -0.25791845, 156527.34, 156527.34, 0.0, 10.000711, 9.999305 
2.7907836e+3, 3.221667e+2, -214244.22, -54279.832, -178960.14, 0.11086111, -0.17210862, 61758.086, 61758.086, 0.0, 9.998198, 10.000465 
2.808395e+3, 1.3272841e+2, -1313399.9, -1350241.5, -367807.88, 0.22746873, -0.033204712, -963551.8, 675707.4, 0.00056472304, 10.00203, 10.001417 
2.807993e+3, 1.4272067e+2, -1444960.0, -1748132.4, -112944.4, 0.2627604, -0.0749387, -1407509.6, 133813.75, 0.00022531899, 10.002054, 9.998093 
2.8075898e+3, 1.5271257e+2, -1374458.6, -1608438.3, -25240.496, -0.06551791, 0.03746838, -1371766.8, 71648.68, 0.000052747473, 10.001707, 9.998495 
2.8071883e+3, 1.6270408e+2, -1314944.4, -1416224.5, -61193.406, -0.23556575, 0.09053698, -1286154.9, 59349.332, 0.0000047753, 10.000908, 9.99955 
2.8067878e+3, 1.726941e+2, -1314252.9, -1236888.9, -54505.56, -0.15667424, -0.1862472, -1208734.1, 38854.688, 0.00000002399446, 9.999737, 10.000626 
2.8063878e+3, 1.8268514e+2, -1336296.9, -1246687.6, -42708.87, -0.06376795, -0.3348361, -1229593.1, -79926.28, 0.0, 9.999119, 10.000218 
2.8059882e+3, 1.9267857e+2, -969714.7, -937848.44, -78818.86, 0.05876039, -0.29336828, -873368.4, 178362.08, 0.0, 10.000676, 10.000878 
2.8055885e+3, 2.0267153e+2, -947417.7, -1205689.1, -4348.944, 0.13343865, -0.17931393, -947344.5, 6456.7813, 0.0, 10.001519, 9.998008 
2.8051892e+3, 2.1266237e+2, -878836.1, -1125398.9, 100987.18, 0.057437956, -0.11224892, -842754.06, 13144.392, 0.0, 10.001391, 9.9979 
2.804789e+3, 2.2265384e+2, -745957.0, -779310.6, 11832.076, 0.022398056, -0.026972344, -742185.94, 15799.578, 0.0, 10.000587, 10.0000305 
2.8043866e+3, 2.326464e+2, -690568.0, -532197.7, -108757.64, 0.11445375, -0.11485206, -476852.16, 183198.08, 0.0, 9.999599, 10.001506 
2.8039843e+3, 2.426386e+2, -909194.2, -943219.56, -63067.027, 0.14668353, -0.12238479, -860885.5, -298762.9, 0.0, 9.998946, 9.998341 
2.8035817e+3, 2.526293e+2, -675586.75, -806968.4, -8003.309, 0.0030081086, -0.08271707, -675101.06, -210879.73, 0.0, 10.000031, 9.998048 
2.8031793e+3, 2.626209e+2, -373695.47, -339413.78, -60.481457, -0.061444264, -0.0108121475, -339413.7, 26892.518, 0.0, 10.000202, 10.000537 
2.8027788e+3, 2.726141e+2, -194851.69, -11267.429, -81930.05, 0.09295795, -0.113868915, 19978.355, 288339.06, 0.0, 9.999961, 10.002212 
2.8023776e+3, 2.8260654e+2, -443641.34, -539493.06, -121319.43, 0.1772657, -0.13909054, -361124.53, -190697.58, 0.0, 9.999547, 9.998133 
2.8019738e+3, 2.9259616e+2, -352638.56, -484595.84, -154649.27, 0.0364611, -0.17983724, -250481.63, -177949.13, 0.0, 9.999688, 9.997741 
2.8015715e+3, 3.0258533e+2, -355330.72, -429988.28, 26398.072, -0.122145884, -0.24891539, -346939.75, -346939.75, 0.0, 9.99893, 9.997844 
2.801177e+3, 3.1257328e+2, -390235.1, -299919.75, 110333.59, 0.08360422, -0.5746661, -225860.31, -225860.31, 0.0, 9.997844, 9.998906 
2.8007725e+3, 3.2256645e+2, -223129.94, 100892.84, -532155.3, -0.0060689966, -0.38889807, 495152.03, 495152.03, 0.0, 9.997631, 10.001739 
2.8183904e+3, 1.3312997e+2, -1076950.4, -708588.06, -201209.5, 0.31674373, 0.67562866, -619991.0, 1015367.06, 0.00024801813, 10.001417, 10.006106 
2.817982e+3, 1.431212e+2, -1450108.1, -1572799.3, -50314.324, -0.2451388, 0.19284976, -1432113.9, 105294.4, 0.00009111463, 10.001286, 9.999654 
2.817583e+3, 1.5311176e+2, -1398174.3, -1526974.8, 26832.072, -0.15302972, 0.08652575, -1392808.1, 46700.004, 0.000018145423, 10.001162, 9.999313 
2.817183e+3, 1.631031e+2, -1282371.9, -1315643.8, -62120.87, -0.0713735, 0.048694503, -1234698.0, 106897.164, 0.000001252134, 10.000764, 10.000316 
2.81678e+3, 1.7309597e+2, -1258919.9, -1150451.4, -44519.566, -0.13435623, 0.013947528, -1134519.1, 109135.92, 0.0000000065346386, 9.9998665, 10.001161 
2.8163785e+3, 1.8308847e+2, -1317321.4, -1284111.8, 19462.729, -0.17354429, 0.009650984, -1275133.0, -129411.05, 0.0, 9.999478, 9.999766 
2.8159794e+3, 1.9307998e+2, -1014773.9, -1061042.0, 19416.95, -0.11297044, -0.04782753, -1007705.25, 40101.438, 0.0, 10.000805, 9.999969 
2.8155807e+3, 2.0307152e+2, -781611.56, -918371.0, 24675.54, -0.06449411, -0.085810244, -777295.56, 172593.42, 0.0, 10.001745, 9.999869 
2.8151816e+3, 2.1306244e+2, -675018.94, -758744.6, 124349.88, -0.08049641, -0.2339692, -585674.4, 266299.16, 0.0, 10.0016, 10.000329 
2.8147814e+3, 2.2305398e+2, -708652.5, -819065.5, -14348.136, -0.061417308, -0.2685583, -706818.44, 47235.313, 0.0, 10.001075, 9.999521 
2.8143778e+3, 2.3304623e+2, -741383.94, -744371.4, -117789.945, 0.050509546, -0.2217774, -625078.25, 31049.992, 0.0, 10.000019, 9.99986 
2.8139752e+3, 2.4303822e+2, -736668.06, -720419.4, -19032.563, 0.083750956, -0.19368231, -707849.7, -149644.95, 0.0, 9.999494, 9.999604 
2.8135732e+3, 2.5302932e+2, -507052.7, -518882.6, 65416.906, -0.046415266, -0.27989182, -447283.88, 13005.986, 0.0, 10.000265, 9.999924 
2.8131714e+3, 2.6302052e+2, -442932.47, -575382.8, 19628.236, -0.08709893, -0.2909207, -440084.9, -77709.805, 0.0, 10.000537, 9.998779 
2.8127703e+3, 2.7301162e+2, -429230.5, -484218.03, -129251.7, 0.06564706, -0.2845025, -324580.75, -60119.105, 0.0, 9.999824, 9.999074 
2.812369e+3, 2.8300261e+2, -486575.8, -650206.3, -166542.97, 0.16268882, -0.23055765, -382837.06, -216286.19, 0.0, 9.999565, 9.99739 
2.8119665e+3, 2.9299268e+2, -242729.64, -470032.1, -193117.5, 0.078025185, -0.18867926, -132302.83, -63647.94, 0.0, 10.00054, 9.997466 
2.8115636e+3, 3.0298322e+2, -54857.023, -58988.633, -103895.85, -0.10343243, -0.1911257, 46993.555, 46993.555, 0.0, 9.999989, 9.999877 
2.8111634e+3, 3.1297436e+2, -406391.4, -63065.52, -14626.26, -0.15488574, -0.41266537, -62443.543, -62443.543, 0.0, 9.996614, 10.001144 
2.8107637e+3, 3.2296902e+2, -332206.56, -557124.25, -266046.3, 0.07332934, -0.0015815796, -155826.98, -155826.98, 0.0, 9.999365, 9.996418 
2.8283808e+3, 1.3352892e+2, -1220674.0, -967903.44, 43050.605, 0.025204025, 0.22437452, -960772.44, 670659.5, 0.000104967556, 10.001269, 10.004377 
2.8279755e+3, 1.4352103e+2, -1632515.5, -1697581.1, 86711.234, -0.13994302, -0.0023717345, -1572435.0, -38954.77, 0.000034652854, 10.000203, 9.999303 
2.8275755e+3, 1.5351191e+2, -1531439.8, -1585321.4, 122257.74, -0.15018223, -0.063345216, -1433189.6, 2389.9285, 0.000005523166, 10.000247, 9.999336 
2.8271756e+3, 1.6350392e+2, -1330004.3, -1283958.8, 20957.912, -0.06498757, -0.048588406, -1275848.3, 61812.785, 0.0000002527922, 10.000256, 10.000765 
2.8267735e+3, 1.7349769e+2, -1160753.9, -1053670.3, 21484.537, -0.009790085, -0.026735729, -1049520.5, 190191.72, 0.0, 10.000399, 10.001566 
2.8263718e+3, 1.834905e+2, -1223455.8, -1304057.8, 143067.48, -0.030298455, 0.014332428, -1115121.4, 26656.693, 0.0, 10.000386, 9.999208 
2.825972e+3, 1.9348103e+2, -1133680.9, -1196244.6, 157910.83, -0.093628995, -0.07701862, -1003983.3, 39891.605, 0.0, 10.0003, 9.999296 
2.8255734e+3, 2.0347224e+2, -1002990.75, -996783.2, 135154.77, -0.11474784, -0.104324915, -864696.56, 81265.13, 0.0, 10.000157, 10.000072 
2.8251743e+3, 2.1346408e+2, -814828.7, -766886.4, 87338.97, -0.12478644, -0.21608613, -700288.7, 147747.55, 0.0, 10.000428, 10.000818 
2.8247738e+3, 2.2345595e+2, -852694.2, -956946.3, -129763.336, -0.09808423, -0.22434445, -764978.7, -14866.076, 0.0, 10.000443, 9.998853 
2.82437e+3, 2.3344746e+2, -762738.9, -837437.7, -163807.47, 0.016817154, -0.2012053, -632076.75, 20120.902, 0.0, 10.000303, 9.999047 
2.8239667e+3, 2.4343891e+2, -678592.0, -654597.8, -15222.583, 0.058046553, -0.18607607, -647213.0, -92933.28, 0.0, 9.999792, 9.999905 
2.8235653e+3, 2.534298e+2, -598141.25, -473838.63, -21624.715, -0.009017355, -0.3823956, -470184.06, -13823.073, 0.0, 9.999301, 10.000691 
2.823164e+3, 2.634207e+2, -751171.44, -875343.0, -78726.05, -0.037528563, -0.414383, -712995.4, -354548.94, 0.0, 9.9991455, 9.997362 
2.8227618e+3, 2.7341077e+2, -542177.8, -730141.25, -71143.3, 0.02819232, -0.37092972, -518287.03, -257738.17, 0.0, 9.999931, 9.997303 
2.82236e+3, 2.834009e+2, -466108.4, -713083.25, 17830.9, 0.07798946, -0.24932253, -464827.7, -302175.72, 0.0, 10.000102, 9.99667 
2.8219596e+3, 2.9339078e+2, -291791.94, -511952.38, 1345.7874, 0.09149779, -0.20476076, -291783.72, -227024.11, 0.0, 10.00033, 9.997262 
2.821556e+3, 3.0338222e+2, -4832.923, 113431.7, -61949.918, -0.09672674, -0.13606249, 139940.64, 139940.64, 0.0, 9.999746, 10.001171 
2.8211507e+3, 3.1337622e+2, -103431.46, 281312.16, -101690.234, -0.35141692, -0.25341433, 306535.88, 306535.88, 0.0, 9.99789, 10.002883 
2.8207567e+3, 3.2337105e+2, -797735.75, -1273689.6, 224509.98, 0.1817917, 0.2613565, -708546.44, -708546.44, 0.0, 9.998424, 9.991911 
2.8383708e+3, 1.3392748e+2, -1552660.8, -1506308.3, -119039.28, -0.30456734, -0.44222862, -1408210.0, 219288.17, 0.00004788907, 10.000621, 10.000993 
2.8379706e+3, 1.4392093e+2, -1601163.1, -1745739.8, 61351.355, 0.10208349, -0.31794032, -1578638.0, -49091.676, 0.000014416294, 10.000717, 9.998711 
2.8375676e+3, 1.5391281e+2, -1609960.9, -1647198.6, 130064.58, -0.18828055, -0.2615603, -1497189.3, -65549.22, 0.000001952137, 9.999837, 9.999099 
2.8371668e+3, 1.6390549e+2, -1369385.4, -1256926.9, 16639.816, -0.1767615, -0.18474561, -1254516.5, 79199.49, 0.00000005936716, 9.999783, 10.001174 
2.8367674e+3, 1.7389907e+2, -1132039.5, -1019224.0, 35512.01, 0.13270758, -0.2108236, -1008976.44, 226791.31, 0.0, 10.00048, 10.001774 
2.8363672e+3, 1.8389155e+2, -1170559.1, -1295795.6, 138375.47, 0.211992, -0.20329772, -1081293.1, 56543.48, 0.0, 10.000784, 9.999092 
2.835966e+3, 1.9388182e+2, -1112525.3, -1217635.3, 166482.69, 0.010401734, -0.29073715, -990499.25, 49438.445, 0.0, 10.000554, 9.999042 
2.835566e+3, 2.038737e+2, -1014361.7, -1086643.1, 149573.11, -0.09846273, -0.20771807, -896624.94, 45397.24, 0.0, 10.00044, 9.999321 
2.8351673e+3, 2.1386734e+2, -853175.1, -918432.5, 126715.9, -0.13138148, -0.011295991, -754954.44, 89132.68, 0.0, 10.000715, 9.999658 
2.8347662e+3, 2.2385979e+2, -765952.25, -880129.75, -130362.07, -0.114095174, 0.095141664, -680726.56, 65436.457, 0.0, 10.000866, 9.999185 
2.834362e+3, 2.3385023e+2, -685341.2, -771436.9, -147623.8, -0.007575787, -0.005849641, -574616.8, 73641.29, 0.0, 10.000672, 9.999346 
2.8339592e+3, 2.4384075e+2, -628308.3, -670655.7, -17284.05, 0.093879215, -0.086531766, -622149.56, -71800.195, 0.0, 10.000276, 9.999571 
2.8335592e+3, 2.5383103e+2, -605204.6, -576766.2, -33693.01, 0.18879107, -0.24953876, -554414.9, -101976.07, 0.0, 9.9996195, 9.999856 
2.8331572e+3, 2.638222e+2, -573392.2, -599904.4, -35354.58, 0.15684596, -0.28494892, -548890.25, -194369.39, 0.0, 9.999517, 9.999071 
2.8327534e+3, 2.7381408e+2, -331179.66, -432387.5, 7532.394, -0.052652564, -0.22269733, -330622.13, -74023.89, 0.0, 10.000509, 9.999078 
2.8323513e+3, 2.838049e+2, -293880.56, -556126.2, 105188.055, -0.07238871, -0.15444945, -256903.05, -98213.29, 0.0, 10.000936, 9.9973545 
2.8319523e+3, 2.9379395e+2, -218074.25, -471008.94, 95792.13, 0.120614685, -0.18652794, -185890.66, -125086.51, 0.0, 10.000775, 9.997341 
2.8315493e+3, 3.0378464e+2, 21307.91, 11679.789, 602.5232, 0.04199651, -0.15837647, 21345.469, 21345.469, 0.0, 10.000358, 10.000193 
2.8311434e+3, 3.1377783e+2, 28505.918, 137996.8, -120540.305, -0.1585711, -0.17061293, 215641.05, 215641.05, 0.0, 9.999611, 10.001096 
2.8307477e+3, 3.237692e+2, -418538.44, -495364.22, 308383.13, 0.22328855, -0.11382105, -146185.0, -146185.0, 0.0, 9.998377, 9.997308 
2.8483653e+3, 1.3432968e+2, -1480215.8, -1390281.1, -129740.74, -0.093388155, -0.262919, -1297935.9, 325623.16, 0.000025215255, 10.000681, 10.00181 
2.8479636e+3, 1.4432278e+2, -1302896.0, -1522348.5, -76831.55, 0.017809987, -0.24803488, -1278671.0, 246939.47, 0.000007550391, 10.002421, 9.999428 
2.847559e+3, 1.5431498e+2, -1659434.8, -1615001.6, -17840.611, -0.1980709, -0.22055991, -1608725.0, -181026.63, 0.0000012508747, 9.999235, 9.999621 
2.8471577e+3, 1.6430748e+2, -1572800.5, -1367568.0, 30602.686, -0.17029062, -0.1914881, -1363101.9, -33328.62, 0.000000073245815, 9.998462, 10.001037 
2.84676e+3, 1.7430004e+2, -1090534.9, -1041325.75, 17479.318, 0.0880233, -0.29551277, -1035749.0, 196084.98, 0.0, 10.000944, 10.001393 
2.8463602e+3, 1.8429211e+2, -1030102.06, -1281777.1, 37733.41, 0.17233355, -0.29227665, -1024566.5, 109341.56, 0.0, 10.002036, 9.998569 
2.8459594e+3, 1.9428289e+2, -1013485.9, -1227014.9, 17339.967, 0.036248494, -0.304542, -1012086.94, 23918.893, 0.0, 10.001511, 9.998509 
2.8455594e+3, 2.0427494e+2, -1004803.4, -1037547.25, 28791.457, -0.035390213, -0.20418167, -988054.5, -49966.086, 0.0, 10.000355, 9.9996805 
2.8451598e+3, 2.1426846e+2, -1188653.4, -1056616.5, 90045.01, -0.041816, -0.07295032, -1010981.3, -170827.56, 0.0, 9.9983635, 9.999822 
2.8447586e+3, 2.2426122e+2, -1146930.6, -1011595.56, -30555.555, -0.014182739, 0.046372395, -1005016.7, -262789.6, 0.0, 9.998031, 9.9996605 
2.844355e+3, 2.3425241e+2, -760812.75, -755843.3, -22027.268, 0.06935791, -0.04067076, -736161.06, -91845.12, 0.0, 9.999943, 9.999817 
2.8439525e+3, 2.4424347e+2, -623429.6, -720324.3, 89922.42, 0.1470884, -0.058495294, -569734.0, -23330.426, 0.0, 10.000564, 9.999086 
2.8435516e+3, 2.5423396e+2, -661965.9, -672490.25, 71828.63, 0.26759595, -0.15000638, -595206.94, -146713.48, 0.0, 9.999581, 9.999194 
2.8431496e+3, 2.6422518e+2, -535964.3, -519851.9, 108185.945, 0.21022844, -0.14539073, -419422.6, -68847.28, 0.0, 9.999571, 9.999574 
2.8427458e+3, 2.7421707e+2, -203051.72, -286635.06, 46905.777, -0.09080804, -0.17167109, -182020.66, 70628.65, 0.0, 10.001089, 9.999776 
2.842344e+3, 2.8420815e+2, -238209.53, -490338.28, 37540.547, -0.14203322, -0.13076769, -232738.66, -78003.79, 0.0, 10.001193, 9.997662 
2.841945e+3, 2.941972e+2, -364674.6, -513756.44, 53897.95, 0.14490946, -0.2189335, -347229.97, -290384.4, 0.0, 9.999678, 9.997567 
2.8415424e+3, 3.041874e+2, -262135.53, -285607.16, -11970.693, 0.13642046, -0.1899656, -257107.48, -257107.48, 0.0, 9.999181, 9.998691 
2.8411373e+3, 3.141789e+2, -80238.31, -131200.58, -95464.35, 0.039701533, -0.20366141, -6912.9194, -6912.9194, 0.0, 9.999871, 9.999094 
2.8407374e+3, 3.2416758e+2, 76644.02, 380091.84, 252136.63, 0.095746815, -0.5909775, 522634.88, 522634.88, 0.0, 9.999145, 10.0028925 
2.8583604e+3, 1.3473342e+2, -1300867.8, -1083640.1, 162211.97, 0.09183296, 0.13031872, -997036.94, 622574.8, 0.000013079658, 10.000963, 10.003787 
2.8579557e+3, 1.4472552e+2, -1474375.5, -1513333.9, -112361.58, -0.22030298, -0.07142161, -1379817.1, 141854.16, 0.0000037431412, 10.000851, 10.00024 
2.85755e+3, 1.5471794e+2, -1552675.9, -1489000.8, -67003.65, -0.22475156, -0.09501664, -1446655.3, -22903.018, 0.00000051506584, 9.999646, 10.000289 
2.857149e+3, 1.6470987e+2, -1424675.6, -1336493.0, 138797.02, -0.16547284, -0.13765663, -1234952.4, 90877.09, 0.00000002542409, 9.999641, 10.000684 
2.856751e+3, 1.7470117e+2, -1078119.1, -1101612.8, 136806.13, -0.12022991, -0.3102376, -952556.44, 275346.53, 0.0, 10.001316, 10.000798 
2.8563523e+3, 1.8469281e+2, -1060332.8, -1355265.0, 39586.0, -0.07286015, -0.28446507, -1055112.0, 74871.19, 0.0, 10.002089, 9.998029 
2.8559527e+3, 1.9468437e+2, -1056072.1, -1308050.6, 44256.504, -0.032079604, -0.1504797, -1048525.2, -16449.94, 0.0, 10.001469, 9.997974 
2.8555524e+3, 2.0467593e+2, -872963.44, -787599.9, -17355.844, 0.023684954, -0.15375882, -784206.1, 149953.23, 0.0, 10.000411, 10.00138 
2.855152e+3, 2.1466717e+2, -1044904.94, -809576.0, 44835.87, 0.09485714, -0.40313593, -801323.06, 34914.957, 0.0, 9.998528, 10.001454 
2.8547508e+3, 2.2466007e+2, -994198.06, -796273.3, 51657.11, 0.16595024, -0.41773954, -783602.3, -45296.285, 0.0, 9.998452, 10.000932 
2.854349e+3, 2.3465417e+2, -601898.9, -555965.06, 91601.68, 0.22657847, -0.3056827, -484494.97, 155872.64, 0.0, 10.000453, 10.000954 
2.8539458e+3, 2.4464747e+2, -539994.6, -672574.4, 92909.48, 0.20456839, -0.1610598, -492150.75, 50283.72, 0.0, 10.001057, 9.999188 
2.8535417e+3, 2.5463971e+2, -585255.94, -632783.25, 86235.01, 0.095922396, -0.05635216, -519570.22, -75061.79, 0.0, 10.000036, 9.999266 
2.8531402e+3, 2.6463014e+2, -541039.1, -672533.06, 210835.72, 0.047685094, -0.07143784, -385936.9, -39336.13, 0.0, 10.000139, 9.998272 
2.8527406e+3, 2.7461845e+2, -188522.2, -436747.7, 129830.945, 0.013949045, -0.2811227, -133024.13, 115689.99, 0.0, 10.001818, 9.998416 
2.8523394e+3, 2.846084e+2, -68759.71, -287927.66, -26228.627, 0.043923825, -0.3361055, -65664.55, 85145.02, 0.0, 10.00177, 9.998801 
2.851937e+3, 2.945997e+2, -262901.0, -326277.47, -6464.1104, 0.16000941, -0.2985835, -262248.4, -209357.66, 0.0, 9.99974, 9.998844 
2.8515336e+3, 3.045899e+2, -258499.53, -342167.7, 74035.66, 0.16240476, -0.31266484, -215296.16, -215296.16, 0.0, 9.999401, 9.998223 
2.8511325e+3, 3.1457883e+2, 69543.6, -141051.52, 22725.436, 0.27517608, -0.49151725, 71968.01, 71968.01, 0.0, 10.001214, 9.998404 
2.85073e+3, 3.24571e+2, 185251.1, 195784.3, 89828.02, 0.09782223, -0.38167655, 280499.97, 280499.97, 0.0, 10.000754, 10.000923 
2.8683558e+3, 1.351394e+2, -1409970.0, -1413159.5, 151103.3, 0.27832285, 0.06065324, -1260453.0, 355169.75, 0.0000059629547, 10.001394, 10.00132 
2.8679463e+3, 1.451283e+2, -1850760.4, -1766760.8, 90383.8, -0.25081092, -0.2822988, -1709095.1, -191372.47, 0.0000015122073, 9.998578, 9.999601 
2.8675434e+3, 1.5512176e+2, -1252403.9, -1412704.0, 83480.125, -0.17252415, -0.13773838, -1216826.0, 202963.06, 0.0000000966577, 10.0019865, 9.999691 
2.8671438e+3, 1.6511309e+2, -1015703.5, -1326847.1, 202878.03, -0.0755567, -0.12037748, -915615.25, 406258.3, 0.00000000026919006, 10.003256, 9.999022 
2.8667456e+3, 1.7510256e+2, -1048527.8, -1285538.4, 127919.29, -0.060582295, -0.30991194, -992657.5, 231315.5, 0.0, 10.002338, 9.999067 
2.866346e+3, 1.8509406e+2, -1096383.6, -1229204.8, 18200.521, -0.07196662, -0.27116698, -1093934.8, 32120.916, 0.0, 10.001265, 9.99927 
2.8659454e+3, 1.9508702e+2, -1200509.4, -1244645.5, 115642.9, -0.047781564, -0.12559174, -1104847.8, -76718.87, 0.0, 9.999956, 9.999114 
2.8655443e+3, 2.0507894e+2, -1066310.6, -836853.6, 78105.62, 0.033883452, -0.15475844, -812790.5, 117415.8, 0.0, 9.998917, 10.001752 
2.8651428e+3, 2.1506953e+2, -1097202.1, -799806.7, 49235.34, 0.16617687, -0.5017632, -791867.5, 40422.78, 0.0, 9.998037, 10.00175 
2.864742e+3, 2.250625e+2, -1025523.5, -791265.44, 100003.88, 0.23373385, -0.53028005, -754381.56, -20024.957, 0.0, 9.9981985, 10.001053 
2.864341e+3, 2.3505755e+2, -783718.3, -632481.9, 61654.426, 0.2551701, -0.36416832, -610532.75, 25875.824, 0.0, 9.999221, 10.00098 
2.8639385e+3, 2.45051e+2, -630466.2, -751662.5, -12960.992, 0.18660039, -0.1942101, -629095.56, -90622.42, 0.0, 10.0006695, 9.998787 
2.8635338e+3, 2.550426e+2, -315424.8, -568600.44, -52372.25, 0.03103114, -0.15083551, -305018.75, 135534.22, 0.0, 10.0022135, 9.998642 
2.8631327e+3, 2.650325e+2, -374990.66, -692030.2, 105868.61, -0.003440823, -0.14944306, -342888.63, -236.62679, 0.0, 10.001775, 9.997322 
2.8627345e+3, 2.7501988e+2, -580923.44, -746349.2, 105325.74, 0.097186215, -0.38407856, -529715.0, -284937.38, 0.0, 9.999692, 9.997299 
2.8623334e+3, 2.8500986e+2, -321891.34, -289539.53, -67126.96, 0.16684105, -0.43240073, -236667.0, -89795.305, 0.0, 9.999575, 9.999828 
2.8619292e+3, 2.9500228e+2, -72413.58, -137264.16, -62904.215, 0.18986541, -0.39866588, -34069.246, 14866.317, 0.0, 10.000676, 9.999683 
2.8615263e+3, 3.0499226e+2, -21060.389, -280278.78, 98135.125, 0.19158809, -0.45228451, 11900.542, 11900.542, 0.0, 10.001324, 9.997691 
2.8611273e+3, 3.149798e+2, 37705.99, -249581.86, 81875.32, 0.3975936, -0.7375613, 59401.547, 59401.547, 0.0, 10.001455, 9.997524 
2.8607228e+3, 3.2497522e+2, -108499.56, -188202.03, 36957.258, 0.07620855, -0.16085628, -94000.45, -94000.45, 0.0, 9.99987, 9.998685 
2.8783497e+3, 1.3554515e+2, -1788954.8, -1966924.0, -263452.5, 0.36903718, -0.15723598, -1599864.8, 11768.261, 0.0000021473002, 10.000386, 9.998012 
2.8779373e+3, 1.4553145e+2, -1626402.8, -1739592.3, 163731.4, -0.25112247, -0.5640846, -1509760.9, 4006.5193, 0.00000043033984, 10.000464, 9.998878 
2.8775382e+3, 1.5552606e+2, -1326594.8, -1555261.3, 196133.52, -0.1538419, -0.22472921, -1213902.8, 201915.3, 0.000000019645139, 10.00193, 9.998744 
2.87714e+3, 1.6551667e+2, -1260623.0, -1673459.0, 176947.84, 0.015564617, -0.12635551, -1195160.6, 122752.68, 0.0, 10.002559, 9.996975 
2.876742e+3, 1.7550421e+2, -1248669.0, -1600339.5, 150256.05, 0.090898156, -0.28195083, -1193214.5, 26828.182, 0.0, 10.001899, 9.997115 
2.8763404e+3, 1.854958e+2, -929613.44, -872229.4, 5846.616, 0.031604547, -0.270201, -871639.75, 250484.9, 0.0, 10.001169, 10.001786 
2.875937e+3, 1.9549027e+2, -1021772.06, -893187.94, 94391.62, -0.093279585, -0.20553087, -843272.94, 180899.88, 0.0, 9.999996, 10.001529 
2.8755346e+3, 2.0548356e+2, -1062661.3, -878736.6, 53575.348, -0.044507988, -0.1974599, -864268.75, 61966.3, 0.0, 9.999145, 10.00134 
2.8751326e+3, 2.1547553e+2, -1086170.5, -856199.8, 52600.445, 0.10131209, -0.337903, -844739.8, -16428.56, 0.0, 9.99836, 10.001209 
2.8747314e+3, 2.2546871e+2, -1014352.9, -861407.0, 155696.2, 0.13025028, -0.28147563, -764416.94, -34039.375, 0.0, 9.998581, 10.000389 
2.874331e+3, 2.3546284e+2, -770951.75, -709974.9, 118251.164, 0.05989672, -0.118710585, -618345.0, 14091.524, 0.0, 9.99963, 10.000262 
2.8739306e+3, 2.4545303e+2, -592131.3, -810017.6, 69638.12, 0.08790974, -0.20604092, -571776.06, -37245.34, 0.0, 10.0012045, 9.998165 
2.8735304e+3, 2.554398e+2, -202344.69, -591744.06, 25661.268, 0.1605825, -0.553796, -200660.89, 235994.58, 0.0, 10.003247, 9.998024 
2.8731284e+3, 2.6542997e+2, -190385.94, -504324.7, 5043.1265, 0.124508746, -0.5435344, -190304.94, 148446.61, 0.0, 10.00257, 9.998238 
2.8727257e+3, 2.7542233e+2, -508343.8, -605056.7, 20545.383, 0.022658737, -0.3452441, -504160.2, -263330.2, 0.0, 9.999679, 9.998284 
2.8723246e+3, 2.8541383e+2, -286245.97, -198593.16, 47401.234, 0.13493672, -0.3277027, -177862.36, -34953.94, 0.0, 9.999483, 10.000502 
2.8719246e+3, 2.9540458e+2, 153979.1, 33376.62, 51247.297, 0.36784506, -0.50508446, 172813.98, 217800.9, 0.0, 10.001919, 10.000269 
2.871522e+3, 3.0539486e+2, 255542.84, -120398.39, 124264.48, 0.27966642, -0.56792694, 292904.44, 292904.44, 0.0, 10.003047, 9.997978 
2.8711194e+3, 3.153849e+2, 310389.97, -83795.22, 99594.05, 0.14251103, -0.6009424, 334124.16, 334124.16, 0.0, 10.003098, 9.997903 
2.870717e+3, 3.2537758e+2, -44302.145, -180848.88, -81192.94, 0.29150894, -0.30106777, -6492.78, -6492.78, 0.0, 10.0003195, 9.998536 
2.8883395e+3, 1.359468e+2, -1665057.3, -1807472.1, -143567.38, 0.10183671, -0.1720837, -1576008.4, 31689.049, 0.0000003382392, 10.000757, 9.998921 
2.8879333e+3, 1.4593616e+2, -911249.94, -1350241.9, -13024.768, -0.22049853, -0.35094354, -910863.8, 598937.75, 0.000000039050374, 10.00515, 9.99929 
2.8875333e+3, 1.5592813e+2, -1270111.0, -1504333.0, 46031.008, -0.047188327, -0.31428415, -1261389.4, 150486.9, 0.0000000006124831, 10.00219, 9.998982 
2.8871346e+3, 1.6591962e+2, -1419031.4, -1590098.1, 180100.95, 0.110550076, -0.22136034, -1305185.0, 8776.523, 0.0, 10.000801, 9.998368 
2.8867355e+3, 1.7591013e+2, -1390538.4, -1545979.6, 298052.1, 0.14415446, -0.21333358, -1160240.3, 55820.508, 0.0, 10.0004, 9.998203 
2.8863335e+3, 1.8590121e+2, -1180659.8, -1115353.5, 137397.55, 0.09478035, -0.22290997, -1006782.3, 111366.0, 0.0, 10.000021, 10.000664 
2.8859302e+3, 1.9589302e+2, -1170316.0, -1074578.4, 19245.238, 0.040605262, -0.3277647, -1070854.5, -50630.793, 0.0, 9.999473, 10.0005455 
2.8855267e+3, 2.0588621e+2, -1035243.06, -946750.0, -67090.43, 0.03731325, -0.25374165, -910629.4, 11659.604, 0.0, 9.999737, 10.000587 
2.885124e+3, 2.1587986e+2, -840964.9, -840993.7, -94932.15, 0.09116824, -0.17409737, -746047.1, 78305.36, 0.0, 10.000545, 10.00026 
2.8847227e+3, 2.2587268e+2, -763432.44, -795539.4, 26132.78, 0.08449089, -0.09219371, -748816.1, -22393.318, 0.0, 10.000579, 9.99988 
2.8843224e+3, 2.3586509e+2, -798656.6, -809297.1, 5262.604, 0.0371929, -0.0718043, -796493.56, -167996.72, 0.0, 9.999861, 9.999474 
2.8839236e+3, 2.4585411e+2, -763543.1, -890726.4, 48791.7, 0.10211919, -0.24301825, -746981.6, -216380.77, 0.0, 10.00005, 9.998155 
2.8835255e+3, 2.5584003e+2, -629594.4, -812188.4, 63762.76, 0.2561852, -0.68945575, -609532.4, -176799.55, 0.0, 10.00044, 9.997843 
2.8831232e+3, 2.658309e+2, -381900.28, -505150.34, -33315.19, 0.17720182, -0.6369536, -373471.4, -38650.66, 0.0, 10.000942, 9.998994 
2.8827173e+3, 2.7582535e+2, -313530.47, -440306.28, -23005.006, -0.031309303, -0.31724072, -309485.03, -72607.375, 0.0, 10.000787, 9.998866 
2.882316e+3, 2.858173e+2, -131243.72, -87465.91, 89663.29, 0.10092324, -0.30171603, -17058.389, 121892.14, 0.0, 10.000423, 10.000798 
2.8819188e+3, 2.9580685e+2, -189475.97, -138992.06, 83706.484, 0.47982603, -0.6415016, -76804.44, -35764.145, 0.0, 9.99963, 10.000183 
2.8815162e+3, 3.0579826e+2, -136521.08, -242611.58, 114118.32, 0.28410968, -0.6152094, -63722.016, -63722.016, 0.0, 10.00017, 9.9985 
2.8811112e+3, 3.1579098e+2, -6357.6743, -226090.36, 115197.84, -0.15024523, -0.42681956, 42965.043, 42965.043, 0.0, 10.000967, 9.997938 
2.8807116e+3, 3.257803e+2, 78291.36, -102698.15, -132774.61, 0.44111222, -0.52081174, 148477.64, 148477.64, 0.0, 10.001289, 9.99851 
2.8983298e+3, 1.3634826e+2, -1402109.1, -1483989.6, 302994.84, -0.23912305, -0.06351573, -1137301.1, 466464.7, 0.0000000028010363, 10.001728, 10.000674 
2.8979298e+3, 1.4634079e+2, -1185765.0, -1398070.6, -87932.7, -0.2241251, -0.041658655, -1154075.3, 351762.56, 0.0, 10.002912, 10.0000305 
2.8975284e+3, 1.5632924e+2, -1338666.8, -1425159.9, -4957.816, 0.04393375, -0.42597735, -1338383.5, 69563.266, 0.0, 10.001227, 9.99999 
2.8971282e+3, 1.6632268e+2, -1233732.1, -1161181.3, 168133.27, 0.15262869, -0.355616, -1025454.6, 284554.22, 0.0, 10.000601, 10.001408 
2.8967276e+3, 1.7631865e+2, -1216428.8, -1196420.8, 256175.13, 0.06737552, -0.092464186, -950054.4, 261993.22, 0.0, 10.000444, 10.000578 
2.896326e+3, 1.8630853e+2, -1359232.0, -1557801.3, 92465.98, 0.10240575, -0.15777329, -1322842.8, -208694.0, 0.0, 10.0002985, 9.9975 
2.895924e+3, 1.9629511e+2, -1319698.0, -1469170.6, 12695.403, 0.23021206, -0.45309156, -1318627.4, -302343.78, 0.0, 9.999795, 9.997696 
2.8955206e+3, 2.0628715e+2, -1044814.25, -1052979.4, -27328.78, 0.21222928, -0.32223678, -1021264.8, -102899.94, 0.0, 10.000057, 9.999723 
2.8951168e+3, 2.1628205e+2, -838277.6, -920423.5, -39735.195, 0.077976175, -0.017604627, -822202.75, -1784.6368, 0.0, 10.000853, 9.999584 
2.894716e+3, 2.2627343e+2, -731543.5, -809407.3, 8375.981, 0.09792086, -0.039189212, -730652.6, -8150.3535, 0.0, 10.000892, 9.999641 
2.8943163e+3, 2.3626283e+2, -727701.2, -779546.56, -50.503723, 0.17800768, -0.2799368, -727701.1, -103097.3, 0.0, 10.000301, 9.999482 
2.893917e+3, 2.4625425e+2, -635810.9, -687858.6, 68474.58, 0.21004318, -0.28661007, -588581.7, -61896.758, 0.0, 10.000261, 9.999455 
2.8935176e+3, 2.5624624e+2, -510678.88, -594507.7, 91791.805, 0.1995281, -0.24481377, -451684.63, -22924.605, 0.0, 10.0005, 9.999317 
2.8931156e+3, 2.6623747e+2, -295964.56, -371177.84, 27836.76, 0.13121256, -0.27357396, -286782.9, 44059.297, 0.0, 10.001108, 9.999843 
2.8927115e+3, 2.7622837e+2, -66524.96, -227278.67, 37997.875, 0.0068908078, -0.36630347, -57995.813, 174932.02, 0.0, 10.002042, 9.999725 
2.8923094e+3, 2.8621924e+2, -31781.396, -70662.08, 54636.008, 0.109575585, -0.48176387, 6769.814, 141779.63, 0.0, 10.001182, 10.000562 
2.8919092e+3, 2.9620975e+2, -233193.58, -153427.39, 60039.42, 0.3553267, -0.6871907, -121231.414, -84139.1, 0.0, 9.999255, 10.000266 
2.8915057e+3, 3.0620307e+2, -150159.2, -85106.336, 212779.9, 0.08522824, -0.5527379, 97618.84, 97618.84, 0.0, 9.999374, 9.999984 
2.891102e+3, 3.1619775e+2, 75461.54, -44872.68, 205040.83, -0.33501664, -0.27309036, 228980.7, 228980.7, 0.0, 10.000879, 9.99928 
2.890704e+3, 3.2618642e+2, 518839.03, 161440.08, -7787.6353, 0.21629688, -0.45178604, 519008.66, 519008.66, 0.0, 10.003984, 9.9991455 
2.9083252e+3, 1.3674867e+2, -1303425.4, -1638413.0, 118678.92, -0.21549031, -0.37165502, -1265641.8, 334187.84, 0.00000000011876347, 10.003266, 9.998899 
2.9079235e+3, 1.4674181e+2, -1742993.3, -1609144.6, -47870.313, -0.073188536, -0.23670755, -1593786.4, -91883.7, 0.0, 9.998867, 10.000539 
2.907521e+3, 1.5673336e+2, -1586348.4, -1504010.0, 24486.098, 0.11612952, -0.35940045, -1497278.6, -93294.07, 0.0, 9.999373, 10.0003395 
2.9071203e+3, 1.6672672e+2, -1353291.6, -1285979.5, 114760.625, 0.13533393, -0.27569228, -1200041.6, 106007.805, 0.0, 10.000091, 10.000794 
2.9067194e+3, 1.767213e+2, -1253195.4, -1273812.1, 22883.838, -0.004939163, -0.124042705, -1238405.4, -30302.596, 0.0, 10.000478, 10.000032 
2.906318e+3, 1.8671162e+2, -1246061.1, -1490553.1, -86760.82, 0.024811534, -0.15046579, -1218402.1, -108203.42, 0.0, 10.001055, 9.99758 
2.9059163e+3, 1.966992e+2, -1085166.1, -1375626.3, 5864.432, 0.20282736, -0.36758325, -1085047.8, -72725.266, 0.0, 10.001529, 9.99747 
2.905513e+3, 2.0669006e+2, -906825.6, -1083661.5, 38862.07, 0.19739819, -0.29954216, -898662.06, 15752.927, 0.0, 10.001438, 9.998818 
2.9051095e+3, 2.166828e+2, -934993.75, -1076435.4, 32212.303, 0.08827398, -0.12669717, -928003.1, -111513.83, 0.0, 10.000675, 9.998589 
2.9047093e+3, 2.2667381e+2, -723535.0, -831423.06, 83943.44, 0.123693354, -0.12380649, -677696.94, 40882.1, 0.0, 10.00112, 9.999345 
2.9043102e+3, 2.3666345e+2, -560620.8, -719763.8, 61358.582, 0.2554282, -0.319673, -539711.0, 80969.95, 0.0, 10.001595, 9.999247 
2.9039103e+3, 2.466566e+2, -476427.22, -425459.16, 120455.445, 0.25468367, -0.2262895, -327821.5, 194924.11, 0.0, 10.000669, 10.001001 
2.903509e+3, 2.5665158e+2, -712996.8, -555184.2, 156232.89, 0.18482746, -0.040846605, -459062.16, -34270.676, 0.0, 9.998615, 10.00046 
2.9031077e+3, 2.666432e+2, -577602.44, -436896.63, 145653.13, 0.13183402, -0.10781247, -345495.5, -18626.59, 0.0, 9.998897, 10.000441 
2.9027054e+3, 2.7663255e+2, -421432.72, -382808.97, 118264.664, 0.082615666, -0.4207913, -282289.8, -53322.383, 0.0, 9.999555, 9.999865 
2.9023018e+3, 2.8662327e+2, -326738.1, -221571.86, 30824.25, 0.08245191, -0.53892183, -213203.2, -82151.21, 0.0, 9.999305, 10.00039 
2.901898e+3, 2.9661462e+2, -480163.47, -341013.25, 67113.8, 0.14635336, -0.6310135, -313919.03, -280789.06, 0.0, 9.997975, 9.99955 
2.9015e+3, 3.066074e+2, -301140.3, -260152.97, 115417.58, 0.36121586, -0.47733226, -163423.73, -163423.73, 0.0, 9.998875, 9.998935 
2.901103e+3, 3.166018e+2, -181104.11, -344335.6, -139691.58, 0.5033482, -0.1525067, -100933.375, -100933.375, 0.0, 10.000014, 9.997561 
2.9006892e+3, 3.2658947e+2, -245502.89, 41197.684, -215312.98, -0.711991, -0.54510456, 156515.11, 156515.11, 0.0, 9.997824, 10.001156 
2.9183212e+3, 1.3714844e+2, -1676782.4, -2030373.8, -295691.0, -0.14029159, -0.7877236, -1509064.1, 86833.695, 0.0000000000007792345, 10.00165, 9.996989 
2.917916e+3, 1.4714238e+2, -1513092.1, -1445930.8, -14976.228, 0.08136226, -0.5215101, -1442742.6, 55227.676, 0.0, 10.00023, 10.001 
2.9175124e+3, 1.5713885e+2, -1512605.1, -1488401.1, 66464.94, 0.08934901, -0.18316442, -1432945.4, -32937.45, 0.0, 9.999958, 10.000172 
2.9171118e+3, 1.6713062e+2, -1444885.8, -1562710.4, 139851.56, 0.037025437, -0.13240162, -1352044.6, -49951.234, 0.0, 10.00046, 9.998709 
2.9167113e+3, 1.7712045e+2, -1294766.3, -1444555.8, 57824.254, -0.14226568, -0.24175166, -1275041.4, -70843.35, 0.0, 10.000804, 9.998716 
2.9163092e+3, 1.8711245e+2, -1048275.44, -1141011.3, -51920.8, -0.14792544, -0.18009521, -1025031.94, 81242.72, 0.0, 10.0013, 9.99986 
2.9159075e+3, 1.9710496e+2, -942189.5, -1114058.9, 32166.197, -0.06588018, -0.11731243, -936366.75, 71977.11, 0.0, 10.001645, 9.999216 
2.9155052e+3, 2.070941e+2, -932499.0, -1185880.5, 14255.768, 0.020625183, -0.24651505, -931699.44, -21250.682, 0.0, 10.001595, 9.998065 
2.9151025e+3, 2.1708201e+2, -916561.0, -1119705.8, 29710.512, 0.061713636, -0.4699208, -912304.94, -99737.98, 0.0, 10.000976, 9.998164 
2.914703e+3, 2.2707435e+2, -700987.4, -842668.56, 119361.0, 0.13295957, -0.30893546, -633028.0, 81619.836, 0.0, 10.001335, 9.999186 
2.9143038e+3, 2.3706813e+2, -447937.75, -612612.06, 89870.14, 0.20088741, -0.060967978, -408389.53, 208326.73, 0.0, 10.002072, 9.999776 
2.9139027e+3, 2.4706124e+2, -309703.84, -138910.61, 61135.62, 0.2268757, -0.11309843, -119282.73, 399497.56, 0.0, 10.000863, 10.0028925 
2.9135007e+3, 2.5705418e+2, -555330.44, -285321.8, 127843.27, 0.22043996, -0.30264348, -234395.84, 186445.6, 0.0, 9.998769, 10.002264 
2.9130992e+3, 2.670471e+2, -598851.7, -403277.0, 209814.84, 0.23282608, -0.3298241, -269580.8, 53327.203, 0.0, 9.998502, 10.000885 
2.912698e+3, 2.7703986e+2, -438773.53, -322195.22, 172901.25, 0.22111288, -0.3381757, -198022.13, 26956.854, 0.0, 9.999084, 10.000517 
2.912292e+3, 2.870325e+2, -363478.84, -243474.81, 78124.92, 0.02179351, -0.28451434, -204969.23, -77917.02, 0.0, 9.999032, 10.00039 
2.9118857e+3, 2.970245e+2, -594809.9, -558076.9, 127436.72, -0.055499, -0.28578132, -447689.97, -418556.88, 0.0, 9.997795, 9.998157 
2.928314e+3, 1.375537e+2, -1597166.9, -1744064.5, -36421.414, -0.14450291, -0.6529552, -1588632.5, 3302.515, 0.0, 10.001114, 9.9992075 
2.92791e+3, 1.4754903e+2, -954046.7, -1226632.9, -7746.488, 0.016504979, -0.3106469, -953826.75, 540159.9, 0.0, 10.004263, 10.000569 
2.9275057e+3, 1.5754238e+2, -1203327.8, -1407063.9, 57426.83, 0.055751514, -0.23739798, -1188256.0, 207794.69, 0.0, 10.002367, 9.999568 
2.927105e+3, 1.6753235e+2, -1259575.8, -1561332.0, 204581.72, 0.00045137454, -0.28668115, -1156253.4, 141898.61, 0.0, 10.00213, 9.997908 
2.926705e+3, 1.7752089e+2, -1106442.0, -1405083.1, 166078.67, -0.15076001, -0.4406781, -1032427.06, 167842.16, 0.0, 10.002335, 9.998248 
2.9263029e+3, 1.8751381e+2, -853350.9, -982317.0, 21810.566, -0.18229546, -0.30572692, -849762.2, 252576.14, 0.0, 10.002365, 10.000427 
2.9259008e+3, 1.9750807e+2, -890999.9, -1063721.5, 14043.821, -0.09219739, -0.12585704, -889865.44, 114526.04, 0.0, 10.00188, 9.999462 
2.9254988e+3, 2.0749706e+2, -806228.9, -1127150.9, 15104.18, -0.021338366, -0.2770081, -805519.56, 100977.33, 0.0, 10.002547, 9.997985 
2.9250965e+3, 2.1748386e+2, -634221.56, -982413.7, 59830.492, 0.038820628, -0.6138389, -624227.6, 184396.64, 0.0, 10.002967, 9.998137 
2.924696e+3, 2.274768e+2, -655499.5, -747357.56, 185444.73, 0.0947792, -0.42883003, -510380.8, 200317.22, 0.0, 10.00135, 9.999824 
2.9242963e+3, 2.3747227e+2, -911168.4, -781103.6, 206812.6, 0.15775849, -0.07595643, -629339.6, -16589.521, 0.0, 9.998702, 10.000236 
2.923894e+3, 2.4746569e+2, -657312.4, -265729.88, 92666.93, 0.1725342, -0.12243918, -244907.72, 269905.4, 0.0, 9.998357, 10.003218 
2.9234913e+3, 2.5745812e+2, -641542.6, -295123.3, 49876.08, 0.20157644, -0.41466048, -288085.34, 128795.87, 0.0, 9.9981165, 10.002498 
2.9230905e+3, 2.6745215e+2, -547965.06, -321500.1, 144403.17, 0.26549906, -0.37957066, -251228.17, 67712.664, 0.0, 9.998705, 10.001304 
2.92269e+3, 2.7744693e+2, -432160.16, -262371.03, 104882.68, 0.29657975, -0.25007036, -212330.56, 8664.992, 0.0, 9.998957, 10.000972 
2.9222822e+3, 2.8744155e+2, -174379.56, -96037.9, 29940.063, -0.100075595, -0.067150034, -85905.98, 37148.934, 0.0, 10.000174, 10.000804 
2.921875e+3, 2.9743478e+2, -367298.7, -520645.34, 88352.36, -0.1949088, -0.01899726, -326989.38, -301859.72, 0.0, 9.999726, 9.997486 
2.9383066e+3, 1.3796157e+2, -1487008.3, -1385985.9, 257237.64, -0.24290863, -0.26761073, -1174347.1, 413604.44, 0.0, 10.000581, 10.001917 
2.937904e+3, 1.4795671e+2, -1205862.8, -1412300.9, -118659.63, -0.17704876, -0.012651626, -1151810.5, 338184.34, 0.0, 10.002791, 10.000012 
2.9374993e+3, 1.5794475e+2, -1227297.6, -1485274.3, 3410.5903, -0.049205244, -0.4099533, -1227252.5, 164851.72, 0.0, 10.002469, 9.998992 
2.937099e+3, 1.6793336e+2, -1247154.6, -1575102.9, 207851.34, -0.024692906, -0.5657968, -1146384.3, 147830.67, 0.0, 10.002273, 9.997756 
2.9366994e+3, 1.7792226e+2, -1149829.6, -1432508.0, 175123.28, -0.16996463, -0.66662383, -1066124.5, 130200.88, 0.0, 10.002029, 9.998222 
2.9362977e+3, 1.8791533e+2, -906347.56, -1051341.0, 9881.211, -0.15130995, -0.49483523, -905677.25, 192719.16, 0.0, 10.002159, 10.000068 
2.9358956e+3, 1.9790946e+2, -885410.3, -1072092.9, 18669.74, -0.044900715, -0.28527188, -883561.5, 116895.336, 0.0, 10.001932, 9.999388 
2.9354936e+3, 2.0789951e+2, -761295.94, -1049856.3, 43097.05, -0.01630573, -0.35516846, -754996.8, 147556.58, 0.0, 10.002617, 9.998481 
2.935091e+3, 2.1788813e+2, -513963.7, -817452.7, 55568.695, -0.061404917, -0.5545707, -504109.06, 300553.56, 0.0, 10.003271, 9.999139 
2.9346883e+3, 2.2788094e+2, -513160.94, -504412.84, 80741.49, -0.004458155, -0.5274762, -427927.0, 278804.13, 0.0, 10.001478, 10.001475 
2.934286e+3, 2.3787528e+2, -812184.25, -626476.7, 134632.92, 0.055113837, -0.43267643, -555782.8, 53002.55, 0.0, 9.998805, 10.001291 
2.9338834e+3, 2.4786995e+2, -803083.0, -561322.44, 95362.98, 0.056725804, -0.27224952, -528234.75, -17391.22, 0.0, 9.998258, 10.00127 
2.93348e+3, 2.5786442e+2, -660248.7, -440981.4, 39632.35, 0.048167497, -0.16586673, -434037.78, -21132.52, 0.0, 9.998485, 10.001348 
2.9330802e+3, 2.6785794e+2, -499903.78, -283673.06, 124524.04, 0.15995336, -0.15359688, -226878.84, 88095.586, 0.0, 9.998886, 10.001507 
2.9326808e+3, 2.7785146e+2, -280781.47, -106340.15, 67829.72, 0.23988158, -0.17999016, -83069.57, 133973.53, 0.0, 9.999506, 10.00182 
2.932274e+3, 2.8784665e+2, -408.66916, 112040.35, 20818.674, -0.17906694, -0.058009963, 115770.93, 234865.83, 0.0, 10.000672, 10.002078 
2.9318672e+3, 2.9784265e+2, 217733.17, 41348.504, 24747.123, -0.34536937, 0.14459741, 221139.47, 242277.78, 0.0, 10.0022955, 10.000198 
2.9483e+3, 1.3836457e+2, -1728128.4, -1662005.8, 50549.047, -0.120246194, -0.13914679, -1634666.3, -50663.49, 0.0, 9.999561, 10.000543 
2.9478952e+3, 1.4835677e+2, -1509322.5, -1479017.6, -115579.664, -0.34962624, -0.1903269, -1377601.4, 108476.58, 0.0, 10.000366, 10.000731 
2.9474947e+3, 1.583486e+2, -966375.4, -1290435.0, -11594.71, -0.051462237, -0.28495008, -965961.06, 422189.22, 0.0, 10.003966, 9.999623 
2.9470944e+3, 1.6833815e+2, -1110069.0, -1434539.5, 124050.51, 0.033417616, -0.41494876, -1068076.9, 222173.69, 0.0, 10.002906, 9.998421 
2.946694e+3, 1.7832716e+2, -1367153.8, -1503459.4, 139507.06, -0.04178025, -0.56972253, -1280042.1, -87683.86, 0.0, 10.000401, 9.998511 
2.946292e+3, 1.8831995e+2, -1176128.1, -1219590.3, 50303.715, -0.027178243, -0.4162002, -1143062.3, -48629.08, 0.0, 10.000491, 9.999708 
2.9458907e+3, 1.9831353e+2, -1046893.0, -1179279.6, 56845.504, 0.095386356, -0.22727343, -1025834.0, -29333.023, 0.0, 10.00097, 9.999117 
2.9454884e+3, 2.0830424e+2, -932686.56, -1084756.3, 86736.266, 0.05622716, -0.25764143, -893376.3, 5215.6323, 0.0, 10.001233, 9.998902 
2.9450852e+3, 2.1829407e+2, -865374.3, -961876.9, 69117.62, -0.02766404, -0.37495723, -829331.9, -28642.2, 0.0, 10.000775, 9.999355 
2.9446816e+3, 2.282862e+2, -540072.2, -444222.1, -2701.8245, -0.018944878, -0.46587598, -444145.97, 258614.02, 0.0, 10.001073, 10.002029 
2.9442772e+3, 2.3827921e+2, -566950.6, -521156.94, -10639.363, 0.023309885, -0.5757749, -518805.78, 86015.96, 0.0, 10.000644, 10.001089 
2.943874e+3, 2.4827367e+2, -540639.94, -564921.06, 30637.648, -0.0029767952, -0.3637998, -519825.1, -12940.219, 0.0, 10.000705, 10.000028 
2.943471e+3, 2.582687e+2, -478942.44, -464688.8, 37110.438, -0.014400175, -0.091599755, -434027.06, -25079.826, 0.0, 10.000296, 10.000303 
2.9430708e+3, 2.682626e+2, -440947.63, -258351.14, 114966.016, 0.07890493, -0.0076190415, -202841.5, 108174.82, 0.0, 9.999344, 10.001456 
2.9426712e+3, 2.7825588e+2, -548323.1, -239015.02, 66247.875, 0.16126351, -0.06265763, -225423.25, -12334.029, 0.0, 9.997756, 10.0017395 
2.9422656e+3, 2.8825003e+2, -216775.4, 81836.37, -3067.0752, -0.22029175, -0.08497458, 81867.87, 197017.56, 0.0, 9.998963, 10.002659 
2.9418597e+3, 2.982477e+2, 45654.22, 171859.19, -18797.143, -0.5018982, 0.20800006, 174599.36, 191772.97, 0.0, 10.00039, 10.001949 
2.9582924e+3, 1.3876444e+2, -1828453.4, -1915912.8, -228518.81, -0.107299075, -0.19988415, -1639517.9, -59435.074, 0.0, 9.99975, 9.998718 
2.9578862e+3, 1.48755e+2, -1420767.4, -1310292.3, -1045.1102, -0.52439934, -0.44822752, -1310282.4, 171896.84, 0.0, 10.000431, 10.001857 
2.95749e+3, 1.5875332e+2, -1061846.8, -1232591.5, 26205.426, -0.09370126, 0.005192484, -1057915.4, 326275.25, 0.0, 10.002838, 10.000574 
2.95709e+3, 1.6874439e+2, -1103848.8, -1314865.5, -1073.8679, 0.09958636, -0.07977839, -1103843.3, 182433.64, 0.0, 10.002409, 9.999491 
2.956688e+3, 1.7873383e+2, -1273379.5, -1377749.6, 58264.285, 0.07501496, -0.2905613, -1247346.9, -58966.746, 0.0, 10.000664, 9.999254 
2.956286e+3, 1.8872623e+2, -1149876.3, -1241888.9, 51161.414, 0.11670863, -0.18944356, -1127077.9, -36618.695, 0.0, 10.000787, 9.99942 
2.955885e+3, 1.9871925e+2, -1003935.2, -1160296.6, 62697.707, 0.20421177, -0.024973048, -981900.0, 10632.925, 0.0, 10.001214, 9.999146 
2.9554826e+3, 2.0871079e+2, -862981.9, -1004409.06, 71938.914, 0.1652802, -0.005215031, -832821.2, 61795.535, 0.0, 10.001403, 9.999417 
2.9550794e+3, 2.1870175e+2, -758043.8, -862702.8, 50184.688, 0.04629281, -0.05485835, -737869.0, 58835.156, 0.0, 10.001234, 9.999837 
2.954675e+3, 2.2869284e+2, -563186.0, -540490.9, -13292.791, 0.021811048, -0.22006482, -534360.9, 164423.16, 0.0, 10.001268, 10.001283 
2.9542708e+3, 2.3868407e+2, -478426.72, -520673.03, -34428.727, 0.01690865, -0.42855334, -459157.72, 141704.36, 0.0, 10.001353, 10.000765 
2.9538676e+3, 2.4867631e+2, -444810.25, -537515.6, 5576.8516, 0.035561174, -0.4238601, -444475.97, 58467.516, 0.0, 10.001345, 9.999962 
2.953465e+3, 2.5866926e+2, -315233.44, -382303.13, -3759.9705, 0.06601527, -0.34283715, -315023.3, 89998.71, 0.0, 10.001293, 10.000436 
2.9530627e+3, 2.6866534e+2, -377754.0, -260436.5, 18069.41, 0.0886362, -0.034276906, -257716.48, 49354.227, 0.0, 9.999835, 10.001246 
2.95266e+3, 2.7866137e+2, -505422.16, -286443.53, 10477.584, 0.05817541, 0.2272712, -285943.34, -76823.984, 0.0, 9.998232, 10.001224 
2.9522577e+3, 2.8865036e+2, -303739.53, -148313.08, -9126.118, -0.11228031, -0.19277474, -147779.05, -36548.285, 0.0, 9.999045, 10.001095 
2.951854e+3, 2.9864705e+2, 95858.62, 89784.6, 399.39087, -0.32378757, 0.16564815, 95884.766, 109148.91, 0.0, 10.000977, 10.001157 
2.9682854e+3, 1.3916378e+2, -1632431.6, -1820914.0, -356193.75, -0.037800837, -0.077643506, -1358222.9, 217954.22, 0.0, 10.001145, 9.998675 
2.9678807e+3, 1.4915399e+2, -1258038.9, -1059075.6, -38153.45, -0.3508847, -0.4814908, -1052010.1, 426263.72, 0.0, 10.000845, 10.003374 
2.967484e+3, 1.5915295e+2, -1409618.6, -1302306.9, -1355.8542, -0.03037055, -0.10209416, -1302289.8, 77985.805, 0.0, 10.000021, 10.001461 
2.967084e+3, 1.6914545e+2, -1269615.3, -1355636.6, -56539.406, 0.1376701, -0.09601669, -1241586.4, 40763.996, 0.0, 10.001099, 9.999849 
2.9666823e+3, 1.791365e+2, -1015090.7, -1210058.4, -30348.754, 0.1510364, -0.20044671, -1010475.8, 173964.86, 0.0, 10.002272, 9.999635 
2.9662797e+3, 1.8912885e+2, -911466.3, -1085104.9, -31016.975, 0.1093667, -0.1511559, -906092.1, 180425.38, 0.0, 10.002295, 9.999759 
2.9658782e+3, 1.9912131e+2, -940304.4, -1082885.1, 9040.904, 0.18144418, -0.08462589, -939733.4, 48859.914, 0.0, 10.001512, 9.999519 
2.9654765e+3, 2.0911396e+2, -847716.5, -880051.2, 38780.785, 0.21427791, -0.041747518, -821868.0, 68797.72, 0.0, 10.00108, 10.000398 
2.9650736e+3, 2.191062e+2, -919513.6, -933245.4, 38876.758, 0.18580033, -0.050686106, -886901.1, -94159.664, 0.0, 10.000142, 9.999874 
2.9646686e+3, 2.290973e+2, -725049.5, -720080.0, -3272.6665, 0.08460863, -0.1528822, -718455.7, -23630.012, 0.0, 10.000606, 10.000374 
2.964264e+3, 2.3908834e+2, -620908.56, -648214.5, -39866.387, 0.031345207, -0.30480093, -592422.06, 4487.785, 0.0, 10.000664, 10.0002365 
2.9638603e+3, 2.4908027e+2, -565132.0, -525074.75, 23850.6, 0.032759923, -0.3629351, -513958.63, -14967.207, 0.0, 10.000265, 10.000538 
2.9634574e+3, 2.5907257e+2, -633697.2, -566830.25, 62654.348, 0.0686632, -0.38887554, -529247.06, -128175.445, 0.0, 9.999309, 10.000093 
2.9630545e+3, 2.6906866e+2, -380024.75, -348530.28, 36332.723, 0.059187766, -0.014083863, -324679.0, -21559.586, 0.0, 10.000213, 10.000435 
2.962651e+3, 2.7906483e+2, -279576.3, -323316.56, 13713.43, -0.011831106, 0.33707985, -275632.5, -70464.94, 0.0, 10.000503, 9.999848 
2.96225e+3, 2.8905094e+2, -173163.92, -239783.42, 51262.38, -0.009355764, -0.23590799, -145339.63, -38032.797, 0.0, 10.000709, 9.999606 
2.9618484e+3, 2.9904705e+2, -124598.49, -93627.24, 143753.97, -0.22623576, 0.18323284, 35472.777, 44818.63, 0.0, 9.999923, 10.00036 
2.9782793e+3, 1.395641e+2, -1749890.1, -1840580.6, -205400.89, 0.013101734, 0.15080667, -1584888.8, -12626.273, 0.0, 10.00022, 9.998969 
2.977876e+3, 1.4955309e+2, -1189411.8, -864545.5, 7425.2827, -0.09354295, -0.47828326, -864375.9, 609990.56, 0.0, 10.000632, 10.004806 
2.9774764e+3, 1.5955062e+2, -1349058.9, -1183691.8, 3509.3896, -0.0033851385, -0.36056206, -1183617.3, 192760.0, 0.0, 10.000051, 10.002259 
2.977077e+3, 1.6954459e+2, -1257601.3, -1338976.1, 14147.38, 0.12271881, -0.2337615, -1255211.9, 23229.28, 0.0, 10.001132, 9.999955 
2.9766765e+3, 1.7953728e+2, -965969.75, -1146938.4, -153.41513, 0.103747025, -0.17234445, -965969.6, 214549.77, 0.0, 10.002403, 10.000019 
2.9762733e+3, 1.8952915e+2, -834183.8, -971806.75, -52834.81, 0.00071678055, -0.23297541, -816239.7, 266356.03, 0.0, 10.0024185, 10.000516 
2.97587e+3, 1.9952096e+2, -810145.2, -888074.6, -27415.592, -0.036759507, -0.31493258, -801466.8, 183204.52, 0.0, 10.001756, 10.0007715 
2.9754692e+3, 2.0951404e+2, -755090.44, -707081.94, -6258.8955, 0.16695954, -0.34546006, -706279.44, 180457.97, 0.0, 10.001129, 10.001589 
2.9750675e+3, 2.1950734e+2, -821862.4, -837432.6, 5636.6396, 0.31788537, -0.34806663, -820036.06, -31233.406, 0.0, 10.000503, 10.000396 
2.9746625e+3, 2.2949986e+2, -739332.5, -848304.06, 2142.0298, 0.18357922, -0.25622565, -739290.44, -48407.547, 0.0, 10.000889, 9.999424 
2.974257e+3, 2.394924e+2, -499805.2, -561255.8, -58031.984, 0.0070182956, -0.18295823, -464866.53, 128096.22, 0.0, 10.001279, 10.00057 
2.973852e+3, 2.4948677e+2, -422016.53, -299351.56, -19825.16, -0.061994936, -0.1100778, -296227.0, 198790.89, 0.0, 10.000475, 10.002027 
2.9734474e+3, 2.5948083e+2, -542472.4, -498259.66, 54394.063, -0.08285578, -0.06633693, -461651.4, -64575.72, 0.0, 9.999696, 10.000412 
2.9730466e+3, 2.6947272e+2, -399831.8, -542239.06, 79838.195, 0.014402912, 0.0023712977, -364058.38, -64897.52, 0.0, 10.000792, 9.998888 
2.9726455e+3, 2.7946442e+2, -96229.3, -341505.53, 26476.479, 0.05822905, 0.07891765, -93403.83, 107844.82, 0.0, 10.002089, 9.999019 
2.9722452e+3, 2.894552e+2, -30000.549, -215106.9, 38811.13, 0.12432962, 0.02051646, -22192.406, 81148.63, 0.0, 10.00179, 9.999322 
2.9718417e+3, 2.9944882e+2, -37039.74, 34078.594, -19823.703, -0.1294843, 0.22491269, 39231.016, 44633.668, 0.0, 10.000099, 10.00119 
2.9882726e+3, 1.3996781e+2, -1947102.0, -2063725.6, 238640.19, 0.15194932, -0.13056003, -1759752.6, -191465.97, 0.0, 9.999335, 9.997901 
2.9878718e+3, 1.4995761e+2, -1345838.8, -1275649.5, 169554.66, 0.18537177, -0.41114658, -1137595.6, 332796.66, 0.0, 10.000939, 10.001864 
2.9874694e+3, 1.5995228e+2, -1301441.0, -1271263.5, 59204.355, 0.014438086, -0.3363406, -1225255.4, 147185.28, 0.0, 10.000837, 10.001296 
2.98707e+3, 1.6994734e+2, -1089880.0, -1116666.3, 122992.664, 0.05736771, -0.16489716, -979553.4, 294941.63, 0.0, 10.001683, 10.0012245 
2.9866707e+3, 1.7994122e+2, -946885.7, -1079583.8, 143974.44, 0.06913456, -0.075218275, -854707.6, 321853.1, 0.0, 10.002288, 10.000556 
2.9862672e+3, 1.8993253e+2, -886721.56, -941706.25, 50752.023, 0.011016412, -0.22636628, -856493.94, 222145.28, 0.0, 10.001819, 10.001022 
2.9858637e+3, 1.9992402e+2, -945495.0, -937757.9, 63212.438, -0.009131106, -0.38751063, -878295.75, 102419.46, 0.0, 10.000774, 10.000906 
2.9854625e+3, 2.099165e+2, -841588.7, -834028.25, 1531.9313, 0.18297076, -0.42791364, -833729.7, 49061.55, 0.0, 10.000869, 10.000861 
2.9850605e+3, 2.1991003e+2, -856634.56, -886462.25, -59563.875, 0.39312467, -0.3686813, -810145.8, -25286.834, 0.0, 10.0004635, 10.000071 
2.9846546e+3, 2.2990383e+2, -723990.44, -813814.1, -8500.76, 0.09740816, -0.16432486, -723193.06, -36263.383, 0.0, 10.000983, 9.999574 
2.9842478e+3, 2.3989715e+2, -547966.25, -596098.7, -37498.4, -0.22000146, -0.012650309, -527475.6, 61529.5, 0.0, 10.001064, 10.000419 
2.983843e+3, 2.498925e+2, -344801.72, -208806.88, -98664.78, -0.1979065, 0.12707712, -156977.8, 334070.94, 0.0, 10.000866, 10.002431 
2.9834396e+3, 2.5988737e+2, -544474.8, -573975.44, -47515.38, -0.08015404, 0.232037, -509472.9, -116377.15, 0.0, 10.000095, 9.999691 
2.9830393e+3, 2.698753e+2, -451753.88, -634112.4, 78732.19, -0.0019631565, -0.041233074, -422465.66, -127251.414, 0.0, 10.000773, 9.998245 
2.9826388e+3, 2.7986357e+2, -347551.84, -529360.7, 89787.414, 0.01021144, -0.26115435, -310685.4, -113354.68, 0.0, 10.000754, 9.998354 
2.9822382e+3, 2.8985935e+2, -214409.83, -303775.47, 77644.5, 0.0637488, 0.20391324, -169509.03, -70135.375, 0.0, 10.000638, 9.999239 
2.981834e+3, 2.9984784e+2, 21.179617, 151929.9, -73678.98, -0.10238978, -0.11633043, 181794.52, 183278.56, 0.0, 10.000101, 10.001953 
2.9982656e+3, 1.4037113e+2, -2034092.0, -2199766.0, 227918.9, 0.25603873, -0.5666211, -1874423.4, -310114.03, 0.0, 9.99921, 9.997032 
2.9978666e+3, 1.5036261e+2, -1639343.9, -1840141.1, 67482.46, 0.37621874, -0.3889403, -1618772.4, -152362.2, 0.0, 10.000775, 9.998077 
2.997462e+3, 1.6035482e+2, -1341508.4, -1408389.5, 95819.16, -0.061042253, -0.24886145, -1273462.1, 95033.79, 0.0, 10.001065, 10.000253 
2.9970634e+3, 1.7035037e+2, -1044646.2, -915976.06, 120088.445, -0.0009180472, -0.12088191, -844075.2, 426469.88, 0.0, 10.00121, 10.002844 
2.9966646e+3, 1.8034598e+2, -948703.2, -912576.06, 79651.586, -0.018847581, -0.02131931, -848965.44, 323625.25, 0.0, 10.001574, 10.002034 
2.996261e+3, 1.9033735e+2, -854464.25, -853862.3, 2876.8362, -0.008704226, -0.24922778, -851270.75, 223395.08, 0.0, 10.001764, 10.001638 
2.9958582e+3, 2.0032848e+2, -1010183.9, -1059045.5, 18779.852, 0.11607509, -0.44631678, -1003799.94, -27054.709, 0.0, 10.000705, 10.000098 
2.9954565e+3, 2.1032171e+2, -979082.44, -1080576.6, -3299.9595, 0.32199168, -0.26184726, -978975.25, -100151.52, 0.0, 10.000707, 9.999239 
2.9950526e+3, 2.2031455e+2, -791568.94, -890123.75, -58053.74, 0.3110028, -0.121148765, -764698.44, 16208.594, 0.0, 10.001011, 9.9997835 
2.9946434e+3, 2.3030776e+2, -630529.8, -678769.25, -13762.395, -0.32423073, -0.025169292, -626879.7, 56100.305, 0.0, 10.001151, 10.000466 
2.994236e+3, 2.4030215e+2, -433298.9, -509655.34, -47238.004, -0.7702924, 0.15475968, -410739.94, 174299.72, 0.0, 10.001658, 10.00074 
2.9938355e+3, 2.5029704e+2, -331481.44, -365590.78, -141732.42, -0.28018373, 0.34631625, -205781.28, 281305.72, 0.0, 10.001597, 10.001047 
2.9934347e+3, 2.6029027e+2, -397728.13, -478587.78, -74781.73, 0.16538462, 0.39948618, -353146.9, 36002.117, 0.0, 10.000904, 10.000009 
2.9930323e+3, 2.702757e+2, -322848.47, -405438.1, 81738.266, -0.014556279, -0.2269451, -272565.97, 18717.209, 0.0, 10.000892, 9.999811 
2.9926285e+3, 2.8026235e+2, -222036.16, -351961.22, 92707.39, -0.31403714, -0.73561513, -173796.25, 19611.635, 0.0, 10.001036, 9.999488 
2.9922253e+3, 2.9025996e+2, -207707.86, -294466.66, 75440.76, -0.4559185, -0.12337485, -164063.81, -68629.72, 0.0, 10.000571, 9.999442 
2.991828e+3, 3.002471e+2, 112378.62, 145496.55, 85161.58, -0.00056916306, -0.53865945, 215694.11, 215694.11, 0.0, 10.000925, 10.001677 
3.0082503e+3, 1.4076565e+2, -1609269.4, -1297732.9, -195025.08, -0.5039643, -0.64193684, -1203904.4, 356543.0, 0.0, 9.998999, 10.003363 
3.0078578e+3, 1.5076122e+2, -1140952.4, -1145220.8, 7330.399, 0.13885777, -0.5771743, -1135451.8, 327045.22, 0.0, 10.002222, 10.002126 
3.007457e+3, 1.6075659e+2, -1050984.8, -1292118.4, 129953.39, 0.0023076816, -0.3979361, -994282.7, 370266.6, 0.0, 10.003075, 10.000078 
3.007053e+3, 1.7075081e+2, -1316202.4, -1373206.0, -50378.66, -0.28820837, -0.18476391, -1286821.9, -20200.78, 0.0, 10.000663, 9.999953 
3.0066535e+3, 1.8074498e+2, -1386449.4, -1155589.3, -163243.0, -0.2944488, -0.07692338, -1071088.5, 97600.14, 0.0, 9.998612, 10.001806 
3.0062556e+3, 1.9074011e+2, -1019402.25, -761948.7, -222509.0, 0.17071009, -0.11995389, -633613.56, 437112.75, 0.0, 9.999778, 10.003223 
3.0058548e+3, 2.0073122e+2, -936941.0, -1086976.1, -151835.98, 0.46646556, -0.41848597, -842601.56, 130204.23, 0.0, 10.001409, 9.999561 
3.0054447e+3, 2.1072623e+2, -1171685.9, -1150494.5, -97957.836, -0.061908033, -0.078154266, -1062561.0, -187692.27, 0.0, 9.9993, 9.999366 
3.005037e+3, 2.2072072e+2, -1292071.9, -1114715.8, -26967.246, -0.4444866, 0.22849712, -1110706.0, -333769.78, 0.0, 9.997492, 9.999902 
3.004639e+3, 2.3071176e+2, -905605.3, -683679.2, 101293.0, 0.082619436, -0.0010141087, -644398.9, 34624.348, 0.0, 9.9986925, 10.001555 
3.0042404e+3, 2.4070416e+2, -945508.1, -842799.1, 89608.445, 0.4373432, -0.11074227, -790872.7, -209776.97, 0.0, 9.998532, 9.99991 
3.003832e+3, 2.5069347e+2, -573278.7, -732608.2, -48364.105, 0.05500635, -0.30120254, -559747.06, -76548.52, 0.0, 10.001074, 9.998674 
3.0034253e+3, 2.6068345e+2, -151759.22, -392714.3, -25830.373, -0.16179068, -0.43050718, -149021.31, 236271.69, 0.0, 10.00279, 9.999626 
3.0030304e+3, 2.7067673e+2, 103461.04, -29718.143, 119153.23, 0.4308876, -0.40290737, 173369.31, 460714.9, 0.0, 10.003173, 10.001195 
3.0026308e+3, 2.8067017e+2, 44039.613, -291151.44, 84657.4, 0.5333162, -0.3276677, 64207.598, 253607.05, 0.0, 10.003198, 9.998816 
3.00222e+3, 2.906665e+2, -56153.785, -389226.84, -74678.31, -0.2733224, 0.27422196, -40176.574, 51264.07, 0.0, 10.002455, 9.997777 
3.0018243e+3, 3.006487e+2, 137746.13, -186335.72, -43310.45, 0.27976307, -0.4996195, 143434.31, 143434.31, 0.0, 10.002794, 9.998366 
