coord_x,coord_y,stress_xx,stress_yy,tau_xy,velocity_x,velocity_y,stress_1,eps,damage,lx,ly
4.9997807e+0, 1.2553218e+2, -1669939.8, -1501455.4, 41597.023, 0.003976211, 0.15995803, -1491745.1, 218047.89, 0.0013801174, 9.999473, 10.001717 
4.9995023e+0, 1.3553114e+2, -1737282.9, -1642257.4, -3906.7898, -0.0014898324, 0.0236128, -1642097.1, -30297.096, 0.0008364695, 9.999028, 10.000289 
4.999544e+0, 1.4553252e+2, -1652420.6, -1580327.4, 3633.698, 0.00072742737, 0.14454322, -1580144.6, -66358.875, 0.00038681776, 9.999067, 10.000016 
4.9998507e+0, 1.5553097e+2, -1495949.6, -1460625.0, 23119.566, 0.010007363, -0.009555066, -1449193.1, -33391.355, 0.00011816065, 9.999496, 9.999957 
4.9998188e+0, 1.6553134e+2, -1349088.0, -1275320.9, 10542.89, 0.0037969537, 0.0008976357, -1273843.6, 43954.94, 0.000016018055, 9.9995575, 10.00053 
4.9995127e+0, 1.7553297e+2, -1287689.0, -1198515.5, -9413.953, -0.015026556, 0.104638696, -1197532.5, 22249.691, 0.00000013955699, 9.999323, 10.000498 
4.9995342e+0, 1.855335e+2, -1236595.9, -1195304.5, -4869.0313, -0.012377627, 0.14044598, -1194738.1, -72959.516, 0.0, 9.999312, 9.999854 
4.9998236e+0, 1.9553316e+2, -1114195.0, -1085971.4, 5051.999, 0.008180557, 0.116886586, -1085094.4, -61309.695, 0.0, 9.999481, 9.99985 
4.9999362e+0, 2.0553282e+2, -970216.1, -931681.94, 9676.056, 0.010957153, 0.08231205, -929388.75, -3601.5352, 0.0, 9.99965, 10.000154 
4.999899e+0, 2.1553242e+2, -849160.8, -824929.75, 7233.2275, -0.0011608063, 0.0204962, -822934.8, 4852.53, 0.0, 9.999819, 10.000133 
4.9999642e+0, 2.255325e+2, -740657.9, -742287.5, -4267.317, -0.0026592908, 0.025163824, -737128.3, -7343.3115, 0.0, 9.999979, 9.999949 
5.000109e+0, 2.3553292e+2, -624545.8, -641368.7, -25797.324, 0.0043952363, 0.06613853, -605823.25, 25957.621, 0.0, 10.000129, 9.999898 
5.0001585e+0, 2.4553236e+2, -566176.0, -663142.75, -21476.861, 0.0012246079, 0.06745891, -561632.06, -27845.422, 0.0, 10.00029, 9.998999 
5.0001335e+0, 2.5553098e+2, -443675.47, -555431.9, 1061.2466, -0.010146759, 0.023432799, -443665.38, -7864.7847, 0.0, 10.000467, 9.99898 
5.000175e+0, 2.6553005e+2, -329328.8, -441448.03, 4592.0527, -0.009812473, 0.03292477, -329141.03, 8668.669, 0.0, 10.000545, 9.999051 
5.000271e+0, 2.755296e+2, -235024.61, -348830.28, -4782.892, 0.0002811784, 0.07430886, -234823.95, 4990.602, 0.0, 10.000534, 9.999019 
5.000309e+0, 2.855281e+2, -172974.92, -345375.28, 3969.369, -0.0002284241, 0.059171006, -172883.58, -31052.848, 0.000000004221918, 10.00062, 9.998328 
5.0002986e+0, 2.955256e+2, -44133.07, -223304.89, 20593.926, -0.009886921, -0.030524664, -41796.484, 2061.306, 0.0000065845143, 10.000792, 9.99841 
5.0003546e+0, 3.0552584e+2, 5092.8887, -193269.58, 17847.398, -0.008365804, 0.15752862, 6685.8916, 6685.8916, 0.00007542163, 10.000874, 9.998247 
5.000419e+0, 3.155232e+2, 157907.72, 127463.055, 3355.2454, -0.0012851104, 0.0691442, 158273.11, 158273.11, 0.00027006015, 10.000856, 10.00046 
1.4999333e+1, 1.2553187e+2, -1757166.8, -1679751.9, 21509.258, 0.011165575, -0.0032508762, -1674177.1, 35610.74, 0.00135349, 9.999463, 10.000496 
1.4998509e+1, 1.3553047e+2, -1816889.5, -1805979.6, -18817.533, -0.00432229, -0.05382242, -1791842.4, -180036.86, 0.0008181531, 9.999023, 9.999168 
1.4998631e+1, 1.4553228e+2, -1613799.8, -1498244.4, 18970.629, 0.0021240786, 0.13586427, -1495209.8, 18579.13, 0.00037595516, 9.99906, 10.000584 
1.4999552e+1, 1.5553202e+2, -1461338.3, -1387291.9, 38377.324, 0.030091489, 0.051734578, -1370990.3, 44800.36, 0.00011312574, 9.999492, 10.000464 
1.4999457e+1, 1.65532e+2, -1385901.4, -1350411.3, 624.26355, 0.011429468, 0.02811948, -1350400.3, -32609.322, 0.000014709239, 9.999552, 10.000018 
1.4998539e+1, 1.75532e+2, -1322018.6, -1268721.6, -17333.75, -0.045041304, 0.020506673, -1263580.3, -43787.938, 0.00000010097208, 9.999318, 10.000019 
1.4998601e+1, 1.8553236e+2, -1217839.3, -1154595.1, 1077.2065, -0.03717298, 0.04933673, -1154576.9, -32786.895, 0.0, 9.999305, 10.000137 
1.4999472e+1, 1.955331e+2, -1095701.1, -1046532.2, 12028.301, 0.024549415, 0.105370164, -1043747.4, -19963.477, 0.0, 9.999477, 10.000123 
1.4999807e+1, 2.0553313e+2, -973794.9, -937425.94, 15280.013, 0.03276054, 0.097288825, -931858.44, -6075.882, 0.0, 9.999644, 10.000118 
1.4999698e+1, 2.1553254e+2, -854719.9, -835161.2, 14271.189, -0.0033220167, 0.022609644, -827640.2, 145.35452, 0.0, 9.999813, 10.000066 
1.4999889e+1, 2.2553223e+2, -779268.0, -820462.0, 588.848, -0.008147057, 0.018516477, -779259.6, -49471.215, 0.0, 9.999971, 9.999417 
1.5000328e+1, 2.3553213e+2, -659504.4, -712714.8, -19493.781, 0.013238214, 0.06304322, -653127.1, -21336.137, 0.0, 10.000124, 9.999411 
1.5000473e+1, 2.4553166e+2, -523781.7, -573824.56, -15662.572, 0.0035156088, 0.064582326, -519283.8, 14511.42, 0.0, 10.000285, 9.999615 
1.5000398e+1, 2.5553086e+2, -403101.44, -469579.7, 7874.6875, -0.030595588, 0.017256016, -402181.38, 33619.773, 0.0, 10.000461, 9.999573 
1.5000527e+1, 2.6553014e+2, -345524.0, -473533.5, 3657.433, -0.029384492, 0.027099604, -345419.6, -7611.3345, 0.0, 10.000539, 9.998835 
1.5000811e+1, 2.7552953e+2, -250889.97, -380045.72, -4377.7524, 0.00065016514, 0.07922466, -250741.75, -10925.781, 0.0, 10.000528, 9.998808 
1.5000927e+1, 2.8552833e+2, -141616.36, -278670.34, 9538.418, -0.00043240696, 0.077685006, -140955.7, 873.7951, 0.0000000059189293, 10.000613, 9.99879 
1.500089e+1, 2.9552653e+2, -14516.726, -160018.63, 27790.371, -0.030115364, 0.012356147, -9389.53, 34458.99, 0.0000065077284, 10.000785, 9.998849 
1.5001068e+1, 3.055268e+2, -23725.875, -251221.81, 16795.098, -0.024561046, 0.20395167, -22492.646, -22492.646, 0.000074265045, 10.000868, 9.997853 
1.500125e+1, 3.1552356e+2, 130243.08, 73074.836, 7663.386, -0.0046943743, 0.0994524, 131252.53, 131252.53, 0.00026651216, 10.000846, 10.000092 
2.4998507e+1, 1.2553194e+2, -1861637.4, -1751281.1, -26582.13, 0.013079273, -0.055090986, -1745212.0, -35427.516, 0.0013145427, 9.998842, 10.000304 
2.4997893e+1, 1.3553052e+2, -1738353.5, -1790210.3, 8025.1113, -0.0003016023, -0.08752245, -1737140.0, -125336.055, 0.0007913486, 9.99966, 9.998971 
2.4997969e+1, 1.4553246e+2, -1519267.5, -1443642.1, 51334.656, -0.0005314877, 0.11883288, -1417697.1, 96089.586, 0.00036019128, 9.999669, 10.000667 
2.499868e+1, 1.555325e+2, -1524706.3, -1410003.3, 34429.27, 0.01706224, 0.059865154, -1400462.5, 15322.4795, 0.00010584406, 9.9990225, 10.000535 
2.4998695e+1, 1.6553247e+2, -1465646.3, -1404594.0, 8473.104, 0.00373905, 0.038437285, -1403439.9, -85654.1, 0.000012859098, 9.999074, 9.999877 
2.4998152e+1, 1.7553216e+2, -1276114.3, -1261785.4, 17544.203, -0.034594327, 0.01420044, -1249999.1, -30208.385, 0.00000006033416, 9.9997, 9.999883 
2.4998274e+1, 1.8553233e+2, -1129556.1, -1112194.8, 32383.068, -0.030505743, 0.029897342, -1087349.1, 34441.04, 0.0, 9.999911, 10.000136 
2.4998942e+1, 1.9553298e+2, -1051185.9, -1025791.06, 21390.164, 0.008371057, 0.076307006, -1013613.5, 10170.617, 0.0, 9.999786, 10.000116 
2.499935e+1, 2.0553313e+2, -963393.8, -948505.2, 15652.392, 0.01564094, 0.0872592, -938617.0, -12834.872, 0.0, 9.999784, 9.999975 
2.4999535e+1, 2.1553281e+2, -855499.6, -851033.0, 6033.1694, -0.0039452836, 0.053305034, -846833.06, -19049.115, 0.0, 9.999876, 9.999927 
2.4999893e+1, 2.2553232e+2, -779524.9, -831893.25, 10278.691, -0.006995433, 0.044628575, -777579.6, -47790.93, 0.0, 10.000018, 9.999316 
2.5000396e+1, 2.3553173e+2, -654597.75, -720714.4, 22366.914, 0.003885702, 0.049651317, -647742.0, -15946.477, 0.0, 10.000202, 9.999318 
2.500067e+1, 2.4553123e+2, -519921.7, -564644.7, 17272.088, -0.0050535817, 0.049713247, -514027.9, 19771.88, 0.0, 10.000279, 9.9996805 
2.5000766e+1, 2.5553077e+2, -427383.63, -473522.94, -1596.9615, -0.030030059, 0.028723339, -427328.4, 8473.947, 0.0, 10.00026, 9.999642 
2.500097e+1, 2.6553008e+2, -373577.63, -485672.84, -14242.3, -0.02891921, 0.03921202, -371796.38, -33987.52, 0.0, 10.00034, 9.998847 
2.5001273e+1, 2.755293e+2, -251366.33, -379557.44, -4698.9355, -0.005760004, 0.070882134, -251194.31, -11376.089, 0.0, 10.000522, 9.998816 
2.5001505e+1, 2.8552815e+2, -144691.6, -273182.34, 1671.3801, -0.0013088401, 0.07565664, -144669.86, -2839.115, 0.0000000086392555, 10.000563, 9.998852 
2.5001645e+1, 2.9552674e+2, -58189.508, -174924.66, -11192.383, -0.016715, 0.03884815, -57126.086, -13279.626, 0.0000063841276, 10.000459, 9.998904 
2.5001884e+1, 3.0552688e+2, -55361.336, -271763.66, -12814.71, -0.020070229, 0.21863243, -54605.13, -54605.13, 0.00007245626, 10.000675, 9.997805 
2.500193e+1, 3.1552327e+2, 178439.05, 95855.65, 5959.754, -0.037772544, 0.07864858, 178866.92, 178866.92, 0.0002610093, 10.001183, 10.000086 
3.49973e+1, 1.2553236e+2, -1803514.3, -1629879.6, 36.27106, 0.005300917, -0.0000258362, -1629879.6, 79903.46, 0.0012623775, 9.998839, 10.00114 
3.499764e+1, 1.3553126e+2, -1686689.4, -1683533.0, 37023.934, 0.0071927984, -0.07864425, -1648053.6, -36258.28, 0.000755357, 9.999662, 9.999702 
3.4997544e+1, 1.45533e+2, -1545980.4, -1499192.3, 25476.49, -0.011502172, 0.09244076, -1487998.3, 25781.203, 0.00033918672, 9.99967, 10.000285 
3.4997234e+1, 1.5553248e+2, -1549998.3, -1461564.1, 12702.584, -0.031106876, 0.017060993, -1459775.8, -43990.9, 0.00009620481, 9.99902, 10.000183 
3.499753e+1, 1.6553278e+2, -1449886.8, -1370358.3, 31668.314, -0.021776693, 0.031540405, -1359288.6, -41505.58, 0.000010539653, 9.999068, 10.000114 
3.4998345e+1, 1.7553347e+2, -1261563.4, -1230971.0, 40433.063, 0.013518155, 0.085262276, -1203037.5, 16740.305, 0.000000028001644, 9.999698, 10.000095 
3.4998548e+1, 1.855334e+2, -1149425.8, -1152414.1, 27003.338, 0.004543411, 0.08096783, -1123875.3, -2095.9675, 0.0, 9.9999075, 9.999863 
3.4998235e+1, 1.9553278e+2, -1071563.6, -1066982.3, 17725.729, -0.04194074, 0.030381778, -1051399.8, -27614.445, 0.0, 9.999782, 9.999837 
3.4998554e+1, 2.0553279e+2, -981536.25, -983949.44, 18676.47, -0.04278941, 0.051548164, -964027.44, -38241.563, 0.0, 9.999777, 9.999735 
3.4999406e+1, 2.1553317e+2, -870791.94, -881657.56, 10411.0625, -0.0052572, 0.11300268, -864481.44, -36698.848, 0.0, 9.999871, 9.999719 
3.499997e+1, 2.2553276e+2, -755643.5, -780831.1, 16639.26, -0.0021274341, 0.10141126, -747369.44, -17583.379, 0.0, 10.000011, 9.999671 
3.5000312e+1, 2.355317e+2, -633454.25, -676138.7, 29759.438, -0.025503628, 0.02608743, -618175.25, 13619.37, 0.0, 10.000198, 9.999627 
3.5000736e+1, 2.4553107e+2, -553977.06, -633340.9, 16074.658, -0.02693207, 0.021254446, -550844.8, -17044.475, 0.0, 10.000272, 9.999212 
3.500122e+1, 2.5553071e+2, -459815.5, -538735.94, -1509.1649, -0.011014968, 0.059158303, -459786.66, -23982.494, 0.0, 10.000253, 9.999198 
3.5001493e+1, 2.6552993e+2, -356518.0, -449371.28, -8207.065, -0.01134459, 0.0686435, -355798.2, -17986.668, 0.0, 10.000337, 9.999099 
3.5001636e+1, 2.755289e+2, -235484.48, -344885.47, 2482.775, -0.02235143, 0.050598267, -235428.17, 4393.066, 0.0, 10.000515, 9.999057 
3.5002038e+1, 2.8552768e+2, -168737.75, -321458.03, -2547.5764, -0.0053585176, 0.05199159, -168695.27, -26860.787, 0.000000011844628, 10.000557, 9.998524 
3.5002548e+1, 2.9552624e+2, -81201.945, -220315.72, -13326.736, 0.026920334, 0.049356185, -79936.78, -36085.13, 0.0000061783935, 10.00045, 9.998596 
3.5002795e+1, 3.0552614e+2, -35015.387, -228330.94, 5096.192, 0.0033543636, 0.20088424, -34881.137, -34881.137, 0.00006980898, 10.00067, 9.998106 
3.500245e+1, 3.1552228e+2, 203412.89, 149241.75, 29494.863, -0.10631529, 0.010159963, 216371.98, 216371.98, 0.00025310565, 10.001178, 10.000455 
4.4996393e+1, 1.2553273e+2, -1720515.6, -1547518.0, 6426.1553, 0.0122112315, 0.0477871, -1547279.6, 162503.27, 0.0011988538, 9.999223, 10.001525 
4.4996837e+1, 1.3553187e+2, -1804526.4, -1704899.4, 9110.326, 0.009246708, -0.040630057, -1704073.1, -92282.63, 0.0007112032, 9.998702, 10.00002 
4.4996774e+1, 1.4553346e+2, -1672668.3, -1568908.0, -7868.9136, -0.014165801, 0.106995314, -1568314.6, -54539.695, 0.00031351, 9.998838, 10.000209 
4.4996428e+1, 1.5553269e+2, -1481111.9, -1436776.4, 579.65625, -0.038326558, 0.010088748, -1436768.8, -20985.227, 0.000084590996, 9.999528, 10.00011 
4.499682e+1, 1.6553296e+2, -1371160.8, -1330575.0, 25584.451, -0.025425673, 0.02620931, -1318212.6, -430.77728, 0.000007991499, 9.9996, 10.000133 
4.4997838e+1, 1.7553388e+2, -1336334.8, -1264830.0, 17338.44, 0.019287016, 0.100459866, -1260847.6, -41073.402, 0.000000008983813, 9.999176, 10.000115 
4.4998184e+1, 1.8553385e+2, -1242343.9, -1200044.6, 11550.709, 0.00907138, 0.10039199, -1197096.0, -75320.86, 0.0, 9.999282, 9.999837 
4.4997963e+1, 1.9553313e+2, -1067700.0, -1068568.4, 19894.244, -0.04892819, 0.041178357, -1048235.2, -24453.123, 0.0, 9.999824, 9.999806 
4.4998384e+1, 2.0553297e+2, -952070.4, -982279.8, 29806.885, -0.050194662, 0.056271974, -933759.44, -7975.356, 0.0, 10.000031, 9.999624 
4.4999337e+1, 2.1553323e+2, -864424.1, -889597.75, 30490.766, -0.0035871475, 0.114460625, -844024.3, -16241.745, 0.0, 9.999963, 9.99962 
4.5000023e+1, 2.255328e+2, -751026.3, -775635.8, 35074.87, 0.0013280017, 0.10533452, -726160.44, 3625.5344, 0.0, 10.0000305, 9.999699 
4.50005e+1, 2.3553185e+2, -630569.25, -672409.2, 22790.809, -0.027030956, 0.036256906, -620552.75, 11240.287, 0.0, 10.00021, 9.999647 
4.5001033e+1, 2.4553108e+2, -558020.7, -660866.7, 5049.854, -0.028004048, 0.030903272, -557773.4, -23973.4, 0.0, 10.000354, 9.998984 
4.5001614e+1, 2.5553045e+2, -442654.94, -555216.9, 5096.9736, -0.0078523755, 0.06275674, -442424.6, -6617.4414, 0.0, 10.000477, 9.998978 
4.5002002e+1, 2.655295e+2, -325607.34, -439530.06, -1349.3179, -0.005404089, 0.06821283, -325591.34, 12224.9795, 0.0, 10.00057, 9.999054 
4.5002288e+1, 2.7552837e+2, -221944.22, -343437.94, -14287.465, -0.013986172, 0.0455741, -220286.66, 19540.027, 0.0, 10.000629, 9.999013 
4.5002663e+1, 2.8552708e+2, -158030.84, -331425.94, -25107.863, -0.0047658603, 0.044457518, -154468.38, -12627.468, 0.000000014278152, 10.000696, 9.998388 
4.5003015e+1, 2.9552546e+2, -38967.086, -215734.44, -22005.395, 0.010786605, 0.04129014, -36268.867, 7590.586, 0.0000058442592, 10.000808, 9.998457 
4.5003474e+1, 3.0552518e+2, -21752.297, -220759.53, -2209.2756, 0.00065197755, 0.18170322, -21727.773, -21727.773, 0.00006621042, 10.000757, 9.998117 
4.5003587e+1, 3.1552142e+2, 111278.62, 114600.37, 1178.5132, -0.07584209, -0.0005907813, 114976.01, 114976.01, 0.0002425997, 10.000499, 10.000546 
5.499573e+1, 1.2553304e+2, -1723016.3, -1554246.8, -15768.852, 0.021133624, 0.09054243, -1552786.0, 156997.72, 0.0011275938, 9.99923, 10.001474 
5.49955e+1, 1.3553236e+2, -1810494.0, -1716585.0, -8563.844, 0.0041961414, 0.030591156, -1715810.5, -104021.43, 0.00066134764, 9.998699, 9.999942 
5.499565e+1, 1.4553389e+2, -1656927.4, -1534905.0, 18021.297, -0.011475794, 0.16220674, -1532299.1, -18525.904, 0.00028458898, 9.998833, 10.000445 
5.499624e+1, 1.5553305e+2, -1466256.8, -1406800.4, 25454.717, -0.011574466, 0.037360284, -1397391.6, 18389.719, 0.00007188515, 9.999532, 10.000315 
5.499655e+1, 1.65533e+2, -1384587.6, -1358745.9, 8614.419, -0.014196167, 0.021509402, -1356137.5, -38355.234, 0.0000055425044, 9.999602, 9.999938 
5.4996634e+1, 1.7553338e+2, -1349045.6, -1290044.6, 3351.9165, -0.019250019, 0.061027065, -1289854.8, -70074.99, 0.00000000116644, 9.999171, 9.999945 
5.499718e+1, 1.8553366e+2, -1227501.8, -1167330.6, 31661.014, -0.020506069, 0.08879447, -1153740.5, -31963.053, 0.0, 9.999274, 10.000066 
5.499811e+1, 1.9553395e+2, -1052724.0, -1036777.44, 39781.668, -0.017339148, 0.108180635, -1004177.94, 19596.617, 0.0, 9.999822, 10.000026 
5.4998815e+1, 2.0553371e+2, -950123.2, -977500.44, 26814.479, -0.010972809, 0.10011718, -933705.44, -7928.4717, 0.0, 10.000029, 9.999659 
5.499932e+1, 2.1553296e+2, -864605.4, -888658.2, 29058.316, -0.0020486966, 0.05725317, -845183.06, -17399.016, 0.0, 9.999956, 9.999631 
5.500004e+1, 2.2553246e+2, -772493.75, -817896.1, 41349.87, -0.00033186603, 0.055707503, -748023.4, -18234.807, 0.0, 10.000021, 9.999412 
5.500095e+1, 2.3553216e+2, -650185.3, -712406.3, 29993.309, -0.0041698376, 0.08102155, -638081.7, -6290.9443, 0.0, 10.000207, 9.999374 
5.500155e+1, 2.455313e+2, -556363.8, -656940.6, 9127.069, -0.012635701, 0.077437624, -555542.25, -21743.578, 0.0, 10.000352, 9.999013 
5.500193e+1, 2.5552997e+2, -442834.63, -554597.2, 10248.931, -0.024657669, 0.03958031, -441902.56, -6091.128, 0.0, 10.000471, 9.998985 
5.5002487e+1, 2.655288e+2, -349547.66, -488053.88, 623.9753, -0.014704083, 0.036668494, -349544.84, -11721.405, 0.0, 10.0005665, 9.998722 
5.5003214e+1, 2.7552775e+2, -245278.2, -390185.5, -11798.948, 0.014954766, 0.056524303, -244323.77, -4489.2637, 0.0, 10.000624, 9.998693 
5.500337e+1, 2.8552628e+2, -154565.38, -324365.56, -21761.637, -0.0047377995, 0.053580776, -151820.77, -9970.751, 0.000000014996283, 10.000696, 9.998438 
5.5003023e+1, 2.9552442e+2, -36246.63, -209352.28, -16916.18, -0.07013019, 0.016884966, -34609.043, 9260.643, 0.0000053587105, 10.000805, 9.998502 
5.5003905e+1, 3.0552402e+2, -41399.453, -260920.95, -11904.709, -0.03310099, 0.15991054, -40755.746, -40755.746, 0.000061679886, 10.000754, 9.997843 
5.5005306e+1, 3.1552064e+2, 98327.62, 89143.03, -2555.8228, 0.044131123, 0.042059395, 98990.93, 98990.93, 0.00022953504, 10.000494, 10.000374 
6.4994776e+1, 1.2553371e+2, -1785640.8, -1605111.5, 20160.064, 0.020489814, 0.11923567, -1602887.6, 106890.21, 0.001052614, 9.998892, 10.0012865 
6.499454e+1, 1.3553244e+2, -1733860.9, -1703938.8, 17050.123, 0.0074303444, 0.021835065, -1696216.4, -84427.56, 0.00060904585, 9.9993305, 9.9997225 
6.499486e+1, 1.4553374e+2, -1579842.3, -1508557.9, 37728.5, -0.0017357201, 0.14528614, -1492298.1, 21477.492, 0.000254567, 9.999409, 10.000348 
6.49958e+1, 1.5553322e+2, -1519674.9, -1442816.8, 19383.176, 0.0076618716, 0.064089105, -1438205.1, -22424.154, 0.00005931439, 9.999211, 10.000221 
6.499615e+1, 1.6553313e+2, -1413964.6, -1374516.8, -7022.7227, -0.004539452, 0.04817472, -1373303.9, -55521.457, 0.0000034805446, 9.999409, 9.999923 
6.499601e+1, 1.7553313e+2, -1239048.8, -1238639.6, 642.5003, -0.03638402, 0.051253524, -1238169.9, -18387.053, 0.00000000000024211628, 9.999933, 9.99993 
6.499667e+1, 1.8553337e+2, -1120232.3, -1111610.1, 30805.314, -0.033857103, 0.07354261, -1084815.6, 36964.92, 0.0, 9.999995, 10.0001 
6.4998025e+1, 1.9553387e+2, -1070558.9, -1041405.7, 23793.723, -0.0013949141, 0.111028805, -1028078.56, -4303.2056, 0.0, 9.999682, 10.00006 
6.4998907e+1, 2.0553362e+2, -981053.8, -995712.44, 6501.668, 0.0054971096, 0.103616156, -978585.7, -52808.082, 0.0, 9.999832, 9.999628 
6.4999396e+1, 2.1553275e+2, -807777.9, -864521.9, 3155.4968, -0.009867552, 0.04814084, -807602.94, 20183.234, 0.0, 10.000362, 9.999599 
6.500013e+1, 2.2553225e+2, -713255.8, -795805.25, 14752.294, -0.0152720995, 0.05123232, -710698.7, 19092.139, 0.0, 10.000456, 9.999354 
6.500106e+1, 2.3553205e+2, -656243.2, -720882.0, 20634.102, -0.012000859, 0.092909046, -650218.0, -18425.734, 0.0, 10.000189, 9.999325 
6.5001863e+1, 2.4553113e+2, -562776.5, -656076.2, 20028.646, -0.013765744, 0.08369104, -558658.7, -24857.916, 0.0, 10.00029, 9.999049 
6.500256e+1, 2.555296e+2, -408319.38, -534301.25, 20967.48, -0.019347642, 0.022744229, -404921.34, 30893.627, 0.0, 10.000693, 9.999018 
6.5003204e+1, 2.6552847e+2, -332619.9, -497209.6, 8287.632, -0.008646588, 0.032151744, -332203.66, 5623.202, 0.0, 10.000758, 9.998568 
6.500383e+1, 2.755277e+2, -264889.75, -416649.47, 9202.265, 0.017371185, 0.09159838, -264333.78, -24497.13, 0.0, 10.000563, 9.998541 
6.500407e+1, 2.8552613e+2, -149918.3, -322183.88, 16748.305, -0.005891224, 0.08886316, -148305.08, -6452.207, 0.000000013847158, 10.000729, 9.998437 
6.5003943e+1, 2.9552394e+2, 16101.168, -184630.05, 15662.492, -0.07627862, 0.021710748, 17315.918, 61190.46, 0.0000047556837, 10.001166, 9.998498 
6.500486e+1, 3.0552337e+2, -10941.12, -272409.7, -1466.6317, -0.02832604, 0.15645322, -10932.895, -10932.895, 0.000056396846, 10.001077, 9.997608 
6.5006083e+1, 3.1552032e+2, 101363.92, 75777.01, 12669.135, 0.06837266, 0.09635895, 106575.45, 106575.45, 0.00021421611, 10.00058, 10.000239 
7.499354e+1, 1.2553471e+2, -1808275.3, -1652647.8, 33763.15, 0.004575852, 0.12795924, -1645638.5, 64126.816, 0.0009783517, 9.998893, 10.000958 
7.4993896e+1, 1.3553204e+2, -1758013.8, -1756913.9, 33242.676, 0.008339648, -0.070867434, -1724216.5, -112426.336, 0.00055803865, 9.999342, 9.999353 
7.4994355e+1, 1.4553297e+2, -1609083.8, -1570587.4, 29497.154, 0.0048095575, 0.05387311, -1554613.9, -40831.42, 0.00022607559, 9.999415, 9.99992 
7.499514e+1, 1.5553322e+2, -1547480.6, -1499945.1, 13577.111, 0.019078622, 0.09182151, -1496340.6, -80557.91, 0.000048170983, 9.999208, 9.999831 
7.499563e+1, 1.6553332e+2, -1402663.0, -1349403.4, 12668.076, 0.002190588, 0.106857985, -1346543.8, -28761.51, 0.0000019773436, 9.999402, 10.000098 
7.4995935e+1, 1.7553312e+2, -1228227.3, -1216544.6, 19671.771, -0.038644474, 0.07069347, -1201865.3, 17918.19, 0.0, 9.999935, 10.00008 
7.4996644e+1, 1.8553294e+2, -1131307.6, -1134720.3, 18721.252, -0.03794658, 0.053272482, -1114215.1, 7569.3633, 0.0, 9.999996, 9.999941 
7.4997693e+1, 1.9553289e+2, -1081867.1, -1063884.6, 13914.589, -0.0029715335, 0.05047179, -1056309.0, -32524.486, 0.0, 9.999679, 9.9999075 
7.499866e+1, 2.0553276e+2, -988029.4, -1008635.06, 26226.504, -0.002975673, 0.06708124, -970154.6, -44368.59, 0.0, 9.9998255, 9.999542 
7.4999547e+1, 2.1553254e+2, -813513.7, -875587.2, 22271.133, -0.031782404, 0.08765959, -806349.9, 21439.02, 0.0, 10.00036, 9.999525 
7.500027e+1, 2.255321e+2, -700911.94, -769636.0, 4300.1914, -0.048205514, 0.09134032, -700643.9, 29148.947, 0.0, 10.000454, 9.999536 
7.5000846e+1, 2.355315e+2, -644521.7, -695962.1, 12349.616, -0.053381484, 0.07138299, -641710.5, -9912.854, 0.0, 10.000186, 9.999497 
7.5001955e+1, 2.4553053e+2, -559968.06, -648758.4, 34846.895, -0.034158435, 0.04809849, -547925.3, -14119.057, 0.0, 10.000284, 9.999102 
7.500349e+1, 2.5552934e+2, -405380.56, -527173.7, 35130.914, 0.0038132009, 0.013235628, -395973.7, 39844.082, 0.0, 10.000689, 9.999068 
7.500415e+1, 2.6552856e+2, -330866.06, -493287.28, 130.5359, 0.008706534, 0.05536007, -330865.97, 6960.6025, 0.0, 10.000756, 9.998594 
7.5004125e+1, 2.7552816e+2, -264344.53, -414651.88, 3966.9976, -0.009739401, 0.15082248, -264239.9, -24406.764, 0.0, 10.000558, 9.998557 
7.5004745e+1, 2.855266e+2, -153763.16, -329348.06, 32831.45, -0.012135467, 0.14941023, -147825.03, -5975.474, 0.000000011324871, 10.000727, 9.998388 
7.500576e+1, 2.9552412e+2, 11989.755, -191972.33, 30706.67, -0.012173447, 0.054793295, 16512.387, 60386.46, 0.000004098041, 10.001163, 9.998449 
7.500632e+1, 3.0552322e+2, -25080.229, -301845.16, -20872.629, 0.008834058, 0.17239146, -23514.941, -23514.941, 0.000050636394, 10.001077, 9.997405 
7.500588e+1, 3.155205e+2, 94698.164, 63019.773, -465.77866, -0.011340829, 0.1654558, 94705.01, 94705.01, 0.00019719645, 10.000575, 10.000153 
8.4992415e+1, 1.2553446e+2, -1810437.3, -1652505.0, -26208.566, 0.0047359588, 0.11280473, -1648269.4, 61497.96, 0.00090933184, 9.998873, 10.00097 
8.4993273e+1, 1.35532e+2, -1761096.9, -1761745.3, -2491.4202, 0.012217332, -0.06220708, -1758908.6, -147117.67, 0.0005120121, 9.999335, 9.999324 
8.499383e+1, 1.4553282e+2, -1598373.5, -1563710.4, 3551.6243, 0.007694549, 0.054335915, -1563350.3, -49566.11, 0.00020159004, 9.999482, 9.999934 
8.4994435e+1, 1.5553309e+2, -1519303.8, -1485189.4, 20342.383, 0.019280648, 0.09345667, -1475699.3, -59915.555, 0.000039447743, 9.999398, 9.999841 
8.49951e+1, 1.6553323e+2, -1394893.9, -1343680.6, 45838.46, 0.0077410312, 0.107859544, -1316781.4, 1001.48193, 0.0000010481418, 9.999448, 10.000114 
8.499588e+1, 1.7553301e+2, -1276137.8, -1238730.8, 39357.1, -0.020238547, 0.069960706, -1213859.0, 5924.8984, 0.0, 9.999603, 10.000088 
8.499668e+1, 1.8553275e+2, -1165968.0, -1174062.8, 20423.818, -0.026865022, 0.05404782, -1149194.4, -27408.168, 0.0, 9.999855, 9.99974 
8.4997475e+1, 1.9553255e+2, -1020529.5, -1055244.0, 12289.545, -0.018292597, 0.056390107, -1016619.25, 7169.3203, 0.0, 10.000191, 9.99972 
8.499848e+1, 2.055323e+2, -937786.4, -983953.94, 31041.404, -0.020109782, 0.06986351, -922186.44, 3604.723, 0.0, 10.000169, 9.999546 
8.499968e+1, 2.15532e+2, -887480.1, -911188.25, 32808.914, -0.029267434, 0.080510736, -864449.5, -36655.16, 0.0, 9.99985, 9.999527 
8.500059e+1, 2.2553152e+2, -764291.25, -800248.94, 12934.254, -0.038789894, 0.080852546, -760122.1, -30323.516, 0.0, 10.000018, 9.999535 
8.5001284e+1, 2.3553093e+2, -585404.0, -666467.2, 5935.0034, -0.048089582, 0.06462171, -584971.75, 46831.813, 0.0, 10.000588, 9.999505 
8.50024e+1, 2.4553016e+2, -510886.84, -618527.4, 17360.543, -0.033442687, 0.05407077, -508156.2, 25654.607, 0.0, 10.000593, 9.999161 
8.500386e+1, 2.555292e+2, -481694.7, -557803.06, 18236.67, -0.0009697913, 0.039999697, -477550.56, -41730.875, 0.0, 10.000138, 9.999124 
8.500465e+1, 2.655284e+2, -376008.94, -507655.13, -1807.1976, 0.0012061775, 0.07400814, -375984.13, -38155.83, 0.0, 10.000414, 9.998662 
8.500498e+1, 2.7552778e+2, -155036.9, -354788.94, 3123.8003, -0.015908951, 0.13765842, -154988.08, 84848.62, 0.0, 10.001277, 9.998622 
8.500581e+1, 2.8552625e+2, -79996.06, -305811.94, 16689.865, -0.0058008577, 0.14126046, -78769.195, 63083.75, 0.000000007967864, 10.001284, 9.998283 
8.5006887e+1, 2.9552403e+2, -77245.41, -246490.45, 9287.85, 0.013334342, 0.0848481, -76737.23, -32861.695, 0.0000034232567, 10.000599, 9.998346 
8.5007346e+1, 3.055228e+2, -78574.21, -327150.1, -27007.424, 0.022774428, 0.17490643, -75673.734, -75673.734, 0.00004462947, 10.000706, 9.997411 
8.500661e+1, 3.1552e+2, 222731.52, 134574.8, 11116.76, -0.03700545, 0.1563962, 224111.75, 224111.75, 0.00017905688, 10.0014105, 10.000243 
9.4991356e+1, 1.2553297e+2, -1785273.9, -1601401.3, -12568.166, 0.009049044, 0.07505104, -1600546.3, 109237.836, 0.0008487081, 9.998877, 10.001321 
9.49927e+1, 1.355323e+2, -1738574.1, -1716474.5, 14136.231, 0.020271614, 0.0487261, -1709581.9, -97790.69, 0.00047347447, 9.99934, 9.999633 
9.499331e+1, 1.4553335e+2, -1565845.3, -1496200.6, -220.89705, 0.0061801574, 0.14813815, -1496200.0, 17580.756, 0.00018256163, 9.999483, 10.000398 
9.4993645e+1, 1.5553288e+2, -1489634.8, -1424505.1, 18655.143, -0.00085799175, 0.0671693, -1419540.1, -3755.8345, 0.00003354367, 9.999402, 10.000256 
9.4994515e+1, 1.655328e+2, -1406018.5, -1366436.5, 51664.195, 0.0027103296, 0.049248118, -1330902.3, -13117.614, 0.00000057940093, 9.999447, 9.999959 
9.499588e+1, 1.7553279e+2, -1287001.1, -1260780.6, 46023.0, 0.018000169, 0.048846878, -1226037.0, -6252.399, 0.0, 9.999601, 9.999937 
9.4996786e+1, 1.855328e+2, -1182690.4, -1208175.9, 32595.434, -0.002354751, 0.07720608, -1160435.4, -38649.62, 0.0, 9.999853, 9.999506 
9.4997334e+1, 1.9553286e+2, -1036074.6, -1087544.4, 24264.709, -0.051947806, 0.12898605, -1026439.2, -2651.8677, 0.0, 10.000192, 9.999497 
9.499836e+1, 2.0553224e+2, -932221.2, -971755.3, 18718.213, -0.049929105, 0.112187326, -924764.94, 1028.061, 0.0, 10.000166, 9.999632 
9.499977e+1, 2.1553105e+2, -882507.25, -900198.4, 23081.703, -0.005246773, 0.026452832, -866634.2, -38831.715, 0.0, 9.999847, 9.999604 
9.500111e+1, 2.2553046e+2, -778038.44, -827579.25, 33996.38, 0.009755371, 0.01990051, -760745.5, -30937.414, 0.0, 10.000013, 9.99935 
9.5002365e+1, 2.3553036e+2, -597907.0, -691395.75, 25786.61, 0.001007246, 0.07204459, -591266.1, 40544.01, 0.0, 10.000585, 9.999336 
9.500319e+1, 2.4552993e+2, -506518.7, -608829.44, -498.72308, -0.014425157, 0.102213874, -506516.25, 27298.182, 0.0, 10.00059, 9.9992285 
9.5003647e+1, 2.555292e+2, -477860.53, -548860.94, 4194.1133, -0.03676545, 0.101565726, -477613.63, -41792.777, 0.0, 10.0001335, 9.9991865 
9.5004725e+1, 2.6552802e+2, -369913.63, -493844.7, 30444.002, -0.03354667, 0.08717044, -362838.84, -25006.656, 0.0, 10.000409, 9.998759 
9.500637e+1, 2.755265e+2, -148380.27, -340484.28, 32905.906, -0.0058017215, 0.05268883, -142900.08, 96947.164, 0.0, 10.001275, 9.998722 
9.5007235e+1, 2.8552502e+2, -91239.11, -328515.94, -10334.054, 0.007829625, 0.06624598, -90789.88, 51073.035, 0.0000000042394483, 10.001281, 9.998128 
9.500734e+1, 2.9552364e+2, -89430.74, -270152.97, -12842.355, -0.0024253062, 0.1115437, -88522.71, -44643.777, 0.000002739973, 10.000591, 9.998188 
9.5007944e+1, 3.0552208e+2, -64486.285, -295954.6, -607.8961, 0.010830715, 0.16320378, -64484.69, -64484.69, 0.000038513957, 10.0007, 9.997627 
9.500825e+1, 3.155187e+2, 240741.05, 173294.39, 42468.383, -0.016791448, 0.06577259, 261247.11, 261247.11, 0.00016021931, 10.001406, 10.000511 
1.0499049e+2, 1.2553185e+2, -1745560.8, -1573839.3, 196.20465, 0.02318443, 0.05862437, -1573839.0, 135957.05, 0.00079770345, 9.999115, 10.001393 
1.0499177e+2, 1.3553192e+2, -1813454.6, -1745788.6, 7780.937, 0.020146782, 0.10113589, -1744905.4, -133108.52, 0.0004431459, 9.998799, 9.999692 
1.0499248e+2, 1.4553289e+2, -1625000.9, -1501542.4, -18571.406, 0.00015923771, 0.18101493, -1498809.4, 14977.222, 0.00016917764, 9.998976, 10.000606 
1.0499307e+2, 1.5553212e+2, -1454617.9, -1386642.3, -20391.143, -0.0062235296, 0.048355974, -1380994.6, 34796.973, 0.000030278157, 9.999551, 10.000443 
1.0499409e+2, 1.6553204e+2, -1365841.9, -1354814.9, 2158.122, 0.00035288476, 0.026956696, -1354407.5, -36616.133, 0.0000004316036, 9.999755, 9.999891 
1.0499551e+2, 1.7553236e+2, -1282173.9, -1265668.8, 2568.275, 0.01875704, 0.06331306, -1265278.4, -45489.297, 0.0, 9.999666, 9.999872 
1.04996614e+2, 1.8553235e+2, -1203218.4, -1221553.4, 9124.696, 0.0013057723, 0.09743383, -1199451.3, -77660.75, 0.0, 9.999727, 9.999475 
1.04997456e+2, 1.9553219e+2, -1078742.3, -1111365.1, 14340.627, -0.04478843, 0.12914239, -1073334.6, -49540.27, 0.0, 9.999911, 9.999469 
1.0499859e+2, 2.0553161e+2, -920514.25, -958200.8, 8122.3184, -0.045629624, 0.11439532, -918838.25, 6961.3975, 0.0, 10.000212, 9.999703 
1.04999945e+2, 2.155307e+2, -768194.7, -837640.8, 10716.389, -0.010546965, 0.048792895, -766578.6, 61227.664, 0.0, 10.000602, 9.999669 
1.05001375e+2, 2.2553007e+2, -705802.7, -808457.75, 26191.26, 0.0074606086, 0.043719474, -699506.5, 30305.895, 0.0, 10.000578, 9.999208 
1.0500287e+2, 2.355297e+2, -661103.75, -737457.94, 20334.104, 0.011794276, 0.08240932, -656026.2, -24208.434, 0.0, 10.0002165, 9.999198 
1.05003774e+2, 2.455292e+2, -530143.94, -615324.1, -5459.0464, -0.0055367164, 0.10797326, -529795.5, 4027.2986, 0.0, 10.000406, 9.999272 
1.0500419e+2, 2.5552854e+2, -341567.03, -478073.28, -3984.67, -0.041527703, 0.10902443, -341450.8, 94377.1, 0.0, 10.001048, 9.999233 
1.050054e+2, 2.6552722e+2, -282575.56, -452386.75, 20601.543, -0.036726527, 0.08231849, -280111.9, 57727.914, 0.0, 10.00101, 9.998756 
1.0500731e+2, 2.7552545e+2, -275317.97, -402243.22, 14032.744, 0.005090547, 0.025103787, -273785.06, -33928.047, 0.0, 10.000404, 9.998718 
1.05008274e+2, 2.8552407e+2, -188169.7, -367994.03, -25976.879, 0.020055527, 0.041725088, -184492.36, -42620.46, 0.0000000012344323, 10.000583, 9.998195 
1.0500837e+2, 2.9552305e+2, 32313.486, -204738.61, -12200.568, 0.0018406475, 0.11372951, 32939.77, 76824.29, 0.0000020653147, 10.001396, 9.998251 
1.0500898e+2, 3.0552116e+2, 30957.992, -249958.38, -1731.1573, 0.012614095, 0.13010725, 30968.66, 30968.66, 0.00003243676, 10.001351, 9.997632 
1.0500933e+2, 3.155178e+2, 120685.8, 118256.83, 26581.31, -0.006475997, 0.037816793, 146080.36, 146080.36, 0.00014106146, 10.000567, 10.000538 
1.1498981e+2, 1.2553106e+2, -1760463.6, -1605253.0, -13600.868, 0.04068775, 0.06100939, -1604070.1, 105733.305, 0.0007564602, 9.999118, 10.001176 
1.14990406e+2, 1.3553083e+2, -1827564.4, -1774350.5, -1835.3333, 0.0034371594, 0.09321302, -1774287.3, -162478.9, 0.00042056636, 9.9987955, 9.999497 
1.14991255e+2, 1.4553145e+2, -1630317.3, -1511006.3, 3241.228, -0.019954877, 0.15117341, -1510918.3, 2883.5576, 0.00016082273, 9.99897, 10.000543 
1.1499271e+2, 1.555308e+2, -1457349.8, -1393532.8, 938.461, 0.0016184711, 0.036625143, -1393518.9, 22286.73, 0.000029173776, 9.999557, 10.000394 
1.1499384e+2, 1.65531e+2, -1362834.9, -1349603.5, -2100.6418, -0.0009839567, 0.042206574, -1349278.0, -31474.9, 0.0000005105562, 9.999759, 9.999925 
1.14994764e+2, 1.7553167e+2, -1279826.1, -1261134.5, 252.99495, -0.023396349, 0.11402347, -1261131.0, -41333.68, 0.0, 9.999667, 9.999904 
1.1499612e+2, 1.8553144e+2, -1192732.4, -1198699.8, 15837.995, -0.021900244, 0.11424363, -1179599.5, -57798.938, 0.0, 9.999723, 9.999633 
1.14997834e+2, 1.9553053e+2, -1067547.5, -1087882.0, 22267.666, 0.0011114363, 0.055941425, -1053235.8, -29425.723, 0.0, 9.99991, 9.999631 
1.1499917e+2, 2.0553042e+2, -916961.75, -949921.7, 22358.387, -0.009642414, 0.0765871, -905666.06, 20144.998, 0.0, 10.000207, 9.999763 
1.1500017e+2, 2.1553095e+2, -764947.3, -830112.3, 24456.748, -0.04786704, 0.14732483, -756789.75, 71015.98, 0.0, 10.000598, 9.9997225 
1.15001395e+2, 2.2553039e+2, -713574.1, -823461.06, 12140.49, -0.04852534, 0.15192813, -712248.8, 17562.766, 0.0, 10.000573, 9.999108 
1.15002796e+2, 2.3552898e+2, -668523.1, -751910.0, 9254.665, -0.01833536, 0.09587943, -667508.4, -35682.02, 0.0, 10.000213, 9.9991 
1.1500415e+2, 2.4552792e+2, -530224.44, -614521.4, 18310.656, -0.00945174, 0.071912, -526418.9, 7416.919, 0.0, 10.000402, 9.999281 
1.1500547e+2, 2.5552717e+2, -340745.9, -475595.6, 18239.375, -0.01923895, 0.06270943, -338322.44, 97518.516, 0.0, 10.001044, 9.999252 
1.1500667e+2, 2.6552606e+2, -290179.94, -467292.7, -3072.6133, -0.011405947, 0.060048252, -290126.63, 47724.684, 0.0, 10.001006, 9.998655 
1.1500782e+2, 2.7552468e+2, -282966.8, -416998.06, -5624.252, 0.014336957, 0.052647024, -282731.22, -42865.06, 0.0, 10.0004, 9.998619 
1.1500896e+2, 2.8552336e+2, -169174.28, -326699.8, 4097.242, 0.029167688, 0.06539414, -169067.78, -27187.715, 0.00000000006210851, 10.000575, 9.998482 
1.1500996e+2, 2.9552215e+2, 51658.883, -164150.58, 16660.34, 0.020323865, 0.09205064, 52937.473, 96829.625, 0.0000014487281, 10.001394, 9.998531 
1.1501044e+2, 3.0552e+2, 16371.007, -278541.8, -31877.508, 0.023188854, 0.07720426, 19777.344, 19777.344, 0.000026628812, 10.001346, 9.997438 
1.1500986e+2, 3.1551734e+2, 104016.836, 86649.49, 3049.3303, -0.012584114, 0.07052782, 104536.67, 104536.67, 0.00012208533, 10.000556, 10.000326 
1.2498888e+2, 1.2553048e+2, -1798647.4, -1639880.9, -2224.3386, 0.045044012, 0.073085226, -1639849.6, 69959.305, 0.0007247361, 9.998925, 10.001032 
1.2498947e+2, 1.3552986e+2, -1739693.8, -1747825.4, 13907.52, -0.0017288197, 0.08230653, -1729270.0, -117452.47, 0.00040489552, 9.999468, 9.999356 
1.2499042e+2, 1.4553022e+2, -1559154.9, -1491724.3, 20903.225, -0.028123634, 0.12666455, -1485770.1, 28043.867, 0.00015657058, 9.999521, 10.00041 
1.24992065e+2, 1.5552981e+2, -1519463.5, -1437536.4, 11606.046, 0.00040395875, 0.050437037, -1435924.0, -20107.938, 0.000029665785, 9.99919, 10.000268 
1.2499341e+2, 1.6553006e+2, -1416235.0, -1371673.4, 11161.654, -0.00046519935, 0.0646851, -1369034.0, -51220.703, 0.0000007617598, 9.999375, 9.999959 
1.2499455e+2, 1.7553063e+2, -1232317.8, -1234111.0, 11906.719, -0.02654993, 0.12101177, -1221273.9, -1465.3036, 0.0, 9.999974, 9.999942 
1.24996066e+2, 1.855303e+2, -1124486.9, -1151120.5, 18784.02, -0.019409709, 0.10376859, -1114778.1, 7033.7197, 0.0, 10.000126, 9.999766 
1.24997884e+2, 1.9552934e+2, -1058459.1, -1069548.0, 22969.703, 0.015385585, 0.0273455, -1040374.1, -16553.617, 0.0, 9.999913, 9.999756 
1.2499932e+2, 2.0552935e+2, -967742.9, -983592.8, 27191.072, 0.0009193298, 0.05657625, -947345.4, -21524.521, 0.0, 9.999899, 9.99968 
1.2500043e+2, 2.1553007e+2, -850168.8, -879529.7, 16415.242, -0.053994615, 0.15714814, -842827.06, -15012.115, 0.0, 10.000047, 9.99965 
1.2500167e+2, 2.2552964e+2, -753430.06, -827864.2, -2373.451, -0.06160434, 0.17058715, -753354.5, -23534.674, 0.0, 10.000234, 9.999242 
1.25003e+2, 2.3552828e+2, -625002.8, -717066.44, 12122.906, -0.030885885, 0.106267676, -623433.2, 8399.94, 0.0, 10.000452, 9.999224 
1.2500457e+2, 2.4552713e+2, -520093.53, -621733.8, 38951.48, -0.012500656, 0.071757056, -506883.2, 26960.371, 0.0, 10.000524, 9.999173 
1.2500635e+2, 2.5552613e+2, -432278.9, -531544.4, 28257.508, -0.0060212645, 0.051856887, -424798.63, 11052.835, 0.0, 10.000466, 9.999147 
1.2500761e+2, 2.6552516e+2, -341617.47, -485128.06, -5515.767, 0.0018023512, 0.06226881, -341405.78, -3544.4885, 0.0, 10.000624, 9.998716 
1.2500851e+2, 2.7552414e+2, -196346.97, -368249.44, 3678.7866, 0.0155335665, 0.08517093, -196268.28, 43604.844, 0.0, 10.000964, 9.998683 
1.2500976e+2, 2.8552297e+2, -83105.98, -267684.47, 34316.65, 0.026813364, 0.10333602, -76932.34, 64952.71, 0.0, 10.001088, 9.998641 
1.2501116e+2, 2.9552183e+2, 3916.696, -171496.78, 33671.516, 0.020937927, 0.118918434, 10158.044, 54053.688, 0.00000094519226, 10.000999, 9.998671 
1.2501167e+2, 3.0551934e+2, -38346.414, -313538.34, -40242.24, 0.02939607, 0.06911611, -32582.389, -32582.389, 0.000021325412, 10.001007, 9.997362 
1.2501091e+2, 3.1551707e+2, 170190.34, 100441.98, 6251.009, 0.01179361, 0.109284006, 170746.16, 170746.16, 0.000103857135, 10.001087, 10.000167 
1.3498764e+2, 1.2553015e+2, -1806128.3, -1652912.9, 13878.196, 0.028293597, 0.098849766, -1651665.9, 58146.414, 0.0007016644, 9.998916, 10.000947 
1.3498898e+2, 1.3552906e+2, -1744842.5, -1761429.0, 33917.758, 0.0007352706, 0.06839761, -1718218.9, -106394.32, 0.00039489288, 9.99948, 9.999257 
1.3498995e+2, 1.4552921e+2, -1571655.1, -1519748.8, 6860.353, -0.029409137, 0.10710626, -1518857.4, -5034.1934, 0.00015526546, 9.999531, 10.000213 
1.349911e+2, 1.5552919e+2, -1533476.6, -1466083.9, 1390.1788, -0.016458623, 0.09032931, -1466055.3, -50232.508, 0.000031126172, 9.999187, 10.000073 
1.3499275e+2, 1.6552924e+2, -1415183.1, -1368133.8, 33501.215, -0.0048645018, 0.09399558, -1350722.6, -32900.563, 0.0000011270397, 9.99937, 9.999987 
1.3499488e+2, 1.7552915e+2, -1229061.0, -1228080.6, 33602.46, 0.007035682, 0.08262132, -1194964.8, 24858.3, 0.0, 9.999977, 9.999982 
1.3499646e+2, 1.8552892e+2, -1115965.1, -1133673.9, 10111.106, 0.006342417, 0.065494515, -1111379.5, 10445.229, 0.0, 10.000127, 9.9998865 
1.349976e+2, 1.9552863e+2, -1051938.9, -1056038.0, 16102.906, -0.004889479, 0.04357643, -1037755.6, -13929.673, 0.0, 9.999912, 9.999849 
1.3499904e+2, 2.0552835e+2, -984500.25, -1017167.94, 32397.72, -0.017725728, 0.05396784, -964551.75, -38722.66, 0.0, 9.999893, 9.999452 
1.3500072e+2, 2.1552809e+2, -864818.8, -908768.94, 22990.217, -0.03135713, 0.07788257, -854990.5, -27156.527, 0.0, 10.000042, 9.999452 
1.3500218e+2, 2.2552785e+2, -729060.06, -775737.44, 5446.788, -0.035044905, 0.10047812, -728432.94, 1404.0547, 0.0, 10.000227, 9.999603 
1.3500348e+2, 2.3552762e+2, -601146.44, -667376.44, 20377.584, -0.029117303, 0.11290076, -595378.94, 36459.38, 0.0, 10.000451, 9.999566 
1.3500506e+2, 2.4552679e+2, -536102.2, -654120.4, 36280.355, -0.018123532, 0.10620533, -525841.25, 8005.0005, 0.0, 10.000521, 9.998952 
1.3500683e+2, 2.5552547e+2, -447490.34, -562127.3, 27260.35, -0.004668756, 0.07549746, -441338.06, -5478.5464, 0.0, 10.000462, 9.9989395 
1.3500823e+2, 2.6552454e+2, -327603.66, -454832.3, 6848.253, 0.0005251699, 0.08825175, -327236.1, 10633.67, 0.0, 10.000618, 9.998928 
1.3500935e+2, 2.7552384e+2, -180519.14, -335356.66, 16751.035, 0.0029886586, 0.123562984, -178727.66, 61150.15, 0.0, 10.000964, 9.998909 
1.3501066e+2, 2.8552294e+2, -81661.38, -263600.5, 30383.781, 0.008222398, 0.15630975, -76721.43, 65165.42, 0.0, 10.001084, 9.998672 
1.3501196e+2, 2.9552203e+2, 3528.1802, -170688.61, 31502.99, -0.00035368645, 0.19188319, 9049.753, 52945.023, 0.0000005800232, 10.000992, 9.99868 
1.3501269e+2, 3.0551916e+2, -36986.754, -307871.72, -38105.402, 0.028770223, 0.10234417, -31728.535, -31728.535, 0.000016654767, 10.000997, 9.997405 
1.3501246e+2, 3.1551704e+2, 163448.36, 87804.1, 14159.495, 0.056963768, 0.15189894, 166011.94, 166011.94, 0.000086807726, 10.001083, 10.000081 
1.449867e+2, 1.2552923e+2, -1740396.0, -1614759.5, -20383.719, 0.023069022, 0.122015335, -1611535.1, 98287.14, 0.0006852014, 9.999336, 10.001006 
1.4498848e+2, 1.35528e+2, -1768434.5, -1762891.5, 13271.615, 0.012968712, 0.06966833, -1752105.0, -140270.5, 0.00038852147, 9.999275, 9.999346 
1.4498957e+2, 1.4552802e+2, -1597733.6, -1538889.3, -11521.854, -0.013799496, 0.091867425, -1536713.8, -22879.258, 0.00015533686, 9.999379, 10.000155 
1.4499058e+2, 1.5552825e+2, -1479018.9, -1447003.1, -7269.1826, -0.0053103413, 0.10580062, -1445430.0, -29597.936, 0.00003278088, 9.999591, 10.0000105 
1.4499232e+2, 1.6552821e+2, -1385665.4, -1359608.4, 38687.41, 0.0048301, 0.108136974, -1331814.6, -13982.342, 0.0000015078091, 9.999597, 9.999935 
1.4499468e+2, 1.7552783e+2, -1310496.4, -1272574.3, 31283.295, 0.016457228, 0.07043347, -1254954.4, -35118.055, 0.0, 9.99944, 9.999935 
1.4499637e+2, 1.8552768e+2, -1183732.5, -1162763.9, -712.78894, 0.009186363, 0.06324232, -1162739.6, -40902.527, 0.0, 9.999646, 9.999919 
1.4499752e+2, 1.955278e+2, -1016042.75, -1035852.56, -2650.8032, -0.014292429, 0.07917816, -1015694.2, 8140.5, 0.0, 10.000145, 9.999876 
1.4499904e+2, 2.0552741e+2, -935377.4, -996294.7, 13919.279, -0.023878325, 0.07730627, -932347.56, -6508.7407, 0.0, 10.000242, 9.999428 
1.4500083e+2, 2.1552661e+2, -870898.8, -913573.2, 19582.365, -0.02221114, 0.050164945, -863274.94, -35426.55, 0.0, 10.00001, 9.9994335 
1.4500247e+2, 2.255263e+2, -739153.2, -774942.25, 10268.426, -0.023619294, 0.066427335, -736416.3, -6564.487, 0.0, 10.0001335, 9.999654 
1.45004e+2, 2.3552643e+2, -583884.5, -652813.2, 10.718327, -0.026764682, 0.10762516, -583884.5, 47965.82, 0.0, 10.000542, 9.999622 
1.450056e+2, 2.455259e+2, -516405.53, -627372.7, 4602.9336, -0.018087832, 0.11930606, -516214.94, 17640.773, 0.0, 10.000581, 9.999107 
1.4500727e+2, 2.5552484e+2, -457509.7, -550230.2, 23689.322, -0.0018597351, 0.099340975, -451807.9, -15941.31, 0.0, 10.000321, 9.999088 
1.4500877e+2, 2.6552397e+2, -350300.38, -450521.47, 32112.803, 0.0047942214, 0.10540106, -340893.72, -3018.0947, 0.0, 10.000396, 9.9990635 
1.4501023e+2, 2.755232e+2, -208247.44, -334561.72, 34482.363, 0.007937702, 0.118272364, -199447.25, 40436.266, 0.0, 10.000713, 9.999035 
1.4501166e+2, 2.8552228e+2, -122641.945, -290631.56, 27851.61, 0.011783263, 0.14624332, -118144.72, 23747.934, 0.0, 10.000835, 9.998605 
1.4501287e+2, 2.9552138e+2, -26279.578, -193315.05, 21280.604, 0.00071261777, 0.1928512, -23611.025, 20290.262, 0.00000034163278, 10.000822, 9.998607 
1.4501365e+2, 3.0551836e+2, -11709.744, -276147.66, -33154.51, 0.022902241, 0.08123169, -7616.2866, -7616.2866, 0.000012640429, 10.001083, 9.9975815 
1.4501372e+2, 3.1551686e+2, 216994.28, 108658.87, 28157.848, 0.054333, 0.17179307, 223875.78, 223875.78, 0.00007115946, 10.0014715, 10.000038 
1.5498602e+2, 1.2552765e+2, -1723729.9, -1582559.4, -25207.598, 0.016734373, 0.13805898, -1578193.3, 131646.25, 0.0006719969, 9.999346, 10.001223 
1.5498793e+2, 1.3552672e+2, -1748196.0, -1721330.1, 11709.354, 0.028828906, 0.08620215, -1716943.0, -105095.23, 0.00038301162, 9.999275, 9.999631 
1.5498921e+2, 1.4552665e+2, -1592765.9, -1527163.0, -3931.8745, 0.013169877, 0.0813227, -1526928.3, -13080.294, 0.00015494693, 9.999373, 10.000238 
1.5499055e+2, 1.5552695e+2, -1473269.0, -1436350.3, 735.3183, 0.030414337, 0.09593476, -1436335.6, -20491.426, 0.000033834087, 9.999597, 10.000081 
1.5499215e+2, 1.6552697e+2, -1393838.0, -1377619.3, 31867.148, 0.02417495, 0.10594285, -1352845.9, -35001.766, 0.0000017896223, 9.9996, 9.999809 
1.5499392e+2, 1.7552663e+2, -1319512.6, -1291030.8, 27078.414, -0.0027656378, 0.08481181, -1274676.9, -54828.664, 0.0, 9.999439, 9.999809 
1.5499577e+2, 1.8552658e+2, -1188176.0, -1171149.0, 17766.63, -0.015944494, 0.097065106, -1159961.4, -38112.203, 0.0, 9.999642, 9.999864 
1.5499766e+2, 1.9552684e+2, -1019005.44, -1041851.5, 15331.661, -0.015730826, 0.13346533, -1011309.25, 12537.516, 0.0, 10.000144, 9.999836 
1.5499933e+2, 2.0552647e+2, -923283.44, -970384.25, 4622.7285, -0.020618293, 0.12626253, -922834.06, 3016.1465, 0.0, 10.000238, 9.999607 
1.5500076e+2, 2.1552558e+2, -859986.9, -890848.06, 12623.779, -0.029757453, 0.07270694, -855481.0, -27622.582, 0.0, 10.000008, 9.999591 
1.5500253e+2, 2.2552502e+2, -757461.4, -811727.7, 25271.643, -0.031081725, 0.06681024, -747515.4, -17650.742, 0.0, 10.000129, 9.999404 
1.5500455e+2, 2.355247e+2, -599641.2, -684576.0, 14731.586, -0.025728554, 0.09015105, -597158.6, 34710.574, 0.0, 10.000538, 9.999407 
1.5500621e+2, 2.4552444e+2, -480603.88, -551645.6, -5601.933, -0.015506419, 0.11136933, -480164.84, 53706.996, 0.0, 10.000576, 9.99963 
1.5500759e+2, 2.5552422e+2, -422128.72, -476547.13, 15766.697, -0.0025035227, 0.12355587, -417890.66, 17982.033, 0.0, 10.00032, 9.999596 
1.5500923e+2, 2.6552346e+2, -346447.0, -441618.6, 43905.355, 0.010207681, 0.112796694, -329286.47, 8592.582, 0.0, 10.000393, 9.999126 
1.5501115e+2, 2.7552217e+2, -205755.08, -328002.5, 46032.668, 0.026948664, 0.06828934, -190360.06, 49530.32, 0.0, 10.000708, 9.999082 
1.5501273e+2, 2.8552094e+2, -135228.13, -316013.88, 26547.898, 0.034671698, 0.07151519, -131410.27, 10492.364, 0.0, 10.000832, 9.998433 
1.5501389e+2, 2.9551992e+2, -35757.18, -213800.58, 23561.193, 0.018127382, 0.122602016, -32692.004, 11221.629, 0.00000019535571, 10.000825, 9.998466 
1.5501456e+2, 3.0551696e+2, 8605.649, -232993.67, -18317.0, 0.005501855, 0.0067272903, 9986.473, 9986.473, 0.000009261703, 10.0010805, 9.997879 
1.550146e+2, 3.155164e+2, 216617.4, 109803.305, 47459.332, -0.006575342, 0.16754563, 234657.55, 234657.55, 0.00005700469, 10.001464, 10.000048 
1.6498522e+2, 1.255259e+2, -1742214.1, -1595449.3, -20127.592, 0.009881957, 0.124136396, -1592739.0, 117117.5, 0.00065754744, 9.999235, 10.001187 
1.6498722e+2, 1.3552538e+2, -1776164.9, -1731170.4, -2194.327, 0.041958902, 0.110056676, -1731063.6, -119202.18, 0.00037533476, 9.999068, 9.999661 
1.6498871e+2, 1.4552514e+2, -1601689.6, -1527036.8, -9668.059, 0.029576944, 0.08684325, -1525805.0, -11942.032, 0.00015252095, 9.999292, 10.0002775 
1.6499037e+2, 1.5552524e+2, -1438053.0, -1414913.3, -10883.636, 0.040896423, 0.07517816, -1410598.6, 5262.2046, 0.000033788867, 9.99982, 10.00012 
1.6499205e+2, 1.6552532e+2, -1326153.6, -1343588.5, 9535.947, 0.0333009, 0.08796651, -1321951.0, -4091.0247, 0.0000018950186, 10.000058, 9.999823 
1.6499378e+2, 1.7552525e+2, -1228933.4, -1246730.9, 14529.089, 0.0068056397, 0.093663834, -1220794.5, -932.94604, 0.0, 10.000057, 9.999815 
1.6499564e+2, 1.8552522e+2, -1145575.3, -1158064.9, 19646.734, -0.010107172, 0.11193444, -1131204.8, -9341.982, 0.0, 9.999967, 9.999796 
1.6499764e+2, 1.9552533e+2, -1070921.4, -1072495.9, 14928.146, -0.01783369, 0.13837948, -1056759.8, -32896.8, 0.0, 9.999812, 9.999785 
1.6499937e+2, 2.055251e+2, -961642.9, -966774.75, -159.8492, -0.02281292, 0.13690393, -961637.9, -35772.816, 0.0, 9.999879, 9.999805 
1.6500087e+2, 2.1552458e+2, -829497.4, -855171.06, 8727.037, -0.02608234, 0.10108744, -826811.8, 1057.0881, 0.0, 10.000126, 9.99978 
1.6500273e+2, 2.255241e+2, -760737.06, -814477.2, 36183.254, -0.022826226, 0.0938574, -742538.0, -12663.798, 0.0, 10.000112, 9.999393 
1.6500488e+2, 2.3552361e+2, -695175.9, -731439.44, 42719.08, -0.014029759, 0.10201035, -666899.9, -35019.242, 0.0, 9.9998865, 9.999398 
1.6500664e+2, 2.4552327e+2, -544348.3, -579032.6, 14202.756, -0.007987383, 0.115608945, -539274.7, -5390.791, 0.0, 10.000123, 9.99966 
1.6500807e+2, 2.555231e+2, -360860.03, -443091.8, -2093.161, -0.0055964575, 0.12598456, -360806.78, 75077.516, 0.0, 10.000724, 9.99963 
1.6500978e+2, 2.6552224e+2, -277416.56, -404052.4, 3942.492, 0.003522867, 0.10621291, -277293.94, 60596.73, 0.0, 10.000849, 9.999165 
1.6501176e+2, 2.7552086e+2, -220781.67, -331635.38, 2927.7673, 0.022963867, 0.045955505, -220704.4, 19198.158, 0.0, 10.000588, 9.999114 
1.650135e+2, 2.8551966e+2, -151890.55, -319088.9, -1551.7123, 0.036425963, 0.04766872, -151876.16, -9961.854, 0.0, 10.000696, 9.998476 
1.6501492e+2, 2.955188e+2, 2886.7673, -190327.13, 10017.726, 0.028028386, 0.11077267, 3404.7761, 47328.523, 0.00000010392393, 10.001071, 9.9985075 
1.6501567e+2, 3.0551574e+2, 40438.28, -185761.61, -26710.12, 0.0050187167, -0.029361235, 43549.47, 43549.47, 0.0000064948904, 10.001162, 9.998162 
1.6501576e+2, 3.1551543e+2, 148261.98, 70058.28, 37101.258, -0.012936914, 0.12596685, 163062.42, 163062.42, 0.000044405664, 10.001022, 9.999987 
1.7498435e+2, 1.25524e+2, -1763125.0, -1638454.9, -31339.066, -0.004555161, 0.08170712, -1631020.3, 78852.836, 0.0006370072, 9.999234, 10.000892 
1.7498638e+2, 1.3552396e+2, -1791550.3, -1764683.5, -6089.212, 0.04836442, 0.14006764, -1763367.9, -151492.23, 0.00036284848, 9.999074, 9.99943 
1.7498802e+2, 1.4552352e+2, -1601509.3, -1527314.3, 9273.282, 0.029916942, 0.10639903, -1526172.8, -12292.939, 0.00014707113, 9.999295, 10.000275 
1.7498998e+2, 1.5552309e+2, -1437422.5, -1414017.3, 8429.443, 0.02064829, 0.04392799, -1411297.4, 4584.66, 0.00003249045, 9.999821, 10.000126 
1.7499207e+2, 1.6552325e+2, -1315266.3, -1321011.1, 8800.299, 0.027148899, 0.05451516, -1308881.4, 8998.691, 0.0000018022155, 10.000058, 9.999978 
1.7499419e+2, 1.7552368e+2, -1219025.1, -1226245.9, 14703.856, 0.042173374, 0.09667678, -1207494.9, 12381.343, 0.0, 10.000057, 9.999957 
1.7499594e+2, 1.8552361e+2, -1151159.3, -1169621.5, 13286.126, 0.022431009, 0.10785348, -1144212.1, -22334.143, 0.0, 9.999967, 9.999718 
1.7499739e+2, 1.9552322e+2, -1075448.1, -1081696.0, 10314.115, -0.023187775, 0.093334496, -1067795.3, -43911.86, 0.0, 9.999811, 9.999723 
1.7499915e+2, 2.0552325e+2, -946493.1, -934601.3, 8785.717, -0.033163644, 0.10872664, -929938.6, -4054.995, 0.0, 9.999876, 10.000029 
1.7500113e+2, 2.1552359e+2, -814820.94, -823459.5, 17822.736, -0.014356695, 0.13504337, -800801.56, 27078.285, 0.0, 10.00012, 10.0 
1.7500305e+2, 2.2552352e+2, -745491.5, -781545.4, 27160.531, -0.0023712292, 0.14781141, -730919.9, -1039.3124, 0.0, 10.000106, 9.999621 
1.7500496e+2, 2.3552312e+2, -681720.3, -703465.06, 36405.617, 0.0049400902, 0.14158703, -654598.25, -22713.4, 0.0, 9.999886, 9.999591 
1.7500685e+2, 2.4552238e+2, -576719.06, -645776.4, 36556.004, 0.0010959473, 0.13033253, -560962.9, -27070.803, 0.0, 10.000121, 9.999202 
1.7500873e+2, 2.555214e+2, -391449.5, -505785.16, 19353.98, -0.013990678, 0.106395006, -388262.22, 47639.266, 0.0, 10.000721, 9.999201 
1.7501043e+2, 2.6552036e+2, -277082.16, -402967.34, -6424.632, -0.017797312, 0.085184105, -276755.13, 61155.49, 0.0, 10.000847, 9.999173 
1.7501204e+2, 2.7551922e+2, -218930.53, -328014.3, -4672.914, -0.008326432, 0.050890718, -218730.72, 21189.324, 0.0, 10.000589, 9.999139 
1.7501396e+2, 2.8551838e+2, -135068.52, -283584.66, 12163.846, 0.011638885, 0.074687965, -134078.88, 7848.8604, 0.0, 10.000694, 9.998721 
1.7501599e+2, 2.9551798e+2, 18195.648, -157091.95, 23953.447, 0.025996959, 0.15666685, 21409.998, 65341.83, 0.00000004563321, 10.001065, 9.998737 
1.7501695e+2, 3.0551472e+2, 59440.293, -146588.38, -32267.969, 0.016618988, -0.02796228, 64375.83, 64375.83, 0.000004309572, 10.001162, 9.998431 
1.7501721e+2, 3.155139e+2, 141635.1, 54292.32, 35754.51, 0.026003744, 0.051487673, 154404.61, 154404.61, 0.000033397264, 10.001029, 9.999875 
1.8498358e+2, 1.2552197e+2, -1827967.9, -1681351.0, -37856.5, 0.014412769, 0.051525723, -1672153.4, 37738.4, 0.0006065531, 9.998839, 10.000787 
1.8498586e+2, 1.355221e+2, -1694457.3, -1720163.0, 4892.309, 0.05552597, 0.12919231, -1693557.6, -81664.54, 0.00034376056, 9.99975, 9.999409 
1.849876e+2, 1.455217e+2, -1506180.4, -1477770.4, 18511.98, 0.02607629, 0.09957862, -1468641.4, 45255.96, 0.00013809917, 9.999933, 10.000307 
1.8498959e+2, 1.5552153e+2, -1481935.3, -1431489.8, 19250.914, 0.014470644, 0.058630124, -1424982.6, -9085.138, 0.000029920388, 9.999498, 10.000161 
1.8499179e+2, 1.655217e+2, -1392203.8, -1350524.3, 23040.291, 0.021035133, 0.066240326, -1340297.1, -22401.813, 0.0000015280342, 9.999497, 10.000046 
1.849941e+2, 1.75522e+2, -1243264.5, -1230032.0, 20454.627, 0.036056425, 0.08714364, -1215150.1, 4742.3384, 0.0, 9.999857, 10.000027 
1.849959e+2, 1.8552192e+2, -1149371.5, -1161288.4, 11777.069, 0.02497606, 0.089374304, -1142131.4, -20237.262, 0.0, 9.999946, 9.999784 
1.8499738e+2, 1.955216e+2, -1070818.0, -1072199.3, 19884.53, -0.0054556294, 0.07506015, -1051612.1, -27713.559, 0.0, 9.999811, 9.999788 
1.8499917e+2, 2.055217e+2, -958081.9, -942346.44, 25881.176, -0.014566543, 0.09588955, -923163.56, 2734.6775, 0.0, 9.999805, 10.000009 
1.8500121e+2, 2.1552213e+2, -845838.4, -839617.2, 15029.153, -0.0072367038, 0.13265833, -827380.1, 514.2464, 0.0, 9.999912, 9.9999895 
1.8500322e+2, 2.2552212e+2, -735824.44, -763496.2, 7740.419, 0.003076231, 0.14597255, -733806.4, -3912.1606, 0.0, 10.000114, 9.999742 
1.8500522e+2, 2.3552176e+2, -600246.06, -652146.9, 8808.69, 0.017197642, 0.13291223, -598791.75, 33105.332, 0.0, 10.000393, 9.9997 
1.8500729e+2, 2.4552101e+2, -535411.9, -641758.8, 27862.791, 0.014415358, 0.123046204, -528554.06, 5350.3794, 0.0, 10.000474, 9.99906 
1.8500938e+2, 2.5551996e+2, -449139.22, -549406.25, 32175.176, -0.004263785, 0.107314385, -439702.5, -3787.0981, 0.0, 10.000393, 9.999059 
1.850111e+2, 2.655189e+2, -335891.38, -440935.66, 3488.1711, -0.015740428, 0.09365192, -335775.7, 2150.0996, 0.0, 10.000485, 9.999086 
1.8501261e+2, 2.7551776e+2, -206811.9, -330147.16, -2296.4714, -0.017035045, 0.06671786, -206769.16, 33167.08, 0.0, 10.000708, 9.999066 
1.8501464e+2, 2.8551698e+2, -107708.83, -249317.16, 16790.246, 0.0045300615, 0.09194579, -105745.266, 36197.586, 0.0, 10.000792, 9.998908 
1.8501693e+2, 2.9551673e+2, -14157.466, -153904.34, 22305.479, 0.030931326, 0.17163663, -10683.567, 33260.56, 0.000000013949684, 10.000763, 9.998904 
1.8501808e+2, 3.0551362e+2, 46953.645, -149292.16, -42800.402, 0.01799524, -0.008387298, 55882.027, 55882.027, 0.0000026617806, 10.001061, 9.998461 
1.8501861e+2, 3.1551278e+2, 201263.38, 46400.797, 5825.5454, 0.03600281, 0.0637418, 201482.2, 201482.2, 0.000023992492, 10.001599, 9.999544 
1.9498292e+2, 1.2551981e+2, -1821456.0, -1667983.1, -7464.006, 0.061042923, 0.033423856, -1667621.0, 42291.668, 0.0005643703, 9.998839, 10.000878 
1.9498567e+2, 1.3551979e+2, -1680599.1, -1691927.8, 37708.223, 0.05991709, 0.077656135, -1648132.1, -36218.08, 0.00031730495, 9.999752, 9.999601 
1.9498743e+2, 1.4551972e+2, -1500956.9, -1467678.8, 1660.63, 0.013261289, 0.06641167, -1467596.0, 46319.44, 0.00012543245, 9.999936, 10.000375 
1.9498914e+2, 1.5552056e+2, -1476937.0, -1421991.8, 4976.0093, 0.019366125, 0.11908572, -1421544.8, -5637.55, 0.000026112697, 9.999501, 10.000225 
1.949912e+2, 1.655207e+2, -1393765.0, -1353709.6, 36053.92, 0.011208818, 0.12272902, -1332494.3, -14588.532, 0.0000011234973, 9.999497, 10.000025 
1.9499345e+2, 1.7552018e+2, -1243665.1, -1230739.6, 33618.473, -0.014102623, 0.065237895, -1202968.3, 16942.111, 0.0, 9.999857, 10.000023 
1.9499555e+2, 1.8552011e+2, -1134096.6, -1129071.9, 6270.785, -0.0060133194, 0.05644199, -1124828.9, -2917.6638, 0.0, 9.999944, 10.000007 
1.9499758e+2, 1.9552043e+2, -1057626.6, -1044383.5, 15580.689, 0.032784067, 0.08383439, -1034075.75, -10167.454, 0.0, 9.999809, 9.99998 
1.9499943e+2, 2.0552044e+2, -976885.94, -980541.1, 29472.479, 0.029875953, 0.09914444, -949184.44, -23275.559, 0.0, 9.999802, 9.999748 
1.9500111e+2, 2.1552016e+2, -863370.3, -875356.75, 20115.725, -0.007659114, 0.09282207, -848374.0, -20461.436, 0.0, 9.999909, 9.999745 
1.9500323e+2, 2.2551985e+2, -735391.94, -761918.2, 17615.63, -0.009022292, 0.087916136, -726604.7, 3310.7266, 0.0, 10.000112, 9.999754 
1.9500564e+2, 2.3551953e+2, -599096.5, -648918.44, 19101.41, 0.020064104, 0.07626571, -592616.06, 39301.344, 0.0, 10.00039, 9.999723 
1.9500792e+2, 2.4551918e+2, -524111.13, -617706.2, 24237.678, 0.029394804, 0.094405435, -518206.9, 15714.23, 0.0, 10.000471, 9.999226 
1.9501002e+2, 2.555188e+2, -439349.47, -528550.4, 30218.096, 0.020175336, 0.12801303, -430076.6, 5849.561, 0.0, 10.000391, 9.999203 
1.9501182e+2, 2.6551786e+2, -349506.75, -468926.63, 11224.393, 0.006582401, 0.13139352, -348460.9, -10524.58, 0.0, 10.0004835, 9.998896 
1.9501343e+2, 2.7551642e+2, -218796.1, -354811.22, 5796.249, -0.006157312, 0.09302683, -218549.53, 21401.78, 0.0, 10.000706, 9.9988985 
1.950155e+2, 2.8551543e+2, -99072.75, -230681.27, 15248.856, 0.011584282, 0.09935784, -97329.04, 44630.793, 0.0, 10.000789, 9.999038 
1.9501778e+2, 2.955151e+2, -7296.723, -139832.84, 23676.762, 0.038940974, 0.15534282, -3194.0164, 40766.785, 0.0000000023315327, 10.000763, 9.999001 
1.9501902e+2, 3.0551243e+2, 32028.756, -180349.77, -23514.318, 0.0048669227, 0.029722506, 34601.08, 34601.08, 0.0000014940416, 10.001062, 9.998247 
1.9501998e+2, 3.155121e+2, 161829.55, -35723.457, 27427.889, 0.008622606, 0.17056422, 165566.88, 165566.88, 0.00001627015, 10.0016, 9.9989805 
2.0498219e+2, 1.25518e+2, -1695783.3, -1588298.9, 4801.7905, 0.06656007, 0.0415589, -1588084.8, 121846.23, 0.0005112227, 9.999621, 10.00105 
2.0498505e+2, 1.3551803e+2, -1756324.4, -1700628.4, 55891.53, 0.054726157, 0.065188766, -1666031.4, -54101.527, 0.00028397882, 9.999113, 9.99985 
2.0498696e+2, 1.4551792e+2, -1610845.9, -1539956.4, 10513.055, 0.0062143016, 0.04664287, -1538430.1, -24498.256, 0.000109345056, 9.999265, 10.000203 
2.0498891e+2, 1.5551886e+2, -1424172.0, -1413878.5, -5937.847, 0.023483263, 0.12751804, -1411167.4, 4756.769, 0.000021261263, 9.999938, 10.000071 
2.0499098e+2, 1.6551903e+2, -1332955.8, -1323915.1, 11098.213, 0.019830417, 0.14063917, -1316451.9, 1471.1454, 0.00000067965186, 9.999912, 10.000029 
2.0499308e+2, 1.755185e+2, -1321018.0, -1266942.8, 10268.847, -0.009350079, 0.07902871, -1265058.4, -45130.313, 0.0, 9.999321, 10.000032 
2.0499527e+2, 1.8551843e+2, -1205303.8, -1151871.6, -7176.4243, -0.0024173937, 0.066571355, -1150924.5, -28996.229, 0.0, 9.999405, 10.000111 
2.0499754e+2, 1.9551882e+2, -1016284.44, -1013789.56, -8261.358, 0.036985695, 0.09018537, -1006682.0, 17241.957, 0.0, 10.000047, 10.000076 
2.0499946e+2, 2.0551875e+2, -918851.4, -964637.9, -527.4682, 0.032436285, 0.10065446, -918845.3, 7079.5996, 0.0, 10.000253, 9.99964 
2.050011e+2, 2.1551833e+2, -843103.1, -877022.06, 1265.6083, -0.00938885, 0.089184545, -843055.94, -15125.623, 0.0, 10.000098, 9.999643 
2.0500326e+2, 2.2551793e+2, -745594.2, -769754.75, 10175.349, -0.012868964, 0.08049817, -741879.8, -11945.655, 0.0, 10.000054, 9.999728 
2.0500584e+2, 2.3551755e+2, -642377.7, -671741.0, 7000.435, 0.015569749, 0.06535176, -640794.1, -8857.404, 0.0, 10.000101, 9.999705 
2.0500827e+2, 2.4551722e+2, -555660.9, -618911.1, 4874.777, 0.032302562, 0.082006134, -555287.4, -21347.506, 0.0, 10.000195, 9.999351 
2.0501055e+2, 2.5551698e+2, -440495.72, -515809.2, 7540.1597, 0.03737274, 0.116641216, -439748.25, -3804.7969, 0.0, 10.000326, 9.999322 
2.0501253e+2, 2.6551622e+2, -343037.97, -461113.2, 4906.717, 0.02695145, 0.13322565, -342834.44, -4882.5166, 0.0, 10.000507, 9.998938 
2.0501429e+2, 2.7551508e+2, -214206.28, -348224.03, 14646.733, 0.008801222, 0.11930407, -212624.22, 27340.674, 0.0, 10.000719, 9.998938 
2.0501648e+2, 2.8551403e+2, -78399.15, -223122.39, 22006.754, 0.023265434, 0.11657522, -75126.77, 66847.516, 0.0, 10.00094, 9.999017 
2.0501886e+2, 2.9551327e+2, 48926.69, -116031.305, 19351.982, 0.04955865, 0.13578466, 51166.547, 95145.055, 0.000000000097020676, 10.001164, 9.998972 
2.0502013e+2, 3.0551097e+2, 74157.11, -164808.19, -14248.203, -0.006069686, 0.04856829, 75003.66, 75003.66, 0.00000072960836, 10.001372, 9.998206 
2.0502134e+2, 3.155108e+2, 130351.3, -87481.06, 45993.59, -0.012160515, 0.2087913, 139664.31, 139664.31, 0.00001031642, 10.00154, 9.998656 
2.1498142e+2, 1.2551652e+2, -1678650.6, -1553311.5, -18301.977, 0.023203822, 0.07610278, -1550693.8, 159253.0, 0.00045034575, 9.999623, 10.001289 
2.14984e+2, 1.3551682e+2, -1735431.3, -1657980.3, 39961.69, 0.0370922, 0.09179197, -1641058.6, -29118.012, 0.0002457903, 9.999116, 10.000142 
2.1498619e+2, 1.4551628e+2, -1639036.6, -1598790.3, 35474.195, 0.0010315155, 0.040988334, -1578129.1, -64182.723, 0.00009091271, 9.999268, 9.999799 
2.1498887e+2, 1.5551646e+2, -1450503.3, -1468321.3, 17804.713, 0.02427592, 0.08405997, -1439503.0, -23554.717, 0.000015871614, 9.999937, 9.999699 
2.1499115e+2, 1.655167e+2, -1330896.5, -1319371.3, -11710.565, 0.04292149, 0.11964432, -1312082.3, 5865.325, 0.00000031009594, 9.999911, 10.00006 
2.1499299e+2, 1.7551689e+2, -1319037.6, -1263661.3, -9228.942, 0.0476941, 0.12805282, -1262163.6, -42218.016, 0.0, 9.999324, 10.000053 
2.1499503e+2, 1.8551688e+2, -1206216.3, -1153711.5, 16859.453, 0.031904493, 0.11969942, -1148764.1, -26818.775, 0.0, 9.999405, 10.000097 
2.1499728e+2, 1.9551675e+2, -1016773.5, -1014461.1, 15167.9375, 0.004993616, 0.093813054, -1000405.4, 23540.23, 0.0, 10.000046, 10.0000725 
2.1499932e+2, 2.0551668e+2, -916273.2, -958060.25, -6734.503, -0.00949302, 0.100112274, -915214.7, 10731.72, 0.0, 10.000248, 9.999688 
2.1500115e+2, 2.1551663e+2, -840842.6, -871386.25, -3527.3132, -0.01523532, 0.122445114, -840440.56, -12492.986, 0.0, 10.000094, 9.999684 
2.1500334e+2, 2.255163e+2, -751049.5, -780007.94, 11414.096, -0.011298857, 0.12376207, -747091.5, -17140.893, 0.0, 10.00005, 9.99966 
2.1500582e+2, 2.3551577e+2, -647408.7, -681141.6, 9493.155, 0.0012871526, 0.099308774, -644920.6, -12965.525, 0.0, 10.000097, 9.999642 
2.1500836e+2, 2.4551517e+2, -550367.25, -607287.06, 9081.624, 0.020947002, 0.08611765, -548953.4, -14992.614, 0.0, 10.000192, 9.999433 
2.1501096e+2, 2.555145e+2, -433932.03, -501345.28, 13084.67, 0.04437043, 0.07297606, -431481.44, 4485.8325, 0.0, 10.000322, 9.999424 
2.150132e+2, 2.6551408e+2, -325144.75, -423031.5, 12515.662, 0.042602416, 0.099429846, -323569.84, 14402.659, 0.0, 10.000504, 9.999202 
2.1501517e+2, 2.7551377e+2, -198087.63, -314241.44, 23253.303, 0.024140269, 0.14480737, -193605.42, 46371.758, 0.0, 10.000717, 9.999172 
2.1501756e+2, 2.8551275e+2, -90508.586, -247587.13, 29128.648, 0.03628166, 0.1435272, -85280.945, 56705.484, 0.0, 10.000937, 9.998851 
2.1502012e+2, 2.9551136e+2, 38425.676, -138224.06, 27908.04, 0.05848836, 0.112139866, 42729.855, 86727.33, 0.0, 10.001164, 9.99882 
2.1502137e+2, 3.0550924e+2, 82898.35, -145053.47, -7967.165, -0.01874466, 0.04748808, 83176.48, 83176.48, 0.0000002906552, 10.001368, 9.998344 
2.1502265e+2, 3.15509e+2, 123495.76, -101373.1, 52320.816, -0.034847412, 0.18659854, 135073.3, 135073.3, 0.0000060416633, 10.001539, 9.998561 
2.2498056e+2, 1.2551495e+2, -1777929.8, -1617607.4, -31610.25, 0.00741202, 0.11102456, -1611600.0, 98362.71, 0.0003861587, 9.999016, 10.001141 
2.249833e+2, 1.3551487e+2, -1699280.0, -1645892.8, 1295.045, 0.04329643, 0.09452273, -1645861.4, -33901.31, 0.00020573656, 9.99939, 10.000093 
2.2498564e+2, 1.4551419e+2, -1600192.3, -1573015.8, 16673.254, 0.0074646594, 0.027235456, -1565095.0, -51127.742, 0.00007189719, 9.999503, 9.999863 
2.2498849e+2, 1.5551455e+2, -1523681.0, -1496191.8, 31552.008, 0.019635398, 0.081805736, -1475520.6, -59553.54, 0.000010694928, 9.999404, 9.999764 
2.2499086e+2, 1.6551481e+2, -1377774.1, -1345710.5, 3611.6782, 0.038390223, 0.11899712, -1345308.8, -27342.74, 0.000000092361944, 9.999605, 10.000029 
2.249927e+2, 1.755149e+2, -1214985.0, -1216407.4, 1039.5851, 0.05006116, 0.12146664, -1214436.6, 5528.448, 0.0, 10.0000515, 10.000028 
2.2499475e+2, 1.8551494e+2, -1111946.8, -1109000.1, 34456.418, 0.03118569, 0.118610546, -1075985.6, 45978.87, 0.0, 10.000055, 10.000092 
2.2499703e+2, 1.9551495e+2, -1066831.3, -1038969.0, 32255.895, -0.0073695737, 0.106565736, -1017764.4, 6199.2637, 0.0, 9.999703, 10.000069 
2.2499923e+2, 2.0551485e+2, -994913.56, -993689.5, 7523.0713, -0.014720916, 0.10897798, -986753.6, -60789.152, 0.0, 9.999698, 9.999709 
2.2500136e+2, 2.1551463e+2, -857007.4, -877702.2, 7605.111, 0.001575204, 0.11329031, -854513.2, -26546.547, 0.0, 9.999978, 9.999697 
2.2500359e+2, 2.2551426e+2, -745912.0, -789771.25, 20763.473, 0.004759515, 0.11520504, -737641.8, -7671.5386, 0.0, 10.000138, 9.99955 
2.2500592e+2, 2.3551378e+2, -640147.7, -689262.6, 14971.56, -0.0021746599, 0.106818385, -635943.8, -3968.719, 0.0, 10.000197, 9.999539 
2.2500853e+2, 2.4551316e+2, -536643.75, -594277.8, 15096.671, 0.014964058, 0.09377763, -532928.8, 1052.1189, 0.0, 10.000258, 9.99949 
2.2501132e+2, 2.5551242e+2, -431070.2, -494305.6, 15436.2, 0.049912356, 0.06718408, -427503.28, 8484.232, 0.0, 10.000318, 9.999475 
2.2501372e+2, 2.6551196e+2, -337275.22, -431528.03, 5941.7705, 0.048262686, 0.088744715, -336902.13, 1090.7294, 0.0, 10.000432, 9.999177 
2.2501577e+2, 2.7551165e+2, -218331.61, -326923.75, -5068.3574, 0.020302849, 0.13803738, -218095.56, 21901.832, 0.0, 10.000591, 9.9991455 
2.2501838e+2, 2.8551063e+2, -113019.41, -263539.4, -499.38873, 0.032301266, 0.13867378, -113017.75, 28989.45, 0.0, 10.000804, 9.998806 
2.2502129e+2, 2.9550916e+2, 17085.023, -153368.5, 4799.646, 0.063784525, 0.10491735, 17220.066, 61239.6, 0.0, 10.001039, 9.998777 
2.250227e+2, 3.0550742e+2, 87743.22, -124450.12, -23345.754, -0.018778272, 0.07130394, 90281.38, 90281.38, 0.000000085825576, 10.001319, 9.998509 
2.2502439e+2, 3.155067e+2, 145551.0, -81845.516, 35675.516, -0.02271011, 0.14524016, 151016.66, 151016.66, 0.0000031779714, 10.001652, 9.998641 
2.3497964e+2, 1.2551332e+2, -1815578.8, -1695627.8, -24439.943, 0.01142643, 0.15003702, -1690839.3, 19139.277, 0.00032267286, 9.999017, 10.000604 
2.3498297e+2, 1.355122e+2, -1727749.3, -1703714.8, 15155.9375, 0.07071442, 0.073496975, -1696389.9, -84401.55, 0.0001666326, 9.999384, 9.9997 
2.3498529e+2, 1.455116e+2, -1563781.6, -1496105.5, 12554.801, 0.021991985, 0.004648986, -1493851.5, 20142.918, 0.00005400246, 9.999497, 10.000393 
2.3498777e+2, 1.555131e+2, -1488103.9, -1423647.6, 29466.447, 0.0056855716, 0.12053246, -1412207.4, 3773.4004, 0.000006396683, 9.999409, 10.00026 
2.3499009e+2, 1.6551335e+2, -1383284.4, -1358152.4, 19956.328, 0.0013602423, 0.13885716, -1347135.4, -29156.775, 0.000000013163342, 9.99961, 9.999941 
2.349922e+2, 1.7551255e+2, -1220232.5, -1227365.9, 16888.438, -0.004988764, 0.05936955, -1206538.3, 13448.166, 0.0, 10.000051, 9.999952 
2.3499443e+2, 1.855126e+2, -1112302.3, -1108753.5, 20737.314, -0.007644337, 0.062775396, -1089714.8, 32271.1, 0.0, 10.0000515, 10.000094 
2.3499678e+2, 1.955134e+2, -1066920.1, -1038995.56, 20581.988, -0.0026773014, 0.1289977, -1028086.9, -4108.749, 0.0, 9.999703, 10.000069 
2.3499922e+2, 2.0551325e+2, -995667.3, -994646.2, 17779.066, 0.013721204, 0.12756783, -977370.4, -51391.156, 0.0, 9.999696, 9.999703 
2.350017e+2, 2.1551235e+2, -858771.4, -880001.2, 18525.158, 0.037969097, 0.06147386, -848035.44, -20047.97, 0.0, 9.999972, 9.999683 
2.3500401e+2, 2.255118e+2, -757373.3, -812235.7, 22413.299, 0.032365486, 0.05505445, -749380.94, -19387.867, 0.0, 10.000133, 9.999399 
2.3500618e+2, 2.3551159e+2, -649877.7, -708824.4, 17867.17, 0.0028660505, 0.08859004, -644884.9, -12888.329, 0.0, 10.000195, 9.999406 
2.3500876e+2, 2.455112e+2, -535373.0, -591428.5, 16847.842, 0.0115984045, 0.10488814, -530699.0, 3301.3584, 0.0, 10.000257, 9.999511 
2.3501165e+2, 2.555107e+2, -431869.0, -495115.72, 18300.61, 0.050379727, 0.09877649, -426955.4, 9048.954, 0.0, 10.000314, 9.999471 
2.3501407e+2, 2.6550984e+2, -359286.38, -476000.9, 10986.99, 0.040522993, 0.10141677, -358261.13, -20248.12, 0.0, 10.000427, 9.998874 
2.3501611e+2, 2.7550876e+2, -237767.25, -366313.75, 1653.06, -0.0063176383, 0.09846455, -237746.0, 2279.6208, 0.0, 10.000587, 9.998877 
2.3501895e+2, 2.8550765e+2, -108912.64, -254264.4, 8249.069, 0.008184354, 0.10140601, -108445.984, 33590.61, 0.0, 10.000801, 9.998873 
2.350223e+2, 2.955067e+2, 21274.467, -144756.52, 14306.278, 0.061150804, 0.11349859, 22498.168, 66543.01, 0.0, 10.001039, 9.998837 
2.3502414e+2, 3.0550548e+2, 101295.96, -94688.34, -12091.083, -0.009019485, 0.11865617, 102039.09, 102039.09, 0.000000016806371, 10.001313, 9.998716 
2.3502642e+2, 3.1550395e+2, 161978.81, -45579.14, 46003.625, 0.013972332, 0.0930888, 171718.16, 171718.16, 0.0000014346882, 10.001644, 9.998894 
2.4497856e+2, 1.2551063e+2, -1839367.4, -1717569.4, -39768.926, 0.006768896, 0.118144885, -1705734.3, 4270.0776, 0.00026299746, 9.998897, 10.000512 
2.4498251e+2, 1.3550998e+2, -1732974.1, -1704806.6, 35209.027, 0.08957858, 0.08790434, -1680969.0, -68958.15, 0.0001305452, 9.999341, 9.999713 
2.4498495e+2, 1.4550948e+2, -1563654.5, -1486429.1, 11697.135, 0.0403879, 0.024436913, -1484696.3, 29319.848, 0.000038366878, 9.999457, 10.000481 
2.4498716e+2, 1.5551089e+2, -1502324.8, -1419440.6, -4778.2266, 0.012170912, 0.12260652, -1419166.1, -3163.4565, 0.000003303544, 9.999264, 10.00036 
2.4498947e+2, 1.6551122e+2, -1422811.4, -1357685.9, -1102.5311, -0.0053619454, 0.13231641, -1357667.3, -39667.844, 0.00000000018007511, 9.999255, 10.000115 
2.449917e+2, 1.7551059e+2, -1301298.4, -1248482.3, 13063.829, -0.02912731, 0.053661283, -1245427.6, -25422.85, 0.0, 9.999418, 10.0001135 
2.4499401e+2, 1.8551067e+2, -1201263.8, -1167484.3, 3864.7322, -0.025613973, 0.05993275, -1167047.8, -45043.61, 0.0, 9.999509, 9.999953 
2.4499649e+2, 1.9551137e+2, -1100524.4, -1069841.5, -6823.563, 0.0056867627, 0.12988642, -1068392.5, -44394.113, 0.0, 9.9995365, 9.999938 
2.4499904e+2, 2.0551111e+2, -991265.1, -988628.8, 4357.9673, 0.02517891, 0.12216606, -985394.0, -59393.51, 0.0, 9.999709, 9.999738 
2.4500163e+2, 2.1551009e+2, -851707.1, -872931.75, 6622.1855, 0.03270154, 0.041430082, -849810.44, -21801.258, 0.0, 10.000005, 9.999718 
2.4500416e+2, 2.2550963e+2, -742434.25, -804237.44, 14115.273, 0.030127866, 0.041068345, -739363.06, -9349.08, 0.0, 10.000232, 9.999406 
2.4500665e+2, 2.3550963e+2, -619235.75, -693974.1, 19921.773, 0.020279823, 0.09660655, -614257.2, 17758.5, 0.0, 10.000404, 9.999407 
2.4500921e+2, 2.4550927e+2, -507047.1, -589541.94, 17452.19, 0.019557642, 0.11969508, -503506.9, 30512.688, 0.0, 10.000503, 9.999405 
2.450118e+2, 2.555086e+2, -405838.28, -494512.2, 9209.489, 0.024007998, 0.10912434, -404891.9, 31133.234, 0.0, 10.000544, 9.999365 
2.450144e+2, 2.655076e+2, -326706.94, -474045.9, 12471.047, 0.017783545, 0.10481278, -325658.8, 12376.541, 0.0, 10.0007105, 9.998752 
2.45017e+2, 2.7550626e+2, -191775.98, -357974.22, 14256.912, 0.006179513, 0.09251499, -190561.86, 49487.81, 0.0, 10.000962, 9.9987545 
2.4501996e+2, 2.85505e+2, -87710.62, -255762.6, 14925.506, 0.019415393, 0.09164687, -86395.305, 55667.18, 0.0, 10.000997, 9.998768 
2.4502307e+2, 2.9550394e+2, -10165.869, -170906.69, 8123.1016, 0.042312603, 0.103282996, -9756.408, 34316.453, 0.0, 10.000871, 9.998738 
2.4502517e+2, 3.055031e+2, 73309.3, -97985.82, -14512.605, -0.024236325, 0.1460864, 74530.15, 74530.15, 0.0000000018495133, 10.00108, 9.998805 
2.450284e+2, 3.1550127e+2, 160749.36, -19024.752, 26856.545, 0.055975974, 0.0776543, 164675.72, 164675.72, 0.00000052479436, 10.001517, 9.999137 
2.549773e+2, 1.2550682e+2, -1815671.9, -1666037.1, -28402.98, -0.012095102, 0.011588903, -1660827.3, 49213.19, 0.000209724, 9.998885, 10.000871 
2.549819e+2, 1.355082e+2, -1702461.1, -1643892.9, 51862.535, 0.09415221, 0.136881, -1613618.0, -1590.075, 0.00009902971, 9.99935, 10.000127 
2.549846e+2, 1.4550783e+2, -1587409.8, -1537151.5, 3658.9917, 0.05600092, 0.08677477, -1536886.5, -22853.867, 0.000025643241, 9.999464, 10.000129 
2.5498667e+2, 1.5550794e+2, -1523681.8, -1462886.5, -11449.01, 0.03574367, 0.08847202, -1460801.9, -44769.023, 0.0000014046367, 9.999261, 10.000063 
2.5498894e+2, 1.6550836e+2, -1393293.6, -1294991.1, 4325.1006, 0.01557734, 0.09941428, -1294801.3, 23227.197, 0.0, 9.999249, 10.000548 
2.5499114e+2, 1.75509e+2, -1273416.6, -1191371.5, 19487.076, -0.025847655, 0.10420936, -1186978.1, 33042.19, 0.0, 9.999421, 10.000504 
2.5499353e+2, 1.8550912e+2, -1220807.8, -1208254.3, 4589.6665, -0.026937079, 0.1098876, -1206755.1, -84735.664, 0.0, 9.999511, 9.999673 
2.5499612e+2, 1.9550882e+2, -1118928.9, -1107539.4, -4834.7153, 0.0148787815, 0.109036714, -1105763.9, -81739.47, 0.0, 9.999535, 9.99968 
2.5499868e+2, 2.055084e+2, -986888.9, -978262.06, 15221.813, 0.01708203, 0.092227176, -966754.3, -40725.883, 0.0, 9.999704, 9.999812 
2.5500116e+2, 2.1550786e+2, -846459.5, -861165.7, 18226.89, -0.017001884, 0.054078076, -834158.4, -6126.621, 0.0, 10.000002, 9.9998 
2.5500405e+2, 2.2550772e+2, -731118.06, -780245.6, 20033.963, -0.004903173, 0.07324998, -723984.25, 6048.786, 0.0, 10.000229, 9.999573 
2.5500733e+2, 2.3550792e+2, -610178.6, -673912.25, 26718.81, 0.04670512, 0.13086827, -600459.56, 31573.023, 0.0, 10.000399, 9.999547 
2.5500986e+2, 2.4550734e+2, -523583.97, -622789.1, 18398.004, 0.034445092, 0.13874638, -520281.9, 13756.741, 0.0, 10.000498, 9.999179 
2.550118e+2, 2.5550616e+2, -420229.72, -523718.22, 11836.642, -0.03193946, 0.09788531, -418893.16, 17156.695, 0.0, 10.000542, 9.999165 
2.5501472e+2, 2.6550514e+2, -323189.56, -467150.66, 21791.441, -0.022560107, 0.097917564, -319963.28, 18096.756, 0.0, 10.000711, 9.998799 
2.5501844e+2, 2.7550417e+2, -190498.95, -355333.03, 23386.023, 0.05247071, 0.12018481, -187245.27, 52824.37, 0.0, 10.000961, 9.998775 
2.5502136e+2, 2.8550267e+2, -107351.66, -295269.72, 8982.737, 0.060499504, 0.10948199, -106923.24, 35161.71, 0.0, 10.000992, 9.998499 
2.5502354e+2, 2.9550087e+2, -27980.625, -206233.84, 5217.182, 0.0025419202, 0.07381962, -27828.059, 16275.582, 0.0, 10.000865, 9.998498 
2.550258e+2, 3.0550027e+2, 70291.66, -104291.04, 2653.4705, -0.06782855, 0.15228823, 70331.98, 70331.98, 0.000000000039700524, 10.001078, 9.998764 
2.5503033e+2, 3.1549853e+2, 176931.86, 13149.816, 40349.72, 0.09453512, 0.097465366, 186332.89, 186332.89, 0.00000015406697, 10.001522, 9.999357 
2.6497632e+2, 1.2550396e+2, -1810759.8, -1647546.8, -26360.514, 0.00403256, -0.0026374438, -1643394.9, 66673.99, 0.0001649167, 9.998848, 10.001017 
2.649807e+2, 1.355059e+2, -1779163.9, -1655779.5, 42744.355, 0.071142286, 0.15609193, -1642418.4, -30367.537, 0.000073287774, 9.998715, 10.000352 
2.6498348e+2, 1.4550564e+2, -1668678.1, -1578150.8, 1610.6127, 0.028417623, 0.1047898, -1578122.1, -64067.484, 0.000016155976, 9.998914, 10.000113 
2.6498598e+2, 1.5550548e+2, -1505913.4, -1454696.3, 8704.312, 0.03666489, 0.0810158, -1453257.4, -37199.85, 0.00000046134082, 9.999385, 10.00006 
2.6498842e+2, 1.6550593e+2, -1368802.9, -1280259.3, 11689.209, 0.033621605, 0.0941528, -1278742.1, 39310.6, 0.0, 9.999405, 10.000575 
2.649906e+2, 1.7550683e+2, -1326628.3, -1214681.4, -3746.3562, -0.0030456935, 0.12406363, -1214556.1, 5485.721, 0.0, 9.999046, 10.000525 
2.6499304e+2, 1.855069e+2, -1255453.9, -1230219.1, -4156.6787, -0.014861483, 0.12529133, -1229552.1, -107510.44, 0.0, 9.999295, 9.999626 
2.6499578e+2, 1.9550627e+2, -1045535.25, -1076993.5, 2061.1787, 0.0031502927, 0.09545974, -1045400.75, -21350.82, 0.0, 10.000059, 9.999637 
2.6499847e+2, 2.0550592e+2, -903357.2, -936910.25, 15063.866, -0.00053369993, 0.0882678, -897586.6, 28466.662, 0.0, 10.000273, 9.999823 
2.6500106e+2, 2.1550581e+2, -841809.56, -858277.75, 13026.7, -0.026042953, 0.091128714, -834632.8, -6580.1704, 0.0, 10.00003, 9.999806 
2.6500404e+2, 2.2550565e+2, -766855.7, -801292.9, 9978.984, -0.017932542, 0.10906582, -764173.06, -34119.105, 0.0, 10.0, 9.999538 
2.650073e+2, 2.3550546e+2, -649245.5, -696769.4, 696.08466, 0.018685494, 0.1316296, -649235.3, -17178.57, 0.0, 10.000148, 9.999512 
2.6501015e+2, 2.4550472e+2, -550722.8, -646585.94, -7680.247, 0.020922542, 0.13015652, -550111.44, -16046.946, 0.0, 10.000358, 9.9990835 
2.6501262e+2, 2.5550354e+2, -415350.47, -530938.0, -5503.5283, -0.005991668, 0.09957077, -415089.03, 20987.102, 0.0, 10.000616, 9.99908 
2.6501566e+2, 2.6550254e+2, -310776.75, -454969.72, 10278.939, -0.002875478, 0.10415621, -310047.7, 28038.164, 0.0, 10.00077, 9.998855 
2.6501912e+2, 2.7550167e+2, -204078.83, -356743.1, 12194.16, 0.027550485, 0.12817687, -203110.94, 36983.176, 0.0, 10.000847, 9.998818 
2.6502222e+2, 2.855001e+2, -108802.12, -314111.44, 1258.2916, 0.04156791, 0.11917288, -108794.41, 33315.61, 0.0, 10.001062, 9.998335 
2.6502496e+2, 2.9549816e+2, 31235.605, -196938.02, 3151.477, 0.032723535, 0.08269879, 31279.125, 75410.19, 0.0, 10.001355, 9.998325 
2.6502728e+2, 3.0549747e+2, 116082.65, -124487.55, 144.36487, -0.05460993, 0.17924537, 116082.734, 116082.734, 0.0, 10.001575, 9.998385 
2.6503158e+2, 3.1549528e+2, 211790.23, 26982.158, 5260.8545, 0.05394249, 0.117922865, 211939.86, 211939.86, 0.000000038019415, 10.00178, 9.999327 
2.7497563e+2, 1.2550204e+2, -1814178.1, -1654928.8, -42021.316, 0.046953198, 0.077201836, -1644520.8, 65569.14, 0.00012966055, 9.998851, 10.000964 
2.7497888e+2, 1.3550311e+2, -1776875.3, -1649669.5, 38492.0, 0.016350206, 0.14659981, -1638928.9, -26849.14, 0.00005392466, 9.99871, 10.000397 
2.7498165e+2, 1.4550287e+2, -1646607.0, -1531011.6, 18619.574, -0.046972938, 0.07863018, -1528086.5, -14003.948, 0.0000098627, 9.998908, 10.00044 
2.7498513e+2, 1.5550348e+2, -1485130.9, -1412195.9, 25475.879, 0.010008034, 0.09940267, -1404178.6, 11898.133, 0.00000011248763, 9.999387, 10.000351 
2.7498797e+2, 1.655039e+2, -1395516.9, -1336302.8, -2646.2446, 0.043805607, 0.11555699, -1336184.8, -18112.45, 0.0, 9.999408, 10.000189 
2.7499005e+2, 1.7550412e+2, -1350998.6, -1265290.6, -15196.51, 0.03656937, 0.11354233, -1262676.0, -42606.56, 0.0, 9.999046, 10.000178 
2.749926e+2, 1.8550403e+2, -1243199.4, -1203891.1, 24020.273, 0.007359169, 0.106573485, -1192508.9, -70438.195, 0.0, 9.999291, 9.999808 
2.749955e+2, 1.9550371e+2, -1034023.4, -1052789.0, 29392.986, -0.032538664, 0.089761645, -1012551.9, 11523.14, 0.0, 10.000058, 9.999804 
2.7499846e+2, 2.0550369e+2, -907095.94, -943742.1, 5590.396, -0.030616906, 0.11035445, -906262.06, 19813.043, 0.0, 10.000269, 9.999777 
2.750014e+2, 2.1550392e+2, -846272.3, -866512.4, 5309.666, 0.002857594, 0.15210237, -844964.0, -16892.146, 0.0, 10.000025, 9.999752 
2.750041e+2, 2.2550339e+2, -784653.1, -836611.75, 15248.037, -0.012408081, 0.14813367, -780508.94, -50432.184, 0.0, 9.999993, 9.999299 
2.7500662e+2, 2.3550224e+2, -664810.1, -728612.0, 7142.337, -0.065584816, 0.098811425, -664020.4, -31932.049, 0.0, 10.000146, 9.999294 
2.7501008e+2, 2.4550137e+2, -548221.2, -641348.56, 1471.0449, -0.023239, 0.09320123, -548198.0, -14100.739, 0.0, 10.000358, 9.99912 
2.7501428e+2, 2.5550073e+2, -413814.66, -526857.94, 4208.5703, 0.096622735, 0.11439238, -413658.2, 22445.85, 0.0, 10.000612, 9.99911 
2.7501717e+2, 2.6549986e+2, -306678.66, -444737.2, 12450.804, 0.07160419, 0.12436599, -305564.78, 32548.02, 0.0, 10.000763, 9.998928 
2.75019e+2, 2.7549875e+2, -199597.0, -345807.25, 16518.37, -0.070816174, 0.11613382, -197754.05, 42369.086, 0.0, 10.000841, 9.998897 
2.7502245e+2, 2.854973e+2, -113928.375, -324664.63, 12381.24, -0.039467465, 0.11891156, -113203.445, 28934.352, 0.0, 10.001061, 9.998263 
2.7502725e+2, 2.9549572e+2, 23866.426, -212974.9, 14384.872, 0.12694909, 0.12948868, 24736.91, 68892.17, 0.0, 10.001357, 9.998216 
2.7502948e+2, 3.0549464e+2, 65782.86, -229101.66, 6597.31, 0.008302299, 0.22751941, 65930.38, 65930.38, 0.0, 10.001576, 9.997666 
2.7503207e+2, 3.154914e+2, 189716.52, -16974.746, 8041.386, -0.07567648, 0.13256644, 190028.89, 190028.89, 0.00000000643165, 10.001771, 9.999027 
2.8497413e+2, 1.2549989e+2, -1921344.5, -1719004.6, -30513.38, 0.047695715, 0.12452221, -1714503.3, -4391.5605, 0.00010364884, 9.998171, 10.000853 
2.849776e+2, 1.3550042e+2, -1771400.6, -1647452.4, 52813.56, 0.015149796, 0.1374817, -1628001.4, -15894.31, 0.000040612387, 9.998749, 10.000393 
2.8498057e+2, 1.4550014e+2, -1625255.0, -1510094.1, 22677.49, -0.0535901, 0.061989166, -1505789.5, 8320.348, 0.0000062724685, 9.99901, 10.000534 
2.849842e+2, 1.5550117e+2, -1542060.8, -1430026.8, 10306.243, 0.0008052071, 0.11576175, -1429086.6, -12987.178, 0.000000028346124, 9.998956, 10.000437 
2.8498724e+2, 1.6550156e+2, -1432829.1, -1373155.3, -19024.002, 0.040824797, 0.13417594, -1367606.4, -49510.99, 0.0, 9.999234, 10.000019 
2.8498957e+2, 1.7550139e+2, -1250107.3, -1234089.9, -17023.115, 0.045093544, 0.11061166, -1223285.6, -3188.9036, 0.0, 9.999816, 10.000021 
2.8499222e+2, 1.855012e+2, -1172002.6, -1163615.9, 23647.414, 0.019997241, 0.099374086, -1143792.9, -21694.176, 0.0, 9.999756, 9.999861 
2.849952e+2, 1.9550104e+2, -1161253.4, -1109078.8, 18629.342, -0.022278795, 0.09279739, -1103109.8, -79008.87, 0.0, 9.999163, 9.999848 
2.8499833e+2, 2.0550103e+2, -1038519.94, -1010139.5, 385.99826, -0.026251685, 0.11291152, -1010134.25, -84033.49, 0.0, 9.999379, 9.99975 
2.850015e+2, 2.1550114e+2, -813712.56, -854120.4, -274.63492, -0.001944729, 0.14525849, -813710.7, 14387.878, 0.0, 10.000264, 9.999722 
2.8500432e+2, 2.255004e+2, -714942.4, -823355.5, 1831.2463, -0.01783729, 0.13194908, -714911.44, 15194.176, 0.0, 10.000559, 9.999118 
2.850069e+2, 2.35499e+2, -644756.56, -738333.1, -2129.0415, -0.06440092, 0.07316085, -644708.2, -12587.972, 0.0, 10.000366, 9.999122 
2.8501046e+2, 2.4549812e+2, -538158.5, -635551.2, 4060.1616, -0.024933454, 0.07582813, -537989.56, -3860.2505, 0.0, 10.0004225, 9.999128 
2.850148e+2, 2.5549775e+2, -402309.16, -520381.28, 3468.5322, 0.08334048, 0.12107025, -402207.34, 33926.457, 0.0, 10.000688, 9.999118 
2.8501785e+2, 2.654969e+2, -297426.16, -443160.53, 557.1949, 0.05770705, 0.13883768, -297424.0, 40718.035, 0.0, 10.00084, 9.998901 
2.850198e+2, 2.754957e+2, -195170.27, -345951.63, -3708.6787, -0.07445566, 0.12321444, -195079.1, 45074.4, 0.0, 10.000881, 9.998876 
2.850235e+2, 2.8549424e+2, -111337.45, -326268.94, 1586.2333, -0.04418943, 0.12107054, -111325.75, 30842.908, 0.0, 10.001092, 9.998238 
2.8502855e+2, 2.9549262e+2, 38455.02, -208720.13, 5718.2944, 0.111363105, 0.13061593, 38587.242, 82773.28, 0.0, 10.0014715, 9.998188 
2.8503087e+2, 3.0549124e+2, 58789.156, -247308.73, 13872.643, -0.009451688, 0.21388443, 59416.59, 59416.59, 0.0, 10.001593, 9.997532 
2.8503367e+2, 3.154882e+2, 153463.7, -14449.538, 49653.293, -0.07823072, 0.14873092, 167047.66, 167047.66, 0.00000000043435586, 10.001434, 9.999208 
2.949718e+2, 1.2549756e+2, -1933616.9, -1745006.0, -18333.068, -0.0035600374, 0.13838482, -1743240.6, -33106.39, 0.000085497144, 9.998173, 10.000673 
2.9497683e+2, 1.3549778e+2, -1775779.6, -1656169.9, 74304.69, 0.06415566, 0.12731183, -1620592.4, -8459.668, 0.000032281903, 9.998748, 10.000334 
2.9498017e+2, 1.4549743e+2, -1635729.5, -1531705.3, 20486.986, 0.005875519, 0.05469243, -1527815.9, -13679.491, 0.0000046245973, 9.999009, 10.000386 
2.9498318e+2, 1.5549856e+2, -1550994.6, -1448304.6, 9426.356, 0.00399657, 0.13238433, -1447446.5, -31321.176, 0.00000001715619, 9.998956, 10.000311 
2.9498628e+2, 1.6549894e+2, -1429800.3, -1366541.8, 1891.0669, 0.018867545, 0.15238157, -1366485.3, -48363.77, 0.0, 9.999233, 10.000066 
2.9498914e+2, 1.7549868e+2, -1247992.9, -1228917.5, 3235.5186, 0.019147165, 0.11422192, -1228383.6, -8259.848, 0.0, 9.999812, 10.000057 
2.9499197e+2, 1.8549846e+2, -1178916.0, -1176865.5, 978.8116, 0.019998278, 0.102196015, -1176473.4, -54347.445, 0.0, 9.999751, 9.999772 
2.9499492e+2, 1.9549827e+2, -1167101.1, -1120729.0, -605.54205, 0.03196618, 0.104186, -1120721.1, -96593.414, 0.0, 9.999161, 9.99977 
2.9499805e+2, 2.0549794e+2, -1039909.75, -1011772.4, 33464.363, 0.009840284, 0.095860906, -989539.6, -63409.5, 0.0, 9.999373, 9.999742 
2.9500133e+2, 2.1549746e+2, -815278.06, -856495.3, 31806.78, -0.043566033, 0.07022125, -797987.0, 30146.02, 0.0, 10.000259, 9.999708 
2.9500467e+2, 2.2549671e+2, -723968.94, -840724.7, -6057.5933, -0.037793312, 0.05987766, -723655.5, 6485.2905, 0.0, 10.000554, 9.9990015 
2.950081e+2, 2.3549569e+2, -653365.8, -755277.44, -8052.102, 0.018757848, 0.054384544, -652733.5, -20581.025, 0.0, 10.000362, 9.999008 
2.9501125e+2, 2.4549498e+2, -540111.5, -638619.4, 13628.925, 0.012412138, 0.07806126, -538260.7, -4100.055, 0.0, 10.000418, 9.999109 
2.950142e+2, 2.5549453e+2, -404352.75, -523821.4, 13814.665, -0.04760176, 0.11862574, -402776.1, 33389.492, 0.0, 10.000684, 9.999096 
2.9501763e+2, 2.6549372e+2, -307038.06, -462449.4, 1600.5698, -0.0458451, 0.14599213, -307021.6, 31152.322, 0.0, 10.000837, 9.99877 
2.950215e+2, 2.7549258e+2, -203982.02, -363944.47, -1359.7919, 0.010039024, 0.14945813, -203970.45, 36214.836, 0.0, 10.00088, 9.998754 
2.9502523e+2, 2.8549084e+2, -110112.37, -323368.28, 14716.593, 0.020568563, 0.12722863, -109101.58, 33100.957, 0.0, 10.001091, 9.998258 
2.9502872e+2, 2.9548874e+2, 40681.258, -201929.47, 20152.924, -0.0165132, 0.08644958, 42343.906, 86567.36, 0.0, 10.001463, 9.9982395 
2.950315e+2, 3.0548733e+2, 88527.09, -183321.5, 8090.8433, -0.109101735, 0.13881446, 88767.68, 88767.68, 0.0, 10.001584, 9.997976 
2.9503626e+2, 3.1548548e+2, 201286.92, 83355.22, 39367.566, 0.03555022, 0.1486823, 213220.83, 213220.83, 0.0, 10.001441, 9.999877 
3.0496988e+2, 1.2549415e+2, -1906305.4, -1725640.9, -53644.33, -0.021541292, 0.106223896, -1710913.0, -745.3776, 0.000073591786, 9.998338, 10.000725 
3.0497572e+2, 1.3549498e+2, -1761512.8, -1634822.8, 61256.457, 0.07303573, 0.14236015, -1610048.9, 2111.2085, 0.000027638554, 9.998783, 10.000464 
3.0497935e+2, 1.454947e+2, -1642211.3, -1545106.8, -583.9651, 0.022373836, 0.076609604, -1545103.1, -30940.121, 0.000004191702, 9.999011, 10.000293 
3.0498222e+2, 1.5549545e+2, -1546660.1, -1456009.3, -10329.228, 0.0077611404, 0.123336405, -1454847.1, -38691.184, 0.000000032166714, 9.999028, 10.000223 
3.0498537e+2, 1.6549574e+2, -1454712.9, -1375392.0, -5114.5635, 0.015331163, 0.13760231, -1375063.6, -56910.58, 0.0, 9.99905, 10.0000925 
3.0498847e+2, 1.7549565e+2, -1353110.6, -1277220.0, -7010.65, 0.008669125, 0.11572198, -1276577.9, -56424.258, 0.0, 9.999081, 10.000079 
3.0499148e+2, 1.854955e+2, -1228121.4, -1205085.1, -17105.043, 0.012306699, 0.11045472, -1195981.6, -73826.6, 0.0, 9.9994335, 9.999732 
3.0499455e+2, 1.9549526e+2, -1037714.44, -1061709.1, -15592.443, 0.03592721, 0.11172354, -1030037.9, -5880.6636, 0.0, 10.000066, 9.999738 
3.049979e+2, 2.054948e+2, -932284.3, -961625.3, 28109.0, 0.020220796, 0.093439594, -915247.75, 10913.115, 0.0, 10.000121, 9.999725 
3.0500144e+2, 2.1549417e+2, -898042.56, -898231.9, 25025.475, -0.032496322, 0.051914133, -873111.56, -44946.01, 0.0, 9.9997, 9.999691 
3.0500498e+2, 2.2549355e+2, -820243.2, -884553.44, -5535.582, -0.028029736, 0.056316316, -819770.2, -89598.07, 0.0, 9.999881, 9.999025 
3.0500862e+2, 2.3549294e+2, -623011.9, -738019.9, 1505.3411, 0.02515377, 0.090301365, -622992.2, 9187.978, 0.0, 10.00056, 9.999031 
3.0501178e+2, 2.4549222e+2, -493236.44, -620386.56, 20603.705, 0.0070371204, 0.11194962, -489981.1, 44207.215, 0.0, 10.000759, 9.99907 
3.0501458e+2, 2.5549138e+2, -425145.0, -538925.94, 19133.654, -0.07055483, 0.11618453, -422013.63, 14182.807, 0.0, 10.000563, 9.999051 
3.0501828e+2, 2.6549032e+2, -321300.34, -491168.4, 16547.564, -0.06485865, 0.1346841, -319703.38, 18503.549, 0.0, 10.000834, 9.998573 
3.0502275e+2, 2.7548912e+2, -127034.195, -347361.2, 6298.1494, 0.01192949, 0.15273316, -126854.305, 113365.39, 0.0, 10.001499, 9.998568 
3.0502653e+2, 2.854874e+2, -37208.29, -280692.47, 8451.035, 0.017532244, 0.13690929, -36915.316, 105321.39, 0.0, 10.00156, 9.998325 
3.0502972e+2, 2.9548538e+2, -7296.6084, -217460.78, 16129.794, -0.04231858, 0.09650592, -6065.8774, 38190.16, 0.0, 10.001101, 9.998307 
3.050327e+2, 3.0548358e+2, 25538.303, -204131.3, -1352.1454, -0.12168567, 0.10150148, 25546.264, 25546.264, 0.0, 10.001109, 9.998062 
3.0503806e+2, 3.1548208e+2, 222592.06, 115098.24, -5896.839, 0.06859653, 0.1405608, 222914.58, 222914.58, 0.0, 10.001495, 10.00007 
3.1496835e+2, 1.2548968e+2, -1887304.6, -1686088.1, -47721.81, -0.008818666, 0.0288025, -1675343.8, 34867.88, 0.00006650563, 9.998337, 10.000998 
3.149741e+2, 1.3549206e+2, -1736706.8, -1585505.5, 78826.94, 0.03203511, 0.18556215, -1551885.5, 60303.37, 0.000025576577, 9.998793, 10.000799 
3.14978e+2, 1.4549203e+2, -1644852.1, -1552136.9, -625.4491, -0.015434645, 0.13071427, -1552132.6, -37943.39, 0.000004447986, 9.999017, 10.000242 
3.1498125e+2, 1.554918e+2, -1551284.3, -1463699.1, -9255.028, 0.009848583, 0.0867279, -1462731.9, -46540.47, 0.00000006594377, 9.999021, 10.0001745 
3.1498456e+2, 1.6549194e+2, -1456367.0, -1377067.5, -4437.1553, 0.028720373, 0.08868707, -1376820.0, -58630.055, 0.0, 9.999042, 10.000085 
3.1498757e+2, 1.7549236e+2, -1353373.6, -1277829.4, -4321.9546, 0.009329724, 0.11634437, -1277582.9, -57396.984, 0.0, 9.999082, 10.000074 
3.1499073e+2, 1.8549234e+2, -1227336.6, -1203610.0, 5997.375, -0.009367143, 0.1264508, -1202180.3, -79994.18, 0.0, 9.9994335, 9.9997425 
3.1499413e+2, 1.95492e+2, -1037489.7, -1060604.1, 6790.4937, -0.013362433, 0.1142717, -1035642.4, -11452.818, 0.0, 10.000062, 9.999748 
3.1499782e+2, 2.0549162e+2, -935144.4, -965557.25, 11855.056, 0.0017991391, 0.104692735, -931069.25, -4876.2603, 0.0, 10.0001135, 9.999702 
3.1500173e+2, 2.1549122e+2, -899824.75, -900789.8, 11837.758, 0.028431443, 0.08983524, -888459.7, -60263.38, 0.0, 9.999695, 9.999677 
3.1500524e+2, 2.2549094e+2, -809457.06, -861145.1, 19790.674, 0.008346363, 0.12084958, -802749.9, -72550.1, 0.0, 9.999876, 9.999188 
3.1500846e+2, 2.3549077e+2, -612607.5, -715955.8, 26087.97, -0.047675136, 0.1803965, -606395.56, 25807.744, 0.0, 10.000557, 9.999184 
3.1501207e+2, 2.4548982e+2, -497871.25, -629196.25, 12421.493, -0.04406394, 0.17664057, -496706.7, 37505.926, 0.0, 10.000756, 9.999011 
3.1501594e+2, 2.5548825e+2, -429922.97, -548088.2, 13546.455, 0.008477614, 0.113640666, -428389.9, 7836.518, 0.0, 10.00056, 9.998989 
3.1501976e+2, 2.6548678e+2, -340201.5, -529931.9, 41018.26, -0.0040927664, 0.105841495, -331713.4, 6527.679, 0.0, 10.000833, 9.998309 
3.150234e+2, 2.7548543e+2, -145512.48, -383929.72, 30203.643, -0.07101824, 0.13268279, -141745.69, 98511.07, 0.0, 10.001492, 9.998321 
3.150274e+2, 2.8548396e+2, -31355.146, -266123.16, -9590.074, -0.054344133, 0.14921147, -30964.05, 111307.305, 0.0, 10.00155, 9.99843 
3.1503153e+2, 2.9548252e+2, -173.45767, -203930.08, 979.981, 0.026041646, 0.15895571, -168.7445, 44115.266, 0.0, 10.001106, 9.998397 
3.1503448e+2, 3.0547997e+2, 7579.7544, -243675.14, 12511.458, -0.054418243, 0.10088372, 8201.236, 8201.236, 0.0, 10.001118, 9.9977865 
3.15039e+2, 3.1547797e+2, 203040.52, 76661.71, 2832.7156, 0.012414514, 0.111839324, 203103.98, 203103.98, 0.0, 10.001485, 9.99981 
3.2496658e+2, 1.2548602e+2, -1961404.3, -1712670.4, -52159.785, 0.008155599, 0.05043161, -1702175.3, 8073.1904, 0.00006287029, 9.997791, 10.001077 
3.2497242e+2, 1.3548824e+2, -1815497.5, -1605079.8, 69580.56, 0.017312834, 0.17397188, -1584152.4, 28074.215, 0.000025189593, 9.998172, 10.000963 
3.2497662e+2, 1.4548838e+2, -1700391.1, -1568696.1, -18385.938, -0.032607537, 0.12350163, -1566177.4, -51952.266, 0.0000050024137, 9.998593, 10.000332 
3.249802e+2, 1.5548849e+2, -1551842.4, -1454136.5, -18452.664, 0.0020233798, 0.10279594, -1450767.8, -34543.54, 0.000000115129794, 9.998974, 10.000262 
3.2498372e+2, 1.654886e+2, -1429344.6, -1371401.0, -11197.193, 0.027080594, 0.10102647, -1369312.5, -51089.44, 0.0, 9.99926, 10.000018 
3.2498685e+2, 1.7548871e+2, -1297990.8, -1257378.0, -16511.861, 0.00860641, 0.10491313, -1251512.1, -31290.256, 0.0, 9.99949, 10.000017 
3.249902e+2, 1.8548866e+2, -1206040.9, -1188478.1, -653.7188, -0.01111306, 0.112435594, -1188453.8, -66231.5, 0.0, 9.999559, 9.999785 
3.2499388e+2, 1.9548853e+2, -1116964.5, -1095266.6, 561.796, -0.019991683, 0.11626614, -1095252.1, -71028.055, 0.0, 9.999499, 9.999782 
3.249977e+2, 2.0548831e+2, -1007960.75, -1013165.3, -7486.789, -0.0020754768, 0.12754011, -1002636.9, -76410.47, 0.0, 9.999665, 9.999592 
3.2500166e+2, 2.1548805e+2, -859724.5, -891760.1, -14284.896, 0.033508565, 0.13773745, -854280.06, -26050.797, 0.0, 10.000015, 9.999583 
3.2500532e+2, 2.2548765e+2, -756271.9, -823732.1, 3723.1885, 0.013121575, 0.15580964, -756067.0, -25833.492, 0.0, 10.000192, 9.999293 
3.2500878e+2, 2.3548713e+2, -653833.75, -724572.4, 4501.579, -0.051108968, 0.17131501, -653548.44, -21309.293, 0.0, 10.000226, 9.999285 
3.2501268e+2, 2.4548617e+2, -536836.56, -648971.0, -15891.12, -0.040235892, 0.16188702, -534628.06, -380.0507, 0.0, 10.000493, 9.999002 
3.2501695e+2, 2.5548485e+2, -373355.06, -522038.63, -12475.476, 0.031471618, 0.12544148, -372315.56, 63943.926, 0.0, 10.000954, 9.998979 
3.2502085e+2, 2.6548335e+2, -314312.78, -518758.1, 29530.38, 0.013651943, 0.11332889, -310132.84, 28141.758, 0.0, 10.001015, 9.998298 
3.2502446e+2, 2.7548167e+2, -254601.23, -437564.9, 36749.44, -0.07710977, 0.110069, -247495.81, -7202.7188, 0.0, 10.000745, 9.998312 
3.250286e+2, 2.854803e+2, -106985.13, -300510.53, 2060.6086, -0.060152423, 0.13374476, -106963.195, 35343.695, 0.0, 10.001021, 9.998447 
3.250331e+2, 2.9547924e+2, 91383.91, -159531.06, 3951.9783, 0.04066241, 0.18310636, 91446.13, 135761.81, 0.0, 10.001735, 9.9984 
3.2503605e+2, 3.0547634e+2, 103925.0, -215746.38, 12743.345, -0.04816579, 0.09471884, 104432.195, 104432.195, 0.0, 10.001861, 9.997622 
3.2504016e+2, 3.154743e+2, 182301.33, 30334.512, 3006.5781, -0.017819734, 0.122297354, 182360.8, 182360.8, 0.0, 10.001498, 9.999486 
3.3496445e+2, 1.2548326e+2, -1969724.3, -1732038.8, -49964.13, 0.012339288, 0.17400986, -1721962.9, -11685.731, 0.000061273975, 9.997801, 10.000939 
3.349707e+2, 1.3548355e+2, -1817942.8, -1607756.0, 85838.58, 0.029686127, 0.10677398, -1577155.4, 35117.8, 0.000025556885, 9.998162, 10.00095 
3.3497524e+2, 1.4548378e+2, -1685483.6, -1535916.6, -3245.5608, -0.028537726, 0.054376107, -1535846.3, -21575.545, 0.0000055599335, 9.998585, 10.000562 
3.349789e+2, 1.5548554e+2, -1535573.1, -1421034.8, -3335.0227, -0.024868088, 0.17363478, -1420937.8, -4683.6665, 0.00000016881297, 9.998978, 10.000487 
3.349827e+2, 1.6548574e+2, -1437392.0, -1389572.0, -3323.8616, -0.0005664537, 0.1777727, -1389342.1, -71090.234, 0.0, 9.999266, 9.999892 
3.349863e+2, 1.7548469e+2, -1306500.1, -1274536.0, -7761.947, 0.0052493024, 0.07949705, -1272750.9, -52489.43, 0.0, 9.999487, 9.999902 
3.3498994e+2, 1.8548444e+2, -1202276.5, -1178811.0, -3280.74, 0.00508564, 0.0671324, -1178360.9, -56097.027, 0.0, 9.999552, 9.999855 
3.349937e+2, 1.9548483e+2, -1113868.1, -1088408.4, -287.25565, 0.012860848, 0.11767258, -1088405.3, -64144.484, 0.0, 9.999497, 9.99983 
3.3499745e+2, 2.0548488e+2, -1022477.25, -1041935.3, 5406.4487, 0.004318882, 0.16301723, -1021075.94, -94814.83, 0.0, 9.99966, 9.999397 
3.350011e+2, 2.1548463e+2, -872670.25, -918202.75, -946.7538, -0.020668607, 0.19506451, -872650.6, -44386.09, 0.0, 10.000012, 9.999404 
3.3500522e+2, 2.2548366e+2, -753498.06, -816878.75, 4462.574, -0.017423308, 0.16087322, -753185.44, -22911.783, 0.0, 10.000187, 9.999343 
3.3500963e+2, 2.3548207e+2, -650436.7, -716905.9, 7156.124, 0.011750749, 0.063244976, -649675.0, -17387.453, 0.0, 10.000223, 9.999339 
3.3501378e+2, 2.454813e+2, -534978.2, -644307.7, 1116.6104, 0.015262018, 0.06819041, -534966.8, -672.27185, 0.0, 10.00049, 9.999036 
3.350175e+2, 2.554812e+2, -371309.9, -516521.44, 4272.5347, -0.004102296, 0.15165588, -371184.3, 65111.33, 0.0, 10.000949, 9.999019 
3.350216e+2, 2.6548e+2, -298649.72, -484878.97, 18506.205, -0.013454855, 0.1568111, -296828.5, 41479.09, 0.0, 10.001009, 9.998534 
3.3502585e+2, 2.754779e+2, -237909.03, -403069.63, 28658.604, -0.012530487, 0.0839835, -233077.55, 7251.3184, 0.0, 10.000747, 9.9985485 
3.3503014e+2, 2.854764e+2, -112000.27, -311032.56, 28437.906, -0.0060728765, 0.090515055, -108016.766, 34326.586, 0.0, 10.001021, 9.998376 
3.3503443e+2, 2.9547557e+2, 84430.164, -171629.27, 29977.158, -0.00165412, 0.16995966, 87892.8, 132243.72, 0.0, 10.001724, 9.998322 
3.3503735e+2, 3.054726e+2, 97367.95, -226912.58, -2116.8376, -0.10482529, 0.08288648, 97381.77, 97381.77, 0.0, 10.00185, 9.997549 
3.3504152e+2, 3.1547105e+2, 157416.36, -21826.535, -13849.094, -0.03295997, 0.16264434, 158480.1, 158480.1, 0.0, 10.001501, 9.9991255 
3.449625e+2, 1.2547939e+2, -1907596.9, -1713384.3, -44270.02, 0.012052261, 0.17757274, -1703769.0, 6545.465, 0.000060228966, 9.998276, 10.000837 
3.4496897e+2, 1.3547957e+2, -1786957.1, -1595085.5, 102253.54, 0.029609108, 0.10127694, -1550809.1, 61502.6, 0.000025763518, 9.998381, 10.000932 
3.4497386e+2, 1.4547983e+2, -1689482.8, -1542041.9, 6947.339, -0.02251364, 0.05475835, -1541715.3, -27406.021, 0.000005876301, 9.998575, 10.000523 
3.4497774e+2, 1.5548155e+2, -1567844.0, -1439712.1, -16873.047, -0.029179975, 0.17436765, -1437527.5, -21234.08, 0.0000002059256, 9.998769, 10.000459 
3.4498173e+2, 1.6548184e+2, -1478110.3, -1398666.5, -19532.205, -0.0069468934, 0.18308587, -1394124.0, -75833.336, 0.0, 9.99894, 9.999986 
3.4498554e+2, 1.7548099e+2, -1353071.1, -1286895.3, -8750.187, 0.000010589617, 0.09547877, -1285757.8, -65459.53, 0.0, 9.999123, 9.999992 
3.449894e+2, 1.8548076e+2, -1232553.0, -1194517.9, -2442.534, 0.006080417, 0.081959575, -1194361.8, -72061.39, 0.0, 9.999348, 9.9998455 
3.4499335e+2, 1.9548105e+2, -1098734.1, -1081416.1, -5556.2007, 0.025150048, 0.12200844, -1079786.8, -55488.875, 0.0, 9.999604, 9.999825 
3.449973e+2, 2.0548095e+2, -991437.3, -1031488.7, 13752.807, 0.0118394215, 0.15418078, -987169.6, -60870.023, 0.0, 9.999892, 9.999356 
3.450011e+2, 2.154805e+2, -846900.25, -910236.1, 17223.55, -0.033052854, 0.17089987, -842519.5, -14214.823, 0.0, 10.000208, 9.999364 
3.4500536e+2, 2.2547951e+2, -738225.2, -811269.8, 13085.191, -0.02354562, 0.13687342, -735951.9, -5638.0044, 0.0, 10.0002985, 9.999328 
3.4501007e+2, 2.3547803e+2, -654645.7, -720558.5, 10250.434, 0.033416577, 0.05250092, -653088.4, -20761.738, 0.0, 10.000202, 9.999324 
3.4501433e+2, 2.4547724e+2, -562584.25, -662201.7, 14331.165, 0.03326927, 0.060163654, -560563.5, -26229.695, 0.0, 10.0003195, 9.998995 
3.4501818e+2, 2.5547707e+2, -422161.66, -544558.2, 10507.849, -0.015313613, 0.13720538, -421266.1, 15070.273, 0.0, 10.000614, 9.998987 
3.4502244e+2, 2.65476e+2, -301267.56, -471745.16, 7187.7417, -0.02635565, 0.14720717, -300965.03, 37382.215, 0.0, 10.00093, 9.998662 
3.450269e+2, 2.754741e+2, -156413.36, -351151.1, 8056.832, -0.00500806, 0.0885583, -156080.6, 84284.87, 0.0, 10.001251, 9.998663 
3.4503138e+2, 2.8547266e+2, -78479.28, -302268.97, 12589.867, -0.0016179383, 0.09881919, -77773.234, 64606.4, 0.0, 10.001283, 9.99831 
3.4503564e+2, 2.9547176e+2, -11146.062, -223942.38, 12948.083, -0.01832796, 0.17314456, -10361.102, 34028.04, 0.0, 10.001093, 9.998266 
3.450389e+2, 3.0546883e+2, 46957.47, -215771.27, -6117.8516, -0.11073841, 0.07764084, 47099.848, 47099.848, 0.0, 10.001351, 9.997865 
3.4504345e+2, 3.1546777e+2, 216349.16, 1879.1624, 1752.4867, -0.011207414, 0.17644767, 216363.47, 216363.47, 0.0, 10.001927, 9.999083 
3.5496068e+2, 1.2547438e+2, -1912471.5, -1722797.9, -51202.387, 0.004283864, 0.058693383, -1709858.5, 502.21246, 0.00005843651, 9.998272, 10.000774 
3.5496715e+2, 1.3547634e+2, -1786647.9, -1596231.0, 108961.61, 0.005218319, 0.15938443, -1546742.3, 65599.82, 0.000025162195, 9.998387, 10.000921 
3.5497245e+2, 1.4547658e+2, -1710451.0, -1587617.8, 14849.534, -0.02808615, 0.12720367, -1585848.1, -71507.555, 0.0000057861466, 9.998583, 10.000207 
3.5497668e+2, 1.5547654e+2, -1588668.5, -1481938.5, -9060.004, -0.01021175, 0.1036523, -1481174.9, -64832.56, 0.00000020730299, 9.998764, 10.000172 
3.5498083e+2, 1.654769e+2, -1456900.1, -1353511.6, -13358.292, 0.0077060973, 0.116482876, -1351813.6, -33474.188, 0.0, 9.998936, 10.000298 
3.5498455e+2, 1.754776e+2, -1332375.9, -1244401.5, -907.1863, -0.013140631, 0.15330791, -1244392.1, -24059.72, 0.0, 9.999125, 10.000283 
3.5498852e+2, 1.8547766e+2, -1238476.6, -1206773.8, 6948.643, -0.015632669, 0.15817039, -1205317.6, -82986.164, 0.0, 9.999347, 9.999762 
3.5499287e+2, 1.9547716e+2, -1103426.0, -1091243.1, 4831.032, 0.014151322, 0.12790401, -1089559.9, -65224.047, 0.0, 9.999603, 9.999759 
3.5499722e+2, 2.054765e+2, -984186.0, -1015046.56, 25227.172, 0.017914936, 0.09983802, -970044.3, -43702.293, 0.0, 9.9998865, 9.999473 
3.550016e+2, 2.1547565e+2, -840431.7, -895615.25, 29183.396, -0.0064690183, 0.06527608, -827861.56, 488.15634, 0.0, 10.000202, 9.999468 
3.5500583e+2, 2.2547518e+2, -744977.7, -823849.06, 8927.685, -0.00857574, 0.0838167, -743979.75, -13625.406, 0.0, 10.000293, 9.999244 
3.5501006e+2, 2.35475e+2, -661060.1, -733534.75, 7736.878, 0.011104653, 0.13875385, -660243.4, -27886.943, 0.0, 10.0002, 9.999235 
3.5501444e+2, 2.4547404e+2, -570855.3, -678666.06, 24749.96, 0.011285596, 0.13740563, -565445.0, -31078.979, 0.0, 10.000317, 9.998883 
3.550189e+2, 2.5547242e+2, -429319.88, -558491.94, 21942.17, -0.005680984, 0.081962205, -425694.38, 10687.374, 0.0, 10.00061, 9.998894 
3.5502332e+2, 2.6547122e+2, -300377.88, -468783.06, 19130.484, -0.029200675, 0.0842176, -298232.03, 40161.63, 0.0, 10.000925, 9.998685 
3.5502765e+2, 2.7547035e+2, -156664.48, -350412.63, 20145.188, -0.057535753, 0.123726465, -154592.03, 85810.81, 0.0, 10.0012455, 9.998671 
3.5503218e+2, 2.854691e+2, -84335.12, -313017.34, 4263.755, -0.04915392, 0.15854701, -84255.65, 58159.992, 0.0, 10.001277, 9.9982395 
3.550368e+2, 2.9546773e+2, -13719.792, -228585.02, 7861.6357, -0.014669768, 0.1923082, -13432.529, 30997.799, 0.0, 10.00109, 9.998236 
3.550406e+2, 3.0546495e+2, 94582.34, -116348.2, 15492.163, -0.07245038, 0.078782044, 95714.125, 95714.125, 0.0, 10.0013485, 9.998549 
3.5504588e+2, 3.154645e+2, 235182.69, 42818.203, 18893.36, 0.035381418, 0.16828592, 237020.77, 237020.77, 0.0, 10.00192, 9.999367 
3.649588e+2, 1.2546967e+2, -1991588.6, -1768179.5, -93176.93, 0.012776719, 0.029844677, -1734419.8, -24013.77, 0.000055122826, 9.997762, 10.000708 
3.649654e+2, 1.3547194e+2, -1779557.0, -1592040.3, 77694.5, -0.0039413553, 0.16217192, -1564032.1, 48352.8, 0.000023501116, 9.998432, 10.000929 
3.6497107e+2, 1.4547232e+2, -1698595.6, -1573698.9, -15062.933, -0.024791721, 0.13813178, -1571908.0, -57525.66, 0.00000526637, 9.998629, 10.00028 
3.6497533e+2, 1.55472e+2, -1642513.1, -1499229.0, -10920.525, -0.0016442664, 0.07843145, -1498401.5, -82015.375, 0.00000017249042, 9.998356, 10.00025 
3.6497965e+2, 1.6547243e+2, -1508198.4, -1372761.6, 5021.526, 0.015113426, 0.092150636, -1372575.8, -54193.176, 0.0, 9.99856, 10.000346 
3.6498368e+2, 1.7547351e+2, -1323622.1, -1234894.6, -3774.722, -0.014395622, 0.161221, -1234734.4, -14361.716, 0.0, 9.999163, 10.000329 
3.6498788e+2, 1.8547365e+2, -1217440.9, -1201376.0, -8780.058, -0.021128096, 0.17577474, -1197508.5, -75137.26, 0.0, 9.999511, 9.999721 
3.649924e+2, 1.9547302e+2, -1097196.9, -1092269.3, -9119.522, 0.0060187955, 0.13634592, -1085286.6, -60909.617, 0.0, 9.999661, 9.999723 
3.6499703e+2, 2.0547225e+2, -1006564.7, -1020656.0, 8344.019, 0.02073143, 0.09773689, -1002689.56, -76305.68, 0.0, 9.999709, 9.99952 
3.6500174e+2, 2.1547134e+2, -915794.25, -926578.0, 6554.8276, 0.018693857, 0.051875424, -912698.6, -84306.91, 0.0, 9.999662, 9.999516 
3.6500615e+2, 2.2547099e+2, -793629.2, -851746.2, -8084.7593, 0.008330467, 0.08215434, -792525.44, -62130.016, 0.0, 9.999978, 9.999204 
3.650103e+2, 2.354711e+2, -606031.5, -711192.75, -7183.699, -0.0057716626, 0.16823536, -605543.0, 26852.678, 0.0, 10.000596, 9.999198 
3.6501482e+2, 2.4547014e+2, -494192.88, -639068.75, 12733.047, -0.005816049, 0.16786197, -493082.28, 41322.863, 0.0, 10.000831, 9.998907 
3.6501968e+2, 2.5546828e+2, -407821.72, -546028.06, 18883.805, 0.0041547194, 0.08773297, -405287.97, 31134.234, 0.0, 10.000749, 9.998914 
3.6502427e+2, 2.65467e+2, -327111.53, -487981.47, 21875.787, -0.018801436, 0.081873626, -324189.8, 14245.1455, 0.0, 10.000767, 9.998631 
3.6502862e+2, 2.754661e+2, -212982.88, -383001.38, 15737.871, -0.06792235, 0.12805355, -211538.36, 28906.13, 0.0, 10.000881, 9.998623 
3.650333e+2, 2.8546494e+2, -107456.5, -316667.88, -1715.2056, -0.055282675, 0.16454127, -107442.44, 35014.582, 0.0, 10.001084, 9.998308 
3.6503822e+2, 2.954636e+2, 24739.678, -203019.33, 11326.991, 0.0053938543, 0.19340973, 25301.61, 69772.74, 0.0, 10.001323, 9.998301 
3.6504227e+2, 3.05461e+2, 132788.23, -82735.46, 17679.602, -0.051074933, 0.08866735, 134228.88, 134228.88, 0.0, 10.001544, 9.998687 
3.6504763e+2, 3.1546023e+2, 206953.14, 7605.416, -27885.53, 0.02316678, 0.13509524, 210780.4, 210780.4, 0.0, 10.001816, 9.999178 
3.7495673e+2, 1.2546526e+2, -1998338.0, -1780360.4, -81433.08, 0.025591396, 0.09222193, -1753298.0, -42847.637, 0.00005010573, 9.997754, 10.0006275 
3.7496394e+2, 1.354664e+2, -1777856.5, -1588842.1, 103457.12, 0.002990539, 0.10982274, -1543224.4, 69216.48, 0.000020857056, 9.998432, 10.000952 
3.749698e+2, 1.4546704e+2, -1665587.4, -1504869.3, -25419.994, -0.01352289, 0.08761639, -1500944.5, 13490.144, 0.000004428325, 9.998628, 10.000753 
3.749736e+2, 1.5546791e+2, -1610996.1, -1433643.1, -19068.477, -0.011318651, 0.09923878, -1431616.1, -15191.184, 0.00000011962439, 9.998356, 10.0007 
3.7497813e+2, 1.6546842e+2, -1523259.8, -1404192.0, 27539.637, 0.0061947713, 0.111291595, -1398130.9, -79710.76, 0.0, 9.99856, 10.000131 
3.7498295e+2, 1.7546867e+2, -1337745.8, -1264590.5, 18818.541, -0.005175939, 0.11835969, -1260033.5, -39614.375, 0.0, 9.999164, 10.000125 
3.7498748e+2, 1.8546873e+2, -1217750.0, -1201573.5, -3829.9277, -0.012971317, 0.13389939, -1200712.6, -78293.016, 0.0, 9.999509, 9.99972 
3.74992e+2, 1.9546863e+2, -1097789.6, -1092910.6, -3160.9175, -0.0025189589, 0.14742616, -1091357.3, -66935.836, 0.0, 9.99966, 9.999721 
3.7499672e+2, 2.0546824e+2, -1008382.1, -1023361.0, 6197.6123, 0.016793946, 0.14814143, -1006150.4, -79725.055, 0.0, 9.999704, 9.999504 
3.750016e+2, 2.154676e+2, -917161.94, -928508.4, 6576.143, 0.0389947, 0.13008587, -914150.06, -85719.25, 0.0, 9.999658, 9.999504 
3.750063e+2, 2.2546697e+2, -793969.3, -851488.8, 14570.587, 0.023940807, 0.13169774, -790488.94, -60051.79, 0.0, 9.999973, 9.999208 
3.7501073e+2, 2.354663e+2, -605464.2, -709005.8, 15283.055, -0.019654702, 0.14085646, -603255.44, 29188.918, 0.0, 10.000591, 9.999215 
3.7501553e+2, 2.4546555e+2, -483790.1, -616161.94, 9196.662, -0.02119874, 0.15078719, -483154.2, 51297.04, 0.0, 10.000826, 9.999067 
3.750205e+2, 2.5546467e+2, -398206.4, -525756.9, 16512.238, 0.011027095, 0.15403788, -396103.44, 40354.33, 0.0, 10.000747, 9.999053 
3.7502524e+2, 2.654633e+2, -337082.72, -508467.5, 25241.21, 0.0022600158, 0.1402529, -333442.56, 5028.586, 0.0, 10.000766, 9.99849 
3.7502977e+2, 2.7546147e+2, -221467.7, -399277.1, 20748.66, -0.040236954, 0.10167357, -219078.63, 21411.838, 0.0, 10.0008745, 9.998514 
3.7503466e+2, 2.854601e+2, -93214.24, -285199.66, 7002.342, -0.025043854, 0.11700711, -92959.19, 49544.594, 0.0, 10.001077, 9.998528 
3.7503982e+2, 2.954593e+2, 36947.465, -177371.98, 20776.98, 0.036534622, 0.17689835, 38943.086, 83454.52, 0.0, 10.001322, 9.998477 
3.750438e+2, 3.0545694e+2, 104269.22, -141980.84, 26313.566, -0.050531115, 0.10715038, 107049.62, 107049.62, 0.0, 10.001545, 9.99828 
3.7504867e+2, 3.1545508e+2, 159765.8, -87190.39, -21187.445, -0.055535328, 0.0876436, 161570.38, 161570.38, 0.0, 10.001802, 9.998531 
3.849549e+2, 1.254607e+2, -1923378.6, -1741252.8, -74548.766, 0.044784185, 0.12205867, -1714629.8, -4133.7456, 0.00004363311, 9.998258, 10.000651 
3.8496214e+2, 1.3546152e+2, -1859032.0, -1619013.9, 128655.91, 0.010253135, 0.09944561, -1563084.0, 49405.246, 0.000017489165, 9.997834, 10.001033 
3.849683e+2, 1.4546233e+2, -1724171.5, -1523605.3, -6152.9443, -0.004442077, 0.08655316, -1523416.6, -8935.634, 0.0000034194288, 9.998183, 10.000839 
3.8497213e+2, 1.554635e+2, -1505132.9, -1373953.5, -33261.35, -0.026926348, 0.119249, -1366001.9, 50466.37, 0.00000006772674, 9.999044, 10.000777 
3.8497686e+2, 1.6546394e+2, -1443262.5, -1381951.4, -3371.1172, -0.006994012, 0.12663454, -1381766.6, -63302.133, 0.0, 9.999177, 9.999987 
3.84982e+2, 1.754638e+2, -1406991.1, -1312369.5, -6931.84, 0.004826738, 0.10908901, -1311864.4, -91396.68, 0.0, 9.998749, 9.999998 
3.8498682e+2, 1.8546385e+2, -1305072.3, -1231689.9, -12323.113, 0.0024500228, 0.12521385, -1229675.8, -107207.305, 0.0, 9.9988575, 9.999827 
3.849916e+2, 1.9546407e+2, -1128221.0, -1095819.9, -4692.5303, 0.0025880155, 0.16011536, -1095154.0, -70686.695, 0.0, 9.9994, 9.9998255 
3.8499653e+2, 2.0546389e+2, -981242.4, -1009001.8, 5632.7124, 0.017222207, 0.17501526, -980142.94, -53673.652, 0.0, 9.999886, 9.999515 
3.8500163e+2, 2.1546336e+2, -818268.94, -879832.75, 6626.014, 0.039225705, 0.16578722, -817563.9, 10910.061, 0.0, 10.000332, 9.999514 
3.850065e+2, 2.2546263e+2, -730576.75, -824727.4, 15470.304, 0.026878232, 0.16187558, -728099.94, 2380.977, 0.0, 10.000424, 9.999175 
3.8501123e+2, 2.3546176e+2, -661551.25, -739855.0, 11856.008, -0.012658153, 0.15302788, -659795.5, -27305.566, 0.0, 10.000222, 9.999182 
3.850161e+2, 2.4546084e+2, -561895.75, -661297.44, -6629.0137, -0.020097071, 0.15182048, -561455.6, -26957.38, 0.0, 10.00032, 9.999001 
3.850211e+2, 2.5545987e+2, -413217.06, -539895.9, -17165.568, -0.0019409694, 0.15014492, -410932.28, 25573.514, 0.0, 10.000673, 9.998991 
3.8502607e+2, 2.654585e+2, -313917.13, -492602.56, -8197.536, 0.00016096118, 0.13901548, -313541.84, 24976.97, 0.0, 10.000904, 9.998532 
3.85031e+2, 2.754568e+2, -197275.78, -382829.53, -61.682495, -0.01026999, 0.10965327, -197275.77, 43260.81, 0.0, 10.0010195, 9.998557 
3.8503605e+2, 2.854554e+2, -83710.22, -276044.16, -11234.067, 0.0030507983, 0.11714702, -83056.266, 59493.69, 0.0, 10.001121, 9.9985695 
3.850411e+2, 2.9545438e+2, 26509.873, -179094.8, -13034.788, 0.03467685, 0.15260369, 27332.95, 71892.28, 0.0, 10.001234, 9.998508 
3.8504535e+2, 3.0545247e+2, 100101.23, -145013.75, 10061.152, -0.049798075, 0.12391816, 100513.51, 100513.51, 0.0, 10.001519, 9.998271 
3.8505065e+2, 3.1545028e+2, 168776.88, -96558.52, -13703.818, -0.0417797, 0.075117685, 169482.77, 169482.77, 0.000000000002787424, 10.001923, 9.99841 
3.949534e+2, 1.2545598e+2, -1915258.6, -1723425.4, -103499.836, 0.065328345, 0.11825662, -1678231.4, 32311.582, 0.0000362571, 9.998255, 10.000775 
3.9496002e+2, 1.3545732e+2, -1848655.4, -1597233.5, 117000.984, 0.012619063, 0.1303731, -1551210.8, 61319.344, 0.000013744367, 9.997832, 10.001184 
3.949665e+2, 1.4545822e+2, -1747758.8, -1571006.4, 27774.373, -0.004965868, 0.1354918, -1566744.8, -52223.32, 0.0000023661473, 9.998177, 10.000517 
3.9497095e+2, 1.554588e+2, -1526293.3, -1418502.0, -2489.4539, -0.051860757, 0.13866659, -1418444.5, -1928.1984, 0.000000028035489, 9.999047, 10.00047 
3.9497584e+2, 1.6545895e+2, -1447920.4, -1392223.1, -21148.742, -0.028241418, 0.13870555, -1385103.0, -66587.234, 0.0, 9.99918, 9.999915 
3.9498085e+2, 1.7545886e+2, -1411015.1, -1319994.3, -21076.604, 0.012604862, 0.13413224, -1315350.8, -94832.3, 0.0, 9.998746, 9.999948 
3.9498588e+2, 1.8545903e+2, -1290219.8, -1200046.0, 8064.994, 0.021030253, 0.15047505, -1199330.4, -76812.7, 0.0, 9.998854, 10.000047 
3.9499113e+2, 1.9545935e+2, -1113832.0, -1065165.3, 16208.728, 0.018296383, 0.17423093, -1060261.0, -35746.49, 0.0, 9.999396, 10.000038 
3.9499643e+2, 2.0545916e+2, -979370.4, -1004058.56, 21901.889, 0.018686073, 0.17831543, -966573.5, -40057.52, 0.0, 9.999882, 9.999551 
3.950017e+2, 2.1545857e+2, -816660.94, -875443.9, 23085.91, 0.016368808, 0.15912813, -808678.4, 19842.822, 0.0, 10.000328, 9.999546 
3.950068e+2, 2.2545801e+2, -736307.5, -835356.0, 7393.011, 0.013740101, 0.17235662, -735758.75, -5232.0034, 0.0, 10.000419, 9.9991045 
3.9501172e+2, 2.3545748e+2, -667571.2, -751846.1, 5598.9224, 0.012877395, 0.20398241, -667200.9, -34668.32, 0.0, 10.000219, 9.999101 
3.9501658e+2, 2.4545604e+2, -583097.8, -704598.6, 6062.616, -0.004999436, 0.17119148, -582796.06, -48249.957, 0.0, 10.000318, 9.998705 
3.9502138e+2, 2.5545385e+2, -432797.47, -578833.56, -3750.7031, -0.03801388, 0.07681695, -432701.2, 3864.9568, 0.0, 10.000667, 9.998728 
3.9502668e+2, 2.654526e+2, -298628.88, -459298.6, -4057.0427, -0.028466508, 0.07824082, -298526.5, 40051.387, 0.0, 10.000897, 9.998764 
3.9503232e+2, 2.7545214e+2, -182545.39, -352655.63, 4873.656, 0.018200273, 0.15146443, -182405.88, 58176.902, 0.0, 10.001021, 9.998764 
3.9503738e+2, 2.8545085e+2, -93454.74, -296605.06, -7788.081, 0.025255872, 0.16436826, -93156.61, 49438.883, 0.0, 10.001122, 9.998427 
3.9504194e+2, 2.9544887e+2, 16639.605, -196513.3, -7501.4966, -0.004452118, 0.12175714, 16903.28, 61517.88, 0.0, 10.001221, 9.998395 
3.9504683e+2, 3.0544758e+2, 125393.29, -89435.94, 24880.395, -0.053379785, 0.13914225, 128237.16, 128237.16, 0.0, 10.001508, 9.998658 
3.9505354e+2, 3.1544596e+2, 195382.25, -39781.727, -783.5017, 0.051869437, 0.10557911, 195384.86, 195384.86, 0.000000001718879, 10.001919, 9.998801 
4.0495163e+2, 1.2545133e+2, -1931794.3, -1740855.8, -113709.97, 0.06684, 0.11863117, -1687851.6, 22736.473, 0.000028702449, 9.998183, 10.00069 
4.049581e+2, 1.3545254e+2, -1752518.0, -1556754.6, 102268.77, 0.004092246, 0.12241773, -1513074.6, 99501.66, 0.000010028613, 9.998516, 10.001134 
4.0496498e+2, 1.454535e+2, -1703475.1, -1565781.5, 26990.533, 0.007712555, 0.14261748, -1560679.9, -46112.15, 0.0000013962007, 9.9985485, 10.000375 
4.0496972e+2, 1.5545394e+2, -1650264.5, -1492459.3, 6620.921, -0.040529605, 0.14703728, -1492182.0, -75617.1, 0.000000006286357, 9.998257, 10.000344 
4.0497476e+2, 1.6545413e+2, -1538892.9, -1426476.4, -3685.975, -0.022190701, 0.15210202, -1426355.6, -107791.41, 0.0, 9.998514, 10.000002 
4.0497977e+2, 1.7545423e+2, -1336053.0, -1275215.0, 7113.0215, 0.009187175, 0.15602699, -1274394.5, -53829.547, 0.0, 9.999222, 10.000026 
4.0498507e+2, 1.8545434e+2, -1189654.5, -1156911.1, 37811.996, 0.021062417, 0.16708034, -1132078.6, -9514.515, 0.0, 9.999568, 9.999998 
4.049908e+2, 1.9545445e+2, -1081934.8, -1054495.1, 24426.643, 0.032596193, 0.17359139, -1040198.94, -15636.199, 0.0, 9.999636, 9.999995 
4.0499628e+2, 2.054542e+2, -1010303.8, -1013684.9, 18708.158, 0.02794467, 0.17034216, -993209.94, -66645.31, 0.0, 9.999646, 9.9995985 
4.0500155e+2, 2.1545365e+2, -918226.3, -919044.7, 19835.924, 0.002544004, 0.15159239, -898795.4, -70226.0, 0.0, 9.999608, 9.999593 
4.050068e+2, 2.254531e+2, -819167.9, -877167.25, 5762.1855, 0.0010078975, 0.1642776, -818600.94, -88026.35, 0.0, 9.99986, 9.999086 
4.0501207e+2, 2.3545255e+2, -649711.1, -745225.44, 7309.9185, 0.022064092, 0.19495031, -649154.94, -16574.504, 0.0, 10.000352, 9.999083 
4.050173e+2, 2.4545108e+2, -531911.44, -685422.1, 25879.066, 0.0150750745, 0.16444468, -527666.1, 6928.219, 0.0, 10.000692, 9.998656 
4.050224e+2, 2.554489e+2, -400454.6, -568344.4, 33027.785, -0.016571973, 0.07455179, -394190.94, 42424.008, 0.0, 10.00091, 9.998683 
4.0502778e+2, 2.654477e+2, -276210.0, -453739.1, 25134.395, -0.018748896, 0.08607811, -272720.1, 65906.336, 0.0, 10.001074, 9.998717 
4.0503332e+2, 2.7544737e+2, -159053.27, -347339.63, 11884.836, 0.0049788863, 0.17529579, -158306.05, 82324.25, 0.0, 10.001209, 9.998711 
4.0503845e+2, 2.854459e+2, -79432.82, -307077.56, -12218.17, 0.009367604, 0.18180998, -78778.92, 63866.117, 0.0, 10.001292, 9.998275 
4.0504318e+2, 2.9544348e+2, 19501.375, -210453.58, -13002.191, -0.0049054697, 0.10920573, 20234.215, 64903.34, 0.0, 10.001307, 9.998259 
4.0504855e+2, 3.054426e+2, 121177.11, -88545.66, 19002.951, -0.029572042, 0.1761201, 122885.055, 122885.055, 0.0, 10.001465, 9.998685 
4.050557e+2, 3.1544107e+2, 189381.23, -22932.422, -40793.53, 0.08353056, 0.14572687, 196949.45, 196949.45, 0.00000001196501, 10.001789, 9.9989805 
4.1494957e+2, 1.2544672e+2, -1953708.5, -1784104.8, -113755.06, 0.040014338, 0.11994945, -1727020.9, -16389.002, 0.000021697306, 9.998176, 10.000397 
4.149564e+2, 1.3544719e+2, -1769144.0, -1593336.3, 115739.37, -0.01934424, 0.07464618, -1535903.6, 76724.29, 0.000006740833, 9.998524, 10.00088 
4.1496378e+2, 1.4544815e+2, -1700825.6, -1560760.1, 16120.28, 0.028627893, 0.107391536, -1558928.9, -44309.08, 0.0000006540361, 9.99855, 10.000408 
4.1496843e+2, 1.5544896e+2, -1646884.1, -1484360.6, -2339.244, 0.00577358, 0.14440878, -1484327.0, -67713.1, 0.0000000002364484, 9.998252, 10.000402 
4.1497356e+2, 1.654495e+2, -1522920.1, -1391831.9, 22695.53, 0.0083874455, 0.16702552, -1388013.9, -69403.93, 0.0, 9.9985075, 10.000242 
4.1497883e+2, 1.7544986e+2, -1321562.4, -1244422.0, 33350.25, -0.009687214, 0.1749664, -1232003.0, -11395.919, 0.0, 9.99922, 10.000237 
4.1498443e+2, 1.8544981e+2, -1212212.1, -1203586.4, 39599.4, -0.002331438, 0.17499425, -1168065.6, -45457.88, 0.0, 9.999567, 9.999678 
4.1499054e+2, 1.9544937e+2, -1103591.8, -1098513.4, 27308.717, 0.043455936, 0.15900896, -1073626.0, -49014.164, 0.0, 9.999632, 9.999696 
4.1499606e+2, 2.0544896e+2, -1006561.7, -1004756.1, 16858.0, 0.0425607, 0.15170076, -988776.75, -62161.418, 0.0, 9.999641, 9.999661 
4.150011e+2, 2.1544859e+2, -914588.0, -910059.1, 19822.3, -0.004902396, 0.14325908, -892372.3, -63753.96, 0.0, 9.999602, 9.999658 
4.1500652e+2, 2.2544791e+2, -817359.06, -872441.3, 23950.787, -0.014183325, 0.13757314, -808401.5, -77776.86, 0.0, 9.999855, 9.999122 
4.1501233e+2, 2.3544696e+2, -647109.9, -739028.94, 26019.332, 0.011756729, 0.1265823, -640255.75, -7622.1284, 0.0, 10.000348, 9.999126 
4.150182e+2, 2.4544598e+2, -518447.38, -656518.5, 33571.387, 0.03636358, 0.131698, -510717.4, 23925.475, 0.0, 10.000689, 9.998857 
4.1502407e+2, 2.55445e+2, -388612.06, -543303.75, 41343.625, 0.05915089, 0.14174584, -378255.72, 58396.66, 0.0, 10.000907, 9.998856 
4.150293e+2, 2.6544377e+2, -299781.94, -501596.47, 29566.977, 0.026564848, 0.16129231, -295539.38, 43125.258, 0.0, 10.00107, 9.99839 
4.1503394e+2, 2.7544245e+2, -183216.69, -394458.03, 17841.105, -0.053001206, 0.18214265, -181720.45, 58958.73, 0.0, 10.001196, 9.998392 
4.1503915e+2, 2.8544056e+2, -91612.56, -330107.03, -12206.148, -0.048178636, 0.17017314, -90989.48, 51709.137, 0.0, 10.001283, 9.998121 
4.1504484e+2, 2.9543817e+2, 9122.384, -232155.73, -12018.703, 0.028282898, 0.11524807, 9719.589, 54442.438, 0.0, 10.0013075, 9.998109 
4.150505e+2, 3.054376e+2, 98468.484, -136162.7, 30788.578, 0.016870843, 0.2353212, 102441.33, 102441.33, 0.0, 10.001468, 9.998357 
4.1505712e+2, 3.1543565e+2, 184691.52, -29022.182, -30647.361, 0.044361405, 0.19748119, 188999.63, 188999.63, 0.000000036873733, 10.001775, 9.998944 
4.2494747e+2, 1.254415e+2, -1981152.9, -1792349.0, -158531.4, 0.024090266, 0.12168774, -1702241.0, 8442.428, 0.000015823704, 9.997969, 10.000439 
4.249546e+2, 1.3544191e+2, -1812119.6, -1607016.3, 105589.29, -0.03349389, 0.063329756, -1562374.4, 50305.55, 0.0000041887733, 9.998198, 10.000944 
4.2496246e+2, 1.4544304e+2, -1698433.6, -1549320.0, 10494.366, 0.04381468, 0.10375034, -1548585.0, -33915.07, 0.00000021832761, 9.998524, 10.0005 
4.2496708e+2, 1.5544385e+2, -1560625.4, -1432529.1, -6139.6387, 0.016208535, 0.13161342, -1432235.5, -15571.935, 0.0, 9.998801, 10.000494 
4.2497244e+2, 1.6544446e+2, -1454211.4, -1359882.5, 27639.246, 0.020030854, 0.1576112, -1352380.6, -33721.773, 0.0, 9.998986, 10.00023 
4.2497817e+2, 1.7544495e+2, -1334558.4, -1252329.9, 17139.135, 0.008314217, 0.17953584, -1248900.5, -28245.662, 0.0, 9.999139, 10.000222 
4.249839e+2, 1.8544482e+2, -1258802.8, -1233272.3, 13900.349, 0.0030853755, 0.1773013, -1227165.0, -104508.75, 0.0, 9.999279, 9.999613 
4.249898e+2, 1.9544417e+2, -1141200.6, -1124390.4, 20149.11, 0.017812282, 0.14599143, -1110963.5, -86301.26, 0.0, 9.999408, 9.999625 
4.2499548e+2, 2.0544367e+2, -1015578.25, -1027839.94, 12108.935, 0.019185213, 0.14094873, -1008136.56, -81469.59, 0.0, 9.999661, 9.999493 
4.2500097e+2, 2.1544328e+2, -864631.2, -903715.3, -3142.7722, 0.003298609, 0.14929484, -864380.06, -35709.434, 0.0, 10.000022, 9.999499 
4.2500678e+2, 2.2544248e+2, -744746.56, -829782.56, 3039.2395, 0.0021650982, 0.13697445, -744638.1, -13960.279, 0.0, 10.00032, 9.999189 
4.2501283e+2, 2.3544137e+2, -609621.94, -713119.94, 6027.7256, 0.015637306, 0.10111344, -609272.06, 23415.771, 0.0, 10.000573, 9.999196 
4.250189e+2, 2.4544057e+2, -498462.44, -644799.44, 2993.4944, 0.03521815, 0.11842678, -498401.22, 36294.32, 0.0, 10.000817, 9.998875 
4.2502505e+2, 2.5544003e+2, -365787.16, -530524.6, -4228.8867, 0.059058145, 0.17087698, -365678.66, 71022.875, 0.0, 10.001057, 9.998871 
4.250304e+2, 2.6543885e+2, -294906.66, -498135.38, -15688.28, 0.028943324, 0.19215368, -293702.75, 45011.04, 0.0, 10.001097, 9.998402 
4.250351e+2, 2.7543718e+2, -216086.81, -408083.25, -2420.0012, -0.04574915, 0.18079275, -216056.33, 24674.848, 0.0, 10.00096, 9.998413 
4.2504045e+2, 2.8543523e+2, -103992.375, -330107.06, -407.19778, -0.040736124, 0.15984768, -103991.64, 38759.23, 0.0, 10.001172, 9.998175 
4.2504635e+2, 2.95433e+2, 68452.84, -198286.05, 12244.547, 0.031718336, 0.113730624, 69013.74, 113787.195, 0.0, 10.001692, 9.998157 
4.250522e+2, 3.0543253e+2, 119519.0, -156606.3, 55240.258, 0.026626876, 0.25542796, 130160.016, 130160.016, 0.0, 10.001743, 9.998083 
4.2505866e+2, 3.1543005e+2, 134451.94, -44054.633, -5563.3613, 0.0397056, 0.19340159, 134625.16, 134625.16, 0.00000007454206, 10.0013895, 9.999027 
4.3494534e+2, 1.2543571e+2, -1955377.8, -1738223.3, -162020.6, 0.01133068, 0.124611676, -1651762.9, 58979.74, 0.0000113764345, 9.997968, 10.000811 
4.3495274e+2, 1.3543673e+2, -1784750.4, -1551456.3, 116911.74, -0.040496707, 0.08909842, -1502952.1, 109780.21, 0.0000025044064, 9.9982, 10.001326 
4.3496102e+2, 1.4543813e+2, -1687576.5, -1526431.6, 21828.326, 0.049027197, 0.13206479, -1523527.1, -8808.857, 0.000000047491298, 9.998523, 10.000658 
4.3496558e+2, 1.5543859e+2, -1551635.3, -1413372.0, 4514.2354, -0.014821636, 0.107587904, -1413224.8, 3489.3494, 0.0, 9.998799, 10.000627 
4.349713e+2, 1.6543901e+2, -1474144.3, -1400770.1, 32617.262, 0.0066520525, 0.12309554, -1388367.3, -69656.18, 0.0, 9.998984, 9.99995 
4.3497783e+2, 1.7543946e+2, -1352595.0, -1289285.3, 23509.088, 0.06103203, 0.1703662, -1281510.4, -60801.96, 0.0, 9.999136, 9.99997 
4.349835e+2, 1.8543941e+2, -1246093.1, -1205841.6, 18171.656, 0.03401055, 0.17539318, -1198851.8, -76142.26, 0.0, 9.999275, 9.999803 
4.3498856e+2, 1.9543885e+2, -1130523.9, -1100926.4, 25706.727, -0.047569744, 0.13462676, -1086063.0, -61348.85, 0.0, 9.999403, 9.999788 
4.3499452e+2, 2.0543829e+2, -1044711.06, -1086818.1, 25439.09, -0.045210417, 0.13757113, -1032743.44, -106023.65, 0.0, 9.999656, 9.999091 
4.350012e+2, 2.1543774e+2, -892071.06, -959429.75, 10954.786, 0.02358907, 0.16991286, -890334.25, -61608.063, 0.0, 10.000017, 9.999119 
4.3500754e+2, 2.254369e+2, -738336.44, -815629.6, 11896.837, 0.04630753, 0.16328804, -736546.7, -5812.6133, 0.0, 10.000317, 9.999289 
4.3501356e+2, 2.3543575e+2, -603893.2, -700385.06, 15846.111, 0.031691026, 0.117460296, -601357.5, 31385.684, 0.0, 10.000569, 9.999286 
4.350195e+2, 2.454348e+2, -510821.2, -669178.06, 11564.462, 0.0097830985, 0.12401327, -509981.13, 24771.375, 0.0, 10.000812, 9.99871 
4.3502533e+2, 2.5543395e+2, -376660.78, -551582.06, 4920.499, -0.02035304, 0.16337849, -376522.5, 60239.863, 0.0, 10.00105, 9.99873 
4.3503103e+2, 2.6543286e+2, -270989.72, -447102.88, -21429.613, -0.015217527, 0.17976137, -268419.66, 70354.13, 0.0, 10.001091, 9.998755 
4.3503675e+2, 2.7543157e+2, -191882.78, -357049.97, -6510.719, 0.02219967, 0.17130217, -191626.53, 49159.79, 0.0, 10.000957, 9.998766 
4.350423e+2, 2.8542995e+2, -86691.62, -292705.3, 18515.936, 0.027129991, 0.15093198, -85040.69, 57761.246, 0.0, 10.001166, 9.998433 
4.3504775e+2, 2.9542798e+2, 83909.15, -163786.25, 31385.063, 0.0015596534, 0.10513557, 87824.02, 132645.11, 0.0, 10.001681, 9.998398 
4.3505365e+2, 3.054274e+2, 103530.92, -187739.3, 40689.67, -0.0038353147, 0.23715585, 109108.36, 109108.36, 0.0, 10.001736, 9.997873 
4.3506026e+2, 3.1542426e+2, 147228.42, -15713.612, -18402.613, 0.060051434, 0.12961219, 149280.94, 149280.94, 0.0000001100893, 10.001383, 9.999225 
4.4494346e+2, 1.254304e+2, -1935213.4, -1729873.5, -128067.695, 0.018530242, 0.13099468, -1668401.9, 42393.2, 0.000008277144, 9.998115, 10.000795 
4.4495088e+2, 1.3543147e+2, -1767766.3, -1544981.8, 130713.914, -0.053042445, 0.10197054, -1484634.8, 128149.94, 0.0000015575915, 9.998323, 10.001311 
4.4495967e+2, 1.4543304e+2, -1673622.9, -1523396.1, 17791.912, 0.052097924, 0.16243355, -1521317.6, -6548.4023, 0.000000013935479, 9.998634, 10.000625 
4.4496426e+2, 1.5543337e+2, -1533471.9, -1408157.4, -17683.582, -0.030043554, 0.1287254, -1405709.9, 11056.108, 0.0, 9.9989395, 10.000594 
4.4497016e+2, 1.6543353e+2, -1464616.5, -1407801.1, 5666.062, -0.0110652065, 0.12639858, -1407241.5, -88476.5, 0.0, 9.999101, 9.9998455 
4.4497693e+2, 1.7543365e+2, -1356330.6, -1301853.6, 9652.872, 0.055297513, 0.15014273, -1300193.9, -79428.47, 0.0, 9.999159, 9.999872 
4.449829e+2, 1.8543361e+2, -1222310.4, -1196393.6, 10090.701, 0.03706486, 0.16287471, -1192928.1, -70161.74, 0.0, 9.999448, 9.9997835 
4.449883e+2, 1.9543335e+2, -1054338.9, -1066405.3, 684.9538, -0.039009072, 0.1549025, -1054300.1, -29531.459, 0.0, 9.999936, 9.999768 
4.4499448e+2, 2.0543282e+2, -966504.6, -1053387.3, 6088.008, -0.041509964, 0.16182296, -966080.06, -39305.914, 0.0, 10.000211, 9.999052 
4.4500124e+2, 2.1543203e+2, -852891.6, -945697.0, 18009.584, 0.012900306, 0.17441748, -849519.25, -20736.8, 0.0, 10.000309, 9.999072 
4.4500774e+2, 2.2543108e+2, -745588.4, -840277.2, 16826.191, 0.035129286, 0.17228304, -742687.25, -11895.762, 0.0, 10.00036, 9.999098 
4.4501403e+2, 2.3543e+2, -645272.7, -740475.6, -2284.1846, 0.031502847, 0.14990325, -645217.94, -12416.707, 0.0, 10.000372, 9.999105 
4.4502008e+2, 2.4542892e+2, -567585.75, -681286.75, -4497.302, 0.012342005, 0.1445517, -567408.1, -32596.453, 0.0, 10.000356, 9.998847 
4.4502598e+2, 2.554278e+2, -473616.7, -582285.75, 10679.591, -0.021468898, 0.14340149, -472577.1, -35754.184, 0.0, 10.000316, 9.998872 
4.4503194e+2, 2.6542675e+2, -330191.47, -466208.94, -9452.197, -0.011310452, 0.15317835, -329537.75, 9295.667, 0.0, 10.000645, 9.998839 
4.4503802e+2, 2.754258e+2, -137553.9, -322101.38, -16121.73, 0.03854997, 0.16791248, -136156.13, 104687.01, 0.0, 10.001291, 9.998845 
4.4504374e+2, 2.8542435e+2, -36993.555, -261552.31, -11055.271, 0.039555445, 0.15874639, -36450.6, 106406.59, 0.0, 10.001475, 9.9985 
4.450492e+2, 2.9542243e+2, 25860.324, -183102.53, -14052.163, -0.0021567557, 0.11202474, 26801.057, 71677.08, 0.0, 10.0012455, 9.998475 
4.4505522e+2, 3.054217e+2, 43147.457, -224254.63, -6755.6865, 0.0005892659, 0.23064692, 43318.023, 43318.023, 0.00000000000009396187, 10.001352, 9.997808 
4.450618e+2, 3.1541866e+2, 222041.0, 55339.32, -58659.14, 0.0572059, 0.13912281, 240612.97, 240612.97, 0.00000013361628, 10.001746, 9.999538 
4.5494178e+2, 1.2542556e+2, -1961921.0, -1786536.5, -130661.23, 0.03682966, 0.13700487, -1716868.4, -6027.4893, 0.0000061456926, 9.99812, 10.000403 
4.5494896e+2, 1.3542615e+2, -1796799.5, -1605223.9, 141043.33, -0.07376654, 0.1007255, -1530516.8, 82320.27, 0.0000010596042, 9.998322, 10.0009 
4.5495826e+2, 1.4542772e+2, -1690958.8, -1557930.6, 30777.578, 0.048788615, 0.19480091, -1551155.0, -36332.215, 0.000000007555667, 9.998629, 10.00039 
4.549632e+2, 1.5542817e+2, -1548696.9, -1439367.3, -5557.461, -0.0338242, 0.19741274, -1439085.5, -22266.268, 0.0, 9.998939, 10.0003805 
4.54969e+2, 1.6542804e+2, -1458504.8, -1395553.1, 6923.593, -0.037779644, 0.17013319, -1394800.6, -75979.83, 0.0, 9.999103, 9.999928 
4.5497543e+2, 1.754275e+2, -1352482.0, -1292849.1, 13209.434, -0.011579388, 0.11833482, -1290054.1, -69228.21, 0.0, 9.999155, 9.999936 
4.5498204e+2, 1.8542743e+2, -1239831.5, -1230758.0, 28402.688, 0.008877523, 0.13815539, -1206532.0, -83704.83, 0.0, 9.99944, 9.999551 
4.5498902e+2, 1.954277e+2, -1069424.0, -1096663.0, 18962.09, 0.040213738, 0.20709042, -1059697.1, -34871.43, 0.0, 9.999932, 9.999562 
4.5499536e+2, 2.0542724e+2, -944368.06, -1006408.9, 9071.595, 0.026756331, 0.214592, -943068.8, -16238.688, 0.0, 10.000206, 9.999377 
4.5500112e+2, 2.1542615e+2, -832774.1, -903083.1, 22115.934, -0.030525738, 0.16327477, -826396.06, 2443.3452, 0.0, 10.000305, 9.999366 
4.550074e+2, 2.2542512e+2, -780844.6, -912080.94, 16865.535, -0.033054546, 0.16377611, -778711.9, -47861.848, 0.0, 10.000354, 9.998609 
4.5501423e+2, 2.3542413e+2, -677234.3, -806243.1, -1510.8335, 0.012395241, 0.19902222, -677216.6, -44354.688, 0.0, 10.000369, 9.998654 
4.5502073e+2, 2.4542293e+2, -537151.8, -617647.0, -6723.2656, 0.039659392, 0.18091585, -536594.1, -1721.064, 0.0, 10.000354, 9.999285 
4.5502704e+2, 2.5542155e+2, -445288.25, -521823.78, 10317.02, 0.05189559, 0.10995763, -443921.9, -7038.508, 0.0, 10.000309, 9.999291 
4.550331e+2, 2.6542053e+2, -343915.16, -493407.38, 14509.482, 0.03793438, 0.11192897, -342519.94, -3627.012, 0.0, 10.000639, 9.998655 
4.5503893e+2, 2.754198e+2, -151135.39, -349774.16, 7995.8896, 0.00005148717, 0.17047216, -150814.05, 90087.69, 0.0, 10.001288, 9.998656 
4.5504478e+2, 2.8541842e+2, -46457.855, -279431.6, -20455.947, -0.006761586, 0.18266739, -44675.387, 98241.336, 0.0, 10.001469, 9.99838 
4.550506e+2, 2.9541638e+2, 18474.2, -196441.14, -21691.057, 0.015372497, 0.1348392, 20641.586, 65579.71, 0.0, 10.001237, 9.998388 
4.550569e+2, 3.054155e+2, 46823.938, -214170.69, 7699.9004, 0.03506996, 0.23580754, 47050.902, 47050.902, 0.00000000000087855477, 10.001343, 9.997881 
4.5506322e+2, 3.1541315e+2, 249880.8, 115870.484, -42435.586, 0.023764089, 0.20730706, 262188.13, 262188.13, 0.00000014519496, 10.001737, 9.999959 
4.649397e+2, 1.2541996e+2, -1983151.3, -1805639.9, -162644.28, 0.025852373, 0.12029963, -1709110.0, 1784.6373, 0.000004581255, 9.998019, 10.000319 
4.6494728e+2, 1.354204e+2, -1746318.9, -1594479.9, 138839.88, -0.09332726, 0.08078116, -1512158.1, 100734.28, 0.0000007444035, 9.998725, 10.00078 
4.649572e+2, 1.4542197e+2, -1643973.6, -1559935.4, 29409.418, 0.06059889, 0.19216134, -1550665.9, -35787.17, 0.0000000034677494, 9.999058, 10.00017 
4.6496218e+2, 1.5542229e+2, -1553386.3, -1464366.6, -8116.4077, -0.030899806, 0.203061, -1463632.6, -46755.332, 0.0, 9.999005, 10.000176 
4.649681e+2, 1.6542207e+2, -1434734.3, -1383429.5, 8907.742, -0.046900615, 0.17764501, -1381927.0, -63047.21, 0.0, 9.999263, 9.999935 
4.6497467e+2, 1.754215e+2, -1259331.8, -1247704.0, 8357.221, -0.03181359, 0.122408256, -1243337.3, -22452.63, 0.0, 9.999792, 9.999939 
4.6498168e+2, 1.8542139e+2, -1174591.4, -1208710.8, 23365.043, 0.0037910785, 0.14186896, -1162720.8, -39834.508, 0.0, 9.999928, 9.999468 
4.6498916e+2, 1.9542162e+2, -1102204.4, -1121486.6, 24992.7, 0.070000224, 0.21442638, -1085057.8, -60172.094, 0.0, 9.999746, 9.999481 
4.649956e+2, 2.0542106e+2, -1004681.1, -1033336.2, 8498.08, 0.050206162, 0.2167003, -1002350.5, -75459.54, 0.0, 9.999784, 9.999395 
4.650011e+2, 2.1541987e+2, -875500.1, -921378.8, -3482.668, -0.04928477, 0.15287855, -875237.25, -46335.918, 0.0, 10.000002, 9.999386 
4.6500748e+2, 2.2541894e+2, -785888.6, -900724.0, 6306.1465, -0.059767853, 0.15650634, -785543.3, -54632.473, 0.0, 10.000258, 9.998733 
4.6501458e+2, 2.3541825e+2, -643480.1, -776396.94, 33606.03, 0.006322275, 0.20865595, -635466.5, -2546.7295, 0.0, 10.000543, 9.998776 
4.6502143e+2, 2.4541713e+2, -466560.1, -585937.0, 31610.441, 0.048800506, 0.19430074, -458706.47, 76223.43, 0.0, 10.00085, 9.999264 
4.6502796e+2, 2.5541565e+2, -320183.22, -464816.6, 12752.451, 0.07120357, 0.115551546, -319067.44, 117873.74, 0.0, 10.001182, 9.999263 
4.6503413e+2, 2.6541454e+2, -271076.2, -460083.2, 8675.405, 0.05257576, 0.1133149, -270678.8, 68272.664, 0.0, 10.001146, 9.998639 
4.6503994e+2, 2.754138e+2, -224231.06, -385980.6, 13231.236, -0.0016734777, 0.17068219, -223155.88, 17805.078, 0.0, 10.000793, 9.998645 
4.6504584e+2, 2.8541258e+2, -129910.99, -322518.13, -4193.9746, -0.0158699, 0.19692089, -129819.71, 13155.417, 0.0, 10.000907, 9.998355 
4.6505186e+2, 2.9541075e+2, 42227.05, -187099.55, 3.889072, 0.006905553, 0.17735212, 42227.05, 87221.44, 0.0, 10.001409, 9.99837 
4.6505845e+2, 3.0540943e+2, 74967.57, -215653.06, 26505.16, 0.040838815, 0.23698401, 77365.12, 77365.12, 0.00000000000042122027, 10.001598, 9.997749 
4.650648e+2, 3.1540707e+2, 222614.13, 113587.05, -39847.477, 0.019873684, 0.22514786, 235625.0, 235625.0, 0.00000014428599, 10.001499, 10.000058 
4.7493726e+2, 1.2541355e+2, -1969153.3, -1774954.8, -144388.39, -0.025040613, 0.08094634, -1698053.3, 12903.094, 0.0000033199578, 9.998011, 10.000533 
4.7494578e+2, 1.3541421e+2, -1733460.4, -1570076.1, 166960.98, -0.11943014, 0.04474969, -1465893.1, 147057.66, 0.00000048107097, 9.998733, 10.000945 
4.7495648e+2, 1.4541578e+2, -1656022.6, -1588030.8, 27580.154, 0.079453655, 0.15780123, -1578250.1, -63313.105, 0.000000000765976, 9.99907, 9.999971 
4.7496128e+2, 1.5541565e+2, -1567456.9, -1492539.9, -8653.553, -0.0228073, 0.14378555, -1491553.3, -74612.62, 0.0, 9.9990015, 9.999985 
4.7496745e+2, 1.654156e+2, -1440675.8, -1394399.0, 28799.967, -0.040211223, 0.14775051, -1380593.9, -61651.625, 0.0, 9.999257, 9.999863 
4.7497466e+2, 1.7541568e+2, -1263715.5, -1256560.4, 28081.0, -0.011272791, 0.16343263, -1231830.0, -10888.34, 0.0, 9.999792, 9.999878 
4.7498173e+2, 1.854155e+2, -1169316.8, -1197984.8, 15795.208, 0.014955957, 0.17656031, -1162321.1, -39377.57, 0.0, 9.999928, 9.999541 
4.749887e+2, 1.9541508e+2, -1098167.8, -1113194.5, 19505.057, 0.04901923, 0.17665942, -1084779.0, -59830.793, 0.0, 9.999745, 9.999538 
4.7499514e+2, 2.054143e+2, -1027477.9, -1078590.6, 16420.342, 0.026581066, 0.16749834, -1022657.3, -95700.67, 0.0, 9.999776, 9.999089 
4.7500113e+2, 2.1541318e+2, -894226.5, -959633.5, 5232.243, -0.047035143, 0.14314087, -893810.56, -64842.31, 0.0, 10.0, 9.999125 
4.750078e+2, 2.2541256e+2, -734529.94, -792925.9, 16215.739, -0.049662784, 0.15070568, -730329.25, 644.7868, 0.0, 10.000253, 9.9994755 
4.750152e+2, 2.3541236e+2, -595078.0, -674822.9, 44781.363, 0.010874133, 0.17813292, -574990.6, 57984.195, 0.0, 10.000538, 9.9994755 
4.7502217e+2, 2.4541153e+2, -501946.03, -658055.8, 43445.22, 0.03723056, 0.18393122, -490669.78, 44312.66, 0.0, 10.000843, 9.998772 
4.7502878e+2, 2.554101e+2, -353444.2, -533438.1, 24622.615, 0.033342846, 0.1605946, -350136.7, 86859.57, 0.0, 10.001179, 9.998793 
4.7503504e+2, 2.6540887e+2, -261274.69, -438853.03, -5194.7686, 0.029910957, 0.157893, -261122.84, 77886.266, 0.0, 10.001143, 9.998787 
4.7504103e+2, 2.7540782e+2, -214629.84, -364121.53, 1553.4998, 0.028744875, 0.16848484, -214613.69, 26407.242, 0.0, 10.000785, 9.998799 
4.75047e+2, 2.8540674e+2, -126123.62, -312759.1, 14214.655, 0.008026601, 0.20132525, -125047.195, 17985.443, 0.0, 10.000899, 9.9984255 
4.750529e+2, 2.9540557e+2, 46264.414, -178345.84, 19107.842, -0.031593256, 0.23753251, 47878.344, 92923.516, 0.0, 10.001407, 9.998431 
4.7505978e+2, 3.054034e+2, 50792.285, -264026.56, 21957.613, 0.01440659, 0.23250198, 52316.38, 52316.38, 0.0, 10.001591, 9.99742 
4.7506645e+2, 3.154004e+2, 206837.88, 84529.88, -38307.195, 0.035356697, 0.18299004, 217845.17, 217845.17, 0.00000012581201, 10.001484, 9.999865 
4.8493546e+2, 1.2540711e+2, -1897116.9, -1734621.8, -164709.88, -0.027064137, 0.079730615, -1632210.6, 78808.94, 0.0000022837717, 9.998486, 10.000579 
4.8494422e+2, 1.3540778e+2, -1749942.6, -1578639.5, 135896.39, -0.14099026, 0.04337765, -1503654.8, 109358.875, 0.0000002759338, 9.99862, 10.000941 
4.8495558e+2, 1.454093e+2, -1665017.3, -1593425.6, -8254.917, 0.08591147, 0.1535611, -1592486.1, -77486.23, 0.000000000009128432, 9.999015, 9.999961 
4.8496047e+2, 1.554089e+2, -1493469.3, -1458643.3, -33629.508, -0.026271243, 0.11357739, -1438186.0, -21180.203, 0.0, 9.999516, 9.99997 
4.8496684e+2, 1.6540886e+2, -1397942.9, -1381155.4, 9359.346, -0.038570445, 0.12311916, -1376977.3, -57969.805, 0.0, 9.999582, 9.999797 
4.8497444e+2, 1.7540921e+2, -1335329.1, -1298168.4, 7903.8774, 0.012084315, 0.17360245, -1296557.1, -75552.31, 0.0, 9.9993305, 9.999815 
4.849815e+2, 1.8540901e+2, -1233615.1, -1227678.3, -5852.18, 0.023552964, 0.18592577, -1224084.8, -101077.4, 0.0, 9.99948, 9.999555 
4.8498812e+2, 1.9540831e+2, -1066906.1, -1096354.8, -8003.3813, 0.007794562, 0.15627292, -1064871.6, -39856.95, 0.0, 9.999952, 9.999556 
4.8499477e+2, 2.054076e+2, -959745.06, -1039450.94, 3356.563, -0.008932685, 0.1518797, -959603.94, -32581.744, 0.0, 10.000211, 9.999149 
4.8500144e+2, 2.154069e+2, -848043.56, -930126.6, 19701.174, -0.028845157, 0.16211016, -843559.94, -14529.942, 0.0, 10.000285, 9.99919 
4.8500842e+2, 2.2540635e+2, -704820.25, -764247.56, 21474.453, -0.022892825, 0.16676559, -697872.56, 33162.18, 0.0, 10.000396, 9.999603 
4.8501566e+2, 2.354059e+2, -586804.56, -657675.25, 1359.314, 0.005258484, 0.15917282, -586778.5, 46258.574, 0.0, 10.000538, 9.999593 
4.850227e+2, 2.4540512e+2, -548492.25, -681785.3, -5468.3086, 0.023089202, 0.1647857, -548268.3, -13223.823, 0.0, 10.000528, 9.998761 
4.8502952e+2, 2.55404e+2, -470033.56, -589786.7, 10683.253, 0.030939924, 0.17040233, -469087.97, -32031.36, 0.0, 10.0003805, 9.99879 
4.850359e+2, 2.6540285e+2, -336125.75, -463286.75, -4226.618, 0.029751351, 0.17285168, -335985.44, 3083.2085, 0.0, 10.00058, 9.998891 
4.850419e+2, 2.7540174e+2, -165988.81, -330105.6, -1349.0638, 0.02237205, 0.16764972, -165977.72, 75102.75, 0.0, 10.001073, 9.998896 
4.8504806e+2, 2.854007e+2, -58754.49, -275419.8, 17525.662, 0.004657979, 0.19809882, -57346.027, 85745.2, 0.0, 10.001341, 9.998469 
4.8505434e+2, 2.953997e+2, 50127.355, -171111.3, 17903.678, -0.023583414, 0.24639685, 51566.84, 96668.53, 0.0, 10.0014105, 9.998479 
4.8506147e+2, 3.0539706e+2, 32083.117, -282085.72, 20222.73, 0.029292962, 0.19388726, 33379.484, 33379.484, 0.0, 10.001501, 9.997339 
4.8506787e+2, 3.1539434e+2, 212272.83, 75174.72, -20182.107, 0.023167334, 0.18519701, 215182.1, 215182.1, 0.00000009052117, 10.001573, 9.999759 
4.949343e+2, 1.2540063e+2, -1906280.9, -1754800.6, -164206.36, 0.005635519, 0.117994376, -1649708.5, 61376.027, 0.0000015131136, 9.998491, 10.000438 
4.9494267e+2, 1.3540101e+2, -1763661.5, -1606118.6, 143012.7, -0.15842465, 0.07655316, -1521618.6, 91463.016, 0.00000014199817, 9.998615, 10.000756 
4.9495453e+2, 1.4540249e+2, -1653127.8, -1567716.1, 11709.221, 0.07755091, 0.18038741, -1566140.0, -51072.156, 0.0, 9.999008, 10.00014 
4.9495977e+2, 1.5540203e+2, -1481083.5, -1433240.6, -15167.482, -0.049905844, 0.115681626, -1428837.4, -11764.763, 0.0, 9.999517, 10.000143 
4.949663e+2, 1.6540189e+2, -1401184.0, -1389846.8, -1645.6667, -0.051259037, 0.10860114, -1389612.6, -70537.66, 0.0, 9.99959, 9.999734 
4.9497405e+2, 1.754021e+2, -1340048.4, -1307807.6, 141.49524, 0.037573967, 0.15233742, -1307807.0, -86732.695, 0.0, 9.99933, 9.999749 
4.9498105e+2, 1.854019e+2, -1238439.1, -1235769.0, 11862.508, 0.027977474, 0.16963446, -1225166.6, -102088.99, 0.0, 9.999472, 9.999502 
4.9498743e+2, 1.9540128e+2, -1068903.6, -1100562.5, 9670.077, -0.058004785, 0.15259627, -1066183.6, -41098.617, 0.0, 9.999951, 9.999527 
4.9499443e+2, 2.0540099e+2, -929610.4, -975853.56, 5487.189, -0.061904516, 0.16954345, -928968.2, -1880.4559, 0.0, 10.000206, 9.999588 
4.9500203e+2, 2.1540102e+2, -820041.2, -871743.5, 23482.879, 0.0034308971, 0.20816778, -810967.75, 18118.79, 0.0, 10.000283, 9.999593 
4.950092e+2, 2.2540028e+2, -741416.5, -838587.4, 26242.78, 0.016977089, 0.20310634, -734782.1, -3689.0151, 0.0, 10.000389, 9.999096 
4.95016e+2, 2.3539892e+2, -619743.94, -726218.56, 6695.596, -0.012823238, 0.1524627, -619324.56, 13781.916, 0.0, 10.000538, 9.999123 
4.95023e+2, 2.4539796e+2, -516356.2, -614235.0, -11618.031, 0.003475238, 0.13764478, -514996.06, 20119.965, 0.0, 10.0005245, 9.999227 
4.9503022e+2, 2.553973e+2, -438489.28, -523574.34, 6437.6133, 0.060209602, 0.14483206, -438004.94, -882.6069, 0.0, 10.000377, 9.999247 
4.9503666e+2, 2.653965e+2, -333016.4, -455865.13, 13605.925, 0.047876343, 0.15761292, -331527.53, 7602.697, 0.0, 10.000576, 9.998943 
4.950425e+2, 2.753956e+2, -163094.83, -323465.1, 17120.75, -0.024097966, 0.16714503, -161287.42, 79852.305, 0.0, 10.00107, 9.998942 
4.950491e+2, 2.8539446e+2, -59314.9, -274588.9, 19523.03, -0.028526021, 0.18708101, -57558.695, 85592.234, 0.0, 10.001332, 9.998479 
4.9505627e+2, 2.953932e+2, 50978.863, -166710.34, 21701.842, 0.025654893, 0.20678367, 53121.273, 98285.02, 0.0, 10.0014, 9.998514 
4.9506348e+2, 3.0539036e+2, 41405.914, -260081.72, 22673.785, 0.08112372, 0.123686165, 43101.59, 43101.59, 0.0, 10.001491, 9.997495 
4.9506897e+2, 3.1538886e+2, 211261.16, 75365.766, -11308.009, -0.025283808, 0.21983857, 212195.69, 212195.69, 0.000000050936965, 10.001565, 9.999763 
5.0493306e+2, 1.2539399e+2, -1879607.0, -1760352.1, -156313.39, 0.019253388, 0.13682722, -1652679.5, 58470.566, 0.0000009949754, 9.998757, 10.00027 
5.0494146e+2, 1.3539407e+2, -1720419.0, -1609787.5, 150992.05, -0.16267695, 0.08735976, -1504297.8, 108852.78, 0.000000065122016, 9.999015, 10.00054 
5.0495374e+2, 1.4539544e+2, -1635213.8, -1552317.9, 16931.111, 0.09782509, 0.18833788, -1548993.1, -33855.62, 0.0, 9.999103, 10.000201 
5.04959e+2, 1.5539499e+2, -1546295.8, -1458065.9, -22993.13, -0.05275723, 0.118286856, -1452433.3, -35291.547, 0.0, 9.999041, 10.000203 
5.0496566e+2, 1.6539484e+2, -1432500.8, -1401372.5, -10329.68, -0.06541655, 0.10680839, -1398256.5, -79112.625, 0.0, 9.999359, 9.999766 
5.049736e+2, 1.7539507e+2, -1244138.3, -1258206.5, -2145.8936, 0.027182853, 0.14813307, -1243818.3, -22674.953, 0.0, 9.999972, 9.999781 
5.049808e+2, 1.8539497e+2, -1148802.5, -1193668.9, 13663.802, 0.024685984, 0.17616926, -1144968.9, -21823.102, 0.0, 10.000092, 9.999494 
5.0498736e+2, 1.9539458e+2, -1089310.3, -1110953.9, 13869.428, -0.054535646, 0.1824367, -1082540.3, -57389.09, 0.0, 9.999814, 9.999522 
5.049945e+2, 2.0539421e+2, -972306.0, -987156.0, 1131.3123, -0.056110136, 0.18720289, -972220.3, -45065.95, 0.0, 9.999871, 9.999673 
5.050023e+2, 2.1539389e+2, -825808.0, -865459.06, -9629.048, 0.006147032, 0.18319726, -823593.4, 5562.1895, 0.0, 10.000203, 9.999675 
5.050096e+2, 2.2539316e+2, -748691.44, -842070.3, -2595.313, 0.01961004, 0.17365696, -748619.4, -17457.283, 0.0, 10.000338, 9.999098 
5.050165e+2, 2.3539208e+2, -654381.2, -741920.8, 15398.294, -0.007413208, 0.15112315, -651751.56, -18578.291, 0.0, 10.000298, 9.999131 
5.0502354e+2, 2.453913e+2, -517661.1, -602129.7, 3032.1409, 0.005408729, 0.14980485, -517552.38, 17628.832, 0.0, 10.000462, 9.999339 
5.050307e+2, 2.5539076e+2, -368023.4, -477660.16, -6230.3423, 0.0521721, 0.15775724, -367670.5, 69516.02, 0.0, 10.00081, 9.999353 
5.0503737e+2, 2.6538995e+2, -288174.28, -428374.38, -9448.119, 0.045496654, 0.16119461, -287540.4, 51653.973, 0.0, 10.000859, 9.998995 
5.0504357e+2, 2.753889e+2, -221220.1, -345866.7, -8045.286, -0.0076679536, 0.15118025, -220702.97, 20501.92, 0.0, 10.000648, 9.99899 
5.0505024e+2, 2.853878e+2, -141773.63, -308554.34, -821.03705, -0.01697626, 0.17036377, -141769.6, 1445.8215, 0.0, 10.000742, 9.99853 
5.050574e+2, 2.953868e+2, 8459.184, -180244.13, 3389.3735, 0.013216721, 0.20925586, 8520.041, 53745.734, 0.0, 10.001079, 9.998576 
5.050649e+2, 3.0538377e+2, 47872.133, -234797.27, 8989.743, 0.076316066, 0.092803374, 48157.746, 48157.746, 0.0, 10.00144, 9.997693 
5.050707e+2, 3.153827e+2, 240456.2, 80012.414, -20609.963, -0.019037675, 0.2155296, 243061.38, 243061.38, 0.000000020855737, 10.001806, 9.99968 
5.149317e+2, 1.2538712e+2, -1893852.6, -1788067.0, -150509.75, 0.0028800438, 0.13420862, -1681426.6, 29789.926, 0.00000067894854, 9.998749, 10.000084 
5.1494044e+2, 1.3538696e+2, -1735428.9, -1642501.6, 161724.55, -0.161499, 0.07995859, -1520698.5, 92521.51, 0.000000029496794, 9.99902, 10.000314 
5.1495326e+2, 1.4538819e+2, -1640109.1, -1564462.5, 13489.726, 0.13637318, 0.18330103, -1562129.0, -46920.16, 0.0, 9.99911, 10.000114 
5.1495826e+2, 1.5538773e+2, -1551918.5, -1468912.0, -24012.348, -0.036798097, 0.12102493, -1462466.1, -45252.71, 0.0, 9.999037, 10.000131 
5.149648e+2, 1.6538769e+2, -1423101.5, -1380484.8, 12279.516, -0.08322063, 0.11782044, -1377199.8, -57985.426, 0.0, 9.999352, 9.999913 
5.149731e+2, 1.753881e+2, -1233600.5, -1237062.8, 20214.52, -0.025062274, 0.16089305, -1215043.1, 6168.6265, 0.0, 9.999975, 9.999924 
5.1498073e+2, 1.8538827e+2, -1146229.6, -1189182.1, 2184.9468, 0.005961206, 0.2070069, -1146118.8, -22907.338, 0.0, 10.000094, 9.999523 
5.149878e+2, 1.9538821e+2, -1088306.4, -1108697.4, 4811.574, 0.016869308, 0.24539658, -1087228.1, -62014.875, 0.0, 9.999812, 9.999539 
5.1499504e+2, 2.0538726e+2, -993161.44, -1028228.94, 13170.813, 0.0063924515, 0.20444381, -988765.7, -61543.582, 0.0, 9.999862, 9.999395 
5.150022e+2, 2.1538553e+2, -843280.94, -901520.6, 2896.0918, -0.023481848, 0.08712572, -843137.3, -13900.153, 0.0, 10.000202, 9.999429 
5.150096e+2, 2.2538495e+2, -713457.8, -767831.6, -4674.936, -0.018457636, 0.07801592, -713058.8, 18183.027, 0.0, 10.000334, 9.99961 
5.1501703e+2, 2.3538536e+2, -620620.56, -671607.0, 15099.899, 0.01861244, 0.15380292, -616484.2, 16753.441, 0.0, 10.000296, 9.999616 
5.150242e+2, 2.4538516e+2, -535239.6, -637823.3, 15320.405, 0.024534732, 0.19881916, -533000.44, 2239.907, 0.0, 10.000459, 9.999096 
5.1503104e+2, 2.553844e+2, -384954.22, -512132.63, 6526.982, 0.0042542643, 0.20817752, -384620.13, 52629.066, 0.0, 10.000806, 9.999119 
5.1503795e+2, 2.653832e+2, -286119.9, -423028.6, -17576.662, 0.020565003, 0.1834844, -283899.38, 55361.67, 0.0, 10.0008545, 9.999034 
5.150449e+2, 2.7538165e+2, -218152.72, -339313.75, -14282.946, 0.067185916, 0.12044291, -216491.77, 24784.104, 0.0, 10.000647, 9.999036 
5.150515e+2, 2.8538075e+2, -136742.33, -296731.6, 11517.363, 0.034131456, 0.14759971, -135917.47, 7367.271, 0.0, 10.000736, 9.998613 
5.150577e+2, 2.9538044e+2, 13621.102, -167627.42, 17263.822, -0.06496614, 0.25129434, 15250.817, 60538.656, 0.0, 10.001071, 9.998666 
5.1506567e+2, 3.0537722e+2, 62910.906, -201034.5, 21778.309, 0.011742199, 0.09885505, 64695.78, 64695.78, 0.0, 10.00143, 9.9979315 
5.1507306e+2, 3.1537586e+2, 229264.08, 59657.586, 280.92447, 0.033857364, 0.17010096, 229264.55, 229264.55, 0.0000000053166334, 10.001794, 9.999545 
5.2493054e+2, 1.2537986e+2, -1902511.5, -1779171.0, -160817.19, 0.02439692, 0.1234835, -1668604.8, 42682.28, 0.0000005002885, 9.998636, 10.000196 
5.2493936e+2, 1.3537961e+2, -1734553.8, -1636160.0, 168725.64, -0.1721079, 0.055482436, -1509605.1, 103685.74, 0.000000016983103, 9.998999, 10.000368 
5.249526e+2, 1.4538085e+2, -1614159.1, -1558996.3, 24751.664, 0.14847067, 0.16067584, -1549518.6, -34239.03, 0.0, 9.999318, 10.0000515 
5.249576e+2, 1.5538052e+2, -1487536.5, -1444627.4, -12317.855, -0.029845897, 0.117428534, -1441342.8, -24059.648, 0.0, 9.999508, 10.000071 
5.249642e+2, 1.6538048e+2, -1398757.1, -1370726.5, 27295.607, -0.08444539, 0.115829095, -1354058.3, -34774.086, 0.0, 9.999527, 9.999896 
5.2497274e+2, 1.7538072e+2, -1311872.6, -1277116.3, 20451.814, -0.03091378, 0.14612752, -1267656.4, -46373.46, 0.0, 9.999447, 9.999906 
5.249806e+2, 1.8538082e+2, -1203889.0, -1217131.8, -9374.047, 0.00962263, 0.18537357, -1199033.6, -75750.336, 0.0, 9.999699, 9.999522 
5.249881e+2, 1.9538075e+2, -1029131.4, -1079977.6, -10327.755, 0.037637252, 0.22293505, -1027113.7, -1828.5314, 0.0, 10.000218, 9.99954 
5.249953e+2, 2.0537989e+2, -928046.0, -998404.06, 6410.724, 0.020295028, 0.1905454, -927466.6, -173.0803, 0.0, 10.000316, 9.99938 
5.250022e+2, 2.1537831e+2, -865047.9, -912614.0, 14758.674, -0.035982534, 0.090994604, -860840.75, -31533.229, 0.0, 10.000056, 9.999421 
5.250096e+2, 2.2537783e+2, -736305.3, -760265.5, 6557.5376, -0.03442872, 0.08191058, -734628.0, -3316.754, 0.0, 10.000096, 9.999776 
5.250174e+2, 2.3537822e+2, -594481.06, -640978.6, -738.34375, 0.017273692, 0.14065093, -594469.3, 38837.22, 0.0, 10.000397, 9.999777 
5.2502465e+2, 2.4537797e+2, -523838.7, -631607.94, 134.24268, 0.021361804, 0.1737109, -523838.53, 11470.771, 0.0, 10.000534, 9.999103 
5.250315e+2, 2.5537714e+2, -425607.94, -530906.56, 8323.146, -0.014891377, 0.17687659, -424954.1, 12364.458, 0.0, 10.0005245, 9.9991255 
5.250386e+2, 2.6537612e+2, -312006.2, -438247.88, -13081.818, 0.0076409583, 0.1666295, -310664.8, 28664.744, 0.0, 10.000688, 9.99901 
5.250459e+2, 2.7537483e+2, -169229.7, -317688.13, -14995.835, 0.0799909, 0.13345942, -167730.13, 73612.47, 0.0, 10.000993, 9.999018 
5.2505255e+2, 2.853739e+2, -80631.086, -271385.38, 10103.867, 0.045763567, 0.16036166, -80097.4, 63254.5, 0.0, 10.001129, 9.998598 
5.250586e+2, 2.9537335e+2, 19493.045, -166678.2, 6640.948, -0.07862965, 0.242607, 19729.635, 65086.605, 0.0, 10.001119, 9.99865 
5.25067e+2, 3.0537024e+2, 49944.676, -177015.33, 13171.291, 0.0063859485, 0.085975885, 50706.496, 50706.496, 0.0, 10.001209, 9.998201 
5.250748e+2, 3.1536946e+2, 156325.53, 10739.726, -1372.2653, 0.051523436, 0.1891493, 156338.47, 156338.47, 0.00000000056215, 10.00135, 9.999423 
5.3492963e+2, 1.2537222e+2, -1874926.8, -1723766.8, -147077.7, 0.06688158, 0.107176274, -1633986.0, 77375.414, 0.00000041209, 9.998644, 10.000573 
5.349381e+2, 1.3537201e+2, -1712437.8, -1591222.1, 182680.84, -0.19757752, 0.012448848, -1459357.6, 154006.0, 0.000000018082496, 9.999001, 10.000677 
5.3495175e+2, 1.4537342e+2, -1615722.3, -1561048.8, 31562.893, 0.13004115, 0.119316585, -1546630.0, -31280.049, 0.0, 9.999313, 10.00004 
5.34957e+2, 1.553734e+2, -1488687.6, -1447554.6, -5353.6006, -0.038070727, 0.108124495, -1446869.3, -29518.879, 0.0, 9.999511, 10.000049 
5.3496385e+2, 1.653732e+2, -1412325.1, -1399833.4, 22797.3, -0.076725416, 0.103288114, -1382441.8, -63088.715, 0.0, 9.999531, 9.999695 
5.3497255e+2, 1.7537294e+2, -1325684.5, -1305244.8, 18810.87, 0.007592833, 0.10368017, -1294056.9, -72699.97, 0.0, 9.999444, 9.999714 
5.3498054e+2, 1.853726e+2, -1206602.3, -1221352.1, 9698.206, 0.032762904, 0.11077101, -1201793.4, -78431.875, 0.0, 9.999693, 9.999496 
5.34988e+2, 1.9537218e+2, -1030533.06, -1082764.3, 8423.839, 0.0038523457, 0.113370284, -1029208.06, -3840.8945, 0.0, 10.0002165, 9.999522 
5.349952e+2, 2.0537205e+2, -911108.25, -962441.06, -4073.9685, -0.018899323, 0.14474972, -910786.94, 16581.803, 0.0, 10.000313, 9.999629 
5.350023e+2, 2.1537222e+2, -849593.4, -879511.8, 6255.323, -0.034444675, 0.19397458, -848338.2, -18971.459, 0.0, 10.0000515, 9.999651 
5.350097e+2, 2.2537173e+2, -749578.8, -786578.3, 17024.826, -0.032031998, 0.18394107, -742937.25, -11566.668, 0.0, 10.000091, 9.9995985 
5.3501743e+2, 2.3537067e+2, -606078.3, -664937.4, 10633.107, -0.013848397, 0.11164202, -604216.3, 29163.604, 0.0, 10.000396, 9.999614 
5.350249e+2, 2.4536976e+2, -506588.9, -595100.4, -551.6758, -0.006654209, 0.07478317, -506585.47, 28802.496, 0.0, 10.00053, 9.999355 
5.350321e+2, 2.5536904e+2, -409143.72, -496626.88, 8965.779, -0.009048284, 0.064280234, -408234.3, 29160.357, 0.0, 10.000524, 9.999362 
5.3503925e+2, 2.653686e+2, -318850.44, -451450.38, -2126.4604, 0.002923211, 0.10956642, -318816.34, 20583.836, 0.0, 10.000684, 9.998921 
5.350464e+2, 2.753684e+2, -176165.16, -330672.13, -3539.837, 0.027940292, 0.18839036, -176084.1, 65321.258, 0.0, 10.000986, 9.998932 
5.350534e+2, 2.8536728e+2, -89437.11, -287953.56, 9066.7295, 0.0146686, 0.20793663, -89023.87, 54393.18, 0.0, 10.0011215, 9.998488 
5.350602e+2, 2.9536557e+2, 11628.87, -182563.86, 7992.0435, -0.03225381, 0.18425073, 11957.2295, 57390.18, 0.0, 10.001116, 9.998542 
5.350687e+2, 3.053628e+2, 69249.625, -134906.75, 18385.803, 0.054912955, 0.053388603, 70892.19, 70892.19, 0.0, 10.001202, 9.998493 
5.350759e+2, 3.1536347e+2, 147878.66, -3926.8745, 12587.001, 0.02527902, 0.2712974, 148915.23, 148915.23, 0.0000000000003731001, 10.001339, 9.999327 
5.449288e+2, 1.253645e+2, -1789827.9, -1698911.8, -146416.61, 0.080910325, 0.09455324, -1591058.9, 120377.87, 0.00000036785775, 9.999299, 10.000427 
5.4493695e+2, 1.3536443e+2, -1709397.4, -1610692.8, 139858.94, -0.21458833, 0.032457266, -1511734.0, 101704.555, 0.000000024396927, 9.999111, 10.000489 
5.4495096e+2, 1.4536577e+2, -1636404.1, -1558266.5, -18163.912, 0.13807133, 0.13744515, -1554250.5, -38824.996, 0.0, 9.999118, 10.000153 
5.4495656e+2, 1.5536569e+2, -1506661.3, -1444785.9, -49757.652, -0.025254121, 0.10914128, -1417132.1, 293.5993, 0.0, 9.999337, 10.000152 
5.449635e+2, 1.653654e+2, -1410999.9, -1412090.9, -17071.803, -0.06943816, 0.09532477, -1394464.9, -75035.695, 0.0, 9.999596, 9.999579 
5.449722e+2, 1.75365e+2, -1273337.9, -1291214.3, -15058.868, 0.0069018854, 0.09353792, -1264764.4, -43329.78, 0.0, 9.999854, 9.999611 
5.449803e+2, 1.8536465e+2, -1161014.1, -1183981.3, -7842.3804, 0.02620392, 0.09683413, -1158591.8, -35152.51, 0.0, 9.99994, 9.999634 
5.4498786e+2, 1.953643e+2, -1067725.9, -1085263.5, 1384.2355, -0.010036925, 0.094533086, -1067617.4, -42173.71, 0.0, 9.999895, 9.9996605 
5.4499525e+2, 2.0536438e+2, -952804.56, -964246.94, -18817.617, -0.02674687, 0.13020775, -938857.6, -11414.689, 0.0, 9.999947, 9.999793 
5.4500246e+2, 2.1536483e+2, -834491.25, -855080.94, -15256.635, -0.024597727, 0.19070236, -826381.0, 3056.804, 0.0, 10.00008, 9.999805 
5.4501e+2, 2.2536439e+2, -751765.0, -803576.25, 3363.9402, -0.022348704, 0.18378639, -751547.5, -20105.762, 0.0, 10.000145, 9.9994545 
5.450177e+2, 2.3536311e+2, -650402.2, -700771.5, -1919.1829, -0.020089576, 0.108319506, -650329.2, -16875.414, 0.0, 10.0001545, 9.999483 
5.450253e+2, 2.4536219e+2, -532168.7, -588545.06, -16263.14, -0.008886219, 0.067088544, -527813.6, 7648.48, 0.0, 10.000275, 9.999522 
5.450328e+2, 2.5536162e+2, -402866.03, -475223.44, -13288.947, 0.0097967405, 0.050506804, -400502.63, 36964.387, 0.0, 10.000489, 9.999524 
5.4503995e+2, 2.6536128e+2, -323092.03, -456380.97, -19121.486, 0.009812493, 0.09787808, -320403.13, 19068.287, 0.0, 10.000668, 9.998895 
5.450469e+2, 2.753611e+2, -203216.92, -346919.13, -17915.912, -0.005696136, 0.18581292, -201016.95, 40459.23, 0.0, 10.0008135, 9.998903 
5.4505414e+2, 2.8535995e+2, -107184.7, -290252.2, -1595.636, -0.0093298955, 0.20181234, -107170.8, 36317.375, 0.0, 10.000973, 9.998544 
5.4506165e+2, 2.9535818e+2, 17136.543, -172962.3, 8604.022, -0.0033464674, 0.1655557, 17525.172, 63029.867, 0.0, 10.001126, 9.998602 
5.450701e+2, 3.0535573e+2, 91275.45, -107100.31, 23879.139, 0.08094003, 0.055135287, 94109.38, 94109.38, 0.0, 10.001279, 9.998648 
5.4507697e+2, 3.153563e+2, 149379.45, -23213.32, 12774.173, -0.0044644717, 0.25400177, 150319.8, 150319.8, 0.000000000015387011, 10.001436, 9.999147 
5.549279e+2, 1.2535667e+2, -1834795.8, -1792805.1, -151504.2, 0.058434907, 0.08279776, -1660848.4, 50665.023, 0.0000003291145, 9.999302, 9.999782 
5.54936e+2, 1.3535689e+2, -1754926.0, -1706583.8, 132831.63, -0.22816272, 0.117814936, -1595742.0, 17773.354, 0.000000025104656, 9.999118, 9.999828 
5.549504e+2, 1.4535795e+2, -1621280.6, -1528052.9, -11323.93, 0.16535524, 0.21807206, -1526697.1, -11191.577, 0.0, 9.999122, 10.000359 
5.549562e+2, 1.5535739e+2, -1492263.9, -1415040.4, -40994.188, 0.0054369546, 0.120905146, -1397337.0, 20171.941, 0.0, 9.999337, 10.000357 
5.549631e+2, 1.6535704e+2, -1412957.3, -1414854.4, -8236.386, -0.06603498, 0.091483034, -1405615.0, -86102.445, 0.0, 9.999591, 9.999563 
5.5497164e+2, 1.7535691e+2, -1274102.1, -1292396.8, -5714.6377, -0.036994316, 0.11603435, -1272463.8, -50947.848, 0.0, 9.999852, 9.999603 
5.5497986e+2, 1.8535694e+2, -1140485.4, -1141026.0, -10388.345, -0.015034298, 0.14431328, -1130363.9, -6847.3975, 0.0, 9.999938, 9.99993 
5.549878e+2, 1.9535714e+2, -1048063.06, -1043532.3, 382.51746, -0.006457173, 0.16718988, -1043500.25, -17985.672, 0.0, 9.99989, 9.999949 
5.549954e+2, 2.0535685e+2, -947363.9, -951726.06, -14312.21, -0.006191995, 0.14692934, -935067.5, -7551.403, 0.0, 9.999942, 9.999882 
5.550027e+2, 2.1535611e+2, -829808.6, -844020.5, -9867.687, -0.00991031, 0.08103705, -824754.56, 4766.101, 0.0, 10.000074, 9.999885 
5.550102e+2, 2.2535571e+2, -760200.44, -820093.6, 3133.373, -0.008858484, 0.081341766, -760037.0, -28512.383, 0.0, 10.00014, 9.999344 
5.55018e+2, 2.3535559e+2, -658151.94, -716489.1, -962.7513, -0.004419738, 0.13054587, -658136.0, -24607.906, 0.0, 10.000153, 9.999376 
5.5502576e+2, 2.4535526e+2, -526552.44, -576248.1, -8761.397, 0.011724691, 0.14910537, -525053.06, 10478.774, 0.0, 10.000272, 9.999608 
5.5503356e+2, 2.5535476e+2, -397146.4, -462616.4, -4865.5205, 0.038481303, 0.13381858, -396786.78, 40748.906, 0.0, 10.000486, 9.999612 
5.5504084e+2, 2.65354e+2, -321129.34, -451806.8, -14290.83, 0.02477938, 0.13100024, -319584.78, 19958.568, 0.0, 10.000665, 9.998928 
5.550476e+2, 2.753529e+2, -201610.25, -343170.16, -11770.062, -0.024948556, 0.12565412, -200638.3, 40916.742, 0.0, 10.000811, 9.998931 
5.550549e+2, 2.853519e+2, -94291.68, -261226.64, 3797.284, -0.02948733, 0.14152761, -94205.35, 49360.02, 0.0, 10.000964, 9.998748 
5.5506283e+2, 2.9535115e+2, 29603.605, -144586.53, 14598.178, 0.004366928, 0.18595544, 30818.547, 76391.086, 0.0, 10.001116, 9.998801 
5.550714e+2, 3.0534893e+2, 92244.164, -102487.15, 27986.79, 0.08087195, 0.09270746, 96186.61, 96186.61, 0.0, 10.001267, 9.998685 
5.55078e+2, 3.1534818e+2, 133342.11, -55954.93, 26285.459, -0.046585012, 0.14690305, 136924.27, 136924.27, 0.0000000020600701, 10.001433, 9.998923 
5.6492716e+2, 1.253489e+2, -1824965.6, -1787851.4, -169193.8, 0.058826607, 0.11320368, -1636200.0, 75390.94, 0.00000027083397, 9.999371, 9.999781 
5.6493527e+2, 1.3534875e+2, -1698765.6, -1684556.1, 153700.6, -0.23219512, 0.11501618, -1537796.1, 75799.12, 0.000000017878008, 9.999522, 9.999785 
5.649499e+2, 1.4534956e+2, -1566011.5, -1518737.3, 24338.268, 0.1841184, 0.19870572, -1508447.0, 7141.0864, 0.0, 9.999575, 10.000205 
5.649557e+2, 1.553491e+2, -1467039.9, -1418108.5, -32679.988, 0.011538564, 0.12739798, -1401750.8, 15840.933, 0.0, 9.9995775, 10.000218 
5.649627e+2, 1.6534893e+2, -1403621.3, -1386376.1, -2479.878, -0.066804394, 0.11228877, -1386026.6, -66433.12, 0.0, 9.999555, 9.999775 
5.649713e+2, 1.7534903e+2, -1309612.1, -1287290.0, 14734.882, -0.033141743, 0.14073859, -1279966.4, -58372.668, 0.0, 9.999514, 9.999803 
5.649796e+2, 1.8534917e+2, -1190835.9, -1166035.5, 5185.01, -0.009687477, 0.16831228, -1164995.1, -41402.12, 0.0, 9.999595, 9.999924 
5.6498766e+2, 1.9534932e+2, -1063613.5, -1051382.5, -7789.01, -0.0061219847, 0.18696268, -1047595.06, -22003.326, 0.0, 9.999785, 9.999946 
5.6499535e+2, 2.053489e+2, -950105.1, -947576.25, -33007.758, -0.0016308515, 0.15093584, -915808.75, 11785.625, 0.0, 9.999899, 9.999931 
5.6500286e+2, 2.1534795e+2, -843920.8, -844989.94, -32729.93, 0.008064524, 0.0591354, -811721.06, 17879.377, 0.0, 9.999953, 9.999936 
5.650105e+2, 2.2534756e+2, -769761.5, -820499.0, -14008.996, 0.010121621, 0.057962235, -766150.5, -34546.53, 0.0, 10.000057, 9.999381 
5.6501824e+2, 2.3534769e+2, -647850.56, -707638.94, -7464.434, 0.00438704, 0.12737331, -646932.75, -13327.255, 0.0, 10.000207, 9.999411 
5.65026e+2, 2.4534757e+2, -524014.1, -586502.6, -13237.378, 0.008104778, 0.17109513, -521325.6, 14282.168, 0.0, 10.000339, 9.999506 
5.6503385e+2, 2.5534728e+2, -407608.75, -478615.88, -24992.518, 0.020394154, 0.18544793, -399694.22, 37916.496, 0.0, 10.00046, 9.999516 
5.650413e+2, 2.6534632e+2, -324772.34, -435912.8, -37830.734, 0.01606413, 0.16225173, -313117.47, 26501.977, 0.0, 10.000566, 9.999084 
5.6504846e+2, 2.7534476e+2, -214714.89, -331581.8, -26815.56, -0.0035693315, 0.09173567, -208855.7, 32778.254, 0.0, 10.000647, 9.999087 
5.6505597e+2, 2.8534368e+2, -124162.836, -281497.53, -12739.176, -0.011939637, 0.09801606, -123138.04, 20506.385, 0.0, 10.000785, 9.998693 
5.650637e+2, 2.9534328e+2, 5030.1777, -164479.77, -22397.93, -0.009933215, 0.18552795, 7939.7515, 53588.86, 0.0, 10.00098, 9.998731 
5.650726e+2, 3.0534148e+2, 102108.89, -85937.766, -11168.746, 0.07089302, 0.12844262, 102769.914, 102769.914, 0.0, 10.001283, 9.998792 
5.650798e+2, 3.1533983e+2, 165281.39, -42733.223, -4092.984, -0.015718678, 0.08539219, 165361.89, 165361.89, 0.000000017271022, 10.00166, 9.998907 
5.7492673e+2, 1.2534127e+2, -1779452.9, -1697682.6, -158929.16, 0.07270713, 0.18847698, -1574463.9, 137204.75, 0.00000019303324, 9.999386, 10.000394 
5.749348e+2, 1.3534002e+2, -1657887.6, -1601755.3, 158836.64, -0.22967595, 0.022504414, -1468524.3, 145153.86, 0.000000007774616, 9.999529, 10.000352 
5.7494956e+2, 1.4534055e+2, -1602423.0, -1593375.5, 23052.244, 0.190434, 0.07739284, -1574407.4, -58734.133, 0.0, 9.999572, 9.999694 
5.749551e+2, 1.5534082e+2, -1500198.3, -1486883.1, -32161.98, -0.0115145845, 0.12851468, -1460696.9, -43023.453, 0.0, 9.9995775, 9.999745 
5.7496214e+2, 1.653411e+2, -1373578.0, -1324284.4, -4614.943, -0.07647905, 0.15845647, -1323856.0, -4184.4204, 0.0, 9.999554, 10.000202 
5.749713e+2, 1.7534143e+2, -1281499.8, -1229303.6, 14110.194, 0.016367627, 0.1677548, -1225733.4, -4065.8215, 0.0, 9.999514, 10.000201 
5.749797e+2, 1.8534133e+2, -1213568.1, -1212166.4, 11805.06, 0.038846225, 0.16863783, -1201041.4, -77372.445, 0.0, 9.999591, 9.999609 
5.7498735e+2, 1.9534083e+2, -1085620.1, -1095729.9, -518.9856, -0.0123612955, 0.15346643, -1085593.6, -59918.348, 0.0, 9.99978, 9.999644 
5.749951e+2, 2.053405e+2, -950127.9, -946737.4, -31721.006, -0.016093815, 0.14200978, -916666.4, 11011.333, 0.0, 9.999895, 9.999939 
5.7500297e+2, 2.1534032e+2, -843307.7, -842856.56, -30181.941, 0.026102528, 0.12565261, -812899.3, 16777.639, 0.0, 9.999949, 9.999953 
5.750108e+2, 2.2533995e+2, -756803.3, -792729.2, -8929.531, 0.031468946, 0.11401096, -754706.25, -23026.473, 0.0, 10.000053, 9.999574 
5.750184e+2, 2.353394e+2, -636169.25, -682294.94, -1343.2843, 0.004024435, 0.09837364, -636130.2, -2444.359, 0.0, 10.000202, 9.999587 
5.7502604e+2, 2.4533914e+2, -544827.8, -629217.5, -9318.14, -0.022447478, 0.13304505, -543811.2, -8121.3447, 0.0, 10.000336, 9.999213 
5.750336e+2, 2.5533912e+2, -427852.1, -519834.38, -19937.871, -0.047395207, 0.20574175, -423716.38, 13975.626, 0.0, 10.000456, 9.999234 
5.750416e+2, 2.6533824e+2, -306528.16, -397048.1, -35106.586, -0.018808644, 0.19190712, -294508.66, 45191.004, 0.0, 10.000561, 9.999353 
5.750497e+2, 2.7533662e+2, -196597.5, -292950.38, -23344.865, 0.05444315, 0.08459679, -191239.34, 50473.625, 0.0, 10.000642, 9.999355 
5.7505727e+2, 2.8533533e+2, -145153.14, -324415.97, -6401.6006, 0.038940903, 0.072506815, -144924.83, -1199.507, 0.0, 10.000781, 9.998402 
5.7506424e+2, 2.953347e+2, -16498.84, -209310.38, -13709.275, -0.051883716, 0.16235143, -15528.962, 30205.43, 0.0, 10.00098, 9.998423 
5.750736e+2, 3.0533332e+2, 111473.13, -65334.176, 2469.1707, 0.0467463, 0.15922818, 111507.61, 111507.61, 0.00000000021282408, 10.001278, 9.998936 
5.750825e+2, 3.1533146e+2, 173819.05, -20420.164, 17122.953, 0.0798017, 0.07527775, 175316.95, 175316.95, 0.0000000699572, 10.001641, 9.999068 
5.849261e+2, 1.2533306e+2, -1757512.0, -1669127.5, -132715.63, 0.072410844, 0.19060989, -1573439.9, 138310.16, 0.00000011738098, 9.999462, 10.000551 
5.849344e+2, 1.3533202e+2, -1652232.3, -1582824.4, 139143.31, -0.21883161, 0.03139527, -1474122.5, 139633.84, 0.0000000014227642, 9.999501, 10.000493 
5.849493e+2, 1.4533246e+2, -1627485.4, -1611425.3, 2683.7817, 0.21393032, 0.074547045, -1610988.8, -95236.66, 0.0, 9.999427, 9.999639 
5.8495444e+2, 1.553327e+2, -1539500.4, -1512044.3, -19938.117, -0.015007604, 0.12708758, -1501565.1, -83812.12, 0.0, 9.999335, 9.99969 
5.8496153e+2, 1.653329e+2, -1390610.8, -1335011.8, 12193.922, -0.08544341, 0.15312494, -1332455.0, -12703.071, 0.0, 9.999446, 10.00018 
5.849711e+2, 1.753331e+2, -1249612.3, -1216266.1, -3699.2637, 0.027633637, 0.15261187, -1215860.8, 5888.0566, 0.0, 9.9997425, 10.000179 
5.8497953e+2, 1.8533295e+2, -1178836.9, -1197391.8, -11732.077, 0.053090926, 0.15100186, -1173157.3, -49406.953, 0.0, 9.999839, 9.99959 
5.849871e+2, 1.9533245e+2, -1091619.0, -1101044.9, -2569.7334, -0.013586608, 0.13912772, -1090964.0, -65207.62, 0.0, 9.99975, 9.999621 
5.849949e+2, 2.053322e+2, -966178.5, -972709.7, -24493.918, -0.02041503, 0.14294541, -944733.44, -16974.44, 0.0, 9.999865, 9.999775 
5.8500314e+2, 2.153321e+2, -822819.3, -850109.2, -37531.2, 0.03029826, 0.15249248, -796529.6, 33229.223, 0.0, 10.000164, 9.999799 
5.85011e+2, 2.2533178e+2, -718404.75, -757346.06, -28952.25, 0.035829622, 0.14381912, -702985.06, 28776.307, 0.0, 10.000244, 9.999725 
5.850186e+2, 2.3533121e+2, -635977.2, -665758.8, -25198.824, 0.00043116353, 0.110479705, -621598.25, 12168.045, 0.0, 10.000133, 9.999735 
5.8502626e+2, 2.4533078e+2, -560594.9, -629738.6, -14101.1875, -0.028435953, 0.11837682, -557829.7, -22058.72, 0.0, 10.000197, 9.999277 
5.85034e+2, 2.5533047e+2, -429973.94, -513516.6, 1181.3773, -0.051479056, 0.15606005, -429957.22, 7818.0396, 0.0, 10.000411, 9.999299 
5.850422e+2, 2.6532978e+2, -301889.9, -403642.53, -13965.041, -0.016090155, 0.15635286, -300008.06, 39773.836, 0.0, 10.000631, 9.999273 
5.850506e+2, 2.7532858e+2, -169291.55, -289616.8, -29583.525, 0.06940382, 0.1078155, -162411.45, 79379.914, 0.0, 10.000871, 9.999269 
5.850584e+2, 2.8532726e+2, -99477.09, -312050.22, -14274.271, 0.061667167, 0.09851838, -98522.86, 45281.863, 0.0, 10.001136, 9.998316 
5.850657e+2, 2.9532602e+2, 37326.57, -194002.61, -8466.391, -0.026461719, 0.1390073, 37636.016, 83455.36, 0.0, 10.001396, 9.998327 
5.850751e+2, 3.053249e+2, 124816.01, -67524.09, 4117.7744, 0.05641498, 0.17179267, 124904.125, 124904.125, 0.000000006848287, 10.001408, 9.9988575 
5.850838e+2, 3.15323e+2, 119676.14, -41144.973, 6453.3755, 0.0715992, 0.087225415, 119934.69, 119934.69, 0.00000018333391, 10.0012455, 9.999117 
5.949254e+2, 1.2532426e+2, -1777520.3, -1713011.8, -121670.15, 0.052063752, 0.11899809, -1619393.3, 92441.54, 0.000000058921596, 9.99947, 10.000247 
5.9493405e+2, 1.3532476e+2, -1672115.6, -1624886.3, 139403.81, -0.20297109, 0.14249499, -1507111.1, 106718.79, 0.000000000010343272, 9.999504, 10.000203 
5.949491e+2, 1.4532533e+2, -1599968.9, -1553837.0, -2184.1147, 0.25088125, 0.19174856, -1553733.9, -37909.508, 0.0, 9.999424, 10.000035 
5.949539e+2, 1.5532474e+2, -1513929.0, -1459015.1, -22034.23, -0.001478468, 0.123096, -1451267.0, -33436.965, 0.0, 9.999334, 10.000055 
5.9496087e+2, 1.6532433e+2, -1425121.1, -1405656.1, 22787.857, -0.09765138, 0.0949399, -1390609.5, -70775.11, 0.0, 9.999442, 9.999698 
5.9497046e+2, 1.7532407e+2, -1281093.3, -1281865.0, 7474.6406, -0.003161935, 0.09476115, -1273994.5, -52157.28, 0.0, 9.9997425, 9.999729 
5.9497917e+2, 1.8532406e+2, -1159316.8, -1156491.0, -15548.09, 0.02865932, 0.11478498, -1142291.8, -18454.44, 0.0, 9.999837, 9.999872 
5.9498686e+2, 1.9532427e+2, -1073369.3, -1063191.3, -5089.8794, -0.012664409, 0.14482343, -1061082.6, -35247.74, 0.0, 9.999749, 9.999882 
5.949949e+2, 2.0532401e+2, -990774.44, -1022565.9, -13884.56, -0.017244337, 0.1544432, -985564.3, -57726.25, 0.0, 9.99986, 9.999434 
5.950031e+2, 2.1532333e+2, -846687.25, -898061.7, -26223.092, 0.018208854, 0.13894434, -835666.4, -5820.245, 0.0, 10.000157, 9.999473 
5.9501106e+2, 2.2532307e+2, -711483.44, -741618.75, -33961.117, 0.02026685, 0.1463643, -689397.5, 42451.242, 0.0, 10.000237, 9.999836 
5.950186e+2, 2.3532312e+2, -628178.2, -648813.06, -28557.242, -0.009775867, 0.16408925, -608131.75, 25715.06, 0.0, 10.000129, 9.999853 
5.950266e+2, 2.4532251e+2, -531998.44, -569620.3, -6476.013, -0.013903641, 0.12812579, -530914.94, 4936.0957, 0.0, 10.000195, 9.999692 
5.9503496e+2, 2.5532135e+2, -402562.8, -455645.75, 9506.145, 0.0048908517, 0.03830207, -400911.78, 36948.637, 0.0, 10.000407, 9.999698 
5.950431e+2, 2.653208e+2, -331726.66, -465089.06, -5827.1523, 0.021580363, 0.05705536, -331472.53, 8393.615, 0.0, 10.000628, 9.998854 
5.9505117e+2, 2.753207e+2, -198871.45, -350599.0, -19782.479, 0.036777508, 0.15899578, -196334.6, 45534.668, 0.0, 10.000868, 9.998852 
5.9505945e+2, 2.8531945e+2, -93900.72, -299082.66, -5075.001, 0.050996635, 0.17346886, -93775.266, 50107.54, 0.0, 10.001129, 9.998408 
5.95068e+2, 2.9531738e+2, 41849.72, -181496.86, 395.6614, 0.06208665, 0.118649326, 41850.418, 87754.17, 0.0, 10.001384, 9.99842 
5.9507686e+2, 3.053164e+2, 103475.125, -108928.336, -3190.945, 0.09788982, 0.17106508, 103523.055, 103523.055, 0.000000033052434, 10.001395, 9.99858 
5.9508395e+2, 3.1531453e+2, 117137.43, -45484.97, 8168.546, -0.0466594, 0.12398087, 117546.71, 117546.71, 0.00000037488923, 10.001242, 9.999088 
6.04925e+2, 1.2531544e+2, -1796018.0, -1737409.5, -141716.05, 0.06619398, 0.08682367, -1621999.6, 89920.945, 0.000000021349177, 9.999412, 10.000108 
6.049333e+2, 1.3531637e+2, -1708018.5, -1656530.9, 116092.88, -0.21485834, 0.16811909, -1563361.8, 50551.375, 0.0, 9.999322, 10.000073 
6.049485e+2, 1.4531696e+2, -1587315.0, -1532214.4, -20179.717, 0.2498738, 0.21891747, -1525614.5, -9706.784, 0.0, 9.999445, 10.000174 
6.0495365e+2, 1.553164e+2, -1419262.1, -1398209.4, -59662.895, 0.012298035, 0.1388112, -1348151.4, 69761.08, 0.0, 9.999921, 10.000189 
6.049607e+2, 1.6531596e+2, -1348767.1, -1382416.1, -14207.937, -0.088877484, 0.106784746, -1343570.5, -23653.553, 0.0, 10.000025, 9.999576 
6.0497016e+2, 1.7531559e+2, -1286285.9, -1297255.0, -3790.365, -0.013085328, 0.10907086, -1285103.5, -63182.14, 0.0, 9.9997635, 9.999613 
6.0497886e+2, 1.8531549e+2, -1165158.0, -1150053.0, -19466.719, 0.02098652, 0.1217684, -1136725.1, -12803.108, 0.0, 9.999757, 9.999955 
6.049869e+2, 1.9531563e+2, -1032055.75, -1034396.75, -25432.617, -0.0020523707, 0.13615833, -1007766.7, 18152.516, 0.0, 9.999996, 9.999961 
6.049949e+2, 2.0531538e+2, -973088.56, -1011278.44, -27992.125, -0.006890509, 0.14210737, -958298.75, -30376.777, 0.0, 9.9999695, 9.99946 
6.05003e+2, 2.1531479e+2, -912806.06, -927997.56, -13455.895, 0.012183262, 0.1330577, -904950.06, -75020.42, 0.0, 9.999695, 9.999491 
6.0501105e+2, 2.2531451e+2, -781926.5, -786083.2, -9826.725, 0.019412719, 0.14455011, -773960.75, -42028.21, 0.0, 9.9998, 9.999742 
6.05019e+2, 2.353145e+2, -618665.6, -654434.0, -21425.604, 0.01269722, 0.1640952, -608641.0, 25290.549, 0.0, 10.000239, 9.999761 
6.0502714e+2, 2.4531384e+2, -500333.2, -553878.1, -25120.117, 0.011589817, 0.12612613, -490393.47, 45542.64, 0.0, 10.00041, 9.999696 
6.050355e+2, 2.5531265e+2, -411718.47, -460787.22, -41143.984, 0.01597108, 0.03228092, -388349.16, 49596.17, 0.0, 10.000347, 9.999693 
6.0504377e+2, 2.653121e+2, -341978.7, -484000.1, -47251.184, 0.021648042, 0.058886446, -327694.63, 12256.637, 0.0, 10.000615, 9.998732 
6.0505205e+2, 2.7531204e+2, -164284.84, -346536.72, -40344.01, 0.028341208, 0.17824829, -155753.48, 86201.52, 0.0, 10.001159, 9.99874 
6.0506064e+2, 2.8531072e+2, -51025.625, -261089.23, -21762.387, 0.043876447, 0.18192206, -48794.754, 95174.375, 0.0, 10.001349, 9.998564 
6.0506934e+2, 2.9530844e+2, 31102.496, -172677.78, -13605.554, 0.064585455, 0.091080785, 32006.867, 77997.53, 0.00000000003092486, 10.001247, 9.998547 
6.0507816e+2, 3.053077e+2, 80523.55, -147828.6, -13755.143, 0.09671505, 0.174622, 81349.125, 81349.125, 0.00000008707832, 10.001357, 9.99833 
6.050854e+2, 3.1530604e+2, 179282.16, -10820.658, 555.94086, -0.04450278, 0.17139456, 179283.78, 179283.78, 0.0000006525611, 10.00165, 9.99913 
6.149249e+2, 1.2530665e+2, -1794982.0, -1735385.4, -135616.86, 0.11530038, 0.09956833, -1626331.8, 85675.086, 0.0000000039655865, 9.999411, 10.000122 
6.149322e+2, 1.3530686e+2, -1707115.9, -1653423.1, 111728.76, -0.25889915, 0.10752768, -1565360.6, 48645.07, 0.0, 9.999317, 10.000096 
6.1494756e+2, 1.4530735e+2, -1596435.0, -1551523.0, -4649.99, 0.20474184, 0.15389173, -1551046.6, -35044.563, 0.0, 9.999445, 10.000041 
6.1495376e+2, 1.5530767e+2, -1426239.6, -1414529.0, -41701.965, 0.022721862, 0.17318042, -1378273.4, 39726.785, 0.0, 9.999927, 10.000075 
6.14961e+2, 1.6530778e+2, -1331293.6, -1346378.8, -24576.684, -0.06335047, 0.18964949, -1313128.1, 6871.7114, 0.0, 10.000026, 9.999823 
6.1496997e+2, 1.7530769e+2, -1269969.4, -1263599.1, -12870.189, -0.004601512, 0.19636422, -1253525.9, -31524.742, 0.0, 9.999764, 9.999844 
6.149787e+2, 1.8530726e+2, -1175031.8, -1169620.6, -11445.0, 0.026775436, 0.17214829, -1160565.8, -36561.508, 0.0, 9.999753, 9.999823 
6.14987e+2, 1.9530654e+2, -1040105.9, -1050916.9, -16528.918, 0.01546137, 0.11217511, -1028121.0, -2111.7861, 0.0, 9.999994, 9.999848 
6.14995e+2, 2.053063e+2, -946405.2, -954460.0, -39077.383, 0.007137836, 0.104626745, -911148.25, 16862.547, 0.0, 9.999963, 9.999852 
6.150027e+2, 2.153065e+2, -887097.56, -873799.1, -22662.61, 0.008523162, 0.13555592, -856830.44, -26821.072, 0.0, 9.999691, 9.999865 
6.15011e+2, 2.2530618e+2, -804589.3, -831709.2, 5988.6606, 0.029395675, 0.14006683, -803325.75, -71313.14, 0.0, 9.999793, 9.999432 
6.150198e+2, 2.3530537e+2, -640482.3, -699082.06, -4991.6187, 0.06581891, 0.11103495, -640060.2, -6039.7944, 0.0, 10.0002365, 9.999455 
6.150279e+2, 2.4530475e+2, -529267.44, -613589.06, -28249.596, 0.04631701, 0.11200226, -520678.13, 15348.095, 0.0, 10.000408, 9.999287 
6.150355e+2, 2.553043e+2, -439820.44, -519016.7, -42153.633, -0.021890583, 0.13501064, -421583.1, 16447.057, 0.0, 10.000346, 9.999293 
6.15044e+2, 2.653036e+2, -330748.84, -460166.78, -26926.094, -0.020465743, 0.15965027, -325370.25, 14667.072, 0.0, 10.000612, 9.998897 
6.1505336e+2, 2.7530268e+2, -152545.39, -320285.9, -20275.674, 0.041796703, 0.16921662, -150129.36, 91918.8, 0.0, 10.00115, 9.998925 
6.1506194e+2, 2.853011e+2, -36480.74, -229068.02, -26270.58, 0.039127883, 0.12831299, -32961.51, 111101.69, 0.0, 10.001341, 9.998788 
6.150697e+2, 2.952992e+2, 44034.363, -145373.36, -16039.8545, -0.022432672, 0.054438513, 45383.082, 91463.18, 0.0000000010306047, 10.0012455, 9.998735 
6.150791e+2, 3.052988e+2, 61333.336, -186167.75, -3577.1504, 0.04663537, 0.17865221, 61385.027, 61385.027, 0.00000016756015, 10.001351, 9.99807 
6.150881e+2, 3.1529745e+2, 181578.73, -989.2175, 15997.257, 0.06683272, 0.22870132, 182969.88, 182969.88, 0.000001002472, 10.00163, 9.999207 
6.249242e+2, 1.2529783e+2, -1796930.3, -1717325.5, -142328.28, 0.108881444, 0.13767624, -1609338.9, 102755.734, 0.00000000008306351, 9.999312, 10.000295 
6.249316e+2, 1.3529775e+2, -1688676.3, -1622654.6, 100883.195, -0.25592163, 0.09423463, -1549518.6, 64576.164, 0.0, 9.999349, 10.000292 
6.2494695e+2, 1.4529803e+2, -1629985.0, -1574631.4, 4541.429, 0.21143226, 0.116089694, -1574261.3, -58168.664, 0.0, 9.999244, 9.99998 
6.2495327e+2, 1.5529862e+2, -1541212.3, -1475768.8, -27234.95, 0.018979516, 0.16812721, -1465917.6, -47828.664, 0.0, 9.999163, 10.000023 
6.2496066e+2, 1.6529897e+2, -1437358.4, -1384278.0, -19840.053, -0.06368113, 0.20517984, -1377682.0, -57595.293, 0.0, 9.999242, 9.999941 
6.249698e+2, 1.752991e+2, -1304219.6, -1267003.6, -19140.469, 0.014728587, 0.22097163, -1258916.8, -36830.895, 0.0, 9.999474, 9.99996 
6.249786e+2, 1.8529867e+2, -1194604.1, -1172995.0, -8588.398, 0.046717133, 0.18711656, -1169997.5, -45908.42, 0.0, 9.999591, 9.999878 
6.249868e+2, 1.9529772e+2, -1095371.8, -1072013.8, -896.1633, 0.015603335, 0.10043089, -1071979.4, -45883.703, 0.0, 9.99959, 9.999899 
6.249948e+2, 2.0529751e+2, -973578.75, -970778.8, -35025.934, 0.0060638143, 0.09498158, -937124.9, -9028.03, 0.0, 9.999789, 9.999825 
6.2500274e+2, 2.1529795e+2, -818568.44, -844082.94, -51599.766, 0.022395834, 0.15343498, -778172.3, 51920.887, 0.0, 10.000176, 9.999835 
6.250111e+2, 2.2529759e+2, -728505.3, -805483.1, -22386.48, 0.037913572, 0.1586409, -722468.4, 9628.753, 0.0, 10.000361, 9.999338 
6.250199e+2, 2.3529644e+2, -629619.75, -705210.94, -18535.21, 0.050155308, 0.10710978, -625319.5, 8788.529, 0.0, 10.00036, 9.999354 
6.2502825e+2, 2.4529572e+2, -510419.34, -629709.25, -25541.637, 0.02891238, 0.113232575, -505180.56, 30934.86, 0.0, 10.000645, 9.999063 
6.250362e+2, 2.552953e+2, -333355.6, -492018.1, -27174.135, -0.021781318, 0.16369778, -328830.53, 109289.19, 0.0, 10.001182, 9.999076 
6.2504494e+2, 2.652945e+2, -242236.22, -412035.03, -15614.783, -0.01835324, 0.18147457, -240812.22, 99315.945, 0.0, 10.001198, 9.998945 
6.250542e+2, 2.7529323e+2, -206543.4, -341287.97, -18853.879, 0.03229783, 0.15643342, -203955.03, 38185.805, 0.0, 10.000757, 9.99897 
6.2506294e+2, 2.852917e+2, -101856.5, -261063.27, -29563.396, 0.027385563, 0.115309395, -96544.08, 47611.227, 0.0, 10.000894, 9.998783 
6.2507105e+2, 2.9529005e+2, 85027.76, -127648.336, -38233.07, -0.028025717, 0.067536086, 91692.13, 137862.08, 0.000000004235602, 10.001535, 9.998717 
6.2508065e+2, 3.0528933e+2, 112978.31, -192950.63, -36371.19, 0.042779196, 0.17746893, 117242.945, 117242.945, 0.000000262113, 10.001842, 9.997787 
6.2509e+2, 3.1528756e+2, 217057.13, 17344.969, -17008.385, 0.08160236, 0.21228306, 218495.27, 218495.27, 0.0000013873902, 10.001864, 9.99922 
6.349229e+2, 1.25289e+2, -1771874.0, -1666963.3, -129337.08, 0.041314587, 0.20011304, -1579849.1, 132334.92, 0.0, 9.999316, 10.00064 
6.349314e+2, 1.35289e+2, -1662445.3, -1568477.1, 100148.24, -0.20865463, 0.12837932, -1504839.4, 109340.91, 0.0, 9.99935, 10.000663 
6.3494676e+2, 1.4528905e+2, -1629656.5, -1573583.9, -1545.8689, 0.26718634, 0.10672323, -1573541.4, -57362.156, 0.0, 9.999243, 9.999988 
6.349522e+2, 1.5528928e+2, -1541411.8, -1475163.6, -29726.719, -0.0021938162, 0.12293587, -1463780.6, -45601.883, 0.0, 9.999158, 10.00003 
6.349595e+2, 1.6528954e+2, -1439020.3, -1386795.4, -12039.773, -0.09537926, 0.15161715, -1384153.5, -63975.945, 0.0, 9.999237, 9.999926 
6.3496953e+2, 1.752898e+2, -1304277.4, -1267973.6, -10171.154, 0.041455, 0.1811689, -1265318.3, -43142.297, 0.0, 9.999476, 9.999953 
6.349785e+2, 1.8528967e+2, -1178460.0, -1138499.9, -9307.958, 0.07635333, 0.16548996, -1136438.1, -12261.838, 0.0, 9.999588, 10.000115 
6.349862e+2, 1.9528918e+2, -1080247.0, -1040150.44, -318.96344, -0.0047257403, 0.10173042, -1040147.94, -13969.503, 0.0, 9.999588, 10.000118 
6.349944e+2, 2.0528905e+2, -1006365.94, -1037807.7, -21431.205, -0.014128228, 0.114225775, -995507.8, -67327.82, 0.0, 9.999784, 9.999367 
6.3500315e+2, 2.1528916e+2, -849632.06, -908314.2, -37011.11, 0.051018022, 0.18509237, -831742.6, -1561.3872, 0.0, 10.0001745, 9.999394 
6.3501155e+2, 2.2528872e+2, -721204.5, -788773.5, -23165.14, 0.041860595, 0.19791019, -714025.4, 18160.818, 0.0, 10.000355, 9.999455 
6.350194e+2, 2.3528774e+2, -622074.56, -688902.1, -17373.973, -0.03691366, 0.15161109, -617827.5, 16366.974, 0.0, 10.000356, 9.999468 
6.350282e+2, 2.4528676e+2, -514806.9, -637869.6, -5799.7866, -0.04452155, 0.1304098, -514534.16, 21669.434, 0.0, 10.000641, 9.999009 
6.350377e+2, 2.552857e+2, -337152.7, -498742.75, -7563.627, 0.013253104, 0.12145486, -336799.4, 101414.27, 0.0, 10.001177, 9.999032 
6.3504654e+2, 2.6528472e+2, -247520.17, -422146.22, -32566.705, 0.025245339, 0.1273872, -241644.38, 98579.13, 0.0, 10.001193, 9.9988785 
6.3505465e+2, 2.7528375e+2, -212140.16, -352856.1, -33302.168, -0.004267077, 0.13816884, -204656.75, 37576.43, 0.0, 10.000756, 9.998892 
6.350636e+2, 2.8528246e+2, -118659.86, -295466.06, -5454.5454, 0.0030389735, 0.1388012, -118491.74, 25753.984, 0.0, 10.000891, 9.9985485 
6.350733e+2, 2.9528096e+2, 67419.664, -161588.67, -13901.691, 0.043488387, 0.13124956, 68260.46, 114520.445, 0.000000008608103, 10.001525, 9.998489 
6.350829e+2, 3.0527934e+2, 90710.76, -236734.02, -35574.473, 0.08219473, 0.17585196, 94531.086, 94531.086, 0.00000035003856, 10.00183, 9.997493 
6.35091e+2, 3.152764e+2, 213439.22, 12302.148, -11011.019, -0.0052845227, 0.12403824, 214040.2, 214040.2, 0.0000017531552, 10.001854, 9.999191 
6.4492184e+2, 1.2527953e+2, -1797902.3, -1678951.4, -99586.664, 0.013750283, 0.18251365, -1622431.8, 89844.78, 0.0, 9.999134, 10.000647 
6.4493066e+2, 1.3528003e+2, -1693174.1, -1578019.3, 85727.85, -0.20096105, 0.15583685, -1532328.0, 81940.945, 0.0, 9.99912, 10.000707 
6.449461e+2, 1.4528006e+2, -1645205.1, -1567062.0, -21303.486, 0.28531587, 0.12427227, -1561631.6, -45363.95, 0.0, 9.999077, 10.000113 
6.449515e+2, 1.5528008e+2, -1527513.8, -1454752.3, -40687.27, 0.015123455, 0.10793215, -1436552.6, -18284.596, 0.0, 9.999195, 10.000151 
6.44959e+2, 1.6528021e+2, -1409449.3, -1371447.8, -6775.7285, -0.08635155, 0.11636621, -1370275.8, -50008.137, 0.0, 9.999434, 9.999937 
6.449691e+2, 1.7528038e+2, -1262449.8, -1247283.1, -4955.7983, 0.037566505, 0.1359531, -1245807.4, -23540.629, 0.0, 9.999761, 9.999959 
6.449781e+2, 1.8528046e+2, -1150449.9, -1139175.5, -29524.48, 0.06974527, 0.14745621, -1114754.9, 9511.0205, 0.0, 9.999842, 9.999989 
6.4498585e+2, 1.9528048e+2, -1070499.1, -1048782.8, -49006.61, -0.0071137366, 0.14532489, -1009445.8, 16819.19, 0.0, 9.999715, 9.999997 
6.449942e+2, 2.0528021e+2, -1004874.44, -1037121.9, -49721.617, -0.012971482, 0.15418823, -968727.56, -40459.93, 0.0, 9.999796, 9.999366 
6.450034e+2, 2.1527971e+2, -867032.6, -917403.06, -32726.803, 0.054868806, 0.16212846, -850922.06, -20648.203, 0.0, 10.000058, 9.999389 
6.4501184e+2, 2.2527915e+2, -726795.7, -795796.1, -14410.344, 0.041428797, 0.1686465, -723907.1, 8372.251, 0.0, 10.000334, 9.999418 
6.4501977e+2, 2.352786e+2, -586122.7, -675178.4, -21822.828, -0.048769083, 0.16692911, -581062.56, 53221.64, 0.0, 10.000619, 9.999434 
6.4502877e+2, 2.4527773e+2, -505479.97, -622953.5, -7792.9746, -0.051426176, 0.15388887, -504965.25, 31326.963, 0.0, 10.000661, 9.999101 
6.450387e+2, 2.5527656e+2, -432447.72, -535067.0, -48.89582, 0.024683928, 0.120705694, -432447.72, 5855.6333, 0.0, 10.000481, 9.999118 
6.4504766e+2, 2.6527542e+2, -319605.56, -467805.4, -23213.957, 0.039645564, 0.114909165, -316054.44, 24259.734, 0.0, 10.000747, 9.998779 
6.450557e+2, 2.7527437e+2, -124046.125, -321531.78, -27470.791, 0.00021761071, 0.12442739, -120296.08, 122028.83, 0.0, 10.001411, 9.998791 
6.4506483e+2, 2.8527308e+2, -21287.035, -270205.97, 6835.256, 0.004045216, 0.14325224, -21099.482, 123238.016, 0.0, 10.001654, 9.998355 
6.4507484e+2, 2.9527172e+2, 52330.258, -189415.72, -12.226068, 0.045791972, 0.16967057, 52330.258, 98681.3, 0.000000011710588, 10.001509, 9.998305 
6.4508444e+2, 3.0526963e+2, 46824.734, -253332.38, -11477.2295, 0.074455805, 0.17012526, 47262.957, 47262.957, 0.00000040808163, 10.001508, 9.997534 
6.450927e+2, 3.1526655e+2, 197045.14, 23445.76, 37314.945, -0.010226151, 0.09791207, 204726.1, 204726.1, 0.0000020409286, 10.001658, 9.999363 
6.549211e+2, 1.2526944e+2, -1821397.8, -1729202.3, -88117.375, 0.028918924, 0.08174579, -1675853.1, 36518.88, 0.0, 9.999139, 10.0003 
6.5492946e+2, 1.3527083e+2, -1715670.4, -1622679.8, 82708.625, -0.23805502, 0.17539482, -1574293.4, 40066.87, 0.0, 9.999112, 10.000403 
6.5494496e+2, 1.4527108e+2, -1629093.9, -1532180.1, -20380.318, 0.25987467, 0.16740789, -1528068.8, -11710.698, 0.0, 9.99907, 10.000355 
6.549512e+2, 1.5527107e+2, -1510843.5, -1420885.5, -35507.895, 0.067368716, 0.123668365, -1408559.0, 9797.681, 0.0, 9.999197, 10.000383 
6.5495884e+2, 1.65271e+2, -1407456.8, -1367580.4, 4573.882, -0.04022613, 0.10060791, -1367062.5, -46705.777, 0.0, 9.999435, 9.999963 
6.549685e+2, 1.7527084e+2, -1261529.9, -1245628.3, 6853.6323, 0.0000017149403, 0.08489391, -1243082.0, -20723.764, 0.0, 9.999761, 9.99997 
6.549775e+2, 1.8527102e+2, -1185570.9, -1211310.9, -35604.82, 0.022354376, 0.13202018, -1160581.4, -36223.516, 0.0, 9.999838, 9.9994955 
6.5498567e+2, 1.9527155e+2, -1103512.6, -1117279.5, -53268.082, 0.006107262, 0.22933394, -1056685.0, -30329.588, 0.0, 9.999714, 9.999528 
6.549942e+2, 2.0527104e+2, -974525.2, -972657.2, -40501.844, 0.006643615, 0.21335037, -933078.56, -4718.643, 0.0, 9.99979, 9.99981 
6.550032e+2, 2.1526961e+2, -837565.44, -855537.75, -22388.078, 0.03137431, 0.08508492, -822427.4, 7943.544, 0.0, 10.000054, 9.999815 
6.550121e+2, 2.2526897e+2, -741212.75, -824507.4, -4529.977, 0.03278664, 0.07201294, -740967.1, -8590.741, 0.0, 10.000328, 9.999224 
6.55021e+2, 2.3526905e+2, -598949.6, -701877.56, -11119.371, 0.011667888, 0.15294062, -597762.06, 36614.99, 0.0, 10.000619, 9.999252 
6.5502995e+2, 2.4526864e+2, -490001.88, -589931.06, -15101.404, 0.0041693025, 0.18249124, -487769.6, 48611.773, 0.0, 10.000656, 9.99933 
6.55039e+2, 2.552678e+2, -417507.4, -503116.88, -5399.491, 0.009826382, 0.1593624, -417168.2, 21220.6, 0.0, 10.000476, 9.999339 
6.550482e+2, 2.6526657e+2, -329924.22, -488168.34, 1430.6425, 0.022655077, 0.14164427, -329911.28, 10488.95, 0.0, 10.000742, 9.998642 
6.5505755e+2, 2.75265e+2, -134684.47, -341584.47, -2523.0347, 0.041742425, 0.1172401, -134653.7, 107762.055, 0.0, 10.001403, 9.998656 
6.550667e+2, 2.8526357e+2, -32972.81, -293065.13, 1125.5785, 0.02549586, 0.13281378, -32967.938, 111462.305, 0.0, 10.001646, 9.998201 
6.550756e+2, 2.9526237e+2, 41705.61, -210125.06, -4404.4097, -0.02347771, 0.18337159, 41782.617, 88225.734, 0.000000011654482, 10.001502, 9.998167 
6.550854e+2, 3.0526006e+2, 71907.375, -199478.08, -6312.5664, 0.01728035, 0.15738322, 72054.13, 72054.13, 0.00000041978168, 10.001501, 9.997907 
6.550951e+2, 3.1525776e+2, 220667.92, 77025.13, 45611.848, 0.058644004, 0.12576051, 233927.39, 233927.39, 0.000002202322, 10.00164, 9.999739 
6.649204e+2, 1.2526008e+2, -1847235.8, -1767976.8, -69601.24, 0.048690766, 0.04502281, -1727513.6, -15051.862, 0.0, 9.999073, 10.000067 
6.6492814e+2, 1.3526161e+2, -1766292.8, -1667741.6, 91132.43, -0.26089093, 0.17403008, -1613416.0, 1034.6814, 0.0, 9.9988575, 10.0002165 
6.649436e+2, 1.4526188e+2, -1647462.0, -1537497.4, 2969.447, 0.22795214, 0.17604317, -1537417.3, -20968.346, 0.0, 9.998929, 10.000386 
6.649507e+2, 1.5526201e+2, -1472898.9, -1399458.5, -27438.162, 0.08504078, 0.14255756, -1390339.6, 28106.16, 0.0, 9.999444, 10.000411 
6.649586e+2, 1.6526195e+2, -1393529.1, -1368427.5, -7570.2817, -0.012694392, 0.12136831, -1366321.1, -45875.57, 0.0, 9.999565, 9.999893 
6.64968e+2, 1.7526166e+2, -1329923.1, -1285664.9, -14256.391, 0.0015098392, 0.099325635, -1281470.1, -59021.605, 0.0, 9.999325, 9.999904 
6.649771e+2, 1.8526167e+2, -1249889.4, -1244270.3, -37044.875, 0.017726485, 0.13383207, -1209928.5, -85478.89, 0.0, 9.999407, 9.999476 
6.649855e+2, 1.9526197e+2, -1094564.5, -1115428.9, -20526.674, 0.012060885, 0.2122195, -1081971.1, -55522.094, 0.0, 9.999785, 9.999506 
6.649941e+2, 2.0526144e+2, -937327.56, -954898.0, -4541.075, 0.006524121, 0.19326223, -936223.3, -7769.8115, 0.0, 10.000046, 9.99981 
6.6500306e+2, 2.1526013e+2, -816429.5, -844300.44, -21017.055, 0.009485006, 0.078052975, -805147.6, 25315.135, 0.0, 10.000198, 9.999822 
6.650123e+2, 2.2525951e+2, -747874.2, -824338.7, -11371.795, 0.02574414, 0.06289375, -746218.8, -13750.807, 0.0, 10.000269, 9.999252 
6.6502184e+2, 2.3525944e+2, -648971.94, -723318.56, -2346.4958, 0.05126555, 0.12680145, -648897.94, -14427.955, 0.0, 10.000264, 9.999276 
6.6503084e+2, 2.45259e+2, -535351.9, -623002.8, -14292.2295, 0.04012453, 0.15894613, -533080.3, 3394.2297, 0.0, 10.000393, 9.999229 
6.650394e+2, 2.5525826e+2, -400279.78, -505831.75, -30357.707, -0.0027293388, 0.15543787, -392171.5, 46309.785, 0.0, 10.000642, 9.99924 
6.6504884e+2, 2.6525703e+2, -313970.7, -490698.56, -17268.322, 0.001486406, 0.14323094, -312299.2, 28194.227, 0.0, 10.0008955, 9.998549 
6.650589e+2, 2.752553e+2, -178353.58, -372286.72, -19286.693, 0.047125172, 0.11215569, -176454.11, 66056.72, 0.0, 10.001144, 9.9985695 
6.6506827e+2, 2.852538e+2, -70842.38, -305639.7, -20275.127, 0.032090675, 0.12432765, -69104.45, 75421.23, 0.0, 10.001364, 9.998249 
6.6507703e+2, 2.952526e+2, 56635.26, -197122.88, -12667.512, -0.038068492, 0.1724305, 57266.05, 103803.81, 0.000000008469742, 10.001582, 9.998217 
6.6508687e+2, 3.052501e+2, 102711.48, -186144.5, -19487.361, 0.004212943, 0.12690608, 104020.24, 104020.24, 0.00000038345433, 10.00172, 9.997891 
6.650971e+2, 3.1524837e+2, 227915.61, 67864.23, 2744.1812, 0.09226058, 0.15466058, 227962.64, 227962.64, 0.0000022156387, 10.001744, 9.999625 
6.749197e+2, 1.2525149e+2, -1855828.6, -1786009.5, -66137.96, 0.0714526, 0.073122665, -1746133.4, -33588.215, 0.0, 9.999071, 9.999946 
6.749269e+2, 1.3525245e+2, -1771129.8, -1678071.4, 81774.7, -0.27547207, 0.15198039, -1630515.1, -15975.725, 0.0, 9.998859, 10.000143 
6.749421e+2, 1.4525253e+2, -1659783.5, -1564270.3, 19024.314, 0.18419139, 0.14969514, -1560620.5, -44080.664, 0.0, 9.998934, 10.0002 
6.7494994e+2, 1.5525295e+2, -1486112.5, -1426673.6, -8451.124, 0.063917845, 0.16304556, -1425495.4, -6960.402, 0.0, 9.999442, 10.000226 
6.749582e+2, 1.6525306e+2, -1406189.6, -1392888.8, -17792.387, -0.0085949795, 0.17752963, -1380544.5, -60010.504, 0.0, 9.9995575, 9.999728 
6.7496777e+2, 1.7525284e+2, -1340708.6, -1307453.0, -22432.727, 0.039446875, 0.17978774, -1296157.5, -73620.25, 0.0, 9.999323, 9.999755 
6.749768e+2, 1.8525241e+2, -1219234.9, -1179959.0, -23691.424, 0.052590605, 0.15353078, -1168824.6, -44283.64, 0.0, 9.999403, 9.99992 
6.7498523e+2, 1.9525176e+2, -1065632.1, -1054767.1, -6403.1226, 0.007962778, 0.0942087, -1051802.5, -25256.96, 0.0, 9.999782, 9.999925 
6.749939e+2, 2.0525141e+2, -969065.2, -1019248.1, 184.65251, -0.016779698, 0.0937239, -969064.5, -40516.313, 0.0, 10.000039, 9.999372 
6.7500305e+2, 2.1525127e+2, -846400.6, -905902.0, -15121.79, -0.012865511, 0.13895053, -842778.06, -12228.681, 0.0, 10.000195, 9.999401 
6.750125e+2, 2.2525072e+2, -731156.75, -788195.7, -12320.697, 0.017157884, 0.13923487, -728609.2, 3945.1296, 0.0, 10.000263, 9.999503 
6.750223e+2, 2.3524976e+2, -632865.5, -689514.2, -1790.8954, 0.06840656, 0.08857352, -632808.94, 1753.9298, 0.0, 10.000262, 9.999509 
6.7503136e+2, 2.4524884e+2, -565710.6, -685553.8, -5497.323, 0.054505922, 0.08325546, -565458.94, -28887.404, 0.0, 10.000391, 9.998801 
6.750399e+2, 2.5524795e+2, -430144.2, -567459.2, -20369.318, -0.016655447, 0.11029367, -427186.3, 11394.196, 0.0, 10.00064, 9.998818 
6.750494e+2, 2.652467e+2, -317794.53, -497872.7, -8100.785, -0.028457576, 0.121256, -317430.88, 23162.564, 0.0, 10.000893, 9.998501 
6.750597e+2, 2.7524513e+2, -182138.33, -378172.72, -9256.838, 0.014033735, 0.10822469, -181702.19, 60907.895, 0.0, 10.001137, 9.998532 
6.750696e+2, 2.8524372e+2, -54989.652, -270817.16, -12635.357, 0.022445774, 0.115933225, -54252.45, 90371.42, 0.0, 10.001356, 9.998492 
6.75079e+2, 2.9524246e+2, 70257.414, -165212.14, -3386.0078, -0.0034054813, 0.13874303, 70306.1, 116940.875, 0.0000000040864183, 10.001567, 9.998443 
6.750888e+2, 3.052398e+2, 73782.82, -243538.19, -18257.215, 0.029142668, 0.081073694, 74829.805, 74829.805, 0.0000003121116, 10.001709, 9.997502 
6.750988e+2, 3.1523848e+2, 185237.05, -17407.605, 6464.472, 0.082391866, 0.18726322, 185443.05, 185443.05, 0.0000020914758, 10.00173, 9.999045 
6.849187e+2, 1.2524247e+2, -1872018.6, -1782564.8, -100343.16, 0.065575294, 0.12763834, -1717431.6, -4797.0024, 0.0, 9.998912, 10.000047 
6.8492615e+2, 1.352429e+2, -1725166.6, -1640995.5, 45710.53, -0.24896461, 0.13856292, -1620946.9, -6314.7183, 0.0, 9.999113, 10.000275 
6.849411e+2, 1.4524278e+2, -1643066.4, -1562454.1, 5526.566, 0.18794762, 0.1120501, -1562077.0, -45442.91, 0.0, 9.999077, 10.000144 
6.849489e+2, 1.5524341e+2, -1555108.6, -1466314.8, -12162.519, 0.038138315, 0.15351386, -1464678.9, -46051.094, 0.0, 9.998999, 10.000167 
6.849573e+2, 1.6524361e+2, -1468742.6, -1422894.4, -15314.973, -0.032146223, 0.1791579, -1418249.3, -97622.86, 0.0, 9.99913, 9.999727 
6.849672e+2, 1.7524333e+2, -1322058.6, -1298571.5, -9478.012, 0.046880357, 0.17627686, -1295223.9, -72593.85, 0.0, 9.999452, 9.999754 
6.849766e+2, 1.8524286e+2, -1172151.0, -1156075.4, -11483.838, 0.0696486, 0.14592527, -1150095.9, -25462.068, 0.0, 9.999722, 9.999929 
6.849851e+2, 1.9524221e+2, -1040190.44, -1040403.25, -27268.24, 0.013116804, 0.084307544, -1013028.4, 13609.517, 0.0, 9.999951, 9.999939 
6.8499404e+2, 2.0524178e+2, -980591.4, -1037557.56, -31680.213, -0.00969304, 0.08299925, -966472.56, -37831.33, 0.0, 10.000016, 9.999255 
6.850033e+2, 2.1524154e+2, -892187.25, -941211.1, -24222.484, 0.008214787, 0.12780547, -882238.1, -51594.156, 0.0, 9.999937, 9.999283 
6.8501276e+2, 2.2524095e+2, -753909.0, -810574.06, -14830.091, 0.02333716, 0.13559835, -750262.44, -17612.871, 0.0, 10.000155, 9.999402 
6.8502235e+2, 2.3524004e+2, -583497.44, -675980.3, -32170.95, 0.032959446, 0.10035955, -573407.4, 61250.465, 0.0, 10.000647, 9.999415 
6.850317e+2, 2.4523893e+2, -493546.3, -660296.4, -36595.58, 0.026249819, 0.084815904, -485868.44, 50799.785, 0.0, 10.000929, 9.998714 
6.85041e+2, 2.5523764e+2, -381204.0, -552960.25, -26496.566, 0.0056708325, 0.07715436, -377209.34, 61471.54, 0.0, 10.001017, 9.998735 
6.850506e+2, 2.6523632e+2, -297018.2, -490906.66, -1500.3367, -0.0042659813, 0.0892458, -297006.6, 43687.62, 0.0, 10.001049, 9.998474 
6.850606e+2, 2.7523506e+2, -197613.9, -388812.84, -2882.9531, -0.0030013537, 0.10943721, -197570.45, 45137.87, 0.0, 10.001043, 9.998504 
6.8507063e+2, 2.852337e+2, -96316.59, -293051.8, -14772.802, 0.010209785, 0.12512322, -95213.49, 49508.176, 0.0, 10.001083, 9.99847 
6.8508065e+2, 2.9523227e+2, 8083.7524, -196303.94, -26116.041, 0.03033454, 0.13153802, 11368.007, 58102.2, 0.0000000009738006, 10.001145, 9.998432 
6.8509054e+2, 3.0522949e+2, 26473.291, -245033.81, -25453.635, 0.046627175, 0.052788373, 28838.943, 28838.943, 0.00000022618863, 10.001293, 9.997693 
6.851e+2, 3.1522852e+2, 153415.33, -39476.223, 38504.957, 0.050325196, 0.17669353, 160817.61, 160817.61, 0.0000018666766, 10.001541, 9.998984 
6.9491726e+2, 1.2523307e+2, -1849177.1, -1738507.8, -81172.73, 0.027134016, 0.20541659, -1695603.3, 17126.822, 0.0, 9.998923, 10.000345 
6.949259e+2, 1.3523299e+2, -1702431.0, -1591876.0, 50614.83, -0.18458034, 0.13257512, -1572203.8, 42524.977, 0.0, 9.999105, 10.000614 
6.949407e+2, 1.4523263e+2, -1639009.5, -1551560.4, -406.75433, 0.23625557, 0.061337467, -1551558.5, -34827.063, 0.0, 9.999067, 10.000223 
6.949476e+2, 1.5523344e+2, -1549078.5, -1454220.6, -13481.056, 0.003174159, 0.113890626, -1452342.0, -33618.152, 0.0, 9.999001, 10.000249 
6.9495595e+2, 1.6523361e+2, -1458776.4, -1402420.8, -4157.7896, -0.09000801, 0.12560874, -1402115.6, -81393.41, 0.0, 9.99913, 9.999868 
6.949664e+2, 1.7523314e+2, -1313603.1, -1280328.9, 2458.909, 0.019350221, 0.08775824, -1280148.1, -57421.42, 0.0, 9.999448, 9.999881 
6.949762e+2, 1.8523304e+2, -1201886.0, -1215886.9, -3840.8782, 0.06434194, 0.110073246, -1200901.5, -76173.6, 0.0, 9.999714, 9.999523 
6.949852e+2, 1.9523332e+2, -1068172.5, -1097700.5, -18508.107, 0.025650578, 0.18117014, -1059261.1, -32534.92, 0.0, 9.999948, 9.999548 
6.949944e+2, 2.052326e+2, -966993.94, -1008641.3, -35645.777, 0.025140094, 0.16016115, -946535.1, -17802.639, 0.0, 10.000013, 9.999455 
6.9500387e+2, 2.1523096e+2, -879966.0, -915083.75, -26406.113, 0.06893951, 0.04569314, -865813.7, -35067.336, 0.0, 9.999932, 9.999465 
6.9501305e+2, 2.2523023e+2, -785686.9, -875741.0, 2803.3926, 0.04032365, 0.052509673, -785599.7, -52846.11, 0.0, 10.000152, 9.998957 
6.950221e+2, 2.3523031e+2, -614186.06, -739348.4, -13556.113, -0.05705786, 0.16136481, -612734.6, 22020.088, 0.0, 10.000645, 9.998982 
6.9503194e+2, 2.4522929e+2, -475690.3, -622255.8, -33651.813, -0.047701497, 0.16225158, -468333.1, 68431.445, 0.0, 10.000924, 9.998979 
6.9504255e+2, 2.5522724e+2, -364022.2, -515753.8, -22611.426, 0.060835306, 0.05538573, -360724.25, 78058.12, 0.0, 10.00101, 9.998995 
6.9505244e+2, 2.6522586e+2, -298632.5, -492709.78, -2084.0276, 0.07087954, 0.046145257, -298610.13, 42185.613, 0.0, 10.001042, 9.998465 
6.9506156e+2, 2.7522507e+2, -200548.39, -392953.06, -2119.6924, -0.008217003, 0.11682242, -200525.05, 42280.31, 0.0, 10.001035, 9.99848 
6.950715e+2, 2.8522375e+2, -116655.3, -334022.78, -12239.883, -0.009523423, 0.15249509, -115968.25, 28850.672, 0.0, 10.001078, 9.998192 
6.9508207e+2, 2.9522198e+2, -9788.501, -232238.78, -22276.379, 0.058470678, 0.15019673, -7579.6563, 39256.285, 0.000000000021633938, 10.001141, 9.998187 
6.9509184e+2, 3.0521917e+2, 78466.26, -136046.56, -16861.816, 0.053915318, 0.041806143, 79783.59, 79783.59, 0.00000014519733, 10.001288, 9.998443 
6.95101e+2, 3.152186e+2, 180932.36, 22676.355, 48276.883, -0.011210967, 0.13268058, 194496.86, 194496.86, 0.0000015881137, 10.001521, 9.999421 
7.04916e+2, 1.2522273e+2, -1853470.5, -1716805.3, -55506.016, 0.017433006, 0.17820257, -1697102.3, 15728.783, 0.0, 9.998791, 10.000558 
7.049249e+2, 1.3522306e+2, -1755758.5, -1590339.6, 52394.64, -0.17124823, 0.122168146, -1575140.8, 39683.566, 0.0, 9.998627, 10.000854 
7.049396e+2, 1.4522278e+2, -1700461.5, -1590331.0, -214.38078, 0.23872896, 0.050054498, -1590330.5, -73504.45, 0.0, 9.998686, 10.00014 
7.049467e+2, 1.5522341e+2, -1537588.6, -1457867.0, -25511.268, 0.012056116, 0.094146065, -1450402.3, -31581.13, 0.0, 9.99912, 10.000166 
7.049553e+2, 1.6522357e+2, -1409463.8, -1371103.0, -21154.543, -0.084229186, 0.10385654, -1361728.1, -40908.27, 0.0, 9.999436, 9.999936 
7.0496583e+2, 1.752232e+2, -1282033.8, -1257653.0, -20654.19, 0.009125591, 0.0696059, -1245860.0, -23037.389, 0.0, 9.999634, 9.999947 
7.0497584e+2, 1.852231e+2, -1216444.9, -1246389.4, -25947.588, 0.055203997, 0.09879107, -1201459.8, -76635.5, 0.0, 9.999717, 9.9993105 
7.049851e+2, 1.9522326e+2, -1119101.8, -1146041.4, -28190.219, 0.03332936, 0.17897312, -1101328.5, -74503.73, 0.0, 9.9997, 9.999336 
7.049945e+2, 2.0522253e+2, -969192.6, -1005478.7, -39081.887, 0.03775738, 0.16611178, -944247.8, -15416.227, 0.0, 9.999979, 9.999495 
7.0500416e+2, 2.1522099e+2, -789680.6, -866782.44, -42890.35, 0.075039744, 0.05845769, -770562.2, 60282.105, 0.0, 10.000533, 9.999506 
7.050136e+2, 2.2522017e+2, -725781.25, -853467.3, -9597.752, 0.04736639, 0.057175264, -725063.9, 7788.2285, 0.0, 10.000592, 9.998897 
7.0502263e+2, 2.3521999e+2, -683321.2, -779072.7, 2169.6428, -0.04272741, 0.14444728, -683272.06, -48416.555, 0.0, 10.000197, 9.998925 
7.050326e+2, 2.4521902e+2, -576348.56, -665857.1, -4206.7637, -0.03820222, 0.15194148, -576151.3, -39286.53, 0.0, 10.000212, 9.9990225 
7.0504326e+2, 2.5521734e+2, -418852.28, -537095.06, -11440.215, 0.054050315, 0.07768213, -417755.6, 21123.93, 0.0, 10.000611, 9.999041 
7.050533e+2, 2.65216e+2, -330587.16, -504083.25, -5516.552, 0.06880738, 0.06783759, -330411.94, 10480.466, 0.0, 10.000806, 9.998501 
7.0506275e+2, 2.7521494e+2, -231566.05, -403478.53, -2234.4521, 0.013471778, 0.1067709, -231537.02, 11366.977, 0.0, 10.000804, 9.998519 
7.0507276e+2, 2.8521353e+2, -129247.96, -344764.97, 9390.927, 0.006472, 0.13359939, -128839.53, 16078.608, 0.0, 10.001012, 9.998151 
7.050832e+2, 2.9521182e+2, 30073.18, -216921.58, 15034.769, 0.042571228, 0.14428538, 30984.992, 77919.445, 0.0, 10.0014305, 9.998153 
7.05093e+2, 3.0520913e+2, 116505.95, -98665.61, -3542.175, 0.03492964, 0.039397486, 116564.25, 116564.25, 0.00000008201181, 10.001468, 9.998614 
7.0510256e+2, 3.1520832e+2, 115980.84, -20428.258, 15341.38, 0.012931193, 0.091059126, 117684.94, 117684.94, 0.0000012936833, 10.001123, 9.999317 
7.14915e+2, 1.2521149e+2, -1845771.9, -1700212.1, -51826.01, 0.033917885, 0.040518288, -1683645.3, 29291.926, 0.0, 9.998786, 10.000675 
7.14923e+2, 1.352132e+2, -1745169.8, -1568994.0, 45965.96, -0.21652716, 0.10725644, -1557722.1, 57196.05, 0.0, 9.998631, 10.0009985 
7.1493775e+2, 1.4521329e+2, -1719627.9, -1630054.8, 13148.921, 0.18646935, 0.07856555, -1628164.5, -111246.766, 0.0, 9.998686, 9.9998665 
7.149463e+2, 1.5521337e+2, -1557070.0, -1497400.4, -8957.146, 0.061485566, 0.09387148, -1496084.9, -77165.19, 0.0, 9.999115, 9.999897 
7.1495533e+2, 1.6521347e+2, -1409513.1, -1369402.8, -14174.267, -0.01764927, 0.11290801, -1364899.4, -43980.137, 0.0, 9.999429, 9.999951 
7.149655e+2, 1.7521355e+2, -1280798.1, -1255296.6, -12592.221, 0.013951418, 0.12158029, -1250126.9, -27209.387, 0.0, 9.999635, 9.999962 
7.1497536e+2, 1.8521304e+2, -1219374.9, -1252183.4, -27441.072, 0.037805658, 0.11164364, -1203808.6, -78886.195, 0.0, 9.999715, 9.999272 
7.149848e+2, 1.9521204e+2, -1122772.0, -1152735.6, -28171.268, 0.032112, 0.07869609, -1105846.6, -78912.98, 0.0, 9.999695, 9.999292 
7.149943e+2, 2.0521158e+2, -978197.44, -1022577.7, -19140.324, 0.024570782, 0.1010147, -971083.06, -42144.62, 0.0, 9.999971, 9.999381 
7.1500415e+2, 2.1521164e+2, -797756.6, -882485.75, -22452.717, 0.024544531, 0.1646982, -792174.56, 38763.21, 0.0, 10.000528, 9.999401 
7.1501404e+2, 2.2521079e+2, -702790.94, -805201.06, -25366.426, 0.041646887, 0.14862639, -696852.2, 36092.914, 0.0, 10.000589, 9.999229 
7.15024e+2, 2.3520908e+2, -661289.75, -732737.2, -11540.776, 0.071906574, 0.050895907, -659471.8, -24511.89, 0.0, 10.000195, 9.999245 
7.150337e+2, 2.4520814e+2, -589375.4, -692001.94, 10169.727, 0.050603144, 0.054913815, -588377.3, -51408.516, 0.0, 10.000208, 9.998844 
7.150432e+2, 2.5520793e+2, -431785.16, -563423.0, 3759.8152, -0.016345354, 0.1440139, -431677.88, 7294.398, 0.0, 10.000609, 9.998861 
7.150533e+2, 2.6520672e+2, -324288.0, -490725.88, -5941.2534, -0.011999454, 0.15344986, -324076.2, 16908.018, 0.0, 10.000805, 9.998593 
7.15064e+2, 2.7520463e+2, -225109.34, -389028.2, -1421.1075, 0.057808813, 0.07934579, -225097.03, 17907.146, 0.0, 10.0008, 9.99862 
7.1507424e+2, 2.85203e+2, -117072.47, -317965.1, 24545.64, 0.053687394, 0.0694441, -114116.89, 30902.389, 0.0, 10.001005, 9.998338 
7.1508396e+2, 2.9520184e+2, 39889.867, -192935.1, 31236.71, -0.019593515, 0.11593172, 44007.87, 91037.52, 0.0, 10.001416, 9.998324 
7.15094e+2, 3.0519938e+2, 87743.08, -155625.1, -16595.387, -0.01291692, 0.04532963, 88869.51, 88869.51, 0.00000004119849, 10.001455, 9.998229 
7.1510464e+2, 3.1519783e+2, 70660.2, -112222.016, 3069.4827, 0.11037246, 0.061312366, 70711.71, 70711.71, 0.0000010048329, 10.001114, 9.998692 
7.2491384e+2, 1.2520109e+2, -1879355.0, -1737877.1, -51292.832, 0.047653195, 0.0069562304, -1721237.9, -8200.592, 0.0, 9.998644, 10.000487 
7.249219e+2, 1.352029e+2, -1700426.5, -1565263.1, 8410.995, -0.21662283, 0.10097517, -1564741.6, 50277.047, 0.0, 9.999017, 10.000836 
7.249364e+2, 1.4520307e+2, -1650942.9, -1591555.1, -16500.783, 0.1645845, 0.084976144, -1587278.4, -70260.45, 0.0, 9.999134, 9.999914 
7.249455e+2, 1.5520316e+2, -1548256.5, -1488541.6, -13855.309, 0.06779852, 0.09904171, -1485483.5, -66464.414, 0.0, 9.999157, 9.999937 
7.2495484e+2, 1.6520329e+2, -1442976.4, -1398043.9, -12947.417, -0.0015293892, 0.12246651, -1394580.0, -73561.27, 0.0, 9.999253, 9.999839 
7.249651e+2, 1.7520334e+2, -1320161.0, -1286511.5, -23136.924, 0.02034898, 0.14004424, -1274728.8, -51710.78, 0.0, 9.999417, 9.999853 
7.2497505e+2, 1.8520273e+2, -1219281.3, -1233450.9, -35715.023, 0.03841978, 0.116612285, -1189955.1, -64931.586, 0.0, 9.999635, 9.999439 
7.249846e+2, 1.9520153e+2, -1080013.0, -1113245.4, -20866.348, 0.030175598, 0.048859507, -1069955.1, -42920.29, 0.0, 9.999908, 9.999459 
7.2499424e+2, 2.0520109e+2, -977969.25, -1040800.94, 1488.3074, 0.017827524, 0.07200392, -977934.0, -48894.36, 0.0, 10.000052, 9.999216 
7.250043e+2, 2.1520132e+2, -875653.7, -937984.2, -7159.3013, 0.010115777, 0.16930148, -874841.94, -43803.27, 0.0, 10.00007, 9.999242 
7.250144e+2, 2.2520052e+2, -744130.56, -811657.0, -30892.434, 0.03274741, 0.15937781, -732130.3, 915.49585, 0.0, 10.000247, 9.999351 
7.2502446e+2, 2.3519874e+2, -596045.4, -687911.9, -34401.727, 0.080771305, 0.041960627, -584590.94, 50469.535, 0.0, 10.000585, 9.999365 
7.250343e+2, 2.4519776e+2, -525970.4, -670517.4, -9163.822, 0.06657365, 0.0386082, -525391.7, 11678.005, 0.0, 10.000682, 9.998765 
7.250439e+2, 2.5519747e+2, -445284.22, -578052.1, -8370.616, -0.003202078, 0.13125134, -444758.56, -5684.425, 0.0, 10.000551, 9.998789 
7.2505414e+2, 2.6519635e+2, -338638.66, -488675.7, -12182.174, -0.0037415077, 0.14506625, -337655.97, 3429.6804, 0.0, 10.000668, 9.998673 
7.250649e+2, 2.7519438e+2, -187179.95, -361980.66, -10465.631, 0.058816474, 0.07698853, -186555.6, 56548.242, 0.0, 10.001022, 9.998699 
7.2507524e+2, 2.8519276e+2, -105404.68, -307786.16, 6591.0938, 0.056575846, 0.06169047, -105190.25, 39928.547, 0.0, 10.001064, 9.99838 
7.2508526e+2, 2.9519147e+2, -43765.414, -228425.98, 2102.373, -0.006758557, 0.09126804, -43741.48, 3389.1746, 0.0, 10.000819, 9.998369 
7.250953e+2, 3.051894e+2, 28176.266, -166236.83, -28102.443, -0.008274346, 0.04902259, 32156.973, 32156.973, 0.000000018939705, 10.000969, 9.998391 
7.251059e+2, 3.1518778e+2, 125226.04, -85052.66, 27762.783, 0.10701726, 0.04408632, 128829.76, 128829.76, 0.0000007295325, 10.001484, 9.9987 
7.3491246e+2, 1.2519154e+2, -1915902.5, -1813013.9, -27559.13, 0.04967451, 0.07824098, -1806097.0, -92965.945, 0.0, 9.998639, 9.999975 
7.3492134e+2, 1.3519216e+2, -1734162.4, -1634441.8, 20572.143, -0.17366245, 0.10248358, -1630364.4, -15238.525, 0.0, 9.999014, 10.000362 
7.349356e+2, 1.4519209e+2, -1623410.1, -1534580.6, -17898.639, 0.16955757, 0.066972695, -1531109.8, -13982.958, 0.0, 9.999135, 10.000305 
7.349443e+2, 1.5519287e+2, -1521738.9, -1434908.0, -11745.011, 0.025929738, 0.10910728, -1433347.4, -14228.274, 0.0, 9.999162, 10.000302 
7.349537e+2, 1.6519302e+2, -1461753.1, -1436669.0, -7568.8076, -0.042434864, 0.13178146, -1434562.3, -113444.0, 0.0, 9.999252, 9.999575 
7.3496455e+2, 1.7519256e+2, -1338077.8, -1323141.0, -16769.137, 0.025167458, 0.12549967, -1312252.4, -89128.28, 0.0, 9.9994135, 9.999603 
7.3497486e+2, 1.8519215e+2, -1192587.0, -1176803.5, -26315.756, 0.053823568, 0.113339394, -1157221.6, -32094.234, 0.0, 9.999628, 9.999831 
7.3498446e+2, 1.9519179e+2, -1053632.4, -1058126.6, -10501.63, 0.024682712, 0.088404216, -1045140.1, -18011.613, 0.0, 9.999907, 9.999839 
7.349943e+2, 2.0519109e+2, -993361.75, -1071873.6, 1310.9983, 0.01382105, 0.07846514, -993339.9, -64204.89, 0.0, 10.000049, 9.999005 
7.350046e+2, 2.1519008e+2, -891336.0, -969332.44, -5871.7935, 0.028297734, 0.073794626, -890896.4, -59749.684, 0.0, 10.000064, 9.999029 
7.3501444e+2, 2.2518939e+2, -751635.0, -825903.1, -19244.592, 0.018007863, 0.09024396, -746944.5, -13790.571, 0.0, 10.000241, 9.999256 
7.3502403e+2, 2.3518895e+2, -602846.06, -701698.75, -21749.332, -0.01735358, 0.11669744, -598272.44, 36884.7, 0.0, 10.000583, 9.999271 
7.3503435e+2, 2.4518782e+2, -523721.16, -665762.25, -14693.721, 0.0072200294, 0.10204759, -522217.06, 14950.535, 0.0, 10.000681, 9.998797 
7.350454e+2, 2.5518605e+2, -443350.16, -572872.2, -12427.932, 0.08794027, 0.04066663, -442168.47, -2983.6147, 0.0, 10.000546, 9.998827 
7.3505574e+2, 2.6518485e+2, -335288.6, -480247.1, 925.4407, 0.08846436, 0.04432916, -335282.7, 5913.696, 0.0, 10.000661, 9.998734 
7.350655e+2, 2.7518418e+2, -184734.4, -355356.84, 3266.8118, 0.015253832, 0.10040966, -184671.88, 58530.94, 0.0, 10.001016, 9.998749 
7.350759e+2, 2.8518277e+2, -112207.94, -320450.94, -2789.7412, 0.013041512, 0.10942535, -112170.57, 33046.03, 0.0, 10.001058, 9.998295 
7.3508686e+2, 2.9518074e+2, -49196.73, -238128.8, -4936.3633, 0.07412948, 0.068576075, -49067.844, -1830.6682, 0.0, 10.000812, 9.998306 
7.3509675e+2, 3.0517918e+2, 73489.41, -70064.69, -8464.235, 0.042367335, 0.049901545, 73986.76, 73986.76, 0.0000000073965225, 10.00096, 9.999056 
7.3510635e+2, 3.1517833e+2, 162376.23, -1464.1151, 46143.336, -0.0013778392, 0.055135272, 174477.98, 174477.98, 0.0000004773962, 10.001457, 9.999288 
7.449112e+2, 1.2518132e+2, -1871521.5, -1791207.8, -38575.992, 0.041992776, 0.12189343, -1775680.9, -62448.734, 0.0, 9.998942, 9.999978 
7.449206e+2, 1.3518156e+2, -1743287.6, -1637294.8, 33746.94, -0.14339095, 0.10714927, -1627462.3, -12232.4, 0.0, 9.998947, 10.000374 
7.4493474e+2, 1.451813e+2, -1642354.5, -1548177.1, -3334.7954, 0.17697571, 0.052844625, -1548059.1, -30826.963, 0.0, 9.9990225, 10.000267 
7.449434e+2, 1.5518202e+2, -1502926.9, -1429731.4, -28748.055, 0.0107779745, 0.0931886, -1419790.5, -565.8309, 0.0, 9.999307, 10.000269 
7.4495286e+2, 1.6518217e+2, -1421363.6, -1407012.4, -24987.19, -0.058046285, 0.11251097, -1388190.9, -66967.4, 0.0, 9.999485, 9.999665 
7.4496406e+2, 1.7518175e+2, -1310356.0, -1300020.0, -8236.594, 0.02618426, 0.10110001, -1295464.3, -72235.59, 0.0, 9.999563, 9.999689 
7.449746e+2, 1.8518145e+2, -1184987.5, -1185182.1, -17836.117, 0.064643115, 0.10177547, -1167248.4, -42017.215, 0.0, 9.999731, 9.999725 
7.449845e+2, 1.9518127e+2, -1049793.3, -1068289.0, -41386.168, 0.0379759, 0.105820894, -1016634.3, 10597.083, 0.0, 9.999983, 9.999734 
7.449945e+2, 2.0518048e+2, -981658.7, -1054589.0, -44885.977, 0.02791605, 0.08730853, -960292.56, -31053.895, 0.0, 10.000078, 9.99911 
7.450047e+2, 2.1517916e+2, -888148.06, -955796.56, -29128.809, 0.04129695, 0.038990848, -877334.1, -46081.434, 0.0, 10.000035, 9.999135 
7.450148e+2, 2.2517848e+2, -762907.5, -840855.3, -15474.534, 0.025187984, 0.05874098, -759947.8, -26688.092, 0.0, 10.000204, 9.999172 
7.450246e+2, 2.3517844e+2, -612118.1, -715045.2, -18313.842, -0.020658795, 0.13202621, -608956.7, 26303.887, 0.0, 10.000557, 9.999192 
7.4503505e+2, 2.4517739e+2, -509208.78, -648479.56, -22500.719, 0.004479075, 0.12431049, -505663.75, 31606.7, 0.0, 10.000737, 9.998889 
7.450461e+2, 2.551754e+2, -405371.75, -544948.7, -17661.469, 0.095723964, 0.03331959, -403171.63, 36117.28, 0.0, 10.000766, 9.998913 
7.4505645e+2, 2.6517415e+2, -326323.06, -480379.2, 1556.2164, 0.09363785, 0.029731054, -326307.34, 14993.404, 0.0, 10.00074, 9.998696 
7.450662e+2, 2.7517357e+2, -237019.78, -384913.5, -4183.081, 0.006169675, 0.09872705, -236901.56, 6405.1406, 0.0, 10.000673, 9.998711 
7.450767e+2, 2.8517222e+2, -155907.05, -322523.8, -11319.285, 0.0073818876, 0.10495858, -155141.58, -9821.321, 0.0, 10.000675, 9.998466 
7.4508774e+2, 2.9517013e+2, -48638.656, -218687.06, 3401.6982, 0.08868017, 0.04699146, -48570.633, -1229.918, 0.0, 10.000733, 9.998477 
7.4509764e+2, 3.0516925e+2, 55606.684, -72368.03, 2321.911, 0.046025578, 0.07856, 55648.797, 55648.797, 0.0000000015345106, 10.00081, 9.999112 
7.4510723e+2, 3.1516856e+2, 93340.28, -24154.967, 7321.1294, -0.02733971, 0.0914265, 93794.7, 93794.7, 0.00000026410652, 10.000937, 9.999381 
7.549099e+2, 1.2517044e+2, -1835651.4, -1718201.1, -31792.574, 0.012409478, 0.13713905, -1710147.5, 3192.7053, 0.0, 9.998947, 10.000477 
7.5491965e+2, 1.3517113e+2, -1709334.0, -1565178.4, 32845.113, -0.13015045, 0.114730775, -1558047.5, 57282.895, 0.0, 9.99894, 10.000871 
7.5493383e+2, 1.4517069e+2, -1676070.6, -1616978.3, 5120.489, 0.18251581, 0.04251904, -1616537.9, -99203.945, 0.0, 9.999018, 9.999797 
7.549428e+2, 1.551706e+2, -1533780.6, -1494248.6, -17604.092, 0.019903101, 0.051456414, -1487545.8, -68210.12, 0.0, 9.999309, 9.9998255 
7.5495243e+2, 1.6517071e+2, -1388407.3, -1339399.8, -22978.592, -0.05249848, 0.06351212, -1330311.1, -8976.528, 0.0, 9.999488, 10.000129 
7.549636e+2, 1.7517088e+2, -1279397.8, -1236809.6, -4861.0796, 0.019710679, 0.06535854, -1236261.8, -12930.006, 0.0, 9.999566, 10.000123 
7.5497437e+2, 1.8517064e+2, -1228943.4, -1275190.8, -9220.293, 0.06579262, 0.08055882, -1227172.9, -101838.15, 0.0, 9.999726, 9.999109 
7.5498474e+2, 1.9517e+2, -1092343.8, -1155840.4, -31935.662, 0.06817056, 0.10144215, -1079060.5, -51717.21, 0.0, 9.99998, 9.999134 
7.5499487e+2, 2.0516929e+2, -952942.4, -994044.5, -47677.24, 0.05848173, 0.09862575, -921575.56, 7774.9155, 0.0, 10.000074, 9.999528 
7.550048e+2, 2.1516852e+2, -859617.25, -895899.8, -30510.303, 0.045315847, 0.064276956, -842262.25, -10905.698, 0.0, 10.000032, 9.999549 
7.550152e+2, 2.2516783e+2, -768129.7, -850258.2, -3026.4026, 0.049408462, 0.06446619, -768018.3, -34655.215, 0.0, 10.000197, 9.99911 
7.55026e+2, 2.3516722e+2, -617529.44, -724514.9, -4870.9663, 0.06730824, 0.08869535, -617308.1, 18062.26, 0.0, 10.00055, 9.99913 
7.550363e+2, 2.4516648e+2, -500418.2, -628689.25, -21920.436, 0.056378823, 0.105956964, -496775.6, 40602.5, 0.0, 10.0007305, 9.999028 
7.5504607e+2, 2.5516555e+2, -396966.56, -526491.0, -16108.321, 0.018839909, 0.108098894, -394993.3, 44393.04, 0.0, 10.000761, 9.999042 
7.550563e+2, 2.651643e+2, -335726.63, -499287.16, -1244.8196, 0.00957013, 0.09974442, -335717.13, 5681.611, 0.0, 10.000737, 9.998568 
7.5506705e+2, 2.7516258e+2, -245327.42, -401236.9, -5168.7383, 0.026590448, 0.07024639, -245156.27, -1740.8636, 0.0, 10.000669, 9.998601 
7.5507766e+2, 2.851611e+2, -129037.36, -265366.72, -8854.608, 0.035170194, 0.048862178, -128464.66, 16964.85, 0.0, 10.0006695, 9.998861 
7.55088e+2, 2.9515982e+2, -23354.984, -164739.95, 6621.781, 0.035148114, 0.03153225, -23045.53, 24395.389, 0.0, 10.000727, 9.998852 
7.5509804e+2, 3.051596e+2, 19682.613, -145054.47, 6178.2896, -0.0010878904, 0.1382105, 19914.0, 19914.0, 0.00000000001992495, 10.000802, 9.998616 
7.5510865e+2, 3.1515846e+2, 64908.74, -79319.03, 12559.128, 0.018010965, 0.15744264, 65994.195, 65994.195, 0.000000109993245, 10.000921, 9.99901 
7.649094e+2, 1.2515923e+2, -1795486.3, -1709457.9, -11410.241, 0.05185792, 0.10365843, -1707970.3, 5477.8203, 0.0, 9.999266, 10.000385 
7.649188e+2, 1.3516004e+2, -1668374.9, -1554792.8, -3299.7764, -0.11904675, 0.103623986, -1554696.9, 60740.914, 0.0, 9.999263, 10.000786 
7.6493275e+2, 1.4515966e+2, -1651880.8, -1604555.6, -26558.594, 0.16283312, 0.041033052, -1592647.5, -75206.51, 0.0, 9.999181, 9.9998045 
7.6494193e+2, 1.551595e+2, -1555903.9, -1504299.3, -13477.938, 0.020502076, 0.039745368, -1500991.3, -81547.62, 0.0, 9.999154, 9.999832 
7.649519e+2, 1.6515957e+2, -1415959.5, -1353241.6, -16686.95, -0.04374083, 0.046826985, -1349078.3, -27635.152, 0.0, 9.999298, 10.000127 
7.6496315e+2, 1.7515972e+2, -1273624.5, -1233646.0, -34554.78, 0.019719893, 0.04873721, -1213715.3, 9725.177, 0.0, 9.999603, 10.000127 
7.6497406e+2, 1.8515955e+2, -1216658.6, -1257677.8, -28206.111, 0.06030328, 0.06528359, -1202293.8, -76850.77, 0.0, 9.999762, 9.999213 
7.6498455e+2, 1.9515903e+2, -1113620.3, -1154609.4, 2676.3533, 0.061271444, 0.08833635, -1113446.3, -85995.766, 0.0, 9.999784, 9.999236 
7.649949e+2, 2.0515844e+2, -963811.5, -1000601.4, -414.99802, 0.059665486, 0.09367852, -963806.8, -34350.27, 0.0, 10.000005, 9.9995165 
7.650052e+2, 2.1515779e+2, -807201.06, -872345.25, -17208.066, 0.061858546, 0.0725808, -802934.9, 28526.795, 0.0, 10.000399, 9.999534 
7.6501566e+2, 2.2515713e+2, -730574.06, -823922.94, -5668.9365, 0.069523424, 0.07033827, -730231.06, 3237.0679, 0.0, 10.0004225, 9.999182 
7.650265e+2, 2.351564e+2, -678024.1, -746160.75, 711.7653, 0.079713896, 0.07747221, -678016.7, -42540.594, 0.0, 10.000103, 9.999197 
7.6503676e+2, 2.4515574e+2, -584517.3, -668405.5, -8547.534, 0.0531782, 0.10029075, -583655.25, -46172.16, 0.0, 10.00015, 9.999036 
7.650465e+2, 2.551551e+2, -428318.8, -540777.2, -13650.363, -0.007580981, 0.12858638, -426685.63, 12803.733, 0.0, 10.000543, 9.999049 
7.650569e+2, 2.6515386e+2, -333160.2, -489981.03, -4452.0737, -0.00884051, 0.1228498, -333033.88, 8467.369, 0.0, 10.000722, 9.998638 
7.65068e+2, 2.7515206e+2, -237134.64, -389348.44, 4086.1611, 0.04635326, 0.07439963, -237025.02, 6493.696, 0.0, 10.000692, 9.998671 
7.6507854e+2, 2.8515056e+2, -115022.93, -262448.1, -797.2002, 0.054769948, 0.046711784, -115018.62, 30514.354, 0.0, 10.000782, 9.998827 
7.650887e+2, 2.951493e+2, 14956.38, -150852.05, -18381.59, 0.017999427, 0.035640944, 16969.723, 64513.637, 0.0, 10.001009, 9.998812 
7.6509863e+2, 3.051491e+2, 37661.074, -153738.78, -28093.863, -0.025600722, 0.1563001, 41699.51, 41699.51, 0.0, 10.000998, 9.998463 
7.651095e+2, 3.151473e+2, 41404.707, -83423.164, -972.7908, 0.02286651, 0.124082, 41412.285, 41412.285, 0.000000028836135, 10.000727, 9.999075 
7.749097e+2, 1.2514775e+2, -1844970.1, -1811162.9, -6003.7837, 0.15432127, 0.024701767, -1810128.3, -96572.984, 0.00000000003061157, 9.999261, 9.99969 
7.7491814e+2, 1.3514833e+2, -1716499.9, -1654386.1, -4620.0186, -0.11539895, 0.07349282, -1654044.3, -38492.363, 0.0, 9.999264, 10.000101 
7.749314e+2, 1.4514825e+2, -1615738.9, -1531025.0, -30334.912, 0.10959232, 0.047999363, -1521282.9, -3729.3816, 0.0, 9.999186, 10.000306 
7.74941e+2, 1.5514868e+2, -1522652.5, -1436156.1, -13980.351, 0.009098053, 0.056816224, -1433952.6, -14404.235, 0.0, 9.999155, 10.000299 
7.749513e+2, 1.6514869e+2, -1449965.9, -1422405.9, -6168.3535, -0.035314444, 0.061986562, -1421088.4, -99539.695, 0.0, 9.999292, 9.999654 
7.749628e+2, 1.7514828e+2, -1304969.9, -1298233.8, -23056.982, 0.0235343, 0.05208917, -1278300.1, -54745.645, 0.0, 9.999601, 9.999685 
7.7497363e+2, 1.851482e+2, -1158625.6, -1136636.3, -28278.143, 0.04425768, 0.05599989, -1117290.6, 8265.089, 0.0, 9.999758, 10.000047 
7.749839e+2, 1.9514838e+2, -1057013.4, -1036865.2, 3948.4202, 0.01359736, 0.06618093, -1036119.06, -8566.43, 0.0, 9.999782, 10.000047 
7.7499455e+2, 2.0514798e+2, -995931.5, -1065325.0, 13490.9375, 0.026683228, 0.0719067, -993400.94, -63844.332, 0.0, 9.999997, 9.999076 
7.750059e+2, 2.15147e+2, -838795.5, -936403.06, -2598.491, 0.08838652, 0.06426675, -838726.4, -7158.7017, 0.0, 10.000393, 9.999097 
7.750163e+2, 2.2514635e+2, -717826.8, -796706.2, -18727.174, 0.08385856, 0.0762528, -713606.5, 19967.99, 0.0, 10.000419, 9.999371 
7.7502596e+2, 2.3514599e+2, -665048.5, -718862.56, -10481.986, 0.013796404, 0.098038085, -663078.9, -27501.303, 0.0, 10.000101, 9.999386 
7.750363e+2, 2.451452e+2, -593766.9, -686372.94, 5666.1777, -0.009312645, 0.10708561, -593421.44, -55836.113, 0.0, 10.000144, 9.998915 
7.750472e+2, 2.5514403e+2, -436882.66, -557177.94, 1771.7765, 0.0125951385, 0.09460127, -436856.56, 2741.221, 0.0, 10.000537, 9.9989395 
7.7505803e+2, 2.65143e+2, -316348.22, -454064.06, -5620.9453, 0.035725173, 0.10018799, -316119.2, 25488.852, 0.0, 10.000717, 9.998888 
7.7506876e+2, 2.7514207e+2, -221642.84, -356094.1, 3986.0938, 0.060257424, 0.113929324, -221524.77, 22091.697, 0.0, 10.000687, 9.998902 
7.750794e+2, 2.8514057e+2, -145589.16, -324222.44, 7111.909, 0.05938687, 0.0989927, -145306.47, 324.0715, 0.0, 10.000774, 9.998406 
7.7508986e+2, 2.951385e+2, -15604.789, -212560.92, -7615.844, 0.03316818, 0.050754584, -15310.741, 32339.299, 0.0, 10.001, 9.998392 
7.7509964e+2, 3.0513778e+2, 46143.668, -133397.8, -36915.48, -0.030201817, 0.12981872, 53437.54, 53437.54, 0.0, 10.000986, 9.998608 
7.7510977e+2, 3.1513524e+2, 69102.25, -23191.84, -11245.387, -0.023781417, 0.008323937, 70452.66, 70452.66, 0.0000000029769756, 10.000714, 9.9994955 
7.8490895e+2, 1.2513594e+2, -1868414.1, -1822161.4, -55801.75, 0.16406141, -0.007826342, -1784883.6, -71213.53, 0.0000000009851104, 9.999097, 9.999696 
7.849174e+2, 1.351367e+2, -1734823.8, -1664128.1, -11692.204, -0.10673378, 0.05739841, -1662244.5, -46578.625, 0.0, 9.999144, 10.000093 
7.8493047e+2, 1.4513685e+2, -1602569.0, -1508054.8, -22118.002, 0.09951005, 0.04798959, -1503134.9, 14530.66, 0.0, 9.999203, 10.000458 
7.849403e+2, 1.551375e+2, -1481284.5, -1399188.3, -31584.607, 0.015086576, 0.06527393, -1388443.3, 31215.006, 0.0, 9.999366, 10.000452 
7.8495073e+2, 1.6513768e+2, -1427774.6, -1406821.4, -11304.901, -0.02591064, 0.077065684, -1401885.0, -80227.93, 0.0, 9.999425, 9.999698 
7.8496224e+2, 1.7513737e+2, -1331716.9, -1306466.9, 8737.967, 0.020923058, 0.07399649, -1303738.0, -80075.7, 0.0, 9.999398, 9.999726 
7.849732e+2, 1.8513733e+2, -1188607.6, -1138386.3, -5298.4595, 0.03802379, 0.075608775, -1137833.3, -12170.5205, 0.0, 9.999496, 10.00016 
7.849836e+2, 1.9513752e+2, -1059076.0, -1024947.3, -28277.781, 0.010541716, 0.07417755, -1008984.0, 18675.156, 0.0, 9.999713, 10.000162 
7.8499436e+2, 2.0513718e+2, -1007952.7, -1063229.9, -18992.266, 0.01616634, 0.0769213, -1002056.25, -72393.9, 0.0, 9.999882, 9.999145 
7.8500575e+2, 2.1513633e+2, -889689.8, -953624.2, 2243.1218, 0.06023278, 0.07457604, -889611.2, -57938.742, 0.0, 10.000012, 9.999162 
7.8501636e+2, 2.251357e+2, -744791.2, -808499.94, -11004.103, 0.05873966, 0.0844005, -742944.06, -9265.091, 0.0, 10.000229, 9.999381 
7.850262e+2, 2.3513523e+2, -601637.1, -687084.5, -18202.842, 0.010357685, 0.09615038, -597921.0, 37761.36, 0.0, 10.000533, 9.999395 
7.850367e+2, 2.4513434e+2, -530836.06, -658419.3, 175.53065, 0.00096241606, 0.0931934, -530835.8, 6855.3125, 0.0, 10.000587, 9.998892 
7.850478e+2, 2.55133e+2, -458426.03, -570353.4, 1753.8129, 0.029279588, 0.0677095, -458398.56, -18693.33, 0.0, 10.0004015, 9.998914 
7.850588e+2, 2.6513204e+2, -353577.8, -472171.2, -9632.003, 0.047842182, 0.08357529, -352800.6, -11085.748, 0.0, 10.000462, 9.998887 
7.8506947e+2, 2.7513143e+2, -209276.11, -350572.75, -19750.457, 0.056879368, 0.12994798, -206567.31, 37153.17, 0.0, 10.000773, 9.9988985 
7.8508013e+2, 2.8512993e+2, -138272.38, -319751.72, -13769.218, 0.054417077, 0.11572704, -137233.63, 8500.877, 0.0, 10.00082, 9.998415 
7.850907e+2, 2.951276e+2, -75949.19, -240269.23, 1323.2148, 0.042071678, 0.037027206, -75938.53, -28181.953, 0.0, 10.000582, 9.998402 
7.8510046e+2, 3.051267e+2, -23437.361, -183871.31, -20597.943, -0.016777076, 0.105935276, -20835.025, -20835.025, 0.0, 10.000582, 9.998456 
7.8511065e+2, 3.1512403e+2, 97503.92, 5099.6274, -22521.182, -0.01054723, -0.014549054, 102700.625, 102700.625, 0.0, 10.000847, 9.999626 
7.94907e+2, 1.2512386e+2, -1816472.0, -1715859.8, -50709.082, 0.0607952, 0.009598454, -1694736.9, 19055.422, 0.0000000034592607, 9.999101, 10.000424 
7.949167e+2, 1.3512509e+2, -1686003.8, -1563639.1, -10772.578, -0.09502721, 0.054586943, -1562698.0, 53081.746, 0.0, 9.9991455, 10.000782 
7.9493e+2, 1.4512545e+2, -1616728.1, -1536974.9, -18246.426, 0.13123623, 0.040540606, -1532998.6, -15221.736, 0.0, 9.999202, 10.000259 
7.949399e+2, 1.5512599e+2, -1493727.6, -1424356.4, -25115.56, 0.03281228, 0.06552417, -1416218.1, 3554.6572, 0.0, 9.999364, 10.000279 
7.949502e+2, 1.6512653e+2, -1388610.8, -1325360.9, -13470.363, -0.021953687, 0.0924262, -1322611.5, -843.34467, 0.0, 9.999423, 10.000258 
7.949615e+2, 1.7512703e+2, -1294014.5, -1228652.8, 8181.6396, 0.009840605, 0.11439453, -1227644.1, -3880.6257, 0.0, 9.999398, 10.000261 
7.949727e+2, 1.8512702e+2, -1232260.4, -1227560.5, 2003.9479, 0.038244106, 0.12344332, -1226822.1, -101058.07, 0.0, 9.999491, 9.999551 
7.949837e+2, 1.9512647e+2, -1101553.6, -1111787.5, -20161.936, 0.04919383, 0.11174444, -1085869.4, -58099.574, 0.0, 9.999707, 9.999568 
7.949944e+2, 2.0512608e+2, -967956.9, -979295.0, -15187.495, 0.025539074, 0.1081618, -957414.9, -27641.244, 0.0, 9.999877, 9.999723 
7.950049e+2, 2.151258e+2, -850397.25, -870942.0, 7414.321, -0.025202375, 0.1037228, -848001.0, -16225.217, 0.0, 10.000007, 9.999732 
7.950159e+2, 2.2512516e+2, -758308.44, -834729.8, -683.4447, -0.010032503, 0.09482494, -758302.3, -24521.074, 0.0, 10.000221, 9.999205 
7.9502726e+2, 2.3512417e+2, -614439.56, -712643.3, -6710.5283, 0.06645323, 0.0721597, -613983.1, 21807.088, 0.0, 10.000528, 9.999222 
7.950381e+2, 2.4512312e+2, -526571.6, -648940.06, -7262.08, 0.081061475, 0.059433084, -526142.1, 11658.144, 0.0, 10.000585, 9.99896 
7.9504836e+2, 2.5512204e+2, -454848.8, -561932.3, -4270.4053, 0.03703723, 0.04898524, -454678.78, -14867.23, 0.0, 10.000396, 9.998974 
7.9505897e+2, 2.6512107e+2, -371228.8, -507370.72, 1657.683, 0.02231739, 0.07241889, -371208.66, -29387.05, 0.0, 10.000455, 9.998649 
7.9507005e+2, 2.7512017e+2, -226253.63, -384540.66, -6707.873, 0.035025217, 0.11760556, -225969.86, 17861.055, 0.0, 10.000768, 9.998669 
7.950808e+2, 2.851187e+2, -111142.13, -261879.83, -21712.389, 0.038774893, 0.096054636, -108076.99, 37767.758, 0.0, 10.0008135, 9.9988165 
7.950912e+2, 2.9511663e+2, -49067.95, -183050.34, -5878.0547, 0.034595978, 0.0038473674, -48810.563, -947.71765, 0.0, 10.000574, 9.998799 
7.951013e+2, 3.051159e+2, -52404.16, -242221.8, -11683.689, 0.00305446, 0.09105473, -51687.707, -51687.707, 0.0, 10.000575, 9.998059 
7.951122e+2, 3.1511348e+2, 87139.484, -14316.069, -11853.321, 0.05394512, 0.037730485, 88505.94, 88505.94, 0.0, 10.000838, 9.999497 
8.049058e+2, 1.251128e+2, -1771934.4, -1665944.8, 21845.22, 0.020804055, 0.043071378, -1661618.9, 52283.87, 0.0000000057252847, 9.999283, 10.00068 
8.0491585e+2, 1.3511413e+2, -1668110.1, -1528931.8, 18334.893, -0.09521433, 0.07365901, -1526556.9, 89331.01, 0.0, 9.999158, 10.001014 
8.0492914e+2, 1.4511448e+2, -1642561.9, -1558313.4, 5060.5166, 0.12977839, 0.054419924, -1558010.5, -40126.055, 0.0, 9.999064, 10.000177 
8.049391e+2, 1.5511492e+2, -1537732.0, -1455208.4, 5184.8213, 0.03304405, 0.074720055, -1454883.9, -35001.9, 0.0, 9.999104, 10.000194 
8.049495e+2, 1.6511542e+2, -1409904.4, -1327958.0, 3024.9114, -0.021829067, 0.099063076, -1327846.5, -5968.7554, 0.0, 9.999243, 10.000328 
8.0496085e+2, 1.7511599e+2, -1277575.5, -1213032.8, -13341.159, 0.0031113378, 0.11980785, -1210383.9, 13488.213, 0.0, 9.999478, 10.00033 
8.049722e+2, 1.8511592e+2, -1211591.4, -1220633.1, -11575.021, 0.028358225, 0.12263956, -1203685.8, -77812.97, 0.0, 9.999647, 9.999522 
8.049833e+2, 1.9511525e+2, -1095308.1, -1112038.3, 9147.041, 0.040789876, 0.09992069, -1091277.9, -63398.12, 0.0, 9.999765, 9.999538 
8.049943e+2, 2.0511487e+2, -970297.75, -974013.9, 13182.714, 0.026197108, 0.09713692, -958842.8, -28959.473, 0.0, 9.999834, 9.999781 
8.05005e+2, 2.1511476e+2, -868886.3, -873009.1, -4882.0513, -0.009981831, 0.10435319, -865648.3, -33764.57, 0.0, 9.999852, 9.999792 
8.050161e+2, 2.2511415e+2, -799203.9, -849117.6, -17542.625, 0.0058018137, 0.09324165, -793655.2, -59766.293, 0.0, 9.999918, 9.999251 
8.050276e+2, 2.3511307e+2, -683799.1, -740990.7, -8023.9907, 0.070087194, 0.056425452, -682694.7, -46795.926, 0.0, 10.00003, 9.999268 
8.050385e+2, 2.4511215e+2, -575100.2, -662108.3, -5533.4033, 0.08273429, 0.049406085, -574749.7, -36842.273, 0.0, 10.000208, 9.99905 
8.050488e+2, 2.5511137e+2, -439541.34, -544543.56, -2358.8018, 0.04536061, 0.06221381, -439488.38, 426.80408, 0.0, 10.000459, 9.999063 
8.0505943e+2, 2.651103e+2, -359260.9, -503600.28, 16687.865, 0.023297967, 0.073893376, -357356.66, -15430.872, 0.0, 10.0005455, 9.998631 
8.0507046e+2, 2.75109e+2, -272194.63, -408456.72, 23053.205, 0.016885279, 0.07419755, -268400.1, -24460.578, 0.0, 10.00046, 9.9986515 
8.0508125e+2, 2.8510758e+2, -159528.92, -280329.28, -2669.008, 0.020021241, 0.057176884, -159469.98, -13516.861, 0.0, 10.000461, 9.998859 
8.0509174e+2, 2.9510608e+2, -47941.406, -177970.4, -15203.984, 0.03135193, 0.0174425, -46187.305, 1779.2267, 0.0, 10.000563, 9.998839 
8.0510205e+2, 3.0510542e+2, -41380.47, -250283.7, -12639.865, 0.015068681, 0.114068076, -40618.465, -40618.465, 0.0, 10.000708, 9.997939 
8.0511326e+2, 3.1510302e+2, 97430.8, 5006.837, 3276.152, 0.08536933, 0.07864172, 97546.78, 97546.78, 0.0, 10.000848, 9.999625 
8.1490517e+2, 1.251029e+2, -1787940.5, -1699435.4, 20013.941, 0.03187729, 0.09956258, -1695120.0, 18880.023, 0.000000004999778, 9.999286, 10.000448 
8.149148e+2, 1.3510385e+2, -1686423.6, -1564424.3, 13203.378, -0.11436017, 0.11598039, -1563011.6, 52978.297, 0.0, 9.99915, 10.000772 
8.149278e+2, 1.4510408e+2, -1641088.5, -1554984.6, 4853.494, 0.08670446, 0.091790855, -1554711.9, -36724.32, 0.0, 9.999061, 10.000203 
8.14938e+2, 1.5510432e+2, -1535905.6, -1453657.0, 7968.664, 0.013479178, 0.09292816, -1452892.0, -32906.523, 0.0, 9.999111, 10.000202 
8.1494874e+2, 1.6510439e+2, -1440263.6, -1391187.3, 11024.915, -0.028738948, 0.095178604, -1388824.4, -66838.85, 0.0, 9.999245, 9.999892 
8.1496024e+2, 1.7510423e+2, -1307825.6, -1273929.0, -4498.868, -0.0039860527, 0.08844849, -1273342.0, -49354.25, 0.0, 9.999471, 9.999915 
8.1497157e+2, 1.8510407e+2, -1173544.9, -1140172.5, -8124.3867, 0.0034661677, 0.07254913, -1138299.8, -12311.009, 0.0, 9.9996395, 10.000079 
8.149825e+2, 1.9510385e+2, -1057474.8, -1033179.56, 13718.555, -0.017140621, 0.039916694, -1027003.3, 985.2393, 0.0, 9.999763, 10.000081 
8.14994e+2, 2.0510358e+2, -1003693.06, -1042353.4, 12933.385, 0.014957843, 0.04423315, -999765.4, -69774.336, 0.0, 9.999829, 9.999313 
8.1500596e+2, 2.1510324e+2, -901794.75, -940360.8, -4056.9053, 0.10217289, 0.07605941, -901372.6, -69376.54, 0.0, 9.999847, 9.999331 
8.15017e+2, 2.2510271e+2, -780448.3, -809654.94, -14186.142, 0.102511644, 0.079576224, -774692.25, -40690.6, 0.0, 9.999915, 9.999524 
8.150271e+2, 2.3510194e+2, -665323.4, -702012.5, -3280.5261, 0.018759942, 0.048563644, -665032.3, -29024.6, 0.0, 10.000027, 9.9995365 
8.150379e+2, 2.451014e+2, -568517.0, -647613.75, 3154.2925, 0.003129951, 0.06156228, -568391.44, -30379.006, 0.0, 10.000203, 9.999152 
8.150493e+2, 2.5510105e+2, -432677.47, -529458.0, 7325.4224, 0.052736092, 0.105650924, -432126.16, 7889.954, 0.0, 10.000454, 9.999169 
8.1506026e+2, 2.6509985e+2, -346702.25, -476333.97, 13443.928, 0.048485443, 0.089160256, -345322.7, -3295.444, 0.0, 10.00054, 9.99882 
8.150707e+2, 2.7509788e+2, -260302.73, -382242.5, 21010.416, -0.0062085683, 0.005798199, -256784.14, -12738.311, 0.0, 10.000453, 9.998836 
8.1508136e+2, 2.8509653e+2, -180209.33, -322266.13, 341.87787, -0.010466476, 0.0014093586, -180208.52, -34149.08, 0.0, 10.000456, 9.998574 
8.1509227e+2, 2.950958e+2, -69074.414, -221371.14, -9603.362, 0.031419788, 0.06774174, -68471.24, -20402.852, 0.0, 10.000559, 9.998544 
8.1510276e+2, 3.0509508e+2, -33595.742, -232177.11, -5764.4917, 0.019462563, 0.16763912, -33428.55, -33428.55, 0.0, 10.0007, 9.998067 
8.15114e+2, 3.1509262e+2, 118913.02, 53670.992, 8785.015, 0.06912768, 0.10796637, 120075.25, 120075.25, 0.0000000016901937, 10.000831, 9.999968 
8.249046e+2, 1.250924e+2, -1793463.8, -1738205.6, 27270.35, 0.039811622, 0.08580746, -1727014.1, -12912.796, 0.0000000017683296, 9.999404, 10.000124 
8.249139e+2, 1.3509314e+2, -1694211.5, -1608714.8, 5256.051, -0.116522305, 0.116466805, -1608392.9, 7702.261, 0.0, 9.99927, 10.000411 
8.249267e+2, 1.4509329e+2, -1607188.8, -1529293.4, 5440.215, 0.06656277, 0.10014784, -1528915.3, -10821.562, 0.0, 9.999253, 10.000288 
8.249372e+2, 1.550935e+2, -1485066.1, -1419593.5, 12361.255, 0.00704326, 0.0900408, -1417337.5, 2753.4136, 0.0, 9.99942, 10.000287 
8.249481e+2, 1.650934e+2, -1419045.1, -1395960.1, 29738.598, -0.028090248, 0.07844164, -1375602.5, -53510.473, 0.0, 9.999456, 9.999756 
8.2495964e+2, 1.7509298e+2, -1330938.8, -1300747.3, 35488.035, -0.0056249774, 0.05715376, -1277277.8, -53180.383, 0.0, 9.99938, 9.999774 
8.249711e+2, 1.8509287e+2, -1191752.9, -1139904.4, 30171.064, -0.003117482, 0.048888307, -1126049.8, 48.115032, 0.0, 9.999476, 10.000158 
8.249821e+2, 1.95093e+2, -1054819.8, -1023088.7, 14791.69, -0.031917207, 0.043920923, -1017263.0, 10831.214, 0.0, 9.999743, 10.000159 
8.249937e+2, 2.0509273e+2, -1004584.1, -1051977.5, 4649.4087, 0.004457507, 0.048144497, -1004132.3, -74035.5, 0.0, 9.999864, 9.99923 
8.250059e+2, 2.1509205e+2, -907952.25, -952518.25, 15961.13, 0.10774637, 0.054112017, -902825.56, -70720.17, 0.0, 9.9998455, 9.999249 
8.2501704e+2, 2.2509152e+2, -773661.25, -802377.2, 17729.87, 0.11134184, 0.061701756, -765204.75, -31093.926, 0.0, 9.999945, 9.99956 
8.2502717e+2, 2.3509112e+2, -644151.2, -687595.3, 9392.156, 0.01776194, 0.06225384, -642207.7, -6094.1865, 0.0, 10.0001545, 9.999574 
8.25038e+2, 2.4509054e+2, -562766.4, -650149.8, 1513.7568, -0.0067033647, 0.072701894, -562740.2, -24621.639, 0.0, 10.000266, 9.999104 
8.250496e+2, 2.550898e+2, -460227.94, -547572.8, -6701.597, 0.035319194, 0.082879335, -459716.75, -19590.535, 0.0, 10.000287, 9.9991255 
8.2506055e+2, 2.6508874e+2, -366270.47, -464556.72, -11502.534, 0.03574548, 0.07081029, -364942.28, -22806.154, 0.0, 10.000316, 9.999008 
8.250711e+2, 2.750874e+2, -261568.8, -361972.22, -5535.788, -0.0027009698, 0.029226627, -261264.5, -17116.037, 0.0, 10.000356, 9.999021 
8.2508194e+2, 2.8508613e+2, -183523.73, -332556.0, -11799.627, 0.00233716, 0.03104977, -182595.28, -36434.082, 0.0, 10.00047, 9.998496 
8.250931e+2, 2.95085e+2, -60666.59, -225071.75, -7428.4707, 0.04760325, 0.06769811, -60331.625, -12156.99, 0.0, 10.000652, 9.998473 
8.251035e+2, 3.05084e+2, -35905.105, -217253.0, -327.51056, 0.03009463, 0.13430986, -35904.51, -35904.51, 0.0, 10.000614, 9.998211 
8.2511455e+2, 3.1508228e+2, 66923.08, 59496.043, 9547.239, 0.06571167, 0.1329315, 73453.58, 73453.58, 0.000000023716037, 10.000341, 10.000243 
8.349039e+2, 1.250813e+2, -1823411.4, -1801364.8, 24894.182, 0.027930008, -0.0005337594, -1785162.4, -70956.35, 0.000000000051048894, 9.999405, 9.999692 
8.349134e+2, 1.3508199e+2, -1725106.4, -1676702.6, 1211.9554, -0.104858324, 0.07214932, -1676672.4, -60469.254, 0.0, 9.999285, 9.999938 
8.3492595e+2, 1.4508215e+2, -1598166.0, -1511455.4, 9773.6875, 0.06528606, 0.076022856, -1510367.4, 7835.2354, 0.0, 9.999258, 10.000407 
8.349366e+2, 1.5508251e+2, -1476120.6, -1399106.9, 18737.654, 0.010671402, 0.06489477, -1394789.9, 25408.04, 0.0, 9.999413, 10.00043 
8.349476e+2, 1.6508253e+2, -1407117.9, -1370371.5, 26261.895, -0.024148954, 0.05015481, -1356693.8, -34496.652, 0.0, 9.999451, 9.999935 
8.3495903e+2, 1.7508228e+2, -1318888.8, -1277162.8, 33563.586, -0.004919612, 0.0279364, -1258506.4, -34306.383, 0.0, 9.999385, 9.999934 
8.349706e+2, 1.8508233e+2, -1221092.4, -1200330.0, 39563.82, 0.0045220396, 0.05176598, -1169808.1, -43608.383, 0.0, 9.999475, 9.999744 
8.349821e+2, 1.9508271e+2, -1084212.6, -1082359.8, 24778.354, -0.0066434424, 0.11074927, -1058490.5, -30293.918, 0.0, 9.999737, 9.999756 
8.349934e+2, 2.0508233e+2, -983884.94, -1008025.5, 2821.0217, -0.008171121, 0.10884766, -983559.7, -53359.207, 0.0, 9.999859, 9.999535 
8.350046e+2, 2.1508119e+2, -887127.9, -908856.44, 15111.407, 0.0045378455, 0.039307076, -879380.7, -47169.406, 0.0, 9.999843, 9.99955 
8.3501613e+2, 2.2508064e+2, -788730.3, -832991.56, 24412.37, 0.029615719, 0.039459053, -777910.56, -43694.316, 0.0, 9.999941, 9.999352 
8.3502775e+2, 2.3508061e+2, -658931.4, -717772.56, 17243.256, 0.06450761, 0.09768562, -654250.7, -18034.889, 0.0, 10.000152, 9.999369 
8.350389e+2, 2.4507962e+2, -576575.3, -678154.7, 1606.4542, 0.05030073, 0.085086584, -576549.94, -38324.523, 0.0, 10.000262, 9.998914 
8.350494e+2, 2.5507766e+2, -474378.63, -575966.44, -4994.4653, -0.0115390485, -0.0042527346, -474133.66, -33888.64, 0.0, 10.000281, 9.998933 
8.350603e+2, 2.6507694e+2, -353893.84, -438682.6, -10262.921, -0.019590551, 0.017653897, -352669.28, -10417.067, 0.0, 10.000314, 9.999187 
8.350718e+2, 2.7507737e+2, -249623.97, -336514.03, -3189.9414, 0.025281062, 0.13777466, -249507.02, -5259.2188, 0.0, 10.000351, 9.999199 
8.3508295e+2, 2.8507632e+2, -177003.2, -316928.3, -4656.754, 0.05575289, 0.1428141, -176848.39, -30589.809, 0.0, 10.000462, 9.998608 
8.350939e+2, 2.9507375e+2, -54278.664, -208475.94, 804.73254, 0.07076891, 0.02490591, -54274.465, -5989.8115, 0.0, 10.000638, 9.998593 
8.351042e+2, 3.0507222e+2, -24112.518, -191524.25, -10552.8545, 0.038659025, 0.021548277, -23449.936, -23449.936, 0.0, 10.000608, 9.998391 
8.3511496e+2, 3.1507182e+2, 82628.03, 91541.49, -430.7616, 0.06710493, 0.13645808, 91562.266, 91562.266, 0.00000010288848, 10.000342, 10.0004635 
8.449032e+2, 1.2507051e+2, -1780765.4, -1770309.4, -17404.102, 0.0054048565, -0.006181974, -1757365.0, -43053.297, 0.0, 9.999651, 9.999785 
8.449126e+2, 1.3507108e+2, -1727817.1, -1670150.6, -5212.0796, -0.10718359, 0.049388003, -1669683.4, -53374.477, 0.0, 9.999236, 10.000004 
8.449251e+2, 1.4507124e+2, -1636179.6, -1553172.4, 28650.764, 0.062066842, 0.057071887, -1544243.8, -25934.793, 0.0, 9.9991, 10.0001955 
8.44936e+2, 1.5507151e+2, -1510391.1, -1439002.6, 11608.346, 0.013606216, 0.06008898, -1437162.5, -16856.135, 0.0, 9.999279, 10.00022 
8.4494704e+2, 1.6507168e+2, -1402169.0, -1352830.3, 103.831245, -0.019538615, 0.062232375, -1352830.0, -30525.533, 0.0, 9.99942, 10.000071 
8.449585e+2, 1.7507173e+2, -1288207.3, -1247427.4, 2892.6758, -0.007396327, 0.05813558, -1247223.1, -22919.535, 0.0, 9.999531, 10.000068 
8.4497017e+2, 1.8507174e+2, -1215852.8, -1215903.4, 22435.346, 0.0072848108, 0.07615189, -1193442.8, -67138.805, 0.0, 9.999587, 9.999584 
8.449819e+2, 1.9507164e+2, -1117643.9, -1115965.9, 26399.42, 0.013295688, 0.10651344, -1090392.1, -62086.703, 0.0, 9.999581, 9.9996 
8.449933e+2, 2.0507126e+2, -999674.5, -1003990.2, 7110.89, -0.0009918568, 0.1059313, -994401.25, -64091.88, 0.0, 9.9997, 9.9996395 
8.450042e+2, 2.1507053e+2, -866122.0, -887474.94, 3171.8457, -0.030469084, 0.06561351, -865660.8, -33344.85, 0.0, 9.999938, 9.999651 
8.4501576e+2, 2.2506991e+2, -775542.2, -835566.1, 11107.039, -0.004962908, 0.0598867, -773552.8, -39231.715, 0.0, 10.000071, 9.99927 
8.45028e+2, 2.3506941e+2, -671299.5, -732935.3, 11614.674, 0.07131848, 0.079549074, -669183.5, -32858.574, 0.0, 10.000106, 9.999286 
8.4503925e+2, 2.4506836e+2, -586860.2, -679744.56, 7006.695, 0.06946046, 0.06343421, -586334.6, -47999.53, 0.0, 10.000178, 9.998943 
8.450497e+2, 2.5506675e+2, -472269.72, -571549.9, 15385.437, -0.007923029, 0.003681804, -469940.1, -29588.475, 0.0, 10.000282, 9.998962 
8.450606e+2, 2.6506597e+2, -358736.94, -447150.47, 7946.3633, -0.018736616, 0.02269704, -358028.4, -15669.033, 0.0, 10.000308, 9.999131 
8.4507215e+2, 2.7506602e+2, -265064.8, -349633.75, -3807.0457, 0.035805985, 0.108753644, -264893.78, -20534.793, 0.0, 10.000272, 9.999145 
8.4508336e+2, 2.8506508e+2, -197333.88, -309468.3, -8534.488, 0.06231785, 0.12344778, -196688.03, -50319.71, 0.0, 10.00025, 9.998759 
8.450943e+2, 2.9506323e+2, -105282.07, -215761.14, -2119.7808, 0.062191386, 0.05771268, -105241.414, -56853.793, 0.0, 10.000214, 9.998747 
8.451047e+2, 3.0506134e+2, -62159.504, -214772.75, -20704.416, 0.034546085, 0.016345613, -59400.5, -59400.5, 0.00000000024035085, 10.000369, 9.998345 
8.451156e+2, 3.1506062e+2, 131371.73, 106872.484, -30733.469, 0.08215902, 0.103008516, 152206.84, 152206.84, 0.00000026211356, 10.000711, 10.00039 
8.549023e+2, 1.2506014e+2, -1736107.0, -1679102.0, -34799.867, -0.046168428, 0.07336367, -1662622.0, 51795.734, 0.0, 9.999658, 10.000408 
8.549117e+2, 1.3506052e+2, -1687252.5, -1584932.4, -21279.367, -0.123862654, 0.049689464, -1580683.4, 35728.84, 0.0, 9.999231, 10.00059 
8.5492414e+2, 1.4506058e+2, -1673516.3, -1629668.8, 34428.656, 0.05389256, 0.045051012, -1610776.0, -92363.67, 0.0, 9.999094, 9.999675 
8.549352e+2, 1.5506059e+2, -1547212.9, -1517507.3, 19652.94, 0.009476608, 0.076695584, -1507725.9, -87310.45, 0.0, 9.999286, 9.999679 
8.549465e+2, 1.6506086e+2, -1397628.9, -1343646.1, 3593.1204, -0.020908117, 0.1137333, -1343408.0, -20994.111, 0.0, 9.999421, 10.000133 
8.5495794e+2, 1.7506137e+2, -1283074.8, -1235776.5, 7047.0674, -0.014635928, 0.14722815, -1234748.9, -10340.666, 0.0, 9.999527, 10.00015 
8.549697e+2, 1.8506104e+2, -1208663.0, -1199907.3, 21349.074, 0.0025736296, 0.12261903, -1182491.9, -56081.582, 0.0, 9.999581, 9.999698 
8.549816e+2, 1.9505987e+2, -1109980.4, -1100375.6, 26261.879, 0.024669508, 0.032224707, -1078480.6, -50060.31, 0.0, 9.999581, 9.999707 
8.549932e+2, 2.0505956e+2, -1006816.9, -1018313.0, 15000.45, 0.022598596, 0.038943816, -996500.9, -66077.72, 0.0, 9.999697, 9.999543 
8.5500443e+2, 2.1506006e+2, -873447.25, -901662.6, 12054.317, -0.00039371185, 0.13245219, -868998.7, -36579.64, 0.0, 9.999932, 9.999557 
8.5501593e+2, 2.250594e+2, -773989.1, -831030.44, 11171.244, 0.004519468, 0.12417276, -771879.4, -37454.42, 0.0, 10.000064, 9.999305 
8.5502774e+2, 2.3505758e+2, -668842.0, -727427.9, 13365.456, 0.035545215, 0.007483206, -665936.94, -29496.336, 0.0, 10.000104, 9.999325 
8.5503924e+2, 2.450568e+2, -570702.94, -646061.0, 10368.375, 0.047509875, 0.005583815, -569302.4, -30854.898, 0.0, 10.000176, 9.999176 
8.5505044e+2, 2.55057e+2, -456568.16, -538082.8, 19517.648, 0.042653363, 0.10505104, -452135.9, -11689.822, 0.0, 10.0002775, 9.999195 
8.550615e+2, 2.6505584e+2, -379316.8, -488836.8, 5728.067, 0.03573588, 0.08787322, -379018.03, -36560.688, 0.0, 10.000303, 9.998848 
8.550723e+2, 2.7505332e+2, -286005.56, -391497.34, -4110.124, 0.024371002, -0.051339395, -285845.66, -41364.324, 0.0, 10.000265, 9.99886 
8.5508317e+2, 2.850525e+2, -184679.44, -282620.3, -9409.46, 0.01815781, -0.023035198, -183783.64, -37293.617, 0.0, 10.000246, 9.998945 
8.550941e+2, 2.950533e+2, -92709.19, -189401.63, -1965.1428, 0.018554825, 0.16027091, -92669.266, -44185.227, 0.0, 10.000212, 9.998929 
8.5510486e+2, 3.0505133e+2, -81251.24, -254132.08, -7756.64, 0.0153610045, 0.11281304, -80903.92, -80903.92, 0.0000000059514194, 10.000368, 9.9980755 
8.551165e+2, 3.1504858e+2, 104740.0, 54764.156, -17211.947, 0.10128156, 0.02509603, 110094.25, 110094.25, 0.0000005093443, 10.000699, 10.000037 
8.649014e+2, 1.2504952e+2, -1853469.1, -1713381.8, -7210.1963, -0.056963656, 0.10286248, -1713011.6, 1512.3779, 0.00000000000000000000885557, 9.998758, 10.000606 
8.6491114e+2, 1.3505e+2, -1647901.3, -1547845.5, -29122.455, -0.11121763, 0.07428914, -1539986.4, 76529.54, 0.0, 9.999425, 10.0007515 
8.649235e+2, 1.450501e+2, -1608056.4, -1604494.9, 22143.695, 0.05866657, 0.06699481, -1584060.5, -65545.36, 0.0, 9.999571, 9.999618 
8.649344e+2, 1.5504988e+2, -1558202.3, -1529301.6, 41632.313, -0.0038387857, 0.080412194, -1499683.1, -79162.78, 0.0, 9.999239, 9.99962 
8.6494565e+2, 1.6504997e+2, -1431043.6, -1379569.8, 48172.188, -0.033236094, 0.1117544, -1350690.3, -28169.49, 0.0, 9.999275, 9.999958 
8.649576e+2, 1.7505038e+2, -1273942.4, -1250101.9, 33066.043, -0.010820331, 0.1536808, -1226873.1, -2356.7498, 0.0, 9.99967, 9.999983 
8.6496943e+2, 1.8504995e+2, -1168633.1, -1172385.4, 26894.684, 0.007163859, 0.12421328, -1143549.1, -17030.129, 0.0, 9.999822, 9.99977 
8.649812e+2, 1.9504866e+2, -1082859.8, -1079747.5, 27583.885, 0.015691677, 0.014788756, -1053675.9, -25146.67, 0.0, 9.999735, 9.999775 
8.6499286e+2, 2.050483e+2, -1008495.2, -1029022.4, 23377.139, 0.020528778, 0.017357549, -993227.8, -62695.566, 0.0, 9.999727, 9.9994545 
8.6500454e+2, 2.1504885e+2, -900070.1, -924182.44, 19952.38, 0.022466289, 0.12280445, -888814.3, -56286.08, 0.0, 9.999792, 9.999471 
8.650161e+2, 2.2504812e+2, -798559.06, -842045.5, 16909.385, 0.0237796, 0.11375119, -792757.9, -58223.19, 0.0, 9.999892, 9.999312 
8.6502767e+2, 2.3504616e+2, -680299.6, -731727.75, 15231.421, 0.023924967, -0.018138532, -676127.06, -39575.496, 0.0, 10.000021, 9.999334 
8.650392e+2, 2.450455e+2, -573652.75, -640502.56, 6324.3184, 0.034824245, -0.012856663, -573059.7, -34502.383, 0.0, 10.000127, 9.999237 
8.6505085e+2, 2.5504607e+2, -460380.66, -533269.1, 1186.1487, 0.056586534, 0.11714867, -460361.34, -19808.98, 0.0, 10.000224, 9.999253 
8.6506194e+2, 2.6504493e+2, -386590.38, -495328.4, -13793.406, 0.05605381, 0.098632336, -384867.97, -42304.234, 0.0, 10.000268, 9.998819 
8.650726e+2, 2.7504203e+2, -291309.6, -397539.94, -5996.8203, 0.033173006, -0.07358763, -290972.16, -46380.74, 0.0, 10.000243, 9.99883 
8.650835e+2, 2.8504115e+2, -173857.88, -277018.72, -3519.2026, 0.021187179, -0.05000931, -173737.95, -27137.38, 0.0, 10.0003195, 9.998948 
8.650944e+2, 2.9504222e+2, -47845.273, -166931.2, -11505.285, 0.019600533, 0.15550767, -46743.895, 1848.1766, 0.0, 10.000518, 9.998935 
8.6510533e+2, 3.050401e+2, -35175.37, -238990.69, -8660.523, 0.008994763, 0.10045162, -34808.03, -34808.03, 0.000000027135602, 10.000715, 9.998012 
8.651171e+2, 3.150377e+2, 110641.78, 34122.67, -7112.3784, 0.07922143, 0.05460836, 111297.25, 111297.25, 0.00000083365, 10.000839, 9.999828 
8.749004e+2, 1.2503867e+2, -1870815.0, -1746414.9, 19273.756, -0.038873088, 0.07951698, -1743497.1, -28867.174, 0.0000000055054987, 9.998744, 10.000386 
8.749109e+2, 1.3503963e+2, -1665349.1, -1584893.4, -3173.6196, -0.076467566, 0.12245363, -1584768.4, 31851.28, 0.0, 9.999428, 10.000496 
8.7492317e+2, 1.4503983e+2, -1580550.6, -1548881.6, 8578.151, 0.06790688, 0.12219263, -1546707.4, -28090.39, 0.0, 9.999577, 9.999996 
8.749334e+2, 1.5503937e+2, -1530054.5, -1470932.6, 29623.586, -0.02638368, 0.071363255, -1458643.8, -38022.848, 0.0, 9.999238, 10.000022 
8.749447e+2, 1.6503903e+2, -1458467.4, -1435870.3, 62250.01, -0.0573142, 0.05689181, -1383901.8, -61277.137, 0.0, 9.999272, 9.999574 
8.749573e+2, 1.7503881e+2, -1301611.8, -1308133.1, 48336.22, -0.0004935435, 0.07712331, -1256426.4, -31798.541, 0.0, 9.999672, 9.999583 
8.749693e+2, 1.8503852e+2, -1167565.5, -1169675.0, 22801.674, 0.015715078, 0.07957525, -1145794.3, -19164.2, 0.0, 9.999819, 9.99979 
8.7498057e+2, 1.9503808e+2, -1081544.9, -1076432.8, 24373.084, -0.015927678, 0.05363139, -1054482.0, -25850.242, 0.0, 9.999732, 9.9998 
8.749923e+2, 2.0503755e+2, -1014881.44, -1041253.0, 24738.248, -0.01022539, 0.041939143, -1000034.25, -69398.15, 0.0, 9.9997225, 9.999373 
8.750044e+2, 2.1503691e+2, -905500.1, -935582.0, 22340.139, 0.0351446, 0.036509357, -893609.44, -60966.34, 0.0, 9.999792, 9.9993925 
8.750162e+2, 2.2503614e+2, -800714.8, -846117.94, 20525.252, 0.049653143, 0.027056577, -792811.7, -58161.563, 0.0, 9.999889, 9.999287 
8.750278e+2, 2.3503523e+2, -682779.8, -736047.6, 20247.3, 0.034433503, 0.0031519977, -675957.5, -39299.953, 0.0, 10.000017, 9.999308 
8.750393e+2, 2.4503452e+2, -581338.4, -655659.6, 8910.604, 0.028785806, 0.010804621, -580284.94, -41620.895, 0.0, 10.000123, 9.999135 
8.750508e+2, 2.55034e+2, -468442.72, -549001.3, 5533.6826, 0.030687109, 0.041593507, -468064.4, -27394.389, 0.0, 10.000219, 9.999147 
8.7506205e+2, 2.650332e+2, -372839.56, -465703.75, -14350.407, 0.03906189, 0.053301867, -370672.53, -27994.123, 0.0, 10.000262, 9.999025 
8.7507313e+2, 2.7503207e+2, -276846.34, -366942.3, -5856.9854, 0.057329725, 0.036883753, -276467.2, -31777.65, 0.0, 10.00024, 9.9990425 
8.750843e+2, 2.8503102e+2, -186832.98, -303839.78, 2977.2898, 0.0658765, 0.040111657, -186757.28, -40057.11, 0.0, 10.000319, 9.998765 
8.750953e+2, 2.950299e+2, -61484.055, -193139.05, -2771.3396, 0.060805377, 0.04899226, -61425.746, -12714.656, 0.0, 10.000509, 9.998759 
8.751061e+2, 3.050277e+2, -27257.1, -219521.48, -2601.694, 0.012670609, -0.016091038, -27221.9, -27221.9, 0.00000006425192, 10.000703, 9.998151 
8.751172e+2, 3.1502777e+2, 105441.37, 26405.225, -690.1584, 0.0066445116, 0.17430326, 105447.39, 105447.39, 0.0000011924308, 10.000828, 9.99978 
8.848993e+2, 1.2502776e+2, -1868825.6, -1753615.3, 24902.994, -0.023704914, 0.06640255, -1748462.9, -33727.734, 0.00000006865043, 9.998794, 10.000315 
8.8491005e+2, 1.3502845e+2, -1746805.1, -1636339.6, 10279.694, -0.076533794, 0.09414621, -1635391.1, -18662.748, 0.0, 9.998921, 10.000387 
8.849225e+2, 1.4502868e+2, -1621717.0, -1562474.1, 7031.791, 0.061642412, 0.0992383, -1561651.0, -42925.51, 0.0, 9.999267, 10.000053 
8.8493305e+2, 1.5502843e+2, -1433925.5, -1417491.1, 2386.5798, -0.016704967, 0.06166286, -1417151.5, 3575.0752, 0.0, 9.999868, 10.000084 
8.8494444e+2, 1.6502804e+2, -1374117.0, -1406615.6, 26877.232, -0.03977533, 0.04503185, -1358958.9, -36228.363, 0.0, 9.999902, 9.99947 
8.84957e+2, 1.7502755e+2, -1354239.0, -1346279.9, 32875.74, 0.016462445, 0.046917785, -1317143.8, -92406.75, 0.0, 9.999365, 9.999471 
8.8496906e+2, 1.8502718e+2, -1236591.1, -1211377.1, 27300.652, 0.030832708, 0.052316163, -1193913.1, -67172.945, 0.0, 9.99938, 9.999717 
8.8498056e+2, 1.9502692e+2, -1054732.1, -1070942.8, 20724.559, -0.0070449174, 0.051147588, -1040584.3, -11843.697, 0.0, 9.9999485, 9.999733 
8.8499224e+2, 2.0502636e+2, -949916.94, -1014143.6, 11147.958, -0.00779679, 0.042515356, -948037.0, -17291.803, 0.0, 10.000188, 9.999334 
8.8500434e+2, 2.1502548e+2, -863625.0, -919760.06, 10583.728, 0.031627707, 0.017864896, -861695.8, -28941.773, 0.0, 10.000099, 9.999352 
8.8501626e+2, 2.2502472e+2, -771389.6, -835802.25, 15942.488, 0.050751574, 0.013234404, -767659.75, -32898.668, 0.0, 10.000108, 9.999252 
8.85028e+2, 2.3502408e+2, -656173.3, -727276.6, 13171.692, 0.049137317, 0.019633893, -653811.75, -17045.35, 0.0, 10.000217, 9.999271 
8.8503957e+2, 2.4502325e+2, -579957.1, -654768.6, -1804.8285, 0.04092105, 0.017207865, -579913.6, -41139.6, 0.0, 10.000133, 9.999137 
8.850508e+2, 2.5502223e+2, -520860.88, -573702.2, 1368.6288, 0.02482308, -0.0033234304, -520825.44, -80041.13, 0.0, 9.999857, 9.999152 
8.8506204e+2, 2.6502147e+2, -420336.28, -494395.47, -10771.966, 0.023850266, 0.017550863, -418801.3, -76008.91, 0.0, 9.999961, 9.998974 
8.850733e+2, 2.7502102e+2, -250291.7, -359581.97, -23033.14, 0.040116612, 0.07061383, -245635.78, -837.16364, 0.0, 10.000447, 9.998992 
8.8508457e+2, 2.8502e+2, -147092.3, -289138.5, -26176.54, 0.055298004, 0.08389436, -142422.0, 4386.9824, 0.0, 10.000612, 9.998724 
8.850959e+2, 2.9501837e+2, -75858.97, -204843.44, -23150.738, 0.06717022, 0.04551074, -71829.64, -23005.504, 0.0, 10.000429, 9.998718 
8.8510674e+2, 3.050159e+2, -56037.97, -224703.28, -11827.019, 0.023981517, -0.04533272, -55212.68, -55212.68, 0.00000010587227, 10.000466, 9.99823 
8.8511795e+2, 3.1501642e+2, 81850.51, 1193.1117, -18555.752, 0.002852291, 0.17822583, 85914.6, 85914.6, 0.0000015115112, 10.000726, 9.999656 
8.94898e+2, 1.2501684e+2, -1865245.6, -1745680.8, 25667.523, -0.03396193, 0.063861616, -1740403.5, -25564.72, 0.00000033567557, 9.998791, 10.00037 
8.949086e+2, 1.3501653e+2, -1747144.0, -1635825.3, 15133.387, -0.1116546, -0.010268689, -1633804.6, -16962.896, 0.00000000007521531, 9.998917, 10.000393 
8.9492154e+2, 1.450167e+2, -1637726.6, -1596998.0, 27691.654, 0.040112883, -0.0012140471, -1582988.9, -64148.51, 0.0, 9.99927, 9.999815 
8.949332e+2, 1.5501706e+2, -1451270.6, -1454646.3, 25327.49, 0.019045632, 0.05092989, -1427574.8, -6737.5586, 0.0, 9.999872, 9.999828 
8.949449e+2, 1.6501702e+2, -1362735.4, -1383287.8, 5810.2886, 0.012550178, 0.07543487, -1361206.5, -38368.254, 0.0, 9.999903, 9.999629 
8.949566e+2, 1.7501657e+2, -1342730.1, -1321764.5, 12663.177, 0.038076334, 0.06339856, -1315808.1, -90964.71, 0.0, 9.999362, 9.99964 
8.949686e+2, 1.8501596e+2, -1248839.1, -1236027.1, 47589.55, 0.049061883, 0.043717816, -1194414.3, -67565.19, 0.0, 9.999376, 9.99955 
8.9498097e+2, 1.9501518e+2, -1066187.5, -1095055.6, 41889.332, 0.040094763, 0.00742521, -1036315.2, -7459.848, 0.0, 9.999949, 9.999567 
8.9499277e+2, 2.0501474e+2, -950029.3, -1013917.7, 6191.083, 0.025599897, 0.0181295, -949434.9, -18575.734, 0.0, 10.000186, 9.999337 
8.950042e+2, 2.1501459e+2, -864401.2, -920086.25, 6984.5317, 0.00882737, 0.06693178, -863538.5, -30677.754, 0.0, 10.0000925, 9.999353 
8.950161e+2, 2.2501393e+2, -775105.7, -842593.06, 18832.816, 0.022690713, 0.07367485, -770206.0, -35339.047, 0.0, 10.000103, 9.999208 
8.9502835e+2, 2.3501274e+2, -659525.94, -733987.4, 17591.309, 0.064705044, 0.03077585, -655579.25, -18701.418, 0.0, 10.000216, 9.999227 
8.9504e+2, 2.4501169e+2, -573700.7, -641576.6, -12681.736, 0.06818531, 0.004175466, -571408.6, -32521.545, 0.0, 10.000131, 9.9992285 
8.950507e+2, 2.5501075e+2, -513975.97, -559438.3, -8265.102, 0.03534358, -0.017923364, -512520.0, -71624.805, 0.0, 9.999857, 9.999251 
8.9506185e+2, 2.6500982e+2, -441019.66, -537439.8, 6656.7397, 0.0064872243, -0.006510004, -440562.25, -97656.88, 0.0, 9.999961, 9.998679 
8.950732e+2, 2.750089e+2, -272772.13, -404218.6, -3681.007, -0.019930346, 0.030860072, -272669.13, -27751.143, 0.0, 10.000439, 9.99869 
8.9508456e+2, 2.8500816e+2, -142134.77, -276696.4, -31891.34, -0.011505388, 0.08271474, -134959.11, 11967.416, 0.0, 10.000602, 9.998814 
8.95096e+2, 2.9500756e+2, -69342.84, -191282.61, -27844.344, 0.03333339, 0.14056312, -63285.613, -14354.283, 0.0, 10.000428, 9.998812 
8.951074e+2, 3.0500478e+2, -55619.098, -224350.28, -2475.174, 0.035282508, 0.009525518, -55582.797, -55582.797, 0.00000013409642, 10.000467, 9.998232 
8.951192e+2, 3.150036e+2, 65202.97, -29494.225, -7107.945, 0.05716657, 0.06355741, 65733.516, 65733.516, 0.0000016978646, 10.00071, 9.999453 
9.048968e+2, 1.250054e+2, -1831418.6, -1745142.4, -466.46478, -0.043444473, 0.052299235, -1745139.8, -30190.514, 0.0000010657902, 9.999086, 10.000233 
9.049078e+2, 1.3500483e+2, -1709990.0, -1636426.9, -24092.24, -0.09810135, -0.029755453, -1629238.9, -12283.525, 0.000000007369457, 9.99925, 10.000228 
9.0492094e+2, 1.4500502e+2, -1624520.9, -1582099.3, 1097.6234, 0.054418433, -0.014308541, -1582070.9, -63116.844, 0.0, 9.999327, 9.999889 
9.0493286e+2, 1.550055e+2, -1527389.4, -1483996.5, 21161.809, 0.01942058, 0.040820606, -1475385.1, -54435.227, 0.0, 9.999317, 9.999895 
9.049446e+2, 1.6500552e+2, -1411656.1, -1413482.9, -3303.2803, 0.010477335, 0.07115194, -1409142.3, -86191.78, 0.0, 9.999595, 9.999571 
9.0495634e+2, 1.750051e+2, -1226908.3, -1271263.6, -14695.019, 0.040535744, 0.06862484, -1222481.6, 2474.197, 0.0, 10.000182, 9.99959 
9.049685e+2, 1.8500452e+2, -1120547.9, -1181376.8, 20269.957, 0.05606103, 0.05702216, -1114412.3, 12549.446, 0.0, 10.00029, 9.999483 
9.04981e+2, 1.9500373e+2, -1075924.0, -1107926.8, 21067.709, 0.053072307, 0.02784819, -1065470.0, -36501.71, 0.0, 9.999918, 9.999494 
9.04993e+2, 2.0500319e+2, -987948.4, -1024570.3, -7328.0205, 0.040060062, 0.02931111, -986536.5, -55563.75, 0.0, 9.999892, 9.999406 
9.0500444e+2, 2.1500286e+2, -841799.56, -901571.2, -3436.981, 0.01813796, 0.053061258, -841602.56, -8627.356, 0.0, 10.000216, 9.999421 
9.0501624e+2, 2.2500221e+2, -753613.1, -831577.25, 6408.4697, 0.022219213, 0.057907242, -753089.9, -18108.791, 0.0, 10.000249, 9.999213 
9.050284e+2, 2.3500124e+2, -690464.25, -748391.8, 7623.494, 0.050216418, 0.035390504, -689477.75, -52487.35, 0.0, 10.000001, 9.99923 
9.050399e+2, 2.4500024e+2, -586591.9, -656454.25, -21030.639, 0.057524268, 0.017078195, -580749.6, -41749.996, 0.0, 10.00008, 9.99915 
9.05051e+2, 2.549992e+2, -428290.1, -526833.3, -31065.314, 0.04575378, -0.008320588, -419314.4, 21694.52, 0.0, 10.0004835, 9.999172 
9.050622e+2, 2.6499814e+2, -361465.06, -492939.72, -10322.954, 0.021420047, -0.006553401, -360659.47, -17639.496, 0.0, 10.000482, 9.9987335 
9.050734e+2, 2.7499712e+2, -321823.38, -421802.78, 4057.3872, -0.016779842, 0.015220751, -321659.0, -76626.06, 0.0, 10.000074, 9.998745 
9.0508485e+2, 2.8499642e+2, -214847.0, -323627.06, -10663.558, -0.017642047, 0.075014725, -213811.53, -66770.36, 0.0, 10.000153, 9.99871 
9.050964e+2, 2.9499605e+2, -35055.305, -185426.56, -22938.082, 0.020047657, 0.1630131, -31634.098, 17411.006, 0.0, 10.000712, 9.998714 
9.051079e+2, 3.049932e+2, 16739.62, -168181.33, -3161.3293, 0.02877115, 0.025358867, 16793.648, 16793.648, 0.0000001316986, 10.000875, 9.99842 
9.051199e+2, 3.1499186e+2, 50352.582, -40421.09, 2303.0017, 0.06358841, 0.041460678, 50410.973, 50410.973, 0.0000016698094, 10.000621, 9.999421 
9.148957e+2, 1.24993466e+2, -1848475.0, -1785420.1, 2267.4639, -0.06577545, 0.03229973, -1785338.8, -70272.3, 0.000002613721, 9.999106, 9.9999485 
9.1490763e+2, 1.3499345e+2, -1732567.5, -1682757.8, -18611.54, -0.041789986, 0.037839733, -1676571.8, -59503.25, 0.00000007607973, 9.9992485, 9.999912 
9.149207e+2, 1.4499374e+2, -1598784.3, -1527870.3, 72.37443, 0.09663178, 0.06126455, -1527870.1, -8804.21, 0.0, 9.999323, 10.000263 
9.149318e+2, 1.5499377e+2, -1500982.0, -1428310.8, 21250.594, -0.019558033, 0.032345667, -1422552.9, -1488.712, 0.0, 9.999313, 10.000278 
9.149436e+2, 1.6499355e+2, -1430611.6, -1453973.8, 17510.313, -0.050185546, 0.03433816, -1421243.8, -98176.95, 0.0, 9.999598, 9.999293 
9.1495633e+2, 1.7499317e+2, -1245931.4, -1311843.3, 7321.453, 0.020093817, 0.06349849, -1245128.0, -20054.453, 0.0, 10.000185, 9.999311 
9.149687e+2, 1.8499288e+2, -1117916.1, -1176102.5, 4777.0854, 0.04787514, 0.09252582, -1117526.5, 9550.873, 0.0, 10.000291, 9.999519 
9.1498065e+2, 1.9499262e+2, -1074221.6, -1103535.3, 6748.413, 0.028185213, 0.112390265, -1072742.6, -43663.8, 0.0, 9.999914, 9.999526 
9.149928e+2, 2.0499177e+2, -980571.1, -1008320.94, 3690.0293, 0.030577222, 0.077011645, -980088.8, -49003.438, 0.0, 9.999887, 9.99952 
9.15005e+2, 2.1499035e+2, -833595.75, -884049.8, 8550.511, 0.05657332, -0.023494273, -832186.1, 911.0028, 0.0, 10.000213, 9.999543 
9.150167e+2, 2.2498961e+2, -750483.8, -824752.9, -4424.6343, 0.047626838, -0.034744, -750221.1, -15117.904, 0.0, 10.000246, 9.999262 
9.150279e+2, 2.349896e+2, -687264.6, -741153.9, -1524.8181, 0.0036726121, 0.034170937, -687221.5, -50117.605, 0.0, 9.999998, 9.999282 
9.150395e+2, 2.4498892e+2, -603834.06, -692023.6, -6410.076, 0.0050677895, 0.057242002, -603370.56, -64259.457, 0.0, 10.000078, 9.998907 
9.150515e+2, 2.5498754e+2, -446881.88, -564166.5, -15179.028, 0.05228348, 0.02543352, -444949.25, -3824.0776, 0.0, 10.000478, 9.9989195 
9.150631e+2, 2.6498646e+2, -334590.16, -436283.66, -25495.768, 0.06492651, 0.016217485, -328556.1, 14579.876, 0.0, 10.000477, 9.999125 
9.150741e+2, 2.749857e+2, -293721.0, -363872.56, -10013.774, 0.042948786, 0.02194045, -292319.6, -47176.035, 0.0, 10.000075, 9.999143 
9.150855e+2, 2.8498483e+2, -236307.3, -367632.1, 9408.731, 0.029121304, 0.0608192, -235636.63, -88483.73, 0.0, 10.00015, 9.998408 
9.150972e+2, 2.9498383e+2, -58145.355, -229846.34, -746.94324, 0.023371333, 0.11745613, -58142.105, -8977.203, 0.0, 10.000697, 9.998417 
9.1510856e+2, 3.0498132e+2, 42161.984, -113339.25, -12235.237, 0.0032399872, 0.0052200714, 43118.797, 43118.797, 0.00000009563079, 10.000865, 9.998802 
9.1512007e+2, 3.1498104e+2, 62458.59, -15598.966, -4539.7637, 0.013260533, 0.09674101, 62721.734, 62721.734, 0.0000014046396, 10.000622, 9.999592 
9.2489487e+2, 1.2498135e+2, -1896092.3, -1788164.9, -18152.027, -0.037987456, 0.040884137, -1785193.8, -70007.96, 0.0000053718704, 9.998697, 10.000124 
9.2490685e+2, 1.3498148e+2, -1723333.0, -1661744.3, -3558.0996, -0.03901123, 0.044834796, -1661539.4, -44353.887, 0.00000033393198, 9.99924, 10.00006 
9.249201e+2, 1.449818e+2, -1574759.9, -1525921.8, 5549.0435, 0.0909131, 0.06830376, -1525299.3, -6116.8228, 0.0, 9.999531, 10.000176 
9.249313e+2, 1.5498163e+2, -1467136.1, -1420638.1, -10881.711, -0.009815622, 0.029127354, -1418217.5, 2965.8098, 0.0, 9.999586, 10.000198 
9.249434e+2, 1.6498142e+2, -1407851.3, -1426261.8, -1931.9849, -0.03794384, 0.028075423, -1407650.6, -84464.79, 0.0, 9.999687, 9.999437 
9.249564e+2, 1.7498125e+2, -1286510.5, -1315894.1, 18951.344, 0.020670103, 0.06274673, -1277223.1, -52033.4, 0.0, 9.999842, 9.999449 
9.2496884e+2, 1.8498099e+2, -1164344.4, -1200185.5, 12302.134, 0.041936066, 0.091454655, -1160528.1, -33335.137, 0.0, 9.99998, 9.999504 
9.249806e+2, 1.9498067e+2, -1047018.1, -1091477.3, 8810.215, 0.018931732, 0.10551159, -1045335.9, -16140.144, 0.0, 10.000108, 9.999515 
9.249927e+2, 2.0497984e+2, -949631.6, -988983.44, 10032.2705, 0.023422, 0.07048369, -947221.6, -16019.273, 0.0, 10.000082, 9.999558 
9.250051e+2, 2.149785e+2, -876115.9, -900579.8, 7501.32, 0.056937937, -0.023003027, -873999.0, -40785.99, 0.0, 9.999905, 9.999578 
9.250169e+2, 2.2497778e+2, -786651.94, -841730.0, -9891.777, 0.05217231, -0.035732348, -784929.25, -49710.27, 0.0, 9.999997, 9.999265 
9.2502815e+2, 2.3497768e+2, -635038.2, -715704.44, -12751.533, 0.008994697, 0.022730973, -633070.44, 4150.189, 0.0, 10.000356, 9.999285 
9.250397e+2, 2.4497704e+2, -563754.5, -675475.8, -11749.298, 0.008916989, 0.051355857, -562532.25, -23304.596, 0.0, 10.000365, 9.998883 
9.2505175e+2, 2.5497586e+2, -512156.84, -598396.4, -5182.5874, 0.051304426, 0.042945217, -511846.53, -70606.31, 0.0, 10.00004, 9.998896 
9.250634e+2, 2.6497477e+2, -391169.9, -465777.47, -21293.613, 0.0633535, 0.03486815, -385520.3, -42269.27, 0.0, 10.000098, 9.999105 
9.250744e+2, 2.7497375e+2, -228834.53, -334485.63, -37975.223, 0.045509778, 0.018418016, -216601.22, 28659.146, 0.0, 10.00053, 9.9991255 
9.2508596e+2, 2.849728e+2, -168152.64, -331195.75, -16153.927, 0.039036565, 0.044322666, -166567.55, -19296.916, 0.0, 10.000604, 9.99844 
9.250978e+2, 2.949718e+2, -110500.125, -251358.13, -4005.6597, 0.044752717, 0.09939323, -110386.305, -61103.8, 0.0, 10.00032, 9.998452 
9.251094e+2, 3.0496952e+2, -6242.142, -129041.26, -10141.495, 0.017134154, 0.0057446733, -5410.232, -5410.232, 0.00000004550982, 10.000499, 9.998872 
9.251207e+2, 3.1496942e+2, 130240.54, 4989.4746, -27693.729, -0.0069958097, 0.10835514, 136090.55, 136090.55, 0.0000009683944, 10.00114, 9.999484 
9.3489414e+2, 1.2496909e+2, -1853042.8, -1695994.0, -2581.672, 0.02295276, 0.073122874, -1695951.5, 19355.52, 0.000009857008, 9.998685, 10.000762 
9.349056e+2, 1.3496898e+2, -1679955.0, -1572318.0, 18020.664, -0.09438191, -0.008054542, -1569381.1, 47924.09, 0.0000009955157, 9.999244, 10.000671 
9.3491906e+2, 1.4496927e+2, -1611288.6, -1606007.5, 6321.809, 0.031976335, 0.009344757, -1601797.0, -82494.516, 0.00000000002439963, 9.999547, 9.99962 
9.3493146e+2, 1.5496916e+2, -1506612.0, -1502788.5, -8860.936, 0.04596115, 0.03229755, -1495635.4, -74328.805, 0.0, 9.999586, 9.999636 
9.3494385e+2, 1.6496918e+2, -1368619.8, -1343814.0, 2824.838, 0.044264793, 0.053299934, -1343496.4, -20189.316, 0.0, 9.999682, 10.000006 
9.349564e+2, 1.7496933e+2, -1247486.3, -1233734.8, 24841.928, 0.039018534, 0.065977395, -1214834.6, 10469.413, 0.0, 9.999837, 10.000014 
9.349687e+2, 1.8496892e+2, -1170685.6, -1212711.0, 16188.481, 0.033231266, 0.054222394, -1165172.8, -37865.14, 0.0, 9.999975, 9.99942 
9.349807e+2, 1.9496791e+2, -1051969.6, -1102055.8, 13401.926, 0.023236377, 0.0072367266, -1048609.1, -19290.656, 0.0, 10.000108, 9.999443 
9.349927e+2, 2.0496741e+2, -952257.7, -994725.44, 1671.3381, 0.017069034, 0.009503822, -952192.0, -20868.66, 0.0, 10.000083, 9.999519 
9.350046e+2, 2.149674e+2, -879570.94, -907242.6, 666.80176, 0.016404001, 0.05459174, -879554.9, -46232.44, 0.0, 9.999902, 9.999535 
9.350167e+2, 2.2496678e+2, -791192.2, -849964.6, 2451.9878, 0.03157791, 0.05567112, -791090.06, -55762.082, 0.0, 9.999991, 9.999211 
9.35029e+2, 2.3496549e+2, -639764.06, -724125.25, 923.0188, 0.06268826, 0.0016696324, -639754.0, -2413.694, 0.0, 10.00035, 9.999229 
9.350407e+2, 2.4496461e+2, -550969.2, -648585.8, -24799.76, 0.06585525, 0.0003128295, -545030.06, -5681.1367, 0.0, 10.000363, 9.999069 
9.350517e+2, 2.5496414e+2, -498299.75, -570180.44, -16657.848, 0.040271446, 0.043405276, -494627.06, -53273.13, 0.0, 10.000041, 9.99909 
9.3506294e+2, 2.6496306e+2, -420551.5, -526294.8, -5358.2446, 0.014265479, 0.04860597, -420280.7, -76915.6, 0.0, 10.000096, 9.998691 
9.350744e+2, 2.7496135e+2, -259816.02, -397103.4, -20544.422, -0.011423615, 0.0060003283, -256807.56, -11424.748, 0.0, 10.000523, 9.998699 
9.3508625e+2, 2.8496033e+2, -143478.19, -279581.16, -26871.762, 0.0090651605, 0.027295453, -138364.81, 9028.956, 0.0, 10.000601, 9.998796 
9.350985e+2, 2.9495993e+2, -84506.305, -198789.06, -13160.009, 0.07702761, 0.10642865, -83010.47, -33612.668, 0.0, 10.000324, 9.998812 
9.3511033e+2, 3.0495784e+2, -24202.637, -165369.14, 13063.18, 0.06230419, 0.024396887, -23003.98, -23003.98, 0.000000010385675, 10.000496, 9.998623 
9.3512183e+2, 3.1495696e+2, 99393.31, -53195.688, -1086.2427, -0.0077886526, 0.07157824, 99401.05, 99401.05, 0.00000050425, 10.001116, 9.999095 
9.4489324e+2, 1.2495635e+2, -1793231.0, -1654530.3, 7189.048, 0.045266986, 0.057053953, -1654158.6, 61272.695, 0.000016753027, 9.999041, 10.000876 
9.449047e+2, 1.3495626e+2, -1715555.0, -1578343.8, -9993.018, -0.09758222, -0.032566015, -1577619.8, 39809.14, 0.000002343361, 9.998953, 10.00077 
9.449183e+2, 1.4495671e+2, -1669019.9, -1634706.0, -18539.469, 0.022752991, -0.0025857466, -1626602.9, -107178.26, 0.0000000053592455, 9.999159, 9.999608 
9.449311e+2, 1.5495674e+2, -1495456.0, -1498935.6, 6710.119, 0.050550595, 0.037017737, -1490263.9, -68835.99, 0.0, 9.99967, 9.99962 
9.449437e+2, 1.6495676e+2, -1334225.1, -1311384.5, 13982.944, 0.053731143, 0.050796185, -1304750.9, 18677.443, 0.0, 9.999851, 10.000147 
9.449562e+2, 1.7495674e+2, -1257510.5, -1222037.5, 2108.3872, 0.042557135, 0.031952567, -1221912.6, 3513.346, 0.0, 9.999699, 10.00016 
9.449686e+2, 1.8495636e+2, -1207033.4, -1221446.3, -9865.439, 0.03864073, 0.012924345, -1202022.6, -74593.6, 0.0, 9.999691, 9.9994955 
9.4498086e+2, 1.9495562e+2, -1086304.1, -1110617.0, -2102.7024, 0.03752473, -0.01534349, -1086123.6, -56685.68, 0.0, 9.999839, 9.999513 
9.449928e+2, 2.0495535e+2, -958908.3, -998990.25, -10360.198, 0.02474125, 0.008302461, -956388.8, -24947.74, 0.0, 10.000042, 9.99951 
9.450045e+2, 2.1495558e+2, -822068.8, -880612.75, -10898.459, 0.0010900968, 0.07714799, -820105.75, 13332.762, 0.0, 10.000302, 9.999524 
9.450167e+2, 2.249549e+2, -742532.7, -828049.4, -4089.0222, 0.012425729, 0.07603612, -742337.6, -6893.0723, 0.0, 10.000333, 9.999197 
9.450292e+2, 2.3495334e+2, -672331.0, -741437.94, -3868.3552, 0.05847287, -0.0050366544, -672115.2, -34655.79, 0.0, 10.0001335, 9.999215 
9.4504094e+2, 2.4495241e+2, -571823.7, -646965.1, -33813.18, 0.06442725, -0.015553622, -558848.5, -19380.268, 0.0, 10.000171, 9.999174 
9.450518e+2, 2.5495213e+2, -433501.84, -527006.1, -34001.21, 0.029889923, 0.034785073, -422445.28, 19025.916, 0.0, 10.000436, 9.999196 
9.450632e+2, 2.649511e+2, -365407.47, -513650.63, -7123.2295, 0.0072210277, 0.046038125, -365066.0, -21584.05, 0.0, 10.000534, 9.998567 
9.45075e+2, 2.7494934e+2, -275006.88, -418005.06, -1144.9224, -0.0025238872, 0.010470937, -274997.72, -29497.064, 0.0, 10.000477, 9.998578 
9.450869e+2, 2.8494817e+2, -150924.84, -296005.0, -18046.719, 0.017067712, 0.032918204, -148713.69, -1200.7194, 0.0, 10.000605, 9.998683 
9.45099e+2, 2.9494765e+2, -8761.428, -174714.39, -40849.145, 0.06698219, 0.10697952, 748.57227, 50267.36, 0.0, 10.000898, 9.998701 
9.4511104e+2, 3.049456e+2, 44869.52, -129362.5, -12134.312, 0.06041237, 0.03674963, 45710.55, 45710.55, 0.00000000032400083, 10.000958, 9.998649 
9.4512314e+2, 3.1494465e+2, 46332.047, -89294.27, -9611.794, 0.021273319, 0.071622506, 47009.848, 47009.848, 0.00000016973306, 10.000797, 9.999001 
9.548919e+2, 1.2494319e+2, -1819769.0, -1715126.3, -3723.7473, 0.0060932995, -0.008008981, -1714994.0, 563.646, 0.00002677623, 9.999063, 10.00045 
9.549041e+2, 1.3494337e+2, -1747761.5, -1643788.8, -13552.637, -0.050035004, -0.026789118, -1642051.3, -24495.34, 0.0000047533053, 9.998945, 10.000324 
9.5491785e+2, 1.4494416e+2, -1632886.5, -1557109.0, 86.23379, 0.060902897, 0.034014057, -1557108.9, -37560.574, 0.000000046136613, 9.999147, 10.000146 
9.5493025e+2, 1.5494446e+2, -1457725.8, -1420201.8, 26907.568, -0.0010096065, 0.04335854, -1406160.9, 15385.47, 0.0, 9.999669, 10.000161 
9.549429e+2, 1.6494423e+2, -1354419.0, -1354465.1, 7762.87, -0.016638614, 0.0214232, -1346679.1, -23130.59, 0.0, 9.999854, 9.99985 
9.5495576e+2, 1.7494349e+2, -1277825.0, -1264645.9, -3465.298, 0.028586809, -0.03907433, -1263790.3, -38235.293, 0.0, 9.9997, 9.999868 
9.5496845e+2, 1.8494336e+2, -1191252.6, -1188314.8, -5586.3306, 0.05511227, -0.031500947, -1184007.5, -56450.816, 0.0, 9.999689, 9.999724 
9.549809e+2, 1.9494382e+2, -1071117.0, -1078434.3, 3292.255, 0.05897757, 0.038485583, -1069853.9, -40300.156, 0.0, 9.999835, 9.999736 
9.5499307e+2, 2.0494372e+2, -959349.8, -998993.6, -1929.314, 0.042735558, 0.06745028, -959256.1, -27701.174, 0.0, 10.000037, 9.999512 
9.550049e+2, 2.1494304e+2, -821993.5, -879499.56, -1356.9286, 0.00805291, 0.044595223, -821961.5, 11599.354, 0.0, 10.000298, 9.999534 
9.550168e+2, 2.2494222e+2, -741260.25, -824630.25, -13110.18, -0.00802928, 0.025571102, -739247.25, -3678.8503, 0.0, 10.000328, 9.999224 
9.550287e+2, 2.3494123e+2, -670417.8, -737434.6, -11106.268, -0.005560338, 0.0012327007, -668625.2, -31047.527, 0.0, 10.000133, 9.999244 
9.5504045e+2, 2.4494044e+2, -571350.0, -645049.56, -24373.496, 0.0021668035, 0.002038764, -564018.6, -24433.31, 0.0, 10.000166, 9.999188 
9.5505214e+2, 2.5493982e+2, -433864.38, -526209.4, -23517.465, 0.015882665, 0.018961318, -428220.16, 13371.306, 0.0, 10.000429, 9.999205 
9.55064e+2, 2.649389e+2, -353940.63, -489782.1, -10034.62, 0.037286613, 0.030446472, -353203.38, -9602.335, 0.0, 10.000532, 9.998733 
9.550761e+2, 2.7493766e+2, -262732.1, -392758.97, -2580.4094, 0.066055425, 0.0296663, -262680.9, -17066.938, 0.0, 10.000476, 9.998753 
9.5508796e+2, 2.8493637e+2, -191732.25, -379050.06, -7115.676, 0.05822059, 0.05717497, -191462.33, -43833.906, 0.0, 10.000598, 9.998116 
9.5509934e+2, 2.9493493e+2, -50554.68, -259057.73, -28031.572, 0.012015273, 0.101579994, -46851.82, 2793.16, 0.0, 10.000888, 9.998127 
9.5511144e+2, 3.049329e+2, 64446.375, -87726.92, -18323.355, 0.008757245, 0.044916343, 66621.62, 66621.62, 0.0, 10.000953, 9.998938 
9.551243e+2, 3.1493247e+2, 59073.832, -61248.81, -12247.029, 0.0670141, 0.10474368, 60307.742, 60307.742, 0.000000027453995, 10.000789, 9.999198 
9.6489084e+2, 1.2493026e+2, -1845406.8, -1738032.6, -27230.307, -0.005363489, -0.017260075, -1731521.8, -15837.744, 0.000040530904, 9.998936, 10.000351 
9.649034e+2, 1.3493055e+2, -1698725.3, -1631257.8, -6301.4487, -0.0251357, -0.01241671, -1630674.3, -12992.17, 0.000008656152, 9.999332, 10.000223 
9.6491736e+2, 1.4493144e+2, -1572069.1, -1497604.4, 12808.105, 0.08638517, 0.047747195, -1495463.0, 24210.297, 0.00000019058375, 9.999436, 10.000414 
9.6492964e+2, 1.5493162e+2, -1506580.6, -1413059.4, 16138.67, -0.008549457, 0.020179993, -1410352.8, 11317.632, 0.0, 9.999203, 10.000434 
9.649422e+2, 1.6493146e+2, -1447834.8, -1413932.8, -6538.6016, -0.03586865, -0.0034096143, -1412715.4, -89043.28, 0.0, 9.999277, 9.99972 
9.6495533e+2, 1.7493096e+2, -1288449.5, -1284083.8, -6141.4014, 0.016789837, -0.028535832, -1279748.8, -54070.547, 0.0, 9.999689, 9.999739 
9.6496814e+2, 1.8493097e+2, -1153657.4, -1156742.1, -7520.599, 0.047723573, -0.0058552474, -1147522.6, -19843.574, 0.0, 9.999889, 9.999845 
9.6498066e+2, 1.9493148e+2, -1057277.6, -1057748.9, -7714.992, 0.052291226, 0.057957303, -1049794.8, -20120.352, 0.0, 9.999871, 9.99986 
9.6499306e+2, 2.0493124e+2, -975302.25, -1009584.8, -10720.427, 0.04301759, 0.06808833, -972225.94, -40549.363, 0.0, 9.999942, 9.999485 
9.6500516e+2, 2.1493022e+2, -852131.6, -897211.44, -13919.923, 0.020977119, 0.01376234, -848179.8, -14493.749, 0.0, 10.000105, 9.999505 
9.650171e+2, 2.2492945e+2, -767941.3, -831353.9, -38966.566, -0.00025943376, 0.0004320672, -749411.3, -13718.214, 0.0, 10.000119, 9.999278 
9.650286e+2, 2.3492895e+2, -688790.94, -739995.3, -37372.113, -0.022037575, 0.01851641, -669092.5, -31394.627, 0.0, 9.999979, 9.999299 
9.650404e+2, 2.4492821e+2, -600938.7, -672790.75, -38751.54, -0.013031169, 0.025894165, -584021.9, -44316.418, 0.0, 10.000021, 9.999067 
9.650526e+2, 2.549272e+2, -467696.2, -555741.44, -48432.746, 0.028308975, 0.014833608, -446268.66, -4552.6343, 0.0, 10.000256, 9.999085 
9.650647e+2, 2.6492622e+2, -355429.78, -474558.56, -46882.867, 0.058101106, 0.022129867, -339192.34, 4533.472, 0.0, 10.000455, 9.998875 
9.650768e+2, 2.7492532e+2, -234996.8, -363366.0, -43388.563, 0.07586419, 0.03977475, -221707.33, 24027.545, 0.0, 10.000598, 9.998897 
9.650886e+2, 2.8492406e+2, -173281.08, -380257.28, -22967.371, 0.057201292, 0.07039821, -170763.11, -23014.486, 0.0, 10.000768, 9.998026 
9.651002e+2, 2.9492244e+2, -41120.945, -264494.66, -10371.288, 0.0014876503, 0.103260614, -40640.438, 9127.097, 0.0, 10.000997, 9.998036 
9.6511245e+2, 3.049204e+2, 89296.46, -71778.734, -4183.992, 0.006377364, 0.04905972, 89405.07, 89405.07, 0.0, 10.001108, 9.998972 
9.651255e+2, 3.149199e+2, 96103.22, -46641.652, -19095.111, 0.08777182, 0.096921705, 98613.445, 98613.445, 0.00000000015790982, 10.001059, 9.999169 
9.748897e+2, 1.2491758e+2, -1829006.1, -1701967.5, -18759.959, -0.0075797318, 0.027039148, -1699255.1, 16555.223, 0.000058506626, 9.998927, 10.000603 
9.749027e+2, 1.3491794e+2, -1680087.0, -1593782.6, 10503.586, -0.02870302, 0.010986523, -1592522.6, 25283.936, 0.00001444443, 9.999337, 10.000478 
9.749169e+2, 1.449186e+2, -1572634.8, -1500250.5, 4019.3398, 0.092287, 0.038843945, -1500028.0, 19770.805, 0.0000005546723, 9.999441, 10.000394 
9.7492915e+2, 1.5491833e+2, -1508749.8, -1416560.1, 7625.1406, 0.026364658, -0.03238676, -1415933.8, 5865.657, 0.0, 9.999198, 10.000413 
9.749418e+2, 1.6491851e+2, -1446086.9, -1408808.8, 7748.6865, -0.006460012, -0.022313492, -1407262.3, -83464.055, 0.0, 9.99927, 9.999758 
9.749549e+2, 1.7491917e+2, -1286504.5, -1279280.5, 9620.082, 0.0048366827, 0.06532464, -1272616.6, -46821.543, 0.0, 9.999685, 9.999774 
9.7496766e+2, 1.8491924e+2, -1153205.8, -1155350.8, -9156.297, 0.012219805, 0.0907986, -1145059.4, -17263.87, 0.0, 9.9998865, 9.999856 
9.749802e+2, 1.9491865e+2, -1056367.8, -1055647.5, -8586.695, 0.014551559, 0.04255193, -1047413.44, -17613.854, 0.0, 9.999869, 9.999876 
9.7499275e+2, 2.0491795e+2, -979616.7, -1017832.44, -6206.2803, 0.021923183, 0.0097954655, -978634.06, -46828.473, 0.0, 9.999938, 9.999431 
9.750055e+2, 2.1491715e+2, -856637.6, -905941.8, -7961.7134, 0.03683355, -0.015277511, -855383.8, -21570.16, 0.0, 10.000102, 9.999447 
9.750175e+2, 2.249167e+2, -763701.0, -821584.6, -45454.547, 0.03203518, -0.00003547581, -738756.4, -2938.071, 0.0, 10.000114, 9.999348 
9.750288e+2, 2.3491657e+2, -684602.56, -730254.2, -42546.72, 0.0059869685, 0.04793722, -659145.5, -21325.943, 0.0, 9.999974, 9.999369 
9.7504073e+2, 2.4491574e+2, -618821.06, -709596.25, -30947.326, 0.015656902, 0.05843081, -609274.44, -69446.25, 0.0, 10.000019, 9.9988165 
9.750532e+2, 2.5491422e+2, -485080.84, -591689.5, -38941.895, 0.06304961, 0.02015729, -472371.34, -30526.693, 0.0, 10.000254, 9.99884 
9.7506523e+2, 2.6491308e+2, -348355.75, -458696.78, -41120.95, 0.06677409, 0.016769817, -334717.0, 9139.246, 0.0, 10.00045, 9.998986 
9.7507685e+2, 2.7491236e+2, -227762.53, -347752.34, -36584.926, 0.024370823, 0.04124966, -217487.64, 28375.215, 0.0, 10.000595, 9.999005 
9.7508895e+2, 2.8491136e+2, -147995.84, -327914.5, -14983.461, 0.010510081, 0.07641687, -146756.58, 1116.2583, 0.0, 10.000767, 9.998386 
9.751014e+2, 2.949102e+2, -16752.682, -211592.19, -434.8439, 0.026967077, 0.11356837, -16751.71, 33134.633, 0.0, 10.000985, 9.998406 
9.751139e+2, 3.0490807e+2, 71438.06, -104678.84, -5935.8506, 0.046377707, 0.049136464, 71637.9, 71637.9, 0.0, 10.00109, 9.998755 
9.751264e+2, 3.1490678e+2, 76228.555, -84224.45, -17661.287, 0.07580255, 0.038633764, 78149.56, 78149.56, 0.0, 10.001042, 9.9989195 
9.848889e+2, 1.2490477e+2, -1838875.8, -1707670.5, 2554.1902, 0.024856456, 0.045426916, -1707620.8, 8314.933, 0.00008108169, 9.998862, 10.000595 
9.8490185e+2, 1.3490492e+2, -1695931.0, -1603232.8, 15393.663, -0.041255035, 0.010375839, -1600743.3, 17190.904, 0.000022462764, 9.999234, 10.000463 
9.849161e+2, 1.4490554e+2, -1577229.0, -1512018.1, -20968.994, 0.07067715, 0.036419302, -1505857.4, 14069.81, 0.0000013019285, 9.999451, 10.000309 
9.849286e+2, 1.5490526e+2, -1473401.1, -1408181.0, -23512.596, 0.03797634, -0.026846668, -1400588.4, 21339.824, 0.0, 9.999479, 10.000334 
9.8494136e+2, 1.6490549e+2, -1407743.4, -1374902.1, -9505.125, 0.012868551, -0.014213857, -1372349.5, -48423.164, 0.0, 9.999468, 9.999895 
9.849544e+2, 1.7490624e+2, -1316134.3, -1277950.9, -1349.3102, 0.0060053407, 0.0688093, -1277903.3, -51981.563, 0.0, 9.999415, 9.999913 
9.8496735e+2, 1.8490626e+2, -1204710.9, -1175452.9, -15514.808, 0.008135644, 0.08220535, -1168757.9, -40836.043, 0.0, 9.999513, 9.999899 
9.8498e+2, 1.9490552e+2, -1066855.0, -1055567.9, -13806.175, 0.015720876, 0.015063818, -1046296.4, -16369.459, 0.0, 9.999775, 9.999922 
9.849927e+2, 2.0490491e+2, -992657.06, -1025013.94, -10831.842, 0.023902796, -0.01210072, -989365.75, -57433.44, 0.0, 9.999852, 9.999423 
9.850054e+2, 2.1490441e+2, -909871.94, -932251.9, -10291.974, 0.033770766, -0.007644116, -905858.6, -71920.4, 0.0, 9.999739, 9.99944 
9.8501754e+2, 2.2490397e+2, -795272.56, -835778.9, -42405.516, 0.03176303, 0.010704594, -768531.94, -32589.156, 0.0, 9.999895, 9.999355 
9.8502904e+2, 2.3490362e+2, -632917.4, -704283.9, -45409.14, 0.01719679, 0.03615167, -610848.7, 27097.197, 0.0, 10.000327, 9.999377 
9.850411e+2, 2.4490279e+2, -551654.9, -680949.7, -30010.867, 0.028464349, 0.045213968, -545028.6, -5073.779, 0.0, 10.000498, 9.998782 
9.8505354e+2, 2.549014e+2, -468180.53, -587858.2, -24563.91, 0.06594579, 0.024879267, -463334.97, -21364.857, 0.0, 10.000388, 9.998801 
9.850657e+2, 2.649002e+2, -351486.72, -470590.03, -20167.428, 0.061790492, 0.024220789, -348164.5, -4182.2656, 0.0, 10.000473, 9.998893 
9.850774e+2, 2.7489927e+2, -207670.25, -347951.78, -32242.94, 0.01428366, 0.037113477, -200614.28, 45376.703, 0.0, 10.000778, 9.998914 
9.8508966e+2, 2.8489822e+2, -126103.96, -295401.53, -32369.846, 0.008234861, 0.058093816, -120125.91, 27875.541, 0.0, 10.000825, 9.998581 
9.851024e+2, 2.9489702e+2, -65139.31, -212947.44, -31473.965, 0.046876628, 0.07838803, -58716.41, -8702.69, 0.0, 10.00056, 9.998602 
9.85115e+2, 3.0489522e+2, 21033.938, -118985.94, -18468.309, 0.06417053, 0.028684085, 23428.902, 23428.902, 0.0, 10.000702, 9.998843 
9.8512745e+2, 3.1489423e+2, 119036.48, -57496.91, -11600.5, 0.06467341, 0.038994778, 119795.516, 119795.516, 0.0, 10.001308, 9.998974 
9.948883e+2, 1.2489185e+2, -1860273.3, -1751231.0, 7409.9917, 0.07575828, 0.031841267, -1750729.8, -34669.97, 0.000108580556, 9.99886, 10.000298 
9.949009e+2, 1.3489157e+2, -1718127.1, -1648600.3, 30687.063, -0.065726735, -0.01387009, -1636993.6, -18929.445, 0.000033028722, 9.999231, 10.000154 
9.9491495e+2, 1.4489226e+2, -1587529.4, -1533170.8, -20389.59, 0.016171783, 0.042205267, -1526372.9, -6314.6846, 0.0000026281716, 9.999449, 10.000165 
9.9492794e+2, 1.5489243e+2, -1482937.1, -1428046.0, -21910.16, 0.021466866, 0.037628222, -1420373.0, 1683.1405, 0.00000000019976186, 9.999478, 10.000198 
9.949409e+2, 1.648924e+2, -1391669.1, -1341089.3, -12572.211, 0.016922956, 0.020134736, -1338136.6, -14080.768, 0.0, 9.999465, 10.000129 
9.9495393e+2, 1.7489217e+2, -1299598.1, -1243641.4, -3425.334, 0.017022507, -0.019587673, -1243432.5, -17374.979, 0.0, 9.999414, 10.00015 
9.9496704e+2, 1.8489209e+2, -1199565.6, -1164201.9, -7070.3877, 0.030630985, -0.032374695, -1162840.6, -34783.152, 0.0, 9.99951, 9.999978 
9.949801e+2, 1.9489218e+2, -1061859.5, -1044760.94, -4260.959, 0.05371777, -0.023651076, -1043757.94, -13702.18, 0.0, 9.999772, 9.999998 
9.9499273e+2, 2.0489217e+2, -990340.2, -1019493.56, -16577.959, 0.046320483, 0.0025713895, -982841.8, -50785.563, 0.0, 9.999848, 9.999462 
9.9500483e+2, 2.14892e+2, -907776.06, -926699.56, -14972.132, 0.00939278, 0.036644004, -899526.5, -65467.266, 0.0, 9.999734, 9.999481 
9.9501705e+2, 2.2489136e+2, -799562.0, -843582.25, -27787.447, -0.0038486149, 0.03329418, -786123.75, -50057.75, 0.0, 9.999889, 9.999305 
9.950293e+2, 2.3489018e+2, -636690.3, -711605.06, -28997.523, 0.008308933, -0.017637411, -626777.75, 11298.91, 0.0, 10.000323, 9.999329 
9.950415e+2, 2.4488933e+2, -540844.1, -657233.9, -34456.96, 0.02143968, -0.016019575, -531408.2, 8677.085, 0.0, 10.000492, 9.998948 
9.950536e+2, 2.5488877e+2, -456780.28, -563925.2, -27817.787, 0.034758568, 0.030584637, -449988.53, -7896.606, 0.0, 10.000386, 9.998966 
9.950659e+2, 2.6488772e+2, -372773.0, -515480.44, -9316.339, 0.04102023, 0.048934996, -372167.38, -28064.264, 0.0, 10.000475, 9.998584 
9.9507844e+2, 2.7488613e+2, -230396.64, -393318.13, -19698.684, 0.03902413, 0.029083354, -228048.73, 18070.305, 0.0, 10.000769, 9.998608 
9.9509084e+2, 2.8488457e+2, -124727.61, -289307.1, -41394.47, 0.043369144, 0.013950923, -114902.73, 33231.777, 0.0, 10.000811, 9.99863 
9.9510306e+2, 2.9488307e+2, -60671.62, -204430.52, -39085.91, 0.056173176, -0.00393704, -50731.98, -582.62933, 0.0, 10.000564, 9.998658 
9.9511564e+2, 3.048819e+2, 46806.348, -67445.71, 3831.7588, 0.056210198, -0.01319204, 46934.715, 46934.715, 0.0, 10.000709, 9.999195 
9.951286e+2, 3.148822e+2, 138135.55, -11666.405, 14385.672, 0.04452969, 0.095586, 139504.5, 139504.5, 0.0, 10.001282, 9.999302 
1.0048874e+3, 1.2487843e+2, -1769274.1, -1714505.9, -27894.785, 0.06313529, 0.0029469992, -1702800.3, 13389.919, 0.00014134821, 9.999513, 10.000237 
1.00490004e+3, 1.3487831e+2, -1761449.8, -1675960.1, 22833.785, -0.060476705, -0.021735055, -1670243.6, -52050.24, 0.000046426092, 9.998962, 10.000096 
1.0049143e+3, 1.4487909e+2, -1665317.0, -1571012.9, 959.6217, 0.021550188, 0.048197668, -1571003.1, -50816.34, 0.00000474816, 9.998918, 10.000161 
1.0049273e+3, 1.5487923e+2, -1501297.1, -1437870.3, 6543.2676, 0.021031281, 0.040246587, -1437202.3, -15016.588, 0.000000004412824, 9.999355, 10.000192 
1.00494035e+3, 1.6487913e+2, -1366138.5, -1322003.6, 7734.5776, 0.016803777, 0.013339197, -1320687.4, 3498.3696, 0.0, 9.999609, 10.000192 
1.0049535e+3, 1.7487884e+2, -1255172.9, -1214224.3, 3034.0803, 0.022482065, -0.040615242, -1214000.6, 12186.416, 0.0, 9.999685, 10.000221 
1.00496665e+3, 1.8487877e+2, -1181645.8, -1165372.0, -9512.687, 0.037555985, -0.051170364, -1160990.9, -32804.004, 0.0, 9.999676, 9.999889 
1.0049798e+3, 1.9487895e+2, -1096747.0, -1071572.4, -20168.148, 0.05698836, -0.024459956, -1060385.9, -30200.629, 0.0, 9.999577, 9.9999075 
1.0049925e+3, 2.0487896e+2, -1006425.94, -1017936.6, -34258.766, 0.047059905, 0.0039478634, -977442.44, -45256.734, 0.0, 9.9997, 9.999544 
1.0050047e+3, 2.1487874e+2, -854349.94, -891580.56, -30546.732, 0.008767206, 0.025224037, -837193.3, -3004.892, 0.0, 10.000061, 9.999564 
1.0050171e+3, 2.2487809e+2, -754962.8, -822330.7, -37106.336, -0.0024879712, 0.01750281, -738532.0, -2337.0532, 0.0, 10.000198, 9.999301 
1.0050295e+3, 2.3487692e+2, -669713.5, -728128.44, -37132.992, 0.013440736, -0.031736664, -651677.56, -13471.859, 0.0, 10.0001, 9.999322 
1.0050418e+3, 2.4487613e+2, -577202.56, -666246.75, -45929.63, 0.020584406, -0.027394388, -557757.94, -17544.164, 0.0, 10.000207, 9.9990225 
1.0050539e+3, 2.5487572e+2, -430694.9, -542203.5, -47335.09, 0.018230626, 0.025948115, -413311.3, 28907.387, 0.0, 10.00053, 9.999044 
1.0050663e+3, 2.6487467e+2, -350756.44, -515162.84, -23563.688, 0.028266514, 0.045039836, -347445.8, -3215.8794, 0.0, 10.000674, 9.998488 
1.0050792e+3, 2.748729e+2, -261707.66, -419489.3, -19644.588, 0.050509937, 0.0175707, -259298.6, -13050.588, 0.0, 10.000603, 9.9985075 
1.00509174e+3, 2.8487128e+2, -141877.7, -311866.94, -39563.31, 0.05636659, 0.004269234, -133120.83, 15143.897, 0.0, 10.000755, 9.9985 
1.0051038e+3, 2.9486975e+2, 18227.848, -180702.11, -54346.844, 0.046725933, -0.0020450642, 32106.865, 82386.8, 0.0, 10.001168, 9.998529 
1.00511655e+3, 3.0486858e+2, 127097.66, -33524.746, -29632.21, 0.049308013, 0.00055081135, 132389.94, 132389.94, 0.0, 10.001281, 9.999152 
1.00513e+3, 3.1486878e+2, 96698.29, -38065.367, -48293.09, 0.06749108, 0.100168824, 112217.2, 112217.2, 0.0, 10.001025, 9.999244 
1.0148858e+3, 1.248645e+2, -1753946.5, -1682314.3, -58400.95, -0.03922608, -0.046231072, -1649621.5, 66705.56, 0.0001798155, 9.999514, 10.000458 
1.0148993e+3, 1.3486518e+2, -1746320.1, -1643010.8, 3140.4758, -0.02988697, -0.014270208, -1642915.4, -24593.99, 0.000062927356, 9.998956, 10.000325 
1.0149138e+3, 1.4486611e+2, -1657696.3, -1553676.5, 17026.518, 0.083616786, 0.052788112, -1550960.4, -30647.953, 0.000007860604, 9.998909, 10.000285 
1.0149267e+3, 1.5486571e+2, -1493082.9, -1421012.0, 23757.281, 0.03281895, -0.01972088, -1413885.4, 8430.523, 0.000000028517778, 9.999354, 10.000309 
1.01493984e+3, 1.6486575e+2, -1373426.9, -1337686.3, 9785.554, 0.006515555, -0.033410575, -1335182.4, -10867.228, 0.0, 9.999611, 10.000083 
1.0149532e+3, 1.7486629e+2, -1262508.0, -1229475.5, 5839.5205, 0.019351901, 0.0069476985, -1228473.5, -2163.9822, 0.0, 9.999684, 10.000116 
1.0149662e+3, 1.8486634e+2, -1200011.3, -1202974.1, -14645.436, 0.0257201, 0.025941236, -1186772.5, -58463.293, 0.0, 9.999672, 9.999633 
1.014979e+3, 1.9486588e+2, -1115071.6, -1109217.1, -24332.678, 0.02151171, 0.012309951, -1087636.3, -57321.59, 0.0, 9.999574, 9.999651 
1.0149919e+3, 2.048653e+2, -998181.25, -1000193.25, -22407.229, 0.021387795, -0.007785083, -976757.44, -44437.418, 0.0, 9.999696, 9.999668 
1.01500496e+3, 2.1486469e+2, -845809.94, -873337.8, -17182.148, 0.028210122, -0.041400474, -837558.6, -3233.5803, 0.0, 10.000057, 9.999692 
1.0150176e+3, 2.2486423e+2, -753695.25, -818067.4, -41999.02, 0.031500246, -0.037272934, -732967.6, 3361.5437, 0.0, 10.000191, 9.999334 
1.01502985e+3, 2.348639e+2, -667649.9, -723456.75, -40651.508, 0.030645823, -0.005759901, -646246.7, -7914.028, 0.0, 10.000098, 9.999355 
1.0150421e+3, 2.4486327e+2, -579021.2, -669638.25, -34767.453, 0.023695018, 0.013156678, -567218.94, -26879.35, 0.0, 10.000204, 9.999001 
1.0150543e+3, 2.5486228e+2, -432905.38, -545646.56, -34634.598, 0.01111701, 0.010865496, -423115.56, 19234.58, 0.0, 10.000524, 9.999024 
1.0150669e+3, 2.6486105e+2, -343854.9, -498414.66, -25850.793, 0.01764803, 0.009310174, -339645.88, 4716.924, 0.0, 10.000663, 9.998609 
1.0150798e+3, 2.748596e+2, -252374.31, -401085.78, -20546.254, 0.04437509, 0.00061499636, -249587.81, -3210.1526, 0.0, 10.000607, 9.9986315 
1.01509236e+3, 2.848583e+2, -164044.83, -360748.0, -24104.844, 0.043774057, 0.029002544, -161133.98, -12742.243, 0.0, 10.000766, 9.99816 
1.01510465e+3, 2.9485705e+2, -8617.327, -232956.89, -36819.594, 0.01344164, 0.08697481, -2728.8926, 47676.254, 0.0, 10.001151, 9.998179 
1.0151177e+3, 3.0485535e+2, 95493.016, -93316.51, -37477.445, 0.036690272, 0.07213844, 102659.99, 102659.99, 0.0, 10.001257, 9.998753 
1.0151315e+3, 3.148539e+2, 67763.91, -95922.66, -53252.03, 0.11780981, 0.046362806, 83563.35, 83563.35, 0.0, 10.001018, 9.998849 
1.0248849e+3, 1.2485136e+2, -1883271.4, -1723502.5, -46160.387, -0.042130418, -0.027319737, -1711124.8, 5331.5474, 0.00022439056, 9.998536, 10.000644 
1.0248986e+3, 1.3485183e+2, -1659459.5, -1580170.9, 18111.29, -0.018730659, -0.035588253, -1576229.8, 42221.21, 0.0000828242, 9.99946, 10.000514 
1.0249131e+3, 1.4485274e+2, -1529761.5, -1493575.9, 22371.146, 0.08795729, 0.019914985, -1482896.9, 37544.74, 0.000012107546, 9.999792, 10.000273 
1.02492616e+3, 1.5485255e+2, -1481652.8, -1416602.4, 16930.17, 0.033427093, -0.031002553, -1412459.9, 9983.666, 0.00000009714164, 9.999439, 10.000298 
1.02493934e+3, 1.6485266e+2, -1425490.3, -1373881.3, 1297.1056, 0.008965334, -0.03133314, -1373848.8, -49406.215, 0.0, 9.999304, 9.999983 
1.0249529e+3, 1.7485312e+2, -1310088.3, -1264482.6, -3648.7603, 0.03103059, 0.012050051, -1264192.5, -37754.355, 0.0, 9.99941, 10.0000105 
1.02496594e+3, 1.8485309e+2, -1212107.8, -1212312.6, -13707.752, 0.035054546, 0.029504193, -1198502.0, -70063.16, 0.0, 9.999605, 9.999601 
1.02497876e+3, 1.9485255e+2, -1067507.1, -1089206.6, -7461.983, 0.014352324, 0.010836234, -1065188.8, -34743.805, 0.0, 9.999914, 9.999624 
1.0249917e+3, 2.0485191e+2, -950864.8, -980819.1, -301.7768, 0.010965155, -0.013618114, -950861.75, -18410.879, 0.0, 10.000036, 9.999637 
1.025005e+3, 2.148512e+2, -861948.1, -884513.7, -8274.089, 0.02730778, -0.052279394, -859239.4, -24782.775, 0.0, 9.999962, 9.9996605 
1.0250177e+3, 2.2485074e+2, -778972.56, -831654.06, -42979.17, 0.0294826, -0.046440657, -754904.5, -18443.73, 0.0, 10.000024, 9.99932 
1.0250298e+3, 2.3485053e+2, -649567.0, -715849.2, -46402.375, 0.016158044, -0.0028279796, -625686.06, 12777.255, 0.0, 10.000229, 9.999343 
1.0250422e+3, 2.4484983e+2, -567152.6, -675827.3, -40907.84, 0.015882788, 0.018688856, -553475.3, -13004.467, 0.0, 10.0003395, 9.998892 
1.0250549e+3, 2.5484866e+2, -467802.97, -575168.7, -49186.65, 0.029385915, 0.0061973603, -448676.66, -6192.7954, 0.0, 10.000339, 9.998911 
1.0250677e+3, 2.648474e+2, -359661.13, -499374.1, -44975.78, 0.037286393, 0.00499782, -346434.84, -1937.8799, 0.0, 10.000526, 9.998667 
1.02508046e+3, 2.7484617e+2, -203656.6, -370063.97, -46627.0, 0.03919752, 0.008449045, -191482.45, 55027.465, 0.0, 10.000911, 9.998696 
1.0250931e+3, 2.848449e+2, -105131.19, -323470.28, -35619.973, 0.028935025, 0.039862968, -99467.06, 49055.543, 0.0, 10.001135, 9.998238 
1.0251057e+3, 2.948437e+2, 901.3545, -219630.19, -17415.328, 0.00575575, 0.090013646, 2268.168, 52803.418, 0.0, 10.00118, 9.998256 
1.0251189e+3, 3.0484185e+2, 69981.41, -133746.78, -5999.9136, 0.03843503, 0.073469274, 70157.95, 70157.95, 0.0, 10.001204, 9.998499 
1.0251327e+3, 3.1484002e+2, 72814.445, -124285.375, -17283.49, 0.13017203, 0.034505047, 74318.54, 74318.54, 0.0, 10.0011835, 9.998574 
1.0348843e+3, 1.2483913e+2, -1877639.3, -1707604.8, -20739.191, 0.041988507, 0.060347687, -1705111.6, 11465.377, 0.00027553758, 9.998519, 10.000761 
1.03489794e+3, 1.3483834e+2, -1649588.1, -1560333.1, 55003.445, -0.03223005, -0.08532073, -1534129.9, 84451.61, 0.000106410545, 9.999462, 10.000649 
1.0349123e+3, 1.4483906e+2, -1539491.3, -1515437.0, 9199.408, 0.026955226, -0.049403604, -1512322.1, 8251.521, 0.000017580353, 9.999799, 10.000119 
1.0349254e+3, 1.548398e+2, -1492103.8, -1437979.3, 3622.1855, 0.01955479, 0.006656791, -1437738.0, -15170.052, 0.00000023822265, 9.999437, 10.000151 
1.0349387e+3, 1.6483992e+2, -1432412.3, -1388476.3, 3725.6328, 0.021592693, 0.01889326, -1388162.5, -63595.24, 0.0, 9.999303, 9.999884 
1.03495255e+3, 1.7483939e+2, -1317465.3, -1279528.5, 257.54745, 0.053544424, -0.026159443, -1279526.8, -52954.496, 0.0, 9.999407, 9.999908 
1.0349658e+3, 1.8483908e+2, -1199351.4, -1185405.9, -3473.4045, 0.060270086, -0.04011135, -1184588.6, -56013.52, 0.0, 9.999602, 9.999787 
1.0349788e+3, 1.9483903e+2, -1054361.9, -1061416.9, 3841.9648, 0.03351431, -0.028212033, -1052673.6, -22098.299, 0.0, 9.999911, 9.999816 
1.0349917e+3, 2.048388e+2, -964744.3, -1008696.94, -4453.5405, 0.013679887, -0.013880583, -964297.56, -31719.824, 0.0, 10.000031, 9.999447 
1.0350046e+3, 2.1483831e+2, -875700.2, -912722.4, -11410.196, 0.0036608253, -0.00889989, -872466.06, -37883.28, 0.0, 9.99996, 9.999468 
1.0350174e+3, 2.2483768e+2, -783549.75, -840571.75, -36751.34, -0.011773924, -0.009559343, -765546.9, -28957.578, 0.0, 10.00002, 9.999261 
1.0350295e+3, 2.3483682e+2, -654065.1, -724890.06, -38413.48, -0.032910794, -0.023151102, -637231.6, 1365.6357, 0.0, 10.000226, 9.999283 
1.0350423e+3, 2.4483591e+2, -581662.56, -704761.25, -41047.227, -0.007394689, -0.013330068, -569230.9, -28623.664, 0.0, 10.000333, 9.998696 
1.0350557e+3, 2.548349e+2, -480889.06, -603668.25, -47860.97, 0.06920589, 0.011150678, -464436.78, -21817.414, 0.0, 10.000343, 9.998713 
1.0350687e+3, 2.6483378e+2, -361049.0, -503375.84, -30282.832, 0.08385105, 0.03408273, -354873.7, -10242.019, 0.0, 10.00053, 9.998638 
1.0350813e+3, 2.7483255e+2, -207239.06, -374860.66, -30709.115, 0.031144958, 0.044790633, -201790.13, 44854.03, 0.0, 10.000898, 9.99867 
1.0350941e+3, 2.8483117e+2, -72565.195, -251416.94, -33134.1, 0.0069680824, 0.03831562, -66624.12, 82032.96, 0.0, 10.001116, 9.998741 
1.0351071e+3, 2.9482964e+2, 37233.33, -143377.03, -12928.294, 0.015839733, 0.0060717934, 38154.06, 88824.2, 0.0, 10.001177, 9.998781 
1.0351203e+3, 3.048282e+2, 60424.094, -155400.78, -5334.711, 0.048098426, 0.0036131595, 60555.875, 60555.875, 0.0, 10.001209, 9.998349 
1.0351335e+3, 3.1482717e+2, 57197.99, -152694.2, -14218.86, 0.10049464, 0.067239724, 58156.844, 58156.844, 0.0, 10.001165, 9.998388 
1.0448834e+3, 1.2482575e+2, -1746020.8, -1648351.3, -24358.25, 0.05935619, 0.04541758, -1642613.5, 74093.88, 0.0003338259, 9.999435, 10.000727 
1.0448971e+3, 1.3482518e+2, -1717634.9, -1595676.8, 46229.297, -0.034503955, -0.07803357, -1580133.9, 38576.0, 0.00013404706, 9.999004, 10.0006275 
1.0449115e+3, 1.4482583e+2, -1660341.4, -1585019.5, -9691.53, 0.008327439, -0.040458564, -1583792.5, -63089.914, 0.000024406929, 9.999021, 10.000016 
1.0449249e+3, 1.5482624e+2, -1496289.6, -1452628.6, -15309.3125, 0.02602658, -0.007554585, -1447795.6, -25095.31, 0.0000004785213, 9.999461, 10.00004 
1.04493834e+3, 1.6482623e+2, -1362143.0, -1345978.3, -2882.9807, 0.031109683, -0.0049210456, -1345479.5, -20778.752, 0.0, 9.999747, 9.999961 
1.04495205e+3, 1.7482586e+2, -1240953.9, -1232791.3, 6338.532, 0.042565823, -0.042810425, -1229333.8, -2629.8618, 0.0, 9.99989, 9.999995 
1.04496546e+3, 1.8482564e+2, -1149758.4, -1157053.3, 5039.9424, 0.04483418, -0.055016235, -1147184.5, -18478.96, 0.0, 9.999926, 9.999825 
1.04497865e+3, 1.9482557e+2, -1060477.6, -1060396.1, -236.66414, 0.029238839, -0.047641966, -1060196.8, -29491.025, 0.0, 9.999853, 9.99985 
1.0449917e+3, 2.0482537e+2, -992223.25, -1027286.56, -11543.715, 0.012500251, -0.027670255, -988764.0, -56056.188, 0.0, 9.999867, 9.999398 
1.0450045e+3, 2.1482506e+2, -875547.0, -917829.5, -9001.579, -0.0032036938, -0.0041423906, -873710.44, -38998.223, 0.0, 9.999986, 9.999419 
1.0450173e+3, 2.2482438e+2, -770493.44, -838977.8, -21214.305, -0.01500316, -0.002269059, -764454.44, -27735.271, 0.0, 10.000131, 9.999219 
1.0450299e+3, 2.3482333e+2, -645564.56, -725531.4, -23444.055, -0.02332863, -0.032044373, -639198.25, -469.38174, 0.0, 10.000305, 9.999241 
1.0450429e+3, 2.4482226e+2, -555360.3, -700333.5, -21170.563, 0.0031148114, -0.030804563, -552332.0, -11591.896, 0.0, 10.000548, 9.998623 
1.0450563e+3, 2.5482118e+2, -410253.16, -577136.25, -20280.418, 0.067091204, -0.004957979, -407823.94, 34928.97, 0.0, 10.000863, 9.998643 
1.0450693e+3, 2.648201e+2, -301987.2, -471985.88, 1279.951, 0.078747906, 0.021386031, -301977.56, 42787.434, 0.0, 10.000924, 9.998663 
1.0450821e+3, 2.7481893e+2, -231360.2, -383577.38, 3894.0718, 0.033637356, 0.035629783, -231260.64, 15516.015, 0.0, 10.00072, 9.998695 
1.0450951e+3, 2.8481755e+2, -138482.48, -276481.9, -12491.962, 0.019575255, 0.02230958, -137360.8, 11429.05, 0.0, 10.000633, 9.9988 
1.04510814e+3, 2.948159e+2, -35161.434, -171039.05, -29493.637, 0.04211577, -0.026779339, -29035.7, 21768.531, 0.0, 10.000649, 9.998844 
1.0451213e+3, 3.048147e+2, 22292.182, -134636.61, -18223.447, 0.06113404, -0.02313729, 24380.598, 24380.598, 0.0, 10.000779, 9.998698 
1.0451344e+3, 3.148143e+2, 65018.81, -110243.05, 10720.144, 0.07100648, 0.06529662, 65672.086, 65672.086, 0.0, 10.001053, 9.9987335 
1.0548821e+3, 1.2481119e+2, -1757174.8, -1672793.9, -48173.6, -0.013430342, -0.08184553, -1650947.4, 65900.19, 0.00039971265, 9.99944, 10.000557 
1.0548961e+3, 1.3481237e+2, -1730005.6, -1620667.5, 30838.803, -0.027354447, -0.012291357, -1612569.3, 6266.1753, 0.00016604259, 9.9990015, 10.000458 
1.0549108e+3, 1.4481315e+2, -1665312.3, -1594843.3, 6401.4478, 0.03038431, 0.04930613, -1594266.5, -73438.875, 0.000032768716, 9.999017, 9.99995 
1.05492465e+3, 1.5481192e+2, -1502446.1, -1464029.0, 1778.5876, 0.04840474, -0.073884256, -1463946.9, -41106.73, 0.0000008393984, 9.9994545, 9.999965 
1.05493814e+3, 1.6481169e+2, -1344832.8, -1310011.8, 1468.8193, 0.031298093, -0.10183413, -1309949.9, 14892.169, 0.0, 9.999746, 10.000208 
1.0549514e+3, 1.748126e+2, -1222277.6, -1194389.8, 11609.386, -0.0045345775, -0.03696262, -1190189.5, 36642.742, 0.0, 9.999892, 10.000258 
1.0549647e+3, 1.848128e+2, -1157411.9, -1173355.8, 1082.0001, -0.0144620845, -0.01520735, -1157338.8, -28508.873, 0.0, 9.999927, 9.999713 
1.05497815e+3, 1.9481221e+2, -1068952.1, -1077968.6, -3333.1777, -0.0020354784, -0.049262185, -1067853.8, -37018.113, 0.0, 9.999852, 9.999731 
1.0549915e+3, 2.0481175e+2, -986552.44, -1015051.4, -8642.754, 0.0032146797, -0.054479998, -984136.2, -51295.727, 0.0, 9.999865, 9.999484 
1.0550047e+3, 2.1481144e+2, -869842.94, -905351.94, -4736.824, 0.0035399958, -0.037359975, -869221.94, -34377.64, 0.0, 9.999982, 9.999508 
1.05501786e+3, 2.248109e+2, -773221.4, -843698.75, -15972.689, 0.015828868, -0.025711665, -769770.4, -32920.395, 0.0, 10.000126, 9.999188 
1.0550309e+3, 2.3481007e+2, -647401.75, -729828.4, -16737.22, 0.041423645, -0.030666513, -644132.8, -5274.9766, 0.0, 10.000305, 9.999211 
1.0550438e+3, 2.4480899e+2, -552775.9, -694590.94, -9920.499, 0.04398721, -0.032318227, -552085.3, -11216.181, 0.0, 10.000546, 9.998664 
1.0550567e+3, 2.548076e+2, -408214.6, -571499.44, -7722.4585, 0.021330953, -0.040483754, -407850.2, 35033.9, 0.0, 10.000855, 9.998687 
1.0550697e+3, 2.6480636e+2, -297169.88, -459854.75, -6195.245, 0.019793196, -0.034366097, -296934.28, 47962.668, 0.0, 10.000915, 9.998752 
1.0550829e+3, 2.748053e+2, -224813.77, -370308.5, -2169.7903, 0.04063741, -0.021082208, -224781.42, 22125.977, 0.0, 10.00072, 9.998787 
1.0550961e+3, 2.84804e+2, -166122.39, -334600.72, -11214.598, 0.06015102, -0.008675278, -165379.17, -16458.482, 0.0, 10.000636, 9.998401 
1.0551093e+3, 2.9480246e+2, -65100.816, -232140.31, -26984.977, 0.08101766, -0.0059232055, -60849.63, -9912.64, 0.0, 10.000643, 9.998427 
1.0551222e+3, 3.0480146e+2, 80201.19, -12374.336, -8176.0586, 0.07432195, -0.0041927155, 80917.734, 80917.734, 0.0, 10.0007715, 9.999542 
1.055135e+3, 3.148014e+2, 126953.66, 18469.58, 23829.996, 0.030077739, 0.029563287, 131957.44, 131957.44, 0.0, 10.001052, 9.999619 
1.064881e+3, 1.2479766e+2, -1813676.4, -1721090.0, -53120.0, -0.05053071, -0.098036066, -1696921.9, 20056.945, 0.00047318285, 9.999149, 10.000364 
1.0648956e+3, 1.3479877e+2, -1643727.8, -1600820.4, 27946.125, -0.010307172, -0.015945766, -1587042.8, 31925.953, 0.00020250746, 9.999685, 10.000265 
1.0649104e+3, 1.4479953e+2, -1534891.0, -1521616.9, 11415.161, 0.045053363, 0.046790447, -1515049.5, 5911.8506, 0.000042863663, 9.999867, 10.000043 
1.0649242e+3, 1.5479833e+2, -1475153.4, -1439254.6, 17375.03, 0.048501708, -0.08103036, -1432222.6, -9250.189, 0.0000013547858, 9.999595, 10.000066 
1.0649376e+3, 1.6479813e+2, -1388580.3, -1339367.1, 14783.142, 0.022372143, -0.10924214, -1335267.9, -10293.936, 0.0, 9.999486, 10.000131 
1.06495105e+3, 1.74799e+2, -1273984.8, -1228541.4, -1986.2435, -0.016672771, -0.041123115, -1228454.8, -1489.6134, 0.0, 9.9995775, 10.0001745 
1.06496446e+3, 1.847992e+2, -1188852.3, -1179594.0, -21376.85, -0.024497649, -0.018037956, -1162350.9, -33388.02, 0.0, 9.999673, 9.999792 
1.0649779e+3, 1.947987e+2, -1072270.0, -1070108.8, -11858.665, -0.006185659, -0.05075264, -1059281.6, -28314.266, 0.0, 9.99979, 9.999814 
1.06499135e+3, 2.047982e+2, -973039.9, -1011497.4, -6779.112, 0.0033707523, -0.062245864, -971879.9, -38907.543, 0.0, 9.99997, 9.999457 
1.0650048e+3, 2.1479772e+2, -836645.44, -892694.06, -12933.563, 0.0058441493, -0.059933893, -833804.9, 1173.1147, 0.0, 10.000224, 9.999477 
1.0650181e+3, 2.2479717e+2, -740992.5, -827860.56, -30063.59, 0.025499985, -0.04623912, -731602.94, 5380.9907, 0.0, 10.000346, 9.999191 
1.0650314e+3, 2.3479657e+2, -643589.25, -727071.25, -29786.137, 0.06336257, -0.029413806, -634051.4, 4938.652, 0.0, 10.00033, 9.999218 
1.0650444e+3, 2.4479564e+2, -575307.5, -689469.25, -14390.87, 0.05884176, -0.022103574, -573521.4, -32521.738, 0.0, 10.000324, 9.998806 
1.06505714e+3, 2.5479433e+2, -473627.4, -586758.8, -6070.2324, 0.008348711, -0.03697472, -473302.63, -30289.31, 0.0, 10.000337, 9.998832 
1.0650702e+3, 2.647931e+2, -373289.28, -502229.78, -12090.261, 0.0053326557, -0.03761413, -372165.4, -27139.303, 0.0, 10.000415, 9.998701 
1.0650836e+3, 2.747919e+2, -254921.81, -390176.5, -20553.555, 0.054273672, -0.029227512, -251867.44, -4829.8623, 0.0, 10.000537, 9.998738 
1.0650969e+3, 2.8479058e+2, -159007.94, -342246.5, -16608.553, 0.07471077, -0.011743302, -157514.72, -8463.389, 0.0, 10.000733, 9.998301 
1.0651099e+3, 2.947891e+2, -14458.079, -218909.55, -10251.243, 0.06525711, 0.0049588843, -13945.365, 37122.324, 0.0, 10.00104, 9.998326 
1.0651231e+3, 3.0478787e+2, 135267.69, 16823.285, -11266.731, 0.064669296, -0.008806153, 136329.88, 136329.88, 0.0, 10.001138, 9.999566 
1.0651365e+3, 3.1478754e+2, 110640.555, 13749.065, -46034.496, 0.070835344, -0.005039629, 129024.18, 129024.18, 0.0, 10.000928, 9.999646 
1.07488e+3, 1.2478534e+2, -1832058.5, -1757396.3, -39487.305, -0.06461622, 0.004192859, -1740387.3, -23287.645, 0.00055371417, 9.999143, 10.000117 
1.0748955e+3, 1.3478446e+2, -1660432.0, -1634619.1, 50091.49, 0.012720263, -0.09031871, -1595798.1, 23310.963, 0.00024334127, 9.999682, 10.000034 
1.0749103e+3, 1.4478497e+2, -1516605.9, -1484310.8, 1599.9674, 0.045852523, -0.0499595, -1484231.6, 36871.902, 0.00005483326, 9.999869, 10.0002985 
1.0749234e+3, 1.5478557e+2, -1455350.1, -1399050.5, 7272.844, 0.023041567, -0.027058661, -1398126.3, 24970.033, 0.000002073113, 9.999598, 10.00034 
1.0749369e+3, 1.6478561e+2, -1416785.3, -1398717.6, 16736.71, 0.0008077783, -0.025376292, -1388732.4, -63636.74, 0.0000000000166348, 9.999488, 9.9997225 
1.0749508e+3, 1.7478505e+2, -1304792.0, -1291683.3, 1495.2024, 0.0034838393, -0.05624524, -1291514.9, -64412.7, 0.0, 9.999574, 9.999743 
1.0749645e+3, 1.8478486e+2, -1171267.3, -1142117.1, -18441.645, 0.010022447, -0.06284671, -1133186.4, -4082.502, 0.0, 9.999667, 10.000052 
1.0749779e+3, 1.9478507e+2, -1053426.9, -1030275.25, -7761.126, 0.014169467, -0.050859723, -1027914.25, 3185.8037, 0.0, 9.999786, 10.00009 
1.0749913e+3, 2.047848e+2, -983346.0, -1032525.6, 1104.653, 0.01027873, -0.05071872, -983321.2, -50218.266, 0.0, 9.999968, 9.999314 
1.07500486e+3, 2.147839e+2, -847325.75, -914798.9, -3802.6836, 0.00090685894, -0.07330801, -847112.1, -11999.056, 0.0, 10.000222, 9.999328 
1.07501835e+3, 2.2478327e+2, -738758.3, -823061.1, -31854.752, 0.010946822, -0.06340412, -728075.44, 9045.08, 0.0, 10.000344, 9.999226 
1.07503146e+3, 2.3478289e+2, -641213.6, -721872.0, -30108.732, 0.04081997, -0.027727453, -631214.1, 7910.762, 0.0, 10.000327, 9.999255 
1.0750446e+3, 2.4478227e+2, -558896.8, -655108.2, -14544.088, 0.04534767, -0.001944854, -556746.3, -15614.831, 0.0, 10.000322, 9.9990425 
1.0750576e+3, 2.5478142e+2, -456496.63, -551791.56, -4908.1885, 0.022832574, 0.0031043051, -456244.5, -13104.118, 0.0, 10.000338, 9.999071 
1.0750708e+3, 2.6478028e+2, -386537.28, -529876.75, -7116.106, 0.030627364, 0.010637688, -386184.88, -41032.766, 0.0, 10.000414, 9.998512 
1.07508436e+3, 2.747788e+2, -269038.97, -419116.88, -14638.1045, 0.0718351, 0.011039975, -267624.56, -20457.742, 0.0, 10.000534, 9.998542 
1.07509755e+3, 2.847773e+2, -146471.05, -314590.63, -5748.4272, 0.06140317, 0.011976389, -146274.73, 2906.8557, 0.0, 10.000726, 9.998494 
1.0751102e+3, 2.9477578e+2, -86.30106, -188688.77, 3381.8984, -0.008571144, 0.0032901731, -25.678522, 51170.688, 0.0, 10.001038, 9.998535 
1.0751239e+3, 3.0477402e+2, 80427.64, -96865.87, -16990.545, 0.02820092, -0.038211003, 82041.21, 82041.21, 0.0, 10.001136, 9.998786 
1.0751385e+3, 3.1477287e+2, 54826.05, -102847.2, -50617.555, 0.18235782, -0.03327696, 69676.94, 69676.94, 0.0, 10.00093, 9.998844 
1.0848795e+3, 1.2477195e+2, -1810636.4, -1744905.0, -48555.46, -0.04046839, 0.022287354, -1719138.0, -1907.6782, 0.00064071716, 9.999282, 10.000135 
1.084895e+3, 1.3477069e+2, -1721960.3, -1659337.0, 66047.375, 0.019387461, -0.11333469, -1617555.0, 1687.9266, 0.00028839763, 9.999241, 10.000077 
1.0849095e+3, 1.4477116e+2, -1582802.1, -1513864.8, 14248.267, 0.016141618, -0.08151213, -1511035.9, 10201.84, 0.00006873226, 9.999409, 10.000316 
1.084923e+3, 1.5477207e+2, -1432933.5, -1386857.0, -3374.706, -0.00012476175, -0.027810017, -1386611.1, 36616.21, 0.0000030594845, 9.999747, 10.000352 
1.08493656e+3, 1.6477217e+2, -1361863.1, -1375957.3, 9515.961, -0.010048215, -0.019468637, -1357069.0, -31842.816, 0.000000000186287, 9.999881, 9.999689 
1.0849506e+3, 1.7477141e+2, -1274595.5, -1280440.1, 23026.414, 0.011923946, -0.06876114, -1254306.6, -27071.77, 0.0, 9.999798, 9.999711 
1.08496435e+3, 1.8477109e+2, -1162668.8, -1149851.4, 9558.047, 0.02508791, -0.08183927, -1144752.4, -15514.278, 0.0, 9.99978, 9.999944 
1.08497776e+3, 1.9477125e+2, -1052348.3, -1041996.9, -9812.855, 0.019395651, -0.06477109, -1036078.44, -4843.0483, 0.0, 9.999846, 9.99998 
1.0849913e+3, 2.04771e+2, -988958.9, -1028809.4, -4881.235, 0.01419767, -0.056473386, -988369.7, -55131.72, 0.0, 9.999902, 9.999371 
1.0850051e+3, 2.1477029e+2, -881968.56, -924616.7, 5058.7944, 0.012053088, -0.06639051, -881376.7, -46130.395, 0.0, 9.999956, 9.999388 
1.0850186e+3, 2.2476971e+2, -771128.5, -834905.4, -15199.145, 0.01603631, -0.05505772, -767691.5, -30438.361, 0.0, 10.000106, 9.999259 
1.0850316e+3, 2.3476925e+2, -632696.25, -714314.25, -15997.609, 0.024753686, -0.030868858, -629672.7, 9585.77, 0.0, 10.00037, 9.999287 
1.0850449e+3, 2.4476865e+2, -531123.2, -645561.4, -13625.273, 0.03473763, -0.005306005, -529523.3, 11741.849, 0.0, 10.000528, 9.999009 
1.0850582e+3, 2.547679e+2, -426188.56, -540835.1, -25521.615, 0.04709151, 0.013149124, -420763.84, 22509.523, 0.0, 10.000562, 9.999039 
1.08507164e+3, 2.6476672e+2, -351939.7, -505403.06, -24832.904, 0.06231094, 0.01763658, -348021.34, -2736.399, 0.0, 10.00062, 9.998581 
1.08508505e+3, 2.7476513e+2, -236253.05, -395669.56, -13748.342, 0.080034286, -0.0038802542, -235076.05, 12224.171, 0.0, 10.000728, 9.998609 
1.0850982e+3, 2.847636e+2, -137866.61, -318827.88, -1540.7445, 0.06294743, -0.0061950665, -137853.5, 11461.485, 0.0, 10.00082, 9.99842 
1.08511135e+3, 2.9476216e+2, -33268.445, -213666.14, -15623.482, 0.008404559, 0.0047110026, -31925.361, 19403.531, 0.0, 10.000849, 9.998455 
1.0851251e+3, 3.0476016e+2, 49294.69, -140976.75, -29013.264, 0.039104953, -0.043811493, 53620.395, 53620.395, 0.0, 10.001047, 9.998525 
1.0851395e+3, 3.147587e+2, 118585.61, -99536.4, -25936.896, 0.1621577, -0.04572419, 121627.35, 121627.35, 0.0, 10.001487, 9.998598 
1.0948793e+3, 1.247575e+2, -1789923.4, -1699398.4, -55464.164, 0.012808258, -0.05034891, -1673072.0, 44299.375, 0.000734217, 9.999271, 10.000453 
1.0948942e+3, 1.347576e+2, -1698825.4, -1611119.9, 66305.59, 0.0053659, -0.08230424, -1575477.4, 43892.09, 0.00033773432, 9.999238, 10.00041 
1.09490834e+3, 1.4475821e+2, -1599697.6, -1547948.4, 26960.578, -0.050167304, -0.044506818, -1536455.0, -15092.156, 0.0000845864, 9.999405, 10.000084 
1.0949225e+3, 1.547579e+2, -1452363.8, -1426098.8, 10079.31, -0.024787301, -0.08491141, -1422676.6, 688.53326, 0.0000043925156, 9.9997425, 10.000085 
1.0949363e+3, 1.6475788e+2, -1337705.1, -1325732.4, 5616.4507, -0.015106043, -0.09328788, -1323510.1, 1855.0226, 0.0000000006358386, 9.99988, 10.000034 
1.0949503e+3, 1.747581e+2, -1248961.5, -1227750.4, 19922.004, 0.005495599, -0.07787052, -1215786.8, 11575.888, 0.0, 9.999799, 10.0000725 
1.094964e+3, 1.8475789e+2, -1196503.6, -1219695.9, 10590.046, 0.015916029, -0.074955024, -1192395.6, -63030.516, 0.0, 9.999778, 9.999466 
1.09497756e+3, 1.9475721e+2, -1087645.8, -1114711.4, -7691.493, 0.0069946996, -0.09374422, -1085612.6, -54239.824, 0.0, 9.999845, 9.999482 
1.0949912e+3, 2.0475689e+2, -971478.3, -992231.06, -4504.5093, 0.012071953, -0.07959463, -970542.75, -37165.816, 0.0, 9.9999, 9.999624 
1.0950053e+3, 2.1475695e+2, -863672.2, -885895.9, 6990.6855, 0.036065646, -0.03827819, -861656.06, -26278.965, 0.0, 9.999951, 9.999657 
1.0950189e+3, 2.247566e+2, -770052.44, -831864.44, -6884.746, 0.037189744, -0.020478617, -769294.94, -31913.506, 0.0, 10.000102, 9.999282 
1.0950319e+3, 2.3475572e+2, -631810.94, -711936.94, -6010.8823, 0.012291844, -0.039264563, -631362.56, 8027.786, 0.0, 10.000367, 9.999305 
1.0950453e+3, 2.4475479e+2, -552160.25, -689156.3, -12464.098, 0.024280287, -0.03181774, -551035.44, -9635.017, 0.0, 10.000527, 9.998712 
1.0950592e+3, 2.547538e+2, -447721.63, -584728.94, -23344.385, 0.078035474, -0.006147005, -443853.25, -441.4535, 0.0, 10.000558, 9.99874 
1.0950726e+3, 2.647525e+2, -330793.25, -460246.5, -21009.56, 0.09723469, -0.015753387, -327468.88, 17955.24, 0.0, 10.000614, 9.998894 
1.0950858e+3, 2.747509e+2, -213579.06, -348225.66, -8141.004, 0.075367056, -0.072558604, -213088.63, 34348.688, 0.0, 10.000726, 9.998936 
1.0950992e+3, 2.8474945e+2, -162285.98, -369459.47, 765.3993, 0.07606139, -0.06419263, -162283.16, -12832.161, 0.0, 10.000819, 9.998074 
1.09511316e+3, 2.9474828e+2, -58934.2, -266654.4, -12168.796, 0.10702583, 0.0075802337, -58223.746, -6758.7583, 0.0, 10.000846, 9.998093 
1.0951266e+3, 3.047463e+2, 63535.445, -109498.29, -13371.425, 0.089761734, -0.028857544, 64562.64, 64562.64, 0.0, 10.001039, 9.998746 
1.0951395e+3, 3.14745e+2, 136701.25, -59474.188, -5694.9224, 0.009446455, -0.04060974, 136866.44, 136866.44, 0.0, 10.001475, 9.9988785 
1.10487856e+3, 1.2474322e+2, -1823899.6, -1702017.5, -71294.13, 0.025909627, -0.07192715, -1669168.0, 48342.957, 0.00083503575, 9.998979, 10.000575 
1.1048935e+3, 1.3474384e+2, -1659999.4, -1576527.4, 36960.242, 0.012400714, -0.06814965, -1562514.3, 56989.53, 0.0003918232, 9.999433, 10.000555 
1.1049076e+3, 1.4474449e+2, -1565047.3, -1533240.0, -4337.0933, -0.07106039, -0.03128118, -1532659.3, -11162.675, 0.000102570426, 9.99965, 10.000067 
1.10492215e+3, 1.5474382e+2, -1490793.6, -1446653.6, -5693.7227, -0.019958109, -0.1067611, -1445931.0, -22428.299, 0.0000061708192, 9.99949, 10.000065 
1.10493615e+3, 1.6474377e+2, -1390275.5, -1340385.4, -9577.348, -0.000077848745, -0.12075574, -1338610.0, -13106.967, 0.0000000015512864, 9.999476, 10.000127 
1.1049501e+3, 1.7474435e+2, -1262328.9, -1223487.3, -17023.877, 0.011141053, -0.07886135, -1217082.1, 10414.963, 0.0, 9.999662, 10.000167 
1.1049637e+3, 1.847443e+2, -1183372.1, -1212176.1, -13869.425, 0.011435169, -0.06571361, -1177779.6, -48281.613, 0.0, 9.999863, 9.999476 
1.1049773e+3, 1.9474354e+2, -1051831.5, -1096125.5, 5505.5874, -0.009482594, -0.09145295, -1051157.5, -19651.146, 0.0, 10.000085, 9.999493 
1.1049911e+3, 2.047432e+2, -944110.0, -978187.75, 11505.322, 0.001904419, -0.08000443, -940589.3, -7078.6387, 0.0, 10.000085, 9.999631 
1.1050054e+3, 2.147433e+2, -879445.7, -892697.06, 1017.7229, 0.05152235, -0.03786917, -879368.0, -43857.195, 0.0, 9.999841, 9.999663 
1.1050191e+3, 2.2474295e+2, -803995.4, -845651.94, -7704.8545, 0.060449198, -0.020219969, -802615.94, -65101.05, 0.0, 9.999859, 9.999305 
1.1050322e+3, 2.3474209e+2, -659370.8, -722638.06, -7031.318, 0.023167668, -0.039810747, -658598.75, -19075.297, 0.0, 10.000168, 9.999327 
1.10504575e+3, 2.447411e+2, -571752.44, -702464.94, -9620.859, 0.024545535, -0.038114298, -571048.06, -29513.947, 0.0, 10.00041, 9.998676 
1.1050595e+3, 2.5473997e+2, -445322.84, -588175.5, -3091.013, 0.06807233, -0.023869663, -445256.0, -1708.9082, 0.0, 10.000594, 9.998699 
1.10507324e+3, 2.6473862e+2, -312008.88, -449407.3, -1919.2659, 0.0869656, -0.036049966, -311982.06, 33577.715, 0.0, 10.000735, 9.99891 
1.1050866e+3, 2.747371e+2, -200827.42, -340115.6, -13129.948, 0.078158125, -0.0838105, -199600.55, 47971.26, 0.0, 10.000805, 9.998953 
1.1051002e+3, 2.8473574e+2, -154266.64, -365469.8, -3362.46, 0.09234523, -0.06900906, -154213.13, -4628.3413, 0.0, 10.000875, 9.998073 
1.1051144e+3, 2.947346e+2, -40327.234, -258095.56, 8312.987, 0.1346176, 0.0038101661, -40010.36, 11588.519, 0.0, 10.000977, 9.998088 
1.1051278e+3, 3.0473253e+2, 78103.33, -87564.93, 25525.982, 0.10086805, -0.04499466, 81947.164, 81947.164, 0.0, 10.001075, 9.998879 
1.1051405e+3, 3.147315e+2, 98506.72, -57581.504, 21476.719, -0.021459576, -0.042508855, 101407.85, 101407.85, 0.0, 10.001125, 9.999061 
1.1148772e+3, 1.24729164e+2, -1831126.3, -1714798.1, -57599.574, -0.012602352, -0.045679428, -1691104.0, 26545.018, 0.000944546, 9.99897, 10.000491 
1.1148932e+3, 1.347294e+2, -1664615.1, -1586033.8, 56187.586, 0.037131466, -0.07210511, -1556762.0, 62883.94, 0.00045159098, 9.999431, 10.000491 
1.1149075e+3, 1.4473006e+2, -1549851.4, -1501167.6, -10100.126, -0.049199328, -0.04347432, -1499155.4, 22483.28, 0.00012308804, 9.999647, 10.000289 
1.1149219e+3, 1.5472989e+2, -1474748.5, -1413028.3, -11893.089, 0.01058884, -0.0915887, -1410815.9, 12823.309, 0.000008505592, 9.999488, 10.000297 
1.11493595e+3, 1.6472992e+2, -1402993.5, -1365816.6, -4525.2266, 0.029613577, -0.1001503, -1365273.6, -39634.723, 0.0000000033697685, 9.999473, 9.999954 
1.1149498e+3, 1.747302e+2, -1275539.1, -1250247.6, -10198.241, 0.026572991, -0.07202235, -1246647.9, -19010.105, 0.0, 9.99966, 9.999985 
1.1149636e+3, 1.8473034e+2, -1148000.5, -1138319.6, -7107.723, 0.00831482, -0.054042887, -1134560.8, -4924.2505, 0.0, 9.99986, 9.999986 
1.11497715e+3, 1.9473033e+2, -1015231.5, -1020289.5, 13668.103, -0.03332192, -0.056684703, -1003860.4, 27774.865, 0.0, 10.000085, 10.000014 
1.1149909e+3, 2.0473002e+2, -961780.7, -1014393.6, 1049.3195, -0.02060477, -0.05705517, -961759.8, -28121.207, 0.0, 10.000082, 9.999384 
1.11500524e+3, 2.1472935e+2, -898351.2, -931195.44, -8728.438, 0.056065362, -0.065232456, -896175.7, -60528.727, 0.0, 9.999837, 9.999401 
1.1150192e+3, 2.2472881e+2, -802582.56, -842030.1, 1961.3785, 0.08298884, -0.05477765, -802485.3, -64831.926, 0.0, 9.999855, 9.999331 
1.1150327e+3, 2.3472841e+2, -657597.44, -717952.94, 4868.908, 0.054508675, -0.032262024, -657207.1, -17549.781, 0.0, 10.000163, 9.999362 
1.1150463e+3, 2.4472761e+2, -557942.4, -672379.9, -3275.2966, 0.03187933, -0.023151143, -557848.7, -16182.968, 0.0, 10.000403, 9.998886 
1.1150597e+3, 2.5472635e+2, -431041.75, -558246.4, 4615.6836, 0.0155411875, -0.03971711, -430874.5, 12804.472, 0.0, 10.000592, 9.998905 
1.11507334e+3, 2.6472506e+2, -331570.94, -489839.47, 1059.4374, 0.030449254, -0.044147994, -331563.84, 14127.945, 0.0, 10.000734, 9.998633 
1.1150874e+3, 2.747238e+2, -222139.13, -382293.22, -9270.458, 0.082646586, -0.04204792, -221604.3, 26099.445, 0.0, 10.000796, 9.998669 
1.1151012e+3, 2.8472248e+2, -132540.34, -318063.13, -80.45359, 0.10527846, -0.02402646, -132540.31, 17176.01, 0.0, 10.000864, 9.9984045 
1.11511484e+3, 2.9472113e+2, -15813.202, -207460.23, 14348.1045, 0.09147977, -0.00339218, -14744.952, 36985.086, 0.0, 10.000977, 9.998437 
1.11512855e+3, 3.0471894e+2, 80482.16, -82897.4, 28192.002, 0.07264447, -0.08717611, 85210.016, 85210.016, 0.0, 10.001075, 9.998911 
1.1151423e+3, 3.1471834e+2, 103975.52, -44882.25, 26078.973, 0.05253156, -0.04612853, 108412.17, 108412.17, 0.0, 10.001119, 9.999151 
1.1248762e+3, 1.24715e+2, -1698298.9, -1675791.6, -36144.277, -0.053126123, -0.05703939, -1649189.6, 68597.234, 0.0010643419, 9.999991, 10.000267 
1.124893e+3, 1.3471505e+2, -1689588.5, -1620451.1, 66534.47, 0.07129038, -0.0805873, -1580041.0, 39745.695, 0.00051804923, 9.999358, 10.00029 
1.1249071e+3, 1.4471573e+2, -1606005.0, -1510181.0, -101.55382, -0.023447534, -0.049134795, -1510180.9, 11598.813, 0.00014661087, 9.999186, 10.000449 
1.1249215e+3, 1.547159e+2, -1470246.3, -1392428.1, -10286.171, 0.029678866, -0.08053458, -1391091.4, 32685.055, 0.00001150662, 9.999438, 10.000463 
1.1249355e+3, 1.64716e+2, -1388163.0, -1367062.8, 2939.8472, 0.035051614, -0.085337944, -1366660.8, -40885.387, 0.0000000061074554, 9.999608, 9.999882 
1.1249493e+3, 1.747161e+2, -1276290.1, -1259572.8, 4186.921, 0.009370302, -0.068052836, -1258582.8, -30806.373, 0.0, 9.999693, 9.999906 
1.12496324e+3, 1.847162e+2, -1162117.8, -1130481.1, -3390.977, -0.004364922, -0.055976942, -1130121.8, -346.3257, 0.0, 9.999701, 10.000115 
1.1249772e+3, 1.9471632e+2, -1071755.5, -1032321.3, -13850.437, -0.012936899, -0.060075037, -1027942.8, 3829.6462, 0.0, 9.999632, 10.00015 
1.1249911e+3, 2.0471606e+2, -1002895.44, -1039100.25, -30940.18, 0.00045322435, -0.06044977, -985151.06, -51375.938, 0.0, 9.999822, 9.99934 
1.1250051e+3, 2.1471536e+2, -833286.75, -905168.75, -25286.568, 0.04022224, -0.06664399, -825282.7, 10501.351, 0.0, 10.000308, 9.999352 
1.12501904e+3, 2.2471477e+2, -716750.2, -799605.44, -9339.383, 0.064260155, -0.057826262, -715710.5, 22080.3, 0.0, 10.00044, 9.999341 
1.12503305e+3, 2.3471433e+2, -653996.75, -714468.2, -10868.258, 0.06987542, -0.040270183, -652102.75, -12307.768, 0.0, 10.000181, 9.999376 
1.12504676e+3, 2.4471363e+2, -580590.1, -669779.1, -14432.738, 0.053425618, -0.027197521, -578312.75, -36510.508, 0.0, 10.000191, 9.999005 
1.1250602e+3, 2.5471264e+2, -437597.16, -547237.1, -13429.9375, 0.011882541, -0.030083647, -435976.06, 7837.0117, 0.0, 10.000488, 9.99903 
1.12507395e+3, 2.647115e+2, -347005.6, -505748.97, -18792.012, 0.015874634, -0.025094535, -344811.34, 1013.8577, 0.0, 10.000667, 9.998556 
1.125088e+3, 2.7471015e+2, -239021.9, -400332.75, -16181.045, 0.07192613, -0.01868722, -237414.8, 10423.641, 0.0, 10.000723, 9.99858 
1.1251019e+3, 2.8470877e+2, -137916.36, -309289.63, -6029.473, 0.09624229, -0.006909468, -137704.48, 12147.193, 0.0, 10.000778, 9.998506 
1.12511575e+3, 2.9470736e+2, -31037.064, -203039.52, -11841.974, 0.08380889, -0.0025752045, -30225.602, 21639.645, 0.0, 10.000823, 9.998541 
1.1251295e+3, 3.0470514e+2, 61409.35, -100283.875, -6372.144, 0.07060454, -0.092753895, 61660.082, 61660.082, 0.0, 10.000981, 9.9988365 
1.12514354e+3, 3.147049e+2, 127366.72, -31843.682, -17773.693, 0.06262933, -0.003737495, 129326.78, 129326.78, 0.0, 10.001274, 9.999166 
1.1348757e+3, 1.24700814e+2, -1722160.5, -1726080.3, -59040.637, -0.100474164, -0.106187366, -1665047.3, 52876.504, 0.0011953667, 9.999997, 9.999918 
1.1348927e+3, 1.347009e+2, -1713269.5, -1669403.8, 44049.363, 0.10915613, -0.093266666, -1642128.9, -22203.82, 0.00059164723, 9.999356, 9.999955 
1.1349065e+3, 1.4470159e+2, -1600967.0, -1497768.1, 9034.2705, -0.000784823, -0.04742607, -1496983.3, 24935.555, 0.00017336896, 9.999177, 10.000539 
1.134921e+3, 1.5470189e+2, -1463702.9, -1378878.9, -177.86787, 0.033717576, -0.074414976, -1378878.5, 45035.613, 0.000015247707, 9.999438, 10.000556 
1.1349348e+3, 1.6470207e+2, -1386425.5, -1363224.1, 4977.8164, 0.0116335545, -0.07742703, -1362201.3, -36289.473, 0.000000009421829, 9.999607, 9.999908 
1.1349485e+3, 1.7470212e+2, -1274597.4, -1256026.4, 7294.8867, -0.04552793, -0.06663259, -1253503.5, -25591.346, 0.0, 9.999692, 9.99993 
1.1349627e+3, 1.8470195e+2, -1180633.9, -1168431.4, -7541.3525, -0.032692976, -0.07149337, -1164832.3, -34918.207, 0.0, 9.999698, 9.999857 
1.1349774e+3, 1.9470155e+2, -1090580.4, -1070596.8, -17040.861, 0.049615286, -0.10168542, -1060834.4, -28917.016, 0.0, 9.999628, 9.999889 
1.1349916e+3, 2.0470133e+2, -992243.3, -1015810.94, -14796.518, 0.06255916, -0.09036509, -985111.6, -51191.777, 0.0, 9.999816, 9.999503 
1.135005e+3, 2.1470135e+2, -821904.8, -880974.3, -7106.4316, 0.0008155525, -0.041636094, -821061.9, 14859.539, 0.0, 10.000304, 9.99952 
1.1350189e+3, 2.247009e+2, -718514.5, -802383.94, -19795.576, -0.00017204048, -0.028306538, -714076.94, 23849.695, 0.0, 10.000435, 9.999325 
1.1350332e+3, 2.346999e+2, -655740.1, -717930.5, -20638.324, 0.06700035, -0.06400506, -649514.4, -9578.43, 0.0, 10.000179, 9.999354 
1.1350472e+3, 2.4469921e+2, -578570.44, -664547.8, -4495.908, 0.08573623, -0.051937934, -578336.0, -36392.473, 0.0, 10.000187, 9.999043 
1.135061e+3, 2.5469884e+2, -435841.16, -541484.6, -1524.9517, 0.051849887, 0.0033045402, -435819.16, 8130.003, 0.0, 10.000479, 9.999075 
1.1350748e+3, 2.6469788e+2, -340024.13, -489060.13, -16495.652, 0.037517086, 0.021478342, -338220.2, 7739.3013, 0.0, 10.000656, 9.998676 
1.1350885e+3, 2.746963e+2, -230108.86, -383050.94, -12073.475, 0.04326738, -0.01015402, -229161.63, 18813.402, 0.0, 10.000727, 9.998697 
1.1351024e+3, 2.8469473e+2, -148211.16, -331015.9, -4127.8916, 0.0628412, -0.0149433175, -148118.0, 1872.131, 0.0, 10.000781, 9.998356 
1.1351167e+3, 2.946933e+2, -43739.05, -226567.28, -8479.502, 0.102910645, 0.00061371544, -43346.617, 8658.054, 0.0, 10.000811, 9.998385 
1.13513075e+3, 3.0469114e+2, 47844.9, -124903.484, 4425.0146, 0.08595313, -0.0679477, 47958.17, 47958.17, 0.0, 10.000964, 9.998676 
1.1351443e+3, 3.1469145e+2, 125879.31, -35884.008, -2417.6328, 0.003954389, 0.09341866, 125915.44, 125915.44, 0.0, 10.001276, 9.999138 
1.1448757e+3, 1.2468701e+2, -1788407.5, -1767668.8, -70651.81, -0.076227546, -0.09741189, -1706629.5, 11429.375, 0.0013373722, 9.999584, 9.999831 
1.1448924e+3, 1.346869e+2, -1635296.5, -1639502.1, 47153.902, 0.118748076, -0.09733193, -1590198.5, 29863.455, 0.000672049, 9.999923, 9.999889 
1.14490576e+3, 1.4468741e+2, -1491189.1, -1466406.4, 19571.654, -0.03371694, -0.056057047, -1455633.3, 66424.38, 0.0002032588, 10.000022, 10.000348 
1.1449205e+3, 1.5468772e+2, -1432799.4, -1385346.1, -14062.046, 0.033294763, -0.06414828, -1381492.0, 42561.69, 0.000019742625, 9.999743, 10.000364 
1.1449347e+3, 1.646879e+2, -1370589.6, -1339298.0, -9945.191, 0.027735662, -0.06544113, -1336404.8, -10353.46, 0.000000013934886, 9.999645, 10.000054 
1.1449484e+3, 1.746879e+2, -1252364.0, -1228359.3, 1213.312, -0.035588436, -0.07235311, -1228298.0, -247.36087, 0.0, 9.99977, 10.000083 
1.1449625e+3, 1.8468767e+2, -1169871.0, -1189005.3, -9145.278, -0.032072607, -0.08214496, -1166203.1, -36149.805, 0.0, 9.999884, 9.999626 
1.14497714e+3, 1.9468711e+2, -1053593.4, -1080023.5, -18476.074, 0.037337396, -0.102712736, -1044092.75, -12033.282, 0.0, 10.0, 9.999645 
1.1449914e+3, 2.0468688e+2, -969709.75, -994462.94, -14288.372, 0.055534597, -0.08653482, -963183.0, -29120.46, 0.0, 9.999927, 9.999596 
1.14500515e+3, 2.1468699e+2, -911514.56, -912165.0, -13420.539, 0.018784055, -0.03753291, -898415.3, -62353.31, 0.0, 9.999639, 9.999626 
1.14501916e+3, 2.246865e+2, -818326.0, -854499.9, -25710.828, 0.017588142, -0.03085834, -804977.56, -66910.48, 0.0, 9.99977, 9.999287 
1.1450333e+3, 2.3468532e+2, -630934.1, -710629.6, -28612.318, 0.054134093, -0.08178014, -621725.7, 18352.873, 0.0, 10.000372, 9.999311 
1.1450475e+3, 2.4468462e+2, -523778.97, -641318.2, -20228.563, 0.0644638, -0.06704261, -520395.06, 21691.598, 0.0, 10.000577, 9.999015 
1.1450614e+3, 2.5468448e+2, -459064.3, -556054.7, -25184.92, 0.047236882, 0.012486491, -452914.6, -8823.889, 0.0, 10.000334, 9.999044 
1.1450753e+3, 2.6468363e+2, -371669.13, -484621.03, -34424.055, 0.03886434, 0.03463753, -362004.72, -15904.614, 0.0, 10.000353, 9.998853 
1.1450891e+3, 2.7468202e+2, -225923.78, -359728.34, -26144.566, 0.03831353, -0.016741252, -220996.72, 27118.645, 0.0, 10.000666, 9.998886 
1.1451031e+3, 2.8468058e+2, -133980.52, -326446.5, -14479.399, 0.0590073, -0.017359355, -132897.31, 17231.861, 0.0, 10.00089, 9.998334 
1.14511766e+3, 2.946794e+2, -20141.416, -219475.28, -10657.308, 0.108984336, 0.027526325, -19573.248, 32568.293, 0.0, 10.000991, 9.998347 
1.1451317e+3, 3.0467704e+2, 50904.617, -135164.28, 13652.935, 0.086717, -0.05355197, 51901.074, 51901.074, 0.0, 10.001037, 9.998571 
1.1451453e+3, 3.1467703e+2, 93868.04, -45779.195, 5273.7837, -0.013354339, 0.086288996, 94066.92, 94066.92, 0.0, 10.001036, 9.999185 
1.1548762e+3, 1.24673724e+2, -1778964.3, -1743050.1, -54156.344, 0.01756836, -0.025944525, -1703951.4, 14239.94, 0.001489488, 9.999564, 10.00001 
1.1548921e+3, 1.3467315e+2, -1620514.4, -1610134.5, 62210.91, 0.09542321, -0.09279581, -1552897.4, 67299.31, 0.00075867696, 9.999928, 10.000089 
1.1549049e+3, 1.4467327e+2, -1522368.0, -1533809.1, 9739.998, -0.12834859, -0.076217696, -1516792.9, 5402.705, 0.0002361324, 10.000032, 9.999881 
1.15492016e+3, 1.5467344e+2, -1466333.1, -1455478.0, -24667.48, 0.024051983, -0.049146272, -1435648.0, -11453.36, 0.000024990082, 9.999744, 9.999883 
1.15493484e+3, 1.6467354e+2, -1352568.1, -1300934.8, -7216.5366, 0.07847424, -0.048295066, -1299945.1, 26248.146, 0.000000023716384, 9.999641, 10.0003195 
1.15494885e+3, 1.7467356e+2, -1232676.1, -1186700.9, 5734.088, 0.037589923, -0.084670454, -1185996.5, 42194.5, 0.0, 9.999766, 10.000371 
1.1549626e+3, 1.846734e+2, -1184983.6, -1219744.0, -6038.3013, -0.0053076167, -0.08799138, -1183964.5, -53772.07, 0.0, 9.99988, 9.999417 
1.1549762e+3, 1.9467308e+2, -1069578.5, -1113400.8, -14283.03, -0.053657614, -0.06337522, -1065334.3, -33136.133, 0.0, 10.0, 9.999416 
1.1549905e+3, 2.0467271e+2, -968762.75, -992457.9, -26324.572, -0.025862852, -0.048676617, -951742.56, -17540.047, 0.0, 9.999926, 9.99961 
1.1550055e+3, 2.1467231e+2, -909945.5, -908322.3, -24817.852, 0.09133189, -0.05447615, -884302.8, -48097.47, 0.0, 9.999635, 9.999655 
1.1550199e+3, 2.2467163e+2, -823283.25, -862467.1, -5580.248, 0.114577405, -0.066147484, -822504.06, -84292.28, 0.0, 9.999761, 9.999236 
1.1550335e+3, 2.3467062e+2, -635910.4, -719399.3, -5602.2104, 0.029177224, -0.09405805, -635536.1, 4686.2534, 0.0, 10.000365, 9.999254 
1.1550473e+3, 2.446699e+2, -532089.5, -656650.2, -28699.924, -0.013341484, -0.0718303, -525794.9, 16436.086, 0.0, 10.000568, 9.998914 
1.1550611e+3, 2.5466955e+2, -466184.16, -571672.56, -33392.04, -0.0051645534, -0.0018813546, -456502.56, -12265.359, 0.0, 10.000336, 9.998937 
1.1550754e+3, 2.646687e+2, -356692.25, -453066.66, -23502.844, 0.016349306, 0.013266775, -351266.13, -5019.4155, 0.0, 10.000352, 9.99907 
1.15508996e+3, 2.7466726e+2, -211556.25, -326645.84, -13590.068, 0.052237056, -0.040956233, -209973.27, 38286.21, 0.0, 10.000652, 9.99912 
1.1551043e+3, 2.8466633e+2, -126784.836, -307396.44, -9998.633, 0.07923404, -0.01625811, -126233.0, 24035.756, 0.0, 10.000871, 9.998475 
1.1551185e+3, 2.9466578e+2, -10403.415, -200330.19, -3789.2449, 0.09575719, 0.08053807, -10327.846, 41947.14, 0.0, 10.000994, 9.998478 
1.1551326e+3, 3.0466294e+2, 41945.22, -153937.02, 13621.462, 0.06766125, -0.04664312, 42887.906, 42887.906, 0.0, 10.001038, 9.998443 
1.1551465e+3, 3.146617e+2, 94579.01, -40434.906, 7520.742, 0.0008347122, -0.018250486, 94996.64, 94996.64, 0.0, 10.001019, 9.99923 
1.1648762e+3, 1.2465945e+2, -1705053.9, -1704166.0, -78372.68, 0.029848792, -0.0021054354, -1626236.0, 92096.92, 0.0016512593, 10.000057, 10.000039 
1.1648921e+3, 1.3465895e+2, -1637928.6, -1613393.0, 16315.614, 0.1157542, -0.06530733, -1605247.6, 15089.214, 0.0008513687, 9.9997835, 10.000136 
1.1649045e+3, 1.4465895e+2, -1565629.6, -1559003.9, -27481.037, -0.14645438, -0.06167443, -1534636.8, -12300.348, 0.00027198074, 9.999754, 9.999842 
1.16492e+3, 1.5465891e+2, -1441728.6, -1448156.9, -31783.654, 0.021389496, -0.051700935, -1412997.0, 11340.503, 0.00003101119, 9.999932, 9.999844 
1.1649347e+3, 1.6465889e+2, -1322061.6, -1296345.6, -9125.519, 0.08710276, -0.054814037, -1293436.5, 32900.758, 0.00000004774233, 9.999895, 10.00023 
1.16494864e+3, 1.7465892e+2, -1258177.8, -1209100.5, -26230.797, 0.047367282, -0.080050595, -1197719.8, 30615.371, 0.0, 9.999636, 10.00028 
1.1649624e+3, 1.8465887e+2, -1213057.3, -1222682.3, -30149.836, 0.00136005, -0.073560365, -1187338.3, -57002.605, 0.0, 9.999641, 9.999513 
1.1649762e+3, 1.9465876e+2, -1069002.9, -1101282.0, -14012.929, -0.055457115, -0.040141903, -1063768.4, -31429.44, 0.0, 9.999953, 9.999522 
1.1649905e+3, 2.0465831e+2, -938133.0, -988436.94, -26322.479, -0.029273404, -0.034143563, -926877.6, 7466.2344, 0.0, 10.000184, 9.999513 
1.1650055e+3, 2.146575e+2, -816379.0, -875306.3, -36140.996, 0.093034185, -0.06939006, -799213.5, 37136.973, 0.0, 10.00033, 9.999547 
1.1650199e+3, 2.246568e+2, -759966.6, -831848.4, -14048.105, 0.113794625, -0.078077376, -757318.7, -18961.316, 0.0, 10.000195, 9.999237 
1.1650334e+3, 2.346562e+2, -727073.6, -762456.2, -11940.249, 0.018177593, -0.0642304, -723421.25, -83056.8, 0.0, 9.999736, 9.999261 
1.1650472e+3, 2.4465552e+2, -646025.06, -707612.3, -23216.52, -0.026836926, -0.04163899, -638253.75, -95881.1, 0.0, 9.999769, 9.998949 
1.1650614e+3, 2.5465474e+2, -459478.38, -563840.2, -17580.307, -0.014461418, -0.019852411, -456596.47, -12214.218, 0.0, 10.000365, 9.998976 
1.1650758e+3, 2.646537e+2, -322392.78, -437957.13, -14607.615, 0.011788529, -0.019245738, -320574.94, 25817.783, 0.0, 10.000596, 9.999055 
1.1650904e+3, 2.7465254e+2, -252037.86, -349232.6, -24774.19, 0.0557926, -0.04812505, -246087.42, 2316.314, 0.0, 10.000387, 9.999093 
1.1651049e+3, 2.846518e+2, -185969.3, -319303.72, -24215.46, 0.0794901, -0.00613111, -181707.63, -31296.549, 0.0, 10.000392, 9.998625 
1.1651191e+3, 2.9465148e+2, -48184.754, -200873.44, -19671.795, 0.07862888, 0.09675795, -45691.047, 6724.2827, 0.0, 10.000661, 9.998634 
1.1651333e+3, 3.0464855e+2, 3902.3015, -172628.4, -5021.543, 0.059319276, -0.046148513, 4045.0276, 4045.0276, 0.0, 10.000779, 9.998438 
1.1651477e+3, 3.146471e+2, 54972.37, -39664.586, -1510.0104, 0.038542863, -0.039820265, 54996.457, 54996.457, 0.0, 10.000661, 9.99941 
1.1748755e+3, 1.2464423e+2, -1712974.9, -1721737.6, -79239.664, -0.047414742, -0.025274191, -1637995.6, 80487.76, 0.0018234614, 10.000062, 9.999916 
1.1748925e+3, 1.3464437e+2, -1645573.1, -1628559.5, 6576.7603, 0.17597646, -0.013509249, -1626313.6, -5832.085, 0.0009506097, 9.999779, 10.000036 
1.1749049e+3, 1.4464453e+2, -1539019.3, -1501618.3, -21813.16, -0.09085265, -0.009621092, -1491586.9, 30892.445, 0.00031097958, 9.999744, 10.00024 
1.1749199e+3, 1.5464418e+2, -1412849.9, -1388025.8, -24893.902, 0.021790056, -0.07237571, -1372621.3, 51860.438, 0.00003785508, 9.999931, 10.000256 
1.17493406e+3, 1.6464403e+2, -1353705.8, -1363047.0, -19730.922, 0.047568224, -0.08733352, -1338100.1, -11617.382, 0.00000010132158, 9.999897, 9.999771 
1.1749476e+3, 1.7464411e+2, -1292070.8, -1279753.0, -36216.72, -0.01067618, -0.05898629, -1249175.3, -20692.563, 0.0, 9.999636, 9.999796 
1.1749619e+3, 1.8464416e+2, -1185401.3, -1164147.4, -20721.992, -0.017666776, -0.037670523, -1151486.3, -21003.986, 0.0, 9.999636, 9.999916 
1.1749769e+3, 1.9464418e+2, -1039038.3, -1038008.8, -2580.5647, 0.029859874, -0.03236183, -1035892.2, -3410.7139, 0.0, 9.9999485, 9.999959 
1.17499135e+3, 2.046437e+2, -953500.25, -1019432.44, -22004.307, 0.04337193, -0.042980652, -946831.06, -12345.057, 0.0, 10.000179, 9.999302 
1.17500514e+3, 2.1464261e+2, -833262.6, -909887.4, -30790.785, 0.020627085, -0.08337507, -822423.06, 14073.886, 0.0, 10.000326, 9.999311 
1.1750191e+3, 2.2464204e+2, -758107.0, -827152.0, -31890.398, 0.010654491, -0.066978276, -745631.6, -7128.1685, 0.0, 10.00019, 9.999271 
1.1750331e+3, 2.346421e+2, -723441.2, -755395.44, -29355.697, 0.017112559, 0.00594887, -705996.4, -65491.86, 0.0, 9.999736, 9.99931 
1.17504746e+3, 2.4464147e+2, -634298.7, -682319.06, -3268.2766, 0.019665502, 0.021752043, -634077.25, -91565.76, 0.0, 9.999765, 9.9991255 
1.1750621e+3, 2.5463998e+2, -447774.75, -537734.4, 5488.329, 0.016007321, -0.041520976, -447441.16, -2915.6606, 0.0, 10.000357, 9.99916 
1.1750765e+3, 2.6463875e+2, -339881.16, -472076.16, -20918.555, 0.02245701, -0.06255094, -336649.97, 9887.736, 0.0, 10.000585, 9.998827 
1.1750907e+3, 2.7463785e+2, -269202.84, -385250.78, -30522.264, 0.041133568, -0.038687762, -261664.7, -13117.289, 0.0, 10.000386, 9.998847 
1.175105e+3, 2.8463712e+2, -179606.19, -305410.34, -14837.901, 0.052499693, 0.01172429, -177879.83, -27324.25, 0.0, 10.000388, 9.998722 
1.17511965e+3, 2.9463655e+2, -42604.742, -184998.77, -8667.718, 0.054975275, 0.07518239, -42079.066, 10483.546, 0.0, 10.000642, 9.998753 
1.1751342e+3, 3.0463392e+2, 14649.354, -145658.67, -8063.0615, 0.058576886, -0.054643344, 15053.884, 15053.884, 0.0, 10.000758, 9.998634 
1.1751488e+3, 3.1463337e+2, 84328.805, 19955.695, -1131.1185, 0.08323196, 0.022792144, 84348.67, 84348.67, 0.0, 10.000665, 9.999817 
1.1848754e+3, 1.2462931e+2, -1664521.9, -1702496.5, -42238.81, -0.08640332, -0.058515366, -1637199.0, 81429.59, 0.0020081834, 10.000415, 9.999877 
1.1848926e+3, 1.346296e+2, -1618441.3, -1616427.5, 33349.95, 0.20126736, -0.02997228, -1584069.3, 36556.406, 0.0010574218, 9.999971, 10.000026 
1.1849048e+3, 1.4462984e+2, -1538862.1, -1503520.8, 12093.905, -0.07835976, -0.018784355, -1499778.4, 22844.703, 0.00035351914, 9.999756, 10.000221 
1.1849198e+3, 1.5462959e+2, -1437663.8, -1401748.8, -25451.262, 0.023880605, -0.069074474, -1388557.6, 36067.195, 0.00004562391, 9.999769, 10.000238 
1.1849339e+3, 1.6462944e+2, -1355725.4, -1377265.9, -25366.271, 0.04116527, -0.07649924, -1338937.6, -12311.465, 0.00000019883093, 9.99994, 9.999653 
1.1849474e+3, 1.7462943e+2, -1203522.0, -1250224.8, -15347.698, -0.029832752, -0.045322046, -1198929.9, 29697.174, 0.0, 10.000301, 9.999678 
1.18496165e+3, 1.8462935e+2, -1090148.9, -1123049.9, -3819.0774, -0.029730858, -0.030281227, -1089711.4, 40916.71, 0.0, 10.000312, 9.999872 
1.1849771e+3, 1.9462915e+2, -1044936.9, -1045911.5, -23502.99, 0.047948055, -0.04269112, -1021916.1, 10712.971, 0.0, 9.999928, 9.999914 
1.18499145e+3, 2.0462868e+2, -1026403.1, -1050161.8, -50092.117, 0.05880329, -0.050926697, -986801.0, -52167.555, 0.0, 9.999659, 9.999343 
1.1850048e+3, 2.1462792e+2, -947111.44, -958674.94, -39080.61, -0.0058769123, -0.06420684, -913387.2, -76745.625, 0.0, 9.999521, 9.999363 
1.18501864e+3, 2.2462739e+2, -831092.5, -870468.3, -29614.057, -0.017230717, -0.0426304, -815219.06, -76571.28, 0.0, 9.999724, 9.999198 
1.1850333e+3, 2.3462716e+2, -644116.1, -725993.25, -37315.99, 0.03289411, 0.009525382, -629661.1, 10990.701, 0.0, 10.0003195, 9.99923 
1.18504785e+3, 2.4462645e+2, -536318.94, -628260.56, -20595.25, 0.046890583, 0.019724265, -531916.4, 10742.889, 0.0, 10.000409, 9.999186 
1.1850622e+3, 2.5462517e+2, -508951.28, -560319.8, -22944.06, 0.019233905, -0.030079132, -500195.6, -55524.86, 0.0, 9.999907, 9.999221 
1.1850767e+3, 2.6462403e+2, -447417.38, -520597.25, -41857.668, 0.01461558, -0.04708419, -428411.56, -81729.7, 0.0, 9.999831, 9.9988575 
1.1850909e+3, 2.7462304e+2, -284981.88, -388893.28, -32996.887, 0.035497565, -0.032630205, -275389.3, -26697.008, 0.0, 10.000263, 9.998879 
1.1851054e+3, 2.846222e+2, -184814.39, -307337.4, -14365.393, 0.054186717, 0.0033182579, -183152.64, -32450.988, 0.0, 10.000353, 9.998724 
1.1851201e+3, 2.9462144e+2, -134507.39, -230161.64, -16711.572, 0.073379256, 0.04798299, -131671.8, -78961.42, 0.0, 10.000014, 9.998745 
1.18513465e+3, 3.0461898e+2, -72955.57, -183564.77, -12729.205, 0.06775295, -0.062342174, -71509.56, -71509.56, 0.0, 10.000138, 9.998672 
1.1851493e+3, 3.1461895e+2, 125641.27, 69229.31, -22737.766, 0.056971736, 0.06118237, 133664.89, 133664.89, 0.0, 10.000824, 10.000078 
1.19487576e+3, 1.2461482e+2, -1662952.8, -1698220.5, -43588.297, -0.092412554, -0.10081603, -1633566.5, 85201.02, 0.0022081332, 10.00041, 9.999908 
1.19489245e+3, 1.3461474e+2, -1613169.4, -1606160.5, 17655.76, 0.18594049, -0.11760245, -1591664.8, 29103.395, 0.0011730703, 9.999973, 10.000096 
1.19490415e+3, 1.4461493e+2, -1569932.3, -1568899.6, 11570.099, -0.11622838, -0.092252046, -1557834.3, -35067.17, 0.00040013902, 9.999758, 9.999772 
1.1949196e+3, 1.5461522e+2, -1470198.6, -1469161.0, -24898.18, 0.024523498, -0.041162536, -1444776.3, -20010.102, 0.00005450229, 9.999767, 9.999778 
1.1949342e+3, 1.6461524e+2, -1340372.9, -1344791.4, -13306.991, 0.064245455, -0.01926025, -1329093.0, -2326.62, 0.00000035173326, 9.999937, 9.999878 
1.1949479e+3, 1.74615e+2, -1185825.4, -1213851.4, -1579.5879, -0.012168746, -0.03877035, -1185736.6, 43031.145, 0.0, 10.000301, 9.9999275 
1.1949619e+3, 1.8461446e+2, -1125426.0, -1196799.9, -18522.242, -0.038840942, -0.053414688, -1120905.5, 9867.054, 0.0, 10.000313, 9.999366 
1.1949764e+3, 1.9461368e+2, -1082580.6, -1124020.1, -38463.168, -0.0051802024, -0.07261837, -1059611.5, -26829.945, 0.0, 9.9999275, 9.999379 
1.1949906e+3, 2.0461331e+2, -1006935.94, -1008676.44, -57157.094, 0.012002405, -0.0571627, -950642.5, -15856.918, 0.0, 9.999654, 9.99963 
1.19500436e+3, 2.1461345e+2, -924893.7, -912208.2, -44725.742, 0.011033773, -0.012356319, -873377.7, -36593.8, 0.0, 9.999518, 9.999683 
1.1950188e+3, 2.2461286e+2, -844102.2, -896314.7, -9658.699, 0.02739059, -0.005260224, -842372.75, -103582.56, 0.0, 9.99972, 9.999023 
1.19503394e+3, 2.3461144e+2, -658101.56, -754576.1, -14552.677, 0.06332843, -0.052801535, -655954.1, -15148.4375, 0.0, 10.000317, 9.999037 
1.1950483e+3, 2.4461055e+2, -541983.75, -638811.8, -38398.055, 0.052462146, -0.04686215, -528605.2, 14210.068, 0.0, 10.000403, 9.999116 
1.1950619e+3, 2.546103e+2, -513825.78, -569755.2, -41041.06, -0.010699378, 0.012210709, -492127.7, -47310.1, 0.0, 9.999903, 9.999159 
1.1950762e+3, 2.6460952e+2, -430291.97, -484117.5, -27156.021, -0.017225768, 0.02375113, -418971.97, -72146.96, 0.0, 9.999826, 9.999111 
1.19509116e+3, 2.7460817e+2, -266949.47, -349760.63, -15996.515, 0.038177162, -0.029161615, -263966.88, -15128.696, 0.0, 10.000256, 9.999152 
1.19510606e+3, 2.8460705e+2, -188085.5, -313308.84, -25714.465, 0.08288319, -0.029861549, -183010.73, -32161.703, 0.0, 10.000348, 9.998686 
1.1951206e+3, 2.9460624e+2, -139153.22, -239574.45, -26839.682, 0.11874912, 0.014395081, -132429.89, -79571.945, 0.0, 10.000011, 9.998682 
1.19513474e+3, 3.046039e+2, -89318.49, -216072.64, 11660.752, 0.074256025, -0.06948002, -88254.695, -88254.695, 0.0, 10.000132, 9.998452 
1.1951492e+3, 3.1460398e+2, 121931.734, 68169.83, 5832.035, -0.037743144, 0.08500474, 122557.11, 122557.11, 0.0, 10.000796, 10.000083 
1.204876e+3, 1.2460051e+2, -1735659.4, -1748746.3, -44165.375, -0.08741836, -0.10022575, -1697555.4, 21351.936, 0.0024257244, 9.99998, 9.999768 
1.2048925e+3, 1.3460031e+2, -1573990.8, -1600624.9, -16030.93, 0.1769646, -0.11650825, -1566467.1, 54442.676, 0.0012988481, 10.000298, 9.999978 
1.2049038e+3, 1.4460036e+2, -1482676.3, -1537108.9, -14670.623, -0.15175812, -0.093812, -1478974.0, 43936.254, 0.00045139206, 10.0004015, 9.99968 
1.20491944e+3, 1.5460074e+2, -1407275.8, -1448322.0, -25326.34, 0.012742501, -0.0254464, -1395201.0, 29707.318, 0.00006471426, 10.000242, 9.999691 
1.2049342e+3, 1.6460067e+2, -1323383.9, -1340269.0, -850.36694, 0.0749215, -0.0067597516, -1323341.1, 3568.146, 0.00000057087306, 10.000072, 9.999843 
1.2049483e+3, 1.7460011e+2, -1244344.8, -1246219.3, -11845.138, 0.010976002, -0.05294405, -1233399.9, -4486.5854, 0.0, 9.999919, 9.999888 
1.2049621e+3, 1.8459949e+2, -1197413.6, -1243688.3, -34019.16, -0.026146423, -0.07153792, -1179409.3, -48490.063, 0.0, 9.999871, 9.999257 
1.2049762e+3, 1.9459881e+2, -1088261.4, -1138122.8, -22958.443, -0.028606337, -0.06755018, -1079300.6, -46373.38, 0.0, 9.99994, 9.999275 
1.2049902e+3, 2.045984e+2, -952743.75, -988028.8, -29551.447, -0.013497176, -0.047930893, -935969.06, -1037.2827, 0.0, 10.000051, 9.999579 
1.2050044e+3, 2.1459831e+2, -827579.9, -871223.7, -45920.184, 0.02144858, -0.021439845, -798560.25, 38372.05, 0.0, 10.000211, 9.999632 
1.2050189e+3, 2.2459766e+2, -779810.9, -863217.75, -13072.162, 0.044579823, -0.019904152, -777810.06, -38870.93, 0.0, 10.000151, 9.999043 
1.2050338e+3, 2.3459636e+2, -726954.75, -784561.6, -3447.0957, 0.053816028, -0.05652301, -726749.2, -85796.086, 0.0, 9.999832, 9.9990635 
1.2050482e+3, 2.445955e+2, -636997.7, -687790.75, -26659.502, 0.03629294, -0.047698397, -625574.2, -82612.055, 0.0, 9.999766, 9.999086 
1.20506175e+3, 2.5459513e+2, -502691.22, -567386.6, -28761.451, -0.011833308, 0.002428596, -491753.9, -46788.324, 0.0, 9.999993, 9.99913 
1.2050762e+3, 2.645943e+2, -402124.16, -480188.4, -14363.294, -0.011097307, 0.012691392, -399565.28, -52591.445, 0.0, 10.000065, 9.999022 
1.2050914e+3, 2.7459294e+2, -318571.13, -385455.53, -30319.117, 0.045940425, -0.031651385, -306873.22, -57885.586, 0.0, 9.999948, 9.999056 
1.2051062e+3, 2.8459188e+2, -225449.95, -318159.38, -53918.586, 0.08111706, -0.026530586, -200699.3, -49701.527, 0.0, 10.000035, 9.998803 
1.20512046e+3, 2.945912e+2, -77676.45, -196044.9, -45882.4, 0.091976315, 0.019397732, -61974.316, -8969.849, 0.0, 10.000376, 9.998804 
1.2051349e+3, 3.0458882e+2, -67578.414, -221522.55, 7436.3687, 0.055526003, -0.06868559, -67220.03, -67220.03, 0.0, 10.00035, 9.998308 
1.2051498e+3, 3.145881e+2, -12439.317, 7623.2524, 8104.978, 0.00091254147, 0.02325982, 10488.376, 10488.376, 0.0, 9.999851, 10.000123 
1.21487595e+3, 1.245865e+2, -1761286.3, -1799572.3, -19206.783, -0.07503548, -0.050255403, -1753311.9, -34265.254, 0.0026624324, 9.999968, 9.999425 
1.2148927e+3, 1.3458641e+2, -1595612.9, -1646531.9, -4036.789, 0.1705876, -0.023287833, -1595294.9, 25754.75, 0.0014356553, 10.000301, 9.999661 
1.2149038e+3, 1.4458622e+2, -1462598.9, -1497110.4, -21142.453, -0.19061422, -0.02067627, -1452564.3, 70487.55, 0.0005075534, 10.000407, 9.999951 
1.2149195e+3, 1.545862e+2, -1386179.0, -1404992.9, -31151.02, -0.015192798, -0.02285543, -1363045.5, 62005.074, 0.000076397075, 10.000243, 9.999989 
1.2149342e+3, 1.6458575e+2, -1345669.9, -1386423.6, -8383.474, 0.06787609, -0.04167592, -1344012.8, -16958.47, 0.0000008702971, 10.00007, 9.999527 
1.2149484e+3, 1.7458485e+2, -1268727.1, -1296461.8, -18050.75, 0.03647183, -0.088064395, -1259831.9, -30768.656, 0.0, 9.999916, 9.999546 
1.2149623e+3, 1.8458444e+2, -1177045.0, -1200215.5, -32943.22, 0.0044109765, -0.082321346, -1153709.3, -22641.992, 0.0, 9.999865, 9.999558 
1.2149761e+3, 1.9458461e+2, -1065296.3, -1090614.8, -20488.613, -0.024378778, -0.027264612, -1053871.4, -20805.78, 0.0, 9.999939, 9.999601 
1.21499024e+3, 2.0458402e+2, -979852.1, -1044621.25, -25098.162, -0.020708347, -0.024213871, -971265.0, -36193.426, 0.0, 10.000051, 9.999191 
1.2150046e+3, 2.1458256e+2, -857321.44, -932398.7, -40090.258, 0.021551335, -0.09184404, -839938.56, -2852.1812, 0.0, 10.000207, 9.999214 
1.2150189e+3, 2.2458184e+2, -767043.6, -835101.9, -25953.701, 0.030749356, -0.08621915, -758275.8, -19181.545, 0.0, 10.000143, 9.99924 
1.2150332e+3, 2.3458196e+2, -711544.5, -751989.56, -15465.598, 0.0016534172, -0.0036085977, -706308.5, -65214.69, 0.0, 9.999828, 9.999289 
1.2150476e+3, 2.4458131e+2, -636745.56, -686686.25, -19725.404, -0.004780824, 0.015027325, -629894.4, -86794.48, 0.0, 9.999762, 9.999097 
1.215062e+3, 2.5457975e+2, -502114.53, -566857.6, -19364.879, 0.0135148475, -0.05668016, -496764.53, -51650.418, 0.0, 9.999995, 9.999133 
1.2150767e+3, 2.645784e+2, -431327.63, -541281.25, -18170.104, 0.030917255, -0.07703278, -428402.78, -81275.04, 0.0, 10.000065, 9.998603 
1.2150914e+3, 2.7457738e+2, -350705.94, -449712.0, -32727.484, 0.048617654, -0.041109312, -340865.6, -91725.44, 0.0, 9.999936, 9.998621 
1.2151058e+3, 2.8457668e+2, -212383.77, -288681.25, -41201.375, 0.03969584, 0.010697858, -194382.0, -43234.418, 0.0, 10.000024, 9.999012 
1.2151199e+3, 2.945763e+2, -62114.203, -161438.75, -31743.127, -0.0032723462, 0.062834114, -52836.105, 313.9057, 0.0, 10.000366, 9.999046 
1.2151348e+3, 3.0457374e+2, -67925.98, -221045.92, -9399.827, 0.013135275, -0.057572603, -67351.09, -67351.09, 0.0, 10.000344, 9.998315 
1.2151511e+3, 3.1457153e+2, -3571.5276, 30794.22, -5330.541, 0.14712608, -0.1131972, 31602.06, 31602.06, 0.0, 9.999832, 10.000291 
1.2248762e+3, 1.2457202e+2, -1694462.6, -1769966.4, -19261.145, -0.07040385, -0.020456092, -1689833.0, 29357.002, 0.0029179724, 10.00044, 9.999399 
1.2248928e+3, 1.3457192e+2, -1637800.1, -1665714.6, -115.41032, 0.17422867, 0.0067987503, -1637799.6, -16606.988, 0.0015834377, 10.000009, 9.999669 
1.2249039e+3, 1.4457153e+2, -1535297.9, -1527525.4, -6820.0464, -0.20147619, -0.014083212, -1523562.0, -365.62735, 0.00056846405, 9.999891, 9.9999895 
1.22491956e+3, 1.5457135e+2, -1388855.0, -1401941.5, -38095.6, -0.019906167, -0.035933197, -1356744.8, 68451.336, 0.00008951281, 10.000208, 10.000025 
1.22493446e+3, 1.645709e+2, -1315361.5, -1386655.8, -24813.85, 0.06447325, -0.05202529, -1307575.4, 19624.586, 0.0000012652538, 10.000341, 9.999393 
1.2249484e+3, 1.7457016e+2, -1230716.8, -1292990.3, -20754.385, 0.024779303, -0.06737615, -1224433.8, 4774.574, 0.0, 10.000242, 9.999412 
1.22496225e+3, 1.8456976e+2, -1121262.6, -1160233.8, -26646.854, -0.0025073362, -0.058343098, -1107737.0, 23475.201, 0.0, 10.000194, 9.999674 
1.2249763e+3, 1.9456975e+2, -1014589.75, -1052154.8, -30425.824, -0.013218491, -0.034424305, -997615.94, 35595.133, 0.0, 10.000227, 9.999727 
1.2249905e+3, 2.0456909e+2, -969431.1, -1057317.9, -34792.305, -0.005250629, -0.03696423, -957325.2, -22107.754, 0.0, 10.000198, 9.999033 
1.2250048e+3, 2.1456774e+2, -885694.2, -964294.44, -32159.994, 0.025167502, -0.07795994, -874212.75, -36980.574, 0.0, 10.000093, 9.999049 
1.22501895e+3, 2.2456698e+2, -781718.7, -838218.94, -19921.4, 0.025691008, -0.06624812, -775401.0, -36160.76, 0.0, 10.000027, 9.999273 
1.22503296e+3, 2.3456696e+2, -684257.1, -734439.94, -25467.12, -0.00891482, -0.0030997067, -673597.25, -32356.893, 0.0, 9.999996, 9.999328 
1.2250473e+3, 2.4456617e+2, -604447.75, -675703.0, -26479.58, -0.010215889, 0.0015273291, -595685.1, -52437.855, 0.0, 10.000003, 9.999056 
1.22506216e+3, 2.545645e+2, -494457.5, -567839.94, -30685.19, 0.026049618, -0.075841926, -483317.5, -38055.11, 0.0, 10.000069, 9.999091 
1.2250768e+3, 2.6456317e+2, -430658.47, -542401.56, -25675.012, 0.045443527, -0.09245282, -425041.5, -77765.72, 0.0, 10.000076, 9.998589 
1.2250913e+3, 2.7456227e+2, -343167.7, -447316.25, -12288.303, 0.04582203, -0.04447019, -341737.44, -92450.5, 0.0, 9.999994, 9.998608 
1.2251056e+3, 2.8456143e+2, -238710.33, -314076.84, -6038.495, 0.029403657, -0.00084818644, -238229.58, -86933.77, 0.0, 9.9999, 9.998896 
1.2251199e+3, 2.945606e+2, -153640.83, -219517.3, -23247.242, -0.008407362, 0.022074418, -146263.3, -92960.68, 0.0, 9.999797, 9.998921 
1.2251347e+3, 3.0455834e+2, -150113.92, -248031.66, -24265.496, 0.0148784425, -0.06693631, -144430.45, -144430.45, 0.0, 9.999726, 9.998426 
1.225151e+3, 3.1455642e+2, -7015.9604, 57094.58, -15965.067, 0.16417566, -0.10785759, 60850.254, 60850.254, 0.0, 9.999688, 10.000542 
1.2348766e+3, 1.2455712e+2, -1673688.5, -1726568.9, -19087.535, -0.08505127, -0.01180985, -1667518.6, 51818.29, 0.0031899144, 10.000439, 9.999698 
1.234893e+3, 1.3455692e+2, -1615439.3, -1617214.9, -16915.28, 0.18542159, -0.028507924, -1599388.5, 21949.688, 0.0017411282, 9.999999, 10.000007 
1.2349039e+3, 1.4455634e+2, -1552053.9, -1559831.9, 2025.2339, -0.18837373, -0.07557001, -1551558.1, -28214.82, 0.0006337289, 9.99988, 9.999774 
1.23491995e+3, 1.5455624e+2, -1405644.0, -1437507.1, -25864.047, -0.0048022023, -0.06460314, -1391198.5, 34145.617, 0.00010392506, 10.000209, 9.999782 
1.2349347e+3, 1.6455613e+2, -1311304.3, -1378302.0, -28871.38, 0.059833743, -0.036417596, -1300579.5, 26766.342, 0.0000017603737, 10.000341, 9.999452 
1.234948e+3, 1.7455608e+2, -1225751.1, -1282963.6, -24550.25, -0.027486207, 0.009322, -1216660.9, 12687.042, 0.0, 10.000242, 9.99948 
1.2349619e+3, 1.845555e+2, -1126894.1, -1171744.8, -27455.873, -0.052271955, -0.0009409865, -1113869.3, 17484.117, 0.0, 10.000192, 9.999597 
1.23497665e+3, 1.9455425e+2, -1020707.56, -1064483.0, -29685.568, 0.0016145896, -0.089203656, -1005712.94, 27650.068, 0.0, 10.000224, 9.999644 
1.23499095e+3, 2.0455366e+2, -965014.06, -1047384.2, -39902.254, 0.030330092, -0.08515251, -948854.56, -13485.816, 0.0, 10.000195, 9.999104 
1.2350049e+3, 2.1455385e+2, -880277.94, -953162.3, -36399.49, 0.029392164, 0.019250227, -865213.3, -27843.883, 0.0, 10.0000925, 9.999126 
1.2350189e+3, 2.2455317e+2, -790640.56, -856769.4, -22338.03, 0.025547571, 0.03897762, -783802.06, -44425.344, 0.0, 10.000026, 9.999147 
1.2350332e+3, 2.3455141e+2, -694068.0, -754864.9, -26167.188, 0.018664207, -0.05381562, -684356.75, -42964.7, 0.0, 9.999995, 9.999189 
1.2350476e+3, 2.4455014e+2, -612212.06, -691519.1, -24986.127, 0.016846254, -0.08672806, -604996.5, -61592.94, 0.0, 10.000001, 9.998948 
1.2350621e+3, 2.5454944e+2, -502609.1, -583021.1, -27160.783, 0.020780604, -0.05736759, -494294.7, -48884.477, 0.0, 10.00006, 9.998991 
1.2350768e+3, 2.645486e+2, -406500.88, -490277.66, -28187.898, 0.027653666, -0.036879573, -397899.72, -50481.582, 0.0, 10.000066, 9.998953 
1.2350912e+3, 2.7454758e+2, -315872.22, -391517.66, -14122.498, 0.036517162, -0.03974083, -313321.66, -63893.7, 0.0, 9.999997, 9.99899 
1.2351057e+3, 2.845461e+2, -266977.6, -373758.3, -10025.182, 0.046979986, -0.057042822, -266044.53, -114602.32, 0.0, 9.999904, 9.998484 
1.2351204e+3, 2.945442e+2, -187284.6, -286237.1, -24580.004, 0.061826423, -0.10093064, -181515.25, -128053.42, 0.0, 9.9997835, 9.99847 
1.2351349e+3, 3.045427e+2, -140972.84, -226350.48, -24740.262, 0.047494147, -0.09780218, -134321.86, -134321.86, 0.0, 9.999713, 9.998582 
1.23514965e+3, 3.145428e+2, 10492.615, 93910.8, -12601.3, 0.05461849, 0.043999806, 95772.805, 95772.805, 0.0, 9.999685, 10.000795 
1.2448768e+3, 1.2454219e+2, -1663726.1, -1712593.6, 23329.654, -0.105046526, -0.047082342, -1654377.0, 65105.082, 0.003475539, 10.00047, 9.999778 
1.2448933e+3, 1.3454226e+2, -1577041.8, -1589136.0, -15725.965, 0.20494613, -0.046257805, -1566240.4, 55239.895, 0.0019075654, 10.000222, 10.0000925 
1.244904e+3, 1.4454162e+2, -1537197.1, -1569264.5, 15635.926, -0.16485596, -0.09655958, -1530835.3, -7349.1294, 0.0007030745, 10.000052, 9.999625 
1.2449199e+3, 1.545415e+2, -1443426.5, -1472402.3, -6418.039, -0.008642637, -0.07177825, -1442068.5, -16580.184, 0.00011956255, 10.000024, 9.99963 
1.2449348e+3, 1.6454141e+2, -1351486.0, -1393136.8, -10676.552, 0.04763995, -0.034877382, -1348908.6, -21418.328, 0.0000023468863, 10.000048, 9.999491 
1.2449481e+3, 1.7454143e+2, -1235667.9, -1282619.0, -9669.961, -0.03288926, 0.012597756, -1233754.3, -4262.979, 0.0, 10.000154, 9.999525 
1.24496214e+3, 1.845408e+2, -1136984.0, -1194427.3, -15428.204, -0.054656845, 0.0018063426, -1133102.6, -1605.1846, 0.0, 10.000199, 9.999436 
1.2449768e+3, 1.9453937e+2, -1042924.5, -1093729.4, -25256.996, -0.00047249784, -0.088592425, -1032505.2, 1004.2412, 0.0, 10.000154, 9.999476 
1.2449911e+3, 2.0453873e+2, -965538.3, -1035451.5, -37499.953, 0.02766132, -0.08456717, -949228.8, -13713.501, 0.0, 10.000139, 9.999211 
1.245005e+3, 2.1453905e+2, -860055.56, -929968.7, -32577.506, 0.022475922, 0.02089836, -847228.7, -9714.784, 0.0, 10.000174, 9.999246 
1.2450191e+3, 2.2453828e+2, -774344.44, -864528.1, -15465.597, 0.021820769, 0.033795252, -771765.94, -32244.445, 0.0, 10.000204, 9.999008 
1.24503344e+3, 2.3453626e+2, -668345.4, -758543.56, -21324.117, 0.026955036, -0.07445747, -663558.1, -22018.377, 0.0, 10.000242, 9.999044 
1.24504775e+3, 2.445349e+2, -590292.2, -683287.75, -19735.69, 0.024514198, -0.10696363, -586277.2, -42724.992, 0.0, 10.000163, 9.998925 
1.2450621e+3, 2.5453436e+2, -523314.44, -595065.25, -18029.549, 0.013005517, -0.058718197, -519038.78, -73481.35, 0.0, 9.9999275, 9.998972 
1.2450765e+3, 2.6453358e+2, -437224.78, -502321.8, -22832.4, 0.013399771, -0.03377578, -430015.0, -82450.21, 0.0, 9.999845, 9.998976 
1.245091e+3, 2.745324e+2, -318602.1, -389699.56, -35810.016, 0.026571324, -0.049866337, -303692.22, -54117.164, 0.0, 9.999966, 9.999017 
1.2451057e+3, 2.8453088e+2, -250733.63, -361030.84, -34338.563, 0.05308526, -0.07907864, -240916.81, -89326.97, 0.0, 9.999993, 9.998528 
1.2451206e+3, 2.9452893e+2, -171440.0, -273201.6, -16533.385, 0.09776404, -0.13094048, -168821.19, -115211.43, 0.0, 9.999869, 9.998516 
1.2451348e+3, 3.0452776e+2, -137620.88, -233146.63, 46.86411, 0.06830033, -0.093855195, -137620.84, -137620.84, 0.0, 9.999773, 9.998505 
1.2451489e+3, 3.1452754e+2, 12153.991, 87106.914, -5837.938, 0.015151734, 0.023023315, 87558.89, 87558.89, 0.0, 9.999729, 10.000727 
1.254877e+3, 1.24527365e+2, -1675234.8, -1736715.1, 30217.072, -0.13771248, -0.12484191, -1662870.0, 56754.086, 0.0037739007, 10.000468, 9.999615 
1.2548937e+3, 1.3452801e+2, -1589286.0, -1616248.4, -25524.105, 0.22833169, -0.04664864, -1573901.6, 47716.227, 0.0020822603, 10.000227, 9.999905 
1.2549044e+3, 1.4452744e+2, -1542832.4, -1580765.1, 12199.084, -0.13636774, -0.078195296, -1539248.0, -15623.679, 0.0007764397, 10.0000515, 9.999547 
1.2549196e+3, 1.545272e+2, -1448413.9, -1481889.1, -7286.54, -0.03480367, -0.058121808, -1446896.5, -21268.357, 0.00013646827, 10.000019, 9.999567 
1.2549345e+3, 1.645268e+2, -1351912.6, -1392143.3, -8714.397, 0.023019906, -0.048760068, -1350106.1, -22473.22, 0.0000030208696, 10.000039, 9.999502 
1.2549487e+3, 1.7452627e+2, -1234368.1, -1280327.8, -5726.516, 0.0059087593, -0.057509046, -1233665.3, -4027.2563, 0.0, 10.000154, 9.999541 
1.2549628e+3, 1.8452571e+2, -1154145.9, -1229965.4, -17916.967, -0.0124435425, -0.0497417, -1150125.1, -18481.445, 0.0, 10.000198, 9.999193 
1.2549768e+3, 1.9452511e+2, -1061032.4, -1131298.4, -27254.55, -0.02250729, -0.03289011, -1051700.4, -18050.682, 0.0, 10.000152, 9.99922 
1.2549908e+3, 2.0452434e+2, -956374.1, -1015867.3, -37977.81, -0.017765649, -0.035846528, -937879.94, -2223.0142, 0.0, 10.000136, 9.999348 
1.2550049e+3, 2.1452338e+2, -849810.25, -907746.94, -31587.91, 0.0019997542, -0.07230547, -835918.8, 1746.3989, 0.0, 10.00017, 9.999401 
1.2550192e+3, 2.2452241e+2, -785387.44, -886885.2, -15620.432, 0.012353177, -0.08105595, -783037.8, -43363.79, 0.0, 10.000201, 9.998857 
1.2550336e+3, 2.3452145e+2, -680146.8, -782399.9, -19724.83, 0.0132962, -0.066012286, -676473.75, -34790.457, 0.0, 10.000238, 9.998883 
1.2550478e+3, 2.4452041e+2, -586717.25, -674873.0, -28537.795, 0.009315062, -0.060234223, -578285.5, -34592.39, 0.0, 10.000157, 9.998987 
1.2550619e+3, 2.5451928e+2, -518588.2, -585641.25, -25941.443, -0.00040953094, -0.07814771, -509723.84, -64020.246, 0.0, 9.9999275, 9.999037 
1.2550762e+3, 2.6451808e+2, -459171.28, -548044.1, -18948.064, -0.00059173076, -0.080776796, -455300.1, -107584.88, 0.0, 9.999844, 9.998662 
1.2550908e+3, 2.7451685e+2, -342984.5, -437799.16, -29377.693, 0.010361612, -0.07565748, -334619.94, -84891.9, 0.0, 9.999953, 9.998693 
1.2551056e+3, 2.845157e+2, -220308.69, -294968.22, -37388.965, 0.04237018, -0.07052058, -204804.31, -53065.453, 0.0, 9.99998, 9.998988 
1.2551205e+3, 2.9451478e+2, -136087.16, -200592.95, -19449.002, 0.09719464, -0.07065319, -130676.9, -76929.99, 0.0, 9.999872, 9.999015 
1.2551346e+3, 3.045135e+2, -156077.45, -271987.84, -2232.6084, 0.07397397, -0.053701267, -156034.47, -156034.47, 0.0, 9.999775, 9.998238 
1.2551488e+3, 3.145108e+2, -16694.365, 32105.977, -1890.6356, 0.030910214, -0.15525404, 32179.115, 32179.115, 0.0, 9.999708, 10.00036 
1.2648776e+3, 1.24512814e+2, -1717692.8, -1760370.0, 18817.521, -0.111037314, -0.13870451, -1710580.9, 9184.518, 0.004085261, 10.000187, 9.999588 
1.2648937e+3, 1.3451353e+2, -1612229.3, -1634210.5, -48407.785, 0.20652832, -0.045979157, -1573580.0, 48178.77, 0.0022650692, 10.000101, 9.999841 
1.2649041e+3, 1.4451286e+2, -1543859.5, -1583825.1, 5423.611, -0.16584519, -0.08372711, -1543136.6, -19370.088, 0.00085386867, 10.000058, 9.999522 
1.2649198e+3, 1.5451275e+2, -1433088.4, -1477833.3, -11688.243, -0.039880063, -0.049135678, -1430219.1, -4449.704, 0.00015477135, 10.000139, 9.999536 
1.2649348e+3, 1.6451226e+2, -1322694.1, -1384965.3, -8757.54, 0.030298512, -0.043516565, -1321486.0, 6289.0576, 0.0000038088367, 10.00027, 9.999438 
1.264949e+3, 1.7451142e+2, -1196416.6, -1268888.3, -13239.581, 0.009623194, -0.07785236, -1194073.8, 35709.543, 0.0, 10.000445, 9.999477 
1.2649632e+3, 1.8451083e+2, -1116136.4, -1208569.8, -27756.21, -0.00799147, -0.06910106, -1108442.1, 23346.807, 0.0, 10.000447, 9.999219 
1.264977e+3, 1.9451058e+2, -1044599.0, -1119582.6, -17432.16, -0.015265405, -0.021179046, -1040744.56, -6953.0005, 0.0, 10.000251, 9.999251 
1.264991e+3, 2.045097e+2, -953047.25, -1035290.8, -18016.775, -0.015897531, -0.02591155, -949273.56, -13474.004, 0.0, 10.000251, 9.999158 
1.2650052e+3, 2.1450815e+2, -818809.56, -914936.44, -39100.27, -0.011341828, -0.10305218, -804913.94, 32899.86, 0.0, 10.000479, 9.999202 
1.2650193e+3, 2.2450703e+2, -748455.3, -865823.56, -40018.625, -0.004007386, -0.11761492, -736109.0, 3715.0334, 0.0, 10.000442, 9.998884 
1.2650336e+3, 2.3450647e+2, -699903.1, -787488.3, -31505.783, 0.008148404, -0.06694221, -689747.56, -47918.21, 0.0, 10.000084, 9.998921 
1.2650478e+3, 2.4450555e+2, -627984.1, -698471.2, -33246.664, 0.016461983, -0.04934032, -614777.2, -70939.23, 0.0, 9.99989, 9.998954 
1.265062e+3, 2.5450423e+2, -524063.75, -591871.94, -39616.348, 0.01889068, -0.083729446, -505824.38, -59973.64, 0.0, 9.999907, 9.999003 
1.2650762e+3, 2.6450294e+2, -456378.06, -543435.5, -21249.725, 0.01743835, -0.095863305, -451468.16, -103604.97, 0.0, 9.999849, 9.998692 
1.2650907e+3, 2.745017e+2, -381439.25, -452577.25, -6881.386, 0.01250969, -0.09305776, -380779.7, -130904.34, 0.0, 9.999673, 9.998727 
1.2651052e+3, 2.8450057e+2, -261552.83, -312600.7, -10621.804, 0.027795743, -0.09014494, -259430.89, -107545.016, 0.0, 9.999687, 9.999007 
1.26512e+3, 2.9449967e+2, -122963.86, -192290.17, -28987.484, 0.06507817, -0.08867374, -112440.64, -58546.938, 0.0, 9.999954, 9.999032 
1.2651342e+3, 3.0449876e+2, -133230.58, -244242.4, -29018.746, 0.0585229, -0.047663104, -126102.68, -126102.68, 0.0, 9.99986, 9.998386 
1.2651488e+3, 3.1449562e+2, -74286.83, 5923.007, 3155.3403, 0.078765094, -0.20506331, 6046.942, 6046.942, 0.0, 9.999305, 10.000373 
1.2748785e+3, 1.2449867e+2, -1711321.3, -1743975.5, 28884.992, -0.030096546, -0.08287864, -1694468.3, 25436.484, 0.0044096503, 10.000174, 9.999708 
1.2748931e+3, 1.344989e+2, -1607990.8, -1624549.0, -52657.42, 0.13553134, -0.044326346, -1562965.6, 58936.844, 0.0024558255, 10.000098, 9.999908 
1.2749033e+3, 1.4449798e+2, -1541899.1, -1580164.0, 5953.6387, -0.2608092, -0.11399665, -1540994.3, -17082.04, 0.00093550276, 10.000057, 9.999548 
1.2749201e+3, 1.544982e+2, -1432308.8, -1477308.5, -8317.868, -0.028754465, -0.045084726, -1430820.5, -4909.155, 0.00017466526, 10.000142, 9.999539 
1.2749355e+3, 1.6449785e+2, -1333715.5, -1407319.1, -3590.454, 0.06585613, -0.019203754, -1333540.8, -5624.7163, 0.0000047674703, 10.000267, 9.999287 
1.2749492e+3, 1.744969e+2, -1207195.9, -1291135.0, -6988.258, -0.025137506, -0.048026185, -1206618.0, 23308.402, 0.0, 10.000444, 9.999327 
1.2749632e+3, 1.8449621e+2, -1096056.1, -1166152.4, -36248.656, -0.047109433, -0.05670663, -1080682.6, 51250.113, 0.0, 10.000443, 9.999513 
1.2749776e+3, 1.9449581e+2, -1022310.7, -1073456.1, -25173.885, 0.019058874, -0.052893825, -1011999.0, 21935.33, 0.0, 10.000251, 9.999569 
1.2749916e+3, 2.0449492e+2, -989018.06, -1109968.1, -11376.428, 0.031576276, -0.05447117, -987957.3, -52014.535, 0.0, 10.00025, 9.998646 
1.2750055e+3, 2.144934e+2, -858437.56, -996441.7, -30700.729, -0.02078927, -0.07184935, -851916.0, -13956.738, 0.0, 10.000474, 9.998645 
1.2750193e+3, 2.2449219e+2, -735227.0, -836990.0, -53699.324, -0.032064386, -0.076152205, -712131.8, 27839.342, 0.0, 10.000435, 9.999086 
1.2750337e+3, 2.3449135e+2, -683450.06, -753024.0, -44712.082, 0.008700048, -0.07630506, -661586.3, -19608.885, 0.0, 10.000082, 9.99916 
1.275048e+3, 2.4449036e+2, -637343.9, -717702.5, -33859.33, 0.042516593, -0.07352558, -624979.56, -80993.12, 0.0, 9.999887, 9.998823 
1.2750624e+3, 2.5448918e+2, -534690.06, -612981.2, -37817.516, 0.066640474, -0.0763998, -519406.4, -73407.82, 0.0, 9.999901, 9.998862 
1.2750766e+3, 2.6448807e+2, -432029.84, -491824.06, -27051.04, 0.063549325, -0.08055634, -421608.28, -73599.51, 0.0, 9.999844, 9.999049 
1.2750904e+3, 2.74487e+2, -354124.78, -396698.3, -11978.029, 0.027523795, -0.10116262, -350986.16, -100969.164, 0.0, 9.999676, 9.999109 
1.2751047e+3, 2.8448552e+2, -289384.16, -371239.0, -1645.6965, 0.0046446826, -0.13513611, -289351.1, -137320.48, 0.0, 9.999689, 9.998605 
1.2751193e+3, 2.9448366e+2, -156374.06, -257555.66, -17067.355, -0.002842255, -0.1817989, -153572.7, -99523.12, 0.0, 9.999935, 9.998593 
1.2751338e+3, 3.0448338e+2, -98810.95, -168912.03, -46916.793, 0.01835581, -0.07666233, -75297.63, -75297.63, 0.0, 9.999843, 9.998913 
1.2751488e+3, 3.14482e+2, -48763.035, 58271.492, -11480.135, 0.14668067, -0.12194717, 59488.96, 59488.96, 0.0, 9.999309, 10.0007305 
1.2848786e+3, 1.24483824e+2, -1754205.8, -1755008.0, 39888.668, -0.030368261, -0.07991866, -1714716.3, 5333.7505, 0.0047468157, 9.999838, 9.999793 
1.284893e+3, 1.3448401e+2, -1604504.8, -1621444.1, -63220.91, 0.12907146, -0.04778129, -1549188.8, 72859.38, 0.0026545508, 10.000117, 9.999919 
1.2849034e+3, 1.4448293e+2, -1512865.0, -1559299.0, -7195.678, -0.25174823, -0.13526845, -1511775.5, 12283.602, 0.0010215283, 10.000228, 9.999608 
1.2849203e+3, 1.5448326e+2, -1415190.5, -1462436.6, -18559.254, -0.021389242, -0.061372243, -1408772.0, 17284.8, 0.00019628371, 10.000232, 9.999598 
1.2849356e+3, 1.6448304e+2, -1350560.8, -1414580.8, -6271.9355, 0.07117936, -0.025314089, -1349952.1, -21892.049, 0.0000059623408, 10.00015, 9.999293 
1.2849493e+3, 1.7448229e+2, -1279501.5, -1325498.4, 753.34174, -0.02531351, -0.036713712, -1279489.1, -49420.027, 0.0, 9.999948, 9.999329 
1.2849633e+3, 1.8448153e+2, -1150726.1, -1190469.4, -25231.484, -0.054147027, -0.05171902, -1138480.6, -6404.5396, 0.0, 10.000061, 9.999529 
1.284978e+3, 1.944808e+2, -976035.94, -1049211.0, -37833.496, 0.0039424896, -0.083670124, -959992.5, 74088.27, 0.0, 10.000561, 9.999585 
1.2849921e+3, 2.0447995e+2, -927115.5, -1081446.8, -25070.508, 0.021355208, -0.080058254, -923145.06, 12943.624, 0.0, 10.000682, 9.998633 
1.285006e+3, 2.1447897e+2, -878254.0, -1006798.7, -5331.6064, -0.012078673, -0.042516332, -878033.25, -39932.93, 0.0, 10.000343, 9.998636 
1.28502e+3, 2.2447778e+2, -786335.94, -871735.1, -21534.346, -0.018897785, -0.039537683, -781213.1, -41100.973, 0.0, 10.000129, 9.998995 
1.2850338e+3, 2.3447634e+2, -692886.2, -767658.3, -39379.36, 0.00769884, -0.090822145, -675972.6, -33848.32, 0.0, 10.000063, 9.999068 
1.2850478e+3, 2.4447514e+2, -627065.06, -716892.44, -31918.04, 0.038582142, -0.10255083, -616878.8, -72743.44, 0.0, 9.999977, 9.998785 
1.2850623e+3, 2.5447425e+2, -542330.06, -620597.44, -29074.504, 0.07390887, -0.07420684, -532711.6, -86566.73, 0.0, 9.999866, 9.998827 
1.2850764e+3, 2.6447326e+2, -436279.13, -494232.0, -26342.37, 0.074111685, -0.06340002, -426094.94, -77941.125, 0.0, 9.999815, 9.999045 
1.2850903e+3, 2.7447212e+2, -328774.13, -384579.9, -41173.55, 0.031271465, -0.091050066, -306939.38, -56776.656, 0.0, 9.99985, 9.999108 
1.2851045e+3, 2.844705e+2, -277787.6, -361847.38, -28094.215, 0.0049489317, -0.13976555, -269262.6, -117085.17, 0.0, 9.999753, 9.998638 
1.285119e+3, 2.9446846e+2, -221421.47, -284891.28, -10714.127, -0.00035575897, -0.20838524, -219661.64, -165463.89, 0.0, 9.999469, 9.998631 
1.2851334e+3, 3.044685e+2, -140441.2, -184823.0, -35357.07, 0.022687472, -0.07713407, -120888.13, -120888.13, 0.0, 9.999541, 9.998947 
1.2851486e+3, 3.1446734e+2, 48763.145, 77476.164, -39468.125, 0.15181817, -0.10097204, 105117.77, 105117.77, 0.0, 10.000097, 10.0004835 
1.2948774e+3, 1.24468364e+2, -1752942.1, -1752322.9, 60579.785, -0.12753181, -0.13006859, -1692051.9, 28148.063, 0.0050962004, 9.999836, 9.999814 
1.2948938e+3, 1.344689e+2, -1609398.5, -1629530.1, -53672.227, 0.18512122, -0.0574471, -1564856.4, 57338.777, 0.0028611089, 10.00011, 9.999867 
1.2949048e+3, 1.4446779e+2, -1508080.4, -1547985.0, -9193.461, -0.14002894, -0.14795136, -1506064.3, 18142.225, 0.00111182, 10.000221, 9.99969 
1.2949206e+3, 1.54468e+2, -1406959.9, -1445994.8, -18404.432, -0.020644454, -0.09820059, -1399651.0, 26554.057, 0.000219555, 10.000234, 9.99971 
1.2949355e+3, 1.6446793e+2, -1338756.9, -1390347.1, -14812.724, 0.04044077, -0.062993936, -1334806.4, -6599.7837, 0.0000074533, 10.000149, 9.999461 
1.2949497e+3, 1.7446761e+2, -1268531.5, -1302521.4, -7132.5654, 0.006218027, -0.04462933, -1267095.4, -36884.742, 0.0, 9.999946, 9.999488 
1.2949637e+3, 1.8446685e+2, -1170481.1, -1230603.1, -9027.989, -0.031468034, -0.05451803, -1169154.8, -36936.52, 0.0, 10.000056, 9.999256 
1.2949778e+3, 1.9446558e+2, -997146.94, -1092350.0, -19240.879, -0.06390925, -0.11300799, -993405.3, 40824.89, 0.0, 10.000557, 9.999291 
1.2949921e+3, 2.0446487e+2, -893632.6, -1011215.8, -37832.43, -0.05180813, -0.102252536, -882511.8, 53725.125, 0.0, 10.000678, 9.999119 
1.2950066e+3, 2.144649e+2, -841246.1, -930040.1, -18530.674, 0.012124153, -0.015713278, -837534.06, 702.58215, 0.0, 10.000342, 9.999165 
1.2950206e+3, 2.2446387e+2, -812945.5, -926708.6, -25730.674, 0.033059094, -0.008235941, -807396.44, -67149.67, 0.0, 10.000128, 9.998618 
1.2950338e+3, 2.3446149e+2, -723062.0, -830037.6, -41470.113, 0.002560383, -0.11058633, -708868.8, -66599.2, 0.0, 10.00006, 9.998642 
1.2950476e+3, 2.4445994e+2, -624275.7, -710370.06, -36490.813, 0.0015374667, -0.13645191, -610890.25, -66605.695, 0.0, 9.999973, 9.998833 
1.2950617e+3, 2.5445944e+2, -537197.6, -610085.6, -32245.533, 0.037824646, -0.07630608, -524980.1, -78690.83, 0.0, 9.999865, 9.9989 
1.295076e+3, 2.6445857e+2, -461182.88, -546476.0, -25151.39, 0.046269562, -0.044173826, -454318.63, -106020.58, 0.0, 9.999816, 9.998688 
1.29509e+3, 2.744571e+2, -356799.4, -440117.6, -37918.77, 0.019562885, -0.06312903, -342126.34, -91814.19, 0.0, 9.999837, 9.998734 
1.2951043e+3, 2.8445554e+2, -248488.39, -298725.13, -36893.402, 0.023677425, -0.10583123, -228974.3, -76648.11, 0.0, 9.9997425, 9.999078 
1.2951191e+3, 2.9445407e+2, -186325.52, -212841.2, -19209.957, 0.06375491, -0.16930325, -176242.56, -121904.24, 0.0, 9.999474, 9.999123 
1.2951334e+3, 3.0445406e+2, -169354.05, -247594.77, -16560.102, 0.064717874, -0.048528213, -165993.36, -165993.36, 0.0, 9.99955, 9.998513 
1.2951481e+3, 3.1445184e+2, -13150.893, -43647.06, -12252.425, 0.08841906, -0.12766556, -8838.149, -8838.149, 0.0, 10.000065, 9.999666 
1.3048773e+3, 1.24453336e+2, -1681304.3, -1726056.8, 88217.23, -0.14745937, -0.1528093, -1612669.6, 107675.875, 0.0054552136, 10.000365, 9.99974 
1.304894e+3, 1.3445382e+2, -1618950.9, -1652834.9, -49111.13, 0.19663599, -0.06962645, -1583941.6, 38400.266, 0.003073975, 10.000125, 9.9997 
1.3049053e+3, 1.444526e+2, -1528776.1, -1554861.4, -4504.6646, -0.10547593, -0.16171816, -1528020.1, -3665.8582, 0.0012055306, 10.000067, 9.999717 
1.3049205e+3, 1.5445288e+2, -1396911.1, -1436854.9, -19368.71, -0.03542964, -0.10914647, -1389061.8, 37290.527, 0.000244213, 10.000286, 9.999747 
1.3049355e+3, 1.6445282e+2, -1294633.6, -1359100.5, -28577.418, 0.014133429, -0.077962644, -1283789.6, 44563.64, 0.000009295233, 10.000411, 9.999548 
1.3049498e+3, 1.7445247e+2, -1189899.3, -1254569.8, -27962.525, 0.014959618, -0.07184695, -1179485.6, 50871.56, 0.0, 10.0004425, 9.9995775 
1.304964e+3, 1.8445182e+2, -1140255.4, -1222589.9, -18720.99, -0.010382166, -0.074610725, -1136198.5, -3834.5154, 0.0, 10.000294, 9.999197 
1.304978e+3, 1.944508e+2, -1096376.4, -1147102.8, -12944.637, -0.061509144, -0.101649694, -1093264.1, -58889.5, 0.0, 9.9999075, 9.9992285 
1.3049921e+3, 2.044501e+2, -998130.7, -1040399.56, -32643.13, -0.05644871, -0.09377899, -980377.6, -43996.56, 0.0, 9.99987, 9.999307 
1.3050069e+3, 2.144499e+2, -838157.0, -905783.0, -39325.137, 0.014521934, -0.051769108, -820106.9, 18275.154, 0.0, 10.000267, 9.999367 
1.3050209e+3, 2.2444889e+2, -779926.5, -922366.94, -54779.47, 0.041139882, -0.04715273, -761296.2, -20904.36, 0.0, 10.000403, 9.998515 
1.305034e+3, 2.3444688e+2, -708206.7, -836049.5, -49798.86, 0.014092905, -0.10056841, -691098.06, -48685.543, 0.0, 10.000219, 9.998524 
1.3050476e+3, 2.444454e+2, -606311.25, -697365.25, -31223.996, 0.0073321173, -0.115101166, -596632.75, -52205.7, 0.0, 10.000078, 9.998872 
1.3050616e+3, 2.544446e+2, -516306.0, -594645.2, -30042.754, 0.026357982, -0.090908185, -506111.38, -59677.54, 0.0, 9.999986, 9.998948 
1.3050757e+3, 2.6444355e+2, -473664.7, -570574.94, -17784.621, 0.031210877, -0.06728683, -470504.0, -122060.1, 0.0, 9.999809, 9.998525 
1.3050897e+3, 2.7444217e+2, -413412.13, -487277.75, -17853.54, 0.018409105, -0.06114298, -409323.22, -158864.77, 0.0, 9.999534, 9.998556 
1.3051042e+3, 2.8444064e+2, -277484.16, -312540.56, -16172.181, 0.03265633, -0.092202276, -271163.28, -118690.586, 0.0, 9.999543, 9.999079 
1.305119e+3, 2.944391e+2, -121481.375, -179926.8, -35047.53, 0.07847001, -0.16168353, -105071.91, -50587.063, 0.0, 9.999911, 9.999138 
1.3051333e+3, 3.0443907e+2, -106504.86, -200514.77, -30975.04, 0.07388828, -0.05569672, -97216.664, -97216.664, 0.0, 9.999911, 9.998663 
1.3051476e+3, 3.1443688e+2, -113802.484, -112388.38, 19592.11, 0.07146751, -0.14363325, -93490.57, -93490.57, 0.0, 9.999458, 9.999489 
1.3148782e+3, 1.2443889e+2, -1695360.6, -1754475.9, 85690.72, -0.09763613, -0.14216015, -1634273.1, 86211.984, 0.005819013, 10.00036, 9.999549 
1.3148937e+3, 1.3443881e+2, -1639116.9, -1695456.3, -58932.31, 0.15947884, -0.08447412, -1601967.8, 20519.734, 0.0032902497, 10.000129, 9.999405 
1.3149048e+3, 1.4443745e+2, -1530507.3, -1558990.0, 913.8335, -0.15733922, -0.17724757, -1530478.0, -5975.903, 0.0013013786, 10.000068, 9.999688 
1.3149205e+3, 1.5443799e+2, -1400778.5, -1443287.5, -11155.427, -0.07060814, -0.093853265, -1398029.0, 28468.783, 0.00026992275, 10.000278, 9.999706 
1.3149357e+3, 1.6443782e+2, -1295903.5, -1360832.1, -28810.104, -0.011313377, -0.06958465, -1284963.3, 43536.44, 0.00001153221, 10.000406, 9.999539 
1.3149501e+3, 1.7443694e+2, -1188626.3, -1252710.5, -26989.002, -0.0026683356, -0.117825754, -1178774.4, 51733.582, 0.0, 10.000445, 9.99959 
1.3149643e+3, 1.8443646e+2, -1129285.5, -1199848.5, -33832.195, 0.0029559338, -0.11171111, -1115685.5, 16827.326, 0.0, 10.000292, 9.999354 
1.3149785e+3, 1.9443646e+2, -1084770.5, -1123460.8, -28022.607, 0.008854637, -0.051025715, -1070064.1, -35550.676, 0.0, 9.9999075, 9.999391 
1.3149928e+3, 2.044357e+2, -1006229.0, -1056956.3, -20640.963, 0.006130542, -0.055189632, -998891.5, -62370.8, 0.0, 9.999868, 9.999194 
1.3150069e+3, 2.14434e+2, -847831.5, -925240.5, -24311.71, -0.0074032694, -0.15002017, -840829.3, -2293.433, 0.0, 10.000262, 9.999236 
1.3150209e+3, 2.2443287e+2, -769798.9, -899444.2, -61928.32, 0.0010112845, -0.1555202, -744971.7, -4424.7354, 0.0, 10.000395, 9.998677 
1.3150345e+3, 2.3443252e+2, -696226.06, -810690.06, -56662.82, 0.039065212, -0.061833367, -672921.25, -30368.518, 0.0, 10.0002165, 9.9987 
1.315048e+3, 2.4443153e+2, -604149.9, -692563.44, -35332.867, 0.052674506, -0.040135633, -591764.7, -47201.77, 0.0, 10.000076, 9.998906 
1.3150616e+3, 2.5442973e+2, -515371.8, -591089.75, -32406.656, 0.03535522, -0.11720494, -503396.13, -56817.938, 0.0, 9.999977, 9.998978 
1.3150755e+3, 2.6442832e+2, -474012.63, -570084.25, -27431.547, 0.024784656, -0.13168684, -466731.8, -118140.695, 0.0, 9.999803, 9.998531 
1.3150892e+3, 2.7442735e+2, -412453.28, -486650.28, -26364.064, 0.023435257, -0.0832891, -404039.56, -153438.0, 0.0, 9.999539, 9.998558 
1.3151036e+3, 2.8442582e+2, -305774.6, -373447.22, -3592.0745, 0.028321235, -0.096738905, -305584.44, -152967.55, 0.0, 9.99955, 9.998657 
1.3151185e+3, 2.9442367e+2, -155764.33, -245683.89, -18836.117, 0.039387964, -0.18237922, -151978.02, -97341.24, 0.0, 9.999887, 9.998699 
1.315133e+3, 3.044235e+2, -61678.64, -102181.17, -44952.184, 0.04445994, -0.09659875, -32626.635, -32626.635, 0.0, 9.999887, 9.999351 
1.3151473e+3, 3.144225e+2, -82198.36, -46762.55, 8880.258, 0.08978399, -0.14374177, -44661.7, -44661.7, 0.0, 9.999459, 9.999939 
1.3248788e+3, 1.2442376e+2, -1690607.6, -1738758.4, 48685.01, -0.066651836, -0.14287362, -1660370.5, 60262.543, 0.006183249, 10.000331, 9.999672 
1.3248937e+3, 1.3442376e+2, -1615855.3, -1676250.1, -78307.43, 0.13330431, -0.08270539, -1562124.5, 60509.43, 0.0035072896, 10.000257, 9.999475 
1.3249049e+3, 1.4442238e+2, -1513910.9, -1557289.3, 6146.9053, -0.17254281, -0.17958353, -1513056.6, 11591.825, 0.0013982238, 10.000212, 9.99963 
1.324921e+3, 1.5442275e+2, -1403027.5, -1452741.6, -8190.0923, -0.060187493, -0.10586431, -1401713.0, 24932.908, 0.00029637254, 10.000299, 9.999632 
1.3249362e+3, 1.6442251e+2, -1308655.5, -1364905.5, -30482.836, 0.0035442235, -0.085961685, -1295304.9, 33343.707, 0.000014169166, 10.000309, 9.999558 
1.3249503e+3, 1.744217e+2, -1223287.0, -1266584.0, -30061.025, -0.008663999, -0.12948665, -1207890.6, 22765.72, 0.0, 10.0001955, 9.999615 
1.3249646e+3, 1.8442124e+2, -1135951.6, -1198298.3, -40974.945, 0.002075403, -0.12411412, -1115639.8, 17021.025, 0.0, 10.000227, 9.999395 
1.324979e+3, 1.944212e+2, -1000715.2, -1078140.4, -45225.113, 0.042418145, -0.07182839, -979896.5, 54764.813, 0.0, 10.000465, 9.9994335 
1.3249932e+3, 2.0442039e+2, -937937.94, -1034104.56, -40414.098, 0.04138739, -0.077825226, -923209.56, 13459.516, 0.0, 10.000381, 9.999104 
1.325007e+3, 2.1441866e+2, -910365.94, -965681.25, -43627.145, -0.012252459, -0.16476887, -886368.3, -47682.926, 0.0, 9.999881, 9.999142 
1.3250206e+3, 2.2441766e+2, -851844.0, -916281.5, -73349.41, -0.019967219, -0.16494757, -803949.2, -63253.453, 0.0, 9.999735, 9.998879 
1.3250345e+3, 2.3441754e+2, -708330.2, -791463.94, -65913.42, 0.031386256, -0.06966221, -671971.56, -29272.91, 0.0, 10.000027, 9.998923 
1.3250482e+3, 2.4441665e+2, -606781.94, -696749.2, -52855.08, 0.05785243, -0.045473322, -582359.6, -37652.098, 0.0, 10.000072, 9.998879 
1.3250618e+3, 2.5441486e+2, -541970.6, -607855.1, -57687.168, 0.05236574, -0.11941949, -508482.47, -61759.01, 0.0, 9.999814, 9.9989395 
1.3250753e+3, 2.6441345e+2, -475781.8, -562367.1, -47301.215, 0.043220535, -0.13764137, -454952.25, -106215.555, 0.0, 9.999756, 9.998607 
1.325089e+3, 2.7441245e+2, -348482.13, -446453.94, -41410.6, 0.031199593, -0.10161407, -333324.0, -82577.15, 0.0, 9.99994, 9.998641 
1.3251033e+3, 2.8441095e+2, -276405.4, -376201.13, -6837.5244, 0.026060719, -0.10792901, -275939.13, -123177.08, 0.0, 9.999827, 9.998505 
1.325118e+3, 2.9440895e+2, -245716.61, -306621.8, -4531.2896, 0.029085495, -0.16465679, -245381.33, -190599.25, 0.0, 9.999347, 9.998541 
1.3251323e+3, 3.0440858e+2, -133733.53, -110726.93, -29722.504, 0.039478593, -0.10155268, -90359.35, -90359.35, 0.0, 9.999282, 9.999582 
1.3251469e+3, 3.144079e+2, -40095.848, -24583.139, -11976.915, 0.089823015, -0.1331788, -18070.38, -18070.38, 0.0, 9.9997425, 9.999954 
1.3348791e+3, 1.24408014e+2, -1659158.6, -1674081.9, 47743.75, -0.0691298, -0.15347625, -1618296.9, 102491.94, 0.0065457188, 10.000333, 10.000117 
1.3348937e+3, 1.3440877e+2, -1587000.4, -1613162.6, -82388.82, 0.1164686, -0.06253385, -1516660.6, 106119.805, 0.0037237175, 10.000245, 9.999913 
1.3349053e+3, 1.4440748e+2, -1520894.8, -1570078.9, 6485.7676, -0.15448223, -0.1672741, -1520053.9, 4738.9043, 0.0014951822, 10.000203, 9.999547 
1.3349217e+3, 1.5440723e+2, -1409311.8, -1466675.3, -4407.622, -0.0076483744, -0.1462115, -1408975.1, 17820.998, 0.00032323142, 10.000302, 9.999536 
1.3349369e+3, 1.6440694e+2, -1306699.0, -1360837.6, -35345.523, 0.052633986, -0.1278487, -1289248.0, 39551.61, 0.000017128494, 10.000308, 9.999587 
1.3349506e+3, 1.744068e+2, -1221657.1, -1262892.3, -34824.734, -0.0053042774, -0.106794566, -1201804.4, 28997.135, 0.00000000003443261, 10.000194, 9.999641 
1.3349648e+3, 1.8440622e+2, -1141539.1, -1209765.5, -34501.633, -0.016073778, -0.11143498, -1127133.5, 5673.687, 0.0, 10.000226, 9.999318 
1.3349795e+3, 1.9440506e+2, -1006169.75, -1089920.4, -36499.043, 0.03609555, -0.16415474, -992495.8, 42321.918, 0.0, 10.000465, 9.999352 
1.3349937e+3, 2.0440425e+2, -943882.7, -1045446.0, -59179.375, 0.044011626, -0.16166624, -916683.75, 20142.057, 0.0, 10.000377, 9.999029 
1.3350068e+3, 2.1440396e+2, -915758.0, -976935.0, -62913.895, -0.0035522915, -0.09820981, -876390.7, -37560.484, 0.0, 9.999879, 9.999065 
1.3350204e+3, 2.2440323e+2, -834602.2, -880234.9, -65048.664, -0.024428366, -0.07761102, -788484.4, -47646.414, 0.0, 9.999734, 9.999127 
1.335034e+3, 2.3440197e+2, -690302.06, -753019.94, -54272.137, -0.010691452, -0.122868165, -658980.44, -16130.777, 0.0, 10.000021, 9.99919 
1.3350478e+3, 2.4440087e+2, -614832.94, -711858.06, -61691.836, 0.020278612, -0.12985483, -584863.94, -40003.547, 0.0, 10.000063, 9.998779 
1.3350618e+3, 2.544e+2, -550912.6, -626546.8, -66408.484, 0.073116474, -0.09774557, -512308.38, -65438.848, 0.0, 9.999814, 9.998812 
1.3350755e+3, 2.643989e+2, -465011.75, -540847.8, -41012.42, 0.08253285, -0.086203344, -447074.66, -98194.09, 0.0, 9.999759, 9.9987545 
1.335089e+3, 2.743974e+2, -338833.22, -423132.2, -32562.482, 0.03620368, -0.11620642, -327720.22, -76826.03, 0.0, 9.999925, 9.998809 
1.335103e+3, 2.84396e+2, -272615.9, -365186.5, -22696.195, 0.019839779, -0.12598184, -267350.78, -114442.7, 0.0, 9.999813, 9.998588 
1.3351174e+3, 2.943948e+2, -238709.7, -293918.72, -20267.5, 0.042786002, -0.107402354, -232068.33, -177147.48, 0.0, 9.999353, 9.998625 
1.3351318e+3, 3.0439416e+2, -146077.42, -138709.75, -13583.699, 0.053987965, -0.06998367, -128319.234, -128319.234, 0.0, 9.999291, 9.999386 
1.3351464e+3, 3.1439316e+2, -69605.97, -79982.664, 10891.768, 0.06159532, -0.1144609, -62729.92, -62729.92, 0.0, 9.999717, 9.999586 
1.3448796e+3, 1.24392696e+2, -1646393.1, -1676513.4, 98715.8, -0.06101039, -0.1774093, -1561595.3, 159342.25, 0.0069055543, 10.000461, 10.000039 
1.344894e+3, 1.3439335e+2, -1541318.4, -1603635.0, -78202.31, 0.11045154, -0.083945654, -1488295.6, 134634.53, 0.0039389143, 10.000614, 9.999801 
1.3449058e+3, 1.4439206e+2, -1468030.8, -1532653.5, -8742.291, -0.13880268, -0.18870386, -1466869.0, 58073.523, 0.0015916337, 10.000515, 9.999654 
1.344922e+3, 1.543919e+2, -1428247.3, -1462546.3, -5814.7583, 0.004143068, -0.16908702, -1427288.3, -343.94025, 0.0003501717, 10.000116, 9.999653 
1.3449372e+3, 1.6439171e+2, -1350005.1, -1387768.4, -20733.893, 0.06576212, -0.14638247, -1340843.8, -11896.533, 0.000020254476, 10.000038, 9.999533 
1.3449511e+3, 1.7439163e+2, -1196592.0, -1257903.5, -27088.846, 0.016388267, -0.11308601, -1186338.3, 44611.066, 0.0000000014653116, 10.000397, 9.999578 
1.3449652e+3, 1.84391e+2, -1099047.4, -1186583.9, -29471.559, -0.003073141, -0.11870462, -1090049.8, 42905.906, 0.0, 10.000505, 9.999343 
1.3449796e+3, 1.9438972e+2, -1031846.2, -1098513.9, -25268.6, 0.015874822, -0.18755077, -1023351.25, 11616.007, 0.0, 10.000274, 9.999386 
1.3449937e+3, 2.0438899e+2, -963120.7, -1044694.1, -42859.047, 0.01964331, -0.18227778, -944742.75, -7768.3794, 0.0, 10.000201, 9.999119 
1.3450071e+3, 2.1438906e+2, -842585.6, -931115.0, -35492.75, 0.003271956, -0.09307113, -830113.2, 8862.301, 0.0, 10.000336, 9.999161 
1.3450205e+3, 2.243884e+2, -761939.7, -837432.3, -33395.89, -0.006624601, -0.07234712, -749286.9, -8304.666, 0.0, 10.000199, 9.999197 
1.345034e+3, 2.3438692e+2, -728031.75, -762357.5, -39633.313, -0.008013325, -0.14898118, -702004.75, -59009.215, 0.0, 9.999727, 9.999266 
1.3450477e+3, 2.4438576e+2, -689920.3, -759781.0, -49966.094, 0.011213964, -0.16139723, -663885.56, -118878.54, 0.0, 9.999602, 9.998671 
1.3450614e+3, 2.5438505e+2, -545566.5, -637318.3, -55301.773, 0.05684008, -0.10337963, -519589.2, -72573.195, 0.0, 9.99991, 9.998691 
1.3450752e+3, 2.6438397e+2, -440149.56, -524634.0, -37966.504, 0.07512191, -0.08036619, -425595.13, -76568.09, 0.0, 9.999914, 9.99879 
1.345089e+3, 2.7438247e+2, -391269.8, -442481.72, -41002.066, 0.05788312, -0.11538477, -368534.94, -117494.19, 0.0, 9.999542, 9.998858 
1.345103e+3, 2.843812e+2, -326810.88, -380297.5, -36162.42, 0.048665173, -0.11619293, -308577.25, -155524.13, 0.0, 9.999396, 9.998683 
1.345117e+3, 2.9438037e+2, -204978.38, -265543.72, -33937.637, 0.05144022, -0.07560628, -189776.94, -134714.17, 0.0, 9.999537, 9.99873 
1.3451312e+3, 3.0437937e+2, -107450.74, -125004.875, -10385.49, 0.05347833, -0.07817694, -102630.19, -102630.19, 0.0, 9.999579, 9.999341 
1.3451457e+3, 3.1437865e+2, -112954.26, -108956.664, 24889.305, 0.046749488, -0.08628862, -85986.02, -85986.02, 0.0, 9.999455, 9.999513 
1.3548802e+3, 1.24377914e+2, -1693514.1, -1771435.5, 103722.22, -0.05031441, -0.21360768, -1621676.6, 99400.984, 0.0072628423, 10.000447, 9.999394 
1.3548946e+3, 1.3437761e+2, -1588470.5, -1701848.4, -72402.65, 0.110759936, -0.14941703, -1553204.1, 69878.47, 0.004152666, 10.000616, 9.999125 
1.3549063e+3, 1.4437616e+2, -1448172.3, -1493243.8, -24310.602, -0.13449675, -0.24687748, -1437558.9, 87538.67, 0.0016872559, 10.000522, 9.999923 
1.3549218e+3, 1.5437686e+2, -1406228.6, -1416675.6, -21438.941, -0.028171388, -0.1730867, -1389386.0, 37703.97, 0.0003769789, 10.000114, 9.9999695 
1.354937e+3, 1.6437685e+2, -1359789.5, -1406852.3, -10840.166, 0.039633118, -0.1396617, -1357412.8, -28322.145, 0.000023370363, 10.000031, 9.999405 
1.3549517e+3, 1.7437622e+2, -1206704.1, -1279234.8, -13474.027, 0.05270789, -0.14939412, -1204282.0, 26817.379, 0.0000000068048798, 10.000397, 9.999432 
1.354966e+3, 1.8437567e+2, -1090965.4, -1169435.8, -38202.68, 0.034339495, -0.14631464, -1075438.8, 57666.996, 0.0, 10.000504, 9.999462 
1.3549794e+3, 1.9437523e+2, -1022008.56, -1078438.0, -34392.58, -0.020485092, -0.14304204, -1005738.2, 29371.283, 0.0, 10.000274, 9.999524 
1.3549933e+3, 2.0437469e+2, -945576.06, -1008298.56, -40094.098, -0.033641074, -0.14052895, -926034.8, 11079.704, 0.0, 10.0002, 9.99937 
1.3550074e+3, 2.1437402e+2, -824733.5, -893510.8, -30691.03, 0.005569659, -0.14823765, -813029.7, 26091.066, 0.0, 10.000332, 9.999421 
1.355021e+3, 2.2437327e+2, -770690.0, -854278.8, -51213.598, 0.029724197, -0.14830108, -746381.4, -5253.415, 0.0, 10.000193, 9.999084 
1.3550341e+3, 2.3437239e+2, -738104.3, -783131.5, -57415.04, 0.035200592, -0.14877033, -698946.6, -55810.484, 0.0, 9.999725, 9.999125 
1.3550474e+3, 2.443713e+2, -697701.56, -775826.06, -40551.727, 0.026842592, -0.14162199, -680458.4, -135310.88, 0.0, 9.999601, 9.998561 
1.3550608e+3, 2.5436994e+2, -554287.1, -653497.0, -42361.98, 0.0010222313, -0.13596869, -538660.25, -91497.66, 0.0, 9.999902, 9.998584 
1.3550746e+3, 2.643687e+2, -448033.03, -539332.56, -49765.516, 0.018724013, -0.1196648, -426151.25, -76975.3, 0.0, 9.999906, 9.998693 
1.3550888e+3, 2.743677e+2, -397499.2, -456269.56, -53005.016, 0.09164912, -0.097816445, -366278.9, -115092.43, 0.0, 9.999545, 9.998764 
1.355103e+3, 2.8436664e+2, -318509.97, -364442.63, -31230.34, 0.10678399, -0.07700012, -302710.5, -149513.31, 0.0, 9.999401, 9.99879 
1.3551165e+3, 2.9436558e+2, -198667.83, -249558.3, -25998.205, 0.0482445, -0.07073395, -187734.95, -132526.69, 0.0, 9.999523, 9.998847 
1.3551307e+3, 3.0436411e+2, -103949.875, -113599.8, -13125.998, 0.031491656, -0.12761791, -94790.125, -94790.125, 0.0, 9.999561, 9.999429 
1.3551451e+3, 3.1436425e+2, -98246.39, -75714.59, 24607.244, 0.03753541, -0.06121245, -59916.92, -59916.92, 0.0, 9.999444, 9.999747 
1.3648808e+3, 1.2436281e+2, -1642277.0, -1753360.5, 61038.05, -0.0406474, -0.2225647, -1615292.8, 105931.7, 0.0076198755, 10.000825, 9.999336 
1.3648953e+3, 1.3436249e+2, -1584956.5, -1702895.6, -67973.09, 0.11057846, -0.1550842, -1553938.5, 69291.266, 0.004366158, 10.000654, 9.999099 
1.3649069e+3, 1.4436099e+2, -1454684.4, -1510084.0, -13524.695, -0.1248265, -0.25118893, -1451558.9, 73686.76, 0.0017823466, 10.000537, 9.999799 
1.364922e+3, 1.5436159e+2, -1349821.3, -1404689.0, -45103.793, -0.03857464, -0.17463003, -1324463.4, 102776.32, 0.0004035849, 10.0005665, 9.999834 
1.364937e+3, 1.6436157e+2, -1287851.0, -1366005.9, -35417.07, 0.020827949, -0.13837151, -1274189.4, 55051.484, 0.000026350568, 10.000499, 9.99946 
1.364952e+3, 1.7436104e+2, -1219820.3, -1278059.1, -23132.123, 0.043524608, -0.1434479, -1211750.5, 19497.879, 0.000000016360648, 10.000275, 9.999499 
1.3649663e+3, 1.8436065e+2, -1139211.0, -1179759.6, -45747.152, 0.03485835, -0.13134828, -1109446.9, 23806.271, 0.0, 10.000115, 9.999578 
1.3649797e+3, 1.9436048e+2, -1043792.5, -1075359.3, -44701.49, -0.014406345, -0.11578378, -1012169.75, 23084.879, 0.0, 10.000066, 9.999646 
1.3649936e+3, 2.0435998e+2, -961617.25, -996225.5, -46890.555, -0.024708472, -0.121248506, -928939.8, 8318.827, 0.0, 10.000007, 9.999545 
1.3650076e+3, 2.143592e+2, -870714.1, -894729.4, -44307.113, 0.014525319, -0.16155104, -836816.4, 2448.7456, 0.0, 9.999929, 9.999605 
1.3650212e+3, 2.2435841e+2, -806367.75, -880986.94, -71314.85, 0.04087775, -0.16898783, -763192.5, -21920.166, 0.0, 9.999992, 9.998996 
1.3650343e+3, 2.3435767e+2, -673506.06, -764565.25, -77181.71, 0.0502517, -0.14575866, -629425.6, 13854.582, 0.0, 10.000224, 9.999012 
1.3650474e+3, 2.4435662e+2, -602208.0, -715963.4, -47248.47, 0.039495587, -0.13358425, -585143.2, -39852.01, 0.0, 10.000198, 9.998684 
1.3650607e+3, 2.543552e+2, -551123.44, -635278.9, -32680.26, 0.0034964622, -0.14841504, -539923.25, -92617.43, 0.0, 9.999855, 9.99873 
1.3650744e+3, 2.643539e+2, -480078.6, -561329.7, -31879.191, 0.014148157, -0.14238806, -469063.88, -119744.48, 0.0, 9.999718, 9.99863 
1.3650885e+3, 2.7435288e+2, -360933.13, -447010.97, -35710.836, 0.08353797, -0.11478925, -348047.0, -96716.195, 0.0, 9.999837, 9.998685 
1.3651024e+3, 2.8435192e+2, -265283.03, -341648.16, -16097.9375, 0.09609676, -0.0810345, -262028.28, -108687.055, 0.0, 9.999782, 9.998763 
1.3651158e+3, 2.9435095e+2, -204089.53, -254161.92, -22928.514, 0.03944972, -0.06001052, -195176.81, -139825.66, 0.0, 9.999496, 9.998827 
1.36513e+3, 3.0434915e+2, -145840.78, -124921.92, -17356.713, 0.037728883, -0.15312916, -115116.73, -115116.73, 0.0, 9.999236, 9.999508 
1.3651444e+3, 3.1434965e+2, -141125.4, -58463.563, 16036.041, 0.048085876, -0.06302173, -55461.656, -55461.656, 0.0, 9.998985, 10.000087 
1.3748816e+3, 1.2434732e+2, -1603847.3, -1673843.5, 48875.14, -0.042669892, -0.2103197, -1578731.8, 142647.0, 0.0079810945, 10.000825, 9.999885 
1.374896e+3, 1.3434811e+2, -1540858.8, -1609709.0, -75344.54, 0.108426794, -0.09623997, -1492447.4, 130923.34, 0.0045821774, 10.000648, 9.999742 
1.3749076e+3, 1.4434667e+2, -1491174.5, -1584925.0, -15071.928, -0.11243616, -0.19711725, -1488811.0, 36574.61, 0.0018779465, 10.000532, 9.999289 
1.3749225e+3, 1.5434612e+2, -1390405.5, -1489630.0, -43558.5, -0.031746347, -0.17511378, -1373997.1, 53395.95, 0.00043006244, 10.000569, 9.99925 
1.3749374e+3, 1.6434586e+2, -1271913.0, -1333361.9, -44540.47, 0.0017187357, -0.14435987, -1248527.9, 80869.66, 0.000029160963, 10.0005, 9.999684 
1.3749518e+3, 1.7434615e+2, -1200048.8, -1237470.5, -32189.703, -0.013327632, -0.09434667, -1181526.9, 49869.01, 0.000000027808229, 10.000276, 9.999778 
1.374966e+3, 1.8434605e+2, -1131726.0, -1164068.3, -49821.406, -0.0041440665, -0.073283024, -1095517.0, 37880.14, 0.0, 10.0001135, 9.999688 
1.3749802e+3, 1.9434549e+2, -1036764.8, -1060832.0, -46989.914, 0.030917952, -0.1056877, -1000292.1, 35110.11, 0.0, 10.000065, 9.999747 
1.374994e+3, 2.0434497e+2, -954811.56, -981129.8, -51186.758, 0.042567033, -0.12429956, -915119.5, 22286.72, 0.0, 10.000001, 9.999652 
1.3750076e+3, 2.143446e+2, -863808.3, -879645.56, -47276.105, 0.027083598, -0.13343847, -823792.25, 15615.99, 0.0, 9.999925, 9.999712 
1.375021e+3, 2.2434388e+2, -812290.2, -891954.56, -64227.86, 0.023737133, -0.1359648, -776545.75, -35130.8, 0.0, 9.999986, 9.998924 
1.3750343e+3, 2.3434278e+2, -680224.56, -777248.25, -68010.84, 0.035452295, -0.13952017, -645196.75, -1769.412, 0.0, 10.000217, 9.998928 
1.3750476e+3, 2.4434175e+2, -579119.8, -666965.2, -59162.81, 0.046803873, -0.13744526, -549357.75, -3919.9424, 0.0, 10.000193, 9.999024 
1.375061e+3, 2.5434083e+2, -525698.3, -581971.5, -44716.246, 0.058400586, -0.13966945, -501003.0, -53557.52, 0.0, 9.999851, 9.999098 
1.3750745e+3, 2.643396e+2, -482383.47, -566238.9, -28377.002, 0.055915307, -0.147478, -473683.25, -124225.83, 0.0, 9.999718, 9.998597 
1.3750878e+3, 2.74338e+2, -366156.28, -456649.84, -29381.52, 0.030019028, -0.16788626, -357453.6, -105979.44, 0.0, 9.99983, 9.998622 
1.3751014e+3, 2.8433698e+2, -277778.38, -365953.28, -25048.342, 0.013253386, -0.12958017, -271159.6, -117673.93, 0.0, 9.999774, 9.9986 
1.3751152e+3, 2.943366e+2, -216712.22, -278536.7, -30724.928, 0.0187207, -0.038200624, -204040.2, -148548.95, 0.0, 9.999488, 9.998664 
1.3751295e+3, 3.043345e+2, -141889.08, -117625.19, -25384.752, 0.0643436, -0.14968923, -101622.29, -101622.29, 0.0, 9.999238, 9.9995575 
1.3751435e+3, 3.1433454e+2, -111529.375, 2992.6785, 8696.407, 0.067645214, -0.11192174, 3649.2888, 3649.2888, 0.0, 9.998983, 10.000511 
1.3848826e+3, 1.24332234e+2, -1552562.4, -1649498.9, 75440.52, -0.052562915, -0.2043566, -1511362.1, 210165.69, 0.008351057, 10.001184, 9.99988 
1.3848966e+3, 1.3433316e+2, -1511627.1, -1587270.1, -90494.15, 0.103308775, -0.083156385, -1451368.9, 172149.19, 0.004803759, 10.000814, 9.999815 
1.3849083e+3, 1.4433175e+2, -1477989.8, -1578349.0, -23201.875, -0.095248, -0.18499845, -1472885.4, 52647.223, 0.0019753822, 10.000621, 9.99929 
1.3849235e+3, 1.5433127e+2, -1376227.8, -1483324.0, -8712.069, -0.017087132, -0.15764993, -1375523.6, 52015.984, 0.00045665295, 10.000668, 9.999247 
1.3849379e+3, 1.6433097e+2, -1259626.4, -1322289.4, -1342.2117, 0.0034764032, -0.13096856, -1259597.6, 69946.32, 0.00003186285, 10.000562, 9.999731 
1.3849518e+3, 1.7433114e+2, -1194626.4, -1229189.1, -7719.022, -0.036668666, -0.09767944, -1192980.8, 38561.91, 0.000000039188958, 10.000289, 9.999828 
1.384966e+3, 1.84331e+2, -1120766.6, -1150962.3, -26088.133, -0.027806014, -0.08984354, -1105722.5, 27821.592, 0.0, 10.000157, 9.999756 
1.3849805e+3, 1.9433041e+2, -1011605.2, -1040903.75, -26309.73, 0.037065282, -0.12892962, -996141.3, 39407.754, 0.0, 10.000206, 9.999815 
1.3849944e+3, 2.0432997e+2, -929416.56, -970239.6, -38436.848, 0.05912202, -0.14355211, -906307.75, 31244.693, 0.0, 10.000182, 9.999639 
1.3850076e+3, 2.1432975e+2, -844968.94, -873292.75, -45866.035, 0.027527831, -0.13631341, -811128.25, 28425.207, 0.0, 10.000065, 9.999688 
1.3850209e+3, 2.243291e+2, -807946.06, -884908.6, -55626.79, 0.013529499, -0.13262948, -778787.5, -37227.695, 0.0, 9.999995, 9.998968 
1.3850343e+3, 2.3432797e+2, -709394.06, -784562.1, -50480.473, 0.021483287, -0.14364575, -684042.9, -40470.215, 0.0, 9.999991, 9.998985 
1.3850477e+3, 2.4432705e+2, -601354.44, -663322.44, -53587.27, 0.041603472, -0.13939242, -570438.5, -24856.53, 0.0, 9.999983, 9.999147 
1.3850611e+3, 2.543264e+2, -500915.6, -555824.5, -58688.004, 0.07754115, -0.12644368, -463577.84, -15991.615, 0.0, 9.999963, 9.999222 
1.3850744e+3, 2.643252e+2, -450474.0, -547664.94, -42050.37, 0.07599035, -0.13988282, -434806.3, -85208.836, 0.0, 9.999925, 9.998624 
1.3850875e+3, 2.743233e+2, -359305.44, -450850.94, -38774.598, 0.022239257, -0.19455191, -345089.75, -93472.66, 0.0, 9.999867, 9.998643 
1.385101e+3, 2.843222e+2, -275896.3, -359967.13, -31576.875, -0.0020274383, -0.16501085, -265357.25, -111728.42, 0.0, 9.999768, 9.998642 
1.3851148e+3, 2.9432207e+2, -194583.0, -261796.73, -25098.604, 0.022220468, -0.05039816, -186245.13, -130613.92, 0.0, 9.999619, 9.998714 
1.3851291e+3, 3.0431983e+2, -132748.86, -156503.05, -24106.95, 0.083373874, -0.16389413, -117751.984, -117751.984, 0.0, 9.99949, 9.999168 
1.3851428e+3, 3.1431937e+2, -57537.996, 28424.803, -27194.45, 0.07863578, -0.13848351, 36305.363, 36305.363, 0.0, 9.999361, 10.000502 
1.3948834e+3, 1.24317616e+2, -1594002.5, -1734691.3, 56690.215, -0.07757608, -0.20755684, -1574002.4, 147668.25, 0.008733579, 10.001179, 9.999295 
1.3948974e+3, 1.3431773e+2, -1548812.3, -1663196.4, -104530.77, 0.09007622, -0.118781865, -1486850.6, 136820.67, 0.005033633, 10.000809, 9.999296 
1.394909e+3, 1.4431627e+2, -1442666.3, -1504347.4, -24328.607, -0.08142073, -0.21891204, -1434225.5, 91460.766, 0.002076125, 10.000618, 9.999801 
1.3949244e+3, 1.5431708e+2, -1335196.1, -1398213.5, -7073.8022, 0.0035620457, -0.120956324, -1334411.8, 93266.79, 0.00048381835, 10.000668, 9.999831 
1.3949387e+3, 1.6431701e+2, -1268596.6, -1341838.4, -12440.662, 0.023746897, -0.09534785, -1266541.1, 63138.09, 0.000034571214, 10.000565, 9.999597 
1.3949521e+3, 1.7431608e+2, -1206997.4, -1255253.9, -18122.51, -0.030014312, -0.15456219, -1200949.5, 30738.703, 0.00000005013657, 10.000289, 9.99965 
1.394966e+3, 1.8431549e+2, -1119795.8, -1148216.0, -26172.652, -0.041629177, -0.18269241, -1104224.4, 29469.283, 0.0, 10.000153, 9.999777 
1.3949804e+3, 1.9431531e+2, -1009037.44, -1036002.75, -24484.664, 0.0012388156, -0.18658893, -994568.7, 41125.914, 0.0, 10.000206, 9.999848 
1.3949943e+3, 2.0431502e+2, -939943.8, -991560.06, -43491.195, 0.021274773, -0.18028045, -915179.75, 22517.1, 0.0, 10.000179, 9.999494 
1.3950075e+3, 2.1431467e+2, -856098.75, -896252.25, -50288.145, 0.013104288, -0.16961345, -822027.8, 17672.49, 0.0, 10.000064, 9.999532 
1.395021e+3, 2.243141e+2, -797180.8, -862436.6, -57130.67, 0.0074509205, -0.1584924, -764017.44, -22310.93, 0.0, 9.999992, 9.999125 
1.395034e+3, 2.3431326e+2, -697353.75, -758981.94, -50219.793, 0.004588837, -0.1572298, -669248.1, -25532.195, 0.0, 9.999988, 9.999164 
1.3950475e+3, 2.4431252e+2, -607864.25, -675876.3, -54481.82, 0.019712456, -0.13926516, -577646.6, -31923.225, 0.0, 9.999978, 9.999064 
1.3950609e+3, 2.5431195e+2, -508561.3, -571074.9, -58262.836, 0.058251213, -0.11034733, -473700.44, -25972.416, 0.0, 9.999959, 9.99912 
1.3950743e+3, 2.6431072e+2, -445607.22, -537554.5, -43354.77, 0.071411744, -0.12171344, -428389.0, -78649.41, 0.0, 9.999923, 9.998694 
1.3950878e+3, 2.7430877e+2, -354077.66, -438614.4, -38710.027, 0.05224553, -0.19093731, -339030.4, -87271.22, 0.0, 9.999861, 9.998731 
1.3951011e+3, 2.8430763e+2, -260214.31, -327658.16, -36308.938, 0.041164886, -0.18342105, -244383.16, -90612.67, 0.0, 9.999767, 9.998865 
1.3951147e+3, 2.943074e+2, -179761.47, -230645.42, -28755.424, 0.042522013, -0.10116352, -166808.55, -111036.49, 0.0, 9.999615, 9.998931 
1.3951287e+3, 3.0430505e+2, -186960.55, -269429.3, -28688.682, 0.0885101, -0.19915916, -177962.33, -177962.33, 0.0, 9.999491, 9.998392 
1.3951422e+3, 3.14304e+2, -87890.57, -32282.88, -30275.658, 0.06979459, -0.15091175, -18981.139, -18981.139, 0.0, 9.999351, 10.000089 
1.4048849e+3, 1.2430357e+2, -1617065.8, -1765667.9, 87267.42, -0.05434131, -0.2028941, -1576753.4, 145054.73, 0.009133226, 10.001104, 9.99912 
1.4048982e+3, 1.3430355e+2, -1503554.4, -1649439.6, -37927.125, 0.07837591, -0.11737063, -1494283.4, 129526.664, 0.005275387, 10.001157, 9.999222 
1.4049096e+3, 1.44302e+2, -1387016.6, -1474935.4, 43858.977, -0.094654284, -0.22620296, -1368879.0, 156947.0, 0.0021822979, 10.000991, 9.999823 
1.404925e+3, 1.5430288e+2, -1346434.1, -1399889.1, 18884.791, 0.0033610165, -0.12397139, -1340435.5, 87381.36, 0.00051218417, 10.000576, 9.999864 
1.4049391e+3, 1.6430272e+2, -1293692.8, -1357137.6, 132.9079, 0.032102935, -0.10874513, -1293692.5, 36125.45, 0.000037386584, 10.000407, 9.999566 
1.4049527e+3, 1.7430148e+2, -1167448.8, -1240273.0, 3888.8904, -0.015899295, -0.19737826, -1167241.6, 64588.18, 0.00000006103049, 10.000578, 9.999614 
1.4049664e+3, 1.8430085e+2, -1058270.9, -1121896.5, 142.31337, -0.032767728, -0.2231954, -1058270.5, 75564.89, 0.0, 10.00059, 9.999746 
1.4049804e+3, 1.9430108e+2, -982470.3, -1026200.6, -4536.7656, -0.013803876, -0.18289621, -982004.6, 53828.215, 0.0, 10.000403, 9.999821 
1.4049941e+3, 2.0430085e+2, -940714.94, -1004948.3, -26509.2, -0.0025191612, -0.1643589, -931187.6, 6647.4473, 0.0, 10.000232, 9.999376 
1.4050074e+3, 2.1430008e+2, -860739.7, -911742.94, -31641.678, 0.00041070703, -0.18391381, -845602.3, -5759.1445, 0.0, 10.0000925, 9.999409 
1.4050208e+3, 2.242994e+2, -784220.06, -837748.7, -32463.182, 0.006540228, -0.18345536, -768910.8, -27060.783, 0.0, 10.000005, 9.999287 
1.4050342e+3, 2.3429891e+2, -686548.6, -734004.2, -26652.69, 0.014530645, -0.16616395, -674592.06, -30737.361, 0.0, 9.999976, 9.99934 
1.4050475e+3, 2.4429822e+2, -612078.44, -688845.4, -28899.846, 0.0270335, -0.1507839, -602415.1, -56553.613, 0.0, 9.999994, 9.998968 
1.4050607e+3, 2.542972e+2, -499306.4, -579405.0, -35399.19, 0.04519669, -0.15174235, -485904.34, -38033.332, 0.0, 10.000078, 9.999005 
1.4050741e+3, 2.64296e+2, -428686.88, -529561.06, -29058.7, 0.056473255, -0.15718271, -420914.78, -71031.67, 0.0, 10.000041, 9.998692 
1.4050877e+3, 2.7429458e+2, -355558.75, -437777.97, -32658.129, 0.05877789, -0.1717119, -344165.47, -92268.09, 0.0, 9.999846, 9.998742 
1.405101e+3, 2.8429347e+2, -269354.3, -331658.63, -38772.637, 0.05462246, -0.15862358, -250769.42, -96861.49, 0.0, 9.999703, 9.998868 
1.4051142e+3, 2.9429266e+2, -177216.03, -229916.42, -48499.703, 0.045555543, -0.13636357, -148370.63, -92455.81, 0.0, 9.999633, 9.998927 
1.4051282e+3, 3.0429035e+2, -184101.25, -301047.75, -34925.953, 0.0914198, -0.21810016, -174464.7, -174464.7, 0.0, 9.999653, 9.998097 
1.4051417e+3, 3.1428906e+2, -21994.297, 1468.8606, -6422.4917, 0.06835107, -0.16051872, 3111.8228, 3111.8228, 0.0, 9.999795, 10.000108 
1.4148866e+3, 1.24290146e+2, -1602071.3, -1731742.0, 80759.15, 0.011325989, -0.19460939, -1563341.9, 158597.58, 0.009556688, 10.001092, 9.999359 
1.4148992e+3, 1.3429083e+2, -1477967.3, -1595312.8, -35430.395, 0.06642401, -0.075420246, -1468099.5, 155833.25, 0.0055341963, 10.001154, 9.999595 
1.4149103e+3, 1.4428906e+2, -1418699.1, -1542560.9, 27781.361, -0.13926734, -0.20288557, -1412753.4, 113196.766, 0.0022969088, 10.000997, 9.999356 
1.4149252e+3, 1.5428875e+2, -1383875.4, -1477228.9, 3428.926, -0.023306789, -0.16753413, -1383749.6, 44204.16, 0.0005425403, 10.000573, 9.999334 
1.4149396e+3, 1.6428813e+2, -1290598.6, -1349654.0, 3598.8413, 0.02191312, -0.17290749, -1290380.1, 39579.69, 0.000040406845, 10.0004015, 9.99962 
1.4149535e+3, 1.7428732e+2, -1160029.0, -1225879.4, 10331.209, 0.0035694859, -0.22671175, -1158446.1, 73520.99, 0.00000007226826, 10.000582, 9.999711 
1.4149673e+3, 1.8428715e+2, -1064075.3, -1134858.5, -7169.2217, -0.005031555, -0.2103838, -1063356.4, 70612.46, 0.0, 10.000593, 9.999657 
1.4149809e+3, 1.9428779e+2, -989448.4, -1041258.06, -11769.76, -0.010564683, -0.11681513, -986899.94, 49063.293, 0.0, 10.000404, 9.999718 
1.4149943e+3, 2.042875e+2, -947241.44, -1018109.44, -33148.305, -0.015250799, -0.09538328, -934153.5, 3813.223, 0.0, 10.000229, 9.999288 
1.4150074e+3, 2.14286e+2, -867276.56, -924888.1, -36750.58, -0.013896993, -0.17957965, -849387.8, -9406.038, 0.0, 10.000089, 9.999322 
1.4150208e+3, 2.2428505e+2, -773981.9, -815196.8, -34502.125, 0.005931279, -0.20798883, -754401.5, -12411.364, 0.0, 9.999998, 9.999445 
1.4150345e+3, 2.3428495e+2, -674030.2, -708343.3, -27131.408, 0.04905332, -0.1711412, -659085.94, -15097.022, 0.0, 9.999976, 9.999517 
1.4150478e+3, 2.442841e+2, -620205.4, -705896.94, -26134.422, 0.060903862, -0.17495969, -612863.8, -66867.5, 0.0, 9.999994, 9.998852 
1.4150608e+3, 2.5428227e+2, -509856.53, -600193.1, -31206.172, 0.033881973, -0.2465817, -500124.9, -52110.176, 0.0, 10.000072, 9.998866 
1.415074e+3, 2.64281e+2, -435043.22, -542259.56, -35233.043, 0.025889553, -0.24223806, -424501.53, -74473.79, 0.0, 10.000037, 9.998607 
1.4150873e+3, 2.742807e+2, -361371.6, -450108.56, -38365.984, 0.038090385, -0.14069803, -347084.22, -95051.984, 0.0, 9.999846, 9.998658 
1.4151004e+3, 2.842798e+2, -281516.66, -357779.34, -41084.94, 0.035070147, -0.09562206, -263594.7, -109553.016, 0.0, 9.999706, 9.998688 
1.4151137e+3, 2.94278e+2, -191812.77, -258943.44, -48232.52, 0.025805674, -0.15128298, -166615.81, -110557.125, 0.0, 9.999626, 9.998733 
1.4151278e+3, 3.0427578e+2, -175532.67, -283258.22, -28571.895, 0.0852045, -0.2136513, -168423.72, -168423.72, 0.0, 9.999651, 9.998221 
1.4151415e+3, 3.1427455e+2, 158.31209, 49221.82, -2374.392, 0.06461664, -0.17056116, 49336.46, 49336.46, 0.0, 9.999786, 10.000441 
1.4248876e+3, 1.2427626e+2, -1571325.9, -1714658.9, 56350.48, -0.011115716, -0.20386928, -1551825.1, 170250.1, 0.010011913, 10.001296, 9.999377 
1.4249004e+3, 1.3427721e+2, -1466179.8, -1574684.8, -72331.4, 0.07036616, -0.07161478, -1430015.6, 194049.92, 0.0058154534, 10.00117, 9.999729 
1.4249113e+3, 1.4427538e+2, -1422322.8, -1562550.4, -15701.1, -0.12563524, -0.20436333, -1420586.3, 105497.12, 0.002423067, 10.001053, 9.99919 
1.4249259e+3, 1.542747e+2, -1334604.1, -1474699.5, -16841.986, -0.032413073, -0.18729325, -1332607.9, 95482.914, 0.00057589856, 10.001003, 9.999145 
1.4249401e+3, 1.6427405e+2, -1222546.5, -1322039.5, 3072.5217, 0.0065796794, -0.1835365, -1222451.8, 107645.92, 0.00004378684, 10.000893, 9.999573 
1.4249541e+3, 1.7427363e+2, -1145994.6, -1222432.0, -994.1118, 0.0044110273, -0.1941796, -1145981.6, 86119.89, 0.00000008454083, 10.000695, 9.999678 
1.424968e+3, 1.8427347e+2, -1089011.9, -1154500.8, -30302.178, 0.0038602543, -0.1706042, -1077142.1, 56961.19, 0.0, 10.000458, 9.999586 
1.4249812e+3, 1.9427367e+2, -1024853.2, -1066086.5, -34139.906, -0.005383514, -0.115918085, -1005587.75, 30514.555, 0.0, 10.000196, 9.999646 
1.4249943e+3, 2.0427325e+2, -959575.9, -1018018.06, -40197.8, -0.015523211, -0.10396177, -939100.5, -993.7576, 0.0, 10.000118, 9.999341 
1.4250076e+3, 2.1427213e+2, -835576.5, -902785.7, -33652.004, -0.023857655, -0.15687813, -821623.5, 18494.354, 0.0, 10.000277, 9.999383 
1.4250208e+3, 2.2427121e+2, -732279.6, -795669.75, -33925.543, -0.003854492, -0.18617892, -717547.1, 24578.355, 0.0, 10.000285, 9.999441 
1.4250346e+3, 2.3427065e+2, -656143.56, -699824.9, -42268.004, 0.052050274, -0.19484854, -630406.94, 13721.202, 0.0, 10.0001, 9.999515 
1.4250478e+3, 2.4426965e+2, -628163.06, -713996.06, -42172.797, 0.06910003, -0.20961176, -610910.06, -64773.53, 0.0, 9.999958, 9.998813 
1.4250608e+3, 2.5426814e+2, -541963.06, -619891.3, -40787.305, 0.036835648, -0.24351846, -524519.7, -76367.72, 0.0, 9.999869, 9.998828 
1.4250739e+3, 2.6426694e+2, -457959.63, -552536.5, -37072.742, 0.026267627, -0.23315364, -445159.9, -94995.61, 0.0, 9.999876, 9.998614 
1.4250872e+3, 2.7426624e+2, -335600.16, -436733.0, -34931.97, 0.038801868, -0.1726124, -324707.6, -72535.94, 0.0, 10.000016, 9.99867 
1.4251003e+3, 2.8426507e+2, -252309.72, -360849.44, -37568.043, 0.029690912, -0.14672075, -240575.2, -86391.56, 0.0, 9.99998, 9.998535 
1.4251132e+3, 2.942633e+2, -191909.48, -277320.8, -46340.496, 0.0073560383, -0.18501987, -171597.56, -115395.68, 0.0, 9.999706, 9.998567 
1.4251274e+3, 3.042617e+2, -179439.61, -264867.2, -13507.992, 0.07687364, -0.18477662, -177354.6, -177354.6, 0.0, 9.9995365, 9.998402 
1.4251414e+3, 3.142601e+2, -21779.064, 65437.625, 13051.346, 0.08971193, -0.1991566, 67348.79, 67348.79, 0.0, 9.999518, 10.00068 
1.4348876e+3, 1.2426192e+2, -1587015.0, -1745131.5, 43528.785, -0.12919492, -0.23444563, -1575823.8, 146391.5, 0.010506618, 10.0012865, 9.999172 
1.4349017e+3, 1.3426273e+2, -1474563.5, -1589683.6, -77335.94, 0.083649114, -0.106864356, -1435718.1, 188489.72, 0.006123269, 10.001163, 9.99963 
1.4349131e+3, 1.4426099e+2, -1414317.0, -1545800.5, -20351.719, -0.060151357, -0.23145096, -1411238.9, 114986.3, 0.002563054, 10.001051, 9.999308 
1.4349268e+3, 1.5426075e+2, -1323641.0, -1453188.1, -18838.88, -0.02624906, -0.18333286, -1320957.0, 107270.73, 0.0006133788, 10.001007, 9.99929 
1.4349407e+3, 1.6426052e+2, -1232783.1, -1344286.3, -5676.687, -0.017498031, -0.13809927, -1232494.9, 97735.73, 0.000047750204, 10.000896, 9.999418 
1.4349546e+3, 1.7426044e+2, -1158623.8, -1248400.3, -8810.545, -0.016767204, -0.09787173, -1157767.3, 74465.23, 0.00000010052836, 10.000693, 9.9995 
1.4349683e+3, 1.8425988e+2, -1093215.3, -1162704.4, -41606.957, -0.010443732, -0.102630146, -1073753.5, 60484.99, 0.0, 10.000454, 9.999533 
1.4349814e+3, 1.942587e+2, -1027588.8, -1072491.4, -43980.605, -0.0018496109, -0.18209134, -1000660.44, 35589.477, 0.0, 10.000197, 9.999602 
1.4349946e+3, 2.0425813e+2, -947212.2, -991623.2, -36175.29, -0.008282933, -0.19119385, -926970.8, 11284.235, 0.0, 10.000114, 9.999524 
1.4350078e+3, 2.1425848e+2, -821522.2, -873754.6, -27344.53, -0.03144875, -0.11636825, -809826.0, 30425.2, 0.0, 10.000276, 9.999583 
1.435021e+3, 2.2425787e+2, -744167.6, -820077.7, -40773.01, -0.024541687, -0.1186515, -726417.9, 15838.12, 0.0, 10.000283, 9.999275 
1.4350343e+3, 2.3425603e+2, -670382.75, -729040.56, -48688.676, 0.020399678, -0.23604992, -642871.8, 1400.2064, 0.0, 10.000097, 9.999316 
1.4350475e+3, 2.4425492e+2, -625868.4, -708478.2, -45827.934, 0.04681897, -0.25366458, -605478.1, -59196.164, 0.0, 9.999953, 9.998854 
1.4350608e+3, 2.5425488e+2, -537793.44, -611691.56, -42966.254, 0.05046515, -0.14707273, -518073.88, -69790.94, 0.0, 9.99987, 9.998885 
1.4350739e+3, 2.642538e+2, -450305.34, -536843.4, -31723.99, 0.05473994, -0.13468422, -439921.6, -89628.555, 0.0, 9.999876, 9.998723 
1.4350875e+3, 2.7425128e+2, -329106.13, -421472.56, -27467.299, 0.056438204, -0.2614621, -321555.34, -69240.44, 0.0, 10.000007, 9.998779 
1.4351003e+3, 2.8424942e+2, -263931.6, -383961.16, -45524.64, 0.032223634, -0.3040957, -248618.64, -94285.59, 0.0, 9.999974, 9.99838 
1.4351125e+3, 2.942485e+2, -205184.92, -305272.63, -54446.707, -0.016762925, -0.24061823, -181277.22, -124932.195, 0.0, 9.999706, 9.998375 
1.4351267e+3, 3.04248e+2, -158115.64, -221653.47, -14619.484, 0.061383024, -0.13584283, -154913.23, -154913.23, 0.0, 9.99954, 9.998696 
1.4351414e+3, 3.1424597e+2, -12909.087, 87242.85, 11678.815, 0.1355913, -0.22438866, 88586.695, 88586.695, 0.0, 9.999504, 10.000838 
1.4448887e+3, 1.2424829e+2, -1613834.6, -1775707.1, 65144.715, -0.1551637, -0.22999848, -1590874.3, 131474.33, 0.011047917, 10.001179, 9.999014 
1.4449029e+3, 1.3424885e+2, -1481917.6, -1599969.1, -49387.215, 0.08481023, -0.11996856, -1463981.4, 160362.3, 0.00646129, 10.001142, 9.999567 
1.4449143e+3, 1.4424706e+2, -1387096.3, -1524476.6, 14552.799, -0.04655482, -0.24936932, -1385571.6, 140789.9, 0.0027186894, 10.0012045, 9.999378 
1.4449282e+3, 1.5424702e+2, -1260152.6, -1412277.6, 11606.741, -0.01822664, -0.19313426, -1259272.1, 169089.6, 0.0006559602, 10.001402, 9.99938 
1.4449416e+3, 1.6424681e+2, -1195660.8, -1335238.4, 7284.1353, -0.016985573, -0.1454637, -1195281.6, 135082.4, 0.000052490832, 10.001194, 9.999334 
1.444955e+3, 1.7424655e+2, -1196264.3, -1277847.3, 6043.1636, -0.023804182, -0.11272836, -1195819.0, 36548.793, 0.00000012546444, 10.000485, 9.999397 
1.4449684e+3, 1.8424587e+2, -1135900.1, -1188659.1, -6806.9824, -0.015560379, -0.121504016, -1135036.0, -660.81647, 0.0, 10.000185, 9.999483 
1.4449818e+3, 1.9424468e+2, -997612.94, -1062929.3, -9795.707, 0.002702982, -0.19677953, -996175.5, 40211.313, 0.0, 10.000426, 9.999557 
1.444995e+3, 2.042441e+2, -902264.94, -963113.56, -9315.247, 0.0033049954, -0.20787375, -900870.8, 37520.992, 0.0, 10.000395, 9.999584 
1.445008e+3, 2.1424441e+2, -856488.4, -882639.44, -12174.335, -0.015985863, -0.14416453, -851698.2, -11310.745, 0.0, 10.000004, 9.999652 
1.4450212e+3, 2.2424383e+2, -818339.56, -876445.56, -26806.229, -0.016099444, -0.13740002, -807862.2, -65470.04, 0.0, 9.999864, 9.999089 
1.4450343e+3, 2.3424216e+2, -691460.94, -762656.75, -36868.54, 0.0064382763, -0.2171416, -675809.44, -31401.104, 0.0, 10.000054, 9.999106 
1.4450476e+3, 2.4424104e+2, -591565.75, -688266.8, -34731.03, 0.030992225, -0.22603936, -580384.6, -33965.76, 0.0, 10.000172, 9.998888 
1.445061e+3, 2.5424075e+2, -486873.13, -581280.56, -34229.94, 0.05897208, -0.15121363, -475768.34, -27347.244, 0.0, 10.000193, 9.998939 
1.4450741e+3, 2.6423952e+2, -428799.75, -522172.44, -30411.95, 0.06994501, -0.15428852, -419768.03, -69336.59, 0.0, 10.000004, 9.998762 
1.4450872e+3, 2.7423716e+2, -395961.7, -448693.97, -33152.91, 0.05583228, -0.27436137, -379968.78, -127516.67, 0.0, 9.999527, 9.998822 
1.4451e+3, 2.8423527e+2, -331638.88, -417285.13, -34688.848, 0.029292883, -0.32227054, -319351.78, -164881.39, 0.0, 9.999512, 9.998373 
1.4451127e+3, 2.9423413e+2, -145736.98, -278782.5, -31824.766, -0.004476633, -0.2777008, -138516.33, -82032.086, 0.0, 10.000122, 9.998357 
1.4451265e+3, 3.0423403e+2, -78429.74, -166622.9, -13932.752, 0.071195, -0.13884407, -76281.0, -76281.0, 0.0, 10.000017, 9.998844 
1.4451405e+3, 3.142319e+2, -102154.586, 30110.096, -10068.202, 0.12726234, -0.2539401, 30872.115, 30872.115, 0.0, 9.998953, 10.00071 
1.4548904e+3, 1.2423547e+2, -1622850.5, -1794748.8, 53420.67, -0.09403341, -0.1875576, -1607601.8, 114872.195, 0.011640448, 10.001178, 9.998884 
1.4549038e+3, 1.3423567e+2, -1485474.0, -1606849.0, -50360.04, 0.0723916, -0.11100006, -1467300.1, 157172.25, 0.0068325973, 10.001139, 9.999522 
1.4549151e+3, 1.442337e+2, -1385412.4, -1520081.0, 19179.748, -0.08846368, -0.2565278, -1382734.1, 143757.31, 0.0028915813, 10.001202, 9.99941 
1.4549297e+3, 1.5423353e+2, -1257978.9, -1406673.5, 19305.146, -0.013834665, -0.21622248, -1255513.4, 172978.81, 0.00070428615, 10.001398, 9.999419 
1.4549431e+3, 1.6423297e+2, -1197394.1, -1340628.3, -18650.338, 0.0014191336, -0.2050534, -1195005.5, 135491.84, 0.000058062662, 10.001198, 9.999297 
1.4549556e+3, 1.7423196e+2, -1198160.0, -1283492.9, -20599.752, -0.020459877, -0.24193476, -1193447.4, 39060.113, 0.00000016567238, 10.00049, 9.999358 
1.4549686e+3, 1.8423146e+2, -1140097.1, -1196807.0, -1408.0599, -0.016943567, -0.2288141, -1140062.3, -5548.8896, 0.0, 10.000182, 9.999429 
1.4549823e+3, 1.9423166e+2, -1001284.3, -1071129.1, -261.8679, 0.006533994, -0.16004197, -1001283.4, 35229.348, 0.0, 10.000428, 9.9995 
1.4549954e+3, 2.042312e+2, -907275.0, -973621.1, -23679.535, 0.017319238, -0.15312295, -899690.56, 38826.18, 0.0, 10.000394, 9.999514 
1.4550082e+3, 2.1422994e+2, -861347.06, -892894.75, -26688.828, 0.017768374, -0.24036226, -846119.2, -5592.718, 0.0, 10.000003, 9.999582 
1.4550212e+3, 2.2422913e+2, -834116.8, -907964.94, -22072.193, 0.015760371, -0.24253517, -828022.6, -85488.836, 0.0, 9.999858, 9.998877 
1.4550343e+3, 2.3422904e+2, -707057.1, -795041.9, -28843.033, 0.007914963, -0.14043166, -698444.9, -53907.62, 0.0, 10.000053, 9.998885 
1.4550476e+3, 2.4422802e+2, -590140.3, -685113.75, -33446.543, 0.020183751, -0.12893875, -579543.8, -32996.438, 0.0, 10.00017, 9.998911 
1.455061e+3, 2.542258e+2, -484611.34, -575801.75, -32036.795, 0.05933193, -0.25159726, -474481.5, -25915.506, 0.0, 10.000188, 9.99898 
1.4550741e+3, 2.6422426e+2, -431734.25, -527432.7, -46312.664, 0.06808226, -0.2874776, -412992.1, -62413.008, 0.0, 10.0, 9.998728 
1.4550865e+3, 2.7422377e+2, -398415.5, -454017.16, -49603.813, 0.03290775, -0.215759, -369353.13, -116769.39, 0.0, 9.999528, 9.998786 
1.4550994e+3, 2.842225e+2, -319951.84, -393850.2, -14076.441, 0.017769517, -0.20845392, -317361.3, -162764.84, 0.0, 9.999514, 9.998533 
1.4551131e+3, 2.942202e+2, -136811.4, -256742.86, -6197.814, 0.03914349, -0.29463652, -136491.97, -79872.695, 0.0, 10.000105, 9.998518 
1.4551269e+3, 3.0421987e+2, -80713.87, -169179.88, -47503.05, 0.10051638, -0.18908624, -60038.49, -60038.49, 0.0, 10.000007, 9.998833 
1.4551388e+3, 3.1421813e+2, -134434.25, -38577.516, -51412.668, 0.05762266, -0.26174995, -16217.97, -16217.97, 0.0, 9.99896, 10.000235 
1.4648919e+3, 1.2422225e+2, -1666736.3, -1817778.9, 59026.89, -0.058353186, -0.18673249, -1646405.4, 76196.83, 0.012283001, 10.000881, 9.998869 
1.4649051e+3, 1.3422222e+2, -1446376.3, -1584484.0, -32160.123, 0.07358658, -0.13507123, -1439254.6, 185347.83, 0.00723705, 10.001394, 9.999553 
1.4649163e+3, 1.4422034e+2, -1361245.8, -1511733.4, 22872.016, -0.10784979, -0.27250373, -1357846.3, 168774.48, 0.0030819494, 10.001387, 9.999375 
1.4649306e+3, 1.5422036e+2, -1357908.8, -1458911.0, 13285.235, -0.020720879, -0.20959689, -1356190.5, 72429.7, 0.0007585455, 10.0007305, 9.999382 
1.464944e+3, 1.6421978e+2, -1286343.8, -1378099.9, -19028.78, 0.002764783, -0.19974098, -1282554.0, 48071.496, 0.00006440502, 10.000566, 9.999344 
1.4649564e+3, 1.7421849e+2, -1109563.5, -1233967.1, -15031.655, -0.017719373, -0.27209216, -1107773.0, 124865.086, 0.00000022299002, 10.001073, 9.999415 
1.4649694e+3, 1.8421793e+2, -1017124.7, -1153565.1, 2711.8613, -0.014689117, -0.2611284, -1017070.8, 117573.49, 0.0, 10.001099, 9.999283 
1.4649826e+3, 1.942184e+2, -1004730.56, -1091196.9, -5808.236, 0.0043737288, -0.14799821, -1004342.2, 32299.418, 0.0, 10.000486, 9.999333 
1.4649959e+3, 2.0421787e+2, -945742.9, -1006841.44, -32873.336, 0.018503932, -0.1335199, -931415.5, 7231.2134, 0.0, 10.000194, 9.999382 
1.4650087e+3, 2.1421605e+2, -823505.3, -889503.3, -41951.61, 0.030614913, -0.2624538, -803129.5, 37532.23, 0.0, 10.000327, 9.99945 
1.4650217e+3, 2.2421505e+2, -764359.4, -875013.25, -26711.37, 0.035820633, -0.27659762, -758248.8, -15577.983, 0.0, 10.0003395, 9.998871 
1.4650346e+3, 2.3421524e+2, -688464.6, -785479.06, -18035.492, 0.029024797, -0.14787018, -685220.25, -40548.836, 0.0, 10.000178, 9.99889 
1.4650479e+3, 2.4421427e+2, -602981.4, -690321.1, -14367.568, 0.033172075, -0.1324351, -600678.56, -53997.582, 0.0, 10.000079, 9.998919 
1.4650612e+3, 2.5421178e+2, -503691.44, -584044.3, -16871.348, 0.052016735, -0.2810113, -500292.78, -51590.766, 0.0, 10.000054, 9.998986 
1.465074e+3, 2.6421025e+2, -432171.34, -546651.06, -42436.082, 0.055779967, -0.30872995, -418156.56, -67440.75, 0.0, 10.000079, 9.998557 
1.4650863e+3, 2.7421013e+2, -317577.84, -436287.44, -59138.8, 0.036766656, -0.18453291, -293144.88, -40425.816, 0.0, 10.000173, 9.998597 
1.4650993e+3, 2.8420898e+2, -244656.5, -315427.75, -20212.8, 0.034959752, -0.16816045, -239290.44, -84560.25, 0.0, 9.999849, 9.99891 
1.4651129e+3, 2.9420668e+2, -271455.7, -273793.56, 4389.0767, 0.065370895, -0.30238786, -268082.56, -211331.75, 0.0, 9.998976, 9.998942 
1.4651263e+3, 3.042063e+2, -232890.23, -240587.52, -16682.852, 0.109144874, -0.22195473, -219617.84, -219617.84, 0.0, 9.998954, 9.998848 
1.465138e+3, 3.1420475e+2, -4174.9688, -25093.0, -26192.844, 0.035114113, -0.27414918, 13569.847, 13569.847, 0.0, 10.000068, 9.999792 
1.4748928e+3, 1.24208696e+2, -1660580.3, -1802286.8, 68697.85, -0.049547326, -0.22510475, -1632744.3, 89988.17, 0.012969934, 10.00087, 9.998981 
1.4749065e+3, 1.3420862e+2, -1438105.9, -1566661.9, -12641.623, 0.08030774, -0.19244228, -1436874.5, 187858.5, 0.0076708426, 10.001392, 9.999677 
1.4749175e+3, 1.4420708e+2, -1368322.9, -1529605.3, -583.3863, -0.11486316, -0.294751, -1368320.9, 158427.77, 0.0032881629, 10.001397, 9.9992485 
1.4749311e+3, 1.5420756e+2, -1367669.3, -1479008.1, -11600.335, -0.041300498, -0.17325912, -1366473.5, 62271.88, 0.00081847684, 10.000728, 9.999247 
1.4749444e+3, 1.6420732e+2, -1278211.3, -1359808.5, -5043.5, -0.016871931, -0.12765224, -1277900.6, 52847.58, 0.000071419374, 10.000559, 9.999473 
1.4749575e+3, 1.7420617e+2, -1098794.8, -1212380.0, 4261.7993, -0.019242665, -0.20112039, -1098635.1, 134123.67, 0.0000002932695, 10.001076, 9.999562 
1.4749704e+3, 1.8420531e+2, -1033357.44, -1189170.0, -18447.176, -0.013730574, -0.21641967, -1031203.2, 103564.43, 0.0, 10.001104, 9.999036 
1.4749831e+3, 1.9420493e+2, -1023527.44, -1131835.4, -28945.45, -0.008016256, -0.16146395, -1016277.06, 20496.178, 0.0, 10.00049, 9.999053 
1.4749959e+3, 2.042041e+2, -960875.3, -1037231.75, -31011.334, 0.0015115374, -0.15046306, -949867.4, -11085.808, 0.0, 10.000189, 9.999176 
1.4750087e+3, 2.1420278e+2, -837472.94, -918495.8, -36501.703, 0.020278864, -0.21092115, -823454.06, 17338.928, 0.0, 10.000327, 9.999251 
1.475022e+3, 2.2420162e+2, -751552.5, -848056.1, -32641.75, 0.042386927, -0.23955037, -741548.7, 1254.3865, 0.0, 10.000337, 9.999059 
1.4750351e+3, 2.3420076e+2, -673131.06, -753540.75, -23305.3, 0.06587297, -0.23717728, -666864.75, -22054.098, 0.0, 10.000177, 9.99911 
1.4750482e+3, 2.4419975e+2, -604865.4, -692901.3, -15716.224, 0.06555793, -0.2351989, -602143.8, -55324.215, 0.0, 10.0000725, 9.998904 
1.4750609e+3, 2.5419864e+2, -506767.13, -588927.4, -16562.264, 0.03368448, -0.2422959, -503554.06, -54724.598, 0.0, 10.000048, 9.998957 
1.4750738e+3, 2.6419747e+2, -453887.63, -591198.75, -38417.895, 0.030481035, -0.2217096, -443869.66, -93027.664, 0.0, 10.000075, 9.998255 
1.4750868e+3, 2.7419618e+2, -342354.63, -485724.53, -53353.906, 0.06308375, -0.17811602, -324678.66, -71820.836, 0.0, 10.000163, 9.998263 
1.4750995e+3, 2.841948e+2, -205512.8, -233071.81, -49518.81, 0.07586627, -0.19652756, -167892.05, -13020.957, 0.0, 9.999845, 9.999478 
1.475112e+3, 2.941934e+2, -225628.97, -179570.03, -26875.785, 0.07008351, -0.3010111, -167206.5, -110327.25, 0.0, 9.99898, 9.999589 
1.4751253e+3, 3.0419323e+2, -226714.8, -230076.13, 19936.95, 0.09417514, -0.24016787, -208387.8, -208387.8, 0.0, 9.998961, 9.998918 
1.4751382e+3, 3.1419194e+2, -34348.54, -83348.74, 15987.906, 0.04819726, -0.26838237, -29593.416, -29593.416, 0.0, 10.000048, 9.999402 
1.4848939e+3, 1.2419468e+2, -1572187.3, -1755379.6, 44727.59, -0.06437155, -0.2735591, -1561850.1, 161017.73, 0.013700743, 10.001471, 9.999012 
1.4849079e+3, 1.3419493e+2, -1451531.9, -1571269.1, -39471.16, 0.07935393, -0.21045785, -1439691.1, 185174.52, 0.00813248, 10.001292, 9.999694 
1.4849189e+3, 1.4419362e+2, -1387030.0, -1540196.4, -41372.29, -0.112786256, -0.28984082, -1376569.1, 150310.1, 0.0035089266, 10.001276, 9.999235 
1.4849323e+3, 1.5419382e+2, -1257507.8, -1426165.8, -44849.875, -0.026685808, -0.19526228, -1246322.9, 182555.94, 0.0008836724, 10.001488, 9.999242 
1.4849454e+3, 1.6419356e+2, -1180174.6, -1323927.5, -35757.637, -0.00071038294, -0.14613508, -1171771.4, 159110.98, 0.00007901186, 10.001285, 9.999368 
1.4849582e+3, 1.7419273e+2, -1184267.1, -1266605.3, -47967.387, -0.017459188, -0.1761904, -1162224.1, 70666.8, 0.00000037325287, 10.0005455, 9.999445 
1.484971e+3, 1.841919e+2, -1145926.1, -1226014.1, -68189.39, -0.016335761, -0.18933287, -1106892.1, 28007.283, 0.0, 10.0002575, 9.999191 
1.4849837e+3, 1.9419116e+2, -997161.5, -1098577.3, -45714.29, -0.0037242314, -0.18608579, -979597.25, 57309.566, 0.0, 10.000586, 9.999234 
1.4849964e+3, 2.0419031e+2, -904694.8, -1030224.0, -24668.543, 0.007356196, -0.18146923, -900021.06, 38894.434, 0.0, 10.000663, 9.998994 
1.4850092e+3, 2.141893e+2, -843587.0, -945776.94, -32571.842, 0.019911885, -0.18751149, -834088.06, 6837.446, 0.0, 10.000391, 9.999032 
1.4850222e+3, 2.2418813e+2, -758721.9, -831551.0, -30635.611, 0.044346165, -0.21170135, -747549.06, -4613.4775, 0.0, 10.000203, 9.999235 
1.4850356e+3, 2.3418686e+2, -665732.2, -727315.2, -24284.992, 0.08065091, -0.272851, -657307.94, -12362.76, 0.0, 10.000132, 9.999312 
1.4850485e+3, 2.4418582e+2, -619823.75, -711996.9, -19181.004, 0.08252521, -0.2811131, -615991.56, -69037.46, 0.0, 10.000022, 9.998796 
1.4850609e+3, 2.541852e+2, -545067.3, -622928.1, -30002.586, 0.03834, -0.2269279, -534847.6, -85886.37, 0.0, 9.999852, 9.9988165 
1.4850737e+3, 2.6418412e+2, -500064.53, -599230.94, -38582.227, 0.030817501, -0.19456802, -486821.94, -135848.36, 0.0, 9.999699, 9.99838 
1.4850867e+3, 2.741824e+2, -417481.2, -504975.84, -19159.568, 0.06951762, -0.20653628, -413469.56, -160477.05, 0.0, 9.999577, 9.998413 
1.4850992e+3, 2.8418103e+2, -249065.67, -267233.38, -27920.0, 0.08137872, -0.22671916, -228788.95, -73783.21, 0.0, 9.999604, 9.999358 
1.4851113e+3, 2.9418018e+2, -111091.39, -140984.66, -66385.88, 0.065400384, -0.26210028, -57990.344, -980.5131, 0.0, 9.999839, 9.999439 
1.4851244e+3, 3.0417985e+2, -108817.49, -148008.45, -28295.215, 0.08388739, -0.22299328, -93994.92, -93994.92, 0.0, 9.999663, 9.999143 
1.485138e+3, 3.1417885e+2, -198732.6, -157505.83, -17008.887, 0.0721441, -0.24286176, -151394.44, -151394.44, 0.0, 9.9988985, 9.999445 
1.4948948e+3, 1.2418031e+2, -1577675.8, -1766979.1, 26977.652, -0.11019774, -0.32686874, -1573906.3, 149101.11, 0.014485369, 10.001473, 9.99893 
1.4949091e+3, 1.3418122e+2, -1461212.1, -1589835.8, -46694.547, 0.070600584, -0.18814254, -1446048.3, 178951.77, 0.008627366, 10.0012865, 9.999568 
1.4949203e+3, 1.4418001e+2, -1379040.0, -1523579.4, -36885.98, -0.10216676, -0.25541508, -1370171.0, 156841.36, 0.0037456865, 10.001275, 9.99935 
1.4949343e+3, 1.5417917e+2, -1247516.9, -1406736.1, -36976.56, 0.017930215, -0.27633956, -1239348.6, 189671.52, 0.0009542572, 10.0014925, 9.999373 
1.4949471e+3, 1.6417855e+2, -1203815.5, -1375161.0, -62704.934, 0.04436612, -0.2559177, -1183319.9, 147707.61, 0.00008722728, 10.001292, 9.999013 
1.4949588e+3, 1.741782e+2, -1212248.0, -1324960.5, -76443.14, -0.01441936, -0.19872844, -1173632.8, 59401.363, 0.0000004647829, 10.0005455, 9.999045 
1.4949712e+3, 1.841777e+2, -1107770.4, -1145805.5, -60365.54, -0.026125493, -0.17994256, -1063497.6, 71541.98, 0.0, 10.000252, 9.999745 
1.4949843e+3, 1.9417717e+2, -951765.44, -1005332.75, -33115.766, 0.0143919755, -0.22187476, -935957.75, 101084.25, 0.0, 10.000588, 9.999874 
1.4949971e+3, 2.0417649e+2, -916411.75, -1054731.9, -34027.656, 0.033076797, -0.22673418, -908494.0, 30554.234, 0.0, 10.000663, 9.998827 
1.4950097e+3, 2.1417564e+2, -860039.3, -980053.56, -42539.03, 0.026252432, -0.19236067, -846490.8, -5431.898, 0.0, 10.000391, 9.998797 
1.4950223e+3, 2.2417465e+2, -749091.0, -810467.75, -34734.98, 0.037437115, -0.19413094, -733429.7, 9638.587, 0.0, 10.000197, 9.999383 
1.4950356e+3, 2.3417355e+2, -652955.6, -700122.0, -26368.127, 0.07077004, -0.25563678, -641163.06, 3911.8655, 0.0, 10.000129, 9.9995 
1.4950484e+3, 2.4417245e+2, -635488.5, -744152.0, -25071.924, 0.08161555, -0.27051684, -629982.6, -82898.25, 0.0, 10.000019, 9.998578 
1.495061e+3, 2.541714e+2, -563655.0, -660982.7, -34899.03, 0.06262358, -0.23316304, -552434.7, -103337.49, 0.0, 9.999849, 9.998557 
1.4950736e+3, 2.6417017e+2, -462388.7, -520434.75, -42887.33, 0.05281149, -0.22546571, -439627.0, -88516.484, 0.0, 9.999696, 9.998922 
1.4950861e+3, 2.7416876e+2, -374467.4, -415081.3, -22222.791, 0.05271383, -0.2693591, -364670.78, -111547.24, 0.0, 9.999573, 9.999032 
1.4950985e+3, 2.8416768e+2, -304378.5, -382530.16, -19389.72, 0.049012985, -0.25939402, -299832.3, -144697.69, 0.0, 9.999604, 9.998568 
1.495111e+3, 2.9416698e+2, -178387.34, -277623.28, -54859.85, 0.04627218, -0.18571973, -154035.42, -96892.88, 0.0, 9.999824, 9.998509 
1.495124e+3, 3.0416605e+2, -84743.98, -95303.63, -52835.934, 0.0724875, -0.17114018, -36924.723, -36924.723, 0.0, 9.999652, 9.999511 
1.495137e+3, 3.141655e+2, -164704.16, -86893.31, -42129.258, 0.096955486, -0.19836502, -68453.234, -68453.234, 0.0, 9.998899, 9.999929 
1.5048963e+3, 1.2416679e+2, -1551811.8, -1755538.1, 37960.25, -0.11858644, -0.3238092, -1544968.5, 178171.6, 0.015336017, 10.001658, 9.99892 
1.5049106e+3, 1.3416748e+2, -1411590.1, -1572602.9, -22713.23, 0.082674675, -0.20059167, -1408447.5, 216686.83, 0.009162785, 10.00166, 9.999507 
1.5049218e+3, 1.4416628e+2, -1346084.6, -1505152.0, -11022.041, -0.09570038, -0.26359096, -1345324.5, 181821.69, 0.0040015904, 10.001493, 9.999371 
1.5049356e+3, 1.5416542e+2, -1293151.1, -1425392.3, -20938.74, 0.023359183, -0.29170808, -1289915.0, 139239.05, 0.001031135, 10.001164, 9.999404 
1.5049484e+3, 1.6416472e+2, -1247442.8, -1404428.9, -49186.8, 0.048349876, -0.27696198, -1233304.9, 97857.04, 0.000096309515, 10.001026, 9.998941 
1.5049598e+3, 1.7416424e+2, -1132063.8, -1294778.5, -40530.086, -0.010494852, -0.22469081, -1122527.3, 110642.79, 0.000000575819, 10.001133, 9.998969 
1.504972e+3, 1.8416372e+2, -1003657.6, -1096721.6, -21565.195, -0.021101128, -0.20384243, -998903.3, 136272.47, 0.0, 10.000974, 9.999732 
1.504985e+3, 1.941633e+2, -969749.0, -1015355.5, -43912.813, 0.019007342, -0.2337451, -943071.7, 94105.64, 0.0, 10.000472, 9.999861 
1.5049976e+3, 2.0416272e+2, -966842.7, -1058460.5, -58686.8, 0.03964956, -0.23527707, -938203.0, 979.45624, 0.0, 10.000229, 9.99901 
1.5050101e+3, 2.1416199e+2, -853956.44, -954860.5, -36195.438, 0.037200887, -0.21012329, -842315.6, -1123.9095, 0.0, 10.000338, 9.998996 
1.5050226e+3, 2.2416112e+2, -732639.2, -809381.25, -18066.918, 0.043481912, -0.20697768, -728598.56, 14601.431, 0.0, 10.000341, 9.99932 
1.5050355e+3, 2.3416018e+2, -649706.5, -708531.4, -31844.223, 0.059207372, -0.24369328, -635769.8, 9436.071, 0.0, 10.0001955, 9.999411 
1.5050483e+3, 2.441591e+2, -626295.4, -733408.5, -33001.777, 0.070749104, -0.25311112, -616943.9, -69728.31, 0.0, 10.000057, 9.998632 
1.5050611e+3, 2.541579e+2, -545730.44, -645026.56, -21101.18, 0.07539328, -0.23884997, -541432.3, -92202.36, 0.0, 9.999943, 9.998621 
1.5050735e+3, 2.641567e+2, -433934.84, -491555.34, -28263.324, 0.06849733, -0.23687364, -422386.13, -71143.39, 0.0, 9.999827, 9.999057 
1.5050855e+3, 2.7415565e+2, -345684.1, -385655.88, -44252.086, 0.04444573, -0.25982305, -317114.0, -63861.953, 0.0, 9.999705, 9.999169 
1.5050979e+3, 2.8415468e+2, -327618.72, -406472.66, -34717.28, 0.03592771, -0.23638007, -314512.13, -159250.16, 0.0, 9.999501, 9.998453 
1.5051106e+3, 2.9415387e+2, -280155.2, -341580.2, -14212.578, 0.052868012, -0.16426966, -277026.1, -219753.44, 0.0, 9.99919, 9.998375 
1.5051232e+3, 3.0415243e+2, -173272.03, -140972.06, -1478.7498, 0.0702854, -0.19041447, -140904.52, -140904.52, 0.0, 9.999057, 9.999484 
1.505136e+3, 3.1415266e+2, -115148.37, -44081.26, -28379.508, 0.08260341, -0.14153278, -34139.22, -34139.22, 0.0, 9.999157, 10.000101 
1.5148982e+3, 1.24154255e+2, -1546449.1, -1742217.8, 25699.371, -0.08701353, -0.25279438, -1543131.8, 180132.72, 0.01625663, 10.001652, 9.999015 
1.5149125e+3, 1.341538e+2, -1409876.4, -1569050.5, -22423.555, 0.11033232, -0.24818829, -1406777.8, 218490.19, 0.0097409645, 10.00166, 9.999533 
1.5149233e+3, 1.4415252e+2, -1352962.4, -1519524.8, -24376.982, -0.10127809, -0.31450987, -1349468.1, 177811.86, 0.0042781597, 10.001493, 9.999272 
1.5149365e+3, 1.5415259e+2, -1300466.5, -1440562.6, -33153.1, -0.012988358, -0.24009357, -1293017.1, 136262.77, 0.0011151112, 10.001163, 9.999301 
1.5149489e+3, 1.6415213e+2, -1231034.9, -1370515.0, -47609.8, 0.0073864376, -0.20666337, -1216333.5, 114951.586, 0.000106548556, 10.001026, 9.999174 
1.5149608e+3, 1.741509e+2, -1113674.9, -1257361.9, -36343.938, -0.010494816, -0.25387406, -1105005.3, 128292.49, 0.0000007145684, 10.001135, 9.999226 
1.514973e+3, 1.8414998e+2, -1045366.9, -1183742.3, -39636.14, -0.0068761385, -0.26186043, -1034817.75, 100489.875, 0.0, 10.000975, 9.999136 
1.5149854e+3, 1.9414958e+2, -1016689.8, -1113463.4, -62848.99, 0.007983715, -0.22143118, -985759.06, 51553.406, 0.0, 10.000474, 9.999187 
1.5149978e+3, 2.0414904e+2, -930890.0, -983351.4, -57491.973, 0.024406375, -0.20689844, -893927.5, 45390.414, 0.0, 10.000226, 9.999528 
1.5150106e+3, 2.1414833e+2, -810671.75, -863972.6, -31754.092, 0.04939565, -0.23997504, -795866.56, 45457.035, 0.0, 10.000333, 9.999622 
1.5150233e+3, 2.2414757e+2, -753388.6, -850802.0, -23422.758, 0.058613304, -0.24987184, -748049.3, -4718.9087, 0.0, 10.000334, 9.99904 
1.5150355e+3, 2.3414676e+2, -675382.2, -761705.6, -36487.598, 0.044272274, -0.23730089, -662025.94, -16687.953, 0.0, 10.000194, 9.999046 
1.5150481e+3, 2.4414578e+2, -604987.3, -688643.06, -37310.53, 0.04678814, -0.22980589, -590764.75, -43417.15, 0.0, 10.000054, 9.998941 
1.515061e+3, 2.5414467e+2, -520236.8, -590611.9, -24164.646, 0.07298003, -0.24380653, -512738.34, -63378.746, 0.0, 9.999935, 9.998999 
1.5150733e+3, 2.6414368e+2, -454312.75, -532286.44, -31970.94, 0.07464677, -0.2287973, -442880.22, -91509.85, 0.0, 9.99982, 9.998781 
1.5150854e+3, 2.74143e+2, -371139.63, -436488.06, -46714.16, 0.041626118, -0.179121, -346806.66, -93428.49, 0.0, 9.999697, 9.998825 
1.5150975e+3, 2.8414208e+2, -290244.75, -327650.06, -45450.434, 0.038073126, -0.15809469, -259799.36, -104411.42, 0.0, 9.999495, 9.998998 
1.51511e+3, 2.9414082e+2, -236818.78, -250929.16, -24202.307, 0.07859412, -0.1960069, -218664.3, -161263.83, 0.0, 9.9991865, 9.999 
1.5151224e+3, 3.0413896e+2, -202192.77, -201316.7, 2137.151, 0.0723101, -0.27958158, -199573.16, -199573.16, 0.0, 9.999057, 9.99907 
1.5151346e+3, 3.1414002e+2, -123070.11, -57338.625, -17305.813, 0.021237805, -0.09248239, -53060.75, -53060.75, 0.0, 9.999142, 10.000018 
1.5249003e+3, 1.2414152e+2, -1466026.5, -1701848.6, 34928.64, -0.060583517, -0.22734751, -1460961.8, 262428.06, 0.017243471, 10.002211, 9.999023 
1.5249145e+3, 1.3414082e+2, -1372101.3, -1556966.6, -12154.435, 0.118898064, -0.24327418, -1371305.5, 254089.53, 0.010359546, 10.001948, 9.999478 
1.5249246e+3, 1.441395e+2, -1322308.6, -1519363.5, -20018.68, -0.11808016, -0.305748, -1320295.5, 207111.98, 0.0045741852, 10.001765, 9.999145 
1.5249379e+3, 1.5413949e+2, -1235929.0, -1423147.0, -31411.063, -0.020970672, -0.22622839, -1230799.4, 198609.34, 0.0012060112, 10.001666, 9.999179 
1.5249503e+3, 1.6413899e+2, -1171425.3, -1326180.8, -49057.543, 0.010292801, -0.19553593, -1157184.4, 174229.55, 0.000118081814, 10.00137, 9.999312 
1.524962e+3, 1.7413779e+2, -1145761.9, -1255188.4, -47170.94, 0.003598507, -0.25698403, -1128235.0, 105190.09, 0.0000008766353, 10.000839, 9.999383 
1.5249738e+3, 1.8413676e+2, -1108792.8, -1235709.3, -37000.668, 0.0066575506, -0.27353644, -1098793.6, 36641.83, 0.0, 10.000629, 9.998946 
1.524986e+3, 1.9413617e+2, -975566.75, -1118582.8, -26567.44, 0.0038886087, -0.23241216, -970790.94, 66652.39, 0.0, 10.000863, 9.998964 
1.5249981e+3, 2.0413552e+2, -844485.2, -935688.44, -19906.746, 0.01409437, -0.2163663, -840329.5, 99120.484, 0.0, 10.000794, 9.99958 
1.5250109e+3, 2.1413495e+2, -808672.44, -855104.8, -37415.133, 0.047722477, -0.24606171, -787855.9, 53598.44, 0.0, 10.000313, 9.999693 
1.5250233e+3, 2.2413427e+2, -796175.5, -867671.7, -36260.418, 0.061201267, -0.25231418, -781004.6, -37544.3, 0.0, 10.000026, 9.999072 
1.5250356e+3, 2.341335e+2, -700374.44, -770627.5, -22010.732, 0.042990807, -0.23689756, -694048.06, -48580.09, 0.0, 10.0000105, 9.999072 
1.5250482e+3, 2.441326e+2, -624047.8, -692756.75, -19070.719, 0.038287923, -0.22735547, -619109.5, -71632.12, 0.0, 9.999903, 9.998986 
1.5250605e+3, 2.5413156e+2, -557800.4, -603804.2, -31948.41, 0.052313652, -0.23837084, -541434.94, -91946.36, 0.0, 9.999658, 9.999042 
1.5250729e+3, 2.6413065e+2, -509695.88, -551161.44, -41250.625, 0.05801702, -0.21982491, -484260.88, -132762.33, 0.0, 9.999408, 9.99885 
1.5250848e+3, 2.7413008e+2, -446574.94, -464774.53, -27599.346, 0.051500786, -0.16941924, -426613.94, -173107.98, 0.0, 9.999145, 9.998897 
1.5250969e+3, 2.8412932e+2, -350985.97, -330060.22, -18266.25, 0.05875109, -0.14604726, -319472.5, -163958.45, 0.0, 9.998963, 9.999237 
1.5251091e+3, 2.941284e+2, -261824.86, -234471.78, -26372.533, 0.08626234, -0.17553507, -218440.44, -160917.6, 0.0, 9.998895, 9.999253 
1.5251212e+3, 3.041264e+2, -245983.3, -231799.06, 3639.1821, 0.06418486, -0.27727765, -230919.88, -230919.88, 0.0, 9.998798, 9.998984 
1.5251334e+3, 3.141271e+2, -166812.42, -43707.793, 16278.285, 0.016538626, -0.12185684, -41591.67, -41591.67, 0.0, 9.998693, 10.000327 
1.5349029e+3, 1.2412868e+2, -1473492.5, -1717249.3, 12617.813, -0.042226322, -0.24755965, -1472841.1, 250674.38, 0.018292114, 10.002212, 9.998917 
1.5349163e+3, 1.341286e+2, -1382515.4, -1580890.6, -21705.477, 0.10347745, -0.18612511, -1380168.3, 245347.02, 0.011016453, 10.001957, 9.9993105 
1.534926e+3, 1.4412725e+2, -1331755.3, -1538901.1, -26249.988, -0.15109923, -0.23561968, -1328480.5, 199047.77, 0.0048880493, 10.001767, 9.999009 
1.5349397e+3, 1.5412615e+2, -1245753.4, -1442733.1, -35217.82, -0.004215657, -0.25034085, -1239646.1, 189894.03, 0.0013030368, 10.001663, 9.999045 
1.534952e+3, 1.6412535e+2, -1169513.8, -1322691.4, -69146.8, 0.051875807, -0.24450521, -1142917.6, 188630.72, 0.00013086536, 10.00137, 9.999337 
1.5349631e+3, 1.7412493e+2, -1142018.3, -1248721.3, -67113.99, 0.029639008, -0.23343988, -1109633.6, 123917.99, 0.0000010420176, 10.000843, 9.999427 
1.5349746e+3, 1.8412414e+2, -1093365.3, -1203652.6, -31568.014, 0.016470429, -0.23744299, -1084968.8, 50590.05, 0.0, 10.000628, 9.999167 
1.5349868e+3, 1.9412306e+2, -959680.75, -1085075.9, -17374.371, 0.0026951674, -0.2673448, -957317.94, 80251.805, 0.0, 10.00086, 9.999197 
1.5349989e+3, 2.0412225e+2, -874717.4, -997800.8, -36659.31, 0.003509101, -0.26496834, -864626.06, 74952.52, 0.0, 10.00079, 9.999157 
1.535011e+3, 2.1412183e+2, -842660.44, -925859.9, -54915.8, 0.02995243, -0.22921638, -815366.9, 26216.734, 0.0, 10.000313, 9.999208 
1.5350233e+3, 2.2412123e+2, -773729.6, -820508.5, -38820.34, 0.04804418, -0.21445078, -751797.06, -8207.615, 0.0, 10.000022, 9.999398 
1.5350358e+3, 2.3412046e+2, -672855.7, -712428.06, -21524.352, 0.052346997, -0.24157235, -663405.06, -17809.373, 0.0, 10.000005, 9.9994755 
1.535048e+3, 2.4411954e+2, -640659.75, -725390.25, -27571.98, 0.041639335, -0.24492328, -632477.75, -84872.945, 0.0, 9.999894, 9.998766 
1.5350598e+3, 2.5411853e+2, -578698.7, -646486.75, -39435.11, 0.011633212, -0.2224516, -560593.3, -110976.516, 0.0, 9.999654, 9.998751 
1.5350719e+3, 2.6411763e+2, -481040.03, -491616.34, -50102.62, 0.015534762, -0.21059301, -435947.25, -84319.875, 0.0, 9.999406, 9.99926 
1.5350841e+3, 2.7411678e+2, -413161.25, -395322.06, -35480.41, 0.06777253, -0.23046073, -367657.25, -114021.805, 0.0, 9.999143, 9.999375 
1.5350962e+3, 2.8411633e+2, -356537.34, -341227.03, -20371.04, 0.091952294, -0.19946848, -327120.28, -171479.84, 0.0, 9.998961, 9.999162 
1.535108e+3, 2.9411656e+2, -271423.2, -253814.6, -26844.51, 0.07405003, -0.1018362, -234367.45, -176727.56, 0.0, 9.998891, 9.999123 
1.5351197e+3, 3.0411482e+2, -229299.14, -196343.69, -352.01556, 0.044566933, -0.1833258, -196339.92, -196339.92, 0.0, 9.998794, 9.999231 
1.5351324e+3, 3.141135e+2, -119505.21, 57595.703, 21012.674, 0.05048635, -0.25733903, 60054.67, 60054.67, 0.0, 9.998679, 10.001031 
1.544905e+3, 1.24115825e+2, -1473591.4, -1720953.9, -12741.066, -0.04771552, -0.2619787, -1472936.9, 250704.11, 0.019402182, 10.002231, 9.998882 
1.5449183e+3, 1.3411579e+2, -1387308.1, -1589538.0, -26882.393, 0.12054363, -0.19043206, -1383795.6, 241844.69, 0.011713042, 10.001955, 9.999251 
1.5449278e+3, 1.4411446e+2, -1348446.6, -1548357.5, -19908.76, -0.14179412, -0.23258215, -1346483.3, 181169.92, 0.005220401, 10.001659, 9.998996 
1.5449412e+3, 1.5411323e+2, -1289094.5, -1464302.4, -21198.25, -0.0012134969, -0.26062468, -1286566.3, 143100.45, 0.0014059248, 10.001368, 9.99904 
1.5449533e+3, 1.6411239e+2, -1180474.4, -1329708.4, -47940.832, 0.050783593, -0.25754613, -1166400.8, 165274.56, 0.00014487762, 10.001301, 9.999324 
1.5449642e+3, 1.7411208e+2, -1040630.3, -1201359.6, -50865.324, 0.029318774, -0.2339089, -1025885.8, 207791.8, 0.000001197513, 10.001545, 9.9994135 
1.5449756e+3, 1.841114e+2, -968654.8, -1129383.4, -22675.95, 0.019412052, -0.23280083, -965516.94, 170166.45, 0.0, 10.001426, 9.999292 
1.5449877e+3, 1.9411041e+2, -958572.9, -1069240.1, -17508.115, 0.008628707, -0.26816002, -955869.06, 81823.8, 0.0, 10.000803, 9.999332 
1.5449995e+3, 2.0410958e+2, -946199.75, -1051588.4, -34732.844, 0.009120007, -0.26586536, -935782.56, 3919.1094, 0.0, 10.000383, 9.998982 
1.5450113e+3, 2.1410902e+2, -864504.0, -959234.7, -33823.99, 0.02992003, -0.22263801, -853666.8, -11957.903, 0.0, 10.000261, 9.999002 
1.5450233e+3, 2.2410832e+2, -768050.9, -820462.06, -12358.467, 0.047137234, -0.20664433, -765282.94, -21566.533, 0.0, 10.000073, 9.999373 
1.5450357e+3, 2.3410746e+2, -704192.2, -728871.6, -26484.516, 0.05677832, -0.24088517, -687313.8, -41590.215, 0.0, 9.999796, 9.999463 
1.5450476e+3, 2.4410664e+2, -679226.44, -714377.3, -36562.0, 0.04216928, -0.24677043, -656234.94, -108503.31, 0.0, 9.999504, 9.99903 
1.5450591e+3, 2.54106e+2, -626017.25, -636872.1, -8628.925, -0.0067154085, -0.22017325, -621250.8, -171511.06, 0.0, 9.999191, 9.99904 
1.5450709e+3, 2.641052e+2, -535578.3, -507334.66, -1331.0697, -0.0064702933, -0.2122902, -507272.06, -155523.89, 0.0, 9.998987, 9.999354 
1.5450831e+3, 2.7410427e+2, -437168.56, -398714.22, -17249.428, 0.06374386, -0.24941702, -392110.66, -138353.7, 0.0, 9.998944, 9.999447 
1.5450951e+3, 2.8410375e+2, -359192.5, -348973.06, -10956.687, 0.094361916, -0.22812575, -341993.2, -186230.2, 0.0, 9.998974, 9.999103 
1.5451068e+3, 2.9410395e+2, -252886.5, -252879.44, -15429.55, 0.0672257, -0.122986935, -237453.42, -179690.19, 0.0, 9.999055, 9.99905 
1.5451185e+3, 3.0410275e+2, -232731.92, -171046.69, -5027.878, 0.044332147, -0.15831992, -170639.56, -170639.56, 0.0, 9.998657, 9.999469 
1.5451308e+3, 3.1410125e+2, -232634.36, 60365.27, 15409.741, 0.07114734, -0.27734143, 61173.49, 61173.49, 0.0, 9.997659, 10.00154 
1.5549068e+3, 1.2410306e+2, -1472096.4, -1713325.6, -41552.465, -0.078734756, -0.2622165, -1465139.5, 258625.73, 0.020579461, 10.002216, 9.998941 
1.5549208e+3, 1.3410242e+2, -1383351.9, -1580318.0, -37180.62, 0.16857837, -0.2574945, -1376567.1, 249202.75, 0.012454377, 10.001953, 9.999316 
1.55493e+3, 1.441012e+2, -1341572.1, -1534870.1, -32483.4, -0.09349491, -0.29854798, -1336259.4, 191522.33, 0.005574592, 10.001661, 9.999089 
1.5549424e+3, 1.5410078e+2, -1281082.4, -1449450.6, -31781.303, -0.017922191, -0.2582607, -1275283.1, 154504.77, 0.001515748, 10.001372, 9.999141 
1.554954e+3, 1.6410016e+2, -1183806.9, -1336487.9, -41542.395, 0.0013068534, -0.23425429, -1173235.8, 158558.84, 0.00016035176, 10.001301, 9.999277 
1.5549655e+3, 1.740993e+2, -1045787.94, -1211590.9, -41349.1, -0.0013589591, -0.25902897, -1036048.1, 197754.4, 0.0000013687348, 10.001543, 9.999345 
1.554977e+3, 1.8409857e+2, -967587.44, -1127052.6, -44299.64, 0.009002811, -0.26005897, -956107.44, 179701.69, 0.0, 10.001424, 9.99931 
1.5549885e+3, 1.9409822e+2, -956048.6, -1064818.6, -40660.08, 0.019383501, -0.23419785, -942529.5, 95282.86, 0.0, 10.000805, 9.999362 
1.5550001e+3, 2.0409757e+2, -941650.5, -1042204.0, -41666.387, 0.029019514, -0.2178895, -926629.2, 13189.96, 0.0, 10.000382, 9.999048 
1.5550117e+3, 2.1409658e+2, -860821.7, -950185.94, -37831.215, 0.043737326, -0.22585872, -846957.3, -5127.285, 0.0, 10.000255, 9.999069 
1.5550235e+3, 2.2409555e+2, -795026.44, -875134.8, -22929.768, 0.053093728, -0.22893655, -788927.44, -45086.355, 0.0, 10.000067, 9.9990015 
1.5550354e+3, 2.3409455e+2, -733915.5, -790331.8, -35705.105, 0.054200027, -0.23586427, -716620.3, -70768.66, 0.0, 9.999794, 9.9990425 
1.5550472e+3, 2.4409388e+2, -628679.75, -608893.44, -47630.813, 0.0362926, -0.23428911, -570139.2, -22281.186, 0.0, 9.9995, 9.999757 
1.5550582e+3, 2.5409383e+2, -567335.44, -514755.38, -19021.867, -0.00793532, -0.23244332, -508595.5, -58737.92, 0.0, 9.999188, 9.999881 
1.5550697e+3, 2.6409337e+2, -550819.5, -538292.8, -3407.2864, -0.012209472, -0.22465497, -537426.0, -185564.73, 0.0, 9.998983, 9.999144 
1.5550818e+3, 2.7409256e+2, -460413.97, -446790.47, -16586.408, 0.03835709, -0.2240763, -435671.56, -181801.02, 0.0, 9.998942, 9.999119 
1.5550938e+3, 2.8409156e+2, -361989.75, -354411.63, -6884.582, 0.063813075, -0.23131557, -350342.28, -194460.48, 0.0, 9.99897, 9.999067 
1.5551057e+3, 2.9409057e+2, -254318.52, -254652.42, -10114.468, 0.05622478, -0.24225903, -244369.63, -186476.33, 0.0, 9.999047, 9.9990425 
1.5551174e+3, 3.0409017e+2, -220599.27, -143946.89, -38620.688, 0.054049883, -0.2052354, -127863.016, -127863.016, 0.0, 9.998649, 9.99966 
1.5551285e+3, 3.1409022e+2, -213283.33, 98394.54, -15356.097, 0.073006265, -0.19070973, 99149.29, 99149.29, 0.0, 9.997667, 10.001799 
1.564909e+3, 1.2409075e+2, -1458081.3, -1708369.3, -13200.712, -0.0943995, -0.28068966, -1457386.9, 266497.72, 0.02183582, 10.002327, 9.998922 
1.564923e+3, 1.3408993e+2, -1332559.8, -1555331.5, 1332.3303, 0.17452507, -0.29434577, -1332551.8, 293339.44, 0.013248415, 10.002304, 9.999323 
1.5649319e+3, 1.4408882e+2, -1274421.4, -1504051.8, -4874.9727, -0.09148064, -0.32286426, -1274317.9, 253584.11, 0.0059555885, 10.002132, 9.999074 
1.564944e+3, 1.5408859e+2, -1218557.9, -1420455.0, -14618.123, -0.015556432, -0.2615205, -1217504.9, 212401.3, 0.0016345053, 10.00181, 9.999128 
1.5649556e+3, 1.6408803e+2, -1159354.3, -1330666.0, -19112.934, 0.0022387374, -0.23043105, -1157247.8, 174664.89, 0.00017771397, 10.001497, 9.999221 
1.5649667e+3, 1.7408697e+2, -1101809.4, -1245367.3, -19389.557, -0.00426948, -0.2660704, -1099236.8, 134685.72, 0.0000016137079, 10.00119, 9.999282 
1.5649782e+3, 1.8408614e+2, -1040239.2, -1170451.9, -35190.406, 0.0041805585, -0.27224362, -1031337.44, 104592.83, 0.0, 10.000961, 9.999234 
1.5649894e+3, 1.9408575e+2, -953122.7, -1072410.3, -42547.75, 0.014863969, -0.24271819, -939501.94, 98432.15, 0.0, 10.000864, 9.999282 
1.5650006e+3, 2.0408508e+2, -889470.8, -1011818.2, -41564.984, 0.024155851, -0.22557278, -876685.94, 63255.016, 0.0, 10.000719, 9.999095 
1.5650119e+3, 2.1408412e+2, -820306.06, -924436.7, -39061.19, 0.037126567, -0.23645745, -807282.4, 34668.875, 0.0, 10.000507, 9.999124 
1.5650235e+3, 2.2408313e+2, -787959.94, -869818.75, -20403.26, 0.043426454, -0.2393823, -783156.3, -39194.3, 0.0, 10.000109, 9.999017 
1.565035e+3, 2.3408218e+2, -783440.4, -813146.2, -4907.6455, 0.038323164, -0.24262136, -782650.56, -136678.05, 0.0, 9.999451, 9.999051 
1.5650463e+3, 2.440816e+2, -688010.5, -628715.44, -10008.05, 0.025407877, -0.23671296, -627071.8, -79093.49, 0.0, 9.999056, 9.999834 
1.5650573e+3, 2.5408167e+2, -582089.06, -512303.84, -37239.445, 0.0022230248, -0.22808987, -496164.38, -46188.07, 0.0, 9.999047, 9.999965 
1.5650688e+3, 2.6408142e+2, -551487.56, -533491.2, -41989.15, 0.0037067244, -0.21262175, -499546.9, -147568.28, 0.0, 9.998959, 9.999188 
1.5650807e+3, 2.7408066e+2, -488690.88, -456175.38, -30464.719, 0.038291924, -0.20678295, -437901.78, -183914.67, 0.0, 9.998732, 9.999156 
1.5650924e+3, 2.8407958e+2, -414700.22, -354251.28, 5639.6377, 0.05557316, -0.23307377, -353729.63, -197731.03, 0.0, 9.998499, 9.999295 
1.5651044e+3, 2.9407844e+2, -351579.16, -272788.16, 19265.143, 0.05134529, -0.28691795, -268329.9, -210319.34, 0.0, 9.998259, 9.999297 
1.5651157e+3, 3.0407855e+2, -305694.13, -219314.22, -22865.877, 0.060095057, -0.19846067, -213634.75, -213634.75, 0.0, 9.998212, 9.999353 
1.5651265e+3, 3.140784e+2, -140919.67, 70398.875, -42863.758, 0.06762497, -0.16417925, 78762.336, 78762.336, 0.0, 9.998433, 10.001238 
1.5749113e+3, 1.2407894e+2, -1466767.5, -1726344.9, -35347.21, -0.09512367, -0.31830952, -1462040.3, 261958.22, 0.023184983, 10.002327, 9.998798 
1.5749247e+3, 1.3407837e+2, -1336417.1, -1565312.5, 504.82117, 0.1313483, -0.3010248, -1336416.0, 289587.7, 0.014104312, 10.002311, 9.999251 
1.5749335e+3, 1.440774e+2, -1283984.6, -1523688.1, -18601.559, -0.14267512, -0.30356517, -1282549.8, 245463.72, 0.006368667, 10.002133, 9.998938 
1.574946e+3, 1.5407677e+2, -1228261.9, -1440640.9, -26439.025, 0.0037890107, -0.26975152, -1225020.0, 205001.31, 0.00176415, 10.001811, 9.998989 
1.5749575e+3, 1.6407603e+2, -1163435.0, -1340067.4, -31642.648, 0.0500462, -0.2449534, -1157937.6, 174091.45, 0.00019721544, 10.0015, 9.999156 
1.5749682e+3, 1.7407519e+2, -1106038.5, -1254700.5, -30762.066, 0.018089278, -0.25521362, -1099924.5, 134112.38, 0.0000019795527, 10.001191, 9.999218 
1.5749791e+3, 1.8407415e+2, -1053273.3, -1197281.0, -40349.613, 0.0024404896, -0.26953867, -1042738.4, 93308.414, 0.0, 10.000959, 9.999051 
1.57499e+3, 1.94073e+2, -967835.56, -1102028.4, -45930.164, -0.009522444, -0.2943134, -953620.8, 84437.266, 0.0, 10.000859, 9.999081 
1.575001e+3, 2.0407213e+2, -888074.3, -1008297.25, -49701.133, -0.0115347095, -0.28931567, -870188.4, 69878.85, 0.0, 10.000714, 9.999122 
1.5750122e+3, 2.1407168e+2, -817242.56, -917790.3, -46096.17, 0.0078776665, -0.25464636, -799308.5, 42764.117, 0.0, 10.0005045, 9.999171 
1.5750232e+3, 2.2407107e+2, -761315.06, -814320.9, -43880.1, 0.016041534, -0.2380456, -736555.25, 7523.8306, 0.0, 10.000107, 9.9994 
1.5750341e+3, 2.3407035e+2, -754267.3, -752535.06, -28962.855, 0.0060674, -0.26086408, -724425.4, -78338.93, 0.0, 9.999449, 9.999469 
1.5750451e+3, 2.4406977e+2, -726891.8, -709344.56, -12262.178, 0.0063296054, -0.2531435, -703040.5, -154947.78, 0.0, 9.999054, 9.999282 
1.5750566e+3, 2.5406957e+2, -628570.9, -608264.75, -35530.68, 0.020639904, -0.20656718, -581464.94, -131369.02, 0.0, 9.999043, 9.999309 
1.5750681e+3, 2.640692e+2, -531911.5, -491781.1, -48298.566, 0.03680192, -0.17796345, -459545.6, -107445.2, 0.0, 9.998953, 9.999479 
1.5750796e+3, 2.740685e+2, -461465.94, -400056.88, -36746.56, 0.056516692, -0.20284115, -382875.3, -128767.94, 0.0, 9.998732, 9.999542 
1.575091e+3, 2.8406778e+2, -381643.34, -286247.06, -2485.0525, 0.06333536, -0.23701365, -286182.38, -130068.37, 0.0, 9.9985, 9.999763 
1.5751027e+3, 2.9406747e+2, -316670.4, -202045.75, 12004.868, 0.050245315, -0.2539292, -200801.95, -142686.6, 0.0, 9.998263, 9.999782 
1.5751138e+3, 3.0406785e+2, -358673.47, -328958.0, -15417.264, 0.060041722, -0.13601695, -322404.4, -322404.4, 0.0, 9.99821, 9.998601 
1.5751246e+3, 3.1406596e+2, -237070.92, -126616.51, -29910.889, 0.040511597, -0.18631655, -119036.83, -119036.83, 0.0, 9.998421, 9.99989 
1.5849136e+3, 1.2406771e+2, -1520811.3, -1764374.0, -43548.555, -0.091367, -0.30736122, -1513259.0, 210849.61, 0.024637632, 10.002004, 9.998691 
1.584927e+3, 1.3406709e+2, -1362968.0, -1588025.9, 10725.547, 0.12542738, -0.28718683, -1362458.0, 263657.03, 0.01502948, 10.002174, 9.999157 
1.5849355e+3, 1.440662e+2, -1276856.9, -1519378.6, -14385.483, -0.15100215, -0.27886617, -1276006.5, 252117.36, 0.0068178168, 10.002183, 9.998941 
1.5849479e+3, 1.5406516e+2, -1200668.3, -1426114.6, -14060.084, 0.00703274, -0.28528392, -1199794.8, 230339.39, 0.0019058621, 10.001998, 9.998998 
1.5849592e+3, 1.6406426e+2, -1125866.1, -1330587.8, -12661.746, 0.05648541, -0.2738572, -1125086.0, 207056.95, 0.0002187055, 10.001797, 9.999078 
1.5849696e+3, 1.7406355e+2, -1053015.4, -1239009.4, -15590.649, 0.016006012, -0.26088473, -1051717.5, 182432.27, 0.000002466339, 10.001599, 9.999128 
1.5849802e+3, 1.8406247e+2, -1016499.06, -1196160.0, -25946.254, -0.0015382151, -0.26859525, -1012827.0, 123333.58, 0.0, 10.0012865, 9.9989 
1.5849909e+3, 1.9406101e+2, -986596.06, -1128629.0, -29581.813, -0.007705626, -0.30946139, -980681.25, 57494.133, 0.0, 10.000809, 9.998921 
1.5850015e+3, 2.0405999e+2, -933256.6, -1019266.94, -28878.47, -0.0100628445, -0.31325108, -924460.2, 15725.643, 0.0, 10.0003605, 9.999215 
1.5850124e+3, 2.1405967e+2, -887449.5, -938647.44, -22530.729, -0.000529811, -0.27719295, -878946.56, -36757.293, 0.0, 9.999968, 9.999286 
1.5850231e+3, 2.2405925e+2, -811322.6, -839475.25, -29496.084, 0.0028182464, -0.24894734, -792716.2, -48522.26, 0.0, 9.999768, 9.999391 
1.5850335e+3, 2.3405877e+2, -696558.7, -727091.56, -47890.7, -0.0045603034, -0.2445378, -661560.0, -15360.512, 0.0, 9.999857, 9.999447 
1.5850444e+3, 2.4405812e+2, -659351.0, -688283.9, -38197.836, 0.0024661561, -0.23783341, -632971.94, -84765.28, 0.0, 9.999569, 9.999178 
1.5850556e+3, 2.5405738e+2, -681739.06, -646980.06, -24434.97, 0.028524606, -0.23241903, -634374.3, -184159.64, 0.0, 9.998736, 9.999189 
1.5850669e+3, 2.6405692e+2, -621097.25, -524270.4, -8131.778, 0.046776965, -0.212729, -523592.22, -171372.03, 0.0, 9.998296, 9.999572 
1.5850781e+3, 2.7405673e+2, -498474.53, -404299.1, -16335.742, 0.05548799, -0.19919086, -401545.97, -147323.28, 0.0, 9.998422, 9.9996605 
1.5850894e+3, 2.8405625e+2, -386052.9, -280051.44, -10050.846, 0.05218066, -0.21849026, -279106.84, -122879.88, 0.0, 9.998436, 9.999835 
1.5851007e+3, 2.9405582e+2, -309764.38, -190385.73, -27973.54, 0.03129873, -0.254954, -184155.92, -125926.73, 0.0, 9.998278, 9.999853 
1.585112e+3, 3.0405623e+2, -340471.0, -260324.58, -23562.65, 0.058519978, -0.16111837, -253910.58, -253910.58, 0.0, 9.998078, 9.999135 
1.585123e+3, 3.1405458e+2, -322201.38, -148695.97, 63194.94, 0.056415517, -0.24192734, -128119.12, -128119.12, 0.0, 9.997756, 10.000057 
1.5949157e+3, 1.2405725e+2, -1529398.3, -1780113.3, -65487.793, -0.08621467, -0.23607086, -1513323.3, 210890.23, 0.026202215, 10.001994, 9.998589 
1.5949295e+3, 1.3405614e+2, -1370408.6, -1604585.6, 17544.55, 0.15538283, -0.25281173, -1369101.5, 257123.1, 0.016029086, 10.00218, 9.999041 
1.594938e+3, 1.440552e+2, -1267032.8, -1499762.3, -22492.332, -0.12012126, -0.24867636, -1264878.9, 263353.9, 0.007305444, 10.002187, 9.999076 
1.5949497e+3, 1.5405378e+2, -1190593.9, -1405105.9, -20919.547, -0.01025839, -0.30875888, -1188572.9, 241671.8, 0.002060233, 10.001997, 9.999144 
1.5949605e+3, 1.6405271e+2, -1133089.8, -1345809.5, -21323.99, 0.016256666, -0.31748897, -1130973.1, 201280.86, 0.00024185247, 10.001797, 9.998973 
1.594971e+3, 1.7405209e+2, -1062138.9, -1258345.6, -22663.287, -0.015251374, -0.2827663, -1059555.1, 174705.84, 0.0000030340082, 10.0016, 9.998995 
1.5949813e+3, 1.840511e+2, -1024259.25, -1212587.6, -43646.297, -0.01376268, -0.2679759, -1014635.75, 121635.83, 0.0, 10.0012865, 9.998788 
1.594992e+3, 1.9404975e+2, -994601.56, -1145602.6, -46973.004, 0.01835338, -0.28728098, -981181.94, 57103.977, 0.0, 10.000809, 9.998805 
1.5950023e+3, 2.0404868e+2, -923473.5, -999309.2, -44452.61, 0.026789842, -0.2967457, -902963.6, 37333.023, 0.0, 10.0003605, 9.999353 
1.5950124e+3, 2.1404809e+2, -876575.7, -915066.1, -36684.293, 0.007627094, -0.30393463, -854394.9, -12093.495, 0.0, 9.999963, 9.999451 
1.5950228e+3, 2.240476e+2, -839399.5, -896749.7, -28201.719, -0.0012237186, -0.27182558, -827855.2, -83548.56, 0.0, 9.999763, 9.999001 
1.5950334e+3, 2.3404741e+2, -728648.5, -792898.1, -42924.082, 0.0029115926, -0.19474484, -707159.1, -60847.305, 0.0, 9.999851, 9.998998 
1.5950441e+3, 2.4404663e+2, -637847.4, -643175.7, -65869.61, 0.009885735, -0.19191921, -574588.06, -26267.57, 0.0, 9.999565, 9.999491 
1.5950543e+3, 2.540451e+2, -653611.7, -589511.8, -54328.92, 0.02253366, -0.30567855, -558483.75, -108150.664, 0.0, 9.998738, 9.999584 
1.595065e+3, 2.640445e+2, -627488.4, -538785.44, -5943.8057, 0.03145255, -0.31486174, -538388.94, -186050.52, 0.0, 9.9983, 9.999471 
1.5950763e+3, 2.7404526e+2, -509168.75, -426926.88, -9401.607, 0.03135078, -0.19257584, -425865.8, -171532.5, 0.0, 9.998422, 9.999506 
1.5950875e+3, 2.840449e+2, -408037.66, -325035.16, -13972.977, 0.017381014, -0.17689696, -322746.0, -166408.1, 0.0, 9.998432, 9.999529 
1.5950985e+3, 2.940433e+2, -333281.13, -238362.97, -30905.086, -0.012227712, -0.29622322, -229187.34, -170834.4, 0.0, 9.998272, 9.999528 
1.5951101e+3, 3.040436e+2, -220644.94, -9208.511, -33340.355, 0.048619453, -0.276726, -4075.8335, -4075.8335, 0.0, 9.998068, 10.000865 
1.5951212e+3, 3.140444e+2, -211086.38, 81655.33, 47745.793, 0.109579064, -0.30536032, 89245.8, 89245.8, 0.0, 9.997757, 10.00164 
1.6049178e+3, 1.24046475e+2, -1496803.8, -1762947.9, -69139.41, -0.06936657, -0.20637292, -1479914.4, 244405.55, 0.027890507, 10.002227, 9.998592 
1.604932e+3, 1.3404493e+2, -1323695.4, -1590790.3, 38829.293, 0.16964221, -0.25783116, -1318165.0, 308169.8, 0.017110147, 10.002547, 9.99896 
1.6049406e+3, 1.4404409e+2, -1226607.1, -1483980.8, -25632.447, -0.101580545, -0.23932025, -1224079.1, 304262.88, 0.007835286, 10.002486, 9.99904 
1.6049515e+3, 1.5404259e+2, -1198371.9, -1412817.3, -41253.9, -0.02575051, -0.30149043, -1190709.5, 239644.95, 0.0022287087, 10.001964, 9.9991045 
1.604962e+3, 1.6404144e+2, -1173968.8, -1368518.8, -41726.395, -0.0069250395, -0.3164911, -1165397.1, 166967.75, 0.00026665046, 10.0015335, 9.998941 
1.6049725e+3, 1.7404069e+2, -1116069.1, -1287403.1, -37246.418, -0.008171328, -0.29113975, -1108322.4, 126050.72, 0.0000036433328, 10.001247, 9.998963 
1.6049826e+3, 1.840398e+2, -1047712.75, -1211152.9, -45942.902, 0.0034150837, -0.27081433, -1035683.56, 100699.22, 0.0, 10.001073, 9.998899 
1.6049927e+3, 1.9403884e+2, -949262.6, -1109934.3, -32777.895, 0.013339023, -0.26403058, -942833.0, 95560.21, 0.0, 10.001062, 9.998927 
1.6050027e+3, 2.0403785e+2, -857696.75, -975658.94, -33988.16, 0.01534612, -0.26781842, -848604.6, 91798.23, 0.0, 10.000849, 9.99928 
1.6050126e+3, 2.1403693e+2, -827314.06, -901770.3, -47146.62, 0.0130747715, -0.29779658, -804469.44, 37941.0, 0.0, 10.000347, 9.999356 
1.6050227e+3, 2.2403619e+2, -836763.44, -909572.25, -31441.193, 0.011491941, -0.28102353, -825065.56, -80647.36, 0.0, 9.999844, 9.998873 
1.6050331e+3, 2.3403583e+2, -813930.75, -849355.25, -24613.855, 0.0068831793, -0.20801574, -801318.6, -154893.27, 0.0, 9.999333, 9.998858 
1.6050433e+3, 2.44035e+2, -713131.4, -670189.44, -49923.508, 0.008954869, -0.20367034, -637315.6, -88881.37, 0.0, 9.99901, 9.999572 
1.6050531e+3, 2.5403368e+2, -614897.06, -558795.75, -61751.977, 0.023224916, -0.30832282, -519022.03, -68577.695, 0.0, 9.998955, 9.999689 
1.6050635e+3, 2.6403308e+2, -559232.44, -503857.84, -10129.281, 0.028643426, -0.32270777, -502063.13, -149614.05, 0.0, 9.998763, 9.999484 
1.6050746e+3, 2.7403364e+2, -516208.97, -430537.16, -3175.6738, 0.01657934, -0.22308321, -430419.6, -175973.83, 0.0, 9.998377, 9.999501 
1.6050854e+3, 2.8403333e+2, -471458.7, -346264.75, 5653.055, 0.0009873745, -0.20474185, -346010.03, -189560.13, 0.0, 9.997958, 9.999611 
1.6050963e+3, 2.9403213e+2, -441250.0, -278670.75, 16524.129, -0.013484521, -0.29200715, -277008.28, -218546.67, 0.0, 9.997483, 9.999629 
1.605108e+3, 3.0403227e+2, -304062.0, -15615.362, -2458.7715, 0.06312439, -0.30932823, -15594.404, -15594.404, 0.0, 9.99735, 10.001166 
1.6051191e+3, 3.140335e+2, -212706.02, 103464.12, -48146.695, 0.13495943, -0.32514176, 110633.375, 110633.375, 0.0, 9.997652, 10.001838 
1.6149203e+3, 1.2403551e+2, -1491119.4, -1751308.1, -86793.484, -0.04643546, -0.21483608, -1464824.4, 259602.52, 0.029721467, 10.002232, 9.998673 
1.6149345e+3, 1.3403355e+2, -1328088.0, -1600679.6, 50398.527, 0.16517729, -0.3022789, -1319068.5, 307376.78, 0.018286213, 10.002551, 9.998891 
1.6149431e+3, 1.440329e+2, -1241420.0, -1514109.0, -45018.227, -0.099984944, -0.24872868, -1234180.1, 294270.84, 0.008415702, 10.002484, 9.998833 
1.6149534e+3, 1.5403166e+2, -1214715.9, -1447126.1, -60672.22, -0.043591548, -0.26309127, -1199830.4, 230632.98, 0.0024150638, 10.001965, 9.998868 
1.6149634e+3, 1.6403048e+2, -1171237.4, -1363171.4, -54535.375, -0.018392656, -0.26953617, -1156824.3, 175650.81, 0.0002938315, 10.0015335, 9.998979 
1.6149741e+3, 1.7402938e+2, -1112098.5, -1279295.5, -47609.895, 0.03555915, -0.28550264, -1099492.0, 134994.06, 0.000004294035, 10.001246, 9.999021 
1.6149843e+3, 1.8402854e+2, -1024995.75, -1163628.3, -48045.637, 0.047098875, -0.2771952, -1009972.7, 126521.69, 0.0, 10.00107, 9.999228 
1.6149934e+3, 1.9402823e+2, -924973.6, -1059088.9, -32585.45, -0.02675732, -0.23978241, -917475.6, 121021.83, 0.0, 10.00106, 9.999278 
1.6150029e+3, 2.0402747e+2, -877641.0, -1016666.9, -51691.004, -0.049516853, -0.2259294, -860528.25, 79976.305, 0.0, 10.000845, 9.999001 
1.6150129e+3, 2.140262e+2, -851930.9, -952672.94, -64952.492, 0.012768597, -0.2589203, -820106.6, 22409.9, 0.0, 10.000345, 9.999008 
1.6150229e+3, 2.2402498e+2, -829351.56, -894571.75, -50770.797, 0.0374434, -0.27580425, -801620.2, -57091.51, 0.0, 9.999843, 9.998977 
1.6150324e+3, 2.3402396e+2, -803027.8, -827158.06, -42632.113, 0.004773761, -0.28245047, -770786.44, -124246.13, 0.0, 9.999333, 9.999012 
1.6150422e+3, 2.4402323e+2, -723902.75, -691929.1, -53227.21, -0.0031910008, -0.27147177, -652339.75, -103791.625, 0.0, 9.999006, 9.999425 
1.615052e+3, 2.5402308e+2, -627736.25, -584982.9, -61816.836, 0.02546593, -0.24197339, -540951.0, -90402.06, 0.0, 9.998952, 9.999512 
1.6150622e+3, 2.6402262e+2, -551666.8, -488611.56, -22587.941, 0.032577403, -0.23899747, -481355.06, -128802.33, 0.0, 9.998763, 9.99959 
1.615073e+3, 2.7402174e+2, -506488.0, -411748.44, -15517.398, 0.007332297, -0.2920637, -409271.6, -154710.78, 0.0, 9.998381, 9.99963 
1.6150835e+3, 2.8402147e+2, -440243.22, -282000.56, -11531.487, -0.0004942264, -0.3006623, -281164.66, -124601.055, 0.0, 9.997959, 10.0000515 
1.6150942e+3, 2.940222e+2, -406595.2, -207891.86, -39.01282, 0.019294834, -0.2402174, -207891.86, -149335.61, 0.0, 9.997487, 10.000114 
1.6151056e+3, 3.040221e+2, -377316.47, -169405.47, 6933.4546, 0.09395533, -0.25947914, -169174.5, -169174.5, 0.0, 9.997356, 10.000107 
1.6151169e+3, 3.1402177e+2, -288658.0, -54893.754, -41057.086, 0.128481, -0.31083027, -47892.402, -47892.402, 0.0, 9.997655, 10.00075 
1.624923e+3, 1.2402481e+2, -1402673.0, -1692818.3, -80462.0, -0.026986599, -0.2355704, -1381853.5, 342677.34, 0.031719536, 10.002799, 9.998802 
1.6249368e+3, 1.3402253e+2, -1371089.9, -1627894.9, 79155.5, 0.14533097, -0.34856114, -1348652.1, 277899.9, 0.019575521, 10.00228, 9.998834 
1.6249454e+3, 1.4402206e+2, -1324576.3, -1560869.9, -14083.227, -0.08761279, -0.27302307, -1323739.8, 204816.69, 0.009057564, 10.001939, 9.998772 
1.6249555e+3, 1.5402114e+2, -1215374.1, -1455126.6, -19027.088, -0.020571042, -0.24755956, -1213873.5, 216693.31, 0.002624381, 10.001996, 9.998796 
1.6249654e+3, 1.6402006e+2, -1121121.6, -1342122.8, -10642.321, -0.00022040088, -0.23978768, -1120610.4, 211967.8, 0.00032476612, 10.001892, 9.99895 
1.6249754e+3, 1.7401871e+2, -1071606.4, -1262668.3, -11554.425, 0.023167744, -0.27819481, -1070910.3, 163680.8, 0.000005034694, 10.001538, 9.998994 
1.624985e+3, 1.8401773e+2, -1012250.4, -1155722.5, -21722.256, 0.027238667, -0.2838567, -1009033.6, 127566.71, 0.0, 10.001152, 9.999241 
1.6249944e+3, 1.9401743e+2, -971163.25, -1079028.6, -32927.684, -0.0201049, -0.24761191, -961906.0, 76697.195, 0.0, 10.000735, 9.999295 
1.6250037e+3, 2.040167e+2, -941511.2, -1062352.9, -62173.723, -0.035248086, -0.22746247, -915235.7, 25374.67, 0.0, 10.000472, 9.998866 
1.6250132e+3, 2.1401542e+2, -852022.9, -969787.7, -62883.363, 0.0041855136, -0.24395461, -824757.4, 17865.674, 0.0, 10.000419, 9.998855 
1.6250226e+3, 2.2401416e+2, -780196.0, -863105.3, -50189.61, 0.021098692, -0.26064375, -756554.7, -11919.02, 0.0, 10.000149, 9.999044 
1.6250318e+3, 2.34013e+2, -762611.75, -797445.94, -49042.086, 0.003166704, -0.289875, -727985.8, -81338.52, 0.0, 9.999569, 9.999102 
1.6250414e+3, 2.4401222e+2, -708676.6, -700305.4, -45487.7, 0.004120925, -0.28270522, -658811.1, -110155.836, 0.0, 9.99918, 9.999282 
1.6250512e+3, 2.5401214e+2, -622369.8, -601395.7, -53815.8, 0.030467672, -0.22881193, -557054.6, -106397.97, 0.0, 9.999071, 9.99934 
1.6250612e+3, 2.6401165e+2, -537185.44, -468465.5, -25950.988, 0.03695739, -0.22206993, -459766.66, -107105.77, 0.0, 9.998806, 9.999707 
1.6250713e+3, 2.740107e+2, -510317.03, -396413.13, -20482.016, 0.016304947, -0.30201367, -392842.03, -138173.03, 0.0, 9.998282, 9.999781 
1.6250816e+3, 2.8401047e+2, -446996.75, -285877.63, -23954.037, 0.012671196, -0.31015998, -282391.72, -125721.29, 0.0, 9.997918, 10.000043 
1.6250919e+3, 2.940116e+2, -365093.4, -190519.0, -51045.61, 0.032193363, -0.21165204, -176688.89, -118028.95, 0.0, 9.997785, 10.000089 
1.625103e+3, 3.0401117e+2, -351281.75, -198602.92, -24621.13, 0.08663236, -0.243337, -194730.7, -194730.7, 0.0, 9.997714, 9.999736 
1.6251144e+3, 3.140106e+2, -286350.16, -67665.8, -18641.033, 0.11961895, -0.27989256, -66088.18, -66088.18, 0.0, 9.997727, 10.000628 
1.6349259e+3, 1.24014586e+2, -1389147.8, -1664062.5, -123112.49, -0.0187335, -0.25569034, -1342075.4, 382554.56, 0.03390636, 10.002802, 9.999006 
1.6349386e+3, 1.3401195e+2, -1374017.4, -1633889.8, 59902.883, 0.1042659, -0.3996034, -1360873.9, 265780.84, 0.020992927, 10.002283, 9.998791 
1.6349475e+3, 1.440116e+2, -1319991.6, -1549997.4, -16709.24, -0.072924145, -0.31438178, -1318784.1, 209874.2, 0.009768749, 10.001934, 9.99885 
1.6349581e+3, 1.5401112e+2, -1210169.3, -1444766.5, -15812.96, 0.041260283, -0.2540553, -1209108.3, 221556.08, 0.0028602842, 10.001996, 9.99887 
1.6349676e+3, 1.6401023e+2, -1127656.3, -1355223.6, -23171.395, 0.04526205, -0.2264028, -1125320.9, 207352.69, 0.00036087315, 10.00189, 9.998861 
1.6349763e+3, 1.7400871e+2, -1079792.3, -1279873.3, -24386.725, -0.04926635, -0.26924843, -1076862.9, 157824.95, 0.000005927034, 10.001537, 9.998877 
1.6349854e+3, 1.8400738e+2, -1033617.7, -1200310.4, -37680.27, -0.06210592, -0.2907405, -1025495.9, 111204.836, 0.0, 10.001152, 9.998936 
1.6349956e+3, 1.9400641e+2, -993998.1, -1126981.6, -47680.086, 0.030131431, -0.2874268, -978669.7, 60040.65, 0.0, 10.000735, 9.998967 
1.6350052e+3, 2.0400545e+2, -941497.9, -1061922.1, -65750.484, 0.054548305, -0.27225333, -912554.94, 28165.514, 0.0, 10.000469, 9.998871 
1.6350134e+3, 2.1400458e+2, -850071.94, -965284.7, -63842.758, -0.015320039, -0.25252602, -821687.7, 21042.592, 0.0, 10.000416, 9.998888 
1.6350222e+3, 2.2400369e+2, -778693.7, -859068.5, -70403.95, -0.040908955, -0.23501284, -737814.8, 6924.6226, 0.0, 10.000143, 9.999075 
1.6350314e+3, 2.3400289e+2, -760789.9, -793831.06, -69487.33, -0.0020965643, -0.2324162, -705886.25, -59139.594, 0.0, 9.999569, 9.999127 
1.6350408e+3, 2.4400191e+2, -719401.0, -723012.2, -50723.504, 0.025839122, -0.23832439, -670450.94, -121694.76, 0.0, 9.99918, 9.999127 
1.6350503e+3, 2.540008e+2, -634394.8, -627256.7, -55769.08, 0.035612818, -0.26687598, -574942.56, -124174.66, 0.0, 9.999073, 9.999163 
1.6350599e+3, 2.640002e+2, -528752.0, -450678.3, -43306.035, 0.039305396, -0.27003404, -431411.75, -78637.88, 0.0, 9.998804, 9.999831 
1.6350697e+3, 2.7400038e+2, -498867.97, -373432.8, -38476.008, 0.036605548, -0.25356904, -362571.2, -107800.2, 0.0, 9.998284, 9.999939 
1.6350795e+3, 2.8400028e+2, -476775.56, -349930.13, -29765.424, 0.033294573, -0.23588887, -343292.72, -186521.45, 0.0, 9.997925, 9.9996 
1.6350897e+3, 2.940002e+2, -400678.1, -266293.03, -53533.992, 0.021259362, -0.20826729, -247574.42, -188801.0, 0.0, 9.99779, 9.999566 
1.6351002e+3, 3.039994e+2, -332993.16, -159305.5, -24317.984, 0.039084807, -0.25936905, -155965.0, -155965.0, 0.0, 9.997708, 10.000008 
1.6351119e+3, 3.1399962e+2, -231362.69, 48658.47, -17464.697, 0.10129954, -0.25090128, 49743.523, 49743.523, 0.0, 9.997719, 10.001431 
1.6449286e+3, 1.240048e+2, -1499526.8, -1712509.9, -93068.85, 0.01080325, -0.2878076, -1464589.0, 260136.0, 0.036291655, 10.002, 9.999053 
1.6449408e+3, 1.3400269e+2, -1329505.9, -1632979.3, 94220.21, 0.07252881, -0.3626618, -1302632.8, 324113.44, 0.022544228, 10.002689, 9.998603 
1.6449499e+3, 1.4400229e+2, -1194694.4, -1494898.0, -3239.3098, -0.06374885, -0.26849535, -1194659.5, 334090.84, 0.010552243, 10.002829, 9.9988 
1.6449602e+3, 1.5400118e+2, -1175980.6, -1433508.8, -12904.77, 0.035722967, -0.26751363, -1175335.6, 255425.72, 0.0031239854, 10.002256, 9.99882 
1.6449694e+3, 1.6399997e+2, -1143305.4, -1368047.1, -24532.797, 0.037710972, -0.26548678, -1140658.5, 192114.23, 0.0004029895, 10.001806, 9.998813 
1.6449778e+3, 1.7399871e+2, -1080873.5, -1285328.0, -22695.55, -0.04265578, -0.2789525, -1078384.4, 156400.25, 0.0000070009137, 10.001554, 9.998829 
1.6449867e+3, 1.8399741e+2, -1021996.2, -1214887.4, -28455.38, -0.050825443, -0.28694403, -1017886.0, 118911.516, 0.0, 10.00132, 9.998754 
1.6449966e+3, 1.9399613e+2, -954712.1, -1130310.4, -30148.443, 0.030215243, -0.2961757, -949680.1, 89130.516, 0.0, 10.001102, 9.998767 
1.6450058e+3, 2.0399496e+2, -898210.5, -1048643.5, -41554.84, 0.0521921, -0.28590247, -887494.94, 53328.016, 0.0, 10.000801, 9.998802 
1.645014e+3, 2.1399412e+2, -859388.1, -976035.7, -48257.9, -0.0075243907, -0.2583678, -842011.94, 821.10077, 0.0, 10.0003805, 9.99883 
1.6450223e+3, 2.2399326e+2, -785675.6, -860331.1, -61683.184, -0.03101318, -0.23586452, -750905.0, -6062.9805, 0.0, 10.000087, 9.999094 
1.6450311e+3, 2.3399247e+2, -699957.94, -761724.94, -63185.96, -0.0028209477, -0.23264374, -660511.8, -13663.33, 0.0, 9.999974, 9.999151 
1.64504e+3, 2.4399151e+2, -658496.3, -694886.1, -41924.844, 0.020274464, -0.23830913, -630988.4, -82130.766, 0.0, 9.999604, 9.999115 
1.6450492e+3, 2.539904e+2, -670471.1, -647001.44, -37270.773, 0.033810314, -0.26729286, -619661.75, -168792.11, 0.0, 9.9988365, 9.999141 
1.6450585e+3, 2.6398978e+2, -602029.75, -502836.75, -20483.795, 0.039065488, -0.26448262, -498773.22, -145897.16, 0.0, 9.998375, 9.999679 
1.645068e+3, 2.739899e+2, -497336.2, -392219.7, -40647.242, 0.03529277, -0.23386566, -378335.72, -123461.55, 0.0, 9.99838, 9.999763 
1.6450778e+3, 2.8398955e+2, -425263.72, -328347.72, -29555.512, 0.03383143, -0.23086843, -320045.66, -163168.78, 0.0, 9.998294, 9.99957 
1.6450875e+3, 2.9398894e+2, -372769.03, -253407.34, -19813.094, 0.027771724, -0.2556715, -250204.48, -191321.47, 0.0, 9.997987, 9.999558 
1.6450976e+3, 3.0398837e+2, -359724.94, -175224.63, 21995.04, 0.025185553, -0.28156057, -172638.75, -172638.75, 0.0, 9.997539, 9.999978 
1.6451092e+3, 3.1398904e+2, -316376.94, 34287.18, -1104.8691, 0.10019114, -0.22614777, 34290.66, 34290.66, 0.0, 9.997021, 10.001668 
1.654931e+3, 1.23995535e+2, -1507197.8, -1727764.1, -85414.695, 0.04675618, -0.3319899, -1477988.9, 246826.48, 0.038870342, 10.001998, 9.998949 
1.6549432e+3, 1.339948e+2, -1353833.1, -1685394.6, 120769.81, 0.048445277, -0.23379205, -1314507.6, 312317.9, 0.024226949, 10.002695, 9.998243 
1.6549529e+3, 1.439942e+2, -1207922.6, -1521211.8, -22515.506, -0.06300793, -0.13212328, -1206312.8, 322519.28, 0.011408221, 10.002826, 9.998619 
1.6549617e+3, 1.5399131e+2, -1188399.1, -1459577.3, -34330.508, -0.04333277, -0.28915256, -1184120.5, 246737.19, 0.0034157853, 10.002256, 9.998642 
1.6549706e+3, 1.639893e+2, -1143566.1, -1369067.3, -35870.656, -0.030260777, -0.35925248, -1137997.6, 194878.22, 0.00045137366, 10.001806, 9.998807 
1.65498e+3, 1.7398873e+2, -1079632.0, -1283494.0, -31278.69, 0.03964222, -0.30689147, -1074940.9, 159940.72, 0.000008273259, 10.0015545, 9.998842 
1.6549891e+3, 1.8398783e+2, -1026218.0, -1223454.5, -37174.387, 0.057596978, -0.27153543, -1019444.1, 117446.55, 0.0, 10.001319, 9.998695 
1.654997e+3, 1.9398652e+2, -960079.06, -1141564.9, -37724.29, -0.021935718, -0.27398124, -952549.9, 86354.22, 0.0, 10.001102, 9.998691 
1.6550055e+3, 2.0398523e+2, -908671.6, -1070034.0, -56963.72, -0.045592744, -0.26861322, -890588.8, 50329.195, 0.0, 10.000798, 9.998656 
1.6550146e+3, 2.1398401e+2, -870675.8, -999447.1, -63073.793, 0.02269745, -0.26227638, -844929.25, -1997.7354, 0.0, 10.00038, 9.998671 
1.6550232e+3, 2.2398283e+2, -785708.6, -860095.6, -67205.305, 0.04549153, -0.26319, -746091.25, -1147.6158, 0.0, 10.000084, 9.999098 
1.6550311e+3, 2.3398176e+2, -698213.3, -758888.4, -65820.82, -0.0014620807, -0.28939638, -656075.0, -9122.085, 0.0, 9.999976, 9.999171 
1.6550393e+3, 2.4398102e+2, -650006.25, -677168.0, -67832.38, -0.015033963, -0.28208947, -594408.56, -45448.582, 0.0, 9.999602, 9.999239 
1.655048e+3, 2.5398082e+2, -660496.9, -627481.75, -64521.848, 0.020449365, -0.23187923, -577389.25, -126426.79, 0.0, 9.998839, 9.999274 
1.6550569e+3, 2.6398033e+2, -631882.4, -566343.9, -22308.002, 0.032003146, -0.2068636, -559471.3, -206503.13, 0.0, 9.998379, 9.999242 
1.6550662e+3, 2.7397928e+2, -532338.4, -466360.4, -37328.42, 0.009104132, -0.24048817, -449532.88, -194554.02, 0.0, 9.998384, 9.999252 
1.6550758e+3, 2.8397828e+2, -399887.2, -276395.94, -38637.62, 0.011716531, -0.292434, -265303.47, -108315.734, 0.0, 9.998295, 9.9999275 
1.6550857e+3, 2.939777e+2, -338628.63, -184100.69, -30502.832, 0.043955386, -0.35303092, -178297.56, -119307.77, 0.0, 9.997992, 10.000033 
1.6550954e+3, 3.03978e+2, -380601.2, -218134.3, 2297.402, 0.037518222, -0.30998647, -218101.81, -218101.81, 0.0, 9.997537, 9.999684 
1.6551064e+3, 3.1397876e+2, -341598.56, -16498.707, -11297.387, 0.10273775, -0.20735233, -16106.59, -16106.59, 0.0, 9.997014, 10.001322 
1.6649336e+3, 1.2398649e+2, -1355785.8, -1665299.0, -130529.586, 0.04666137, -0.29255557, -1308088.4, 416816.9, 0.04162856, 10.003143, 9.998836 
1.6649455e+3, 1.3398547e+2, -1401825.9, -1735727.1, 83764.0, 0.018235136, -0.19785258, -1381990.8, 244927.67, 0.026035924, 10.002481, 9.997995 
1.6649556e+3, 1.4398442e+2, -1314834.3, -1563017.0, -55248.5, -0.023720877, -0.1330003, -1303090.9, 225838.25, 0.012337034, 10.002041, 9.99871 
1.6649638e+3, 1.5398167e+2, -1210359.5, -1455975.5, -46143.18, -0.045184456, -0.28887683, -1201976.9, 228975.34, 0.003736676, 10.002045, 9.998769 
1.6649723e+3, 1.6397968e+2, -1129348.0, -1372121.1, -35551.68, -0.047091484, -0.36119214, -1124249.0, 208720.77, 0.00050616945, 10.001946, 9.998718 
1.6649818e+3, 1.7397895e+2, -1067743.8, -1290768.8, -42190.83, 0.04134465, -0.3101737, -1060029.1, 174948.11, 0.000009797576, 10.001692, 9.998727 
1.6649906e+3, 1.83978e+2, -1015072.3, -1216366.3, -51349.63, 0.067301705, -0.27405584, -1002729.9, 134257.1, 0.0, 10.001388, 9.998713 
1.6649982e+3, 1.9397677e+2, -969293.7, -1141839.8, -45433.44, -0.018978998, -0.27437484, -958061.6, 80937.92, 0.0, 10.001022, 9.998726 
1.6650063e+3, 2.0397551e+2, -915564.4, -1066468.8, -53107.367, -0.04713608, -0.26935023, -898748.3, 42264.332, 0.0, 10.000723, 9.998716 
1.665015e+3, 2.1397434e+2, -847891.8, -981602.5, -44351.246, 0.018748997, -0.26608062, -834518.3, 8507.025, 0.0, 10.000507, 9.998731 
1.6650233e+3, 2.2397311e+2, -777944.06, -871705.44, -41573.695, 0.042624347, -0.26753607, -762165.56, -17127.746, 0.0, 10.000204, 9.99896 
1.665031e+3, 2.3397192e+2, -740778.7, -797940.56, -55731.56, 0.0012983702, -0.29074126, -706726.75, -59677.375, 0.0, 9.999764, 9.999004 
1.6650389e+3, 2.4397106e+2, -667476.3, -683378.5, -73013.48, -0.0110560125, -0.284696, -601982.25, -52924.637, 0.0, 9.999473, 9.999258 
1.665047e+3, 2.5397086e+2, -575679.56, -582476.75, -79136.92, 0.018850634, -0.24044591, -499868.28, -48808.83, 0.0, 9.999406, 9.999309 
1.6650556e+3, 2.6397032e+2, -533707.1, -532008.44, -26821.137, 0.024636386, -0.21470328, -506023.2, -152958.05, 0.0, 9.99911, 9.999124 
1.6650644e+3, 2.739692e+2, -534164.2, -482731.72, -15789.181, -0.0022600237, -0.2418805, -478271.4, -223194.38, 0.0, 9.99844, 9.999112 
1.6650738e+3, 2.8396812e+2, -439378.72, -283786.84, -4842.0493, 0.007375016, -0.29973558, -283636.28, -126549.52, 0.0, 9.997975, 10.00003 
1.6650839e+3, 2.9396752e+2, -354239.5, -175514.92, -23234.55, 0.06121083, -0.37845558, -172543.78, -113455.234, 0.0, 9.997816, 10.000176 
1.6650929e+3, 3.0396816e+2, -388683.8, -208072.53, -1835.8784, 0.042195793, -0.3130858, -208053.88, -208053.88, 0.0, 9.997422, 9.999808 
1.665103e+3, 3.1396857e+2, -394640.94, -54020.035, 25790.508, 0.09008888, -0.2542987, -52078.348, -52078.348, 0.0, 9.996701, 10.001215 
1.6749363e+3, 1.23977624e+2, -1361810.1, -1679003.0, -153082.28, -0.0028032348, -0.17567681, -1299981.9, 425013.75, 0.04455171, 10.003153, 9.99874 
1.6749474e+3, 1.3397473e+2, -1411253.6, -1755272.4, 57827.113, -0.025469262, -0.25691903, -1401793.4, 225231.63, 0.027968736, 10.002482, 9.99786 
1.6749583e+3, 1.4397292e+2, -1290252.4, -1510320.4, -59118.68, 0.047198463, -0.27621588, -1275376.4, 253665.64, 0.013341848, 10.002036, 9.999075 
1.6749667e+3, 1.5397225e+2, -1180535.9, -1393366.4, -44721.633, 0.028377218, -0.26618615, -1171520.5, 259524.1, 0.004089343, 10.002042, 9.999202 
1.6749746e+3, 1.6397111e+2, -1141864.9, -1398351.9, -44776.332, -0.01508408, -0.26859158, -1134272.8, 198781.27, 0.0005678562, 10.001946, 9.998539 
1.6749826e+3, 1.7396943e+2, -1085458.6, -1328346.5, -51528.3, -0.04143716, -0.28842452, -1074979.1, 160092.38, 0.000011659807, 10.001694, 9.998468 
1.674991e+3, 1.8396796e+2, -1008431.1, -1202333.5, -65174.527, -0.026528193, -0.29497036, -988560.9, 148525.69, 0.0, 10.001385, 9.99881 
1.6749997e+3, 1.9396684e+2, -959800.94, -1122428.4, -58193.55, 0.034875408, -0.2979827, -941122.56, 97974.59, 0.0, 10.001022, 9.99886 
1.675008e+3, 2.0396581e+2, -897167.2, -1027715.3, -62069.45, 0.04326803, -0.2882724, -872367.3, 68739.734, 0.0, 10.00072, 9.998984 
1.6750151e+3, 2.1396506e+2, -828702.3, -941728.94, -51343.4, -0.021089002, -0.26983514, -808861.9, 34252.684, 0.0, 10.000506, 9.999006 
1.6750227e+3, 2.2396408e+2, -798499.6, -913584.9, -57154.395, -0.041499604, -0.24907544, -774938.75, -29813.926, 0.0, 10.0002, 9.998674 
1.6750307e+3, 2.339629e+2, -765677.8, -849845.1, -70708.23, 0.002377518, -0.23843591, -725477.25, -78338.97, 0.0, 9.999764, 9.998649 
1.6750388e+3, 2.4396166e+2, -674332.75, -697536.9, -76456.555, 0.028066186, -0.24701497, -608603.0, -59452.035, 0.0, 9.999471, 9.999163 
1.6750465e+3, 2.539605e+2, -580248.06, -592696.06, -79354.18, 0.024316726, -0.29104027, -506874.16, -55713.293, 0.0, 9.999407, 9.999239 
1.6750544e+3, 2.6395977e+2, -520304.53, -504611.1, -48712.156, 0.013201905, -0.2876649, -463117.72, -109950.26, 0.0, 9.99911, 9.999313 
1.6750629e+3, 2.7395964e+2, -517868.8, -450025.25, -39107.098, -0.0036723362, -0.23989335, -432177.8, -177008.17, 0.0, 9.998443, 9.999336 
1.675072e+3, 2.83959e+2, -449407.72, -305446.97, -11926.431, 0.015770063, -0.2545265, -304465.6, -147290.66, 0.0, 9.997977, 9.999881 
1.6750818e+3, 2.9395828e+2, -366050.5, -200605.63, -26483.969, 0.073798254, -0.32941303, -196469.55, -137289.86, 0.0, 9.997817, 10.000004 
1.6750903e+3, 3.039588e+2, -352983.78, -134237.47, -27070.059, 0.03605706, -0.29145598, -130937.31, -130937.31, 0.0, 9.997422, 10.000317 
1.6750994e+3, 3.1395876e+2, -389919.5, -45803.75, 16639.531, 0.04718915, -0.32942334, -45001.027, -45001.027, 0.0, 9.996707, 10.001268 
1.6849394e+3, 1.2396839e+2, -1355026.9, -1681764.3, -88162.41, -0.0006407441, -0.18480746, -1332756.3, 392329.28, 0.04763037, 10.003242, 9.998673 
1.6849498e+3, 1.3396534e+2, -1338669.8, -1720232.1, 116650.8, -0.0704507, -0.28169075, -1305833.3, 321282.47, 0.030026976, 10.003004, 9.997853 
1.684961e+3, 1.4396325e+2, -1214589.0, -1480573.0, -1205.635, 0.07753475, -0.3268323, -1214583.5, 314552.03, 0.014428621, 10.002594, 9.999014 
1.6849688e+3, 1.5396301e+2, -1191529.0, -1405475.5, -24468.432, 0.0441964, -0.26894525, -1188766.3, 242368.61, 0.0044782558, 10.001995, 9.999141 
1.6849764e+3, 1.6396204e+2, -1189060.0, -1419793.4, -32318.242, -0.01048832, -0.25022283, -1184618.8, 148524.05, 0.0006375465, 10.001617, 9.99855 
1.6849843e+3, 1.7396022e+2, -1099358.1, -1332338.8, -18777.438, -0.048387952, -0.2862502, -1097854.4, 137307.05, 0.00001399049, 10.001589, 9.998491 
1.6849923e+3, 1.8395865e+2, -1005451.8, -1203424.5, -32183.389, -0.037568495, -0.30393815, -1000351.3, 136826.11, 0.0, 10.001417, 9.998787 
1.6850007e+3, 1.9395748e+2, -963001.9, -1128030.3, -40360.867, 0.030245088, -0.30853844, -953659.7, 85528.98, 0.0, 10.001018, 9.998825 
1.6850086e+3, 2.0395645e+2, -901965.0, -1025756.6, -53402.168, 0.044492688, -0.29877022, -882111.9, 59086.535, 0.0, 10.000668, 9.999024 
1.6850156e+3, 2.1395576e+2, -840461.56, -941438.2, -60825.13, -0.015561041, -0.27772027, -811900.7, 31304.078, 0.0, 10.000401, 9.999058 
1.685023e+3, 2.2395481e+2, -811667.5, -926578.5, -71591.73, -0.03471763, -0.25544506, -777327.0, -32112.23, 0.0, 10.00014, 9.998613 
1.6850306e+3, 2.3395357e+2, -754411.25, -852727.75, -66463.984, 0.005705542, -0.2434205, -720901.5, -73672.42, 0.0, 9.999881, 9.998572 
1.6850384e+3, 2.4395224e+2, -666386.6, -705019.7, -55779.99, 0.030940013, -0.251217, -626673.2, -77430.336, 0.0, 9.999577, 9.999059 
1.685046e+3, 2.5395095e+2, -619100.5, -624005.56, -63205.973, 0.031929906, -0.29771793, -558299.5, -107045.03, 0.0, 9.999195, 9.9991255 
1.6850536e+3, 2.6395014e+2, -558696.44, -513267.2, -47357.92, 0.024382401, -0.30099013, -483458.22, -130196.47, 0.0, 9.998805, 9.9994 
1.6850615e+3, 2.7395e+2, -515247.25, -436711.16, -48712.313, 0.007966023, -0.26173836, -413410.28, -158147.53, 0.0, 9.99841, 9.999443 
1.6850701e+3, 2.8394958e+2, -459615.53, -331224.78, -18854.436, 0.02204691, -0.2552966, -328513.25, -171246.72, 0.0, 9.997998, 9.999693 
1.6850795e+3, 2.9394916e+2, -422999.03, -251237.88, -37533.457, 0.072142996, -0.27818438, -243394.2, -184123.86, 0.0, 9.997527, 9.999795 
1.6850875e+3, 3.0394948e+2, -378960.16, -112109.18, -53164.555, 0.03571033, -0.26438323, -101907.266, -101907.266, 0.0, 9.997097, 10.000624 
1.6850959e+3, 3.139493e+2, -389249.28, -45798.38, -13159.607, 0.037901282, -0.34941742, -45294.9, -45294.9, 0.0, 9.996713, 10.0012665 
1.6949432e+3, 1.23958625e+2, -1361036.0, -1692051.3, -78580.805, 0.041622993, -0.3429694, -1343328.8, 381848.03, 0.05086495, 10.00324, 9.998603 
1.6949522e+3, 1.3395742e+2, -1331640.0, -1702623.3, 107865.305, -0.12061601, -0.27042568, -1302557.4, 324632.53, 0.032215923, 10.003, 9.997975 
1.6949636e+3, 1.4395545e+2, -1250234.9, -1554989.0, -23201.201, 0.06347397, -0.28335693, -1248478.6, 280730.8, 0.015604373, 10.002595, 9.9985 
1.6949703e+3, 1.5395394e+2, -1231083.0, -1489273.8, -46746.164, -0.0036512099, -0.29650915, -1222880.1, 208342.78, 0.0049088504, 10.002, 9.998564 
1.6949777e+3, 1.6395247e+2, -1173980.6, -1388837.9, -36279.363, -0.03996078, -0.30555964, -1168020.1, 165216.17, 0.0007170378, 10.001617, 9.998764 
1.6949865e+3, 1.7395133e+2, -1077717.6, -1287960.8, -18705.473, 0.017719934, -0.3051389, -1076066.4, 159180.78, 0.000016975888, 10.001589, 9.998796 
1.6949944e+3, 1.8395005e+2, -1016887.4, -1226639.9, -45998.418, 0.031228377, -0.3013057, -1007243.4, 130016.38, 0.0, 10.001414, 9.99863 
1.6950011e+3, 1.9394867e+2, -978184.25, -1159745.9, -54706.734, -0.035018586, -0.3060729, -962974.56, 76299.54, 0.0, 10.001017, 9.998609 
1.6950083e+3, 2.0394741e+2, -915685.9, -1053379.8, -64195.746, -0.046062637, -0.30049676, -890399.94, 50886.99, 0.0, 10.000663, 9.9988365 
1.6950165e+3, 2.1394643e+2, -853779.8, -968770.8, -69664.29, 0.031389523, -0.29086488, -820948.94, 22347.4, 0.0, 10.000398, 9.998872 
1.695024e+3, 2.2394525e+2, -800888.1, -903439.7, -81445.14, 0.058211613, -0.2871551, -755921.94, -10613.932, 0.0, 10.000136, 9.998775 
1.6950305e+3, 2.339439e+2, -740949.3, -824912.6, -74494.23, 0.007742921, -0.30537337, -697421.6, -50099.563, 0.0, 9.999879, 9.998764 
1.6950376e+3, 2.4394278e+2, -675509.94, -723375.5, -68828.01, -0.0051571326, -0.29763284, -626572.5, -77238.71, 0.0, 9.999573, 9.998936 
1.6950452e+3, 2.5394216e+2, -630315.3, -647696.0, -75415.016, 0.038978107, -0.26146778, -563091.56, -111750.79, 0.0, 9.999196, 9.998964 
1.6950527e+3, 2.6394132e+2, -559891.44, -516558.34, -61291.785, 0.054744493, -0.25514787, -473216.25, -119867.59, 0.0, 9.998807, 9.999377 
1.69506e+3, 2.739403e+2, -515318.97, -438676.47, -61121.797, 0.026177479, -0.30477023, -404856.25, -149499.34, 0.0, 9.998416, 9.999427 
1.695068e+3, 2.8393975e+2, -475631.25, -365929.28, -35575.33, 0.021026418, -0.30033386, -355402.63, -198040.55, 0.0, 9.998003, 9.999454 
1.6950768e+3, 2.9394004e+2, -441080.0, -288075.63, -52711.11, 0.051505517, -0.2249083, -271674.38, -212313.03, 0.0, 9.997522, 9.999546 
1.6950846e+3, 3.0394e+2, -371346.7, -96422.74, -67064.38, 0.03540819, -0.23834819, -80935.625, -80935.625, 0.0, 9.997096, 10.000732 
1.6950928e+3, 3.1394038e+2, -383536.44, -37997.637, -9462.068, 0.04527412, -0.28069478, -37738.727, -37738.727, 0.0, 9.996729, 10.001313 
1.7049466e+3, 1.2395006e+2, -1365244.4, -1708917.4, -70532.8, 0.05317325, -0.37349084, -1351332.0, 373927.16, 0.054258425, 10.003286, 9.99846 
1.7049548e+3, 1.3394938e+2, -1373699.0, -1719526.1, 76818.45, -0.14582755, -0.24947208, -1357403.3, 269863.8, 0.034540452, 10.002693, 9.998003 
1.7049661e+3, 1.4394735e+2, -1299538.9, -1600991.8, -39397.31, 0.090411305, -0.26281115, -1294475.0, 234812.7, 0.016874576, 10.00235, 9.9983015 
1.7049724e+3, 1.5394521e+2, -1190802.4, -1494138.8, -37700.742, -0.0131149385, -0.31762835, -1186186.9, 245121.03, 0.0053858333, 10.002384, 9.998345 
1.7049794e+3, 1.639435e+2, -1089970.1, -1342640.1, -17094.295, -0.05916964, -0.34139094, -1088818.9, 244505.16, 0.00080826663, 10.002169, 9.998816 
1.7049882e+3, 1.739427e+2, -1070067.8, -1275496.8, -17887.2, 0.023966683, -0.3132439, -1068521.9, 166809.14, 0.000020835996, 10.001602, 9.998877 
1.7049958e+3, 1.8394163e+2, -1055476.6, -1248452.1, -50149.816, 0.047554355, -0.2922684, -1043222.06, 94119.46, 0.0, 10.001163, 9.998602 
1.705002e+3, 1.9394022e+2, -995052.6, -1171832.8, -47390.973, -0.031997975, -0.29710352, -983149.56, 56206.92, 0.0, 10.00092, 9.998571 
1.705009e+3, 2.0393877e+2, -920179.56, -1074075.3, -44281.477, -0.0475678, -0.2989973, -908347.8, 33023.45, 0.0, 10.000714, 9.998669 
1.705017e+3, 2.1393743e+2, -845888.5, -985900.94, -50831.637, 0.036622867, -0.3055646, -829380.4, 14004.025, 0.0, 10.000545, 9.998684 
1.7050242e+3, 2.2393619e+2, -774021.4, -875400.8, -67446.94, 0.07040009, -0.30633974, -740339.7, 5057.1597, 0.0, 10.000257, 9.998908 
1.7050306e+3, 2.3393512e+2, -740960.7, -806145.4, -65759.01, 0.02726437, -0.31148836, -700160.2, -52752.95, 0.0, 9.9998, 9.998931 
1.7050372e+3, 2.4393417e+2, -704881.75, -748903.5, -58579.703, 0.008206019, -0.29218823, -664314.2, -114896.94, 0.0, 9.999421, 9.998833 
1.7050442e+3, 2.5393346e+2, -646188.4, -669976.4, -64641.363, 0.026933197, -0.24950357, -592355.9, -140930.19, 0.0, 9.999153, 9.99883 
1.7050514e+3, 2.6393253e+2, -554621.8, -521077.44, -50472.4, 0.039828368, -0.24647634, -484663.47, -131228.2, 0.0, 9.998878, 9.999311 
1.7050587e+3, 2.7393132e+2, -497809.28, -437043.03, -56181.15, 0.040543925, -0.30853537, -403555.56, -148110.44, 0.0, 9.998568, 9.999365 
1.7050661e+3, 2.8393072e+2, -474457.44, -371262.13, -35070.777, 0.034527186, -0.3043835, -360471.66, -203020.86, 0.0, 9.998038, 9.999399 
1.7050739e+3, 2.9393092e+2, -489111.94, -317870.94, -38660.21, 0.027496167, -0.23011057, -309547.4, -250096.64, 0.0, 9.997223, 9.999485 
1.7050816e+3, 3.039304e+2, -427421.6, -145098.06, -39005.566, 0.036783863, -0.2786685, -139808.2, -139808.2, 0.0, 9.996804, 10.000539 
1.7050897e+3, 3.139315e+2, -363551.7, -25388.164, 1917.675, 0.06282537, -0.23007447, -25377.29, -25377.29, 0.0, 9.996856, 10.001338 
1.7149496e+3, 1.23942494e+2, -1385325.8, -1747442.8, -58930.137, 0.02546666, -0.2929826, -1375977.0, 349357.56, 0.05779923, 10.003273, 9.998201 
1.7149575e+3, 1.3394131e+2, -1377997.0, -1727730.4, 54039.03, -0.15304354, -0.21581216, -1369837.6, 257509.34, 0.03699678, 10.002695, 9.997945 
1.7149693e+3, 1.4393894e+2, -1290885.3, -1582956.3, -40681.11, 0.15143655, -0.26236525, -1285324.9, 244045.19, 0.018240586, 10.002353, 9.9984255 
1.7149751e+3, 1.5393679e+2, -1180501.0, -1472661.5, -35644.258, 0.013269886, -0.33439952, -1176215.3, 255175.03, 0.0059123994, 10.002384, 9.998494 
1.7149815e+3, 1.639351e+2, -1098882.9, -1360707.0, -36857.35, -0.071301, -0.3587092, -1093793.4, 239612.72, 0.0009130127, 10.002166, 9.998694 
1.7149891e+3, 1.7393436e+2, -1080520.0, -1298294.1, -38609.133, -0.03368481, -0.30990955, -1073877.6, 161535.44, 0.000025810483, 10.001606, 9.99872 
1.7149965e+3, 1.8393336e+2, -1048527.4, -1234097.9, -61177.727, 0.0056159124, -0.27628097, -1030173.9, 107248.914, 0.0, 10.001161, 9.998702 
1.7150037e+3, 1.9393206e+2, -985947.44, -1153039.9, -55485.883, 0.03585841, -0.28370467, -969200.8, 70235.37, 0.0, 10.000918, 9.998702 
1.7150106e+3, 2.0393053e+2, -931381.94, -1096165.8, -50955.793, 0.036400963, -0.2953881, -916898.06, 24553.643, 0.0, 10.000709, 9.998521 
1.7150173e+3, 2.1392882e+2, -860098.7, -1014328.4, -55762.95, -0.0028439325, -0.32167694, -842049.44, 1419.677, 0.0, 10.000538, 9.998492 
1.7150238e+3, 2.2392759e+2, -768771.3, -863110.0, -83480.28, -0.00093538314, -0.31278706, -720055.8, 25425.729, 0.0, 10.00025, 9.998997 
1.7150308e+3, 2.339272e+2, -732301.9, -788341.3, -81435.85, 0.061721075, -0.26286975, -674200.2, -26715.027, 0.0, 9.999799, 9.999054 
1.7150372e+3, 2.4392635e+2, -711113.9, -761389.94, -68816.16, 0.067582116, -0.23584294, -662988.1, -113494.25, 0.0, 9.999418, 9.998749 
1.715043e+3, 2.5392488e+2, -654246.3, -687027.4, -72458.945, -0.009441271, -0.26079154, -596347.25, -144837.64, 0.0, 9.999153, 9.9987135 
1.7150496e+3, 2.6392362e+2, -562796.94, -538384.0, -60977.438, -0.023925608, -0.27520213, -488403.28, -134880.98, 0.0, 9.998878, 9.999194 
1.7150573e+3, 2.7392295e+2, -506267.56, -454206.97, -66118.01, 0.048109423, -0.27436417, -409179.78, -153651.44, 0.0, 9.998565, 9.999249 
1.7150645e+3, 2.8392234e+2, -465768.38, -352707.6, -63424.074, 0.05837387, -0.26797292, -324277.4, -166743.84, 0.0, 9.998035, 9.999528 
1.7150708e+3, 2.9392174e+2, -479544.03, -300248.6, -65630.76, -0.0062860134, -0.28912205, -278792.25, -219253.13, 0.0, 9.997232, 9.999602 
1.7150784e+3, 3.0392057e+2, -463292.1, -223466.2, -39593.17, 0.033606164, -0.38160807, -217098.78, -217098.78, 0.0, 9.9968195, 9.999995 
1.7150868e+3, 3.1392205e+2, -356150.5, -11505.638, 10405.417, 0.079745114, -0.23964252, -11191.766, -11191.766, 0.0, 9.99686, 10.001432 
1.7249534e+3, 1.23934545e+2, -1229984.1, -1675937.4, -43666.85, 0.01983754, -0.25780672, -1225748.5, 499664.72, 0.061463173, 10.004447, 9.998145 
1.7249602e+3, 1.3393271e+2, -1297564.8, -1681391.9, 30794.516, -0.18222469, -0.25026053, -1295109.8, 332321.1, 0.03957232, 10.003254, 9.997992 
1.7249715e+3, 1.4393042e+2, -1279899.8, -1564049.5, -31615.496, 0.15703687, -0.29770306, -1276424.6, 253028.44, 0.019698907, 10.002373, 9.998546 
1.7249773e+3, 1.5392897e+2, -1223639.6, -1478755.0, -27325.135, 0.028643377, -0.31131902, -1220745.6, 210721.16, 0.0064899237, 10.002024, 9.998626 
1.7249836e+3, 1.6392754e+2, -1158773.1, -1398927.8, -31597.658, -0.055195224, -0.31404173, -1154685.4, 178795.25, 0.001032905, 10.001796, 9.9986105 
1.7249909e+3, 1.7392628e+2, -1069724.1, -1305984.6, -32002.09, -0.033363078, -0.30525917, -1065466.0, 170026.61, 0.00003215152, 10.001736, 9.998604 
1.7249979e+3, 1.8392503e+2, -995790.56, -1204758.3, -55603.465, 0.005727582, -0.29281375, -981916.44, 155588.42, 0.0, 10.001507, 9.998736 
1.7250049e+3, 1.9392389e+2, -966272.7, -1138424.5, -58012.484, 0.05778458, -0.2878675, -948548.25, 90967.984, 0.0, 10.001031, 9.998748 
1.7250115e+3, 2.0392254e+2, -933682.06, -1082152.1, -42115.363, 0.06115893, -0.28933257, -922567.56, 18962.113, 0.0, 10.0006275, 9.998656 
1.7250176e+3, 2.1392103e+2, -878817.9, -1006854.3, -23829.6, -0.0034341027, -0.31133997, -874526.6, -30981.756, 0.0, 10.00034, 9.998637 
1.725024e+3, 2.2391975e+2, -802088.2, -898396.5, -48268.5, -0.0094702635, -0.3068912, -782061.2, -36503.484, 0.0, 10.000105, 9.998822 
1.7250307e+3, 2.3391901e+2, -728151.4, -809513.5, -72743.46, 0.06958654, -0.2714769, -685486.44, -37921.11, 0.0, 9.99993, 9.998843 
1.7250368e+3, 2.4391803e+2, -675448.94, -733308.9, -69548.3, 0.08149281, -0.2510238, -629053.56, -79478.19, 0.0, 9.99962, 9.998842 
1.7250422e+3, 2.539167e+2, -651695.94, -672261.5, -58258.445, -0.0034153115, -0.27218863, -602819.75, -151231.11, 0.0, 9.999115, 9.998832 
1.7250483e+3, 2.6391557e+2, -611194.3, -568441.56, -36534.52, -0.0206576, -0.282121, -547489.2, -193888.77, 0.0, 9.998574, 9.999133 
1.7250557e+3, 2.739148e+2, -597387.0, -507224.16, -40834.883, 0.052747313, -0.2750763, -491479.4, -235871.8, 0.0, 9.997981, 9.999166 
1.7250623e+3, 2.8391427e+2, -506889.94, -354985.78, -30563.848, 0.055560663, -0.26781294, -349066.8, -191454.0, 0.0, 9.99768, 9.999683 
1.7250682e+3, 2.9391378e+2, -387172.78, -239527.63, -31620.883, -0.017509496, -0.29652983, -233040.47, -173423.84, 0.0, 9.997799, 9.999745 
1.7250758e+3, 3.039128e+2, -393587.4, -230355.06, -3419.6094, 0.06306548, -0.36182892, -230283.47, -230283.47, 0.0, 9.997473, 9.999634 
1.7250833e+3, 3.1391355e+2, -411875.88, -21432.785, 51419.992, 0.06664244, -0.2539836, -14774.496, -14774.496, 0.0, 9.996406, 10.001584 
1.7349578e+3, 1.239262e+2, -1228619.6, -1667836.4, -44036.645, 0.026043465, -0.26856205, -1224248.0, 501247.16, 0.06523749, 10.004438, 9.998211 
1.7349629e+3, 1.3392355e+2, -1289475.4, -1660945.0, -15031.529, -0.23858644, -0.35752386, -1288868.0, 338651.28, 0.042257246, 10.00325, 9.998133 
1.7349735e+3, 1.4392172e+2, -1272937.5, -1547913.3, -47928.746, 0.103546865, -0.37102956, -1264822.9, 264713.88, 0.021244539, 10.002369, 9.99866 
1.7349793e+3, 1.5392177e+2, -1214887.0, -1462025.4, -39276.37, 0.027917733, -0.24641758, -1208795.1, 222742.48, 0.007118056, 10.002029, 9.998739 
1.7349857e+3, 1.639208e+2, -1161773.5, -1405482.6, -35535.96, -0.018530728, -0.20499136, -1156697.6, 176849.94, 0.0011691411, 10.001796, 9.998566 
1.734993e+3, 1.7391846e+2, -1074701.6, -1316259.9, -33359.76, 0.022290656, -0.3009108, -1070179.3, 165390.75, 0.00004011834, 10.001734, 9.998535 
1.7349999e+3, 1.8391661e+2, -999521.94, -1211491.3, -71931.14, 0.04566742, -0.34280324, -977417.44, 160170.4, 0.0, 10.001501, 9.998693 
1.7350057e+3, 1.9391571e+2, -969909.7, -1145457.8, -74587.12, 0.030251687, -0.30879858, -942499.0, 97097.84, 0.0, 10.001027, 9.998703 
1.7350118e+3, 2.0391482e+2, -905649.6, -1023129.2, -54069.164, 0.022074759, -0.2801164, -884553.06, 57052.195, 0.0, 10.000623, 9.999064 
1.7350183e+3, 2.1391402e+2, -847003.4, -940742.5, -33304.94, 0.031467006, -0.27652186, -836375.3, 7236.951, 0.0, 10.000339, 9.999093 
1.7350246e+3, 2.2391263e+2, -832611.75, -960440.4, -54931.58, 0.040928807, -0.2897303, -812249.7, -66623.73, 0.0, 10.000099, 9.9984 
1.7350304e+3, 2.3391053e+2, -766768.8, -888487.7, -77292.46, 0.04706063, -0.3364675, -729251.44, -81603.414, 0.0, 9.999925, 9.998305 
1.7350361e+3, 2.4390915e+2, -658972.2, -698183.3, -86691.35, 0.04616662, -0.3368061, -589697.1, -40034.92, 0.0, 9.999615, 9.999086 
1.7350417e+3, 2.5390893e+2, -627499.75, -622481.56, -75426.64, 0.04114996, -0.28417432, -549522.3, -97858.65, 0.0, 9.999115, 9.999174 
1.7350475e+3, 2.639082e+2, -611820.44, -570168.1, -57784.918, 0.0454181, -0.26722515, -529570.94, -175900.47, 0.0, 9.998575, 9.999121 
1.7350537e+3, 2.7390695e+2, -600575.94, -515989.3, -61357.58, 0.048028857, -0.3076756, -483760.97, -228077.31, 0.0, 9.99799, 9.999102 
1.7350596e+3, 2.839064e+2, -493425.3, -329261.8, -28352.04, 0.020191371, -0.3034183, -324503.16, -166813.61, 0.0, 9.997688, 9.999857 
1.735066e+3, 2.9390687e+2, -376120.88, -217229.84, -24467.236, -0.011324475, -0.2587287, -213547.53, -153862.52, 0.0, 9.997799, 9.9999 
1.7350739e+3, 3.039069e+2, -407788.5, -258836.48, -38759.81, 0.11982745, -0.21708982, -249354.17, -249354.17, 0.0, 9.997469, 9.99944 
1.7350793e+3, 3.1390515e+2, -399898.8, 1956.7115, -8101.146, 0.023523638, -0.3434293, 2119.959, 2119.959, 0.0, 9.996413, 10.0017395 
1.744962e+3, 1.23918675e+2, -1322722.0, -1715888.0, 49691.535, 0.024800858, -0.30514154, -1316538.8, 409028.75, 0.069128506, 10.003775, 9.998179 
1.7449662e+3, 1.3391612e+2, -1271237.9, -1657818.3, 18350.967, -0.23886113, -0.3778513, -1270368.8, 357222.34, 0.045049455, 10.00342, 9.998071 
1.744976e+3, 1.4391446e+2, -1195146.5, -1518832.3, -14318.5625, 0.09864485, -0.36759597, -1194514.4, 335092.72, 0.022873743, 10.002961, 9.998573 
1.7449817e+3, 1.5391429e+2, -1171717.0, -1451572.3, -22925.48, 0.034819245, -0.25620428, -1169851.4, 261759.02, 0.0077954754, 10.002377, 9.998642 
1.7449878e+3, 1.6391326e+2, -1141073.5, -1388884.8, -13500.681, -0.0036263207, -0.21881461, -1140340.3, 193280.84, 0.0013223072, 10.001909, 9.998625 
1.744995e+3, 1.7391105e+2, -1080999.6, -1310769.3, -693.8932, 0.041115444, -0.30720803, -1080997.5, 154644.4, 0.000049909977, 10.001656, 9.99861 
1.7450015e+3, 1.8390925e+2, -1006702.94, -1209540.9, -35096.55, 0.0586861, -0.3497928, -1000801.94, 136856.92, 0.0000000000000006446772, 10.0014305, 9.99874 
1.7450067e+3, 1.9390826e+2, -935857.56, -1124171.3, -33768.723, 0.020522663, -0.33009085, -929985.2, 109683.28, 0.0, 10.001244, 9.998743 
1.7450124e+3, 2.0390739e+2, -862934.8, -1003868.2, -24825.24, 0.011123558, -0.30307114, -858689.7, 82987.3, 0.0, 10.000923, 9.99905 
1.7450188e+3, 2.1390675e+2, -838535.6, -939079.7, -41640.484, 0.05111969, -0.27902386, -823529.75, 20153.18, 0.0, 10.000408, 9.99907 
1.7450249e+3, 2.239055e+2, -836130.6, -957283.06, -58061.94, 0.06984752, -0.28077632, -812798.2, -67102.48, 0.0, 10.000056, 9.998442 
1.7450304e+3, 2.339034e+2, -758803.2, -879596.6, -38426.71, 0.052546263, -0.3327042, -747615.2, -99897.62, 0.0, 9.999959, 9.998349 
1.7450358e+3, 2.4390191e+2, -653084.56, -703301.7, -46138.105, 0.044145927, -0.3429907, -625665.4, -75932.63, 0.0, 9.99969, 9.999015 
1.745041e+3, 2.5390145e+2, -629620.7, -632869.75, -69390.13, 0.056322213, -0.30309802, -561836.06, -110099.48, 0.0, 9.999144, 9.999087 
1.7450464e+3, 2.639008e+2, -584756.56, -545846.25, -60962.668, 0.06531306, -0.28198403, -501309.63, -147566.48, 0.0, 9.998716, 9.999219 
1.7450519e+3, 2.7389988e+2, -520797.03, -464391.78, -52580.41, 0.050763603, -0.30022234, -432927.94, -177175.25, 0.0, 9.998483, 9.999217 
1.7450574e+3, 2.8389937e+2, -451757.22, -306612.7, -16917.459, 0.008356635, -0.3012021, -304666.94, -146908.48, 0.0, 9.997965, 9.999879 
1.7450634e+3, 2.9389954e+2, -496781.03, -278459.94, -29009.121, -0.025496302, -0.2831759, -274671.13, -214913.94, 0.0, 9.996986, 9.999869 
1.7450711e+3, 3.0390036e+2, -515378.66, -293860.5, -27787.572, 0.13486058, -0.16547972, -290427.97, -290427.97, 0.0, 9.996657, 9.999592 
1.7450759e+3, 3.13898e+2, -281556.78, 65956.08, -5670.7246, 0.010077392, -0.37170008, 66048.59, 66048.59, 0.0, 9.997198, 10.0018015 
1.7549656e+3, 1.23912096e+2, -1336360.4, -1738555.4, 77570.02, 0.012237593, -0.35811183, -1321918.4, 403710.97, 0.0731461, 10.003754, 9.998037 
1.7549701e+3, 1.3391046e+2, -1290067.0, -1697304.3, 4613.1074, -0.18752107, -0.31087434, -1290014.8, 337630.88, 0.04794812, 10.003421, 9.997801 
1.7549793e+3, 1.439087e+2, -1216396.5, -1563047.6, -35161.48, 0.13617215, -0.28335264, -1212865.9, 316797.53, 0.02458278, 10.002963, 9.998268 
1.7549841e+3, 1.539065e+2, -1194300.3, -1498498.0, -44422.23, 0.045922507, -0.34226018, -1187945.9, 243739.5, 0.008520388, 10.002376, 9.998322 
1.7549896e+3, 1.6390483e+2, -1130800.4, -1366426.0, -25101.34, -0.01425745, -0.35810754, -1128156.0, 205545.58, 0.0014925124, 10.0019045, 9.998782 
1.7549965e+3, 1.7390406e+2, -1066340.4, -1280304.9, -9356.62, 0.018258983, -0.3229997, -1065932.0, 169776.28, 0.00006156021, 10.001655, 9.99882 
1.7550027e+3, 1.8390298e+2, -997250.6, -1189821.5, -42532.492, 0.038219366, -0.3127158, -988275.0, 149443.06, 0.0000000010737394, 10.001429, 9.998877 
1.755008e+3, 1.9390152e+2, -927512.2, -1107070.4, -39582.434, 0.0254497, -0.3531938, -919173.75, 120557.945, 0.0, 10.001243, 9.998861 
1.7550135e+3, 2.0390017e+2, -893618.4, -1066923.4, -42858.934, 0.025897926, -0.3581813, -883598.56, 58146.664, 0.0, 10.000919, 9.99862 
1.7550193e+3, 2.1389922e+2, -874382.06, -1012541.44, -59442.484, 0.05175809, -0.31786123, -852327.7, -8570.703, 0.0, 10.000402, 9.99857 
1.7550251e+3, 2.238983e+2, -802646.5, -886737.56, -62902.465, 0.07275551, -0.2799239, -769031.3, -23263.91, 0.0, 10.000051, 9.998929 
1.7550306e+3, 2.338975e+2, -716745.8, -792318.1, -39989.293, 0.08283329, -0.26183182, -699514.3, -51739.617, 0.0, 9.999957, 9.99895 
1.7550358e+3, 2.438962e+2, -680253.25, -758842.5, -64475.203, 0.07170412, -0.2706941, -644042.1, -94254.266, 0.0, 9.999686, 9.998635 
1.75504e+3, 2.5389427e+2, -665110.25, -706796.9, -88202.44, 0.037969448, -0.3286214, -595321.8, -143513.67, 0.0, 9.999144, 9.998581 
1.7550449e+3, 2.638932e+2, -570694.7, -517747.4, -70321.77, 0.034874592, -0.32631585, -469081.16, -115262.03, 0.0, 9.998719, 9.999411 
1.7550504e+3, 2.7389348e+2, -500452.88, -423239.2, -58872.277, 0.05709102, -0.25461316, -391444.1, -135628.4, 0.0, 9.998486, 9.999499 
1.7550555e+3, 2.83893e+2, -461180.28, -326087.34, -50342.297, 0.016037554, -0.2627845, -309390.88, -151570.27, 0.0, 9.997964, 9.999745 
1.75506e+3, 2.9389173e+2, -509594.44, -309192.38, -64646.992, -0.06574051, -0.3697641, -290147.94, -230313.73, 0.0, 9.997004, 9.999651 
1.7550674e+3, 3.0389318e+2, -477261.72, -217921.19, -11077.574, 0.10104127, -0.19946033, -217448.88, -217448.88, 0.0, 9.99667, 10.000108 
1.7550735e+3, 3.1389284e+2, -305898.7, 18729.86, -28009.494, 0.043867648, -0.2635741, 21128.836, 21128.836, 0.0, 9.997186, 10.001482 
1.7649698e+3, 1.23906106e+2, -1200231.9, -1670644.5, 89474.37, 0.0068042073, -0.354782, -1183788.4, 541898.94, 0.07730057, 10.004784, 9.99803 
1.7649738e+3, 1.3390443e+2, -1292370.8, -1710956.6, -14904.952, -0.15503882, -0.2999795, -1291840.8, 335863.6, 0.050952706, 10.003471, 9.997681 
1.764982e+3, 1.4390251e+2, -1260434.4, -1587964.1, -17977.299, 0.12183842, -0.27971706, -1259450.5, 270272.84, 0.026366603, 10.002672, 9.998237 
1.7649867e+3, 1.5389997e+2, -1133215.5, -1470481.6, -2777.9346, 0.03759613, -0.37098044, -1133192.6, 298555.28, 0.009289176, 10.0028105, 9.998302 
1.7649919e+3, 1.6389811e+2, -1026872.5, -1327769.8, 15648.059, -0.018295165, -0.3996396, -1026060.94, 307704.5, 0.0016790415, 10.002673, 9.998675 
1.7649983e+3, 1.738974e+2, -1010503.3, -1267303.6, 3553.4958, 0.017279528, -0.34804735, -1010454.1, 225317.83, 0.000074904594, 10.0021, 9.998694 
1.7650042e+3, 1.8389638e+2, -974125.8, -1179668.5, -43617.965, 0.043961525, -0.32380527, -965252.7, 172528.69, 0.000000009428086, 10.001593, 9.998867 
1.7650095e+3, 1.9389501e+2, -931984.56, -1109541.9, -51301.38, 0.041991692, -0.35270545, -918227.94, 121566.28, 0.0, 10.001214, 9.9988575 
1.7650145e+3, 2.0389363e+2, -905229.4, -1085879.0, -51144.246, 0.041688275, -0.35791516, -891754.8, 50053.918, 0.0, 10.000898, 9.9985 
1.7650197e+3, 2.1389236e+2, -844078.0, -1012900.2, -43086.953, 0.049039163, -0.33656618, -833717.1, 10107.14, 0.0, 10.000678, 9.998434 
1.7650251e+3, 2.2389142e+2, -746403.1, -832244.06, -37205.727, 0.064206064, -0.302074, -732521.9, 13312.847, 0.0, 10.0003195, 9.999173 
1.7650305e+3, 2.3389113e+2, -728136.4, -765229.06, -38987.51, 0.08757151, -0.2619181, -703508.75, -55672.266, 0.0, 9.999741, 9.999239 
1.7650352e+3, 2.438901e+2, -727550.5, -778015.94, -60904.816, 0.07469719, -0.25913382, -686858.4, -137011.66, 0.0, 9.999347, 9.998668 
1.765039e+3, 2.5388816e+2, -649687.56, -700011.25, -48923.164, 0.014618766, -0.32049996, -619834.94, -167966.69, 0.0, 9.999253, 9.998575 
1.7650434e+3, 2.6388708e+2, -538132.06, -495361.72, -19476.133, 0.0086363815, -0.31898212, -487822.06, -133942.63, 0.0, 9.998915, 9.99947 
1.7650488e+3, 2.7388746e+2, -540658.9, -434751.44, -26175.684, 0.06906762, -0.2473503, -428635.2, -172760.23, 0.0, 9.998178, 9.999567 
1.7650534e+3, 2.8388694e+2, -505830.2, -353821.63, -23868.879, 0.043686904, -0.25971797, -350161.78, -192281.88, 0.0, 9.9976845, 9.999689 
1.7650571e+3, 2.9388556e+2, -427034.7, -278286.66, -29829.264, -0.06830973, -0.37040055, -272527.78, -212633.16, 0.0, 9.99761, 9.99957 
1.765064e+3, 3.0388686e+2, -347434.06, -124734.99, 43312.137, 0.04843783, -0.2258507, -116607.92, -116607.92, 0.0, 9.997428, 10.000382 
1.7650707e+3, 3.1388676e+2, -382359.78, -64464.426, -38772.586, 0.059022307, -0.29514137, -59803.797, -59803.797, 0.0, 9.996863, 10.001063 
1.7749748e+3, 1.23900935e+2, -1198610.3, -1659341.1, 71888.69, 0.011563421, -0.2757862, -1187653.9, 538085.25, 0.08162077, 10.004769, 9.998123 
1.7749774e+3, 1.3389799e+2, -1295018.9, -1714019.6, -64560.332, -0.14796261, -0.34609333, -1285296.9, 342470.06, 0.054072574, 10.003468, 9.997664 
1.774984e+3, 1.4389588e+2, -1243585.4, -1550168.3, -20452.768, 0.04933006, -0.35772362, -1242226.9, 287560.25, 0.028222809, 10.002667, 9.998499 
1.774989e+3, 1.5389468e+2, -1113050.3, -1428473.4, 3741.5964, 0.0055677565, -0.34222904, -1113005.9, 318791.88, 0.010097322, 10.002812, 9.99859 
1.7749944e+3, 1.6389312e+2, -1053308.3, -1383256.3, -3250.9414, -0.021059189, -0.34286666, -1053276.3, 280536.28, 0.0018804749, 10.002675, 9.998294 
1.7750005e+3, 1.7389101e+2, -1043452.0, -1335750.8, -17200.283, 0.03507153, -0.38281474, -1042443.3, 193389.83, 0.00008970714, 10.002099, 9.998225 
1.775006e+3, 1.838894e+2, -986462.56, -1204892.5, -58626.49, 0.07294987, -0.38251665, -971722.0, 166127.11, 0.000000028818846, 10.00159, 9.998696 
1.7750108e+3, 1.9388875e+2, -941963.4, -1129611.4, -64068.188, 0.06616687, -0.32798928, -922175.44, 117680.945, 0.0, 10.00121, 9.998723 
1.7750154e+3, 2.0388769e+2, -893220.0, -1060209.0, -59811.734, 0.05379645, -0.3023843, -874007.25, 67860.73, 0.0, 10.000894, 9.998679 
1.7750204e+3, 2.1388605e+2, -829535.75, -982768.75, -49675.07, 0.039866667, -0.3366762, -814841.25, 29044.225, 0.0, 10.000676, 9.998642 
1.7750251e+3, 2.2388479e+2, -746323.44, -831398.56, -57129.637, 0.04135701, -0.34665945, -717634.3, 28264.078, 0.0, 10.000316, 9.999182 
1.77503e+3, 2.3388423e+2, -730163.75, -768540.1, -58996.207, 0.06441846, -0.3320494, -687313.75, -39410.477, 0.0, 9.999735, 9.99922 
1.7750344e+3, 2.438836e+2, -697361.0, -715148.4, -65630.83, 0.050047312, -0.3092626, -640024.06, -90114.055, 0.0, 9.999345, 9.999101 
1.7750378e+3, 2.53883e+2, -615960.5, -630557.4, -50111.81, -0.01840333, -0.28080428, -572618.44, -120700.64, 0.0, 9.999253, 9.999052 
1.7750421e+3, 2.638824e+2, -543609.8, -506823.1, -44060.273, -0.018405013, -0.2606891, -477471.06, -123546.0, 0.0, 9.998915, 9.999392 
1.7750472e+3, 2.738817e+2, -550262.94, -456681.34, -52668.71, 0.08034067, -0.2760997, -433020.94, -177089.84, 0.0, 9.998185, 9.9994135 
1.7750517e+3, 2.8388107e+2, -502786.56, -349084.94, -29732.8, 0.085571155, -0.29083094, -343533.75, -185596.63, 0.0, 9.997691, 9.999719 
1.7750552e+3, 2.9388088e+2, -421724.53, -268456.13, -29694.627, -0.036260545, -0.2896473, -262904.13, -202964.36, 0.0, 9.997613, 9.999637 
1.7750606e+3, 3.038812e+2, -342414.25, -113754.14, 28561.994, -0.028315103, -0.2543947, -110240.445, -110240.445, 0.0, 9.997424, 10.00046 
1.7750679e+3, 3.1388158e+2, -418562.13, -141676.3, -89099.57, 0.0903773, -0.27789357, -115482.73, -115482.73, 0.0, 9.996874, 10.000526 
1.784979e+3, 1.2389496e+2, -1303930.4, -1681985.5, 59313.316, 0.012121869, -0.27123815, -1294843.1, 430955.84, 0.086161286, 10.00387, 9.998388 
1.7849813e+3, 1.3389213e+2, -1275880.5, -1678101.5, -84201.0, -0.107832626, -0.35192958, -1258965.3, 368859.22, 0.057330903, 10.003507, 9.997895 
1.7849866e+3, 1.4389002e+2, -1186578.6, -1524171.0, -13406.679, 0.014919255, -0.37222812, -1186047.0, 343796.7, 0.030156005, 10.00309, 9.998472 
1.7849919e+3, 1.5388903e+2, -1123802.9, -1440622.9, -14026.32, 0.0013284975, -0.33398628, -1123183.1, 308669.88, 0.0109433, 10.002773, 9.998525 
1.7849971e+3, 1.6388747e+2, -1079770.1, -1400648.8, -34348.434, -0.009330279, -0.32690266, -1076134.5, 257733.27, 0.0020959685, 10.002514, 9.998251 
1.785003e+3, 1.7388517e+2, -1010343.7, -1324522.8, -18993.69, 0.046069153, -0.38251907, -1009199.6, 226690.66, 0.000105867584, 10.002349, 9.99818 
1.7850079e+3, 1.8388343e+2, -936268.2, -1193045.5, -44234.29, 0.07983491, -0.38889045, -928861.75, 209046.0, 0.0000000562377, 10.001991, 9.998583 
1.785012e+3, 1.938827e+2, -930297.06, -1137815.6, -51389.285, 0.060239587, -0.32728285, -918268.4, 121647.625, 0.0, 10.001352, 9.998596 
1.7850164e+3, 2.0388168e+2, -888304.06, -1035532.75, -37130.605, 0.045955896, -0.29933673, -879469.94, 62457.258, 0.0, 10.000833, 9.998877 
1.785021e+3, 2.1388027e+2, -838718.1, -960964.06, -25600.98, 0.046131533, -0.33612278, -833573.25, 10368.4795, 0.0, 10.000501, 9.998876 
1.7850254e+3, 2.2387908e+2, -767721.4, -843760.06, -37614.76, 0.04451405, -0.35019976, -752258.56, -6304.9316, 0.0, 10.000177, 9.999163 
1.7850295e+3, 2.338784e+2, -713932.3, -766182.1, -44672.434, 0.03948078, -0.34410664, -688306.5, -40345.844, 0.0, 9.99987, 9.99917 
1.7850335e+3, 2.4387789e+2, -669195.25, -673371.94, -55458.32, 0.02378442, -0.31751442, -615786.0, -65819.58, 0.0, 9.999415, 9.999353 
1.7850369e+3, 2.5387782e+2, -672773.6, -625586.06, -55587.56, -0.0076703522, -0.2669489, -588792.4, -136823.88, 0.0, 9.998724, 9.999342 
1.7850408e+3, 2.638774e+2, -630619.94, -537198.9, -49984.1, -0.007345952, -0.24900322, -515496.8, -161523.25, 0.0, 9.998267, 9.9994955 
1.785045e+3, 2.738764e+2, -544811.5, -446425.56, -42399.758, 0.04485935, -0.30128184, -430674.8, -174692.28, 0.0, 9.998188, 9.999484 
1.7850493e+3, 2.8387588e+2, -452845.03, -315613.28, -2691.4473, 0.072410785, -0.31339404, -315560.53, -157572.86, 0.0, 9.9979925, 9.9998045 
1.7850536e+3, 2.9387635e+2, -424814.94, -256266.58, -3249.112, 0.05574938, -0.25350374, -256203.97, -196220.34, 0.0, 9.997534, 9.999759 
1.7850576e+3, 3.0387616e+2, -380717.88, -105903.32, 58245.06, -0.047731597, -0.28904283, -94068.36, -94068.36, 0.0, 9.997046, 10.000696 
1.785064e+3, 3.138771e+2, -441763.66, -133421.22, -52733.01, 0.03315297, -0.27573484, -124652.16, -124652.16, 0.0, 9.9966345, 10.000697 
1.7949829e+3, 1.238882e+2, -1279566.3, -1622373.9, 55379.62, 0.0034167343, -0.3384385, -1270841.9, 455024.53, 0.09098779, 10.003848, 9.998851 
1.7949855e+3, 1.3388686e+2, -1245991.3, -1610066.1, -97116.08, -0.036706712, -0.31768864, -1221705.8, 406170.63, 0.060760994, 10.003505, 9.998368 
1.7949896e+3, 1.4388503e+2, -1210709.3, -1574066.5, -27553.12, 0.014507743, -0.3227664, -1208631.8, 321261.25, 0.03217915, 10.003088, 9.998131 
1.7949949e+3, 1.5388297e+2, -1155449.0, -1505710.4, -24905.15, 0.019699702, -0.34479955, -1153687.0, 278226.75, 0.011831271, 10.002769, 9.99808 
1.7949998e+3, 1.6388117e+2, -1059975.8, -1358466.8, -41397.527, 0.01174484, -0.35005796, -1054340.8, 279590.6, 0.0023264778, 10.002509, 9.998544 
1.7950052e+3, 1.7387983e+2, -983851.6, -1269320.3, -24074.309, 0.04703336, -0.34635013, -981835.6, 254107.9, 0.00012352158, 10.002348, 9.99856 
1.7950098e+3, 1.8387839e+2, -940943.5, -1203014.8, -66345.914, 0.059881285, -0.34309617, -925104.6, 212853.0, 0.000000085167756, 10.00199, 9.998515 
1.7950131e+3, 1.9387685e+2, -938782.4, -1156235.3, -74093.63, 0.020905742, -0.3513695, -915936.4, 124037.24, 0.0, 10.001354, 9.99847 
1.7950168e+3, 2.038756e+2, -873254.56, -1004018.0, -50438.555, 0.015018778, -0.3476629, -856060.1, 85926.45, 0.0, 10.000831, 9.999095 
1.7950217e+3, 2.1387494e+2, -821424.1, -924365.1, -35827.88, 0.065204285, -0.33498535, -810182.25, 33811.293, 0.0, 10.000496, 9.99913 
1.7950259e+3, 2.2387423e+2, -771964.4, -851908.7, -48602.766, 0.07006716, -0.31479245, -749008.0, -3006.687, 0.0, 10.000173, 9.999109 
1.7950292e+3, 2.3387353e+2, -721199.56, -781300.94, -54356.99, 0.0072573205, -0.29903057, -689139.7, -41130.215, 0.0, 9.999868, 9.999068 
1.7950326e+3, 2.438729e+2, -663423.06, -661017.2, -79348.39, -0.009143527, -0.2827366, -582862.6, -32846.01, 0.0, 9.9994135, 9.99944 
1.7950362e+3, 2.5387248e+2, -664972.44, -609693.2, -79894.65, 0.043164693, -0.2762672, -552792.25, -100771.42, 0.0, 9.998724, 9.999452 
1.7950396e+3, 2.6387197e+2, -609162.94, -494431.44, -54376.652, 0.03888986, -0.2848361, -472755.1, -118729.5, 0.0, 9.998273, 9.999787 
1.7950423e+3, 2.7387136e+2, -522626.16, -403009.13, -41973.508, -0.042687885, -0.3306361, -389750.3, -133719.77, 0.0, 9.998198, 9.999779 
1.7950465e+3, 2.8387117e+2, -443979.06, -297434.03, -17691.281, -0.00014725536, -0.3301037, -295328.53, -137296.22, 0.0, 9.997993, 9.999928 
1.7950526e+3, 2.9387197e+2, -414108.2, -234618.02, -19883.201, 0.19879816, -0.25112045, -232441.81, -172415.9, 0.0, 9.997535, 9.9999075 
1.795055e+3, 3.0387157e+2, -353106.84, -48804.734, 41785.8, -0.022993242, -0.33396408, -43171.137, -43171.137, 0.0, 9.997047, 10.001089 
1.7950591e+3, 3.1387287e+2, -350103.63, 51466.15, -29959.936, -0.11961963, -0.32909793, 53689.066, 53689.066, 0.0, 9.996655, 10.001958 
1.8049869e+3, 1.2388317e+2, -1229189.6, -1617002.6, 125940.61, 0.002329468, -0.3535787, -1191880.4, 534034.9, 0.096164726, 10.004346, 9.998655 
1.80499e+3, 1.3388197e+2, -1190356.5, -1604398.0, -72946.94, 0.024015205, -0.29797408, -1177880.4, 450044.66, 0.06440309, 10.004025, 9.998157 
1.8049929e+3, 1.4387998e+2, -1145060.4, -1542496.1, -21495.021, -0.001630634, -0.3072722, -1143901.3, 386042.47, 0.03431206, 10.003569, 9.998115 
1.8049978e+3, 1.5387772e+2, -1111600.1, -1483164.9, 13738.811, 0.021710668, -0.3493815, -1111092.9, 320872.88, 0.01276939, 10.003073, 9.998088 
1.8050025e+3, 1.6387594e+2, -1043448.7, -1340024.0, 14367.784, 0.019003231, -0.35800576, -1042754.3, 291228.66, 0.002574409, 10.002583, 9.998633 
1.8050075e+3, 1.7387496e+2, -1009941.4, -1270844.1, 8793.978, 0.038066696, -0.32986706, -1009645.3, 226346.64, 0.00014305822, 10.002124, 9.998656 
1.8050115e+3, 1.8387358e+2, -969846.2, -1206269.0, -43476.816, 0.045834932, -0.32735762, -962104.56, 175900.48, 0.00000010953618, 10.001747, 9.998609 
1.8050145e+3, 1.9387175e+2, -910550.8, -1132206.9, -36917.977, 0.016907578, -0.3737815, -904563.6, 135459.47, 0.0, 10.001505, 9.998562 
1.8050179e+3, 2.0387052e+2, -833603.6, -983265.06, -12159.532, 0.013054844, -0.37561116, -832622.1, 109413.68, 0.0, 10.001097, 9.999108 
1.8050219e+3, 2.1387029e+2, -830330.94, -927730.6, -19230.133, 0.051795606, -0.31911954, -826671.7, 17367.316, 0.0, 10.000434, 9.999136 
1.8050258e+3, 2.2386974e+2, -821224.3, -881848.06, -36726.727, 0.057197127, -0.2813822, -803916.2, -57870.38, 0.0, 9.999862, 9.999054 
1.8050288e+3, 2.3386878e+2, -789401.3, -821222.75, -40276.598, 0.014310239, -0.28664315, -762006.6, -113949.57, 0.0, 9.999432, 9.999004 
1.805032e+3, 2.4386795e+2, -701559.56, -664215.25, -63737.64, 0.008404284, -0.29024988, -616471.0, -66405.27, 0.0, 9.999086, 9.999577 
1.8050352e+3, 2.5386754e+2, -632559.1, -576172.44, -62472.406, 0.053659227, -0.30231652, -535826.25, -83757.23, 0.0, 9.99887, 9.999612 
1.8050379e+3, 2.6386717e+2, -563585.25, -462650.72, -35809.9, 0.03836191, -0.30892715, -451236.7, -97164.79, 0.0, 9.998542, 9.999876 
1.8050402e+3, 2.7386695e+2, -543345.06, -404661.06, -41154.65, -0.04967918, -0.32493648, -393367.97, -137294.2, 0.0, 9.998019, 9.999853 
1.8050443e+3, 2.8386682e+2, -494833.25, -312630.9, -27612.865, -0.0023189757, -0.3241091, -308538.1, -150463.17, 0.0, 9.997603, 10.000011 
1.8050501e+3, 2.9386732e+2, -439297.9, -232694.72, -34056.336, 0.19810723, -0.28315353, -227225.66, -167154.89, 0.0, 9.997301, 10.000033 
1.8050511e+3, 3.0386722e+2, -388850.47, -64683.957, 11457.529, -0.08727194, -0.34497172, -64279.5, -64279.5, 0.0, 9.996798, 10.0011 
1.8050562e+3, 3.138693e+2, -379038.03, 84671.27, -46013.37, -0.0655706, -0.25750563, 89193.04, 89193.04, 0.0, 9.996254, 10.002381 
1.8149912e+3, 1.2387995e+2, -1288144.3, -1734204.8, 99004.35, -0.000023948924, -0.3114937, -1267157.4, 458787.3, 0.10174727, 10.004334, 9.997793 
1.8149944e+3, 1.338775e+2, -1252010.4, -1735961.1, -85039.21, 0.06745171, -0.29167837, -1237502.3, 390468.1, 0.06829831, 10.004022, 9.9972515 
1.814996e+3, 1.4387488e+2, -1126418.8, -1500094.5, -41521.0, -0.04230725, -0.32569766, -1121860.8, 408135.25, 0.0365772, 10.003562, 9.998417 
1.8150008e+3, 1.5387328e+2, -1081087.3, -1417714.1, -3756.5488, 0.0038087836, -0.3480593, -1081045.4, 350963.75, 0.013766695, 10.00307, 9.998541 
1.815005e+3, 1.6387174e+2, -1051913.1, -1358165.4, -3278.41, 0.0076965354, -0.3505811, -1051878.0, 282144.7, 0.0028426799, 10.0025835, 9.998509 
1.8150093e+3, 1.7387046e+2, -1023129.25, -1298954.0, -7195.8677, 0.0151579, -0.33318523, -1022941.7, 213094.3, 0.00016504708, 10.002125, 9.998465 
1.8150131e+3, 1.8386899e+2, -952923.0, -1170567.3, -53201.76, 0.032638818, -0.34017912, -940614.25, 197436.02, 0.00000012908751, 10.001744, 9.998857 
1.8150163e+3, 1.9386739e+2, -889466.44, -1088755.1, -44363.484, 0.04561132, -0.39469972, -880036.9, 160027.94, 0.0, 10.001505, 9.998861 
1.8150191e+3, 2.0386633e+2, -847840.6, -1012812.44, -35040.46, 0.036778685, -0.38459763, -840706.44, 101368.95, 0.0, 10.001096, 9.998907 
1.815022e+3, 2.1386625e+2, -849044.94, -967098.75, -42545.285, 0.0015496298, -0.28933498, -835310.06, 8768.902, 0.0, 10.000433, 9.998867 
1.8150252e+3, 2.2386555e+2, -824761.25, -888312.4, -53398.92, 0.0016402694, -0.24866748, -794398.8, -48310.934, 0.0, 9.999858, 9.999012 
1.8150286e+3, 2.3386402e+2, -790694.94, -824042.2, -54154.785, 0.058224507, -0.30647448, -750705.06, -102600.96, 0.0, 9.999431, 9.998987 
1.8150318e+3, 2.4386296e+2, -688987.75, -638848.4, -71819.2, 0.07379094, -0.3426138, -587849.1, -37734.477, 0.0, 9.999087, 9.99975 
1.8150337e+3, 2.538628e+2, -618898.5, -548747.5, -68416.28, 0.017543701, -0.34729847, -506939.44, -54825.24, 0.0, 9.998872, 9.9998 
1.815036e+3, 2.6386282e+2, -571248.5, -478354.13, -53933.043, -0.014291733, -0.32113883, -453624.66, -99511.36, 0.0, 9.998541, 9.999769 
1.815039e+3, 2.7386305e+2, -553839.56, -426179.3, -59242.105, 0.017414525, -0.27949807, -402923.78, -146811.3, 0.0, 9.998017, 9.999706 
1.8150426e+3, 2.8386274e+2, -488902.72, -303206.6, -38018.19, 0.06033897, -0.29409906, -295724.47, -137608.52, 0.0, 9.997612, 10.000074 
1.8150459e+3, 2.9386222e+2, -425970.56, -213039.06, -43018.918, 0.05102933, -0.3605985, -204676.33, -144556.53, 0.0, 9.997332, 10.000156 
1.8150465e+3, 3.03863e+2, -419207.88, -127461.56, -14016.6, -0.24189712, -0.32560152, -126789.695, -126789.695, 0.0, 9.9968, 10.000665 
1.8150535e+3, 3.138642e+2, -413076.97, 16521.137, 11175.072, 0.041530926, -0.26964834, 16811.635, 16811.635, 0.0, 9.996239, 10.001922 
1.8249956e+3, 1.23876624e+2, -1331887.9, -1780300.8, 96452.805, 0.02067549, -0.30979472, -1312021.3, 413954.3, 0.10776683, 10.004129, 9.997574 
1.8249989e+3, 1.3387376e+2, -1224661.0, -1745286.8, -19255.576, 0.10577514, -0.30854234, -1223949.8, 404056.47, 0.072472796, 10.004342, 9.997028 
1.8249995e+3, 1.4387085e+2, -1055718.8, -1483299.9, 22126.043, -0.07931598, -0.35250795, -1054576.9, 475458.66, 0.038990494, 10.004156, 9.99825 
1.825004e+3, 1.5386944e+2, -1021035.94, -1405708.5, 14954.727, -0.0024879845, -0.3397498, -1020455.44, 411591.5, 0.01482972, 10.003569, 9.998383 
1.8250078e+3, 1.6386792e+2, -1008905.2, -1347630.9, -9619.803, 0.017056389, -0.32854897, -1008632.25, 325428.5, 0.0031336541, 10.002927, 9.998415 
1.8250115e+3, 1.7386636e+2, -1020215.94, -1307588.5, -8259.757, 0.0125927385, -0.3279773, -1019978.75, 216098.19, 0.00019006866, 10.002191, 9.998372 
1.8250148e+3, 1.8386488e+2, -958366.7, -1155651.3, -40882.64, 0.024309525, -0.33893436, -950230.3, 187861.19, 0.00000015151502, 10.001634, 9.999011 
1.8250176e+3, 1.9386363e+2, -897882.25, -1071997.0, -41262.195, 0.039503492, -0.3759346, -888598.75, 151503.3, 0.0, 10.00136, 9.999044 
1.8250202e+3, 2.0386267e+2, -859967.94, -1021518.5, -39681.688, 0.034196656, -0.36639115, -850747.2, 91364.32, 0.0, 10.001025, 9.99888 
1.8250224e+3, 2.1386226e+2, -830207.4, -963479.7, -33904.188, 0.0048773764, -0.29812956, -822078.06, 22040.018, 0.0, 10.000588, 9.9988165 
1.8250251e+3, 2.2386149e+2, -785517.25, -867161.75, -29934.63, 0.0066052233, -0.2634142, -775718.0, -29590.139, 0.0, 10.000117, 9.999033 
1.8250282e+3, 2.3386024e+2, -766306.06, -808404.6, -28890.709, 0.057171766, -0.29609993, -751609.8, -103468.195, 0.0, 9.999582, 9.999021 
1.8250307e+3, 2.4385928e+2, -691513.25, -650917.5, -46210.66, 0.06946899, -0.31984606, -620743.3, -70591.9, 0.0, 9.999117, 9.999653 
1.8250325e+3, 2.5385892e+2, -645551.9, -574392.5, -65596.11, 0.016698655, -0.33274212, -535348.06, -83194.945, 0.0, 9.998744, 9.999685 
1.8250345e+3, 2.6385885e+2, -606804.8, -498885.44, -68065.86, -0.008880726, -0.30654585, -465985.4, -111832.26, 0.0, 9.998313, 9.999738 
1.8250372e+3, 2.7385923e+2, -592353.4, -447448.25, -67317.01, 0.030218419, -0.24959736, -421002.13, -164850.86, 0.0, 9.9977665, 9.9996805 
1.82504e+3, 2.8385887e+2, -512318.8, -310832.66, -27508.549, 0.054993574, -0.26803824, -307144.47, -148989.63, 0.0, 9.997437, 10.000107 
1.8250427e+3, 2.93858e+2, -410558.75, -198875.2, -38483.047, 0.0007735843, -0.37359458, -192096.27, -131935.33, 0.0, 9.99741, 10.000215 
1.8250434e+3, 3.0385885e+2, -422362.28, -141204.36, -27450.768, -0.22664072, -0.3266218, -138549.28, -138549.28, 0.0, 9.996836, 10.000551 
1.82505e+3, 3.1385958e+2, -518923.47, -61440.85, 75758.93, 0.09493626, -0.30481374, -49221.58, -49221.58, 0.0, 9.995623, 10.001686 
1.835e+3, 1.2387319e+2, -1311598.9, -1722033.3, 69106.86, 0.042943455, -0.35049048, -1300275.5, 425732.6, 0.11422135, 10.004113, 9.997976 
1.8350035e+3, 1.3387081e+2, -1199097.1, -1681890.8, -11487.981, 0.13447863, -0.3463891, -1198823.9, 429208.72, 0.07692863, 10.004335, 9.997466 
1.8350033e+3, 1.4386791e+2, -1100399.6, -1575252.8, 881.8903, -0.12050735, -0.3836235, -1100398.0, 429663.97, 0.041556947, 10.004152, 9.997609 
1.8350075e+3, 1.538662e+2, -1074529.6, -1517337.9, -5467.403, -0.002810396, -0.32397613, -1074462.1, 357617.22, 0.015961973, 10.003567, 9.997616 
1.835011e+3, 1.6386442e+2, -1015152.3, -1359709.3, -36530.773, 0.041052394, -0.29196453, -1011321.8, 322775.53, 0.003449119, 10.002923, 9.998335 
1.8350138e+3, 1.7386264e+2, -1020039.25, -1307906.6, -35041.355, 0.027292384, -0.3150719, -1015835.2, 220280.1, 0.00021871291, 10.0021925, 9.998369 
1.8350163e+3, 1.8386121e+2, -954336.6, -1148089.9, -52770.727, 0.016673606, -0.3238664, -940896.25, 197232.89, 0.00000018976193, 10.001636, 9.999063 
1.8350185e+3, 1.9386044e+2, -893402.8, -1063687.6, -49737.117, -0.005349345, -0.31852525, -879939.9, 160195.63, 0.0, 10.001362, 9.999102 
1.835021e+3, 2.0385945e+2, -849834.06, -999757.8, -54936.918, 0.0012854524, -0.32042205, -831858.6, 110286.05, 0.0, 10.001021, 9.999032 
1.8350236e+3, 2.1385826e+2, -818752.4, -940095.75, -48206.01, 0.05848837, -0.3460942, -801932.94, 42224.086, 0.0, 10.000587, 9.998979 
1.8350258e+3, 2.2385743e+2, -780801.5, -856908.1, -48908.32, 0.068619944, -0.32790998, -756886.44, -10719.934, 0.0, 10.000114, 9.9991045 
1.8350273e+3, 2.3385733e+2, -762419.5, -800509.44, -47079.613, 0.0063417405, -0.2558256, -730678.6, -82508.195, 0.0, 9.999581, 9.999076 
1.8350291e+3, 2.4385682e+2, -717047.5, -702866.4, -60291.24, -0.008399403, -0.22145699, -649250.2, -99073.22, 0.0, 9.999112, 9.999299 
1.8350315e+3, 2.538558e+2, -673832.4, -633454.1, -77222.79, 0.0471565, -0.25843003, -573824.94, -121638.55, 0.0, 9.998745, 9.99928 
1.8350333e+3, 2.638552e+2, -603962.0, -494863.78, -86824.56, 0.051104784, -0.26652795, -446874.56, -92682.22, 0.0, 9.998319, 9.9997635 
1.8350345e+3, 2.7385533e+2, -585201.4, -435635.22, -85737.17, -0.015687477, -0.2389837, -396649.38, -140458.03, 0.0, 9.997776, 9.999759 
1.8350367e+3, 2.8385508e+2, -512512.1, -312757.1, -30581.82, -0.023330752, -0.2492027, -308180.0, -149987.13, 0.0, 9.997443, 10.000091 
1.8350406e+3, 2.9385456e+2, -411766.03, -202188.33, -39487.79, 0.034143835, -0.32073033, -194995.08, -134799.8, 0.0, 9.997414, 10.00019 
1.8350421e+3, 3.0385485e+2, -407583.8, -109913.79, -71791.58, -0.04256862, -0.33666587, -93503.86, -93503.86, 0.0, 9.996832, 10.000769 
1.8350443e+3, 3.1385636e+2, -543867.4, -122291.06, 52653.22, -0.034879167, -0.26179808, -115814.38, -115814.38, 0.0, 9.995653, 10.001258 
1.8450046e+3, 1.2387016e+2, -1190508.0, -1662847.3, 32410.87, 0.03433745, -0.36188588, -1188294.5, 537743.9, 0.121080205, 10.005094, 9.997958 
1.8450081e+3, 1.3386828e+2, -1195959.6, -1675396.1, -42155.06, 0.15976717, -0.31134844, -1192281.4, 435776.72, 0.08165129, 10.004359, 9.9975 
1.8450072e+3, 1.4386535e+2, -1156269.5, -1610130.1, -33660.145, -0.121911496, -0.3510752, -1153786.8, 376301.2, 0.044275273, 10.003793, 9.997542 
1.845011e+3, 1.5386333e+2, -1086054.3, -1532569.3, 6811.76, -0.008947239, -0.31416178, -1085950.3, 346158.3, 0.017166656, 10.003532, 9.997527 
1.8450141e+3, 1.6386135e+2, -986803.25, -1347455.8, -1360.4257, 0.03807695, -0.29743192, -986798.06, 347330.44, 0.0037913383, 10.003127, 9.99832 
1.8450162e+3, 1.7385952e+2, -974559.7, -1286494.6, -2192.656, 0.029526731, -0.32296845, -974544.3, 261601.88, 0.00025177147, 10.002509, 9.998363 
1.8450181e+3, 1.8385814e+2, -923176.7, -1141973.4, -15610.597, 0.019104138, -0.3227381, -922068.56, 216091.08, 0.00000025167606, 10.001889, 9.998981 
1.8450198e+3, 1.9385754e+2, -913289.1, -1083489.5, -25048.346, -0.0097085005, -0.2912302, -909679.4, 130485.91, 0.0, 10.001271, 9.999007 
1.8450217e+3, 2.0385654e+2, -881579.9, -1008048.3, -36542.234, -0.0024201907, -0.29244396, -871780.5, 70394.24, 0.0, 10.000774, 9.999094 
1.8450242e+3, 2.1385504e+2, -832889.5, -937515.56, -37333.484, 0.06604653, -0.3552761, -820934.06, 23254.86, 0.0, 10.000453, 9.99906 
1.845026e+3, 2.2385417e+2, -787481.0, -859686.56, -46932.113, 0.07704414, -0.3476279, -764372.0, -18173.586, 0.0, 10.000068, 9.999107 
1.8450269e+3, 2.3385437e+2, -764401.75, -802614.25, -52343.414, -0.000114700604, -0.24344108, -727786.5, -79586.83, 0.0, 9.999575, 9.999064 
1.8450281e+3, 2.43854e+2, -722294.1, -702441.56, -52654.04, -0.021149097, -0.1949901, -658786.3, -108581.41, 0.0, 9.999065, 9.999324 
1.8450302e+3, 2.5385284e+2, -704784.0, -644115.1, -38687.465, 0.044166606, -0.24976306, -625287.6, -173072.14, 0.0, 9.998517, 9.999314 
1.8450317e+3, 2.63852e+2, -629574.5, -509480.97, -25690.535, 0.055582207, -0.2826465, -504216.03, -149992.64, 0.0, 9.998154, 9.999742 
1.8450323e+3, 2.738518e+2, -545536.25, -420264.47, -32897.2, -0.013996484, -0.28359395, -412150.94, -155925.78, 0.0, 9.998066, 9.999723 
1.8450342e+3, 2.8385174e+2, -486166.75, -296825.22, 12507.143, -0.032978408, -0.27460966, -296002.63, -137777.72, 0.0, 9.99761, 10.000118 
1.8450373e+3, 2.93852e+2, -539681.7, -261788.06, 2118.1912, 0.022570575, -0.2723584, -261771.92, -201551.63, 0.0, 9.996529, 10.000207 
1.8450391e+3, 3.0385178e+2, -542849.7, -186450.72, -34160.004, 0.023324093, -0.33550966, -183206.1, -183206.1, 0.0, 9.995957, 10.000662 
1.8450396e+3, 3.138525e+2, -446841.66, -81268.414, 61629.156, -0.107081205, -0.33036336, -71158.42, -71158.42, 0.0, 9.996342, 10.001208 
1.8550089e+3, 1.2386754e+2, -1221170.0, -1715761.1, -33359.332, -0.035140183, -0.33924314, -1218930.1, 507136.1, 0.12829013, 10.005082, 9.997551 
1.8550126e+3, 1.3386613e+2, -1220859.0, -1726149.6, -65258.83, 0.17673475, -0.2071372, -1212566.9, 415516.16, 0.086619124, 10.0043545, 9.997157 
1.8550113e+3, 1.438631e+2, -1127513.5, -1542856.0, -46756.48, -0.091482185, -0.25960067, -1122315.0, 407798.84, 0.04714458, 10.003781, 9.998012 
1.8550144e+3, 1.5386076e+2, -1048402.75, -1451429.3, -2142.611, -0.026212193, -0.3099094, -1048391.4, 383743.53, 0.018449815, 10.00353, 9.998086 
1.8550168e+3, 1.6385862e+2, -982975.4, -1339705.9, -23056.266, 0.002693579, -0.34133834, -981491.4, 352663.03, 0.0041641076, 10.003127, 9.998374 
1.8550186e+3, 1.7385697e+2, -974604.56, -1287471.1, -24037.951, 0.015980525, -0.35124204, -972768.5, 263401.47, 0.00029041685, 10.002511, 9.998356 
1.8550201e+3, 1.8385562e+2, -939457.6, -1175659.6, -38733.71, 0.027046854, -0.3362838, -933268.06, 204915.23, 0.0000003514084, 10.001887, 9.998752 
1.8550214e+3, 1.9385485e+2, -931255.75, -1121760.6, -46693.113, 0.022585932, -0.29557598, -920426.75, 119765.29, 0.0, 10.001274, 9.998745 
1.8550228e+3, 2.0385383e+2, -883539.06, -1012383.3, -49450.945, 0.01953365, -0.28327757, -866747.9, 75454.664, 0.0, 10.000774, 9.999064 
1.8550242e+3, 2.1385255e+2, -833620.56, -938695.1, -47391.34, 0.023779582, -0.32608822, -815404.06, 28810.367, 0.0, 10.00045, 9.999054 
1.8550256e+3, 2.2385159e+2, -792897.06, -869778.6, -64258.332, 0.028908795, -0.32270378, -756459.1, -10234.765, 0.0, 10.000062, 9.9990425 
1.8550268e+3, 2.338513e+2, -769846.0, -814349.5, -68697.43, 0.034580544, -0.25988436, -719886.4, -71656.24, 0.0, 9.999575, 9.998984 
1.8550277e+3, 2.4385075e+2, -694780.1, -646100.2, -72293.195, 0.027308129, -0.24168405, -594159.5, -43923.3, 0.0, 9.999067, 9.99971 
1.8550283e+3, 2.5384995e+2, -672439.25, -578444.2, -57660.727, 0.0027213925, -0.30627954, -551054.06, -98812.766, 0.0, 9.998521, 9.999764 
1.8550292e+3, 2.6384914e+2, -634888.94, -520632.97, -30760.273, 0.0019306873, -0.3539504, -512877.97, -158630.52, 0.0, 9.998155, 9.999665 
1.855031e+3, 2.7384856e+2, -555716.5, -441612.5, -33712.414, 0.031589877, -0.38066766, -432396.44, -176142.75, 0.0, 9.998067, 9.9995775 
1.8550323e+3, 2.8384876e+2, -480716.13, -287278.3, -24618.217, 0.019816244, -0.34244138, -284194.4, -125942.42, 0.0, 9.997615, 10.000183 
1.8550332e+3, 2.9385015e+2, -534021.75, -253285.2, -40482.12, -0.0428811, -0.23191962, -247564.27, -187326.63, 0.0, 9.996539, 10.000261 
1.8550347e+3, 3.038494e+2, -571156.75, -247928.83, -26702.502, -0.027268097, -0.3328523, -245737.73, -245737.73, 0.0, 9.99597, 10.000234 
1.8550368e+3, 3.138499e+2, -413087.47, -15267.027, 27394.695, -0.035386756, -0.3068764, -13389.4375, -13389.4375, 0.0, 9.996361, 10.001652 
1.8650132e+3, 1.2386525e+2, -1352239.6, -1777364.6, -47077.516, -0.0536096, -0.3234101, -1347088.8, 379001.6, 0.13577762, 10.004038, 9.997626 
1.8650171e+3, 1.3386393e+2, -1184846.1, -1676469.5, -2629.9436, 0.16654181, -0.20818457, -1184832.0, 443273.38, 0.091804855, 10.004518, 9.9974165 
1.8650156e+3, 1.4386089e+2, -1027434.0, -1485295.6, 15231.793, -0.07590019, -0.27813274, -1026927.9, 503207.97, 0.050165463, 10.004479, 9.998084 
1.865018e+3, 1.5385884e+2, -1026304.7, -1434745.0, 22930.12, -0.01947117, -0.30554992, -1025021.44, 407132.9, 0.019819729, 10.003665, 9.998135 
1.86502e+3, 1.6385692e+2, -998514.5, -1334720.8, -16415.855, 0.005347718, -0.32316253, -997714.9, 336456.75, 0.0045722285, 10.002968, 9.998484 
1.8650208e+3, 1.7385536e+2, -975223.7, -1275305.4, -11720.693, 0.008151511, -0.3341378, -974766.6, 261419.08, 0.0003360051, 10.002453, 9.998467 
1.865022e+3, 1.8385391e+2, -943864.7, -1197280.9, -18409.475, 0.021360071, -0.32809702, -942534.3, 195665.6, 0.00000050835786, 10.001942, 9.998577 
1.865023e+3, 1.9385275e+2, -921219.94, -1140300.3, -24015.95, 0.04113482, -0.30612573, -918618.2, 121594.81, 0.0, 10.001446, 9.998534 
1.8650238e+3, 2.0385161e+2, -861043.1, -1001440.4, -18430.727, 0.036467873, -0.2938814, -858663.94, 83560.805, 0.0, 10.00093, 9.999064 
1.8650244e+3, 2.1385062e+2, -841193.5, -939879.6, -15788.305, -0.0022850796, -0.3087587, -838729.1, 5504.204, 0.0, 10.000388, 9.999075 
1.8650253e+3, 2.2384967e+2, -808893.94, -870222.75, -25348.45, -0.0062208427, -0.30933192, -799773.3, -53530.55, 0.0, 9.999922, 9.999105 
1.8650264e+3, 2.3384891e+2, -765637.44, -804133.94, -20516.78, 0.042170424, -0.29945546, -756753.25, -108501.1, 0.0, 9.999571, 9.999055 
1.865027e+3, 2.4384826e+2, -676141.7, -635598.3, -31169.973, 0.05073538, -0.2957252, -618687.9, -68429.0, 0.0, 9.999191, 9.999722 
1.8650268e+3, 2.5384793e+2, -638954.3, -562744.06, -51892.516, 0.002628379, -0.31374884, -536468.8, -84208.51, 0.0, 9.998755, 9.999759 
1.8650274e+3, 2.638474e+2, -629380.8, -518116.7, -38320.797, -0.0037657165, -0.33275905, -506195.75, -151931.53, 0.0, 9.998195, 9.999662 
1.8650287e+3, 2.738468e+2, -648637.3, -485315.28, -31519.256, 0.046062447, -0.36380562, -479443.53, -223172.63, 0.0, 9.997427, 9.999584 
1.8650296e+3, 2.8384683e+2, -581601.9, -334570.84, -22594.416, 0.03525987, -0.34204376, -332521.28, -174250.36, 0.0, 9.99692, 10.000192 
1.8650298e+3, 2.9384798e+2, -498553.63, -236733.89, -47932.785, -0.049701292, -0.25508544, -228234.48, -167975.02, 0.0, 9.996787, 10.000254 
1.8650304e+3, 3.0384758e+2, -519102.8, -222814.97, -8347.179, -0.060927413, -0.3177393, -222579.98, -222579.98, 0.0, 9.996325, 10.000235 
1.8650325e+3, 3.138484e+2, -527793.5, -36833.91, 45620.67, -0.047674432, -0.2601606, -32630.754, -32630.754, 0.0, 9.99543, 10.00195 
1.8750173e+3, 1.238631e+2, -1326036.1, -1705362.4, -67319.79, -0.056645807, -0.3324659, -1314443.0, 411669.78, 0.14346853, 10.004024, 9.998147 
1.8750212e+3, 1.3386168e+2, -1136183.4, -1564097.8, 15195.261, 0.122520246, -0.30884987, -1135644.4, 492480.7, 0.09718522, 10.004512, 9.998237 
1.87502e+3, 1.4385876e+2, -1050383.1, -1527870.5, -9985.589, -0.084222734, -0.3986156, -1050174.4, 479979.06, 0.053342454, 10.004471, 9.997781 
1.8750219e+3, 1.5385751e+2, -1057910.4, -1499611.9, -5511.937, 0.0075525776, -0.3025022, -1057841.6, 374325.7, 0.021286089, 10.003659, 9.997693 
1.8750232e+3, 1.6385612e+2, -990067.06, -1315170.4, -37190.563, 0.041134812, -0.24808057, -985866.9, 348314.22, 0.0050208755, 10.002959, 9.998624 
1.8750232e+3, 1.7385465e+2, -960920.2, -1245453.8, -29902.863, 0.0021447476, -0.27324408, -957811.56, 278382.38, 0.00038988978, 10.002451, 9.998674 
1.8750237e+3, 1.8385297e+2, -951894.5, -1214329.5, -37017.598, -0.002412722, -0.29586542, -946773.0, 191436.73, 0.000000733184, 10.001942, 9.998461 
1.8750244e+3, 1.9385117e+2, -932930.2, -1164479.4, -41151.902, 0.042593148, -0.32130733, -925834.0, 114394.445, 0.0, 10.001444, 9.99837 
1.8750247e+3, 2.0384979e+2, -859727.4, -998424.06, -38389.055, 0.04515597, -0.32418117, -849810.94, 92431.1, 0.0, 10.000928, 9.999086 
1.8750246e+3, 2.138492e+2, -838885.4, -934617.0, -34258.668, -0.015531919, -0.30408958, -827888.7, 16357.793, 0.0, 10.000385, 9.999113 
1.8750249e+3, 2.2384833e+2, -795580.94, -842523.7, -38820.71, -0.031971812, -0.30778247, -773687.6, -27433.258, 0.0, 9.99992, 9.999297 
1.8750258e+3, 2.3384714e+2, -751265.06, -773871.2, -31773.158, 0.018512562, -0.36130798, -728844.4, -80577.91, 0.0, 9.999567, 9.999266 
1.8750261e+3, 2.4384645e+2, -702241.56, -689386.2, -46591.234, 0.045875665, -0.35725257, -648781.4, -98507.33, 0.0, 9.999188, 9.999354 
1.875026e+3, 2.5384668e+2, -670506.56, -629889.2, -66419.56, 0.03908121, -0.27344397, -580742.9, -128469.38, 0.0, 9.99876, 9.999296 
1.875026e+3, 2.6384664e+2, -623482.9, -507858.88, -65657.25, 0.033490192, -0.2209465, -478188.88, -123914.18, 0.0, 9.998201, 9.99973 
1.875026e+3, 2.7384633e+2, -636741.6, -463426.47, -58653.695, 0.024495598, -0.2355831, -445442.78, -189164.72, 0.0, 9.997437, 9.999731 
1.8750264e+3, 2.838458e+2, -584588.7, -341546.06, -30443.059, 0.009242563, -0.27341548, -337790.84, -179508.06, 0.0, 9.996923, 10.000142 
1.8750271e+3, 2.9384542e+2, -504181.75, -247585.64, -51583.402, -0.0012580045, -0.33554086, -237604.13, -177317.81, 0.0, 9.996782, 10.000182 
1.8750265e+3, 3.0384624e+2, -487097.88, -160718.14, -40108.75, -0.085885875, -0.29236946, -155861.45, -155861.45, 0.0, 9.996339, 10.000657 
1.8750288e+3, 3.138464e+2, -496373.4, 20885.248, -4256.864, 0.030174442, -0.34571093, 20920.277, 20920.277, 0.0, 9.995465, 10.002329 
1.8850219e+3, 1.23862416e+2, -1221983.1, -1671034.5, -3205.2734, -0.0495251, -0.33186808, -1221960.3, 504159.16, 0.15132089, 10.004986, 9.99796 
1.8850252e+3, 1.3386102e+2, -1146727.3, -1561206.1, 55953.95, 0.090927325, -0.31139818, -1139306.4, 488824.72, 0.10275728, 10.004422, 9.998305 
1.8850245e+3, 1.4385821e+2, -1120997.3, -1560468.0, -3932.9248, -0.06585836, -0.39568442, -1120962.1, 409196.03, 0.056687746, 10.003958, 9.997804 
1.8850257e+3, 1.5385687e+2, -1079406.9, -1509412.8, 26838.238, 0.013299643, -0.31019786, -1077738.3, 354434.28, 0.022858981, 10.0035095, 9.997698 
1.8850262e+3, 1.6385536e+2, -989491.4, -1337333.1, 9316.296, 0.045682818, -0.26016966, -989242.06, 344945.63, 0.0055146767, 10.003061, 9.998423 
1.885026e+3, 1.7385367e+2, -950830.5, -1265817.0, -16070.332, 0.005687555, -0.28336522, -950012.75, 286190.44, 0.0004532519, 10.00263, 9.998447 
1.8850258e+3, 1.838519e+2, -916711.2, -1198207.8, -36725.32, -0.0018750456, -0.3014844, -911998.75, 226221.3, 0.0000010252129, 10.002188, 9.998452 
1.885026e+3, 1.9385019e+2, -888812.44, -1141677.4, -29408.82, 0.039338667, -0.32005626, -885437.1, 154800.28, 0.0, 10.0017395, 9.9983835 
1.885026e+3, 2.038488e+2, -822184.9, -987866.4, -24616.87, 0.044861984, -0.32360145, -818604.7, 123646.48, 0.0, 10.001219, 9.999019 
1.8850252e+3, 2.1384801e+2, -814164.06, -931798.6, -32391.598, -0.0039543803, -0.31477454, -805834.56, 38423.277, 0.0, 10.000595, 9.999032 
1.885025e+3, 2.2384709e+2, -786434.2, -833357.06, -42408.695, -0.023786671, -0.31917134, -761429.8, -15163.615, 0.0, 9.999967, 9.999336 
1.885025e+3, 2.3384611e+2, -779678.44, -781503.25, -48153.223, 0.0005227302, -0.3565281, -732429.0, -84153.19, 0.0, 9.99935, 9.999316 
1.8850249e+3, 2.4384551e+2, -751915.56, -719353.6, -53432.445, 0.021211732, -0.34545648, -679776.8, -129494.07, 0.0, 9.998874, 9.9993 
1.8850246e+3, 2.538456e+2, -697305.7, -650676.3, -45542.043, 0.039648, -0.26963034, -622828.0, -170543.73, 0.0, 9.998612, 9.999224 
1.8850242e+3, 2.6384553e+2, -625157.1, -507230.63, -42043.582, 0.040928148, -0.21990967, -493776.16, -139489.67, 0.0, 9.998186, 9.999741 
1.8850233e+3, 2.738453e+2, -630299.6, -457463.84, -47286.836, 0.0065188585, -0.22464314, -445372.34, -189083.73, 0.0, 9.997471, 9.999754 
1.8850233e+3, 2.8384483e+2, -588683.25, -348989.38, -4340.4185, -0.0029630316, -0.25837192, -348910.8, -190617.7, 0.0, 9.99692, 10.0000925 
1.8850245e+3, 2.9384425e+2, -524023.34, -264591.94, -20993.553, 0.054798864, -0.3336587, -262904.1, -202605.17, 0.0, 9.996681, 10.0001135 
1.8850228e+3, 3.0384552e+2, -471447.75, -103685.05, -36550.953, -0.08234929, -0.26119444, -100087.54, -100087.54, 0.0, 9.996232, 10.001101 
1.885024e+3, 3.1384557e+2, -533684.94, 15106.727, 9707.764, 0.03105429, -0.3682141, 15278.397, 15278.397, 0.0, 9.995164, 10.00243 
1.8950267e+3, 1.2386312e+2, -1283433.3, -1797902.5, -40202.234, -0.067645885, -0.3296936, -1280310.6, 445800.44, 0.15933874, 10.00497, 9.997034 
1.8950294e+3, 1.3386191e+2, -1193387.5, -1653032.4, 40579.203, 0.06545948, -0.22284447, -1189832.5, 438291.63, 0.10854273, 10.004412, 9.997631 
1.8950288e+3, 1.4385916e+2, -1103451.6, -1515922.0, -20082.68, -0.028514016, -0.2786383, -1102476.1, 427674.6, 0.060220465, 10.0039425, 9.998123 
1.895029e+3, 1.538569e+2, -1051383.8, -1448095.8, 11006.119, -0.007739162, -0.3271005, -1051078.6, 381091.6, 0.024547813, 10.003507, 9.998121 
1.8950291e+3, 1.6385463e+2, -1027191.2, -1415362.1, -7220.3564, 0.012183188, -0.3526174, -1027056.94, 307134.25, 0.0060573337, 10.003058, 9.9978895 
1.8950285e+3, 1.7385241e+2, -997454.56, -1362472.5, -30948.826, 0.0150312735, -0.36211947, -994849.1, 241364.52, 0.0005270964, 10.002627, 9.9977865 
1.895028e+3, 1.8385066e+2, -910512.5, -1184436.3, -53520.18, 0.018619014, -0.34739304, -900426.9, 237804.66, 0.0000013718216, 10.002183, 9.99855 
1.8950276e+3, 1.9384976e+2, -876253.25, -1114478.6, -44591.215, 0.027822927, -0.30391073, -868180.2, 172060.47, 0.0, 10.001733, 9.998574 
1.895027e+3, 2.0384856e+2, -834328.4, -1012700.6, -46864.457, 0.031711835, -0.2915774, -822765.1, 119487.58, 0.0, 10.001215, 9.998851 
1.8950263e+3, 2.1384697e+2, -830898.56, -964867.75, -53820.27, 0.027727526, -0.33946466, -811955.5, 32312.469, 0.0, 10.0005865, 9.99881 
1.8950254e+3, 2.238459e+2, -794482.94, -849610.4, -65227.207, 0.014559166, -0.34316665, -751234.56, -4955.799, 0.0, 9.999963, 9.999228 
1.8950242e+3, 2.3384577e+2, -787302.06, -798013.4, -69331.96, -0.015864313, -0.28637248, -723119.25, -74838.21, 0.0, 9.999351, 9.999204 
1.8950233e+3, 2.4384536e+2, -733302.8, -681931.75, -64031.69, -0.026698507, -0.26036853, -638625.94, -88340.27, 0.0, 9.998878, 9.999556 
1.895023e+3, 2.5384456e+2, -675078.56, -606069.7, -53244.78, 0.0009187152, -0.30212188, -577126.8, -124833.29, 0.0, 9.998617, 9.999529 
1.8950221e+3, 2.6384383e+2, -627534.94, -513510.97, -66228.74, 0.015297112, -0.33019388, -483135.25, -128834.71, 0.0, 9.998191, 9.999697 
1.8950205e+3, 2.7384356e+2, -636362.5, -473209.1, -73758.19, -0.014859286, -0.3314254, -444808.4, -188504.77, 0.0, 9.997482, 9.999641 
1.89502e+3, 2.8384373e+2, -590865.94, -354260.5, -15627.948, -0.0059611965, -0.297349, -353232.75, -194929.75, 0.0, 9.996923, 10.000054 
1.8950218e+3, 2.938443e+2, -528663.44, -275881.97, -23316.479, 0.11760227, -0.25125107, -273749.25, -213450.67, 0.0, 9.996686, 10.000034 
1.8950193e+3, 3.038453e+2, -437031.5, -36612.094, -72942.05, -0.06333161, -0.2239654, -23738.557, -23738.557, 0.0, 9.996248, 10.0015545 
1.8950185e+3, 3.1384608e+2, -573202.0, -69079.73, 37540.254, -0.039836045, -0.3072968, -66299.57, -66299.57, 0.0, 9.995174, 10.001845 
1.9050321e+3, 1.2386381e+2, -1264386.8, -1819235.1, -87755.94, -0.051414777, -0.29005688, -1250838.0, 475267.03, 0.16755587, 10.005305, 9.996741 
1.9050339e+3, 1.33862e+2, -1154530.3, -1648464.6, 28739.02, 0.036940917, -0.22591057, -1152863.8, 475260.3, 0.11457033, 10.004815, 9.997467 
1.9050331e+3, 1.4385927e+2, -1049660.1, -1496058.1, -20593.82, 0.0043864637, -0.26670766, -1048712.1, 481437.9, 0.06395641, 10.00438, 9.998058 
1.9050325e+3, 1.5385683e+2, -1006663.94, -1432721.3, -28519.348, -0.009083004, -0.32697198, -1004763.44, 427407.44, 0.026358157, 10.0038595, 9.998056 
1.9050321e+3, 1.6385442e+2, -990244.56, -1398384.3, -48812.41, -0.0006077215, -0.36178875, -984487.94, 349704.75, 0.0066510234, 10.003321, 9.997879 
1.9050314e+3, 1.7385212e+2, -974107.5, -1352126.9, -26531.762, 0.015444067, -0.3799846, -972254.44, 263961.2, 0.0006122247, 10.002792, 9.997778 
1.9050305e+3, 1.8385032e+2, -905050.9, -1182385.3, -26031.01, 0.02354304, -0.36955452, -902628.75, 235605.08, 0.0000017786746, 10.002223, 9.998545 
1.9050291e+3, 1.9384946e+2, -896991.7, -1125533.1, -34089.18, 0.024089152, -0.32101348, -892015.3, 148227.34, 0.0, 10.001596, 9.998564 
1.905028e+3, 2.0384832e+2, -869120.0, -1031010.8, -40917.055, 0.024291264, -0.30007797, -859366.06, 82888.18, 0.0, 10.000986, 9.998835 
1.9050267e+3, 2.1384682e+2, -856533.1, -978902.4, -34840.137, 0.024920005, -0.33814788, -847309.0, -3039.64, 0.0, 10.00042, 9.998793 
1.9050252e+3, 2.2384576e+2, -802493.44, -849043.25, -29539.367, 0.017953688, -0.3404843, -788161.25, -41881.164, 0.0, 9.999889, 9.999266 
1.9050238e+3, 2.3384559e+2, -775109.0, -787784.75, -23732.973, -0.006257759, -0.29249257, -756882.2, -108600.06, 0.0, 9.999416, 9.999242 
1.9050224e+3, 2.4384515e+2, -722242.3, -666931.0, -11931.064, -0.022932779, -0.27499714, -664467.2, -114180.64, 0.0, 9.998916, 9.999639 
1.9050212e+3, 2.5384432e+2, -705321.8, -611109.25, -18139.76, -0.011618078, -0.32742104, -607737.3, -155443.11, 0.0, 9.998372, 9.999611 
1.9050202e+3, 2.638436e+2, -656948.7, -529942.56, -39019.707, 0.0027635186, -0.3627141, -518912.6, -164611.11, 0.0, 9.998, 9.999675 
1.9050182e+3, 2.7384332e+2, -581140.4, -449071.72, -43696.293, -0.015400931, -0.35857722, -435923.34, -179618.7, 0.0, 9.997875, 9.999617 
1.905017e+3, 2.8384367e+2, -526012.75, -313437.25, 15507.136, -0.01970544, -0.30804065, -312311.97, -154009.84, 0.0, 9.997329, 10.000139 
1.9050178e+3, 2.9384446e+2, -604881.9, -313552.63, 18341.62, 0.091704585, -0.24891004, -312402.4, -252107.2, 0.0, 9.99617, 10.000024 
1.9050156e+3, 3.0384463e+2, -533998.3, -110148.55, -47827.895, -0.021060484, -0.28592932, -104818.59, -104818.59, 0.0, 9.995697, 10.001317 
1.9050145e+3, 3.1384546e+2, -502136.22, -56358.824, 53266.42, 0.009958949, -0.35246465, -50082.332, -50082.332, 0.0, 9.995761, 10.001648 
1.9150376e+3, 1.2386437e+2, -1256264.3, -1779702.3, -100510.305, -0.02916538, -0.2212484, -1237627.9, 488474.34, 0.1760125, 10.005271, 9.997037 
1.9150382e+3, 1.3386129e+2, -1139334.0, -1605035.4, 15023.222, -0.00053182006, -0.31542474, -1138849.9, 489280.7, 0.12085695, 10.0048065, 9.997788 
1.9150378e+3, 1.438586e+2, -1080568.1, -1557883.5, -38102.723, 0.026066653, -0.3516768, -1077545.6, 452609.94, 0.06789974, 10.004376, 9.997623 
1.9150366e+3, 1.5385662e+2, -1045241.1, -1513018.0, -46805.176, 0.0022976596, -0.31176582, -1040603.8, 391570.94, 0.028290123, 10.003856, 9.997508 
1.9150354e+3, 1.6385466e+2, -956954.44, -1326475.0, -68608.32, 0.0007379278, -0.29459244, -944627.3, 389565.7, 0.007296161, 10.003311, 9.998378 
1.915034e+3, 1.7385271e+2, -930934.2, -1260880.9, -44545.438, 0.0031077869, -0.3387367, -925026.0, 311183.72, 0.0007092475, 10.002785, 9.998408 
1.9150324e+3, 1.8385082e+2, -913832.4, -1199998.5, -48839.254, 0.007969532, -0.3655514, -905726.7, 232500.48, 0.0000023137907, 10.002217, 9.998427 
1.9150308e+3, 1.9384927e+2, -913454.94, -1158773.4, -56271.367, 0.023550315, -0.3678057, -901163.25, 139080.4, 0.0, 10.001591, 9.99834 
1.915029e+3, 2.0384803e+2, -860149.44, -1011830.44, -61858.5, 0.018951442, -0.34802964, -838121.4, 104135.086, 0.0, 10.000981, 9.998969 
1.9150268e+3, 2.1384747e+2, -844688.94, -953544.8, -54019.82, -0.016206212, -0.3110447, -822432.2, 21830.57, 0.0, 10.000415, 9.998969 
1.9150248e+3, 2.2384663e+2, -789652.8, -822295.25, -47001.45, -0.01701683, -0.31040955, -756219.44, -9948.654, 0.0, 9.9998865, 9.999453 
1.9150235e+3, 2.3384552e+2, -762516.2, -760993.06, -39587.32, 0.025275663, -0.37409905, -722160.0, -73880.08, 0.0, 9.999412, 9.99943 
1.9150217e+3, 2.438448e+2, -729129.25, -681350.44, -31347.785, 0.028998489, -0.38978586, -665826.8, -115540.6, 0.0, 9.998915, 9.999541 
1.9150198e+3, 2.5384483e+2, -714629.5, -632502.6, -36878.68, -0.004543324, -0.34638327, -618373.25, -166085.89, 0.0, 9.998379, 9.999462 
1.9150181e+3, 2.6384464e+2, -655490.9, -528234.3, -45213.496, -0.00116527, -0.31708905, -513806.13, -159515.88, 0.0, 9.998004, 9.999685 
1.9150162e+3, 2.7384445e+2, -576203.6, -441038.53, -47156.777, 0.00019970309, -0.30669954, -426212.56, -169919.81, 0.0, 9.997882, 9.99967 
1.9150141e+3, 2.8384456e+2, -509890.03, -281898.3, -24203.184, -0.04850381, -0.2928264, -279357.25, -121065.516, 0.0, 9.997336, 10.000352 
1.9150127e+3, 2.938446e+2, -599706.0, -307741.56, -19558.063, -0.029307922, -0.32952702, -306437.22, -246146.98, 0.0, 9.996188, 10.000056 
1.915012e+3, 3.038435e+2, -596337.44, -243880.84, -44511.938, 0.037901152, -0.44507623, -238346.31, -238346.31, 0.0, 9.995713, 10.000391 
1.91501e+3, 3.13846e+2, -478648.53, -11392.548, 104254.98, -0.0003875014, -0.26250285, 10813.662, 10813.662, 0.0, 9.995771, 10.001956 
1.9250432e+3, 1.2386491e+2, -1197661.9, -1720145.0, -61934.99, -0.011943418, -0.22305083, -1190420.5, 535677.44, 0.18474111, 10.0057125, 9.99722 
1.925043e+3, 1.3386169e+2, -1127995.8, -1587516.6, 23585.568, -0.0138630755, -0.34163663, -1126788.4, 501338.28, 0.12740761, 10.004873, 9.997894 
1.9250426e+3, 1.4385937e+2, -1090922.8, -1554865.0, -11532.409, 0.06488047, -0.34983945, -1090636.3, 439511.34, 0.07204625, 10.004287, 9.997685 
1.9250406e+3, 1.5385734e+2, -1026614.8, -1500186.5, 19237.086, 0.010950632, -0.31888816, -1025834.7, 406332.88, 0.030339975, 10.00398, 9.997537 
1.9250387e+3, 1.638554e+2, -936433.75, -1312372.1, -1642.4443, -0.006606591, -0.30159405, -936426.6, 397759.03, 0.007991714, 10.003439, 9.998413 
1.9250365e+3, 1.7385364e+2, -965247.0, -1273765.4, -24896.613, -0.011473217, -0.33183295, -963250.8, 272949.78, 0.000818734, 10.002535, 9.99844 
1.9250344e+3, 1.8385181e+2, -965943.1, -1217229.8, -39838.605, -0.0028378554, -0.35813263, -959778.4, 178438.95, 0.0000031359323, 10.00183, 9.998495 
1.9250324e+3, 1.9385007e+2, -927510.9, -1158158.8, -26501.418, 0.036668267, -0.38259807, -924505.0, 115729.92, 0.0, 10.001465, 9.998404 
1.92503e+3, 2.0384885e+2, -854597.25, -1004929.2, -25134.477, 0.037274547, -0.36888322, -850506.3, 91741.42, 0.0, 10.001002, 9.999004 
1.9250269e+3, 2.1384855e+2, -846657.56, -951874.75, -30966.758, -0.02328052, -0.30897197, -838220.25, 6031.5737, 0.0, 10.000391, 9.998992 
1.9250245e+3, 2.2384778e+2, -798255.4, -826416.3, -31482.8, -0.032298174, -0.3019439, -777847.8, -31588.742, 0.0, 9.99983, 9.999451 
1.9250229e+3, 2.3384641e+2, -770913.06, -765994.56, -39284.137, 0.028061856, -0.39097401, -729092.75, -80822.58, 0.0, 9.999359, 9.999419 
1.9250207e+3, 2.4384557e+2, -731017.7, -685452.44, -35590.773, 0.03264408, -0.41768235, -665976.9, -115699.35, 0.0, 9.998916, 9.999512 
1.925018e+3, 2.5384572e+2, -700015.75, -629692.44, -34867.785, -0.021798832, -0.3536083, -615335.4, -163058.02, 0.0, 9.998499, 9.999423 
1.925016e+3, 2.6384574e+2, -657968.3, -519555.2, -33064.563, -0.008170382, -0.30802712, -512062.25, -157783.64, 0.0, 9.997947, 9.999772 
1.9250141e+3, 2.738456e+2, -669827.25, -473663.1, -31518.188, 0.043079395, -0.3046667, -468723.38, -212442.73, 0.0, 9.997189, 9.999779 
1.9250114e+3, 2.838456e+2, -598586.6, -317183.16, -16694.67, -0.03161801, -0.31160387, -316196.16, -157915.48, 0.0, 9.996698, 10.000417 
1.9250084e+3, 2.9384568e+2, -529731.2, -272640.38, -20201.053, -0.12131862, -0.34994343, -271062.75, -210783.95, 0.0, 9.996667, 10.000065 
1.9250084e+3, 3.0384466e+2, -522041.03, -249737.8, -16065.107, 0.07729405, -0.4368487, -248793.28, -248793.28, 0.0, 9.996406, 10.000016 
1.9250059e+3, 3.1384695e+2, -588825.0, -68874.57, 135510.34, 0.029587094, -0.2371922, -35677.195, -35677.195, 0.0, 9.995038, 10.001912 
1.935049e+3, 1.2386552e+2, -1200458.8, -1711035.0, -69993.05, -0.011994816, -0.28516355, -1191037.5, 535053.94, 0.19377533, 10.005697, 9.997304 
1.9350478e+3, 1.3386315e+2, -1139833.0, -1602083.1, -2046.3695, -0.014801732, -0.3088777, -1139824.0, 488289.0, 0.13422996, 10.004862, 9.9977865 
1.9350474e+3, 1.4386153e+2, -1060451.9, -1482613.6, -22779.57, 0.111055054, -0.2658681, -1059226.3, 470900.56, 0.07639374, 10.004273, 9.998214 
1.9350447e+3, 1.5385896e+2, -988535.2, -1415154.5, 9736.217, 0.012782055, -0.34613383, -988313.1, 443836.44, 0.03250485, 10.003971, 9.998128 
1.935042e+3, 1.6385667e+2, -967296.7, -1376222.3, -33359.418, -0.0283185, -0.37742797, -964593.2, 369577.4, 0.008736665, 10.003436, 9.997976 
1.9350389e+3, 1.7385486e+2, -1005543.25, -1357679.4, -57945.156, -0.03324312, -0.35649765, -996253.3, 239935.28, 0.0009414751, 10.002535, 9.997866 
1.9350362e+3, 1.8385316e+2, -948913.6, -1181664.8, -55440.89, -0.0131724635, -0.34822097, -936382.4, 201822.64, 0.0000044945964, 10.001827, 9.998741 
1.9350342e+3, 1.9385183e+2, -902980.25, -1106291.4, -38059.195, 0.059370928, -0.36797863, -896089.25, 144128.16, 0.0, 10.001459, 9.998763 
1.9350316e+3, 2.0385067e+2, -860849.06, -1017128.1, -46430.31, 0.07484411, -0.36363652, -848095.44, 94133.32, 0.0, 10.000998, 9.998925 
1.9350275e+3, 2.1384996e+2, -857702.9, -973340.75, -51680.875, 0.00012800262, -0.32992548, -837972.2, 6264.888, 0.0, 10.000382, 9.99885 
1.9350244e+3, 2.2384912e+2, -812023.0, -854519.6, -48894.77, -0.030821439, -0.3139318, -779959.1, -33713.523, 0.0, 9.999826, 9.99926 
1.9350219e+3, 2.3384815e+2, -784915.5, -795312.44, -54665.285, -0.0025689807, -0.3434183, -735202.06, -86948.2, 0.0, 9.999359, 9.999219 
1.9350192e+3, 2.4384734e+2, -728553.2, -681412.75, -50832.617, -0.015706036, -0.35832077, -648951.6, -98690.336, 0.0, 9.998919, 9.99954 
1.9350159e+3, 2.53847e+2, -694394.1, -620114.7, -49079.13, -0.06786504, -0.35054216, -595706.7, -143441.6, 0.0, 9.998506, 9.999487 
1.9350138e+3, 2.6384678e+2, -646027.25, -495684.72, -59920.15, -0.02148974, -0.3374148, -474725.13, -120457.39, 0.0, 9.997951, 9.999934 
1.935012e+3, 2.7384666e+2, -659092.25, -452641.53, -58859.008, 0.10605062, -0.35207954, -437039.88, -180770.47, 0.0, 9.997191, 9.999923 
1.9350086e+3, 2.8384662e+2, -602724.2, -328337.88, -22082.813, 0.024869023, -0.3643098, -326572.0, -168301.8, 0.0, 9.996707, 10.000338 
1.9350044e+3, 2.938475e+2, -527252.3, -273751.78, -16235.942, -0.19252189, -0.3124025, -272716.16, -212453.73, 0.0, 9.99669, 10.000049 
1.935005e+3, 3.0384803e+2, -505391.88, -218602.97, -49825.188, 0.09738235, -0.2566701, -210193.22, -210193.22, 0.0, 9.996421, 10.000223 
1.9350003e+3, 3.138468e+2, -589391.94, -75204.555, -16173.385, -0.044444356, -0.4249834, -74696.336, -74696.336, 0.0, 9.995055, 10.001863 
1.945055e+3, 1.23867795e+2, -1199833.3, -1708976.6, 1798.2902, 0.0036145214, -0.30344966, -1199827.0, 526241.25, 0.20315544, 10.005761, 9.997292 
1.9450524e+3, 1.3386525e+2, -1146898.5, -1629099.4, 40096.16, -0.03416251, -0.32025203, -1143587.1, 484504.7, 0.14133586, 10.004961, 9.99753 
1.9450517e+3, 1.4386366e+2, -1058941.5, -1479387.1, 14101.544, 0.115845315, -0.25969023, -1058469.1, 471636.72, 0.08094117, 10.004293, 9.99823 
1.9450484e+3, 1.5386133e+2, -1029996.56, -1429218.5, 6135.812, 0.018243404, -0.32128018, -1029902.3, 402224.66, 0.0347826, 10.003662, 9.998176 
1.9450453e+3, 1.6385907e+2, -1016122.1, -1401579.4, -50314.88, -0.02234393, -0.3529188, -1009662.6, 324485.44, 0.009530246, 10.003113, 9.997955 
1.9450416e+3, 1.7385696e+2, -977720.25, -1348074.8, -37737.023, -0.03044085, -0.35714146, -973914.1, 262254.3, 0.0010781297, 10.002746, 9.997828 
1.9450381e+3, 1.8385516e+2, -890468.94, -1153516.8, -17267.965, -0.01766318, -0.35654926, -889340.2, 248845.38, 0.0000066792873, 10.002231, 9.998739 
1.9450355e+3, 1.9385402e+2, -899265.1, -1104698.8, -27456.502, 0.039883878, -0.3577632, -895658.8, 144537.27, 0.0, 10.001487, 9.99876 
1.9450322e+3, 2.038529e+2, -879155.2, -1021667.9, -45519.75, 0.058211703, -0.35055193, -865856.75, 76349.96, 0.0, 10.000856, 9.9989605 
1.9450282e+3, 2.13852e+2, -850077.5, -965528.75, -39845.664, 0.012603492, -0.33942422, -837661.0, 6555.2886, 0.0, 10.00042, 9.998883 
1.9450246e+3, 2.2385104e+2, -793763.0, -865494.94, -23344.74, -0.0076408633, -0.32940406, -786834.75, -40608.773, 0.0, 10.000039, 9.999081 
1.9450215e+3, 2.3385008e+2, -745174.6, -799452.2, -29940.27, 0.0067024413, -0.33755496, -731903.8, -83668.625, 0.0, 9.999735, 9.999008 
1.9450182e+3, 2.4384926e+2, -691504.06, -646057.4, -33733.89, -0.008125528, -0.34747493, -628107.3, -77864.4, 0.0, 9.999101, 9.999693 
1.9450144e+3, 2.538489e+2, -759310.7, -629466.56, -24867.92, -0.050190944, -0.3598116, -624866.8, -172620.86, 0.0, 9.997968, 9.9996805 
1.9450115e+3, 2.6384878e+2, -731376.9, -528376.3, -17611.926, -0.019693118, -0.35259414, -526859.6, -172612.36, 0.0, 9.997329, 10.000009 
1.945009e+3, 2.738488e+2, -628159.25, -433171.9, -25401.543, 0.07178818, -0.3567467, -429917.13, -173669.44, 0.0, 9.997387, 9.999962 
1.945005e+3, 2.838488e+2, -579958.1, -317102.38, 1004.238, 0.0052783894, -0.3697424, -317098.53, -158849.55, 0.0, 9.996862, 10.0003395 
1.9450007e+3, 2.9384974e+2, -683801.44, -332229.88, 16784.05, -0.16148289, -0.31406662, -331430.4, -271188.97, 0.0, 9.995545, 10.000197 
1.9450007e+3, 3.0385092e+2, -665337.1, -235426.39, 16015.594, 0.09528875, -0.22940667, -234830.58, -234830.58, 0.0, 9.995066, 10.00076 
1.944995e+3, 3.1385013e+2, -509552.66, 9159.395, -17158.545, -0.10210466, -0.40008038, 9726.365, 9726.365, 0.0, 9.995407, 10.002273 
1.9550608e+3, 1.2387182e+2, -1215303.8, -1725014.5, 155.65053, 0.013803077, -0.2693784, -1215303.6, 510723.8, 0.21288721, 10.005745, 9.997161 
1.9550571e+3, 1.33868e+2, -1177668.1, -1692001.4, 16661.145, -0.07638057, -0.37279156, -1177129.0, 450934.22, 0.14872138, 10.004955, 9.997097 
1.9550556e+3, 1.438658e+2, -1093282.0, -1547252.4, -7487.5767, 0.074340016, -0.32702544, -1093158.6, 436925.97, 0.08568193, 10.004292, 9.997735 
1.9550522e+3, 1.5386441e+2, -1065039.4, -1501932.0, -16173.885, 0.020376524, -0.24538605, -1064441.4, 367658.7, 0.03716991, 10.003658, 9.997678 
1.9550487e+3, 1.638625e+2, -990540.1, -1346563.5, -64889.855, 0.004197697, -0.23081647, -979081.9, 355036.75, 0.01037135, 10.003108, 9.998337 
1.9550444e+3, 1.7385988e+2, -943495.25, -1276986.0, -49739.824, -0.00650953, -0.33499944, -936234.7, 299906.16, 0.0012287758, 10.002745, 9.998318 
1.9550402e+3, 1.8385775e+2, -909066.8, -1191833.6, -42626.66, -0.021502, -0.3825648, -902780.6, 235378.92, 0.000009908067, 10.002228, 9.998478 
1.9550362e+3, 1.938566e+2, -925383.56, -1158409.6, -53347.285, -0.025616089, -0.34939322, -913751.3, 126419.99, 0.0, 10.001483, 9.998394 
1.9550323e+3, 2.0385548e+2, -870469.0, -1003239.3, -62430.7, -0.01586424, -0.32789093, -845724.7, 96457.42, 0.0, 10.000853, 9.999089 
1.9550286e+3, 2.1385455e+2, -836678.7, -937498.75, -53977.91, 0.009825033, -0.33834365, -813232.2, 30958.178, 0.0, 10.000418, 9.999078 
1.955025e+3, 2.2385342e+2, -805333.75, -889657.94, -34340.4, 0.03305056, -0.3491846, -793118.44, -46917.152, 0.0, 10.000037, 9.998918 
1.9550218e+3, 2.338521e+2, -760352.75, -830591.75, -39108.465, 0.051496726, -0.37299213, -742909.44, -94694.33, 0.0, 9.99973, 9.998798 
1.9550179e+3, 2.4385126e+2, -673275.4, -608114.0, -72190.33, 0.050849047, -0.38508883, -561492.75, -11269.481, 0.0, 9.9991, 9.999954 
1.9550131e+3, 2.5385138e+2, -736176.4, -583311.4, -65633.16, 0.025970202, -0.3813655, -558998.44, -106777.59, 0.0, 9.997974, 9.999995 
1.955009e+3, 2.638516e+2, -731744.56, -530896.6, -19840.24, -0.006605824, -0.35320142, -528955.56, -174737.13, 0.0, 9.997334, 9.99999 
1.955005e+3, 2.7385196e+2, -631351.2, -444364.63, -22505.688, -0.06721404, -0.32104483, -441694.0, -185477.05, 0.0, 9.997403, 9.999879 
1.9550009e+3, 2.8385195e+2, -571604.5, -302689.03, -45642.54, -0.09577763, -0.32789853, -295153.38, -136935.06, 0.0, 9.996875, 10.000433 
1.9549976e+3, 2.9385227e+2, -662658.25, -289398.84, -30054.244, -0.03342608, -0.34974688, -286994.44, -226777.55, 0.0, 9.995547, 10.000491 
1.9549955e+3, 3.038531e+2, -602004.9, -105285.14, 27968.602, 0.063626975, -0.36961234, -103715.29, -103715.29, 0.0, 9.99507, 10.001652 
1.9549912e+3, 3.138558e+2, -468130.03, 84225.13, -92721.914, -0.009376604, -0.26403183, 99374.53, 99374.53, 0.0, 9.995452, 10.0027685 
1.9650675e+3, 1.2387603e+2, -1078303.6, -1663580.4, 3418.3635, 0.04608051, -0.24292696, -1078283.8, 647702.94, 0.22288087, 10.007052, 9.997076 
1.9650623e+3, 1.3387193e+2, -1144802.9, -1692177.6, 6078.219, -0.07110427, -0.35367554, -1144735.4, 483289.2, 0.15634203, 10.005349, 9.996904 
1.9650596e+3, 1.4386916e+2, -1127392.5, -1593784.3, 22902.818, 0.06371949, -0.3445108, -1126270.5, 403781.28, 0.09059943, 10.004188, 9.997463 
1.9650559e+3, 1.5386753e+2, -1066624.5, -1533855.6, 29029.586, 0.017573474, -0.25813, -1064827.8, 367242.53, 0.039661888, 10.003793, 9.997394 
1.9650519e+3, 1.6386558e+2, -953369.1, -1320779.3, -16957.922, 0.00949557, -0.23370665, -952588.1, 381501.22, 0.0112578245, 10.003336, 9.998404 
1.9650474e+3, 1.7386326e+2, -928498.94, -1256481.0, -31326.678, 0.0042518163, -0.31873965, -925533.6, 310574.56, 0.001392616, 10.002795, 9.998432 
1.9650427e+3, 1.838612e+2, -915175.0, -1200905.0, -41169.336, -0.01141457, -0.36522523, -909361.44, 228764.61, 0.000014255441, 10.002216, 9.998419 
1.9650379e+3, 1.938597e+2, -916366.44, -1163088.6, -33943.66, -0.025484486, -0.35714865, -911781.7, 128359.09, 0.0, 10.001588, 9.998309 
1.9650333e+3, 2.038584e+2, -852970.7, -1004316.7, -29309.455, -0.019422447, -0.3453881, -847492.9, 94660.43, 0.0, 10.001016, 9.999002 
1.9650291e+3, 2.1385752e+2, -827546.75, -943123.4, -42226.453, 0.0113199735, -0.34259537, -813763.0, 30398.596, 0.0, 10.0005245, 9.998987 
1.965025e+3, 2.2385643e+2, -821804.7, -884401.44, -28365.08, 0.038992066, -0.34871623, -810863.7, -64691.6, 0.0, 9.99987, 9.999032 
1.9650212e+3, 2.3385514e+2, -860412.56, -863284.25, -10286.924, 0.06476378, -0.3809759, -851461.75, -203276.73, 0.0, 9.99898, 9.998934 
1.9650169e+3, 2.4385439e+2, -775901.75, -659670.75, -37495.51, 0.07060176, -0.39277294, -648624.6, -98432.14, 0.0, 9.998404, 9.999935 
1.9650115e+3, 2.538546e+2, -692609.56, -566148.0, -58345.613, 0.040451743, -0.37647527, -543341.9, -91152.13, 0.0, 9.998293, 9.999958 
1.9650063e+3, 2.6385492e+2, -652052.9, -473965.1, -15510.612, -0.019165156, -0.34587848, -472624.3, -118437.45, 0.0, 9.997805, 10.000153 
1.9650017e+3, 2.738554e+2, -717326.25, -465579.03, -485.15533, -0.10411131, -0.31825465, -465578.1, -209394.03, 0.0, 9.996731, 10.000054 
1.9649976e+3, 2.8385562e+2, -675756.56, -331985.5, -15785.306, -0.08019717, -0.3204139, -331262.2, -173079.16, 0.0, 9.996072, 10.000617 
1.9649942e+3, 2.9385605e+2, -585233.4, -219005.73, 3127.746, 0.06270288, -0.35003716, -218979.03, -158799.14, 0.0, 9.995939, 10.000785 
1.9649895e+3, 3.0385706e+2, -573194.2, -61967.14, 44074.734, -0.047122017, -0.3838778, -58195.13, -58195.13, 0.0, 9.995143, 10.001914 
1.9649853e+3, 3.1386027e+2, -681546.94, 1325.691, -111849.33, -0.06768268, -0.24553286, 19178.994, 19178.994, 0.0, 9.993906, 10.002942 
1.975075e+3, 1.23880394e+2, -1087144.5, -1661759.4, -24496.322, 0.09251628, -0.22424656, -1086102.1, 639843.94, 0.23296215, 10.007032, 9.997108 
1.9750682e+3, 1.3387707e+2, -1148460.8, -1686915.3, -47525.22, -0.027813775, -0.26346877, -1144298.3, 483677.84, 0.16411155, 10.005334, 9.996953 
1.975064e+3, 1.438737e+2, -1135274.4, -1606181.4, 5980.476, 0.07397883, -0.31195757, -1135198.4, 394809.28, 0.09566542, 10.004183, 9.99738 
1.9750595e+3, 1.5387067e+2, -1073745.5, -1548301.4, 16740.324, 0.0056089973, -0.35711122, -1073155.8, 358881.94, 0.042252872, 10.003796, 9.997293 
1.975055e+3, 1.6386831e+2, -971190.75, -1358010.1, -36532.715, -0.0121618435, -0.35784364, -967770.7, 366289.63, 0.012187517, 10.003337, 9.998148 
1.9750501e+3, 1.7386705e+2, -948434.3, -1297971.3, -50135.813, -0.0018811134, -0.30742097, -941385.25, 294685.7, 0.0015681973, 10.002793, 9.998148 
1.975045e+3, 1.8386538e+2, -906274.56, -1181593.6, -63807.332, 0.008561009, -0.3045838, -892205.7, 245880.1, 0.000019593592, 10.002212, 9.998554 
1.97504e+3, 1.938632e+2, -903417.44, -1136030.1, -55585.965, 0.035139274, -0.38271236, -890816.94, 149288.52, 0.0, 10.001586, 9.998497 
1.9750349e+3, 2.0386156e+2, -874501.25, -1048835.9, -47304.6, 0.042241707, -0.40461263, -862492.7, 79628.82, 0.0, 10.001013, 9.998699 
1.9750296e+3, 2.1386081e+2, -854367.3, -997627.0, -57962.332, 0.012786602, -0.35079297, -833853.44, 10277.069, 0.0, 10.000517, 9.998617 
1.9750245e+3, 2.2385998e+2, -796406.75, -831298.3, -59200.04, 0.006307511, -0.3268967, -752135.44, -5996.316, 0.0, 9.9998665, 9.999399 
1.97502e+3, 2.3385912e+2, -828127.8, -797242.0, -41784.652, 0.04242833, -0.3624341, -768137.8, -119991.65, 0.0, 9.998981, 9.999387 
1.975015e+3, 2.4385852e+2, -795791.6, -702422.44, -44511.62, 0.048025563, -0.3706516, -684603.25, -134451.48, 0.0, 9.998408, 9.999641 
1.9750093e+3, 2.5385845e+2, -718867.75, -623016.5, -61243.58, -0.01322727, -0.3451617, -593175.56, -141021.73, 0.0, 9.998301, 9.999565 
1.9750038e+3, 2.6385853e+2, -627008.25, -423813.97, -52474.168, -0.063101694, -0.33153492, -411062.88, -56909.004, 0.0, 9.997811, 10.000494 
1.974999e+3, 2.7385893e+2, -686670.44, -404107.34, -39675.85, -0.04439564, -0.3501812, -398642.0, -142491.58, 0.0, 9.9967375, 10.000475 
1.974995e+3, 2.8385958e+2, -654887.1, -290474.4, -24399.203, 0.047879554, -0.34801874, -288848.03, -130703.55, 0.0, 9.9960785, 10.0009 
1.9749908e+3, 2.938609e+2, -562587.4, -178476.66, -2544.5754, 0.11912625, -0.31511173, -178459.8, -118327.89, 0.0, 9.995964, 10.001053 
1.9749826e+3, 3.038627e+2, -599289.1, -121408.93, -13407.666, -0.24673045, -0.2663573, -121033.055, -121033.055, 0.0, 9.995165, 10.001494 
1.9749796e+3, 3.1386337e+2, -685193.25, -12063.445, -42867.773, -0.03136928, -0.33381703, -9344.426, -9344.426, 0.0, 9.993925, 10.002844 
1.9850816e+3, 1.2388475e+2, -1223852.1, -1732787.6, -9396.695, 0.09424181, -0.24685249, -1223678.8, 502224.8, 0.2429529, 10.00591, 9.997027 
1.9850738e+3, 1.3388209e+2, -1103577.4, -1650565.1, -52493.996, -0.0022150758, -0.22767115, -1098585.1, 529343.2, 0.1719222, 10.005709, 9.997024 
1.9850689e+3, 1.438787e+2, -988489.06, -1522015.5, 17275.38, 0.07835135, -0.28330103, -987930.25, 542029.8, 0.100833744, 10.0053, 9.997426 
1.9850636e+3, 1.538754e+2, -976220.8, -1490886.6, 37021.35, 0.0010251158, -0.3602593, -973571.4, 458419.44, 0.044930674, 10.004477, 9.997357 
1.9850585e+3, 1.6387284e+2, -941218.4, -1360542.4, -8118.2466, -0.017659197, -0.3769022, -941061.3, 392953.5, 0.013157888, 10.00363, 9.997987 
1.985053e+3, 1.7387152e+2, -965293.1, -1327141.8, -17034.553, 0.005401999, -0.31487998, -964492.94, 271534.34, 0.0017538491, 10.002773, 9.997956 
1.9850473e+3, 1.8386982e+2, -932234.94, -1193743.3, -26372.97, 0.02566968, -0.30393606, -929601.75, 208441.13, 0.0000256483, 10.002032, 9.998557 
1.9850418e+3, 1.9386767e+2, -917249.3, -1139855.6, -31100.291, 0.055230044, -0.38164625, -912985.94, 127075.95, 0.0, 10.001479, 9.998522 
1.985036e+3, 2.0386596e+2, -893993.06, -1074443.0, -20979.74, 0.060299836, -0.40215582, -891586.0, 50492.355, 0.0, 10.000952, 9.998552 
1.9850302e+3, 2.138651e+2, -874498.3, -1026204.25, -19493.533, 0.021514181, -0.34451684, -872033.56, -27944.037, 0.0, 10.000464, 9.9984455 
1.9850244e+3, 2.2386427e+2, -768138.2, -811731.2, -26028.766, 0.0030390255, -0.31364945, -755985.0, -9886.354, 0.0, 10.000036, 9.999451 
1.9850191e+3, 2.3386362e+2, -719460.8, -735424.2, -37229.02, 0.026126325, -0.33565024, -689367.5, -41263.957, 0.0, 9.99969, 9.999469 
1.9850135e+3, 2.4386315e+2, -713812.25, -656995.25, -46291.83, 0.034338742, -0.33821464, -631090.06, -80982.234, 0.0, 9.998949, 9.99969 
1.9850074e+3, 2.5386298e+2, -814746.2, -664474.75, -32049.37, -0.0021303985, -0.32463747, -657924.9, -205814.2, 0.0, 9.997624, 9.999605 
1.9850013e+3, 2.6386303e+2, -776853.6, -485155.78, -10871.768, -0.042394556, -0.3226048, -484751.16, -130639.89, 0.0, 9.9967375, 10.000589 
1.9849958e+3, 2.7386355e+2, -717354.1, -407894.5, -23318.984, -0.032492884, -0.33946314, -406147.2, -150040.44, 0.0, 9.996484, 10.000568 
1.9849913e+3, 2.8386438e+2, -624950.6, -270235.16, -12840.691, 0.05298553, -0.32741347, -269770.94, -111672.01, 0.0, 9.996262, 10.000949 
1.9849868e+3, 2.9386568e+2, -563554.06, -177996.94, -10160.842, 0.11795143, -0.2970674, -177729.34, -117643.84, 0.0, 9.995958, 10.001057 
1.9849777e+3, 3.038674e+2, -621587.3, -138134.89, -64503.055, -0.26222563, -0.2523043, -129676.75, -129676.75, 0.0, 9.995039, 10.00144 
1.9849735e+3, 3.1386784e+2, -718870.9, -33889.12, 38860.082, -0.02558778, -0.3439513, -31691.576, -31691.576, 0.0, 9.993718, 10.002792 
1.995087e+3, 1.2388898e+2, -1246243.5, -1769333.1, -5053.453, 0.03677534, -0.32335705, -1246194.8, 479665.9, 0.25275072, 10.005878, 9.996791 
1.9950795e+3, 1.33887e+2, -1107332.4, -1645231.9, -56148.22, -0.0011953257, -0.24186581, -1101533.9, 526347.44, 0.17968875, 10.005698, 9.9970665 
1.995074e+3, 1.4388412e+2, -980026.6, -1498997.5, -7623.253, 0.07002397, -0.25524393, -979914.7, 549994.44, 0.106055215, 10.005301, 9.997603 
1.995068e+3, 1.5388165e+2, -964010.5, -1460408.5, 8207.732, -0.0009512851, -0.2710076, -963874.9, 468055.8, 0.04767891, 10.00447, 9.99757 
1.9950621e+3, 1.6387913e+2, -948435.9, -1372799.1, -39440.273, -0.01332955, -0.29331344, -944801.44, 389152.16, 0.0141667, 10.003619, 9.997908 
1.995056e+3, 1.7387658e+2, -973484.25, -1344690.1, -47252.14, 0.021462962, -0.3410291, -967563.8, 268414.0, 0.0019487245, 10.002774, 9.997837 
1.9950494e+3, 1.8387443e+2, -941137.94, -1213155.5, -47605.29, 0.035380356, -0.3627476, -933047.25, 204950.75, 0.000032105352, 10.002035, 9.998425 
1.995043e+3, 1.9387302e+2, -927358.0, -1160869.5, -49373.305, 0.030849751, -0.3530062, -917347.75, 122662.94, 0.0, 10.001477, 9.998379 
1.9950368e+3, 2.038716e+2, -895520.6, -1077617.6, -38872.67, 0.03127564, -0.3372199, -887569.56, 54455.09, 0.0, 10.00095, 9.998532 
1.9950308e+3, 2.1387027e+2, -875107.6, -1027659.06, -35449.96, 0.033049997, -0.32456216, -867272.2, -23232.47, 0.0, 10.0004635, 9.998437 
1.9950248e+3, 2.2386917e+2, -785186.1, -847403.8, -38758.375, 0.02605724, -0.31008607, -766596.2, -20544.35, 0.0, 10.000036, 9.9992075 
1.9950187e+3, 2.3386854e+2, -739612.3, -776866.75, -48090.938, 0.011075349, -0.30064654, -706667.1, -58609.1, 0.0, 9.999686, 9.999187 
1.9950125e+3, 2.4386814e+2, -687720.8, -603166.0, -92147.44, 0.024404911, -0.29590327, -544060.3, 6001.458, 0.0, 9.998949, 10.00006 
1.9950056e+3, 2.538681e+2, -781871.5, -598432.75, -80697.086, 0.06972524, -0.31650686, -567986.44, -115924.734, 0.0, 9.997632, 10.000055 
1.9949988e+3, 2.6386827e+2, -786882.0, -508187.78, -25336.104, 0.041612457, -0.31805387, -505903.22, -151843.02, 0.0, 9.996745, 10.000429 
1.9949917e+3, 2.7386907e+2, -733861.5, -446154.78, -31727.846, -0.07575661, -0.28346393, -442697.4, -186643.17, 0.0, 9.996498, 10.0003 
1.9949862e+3, 2.8386977e+2, -635701.5, -296373.72, -24903.35, -0.0730808, -0.2589221, -294555.8, -136507.7, 0.0, 9.996278, 10.000762 
1.994982e+3, 2.9387018e+2, -580986.44, -217686.23, -25453.668, 0.04978351, -0.30420604, -215911.56, -155868.27, 0.0, 9.995972, 10.000778 
1.9949745e+3, 3.0387107e+2, -597757.94, -91914.734, -121422.53, -0.086611606, -0.33734563, -64278.38, -64278.38, 0.0, 9.99505, 10.001753 
1.9949664e+3, 3.1387395e+2, -741577.75, -86874.22, 76196.125, -0.10535584, -0.22814547, -78123.28, -78123.28, 0.0, 9.993741, 10.0024185 
2.0050928e+3, 1.2389478e+2, -1218337.8, -1767942.5, 33254.49, 0.014473823, -0.32863903, -1216333.0, 509470.16, 0.2623986, 10.006281, 9.996613 
2.0050852e+3, 1.3389276e+2, -1144626.9, -1656566.5, -22055.775, 0.0038101801, -0.25532213, -1143678.4, 484146.47, 0.18741304, 10.005396, 9.997127 
2.0050788e+3, 1.4389011e+2, -1065394.6, -1531564.1, 24272.783, 0.0578789, -0.25290892, -1064134.1, 465716.72, 0.11131829, 10.004637, 9.997674 
2.0050727e+3, 1.538878e+2, -1019460.75, -1480063.9, 27260.203, 0.02765869, -0.2593657, -1017853.0, 414017.8, 0.05049075, 10.004046, 9.99764 
2.0050661e+3, 1.6388528e+2, -965669.3, -1391758.4, -21289.758, 0.023909917, -0.27893, -964608.2, 369285.4, 0.015213698, 10.00355, 9.997811 
2.0050588e+3, 1.7388247e+2, -918191.3, -1331499.9, -30782.66, 0.022414314, -0.34108382, -915911.25, 320009.53, 0.0021533365, 10.003216, 9.997713 
2.0050517e+3, 1.8388024e+2, -841594.56, -1183819.4, -30585.705, 0.019816797, -0.358399, -838882.5, 299059.94, 0.00003871999, 10.002802, 9.998254 
2.0050448e+3, 1.9387902e+2, -825929.25, -1131022.9, -36683.168, 0.027478188, -0.31073007, -821580.6, 218373.13, 0.0, 10.00226, 9.998204 
2.005038e+3, 2.0387758e+2, -811659.4, -1038174.06, -32432.07, 0.03698383, -0.2863013, -807107.25, 134860.7, 0.0, 10.001533, 9.998521 
2.0050314e+3, 2.1387587e+2, -865191.56, -1022803.25, -30375.623, 0.045466002, -0.31209847, -859540.1, -15554.093, 0.0, 10.000532, 9.998437 
2.0050247e+3, 2.2387457e+2, -847593.25, -884147.0, -18951.37, 0.03760952, -0.31460327, -839541.44, -93541.59, 0.0, 9.999639, 9.9991455 
2.005018e+3, 2.3387404e+2, -855920.9, -841528.94, -14159.181, 0.0076704402, -0.28894323, -832842.06, -184836.19, 0.0, 9.998926, 9.999109 
2.0050108e+3, 2.4387373e+2, -776001.6, -636559.06, -70678.63, 0.01211738, -0.27395576, -607000.3, -56991.24, 0.0, 9.998305, 10.000141 
2.0050034e+3, 2.5387383e+2, -751565.8, -572362.25, -88210.61, 0.06862814, -0.29106697, -536227.9, -84220.5, 0.0, 9.997793, 10.000155 
2.004996e+3, 2.6387402e+2, -722153.2, -490875.25, -28606.313, 0.057911396, -0.28950894, -487389.53, -133384.06, 0.0, 9.997254, 10.000299 
2.0049886e+3, 2.7387467e+2, -717718.7, -455025.06, -26282.537, -0.05226203, -0.25694224, -452421.3, -196419.92, 0.0, 9.996685, 10.000148 
2.0049822e+3, 2.8387526e+2, -669286.5, -300085.7, -9622.155, -0.08945864, -0.2409911, -299835.1, -141838.67, 0.0, 9.995996, 10.000871 
2.0049769e+3, 2.9387566e+2, -718518.4, -281350.75, 6006.502, -0.020313356, -0.29207864, -281268.22, -221277.16, 0.0, 9.99502, 10.000797 
2.0049702e+3, 3.0387646e+2, -692899.2, -138409.2, -90131.375, 0.007273117, -0.33227432, -124126.41, -124126.41, 0.0, 9.994402, 10.001746 
2.0049608e+3, 3.1387857e+2, -662840.06, -40903.65, 92880.32, -0.07009295, -0.30620718, -27329.133, -27329.133, 0.0, 9.994256, 10.002481 
2.0150991e+3, 1.2390193e+2, -1231566.3, -1782023.5, 7837.431, 0.017973108, -0.2779978, -1231454.6, 494278.75, 0.27219373, 10.006266, 9.996518 
2.0150906e+3, 1.3389932e+2, -1146627.9, -1645842.1, -46833.74, 0.0042637517, -0.27082685, -1142272.1, 485487.47, 0.19526166, 10.005377, 9.997215 
2.0150833e+3, 1.4389662e+2, -1073498.9, -1541365.3, 4590.5894, 0.03269686, -0.27658552, -1073453.9, 456331.88, 0.11669231, 10.004623, 9.997613 
2.0150773e+3, 1.5389383e+2, -1027168.44, -1494513.1, 7910.4766, 0.07986947, -0.3207221, -1027034.6, 404776.72, 0.053386554, 10.004046, 9.997541 
2.0150703e+3, 1.6389133e+2, -974606.06, -1410778.5, -34400.508, 0.08744983, -0.32885483, -971909.56, 361925.47, 0.016304964, 10.0035515, 9.997681 
2.0150618e+3, 1.7388915e+2, -928529.44, -1353029.4, -41321.457, 0.0045706416, -0.31564945, -924544.56, 311312.4, 0.0023698893, 10.003215, 9.997567 
2.0150541e+3, 1.8388712e+2, -856419.3, -1213971.0, -49127.48, -0.024323232, -0.29252544, -849792.06, 288084.97, 0.00004542485, 10.002798, 9.99805 
2.015047e+3, 1.938856e+2, -841863.56, -1163410.5, -54902.957, 0.040086254, -0.25559512, -832747.5, 207144.53, 0.0, 10.002256, 9.997985 
2.0150399e+3, 2.0388384e+2, -812075.94, -1039166.3, -67257.44, 0.073089525, -0.25055403, -793651.1, 148258.17, 0.0, 10.001532, 9.998516 
2.015032e+3, 2.1388184e+2, -865003.2, -1021422.56, -65598.59, 0.054010794, -0.30669007, -841134.8, 2794.425, 0.0, 10.000526, 9.998449 
2.0150243e+3, 2.2388041e+2, -841068.6, -870740.3, -45938.094, 0.033766195, -0.3260092, -807630.2, -61686.65, 0.0, 9.999637, 9.99924 
2.015017e+3, 2.3387998e+2, -847976.94, -826330.2, -38951.316, 0.010997843, -0.29990605, -796726.44, -148778.23, 0.0, 9.998929, 9.999212 
2.0150091e+3, 2.438798e+2, -789031.7, -665859.4, -90389.664, -0.0061349664, -0.2715664, -618069.4, -68118.65, 0.0, 9.998313, 9.999938 
2.0150004e+3, 2.5388002e+2, -768959.8, -610424.94, -106497.34, -0.011456803, -0.24847703, -556933.2, -104984.36, 0.0, 9.9978, 9.999892 
2.0149927e+3, 2.6388013e+2, -728293.25, -506014.22, -50587.324, 0.001898255, -0.23766845, -495042.84, -141094.47, 0.0, 9.997262, 10.000193 
2.0149863e+3, 2.738801e+2, -718061.4, -459863.63, -46078.344, 0.03250512, -0.26221493, -451886.84, -195937.17, 0.0, 9.9967, 10.000108 
2.0149791e+3, 2.838806e+2, -639712.5, -242178.72, -46218.824, 0.00055147597, -0.27315497, -236875.88, -78930.65, 0.0, 9.99601, 10.001263 
2.0149711e+3, 2.9388213e+2, -695714.06, -237826.61, -33667.313, -0.10002273, -0.25522408, -235364.38, -175434.63, 0.0, 9.995033, 10.001092 
2.0149645e+3, 3.0388343e+2, -712997.06, -184045.05, -94592.67, 0.010547397, -0.24135755, -167637.92, -167637.92, 0.0, 9.994418, 10.001426 
2.0149554e+3, 3.1388408e+2, -618175.0, 49949.26, 11038.536, -0.036160182, -0.3341013, 50131.59, 50131.59, 0.0, 9.994269, 10.003097 
2.0251049e+3, 1.2390937e+2, -1289264.0, -1784053.6, 23371.61, 0.016979402, -0.255473, -1288162.5, 437499.06, 0.28273618, 10.005638, 9.996811 
2.0250964e+3, 1.3390659e+2, -1093082.5, -1585687.9, -15456.72, 0.0395994, -0.29476655, -1092598.0, 535089.8, 0.20358415, 10.00573, 9.997525 
2.0250884e+3, 1.4390412e+2, -986058.56, -1520955.3, 33536.973, 0.04135746, -0.28332487, -983964.06, 545747.2, 0.12233291, 10.00545, 9.997363 
2.0250814e+3, 1.5390103e+2, -978394.25, -1505874.0, 18813.893, 0.07216428, -0.3246692, -977724.06, 454017.56, 0.056417953, 10.004571, 9.99721 
2.0250739e+3, 1.6389847e+2, -923596.25, -1382627.4, -12990.128, 0.07664765, -0.32141, -923228.94, 410537.84, 0.017455332, 10.003901, 9.997704 
2.0250654e+3, 1.738966e+2, -871402.6, -1317625.1, -4351.4033, 0.015253125, -0.2826452, -871360.2, 364424.8, 0.002602448, 10.003576, 9.997635 
2.0250571e+3, 1.8389453e+2, -840272.56, -1217453.5, -14599.745, -0.006811222, -0.2633696, -839708.3, 298096.84, 0.0000523828, 10.002959, 9.997948 
2.0250492e+3, 1.9389236e+2, -901913.3, -1207582.6, -17839.063, 0.039496537, -0.276657, -900875.75, 138950.64, 0.0, 10.001909, 9.997849 
2.0250411e+3, 2.038904e+2, -874481.75, -1073177.5, -23127.537, 0.061183274, -0.28260544, -871825.3, 70020.41, 0.0, 10.001121, 9.99848 
2.0250325e+3, 2.1388887e+2, -834722.6, -1009152.8, -26331.623, 0.043328535, -0.28943676, -830834.3, 13026.878, 0.0, 10.000746, 9.998426 
2.0250241e+3, 2.2388762e+2, -766492.1, -831249.94, -14117.878, 0.02761405, -0.29161274, -763548.1, -17674.46, 0.0, 10.000135, 9.9992695 
2.025016e+3, 2.338869e+2, -812704.44, -805697.25, -13748.527, 0.0147453565, -0.29860482, -795012.9, -147132.23, 0.0, 9.999158, 9.999244 
2.0250075e+3, 2.4388647e+2, -785927.5, -686317.4, -52538.184, -0.0046972567, -0.28582433, -663729.06, -113843.59, 0.0, 9.998431, 9.999739 
2.024998e+3, 2.5388664e+2, -741406.2, -623424.6, -66682.55, -0.031836443, -0.2465761, -593384.7, -141499.39, 0.0, 9.998104, 9.999655 
2.0249899e+3, 2.6388672e+2, -699544.6, -489912.34, -18629.332, -0.016824719, -0.22612624, -488269.7, -134384.2, 0.0, 9.997451, 10.000212 
2.0249829e+3, 2.7388662e+2, -778824.6, -483472.03, -7646.6646, 0.05713217, -0.2611511, -483274.22, -227387.61, 0.0, 9.996261, 10.000157 
2.0249751e+3, 2.838871e+2, -731663.3, -286429.13, -11757.25, 0.033833794, -0.2770553, -286118.88, -128236.58, 0.0, 9.99538, 10.001261 
2.0249659e+3, 2.9388893e+2, -698929.25, -232677.5, -32424.365, -0.117901444, -0.22948547, -230433.42, -170568.47, 0.0, 9.9949875, 10.001147 
2.0249589e+3, 3.038905e+2, -682549.3, -160537.25, -62237.645, -0.002349771, -0.19410968, -153219.47, -153219.47, 0.0, 9.994583, 10.00151 
2.0249496e+3, 3.1389162e+2, -667460.6, 190.24611, 18598.459, -0.0410319, -0.24553195, 707.9339, 707.9339, 0.0, 9.994045, 10.002862 
2.0351104e+3, 1.23917095e+2, -1270875.5, -1705974.0, 13983.223, -0.008201999, -0.25614795, -1270426.5, 455160.78, 0.29477018, 10.005594, 9.997419 
2.0351028e+3, 1.3391452e+2, -1073712.3, -1531417.8, -10183.872, 0.099440105, -0.32123625, -1073485.8, 554123.75, 0.21281745, 10.00572, 9.998007 
2.0350942e+3, 1.4391257e+2, -1015790.7, -1582098.5, 7798.8286, 0.07468042, -0.2668822, -1015683.3, 513944.53, 0.12844074, 10.005449, 9.996937 
2.0350853e+3, 1.5390927e+2, -1017745.8, -1588291.4, -11392.415, 0.00052599085, -0.2756866, -1017518.44, 414144.25, 0.05965809, 10.004565, 9.996648 
2.0350769e+3, 1.6390657e+2, -912458.44, -1357217.6, -26210.031, -0.011715405, -0.26166946, -910919.2, 422770.63, 0.018687867, 10.003896, 9.997882 
2.0350693e+3, 1.7390478e+2, -853915.3, -1279552.8, -14272.175, 0.049617782, -0.24233644, -853437.3, 382268.38, 0.002857233, 10.003569, 9.997901 
2.0350608e+3, 1.8390238e+2, -842607.06, -1220967.4, -50568.973, 0.066292755, -0.26891005, -835965.0, 301762.56, 0.000060137387, 10.002953, 9.997928 
2.035051e+3, 1.9389929e+2, -906876.25, -1217287.9, -55265.727, 0.020484699, -0.37008908, -897330.3, 142426.9, 0.0, 10.001905, 9.997786 
2.0350416e+3, 2.0389722e+2, -879380.8, -1084396.0, -38961.73, -0.0021034542, -0.37953296, -872226.1, 69551.62, 0.0, 10.001123, 9.998403 
2.035033e+3, 2.1389687e+2, -840310.75, -1020889.7, -37824.832, 0.009342489, -0.26045614, -832707.9, 11075.086, 0.0, 10.000745, 9.998348 
2.0350242e+3, 2.2389607e+2, -768594.06, -836398.75, -47788.535, 0.015329145, -0.21215582, -743903.6, 1887.8403, 0.0, 10.000136, 9.999234 
2.0350151e+3, 2.3389465e+2, -815667.9, -811514.7, -48709.836, 0.014483754, -0.28592333, -764837.2, -117032.89, 0.0, 9.999154, 9.999206 
2.035006e+3, 2.4389368e+2, -800089.2, -716961.56, -67460.8, 0.0125247715, -0.31640247, -679288.3, -129474.15, 0.0, 9.998435, 9.999528 
2.0349966e+3, 2.5389352e+2, -755324.3, -655067.25, -77612.61, 0.0021810455, -0.2844162, -612802.1, -160984.28, 0.0, 9.998114, 9.999434 
2.0349874e+3, 2.6389363e+2, -687673.75, -467905.5, -60440.383, -0.0032400973, -0.25444412, -452380.06, -98562.2, 0.0, 9.99746, 10.00036 
2.0349787e+3, 2.738941e+2, -767456.25, -463091.8, -52306.086, 0.013999413, -0.2542681, -454353.72, -198540.44, 0.0, 9.996272, 10.000293 
2.0349702e+3, 2.838946e+2, -759359.75, -346075.84, -31349.709, 0.007531922, -0.25306377, -343711.34, -185902.5, 0.0, 9.995389, 10.000848 
2.0349614e+3, 2.9389587e+2, -709462.3, -259659.2, -47122.31, -0.07230449, -0.21827434, -254775.6, -194977.27, 0.0, 9.995007, 10.000954 
2.034953e+3, 3.0389768e+2, -641582.56, -77813.26, -81958.89, -0.050709236, -0.19109286, -66140.055, -66140.055, 0.0, 9.994593, 10.002074 
2.034944e+3, 3.138991e+2, -714776.1, -104380.18, -4400.32, -0.006221747, -0.24486208, -104348.46, -104348.46, 0.0, 9.994067, 10.002136 
2.0451163e+3, 1.2392584e+2, -1236041.0, -1686908.4, 55935.086, -0.005538424, -0.27007046, -1229205.3, 496296.5, 0.30887502, 10.006042, 9.997395 
2.0451084e+3, 1.3392319e+2, -1118389.1, -1574271.9, 4752.7393, 0.09917451, -0.31543002, -1118339.6, 509186.16, 0.22331536, 10.005519, 9.997736 
2.0450994e+3, 1.4392135e+2, -1057868.9, -1601264.5, 2570.6563, 0.060359184, -0.23609321, -1057856.8, 471686.56, 0.13519116, 10.005139, 9.996954 
2.04509e+3, 1.5391797e+2, -954619.4, -1551289.6, 20311.047, -0.0031694772, -0.2549195, -953928.75, 477649.28, 0.06317967, 10.005023, 9.996681 
2.0450811e+3, 1.6391513e+2, -847079.75, -1338611.0, 11316.506, -0.011409234, -0.2524873, -846819.3, 486787.13, 0.020029122, 10.004418, 9.997758 
2.0450726e+3, 1.7391305e+2, -935175.94, -1335731.5, -9947.375, 0.048441544, -0.24704699, -934929.06, 300696.53, 0.0031421313, 10.003081, 9.997749 
2.0450634e+3, 1.8391064e+2, -930324.9, -1251245.0, -46667.742, 0.06339226, -0.27126253, -923676.25, 213971.45, 0.00006977841, 10.002297, 9.9980345 
2.045053e+3, 1.9390796e+2, -830339.94, -1163740.9, -36759.63, 0.013512765, -0.34445593, -826335.06, 213337.67, 0.0, 10.002361, 9.997932 
2.0450431e+3, 2.0390594e+2, -758697.25, -1038761.1, -18669.68, -0.0064545902, -0.3523825, -757458.2, 184234.22, 0.0, 10.002008, 9.998288 
2.0450339e+3, 2.1390507e+2, -809228.0, -1022865.94, -24760.898, 0.017583815, -0.2717271, -806395.75, 37307.03, 0.0, 10.001032, 9.998196 
2.0450243e+3, 2.2390404e+2, -783545.5, -854514.8, -47412.09, 0.022882307, -0.23295625, -759809.7, -14096.097, 0.0, 10.000084, 9.999135 
2.0450144e+3, 2.3390286e+2, -815365.06, -821876.75, -55896.5, 0.0040779547, -0.27161238, -762629.7, -114905.3, 0.0, 9.999204, 9.99911 
2.0450042e+3, 2.4390195e+2, -806088.1, -730840.06, -55480.836, -0.0030252691, -0.28697467, -701429.1, -151695.02, 0.0, 9.998442, 9.999428 
2.0449945e+3, 2.539015e+2, -797835.7, -686320.44, -54396.254, -0.00064082956, -0.27248845, -664181.56, -212440.77, 0.0, 9.9978695, 9.999336 
2.0449847e+3, 2.6390156e+2, -707588.0, -468406.16, -49681.406, -0.008194297, -0.25132406, -458497.16, -104755.32, 0.0, 9.997286, 10.00044 
2.044975e+3, 2.739022e+2, -703680.06, -421626.0, -50549.105, -0.008495588, -0.23640175, -412840.38, -157105.97, 0.0, 9.996667, 10.000386 
2.0449658e+3, 2.8390276e+2, -685085.2, -322579.97, -7812.7285, -0.008089071, -0.23175347, -322411.66, -164682.31, 0.0, 9.995952, 10.000737 
2.0449565e+3, 2.9390356e+2, -707482.6, -267210.44, -1215.9371, -0.056124836, -0.22875497, -267207.1, -207483.72, 0.0, 9.995058, 10.000876 
2.0449476e+3, 3.039056e+2, -682163.94, -88027.44, -52201.75, -0.03464896, -0.18054417, -83475.78, -83475.78, 0.0, 9.99428, 10.002151 
2.0449379e+3, 3.1390744e+2, -740803.7, -103031.24, 9882.021, -0.007255288, -0.19591434, -102878.16, -102878.16, 0.0, 9.9938345, 10.002254 
2.0551223e+3, 1.2393576e+2, -1278725.3, -1764189.0, 28783.758, 0.0016702474, -0.27267894, -1277024.6, 448378.7, 0.32522276, 10.006031, 9.996758 
2.0551133e+3, 1.3393247e+2, -1180703.0, -1704529.4, -8676.424, 0.033401772, -0.2845704, -1180559.4, 446878.16, 0.23521401, 10.0055065, 9.996745 
2.0551038e+3, 1.4393036e+2, -1037238.1, -1538907.9, -2835.6177, -0.006482279, -0.19668864, -1037222.1, 492236.4, 0.14267933, 10.005126, 9.997389 
2.0550957e+3, 1.5392713e+2, -918911.44, -1465168.9, 18425.063, 0.051830567, -0.25855553, -918290.7, 513197.38, 0.06703834, 10.005012, 9.997278 
2.0550865e+3, 1.6392411e+2, -878671.44, -1402614.9, -32494.504, 0.0670143, -0.28750348, -876663.9, 456853.06, 0.021505598, 10.00441, 9.997324 
2.0550755e+3, 1.7392136e+2, -975036.1, -1419461.3, -58374.508, 0.007504011, -0.29453808, -967496.6, 268048.88, 0.0034661836, 10.003083, 9.997175 
2.0550649e+3, 1.8391922e+2, -912830.75, -1216202.9, -48590.26, -0.016869, -0.27110225, -905238.2, 232328.34, 0.0000827448, 10.002301, 9.998275 
2.0550554e+3, 1.9391827e+2, -807489.6, -1115193.1, -31877.885, 0.0148129985, -0.20330925, -804221.8, 235352.28, 0.0, 10.002355, 9.998269 
2.0550457e+3, 2.0391645e+2, -770389.4, -1062519.8, -50765.88, 0.043060504, -0.20401295, -761818.8, 179772.16, 0.0, 10.002005, 9.998127 
2.0550354e+3, 2.1391337e+2, -826293.3, -1056856.5, -59184.902, 0.063190885, -0.322077, -811988.25, 31633.105, 0.0, 10.001024, 9.997967 
2.0550247e+3, 2.2391143e+2, -796216.94, -881248.8, -79908.8, 0.046757467, -0.35113716, -748217.56, -2576.923, 0.0, 10.000084, 9.998952 
2.0550132e+3, 2.3391144e+2, -827591.06, -847674.75, -87163.0, -0.021033006, -0.25486264, -749893.4, -102251.555, 0.0, 9.999204, 9.998935 
2.0550022e+3, 2.4391116e+2, -804688.7, -729404.3, -78348.39, -0.055403348, -0.19700031, -680124.7, -130478.41, 0.0, 9.998446, 9.999436 
2.0549919e+3, 2.5391048e+2, -795717.8, -683509.06, -74940.375, -0.044516224, -0.21202694, -645998.44, -194343.06, 0.0, 9.997874, 9.999354 
2.0549817e+3, 2.6391023e+2, -706276.9, -467471.16, -73824.08, -0.034535084, -0.21710537, -446492.25, -92833.63, 0.0, 9.9972925, 10.000444 
2.0549716e+3, 2.7391085e+2, -698174.4, -413768.16, -73650.305, -0.017526148, -0.20951447, -395827.3, -140175.89, 0.0, 9.996679, 10.000436 
2.0549616e+3, 2.8391147e+2, -668616.1, -291926.9, -41163.34, -0.019878132, -0.21285762, -287481.2, -129836.19, 0.0, 9.995966, 10.000942 
2.0549515e+3, 2.93912e+2, -700989.4, -259926.22, -34430.91, -0.07544105, -0.25871003, -257254.61, -197613.8, 0.0, 9.995083, 10.000916 
2.0549427e+3, 3.039141e+2, -719291.0, -163191.92, -80606.63, 0.051487874, -0.1730037, -151743.67, -151743.67, 0.0, 9.994274, 10.0016365 
2.0549314e+3, 3.1391594e+2, -707800.44, -42967.746, 34484.22, -0.048473284, -0.15206783, -41183.87, -41183.87, 0.0, 9.993856, 10.002664 
2.0651287e+3, 1.2394629e+2, -1286604.1, -1778645.9, 16423.207, 0.025315953, -0.23226967, -1286056.6, 439244.53, 0.34352127, 10.006154, 9.996597 
2.0651188e+3, 1.3394235e+2, -1168562.0, -1733091.6, 22815.715, 0.02650518, -0.27039772, -1167641.4, 459700.6, 0.24839447, 10.005867, 9.996377 
2.0651089e+3, 1.4393982e+2, -1000112.75, -1499457.8, 45229.586, -0.0118691325, -0.21258144, -996049.06, 533317.75, 0.15089807, 10.005376, 9.997576 
2.0651005e+3, 1.5393703e+2, -957512.0, -1457526.5, 44857.35, 0.0660658, -0.25623614, -953519.6, 477871.53, 0.071262814, 10.004627, 9.997519 
2.0650908e+3, 1.6393413e+2, -937062.2, -1450557.9, -20562.643, 0.08613969, -0.27856702, -936240.06, 397178.47, 0.02313916, 10.004086, 9.997151 
2.0650789e+3, 1.7393112e+2, -878245.6, -1396090.9, -23301.588, 0.008245033, -0.2886727, -877199.25, 358250.9, 0.0038376711, 10.003854, 9.9969635 
2.0650676e+3, 1.8392879e+2, -777105.06, -1169140.8, -586.8578, -0.025085628, -0.26631868, -777104.2, 360369.4, 0.00010035138, 10.003315, 9.998109 
2.0650576e+3, 1.9392766e+2, -823698.4, -1141613.0, -20995.916, 0.011919627, -0.19962756, -822317.75, 217165.31, 0.0, 10.002323, 9.998105 
2.0650473e+3, 2.0392579e+2, -830465.44, -1081033.3, -58621.64, 0.04102435, -0.20044416, -817428.9, 124071.49, 0.0, 10.001548, 9.99822 
2.0650364e+3, 2.1392283e+2, -803170.2, -1031517.75, -45726.69, 0.056557532, -0.31753552, -794353.8, 49175.227, 0.0, 10.001123, 9.998092 
2.065025e+3, 2.2392093e+2, -737696.2, -868596.3, -53354.586, 0.03770384, -0.34471, -718704.44, 26843.545, 0.0, 10.000555, 9.998811 
2.0650128e+3, 2.3392081e+2, -755726.6, -832273.75, -61766.375, -0.03025541, -0.24373311, -721336.9, -73785.914, 0.0, 9.999783, 9.99876 
2.0650007e+3, 2.4392043e+2, -735870.0, -689691.75, -49205.82, -0.06542577, -0.18822543, -658427.25, -108870.78, 0.0, 9.998893, 9.999493 
2.0649898e+3, 2.5391972e+2, -797683.6, -675259.6, -42742.81, -0.050124552, -0.21319225, -661813.4, -210248.22, 0.0, 9.997825, 9.999434 
2.0649791e+3, 2.6391956e+2, -759132.25, -498493.78, -31801.877, -0.029531162, -0.21223591, -494669.6, -141102.22, 0.0, 9.996955, 10.000393 
2.0649682e+3, 2.7392033e+2, -746508.44, -444107.3, -38193.855, -0.0012683037, -0.18279007, -439357.94, -183798.78, 0.0, 9.996379, 10.000371 
2.0649575e+3, 2.8392076e+2, -703273.2, -300642.63, -24615.447, -0.021946108, -0.20253932, -299143.28, -141589.06, 0.0, 9.995695, 10.001012 
2.064946e+3, 2.9392081e+2, -737138.6, -277732.38, -30051.79, -0.10951135, -0.30135426, -275774.88, -216221.27, 0.0, 9.994842, 10.000907 
2.0649372e+3, 3.0392343e+2, -706774.4, -157672.42, -36731.355, 0.08522742, -0.16219597, -155226.23, -155226.23, 0.0, 9.994366, 10.001629 
2.0649256e+3, 3.139238e+2, -679574.44, -44812.34, 89192.05, -0.025005734, -0.29412362, -32517.865, -32517.865, 0.0, 9.994114, 10.002528 
2.075135e+3, 1.2395754e+2, -1288111.1, -1734742.1, -1762.342, 0.04484048, -0.13421127, -1288104.1, 437089.94, 0.36309138, 10.006126, 9.99691 
2.075125e+3, 1.3395287e+2, -1168412.5, -1704148.6, 16476.37, 0.06257519, -0.26745543, -1167906.3, 459332.75, 0.26252, 10.005847, 9.996585 
2.0751147e+3, 1.4394976e+2, -1011084.4, -1509966.6, 22624.768, 0.029476264, -0.27596638, -1010060.44, 519207.8, 0.15974805, 10.005366, 9.9974985 
2.075105e+3, 1.5394755e+2, -968033.1, -1475645.8, 20278.582, 0.03613173, -0.25014904, -967224.3, 464064.2, 0.07585413, 10.004624, 9.997395 
2.0750944e+3, 1.6394503e+2, -931168.25, -1437015.8, -30403.123, 0.044651967, -0.23052037, -929347.5, 403964.94, 0.02494502, 10.004086, 9.997246 
2.075083e+3, 1.7394222e+2, -869528.2, -1377401.5, -29972.805, 0.04512573, -0.23205182, -867765.44, 367575.2, 0.0042631393, 10.003851, 9.997095 
2.0750715e+3, 1.8393923e+2, -817402.25, -1252422.5, -33999.164, 0.0316562, -0.25766063, -814761.06, 322608.97, 0.00012354909, 10.003311, 9.9975395 
2.0750599e+3, 1.9393608e+2, -870923.94, -1238819.0, -55825.465, 0.000018989995, -0.3290448, -862639.4, 176760.8, 0.0, 10.002317, 9.99744 
2.0750484e+3, 2.0393391e+2, -807242.8, -1033292.9, -75480.54, -0.014952415, -0.33679464, -784356.2, 157064.78, 0.0, 10.001548, 9.998549 
2.0750369e+3, 2.1393335e+2, -773454.2, -968101.25, -59217.59, -0.005647668, -0.25823542, -756854.1, 86572.63, 0.0, 10.001115, 9.998532 
2.0750248e+3, 2.2393237e+2, -744990.1, -883708.94, -80292.89, -0.007603767, -0.2143788, -708247.3, 37189.44, 0.0, 10.000553, 9.998709 
2.0750125e+3, 2.3393081e+2, -768592.25, -859032.4, -88590.45, -0.02870714, -0.23885283, -714348.1, -66895.086, 0.0, 9.999781, 9.998578 
2.075e+3, 2.4392961e+2, -728410.6, -675223.1, -88405.06, -0.037988767, -0.2604559, -609498.5, -60032.79, 0.0, 9.998897, 9.999592 
2.0749877e+3, 2.539291e+2, -787373.0, -655907.94, -82748.375, -0.024114352, -0.27643874, -615961.44, -164490.23, 0.0, 9.997831, 9.999565 
2.0749763e+3, 2.639294e+2, -767343.25, -517207.25, -56154.867, 0.0041283593, -0.23576993, -505179.03, -151709.88, 0.0, 9.996962, 10.000262 
2.0749651e+3, 2.7393052e+2, -757560.44, -470569.88, -59028.47, 0.038447488, -0.15372962, -458903.13, -203444.33, 0.0, 9.996392, 10.000184 
2.0749532e+3, 2.8393048e+2, -707615.25, -313382.78, -59065.188, -0.020421155, -0.20515423, -304723.66, -147264.6, 0.0, 9.995709, 10.000919 
2.0749402e+3, 2.9392982e+2, -739826.5, -288453.56, -64452.402, -0.18023093, -0.37051103, -279430.66, -219965.73, 0.0, 9.994861, 10.000825 
2.0749317e+3, 3.0393365e+2, -668648.25, -79855.375, -44524.508, 0.07568676, -0.12611008, -76507.47, -76507.47, 0.0, 9.994373, 10.002159 
2.07492e+3, 3.1393367e+2, -716823.56, -124625.945, -19315.809, -0.0008570391, -0.34442016, -123996.586, -123996.586, 0.0, 9.994125, 10.001974 
2.0851415e+3, 1.2396841e+2, -1292604.0, -1711284.0, 13880.248, 0.08179107, -0.13839898, -1292144.4, 432943.97, 0.38302755, 10.006118, 9.997133 
2.0851311e+3, 1.3396399e+2, -1169526.5, -1669779.6, 41670.75, 0.08345915, -0.2734896, -1166079.1, 461049.78, 0.2771241, 10.005792, 9.996855 
2.0851207e+3, 1.4396073e+2, -1030603.25, -1538099.9, 39845.316, 0.06449906, -0.30312678, -1027493.94, 501665.47, 0.16906944, 10.005351, 9.9972925 
2.0851097e+3, 1.5395854e+2, -973173.44, -1504936.1, 29074.16, 0.042532615, -0.2497747, -971588.5, 459592.5, 0.08079173, 10.0047245, 9.997146 
2.0850986e+3, 1.6395603e+2, -907363.75, -1415830.4, -10234.507, 0.040955983, -0.22000463, -907157.9, 426047.72, 0.026933258, 10.004222, 9.997325 
2.0850872e+3, 1.7395324e+2, -848566.1, -1355012.4, -11010.674, 0.058572907, -0.23131633, -848326.9, 386905.7, 0.004748795, 10.003942, 9.997207 
2.085075e+3, 1.8395017e+2, -805159.75, -1260648.5, -21576.775, 0.045119684, -0.2649665, -804139.94, 333122.28, 0.00015303373, 10.003455, 9.997415 
2.0850623e+3, 1.939468e+2, -827624.06, -1234202.1, -11087.944, -0.0119799, -0.34368277, -827321.9, 211973.25, 0.0, 10.002687, 9.9972925 
2.0850497e+3, 2.0394456e+2, -766584.5, -1020327.25, -13962.718, -0.040910218, -0.34522924, -765818.5, 175498.4, 0.0, 10.00186, 9.998486 
2.0850375e+3, 2.1394421e+2, -798122.6, -985373.8, -34189.223, -0.026814153, -0.23877701, -792075.5, 51245.22, 0.0, 10.000972, 9.998482 
2.0850252e+3, 2.2394325e+2, -790381.2, -902846.2, -69186.83, -0.015693244, -0.19262482, -757457.0, -12126.484, 0.0, 10.000232, 9.998732 
2.0850122e+3, 2.3394135e+2, -774525.3, -858649.9, -65010.535, -0.009744173, -0.25440317, -739156.3, -91806.836, 0.0, 9.999728, 9.998605 
2.0849992e+3, 2.4394e+2, -704231.44, -667320.0, -69878.125, -0.0148133505, -0.2896639, -613501.5, -64138.406, 0.0, 9.999079, 9.999558 
2.0849858e+3, 2.5393972e+2, -733246.3, -633643.56, -78781.93, -0.028134488, -0.2809623, -590242.06, -138875.52, 0.0, 9.9982195, 9.99953 
2.0849732e+3, 2.6394004e+2, -709642.4, -493021.4, -45309.4, -0.012452919, -0.23208754, -483926.16, -130562.125, 0.0, 9.997375, 10.000228 
2.0849614e+3, 2.7394092e+2, -739551.9, -466765.53, -38183.035, 0.035003167, -0.16828777, -461521.7, -206165.84, 0.0, 9.99654, 10.000137 
2.084949e+3, 2.8394082e+2, -698726.75, -296951.66, -29172.66, -0.010263573, -0.22832738, -294844.5, -137487.84, 0.0, 9.995717, 10.001029 
2.0849353e+3, 2.939404e+2, -737744.06, -274765.56, -22900.016, -0.15610552, -0.3795591, -273635.63, -214275.7, 0.0, 9.994818, 10.000943 
2.0849255e+3, 3.0394432e+2, -736019.6, -128105.49, -1212.3932, 0.059287667, -0.1305533, -128103.07, -128103.07, 0.0, 9.993976, 10.002021 
2.0849138e+3, 3.1394523e+2, -803293.44, -108054.21, -69606.984, 0.01065353, -0.24873489, -101153.69, -101153.69, 0.0, 9.993282, 10.002495 
2.095148e+3, 1.2397891e+2, -1303606.8, -1700864.0, 1501.0657, 0.11462702, -0.23583913, -1303601.1, 421382.94, 0.4024377, 10.006079, 9.997277 
2.095137e+3, 1.3397564e+2, -1165560.5, -1627689.1, 32552.664, 0.083408326, -0.2865018, -1163278.8, 463733.78, 0.29176039, 10.005778, 9.9971485 
2.0951259e+3, 1.4397258e+2, -1054642.8, -1582834.8, 20976.68, 0.08739058, -0.2973144, -1053811.0, 475230.47, 0.17871775, 10.005343, 9.996986 
2.0951147e+3, 1.5396994e+2, -997752.75, -1555445.4, 9079.152, 0.0765065, -0.25465134, -997604.94, 433464.47, 0.08606534, 10.004726, 9.9967985 
2.095103e+3, 1.6396707e+2, -905036.4, -1409861.5, -20718.521, 0.066921555, -0.24419004, -904187.5, 428910.84, 0.029121062, 10.004224, 9.997367 
2.0950907e+3, 1.7396407e+2, -843101.6, -1343502.5, -19309.164, 0.045583587, -0.28380772, -842357.6, 392768.7, 0.0053042164, 10.003942, 9.997287 
2.0950781e+3, 1.8396148e+2, -783979.1, -1217233.5, -47665.01, 0.014249096, -0.2864352, -778797.1, 358353.7, 0.0001898094, 10.003456, 9.997713 
2.0950647e+3, 1.9395964e+2, -805954.75, -1187928.4, -38087.426, -0.0289324, -0.24540359, -802194.0, 236975.3, 0.0, 10.00268, 9.997615 
2.0950516e+3, 2.0395759e+2, -797160.4, -1083654.8, -46529.754, -0.04195738, -0.22892646, -789792.9, 151396.72, 0.0, 10.001857, 9.998054 
2.0950389e+3, 2.1395534e+2, -835961.25, -1062958.5, -64769.97, -0.011988592, -0.2593056, -818780.56, 24431.393, 0.0, 10.000966, 9.997952 
2.0950256e+3, 2.2395349e+2, -781752.5, -884816.0, -88435.34, 0.010296942, -0.2778364, -730930.3, 14299.758, 0.0, 10.00023, 9.998857 
2.0950125e+3, 2.3395228e+2, -761438.1, -830963.9, -81994.37, 0.021449542, -0.28988805, -707141.8, -59900.46, 0.0, 9.999724, 9.998797 
2.0949984e+3, 2.439515e+2, -714737.75, -690335.8, -101496.95, 0.00037096406, -0.2740888, -600309.1, -51059.523, 0.0, 9.999083, 9.999398 
2.0949836e+3, 2.539514e+2, -746102.06, -663423.75, -110655.03, -0.069364086, -0.2252628, -586638.1, -135385.73, 0.0, 9.998231, 9.999321 
2.0949697e+3, 2.6395136e+2, -703161.0, -483226.44, -78357.125, -0.086142965, -0.20289221, -458165.4, -104911.984, 0.0, 9.997389, 10.000289 
2.0949575e+3, 2.7395138e+2, -730537.94, -452923.7, -69280.69, -0.020091135, -0.23382856, -436594.66, -181342.44, 0.0, 9.996559, 10.000224 
2.0949449e+3, 2.8395176e+2, -676508.75, -252515.67, -64702.93, 0.0077185016, -0.26847628, -242861.58, -85613.62, 0.0, 9.995724, 10.00133 
2.0949315e+3, 2.9395276e+2, -713725.2, -225766.05, -57531.957, -0.034959525, -0.30769566, -219074.61, -159836.9, 0.0, 9.994821, 10.001278 
2.0949192e+3, 3.0395487e+2, -790447.4, -244282.47, -30238.887, 0.017103372, -0.21555886, -242613.36, -242613.36, 0.0, 9.993987, 10.001219 
2.0949072e+3, 3.1395584e+2, -668490.56, 161609.84, -82459.445, 0.033913273, -0.24426267, 169721.81, 169721.81, 0.0, 9.993327, 10.004325 
2.1051545e+3, 1.2399098e+2, -1263653.9, -1677847.3, 24834.477, 0.13586998, -0.25664237, -1262170.3, 462694.94, 0.42067653, 10.006721, 9.997245 
2.1051428e+3, 1.33988e+2, -1142566.1, -1613105.5, 42526.688, 0.09148188, -0.2794727, -1138753.5, 488138.1, 0.3061261, 10.006108, 9.997125 
2.1051319e+3, 1.4398493e+2, -1031407.7, -1567793.4, 31950.924, 0.11662751, -0.28752282, -1029511.2, 499409.84, 0.18861832, 10.005599, 9.996967 
2.1051197e+3, 1.5398219e+2, -929491.8, -1518637.3, 40302.49, 0.0698902, -0.25230303, -926747.56, 504202.06, 0.09169484, 10.005265, 9.996793 
2.1051072e+3, 1.6397925e+2, -828780.8, -1372684.3, 24791.746, 0.04184233, -0.24800694, -827653.1, 505326.0, 0.03153864, 10.004779, 9.997355 
2.1050948e+3, 1.7397618e+2, -817486.06, -1331102.1, 19707.664, 0.026041307, -0.293865, -816731.0, 418276.7, 0.0059439316, 10.004124, 9.997283 
2.1050815e+3, 1.8397368e+2, -791188.4, -1222726.4, -30657.63, 0.008625335, -0.28699934, -789021.25, 348010.28, 0.00023581034, 10.003419, 9.997692 
2.1050677e+3, 1.9397214e+2, -806979.06, -1191317.6, -48903.754, -0.008007761, -0.21210212, -800854.06, 238193.44, 0.0, 10.0026865, 9.997588 
2.1050537e+3, 2.0397004e+2, -780887.1, -1088068.6, -58222.293, -0.014137651, -0.19316705, -770222.1, 170846.27, 0.0, 10.002023, 9.997943 
2.1050401e+3, 2.1396722e+2, -769479.6, -1044758.9, -49551.273, -0.004940279, -0.26976928, -760831.9, 82263.984, 0.0, 10.001483, 9.997828 
2.1050261e+3, 2.2396514e+2, -703644.7, -843170.44, -60139.586, 0.0038540117, -0.30685595, -681300.94, 63814.984, 0.0, 10.000751, 9.998891 
2.105012e+3, 2.3396423e+2, -756038.6, -821743.25, -64561.08, 0.014959036, -0.29310232, -716451.94, -69328.0, 0.0, 9.999735, 9.998855 
2.1049973e+3, 2.4396361e+2, -753632.25, -714700.44, -84465.71, -0.0025987295, -0.2614828, -647486.56, -98356.3, 0.0, 9.998842, 9.999346 
2.104982e+3, 2.5396338e+2, -766763.06, -681519.8, -84813.84, -0.06255005, -0.21810427, -629220.5, -178086.34, 0.0, 9.998128, 9.999245 
2.1049672e+3, 2.6396304e+2, -707960.4, -481587.2, -49590.605, -0.07990002, -0.22444949, -471200.2, -118062.164, 0.0, 9.997337, 10.000326 
2.1049538e+3, 2.7396268e+2, -743730.7, -453681.16, -44481.324, -0.027747368, -0.29958367, -447012.9, -191872.53, 0.0, 9.996442, 10.0002775 
2.1049404e+3, 2.839635e+2, -689862.4, -260470.22, -48829.184, 0.0027427224, -0.29066426, -254987.52, -97855.97, 0.0, 9.995639, 10.001318 
2.1049266e+3, 2.9396567e+2, -705079.0, -226787.9, -69576.45, -0.0050825668, -0.21011217, -216872.27, -157761.92, 0.0, 9.994903, 10.001231 
2.1049131e+3, 3.0396566e+2, -785029.9, -256441.89, -31565.23, 0.014621941, -0.31858504, -254563.61, -254563.61, 0.0, 9.99409, 10.001085 
2.1049003e+3, 3.1396684e+2, -669024.9, 172773.63, -7699.8086, 0.0076483414, -0.31384075, 172844.05, 172844.05, 0.0, 9.993281, 10.004421 
2.1151614e+3, 1.2400436e+2, -1291132.4, -1700139.3, 12095.335, 0.12544124, -0.21882471, -1290775.0, 433959.0, 0.43747193, 10.006658, 9.99702 
2.1151492e+3, 1.3400096e+2, -1169249.9, -1654488.5, 29007.377, 0.09631718, -0.25471747, -1167522.0, 459244.63, 0.32010764, 10.006088, 9.996814 
2.1151377e+3, 1.439977e+2, -1026381.5, -1537855.5, 20800.57, 0.14272822, -0.27245542, -1025536.94, 503261.34, 0.1987694, 10.005591, 9.997177 
2.1151245e+3, 1.5399523e+2, -913532.6, -1476292.0, 29616.664, 0.019093623, -0.24132879, -911978.25, 518844.16, 0.09772468, 10.005271, 9.997082 
2.1151114e+3, 1.6399246e+2, -833832.94, -1381631.4, 2115.616, -0.03710636, -0.23136683, -833824.75, 499024.28, 0.034226734, 10.004782, 9.997293 
2.1150984e+3, 1.7398944e+2, -824487.5, -1344541.0, -3232.4026, -0.0050940323, -0.26230222, -824467.44, 410410.28, 0.0066880737, 10.00412, 9.997193 
2.115085e+3, 1.8398663e+2, -814381.06, -1270971.6, -57376.832, 0.023034615, -0.2677492, -807281.3, 329624.03, 0.00029482666, 10.003416, 9.997364 
2.1150708e+3, 1.9398423e+2, -832380.9, -1244109.1, -73762.27, 0.046044115, -0.24277318, -819565.06, 219365.53, 0.00000000000010610821, 10.002685, 9.997229 
2.1150564e+3, 2.039819e+2, -767500.56, -1061038.0, -77750.83, 0.039572235, -0.2358317, -748178.2, 192775.56, 0.0, 10.002024, 9.998129 
2.1150415e+3, 2.1397977e+2, -754145.6, -1010781.94, -66910.06, -0.011559728, -0.26807654, -737748.5, 105224.93, 0.0, 10.0014715, 9.998068 
2.1150264e+3, 2.2397806e+2, -707310.8, -850208.2, -95681.805, -0.0396484, -0.27836585, -659344.6, 85644.6, 0.0, 10.000746, 9.998846 
2.1150112e+3, 2.3397708e+2, -760617.6, -832801.1, -101032.164, -0.03444427, -0.26448235, -689424.2, -42425.79, 0.0, 9.99974, 9.998777 
2.1149959e+3, 2.4397622e+2, -749306.44, -707089.4, -112860.01, -0.02710481, -0.25418165, -613380.9, -64374.355, 0.0, 9.998848, 9.999395 
2.1149805e+3, 2.539755e+2, -762903.3, -675794.9, -111521.0, -0.011221978, -0.26348123, -599624.8, -148611.45, 0.0, 9.9981365, 9.999281 
2.1149653e+3, 2.6397493e+2, -706168.25, -479656.9, -84143.71, 0.0051857997, -0.29568335, -451820.38, -98801.46, 0.0, 9.997344, 10.000337 
2.1149507e+3, 2.7397472e+2, -739649.8, -448345.75, -78049.77, 0.0029031252, -0.35752565, -428751.7, -173731.06, 0.0, 9.996454, 10.000309 
2.1149358e+3, 2.8397593e+2, -710767.8, -307577.4, -77889.21, -0.03479429, -0.29867926, -293053.75, -136044.98, 0.0, 9.995652, 10.000989 
2.1149206e+3, 2.9397878e+2, -732234.0, -290098.63, -96851.305, -0.07179312, -0.11219065, -269813.66, -210832.48, 0.0, 9.994929, 10.000784 
2.1149077e+3, 3.0397698e+2, -752612.8, -188740.47, -69893.35, 0.052836973, -0.39704204, -180206.19, -180206.19, 0.0, 9.994091, 10.001549 
2.1148933e+3, 3.139794e+2, -797165.1, -99318.914, 18766.71, -0.022715578, -0.3190021, -98814.59, -98814.59, 0.0, 9.993301, 10.002545 
2.1251675e+3, 1.2401828e+2, -1300839.5, -1703060.6, 50578.547, 0.0845699, -0.24623522, -1294576.9, 430020.06, 0.45301515, 10.006707, 9.996969 
2.1251547e+3, 1.340152e+2, -1182490.9, -1696216.8, 71191.08, 0.05806712, -0.22252008, -1172807.9, 453820.75, 0.33381987, 10.006204, 9.996497 
2.1251436e+3, 1.4401172e+2, -1023024.56, -1537904.5, 70537.49, 0.15098959, -0.24022403, -1013535.94, 515126.97, 0.20925257, 10.005698, 9.997139 
2.1251298e+3, 1.5400891e+2, -893849.25, -1461882.5, 67591.445, 0.024924979, -0.24324845, -885917.2, 544771.56, 0.10422213, 10.005443, 9.997101 
2.1251161e+3, 1.6400601e+2, -829045.9, -1393989.8, 16849.994, -0.03208098, -0.24179012, -828543.75, 504172.44, 0.03723391, 10.004898, 9.99715 
2.1251026e+3, 1.7400312e+2, -845684.6, -1373726.5, 3024.4097, 0.0018354267, -0.24161404, -845667.3, 389077.28, 0.0075626345, 10.004059, 9.997022 
2.1250886e+3, 1.8400027e+2, -821078.6, -1274266.0, -37797.5, 0.033285655, -0.24230647, -817947.8, 318825.28, 0.00037368303, 10.003373, 9.997361 
2.1250737e+3, 1.9399752e+2, -796575.9, -1225494.5, -28473.863, 0.061175816, -0.25405666, -794693.9, 244107.3, 0.0000000000129771185, 10.002927, 9.997238 
2.1250586e+3, 2.0399511e+2, -726819.56, -1026996.9, -24951.64, 0.053035937, -0.26114094, -724759.7, 216064.81, 0.0, 10.002243, 9.998256 
2.125043e+3, 2.1399333e+2, -779691.9, -1007202.5, -23593.365, -0.0076480345, -0.27059004, -777271.0, 65569.02, 0.0, 10.001231, 9.998206 
2.125027e+3, 2.2399178e+2, -753043.44, -886854.44, -53353.215, -0.04244556, -0.2674915, -734374.94, 10479.278, 0.0, 10.000498, 9.998712 
2.1250112e+3, 2.3399056e+2, -706309.75, -825241.5, -66213.32, -0.04084683, -0.25782782, -676779.06, -29912.912, 0.0, 10.0001955, 9.998609 
2.1249951e+3, 2.4398948e+2, -651529.75, -662094.06, -92779.7, -0.03486534, -0.26110777, -563882.0, -15005.232, 0.0, 9.999528, 9.999377 
2.1249788e+3, 2.539886e+2, -735879.25, -663038.94, -97650.65, -0.008808721, -0.2904822, -595237.8, -144352.84, 0.0, 9.998323, 9.999278 
2.124963e+3, 2.6398814e+2, -723302.1, -498555.75, -70931.54, 0.01639733, -0.30433807, -478041.7, -125152.48, 0.0, 9.997274, 10.000239 
2.124947e+3, 2.7398834e+2, -756707.3, -467548.06, -76016.95, 0.008750468, -0.31145045, -448781.9, -193894.27, 0.0, 9.996388, 10.000206 
2.1249312e+3, 2.8398928e+2, -743262.2, -319156.47, -64670.027, -0.04667541, -0.27446505, -309514.4, -152635.78, 0.0, 9.995415, 10.001022 
2.1249153e+3, 2.9399142e+2, -796475.5, -319969.13, -51081.867, -0.08502673, -0.16440015, -314554.63, -255697.06, 0.0, 9.994489, 10.000791 
2.1249019e+3, 3.039907e+2, -767518.4, -187166.42, -18923.787, 0.06928602, -0.34749347, -186550.02, -186550.02, 0.0, 9.993949, 10.001629 
2.1248867e+3, 3.1399405e+2, -885524.9, -163528.3, 22482.803, 0.000093552386, -0.18208587, -162828.86, -162828.86, 0.0, 9.9927845, 10.002355 
2.1351734e+3, 1.2403272e+2, -1322213.3, -1705614.8, 37913.723, -0.003256833, -0.33192083, -1318500.0, 405954.2, 0.46811008, 10.006558, 9.997014 
2.1351601e+3, 1.340306e+2, -1208669.0, -1747734.1, 56645.668, -0.028643029, -0.18058564, -1202780.9, 423697.56, 0.34774023, 10.0062, 9.996134 
2.135149e+3, 1.4402688e+2, -1041274.6, -1573544.6, 60357.695, 0.13456428, -0.19010182, -1034516.06, 493999.8, 0.22031754, 10.005724, 9.996879 
2.1351357e+3, 1.5402316e+2, -910234.1, -1492740.5, 59056.26, 0.0795604, -0.2586354, -904307.1, 526242.3, 0.11131338, 10.005453, 9.996884 
2.1351218e+3, 1.6401984e+2, -847060.8, -1429859.8, -11802.658, 0.04778711, -0.27840546, -846821.9, 485759.2, 0.040627178, 10.004898, 9.996904 
2.1351072e+3, 1.7401718e+2, -863687.06, -1412073.8, -26114.668, 0.041252315, -0.23081113, -862446.25, 372162.66, 0.0086017065, 10.004064, 9.996757 
2.135092e+3, 1.8401453e+2, -799925.44, -1231709.5, -54592.008, 0.036181174, -0.21030554, -793130.06, 343505.5, 0.00048322955, 10.003378, 9.997652 
2.1350764e+3, 1.9401187e+2, -772611.5, -1174825.0, -42744.707, 0.03364819, -0.24434716, -768119.06, 270541.3, 0.000000000014668022, 10.002921, 9.997589 
2.1350606e+3, 2.0400953e+2, -722075.44, -1017003.5, -60118.914, 0.023465155, -0.26755136, -710291.5, 230390.19, 0.0, 10.00224, 9.998327 
2.1350442e+3, 2.1400777e+2, -776560.06, -1001677.94, -59265.047, 0.0033084431, -0.27934137, -761911.06, 80785.82, 0.0, 10.001233, 9.998245 
2.1350278e+3, 2.2400612e+2, -769055.3, -920785.75, -66367.9, -0.0075242906, -0.27742898, -744122.56, 589.7474, 0.0, 10.0005, 9.998479 
2.1350117e+3, 2.340046e+2, -726344.1, -866075.6, -75734.17, -0.009076261, -0.2731098, -693171.6, -46443.24, 0.0, 10.000191, 9.998331 
2.1349946e+3, 2.440033e+2, -656983.75, -674338.8, -135557.8, -0.029477544, -0.27945867, -529826.0, 18915.89, 0.0, 9.999531, 9.999292 
2.1349765e+3, 2.5400245e+2, -737879.7, -670329.9, -142411.34, -0.06368771, -0.29593453, -557743.1, -106993.26, 0.0, 9.998335, 9.999224 
2.1349594e+3, 2.6400247e+2, -736356.25, -528010.8, -106838.2, -0.053263437, -0.2510386, -482964.38, -130214.06, 0.0, 9.997284, 10.000033 
2.1349433e+3, 2.740034e+2, -771635.44, -502246.47, -112031.29, -0.013300239, -0.16726218, -461745.03, -207001.67, 0.0, 9.996403, 9.999962 
2.1349268e+3, 2.8400347e+2, -716783.7, -265698.44, -103816.44, -0.032667033, -0.21627961, -242952.25, -86209.805, 0.0, 9.995421, 10.001386 
2.1349102e+3, 2.9400355e+2, -761844.3, -250589.0, -79474.58, -0.05330211, -0.35517094, -238519.63, -179779.72, 0.0, 9.994497, 10.001264 
2.1348958e+3, 3.0400643e+2, -776844.7, -209642.02, -42387.98, 0.053852595, -0.19451962, -206491.78, -206491.78, 0.0, 9.993958, 10.001471 
2.1348786e+3, 3.1400788e+2, -776408.5, 65816.27, -96086.16, -0.06692924, -0.19996135, 76639.29, 76639.29, 0.0, 9.992779, 10.003928 
2.1451807e+3, 1.24048024e+2, -1456690.6, -1723816.3, 39454.313, 0.17261529, -0.27686656, -1450985.1, 273322.6, 0.4841785, 10.004565, 9.997774 
2.145167e+3, 1.3404593e+2, -1125420.0, -1654282.5, 78195.9, -0.0071746903, -0.15008546, -1114100.5, 512229.3, 0.36278692, 10.007082, 9.996372 
2.1451552e+3, 1.4404196e+2, -861991.44, -1481241.4, 61212.676, 0.09567942, -0.18972644, -855998.56, 672370.25, 0.23243736, 10.007456, 9.99676 
2.1451417e+3, 1.5403841e+2, -841954.5, -1469393.9, 62863.125, 0.07373171, -0.22695863, -835718.25, 594683.5, 0.11920178, 10.006096, 9.996734 
2.1451269e+3, 1.640351e+2, -820414.25, -1411701.0, 7000.2397, 0.062366065, -0.23977451, -820331.4, 512102.44, 0.044496555, 10.005092, 9.996934 
2.1451116e+3, 1.7403217e+2, -794938.0, -1374244.8, 13983.954, 0.052764334, -0.22186542, -794600.6, 439863.16, 0.00984867, 10.00453, 9.99679 
2.1450955e+3, 1.8402943e+2, -720633.0, -1183383.4, -5608.7305, 0.036307838, -0.2138232, -720565.06, 415925.47, 0.0006387965, 10.003883, 9.997738 
2.1450794e+3, 1.9402704e+2, -734623.56, -1145963.3, -13313.37, 0.012531763, -0.23296009, -734193.1, 304318.8, 0.000000045114895, 10.0031395, 9.997681 
2.1450627e+3, 2.0402473e+2, -697806.44, -1019639.9, -52998.61, 0.0041222055, -0.25133666, -689303.44, 251229.22, 0.0, 10.002472, 9.998197 
2.1450458e+3, 2.1402271e+2, -685215.4, -975408.56, -69700.56, 0.01883897, -0.27453783, -669342.44, 173208.97, 0.0, 10.001938, 9.998085 
2.1450289e+3, 2.2402097e+2, -679515.06, -871058.44, -75270.88, 0.019060483, -0.2747321, -653475.75, 91092.29, 0.0, 10.001085, 9.998538 
2.1450117e+3, 2.3401965e+2, -779287.0, -881688.5, -58712.723, -0.002016278, -0.2581294, -752585.9, -106003.984, 0.0, 9.999785, 9.998419 
2.1449937e+3, 2.4401845e+2, -771973.2, -731127.1, -102864.984, -0.029425316, -0.2580637, -646677.4, -98083.125, 0.0, 9.99875, 9.999278 
2.1449749e+3, 2.5401753e+2, -771646.56, -688162.4, -107781.65, -0.058847092, -0.2790369, -614322.06, -163719.13, 0.0, 9.998112, 9.9992075 
2.1449567e+3, 2.6401743e+2, -726919.3, -535527.25, -63312.492, -0.05703722, -0.24149579, -516479.22, -163874.52, 0.0, 9.997401, 9.999925 
2.1449398e+3, 2.7401817e+2, -754740.7, -509341.22, -62276.914, -0.02292139, -0.1616934, -494441.4, -239841.75, 0.0, 9.996584, 9.999826 
2.1449222e+3, 2.8401825e+2, -680228.4, -218188.94, -61740.32, -0.026804475, -0.21635975, -210081.13, -53482.402, 0.0, 9.995542, 10.001655 
2.1449046e+3, 2.9401833e+2, -784196.9, -219152.47, -42007.504, -0.047064364, -0.3830842, -216046.55, -157451.5, 0.0, 9.994162, 10.001641 
2.144889e+3, 3.0402204e+2, -901131.3, -246441.3, 16453.316, 0.028095478, -0.17586033, -246028.06, -246028.06, 0.0, 9.993004, 10.001678 
2.1448717e+3, 3.140224e+2, -838854.7, 83273.92, -35028.402, -0.018783271, -0.3017145, 84602.61, 84602.61, 0.0, 9.99216, 10.004339 
2.1551754e+3, 1.3406125e+2, -1097398.3, -1568086.8, 127499.625, 0.1040162, -0.13111326, -1065080.3, 561101.6, 0.38010082, 10.007171, 9.997127 
2.1551618e+3, 1.4405704e+2, -879171.75, -1487405.3, 26303.02, 0.024648057, -0.23384969, -878036.4, 650184.9, 0.24616544, 10.007421, 9.996729 
2.155147e+3, 1.5405463e+2, -856455.3, -1488337.0, 21109.541, 0.0071309884, -0.14885463, -855750.94, 574495.2, 0.1281137, 10.00609, 9.996602 
2.1551315e+3, 1.6405165e+2, -804897.0, -1372954.8, -13543.284, 0.011366118, -0.1289429, -804574.3, 527701.1, 0.048949834, 10.005093, 9.9972 
2.1551158e+3, 1.7404802e+2, -774206.75, -1329224.3, -4395.6997, 0.033697292, -0.21459717, -774171.94, 460138.06, 0.011360358, 10.004528, 9.997101 
2.1550994e+3, 1.8404496e+2, -729378.56, -1201784.3, -31278.984, 0.030206136, -0.25100115, -727316.56, 409022.16, 0.00086220587, 10.003882, 9.997613 
2.1550822e+3, 1.9404286e+2, -745463.06, -1170087.8, -38395.645, -0.0062944894, -0.22207652, -742019.1, 296337.94, 0.0000006584998, 10.003144, 9.997515 
2.155065e+3, 2.0404057e+2, -721855.1, -1070311.9, -72653.0, -0.008732664, -0.21539278, -707313.9, 233064.8, 0.0, 10.002473, 9.9978485 
2.1550481e+3, 2.1403801e+2, -712813.0, -1030178.56, -87005.97, 0.03427558, -0.25399157, -690525.44, 151878.89, 0.0, 10.001925, 9.997716 
2.15503e+3, 2.2403623e+2, -656293.94, -820801.8, -120134.54, 0.03446918, -0.25588495, -592952.5, 151469.58, 0.0, 10.001076, 9.998889 
2.1550113e+3, 2.3403558e+2, -748553.0, -818974.25, -106280.414, -0.02426087, -0.21316119, -671802.4, -25374.602, 0.0, 9.999788, 9.998849 
2.1549924e+3, 2.4403478e+2, -767080.0, -722543.9, -130208.69, -0.038016308, -0.19995514, -612712.9, -64277.62, 0.0, 9.998755, 9.999334 
2.1549734e+3, 2.5403365e+2, -769147.06, -684889.56, -131656.47, 0.0024634495, -0.24262063, -588785.7, -138340.17, 0.0, 9.998118, 9.999228 
2.1549548e+3, 2.6403287e+2, -725419.9, -535282.1, -94585.75, 0.0032662577, -0.2772103, -496244.47, -143790.84, 0.0, 9.997412, 9.999922 
2.1549363e+3, 2.740326e+2, -753414.9, -510020.53, -93270.79, -0.029801693, -0.2958725, -478389.16, -223931.61, 0.0, 9.996597, 9.999816 
2.1549177e+3, 2.8403348e+2, -666878.25, -191376.61, -113292.36, -0.03457282, -0.27674627, -165763.4, -9315.067, 0.0, 9.995545, 10.001837 
2.1548985e+3, 2.9403573e+2, -763531.44, -178388.95, -92235.01, -0.063143425, -0.24905208, -164194.44, -105770.83, 0.0, 9.994169, 10.001919 
2.1548814e+3, 3.040374e+2, -866787.75, -175645.34, -22692.104, -0.023812458, -0.28886682, -174901.1, -174901.1, 0.0, 9.993002, 10.002168 
2.154864e+3, 3.1403992e+2, -905418.0, -62301.54, -21709.227, 0.007277051, -0.24324122, -61742.92, -61742.92, 0.0, 9.992185, 10.003331 
2.1651836e+3, 1.340779e+2, -940840.6, -1471740.5, 125795.04, 0.12823361, -0.11175882, -912542.25, 713477.6, 0.40022478, 10.009052, 9.997342 
2.1651685e+3, 1.4407355e+2, -1034229.0, -1544755.4, 67792.3, 0.004770736, -0.25750422, -1025380.3, 502679.28, 0.26167652, 10.005996, 9.996951 
2.1651526e+3, 1.5407154e+2, -879972.06, -1481578.4, 87761.99, -0.016449222, -0.14910261, -867430.9, 562650.4, 0.13815582, 10.00588, 9.996761 
2.1651368e+3, 1.6406882e+2, -745651.06, -1341438.4, 66652.76, -0.0040426617, -0.1104411, -738285.5, 593822.94, 0.054100838, 10.005542, 9.997203 
2.1651205e+3, 1.7406522e+2, -723003.44, -1304436.4, 55275.566, 0.03829601, -0.19274697, -717795.2, 516346.94, 0.013217025, 10.004894, 9.997095 
2.1651036e+3, 1.8406196e+2, -680431.94, -1195095.5, 16234.648, 0.04269153, -0.23846827, -679920.4, 456251.84, 0.0011865817, 10.004293, 9.997461 
2.1650857e+3, 1.9405948e+2, -661852.5, -1149616.9, 6382.752, -0.0018535162, -0.23327559, -661769.0, 376425.78, 0.0000037035177, 10.003803, 9.997337 
2.165068e+3, 2.0405705e+2, -661477.5, -1053209.4, -30675.363, -0.004133286, -0.22376168, -659089.94, 281128.06, 0.0, 10.00294, 9.997741 
2.16505e+3, 2.1405478e+2, -769686.7, -1067912.9, -27983.77, 0.051258598, -0.22349527, -767083.56, 75158.2, 0.0, 10.001581, 9.997622 
2.165031e+3, 2.2405298e+2, -731890.25, -861007.8, -58886.652, 0.049582772, -0.22008722, -709067.9, 35192.11, 0.0, 10.000575, 9.998853 
2.1650112e+3, 2.3405193e+2, -704586.8, -801320.6, -79657.09, -0.026609268, -0.21621269, -659762.5, -13493.194, 0.0, 10.000107, 9.9988165 
2.1649915e+3, 2.440511e+2, -662589.6, -658719.56, -116508.06, -0.043796804, -0.20683874, -544130.44, 4146.1494, 0.0, 9.9994135, 9.999455 
2.1649717e+3, 2.5405052e+2, -718557.44, -644207.1, -109456.34, 0.0093837865, -0.20949264, -565785.25, -115503.07, 0.0, 9.998396, 9.999373 
2.1649522e+3, 2.6404992e+2, -725776.94, -496938.75, -62959.203, 0.008326784, -0.24855596, -480760.8, -128472.92, 0.0, 9.997245, 10.000264 
2.1649323e+3, 2.7404943e+2, -826970.0, -505512.22, -35066.355, -0.031135418, -0.32449207, -501731.44, -247439.28, 0.0, 9.995923, 10.000171 
2.1649128e+3, 2.8405058e+2, -789286.0, -266416.7, -54717.203, -0.01949965, -0.29137757, -260752.0, -104471.8, 0.0, 9.994778, 10.00169 
2.1648929e+3, 2.9405352e+2, -842161.8, -237458.45, -70596.13, -0.034432963, -0.1766463, -229326.06, -171075.13, 0.0, 9.993726, 10.001724 
2.1648742e+3, 3.0405423e+2, -889879.7, -159954.75, -13805.968, -0.022570875, -0.30942512, -159693.72, -159693.72, 0.0, 9.992736, 10.002401 
2.1648555e+3, 3.1405708e+2, -879386.6, -72111.04, -22283.232, -0.094355, -0.26527408, -71496.42, -71496.42, 0.0, 9.99246, 10.003132 
2.1751921e+3, 1.3409577e+2, -982404.44, -1499237.5, -8184.7397, 0.06899967, -0.08946335, -982274.8, 643570.25, 0.42197797, 10.008969, 9.997114 
2.1751745e+3, 1.4409131e+2, -1023069.7, -1492343.4, 58649.438, 0.024114028, -0.26189867, -1015850.75, 512034.47, 0.27834842, 10.005996, 9.997384 
2.1751587e+3, 1.5408903e+2, -860213.0, -1420139.3, 85417.29, -0.0067048934, -0.22524452, -847472.44, 582436.1, 0.14922878, 10.005892, 9.997182 
2.1751423e+3, 1.640865e+2, -765021.4, -1377502.6, 46814.047, 0.008333752, -0.17859384, -761463.9, 570469.8, 0.060072817, 10.005548, 9.996953 
2.1751258e+3, 1.7408364e+2, -744441.5, -1349829.8, 33900.316, 0.060791343, -0.15732999, -742549.06, 491412.3, 0.015536498, 10.004904, 9.996779 
2.1751082e+3, 1.8408036e+2, -693610.4, -1223402.8, -1286.5397, 0.06924199, -0.17961201, -693607.25, 442385.16, 0.0016634727, 10.004298, 9.997265 
2.1750899e+3, 1.9407678e+2, -676719.2, -1179047.6, -9316.821, 0.021268137, -0.26406452, -676546.44, 361479.47, 0.000014800918, 10.003797, 9.997139 
2.1750708e+3, 2.0407413e+2, -653489.94, -1035870.9, -77516.92, 0.014759248, -0.2727236, -638373.2, 301678.28, 0.0, 10.002934, 9.997864 
2.1750516e+3, 2.1407285e+2, -758870.44, -1045877.56, -76726.445, 0.06351046, -0.18638392, -739646.56, 102418.67, 0.0, 10.001581, 9.997774 
2.1750318e+3, 2.2407106e+2, -761763.5, -923509.06, -78777.16, 0.05988894, -0.17145944, -729737.0, 14346.402, 0.0, 10.000576, 9.998424 
2.1750115e+3, 2.3406853e+2, -739767.8, -873446.8, -95722.54, -0.013516731, -0.26655173, -689858.4, -43750.83, 0.0, 10.000102, 9.998324 
2.1749908e+3, 2.4406734e+2, -649408.1, -631899.9, -153557.58, -0.049819607, -0.27698627, -486847.1, 61272.184, 0.0, 9.999415, 9.99964 
2.1749698e+3, 2.5406802e+2, -698952.4, -606544.25, -148189.4, -0.046252202, -0.17828646, -497522.94, -47409.145, 0.0, 9.998407, 9.999627 
2.1749488e+3, 2.6406848e+2, -677030.4, -396718.47, -113608.85, -0.04652406, -0.15432201, -356456.4, -4347.911, 0.0, 9.997249, 10.000952 
2.1749285e+3, 2.7406856e+2, -774935.5, -398706.7, -82826.13, -0.027784647, -0.24459606, -381279.84, -127175.49, 0.0, 9.995927, 10.000903 
2.1749079e+3, 2.8406942e+2, -823665.75, -340917.56, -97310.95, 0.012087713, -0.25956032, -322040.1, -165944.66, 0.0, 9.994788, 10.001176 
2.1748869e+3, 2.9407144e+2, -889549.94, -340402.4, -118187.4, 0.017949207, -0.17254539, -316046.4, -257967.13, 0.0, 9.993744, 10.00101 
2.1748677e+3, 3.0407238e+2, -899288.7, -174928.86, -41421.023, 0.06136225, -0.2346442, -172567.98, -172567.98, 0.0, 9.992721, 10.002304 
2.1748474e+3, 3.14075e+2, -805703.5, 71309.44, -91255.63, -0.13021325, -0.21668456, 80704.2, 80704.2, 0.0, 9.992484, 10.004114 
2.1851993e+3, 1.3411511e+2, -1192868.5, -1615382.4, 38871.67, -0.0030200882, -0.17835969, -1189322.1, 436332.56, 0.44304934, 10.006825, 9.996775 
2.1851818e+3, 1.4411123e+2, -926131.8, -1474330.3, 149723.63, 0.07896213, -0.2547907, -887905.0, 639783.94, 0.29522663, 10.007262, 9.996958 
2.1851653e+3, 1.5410843e+2, -764533.56, -1412510.0, 140943.86, 0.02477369, -0.22669533, -735203.94, 694514.56, 0.16119826, 10.006952, 9.996746 
2.1851484e+3, 1.6410556e+2, -658355.56, -1337739.6, 67697.99, 0.020946532, -0.18369071, -651675.4, 680072.0, 0.0670286, 10.006436, 9.9968 
2.1851309e+3, 1.7410257e+2, -645329.44, -1315020.5, 65934.25, 0.053395793, -0.15985054, -638899.6, 594876.3, 0.018480519, 10.005669, 9.996652 
2.1851125e+3, 1.8409927e+2, -634330.4, -1201925.6, 41436.48, 0.0590456, -0.17532577, -631321.3, 504485.97, 0.0023695868, 10.00474, 9.9972 
2.1850935e+3, 1.9409573e+2, -704230.75, -1198011.8, 41578.31, 0.03575399, -0.24786179, -700754.1, 337086.6, 0.000047427446, 10.0036335, 9.9970875 
2.185074e+3, 2.0409304e+2, -663371.4, -1052648.1, -24229.092, 0.030449156, -0.25339094, -661869.1, 277998.1, 0.0, 10.002921, 9.997754 
2.1850537e+3, 2.1409158e+2, -587510.25, -976515.7, -45007.074, 0.048564356, -0.1736901, -582370.94, 259512.23, 0.0, 10.002815, 9.997656 
2.185033e+3, 2.2408973e+2, -549635.6, -824688.0, -54455.074, 0.038206343, -0.15741919, -539246.94, 204655.11, 0.0, 10.002048, 9.998393 
2.1850117e+3, 2.3408723e+2, -702436.5, -858206.2, -39102.734, -0.0071901786, -0.24405439, -693171.6, -47246.285, 0.0, 10.00037, 9.998299 
2.18499e+3, 2.4408597e+2, -721662.8, -668984.75, -81557.23, -0.0342637, -0.25954652, -609618.9, -61681.008, 0.0, 9.998931, 9.999618 
2.1849678e+3, 2.5408643e+2, -782604.44, -650292.25, -98401.445, -0.04322325, -0.17844903, -597875.7, -147940.78, 0.0, 9.99785, 9.999595 
2.1849458e+3, 2.640871e+2, -726800.75, -393700.3, -94410.164, -0.050444905, -0.14318196, -368802.75, -16874.793, 0.0, 9.996791, 10.001193 
2.184924e+3, 2.7408785e+2, -781311.25, -372080.13, -98631.61, -0.033602346, -0.1933194, -349548.78, -95631.48, 0.0, 9.995756, 10.001167 
2.1849029e+3, 2.8408885e+2, -816635.0, -344222.72, -106112.766, 0.012850172, -0.20914854, -321482.4, -165575.0, 0.0, 9.994867, 10.001114 
2.1848811e+3, 2.9409042e+2, -846922.6, -334228.3, -90616.65, 0.05011915, -0.15263315, -318683.5, -260787.66, 0.0, 9.994099, 10.000881 
2.1848601e+3, 3.040914e+2, -890769.4, -185736.97, 4267.0415, 0.035080425, -0.19669174, -185711.16, -185711.16, 0.0, 9.992841, 10.002173 
2.1848394e+3, 3.1409448e+2, -986262.4, 73769.41, -40822.88, -0.120523036, -0.12009094, 75339.21, 75339.21, 0.0, 9.990863, 10.004911 
2.1952051e+3, 1.3413572e+2, -1246251.4, -1688886.4, 55574.57, -0.10056439, -0.36611578, -1239380.5, 386069.97, 0.46267748, 10.006539, 9.996383 
2.1951899e+3, 1.4413305e+2, -1002728.2, -1645542.1, 151194.42, 0.15432729, -0.23712532, -968942.0, 558531.3, 0.31227604, 10.007262, 9.995715 
2.1951729e+3, 1.5412949e+2, -844545.8, -1589964.9, 136987.77, 0.07221028, -0.15827818, -820168.4, 609344.75, 0.17431799, 10.006976, 9.995507 
2.195155e+3, 1.6412579e+2, -666816.5, -1344784.1, 42756.348, 0.029250724, -0.13092968, -664130.7, 667420.56, 0.07526289, 10.006442, 9.996748 
2.1951362e+3, 1.741219e+2, -644186.3, -1308040.0, 39965.33, 0.012586553, -0.1989971, -641789.0, 591797.8, 0.022267422, 10.00567, 9.996699 
2.1951167e+3, 1.841186e+2, -628909.94, -1191965.9, 2676.2358, 0.009953708, -0.22198723, -628897.25, 506720.38, 0.0034136556, 10.004748, 9.997266 
2.1950972e+3, 1.9411619e+2, -698004.9, -1187344.0, 2323.551, 0.035705224, -0.18780045, -697993.8, 339646.88, 0.00012959886, 10.003641, 9.997158 
2.195077e+3, 2.0411362e+2, -686466.4, -1102360.9, -30667.566, 0.03796312, -0.1695537, -684217.1, 255449.61, 0.000000012688071, 10.002927, 9.997411 
2.195056e+3, 2.1411085e+2, -615869.4, -1033249.5, -45846.76, 0.0026847578, -0.1822841, -610892.75, 230803.67, 0.0, 10.002805, 9.9972725 
2.1950345e+3, 2.2410887e+2, -525962.2, -773816.1, -111492.85, -0.017556773, -0.17423308, -483190.16, 260526.42, 0.0, 10.002039, 9.998748 
2.195012e+3, 2.3410791e+2, -672392.3, -796485.0, -101044.234, -0.014073176, -0.14992887, -615865.1, 29858.834, 0.0, 10.000371, 9.998723 
2.1949893e+3, 2.4410686e+2, -738349.9, -704315.8, -125507.09, -0.0019330578, -0.15631874, -594677.4, -46943.7, 0.0, 9.998933, 9.999375 
2.1949661e+3, 2.5410566e+2, -804718.3, -697465.0, -139050.45, 0.013260548, -0.21083286, -602058.6, -152311.88, 0.0, 9.997854, 9.9992695 
2.1949428e+3, 2.6410565e+2, -741144.3, -424956.97, -135388.39, -0.007251006, -0.21702956, -374907.38, -23159.879, 0.0, 9.996797, 10.000977 
2.1949197e+3, 2.7410713e+2, -793262.0, -400102.84, -137871.06, -0.05495535, -0.17295682, -356574.22, -102841.8, 0.0, 9.9957695, 10.00097 
2.1948975e+3, 2.8410864e+2, -788775.2, -287443.5, -137567.88, -0.020781364, -0.14152241, -252175.3, -96457.86, 0.0, 9.99487, 10.001503 
2.1948752e+3, 2.9411042e+2, -811398.6, -263111.66, -119132.3, 0.056960173, -0.11261004, -238345.19, -180644.08, 0.0, 9.994107, 10.001367 
2.1948516e+3, 3.041112e+2, -891823.8, -194858.7, -64037.9, -0.1280335, -0.19866766, -189023.69, -189023.69, 0.0, 9.992869, 10.002098 
2.1948314e+3, 3.141131e+2, -984891.8, 82720.93, -32849.203, 0.0046936953, -0.2212968, 83730.71, 83730.71, 0.0, 9.990851, 10.0049715 
2.20521e+3, 1.3415706e+2, -1527426.4, -1376711.5, 116532.75, 0.09728705, -0.051916342, -1313293.5, 311950.2, 0.48283094, 9.999578, 10.003442 
2.2051978e+3, 1.4415494e+2, -747172.94, -1473433.1, 133264.05, 0.07298605, -0.23092954, -723492.0, 803766.4, 0.330946, 10.0100355, 9.99566 
2.2051807e+3, 1.5415086e+2, -759263.25, -1593090.0, 150248.77, 0.10534086, -0.15302676, -733015.8, 696287.6, 0.18948238, 10.008045, 9.994979 
2.205162e+3, 1.6414683e+2, -660380.56, -1340368.9, 103306.516, 0.0998435, -0.13122131, -645032.25, 686312.8, 0.085288204, 10.006553, 9.996733 
2.2051421e+3, 1.7414287e+2, -591616.2, -1277888.6, 104565.96, 0.014638216, -0.20856187, -576037.3, 657343.8, 0.027190994, 10.00605, 9.996725 
2.2051215e+3, 1.8413945e+2, -539669.5, -1176012.9, 50566.81, -0.016956931, -0.23028262, -535676.3, 599736.8, 0.0049440926, 10.005491, 9.997017 
2.2051015e+3, 1.9413693e+2, -534804.75, -1137707.5, 23492.768, 0.034132473, -0.18088016, -533890.75, 503547.44, 0.00030926254, 10.004889, 9.996898 
2.2050804e+3, 2.0413426e+2, -549875.94, -1033134.5, -7852.106, 0.042538226, -0.15955757, -549748.4, 389716.9, 0.00000021205877, 10.003852, 9.99744 
2.2050583e+3, 2.1413141e+2, -685938.5, -1059611.4, 7423.567, -0.010072296, -0.18715829, -685791.06, 155704.11, 0.0, 10.002295, 9.997335 
2.2050357e+3, 2.2412948e+2, -652823.1, -835856.5, -58913.95, -0.036996804, -0.17474452, -635499.75, 108014.91, 0.0, 10.001174, 9.998737 
2.2050124e+3, 2.3412883e+2, -625501.3, -774884.0, -82163.445, -0.02227192, -0.11785054, -589153.8, 56366.258, 0.0, 10.000701, 9.998712 
2.2049886e+3, 2.441278e+2, -614528.75, -644280.25, -122140.25, -0.0014358213, -0.123633794, -506361.72, 41168.258, 0.0, 9.999783, 9.999377 
2.2049643e+3, 2.5412616e+2, -751458.3, -672763.44, -113562.84, 0.02048559, -0.22042112, -591924.56, -142378.22, 0.0, 9.998225, 9.99926 
2.2049399e+3, 2.6412606e+2, -746716.6, -449919.75, -87795.66, 0.0034906857, -0.22259907, -425893.78, -74345.86, 0.0, 9.996856, 10.000775 
2.2049156e+3, 2.741279e+2, -821541.4, -438606.72, -92904.82, -0.04364032, -0.12152685, -417257.13, -163725.94, 0.0, 9.995683, 10.000747 
2.204892e+3, 2.8412914e+2, -812925.8, -258232.88, -85304.86, -0.026425544, -0.122076645, -245410.45, -89891.51, 0.0, 9.99453, 10.001868 
2.204869e+3, 2.941301e+2, -863891.9, -234487.0, -67313.88, 0.022333749, -0.21567373, -227368.39, -169860.38, 0.0, 9.993519, 10.001846 
2.2048442e+3, 3.0413306e+2, -968346.75, -221062.17, -37009.375, -0.10947751, -0.11817028, -219233.75, -219233.75, 0.0, 9.992294, 10.002198 
2.2048235e+3, 3.141339e+2, -1056877.8, 2111.5125, 42687.65, 0.1406547, -0.24218096, 3829.4563, 3829.4563, 0.0, 9.99056, 10.004556 
2.2152053e+3, 1.4417687e+2, -727174.44, -1378682.5, 109468.58, -0.16652602, -0.23361224, -709273.0, 817771.56, 0.35356745, 10.010031, 9.996687 
2.2151887e+3, 1.541725e+2, -767318.06, -1570575.6, 84009.14, 0.118544176, -0.20668785, -758626.0, 670464.1, 0.20802313, 10.008032, 9.99512 
2.21517e+3, 1.6416854e+2, -668714.3, -1340358.1, 82876.31, 0.22253363, -0.18066919, -658639.06, 672491.0, 0.09780329, 10.00656, 9.996728 
2.2151485e+3, 1.7416528e+2, -593506.7, -1278348.0, 88455.58, 0.05220641, -0.18984103, -582266.06, 650894.56, 0.03362608, 10.006072, 9.996712 
2.2151269e+3, 1.8416168e+2, -576660.1, -1254657.6, 29489.79, -0.026426928, -0.20260121, -575379.9, 559815.5, 0.007153843, 10.005508, 9.9964695 
2.2151062e+3, 1.9415788e+2, -574846.0, -1222096.5, 3360.1567, 0.026487306, -0.22348781, -574828.56, 462405.3, 0.00065739336, 10.004894, 9.996316 
2.2150843e+3, 2.0415491e+2, -522119.97, -976873.7, -62303.125, 0.04132197, -0.21911179, -513738.66, 425524.8, 0.0000033374213, 10.003857, 9.997825 
2.2150607e+3, 2.1415308e+2, -652400.75, -989834.9, -49058.625, 0.0019703503, -0.19042163, -645413.0, 195867.97, 0.0, 10.002292, 9.997817 
2.2150369e+3, 2.2415143e+2, -679419.94, -890912.44, -79466.75, -0.026445411, -0.16147022, -652889.06, 90408.695, 0.0, 10.001172, 9.998361 
2.2150129e+3, 2.3414989e+2, -657356.44, -841324.8, -98264.01, -0.03686616, -0.1472664, -614741.56, 30573.2, 0.0, 10.000701, 9.998256 
2.214988e+3, 2.4414864e+2, -596987.44, -608058.5, -178563.7, -0.035863467, -0.16048324, -423873.5, 123454.26, 0.0, 9.999783, 9.999627 
2.214962e+3, 2.5414783e+2, -727710.7, -626371.0, -171848.94, -0.027252568, -0.20558594, -497877.53, -48542.91, 0.0, 9.998237, 9.999575 
2.2149363e+3, 2.6414832e+2, -758537.8, -476743.38, -134068.84, -0.02340095, -0.15982242, -423150.28, -71820.23, 0.0, 9.996863, 10.000589 
2.2149114e+3, 2.7415007e+2, -836913.25, -474166.88, -138636.66, -0.013538102, -0.040402733, -427250.0, -173935.55, 0.0, 9.995696, 10.000497 
2.2148867e+3, 2.8415024e+2, -789395.56, -209701.53, -126803.164, -0.008412973, -0.15140502, -183177.98, -27865.346, 0.0, 9.994532, 10.0022 
2.2148615e+3, 2.9414934e+2, -829570.0, -163098.8, -101855.72, -0.041185964, -0.46717453, -147879.88, -90562.16, 0.0, 9.993517, 10.002338 
2.2148384e+3, 3.0415693e+2, -944776.4, -169729.28, -100130.414, 0.07769161, 0.038961917, -157002.16, -157002.16, 0.0, 9.992279, 10.002561 
2.214813e+3, 3.1415677e+2, -1124951.1, -151292.06, -133.32292, 0.03823212, -0.20672648, -151292.05, -151292.05, 0.0, 9.990603, 10.003486 
2.2252168e+3, 1.4420056e+2, -774761.6, -1371767.8, 125934.875, -0.015743343, -0.224232, -749283.75, 777529.1, 0.38226116, 10.009755, 9.996969 
2.2251964e+3, 1.541963e+2, -762159.25, -1521704.3, 121417.84, 0.05544937, -0.21912389, -743222.06, 685634.1, 0.23120008, 10.008095, 9.995446 
2.2251762e+3, 1.6419223e+2, -606775.6, -1343997.9, 174716.81, 0.17369011, -0.2031172, -567465.0, 763431.6, 0.11355012, 10.007302, 9.996372 
2.2251555e+3, 1.7418864e+2, -471792.88, -1259344.1, 159561.42, 0.094748124, -0.20368779, -440693.13, 792237.8, 0.04201503, 10.007174, 9.99632 
2.2251335e+3, 1.8418486e+2, -433774.63, -1199133.8, 89000.42, 0.03628742, -0.2088638, -423561.4, 711406.5, 0.010278411, 10.006577, 9.996337 
2.2251113e+3, 1.94181e+2, -479431.28, -1186091.4, 95209.164, 0.014395692, -0.22276928, -466828.4, 570178.25, 0.0012674999, 10.005601, 9.9962225 
2.2250879e+3, 2.0417784e+2, -439326.13, -958955.44, 11091.819, 0.0021260064, -0.22285688, -439089.47, 499948.44, 0.00002321742, 10.004521, 9.997626 
2.2250634e+3, 2.141756e+2, -511494.4, -944264.6, -29127.828, 0.0012746458, -0.21324278, -509542.75, 331516.47, 0.0, 10.003358, 9.997616 
2.2250386e+3, 2.2417378e+2, -555762.56, -839943.3, -60637.617, -0.017371297, -0.18623978, -543364.75, 199713.23, 0.0, 10.002061, 9.9982815 
2.2250134e+3, 2.3417239e+2, -676033.56, -857963.0, -50568.707, -0.055818968, -0.15018706, -662922.5, -17827.686, 0.0, 10.000608, 9.998185 
2.2249873e+3, 2.441713e+2, -671082.25, -631664.0, -134052.81, -0.06073202, -0.14720179, -515879.2, 31227.42, 0.0, 9.999224, 9.999733 
2.22496e+3, 2.541707e+2, -764248.6, -628232.7, -143594.19, -0.025147945, -0.18567283, -537355.9, -88244.695, 0.0, 9.997922, 9.999711 
2.2249334e+3, 2.6417115e+2, -773220.75, -478591.9, -92300.91, -0.009163911, -0.15195198, -452064.47, -100958.016, 0.0, 9.996742, 10.000633 
2.2249073e+3, 2.7417266e+2, -837533.94, -470115.03, -78889.625, -0.0034023665, -0.060782716, -453892.66, -200799.55, 0.0, 9.995676, 10.000534 
2.224881e+3, 2.8417298e+2, -817024.1, -212560.05, -70594.38, 0.0007556548, -0.16037764, -204424.92, -49334.918, 0.0, 9.994299, 10.002293 
2.2248547e+3, 2.9417259e+2, -975454.4, -229775.6, -70442.58, -0.032425154, -0.4373856, -223179.39, -166087.61, 0.0, 9.9925, 10.00237 
2.2248301e+3, 3.041803e+2, -1053220.8, -139237.66, -75640.03, 0.09019844, 0.05252076, -133020.08, -133020.08, 0.0, 9.991184, 10.003295 
2.2248025e+3, 3.1418e+2, -1150774.6, -141701.1, 23564.418, -0.06517118, -0.29276764, -141151.11, -141151.11, 0.0, 9.990346, 10.003669 
2.235231e+3, 1.4422588e+2, -852143.94, -1418568.0, 52038.348, 0.43772194, -0.19506854, -847402.75, 679162.06, 0.41849995, 10.009523, 9.996633 
2.235203e+3, 1.54222e+2, -759945.3, -1448217.8, 74646.41, -0.08406923, -0.19511007, -751942.56, 676661.56, 0.26006773, 10.00811, 9.995928 
2.2351813e+3, 1.6421768e+2, -655457.0, -1437077.1, 167295.88, -0.040644683, -0.20022933, -621154.9, 709491.9, 0.13332057, 10.007372, 9.995698 
2.2351632e+3, 1.7421283e+2, -527290.06, -1367978.6, 153503.72, 0.1336302, -0.24989223, -500138.3, 732555.1, 0.05287723, 10.007198, 9.995563 
2.2351414e+3, 1.8420886e+2, -417403.47, -1160669.1, 54711.984, 0.16153768, -0.24652658, -413397.7, 721334.0, 0.01458264, 10.006585, 9.996596 
2.2351167e+3, 1.9420613e+2, -454143.5, -1134821.0, 60146.6, -0.007420388, -0.18153489, -448869.63, 587888.56, 0.0022440196, 10.005609, 9.996572 
2.2350916e+3, 2.0420289e+2, -493552.5, -1071512.0, -32174.71, -0.07767412, -0.1739159, -491766.84, 447023.53, 0.00008400947, 10.004521, 9.996855 
2.2350666e+3, 2.1419889e+2, -573278.9, -1071374.8, -70450.06, -0.016353732, -0.25438803, -563506.25, 277324.7, 0.0, 10.003351, 9.996747 
2.2350408e+3, 2.2419651e+2, -542323.3, -810371.7, -113240.625, -0.012756817, -0.24661236, -500888.34, 241967.69, 0.0, 10.002053, 9.998488 
2.2350137e+3, 2.3419623e+2, -654905.1, -814189.3, -104043.38, -0.085384496, -0.12792149, -603520.9, 41340.473, 0.0, 10.0006075, 9.9984865 
2.2349861e+3, 2.4419568e+2, -674014.4, -638099.1, -184876.14, -0.08084022, -0.08635976, -470310.5, 76557.336, 0.0, 9.999225, 9.999689 
2.2349586e+3, 2.5419462e+2, -767112.1, -635773.3, -192620.69, 0.018916383, -0.16199137, -497935.47, -49058.293, 0.0, 9.997928, 9.999658 
2.2349307e+3, 2.6419446e+2, -754387.8, -439079.97, -134539.94, 0.04359696, -0.19954978, -389476.2, -38598.03, 0.0, 9.99674, 10.000906 
2.2349028e+3, 2.7419552e+2, -812812.44, -420419.9, -118739.28, -0.012616198, -0.18441157, -387286.75, -134418.56, 0.0, 9.995682, 10.000874 
2.2348753e+3, 2.8419733e+2, -826644.8, -234663.47, -138232.23, -0.0063521294, -0.1499612, -203975.97, -49124.137, 0.0, 9.994305, 10.00214 
2.2348477e+3, 2.9419976e+2, -1008287.1, -301477.44, -139318.33, 0.020027539, -0.11846362, -275007.84, -218177.61, 0.0, 9.992513, 10.001874 
2.2348198e+3, 3.042031e+2, -991940.9, -6548.382, -110081.77, -0.06075362, -0.074967004, 5599.495, 5599.495, 0.0, 9.991164, 10.004214 
2.2347935e+3, 3.1420687e+2, -1052453.1, 63391.26, -120063.75, 0.003928527, -0.14532672, 76163.805, 76163.805, 0.0, 9.990331, 10.005092 
2.2452345e+3, 1.4425103e+2, -1337517.8, -1756565.1, 150107.83, 0.123930305, -0.30906335, -1289296.4, 237020.17, 0.46404722, 10.004207, 9.99648 
2.2452112e+3, 1.5424833e+2, -687715.6, -1386065.1, 159649.0, -0.11920958, -0.20004798, -652949.2, 775396.2, 0.2961441, 10.009108, 9.995978 
2.2451916e+3, 1.6424409e+2, -314652.63, -1288002.8, 175164.17, 0.08214463, -0.17329334, -284089.75, 1046297.6, 0.15821895, 10.010539, 9.995221 
2.2451706e+3, 1.7423838e+2, -353216.97, -1326686.0, 179620.8, 0.10624363, -0.25704503, -321131.53, 911310.44, 0.06682676, 10.00879, 9.995085 
2.2451477e+3, 1.8423396e+2, -325843.3, -1135328.0, 79580.4, 0.08446037, -0.26502213, -318093.94, 816391.06, 0.020317078, 10.007352, 9.996402 
2.2451228e+3, 1.9423127e+2, -351804.22, -1104301.8, 46378.227, -0.002921756, -0.17767476, -348956.6, 687555.44, 0.0036709516, 10.006404, 9.996398 
2.2450967e+3, 2.0422807e+2, -406862.72, -1034322.8, -54032.902, -0.04205783, -0.15571901, -402243.75, 536300.56, 0.00020938122, 10.005139, 9.996812 
2.24507e+3, 2.1422406e+2, -544455.1, -1060670.6, -34370.598, -0.013355474, -0.23145363, -542176.7, 298408.13, 0.0000000049509064, 10.003567, 9.996716 
2.2450425e+3, 2.2422156e+2, -531132.1, -794681.0, -47511.887, -0.027911346, -0.23898257, -522828.44, 219782.39, 0.0, 10.002087, 9.99858 
2.2450142e+3, 2.3422098e+2, -632385.56, -791319.94, -51749.82, -0.09531116, -0.15854503, -617020.9, 27597.326, 0.0, 10.000711, 9.998592 
2.2449856e+3, 2.4422057e+2, -622008.7, -594279.75, -123215.375, -0.08215579, -0.11724667, -484151.28, 62471.91, 0.0, 9.999503, 9.999853 
2.2449565e+3, 2.542201e+2, -677436.75, -573998.4, -114388.9, 0.025773235, -0.14789437, -500179.97, -51552.75, 0.0, 9.998465, 9.999822 
2.2449273e+3, 2.642201e+2, -705270.25, -401384.9, -63038.81, 0.037371505, -0.18516825, -388826.94, -38199.84, 0.0, 9.99702, 10.001029 
2.2448976e+3, 2.742208e+2, -893753.75, -444405.97, -62112.35, -0.040725607, -0.21800613, -435978.38, -183357.86, 0.0, 9.995067, 10.001002 
2.2448693e+3, 2.8422302e+2, -918394.9, -278262.06, -82303.43, -0.0040644286, -0.14730883, -267849.47, -113249.09, 0.0, 9.993677, 10.00214 
2.2448409e+3, 2.942266e+2, -979572.8, -292179.3, -74982.93, 0.083529964, -0.0008466665, -284095.03, -227526.08, 0.0, 9.992736, 10.001826 
2.24481e+3, 3.0422804e+2, -1032194.06, -26724.922, -50782.03, -0.13033164, -0.14063598, -24166.643, -24166.643, 0.0, 9.990893, 10.004206 
2.2447836e+3, 3.1423402e+2, -1240189.5, 35258.223, -99661.516, 0.08937385, 0.0018262002, 42998.645, 42998.645, 0.0, 9.988768, 10.005656 
2.2552207e+3, 1.5427525e+2, -756101.6, -1464971.0, 273597.88, -0.064056896, -0.22828835, -662786.7, 765293.4, 0.3419831, 10.009131, 9.995592 
2.2552066e+3, 1.642714e+2, -370720.6, -1330602.6, 124326.64, 0.50826937, -0.120963, -354878.9, 975240.1, 0.1897302, 10.010538, 9.994901 
2.2551785e+3, 1.7426524e+2, -383305.97, -1362909.5, 117357.945, 0.009817199, -0.22778045, -369442.5, 862735.25, 0.084459625, 10.008815, 9.994818 
2.2551523e+3, 1.8426006e+2, -373438.44, -1228712.3, 42122.324, -0.18624876, -0.26499575, -371368.9, 762860.1, 0.027615461, 10.007371, 9.995752 
2.2551294e+3, 1.9425635e+2, -399628.78, -1201410.3, 12599.377, 0.021358002, -0.21146111, -399430.84, 636837.94, 0.005558028, 10.006402, 9.995733 
2.2551033e+3, 2.0425333e+2, -362658.9, -940956.7, -109634.93, 0.10004148, -0.16704832, -342571.78, 595728.3, 0.00040755898, 10.005133, 9.997457 
2.255074e+3, 2.14251e+2, -492860.63, -951857.56, -90276.42, 0.0029488285, -0.14836831, -475743.22, 364579.13, 0.0000003487162, 10.003557, 9.997468 
2.2550441e+3, 2.2424878e+2, -534045.4, -797930.4, -98547.92, -0.06646136, -0.16744325, -501304.78, 241039.22, 0.0, 10.002073, 9.998565 
2.255015e+3, 2.3424657e+2, -637976.6, -802349.9, -101971.87, -0.09030301, -0.24295154, -589194.2, 55172.184, 0.0, 10.000708, 9.99852 
2.2549851e+3, 2.442459e+2, -598062.94, -544028.9, -163682.36, -0.06831287, -0.23877326, -405148.88, 141224.6, 0.0, 9.999501, 10.0002 
2.2549546e+3, 2.542471e+2, -649232.3, -518400.6, -153698.58, -0.012061137, -0.14243919, -416776.06, 31585.984, 0.0, 9.998476, 10.000198 
2.2549236e+3, 2.6424798e+2, -706830.56, -406480.72, -136586.1, -0.035362534, -0.109499484, -353657.44, -3303.3643, 0.0, 9.9970255, 10.000993 
2.2548923e+3, 2.7424842e+2, -901737.25, -461683.28, -133886.98, -0.10063843, -0.16138233, -424149.4, -171798.31, 0.0, 9.995067, 10.000885 
2.2548631e+3, 2.8425e+2, -910307.56, -261026.95, -120787.84, 0.0066954526, -0.15132044, -239284.48, -84947.82, 0.0, 9.993673, 10.002261 
2.2548345e+3, 2.942529e+2, -946893.9, -227984.97, -118970.14, 0.16948342, -0.08616772, -208808.47, -152499.31, 0.0, 9.99275, 10.002262 
2.2548008e+3, 3.0425495e+2, -1087178.5, -140058.1, -140178.31, -0.13996653, -0.16291669, -119746.63, -119746.63, 0.0, 9.9908905, 10.003428 
2.2547717e+3, 3.1425905e+2, -1242039.6, 35452.004, 61206.723, 0.020738421, -0.0937792, 38377.82, 38377.82, 0.0, 9.988749, 10.005666 
2.26523e+3, 1.543008e+2, -846744.4, -1412872.6, 322013.63, -0.012326844, -0.2930055, -701068.44, 726759.56, 0.40030533, 10.008319, 9.99663 
2.265217e+3, 1.6429754e+2, -298855.0, -1258783.1, 85687.21, 0.46124727, -0.1864471, -291266.22, 1038595.94, 0.22896954, 10.011526, 9.995035 
2.265188e+3, 1.7429225e+2, -205582.28, -1247966.3, 76831.58, 0.0038692742, -0.21082972, -199949.64, 1031964.0, 0.105934605, 10.010299, 9.994889 
2.2651604e+3, 1.8428746e+2, -197136.88, -1122906.6, 50153.85, -0.17842616, -0.2213889, -194427.7, 939534.25, 0.036320765, 10.008618, 9.995879 
2.265136e+3, 1.9428344e+2, -318774.28, -1144890.8, 77348.85, 0.00935433, -0.20953384, -311594.53, 724410.2, 0.007785619, 10.006906, 9.995877 
2.2651084e+3, 2.0428056e+2, -314386.44, -879864.25, -29172.74, 0.087634295, -0.17543478, -312885.4, 625149.1, 0.0006531311, 10.005305, 9.997791 
2.2650777e+3, 2.1427889e+2, -434062.97, -884434.9, -40231.813, 0.015273185, -0.12419501, -430497.28, 409552.7, 0.0000018761981, 10.003795, 9.997815 
2.2650467e+3, 2.2427699e+2, -497017.75, -754794.2, -54220.12, -0.04535739, -0.13881029, -486077.5, 255990.38, 0.0, 10.00222, 9.99879 
2.2650157e+3, 2.3427466e+2, -653743.4, -786308.44, -36370.42, -0.07738775, -0.24725603, -644420.44, -329.6472, 0.0, 10.000499, 9.998731 
2.2649844e+3, 2.44274e+2, -662018.9, -562830.4, -78417.51, -0.06767664, -0.25718004, -519640.53, 26457.166, 0.0, 9.999009, 10.000308 
2.2649527e+3, 2.5427547e+2, -740756.75, -551563.9, -88894.0, -0.02856715, -0.14313652, -516350.34, -68266.08, 0.0, 9.997802, 10.000295 
2.2649202e+3, 2.6427662e+2, -764153.4, -422467.47, -96785.84, -0.053293243, -0.091747366, -396956.63, -46882.645, 0.0, 9.996585, 10.001094 
2.2648874e+3, 2.742772e+2, -871377.9, -437979.66, -82817.37, -0.094399095, -0.13523154, -422693.38, -170624.17, 0.0, 9.995238, 10.000964 
2.2648567e+3, 2.8427863e+2, -878800.1, -235590.63, -41850.098, 0.006423695, -0.15013602, -232879.1, -78823.17, 0.0, 9.993846, 10.002352 
2.2648266e+3, 2.942812e+2, -967785.9, -211361.8, -49847.813, 0.123342864, -0.12825921, -208091.0, -152060.89, 0.0, 9.992491, 10.0025 
2.264792e+3, 3.0428368e+2, -1108926.9, -162056.75, -97260.97, -0.10652334, -0.17625557, -152169.5, -152169.5, 0.0, 9.990794, 10.003321 
2.2647603e+3, 3.1428695e+2, -1275155.9, -16571.21, 247208.5, 0.004137757, -0.1616174, 30243.611, 30243.611, 0.0, 9.9886875, 10.005333 
2.2752388e+3, 1.543252e+2, -847763.2, -1215928.9, 391981.47, 0.032053582, -0.36683393, -598791.8, 828794.9, 0.47158214, 10.00803, 9.999008 
2.2752236e+3, 1.6432257e+2, -324860.7, -1201426.0, 64795.953, -0.03266429, -0.35748875, -320096.84, 1009519.5, 0.2753764, 10.011601, 9.995581 
2.275199e+3, 1.7431942e+2, -202900.55, -1190445.1, 34112.375, 0.078058444, -0.20518737, -201723.63, 1029926.4, 0.13042463, 10.010343, 9.995301 
2.2751714e+3, 1.8431607e+2, -149486.69, -1006872.2, -9771.596, 0.084088735, -0.13640134, -149375.33, 984309.4, 0.045823753, 10.008626, 9.996711 
2.2751424e+3, 1.943124e+2, -260965.4, -1018555.25, 17705.328, -0.044600736, -0.17319469, -260551.84, 775169.6, 0.010087745, 10.006898, 9.99675 
2.2751121e+3, 2.043096e+2, -314301.56, -876962.1, -84141.484, -0.07568407, -0.17990233, -301988.34, 635760.94, 0.00089078833, 10.005293, 9.997818 
2.2750816e+3, 2.1430759e+2, -439220.6, -891633.75, -92473.78, 0.018436115, -0.15872115, -421048.75, 418720.22, 0.000003754538, 10.0037775, 9.997775 
2.2750495e+3, 2.2430612e+2, -467167.6, -689702.44, -116342.78, 0.028936118, -0.1513147, -417450.28, 324333.03, 0.0, 10.002206, 9.999244 
2.2750162e+3, 2.3430514e+2, -620651.6, -716112.0, -99408.5, -0.063732505, -0.17293105, -558108.44, 85684.35, 0.0, 10.000491, 9.999217 
2.2749832e+3, 2.4430475e+2, -671749.7, -582863.75, -126394.47, -0.084520616, -0.1748961, -493326.34, 52470.758, 0.0, 9.999007, 10.000173 
2.2749504e+3, 2.5430512e+2, -753133.06, -578498.0, -133333.47, -0.028475333, -0.15293114, -506434.97, -58639.996, 0.0, 9.997806, 10.000109 
2.274917e+3, 2.6430598e+2, -747697.94, -388616.06, -147989.94, -0.016404338, -0.13242939, -335485.63, 14301.901, 0.0, 9.996584, 10.0013275 
2.2748832e+3, 2.7430725e+2, -848301.94, -394293.34, -134647.75, -0.025547214, -0.13519596, -357364.0, -105588.94, 0.0, 9.995254, 10.001258 
2.2748503e+3, 2.8430888e+2, -871816.25, -223667.47, -94797.3, -0.016107097, -0.14725031, -210087.11, -56328.375, 0.0, 9.9938545, 10.002431 
2.274817e+3, 2.9431134e+2, -967430.6, -209281.98, -100267.57, -0.080777735, -0.14404787, -196245.44, -140511.94, 0.0, 9.992483, 10.00252 
2.2747837e+3, 3.043146e+2, -1076355.9, -91603.17, -178042.72, -0.0067140595, -0.13674706, -60401.75, -60401.75, 0.0, 9.99078, 10.003813 
2.2747496e+3, 3.1431773e+2, -1361613.3, -217644.27, 64740.668, 0.048222933, -0.18903506, -213992.06, -213992.06, 0.0, 9.98876, 10.003928 
2.2852369e+3, 1.6435502e+2, 42121.79, -1025192.94, 218278.98, -0.105701484, -0.23344535, 85036.97, 1414339.6, 0.32582983, 10.016226, 9.995237 
2.2852102e+3, 1.7435019e+2, 28824.4, -1100834.8, 167112.47, 0.045429613, -0.20026849, 53027.1, 1284378.3, 0.15578204, 10.012662, 9.99492 
2.2851808e+3, 1.8434681e+2, 4928.411, -923587.06, 109094.46, 0.09704337, -0.12007015, 17574.068, 1150959.1, 0.055036023, 10.009797, 9.996759 
2.2851494e+3, 1.943432e+2, -159622.9, -963288.94, 84714.22, -0.04751643, -0.15466344, -150790.28, 884630.56, 0.0121081155, 10.007591, 9.996799 
2.2851172e+3, 2.0434043e+2, -246294.22, -816372.9, -29397.637, -0.09317179, -0.17211294, -244782.27, 692665.75, 0.0010628677, 10.005642, 9.998066 
2.285085e+3, 2.1433842e+2, -412059.44, -850621.9, -17725.723, -0.0051764525, -0.17567101, -411344.16, 428123.16, 0.0000043714153, 10.003845, 9.998024 
2.2850515e+3, 2.2433724e+2, -470544.3, -672613.06, -41994.703, 0.018255353, -0.15774383, -462164.34, 279314.7, 0.0, 10.002101, 9.999413 
2.2850168e+3, 2.3433697e+2, -634269.5, -705083.3, -49490.813, -0.03921579, -0.123685904, -608824.2, 34658.26, 0.0, 10.000321, 9.999373 
2.2849822e+3, 2.4433678e+2, -690155.4, -572046.3, -57990.215, -0.05267318, -0.121497154, -548334.25, -2849.3381, 0.0, 9.9987955, 10.000348 
2.284948e+3, 2.5433668e+2, -781267.2, -572749.25, -37436.195, -0.014738713, -0.16250125, -566231.9, -118745.7, 0.0, 9.997529, 10.000282 
2.2849135e+3, 2.6433745e+2, -791602.0, -390702.8, -43194.086, -0.008425393, -0.16573818, -386101.75, -36622.996, 0.0, 9.9962, 10.001498 
2.2848785e+3, 2.743392e+2, -899615.94, -396860.2, -39891.516, -0.021846496, -0.14032364, -393714.66, -142253.23, 0.0, 9.994805, 10.001456 
2.2848435e+3, 2.8434104e+2, -955123.44, -252418.92, -10047.228, -0.03900884, -0.14738394, -252275.3, -98832.25, 0.0, 9.993236, 10.002531 
2.2848086e+3, 2.943433e+2, -1127785.0, -287565.34, -18098.848, -0.1131248, -0.17062676, -287175.66, -231755.44, 0.0, 9.991391, 10.002506 
2.284775e+3, 3.043472e+2, -1134245.1, -87347.42, -93228.73, 0.07990369, -0.103321195, -79110.0, -79110.0, 0.0, 9.990251, 10.004094 
2.2847378e+3, 3.1435016e+2, -1224699.9, -187889.58, 71900.66, -0.04876076, -0.21370097, -182927.17, -182927.17, 0.0, 9.989856, 10.003602 
2.2952558e+3, 1.6439375e+2, -107115.195, -1152140.0, 120376.88, 0.17363915, 0.110915355, -93428.19, 1235503.8, 0.373861, 10.016209, 9.994088 
2.2952214e+3, 1.7438428e+2, -71407.92, -1245661.8, 56360.29, -0.09805779, -0.19467151, -68709.016, 1162310.8, 0.17840038, 10.012659, 9.993767 
2.2951882e+3, 1.8437952e+2, -51028.438, -1021927.4, 34673.125, -0.12826999, -0.16656725, -49791.754, 1083273.1, 0.06253455, 10.009792, 9.996053 
2.2951572e+3, 1.9437563e+2, -216645.64, -1072153.1, 11042.285, -0.006640904, -0.15523681, -216503.14, 818601.7, 0.013513233, 10.007557, 9.996062 
2.2951241e+3, 2.0437287e+2, -218564.38, -752475.4, -93954.29, 0.022224179, -0.1545862, -202513.44, 734618.9, 0.0011383345, 10.005614, 9.99852 
2.2950882e+3, 2.1437119e+2, -379416.56, -778304.8, -80078.484, -0.061878316, -0.17592528, -363940.88, 475205.88, 0.0000035098878, 10.003824, 9.998531 
2.2950526e+3, 2.2437023e+2, -479862.56, -690070.44, -106805.42, -0.07867915, -0.15837917, -435119.13, 306037.38, 0.0, 10.00209, 9.999298 
2.2950174e+3, 2.3437005e+2, -646567.0, -729479.9, -114390.57, -0.010019357, -0.100057006, -566352.44, 76808.64, 0.0, 10.000315, 9.99921 
2.2949816e+3, 2.4437001e+2, -655387.9, -500078.1, -107528.3, 0.022954747, -0.09569337, -445095.84, 100066.086, 0.0, 9.998795, 10.000844 
2.2949459e+3, 2.5437012e+2, -742075.06, -492922.06, -85486.9, 0.004146017, -0.16988458, -466411.44, -19253.084, 0.0, 9.997533, 10.00083 
2.2949094e+3, 2.6437104e+2, -784300.1, -376107.1, -96312.55, -0.036501948, -0.19353177, -354523.53, -5375.394, 0.0, 9.996201, 10.001599 
2.2948723e+3, 2.7437297e+2, -891831.7, -382686.25, -90704.53, -0.0915776, -0.1574186, -367009.88, -115880.72, 0.0, 9.994812, 10.001552 
2.2948365e+3, 2.8437507e+2, -949763.56, -239550.34, -80512.19, -0.06367286, -0.1467062, -230537.58, -77428.875, 0.0, 9.993226, 10.002625 
2.2948013e+3, 2.9437727e+2, -1136960.9, -301956.53, -89581.39, 0.029447544, -0.18436773, -292454.16, -237365.84, 0.0, 9.991368, 10.00242 
2.2947659e+3, 3.04381e+2, -1128563.3, -77971.914, -104151.74, 0.14272374, -0.12251084, -67746.22, -67746.22, 0.0, 9.990256, 10.004158 
2.2947264e+3, 3.1438518e+2, -1145855.8, -26105.313, 17364.768, -0.19209431, -0.139207, -25836.09, -25836.09, 0.0, 9.989875, 10.004697 
2.3052725e+3, 1.6442971e+2, -201995.44, -1228021.9, 59271.27, 0.20815834, 0.11279799, -198582.81, 1129998.8, 0.40882266, 10.016283, 9.993281 
2.3052344e+3, 1.7441952e+2, 10723.213, -1238907.5, 35496.93, -0.103161946, -0.19890851, 11730.725, 1242406.6, 0.1934232, 10.01378, 9.993271 
2.3051983e+3, 1.8441494e+2, 132048.73, -944271.5, 52832.91, -0.18167396, -0.12607148, 134635.89, 1267354.9, 0.06682474, 10.011237, 9.995932 
2.3051648e+3, 1.9441065e+2, -228995.81, -1094119.4, 69688.984, -0.017132744, -0.14289474, -223418.06, 811344.9, 0.014072755, 10.0075445, 9.995917 
2.3051295e+3, 2.044078e+2, -287995.13, -762952.56, 30627.137, 0.033053625, -0.14922136, -286028.3, 650762.75, 0.0011180778, 10.005037, 9.998726 
2.3050918e+3, 2.1440649e+2, -382370.88, -755796.2, 25296.463, -0.056209594, -0.15387322, -380665.03, 458136.9, 0.0000021612236, 10.0037, 9.998745 
2.3050547e+3, 2.2440565e+2, -458434.2, -665333.9, -11333.076, -0.07623311, -0.14063011, -457815.28, 282995.22, 0.0, 10.002176, 9.999427 
2.3050176e+3, 2.344053e+2, -636776.06, -711781.3, 1341.0785, -0.0036932102, -0.10982155, -636752.1, 6064.276, 0.0, 10.000325, 9.999328 
2.3049805e+3, 2.4440537e+2, -653513.94, -474332.53, 29206.955, 0.02440038, -0.10798663, -469691.94, 75123.74, 0.0, 9.998699, 10.001068 
2.3049429e+3, 2.54406e+2, -758953.94, -475776.0, 26730.975, -0.009476782, -0.15471657, -473274.78, -26467.922, 0.0, 9.997308, 10.001057 
2.3049052e+3, 2.6440698e+2, -818737.5, -385288.28, 651.5356, -0.052609697, -0.18221706, -385287.28, -36491.88, 0.0, 9.995933, 10.001666 
2.3048669e+3, 2.744086e+2, -926639.56, -392977.1, 3356.3792, -0.08797551, -0.18119955, -392955.97, -142176.5, 0.0, 9.994547, 10.001608 
2.3048297e+3, 2.844109e+2, -972328.1, -246571.69, -2294.303, -0.057897665, -0.15505755, -246564.44, -93807.0, 0.0, 9.993054, 10.00266 
2.3047926e+3, 2.944137e+2, -1111440.0, -280188.88, -15044.257, 0.018261202, -0.13619202, -279916.7, -225185.05, 0.0, 9.991501, 10.002507 
2.3047559e+3, 3.044164e+2, -1111505.1, -51621.313, 30423.342, 0.12676632, -0.19460425, -50748.746, -50748.746, 0.0, 9.990285, 10.004331 
2.3047161e+3, 3.1442115e+2, -1264415.3, -69032.67, 47587.047, -0.13434681, -0.15820006, -67141.27, -67141.27, 0.0, 9.989011, 10.004815 
2.3152871e+3, 1.64463e+2, -247780.31, -1274636.8, -9978.384, 0.061690908, -0.19402017, -247683.36, 1080567.6, 0.41869578, 10.016203, 9.992785 
2.3152494e+3, 1.7445573e+2, 2455.4414, -1230678.0, -19390.906, 0.014009681, -0.21274237, 2760.2864, 1233081.8, 0.19631661, 10.013703, 9.993361 
2.3152104e+3, 1.8445279e+2, 151654.13, -889879.75, -67780.08, -0.08478831, -0.006583144, 156046.55, 1288396.9, 0.066828, 10.011174, 9.996363 
2.3151714e+3, 1.9444796e+2, -204743.66, -1037972.5, -58684.777, -0.08779636, -0.116770394, -200630.75, 833766.9, 0.013708408, 10.007519, 9.996316 
2.3151334e+3, 2.0444502e+2, -290674.84, -767165.56, -19333.406, -0.060465094, -0.15277217, -289891.7, 646534.75, 0.00102371, 10.00503, 9.998701 
2.3150963e+3, 2.1444415e+2, -390409.78, -766308.25, -19706.521, 0.0034495979, -0.11016356, -389379.5, 449055.25, 0.0000012019402, 10.003672, 9.998688 
2.3150577e+3, 2.2444333e+2, -435742.34, -614160.1, -77606.03, 0.016694915, -0.10581835, -406710.28, 333732.2, 0.0, 10.002156, 9.999789 
2.3150176e+3, 2.3444258e+2, -610355.3, -655383.4, -66360.69, -0.02816117, -0.15490425, -562793.5, 79656.234, 0.0, 10.000316, 9.999721 
2.3149782e+3, 2.4444279e+2, -657686.44, -483712.22, -24725.418, -0.05205053, -0.159391, -480266.47, 64180.734, 0.0, 9.998699, 10.001004 
2.3149396e+3, 2.5444418e+2, -764469.9, -489885.44, -25452.63, -0.06286425, -0.11784751, -487546.03, -41113.605, 0.0, 9.997316, 10.000957 
2.3149009e+3, 2.644453e+2, -815898.7, -380505.63, -53041.53, -0.060678866, -0.12873986, -374137.0, -25716.287, 0.0, 9.9959345, 10.001699 
2.3148623e+3, 2.7444616e+2, -924638.25, -390109.88, -49100.816, -0.019335525, -0.20643093, -385637.0, -135224.92, 0.0, 9.994549, 10.001629 
2.314823e+3, 2.8444847e+2, -972724.6, -248002.69, -60155.44, -0.025843497, -0.17718525, -243043.44, -90653.99, 0.0, 9.993056, 10.00265 
2.3147823e+3, 2.9445246e+2, -1086549.5, -234512.53, -67573.54, -0.15191685, -0.043767583, -229186.69, -174835.45, 0.0, 9.991524, 10.002811 
2.3147449e+3, 3.0445373e+2, -1087829.0, -4780.9966, -9101.515, 0.00086091214, -0.28880665, -4704.5166, -4704.5166, 0.0, 9.990291, 10.004652 
2.3147067e+3, 3.1445983e+2, -1309060.4, -155951.34, -121279.29, 0.03984384, -0.11802133, -143333.75, -143333.75, 0.0, 9.988988, 10.004229 
2.3253027e+3, 1.6450058e+2, -154552.13, -1184838.3, -20833.441, 0.007707843, -0.27459222, -154131.03, 1173751.1, 0.39825493, 10.0164, 9.9936905 
2.3252629e+3, 1.7449506e+2, -90906.1, -1226075.5, 40764.152, 0.0584281, -0.18482062, -89444.13, 1140491.9, 0.1855134, 10.012478, 9.993983 
2.3252214e+3, 1.8449211e+2, -19241.414, -957251.6, 8164.3115, -0.0134010585, -0.01326033, -19170.36, 1112794.5, 0.06242013, 10.009795, 9.996526 
2.325179e+3, 1.9448738e+2, -184197.7, -1007055.06, 4469.317, -0.08415671, -0.13008578, -184173.44, 849837.8, 0.01252782, 10.007563, 9.996509 
2.3251382e+3, 2.0448455e+2, -254284.69, -760171.06, 71894.9, -0.08210508, -0.15809707, -244265.64, 691773.75, 0.00088656176, 10.005324, 9.998607 
2.3250994e+3, 2.1448386e+2, -515347.13, -836737.1, 68456.4, 0.007182009, -0.08666172, -501373.4, 336673.84, 0.00000073067235, 10.002858, 9.998596 
2.3250593e+3, 2.2448309e+2, -569852.9, -651446.0, 25111.854, 0.02408506, -0.08240823, -562743.6, 177310.52, 0.0, 10.001117, 10.000033 
2.3250176e+3, 2.3448223e+2, -616110.7, -627506.6, 28492.88, -0.04127149, -0.16812146, -592751.6, 49308.85, 0.0, 10.000145, 9.999994 
2.324977e+3, 2.4448234e+2, -624657.2, -489745.38, 64869.27, -0.06855496, -0.18428849, -463615.38, 80442.92, 0.0, 9.9990225, 10.000807 
2.3249373e+3, 2.5448376e+2, -727886.8, -496975.38, 53080.06, -0.05814928, -0.118781984, -485358.22, -39312.996, 0.0, 9.997675, 10.000734 
2.3248969e+3, 2.64485e+2, -775199.5, -347532.97, 17289.082, -0.04957546, -0.10606517, -346835.16, 1197.4681, 0.0, 9.996157, 10.001818 
2.3248567e+3, 2.7448612e+2, -938899.94, -382218.1, 24205.186, -0.015348217, -0.1746153, -381167.63, -131146.22, 0.0, 9.994388, 10.001761 
2.3248157e+3, 2.8448823e+2, -991607.44, -244841.73, 32892.215, -0.03185514, -0.17758091, -243395.75, -91395.41, 0.0, 9.992874, 10.002759 
2.3247737e+3, 2.944919e+2, -1049804.0, -198618.11, 31876.234, -0.17464373, -0.083182864, -197426.05, -143461.67, 0.0, 9.991702, 10.002969 
2.3247346e+3, 3.0449402e+2, -1098196.6, -24029.271, 54898.484, -0.046690784, -0.24622437, -21230.813, -21230.813, 0.0, 9.990284, 10.004521 
2.3246956e+3, 3.145005e+2, -1318268.3, -130936.38, -85874.47, 0.02306845, -0.016082216, -124757.62, -124757.62, 0.0, 9.988806, 10.004485 
2.3353186e+3, 1.6454303e+2, 6606.3926, -992482.2, -139973.64, -0.04867892, -0.044928733, 25846.371, 1353315.3, 0.35373765, 10.016227, 9.995702 
2.335275e+3, 1.7453703e+2, -8669.846, -1103052.6, -64014.117, 0.024106413, -0.123333015, -4938.1704, 1224585.5, 0.16370685, 10.012398, 9.99503 
2.3352318e+3, 1.845327e+2, -21838.65, -966436.7, -67348.07, 0.025085978, -0.1349144, -17061.023, 1114503.8, 0.054586012, 10.009733, 9.996477 
2.335187e+3, 1.9452862e+2, -189126.1, -1010230.56, -69797.1, -0.017354617, -0.18203701, -183235.31, 850370.94, 0.010791844, 10.007517, 9.99651 
2.3351438e+3, 2.0452617e+2, -268925.63, -785689.4, -16678.533, -0.042467117, -0.16776985, -268387.88, 667244.2, 0.000735846, 10.005301, 9.998444 
2.3351015e+3, 2.1452542e+2, -527318.7, -858820.8, -18696.477, -0.051384166, -0.083847746, -526267.56, 311373.78, 0.0000004976262, 10.002844, 9.998452 
2.3350596e+3, 2.2452477e+2, -560285.1, -632334.44, -12284.533, -0.05569675, -0.068959676, -558248.2, 181398.88, 0.0, 10.001118, 10.000165 
2.3350176e+3, 2.3452412e+2, -605009.8, -605136.4, -6559.5356, -0.05057254, -0.1479514, -598513.25, 43136.38, 0.0, 10.000146, 10.000149 
2.3349763e+3, 2.44524e+2, -647544.06, -538052.3, 13871.517, -0.0298135, -0.18137723, -536322.25, 7327.4395, 0.0, 9.999024, 10.000475 
2.3349354e+3, 2.5452462e+2, -751199.6, -546904.8, 2701.167, -0.00092137157, -0.15838969, -546869.06, -101223.125, 0.0, 9.99768, 10.00039 
2.3348933e+3, 2.645261e+2, -761030.9, -319476.34, -49578.168, -0.02236896, -0.116423406, -313978.13, 33653.63, 0.0, 9.9961605, 10.00201 
2.3348503e+3, 2.7452835e+2, -919300.8, -345862.78, -42971.902, -0.08663463, -0.088963315, -342660.47, -93052.53, 0.0, 9.994403, 10.002005 
2.3348081e+3, 2.845301e+2, -976002.0, -214790.98, -13103.498, -0.08408587, -0.15316562, -214565.5, -62975.66, 0.0, 9.992882, 10.002964 
2.3347664e+3, 2.9453203e+2, -1050461.9, -202615.94, -9345.463, -0.05384145, -0.24861047, -202512.94, -148942.42, 0.0, 9.991711, 10.00294 
2.3347254e+3, 3.045371e+2, -1140893.3, -112655.96, -12431.522, 0.004863137, -0.080363765, -112505.69, -112505.69, 0.0, 9.990283, 10.003914 
2.3346828e+3, 3.1454086e+2, -1284324.4, -76735.93, 4487.2935, -0.12606888, -0.07947139, -76719.26, -76719.26, 0.0, 9.988859, 10.004839 
2.3453349e+3, 1.6458648e+2, 20768.723, -984952.4, -96912.07, 0.049208324, -0.02637325, 30022.107, 1357066.1, 0.2973999, 10.01506, 9.996051 
2.3452866e+3, 1.7458098e+2, -93979.42, -1131470.9, -50600.457, 0.036084328, -0.09550293, -91517.38, 1137577.1, 0.1361504, 10.011263, 9.9953165 
2.3452403e+3, 1.8457656e+2, -199520.73, -1027943.6, -3924.7112, 0.010578143, -0.13414223, -199502.14, 931634.5, 0.044925656, 10.008249, 9.996736 
2.3451938e+3, 1.9457303e+2, -303652.13, -1031962.06, 21595.422, -0.0270949, -0.15290383, -303012.38, 730160.25, 0.008783819, 10.006565, 9.996814 
2.3451489e+3, 2.0457064e+2, -325762.0, -826612.94, 83548.414, -0.047071226, -0.14065732, -312192.7, 623004.75, 0.000585233, 10.00497, 9.998321 
2.3451045e+3, 2.1456935e+2, -467253.25, -842758.2, 82865.38, -0.045803536, -0.09543487, -449779.84, 387431.2, 0.00000030944508, 10.003314, 9.998335 
2.345061e+3, 2.2456844e+2, -470309.03, -616708.8, 110990.73, -0.046222094, -0.08710838, -410553.44, 328665.72, 0.0, 10.001858, 9.999915 
2.3450181e+3, 2.345678e+2, -559871.25, -610095.06, 88665.65, -0.040748306, -0.13459587, -492830.0, 148392.1, 0.0, 10.000573, 9.9999075 
2.3449753e+3, 2.4456762e+2, -644351.9, -545558.7, 88301.9, -0.026361909, -0.15931445, -493775.97, 49447.414, 0.0, 9.999087, 10.000392 
2.3449326e+3, 2.5456795e+2, -809023.5, -581390.06, 96082.5, -0.0053111617, -0.15433727, -546256.8, -101034.695, 0.0, 9.9973135, 10.000329 
2.3448892e+3, 2.6456928e+2, -812856.2, -353122.03, 49417.477, -0.026898308, -0.120424174, -347870.06, -660.68274, 0.0, 9.995845, 10.00193 
2.3448448e+3, 2.7457154e+2, -881494.7, -333399.47, 30579.436, -0.08407033, -0.08457688, -331698.66, -82513.1, 0.0, 9.994692, 10.001949 
2.344801e+3, 2.8457326e+2, -916561.0, -191895.48, 41942.883, -0.07657386, -0.14457054, -189475.95, -38308.484, 0.0, 9.993318, 10.002909 
2.3447584e+3, 2.9457498e+2, -1066766.6, -234521.16, 27784.814, -0.023106102, -0.25276765, -233594.58, -180444.55, 0.0, 9.991704, 10.002724 
2.3447151e+3, 3.0458003e+2, -1135826.6, -151098.39, 28174.537, -0.029765083, -0.045057926, -150292.94, -150292.94, 0.0, 9.990495, 10.003547 
2.344672e+3, 3.1458256e+2, -1257700.6, -32269.355, 85067.305, -0.09975626, -0.15199964, -26392.316, -26392.316, 0.0, 9.988913, 10.0051155 
2.3554136e+3, 1.546329e+2, -1084395.0, -1085870.8, -484526.22, -0.046609346, -0.08489118, -600606.1, 823983.6, 0.42476854, 10.002977, 10.002956 
2.3553523e+3, 1.6463022e+2, 63361.316, -1064618.5, -183783.77, 0.28903133, -0.25185904, 92550.21, 1419165.1, 0.24020536, 10.014881, 9.995168 
2.3552984e+3, 1.7462662e+2, -97037.7, -1189771.6, -178898.3, 0.08079567, -0.09977606, -68494.71, 1160155.9, 0.107902795, 10.011154, 9.994898 
2.3552477e+3, 1.846233e+2, -161341.08, -956658.75, -64391.074, -0.057110168, -0.025179256, -156161.53, 974521.9, 0.034971952, 10.008199, 9.99726 
2.3551995e+3, 1.9462028e+2, -267534.63, -954864.06, -34043.35, -0.11657967, -0.048975416, -265852.56, 766860.5, 0.006724509, 10.00654, 9.99736 
2.3551533e+3, 2.0461772e+2, -332440.16, -839075.0, 23301.396, -0.09640284, -0.07832561, -331370.72, 603366.75, 0.00043461032, 10.00496, 9.99824 
2.3551084e+3, 2.1461545e+2, -476731.38, -858699.8, 24655.191, 0.014865706, -0.12004983, -475146.5, 361611.47, 0.0000001218087, 10.003295, 9.998236 
2.3550637e+3, 2.2461395e+2, -515933.63, -710381.06, 63710.836, 0.04468562, -0.13558261, -496918.25, 241853.56, 0.0, 10.001851, 9.999277 
2.3550189e+3, 2.3461321e+2, -605931.75, -705765.25, 41981.363, -0.020156952, -0.13001433, -590624.94, 50154.28, 0.0, 10.00057, 9.999253 
2.3549739e+3, 2.4461311e+2, -632358.5, -521995.5, 21131.438, -0.06309668, -0.11825854, -518087.78, 24692.387, 0.0, 9.999089, 10.000555 
2.3549291e+3, 2.5461373e+2, -792665.25, -549856.4, 29222.018, -0.08379253, -0.105551995, -546389.0, -101614.81, 0.0, 9.997321, 10.000544 
2.3548846e+3, 2.6461452e+2, -838663.94, -407909.4, 3782.171, -0.0674269, -0.11756858, -407876.2, -61110.375, 0.0, 9.995848, 10.001554 
2.35484e+3, 2.7461556e+2, -906923.2, -388579.4, -12576.066, -0.0057589733, -0.16358839, -388274.44, -139519.69, 0.0, 9.9946995, 10.001567 
2.3547949e+3, 2.8461763e+2, -937080.06, -237361.36, -18958.807, -0.01140313, -0.15230261, -236848.05, -86114.555, 0.0, 9.993327, 10.002593 
2.354749e+3, 2.9462078e+2, -1091897.8, -293934.28, -28795.773, -0.11124364, -0.089342676, -292896.5, -240194.14, 0.0, 9.991731, 10.002304 
2.3547043e+3, 3.046228e+2, -1143834.8, -172978.97, -9437.912, -0.15160303, -0.1492747, -172887.23, -172887.23, 0.0, 9.990515, 10.003389 
2.3546618e+3, 3.1462616e+2, -1239729.4, 13840.26, -89053.44, 0.019530436, -0.17212075, 20134.996, 20134.996, 0.0, 9.98888, 10.0054455 
2.3654187e+3, 1.5468767e+2, -711580.3, -1491400.9, -310753.03, -0.15489167, 0.1318656, -602895.06, 821157.5, 0.34328794, 10.009894, 9.995061 
2.3653647e+3, 1.6467847e+2, -298201.7, -1273165.5, -132280.98, 0.24320029, -0.26806214, -280572.84, 1045569.3, 0.1891189, 10.011059, 9.9950905 
2.3653084e+3, 1.7467533e+2, -332168.13, -1314034.1, -107105.37, 0.0885924, -0.08348941, -320620.5, 907554.25, 0.082376696, 10.009098, 9.995007 
2.3652557e+3, 1.8467209e+2, -278053.0, -1034849.7, 71068.16, -0.028836805, 0.007909442, -271437.06, 858770.4, 0.025826793, 10.007398, 9.997082 
2.3652059e+3, 1.9466887e+2, -328229.28, -1006187.94, 55035.48, -0.1011473, -0.017146692, -323790.66, 708448.56, 0.004784901, 10.006206, 9.997165 
2.3651582e+3, 2.0466602e+2, -356259.3, -864809.1, 78083.375, -0.09307314, -0.05477033, -344540.34, 589725.56, 0.0002861468, 10.004861, 9.99811 
2.3651116e+3, 2.1466343e+2, -469145.13, -867368.6, 77370.06, 0.009913682, -0.114802465, -454641.3, 381647.3, 0.000000015627528, 10.003404, 9.998123 
2.3650654e+3, 2.2466166e+2, -530271.7, -755022.94, 132420.64, 0.04185002, -0.1328958, -468970.88, 269334.2, 0.0, 10.001919, 9.998937 
2.3650193e+3, 2.3466073e+2, -658192.94, -767720.3, 134890.72, -0.0056125787, -0.10962574, -567373.06, 72942.34, 0.0, 10.000374, 9.99892 
2.3649728e+3, 2.4466053e+2, -654570.8, -536345.5, 115449.766, -0.046680674, -0.089020155, -465754.84, 76562.805, 0.0, 9.998957, 10.000519 
2.3649265e+3, 2.5466105e+2, -747606.7, -529395.8, 104887.47, -0.081980035, -0.08106156, -487156.0, -42844.61, 0.0, 9.99764, 10.000528 
2.3648806e+3, 2.646616e+2, -783316.5, -405026.66, 88681.85, -0.064595975, -0.106452286, -385269.03, -38964.043, 0.0, 9.996335, 10.001336 
2.3648351e+3, 2.7466223e+2, -873906.1, -398815.84, 83901.93, 0.027711535, -0.16980125, -384433.97, -136135.78, 0.0, 9.995044, 10.001329 
2.3647888e+3, 2.846642e+2, -876994.6, -219444.86, 80157.914, 0.016392997, -0.14982538, -209814.34, -59536.305, 0.0, 9.993793, 10.00249 
2.3647407e+3, 2.9466748e+2, -997365.8, -251774.97, 82148.64, -0.13808009, -0.062258355, -242831.19, -190585.69, 0.0, 9.992402, 10.002267 
2.364695e+3, 3.0466858e+2, -1163145.6, -231409.36, 117391.91, -0.13062695, -0.18993188, -216846.45, -216846.45, 0.0, 9.990597, 10.002948 
2.3646508e+3, 3.1467098e+2, -1193767.6, 14983.035, -44558.156, 0.033355176, -0.2579422, 16623.355, 16623.355, 0.0, 9.989291, 10.005253 
2.3754895e+3, 1.4474036e+2, -1197488.6, -1632228.0, -246253.2, 0.07926742, -0.04070626, -1086391.9, 435139.22, 0.4335696, 10.005612, 9.996893 
2.3754297e+3, 1.5473554e+2, -628365.9, -1424403.5, -208709.3, -0.027467912, -0.095321625, -576964.44, 846617.2, 0.27742246, 10.009784, 9.995383 
2.3753725e+3, 1.6473061e+2, -237713.28, -1216036.0, -197361.22, -0.053931087, -0.10742255, -199399.25, 1126232.6, 0.14733207, 10.010861, 9.995626 
2.3753169e+3, 1.7472671e+2, -284454.75, -1238222.0, -178366.84, 0.05840245, -0.051672272, -252189.36, 975481.44, 0.061264656, 10.009023, 9.995574 
2.3752642e+3, 1.847227e+2, -331170.0, -1155501.6, 27048.563, 0.08073395, -0.026417894, -330283.4, 799427.6, 0.018137151, 10.00738, 9.996246 
2.3752132e+3, 1.9471861e+2, -395245.94, -1140810.0, 13305.15, 0.0039305724, -0.050998155, -395008.56, 636744.0, 0.003115415, 10.006171, 9.996259 
2.3751633e+3, 2.0471543e+2, -371985.22, -892621.6, 25559.346, -0.04586572, -0.06745305, -370733.44, 563050.3, 0.0001555911, 10.004836, 9.997932 
2.375114e+3, 2.1471316e+2, -482398.94, -891622.1, 26548.566, -0.06714755, -0.080623694, -480683.78, 355120.44, 0.0, 10.0033865, 9.997966 
2.3750661e+3, 2.2471148e+2, -533997.75, -762947.1, 75472.14, -0.055259302, -0.07924096, -511357.5, 226462.42, 0.0, 10.001916, 9.998884 
2.3750195e+3, 2.3471034e+2, -661153.25, -773409.6, 78157.984, -0.0031196463, -0.071369946, -621057.5, 18774.057, 0.0, 10.000368, 9.998886 
2.3749724e+3, 2.4470979e+2, -671543.8, -572651.4, 64196.574, 0.020090893, -0.07057674, -541065.94, 770.57556, 0.0, 9.998959, 10.000269 
2.3749249e+3, 2.547099e+2, -763625.4, -565444.06, 55056.67, -0.0031584816, -0.08049676, -551176.0, -107341.72, 0.0, 9.997649, 10.0002775 
2.3748772e+3, 2.647105e+2, -786586.56, -415643.34, 38669.8, -0.022601781, -0.0866173, -411655.03, -65827.805, 0.0, 9.996346, 10.00126 
2.3748298e+3, 2.7471146e+2, -877463.44, -413472.2, 38211.793, -0.007949246, -0.104426615, -410346.3, -162530.19, 0.0, 9.995071, 10.001217 
2.3747823e+3, 2.8471285e+2, -868032.9, -206013.19, 27628.893, 0.002263966, -0.13821773, -204862.11, -55060.85, 0.0, 9.993813, 10.002574 
2.3747338e+3, 2.9471502e+2, -968705.4, -197513.1, 23283.594, -0.07202354, -0.17173876, -196810.77, -145031.38, 0.0, 9.992421, 10.002631 
2.3746867e+3, 3.0471733e+2, -1210372.0, -328849.44, 48165.68, 0.0057448316, -0.17688762, -326225.53, -326225.53, 0.0, 9.990591, 10.002282 
2.3746392e+3, 3.1471914e+2, -1157597.6, 64710.117, -42257.03, -0.056616653, -0.21122427, 66169.266, 66169.266, 0.0, 9.989378, 10.005564 
2.3855e+3, 1.4478688e+2, -773233.1, -1337965.8, -202688.64, 0.37124732, -0.36006936, -708017.2, 813059.56, 0.36731875, 10.009341, 9.997452 
2.3854387e+3, 1.5478568e+2, -794927.3, -1467665.5, -179887.28, 0.022051152, -0.132348, -749847.06, 673244.44, 0.22721834, 10.00744, 9.996162 
2.3853806e+3, 1.647826e+2, -709207.44, -1422591.4, -179007.16, -0.09350515, -0.026881345, -666809.56, 658314.0, 0.11519426, 10.006641, 9.996139 
2.385325e+3, 1.7477848e+2, -426849.88, -1262483.9, -159053.22, 0.051608793, -0.040496554, -397599.8, 829564.7, 0.044932153, 10.007647, 9.996062 
2.3852715e+3, 1.847743e+2, -358636.66, -1187665.4, 31686.254, 0.09851685, -0.050104443, -357427.34, 771778.8, 0.012165213, 10.00723, 9.996095 
2.385219e+3, 1.9477007e+2, -512560.0, -1218094.6, 64273.75, 0.0380676, -0.070083976, -506752.5, 524495.8, 0.001829678, 10.005449, 9.996073 
2.385168e+3, 2.047668e+2, -507290.06, -984497.4, 113407.83, -0.015118652, -0.070147455, -481710.0, 451570.66, 0.000063808264, 10.0040245, 9.99769 
2.3851171e+3, 2.1476455e+2, -546045.44, -949179.5, 106541.01, -0.061537746, -0.05245287, -519620.66, 315681.56, 0.0, 10.003068, 9.997724 
2.3850681e+3, 2.2476281e+2, -529256.1, -768190.3, 146084.56, -0.062146537, -0.040215157, -460008.9, 277310.03, 0.0, 10.001984, 9.998816 
2.38502e+3, 2.347615e+2, -606925.44, -753364.1, 147372.47, -0.0031033128, -0.04341551, -515585.6, 123745.89, 0.0, 10.00077, 9.99883 
2.3849717e+3, 2.4476065e+2, -617475.0, -580092.5, 133406.58, 0.03471877, -0.054726046, -464074.16, 77264.98, 0.0, 9.999479, 9.999965 
2.3849231e+3, 2.5476027e+2, -719639.25, -578702.94, 118328.586, 0.038557686, -0.07938279, -511448.88, -68106.98, 0.0, 9.998104, 9.999966 
2.3848738e+3, 2.647606e+2, -729529.1, -378181.5, 103517.305, 0.00087258226, -0.094805524, -349950.63, -4613.9233, 0.0, 9.996701, 10.001344 
2.3848245e+3, 2.7476168e+2, -855316.7, -391682.2, 113436.086, -0.048498057, -0.11147137, -365416.16, -118092.266, 0.0, 9.99518, 10.001312 
2.3847756e+3, 2.8476328e+2, -904269.3, -244039.55, 103264.914, -0.02041905, -0.123313084, -228265.02, -78957.39, 0.0, 9.993656, 10.002386 
2.3847269e+3, 2.9476553e+2, -1005220.75, -232882.92, 72253.83, 0.008792092, -0.12466439, -226181.58, -174895.48, 0.0, 9.992251, 10.002469 
2.3846777e+3, 3.0476746e+2, -1102149.3, -239159.1, 102485.94, 0.014365173, -0.1782407, -227155.16, -227155.16, 0.0, 9.991177, 10.002613 
2.3846275e+3, 3.147717e+2, -1073017.0, 218701.44, 49744.793, -0.17882772, 0.007697893, 220614.3, 220614.3, 0.0, 9.989484, 10.006564 
2.3955718e+3, 1.3483627e+2, -1692543.8, -1227841.8, -104190.21, 0.012717655, -0.21083778, -1205550.6, 413050.25, 0.45299774, 9.996386, 10.006658 
2.395504e+3, 1.4483975e+2, -712749.3, -1294250.1, -243890.23, -0.14631175, -0.060946435, -624002.4, 896565.6, 0.31911486, 10.009188, 9.997831 
2.3954459e+3, 1.548378e+2, -705328.6, -1319851.4, -243322.9, 0.0062422776, -0.01621731, -620651.75, 801933.0, 0.1903059, 10.007384, 9.997294 
2.395389e+3, 1.648345e+2, -665627.0, -1358309.5, -144994.19, 0.07550802, -0.011859955, -636501.1, 688115.25, 0.09146365, 10.006629, 9.996575 
2.3953325e+3, 1.748306e+2, -400510.56, -1212630.5, -122179.57, 0.05466942, -0.04593458, -382527.44, 844128.44, 0.03292033, 10.007581, 9.996433 
2.3952778e+3, 1.8482673e+2, -331509.88, -1123977.4, -30754.951, 0.030686699, -0.064132884, -330318.1, 798375.5, 0.007857174, 10.007167, 9.996565 
2.3952241e+3, 1.9482304e+2, -482519.78, -1153112.0, -545.77795, 0.001736329, -0.07677425, -482519.34, 548208.75, 0.00095897145, 10.005431, 9.99653 
2.3951718e+3, 2.0481998e+2, -529976.7, -1033545.44, 77653.84, -0.0018645521, -0.06266646, -518273.88, 414484.4, 0.000016884871, 10.004029, 9.997353 
2.3951212e+3, 2.1481757e+2, -573389.4, -1003189.1, 73325.5, 0.019027393, -0.029002951, -561224.1, 273559.8, 0.0, 10.003053, 9.997361 
2.3950705e+3, 2.248156e+2, -536203.56, -781782.56, 101659.71, 0.013995462, -0.014881752, -499581.78, 237221.44, 0.0, 10.001977, 9.998726 
2.3950206e+3, 2.3481412e+2, -612926.25, -766607.94, 102508.016, -0.015606055, -0.02522635, -561656.1, 77159.99, 0.0, 10.00077, 9.99874 
2.3949707e+3, 2.44813e+2, -643106.06, -635995.2, 80020.02, -0.008192412, -0.041200213, -559451.7, -18625.412, 0.0, 9.999487, 9.99958 
2.3949212e+3, 2.548121e+2, -745221.5, -635730.06, 66944.87, 0.033343565, -0.07810361, -603996.25, -161161.38, 0.0, 9.998117, 9.999569 
2.3948704e+3, 2.64812e+2, -710958.8, -342298.5, 45096.004, 0.002512772, -0.13194719, -336862.34, 7971.6997, 0.0, 9.996711, 10.001587 
2.3948191e+3, 2.748129e+2, -829610.6, -342955.72, 54397.484, -0.09348363, -0.18979776, -336949.4, -90127.99, 0.0, 9.995197, 10.00164 
2.3947687e+3, 2.848154e+2, -938951.4, -318135.03, 49296.39, -0.058573827, -0.10408836, -314244.97, -165448.08, 0.0, 9.993661, 10.001877 
2.3947197e+3, 2.948189e+2, -1055634.6, -341964.94, 27667.98, 0.07295904, 0.07276344, -340893.9, -290127.53, 0.0, 9.992267, 10.001715 
2.3946677e+3, 3.0481914e+2, -1009867.9, -53989.926, 58693.543, -0.09804253, -0.16806716, -50399.465, -50399.465, 0.0, 9.9912, 10.003876 
2.3946172e+3, 3.1482482e+2, -1201912.8, -55602.156, -155381.36, -0.13623601, 0.015332243, -34913.734, -34913.734, 0.0, 9.989507, 10.004673 
2.4055745e+3, 1.3490157e+2, -1354416.0, -2224255.0, -172840.48, 0.13036601, 0.23882641, -1321330.4, 296631.16, 0.41421676, 10.006762, 9.992623 
2.4055107e+3, 1.4489433e+2, -982291.0, -1446300.0, -92721.49, -0.21005465, 0.035374545, -964448.8, 555586.94, 0.2846669, 10.006287, 9.99766 
2.4054529e+3, 1.5489136e+2, -735960.2, -1336265.0, -129486.31, 0.022402814, -0.016961573, -709220.94, 712839.44, 0.1636401, 10.006904, 9.997363 
2.4053958e+3, 1.6488785e+2, -622529.1, -1329638.0, -24406.861, 0.110746734, -0.042330906, -621687.7, 702405.56, 0.07432709, 10.006812, 9.996665 
2.4053392e+3, 1.748844e+2, -600235.3, -1304307.6, -19145.725, 0.0360133, -0.037501317, -599715.06, 626413.7, 0.02438742, 10.006081, 9.99652 
2.4052837e+3, 1.848808e+2, -545541.44, -1200726.1, 24665.44, 0.002174411, -0.04548981, -544614.2, 583549.8, 0.004940365, 10.005555, 9.996812 
2.4052295e+3, 1.948772e+2, -471305.75, -1120353.1, 35932.754, 0.013516575, -0.071790576, -469322.5, 560874.4, 0.00044307575, 10.005392, 9.996772 
2.4051763e+3, 2.0487411e+2, -466413.13, -1028618.56, 102185.625, 0.023719037, -0.060202233, -448416.13, 483811.28, 0.0000019874199, 10.004581, 9.99712 
2.4051243e+3, 2.1487151e+2, -573019.6, -1029655.1, 103744.9, 0.036042545, -0.019924806, -550554.56, 283701.06, 0.0, 10.003174, 9.997119 
2.4050725e+3, 2.248693e+2, -567449.56, -810410.94, 135179.4, 0.028596327, -0.011812189, -507185.8, 229092.05, 0.0, 10.001826, 9.9986 
2.4050212e+3, 2.3486751e+2, -650202.5, -797791.75, 133008.23, 0.0043128235, -0.038802706, -571889.1, 66404.516, 0.0, 10.000575, 9.998618 
2.40497e+3, 2.4486639e+2, -670307.0, -636006.0, 122823.86, -0.002785621, -0.052319594, -529141.0, 11162.338, 0.0, 9.999247, 9.999694 
2.4049187e+3, 2.5486577e+2, -782152.7, -640223.94, 147143.17, 0.0075165075, -0.070181794, -547826.56, -105518.13, 0.0, 9.99781, 9.999685 
2.4048667e+3, 2.648656e+2, -753209.7, -385359.0, 131118.72, -0.020006884, -0.12289045, -343406.84, 901.3775, 0.0, 9.996523, 10.00138 
2.4048145e+3, 2.7486622e+2, -815470.8, -358386.8, 100652.45, -0.073403865, -0.18974103, -337204.25, -90904.586, 0.0, 9.995397, 10.001435 
2.4047627e+3, 2.8486866e+2, -856624.9, -292610.38, 89479.12, -0.049341507, -0.0909764, -278755.16, -130479.1, 0.0, 9.994293, 10.001745 
2.4047117e+3, 2.9487216e+2, -943368.94, -301824.0, 100521.766, 0.025622638, 0.09870893, -286442.3, -236196.77, 0.0, 9.993101, 10.001586 
2.4046594e+3, 3.0487224e+2, -917232.5, 42216.355, 127049.78, -0.058335308, -0.16776726, 58755.137, 58755.137, 0.0, 9.991616, 10.004334 
2.4046089e+3, 3.1487727e+2, -1214167.6, -259924.48, -143982.0, 0.07635626, -0.09642534, -238672.89, -238672.89, 0.0, 9.990284, 10.002891 
2.415581e+3, 1.3495459e+2, -1148054.9, -1607202.0, -165045.39, 0.118239105, 0.05727766, -1094884.8, 522556.97, 0.3873245, 10.006702, 9.997051 
2.4155198e+3, 1.449504e+2, -1003296.8, -1543727.4, -83932.74, 0.07634998, -0.022323865, -990561.56, 528921.8, 0.26009354, 10.006331, 9.996801 
2.4154599e+3, 1.5494612e+2, -769964.9, -1442335.8, -114872.67, 0.053416323, -0.115763426, -750880.9, 670640.4, 0.14435273, 10.006895, 9.996548 
2.4154016e+3, 1.6494241e+2, -628501.3, -1358933.1, -49403.047, 0.029293966, -0.11409175, -625175.06, 698381.56, 0.061990365, 10.006786, 9.99648 
2.4153444e+3, 1.7493968e+2, -610745.25, -1331797.0, -46681.836, -0.0060824915, -0.019900056, -607735.56, 617850.0, 0.01842571, 10.006064, 9.996342 
2.4152891e+3, 1.849363e+2, -544195.4, -1197818.4, 19506.658, 0.0047797584, 0.0019880915, -543613.75, 584005.5, 0.0030576177, 10.005541, 9.9968405 
2.415235e+3, 1.9493242e+2, -475690.0, -1121893.8, 30977.852, 0.06253256, -0.05514542, -474208.38, 555447.4, 0.00017645904, 10.005355, 9.996781 
2.4151811e+3, 2.0492908e+2, -480265.06, -1051953.0, 50528.45, 0.056179393, -0.061111804, -475833.5, 455855.47, 0.000000040076877, 10.004554, 9.996974 
2.4151267e+3, 2.149263e+2, -586585.5, -1054271.0, 52901.434, -0.016653113, -0.023831766, -580676.3, 253042.14, 0.0, 10.003155, 9.996962 
2.4150737e+3, 2.2492379e+2, -579905.5, -836166.2, 89103.96, -0.019458456, -0.029159823, -551968.9, 183774.9, 0.0, 10.001822, 9.998426 
2.4150223e+3, 2.3492154e+2, -663529.25, -825351.4, 87015.0, 0.05255755, -0.08364675, -625620.25, 12144.765, 0.0, 10.000571, 9.998432 
2.4149695e+3, 2.4492073e+2, -626335.3, -545408.4, 67072.91, 0.04762695, -0.08836651, -507538.8, 32232.287, 0.0, 9.999247, 10.000318 
2.4149157e+3, 2.5492126e+2, -736134.8, -546811.44, 92486.82, -0.047717318, -0.05458571, -509130.22, -67367.375, 0.0, 9.997815, 10.000326 
2.4148625e+3, 2.6492152e+2, -803204.1, -491832.06, 87566.516, -0.071898505, -0.06448761, -468895.5, -125136.25, 0.0, 9.99653, 10.000648 
2.4148105e+3, 2.749216e+2, -868872.25, -475028.88, 59294.957, 0.0025980938, -0.106220305, -466295.4, -220536.5, 0.0, 9.995417, 10.000627 
2.4147576e+3, 2.84923e+2, -832679.6, -247508.0, 43894.555, 0.007242996, -0.088371195, -244233.72, -96487.84, 0.0, 9.99431, 10.002048 
2.414703e+3, 2.9492512e+2, -896786.25, -214730.3, 55367.07, -0.12959687, -0.06600554, -210265.0, -160540.3, 0.0, 9.993138, 10.002168 
2.4146526e+3, 3.0492696e+2, -941262.7, -16223.462, 65148.67, 0.12713306, -0.177441, -11657.706, -11657.706, 0.0, 9.991648, 10.003921 
2.4145983e+3, 3.149325e+2, -1147017.1, -132035.17, 12728.072, -0.008369324, 0.012178646, -131875.58, -131875.58, 0.0, 9.9903345, 10.003743 
2.4256465e+3, 1.2501067e+2, -1503817.4, -1683420.1, -54167.652, -0.08922158, -0.07323194, -1488745.5, 226141.88, 0.48469085, 10.003419, 9.99876 
2.4255869e+3, 1.3500915e+2, -1123706.6, -1500071.5, -102580.586, 0.09146897, -0.07186577, -1097563.6, 519340.84, 0.36828178, 10.006198, 9.998277 
2.4255271e+3, 1.4500621e+2, -916128.0, -1532111.5, -95665.71, 0.13648179, -0.07455629, -901612.6, 617320.8, 0.24213532, 10.007165, 9.996479 
2.4254666e+3, 1.550021e+2, -795988.5, -1491360.0, -100529.766, 0.05928663, -0.117731035, -781746.6, 639224.8, 0.13007419, 10.006737, 9.996277 
2.4254078e+3, 1.6499831e+2, -682386.0, -1383383.0, -24539.6, 0.007806155, -0.114856884, -681528.0, 641479.75, 0.05296122, 10.006326, 9.99653 
2.4253504e+3, 1.7499514e+2, -607977.6, -1325750.1, -9347.85, -0.0239456, -0.06803695, -607855.94, 617183.3, 0.014252977, 10.006045, 9.99639 
2.4252944e+3, 1.8499175e+2, -572108.94, -1221390.0, 60123.445, -0.0027420903, -0.044552326, -566588.44, 560484.8, 0.0018802078, 10.00539, 9.996749 
2.42524e+3, 1.9498825e+2, -615772.25, -1199825.0, 59641.28, 0.075018965, -0.053847656, -609744.1, 419364.28, 0.000058249312, 10.004438, 9.996685 
2.425185e+3, 2.04985e+2, -616271.6, -1101557.4, 69417.96, 0.066136695, -0.05253827, -606537.0, 324604.47, 0.0, 10.003555, 9.997112 
2.4251294e+3, 2.1498205e+2, -627946.9, -1058543.0, 89714.71, -0.030833064, -0.04392947, -610002.56, 223168.83, 0.0, 10.00281, 9.997096 
2.4250752e+3, 2.2497962e+2, -597894.4, -831953.4, 135713.17, -0.039554674, -0.050624497, -535720.1, 199475.33, 0.0, 10.001647, 9.998539 
2.4250223e+3, 2.349777e+2, -726383.0, -843202.56, 154298.27, 0.05022838, -0.08185046, -619809.0, 17404.941, 0.0, 10.00009, 9.99854 
2.4249685e+3, 2.4497694e+2, -684168.7, -574373.2, 131885.08, 0.05922683, -0.084461324, -486416.3, 52803.402, 0.0, 9.998858, 10.000303 
2.4249138e+3, 2.5497732e+2, -714595.5, -536622.0, 107241.45, -0.023531547, -0.064001724, -486255.34, -45042.363, 0.0, 9.997969, 10.0003195 
2.4248596e+3, 2.6497754e+2, -764328.0, -501389.38, 95238.6, -0.039105907, -0.062597424, -470517.78, -127307.88, 0.0, 9.9969225, 10.000391 
2.4248062e+3, 2.7497754e+2, -854329.3, -499172.8, 102908.25, 0.04661385, -0.085423656, -471509.4, -226298.28, 0.0, 9.995652, 10.000347 
2.424752e+3, 2.8497833e+2, -810099.1, -233227.89, 100386.02, 0.020405121, -0.11112893, -216258.11, -69054.65, 0.0, 9.994452, 10.002076 
2.4246955e+3, 2.949799e+2, -861644.56, -190086.89, 85172.32, -0.19557525, -0.14836602, -179453.03, -130266.56, 0.0, 9.993353, 10.002231 
2.4246448e+3, 3.0498278e+2, -902704.75, -70292.13, 47421.438, 0.15350375, -0.1277958, -67599.305, -67599.305, 0.0, 9.9922285, 10.003268 
2.4245869e+3, 3.149858e+2, -1004218.5, 45889.633, 74038.49, -0.18728502, -0.12169863, 51084.066, 51084.066, 0.0, 9.990848, 10.004716 
2.4356519e+3, 1.250682e+2, -1527642.3, -1844544.0, -5965.8584, 0.11154956, -0.13881497, -1527530.0, 186790.14, 0.4714932, 10.003738, 9.997302 
2.4355926e+3, 1.3506497e+2, -1175027.8, -1638036.4, -43838.492, 0.037435316, -0.16769892, -1170913.6, 445439.66, 0.35380742, 10.006204, 9.996879 
2.4355327e+3, 1.4506185e+2, -906324.5, -1519821.5, -108924.91, 0.0059326775, -0.12634233, -887559.1, 630826.0, 0.22822721, 10.007086, 9.996613 
2.4354729e+3, 1.5505919e+2, -781724.9, -1472073.3, -115295.766, 0.041146036, -0.037613545, -762978.25, 657433.75, 0.11901933, 10.006711, 9.996428 
2.4354143e+3, 1.650554e+2, -663877.06, -1351961.4, -33721.164, 0.03183, -0.053708997, -662228.44, 660219.44, 0.046136912, 10.006315, 9.996754 
2.435356e+3, 1.750508e+2, -595895.06, -1296574.4, -19487.893, -0.028777977, -0.17305318, -595353.44, 629136.3, 0.011284799, 10.006008, 9.996611 
2.4352993e+3, 1.8504716e+2, -591423.5, -1256305.4, 25240.217, -0.02315415, -0.17272851, -590466.75, 536059.25, 0.0011580455, 10.005361, 9.996526 
2.4352442e+3, 1.950446e+2, -634870.6, -1235108.0, 25216.027, 0.048901748, -0.066211976, -633813.2, 394742.4, 0.000015080497, 10.0044155, 9.996456 
2.4351884e+3, 2.0504172e+2, -589369.2, -1044732.06, 42421.75, 0.052713007, -0.03561501, -585450.9, 345134.94, 0.0, 10.003548, 9.997508 
2.4351323e+3, 2.1503863e+2, -604147.94, -1005553.8, 63594.93, -0.013734162, -0.08183817, -594313.5, 238302.3, 0.0, 10.00279, 9.997471 
2.4350767e+3, 2.250367e+2, -572900.1, -778415.7, 77820.78, -0.036171257, -0.07555009, -546757.8, 187876.19, 0.0, 10.0016365, 9.998913 
2.4350217e+3, 2.3503593e+2, -701991.8, -791570.25, 95757.85, -0.011882908, -0.029817468, -641066.1, -4425.0547, 0.0, 10.000082, 9.998899 
2.434967e+3, 2.4503493e+2, -731407.7, -673870.9, 96494.21, 0.02899997, -0.03916653, -601947.9, -63297.89, 0.0, 9.998861, 9.99962 
2.4349126e+3, 2.5503382e+2, -761145.1, -637316.2, 73360.484, 0.07717739, -0.09929721, -603235.0, -162575.08, 0.0, 9.997983, 9.999623 
2.4348575e+3, 2.6503357e+2, -744129.5, -462619.84, 45685.152, 0.07947568, -0.12089461, -455391.38, -112730.09, 0.0, 9.996932, 10.000654 
2.4348018e+3, 2.7503398e+2, -831141.75, -456177.22, 54708.367, 0.05509769, -0.13340934, -448358.16, -203701.34, 0.0, 9.99567, 10.000636 
2.4347459e+3, 2.850347e+2, -832562.6, -284156.28, 57575.71, -0.020404758, -0.15976775, -278176.75, -131527.83, 0.0, 9.994467, 10.001721 
2.4346887e+3, 2.9503652e+2, -897590.94, -269822.2, 44139.492, -0.19867224, -0.13552867, -266733.88, -218103.22, 0.0, 9.993371, 10.001677 
2.4346358e+3, 3.0503967e+2, -959772.9, -190266.2, -2198.0266, 0.035155863, -0.014140664, -190259.94, -190259.94, 0.0, 9.992233, 10.002442 
2.4345793e+3, 3.1503937e+2, -1032049.9, -29607.38, -28054.168, -0.023883963, -0.27398935, -28822.877, -28822.877, 0.0, 9.99091, 10.004176 
2.4456584e+3, 1.2512612e+2, -1192418.0, -1659736.4, -4770.7773, 0.18211617, -0.14517197, -1192369.3, 521381.9, 0.46001112, 10.008218, 9.996729 
2.4455987e+3, 1.3512231e+2, -1164375.0, -1687655.6, -7838.1523, 0.037256677, -0.17704149, -1164257.6, 451531.4, 0.341374, 10.006448, 9.996409 
2.4455388e+3, 1.451189e+2, -1034489.44, -1601924.1, -46480.56, -0.017826894, -0.13940717, -1030707.25, 487116.16, 0.2164985, 10.005898, 9.996583 
2.4454795e+3, 1.5511625e+2, -796349.94, -1486119.5, -58278.477, 0.046204932, -0.046922762, -791460.7, 628391.0, 0.109946124, 10.006566, 9.9963875 
2.4454205e+3, 1.6511242e+2, -650867.2, -1344867.3, -11955.851, 0.045269538, -0.06533815, -650661.3, 671227.0, 0.040766038, 10.0063715, 9.996774 
2.4453616e+3, 1.7510773e+2, -676964.8, -1333769.1, -13651.593, -0.02542723, -0.1951969, -676681.2, 547249.2, 0.00912064, 10.005424, 9.996636 
2.4453042e+3, 1.8510418e+2, -685266.6, -1286752.5, 35211.71, -0.028477475, -0.19393012, -683212.3, 442753.7, 0.0007204192, 10.004654, 9.9966545 
2.445248e+3, 1.951019e+2, -669712.0, -1236146.5, 56582.633, 0.036372293, -0.072288826, -664115.1, 363878.56, 0.0000027662777, 10.004116, 9.99659 
2.4451916e+3, 2.0509928e+2, -603950.8, -1015089.0, 78903.67, 0.040738054, -0.035521265, -589328.1, 340693.13, 0.0, 10.003296, 9.99783 
2.4451345e+3, 2.1509643e+2, -660981.6, -997518.7, 92128.92, -0.011389859, -0.08644254, -637411.56, 194636.25, 0.0, 10.00225, 9.997786 
2.4450782e+3, 2.2509462e+2, -646246.94, -817596.0, 74305.22, -0.027994715, -0.084230006, -618513.4, 115551.82, 0.0, 10.001155, 9.998873 
2.4450217e+3, 2.3509379e+2, -710478.56, -799413.56, 60839.395, -0.0048515573, -0.04016812, -679588.3, -43514.78, 0.0, 10.000047, 9.998859 
2.4449658e+3, 2.4509278e+2, -711698.56, -670386.56, 88383.55, 0.03590773, -0.045641925, -600277.4, -62194.145, 0.0, 9.999026, 9.999564 
2.4449107e+3, 2.5509167e+2, -753578.0, -640878.44, 110981.01, 0.09017878, -0.097194456, -572761.06, -132667.48, 0.0, 9.998069, 9.9995575 
2.4448542e+3, 2.6509145e+2, -724564.6, -451543.13, 88275.07, 0.08339156, -0.11247913, -425487.97, -83393.06, 0.0, 9.997063, 10.000666 
2.4447973e+3, 2.7509186e+2, -780288.0, -429528.94, 76481.78, 0.03963106, -0.12294569, -413577.75, -169487.69, 0.0, 9.996016, 10.000649 
2.4447405e+3, 2.8509247e+2, -761455.56, -275696.88, 78486.086, -0.01344614, -0.15079516, -263330.38, -117247.13, 0.0, 9.995068, 10.001489 
2.4446829e+3, 2.95094e+2, -817413.1, -268486.06, 72076.69, -0.1301344, -0.12802656, -259179.84, -211112.34, 0.0, 9.994078, 10.001347 
2.4446277e+3, 3.050966e+2, -920929.25, -233448.98, 37806.383, 0.0014118293, -0.013579434, -231376.16, -231376.16, 0.0, 9.992769, 10.001885 
2.4445711e+3, 3.1509733e+2, -987260.06, -43607.293, 20600.9, 0.057290077, -0.12110611, -43157.77, -43157.77, 0.0, 9.99138, 10.003847 
2.455666e+3, 1.251844e+2, -1181560.0, -1644804.8, -42481.21, 0.1388967, -0.10827354, -1177696.5, 535484.1, 0.44791332, 10.008099, 9.996951 
2.4556053e+3, 1.3518113e+2, -1138867.3, -1646196.8, -52081.754, 0.069298655, -0.10986106, -1133575.9, 481635.8, 0.3292079, 10.006487, 9.99669 
2.4555449e+3, 1.4517733e+2, -1031471.94, -1631789.1, -27397.494, 0.034138493, -0.11566361, -1030224.2, 487025.0, 0.20571156, 10.005979, 9.99634 
2.455486e+3, 1.5517335e+2, -808038.3, -1521726.0, -37138.336, 0.06254448, -0.1316241, -806110.94, 613179.2, 0.10205128, 10.006544, 9.996154 
2.4554268e+3, 1.6516943e+2, -665552.6, -1373544.9, -45287.3, 0.04598921, -0.13835166, -662667.56, 658660.9, 0.036361005, 10.006327, 9.996602 
2.455367e+3, 1.751658e+2, -689820.2, -1359701.8, -47204.53, -0.019115858, -0.14381287, -686510.2, 536852.1, 0.007497654, 10.005408, 9.996468 
2.4553089e+3, 1.8516262e+2, -654924.8, -1224192.6, 16484.723, -0.02350509, -0.12092384, -654447.8, 470946.84, 0.0004572374, 10.004649, 9.997089 
2.455252e+3, 1.9516002e+2, -645717.7, -1177906.6, 37755.86, 0.029383438, -0.073037304, -643052.44, 384371.22, 0.00000034641616, 10.004076, 9.997012 
2.4551946e+3, 2.0515761e+2, -591291.6, -982806.7, 40846.004, 0.026697237, -0.0489795, -587075.7, 342372.63, 0.0, 10.003267, 9.998067 
2.4551365e+3, 2.1515544e+2, -648949.4, -967529.06, 54587.914, -0.0303345, -0.056006446, -639855.44, 191612.81, 0.0, 10.002225, 9.998005 
2.4550791e+3, 2.2515325e+2, -678939.7, -885759.7, 33567.45, -0.017383924, -0.07698724, -673628.0, 59861.938, 0.0, 10.001152, 9.998408 
2.4550222e+3, 2.3515113e+2, -741765.1, -866632.44, 19646.576, 0.06556712, -0.11580127, -738746.9, -103234.26, 0.0, 10.000052, 9.998398 
2.4549651e+3, 2.4515034e+2, -670243.0, -586390.9, 50293.2, 0.07531674, -0.10452986, -562840.25, -25319.875, 0.0, 9.999031, 10.00014 
2.4549077e+3, 2.5515085e+2, -713553.25, -559932.44, 73447.79, 0.0029231391, -0.052207496, -530467.7, -90953.75, 0.0, 9.998074, 10.000112 
2.4548501e+3, 2.651511e+2, -743846.94, -493047.6, 47068.934, -0.036798026, -0.033168618, -484504.9, -142993.8, 0.0, 9.997066, 10.000381 
2.4547927e+3, 2.751512e+2, -797622.3, -470025.44, 38666.418, -0.012775831, -0.05033908, -465523.47, -222011.98, 0.0, 9.996032, 10.000364 
2.4547361e+3, 2.8515163e+2, -761851.94, -281569.28, 40595.844, 0.04766927, -0.07736764, -278162.1, -132655.7, 0.0, 9.995085, 10.001443 
2.4546787e+3, 2.9515252e+2, -815969.1, -273158.78, 32928.113, 0.038568687, -0.114751995, -271168.6, -223673.06, 0.0, 9.994106, 10.001304 
2.4546203e+3, 3.051532e+2, -944291.2, -291947.22, -16124.85, 0.017638087, -0.16813387, -291548.88, -291548.88, 0.0, 9.992806, 10.001469 
2.4545613e+3, 3.1515613e+2, -944287.94, 44593.652, -6171.948, -0.054524235, -0.013743093, 44632.17, 44632.17, 0.0, 9.99139, 10.004444 
2.4656731e+3, 1.2524277e+2, -1256174.6, -1704299.6, -20243.5, 0.09445592, -0.13563919, -1255262.0, 457345.38, 0.43383488, 10.007159, 9.996662 
2.4656123e+3, 1.3523956e+2, -1003580.3, -1590903.8, -50528.03, 0.07776281, -0.10404697, -999265.06, 615373.7, 0.31627446, 10.007861, 9.996463 
2.465552e+3, 1.4523578e+2, -836630.8, -1511657.1, -29614.125, 0.06572554, -0.10285719, -835334.1, 681342.3, 0.19512334, 10.00755, 9.996413 
2.4654926e+3, 1.5523167e+2, -829195.56, -1525932.6, -23411.717, 0.09211976, -0.13688578, -828409.75, 590308.25, 0.09482701, 10.006305, 9.996239 
2.4654329e+3, 1.6522786e+2, -754545.56, -1406396.3, -14073.28, 0.0746289, -0.14285219, -754241.9, 566513.75, 0.032601077, 10.005628, 9.99671 
2.4653725e+3, 1.7522451e+2, -671295.1, -1336507.4, 1476.3191, 0.0101892175, -0.12981887, -671291.9, 551495.6, 0.0062420317, 10.005476, 9.996591 
2.4653132e+3, 1.852215e+2, -639442.4, -1181908.5, 52221.29, -0.015838495, -0.110338256, -634460.94, 490356.88, 0.00029930344, 10.004611, 9.9973955 
2.4652548e+3, 1.9521894e+2, -761580.56, -1200885.8, 62056.594, -0.0027463455, -0.089083605, -752982.7, 273862.44, 0.000000033404476, 10.003138, 9.997306 
2.4651968e+3, 2.0521662e+2, -743176.75, -1042812.4, 68143.15, -0.0027297728, -0.075221546, -728407.6, 200461.02, 0.0, 10.002171, 9.998182 
2.4651384e+3, 2.1521463e+2, -717617.06, -986553.7, 69423.96, -0.016101167, -0.075459816, -700753.25, 130134.36, 0.0, 10.001701, 9.998122 
2.4650803e+3, 2.252126e+2, -692380.3, -885538.3, 58540.074, -0.0003996821, -0.08690969, -676023.75, 56884.477, 0.0, 10.001036, 9.998464 
2.4650219e+3, 2.3521063e+2, -716427.3, -848221.56, 83580.164, 0.053539466, -0.11417107, -675891.0, -40961.246, 0.0, 10.000203, 9.99845 
2.4649638e+3, 2.4520993e+2, -666719.94, -580707.94, 104328.97, 0.06101235, -0.09688358, -510868.7, 26068.184, 0.0, 9.999042, 10.000172 
2.4649052e+3, 2.5521043e+2, -783291.8, -589801.6, 84930.77, 0.008656929, -0.047331844, -557811.2, -118880.555, 0.0, 9.997584, 10.00014 
2.4648467e+3, 2.652107e+2, -803310.06, -520389.1, 67920.984, -0.035075925, -0.029816125, -504928.2, -164000.11, 0.0, 9.996654, 10.000391 
2.4647886e+3, 2.7521086e+2, -779014.25, -461711.2, 80514.19, -0.019696124, -0.036220733, -442450.25, -199522.34, 0.0, 9.996161, 10.000361 
2.4647312e+3, 2.852115e+2, -729757.9, -276107.2, 79314.72, 0.07002646, -0.036398068, -262639.88, -117718.86, 0.0, 9.995352, 10.00135 
2.464673e+3, 2.9521233e+2, -804779.44, -273797.4, 62434.08, 0.09346014, -0.07163186, -266555.06, -219644.05, 0.0, 9.994218, 10.001241 
2.4646127e+3, 3.05212e+2, -889323.3, -295968.06, 24948.201, -0.025208173, -0.21034087, -294920.94, -294920.94, 0.0, 9.993322, 10.001188 
2.4645533e+3, 3.1521535e+2, -748397.9, 137963.47, 17097.475, -0.040802263, 0.020857086, 138293.14, 138293.14, 0.0, 9.992741, 10.004434 
2.4756795e+3, 1.2530135e+2, -1270841.1, -1801562.0, -8097.23, 0.03594204, -0.21041843, -1270717.6, 441313.34, 0.41731808, 10.007177, 9.995944 
2.4756199e+3, 1.3529772e+2, -1032062.75, -1684859.1, -32545.285, 0.05618056, -0.14955038, -1030444.25, 583624.9, 0.3021293, 10.007783, 9.995786 
2.4755593e+3, 1.4529426e+2, -816950.56, -1477113.5, -65637.734, 0.07469257, -0.09946748, -810487.7, 705616.94, 0.18433514, 10.007477, 9.996742 
2.475499e+3, 1.5529111e+2, -804057.94, -1477413.8, -62566.324, 0.1286445, -0.072001114, -798293.75, 619842.6, 0.08795549, 10.006292, 9.996583 
2.4754387e+3, 1.6528755e+2, -730080.9, -1357798.0, -17610.256, 0.12295672, -0.08772358, -729587.2, 590583.9, 0.029271396, 10.005621, 9.997048 
2.4753782e+3, 1.7528383e+2, -653441.75, -1289370.6, -4011.5703, 0.053493317, -0.14717956, -653416.5, 568789.94, 0.0052380203, 10.0054245, 9.996942 
2.4753179e+3, 1.8528078e+2, -633020.9, -1160949.3, -1638.4601, -0.009276755, -0.15460141, -633015.8, 491220.2, 0.00020388007, 10.004573, 9.9975605 
2.4752574e+3, 1.9527854e+2, -752935.5, -1180861.0, 9225.321, -0.06371066, -0.11874869, -752736.75, 273522.34, 0.0000000003112916, 10.003124, 9.997452 
2.4751982e+3, 2.0527619e+2, -743775.0, -1045692.2, 51135.715, -0.048699535, -0.113658875, -735349.3, 192933.78, 0.0, 10.002173, 9.998163 
2.4751404e+3, 2.1527389e+2, -720913.94, -989907.0, 52753.574, 0.02365559, -0.14273903, -710938.1, 119368.62, 0.0, 10.001681, 9.998112 
2.4750812e+3, 2.2527258e+2, -653858.6, -804020.5, 27943.13, 0.01824039, -0.11121739, -648827.4, 83493.336, 0.0, 10.001026, 9.99903 
2.475021e+3, 2.3527224e+2, -679404.06, -771089.5, 52097.008, -0.048489105, -0.03114842, -655851.9, -21526.611, 0.0, 10.000197, 9.998984 
2.4749622e+3, 2.4527144e+2, -704733.3, -660137.5, 47821.254, -0.007644287, -0.022847727, -629671.1, -93337.52, 0.0, 9.999041, 9.999628 
2.4749038e+3, 2.5527027e+2, -819210.06, -666525.7, 30083.725, 0.1064732, -0.08672818, -660812.06, -222467.03, 0.0, 9.99759, 9.999612 
2.4748445e+3, 2.6527005e+2, -780658.25, -474628.34, 47381.08, 0.09232537, -0.10745959, -467460.44, -127113.195, 0.0, 9.9966545, 10.000707 
2.4747849e+3, 2.7527085e+2, -756631.75, -419033.66, 61718.22, 0.016989475, -0.08154829, -408104.44, -165764.75, 0.0, 9.996173, 10.00065 
2.4747261e+3, 2.85272e+2, -743693.2, -308943.75, 34571.316, 0.040979695, -0.031413745, -306211.8, -161883.73, 0.0, 9.995364, 10.001121 
2.4746662e+3, 2.9527327e+2, -808798.8, -287538.13, 16859.691, -0.00051569287, 0.00060292403, -286993.38, -240677.92, 0.0, 9.994237, 10.001139 
2.4746053e+3, 3.0527335e+2, -886804.4, -293736.84, -301.53784, -0.11290922, -0.097535454, -293736.7, -293736.7, 0.0, 9.993333, 10.0012 
2.4745469e+3, 3.1527558e+2, -785403.56, 26074.139, -31593.377, 0.044521037, 0.032500114, 27302.309, 27302.309, 0.0, 9.992859, 10.003625 
2.485687e+3, 1.2536126e+2, -1166725.6, -1709430.4, -268.88586, 0.05522146, -0.17702681, -1166725.5, 544719.1, 0.398444, 10.008112, 9.996132 
2.485627e+3, 1.3535711e+2, -1076519.1, -1702457.8, 16167.009, 0.052519727, -0.18409604, -1076101.8, 537384.9, 0.2866926, 10.007137, 9.9959755 
2.4855661e+3, 1.4535365e+2, -917842.06, -1522844.4, -9126.519, 0.06291769, -0.14846544, -917704.4, 597817.56, 0.17317426, 10.006522, 9.996824 
2.4855052e+3, 1.5535088e+2, -800318.2, -1465340.5, -16452.941, 0.12373168, -0.088916324, -799911.4, 617639.0, 0.081251994, 10.006239, 9.996685 
2.4854441e+3, 1.653477e+2, -723657.9, -1331271.3, 22472.055, 0.12054452, -0.08079967, -722827.9, 596753.9, 0.026233118, 10.005551, 9.997264 
2.485383e+3, 1.7534438e+2, -769912.8, -1322315.9, 26234.57, 0.052586123, -0.12162425, -768669.7, 452944.3, 0.0044090403, 10.004516, 9.997154 
2.4853218e+3, 1.853414e+2, -745107.06, -1204870.0, 10578.42, -0.0066336263, -0.13755621, -744863.8, 378779.22, 0.00014471165, 10.003761, 9.997648 
2.4852605e+3, 1.953389e+2, -726853.7, -1155874.4, 14244.678, -0.055280358, -0.1344243, -726381.25, 299286.5, 0.00000000017417703, 10.003259, 9.997555 
2.4852005e+3, 2.0533673e+2, -707665.75, -1008145.1, 66274.266, -0.03755131, -0.12339549, -693697.5, 233992.27, 0.0, 10.002339, 9.998339 
2.4851419e+3, 2.15335e+2, -797813.1, -1007648.8, 80895.336, 0.039862968, -0.11353923, -770247.7, 59460.703, 0.0, 10.001072, 9.998282 
2.4850819e+3, 2.2533387e+2, -779733.9, -843108.94, 52410.297, 0.026580838, -0.082197644, -750176.5, -18455.887, 0.0, 10.0000725, 9.999219 
2.4850205e+3, 2.3533338e+2, -795936.6, -806583.94, 46407.348, -0.058267187, -0.033350393, -754548.6, -120822.734, 0.0, 9.999315, 9.999163 
2.4849607e+3, 2.4533255e+2, -742471.75, -686527.94, 47539.285, -0.016787544, -0.032552052, -659341.75, -123607.27, 0.0, 9.998821, 9.999551 
2.4849018e+3, 2.553314e+2, -687112.0, -612188.3, 63753.074, 0.123122804, -0.08484086, -575705.25, -137959.23, 0.0, 9.99854, 9.999526 
2.4848418e+3, 2.6533112e+2, -627721.3, -402226.78, 83404.02, 0.11223569, -0.10376574, -374730.75, -34981.86, 0.0, 9.997715, 10.00069 
2.484781e+3, 2.753318e+2, -727393.7, -405987.3, 70215.81, 0.014445949, -0.08969972, -391317.25, -149574.52, 0.0, 9.996386, 10.000633 
2.4847212e+3, 2.8533304e+2, -751144.75, -302265.25, 42336.848, 0.029566536, -0.034945402, -298307.1, -154576.7, 0.0, 9.995273, 10.001208 
2.4846606e+3, 2.9533473e+2, -780349.4, -261511.06, 48490.68, 0.015209978, 0.028359156, -257018.03, -211304.05, 0.0, 9.994379, 10.001249 
2.4845985e+3, 3.053348e+2, -812303.5, -227802.72, 55697.07, -0.12971947, -0.08644264, -222542.69, -222542.69, 0.0, 9.993724, 10.001461 
2.484539e+3, 3.1533563e+2, -790854.1, -1469.2334, 24704.125, -0.00007640044, -0.11380586, -696.8634, -696.8634, 0.0, 9.992937, 10.003394 
2.4956958e+3, 1.2542234e+2, -1111158.4, -1629462.6, -20958.504, 0.12248594, -0.055738043, -1110312.3, 600537.56, 0.37752938, 10.008086, 9.997021 
2.495634e+3, 1.3541764e+2, -1020846.06, -1588020.5, -8913.556, 0.05349025, -0.20694667, -1020706.0, 592186.5, 0.2700935, 10.007133, 9.996824 
2.495572e+3, 1.4541385e+2, -919296.25, -1547119.3, -19663.047, 0.02714006, -0.23648366, -918681.0, 596248.5, 0.16163038, 10.0065155, 9.996664 
2.4955107e+3, 1.5541095e+2, -808450.3, -1486397.5, -26741.93, 0.07743058, -0.17459549, -807397.1, 609563.3, 0.0746397, 10.006204, 9.99656 
2.495449e+3, 1.654083e+2, -719775.0, -1321169.8, -14851.3, 0.07221997, -0.11436333, -719408.44, 599579.75, 0.023408137, 10.005522, 9.99735 
2.4953869e+3, 1.7540602e+2, -766262.44, -1313784.9, -10793.383, 0.009401295, -0.05751871, -766049.75, 454961.9, 0.0037063528, 10.004504, 9.99722 
2.4953255e+3, 1.8540317e+2, -744542.5, -1203711.6, -7626.477, -0.008837767, -0.06547853, -744415.9, 378624.28, 0.00010584882, 10.003757, 9.997661 
2.4952641e+3, 1.9539995e+2, -726949.6, -1151393.0, -4168.5977, 0.011257732, -0.13499333, -726908.7, 298163.03, 0.00000000005180779, 10.003234, 9.9976 
2.4952033e+3, 2.0539819e+2, -684179.5, -957401.5, 19539.35, 0.022808235, -0.104588546, -682789.2, 244300.0, 0.0, 10.002326, 9.998695 
2.4951425e+3, 2.153978e+2, -775926.8, -961138.1, 35623.05, 0.02575679, 0.0057065473, -769311.44, 59782.363, 0.0, 10.001063, 9.998609 
2.4950816e+3, 2.253963e+2, -793950.2, -874101.2, 24796.145, 0.023631494, -0.005501373, -786899.3, -55789.996, 0.0, 10.000075, 9.999006 
2.4950205e+3, 2.3539396e+2, -809232.9, -836267.2, 18591.188, 0.018321943, -0.12295983, -799764.25, -166631.44, 0.0, 9.999319, 9.998959 
2.4949597e+3, 2.4539319e+2, -713365.25, -628874.44, 35186.566, 0.028254723, -0.12494471, -616140.1, -80999.79, 0.0, 9.99883, 9.999945 
2.4948995e+3, 2.5539383e+2, -658118.6, -558107.5, 51777.797, 0.043658994, -0.034920115, -536130.44, -98996.91, 0.0, 9.998563, 9.999888 
2.4948384e+3, 2.6539394e+2, -652186.8, -458644.16, 31403.248, 0.015246013, -0.012967123, -453676.34, -114543.14, 0.0, 9.997735, 10.000296 
2.4947768e+3, 2.7539364e+2, -748952.9, -455483.6, 17827.291, -0.03259934, -0.05508518, -454404.6, -213266.92, 0.0, 9.996402, 10.000288 
2.4947163e+3, 2.853945e+2, -718217.0, -235439.03, 6230.3228, 0.035465892, -0.050568815, -235358.66, -92229.58, 0.0, 9.995275, 10.001669 
2.494656e+3, 2.9539645e+2, -754614.1, -211264.11, 20236.69, 0.14008161, -0.0025422603, -210511.45, -165403.61, 0.0, 9.994389, 10.001593 
2.4945925e+3, 3.0539608e+2, -788214.4, -185370.61, 28554.248, -0.053423062, -0.1890063, -184021.13, -184021.13, 0.0, 9.9937525, 10.00174 
2.4945308e+3, 3.153991e+2, -786228.1, 3133.48, -44012.06, -0.117352, -0.03519226, 5579.8574, 5579.8574, 0.0, 9.992957, 10.003417 
2.505704e+3, 1.2548375e+2, -1059882.3, -1630432.3, 23422.813, 0.12767784, -0.06509237, -1058922.4, 651327.25, 0.35501668, 10.008511, 9.996777 
2.505641e+3, 1.3547958e+2, -981894.9, -1591519.8, -11608.106, 0.038464926, -0.1373014, -981673.94, 630614.6, 0.2525971, 10.007452, 9.996631 
2.505578e+3, 1.4547585e+2, -897720.25, -1520714.1, -24896.092, 0.009219646, -0.16078538, -896726.94, 617598.3, 0.14980574, 10.006544, 9.99683 
2.5055164e+3, 1.5547259e+2, -850093.25, -1490869.0, -14937.698, 0.06999747, -0.15101397, -849745.2, 566613.56, 0.06811591, 10.005784, 9.99673 
2.505454e+3, 1.6546994e+2, -772495.75, -1336739.5, -2483.2947, 0.06561059, -0.10316641, -772484.8, 545901.3, 0.020758579, 10.005096, 9.997444 
2.5053912e+3, 1.7546795e+2, -764160.06, -1300578.6, 1522.8231, -0.0012718232, -0.02646254, -764155.75, 456251.22, 0.0030995992, 10.004469, 9.997324 
2.505329e+3, 1.8546525e+2, -740503.06, -1186066.8, 15740.464, -0.009023221, -0.031323873, -739947.7, 382486.16, 0.000078184596, 10.003722, 9.997796 
2.5052673e+3, 1.9546205e+2, -768562.2, -1155604.4, 25388.578, 0.03623075, -0.11066353, -766903.9, 257560.66, 0.0000000000010010511, 10.002882, 9.99774 
2.5052053e+3, 2.0546027e+2, -720780.2, -965021.8, 29275.08, 0.037774142, -0.09409519, -717320.25, 209161.67, 0.0, 10.002035, 9.998781 
2.5051433e+3, 2.1545981e+2, -751339.75, -939194.8, 23104.162, 0.0042845043, 0.0008510748, -748539.9, 79946.91, 0.0, 10.001195, 9.9986925 
2.5050816e+3, 2.2545834e+2, -729840.3, -843953.94, 27776.346, 0.014428529, -0.008007846, -723438.44, 7063.327, 0.0, 10.000523, 9.998996 
2.5050205e+3, 2.354561e+2, -711921.56, -789200.5, 37587.94, 0.06537793, -0.11280674, -696655.0, -64130.418, 0.0, 9.99999, 9.998957 
2.504959e+3, 2.4545541e+2, -681494.0, -599897.5, 44863.883, 0.065700695, -0.11305737, -580055.25, -45523.97, 0.0, 9.998994, 10.000062 
2.504897e+3, 2.5545618e+2, -790940.2, -608868.1, 38500.273, 0.021380637, -0.024692683, -601061.7, -164538.53, 0.0, 9.997599, 10.000002 
2.5048348e+3, 2.6545632e+2, -800008.06, -522644.94, 24541.168, -0.012337739, -0.005412191, -520490.25, -181968.22, 0.0, 9.996694, 10.000356 
2.5047728e+3, 2.7545598e+2, -778147.94, -462379.97, 43379.402, -0.021406228, -0.05728872, -456529.03, -216002.13, 0.0, 9.996173, 10.000349 
2.5047114e+3, 2.8545675e+2, -682450.8, -212470.38, 32937.477, 0.026801234, -0.06570121, -210173.27, -67654.06, 0.0, 9.9955, 10.001716 
2.5046498e+3, 2.954587e+2, -717068.25, -195002.17, 16357.401, 0.088162586, -0.022192214, -194490.17, -149991.92, 0.0, 9.994659, 10.00157 
2.5045875e+3, 3.0545872e+2, -744192.56, -158217.53, 15458.869, 0.051607247, -0.1694623, -157809.98, -157809.98, 0.0, 9.994029, 10.001791 
2.504524e+3, 3.1546232e+2, -715564.56, 32843.785, -70206.55, -0.08328248, 0.031046096, 39372.75, 39372.75, 0.0, 9.993465, 10.003372 
2.5157118e+3, 1.2554549e+2, -1096825.0, -1753805.1, -6303.9707, 0.06735605, -0.17200392, -1096764.5, 612880.06, 0.33143678, 10.008418, 9.995674 
2.515648e+3, 1.3554277e+2, -1024051.6, -1736847.5, -40073.59, 0.0067822724, 0.008454047, -1021805.75, 589870.0, 0.23455729, 10.007434, 9.9956 
2.5155845e+3, 1.4553939e+2, -863433.8, -1468691.9, -46270.45, 0.0035278394, 0.04774024, -859917.0, 653793.44, 0.13787182, 10.006549, 9.997235 
2.5155222e+3, 1.555356e+2, -821963.6, -1435514.0, -38357.777, 0.08917746, -0.036999177, -819574.9, 596171.8, 0.06172277, 10.005772, 9.997119 
2.5154594e+3, 1.6553251e+2, -766861.6, -1325217.0, -23762.303, 0.089574695, -0.054626886, -765852.2, 551924.4, 0.01827175, 10.005082, 9.997532 
2.5153956e+3, 1.7553015e+2, -758249.9, -1285169.0, -19987.58, 0.010779431, -0.02477688, -757492.8, 462307.2, 0.0025707074, 10.00445, 9.997441 
2.5153324e+3, 1.8552762e+2, -725486.0, -1153609.5, -14344.419, -0.010369661, -0.03033356, -725005.94, 396818.25, 0.000057126792, 10.003712, 9.998027 
2.5152698e+3, 1.9552508e+2, -757181.4, -1129020.8, -4546.7017, 0.016324824, -0.06584215, -757125.8, 266721.66, 0.0, 10.002865, 9.997932 
2.515207e+3, 2.0552287e+2, -735187.1, -994350.7, -1782.8455, 0.008508188, -0.09369064, -735174.9, 190693.95, 0.0, 10.002029, 9.998584 
2.5151438e+3, 2.15521e+2, -765964.94, -967187.75, -6378.513, -0.02957667, -0.119506784, -765762.94, 62124.35, 0.0, 10.001181, 9.998509 
2.5150818e+3, 2.2552001e+2, -716165.6, -816136.2, 8719.528, -0.0038025514, -0.08157156, -715410.75, 14487.144, 0.0, 10.000522, 9.99919 
2.5150204e+3, 2.3551983e+2, -698746.25, -763183.56, 16493.576, 0.07520856, -0.0012887621, -694769.9, -62868.426, 0.0, 9.999992, 9.999136 
2.514958e+3, 2.4551915e+2, -694261.94, -627691.1, -9579.354, 0.09426597, 0.0011515013, -626340.1, -92431.836, 0.0, 9.998996, 9.999872 
2.514895e+3, 2.5551823e+2, -802416.5, -632957.7, -14378.494, 0.054801222, -0.0581261, -631746.3, -195830.05, 0.0, 9.997596, 9.99984 
2.514832e+3, 2.6551813e+2, -763740.94, -445892.47, 2937.3828, 0.030195089, -0.08704691, -445865.3, -107948.41, 0.0, 9.996682, 10.00089 
2.5147694e+3, 2.755187e+2, -743253.56, -391908.66, 23615.313, 0.03928855, -0.10210233, -390328.47, -150417.13, 0.0, 9.996177, 10.0008335 
2.5147066e+3, 2.8551978e+2, -711847.0, -276584.56, -113.38833, -0.0013477472, -0.07569754, -276584.53, -134683.55, 0.0, 9.995508, 10.001274 
2.514642e+3, 2.955216e+2, -741591.56, -250817.39, -15346.812, -0.14825574, -0.003746209, -250337.95, -206453.75, 0.0, 9.994676, 10.001181 
2.5145823e+3, 3.0552253e+2, -739969.56, -156509.17, -3957.981, 0.1486442, -0.03971838, -156482.31, -156482.31, 0.0, 9.994054, 10.001794 
2.5145176e+3, 3.155235e+2, -721382.8, 17415.842, -38693.055, -0.056262318, -0.10263866, 19436.781, 19436.781, 0.0, 9.993491, 10.003248 
2.525719e+3, 1.2560904e+2, -1101916.5, -1756859.5, -11322.239, 0.035456195, -0.11918604, -1101720.9, 607304.44, 0.30732697, 10.008078, 9.995818 
2.5256556e+3, 1.3560595e+2, -990341.6, -1709675.6, 12853.293, 0.043189008, 0.01278275, -990112.06, 620946.75, 0.21633542, 10.007539, 9.995732 
2.5255913e+3, 1.4560258e+2, -834073.44, -1459720.4, 24279.83, 0.03646366, 0.05056713, -833132.6, 679960.44, 0.12601331, 10.006723, 9.997211 
2.5255275e+3, 1.555991e+2, -828158.7, -1440877.0, 10929.524, 0.062497795, 0.001773636, -827963.8, 587163.06, 0.05551893, 10.005704, 9.99711 
2.5254637e+3, 1.6559607e+2, -783462.2, -1319928.1, 26714.47, 0.06301216, -0.017709864, -782135.1, 535021.0, 0.01594807, 10.004899, 9.997655 
2.5254e+3, 1.7559351e+2, -775466.0, -1278860.8, 31662.723, 0.03351273, -0.018678809, -773482.25, 445698.16, 0.0021091362, 10.004269, 9.997569 
2.525336e+3, 1.8559097e+2, -756004.56, -1167716.6, 21280.643, 0.019674478, -0.028684543, -754907.56, 366296.8, 0.000040602106, 10.003504, 9.998027 
2.5252724e+3, 1.9558859e+2, -790056.94, -1143398.1, 13717.94, 0.022125615, -0.047646485, -789525.1, 233701.5, 0.0, 10.002637, 9.997941 
2.5252086e+3, 2.0558634e+2, -754245.25, -996575.75, 24246.613, 0.011446184, -0.080641665, -751843.06, 173405.05, 0.0, 10.001873, 9.998642 
2.525145e+3, 2.1558428e+2, -759399.7, -955724.5, 36757.254, -0.009510041, -0.13092825, -752743.44, 74524.53, 0.0, 10.001194, 9.998579 
2.525082e+3, 2.255834e+2, -721054.94, -797327.0, 62404.145, 0.0033825892, -0.094611496, -686056.6, 43220.418, 0.0, 10.0004015, 9.999374 
2.5250196e+3, 2.3558359e+2, -755382.56, -770524.94, 67332.54, 0.0508499, 0.007818298, -695196.9, -63920.613, 0.0, 9.999522, 9.9993105 
2.5249565e+3, 2.4558298e+2, -725073.7, -644555.7, 38504.22, 0.07236857, 0.010608529, -629106.9, -95824.266, 0.0, 9.998798, 9.999849 
2.5248927e+3, 2.555818e+2, -718388.25, -594350.3, 45115.97, 0.062211845, -0.07180329, -579676.4, -144382.48, 0.0, 9.998186, 9.999817 
2.524829e+3, 2.655817e+2, -668997.8, -401613.56, 53329.266, 0.047565542, -0.09801861, -391369.6, -54074.66, 0.0, 9.997345, 10.000871 
2.5247657e+3, 2.7558252e+2, -727400.2, -386923.38, 30146.488, 0.06206851, -0.08367899, -384274.75, -144987.89, 0.0, 9.996304, 10.000804 
2.524702e+3, 2.8558362e+2, -706333.4, -289181.13, 5138.1, 0.011599775, -0.04619732, -289117.88, -147841.4, 0.0, 9.995618, 10.001131 
2.5246364e+3, 2.955851e+2, -679642.9, -232850.66, 10856.234, -0.17499973, 0.008547025, -232587.03, -189324.05, 0.0, 9.995158, 10.001068 
2.5245756e+3, 3.0558622e+2, -700396.8, -103573.07, 35131.297, 0.09580841, -0.021155398, -101512.23, -101512.23, 0.0, 9.994186, 10.00209 
2.5245103e+3, 3.1558856e+2, -813935.06, -69003.336, 49490.45, -0.092724375, 0.028423063, -65729.766, -65729.766, 0.0, 9.993044, 10.002867 
2.535727e+3, 1.2567407e+2, -1026385.5, -1630220.1, -23149.55, 0.01451124, 0.05522617, -1025499.3, 682894.56, 0.28316724, 10.00808, 9.996894 
2.5356635e+3, 1.3566919e+2, -930518.25, -1579411.8, -1168.5848, 0.12737691, -0.09923438, -930516.1, 679921.56, 0.19824472, 10.007451, 9.996721 
2.5355983e+3, 1.456656e+2, -858212.9, -1515093.9, -9492.751, 0.09382079, -0.109129325, -858075.7, 654397.0, 0.114394754, 10.006653, 9.996816 
2.535532e+3, 1.5566312e+2, -848942.6, -1493867.6, -23004.537, -0.0074606175, -0.01950414, -848123.1, 566376.8, 0.049563896, 10.005697, 9.996752 
2.5354677e+3, 1.6566047e+2, -771410.9, -1299974.5, 5009.4927, -0.007112294, 0.010392822, -771363.4, 545162.56, 0.013794361, 10.004907, 9.997792 
2.5354043e+3, 1.7565788e+2, -771190.3, -1265452.9, 8982.335, 0.061655086, -0.007515738, -771027.1, 447522.44, 0.001709121, 10.004244, 9.997676 
2.53534e+3, 1.8565519e+2, -774257.0, -1202387.3, -10016.455, 0.07442332, -0.02602701, -774022.8, 346552.7, 0.000027822789, 10.003486, 9.997799 
2.5352752e+3, 1.9565256e+2, -804205.6, -1171383.5, -15939.691, 0.044744186, -0.05068115, -803514.94, 219087.17, 0.0, 10.002627, 9.997755 
2.5352105e+3, 2.0565069e+2, -733007.0, -954741.75, 200.0231, 0.041943703, -0.052785125, -733006.8, 191613.2, 0.0, 10.001879, 9.998929 
2.5351468e+3, 2.156495e+2, -739955.56, -916354.94, 13068.021, 0.055436116, -0.04151759, -738992.7, 87637.36, 0.0, 10.001195, 9.998851 
2.5350824e+3, 2.2564836e+2, -710449.75, -776439.94, 30188.854, 0.031930387, -0.05346147, -698723.0, 29917.404, 0.0, 10.000402, 9.999518 
2.5350183e+3, 2.3564735e+2, -745983.56, -751334.5, 34733.938, -0.013786444, -0.0852531, -713822.2, -83172.55, 0.0, 9.999519, 9.999446 
2.5349542e+3, 2.4564688e+2, -714778.0, -624929.9, 14352.924, -0.003998923, -0.08227959, -622692.75, -90038.0, 0.0, 9.998802, 9.999984 
2.5348905e+3, 2.5564685e+2, -709069.1, -580053.5, 21395.42, 0.033228178, -0.061267212, -576597.94, -141942.06, 0.0, 9.998204, 9.999908 
2.5348258e+3, 2.65647e+2, -710805.56, -493309.88, 12619.793, 0.03670589, -0.0318377, -492580.1, -155923.98, 0.0, 9.997361, 10.0002365 
2.5347617e+3, 2.7564743e+2, -766252.2, -471919.7, -8845.441, 0.045510467, 0.0071343766, -471654.1, -233000.2, 0.0, 9.996317, 10.000216 
2.534698e+3, 2.8564817e+2, -693291.0, -265098.9, -14547.066, 0.065116614, 0.023373954, -264605.25, -123958.45, 0.0, 9.995626, 10.001294 
2.534633e+3, 2.95649e+2, -662880.7, -205337.97, -10453.0205, 0.00071862555, -0.003818879, -205099.3, -162462.14, 0.0, 9.995186, 10.001246 
2.5345677e+3, 3.056498e+2, -658526.3, -15033.753, -18188.697, -0.09004387, -0.1037907, -14520.049, -14520.049, 0.0, 9.994175, 10.002706 
2.534503e+3, 3.1565508e+2, -876052.25, -226144.89, 67680.734, -0.097003855, 0.18549797, -219171.5, -219171.5, 0.0, 9.993121, 10.001773 
2.5457352e+3, 1.257395e+2, -914111.75, -1569810.0, 22057.58, 0.021222264, 0.09046265, -913370.56, 794385.0, 0.25933394, 10.008823, 9.997073 
2.5456706e+3, 1.3573469e+2, -1005918.94, -1604756.6, 4675.426, 0.1463402, -0.07335085, -1005882.44, 603914.9, 0.1805262, 10.006603, 9.996908 
2.5456044e+3, 1.4573094e+2, -982625.8, -1602559.0, 18848.314, 0.104797475, -0.1009954, -982053.25, 529780.1, 0.10314252, 10.005711, 9.996667 
2.5455377e+3, 1.557281e+2, -836300.1, -1502575.6, 19324.447, -0.018351981, -0.031141896, -835740.06, 578124.0, 0.04390348, 10.005827, 9.996628 
2.5454724e+3, 1.6572547e+2, -732126.25, -1276796.8, 31949.398, -0.022631116, 0.00345472, -730258.56, 585631.56, 0.01181627, 10.0051565, 9.99783 
2.545408e+3, 1.7572312e+2, -819175.0, -1283849.9, 29070.148, 0.056156415, 0.007922175, -817363.44, 400547.94, 0.001366848, 10.003895, 9.997716 
2.545343e+3, 1.8572047e+2, -814088.4, -1210135.1, 34197.527, 0.07437733, -0.012430485, -811157.25, 308779.56, 0.000018404051, 10.003166, 9.997897 
2.5452775e+3, 1.957177e+2, -765426.1, -1140623.5, 48594.098, 0.049653307, -0.056417316, -759234.56, 262729.84, 0.0, 10.002847, 9.997859 
2.5452125e+3, 2.0571603e+2, -676152.25, -921210.3, 59759.953, 0.052720357, -0.045005627, -662355.9, 261624.7, 0.0, 10.002248, 9.998979 
2.5451478e+3, 2.1571529e+2, -700450.25, -890090.0, 52848.164, 0.076483555, 0.0047332095, -686717.2, 139269.7, 0.0, 10.00144, 9.998911 
2.545083e+3, 2.2571409e+2, -705445.9, -763763.3, 50280.668, 0.051505033, -0.018357709, -676480.8, 51516.605, 0.0, 10.000398, 9.999605 
2.5450176e+3, 2.3571265e+2, -791058.9, -762967.75, 51855.5, -0.0047523933, -0.10142442, -723289.3, -93279.22, 0.0, 9.999173, 9.999529 
2.5449526e+3, 2.4571219e+2, -774680.2, -651630.0, 44284.17, -0.01601089, -0.1007654, -637349.9, -105334.97, 0.0, 9.998387, 9.999998 
2.5448877e+3, 2.5571257e+2, -752067.25, -600115.3, 39768.63, -0.00008281007, -0.04150482, -590336.44, -156323.58, 0.0, 9.997911, 9.99991 
2.5448227e+3, 2.6571277e+2, -696554.56, -497320.78, 44264.535, 0.0026098148, 0.00017575444, -487929.06, -151916.44, 0.0, 9.997512, 10.000134 
2.544758e+3, 2.75713e+2, -655672.25, -429601.8, 60561.113, 0.023526765, 0.029059088, -414400.5, -176388.08, 0.0, 9.997129, 10.000113 
2.5446934e+3, 2.857135e+2, -655399.0, -248381.38, 50388.59, 0.060106955, 0.034254383, -242236.08, -102229.195, 0.0, 9.995898, 10.001275 
2.5446278e+3, 2.9571423e+2, -829356.75, -288722.63, 41864.086, 0.03506659, 0.00089119654, -285500.1, -243502.3, 0.0, 9.994061, 10.001213 
2.5445613e+3, 3.0571464e+2, -717534.8, -69845.79, 13371.126, -0.11913157, -0.123195715, -69569.87, -69569.87, 0.0, 9.993895, 10.002459 
2.544497e+3, 3.1571794e+2, -739226.5, -192714.52, 17615.203, -0.063247465, -0.011462676, -192147.33, -192147.33, 0.0, 9.994215, 10.001467 
2.555744e+3, 1.2580541e+2, -935642.7, -1629022.1, -41828.375, 0.034993388, 0.029171675, -933128.5, 773982.1, 0.23608501, 10.008642, 9.996585 
2.5556764e+3, 1.358021e+2, -1013796.94, -1667657.6, -57157.965, 0.10483072, 0.06435225, -1008838.06, 600302.5, 0.16334923, 10.006651, 9.996454 
2.5556096e+3, 1.4579819e+2, -963032.75, -1592197.8, 24799.025, 0.07420351, 0.03825357, -962056.8, 549121.5, 0.09234715, 10.00579, 9.996703 
2.5555438e+3, 1.5579394e+2, -835103.7, -1500343.8, 22710.92, 0.01561156, -0.03729986, -834329.25, 578891.2, 0.038570285, 10.005793, 9.996662 
2.5554776e+3, 1.6579099e+2, -742326.56, -1289694.5, -12487.193, 0.0029586465, -0.031811483, -742041.8, 573207.2, 0.010016409, 10.005108, 9.997765 
2.5554115e+3, 1.7578912e+2, -822159.25, -1289592.8, -13193.301, 0.014823623, 0.02883896, -821787.1, 395479.2, 0.001078042, 10.003889, 9.997681 
2.5553456e+3, 1.857867e+2, -786353.4, -1156178.5, 23712.592, 0.024812004, 0.0109914085, -784839.2, 334450.0, 0.000011845724, 10.003178, 9.998265 
2.55528e+3, 1.9578399e+2, -744137.75, -1093846.9, 36729.344, 0.033604514, -0.065868795, -740321.75, 280992.88, 0.0, 10.002831, 9.998189 
2.5552145e+3, 2.0578232e+2, -691583.5, -950860.06, 29994.691, 0.043338988, -0.056095447, -688158.75, 235172.05, 0.0, 10.002233, 9.998785 
2.555149e+3, 2.1578158e+2, -715542.8, -916697.0, 23017.48, 0.050739832, 0.012689055, -712942.56, 112396.26, 0.0, 10.001415, 9.998742 
2.5550833e+3, 2.2578056e+2, -704668.56, -761092.1, 4910.7046, 0.060511008, 0.014096348, -704244.3, 23103.986, 0.0, 10.00039, 9.99963 
2.5550175e+3, 2.3577943e+2, -789550.1, -761486.2, 8335.307, 0.07166699, -0.04020384, -759197.2, -129839.23, 0.0, 9.999176, 9.99954 
2.5549513e+3, 2.4577884e+2, -782573.3, -670304.75, 25046.895, 0.034573894, -0.045709506, -664970.3, -133606.33, 0.0, 9.998393, 9.999869 
2.554885e+3, 2.5577882e+2, -757449.75, -613767.75, 21623.602, -0.043900542, -0.015039318, -610584.0, -177218.13, 0.0, 9.997917, 9.999816 
2.5548196e+3, 2.6577887e+2, -663681.8, -431935.25, 29390.105, -0.061539706, -0.0050697117, -428266.1, -92900.81, 0.0, 9.99752, 10.000581 
2.5547546e+3, 2.7577907e+2, -621671.6, -368190.1, 42477.66, -0.019957708, -0.022014359, -361261.22, -123898.69, 0.0, 9.997165, 10.000519 
2.5546885e+3, 2.8577965e+2, -670222.8, -281497.63, -21162.117, -0.008990892, -0.01938826, -280348.97, -140992.27, 0.0, 9.995903, 10.001049 
2.5546205e+3, 2.957809e+2, -858142.2, -338338.22, -14926.301, -0.07012241, 0.020128628, -337909.94, -296565.06, 0.0, 9.994014, 10.000898 
2.5545558e+3, 3.0578074e+2, -824525.44, -295989.44, 45116.113, -0.0128208175, -0.06179391, -292165.97, -292165.97, 0.0, 9.993907, 10.000903 
2.554492e+3, 3.1578022e+2, -592488.8, 108321.766, -136221.84, 0.044533912, -0.18357122, 133868.94, 133868.94, 0.0, 9.994241, 10.003518 
2.5657523e+3, 1.258725e+2, -1103216.8, -1755864.6, -20571.074, 0.07928985, 0.015176923, -1102569.0, 603883.94, 0.21361247, 10.007114, 9.996293 
2.5656834e+3, 1.3586943e+2, -875765.06, -1622159.1, -24094.363, 0.06857669, 0.10306733, -874988.06, 733495.1, 0.14684185, 10.007784, 9.996216 
2.5656155e+3, 1.4586557e+2, -778540.4, -1483122.8, 58392.113, 0.04761998, 0.088809304, -773733.94, 736786.3, 0.08207969, 10.0070505, 9.9968605 
2.5655496e+3, 1.5586126e+2, -890788.94, -1513776.4, 64786.86, 0.062301155, -0.0068749245, -884122.8, 528438.56, 0.033591308, 10.005309, 9.996803 
2.5654826e+3, 1.6585809e+2, -852599.06, -1354236.9, 38488.81, 0.044500854, -0.0233146, -849663.2, 464928.53, 0.008395674, 10.004386, 9.997667 
2.565415e+3, 1.758559e+2, -802593.94, -1287301.4, 36188.313, -0.0034692213, 0.015024114, -799907.0, 416705.84, 0.00083739386, 10.004057, 9.997614 
2.5653484e+3, 1.8585368e+2, -742653.6, -1115562.3, 69194.96, -0.0032279612, 0.011417848, -730228.2, 388405.78, 0.000007464854, 10.003399, 9.998436 
2.5652826e+3, 1.958515e+2, -780670.4, -1093688.8, 66707.8, 0.03476535, -0.025421688, -767047.06, 253606.8, 0.0, 10.002507, 9.998345 
2.5652164e+3, 2.058498e+2, -782434.1, -996413.1, 53531.723, 0.041965097, -0.02606087, -769789.2, 152881.3, 0.0, 10.001623, 9.998763 
2.5651497e+3, 2.1584855e+2, -814272.06, -966038.25, 56246.67, 0.026488574, -0.003800677, -795699.2, 28984.324, 0.0, 10.00075, 9.998721 
2.565083e+3, 2.258476e+2, -740165.94, -775196.3, 45163.6, 0.04328955, 0.0042364667, -709240.06, 17452.563, 0.0, 10.000138, 9.999652 
2.5650167e+3, 2.3584694e+2, -710612.94, -720235.75, 48741.26, 0.088155426, -0.0035563316, -666446.2, -37748.227, 0.0, 9.99971, 9.999563 
2.56495e+3, 2.4584638e+2, -685662.44, -622385.1, 78532.23, 0.057244554, -0.007093052, -569357.9, -38654.34, 0.0, 9.999059, 9.999875 
2.564883e+3, 2.55846e+2, -710319.06, -587995.9, 83551.42, -0.033616766, -0.0076726736, -545612.4, -112904.484, 0.0, 9.998233, 9.999838 
2.5648168e+3, 2.6584595e+2, -707917.3, -429312.94, 78425.96, -0.067684844, -0.021715686, -408753.53, -74046.06, 0.0, 9.997119, 10.00079 
2.5647506e+3, 2.7584615e+2, -812104.4, -440198.34, 70960.47, -0.04043091, -0.059277155, -427118.94, -190415.5, 0.0, 9.995777, 10.00069 
2.5646836e+3, 2.858467e+2, -731823.56, -331852.44, 5634.6743, -0.03267705, -0.054683737, -331773.06, -193075.13, 0.0, 9.995576, 10.000858 
2.5646153e+3, 2.9584795e+2, -572872.4, -225000.28, 14406.102, -0.0826053, 0.010224428, -224404.7, -183717.75, 0.0, 9.996081, 10.000677 
2.5645506e+3, 3.058477e+2, -743166.7, -309756.2, 126317.68, 0.061784774, -0.0464684, -275628.2, -275628.2, 0.0, 9.994695, 10.00043 
2.5644857e+3, 3.1584778e+2, -747537.3, 190401.0, -51334.32, 0.09107369, -0.06737328, 193202.22, 193202.22, 0.0, 9.992508, 10.004915 
2.5757596e+3, 1.2594049e+2, -1099010.6, -1772632.9, -1867.1085, 0.1354296, 0.03156294, -1099005.4, 606780.4, 0.19212666, 10.007061, 9.996199 
2.5756904e+3, 1.3593677e+2, -881423.6, -1643303.1, -6247.2144, 0.02960834, 0.065440476, -881372.4, 726451.9, 0.13114022, 10.007677, 9.996121 
2.5756222e+3, 1.4593323e+2, -766751.06, -1457619.5, -758.01855, 0.019281365, 0.07394007, -766750.25, 743108.25, 0.072412714, 10.0069685, 9.997088 
2.575555e+3, 1.5592991e+2, -876302.8, -1486150.6, 6728.956, 0.1137827, 0.055473, -876228.6, 535660.25, 0.028993, 10.005297, 9.997 
2.5754872e+3, 1.6592656e+2, -859980.2, -1373743.1, 27319.852, 0.096212536, 0.019297395, -858531.56, 455389.13, 0.0069545093, 10.004394, 9.997532 
2.5754187e+3, 1.7592338e+2, -813812.2, -1305731.4, 23654.75, -0.007903382, -0.030065143, -812677.3, 403274.5, 0.00063967664, 10.004032, 9.997501 
2.5753513e+3, 1.8592133e+2, -746956.5, -1120580.6, 37099.15, -0.014728336, -0.0068854615, -743308.3, 374663.38, 0.0000046197197, 10.003378, 9.998413 
2.5752848e+3, 1.9592021e+2, -783730.44, -1096803.1, 35253.816, 0.046251677, 0.06328935, -779809.75, 240172.8, 0.0, 10.00249, 9.998333 
2.5752178e+3, 2.0591837e+2, -774547.25, -981205.75, 21553.568, 0.04484297, 0.042069696, -772323.25, 149677.08, 0.0, 10.001623, 9.998869 
2.5751498e+3, 2.1591613e+2, -807512.6, -951978.1, 26770.135, -0.0038465029, -0.046199244, -802711.56, 21310.13, 0.0, 10.000746, 9.998822 
2.5750825e+3, 2.2591512e+2, -739139.9, -774662.2, 29959.027, -0.001554132, -0.046771824, -722072.9, 3958.0696, 0.0, 10.00014, 9.999658 
2.5750157e+3, 2.359151e+2, -709510.94, -718196.44, 31684.469, 0.03937613, 0.008762282, -681873.0, -53842.383, 0.0, 9.999707, 9.999581 
2.5749487e+3, 2.4591471e+2, -675897.9, -603284.4, 46482.855, 0.049469903, 0.0149185, -580609.44, -50575.484, 0.0, 9.999062, 10.000007 
2.5748816e+3, 2.5591418e+2, -698664.2, -568474.6, 50783.01, 0.025635226, -0.01679008, -551008.9, -118969.97, 0.0, 9.998249, 9.999966 
2.574814e+3, 2.6591393e+2, -712415.44, -439228.0, 25813.145, -0.013018413, -0.050542716, -436810.34, -102770.8, 0.0, 9.997115, 10.000727 
2.5747463e+3, 2.7591407e+2, -822313.3, -455346.25, 26591.586, -0.039238654, -0.08727781, -453429.34, -217393.28, 0.0, 9.995747, 10.000605 
2.5746793e+3, 2.8591463e+2, -744744.0, -360117.3, 27645.832, -0.013308448, -0.068768434, -358140.38, -220109.5, 0.0, 9.995578, 10.000665 
2.5746122e+3, 2.9591563e+2, -562198.3, -228741.08, 23098.746, -0.011352823, -0.015338612, -227148.61, -187125.3, 0.0, 9.996188, 10.000603 
2.574546e+3, 3.059155e+2, -661418.25, -149617.75, 25478.834, 0.12462411, -0.11037036, -148352.47, -148352.47, 0.0, 9.99473, 10.001514 
2.574476e+3, 3.159185e+2, -862306.2, -29104.17, -78317.25, -0.09259369, 0.06402408, -21806.615, -21806.615, 0.0, 9.99242, 10.003452 
2.5857666e+3, 1.2600884e+2, -1042655.8, -1735533.8, 31439.531, 0.1335307, 0.025988325, -1041232.2, 663881.8, 0.1718448, 10.007334, 9.996331 
2.5856972e+3, 1.3600472e+2, -1007773.94, -1703037.4, 35990.543, 0.03158804, 0.00685551, -1005915.8, 601241.06, 0.11638696, 10.006529, 9.996267 
2.585628e+3, 1.460014e+2, -900823.06, -1513722.8, 17200.7, 0.01199696, 0.02721645, -900340.7, 608848.6, 0.063417606, 10.005881, 9.997197 
2.5855598e+3, 1.5599877e+2, -856661.25, -1464692.1, 18404.148, 0.08929698, 0.06666807, -856104.7, 555108.9, 0.024796762, 10.005367, 9.997111 
2.5854912e+3, 1.6599555e+2, -827494.06, -1352646.4, 57188.223, 0.08344717, 0.038136356, -821338.5, 491905.66, 0.005690907, 10.004593, 9.99758 
2.5854224e+3, 1.7599213e+2, -866945.75, -1326135.0, 64630.176, 0.012423114, -0.0383664, -858022.56, 357254.94, 0.00048003742, 10.003646, 9.997547 
2.5853544e+3, 1.8599007e+2, -814647.4, -1154605.4, 80432.26, 0.0102703, -0.017931031, -796577.94, 320720.06, 0.0000028007903, 10.002923, 9.998398 
2.5852874e+3, 1.9598906e+2, -803569.8, -1106049.4, 76331.97, 0.058037654, 0.06658897, -785398.75, 233909.67, 0.0, 10.002356, 9.998334 
2.585219e+3, 2.0598733e+2, -747610.6, -950069.25, 64823.414, 0.047333498, 0.050285723, -728634.06, 192690.6, 0.0, 10.001735, 9.999027 
2.5851506e+3, 2.1598521e+2, -749084.6, -906951.6, 72673.8, -0.003184956, -0.039737552, -720724.25, 102619.68, 0.0, 10.0010805, 9.998967 
2.5850827e+3, 2.2598416e+2, -722573.8, -773940.1, 78331.37, -0.011573114, -0.047812384, -665822.56, 59531.176, 0.0, 10.000293, 9.999585 
2.5850147e+3, 2.3598397e+2, -758008.0, -748546.8, 73576.53, 0.014268337, -0.001266266, -679548.94, -52193.152, 0.0, 9.99941, 9.999515 
2.5849473e+3, 2.4598357e+2, -746897.75, -634642.94, 75966.39, 0.031688023, 0.0066305567, -596318.3, -66959.125, 0.0, 9.998565, 10.000029 
2.5848794e+3, 2.559831e+2, -773698.5, -602450.3, 70670.74, 0.034828752, -0.018105801, -577052.6, -145689.92, 0.0, 9.99773, 9.99998 
2.5848112e+3, 2.6598278e+2, -691646.4, -445741.97, 40088.543, 0.0073233773, -0.05196746, -439371.56, -106007.31, 0.0, 9.997336, 10.000572 
2.5847426e+3, 2.7598277e+2, -623134.25, -374390.97, 34506.19, -0.0109281335, -0.09065082, -369692.94, -134329.94, 0.0, 9.997184, 10.000465 
2.584675e+3, 2.8598326e+2, -644331.6, -305629.16, 57788.266, 0.014999867, -0.07095972, -296040.94, -158682.81, 0.0, 9.9962435, 10.000717 
2.5846073e+3, 2.9598418e+2, -758630.3, -311114.13, 65902.664, -0.003732007, -0.027014103, -301610.88, -262260.1, 0.0, 9.994789, 10.0007105 
2.58454e+3, 3.0598485e+2, -708541.25, -102274.35, 12500.025, 0.12269723, -0.08353651, -102016.734, -102016.734, 0.0, 9.994109, 10.002137 
2.584468e+3, 3.159877e+2, -755912.3, -88771.35, -45399.01, -0.17350069, 0.017616889, -85696.125, -85696.125, 0.0, 9.993636, 10.002453 
2.595773e+3, 1.2607764e+2, -1015879.4, -1695348.0, 6563.61, 0.07488256, 0.009717055, -1015816.0, 688621.1, 0.15290427, 10.007286, 9.996633 
2.595704e+3, 1.3607322e+2, -986478.2, -1666735.3, 10150.147, 0.05841016, -0.0704402, -986326.8, 620155.4, 0.10268297, 10.006492, 9.996532 
2.5956342e+3, 1.4607005e+2, -899105.2, -1515705.4, -1173.9313, 0.016636532, -0.04715194, -899103.0, 609410.8, 0.055147275, 10.005851, 9.997201 
2.595564e+3, 1.5606788e+2, -858969.7, -1463688.6, -95.08575, -0.0044758962, 0.036437172, -858969.7, 551565.75, 0.021015935, 10.005319, 9.997144 
2.595495e+3, 1.660651e+2, -817980.4, -1327805.4, 23419.742, 0.0154719, 0.038806405, -816906.8, 495655.38, 0.0045998143, 10.004562, 9.9977665 
2.595426e+3, 1.7606209e+2, -858258.2, -1305027.0, 32272.578, 0.051647842, -0.013119625, -855939.0, 358651.9, 0.00035365307, 10.003629, 9.997702 
2.5953576e+3, 1.8605977e+2, -818948.94, -1162469.6, 59890.688, 0.063578375, -0.02356823, -808806.8, 307807.16, 0.0000016193491, 10.002914, 9.99835 
2.5952896e+3, 1.9605802e+2, -807811.75, -1109935.9, 55683.79, 0.060756613, -0.009331503, -797875.6, 220756.22, 0.0, 10.002331, 9.998321 
2.5952208e+3, 2.060567e+2, -735217.75, -922716.8, 40885.15, 0.04715552, 0.004909572, -726690.3, 193953.58, 0.0, 10.001724, 9.999223 
2.5951517e+3, 2.1605577e+2, -740049.3, -885151.25, 48989.277, 0.023061397, 0.014050064, -725058.3, 97592.77, 0.0, 10.001063, 9.999127 
2.5950828e+3, 2.2605462e+2, -735184.7, -799203.5, 45607.953, 0.008837598, -0.0006977818, -711474.4, 13187.633, 0.0, 10.000286, 9.999416 
2.595014e+3, 2.3605347e+2, -769167.9, -772769.1, 40705.86, 0.004107144, -0.03389562, -730222.8, -103548.72, 0.0, 9.99941, 9.99935 
2.594945e+3, 2.4605286e+2, -754254.94, -650822.25, 43252.51, 0.00032851915, -0.03253465, -635119.3, -106439.55, 0.0, 9.998565, 9.99992 
2.5948766e+3, 2.5605273e+2, -782642.25, -621866.06, 41323.566, -0.01604065, -0.011865426, -611866.75, -181186.73, 0.0, 9.99773, 9.999849 
2.594808e+3, 2.6605245e+2, -709261.56, -484612.0, 34468.49, -0.012908479, -0.023679726, -479442.38, -146760.27, 0.0, 9.997343, 10.000303 
2.59474e+3, 2.7605215e+2, -629685.5, -400373.13, 23475.701, 0.03724279, -0.06086858, -397994.5, -163310.05, 0.0, 9.997233, 10.000265 
2.5946715e+3, 2.8605258e+2, -616890.6, -254816.52, -1566.6873, 0.053712595, -0.060546275, -254809.73, -118129.46, 0.0, 9.996264, 10.00106 
2.5946012e+3, 2.9605365e+2, -744021.1, -268815.63, 16701.104, -0.06322797, -0.032761637, -268229.38, -229559.31, 0.0, 9.994733, 10.001031 
2.5945327e+3, 3.0605608e+2, -713694.3, -105287.89, 3930.661, 0.007128186, 0.06918088, -105262.5, -105262.5, 0.0, 9.994072, 10.002137 
2.5944632e+3, 3.1605554e+2, -691217.6, 17513.588, 97898.41, -0.014398507, -0.16849639, 30787.861, 30787.861, 0.0, 9.993747, 10.003135 
2.60578e+3, 1.2614715e+2, -974120.3, -1683896.8, 42243.16, 0.060881544, -0.04640401, -971615.0, 732138.75, 0.13532913, 10.007505, 9.996621 
2.60571e+3, 1.3614354e+2, -980071.4, -1663124.6, 30892.973, 0.059658743, -0.042217366, -978677.0, 627114.56, 0.09005818, 10.0064535, 9.996577 
2.6056394e+3, 1.4614044e+2, -923084.6, -1505671.6, 29710.7, 0.015419982, -0.026441695, -921573.3, 586249.4, 0.04762128, 10.005543, 9.997416 
2.6055688e+3, 1.5613782e+2, -925827.56, -1475382.0, 41209.723, -0.016096622, -0.005513019, -922754.5, 487093.7, 0.017653216, 10.004748, 9.997336 
2.6054987e+3, 1.6613522e+2, -888235.2, -1356598.5, 60111.72, 0.0034990667, 0.0041373326, -880643.25, 431230.44, 0.0036735386, 10.004056, 9.997811 
2.6054296e+3, 1.7613275e+2, -884562.6, -1312949.9, 58525.652, 0.048795942, 0.0028370589, -876710.8, 337186.97, 0.0002557826, 10.003431, 9.997741 
2.6053602e+3, 1.8613037e+2, -848885.0, -1179329.8, 87536.54, 0.054968975, -0.012618069, -827128.56, 288792.94, 0.00000086705097, 10.002726, 9.9983225 
2.605291e+3, 1.9612817e+2, -859162.9, -1132663.9, 83803.94, 0.03892192, -0.040149614, -835527.0, 182416.52, 0.0, 10.001976, 9.998333 
2.605222e+3, 2.0612687e+2, -788186.0, -923042.2, 70324.63, 0.038842868, -0.037018698, -758186.7, 161768.22, 0.0, 10.001257, 9.999443 
2.6051524e+3, 2.1612626e+2, -801183.6, -896190.4, 77487.05, 0.04743455, -0.0146482, -757798.0, 64160.08, 0.0, 10.000567, 9.9992895 
2.6050827e+3, 2.2612523e+2, -775169.25, -844733.2, 75837.484, 0.032441437, -0.011734872, -726517.94, -2549.5413, 0.0, 10.000128, 9.99918 
2.6050133e+3, 2.36124e+2, -721726.5, -772352.2, 65189.082, 0.009922935, -0.027192133, -677108.25, -51125.953, 0.0, 9.999838, 9.999144 
2.6049438e+3, 2.4612315e+2, -660451.25, -616565.1, 59212.023, -0.0049084, -0.03484509, -575361.06, -47370.402, 0.0, 9.99926, 9.999818 
2.6048744e+3, 2.561227e+2, -683514.8, -585364.06, 57958.92, -0.025830155, -0.03681063, -558494.56, -128500.61, 0.0, 9.998464, 9.999744 
2.6048052e+3, 2.661225e+2, -678154.9, -477344.7, 70420.9, -0.02304011, -0.02949372, -455110.94, -123115.37, 0.0, 9.997594, 10.000231 
2.6047367e+3, 2.7612257e+2, -716120.2, -446886.78, 71097.82, 0.033612836, -0.024136754, -429265.0, -195269.56, 0.0, 9.996666, 10.0002165 
2.6046675e+3, 2.861227e+2, -626314.3, -240719.22, 26653.781, 0.04889409, -0.054973714, -238885.53, -102892.25, 0.0, 9.996128, 10.001218 
2.6045963e+3, 2.961232e+2, -593982.0, -182989.27, 28208.553, -0.06883869, -0.101706944, -181062.2, -143074.84, 0.0, 9.995713, 10.001143 
2.6045266e+3, 3.0612668e+2, -665705.6, -107739.48, 2023.0929, -0.022554489, 0.11566407, -107732.14, -107732.14, 0.0, 9.994522, 10.001899 
2.604457e+3, 3.161253e+2, -743725.3, 21363.332, 127461.93, 0.056313112, -0.18562043, 42039.426, 42039.426, 0.0, 9.993271, 10.003386 
2.6157874e+3, 1.262173e+2, -986881.8, -1716174.5, 4589.1226, 0.07490852, -0.13011333, -986852.94, 716211.4, 0.119090155, 10.007399, 9.996426 
2.6157162e+3, 1.3621545e+2, -996905.25, -1691253.5, -1458.2769, 0.028620504, 0.06753365, -996902.2, 608184.6, 0.07849621, 10.006335, 9.99644 
2.6156446e+3, 1.4621232e+2, -905159.06, -1465081.1, 3073.4368, 0.0036483516, 0.06765257, -905142.2, 601975.75, 0.04082957, 10.005483, 9.997739 
2.6155737e+3, 1.5620856e+2, -908622.2, -1438872.3, 14209.0625, 0.035356227, -0.057477813, -908241.7, 500911.1, 0.014698646, 10.00473, 9.997599 
2.615503e+3, 1.662059e+2, -895301.56, -1372024.0, 37720.777, 0.033834007, -0.058767933, -892335.3, 418843.7, 0.0029012272, 10.004052, 9.997709 
2.615432e+3, 1.7620407e+2, -892261.7, -1326185.0, 36020.383, 0.0014639145, 0.011932308, -889291.94, 323906.66, 0.00018210539, 10.003416, 9.99766 
2.615362e+3, 1.862018e+2, -849214.5, -1181511.3, 60811.45, -0.010028231, 0.012891064, -838435.44, 276785.75, 0.00000042407203, 10.0027275, 9.998308 
2.6152924e+3, 1.9619942e+2, -858621.25, -1131369.6, 57898.727, -0.0071070353, -0.03169604, -846839.5, 170404.84, 0.0, 10.001971, 9.998346 
2.6152226e+3, 2.0619775e+2, -773702.56, -893426.7, 45089.945, 0.020957464, -0.07621544, -758620.9, 160637.39, 0.0, 10.001255, 9.999649 
2.615153e+3, 2.1619667e+2, -793184.7, -877583.7, 54384.473, 0.060657687, -0.12275219, -766547.6, 54717.57, 0.0, 10.000555, 9.999425 
2.615083e+3, 2.2619593e+2, -796294.25, -890240.2, 65636.52, 0.05582474, -0.077927046, -762554.06, -39280.79, 0.0, 10.000131, 9.998867 
2.6150128e+3, 2.361955e+2, -740924.7, -813815.94, 52374.984, 0.026719056, 0.01787916, -713562.6, -88281.586, 0.0, 9.999841, 9.99886 
2.6149428e+3, 2.4619436e+2, -668073.2, -632985.06, 28237.523, 0.013915852, -0.00085069175, -617285.25, -89992.766, 0.0, 9.999261, 9.999705 
2.6148728e+3, 2.561929e+2, -686676.5, -597007.8, 26748.613, -0.0005989859, -0.09350425, -589634.8, -160329.67, 0.0, 9.998482, 9.999658 
2.6148024e+3, 2.6619288e+2, -668701.94, -460448.44, 33408.67, -0.025045432, -0.07126741, -455220.2, -123914.97, 0.0, 9.997601, 10.000345 
2.6147327e+3, 2.7619392e+2, -710570.3, -434023.03, 39103.016, -0.03190742, 0.021241333, -428600.3, -195304.17, 0.0, 9.996656, 10.000312 
2.614663e+3, 2.861936e+2, -633415.44, -255626.7, 12338.731, -0.012002614, -0.05609747, -255224.14, -119926.47, 0.0, 9.996125, 10.001119 
2.614592e+3, 2.961926e+2, -599386.4, -207745.6, 2883.6436, -0.03863122, -0.24326573, -207724.36, -170419.72, 0.0, 9.995767, 10.00095 
2.614522e+3, 3.0619618e+2, -705713.9, -197117.86, -63377.64, 0.08823408, 0.03352153, -189339.16, -189339.16, 0.0, 9.994545, 10.001277 
2.6144493e+3, 3.1619716e+2, -819327.4, -138521.33, -35329.715, -0.038050354, 0.025621422, -136692.84, -136692.84, 0.0, 9.993257, 10.002309 
2.6257938e+3, 1.2628901e+2, -1024443.25, -1690607.3, -470.31647, 0.05024184, -0.10490621, -1024442.94, 677918.5, 0.10415856, 10.006776, 9.996913 
2.6257217e+3, 1.3628688e+2, -1068498.9, -1683435.9, 31253.662, 0.031051414, 0.01909637, -1066914.5, 537469.9, 0.067964934, 10.005545, 9.996875 
2.6256493e+3, 1.4628385e+2, -985080.1, -1498540.3, 63772.78, 0.00941256, 0.00745047, -977277.94, 529136.0, 0.034742948, 10.004866, 9.997791 
2.625578e+3, 1.5628034e+2, -930416.3, -1444112.4, 57104.027, 0.03454181, -0.095306315, -924145.0, 484301.56, 0.012129447, 10.00455, 9.997646 
2.6255068e+3, 1.6627783e+2, -891940.6, -1369026.1, 76448.516, 0.030644849, -0.08257129, -879989.8, 430481.97, 0.0022679365, 10.004075, 9.997715 
2.6254353e+3, 1.7627609e+2, -877086.7, -1315963.4, 80231.63, -0.0025395125, -0.0020231197, -862879.4, 349611.84, 0.00012834017, 10.003515, 9.997679 
2.6253644e+3, 1.8627387e+2, -837837.06, -1171341.6, 102400.36, -0.0049312697, 0.003047617, -808905.56, 305608.0, 0.00000019125741, 10.002792, 9.998344 
2.6252943e+3, 1.9627154e+2, -857783.94, -1129623.4, 100582.27, 0.015898695, -0.038582947, -824615.06, 191921.14, 0.0, 10.001976, 9.998354 
2.625224e+3, 2.0626982e+2, -772320.2, -918225.2, 77973.79, 0.026532505, -0.07507611, -738492.6, 180058.61, 0.0, 10.001379, 9.999417 
2.625153e+3, 2.162686e+2, -753955.1, -879058.5, 57472.082, 0.032180656, -0.112468936, -731561.2, 88999.29, 0.0, 10.000919, 9.999236 
2.6250827e+3, 2.2626768e+2, -744569.3, -860724.2, 79640.57, 0.036032557, -0.079610385, -704078.94, 18491.129, 0.0, 10.00047, 9.998904 
2.625013e+3, 2.3626709e+2, -715028.8, -799397.0, 88295.91, 0.043144986, -0.003138761, -659357.6, -34779.066, 0.0, 10.000014, 9.998874 
2.624942e+3, 2.4626595e+2, -692279.25, -656114.3, 55365.72, 0.030781792, -0.015979275, -615953.0, -89362.69, 0.0, 9.999147, 9.999599 
2.6248708e+3, 2.5626454e+2, -761383.75, -641236.9, 55127.76, 0.0014898828, -0.09006477, -619775.75, -191172.5, 0.0, 9.998009, 9.999579 
2.6248e+3, 2.662645e+2, -703453.25, -469102.94, 67943.85, -0.03233642, -0.070115924, -450829.25, -120225.59, 0.0, 9.997333, 10.000413 
2.624729e+3, 2.7626544e+2, -675782.4, -411692.63, 69378.16, -0.04426737, 0.008712344, -394575.9, -161981.1, 0.0, 9.996877, 10.000356 
2.6246583e+3, 2.862652e+2, -618468.06, -262258.9, 47557.53, -0.032340355, -0.055535674, -256018.8, -121423.2, 0.0, 9.99629, 10.000992 
2.624587e+3, 2.9626432e+2, -624809.8, -234777.36, 31875.105, -0.058732614, -0.2167913, -232189.56, -195588.08, 0.0, 9.995659, 10.000815 
2.6245168e+3, 3.0626684e+2, -607868.9, -157377.78, -25797.146, 0.10868653, -0.03660669, -155905.34, -155905.34, 0.0, 9.995254, 10.0012045 
2.6244423e+3, 3.1626815e+2, -699084.44, -153319.92, 16520.809, -0.069635406, 0.0036927483, -152820.28, -152820.28, 0.0, 9.994406, 10.001648 
2.6358e+3, 1.2636198e+2, -966552.1, -1567174.0, -38287.71, -0.014409599, -0.003332914, -964121.25, 737526.1, 0.09050494, 10.006669, 9.99789 
2.635727e+3, 1.3635813e+2, -1012202.06, -1568639.1, -6957.035, 0.05239938, -0.14775702, -1012115.06, 591566.94, 0.058427095, 10.005526, 9.997685 
2.6356542e+3, 1.4635527e+2, -990905.44, -1524204.9, 50548.57, 0.024004588, -0.16665122, -986156.5, 519552.34, 0.0293253, 10.004889, 9.997607 
2.635582e+3, 1.5635309e+2, -940127.0, -1466486.5, 43899.098, -0.014361848, -0.11888208, -936490.9, 471239.4, 0.009916482, 10.004543, 9.9974985 
2.6355103e+3, 1.6635086e+2, -888906.0, -1359493.1, 55388.516, -0.0027017638, -0.076821424, -882474.6, 427278.94, 0.0017565395, 10.004057, 9.997791 
2.635439e+3, 1.7634876e+2, -876464.6, -1308310.6, 58365.043, 0.026910855, -0.038716767, -868715.5, 343061.0, 0.0000901775, 10.003485, 9.997747 
2.6353678e+3, 1.8634659e+2, -837880.8, -1167319.3, 71771.586, 0.058365062, -0.036032457, -822923.7, 290875.16, 0.00000008629741, 10.002769, 9.998385 
2.635297e+3, 1.963445e+2, -863520.44, -1137736.9, 72074.516, 0.09202954, -0.057052955, -845730.6, 170089.05, 0.0, 10.001956, 9.99831 
2.635225e+3, 2.0634297e+2, -815338.06, -1009896.56, 61105.188, 0.049190912, -0.035728738, -797738.7, 120095.98, 0.0, 10.001387, 9.998786 
2.635153e+3, 2.1634191e+2, -788420.7, -952315.44, 42209.766, -0.04084215, 0.005871636, -778188.7, 41656.395, 0.0, 10.000922, 9.998734 
2.6350826e+3, 2.2634038e+2, -719957.75, -809877.5, 63722.188, -0.026427269, -0.021617625, -686931.0, 34928.547, 0.0, 10.000469, 9.999255 
2.6350126e+3, 2.3633866e+2, -695198.75, -758189.0, 67904.95, 0.051038336, -0.091419026, -651840.5, -27965.117, 0.0, 10.0000105, 9.999161 
2.634941e+3, 2.4633783e+2, -699899.6, -672158.4, 11388.948, 0.042596597, -0.07885368, -668081.8, -142197.4, 0.0, 9.999145, 9.999493 
2.634868e+3, 2.5633764e+2, -766574.2, -653896.3, 15890.101, -0.028741881, -0.020423992, -651698.3, -223810.19, 0.0, 9.998013, 9.999493 
2.6347965e+3, 2.663373e+2, -703394.06, -469618.88, 50638.168, -0.048060402, -0.02496843, -459121.5, -129230.31, 0.0, 9.997333, 10.000411 
2.6347262e+3, 2.76337e+2, -674178.8, -414286.53, 50278.875, -0.006632819, -0.07058908, -404898.7, -173005.86, 0.0, 9.996899, 10.00033 
2.6346546e+3, 2.8633755e+2, -627205.2, -283199.3, 21449.068, -0.007475984, -0.048758153, -281867.13, -147980.14, 0.0, 9.996298, 10.000846 
2.634582e+3, 2.9633877e+2, -628984.7, -240916.02, 12919.708, -0.12886508, 0.016203612, -240486.36, -204611.66, 0.0, 9.995644, 10.000782 
2.6345104e+3, 3.0633858e+2, -560636.7, -73298.875, -37612.15, -0.021828609, -0.10700747, -70413.1, -70413.1, 0.0, 9.995305, 10.001761 
2.6344374e+3, 3.163399e+2, -666696.8, -102859.07, 47367.35, 0.018768182, -0.11536137, -98907.484, -98907.484, 0.0, 9.99449, 10.001947 
2.6458064e+3, 1.2643538e+2, -1042163.94, -1648239.6, 48671.07, 0.028630389, -0.047601286, -1038280.25, 662645.4, 0.07807477, 10.006218, 9.997493 
2.6457325e+3, 1.3643138e+2, -984798.2, -1590658.0, 4484.367, 0.035258137, -0.16547894, -984765.0, 618198.7, 0.049837485, 10.005835, 9.997375 
2.6456589e+3, 1.4642863e+2, -929519.94, -1484805.0, 50958.594, 0.0015629353, -0.16536708, -924882.2, 580108.2, 0.024538647, 10.005266, 9.997694 
2.6455864e+3, 1.5642671e+2, -922733.56, -1448471.1, 57464.883, -0.009581433, -0.09943005, -916525.75, 490483.4, 0.00802942, 10.0046215, 9.997581 
2.645514e+3, 1.6642436e+2, -921056.6, -1370239.6, 66193.21, 0.0033086876, -0.07430097, -911505.25, 397527.72, 0.001349628, 10.003819, 9.9978285 
2.645442e+3, 1.7642193e+2, -955241.56, -1340979.9, 65941.85, 0.02304879, -0.07325808, -944280.3, 266777.88, 0.00006369034, 10.002927, 9.997788 
2.64537e+3, 1.8641979e+2, -895390.06, -1194523.4, 81603.375, 0.052801564, -0.068597406, -874576.9, 238503.2, 0.000000036839044, 10.002379, 9.998383 
2.6452985e+3, 1.9641793e+2, -852116.0, -1133811.6, 79537.836, 0.090218365, -0.06580735, -831209.75, 183889.31, 0.0, 10.002048, 9.998289 
2.6452264e+3, 2.0641638e+2, -778848.25, -1012466.4, 93169.05, 0.050059043, -0.034522343, -746242.3, 170872.5, 0.0, 10.001728, 9.998602 
2.645154e+3, 2.164152e+2, -728409.1, -937969.06, 101221.69, -0.035059165, 0.012959523, -687502.25, 131625.08, 0.0, 10.001402, 9.9986 
2.6450828e+3, 2.2641355e+2, -698281.2, -778745.75, 113129.2, -0.030500796, -0.026959665, -618443.25, 102699.05, 0.0, 10.000532, 9.999437 
2.6450118e+3, 2.3641175e+2, -782464.8, -782683.0, 107015.1, 0.03604321, -0.122133516, -675558.75, -52400.863, 0.0, 9.99934, 9.999312 
2.6449397e+3, 2.4641114e+2, -730915.94, -694591.2, 58423.39, 0.034020163, -0.088754974, -651572.1, -126406.92, 0.0, 9.998967, 9.999423 
2.6448664e+3, 2.5641137e+2, -625828.9, -593671.9, 63064.55, -0.02018661, 0.019621732, -544668.5, -117502.18, 0.0, 9.999016, 9.999421 
2.6447943e+3, 2.664108e+2, -575128.3, -420934.84, 84009.02, -0.044833463, 0.0015348592, -384007.78, -54835.965, 0.0, 9.998271, 10.000292 
2.6447228e+3, 2.7640983e+2, -659917.56, -420247.66, 75325.44, -0.009996741, -0.09845061, -398539.9, -167360.67, 0.0, 9.997053, 10.000214 
2.6446506e+3, 2.8641045e+2, -634250.0, -301789.47, 51742.29, -0.012889474, -0.052405465, -293922.72, -160749.67, 0.0, 9.996321, 10.000706 
2.644577e+3, 2.964123e+2, -614908.4, -244547.77, 42217.344, -0.15028575, 0.08777781, -239796.38, -204640.0, 0.0, 9.9957905, 10.000684 
2.6445058e+3, 3.0641147e+2, -615768.2, -98043.22, -36284.56, 0.032823958, -0.09791674, -95512.6, -95512.6, 0.0, 9.99492, 10.001777 
2.644432e+3, 3.1641334e+2, -653801.56, -29801.182, 47226.516, 0.030558748, -0.054637928, -26247.156, -26247.156, 0.0, 9.9943075, 10.002528 
2.6558134e+3, 1.2650928e+2, -1132501.5, -1848093.3, 28269.932, 0.13630766, -0.18925624, -1131386.4, 568810.3, 0.06678951, 10.006164, 9.996114 
2.6557374e+3, 1.365063e+2, -1064716.0, -1760390.6, -7305.0728, -0.020188501, -0.06977141, -1064639.4, 537593.0, 0.04213952, 10.005775, 9.996234 
2.6556632e+3, 1.4650358e+2, -913621.3, -1449672.0, 30540.77, -0.052876405, -0.032628763, -911886.9, 592373.5, 0.020340111, 10.005229, 9.997959 
2.655591e+3, 1.5650111e+2, -909880.6, -1417751.4, 34226.27, 0.032339036, -0.048115093, -907584.5, 498698.84, 0.006437041, 10.004594, 9.997807 
2.6555178e+3, 1.6649836e+2, -923169.06, -1372736.9, 33922.523, 0.036375344, -0.07247098, -920623.8, 387685.47, 0.0010302636, 10.003807, 9.997819 
2.655444e+3, 1.7649561e+2, -957313.4, -1345223.8, 37257.715, -0.015001568, -0.102609135, -953767.25, 256568.47, 0.000045503482, 10.002923, 9.997764 
2.6553717e+3, 1.8649344e+2, -896717.44, -1201960.4, 70447.12, -0.0155525645, -0.09588295, -881243.4, 231113.98, 0.000000014947995, 10.002396, 9.998325 
2.6552996e+3, 1.9649175e+2, -851658.9, -1135766.5, 68489.586, 0.013237749, -0.071182825, -836010.06, 178365.06, 0.0, 10.002056, 9.998274 
2.6552278e+3, 2.0649002e+2, -764988.56, -983332.3, 82002.46, 0.030901426, -0.06995429, -737621.44, 178770.6, 0.0, 10.001722, 9.998806 
2.655156e+3, 2.164884e+2, -720794.4, -914584.4, 85830.984, 0.037458736, -0.08416381, -688245.94, 130161.32, 0.0, 10.001366, 9.998779 
2.6550835e+3, 2.264872e+2, -699366.5, -778495.1, 68703.52, 0.017910453, -0.0906586, -659649.6, 60768.977, 0.0, 10.000519, 9.999447 
2.6550108e+3, 2.364863e+2, -781793.4, -782474.56, 68963.95, -0.01101625, -0.09503275, -713169.2, -90742.56, 0.0, 9.999341, 9.999315 
2.654938e+3, 2.4648583e+2, -732510.6, -700113.1, 60493.953, 0.0027180193, -0.047341514, -653686.6, -129253.27, 0.0, 9.998974, 9.999383 
2.6548657e+3, 2.564857e+2, -626039.9, -601186.7, 58749.52, 0.02242719, 0.027329259, -553563.94, -127125.54, 0.0, 9.9990425, 9.999358 
2.6547924e+3, 2.6648495e+2, -589562.9, -455387.2, 36961.24, -0.023464665, 0.009587, -445879.25, -117433.58, 0.0, 9.998287, 10.000051 
2.654719e+3, 2.76484e+2, -673478.6, -450455.88, 34120.355, -0.06779617, -0.062964804, -445352.56, -214899.44, 0.0, 9.997059, 10.000006 
2.6546463e+3, 2.8648394e+2, -643874.06, -323296.75, 32908.31, -0.057308923, -0.070699684, -319953.47, -187499.33, 0.0, 9.996323, 10.000558 
2.654573e+3, 2.964846e+2, -625510.56, -272009.7, 17887.717, -0.12587695, -0.034031827, -271106.84, -236657.39, 0.0, 9.99581, 10.000488 
2.6545033e+3, 3.0648583e+2, -653719.75, -173801.69, -76264.766, 0.3314529, 0.026024204, -161973.8, -161973.8, 0.0, 9.994901, 10.001269 
2.6544237e+3, 3.164862e+2, -609509.06, 57688.28, 68922.66, -0.18646498, -0.03916744, 64733.71, 64733.71, 0.0, 9.994311, 10.003137 
2.665819e+3, 1.2658451e+2, -1112670.1, -1800727.9, -18558.299, 0.10546645, -0.13393392, -1112169.9, 587292.8, 0.056574404, 10.0060835, 9.99648 
2.6657426e+3, 1.365816e+2, -1094561.5, -1745271.6, 43077.37, -0.0028364707, -0.042469922, -1091722.1, 509773.75, 0.035270303, 10.005397, 9.996521 
2.665668e+3, 1.4657892e+2, -985876.5, -1509215.3, 101650.8, -0.036152624, 0.00016406225, -966825.8, 536698.0, 0.016680079, 10.004817, 9.997741 
2.665595e+3, 1.5657641e+2, -958425.44, -1457779.8, 72682.74, 0.02767812, 0.0053180587, -948061.4, 457486.72, 0.0051048645, 10.004328, 9.997658 
2.6655215e+3, 1.6657348e+2, -912676.0, -1348308.3, 63594.57, 0.042133383, -0.04087892, -903582.1, 403992.94, 0.0007814722, 10.003799, 9.997989 
2.6654473e+3, 1.7657042e+2, -900243.75, -1304212.9, 80044.58, 0.016966749, -0.11576993, -884961.44, 324641.0, 0.000032798478, 10.003261, 9.997881 
2.665374e+3, 1.8656817e+2, -849434.9, -1196984.8, 124005.08, 0.002293504, -0.11168268, -809726.8, 301897.8, 0.0000000057994387, 10.002803, 9.998161 
2.6653016e+3, 1.9656652e+2, -812085.25, -1128845.5, 112061.305, 0.000018737022, -0.06411197, -776449.94, 237192.53, 0.0, 10.002386, 9.998159 
2.665229e+3, 2.0656474e+2, -782612.1, -982752.25, 105934.7, 0.02235139, -0.067596406, -736955.8, 178704.19, 0.0, 10.001568, 9.998882 
2.6651567e+3, 2.1656299e+2, -837606.44, -964081.1, 99313.63, 0.057422724, -0.102996364, -783106.06, 34570.324, 0.0, 10.000539, 9.998835 
2.6650834e+3, 2.2656187e+2, -766884.4, -819510.8, 76962.99, 0.033447564, -0.096485935, -711860.7, 7826.354, 0.0, 10.000095, 9.999367 
2.66501e+3, 2.3656125e+2, -694287.56, -744483.6, 72352.44, -0.015703116, -0.06670568, -642803.7, -21110.518, 0.0, 9.999965, 9.999273 
2.6649368e+3, 2.4656062e+2, -672173.2, -654860.1, 78069.25, -0.017405452, -0.03826002, -584968.94, -61268.246, 0.0, 9.999322, 9.999524 
2.664864e+3, 2.5656012e+2, -713897.75, -630551.06, 88261.87, -0.0007180495, -0.013980542, -574619.0, -148910.94, 0.0, 9.998387, 9.999471 
2.6647902e+3, 2.665596e+2, -630188.1, -484080.72, 71448.87, -0.03229283, -0.01037179, -454949.38, -127235.81, 0.0, 9.998052, 9.999965 
2.6647162e+3, 2.7655914e+2, -547490.44, -399034.78, 77672.45, -0.055194434, -0.022961715, -365825.28, -136108.1, 0.0, 9.997968, 9.999918 
2.664643e+3, 2.8655875e+2, -517744.28, -275092.88, 77691.53, -0.058358498, -0.052012295, -252349.5, -120627.73, 0.0, 9.997246, 10.000443 
2.6645687e+3, 2.965586e+2, -584346.6, -271506.8, 63570.2, -0.13889122, -0.08371454, -259082.53, -225357.6, 0.0, 9.996178, 10.000314 
2.6644987e+3, 3.0656043e+2, -600689.8, -205686.23, -32006.258, 0.38300955, 0.07519723, -203109.64, -203109.64, 0.0, 9.99552, 10.000749 
2.6644164e+3, 3.165598e+2, -559069.4, 104431.49, 97487.945, -0.32211718, -0.04636606, 118458.805, 118458.805, 0.0, 9.994569, 10.003328 
2.6758233e+3, 1.2666081e+2, -1014539.25, -1572975.1, -41098.535, -0.033120222, 0.060820024, -1011530.8, 687193.2, 0.04737438, 10.00595, 9.998145 
2.6757485e+3, 1.3665733e+2, -1006991.7, -1561000.4, 16998.111, 0.062041156, -0.06767017, -1006470.6, 594283.44, 0.029168114, 10.005375, 9.997804 
2.6756734e+3, 1.4665468e+2, -1026948.7, -1600112.6, 78882.3, 0.026872752, -0.04012203, -1016290.6, 486490.03, 0.01350526, 10.004816, 9.997119 
2.675599e+3, 1.5665255e+2, -998785.06, -1531657.6, 52938.992, -0.020239644, 0.06324044, -993576.6, 411227.66, 0.003996166, 10.004275, 9.997178 
2.675525e+3, 1.6664954e+2, -894494.56, -1307334.0, 42833.844, 0.024746554, 0.013033447, -890097.2, 416734.5, 0.0005873754, 10.003781, 9.99828 
2.675451e+3, 1.7664619e+2, -882184.6, -1272710.6, 60117.38, 0.10272555, -0.11924803, -873139.7, 335720.22, 0.000023679344, 10.003283, 9.998088 
2.6753774e+3, 1.8664385e+2, -866943.56, -1235024.9, 108555.7, 0.091427065, -0.11737552, -837313.25, 273569.53, 0.000000001728097, 10.002805, 9.997901 
2.6753038e+3, 1.966422e+2, -835599.7, -1167022.4, 93786.67, 0.03664034, -0.043963265, -810900.44, 202000.94, 0.0, 10.0023365, 9.997923 
2.6752302e+3, 2.0664047e+2, -790337.6, -995394.6, 67296.52, 0.019753775, -0.02965835, -770224.75, 144694.61, 0.0, 10.001551, 9.998804 
2.6751566e+3, 2.1663877e+2, -842855.44, -976696.0, 66421.02, 0.019006932, -0.05044585, -815488.56, 1447.2924, 0.0, 10.000543, 9.998749 
2.6750833e+3, 2.266375e+2, -777065.06, -843104.2, 72646.59, 0.016379355, -0.048730258, -730286.0, -11337.489, 0.0, 10.000103, 9.999203 
2.67501e+3, 2.3663652e+2, -700737.25, -757507.4, 63011.977, 0.014712695, -0.03750222, -660012.1, -39054.063, 0.0, 9.999959, 9.999188 
2.6749358e+3, 2.4663553e+2, -650246.2, -609778.44, 42182.42, -0.029722828, -0.06274614, -583228.06, -60260.563, 0.0, 9.999322, 9.999835 
2.674861e+3, 2.5663465e+2, -693095.75, -590008.44, 58315.04, -0.10602051, -0.104365386, -563722.9, -138747.33, 0.0, 9.998395, 9.999747 
2.6747876e+3, 2.666347e+2, -625042.3, -474853.25, 69284.305, -0.075838946, -0.059603833, -447773.88, -120798.12, 0.0, 9.998054, 10.000029 
2.6747152e+3, 2.7663526e+2, -540316.5, -392960.84, 69750.32, 0.03348827, 0.02336654, -365181.66, -136210.19, 0.0, 9.998002, 9.999946 
2.6746404e+3, 2.8663498e+2, -518306.78, -284108.88, 36432.88, -0.012765443, 0.009090432, -278572.1, -147596.92, 0.0, 9.997275, 10.000369 
2.6745638e+3, 2.966345e+2, -592143.6, -292956.75, 29160.904, -0.21062168, -0.045601804, -290141.0, -257160.22, 0.0, 9.996197, 10.000159 
2.6744914e+3, 3.0663505e+2, -642111.3, -298936.1, -50894.945, 0.12401962, 0.027859781, -291547.16, -291547.16, 0.0, 9.995545, 10.000098 
2.6744133e+3, 3.166354e+2, -585293.56, 47574.035, -5130.15, -0.06777949, 0.071195275, 47615.617, 47615.617, 0.0, 9.99457, 10.002942 
2.6858288e+3, 1.2673639e+2, -1149937.0, -1636364.5, 29841.672, 0.0058514397, 0.07432339, -1148113.0, 549872.6, 0.03913624, 10.004909, 9.998193 
2.6857537e+3, 1.3673337e+2, -976073.8, -1536937.1, -12582.534, 0.047081053, -0.014690603, -975791.7, 624219.7, 0.023772929, 10.005524, 9.997899 
2.685678e+3, 1.4673051e+2, -1005146.5, -1572276.4, 16852.816, 0.017432947, -0.019623842, -1004646.1, 497392.84, 0.010762833, 10.004887, 9.997273 
2.685603e+3, 1.567279e+2, -1083249.4, -1555631.1, 43149.49, 0.0021072635, 0.018023845, -1079340.3, 324726.2, 0.0030762118, 10.003621, 9.997326 
2.685528e+3, 1.6672526e+2, -938500.3, -1317896.4, 71197.445, 0.029326856, -0.0047039357, -925579.44, 380510.97, 0.0004351964, 10.003436, 9.998371 
2.6854542e+3, 1.7672275e+2, -799025.1, -1222073.0, 68668.74, 0.07045397, -0.062294938, -788158.0, 419953.44, 0.000016890075, 10.003814, 9.998177 
2.68538e+3, 1.8672048e+2, -843439.5, -1221313.3, 91876.92, 0.08040791, -0.05945292, -822284.7, 287849.13, 0.0000000002885943, 10.002962, 9.997916 
2.6853058e+3, 1.9671844e+2, -960501.2, -1227943.0, 97757.36, 0.0745872, -0.02431788, -928578.56, 83577.2, 0.0, 10.001486, 9.997911 
2.6852316e+3, 2.0671658e+2, -863597.06, -1043857.4, 96013.336, 0.043837298, -0.013059931, -822038.2, 92136.83, 0.0, 10.001108, 9.998682 
2.6851574e+3, 2.1671493e+2, -739514.6, -936338.3, 90627.43, 0.0023806205, -0.016964791, -704142.25, 112049.32, 0.0, 10.001298, 9.998658 
2.6850832e+3, 2.2671361e+2, -689364.7, -801428.0, 96876.73, -0.00018506705, -0.015374723, -633482.75, 84722.05, 0.0, 10.000711, 9.999194 
2.6850095e+3, 2.3671253e+2, -737993.2, -773173.3, 98142.555, 0.024058554, -0.013862949, -655876.8, -35661.47, 0.0, 9.999699, 9.999204 
2.6849347e+3, 2.4671149e+2, -652337.3, -600920.0, 71885.945, -0.029313702, -0.046170387, -550283.9, -28059.426, 0.0, 9.9992695, 9.999919 
2.6848593e+3, 2.5671062e+2, -585591.4, -528699.9, 69789.484, -0.12911692, -0.09545868, -481781.6, -57550.03, 0.0, 9.999099, 9.999826 
2.6847854e+3, 2.6671064e+2, -587085.4, -451187.34, 72116.92, -0.09179191, -0.060731735, -420050.94, -93818.945, 0.0, 9.998296, 10.000072 
2.6847124e+3, 2.767111e+2, -662805.1, -447267.53, 71037.336, 0.04700514, 0.012123916, -425961.1, -197732.7, 0.0, 9.997145, 9.999984 
2.6846373e+3, 2.8671107e+2, -599040.75, -319933.3, 41919.355, 0.024656514, 0.016193803, -313773.38, -183543.45, 0.0, 9.996715, 10.00039 
2.6845604e+3, 2.9671088e+2, -535177.7, -263339.47, 40107.73, -0.15449576, -0.010369895, -257545.36, -225313.1, 0.0, 9.996586, 10.000171 
2.6844847e+3, 3.0671075e+2, -581683.0, -269099.47, -6229.798, -0.09951454, -0.0025112606, -268975.34, -268975.34, 0.0, 9.995966, 10.000094 
2.6844096e+3, 3.1671184e+2, -514357.94, 16357.814, 41957.01, 0.0887026, 0.121736094, 19654.35, 19654.35, 0.0, 9.995345, 10.00235 
2.695835e+3, 1.2681158e+2, -1208938.9, -1787815.9, 51256.52, 0.15652926, -0.0359949, -1204435.4, 492811.16, 0.03179664, 10.004996, 9.997091 
2.695758e+3, 1.3680975e+2, -1039416.06, -1655558.3, 4279.6274, -0.035953216, 0.101842225, -1039386.4, 559880.5, 0.01902715, 10.005434, 9.997118 
2.6956818e+3, 1.468065e+2, -960755.7, -1468741.6, -26836.846, -0.048789855, 0.04385403, -959341.8, 541955.94, 0.008405329, 10.004825, 9.998017 
2.6956066e+3, 1.5680265e+2, -1036358.44, -1465292.3, 8435.416, 0.07444985, -0.11243614, -1036192.6, 367140.06, 0.002315785, 10.003647, 9.997935 
2.6955315e+3, 1.6680081e+2, -942355.0, -1328543.3, 87563.32, 0.04598873, -0.078255475, -923428.7, 381921.16, 0.0003153511, 10.003444, 9.998296 
2.6954564e+3, 1.7680006e+2, -812945.9, -1234014.0, 71845.36, -0.06587089, 0.048390746, -801024.7, 406332.4, 0.000011633443, 10.0037365, 9.998134 
2.6953816e+3, 1.8679792e+2, -834062.7, -1193887.3, 35558.543, -0.018049123, 0.05219258, -830582.4, 278796.13, 0.000000000007316074, 10.002925, 9.998123 
2.6953074e+3, 1.9679514e+2, -946120.94, -1204050.6, 52825.78, 0.10750381, -0.0068687233, -935721.2, 75684.94, 0.0, 10.001509, 9.998067 
2.695233e+3, 2.0679305e+2, -870902.2, -1064663.6, 104261.68, 0.09011748, -0.016200548, -825458.06, 87969.15, 0.0, 10.001129, 9.998531 
2.695158e+3, 2.1679144e+2, -751393.5, -954346.7, 91944.67, -0.0010868582, -0.0025524346, -715934.6, 99509.164, 0.0, 10.001266, 9.998552 
2.6950836e+3, 2.2679017e+2, -683853.75, -786349.44, 59702.773, -0.019431116, 0.004210385, -656420.2, 61035.965, 0.0, 10.000694, 9.999306 
2.6950088e+3, 2.3678921e+2, -732067.75, -762502.5, 65735.42, 0.0016127874, 0.0068500713, -679811.3, -60346.06, 0.0, 9.999702, 9.999277 
2.6949337e+3, 2.4678853e+2, -661547.94, -622233.75, 65277.402, -0.017251335, 0.013793831, -573718.0, -52246.215, 0.0, 9.999275, 9.999771 
2.6948586e+3, 2.5678805e+2, -591700.94, -546114.3, 57286.582, -0.06991566, 0.020093769, -507253.06, -83776.96, 0.0, 9.999115, 9.999701 
2.6947835e+3, 2.6678735e+2, -586623.1, -450273.8, 26837.768, -0.08208237, -0.012015961, -445181.47, -119698.83, 0.0, 9.998294, 10.00008 
2.6947084e+3, 2.7678666e+2, -662067.9, -442761.03, 33703.938, -0.0402942, -0.060592227, -437698.16, -210209.23, 0.0, 9.997129, 10.000024 
2.694634e+3, 2.8678682e+2, -593582.1, -307065.13, 37552.836, 0.05437091, -0.037507452, -302224.94, -172737.69, 0.0, 9.996702, 10.000486 
2.6945588e+3, 2.967876e+2, -516350.34, -231983.14, 29295.734, 0.06608248, 0.019714428, -228996.44, -197515.94, 0.0, 9.996614, 10.000375 
2.6944783e+3, 3.0678767e+2, -526237.75, -162352.34, -38777.844, -0.31633046, -0.006271941, -158265.84, -158265.84, 0.0, 9.995999, 10.000813 
2.694404e+3, 3.1678858e+2, -575124.6, -135576.67, 29622.066, 0.016374301, 0.045700833, -133589.36, -133589.36, 0.0, 9.995429, 10.00128 
2.7058402e+3, 1.2688822e+2, -1035795.6, -1717760.4, 61183.516, 0.12195327, -0.057025373, -1030349.94, 666144.06, 0.0252987, 10.006248, 9.996971 
2.7057627e+3, 1.3688621e+2, -1184165.6, -1732673.4, 73522.484, -0.026417194, 0.07749358, -1174481.5, 424035.5, 0.014883015, 10.004429, 9.997074 
2.705686e+3, 1.4688323e+2, -1065478.6, -1495407.9, 53520.566, -0.025836824, 0.038718056, -1058916.3, 441629.34, 0.006395108, 10.003992, 9.99823 
2.7056107e+3, 1.5687986e+2, -938513.06, -1401081.8, 54582.297, 0.099038236, -0.09162643, -932159.75, 470416.3, 0.00169251, 10.004248, 9.998085 
2.705535e+3, 1.6687791e+2, -942257.7, -1349309.8, 114781.18, 0.05752686, -0.062051017, -912122.5, 392472.3, 0.00022097121, 10.003535, 9.998108 
2.705459e+3, 1.768768e+2, -1020604.8, -1346169.4, 91215.75, -0.07510496, 0.048241537, -996790.25, 209816.23, 0.000007542903, 10.002365, 9.998022 
2.705384e+3, 1.8687469e+2, -920043.7, -1211131.3, 54034.625, -0.03980804, 0.049946178, -910336.94, 198290.48, 0.0, 10.0022335, 9.998337 
2.705309e+3, 1.9687217e+2, -773235.25, -1097246.6, 71042.31, 0.08432293, -0.005615495, -758343.06, 252308.98, 0.0, 10.002599, 9.998272 
2.705234e+3, 2.0687023e+2, -760222.2, -1001710.2, 128966.03, 0.0839044, -0.013633036, -704298.9, 208372.64, 0.0, 10.001851, 9.998613 
2.705159e+3, 2.1686871e+2, -849162.44, -991763.0, 131027.82, 0.020491337, 0.0026026492, -771291.6, 43395.473, 0.0, 10.000557, 9.998634 
2.7050838e+3, 2.2686748e+2, -780361.0, -827046.94, 102874.64, -0.008106135, 0.007364811, -698214.25, 18484.57, 0.0, 10.00001, 9.999354 
2.7050084e+3, 2.368665e+2, -714034.1, -751667.1, 104649.8, -0.009617988, 0.0042923354, -626522.6, -7814.966, 0.0, 9.999822, 9.999291 
2.704933e+3, 2.4686582e+2, -699824.56, -658826.06, 101437.2, -0.00866298, 0.024159543, -575837.5, -55122.766, 0.0, 9.999095, 9.999605 
2.7048576e+3, 2.568654e+2, -748759.8, -632897.5, 92299.484, -0.015656715, 0.05134161, -581855.2, -159135.08, 0.0, 9.998089, 9.999597 
2.7047816e+3, 2.6686463e+2, -636053.75, -459354.25, 69431.76, -0.058170818, 0.011700607, -435336.53, -110609.79, 0.0, 9.997897, 10.000206 
2.7047053e+3, 2.768638e+2, -524199.84, -365544.94, 83090.12, -0.07986015, -0.06202208, -329995.03, -103261.945, 0.0, 9.998036, 10.000113 
2.7046305e+3, 2.8686392e+2, -499520.56, -267440.53, 80202.26, 0.0357659, -0.045931727, -242421.39, -113689.46, 0.0, 9.997378, 10.000431 
2.7045557e+3, 2.9686466e+2, -557318.94, -246285.69, 59234.08, 0.11465196, 0.015350468, -235386.88, -204661.31, 0.0, 9.996313, 10.00042 
2.7044737e+3, 3.0686516e+2, -481981.94, -81428.76, -17051.852, -0.3154791, -0.00096048194, -80704.164, -80704.164, 0.0, 9.996052, 10.00134 
2.7043998e+3, 3.1686598e+2, -525135.5, -146039.6, 54376.34, 0.068675466, -0.003866901, -138394.2, -138394.2, 0.0, 9.995928, 10.000963 
2.7158442e+3, 1.2696594e+2, -1015752.6, -1638539.1, -7921.0103, -0.052668817, -0.016478447, -1015651.9, 680079.25, 0.019611578, 10.006058, 9.997609 
2.7157676e+3, 1.3696283e+2, -1153530.0, -1666838.4, 21115.36, 0.047598537, -0.055041153, -1152662.9, 445099.4, 0.01131026, 10.004409, 9.997535 
2.7156907e+3, 1.469607e+2, -1077341.9, -1526048.1, 63164.086, 0.05945553, -0.015123891, -1068619.9, 431163.94, 0.004706745, 10.004005, 9.998016 
2.7156144e+3, 1.5695907e+2, -960741.75, -1438686.9, 54552.934, 0.080075964, 0.051640846, -954594.1, 447206.22, 0.0011907526, 10.004205, 9.997849 
2.715538e+3, 1.6695629e+2, -966656.4, -1394766.5, 70353.15, 0.0638055, 0.02332594, -955391.4, 348436.47, 0.00014779682, 10.003511, 9.997808 
2.7154619e+3, 1.7695308e+2, -1031687.6, -1373122.3, 59408.73, 0.016121814, -0.04768811, -1021646.0, 184212.98, 0.0000045032148, 10.002379, 9.997831 
2.715386e+3, 1.8695101e+2, -903520.06, -1178499.0, 70996.13, -0.0004501575, -0.049344353, -886271.6, 221607.72, 0.0, 10.002237, 9.99856 
2.7153105e+3, 1.9694954e+2, -764610.7, -1068051.1, 75345.86, 0.003489967, -0.020715103, -746931.9, 262961.88, 0.0, 10.002547, 9.9985 
2.715235e+3, 2.0694807e+2, -746914.1, -966680.3, 79821.83, 0.028212866, -0.006204742, -720981.8, 190926.48, 0.0, 10.001818, 9.998871 
2.7151597e+3, 2.1694672e+2, -835428.1, -961543.25, 89853.086, 0.056089126, 0.001942925, -788713.94, 25207.805, 0.0, 10.000546, 9.998848 
2.7150837e+3, 2.2694546e+2, -779164.56, -826640.9, 96126.6, 0.030198723, -0.00461886, -703888.44, 12044.656, 0.0, 10.000016, 9.999355 
2.7150077e+3, 2.3694433e+2, -718126.6, -759427.0, 92346.125, -0.017362503, -0.02133743, -644150.0, -26207.25, 0.0, 9.999815, 9.999243 
2.7149317e+3, 2.4694337e+2, -715665.75, -690370.6, 63023.074, -0.006582178, -0.017918482, -638738.6, -118784.89, 0.0, 9.999087, 9.9993925 
2.7148557e+3, 2.5694263e+2, -755141.44, -648069.9, 62474.207, 0.01933068, -0.0025340228, -619331.1, -197367.36, 0.0, 9.998095, 9.999492 
2.7147797e+3, 2.669425e+2, -618014.8, -423926.63, 76258.766, -0.020134818, 0.010970038, -397548.88, -73584.67, 0.0, 9.997901, 10.00045 
2.714703e+3, 2.769427e+2, -507878.28, -341797.06, 81946.03, -0.065720014, 0.01694718, -308171.94, -82212.1, 0.0, 9.9980755, 10.000259 
2.714627e+3, 2.8694236e+2, -513620.5, -301755.03, 38219.223, -0.049323592, -0.0041129473, -295071.38, -167108.11, 0.0, 9.997396, 10.000188 
2.71455e+3, 2.9694206e+2, -567388.06, -264335.97, 26702.625, -0.0733497, -0.022488559, -262001.14, -232033.77, 0.0, 9.996298, 10.000305 
2.714473e+3, 3.0694318e+2, -453652.5, -27110.29, -10140.38, 0.008246567, 0.008947642, -26869.354, -26869.354, 0.0, 9.996063, 10.001712 
2.7143946e+3, 3.169443e+2, -474466.5, -39488.125, 45877.254, -0.013564486, -0.007867859, -34702.1, -34702.1, 0.0, 9.995936, 10.001683 
2.725849e+3, 1.270441e+2, -1195998.5, -1682053.3, 9393.081, -0.07811294, -0.00468735, -1195817.0, 499147.7, 0.014725574, 10.004573, 9.998024 
2.7257723e+3, 1.3704082e+2, -1136763.9, -1625509.9, 28199.035, 0.102361284, -0.09985128, -1135142.3, 461853.56, 0.00829378, 10.004371, 9.997835 
2.7256945e+3, 1.4703882e+2, -1098650.6, -1565037.6, 87488.72, 0.08909613, -0.04457783, -1082778.9, 416237.88, 0.003324558, 10.003982, 9.997758 
2.7256176e+3, 1.5703745e+2, -1069442.8, -1509720.0, 71776.164, 0.037344486, 0.07421436, -1058036.9, 342995.34, 0.0007995973, 10.003541, 9.997679 
2.725541e+3, 1.6703455e+2, -999650.94, -1392689.9, 89942.94, 0.041036334, 0.03436623, -980046.3, 323014.53, 0.00009313198, 10.003213, 9.997963 
2.7254647e+3, 1.7703107e+2, -942663.94, -1314948.3, 109979.85, 0.058881775, -0.07886701, -912601.44, 292492.8, 0.0000024128854, 10.00293, 9.997964 
2.725388e+3, 1.8702912e+2, -907896.1, -1180923.4, 131483.3, 0.026302345, -0.06908426, -854873.94, 252239.55, 0.0, 10.0022135, 9.998553 
2.7253118e+3, 1.9702803e+2, -944525.0, -1153693.3, 116482.97, -0.02298336, -0.0029181344, -892564.8, 116560.234, 0.0, 10.001311, 9.998504 
2.7252358e+3, 2.0702659e+2, -875030.1, -1027452.44, 93019.234, 0.0008216313, 0.013647689, -830988.56, 80150.914, 0.0, 10.000938, 9.998875 
2.7251598e+3, 2.1702507e+2, -796261.8, -938785.9, 87680.086, 0.057918355, 0.005600564, -754536.8, 58617.414, 0.0, 10.000802, 9.99888 
2.7250838e+3, 2.2702372e+2, -719450.9, -787438.2, 101513.914, 0.033252, -0.015734728, -646390.1, 68775.78, 0.0, 10.000384, 9.999446 
2.725007e+3, 2.3702256e+2, -712795.06, -746665.7, 100933.1, -0.021237038, -0.044855464, -627386.4, -10210.88, 0.0, 9.999812, 9.99933 
2.7249306e+3, 2.470217e+2, -685043.25, -670700.75, 75500.8, 0.001989152, -0.036005665, -602031.4, -82846.05, 0.0, 9.999282, 9.999432 
2.7248544e+3, 2.5702113e+2, -660498.3, -598961.0, 96400.56, 0.052943252, -0.008159435, -528537.8, -107343.79, 0.0, 9.998736, 9.9995165 
2.7247775e+3, 2.6702103e+2, -582436.3, -409243.22, 117716.28, 0.008305885, 0.01057649, -349702.56, -26508.42, 0.0, 9.998162, 10.0004225 
2.724701e+3, 2.7702114e+2, -588830.75, -383700.72, 99177.875, -0.049758185, 0.016124075, -343591.84, -118401.75, 0.0, 9.997537, 10.000229 
2.7246237e+3, 2.8702065e+2, -548979.6, -323318.56, 44275.883, -0.07128739, -0.0154060675, -314942.3, -187747.38, 0.0, 9.997181, 10.00014 
2.7245453e+3, 2.970202e+2, -489373.7, -235774.06, 46403.254, -0.14456122, -0.046535395, -227549.97, -198349.08, 0.0, 9.996881, 10.000216 
2.72447e+3, 3.0702153e+2, -481246.8, -66622.94, -11354.173, 0.13351896, 0.023707837, -66312.25, -66312.25, 0.0, 9.995994, 10.001471 
2.7243885e+3, 3.1702206e+2, -509759.5, 13536.999, 38246.535, -0.15341291, -0.034948602, 16317.576, 16317.576, 0.0, 9.995406, 10.002296 
2.7358538e+3, 1.271227e+2, -1179866.6, -1644888.9, -739.3274, -0.007855154, -0.009778315, -1179865.4, 514329.03, 0.010635077, 10.004546, 9.99829 
2.7357766e+3, 1.3711993e+2, -1122370.6, -1603085.5, 15367.844, 0.13436826, -0.07956821, -1121879.8, 474339.84, 0.005823747, 10.004393, 9.997979 
2.7356982e+3, 1.4711745e+2, -1117244.0, -1609327.4, 68129.05, 0.073010795, -0.05875949, -1107985.6, 390259.34, 0.0022354163, 10.003998, 9.997447 
2.73562e+3, 1.5711519e+2, -1083087.4, -1531580.6, 57999.246, -0.03006809, -0.00044170071, -1075708.3, 324561.22, 0.00050828554, 10.0035095, 9.997546 
2.7355435e+3, 1.6711284e+2, -969463.2, -1321208.5, 81024.266, -0.008276231, -0.012083491, -951696.7, 350596.03, 0.00005459018, 10.003172, 9.998475 
2.7354673e+3, 1.7711055e+2, -925444.0, -1266526.8, 93602.28, 0.05661839, -0.05532804, -901445.56, 302868.8, 0.0000011019603, 10.002872, 9.998324 
2.7353904e+3, 1.8710887e+2, -927514.94, -1216089.0, 96199.46, 0.0412735, -0.020962091, -898386.0, 207945.83, 0.0, 10.002188, 9.998324 
2.735313e+3, 1.9710755e+2, -959789.75, -1186581.0, 88464.414, -0.007920966, 0.04690268, -929364.25, 78982.336, 0.0, 10.001314, 9.998278 
2.7352363e+3, 2.0710571e+2, -888274.06, -1059124.4, 89038.625, -0.0039577433, 0.04519367, -850308.25, 60057.004, 0.0, 10.000955, 9.9986515 
2.7351603e+3, 2.171037e+2, -808568.56, -961105.9, 81117.82, 0.019491032, 0.009078819, -773495.4, 38889.402, 0.0, 10.000786, 9.998736 
2.7350834e+3, 2.2710223e+2, -710473.75, -766896.94, 81312.05, 0.00008705264, -0.028154245, -652618.25, 61779.215, 0.0, 10.000375, 9.999592 
2.7350065e+3, 2.3710117e+2, -698464.8, -718942.56, 79732.57, -0.03286787, -0.06282334, -628316.4, -11910.5625, 0.0, 9.999818, 9.999518 
2.73493e+3, 2.4710083e+2, -662731.0, -627077.3, 54575.793, 0.014138448, -0.027401742, -587490.6, -69081.04, 0.0, 9.9992895, 9.999729 
2.734853e+3, 2.5710088e+2, -646736.4, -575674.8, 76434.66, 0.07842819, 0.03813077, -526916.25, -106505.7, 0.0, 9.998755, 9.999669 
2.7347752e+3, 2.6710016e+2, -606387.5, -459502.75, 93974.42, 0.02281744, 0.0069868956, -413676.63, -91259.77, 0.0, 9.998163, 10.000077 
2.7346984e+3, 2.7709913e+2, -604696.56, -416607.3, 77835.5, -0.04746302, -0.07065831, -388575.1, -164150.42, 0.0, 9.997534, 10.000006 
2.7346212e+3, 2.8709882e+2, -538011.0, -301815.2, 34236.81, -0.017170109, -0.08574842, -296952.63, -170524.88, 0.0, 9.997181, 10.000291 
2.7345428e+3, 2.9709902e+2, -490053.56, -246674.44, 28351.713, -0.06333152, -0.05942138, -243415.33, -214988.86, 0.0, 9.996918, 10.000125 
2.7344638e+3, 3.0710006e+2, -558657.9, -221366.2, -60715.477, -0.04923961, 0.047008175, -210769.78, -210769.78, 0.0, 9.995967, 10.000421 
2.7343845e+3, 3.1709883e+2, -474251.7, 65068.69, 155884.28, -0.08409818, -0.0969298, 106883.266, 106883.266, 0.0, 9.995466, 10.002641 
2.7458587e+3, 1.2720118e+2, -1223175.4, -1709365.1, 31185.453, 0.043030407, -0.05500162, -1221183.3, 472240.94, 0.007324874, 10.004418, 9.997908 
2.745781e+3, 1.3719894e+2, -1070483.4, -1597018.3, -775.3821, 0.13194741, -0.035932098, -1070482.3, 524964.7, 0.0038821017, 10.004827, 9.997811 
2.745702e+3, 1.4719652e+2, -1052117.6, -1519067.3, 46631.03, 0.053664636, -0.035016883, -1047506.4, 449964.72, 0.0014189648, 10.004198, 9.997968 
2.745623e+3, 1.571941e+2, -1108676.0, -1498880.0, 87788.16, -0.044890884, -0.042785976, -1089835.1, 309659.97, 0.0003029632, 10.003142, 9.997946 
2.7455455e+3, 1.6719206e+2, -1086332.6, -1384685.0, 111404.984, -0.019397482, -0.03224557, -1049324.5, 252191.08, 0.000029338584, 10.002401, 9.99841 
2.7454692e+3, 1.771903e+2, -1077835.9, -1339848.0, 88193.39, 0.0512025, -0.0151899615, -1050915.9, 152617.67, 0.00000039166414, 10.001829, 9.9983225 
2.745392e+3, 1.8718863e+2, -978517.8, -1222931.8, 99466.26, 0.04781569, 0.009380688, -943155.5, 162395.36, 0.0, 10.001765, 9.998479 
2.7453148e+3, 1.9718708e+2, -864949.5, -1127096.4, 116527.08, 0.015564774, 0.039707158, -820641.06, 186925.9, 0.0, 10.00191, 9.998399 
2.7452376e+3, 2.0718515e+2, -805838.44, -1020025.44, 134017.52, 0.015684415, 0.026759302, -741381.0, 168205.08, 0.0, 10.001527, 9.998642 
2.7451608e+3, 2.171831e+2, -792553.6, -954324.4, 136577.28, 0.030508256, -0.009634852, -714707.2, 96898.625, 0.0, 10.000905, 9.998722 
2.7450836e+3, 2.2718176e+2, -758206.25, -801091.44, 119785.805, 0.0031313999, -0.027694795, -657958.94, 55659.1, 0.0, 10.000099, 9.999488 
2.7450058e+3, 2.3718084e+2, -789840.4, -770172.56, 103883.195, -0.031891935, -0.036362223, -675658.9, -60032.98, 0.0, 9.999227, 9.99945 
2.7449286e+3, 2.4718036e+2, -699972.75, -640102.3, 72848.016, 0.0031499453, -0.014380528, -591278.7, -73648.13, 0.0, 9.999019, 9.999768 
2.7448514e+3, 2.5718015e+2, -603720.44, -551954.06, 72025.03, 0.05485713, 0.019606316, -501302.7, -81669.46, 0.0, 9.999042, 9.999692 
2.7447733e+3, 2.671794e+2, -568580.06, -448689.5, 83486.3, 0.017541654, -0.005985602, -405856.4, -84216.92, 0.0, 9.998461, 10.000006 
2.7446958e+3, 2.7717856e+2, -601724.75, -418418.63, 90003.45, -0.01276457, -0.061396707, -381615.84, -157969.25, 0.0, 9.997577, 9.9999695 
2.7446184e+3, 2.8717825e+2, -540843.6, -290684.4, 65447.89, 0.023369057, -0.08001638, -274596.25, -148947.4, 0.0, 9.997112, 10.000398 
2.7445397e+3, 2.9717836e+2, -508444.28, -263865.16, 55078.96, -0.040684603, -0.07261078, -252033.75, -224386.45, 0.0, 9.99683, 10.000049 
2.7444595e+3, 3.0717853e+2, -451733.47, -251533.3, -27154.023, -0.092370376, -0.003994374, -247915.66, -247915.66, 0.0, 9.997055, 9.999689 
2.744381e+3, 3.1717682e+2, -368677.72, 94854.07, 211270.16, 0.003847259, -0.12460146, 176697.03, 176697.03, 0.0, 9.996289, 10.002446 
2.755863e+3, 1.2727968e+2, -1273392.0, -1826668.4, 44137.65, 0.075769104, -0.12774022, -1269893.0, 422760.06, 0.004759176, 10.004465, 9.997079 
2.755785e+3, 1.3727805e+2, -1119740.3, -1666059.5, 8746.347, 0.09444586, 0.028852578, -1119600.3, 475075.1, 0.0024302783, 10.004675, 9.997411 
2.7557057e+3, 1.4727604e+2, -989746.4, -1364651.3, 9857.372, 0.027951524, 0.019957025, -989487.4, 507206.66, 0.00084130146, 10.004085, 9.999085 
2.7556258e+3, 1.57274e+2, -1059581.9, -1390714.1, 50909.016, -0.022532035, -0.05938137, -1051931.8, 346779.0, 0.00016702582, 10.003114, 9.998703 
2.755548e+3, 1.6727209e+2, -1122946.8, -1462948.8, 88106.93, -0.0017021653, -0.03272033, -1101471.5, 199259.36, 0.000014111729, 10.00241, 9.9978695 
2.7554706e+3, 1.7727034e+2, -1098639.6, -1385430.6, 73657.06, 0.03763967, 0.03600805, -1080828.4, 121923.266, 0.00000009505926, 10.001837, 9.998007 
2.7553937e+3, 1.8726847e+2, -945212.25, -1154575.4, 106999.0, 0.043989234, 0.023472128, -900204.1, 204565.78, 0.0, 10.001767, 9.998949 
2.7553165e+3, 1.9726662e+2, -841620.3, -1070737.6, 116072.984, 0.0385229, -0.02067917, -793094.25, 213691.86, 0.0, 10.001874, 9.998805 
2.7552393e+3, 2.0726492e+2, -797790.1, -998112.56, 110684.31, 0.05609665, -0.03758377, -748675.5, 160126.7, 0.0, 10.001502, 9.998806 
2.7551618e+3, 2.1726334e+2, -790675.56, -946499.5, 111170.914, 0.07886859, -0.04280975, -732833.1, 77984.19, 0.0, 10.000885, 9.998787 
2.7550834e+3, 2.2726232e+2, -781790.3, -850925.7, 85978.88, 0.038059026, -0.01104794, -723690.3, -10862.428, 0.0, 10.0001, 9.999147 
2.7550048e+3, 2.3726158e+2, -813739.3, -819047.1, 78122.31, -0.025577275, 0.033992123, -738225.8, -123389.97, 0.0, 9.999221, 9.999119 
2.754927e+3, 2.4726026e+2, -717869.3, -677539.06, 75607.58, -0.035084147, -0.0013414591, -619453.7, -102604.71, 0.0, 9.999018, 9.999513 
2.7548492e+3, 2.572588e+2, -607772.44, -567582.9, 66124.0, -0.033237483, -0.066539675, -518567.72, -99704.914, 0.0, 9.99907, 9.999573 
2.754771e+3, 2.6725885e+2, -551712.06, -416664.06, 48475.965, -0.01010493, -0.025318455, -401065.22, -80203.06, 0.0, 9.998469, 10.000224 
2.7546936e+3, 2.7725956e+2, -587284.5, -391766.1, 60898.46, 0.05245642, 0.05551511, -374349.4, -151494.45, 0.0, 9.997588, 10.000149 
2.7546152e+3, 2.8725907e+2, -539098.5, -283658.34, 54166.313, 0.040201094, 0.009555046, -272647.0, -147789.55, 0.0, 9.997097, 10.000454 
2.7545354e+3, 2.972582e+2, -513796.38, -270924.22, 53512.82, -0.103205286, -0.084090166, -259656.33, -232793.39, 0.0, 9.99681, 10.000011 
2.754458e+3, 3.072569e+2, -460363.66, -293774.7, -6792.6494, 0.063091956, -0.14266613, -293498.2, -293498.2, 0.0, 9.99715, 9.999358 
2.7543762e+3, 3.1725675e+2, -446485.5, -43415.43, -59409.203, -0.07182734, -0.0693659, -34841.387, -34841.387, 0.0, 9.996221, 10.001512 
2.7658683e+3, 1.2735966e+2, -1161518.3, -1719883.6, 28234.945, 0.1379209, -0.07467247, -1160094.0, 531777.9, 0.0028742799, 10.004996, 9.99756 
2.765788e+3, 1.3735786e+2, -1324823.3, -1721483.9, 69984.6, 0.051254246, 0.021954328, -1312837.6, 281055.78, 0.0014065447, 10.003073, 9.997803 
2.765708e+3, 1.4735614e+2, -1206222.8, -1462647.0, 66091.62, -0.003589731, 0.023233473, -1190190.4, 305719.13, 0.0004578135, 10.002569, 9.999142 
2.765629e+3, 1.5735447e+2, -1118877.3, -1411413.3, 42317.69, 0.010480592, -0.021310486, -1112878.6, 285044.53, 0.000083043655, 10.002673, 9.998773 
2.7655506e+3, 1.6735248e+2, -1092039.6, -1435052.0, 89610.28, 0.025402116, -0.014223257, -1070040.4, 229903.64, 0.000005757098, 10.002572, 9.997981 
2.7654725e+3, 1.7735046e+2, -1011661.9, -1328819.5, 116782.38, 0.02873588, 0.016621236, -973300.7, 228666.0, 0.00000000965895, 10.002378, 9.998132 
2.7653947e+3, 1.873487e+2, -935202.1, -1138021.0, 146637.38, 0.031022824, 0.0056690243, -858324.2, 245659.42, 0.0, 10.001789, 9.999051 
2.7653176e+3, 1.9734707e+2, -952392.6, -1108654.4, 130299.2, 0.040805712, -0.026533425, -878594.9, 127402.695, 0.0, 10.001048, 9.99894 
2.76524e+3, 2.0734556e+2, -904916.25, -1027367.25, 116324.29, 0.055725586, -0.04108431, -834688.7, 73322.64, 0.0, 10.000673, 9.999003 
2.765162e+3, 2.173442e+2, -845110.44, -958481.7, 118077.6, 0.06908058, -0.044147868, -770816.75, 39207.293, 0.0, 10.000455, 9.99891 
2.7650833e+3, 2.2734319e+2, -753727.75, -851852.1, 101751.08, 0.02886895, -0.0060447613, -689828.06, 22206.793, 0.0, 10.0003605, 9.999013 
2.765004e+3, 2.3734237e+2, -667049.6, -758914.25, 109554.766, -0.025102952, 0.044915088, -594187.9, 19856.58, 0.0, 10.0002775, 9.999021 
2.764926e+3, 2.4734083e+2, -648593.2, -646081.06, 123800.54, -0.028731534, -0.0053786533, -523530.22, -7470.9443, 0.0, 9.999505, 9.999493 
2.7648476e+3, 2.5733915e+2, -697149.1, -608518.1, 129795.39, -0.018884925, -0.09346902, -515681.47, -97606.63, 0.0, 9.998454, 9.999585 
2.7647692e+3, 2.673393e+2, -601365.44, -431681.8, 107547.0, -0.0025497815, -0.04368496, -379540.1, -59467.29, 0.0, 9.998094, 10.000299 
2.764691e+3, 2.7734026e+2, -530134.0, -359201.53, 109009.67, 0.048081882, 0.058259588, -306148.5, -84085.34, 0.0, 9.997961, 10.000191 
2.7646124e+3, 2.8733984e+2, -486621.63, -267152.63, 90785.21, 0.032021992, 0.021832833, -234466.56, -110401.06, 0.0, 9.997502, 10.000368 
2.764532e+3, 2.973389e+2, -513584.78, -273640.97, 82894.555, -0.093604565, -0.07062056, -247788.45, -221716.39, 0.0, 9.996833, 9.999977 
2.7644545e+3, 3.0733714e+2, -587655.5, -344516.44, 62600.023, 0.0965785, -0.1797258, -329345.66, -329345.66, 0.0, 9.99624, 9.999444 
2.7643716e+3, 3.173379e+2, -381813.34, 19868.453, -111153.25, -0.13264014, -0.026180496, 48575.18, 48575.18, 0.0, 9.996535, 10.001789 
2.7758735e+3, 1.2744085e+2, -1087474.6, -1527952.3, -40724.117, 0.20990577, 0.07090472, -1083741.1, 607340.8, 0.0015795339, 10.004828, 9.998958 
2.7757904e+3, 1.3743834e+2, -1261228.8, -1590509.1, 17191.195, -0.0047498546, -0.03856841, -1260333.6, 332769.25, 0.00073463784, 10.003077, 9.9987 
2.77571e+3, 1.4743672e+2, -1253471.4, -1571295.3, 71625.99, -0.04088803, -0.012982707, -1238075.3, 257043.63, 0.00022181487, 10.002611, 9.998378 
2.7756318e+3, 1.574355e+2, -1150969.4, -1476713.8, 47246.023, 0.049366463, 0.058434937, -1144255.3, 252877.42, 0.00003543484, 10.002666, 9.998329 
2.775553e+3, 1.6743326e+2, -1050027.5, -1344561.9, 86568.305, 0.055567592, 0.020014225, -1026468.2, 272686.3, 0.0000017161015, 10.002556, 9.9986105 
2.7754745e+3, 1.7743075e+2, -985342.8, -1266805.4, 106779.984, 0.01460631, -0.058065854, -949418.3, 251760.03, 0.00000000000031198744, 10.002345, 9.998575 
2.775396e+3, 1.8742934e+2, -952225.7, -1171153.4, 119338.445, 0.008635843, -0.0376184, -899751.25, 203440.95, 0.0, 10.001777, 9.998831 
2.775318e+3, 1.974284e+2, -960360.75, -1125572.5, 107327.88, 0.019929893, 0.01864684, -907530.3, 97671.33, 0.0, 10.001047, 9.998825 
2.77524e+3, 2.0742705e+2, -888572.8, -995998.25, 108295.47, 0.015052588, 0.010703828, -821401.44, 85812.48, 0.0, 10.000683, 9.999214 
2.7751616e+3, 2.174256e+2, -835393.5, -935233.06, 111153.94, -0.0020758796, -0.020010456, -763464.25, 45762.32, 0.0, 10.00044, 9.999079 
2.775083e+3, 2.2742435e+2, -750558.75, -844871.56, 100362.22, -0.024084562, -0.016741307, -686826.44, 24412.967, 0.0, 10.000357, 9.999064 
2.7750042e+3, 2.3742324e+2, -658502.3, -742541.7, 98356.7, -0.041296896, -0.0011721354, -593565.5, 19686.03, 0.0, 10.000281, 9.999132 
2.7749255e+3, 2.4742217e+2, -632841.75, -614339.44, 82577.26, 0.022172287, -0.02188724, -540496.75, -25235.824, 0.0, 9.999506, 9.999712 
2.7748471e+3, 2.5742123e+2, -688402.8, -589429.7, 98677.78, 0.099203914, -0.055424616, -528525.0, -111256.68, 0.0, 9.998447, 9.999721 
2.7747676e+3, 2.6742077e+2, -610586.06, -447955.7, 105237.51, 0.038841598, -0.06575739, -396278.06, -77006.74, 0.0, 9.998081, 10.000195 
2.774688e+3, 2.774206e+2, -537012.7, -377026.9, 102593.09, -0.042412776, -0.067062706, -326926.72, -105654.875, 0.0, 9.997974, 10.000063 
2.774609e+3, 2.8742048e+2, -503495.88, -308198.1, 65995.91, -0.004971079, -0.051638007, -287987.9, -164714.19, 0.0, 9.997522, 10.00008 
2.7745292e+3, 2.9742044e+2, -508284.78, -272140.63, 54574.02, -0.012960219, -0.028016133, -260138.34, -234863.36, 0.0, 9.99687, 9.999971 
2.7744493e+3, 3.074195e+2, -556958.94, -261986.81, 41907.09, -0.03172574, -0.0955335, -256148.56, -256148.56, 0.0, 9.99616, 10.00005 
2.774369e+3, 3.1742007e+2, -236806.22, 286580.94, 19448.113, -0.016767269, -0.028757362, 287302.6, 287302.6, 0.0, 9.996631, 10.003603 
2.785877e+3, 1.2752192e+2, -1274897.4, -1566338.4, 21106.932, 0.19087243, 0.054228812, -1273376.6, 416912.03, 0.0007661999, 10.003306, 9.999428 
2.7857932e+3, 1.3752012e+2, -1205614.1, -1526933.6, 31693.133, 0.004342011, -0.02703383, -1202518.0, 389782.44, 0.00033419344, 10.003297, 9.999031 
2.7857128e+3, 1.4751832e+2, -1200968.0, -1563114.9, 117709.53, -0.029785924, -0.022035126, -1166071.3, 328246.7, 0.00009108268, 10.003051, 9.99822 
2.7856344e+3, 1.5751658e+2, -1143733.4, -1476746.6, 128081.914, 0.05554105, 0.015335562, -1100169.9, 296167.28, 0.000011753326, 10.002737, 9.998293 
2.785555e+3, 1.6751468e+2, -1073926.5, -1326890.3, 154625.66, 0.060062815, -0.004133122, -1000641.56, 297714.2, 0.00000025139548, 10.002266, 9.998873 
2.785476e+3, 1.7751275e+2, -1061606.3, -1288638.8, 150746.56, 0.02272514, -0.04786149, -986415.1, 213958.6, 0.0, 10.001752, 9.9987135 
2.7853975e+3, 1.8751128e+2, -989205.8, -1213268.3, 156995.13, 0.012623728, -0.023901075, -908368.0, 194020.75, 0.0, 10.001632, 9.9986105 
2.785319e+3, 1.9751006e+2, -883981.0, -1105459.5, 143448.55, 0.01577868, 0.028295204, -813500.3, 190901.3, 0.0, 10.001655, 9.998667 
2.7852404e+3, 2.0750858e+2, -820057.0, -967987.8, 128031.82, -0.00052417855, 0.016480638, -746160.9, 160254.58, 0.0, 10.001181, 9.999165 
2.7851617e+3, 2.1750702e+2, -825081.56, -929383.06, 114748.92, -0.021726675, -0.021093735, -751188.6, 57240.563, 0.0, 10.000508, 9.999084 
2.7850825e+3, 2.275058e+2, -808536.0, -857486.75, 107001.34, -0.031727713, -0.023606075, -723246.5, -12804.964, 0.0, 9.999895, 9.999199 
2.7850038e+3, 2.3750477e+2, -788173.1, -790480.9, 108582.3, -0.027031638, -0.013679555, -680738.56, -68285.98, 0.0, 9.999333, 9.999258 
2.784925e+3, 2.4750395e+2, -648407.2, -614373.3, 82157.7, 0.04509361, -0.018205523, -547488.75, -33029.355, 0.0, 9.999372, 9.999774 
2.7848458e+3, 2.5750327e+2, -523484.34, -508381.34, 86059.4, 0.12680575, -0.028621444, -429542.78, -13078.946, 0.0, 9.999575, 9.999733 
2.784766e+3, 2.6750252e+2, -493474.8, -407098.3, 84088.47, 0.042024598, -0.0640502, -355755.63, -37285.9, 0.0, 9.998959, 10.00005 
2.7846852e+3, 2.7750176e+2, -542964.1, -392661.0, 78498.734, -0.06536907, -0.10827492, -359139.6, -138664.13, 0.0, 9.997998, 9.99994 
2.7846062e+3, 2.8750157e+2, -502033.06, -315724.03, 55533.67, -0.0058899033, -0.08720292, -300426.94, -177948.42, 0.0, 9.997573, 10.000002 
2.7845263e+3, 2.975018e+2, -437590.84, -235084.89, 55655.387, 0.018342145, -0.032488283, -220797.02, -196318.23, 0.0, 9.997345, 9.999995 
2.7844453e+3, 3.0750194e+2, -422509.97, -150881.3, 21878.873, -0.04331545, -0.01464367, -149130.3, -149130.3, 0.0, 9.996892, 10.000455 
2.784366e+3, 3.1750163e+2, -318888.84, 294129.88, 66136.055, 0.069634445, -0.07583437, 301183.84, 301183.84, 0.0, 9.995871, 10.004019 
2.7958792e+3, 1.2760296e+2, -1288285.0, -1591631.8, 19627.74, 0.10325006, -0.07343213, -1287020.3, 402472.03, 0.0003149676, 10.003298, 9.999256 
2.795797e+3, 1.37603e+2, -1210797.8, -1536558.5, 29195.02, 0.058143154, 0.042926405, -1208202.0, 383285.88, 0.00012577252, 10.003292, 9.998967 
2.795716e+3, 1.4760078e+2, -1178727.5, -1518794.8, 104585.56, 0.010958822, -0.010315653, -1149137.5, 344370.66, 0.00002907313, 10.003057, 9.998523 
2.7956364e+3, 1.5759785e+2, -1129319.6, -1444457.6, 113300.945, 0.024044368, -0.12273629, -1092813.6, 302723.1, 0.0000024460635, 10.002726, 9.998521 
2.7955568e+3, 1.675967e+2, -1078178.5, -1336234.6, 132372.6, 0.042685762, -0.07358665, -1022353.25, 275195.78, 0.0000000042322403, 10.002266, 9.998809 
2.7954778e+3, 1.7759618e+2, -1069742.0, -1306184.5, 133075.42, 0.04908268, 0.031852663, -1009959.5, 189595.88, 0.0, 10.001753, 9.998593 
2.7953988e+3, 1.8759432e+2, -1004451.44, -1246313.5, 157235.55, 0.03525727, 0.037128765, -927020.8, 174553.8, 0.0, 10.001637, 9.998381 
2.7953205e+3, 1.9759206e+2, -904347.75, -1141374.1, 137729.9, 0.0154559985, 0.005939376, -841160.94, 162436.84, 0.0, 10.001625, 9.998436 
2.7952412e+3, 2.0759018e+2, -840880.6, -1009866.06, 103370.15, 0.005735263, -0.019447492, -791865.25, 113750.57, 0.0, 10.001171, 9.998883 
2.795162e+3, 2.1758851e+2, -837674.75, -953010.6, 91163.63, -0.0022235743, -0.040762473, -787470.56, 20160.576, 0.0, 10.000496, 9.99893 
2.7950826e+3, 2.2758755e+2, -794659.5, -829426.25, 85435.75, 0.0016672564, -0.023269054, -724856.56, -15215.762, 0.0, 9.999896, 9.9993925 
2.795003e+3, 2.3758692e+2, -781191.2, -775065.7, 94430.71, 0.012744289, 0.006825527, -683648.06, -72000.23, 0.0, 9.999327, 9.999369 
2.7949238e+3, 2.4758604e+2, -656426.7, -631768.2, 92118.734, 0.035258878, 0.0018737076, -551157.3, -37501.996, 0.0, 9.999373, 9.999655 
2.7948445e+3, 2.575852e+2, -526996.7, -524297.56, 83782.24, 0.04558969, -0.014661275, -441854.03, -26191.965, 0.0, 9.99961, 9.999608 
2.794764e+3, 2.675844e+2, -504524.3, -435996.38, 45100.863, 0.0029649313, -0.032731812, -413620.2, -95951.78, 0.0, 9.99898, 9.999843 
2.7946833e+3, 2.7758372e+2, -549445.4, -409311.53, 46370.09, -0.021050448, -0.053765807, -395357.25, -175683.14, 0.0, 9.99801, 9.999822 
2.7946037e+3, 2.8758314e+2, -492828.03, -294648.03, 45180.316, 0.030895445, -0.08038859, -284834.0, -163153.55, 0.0, 9.997564, 10.000151 
2.7945232e+3, 2.9758283e+2, -437440.53, -232163.42, 45041.78, 0.00076954317, -0.09058849, -222715.25, -199030.83, 0.0, 9.997332, 10.000023 
2.7944428e+3, 3.0758432e+2, -410889.47, -141677.0, -2275.9937, 0.07115505, 0.06486164, -141657.77, -141657.77, 0.0, 9.996947, 10.000496 
2.7943602e+3, 3.175821e+2, -456960.56, 34998.9, -30216.559, -0.04015123, -0.18107945, 36847.875, 36847.875, 0.0, 9.995777, 10.002271 
2.8058812e+3, 1.2768583e+2, -1273961.3, -1631608.9, 47559.004, 0.026986498, -0.071504265, -1267745.0, 420933.53, 0.00010351229, 10.003597, 9.998838 
2.8058e+3, 1.376853e+2, -1259860.3, -1591852.9, 38453.94, 0.09557386, 0.03101315, -1255464.4, 335216.97, 0.00003585604, 10.003091, 9.998686 
2.8057188e+3, 1.476831e+2, -1209193.6, -1522092.1, 99667.9, 0.050583273, -0.017844645, -1180143.4, 312558.44, 0.00000603324, 10.002799, 9.998624 
2.8056386e+3, 1.5768035e+2, -1144885.0, -1450322.9, 92225.68, 0.026365427, -0.12082911, -1119198.1, 275529.9, 0.00000016363987, 10.00261, 9.998537 
2.8055587e+3, 1.676791e+2, -1073845.3, -1356574.3, 99479.3, 0.033731356, -0.06666908, -1042351.25, 254390.31, 0.0, 10.002399, 9.998604 
2.8054795e+3, 1.7767847e+2, -1010551.2, -1280704.0, 95388.53, 0.037632704, 0.04357411, -980265.56, 218484.25, 0.0, 10.002185, 9.998554 
2.8054002e+3, 1.8767662e+2, -967039.3, -1197586.1, 143840.92, 0.018176202, 0.033020742, -897981.0, 202787.2, 0.0, 10.001763, 9.998654 
2.8053215e+3, 1.9767438e+2, -941516.94, -1137294.1, 155315.36, 0.00039392174, -0.022701874, -855816.2, 146973.88, 0.0, 10.00127, 9.998637 
2.8052422e+3, 2.0767264e+2, -871545.5, -1023832.1, 138323.08, 0.006308638, -0.039302457, -789793.06, 115013.71, 0.0, 10.00096, 9.998888 
2.8051624e+3, 2.1767119e+2, -807838.3, -942583.1, 143590.34, 0.0182747, -0.039085004, -716600.44, 90220.33, 0.0, 10.000724, 9.998889 
2.8050825e+3, 2.2767012e+2, -713575.9, -809812.25, 125606.805, 0.011459579, -0.01762985, -627185.94, 81645.78, 0.0, 10.000542, 9.999213 
2.8050026e+3, 2.3766926e+2, -643362.7, -723722.5, 110284.08, 0.0069425837, 0.009933494, -566167.06, 44673.92, 0.0, 10.000341, 9.99923 
2.8049228e+3, 2.476682e+2, -626145.3, -623595.8, 104994.875, 0.02256428, -0.0050174124, -519867.94, -7017.6313, 0.0, 9.999613, 9.999593 
2.8048432e+3, 2.576672e+2, -664230.7, -596947.06, 99497.18, 0.033150963, -0.031893976, -525558.1, -110699.42, 0.0, 9.998702, 9.999544 
2.8047624e+3, 2.6766658e+2, -559335.7, -475924.56, 65313.223, 0.0026420702, -0.026793472, -440137.06, -123272.734, 0.0, 9.998662, 9.999722 
2.8046817e+3, 2.7766603e+2, -429164.03, -362726.78, 71043.77, -0.002819992, -0.01639629, -317519.03, -98649.99, 0.0, 9.99888, 9.999723 
2.8046015e+3, 2.876652e+2, -375710.34, -239311.53, 58128.58, 0.037968434, -0.06342135, -217900.16, -97022.875, 0.0, 9.998375, 10.000139 
2.80452e+3, 2.976645e+2, -407541.9, -222080.64, 47316.27, -0.008173916, -0.10996085, -210706.52, -187822.48, 0.0, 9.9975605, 9.99998 
2.8044406e+3, 3.0766654e+2, -396738.2, -143304.22, -1844.7485, 0.13649273, 0.104644544, -143290.78, -143290.78, 0.0, 9.99708, 10.000421 
2.804356e+3, 3.1766343e+2, -320449.38, -21016.596, -28001.67, -0.09401064, -0.20930785, -18420.508, -18420.508, 0.0, 9.997245, 10.001174 
2.8158838e+3, 1.2777005e+2, -1328455.9, -1727337.1, 22014.387, -0.055343594, 0.020930318, -1327244.6, 360607.25, 0.00002429662, 10.00353, 9.99821 
2.815803e+3, 1.3776724e+2, -1292898.9, -1662521.8, 23115.617, 0.11198615, -0.044775818, -1291458.9, 298420.13, 0.000006466996, 10.003101, 9.998195 
2.8157216e+3, 1.4776537e+2, -1211005.5, -1533956.4, 91918.15, 0.08738471, -0.03637174, -1186676.6, 305220.66, 0.00000052844416, 10.002831, 9.9985285 
2.8156412e+3, 1.5776385e+2, -1153325.5, -1471667.9, 83516.336, 0.055243433, -0.006307439, -1132745.6, 261166.84, 0.0000000005064632, 10.002625, 9.998384 
2.8155607e+3, 1.6776189e+2, -1092453.6, -1397912.0, 92426.16, 0.02521155, 0.0002171798, -1066664.4, 229268.45, 0.0, 10.002409, 9.998316 
2.8154808e+3, 1.7775989e+2, -1013707.25, -1283261.8, 87213.17, -0.018800465, -0.0020007435, -987950.9, 210003.23, 0.0, 10.002166, 9.998548 
2.8154013e+3, 1.8775836e+2, -920949.1, -1097847.9, 126280.7, -0.034766644, -0.025642063, -855222.94, 244744.78, 0.0, 10.001743, 9.99935 
2.815322e+3, 1.9775705e+2, -906953.75, -1057846.0, 137832.25, -0.03330651, -0.05485947, -825269.8, 176708.39, 0.0, 10.001236, 9.9992 
2.8152427e+3, 2.0775594e+2, -856844.25, -991320.0, 128229.58, -0.00048330508, -0.04387619, -779293.44, 124695.22, 0.0, 10.00095, 9.999117 
2.815163e+3, 2.1775492e+2, -809762.8, -941099.25, 134002.72, 0.032866403, -0.019879747, -726202.9, 79796.19, 0.0, 10.000698, 9.998912 
2.8150824e+3, 2.2775342e+2, -751292.25, -888276.06, 119125.47, -0.0046086176, -0.00912132, -682372.3, 25642.77, 0.0, 10.000541, 9.998676 
2.815002e+3, 2.3775183e+2, -668694.75, -778159.06, 96033.49, -0.057902113, -0.0040330207, -612891.7, -2859.4705, 0.0, 10.000347, 9.998855 
2.814922e+3, 2.4775048e+2, -626670.6, -625035.44, 68608.26, 0.006080893, -0.036810715, -557239.9, -45195.684, 0.0, 9.999611, 9.999586 
2.8148422e+3, 2.5774926e+2, -666816.0, -600104.0, 75729.06, 0.09073375, -0.07970299, -550710.3, -136656.69, 0.0, 9.99869, 9.99953 
2.814761e+3, 2.6774883e+2, -562841.0, -482230.0, 76520.984, 0.04118361, -0.048922095, -436048.53, -119990.72, 0.0, 9.998657, 9.999681 
2.81468e+3, 2.777487e+2, -428139.0, -369616.06, 71731.46, -0.020064974, 0.0031118244, -321407.28, -103347.266, 0.0, 9.998917, 9.99966 
2.8145993e+3, 2.877478e+2, -385172.2, -267276.94, 27206.582, 0.0068074116, -0.034790352, -261301.36, -141232.6, 0.0, 9.998406, 9.999935 
2.8145173e+3, 2.9774684e+2, -409450.9, -233480.77, 20029.932, -0.029404514, -0.08999331, -231229.64, -209152.06, 0.0, 9.997591, 9.999888 
2.8144372e+3, 3.0774856e+2, -407350.53, -165166.63, -15414.194, 0.14977543, 0.10220265, -164189.5, -164189.5, 0.0, 9.997078, 10.000272 
2.8143537e+3, 3.177462e+2, -297613.6, -14572.977, 135767.36, -0.004336031, -0.12105179, 40020.902, 40020.902, 0.0, 9.9974, 10.001154 
2.825887e+3, 1.2785292e+2, -1434549.6, -1759468.6, 5975.2925, -0.01796685, 0.034298886, -1434439.9, 252600.34, 0.000003329977, 10.002711, 9.998388 
2.8258055e+3, 1.3784987e+2, -1209914.0, -1615134.9, 43161.207, 0.06560563, -0.07230532, -1205367.8, 383701.34, 0.00000050691085, 10.00364, 9.9982605 
2.8257242e+3, 1.4784813e+2, -1146713.9, -1532350.0, 99065.2, 0.053186715, -0.035219464, -1122753.9, 368333.13, 0.0000000023756648, 10.003407, 9.99826 
2.8256437e+3, 1.5784687e+2, -1136748.5, -1476729.8, 82200.32, 0.067267425, 0.04528096, -1117917.3, 275183.78, 0.0, 10.002801, 9.998262 
2.825563e+3, 1.6784474e+2, -1095076.9, -1384411.5, 109034.64, 0.035051636, 0.03112112, -1058589.0, 236533.73, 0.0, 10.002327, 9.998449 
2.8254825e+3, 1.7784242e+2, -1043730.5, -1285411.6, 124905.17, -0.022550432, -0.014404282, -990778.8, 206367.34, 0.0, 10.001902, 9.998663 
2.8254023e+3, 1.8784112e+2, -964313.75, -1107699.3, 136557.1, -0.033469852, -0.025474085, -881773.94, 217383.61, 0.0, 10.001403, 9.999444 
2.825323e+3, 1.9784021e+2, -949283.5, -1066620.3, 113410.72, -0.022081425, -0.023781441, -880264.9, 120899.29, 0.0, 10.000905, 9.999293 
2.8252432e+3, 2.0783915e+2, -882683.75, -1002339.1, 92599.836, 0.001983988, -0.012883848, -832265.9, 70908.625, 0.0, 10.0007715, 9.999125 
2.8251633e+3, 2.1783806e+2, -796775.0, -928355.5, 84892.46, 0.028923051, 0.0019068134, -755163.75, 50022.152, 0.0, 10.000761, 9.998968 
2.8250828e+3, 2.2783662e+2, -744278.1, -867999.75, 98719.05, -0.0035045783, 0.0058936495, -689639.1, 17561.691, 0.0, 10.000518, 9.998825 
2.825002e+3, 2.3783511e+2, -684770.06, -772963.7, 119580.09, -0.04523436, 0.0059324987, -601415.2, 7801.08, 0.0, 10.000184, 9.998968 
2.8249216e+3, 2.4783374e+2, -563653.4, -593680.0, 98117.35, 0.0024868913, -0.03157786, -479407.38, 31820.658, 0.0, 10.00004, 9.999594 
2.8248408e+3, 2.578325e+2, -491967.47, -523577.06, 109478.836, 0.06706178, -0.07860785, -397158.5, 16079.385, 0.0, 9.999922, 9.999462 
2.82476e+3, 2.6783195e+2, -475575.88, -466630.53, 107080.38, 0.037558004, -0.04361261, -363929.44, -48685.32, 0.0, 9.999373, 9.999443 
2.824679e+3, 2.7783164e+2, -478836.0, -407972.47, 83406.48, 0.014945037, 0.016565742, -352783.88, -135535.31, 0.0, 9.998638, 9.999527 
2.8245974e+3, 2.8783062e+2, -412132.4, -274757.13, 40617.4, 0.008123613, -0.029951802, -263646.47, -144389.03, 0.0, 9.998199, 9.999983 
2.8245142e+3, 2.9782957e+2, -368823.38, -218309.06, 57063.332, -0.08012564, -0.097618565, -199121.19, -177855.14, 0.0, 9.997886, 9.999852 
2.824435e+3, 3.0783084e+2, -275801.94, -141729.08, 24157.7, 0.19126174, 0.073289655, -137509.08, -137509.08, 0.0, 9.998156, 9.999912 
2.8243515e+3, 3.1782886e+2, -290609.0, -25554.14, 142238.92, 0.054147378, -0.0757771, 36328.902, 36328.902, 0.0, 9.997521, 10.001015 
2.8358907e+3, 1.2793495e+2, -1378206.8, -1642053.3, 41234.81, 0.0998271, -0.0009713224, -1371912.6, 314325.47, 0.00000016214108, 10.002715, 9.999188 
2.8358075e+3, 1.3793314e+2, -1185551.1, -1553414.8, 59354.918, -0.04255144, -0.059123702, -1176211.4, 412041.1, 0.0000000020979667, 10.0035925, 9.998707 
2.8357264e+3, 1.4793132e+2, -1180304.3, -1592865.8, 73180.26, -0.04565341, -0.021383395, -1167708.0, 322563.88, 0.0, 10.003364, 9.997867 
2.835646e+3, 1.5792954e+2, -1152224.0, -1499906.6, 61758.523, 0.05749473, 0.04360114, -1141579.8, 250712.86, 0.0, 10.00276, 9.998124 
2.8355652e+3, 1.679277e+2, -1067106.5, -1322966.6, 93183.74, 0.060344413, 0.0345229, -1036766.8, 257544.03, 0.0, 10.002311, 9.9988785 
2.8354844e+3, 1.7792591e+2, -1031511.9, -1258708.8, 106469.17, 0.016541682, 0.0042189965, -989417.4, 206910.22, 0.0, 10.001896, 9.99885 
2.835404e+3, 1.8792474e+2, -990060.75, -1165423.9, 116514.94, 0.010217964, 0.024764646, -931921.2, 166417.8, 0.0, 10.001419, 9.999041 
2.835324e+3, 1.9792376e+2, -973196.25, -1116019.4, 99414.305, 0.016868534, 0.059296783, -922203.5, 78144.93, 0.0, 10.000903, 9.998957 
2.8352436e+3, 2.0792225e+2, -894893.8, -1029142.8, 93302.31, 0.008865752, 0.048623756, -847079.1, 55284.785, 0.0, 10.000775, 9.9989395 
2.8351635e+3, 2.1792065e+2, -791388.7, -913640.0, 82230.74, -0.005376253, 0.024219358, -750053.44, 54327.14, 0.0, 10.000745, 9.999078 
2.8350833e+3, 2.2791976e+2, -690252.94, -753808.06, 86636.67, 0.012959049, 0.028629102, -629749.8, 76638.57, 0.0, 10.000507, 9.999616 
2.8350025e+3, 2.3791912e+2, -646839.5, -691863.0, 109227.81, 0.041570425, 0.04019114, -557827.75, 50565.44, 0.0, 10.000172, 9.999531 
2.8349215e+3, 2.4791804e+2, -562238.06, -592754.7, 95428.32, 0.006951842, 0.011385471, -480855.88, 29546.023, 0.0, 10.000048, 9.999598 
2.8348392e+3, 2.5791687e+2, -493755.3, -537547.75, 99743.336, -0.05965385, -0.026187839, -413533.06, -1121.5624, 0.0, 9.999964, 9.999348 
2.8347585e+3, 2.6791582e+2, -504509.84, -531470.06, 78183.52, -0.013423082, -0.0086873, -438652.84, -124229.73, 0.0, 9.99939, 9.998992 
2.8346783e+3, 2.779148e+2, -492238.06, -436129.0, 58486.36, 0.1004327, 0.019283632, -399316.66, -182881.69, 0.0, 9.998637, 9.999335 
2.8345954e+3, 2.879137e+2, -390535.06, -225747.52, 28595.926, 0.043616384, -0.05168092, -220926.27, -102483.17, 0.0, 9.998181, 10.000329 
2.834511e+3, 2.9791278e+2, -367353.4, -214495.61, 57019.367, -0.1602733, -0.1322095, -195569.47, -175121.39, 0.0, 9.99788, 9.999883 
2.8344333e+3, 3.079133e+2, -311669.25, -234502.2, 45425.207, 0.24958143, 0.005075911, -213485.9, -213485.9, 0.0, 9.998229, 9.999243 
2.8343487e+3, 3.1791183e+2, -337055.97, -97062.305, -162847.16, 0.041598752, -0.03290588, -14776.086, -14776.086, 0.0, 9.997425, 10.000565 
2.845893e+3, 1.2801741e+2, -1347500.9, -1627230.3, 66590.93, 0.08676469, -0.0041125314, -1332457.6, 352973.5, 0.00000000032983427, 10.002919, 9.999196 
2.8458107e+3, 1.3801625e+2, -1279742.1, -1587817.8, 26551.443, -0.033528697, 0.0022505792, -1277470.6, 309968.94, 0.0, 10.002896, 9.998807 
2.8457287e+3, 1.4801435e+2, -1283287.8, -1616554.8, 33574.332, -0.055982728, 0.013430736, -1279939.1, 209520.33, 0.0, 10.002545, 9.998098 
2.845648e+3, 1.580123e+2, -1227773.5, -1510610.6, 62146.887, 0.022663843, 0.02605942, -1214720.5, 176761.84, 0.0, 10.0021305, 9.998355 
2.8455672e+3, 1.6801079e+2, -1087304.5, -1306530.6, 104395.3, 0.061247554, 0.026790012, -1045545.9, 247950.94, 0.0, 10.002064, 9.999108 
2.8454867e+3, 1.7800948e+2, -991464.06, -1222558.6, 104362.44, 0.06715677, 0.022044998, -951310.7, 244197.58, 0.0, 10.002106, 9.998992 
2.8454056e+3, 1.8800819e+2, -952296.2, -1166773.0, 112285.46, 0.03365036, 0.039118446, -904266.75, 193254.34, 0.0, 10.001765, 9.998864 
2.8453246e+3, 1.9800697e+2, -922124.94, -1104319.8, 113613.55, -0.0012630704, 0.065176636, -867596.9, 131937.25, 0.0, 10.001307, 9.998845 
2.845244e+3, 2.0800538e+2, -870826.8, -1012019.8, 131124.1, 0.0015173181, 0.048207063, -792502.5, 109047.78, 0.0, 10.000917, 9.998989 
2.845164e+3, 2.1800375e+2, -811336.8, -909293.3, 132287.36, 0.0138109345, 0.018724408, -719251.9, 84314.83, 0.0, 10.00055, 9.9992 
2.8450832e+3, 2.2800308e+2, -712743.06, -735036.06, 107046.65, 0.021926122, 0.023070745, -616264.1, 89308.13, 0.0, 10.000229, 9.999877 
2.8450024e+3, 2.3800273e+2, -672829.4, -685136.8, 94921.35, 0.035689123, 0.03855798, -583862.5, 23711.576, 0.0, 9.999912, 9.9997015 
2.8449208e+3, 2.4800181e+2, -622834.06, -628151.5, 72441.31, -0.002189888, 0.023870287, -553002.7, -43420.97, 0.0, 9.9996605, 9.999539 
2.8448385e+3, 2.5800076e+2, -578915.75, -575424.4, 71670.81, -0.062673055, 0.0029392918, -505478.0, -93887.06, 0.0, 9.999372, 9.999371 
2.8447574e+3, 2.6799968e+2, -505798.7, -510288.2, 80252.03, -0.011437308, 0.0034243206, -427760.03, -114157.98, 0.0, 9.999289, 9.999186 
2.8446767e+3, 2.7799854e+2, -398591.1, -382738.78, 105126.375, 0.10970515, 0.0046614525, -285240.2, -69626.43, 0.0, 9.999239, 9.999416 
2.8445938e+3, 2.879975e+2, -286103.6, -194098.34, 56368.414, 0.05637461, -0.05045191, -167343.56, -49722.426, 0.0, 9.9989805, 10.000161 
2.844509e+3, 2.979967e+2, -273614.34, -181828.31, 53008.61, -0.14143215, -0.10717415, -157606.55, -137980.8, 0.0, 9.998588, 9.999762 
2.8444308e+3, 3.0799618e+2, -329151.28, -244463.56, 83907.53, 0.22958577, -0.067935385, -192820.84, -192820.84, 0.0, 9.998125, 9.999223 
2.844346e+3, 3.179958e+2, -189227.61, -32614.096, -201085.27, 0.016895078, 0.0075789983, 104873.57, 104873.57, 0.0, 9.998469, 10.000505 
2.8558943e+3, 1.2810013e+2, -1388561.5, -1709636.8, 63196.332, -0.038259424, 0.012486092, -1376570.6, 308050.5, 0.0, 10.0029125, 9.99863 
2.855814e+3, 1.3809928e+2, -1297550.5, -1615062.4, 23577.39, 0.06599651, 0.0982902, -1295809.4, 290819.9, 0.0, 10.002856, 9.998638 
2.8557315e+3, 1.4809738e+2, -1236363.8, -1516014.6, 17774.266, 0.0029215983, 0.06752942, -1235238.5, 253409.64, 0.0, 10.002529, 9.998796 
2.8556493e+3, 1.580952e+2, -1192435.0, -1435988.9, 50875.28, -0.03721113, 0.0015840679, -1182235.0, 208434.98, 0.0, 10.002124, 9.99887 
2.8555685e+3, 1.68094e+2, -1081075.5, -1292627.3, 106556.33, 0.03540628, 0.007917656, -1036708.8, 255971.86, 0.0, 10.002059, 9.999207 
2.8554887e+3, 1.7809308e+2, -991281.06, -1214551.5, 100385.91, 0.11584651, 0.03301017, -952783.8, 241904.33, 0.0, 10.002071, 9.999064 
2.855407e+3, 1.8809153e+2, -955518.3, -1169451.5, 94579.58, 0.037265286, 0.021728378, -919701.3, 177002.19, 0.0, 10.001745, 9.9988575 
2.8553247e+3, 1.9808985e+2, -920070.0, -1094370.6, 96869.375, -0.07668158, 0.0022786832, -876917.4, 121803.39, 0.0, 10.001282, 9.998925 
2.8552446e+3, 2.0808853e+2, -854196.4, -975988.4, 117397.74, -0.019017678, -0.0076691685, -782840.56, 117893.164, 0.0, 10.000911, 9.99924 
2.8551647e+3, 2.1808738e+2, -808039.8, -896511.0, 118989.5, 0.07838114, -0.014528039, -725329.4, 77415.53, 0.0, 10.000524, 9.999302 
2.8550833e+3, 2.2808655e+2, -731253.4, -774155.94, 95370.44, 0.017421108, -0.010368899, -654951.5, 49801.336, 0.0, 10.000229, 9.99961 
2.8550008e+3, 2.3808588e+2, -685438.6, -714633.75, 83621.664, -0.08240877, -0.0012152608, -615149.94, -8390.528, 0.0, 9.999925, 9.999494 
2.85492e+3, 2.4808504e+2, -630700.5, -643793.44, 61236.746, -0.024918143, 0.004093171, -575661.3, -66893.34, 0.0, 9.999656, 9.999435 
2.854839e+3, 2.5808418e+2, -564905.56, -547132.1, 62911.99, 0.06378686, 0.0054674847, -492482.28, -81705.66, 0.0, 9.999373, 9.999565 
2.854757e+3, 2.680835e+2, -444483.9, -384004.7, 80205.67, 0.044189293, -0.00938055, -328527.4, -15746.38, 0.0, 9.99929, 10.000054 
2.8546748e+3, 2.78083e+2, -368726.4, -327752.47, 101867.55, 0.02386253, -0.02722086, -244332.2, -29548.234, 0.0, 9.999268, 9.999782 
2.8545922e+3, 2.8808218e+2, -338431.44, -309378.1, 43234.402, 0.040620487, -0.021287862, -278295.16, -161504.02, 0.0, 9.999007, 9.999357 
2.8545085e+3, 2.980813e+2, -283014.47, -215166.77, 34716.246, -0.028661806, -0.014009738, -200551.5, -181751.9, 0.0, 9.998648, 9.999505 
2.8544274e+3, 3.0807945e+2, -275171.53, -128460.25, 63775.03, 0.11170935, -0.15433285, -104613.5, -104613.5, 0.0, 9.998109, 10.000029 
2.854344e+3, 3.1808057e+2, -146280.5, 22170.914, 9497.236, 0.021116104, 0.004930753, 22704.674, 22704.674, 0.0, 9.998599, 10.000828 
2.8658968e+3, 1.2818311e+2, -1377258.0, -1697963.9, 65767.02, -0.04788337, 0.031302247, -1364295.1, 319512.8, 0.0, 10.002959, 9.998689 
2.8658167e+3, 1.381817e+2, -1373999.8, -1635959.0, 60382.684, 0.07814715, 0.055441085, -1360751.4, 225070.17, 0.0, 10.002259, 9.998783 
2.8657335e+3, 1.4818013e+2, -1281105.0, -1504164.3, 51145.44, 0.02188594, 0.035947677, -1269936.9, 217899.94, 0.0, 10.002082, 9.999091 
2.8656512e+3, 1.5817852e+2, -1181858.3, -1401124.3, 60415.688, -0.018174523, -0.00067719707, -1166313.6, 223539.11, 0.0, 10.002071, 9.999132 
2.8655702e+3, 1.6817747e+2, -1115418.4, -1295379.9, 109684.44, 0.027088866, 0.0031085422, -1063528.8, 228333.27, 0.0, 10.001765, 9.999329 
2.8654897e+3, 1.781766e+2, -1085973.8, -1252898.1, 103115.555, 0.080937706, 0.021607142, -1036775.6, 157093.67, 0.0, 10.001388, 9.999132 
2.865408e+3, 1.8817504e+2, -1027393.44, -1206859.1, 95480.484, 0.022086192, 0.007979302, -986097.6, 109787.83, 0.0, 10.001266, 9.99883 
2.8653258e+3, 1.9817331e+2, -921845.8, -1081762.4, 96362.48, -0.062741764, -0.016208148, -876588.06, 121315.625, 0.0, 10.001215, 9.999041 
2.865245e+3, 2.0817241e+2, -833178.2, -925689.0, 116424.77, -0.019947384, -0.0108656, -754156.75, 145755.25, 0.0, 10.000886, 9.999596 
2.865165e+3, 2.181718e+2, -799114.7, -868687.2, 127721.99, 0.058507554, 0.004871926, -701526.5, 100390.57, 0.0, 10.000485, 9.99951 
2.865083e+3, 2.2817087e+2, -733691.0, -790220.2, 118117.31, 0.0036856155, -0.0007487528, -640503.56, 63423.004, 0.0, 10.000278, 9.9994755 
2.8650004e+3, 2.381699e+2, -659228.06, -705615.75, 118122.375, -0.07887764, -0.009881377, -562043.94, 43893.047, 0.0, 10.000125, 9.999457 
2.8649193e+3, 2.481692e+2, -558867.1, -594295.25, 112092.79, -0.01242831, 0.0053749555, -463097.34, 44846.76, 0.0, 10.000089, 9.999566 
2.8648382e+3, 2.581686e+2, -461157.6, -481451.63, 124482.414, 0.085397564, 0.024342872, -346409.3, 63540.75, 0.0, 10.000016, 9.999706 
2.864756e+3, 2.68168e+2, -407803.94, -345090.78, 98657.26, 0.051218223, -0.004578062, -272926.9, 39026.867, 0.0, 9.999453, 10.000242 
2.8646734e+3, 2.7816746e+2, -446660.2, -356819.88, 76014.734, 0.018554887, -0.041463606, -313444.72, -99488.42, 0.0, 9.998704, 9.999849 
2.8645912e+3, 2.8816682e+2, -379310.88, -353744.44, 54170.74, 0.061873913, -0.007500066, -310869.06, -194906.14, 0.0, 9.998837, 9.999133 
2.8645074e+3, 2.9816604e+2, -206849.63, -199073.83, 79363.67, 0.026692644, 0.035959654, -123502.875, -105531.18, 0.0, 9.999258, 9.999325 
2.8644255e+3, 3.081636e+2, -96864.64, -51753.76, 51511.855, 0.06345899, -0.15175317, -18075.588, -18075.588, 0.0, 9.999378, 9.999944 
2.8643426e+3, 3.1816468e+2, -132214.52, 56932.957, 3602.13, 0.03290485, 0.0032011592, 57001.53, 57001.53, 0.0, 9.998587, 10.001068 
2.8759003e+3, 1.2826636e+2, -1339798.6, -1619175.8, 40251.332, 0.021176158, 0.05925924, -1334115.1, 348876.25, 0.0, 10.002958, 9.999227 
2.875818e+3, 1.3826373e+2, -1355181.4, -1588350.4, 42779.66, 0.010306839, -0.090285964, -1347580.4, 237434.53, 0.0, 10.002225, 9.999125 
2.8757352e+3, 1.4826274e+2, -1285829.6, -1509088.9, 52590.09, 0.0025415556, -0.06276205, -1274062.0, 212963.11, 0.0, 10.002058, 9.99907 
2.8756535e+3, 1.5826222e+2, -1185687.8, -1400289.3, 58528.277, 0.05587383, 0.01051602, -1170763.3, 218268.28, 0.0, 10.002032, 9.999157 
2.8755715e+3, 1.6826123e+2, -1109385.1, -1280168.4, 96732.49, 0.030959675, 0.011775692, -1065746.1, 225294.61, 0.0, 10.001752, 9.99944 
2.87549e+3, 1.7826013e+2, -1082309.9, -1244464.3, 92588.66, -0.025406245, -0.0031358215, -1040317.3, 152733.47, 0.0, 10.001384, 9.999192 
2.8754085e+3, 1.8825871e+2, -1029936.4, -1211983.4, 95619.94, -0.009844404, -0.0025155297, -988943.0, 106123.59, 0.0, 10.001265, 9.9987955 
2.8753278e+3, 1.9825727e+2, -918396.9, -1066022.8, 92085.8, 0.02151265, 0.002217974, -874192.25, 122891.0, 0.0, 10.001177, 9.999167 
2.8752458e+3, 2.0825697e+2, -804051.7, -863421.94, 101798.49, -0.009776519, 0.033973016, -727698.44, 171386.97, 0.0, 10.0008745, 10.0000305 
2.875164e+3, 2.18257e+2, -780418.1, -826110.3, 114929.17, -0.056235768, 0.07186911, -686086.3, 114997.305, 0.0, 10.000468, 9.999811 
2.8750828e+3, 2.2825599e+2, -733948.9, -789473.25, 112526.375, -0.016744973, 0.048770897, -645810.56, 57283.086, 0.0, 10.000274, 9.999482 
2.8750017e+3, 2.3825474e+2, -650793.94, -687441.5, 114772.95, 0.045906074, 0.010328995, -552891.25, 52215.37, 0.0, 10.000121, 9.999584 
2.8749198e+3, 2.4825436e+2, -533239.06, -545347.25, 112363.14, 0.028151728, 0.029388474, -426767.03, 80342.73, 0.0, 10.000104, 9.999896 
2.8748372e+3, 2.582542e+2, -452719.4, -472432.72, 115389.66, -0.025474122, 0.063705094, -346766.2, 62344.17, 0.0, 10.0000515, 9.999752 
2.8747547e+3, 2.6825312e+2, -447243.16, -426350.28, 68323.35, 0.0032249303, 0.020112744, -367679.38, -56559.17, 0.0, 9.99945, 9.999684 
2.8746727e+3, 2.7825183e+2, -460103.88, -386841.94, 57734.203, 0.09154032, -0.040234838, -355098.44, -141966.69, 0.0, 9.998711, 9.99964 
2.8745902e+3, 2.8825134e+2, -345973.5, -287006.4, 72547.31, 0.12048753, -0.0144850025, -238180.36, -123043.26, 0.0, 9.998844, 9.999591 
2.8745067e+3, 2.98251e+2, -211944.02, -214567.63, 93746.1, 0.020822337, 0.03672725, -119500.55, -102359.21, 0.0, 9.999283, 9.999207 
2.8744248e+3, 3.082491e+2, -177456.3, -233202.16, 53447.71, 0.08076234, -0.01148449, -145050.22, -145050.22, 0.0, 9.999445, 9.998663 
2.8743404e+3, 3.1824774e+2, -120994.484, 101838.61, -202575.48, 0.009858198, -0.001751653, 221615.66, 221615.66, 0.0, 9.998501, 10.001415 
2.8859028e+3, 1.2835012e+2, -1361780.4, -1644778.8, 69660.31, 0.045084238, 0.03499227, -1345562.8, 336606.25, 0.0, 10.002866, 9.9991 
2.8858194e+3, 1.3834777e+2, -1404159.9, -1607432.1, 44530.473, 0.0018966765, -0.07378994, -1394832.6, 189358.48, 0.0, 10.001867, 9.9991665 
2.8857365e+3, 1.4834696e+2, -1344761.1, -1504621.8, 82183.06, -0.0041496363, -0.051260345, -1310048.9, 176150.55, 0.0, 10.0015135, 9.999362 
2.885655e+3, 1.5834656e+2, -1269257.1, -1423430.3, 105688.914, 0.06216499, 0.008176269, -1215529.0, 172674.97, 0.0, 10.001385, 9.9993105 
2.8855726e+3, 1.6834551e+2, -1158922.0, -1320521.6, 134920.86, 0.025815863, 0.010615197, -1082456.9, 207757.75, 0.0, 10.001482, 9.999292 
2.8854907e+3, 1.783443e+2, -1048820.1, -1224951.6, 113684.164, -0.05007195, -0.0028232988, -993081.7, 199145.38, 0.0, 10.001599, 9.999221 
2.8854093e+3, 1.8834332e+2, -1024603.3, -1169127.5, 125065.56, -0.020802518, 0.017963916, -952424.4, 141813.95, 0.0, 10.001129, 9.999154 
2.8853282e+3, 1.9834246e+2, -997304.9, -1078883.9, 147797.11, 0.0405418, 0.04881, -884771.94, 111476.8, 0.0, 10.000526, 9.999394 
2.885246e+3, 2.0834193e+2, -868109.8, -900360.94, 142325.31, -0.009608792, 0.052911755, -740999.44, 157253.95, 0.0, 10.000462, 9.999975 
2.8851637e+3, 2.1834148e+2, -766146.1, -815590.0, 124108.56, -0.086109824, 0.05207219, -664321.2, 135934.97, 0.0, 10.000551, 9.999844 
2.8850827e+3, 2.2834085e+2, -701190.2, -752144.5, 121028.484, -0.029760903, 0.05087781, -602986.4, 99276.4, 0.0, 10.000407, 9.999674 
2.8850016e+3, 2.3834015e+2, -630878.9, -657352.56, 135342.31, 0.066983834, 0.047910627, -508127.66, 96142.766, 0.0, 10.00017, 9.999767 
2.884919e+3, 2.4833971e+2, -562646.6, -543746.4, 123102.74, 0.032010067, 0.045507513, -429731.56, 76542.055, 0.0, 9.999838, 10.000033 
2.8848365e+3, 2.5833935e+2, -530496.2, -502988.38, 114227.48, -0.045183193, 0.047100198, -401689.75, 6585.9023, 0.0, 9.999498, 9.999804 
2.884754e+3, 2.6833838e+2, -440666.34, -443991.63, 80687.69, 0.0005773081, 0.026215397, -361624.16, -51339.05, 0.0, 9.999592, 9.99949 
2.8846717e+3, 2.783372e+2, -332918.38, -330819.78, 97023.09, 0.11767175, -0.0035084556, -234840.3, -22543.531, 0.0, 9.999609, 9.99959 
2.884589e+3, 2.8833658e+2, -226963.13, -221982.78, 122052.59, 0.119011156, 0.0033259012, -102394.96, 11908.513, 0.0, 9.999634, 9.999654 
2.8845054e+3, 2.9833612e+2, -130825.16, -173981.6, 111529.98, -0.01708216, 0.037860584, -38805.156, -22496.438, 0.0, 9.99984, 9.999216 
2.8844234e+3, 3.0833524e+2, -197663.17, -265882.53, 118206.66, 0.041144636, 0.10473411, -108743.25, -108743.25, 0.0, 9.999419, 9.99846 
2.8843394e+3, 3.1833252e+2, -6472.2134, 132002.64, -144730.6, 0.057825007, 0.0051711407, 223204.5, 223204.5, 0.0, 9.999385, 10.001218 
2.8959054e+3, 1.284343e+2, -1420847.6, -1738968.9, 22606.729, 0.029682599, -0.02343332, -1419249.3, 262093.05, 0.0, 10.002751, 9.998506 
2.8958213e+3, 1.3843343e+2, -1426356.8, -1640172.3, 17990.39, 0.033636462, 0.067619495, -1424853.5, 158500.27, 0.0, 10.001812, 9.998967 
2.895738e+3, 1.4843245e+2, -1308469.5, -1429922.5, 76305.02, -0.003281283, 0.046669263, -1271676.0, 213686.63, 0.0, 10.001515, 9.999874 
2.8956556e+3, 1.5843144e+2, -1251034.1, -1389958.0, 102004.47, 0.013536732, -0.0013567957, -1197086.6, 190284.19, 0.0, 10.001403, 9.999532 
2.8955737e+3, 1.6843021e+2, -1184889.8, -1372386.6, 140318.88, 0.010218519, -0.0018662531, -1109883.5, 179501.19, 0.0, 10.001473, 9.998941 
2.8954923e+3, 1.78429e+2, -1058499.1, -1231110.4, 110114.445, -0.016832134, 0.013464852, -1004898.25, 186500.94, 0.0, 10.001539, 9.9992075 
2.89541e+3, 1.8842877e+2, -979786.44, -1072481.9, 101765.414, -0.01810023, 0.06528275, -914311.5, 179090.23, 0.0, 10.00111, 9.999827 
2.8953278e+3, 1.9842875e+2, -977592.25, -1038166.0, 132798.27, -0.0071477764, 0.12017001, -871670.94, 123730.71, 0.0, 10.000527, 9.999674 
2.895246e+3, 2.084272e+2, -901753.7, -971784.8, 146439.77, -0.017958779, 0.046444494, -786201.4, 111215.336, 0.0, 10.000468, 9.999482 
2.8951642e+3, 2.1842536e+2, -785177.3, -849618.75, 124418.53, -0.04118489, -0.05099648, -688875.1, 110559.24, 0.0, 10.000526, 9.999622 
2.8950825e+3, 2.2842552e+2, -678302.7, -702938.2, 113411.445, -0.04429692, 0.011327667, -576542.0, 124891.34, 0.0, 10.000398, 10.000016 
2.8950006e+3, 2.3842612e+2, -616003.56, -626770.9, 124066.82, -0.03467958, 0.106529884, -497203.63, 106224.48, 0.0, 10.000171, 9.999978 
2.8949183e+3, 2.4842517e+2, -567312.7, -552172.4, 108629.67, 0.00024597376, 0.050591387, -450849.4, 54586.77, 0.0, 9.999833, 9.999978 
2.894836e+3, 2.5842392e+2, -523466.56, -491859.7, 109466.77, 0.02681896, -0.032899387, -397061.5, 10385.344, 0.0, 9.999512, 9.999872 
2.8947535e+3, 2.684238e+2, -425640.97, -417191.75, 86200.94, 0.04209832, 0.014128779, -335111.97, -25663.703, 0.0, 9.999607, 9.999666 
2.8946707e+3, 2.7842373e+2, -317545.34, -312946.8, 93247.89, 0.08313491, 0.076794215, -221969.84, -10520.178, 0.0, 9.999665, 9.999687 
2.8945875e+3, 2.8842255e+2, -253393.34, -277832.6, 132026.66, 0.041890986, 0.045641396, -133022.03, -19560.246, 0.0, 9.999648, 9.999256 
2.8945038e+3, 2.9842126e+2, -108580.766, -131267.16, 110324.61, -0.1255372, 0.024444198, -9017.755, 6457.1226, 0.0, 9.999861, 9.9994955 
2.8944215e+3, 3.084216e+2, -116646.984, -88781.086, 95173.07, -0.051195964, 0.1177389, -6526.5015, -6526.5015, 0.0, 9.999389, 9.99969 
2.89434e+3, 3.184189e+2, -90234.24, -57831.805, 44920.832, 0.20681171, -0.045428876, -26279.902, -26279.902, 0.0, 9.999451, 9.9998865 
2.9059064e+3, 1.2851824e+2, -1537116.5, -1737581.9, -48694.313, -0.032878447, -0.02422897, -1525914.4, 154606.36, 0.0, 10.001699, 9.999025 
2.905823e+3, 1.3851795e+2, -1483748.9, -1631200.6, 15545.767, 0.098343596, 0.07560019, -1482127.6, 100397.54, 0.0, 10.001257, 9.999298 
2.9057392e+3, 1.4851695e+2, -1327765.0, -1445129.3, 80244.45, 0.035831187, 0.046360716, -1287035.0, 197499.06, 0.0, 10.001406, 9.999823 
2.9056564e+3, 1.5851577e+2, -1211829.9, -1364206.4, 69427.69, -0.009047837, -0.017026506, -1184941.3, 201603.4, 0.0, 10.00164, 9.999594 
2.9055744e+3, 1.6851488e+2, -1207966.1, -1350306.8, 121663.6, -0.013192322, -0.0051024994, -1138185.3, 150369.8, 0.0, 10.001171, 9.999238 
2.9054928e+3, 1.7851412e+2, -1178517.4, -1254343.0, 133392.39, -0.0197067, 0.028725527, -1077754.6, 112810.086, 0.0, 10.000565, 9.999518 
2.9054105e+3, 1.8851398e+2, -1010083.5, -1053574.6, 119993.68, -0.026359463, 0.05600044, -909880.94, 182684.8, 0.0, 10.000756, 10.000129 
2.9053283e+3, 1.9851388e+2, -882018.75, -977200.25, 125918.07, -0.025533237, 0.07705645, -794998.06, 199567.14, 0.0, 10.001115, 9.99981 
2.9052463e+3, 2.0851249e+2, -884139.94, -981631.5, 144652.61, -0.015387147, 0.0258957, -780240.6, 116339.055, 0.0, 10.000667, 9.99932 
2.9051647e+3, 2.1851085e+2, -858801.9, -886902.3, 146995.97, -0.008603437, -0.03705718, -725186.2, 73410.516, 0.0, 10.000029, 9.999607 
2.9050824e+3, 2.2851105e+2, -746404.75, -705119.75, 140170.66, -0.042972986, 0.012747994, -584079.8, 116515.18, 0.0, 9.999798, 10.000291 
2.905e+3, 2.3851167e+2, -672076.5, -631777.3, 149098.14, -0.070257306, 0.085550345, -501473.38, 101115.25, 0.0, 9.999693, 10.000173 
2.904918e+3, 2.4851076e+2, -551246.1, -529881.5, 142791.95, -0.0064136684, 0.019132784, -397372.84, 107223.34, 0.0, 9.999883, 10.000107 
2.904836e+3, 2.5850958e+2, -434407.97, -427750.06, 157290.45, 0.060265236, -0.06964446, -273753.34, 132852.56, 0.0, 10.000032, 10.000062 
2.9047528e+3, 2.6850995e+2, -363536.06, -348773.2, 140409.1, 0.0300067, -0.00035484965, -215551.66, 93050.81, 0.0, 9.999869, 10.000008 
2.9046693e+3, 2.7851048e+2, -306376.22, -285538.47, 151257.08, 0.028073533, 0.088879414, -144341.84, 66256.555, 0.0, 9.999661, 9.999869 
2.904586e+3, 2.885091e+2, -497762.28, -363754.66, 162560.08, 0.044620164, 0.02487916, -254931.03, -142317.9, 0.0, 9.997841, 9.999535 
2.9159066e+3, 1.286021e+2, -1464548.1, -1556192.3, -62507.918, -0.13307984, 0.01985738, -1432866.0, 246836.1, 0.0, 10.001572, 10.000329 
2.9158247e+3, 1.3860165e+2, -1434770.6, -1532939.4, 11348.074, 0.1809745, -0.015662376, -1433475.9, 148226.84, 0.0, 10.001272, 9.999965 
2.915741e+3, 1.486007e+2, -1360945.1, -1515013.6, 92260.17, 0.09774233, -0.030142702, -1317786.9, 165925.25, 0.0, 10.00141, 9.999342 
2.9156578e+3, 1.5859964e+2, -1223029.0, -1374093.4, 69468.75, -0.019778665, -0.03788709, -1195940.4, 189783.27, 0.0, 10.001582, 9.999554 
2.9155752e+3, 1.6859958e+2, -1154195.4, -1233426.5, 98367.45, -0.044919208, 0.0014838005, -1087765.9, 199959.19, 0.0, 10.001146, 10.000052 
2.915493e+3, 1.7859973e+2, -1141180.5, -1177118.5, 122017.914, -0.058413085, 0.047436453, -1035815.56, 153908.53, 0.0, 10.000566, 10.000048 
2.915411e+3, 1.8859893e+2, -1012700.7, -1057914.6, 134910.05, -0.046766706, -0.0038874904, -898516.6, 193213.88, 0.0, 10.000751, 10.000102 
2.915329e+3, 1.9859798e+2, -888375.2, -979024.06, 125488.9, -0.025318867, -0.06843832, -800276.4, 193461.83, 0.0, 10.001065, 9.999822 
2.9152468e+3, 2.0859784e+2, -878619.4, -964881.94, 118484.305, -0.007852857, -0.0021117032, -795660.06, 100081.66, 0.0, 10.000643, 9.999447 
2.9151642e+3, 2.1859787e+2, -850409.75, -865340.25, 129077.89, -0.0005205535, 0.08702907, -728581.4, 69162.83, 0.0, 10.0000105, 9.999764 
2.9150817e+3, 2.2859737e+2, -730556.2, -672544.6, 135750.13, -0.025315851, 0.04848116, -562736.06, 137012.33, 0.0, 9.999798, 10.000516 
2.914999e+3, 2.385968e+2, -658335.9, -604185.6, 150142.33, -0.045370817, -0.018064836, -478696.75, 123055.43, 0.0, 9.999698, 10.00036 
2.9149175e+3, 2.4859653e+2, -530951.56, -487310.2, 153104.34, 0.0042368043, -0.044785965, -354479.4, 149273.5, 0.0, 9.999883, 10.000397 
2.9148355e+3, 2.5859645e+2, -408852.34, -385878.16, 156307.45, 0.036657672, -0.056866728, -240636.27, 165115.75, 0.0, 10.000075, 10.000332 
2.9147515e+3, 2.6859683e+2, -327205.47, -281404.3, 130681.06, -0.047548052, -0.02024672, -171632.44, 136115.44, 0.0, 9.999896, 10.000463 
2.9146677e+3, 2.7859727e+2, -292755.25, -257894.94, 136084.5, -0.07841436, 0.024737028, -138128.88, 71614.984, 0.0, 9.999674, 10.000053 
2.9145846e+3, 2.8859606e+2, -444704.72, -243276.02, 41514.016, 0.14784688, -0.06685837, -235055.55, -123297.21, 0.0, 9.997813, 10.000374 
2.925908e+3, 1.2868668e+2, -1617693.1, -1607963.0, 22291.328, -0.07641278, 0.019538982, -1590012.0, 88859.87, 0.0, 10.000423, 10.0005245 
2.9258257e+3, 1.3868588e+2, -1407715.1, -1513844.5, 26712.705, 0.15624945, -0.06388109, -1401370.9, 179503.9, 0.0, 10.0014305, 10.000019 
2.9257417e+3, 1.4868504e+2, -1393818.5, -1545375.8, 94105.03, 0.073809646, -0.061203714, -1348774.3, 134109.89, 0.0, 10.0012455, 9.999214 
2.9256585e+3, 1.5868425e+2, -1341407.8, -1424013.5, 89755.07, -0.020069176, -0.032083306, -1283908.4, 100986.12, 0.0, 10.000736, 9.999621 
2.9255757e+3, 1.6868453e+2, -1189655.1, -1206605.1, 99785.75, -0.03553677, 0.013103524, -1097985.1, 188906.98, 0.0, 10.00071, 10.00045 
2.9254934e+3, 1.78685e+2, -1100373.1, -1140292.0, 99517.734, -0.043553423, 0.054420672, -1018833.0, 170054.28, 0.0, 10.000764, 10.000208 
2.9254112e+3, 1.8868396e+2, -1072848.4, -1115657.4, 99676.375, -0.048740532, -0.008499846, -992304.2, 98592.6, 0.0, 10.000459, 9.999846 
2.9253292e+3, 1.9868271e+2, -1023706.94, -1037352.1, 76577.05, -0.045179505, -0.085526004, -953649.2, 39259.38, 0.0, 10.000106, 9.999884 
2.925247e+3, 2.0868304e+2, -916796.44, -917912.06, 85174.945, -0.01675641, -0.013563603, -832177.44, 62729.055, 0.0, 10.000096, 10.000033 
2.9251644e+3, 2.1868375e+2, -802488.5, -801725.4, 128914.04, 0.012640505, 0.08843501, -673192.3, 123708.875, 0.0, 10.00016, 10.00013 
2.9250816e+3, 2.2868326e+2, -699821.2, -654173.0, 130907.08, -0.011545232, 0.038826305, -544115.2, 154789.95, 0.0, 9.999991, 10.00055 
2.9249987e+3, 2.3868257e+2, -643977.44, -591161.8, 136481.06, -0.03602799, -0.04464165, -478557.2, 122353.15, 0.0, 9.999764, 10.00042 
2.924917e+3, 2.4868256e+2, -537880.06, -465629.28, 138818.31, 0.010859187, -0.06070201, -358312.8, 144595.58, 0.0, 9.999721, 10.0006275 
2.924835e+3, 2.5868285e+2, -461598.13, -391003.25, 131051.14, 0.043950215, -0.054844398, -290579.25, 114324.08, 0.0, 9.999617, 10.000522 
2.9247507e+3, 2.686833e+2, -403891.53, -283023.3, 86263.055, -0.054058384, -0.0366032, -238131.28, 68767.22, 0.0, 9.99921, 10.000785 
2.9246664e+3, 2.786838e+2, -392045.75, -264951.78, 94291.88, -0.08921184, -0.025024727, -214792.23, -5898.1343, 0.0, 9.998796, 10.0004425 
2.9245827e+3, 2.88683e+2, -133155.14, -37324.28, -33552.57, 0.15288956, -0.12478214, -26744.727, 84158.71, 0.0, 9.999689, 10.000905 
2.9359093e+3, 1.2877168e+2, -1655469.5, -1691092.0, 54739.52, 0.075133406, -0.014035067, -1615716.4, 62317.934, 0.0, 10.00045, 9.999939 
2.9358256e+3, 1.3877049e+2, -1433251.1, -1568898.9, 43221.84, 0.046049174, -0.081424944, -1420649.9, 159393.3, 0.0, 10.001441, 9.999636 
2.9357418e+3, 1.4876984e+2, -1384514.8, -1525851.0, 71441.09, -0.014762733, -0.058225326, -1354695.0, 127356.69, 0.0, 10.001245, 9.999349 
2.935659e+3, 1.5876941e+2, -1336489.6, -1409841.8, 75781.76, -0.016377777, -0.0058146836, -1288975.4, 95083.57, 0.0, 10.000719, 9.999727 
2.9355764e+3, 1.6876963e+2, -1189090.8, -1201176.1, 101858.39, 0.003519672, 0.024921417, -1093095.9, 192961.48, 0.0, 10.00069, 10.000496 
2.9354945e+3, 1.7876993e+2, -1116176.1, -1163784.9, 93357.52, 0.011715603, 0.049084086, -1043635.9, 144418.33, 0.0, 10.000724, 10.000066 
2.9354113e+3, 1.8876904e+2, -1106283.3, -1180887.0, 85004.016, -0.03932973, 0.035900407, -1050756.8, 39307.695, 0.0, 10.00044, 9.999409 
2.9353285e+3, 1.9876795e+2, -1017580.56, -1021012.8, 70971.484, -0.09416174, 0.0074645444, -948304.44, 43772.418, 0.0, 10.000091, 10.000003 
2.9352462e+3, 2.0876805e+2, -845293.5, -769181.25, 88884.15, -0.041093614, -0.016330423, -710548.94, 183525.23, 0.0, 10.000093, 10.001057 
2.9351643e+3, 2.1876855e+2, -766084.1, -721889.94, 127674.164, 0.026903482, -0.028064275, -614414.75, 181652.33, 0.0, 10.000142, 10.000687 
2.9350814e+3, 2.2876883e+2, -714835.2, -680910.56, 121046.14, -0.0078717, -0.0076850676, -575644.06, 122420.41, 0.0, 9.999973, 10.000375 
2.934998e+3, 2.3876898e+2, -648677.5, -601963.4, 130810.305, -0.053116452, 0.010095013, -492441.22, 107622.04, 0.0, 9.999766, 10.000347 
2.9349166e+3, 2.4876882e+2, -522884.03, -439990.72, 138217.42, 0.0127315065, -0.02920244, -337139.5, 164923.53, 0.0, 9.99974, 10.000798 
2.9348347e+3, 2.587689e+2, -446066.84, -364790.4, 120577.266, 0.07200987, -0.06359885, -278187.34, 125872.75, 0.0, 9.999644, 10.000688 
2.9347503e+3, 2.687695e+2, -392098.22, -257782.5, 67152.086, 0.012025617, -0.04622032, -229968.89, 76085.19, 0.0, 9.999211, 10.000953 
2.9346657e+3, 2.7877e+2, -334410.28, -172616.11, 89762.586, -0.01602002, -0.05660399, -132675.88, 75374.01, 0.0, 9.998899, 10.001035 
2.9345807e+3, 2.8877053e+2, -63979.098, 79452.27, 29793.984, -0.0024125304, -0.093943596, 85394.95, 195436.42, 0.0, 9.999799, 10.001656 
2.94591e+3, 1.2885521e+2, -1614964.9, -1686154.6, 1675.3857, 0.10241825, -0.051428035, -1614925.4, 62289.047, 0.0, 10.000778, 9.999824 
2.945826e+3, 1.3885432e+2, -1421846.6, -1552244.8, -394.94138, -0.0022495147, -0.08345413, -1421845.5, 157375.92, 0.0, 10.001469, 9.99974 
2.9457423e+3, 1.4885414e+2, -1376065.0, -1485164.8, 6450.094, -0.0579309, -0.039425697, -1375685.0, 105540.62, 0.0, 10.001142, 9.999679 
2.945659e+3, 1.5885401e+2, -1357592.0, -1405639.1, 25793.977, -0.02625735, 0.01355487, -1346367.0, 36863.246, 0.0, 10.000509, 9.999858 
2.9455766e+3, 1.6885391e+2, -1256892.8, -1243472.9, 60696.742, 0.004376564, 0.016090916, -1189116.3, 96115.34, 0.0, 10.000264, 10.000413 
2.9454944e+3, 1.788539e+2, -1201254.3, -1188778.3, 46220.664, 0.011937865, 0.010262208, -1148376.6, 38855.1, 0.0, 10.00007, 10.000212 
2.9454112e+3, 1.8885364e+2, -1131450.6, -1141491.6, 83198.66, -0.04163225, 0.023407398, -1053121.1, 36114.227, 0.0, 10.000038, 9.999876 
2.945328e+3, 1.9885339e+2, -994755.4, -978163.7, 126245.36, -0.091683395, 0.03593621, -859941.9, 131297.17, 0.0, 10.000099, 10.0002985 
2.945246e+3, 2.0885336e+2, -858888.9, -780766.5, 96578.78, -0.034599673, -0.0074514905, -715648.8, 177589.06, 0.0, 10.000014, 10.001019 
2.945164e+3, 2.188535e+2, -797191.5, -743168.9, 66699.56, 0.034784857, -0.05091474, -698218.8, 97015.78, 0.0, 9.999947, 10.00064 
2.945081e+3, 2.28854e+2, -716396.0, -677414.0, 53444.605, 0.0075978152, -0.010309091, -640017.2, 57212.73, 0.0, 9.999933, 10.000422 
2.9449978e+3, 2.3885447e+2, -635558.6, -588173.06, 82077.08, -0.024340631, 0.032659616, -526437.5, 72788.37, 0.0, 9.999818, 10.000418 
2.944916e+3, 2.4885432e+2, -522297.8, -424809.0, 94279.914, 0.014697576, -0.01711161, -367418.03, 133807.38, 0.0, 9.999673, 10.000937 
2.9448336e+3, 2.5885448e+2, -451482.1, -351234.13, 69239.87, 0.047298938, -0.059853718, -315879.63, 87342.016, 0.0, 9.999536, 10.000836 
2.9447496e+3, 2.6885518e+2, -354744.66, -241712.5, 5889.9375, 0.045677282, -0.039450724, -241406.4, 63808.465, 0.0, 9.999464, 10.000951 
2.9446653e+3, 2.7885532e+2, -259796.73, -141126.17, 24389.318, 0.068650566, -0.07771625, -136309.19, 70905.086, 0.0, 9.999429, 10.00099 
2.9445797e+3, 2.8885686e+2, -27383.416, 117909.1, -61781.93, -0.07683602, -0.02141784, 140627.86, 249823.53, 0.0, 9.999946, 10.001842 
2.95591e+3, 1.2893765e+2, -1586432.0, -1642485.8, 34011.637, 0.03927015, -0.086546406, -1570387.4, 106020.0, 0.0, 10.000852, 10.000086 
2.955827e+3, 1.3893759e+2, -1409965.3, -1498632.1, 14504.692, -0.012757942, -0.069434814, -1407652.9, 170753.83, 0.0, 10.001346, 10.000165 
2.9557428e+3, 1.4893806e+2, -1361252.8, -1426055.0, -15105.735, -0.07245373, -0.0056463946, -1357904.5, 122499.82, 0.0, 10.001019, 10.000145 
2.955659e+3, 1.5893812e+2, -1361038.0, -1391203.1, 9262.749, -0.05156971, 0.030694699, -1358420.8, 23985.826, 0.0, 10.000417, 10.000003 
2.9555762e+3, 1.6893755e+2, -1274357.1, -1270468.4, 58919.063, -0.030045003, -0.008889292, -1213461.6, 70951.516, 0.0, 10.000223, 10.000248 
2.9554933e+3, 1.7893705e+2, -1177762.9, -1134954.6, 42585.918, -0.043250784, -0.057216953, -1108696.4, 77721.61, 0.0, 10.000049, 10.00059 
2.9554108e+3, 1.8893786e+2, -1045089.75, -961043.94, 85044.266, -0.054411765, -0.036907792, -908206.7, 180202.1, 0.0, 10.000033, 10.001117 
2.9553282e+3, 1.9893907e+2, -968699.6, -920433.7, 124580.8, -0.04518949, 0.013282937, -817669.94, 172725.38, 0.0, 10.000083, 10.000703 
2.955246e+3, 2.0893896e+2, -930585.8, -929384.3, 89207.055, -0.0059421924, 0.019645782, -840776.0, 51621.875, 0.0, 10.000012, 10.0 
2.9551637e+3, 2.1893853e+2, -839330.3, -827005.25, 66180.984, 0.022937566, 0.015646163, -766700.5, 27703.42, 0.0, 9.99993, 10.000072 
2.955081e+3, 2.2893876e+2, -697398.56, -636089.56, 52149.926, 0.03440291, 0.02555328, -606251.8, 90149.81, 0.0, 9.999926, 10.00071 
2.954998e+3, 2.3893905e+2, -616300.2, -550106.7, 75686.55, 0.046405762, 0.021843903, -500596.84, 97801.26, 0.0, 9.999825, 10.000677 
2.9549152e+3, 2.4893913e+2, -512534.8, -405034.38, 88410.6, 0.009491873, -0.022698984, -355317.13, 145078.14, 0.0, 9.999674, 10.001074 
2.954832e+3, 2.5893968e+2, -439541.4, -330803.94, 64439.094, -0.04362404, -0.03854505, -300861.6, 101526.05, 0.0, 9.999553, 10.000969 
2.9547486e+3, 2.6894045e+2, -358581.63, -257302.73, 10127.681, 0.03818301, -0.013871657, -256299.92, 48080.51, 0.0, 9.999496, 10.000828 
2.9546654e+3, 2.7893993e+2, -299016.7, -243325.56, 25442.822, 0.1416378, -0.08335502, -233452.27, -27066.184, 0.0, 9.999509, 10.000253 
2.954579e+3, 2.889407e+2, -67217.04, 19193.15, -31293.227, -0.099187635, -0.005945303, 29335.467, 137714.73, 0.0, 10.00001, 10.001135 
2.9659107e+3, 1.290218e+2, -1421578.5, -1580432.8, 69439.23, -0.008963109, -0.07099188, -1395504.5, 280080.06, 0.0, 10.002064, 9.999925 
2.9658276e+3, 1.3902175e+2, -1594007.1, -1599781.1, 26214.256, -0.010302678, -0.02826373, -1570521.4, 7063.35, 0.0, 10.0001335, 10.000059 
2.9657432e+3, 1.4902201e+2, -1550934.8, -1487063.5, -14459.284, -0.036838252, -0.001238991, -1483942.6, -4359.519, 0.0, 9.999583, 10.000421 
2.965659e+3, 1.5902235e+2, -1496943.4, -1416368.9, 18660.229, 0.0007237683, 0.026148817, -1412257.3, -30676.021, 0.0, 9.999304, 10.00037 
2.965576e+3, 1.6902205e+2, -1357968.8, -1291213.8, 102306.61, 0.014210052, -0.0069495547, -1216977.6, 66606.94, 0.0, 9.9995575, 10.000432 
2.9654938e+3, 1.7902176e+2, -1199321.3, -1142090.8, 93497.195, 0.005561356, -0.04641018, -1072927.9, 112659.75, 0.0, 9.999875, 10.000631 
2.965411e+3, 1.8902253e+2, -1038427.4, -956433.5, 71641.31, -0.01390522, -0.029900763, -914888.2, 172690.66, 0.0, 10.000066, 10.001138 
2.9653284e+3, 1.9902343e+2, -958922.9, -935327.6, 30438.72, -0.027743522, -0.004448364, -914480.2, 75088.56, 0.0, 10.000229, 10.000533 
2.9652455e+3, 2.0902336e+2, -906876.75, -925632.1, 24231.24, -0.005540583, 0.014370012, -890271.9, 1299.2407, 0.0, 10.000205, 9.999936 
2.9651633e+3, 2.1902318e+2, -795578.1, -801853.25, 74444.0, 0.027610863, 0.036873966, -724205.6, 69369.39, 0.0, 10.000211, 10.000111 
2.9650807e+3, 2.2902323e+2, -660416.4, -622589.9, 54102.773, 0.05521039, 0.03003237, -584189.75, 111384.36, 0.0, 10.00019, 10.000679 
2.964998e+3, 2.3902334e+2, -587330.06, -533092.25, 50802.94, 0.074606605, 0.00656228, -502623.22, 94948.83, 0.0, 10.0, 10.000717 
2.9649144e+3, 2.4902359e+2, -528171.3, -431077.28, 42126.813, 0.011862171, -0.015335203, -415347.7, 84220.85, 0.0, 9.999634, 10.000922 
2.9648307e+3, 2.5902423e+2, -462465.97, -343830.1, 7203.9165, -0.060414083, -0.010143569, -343394.25, 58166.707, 0.0, 9.999394, 10.000962 
2.9647478e+3, 2.6902497e+2, -302009.75, -213867.3, -23251.582, 0.030159712, -0.0029167419, -208109.72, 95443.2, 0.0, 9.999816, 10.000975 
2.9646647e+3, 2.790244e+2, -201892.48, -219825.14, 21489.486, 0.13942108, -0.088668264, -187573.77, 17984.37, 0.0, 10.000287, 10.000047 
2.964579e+3, 2.890248e+2, -45814.17, -43457.316, 1024.8561, -0.10707553, 0.022517242, -43074.008, 64483.766, 0.0, 10.000508, 10.000465 
2.9759118e+3, 1.2910707e+2, -1508730.3, -1687790.9, -11105.955, -0.057196498, -0.026361564, -1508044.1, 166707.38, 0.0, 10.001748, 9.999338 
2.9758275e+3, 1.3910638e+2, -1626542.1, -1670961.3, -15434.183, 0.0022215042, 0.019119127, -1621705.9, -44946.656, 0.0, 10.000153, 9.99956 
2.975743e+3, 1.4910582e+2, -1514260.9, -1453103.4, -22336.014, 0.037629776, -0.032112703, -1445814.5, 32949.082, 0.0, 9.999767, 10.000564 
2.975659e+3, 1.5910648e+2, -1430025.8, -1324440.9, 17048.822, 0.107738994, -0.00507373, -1321756.3, 58999.332, 0.0, 9.999509, 10.0009 
2.9755765e+3, 1.6910718e+2, -1307616.8, -1215798.5, 114904.51, 0.120031856, 0.01196564, -1137971.3, 144777.34, 0.0, 9.999685, 10.000886 
2.9754946e+3, 1.7910771e+2, -1208336.4, -1180463.4, 97451.05, 0.14175808, 0.029863153, -1095957.4, 88786.48, 0.0, 9.999962, 10.000325 
2.9754114e+3, 1.8910748e+2, -1102531.6, -1101927.5, 74928.11, 0.06634996, 0.027236953, -1027300.9, 59446.527, 0.0, 10.00012, 10.000111 
2.9753283e+3, 1.9910641e+2, -1002527.8, -1026510.0, 33681.82, -0.050416123, -0.032135975, -978766.3, 9992.853, 0.0, 10.000233, 9.999905 
2.9752454e+3, 2.091066e+2, -847934.25, -803133.4, 23276.11, -0.029693644, -0.02896825, -793229.7, 97527.31, 0.0, 10.000204, 10.000776 
2.9751635e+3, 2.1910748e+2, -759955.94, -720803.06, 76007.58, 0.048735436, 0.012322191, -661891.4, 130856.24, 0.0, 10.00018, 10.000683 
2.975081e+3, 2.2910754e+2, -684329.9, -671072.2, 51796.24, 0.065930806, 0.0104588745, -625482.3, 69264.266, 0.0, 10.000183, 10.000351 
2.9749975e+3, 2.3910755e+2, -603198.6, -564259.44, 38074.887, 0.047355086, -0.00040210935, -540965.0, 55781.3, 0.0, 9.999991, 10.000506 
2.9749137e+3, 2.4910775e+2, -560927.9, -500604.9, 29844.006, 0.020195395, 0.009977186, -488335.5, 10409.391, 0.0, 9.99964, 10.00044 
2.9748306e+3, 2.5910813e+2, -466852.44, -358543.6, 7567.971, -0.00568788, 0.030006653, -358017.34, 42724.293, 0.0, 9.999418, 10.00085 
2.974747e+3, 2.6910874e+2, -262634.2, -139299.55, -287.12823, 0.011515146, -0.009002618, -139298.88, 163433.67, 0.0, 9.999845, 10.001475 
2.9746637e+3, 2.791088e+2, -163677.25, -154943.2, 32446.164, 0.030669972, -0.08616831, -126571.5, 78157.375, 0.0, 10.000364, 10.000452 
2.9745793e+3, 2.891096e+2, -93366.01, -154520.16, 22143.994, -0.07699517, 0.076678425, -86189.76, 20537.025, 0.0, 10.00059, 9.99965 
2.985915e+3, 1.2919478e+2, -1600726.6, -1736641.1, 65171.61, 0.17438526, 0.12787463, -1574527.0, 99366.55, 0.0, 10.001115, 9.99933 
2.985827e+3, 1.3919245e+2, -1655380.3, -1675924.9, 75406.414, -0.02301619, 0.0069171763, -1589549.8, -13631.518, 0.0, 9.999921, 9.9996395 
2.9857406e+3, 1.4919184e+2, -1494195.4, -1464246.0, 122923.09, -0.15835804, -0.033761337, -1355388.8, 122533.63, 0.0, 10.000013, 10.000361 
2.985656e+3, 1.5919065e+2, -1402623.3, -1362015.3, 95941.11, -0.14063191, -0.15837127, -1284253.3, 95678.88, 0.0, 9.999949, 10.000414 
2.9855743e+3, 1.6919161e+2, -1255579.9, -1243423.9, 147684.31, -0.0733466, -0.06263788, -1101692.6, 180229.84, 0.0, 10.000305, 10.00038 
2.9854926e+3, 1.7919278e+2, -1053440.5, -1132951.9, 92243.58, -0.07411054, 0.056715433, -992750.2, 191161.22, 0.0, 10.001174, 10.0000515 
2.9854098e+3, 1.8919204e+2, -1043956.4, -1118663.5, 69145.0, -0.092640586, 0.04326467, -1002720.4, 83199.14, 0.0, 10.000739, 9.999689 
2.9853275e+3, 1.991917e+2, -988892.3, -1005913.7, 103531.414, -0.07142451, 0.07172849, -893522.4, 94401.51, 0.0, 10.0002775, 10.000022 
2.985245e+3, 2.0919168e+2, -844464.8, -806401.3, 59058.91, -0.05566118, 0.054893985, -763383.4, 126540.27, 0.0, 10.00025, 10.000734 
2.9851618e+3, 2.191915e+2, -837776.8, -784627.0, 29140.723, -0.072938606, 0.009143162, -771763.25, 20161.135, 0.0, 9.999752, 10.000454 
2.9850793e+3, 2.2919141e+2, -736352.2, -701246.25, 18737.826, -0.03183598, 0.00012108381, -693124.1, 801.01196, 0.0, 9.99985, 10.000305 
2.984997e+3, 2.3919135e+2, -551444.0, -565394.1, 8029.084, 0.034250017, -0.0023037114, -547783.4, 48142.117, 0.0, 10.000461, 10.000273 
2.984914e+3, 2.4919139e+2, -457722.6, -480406.9, -2993.4702, 0.038313832, 0.015269686, -457334.22, 40592.047, 0.0, 10.000475, 10.000178 
2.9848304e+3, 2.5919157e+2, -352295.34, -320695.3, -1167.146, 0.025642496, 0.038830865, -320652.25, 79273.31, 0.0, 10.000271, 10.000707 
2.9847467e+3, 2.691921e+2, -249602.25, -135427.44, -32632.805, 0.019334577, -0.0032951918, -126758.69, 175157.48, 0.0, 9.999927, 10.001477 
2.984663e+3, 2.7919257e+2, -251628.31, -184337.14, -31432.1, -0.0052903644, -0.04897981, -171939.23, 31968.346, 0.0, 9.999699, 10.000601 
2.9845795e+3, 2.8919235e+2, -116384.375, -248211.77, -19511.898, -0.07313353, 0.029576361, -113557.04, -7640.9136, 0.0, 10.00072, 9.999035 
2.9959154e+3, 1.292809e+2, -1646659.3, -1670744.8, 61974.76, 0.1275795, 0.047129318, -1595568.0, 77482.59, 0.0, 10.000465, 10.0000725 
2.9958254e+3, 1.3928069e+2, -1678089.0, -1621988.1, -32697.771, -0.11831965, 0.048648015, -1606957.5, -31902.703, 0.0, 9.999488, 10.0002165 
2.9957432e+3, 1.4928228e+2, -1483353.9, -1526033.0, -63231.72, 0.13392779, 0.24315071, -1437958.0, 39081.14, 0.0, 10.000318, 9.999818 
2.9956567e+3, 1.5928093e+2, -1321224.6, -1491392.5, -215809.83, 0.00483268, 0.19830145, -1174331.9, 204719.44, 0.0, 10.001151, 9.998989 
2.9955748e+3, 1.692769e+2, -1355048.1, -1451635.8, -64059.543, -0.019027015, -0.077376015, -1323117.8, -42026.89, 0.0, 10.000226, 9.99903 
2.9954937e+3, 1.792779e+2, -1376825.0, -1337489.1, -83102.61, -0.04311327, 0.11701307, -1271758.8, -88677.82, 0.0, 9.999077, 9.9997015 
2.995412e+3, 1.8927592e+2, -1033462.56, -1111721.1, -45486.086, 0.084590495, -0.024138698, -1012591.1, 72507.11, 0.0, 10.000732, 9.999772 
2.9953295e+3, 1.9927618e+2, -837733.7, -881277.25, 41196.98, 0.11625508, -0.0015847142, -812909.3, 174184.44, 0.0, 10.001043, 10.000531 
2.9952466e+3, 2.092762e+2, -981506.2, -978444.06, 9416.849, 0.108637966, 0.032593846, -970434.6, -81339.91, 0.0, 9.999742, 9.999805 
2.9951614e+3, 2.1927518e+2, -905233.9, -929557.4, -33708.35, -0.046334025, 0.018368501, -881560.44, -90454.22, 0.0, 9.999769, 9.999451 
2.9950786e+3, 2.2927561e+2, -734982.06, -674629.1, -10565.616, -0.05519397, 0.07725343, -672832.94, 20268.799, 0.0, 9.999749, 10.000533 
2.9949975e+3, 2.3927487e+2, -551048.56, -592521.06, 15412.219, 0.07383743, 0.010035255, -545948.25, 49160.297, 0.0, 10.000584, 10.000024 
2.994914e+3, 2.492746e+2, -454522.63, -474562.7, -9004.199, 0.06554244, -0.00024270856, -451071.34, 46040.46, 0.0, 10.000483, 10.000208 
2.9948303e+3, 2.5927466e+2, -369859.38, -359483.4, -9274.819, 0.030496366, 0.014680791, -354044.2, 45067.445, 0.0, 10.000273, 10.0004425 
2.9947466e+3, 2.6927507e+2, -289488.1, -230159.33, -42603.355, 0.045449167, 0.013037248, -207910.11, 93194.15, 0.0, 9.999962, 10.000815 
2.9946622e+3, 2.7927548e+2, -280795.84, -215537.5, -26499.678, 0.012274038, 0.00995556, -206132.2, -3035.2197, 0.0, 9.999621, 10.0004 
2.994579e+3, 2.8927404e+2, -130528.43, -227224.48, 60594.734, -0.14298262, -0.049161866, -101357.08, 3758.9756, 0.0, 10.000573, 9.999221 
