coord_x,coord_y,stress_xx,stress_yy,tau_xy,velocity_x,velocity_y,stress_1,eps,damage,lx,ly
4.9984032e+0, 1.2505367e+2, -2078910.8, -1717626.8, -4143.7007, 0.002326365, -0.37304544, -1717579.3, -3142.3066, 0.00000005841745, 9.996758, 10.001544 
4.9985465e+0, 1.3505514e+2, -1932899.5, -1598723.5, -5839.761, -0.00025083168, -0.38094673, -1598621.5, 17800.104, 0.00000000012359376, 9.997098, 10.001524 
4.9987063e+0, 1.4505629e+2, -1810415.0, -1530496.8, -6120.7534, -0.0015950962, -0.39944607, -1530363.0, -11954.375, 0.0, 9.997445, 10.001151 
4.9988803e+0, 1.5505713e+2, -1661590.6, -1409723.3, -5675.067, -0.0020086735, -0.432106, -1409595.4, 10802.506, 0.0, 9.997801, 10.001136 
4.9990287e+0, 1.6505776e+2, -1550038.5, -1354824.5, -7198.9976, -0.0025308477, -0.45827946, -1354559.4, -32170.08, 0.0, 9.998108, 10.000692 
4.9991527e+0, 1.7505826e+2, -1415224.4, -1240869.9, -7106.223, -0.0031256431, -0.4790858, -1240580.8, -16198.036, 0.0, 9.998368, 10.000676 
4.999302e+0, 1.8505862e+2, -1303136.0, -1181693.9, -6302.322, -0.0028671229, -0.48950052, -1181367.8, -54989.445, 0.0, 9.998661, 10.000268 
4.9994755e+0, 1.9505888e+2, -1158771.9, -1063129.5, -7225.9663, -0.0017927173, -0.4909874, -1062586.6, -34210.742, 0.0, 9.998987, 10.000253 
4.999662e+0, 2.0505907e+2, -1029202.5, -982510.94, -7259.0874, -0.0010184814, -0.4825494, -981408.4, -51033.477, 0.0, 9.999344, 9.999961 
4.9998602e+0, 2.150592e+2, -875922.2, -859716.1, -8690.879, -0.0005334296, -0.46567833, -855936.8, -23561.658, 0.0, 9.999731, 9.999945 
5.00005e+0, 2.2505921e+2, -754030.1, -800310.56, -9639.345, -0.00054607756, -0.4371324, -752102.7, -17725.092, 0.0, 10.000112, 9.999496 
5.000232e+0, 2.3505908e+2, -602787.44, -678332.6, -9582.829, -0.0010459176, -0.39813912, -601590.8, 34791.168, 0.0, 10.0004835, 9.999481 
5.000414e+0, 2.4505863e+2, -484387.4, -625565.44, -9474.021, -0.0016484536, -0.3680849, -483754.47, 54634.703, 0.0, 10.000861, 9.998989 
5.000598e+0, 2.550578e+2, -331910.72, -503084.97, -9621.288, -0.0023681119, -0.34825397, -331371.63, 109027.336, 0.0, 10.001243, 9.998973 
5.000802e+0, 2.6505655e+2, -236413.78, -502534.7, -9303.206, -0.0018064094, -0.3295452, -236088.94, 106324.61, 0.0, 10.00164, 9.998113 
5.0010264e+0, 2.7505484e+2, -79302.195, -377547.34, -9642.401, 0.000029296814, -0.31191456, -78990.77, 165441.72, 0.0, 10.002053, 9.998099 
5.001243e+0, 2.850529e+2, 20846.105, -372577.6, -9790.664, 0.0006357089, -0.27324313, 21089.604, 167543.4, 0.0000000005106852, 10.002473, 9.997258 
5.001449e+0, 2.9505068e+2, 177613.14, -251358.67, -10165.947, -0.00004140607, -0.21846212, 177853.92, 226331.5, 0.000003227908, 10.002898, 9.997213 
5.0016356e+0, 3.0504698e+2, 268255.28, -217115.66, -10308.708, -0.003173396, -0.2953515, 268474.16, 268474.16, 0.000038102575, 10.003335, 9.996902 
5.00183e+0, 3.150444e+2, 428523.16, 13468.177, -10678.573, -0.0058627115, -0.24645492, 428797.7, 428797.7, 0.00014042419, 10.003777, 9.998274 
1.4995208e+1, 1.2505332e+2, -2082063.3, -1724102.1, 8674.643, 0.006974569, -0.38163728, -1723892.0, -9451.627, 0.00000003890384, 9.996758, 10.0015 
1.499564e+1, 1.3505483e+2, -1936012.5, -1605141.8, 6935.931, -0.00074891845, -0.38063937, -1604996.4, 11428.518, 0.0000000000066617675, 9.997097, 10.00148 
1.4996119e+1, 1.4505598e+2, -1809577.4, -1528738.6, 7290.079, -0.0047862423, -0.39634433, -1528549.5, -10137.644, 0.0, 9.997444, 10.0011635 
1.4996642e+1, 1.5505679e+2, -1660753.0, -1407967.6, 7715.2397, -0.0060265046, -0.43224245, -1407732.4, 12668.961, 0.0, 9.997801, 10.001148 
1.4997086e+1, 1.6505745e+2, -1549884.8, -1354492.4, 2600.9553, -0.007591044, -0.45791253, -1354457.8, -32065.08, 0.0, 9.998108, 10.000694 
1.4997458e+1, 1.7505798e+2, -1415070.6, -1240541.0, 2722.0415, -0.009375659, -0.4744967, -1240498.6, -16113.09, 0.0, 9.998367, 10.000678 
1.4997905e+1, 1.8505833e+2, -1304874.5, -1185296.0, 5989.98, -0.008600785, -0.48618698, -1184996.6, -58615.42, 0.0, 9.998661, 10.000243 
1.4998427e+1, 1.9505848e+2, -1160512.0, -1066737.8, 5095.4614, -0.005378166, -0.49429873, -1066461.8, -38082.11, 0.0, 9.998987, 10.000228 
1.4998986e+1, 2.0505863e+2, -1031856.7, -988015.7, 7360.9844, -0.0030553846, -0.48611212, -986812.75, -56433.707, 0.0, 9.999344, 9.999923 
1.4999582e+1, 2.1505879e+2, -878551.44, -865170.56, 5922.8105, -0.0015999442, -0.4632441, -862925.56, -30546.344, 0.0, 9.999731, 9.9999075 
1.5000151e+1, 2.250588e+2, -753922.06, -800081.8, 4425.2725, -0.0016387454, -0.43382174, -753501.6, -19119.863, 0.0, 10.000112, 9.999498 
1.5000695e+1, 2.3505864e+2, -602693.3, -678129.2, 4483.5483, -0.0031376344, -0.39893028, -602427.75, 33958.68, 0.0, 10.0004835, 9.999483 
1.5001243e+1, 2.4505818e+2, -484669.7, -626142.06, 4920.8755, -0.004946127, -0.3672871, -484498.72, 53894.797, 0.0, 10.000861, 9.998985 
1.5001793e+1, 2.5505745e+2, -332192.7, -503661.28, 4782.1167, -0.007104787, -0.3403283, -332059.4, 108343.336, 0.0, 10.001243, 9.998969 
1.5002406e+1, 2.6505616e+2, -237064.13, -503875.5, 6244.3594, -0.0054201805, -0.32250395, -236918.06, 105499.43, 0.0, 10.00164, 9.998104 
1.500308e+1, 2.7505437e+2, -79962.59, -378909.7, 5925.292, 0.000087855755, -0.31355754, -79845.2, 164592.11, 0.0, 10.002053, 9.99809 
1.5003727e+1, 2.8505236e+2, 20060.014, -374204.34, 6255.7417, 0.0019057426, -0.27701688, 20159.248, 166618.11, 0.00000000036389677, 10.002473, 9.997248 
1.5004347e+1, 2.9505023e+2, 176852.77, -252929.08, 5948.2827, -0.00012525562, -0.21796091, 176935.08, 225417.36, 0.0000031171262, 10.002898, 9.997202 
1.5004908e+1, 3.050465e+2, 267499.9, -218668.55, 6349.2593, -0.009515153, -0.29197285, 267582.8, 267582.8, 0.0000374169, 10.003335, 9.996892 
1.5005489e+1, 3.1504396e+2, 427665.22, 11713.837, 6050.869, -0.01761022, -0.24089852, 427753.25, 427753.25, 0.00013856335, 10.003777, 9.998262 
2.4991946e+1, 1.2505272e+2, -2082230.9, -1725910.5, -3138.9998, 0.0043891678, -0.3793296, -1725882.9, -11436.574, 0.000000018764895, 9.996765, 10.001485 
2.4992706e+1, 1.3505422e+2, -1934878.3, -1606350.8, -2765.4429, -0.0045139436, -0.3792298, -1606327.5, 10103.604, 0.0, 9.997113, 10.001465 
2.499355e+1, 1.4505535e+2, -1808589.6, -1529881.3, -2093.4395, -0.006909232, -0.39438966, -1529865.5, -11447.255, 0.0, 9.997458, 10.001149 
2.4994461e+1, 1.5505618e+2, -1661324.0, -1409847.3, -3687.449, -0.0042568734, -0.4283095, -1409793.3, 10614.506, 0.0, 9.997804, 10.001134 
2.4995223e+1, 1.6505682e+2, -1547736.0, -1354579.5, -12832.549, -0.00566057, -0.45353037, -1353730.8, -31331.674, 0.0, 9.998127, 10.000685 
2.4995843e+1, 1.7505734e+2, -1406640.9, -1237614.8, -13622.477, -0.010879737, -0.47114345, -1236523.9, -12131.936, 0.0, 9.99843, 10.000669 
2.4996585e+1, 1.8505763e+2, -1293387.8, -1184057.8, -9187.279, -0.011761749, -0.48475268, -1183291.1, -56903.07, 0.0, 9.998758, 10.000205 
2.4997444e+1, 1.9505773e+2, -1145170.9, -1063643.9, -11099.218, -0.008486131, -0.49563763, -1062159.9, -33772.824, 0.0, 9.99911, 10.000189 
2.4998377e+1, 2.0505786e+2, -1017580.9, -986284.56, -8470.697, -0.0043306504, -0.48663446, -984138.94, -53752.11, 0.0, 9.999464, 9.999877 
2.4999379e+1, 2.1505801e+2, -869058.25, -865709.3, -10540.877, 0.00069918454, -0.45943967, -856710.75, -24323.504, 0.0, 9.999819, 9.999862 
2.5000316e+1, 2.2505797e+2, -747439.56, -797957.6, -13500.951, 0.0012726968, -0.42960775, -744057.8, -9667.766, 0.0, 10.00016, 9.999489 
2.500119e+1, 2.3505779e+2, -602579.8, -679083.44, -14235.628, -0.002513046, -0.39810902, -600016.75, 36378.254, 0.0, 10.000489, 9.999474 
2.500208e+1, 2.4505731e+2, -488804.72, -628991.44, -13494.512, -0.0061969426, -0.36678824, -487517.53, 50884.58, 0.0, 10.000836, 9.998978 
2.500299e+1, 2.550566e+2, -338721.6, -507680.47, -13902.761, -0.0098415995, -0.3371796, -337585.25, 102825.91, 0.0, 10.001202, 9.998961 
2.5004005e+1, 2.650553e+2, -243878.89, -509419.5, -11115.125, -0.007656278, -0.31880355, -243414.44, 99011.58, 0.0, 10.001603, 9.998083 
2.500513e+1, 2.7505347e+2, -83312.97, -382787.94, -12249.3955, 0.00033113695, -0.3113417, -82812.77, 161633.52, 0.0, 10.00204, 9.99807 
2.5006208e+1, 2.8505147e+2, 18281.979, -374079.4, -12094.986, 0.0033326861, -0.27642325, 18654.465, 165122.47, 0.00000000025082827, 10.002457, 9.997256 
2.5007236e+1, 2.9504928e+2, 170807.36, -254812.75, -10839.24, 0.0011015302, -0.21915957, 171083.22, 219574.53, 0.000002969252, 10.002852, 9.997211 
2.5008154e+1, 3.050456e+2, 257052.75, -224514.64, -8708.665, -0.014847725, -0.29288468, 257210.19, 257210.19, 0.00003639656, 10.003266, 9.996885 
2.50091e+1, 3.1504306e+2, 415081.34, 4528.4727, -8698.933, -0.030246697, -0.23816043, 415265.56, 415265.56, 0.0001357669, 10.003695, 9.998252 
3.498861e+1, 1.2505193e+2, -2081306.9, -1723967.0, 10022.475, -0.005527359, -0.36605668, -1723686.1, -9231.344, 0.0000000046292135, 9.996765, 10.001498 
3.498975e+1, 1.350533e+2, -1934009.3, -1604523.9, 10331.929, -0.011567511, -0.3766784, -1604200.3, 12239.995, 0.0, 9.997113, 10.001477 
3.4990996e+1, 1.4505443e+2, -1811479.4, -1535864.1, 10916.64, -0.007975758, -0.39355022, -1535432.4, -17004.793, 0.0, 9.997458, 10.001108 
3.499234e+1, 1.5505528e+2, -1664191.6, -1415785.4, 9317.702, 0.0032887624, -0.4202738, -1415436.4, 4980.669, 0.0, 9.997804, 10.001093 
3.499344e+1, 1.6505589e+2, -1549307.0, -1357830.5, -1396.2332, 0.0032576225, -0.4451075, -1357820.3, -35411.63, 0.0, 9.998127, 10.000662 
3.4994304e+1, 1.7505632e+2, -1408217.6, -1240889.3, -2169.8188, -0.007639091, -0.46901128, -1240861.1, -16458.889, 0.0, 9.99843, 10.000646 
3.4995335e+1, 1.8505657e+2, -1297041.1, -1191645.1, 4107.1743, -0.012355704, -0.48519158, -1191485.3, -65086.453, 0.0, 9.998758, 10.000153 
3.4996527e+1, 1.9505663e+2, -1148818.4, -1071225.4, 2205.1853, -0.011124131, -0.4949996, -1071162.8, -42764.574, 0.0, 9.99911, 10.000137 
3.4997836e+1, 2.050567e+2, -1021385.44, -994189.94, 4904.616, -0.0048538805, -0.4841153, -993332.44, -62934.137, 0.0, 9.999464, 9.999823 
3.499925e+1, 2.1505682e+2, -872844.94, -873574.25, 2823.581, 0.006354701, -0.45426434, -870362.56, -37963.395, 0.0, 9.999819, 9.999807 
3.5000545e+1, 2.2505677e+2, -748811.9, -800801.75, -1090.4445, 0.008182063, -0.42449012, -748789.0, -14386.641, 0.0, 10.00016, 9.99947 
3.500171e+1, 2.3505652e+2, -603951.06, -681926.25, -1820.2974, 0.00081633456, -0.39567414, -603908.56, 32499.018, 0.0, 10.000489, 9.9994545 
3.5002923e+1, 2.4505602e+2, -489611.2, -630661.5, 273.00314, -0.0054134727, -0.36658552, -489610.66, 48804.305, 0.0, 10.000836, 9.998966 
3.5004184e+1, 2.5505528e+2, -339544.6, -509387.7, -121.74593, -0.010588412, -0.33879936, -339544.53, 100879.66, 0.0, 10.001202, 9.99895 
3.50056e+1, 2.6505396e+2, -246070.48, -513972.47, 5315.242, -0.008525769, -0.31844032, -245965.08, 96474.08, 0.0, 10.001603, 9.998053 
3.5007173e+1, 2.7505216e+2, -85497.49, -387323.6, 4186.199, 0.0007436569, -0.30527094, -85439.44, 159020.02, 0.0, 10.00204, 9.998039 
3.5008678e+1, 2.8505015e+2, 20287.541, -369908.75, 2820.2886, 0.004903307, -0.27146593, 20307.924, 166789.16, 0.00000000021451357, 10.002457, 9.997285 
3.501011e+1, 2.9504794e+2, 172844.13, -250576.17, 4118.429, 0.0036253664, -0.22204912, 172884.19, 221388.84, 0.0000027944461, 10.002852, 9.997241 
3.5011378e+1, 3.0504423e+2, 256753.28, -225112.9, 7418.214, -0.01917682, -0.2980706, 256867.45, 256867.45, 0.000035014476, 10.003266, 9.9968815 
3.5012656e+1, 3.1504172e+2, 414455.25, 3295.5195, 7472.957, -0.04381665, -0.23827794, 414591.03, 414591.03, 0.00013190451, 10.003695, 9.998244 
4.4985345e+1, 1.2505071e+2, -2092579.3, -1725743.0, -5254.1797, -0.004071923, -0.35445672, -1725667.8, -11200.413, 0.00000000014144765, 9.996672, 10.001531 
4.4986838e+1, 1.3505206e+2, -1939113.9, -1603427.0, -3594.9866, -0.011385592, -0.37415755, -1603388.5, 13064.369, 0.0, 9.997063, 10.001509 
4.4988438e+1, 1.4505313e+2, -1816445.0, -1542324.1, -2508.544, -0.008820551, -0.39306116, -1542301.1, -23860.633, 0.0, 9.997442, 10.001072 
4.4990128e+1, 1.55054e+2, -1665301.1, -1420383.9, -3779.5566, 0.0012713099, -0.41475224, -1420325.5, 104.35966, 0.0, 9.997813, 10.001057 
4.4991565e+1, 1.6505459e+2, -1547604.5, -1363288.0, -17076.99, 0.0012361364, -0.438138, -1361719.3, -39297.258, 0.0, 9.998166, 10.000607 
4.4992763e+1, 1.7505495e+2, -1401864.9, -1244094.0, -20407.533, -0.008499549, -0.46410313, -1241497.1, -17080.707, 0.0, 9.998501, 10.00059 
4.4994137e+1, 1.8505512e+2, -1288134.8, -1191822.9, -13909.681, -0.012070202, -0.48183793, -1189854.3, -63440.746, 0.0, 9.998838, 10.0001135 
4.4995686e+1, 1.9505511e+2, -1141613.8, -1072212.8, -14894.434, -0.0097133815, -0.4926972, -1069151.3, -40738.188, 0.0, 9.999179, 10.000097 
4.4997346e+1, 2.0505516e+2, -1016262.2, -997079.06, -11372.835, -0.0033627006, -0.4816069, -991793.1, -61379.527, 0.0, 9.999522, 9.999775 
4.4999105e+1, 2.1505526e+2, -869027.8, -877072.0, -12982.03, 0.006917677, -0.4503045, -859459.06, -27044.115, 0.0, 9.999867, 9.99976 
4.5000732e+1, 2.2505514e+2, -742988.3, -801201.75, -17467.35, 0.008218582, -0.42014298, -738149.3, -3730.8179, 0.0, 10.000214, 9.999441 
4.500223e+1, 2.3505487e+2, -595592.25, -681102.3, -18889.354, 0.00071716413, -0.39197165, -591605.44, 44818.523, 0.0, 10.00056, 9.999426 
4.50038e+1, 2.450543e+2, -480403.44, -629546.5, -16886.002, -0.005329652, -0.36559436, -478515.5, 59916.258, 0.0, 10.000914, 9.998937 
4.500543e+1, 2.550535e+2, -330978.3, -508589.4, -18655.521, -0.010027609, -0.34253734, -329039.97, 111401.61, 0.0, 10.001275, 9.99892 
4.500723e+1, 2.6505214e+2, -241411.83, -514494.47, -11913.692, -0.008058114, -0.32104042, -240893.05, 101563.74, 0.0, 10.001647, 9.998028 
4.5009205e+1, 2.7505037e+2, -88599.39, -391568.75, -12544.54, 0.00059914484, -0.30099165, -88080.87, 156396.05, 0.0, 10.00203, 9.998014 
4.5011112e+1, 2.850484e+2, 17947.205, -367461.78, -13875.475, 0.004344251, -0.2659888, 18446.104, 164944.64, 0.00000000034042036, 10.002425, 9.997317 
4.5012942e+1, 2.9504618e+2, 171906.44, -247408.44, -12317.538, 0.0027551516, -0.2209808, 172267.95, 220789.78, 0.0000026033522, 10.0028305, 9.997273 
4.501459e+1, 3.0504245e+2, 254109.17, -225189.1, -7513.8784, -0.023400743, -0.29964513, 254226.94, 254226.94, 0.00003329706, 10.003243, 9.996892 
4.501628e+1, 3.1504002e+2, 410077.34, 1732.6726, -6338.0527, -0.049268804, -0.23827244, 410175.7, 410175.7, 0.00012697614, 10.003662, 9.998249 
5.4982144e+1, 1.250491e+2, -2088963.4, -1718216.4, 9501.738, 0.008628446, -0.34447497, -1717973.0, -3489.272, 0.0, 9.996672, 10.001582 
5.4983974e+1, 1.350504e+2, -1935568.4, -1596035.0, 11070.484, -0.0040061316, -0.3716431, -1595674.4, 20794.896, 0.0, 9.997063, 10.00156 
5.4985875e+1, 1.4505148e+2, -1818699.8, -1546967.4, 11487.479, -0.009470219, -0.39290625, -1546482.5, -28025.68, 0.0, 9.997441, 10.00104 
5.498783e+1, 1.5505233e+2, -1667565.0, -1425058.1, 10203.687, -0.010377278, -0.4117363, -1424629.6, -4183.231, 0.0, 9.997813, 10.001025 
5.49896e+1, 1.650529e+2, -1553942.8, -1376425.9, -4436.7236, -0.011796635, -0.43260914, -1376315.0, -53876.04, 0.0, 9.998166, 10.000516 
5.4991215e+1, 1.7505318e+2, -1408162.6, -1257164.9, -7764.052, -0.013506939, -0.45641077, -1256766.8, -32332.373, 0.0, 9.998501, 10.0005 
5.4992986e+1, 1.8505329e+2, -1290086.0, -1195885.9, -1060.6752, -0.010932082, -0.47467965, -1195874.0, -69441.9, 0.0, 9.998838, 10.000085 
5.4994917e+1, 1.9505323e+2, -1143551.9, -1076254.4, -2039.1677, -0.004273571, -0.48872274, -1076192.6, -47760.76, 0.0, 9.99918, 10.00007 
5.4996896e+1, 2.0505323e+2, -1019176.3, -1003144.5, 1658.7363, 0.00012973016, -0.4791054, -1002974.7, -72541.93, 0.0, 9.999522, 9.999733 
5.499892e+1, 2.1505329e+2, -871933.06, -883118.1, 49.85759, 0.0023725512, -0.44755524, -871932.9, -39498.223, 0.0, 9.999867, 9.999718 
5.500088e+1, 2.2505315e+2, -745653.7, -806733.8, -4401.635, 0.0013661797, -0.4165644, -745338.1, -10899.627, 0.0, 10.000214, 9.999403 
5.500276e+1, 2.3505284e+2, -598251.7, -686623.1, -5831.089, -0.0028281147, -0.38700765, -597868.6, 38575.5, 0.0, 10.00056, 9.999388 
5.500471e+1, 2.4505222e+2, -483776.13, -636550.3, -3287.821, -0.005971302, -0.3638122, -483705.38, 54747.09, 0.0, 10.000914, 9.998888 
5.500672e+1, 2.5505126e+2, -334337.47, -515573.38, -5064.378, -0.008194707, -0.34838292, -334196.06, 106267.305, 0.0, 10.001275, 9.998872 
5.5008894e+1, 2.650499e+2, -242691.55, -517164.97, 2500.3145, -0.0062829815, -0.32659563, -242668.78, 99810.14, 0.0, 10.001647, 9.998009 
5.501123e+1, 2.7504823e+2, -89872.24, -394219.44, 1871.0043, -0.00012316185, -0.29850197, -89860.74, 154637.94, 0.0, 10.00203, 9.997996 
5.5013514e+1, 2.8504628e+2, 20397.799, -362362.3, 1385.3313, 0.0016410018, -0.2599988, 20402.813, 166922.73, 0.0000000006700443, 10.002424, 9.997352 
5.501573e+1, 2.9504406e+2, 174363.66, -242266.58, 2928.9053, -0.0015145759, -0.21598133, 174384.25, 222927.03, 0.0000023959767, 10.0028305, 9.997309 
5.5017793e+1, 3.050403e+2, 255808.08, -221586.55, 8233.065, -0.027551105, -0.29763928, 255950.03, 255950.03, 0.000031288328, 10.0032425, 9.996917 
5.501997e+1, 3.1503788e+2, 411205.88, 4214.7954, 9421.074, -0.04675688, -0.2382599, 411423.84, 411423.84, 0.0001210288, 10.003661, 9.998266 
6.4978737e+1, 1.2504698e+2, -2109767.8, -1727350.5, -4631.936, 0.008602522, -0.34435427, -1727294.4, -12789.619, 0.0, 9.996525, 10.001591 
6.4981025e+1, 1.3504833e+2, -1945663.8, -1600052.3, -6498.8193, -0.0018247059, -0.3686007, -1599930.0, 16559.914, 0.0, 9.996989, 10.001568 
6.498333e+1, 1.4504941e+2, -1821289.6, -1548781.0, -7951.31, -0.007120644, -0.38969147, -1548549.1, -30071.688, 0.0, 9.997426, 10.001035 
6.4985657e+1, 1.5505023e+2, -1663887.9, -1423897.9, -7258.9043, -0.010156378, -0.41091317, -1423678.5, -3211.3477, 0.0, 9.997842, 10.0010195 
6.49878e+1, 1.6505076e+2, -1547832.5, -1381744.6, -21428.492, -0.012466194, -0.43026325, -1379024.5, -56564.418, 0.0, 9.998243, 10.000442 
6.4989775e+1, 1.7505102e+2, -1393919.3, -1258525.1, -23559.088, -0.013857928, -0.4486988, -1254542.9, -30086.889, 0.0, 9.998634, 10.000426 
6.4991903e+1, 1.8505108e+2, -1270534.3, -1189627.0, -17590.768, -0.010527272, -0.4668315, -1185967.9, -59513.664, 0.0, 9.998986, 10.000057 
6.499418e+1, 1.9505095e+2, -1127694.1, -1071766.1, -18610.604, -0.0026810993, -0.48590523, -1066139.4, -37684.934, 0.0, 9.999302, 10.000041 
6.499649e+1, 2.0505089e+2, -1008596.6, -1003514.0, -15063.263, 0.002037626, -0.47801107, -990779.2, -60323.37, 0.0, 9.999619, 9.999684 
6.499884e+1, 2.150509e+2, -865259.06, -885340.75, -17219.875, 0.0037484888, -0.44487455, -855366.44, -22908.281, 0.0, 9.999937, 9.999669 
6.500113e+1, 2.2505073e+2, -738580.06, -807186.94, -20926.525, 0.002095868, -0.41301963, -732700.9, 1761.5121, 0.0, 10.000278, 9.999369 
6.500336e+1, 2.3505041e+2, -588528.25, -685795.56, -22108.06, -0.0028323147, -0.38332537, -583739.06, 52729.2, 0.0, 10.000644, 9.999353 
6.500566e+1, 2.4504973e+2, -474921.84, -637159.1, -19458.287, -0.006263218, -0.36104232, -472620.72, 65856.305, 0.0, 10.000996, 9.998845 
6.5008026e+1, 2.550487e+2, -328542.78, -517637.9, -20908.238, -0.008351874, -0.3475657, -326258.53, 114229.91, 0.0, 10.001336, 9.998829 
6.5010554e+1, 2.6504734e+2, -239387.95, -518215.8, -12751.635, -0.00712883, -0.3266187, -238806.0, 103698.39, 0.0, 10.001681, 9.997986 
6.5013236e+1, 2.750456e+2, -91227.46, -397520.34, -13790.265, -0.0024455574, -0.29826546, -90607.83, 153916.6, 0.0, 10.002032, 9.9979725 
6.5015894e+1, 2.8504363e+2, 14974.471, -364575.4, -15159.704, -0.0010985655, -0.25808346, 15579.006, 162124.67, 0.0000000009839726, 10.002386, 9.997355 
6.501849e+1, 2.9504147e+2, 161725.4, -247900.95, -16016.863, -0.0037213112, -0.21102555, 162350.72, 210918.97, 0.0000021664155, 10.002742, 9.997313 
6.502094e+1, 3.0503777e+2, 238113.31, -228085.3, -11270.837, -0.0298063, -0.29282254, 238385.64, 238385.64, 0.000029021434, 10.003113, 9.996935 
6.5023565e+1, 3.1503534e+2, 388264.38, -5867.1294, -10589.694, -0.0449544, -0.23323442, 388548.7, 388548.7, 0.00011410821, 10.003499, 9.998275 
7.497513e+1, 1.2504436e+2, -2112358.0, -1732657.3, 12894.601, -0.0044435645, -0.35422742, -1732219.9, -17689.64, 0.0, 9.996525, 10.0015545 
7.497798e+1, 1.3504581e+2, -1948254.0, -1605354.3, 10905.397, -0.004981429, -0.36507678, -1605007.8, 11507.11, 0.0, 9.996989, 10.001532 
7.4980813e+1, 1.450469e+2, -1819829.3, -1545693.0, 7670.4263, -0.0018253357, -0.38342938, -1545478.5, -26976.227, 0.0, 9.997426, 10.001057 
7.498362e+1, 1.5504768e+2, -1662450.9, -1420879.4, 8358.233, 0.001922329, -0.4123128, -1420590.5, -98.18974, 0.0, 9.997841, 10.00104 
7.498616e+1, 1.650482e+2, -1551917.3, -1390202.5, -6683.538, -0.0007720634, -0.43113413, -1389926.8, -67441.3, 0.0, 9.998243, 10.000384 
7.4988455e+1, 1.7504849e+2, -1397962.8, -1266927.0, -8834.098, -0.009566197, -0.44097632, -1266334.1, -41852.65, 0.0, 9.998634, 10.000369 
7.499088e+1, 1.850485e+2, -1272555.0, -1193847.5, -5698.3813, -0.010881129, -0.4582979, -1193437.0, -66957.0, 0.0, 9.998987, 10.000028 
7.4993455e+1, 1.9504827e+2, -1129701.0, -1075965.4, -6720.1924, -0.0049626287, -0.48424733, -1075137.6, -46656.74, 0.0, 9.999302, 10.000012 
7.499611e+1, 2.0504816e+2, -1012539.7, -1011728.6, -3046.2373, 0.0023343952, -0.47832772, -1009061.0, -78578.164, 0.0, 9.999619, 9.999628 
7.499885e+1, 2.1504813e+2, -869176.3, -893497.94, -5198.353, 0.011023328, -0.44226527, -868111.8, -35626.26, 0.0, 9.999937, 9.999614 
7.500149e+1, 2.2504795e+2, -740776.3, -811748.94, -7176.619, 0.0103883445, -0.4095057, -740057.94, -5567.764, 0.0, 10.000278, 9.999337 
7.5004035e+1, 2.3504756e+2, -590721.25, -690353.56, -8374.526, 0.00068288966, -0.38091832, -590022.2, 46474.23, 0.0, 10.000644, 9.999322 
7.500665e+1, 2.4504685e+2, -477674.9, -642882.8, -6654.6563, -0.006220943, -0.35729092, -477407.28, 61098.086, 0.0, 10.000996, 9.998805 
7.500934e+1, 2.5504583e+2, -331274.44, -523325.06, -8117.557, -0.010507173, -0.34010905, -330931.94, 109584.836, 0.0, 10.001336, 9.99879 
7.50122e+1, 2.650444e+2, -241424.33, -522465.66, 456.0581, -0.0106055625, -0.321132, -241423.6, 101109.58, 0.0, 10.001681, 9.997956 
7.501523e+1, 2.7504256e+2, -93282.45, -401802.56, -589.0913, -0.00638195, -0.30028322, -93281.33, 151272.81, 0.0, 10.002032, 9.997943 
7.501825e+1, 2.850406e+2, 13007.434, -368662.63, -1778.5094, -0.0038985582, -0.26025048, 13015.721, 159591.47, 0.0000000010869243, 10.002386, 9.997328 
7.502123e+1, 2.950385e+2, 159795.67, -251895.66, -2669.7693, -0.0039106547, -0.20615709, 159812.98, 208411.13, 0.0000019142904, 10.002742, 9.997285 
7.5024056e+1, 3.050348e+2, 238874.36, -226466.2, 3298.8743, -0.03020572, -0.2852589, 238897.75, 238897.75, 0.000026528098, 10.003112, 9.996946 
7.502708e+1, 3.150324e+2, 388214.16, -5886.993, 3965.1519, -0.043912295, -0.22333467, 388254.03, 388254.03, 0.000106300286, 10.003499, 9.998275 
8.4971666e+1, 1.2504137e+2, -2107724.3, -1731362.9, -7969.2104, -0.0060499273, -0.35286275, -1731194.3, -16634.385, 0.0, 9.996561, 10.001546 
8.497497e+1, 1.3504279e+2, -1949090.4, -1606726.9, -8008.3594, -0.0050121536, -0.36344236, -1606539.6, 10004.986, 0.0, 9.996987, 10.001523 
8.497822e+1, 1.450439e+2, -1826861.9, -1548365.6, -13051.931, -0.00024330668, -0.38146862, -1547755.3, -29223.314, 0.0, 9.997375, 10.001062 
8.498143e+1, 1.5504467e+2, -1678473.1, -1427893.1, -13544.21, 0.0048983656, -0.4098745, -1427163.3, -6641.2925, 0.0, 9.997728, 10.001046 
8.498438e+1, 1.650452e+2, -1569651.3, -1399173.8, -25947.629, 0.0035115038, -0.42843202, -1395311.9, -72796.766, 0.0, 9.998123, 10.0003805 
8.4987104e+1, 1.7504549e+2, -1408825.4, -1272590.1, -24055.639, -0.004053248, -0.4382307, -1268467.4, -43956.2, 0.0, 9.998562, 10.000365 
8.498991e+1, 1.8504548e+2, -1277412.5, -1200975.4, -21821.111, -0.006247399, -0.45543608, -1195184.6, -68674.625, 0.0, 9.998974, 9.999985 
8.499281e+1, 1.9504522e+2, -1124024.6, -1077988.6, -23921.04, -0.0032620023, -0.4811858, -1067809.5, -39298.207, 0.0, 9.999362, 9.9999695 
8.499579e+1, 2.0504504e+2, -1002154.44, -1011036.6, -21531.94, 0.003655287, -0.47507054, -984610.4, -54096.75, 0.0, 9.999708, 9.999589 
8.4998864e+1, 2.15045e+2, -860324.44, -893510.75, -22338.326, 0.014485368, -0.43878424, -849090.75, -16574.059, 0.0, 10.000016, 9.999575 
8.5001844e+1, 2.2504477e+2, -733229.94, -811514.56, -21967.916, 0.014366132, -0.40577215, -727486.7, 7034.902, 0.0, 10.000345, 9.999307 
8.5004735e+1, 2.3504438e+2, -585382.2, -691164.6, -23116.355, 0.0035694644, -0.37689778, -580551.25, 55976.9, 0.0, 10.000695, 9.999291 
8.500769e+1, 2.4504364e+2, -472841.88, -643164.9, -21364.465, -0.004610366, -0.35329908, -470202.9, 68334.41, 0.0, 10.00104, 9.998782 
8.5010695e+1, 2.5504258e+2, -326249.2, -523500.47, -21650.145, -0.010344741, -0.3364944, -323900.84, 116647.99, 0.0, 10.001382, 9.998767 
8.501388e+1, 2.650411e+2, -239017.0, -525015.4, -12757.186, -0.012536587, -0.31906798, -238449.08, 104116.49, 0.0, 10.001714, 9.997923 
8.501722e+1, 2.7503923e+2, -94873.69, -406288.72, -14118.482, -0.01102175, -0.30088532, -94234.914, 150352.2, 0.0, 10.002037, 9.99791 
8.502058e+1, 2.8503722e+2, 9737.7295, -372273.38, -14581.794, -0.008788889, -0.26050252, 10293.524, 156902.53, 0.0000000009777485, 10.002372, 9.99731 
8.5023934e+1, 2.950351e+2, 155109.61, -256103.69, -14800.275, -0.0067043575, -0.20315701, 155641.61, 204273.03, 0.0000016479609, 10.002718, 9.997268 
8.502712e+1, 3.050314e+2, 234901.63, -226515.98, -7074.846, -0.032711644, -0.28235728, 235010.08, 235010.08, 0.000023861305, 10.003077, 9.996963 
8.5030556e+1, 3.1502903e+2, 381606.22, -8661.551, -6082.2813, -0.043664698, -0.21943778, 381701.0, 381701.0, 0.00009776159, 10.003452, 9.998279 
9.4968325e+1, 1.2503797e+2, -2106365.5, -1728558.5, 8114.967, 0.0037399638, -0.34021974, -1728384.3, -13790.793, 0.0, 9.996561, 10.001565 
9.4971985e+1, 1.3503928e+2, -1947825.6, -1604038.5, 7962.662, -0.0019892969, -0.3637745, -1603854.1, 12724.918, 0.0, 9.996987, 10.001541 
9.497558e+1, 1.4504038e+2, -1827593.1, -1549780.5, 248.9237, -0.0025001941, -0.383918, -1549780.4, -31213.67, 0.0, 9.997375, 10.001053 
9.4979095e+1, 1.5504123e+2, -1679181.0, -1429257.4, -249.61649, -0.0013656544, -0.40364382, -1429257.1, -8701.079, 0.0, 9.997727, 10.001038 
9.4982475e+1, 1.6504177e+2, -1566195.9, -1391925.9, -9414.228, 0.0002761065, -0.42217794, -1391418.8, -68869.9, 0.0, 9.998123, 10.00043 
9.4985735e+1, 1.7504202e+2, -1405367.6, -1265379.3, -7532.2134, 0.0026317404, -0.4405096, -1264975.1, -40430.184, 0.0, 9.998562, 10.000415 
9.4988984e+1, 1.8504201e+2, -1281431.4, -1209315.4, -7202.94, 0.0033588374, -0.45828667, -1208602.9, -82058.95, 0.0, 9.998974, 9.9999275 
9.4992226e+1, 1.9504176e+2, -1127998.3, -1086263.4, -9323.858, 0.0024114265, -0.47673473, -1084275.1, -55729.473, 0.0, 9.999362, 9.999913 
9.499552e+1, 2.0504159e+2, -1003607.0, -1014091.44, -9922.503, 0.005992577, -0.46823618, -997627.06, -67078.87, 0.0, 9.999709, 9.999568 
9.499887e+1, 2.1504149e+2, -861763.75, -896535.25, -10722.998, 0.014120566, -0.43442297, -858722.9, -26171.367, 0.0, 10.000016, 9.999555 
9.500218e+1, 2.2504123e+2, -735314.1, -815853.8, -8795.066, 0.0140101705, -0.4018134, -734364.9, 191.84038, 0.0, 10.000345, 9.999277 
9.500545e+1, 2.3504081e+2, -587446.4, -695461.75, -9954.667, 0.005809434, -0.3712604, -586536.6, 50026.813, 0.0, 10.000695, 9.999263 
9.500876e+1, 2.4504006e+2, -473374.8, -644284.0, -8511.924, -0.0014548013, -0.34905857, -472951.9, 65620.87, 0.0, 10.00104, 9.998775 
9.50121e+1, 2.5503895e+2, -326772.1, -524609.9, -8815.327, -0.007896954, -0.33670968, -326380.1, 114204.484, 0.0, 10.001382, 9.998759 
9.5015585e+1, 2.6503742e+2, -241632.67, -530476.2, -585.08075, -0.012946315, -0.32043037, -241631.48, 100970.07, 0.0, 10.001714, 9.997886 
9.5019203e+1, 2.7503553e+2, -97489.62, -411744.22, -1949.4254, -0.01638079, -0.3001182, -97477.52, 147145.78, 0.0, 10.002037, 9.997872 
9.502288e+1, 2.850335e+2, 9114.362, -373572.44, -1578.0933, -0.015780343, -0.25889847, 9120.869, 155766.28, 0.00000000065795036, 10.002372, 9.9973 
9.5026594e+1, 2.950314e+2, 154531.0, -257291.47, -1849.9492, -0.01210839, -0.20207472, 154539.31, 203207.36, 0.000001379458, 10.002718, 9.99726 
9.503015e+1, 3.050277e+2, 236352.97, -223440.67, 7043.1284, -0.03732606, -0.28414962, 236460.84, 236460.84, 0.000021105876, 10.003077, 9.996984 
9.5034e+1, 3.150253e+2, 381951.1, -7786.135, 7964.4995, -0.04428993, -0.22166029, 382113.78, 382113.78, 0.000088718174, 10.003451, 9.998285 
1.04964904e+2, 1.25034e+2, -2124338.3, -1733930.8, -13336.087, 0.013239791, -0.33419433, -1733475.8, -18843.229, 0.0, 9.996424, 10.001595 
1.0496895e+2, 1.350353e+2, -1965080.3, -1609073.1, -12857.763, 0.0024310665, -0.36237028, -1608609.3, 8008.9653, 0.0, 9.996855, 10.001571 
1.049729e+2, 1.4503641e+2, -1841591.6, -1554415.8, -21000.846, -0.0023080062, -0.384057, -1552888.1, -34282.434, 0.0, 9.99727, 10.001072 
1.0497676e+2, 1.550373e+2, -1686223.6, -1430540.6, -19413.162, -0.0046916343, -0.40217495, -1429075.0, -8480.24, 0.0, 9.99767, 10.001056 
1.0498056e+2, 1.6503787e+2, -1569559.5, -1390265.4, -26162.504, -0.0017802265, -0.42063752, -1386525.8, -63938.402, 0.0, 9.998086, 10.00046 
1.0498431e+2, 1.7503813e+2, -1409819.5, -1264253.3, -25899.326, 0.006557621, -0.44042122, -1259782.5, -35199.27, 0.0, 9.998517, 10.000443 
1.04988e+2, 1.8503813e+2, -1290163.5, -1215806.6, -26815.936, 0.009916049, -0.45707425, -1207144.8, -80562.64, 0.0, 9.998924, 9.9999075 
1.04991615e+2, 1.950379e+2, -1137246.6, -1092977.3, -26204.22, 0.008306363, -0.47182894, -1080810.3, -52226.36, 0.0, 9.999308, 9.999892 
1.04995236e+2, 2.0503771e+2, -1008280.8, -1015481.7, -26555.06, 0.008961879, -0.46239844, -985083.2, -54496.664, 0.0, 9.999673, 9.999576 
1.0499887e+2, 2.1503761e+2, -860759.56, -895194.75, -25201.99, 0.011955434, -0.43040124, -847455.25, -14865.44, 0.0, 10.00002, 9.999562 
1.050025e+2, 2.2503734e+2, -734620.4, -818738.7, -21488.402, 0.01064683, -0.39834535, -729449.0, 5146.0967, 0.0, 10.000364, 9.9992485 
1.0500614e+2, 2.350369e+2, -587878.5, -698862.75, -22589.553, 0.0051042344, -0.3670802, -583456.8, 53145.22, 0.0, 10.000706, 9.999234 
1.0500981e+2, 2.4503608e+2, -473255.03, -647047.06, -21703.646, -0.0007655806, -0.34642375, -470585.63, 68026.11, 0.0, 10.001053, 9.998749 
1.05013505e+2, 2.5503492e+2, -324886.2, -526493.06, -23355.254, -0.007073133, -0.33783257, -322215.94, 118408.09, 0.0, 10.001407, 9.9987335 
1.05017304e+2, 2.650334e+2, -238468.38, -529897.8, -15778.402, -0.013340999, -0.3228988, -237616.61, 105024.625, 0.0, 10.0017395, 9.997877 
1.05021216e+2, 2.7503148e+2, -95874.59, -411910.13, -14973.293, -0.019304546, -0.30154774, -95166.766, 149496.14, 0.0, 10.002052, 9.997864 
1.0502521e+2, 2.8502947e+2, 8748.806, -375285.6, -12900.527, -0.01981532, -0.25788757, 9181.674, 155866.63, 0.00000000025503108, 10.002377, 9.997287 
1.0502928e+2, 2.9502738e+2, 152506.56, -259745.6, -13613.229, -0.015907064, -0.19730714, 152955.6, 201663.16, 0.000001118805, 10.00271, 9.997247 
1.0503318e+2, 3.0502364e+2, 231894.03, -221856.98, -4398.5967, -0.04007729, -0.28164247, 231936.66, 231936.66, 0.000018367069, 10.00303, 9.997017 
1.0503742e+2, 3.150213e+2, 366477.3, -13398.617, -2729.5566, -0.041296452, -0.22225308, 366496.9, 366496.9, 0.00007944771, 10.003337, 9.9983015 
1.14961416e+2, 1.2502947e+2, -2121685.3, -1728280.9, 2925.475, 0.022314651, -0.33492714, -1728259.1, -13582.001, 0.0, 9.996423, 10.001634 
1.14965856e+2, 1.3503085e+2, -1962420.8, -1603375.6, 3332.6675, 0.008145079, -0.35929674, -1603344.6, 13317.452, 0.0, 9.996854, 10.00161 
1.1497019e+2, 1.4503199e+2, -1838426.1, -1547692.3, -5878.709, 0.00024324944, -0.38193107, -1547573.4, -28924.201, 0.0, 9.997269, 10.001119 
1.14974424e+2, 1.5503287e+2, -1683041.5, -1423844.4, -4307.9565, -0.005143161, -0.40554523, -1423772.8, -3134.664, 0.0, 9.99767, 10.001102 
1.1497863e+2, 1.6503346e+2, -1569058.4, -1389171.0, -9904.69, -0.0027072749, -0.42388698, -1388627.3, -65996.836, 0.0, 9.998086, 10.000467 
1.1498284e+2, 1.750338e+2, -1409293.6, -1263132.3, -9662.831, 0.007669345, -0.4379913, -1262496.3, -37870.395, 0.0, 9.998517, 10.000451 
1.14986956e+2, 1.8503384e+2, -1289054.8, -1213504.4, -12345.268, 0.013378147, -0.45179915, -1211538.3, -84913.77, 0.0, 9.998924, 9.999923 
1.1499098e+2, 1.9503361e+2, -1136126.1, -1090667.6, -11740.323, 0.014401568, -0.46647054, -1087814.5, -59188.21, 0.0, 9.999308, 9.999908 
1.1499495e+2, 2.0503347e+2, -1005741.25, -1010236.06, -13484.21, 0.0125545245, -0.45755967, -994318.44, -63689.695, 0.0, 9.999673, 9.999612 
1.1499885e+2, 2.1503338e+2, -858243.5, -889997.1, -12131.345, 0.007980392, -0.42671195, -854139.25, -21507.686, 0.0, 10.00002, 9.999598 
1.150028e+2, 2.2503309e+2, -736586.2, -822829.75, -8618.561, 0.0042688423, -0.39535525, -735733.3, -1096.6256, 0.0, 10.000364, 9.99922 
1.1500681e+2, 2.3503263e+2, -589836.25, -702931.7, -9725.412, 0.0014472853, -0.36434284, -589006.0, 47637.914, 0.0, 10.000706, 9.999206 
1.1501085e+2, 2.4503179e+2, -476277.1, -653325.94, -8398.15, -0.0025477312, -0.34538075, -475879.63, 62774.52, 0.0, 10.001053, 9.998706 
1.150149e+2, 2.5503054e+2, -327881.6, -532713.2, -10054.881, -0.007876959, -0.3398618, -327389.2, 113277.984, 0.0, 10.001407, 9.998692 
1.15019046e+2, 2.6502895e+2, -237073.28, -526992.8, -4008.8494, -0.013735173, -0.32648298, -237017.86, 105666.695, 0.0, 10.0017395, 9.997897 
1.1502326e+2, 2.7502707e+2, -94504.586, -409034.2, -3208.9956, -0.019829549, -0.30518767, -94471.84, 150234.03, 0.0, 10.002052, 9.997884 
1.1502757e+2, 2.8502512e+2, 7372.291, -378092.97, -348.53622, -0.020944411, -0.25752842, 7372.606, 154100.22, 0.000000000026412617, 10.002376, 9.997268 
1.1503196e+2, 2.9502308e+2, 151128.52, -262540.94, -1091.9801, -0.01814464, -0.1889879, 151131.39, 199881.34, 0.0000008745259, 10.002709, 9.997228 
1.150362e+2, 3.0501935e+2, 234969.86, -215397.83, 7143.532, -0.041032866, -0.27498, 235083.14, 235083.14, 0.000015743772, 10.00303, 9.997062 
1.1504082e+2, 3.1501696e+2, 368205.66, -9721.72, 8639.329, -0.034910515, -0.22149402, 368403.03, 368403.03, 0.000070235736, 10.003336, 9.998327 
1.2495789e+2, 1.250245e+2, -2125494.3, -1727792.8, -12640.28, 0.028390953, -0.33984098, -1727391.4, -12665.486, 0.0, 9.996387, 10.001655 
1.2496271e+2, 1.3502596e+2, -1970776.6, -1605003.8, -13704.714, 0.010760291, -0.35627747, -1604491.0, 12219.084, 0.0, 9.996787, 10.001632 
1.2496744e+2, 1.4502715e+2, -1845997.4, -1545346.6, -23701.283, 0.0019467598, -0.3778047, -1543489.6, -24792.953, 0.0, 9.997191, 10.001172 
1.2497209e+2, 1.5502803e+2, -1689406.3, -1420957.8, -21651.564, -0.0018060417, -0.4069245, -1419222.6, 1462.8533, 0.0, 9.997601, 10.001155 
1.2497673e+2, 1.6502866e+2, -1576467.9, -1391386.4, -25572.623, 0.0010788254, -0.4263471, -1387918.0, -65240.34, 0.0, 9.998029, 10.000479 
1.24981366e+2, 1.7502902e+2, -1414395.1, -1264254.1, -25060.51, 0.010737968, -0.43713674, -1260181.6, -35508.953, 0.0, 9.998476, 10.0004635 
1.2498589e+2, 1.8502912e+2, -1293626.8, -1211421.1, -29483.605, 0.016548842, -0.44831982, -1201940.1, -75269.0, 0.0, 9.998875, 9.999961 
1.24990284e+2, 1.9502896e+2, -1145676.1, -1091011.0, -27236.105, 0.018487262, -0.46107483, -1079757.6, -51085.094, 0.0, 9.999224, 9.999947 
1.2499461e+2, 2.0502883e+2, -1017562.94, -1011800.4, -28824.828, 0.016658572, -0.45191056, -985713.2, -55038.676, 0.0, 9.999574, 9.999649 
1.24998845e+2, 2.1502878e+2, -869517.3, -891326.1, -27423.406, 0.011189163, -0.42240644, -850909.9, -18232.932, 0.0, 9.999925, 9.999634 
1.2500314e+2, 2.2502849e+2, -747811.5, -829453.56, -22722.746, 0.0064851246, -0.39370146, -741913.4, -7231.3105, 0.0, 10.000292, 9.999209 
1.2500751e+2, 2.3502797e+2, -594933.1, -706599.1, -22548.521, 0.002609319, -0.3666414, -590551.8, 46137.75, 0.0, 10.000676, 9.999195 
1.2501189e+2, 2.4502708e+2, -481490.3, -660254.5, -21115.11, -0.0020040574, -0.34773508, -479030.13, 59669.98, 0.0, 10.001037, 9.998667 
1.250163e+2, 2.5502583e+2, -335391.2, -540714.1, -22524.111, -0.007556975, -0.3384221, -332949.3, 107764.03, 0.0, 10.001374, 9.998652 
1.2502076e+2, 2.6502427e+2, -244388.89, -530284.1, -18676.994, -0.01413292, -0.3241628, -243173.92, 99556.945, 0.0, 10.001689, 9.997899 
1.2502526e+2, 2.7502236e+2, -104958.67, -413845.2, -19243.99, -0.021427574, -0.3048465, -103764.37, 140987.84, 0.0, 10.00198, 9.997886 
1.2502989e+2, 2.8502038e+2, -5151.8096, -385075.6, -15441.465, -0.023258118, -0.2572506, -4525.246, 142248.73, 0.0, 10.002295, 9.997259 
1.250346e+2, 2.9501837e+2, 138978.52, -269350.3, -15438.035, -0.020741744, -0.18690377, 139561.36, 188357.72, 0.0000006546641, 10.00263, 9.997219 
1.2503918e+2, 3.0501464e+2, 225982.4, -217661.77, -8626.297, -0.042405922, -0.27206412, 226150.08, 226150.08, 0.0000132978475, 10.002959, 9.99708 
1.2504417e+2, 3.1501234e+2, 359536.5, -14242.224, -9319.185, -0.030008651, -0.21319483, 359768.72, 359768.72, 0.000061306615, 10.003279, 9.998323 
1.349543e+2, 1.2501904e+2, -2125491.0, -1727630.6, 2435.7517, 0.031323742, -0.34901473, -1727615.8, -12836.7295, 0.0, 9.996386, 10.001656 
1.3495949e+2, 1.3502066e+2, -1970730.3, -1604731.4, 1348.2655, 0.010130772, -0.3533178, -1604726.4, 12035.885, 0.0, 9.996786, 10.001634 
1.3496464e+2, 1.450219e+2, -1841888.3, -1536677.1, -8247.037, 0.0026739745, -0.37165782, -1536454.4, -17706.082, 0.0, 9.99719, 10.001232 
1.3496976e+2, 1.5502279e+2, -1685298.6, -1412341.5, -6209.7637, 0.0052664136, -0.40630558, -1412200.3, 8536.703, 0.0, 9.997601, 10.001215 
1.3497484e+2, 1.650234e+2, -1575400.6, -1389120.1, -8720.428, 0.009560013, -0.42801884, -1388712.8, -65983.836, 0.0, 9.998029, 10.000495 
1.3497989e+2, 1.7502382e+2, -1413342.5, -1262052.6, -8225.752, 0.015736897, -0.4378687, -1261606.6, -36882.668, 0.0, 9.998476, 10.000479 
1.3498479e+2, 1.8502398e+2, -1289407.4, -1202673.5, -16305.49, 0.01940113, -0.44664958, -1199709.4, -72987.5, 0.0, 9.998874, 10.000021 
1.3498953e+2, 1.950239e+2, -1141488.5, -1082333.4, -14062.775, 0.02053963, -0.45564687, -1079160.4, -50437.96, 0.0, 9.999224, 10.000006 
1.3499424e+2, 2.0502385e+2, -1014944.3, -1006383.2, -15623.824, 0.021251963, -0.44544697, -994464.1, -63740.258, 0.0, 9.999574, 9.999686 
1.3499889e+2, 2.1502382e+2, -866910.06, -885930.75, -14205.451, 0.021563148, -0.41747892, -859325.4, -26599.451, 0.0, 9.999925, 9.999671 
1.3500355e+2, 2.2502348e+2, -747412.0, -828627.9, -8283.066, 0.017276993, -0.3933726, -746575.9, -11844.805, 0.0, 10.000292, 9.999215 
1.3500826e+2, 2.350229e+2, -594549.1, -705792.75, -8105.582, 0.008564202, -0.37395185, -593961.6, 42777.383, 0.0, 10.000676, 9.999201 
1.3501295e+2, 2.4502201e+2, -484067.0, -665592.0, -8422.966, 0.0008372465, -0.3534809, -483677.0, 55072.582, 0.0, 10.001037, 9.99863 
1.3501768e+2, 2.5502086e+2, -337946.9, -546008.9, -9821.618, -0.006136635, -0.33354947, -337484.3, 103278.24, 0.0, 10.001374, 9.998615 
1.3502243e+2, 2.6501927e+2, -245552.89, -532703.9, -7727.0625, -0.014549658, -0.3159911, -245345.11, 97435.016, 0.0, 10.001689, 9.997883 
1.350272e+2, 2.750173e+2, -106115.484, -416252.03, -8279.265, -0.024104645, -0.30058193, -105894.625, 138907.25, 0.0, 10.00198, 9.9978695 
1.3503213e+2, 2.8501529e+2, -5079.514, -384928.63, -2789.8972, -0.026762692, -0.25707862, -5059.024, 141765.02, 0.0, 10.002295, 9.99726 
1.350372e+2, 2.9501322e+2, 139028.55, -269240.38, -2769.7861, -0.023713151, -0.19101447, 139047.33, 187894.14, 0.0000004660869, 10.00263, 9.99722 
1.3504212e+2, 3.050095e+2, 225405.28, -218855.2, 3400.118, -0.044259146, -0.2729144, 225431.31, 225431.31, 0.000011042731, 10.002959, 9.997072 
1.3504748e+2, 3.150074e+2, 357266.22, -18929.344, 2451.3674, -0.02682499, -0.19777922, 357282.2, 357282.2, 0.000052781335, 10.003278, 9.998292 
1.4495076e+2, 1.2501328e+2, -2119330.5, -1722851.6, -12331.079, 0.03766757, -0.3525872, -1722468.5, -7633.0376, 0.0, 9.996421, 10.001672 
1.4495626e+2, 1.350149e+2, -1969744.5, -1602396.3, -12336.69, 0.010328424, -0.3555027, -1601982.4, 14836.075, 0.0, 9.996784, 10.00165 
1.4496177e+2, 1.450162e+2, -1846315.8, -1536430.1, -22689.092, 0.00005732805, -0.371177, -1534777.8, -15973.515, 0.0, 9.997149, 10.001253 
1.449673e+2, 1.5501715e+2, -1696419.6, -1415353.3, -23620.924, 0.003279731, -0.4016787, -1413382.0, 7410.457, 0.0, 9.997514, 10.001236 
1.4497279e+2, 1.6501781e+2, -1591831.8, -1390295.0, -24878.02, 0.009718607, -0.4237825, -1387269.4, -64485.3, 0.0, 9.997888, 10.000555 
1.449783e+2, 1.7501822e+2, -1439317.4, -1267905.6, -21064.26, 0.019574158, -0.43856758, -1265355.1, -40576.21, 0.0, 9.998269, 10.000538 
1.4498359e+2, 1.8501844e+2, -1315296.6, -1209534.9, -28923.418, 0.023903178, -0.44707394, -1202141.8, -75365.49, 0.0, 9.9986725, 10.000072 
1.4498872e+2, 1.9501849e+2, -1156588.3, -1084042.8, -27472.682, 0.022710316, -0.4506557, -1074813.1, -46037.105, 0.0, 9.999097, 10.000055 
1.4499377e+2, 2.0501846e+2, -1024560.0, -1008447.7, -30849.47, 0.022582602, -0.43905267, -984619.8, -53842.805, 0.0, 9.999497, 9.999709 
1.4499879e+2, 2.1501844e+2, -872577.06, -886068.6, -30518.545, 0.023527423, -0.41358796, -848067.6, -15288.677, 0.0, 9.999875, 9.999694 
1.4500384e+2, 2.250181e+2, -752896.75, -828714.6, -24223.008, 0.019973746, -0.3929758, -745818.56, -11034.518, 0.0, 10.000244, 9.999237 
1.4500892e+2, 2.350175e+2, -603408.7, -707480.2, -22747.984, 0.012067496, -0.3780211, -598653.6, 38138.324, 0.0, 10.000604, 9.999224 
1.4501399e+2, 2.4501662e+2, -495995.72, -673568.7, -22722.518, 0.0041798707, -0.3558525, -493134.22, 45668.18, 0.0, 10.000964, 9.99861 
1.4501905e+2, 2.550155e+2, -346663.1, -552381.6, -22874.785, -0.003911988, -0.3281443, -344150.25, 96664.875, 0.0, 10.001324, 9.998596 
1.450241e+2, 2.650139e+2, -250298.39, -536126.94, -21678.063, -0.014342585, -0.3098623, -248663.61, 94169.22, 0.0, 10.001661, 9.997872 
1.4502916e+2, 2.7501187e+2, -107448.05, -417995.8, -21762.846, -0.026790679, -0.30072156, -105930.34, 138924.8, 0.0, 10.001976, 9.997859 
1.4503439e+2, 2.8500986e+2, -2641.4453, -381035.03, -14055.216, -0.030518299, -0.26021516, -2120.0906, 144757.31, 0.0, 10.002299, 9.997284 
1.450398e+2, 2.9500782e+2, 140777.31, -265643.22, -12291.708, -0.02677603, -0.19390303, 141148.72, 190048.53, 0.00000031171322, 10.002631, 9.997244 
1.4504504e+2, 3.0500415e+2, 223793.94, -219564.36, -5895.4604, -0.04702274, -0.27382794, 223872.31, 223872.31, 0.000008961074, 10.002948, 9.997072 
1.4505075e+2, 3.1500208e+2, 350869.53, -24873.313, -6526.04, -0.026459621, -0.18941943, 350982.84, 350982.84, 0.000044704477, 10.003246, 9.998266 
1.5494728e+2, 1.2500717e+2, -2117274.3, -1718454.1, 1375.6132, 0.047406804, -0.35032964, -1718449.5, -3554.0293, 0.0, 9.99642, 10.001702 
1.5495306e+2, 1.3500874e+2, -1967676.8, -1597983.8, 1414.7893, 0.011288198, -0.362844, -1597978.4, 18900.469, 0.0, 9.996784, 10.001681 
1.5495886e+2, 1.4501005e+2, -1847686.1, -1539170.1, -8963.759, -0.006037301, -0.37641263, -1538909.9, -20045.53, 0.0, 9.997149, 10.001234 
1.549647e+2, 1.5501112e+2, -1697800.4, -1418122.1, -9915.86, -0.007935493, -0.39297184, -1417771.0, 3080.9585, 0.0, 9.997514, 10.001217 
1.549706e+2, 1.6501185e+2, -1584552.8, -1375111.3, -10502.106, 0.0014061059, -0.41354004, -1374586.0, -51742.91, 0.0, 9.997887, 10.000659 
1.5497659e+2, 1.7501225e+2, -1432082.9, -1252815.9, -6671.8555, 0.022184929, -0.43920714, -1252567.9, -27730.46, 0.0, 9.998269, 10.000642 
1.5498233e+2, 1.8501252e+2, -1312587.4, -1203854.5, -12942.526, 0.030035416, -0.4495996, -1202335.3, -75500.98, 0.0, 9.9986725, 10.000111 
1.5498784e+2, 1.9501266e+2, -1153857.9, -1078359.0, -11496.345, 0.024978928, -0.44609666, -1076647.3, -47813.96, 0.0, 9.999097, 10.000095 
1.5499325e+2, 2.050127e+2, -1024010.0, -1007323.56, -16643.223, 0.020634452, -0.43272415, -997049.4, -66215.46, 0.0, 9.999497, 9.999717 
1.5499862e+2, 2.1501264e+2, -871993.06, -884873.6, -16308.368, 0.017069723, -0.41073284, -860899.4, -28063.271, 0.0, 9.999875, 9.999702 
1.5500402e+2, 2.250123e+2, -750148.6, -823017.25, -10675.077, 0.014557505, -0.39251393, -748616.94, -13775.89, 0.0, 10.000243, 9.999276 
1.5500954e+2, 2.3501171e+2, -600643.44, -701729.56, -9174.12, 0.0130983265, -0.37886745, -599817.56, 37030.883, 0.0, 10.000604, 9.999263 
1.55015e+2, 2.450109e+2, -496322.47, -674220.1, -9224.203, 0.008001407, -0.35486612, -495845.47, 43013.023, 0.0, 10.000964, 9.998606 
1.550204e+2, 2.5500983e+2, -346957.13, -552948.75, -9352.103, -0.0009056919, -0.32220474, -346533.4, 94337.62, 0.0, 10.001324, 9.998592 
1.5502577e+2, 2.650082e+2, -250673.58, -536869.5, -9867.998, -0.013531102, -0.30575657, -250333.73, 92555.23, 0.0, 10.00166, 9.997868 
1.5503111e+2, 2.7500612e+2, -107800.28, -418681.22, -9922.652, -0.029509708, -0.3052136, -107483.9, 137428.1, 0.0, 10.001975, 9.997854 
1.5503666e+2, 2.8500405e+2, 552.49915, -374346.78, -1600.8085, -0.034551036, -0.26662105, 559.3344, 147493.4, 0.0, 10.002299, 9.997331 
1.5504241e+2, 2.950021e+2, 144018.9, -258835.83, 203.8827, -0.029951267, -0.19558807, 144019.02, 192974.44, 0.000000191647, 10.00263, 9.997292 
1.5504794e+2, 3.049985e+2, 224329.53, -218395.03, 5324.061, -0.050746206, -0.2747809, 224393.55, 224393.55, 0.000007033754, 10.002948, 9.997081 
1.5505397e+2, 3.1499645e+2, 349421.63, -27831.871, 4336.2437, -0.029112916, -0.18811198, 349471.47, 349471.47, 0.00003709365, 10.003246, 9.998246 
1.649437e+2, 1.2500079e+2, -2108383.8, -1713576.6, -7442.791, 0.044324752, -0.34813434, -1713436.4, 1521.6729, 0.0, 9.996478, 10.001708 
1.6494983e+2, 1.3500234e+2, -1970423.6, -1598708.9, -9300.419, 0.01118052, -0.3618577, -1598476.4, 18465.098, 0.0, 9.996762, 10.001686 
1.6495599e+2, 1.4500366e+2, -1858497.5, -1545692.0, -19247.17, -0.005032742, -0.37456805, -1544512.1, -25585.066, 0.0, 9.997081, 10.001223 
1.6496217e+2, 1.5500475e+2, -1710998.3, -1425808.6, -19709.555, -0.007450001, -0.38817403, -1424452.9, -3538.091, 0.0, 9.997429, 10.001205 
1.6496845e+2, 1.6500549e+2, -1591431.1, -1371148.6, -20044.793, 0.0014050602, -0.41004094, -1369339.4, -46433.695, 0.0, 9.997808, 10.000725 
1.6497484e+2, 1.750059e+2, -1434907.4, -1246906.0, -19211.701, 0.021742973, -0.4412522, -1244962.9, -20063.168, 0.0, 9.998219, 10.000707 
1.6498098e+2, 1.8500623e+2, -1317973.4, -1203126.3, -26817.207, 0.030008258, -0.45036322, -1197173.0, -70277.03, 0.0, 9.998621, 10.00014 
1.649869e+2, 1.9500649e+2, -1163388.8, -1079607.0, -26114.916, 0.026197143, -0.43873382, -1072133.5, -43239.332, 0.0, 9.999017, 10.000125 
1.649927e+2, 2.0500655e+2, -1035301.6, -1010267.56, -32108.941, 0.020504788, -0.42436406, -988322.1, -57427.496, 0.0, 9.999409, 9.999739 
1.649984e+2, 2.1500646e+2, -881564.2, -886955.3, -30705.021, 0.013030805, -0.40847465, -853436.6, -20539.555, 0.0, 9.999799, 9.999725 
1.650042e+2, 2.2500613e+2, -759043.3, -823947.56, -25965.402, 0.0104945935, -0.39221534, -749934.1, -15032.333, 0.0, 10.000168, 9.999307 
1.6501008e+2, 2.350056e+2, -610837.25, -703228.9, -25172.602, 0.0128540415, -0.37639564, -604424.0, 32484.496, 0.0, 10.00052, 9.999293 
1.6501594e+2, 2.4500477e+2, -509682.9, -681166.06, -25507.695, 0.009546188, -0.35197318, -505969.13, 32949.234, 0.0, 10.0008745, 9.998601 
1.650217e+2, 2.5500372e+2, -360344.66, -559840.9, -25645.822, 0.00039420466, -0.32061243, -357100.56, 83830.64, 0.0, 10.001233, 9.998589 
1.6502741e+2, 2.6500207e+2, -259588.64, -536528.5, -25858.133, -0.012919414, -0.3063532, -257194.94, 85754.234, 0.0, 10.00158, 9.997909 
1.6503306e+2, 2.7499998e+2, -114139.32, -417043.2, -22450.535, -0.029975414, -0.30891138, -112484.38, 132487.5, 0.0, 10.001912, 9.997896 
1.6503891e+2, 2.84998e+2, -6101.867, -374118.84, -12948.933, -0.035280183, -0.2695222, -5646.8125, 141346.64, 0.0, 10.002238, 9.997361 
1.6504498e+2, 2.9499608e+2, 135752.8, -259256.31, -12258.118, -0.030197775, -0.19381122, 136132.83, 185146.92, 0.000000103903474, 10.002559, 9.997323 
1.6505083e+2, 3.049925e+2, 214670.08, -221244.95, -8378.716, -0.05307941, -0.27404508, 214831.06, 214831.06, 0.0000052712203, 10.002873, 9.997097 
1.6505712e+2, 3.149905e+2, 338524.88, -34661.6, -9210.978, -0.03326916, -0.18868653, 338752.06, 338752.06, 0.00002996744, 10.003179, 9.998232 
1.7494e+2, 1.24994114e+2, -2109945.8, -1716721.4, 3241.9426, 0.027970495, -0.34591848, -1716694.8, -1671.1416, 0.0, 9.996478, 10.001686 
1.7494658e+2, 1.3499574e+2, -1971979.3, -1601804.8, 1478.1731, 0.00989619, -0.35231587, -1601798.8, 15207.766, 0.0, 9.996762, 10.001665 
1.7495316e+2, 1.4499705e+2, -1858973.4, -1546554.6, -6141.0566, 0.0031207644, -0.3654312, -1546433.9, -27441.521, 0.0, 9.99708, 10.001217 
1.7495972e+2, 1.5499805e+2, -1711461.8, -1426671.5, -6588.1396, 0.0048483317, -0.3872612, -1426519.3, -5538.343, 0.0, 9.997428, 10.0012 
1.7496634e+2, 1.6499875e+2, -1589728.4, -1367553.3, -4602.292, 0.009804084, -0.41333312, -1367457.9, -44485.88, 0.0, 9.9978075, 10.00075 
1.7497301e+2, 1.7499918e+2, -1433176.1, -1243305.6, -3775.3, 0.018211167, -0.44470546, -1243230.6, -18265.027, 0.0, 9.998218, 10.000731 
1.7497954e+2, 1.8499957e+2, -1316602.4, -1200287.9, -11926.436, 0.023736443, -0.44934225, -1199077.6, -72116.27, 0.0, 9.998621, 10.00016 
1.7498592e+2, 1.9499993e+2, -1162019.3, -1076764.0, -11219.288, 0.026326675, -0.42854437, -1075312.4, -46353.44, 0.0, 9.999017, 10.000144 
1.7499213e+2, 2.0500004e+2, -1032761.6, -1005011.56, -17464.695, 0.022179674, -0.41395488, -996581.2, -65622.0, 0.0, 9.999409, 9.999775 
1.7499818e+2, 2.149999e+2, -879012.56, -881678.6, -16064.867, 0.011391862, -0.40681383, -864225.5, -31263.65, 0.0, 9.999798, 9.999762 
1.7500433e+2, 2.2499958e+2, -757661.06, -821098.8, -12764.913, 0.007770493, -0.3920957, -755188.9, -20222.6, 0.0, 10.000168, 9.999326 
1.7501059e+2, 2.3499912e+2, -609407.2, -700274.3, -11958.494, 0.0113274, -0.3706334, -607859.75, 29112.371, 0.0, 10.00052, 9.999313 
1.7501679e+2, 2.449983e+2, -510099.3, -682028.6, -12031.889, 0.008805248, -0.3471816, -509261.4, 29720.611, 0.0, 10.0008745, 9.998595 
1.7502292e+2, 2.5499713e+2, -360768.7, -560673.94, -12137.993, -0.000026980171, -0.32332253, -360034.38, 80961.33, 0.0, 10.001233, 9.998583 
1.7502898e+2, 2.6499555e+2, -253596.88, -524002.7, -13416.652, -0.012531861, -0.31160453, -252932.81, 90080.61, 0.0, 10.001579, 9.997994 
1.7503497e+2, 2.7499354e+2, -108143.43, -404477.28, -9987.757, -0.028241692, -0.31181562, -107807.18, 137227.63, 0.0, 10.001911, 9.997983 
1.7504118e+2, 2.8499165e+2, -5166.4736, -372062.44, -987.2434, -0.032779645, -0.2689384, -5163.8174, 141891.69, 0.0, 10.002238, 9.9973755 
1.7504758e+2, 2.949898e+2, 136786.55, -257012.97, -218.27603, -0.027587255, -0.18858077, 136786.67, 185862.44, 0.00000004563321, 10.002558, 9.997338 
1.750537e+2, 3.049862e+2, 216262.73, -217897.11, 3014.7273, -0.054090746, -0.27158487, 216283.67, 216283.67, 0.0000037135492, 10.002873, 9.99712 
1.7506026e+2, 3.1498414e+2, 337920.88, -35952.59, 1732.8007, -0.03912362, -0.19128373, 337928.9, 337928.9, 0.000023373406, 10.003179, 9.998223 
1.8493646e+2, 1.24987155e+2, -2103759.8, -1718259.8, -6328.379, 0.022196686, -0.3476124, -1718155.9, -3064.164, 0.0, 9.99654, 10.001646 
1.8494336e+2, 1.3498881e+2, -1968531.8, -1604656.8, -9483.571, 0.009644242, -0.3453366, -1604409.8, 12664.865, 0.0, 9.996805, 10.001625 
1.8495028e+2, 1.449901e+2, -1853780.4, -1543839.4, -14869.248, 0.0055052, -0.3587187, -1543127.6, -24066.898, 0.0, 9.997115, 10.001219 
1.849572e+2, 1.5499102e+2, -1705917.8, -1423773.4, -14766.305, 0.007346605, -0.38985825, -1423002.8, -1952.8711, 0.0, 9.997465, 10.001202 
1.8496415e+2, 1.6499168e+2, -1586110.4, -1366135.3, -11732.404, 0.010240119, -0.41827348, -1365511.4, -42470.207, 0.0, 9.997834, 10.000747 
1.849712e+2, 1.7499217e+2, -1433006.8, -1243497.9, -13024.813, 0.014415926, -0.4449861, -1242606.9, -17572.54, 0.0, 9.99822, 10.00073 
1.8497808e+2, 1.849926e+2, -1322532.3, -1205231.0, -24611.322, 0.019442797, -0.44505033, -1200276.5, -73246.53, 0.0, 9.9985895, 10.000141 
1.8498488e+2, 1.9499299e+2, -1174408.3, -1084788.3, -26827.902, 0.025271207, -0.4196963, -1077371.1, -48343.37, 0.0, 9.99894, 10.000126 
1.849915e+2, 2.049931e+2, -1042068.1, -1003529.75, -32939.69, 0.022693228, -0.40523785, -984637.1, -53609.164, 0.0, 9.99932, 9.999828 
1.8499795e+2, 2.1499296e+2, -885594.25, -878858.9, -30276.459, 0.0117593305, -0.40294966, -851763.4, -18733.082, 0.0, 9.999727, 9.999815 
1.8500449e+2, 2.2499266e+2, -763633.6, -821225.9, -27640.691, 0.008311693, -0.38993263, -752514.5, -17480.28, 0.0, 10.000115, 9.999351 
1.850111e+2, 2.3499225e+2, -612848.9, -699120.0, -26469.295, 0.012405165, -0.36701766, -605375.2, 31664.445, 0.0, 10.0004835, 9.999338 
1.8501766e+2, 2.449914e+2, -519035.56, -688000.8, -27813.326, 0.010314671, -0.34509158, -514574.97, 24474.62, 0.0, 10.00082, 9.99858 
1.8502411e+2, 2.549902e+2, -377557.4, -570403.7, -28594.207, 0.0017868243, -0.32572407, -373406.94, 67657.06, 0.0, 10.001125, 9.998568 
1.8503052e+2, 2.6498863e+2, -269059.3, -524512.0, -31199.729, -0.010532968, -0.31393528, -265303.94, 77777.55, 0.0, 10.001443, 9.998056 
1.8503684e+2, 2.749867e+2, -123836.13, -405082.4, -29582.422, -0.02613007, -0.309531, -120758.234, 124343.44, 0.0, 10.001774, 9.998045 
1.8504336e+2, 2.849849e+2, -21285.656, -376388.2, -20883.846, -0.03151912, -0.2645021, -20061.682, 127060.02, 0.0, 10.002112, 9.997406 
1.8505007e+2, 2.949831e+2, 124595.65, -259306.02, -18857.53, -0.028217891, -0.18443377, 125519.73, 174661.55, 0.000000013949684, 10.002459, 9.997371 
1.8505651e+2, 3.049795e+2, 208597.73, -219958.06, -15465.625, -0.057581875, -0.26856238, 209155.14, 209155.14, 0.0000024106344, 10.002813, 9.997134 
1.8506338e+2, 3.1497747e+2, 335636.22, -39224.95, -17855.074, -0.044321038, -0.18535143, 336484.75, 336484.75, 0.000017412012, 10.003172, 9.998203 
1.9493304e+2, 1.2497988e+2, -2108117.0, -1727201.4, 3639.542, 0.027159138, -0.35323212, -1727166.5, -12003.985, 0.0, 9.996539, 10.001585 
1.9494016e+2, 1.3498159e+2, -1972854.5, -1613569.5, 578.0699, 0.010420922, -0.34091824, -1613568.5, 3577.256, 0.0, 9.996805, 10.001564 
1.9494735e+2, 1.4498283e+2, -1853189.8, -1542585.0, -1683.9816, 0.0019854621, -0.3544272, -1542575.8, -23443.6, 0.0, 9.997114, 10.001228 
1.9495457e+2, 1.5498365e+2, -1705272.9, -1422429.1, -1546.8225, -0.00013807579, -0.39598495, -1422420.6, -1298.9825, 0.0, 9.997465, 10.001211 
1.9496192e+2, 1.6498432e+2, -1588348.8, -1370779.3, 2804.257, 0.0025601604, -0.4248647, -1370743.0, -47630.055, 0.0, 9.997834, 10.000714 
1.9496937e+2, 1.7498486e+2, -1435168.3, -1247981.9, 1516.3982, 0.010316985, -0.44203964, -1247969.5, -22863.617, 0.0, 9.99822, 10.000699 
1.9497666e+2, 1.849853e+2, -1326607.5, -1213687.9, -11385.229, 0.017135492, -0.43742958, -1212551.4, -85449.44, 0.0, 9.9985895, 10.000083 
1.949838e+2, 1.9498563e+2, -1178421.3, -1093115.1, -13628.45, 0.023011323, -0.41218638, -1090990.8, -61889.96, 0.0, 9.99894, 10.000069 
1.949908e+2, 2.0498575e+2, -1037203.06, -993452.3, -17583.725, 0.022012925, -0.39822996, -987261.4, -56160.35, 0.0, 9.999319, 9.999897 
1.949977e+2, 2.1498565e+2, -880671.2, -868668.8, -14920.162, 0.014107451, -0.39688838, -858588.1, -25485.809, 0.0, 9.999727, 9.999885 
1.9500464e+2, 2.2498539e+2, -761609.7, -817058.94, -13792.478, 0.012092977, -0.38572776, -758368.44, -23262.729, 0.0, 10.000115, 9.999379 
1.9501163e+2, 2.3498496e+2, -610821.4, -694930.7, -12621.793, 0.016057963, -0.365541, -608968.1, 28142.766, 0.0, 10.0004835, 9.999368 
1.9501851e+2, 2.4498414e+2, -520760.06, -691596.0, -16382.767, 0.01404597, -0.34569904, -519203.16, 19917.904, 0.0, 10.00082, 9.998555 
1.9502528e+2, 2.5498286e+2, -379285.63, -574007.44, -17152.771, 0.0058010607, -0.32782987, -377786.22, 63349.875, 0.0, 10.001125, 9.998543 
1.9503199e+2, 2.6498133e+2, -266461.47, -519118.47, -18825.455, -0.0069540828, -0.31337678, -265066.5, 78086.836, 0.0, 10.001443, 9.998094 
1.9503863e+2, 2.7497953e+2, -121257.25, -399711.2, -17193.105, -0.023660058, -0.3021134, -120199.68, 124972.77, 0.0, 10.001773, 9.998082 
1.9504547e+2, 2.8497776e+2, -18112.678, -369744.75, -7927.991, -0.03149663, -0.25622478, -17934.021, 129257.97, 0.0, 10.002112, 9.997452 
1.9505249e+2, 2.9497597e+2, 127839.4, -252484.1, -5848.568, -0.032050278, -0.18127339, 127929.31, 177141.5, 0.0000000023315327, 10.002459, 9.997417 
1.9505925e+2, 3.0497238e+2, 208902.19, -219235.3, -2066.2607, -0.0635312, -0.26493704, 208912.16, 208912.16, 0.0000014034579, 10.002812, 9.99714 
1.950665e+2, 3.1497046e+2, 333427.56, -43732.445, -4935.7334, -0.04903659, -0.1712805, 333492.16, 333492.16, 0.000012235335, 10.003171, 9.998173 
2.0492955e+2, 1.2497232e+2, -2127078.8, -1741964.5, -8622.671, 0.029235646, -0.3561473, -1741771.5, -26535.105, 0.0, 9.996433, 10.001534 
2.0493697e+2, 1.3497399e+2, -1975696.0, -1620523.8, -10822.245, 0.009889589, -0.342412, -1620194.3, -2973.888, 0.0, 9.99681, 10.0015135 
2.0494448e+2, 1.449752e+2, -1841886.4, -1537259.1, -11286.075, -0.0005423808, -0.35638282, -1536841.5, -17634.414, 0.0, 9.997192, 10.001226 
2.0495208e+2, 1.54976e+2, -1688332.8, -1414310.0, -11892.659, -0.003681368, -0.4002972, -1413794.9, 7401.736, 0.0, 9.9975815, 10.00121 
2.0495977e+2, 1.6497667e+2, -1578950.8, -1370464.4, -9578.7295, -0.00023855244, -0.42619973, -1370025.3, -46837.445, 0.0, 9.997917, 10.000677 
2.0496757e+2, 1.7497726e+2, -1441247.1, -1255048.6, -11370.698, 0.0100823315, -0.43502638, -1254356.9, -29176.223, 0.0, 9.998197, 10.000662 
2.0497522e+2, 1.8497767e+2, -1338545.1, -1225015.3, -22797.184, 0.016906654, -0.4288712, -1220608.5, -93431.3, 0.0, 9.998531, 10.000033 
2.049827e+2, 1.949779e+2, -1184558.0, -1101556.3, -24521.781, 0.020203741, -0.408889, -1094853.0, -65675.71, 0.0, 9.998922, 10.00002 
2.049901e+2, 2.04978e+2, -1033804.56, -986994.3, -27720.621, 0.01928037, -0.39610964, -974119.5, -42941.867, 0.0, 9.999322, 9.999941 
2.0499742e+2, 2.1497798e+2, -876800.4, -861809.75, -27044.215, 0.014094682, -0.3918675, -841241.4, -8063.3906, 0.0, 9.999733, 9.999929 
2.0500475e+2, 2.2497775e+2, -762149.44, -815735.06, -29598.006, 0.013278991, -0.37987694, -749018.56, -13837.696, 0.0, 10.000105, 9.999393 
2.0501208e+2, 2.3497733e+2, -616168.44, -695910.25, -29516.66, 0.01692244, -0.3608934, -606431.7, 30754.432, 0.0, 10.000441, 9.999382 
2.050193e+2, 2.4497649e+2, -529036.06, -697339.4, -34882.133, 0.013868599, -0.3416628, -522092.9, 17103.465, 0.0, 10.0007715, 9.998539 
2.0502637e+2, 2.549752e+2, -384489.56, -578348.56, -35001.11, 0.0038548727, -0.3238484, -378363.72, 62847.95, 0.0, 10.001097, 9.998527 
2.0503342e+2, 2.6497367e+2, -266809.75, -514899.1, -35913.04, -0.007672358, -0.30980068, -261715.63, 81513.17, 0.0, 10.001422, 9.998133 
2.0504043e+2, 2.749719e+2, -122795.17, -396092.4, -34148.73, -0.020082308, -0.29930532, -118592.875, 126654.586, 0.0, 10.001744, 9.998121 
2.050476e+2, 2.8497016e+2, -23014.791, -368951.75, -25297.701, -0.02683507, -0.25350133, -21174.607, 126092.07, 0.0, 10.002065, 9.99748 
2.0505494e+2, 2.949684e+2, 118992.72, -253444.27, -24482.957, -0.029576814, -0.17785965, 120595.266, 169881.94, 0.000000000097020676, 10.002383, 9.997447 
2.0506199e+2, 3.0496484e+2, 200165.88, -218528.11, -18639.605, -0.06712805, -0.26090613, 200994.05, 200994.05, 0.0000007042908, 10.002731, 9.997184 
2.050695e+2, 3.1496304e+2, 324642.56, -47299.918, -19196.533, -0.061634623, -0.16277778, 325630.72, 325630.72, 0.000007994477, 10.003108, 9.9981785 
2.1492596e+2, 1.2496445e+2, -2130143.5, -1747927.9, 5476.212, 0.028193345, -0.3561851, -1747849.4, -32536.11, 0.0, 9.996431, 10.001494 
2.1493377e+2, 1.34966e+2, -1978562.5, -1626325.9, 3374.6675, 0.00798982, -0.34992257, -1626293.5, -8995.076, 0.0, 9.996809, 10.001474 
2.1494165e+2, 1.449672e+2, -1842744.0, -1539028.4, 3349.7952, -0.0020844103, -0.36471912, -1538991.5, -19705.86, 0.0, 9.997192, 10.001215 
2.1494965e+2, 1.5496804e+2, -1689097.4, -1415943.8, 2764.025, -0.0032393446, -0.40276423, -1415915.8, 5358.778, 0.0, 9.9975815, 10.0012 
2.1495768e+2, 1.6496873e+2, -1582048.6, -1376939.5, 932.9068, 0.0019047137, -0.42218122, -1376935.3, -53669.71, 0.0, 9.997917, 10.000632 
2.149658e+2, 1.7496936e+2, -1444351.9, -1261471.8, -875.55316, 0.013744688, -0.42387962, -1261467.6, -36209.133, 0.0, 9.998197, 10.000618 
2.1497375e+2, 1.849697e+2, -1341579.8, -1231279.0, -8079.8975, 0.018762542, -0.41934326, -1230690.3, -103434.516, 0.0, 9.998531, 9.99999 
2.1498159e+2, 1.9496979e+2, -1187528.6, -1107726.6, -9807.186, 0.016831176, -0.40980795, -1106539.0, -77281.766, 0.0, 9.998921, 9.999977 
2.1498936e+2, 2.0496985e+2, -1032637.06, -984600.44, -12266.368, 0.01447265, -0.3988993, -981649.5, -50391.637, 0.0, 9.999322, 9.999957 
2.1499713e+2, 2.1496992e+2, -875536.4, -859223.0, -11611.085, 0.011697792, -0.3878971, -853189.94, -19932.658, 0.0, 9.999733, 9.999948 
2.1500483e+2, 2.2496974e+2, -762154.2, -815794.44, -16976.9, 0.011853275, -0.37238872, -757232.6, -21972.828, 0.0, 10.000105, 9.9993925 
2.150125e+2, 2.3496933e+2, -616185.7, -695986.75, -16917.38, 0.014994451, -0.3531011, -612747.44, 24517.703, 0.0, 10.000441, 9.999381 
2.1502002e+2, 2.4496847e+2, -529594.06, -698523.56, -22640.205, 0.009798994, -0.3330265, -526612.44, 12663.042, 0.0, 10.0007715, 9.998531 
2.1502739e+2, 2.549672e+2, -385097.78, -579613.25, -22758.346, -0.004003775, -0.3138483, -382470.53, 58820.156, 0.0, 10.001097, 9.998518 
2.1503477e+2, 2.6496562e+2, -264022.28, -509058.63, -23851.031, -0.012661872, -0.30322474, -261722.3, 81585.555, 0.0, 10.001422, 9.998174 
2.150422e+2, 2.7496383e+2, -120047.07, -390274.94, -22064.367, -0.015451159, -0.30100128, -118257.35, 127069.305, 0.0, 10.001743, 9.998161 
2.1504976e+2, 2.8496212e+2, -22418.459, -367551.4, -13389.219, -0.017654512, -0.2562197, -21899.813, 125445.88, 0.0, 10.002064, 9.99749 
2.150574e+2, 2.949604e+2, 119665.11, -251869.1, -12538.846, -0.020965546, -0.17417255, 120087.805, 169453.02, 0.0, 10.002382, 9.997458 
2.150647e+2, 3.0495694e+2, 205714.77, -206839.42, -4547.3936, -0.06842843, -0.2564267, 205764.88, 205764.88, 0.00000028677624, 10.002731, 9.997265 
2.1507241e+2, 3.149552e+2, 327421.28, -41431.0, -5645.2056, -0.082019076, -0.16003124, 327507.66, 327507.66, 0.0000047712674, 10.003108, 9.9982195 
2.2492245e+2, 1.2495637e+2, -2115462.8, -1743816.8, -3417.3787, 0.028740866, -0.34924662, -1743785.4, -28392.684, 0.0, 9.996546, 10.001468 
2.249306e+2, 1.3495778e+2, -1967625.8, -1623958.0, -4479.1714, 0.008530186, -0.35477012, -1623899.6, -6520.4844, 0.0, 9.996897, 10.001449 
2.2493887e+2, 1.4495891e+2, -1836607.5, -1539934.6, -4495.7524, -0.0012789889, -0.3711258, -1539866.5, -20499.87, 0.0, 9.9972515, 10.00118 
2.2494726e+2, 1.549598e+2, -1687148.8, -1418769.1, -6868.9087, -0.0015783921, -0.40040618, -1418593.5, 2761.8325, 0.0, 9.997611, 10.001165 
2.2495565e+2, 1.649605e+2, -1578473.3, -1381189.8, -12169.005, 0.003444014, -0.41547304, -1380441.9, -57095.387, 0.0, 9.997967, 10.000579 
2.2496407e+2, 1.7496108e+2, -1430247.4, -1260582.3, -14712.576, 0.0142158475, -0.4172624, -1259315.9, -33975.715, 0.0, 9.998319, 10.000565 
2.2497237e+2, 1.8496135e+2, -1322242.9, -1225154.9, -19356.771, 0.018785391, -0.41461432, -1221438.0, -94099.89, 0.0, 9.998677, 9.999962 
2.2498056e+2, 1.9496138e+2, -1171637.5, -1103290.1, -20050.318, 0.017005837, -0.40874782, -1097842.4, -68502.26, 0.0, 9.999045, 9.9999485 
2.2498873e+2, 2.0496143e+2, -1020350.8, -978088.56, -22374.572, 0.014270539, -0.39743575, -968443.94, -37103.188, 0.0, 9.999404, 9.999962 
2.2499685e+2, 2.1496154e+2, -871899.94, -856884.56, -22687.496, 0.010580219, -0.38192967, -840494.8, -7155.0503, 0.0, 9.999755, 9.999952 
2.2500491e+2, 2.2496139e+2, -767201.56, -822225.25, -31957.96, 0.010431102, -0.36363873, -752544.5, -17202.252, 0.0, 10.000088, 9.999357 
2.2501291e+2, 2.3496096e+2, -624303.8, -704002.1, -34614.836, 0.013897783, -0.34328157, -611369.06, 25979.068, 0.0, 10.000402, 9.999345 
2.2502075e+2, 2.4496007e+2, -536511.06, -700311.0, -41056.668, 0.008569367, -0.32433537, -526796.3, 12562.37, 0.0, 10.000717, 9.998546 
2.2502843e+2, 2.5495878e+2, -393638.53, -582203.4, -39568.984, -0.005839677, -0.30853263, -385671.84, 55702.055, 0.0, 10.001032, 9.998531 
2.2503614e+2, 2.6495725e+2, -273603.13, -508133.03, -40149.43, -0.013487069, -0.29920083, -266920.34, 76470.44, 0.0, 10.001332, 9.998223 
2.250439e+2, 2.749555e+2, -135096.39, -391946.56, -37617.777, -0.013624586, -0.2961495, -129700.32, 115708.62, 0.0, 10.001616, 9.998211 
2.2505179e+2, 2.849538e+2, -42124.516, -374455.66, -27580.133, -0.0140437875, -0.25152186, -39851.19, 107576.42, 0.0, 10.001918, 9.997513 
2.2505975e+2, 2.9495212e+2, 100141.64, -258545.89, -25775.31, -0.016418211, -0.17055324, 101984.39, 151431.44, 0.0, 10.002236, 9.997482 
2.2506736e+2, 3.0494863e+2, 193393.81, -205614.89, -14552.146, -0.06821433, -0.25578883, 193923.83, 193923.83, 0.00000008572978, 10.002616, 9.997329 
2.250754e+2, 3.1494692e+2, 321468.63, -41810.76, -17435.06, -0.09171931, -0.16183998, 322303.47, 322303.47, 0.000002540607, 10.003057, 9.998241 
2.3491903e+2, 1.2494805e+2, -2116492.3, -1745893.4, 9698.9375, 0.030811287, -0.33519527, -1745639.8, -30165.045, 0.0, 9.996545, 10.001453 
2.3492754e+2, 1.3494928e+2, -1968540.5, -1625802.5, 8687.911, 0.011544907, -0.35685244, -1625582.4, -8120.1255, 0.0, 9.996896, 10.001436 
2.3493616e+2, 1.4495036e+2, -1840816.0, -1548606.8, 9039.236, 0.0019058576, -0.3755482, -1548327.4, -28877.006, 0.0, 9.9972515, 10.001121 
2.349449e+2, 1.549513e+2, -1691247.5, -1427211.4, 6666.042, 0.0013021005, -0.39310458, -1427043.1, -5604.317, 0.0, 9.997611, 10.001108 
2.3495361e+2, 1.6495198e+2, -1582943.4, -1390451.8, 1062.2329, 0.0043470925, -0.40598494, -1390445.9, -67015.19, 0.0, 9.997967, 10.000516 
2.3496234e+2, 1.749524e+2, -1434620.3, -1269723.1, -1499.5702, 0.011434933, -0.41519988, -1269709.5, -44283.72, 0.0, 9.998319, 10.000502 
2.3497102e+2, 1.8495262e+2, -1323272.3, -1227371.4, -5536.9126, 0.0169238, -0.4147287, -1227052.8, -99628.49, 0.0, 9.998678, 9.999947 
2.3497964e+2, 1.9495265e+2, -1172641.9, -1105438.8, -6231.128, 0.020726167, -0.40569457, -1104865.9, -75439.97, 0.0, 9.999045, 9.999934 
2.3498817e+2, 2.0495273e+2, -1020905.4, -979292.06, -9141.638, 0.01869197, -0.39168584, -977372.4, -45945.992, 0.0, 9.999404, 9.999954 
2.3499662e+2, 2.1495287e+2, -872420.1, -858013.6, -9483.493, 0.010744467, -0.3739525, -853307.94, -19882.508, 0.0, 9.999755, 9.999945 
2.3500499e+2, 2.2495268e+2, -772233.5, -832735.44, -20110.363, 0.009001623, -0.35363248, -766158.9, -30730.533, 0.0, 10.000088, 9.999285 
2.350133e+2, 2.349522e+2, -629372.5, -714593.2, -22786.934, 0.01361292, -0.33144975, -623662.2, 13772.753, 0.0, 10.000402, 9.999271 
2.3502149e+2, 2.4495126e+2, -534105.5, -695361.0, -29225.58, 0.010130914, -0.31558442, -528972.1, 10473.789, 0.0, 10.000717, 9.998579 
2.3502949e+2, 2.5494993e+2, -391269.28, -577278.56, -27753.4, -0.0017492796, -0.30785185, -387216.66, 54244.62, 0.0, 10.001032, 9.998566 
2.350375e+2, 2.6494843e+2, -269495.28, -499557.72, -29503.63, -0.010212036, -0.29772812, -265771.94, 77705.555, 0.0, 10.001331, 9.998282 
2.3504551e+2, 2.7494684e+2, -130986.69, -383364.03, -26994.27, -0.014559464, -0.2848906, -128131.68, 117362.6, 0.0, 10.001616, 9.99827 
2.3505367e+2, 2.849452e+2, -39728.72, -369416.63, -15690.876, -0.015916243, -0.23953907, -38983.625, 108528.766, 0.0, 10.001917, 9.997548 
2.3506199e+2, 2.9494348e+2, 102640.27, -253277.56, -13873.309, -0.015864648, -0.16698195, 103180.23, 152712.33, 0.0, 10.002236, 9.9975195 
2.3506999e+2, 3.0494002e+2, 196541.5, -198888.45, 1911.0154, -0.0665752, -0.25889653, 196550.73, 196550.73, 0.000000016806371, 10.002615, 9.9973755 
2.3507844e+2, 3.149383e+2, 321439.22, -41447.773, -1504.283, -0.09128012, -0.1683568, 321445.44, 321445.44, 0.0000011714155, 10.003055, 9.998245 
2.4491563e+2, 1.2493937e+2, -2100902.3, -1741900.4, 4995.9243, 0.031661242, -0.33202213, -1741830.8, -26270.99, 0.0, 9.996667, 10.001422 
2.4492452e+2, 1.349405e+2, -1950354.9, -1620478.3, 2600.0254, 0.013087856, -0.3601202, -1620457.8, -2909.759, 0.0, 9.997036, 10.001405 
2.449335e+2, 1.4494152e+2, -1824157.6, -1550645.6, 1434.1022, 0.004031067, -0.3791384, -1550638.1, -31101.32, 0.0, 9.997409, 10.001031 
2.449426e+2, 1.5494244e+2, -1671580.0, -1427788.8, -3383.034, 0.0041580764, -0.39056367, -1427741.9, -6215.9414, 0.0, 9.997789, 10.001018 
2.449517e+2, 1.6494307e+2, -1561895.8, -1387297.6, -11467.112, 0.0058987467, -0.40007237, -1386547.8, -63029.324, 0.0, 9.998141, 10.000453 
2.4496073e+2, 1.7494343e+2, -1417640.5, -1268495.9, -14052.528, 0.0096266465, -0.40867093, -1267183.4, -41669.08, 0.0, 9.998466, 10.00044 
2.4496973e+2, 1.849436e+2, -1305590.1, -1220054.8, -17034.31, 0.01415596, -0.40949583, -1216787.1, -89274.016, 0.0, 9.998804, 9.999936 
2.4497873e+2, 1.949436e+2, -1156628.3, -1098857.6, -17453.43, 0.019425832, -0.40370396, -1093994.1, -64479.19, 0.0, 9.99916, 9.999924 
2.4498762e+2, 2.0494369e+2, -1008910.94, -977672.5, -22005.957, 0.018643815, -0.38737154, -966306.1, -34790.58, 0.0, 9.999505, 9.999917 
2.4499641e+2, 2.1494384e+2, -862862.06, -857494.9, -24603.373, 0.011726224, -0.3615755, -835429.2, -1914.579, 0.0, 9.999839, 9.9999075 
2.4500512e+2, 2.2494365e+2, -764496.0, -830886.2, -35811.863, 0.009941786, -0.33972874, -748860.75, -13342.972, 0.0, 10.00015, 9.999269 
2.4501373e+2, 2.3494309e+2, -625628.06, -714598.56, -34317.117, 0.013424998, -0.32274282, -613929.7, 23595.205, 0.0, 10.000436, 9.999255 
2.4502221e+2, 2.4494213e+2, -534599.94, -694704.2, -40083.215, 0.010020801, -0.3114124, -525125.5, 14410.725, 0.0, 10.0007105, 9.998588 
2.450305e+2, 2.5494075e+2, -399627.63, -580428.9, -40559.883, -0.0005668538, -0.30752015, -390945.56, 50606.047, 0.0, 10.000971, 9.998573 
2.450388e+2, 2.649393e+2, -280543.75, -503659.4, -44947.832, -0.009148839, -0.29490167, -271829.16, 71738.47, 0.0, 10.00125, 9.998293 
2.4504708e+2, 2.749378e+2, -139798.5, -386381.9, -46087.164, -0.015056269, -0.27310953, -131466.23, 114117.59, 0.0, 10.00155, 9.9982815 
2.4505554e+2, 2.8493622e+2, -43879.61, -363990.6, -34509.2, -0.017423851, -0.22530492, -40201.64, 107399.71, 0.0, 10.001857, 9.997614 
2.4506417e+2, 2.949345e+2, 98085.92, -247799.23, -30315.146, -0.01776981, -0.15681937, 100722.79, 150343.27, 0.0, 10.0021715, 9.997587 
2.4507256e+2, 3.0493104e+2, 183323.75, -199598.97, -10432.858, -0.06648447, -0.2539383, 183607.78, 183607.78, 0.0000000018495133, 10.0025, 9.997425 
2.4508142e+2, 3.149293e+2, 291011.34, -55387.348, -14174.251, -0.088141024, -0.1689422, 291590.38, 291590.38, 0.00000045275593, 10.002842, 9.998251 
2.549123e+2, 1.24930345e+2, -2104488.5, -1749265.5, 18800.717, 0.03120218, -0.34004116, -1748273.3, -32625.248, 0.0, 9.996667, 10.001372 
2.5492153e+2, 1.3493147e+2, -1953844.0, -1627721.8, 16397.793, 0.0130704865, -0.36459193, -1626899.3, -9263.047, 0.0, 9.997036, 10.001355 
2.549309e+2, 1.4493242e+2, -1832783.5, -1568599.3, 15722.131, 0.0050228704, -0.38180667, -1567666.9, -48041.12, 0.0, 9.997409, 10.000908 
2.5494042e+2, 1.5493321e+2, -1680183.0, -1445739.1, 10907.703, 0.006950802, -0.3928249, -1445232.8, -23616.252, 0.0, 9.997789, 10.000895 
2.5494984e+2, 1.6493379e+2, -1566273.6, -1396492.1, 692.9412, 0.008081019, -0.39777812, -1396489.3, -72879.4, 0.0, 9.998142, 10.00039 
2.5495917e+2, 1.749342e+2, -1421979.4, -1277586.3, -1905.0907, 0.008780301, -0.39758995, -1277561.1, -51955.38, 0.0, 9.998466, 10.000377 
2.549685e+2, 1.8493433e+2, -1306075.3, -1221132.8, -3675.6836, 0.010461049, -0.3988079, -1220974.0, -93369.03, 0.0, 9.998805, 9.999928 
2.5497782e+2, 1.949342e+2, -1157055.6, -1099815.3, -4090.7417, 0.013054695, -0.40273806, -1099524.4, -69917.02, 0.0, 9.99916, 9.999917 
2.5498706e+2, 2.0493427e+2, -1013599.3, -987453.9, -9416.819, 0.014077495, -0.3844958, -984415.3, -52807.117, 0.0, 9.999505, 9.999849 
2.5499627e+2, 2.1493451e+2, -867511.9, -867194.8, -12024.512, 0.013505905, -0.34480652, -855327.8, -21720.518, 0.0, 9.999839, 9.999842 
2.550053e+2, 2.2493431e+2, -761840.2, -825424.75, -25010.574, 0.013246129, -0.3219186, -753181.56, -17571.0, 0.0, 10.00015, 9.999306 
2.5501415e+2, 2.3493366e+2, -622892.25, -708975.06, -23539.07, 0.013328484, -0.3171301, -616876.06, 20741.932, 0.0, 10.000436, 9.999294 
2.5502288e+2, 2.4493265e+2, -535804.1, -697275.6, -30291.299, 0.008238689, -0.3117975, -530308.6, 9320.819, 0.0, 10.0007105, 9.9985695 
2.5503144e+2, 2.5493124e+2, -400806.25, -582970.56, -30767.979, -0.0022823652, -0.3075459, -395749.84, 45895.11, 0.0, 10.000971, 9.998556 
2.5504005e+2, 2.649298e+2, -283195.63, -509244.78, -33735.035, -0.010300202, -0.2907503, -278268.5, 65392.58, 0.0, 10.001251, 9.998255 
2.5504863e+2, 2.7492836e+2, -142413.72, -391846.47, -34867.26, -0.015152473, -0.26082757, -137631.45, 108046.03, 0.0, 10.00155, 9.998244 
2.550574e+2, 2.8492686e+2, -37141.395, -349960.16, -22717.34, -0.018589012, -0.20888774, -35500.24, 112194.18, 0.0, 10.001857, 9.997711 
2.5506628e+2, 2.9492527e+2, 104935.15, -233439.83, -18576.53, -0.022092257, -0.14025043, 105951.93, 155664.05, 0.0, 10.0021715, 9.997686 
2.5507504e+2, 3.049218e+2, 186887.88, -191980.14, 2349.5188, -0.067940444, -0.24116078, 186902.44, 186902.44, 0.000000000039700524, 10.002499, 9.9974785 
2.550843e+2, 3.1492007e+2, 291322.2, -54423.457, -1907.2982, -0.08258279, -0.16440171, 291332.7, 291332.7, 0.00000014491832, 10.002841, 9.998259 
2.6490906e+2, 1.2492095e+2, -2077208.5, -1741693.6, 286.35773, 0.031620204, -0.34224698, -1741693.4, -25953.219, 0.0, 9.996878, 10.001322 
2.6491868e+2, 1.3492207e+2, -1930594.8, -1622020.9, -2231.876, 0.01458076, -0.36236316, -1622004.6, -4276.3677, 0.0, 9.997219, 10.001307 
2.6492843e+2, 1.4492296e+2, -1816822.4, -1571346.9, -1333.8169, 0.008226367, -0.3787305, -1571339.6, -51621.1, 0.0, 9.997563, 10.000814 
2.6493832e+2, 1.5492363e+2, -1668444.3, -1450553.0, -3962.0635, 0.012579259, -0.39221248, -1450481.0, -28770.232, 0.0, 9.997915, 10.000801 
2.649481e+2, 1.6492416e+2, -1551805.3, -1395733.0, -13818.915, 0.013010355, -0.39513633, -1394518.9, -70813.97, 0.0, 9.998268, 10.000334 
2.6495773e+2, 1.7492457e+2, -1403054.9, -1274679.8, -15945.34, 0.009825708, -0.3882535, -1272728.8, -47027.938, 0.0, 9.998623, 10.000321 
2.6496735e+2, 1.8492468e+2, -1282621.9, -1207787.1, -16670.402, 0.00935287, -0.38886517, -1204241.5, -76541.414, 0.0, 9.998957, 9.999947 
2.64977e+2, 1.9492453e+2, -1139447.6, -1089228.3, -15199.803, 0.011571498, -0.39844832, -1084986.1, -55283.668, 0.0, 9.999272, 9.999936 
2.649866e+2, 2.0492454e+2, -1009373.75, -993300.9, -20872.379, 0.014513565, -0.38115185, -978971.25, -47267.566, 0.0, 9.999568, 9.999779 
2.6499614e+2, 2.1492477e+2, -871786.44, -877163.5, -23815.424, 0.018188883, -0.33746064, -850508.25, -16804.664, 0.0, 9.999844, 9.99977 
2.6500547e+2, 2.2492456e+2, -761451.6, -821258.56, -37333.55, 0.01698915, -0.3129073, -743521.94, -7814.8604, 0.0, 10.000135, 9.999341 
2.6501456e+2, 2.3492394e+2, -619343.94, -703167.3, -36045.207, 0.010806438, -0.30889484, -605975.94, 31738.055, 0.0, 10.0004425, 9.9993305 
2.6502356e+2, 2.4492292e+2, -531319.9, -695202.25, -43129.676, 0.002285716, -0.3046617, -520662.3, 19062.86, 0.0, 10.000742, 9.998569 
2.6503238e+2, 2.5492153e+2, -392253.34, -578897.0, -42368.67, -0.008747047, -0.30188495, -383085.8, 58654.82, 0.0, 10.00103, 9.998555 
2.6504126e+2, 2.6492006e+2, -278688.7, -512223.9, -44840.3, -0.015347741, -0.28557235, -270375.0, 73382.164, 0.0, 10.001304, 9.998208 
2.6505017e+2, 2.749186e+2, -143670.28, -397505.03, -46602.484, -0.016809562, -0.2550526, -135384.8, 110389.61, 0.0, 10.001563, 9.9981985 
2.6505923e+2, 2.849171e+2, -37843.664, -343361.72, -35763.047, -0.018482266, -0.20098127, -33713.188, 114078.016, 0.0, 10.001822, 9.997773 
2.650684e+2, 2.949156e+2, 96351.25, -230297.06, -34230.02, -0.021811526, -0.12847313, 99899.72, 149707.47, 0.0, 10.002081, 9.997751 
2.6507747e+2, 3.049122e+2, 173990.69, -187922.5, -11604.698, -0.06671719, -0.23008771, 174362.4, 174362.4, 0.0, 10.002366, 9.99757 
2.6508707e+2, 3.149105e+2, 271137.22, -58851.867, -13478.794, -0.08206396, -0.16040042, 271686.84, 271686.84, 0.000000037775372, 10.002679, 9.998305 
2.7490595e+2, 1.249112e+2, -2080693.8, -1749029.9, 12934.848, 0.032789208, -0.33843616, -1748526.1, -32689.85, 0.0, 9.996879, 10.001271 
2.7491593e+2, 1.3491231e+2, -1934047.6, -1629273.1, 10353.967, 0.017601574, -0.35313055, -1628921.9, -11097.472, 0.0, 9.997219, 10.001256 
2.7492607e+2, 1.4491314e+2, -1821275.0, -1580644.6, 11766.724, 0.013631016, -0.3696478, -1580070.6, -60255.44, 0.0, 9.997563, 10.000751 
2.7493635e+2, 1.549137e+2, -1672891.3, -1459810.9, 9164.268, 0.021048848, -0.38858247, -1459417.4, -37608.832, 0.0, 9.997915, 10.000737 
2.7494645e+2, 1.6491418e+2, -1555249.3, -1402917.8, -537.6844, 0.02070238, -0.39207444, -1402915.9, -79112.36, 0.0, 9.998268, 10.000285 
2.7495635e+2, 1.7491457e+2, -1406437.6, -1281776.5, -2661.5222, 0.012765726, -0.38062876, -1281719.6, -55919.938, 0.0, 9.998623, 10.000273 
2.749663e+2, 1.849147e+2, -1279591.9, -1201593.3, -4835.941, 0.010836795, -0.37964934, -1201294.5, -73495.82, 0.0, 9.998958, 9.9999895 
2.749763e+2, 1.9491456e+2, -1136355.0, -1082881.9, -3348.496, 0.015001974, -0.39079037, -1082673.0, -52872.695, 0.0, 9.999272, 9.999979 
2.7498624e+2, 2.0491454e+2, -1014621.2, -1004235.6, -10484.517, 0.019976398, -0.37728646, -997728.44, -65926.37, 0.0, 9.999568, 9.999704 
2.7499607e+2, 2.1491462e+2, -877061.6, -888166.25, -13427.801, 0.025775222, -0.339509, -868083.5, -34279.89, 0.0, 9.999844, 9.999695 
2.7500564e+2, 2.2491442e+2, -759179.25, -816589.44, -25759.377, 0.021166436, -0.31270373, -749315.9, -13508.632, 0.0, 10.000135, 9.999373 
2.7501497e+2, 2.3491395e+2, -616973.8, -698290.7, -24465.582, 0.0058708214, -0.29808426, -610180.44, 27632.377, 0.0, 10.0004425, 9.999364 
2.7502418e+2, 2.4491298e+2, -530266.0, -693036.44, -32303.326, -0.0078073037, -0.29007277, -524089.5, 15733.822, 0.0, 10.000741, 9.998584 
2.750333e+2, 2.5491157e+2, -391230.44, -576742.3, -31546.938, -0.019910526, -0.29060775, -386012.53, 55826.18, 0.0, 10.00103, 9.99857 
2.7504247e+2, 2.6491004e+2, -282518.38, -520119.06, -35113.125, -0.024251424, -0.2793686, -277437.9, 66417.984, 0.0, 10.001304, 9.998155 
2.7505168e+2, 2.7490842e+2, -147496.78, -405391.84, -36860.484, -0.020024812, -0.255654, -142331.81, 103542.74, 0.0, 10.001563, 9.998145 
2.7506107e+2, 2.8490692e+2, -35957.547, -339396.22, -26043.6, -0.017163396, -0.20141314, -33738.5, 114153.125, 0.0, 10.0018215, 9.9978 
2.7507052e+2, 2.949055e+2, 98434.28, -225923.3, -24561.248, -0.017079318, -0.1213631, 100283.586, 150190.88, 0.0, 10.002081, 9.997782 
2.7507988e+2, 3.0490226e+2, 182939.14, -169207.31, 154.65436, -0.06289731, -0.2206734, 182939.2, 182939.2, 0.0, 10.002365, 9.997699 
2.7508968e+2, 3.149006e+2, 276870.1, -46629.27, -2239.259, -0.086697154, -0.1568697, 276885.6, 276885.6, 0.00000000643165, 10.002678, 9.99839 
2.8490302e+2, 1.2490102e+2, -2051543.1, -1737368.3, -9656.779, 0.04212779, -0.32937366, -1737071.6, -21134.688, 0.0, 9.997088, 10.00125 
2.849133e+2, 1.3490212e+2, -1904347.8, -1617233.0, -10165.875, 0.022127334, -0.34333113, -1616873.5, 1051.4116, 0.0, 9.997433, 10.001236 
2.849237e+2, 1.4490291e+2, -1795297.4, -1573409.8, -7248.0596, 0.014267874, -0.36027402, -1573173.3, -53257.164, 0.0, 9.997765, 10.000703 
2.8493428e+2, 1.5490341e+2, -1651294.6, -1454625.4, -8684.13, 0.018935485, -0.38030392, -1454242.6, -32332.473, 0.0, 9.998087, 10.00069 
2.8494477e+2, 1.6490382e+2, -1533261.3, -1392546.3, -15475.749, 0.01886833, -0.38582712, -1390864.4, -66958.89, 0.0, 9.998421, 10.000283 
2.8495508e+2, 1.749042e+2, -1385294.4, -1271657.4, -14036.239, 0.014349681, -0.3773821, -1269949.4, -44047.39, 0.0, 9.998768, 10.000272 
2.8496537e+2, 1.8490434e+2, -1259774.9, -1189369.9, -17127.72, 0.014788881, -0.37508085, -1185424.3, -57523.617, 0.0, 9.999082, 10.000013 
2.8497568e+2, 1.9490431e+2, -1121734.8, -1073037.8, -17130.78, 0.020238806, -0.38039446, -1067615.3, -37713.71, 0.0, 9.999361, 10.000004 
2.8498587e+2, 2.0490427e+2, -1005221.75, -1001746.56, -23591.986, 0.024812015, -0.36893666, -979828.3, -47925.06, 0.0, 9.999641, 9.999685 
2.8499597e+2, 2.1490422e+2, -866688.6, -885188.1, -22195.309, 0.028451202, -0.3412869, -851892.8, -17987.012, 0.0, 9.999924, 9.999677 
2.850058e+2, 2.2490399e+2, -752296.1, -817236.44, -34561.285, 0.021158606, -0.31463525, -737344.8, -1434.9843, 0.0, 10.000199, 9.999338 
2.8501537e+2, 2.3490356e+2, -615757.6, -701696.44, -38462.254, 0.0026263276, -0.28983414, -601058.0, 36857.203, 0.0, 10.000468, 9.999329 
2.8502488e+2, 2.4490267e+2, -529059.1, -686036.75, -48361.332, -0.0111768115, -0.27782843, -515356.22, 24569.045, 0.0, 10.000722, 9.998641 
2.850343e+2, 2.549013e+2, -397359.88, -573151.94, -44414.113, -0.02016449, -0.2808269, -386775.84, 55164.14, 0.0, 10.000959, 9.998629 
2.8504375e+2, 2.6489973e+2, -295777.03, -527767.0, -44535.836, -0.024095245, -0.27366197, -287521.16, 56436.016, 0.0, 10.001218, 9.998143 
2.850532e+2, 2.7489805e+2, -157617.94, -411513.53, -43155.926, -0.022294046, -0.2556086, -150483.02, 95493.55, 0.0, 10.001498, 9.998134 
2.8506282e+2, 2.8489655e+2, -42300.797, -340432.25, -31486.145, -0.02018568, -0.20157816, -39011.78, 108981.96, 0.0, 10.00177, 9.997818 
2.8507257e+2, 2.9489523e+2, 92483.4, -226628.94, -30820.203, -0.019028982, -0.115873925, 95432.79, 145441.67, 0.0, 10.00203, 9.997801 
2.8508222e+2, 3.0489206e+2, 177734.92, -160854.97, -6990.969, -0.06090165, -0.21283227, 177879.2, 177879.2, 0.0, 10.002283, 9.997796 
2.8509235e+2, 3.1489044e+2, 258492.95, -49619.703, -12323.344, -0.08108056, -0.15367968, 258985.05, 258985.05, 0.00000000043435586, 10.002526, 9.998443 
2.9490027e+2, 1.2489041e+2, -2050926.4, -1736267.4, 3075.516, 0.05981855, -0.31478587, -1736237.3, -20195.115, 0.0, 9.997089, 10.001258 
2.9491076e+2, 1.3489148e+2, -1903618.5, -1615901.6, 2543.3594, 0.028134326, -0.33283892, -1615879.1, 2151.094, 0.0, 9.997434, 10.001245 
2.9492143e+2, 1.4489226e+2, -1797400.1, -1577919.0, 4659.1113, 0.009939052, -0.35053328, -1577820.1, -57798.656, 0.0, 9.997766, 10.000671 
2.9493225e+2, 1.5489276e+2, -1653425.4, -1459138.9, 3261.0977, 0.005910954, -0.36718592, -1459084.1, -37068.684, 0.0, 9.998087, 10.00066 
2.9494306e+2, 1.6489314e+2, -1529997.3, -1385841.6, -2498.1897, 0.007213741, -0.37623554, -1385798.3, -61787.395, 0.0, 9.998421, 10.000329 
2.9495382e+2, 1.7489345e+2, -1381923.3, -1264731.3, -996.4225, 0.01448376, -0.37852246, -1264722.8, -38715.152, 0.0, 9.998768, 10.0003195 
2.9496452e+2, 1.8489365e+2, -1259433.8, -1188751.8, -6646.647, 0.021214074, -0.37521058, -1188132.1, -60126.09, 0.0, 9.999082, 10.000017 
2.949751e+2, 1.9489373e+2, -1121371.8, -1072355.8, -6664.4287, 0.027280837, -0.36723465, -1071465.9, -41460.027, 0.0, 9.999361, 10.000009 
2.9498556e+2, 2.0489371e+2, -1002522.7, -996193.25, -12969.194, 0.029014744, -0.3560513, -986008.25, -54000.98, 0.0, 9.999641, 9.999724 
2.9499584e+2, 2.1489356e+2, -863910.1, -879481.94, -11556.665, 0.026211055, -0.34276623, -857761.25, -23751.111, 0.0, 9.999924, 9.999716 
2.9500595e+2, 2.2489329e+2, -759606.25, -832456.9, -24444.482, 0.016948389, -0.31868464, -752164.3, -16149.462, 0.0, 10.000199, 9.999233 
2.950158e+2, 2.3489286e+2, -623100.6, -716977.5, -28335.764, 0.0010346924, -0.2841264, -615210.8, 22810.229, 0.0, 10.000468, 9.999224 
2.9502565e+2, 2.4489199e+2, -522249.56, -671927.0, -39448.887, -0.007919855, -0.2679087, -512488.94, 27541.984, 0.0, 10.000722, 9.998738 
2.9503533e+2, 2.5489068e+2, -390354.13, -558631.2, -35513.55, -0.009690293, -0.27253267, -383166.28, 58878.105, 0.0, 10.000959, 9.998729 
2.9504505e+2, 2.6488915e+2, -293680.78, -523413.53, -34051.277, -0.015025952, -0.26845187, -288739.9, 55321.035, 0.0, 10.001218, 9.998174 
2.9505464e+2, 2.7488747e+2, -155575.88, -407219.6, -32645.436, -0.023636533, -0.2549339, -151409.8, 94670.6, 0.0, 10.001498, 9.998163 
2.950645e+2, 2.8488597e+2, -41787.938, -339314.94, -21702.33, -0.027471602, -0.20148091, -40213.254, 107884.29, 0.0, 10.001769, 9.997827 
2.9507452e+2, 2.948847e+2, 93119.65, -225318.11, -21073.322, -0.027500913, -0.11195677, 94508.17, 144620.67, 0.0, 10.00203, 9.99781 
2.9508448e+2, 3.048816e+2, 182196.3, -151635.98, 2104.9785, -0.06073915, -0.2065319, 182209.56, 182209.56, 0.0, 10.002283, 9.997859 
2.9509503e+2, 3.1488e+2, 259877.2, -46756.844, -3637.4075, -0.06591624, -0.15126951, 259920.34, 259920.34, 0.0, 10.002526, 9.998463 
3.0489752e+2, 1.2487951e+2, -2026792.4, -1731817.9, 1027.581, 0.06633305, -0.3099609, -1731814.4, -15664.787, 0.0, 9.997286, 10.001193 
3.0490834e+2, 1.3488056e+2, -1880515.6, -1611854.8, -5134.938, 0.03043645, -0.3245803, -1611756.6, 6381.552, 0.0, 9.9976225, 10.001182 
3.0491924e+2, 1.448813e+2, -1773403.5, -1568411.0, -6623.2583, 0.00958947, -0.34132618, -1568197.3, -48067.53, 0.0, 9.997939, 10.000653 
3.049304e+2, 1.5488176e+2, -1633165.8, -1451291.5, -7020.321, 0.004808291, -0.35907623, -1451021.0, -28897.02, 0.0, 9.998234, 10.000642 
3.0494153e+2, 1.6488212e+2, -1513591.9, -1376195.8, -13080.482, 0.0073737497, -0.37037295, -1374961.5, -50842.035, 0.0, 9.998526, 10.000344 
3.0495268e+2, 1.7488241e+2, -1374099.1, -1259085.8, -13968.77, 0.017941784, -0.37605393, -1257413.5, -31297.15, 0.0, 9.998814, 10.000337 
3.0496365e+2, 1.8488264e+2, -1255271.0, -1185321.1, -21721.234, 0.024906317, -0.3711722, -1179125.0, -51010.58, 0.0, 9.9991045, 10.00003 
3.049745e+2, 1.9488281e+2, -1114980.5, -1067708.1, -21158.94, 0.028018968, -0.35641292, -1059621.0, -29507.295, 0.0, 9.999398, 10.000023 
3.049852e+2, 2.0488282e+2, -995491.2, -988977.8, -27928.574, 0.029011572, -0.3444508, -964116.7, -32001.941, 0.0, 9.999673, 9.999758 
3.0499578e+2, 2.1488266e+2, -860602.06, -873899.3, -26831.654, 0.02779851, -0.33660498, -839607.6, -5490.1987, 0.0, 9.999929, 9.999752 
3.0500618e+2, 2.2488232e+2, -764435.75, -838790.44, -37636.54, 0.019062785, -0.31673336, -748710.7, -12588.335, 0.0, 10.000184, 9.999197 
3.050163e+2, 2.3488183e+2, -630399.06, -724547.94, -36404.707, 0.0025034365, -0.2851095, -617964.6, 20164.918, 0.0, 10.000436, 9.999187 
3.0502632e+2, 2.4488097e+2, -523330.0, -666262.94, -47055.57, -0.0071863863, -0.2676153, -509229.66, 30909.652, 0.0, 10.000689, 9.998794 
3.0503628e+2, 2.548798e+2, -389221.47, -551789.9, -46423.035, -0.009742697, -0.2665287, -376898.97, 65252.68, 0.0, 10.00094, 9.998785 
3.0504623e+2, 2.6487833e+2, -294211.63, -518635.75, -45249.883, -0.015022261, -0.26101142, -285431.56, 58735.906, 0.0, 10.001193, 9.998219 
3.0505615e+2, 2.7487665e+2, -160062.72, -404368.53, -42762.375, -0.022701481, -0.25051716, -152794.02, 93392.586, 0.0, 10.001446, 9.998208 
3.0506626e+2, 2.8487518e+2, -49434.086, -343780.13, -31442.957, -0.027322793, -0.1983818, -46112.73, 102091.01, 0.0, 10.00172, 9.997819 
3.050765e+2, 2.948739e+2, 90569.805, -227264.86, -31980.344, -0.029876439, -0.10812121, 93755.72, 143974.72, 0.0, 10.002016, 9.997804 
3.0508676e+2, 3.0487084e+2, 187302.42, -140500.05, -10491.621, -0.061569013, -0.2001219, 187637.88, 187637.88, 0.0, 10.00228, 9.997937 
3.0509755e+2, 3.148693e+2, 259937.0, -42907.96, -15588.136, -0.064986624, -0.14611356, 260737.25, 260737.25, 0.0, 10.00251, 9.998496 
3.1489474e+2, 1.2486831e+2, -2036594.4, -1752328.5, 13666.95, 0.060881898, -0.3153967, -1751673.0, -35413.883, 0.0, 9.997287, 10.001052 
3.149059e+2, 1.3486932e+2, -1890278.3, -1632245.3, 7452.4023, 0.028738054, -0.31861034, -1632030.3, -13781.542, 0.0, 9.997623, 10.001041 
3.1491724e+2, 1.4487001e+2, -1773794.3, -1569328.3, 4356.0444, 0.0132410675, -0.3326014, -1569235.5, -48994.53, 0.0, 9.997939, 10.000647 
3.1492874e+2, 1.5487042e+2, -1633399.8, -1451834.4, 3981.2014, 0.015849259, -0.3560677, -1451747.1, -29511.588, 0.0, 9.998234, 10.000639 
3.1494015e+2, 1.6487077e+2, -1514767.4, -1378645.3, -2307.004, 0.019586816, -0.3683318, -1378606.1, -54374.85, 0.0, 9.998526, 10.000328 
3.1495154e+2, 1.7487109e+2, -1375221.5, -1261391.9, -3190.089, 0.024777174, -0.36991912, -1261302.5, -35074.582, 0.0, 9.998814, 10.00032 
3.1496274e+2, 1.8487133e+2, -1253853.6, -1182388.4, -10712.948, 0.025812645, -0.36287564, -1180817.0, -52591.063, 0.0, 9.9991045, 10.000051 
3.149738e+2, 1.9487153e+2, -1113492.1, -1064663.6, -10151.594, 0.022382215, -0.3479266, -1062637.1, -32411.979, 0.0, 9.999398, 10.000044 
3.1498483e+2, 2.0487158e+2, -993317.2, -984524.56, -18274.426, 0.024735833, -0.33416778, -970125.06, -37899.344, 0.0, 9.999673, 9.999788 
3.149958e+2, 2.1487148e+2, -858388.4, -869381.75, -17213.492, 0.033178374, -0.32282215, -845815.25, -11587.787, 0.0, 9.999929, 9.999783 
3.1500643e+2, 2.2487113e+2, -762232.25, -834261.75, -28133.574, 0.027482267, -0.30875552, -752546.25, -16313.808, 0.0, 10.000184, 9.9992285 
3.1501675e+2, 2.348705e+2, -628201.2, -719989.6, -26956.4, 0.0070096254, -0.29269132, -620870.1, 17370.447, 0.0, 10.000436, 9.999219 
3.15027e+2, 2.4486966e+2, -522477.8, -664472.06, -37582.195, -0.008937774, -0.27686042, -513144.28, 27106.088, 0.0, 10.000688, 9.998806 
3.150371e+2, 2.548686e+2, -388313.34, -549912.6, -37000.48, -0.020162428, -0.26279616, -380244.44, 62017.26, 0.0, 10.00094, 9.998798 
3.1504732e+2, 2.6486725e+2, -290177.13, -510285.1, -35755.305, -0.023977071, -0.25137776, -284514.56, 59762.105, 0.0, 10.001193, 9.998276 
3.150576e+2, 2.748656e+2, -155957.56, -395842.75, -33298.688, -0.019590724, -0.2424447, -151421.14, 94874.0, 0.0, 10.001446, 9.998266 
3.1506804e+2, 2.8486413e+2, -51101.99, -347185.94, -20389.664, -0.019942867, -0.1923492, -49704.46, 98607.84, 0.0, 10.001719, 9.997796 
3.1507856e+2, 2.9486284e+2, 88886.8, -230627.64, -20883.258, -0.026362652, -0.10434976, 90245.93, 140574.27, 0.0, 10.002015, 9.997781 
3.1508902e+2, 3.0485982e+2, 193502.11, -127538.7, -1859.1425, -0.06335292, -0.19362222, 193512.88, 193512.88, 0.0, 10.00228, 9.998026 
3.1509992e+2, 3.148584e+2, 263279.47, -36094.09, -7315.2485, -0.07813928, -0.13907714, 263458.13, 263458.13, 0.0, 10.002511, 9.998543 
3.2489222e+2, 1.24856815e+2, -1999251.3, -1746847.8, -622.5084, 0.06370903, -0.3167381, -1746846.3, -30474.602, 0.0, 9.997597, 10.00094 
3.2490367e+2, 1.3485774e+2, -1865690.8, -1632907.5, -4775.595, 0.029795615, -0.3163153, -1632809.5, -14446.995, 0.0, 9.997846, 10.000929 
3.2491526e+2, 1.448584e+2, -1752757.4, -1561925.4, -8376.357, 0.013343551, -0.32705173, -1561558.5, -41203.0, 0.0, 9.9980955, 10.000623 
3.2492703e+2, 1.5485883e+2, -1618840.4, -1447390.0, -10223.4375, 0.016264366, -0.34691888, -1446782.5, -24432.549, 0.0, 9.998345, 10.000615 
3.249387e+2, 1.6485916e+2, -1503336.4, -1374611.6, -16730.934, 0.020759005, -0.35862768, -1372472.5, -48126.703, 0.0, 9.9986105, 10.000315 
3.249504e+2, 1.7485943e+2, -1364628.9, -1257675.9, -17432.682, 0.027180742, -0.36282757, -1254906.3, -28563.287, 0.0, 9.998893, 10.000308 
3.2496187e+2, 1.8485968e+2, -1242282.6, -1172308.1, -24413.07, 0.027725363, -0.35655147, -1164632.8, -36291.832, 0.0, 9.999165, 10.000091 
3.2497323e+2, 1.9485994e+2, -1106473.1, -1056609.6, -22379.717, 0.021963056, -0.3403448, -1048038.44, -17698.893, 0.0, 9.999426, 10.000086 
3.249845e+2, 2.0486002e+2, -993853.5, -981937.2, -31776.05, 0.024172647, -0.32591844, -955565.56, -23225.906, 0.0, 9.999658, 9.999814 
3.2499567e+2, 2.1485995e+2, -867277.75, -870803.56, -31222.531, 0.034775414, -0.31452063, -837768.4, -3427.358, 0.0, 9.999856, 9.999808 
3.2500657e+2, 2.248596e+2, -775368.3, -834942.94, -41173.246, 0.030176543, -0.30451912, -754337.1, -17991.283, 0.0, 10.00007, 9.999279 
3.2501715e+2, 2.3485893e+2, -644777.44, -722243.7, -38589.42, 0.009671378, -0.29681855, -628835.2, 9518.792, 0.0, 10.000298, 9.99927 
3.250276e+2, 2.4485815e+2, -537090.75, -668544.8, -46048.113, -0.008635767, -0.28120875, -522565.25, 17798.162, 0.0, 10.000575, 9.998832 
3.25038e+2, 2.5485718e+2, -391577.9, -548453.56, -44465.09, -0.024658611, -0.25876722, -379851.22, 62522.81, 0.0, 10.000905, 9.998825 
3.2504848e+2, 2.648559e+2, -289342.88, -507679.53, -45827.656, -0.029230721, -0.24232903, -280114.0, 64274.457, 0.0, 10.001189, 9.998295 
3.2505903e+2, 2.748543e+2, -157495.86, -394305.97, -46334.832, -0.021360211, -0.23193982, -148752.67, 97653.87, 0.0, 10.001426, 9.998287 
3.2506973e+2, 2.8485277e+2, -58069.266, -349872.78, -32804.023, -0.019592842, -0.18695164, -54426.96, 93997.03, 0.0, 10.001669, 9.997802 
3.2508054e+2, 2.9485136e+2, 75479.305, -236264.47, -31115.557, -0.025268653, -0.11073654, 78554.66, 128995.64, 0.0, 10.00192, 9.997788 
3.2509124e+2, 3.0484843e+2, 188238.42, -121977.29, -11404.658, -0.062010143, -0.19540295, 188657.14, 188657.14, 0.0, 10.00221, 9.998098 
3.2510242e+2, 3.148472e+2, 269052.0, -30023.871, -18482.744, -0.08163597, -0.12723762, 270189.9, 270189.9, 0.0, 10.002537, 9.998572 
3.3488992e+2, 1.24845006e+2, -2004818.3, -1758895.9, 8668.596, 0.0750018, -0.3137571, -1758590.6, -42103.457, 0.0, 9.997599, 10.000856 
3.349015e+2, 1.3484582e+2, -1871419.9, -1645038.3, 4458.9487, 0.033616222, -0.31783864, -1644950.5, -26470.83, 0.0, 9.997847, 10.000846 
3.349133e+2, 1.4484645e+2, -1755854.3, -1568443.1, 873.917, 0.009720152, -0.324855, -1568439.0, -47965.9, 0.0, 9.9980955, 10.000578 
3.3492526e+2, 1.5484695e+2, -1621917.6, -1453795.1, -939.66223, 0.0056932634, -0.33150852, -1453789.9, -31322.768, 0.0, 9.998345, 10.000571 
3.349372e+2, 1.6484728e+2, -1504148.3, -1376292.9, -6229.8076, 0.010539176, -0.34107053, -1375990.0, -51526.82, 0.0, 9.9986105, 10.000303 
3.3494928e+2, 1.7484745e+2, -1365391.5, -1259291.3, -6869.189, 0.025001885, -0.35475302, -1258848.4, -32387.225, 0.0, 9.998893, 10.000298 
3.349611e+2, 1.8484768e+2, -1238042.8, -1163583.0, -14607.624, 0.030618703, -0.3522442, -1160819.8, -32360.621, 0.0, 9.999165, 10.000151 
3.3497268e+2, 1.9484802e+2, -1102147.4, -1047695.4, -12567.746, 0.026780216, -0.33369416, -1044934.6, -14477.818, 0.0, 9.999426, 10.000147 
3.3498415e+2, 2.0484814e+2, -992448.5, -979099.0, -24273.895, 0.027350813, -0.3197114, -960598.9, -28142.371, 0.0, 9.999658, 9.999834 
3.349955e+2, 2.1484807e+2, -865870.44, -867981.2, -23750.45, 0.03258638, -0.31169873, -843151.94, -8693.815, 0.0, 9.999857, 9.999827 
3.350066e+2, 2.2484772e+2, -770543.0, -825011.0, -32625.133, 0.027125213, -0.3040347, -755278.9, -18816.385, 0.0, 10.00007, 9.999348 
3.3501744e+2, 2.3484713e+2, -639846.6, -712090.5, -30048.395, 0.010471484, -0.29753974, -628982.4, 9487.273, 0.0, 10.000298, 9.99934 
3.3502823e+2, 2.4484639e+2, -534349.6, -662861.25, -33728.73, -0.0063320994, -0.28070384, -526035.25, 14443.16, 0.0, 10.000575, 9.998872 
3.350389e+2, 2.5484553e+2, -388869.3, -542711.0, -32112.791, -0.02335188, -0.25443554, -382435.2, 60053.438, 0.0, 10.000904, 9.998865 
3.3504963e+2, 2.648443e+2, -290769.22, -510472.28, -36945.07, -0.030847613, -0.23386423, -284722.97, 59779.82, 0.0, 10.001188, 9.998277 
3.350604e+2, 2.748427e+2, -158883.8, -397058.63, -37502.38, -0.027900994, -0.21907514, -153118.33, 93402.445, 0.0, 10.001425, 9.998268 
3.3507133e+2, 2.8484112e+2, -55860.86, -345202.56, -23424.64, -0.026138078, -0.18215075, -53976.707, 94562.03, 0.0, 10.001669, 9.997834 
3.3508244e+2, 2.948395e+2, 77901.16, -231193.02, -21676.445, -0.02656825, -0.12695912, 79413.9, 129970.79, 0.0, 10.00192, 9.997824 
3.350935e+2, 3.048367e+2, 191955.08, -114130.08, 843.47345, -0.057711117, -0.20525615, 191957.4, 191957.4, 0.0, 10.002209, 9.998153 
3.3510497e+2, 3.148358e+2, 269651.5, -28400.555, -6469.7783, -0.07626193, -0.11163883, 269791.88, 269791.88, 0.0, 10.002535, 9.998585 
3.448876e+2, 1.2483285e+2, -1977936.1, -1750173.0, -8262.713, 0.07315697, -0.31230426, -1749873.6, -33266.867, 0.0, 9.997802, 10.000818 
3.4489948e+2, 1.3483365e+2, -1847992.8, -1637909.6, -9180.688, 0.0335451, -0.31460446, -1637509.3, -18909.857, 0.0, 9.998026, 10.000808 
3.4491143e+2, 1.4483425e+2, -1737591.4, -1567793.1, -11812.235, 0.00828409, -0.31873608, -1566975.4, -46382.055, 0.0, 9.998257, 10.0005045 
3.4492362e+2, 1.5483473e+2, -1605384.5, -1453972.6, -15939.379, 0.0000097433685, -0.3204219, -1452312.9, -29724.982, 0.0, 9.998494, 10.000499 
3.4493583e+2, 1.6483505e+2, -1485354.6, -1362289.0, -20214.965, 0.0039913636, -0.3298603, -1359053.5, -34469.305, 0.0, 9.998718, 10.000347 
3.449481e+2, 1.748352e+2, -1356894.1, -1249929.4, -16541.396, 0.021199599, -0.34858882, -1247429.8, -20847.867, 0.0, 9.998928, 10.000344 
3.4496024e+2, 1.8483548e+2, -1236711.1, -1157931.4, -22543.951, 0.029447591, -0.34765172, -1151936.3, -23356.85, 0.0, 9.999152, 10.000195 
3.449721e+2, 1.9483587e+2, -1104073.8, -1043543.75, -21717.682, 0.028098455, -0.32686597, -1036557.9, -5981.361, 0.0, 9.999392, 10.000192 
3.4498382e+2, 2.0483603e+2, -995612.5, -980044.06, -35709.758, 0.028161157, -0.31209585, -951279.94, -18704.053, 0.0, 9.999634, 9.999839 
3.4499532e+2, 2.1483594e+2, -862328.8, -865742.25, -36307.918, 0.029737884, -0.3048644, -827687.5, 6890.1553, 0.0, 9.999879, 9.999832 
3.4500664e+2, 2.2483559e+2, -761679.4, -814688.8, -46521.68, 0.023353415, -0.30006763, -734641.9, 1940.0149, 0.0, 10.000105, 9.999401 
3.4501773e+2, 2.3483501e+2, -634224.8, -703251.06, -45053.695, 0.008610237, -0.2986831, -611984.2, 26604.404, 0.0, 10.00031, 9.999394 
3.450288e+2, 2.4483432e+2, -539156.6, -660654.8, -47170.926, -0.0047690473, -0.28096777, -522993.13, 17603.586, 0.0, 10.000523, 9.998912 
3.4503978e+2, 2.5483358e+2, -409544.8, -548153.56, -45488.19, -0.016732294, -0.24736139, -395950.0, 46656.207, 0.0, 10.000743, 9.998905 
3.4505078e+2, 2.648324e+2, -316929.97, -522358.3, -49483.414, -0.024250831, -0.2237598, -305631.8, 38988.23, 0.0, 10.001006, 9.998282 
3.4506178e+2, 2.7483082e+2, -174576.63, -403922.13, -48268.945, -0.026732247, -0.21063939, -164831.81, 81806.36, 0.0, 10.001314, 9.998275 
3.4507293e+2, 2.8482917e+2, -60988.77, -340926.63, -32753.814, -0.028523447, -0.18065593, -57207.523, 91448.68, 0.0, 10.001605, 9.997894 
3.4508428e+2, 2.948275e+2, 75705.016, -225307.42, -28996.367, -0.030455729, -0.13773201, 78472.77, 129147.14, 0.0, 10.001875, 9.997885 
3.4509566e+2, 3.048248e+2, 180570.2, -118303.71, -6542.856, -0.05784209, -0.20992969, 180713.36, 180713.36, 0.0, 10.002125, 9.998164 
3.451075e+2, 3.1482404e+2, 240468.48, -46034.574, -17345.518, -0.07175773, -0.10110044, 241514.8, 241514.8, 0.0, 10.00235, 9.998552 
3.5488522e+2, 1.2482033e+2, -1977247.5, -1748907.6, 109.753845, 0.057310957, -0.3127339, -1748907.6, -32177.408, 0.0, 9.997802, 10.000827 
3.5489744e+2, 1.348212e+2, -1847224.0, -1636448.8, -877.36646, 0.029291749, -0.30651388, -1636445.0, -17723.49, 0.0, 9.998026, 10.000818 
3.549097e+2, 1.448218e+2, -1744816.9, -1582889.0, -2997.005, 0.009033641, -0.30859488, -1582833.5, -62117.652, 0.0, 9.998257, 10.000401 
3.549221e+2, 1.5482213e+2, -1612689.5, -1469227.3, -7097.989, -0.0007082301, -0.31382486, -1468876.9, -46164.535, 0.0, 9.998494, 10.000394 
3.549345e+2, 1.6482241e+2, -1478324.1, -1347776.3, -12407.338, 0.0011793417, -0.32522956, -1346607.5, -21898.662, 0.0, 9.998718, 10.000446 
3.54947e+2, 1.7482267e+2, -1349553.0, -1234722.0, -8690.073, 0.01571884, -0.34442976, -1234068.1, -7362.986, 0.0, 9.998928, 10.000448 
3.549593e+2, 1.8482302e+2, -1234700.4, -1153788.0, -13594.913, 0.024108872, -0.34279963, -1151564.9, -22863.156, 0.0, 9.999152, 10.000223 
3.5497147e+2, 1.9482347e+2, -1102082.0, -1039453.56, -12733.804, 0.025845518, -0.3198841, -1036963.5, -6264.9277, 0.0, 9.999392, 10.00022 
3.5498342e+2, 2.0482366e+2, -996319.0, -981584.8, -26499.102, 0.026561001, -0.3030917, -961447.8, -28749.955, 0.0, 9.999634, 9.999828 
3.549952e+2, 2.1482357e+2, -863002.94, -867245.06, -27085.316, 0.026204625, -0.29403538, -837955.75, -3256.0903, 0.0, 9.999879, 9.999822 
3.5500672e+2, 2.248232e+2, -758957.44, -809135.7, -38787.367, 0.018847242, -0.29262507, -737852.2, -1148.211, 0.0, 10.000105, 9.999439 
3.5501796e+2, 2.3482257e+2, -631406.6, -697491.06, -37355.51, 0.0040887077, -0.30023247, -614576.75, 24133.885, 0.0, 10.00031, 9.999434 
3.5502928e+2, 2.4482195e+2, -536345.7, -654896.5, -38922.004, -0.0039856625, -0.28200313, -524709.2, 16009.089, 0.0, 10.000523, 9.998951 
3.5504064e+2, 2.5482133e+2, -406720.88, -542346.2, -37282.19, -0.004932717, -0.2376031, -397148.03, 45578.72, 0.0, 10.000743, 9.998945 
3.5505193e+2, 2.6482022e+2, -314916.3, -518163.56, -37974.965, -0.009626147, -0.21204239, -308052.8, 36687.38, 0.0, 10.001005, 9.998312 
3.5506314e+2, 2.7481857e+2, -172634.63, -399781.78, -36731.563, -0.018063769, -0.2065361, -166842.53, 79916.12, 0.0, 10.001314, 9.998303 
3.5507455e+2, 2.8481692e+2, -55092.195, -328512.4, -22632.285, -0.026879586, -0.18244183, -53231.477, 95544.86, 0.0, 10.001604, 9.99798 
3.550861e+2, 2.948153e+2, 81742.11, -212592.38, -18884.594, -0.03687106, -0.14330043, 82948.805, 133742.2, 0.0, 10.001874, 9.997973 
3.5509774e+2, 3.0481267e+2, 178240.47, -123070.31, 1833.6296, -0.0623061, -0.20963435, 178251.63, 178251.63, 0.0, 10.002125, 9.998132 
3.5510984e+2, 3.1481194e+2, 235238.69, -57023.15, -8999.1875, -0.06869669, -0.096997276, 235515.53, 235515.53, 0.0, 10.00235, 9.998477 
3.6488304e+2, 1.2480773e+2, -1945977.1, -1740074.5, -886.7466, 0.045828663, -0.30902886, -1740070.8, -23216.656, 0.0, 9.998044, 10.000771 
3.6489552e+2, 1.3480863e+2, -1828548.6, -1633618.8, -7049.568, 0.027007308, -0.29678473, -1633364.1, -14518.745, 0.0, 9.99818, 10.000763 
3.64908e+2, 1.4480913e+2, -1737606.1, -1585311.9, -9163.28, 0.011972329, -0.30062568, -1584762.5, -63922.03, 0.0, 9.998332, 10.000348 
3.6492062e+2, 1.5480933e+2, -1615716.5, -1476396.1, -9241.675, 0.0037762444, -0.31474727, -1475785.9, -52947.492, 0.0, 9.998498, 10.000342 
3.6493322e+2, 1.6480958e+2, -1477719.0, -1343144.3, -13798.858, 0.0040584574, -0.3281253, -1341744.0, -16908.89, 0.0, 9.998704, 10.000485 
3.649459e+2, 1.7480995e+2, -1343072.3, -1226862.1, -14825.84, 0.013621801, -0.3418567, -1225000.5, 1829.8594, 0.0, 9.998953, 10.000491 
3.6495844e+2, 1.8481037e+2, -1231345.0, -1152786.6, -23819.563, 0.020592747, -0.33469158, -1146128.6, -17302.209, 0.0, 9.999178, 10.000217 
3.6497083e+2, 1.9481087e+2, -1104261.8, -1041119.75, -25594.367, 0.024716314, -0.30607542, -1032048.44, -1225.3672, 0.0, 9.999379, 10.000215 
3.6498302e+2, 2.0481104e+2, -1002775.56, -985355.1, -39939.793, 0.026492039, -0.28924, -953186.8, -20364.256, 0.0, 9.999592, 9.999822 
3.6499503e+2, 2.1481088e+2, -872277.3, -872330.44, -40244.76, 0.025760548, -0.28630376, -832059.06, 2765.786, 0.0, 9.999818, 9.999816 
3.6500677e+2, 2.248105e+2, -761928.8, -803188.6, -51123.293, 0.0181842, -0.28959307, -727429.94, 9399.128, 0.0, 10.000052, 9.999505 
3.6501828e+2, 2.348099e+2, -628597.3, -688572.94, -47700.895, 0.0033299592, -0.30039933, -602241.1, 36593.87, 0.0, 10.000298, 9.999501 
3.650298e+2, 2.4480933e+2, -536972.06, -656702.5, -50483.29, -0.003437713, -0.27975708, -518527.63, 22314.604, 0.0, 10.000525, 9.998938 
3.650414e+2, 2.5480878e+2, -408814.1, -545007.9, -53043.637, -0.0015591612, -0.22678374, -390592.88, 52257.7, 0.0, 10.000736, 9.99893 
3.6505297e+2, 2.6480767e+2, -316280.78, -512736.3, -52343.164, -0.0047650635, -0.20049717, -303204.9, 41658.95, 0.0, 10.00097, 9.998366 
3.6506447e+2, 2.7480602e+2, -180834.72, -397448.34, -49127.316, -0.013162295, -0.20288028, -170213.58, 76668.55, 0.0, 10.00123, 9.998359 
3.6507612e+2, 2.848044e+2, -66752.04, -328018.47, -35632.297, -0.023795031, -0.18274337, -61979.574, 86919.766, 0.0, 10.001497, 9.9980345 
3.650879e+2, 2.948028e+2, 70706.98, -211642.3, -34265.617, -0.037541617, -0.14304097, 74805.914, 125721.516, 0.0, 10.001771, 9.998029 
3.650998e+2, 3.048003e+2, 168708.53, -126576.49, -13812.513, -0.06386248, -0.20445265, 169353.23, 169353.23, 0.0, 10.002054, 9.998141 
3.6511216e+2, 3.1479952e+2, 232320.56, -61782.445, -21492.83, -0.073138736, -0.09476612, 233882.94, 233882.94, 0.0, 10.002345, 9.998446 
3.7488097e+2, 1.2479507e+2, -1954605.3, -1758218.5, 4501.74, 0.038670763, -0.30127707, -1758115.4, -41137.094, 0.0, 9.998045, 10.000647 
3.7489367e+2, 1.3479587e+2, -1837360.5, -1651971.9, -1985.1346, 0.026726538, -0.2853882, -1651950.6, -32979.72, 0.0, 9.998181, 10.000637 
3.749064e+2, 1.4479627e+2, -1737725.6, -1585509.5, -3023.0967, 0.017115228, -0.2949509, -1585449.4, -64482.41, 0.0, 9.998331, 10.000347 
3.749192e+2, 1.5479632e+2, -1615707.8, -1476249.5, -3010.9087, 0.013567392, -0.32345155, -1476184.5, -53218.773, 0.0, 9.998497, 10.000344 
3.7493205e+2, 1.6479656e+2, -1479486.8, -1346700.6, -4513.0176, 0.012750482, -0.33880192, -1346547.5, -21584.744, 0.0, 9.998703, 10.000462 
3.7494487e+2, 1.74797e+2, -1344710.8, -1230279.4, -5480.534, 0.014961418, -0.3409632, -1230017.4, -3059.9133, 0.0, 9.998952, 10.000467 
3.749576e+2, 1.8479748e+2, -1234213.0, -1158823.6, -16265.279, 0.01890678, -0.32331803, -1155464.1, -26510.775, 0.0, 9.999178, 10.000176 
3.7497023e+2, 1.9479804e+2, -1107132.4, -1047149.94, -18067.348, 0.02470331, -0.28538772, -1042128.3, -11178.274, 0.0, 9.999379, 10.000174 
3.7498263e+2, 2.0479818e+2, -1002927.94, -985752.9, -31473.996, 0.027934859, -0.27048236, -961715.94, -28765.951, 0.0, 9.999593, 9.99982 
3.7499484e+2, 2.1479788e+2, -872322.6, -872523.56, -31772.16, 0.028385265, -0.2816517, -840650.8, -5697.5435, 0.0, 9.999818, 9.999815 
3.7500682e+2, 2.2479749e+2, -755444.75, -789836.75, -41926.36, 0.021337127, -0.29098737, -727324.94, 9632.26, 0.0, 10.000053, 9.999597 
3.750186e+2, 2.34797e+2, -621926.25, -674797.2, -38553.81, 0.0062838006, -0.29922763, -601615.3, 37346.344, 0.0, 10.000298, 9.999597 
3.7503034e+2, 2.4479648e+2, -541686.9, -666530.06, -42550.57, -0.0031222801, -0.27427915, -528563.75, 12404.742, 0.0, 10.000525, 9.99887 
3.7504208e+2, 2.5479594e+2, -413716.75, -555222.56, -45173.918, -0.0064710192, -0.21492198, -400525.28, 42452.406, 0.0, 10.000736, 9.99886 
3.7505388e+2, 2.6479483e+2, -310846.28, -501487.66, -42621.05, -0.009508912, -0.18912913, -301751.5, 43239.527, 0.0, 10.00097, 9.998444 
3.750657e+2, 2.7479315e+2, -175129.63, -385649.75, -39412.324, -0.011978749, -0.19968267, -167993.02, 79015.54, 0.0, 10.00123, 9.998441 
3.7507766e+2, 2.847916e+2, -65154.395, -324707.16, -25420.525, -0.019355709, -0.18164314, -62688.15, 86337.01, 0.0, 10.001497, 9.998057 
3.750897e+2, 2.9479006e+2, 72270.914, -208252.53, -24055.686, -0.032700032, -0.1371945, 74318.81, 125359.73, 0.0, 10.001771, 9.998053 
3.7510186e+2, 3.0478764e+2, 171884.45, -119724.89, -3030.7727, -0.06263268, -0.19459163, 171915.94, 171915.94, 0.0, 10.002053, 9.998189 
3.7511435e+2, 3.1478676e+2, 232947.78, -60139.773, -10629.011, -0.085253425, -0.09614876, 233332.73, 233332.73, 0.0, 10.002343, 9.998459 
3.8487905e+2, 1.247822e+2, -1951825.6, -1765124.1, -4782.3706, 0.040575407, -0.29448295, -1765001.8, -47896.99, 0.0, 9.998099, 10.000572 
3.848919e+2, 1.3478288e+2, -1824137.4, -1653845.3, -7738.0293, 0.027402906, -0.28169712, -1653494.4, -34395.723, 0.0, 9.998307, 10.000563 
3.849048e+2, 1.4478317e+2, -1713215.4, -1575885.5, -7139.66, 0.016874785, -0.29562885, -1575515.4, -54419.805, 0.0, 9.998509, 10.000327 
3.8491783e+2, 1.5478317e+2, -1586417.5, -1464078.8, -8626.727, 0.013625986, -0.32836875, -1463473.5, -40379.03, 0.0, 9.998707, 10.000326 
3.8493082e+2, 1.6478339e+2, -1456755.6, -1342646.3, -11378.18, 0.013168384, -0.34168187, -1341522.8, -16431.154, 0.0, 9.998889, 10.0004 
3.8494387e+2, 1.7478386e+2, -1334161.4, -1232122.6, -15275.694, 0.015847763, -0.33493134, -1229884.9, -2798.0952, 0.0, 9.999055, 10.000405 
3.8495678e+2, 1.8478437e+2, -1228376.1, -1161476.9, -28029.54, 0.01941331, -0.31021068, -1151285.5, -22202.686, 0.0, 9.999242, 10.000127 
3.849696e+2, 1.9478492e+2, -1099837.5, -1049079.3, -30409.871, 0.023887265, -0.26711926, -1034849.56, -3769.6526, 0.0, 9.999454, 10.000124 
3.8498223e+2, 2.04785e+2, -988042.06, -974516.7, -41801.668, 0.026154941, -0.25636992, -938934.2, -5853.9863, 0.0, 9.999678, 9.999855 
3.849947e+2, 2.147846e+2, -855494.94, -860148.8, -39105.473, 0.026036493, -0.28197542, -818647.25, 16436.672, 0.0, 9.999916, 9.999853 
3.8500693e+2, 2.2478421e+2, -745419.9, -782696.5, -51722.14, 0.020851364, -0.29342023, -709080.3, 28007.229, 0.0, 10.000113, 9.999618 
3.850189e+2, 2.3478386e+2, -625452.9, -674204.56, -53965.324, 0.010245445, -0.29034594, -590613.56, 48477.4, 0.0, 10.000263, 9.999617 
3.850309e+2, 2.4478339e+2, -553220.6, -674898.0, -58248.7, 0.001172176, -0.26014623, -529831.94, 11265.601, 0.0, 10.000458, 9.998845 
3.8504282e+2, 2.547828e+2, -420665.38, -561493.44, -57630.695, -0.0062874407, -0.20201358, -400088.03, 43019.383, 0.0, 10.000701, 9.998834 
3.850548e+2, 2.6478168e+2, -308377.1, -495191.16, -52825.297, -0.011187995, -0.18006082, -294474.34, 50646.582, 0.0, 10.000965, 9.998488 
3.8506693e+2, 2.7477998e+2, -168417.88, -377103.5, -52114.92, -0.013130435, -0.19752668, -156127.13, 91010.99, 0.0, 10.001254, 9.998487 
3.8507915e+2, 2.8477842e+2, -64609.273, -323260.4, -41442.977, -0.019654052, -0.18111569, -58131.223, 91023.18, 0.0, 10.001496, 9.998068 
3.8509142e+2, 2.9477698e+2, 60894.465, -212553.4, -41087.49, -0.031694707, -0.13225694, 66934.73, 118104.59, 0.0, 10.001688, 9.998063 
3.8510385e+2, 3.0477458e+2, 153764.5, -125146.71, -19539.541, -0.060477287, -0.18275784, 155126.72, 155126.72, 0.0, 10.001915, 9.998219 
3.8511658e+2, 3.1477374e+2, 208817.89, -72297.375, -28281.404, -0.087142974, -0.08871041, 211634.9, 211634.9, 0.0, 10.00218, 9.998454 
3.9487728e+2, 1.2476909e+2, -1953556.0, -1768408.6, 3198.2349, 0.05199165, -0.2890095, -1768353.4, -51119.965, 0.0, 9.998097, 10.00055 
3.9489022e+2, 1.3476965e+2, -1825678.9, -1657019.3, 8.936992, 0.029072758, -0.28606066, -1657019.3, -37790.81, 0.0, 9.998307, 10.000542 
3.9490327e+2, 1.4476988e+2, -1715931.0, -1581676.0, 229.81158, 0.011026032, -0.30297178, -1581675.6, -60449.78, 0.0, 9.998509, 10.000287 
3.9491642e+2, 1.5476991e+2, -1588988.0, -1469667.3, -1239.7639, 0.0036179991, -0.32943046, -1469654.4, -46430.06, 0.0, 9.998708, 10.000288 
3.9492962e+2, 1.6477011e+2, -1463809.6, -1357520.8, -5220.6616, 0.005031226, -0.33655232, -1357265.0, -32043.193, 0.0, 9.99889, 10.000297 
3.9494294e+2, 1.7477055e+2, -1341255.8, -1246985.9, -9123.259, 0.016216388, -0.32364047, -1246111.0, -18893.102, 0.0, 9.999055, 10.000303 
3.9495605e+2, 1.8477102e+2, -1232506.8, -1170157.0, -20188.986, 0.022134181, -0.29532567, -1164190.6, -34975.703, 0.0, 9.999243, 10.000068 
3.9496902e+2, 1.9477151e+2, -1103790.4, -1057408.0, -22498.947, 0.022247152, -0.25128964, -1048287.7, -17074.963, 0.0, 9.999454, 10.000067 
3.9498183e+2, 2.0477155e+2, -982831.06, -963839.3, -32874.85, 0.021119552, -0.24694285, -939116.4, -5903.0796, 0.0, 9.999678, 9.999928 
3.949945e+2, 2.1477108e+2, -850051.4, -848961.5, -30155.18, 0.018692022, -0.2872829, -819346.4, 15870.492, 0.0, 9.999916, 9.999929 
3.9500698e+2, 2.2477071e+2, -748994.06, -790243.3, -45948.87, 0.016696563, -0.29692164, -719253.25, 17966.85, 0.0, 10.000113, 9.999565 
3.950192e+2, 2.347705e+2, -629194.2, -682119.75, -48322.496, 0.015169415, -0.2738535, -600563.0, 38659.85, 0.0, 10.000264, 9.999562 
3.950314e+2, 2.4477006e+2, -552144.94, -672789.06, -49204.613, 0.009377754, -0.23744692, -534622.0, 6607.3706, 0.0, 10.000459, 9.998859 
3.9504355e+2, 2.547694e+2, -419574.75, -559280.94, -48570.645, -0.001115793, -0.18806171, -404348.13, 38891.617, 0.0, 10.000701, 9.998849 
3.950558e+2, 2.647682e+2, -307475.5, -493266.78, -42023.31, -0.009870683, -0.17325717, -298412.53, 46841.0, 0.0, 10.000965, 9.998503 
3.9506814e+2, 2.7476647e+2, -167594.97, -375218.53, -41301.52, -0.016569966, -0.19639577, -159680.73, 87590.02, 0.0, 10.001253, 9.998501 
3.9508057e+2, 2.8476492e+2, -64986.78, -323855.7, -34208.395, -0.024588259, -0.18115033, -60542.586, 88744.44, 0.0, 10.001495, 9.998064 
3.9509308e+2, 2.947635e+2, 60624.473, -213014.75, -33948.03, -0.03443171, -0.1281988, 64773.207, 116075.586, 0.0, 10.001687, 9.99806 
3.951058e+2, 3.0476123e+2, 154345.98, -123858.78, -9694.328, -0.057523806, -0.16906044, 154683.39, 154683.39, 0.0, 10.001914, 9.998228 
3.9511883e+2, 3.147604e+2, 207099.03, -75653.914, -18012.105, -0.08011458, -0.0755447, 208241.84, 208241.84, 0.0, 10.002178, 9.998431 
4.0487537e+2, 1.24755666e+2, -1951062.5, -1768638.6, -10702.138, 0.050496314, -0.28322235, -1768012.9, -50647.453, 0.0, 9.998121, 10.000538 
4.0488854e+2, 1.347562e+2, -1813920.9, -1652829.4, -13653.67, 0.02731309, -0.2827614, -1651680.4, -32319.48, 0.0, 9.998394, 10.000528 
4.049018e+2, 1.4475639e+2, -1697477.9, -1574127.6, -13219.518, 0.009185638, -0.3015411, -1572726.8, -51368.38, 0.0, 9.998642, 10.000275 
4.0491515e+2, 1.5475641e+2, -1566610.5, -1460221.8, -12729.195, 0.0030499883, -0.32725212, -1458719.9, -35363.22, 0.0, 9.998867, 10.000276 
4.049286e+2, 1.6475661e+2, -1446261.4, -1359077.4, -17395.314, 0.005158214, -0.331656, -1355734.8, -30380.273, 0.0, 9.999054, 10.000207 
4.0494204e+2, 1.7475699e+2, -1326844.5, -1250181.3, -20495.854, 0.016411673, -0.31370053, -1245045.8, -17694.135, 0.0, 9.999198, 10.000213 
4.0495536e+2, 1.8475738e+2, -1219041.1, -1168042.8, -29159.326, 0.021324059, -0.28442943, -1154806.0, -25456.527, 0.0, 9.999354, 10.000029 
4.0496847e+2, 1.9475783e+2, -1096332.3, -1057972.5, -29998.896, 0.019265495, -0.24384984, -1041546.25, -10198.378, 0.0, 9.999523, 10.00003 
4.049815e+2, 2.0475782e+2, -975718.5, -956714.9, -39913.305, 0.017451886, -0.24092734, -925187.94, 8160.501, 0.0, 9.999711, 9.999962 
4.0499443e+2, 2.147574e+2, -847057.4, -843523.4, -40407.277, 0.015980113, -0.28071058, -804844.5, 30506.834, 0.0, 9.99992, 9.999966 
4.050071e+2, 2.2475705e+2, -751380.7, -799066.44, -59991.94, 0.016131528, -0.28760558, -710667.25, 26687.342, 0.0, 10.00013, 9.999496 
4.0501952e+2, 2.3475683e+2, -622969.5, -687002.25, -63749.883, 0.017999496, -0.25931445, -583647.94, 55710.19, 0.0, 10.00034, 9.999492 
4.0503192e+2, 2.4475637e+2, -539660.94, -664159.8, -63986.91, 0.012632702, -0.22237459, -512639.3, 28725.61, 0.0, 10.000533, 9.998882 
4.0504426e+2, 2.547557e+2, -417153.3, -555197.75, -62673.31, -0.0007011334, -0.17749572, -392944.56, 50430.58, 0.0, 10.000705, 9.998875 
4.0505674e+2, 2.6475447e+2, -313822.38, -492648.1, -53066.055, -0.010302501, -0.16625969, -299260.88, 46127.855, 0.0, 10.000906, 9.998535 
4.0506932e+2, 2.7475277e+2, -181958.48, -378337.4, -50895.473, -0.015660064, -0.19219466, -169551.73, 77853.984, 0.0, 10.001139, 9.998535 
4.05082e+2, 2.847512e+2, -82318.84, -332020.94, -44435.324, -0.023657292, -0.17749389, -74647.13, 74774.695, 0.0, 10.001375, 9.998066 
4.050947e+2, 2.9474983e+2, 50703.934, -217533.6, -43945.723, -0.034835983, -0.122274406, 57720.105, 109157.19, 0.0, 10.001617, 9.998062 
4.0510765e+2, 3.0474758e+2, 145475.3, -126966.375, -18561.088, -0.05925059, -0.15882139, 146734.03, 146734.03, 0.0, 10.001848, 9.998238 
4.0512085e+2, 3.1474668e+2, 189561.78, -86102.79, -26399.092, -0.088031456, -0.07383163, 192067.13, 192067.13, 0.0, 10.002067, 9.998413 
4.1487333e+2, 1.24741934e+2, -1951699.0, -1769603.1, -356.96317, 0.03528314, -0.27735206, -1769602.4, -52101.58, 0.0, 9.998119, 10.000532 
4.148869e+2, 1.3474253e+2, -1814352.1, -1653608.8, -3642.9348, 0.021902917, -0.2714832, -1653526.3, -34030.55, 0.0, 9.998394, 10.000523 
4.1490045e+2, 1.4474273e+2, -1696520.5, -1572192.8, -4911.157, 0.01145891, -0.2909752, -1571999.0, -50505.914, 0.0, 9.998642, 10.000288 
4.1491413e+2, 1.5474269e+2, -1565520.6, -1458110.6, -4387.879, 0.012195324, -0.32171836, -1457931.6, -34440.06, 0.0, 9.998868, 10.00029 
4.149277e+2, 1.6474284e+2, -1451678.9, -1370533.8, -12021.147, 0.0137968315, -0.327003, -1368790.4, -43300.492, 0.0, 9.999054, 10.000129 
4.1494122e+2, 1.7474318e+2, -1332374.1, -1261862.8, -15140.1875, 0.01644349, -0.3051423, -1258749.4, -31261.65, 0.0, 9.999199, 10.000132 
4.1495466e+2, 1.8474351e+2, -1220411.1, -1171049.4, -22919.016, 0.016892865, -0.2775789, -1162049.0, -32562.793, 0.0, 9.999354, 10.000008 
4.1496795e+2, 1.9474386e+2, -1097587.6, -1060711.5, -23654.686, 0.014905362, -0.24487722, -1049157.9, -17672.545, 0.0, 9.999523, 10.0000105 
4.1498116e+2, 2.0474388e+2, -976279.75, -958003.94, -32129.117, 0.015134014, -0.23839778, -933738.5, -252.82321, 0.0, 9.999711, 9.999952 
4.1499433e+2, 2.147436e+2, -847562.06, -844680.3, -32542.504, 0.017869577, -0.26229525, -813546.8, 21940.518, 0.0, 9.99992, 9.999957 
4.1500723e+2, 2.2474326e+2, -757397.06, -811655.44, -52036.52, 0.019145582, -0.2654542, -725842.44, 11648.576, 0.0, 10.00013, 9.999411 
4.1501987e+2, 2.3474285e+2, -629167.8, -699942.25, -55800.918, 0.01876257, -0.24664566, -598479.4, 41017.367, 0.0, 10.00034, 9.999403 
4.1503245e+2, 2.447423e+2, -537443.4, -659614.25, -57493.74, 0.01098251, -0.21483922, -514642.2, 26862.057, 0.0, 10.000533, 9.998914 
4.150449e+2, 2.5474164e+2, -414735.1, -550237.9, -56251.535, -0.004980166, -0.17026378, -394426.9, 49086.707, 0.0, 10.000705, 9.998909 
4.150576e+2, 2.647405e+2, -310228.28, -485222.0, -44400.855, -0.01248786, -0.1590751, -299607.2, 45919.332, 0.0, 10.000905, 9.998586 
4.1507053e+2, 2.7473882e+2, -178391.52, -370893.88, -42217.645, -0.01056761, -0.18500666, -169539.8, 78003.18, 0.0, 10.001138, 9.998587 
4.1508344e+2, 2.8473732e+2, -81992.58, -331199.75, -35358.402, -0.017060505, -0.17023942, -77072.92, 72485.86, 0.0, 10.001374, 9.998072 
4.1509634e+2, 2.9473594e+2, 50878.508, -216901.48, -34926.45, -0.033004116, -0.114516005, 55358.984, 106932.94, 0.0, 10.0016165, 9.998068 
4.1510943e+2, 3.047337e+2, 145962.94, -125624.91, -10354.499, -0.06547057, -0.15182841, 146357.13, 146357.13, 0.0, 10.001846, 9.998248 
4.151227e+2, 3.147326e+2, 188195.17, -88530.445, -17615.213, -0.11099938, -0.085964136, 189311.98, 189311.98, 0.0, 10.002065, 9.998398 
4.2487147e+2, 1.2472803e+2, -1939710.8, -1763964.6, -7288.6567, 0.033140905, -0.26450157, -1763662.9, -46024.8, 0.0, 9.998202, 10.00053 
4.248853e+2, 1.3472852e+2, -1799463.0, -1646620.8, -10770.84, 0.0197033, -0.26891378, -1645865.5, -26231.994, 0.0, 9.998497, 10.000521 
4.248991e+2, 1.4472869e+2, -1681804.4, -1564904.3, -15089.336, 0.009927101, -0.29101768, -1562987.9, -41356.88, 0.0, 9.998743, 10.00029 
4.2491302e+2, 1.5472874e+2, -1554898.4, -1452752.0, -15630.304, 0.013839504, -0.31334996, -1450413.8, -26784.979, 0.0, 9.99894, 10.000292 
4.2492682e+2, 1.647289e+2, -1445412.4, -1373650.6, -24928.83, 0.016515296, -0.3148784, -1365840.8, -40213.582, 0.0, 9.999125, 10.000073 
4.249405e+2, 1.7472917e+2, -1322285.1, -1263281.0, -26324.41, 0.017942877, -0.29434127, -1253243.9, -25618.041, 0.0, 9.999295, 10.000075 
4.2495403e+2, 1.8472943e+2, -1206865.5, -1166769.5, -33143.38, 0.017506823, -0.2713685, -1148082.5, -18457.34, 0.0, 9.999457, 9.999987 
4.249675e+2, 1.9472966e+2, -1086389.6, -1057406.9, -33962.707, 0.014957256, -0.24686874, -1034973.1, -3348.262, 0.0, 9.999609, 9.999991 
4.249809e+2, 2.0472969e+2, -969654.9, -957989.44, -42142.453, 0.014199791, -0.23754288, -921278.0, 12347.237, 0.0, 9.999771, 9.999924 
4.2499423e+2, 2.1472953e+2, -846324.94, -847202.1, -44173.813, 0.015470704, -0.24649206, -802587.56, 33038.586, 0.0, 9.999942, 9.999929 
4.250073e+2, 2.2472918e+2, -761916.6, -818951.9, -62642.46, 0.016838731, -0.24534692, -721606.0, 16024.057, 0.0, 10.000121, 9.999364 
4.2502016e+2, 2.3472865e+2, -637313.3, -709042.94, -63368.383, 0.018306777, -0.23392984, -600364.44, 39272.61, 0.0, 10.000307, 9.999356 
4.250329e+2, 2.4472804e+2, -541220.9, -660006.9, -64544.953, 0.01012493, -0.20811026, -512900.84, 28744.346, 0.0, 10.000502, 9.998926 
4.2504555e+2, 2.5472736e+2, -413967.66, -548243.5, -64896.434, -0.00879763, -0.16794243, -387729.75, 55924.754, 0.0, 10.000704, 9.998923 
4.2505845e+2, 2.6472625e+2, -308727.0, -480950.88, -53587.223, -0.016739039, -0.1544319, -293414.8, 52252.05, 0.0, 10.0009, 9.998617 
4.250716e+2, 2.747247e+2, -182668.36, -369288.13, -52899.06, -0.012451498, -0.1707368, -168716.67, 78965.63, 0.0, 10.001093, 9.998619 
4.2508474e+2, 2.847232e+2, -93313.49, -334277.84, -45955.926, -0.017650789, -0.15469629, -84846.445, 64851.31, 0.0, 10.0012865, 9.998093 
4.250979e+2, 2.9472178e+2, 32957.14, -223127.8, -44429.566, -0.033398673, -0.10668112, 40446.44, 92159.75, 0.0, 10.001483, 9.998089 
4.2511117e+2, 3.0471957e+2, 127769.76, -126598.17, -17153.805, -0.06703341, -0.14662305, 128921.34, 128921.34, 0.0, 10.001688, 9.998318 
4.251246e+2, 3.1471843e+2, 168395.28, -92616.02, -19436.377, -0.11948558, -0.09272198, 169834.69, 169834.69, 0.0, 10.001905, 9.998446 
4.3486974e+2, 1.24713965e+2, -1939749.4, -1763925.0, 3927.5452, 0.04448407, -0.24454303, -1763837.4, -46060.258, 0.0, 9.998202, 10.000531 
4.348838e+2, 1.3471417e+2, -1799460.0, -1646562.6, 59.282265, 0.020882681, -0.2754321, -1646562.6, -26788.363, 0.0, 9.998496, 10.000522 
4.348978e+2, 1.447143e+2, -1682729.4, -1566814.6, -7762.55, 0.0044237664, -0.30219853, -1566297.1, -44524.918, 0.0, 9.998742, 10.000277 
4.349119e+2, 1.5471457e+2, -1555775.5, -1454572.6, -8373.285, 0.007700617, -0.30212003, -1453884.5, -30116.08, 0.0, 9.9989395, 10.000279 
4.349259e+2, 1.6471478e+2, -1447671.4, -1378400.3, -18590.47, 0.013080082, -0.29504725, -1373726.5, -47960.082, 0.0, 9.999125, 10.000041 
4.349398e+2, 1.7471497e+2, -1324518.0, -1268046.6, -19953.703, 0.020882823, -0.2812242, -1261707.6, -33941.57, 0.0, 9.999296, 10.000043 
4.3495354e+2, 1.847151e+2, -1208312.9, -1169930.4, -27498.55, 0.0232232, -0.2658043, -1155588.5, -25822.242, 0.0, 9.999458, 9.999966 
4.3496716e+2, 1.9471525e+2, -1087764.1, -1060415.4, -28280.62, 0.019453023, -0.2498306, -1042676.7, -10910.147, 0.0, 9.99961, 9.999971 
4.349807e+2, 2.0471525e+2, -973061.1, -965213.94, -35753.85, 0.014671853, -0.23837024, -933169.0, 598.06134, 0.0, 9.999771, 9.999874 
4.349941e+2, 2.1471518e+2, -849754.6, -854457.56, -37715.41, 0.00879359, -0.23329313, -814317.44, 21450.305, 0.0, 9.999943, 9.999879 
4.3500736e+2, 2.2471486e+2, -762371.44, -820002.2, -55632.434, 0.009201031, -0.2272716, -728534.6, 9237.028, 0.0, 10.000121, 9.999357 
4.3502048e+2, 2.3471427e+2, -637728.0, -709979.94, -56365.613, 0.016610388, -0.2211641, -606905.0, 32874.08, 0.0, 10.000308, 9.99935 
4.350334e+2, 2.4471357e+2, -541658.2, -660957.25, -56950.703, 0.010029827, -0.20214777, -518836.8, 22950.926, 0.0, 10.000502, 9.9989195 
4.3504623e+2, 2.5471282e+2, -414426.63, -549223.9, -57306.023, -0.012186949, -0.17040287, -393357.44, 50440.3, 0.0, 10.000704, 9.998917 
4.3505928e+2, 2.6471177e+2, -307917.47, -479286.94, -46348.98, -0.023014005, -0.15228309, -296185.06, 49624.67, 0.0, 10.0009, 9.99863 
4.350726e+2, 2.747104e+2, -181870.36, -367588.4, -45702.133, -0.02112389, -0.14959511, -171233.1, 76590.58, 0.0, 10.001092, 9.998631 
4.3508598e+2, 2.8470895e+2, -90923.31, -329197.5, -38583.742, -0.025241584, -0.13106516, -84831.21, 65007.51, 0.0, 10.001286, 9.998129 
4.3509933e+2, 2.947074e+2, 35301.613, -218028.53, -37111.04, -0.03598056, -0.09870034, 40626.2, 92481.32, 0.0, 10.001482, 9.998125 
4.351129e+2, 3.0470523e+2, 136189.42, -108656.34, -9034.169, -0.06420381, -0.14311449, 136522.3, 136522.3, 0.0, 10.001686, 9.998442 
4.351265e+2, 3.1470412e+2, 175379.27, -77253.81, -10657.082, -0.11490258, -0.096893854, 175828.03, 175828.03, 0.0, 10.001902, 9.998554 
4.44868e+2, 1.2469963e+2, -1912613.0, -1747645.9, 693.38824, 0.042993154, -0.2309479, -1747643.0, -29724.404, 0.0, 9.998375, 10.00056 
4.4488236e+2, 1.346997e+2, -1773863.4, -1631055.4, -1546.3704, 0.018327044, -0.27786574, -1631038.6, -11122.444, 0.0, 9.998658, 10.00055 
4.4489658e+2, 1.4469977e+2, -1665181.4, -1565676.3, -13885.22, 0.0014536773, -0.30807063, -1563775.0, -41860.582, 0.0, 9.998895, 10.000212 
4.4491088e+2, 1.5470012e+2, -1540062.8, -1454651.9, -18879.77, 0.0074658645, -0.2943951, -1450664.8, -26753.996, 0.0, 9.999081, 10.000211 
4.4492507e+2, 1.6470034e+2, -1433665.5, -1375036.8, -33025.32, 0.013712352, -0.28076687, -1360192.3, -34283.375, 0.0, 9.999235, 10.0000105 
4.449391e+2, 1.7470048e+2, -1318025.6, -1268194.8, -34201.625, 0.020230306, -0.268234, -1250795.5, -22886.514, 0.0, 9.999354, 10.000013 
4.44953e+2, 1.8470058e+2, -1201472.3, -1165565.4, -39923.402, 0.0221883, -0.25711757, -1139744.4, -9834.918, 0.0, 9.9995, 9.999974 
4.449668e+2, 1.9470064e+2, -1077391.9, -1054184.3, -38338.848, 0.019078657, -0.2488636, -1025731.6, 6178.3154, 0.0, 9.999676, 9.999982 
4.4498047e+2, 2.0470063e+2, -965935.8, -966679.25, -44512.703, 0.014172517, -0.23712082, -921793.25, 12117.408, 0.0, 9.999842, 9.99983 
4.4499406e+2, 2.1470062e+2, -845307.1, -857346.9, -46187.785, 0.007318188, -0.22275494, -804748.56, 31162.965, 0.0, 9.999995, 9.999834 
4.4500747e+2, 2.247003e+2, -758356.94, -817374.56, -63323.34, 0.0075512826, -0.21301949, -718004.4, 19911.168, 0.0, 10.000146, 9.999363 
4.4502077e+2, 2.346997e+2, -639225.1, -709846.6, -63117.676, 0.015645813, -0.20946737, -602212.4, 37710.504, 0.0, 10.000294, 9.999357 
4.450339e+2, 2.4469897e+2, -545596.7, -661355.56, -61161.254, 0.00981233, -0.19426839, -519269.7, 22661.93, 0.0, 10.000468, 9.998933 
4.450469e+2, 2.5469816e+2, -418103.6, -549482.44, -60093.355, -0.011624574, -0.16766332, -394763.2, 49178.563, 0.0, 10.000672, 9.99893 
4.4506016e+2, 2.6469713e+2, -315086.28, -484397.25, -50196.29, -0.023681499, -0.14702709, -301323.2, 44630.434, 0.0, 10.000858, 9.998614 
4.450736e+2, 2.746959e+2, -192648.81, -374585.4, -51740.348, -0.02527173, -0.13336048, -178963.89, 69003.25, 0.0, 10.001026, 9.998614 
4.4508713e+2, 2.8469446e+2, -101386.09, -329280.47, -45334.76, -0.030464914, -0.114069946, -92698.86, 57283.266, 0.0, 10.001193, 9.998173 
4.451007e+2, 2.9469284e+2, 20534.563, -220042.56, -43279.53, -0.039509527, -0.09221526, 28083.617, 80082.43, 0.0, 10.001358, 9.99817 
4.4511446e+2, 3.0469075e+2, 114457.21, -109727.54, -16954.857, -0.062030103, -0.1360583, 115732.234, 115732.234, 0.0, 10.001496, 9.998526 
4.4512835e+2, 3.1468973e+2, 136944.0, -88009.81, -21021.984, -0.10557877, -0.089389786, 138891.64, 138891.64, 0.0, 10.001604, 9.998623 
4.5486623e+2, 1.24685034e+2, -1908554.5, -1739373.3, 11590.791, 0.02759236, -0.2247809, -1738582.9, -20520.35, 0.0, 9.998375, 10.000616 
4.5488092e+2, 1.3468511e+2, -1769888.5, -1622928.5, 9000.084, 0.011780657, -0.27609417, -1622379.4, -2320.2808, 0.0, 9.998659, 10.000606 
4.5489544e+2, 1.4468513e+2, -1673668.9, -1583409.4, -6935.9814, 0.0010530031, -0.30839518, -1582879.5, -60821.758, 0.0, 9.998895, 10.00009 
4.5491004e+2, 1.546854e+2, -1548970.9, -1473272.3, -12006.836, 0.013290087, -0.2902867, -1471413.5, -47357.813, 0.0, 9.999082, 10.000083 
4.5492435e+2, 1.6468559e+2, -1435711.4, -1379444.0, -28628.94, 0.018538646, -0.27225143, -1367438.9, -41384.297, 0.0, 9.999235, 9.99998 
4.549384e+2, 1.7468575e+2, -1319884.0, -1272172.9, -29820.715, 0.015905648, -0.25542116, -1257840.0, -29785.318, 0.0, 9.999355, 9.999986 
4.5495242e+2, 1.8468583e+2, -1198675.0, -1159851.6, -33490.813, 0.014250841, -0.24526572, -1140553.5, -10498.716, 0.0, 9.9995, 10.000014 
4.549664e+2, 1.9468585e+2, -1074403.6, -1048120.0, -31780.957, 0.013752176, -0.24392213, -1026870.9, 5184.191, 0.0, 9.999677, 10.000024 
4.5498028e+2, 2.0468585e+2, -968638.44, -972449.0, -38751.98, 0.012659313, -0.23375466, -931744.94, 2311.0466, 0.0, 9.999842, 9.99979 
4.5499405e+2, 2.1468584e+2, -848196.9, -863486.2, -40424.01, 0.0110176895, -0.2148546, -814701.0, 21356.39, 0.0, 9.999995, 9.999792 
4.5500767e+2, 2.2468553e+2, -757061.4, -814768.0, -57755.367, 0.011884496, -0.20257755, -721353.1, 16708.438, 0.0, 10.000146, 9.999381 
4.5502102e+2, 2.3468493e+2, -637806.94, -706998.56, -57581.47, 0.015421006, -0.19882967, -605227.6, 34840.84, 0.0, 10.000294, 9.999376 
4.5503438e+2, 2.4468425e+2, -543346.44, -656769.8, -53551.547, 0.009447036, -0.18449202, -522058.25, 20018.55, 0.0, 10.000468, 9.998964 
4.550476e+2, 2.5468343e+2, -415866.88, -544861.25, -52445.16, -0.0072130235, -0.1598095, -397235.34, 46851.207, 0.0, 10.000671, 9.998962 
4.5506105e+2, 2.646824e+2, -318082.7, -490592.22, -43823.344, -0.018888064, -0.1386809, -307588.47, 38510.047, 0.0, 10.000858, 9.998572 
4.550746e+2, 2.7468115e+2, -195856.6, -381151.78, -45415.13, -0.025043264, -0.12183868, -185324.2, 62788.504, 0.0, 10.001025, 9.99857 
4.550883e+2, 2.846797e+2, -97938.16, -321957.06, -39022.24, -0.033416312, -0.1034928, -91335.414, 58792.51, 0.0, 10.001192, 9.998223 
4.5510203e+2, 2.946781e+2, 24149.52, -212339.27, -37030.984, -0.04396916, -0.08718458, 29812.473, 81956.85, 0.0, 10.001357, 9.998223 
4.5511597e+2, 3.046761e+2, 117355.46, -103489.82, -12715.246, -0.060526785, -0.12560973, 118085.13, 118085.13, 0.0, 10.001495, 9.9985695 
4.551301e+2, 3.146752e+2, 138861.67, -83733.92, -16137.933, -0.09227038, -0.07271591, 140025.56, 140025.56, 0.0, 10.001602, 9.998653 
4.6486464e+2, 1.246701e+2, -1865425.4, -1716295.6, -2999.7307, 0.019852538, -0.2200118, -1716235.3, 1974.4564, 0.0, 9.998661, 10.000636 
4.6487963e+2, 1.3467029e+2, -1747004.0, -1609962.1, -9072.486, 0.009359532, -0.26400134, -1609364.1, 10840.951, 0.0, 9.998808, 10.000623 
4.6489438e+2, 1.446703e+2, -1666833.6, -1584905.3, -25202.455, 0.0009914916, -0.29611102, -1577773.5, -55569.734, 0.0, 9.998962, 10.000047 
4.6490914e+2, 1.5467046e+2, -1545198.9, -1476574.5, -24086.605, 0.015861165, -0.28220668, -1468964.3, -44761.453, 0.0, 9.999129, 10.000037 
4.6492362e+2, 1.646706e+2, -1428127.9, -1377348.1, -38254.836, 0.02065942, -0.26665372, -1356824.1, -30621.787, 0.0, 9.999294, 9.999966 
4.6493778e+2, 1.7467073e+2, -1305688.4, -1266803.3, -38445.785, 0.0140493605, -0.25027248, -1243163.4, -14960.88, 0.0, 9.999459, 9.999972 
4.6495193e+2, 1.8467084e+2, -1185032.8, -1148709.3, -42470.9, 0.011814304, -0.2398441, -1120679.8, 9522.639, 0.0, 9.999575, 10.000054 
4.6496606e+2, 1.9467092e+2, -1077479.6, -1044815.5, -40737.945, 0.014596543, -0.23742084, -1017257.75, 14944.093, 0.0, 9.999635, 10.000066 
4.6498007e+2, 2.0467094e+2, -987963.9, -986224.6, -46874.598, 0.0148715, -0.2259538, -940211.56, -6008.8823, 0.0, 9.999728, 9.99975 
4.6499398e+2, 2.1467088e+2, -870847.9, -879231.7, -48665.434, 0.012393411, -0.20545512, -826194.1, 10010.83, 0.0, 9.999861, 9.999748 
4.6500775e+2, 2.2467057e+2, -768701.5, -815514.4, -63223.92, 0.012373755, -0.19247134, -724690.4, 13518.841, 0.0, 10.000046, 9.999424 
4.650213e+2, 2.3467003e+2, -635370.06, -700681.75, -61113.992, 0.015027061, -0.18909746, -598734.3, 41481.176, 0.0, 10.000289, 9.999422 
4.6503484e+2, 2.4466938e+2, -538024.2, -650524.0, -56743.47, 0.01077618, -0.175573, -514374.97, 27848.336, 0.0, 10.000489, 9.998998 
4.650483e+2, 2.546686e+2, -418239.13, -542448.7, -55731.395, -0.0012858595, -0.15207224, -396899.34, 47333.344, 0.0, 10.000641, 9.998994 
4.650619e+2, 2.6466757e+2, -329726.22, -497548.38, -47030.934, -0.013897135, -0.13147417, -317444.88, 28799.785, 0.0, 10.000785, 9.99856 
4.6507555e+2, 2.7466628e+2, -212259.52, -390630.47, -46508.547, -0.027294196, -0.11446357, -200861.23, 47398.137, 0.0, 10.00092, 9.998556 
4.6508935e+2, 2.846649e+2, -111456.73, -322254.2, -38187.484, -0.03852839, -0.094986215, -104752.04, 45522.402, 0.0, 10.001073, 9.998279 
4.6510327e+2, 2.9466334e+2, 11684.598, -211947.27, -36035.91, -0.04686436, -0.07639457, 17347.98, 69638.0, 0.0, 10.001245, 9.998281 
4.6511742e+2, 3.046614e+2, 105702.41, -103290.63, -13398.149, -0.058783263, -0.11266584, 106557.836, 106557.836, 0.0, 10.00139, 9.998621 
4.651317e+2, 3.146605e+2, 127673.664, -84517.9, -15831.961, -0.08468098, -0.06565993, 128848.414, 128848.414, 0.0, 10.001506, 9.998694 
4.7486332e+2, 1.24654844e+2, -1866505.3, -1719052.3, 2562.3813, 0.019781105, -0.2174379, -1719007.8, -647.4417, 0.0, 9.998663, 10.000617 
4.7487846e+2, 1.3465519e+2, -1748658.3, -1613527.8, -3911.2407, 0.011224914, -0.24116006, -1613414.6, 6939.3345, 0.0, 9.998808, 10.000598 
4.7489333e+2, 1.4465524e+2, -1664283.0, -1579575.8, -19262.672, 0.0012241608, -0.27067113, -1575401.1, -53048.844, 0.0, 9.998962, 10.000083 
4.7490826e+2, 1.5465532e+2, -1542559.4, -1471088.1, -17965.271, 0.015010996, -0.2699706, -1466826.4, -42474.39, 0.0, 9.999129, 10.000075 
4.7492293e+2, 1.6465539e+2, -1427984.3, -1377139.4, -32198.54, 0.019916402, -0.26403826, -1361536.9, -35184.613, 0.0, 9.999294, 9.999968 
4.7493723e+2, 1.7465545e+2, -1305595.0, -1266795.8, -32321.78, 0.014655436, -0.2529649, -1248498.6, -20145.953, 0.0, 9.999459, 9.999972 
4.749515e+2, 1.8465559e+2, -1182079.9, -1142749.5, -40205.39, 0.014944841, -0.24102177, -1117657.6, 12694.528, 0.0, 9.999576, 10.000095 
4.7496575e+2, 1.946558e+2, -1074446.3, -1038623.1, -38562.105, 0.021667453, -0.22938374, -1014015.75, 18334.531, 0.0, 9.999635, 10.000109 
4.7497985e+2, 2.0465587e+2, -990891.8, -992387.6, -42036.887, 0.020849751, -0.21367341, -949596.2, -15245.287, 0.0, 9.999729, 9.999708 
4.7499382e+2, 2.1465576e+2, -873990.75, -885896.0, -43710.76, 0.011452783, -0.19454072, -835829.2, 525.0176, 0.0, 9.999861, 9.999702 
4.7500774e+2, 2.2465545e+2, -763991.44, -805808.06, -54194.37, 0.00900086, -0.18269266, -726812.0, 11546.582, 0.0, 10.000046, 9.999491 
4.7502157e+2, 2.3465496e+2, -630435.8, -690438.8, -51971.363, 0.014437974, -0.18023764, -600428.06, 39935.895, 0.0, 10.000289, 9.999493 
4.7503534e+2, 2.4465436e+2, -535804.8, -645866.8, -50950.625, 0.013758418, -0.16747959, -515839.97, 26531.15, 0.0, 10.000488, 9.99903 
4.7504902e+2, 2.546536e+2, -416178.75, -538075.4, -50040.242, 0.006096938, -0.14443895, -398268.2, 46111.99, 0.0, 10.00064, 9.999024 
4.7506273e+2, 2.6465258e+2, -328760.53, -495453.25, -41879.67, -0.008729603, -0.12535939, -318830.3, 27561.809, 0.0, 10.000784, 9.998574 
4.7507644e+2, 2.746513e+2, -211327.9, -388683.44, -41373.957, -0.031960703, -0.11109461, -202150.94, 46256.203, 0.0, 10.000919, 9.9985695 
4.7509035e+2, 2.8464997e+2, -107409.28, -313823.44, -31697.656, -0.04576502, -0.08851124, -102651.35, 47770.344, 0.0, 10.001072, 9.998337 
4.7510448e+2, 2.9464856e+2, 15681.54, -203462.05, -29540.545, -0.048290614, -0.06013723, 19593.762, 72029.57, 0.0, 10.001244, 9.99834 
4.7511885e+2, 3.046467e+2, 109474.625, -95100.95, -8898.767, -0.0568046, -0.09729624, 109860.984, 109860.984, 0.0, 10.001389, 9.998678 
4.751332e+2, 3.1464565e+2, 130732.78, -77529.12, -10907.83, -0.08304027, -0.0694241, 131302.53, 131302.53, 0.0, 10.001503, 9.998744 
4.848621e+2, 1.2463938e+2, -1838862.8, -1706957.1, -7976.6523, 0.024085486, -0.21642241, -1706476.5, 12036.141, 0.0, 9.998858, 10.000606 
4.8487732e+2, 1.3463981e+2, -1733619.4, -1608182.4, -14350.232, 0.013510055, -0.22874817, -1606561.6, 13943.995, 0.0, 9.9989195, 10.000581 
4.8489228e+2, 1.4463988e+2, -1657037.8, -1573224.8, -28858.342, -0.00050154986, -0.25617546, -1564249.4, -41745.71, 0.0, 9.999, 10.000109 
4.8490736e+2, 1.5463994e+2, -1544846.4, -1469275.5, -28442.518, 0.012021439, -0.2601585, -1459767.0, -35263.523, 0.0, 9.999101, 10.000101 
4.8492214e+2, 1.6464e+2, -1435398.1, -1375207.0, -40838.176, 0.019002622, -0.25892675, -1354572.9, -28069.287, 0.0, 9.99922, 10.000016 
4.8493668e+2, 1.7464007e+2, -1316573.1, -1266524.6, -37183.348, 0.019587861, -0.25253588, -1246729.1, -18225.203, 0.0, 9.99936, 10.000022 
4.849511e+2, 1.8464026e+2, -1191625.0, -1144176.0, -45768.55, 0.022027431, -0.24000047, -1116348.5, 14154.433, 0.0, 9.999496, 10.000123 
4.849654e+2, 1.9464056e+2, -1073773.8, -1035213.9, -45392.14, 0.026664877, -0.22170949, -1005176.9, 27323.395, 0.0, 9.999626, 10.000136 
4.849796e+2, 2.0464066e+2, -986826.94, -991513.3, -46869.434, 0.022727199, -0.20407476, -942242.1, -7741.437, 0.0, 9.999762, 9.999698 
4.849937e+2, 2.1464048e+2, -868909.9, -884737.4, -46001.016, 0.008974937, -0.1884386, -830146.8, 6357.6914, 0.0, 9.999902, 9.999691 
4.8500776e+2, 2.2464019e+2, -762336.06, -801505.9, -54461.22, 0.005592345, -0.17727877, -724045.3, 14463.622, 0.0, 10.000042, 9.999522 
4.8502183e+2, 2.3463976e+2, -643727.44, -693174.56, -55105.91, 0.014119438, -0.17224927, -608053.0, 32460.797, 0.0, 10.000182, 9.999525 
4.8503578e+2, 2.446392e+2, -554431.06, -647110.8, -55717.598, 0.015914034, -0.15902705, -528301.4, 14218.949, 0.0, 10.000328, 9.999099 
4.8504964e+2, 2.546385e+2, -434430.78, -539056.0, -52032.64, 0.009928484, -0.13789578, -412959.9, 31568.799, 0.0, 10.000482, 9.999094 
4.8506343e+2, 2.646375e+2, -346484.4, -502620.06, -41965.816, -0.006292159, -0.120017655, -335919.78, 10620.571, 0.0, 10.000656, 9.998587 
4.8507726e+2, 2.7463624e+2, -219887.58, -391751.2, -41859.96, -0.034502894, -0.1061027, -210234.19, 38321.344, 0.0, 10.000856, 9.998578 
4.8509133e+2, 2.8463495e+2, -112952.32, -313069.13, -34247.797, -0.050182387, -0.08037457, -107253.48, 43316.363, 0.0, 10.0010195, 9.998367 
4.8510566e+2, 2.9463366e+2, 2623.058, -206302.16, -34333.305, -0.050945222, -0.044851866, 8120.499, 60703.75, 0.0, 10.00114, 9.99837 
4.8512012e+2, 3.0463183e+2, 93831.08, -92768.445, -15613.565, -0.05734737, -0.08133085, 95128.51, 95128.51, 0.0, 10.001239, 9.998766 
4.851346e+2, 3.1463078e+2, 109017.93, -78295.555, -15032.658, -0.08143309, -0.06373821, 110216.69, 110216.69, 0.0, 10.001312, 9.99883 
4.9486104e+2, 1.2462367e+2, -1839098.0, -1707612.6, -5545.553, 0.03257786, -0.21753803, -1707379.1, 11287.763, 0.0, 9.998858, 10.000601 
4.9487627e+2, 1.3462414e+2, -1734377.6, -1609801.0, -12243.85, 0.016175454, -0.22719595, -1608609.0, 12050.849, 0.0, 9.9989195, 10.00057 
4.9489123e+2, 1.4462422e+2, -1656239.1, -1571495.5, -25350.613, -0.004364196, -0.2530937, -1564491.0, -41833.06, 0.0, 9.999, 10.000121 
4.9490637e+2, 1.5462433e+2, -1544094.0, -1467579.5, -24806.018, 0.0067476192, -0.25287646, -1460241.1, -35583.984, 0.0, 9.9991, 10.000113 
4.9492133e+2, 1.6462444e+2, -1428714.5, -1361209.4, -35782.965, 0.017838733, -0.25123513, -1345772.0, -19115.344, 0.0, 9.99922, 10.000113 
4.9493614e+2, 1.7462458e+2, -1309641.4, -1252059.1, -31997.064, 0.028886877, -0.24889573, -1237806.8, -9150.729, 0.0, 9.99936, 10.000122 
4.949507e+2, 1.8462482e+2, -1190691.4, -1142213.5, -40909.01, 0.033130895, -0.23671179, -1118901.6, 11752.832, 0.0, 9.9994955, 10.000137 
4.9496505e+2, 1.9462517e+2, -1072972.3, -1033664.0, -40539.246, 0.029572606, -0.21439064, -1008265.75, 24385.984, 0.0, 9.999627, 10.000147 
4.9497935e+2, 2.0462528e+2, -985275.56, -988432.6, -41666.402, 0.020450322, -0.19717592, -945157.8, -10505.692, 0.0, 9.999762, 9.99972 
4.9499354e+2, 2.1462508e+2, -867375.3, -881699.4, -40760.008, 0.0049321973, -0.18715076, -833152.9, 3503.0547, 0.0, 9.999902, 9.999712 
4.9500775e+2, 2.2462478e+2, -762666.3, -802273.3, -49205.887, 0.0021330542, -0.17622517, -729428.3, 9231.952, 0.0, 10.000042, 9.9995165 
4.9502197e+2, 2.346244e+2, -644171.44, -694145.3, -49855.086, 0.014050358, -0.16514237, -613392.1, 27272.904, 0.0, 10.000182, 9.999519 
4.950361e+2, 2.4462391e+2, -547232.8, -632176.6, -49972.23, 0.017244004, -0.15021616, -524122.03, 18548.953, 0.0, 10.000328, 9.999201 
4.9505007e+2, 2.5462326e+2, -427014.97, -523632.2, -46261.01, 0.010270751, -0.13241424, -408437.1, 36241.184, 0.0, 10.000481, 9.9992 
4.9506408e+2, 2.6462233e+2, -346053.3, -501583.0, -34475.63, -0.0065523316, -0.11543549, -338753.8, 7935.538, 0.0, 10.000656, 9.998594 
4.9507812e+2, 2.7462107e+2, -219946.36, -391462.9, -34269.32, -0.035024133, -0.09955671, -213352.77, 35351.785, 0.0, 10.0008545, 9.998582 
4.9509233e+2, 2.8461984e+2, -113208.45, -313062.97, -29564.33, -0.051890384, -0.07064638, -108926.76, 41792.133, 0.0, 10.001018, 9.998368 
4.9510676e+2, 2.9461858e+2, 2375.1064, -206348.84, -29740.81, -0.054789525, -0.030504296, 6530.1235, 59262.47, 0.0, 10.001137, 9.998371 
4.951213e+2, 3.0461684e+2, 101739.836, -76055.2, -12665.435, -0.060352035, -0.06483733, 102637.54, 102637.54, 0.0, 10.001238, 9.998881 
4.9513593e+2, 3.1461588e+2, 117222.195, -61171.844, -11972.183, -0.080267444, -0.050439063, 118022.07, 118022.07, 0.0, 10.001312, 9.998948 
5.0486e+2, 1.24607965e+2, -1817579.6, -1700652.4, -4851.147, 0.034931116, -0.21817043, -1700451.5, 18369.488, 0.0, 9.999022, 10.00057 
5.0487524e+2, 1.3460846e+2, -1722745.1, -1608491.0, -14058.397, 0.017756017, -0.22079006, -1606786.6, 14027.577, 0.0, 9.999019, 10.000531 
5.048902e+2, 1.4460854e+2, -1646563.0, -1562306.1, -25457.982, -0.0056792516, -0.24651596, -1555211.4, -32399.133, 0.0, 9.999046, 10.000161 
5.0490546e+2, 1.5460864e+2, -1539936.6, -1460892.3, -22577.957, 0.0060045547, -0.25114104, -1454897.8, -30086.523, 0.0, 9.999109, 10.0001545 
5.0492054e+2, 1.6460876e+2, -1429700.5, -1358002.4, -33072.625, 0.01891737, -0.2517531, -1345077.0, -18266.61, 0.0, 9.999197, 10.000145 
5.049355e+2, 1.7460895e+2, -1313979.6, -1250550.3, -34405.387, 0.03321265, -0.24857686, -1235472.3, -6662.912, 0.0, 9.999315, 10.000154 
5.049502e+2, 1.8460923e+2, -1197185.9, -1144960.8, -45964.57, 0.03744428, -0.23275435, -1118209.3, 12598.244, 0.0, 9.99945, 10.00014 
5.0496465e+2, 1.9460967e+2, -1076017.8, -1034872.2, -46326.137, 0.030050756, -0.20349035, -1004756.2, 28048.254, 0.0, 9.999605, 10.000149 
5.049791e+2, 2.046098e+2, -988265.25, -984697.2, -48384.234, 0.019570937, -0.18565682, -938064.1, -3259.526, 0.0, 9.99972, 9.999765 
5.049934e+2, 2.1460958e+2, -881075.1, -882994.06, -45645.586, 0.005565982, -0.18241987, -836378.94, 429.35046, 0.0, 9.999785, 9.999759 
5.0500774e+2, 2.2460929e+2, -782383.6, -810153.5, -50473.31, 0.0035648816, -0.17510022, -743920.25, -5107.6914, 0.0, 9.9999, 9.999531 
5.050221e+2, 2.3460892e+2, -659447.7, -700098.8, -49736.527, 0.015510995, -0.16388315, -626043.8, 14773.483, 0.0, 10.000072, 9.999531 
5.0503635e+2, 2.4460848e+2, -555728.4, -628455.94, -50343.89, 0.018304767, -0.14729819, -529988.8, 12834.001, 0.0, 10.0002365, 9.99927 
5.050505e+2, 2.5460795e+2, -434743.4, -519404.72, -49337.25, 0.010370587, -0.12600805, -412066.0, 32762.959, 0.0, 10.000394, 9.99927 
5.0506467e+2, 2.6460707e+2, -364347.34, -507323.16, -38868.02, -0.007092586, -0.10723345, -354464.22, -7624.847, 0.0, 10.000517, 9.998621 
5.0507885e+2, 2.7460584e+2, -255485.28, -405914.22, -37229.945, -0.035927907, -0.091546774, -246775.47, 2079.0046, 0.0, 10.0006, 9.998605 
5.0509316e+2, 2.846046e+2, -154817.4, -332959.53, -31332.309, -0.053567503, -0.06261878, -149467.23, 1401.6929, 0.0, 10.000731, 9.998369 
5.051077e+2, 2.9460338e+2, -29504.424, -221823.86, -31737.0, -0.05762046, -0.022186562, -24402.459, 28480.33, 0.0, 10.000919, 9.998369 
5.051224e+2, 3.0460173e+2, 87241.47, -74905.11, -17379.027, -0.06381659, -0.0533438, 89083.25, 89083.25, 0.0, 10.001103, 9.998954 
5.051372e+2, 3.1460086e+2, 117509.1, -52715.33, -19942.674, -0.08365736, -0.034167193, 119814.27, 119814.27, 0.0, 10.001279, 9.999022 
5.1485896e+2, 1.24592245e+2, -1821788.1, -1709525.1, -4702.246, 0.03005813, -0.21893509, -1709328.5, 9646.382, 0.0, 9.999022, 10.000509 
5.148742e+2, 1.345928e+2, -1727530.0, -1618471.1, -14320.044, 0.018080467, -0.20919669, -1616622.1, 4346.182, 0.0, 9.999019, 10.0004635 
5.148893e+2, 1.4459287e+2, -1641898.1, -1552615.3, -23339.697, -0.004445614, -0.23614186, -1546882.1, -23915.39, 0.0, 9.999046, 10.000228 
5.149046e+2, 1.545929e+2, -1534923.1, -1450465.3, -20316.82, 0.009863269, -0.2550245, -1445832.1, -20866.498, 0.0, 9.999108, 10.000226 
5.1491976e+2, 1.6459298e+2, -1432186.0, -1363132.3, -28815.69, 0.022281142, -0.26069102, -1352687.5, -25722.71, 0.0, 9.999197, 10.000111 
5.1493484e+2, 1.7459318e+2, -1316721.8, -1256243.9, -30081.73, 0.032433476, -0.25165987, -1243829.5, -14865.662, 0.0, 9.999314, 10.000114 
5.149496e+2, 1.8459353e+2, -1197850.5, -1146356.4, -40266.03, 0.03477884, -0.2281227, -1124309.4, 6652.435, 0.0, 9.99945, 10.000131 
5.149642e+2, 1.9459406e+2, -1076546.1, -1036068.6, -40557.473, 0.028016258, -0.18897069, -1010980.6, 21977.805, 0.0, 9.999605, 10.00014 
5.1497877e+2, 2.0459422e+2, -983306.9, -974529.4, -45829.19, 0.020066021, -0.16947895, -932879.25, 2078.8965, 0.0, 9.99972, 9.999835 
5.1499325e+2, 2.14594e+2, -875907.3, -872429.8, -43205.4, 0.010847557, -0.17424795, -830928.2, 6033.2534, 0.0, 9.999786, 9.999831 
5.150077e+2, 2.2459368e+2, -780081.1, -805491.9, -44202.902, 0.009857165, -0.17389469, -746793.9, -7828.2295, 0.0, 9.999901, 9.999563 
5.150222e+2, 2.345933e+2, -657351.1, -695805.5, -43300.94, 0.018483141, -0.16840263, -629200.5, 11770.159, 0.0, 10.000072, 9.99956 
5.1503664e+2, 2.445929e+2, -553267.75, -623336.56, -44381.527, 0.019081576, -0.15022676, -531759.0, 11216.782, 0.0, 10.000236, 9.999306 
5.150509e+2, 2.545925e+2, -432394.06, -514416.7, -43382.117, 0.010207449, -0.11872309, -413706.7, 31274.08, 0.0, 10.000393, 9.999305 
5.150652e+2, 2.6459172e+2, -361427.0, -501099.1, -35661.258, -0.007932819, -0.09548779, -352848.75, -5858.343, 0.0, 10.000516, 9.998664 
5.150794e+2, 2.7459052e+2, -252658.13, -399851.8, -34128.266, -0.03722593, -0.082108036, -245130.16, 3875.1506, 0.0, 10.000599, 9.998647 
5.1509386e+2, 2.8458926e+2, -155211.94, -333466.2, -24374.72, -0.055243265, -0.056205615, -151939.0, -918.9927, 0.0, 10.00073, 9.998366 
5.1510864e+2, 2.9458797e+2, -30200.232, -222759.52, -24567.871, -0.059502564, -0.019616375, -27115.143, 25919.46, 0.0, 10.0009165, 9.998364 
5.151235e+2, 3.0458635e+2, 88870.99, -70939.945, -10579.444, -0.06775816, -0.046624035, 89568.31, 89568.31, 0.0, 10.001101, 9.998982 
5.151384e+2, 3.1458566e+2, 119219.44, -48638.863, -13042.675, -0.0915635, -0.015287176, 120226.81, 120226.81, 0.0, 10.001276, 9.999051 
5.2485806e+2, 1.245765e+2, -1825608.9, -1719420.4, -4141.1, 0.037061125, -0.22119951, -1719259.1, -130.21677, 0.0, 9.999031, 10.000437 
5.248733e+2, 1.3457704e+2, -1729231.4, -1628406.8, -15138.897, 0.024404343, -0.20532142, -1626182.6, -5059.4155, 0.0, 9.999046, 10.000381 
5.248884e+2, 1.445771e+2, -1628941.4, -1540784.6, -22294.922, -0.002790839, -0.22988325, -1535467.0, -12345.123, 0.0, 9.999111, 10.0002775 
5.249038e+2, 1.5457718e+2, -1513111.1, -1433910.6, -20537.744, 0.008926925, -0.24891102, -1428901.8, -3781.8164, 0.0, 9.999232, 10.00028 
5.2491903e+2, 1.6457728e+2, -1414238.9, -1357019.4, -29278.79, 0.020977315, -0.25680983, -1344693.0, -17574.219, 0.0, 9.999331, 10.000088 
5.249342e+2, 1.7457741e+2, -1305881.0, -1254007.0, -29717.9, 0.03343798, -0.2524317, -1240499.3, -11380.711, 0.0, 9.999402, 10.000088 
5.249491e+2, 1.8457772e+2, -1197623.3, -1150516.9, -40022.656, 0.037527066, -0.22857511, -1127631.3, 3485.8442, 0.0, 9.99947, 10.0000925 
5.2496386e+2, 1.9457826e+2, -1089774.5, -1046780.25, -42714.785, 0.031735215, -0.1831305, -1020458.2, 12655.664, 0.0, 9.999534, 10.000101 
5.2497846e+2, 2.0457846e+2, -996115.75, -975367.75, -51215.758, 0.022941878, -0.16064003, -933485.94, 1627.4988, 0.0, 9.999609, 9.999883 
5.2499294e+2, 2.1457829e+2, -885040.2, -871137.4, -50387.727, 0.01071186, -0.16637103, -827223.8, 9892.331, 0.0, 9.999699, 9.999882 
5.250075e+2, 2.2457802e+2, -788406.25, -802879.2, -48423.902, 0.008005483, -0.16776718, -746681.06, -7561.258, 0.0, 9.999815, 9.999621 
5.2502215e+2, 2.3457766e+2, -669139.94, -694863.44, -45293.94, 0.016568864, -0.16494963, -634917.06, 6207.363, 0.0, 9.999962, 9.9996195 
5.2503675e+2, 2.4457729e+2, -572522.44, -631231.44, -46785.816, 0.018048443, -0.14742781, -546644.7, -3515.5012, 0.0, 10.000098, 9.999318 
5.2505124e+2, 2.5457692e+2, -456915.03, -525140.9, -47795.32, 0.01110545, -0.114126205, -432307.6, 12826.525, 0.0, 10.00022, 9.999314 
5.250656e+2, 2.6457617e+2, -386109.03, -510310.9, -43471.77, -0.007297375, -0.0885822, -372405.47, -25261.928, 0.0, 10.000336, 9.998688 
5.250799e+2, 2.7457502e+2, -273963.7, -407508.75, -43510.64, -0.039540064, -0.07231869, -261038.38, -11880.348, 0.0, 10.000442, 9.99867 
5.250945e+2, 2.845738e+2, -176429.72, -338595.13, -30468.557, -0.058739107, -0.04638583, -170894.08, -19721.629, 0.0, 10.000563, 9.998412 
5.2510935e+2, 2.9457253e+2, -58592.293, -231325.2, -26894.775, -0.062022094, -0.013169861, -54501.613, -1314.7516, 0.0, 10.0007, 9.998409 
5.2512443e+2, 3.0457097e+2, 59226.79, -80661.37, -9375.7295, -0.06975775, -0.039127223, 59852.38, 59852.38, 0.0, 10.000877, 9.999023 
5.251395e+2, 3.1457037e+2, 96094.54, -55210.063, -11101.135, -0.09310047, -0.002235456, 96904.69, 96904.69, 0.0, 10.001098, 9.999092 
5.348572e+2, 1.24560736e+2, -1831895.0, -1732178.3, -3295.2283, 0.05603832, -0.2256, -1732069.5, -12786.548, 0.0, 9.999029, 10.00035 
5.348725e+2, 1.3456118e+2, -1736039.3, -1642424.6, -14681.938, 0.03695874, -0.20939408, -1640176.0, -18897.146, 0.0, 9.999045, 10.000285 
5.3488743e+2, 1.4456128e+2, -1626901.4, -1536575.5, -18037.479, -0.00075470994, -0.22785826, -1533106.8, -9829.115, 0.0, 9.999111, 10.000307 
5.349029e+2, 1.5456153e+2, -1510595.3, -1428886.8, -16092.012, 0.0029769568, -0.2323909, -1425831.8, -557.86914, 0.0, 9.999233, 10.000315 
5.3491825e+2, 1.6456164e+2, -1415011.0, -1358893.1, -26681.799, 0.014786405, -0.23958448, -1348232.3, -20959.762, 0.0, 9.999332, 10.000074 
5.3493357e+2, 1.745616e+2, -1306920.5, -1256359.8, -27178.12, 0.036207385, -0.25073734, -1244522.1, -15248.598, 0.0, 9.999403, 10.000072 
5.3494865e+2, 1.845618e+2, -1202444.0, -1160632.0, -37714.684, 0.04577286, -0.23417428, -1138416.5, -7143.4336, 0.0, 9.999471, 10.000023 
5.349634e+2, 1.945623e+2, -1094783.5, -1057257.8, -40436.605, 0.041271657, -0.18608391, -1031443.0, 1827.6593, 0.0, 9.999534, 10.00003 
5.349781e+2, 2.0456253e+2, -994443.0, -971978.2, -47908.805, 0.028231082, -0.15925257, -934002.6, 1267.724, 0.0, 9.999609, 9.999906 
5.349926e+2, 2.1456243e+2, -883061.5, -867173.4, -47055.305, 0.005162709, -0.15883535, -827396.3, 9876.1045, 0.0, 9.9997, 9.999909 
5.350072e+2, 2.2456224e+2, -782405.56, -790581.7, -42988.156, -0.00199505, -0.15675987, -743311.5, -4036.4063, 0.0, 9.999815, 9.999706 
5.350221e+2, 2.3456198e+2, -663040.44, -682312.56, -39788.61, 0.00977497, -0.15362166, -631737.7, 9540.758, 0.0, 9.999962, 9.999705 
5.350368e+2, 2.4456163e+2, -573340.94, -632959.56, -42132.81, 0.015197134, -0.13895234, -551538.5, -8255.482, 0.0, 10.000098, 9.999307 
5.3505147e+2, 2.545612e+2, -458225.16, -527776.7, -43189.277, 0.013016083, -0.112117164, -437551.22, 7737.7627, 0.0, 10.00022, 9.999297 
5.350659e+2, 2.6456043e+2, -385993.1, -509913.56, -39455.87, -0.005227519, -0.086403474, -374496.97, -27198.26, 0.0, 10.000335, 9.998691 
5.350803e+2, 2.7455932e+2, -273948.53, -407273.22, -39513.99, -0.042855807, -0.062191118, -263117.5, -13804.873, 0.0, 10.000441, 9.9986725 
5.35095e+2, 2.845582e+2, -170375.38, -325758.56, -25342.176, -0.06403366, -0.03323956, -166346.66, -15020.4, 0.0, 10.000561, 9.998501 
5.3511006e+2, 2.94557e+2, -52390.43, -218113.22, -21691.8, -0.065196455, -0.002951475, -49598.188, 3741.4282, 0.0, 10.000698, 9.998501 
5.351253e+2, 3.0455548e+2, 62389.633, -73579.805, -1170.9451, -0.069985636, -0.030785564, 62399.715, 62399.715, 0.0, 10.0008745, 9.999073 
5.351407e+2, 3.1455493e+2, 98846.13, -48600.594, -2730.9983, -0.08882264, 0.0049118497, 98896.695, 98896.695, 0.0, 10.001094, 9.99914 
5.4485637e+2, 1.24545e+2, -1809524.6, -1727480.5, -3965.4072, 0.059225384, -0.22612861, -1727289.4, -7852.1626, 0.0, 9.999209, 10.000296 
5.448716e+2, 1.3454537e+2, -1720626.8, -1641890.5, -13360.036, 0.04254065, -0.21119125, -1639685.4, -18251.309, 0.0, 9.999182, 10.000223 
5.4488665e+2, 1.4454542e+2, -1618009.1, -1537173.3, -14604.341, 0.0019946136, -0.22718485, -1534615.6, -11182.367, 0.0, 9.999194, 10.000263 
5.4490215e+2, 1.5454571e+2, -1510821.8, -1433783.9, -18489.736, 0.004042509, -0.22423875, -1429576.0, -4146.494, 0.0, 9.999252, 10.000272 
5.449176e+2, 1.6454585e+2, -1414289.3, -1354872.4, -31152.75, 0.014956051, -0.2292785, -1341533.3, -14105.341, 0.0, 9.999322, 10.000107 
5.4493296e+2, 1.745458e+2, -1304573.4, -1251171.3, -27848.496, 0.036449764, -0.24460617, -1239291.4, -9862.711, 0.0, 9.999402, 10.000108 
5.449481e+2, 1.8454595e+2, -1203643.5, -1168349.4, -35893.277, 0.046269707, -0.23203525, -1145999.6, -14571.003, 0.0, 9.999494, 9.999959 
5.44963e+2, 1.9454634e+2, -1090388.0, -1062838.9, -38487.918, 0.042170335, -0.1875699, -1035734.9, -2307.383, 0.0, 9.999598, 9.99996 
5.449778e+2, 2.0454653e+2, -986982.3, -971885.75, -48412.754, 0.029481338, -0.15897998, -930436.4, 4991.366, 0.0, 9.999676, 9.999874 
5.449923e+2, 2.1454647e+2, -881706.4, -869905.56, -52012.926, 0.006711557, -0.15053785, -823459.44, 13970.097, 0.0, 9.999723, 9.999878 
5.45007e+2, 2.2454634e+2, -783227.94, -786059.56, -50065.813, -0.0018524054, -0.14472204, -734557.94, 4874.0054, 0.0, 9.999789, 9.999749 
5.4502195e+2, 2.345461e+2, -672414.56, -681618.4, -49812.93, 0.006528272, -0.14294997, -626991.4, 14443.348, 0.0, 9.999876, 9.999752 
5.450368e+2, 2.4454576e+2, -591837.2, -640150.0, -53239.242, 0.010605296, -0.12933241, -557530.4, -14091.295, 0.0, 9.999964, 9.999321 
5.450515e+2, 2.5454533e+2, -481745.53, -537647.2, -52138.03, 0.009478073, -0.10304917, -450538.75, -5093.6484, 0.0, 10.000052, 9.99931 
5.450662e+2, 2.6454458e+2, -411360.2, -521951.53, -46915.875, -0.006538544, -0.07789494, -394138.88, -46683.996, 0.0, 10.00016, 9.9986925 
5.4508066e+2, 2.745435e+2, -295988.66, -417895.5, -47212.6, -0.040573966, -0.054347754, -279842.47, -30373.55, 0.0, 10.000289, 9.998672 
5.4509544e+2, 2.8454235e+2, -185318.06, -324103.28, -32932.656, -0.061839752, -0.027037006, -177899.9, -26417.719, 0.0, 10.000421, 9.99858 
5.4511064e+2, 2.9454124e+2, -67819.875, -216311.11, -30045.139, -0.06749451, 0.00040621753, -61971.035, -8476.375, 0.0, 10.000553, 9.998583 
5.45126e+2, 3.045398e+2, 37193.758, -81424.09, -8988.022, -0.07368962, -0.02640354, 37870.94, 37870.94, 0.0, 10.000684, 9.999111 
5.451416e+2, 3.145393e+2, 60072.754, -63224.7, -11386.561, -0.08955109, 0.014367547, 61115.49, 61115.49, 0.000000000015387011, 10.00081, 9.999175 
5.548554e+2, 1.2452928e+2, -1810705.3, -1730449.4, -4684.912, 0.04501165, -0.2232207, -1730176.9, -10585.383, 0.0, 9.999211, 10.000274 
5.548708e+2, 1.345296e+2, -1722454.0, -1646014.8, -14622.097, 0.040635608, -0.21049997, -1643313.1, -21724.66, 0.0, 9.999183, 10.000195 
5.5488586e+2, 1.4452957e+2, -1626435.4, -1554776.8, -12690.663, 0.005391244, -0.22781542, -1552595.6, -29006.908, 0.0, 9.999194, 10.000142 
5.549015e+2, 1.5452974e+2, -1519692.6, -1452181.6, -16484.658, 0.012300722, -0.22468658, -1448371.5, -22784.629, 0.0, 9.999252, 10.000145 
5.549169e+2, 1.6452987e+2, -1408836.5, -1343546.0, -28330.592, 0.02169026, -0.22613233, -1332967.0, -5381.6577, 0.0, 9.999321, 10.000185 
5.549323e+2, 1.7452998e+2, -1298422.5, -1238464.4, -24953.629, 0.034100294, -0.23396127, -1229437.9, 146.1616, 0.0, 9.999402, 10.000195 
5.549475e+2, 1.8453014e+2, -1207776.0, -1177049.9, -32091.916, 0.038808648, -0.22196625, -1156833.3, -25249.582, 0.0, 9.999494, 9.999899 
5.549625e+2, 1.9453038e+2, -1095056.9, -1072711.4, -34623.508, 0.034272943, -0.18753615, -1047502.5, -13918.3545, 0.0, 9.999598, 9.999892 
5.549774e+2, 2.0453048e+2, -993076.4, -984721.75, -46581.254, 0.026588527, -0.15984944, -942130.9, -6545.3574, 0.0, 9.999677, 9.999786 
5.549921e+2, 2.1453044e+2, -887894.44, -882930.25, -50242.92, 0.015298009, -0.14150304, -835108.1, 2479.5483, 0.0, 9.999724, 9.999789 
5.550069e+2, 2.245303e+2, -783000.06, -785805.94, -46902.844, 0.00839935, -0.13167046, -737479.2, 2111.1626, 0.0, 9.999789, 9.999751 
5.5502176e+2, 2.3453003e+2, -671930.3, -680809.75, -46525.79, 0.006811029, -0.13293889, -629632.9, 11960.42, 0.0, 9.999876, 9.999758 
5.5503666e+2, 2.4452972e+2, -588952.7, -634316.7, -49903.273, 0.004292876, -0.118620895, -556818.5, -13221.206, 0.0, 9.999964, 9.999361 
5.5505145e+2, 2.545294e+2, -478867.75, -531766.06, -48802.06, 0.0005789199, -0.08710046, -449808.38, -4205.951, 0.0, 10.000052, 9.99935 
5.550663e+2, 2.6452866e+2, -411447.44, -522111.06, -42141.86, -0.011215603, -0.063175835, -397226.78, -49614.73, 0.0, 10.000159, 9.998692 
5.55081e+2, 2.7452743e+2, -296434.16, -418617.28, -42327.754, -0.032939184, -0.048647866, -283203.3, -33576.438, 0.0, 10.000288, 9.998668 
5.5509603e+2, 2.8452632e+2, -180834.42, -314415.63, -27946.447, -0.052453794, -0.02746916, -175223.44, -23583.205, 0.0, 10.000419, 9.998648 
5.5511117e+2, 2.945252e+2, -63158.617, -206114.08, -25068.76, -0.06898385, -0.0027189064, -58890.004, -5238.049, 0.0, 10.00055, 9.998654 
5.5512667e+2, 3.0452383e+2, 38602.06, -77941.945, -4232.55, -0.08075855, -0.025725035, 38755.574, 38755.574, 0.0, 10.000681, 9.999137 
5.5514234e+2, 3.145235e+2, 61345.54, -60073.613, -6616.7266, -0.09514137, 0.02619491, 61705.055, 61705.055, 0.0000000020600701, 10.000808, 9.999198 
5.648546e+2, 1.2451357e+2, -1792929.1, -1723023.1, -9581.798, 0.037600234, -0.21297544, -1721733.5, -1987.291, 0.0, 9.999338, 10.000263 
5.6487e+2, 1.3451381e+2, -1702202.6, -1638062.9, -19272.41, 0.0400108, -0.2049055, -1632717.4, -10973.899, 0.0, 9.99933, 10.000178 
5.6488514e+2, 1.4451371e+2, -1609127.4, -1552374.1, -12131.019, 0.005983545, -0.22651553, -1549889.9, -26145.53, 0.0, 9.999339, 10.000089 
5.649008e+2, 1.5451378e+2, -1506479.9, -1452021.8, -10557.579, 0.015264476, -0.22798897, -1450046.6, -24303.11, 0.0, 9.99937, 10.00009 
5.649163e+2, 1.645139e+2, -1395720.5, -1338957.0, -21920.951, 0.023452861, -0.22737266, -1331477.3, -3734.8875, 0.0, 9.999419, 10.000169 
5.649317e+2, 1.745141e+2, -1286726.3, -1234450.6, -26352.313, 0.030411111, -0.22511022, -1223472.0, 6268.3, 0.0, 9.99949, 10.00018 
5.6494695e+2, 1.8451425e+2, -1203044.4, -1182557.9, -37594.766, 0.03299, -0.20966157, -1153835.9, -22095.879, 0.0, 9.99956, 9.999829 
5.649621e+2, 1.9451436e+2, -1095543.8, -1081215.8, -40682.438, 0.030280687, -0.17968819, -1047071.4, -13329.675, 0.0, 9.99963, 9.999818 
5.6497705e+2, 2.0451437e+2, -995695.7, -993462.6, -53627.055, 0.024969177, -0.15345635, -940940.5, -5196.469, 0.0, 9.999691, 9.999719 
5.6499183e+2, 2.145143e+2, -890525.25, -891762.44, -55809.855, 0.016648991, -0.13302837, -835330.56, 2416.322, 0.0, 9.999739, 9.999721 
5.650067e+2, 2.2451411e+2, -782482.44, -785747.25, -50854.07, 0.010093612, -0.12216503, -733234.56, 6515.283, 0.0, 9.999794, 9.999749 
5.650217e+2, 2.3451385e+2, -674508.56, -681939.9, -50810.004, 0.0058069206, -0.123675324, -627278.5, 14474.295, 0.0, 9.999858, 9.999758 
5.6503654e+2, 2.4451357e+2, -595680.0, -639510.94, -56282.453, 0.0013469917, -0.10781733, -557196.75, -13439.98, 0.0, 9.999927, 9.999344 
5.6505144e+2, 2.5451323e+2, -488070.47, -538340.8, -59704.777, -0.0034350522, -0.07256265, -448425.72, -2663.835, 0.0, 9.999999, 9.9993305 
5.6506634e+2, 2.6451248e+2, -421492.3, -521678.44, -53154.414, -0.014384034, -0.0499611, -398546.3, -50774.887, 0.0, 10.000068, 9.998738 
5.6508124e+2, 2.7451125e+2, -315540.34, -422250.22, -49399.54, -0.033030637, -0.042894214, -296183.1, -46397.05, 0.0, 10.0001335, 9.998717 
5.650963e+2, 2.8451014e+2, -207186.97, -323452.75, -33204.81, -0.051966198, -0.025587171, -198372.17, -46573.055, 0.0, 10.000222, 9.99868 
5.651116e+2, 2.9450905e+2, -91627.31, -216270.3, -33169.586, -0.07083748, -0.00036780274, -83350.01, -29539.545, 0.0, 10.0003395, 9.998686 
5.651272e+2, 3.0450776e+2, 9867.602, -90079.34, -13619.11, -0.0835378, -0.020945467, 11690.153, 11690.153, 0.0, 10.000477, 9.999151 
5.65143e+2, 3.1450748e+2, 37460.24, -69977.13, -16663.102, -0.09655643, 0.035602983, 39985.273, 39985.273, 0.000000017271022, 10.000637, 9.999212 
5.7485396e+2, 1.2449785e+2, -1792660.8, -1722938.4, -9528.049, 0.036973823, -0.19535859, -1721659.8, -1758.389, 0.0, 9.99934, 10.000263 
5.7486933e+2, 1.3449803e+2, -1702249.8, -1638619.3, -19867.25, 0.04065269, -0.19411181, -1632925.6, -11026.654, 0.0, 9.999331, 10.0001745 
5.748844e+2, 1.4449786e+2, -1607853.6, -1550077.0, -11205.233, 0.0036042035, -0.22314823, -1547980.0, -24080.014, 0.0, 9.99934, 10.000104 
5.7490015e+2, 1.5449786e+2, -1505224.3, -1449673.5, -9489.832, 0.0126953125, -0.2342275, -1448097.0, -22197.426, 0.0, 9.999371, 10.000106 
5.749157e+2, 1.6449794e+2, -1403621.3, -1355558.5, -19430.068, 0.020027945, -0.2331565, -1348686.3, -20787.47, 0.0, 9.99942, 10.000055 
5.7493114e+2, 1.7449814e+2, -1295157.0, -1252135.9, -23856.691, 0.025310332, -0.21811633, -1241524.0, -11626.711, 0.0, 9.99949, 10.000058 
5.7494646e+2, 1.8449827e+2, -1208749.9, -1194578.0, -35062.09, 0.028833335, -0.19510777, -1165893.0, -33995.355, 0.0, 9.99956, 9.999746 
5.749617e+2, 1.944983e+2, -1101191.9, -1093093.1, -38146.92, 0.030226225, -0.16394573, -1058781.3, -24881.178, 0.0, 9.999631, 9.999737 
5.7497674e+2, 2.0449823e+2, -999006.5, -1000494.7, -51826.277, 0.024647234, -0.13970712, -947919.0, -12015.782, 0.0, 9.999691, 9.99967 
5.7499146e+2, 2.1449804e+2, -893725.8, -898580.56, -54042.406, 0.010760908, -0.12508813, -842056.3, -4149.205, 0.0, 9.99974, 9.999674 
5.750064e+2, 2.2449782e+2, -782856.94, -786763.9, -48483.51, 0.0032058763, -0.11621919, -736287.56, 3623.002, 0.0, 9.999795, 9.999742 
5.750215e+2, 2.3449758e+2, -674731.5, -682647.4, -48397.926, 0.0034765697, -0.115174554, -630129.94, 11783.3, 0.0, 9.999859, 9.999753 
5.750365e+2, 2.4449727e+2, -600836.0, -650432.75, -53545.617, 0.0016956916, -0.09692503, -566625.1, -22707.613, 0.0, 9.9999275, 9.999269 
5.750514e+2, 2.5449687e+2, -493576.9, -549944.3, -56948.98, -0.0026835888, -0.059401747, -458219.22, -12295.728, 0.0, 9.999999, 9.99925 
5.750663e+2, 2.6449612e+2, -414954.9, -508216.3, -50665.21, -0.016063279, -0.03820395, -392727.88, -44794.89, 0.0, 10.000069, 9.998831 
5.750812e+2, 2.7449498e+2, -308526.1, -407697.1, -46949.71, -0.04059055, -0.037074883, -289825.47, -39879.03, 0.0, 10.000133, 9.998817 
5.750964e+2, 2.8449383e+2, -207432.69, -323767.8, -28923.855, -0.060120046, -0.021460047, -200638.31, -48679.44, 0.0, 10.000221, 9.998678 
5.7511187e+2, 2.944928e+2, -92480.055, -217536.75, -28758.139, -0.073145755, 0.0072549507, -86183.805, -32213.607, 0.0, 10.000337, 9.998679 
5.751276e+2, 3.0449152e+2, 9536.354, -89945.51, -7708.584, -0.08230882, -0.01218222, 10130.127, 10130.127, 0.00000000021282408, 10.000473, 9.999154 
5.751437e+2, 3.144912e+2, 36983.79, -69831.53, -10547.258, -0.09408243, 0.042585343, 38015.293, 38015.293, 0.0000000699572, 10.000631, 9.999216 
5.848533e+2, 1.2448207e+2, -1790606.4, -1720774.0, -10084.207, 0.038078297, -0.18236437, -1719346.9, 710.2344, 0.0, 9.99935, 10.000274 
5.848687e+2, 1.3448219e+2, -1692302.9, -1632946.4, -20282.492, 0.042498212, -0.18814783, -1626677.8, -4622.8857, 0.0, 9.999396, 10.000181 
5.848838e+2, 1.44482e+2, -1593310.4, -1544617.5, -11313.463, 0.002343085, -0.2201071, -1542117.3, -18061.266, 0.0, 9.999447, 10.00009 
5.8489954e+2, 1.5448196e+2, -1486870.8, -1442567.5, -12021.629, 0.01144545, -0.2312052, -1439515.8, -13460.134, 0.0, 9.999505, 10.00009 
5.8491516e+2, 1.64482e+2, -1391196.5, -1363932.3, -22946.545, 0.017545309, -0.228134, -1350874.0, -22818.555, 0.0, 9.999567, 9.999927 
5.8493066e+2, 1.744821e+2, -1283511.5, -1261588.4, -28517.78, 0.02010155, -0.20864399, -1241998.0, -11942.673, 0.0, 9.999636, 9.999923 
5.8494604e+2, 1.8448213e+2, -1195543.6, -1194957.0, -40411.38, 0.023872629, -0.18432207, -1154837.9, -22781.08, 0.0, 9.9996805, 9.999686 
5.8496135e+2, 1.944821e+2, -1095427.5, -1096623.1, -41811.145, 0.02913374, -0.15562436, -1054209.9, -20150.25, 0.0, 9.999698, 9.99968 
5.8497643e+2, 2.0448196e+2, -995188.9, -1003882.0, -53888.234, 0.02533232, -0.1332741, -945472.2, -9408.789, 0.0, 9.999741, 9.999623 
5.849913e+2, 2.1448171e+2, -886237.4, -900160.9, -56168.746, 0.010654167, -0.11985885, -836600.6, 1467.3724, 0.0, 9.999813, 9.999627 
5.850062e+2, 2.2448148e+2, -774907.94, -787754.56, -52302.848, 0.0011981499, -0.10728143, -728635.44, 11436.26, 0.0, 9.99987, 9.999699 
5.850213e+2, 2.3448129e+2, -670633.1, -685484.9, -55177.875, -0.0018379712, -0.09657748, -622383.7, 19690.557, 0.0, 9.999908, 9.99971 
5.850364e+2, 2.4448094e+2, -599947.94, -654599.6, -60232.227, -0.0052766027, -0.07734607, -561132.9, -17053.957, 0.0, 9.999953, 9.999228 
5.850514e+2, 2.5448042e+2, -495582.47, -555604.75, -60894.32, -0.009232905, -0.04941288, -457705.56, -11619.515, 0.0, 10.000006, 9.999208 
5.850663e+2, 2.644796e+2, -415021.8, -504290.16, -55626.676, -0.021173373, -0.03335493, -388336.03, -40240.223, 0.0, 10.000051, 9.998866 
5.8508134e+2, 2.744785e+2, -312627.56, -405367.13, -56545.793, -0.043042496, -0.031918827, -285870.16, -35761.715, 0.0, 10.000086, 9.998856 
5.8509654e+2, 2.844774e+2, -223130.56, -331869.25, -40427.105, -0.06124814, -0.014377564, -209747.6, -57627.19, 0.0, 10.000115, 9.998673 
5.8511204e+2, 2.9447642e+2, -122066.94, -232616.98, -40287.074, -0.07460899, 0.01820759, -108943.305, -54811.66, 0.0, 10.000137, 9.998672 
5.8512795e+2, 3.044751e+2, -27413.963, -102654.07, -15554.96, -0.08455499, -0.002794509, -24324.984, -24324.984, 0.000000006848287, 10.000197, 9.9992 
5.851441e+2, 3.1447476e+2, -7157.6606, -85614.16, -15021.905, -0.09713845, 0.04375554, -4379.801, -4379.801, 0.00000018333391, 10.000305, 9.999265 
5.948527e+2, 1.2446621e+2, -1789201.1, -1717946.1, -7782.0376, 0.040614016, -0.17487799, -1717106.1, 3107.2793, 0.0, 9.99935, 10.000293 
5.948681e+2, 1.3446628e+2, -1690854.4, -1630171.1, -18692.885, 0.045535278, -0.18733774, -1624875.3, -2663.8093, 0.0, 9.999396, 10.0002 
5.9488326e+2, 1.4446607e+2, -1596427.9, -1551361.5, -9337.645, 0.0022193897, -0.21750629, -1549503.4, -25291.15, 0.0, 9.999448, 10.000043 
5.9489906e+2, 1.5446611e+2, -1490224.5, -1449840.0, -10007.587, 0.011518997, -0.2186223, -1447496.0, -21284.635, 0.0, 9.999506, 10.000039 
5.949147e+2, 1.6446608e+2, -1401220.3, -1385054.3, -20572.385, 0.016007597, -0.21191917, -1371033.9, -42821.8, 0.0, 9.999568, 9.999781 
5.9493023e+2, 1.7446598e+2, -1293944.9, -1283540.6, -26126.088, 0.0147636235, -0.19660023, -1262103.8, -31889.438, 0.0, 9.999637, 9.999772 
5.9494567e+2, 1.8446589e+2, -1198143.8, -1200637.1, -39789.203, 0.018054739, -0.17737158, -1159581.8, -27364.547, 0.0, 9.999681, 9.999647 
5.94961e+2, 1.9446574e+2, -1097671.8, -1101489.4, -41280.49, 0.02696267, -0.15481332, -1058256.0, -24035.441, 0.0, 9.999699, 9.999646 
5.949762e+2, 2.0446554e+2, -998355.44, -1010638.56, -51276.195, 0.026994256, -0.13425085, -952854.3, -16629.693, 0.0, 9.999741, 9.999577 
5.949911e+2, 2.1446529e+2, -889503.1, -907125.06, -53446.527, 0.016298179, -0.11737042, -844146.2, -5916.716, 0.0, 9.999814, 9.999579 
5.950061e+2, 2.2446509e+2, -780438.25, -799452.2, -50829.883, 0.0040658647, -0.095385894, -738233.94, 1999.3779, 0.0, 9.999871, 9.999619 
5.950211e+2, 2.3446499e+2, -676331.6, -697542.9, -53756.81, -0.010088753, -0.0680055, -632144.25, 10091.478, 0.0, 9.999909, 9.999627 
5.950362e+2, 2.4446459e+2, -600437.44, -655842.6, -58249.21, -0.019479912, -0.04916057, -563638.8, -19397.85, 0.0, 9.999954, 9.999219 
5.950512e+2, 2.5446385e+2, -495934.25, -556532.2, -58875.29, -0.022961488, -0.04247782, -460018.97, -13769.399, 0.0, 10.000007, 9.999202 
5.9506637e+2, 2.6446295e+2, -416419.66, -507325.78, -54210.164, -0.029699711, -0.035262033, -391128.66, -42868.74, 0.0, 10.0000515, 9.998845 
5.9508145e+2, 2.7446187e+2, -314266.7, -408737.28, -55139.85, -0.04063494, -0.027427746, -288896.34, -38624.26, 0.0, 10.000086, 9.998833 
5.9509677e+2, 2.844608e+2, -223935.64, -333356.9, -39501.31, -0.055649154, -0.004442373, -211165.86, -58882.15, 0.0, 10.000114, 9.998664 
5.951122e+2, 2.9445985e+2, -122927.93, -234099.95, -39365.27, -0.07530152, 0.032346327, -110400.586, -56105.813, 0.0, 10.000136, 9.998662 
5.9512806e+2, 3.0445853e+2, -21925.996, -90667.984, -11582.415, -0.09014762, 0.00722432, -20026.926, -20026.926, 0.000000033052434, 10.000195, 9.999284 
5.951443e+2, 3.1445813e+2, -1597.1324, -72947.734, -10819.098, -0.10546955, 0.039323717, 7.319502, 7.319502, 0.00000037488923, 10.000299, 9.999354 
6.048521e+2, 1.24450214e+2, -1766878.6, -1708568.5, -13360.594, 0.037310973, -0.1687644, -1705653.0, 14718.011, 0.0, 9.999509, 10.00028 
6.048676e+2, 1.3445029e+2, -1664380.0, -1618770.3, -27543.23, 0.043162763, -0.17991063, -1605816.4, 16552.53, 0.0, 9.999584, 10.000188 
6.048827e+2, 1.4445008e+2, -1571394.0, -1542857.1, -19763.756, -0.0013992589, -0.20747319, -1532749.5, -8379.743, 0.0, 9.999635, 10.000011 
6.0489863e+2, 1.5445009e+2, -1470537.1, -1444026.0, -19167.076, 0.011640414, -0.20727785, -1433977.4, -7608.2754, 0.0, 9.999657, 10.000006 
6.049143e+2, 1.6444999e+2, -1387321.5, -1387498.0, -25677.596, 0.017104717, -0.20109048, -1361732.0, -33361.7, 0.0, 9.999703, 9.999699 
6.049299e+2, 1.7444982e+2, -1278916.1, -1285807.9, -26246.959, 0.013380319, -0.18844378, -1255889.8, -25515.926, 0.0, 9.999781, 9.999687 
6.0494536e+2, 1.844496e+2, -1178578.9, -1197205.0, -39363.29, 0.014624794, -0.17129959, -1147441.9, -15064.363, 0.0, 9.999842, 9.999593 
6.0496074e+2, 1.944494e+2, -1074399.0, -1096150.0, -42491.273, 0.022040864, -0.15006366, -1041413.5, -7032.1646, 0.0, 9.999884, 9.999594 
6.0497594e+2, 2.0444915e+2, -980092.4, -1009652.7, -54171.492, 0.023989908, -0.12978968, -938720.94, -2334.9526, 0.0, 9.9999, 9.999507 
6.0499096e+2, 2.1444882e+2, -884271.6, -912628.5, -58252.44, 0.01939599, -0.11199745, -838496.94, -105.50895, 0.0, 9.999885, 9.999507 
6.05006e+2, 2.2444859e+2, -783458.2, -812575.2, -56921.395, 0.008244944, -0.08478854, -739263.0, 1132.9911, 0.0, 9.999901, 9.999514 
6.05021e+2, 2.3444848e+2, -676972.8, -709826.75, -61694.19, -0.011051043, -0.046825655, -629556.06, 12843.121, 0.0, 9.999956, 9.999519 
6.050361e+2, 2.4444807e+2, -591367.5, -647911.06, -65962.555, -0.025080504, -0.026707208, -547873.3, -3468.5002, 0.0, 10.000001, 9.99925 
6.0505116e+2, 2.5444725e+2, -489642.94, -549195.44, -63344.656, -0.032566316, -0.030239597, -449425.13, -3011.7668, 0.0, 10.000031, 9.999241 
6.050663e+2, 2.644463e+2, -419317.16, -509559.44, -57900.863, -0.037892178, -0.02916176, -391032.38, -42608.676, 0.0, 10.000035, 9.998837 
6.050815e+2, 2.7444518e+2, -326721.66, -416012.34, -58144.01, -0.040732253, -0.022464437, -298059.9, -47623.844, 0.0, 10.000006, 9.998821 
6.050968e+2, 2.8444412e+2, -241506.5, -341766.47, -41330.652, -0.052493665, 0.0001483848, -226665.42, -74217.71, 0.0, 9.999994, 9.998664 
6.0511225e+2, 2.9444316e+2, -142285.44, -243374.33, -40537.316, -0.07487629, 0.037518725, -128037.79, -73579.1, 0.00000000003092486, 10.000003, 9.998662 
6.051281e+2, 3.0444187e+2, -46202.57, -96138.05, -12343.837, -0.09262871, 0.009845535, -43317.87, -43317.87, 0.00000008707832, 10.000001, 9.999339 
6.051444e+2, 3.1444147e+2, -42868.824, -86244.67, -13764.397, -0.11064037, 0.035249747, -38869.695, -38869.695, 0.0000006525611, 9.999989, 9.999413 
6.148514e+2, 1.2443408e+2, -1769851.5, -1715326.6, -9983.965, 0.02761154, -0.16473044, -1713556.0, 6973.796, 0.0, 9.999511, 10.000234 
6.148671e+2, 1.3443421e+2, -1667342.1, -1625540.3, -25003.125, 0.03503318, -0.16562034, -1613852.8, 8674.605, 0.0, 9.999587, 10.00014 
6.148823e+2, 1.4443402e+2, -1572277.1, -1545240.6, -19173.768, -0.008722271, -0.1896879, -1535298.8, -10770.435, 0.0, 9.999637, 9.999994 
6.1489826e+2, 1.5443394e+2, -1471439.0, -1446304.9, -18617.37, 0.01177314, -0.19723463, -1436410.0, -9881.51, 0.0, 9.999659, 9.9999895 
6.1491406e+2, 1.6443376e+2, -1388385.0, -1390021.3, -23085.582, 0.020896843, -0.19586281, -1366103.1, -37572.816, 0.0, 9.999704, 9.999681 
6.149297e+2, 1.7443354e+2, -1280043.9, -1288451.0, -23476.242, 0.016039228, -0.18429658, -1260397.9, -29863.984, 0.0, 9.999782, 9.999668 
6.149452e+2, 1.8443331e+2, -1183310.5, -1207350.3, -37820.594, 0.013646513, -0.1661493, -1155645.6, -23107.852, 0.0, 9.999843, 9.999523 
6.1496055e+2, 1.9443308e+2, -1079388.1, -1106810.4, -40998.65, 0.014336988, -0.14132893, -1049868.6, -15326.567, 0.0, 9.999885, 9.99952 
6.1497575e+2, 2.0443274e+2, -986641.06, -1023529.4, -54711.71, 0.01625061, -0.11980812, -947348.25, -10800.809, 0.0, 9.999901, 9.999411 
6.1499083e+2, 2.144323e+2, -890967.44, -926747.25, -58856.3, 0.019908002, -0.10370084, -847342.2, -8788.279, 0.0, 9.999886, 9.999411 
6.150059e+2, 2.2443196e+2, -792523.8, -831600.7, -55011.785, 0.01368559, -0.07544719, -753683.75, -13123.987, 0.0, 9.999902, 9.999383 
6.1502105e+2, 2.3443176e+2, -686184.6, -729160.1, -59557.758, -0.0048351265, -0.032945298, -644356.94, -1792.2688, 0.0, 9.999957, 9.999387 
6.150361e+2, 2.4443133e+2, -586404.9, -637752.8, -64725.813, -0.022209248, -0.009958115, -542447.1, 2123.3848, 0.0, 10.000001, 9.99932 
6.150511e+2, 2.5443062e+2, -483930.94, -537383.4, -62157.188, -0.03813448, -0.012874875, -442997.66, 3579.754, 0.0, 10.000031, 9.999322 
6.1506623e+2, 2.644297e+2, -419072.22, -509045.66, -58812.094, -0.04576995, -0.015252922, -390013.9, -41426.645, 0.0, 10.000035, 9.998841 
6.150814e+2, 2.7442846e+2, -326875.53, -416295.38, -59154.48, -0.043270558, -0.017029975, -297435.4, -46835.06, 0.0, 10.000006, 9.998819 
6.150968e+2, 2.8442737e+2, -241049.44, -340648.94, -40957.73, -0.05175396, -0.0004142921, -226370.11, -73757.664, 0.0, 9.999992, 9.9986725 
6.1511225e+2, 2.9442638e+2, -141969.47, -242305.75, -40076.793, -0.07347663, 0.03409028, -127927.08, -73303.65, 0.0000000010306047, 10.000001, 9.998671 
6.151281e+2, 3.044251e+2, -44779.434, -92506.81, -12663.839, -0.09222601, 0.0053679347, -41627.414, -41627.414, 0.00000016756015, 9.999998, 9.999366 
6.151444e+2, 3.1442472e+2, -41602.54, -82559.04, -14030.477, -0.11291203, 0.03145939, -37257.15, -37257.15, 0.000001002472, 9.999984, 9.99944 
6.248509e+2, 1.2441786e+2, -1737886.4, -1706094.5, -11443.335, 0.017878857, -0.16283484, -1702404.0, 18285.336, 0.0, 9.999757, 10.000177 
6.248668e+2, 1.3441797e+2, -1636987.9, -1617035.9, -27947.133, 0.031876095, -0.15966654, -1597337.6, 25349.664, 0.0, 9.999822, 10.000086 
6.2488204e+2, 1.4441778e+2, -1540292.5, -1532205.1, -24335.066, -0.010351254, -0.18002021, -1511580.0, 13108.28, 0.0, 9.9998665, 9.999972 
6.24898e+2, 1.5441766e+2, -1439228.1, -1433082.4, -24202.531, 0.012707461, -0.18777925, -1411758.4, 14930.322, 0.0, 9.999889, 9.9999695 
6.249139e+2, 1.6441748e+2, -1360255.3, -1378025.8, -28063.064, 0.02349009, -0.18669753, -1339704.4, -11013.727, 0.0, 9.999905, 9.999667 
6.2492955e+2, 1.7441724e+2, -1262398.1, -1281645.1, -28211.926, 0.019152297, -0.17550066, -1242213.5, -11519.2295, 0.0, 9.99991, 9.999653 
6.249451e+2, 1.8441696e+2, -1174919.1, -1211742.0, -42438.26, 0.015979772, -0.1578444, -1147070.6, -14371.8955, 0.0, 9.999937, 9.999447 
6.249604e+2, 1.9441663e+2, -1069486.1, -1110987.1, -46184.15, 0.014260337, -0.1336396, -1039605.0, -4901.073, 0.0, 9.999991, 9.999439 
6.249757e+2, 2.0441623e+2, -968562.7, -1020580.94, -59553.44, 0.014529966, -0.1128653, -929586.5, 7123.4224, 0.0, 10.000051, 9.999359 
6.249908e+2, 2.1441573e+2, -861089.75, -917925.8, -60301.13, 0.01744934, -0.09767146, -822845.9, 15871.015, 0.0, 10.000114, 9.99936 
6.250059e+2, 2.2441533e+2, -768467.94, -831750.6, -55018.484, 0.011506191, -0.06874136, -736641.1, 4082.4194, 0.0, 10.000117, 9.999277 
6.25021e+2, 2.3441505e+2, -681431.0, -738957.4, -57856.66, -0.005500414, -0.023473494, -645582.2, -2852.471, 0.0, 10.000042, 9.999278 
6.2503606e+2, 2.4441458e+2, -587215.5, -635772.1, -63515.05, -0.022768332, 0.001031438, -543496.75, 1239.2446, 0.0, 9.999986, 9.999341 
6.250511e+2, 2.544139e+2, -493181.47, -538561.06, -64904.098, -0.04032339, -0.0021458117, -447115.4, -372.97025, 0.0, 9.999954, 9.999351 
6.2506616e+2, 2.6441297e+2, -432091.7, -511508.16, -63387.445, -0.04821284, -0.0048572384, -397002.1, -48250.332, 0.0, 9.999929, 9.998876 
6.2508136e+2, 2.744118e+2, -337894.3, -417821.06, -61294.97, -0.04422041, -0.0069582094, -304685.7, -53921.184, 0.0, 9.999914, 9.998854 
6.2509674e+2, 2.8441072e+2, -257076.61, -347637.25, -41950.742, -0.050942864, 0.008771696, -240630.34, -87853.93, 0.0, 9.99988, 9.998678 
6.251122e+2, 2.944097e+2, -167548.89, -254098.13, -41452.12, -0.07059189, 0.041727263, -150898.8, -96111.32, 0.000000004235602, 9.999824, 9.998675 
6.25128e+2, 3.0440843e+2, -76332.28, -102670.36, -14314.85, -0.08911233, 0.0110150715, -70050.4, -70050.4, 0.000000262113, 9.99976, 9.99941 
6.251442e+2, 3.1440806e+2, -81032.2, -96189.85, -14358.099, -0.11146308, 0.03379343, -72375.46, -72375.46, 0.0000013873902, 9.99969, 9.999488 
6.3485056e+2, 1.2440153e+2, -1741952.8, -1715458.0, -8387.045, 0.007838276, -0.16352423, -1713026.3, 7823.286, 0.0, 9.999761, 10.000112 
6.348666e+2, 1.3440156e+2, -1640996.0, -1626151.0, -25797.45, 0.03389638, -0.16254632, -1606729.5, 16118.988, 0.0, 9.999825, 10.000022 
6.348819e+2, 1.4440137e+2, -1541771.3, -1535960.6, -23656.377, -0.006022334, -0.17894585, -1515031.9, 9817.924, 0.0, 9.999869, 9.999946 
6.348979e+2, 1.544013e+2, -1440647.1, -1436640.8, -23591.412, 0.0144662885, -0.17899169, -1414967.6, 11882.268, 0.0, 9.999891, 9.999944 
6.3491374e+2, 1.6440116e+2, -1360811.8, -1379668.0, -28050.611, 0.024814058, -0.17347272, -1340647.1, -11795.538, 0.0, 9.999907, 9.999655 
6.349295e+2, 1.7440091e+2, -1263086.1, -1283400.6, -28203.844, 0.02269173, -0.16194303, -1243266.3, -12411.054, 0.0, 9.999911, 9.99964 
6.349451e+2, 1.8440056e+2, -1180601.9, -1223789.4, -40653.313, 0.021628026, -0.1462969, -1156163.1, -23302.992, 0.0, 9.999938, 9.999364 
6.3496053e+2, 1.9440009e+2, -1075560.9, -1123830.9, -44246.246, 0.021882448, -0.1269767, -1049295.3, -14428.414, 0.0, 9.999992, 9.9993515 
6.349758e+2, 2.043996e+2, -969073.94, -1021895.0, -57230.49, 0.018909087, -0.10898056, -932454.0, 4419.548, 0.0, 10.0000515, 9.99935 
6.349909e+2, 2.1439911e+2, -861322.6, -918643.9, -57894.18, 0.012030783, -0.093907796, -825383.2, 13497.026, 0.0, 10.000115, 9.999355 
6.350059e+2, 2.2439867e+2, -774024.1, -843468.6, -57595.215, 0.0016962002, -0.06464792, -741494.3, -607.0819, 0.0, 10.000118, 9.999197 
6.35021e+2, 2.343983e+2, -687323.1, -751393.6, -60679.75, -0.013005613, -0.018363185, -650741.4, -7847.01, 0.0, 10.000043, 9.999192 
6.35036e+2, 2.4439777e+2, -589081.7, -639851.9, -64757.934, -0.026761672, 0.0063516637, -544911.06, -9.610193, 0.0, 9.999987, 9.999312 
6.35051e+2, 2.5439706e+2, -494769.9, -542029.9, -65999.78, -0.03926663, 0.0020996009, -448297.5, -1389.1423, 0.0, 9.999954, 9.999327 
6.350661e+2, 2.643962e+2, -427758.03, -502588.3, -63880.004, -0.045377597, 0.0020837467, -391142.44, -42225.156, 0.0, 9.999929, 9.998937 
6.350813e+2, 2.7439514e+2, -333355.9, -408271.38, -61745.816, -0.04366364, 0.0075331954, -298594.34, -47665.816, 0.0, 9.999913, 9.9989195 
6.350966e+2, 2.8439415e+2, -257045.13, -347261.03, -43875.13, -0.05013261, 0.027295938, -239226.5, -86286.805, 0.0, 9.999878, 9.998682 
6.3511205e+2, 2.9439312e+2, -167910.92, -254377.66, -43409.953, -0.066340536, 0.059910223, -149878.08, -94927.16, 0.000000008608103, 9.999821, 9.998674 
6.351278e+2, 3.0439183e+2, -72588.516, -94199.836, -16737.973, -0.08348107, 0.02625945, -63471.273, -63471.273, 0.00000035003856, 9.999757, 9.99947 
6.3514394e+2, 3.143915e+2, -77220.14, -87193.25, -16690.164, -0.106666006, 0.041838437, -64787.53, -64787.53, 0.0000017531521, 9.999685, 9.999553 
6.448505e+2, 1.2438527e+2, -1692138.1, -1697669.8, -6748.95, 0.0030572524, -0.1592327, -1687610.3, 33399.266, 0.0, 10.00013, 10.000056 
6.448665e+2, 1.3438524e+2, -1608128.6, -1616031.4, -24308.883, 0.037861787, -0.15898839, -1587452.0, 35556.934, 0.0, 10.000075, 9.99997 
6.448819e+2, 1.4438501e+2, -1519446.8, -1531012.8, -22251.861, -0.0010795072, -0.17357014, -1502238.8, 22771.998, 0.0, 10.000048, 9.999893 
6.448979e+2, 1.543849e+2, -1420544.8, -1432863.1, -24267.602, 0.017610604, -0.1726707, -1401666.9, 25344.436, 0.0, 10.000055, 9.999891 
6.4491373e+2, 1.6438471e+2, -1338448.9, -1375310.0, -30836.848, 0.026030647, -0.16553837, -1320954.6, 8058.9897, 0.0, 10.000088, 9.999598 
6.449295e+2, 1.7438443e+2, -1232383.6, -1275188.0, -34536.914, 0.021725887, -0.15149674, -1213155.1, 17862.389, 0.0, 10.000151, 9.999581 
6.4494514e+2, 1.8438402e+2, -1147288.0, -1209738.1, -47234.03, 0.020589668, -0.13720039, -1121891.0, 11131.89, 0.0, 10.000175, 9.999346 
6.449606e+2, 1.9438349e+2, -1053415.3, -1114966.9, -45528.42, 0.023496049, -0.124100246, -1029236.6, 5793.4272, 0.0, 10.000153, 9.999335 
6.449759e+2, 2.0438297e+2, -958326.9, -1018571.44, -55576.35, 0.022325167, -0.1073073, -925234.56, 11802.363, 0.0, 10.0001335, 9.999333 
6.4499104e+2, 2.1438251e+2, -861936.5, -920859.1, -57231.793, 0.016161494, -0.087045364, -827028.2, 12015.151, 0.0, 10.00012, 9.999337 
6.4500606e+2, 2.2438203e+2, -780095.4, -850674.8, -58971.92, 0.0034329435, -0.057125773, -746660.6, -5610.038, 0.0, 10.000095, 9.999158 
6.4502096e+2, 2.3438159e+2, -688247.56, -756356.7, -58932.598, -0.017764432, -0.015882395, -654237.7, -11179.029, 0.0, 10.000056, 9.999152 
6.450359e+2, 2.4438104e+2, -586835.4, -640231.75, -60369.3, -0.03369742, 0.008621988, -547524.1, -2457.941, 0.0, 10.000009, 9.999299 
6.450509e+2, 2.5438038e+2, -496297.97, -544031.1, -60745.78, -0.04279431, 0.010163633, -454898.44, -7825.595, 0.0, 9.999949, 9.999315 
6.4506596e+2, 2.6437953e+2, -434737.06, -503865.06, -60180.277, -0.04589445, 0.013275604, -399901.22, -50819.664, 0.0, 9.999873, 9.998956 
6.450811e+2, 2.743785e+2, -352436.25, -415267.63, -61605.445, -0.04163079, 0.01844443, -314698.66, -63606.07, 0.0, 9.999773, 9.998939 
6.4509636e+2, 2.8437752e+2, -284342.75, -357897.47, -45455.43, -0.046698622, 0.03811639, -262649.88, -109546.34, 0.0, 9.9996805, 9.998704 
6.4511174e+2, 2.9437652e+2, -198950.44, -266855.1, -43422.184, -0.06303738, 0.07100437, -177782.48, -122667.93, 0.000000011710588, 9.999598, 9.998696 
6.451274e+2, 3.043753e+2, -104048.79, -98187.51, -15815.117, -0.08058738, 0.036117945, -85033.79, -85033.79, 0.00000040808163, 9.999493, 9.99957 
6.4514345e+2, 3.14375e+2, -117178.74, -94672.875, -12947.755, -0.104091525, 0.04749146, -88771.43, -88771.43, 0.0000020407565, 9.99936, 9.999658 
6.548506e+2, 1.24369055e+2, -1694521.9, -1704051.5, -7904.7104, 0.0037666077, -0.15016274, -1690057.0, 31111.926, 0.0, 10.000135, 10.00001 
6.5486664e+2, 1.34369e+2, -1610342.9, -1621556.4, -26625.379, 0.043860044, -0.14867955, -1588740.4, 34428.406, 0.0, 10.000079, 9.99993 
6.5488195e+2, 1.4436871e+2, -1524652.9, -1542390.3, -22307.771, 0.004470654, -0.16368389, -1509515.5, 15655.506, 0.0, 10.00005, 9.999814 
6.54898e+2, 1.5436846e+2, -1426057.9, -1444774.8, -24189.314, 0.022164732, -0.16891901, -1409479.9, 17693.229, 0.0, 10.000057, 9.999808 
6.549139e+2, 1.6436817e+2, -1345566.4, -1390515.6, -28766.02, 0.027131623, -0.16310766, -1331536.3, -2359.8894, 0.0, 10.000089, 9.999493 
6.549296e+2, 1.7436782e+2, -1239648.0, -1290728.8, -32356.342, 0.016136086, -0.14426751, -1223966.5, 7214.6763, 0.0, 10.000152, 9.999475 
6.549452e+2, 1.8436737e+2, -1143785.9, -1202905.6, -48102.605, 0.012714337, -0.13060431, -1116886.5, 16300.383, 0.0, 10.000176, 9.9993925 
6.549607e+2, 1.9436681e+2, -1049347.9, -1106833.1, -46560.68, 0.018992335, -0.12505846, -1023372.75, 11820.927, 0.0, 10.000154, 9.999391 
6.5497607e+2, 2.0436631e+2, -959946.25, -1022191.4, -56175.88, 0.024701674, -0.10788908, -926847.75, 10352.403, 0.0, 10.0001335, 9.999308 
6.5499127e+2, 2.1436591e+2, -863995.56, -925367.25, -57785.137, 0.029805813, -0.077101015, -829254.06, 9952.198, 0.0, 10.000121, 9.999307 
6.5500623e+2, 2.2436546e+2, -779923.9, -850469.2, -60407.28, 0.016711095, -0.046157505, -745245.1, -4031.4966, 0.0, 10.000095, 9.99916 
6.55021e+2, 2.3436491e+2, -688010.8, -755978.94, -60398.074, -0.019768614, -0.015970223, -652692.3, -9469.777, 0.0, 10.000056, 9.999154 
6.5503585e+2, 2.4436435e+2, -586860.5, -640343.4, -62487.402, -0.04353165, 0.007864281, -545633.0, -402.80313, 0.0, 10.000009, 9.999299 
6.5505075e+2, 2.543638e+2, -496374.2, -544176.8, -62878.016, -0.050816264, 0.021920338, -453008.0, -5771.987, 0.0, 9.999949, 9.999314 
6.550658e+2, 2.64363e+2, -436555.84, -507581.9, -63715.934, -0.049721967, 0.028624259, -399124.4, -49879.73, 0.0, 9.999872, 9.99893 
6.550809e+2, 2.7436185e+2, -354459.06, -419354.16, -65152.566, -0.03821822, 0.025922252, -314121.3, -62864.613, 0.0, 9.999772, 9.998911 
6.550961e+2, 2.8436083e+2, -281821.6, -352436.63, -48377.41, -0.040754277, 0.041512612, -257237.58, -103969.625, 0.0, 9.999679, 9.998743 
6.551114e+2, 2.943599e+2, -196313.7, -260967.61, -46194.047, -0.060657468, 0.07530215, -172258.72, -116980.3, 0.000000011654482, 9.999596, 9.998738 
6.551269e+2, 3.0435872e+2, -94922.484, -78643.39, -20398.535, -0.08034821, 0.0408335, -64820.414, -64820.414, 0.00000041978168, 9.99949, 9.999705 
6.551428e+2, 3.143586e+2, -107782.23, -74304.16, -17675.95, -0.10374079, 0.050753783, -66699.1, -66699.1, 0.0000022012798, 9.999356, 9.9998 
6.648509e+2, 1.24352746e+2, -1680681.3, -1705461.5, -14035.767, 0.014164997, -0.14145614, -1674349.3, 46980.227, 0.0, 10.000266, 9.999937 
6.648669e+2, 1.3435262e+2, -1578996.0, -1613653.9, -35854.242, 0.050024208, -0.13825184, -1556502.6, 66827.44, 0.0, 10.000325, 9.999866 
6.648822e+2, 1.4435233e+2, -1481473.3, -1524205.5, -30625.703, 0.005717226, -0.15110989, -1465497.1, 59835.52, 0.0, 10.000358, 9.999791 
6.648982e+2, 1.5435204e+2, -1384295.6, -1426956.5, -27887.127, 0.023837138, -0.15761638, -1370516.5, 56818.215, 0.0, 10.000354, 9.999787 
6.649141e+2, 1.6435167e+2, -1313738.3, -1381693.3, -27884.986, 0.029345263, -0.15499243, -1303760.8, 25577.877, 0.0, 10.000336, 9.999434 
6.649298e+2, 1.7435122e+2, -1222449.8, -1289303.6, -28037.764, 0.018911142, -0.14177728, -1212247.9, 19096.697, 0.0, 10.000299, 9.999413 
6.649454e+2, 1.8435071e+2, -1129380.4, -1194326.8, -44372.625, 0.014064705, -0.13100596, -1106867.8, 26482.926, 0.0, 10.000269, 9.999407 
6.6496086e+2, 1.9435017e+2, -1034612.7, -1097583.0, -45763.26, 0.016337847, -0.124789596, -1010549.75, 24807.19, 0.0, 10.000245, 9.99941 
6.649762e+2, 2.0434971e+2, -951372.7, -1020288.94, -57283.363, 0.021144535, -0.10481913, -918982.1, 18381.04, 0.0, 10.000202, 9.999288 
6.649914e+2, 2.1434934e+2, -863404.75, -927693.7, -58490.91, 0.029317508, -0.068476684, -828807.56, 10561.676, 0.0, 10.000136, 9.999283 
6.6500634e+2, 2.2434886e+2, -783985.6, -850157.8, -61134.77, 0.018582609, -0.038284723, -747558.06, -6181.256, 0.0, 10.000058, 9.99918 
6.65021e+2, 2.3434825e+2, -699766.6, -759088.7, -59816.176, -0.01646558, -0.01692409, -662661.25, -19275.176, 0.0, 9.999965, 9.999177 
6.650358e+2, 2.4434774e+2, -605189.2, -647746.6, -60855.086, -0.040193595, 0.008217271, -561999.9, -16606.363, 0.0, 9.999877, 9.999311 
6.650507e+2, 2.5434732e+2, -517948.03, -553214.7, -60402.586, -0.049261365, 0.036565132, -472657.53, -25259.24, 0.0, 9.999796, 9.999327 
6.650656e+2, 2.6434657e+2, -457936.53, -513840.9, -59699.297, -0.049718864, 0.046605352, -419969.6, -70563.02, 0.0, 9.999708, 9.998966 
6.650806e+2, 2.7434537e+2, -375094.34, -425205.44, -56588.355, -0.03938231, 0.0330196, -338262.72, -86843.68, 0.0, 9.999613, 9.998947 
6.650957e+2, 2.8434432e+2, -303515.2, -357127.34, -37230.555, -0.041001707, 0.041863546, -284444.47, -131014.164, 0.0, 9.999505, 9.998794 
6.651109e+2, 2.9434344e+2, -223737.94, -268429.38, -34430.727, -0.057390463, 0.07440574, -205037.27, -149597.06, 0.000000008469742, 9.999382, 9.998789 
6.651263e+2, 3.0434236e+2, -127021.33, -88035.555, -12768.089, -0.0755517, 0.041852307, -84226.15, -84226.15, 0.00000038345433, 9.999244, 9.99976 
6.65142e+2, 3.143423e+2, -143921.86, -85680.35, -16627.434, -0.099493265, 0.056505483, -81267.695, -81267.695, 0.000002213461, 9.999083, 9.999853 
6.7485136e+2, 1.2433632e+2, -1687409.5, -1720085.0, -10975.542, 0.034690954, -0.13343605, -1684065.1, 37425.965, 0.0, 10.000268, 9.999836 
6.7486733e+2, 1.3433614e+2, -1584950.3, -1626941.3, -33855.348, 0.056355696, -0.12774314, -1566108.6, 57384.227, 0.0, 10.000329, 9.999773 
6.7488253e+2, 1.4433585e+2, -1478548.0, -1519097.0, -30912.813, 0.0024176578, -0.1357803, -1461854.1, 63641.254, 0.0, 10.000361, 9.999825 
6.7489856e+2, 1.5433565e+2, -1380829.8, -1420569.4, -28275.46, 0.022456933, -0.13850097, -1366140.8, 61355.69, 0.0, 10.000357, 9.99983 
6.749144e+2, 1.6433524e+2, -1314165.5, -1383187.9, -29351.676, 0.032633986, -0.14097318, -1303371.8, 26128.541, 0.0, 10.000338, 9.999423 
6.749302e+2, 1.743346e+2, -1223324.3, -1291480.8, -29570.088, 0.030205542, -0.14413285, -1212283.6, 19223.934, 0.0, 10.000301, 9.999397 
6.749458e+2, 1.8433402e+2, -1130539.9, -1196994.6, -45386.582, 0.024820052, -0.13861483, -1107517.8, 25996.46, 0.0, 10.00027, 9.999389 
6.7496103e+2, 1.9433357e+2, -1035771.44, -1100239.6, -46777.85, 0.015563138, -0.12333979, -1011197.06, 24322.861, 0.0, 10.000246, 9.999392 
6.749762e+2, 2.0433314e+2, -952436.0, -1022769.0, -59761.133, 0.01161957, -0.09805941, -918262.2, 19263.75, 0.0, 10.000203, 9.99927 
6.749913e+2, 2.1433276e+2, -864461.3, -930154.4, -61059.61, 0.014670276, -0.061155815, -827974.06, 11558.239, 0.0, 10.000137, 9.999266 
6.750063e+2, 2.2433227e+2, -781300.94, -844773.25, -64583.273, 0.008979567, -0.033510696, -741077.5, 462.52393, 0.0, 10.000059, 9.999217 
6.7502105e+2, 2.3433164e+2, -696834.4, -753175.25, -63320.652, -0.008002265, -0.018755274, -655700.56, -12151.254, 0.0, 9.999966, 9.999218 
6.7503583e+2, 2.4433118e+2, -603453.25, -644246.4, -63883.406, -0.023893993, 0.009643919, -556789.3, -11233.141, 0.0, 9.999877, 9.999335 
6.7505056e+2, 2.5433096e+2, -516382.9, -549953.5, -63363.996, -0.038341507, 0.05403412, -467618.66, -20058.908, 0.0, 9.999795, 9.999349 
6.750653e+2, 2.643303e+2, -451513.9, -500381.1, -63118.273, -0.045968924, 0.06717627, -408265.03, -58697.703, 0.0, 9.999707, 9.999059 
6.750801e+2, 2.7432904e+2, -368478.38, -411248.88, -59993.906, -0.044963688, 0.039752293, -326172.22, -74592.5, 0.0, 9.999612, 9.999044 
6.7509514e+2, 2.8432798e+2, -299372.44, -348219.84, -41634.46, -0.047282085, 0.039280467, -275526.63, -121935.945, 0.0, 9.999504, 9.998856 
6.751103e+2, 2.943271e+2, -219867.23, -260062.45, -38804.563, -0.05333614, 0.068553865, -196264.64, -140664.61, 0.0000000040864183, 9.999381, 9.998847 
6.7512566e+2, 3.043261e+2, -128926.1, -91775.32, -18502.05, -0.06645453, 0.039330367, -84132.95, -84132.95, 0.0000003121116, 9.999242, 9.999734 
6.7514116e+2, 3.1432608e+2, -146114.22, -90278.23, -22429.385, -0.09170062, 0.06460746, -82384.33, -82384.33, 0.0000020895884, 9.999082, 9.999822 
6.848519e+2, 1.2431988e+2, -1650623.0, -1712729.6, -6109.4556, 0.045868378, -0.13132977, -1650027.6, 71624.93, 0.0, 10.0005665, 9.9997425 
6.848678e+2, 1.3431963e+2, -1560050.6, -1624202.8, -29420.816, 0.06331072, -0.12517919, -1548601.4, 75054.15, 0.0, 10.00054, 9.99969 
6.8488294e+2, 1.4431933e+2, -1458757.9, -1512284.0, -29540.883, 0.0045940983, -0.12815821, -1445659.5, 79998.81, 0.0, 10.000509, 9.9998 
6.848989e+2, 1.5431917e+2, -1365592.6, -1415480.4, -31850.355, 0.024293153, -0.12378125, -1350081.0, 77577.99, 0.0, 10.000471, 9.999809 
6.849148e+2, 1.6431877e+2, -1299422.4, -1372241.6, -34922.477, 0.03511897, -0.12618586, -1285381.6, 44281.105, 0.0, 10.0004225, 9.999457 
6.849306e+2, 1.7431808e+2, -1211959.5, -1281747.0, -31281.826, 0.03446896, -0.13841079, -1199990.4, 31679.703, 0.0, 10.000361, 9.999435 
6.849461e+2, 1.8431747e+2, -1125569.1, -1195232.5, -43937.96, 0.02906326, -0.13736571, -1104331.4, 29345.434, 0.0, 10.000307, 9.999382 
6.849614e+2, 1.9431701e+2, -1033887.0, -1100250.4, -44642.285, 0.017520268, -0.12055226, -1011445.3, 24237.158, 0.0, 10.000263, 9.999383 
6.8497646e+2, 2.043166e+2, -949023.8, -1018883.1, -56776.99, 0.010449009, -0.09433163, -917292.3, 20396.105, 0.0, 10.000217, 9.99929 
6.849915e+2, 2.1431625e+2, -858147.0, -924585.25, -55266.098, 0.0092604505, -0.05716971, -826884.75, 12809.801, 0.0, 10.00017, 9.999288 
6.8500626e+2, 2.2431578e+2, -777125.06, -839981.56, -60024.813, 0.003886629, -0.029608998, -740798.5, 903.48364, 0.0, 10.000075, 9.999241 
6.85021e+2, 2.3431516e+2, -701594.0, -752679.7, -60223.56, -0.0069704386, -0.015439045, -661720.4, -18009.342, 0.0, 9.999921, 9.999242 
6.8503565e+2, 2.4431473e+2, -616960.25, -647133.44, -60885.18, -0.018904572, 0.0133306645, -569320.4, -23602.672, 0.0, 9.999769, 9.999367 
6.850503e+2, 2.5431457e+2, -539475.7, -557384.2, -59723.586, -0.03213456, 0.059357435, -488038.8, -40317.715, 0.0, 9.999621, 9.999382 
6.8506503e+2, 2.64314e+2, -476342.06, -501706.1, -58603.99, -0.03987408, 0.0752993, -429063.6, -79335.664, 0.0, 9.999492, 9.999154 
6.8507963e+2, 2.7431288e+2, -394499.63, -412705.2, -55403.586, -0.040628675, 0.052100405, -347456.03, -95717.21, 0.0, 9.999386, 9.999143 
6.8509454e+2, 2.843119e+2, -327787.13, -355881.63, -37764.055, -0.043277673, 0.05004958, -301542.34, -147793.36, 0.0, 9.999283, 9.998909 
6.851096e+2, 2.94311e+2, -244900.63, -266547.56, -35662.82, -0.047955606, 0.07022449, -218455.02, -162696.64, 0.0000000009738006, 9.999186, 9.998897 
6.851249e+2, 3.0430996e+2, -149673.58, -103985.51, -15470.383, -0.061705887, 0.040200837, -99240.0, -99240.0, 0.00000022618863, 9.999109, 9.999714 
6.8514025e+2, 3.1431e+2, -151155.73, -95607.586, -19119.125, -0.089647695, 0.07424816, -89663.12, -89663.12, 0.0000018662819, 9.999061, 9.999795 
6.948524e+2, 1.24303415e+2, -1655836.9, -1724887.8, -6038.842, 0.046920795, -0.13581213, -1655312.8, 66501.14, 0.0, 10.000571, 9.999657 
6.948684e+2, 1.3430306e+2, -1564744.5, -1634813.8, -30556.957, 0.07080603, -0.13103382, -1553291.0, 70526.86, 0.0, 10.000544, 9.999616 
6.948835e+2, 1.4430274e+2, -1464538.1, -1524816.9, -31043.611, 0.012462883, -0.12868632, -1451409.9, 74411.57, 0.0, 10.000511, 9.999713 
6.948995e+2, 1.543026e+2, -1371514.9, -1428158.9, -33479.586, 0.02943883, -0.1136783, -1355984.6, 71837.94, 0.0, 10.000473, 9.9997225 
6.949153e+2, 1.6430224e+2, -1293713.5, -1360704.5, -37378.246, 0.036761064, -0.1106584, -1277018.5, 52807.418, 0.0, 10.000423, 9.999536 
6.949309e+2, 1.7430164e+2, -1205439.3, -1268457.3, -33788.195, 0.03151075, -0.12445993, -1190748.0, 41083.96, 0.0, 10.000361, 9.999526 
6.9494635e+2, 1.8430103e+2, -1125052.3, -1194357.3, -45719.664, 0.026596574, -0.12705818, -1102336.8, 31501.488, 0.0, 10.000307, 9.999389 
6.9496167e+2, 1.9430053e+2, -1033794.5, -1100255.9, -46395.582, 0.022189211, -0.11639006, -1009956.56, 25888.023, 0.0, 10.000264, 9.999382 
6.9497675e+2, 2.043001e+2, -944940.3, -1010640.25, -58622.42, 0.017684406, -0.093683824, -910591.25, 27259.342, 0.0, 10.000218, 9.999347 
6.9499165e+2, 2.1429981e+2, -853769.0, -915761.6, -57113.54, 0.013095964, -0.056541733, -819782.8, 20073.1, 0.0, 10.000171, 9.999349 
6.950064e+2, 2.242994e+2, -776184.0, -838239.94, -65573.445, 0.0033315045, -0.026612476, -734668.1, 7194.5654, 0.0, 10.000076, 9.999253 
6.9502085e+2, 2.3429884e+2, -700960.1, -751544.25, -66033.39, -0.013259965, -0.007053457, -655540.8, -11669.574, 0.0, 9.999922, 9.99925 
6.9503534e+2, 2.4429841e+2, -614195.44, -641548.5, -66398.22, -0.02509869, 0.019312898, -560079.9, -14201.817, 0.0, 9.999769, 9.999406 
6.9504994e+2, 2.5429818e+2, -536576.75, -551468.56, -65175.35, -0.030593269, 0.052859057, -478423.38, -30540.996, 0.0, 9.999621, 9.999422 
6.950645e+2, 2.6429766e+2, -469630.75, -487827.78, -62558.207, -0.031550094, 0.07122486, -415512.88, -65624.44, 0.0, 9.999492, 9.999249 
6.9507915e+2, 2.742969e+2, -387553.13, -398311.97, -59218.598, -0.026741566, 0.06980396, -333470.13, -81573.67, 0.0, 9.999386, 9.999242 
6.95094e+2, 2.84296e+2, -324765.2, -349567.5, -41329.164, -0.029347034, 0.0737024, -294016.75, -140111.45, 0.0, 9.999283, 9.998953 
6.951089e+2, 2.94295e+2, -242287.78, -260935.11, -39083.234, -0.041282803, 0.079123765, -211431.47, -155516.06, 0.000000000021633938, 9.999184, 9.998936 
6.95124e+2, 3.0429393e+2, -151140.9, -106660.48, -17127.986, -0.061113846, 0.044303384, -100829.445, -100829.445, 0.00000014519733, 9.999107, 9.999697 
6.951393e+2, 3.1429407e+2, -153157.47, -99172.305, -20561.139, -0.09308959, 0.0851661, -92233.19, -92233.19, 0.0000015881137, 9.999058, 9.999772 
7.0485324e+2, 1.242871e+2, -1627927.6, -1721402.9, 1682.6228, 0.054371495, -0.13494022, -1627897.4, 94076.48, 0.0, 10.000807, 9.999567 
7.048691e+2, 1.3428669e+2, -1542915.8, -1632762.0, -24294.365, 0.07616514, -0.12946016, -1536767.4, 87211.33, 0.0, 10.0007305, 9.999539 
7.048841e+2, 1.4428632e+2, -1449549.3, -1526182.4, -24775.828, 0.014063337, -0.12384282, -1442236.9, 83746.08, 0.0, 10.000652, 9.999636 
7.0489997e+2, 1.5428613e+2, -1362646.8, -1432431.9, -26517.281, 0.029409781, -0.10556111, -1353714.0, 74271.07, 0.0, 10.000571, 9.999645 
7.049157e+2, 1.6428576e+2, -1280480.1, -1351088.5, -31728.572, 0.035783708, -0.1008609, -1268317.6, 61670.938, 0.0, 10.000502, 9.999564 
7.0493126e+2, 1.7428519e+2, -1190530.6, -1257131.5, -32324.24, 0.030373147, -0.11512825, -1177422.3, 54571.707, 0.0, 10.000446, 9.999563 
7.049467e+2, 1.8428463e+2, -1112879.0, -1185823.8, -46043.77, 0.026161298, -0.11836536, -1090612.5, 43387.32, 0.0, 10.00038, 9.999412 
7.049619e+2, 1.9428411e+2, -1027412.9, -1094659.6, -45126.668, 0.023520669, -0.10845572, -1004760.6, 31245.441, 0.0, 10.000298, 9.999405 
7.04977e+2, 2.0428373e+2, -943755.5, -1003045.2, -57051.66, 0.02007741, -0.08746696, -909106.44, 28905.336, 0.0, 10.000196, 9.99941 
7.0499176e+2, 2.1428348e+2, -863561.0, -913176.4, -55345.38, 0.015669066, -0.053283002, -827717.75, 12298.77, 0.0, 10.0000725, 9.9994135 
7.0500636e+2, 2.2428311e+2, -791386.3, -838988.25, -64097.5, 0.005168153, -0.023956798, -746813.5, -4790.816, 0.0, 9.999944, 9.999311 
7.0502067e+2, 2.3428264e+2, -713132.3, -750954.75, -61071.37, -0.013405409, -0.0019380327, -668111.2, -24080.805, 0.0, 9.99981, 9.999308 
7.050351e+2, 2.4428225e+2, -626841.06, -643946.0, -59983.492, -0.024591168, 0.023699915, -574803.4, -28766.563, 0.0, 9.999667, 9.999438 
7.050495e+2, 2.5428197e+2, -550566.94, -554760.25, -59593.855, -0.025968436, 0.0524082, -493032.84, -44991.363, 0.0, 9.999511, 9.999454 
7.05064e+2, 2.6428154e+2, -481991.7, -487716.88, -57084.16, -0.024817703, 0.07334328, -427698.4, -77651.31, 0.0, 9.999381, 9.999303 
7.0507854e+2, 2.7428094e+2, -398197.88, -397262.1, -56938.992, -0.020509824, 0.08409948, -340789.06, -88735.5, 0.0, 9.999286, 9.999297 
7.0509326e+2, 2.8428015e+2, -335684.63, -347179.5, -40662.566, -0.02396561, 0.08929938, -300365.3, -146303.72, 0.0, 9.999175, 9.999022 
7.0510805e+2, 2.9427907e+2, -258128.8, -260854.03, -36380.33, -0.037283797, 0.08173694, -223085.58, -167013.7, 0.0, 9.9990425, 9.999004 
7.0512307e+2, 3.0427805e+2, -172979.5, -111459.87, -9332.578, -0.056783963, 0.04288984, -110075.266, -110075.266, 0.00000008201181, 9.998934, 9.999747 
7.051383e+2, 3.142783e+2, -179429.72, -106445.484, -7615.7847, -0.08575445, 0.08987265, -105659.26, -105659.26, 0.0000012936833, 9.998854, 9.99982 
7.148541e+2, 1.2427097e+2, -1633974.0, -1735008.3, 69.12613, 0.06850265, -0.12866554, -1633973.9, 88158.5, 0.0, 10.000811, 9.999472 
7.148698e+2, 1.342705e+2, -1548080.3, -1644262.9, -27228.242, 0.07925548, -0.12009428, -1540907.3, 83230.72, 0.0, 10.000733, 9.999459 
7.148847e+2, 1.4427006e+2, -1454089.8, -1536149.8, -27807.563, 0.009037635, -0.11337134, -1445554.4, 80588.57, 0.0, 10.000654, 9.999566 
7.1490043e+2, 1.5426977e+2, -1367211.9, -1442286.1, -29628.305, 0.023937276, -0.09952988, -1356927.8, 71218.53, 0.0, 10.000572, 9.999577 
7.149161e+2, 1.6426934e+2, -1282049.9, -1354645.8, -33897.797, 0.0320313, -0.097041905, -1268682.9, 61467.62, 0.0, 10.000503, 9.999539 
7.149318e+2, 1.7426874e+2, -1191869.6, -1260198.6, -34495.832, 0.031039244, -0.110585086, -1177483.4, 54672.492, 0.0, 10.000447, 9.999541 
7.149471e+2, 1.8426822e+2, -1109948.0, -1180014.8, -49190.516, 0.027783133, -0.111386664, -1084590.6, 49570.74, 0.0, 10.0003805, 9.999452 
7.1496224e+2, 1.9426781e+2, -1024204.4, -1088242.5, -48361.695, 0.021464834, -0.09673652, -998222.8, 37943.96, 0.0, 10.000298, 9.999449 
7.149771e+2, 2.0426746e+2, -938910.6, -993233.7, -61683.1, 0.01755221, -0.075629, -898673.7, 39498.203, 0.0, 10.000197, 9.999476 
7.149918e+2, 2.1426722e+2, -858589.56, -903117.9, -60071.375, 0.016935637, -0.047398113, -816789.2, 23387.242, 0.0, 10.000073, 9.999482 
7.1500635e+2, 2.242669e+2, -783990.9, -823868.0, -69089.81, 0.009345178, -0.021652475, -732020.1, 10161.786, 0.0, 9.999945, 9.999415 
7.150206e+2, 2.3426653e+2, -705617.44, -735537.5, -66065.85, -0.007494254, -0.000065978726, -652839.0, -8650.577, 0.0, 9.999811, 9.9994135 
7.150348e+2, 2.4426623e+2, -624936.1, -640126.94, -65754.414, -0.017482126, 0.02646028, -566339.9, -20145.78, 0.0, 9.999667, 9.999465 
7.1504915e+2, 2.54266e+2, -549147.44, -551917.4, -65392.875, -0.01832285, 0.057831954, -485124.9, -36926.324, 0.0, 9.999511, 9.999473 
7.1506345e+2, 2.6426563e+2, -481152.34, -486025.34, -60702.13, -0.01962635, 0.08153415, -422837.8, -72633.88, 0.0, 9.999381, 9.999315 
7.150778e+2, 2.7426508e+2, -397499.4, -395794.97, -60309.926, -0.021695085, 0.09513359, -336331.25, -84121.02, 0.0, 9.999286, 9.999308 
7.1509236e+2, 2.842643e+2, -329496.4, -334228.06, -45368.234, -0.026890364, 0.0971178, -286432.34, -132214.38, 0.0, 9.999174, 9.99911 
7.151071e+2, 2.9426318e+2, -251662.39, -247151.64, -41090.8, -0.035906058, 0.07830481, -208254.36, -152026.45, 0.0, 9.999041, 9.9991 
7.15122e+2, 3.0426225e+2, -165294.73, -95065.53, -12168.857, -0.048961483, 0.03620541, -93016.76, -93016.76, 0.00000004119849, 9.998931, 9.999862 
7.151373e+2, 3.142626e+2, -171889.95, -90208.32, -10306.07, -0.06839147, 0.088603824, -88928.04, -88928.04, 0.0000010048329, 9.998851, 9.999933 
7.2485507e+2, 1.2425498e+2, -1610315.4, -1736603.3, 5996.34, 0.0704191, -0.11692405, -1610031.3, 112258.5, 0.0, 10.00103, 9.999355 
7.248707e+2, 1.342544e+2, -1523025.5, -1643584.4, -24239.027, 0.080847174, -0.110766776, -1518334.6, 105962.01, 0.0, 10.000955, 9.999357 
7.2488546e+2, 1.4425388e+2, -1428205.1, -1532385.4, -26449.91, 0.008759415, -0.10255123, -1421874.5, 104428.11, 0.0, 10.00087, 9.999488 
7.2490114e+2, 1.5425354e+2, -1343334.6, -1439310.9, -29043.723, 0.022790324, -0.084974125, -1335230.0, 93076.66, 0.0, 10.000773, 9.9995 
7.249167e+2, 1.6425309e+2, -1258357.1, -1340189.8, -32395.002, 0.03115867, -0.082587995, -1247085.5, 83225.71, 0.0, 10.000652, 9.999566 
7.249322e+2, 1.7425247e+2, -1182003.5, -1251511.9, -28888.318, 0.031875633, -0.10152725, -1171564.9, 60751.383, 0.0, 10.000499, 9.999576 
7.2494745e+2, 1.8425193e+2, -1111715.4, -1177441.3, -41756.434, 0.028512903, -0.10613379, -1091441.0, 42880.5, 0.0, 10.000354, 9.999481 
7.249624e+2, 1.9425154e+2, -1033171.06, -1089193.0, -42083.043, 0.019637438, -0.092994496, -1010629.1, 25697.605, 0.0, 10.000222, 9.999478 
7.2497725e+2, 2.0425123e+2, -948988.1, -990388.2, -56493.89, 0.015279388, -0.07216191, -909521.3, 28810.113, 0.0, 10.000095, 9.999545 
7.2499186e+2, 2.1425109e+2, -867903.7, -899524.75, -54800.78, 0.017038405, -0.04248933, -826678.25, 13656.903, 0.0, 9.999974, 9.999554 
7.250063e+2, 2.2425085e+2, -794384.7, -819953.8, -65562.61, 0.012548964, -0.01615745, -740371.8, 1968.0109, 0.0, 9.999835, 9.999495 
7.250204e+2, 2.3425056e+2, -720542.94, -733760.75, -64644.098, -0.00026195476, 0.0048073092, -662170.8, -17825.37, 0.0, 9.99967, 9.999494 
7.250345e+2, 2.4425031e+2, -646229.8, -649657.06, -65998.46, -0.00939112, 0.032661434, -581922.75, -35572.184, 0.0, 9.999518, 9.999471 
7.250486e+2, 2.542501e+2, -567571.5, -560736.06, -67152.195, -0.013579779, 0.068003684, -496914.7, -48559.773, 0.0, 9.999384, 9.999473 
7.250628e+2, 2.6424974e+2, -494665.56, -487322.22, -60460.266, -0.017981805, 0.09178748, -430422.25, -80062.06, 0.0, 9.999266, 9.999361 
7.2507703e+2, 2.742492e+2, -411143.03, -396769.56, -57130.25, -0.02275222, 0.100206636, -346375.78, -94009.46, 0.0, 9.999168, 9.999357 
7.2509146e+2, 2.8424847e+2, -342623.63, -328978.1, -42448.29, -0.028208073, 0.09858676, -292807.75, -138434.27, 0.0, 9.999035, 9.999214 
7.25106e+2, 2.9424748e+2, -271445.1, -244663.5, -37523.914, -0.034336004, 0.078328505, -218212.64, -161830.5, 0.0, 9.998854, 9.999207 
7.251209e+2, 3.0424657e+2, -191323.58, -99601.17, -6894.8496, -0.043996, 0.034900874, -99085.77, -99085.77, 0.000000018939705, 9.998718, 9.999932 
7.251361e+2, 3.14247e+2, -197463.67, -95133.82, -8324.1875, -0.05910108, 0.08402607, -94461.1, -94461.1, 0.0000007295325, 9.998644, 9.999999 
7.3485595e+2, 1.2423917e+2, -1619677.3, -1756878.4, 4355.92, 0.059203815, -0.09948477, -1619539.0, 102906.805, 0.0, 10.001033, 9.999214 
7.348716e+2, 1.3423838e+2, -1531423.5, -1661851.5, -27123.951, 0.080746256, -0.101504214, -1526007.6, 98447.17, 0.0, 10.000958, 9.99923 
7.3488635e+2, 1.4423776e+2, -1434117.9, -1545408.8, -30034.725, 0.013382978, -0.09145644, -1426529.6, 99932.21, 0.0, 10.000873, 9.999397 
7.349019e+2, 1.5423748e+2, -1349098.4, -1451934.5, -32773.375, 0.026093507, -0.061608635, -1339541.8, 88924.12, 0.0, 10.000776, 9.999413 
7.3491734e+2, 1.6423701e+2, -1252674.8, -1328914.0, -38124.016, 0.033235043, -0.057132278, -1236882.0, 93588.34, 0.0, 10.000654, 9.999642 
7.3493266e+2, 1.7423636e+2, -1175528.1, -1238381.8, -34798.46, 0.032866847, -0.08782516, -1160066.0, 72408.98, 0.0, 10.0005, 9.999666 
7.349478e+2, 1.842358e+2, -1110241.1, -1174570.9, -46851.855, 0.028296702, -0.10263244, -1085575.8, 48904.434, 0.0, 10.000355, 9.999501 
7.3496264e+2, 1.9423534e+2, -1032119.7, -1087184.0, -47138.668, 0.018013844, -0.09735294, -1005061.75, 31424.152, 0.0, 10.000223, 9.999492 
7.349773e+2, 2.0423506e+2, -944058.44, -980354.56, -61112.082, 0.013244783, -0.07721474, -898456.7, 40033.61, 0.0, 10.000095, 9.999614 
7.3499185e+2, 2.1423508e+2, -862596.25, -888756.5, -59372.56, 0.015960218, -0.038614042, -814880.06, 25612.625, 0.0, 9.999975, 9.999628 
7.350061e+2, 2.2423495e+2, -790385.9, -811943.3, -71633.414, 0.0147570195, -0.007488814, -728724.75, 13771.536, 0.0, 9.999836, 9.99955 
7.350201e+2, 2.3423469e+2, -716662.8, -725955.4, -70821.28, 0.008254945, 0.012650413, -650335.56, -5834.179, 0.0, 9.999671, 9.999547 
7.3503405e+2, 2.4423449e+2, -647172.7, -651804.9, -71066.61, -0.0003364639, 0.042241536, -578384.44, -31878.23, 0.0, 9.999518, 9.999456 
7.35048e+2, 2.5423434e+2, -568941.44, -563670.1, -72064.59, -0.011688365, 0.08282175, -494193.0, -45682.418, 0.0, 9.999384, 9.999453 
7.35062e+2, 2.6423398e+2, -489236.03, -476030.06, -64104.938, -0.019837514, 0.104080476, -418188.94, -67673.1, 0.0, 9.999266, 9.999439 
7.350762e+2, 2.7423337e+2, -405202.66, -384290.2, -60605.81, -0.023730507, 0.09951402, -333245.22, -80723.24, 0.0, 9.999167, 9.999443 
7.3509043e+2, 2.842327e+2, -334710.53, -312370.47, -48865.105, -0.027998809, 0.093875535, -273415.0, -118886.79, 0.0, 9.999034, 9.999329 
7.3510486e+2, 2.942319e+2, -263299.56, -227671.02, -44145.84, -0.03259316, 0.08161184, -197880.64, -141345.9, 0.0, 9.998853, 9.999324 
7.3511964e+2, 3.0423108e+2, -189385.4, -95524.09, -9814.127, -0.04177986, 0.03875852, -94508.91, -94508.91, 0.0000000073965225, 9.998717, 9.999961 
7.351348e+2, 3.1423143e+2, -196293.11, -92497.09, -10868.343, -0.057606746, 0.07614229, -91371.3, -91371.3, 0.0000004773962, 9.998643, 10.000018 
7.4485713e+2, 1.2422339e+2, -1556214.4, -1736120.0, 467.4122, 0.05026244, -0.07954216, -1556213.1, 166388.77, 0.0, 10.001512, 9.9991255 
7.448727e+2, 1.3422246e+2, -1495661.3, -1652429.1, -28122.525, 0.080986544, -0.088288784, -1490769.0, 133842.83, 0.0, 10.001238, 9.99916 
7.4488735e+2, 1.4422174e+2, -1418809.3, -1546159.8, -26334.97, 0.01823094, -0.08124471, -1413578.3, 113041.664, 0.0, 10.001014, 9.999324 
7.449028e+2, 1.5422137e+2, -1341986.6, -1456702.0, -27906.791, 0.030787311, -0.0516105, -1335558.0, 93066.92, 0.0, 10.000861, 9.999338 
7.449181e+2, 1.6422091e+2, -1240125.6, -1316139.6, -34141.176, 0.036194768, -0.04546778, -1227043.0, 103586.31, 0.0, 10.000712, 9.999702 
7.4493325e+2, 1.7422038e+2, -1160526.3, -1223232.8, -32407.26, 0.031950608, -0.07207638, -1146787.9, 85844.875, 0.0, 10.000569, 9.999736 
7.4494815e+2, 1.8421985e+2, -1097919.6, -1160609.6, -43962.33, 0.02576737, -0.08960358, -1075272.0, 59365.14, 0.0, 10.000405, 9.999573 
7.449628e+2, 1.9421935e+2, -1028741.5, -1077626.0, -40067.227, 0.01690566, -0.09615409, -1006249.7, 30393.346, 0.0, 10.000213, 9.999562 
7.4497736e+2, 2.0421912e+2, -952191.7, -981181.6, -52681.65, 0.013093341, -0.0782216, -912047.3, 26599.748, 0.0, 10.000027, 9.999641 
7.449917e+2, 2.1421926e+2, -878899.9, -893914.2, -54737.137, 0.016157452, -0.028657565, -831157.5, 9491.017, 0.0, 9.999852, 9.999652 
7.4500585e+2, 2.242192e+2, -807653.4, -816564.2, -69667.37, 0.015732447, 0.0060028713, -742299.1, 352.51498, 0.0, 9.9997015, 9.999582 
7.4501973e+2, 2.3421893e+2, -726853.8, -727048.7, -70412.47, 0.010522132, 0.0194807, -656538.7, -11881.943, 0.0, 9.999584, 9.99958 
7.4503356e+2, 2.442187e+2, -657257.3, -655315.44, -71062.69, 0.0024794508, 0.047082275, -585217.06, -38555.56, 0.0, 9.999444, 9.999468 
7.4504733e+2, 2.542186e+2, -584703.06, -570074.5, -69922.0, -0.009291777, 0.09214923, -507085.28, -58419.703, 0.0, 9.999271, 9.999463 
7.450612e+2, 2.642183e+2, -506836.03, -476996.6, -60013.566, -0.017593857, 0.11248602, -430076.0, -79405.414, 0.0, 9.999112, 9.999506 
7.450753e+2, 2.7421767e+2, -428445.97, -387392.94, -57533.11, -0.021291152, 0.09953987, -346834.3, -94157.77, 0.0, 9.998973, 9.999516 
7.450894e+2, 2.8421703e+2, -356766.28, -314795.72, -48790.24, -0.026405832, 0.09272776, -282669.16, -127987.2, 0.0, 9.998847, 9.999401 
7.4510366e+2, 2.942164e+2, -274747.66, -224949.56, -47448.26, -0.033290405, 0.08904269, -196264.1, -139577.25, 0.0, 9.998739, 9.999397 
7.4511826e+2, 3.0421564e+2, -200479.52, -99950.28, -13577.823, -0.04310764, 0.04752503, -98148.695, -98148.695, 0.0000000015345106, 9.998638, 9.999969 
7.4513334e+2, 3.1421587e+2, -210295.86, -99188.336, -15847.77, -0.05720145, 0.073990084, -96972.1, -96972.1, 0.00000026410652, 9.998547, 10.000018 
7.5485855e+2, 1.2420766e+2, -1557640.6, -1740742.5, -8602.873, 0.043630835, -0.05722679, -1557237.3, 165520.52, 0.0, 10.001518, 9.999091 
7.54874e+2, 1.3420667e+2, -1495956.0, -1654063.4, -38638.582, 0.08155125, -0.07088578, -1487018.6, 137749.19, 0.0, 10.001242, 9.999146 
7.5488836e+2, 1.4420584e+2, -1422485.5, -1554359.6, -32491.895, 0.02324872, -0.07187291, -1414914.6, 111861.945, 0.0, 10.001016, 9.999267 
7.549037e+2, 1.5420528e+2, -1346008.3, -1465485.4, -33725.594, 0.0368725, -0.055443436, -1337145.8, 91637.68, 0.0, 10.000862, 9.999277 
7.549188e+2, 1.6420482e+2, -1237141.5, -1310315.3, -39610.41, 0.04004474, -0.04812163, -1219806.4, 110981.586, 0.0, 10.000713, 9.999742 
7.549337e+2, 1.7420453e+2, -1156897.5, -1216069.1, -37890.914, 0.029051946, -0.05431622, -1138410.0, 94379.34, 0.0, 10.000571, 9.999784 
7.549485e+2, 1.8420413e+2, -1089208.4, -1142855.1, -51192.145, 0.020818735, -0.06685346, -1058237.9, 76554.64, 0.0, 10.000406, 9.999694 
7.5496304e+2, 1.942036e+2, -1019722.06, -1059172.9, -47449.14, 0.016274592, -0.089302026, -988061.56, 48736.43, 0.0, 10.000213, 9.999689 
7.5497735e+2, 2.0420338e+2, -953131.0, -983366.1, -59362.16, 0.014826809, -0.07515111, -906991.7, 31809.93, 0.0, 10.000028, 9.999626 
7.549916e+2, 2.1420363e+2, -880729.44, -897956.1, -61356.82, 0.017614137, -0.0126188155, -827384.3, 13418.255, 0.0, 9.999853, 9.999623 
7.5500554e+2, 2.2420359e+2, -806796.44, -815073.94, -74225.055, 0.015471051, 0.024309581, -736594.9, 6210.8594, 0.0, 9.999702, 9.999592 
7.550193e+2, 2.3420319e+2, -725844.06, -725166.94, -74771.03, 0.0065965103, 0.02531193, -650733.75, -5922.152, 0.0, 9.999585, 9.999594 
7.5503296e+2, 2.4420294e+2, -654613.5, -649959.06, -77312.055, -0.0009070637, 0.04723719, -574939.25, -28122.746, 0.0, 9.999444, 9.999505 
7.550466e+2, 2.5420293e+2, -581969.0, -564464.56, -76311.76, -0.0064606452, 0.09607569, -496404.78, -47584.832, 0.0, 9.999271, 9.999502 
7.550604e+2, 2.6420262e+2, -502972.25, -469026.6, -65241.72, -0.011376252, 0.11706476, -418586.1, -67761.625, 0.0, 9.999112, 9.999561 
7.5507426e+2, 2.7420205e+2, -424424.72, -379164.03, -62606.0, -0.015559967, 0.10024855, -335223.78, -82393.72, 0.0, 9.998974, 9.999572 
7.550883e+2, 2.8420147e+2, -354527.53, -310293.34, -52788.41, -0.023505097, 0.09503117, -275176.0, -120341.17, 0.0, 9.998848, 9.999433 
7.5510234e+2, 2.9420096e+2, -272731.44, -220794.36, -51291.938, -0.036357634, 0.10048078, -189271.78, -132433.17, 0.0, 9.998739, 9.999426 
7.551168e+2, 3.0420026e+2, -201499.44, -101950.664, -16885.076, -0.047904108, 0.061002407, -99164.66, -99164.66, 0.00000000001992495, 9.998637, 9.999956 
7.551319e+2, 3.1420034e+2, -211993.11, -102268.43, -18935.777, -0.058082335, 0.07720427, -99092.51, -99092.51, 0.000000109993245, 9.998545, 9.999998 
7.648601e+2, 1.2419194e+2, -1545930.1, -1734556.3, -7858.992, 0.04109338, -0.043036055, -1545603.4, 177310.1, 0.0, 10.001596, 9.999096 
7.6487523e+2, 1.3419095e+2, -1465378.0, -1635929.9, -36002.633, 0.08114821, -0.058468617, -1458089.5, 166833.17, 0.0, 10.001438, 9.999177 
7.6488954e+2, 1.4419009e+2, -1388772.8, -1538729.1, -25175.47, 0.024981925, -0.06410975, -1384659.0, 142272.34, 0.0, 10.00125, 9.999261 
7.649047e+2, 1.5418944e+2, -1322312.5, -1454963.3, -22327.127, 0.04028445, -0.056426313, -1318655.4, 110283.66, 0.0, 10.00103, 9.9992695 
7.6491964e+2, 1.6418898e+2, -1224540.1, -1305077.4, -27684.861, 0.042790007, -0.049320165, -1215941.5, 115002.31, 0.0, 10.000804, 9.999734 
7.6493424e+2, 1.741888e+2, -1157029.6, -1216871.1, -30233.646, 0.027844276, -0.04423345, -1144414.3, 88530.414, 0.0, 10.000573, 9.999778 
7.6494884e+2, 1.8418849e+2, -1087114.8, -1131865.8, -46415.773, 0.018711783, -0.050879847, -1057962.6, 76984.336, 0.0, 10.000378, 9.999783 
7.6496327e+2, 1.9418803e+2, -1010296.8, -1043772.7, -44994.094, 0.017454293, -0.07478704, -979028.2, 57923.16, 0.0, 10.000232, 9.999785 
7.649774e+2, 2.0418786e+2, -947346.8, -982091.9, -58249.6, 0.016830998, -0.06212234, -903934.3, 35020.3, 0.0, 10.000074, 9.999612 
7.6499146e+2, 2.1418807e+2, -875351.2, -898027.8, -60095.16, 0.01707407, -0.00090906024, -825534.06, 15422.161, 0.0, 9.999902, 9.999599 
7.6500523e+2, 2.2418801e+2, -802799.44, -806807.94, -71347.0, 0.014578932, 0.033351716, -733428.56, 9530.8955, 0.0, 9.999703, 9.999649 
7.650188e+2, 2.3418762e+2, -738296.2, -724078.7, -68258.16, 0.0083583025, 0.029749952, -662560.06, -17595.395, 0.0, 9.99947, 9.999657 
7.6503235e+2, 2.4418741e+2, -680488.44, -662659.25, -69818.484, 0.0030361183, 0.05045989, -601188.56, -54219.324, 0.0, 9.999268, 9.999502 
7.650458e+2, 2.5418743e+2, -606066.9, -577002.2, -72394.27, -0.0010562312, 0.10282098, -517696.1, -68723.36, 0.0, 9.99911, 9.999494 
7.650595e+2, 2.6418716e+2, -518598.25, -474299.97, -62152.074, -0.0065073613, 0.12649113, -430468.3, -79491.234, 0.0, 9.998996, 9.99958 
7.6507324e+2, 2.741866e+2, -427620.75, -378185.7, -61912.45, -0.013919076, 0.11097659, -336239.06, -83256.71, 0.0, 9.998941, 9.999594 
7.6508707e+2, 2.8418607e+2, -353723.8, -307471.5, -55181.688, -0.023532825, 0.1062453, -270765.9, -115779.06, 0.0, 9.998843, 9.999454 
7.651011e+2, 2.9418555e+2, -279130.22, -221498.92, -54444.547, -0.0358795, 0.11114981, -188714.66, -131724.17, 0.0, 9.998685, 9.999447 
7.6511544e+2, 3.0418488e+2, -217354.84, -107904.99, -19526.281, -0.048251867, 0.07218595, -104525.76, -104525.76, 0.0, 9.998521, 9.99997 
7.651303e+2, 3.1418496e+2, -239354.2, -114202.36, -19333.324, -0.061262365, 0.08773589, -111283.83, -111283.83, 0.000000028836135, 9.998352, 10.000009 
7.748617e+2, 1.2417625e+2, -1542766.8, -1728157.6, -12734.962, 0.042799547, -0.037605286, -1541896.0, 181172.63, 0.0, 10.001597, 9.99914 
7.7487665e+2, 1.3417536e+2, -1459853.3, -1625141.1, -41954.902, 0.07970155, -0.05127819, -1449813.8, 175262.78, 0.0, 10.00144, 9.999249 
7.748907e+2, 1.4417455e+2, -1385031.8, -1531808.1, -33374.1, 0.023237664, -0.058034956, -1377799.4, 149284.75, 0.0, 10.001253, 9.999307 
7.749057e+2, 1.541739e+2, -1318839.4, -1448422.4, -30677.537, 0.040885173, -0.054462835, -1311943.8, 117147.66, 0.0, 10.001032, 9.999313 
7.749204e+2, 1.641734e+2, -1228297.1, -1313349.1, -36387.34, 0.04435169, -0.048967615, -1214854.4, 116242.125, 0.0, 10.000806, 9.999677 
7.749349e+2, 1.7417318e+2, -1161489.3, -1226442.4, -39018.26, 0.028326364, -0.041982178, -1143200.1, 89898.414, 0.0, 10.000574, 9.999712 
7.749492e+2, 1.8417293e+2, -1083196.5, -1123965.0, -52279.21, 0.019481074, -0.041891225, -1047468.06, 87632.69, 0.0, 10.000379, 9.999837 
7.749635e+2, 1.9417267e+2, -1005588.2, -1034282.44, -50621.813, 0.020456644, -0.05257909, -967319.6, 69783.44, 0.0, 10.000233, 9.99985 
7.7497756e+2, 2.0417254e+2, -948154.5, -984053.94, -64727.117, 0.01909952, -0.039009646, -898934.3, 40171.613, 0.0, 10.000075, 9.9995985 
7.7499133e+2, 2.1417256e+2, -876697.25, -901092.6, -66653.6, 0.014520471, 0.006511563, -821134.44, 19974.984, 0.0, 9.999903, 9.999578 
7.750049e+2, 2.2417247e+2, -795543.4, -792081.1, -79950.85, 0.013006579, 0.033111867, -713842.7, 29270.207, 0.0, 9.999704, 9.999749 
7.750184e+2, 2.3417222e+2, -730251.5, -707691.6, -77050.54, 0.01571941, 0.032763045, -641099.75, 4016.4355, 0.0, 9.999471, 9.999768 
7.7503175e+2, 2.4417207e+2, -683308.94, -668810.4, -75908.75, 0.014215568, 0.05670713, -599805.56, -52685.688, 0.0, 9.999269, 9.99946 
7.7504504e+2, 2.5417206e+2, -609835.75, -585147.44, -78216.914, 0.0068777143, 0.112341516, -518306.63, -69182.66, 0.0, 9.999111, 9.999437 
7.7505845e+2, 2.641718e+2, -519609.63, -476654.97, -64399.004, -0.002972872, 0.14065118, -430246.28, -79117.74, 0.0, 9.998997, 9.999564 
7.7507216e+2, 2.7417132e+2, -428511.9, -380051.06, -63772.668, -0.016294325, 0.13144071, -336060.78, -82927.27, 0.0, 9.99894, 9.999581 
7.750859e+2, 2.8417078e+2, -353104.8, -306072.84, -60603.574, -0.026484119, 0.1261565, -264582.72, -109444.59, 0.0, 9.998842, 9.999464 
7.750998e+2, 2.9417017e+2, -278355.2, -219802.75, -60113.066, -0.0320835, 0.12120476, -182215.84, -125073.305, 0.0, 9.998685, 9.999459 
7.7511394e+2, 3.041695e+2, -214624.25, -102275.64, -25633.107, -0.04439108, 0.08122382, -96703.62, -96703.62, 0.0, 9.998521, 10.00001 
7.751286e+2, 3.1416973e+2, -236544.66, -108581.664, -25252.889, -0.06679771, 0.10493521, -103778.42, -103778.42, 0.0000000029769756, 9.998352, 10.000048 
7.848633e+2, 1.2416087e+2, -1516269.5, -1714530.8, 6431.739, 0.035561748, -0.03181314, -1516061.1, 207159.1, 0.0, 10.001776, 9.999146 
7.8487813e+2, 1.3416e+2, -1437582.3, -1610550.0, -26837.512, 0.07615778, -0.045482192, -1433513.9, 191713.56, 0.0, 10.001576, 9.999284 
7.84892e+2, 1.4415921e+2, -1367301.1, -1524069.9, -22753.813, 0.02234598, -0.0533949, -1364065.3, 163169.48, 0.0, 10.001379, 9.999299 
7.8490674e+2, 1.5415852e+2, -1296945.4, -1439105.8, -24289.434, 0.03923617, -0.050627865, -1292909.9, 136332.28, 0.0, 10.001188, 9.999302 
7.849213e+2, 1.6415802e+2, -1203696.9, -1304557.3, -31786.998, 0.04170732, -0.045643363, -1194514.8, 136732.72, 0.0, 10.000988, 9.999649 
7.849355e+2, 1.7415777e+2, -1133965.3, -1216334.0, -31656.871, 0.0242807, -0.038782787, -1123204.4, 110045.914, 0.0, 10.000777, 9.999683 
7.8494966e+2, 1.8415758e+2, -1056645.6, -1105957.4, -43302.133, 0.016384926, -0.034970786, -1031471.94, 103780.33, 0.0, 10.000539, 9.999884 
7.849637e+2, 1.9415745e+2, -997539.3, -1024401.25, -42558.88, 0.021633146, -0.036685783, -966342.4, 70910.8, 0.0, 10.000262, 9.999904 
7.849776e+2, 2.0415735e+2, -956955.75, -987171.8, -55771.297, 0.023049088, -0.023273231, -914282.4, 24973.328, 0.0, 10.0000105, 9.999608 
7.849912e+2, 2.1415725e+2, -892250.25, -907921.0, -55767.81, 0.019133464, 0.009690287, -843770.06, -2509.7703, 0.0, 9.999793, 9.999584 
7.850046e+2, 2.2415717e+2, -807461.0, -793878.1, -70131.82, 0.018242773, 0.034315407, -730209.7, 13054.068, 0.0, 9.999606, 9.999784 
7.850179e+2, 2.3415709e+2, -729191.44, -702884.8, -72871.92, 0.021478245, 0.046531215, -641988.6, 3276.8005, 0.0, 9.999459, 9.999806 
7.850311e+2, 2.4415697e+2, -677848.06, -671372.56, -73029.39, 0.018950822, 0.07356444, -601509.2, -54240.402, 0.0, 9.999329, 9.999413 
7.850442e+2, 2.541568e+2, -597978.25, -585592.6, -75199.56, 0.008475094, 0.11919473, -516331.3, -67056.92, 0.0, 9.999219, 9.999382 
7.850575e+2, 2.641565e+2, -510847.1, -475035.13, -61669.355, -0.0033788714, 0.14564939, -428724.8, -77445.16, 0.0, 9.999068, 9.99954 
7.85071e+2, 2.7415606e+2, -441769.47, -388735.34, -61713.723, -0.017117908, 0.14579052, -348082.94, -94798.734, 0.0, 9.99886, 9.99956 
7.8508466e+2, 2.8415555e+2, -372766.3, -310927.63, -58183.297, -0.02665301, 0.1435286, -275958.4, -120669.84, 0.0, 9.998688, 9.999505 
7.850984e+2, 2.9415494e+2, -292533.13, -221388.61, -55294.11, -0.030124225, 0.13288784, -191212.67, -133919.72, 0.0, 9.998565, 9.999506 
7.8511244e+2, 3.041543e+2, -220816.9, -99230.72, -18904.557, -0.0445088, 0.090376504, -96359.2, -96359.2, 0.0, 9.998453, 10.000063 
7.851268e+2, 3.1415457e+2, -232384.78, -100771.53, -17503.674, -0.075047195, 0.11299643, -98483.44, -98483.44, 0.0, 9.998356, 10.000099 
7.948649e+2, 1.2414585e+2, -1518238.1, -1719117.9, 87.8382, 0.018645493, -0.025779575, -1518238.1, 205129.73, 0.0, 10.001778, 9.999115 
7.948796e+2, 1.3414496e+2, -1437860.6, -1611629.3, -34245.47, 0.07033655, -0.041098036, -1431355.3, 194019.86, 0.0, 10.001578, 9.999276 
7.9489344e+2, 1.441441e+2, -1371527.9, -1533370.3, -29977.152, 0.022311874, -0.050232463, -1366153.9, 161229.1, 0.0, 10.001381, 9.999234 
7.949079e+2, 1.541434e+2, -1301468.4, -1449118.8, -31510.07, 0.035215463, -0.04484547, -1295025.0, 134365.89, 0.0, 10.00119, 9.999232 
7.949222e+2, 1.6414285e+2, -1203226.0, -1304220.0, -39761.773, 0.03468457, -0.039233062, -1189450.5, 141946.3, 0.0, 10.000991, 9.99965 
7.949362e+2, 1.741426e+2, -1132960.1, -1214863.6, -39682.598, 0.015567608, -0.03459869, -1116887.8, 116511.99, 0.0, 10.00078, 9.999693 
7.9495007e+2, 1.8414241e+2, -1053751.9, -1100450.8, -53622.914, 0.009314055, -0.030140815, -1018615.3, 116786.16, 0.0, 10.000541, 9.999921 
7.94964e+2, 1.9414239e+2, -994482.2, -1018404.25, -53125.156, 0.02093793, -0.027174346, -951988.2, 85413.38, 0.0, 10.000263, 9.999945 
7.9497766e+2, 2.041423e+2, -954606.44, -982553.3, -64176.676, 0.028661733, -0.01498937, -902899.56, 36504.277, 0.0, 10.0000105, 9.9996395 
7.949911e+2, 2.1414214e+2, -889965.1, -903431.0, -63980.516, 0.030891407, 0.008601052, -832364.25, 9044.624, 0.0, 9.999794, 9.999615 
7.950043e+2, 2.2414209e+2, -809488.25, -798376.94, -75850.69, 0.030288994, 0.036927097, -727878.75, 15533.349, 0.0, 9.999607, 9.999753 
7.9501736e+2, 2.341422e+2, -731572.25, -708126.94, -78341.95, 0.025675304, 0.070940144, -640635.44, 4777.115, 0.0, 9.99946, 9.99977 
7.950304e+2, 2.4414206e+2, -681456.44, -679131.1, -77192.62, 0.017302724, 0.100965105, -603092.44, -55676.242, 0.0, 9.99933, 9.999359 
7.950434e+2, 2.5414163e+2, -601784.7, -593664.3, -79186.72, 0.0038073468, 0.12352114, -518433.75, -69009.72, 0.0, 9.99922, 9.999327 
7.950565e+2, 2.641412e+2, -513066.88, -479783.63, -69043.22, -0.0077035036, 0.14172488, -425404.75, -73974.3, 0.0, 9.999068, 9.999508 
7.950699e+2, 2.7414083e+2, -443800.94, -393098.75, -69323.65, -0.016492039, 0.15422286, -344636.25, -91201.71, 0.0, 9.99886, 9.999531 
7.950834e+2, 2.841404e+2, -367916.78, -300974.7, -62775.75, -0.024163056, 0.158483, -263304.28, -107865.984, 0.0, 9.998688, 9.999574 
7.95097e+2, 2.9413986e+2, -287040.6, -210061.08, -59582.848, -0.029990692, 0.14618598, -177617.23, -120175.31, 0.0, 9.998565, 9.999583 
7.951108e+2, 3.0413926e+2, -216313.56, -89766.26, -22339.93, -0.04851521, 0.09974735, -85938.29, -85938.29, 0.0, 9.998452, 10.000129 
7.9512507e+2, 3.141395e+2, -228446.1, -91933.42, -20645.836, -0.08602817, 0.11198456, -88879.32, -88879.32, 0.0, 9.998353, 10.000161 
8.048667e+2, 1.2413106e+2, -1492822.0, -1713461.9, 11703.313, 0.011787859, -0.020804342, -1492203.0, 231310.13, 0.0, 10.001981, 9.999055 
8.048812e+2, 1.341301e+2, -1414982.4, -1604598.8, -25743.535, 0.0633502, -0.037181098, -1411549.5, 213971.4, 0.0, 10.001753, 9.99924 
8.048948e+2, 1.4412922e+2, -1352254.6, -1527264.5, -21178.764, 0.017354988, -0.04797555, -1349728.1, 177801.03, 0.0, 10.001527, 9.999206 
8.049091e+2, 1.5412848e+2, -1286584.5, -1445005.5, -19434.168, 0.0319614, -0.0413317, -1284235.4, 145301.98, 0.0, 10.001306, 9.999205 
8.049232e+2, 1.6412793e+2, -1192132.1, -1300217.5, -27216.955, 0.033464346, -0.035817582, -1185665.5, 145877.94, 0.0, 10.001073, 9.999639 
8.0493695e+2, 1.7412764e+2, -1127283.5, -1213197.3, -28616.93, 0.01668817, -0.033167362, -1118624.3, 114922.42, 0.0, 10.000823, 9.999682 
8.0495065e+2, 1.8412746e+2, -1047871.1, -1096105.1, -45290.047, 0.011159674, -0.026911378, -1020677.1, 114871.266, 0.0, 10.000575, 9.999934 
8.049643e+2, 1.9412753e+2, -984055.1, -1011595.94, -46817.938, 0.02131421, -0.016872402, -949024.44, 88523.54, 0.0, 10.000327, 9.999961 
8.049777e+2, 2.0412748e+2, -940592.44, -973081.4, -57504.71, 0.028575066, -0.0035898376, -897081.8, 42468.14, 0.0, 10.000095, 9.999663 
8.049909e+2, 2.1412727e+2, -874895.25, -893453.6, -57751.883, 0.031761456, 0.012801163, -825681.8, 15873.222, 0.0, 9.999886, 9.999639 
8.05004e+2, 2.2412722e+2, -800189.6, -801456.3, -68917.26, 0.03141753, 0.04194088, -731902.8, 11655.574, 0.0, 9.999703, 9.999685 
8.050169e+2, 2.3412737e+2, -722740.75, -712400.56, -74334.52, 0.02611287, 0.08797957, -643056.56, 2502.4844, 0.0, 9.999558, 9.999694 
8.0502975e+2, 2.4412721e+2, -672433.4, -674369.1, -73320.83, 0.01735665, 0.11938075, -600074.06, -52511.023, 0.0, 9.999391, 9.999363 
8.0504256e+2, 2.5412664e+2, -605345.2, -594146.0, -70556.9, 0.0038573921, 0.12845209, -528966.9, -79395.29, 0.0, 9.99919, 9.999337 
8.0505556e+2, 2.6412615e+2, -524494.94, -486854.47, -58640.12, -0.0077635567, 0.1414234, -444088.47, -92510.12, 0.0, 9.998997, 9.999494 
8.0506873e+2, 2.7412584e+2, -451753.94, -398682.44, -58079.453, -0.016861493, 0.16019303, -361363.9, -107781.59, 0.0, 9.998814, 9.999515 
8.05082e+2, 2.8412548e+2, -370974.28, -298952.06, -49945.742, -0.025106667, 0.16955443, -273389.0, -117803.26, 0.0, 9.9986515, 9.999604 
8.0509543e+2, 2.94125e+2, -291053.8, -207986.9, -49724.563, -0.031786438, 0.1606844, -184731.78, -127143.1, 0.0, 9.998521, 9.9996195 
8.051092e+2, 3.0412441e+2, -227865.78, -86975.73, -15821.164, -0.050158273, 0.11186088, -85220.95, -85220.95, 0.0, 9.998337, 10.000203 
8.0512327e+2, 3.141246e+2, -262790.16, -99930.85, -13328.31, -0.0865812, 0.11016985, -98847.28, -98847.28, 0.0, 9.998081, 10.000237 
8.148687e+2, 1.2411651e+2, -1498724.9, -1726285.6, 4073.49, 0.015444496, -0.017154124, -1498652.0, 225003.75, 0.0, 10.001983, 9.998966 
8.148829e+2, 1.3411549e+2, -1419398.6, -1614361.1, -34290.043, 0.05515541, -0.03373151, -1413543.5, 212120.86, 0.0, 10.001756, 9.999172 
8.148962e+2, 1.4411455e+2, -1351327.0, -1525898.3, -29582.396, 0.0072237253, -0.046637908, -1346450.4, 181222.9, 0.0, 10.001529, 9.999214 
8.149104e+2, 1.5411383e+2, -1285212.6, -1442694.3, -27778.129, 0.029465301, -0.040140055, -1280456.5, 149224.53, 0.0, 10.0013075, 9.99922 
8.149243e+2, 1.6411327e+2, -1193708.1, -1303956.6, -36554.83, 0.038201593, -0.035471413, -1182689.0, 148998.16, 0.0, 10.001074, 9.999612 
8.149379e+2, 1.7411292e+2, -1129122.5, -1217401.5, -38075.297, 0.027848449, -0.034558743, -1114969.4, 118721.64, 0.0, 10.000825, 9.999654 
8.1495136e+2, 1.8411276e+2, -1048560.2, -1097884.3, -54683.426, 0.022096397, -0.025329674, -1013234.75, 122458.25, 0.0, 10.000576, 9.999921 
8.149646e+2, 1.9411291e+2, -984552.2, -1012993.25, -56226.125, 0.022789788, -0.005772176, -940776.2, 96916.09, 0.0, 10.000328, 9.99995 
8.149777e+2, 2.0411289e+2, -939423.44, -971003.0, -65606.01, 0.022749716, 0.010952362, -887733.9, 51960.066, 0.0, 10.000097, 9.999678 
8.149907e+2, 2.1411265e+2, -873584.44, -891049.3, -65697.11, 0.021717794, 0.022292487, -816041.94, 25656.867, 0.0, 9.999887, 9.999655 
8.150036e+2, 2.2411254e+2, -807522.6, -816949.94, -74594.09, 0.021599555, 0.04939227, -737493.44, 6209.296, 0.0, 9.999704, 9.999578 
8.150163e+2, 2.3411259e+2, -730909.5, -729583.6, -79744.445, 0.02277021, 0.09775514, -650499.4, -4794.4233, 0.0, 9.999559, 9.999576 
8.150291e+2, 2.441124e+2, -668329.1, -666025.8, -80605.75, 0.01905672, 0.1288895, -586563.5, -38854.05, 0.0, 9.999391, 9.99942 
8.150418e+2, 2.5411186e+2, -600091.06, -583397.94, -77973.086, 0.008501809, 0.13394746, -513325.94, -63608.91, 0.0, 9.99919, 9.999411 
8.1505454e+2, 2.641114e+2, -524217.22, -486432.22, -65472.97, -0.0036737705, 0.1447169, -437180.5, -85457.1, 0.0, 9.998998, 9.999496 
8.150675e+2, 2.741111e+2, -451947.1, -399228.7, -64801.324, -0.018241053, 0.16381729, -355630.63, -101902.93, 0.0, 9.998814, 9.999511 
8.1508064e+2, 2.8411075e+2, -371429.75, -299949.22, -54833.35, -0.029460972, 0.17687702, -270236.72, -114505.65, 0.0, 9.9986515, 9.999598 
8.1509393e+2, 2.9411036e+2, -291646.75, -209057.66, -54374.363, -0.035516065, 0.17637703, -182074.73, -124341.31, 0.0, 9.998519, 9.999613 
8.151075e+2, 3.041098e+2, -222436.2, -75407.3, -24775.602, -0.049630843, 0.12667121, -71344.66, -71344.66, 0.0, 9.998336, 10.000283 
8.151215e+2, 3.141099e+2, -256983.84, -87445.78, -22533.836, -0.0774084, 0.10732161, -84501.86, -84501.86, 0.0, 9.998078, 10.000324 
8.248707e+2, 1.241021e+2, -1465193.8, -1718117.8, 12166.532, 0.0075285397, -0.020137673, -1464609.8, 259187.06, 0.0, 10.002248, 9.998895 
8.248847e+2, 1.341011e+2, -1391952.6, -1606734.8, -25712.701, 0.04923461, -0.032770954, -1388917.4, 236888.39, 0.0, 10.001968, 9.999122 
8.248978e+2, 1.4410011e+2, -1328731.8, -1515106.5, -20715.979, 0.0059844702, -0.04574119, -1326456.9, 201358.06, 0.0, 10.001685, 9.999213 
8.249117e+2, 1.5409939e+2, -1272179.6, -1436045.5, -19751.701, 0.031840153, -0.039188135, -1269832.5, 159990.05, 0.0, 10.001395, 9.999223 
8.249254e+2, 1.6409883e+2, -1188477.4, -1302422.3, -28576.418, 0.042105258, -0.034301914, -1181712.3, 150116.42, 0.0, 10.001114, 9.999603 
8.249387e+2, 1.7409848e+2, -1126969.4, -1217420.9, -28608.262, 0.03019017, -0.032935586, -1118680.6, 115152.04, 0.0, 10.000844, 9.999644 
8.249519e+2, 1.8409832e+2, -1049694.4, -1104954.6, -45028.242, 0.023156997, -0.021782532, -1024494.9, 111340.1, 0.0, 10.000596, 9.999863 
8.2496494e+2, 1.9409843e+2, -981486.94, -1018530.25, -50494.094, 0.023117363, 0.0017859513, -946224.75, 91610.22, 0.0, 10.00038, 9.999887 
8.249778e+2, 2.040984e+2, -924944.75, -960993.94, -60213.582, 0.021725329, 0.019993996, -880115.9, 59720.848, 0.0, 10.000183, 9.999704 
8.2499063e+2, 2.1409819e+2, -852507.44, -876880.9, -58813.53, 0.018425979, 0.029276274, -804631.3, 37209.664, 0.0, 10.000014, 9.99969 
8.2500327e+2, 2.2409803e+2, -798120.9, -820085.3, -66454.08, 0.018364772, 0.053732596, -741747.7, 2097.3816, 0.0, 9.999803, 9.99951 
8.250159e+2, 2.3409797e+2, -740992.8, -743254.7, -68864.25, 0.022849921, 0.09872294, -673250.25, -27401.488, 0.0, 9.999528, 9.999496 
8.250284e+2, 2.4409774e+2, -681772.75, -671225.94, -69092.35, 0.020009046, 0.13007288, -607206.0, -59352.305, 0.0, 9.999293, 9.999432 
8.250409e+2, 2.5409728e+2, -609745.75, -585767.1, -70520.07, 0.0068278844, 0.1403663, -526224.44, -76364.03, 0.0, 9.999115, 9.999431 
8.250535e+2, 2.6409686e+2, -534679.8, -493989.84, -60935.78, -0.0063479515, 0.1551502, -450092.4, -98226.0, 0.0, 9.998937, 9.999474 
8.2506627e+2, 2.7409655e+2, -461960.63, -406955.4, -62019.99, -0.019593293, 0.17643397, -366613.53, -112742.414, 0.0, 9.998757, 9.999485 
8.250792e+2, 2.840962e+2, -382994.3, -303744.2, -52041.273, -0.030105364, 0.19078255, -277959.47, -122084.77, 0.0, 9.998565, 9.999613 
8.250924e+2, 2.940958e+2, -314665.1, -217816.34, -49676.46, -0.03629283, 0.19028619, -196867.3, -138990.33, 0.0, 9.998352, 9.999633 
8.251058e+2, 3.0409533e+2, -248057.14, -78526.34, -21997.799, -0.048273116, 0.14026041, -75718.48, -75718.48, 0.0, 9.99812, 10.000365 
8.2511944e+2, 3.1409547e+2, -282680.53, -90094.875, -20077.916, -0.071215115, 0.11673564, -88023.93, -88023.93, 0.0, 9.997861, 10.000411 
8.348727e+2, 1.2408787e+2, -1468561.4, -1725909.4, 2406.114, -0.012820727, -0.030308088, -1468538.9, 255397.33, 0.0, 10.002251, 9.99884 
8.348866e+2, 1.3408689e+2, -1393876.5, -1611439.8, -36195.836, 0.045597415, -0.034417007, -1388012.6, 237932.08, 0.0, 10.001971, 9.999088 
8.3489954e+2, 1.4408593e+2, -1329226.3, -1516708.9, -31606.719, 0.013987437, -0.0452984, -1324041.3, 203912.84, 0.0, 10.001687, 9.999202 
8.349132e+2, 1.5408519e+2, -1272571.4, -1437336.9, -30674.203, 0.03923849, -0.038479857, -1267046.1, 162915.58, 0.0, 10.001397, 9.999213 
8.3492655e+2, 1.6408464e+2, -1187706.4, -1301212.9, -38875.684, 0.045148067, -0.03229758, -1175668.3, 156299.53, 0.0, 10.001116, 9.999611 
8.3493954e+2, 1.7408434e+2, -1126065.4, -1215922.0, -38844.68, 0.023507142, -0.028234383, -1111601.3, 122370.11, 0.0, 10.000845, 9.999654 
8.349525e+2, 1.8408413e+2, -1056947.4, -1120359.9, -53422.766, 0.014094024, -0.016208842, -1026530.56, 109443.664, 0.0, 10.000598, 9.999757 
8.3496535e+2, 1.9408412e+2, -989539.94, -1035614.6, -58732.047, 0.022219151, 0.0057613594, -949488.7, 88487.29, 0.0, 10.000381, 9.99977 
8.349781e+2, 2.0408404e+2, -922075.8, -955387.2, -66815.46, 0.025513466, 0.023450116, -869871.4, 70106.945, 0.0, 10.000185, 9.9997425 
8.349907e+2, 2.140839e+2, -848606.94, -869093.1, -65226.824, 0.021882491, 0.033730842, -792823.8, 49157.63, 0.0, 10.000016, 9.999743 
8.3500314e+2, 2.240837e+2, -800288.6, -824848.4, -76447.06, 0.021696687, 0.054993812, -735141.44, 8843.972, 0.0, 9.999804, 9.999476 
8.350154e+2, 2.3408352e+2, -743797.3, -749355.56, -79189.945, 0.026328579, 0.090958744, -667337.75, -21347.25, 0.0, 9.999529, 9.9994545 
8.3502775e+2, 2.4408326e+2, -684137.4, -676404.06, -76044.83, 0.020218201, 0.12299569, -604127.7, -56131.742, 0.0, 9.999294, 9.999395 
8.3504e+2, 2.540829e+2, -612103.1, -590928.5, -77081.305, -0.001077272, 0.14766611, -523710.84, -73709.03, 0.0, 9.999116, 9.999395 
8.350524e+2, 2.6408255e+2, -537982.94, -501072.78, -67491.07, -0.015712118, 0.17256595, -449559.03, -97551.53, 0.0, 9.998938, 9.999425 
8.35065e+2, 2.740822e+2, -465492.3, -414336.06, -68505.055, -0.02097932, 0.19781202, -366789.75, -112777.03, 0.0, 9.998757, 9.999434 
8.350778e+2, 2.8408188e+2, -380581.97, -298608.72, -59665.375, -0.027194073, 0.21110664, -267208.47, -111191.67, 0.0, 9.998564, 9.999649 
8.3509076e+2, 2.9408145e+2, -311697.66, -211449.4, -57338.438, -0.03428682, 0.20249632, -185414.98, -127395.5, 0.0, 9.99835, 9.999678 
8.3510387e+2, 3.04081e+2, -242433.66, -66613.37, -31202.645, -0.04616726, 0.15260923, -61240.082, -61240.082, 0.0, 9.998119, 10.000448 
8.351174e+2, 3.140813e+2, -276977.4, -77961.87, -29272.266, -0.06798744, 0.13717148, -73745.664, -73745.664, 0.0, 9.997859, 10.000495 
8.4487504e+2, 1.24073945e+2, -1432043.5, -1711111.9, 8935.954, -0.016252825, -0.03218559, -1431757.6, 292315.28, 0.0, 10.002514, 9.998815 
8.448886e+2, 1.3407305e+2, -1369126.3, -1599750.8, -28042.242, 0.04376842, -0.029415995, -1365765.5, 260315.3, 0.0, 10.002142, 9.999085 
8.449013e+2, 1.4407203e+2, -1312055.9, -1509608.6, -20753.807, 0.014927662, -0.04270499, -1309899.1, 218191.08, 0.0, 10.00181, 9.999191 
8.449147e+2, 1.5407121e+2, -1253740.8, -1429564.6, -19776.541, 0.03886556, -0.043723732, -1251543.8, 178554.8, 0.0, 10.001533, 9.999202 
8.449277e+2, 1.6407064e+2, -1168025.6, -1295961.3, -28764.627, 0.043476302, -0.03805596, -1161855.9, 170249.02, 0.0, 10.001269, 9.999573 
8.449404e+2, 1.7407039e+2, -1102637.5, -1209099.8, -32436.186, 0.02043692, -0.024003988, -1093533.6, 140574.56, 0.0, 10.001025, 9.999614 
8.4495306e+2, 1.8407017e+2, -1035838.2, -1116365.1, -47002.324, 0.010723439, -0.008751245, -1014211.75, 121899.65, 0.0, 10.00077, 9.9997015 
8.449657e+2, 1.9407004e+2, -977063.75, -1035870.56, -47744.367, 0.020152397, 0.0067647668, -950395.0, 87719.37, 0.0, 10.000494, 9.999714 
8.449783e+2, 2.0406991e+2, -916773.7, -953009.2, -53738.434, 0.024804218, 0.023306597, -878181.0, 61936.184, 0.0, 10.000222, 9.999741 
8.449907e+2, 2.1406983e+2, -857208.5, -872778.2, -55885.11, 0.022597356, 0.04009385, -808568.6, 33550.93, 0.0, 9.999955, 9.999747 
8.4500295e+2, 2.2406965e+2, -813836.7, -834293.9, -69341.836, 0.021883082, 0.061846912, -753973.06, -9849.588, 0.0, 9.999723, 9.999451 
8.450149e+2, 2.3406935e+2, -744109.5, -752774.6, -71393.12, 0.023220895, 0.089722626, -676917.56, -30788.07, 0.0, 9.999541, 9.999425 
8.45027e+2, 2.4406902e+2, -677480.1, -677056.0, -66275.95, 0.015401046, 0.120146126, -610991.75, -62856.34, 0.0, 9.999357, 9.99936 
8.4503907e+2, 2.540687e+2, -606948.44, -592377.6, -67266.7, -0.005369624, 0.15243568, -532002.94, -81861.94, 0.0, 9.999168, 9.999359 
8.450513e+2, 2.6406837e+2, -541946.3, -508330.6, -59742.195, -0.019523798, 0.18082689, -463076.9, -110929.945, 0.0, 9.998934, 9.999377 
8.450637e+2, 2.7406797e+2, -487308.84, -430374.9, -61044.06, -0.024447566, 0.20357859, -391486.5, -137333.34, 0.0, 9.998632, 9.999384 
8.450762e+2, 2.8406763e+2, -405345.3, -304151.16, -50646.543, -0.030336957, 0.21688317, -283158.2, -127000.71, 0.0, 9.998367, 9.999705 
8.450889e+2, 2.940673e+2, -335789.75, -215429.17, -46665.633, -0.03707623, 0.21201895, -199456.02, -141296.69, 0.0, 9.998153, 9.999745 
8.4510195e+2, 3.04067e+2, -265396.16, -70494.266, -21522.646, -0.044839714, 0.1693489, -68145.86, -68145.86, 0.0, 9.997931, 10.000512 
8.4511524e+2, 3.1406745e+2, -297040.8, -80733.13, -21409.38, -0.057385206, 0.16231704, -78634.47, -78634.47, 0.0, 9.997692, 10.000556 
8.5487777e+2, 1.24060355e+2, -1431258.3, -1710289.4, -4359.3677, -0.0020238962, -0.025493234, -1431190.1, 293016.7, 0.0, 10.002517, 9.998819 
8.5489076e+2, 1.3405953e+2, -1366744.5, -1595419.1, -41985.21, 0.043850016, -0.01741447, -1359279.6, 266934.06, 0.0, 10.002145, 9.999114 
8.5490304e+2, 1.4405845e+2, -1312507.9, -1511049.1, -31514.77, 0.0084954295, -0.037808575, -1307625.5, 220597.86, 0.0, 10.001812, 9.999181 
8.549161e+2, 1.5405747e+2, -1254435.1, -1431591.5, -30167.086, 0.030419193, -0.055063624, -1249439.0, 180793.98, 0.0, 10.001534, 9.9991865 
8.549289e+2, 1.6405682e+2, -1173745.8, -1308434.3, -38115.06, 0.036892254, -0.051800977, -1163707.9, 168532.14, 0.0, 10.001271, 9.999486 
8.549414e+2, 1.7405665e+2, -1108804.5, -1222496.8, -41694.89, 0.020999124, -0.020282427, -1095152.8, 139090.22, 0.0, 10.001028, 9.999521 
8.549539e+2, 1.8405645e+2, -1035868.75, -1116974.4, -57367.695, 0.01314268, 0.0006275087, -1006167.9, 130078.54, 0.0, 10.0007715, 9.999696 
8.5496616e+2, 1.940562e+2, -976498.7, -1035149.25, -58228.7, 0.016915707, 0.0047687497, -940627.7, 97622.445, 0.0, 10.000496, 9.999718 
8.549784e+2, 2.0405604e+2, -919587.2, -959226.7, -63907.223, 0.019540165, 0.019512823, -872496.9, 67756.375, 0.0, 10.000223, 9.999698 
8.549906e+2, 2.1405603e+2, -860359.7, -879660.9, -66009.72, 0.020526275, 0.04833786, -803298.8, 38956.51, 0.0, 9.999956, 9.9997 
8.550026e+2, 2.2405584e+2, -815246.5, -837464.9, -76488.35, 0.018912196, 0.07427005, -749064.8, -4805.4766, 0.0, 9.999723, 9.999429 
8.550144e+2, 2.3405546e+2, -745381.1, -755652.94, -78189.1, 0.013562339, 0.09497006, -672159.44, -25893.559, 0.0, 9.999542, 9.999405 
8.5502625e+2, 2.4405508e+2, -679817.7, -682111.7, -73259.22, 0.0055542574, 0.12150177, -607696.44, -59424.22, 0.0, 9.999357, 9.999326 
8.550382e+2, 2.5405473e+2, -609521.6, -597806.75, -74211.62, -0.006173842, 0.15474401, -529221.75, -78943.58, 0.0, 9.999168, 9.999323 
8.5505015e+2, 2.640543e+2, -545410.8, -515565.94, -70512.06, -0.017902445, 0.18014547, -458414.6, -106129.695, 0.0, 9.998934, 9.999328 
8.5506225e+2, 2.7405378e+2, -490872.13, -437852.4, -72127.484, -0.029952912, 0.19412936, -387517.3, -133224.8, 0.0, 9.998632, 9.999333 
8.550745e+2, 2.8405344e+2, -400086.38, -293274.53, -58611.258, -0.03941407, 0.20847827, -267386.88, -111090.0, 0.0, 9.998367, 9.999781 
8.5508704e+2, 2.9405338e+2, -329673.1, -202642.67, -54317.445, -0.044556662, 0.21887083, -182584.16, -124287.46, 0.0, 9.998152, 9.999833 
8.5509986e+2, 3.0405325e+2, -262486.25, -64215.68, -29897.418, -0.044344943, 0.19026919, -59805.516, -59805.516, 0.0, 9.99793, 10.000556 
8.551131e+2, 3.1405383e+2, -294762.84, -75505.93, -29749.918, -0.03992921, 0.1917006, -71541.01, -71541.01, 0.0, 9.997689, 10.000594 
8.6488044e+2, 1.2404704e+2, -1432281.9, -1711642.3, 3089.5327, 0.014007316, -0.014849947, -1432247.6, 292090.6, 0.00000000000000000000885557, 10.002514, 9.998811 
8.64893e+2, 1.340462e+2, -1343331.3, -1582516.1, -36032.656, 0.043716453, -0.008496588, -1338021.0, 288323.9, 0.0, 10.002298, 9.999128 
8.649049e+2, 1.440451e+2, -1278561.4, -1494114.6, -25860.959, 0.0018375323, -0.033721995, -1275502.1, 252852.6, 0.0, 10.002043, 9.999186 
8.6491764e+2, 1.5404409e+2, -1226511.3, -1417675.1, -23123.822, 0.023775835, -0.05220907, -1223753.9, 206610.34, 0.0, 10.001725, 9.99919 
8.6493015e+2, 1.6404341e+2, -1158703.4, -1308264.6, -29002.533, 0.032104068, -0.04987318, -1153276.3, 179095.27, 0.0, 10.001406, 9.999423 
8.649425e+2, 1.7404316e+2, -1105392.0, -1228599.8, -30771.717, 0.020449823, -0.018869055, -1098134.1, 136241.25, 0.0, 10.001085, 9.999452 
8.6495465e+2, 1.8404292e+2, -1033158.4, -1117593.0, -45087.832, 0.014199815, 0.0015354899, -1013608.25, 122771.055, 0.0, 10.000798, 9.999679 
8.649667e+2, 1.9404267e+2, -967797.9, -1032214.1, -47094.1, 0.01586587, 0.0052505657, -942951.5, 95431.53, 0.0, 10.000561, 9.999706 
8.649786e+2, 2.0404248e+2, -910970.56, -962937.0, -54616.95, 0.01688989, 0.02191182, -876471.25, 63915.145, 0.0, 10.000317, 9.999627 
8.6499053e+2, 2.1404245e+2, -850376.94, -883412.56, -59038.047, 0.016988523, 0.056017384, -805589.56, 36799.613, 0.0, 10.000062, 9.999622 
8.6500233e+2, 2.2404224e+2, -800771.4, -829553.0, -67844.39, 0.0141999265, 0.08285871, -745808.4, -1414.8566, 0.0, 9.99982, 9.999436 
8.650139e+2, 2.3404181e+2, -736570.7, -749483.4, -66749.8, 0.0073192706, 0.09817732, -675965.75, -29565.822, 0.0, 9.999595, 9.999422 
8.650256e+2, 2.440414e+2, -686601.75, -690400.9, -62457.223, 0.00046384492, 0.122887336, -626015.25, -77608.9, 0.0, 9.999332, 9.99928 
8.650373e+2, 2.5404102e+2, -635031.56, -615863.4, -64803.426, -0.0063471724, 0.1594662, -559939.1, -109526.42, 0.0, 9.999019, 9.99927 
8.65049e+2, 2.6404056e+2, -572056.44, -525751.9, -59823.902, -0.016931193, 0.18276699, -484756.47, -132336.66, 0.0, 9.998739, 9.999351 
8.650608e+2, 2.7403998e+2, -506407.9, -441770.97, -55556.297, -0.033266816, 0.18671195, -409816.7, -155388.92, 0.0, 9.99851, 9.999365 
8.650727e+2, 2.8403968e+2, -412171.16, -295650.66, -39355.055, -0.044162653, 0.20059067, -283603.88, -127172.04, 0.0, 9.998269, 9.999811 
8.6508507e+2, 2.9403976e+2, -348416.34, -208178.19, -39305.387, -0.04662206, 0.2244354, -197913.2, -139482.61, 0.0, 9.998009, 9.999865 
8.650977e+2, 3.0403978e+2, -288601.6, -72681.164, -18689.936, -0.04320476, 0.20526925, -71075.32, -71075.32, 0.0, 9.997733, 10.000592 
8.6511064e+2, 3.140404e+2, -330193.94, -88589.37, -18958.963, -0.034755573, 0.20734547, -87110.69, -87110.69, 0.0, 9.99743, 10.000628 
8.748831e+2, 1.2403402e+2, -1433952.8, -1715115.1, -4847.268, 0.031703632, -0.00010604041, -1433869.3, 290597.63, 0.0000000055054987, 10.002514, 9.998787 
8.748953e+2, 1.340331e+2, -1343267.1, -1582881.6, -44010.766, 0.043315195, -0.002728913, -1335439.3, 291035.03, 0.0, 10.0023, 9.9991255 
8.7490684e+2, 1.4403197e+2, -1276808.5, -1491196.6, -37538.785, -0.0050867232, -0.030488472, -1270425.6, 258058.6, 0.0, 10.002046, 9.999204 
8.749193e+2, 1.5403113e+2, -1224639.8, -1414461.6, -35163.516, 0.018960202, -0.034709856, -1218335.3, 212156.69, 0.0, 10.001727, 9.999211 
8.749316e+2, 1.6403045e+2, -1161232.9, -1314100.4, -41164.707, 0.029145535, -0.03174735, -1150852.8, 181646.33, 0.0, 10.001408, 9.999382 
8.7494355e+2, 1.7402995e+2, -1108475.0, -1235470.1, -42940.42, 0.018748965, -0.019738333, -1095318.6, 139186.58, 0.0, 10.001086, 9.999404 
8.749554e+2, 1.8402961e+2, -1035112.4, -1122050.3, -54401.418, 0.013826137, -0.0062154904, -1008946.06, 127563.97, 0.0, 10.0008, 9.999647 
8.749672e+2, 1.9402942e+2, -969621.9, -1036425.94, -56119.023, 0.016984636, 0.008196975, -937716.6, 100796.3, 0.0, 10.000563, 9.999677 
8.7497896e+2, 2.0402923e+2, -917739.25, -977401.2, -64244.574, 0.016858418, 0.030562028, -876737.7, 63778.863, 0.0, 10.000319, 9.999527 
8.749905e+2, 2.1402907e+2, -857759.75, -899106.5, -68712.75, 0.011973968, 0.06313932, -806677.75, 35843.273, 0.0, 10.000063, 9.999515 
8.750021e+2, 2.2402881e+2, -798105.2, -824259.94, -76412.01, 0.0077063274, 0.0875948, -733659.56, 10866.453, 0.0, 9.99982, 9.999473 
8.750135e+2, 2.340284e+2, -732870.6, -742021.8, -75181.31, 0.004429142, 0.09932937, -662125.75, -15594.195, 0.0, 9.999595, 9.999473 
8.750249e+2, 2.4402799e+2, -690482.75, -698640.3, -73879.29, 0.00006957025, 0.12426894, -620569.75, -72031.99, 0.0, 9.999333, 9.999224 
8.750363e+2, 2.540276e+2, -639755.9, -625827.44, -76495.695, -0.0059094434, 0.16653083, -555979.56, -105434.84, 0.0, 9.999019, 9.999202 
8.750478e+2, 2.6402712e+2, -565548.0, -512319.9, -68525.72, -0.016636752, 0.1886149, -465421.5, -112869.58, 0.0, 9.998739, 9.999443 
8.7505925e+2, 2.740265e+2, -498757.44, -425855.7, -63899.254, -0.03448809, 0.18125701, -388741.75, -134182.66, 0.0, 9.99851, 9.999475 
8.7507105e+2, 2.8402624e+2, -413256.7, -297737.75, -48748.11, -0.04475236, 0.19317794, -279915.9, -123353.25, 0.0, 9.998268, 9.999797 
8.750831e+2, 2.9402643e+2, -350517.28, -212213.78, -48733.39, -0.04348309, 0.22874813, -196767.02, -138205.81, 0.0, 9.998007, 9.999838 
8.750955e+2, 3.040265e+2, -286955.0, -68911.62, -29433.496, -0.041425366, 0.2145991, -65008.285, -65008.285, 0.0, 9.997731, 10.000619 
8.75108e+2, 3.140271e+2, -328144.22, -84120.8, -29711.885, -0.04147842, 0.20899577, -80555.22, -80555.22, 0.0, 9.997428, 10.00066 
8.848858e+2, 1.2402119e+2, -1395359.1, -1701093.6, 6461.726, 0.037249453, 0.0065791374, -1395222.6, 329370.63, 0.00000006865042, 10.002799, 9.998746 
8.8489765e+2, 1.3402024e+2, -1322262.9, -1575415.9, -34305.164, 0.04318633, 0.004226822, -1317696.5, 308904.44, 0.0, 10.002457, 9.999101 
8.849089e+2, 1.4401908e+2, -1263883.9, -1484628.8, -30452.676, -0.005466192, -0.024262473, -1259759.9, 268851.28, 0.0, 10.002133, 9.999207 
8.849211e+2, 1.5401833e+2, -1208690.3, -1406185.3, -29446.95, 0.017347472, -0.021903478, -1204393.1, 226225.05, 0.0, 10.001835, 9.999216 
8.84933e+2, 1.6401763e+2, -1141501.1, -1304247.5, -34501.945, 0.026098939, -0.01884626, -1134488.9, 198136.28, 0.0, 10.001542, 9.999384 
8.849446e+2, 1.7401707e+2, -1083384.8, -1223044.4, -32527.664, 0.01390349, -0.016107121, -1076180.5, 158451.52, 0.0, 10.001258, 9.999406 
8.8495624e+2, 1.8401666e+2, -1013967.9, -1115299.0, -41075.816, 0.009166832, -0.006184815, -999409.06, 137228.11, 0.0, 10.00096, 9.999617 
8.8496786e+2, 1.940165e+2, -960464.7, -1035793.4, -43178.7, 0.015450697, 0.012886575, -940831.5, 97808.31, 0.0, 10.000642, 9.999642 
8.849793e+2, 2.0401628e+2, -918848.2, -987759.3, -50249.797, 0.016189493, 0.036654774, -892375.7, 48268.24, 0.0, 10.000354, 9.999439 
8.849906e+2, 2.1401599e+2, -857965.94, -909658.56, -53708.688, 0.008850894, 0.06590445, -824208.06, 18441.889, 0.0, 10.000107, 9.999421 
8.8500184e+2, 2.2401567e+2, -794940.44, -819838.25, -62049.313, 0.0043724803, 0.09009052, -744103.56, 551.854, 0.0, 9.99983, 9.999498 
8.85013e+2, 2.3401533e+2, -743034.75, -742570.94, -61991.656, 0.0041366676, 0.10603992, -680810.75, -34150.98, 0.0, 9.999507, 9.999511 
8.850242e+2, 2.4401493e+2, -714070.9, -715740.56, -62145.258, 0.0012620867, 0.13099894, -652754.9, -104089.086, 0.0, 9.999196, 9.999172 
8.850353e+2, 2.5401443e+2, -660895.9, -642914.94, -64503.285, -0.005545787, 0.16715474, -586778.56, -136104.47, 0.0, 9.998904, 9.99914 
8.850464e+2, 2.6401392e+2, -579278.56, -512123.06, -55821.21, -0.016661797, 0.18648349, -480558.88, -127877.32, 0.0, 9.998616, 9.999503 
8.850577e+2, 2.7401343e+2, -519200.22, -427425.28, -53799.613, -0.034208298, 0.18122876, -402601.66, -147914.25, 0.0, 9.998335, 9.999548 
8.850692e+2, 2.840132e+2, -445107.38, -311461.03, -40300.504, -0.04395492, 0.19426782, -300249.16, -143558.81, 0.0, 9.998043, 9.999811 
8.85081e+2, 2.940134e+2, -389409.0, -229991.39, -38018.137, -0.041893758, 0.22951728, -221388.97, -162699.75, 0.0, 9.997736, 9.9998455 
8.8509303e+2, 3.040135e+2, -320469.16, -77279.29, -15127.738, -0.041238826, 0.21520215, -76341.875, -76341.875, 0.0, 9.997468, 10.000688 
8.851054e+2, 3.1401414e+2, -348830.34, -85649.5, -12263.436, -0.045537524, 0.20709246, -85079.3, -85079.3, 0.0, 9.997251, 10.000735 
8.9488846e+2, 1.2400857e+2, -1399141.5, -1709856.9, -6419.978, 0.0297314, 0.0046785646, -1399009.0, 325708.03, 0.00000033535434, 10.002802, 9.998684 
8.949001e+2, 1.3400768e+2, -1325265.9, -1582209.4, -47212.633, 0.043232676, 0.012432603, -1316865.4, 309859.3, 0.00000000007521531, 10.002459, 9.999054 
8.949111e+2, 1.4400652e+2, -1264840.3, -1487018.3, -41879.938, 0.00090622774, -0.014879857, -1257208.3, 271527.16, 0.0, 10.002134, 9.999189 
8.949229e+2, 1.5400572e+2, -1209335.1, -1408035.8, -40735.184, 0.019004976, -0.013883941, -1201308.4, 229434.52, 0.0, 10.001837, 9.999203 
8.9493454e+2, 1.6400506e+2, -1138039.3, -1297634.8, -45354.13, 0.022937115, -0.011318066, -1126051.0, 206698.7, 0.0, 10.001544, 9.999429 
8.949458e+2, 1.7400452e+2, -1079411.1, -1215399.0, -43326.754, 0.0058293724, -0.007900395, -1066780.1, 167975.5, 0.0, 10.001261, 9.999457 
8.9495707e+2, 1.8400413e+2, -1015928.94, -1119926.5, -53033.176, 0.00010633574, 0.0017757203, -993655.3, 143105.11, 0.0, 10.000962, 9.999584 
8.9496845e+2, 1.9400391e+2, -963132.8, -1041791.56, -55283.84, 0.011200317, 0.019352907, -934616.0, 104147.62, 0.0, 10.000644, 9.9996 
8.949796e+2, 2.040036e+2, -924056.44, -998957.06, -59865.004, 0.01484702, 0.04015975, -890892.7, 49875.855, 0.0, 10.000355, 9.999361 
8.949907e+2, 2.1400318e+2, -863501.4, -921528.0, -63005.81, 0.00757675, 0.064286746, -823149.7, 19626.293, 0.0, 10.000109, 9.999339 
8.9500165e+2, 2.2400284e+2, -793768.2, -817715.3, -73949.055, 0.0041518984, 0.09030708, -730829.56, 13952.001, 0.0, 9.999831, 9.999513 
8.950125e+2, 2.3400265e+2, -741167.25, -738983.1, -74106.53, 0.006405581, 0.11822321, -665960.6, -19176.117, 0.0, 9.999508, 9.999536 
8.950234e+2, 2.4400224e+2, -717322.94, -722731.4, -73177.32, 0.004000098, 0.14304337, -646799.9, -98009.41, 0.0, 9.999197, 9.999124 
8.950342e+2, 2.540015e+2, -664798.6, -651196.9, -75329.01, -0.005283694, 0.16146964, -582362.4, -131561.42, 0.0, 9.998904, 9.999083 
8.9504504e+2, 2.6400095e+2, -577331.75, -508185.03, -66238.85, -0.017032992, 0.17646681, -468039.56, -115230.69, 0.0, 9.998616, 9.999531 
8.95056e+2, 2.740006e+2, -516618.78, -422073.78, -64134.54, -0.032489564, 0.18644173, -389672.4, -134859.48, 0.0, 9.998334, 9.999585 
8.950673e+2, 2.840005e+2, -442496.22, -305930.7, -51421.176, -0.041823708, 0.20366469, -288734.38, -131919.28, 0.0, 9.998042, 9.99985 
8.950787e+2, 2.9400057e+2, -386827.1, -224371.3, -49208.813, -0.041814826, 0.22690906, -210628.25, -151813.45, 0.0, 9.997735, 9.999885 
8.9509046e+2, 3.040007e+2, -313201.53, -61734.965, -23112.064, -0.042626698, 0.20739537, -59628.402, -59628.402, 0.0, 9.997465, 10.000796 
8.9510256e+2, 3.140015e+2, -341307.66, -69291.16, -19832.62, -0.04717731, 0.20178095, -67852.77, -67852.77, 0.0, 9.997247, 10.00085 
9.0489143e+2, 1.23996265e+2, -1368169.6, -1703993.6, 10174.638, 0.03085097, -0.005590445, -1367861.8, 356975.88, 0.0000010631732, 10.003055, 9.998603 
9.0490264e+2, 1.3399547e+2, -1295751.0, -1575890.0, -32241.168, 0.038692575, 0.019653397, -1292088.3, 334756.7, 0.000000007369457, 10.002696, 9.998982 
9.049133e+2, 1.439943e+2, -1234844.0, -1472609.3, -26483.322, -0.0028728193, -0.002991263, -1231929.9, 296926.03, 0.0, 10.002341, 9.999188 
9.049248e+2, 1.539935e+2, -1186374.9, -1396203.6, -23788.059, 0.015942885, -0.005278337, -1183711.9, 247151.69, 0.0, 10.001991, 9.999209 
9.049361e+2, 1.6399279e+2, -1122152.6, -1290101.4, -28417.082, 0.020876171, -0.0046226718, -1117474.8, 215395.77, 0.0, 10.001655, 9.999427 
9.049471e+2, 1.7399229e+2, -1068447.4, -1210372.9, -30429.805, 0.005138743, -0.000993768, -1062198.3, 172678.1, 0.0, 10.001337, 9.9994545 
9.049581e+2, 1.839919e+2, -1005581.7, -1117327.5, -41717.125, -0.000728279, 0.009953251, -991725.8, 145155.28, 0.0, 10.001044, 9.999561 
9.049691e+2, 1.9399168e+2, -944048.8, -1035227.44, -42702.156, 0.008013921, 0.0303553, -927173.25, 111711.02, 0.0, 10.000787, 9.999577 
9.0498e+2, 2.0399131e+2, -907298.06, -995720.44, -45903.92, 0.011287186, 0.04918948, -887777.0, 53112.63, 0.0, 10.000491, 9.999318 
9.049908e+2, 2.1399075e+2, -862422.0, -926118.25, -46491.48, 0.006578124, 0.06428484, -837916.25, 4981.8076, 0.0, 10.000138, 9.999292 
9.0500146e+2, 2.2399037e+2, -802749.8, -828652.56, -59374.195, 0.0040152837, 0.089987256, -754930.9, -10026.628, 0.0, 9.999798, 9.999453 
9.05012e+2, 2.3399024e+2, -750081.25, -750040.9, -66098.89, 0.0046351776, 0.13040283, -683962.2, -37055.25, 0.0, 9.999476, 9.999475 
9.050225e+2, 2.4398983e+2, -721982.3, -721003.7, -65747.62, 0.0022255955, 0.15551144, -655743.56, -106830.62, 0.0, 9.999148, 9.999159 
9.05033e+2, 2.5398895e+2, -675200.3, -651095.3, -60373.992, -0.004662655, 0.1562709, -601582.56, -150658.67, 0.0, 9.998812, 9.999128 
9.050436e+2, 2.6398835e+2, -596697.5, -517876.97, -47579.543, -0.015086717, 0.16535439, -495505.5, -142573.67, 0.0, 9.998486, 9.999527 
9.0505433e+2, 2.7398813e+2, -540477.7, -434473.8, -48841.78, -0.030841958, 0.1867527, -415401.3, -160466.14, 0.0, 9.998175, 9.999577 
9.050652e+2, 2.8398803e+2, -467397.72, -312595.84, -38884.773, -0.040968977, 0.20779406, -303377.34, -146440.31, 0.0, 9.9978485, 9.999897 
9.0507627e+2, 2.9398814e+2, -417417.6, -233021.98, -35872.297, -0.042454444, 0.22362638, -226289.22, -167352.33, 0.0, 9.9974985, 9.999939 
9.0508777e+2, 3.0398834e+2, -350211.66, -68849.08, -7508.703, -0.04345176, 0.20452046, -68648.84, -68648.84, 0.0, 9.997166, 10.000892 
9.0509963e+2, 3.139893e+2, -391492.22, -82366.22, -5192.144, -0.045929868, 0.20900798, -82279.04, -82279.04, 0.0, 9.996855, 10.000948 
9.148946e+2, 1.2398428e+2, -1375021.1, -1719052.0, -3478.6516, 0.040751856, -0.024750907, -1374986.0, 349968.66, 0.0000026057617, 10.0030575, 9.998498 
9.149052e+2, 1.3398364e+2, -1302109.9, -1589852.4, -45648.785, 0.029362649, 0.025841624, -1295041.6, 331919.88, 0.00000007607973, 10.002699, 9.998885 
9.149155e+2, 1.4398251e+2, -1233577.8, -1470629.8, -39702.93, -0.017210739, 0.011519047, -1227104.8, 301867.8, 0.0, 10.002344, 9.999202 
9.149267e+2, 1.5398167e+2, -1184316.9, -1392507.3, -36975.016, 0.0079638325, 0.0039550792, -1177945.0, 253035.19, 0.0, 10.001994, 9.999233 
9.1493773e+2, 1.6398093e+2, -1125463.0, -1297504.3, -40550.063, 0.019899333, 0.0012303008, -1116384.4, 216603.05, 0.0, 10.001657, 9.999375 
9.1494846e+2, 1.7398036e+2, -1072411.4, -1219079.3, -42475.883, 0.011946321, 0.0045889737, -1060998.1, 173995.81, 0.0, 10.001339, 9.999394 
9.1495925e+2, 1.8397994e+2, -1006293.3, -1119250.4, -51737.902, 0.0068068174, 0.018338477, -986177.9, 150821.14, 0.0, 10.001046, 9.999548 
9.1496986e+2, 1.939798e+2, -944397.25, -1036420.2, -52495.184, 0.005917901, 0.045933094, -920603.25, 118398.414, 0.0, 10.000789, 9.999568 
9.149804e+2, 2.0397942e+2, -907822.56, -997255.56, -58933.48, 0.0054705907, 0.06379419, -878561.2, 62445.816, 0.0, 10.000493, 9.999307 
9.149909e+2, 2.1397871e+2, -863074.7, -927857.4, -59868.832, 0.005825956, 0.06590926, -827396.4, 15619.859, 0.0, 10.000139, 9.99928 
9.150013e+2, 2.2397824e+2, -811932.56, -848042.06, -71577.18, 0.0039452803, 0.089114755, -756168.2, -11144.853, 0.0, 9.999799, 9.999319 
9.150114e+2, 2.339781e+2, -760250.1, -771461.06, -78155.164, -0.0011636922, 0.14256427, -687499.7, -40472.6, 0.0, 9.999477, 9.999328 
9.150216e+2, 2.4397765e+2, -713688.6, -704075.3, -78268.375, -0.004051685, 0.16838807, -630466.1, -81432.86, 0.0, 9.999149, 9.999275 
9.150318e+2, 2.5397673e+2, -664905.6, -629951.7, -72931.89, -0.003717132, 0.15153188, -572431.94, -121388.88, 0.0, 9.998812, 9.999273 
9.150421e+2, 2.6397613e+2, -599040.8, -522880.16, -59178.355, -0.010871533, 0.15316226, -490588.7, -137538.14, 0.0, 9.998486, 9.999493 
9.150525e+2, 2.7397594e+2, -544305.6, -442449.88, -60278.32, -0.029278953, 0.18227479, -414465.6, -159411.22, 0.0, 9.998175, 9.999522 
9.15063e+2, 2.839759e+2, -463665.84, -304767.28, -51593.69, -0.041400984, 0.20678538, -289484.84, -132428.52, 0.0, 9.9978485, 9.999951 
9.150738e+2, 2.93976e+2, -412906.1, -223430.2, -48697.324, -0.04384379, 0.21968703, -211647.22, -152591.5, 0.0, 9.997498, 10.000006 
9.150849e+2, 3.0397636e+2, -344772.38, -57152.43, -18940.006, -0.043785512, 0.20640339, -55910.58, -55910.58, 0.0, 9.997163, 10.000973 
9.150965e+2, 3.1397757e+2, -386143.1, -70599.86, -16351.654, -0.04201837, 0.22773318, -69754.77, -69754.77, 0.0, 9.996852, 10.001031 
9.248978e+2, 1.239728e+2, -1347254.0, -1715588.4, 9265.368, 0.03997311, -0.026281258, -1347021.1, 378046.22, 0.000005355975, 10.003292, 9.998408 
9.24908e+2, 1.339722e+2, -1273416.8, -1585293.6, -31408.744, 0.024260545, 0.03598265, -1270285.0, 356789.3, 0.00000033393198, 10.002936, 9.998802 
9.2491794e+2, 1.4397104e+2, -1201416.0, -1458226.3, -26387.172, -0.021507967, 0.024376241, -1198732.8, 330353.4, 0.0, 10.002579, 9.999173 
9.249288e+2, 1.5397018e+2, -1153482.5, -1380008.9, -27209.912, 0.0023517048, 0.016564982, -1150260.0, 280833.9, 0.0, 10.002216, 9.999212 
9.2493945e+2, 1.6396941e+2, -1096231.1, -1284269.0, -30434.564, 0.015017267, 0.011964981, -1091428.0, 241673.4, 0.0, 10.001862, 9.999368 
9.2494994e+2, 1.7396878e+2, -1046664.75, -1207349.3, -28271.31, 0.010846576, 0.011053498, -1041835.7, 193272.42, 0.0, 10.001519, 9.999388 
9.249603e+2, 1.8396834e+2, -990556.6, -1117967.4, -35589.7, 0.0075367824, 0.024574768, -981289.44, 155824.03, 0.0, 10.001182, 9.999491 
9.249707e+2, 1.9396819e+2, -939807.8, -1041187.1, -40406.21, 0.005585455, 0.05799506, -925673.8, 113442.67, 0.0, 10.000851, 9.999505 
9.249809e+2, 2.0396778e+2, -907072.9, -996383.0, -51273.82, 0.0055173277, 0.07697184, -883734.7, 57387.305, 0.0, 10.000496, 9.9993105 
9.24991e+2, 2.1396704e+2, -867136.06, -928476.25, -50909.83, 0.00839349, 0.07312999, -838371.6, 4759.5044, 0.0, 10.000107, 9.999291 
9.25001e+2, 2.239665e+2, -825857.1, -865879.9, -58578.133, 0.0065958966, 0.0934087, -783966.56, -38827.83, 0.0, 9.999752, 9.99922 
9.2501086e+2, 2.3396625e+2, -772382.8, -789878.75, -62469.824, -0.0020444216, 0.14854772, -718051.44, -70907.49, 0.0, 9.999449, 9.999215 
9.250207e+2, 2.4396576e+2, -713766.75, -696017.25, -64278.13, -0.0067936196, 0.17272973, -640004.1, -90853.586, 0.0, 9.999114, 9.999348 
9.250306e+2, 2.539649e+2, -669948.56, -621955.3, -63112.902, -0.005858895, 0.14916155, -578431.0, -127271.875, 0.0, 9.998733, 9.999367 
9.2504054e+2, 2.639643e+2, -616566.5, -532005.56, -49492.934, -0.01182458, 0.1481992, -509192.3, -156026.31, 0.0, 9.998368, 9.999487 
9.250506e+2, 2.739641e+2, -566710.5, -455213.28, -47861.44, -0.02817989, 0.18091416, -437486.53, -182316.48, 0.0, 9.998029, 9.999504 
9.250608e+2, 2.839641e+2, -485646.13, -308936.06, -39211.082, -0.038870323, 0.20693436, -300626.13, -143454.2, 0.0, 9.99767, 10.000009 
9.2507124e+2, 2.939643e+2, -440161.44, -229123.28, -36661.84, -0.040824596, 0.21820775, -222935.75, -163765.03, 0.0, 9.997278, 10.000072 
9.2508197e+2, 3.0396473e+2, -380016.66, -67043.125, -6817.565, -0.041990746, 0.2078194, -66894.69, -66894.69, 0.0, 9.996891, 10.001036 
9.250931e+2, 3.1396607e+2, -431511.47, -85448.02, -5699.508, -0.043727133, 0.2367664, -85354.18, -85354.18, 0.0, 9.9965105, 10.001093 
9.3490094e+2, 1.2396188e+2, -1351980.9, -1726269.5, -4649.579, 0.027592894, -0.009508541, -1351923.1, 373252.03, 0.000009813605, 10.003295, 9.998334 
9.349109e+2, 1.3396119e+2, -1278021.5, -1595634.1, -44680.914, 0.023426779, 0.050235767, -1271855.6, 355327.8, 0.0000009955157, 10.002939, 9.99873 
9.349206e+2, 1.4395992e+2, -1206073.0, -1468586.6, -40020.23, -0.015451009, 0.035465494, -1200107.5, 329088.88, 0.00000000002439963, 10.002582, 9.999101 
9.349309e+2, 1.5395904e+2, -1158144.1, -1390368.9, -40904.21, -0.00084602856, 0.032614022, -1151150.0, 280054.56, 0.0, 10.002219, 9.99914 
9.3494123e+2, 1.6395824e+2, -1093445.4, -1279154.0, -43503.375, 0.006110448, 0.027696531, -1083759.6, 249452.48, 0.0, 10.001864, 9.999401 
9.3495136e+2, 1.7395759e+2, -1043047.1, -1200440.5, -41258.477, 0.0016697607, 0.018410964, -1032887.56, 202331.02, 0.0, 10.001522, 9.999434 
9.3496144e+2, 1.8395707e+2, -997515.7, -1132925.1, -48199.152, 0.0012920172, 0.028626379, -982111.5, 155112.73, 0.0, 10.0011835, 9.999388 
9.349716e+2, 1.9395685e+2, -947987.2, -1058596.4, -53007.816, 0.006980688, 0.06649843, -926686.1, 112542.5, 0.0, 10.000853, 9.999385 
9.3498147e+2, 2.0395643e+2, -905610.7, -993737.5, -65816.805, 0.011461085, 0.08867511, -870469.1, 70765.46, 0.0, 10.000497, 9.999329 
9.3499124e+2, 2.1395572e+2, -864563.25, -923516.9, -65666.68, 0.014273718, 0.08593122, -822060.94, 21181.715, 0.0, 10.000108, 9.999326 
9.3500084e+2, 2.2395512e+2, -830412.4, -875689.7, -70308.64, 0.0119264675, 0.10290392, -779187.56, -33937.105, 0.0, 9.999753, 9.999152 
9.350103e+2, 2.3395471e+2, -777771.1, -801398.8, -73813.625, 0.001949337, 0.14841808, -714831.9, -67574.36, 0.0, 9.99945, 9.999135 
9.3501985e+2, 2.4395415e+2, -711656.56, -691933.0, -78237.22, -0.0060402984, 0.16855423, -622938.44, -73673.664, 0.0, 9.999115, 9.999375 
9.350292e+2, 2.5395337e+2, -666993.44, -616064.8, -77332.945, -0.01106712, 0.14908007, -560111.56, -108839.38, 0.0, 9.9987335, 9.999407 
9.350388e+2, 2.6395282e+2, -615107.7, -529138.44, -62230.066, -0.017920379, 0.15034145, -496490.7, -143212.36, 0.0, 9.998368, 9.999506 
9.3504864e+2, 2.7395266e+2, -565474.44, -452712.94, -60354.09, -0.027595589, 0.18259943, -426501.88, -171219.53, 0.0, 9.998029, 9.999521 
9.3505853e+2, 2.8395265e+2, -481604.13, -300503.22, -53423.477, -0.033507742, 0.20818266, -285918.28, -128634.32, 0.0, 9.997669, 10.000067 
9.3506855e+2, 2.939529e+2, -435766.9, -219828.02, -51074.43, -0.033583164, 0.21909983, -208357.1, -149074.95, 0.0, 9.997277, 10.000136 
9.3507886e+2, 3.039534e+2, -377238.16, -60942.816, -20846.26, -0.03817507, 0.20879935, -59574.805, -59574.805, 0.0, 9.996889, 10.00108 
9.350896e+2, 3.1395477e+2, -429032.1, -79763.06, -19534.652, -0.05093423, 0.23627914, -78673.88, -78673.88, 0.0, 9.996508, 10.001134 
9.449042e+2, 1.2395121e+2, -1320779.5, -1714324.1, -3037.9106, 0.020653589, 0.009789052, -1320756.0, 404525.1, 0.000016619406, 10.003523, 9.998306 
9.4491386e+2, 1.3395047e+2, -1261254.0, -1589997.6, -38605.082, 0.02267907, 0.06783745, -1256781.4, 370508.2, 0.0000023427797, 10.003065, 9.998708 
9.449232e+2, 1.4394912e+2, -1194337.3, -1466356.4, -27763.2, -0.010655112, 0.04716594, -1191532.5, 337770.75, 0.0000000053592455, 10.002677, 9.999069 
9.4493324e+2, 1.5394819e+2, -1135431.6, -1382930.1, -25334.805, -0.0017996107, 0.04111577, -1132864.9, 298447.13, 0.0, 10.002391, 9.999108 
9.4494313e+2, 1.6394736e+2, -1063049.0, -1262789.0, -28184.47, 0.0022668063, 0.035163824, -1059148.1, 274171.47, 0.0, 10.002067, 9.999416 
9.4495296e+2, 1.7394674e+2, -1017772.1, -1185915.0, -28069.574, -0.0006405858, 0.027991556, -1013210.06, 222115.4, 0.0, 10.001686, 9.9994545 
9.449627e+2, 1.839462e+2, -985702.1, -1135155.3, -35105.504, 0.00039602807, 0.03788366, -977866.8, 159464.44, 0.0, 10.0013, 9.999316 
9.449724e+2, 1.9394585e+2, -946052.56, -1066833.0, -37152.926, 0.0072571957, 0.07182258, -935539.2, 103797.88, 0.0, 10.000905, 9.999302 
9.44982e+2, 2.0394537e+2, -903952.7, -996847.9, -50645.656, 0.01201187, 0.09328509, -881680.8, 59662.867, 0.0, 10.000526, 9.999293 
9.4499135e+2, 2.1394467e+2, -857984.4, -923730.0, -55407.74, 0.013811185, 0.094567105, -826431.75, 16919.752, 0.0, 10.000168, 9.999294 
9.450006e+2, 2.2394407e+2, -826236.8, -877450.9, -60790.13, 0.011360004, 0.11159806, -785880.5, -40521.105, 0.0, 9.999798, 9.999118 
9.4500977e+2, 2.3394355e+2, -785989.75, -809302.6, -60983.938, 0.0025889024, 0.15136242, -735558.25, -88190.805, 0.0, 9.999411, 9.9991 
9.450189e+2, 2.4394296e+2, -723937.56, -695977.1, -65411.617, -0.0050879787, 0.16995232, -643068.44, -93693.53, 0.0, 9.9990225, 9.999392 
9.4502795e+2, 2.5394225e+2, -679776.2, -619694.56, -66080.92, -0.011107364, 0.15507372, -577146.5, -125764.99, 0.0, 9.998635, 9.999429 
9.450371e+2, 2.639417e+2, -628781.75, -530768.44, -50039.082, -0.01872117, 0.15492897, -509735.38, -156348.14, 0.0, 9.998254, 9.99955 
9.4504654e+2, 2.739415e+2, -583693.56, -456257.03, -45974.477, -0.02882705, 0.17688698, -441402.6, -186011.16, 0.0, 9.997882, 9.999568 
9.450561e+2, 2.8394154e+2, -505703.03, -309372.5, -40710.152, -0.03453803, 0.19985653, -301265.78, -143872.94, 0.0, 9.997492, 10.000092 
9.4506574e+2, 2.939419e+2, -463642.78, -230727.7, -41780.35, -0.03342455, 0.21984237, -223459.92, -164069.6, 0.0, 9.997075, 10.000159 
9.450757e+2, 3.0394244e+2, -407036.66, -69796.945, -12897.272, -0.03802843, 0.21419278, -69304.42, -69304.42, 0.0, 9.996661, 10.001128 
9.4508594e+2, 3.1394383e+2, -462375.63, -89961.445, -10802.204, -0.052454963, 0.23739362, -89648.38, -89648.38, 0.0, 9.996254, 10.001185 
9.549078e+2, 1.2394081e+2, -1318895.0, -1711263.6, -21044.037, 0.01919507, 0.03146144, -1317769.5, 407615.28, 0.000026449812, 10.003527, 9.998325 
9.5491695e+2, 1.339401e+2, -1258994.1, -1585878.1, -55834.105, 0.021959243, 0.08884719, -1249720.4, 377672.34, 0.0000047469885, 10.003067, 9.998735 
9.5492595e+2, 1.4393868e+2, -1193429.5, -1464879.1, -39182.16, -0.007215333, 0.059456933, -1187886.9, 341519.9, 0.000000046136613, 10.002679, 9.99908 
9.549356e+2, 1.5393762e+2, -1134608.0, -1381777.1, -36081.844, -0.0004992956, 0.041840773, -1129448.4, 301967.88, 0.0, 10.002393, 9.999115 
9.549452e+2, 1.6393678e+2, -1063128.0, -1263601.8, -42192.926, 0.0035739234, 0.034121558, -1054609.8, 278814.13, 0.0, 10.0020685, 9.99941 
9.549546e+2, 1.7393628e+2, -1017983.75, -1186949.8, -42499.883, 0.00402151, 0.03978283, -1007896.06, 227532.55, 0.0, 10.001688, 9.999447 
9.5496404e+2, 1.8393578e+2, -988307.56, -1141080.5, -50000.43, 0.004935227, 0.05242095, -973398.1, 164036.22, 0.0, 10.001301, 9.999275 
9.5497334e+2, 1.9393525e+2, -949051.2, -1073503.0, -52089.125, 0.00641415, 0.073954515, -930127.0, 109314.68, 0.0, 10.000907, 9.999256 
9.5498246e+2, 2.0393462e+2, -910077.44, -1009949.3, -64358.336, 0.007117108, 0.090757206, -878554.25, 62895.133, 0.0, 10.000527, 9.999203 
9.5499146e+2, 2.1393391e+2, -864507.9, -937637.7, -68922.664, 0.0069705606, 0.09901482, -823051.44, 20406.115, 0.0, 10.000169, 9.999199 
9.5500034e+2, 2.2393328e+2, -826263.0, -877887.75, -75311.4, 0.00487601, 0.11946808, -772463.3, -26997.578, 0.0, 9.9998, 9.999114 
9.5500916e+2, 2.3393276e+2, -785263.4, -808168.75, -75527.55, -0.00013119221, 0.15733786, -720325.1, -72851.51, 0.0, 9.999412, 9.999107 
9.550179e+2, 2.4393219e+2, -723526.44, -695455.94, -79922.875, -0.003964544, 0.17686643, -628345.3, -78864.38, 0.0, 9.999023, 9.999394 
9.550266e+2, 2.5393152e+2, -679390.5, -619171.4, -80521.734, -0.00607272, 0.16705796, -563313.9, -111826.65, 0.0, 9.998635, 9.999433 
9.550354e+2, 2.6393098e+2, -624033.7, -521109.3, -63920.18, -0.014315956, 0.16192833, -490509.66, -137016.73, 0.0, 9.998254, 9.999617 
9.5504445e+2, 2.7393064e+2, -578469.1, -445481.56, -59700.51, -0.031860515, 0.1639089, -422613.3, -167115.86, 0.0, 9.997882, 9.999642 
9.550535e+2, 2.8393063e+2, -506527.75, -311022.06, -55892.637, -0.041872196, 0.1821118, -296171.16, -138672.36, 0.0, 9.997492, 10.00008 
9.5506275e+2, 2.9393116e+2, -465211.8, -233802.48, -57100.52, -0.040228367, 0.22034784, -220479.88, -160984.39, 0.0, 9.997074, 10.000138 
9.550723e+2, 3.0393183e+2, -403612.1, -62354.15, -27901.525, -0.041540645, 0.22381197, -60087.945, -60087.945, 0.0, 9.99666, 10.00118 
9.5508224e+2, 3.1393322e+2, -458494.84, -81330.89, -25629.55, -0.04864281, 0.23989733, -79597.24, -79597.24, 0.0, 9.996251, 10.001246 
9.6491134e+2, 1.2393069e+2, -1308318.1, -1710016.3, -1902.994, 0.019546201, 0.037145056, -1308309.1, 417175.72, 0.00003990401, 10.003616, 9.998291 
9.649201e+2, 1.3393001e+2, -1231385.3, -1576205.8, -40223.89, 0.019377304, 0.10074234, -1226755.3, 400737.3, 0.000008636752, 10.003273, 9.998702 
9.6492875e+2, 1.4392856e+2, -1159302.3, -1447616.8, -24331.537, -0.0061534555, 0.06949528, -1157263.3, 372243.53, 0.00000019058375, 10.00291, 9.999086 
9.649381e+2, 1.5392748e+2, -1116433.0, -1371674.8, -20735.906, 0.002275078, 0.046987373, -1114759.4, 316757.06, 0.0, 10.002512, 9.999126 
9.6494734e+2, 1.6392662e+2, -1057256.8, -1262777.8, -28497.723, 0.00737151, 0.03905929, -1053378.4, 280145.5, 0.0, 10.002118, 9.999392 
9.649564e+2, 1.7392617e+2, -1013156.94, -1187036.6, -30068.742, 0.007886219, 0.05151245, -1008104.0, 227424.44, 0.0, 10.001732, 9.999425 
9.649654e+2, 1.8392564e+2, -982677.8, -1141759.8, -37653.297, 0.008205045, 0.06524101, -974215.75, 163318.67, 0.0, 10.001355, 9.999244 
9.649742e+2, 1.9392502e+2, -938843.06, -1072143.1, -38747.816, 0.008099306, 0.07931524, -928398.25, 111144.24, 0.0, 10.000993, 9.999224 
9.6498305e+2, 2.0392433e+2, -901257.7, -1012467.0, -49476.36, 0.006764745, 0.092884235, -882432.56, 59118.227, 0.0, 10.000617, 9.999142 
9.6499157e+2, 2.1392359e+2, -861439.3, -943347.6, -51754.96, 0.0039148573, 0.10428857, -836394.9, 7164.5366, 0.0, 10.000221, 9.999134 
9.650001e+2, 2.239229e+2, -826302.94, -881781.94, -58938.715, 0.00083512225, 0.124919616, -788902.2, -43334.21, 0.0, 9.999816, 9.99908 
9.6500856e+2, 2.339223e+2, -789785.0, -813869.94, -62301.06, -0.0025887731, 0.15849803, -738373.2, -90796.7, 0.0, 9.999396, 9.999075 
9.650169e+2, 2.4392173e+2, -730557.3, -699265.0, -68639.87, -0.0047534485, 0.17961904, -644510.6, -94926.734, 0.0, 9.998978, 9.999391 
9.650252e+2, 2.5392115e+2, -690243.06, -624396.3, -69642.125, -0.005111602, 0.18018146, -580287.44, -128697.89, 0.0, 9.998562, 9.999433 
9.6503365e+2, 2.6392066e+2, -633807.1, -516065.78, -52391.168, -0.013438386, 0.17427185, -496129.16, -142534.39, 0.0, 9.998145, 9.999703 
9.650422e+2, 2.7392024e+2, -593923.75, -441941.7, -46508.598, -0.033829, 0.15863366, -428839.0, -173239.73, 0.0, 9.997728, 9.99974 
9.650508e+2, 2.8392026e+2, -534597.75, -326282.16, -43018.79, -0.045759164, 0.17210221, -317748.06, -160147.64, 0.0, 9.997307, 10.000065 
9.6505964e+2, 2.9392087e+2, -496159.5, -251938.5, -45126.438, -0.044583086, 0.225219, -243866.94, -184270.27, 0.0, 9.996877, 10.00011 
9.6506876e+2, 3.0392164e+2, -432480.53, -73604.5, -17064.68, -0.04604133, 0.23742378, -72794.9, -72794.9, 0.0, 9.99645, 10.001204 
9.650783e+2, 3.13923e+2, -488119.0, -92261.59, -17074.15, -0.05279749, 0.2508146, -91526.516, -91526.516, 0.0, 9.996034, 10.001276 
9.7491497e+2, 1.239209e+2, -1314626.1, -1723575.4, -15869.8125, 0.02149219, 0.02603741, -1314011.3, 411569.47, 0.000057479218, 10.003618, 9.998198 
9.749233e+2, 1.3392025e+2, -1237838.1, -1590272.9, -52897.89, 0.014820698, 0.1031242, -1230069.8, 397519.03, 0.000014404859, 10.003276, 9.998605 
9.7493166e+2, 1.4391881e+2, -1158776.0, -1447188.3, -39115.73, -0.0076013873, 0.077130534, -1153565.1, 376038.16, 0.0000005546723, 10.0029125, 9.999088 
9.7494066e+2, 1.5391774e+2, -1115122.0, -1369454.9, -35757.035, 0.0065054004, 0.056608055, -1110190.5, 321421.6, 0.0, 10.002514, 9.999141 
9.7494954e+2, 1.6391692e+2, -1059263.9, -1267402.4, -43119.723, 0.013690836, 0.050086115, -1050684.5, 282935.06, 0.0, 10.002119, 9.999359 
9.749581e+2, 1.7391643e+2, -1015550.75, -1192466.9, -44680.35, 0.010924885, 0.06318509, -1004907.0, 230717.81, 0.0, 10.001734, 9.999387 
9.7496676e+2, 1.8391587e+2, -983952.75, -1144857.6, -51488.52, 0.010153884, 0.07632488, -968887.3, 168744.0, 0.0, 10.001356, 9.999223 
9.749753e+2, 1.9391519e+2, -939998.25, -1074987.4, -52486.277, 0.01231802, 0.08792441, -921992.4, 117647.1, 0.0, 10.000995, 9.999204 
9.749837e+2, 2.0391446e+2, -903317.3, -1017168.1, -64341.2, 0.010980303, 0.09969283, -874334.1, 67313.88, 0.0, 10.000619, 9.999109 
9.749918e+2, 2.1391368e+2, -863674.56, -948366.56, -66739.74, 0.0046424153, 0.11040751, -826980.25, 16676.662, 0.0, 10.000223, 9.9991 
9.7499996e+2, 2.2391291e+2, -830877.5, -891662.75, -74666.56, -0.0007776714, 0.12797913, -780654.94, -34988.7, 0.0, 9.999818, 9.999011 
9.750079e+2, 2.3391217e+2, -794715.06, -824462.3, -78088.91, -0.004787896, 0.15487145, -730095.9, -82419.78, 0.0, 9.999397, 9.999002 
9.750159e+2, 2.4391158e+2, -731298.1, -701121.56, -84197.664, -0.007453646, 0.17820723, -630670.94, -80987.055, 0.0, 9.998979, 9.999377 
9.7502375e+2, 2.5391117e+2, -690500.7, -625207.2, -85131.83, -0.0082013495, 0.19439007, -566677.0, -114988.5, 0.0, 9.998563, 9.999427 
9.7503173e+2, 2.6391074e+2, -626321.4, -500733.84, -67852.055, -0.016086897, 0.19183822, -471077.84, -117384.94, 0.0, 9.998146, 9.999808 
9.750399e+2, 2.7391028e+2, -585562.6, -424656.38, -61912.43, -0.03481416, 0.16087219, -403591.75, -147894.69, 0.0, 9.997728, 9.999859 
9.750482e+2, 2.8391027e+2, -536264.5, -329665.06, -58832.6, -0.046352707, 0.16960436, -314086.25, -156388.3, 0.0, 9.997306, 10.000042 
9.750565e+2, 2.93911e+2, -499144.47, -257915.02, -60910.895, -0.046638314, 0.23429562, -243407.39, -183713.28, 0.0, 9.996875, 10.000069 
9.750652e+2, 3.039118e+2, -433230.25, -74736.914, -32349.643, -0.051590044, 0.25484052, -71841.14, -71841.14, 0.0, 9.9964485, 10.001197 
9.7507423e+2, 3.139132e+2, -488831.44, -92987.734, -32106.973, -0.06485834, 0.26943994, -90400.44, -90400.44, 0.0, 9.99603, 10.001273 
9.8491865e+2, 1.2391165e+2, -1299590.1, -1727146.0, 4164.471, 0.018351486, 0.024555748, -1299549.6, 426121.72, 0.00007951568, 10.003768, 9.9981 
9.8492664e+2, 1.3391095e+2, -1219681.1, -1592959.5, -31719.105, 0.013706449, 0.10691385, -1217005.0, 410675.4, 0.000022398126, 10.00345, 9.998502 
9.849347e+2, 1.4390944e+2, -1131510.8, -1433810.3, -20826.396, -0.0033720864, 0.07977929, -1130082.6, 399613.16, 0.0000013019285, 10.0030985, 9.99909 
9.849433e+2, 1.5390836e+2, -1088365.9, -1354803.3, -17739.98, 0.00936168, 0.056628563, -1087189.9, 344514.38, 0.0, 10.00269, 9.999157 
9.8495173e+2, 1.6390753e+2, -1040473.7, -1264906.4, -25921.105, 0.015782043, 0.0514659, -1037518.8, 296192.8, 0.0, 10.002277, 9.9993 
9.8495996e+2, 1.7390704e+2, -1001994.25, -1193481.0, -29736.598, 0.013302745, 0.071940444, -997482.6, 238234.8, 0.0, 10.001859, 9.999319 
9.849682e+2, 1.8390647e+2, -972325.06, -1141683.3, -37170.785, 0.013158604, 0.08784906, -964526.0, 173198.36, 0.0, 10.001447, 9.999201 
9.8497635e+2, 1.9390573e+2, -933996.06, -1073949.8, -37921.406, 0.016456671, 0.09516984, -924381.5, 115351.33, 0.0, 10.001044, 9.9991865 
9.849844e+2, 2.0390497e+2, -903478.3, -1021250.1, -50579.207, 0.014969445, 0.105389185, -884738.1, 57003.434, 0.0, 10.000635, 9.999073 
9.849921e+2, 2.1390416e+2, -866961.1, -954293.4, -53523.996, 0.0065081385, 0.1188058, -841550.8, 2199.8176, 0.0, 10.000219, 9.999061 
9.849997e+2, 2.2390337e+2, -836388.94, -895850.56, -60984.035, 0.00017077403, 0.13569807, -798274.5, -52514.22, 0.0, 9.999786, 9.998997 
9.850073e+2, 2.3390256e+2, -805486.0, -830882.75, -60132.535, -0.0029346806, 0.15671515, -756725.7, -108954.984, 0.0, 9.999329, 9.998991 
9.850148e+2, 2.4390194e+2, -744117.3, -707780.56, -62485.465, -0.006827218, 0.17734481, -660875.75, -111096.945, 0.0, 9.998894, 9.9993725 
9.850222e+2, 2.5390154e+2, -701271.3, -630765.6, -63292.0, -0.012045283, 0.19565289, -593570.94, -141787.66, 0.0, 9.99849, 9.999423 
9.8502976e+2, 2.6390114e+2, -637664.2, -503062.94, -50098.17, -0.020701008, 0.19653672, -486463.63, -132676.19, 0.0, 9.998055, 9.999836 
9.8503757e+2, 2.7390075e+2, -606713.0, -431308.38, -51025.723, -0.034578577, 0.17087373, -417544.84, -161754.0, 0.0, 9.997569, 9.99989 
9.850454e+2, 2.8390086e+2, -565348.94, -341153.78, -49891.207, -0.043897986, 0.18245715, -330552.53, -172761.25, 0.0, 9.997096, 10.000064 
9.850533e+2, 2.939016e+2, -531312.8, -271008.16, -47666.46, -0.045956794, 0.24644895, -262554.16, -202766.75, 0.0, 9.996644, 10.00009 
9.8506147e+2, 3.0390242e+2, -469698.1, -87485.19, -15578.04, -0.05479358, 0.2659354, -86851.31, -86851.31, 0.0, 9.996178, 10.00124 
9.8506993e+2, 3.139038e+2, -535603.06, -110401.875, -11904.115, -0.075096354, 0.27688313, -110068.87, -110068.87, 0.0, 9.9956875, 10.001318 
9.949223e+2, 1.23902954e+2, -1306479.3, -1741974.9, -9273.954, 0.00977009, 0.03287512, -1306281.9, 419474.47, 0.0001062269, 10.00377, 9.997997 
9.949301e+2, 1.3390212e+2, -1227072.1, -1608905.8, -43413.566, 0.016062004, 0.11212552, -1222198.3, 405569.13, 0.00003292342, 10.003452, 9.998392 
9.9493784e+2, 1.4390047e+2, -1131153.0, -1433653.3, -35818.395, 0.006644053, 0.077270515, -1126969.6, 402814.53, 0.0000026281716, 10.003101, 9.99909 
9.94946e+2, 1.5389934e+2, -1086974.8, -1352493.5, -33122.863, 0.010797579, 0.046813823, -1082905.1, 348887.5, 0.00000000019976186, 10.002692, 9.999171 
9.94954e+2, 1.6389848e+2, -1046260.94, -1277517.6, -41645.168, 0.013533414, 0.04297425, -1038990.0, 294810.13, 0.0, 10.002279, 9.999212 
9.9496186e+2, 1.7389804e+2, -1008631.5, -1207830.1, -45535.227, 0.014981599, 0.07767938, -998716.06, 237090.1, 0.0, 10.001862, 9.99922 
9.9496967e+2, 1.8389747e+2, -973726.0, -1145088.4, -52523.105, 0.017215785, 0.09978765, -958908.75, 178904.67, 0.0, 10.001449, 9.999176 
9.949774e+2, 1.9389665e+2, -934789.25, -1076032.4, -53232.938, 0.020501908, 0.10104255, -916973.56, 122848.92, 0.0, 10.001045, 9.999172 
9.94985e+2, 2.0389584e+2, -906146.94, -1027196.8, -66274.81, 0.018717548, 0.10997103, -876918.75, 64912.805, 0.0, 10.000637, 9.999032 
9.949923e+2, 2.1389505e+2, -869884.25, -960735.25, -69272.77, 0.009503107, 0.12948519, -832471.4, 11369.273, 0.0, 10.00022, 9.999016 
9.949995e+2, 2.2389425e+2, -833556.7, -890354.3, -78059.49, 0.0036658891, 0.14807387, -778890.6, -33040.426, 0.0, 9.999788, 9.999035 
9.950067e+2, 2.3389347e+2, -801948.9, -823898.3, -77351.56, 0.0029403633, 0.16400973, -734797.3, -86937.04, 0.0, 9.9993305, 9.999039 
9.950137e+2, 2.4389277e+2, -743812.06, -707453.06, -77748.055, -0.002899042, 0.17706442, -645787.4, -95918.78, 0.0, 9.998895, 9.999375 
9.950207e+2, 2.5389224e+2, -701401.1, -631269.75, -78268.09, -0.016640574, 0.184128, -580571.25, -128697.14, 0.0, 9.998491, 9.999419 
9.950278e+2, 2.6389188e+2, -641232.3, -510635.88, -67812.36, -0.027296055, 0.18846889, -481793.9, -127915.52, 0.0, 9.998055, 9.999784 
9.950352e+2, 2.7389172e+2, -610752.6, -439752.22, -69021.62, -0.03320646, 0.18842292, -415369.44, -159488.64, 0.0, 9.997569, 9.999832 
9.9504256e+2, 2.838919e+2, -561027.44, -332107.53, -66604.19, -0.03853152, 0.2103586, -314139.38, -156258.73, 0.0, 9.997095, 10.000127 
9.9504995e+2, 2.938926e+2, -525978.6, -259750.95, -64203.066, -0.042676836, 0.26160678, -245076.67, -185199.94, 0.0, 9.996643, 10.000168 
9.9505764e+2, 3.0389336e+2, -463733.22, -74752.99, -33324.023, -0.055828176, 0.27083278, -71918.766, -71918.766, 0.0, 9.996176, 10.001328 
9.9506557e+2, 3.1389478e+2, -529745.75, -97521.01, -29690.389, -0.08381439, 0.27322674, -95491.05, -95491.05, 0.0, 9.995684, 10.001409 
1.0049261e+3, 1.2389459e+2, -1287236.5, -1741234.4, 5269.686, 0.004808475, 0.037205983, -1287175.3, 438663.03, 0.00013780879, 10.00394, 9.997921 
1.00493364e+3, 1.3389362e+2, -1208118.5, -1609010.3, -24874.475, 0.013842886, 0.11319426, -1206581.0, 421269.78, 0.000046236724, 10.003623, 9.998308 
1.0049411e+3, 1.4389192e+2, -1103691.4, -1418759.9, -18549.443, 0.009627922, 0.07584907, -1102603.0, 427265.25, 0.00000474816, 10.003283, 9.9991045 
1.0049488e+3, 1.5389086e+2, -1055139.1, -1334049.3, -15248.478, 0.010759705, 0.05080469, -1054307.9, 377567.8, 0.000000004412824, 10.002897, 9.999199 
1.0049564e+3, 1.6389e+2, -1022817.94, -1274710.5, -24531.336, 0.012810096, 0.047903184, -1020451.1, 313432.13, 0.0, 10.002477, 9.999137 
1.0049638e+3, 1.7388941e+2, -994136.0, -1210729.9, -27818.684, 0.017263742, 0.07661473, -990620.1, 245270.8, 0.0, 10.002004, 9.999131 
1.0049712e+3, 1.8388878e+2, -961105.44, -1140213.0, -33181.605, 0.021196792, 0.09825105, -955155.8, 182743.03, 0.0, 10.001541, 9.999166 
1.0049785e+3, 1.9388805e+2, -927455.44, -1072562.9, -32800.2, 0.024127388, 0.10758664, -920385.7, 119521.484, 0.0, 10.001096, 9.999171 
1.0049857e+3, 2.0388725e+2, -906710.5, -1030013.3, -45204.79, 0.022518551, 0.11836033, -891913.44, 50002.773, 0.0, 10.000644, 9.999008 
1.0049926e+3, 2.1388637e+2, -877431.94, -967263.56, -46946.9, 0.014276419, 0.13004646, -857375.1, -13448.943, 0.0, 10.000181, 9.998989 
1.00499935e+3, 2.2388555e+2, -843143.6, -895076.7, -56858.965, 0.008520806, 0.147583, -806602.56, -60666.555, 0.0, 9.9997225, 9.999033 
1.005006e+3, 2.3388484e+2, -810543.44, -827814.8, -59816.723, 0.0065205623, 0.17300297, -758742.25, -110796.87, 0.0, 9.99927, 9.99904 
1.00501254e+3, 2.4388419e+2, -750683.06, -705904.0, -59651.08, -0.0012349482, 0.18722984, -664579.0, -114625.64, 0.0, 9.998827, 9.999417 
1.0050191e+3, 2.538836e+2, -711993.8, -630876.75, -56317.918, -0.017853213, 0.18258123, -602032.8, -150073.66, 0.0, 9.998396, 9.999468 
1.0050257e+3, 2.6388323e+2, -660840.6, -521714.75, -45589.97, -0.029142357, 0.18618743, -508106.47, -154143.08, 0.0, 9.997929, 9.999769 
1.00503266e+3, 2.7388322e+2, -635988.44, -454368.9, -44777.52, -0.032294236, 0.20217574, -443929.28, -187964.2, 0.0, 9.997407, 9.999809 
1.0050396e+3, 2.8388342e+2, -586880.7, -341213.25, -40734.18, -0.03653556, 0.22897248, -334635.25, -176670.55, 0.0, 9.996904, 10.000155 
1.00504644e+3, 2.9388404e+2, -554309.6, -269219.5, -41460.22, -0.042160854, 0.26810318, -263312.38, -203351.1, 0.0, 9.996431, 10.000205 
1.0050537e+3, 3.0388483e+2, -496222.13, -79306.74, -15087.071, -0.05492239, 0.2702302, -78761.49, -78761.49, 0.0, 9.995906, 10.001427 
1.0050611e+3, 3.138863e+2, -578745.2, -109077.875, -10762.9375, -0.079643056, 0.27128395, -108831.37, -108831.37, 0.0, 9.9952965, 10.001515 
1.01493e+3, 1.2388656e+2, -1290616.3, -1748772.9, -8504.412, 0.0034225339, 0.03732568, -1290458.4, 435458.6, 0.00017441943, 10.003942, 9.997869 
1.01493716e+3, 1.3388552e+2, -1211793.6, -1617203.1, -36573.02, 0.0069165295, 0.109997176, -1208520.6, 419409.78, 0.00006254036, 10.003625, 9.998252 
1.0149443e+3, 1.4388382e+2, -1101427.0, -1414624.0, -32706.783, 0.0053659384, 0.07549575, -1098047.9, 431900.1, 0.000007860604, 10.003284, 9.999132 
1.0149517e+3, 1.5388298e+2, -1052045.3, -1328246.0, -29745.031, 0.009159948, 0.06884295, -1048878.3, 383075.13, 0.000000028517778, 10.0029, 9.999238 
1.0149588e+3, 1.638821e+2, -1027068.0, -1284186.4, -42032.324, 0.013608391, 0.0665226, -1020371.2, 313589.56, 0.0, 10.00248, 9.999071 
1.01496585e+3, 1.7388119e+2, -999346.75, -1222160.0, -45709.74, 0.020135574, 0.06867885, -990334.0, 245637.52, 0.0, 10.002006, 9.999052 
1.0149728e+3, 1.8388043e+2, -960679.44, -1139861.5, -50144.35, 0.025065083, 0.08303809, -947601.06, 190379.52, 0.0, 10.001543, 9.999167 
1.0149797e+3, 1.9387995e+2, -926378.4, -1070797.1, -49614.28, 0.027309548, 0.11475904, -910976.25, 129010.61, 0.0, 10.001098, 9.999183 
1.0149864e+3, 2.0387919e+2, -906899.8, -1030828.56, -62644.797, 0.026349343, 0.1305947, -880750.9, 61244.5, 0.0, 10.000646, 9.999002 
1.0149928e+3, 2.1387808e+2, -877834.3, -968492.75, -64405.15, 0.020805562, 0.12048906, -844405.94, -398.62192, 0.0, 10.000182, 9.9989805 
1.01499915e+3, 2.2387719e+2, -845904.6, -901179.4, -73948.586, 0.01472259, 0.13419352, -794597.6, -48579.82, 0.0, 9.999724, 9.998991 
1.0150053e+3, 2.3387669e+2, -813649.4, -834607.94, -76792.52, 0.0078108762, 0.18365414, -746624.44, -98598.41, 0.0, 9.999271, 9.998993 
1.01501144e+3, 2.4387614e+2, -744820.7, -694030.25, -75879.2, -0.0018503297, 0.20778184, -639409.4, -89376.24, 0.0, 9.998828, 9.999499 
1.01501755e+3, 2.5387552e+2, -705045.2, -616653.25, -72379.85, -0.015755259, 0.19093838, -576042.8, -124004.13, 0.0, 9.998396, 9.999565 
1.01502374e+3, 2.638752e+2, -659496.06, -519054.34, -64634.74, -0.026323667, 0.1896672, -493836.13, -139793.53, 0.0, 9.997929, 9.999787 
1.01503e+3, 2.7387524e+2, -635390.1, -453157.56, -64133.598, -0.031882863, 0.21222484, -432849.9, -176806.03, 0.0, 9.997406, 9.999819 
1.0150364e+3, 2.8387547e+2, -587367.5, -342156.06, -58305.293, -0.037940633, 0.23846325, -328998.47, -170954.83, 0.0, 9.996903, 10.00015 
1.0150429e+3, 2.938759e+2, -554942.9, -270402.7, -58773.816, -0.044435937, 0.26610374, -258740.52, -198699.22, 0.0, 9.99643, 10.000197 
1.0150496e+3, 3.0387673e+2, -488874.97, -63921.254, -36915.113, -0.052262302, 0.26422143, -60738.332, -60738.332, 0.0, 9.995905, 10.001533 
1.0150566e+3, 3.1387842e+2, -570389.25, -91555.05, -33135.707, -0.06324455, 0.2708207, -89272.91, -89272.91, 0.0, 9.995296, 10.0016365 
1.02493405e+3, 1.23879015e+2, -1239537.3, -1732513.6, 12560.905, -0.0047797333, 0.0370053, -1239217.5, 486773.47, 0.00021610968, 10.004329, 9.997793 
1.0249409e+3, 1.3387784e+2, -1176475.3, -1609618.5, -15547.177, 0.00071195763, 0.104459934, -1175918.0, 452087.66, 0.00008198363, 10.003908, 9.998167 
1.02494776e+3, 1.4387609e+2, -1078212.8, -1407975.3, -17665.486, 0.005616132, 0.07160314, -1077269.1, 452754.7, 0.000012107449, 10.003464, 9.999092 
1.0249546e+3, 1.5387538e+2, -1043927.6, -1328225.0, -20679.645, 0.010136352, 0.08247483, -1042431.25, 389597.1, 0.00000009714164, 10.002973, 9.999203 
1.0249613e+3, 1.6387455e+2, -1018140.4, -1272992.4, -32040.092, 0.015573441, 0.082775764, -1014174.0, 319861.5, 0.0, 10.002511, 9.999132 
1.0249679e+3, 1.738735e+2, -981039.56, -1205097.0, -24306.518, 0.023623262, 0.06457386, -978433.06, 257613.73, 0.0, 10.002096, 9.9991255 
1.02497436e+3, 1.838727e+2, -949321.0, -1138953.1, -25017.795, 0.029233871, 0.07189282, -946075.94, 191980.08, 0.0, 10.00164, 9.999126 
1.02498084e+3, 1.9387229e+2, -926587.56, -1077097.5, -29648.861, 0.030845406, 0.11727947, -920957.6, 119104.51, 0.0, 10.001123, 9.999127 
1.024987e+3, 2.0387158e+2, -906347.2, -1025743.9, -43237.52, 0.02900386, 0.13804284, -892334.1, 49736.316, 0.0, 10.000628, 9.999045 
1.02499306e+3, 2.1387044e+2, -875618.75, -961232.3, -40208.027, 0.022205856, 0.11915406, -859696.44, -15614.263, 0.0, 10.000172, 9.999036 
1.0249989e+3, 2.2386953e+2, -851520.5, -909541.56, -47465.4, 0.0152962385, 0.13057959, -824902.1, -78809.36, 0.0, 9.99971, 9.9989395 
1.0250045e+3, 2.3386905e+2, -822411.1, -846014.06, -51761.547, 0.008222163, 0.18794112, -781122.75, -133021.33, 0.0, 9.999243, 9.998928 
1.0250103e+3, 2.4386853e+2, -751473.06, -691894.6, -53227.273, -0.00031551396, 0.2166162, -660687.6, -110579.02, 0.0, 9.998759, 9.999546 
1.02501586e+3, 2.5386798e+2, -721793.5, -617701.5, -52603.273, -0.011174979, 0.19902009, -595748.2, -143634.69, 0.0, 9.998251, 9.999627 
1.0250216e+3, 2.638677e+2, -682498.25, -520641.66, -46379.76, -0.020694545, 0.19757038, -508293.63, -154176.98, 0.0, 9.99773, 9.999871 
1.0250273e+3, 2.7386782e+2, -660786.0, -455536.88, -40500.49, -0.028270256, 0.22086082, -447834.25, -191717.36, 0.0, 9.99719, 9.999906 
1.0250332e+3, 2.838681e+2, -619447.5, -358164.56, -29181.723, -0.036621332, 0.24574557, -354945.03, -196828.73, 0.0, 9.996686, 10.000144 
1.0250392e+3, 2.938685e+2, -584298.0, -286399.8, -30207.758, -0.045806173, 0.26885912, -283367.53, -223252.89, 0.0, 9.996238, 10.00018 
1.02504544e+3, 3.038693e+2, -512216.72, -71627.84, -16284.908, -0.050232146, 0.26659676, -71026.74, -71026.74, 0.0, 9.995729, 10.001564 
1.02505185e+3, 3.1387106e+2, -592306.5, -97912.41, -19468.533, -0.048398033, 0.27753294, -97146.945, -97146.945, 0.0, 9.995128, 10.001674 
1.03493825e+3, 1.2387197e+2, -1246137.9, -1747101.1, -5074.034, -0.020067155, 0.036196895, -1246086.5, 479973.28, 0.00026290596, 10.004333, 9.997691 
1.0349447e+3, 1.3387059e+2, -1184122.0, -1626239.1, -31180.738, -0.004811265, 0.09653319, -1181933.8, 446142.25, 0.00010465286, 10.003911, 9.998052 
1.0349511e+3, 1.4386873e+2, -1085780.1, -1424264.9, -35844.906, 0.010428119, 0.06408466, -1082025.8, 448069.78, 0.000017566988, 10.003466, 9.99898 
1.0349576e+3, 1.538681e+2, -1051467.1, -1344367.6, -39253.105, 0.0137113705, 0.091601744, -1046297.8, 385802.88, 0.00000023822265, 10.0029745, 9.999092 
1.0349639e+3, 1.6386734e+2, -1004615.44, -1245423.8, -48017.65, 0.018700525, 0.096590005, -995393.75, 338713.56, 0.0, 10.002513, 9.999321 
1.03497006e+3, 1.7386636e+2, -964824.5, -1172009.0, -39943.36, 0.027719487, 0.064325646, -957390.5, 278726.0, 0.0, 10.002098, 9.9993515 
1.0349761e+3, 1.8386559e+2, -954947.0, -1151186.5, -44151.867, 0.033692133, 0.06487658, -945470.9, 192654.31, 0.0, 10.001642, 9.999042 
1.0349819e+3, 1.9386509e+2, -935073.56, -1095206.9, -49226.918, 0.034714926, 0.115109645, -921151.06, 118981.8, 0.0, 10.001124, 9.999002 
1.03498764e+3, 2.0386441e+2, -899771.0, -1012528.1, -60763.066, 0.030456094, 0.1406159, -873259.94, 68881.4, 0.0, 10.00063, 9.999136 
1.03499316e+3, 2.1386342e+2, -867152.56, -944075.7, -57436.266, 0.018437218, 0.12601902, -836489.44, 7661.38, 0.0, 10.000173, 9.999153 
1.0349985e+3, 2.2386254e+2, -855636.06, -918462.4, -65017.207, 0.010198766, 0.13677941, -814841.06, -68680.16, 0.0, 9.999711, 9.9988785 
1.0350038e+3, 2.338619e+2, -828221.7, -858405.2, -69307.67, 0.0077303783, 0.18590863, -772381.7, -124209.99, 0.0, 9.999244, 9.998843 
1.035009e+3, 2.4386133e+2, -750496.44, -690150.0, -72063.13, 0.0033412657, 0.21376461, -642198.2, -92018.4, 0.0, 9.99876, 9.999558 
1.0350142e+3, 2.538609e+2, -720003.4, -614203.7, -71564.06, -0.0041526, 0.20681266, -578110.2, -125926.38, 0.0, 9.998252, 9.999651 
1.0350194e+3, 2.6386076e+2, -672128.5, -499273.8, -66335.85, -0.012313917, 0.20988572, -476751.03, -122565.28, 0.0, 9.997731, 10.000018 
1.0350247e+3, 2.73861e+2, -649385.94, -431943.66, -60559.125, -0.021541364, 0.22814402, -416215.25, -160030.89, 0.0, 9.99719, 10.000068 
1.0350299e+3, 2.8386134e+2, -620031.4, -359346.66, -46093.023, -0.03267661, 0.25087023, -351436.72, -193253.83, 0.0, 9.996686, 10.000136 
1.0350354e+3, 2.9386172e+2, -586475.1, -290817.8, -46642.703, -0.046353996, 0.2763288, -283634.03, -223452.5, 0.0, 9.996237, 10.000151 
1.03504114e+3, 3.038625e+2, -515428.75, -78209.055, -37784.48, -0.048919156, 0.27726573, -74967.75, -74967.75, 0.0, 9.9957285, 10.001519 
1.0350471e+3, 3.138643e+2, -595686.2, -104874.65, -41551.547, -0.035285182, 0.29096928, -101381.8, -101381.8, 0.0, 9.995127, 10.001627 
1.0449427e+3, 1.23865455e+2, -1192961.9, -1726625.1, 9975.644, -0.026180215, 0.044117738, -1192775.5, 533348.25, 0.00031492038, 10.004722, 9.997644 
1.0449487e+3, 1.3386393e+2, -1153865.4, -1617716.1, -9640.848, -0.006959431, 0.09307945, -1153665.0, 474476.13, 0.00013061533, 10.004146, 9.997996 
1.0449548e+3, 1.4386192e+2, -1068859.5, -1421128.5, -9607.125, 0.014329881, 0.052930675, -1068597.8, 461564.06, 0.000024312307, 10.003604, 9.998934 
1.0449607e+3, 1.5386127e+2, -1035763.44, -1341562.8, -7959.651, 0.013972526, 0.08194524, -1035556.4, 396611.16, 0.0000004785213, 10.003103, 9.999049 
1.0449664e+3, 1.6386056e+2, -985856.2, -1228358.6, -16280.178, 0.017533341, 0.09260896, -984768.1, 349405.63, 0.0, 10.002607, 9.9993925 
1.0449722e+3, 1.738598e+2, -955475.94, -1157760.5, -18556.236, 0.02870658, 0.07216225, -953787.8, 282393.0, 0.0, 10.002121, 9.999438 
1.04497775e+3, 1.8385908e+2, -958295.25, -1155955.9, -28572.084, 0.035161972, 0.07510243, -954248.0, 183940.89, 0.0, 10.001634, 9.999013 
1.0449831e+3, 1.9385843e+2, -935014.0, -1099999.3, -27888.11, 0.033981066, 0.113169804, -930427.44, 109770.94, 0.0, 10.001146, 9.998959 
1.04498826e+3, 2.038577e+2, -891671.0, -1003219.2, -36256.137, 0.028743459, 0.1352292, -880922.5, 61284.78, 0.0, 10.000663, 9.999184 
1.04499325e+3, 2.1385689e+2, -861090.7, -934461.94, -37201.67, 0.017654544, 0.13078924, -845528.9, -1313.834, 0.0, 10.000186, 9.999212 
1.0449982e+3, 2.2385608e+2, -858781.0, -917747.8, -45965.92, 0.010824088, 0.14363144, -833655.5, -87431.13, 0.0, 9.9996805, 9.998898 
1.0450031e+3, 2.3385534e+2, -843558.5, -864186.0, -43211.082, 0.010489889, 0.18221696, -809447.3, -161211.33, 0.0, 9.999132, 9.998857 
1.0450077e+3, 2.4385476e+2, -772452.56, -698731.25, -41625.117, 0.006525008, 0.20865302, -679991.9, -129747.57, 0.0, 9.998601, 9.999576 
1.0450123e+3, 2.5385448e+2, -740979.3, -622230.25, -41691.598, -0.0032228539, 0.21446286, -609054.6, -156807.22, 0.0, 9.998099, 9.999669 
1.0450171e+3, 2.6385444e+2, -690405.6, -500912.22, -41124.22, -0.011195962, 0.22338118, -492372.22, -138123.64, 0.0, 9.997575, 10.000082 
1.0450217e+3, 2.738547e+2, -669967.1, -434016.38, -42643.03, -0.016408233, 0.2366022, -426546.1, -170299.27, 0.0, 9.997016, 10.000137 
1.0450266e+3, 2.8385508e+2, -644292.8, -365633.84, -27097.395, -0.025695663, 0.25692397, -363023.28, -204778.4, 0.0, 9.996496, 10.000184 
1.0450316e+3, 2.9385552e+2, -612065.2, -298055.53, -21922.889, -0.040979147, 0.28430027, -296532.34, -236289.55, 0.0, 9.996039, 10.0001955 
1.04503684e+3, 3.0385637e+2, -540746.4, -90133.78, -12407.609, -0.044909026, 0.2865382, -89792.4, -89792.4, 0.0, 9.995555, 10.001521 
1.0450422e+3, 3.138581e+2, -611040.9, -112661.52, -13612.777, -0.032091763, 0.29874116, -112289.98, -112289.98, 0.0, 9.995024, 10.001622 
1.0549475e+3, 1.23859525e+2, -1192020.1, -1725515.8, -13399.161, -0.02308018, 0.06086643, -1191683.8, 534498.9, 0.00037229105, 10.0047245, 9.997651 
1.0549529e+3, 1.3385783e+2, -1153177.5, -1616973.3, -31103.479, -0.005675393, 0.09420958, -1151100.9, 477099.75, 0.00015994479, 10.0041485, 9.998001 
1.0549584e+3, 1.4385569e+2, -1067032.1, -1417900.9, -28666.633, 0.0172821, 0.03810513, -1064705.4, 465516.72, 0.000032450156, 10.003606, 9.998956 
1.0549638e+3, 1.5385492e+2, -1033732.9, -1337932.8, -26767.543, 0.01084419, 0.053239416, -1031395.44, 400833.3, 0.0000008393984, 10.003105, 9.999073 
1.054969e+3, 1.638543e+2, -988898.3, -1235264.0, -34654.06, 0.011984104, 0.07054743, -984116.6, 350118.0, 0.0, 10.002609, 9.999344 
1.0549743e+3, 1.7385384e+2, -959159.9, -1165973.9, -36920.336, 0.026500922, 0.08809065, -952766.5, 283473.03, 0.0, 10.002123, 9.999382 
1.05497934e+3, 1.8385322e+2, -956111.44, -1151944.3, -46968.645, 0.03355415, 0.10269692, -945429.1, 192817.92, 0.0, 10.001635, 9.99904 
1.0549841e+3, 1.938523e+2, -932137.1, -1094533.6, -46276.7, 0.028582484, 0.11147617, -919875.8, 120382.8, 0.0, 10.001148, 9.998996 
1.0549889e+3, 2.038515e+2, -891131.3, -1002563.7, -54275.895, 0.023822522, 0.12183325, -869064.7, 73203.51, 0.0, 10.000665, 9.999187 
1.0549935e+3, 2.1385083e+2, -860854.2, -934420.6, -55163.242, 0.019823052, 0.13341838, -831335.2, 12939.546, 0.0, 10.000187, 9.999212 
1.0549979e+3, 2.2385012e+2, -851654.94, -903385.4, -66284.4, 0.01713632, 0.15109576, -806368.0, -60084.89, 0.0, 9.999682, 9.998996 
1.0550022e+3, 2.3384935e+2, -835595.8, -848009.75, -63814.813, 0.016470753, 0.17686391, -777686.8, -129392.32, 0.0, 9.999133, 9.998968 
1.0550064e+3, 2.4384883e+2, -770810.4, -695619.1, -60579.246, 0.009207777, 0.20130171, -661917.6, -111615.41, 0.0, 9.998602, 9.999597 
1.0550104e+3, 2.5384873e+2, -740182.6, -620814.4, -60395.42, -0.008378376, 0.22199692, -595587.94, -143283.55, 0.0, 9.998099, 9.99968 
1.0550145e+3, 2.6384872e+2, -691782.3, -503975.4, -61697.2, -0.017325688, 0.23808426, -485520.5, -131215.16, 0.0, 9.997576, 10.000061 
1.0550188e+3, 2.7384895e+2, -671649.56, -437653.16, -63429.723, -0.012915075, 0.24625954, -421565.28, -165260.77, 0.0, 9.997016, 10.000113 
1.0550232e+3, 2.8384927e+2, -637302.06, -351163.5, -44370.4, -0.01579166, 0.2639529, -344441.1, -186138.64, 0.0, 9.996496, 10.000284 
1.05502784e+3, 2.938499e+2, -604020.25, -281272.22, -38691.832, -0.029836325, 0.29282975, -276698.56, -216399.89, 0.0, 9.996038, 10.000311 
1.05503246e+3, 3.038508e+2, -537704.25, -83670.87, -31595.691, -0.038301025, 0.29449615, -81482.7, -81482.7, 0.0, 9.995553, 10.001567 
1.0550372e+3, 3.1385252e+2, -608668.0, -107588.086, -33039.76, -0.03880273, 0.30079997, -105418.93, -105418.93, 0.0, 9.995022, 10.001658 
1.0649524e+3, 1.2385414e+2, -1183512.0, -1719517.6, 9477.194, -0.008219086, 0.07282635, -1183344.5, 542891.7, 0.00043498047, 10.004776, 9.997667 
1.06495716e+3, 1.3385236e+2, -1136979.4, -1607357.0, -5253.166, -0.0033373772, 0.094261505, -1136920.8, 491333.8, 0.00019267398, 10.004252, 9.998016 
1.064962e+3, 1.4385015e+2, -1043887.5, -1403735.1, -292.18576, 0.016174944, 0.02985577, -1043887.25, 486388.9, 0.000042091815, 10.003753, 9.998981 
1.0649669e+3, 1.5384938e+2, -1006498.06, -1321599.1, 2037.0521, 0.0066315453, 0.043428093, -1006484.94, 425797.53, 0.0000013547506, 10.003279, 9.999101 
1.0649715e+3, 1.6384877e+2, -970762.1, -1237538.0, -8207.699, 0.0058493856, 0.064886354, -970509.9, 363778.53, 0.0, 10.002782, 9.999245 
1.06497645e+3, 1.7384835e+2, -948700.7, -1173803.8, -15045.77, 0.020356733, 0.09517351, -947699.5, 288594.56, 0.0, 10.002251, 9.999266 
1.0649809e+3, 1.838477e+2, -941186.6, -1138589.5, -26990.379, 0.028037779, 0.113604404, -937562.9, 200739.03, 0.0, 10.001712, 9.999095 
1.0649853e+3, 1.9384678e+2, -924452.94, -1082195.5, -23468.926, 0.024583807, 0.11240148, -921035.25, 119277.79, 0.0, 10.0011635, 9.999073 
1.0649895e+3, 2.0384598e+2, -895927.3, -1002763.8, -28931.473, 0.021935796, 0.119560905, -888595.75, 53726.477, 0.0, 10.000623, 9.999206 
1.0649937e+3, 2.138454e+2, -873956.7, -939469.2, -29003.984, 0.020947745, 0.13857837, -862961.3, -18633.014, 0.0, 10.0000925, 9.999223 
1.06499754e+3, 2.2384474e+2, -865252.06, -903198.94, -42319.105, 0.019792855, 0.15789711, -837847.75, -91511.375, 0.0, 9.99956, 9.999056 
1.0650012e+3, 2.3384397e+2, -846722.6, -845949.5, -43521.625, 0.018402077, 0.17627354, -802812.7, -154465.27, 0.0, 9.999025, 9.999034 
1.0650049e+3, 2.438435e+2, -783909.94, -699186.2, -40961.85, 0.010075248, 0.19992761, -682621.0, -132266.23, 0.0, 9.998501, 9.99962 
1.0650084e+3, 2.538435e+2, -754482.9, -625508.6, -40089.758, -0.009044552, 0.23007584, -614063.0, -161706.86, 0.0, 9.9979925, 9.999699 
1.0650121e+3, 2.6384357e+2, -707377.7, -511358.13, -42048.11, -0.018429894, 0.25126424, -502719.16, -148362.28, 0.0, 9.997468, 10.000062 
1.0650157e+3, 2.7384374e+2, -685883.4, -444575.03, -42383.344, -0.012783543, 0.25766015, -437347.3, -180990.88, 0.0, 9.996919, 10.000112 
1.0650197e+3, 2.838441e+2, -649185.25, -344304.1, -20668.879, -0.012703362, 0.2716356, -342909.28, -184555.11, 0.0, 9.996361, 10.000396 
1.06502384e+3, 2.938448e+2, -631295.2, -280127.1, -14103.217, -0.0212394, 0.2940237, -279561.6, -219212.48, 0.0, 9.9957905, 10.000439 
1.06502794e+3, 3.038458e+2, -576580.0, -94903.01, -5671.712, -0.030055743, 0.2945084, -94836.234, -94836.234, 0.0, 9.9952545, 10.001633 
1.0650321e+3, 3.138476e+2, -640768.4, -116527.11, -5534.4673, -0.0398425, 0.30605593, -116468.69, -116468.69, 0.0, 9.994775, 10.001716 
1.0749574e+3, 1.23849325e+2, -1181630.9, -1715985.9, -12264.913, 0.018546773, 0.0798533, -1181349.6, 544934.5, 0.0005026182, 10.004777, 9.997691 
1.0749614e+3, 1.3384749e+2, -1134941.9, -1603632.1, -24690.088, 0.00006333469, 0.09321743, -1133644.9, 494657.66, 0.00022871628, 10.004254, 9.998042 
1.0749658e+3, 1.438453e+2, -1041591.8, -1399526.5, -18246.426, 0.010914944, 0.028277243, -1040664.06, 489659.53, 0.000053309537, 10.003755, 9.99901 
1.0749701e+3, 1.5384468e+2, -1004083.5, -1317208.3, -15775.557, 0.001287769, 0.05276442, -1003290.7, 429037.7, 0.0000020676762, 10.003281, 9.99913 
1.0749744e+3, 1.6384402e+2, -981101.5, -1259666.9, -27989.252, -0.0008947026, 0.075860746, -978317.06, 356017.78, 0.0000000000166348, 10.002784, 9.999092 
1.0749785e+3, 1.738433e+2, -960790.4, -1199550.8, -35088.586, 0.010224849, 0.09335942, -955740.5, 280603.72, 0.0, 10.002253, 9.999088 
1.0749825e+3, 1.8384255e+2, -935188.4, -1126728.8, -47609.336, 0.018553298, 0.10766685, -924007.25, 214346.0, 0.0, 10.001714, 9.999175 
1.07498646e+3, 1.9384183e+2, -916156.06, -1065509.1, -44109.67, 0.021951048, 0.115908295, -904101.7, 136260.02, 0.0, 10.001165, 9.9991865 
1.07499026e+3, 2.0384115e+2, -893443.3, -998087.25, -48999.81, 0.023067603, 0.12843385, -874081.5, 68287.875, 0.0, 10.000625, 9.999238 
1.07499376e+3, 2.1384059e+2, -872338.0, -936539.56, -48937.863, 0.021006761, 0.14629062, -845912.06, -1536.256, 0.0, 10.000093, 9.999243 
1.0749972e+3, 2.2383994e+2, -863634.4, -900259.5, -62399.27, 0.018768035, 0.16404879, -816916.0, -70531.98, 0.0, 9.999561, 9.999076 
1.07500024e+3, 2.3383915e+2, -845185.7, -843126.56, -63551.043, 0.016266972, 0.18042612, -780596.75, -132201.81, 0.0, 9.999026, 9.999053 
1.07500345e+3, 2.4383871e+2, -781975.2, -695495.44, -60043.33, 0.009095238, 0.20451558, -664742.8, -114340.88, 0.0, 9.998502, 9.999646 
1.0750065e+3, 2.5383878e+2, -752502.94, -621648.6, -59007.203, -0.0052898405, 0.23870674, -598970.4, -146567.47, 0.0, 9.9979925, 9.999725 
1.0750096e+3, 2.638389e+2, -705839.25, -508351.84, -62308.773, -0.014571493, 0.26293892, -490336.38, -135933.1, 0.0, 9.997468, 10.000083 
1.0750127e+3, 2.7383912e+2, -684395.1, -441615.56, -62788.31, -0.016011383, 0.270808, -426338.4, -169935.63, 0.0, 9.996919, 10.000133 
1.07501596e+3, 2.838395e+2, -640571.5, -326495.9, -41716.637, -0.016417783, 0.28000352, -321049.4, -162649.2, 0.0, 9.996361, 10.000519 
1.0750197e+3, 2.9384017e+2, -621745.94, -260322.75, -35221.457, -0.015212972, 0.28801382, -256922.34, -196527.9, 0.0, 9.99579, 10.000575 
1.07502334e+3, 3.038413e+2, -570673.7, -82594.25, -23701.545, -0.020248916, 0.28669983, -81445.984, -81445.984, 0.0, 9.995254, 10.0017185 
1.075027e+3, 3.138433e+2, -635464.4, -105346.68, -23051.482, -0.035416033, 0.31443602, -104346.2, -104346.2, 0.0, 9.994773, 10.001794 
1.0849624e+3, 1.2384511e+2, -1158472.4, -1705458.6, 13743.258, 0.034167096, 0.08366975, -1158127.3, 568198.6, 0.0005746161, 10.00494, 9.9976845 
1.0849657e+3, 1.3384321e+2, -1114955.1, -1595010.9, 1043.7639, -0.0008373549, 0.09366622, -1114952.9, 513391.56, 0.00026787855, 10.004397, 9.998032 
1.08496964e+3, 1.4384104e+2, -1029438.56, -1396418.3, 4576.264, 0.006064983, 0.030912438, -1029381.5, 500983.97, 0.00006613362, 10.003851, 9.998984 
1.0849734e+3, 1.5384048e+2, -1004541.5, -1320443.9, 2647.7908, -0.0022695772, 0.06523117, -1004519.3, 427850.5, 0.000003027, 10.003292, 9.999103 
1.084977e+3, 1.6383982e+2, -986687.0, -1266830.6, -7886.5664, -0.004442363, 0.089491956, -986465.1, 347911.53, 0.000000000186287, 10.002766, 9.999051 
1.08498074e+3, 1.7383891e+2, -957831.94, -1202844.5, -4937.1357, 0.004747557, 0.09454571, -957732.5, 278655.13, 0.0, 10.002294, 9.999045 
1.08498424e+3, 1.838381e+2, -923440.9, -1118013.8, -15680.344, 0.012710064, 0.10269872, -922185.4, 216211.92, 0.0, 10.001781, 9.999202 
1.0849875e+3, 1.9383745e+2, -907729.7, -1057431.1, -18364.662, 0.018118316, 0.11479712, -905509.7, 134894.97, 0.0, 10.001207, 9.999222 
1.0849907e+3, 2.0383686e+2, -893510.75, -998864.6, -27881.139, 0.021055177, 0.1322555, -886587.25, 55824.453, 0.0, 10.0006275, 9.99923 
1.0849938e+3, 2.1383633e+2, -880712.9, -941939.7, -30399.684, 0.02049418, 0.15645106, -868183.25, -23765.074, 0.0, 10.000043, 9.99923 
1.0849967e+3, 2.2383569e+2, -871183.9, -900466.9, -43476.305, 0.01781837, 0.17535764, -839949.9, -93523.48, 0.0, 9.999495, 9.999105 
1.0849993e+3, 2.3383488e+2, -845501.56, -839206.8, -43318.86, 0.011857893, 0.1848889, -798921.1, -150483.84, 0.0, 9.999006, 9.999089 
1.0850018e+3, 2.4383444e+2, -783906.94, -691492.06, -40392.332, 0.0064302213, 0.20542154, -676326.3, -125882.28, 0.0, 9.998467, 9.99969 
1.0850045e+3, 2.5383458e+2, -770646.0, -625288.1, -38301.156, 0.0018809296, 0.24122332, -615813.5, -163369.03, 0.0, 9.997847, 9.99977 
1.0850071e+3, 2.6383477e+2, -734383.7, -519984.16, -40052.535, -0.005057028, 0.26844206, -512746.2, -158301.8, 0.0, 9.997263, 10.000101 
1.0850095e+3, 2.7383506e+2, -709389.8, -451925.3, -40918.41, -0.015828598, 0.2813162, -445578.7, -189135.16, 0.0, 9.996739, 10.000148 
1.0850122e+3, 2.8383547e+2, -658520.5, -326167.2, -22718.078, -0.020183612, 0.29002357, -324621.47, -166180.98, 0.0, 9.996199, 10.000599 
1.0850154e+3, 2.9383612e+2, -638701.3, -258560.95, -20061.67, -0.014496203, 0.28911814, -257505.14, -197070.86, 0.0, 9.995631, 10.000664 
1.0850186e+3, 3.0383727e+2, -589732.6, -85326.72, -8684.727, -0.015861241, 0.28467497, -85177.234, -85177.234, 0.0, 9.995096, 10.001776 
1.0850217e+3, 3.1383944e+2, -654857.25, -108817.41, -9672.066, -0.028609604, 0.31695402, -108646.13, -108646.13, 0.0, 9.994616, 10.001845 
1.0949674e+3, 1.2384151e+2, -1161105.4, -1711365.9, -8877.692, 0.038290992, 0.08414602, -1160962.3, 565399.0, 0.0006505598, 10.004942, 9.997643 
1.0949701e+3, 1.3383958e+2, -1118010.4, -1601883.3, -19191.27, -0.0061471867, 0.09565253, -1117250.5, 511129.75, 0.00031002687, 10.004399, 9.997984 
1.0949734e+3, 1.438374e+2, -1034989.4, -1408486.3, -16376.605, 0.0015893889, 0.03784077, -1034272.7, 496128.97, 0.0000806065, 10.003853, 9.998901 
1.0949766e+3, 1.5383683e+2, -1010447.6, -1333241.0, -18452.918, -0.004054988, 0.08087036, -1009396.1, 423010.53, 0.0000043066148, 10.003293, 9.999015 
1.0949799e+3, 1.6383615e+2, -981531.1, -1256695.3, -26049.223, -0.0047945455, 0.10581139, -979086.8, 355326.9, 0.0000000006358386, 10.002768, 9.999121 
1.094983e+3, 1.7383522e+2, -951204.1, -1189704.0, -22678.781, 0.0039292257, 0.098764196, -949066.75, 287357.5, 0.0, 10.002296, 9.999135 
1.09498605e+3, 1.8383436e+2, -925190.56, -1122251.5, -36920.664, 0.010497143, 0.098706245, -918500.4, 219933.48, 0.0, 10.001783, 9.999172 
1.0949887e+3, 1.9383366e+2, -910678.7, -1064118.6, -40035.527, 0.013065983, 0.10905685, -900860.9, 139581.1, 0.0, 10.001208, 9.999175 
1.09499134e+3, 2.0383306e+2, -896582.8, -1005756.7, -49879.68, 0.01586587, 0.1310029, -877225.75, 65223.508, 0.0, 10.000629, 9.999183 
1.0949939e+3, 2.1383263e+2, -883844.7, -948906.44, -52392.39, 0.019364197, 0.16903633, -854705.3, -10249.961, 0.0, 10.000044, 9.999182 
1.0949961e+3, 2.2383201e+2, -868190.25, -894672.9, -62214.72, 0.01689608, 0.19179735, -817823.4, -71359.96, 0.0, 9.999496, 9.9991455 
1.0949982e+3, 2.3383115e+2, -841761.6, -831815.75, -61544.418, 0.0051614526, 0.18964477, -775043.7, -126569.17, 0.0, 9.999007, 9.99914 
1.0950002e+3, 2.4383067e+2, -779469.25, -682608.8, -63015.73, 0.0020652968, 0.20263883, -651562.8, -101081.61, 0.0, 9.998468, 9.999751 
1.09500244e+3, 2.5383085e+2, -766165.1, -616256.3, -61486.82, 0.012426514, 0.23763934, -594263.4, -141782.3, 0.0, 9.997848, 9.999832 
1.0950045e+3, 2.638311e+2, -733251.06, -517847.38, -59907.535, 0.010057237, 0.26779532, -502307.2, -147826.83, 0.0, 9.997264, 10.000116 
1.09500624e+3, 2.738315e+2, -708763.6, -450781.84, -60288.215, -0.012291837, 0.2891927, -437388.34, -180909.53, 0.0, 9.996739, 10.000156 
1.0950084e+3, 2.8383198e+2, -656033.2, -321087.78, -43567.934, -0.024054695, 0.30168757, -315513.47, -157038.16, 0.0, 9.996199, 10.000634 
1.09501086e+3, 2.9383263e+2, -635999.8, -252968.5, -41050.387, -0.019095413, 0.29729298, -248618.44, -188149.5, 0.0, 9.99563, 10.000703 
1.09501354e+3, 3.0383378e+2, -587960.9, -81588.98, -26738.691, -0.016910281, 0.28841487, -80180.97, -80180.97, 0.0, 9.995095, 10.0018015 
1.0950164e+3, 3.138359e+2, -653361.9, -105513.9, -27167.334, -0.019595036, 0.3134037, -104169.99, -104169.99, 0.0, 9.994614, 10.001869 
1.1049724e+3, 1.2383853e+2, -1141031.8, -1706452.6, 18102.156, 0.038897403, 0.08172595, -1140452.8, 585937.7, 0.0007305375, 10.005101, 9.9976 
1.1049745e+3, 1.3383658e+2, -1100596.0, -1598931.8, 10049.743, -0.010651703, 0.09540085, -1100393.5, 528016.3, 0.00035527785, 10.004543, 9.997934 
1.1049773e+3, 1.4383438e+2, -1023713.0, -1412946.6, 11506.543, -0.0008348742, 0.042353883, -1023373.1, 507058.53, 0.00009686095, 10.003974, 9.998812 
1.1049799e+3, 1.5383379e+2, -1004402.56, -1340772.3, 8683.378, -0.0069990763, 0.091328986, -1004178.56, 428259.06, 0.0000060098255, 10.003381, 9.99892 
1.1049826e+3, 1.6383308e+2, -973650.44, -1249244.1, 1799.8246, -0.00737744, 0.11831426, -973638.7, 360806.3, 0.0000000015512864, 10.002807, 9.999152 
1.1049853e+3, 1.7383215e+2, -952312.4, -1184783.0, 2272.7249, 0.0032479337, 0.10718816, -952290.2, 284164.7, 0.0, 10.002266, 9.999183 
1.1049878e+3, 1.8383129e+2, -931582.8, -1127550.3, -14196.118, 0.009502144, 0.10385285, -930559.8, 207904.55, 0.0, 10.00175, 9.999151 
1.10499e+3, 1.9383052e+2, -903260.6, -1063861.6, -16311.729, 0.008235055, 0.112269096, -901620.6, 138852.4, 0.0, 10.001275, 9.999145 
1.10499196e+3, 2.038299e+2, -880764.2, -999755.94, -26990.564, 0.009666946, 0.13368028, -874928.2, 67552.5, 0.0, 10.000745, 9.999167 
1.1049939e+3, 2.1382947e+2, -872090.3, -944695.06, -27340.5, 0.015664397, 0.17335322, -862946.4, -18459.6, 0.0, 10.000132, 9.999168 
1.1049956e+3, 2.2382885e+2, -860228.8, -887699.9, -33685.88, 0.014772224, 0.19547053, -837585.7, -91090.96, 0.0, 9.999537, 9.999173 
1.1049972e+3, 2.3382798e+2, -844139.8, -829295.7, -34180.91, 0.0031871365, 0.1890767, -801740.3, -153234.64, 0.0, 9.998976, 9.999171 
1.1049988e+3, 2.4382754e+2, -789811.8, -688633.7, -41654.586, 0.0017984813, 0.20261624, -673691.4, -123179.23, 0.0, 9.998402, 9.999742 
1.1050004e+3, 2.5382778e+2, -772984.5, -621216.44, -46501.0, 0.016242359, 0.24570353, -608102.0, -155590.2, 0.0, 9.9978075, 9.999817 
1.1050019e+3, 2.6382807e+2, -738269.7, -518187.16, -46259.46, 0.015545827, 0.27780318, -508859.2, -154348.16, 0.0, 9.997221, 10.000134 
1.10500306e+3, 2.7382836e+2, -721156.56, -454185.7, -45460.813, -0.008875787, 0.29144448, -446656.78, -190147.1, 0.0, 9.996644, 10.000178 
1.10500455e+3, 2.8382885e+2, -674732.75, -329514.06, -29981.832, -0.021636013, 0.30200607, -326929.5, -168423.38, 0.0, 9.996068, 10.000639 
1.1050065e+3, 2.938296e+2, -655715.4, -262198.53, -30467.81, -0.015997482, 0.30495247, -259853.53, -199354.27, 0.0, 9.995495, 10.000705 
1.10500865e+3, 3.0383074e+2, -602260.44, -83943.59, -13477.471, -0.01371774, 0.2966073, -83593.38, -83593.38, 0.0, 9.994978, 10.001842 
1.10501096e+3, 3.138328e+2, -658712.6, -103069.56, -11888.225, -0.01721493, 0.3101248, -102815.33, -102815.33, 0.0, 9.994556, 10.001914 
1.1149775e+3, 1.23836204e+2, -1144265.8, -1713577.6, -5205.592, 0.035761364, 0.07622735, -1144218.1, 582195.1, 0.0008149852, 10.005103, 9.99755 
1.114979e+3, 1.3383423e+2, -1104136.3, -1606812.3, -10786.378, -0.01436911, 0.092905365, -1103904.9, 524528.1, 0.0004039421, 10.004545, 9.99788 
1.1149812e+3, 1.43832e+2, -1030310.9, -1427205.3, -10661.792, -0.0012093288, 0.044448927, -1030024.6, 500430.75, 0.00011510024, 10.003976, 9.9987135 
1.11498326e+3, 1.5383133e+2, -1011342.7, -1355773.5, -13675.529, -0.011133064, 0.09659165, -1010800.56, 421661.97, 0.000008247377, 10.003383, 9.9988165 
1.11498535e+3, 1.638306e+2, -973932.3, -1250453.3, -18839.748, -0.012224044, 0.12699428, -972654.6, 361815.7, 0.0000000033697685, 10.00281, 9.999144 
1.1149876e+3, 1.738297e+2, -951704.56, -1184153.3, -18113.334, 0.0026832917, 0.11984537, -950301.56, 286177.94, 0.0, 10.002268, 9.9991865 
1.1149895e+3, 1.8382888e+2, -932271.06, -1129566.9, -32400.063, 0.0097083915, 0.118189156, -927086.5, 211402.19, 0.0, 10.001752, 9.999137 
1.1149912e+3, 1.9382806e+2, -904118.25, -1066223.9, -34197.297, 0.0035981357, 0.12446536, -897199.44, 143298.55, 0.0, 10.001277, 9.999128 
1.11499265e+3, 2.0382738e+2, -879390.5, -997449.6, -49510.98, 0.0024284718, 0.14030212, -861375.75, 81130.38, 0.0, 10.000747, 9.999183 
1.1149939e+3, 2.1382686e+2, -870465.2, -941813.9, -50452.965, 0.009375513, 0.16939598, -844348.25, 164.30998, 0.0, 10.000133, 9.999187 
1.1149951e+3, 2.2382621e+2, -859055.44, -885701.2, -54959.57, 0.011428799, 0.18635704, -815826.94, -69306.43, 0.0, 9.999539, 9.9991865 
1.1149962e+3, 2.3382539e+2, -843057.1, -827428.6, -55195.684, 0.0059154136, 0.18316679, -779496.8, -130965.95, 0.0, 9.998977, 9.999185 
1.1149972e+3, 2.43825e+2, -795481.5, -700715.5, -63688.21, 0.005610861, 0.2053357, -668717.56, -118180.53, 0.0, 9.998403, 9.999659 
1.114998e+3, 2.538253e+2, -779585.0, -635151.44, -68641.945, 0.013317297, 0.26539332, -607734.0, -155197.2, 0.0, 9.997808, 9.999722 
1.1149989e+3, 2.6382557e+2, -736778.94, -515280.94, -67758.62, 0.01138706, 0.29845887, -496197.06, -141660.53, 0.0, 9.997221, 10.0001545 
1.11499965e+3, 2.7382568e+2, -718613.3, -449039.38, -66832.49, -0.005620233, 0.28808257, -433380.0, -176843.61, 0.0, 9.996644, 10.000215 
1.1150008e+3, 2.8382608e+2, -676752.56, -333769.9, -51224.22, -0.012996205, 0.2909892, -326283.03, -167749.8, 0.0, 9.996068, 10.00061 
1.1150021e+3, 2.9382697e+2, -658377.5, -267725.7, -51634.59, -0.0052729812, 0.31212753, -261016.1, -200490.56, 0.0, 9.995494, 10.000668 
1.1150037e+3, 3.0382818e+2, -598787.1, -76656.766, -29576.25, -0.006334486, 0.30929178, -74986.75, -74986.75, 0.0, 9.994977, 10.001893 
1.1150055e+3, 3.1383014e+2, -654562.44, -94174.055, -27102.111, -0.021529475, 0.3068355, -92866.37, -92866.37, 0.0, 9.9945545, 10.001976 
1.1249825e+3, 1.2383463e+2, -1134490.1, -1713729.6, 22341.605, 0.028606681, 0.080206685, -1133629.6, 592799.44, 0.00090415665, 10.005193, 9.997506 
1.1249835e+3, 1.3383259e+2, -1094811.6, -1607648.6, 19707.703, -0.017603433, 0.09583974, -1094055.5, 534393.8, 0.0004561819, 10.004633, 9.997831 
1.1249852e+3, 1.4383031e+2, -1020071.44, -1433545.0, 19984.496, 0.00124108, 0.048389066, -1019107.75, 511364.56, 0.00013544883, 10.004096, 9.998611 
1.1249867e+3, 1.5382953e+2, -989407.5, -1357244.8, 16482.693, -0.013363065, 0.09953484, -988670.4, 443810.44, 0.000011109917, 10.003586, 9.998708 
1.1249881e+3, 1.638287e+2, -945110.2, -1243539.5, 8361.812, -0.017005987, 0.13083698, -944876.06, 389613.47, 0.0000000061074554, 10.003038, 9.99908 
1.12498984e+3, 1.738278e+2, -932080.8, -1181018.5, 4302.449, -0.0010356262, 0.12747565, -932006.5, 304492.38, 0.0, 10.002431, 9.999129 
1.1249913e+3, 1.8382694e+2, -922350.9, -1129799.5, -11785.942, 0.0070909634, 0.12873112, -921683.4, 216824.94, 0.0, 10.0018425, 9.999091 
1.12499245e+3, 1.9382611e+2, -906061.1, -1072007.3, -15513.3955, 0.0020241612, 0.1365057, -904623.3, 135894.69, 0.0, 10.001285, 9.999084 
1.1249934e+3, 2.038254e+2, -877345.94, -992782.4, -33070.45, 0.0012078466, 0.15120398, -868543.1, 73983.22, 0.0, 10.000746, 9.999215 
1.12499416e+3, 2.1382487e+2, -852687.5, -928432.94, -32652.816, 0.0074459496, 0.17514287, -840554.75, 3977.8423, 0.0, 10.000235, 9.99923 
1.12499475e+3, 2.2382422e+2, -838398.56, -873412.56, -37450.273, 0.010343041, 0.18818232, -814565.3, -68025.016, 0.0, 9.999671, 9.999207 
1.1249953e+3, 2.3382337e+2, -834794.0, -821467.0, -37643.656, 0.008024759, 0.18293883, -789901.6, -141351.36, 0.0, 9.999025, 9.999202 
1.1249956e+3, 2.4382296e+2, -799949.3, -712746.7, -45296.805, 0.0077282554, 0.20546204, -693476.1, -142919.39, 0.0, 9.998415, 9.999569 
1.1249959e+3, 2.5382322e+2, -779504.0, -646626.6, -50895.43, 0.010490318, 0.26967436, -629372.75, -176815.11, 0.0, 9.997859, 9.999619 
1.12499624e+3, 2.6382342e+2, -726343.25, -508217.47, -51096.684, 0.007913135, 0.30349135, -496841.22, -142283.25, 0.0, 9.997284, 10.000173 
1.1249963e+3, 2.7382353e+2, -711093.9, -441579.34, -50553.063, -0.0029865056, 0.28850812, -432409.06, -175851.63, 0.0, 9.996679, 10.000248 
1.12499684e+3, 2.838239e+2, -681288.56, -342830.47, -36575.477, -0.0063182544, 0.29012066, -338923.06, -180368.73, 0.0, 9.996067, 10.000548 
1.12499766e+3, 2.9382476e+2, -671109.4, -282159.72, -40007.023, 0.0021164592, 0.31522408, -278087.25, -217539.94, 0.0, 9.995443, 10.000592 
1.1249986e+3, 3.0382597e+2, -608987.6, -80009.24, -14875.806, -0.0018043347, 0.3145086, -79591.24, -79591.24, 0.0, 9.994901, 10.001906 
1.125e+3, 3.138279e+2, -662200.8, -95053.09, -14472.64, -0.02525165, 0.30984107, -94684.016, -94684.016, 0.0, 9.994491, 10.002001 
1.1349877e+3, 1.2383385e+2, -1137375.4, -1720056.4, -1098.8657, 0.017179158, 0.09364513, -1137373.3, 589064.3, 0.0009977408, 10.005194, 9.997462 
1.13498814e+3, 1.3383172e+2, -1097765.3, -1614277.6, -1190.2714, -0.020393653, 0.10425121, -1097762.5, 530695.94, 0.00051171833, 10.004635, 9.997786 
1.1349894e+3, 1.4382933e+2, -1027362.94, -1449261.6, 587.71204, 0.0064975317, 0.054203976, -1027362.1, 503120.2, 0.00015780795, 10.004098, 9.998503 
1.1349904e+3, 1.5382837e+2, -997250.6, -1374191.5, -2713.9434, -0.01371471, 0.10017637, -997231.06, 435261.38, 0.000014644848, 10.003589, 9.99859 
1.1349912e+3, 1.6382742e+2, -953167.06, -1260984.1, -14142.116, -0.021755109, 0.12982877, -952518.7, 381983.88, 0.000000009421829, 10.00304, 9.99896 
1.1349922e+3, 1.7382643e+2, -940235.56, -1198660.4, -18611.195, -0.00795194, 0.13005765, -938902.1, 297610.78, 0.0, 10.002433, 9.999007 
1.1349931e+3, 1.8382551e+2, -927547.7, -1141238.8, -33032.207, 0.001595245, 0.13548584, -922558.06, 215965.06, 0.0, 10.001844, 9.999012 
1.1349938e+3, 1.9382465e+2, -910923.75, -1082697.4, -36492.313, 0.0034998443, 0.14840287, -903492.6, 137040.55, 0.0, 10.0012865, 9.99901 
1.1349941e+3, 2.0382395e+2, -873734.8, -985824.6, -52480.15, 0.0060091172, 0.16637194, -852999.56, 89541.85, 0.0, 10.000748, 9.999263 
1.1349944e+3, 2.1382348e+2, -848016.94, -919242.1, -51809.258, 0.009859892, 0.19060476, -820760.94, 23785.896, 0.0, 10.0002365, 9.999293 
1.1349944e+3, 2.2382286e+2, -836390.5, -869695.5, -61121.637, 0.011489453, 0.20097004, -789693.5, -43139.438, 0.0, 9.999673, 9.999232 
1.13499425e+3, 2.3382196e+2, -833171.6, -818491.3, -61857.355, 0.009505105, 0.18839772, -763540.1, -114976.086, 0.0, 9.999026, 9.999222 
1.134994e+3, 2.4382144e+2, -806687.3, -727052.8, -66419.75, 0.008122324, 0.20298617, -689429.75, -138858.38, 0.0, 9.998416, 9.999471 
1.1349938e+3, 2.538215e+2, -787399.75, -663254.44, -71574.29, 0.0077263773, 0.25852582, -630585.94, -178011.36, 0.0, 9.997859, 9.999504 
1.1349934e+3, 2.6382166e+2, -725380.4, -506414.03, -73369.484, 0.0050917272, 0.29287332, -484103.25, -129527.73, 0.0, 9.997285, 10.000185 
1.13499306e+3, 2.7382192e+2, -708998.9, -437354.25, -72994.68, -0.0010129339, 0.29272187, -418982.13, -162409.05, 0.0, 9.996679, 10.0002775 
1.1349929e+3, 2.8382236e+2, -688196.4, -357220.47, -59606.516, -0.0016622307, 0.29943657, -346813.0, -188243.34, 0.0, 9.996066, 10.00045 
1.1349931e+3, 2.9382297e+2, -679255.56, -299051.72, -63077.77, 0.0060961097, 0.31426153, -288860.0, -228295.1, 0.0, 9.995442, 10.000477 
1.13499366e+3, 3.038241e+2, -610966.44, -84016.76, -30753.453, -0.00020708873, 0.31225416, -82228.016, -82228.016, 0.0, 9.9949, 10.00188 
1.1349945e+3, 3.1382614e+2, -663515.75, -97538.33, -29226.063, -0.028507618, 0.3191835, -96033.15, -96033.15, 0.0, 9.994489, 10.001985 
1.1449929e+3, 1.2383353e+2, -1121341.6, -1714402.4, 7891.7837, 0.013929756, 0.11263087, -1121236.6, 605205.3, 0.0010949352, 10.005315, 9.997442 
1.1449928e+3, 1.338313e+2, -1076768.6, -1606161.4, 12398.752, -0.02424133, 0.116100065, -1076478.4, 551984.9, 0.00056991266, 10.004788, 9.9977665 
1.1449937e+3, 1.4382884e+2, -1010020.9, -1449618.5, 16448.295, 0.0074840733, 0.06361461, -1009406.3, 521081.25, 0.00018188845, 10.004255, 9.998425 
1.1449939e+3, 1.5382779e+2, -986928.0, -1378956.5, 15266.883, -0.0131310085, 0.10714896, -986334.3, 446164.4, 0.000018855493, 10.003702, 9.998503 
1.1449943e+3, 1.6382672e+2, -943333.56, -1268968.6, 4106.721, -0.022000154, 0.13564527, -943281.75, 391228.22, 0.000000013934886, 10.003163, 9.998845 
1.1449947e+3, 1.7382562e+2, -917181.44, -1200742.3, -333.48746, -0.009512374, 0.13667075, -917181.0, 319340.56, 0.0, 10.002649, 9.998888 
1.144995e+3, 1.8382461e+2, -893494.9, -1126535.4, -13863.329, -0.00066779775, 0.14102904, -892673.06, 245859.53, 0.0, 10.002087, 9.998997 
1.1449951e+3, 1.9382371e+2, -887566.5, -1071659.5, -12254.831, 0.0014612667, 0.1499828, -886754.25, 153788.34, 0.0, 10.001449, 9.999007 
1.144995e+3, 2.0382299e+2, -864343.6, -983636.2, -26368.373, 0.004861761, 0.16625936, -858775.1, 83775.8, 0.0, 10.000822, 9.999241 
1.14499465e+3, 2.1382253e+2, -852822.2, -924169.6, -32133.12, 0.010646374, 0.19230263, -840483.9, 4072.7937, 0.0, 10.000216, 9.9992695 
1.1449941e+3, 2.2382191e+2, -837840.2, -865454.56, -45471.77, 0.013016108, 0.2041486, -804125.6, -57561.902, 0.0, 9.999642, 9.999276 
1.1449933e+3, 2.3382108e+2, -815740.0, -804129.8, -44063.87, 0.009841427, 0.19252962, -765490.3, -116917.57, 0.0, 9.999122, 9.999274 
1.14499256e+3, 2.4382053e+2, -789478.2, -722504.4, -45944.0, 0.00807933, 0.20311469, -699138.6, -148558.63, 0.0, 9.99855, 9.999437 
1.1449916e+3, 2.5382045e+2, -784666.94, -666995.6, -46235.37, 0.0086398395, 0.24697034, -651002.5, -198417.9, 0.0, 9.997901, 9.999458 
1.1449907e+3, 2.6382053e+2, -730218.6, -516376.22, -47359.19, 0.0064469646, 0.2810892, -506357.1, -151770.86, 0.0, 9.997285, 10.000116 
1.1449897e+3, 2.738209e+2, -707699.56, -444735.53, -54675.055, -0.000048248527, 0.29862025, -433820.66, -177237.39, 0.0, 9.996723, 10.000205 
1.144989e+3, 2.838213e+2, -680958.5, -358694.66, -45356.16, -0.0012600451, 0.30978706, -352432.8, -193852.7, 0.0, 9.996139, 10.000404 
1.1449886e+3, 2.9382172e+2, -671671.56, -300006.66, -43728.08, 0.005686485, 0.3082889, -294931.16, -234354.27, 0.0, 9.995515, 10.000435 
1.1449885e+3, 3.0382276e+2, -613871.1, -88109.4, -4809.8193, 0.0013010857, 0.30102953, -88065.4, -88065.4, 0.0, 9.994892, 10.001855 
1.1449889e+3, 3.138249e+2, -696559.56, -115967.1, -3431.207, -0.020842241, 0.31902462, -115946.82, -115946.82, 0.0, 9.994273, 10.001962 
1.1549983e+3, 1.2383369e+2, -1121109.4, -1714259.9, -14386.745, 0.018738156, 0.13712576, -1120760.6, 605681.25, 0.0011946487, 10.005316, 9.997443 
1.1549976e+3, 1.338314e+2, -1076071.0, -1605241.5, -7262.6934, -0.029191123, 0.13144334, -1075971.4, 552492.1, 0.0006300436, 10.00479, 9.997772 
1.1549978e+3, 1.4382888e+2, -1013364.9, -1457151.0, -4331.293, 0.004159477, 0.07666964, -1013322.6, 517165.25, 0.00020735647, 10.004257, 9.998372 
1.15499765e+3, 1.5382777e+2, -990865.7, -1387782.9, -5615.412, -0.01163309, 0.120464355, -990786.25, 441713.28, 0.000023709255, 10.003704, 9.998442 
1.1549976e+3, 1.6382661e+2, -950735.2, -1285041.1, -15487.498, -0.017751003, 0.14831936, -950019.25, 384492.47, 0.000000023716384, 10.003166, 9.9987335 
1.1549974e+3, 1.7382538e+2, -925041.1, -1217798.8, -19697.914, -0.005720654, 0.14733219, -923721.7, 312803.16, 0.0, 10.002651, 9.998771 
1.1549972e+3, 1.8382426e+2, -889959.5, -1119882.3, -37386.14, 0.00028962293, 0.14532503, -884033.1, 254503.48, 0.0, 10.002089, 9.999042 
1.15499645e+3, 1.938233e+2, -882575.1, -1061929.1, -36283.563, -0.004118201, 0.14123666, -875513.0, 165033.31, 0.0, 10.001451, 9.999074 
1.1549957e+3, 2.038225e+2, -870530.25, -997044.56, -49332.535, -0.002265543, 0.1508779, -853567.94, 88987.04, 0.0, 10.000824, 9.999148 
1.1549949e+3, 2.1382195e+2, -860511.94, -940645.9, -54910.73, 0.00978831, 0.18020912, -832604.3, 11957.891, 0.0, 10.0002165, 9.999156 
1.1549938e+3, 2.2382137e+2, -833440.0, -856784.3, -65335.543, 0.014907861, 0.19767834, -778742.2, -32172.879, 0.0, 9.999643, 9.999335 
1.1549924e+3, 2.3382069e+2, -809754.44, -792117.2, -63492.28, 0.0090202065, 0.19533221, -736834.0, -88257.64, 0.0, 9.999123, 9.999357 
1.1549911e+3, 2.438202e+2, -787396.2, -718538.94, -69685.22, 0.007583405, 0.20585662, -675241.4, -124658.68, 0.0, 9.998551, 9.999464 
1.1549895e+3, 2.5381997e+2, -783183.56, -664195.56, -70517.46, 0.013208371, 0.23501025, -631427.7, -178839.7, 0.0, 9.997901, 9.999477 
1.154988e+3, 2.6382e+2, -740921.1, -538796.4, -68575.8, 0.011945021, 0.26815107, -517726.66, -163136.3, 0.0, 9.997285, 9.999963 
1.1549865e+3, 2.738204e+2, -720135.7, -470680.22, -75439.55, -0.00015055164, 0.30621663, -449640.56, -193052.39, 0.0, 9.996723, 10.000028 
1.1549851e+3, 2.8382078e+2, -680591.5, -358005.4, -68194.43, -0.0052010776, 0.32118958, -344181.56, -185595.69, 0.0, 9.996138, 10.00041 
1.15498416e+3, 2.9382098e+2, -669692.4, -295909.06, -66773.79, 0.00079146057, 0.29732543, -284338.56, -223754.97, 0.0, 9.995514, 10.0004635 
1.1549834e+3, 3.0382192e+2, -615784.06, -92002.5, -27673.15, 0.00264913, 0.28085345, -90544.49, -90544.49, 0.0, 9.994891, 10.001828 
1.1549834e+3, 3.1382412e+2, -699158.06, -121105.02, -26144.025, -0.0023267104, 0.3091584, -119925.0, -119925.0, 0.0, 9.994272, 10.001927 
1.16500355e+3, 1.2383411e+2, -1115129.9, -1709299.9, -2949.62, 0.018132174, 0.14555801, -1115115.3, 611323.44, 0.001295612, 10.005349, 9.99746 
1.1650024e+3, 1.3383178e+2, -1055173.1, -1592433.1, 8145.5337, -0.031601787, 0.13515146, -1055049.8, 573410.4, 0.00069146795, 10.004923, 9.997796 
1.1650022e+3, 1.4382929e+2, -992348.25, -1454446.1, 7736.3823, 0.0062995995, 0.082151614, -992218.8, 538265.44, 0.00023393535, 10.004434, 9.998305 
1.1650015e+3, 1.5382813e+2, -976943.2, -1389875.8, 4519.789, -0.010041494, 0.12949726, -976893.75, 455602.84, 0.000029149516, 10.003839, 9.998363 
1.1650007e+3, 1.638269e+2, -942410.1, -1285838.6, -3194.9058, -0.015628979, 0.15730172, -942380.44, 392129.0, 0.00000004774233, 10.003244, 9.998691 
1.1650001e+3, 1.7382558e+2, -927229.5, -1223250.1, -1500.4414, -0.0012457095, 0.1506769, -927221.9, 309301.53, 0.0, 10.002656, 9.998731 
1.1649992e+3, 1.838244e+2, -886557.44, -1112281.3, -17028.59, 0.0046476205, 0.14432128, -885280.0, 253255.33, 0.0, 10.002087, 9.999094 
1.1649979e+3, 1.9382349e+2, -863965.94, -1045709.2, -16292.62, -0.0037806095, 0.13805537, -862516.94, 178027.16, 0.0, 10.001548, 9.999138 
1.16499655e+3, 2.0382269e+2, -849415.7, -990555.75, -28069.64, -0.0045993906, 0.1452009, -844038.1, 98514.37, 0.0, 10.000986, 9.999115 
1.1649951e+3, 2.1382207e+2, -838990.9, -935493.4, -28864.271, 0.006940002, 0.1714258, -831016.44, 13544.272, 0.0, 10.000387, 9.999108 
1.1649934e+3, 2.2382146e+2, -813420.4, -846611.1, -37456.88, 0.013044941, 0.19028485, -789047.1, -42479.09, 0.0, 9.999779, 9.999339 
1.16499156e+3, 2.3382089e+2, -804428.06, -788365.06, -41023.188, 0.01044967, 0.19641933, -754594.56, -106020.3, 0.0, 9.999155, 9.999367 
1.1649896e+3, 2.4382043e+2, -789943.25, -718306.7, -53165.61, 0.010413609, 0.2083699, -690019.4, -139439.14, 0.0, 9.9985285, 9.999476 
1.16498746e+3, 2.5382012e+2, -782531.0, -662501.75, -55088.824, 0.014417071, 0.22780757, -641051.5, -188465.6, 0.0, 9.9979, 9.999489 
1.1649854e+3, 2.638201e+2, -746550.7, -550888.9, -49197.336, 0.012536752, 0.25807288, -539215.1, -184626.31, 0.0, 9.997288, 9.999878 
1.1649833e+3, 2.7382046e+2, -730855.94, -486829.13, -50056.156, 0.0014356531, 0.304088, -476960.44, -220372.94, 0.0, 9.996698, 9.999928 
1.16498135e+3, 2.838208e+2, -685760.75, -357746.75, -40867.85, -0.004215084, 0.321658, -352731.63, -194146.08, 0.0, 9.996092, 10.000434 
1.1649795e+3, 2.93821e+2, -675267.3, -294152.8, -39063.457, -0.0013095452, 0.2919885, -290190.1, -229607.25, 0.0, 9.995458, 10.000503 
1.1649783e+3, 3.0382192e+2, -627729.8, -98432.734, 471.5076, 0.002861344, 0.2715877, -98432.31, -98432.31, 0.0, 9.994813, 10.0018215 
1.1649776e+3, 3.138241e+2, -717862.5, -131590.56, 3307.3652, 0.008583675, 0.29778728, -131571.9, -131571.9, 0.0, 9.99415, 10.001913 
1.1750088e+3, 1.2383481e+2, -1112691.9, -1704704.6, -21667.684, 0.011870629, 0.13772482, -1111899.9, 614532.25, 0.0013966532, 10.005351, 9.997492 
1.1750073e+3, 1.3383251e+2, -1052206.3, -1586835.9, -7762.4023, -0.031516563, 0.12719627, -1052093.6, 576359.2, 0.0007536757, 10.004925, 9.997834 
1.1750067e+3, 1.4383005e+2, -997904.44, -1466588.6, -14059.004, 0.013857487, 0.08002968, -997483.1, 532993.4, 0.00026143182, 10.004436, 9.998221 
1.17500536e+3, 1.5382886e+2, -983527.94, -1404232.5, -18012.023, -0.008395735, 0.13428661, -982758.2, 449731.47, 0.00003511997, 10.00384, 9.998263 
1.175004e+3, 1.6382761e+2, -940508.75, -1282614.5, -25451.889, -0.015663015, 0.16262333, -938625.56, 395877.56, 0.00000010132158, 10.003246, 9.998712 
1.1750028e+3, 1.7382622e+2, -924242.75, -1217773.6, -23655.582, 0.0038839781, 0.14671242, -922348.56, 314168.7, 0.0, 10.002658, 9.998768 
1.1750015e+3, 1.8382508e+2, -882140.3, -1103793.4, -37541.29, 0.012370844, 0.13803954, -875954.56, 262574.13, 0.0, 10.002089, 9.999152 
1.1749996e+3, 1.9382429e+2, -859381.0, -1036838.8, -36533.652, 0.0024618271, 0.14042966, -852154.06, 188381.88, 0.0, 10.00155, 9.999199 
1.17499754e+3, 2.0382357e+2, -847531.94, -987253.8, -50280.793, -0.0021497407, 0.14919549, -831319.0, 111224.57, 0.0, 10.000988, 9.999137 
1.17499545e+3, 2.1382286e+2, -837509.75, -932971.56, -51304.56, 0.0020688118, 0.16595899, -815166.44, 29385.785, 0.0, 10.000389, 9.9991255 
1.17499314e+3, 2.2382222e+2, -817021.94, -854584.6, -60718.355, 0.007384989, 0.18198505, -772246.56, -25686.56, 0.0, 9.999781, 9.999284 
1.17499076e+3, 2.3382166e+2, -808784.7, -797848.44, -64385.613, 0.014121546, 0.19577578, -738699.2, -90132.72, 0.0, 9.999156, 9.999302 
1.17498815e+3, 2.4382119e+2, -790227.9, -719271.4, -76603.266, 0.01654909, 0.21063915, -670329.44, -119756.82, 0.0, 9.998529, 9.99947 
1.1749853e+3, 2.5382084e+2, -782310.9, -662353.2, -78499.85, 0.012211744, 0.22537719, -623540.9, -170962.47, 0.0, 9.997901, 9.999491 
1.17498256e+3, 2.6382074e+2, -747836.56, -553790.56, -71259.55, 0.008150093, 0.25086075, -530433.44, -175851.63, 0.0, 9.997288, 9.999858 
1.17497995e+3, 2.7382106e+2, -732436.0, -490253.53, -71887.7, 0.004663447, 0.2921609, -470522.44, -213941.05, 0.0, 9.996698, 9.999906 
1.1749774e+3, 2.838214e+2, -683059.75, -352193.44, -64157.49, 0.0016497675, 0.31110877, -340188.4, -181609.06, 0.0, 9.996091, 10.000473 
1.174975e+3, 2.9382178e+2, -672125.94, -287572.72, -62498.17, -0.00069044565, 0.29232574, -277670.4, -217095.48, 0.0, 9.995457, 10.000549 
1.1749732e+3, 3.0382273e+2, -627283.6, -97346.08, -23837.078, 0.0018494002, 0.27331617, -96276.02, -96276.02, 0.0, 9.994812, 10.00183 
1.1749719e+3, 3.1382474e+2, -717838.2, -131303.66, -21049.895, 0.011742206, 0.28464994, -130549.17, -130549.17, 0.0, 9.994149, 10.001917 
1.1850142e+3, 1.238361e+2, -1078685.3, -1689910.4, 8981.628, 0.0002977389, 0.12374345, -1078553.3, 647865.8, 0.0014970918, 10.005593, 9.997477 
1.1850123e+3, 1.3383384e+2, -1028553.6, -1576644.1, 21785.814, -0.034405354, 0.11830287, -1027689.06, 600750.1, 0.00081632327, 10.005094, 9.997823 
1.1850113e+3, 1.4383139e+2, -984574.3, -1469098.6, 9090.516, 0.021211782, 0.076753825, -984403.8, 546059.0, 0.00028972494, 10.004567, 9.998141 
1.18500926e+3, 1.538301e+2, -968412.25, -1406867.3, 5163.0107, -0.0030198297, 0.1298825, -968351.5, 464125.88, 0.000041594027, 10.003987, 9.998175 
1.1850073e+3, 1.6382879e+2, -920594.5, -1273591.9, -3661.5193, -0.0125205545, 0.15833881, -920556.56, 413934.94, 0.00000019883093, 10.0033865, 9.998707 
1.1850056e+3, 1.7382744e+2, -910272.2, -1210346.0, -4410.871, 0.0046222825, 0.14461114, -910207.4, 326297.88, 0.0, 10.002751, 9.998774 
1.1850035e+3, 1.8382631e+2, -876507.9, -1102140.4, -20502.123, 0.013388376, 0.13842395, -874660.1, 263856.3, 0.0, 10.002132, 9.999142 
1.1850012e+3, 1.9382554e+2, -861909.44, -1039352.9, -24888.176, 0.007922172, 0.1437317, -858484.75, 182038.95, 0.0, 10.001538, 9.9991865 
1.1849987e+3, 2.0382485e+2, -847822.94, -978768.1, -40824.13, 0.0054854457, 0.15257528, -836138.06, 106392.97, 0.0, 10.000949, 9.999214 
1.18499584e+3, 2.1382418e+2, -834628.2, -921624.7, -36797.156, 0.008295986, 0.16507874, -821151.6, 23387.135, 0.0, 10.000367, 9.999214 
1.184993e+3, 2.2382355e+2, -818441.75, -853897.56, -42376.332, 0.011630362, 0.1763962, -790234.56, -43688.383, 0.0, 9.999765, 9.999295 
1.1849899e+3, 2.3382294e+2, -811669.7, -799038.8, -41391.137, 0.015511894, 0.18477587, -763484.06, -114930.91, 0.0, 9.999136, 9.999303 
1.1849867e+3, 2.4382247e+2, -791203.4, -717276.5, -49800.504, 0.01570226, 0.19833119, -692220.7, -141661.34, 0.0, 9.998513, 9.999491 
1.18498325e+3, 2.5382218e+2, -780706.56, -658848.4, -50099.848, 0.0100972615, 0.21817109, -640895.56, -188331.23, 0.0, 9.997901, 9.999514 
1.1849798e+3, 2.638221e+2, -751180.0, -559777.8, -42329.777, 0.0064470265, 0.24529196, -550834.25, -196266.58, 0.0, 9.997285, 9.999818 
1.1849767e+3, 2.7382234e+2, -741476.6, -500019.16, -45057.707, 0.0059804106, 0.28272346, -491885.06, -235316.73, 0.0, 9.99666, 9.999856 
1.1849735e+3, 2.8382266e+2, -690704.8, -354212.84, -40367.215, 0.0030043582, 0.3031877, -349437.94, -190871.42, 0.0, 9.996032, 10.000486 
1.18497044e+3, 2.9382315e+2, -679174.8, -288410.47, -40866.07, -0.003944851, 0.2944714, -284182.44, -223621.42, 0.0, 9.9953985, 10.000571 
1.1849679e+3, 3.038242e+2, -636287.9, -97746.84, -4352.4536, 0.0010941447, 0.27790576, -97711.67, -97711.67, 0.0, 9.994734, 10.001864 
1.18496604e+3, 3.138261e+2, -734553.7, -135296.19, 413.15237, 0.024598915, 0.27840918, -135295.9, -135295.9, 0.0, 9.994018, 10.001952 
1.1950196e+3, 1.23838e+2, -1082976.3, -1699336.5, -12218.085, -0.01670934, 0.10351429, -1082734.1, 643665.06, 0.0015967946, 10.005595, 9.997411 
1.1950173e+3, 1.3383578e+2, -1032679.4, -1585886.9, 3073.1182, -0.040296555, 0.10851818, -1032662.3, 595756.8, 0.00087920413, 10.005096, 9.997758 
1.1950158e+3, 1.4383331e+2, -989740.4, -1480550.8, -12449.476, 0.028333249, 0.07237693, -989424.75, 541018.4, 0.0003187303, 10.004569, 9.998061 
1.1950133e+3, 1.5383185e+2, -973730.75, -1418649.3, -16732.383, 0.0060496307, 0.116289556, -973102.4, 459357.25, 0.000048580478, 10.00399, 9.998093 
1.1950108e+3, 1.6383049e+2, -922570.8, -1278464.3, -27390.66, -0.006241606, 0.14445406, -920475.1, 413999.38, 0.00000035167082, 10.003388, 9.9986725 
1.1950083e+3, 1.7382924e+2, -911808.06, -1214302.1, -28335.271, 0.0009445083, 0.14436549, -909176.7, 327310.53, 0.0, 10.002754, 9.998746 
1.1950056e+3, 1.8382813e+2, -881723.44, -1113683.0, -43042.73, 0.007681466, 0.1454432, -873993.94, 264504.5, 0.0, 10.002135, 9.999063 
1.1950028e+3, 1.9382726e+2, -867679.56, -1051984.6, -47191.3, 0.01259268, 0.14796387, -856299.0, 184208.44, 0.0, 10.00154, 9.9991 
1.19499974e+3, 2.0382653e+2, -838501.8, -960024.0, -62706.867, 0.018305873, 0.1553528, -811947.06, 130567.9, 0.0, 10.000951, 9.999342 
1.19499646e+3, 2.1382605e+2, -823340.7, -898766.75, -58584.242, 0.0256226, 0.16877325, -791380.3, 53140.06, 0.0, 10.000368, 9.999371 
1.1949929e+3, 2.2382547e+2, -812907.5, -842935.94, -65742.31, 0.025771037, 0.17349377, -760486.7, -13960.0205, 0.0, 9.999767, 9.999371 
1.194989e+3, 2.3382474e+2, -806966.75, -789733.4, -64910.676, 0.01459021, 0.16336715, -732870.0, -84335.46, 0.0, 9.999137, 9.999367 
1.1949851e+3, 2.4382426e+2, -787759.75, -710526.06, -72670.93, 0.00781587, 0.1713686, -666848.75, -116308.24, 0.0, 9.998514, 9.999537 
1.1949811e+3, 2.5382417e+2, -777535.06, -652592.94, -72832.164, 0.008032929, 0.20614149, -619110.06, -166566.23, 0.0, 9.997902, 9.9995575 
1.1949772e+3, 2.6382416e+2, -755603.44, -569194.44, -65452.645, 0.0073863887, 0.24135537, -548508.06, -193961.52, 0.0, 9.997285, 9.999754 
1.1949733e+3, 2.7382427e+2, -747015.75, -511643.78, -68205.336, 0.005308137, 0.2757732, -493307.88, -236759.34, 0.0, 9.99666, 9.999777 
1.1949695e+3, 2.838246e+2, -691765.0, -356426.44, -63778.227, -0.00027022796, 0.29788762, -344706.03, -186158.7, 0.0, 9.996032, 10.000472 
1.1949657e+3, 2.9382518e+2, -679719.3, -289465.66, -64290.426, -0.011242068, 0.29839146, -279147.25, -218605.81, 0.0, 9.995397, 10.000565 
1.1949626e+3, 3.0382624e+2, -632445.4, -89561.76, -30415.158, 0.00047882053, 0.2853307, -87863.06, -87863.06, 0.0, 9.994732, 10.001923 
1.1949603e+3, 3.138282e+2, -730332.2, -126105.16, -26002.725, 0.047207907, 0.27912095, -124988.2, -124988.2, 0.0, 9.994015, 10.002017 
1.20502524e+3, 1.2384059e+2, -1046242.75, -1693059.3, 10972.705, -0.023940826, 0.09425139, -1046056.6, 680316.2, 0.0016959148, 10.005898, 9.997308 
1.20502256e+3, 1.338383e+2, -999920.9, -1581739.1, 25489.432, -0.045459762, 0.102286026, -998806.3, 629587.4, 0.0009422175, 10.005373, 9.997653 
1.2050206e+3, 1.4383578e+2, -961786.0, -1475634.6, 4570.4307, 0.030513464, 0.07045653, -961745.3, 568673.1, 0.00034836459, 10.004799, 9.997985 
1.2050175e+3, 1.5383422e+2, -956684.6, -1418605.5, 238.01094, 0.009353387, 0.11243894, -956684.5, 475751.53, 0.000056088284, 10.004143, 9.998019 
1.2050143e+3, 1.6383281e+2, -908316.06, -1274767.4, -10294.8, -0.0032397658, 0.14054573, -908027.06, 426424.5, 0.0000005703175, 10.003501, 9.998643 
1.2050111e+3, 1.7383155e+2, -894866.06, -1208752.0, -11080.019, 0.0015307534, 0.1435008, -894475.44, 341988.75, 0.0, 10.002882, 9.998722 
1.2050078e+3, 1.8383044e+2, -865162.6, -1107464.6, -23278.365, 0.008118964, 0.14515132, -862946.5, 275529.06, 0.0, 10.002257, 9.999045 
1.2050044e+3, 1.9382952e+2, -857190.3, -1048653.8, -22187.521, 0.016457414, 0.14432968, -854652.75, 185832.48, 0.0, 10.00162, 9.9990835 
1.2050007e+3, 2.0382884e+2, -829862.44, -944642.4, -36556.555, 0.02465058, 0.15097582, -819208.4, 123284.086, 0.0, 10.000962, 9.999442 
1.20499685e+3, 2.1382849e+2, -829529.4, -888922.4, -35836.77, 0.032891314, 0.16782646, -812683.9, 31812.271, 0.0, 10.000272, 9.999484 
1.2049927e+3, 2.2382799e+2, -825402.1, -836595.0, -42525.133, 0.03257349, 0.1698157, -788106.75, -41605.43, 0.0, 9.999629, 9.99948 
1.2049881e+3, 2.3382725e+2, -810270.2, -779054.75, -38353.42, 0.018804079, 0.14726532, -753254.9, -104746.02, 0.0, 9.999063, 9.9994755 
1.2049837e+3, 2.4382682e+2, -791493.25, -710069.44, -45719.44, 0.009702977, 0.15409763, -689562.6, -139048.39, 0.0, 9.998479, 9.999557 
1.204979e+3, 2.5382692e+2, -781647.6, -653671.25, -48796.23, 0.008048247, 0.20533626, -637188.56, -184672.19, 0.0, 9.99787, 9.999564 
1.20497435e+3, 2.6382697e+2, -759212.1, -571124.1, -41253.96, 0.0059547606, 0.24441995, -562473.56, -207954.72, 0.0, 9.997262, 9.999751 
1.20496996e+3, 2.738269e+2, -748324.06, -512617.1, -38590.27, 0.0030629735, 0.26283592, -506459.88, -249937.75, 0.0, 9.996654, 9.999773 
1.20496556e+3, 2.838272e+2, -692703.9, -359018.84, -31918.986, -0.0024832133, 0.28088564, -355993.03, -197471.5, 0.0, 9.996036, 10.000452 
1.2049611e+3, 2.9382786e+2, -680799.56, -292452.0, -33918.313, -0.0121540325, 0.29624176, -289511.8, -228996.75, 0.0, 9.995401, 10.000542 
1.2049573e+3, 3.03829e+2, -633088.3, -92560.61, -6250.211, 0.0012713433, 0.2947226, -92488.34, -92488.34, 0.0, 9.9947405, 10.001897 
1.2049543e+3, 3.13831e+2, -729562.9, -128568.31, -9314.73, 0.050356135, 0.29354918, -128423.984, -128423.984, 0.0, 9.994033, 10.00199 
1.2150312e+3, 1.2384389e+2, -1056017.1, -1714078.9, -11070.938, -0.02170086, 0.09580304, -1055831.0, 670508.8, 0.0017945205, 10.005901, 9.997163 
1.2150279e+3, 1.3384141e+2, -1009945.3, -1603319.4, 5694.6787, -0.049948663, 0.09958029, -1009890.6, 618472.2, 0.0010052553, 10.005376, 9.997504 
1.2150254e+3, 1.4383882e+2, -966771.8, -1486731.8, -19685.055, 0.027754925, 0.070980385, -966027.6, 564361.06, 0.00037846674, 10.004802, 9.997908 
1.2150216e+3, 1.5383725e+2, -961016.75, -1428396.8, -24568.857, 0.006890199, 0.118296795, -959728.75, 472677.78, 0.00006405677, 10.004146, 9.9979515 
1.2150177e+3, 1.6383576e+2, -909724.56, -1278500.9, -33782.176, -0.003522609, 0.14656508, -906655.5, 427767.1, 0.0000008663603, 10.003504, 9.998617 
1.215014e+3, 1.7383443e+2, -896014.44, -1211896.5, -34335.188, 0.006353, 0.14199309, -892325.44, 344110.6, 0.0, 10.002885, 9.998699 
1.2150101e+3, 1.8383327e+2, -861690.5, -1100946.6, -47128.08, 0.0146600185, 0.13754402, -852742.0, 285705.8, 0.0, 10.002259, 9.99909 
1.2150061e+3, 1.9383235e+2, -853157.56, -1040936.2, -46061.543, 0.019484533, 0.13283679, -842467.4, 197989.7, 0.0, 10.001622, 9.999136 
1.2150017e+3, 2.0383173e+2, -824814.9, -934790.56, -62254.09, 0.02448633, 0.1394428, -796741.1, 145722.56, 0.0, 10.000964, 9.999509 
1.2149971e+3, 2.138315e+2, -824402.2, -878856.3, -61712.84, 0.030069554, 0.16222288, -784177.1, 60289.13, 0.0, 10.000273, 9.999554 
1.2149923e+3, 2.2383112e+2, -815280.44, -816107.4, -64174.41, 0.03200754, 0.16535065, -751518.2, -5047.9663, 0.0, 9.99963, 9.99962 
1.21498734e+3, 2.3383047e+2, -799492.0, -757141.6, -59400.625, 0.028163576, 0.13647643, -715254.75, -66778.35, 0.0, 9.9990635, 9.999626 
1.2149823e+3, 2.4383016e+2, -792088.6, -711698.1, -68191.06, 0.021385733, 0.14655282, -672737.3, -122256.65, 0.0, 9.99848, 9.999546 
1.2149769e+3, 2.5383037e+2, -783823.25, -658503.75, -71403.06, 0.010114293, 0.21582139, -626165.4, -173683.25, 0.0, 9.99787, 9.999532 
1.2149717e+3, 2.6383042e+2, -755128.94, -562883.0, -63777.574, 0.002073581, 0.2544986, -543649.06, -189164.3, 0.0, 9.997262, 9.999808 
1.21496655e+3, 2.7383018e+2, -743469.75, -502693.25, -61061.49, -0.00084504456, 0.24375547, -488093.22, -231603.81, 0.0, 9.996653, 9.999842 
1.21496156e+3, 2.8383034e+2, -694789.6, -363379.75, -55184.332, -0.0037150679, 0.25193474, -354432.38, -195943.02, 0.0, 9.996035, 10.000423 
1.2149566e+3, 2.938312e+2, -683951.06, -298905.75, -57268.047, -0.0066485084, 0.28783804, -290568.75, -230086.58, 0.0, 9.995399, 10.000499 
1.2149522e+3, 3.038325e+2, -641165.25, -109102.46, -31936.05, 0.0034218628, 0.30601677, -107192.42, -107192.42, 0.0, 9.994739, 10.001785 
1.2149482e+3, 3.138345e+2, -738450.4, -146654.69, -35346.01, 0.03349536, 0.32163447, -144551.06, -144551.06, 0.0, 9.994031, 10.001868 
1.22503735e+3, 1.2384768e+2, -1001578.3, -1700194.4, 131.69781, -0.020738827, 0.097757705, -1001578.3, 724724.0, 0.0018921999, 10.006331, 9.99705 
1.2250333e+3, 1.3384503e+2, -982444.7, -1602730.0, 21309.447, -0.051263865, 0.09621459, -981713.44, 646613.75, 0.0010679322, 10.005621, 9.99739 
1.2250303e+3, 1.4384235e+2, -951378.75, -1485956.9, -3432.0247, 0.029866721, 0.06941312, -951356.75, 578997.1, 0.00040867444, 10.004937, 9.997848 
1.2250257e+3, 1.5384077e+2, -943896.56, -1426057.6, -7608.026, 0.006110742, 0.11920292, -943776.56, 488595.63, 0.00007229979, 10.00429, 9.997897 
1.22502126e+3, 1.6383928e+2, -891720.9, -1266279.8, -15121.17, -0.0043682316, 0.14885817, -891111.44, 443276.9, 0.0000012432351, 10.0036125, 9.998648 
1.2250169e+3, 1.7383799e+2, -892376.9, -1205410.8, -11164.717, 0.009881681, 0.1441044, -891979.2, 344422.2, 0.0, 10.00289, 9.998741 
1.2250125e+3, 1.8383683e+2, -865991.3, -1095493.5, -19714.309, 0.020448599, 0.13739803, -864310.1, 274102.56, 0.0, 10.002198, 9.999156 
1.2250077e+3, 1.9383594e+2, -858472.8, -1035641.4, -17365.371, 0.024219744, 0.12731631, -856786.8, 183634.7, 0.0, 10.001553, 9.999206 
1.2250027e+3, 2.0383534e+2, -829592.4, -934478.7, -34906.45, 0.026522549, 0.1318517, -819037.56, 123390.18, 0.0, 10.000921, 9.999532 
1.22499734e+3, 2.1383518e+2, -818088.5, -873935.3, -38532.9, 0.026911428, 0.15762125, -798425.1, 46005.098, 0.0, 10.000309, 9.999569 
1.224992e+3, 2.2383487e+2, -801879.8, -797275.06, -43490.13, 0.029298322, 0.1633256, -756026.44, -9593.025, 0.0, 9.99967, 9.999731 
1.2249865e+3, 2.3383436e+2, -801895.06, -744593.8, -40933.676, 0.034673847, 0.1364473, -723280.2, -74842.4, 0.0, 9.998989, 9.999747 
1.2249807e+3, 2.4383411e+2, -810077.25, -719193.2, -49217.996, 0.03100423, 0.14642629, -697647.25, -147205.92, 0.0, 9.998352, 9.999556 
1.2249748e+3, 2.538343e+2, -796626.94, -665225.2, -50410.336, 0.013236888, 0.21223667, -648114.2, -195670.67, 0.0, 9.9977865, 9.999525 
1.2249689e+3, 2.638344e+2, -757602.9, -551455.75, -41203.305, 0.0012713008, 0.24927561, -543525.4, -189079.38, 0.0, 9.997191, 9.99992 
1.22496314e+3, 2.7383426e+2, -749544.56, -491346.3, -34465.918, -0.0014276425, 0.23980458, -486824.78, -230375.88, 0.0, 9.996551, 9.999969 
1.22495756e+3, 2.8383452e+2, -710669.2, -374754.25, -25537.281, -0.002321538, 0.25032857, -372823.9, -214375.84, 0.0, 9.995942, 10.000389 
1.22495204e+3, 2.9383537e+2, -690373.2, -308193.72, -28647.355, -0.0006719742, 0.290253, -306058.3, -245616.7, 0.0, 9.995383, 10.0004425 
1.2249469e+3, 3.038366e+2, -629078.4, -111303.21, -2604.8516, 0.0040045884, 0.3113391, -111290.1, -111290.1, 0.0, 9.994857, 10.001713 
1.2249423e+3, 3.1383857e+2, -693814.56, -133562.8, -2752.985, 0.013383596, 0.32715234, -133549.27, -133549.27, 0.0, 9.994374, 10.001792 
1.2350437e+3, 1.2385195e+2, -1006981.56, -1712111.4, -28214.072, -0.021216158, 0.09991361, -1005854.44, 720405.94, 0.0019880182, 10.006334, 9.996967 
1.2350391e+3, 1.3384916e+2, -987813.75, -1614659.3, -5457.4385, -0.04948526, 0.092173934, -987766.25, 640520.4, 0.0011295266, 10.005623, 9.997307 
1.2350353e+3, 1.4384642e+2, -954300.4, -1492780.6, -28135.682, 0.03676615, 0.065737255, -952834.25, 577479.7, 0.00043845843, 10.004939, 9.9978 
1.23503e+3, 1.5384477e+2, -946507.3, -1432240.9, -31972.514, 0.006969539, 0.11520459, -944411.8, 487921.13, 0.00008054606, 10.004292, 9.997854 
1.2350249e+3, 1.6384333e+2, -885325.44, -1253761.8, -42019.223, -0.0057909223, 0.14747752, -880594.06, 453754.78, 0.0000016814945, 10.003615, 9.9987335 
1.23501986e+3, 1.7384219e+2, -884897.0, -1190614.4, -38347.66, 0.012096592, 0.14983667, -880160.25, 356199.97, 0.0, 10.0028925, 9.998842 
1.23501465e+3, 1.8384117e+2, -859584.94, -1082893.1, -44249.367, 0.025454357, 0.1446982, -851136.44, 287233.88, 0.0, 10.0022, 9.999243 
1.2350093e+3, 1.9384028e+2, -852282.3, -1023457.1, -41507.16, 0.030649543, 0.12771578, -842748.44, 197630.05, 0.0, 10.001555, 9.999289 
1.2350037e+3, 2.0383967e+2, -831049.9, -938147.6, -57940.992, 0.030751197, 0.12815164, -805702.4, 136682.38, 0.0, 10.000923, 9.999506 
1.2349976e+3, 2.1383947e+2, -820616.3, -879777.7, -61375.684, 0.02338378, 0.15401165, -782064.8, 62323.29, 0.0, 10.000311, 9.999529 
1.23499155e+3, 2.2383922e+2, -796320.4, -786264.56, -68626.12, 0.024397383, 0.16376215, -722482.44, 23908.582, 0.0, 9.999671, 9.999806 
1.23498544e+3, 2.338389e+2, -795372.06, -731508.75, -66324.57, 0.038297247, 0.14722744, -689829.44, -41436.188, 0.0, 9.99899, 9.999838 
1.23497926e+3, 2.4383868e+2, -808039.7, -715331.8, -70701.766, 0.038512066, 0.15372178, -677143.3, -126747.02, 0.0, 9.998353, 9.999582 
1.23497255e+3, 2.5383863e+2, -795233.8, -662615.56, -71327.06, 0.017389042, 0.19437464, -631536.56, -179135.83, 0.0, 9.9977865, 9.999544 
1.2349661e+3, 2.6383877e+2, -746040.56, -527632.25, -64597.527, 0.0035389604, 0.22855002, -509957.0, -155554.3, 0.0, 9.997191, 10.000084 
1.2349597e+3, 2.7383915e+2, -736801.3, -464953.13, -58138.31, 0.0013196509, 0.25118512, -453041.44, -196640.63, 0.0, 9.99655, 10.000151 
1.2349535e+3, 2.8383964e+2, -713766.8, -381124.78, -46367.53, 0.001669763, 0.2764342, -374782.44, -216384.55, 0.0, 9.995941, 10.000346 
1.2349475e+3, 2.9384026e+2, -695619.56, -318960.97, -49093.02, 0.0056836023, 0.30357414, -312667.44, -252273.75, 0.0, 9.995381, 10.000369 
1.2349418e+3, 3.0384135e+2, -631715.3, -116679.15, -20308.902, 0.0028691024, 0.3104444, -115879.56, -115879.56, 0.0, 9.994855, 10.001677 
1.2349364e+3, 3.1384307e+2, -696076.3, -138307.73, -20112.357, -0.010205065, 0.309331, -137583.44, -137583.44, 0.0, 9.994373, 10.0017605 
1.2450503e+3, 1.23856805e+2, -976300.6, -1699425.3, -11124.765, -0.00900743, 0.10069114, -976129.56, 750083.1, 0.0020811006, 10.0065565, 9.996947 
1.2450447e+3, 1.3385394e+2, -966179.94, -1605710.0, 17893.543, -0.049173962, 0.0872703, -965679.7, 662559.75, 0.0011893951, 10.00578, 9.9972925 
1.2450403e+3, 1.4385119e+2, -941775.0, -1485332.9, 1455.0326, 0.037081767, 0.060720604, -941771.1, 588495.6, 0.0004674021, 10.00502, 9.997811 
1.2450344e+3, 1.5384953e+2, -946550.0, -1430492.1, 2003.5464, 0.009448416, 0.106744304, -946541.75, 485744.2, 0.000088578876, 10.004285, 9.997869 
1.2450286e+3, 1.6384813e+2, -892631.0, -1256927.8, -9260.96, -0.00300076, 0.14152233, -892395.75, 441905.94, 0.0000021429341, 10.003564, 9.998735 
1.2450227e+3, 1.7384711e+2, -888895.2, -1192444.9, -13391.77, 0.01227537, 0.15576571, -888305.56, 348006.94, 0.0, 10.002866, 9.998842 
1.2450168e+3, 1.8384616e+2, -858622.8, -1073328.9, -22543.092, 0.024579039, 0.15552533, -856281.44, 282040.44, 0.0, 10.002169, 9.999323 
1.2450109e+3, 1.9384532e+2, -857893.4, -1015942.6, -19342.646, 0.031116052, 0.13250849, -855560.6, 184768.69, 0.0, 10.001473, 9.999379 
1.2450045e+3, 2.0384471e+2, -843663.3, -941716.7, -31530.54, 0.03223175, 0.12758654, -834399.44, 107935.81, 0.0, 10.000827, 9.999528 
1.2449979e+3, 2.1384446e+2, -828171.7, -881928.5, -30856.322, 0.025368871, 0.14922702, -814128.7, 30210.37, 0.0, 10.000254, 9.999541 
1.2449912e+3, 2.2384427e+2, -794760.1, -778829.44, -38953.625, 0.025913317, 0.1598158, -747035.06, -693.4683, 0.0, 9.999654, 9.999865 
1.2449845e+3, 2.3384409e+2, -787575.75, -720456.0, -39047.395, 0.037892625, 0.15197657, -702528.4, -54186.01, 0.0, 9.999013, 9.999902 
1.2449776e+3, 2.4384391e+2, -802157.06, -705566.0, -41864.246, 0.03766869, 0.15623145, -689946.94, -139602.11, 0.0, 9.998364, 9.999643 
1.2449703e+3, 2.5384375e+2, -802649.56, -659282.25, -39270.49, 0.01839075, 0.17755415, -649230.25, -196880.05, 0.0, 9.997706, 9.999605 
1.24496326e+3, 2.638439e+2, -761875.5, -532920.56, -35994.92, 0.005848767, 0.2111751, -527395.0, -173043.14, 0.0, 9.997073, 10.000104 
1.2449563e+3, 2.7384457e+2, -746532.1, -467951.13, -42383.76, 0.004059996, 0.2625254, -461645.5, -205297.66, 0.0, 9.996477, 10.000165 
1.2449495e+3, 2.8384522e+2, -716774.6, -378102.88, -32813.8, 0.0042807222, 0.29931068, -374952.84, -216608.84, 0.0, 9.995902, 10.000385 
1.24494284e+3, 2.9384574e+2, -696058.8, -314387.4, -26911.08, 0.0072914236, 0.3110664, -312499.28, -252158.63, 0.0, 9.995359, 10.000411 
1.2449365e+3, 3.0384675e+2, -637201.56, -110689.65, 10160.552, 0.0018697234, 0.30717015, -110493.65, -110493.65, 0.0, 9.9947815, 10.001753 
1.24493055e+3, 3.1384856e+2, -723403.56, -142439.22, 18555.215, -0.016187973, 0.30187172, -141847.19, -141847.19, 0.0, 9.994148, 10.00184 
1.255057e+3, 1.2386227e+2, -973425.5, -1694043.4, -41366.344, 0.015401993, 0.0998718, -971058.7, 755100.5, 0.002171207, 10.006558, 9.996984 
1.2550505e+3, 1.3385941e+2, -962388.5, -1598602.5, -11276.753, -0.05036819, 0.08153957, -962188.7, 665996.94, 0.001247364, 10.005782, 9.997341 
1.2550452e+3, 1.438567e+2, -936691.9, -1475579.6, -26428.027, 0.030889811, 0.05440659, -935398.9, 594813.3, 0.0004954231, 10.005023, 9.997877 
1.2550387e+3, 1.5385504e+2, -941328.2, -1420497.1, -25642.576, 0.013510907, 0.09384702, -939959.8, 492271.28, 0.00009635627, 10.004288, 9.997937 
1.2550321e+3, 1.6385368e+2, -898083.75, -1269085.4, -35679.047, 0.0039231433, 0.13101648, -894683.7, 439563.25, 0.0000025991405, 10.003567, 9.998651 
1.2550256e+3, 1.7385271e+2, -895791.0, -1207576.4, -39587.26, 0.010399929, 0.16187507, -890843.1, 345415.06, 0.0, 10.002868, 9.998737 
1.2550189e+3, 1.8385182e+2, -853197.9, -1062830.5, -48600.117, 0.017826144, 0.16982636, -842478.75, 295788.72, 0.0, 10.002171, 9.999394 
1.2550122e+3, 1.9385101e+2, -850962.4, -1002246.1, -45335.86, 0.025612881, 0.1416908, -838416.75, 201857.22, 0.0, 10.001475, 9.999473 
1.2550053e+3, 2.0385043e+2, -838770.56, -932199.8, -53416.39, 0.030944433, 0.13017736, -814523.44, 127755.875, 0.0, 10.000829, 9.999593 
1.2549981e+3, 2.1385016e+2, -823533.2, -872917.1, -52166.36, 0.032850552, 0.14324187, -790510.2, 53773.023, 0.0, 10.000255, 9.999603 
1.254991e+3, 2.2384998e+2, -791771.6, -773183.8, -62547.18, 0.033815335, 0.1514312, -719243.8, 27041.604, 0.0, 9.999656, 9.999904 
1.2549834e+3, 2.3384991e+2, -784873.1, -715331.0, -62887.78, 0.033395015, 0.1506443, -678241.75, -29956.459, 0.0, 9.999014, 9.999937 
1.2549758e+3, 2.438498e+2, -795476.4, -692097.94, -66223.31, 0.028383845, 0.15391016, -659779.44, -109492.305, 0.0, 9.998365, 9.999736 
1.254968e+3, 2.5384957e+2, -795511.4, -644729.0, -63621.023, 0.016185805, 0.16177593, -621472.0, -169179.89, 0.0, 9.997706, 9.999705 
1.2549603e+3, 2.6384977e+2, -770932.56, -551848.9, -58237.14, 0.008164393, 0.19717295, -537330.3, -183036.6, 0.0, 9.997073, 9.999975 
1.2549527e+3, 2.7385053e+2, -757770.56, -491324.94, -64364.9, 0.0067379866, 0.27377254, -476591.13, -220300.8, 0.0, 9.996476, 10.000005 
1.2549454e+3, 2.8385124e+2, -708508.44, -360907.28, -52949.86, 0.005407617, 0.3188192, -353020.4, -194733.75, 0.0, 9.995901, 10.0005045 
1.2549382e+3, 2.938517e+2, -685292.3, -291899.75, -46770.18, 0.0040032486, 0.3125373, -286415.72, -226132.84, 0.0, 9.9953575, 10.000567 
1.2549312e+3, 3.0385283e+2, -624349.9, -83648.516, -12627.361, 0.0009797686, 0.30140337, -83353.78, -83353.78, 0.0, 9.994779, 10.001941 
1.2549248e+3, 3.138549e+2, -710603.1, -115058.04, -4550.3945, -0.00428502, 0.30495912, -115023.27, -115023.27, 0.0, 9.9941435, 10.00203 
1.2650639e+3, 1.23868495e+2, -972169.6, -1689201.5, -5408.598, 0.03504395, 0.089572005, -972128.8, 753969.06, 0.0022586235, 10.006551, 9.997021 
1.2650563e+3, 1.3386571e+2, -952438.8, -1588524.8, 25459.8, -0.04829115, 0.074630715, -951421.4, 676702.2, 0.0013036352, 10.00583, 9.997387 
1.2650503e+3, 1.4386313e+2, -923594.7, -1464828.6, 9129.316, 0.029123843, 0.054772478, -923440.75, 606708.25, 0.0005227016, 10.0050955, 9.997915 
1.265043e+3, 1.538615e+2, -931040.8, -1411251.9, 7479.9316, 0.01282483, 0.09447525, -930924.3, 501243.2, 0.00010400149, 10.004341, 9.997973 
1.2650357e+3, 1.6386013e+2, -896712.44, -1276568.8, -1993.4332, 0.0031333398, 0.13189065, -896701.94, 437481.66, 0.0000030550805, 10.0036125, 9.998577 
1.2650284e+3, 1.7385909e+2, -894032.5, -1216627.5, -4781.158, 0.007560318, 0.16325428, -893961.7, 342234.6, 0.0, 10.002924, 9.998648 
1.2650211e+3, 1.8385817e+2, -843942.2, -1055302.5, -15438.624, 0.01386121, 0.17322975, -842820.44, 295385.63, 0.0, 10.002222, 9.99942 
1.2650137e+3, 1.9385743e+2, -844743.5, -994585.25, -16392.164, 0.021985915, 0.14939263, -842971.2, 197240.34, 0.0, 10.001499, 9.999513 
1.265006e+3, 2.038569e+2, -840112.44, -927533.25, -24570.13, 0.029783802, 0.1380231, -833680.1, 108536.15, 0.0, 10.000797, 9.999639 
1.2649985e+3, 2.1385661e+2, -838919.75, -875000.44, -24219.668, 0.037426528, 0.14488895, -826760.0, 17460.033, 0.0, 10.000128, 9.999649 
1.2649906e+3, 2.2385645e+2, -815077.75, -781488.5, -35989.09, 0.039258074, 0.15020767, -758568.2, -12346.102, 0.0, 9.999484, 9.999928 
1.2649824e+3, 2.3385641e+2, -803070.94, -721587.8, -37531.008, 0.032169815, 0.1516632, -706935.75, -58713.97, 0.0, 9.9988785, 9.999959 
1.2649742e+3, 2.4385636e+2, -801078.56, -686521.2, -41839.93, 0.024128713, 0.15624289, -672867.3, -122644.31, 0.0, 9.998292, 9.999809 
1.2649657e+3, 2.538562e+2, -786486.5, -631395.06, -40936.188, 0.014652823, 0.16397554, -621253.25, -169026.45, 0.0, 9.997731, 9.999784 
1.2649573e+3, 2.638564e+2, -766702.0, -556027.44, -34848.176, 0.00846981, 0.19818719, -550412.75, -196184.45, 0.0, 9.997129, 9.999919 
1.2649493e+3, 2.738571e+2, -764577.0, -502845.25, -34842.965, 0.007367958, 0.2719227, -498286.22, -242059.73, 0.0, 9.996466, 9.99993 
1.2649412e+3, 2.8385776e+2, -715191.5, -356907.7, -19948.043, 0.0049458705, 0.31722546, -355800.47, -197577.22, 0.0, 9.995825, 10.000568 
1.2649335e+3, 2.9385838e+2, -699763.94, -289713.6, -19323.074, 0.00029420294, 0.31606033, -288805.03, -228586.92, 0.0, 9.995219, 10.0006485 
1.264926e+3, 3.0385962e+2, -648046.44, -85600.1, 4800.4263, -0.0008489659, 0.30997846, -85559.13, -85559.13, 0.0, 9.994576, 10.002024 
1.2649189e+3, 3.138618e+2, -744105.25, -121785.62, 4060.3303, 0.0037269727, 0.31766072, -121759.125, -121759.125, 0.0, 9.993874, 10.002114 
1.2750705e+3, 1.238755e+2, -969228.6, -1684234.5, -33308.902, 0.04986114, 0.069911726, -967680.3, 758348.3, 0.0023435901, 10.006555, 9.997053 
1.2750621e+3, 1.3387287e+2, -949037.9, -1582471.1, -1580.0992, -0.04303261, 0.06651522, -949033.94, 679019.2, 0.0013583938, 10.005833, 9.997427 
1.2750554e+3, 1.4387047e+2, -922626.4, -1463711.0, -19125.574, 0.03167152, 0.06163635, -921951.2, 608125.94, 0.00054943305, 10.005098, 9.997923 
1.2750474e+3, 1.5386891e+2, -930369.4, -1410770.9, -20856.402, 0.0074282605, 0.10842745, -929465.6, 502629.5, 0.000111672685, 10.004344, 9.997976 
1.2750393e+3, 1.6386747e+2, -901042.3, -1286434.3, -28113.938, -0.005276557, 0.14397177, -899002.2, 435109.6, 0.0000035391404, 10.003615, 9.998508 
1.2750314e+3, 1.738662e+2, -899149.94, -1228076.1, -30540.693, 0.0037674922, 0.15991932, -896338.25, 339788.5, 0.0, 10.002927, 9.998569 
1.2750234e+3, 1.838652e+2, -845138.3, -1058545.1, -42338.484, 0.012644358, 0.16584821, -837045.5, 301092.06, 0.0, 10.002225, 9.999398 
1.2750152e+3, 1.938646e+2, -845493.1, -996884.3, -43414.047, 0.020197699, 0.15562955, -833927.0, 206215.14, 0.0, 10.001501, 9.999496 
1.275007e+3, 2.0386413e+2, -838060.5, -923964.5, -49782.727, 0.028715342, 0.15109003, -815261.5, 126884.72, 0.0, 10.000799, 9.999663 
1.2749985e+3, 2.1386383e+2, -836619.4, -870818.1, -49171.457, 0.039073266, 0.15419126, -801658.94, 42490.73, 0.0, 10.000129, 9.999678 
1.2749901e+3, 2.2386365e+2, -814327.3, -780434.7, -58750.35, 0.04222683, 0.1561996, -736235.44, 9916.353, 0.0, 9.999485, 9.999936 
1.2749812e+3, 2.3386359e+2, -802538.06, -720915.6, -59940.105, 0.034217373, 0.15503587, -689212.25, -41060.25, 0.0, 9.998879, 9.999963 
1.2749724e+3, 2.4386358e+2, -797457.75, -679382.0, -62750.48, 0.024901615, 0.16327852, -652262.5, -102109.78, 0.0, 9.998292, 9.999858 
1.2749633e+3, 2.5386363e+2, -782471.3, -623413.25, -61601.457, 0.013755361, 0.18441351, -602346.0, -150191.56, 0.0, 9.997731, 9.99984 
1.2749545e+3, 2.6386383e+2, -765588.0, -554008.0, -58953.82, 0.006696533, 0.21441193, -538690.25, -184534.5, 0.0, 9.997129, 9.999933 
1.2749457e+3, 2.738642e+2, -763934.1, -501628.28, -59318.953, 0.0058724023, 0.25665262, -488837.38, -232680.86, 0.0, 9.996465, 9.99994 
1.274937e+3, 2.8386477e+2, -715112.06, -356652.97, -42345.477, 0.0028109627, 0.29406455, -351718.53, -193564.56, 0.0, 9.995823, 10.000571 
1.2749286e+3, 2.938657e+2, -699993.3, -289830.44, -41468.465, -0.0038729203, 0.3217078, -285679.88, -225533.2, 0.0, 9.995217, 10.000649 
1.2749206e+3, 3.0386713e+2, -650464.56, -89970.22, -20615.553, -0.0037033653, 0.33328465, -89212.984, -89212.984, 0.0, 9.994573, 10.001996 
1.2749128e+3, 3.1386927e+2, -747046.8, -126927.09, -21791.482, 0.007478732, 0.34008607, -126162.266, -126162.266, 0.0, 9.993869, 10.002082 
1.2850772e+3, 1.2388353e+2, -941256.94, -1678099.6, 11145.728, 0.052802972, 0.0560849, -941088.4, 784860.7, 0.0024259088, 10.006782, 9.996985 
1.2850681e+3, 1.3388096e+2, -933552.25, -1582748.4, 35220.36, -0.044544995, 0.06418421, -931647.06, 696326.8, 0.0014114392, 10.005975, 9.997356 
1.2850605e+3, 1.4387861e+2, -913264.44, -1464763.1, 11274.207, 0.032646284, 0.073060274, -913034.06, 616963.6, 0.0005755768, 10.005188, 9.997871 
1.2850517e+3, 1.5387705e+2, -920759.75, -1411549.8, 5550.7407, 0.0060486854, 0.12325056, -920696.94, 511319.13, 0.0001194061, 10.004435, 9.997927 
1.2850429e+3, 1.6387556e+2, -890810.9, -1282114.4, -634.75476, -0.0073314677, 0.15614522, -890809.8, 443223.5, 0.000004069248, 10.00369, 9.998502 
1.2850343e+3, 1.7387415e+2, -895059.75, -1226197.0, 2598.5889, 0.0037216067, 0.1604618, -895039.4, 341009.72, 0.0, 10.002956, 9.998566 
1.2850255e+3, 1.838731e+2, -845735.1, -1063956.5, -6723.3623, 0.013726979, 0.16364661, -845528.2, 292532.13, 0.0, 10.002244, 9.999351 
1.2850167e+3, 1.9387256e+2, -840587.1, -1000388.4, -10719.857, 0.02098108, 0.16442378, -839871.25, 200193.56, 0.0, 10.001561, 9.999443 
1.2850077e+3, 2.0387208e+2, -827079.8, -918321.44, -18947.344, 0.028558185, 0.1633255, -823301.6, 118767.24, 0.0, 10.0008745, 9.999665 
1.2849987e+3, 2.1387172e+2, -828960.2, -866009.6, -19944.344, 0.037038054, 0.1581213, -820264.6, 23807.912, 0.0, 10.000177, 9.999687 
1.2849896e+3, 2.2387147e+2, -813330.94, -783114.3, -29645.627, 0.03917112, 0.15554304, -764949.1, -18874.154, 0.0, 9.999506, 9.999907 
1.28498e+3, 2.3387142e+2, -806088.5, -726326.7, -33682.945, 0.031482365, 0.15558991, -714005.8, -65930.15, 0.0, 9.998872, 9.999929 
1.2849706e+3, 2.4387145e+2, -804885.94, -681750.4, -38980.6, 0.023178207, 0.16802594, -670447.9, -120371.55, 0.0, 9.998237, 9.999868 
1.2849611e+3, 2.538716e+2, -800746.56, -630421.94, -40948.42, 0.014061106, 0.19783638, -621088.8, -169011.63, 0.0, 9.997599, 9.999855 
1.2849516e+3, 2.638718e+2, -784985.0, -557290.5, -40167.438, 0.007670753, 0.22631782, -550412.3, -196334.17, 0.0, 9.996971, 9.999987 
1.2849422e+3, 2.7387205e+2, -775372.1, -500571.63, -37264.934, 0.0054070055, 0.251331, -495607.88, -239528.39, 0.0, 9.996359, 9.999998 
1.2849328e+3, 2.8387263e+2, -726493.5, -362221.78, -17590.979, -0.00019833754, 0.2849714, -361374.25, -203297.28, 0.0, 9.995747, 10.000569 
1.2849237e+3, 2.9387373e+2, -713076.1, -297169.9, -17640.021, -0.011056482, 0.3297882, -296423.06, -236354.33, 0.0, 9.995132, 10.000639 
1.2849149e+3, 3.038752e+2, -665011.0, -94122.13, 239.69038, -0.010500894, 0.3496713, -94122.03, -94122.03, 0.0, 9.994461, 10.002021 
1.2849066e+3, 3.1387728e+2, -769281.1, -134405.38, 2858.129, 0.008027808, 0.35010275, -134392.5, -134392.5, 0.0, 9.993703, 10.00211 
1.2950839e+3, 1.238926e+2, -952403.75, -1702553.1, -19494.05, 0.04403646, 0.047681298, -951897.5, 773961.75, 0.0025047201, 10.006786, 9.996816 
1.295074e+3, 1.3388996e+2, -945712.44, -1609207.3, 4989.843, -0.052666504, 0.06748261, -945674.9, 682210.8, 0.0014620601, 10.005979, 9.997173 
1.2950657e+3, 1.4388761e+2, -920528.75, -1480955.8, -17212.48, 0.032059975, 0.08891418, -920000.6, 609909.9, 0.00060073123, 10.005192, 9.997759 
1.2950562e+3, 1.5388593e+2, -927581.5, -1426720.9, -22618.082, 0.008580777, 0.13887537, -926558.6, 505371.72, 0.00012705456, 10.004437, 9.997822 
1.2950467e+3, 1.6388437e+2, -886781.7, -1274691.3, -28144.252, -0.0031623337, 0.1683922, -884750.4, 449197.88, 0.000004636527, 10.003693, 9.998551 
1.2950373e+3, 1.7388296e+2, -889689.4, -1215944.1, -24802.422, 0.0073448154, 0.16483052, -887814.6, 348148.66, 0.0, 10.002959, 9.998636 
1.2950279e+3, 1.838819e+2, -850603.8, -1074892.0, -32394.63, 0.017044256, 0.16656119, -846018.7, 291955.66, 0.0, 10.002246, 9.999275 
1.2950183e+3, 1.9388133e+2, -846846.4, -1014149.2, -36158.97, 0.024309201, 0.17576498, -839365.8, 200613.75, 0.0, 10.001564, 9.999348 
1.2950087e+3, 2.038808e+2, -828393.25, -921748.1, -44853.145, 0.029301852, 0.17474216, -810335.94, 131648.47, 0.0, 10.000876, 9.999641 
1.2949988e+3, 2.138803e+2, -829699.4, -868164.0, -45903.277, 0.03125121, 0.15665627, -799162.3, 44826.535, 0.0, 10.000179, 9.999672 
1.2949888e+3, 2.2387996e+2, -817941.0, -793256.56, -53455.316, 0.029986337, 0.1481921, -750737.1, -4745.221, 0.0, 9.999508, 9.999837 
1.2949789e+3, 2.3387985e+2, -811254.6, -737546.2, -57182.582, 0.02391203, 0.1533148, -706370.4, -58377.34, 0.0, 9.998874, 9.999852 
1.2949689e+3, 2.4387987e+2, -807072.56, -686670.6, -62588.633, 0.018932207, 0.17046094, -660029.8, -110035.71, 0.0, 9.998238, 9.999835 
1.2949587e+3, 2.5388002e+2, -802679.1, -634657.5, -64538.684, 0.015573116, 0.20413056, -612729.4, -160734.22, 0.0, 9.997599, 9.999826 
1.2949486e+3, 2.6388028e+2, -778743.75, -544439.5, -62828.684, 0.01140443, 0.23385218, -528655.3, -174659.61, 0.0, 9.99697, 10.000075 
1.2949385e+3, 2.7388057e+2, -768158.56, -485624.5, -59738.797, 0.005953322, 0.25620857, -473512.6, -217516.88, 0.0, 9.996358, 10.000101 
1.2949285e+3, 2.8388125e+2, -727314.0, -363846.4, -40042.535, -0.004154243, 0.29029727, -359487.28, -201494.78, 0.0, 9.995745, 10.00056 
1.2949187e+3, 2.9388234e+2, -715072.6, -301073.8, -40084.39, -0.021405846, 0.34034926, -297228.47, -237243.86, 0.0, 9.995131, 10.000613 
1.2949093e+3, 3.0388385e+2, -660181.4, -83627.94, -26998.613, -0.021442212, 0.35887864, -82366.414, -82366.414, 0.0, 9.994458, 10.002095 
1.2949003e+3, 3.1388593e+2, -763849.7, -122323.195, -24891.086, 0.005151151, 0.34704098, -121358.875, -121358.875, 0.0, 9.993699, 10.002195 
1.3050906e+3, 1.239025e+2, -924253.5, -1700800.6, 3750.7961, 0.030501634, 0.04965947, -924235.4, 801526.6, 0.0025785586, 10.007033, 9.996708 
1.3050799e+3, 1.3389973e+2, -921257.7, -1610443.0, 32915.67, -0.059900086, 0.06992186, -919689.2, 708100.9, 0.0015092284, 10.006205, 9.997056 
1.3050711e+3, 1.4389732e+2, -898455.75, -1479093.5, 15402.07, 0.034297135, 0.096455306, -898047.44, 631768.25, 0.0006242702, 10.005383, 9.99768 
1.3050607e+3, 1.5389554e+2, -913358.1, -1428175.3, 12254.722, 0.010321372, 0.14338382, -913066.6, 518770.25, 0.00013437655, 10.004573, 9.997746 
1.3050504e+3, 1.6389394e+2, -870414.4, -1263826.9, 8557.411, -0.0016535087, 0.17174503, -870228.3, 463626.75, 0.000005224681, 10.003793, 9.998577 
1.3050403e+3, 1.7389259e+2, -872510.6, -1203359.4, 9539.132, 0.009081137, 0.1702078, -872235.8, 363633.28, 0.0, 10.003059, 9.998673 
1.3050301e+3, 1.8389152e+2, -844222.0, -1082524.8, 1022.25476, 0.01989467, 0.17340928, -844217.6, 293662.53, 0.0, 10.002337, 9.999178 
1.3050199e+3, 1.9389085e+2, -845182.0, -1026012.3, -4240.523, 0.029615376, 0.18318236, -845082.56, 194804.4, 0.0, 10.001631, 9.999234 
1.3050096e+3, 2.0389023e+2, -820069.3, -919895.25, -13271.084, 0.03262735, 0.1809726, -818335.2, 123557.58, 0.0, 10.000943, 9.999621 
1.304999e+3, 2.1388967e+2, -815148.9, -862084.0, -14032.548, 0.025855474, 0.15897433, -811273.5, 32623.623, 0.0, 10.000284, 9.999662 
1.3049884e+3, 2.2388926e+2, -808726.2, -796588.2, -21390.73, 0.022173826, 0.14808373, -780422.2, -34521.715, 0.0, 9.999605, 9.999766 
1.3049778e+3, 2.338891e+2, -813656.7, -747393.1, -25483.598, 0.02337751, 0.15318303, -738726.25, -90823.734, 0.0, 9.998895, 9.999774 
1.3049671e+3, 2.4388903e+2, -813234.8, -693859.44, -30199.268, 0.020084744, 0.1698076, -686654.56, -136750.23, 0.0, 9.998215, 9.999796 
1.3049562e+3, 2.5388917e+2, -808074.8, -640924.44, -32605.176, 0.009802788, 0.202001, -634789.5, -182883.55, 0.0, 9.997579, 9.999793 
1.3049455e+3, 2.638894e+2, -781617.5, -539765.9, -32847.92, 0.0031213046, 0.23162657, -535383.94, -181477.48, 0.0, 9.996925, 10.000129 
1.3049346e+3, 2.738898e+2, -780141.1, -484204.38, -33078.42, 0.0019100887, 0.25603196, -480552.13, -224646.75, 0.0, 9.996245, 10.000165 
1.304924e+3, 2.8389052e+2, -750849.4, -372647.3, -13889.383, -0.006023633, 0.29149762, -372137.9, -214236.38, 0.0, 9.995574, 10.000582 
1.3049138e+3, 2.9389164e+2, -745692.6, -313965.8, -11085.262, -0.024300098, 0.34193563, -313681.34, -253787.56, 0.0, 9.994913, 10.000629 
1.3049036e+3, 3.0389315e+2, -687822.9, -89879.734, 61.78842, -0.025136705, 0.3604298, -89879.73, -89879.73, 0.0, 9.994239, 10.002157 
1.304894e+3, 3.138953e+2, -781539.6, -123263.24, 127.893166, 0.0010176388, 0.34699175, -123263.22, -123263.22, 0.0, 9.993546, 10.002262 
1.3150975e+3, 1.23913206e+2, -927556.7, -1708346.3, -27135.75, 0.012244639, 0.061437864, -926614.75, 799042.56, 0.0026461696, 10.007035, 9.996655 
1.315086e+3, 1.3391028e+2, -925005.0, -1619004.0, 1939.4136, -0.06628732, 0.07145555, -924999.56, 702687.44, 0.001552058, 10.006207, 9.996996 
1.3150764e+3, 1.439078e+2, -901629.8, -1486547.3, -14997.207, 0.039244153, 0.09583294, -901245.5, 628467.9, 0.0006456981, 10.005385, 9.997627 
1.3150652e+3, 1.539059e+2, -916323.25, -1435422.0, -17987.486, 0.011271571, 0.13698222, -915700.7, 516034.88, 0.00014120161, 10.004576, 9.997695 
1.3150541e+3, 1.6390428e+2, -870013.5, -1264131.5, -19135.021, -0.0027705343, 0.16638611, -869086.7, 464667.28, 0.000005838188, 10.003797, 9.998574 
1.3150433e+3, 1.7390306e+2, -871857.4, -1203032.1, -17844.123, 0.008930663, 0.17659722, -870898.7, 364868.0, 0.0, 10.003062, 9.998674 
1.3150325e+3, 1.8390198e+2, -852291.2, -1100189.6, -25457.166, 0.02226562, 0.18410796, -849703.94, 288074.06, 0.0, 10.002339, 9.999056 
1.3150217e+3, 1.9390109e+2, -854415.44, -1045998.0, -30580.13, 0.03686198, 0.18667825, -849652.7, 190134.5, 0.0, 10.001633, 9.999096 
1.3150105e+3, 2.0390037e+2, -821195.5, -922955.6, -38007.105, 0.038470518, 0.18206356, -808567.1, 133226.86, 0.0, 10.000945, 9.999599 
1.3149993e+3, 2.1389984e+2, -815319.94, -863099.94, -38542.496, 0.02083529, 0.16511692, -793864.0, 49933.53, 0.0, 10.000286, 9.999656 
1.314988e+3, 2.2389941e+2, -813778.8, -807704.7, -47584.633, 0.0157617, 0.15525723, -763060.3, -17259.404, 0.0, 9.999607, 9.99969 
1.3149767e+3, 2.338991e+2, -819380.3, -759804.9, -51837.156, 0.029931406, 0.15520838, -729806.3, -82002.08, 0.0, 9.998897, 9.999688 
1.3149653e+3, 2.4389893e+2, -816361.7, -700788.44, -53987.176, 0.026621498, 0.16601995, -679493.4, -129686.18, 0.0, 9.998215, 9.999749 
1.3149536e+3, 2.5389892e+2, -810892.2, -647135.4, -55995.063, -0.0034516389, 0.19129743, -629819.44, -178009.6, 0.0, 9.997579, 9.999751 
1.3149421e+3, 2.6389915e+2, -780724.1, -538149.44, -57702.63, -0.017450538, 0.2194383, -525122.94, -171312.36, 0.0, 9.996925, 10.00014 
1.3149309e+3, 2.738996e+2, -778949.6, -481743.47, -58071.875, -0.0068557174, 0.2506731, -470799.66, -214990.94, 0.0, 9.996244, 10.000183 
1.3149197e+3, 2.8390038e+2, -747543.5, -365543.9, -38127.02, -0.005778613, 0.28842533, -361775.66, -203971.27, 0.0, 9.995571, 10.000632 
1.3149087e+3, 2.9390153e+2, -742311.2, -306439.34, -35186.84, -0.01950084, 0.33422568, -303617.06, -243820.52, 0.0, 9.99491, 10.000683 
1.3148978e+3, 3.039031e+2, -685224.7, -83784.305, -25055.89, -0.021372706, 0.3540547, -82742.29, -82742.29, 0.0, 9.994235, 10.002201 
1.3148873e+3, 3.1390536e+2, -779155.9, -117535.57, -25044.186, -0.004635561, 0.35001552, -116588.94, -116588.94, 0.0, 9.993542, 10.002304 
1.3251044e+3, 1.2392457e+2, -931361.4, -1709987.6, -3169.19, 0.0003827075, 0.06552437, -931348.5, 794197.6, 0.0027075014, 10.0070095, 9.996655 
1.3250923e+3, 1.339216e+2, -929157.25, -1621476.6, 29356.828, -0.070290804, 0.071273655, -927914.6, 699661.6, 0.0015903346, 10.006182, 9.996991 
1.3250819e+3, 1.439191e+2, -899532.5, -1488912.0, 18085.658, 0.043846495, 0.09612005, -898978.06, 630624.7, 0.00066485145, 10.005415, 9.997596 
1.32507e+3, 1.539171e+2, -894625.2, -1428772.0, 16494.518, 0.01107309, 0.1304593, -894116.3, 537509.44, 0.00014749942, 10.004743, 9.997661 
1.325058e+3, 1.6391546e+2, -840936.5, -1257651.0, 13170.185, -0.004638657, 0.16177642, -840520.7, 493123.78, 0.0000065022473, 10.00403, 9.998506 
1.3250466e+3, 1.739143e+2, -848945.2, -1200077.8, 8685.516, 0.0101999305, 0.18720065, -848730.44, 386926.44, 0.0, 10.003256, 9.998601 
1.325035e+3, 1.8391316e+2, -835389.94, -1102234.6, 73.95999, 0.024962824, 0.19810328, -835389.94, 302278.84, 0.0, 10.002501, 9.998964 
1.3250233e+3, 1.9391204e+2, -840571.6, -1049819.9, -1938.9833, 0.038361654, 0.1862023, -840553.7, 199126.38, 0.0, 10.001775, 9.9990015 
1.3250116e+3, 2.0391119e+2, -807576.9, -923276.4, -7468.699, 0.0383155, 0.17610948, -807096.75, 134591.34, 0.0, 10.00107, 9.999537 
1.3249995e+3, 2.1391068e+2, -803387.8, -863814.5, -11855.059, 0.018445646, 0.1673832, -801145.2, 42546.152, 0.0, 10.000397, 9.999597 
1.3249876e+3, 2.2391023e+2, -806181.94, -811085.7, -25184.842, 0.012693248, 0.16109708, -783329.9, -37634.973, 0.0, 9.99969, 9.999626 
1.3249756e+3, 2.339098e+2, -818544.2, -766532.94, -28434.75, 0.028433664, 0.15739536, -754005.1, -106305.89, 0.0, 9.998934, 9.999623 
1.3249636e+3, 2.4390954e+2, -818674.7, -704454.06, -26486.273, 0.024929555, 0.16333412, -698611.2, -148908.14, 0.0, 9.998211, 9.999725 
1.3249512e+3, 2.5390947e+2, -818029.1, -652547.75, -26610.334, -0.007990669, 0.18200271, -648373.94, -196667.73, 0.0, 9.9975395, 9.999732 
1.324939e+3, 2.6390964e+2, -789886.3, -541823.6, -28885.406, -0.023571774, 0.21010484, -538504.5, -184797.47, 0.0, 9.9968605, 10.000146 
1.324927e+3, 2.7391025e+2, -789368.25, -485748.8, -30392.412, -0.012600038, 0.25116622, -482736.44, -227032.03, 0.0, 9.99617, 10.000191 
1.3249151e+3, 2.8391105e+2, -760930.5, -366747.56, -11795.157, -0.010388835, 0.29135114, -366394.94, -208695.28, 0.0, 9.995458, 10.000678 
1.3249034e+3, 2.9391214e+2, -767396.25, -312820.66, -9521.911, -0.021848295, 0.32838118, -312621.28, -252929.31, 0.0, 9.994715, 10.000733 
1.3248919e+3, 3.0391377e+2, -714731.2, -88816.195, 1843.2723, -0.021757938, 0.34224805, -88810.766, -88810.766, 0.0, 9.993995, 10.002282 
1.3248807e+3, 3.1391606e+2, -807186.56, -121540.086, 4795.956, -0.0035142053, 0.33586517, -121506.55, -121506.55, 0.0, 9.993309, 10.002388 
1.3351113e+3, 1.23936586e+2, -928342.1, -1703598.8, -33740.51, -0.00556113, 0.062122595, -926876.44, 798552.0, 0.0027638595, 10.007009, 9.996701 
1.3350984e+3, 1.3393366e+2, -925804.7, -1615282.8, -1687.9728, -0.072034374, 0.06941585, -925800.56, 701657.3, 0.0016246866, 10.006184, 9.997033 
1.3350874e+3, 1.4393121e+2, -900070.94, -1491144.3, -7673.763, 0.0480545, 0.09727534, -899971.3, 629512.4, 0.0006818459, 10.005419, 9.99758 
1.3350746e+3, 1.5392913e+2, -895765.44, -1432177.8, -8590.164, 0.009691349, 0.12383161, -895627.9, 535879.56, 0.00015329255, 10.0047455, 9.997636 
1.335062e+3, 1.6392742e+2, -849978.5, -1277410.8, -15362.64, -0.007269836, 0.15791053, -849427.06, 484099.75, 0.0000072268053, 10.004033, 9.998369 
1.3350499e+3, 1.739263e+2, -859013.5, -1221986.8, -20245.57, 0.012857588, 0.20194136, -857887.75, 377651.94, 0.0, 10.003259, 9.99845 
1.3350375e+3, 1.8392508e+2, -839540.06, -1111791.6, -27200.756, 0.027935114, 0.2153393, -836849.0, 300703.6, 0.0, 10.002503, 9.998898 
1.335025e+3, 1.939237e+2, -844092.25, -1058007.9, -28998.646, 0.03413605, 0.18176822, -840230.9, 199334.89, 0.0, 10.001777, 9.998944 
1.3350126e+3, 2.0392266e+2, -814769.5, -938986.56, -32722.813, 0.03221748, 0.16313192, -806676.56, 134898.5, 0.0, 10.001072, 9.999429 
1.335e+3, 2.1392216e+2, -811115.56, -880543.75, -36855.887, 0.018676596, 0.1657882, -795199.4, 48379.31, 0.0, 10.000399, 9.999481 
1.3349871e+3, 2.2392167e+2, -809808.0, -819242.1, -53033.48, 0.0128964875, 0.16561459, -761282.2, -15699.41, 0.0, 9.999692, 9.99957 
1.3349745e+3, 2.3392119e+2, -821729.56, -773711.94, -56520.93, 0.018754011, 0.15973082, -736311.94, -88724.266, 0.0, 9.998935, 9.999575 
1.3349617e+3, 2.4392085e+2, -818749.5, -705096.1, -51626.62, 0.014932326, 0.16175002, -685146.6, -135554.72, 0.0, 9.998212, 9.999721 
1.3349487e+3, 2.539207e+2, -817823.44, -652483.3, -51332.793, -0.0036180113, 0.17414434, -637842.56, -186247.23, 0.0, 9.9975395, 9.999733 
1.3349359e+3, 2.639209e+2, -790220.56, -542734.8, -54204.766, -0.014970241, 0.20369454, -531383.44, -177787.48, 0.0, 9.9968605, 10.000141 
1.334923e+3, 2.7392164e+2, -789897.1, -486915.0, -55711.664, -0.01532033, 0.2576835, -476995.6, -221402.97, 0.0, 9.996169, 10.000184 
1.3349105e+3, 2.839225e+2, -758567.7, -361677.34, -38837.24, -0.020088604, 0.30044752, -357912.7, -200325.05, 0.0, 9.995456, 10.000714 
1.334898e+3, 2.939235e+2, -764951.9, -307227.25, -36740.273, -0.031683065, 0.32442087, -304296.97, -244716.66, 0.0, 9.994711, 10.000773 
1.3348858e+3, 3.03925e+2, -707290.1, -72600.625, -23236.293, -0.026519816, 0.32471213, -71751.07, -71751.07, 0.0, 9.99399, 10.002397 
1.3348742e+3, 3.139273e+2, -799261.94, -104207.3, -19925.578, 0.004552351, 0.30344012, -103636.55, -103636.55, 0.0, 9.993304, 10.00251 
1.3451181e+3, 1.2394928e+2, -967814.3, -1717067.3, -12951.47, -0.004278497, 0.06470863, -967590.5, 757713.6, 0.002817188, 10.006714, 9.99675 
1.3451044e+3, 1.3394636e+2, -925797.1, -1610393.4, 18524.398, -0.07779491, 0.067648366, -925296.25, 702037.25, 0.0016561977, 10.006165, 9.997075 
1.3450928e+3, 1.4394395e+2, -880036.06, -1479857.8, 13172.571, 0.04496522, 0.096737295, -879746.94, 649611.75, 0.0006969295, 10.00555, 9.997593 
1.3450794e+3, 1.5394183e+2, -881075.56, -1423933.0, 14527.998, 0.009358423, 0.11973876, -880687.06, 550695.4, 0.00015853821, 10.004843, 9.997645 
1.3450661e+3, 1.6394007e+2, -844678.4, -1288349.0, 7475.6016, -0.005795926, 0.1539178, -844552.44, 488849.88, 0.000007971056, 10.004128, 9.998248 
1.3450532e+3, 1.7393887e+2, -847504.6, -1231732.1, 3135.2493, 0.014613456, 0.20366828, -847479.0, 387937.6, 0.0, 10.003405, 9.998312 
1.34504e+3, 1.8393756e+2, -815690.75, -1105412.0, -1591.1351, 0.027862113, 0.21707818, -815682.0, 321748.53, 0.0, 10.00269, 9.998851 
1.3450268e+3, 1.9393604e+2, -815682.7, -1048239.7, -1900.5135, 0.029121105, 0.17491612, -815667.2, 223777.03, 0.0, 10.00199, 9.998908 
1.3450137e+3, 2.0393491e+2, -799132.94, -943664.75, -6521.261, 0.02749944, 0.1531108, -798839.3, 142614.92, 0.0, 10.001233, 9.999318 
1.3450004e+3, 2.1393435e+2, -820701.5, -898424.94, -11385.095, 0.022131715, 0.16088432, -819068.1, 24390.844, 0.0, 10.000391, 9.999362 
1.344987e+3, 2.2393377e+2, -822905.6, -832698.56, -26138.77, 0.017410405, 0.16318744, -801208.7, -55744.758, 0.0, 9.999634, 9.999505 
1.3449734e+3, 2.3393321e+2, -815895.0, -777312.56, -30327.023, 0.013592621, 0.15561588, -760661.06, -113191.49, 0.0, 9.999003, 9.999516 
1.3449599e+3, 2.4393283e+2, -805027.2, -697825.7, -27266.135, 0.0075288243, 0.15623307, -691289.2, -141815.13, 0.0, 9.998304, 9.999725 
1.3449463e+3, 2.5393268e+2, -822659.7, -653330.44, -26592.87, -0.0019854128, 0.16774626, -649252.3, -197775.13, 0.0, 9.997501, 9.999745 
1.3449328e+3, 2.6393288e+2, -810279.25, -554739.44, -28652.365, -0.009442196, 0.19832483, -551566.2, -198088.38, 0.0, 9.996734, 10.000118 
1.3449192e+3, 2.7393362e+2, -813466.94, -501116.8, -31795.797, -0.013832444, 0.2560883, -497913.0, -242438.22, 0.0, 9.99602, 10.000157 
1.344906e+3, 2.8393447e+2, -775730.75, -360537.8, -15724.992, -0.02154193, 0.29796407, -359943.1, -202473.38, 0.0, 9.995299, 10.000796 
1.3448927e+3, 2.939355e+2, -779780.56, -303590.38, -10000.835, -0.03425801, 0.31406316, -303380.44, -243918.64, 0.0, 9.994564, 10.000869 
1.3448797e+3, 3.039371e+2, -726504.5, -71312.984, 5195.64, -0.02688396, 0.31090525, -71271.79, -71271.79, 0.0, 9.9938135, 10.00249 
1.3448675e+3, 3.1393948e+2, -831346.4, -109273.07, 5962.3457, 0.011346613, 0.2922737, -109223.84, -109223.84, 0.0, 9.993041, 10.002602 
1.355125e+3, 1.2396264e+2, -964353.4, -1710560.5, -33235.066, 0.0037008715, 0.07284743, -962876.06, 762297.2, 0.0028691634, 10.006716, 9.996795 
1.3551106e+3, 1.3395965e+2, -922762.7, -1604944.9, -1973.8622, -0.08749105, 0.06599995, -922757.0, 704446.1, 0.0016858956, 10.006166, 9.997112 
1.3550983e+3, 1.4395729e+2, -876964.8, -1474297.6, -12710.948, 0.03481636, 0.09461343, -876694.44, 652533.4, 0.0007103318, 10.005553, 9.997631 
1.3550842e+3, 1.539552e+2, -878020.9, -1418444.4, -11954.768, 0.010051154, 0.11810794, -877756.56, 553494.25, 0.00016311085, 10.004846, 9.997683 
1.3550703e+3, 1.639534e+2, -852022.7, -1304483.0, -19503.914, -0.00035597634, 0.14976151, -851183.5, 482087.63, 0.000008649782, 10.004131, 9.9981365 
1.3550565e+3, 1.73952e+2, -856099.8, -1250494.4, -23858.748, 0.015428248, 0.19258745, -854661.75, 380625.97, 0.0, 10.0034075, 9.998183 
1.3550428e+3, 1.8395057e+2, -817417.0, -1109865.8, -27771.52, 0.024762709, 0.20355666, -814803.1, 322499.6, 0.0, 10.002693, 9.99882 
1.3550287e+3, 1.9394907e+2, -816705.1, -1051129.0, -27978.36, 0.023318034, 0.1657035, -813412.2, 225903.42, 0.0, 10.001992, 9.998888 
1.3550149e+3, 2.039479e+2, -806986.2, -960646.2, -37389.453, 0.024144135, 0.14602852, -798371.4, 142954.48, 0.0, 10.001234, 9.999202 
1.3550009e+3, 2.1394719e+2, -829371.8, -917117.5, -42787.07, 0.028799832, 0.15263432, -811962.06, 31370.166, 0.0, 10.000393, 9.999233 
1.3549867e+3, 2.2394651e+2, -828116.7, -844213.9, -50270.707, 0.026235064, 0.15375543, -785254.3, -39915.79, 0.0, 9.999636, 9.999426 
1.3549723e+3, 2.3394588e+2, -820694.1, -787930.75, -53546.938, 0.012980602, 0.1449877, -748315.7, -100970.72, 0.0, 9.999005, 9.999443 
1.354958e+3, 2.4394545e+2, -804124.2, -696521.7, -56356.73, 0.0027094076, 0.14674, -672408.5, -123058.81, 0.0, 9.998306, 9.999735 
1.3549437e+3, 2.5394538e+2, -821259.4, -650769.75, -56322.344, -0.0032067173, 0.16284664, -633843.7, -182491.61, 0.0, 9.997501, 9.9997635 
1.3549295e+3, 2.6394558e+2, -813432.2, -561398.44, -55222.695, -0.0070873755, 0.19398527, -549829.75, -196476.92, 0.0, 9.996734, 10.000073 
1.3549154e+3, 2.739462e+2, -817304.5, -508999.3, -57936.89, -0.00801611, 0.24607836, -498471.3, -243120.14, 0.0, 9.996019, 10.000104 
1.3549012e+3, 2.8394705e+2, -767154.4, -342467.0, -42512.703, -0.014517294, 0.28346902, -338253.16, -180906.89, 0.0, 9.9952965, 10.000922 
1.3548872e+3, 2.9394817e+2, -769861.56, -282621.53, -36791.56, -0.02935475, 0.29706421, -279859.06, -220522.36, 0.0, 9.994561, 10.001015 
1.3548736e+3, 3.0394995e+2, -722363.7, -62181.086, -22800.004, -0.0227737, 0.30107728, -61394.6, -61394.6, 0.0, 9.993811, 10.002555 
1.3548605e+3, 3.1395262e+2, -828218.6, -101897.69, -22152.12, 0.01654526, 0.30346107, -101222.695, -101222.695, 0.0, 9.993036, 10.002655 
1.3651316e+3, 1.23976484e+2, -962413.2, -1708203.6, -1872.3936, -0.0021042193, 0.060868543, -962408.5, 762628.2, 0.0029211228, 10.006725, 9.996805 
1.3651167e+3, 1.339735e+2, -922431.4, -1605080.8, 25759.54, -0.092831194, 0.05339566, -921460.75, 705606.06, 0.0017147395, 10.006172, 9.997108 
1.3651037e+3, 1.4397119e+2, -876125.3, -1472292.5, 6927.4937, 0.03478245, 0.08894733, -876044.8, 653046.1, 0.00072237226, 10.005553, 9.997644 
1.3650891e+3, 1.539692e+2, -877898.7, -1416597.1, 5231.3525, 0.009255949, 0.11945942, -877847.9, 553265.25, 0.00016691942, 10.00484, 9.997698 
1.3650745e+3, 1.6396736e+2, -854724.06, -1312053.4, -1257.8395, -0.0012740885, 0.15067652, -854720.6, 478413.13, 0.000009180812, 10.004141, 9.998079 
1.3650599e+3, 1.739658e+2, -852737.25, -1256173.8, -1144.0632, 0.015136531, 0.18208131, -852734.0, 382418.0, 0.0, 10.003463, 9.9981165 
1.3650455e+3, 1.8396427e+2, -811308.94, -1110981.3, -3870.0989, 0.024820292, 0.18936318, -811259.0, 325908.8, 0.0, 10.002753, 9.998783 
1.3650307e+3, 1.9396281e+2, -818709.7, -1055829.1, -5454.0054, 0.023407428, 0.15952232, -818584.3, 220595.84, 0.0, 10.001995, 9.998854 
1.3650161e+3, 2.0396161e+2, -811477.06, -973380.2, -16732.096, 0.023765119, 0.14286162, -809765.94, 131424.75, 0.0, 10.00125, 9.999106 
1.3650012e+3, 2.1396075e+2, -817319.25, -922741.94, -20673.223, 0.02724511, 0.14487275, -813410.2, 29788.44, 0.0, 10.000525, 9.99913 
1.3649863e+3, 2.2395997e+2, -811954.44, -842849.6, -24110.393, 0.024653157, 0.1424708, -798767.44, -53561.34, 0.0, 9.999776, 9.999367 
1.3649713e+3, 2.3395923e+2, -827142.4, -796927.94, -25891.97, 0.012996537, 0.13189442, -782058.1, -134844.92, 0.0, 9.998988, 9.999389 
1.3649563e+3, 2.4395882e+2, -818285.25, -704378.6, -31220.545, 0.0045039672, 0.13640511, -696382.75, -147164.66, 0.0, 9.998215, 9.999723 
1.3649413e+3, 2.5395882e+2, -827435.44, -654281.6, -33603.89, 0.0006556785, 0.16188951, -647988.8, -196768.94, 0.0, 9.997463, 9.999757 
1.3649262e+3, 2.6395905e+2, -815722.4, -559819.8, -30133.428, -0.0027925787, 0.19413741, -556319.4, -203098.84, 0.0, 9.996707, 10.000096 
1.3649112e+3, 2.7395958e+2, -826343.1, -510344.66, -27112.521, -0.0057134237, 0.23493803, -508035.3, -252815.69, 0.0, 9.995946, 10.00013 
1.3648964e+3, 2.8396043e+2, -777655.3, -337594.0, -10429.067, -0.012157204, 0.26927224, -337347.0, -180132.55, 0.0, 9.995184, 10.00101 
1.3648818e+3, 2.9396176e+2, -783898.2, -278775.56, -9071.05, -0.023889977, 0.29225582, -278612.72, -219409.63, 0.0, 9.994421, 10.001108 
1.3648674e+3, 3.0396366e+2, -745636.5, -71942.164, -609.2464, -0.017623598, 0.30288035, -71941.62, -71941.62, 0.0, 9.993646, 10.002566 
1.3648534e+3, 3.1396633e+2, -855254.94, -114683.79, -4500.7446, 0.016307853, 0.3070971, -114656.44, -114656.44, 0.0, 9.992851, 10.002656 
1.3751382e+3, 1.23990834e+2, -963489.25, -1711902.6, -21786.502, -0.021159228, 0.029776318, -962855.56, 762038.9, 0.0029747132, 10.00673, 9.9967785 
1.3751228e+3, 1.3398789e+2, -925227.9, -1612069.5, 5142.896, -0.09398093, 0.030388806, -925189.4, 701735.3, 0.0017439659, 10.006176, 9.99706 
1.3751094e+3, 1.4398569e+2, -876722.44, -1474453.3, -19181.363, 0.044366416, 0.079927705, -876107.5, 652840.7, 0.0007336591, 10.005556, 9.997629 
1.3750939e+3, 1.539838e+2, -878164.56, -1418147.5, -21449.22, 0.0069306353, 0.12376281, -877313.94, 553655.8, 0.00017001356, 10.004843, 9.997686 
1.3750786e+3, 1.6398197e+2, -854859.9, -1313316.4, -26671.213, -0.008386182, 0.1565229, -853313.44, 479676.8, 0.000009531236, 10.004144, 9.99807 
1.3750634e+3, 1.7398022e+2, -852917.9, -1257434.3, -26362.99, 0.013767044, 0.17210476, -851207.0, 383802.6, 0.0, 10.003466, 9.998108 
1.3750482e+3, 1.8397863e+2, -814323.8, -1118016.8, -31813.021, 0.02796898, 0.17451668, -811027.06, 325998.88, 0.0, 10.002755, 9.998734 
1.3750328e+3, 1.9397725e+2, -822079.1, -1063587.8, -33707.58, 0.029295275, 0.15632574, -817462.8, 221575.27, 0.0, 10.001997, 9.9988 
1.3750173e+3, 2.0397602e+2, -816643.0, -984847.6, -43818.906, 0.026267687, 0.14352338, -805912.3, 135136.67, 0.0, 10.001252, 9.999027 
1.3750017e+3, 2.13975e+2, -822750.3, -934742.0, -47576.816, 0.01741673, 0.13756257, -805267.7, 37790.68, 0.0, 10.000527, 9.999047 
1.374986e+3, 2.2397408e+2, -814645.3, -849166.3, -53112.723, 0.012637932, 0.12931234, -776058.8, -30991.928, 0.0, 9.999777, 9.999324 
1.3749704e+3, 2.339733e+2, -829620.1, -802678.8, -55085.824, 0.013670481, 0.116283655, -759440.5, -112366.1, 0.0, 9.998989, 9.99935 
1.3749546e+3, 2.4397287e+2, -820676.0, -709786.75, -59109.22, 0.01299915, 0.12522253, -684188.1, -135108.75, 0.0, 9.998215, 9.999687 
1.3749388e+3, 2.5397298e+2, -829866.75, -659705.5, -61283.746, 0.009697098, 0.16499455, -639931.94, -188851.13, 0.0, 9.997463, 9.999721 
1.374923e+3, 2.6397324e+2, -809601.8, -547386.1, -58098.84, 0.0034353007, 0.19889793, -535089.8, -182008.6, 0.0, 9.996707, 10.000182 
1.3749072e+3, 2.739737e+2, -819363.94, -495928.8, -55014.16, -0.007152191, 0.22261643, -486827.38, -231746.97, 0.0, 9.995945, 10.00023 
1.3748915e+3, 2.8397462e+2, -775001.3, -331943.3, -38259.426, -0.014743663, 0.25545192, -328663.78, -171589.28, 0.0, 9.995181, 10.00105 
1.3748762e+3, 2.939762e+2, -781950.5, -274380.34, -36912.824, -0.01788307, 0.30029008, -271709.94, -212648.73, 0.0, 9.994418, 10.001141 
1.3748612e+3, 3.0397815e+2, -749586.56, -79682.66, -29451.795, -0.011496065, 0.3168905, -78390.33, -78390.33, 0.0, 9.993643, 10.002516 
1.3748462e+3, 3.1398058e+2, -859944.56, -123948.39, -33497.395, 0.010020608, 0.30255198, -122426.97, -122426.97, 0.0, 9.992847, 10.002595 
1.3851449e+3, 1.24006085e+2, -929482.94, -1704150.9, 10753.443, -0.033055868, 0.015123623, -929333.7, 795409.9, 0.003032081, 10.007004, 9.996698 
1.3851291e+3, 1.3400301e+2, -914725.44, -1618806.1, 32213.828, -0.09875224, 0.01357083, -913254.6, 713520.7, 0.0017751001, 10.006301, 9.996952 
1.385115e+3, 1.4400078e+2, -874329.06, -1479368.9, 1537.3099, 0.04559215, 0.06966016, -874325.2, 654474.25, 0.0007450037, 10.0056, 9.997573 
1.3850987e+3, 1.5399894e+2, -872292.25, -1420770.6, -4009.4158, 0.0013241289, 0.1242219, -872262.94, 558558.0, 0.00017258173, 10.004908, 9.997636 
1.3850825e+3, 1.6399713e+2, -845018.75, -1305922.8, -10027.946, -0.01569353, 0.15798195, -844800.7, 488040.84, 0.000009721437, 10.004201, 9.998093 
1.385067e+3, 1.7399527e+2, -850055.7, -1252545.4, -7086.5327, 0.012202815, 0.1604035, -849931.0, 384930.25, 0.00000000000039876704, 10.003471, 9.998137 
1.3850509e+3, 1.8399364e+2, -821377.56, -1127791.4, -13091.948, 0.02867078, 0.15949199, -820819.25, 316058.6, 0.0, 10.002735, 9.998676 
1.3850348e+3, 1.9399229e+2, -827891.5, -1073993.9, -16525.895, 0.027190963, 0.15266158, -826786.75, 212103.36, 0.0, 10.001991, 9.998732 
1.3850185e+3, 2.0399106e+2, -818011.0, -987691.1, -24689.021, 0.023491157, 0.14412129, -814491.7, 126409.62, 0.0, 10.001253, 9.999006 
1.3850021e+3, 2.1398994e+2, -824280.0, -937115.3, -23583.31, 0.017123565, 0.13171992, -819549.25, 23361.9, 0.0, 10.000525, 9.999032 
1.3849857e+3, 2.2398897e+2, -817161.06, -852370.1, -28002.854, 0.014325976, 0.11930061, -801688.75, -56768.625, 0.0, 9.99977, 9.999305 
1.3849694e+3, 2.3398817e+2, -833018.4, -806367.8, -28997.033, 0.016623123, 0.10566107, -787780.9, -140853.06, 0.0, 9.998976, 9.99933 
1.3849528e+3, 2.4398774e+2, -828096.9, -717968.06, -31906.555, 0.017079115, 0.11631718, -709391.94, -160458.88, 0.0, 9.998185, 9.999644 
1.3849363e+3, 2.5398785e+2, -842242.94, -670556.2, -34922.617, 0.014651154, 0.16096865, -663724.44, -212789.42, 0.0, 9.997401, 9.999675 
1.3849197e+3, 2.6398814e+2, -814383.9, -538732.5, -31725.963, 0.007818838, 0.19648485, -535128.1, -182192.86, 0.0, 9.996629, 10.000278 
1.384903e+3, 2.7398866e+2, -821826.94, -484414.28, -28039.332, -0.005449411, 0.21695326, -482100.06, -227166.8, 0.0, 9.995874, 10.000341 
1.3848867e+3, 2.8398967e+2, -784209.7, -333801.16, -12214.368, -0.0117513845, 0.2507318, -333470.2, -176543.7, 0.0, 9.995109, 10.001072 
1.3848707e+3, 2.9399133e+2, -794738.56, -279207.9, -12964.67, -0.007729192, 0.30282038, -278882.1, -219969.22, 0.0, 9.994326, 10.00115 
1.3848548e+3, 3.039933e+2, -757673.06, -79912.13, -3188.8389, -0.004819701, 0.3216038, -79897.125, -79897.125, 0.0, 9.993573, 10.002546 
1.3848388e+3, 3.1399572e+2, -855742.2, -118122.31, -369.7093, -0.0024256657, 0.30124262, -118122.125, -118122.125, 0.0, 9.992862, 10.002627 
1.3951519e+3, 1.2402222e+2, -938405.25, -1723615.3, -14448.099, -0.03849606, 0.015825443, -938139.5, 786444.7, 0.003095423, 10.007007, 9.996564 
1.3951352e+3, 1.3401885e+2, -925934.5, -1643260.6, 5783.4497, -0.10706391, 0.0026704203, -925887.9, 700731.06, 0.0018096756, 10.006304, 9.996783 
1.3951205e+3, 1.4401649e+2, -880713.5, -1493710.5, -24367.36, 0.03880774, 0.058256753, -879746.44, 648898.4, 0.0007572836, 10.005603, 9.997474 
1.3951035e+3, 1.5401465e+2, -878325.0, -1434229.8, -29730.06, -0.0074507627, 0.12098875, -876739.56, 553927.25, 0.00017490864, 10.00491, 9.997543 
1.3950866e+3, 1.640128e+2, -841224.75, -1298877.3, -37006.34, -0.023212384, 0.15520443, -838251.7, 494436.0, 0.000009793668, 10.004203, 9.99814 
1.3950703e+3, 1.740109e+2, -845183.0, -1243266.0, -34185.297, 0.010411072, 0.14702438, -842268.7, 392438.44, 0.000000000007963602, 10.003473, 9.998201 
1.3950537e+3, 1.8400925e+2, -826115.5, -1138436.4, -40707.98, 0.026908461, 0.14426363, -820896.8, 315826.88, 0.0, 10.002738, 9.998603 
1.3950366e+3, 1.9400793e+2, -833752.94, -1086971.1, -44152.49, 0.017169757, 0.1485104, -826275.1, 212461.33, 0.0, 10.001993, 9.998642 
1.3950196e+3, 2.040067e+2, -815376.8, -982984.4, -51771.082, 0.015525554, 0.14464694, -800675.2, 140072.6, 0.0, 10.001255, 9.999039 
1.3950028e+3, 2.140056e+2, -820703.75, -930435.1, -50565.434, 0.026379671, 0.12732719, -800956.4, 41800.938, 0.0, 10.000526, 9.999078 
1.3949858e+3, 2.2400463e+2, -816814.4, -852374.9, -57219.035, 0.029702295, 0.11244475, -774676.75, -29910.738, 0.0, 9.999771, 9.999305 
1.3949683e+3, 2.3400381e+2, -833112.5, -807198.4, -58362.652, 0.021823833, 0.10008695, -760371.75, -113598.195, 0.0, 9.998977, 9.999325 
1.394951e+3, 2.4400334e+2, -831672.56, -725901.8, -60903.1, 0.016642662, 0.109693594, -698127.1, -149347.69, 0.0, 9.998186, 9.99959 
1.3949338e+3, 2.5400335e+2, -846301.94, -679341.25, -63811.992, 0.015369321, 0.14959045, -657745.75, -206962.9, 0.0, 9.997401, 9.999616 
1.3949163e+3, 2.6400366e+2, -807258.06, -524177.3, -59508.55, 0.010265177, 0.18673913, -512176.34, -159393.42, 0.0, 9.996629, 10.00038 
1.394899e+3, 2.7400443e+2, -813560.25, -467404.28, -55648.45, -0.00051189645, 0.21830933, -458678.16, -203899.75, 0.0, 9.995873, 10.00046 
1.3948819e+3, 2.8400552e+2, -784620.6, -334692.03, -40747.15, -0.0030220153, 0.25550696, -331031.6, -174260.92, 0.0, 9.995108, 10.001067 
1.3948652e+3, 2.940071e+2, -796257.4, -282241.66, -41619.465, 0.0066362666, 0.29956952, -278893.56, -220135.13, 0.0, 9.994324, 10.001131 
1.3948484e+3, 3.0400908e+2, -749894.9, -63757.984, -29171.855, 0.0022297092, 0.3166301, -62519.945, -62519.945, 0.0, 9.993571, 10.002659 
1.3948315e+3, 3.1401172e+2, -846765.1, -99849.9, -25917.01, -0.021683525, 0.30359527, -98951.695, -98951.695, 0.0, 9.992862, 10.002753 
1.405159e+3, 1.240389e+2, -920301.94, -1716669.3, -5146.4873, -0.03945643, 0.024814596, -920268.7, 804152.06, 0.0031668283, 10.007142, 9.996546 
1.4051415e+3, 1.3403532e+2, -909853.5, -1640515.0, 21978.984, -0.111619905, -0.0028754647, -909192.94, 717264.0, 0.0018492587, 10.006438, 9.996737 
1.4051262e+3, 1.4403287e+2, -868395.1, -1491873.5, -2475.1863, 0.03560647, 0.046745725, -868385.3, 660098.25, 0.000771513, 10.005707, 9.997436 
1.4051084e+3, 1.54031e+2, -876350.8, -1437337.6, -4070.8354, -0.011757247, 0.10920717, -876321.25, 554184.94, 0.00017736002, 10.004943, 9.997505 
1.4050908e+3, 1.6402915e+2, -839517.7, -1292607.5, -9465.729, -0.027619522, 0.14510292, -839320.06, 493206.9, 0.000009793513, 10.004192, 9.998188 
1.4050737e+3, 1.7402735e+2, -843047.4, -1235896.9, -7460.2983, 0.0070357593, 0.14153278, -842905.75, 391639.34, 0.000000000012596958, 10.003462, 9.998257 
1.4050564e+3, 1.840257e+2, -831088.56, -1147044.3, -14284.615, 0.023916416, 0.1391805, -830444.06, 306117.53, 0.0, 10.002731, 9.998546 
1.4050385e+3, 1.9402425e+2, -837695.5, -1096567.3, -16537.682, 0.013716912, 0.13785897, -836643.3, 201932.5, 0.0, 10.002001, 9.998571 
1.4050208e+3, 2.0402297e+2, -816217.0, -981441.0, -25029.438, 0.013222281, 0.13326754, -812508.56, 128079.12, 0.0, 10.001243, 9.999055 
1.4050034e+3, 2.1402195e+2, -831022.94, -932496.6, -25656.734, 0.027604263, 0.122127935, -824904.7, 17691.674, 0.0, 10.000444, 9.999103 
1.4049853e+3, 2.2402105e+2, -832802.5, -859178.2, -33883.965, 0.032774273, 0.111125015, -809630.44, -65025.863, 0.0, 9.99966, 9.999311 
1.4049673e+3, 2.3402023e+2, -845504.9, -812540.4, -34618.414, 0.024224138, 0.09931091, -790680.75, -144068.6, 0.0, 9.998891, 9.999329 
1.4049491e+3, 2.4401976e+2, -840619.9, -729186.25, -34782.01, 0.018811705, 0.107249536, -719220.9, -170602.67, 0.0, 9.998122, 9.9995985 
1.4049311e+3, 2.540197e+2, -852813.25, -681420.1, -32837.367, 0.017998552, 0.14210361, -675344.1, -224721.98, 0.0, 9.997354, 9.999623 
1.4049129e+3, 2.640201e+2, -811496.06, -515932.47, -27024.918, 0.01411709, 0.18036091, -513481.75, -160859.92, 0.0, 9.996556, 10.00047 
1.4048949e+3, 2.7402106e+2, -829194.25, -463721.13, -24996.44, 0.0056897234, 0.22199233, -462019.44, -207404.05, 0.0, 9.99572, 10.000559 
1.404877e+3, 2.840222e+2, -808498.0, -340713.44, -8259.855, 0.0040853494, 0.25952893, -340567.63, -183960.81, 0.0, 9.994922, 10.001115 
1.4048594e+3, 2.940237e+2, -814385.2, -286196.78, -4735.667, 0.012448249, 0.28973, -286154.3, -227558.92, 0.0, 9.994181, 10.001172 
1.404842e+3, 3.040257e+2, -761834.44, -65701.13, 9883.436, 0.0043146303, 0.3031285, -65560.84, -65560.84, 0.0, 9.993475, 10.002691 
1.4048244e+3, 3.1402844e+2, -851114.3, -98378.484, 5760.043, -0.026775682, 0.30098882, -98334.41, -98334.41, 0.0, 9.992818, 10.002784 
1.415166e+3, 1.2405609e+2, -913889.6, -1704355.1, -29692.537, -0.036506493, 0.0415138, -912775.8, 811477.3, 0.0032486273, 10.007145, 9.996631 
1.415148e+3, 1.3405243e+2, -905178.06, -1631492.6, -4347.709, -0.11269291, -0.0033281755, -905152.06, 721137.25, 0.0018957498, 10.00644, 9.9967985 
1.4151318e+3, 1.440499e+2, -867213.0, -1489966.8, -30856.826, 0.035767872, 0.035140593, -865687.8, 662628.2, 0.00078900735, 10.005708, 9.997449 
1.4151132e+3, 1.5404792e+2, -875382.25, -1436094.1, -32494.52, -0.011810333, 0.089215636, -873505.4, 556833.9, 0.00018043557, 10.004945, 9.997514 
1.415095e+3, 1.6404614e+2, -836255.4, -1286724.8, -36702.996, -0.029074134, 0.12799995, -833284.5, 499075.0, 0.000009788949, 10.004195, 9.998228 
1.4150771e+3, 1.7404458e+2, -839641.2, -1229761.9, -34559.605, 0.0020793201, 0.14376199, -836603.3, 397772.2, 0.0000000000071098314, 10.003465, 9.998298 
1.415059e+3, 1.8404298e+2, -833947.6, -1153832.1, -41415.01, 0.019725753, 0.14392775, -828672.7, 307719.0, 0.0, 10.002733, 9.998499 
1.4150406e+3, 1.9404124e+2, -841307.56, -1104802.3, -43590.94, 0.01671779, 0.120700315, -834283.44, 204125.03, 0.0, 10.002003, 9.998515 
1.4150222e+3, 2.0403987e+2, -816266.4, -982272.7, -54387.832, 0.01641984, 0.11008817, -800034.7, 140386.61, 0.0, 10.001244, 9.999049 
1.4150037e+3, 2.1403903e+2, -830739.0, -932676.7, -55224.027, 0.020709863, 0.116166025, -806557.9, 35870.793, 0.0, 10.000446, 9.999101 
1.4149849e+3, 2.2403821e+2, -831914.56, -858034.0, -62431.29, 0.023477813, 0.11537481, -781191.7, -36755.582, 0.0, 9.9996605, 9.999319 
1.4149661e+3, 2.3403741e+2, -844651.2, -811356.2, -62981.31, 0.023808753, 0.10336578, -762859.4, -116415.62, 0.0, 9.998892, 9.999337 
1.4149472e+3, 2.4403694e+2, -835807.6, -719697.2, -63093.324, 0.023603056, 0.10905425, -692013.4, -143563.72, 0.0, 9.998122, 9.999663 
1.4149284e+3, 2.5403693e+2, -847623.5, -671087.7, -61036.26, 0.022557002, 0.13863555, -652040.0, -201586.69, 0.0, 9.997354, 9.999695 
1.4149095e+3, 2.6403737e+2, -806270.3, -505371.7, -57526.773, 0.019377043, 0.1774948, -494748.6, -142296.4, 0.0, 9.996556, 10.000544 
1.4148906e+3, 2.7403852e+2, -824250.94, -453435.03, -55700.59, 0.013126999, 0.22813265, -445248.9, -190804.47, 0.0, 9.995718, 10.00063 
1.414872e+3, 2.8403974e+2, -801937.56, -326893.1, -35552.656, 0.009343407, 0.2627941, -324247.03, -167811.86, 0.0, 9.994919, 10.001211 
1.4148536e+3, 2.9404107e+2, -807644.3, -272027.28, -31557.123, 0.009085934, 0.2729856, -270174.44, -211750.48, 0.0, 9.994179, 10.001272 
1.4148353e+3, 3.0404305e+2, -766164.8, -74633.83, -13962.01, 0.0011216874, 0.28064945, -74352.055, -74352.055, 0.0, 9.993473, 10.002632 
1.4148173e+3, 3.1404588e+2, -856663.3, -109966.3, -17813.986, -0.016786192, 0.29305482, -109541.55, -109541.55, 0.0, 9.992817, 10.002706 
1.4251733e+3, 1.2407389e+2, -889058.0, -1685201.5, -5656.091, -0.028281488, 0.048853494, -889017.8, 835061.5, 0.0033434504, 10.007288, 9.996693 
1.4251544e+3, 1.3407022e+2, -901905.4, -1625599.3, 15590.311, -0.111674644, 0.00020927518, -901569.7, 724545.25, 0.0019512376, 10.006446, 9.996836 
1.4251375e+3, 1.4406769e+2, -871920.5, -1485719.9, -9672.494, 0.036455616, 0.033954043, -871768.1, 656373.2, 0.00081125466, 10.00565, 9.997505 
1.4251181e+3, 1.5406568e+2, -874212.56, -1428901.0, -7835.049, -0.010164981, 0.07912014, -874101.9, 556062.75, 0.00018479889, 10.004926, 9.997571 
1.4250991e+3, 1.6406393e+2, -833791.56, -1283878.9, -10590.878, -0.028644396, 0.11805405, -833542.5, 498641.97, 0.000009892793, 10.004207, 9.998241 
1.4250806e+3, 1.7406252e+2, -835302.06, -1226659.5, -11177.173, -0.002104441, 0.14698143, -834983.06, 399216.38, 0.0000000000013692836, 10.003492, 9.998305 
1.4250617e+3, 1.8406093e+2, -831567.56, -1147948.0, -18725.861, 0.015105164, 0.14834644, -830463.1, 305752.25, 0.0, 10.002731, 9.99854 
1.4250426e+3, 1.9405909e+2, -852535.56, -1105149.3, -13900.63, 0.017782783, 0.10914127, -851773.0, 186459.73, 0.0, 10.0019045, 9.998559 
1.4250234e+3, 2.0405768e+2, -834696.5, -994497.56, -20541.324, 0.01881132, 0.0931003, -832098.3, 108147.58, 0.0, 10.001133, 9.999018 
1.425004e+3, 2.1405688e+2, -834476.4, -938747.6, -24325.756, 0.01807656, 0.10899198, -829080.56, 13172.598, 0.0, 10.000441, 9.999062 
1.4249845e+3, 2.2405611e+2, -827921.75, -855273.94, -35609.945, 0.019354947, 0.114546314, -803452.0, -59191.527, 0.0, 9.999685, 9.999325 
1.424965e+3, 2.3405533e+2, -851314.06, -813180.44, -36491.09, 0.023401646, 0.103721775, -791075.1, -144807.03, 0.0, 9.998841, 9.999348 
1.4249453e+3, 2.4405488e+2, -848442.3, -718645.8, -36494.594, 0.025884965, 0.10928842, -709088.44, -160814.64, 0.0, 9.998006, 9.999726 
1.4249256e+3, 2.540549e+2, -867429.44, -672899.7, -34969.16, 0.025963034, 0.13682587, -666804.5, -216527.69, 0.0, 9.997186, 9.999763 
1.424906e+3, 2.6405546e+2, -830497.3, -512092.8, -33976.8, 0.023765681, 0.17766263, -508507.53, -156232.45, 0.0, 9.996369, 10.0005865 
1.4248863e+3, 2.7405667e+2, -844514.44, -458674.9, -35058.85, 0.018343281, 0.23588796, -455515.2, -201248.5, 0.0, 9.995561, 10.0006695 
1.4248668e+3, 2.8405797e+2, -810332.44, -315812.25, -11653.53, 0.012808943, 0.27016634, -315537.78, -159281.17, 0.0, 9.994798, 10.001345 
1.4248477e+3, 2.9405937e+2, -808789.9, -256463.8, -4254.986, 0.0070693805, 0.26868865, -256431.03, -198186.77, 0.0, 9.9941025, 10.001414 
1.4248288e+3, 3.0406138e+2, -777967.0, -76541.78, 18308.047, 0.0006648398, 0.26943633, -76064.25, -76064.25, 0.0, 9.993377, 10.002665 
1.42481e+3, 3.1406417e+2, -885502.25, -121529.82, 21590.578, -0.0055429875, 0.28147405, -120920.14, -120920.14, 0.0, 9.99261, 10.002725 
1.4351806e+3, 1.2409229e+2, -886296.06, -1680163.9, -34625.336, -0.015506173, 0.047542524, -884788.7, 839110.7, 0.0034535963, 10.00729, 9.996727 
1.435161e+3, 1.340887e+2, -900934.8, -1624567.6, -15750.226, -0.108751416, 0.0075366828, -900592.1, 725341.94, 0.002017406, 10.006449, 9.996842 
1.435143e+3, 1.4408623e+2, -865054.7, -1472482.9, -36971.0, 0.037624903, 0.04260448, -862812.75, 665146.9, 0.00083946844, 10.005652, 9.997596 
1.4351232e+3, 1.5408424e+2, -866935.1, -1414677.4, -34613.78, -0.006918851, 0.07846265, -864756.44, 565226.06, 0.00019114045, 10.004929, 9.997668 
1.4351034e+3, 1.640825e+2, -834832.94, -1286819.1, -37090.758, -0.026432848, 0.11498142, -831809.44, 500192.66, 0.000010256892, 10.004209, 9.99822 
1.435084e+3, 1.7408113e+2, -837227.2, -1231418.9, -37569.223, -0.005577652, 0.15113492, -833678.5, 400338.78, 0.0000000000000017804313, 10.003493, 9.998273 
1.4350644e+3, 1.8407957e+2, -822730.5, -1130364.5, -48968.605, 0.010009126, 0.15245864, -815123.8, 320908.97, 0.0, 10.002733, 9.99866 
1.4350444e+3, 1.9407776e+2, -842538.06, -1085274.4, -44525.71, 0.016915204, 0.10310879, -834628.3, 203420.55, 0.0, 10.001907, 9.998695 
1.4350246e+3, 2.0407635e+2, -838674.75, -1003647.06, -46587.36, 0.020417502, 0.08220893, -826427.9, 113633.83, 0.0, 10.001136, 9.998955 
1.4350043e+3, 2.140755e+2, -839979.8, -950997.56, -49876.055, 0.01969049, 0.100578226, -820863.94, 21206.188, 0.0, 10.0004425, 9.998977 
1.4349842e+3, 2.240747e+2, -827619.2, -855385.75, -66387.99, 0.020368833, 0.10863043, -773678.4, -29600.287, 0.0, 9.999687, 9.999325 
1.4349638e+3, 2.3407397e+2, -850508.56, -812131.06, -67710.914, 0.022930626, 0.10034575, -760942.44, -114856.89, 0.0, 9.998842, 9.999355 
1.4349434e+3, 2.4407357e+2, -844485.0, -710886.5, -66821.4, 0.025561647, 0.10794792, -683201.7, -135110.89, 0.0, 9.998007, 9.999781 
1.4349228e+3, 2.5407368e+2, -863308.56, -664610.8, -65148.383, 0.028144306, 0.13674639, -645155.1, -195062.13, 0.0, 9.997185, 9.999821 
1.4349024e+3, 2.6407424e+2, -830171.25, -511532.25, -63716.24, 0.027183995, 0.18097651, -499263.7, -147172.86, 0.0, 9.996368, 10.000591 
1.4348818e+3, 2.7407557e+2, -844670.9, -459068.78, -64728.684, 0.021167245, 0.2453448, -448493.22, -194410.78, 0.0, 9.99556, 10.000669 
1.4348617e+3, 2.8407696e+2, -798662.06, -291683.66, -37335.24, 0.014316971, 0.2819359, -288948.94, -132877.56, 0.0, 9.994797, 10.001513 
1.4348418e+3, 2.940785e+2, -795976.3, -229988.78, -29448.004, 0.006374758, 0.27767783, -228460.73, -170404.13, 0.0, 9.994102, 10.001597 
1.4348221e+3, 3.0408058e+2, -769452.2, -58797.273, -9313.024, 0.002999043, 0.27021918, -58675.25, -58675.25, 0.0, 9.993375, 10.002788 
1.4348027e+3, 3.1408334e+2, -877841.44, -104943.82, -6061.044, 0.006946805, 0.26573437, -104896.3, -104896.3, 0.0, 9.992605, 10.002842 
1.4451882e+3, 1.2411149e+2, -875377.0, -1673781.0, -978.2942, 0.00079940545, 0.043216236, -875375.8, 848335.4, 0.0035802666, 10.007363, 9.996735 
1.4451674e+3, 1.3410795e+2, -889034.44, -1621174.0, 13065.151, -0.10543459, 0.0085642515, -888801.4, 736944.4, 0.0020950725, 10.006543, 9.9968195 
1.4451487e+3, 1.441055e+2, -849051.4, -1457367.3, -7897.452, 0.03714078, 0.045409776, -848948.9, 678822.1, 0.00087425654, 10.005733, 9.99766 
1.445128e+3, 1.5410355e+2, -859551.3, -1402909.0, -7314.931, -0.004887568, 0.07927575, -859452.8, 570340.2, 0.00019995384, 10.004946, 9.99774 
1.4451076e+3, 1.6410185e+2, -837572.8, -1283997.1, -8515.714, -0.02329391, 0.11360969, -837410.44, 494401.78, 0.00001102472, 10.004173, 9.998256 
1.4450873e+3, 1.7410047e+2, -845658.1, -1231848.6, -4584.416, -0.003646608, 0.1474407, -845603.7, 388223.84, 0.00000000011641147, 10.003422, 9.998303 
1.4450671e+3, 1.8409897e+2, -826293.8, -1123386.1, -17058.695, 0.010035244, 0.14860174, -825317.56, 310524.97, 0.0, 10.002672, 9.998736 
1.4450464e+3, 1.9409728e+2, -834021.8, -1071975.0, -17148.533, 0.01417953, 0.102218546, -832792.3, 205064.9, 0.0, 10.001927, 9.9987755 
1.4450257e+3, 2.0409589e+2, -838162.3, -1005340.3, -19338.73, 0.017995702, 0.08108821, -835954.4, 103915.24, 0.0, 10.001149, 9.998936 
1.445005e+3, 2.1409495e+2, -859665.4, -963608.75, -18659.389, 0.021876935, 0.09458162, -856417.25, -14538.167, 0.0, 10.000322, 9.998947 
1.444984e+3, 2.2409414e+2, -852273.0, -865784.0, -34755.746, 0.023973564, 0.101374924, -823622.3, -79734.86, 0.0, 9.999513, 9.999336 
1.4449625e+3, 2.3409344e+2, -866373.5, -817909.5, -35981.74, 0.023467325, 0.09702757, -798760.94, -152866.36, 0.0, 9.998727, 9.999371 
1.4449413e+3, 2.440931e+2, -852915.75, -710168.0, -35567.996, 0.024668386, 0.10800887, -701796.56, -153897.28, 0.0, 9.99793, 9.999822 
1.44492e+3, 2.5409326e+2, -870412.94, -663031.3, -35331.28, 0.028155921, 0.13920596, -657177.2, -207276.31, 0.0, 9.997116, 9.999864 
1.4448988e+3, 2.6409388e+2, -840795.75, -518534.0, -35290.9, 0.02759149, 0.18366075, -514714.56, -162815.95, 0.0, 9.996305, 10.000574 
1.4448774e+3, 2.7409512e+2, -855327.6, -466860.0, -38373.098, 0.021218358, 0.2450384, -463105.75, -209214.67, 0.0, 9.995499, 10.000644 
1.4448564e+3, 2.8409657e+2, -808367.5, -282747.72, -12694.341, 0.014902626, 0.28073964, -282441.3, -126561.63, 0.0, 9.994673, 10.001633 
1.4448357e+3, 2.9409823e+2, -827735.7, -230193.63, -8803.64, 0.008762722, 0.27878055, -230063.95, -172200.95, 0.0, 9.99382, 10.001731 
1.4448154e+3, 3.0410042e+2, -812780.5, -69960.3, 9275.198, 0.008428499, 0.27226782, -69844.5, -69844.5, 0.0, 9.993037, 10.002872 
1.4447953e+3, 3.1410328e+2, -908062.1, -110452.86, 9511.427, 0.017004153, 0.2661338, -110339.45, -110339.45, 0.0, 9.992361, 10.002921 
1.4551957e+3, 1.2413149e+2, -876400.75, -1677267.1, -28475.064, 0.020041335, 0.03596438, -875389.56, 848125.25, 0.0037234137, 10.007368, 9.996709 
1.455174e+3, 1.3412791e+2, -892501.06, -1629529.9, -17075.059, -0.10182866, 0.0036752177, -892105.7, 733444.4, 0.002184265, 10.006547, 9.996761 
1.4551546e+3, 1.4412548e+2, -846245.8, -1452602.6, -36982.594, 0.035048503, 0.04275312, -843998.5, 683576.94, 0.0009157049, 10.005735, 9.997692 
1.4551331e+3, 1.541236e+2, -856151.6, -1397029.8, -36209.777, -0.0040424326, 0.081496686, -853738.3, 575858.2, 0.00021146321, 10.004949, 9.99778 
1.4551118e+3, 1.6412197e+2, -831279.06, -1272048.1, -36278.316, -0.019272303, 0.11380074, -828313.06, 503301.97, 0.000012276044, 10.004176, 9.998338 
1.455091e+3, 1.7412055e+2, -839243.25, -1219457.3, -32274.56, 0.0034946422, 0.1361185, -836523.1, 397107.3, 0.000000001183374, 10.003424, 9.998388 
1.4550696e+3, 1.8411909e+2, -824113.75, -1119713.5, -44615.934, 0.014975388, 0.13705473, -817526.5, 318118.3, 0.0, 10.002675, 9.998761 
1.4550482e+3, 1.9411758e+2, -832259.06, -1069183.6, -44661.008, 0.009533709, 0.106480345, -824119.94, 213538.06, 0.0, 10.001929, 9.998795 
1.4550266e+3, 2.0411626e+2, -836394.56, -1002508.1, -49677.25, 0.011560944, 0.08964967, -822671.94, 116998.03, 0.0, 10.001151, 9.998955 
1.4550051e+3, 2.1411522e+2, -857914.56, -960790.3, -49268.4, 0.024608986, 0.09095866, -838125.8, 3554.4229, 0.0, 10.000324, 9.998967 
1.4549834e+3, 2.2411436e+2, -850704.0, -863229.94, -63947.676, 0.030127328, 0.09276542, -792713.3, -49024.395, 0.0, 9.999515, 9.999354 
1.4549613e+3, 2.3411374e+2, -864901.5, -815472.4, -64928.793, 0.025001166, 0.09376781, -770713.5, -125018.0, 0.0, 9.998728, 9.999388 
1.4549392e+3, 2.4411348e+2, -851132.2, -707001.9, -65367.383, 0.023162162, 0.10951026, -681772.2, -134072.52, 0.0, 9.99793, 9.999844 
1.454917e+3, 2.541137e+2, -868660.9, -659874.4, -65152.086, 0.025873814, 0.14429729, -641211.8, -191511.13, 0.0, 9.997116, 9.9998865 
1.454895e+3, 2.6411426e+2, -844019.25, -525659.9, -64838.664, 0.024808278, 0.1856333, -512961.03, -161262.3, 0.0, 9.996305, 10.000525 
1.4548728e+3, 2.7411532e+2, -859140.1, -475133.72, -67827.06, 0.01830757, 0.23442465, -463505.53, -209812.66, 0.0, 9.995499, 10.000587 
1.454851e+3, 2.841167e+2, -803899.06, -273532.9, -43798.91, 0.014456645, 0.2658463, -269940.22, -114258.336, 0.0, 9.994671, 10.001698 
1.4548296e+3, 2.9411855e+2, -822997.4, -219737.78, -40114.516, 0.014361373, 0.27150738, -217082.0, -159418.2, 0.0, 9.993815, 10.001806 
1.4548084e+3, 3.041209e+2, -810911.9, -65110.316, -15880.016, 0.017065449, 0.27575102, -64772.344, -64772.344, 0.0, 9.9930315, 10.00291 
1.4547877e+3, 3.1412393e+2, -906491.5, -106310.83, -14936.472, 0.024285963, 0.2840227, -106032.12, -106032.12, 0.0, 9.992355, 10.002953 
1.4652033e+3, 1.2415258e+2, -849817.8, -1669407.6, 22571.47, 0.026063481, 0.02620491, -849196.6, 874111.06, 0.0038822456, 10.007577, 9.996662 
1.4651805e+3, 1.3414896e+2, -878647.3, -1631714.3, 29416.848, -0.097889625, -0.0010005105, -877500.0, 747843.75, 0.0022846218, 10.006683, 9.996679 
1.4651603e+3, 1.4414649e+2, -831460.6, -1444902.5, 10186.358, 0.037725348, 0.039973326, -831291.56, 696078.0, 0.0009635993, 10.005837, 9.997695 
1.4651379e+3, 1.5414467e+2, -838778.75, -1387447.9, 8882.715, -0.0048169964, 0.08160351, -838635.0, 590755.2, 0.00022564651, 10.005065, 9.997788 
1.465116e+3, 1.6414303e+2, -816099.75, -1261080.4, 5115.0313, -0.020342583, 0.112685286, -816040.94, 515367.6, 0.000014015874, 10.004267, 9.998368 
1.4650944e+3, 1.7414157e+2, -835947.3, -1214066.6, 4941.732, 0.0061967485, 0.12801908, -835882.75, 397541.25, 0.000000004345219, 10.003432, 9.998421 
1.4650723e+3, 1.8414012e+2, -831580.75, -1124220.5, -9550.76, 0.019059746, 0.12816742, -831269.4, 304168.97, 0.0, 10.002629, 9.998752 
1.46505e+3, 1.9413866e+2, -842134.7, -1075324.3, -12162.968, 0.011699596, 0.10581717, -841502.0, 195949.27, 0.0, 10.001869, 9.99878 
1.4650278e+3, 2.0413738e+2, -844839.06, -1004049.1, -21258.414, 0.012887963, 0.09357374, -842049.44, 97413.53, 0.0, 10.001083, 9.998976 
1.4650054e+3, 2.1413635e+2, -865671.75, -961590.9, -20970.682, 0.026673442, 0.093919, -861287.4, -19814.24, 0.0, 10.00026, 9.998992 
1.464983e+3, 2.2413552e+2, -858489.8, -865035.56, -34435.074, 0.032462638, 0.094729036, -827172.44, -83690.66, 0.0, 9.999454, 9.99937 
1.46496e+3, 2.341349e+2, -872014.5, -817044.8, -35764.6, 0.026909059, 0.09497416, -799423.94, -153935.63, 0.0, 9.9986725, 9.999403 
1.464937e+3, 2.4413466e+2, -859799.3, -710548.56, -38624.88, 0.024390686, 0.11275065, -701145.25, -153652.86, 0.0, 9.9978695, 9.999848 
1.4649142e+3, 2.5413492e+2, -880344.1, -665012.4, -40340.926, 0.026062792, 0.15315546, -657702.94, -208209.95, 0.0, 9.997035, 9.999889 
1.4648913e+3, 2.641355e+2, -853660.6, -525728.9, -37189.84, 0.024861453, 0.19117758, -521564.16, -170073.1, 0.0, 9.996221, 10.000566 
1.4648683e+3, 2.7413642e+2, -865885.6, -473570.8, -33006.887, 0.019540522, 0.224221, -470813.2, -217327.4, 0.0, 9.995433, 10.000629 
1.4648457e+3, 2.841378e+2, -810871.2, -277133.25, -9269.336, 0.0156746, 0.25150436, -276972.3, -121497.484, 0.0, 9.994626, 10.001694 
1.4648233e+3, 2.9413974e+2, -826862.44, -222510.98, -12519.542, 0.013872773, 0.26941383, -222251.75, -164795.67, 0.0, 9.993794, 10.001797 
1.4648016e+3, 3.0414215e+2, -817145.56, -64903.793, 11298.782, 0.016379576, 0.27888414, -64734.125, -64734.125, 0.0, 9.992977, 10.002937 
1.46478e+3, 3.1414515e+2, -929290.9, -113753.766, 12106.36, 0.02539022, 0.28197667, -113574.09, -113574.09, 0.0, 9.992186, 10.002983 
1.4752106e+3, 1.2417471e+2, -854500.0, -1680272.3, -7727.187, 0.01972621, 0.014263505, -854427.7, 868662.6, 0.004056123, 10.007581, 9.996587 
1.4751872e+3, 1.3417105e+2, -885792.5, -1647705.8, -3738.4324, -0.09360052, -0.0055555953, -885774.2, 739352.9, 0.002395788, 10.006687, 9.996569 
1.4751661e+3, 1.4416851e+2, -833187.94, -1449519.4, -18699.229, 0.04482196, 0.036991887, -832621.1, 694532.56, 0.001017644, 10.00584, 9.9976635 
1.4751431e+3, 1.5416668e+2, -840247.7, -1391445.9, -19558.697, -0.0071896804, 0.07969132, -839554.56, 589619.94, 0.000242335, 10.005067, 9.997761 
1.4751202e+3, 1.6416499e+2, -817390.4, -1264714.9, -25534.145, -0.026298698, 0.1103474, -815937.5, 515255.53, 0.000016201791, 10.00427, 9.998343 
1.4750977e+3, 1.7416349e+2, -837203.4, -1217769.6, -25861.54, 0.0045852186, 0.12304389, -835454.0, 397754.63, 0.0000000113648495, 10.003435, 9.998394 
1.475075e+3, 1.84162e+2, -834572.75, -1131549.4, -37785.96, 0.022302046, 0.12183409, -829840.5, 305382.94, 0.0, 10.002632, 9.998701 
1.475052e+3, 1.9416049e+2, -845365.6, -1083054.0, -40150.94, 0.020557193, 0.10028491, -838766.44, 198470.78, 0.0, 10.001872, 9.998727 
1.475029e+3, 2.0415924e+2, -843240.7, -1001669.5, -51539.76, 0.02182666, 0.09296206, -827949.7, 111299.266, 0.0, 10.001085, 9.998992 
1.4750057e+3, 2.1415834e+2, -863655.56, -958279.25, -51454.85, 0.027993098, 0.10355478, -841067.4, 190.64413, 0.0, 10.000262, 9.999014 
1.4749824e+3, 2.2415754e+2, -857577.1, -863925.5, -63451.426, 0.030943455, 0.107367, -797220.56, -53954.28, 0.0, 9.999455, 9.999378 
1.4749587e+3, 2.3415686e+2, -871287.2, -816237.6, -64519.082, 0.029204782, 0.10068161, -773617.4, -128343.98, 0.0, 9.998673, 9.999409 
1.474935e+3, 2.4415661e+2, -861012.5, -713645.6, -69138.305, 0.028392205, 0.11775382, -686287.7, -139010.05, 0.0, 9.9978695, 9.999827 
1.4749111e+3, 2.5415695e+2, -881830.9, -668568.3, -70951.46, 0.028773075, 0.16590458, -647120.2, -197842.05, 0.0, 9.997036, 9.999866 
1.4748874e+3, 2.641575e+2, -844727.7, -507631.63, -66094.05, 0.027841857, 0.20042032, -495135.84, -143859.95, 0.0, 9.996221, 10.00069 
1.4748637e+3, 2.741584e+2, -856053.1, -453621.06, -61580.383, 0.025093641, 0.21439509, -444408.88, -191138.92, 0.0, 9.995433, 10.000768 
1.4748403e+3, 2.8415975e+2, -816577.75, -289417.78, -39271.434, 0.018545339, 0.23771793, -286508.25, -131249.6, 0.0, 9.994626, 10.001611 
1.474817e+3, 2.9416177e+2, -834146.4, -238097.67, -42685.773, 0.0067391205, 0.27283472, -235056.27, -177816.25, 0.0, 9.993794, 10.001691 
1.4747943e+3, 3.041641e+2, -816414.1, -63683.29, -17590.447, 0.0055619148, 0.28145912, -63272.445, -63272.445, 0.0, 9.992976, 10.002947 
1.4747721e+3, 3.1416687e+2, -928280.25, -111249.85, -16543.906, 0.019657739, 0.25786543, -110914.99, -110914.99, 0.0, 9.992182, 10.003003 
1.4852184e+3, 1.241979e+2, -831894.8, -1671384.1, 19139.86, 0.017995093, 0.030009622, -831458.6, 891405.2, 0.0042454177, 10.00775, 9.996566 
1.485194e+3, 1.3419415e+2, -871096.44, -1645830.9, 24182.57, -0.090343125, 0.0065482915, -870342.3, 754558.94, 0.0025178872, 10.006813, 9.99652 
1.485172e+3, 1.4419153e+2, -823986.56, -1449406.9, 15292.956, 0.050628383, 0.04447436, -823612.8, 703315.94, 0.0010777854, 10.005924, 9.9976225 
1.485148e+3, 1.5418968e+2, -837554.4, -1394718.3, 13555.532, -0.003242048, 0.09007598, -837224.75, 591725.1, 0.00026141887, 10.005108, 9.997718 
1.4851244e+3, 1.6418795e+2, -810650.6, -1258094.4, 7878.729, -0.024387643, 0.1189753, -810511.94, 520456.6, 0.0000187832, 10.004303, 9.998371 
1.4851011e+3, 1.7418642e+2, -823723.9, -1207366.3, 11536.957, 0.0040392927, 0.12361825, -823377.25, 409606.72, 0.000000023859249, 10.003512, 9.998427 
1.4850776e+3, 1.8418486e+2, -825766.94, -1132043.1, 2857.5544, 0.021807931, 0.11706044, -825740.25, 309258.8, 0.0, 10.002714, 9.998656 
1.4850539e+3, 1.9418328e+2, -844165.56, -1088066.3, 512.44666, 0.023587273, 0.09406036, -844164.5, 192849.23, 0.0, 10.001906, 9.998675 
1.48503e+3, 2.0418201e+2, -843845.94, -1005423.6, -13878.345, 0.024992626, 0.08884331, -842662.56, 96363.39, 0.0, 10.001098, 9.99896 
1.4850059e+3, 2.1418114e+2, -861819.4, -960639.94, -18141.502, 0.026555154, 0.10614895, -858594.25, -17559.207, 0.0, 10.00029, 9.998983 
1.4849816e+3, 2.2418036e+2, -854987.44, -860304.5, -32308.605, 0.029143313, 0.113691784, -825228.2, -82185.05, 0.0, 9.999465, 9.999397 
1.4849573e+3, 2.341797e+2, -878306.4, -816805.0, -32402.227, 0.032935075, 0.106676, -802884.56, -157834.58, 0.0, 9.998615, 9.999433 
1.4849329e+3, 2.4417944e+2, -874187.44, -721382.44, -36474.008, 0.033730924, 0.1231402, -713122.7, -166068.31, 0.0, 9.9977865, 9.999813 
1.4849082e+3, 2.5417975e+2, -890063.44, -674345.06, -38223.35, 0.030351497, 0.170159, -667772.5, -218717.06, 0.0, 9.996988, 9.999848 
1.4848837e+3, 2.6418033e+2, -844774.06, -498536.0, -34567.508, 0.028405668, 0.20450935, -495118.6, -144065.77, 0.0, 9.996182, 10.000771 
1.4848591e+3, 2.741813e+2, -859533.3, -445392.16, -34230.93, 0.028383203, 0.21963271, -442581.84, -189536.44, 0.0, 9.995368, 10.0008545 
1.4848348e+3, 2.8418267e+2, -833055.8, -306823.78, -15160.766, 0.022773156, 0.2427183, -306387.34, -151353.4, 0.0, 9.994555, 10.001524 
1.4848109e+3, 2.9418457e+2, -848637.25, -256515.1, -18845.234, 0.009451642, 0.27591726, -255915.92, -198898.98, 0.0, 9.993746, 10.001586 
1.4847872e+3, 3.0418682e+2, -819974.25, -62228.188, 7449.3164, 0.0030759436, 0.28129542, -62154.96, -62154.96, 0.0, 9.99294, 10.002974 
1.4847642e+3, 3.1418955e+2, -931025.06, -108177.83, 9599.226, 0.006957584, 0.25211707, -108065.86, -108065.86, 0.0, 9.9921465, 10.00304 
1.495226e+3, 1.24222115e+2, -830197.3, -1668261.4, -12436.552, 0.020086443, 0.07119743, -830012.8, 892615.8, 0.0044519166, 10.0077505, 9.996588 
1.4952008e+3, 1.3421825e+2, -870846.9, -1645887.1, -10533.157, -0.08810737, 0.03400538, -870703.75, 753963.0, 0.0026519774, 10.006815, 9.99652 
1.495178e+3, 1.4421548e+2, -827669.9, -1457727.1, -15186.804, 0.055224355, 0.061753273, -827304.0, 699391.1, 0.0011445624, 10.005925, 9.997565 
1.4951533e+3, 1.5421362e+2, -841779.8, -1404206.1, -16474.207, 0.006668497, 0.112060755, -841297.7, 587418.8, 0.00028304214, 10.005109, 9.997653 
1.4951287e+3, 1.6421187e+2, -805219.0, -1247607.1, -21278.152, -0.015052855, 0.13800345, -804197.94, 526537.25, 0.000021773507, 10.004304, 9.998444 
1.4951046e+3, 1.7421027e+2, -817457.5, -1195279.1, -17596.037, 0.0044564134, 0.12950507, -816639.8, 416110.6, 0.00000004143123, 10.003514, 9.99851 
1.4950803e+3, 1.8420865e+2, -828488.06, -1138681.9, -26985.623, 0.017662695, 0.11380746, -826157.94, 308607.75, 0.0, 10.002717, 9.998611 
1.4950559e+3, 1.9420697e+2, -847657.7, -1096309.1, -29338.12, 0.020881508, 0.08717728, -844243.06, 192538.14, 0.0, 10.001908, 9.998619 
1.495031e+3, 2.0420563e+2, -849586.3, -1018327.25, -43767.89, 0.022443337, 0.08127875, -838909.44, 99884.914, 0.0, 10.001101, 9.998871 
1.4950061e+3, 2.142047e+2, -867767.75, -973920.3, -48030.543, 0.022354795, 0.10169952, -849261.75, -8457.317, 0.0, 10.000293, 9.998893 
1.494981e+3, 2.2420393e+2, -852879.4, -856758.8, -63617.42, 0.027038272, 0.113685176, -791172.1, -48359.457, 0.0, 9.999467, 9.999422 
1.4949559e+3, 2.3420335e+2, -875612.06, -811932.6, -63714.25, 0.038112495, 0.11302493, -772545.44, -127726.93, 0.0, 9.998616, 9.999467 
1.4949307e+3, 2.442031e+2, -874942.75, -723571.3, -65897.74, 0.040407248, 0.12888914, -698903.44, -152080.64, 0.0, 9.997787, 9.999799 
1.4949052e+3, 2.542033e+2, -891152.1, -677231.2, -67377.63, 0.030714344, 0.16552967, -657778.5, -208953.34, 0.0, 9.996989, 9.999829 
1.4948797e+3, 2.642039e+2, -842806.2, -495065.47, -64250.777, 0.026398659, 0.2033028, -483573.84, -132751.58, 0.0, 9.996183, 10.000794 
1.4948545e+3, 2.7420515e+2, -857521.25, -441721.38, -63922.797, 0.029239813, 0.24089034, -432116.13, -179303.7, 0.0, 9.995369, 10.00088 
1.4948295e+3, 2.842065e+2, -839706.4, -321063.0, -44596.684, 0.028432498, 0.26758918, -317256.2, -162455.3, 0.0, 9.994555, 10.001428 
1.4948046e+3, 2.9420808e+2, -856087.9, -272482.06, -48213.742, 0.022746773, 0.27846643, -268525.75, -211738.56, 0.0, 9.993746, 10.001477 
1.4947802e+3, 3.0421028e+2, -817129.1, -56898.434, -21358.373, 0.0094788065, 0.2782545, -56298.85, -56298.85, 0.0, 9.992941, 10.003011 
1.494756e+3, 3.142132e+2, -927447.75, -101196.164, -18984.713, -0.013573502, 0.26644602, -100760.18, -100760.18, 0.0, 9.9921465, 10.003089 
1.505234e+3, 1.24246895e+2, -821812.56, -1658129.1, 14025.643, 0.02284792, 0.08811026, -821577.4, 900810.06, 0.004678204, 10.007786, 9.996639 
1.5052076e+3, 1.342431e+2, -864896.94, -1638879.4, 14867.794, -0.0834111, 0.056506854, -864611.44, 759812.94, 0.0027998101, 10.006841, 9.996554 
1.505184e+3, 1.4424028e+2, -827677.6, -1459205.1, 16513.164, 0.06079863, 0.07640882, -827246.1, 699207.0, 0.0012189504, 10.005934, 9.99755 
1.5051584e+3, 1.5423827e+2, -846927.06, -1408980.6, 18374.16, 0.012295633, 0.11399809, -846327.0, 582148.7, 0.00030752804, 10.005085, 9.997631 
1.505133e+3, 1.6423649e+2, -807843.44, -1244842.0, 15520.263, -0.010249267, 0.1368453, -807292.94, 523201.6, 0.000025259822, 10.004271, 9.998478 
1.5051082e+3, 1.7423502e+2, -816927.0, -1190583.9, 15784.32, 0.0067988397, 0.13800415, -816261.44, 416246.97, 0.00000006298468, 10.003501, 9.9985485 
1.505083e+3, 1.8423343e+2, -828533.0, -1137842.8, 5047.758, 0.018837173, 0.12446638, -828450.7, 306072.47, 0.0, 10.002715, 9.998617 
1.5050577e+3, 1.9423167e+2, -848004.1, -1095834.5, 6833.3027, 0.022785354, 0.090180226, -847815.9, 188723.3, 0.0, 10.001905, 9.998623 
1.505032e+3, 2.0423025e+2, -850412.4, -1023382.0, -3010.1702, 0.024315475, 0.07941143, -850360.0, 88192.95, 0.0, 10.001117, 9.998828 
1.5050064e+3, 2.1422926e+2, -861874.8, -976161.06, -4125.7334, 0.023136962, 0.09857822, -861726.06, -21162.232, 0.0, 10.000357, 9.998845 
1.5049806e+3, 2.2422849e+2, -840867.2, -852996.44, -22196.428, 0.027451912, 0.11370345, -823921.75, -81349.42, 0.0, 9.999559, 9.999402 
1.5049545e+3, 2.34228e+2, -862999.1, -807665.0, -26811.695, 0.03910763, 0.122050025, -796805.0, -152227.25, 0.0, 9.998713, 9.999449 
1.5049285e+3, 2.4422774e+2, -859685.56, -716157.0, -28973.219, 0.04106205, 0.13824692, -710529.0, -163946.83, 0.0, 9.997894, 9.999798 
1.5049021e+3, 2.542278e+2, -873084.9, -668361.9, -29292.217, 0.029810665, 0.16340065, -664253.1, -215667.78, 0.0, 9.997115, 9.999828 
1.504876e+3, 2.642284e+2, -827739.8, -494110.5, -29802.8, 0.024846714, 0.20194057, -491469.16, -140886.47, 0.0, 9.996316, 10.000736 
1.5048498e+3, 2.742297e+2, -844130.6, -442342.3, -36952.57, 0.028258488, 0.25679797, -438972.06, -186399.72, 0.0, 9.995493, 10.000815 
1.5048242e+3, 2.8423107e+2, -828651.2, -319050.4, -20198.584, 0.029475091, 0.28683683, -318251.06, -163689.94, 0.0, 9.994647, 10.001396 
1.5047985e+3, 2.9423246e+2, -854262.5, -274780.72, -18287.55, 0.027789615, 0.28230566, -274204.16, -217655.34, 0.0, 9.993774, 10.001448 
1.504773e+3, 3.0423453e+2, -823219.4, -61375.77, 10034.629, 0.011415677, 0.27495924, -61243.62, -61243.62, 0.0, 9.992908, 10.002995 
1.5047479e+3, 3.1423748e+2, -942310.3, -109954.375, 7082.675, -0.024345113, 0.26712194, -109894.11, -109894.11, 0.0, 9.992053, 10.003073 
1.5152416e+3, 1.24272235e+2, -817014.06, -1648150.0, -16998.383, 0.02584537, 0.08330838, -816666.5, 905473.94, 0.0049260543, 10.007786, 9.99671 
1.5152146e+3, 1.3426872e+2, -860667.7, -1630526.5, -19651.977, -0.076481745, 0.07450049, -860166.4, 764008.0, 0.0029626873, 10.006842, 9.996613 
1.51519e+3, 1.4426589e+2, -826213.3, -1456952.6, -14649.118, 0.06720849, 0.08848141, -825873.25, 700329.75, 0.0013016788, 10.005936, 9.997566 
1.5151635e+3, 1.5426359e+2, -845711.3, -1407533.3, -12535.8, 0.013843184, 0.09695677, -845431.75, 582795.94, 0.0003350945, 10.005088, 9.997641 
1.5151373e+3, 1.6426177e+2, -807940.0, -1246212.0, -12741.148, -0.009722487, 0.11666337, -807569.94, 522676.75, 0.000029331171, 10.004273, 9.998468 
1.5151116e+3, 1.742606e+2, -817350.6, -1192476.3, -12392.593, 0.010994696, 0.14918657, -816941.7, 415316.6, 0.000000089425235, 10.003503, 9.998535 
1.5150858e+3, 1.8425918e+2, -824591.25, -1130622.3, -24663.867, 0.025120636, 0.14860494, -822616.25, 311655.56, 0.0, 10.002717, 9.998667 
1.5150596e+3, 1.9425735e+2, -843576.8, -1087684.3, -23038.148, 0.029167475, 0.10281588, -841421.56, 194866.45, 0.0, 10.001907, 9.998678 
1.5150334e+3, 2.0425588e+2, -850320.94, -1024253.0, -31234.916, 0.03053511, 0.08313295, -844881.8, 93420.32, 0.0, 10.001119, 9.998821 
1.5150069e+3, 2.1425483e+2, -862171.3, -977780.44, -32199.678, 0.02888196, 0.09678012, -853808.0, -13494.423, 0.0, 10.000359, 9.998834 
1.51498e+3, 2.2425401e+2, -845546.3, -863649.94, -53241.27, 0.030347154, 0.11378834, -800592.9, -58270.38, 0.0, 9.999561, 9.999329 
1.5149532e+3, 2.3425356e+2, -868092.1, -819200.1, -57972.277, 0.03578761, 0.13379185, -780730.4, -136402.3, 0.0, 9.998714, 9.99937 
1.5149263e+3, 2.4425326e+2, -858869.25, -715495.5, -57637.473, 0.035527598, 0.15127629, -695198.2, -148865.47, 0.0, 9.997896, 9.999803 
1.5148991e+3, 2.542532e+2, -871771.7, -666758.7, -57655.87, 0.027589496, 0.16385765, -651656.56, -203320.31, 0.0, 9.997117, 9.999839 
1.5148723e+3, 2.6425374e+2, -837983.1, -516548.66, -59671.258, 0.02372715, 0.20035684, -505828.78, -155494.34, 0.0, 9.996319, 10.000582 
1.5148453e+3, 2.74255e+2, -855462.3, -467101.75, -66940.33, 0.025274863, 0.26696247, -455887.3, -203561.75, 0.0, 9.995497, 10.000645 
1.5148187e+3, 2.842563e+2, -825845.9, -314433.16, -51909.29, 0.02547675, 0.3000849, -309217.47, -154902.53, 0.0, 9.994651, 10.001427 
1.5147921e+3, 2.9425767e+2, -850547.25, -268029.94, -49968.176, 0.023829257, 0.28751278, -263774.75, -207472.72, 0.0, 9.993776, 10.001493 
1.5147659e+3, 3.042596e+2, -828782.5, -73591.43, -20887.22, 0.008526679, 0.2711743, -73014.17, -73014.17, 0.0, 9.9929085, 10.002912 
1.51474e+3, 3.142624e+2, -949028.3, -124188.15, -23808.926, -0.024445001, 0.25251123, -123501.484, -123501.484, 0.0, 9.992052, 10.002976 
1.5252495e+3, 1.2429875e+2, -819458.6, -1649747.1, 38365.918, 0.03403735, 0.07560076, -817689.56, 904191.3, 0.0051948144, 10.007774, 9.996702 
1.5252215e+3, 1.3429536e+2, -860732.56, -1632150.9, 27034.277, -0.07095496, 0.08103177, -859786.3, 764127.75, 0.0031402085, 10.006851, 9.996595 
1.525196e+3, 1.442925e+2, -816989.9, -1446464.0, 34109.637, 0.06958116, 0.0916574, -815147.0, 710795.8, 0.0013925236, 10.005976, 9.997618 
1.5251686e+3, 1.5429014e+2, -830322.25, -1393834.4, 39517.645, 0.015064072, 0.08977809, -827564.5, 600402.7, 0.00036560983, 10.005169, 9.997695 
1.5251416e+3, 1.642883e+2, -802377.4, -1252172.0, 39344.008, -0.008013349, 0.10689326, -798961.8, 531024.56, 0.000033990684, 10.004351, 9.998389 
1.5251152e+3, 1.7428711e+2, -821849.56, -1204574.6, 33867.625, 0.015008069, 0.14716503, -818875.7, 413123.03, 0.00000012162774, 10.003517, 9.998445 
1.5250885e+3, 1.8428567e+2, -826417.94, -1131693.1, 16769.518, 0.028488202, 0.15293686, -825499.56, 308513.0, 0.0, 10.002707, 9.998663 
1.5250616e+3, 1.942839e+2, -840497.9, -1085564.4, 14329.168, 0.028071815, 0.11169953, -839662.9, 196365.4, 0.0, 10.001927, 9.998682 
1.5250345e+3, 2.0428242e+2, -849650.25, -1027355.25, 3358.303, 0.029680483, 0.093547024, -849586.8, 88455.63, 0.0, 10.001141, 9.998789 
1.5250072e+3, 2.1428129e+2, -867300.56, -983956.0, 340.29065, 0.034445323, 0.10457526, -867299.56, -27244.967, 0.0, 10.000341, 9.998799 
1.5249798e+3, 2.2428048e+2, -846969.9, -868099.5, -21223.803, 0.035961714, 0.121806145, -833826.75, -91762.76, 0.0, 9.99957, 9.999293 
1.5249519e+3, 2.3428e+2, -853218.5, -815912.1, -23159.086, 0.0329971, 0.14581895, -804828.4, -160758.4, 0.0, 9.998836, 9.999332 
1.5249242e+3, 2.4427973e+2, -830774.7, -694139.44, -19801.668, 0.031117914, 0.16240314, -691327.56, -145253.08, 0.0, 9.998058, 9.99987 
1.5248963e+3, 2.5427964e+2, -851017.25, -648157.0, -15454.586, 0.030587027, 0.16757149, -646986.4, -198909.2, 0.0, 9.997225, 9.999914 
1.5248686e+3, 2.6428008e+2, -833443.6, -526911.2, -14100.296, 0.028736241, 0.19928356, -526264.0, -176188.23, 0.0, 9.996407, 10.000467 
1.5248409e+3, 2.7428123e+2, -848572.6, -478150.7, -18838.643, 0.025156742, 0.2643849, -477195.1, -225126.2, 0.0, 9.995607, 10.000514 
1.5248132e+3, 2.8428248e+2, -811365.06, -311034.53, -7533.81, 0.022700138, 0.2992132, -310921.13, -156861.92, 0.0, 9.994767, 10.001393 
1.5247859e+3, 2.9428384e+2, -838410.5, -265070.75, -12018.292, 0.021682963, 0.29277185, -264818.94, -208773.13, 0.0, 9.993875, 10.001466 
1.5247588e+3, 3.0428576e+2, -828702.0, -71923.375, 14271.966, 0.008194696, 0.27483684, -71654.32, -71654.32, 0.0, 9.992904, 10.002924 
1.524732e+3, 3.142884e+2, -980136.56, -137432.17, 19156.299, -0.021285975, 0.2440497, -136996.94, -136996.94, 0.0, 9.991834, 10.00299 
1.5352573e+3, 1.2432639e+2, -825975.75, -1662632.4, 7449.953, 0.046560857, 0.065576255, -825909.4, 895700.1, 0.005481601, 10.0077715, 9.996616 
1.5352283e+3, 1.3432297e+2, -867163.44, -1646016.4, -7036.8853, -0.066789426, 0.07697858, -867099.9, 756543.94, 0.0033303767, 10.006852, 9.996501 
1.5352018e+3, 1.4432009e+2, -810972.44, -1434964.8, 4230.9805, 0.0682036, 0.08671131, -810943.75, 714729.06, 0.0014903629, 10.005979, 9.997697 
1.5351737e+3, 1.5431789e+2, -823624.2, -1380956.9, 9778.334, 0.015957007, 0.09198219, -823452.7, 604242.1, 0.00039862425, 10.005171, 9.997783 
1.535146e+3, 1.64316e+2, -812651.06, -1274560.6, 8637.764, -0.0052340254, 0.10685259, -812489.56, 517224.63, 0.000039149174, 10.004354, 9.998236 
1.5351187e+3, 1.7431448e+2, -833338.06, -1229602.9, 3181.754, 0.018818554, 0.13234659, -833312.56, 398417.7, 0.00000015748657, 10.00352, 9.998273 
1.5350913e+3, 1.8431292e+2, -830161.6, -1140734.1, -11999.225, 0.028979957, 0.13822459, -829698.75, 304046.9, 0.0, 10.00271, 9.998601 
1.5350632e+3, 1.943113e+2, -843659.5, -1093392.5, -14324.462, 0.01961709, 0.11705802, -842840.56, 192919.75, 0.0, 10.001931, 9.998629 
1.5350354e+3, 2.043099e+2, -853759.7, -1037043.94, -26078.355, 0.021887446, 0.110611, -850121.4, 87652.86, 0.0, 10.001143, 9.998722 
1.5350075e+3, 2.143087e+2, -871496.56, -993695.6, -29183.18, 0.039868496, 0.12192954, -864884.9, -25097.73, 0.0, 10.000343, 9.998733 
1.5349793e+3, 2.2430782e+2, -846885.9, -868965.6, -48439.824, 0.044266284, 0.13773005, -808243.8, -66446.5, 0.0, 9.999573, 9.999288 
1.5349507e+3, 2.3430732e+2, -852767.7, -816126.6, -50021.586, 0.030700393, 0.1580673, -781176.1, -137372.36, 0.0, 9.998838, 9.9993305 
1.5349221e+3, 2.4430706e+2, -821470.75, -676031.44, -50018.074, 0.027881877, 0.17158584, -660490.4, -114682.664, 0.0, 9.998061, 9.999994 
1.5348937e+3, 2.543071e+2, -841145.7, -628847.56, -45784.613, 0.039031595, 0.17469375, -619394.5, -171586.11, 0.0, 9.997228, 10.000046 
1.534865e+3, 2.643075e+2, -838564.6, -538740.2, -43073.094, 0.040119644, 0.19864407, -532674.94, -182868.11, 0.0, 9.996409, 10.000386 
1.5348364e+3, 2.7430838e+2, -854744.44, -492309.06, -47542.914, 0.02800599, 0.24807973, -486176.34, -234373.83, 0.0, 9.995611, 10.000416 
1.534808e+3, 2.843095e+2, -818656.44, -327584.13, -39461.664, 0.021187397, 0.2831557, -324433.28, -170639.19, 0.0, 9.994772, 10.001279 
1.5347798e+3, 2.94311e+2, -845926.8, -282138.3, -44227.215, 0.021424016, 0.29822674, -278689.94, -222909.6, 0.0, 9.993878, 10.001348 
1.5347517e+3, 3.0431294e+2, -820504.25, -55823.875, -24190.945, 0.01055656, 0.2867432, -55059.35, -55059.35, 0.0, 9.992906, 10.003035 
1.5347238e+3, 3.1431562e+2, -971678.94, -119413.99, -19484.043, -0.014621577, 0.24236122, -118968.79, -118968.79, 0.0, 9.99183, 10.003117 
1.5452652e+3, 1.24355085e+2, -843137.94, -1675393.0, 38428.48, 0.053919494, 0.07805048, -841367.3, 879961.6, 0.0057837865, 10.007677, 9.9965725 
1.545235e+3, 1.3435163e+2, -866799.94, -1650554.3, 24086.184, -0.061342135, 0.08964366, -866060.44, 757303.6, 0.0035313577, 10.006879, 9.996456 
1.5452078e+3, 1.4434868e+2, -798862.1, -1428229.0, 35937.75, 0.07060279, 0.09560716, -796816.6, 728577.06, 0.0015941263, 10.006061, 9.997703 
1.5451789e+3, 1.5434656e+2, -815756.44, -1376247.5, 35437.086, 0.018741978, 0.10900293, -813524.8, 613889.75, 0.00043373244, 10.005223, 9.997789 
1.5451503e+3, 1.6434462e+2, -807170.5, -1273491.4, 35637.242, -0.0028951187, 0.12094732, -804462.75, 524971.25, 0.00004471429, 10.0044, 9.9982195 
1.5451223e+3, 1.7434293e+2, -824335.0, -1227196.3, 40977.19, 0.019152578, 0.12912291, -820209.2, 411242.34, 0.00000019790895, 10.003592, 9.998254 
1.5450938e+3, 1.8434128e+2, -820036.75, -1142436.3, 33495.094, 0.027130347, 0.13055576, -816593.56, 316874.25, 0.0, 10.0028105, 9.99854 
1.5450652e+3, 1.9433972e+2, -829414.2, -1093447.5, 30368.64, 0.015479249, 0.121949926, -825966.3, 209516.16, 0.0, 10.002061, 9.998565 
1.5450364e+3, 2.0433828e+2, -838401.4, -1034769.3, 16661.14, 0.01838425, 0.12160905, -836997.75, 100498.914, 0.0, 10.001273, 9.998674 
1.545008e+3, 2.1433702e+2, -861553.25, -993844.1, 14727.063, 0.040701523, 0.13031395, -859933.6, -20423.24, 0.0, 10.000435, 9.998686 
1.544979e+3, 2.2433607e+2, -837977.4, -865658.44, -1546.4878, 0.047383975, 0.14352313, -837891.25, -96370.086, 0.0, 9.9996395, 9.999276 
1.5449496e+3, 2.3433553e+2, -844653.8, -812965.3, -3901.8862, 0.033501923, 0.16128182, -812491.94, -168963.77, 0.0, 9.998899, 9.999322 
1.5449202e+3, 2.4433532e+2, -806856.5, -660172.2, -9462.299, 0.030582381, 0.17726986, -659564.3, -114032.8, 0.0, 9.998126, 10.000071 
1.5448909e+3, 2.5433552e+2, -823623.1, -610973.56, -9737.355, 0.041935753, 0.18935154, -610528.6, -162998.38, 0.0, 9.99731, 10.000128 
1.5448616e+3, 2.6433596e+2, -826494.75, -534485.6, -6229.5513, 0.042684413, 0.21190497, -534352.8, -184824.55, 0.0, 9.996502, 10.000369 
1.544832e+3, 2.7433664e+2, -843098.2, -489106.44, -5451.6235, 0.029490836, 0.24638061, -489022.5, -237497.19, 0.0, 9.995704, 10.000392 
1.5448028e+3, 2.8433767e+2, -813468.44, -335898.9, 2021.923, 0.021501828, 0.276804, -335890.34, -182372.31, 0.0, 9.994856, 10.00118 
1.5447737e+3, 2.9433912e+2, -844045.3, -292855.25, -2628.138, 0.02049265, 0.300925, -292842.72, -237337.61, 0.0, 9.993944, 10.001241 
1.5447447e+3, 3.0434114e+2, -810139.44, -48143.96, 8329.533, 0.009497354, 0.2961743, -48052.92, -48052.92, 0.0, 9.992968, 10.003057 
1.5447156e+3, 3.143438e+2, -958324.6, -109432.26, 4535.23, -0.01429665, 0.25534856, -109408.03, -109408.03, 0.0, 9.991908, 10.003146 
1.5552726e+3, 1.2438478e+2, -843573.25, -1677342.8, 11996.143, 0.056286015, 0.11130288, -843400.7, 877638.94, 0.0061016744, 10.007682, 9.996558 
1.5552421e+3, 1.3438125e+2, -867041.6, -1651774.5, -5387.831, -0.05473027, 0.11748983, -867004.6, 756070.6, 0.003743302, 10.006881, 9.996448 
1.555214e+3, 1.443782e+2, -803617.4, -1438699.3, 5289.8335, 0.07641441, 0.11726299, -803573.3, 721532.6, 0.0017038817, 10.006062, 9.997632 
1.5551843e+3, 1.543761e+2, -820880.8, -1387731.4, 4722.646, 0.023257542, 0.13986714, -820841.44, 606285.44, 0.00047102894, 10.005225, 9.997711 
1.5551546e+3, 1.6437414e+2, -799190.0, -1257862.1, 5975.0, -0.0010058768, 0.14834039, -799112.2, 530033.9, 0.000050726798, 10.004401, 9.998327 
1.5551257e+3, 1.7437236e+2, -815583.4, -1209946.1, 11308.759, 0.0161341, 0.13692194, -815259.4, 415903.78, 0.00000025357542, 10.003593, 9.998372 
1.5550965e+3, 1.8437067e+2, -824459.06, -1152525.6, 5815.7954, 0.023055386, 0.12963764, -824356.0, 308823.53, 0.0, 10.002811, 9.998471 
1.5550673e+3, 1.9436908e+2, -834711.3, -1105359.4, 2850.6426, 0.015590615, 0.12631635, -834681.3, 200513.77, 0.0, 10.002062, 9.998483 
1.5550376e+3, 2.0436758e+2, -840575.2, -1040269.6, -14066.264, 0.019023567, 0.12657234, -839589.25, 97620.81, 0.0, 10.001275, 9.998637 
1.5550083e+3, 2.1436624e+2, -863440.06, -998801.9, -16210.183, 0.036850736, 0.12971967, -861525.94, -22301.379, 0.0, 10.000438, 9.998652 
1.5549785e+3, 2.2436522e+2, -839192.2, -869332.6, -28977.072, 0.0453188, 0.13909775, -821600.75, -80364.81, 0.0, 9.999642, 9.999251 
1.5549485e+3, 2.3436464e+2, -845877.94, -816686.25, -30931.688, 0.04157765, 0.15528335, -797079.6, -153836.17, 0.0, 9.998902, 9.999296 
1.5549183e+3, 2.443645e+2, -804981.4, -657419.9, -39078.895, 0.03927796, 0.17942862, -647709.56, -102463.305, 0.0, 9.998128, 10.00009 
1.5548882e+3, 2.5436494e+2, -821605.6, -608001.7, -39425.54, 0.038905155, 0.21192618, -600957.1, -153714.0, 0.0, 9.997313, 10.000149 
1.554858e+3, 2.6436543e+2, -822732.44, -528023.56, -35194.06, 0.03595426, 0.23978761, -523878.97, -174638.8, 0.0, 9.996505, 10.000413 
1.5548277e+3, 2.7436605e+2, -839145.3, -482365.56, -34179.984, 0.029516168, 0.26029402, -479120.6, -227883.19, 0.0, 9.995708, 10.000438 
1.5547976e+3, 2.8436694e+2, -819231.7, -349304.22, -30636.262, 0.023673218, 0.28085726, -347315.34, -194084.2, 0.0, 9.99486, 10.001086 
1.5547675e+3, 2.9436827e+2, -850591.06, -307863.75, -35443.938, 0.01876674, 0.30035055, -305558.8, -250338.53, 0.0, 9.993948, 10.001138 
1.5547374e+3, 3.0437022e+2, -815460.06, -60663.152, -29590.07, 0.004595994, 0.302829, -59504.918, -59504.918, 0.0, 9.992971, 10.00297 
1.5547074e+3, 3.1437308e+2, -963675.9, -122227.66, -33897.29, -0.02132817, 0.2847059, -120864.33, -120864.33, 0.0, 9.991913, 10.0030575 
1.5652804e+3, 1.2441512e+2, -819032.9, -1667295.3, 40949.758, 0.050217267, 0.12851378, -817060.6, 903683.0, 0.0064383466, 10.007865, 9.996539 
1.565249e+3, 1.3441159e+2, -858929.3, -1648319.3, 20327.57, -0.05161476, 0.1357686, -858406.2, 764373.0, 0.0039682356, 10.006943, 9.99644 
1.5652199e+3, 1.4440846e+2, -804184.25, -1438992.9, 34355.816, 0.08182439, 0.12856194, -802330.3, 722480.25, 0.0018208767, 10.006061, 9.997629 
1.5651894e+3, 1.5440635e+2, -820175.9, -1387819.3, 38713.5, 0.028482422, 0.15112971, -817547.75, 609283.8, 0.00051118346, 10.005234, 9.9977045 
1.5651591e+3, 1.6440439e+2, -792979.3, -1244957.1, 42015.816, 0.0029224986, 0.15608881, -789106.7, 539743.7, 0.00005739695, 10.004404, 9.998414 
1.5651293e+3, 1.7440262e+2, -813280.3, -1198361.6, 45046.59, 0.016972832, 0.13669944, -808080.94, 422785.7, 0.00000034240642, 10.003567, 9.998464 
1.5650994e+3, 1.8440095e+2, -835400.2, -1158865.3, 41750.086, 0.023893196, 0.12734017, -830098.3, 302784.34, 0.0, 10.002744, 9.99846 
1.5650693e+3, 1.9439939e+2, -854474.7, -1116696.3, 43269.727, 0.020476319, 0.12946771, -847519.1, 187379.27, 0.0, 10.001937, 9.998465 
1.565039e+3, 2.043979e+2, -854451.25, -1047737.2, 30137.584, 0.023021948, 0.1332276, -849861.2, 87052.445, 0.0, 10.001185, 9.998628 
1.5650086e+3, 2.1439655e+2, -854598.94, -995241.5, 29681.97, 0.03358888, 0.13724114, -848591.3, -9663.168, 0.0, 10.000504, 9.998644 
1.5649782e+3, 2.2439551e+2, -822328.8, -860612.75, 17621.889, 0.041355163, 0.14510694, -815452.6, -74512.875, 0.0, 9.999758, 9.999254 
1.5649474e+3, 2.3439488e+2, -841213.94, -813904.44, 17301.857, 0.045282204, 0.15686946, -805518.2, -162570.64, 0.0, 9.998934, 9.999299 
1.5649165e+3, 2.4439473e+2, -800690.3, -657169.8, 9371.725, 0.044288505, 0.18043627, -656560.44, -111609.914, 0.0, 9.998168, 10.000071 
1.5648855e+3, 2.543952e+2, -799663.1, -599548.5, 5467.5117, 0.037111294, 0.21715508, -599399.2, -152451.83, 0.0, 9.997475, 10.000127 
1.5648545e+3, 2.6439568e+2, -795918.94, -512738.56, 3010.4653, 0.031936016, 0.2468039, -512706.56, -163762.31, 0.0, 9.996681, 10.000432 
1.5648234e+3, 2.743963e+2, -829911.5, -475224.9, 1495.2792, 0.02919364, 0.2658015, -475218.63, -224277.45, 0.0, 9.995762, 10.00046 
1.5647925e+3, 2.8439716e+2, -820293.0, -356416.47, 4254.158, 0.024068575, 0.28584996, -356377.44, -203442.31, 0.0, 9.994884, 10.001025 
1.5647614e+3, 2.943984e+2, -839747.6, -310050.78, 1648.7527, 0.016044714, 0.30619425, -310045.66, -255120.28, 0.0, 9.994057, 10.001069 
1.5647304e+3, 3.0440035e+2, -794737.25, -57837.1, 3287.9487, 0.0020575621, 0.3123193, -57822.43, -57822.43, 0.0, 9.993147, 10.002904 
1.5646994e+3, 3.144032e+2, -936790.6, -116778.04, -394.10617, -0.01942967, 0.3016346, -116777.85, -116777.85, 0.0, 9.992132, 10.002988 
1.575288e+3, 1.24446094e+2, -821552.56, -1672362.8, 10756.087, 0.036078665, 0.13201919, -821416.6, 899024.6, 0.006797309, 10.007864, 9.996505 
1.5752558e+3, 1.344426e+2, -859951.4, -1650768.4, -13023.941, -0.051636618, 0.1454418, -859736.94, 762739.4, 0.0042084903, 10.006944, 9.996425 
1.575226e+3, 1.4443943e+2, -800244.2, -1431477.3, 4408.3643, 0.08688503, 0.13033222, -800213.4, 724294.56, 0.0019466373, 10.006062, 9.997682 
1.5751946e+3, 1.5443727e+2, -816101.0, -1380259.0, 8711.312, 0.03434257, 0.14408095, -815966.56, 610562.44, 0.00055503746, 10.005236, 9.997757 
1.5751636e+3, 1.6443533e+2, -788462.56, -1236605.1, 11493.578, 0.008734942, 0.14544052, -788168.0, 540379.3, 0.000064954525, 10.004406, 9.998471 
1.5751328e+3, 1.7443363e+2, -808781.06, -1190130.8, 14389.453, 0.021443808, 0.12894593, -808238.9, 422323.44, 0.00000047830383, 10.003569, 9.998521 
1.575102e+3, 1.8443206e+2, -832348.1, -1153692.4, 12084.735, 0.029400673, 0.1237091, -831894.3, 300683.22, 0.0, 10.002746, 9.998495 
1.5750712e+3, 1.9443057e+2, -851458.56, -1111613.9, 13617.123, 0.029976277, 0.13142627, -850747.75, 183845.13, 0.0, 10.001939, 9.9985 
1.5750402e+3, 2.044292e+2, -853231.94, -1046432.44, 4835.217, 0.03028063, 0.14159413, -853111.0, 83496.58, 0.0, 10.001188, 9.998636 
1.5750091e+3, 2.1442792e+2, -853449.7, -994064.7, 4678.039, 0.03085478, 0.1529024, -853294.25, -14672.715, 0.0, 10.000506, 9.9986515 
1.5749778e+3, 2.244269e+2, -820188.5, -857350.0, -12416.097, 0.03540616, 0.16160387, -816421.9, -75789.06, 0.0, 9.999761, 9.999276 
1.5749463e+3, 2.3442623e+2, -839118.8, -810688.4, -12836.875, 0.04447462, 0.16612944, -805750.06, -163109.31, 0.0, 9.998937, 9.999321 
1.5749146e+3, 2.4442595e+2, -804798.06, -666946.25, -15946.485, 0.04549699, 0.18007845, -665125.6, -120481.03, 0.0, 9.998171, 10.000004 
1.5748829e+3, 2.5442618e+2, -804009.25, -610199.0, -19437.95, 0.036603037, 0.20409146, -608268.75, -161625.44, 0.0, 9.997479, 10.000053 
1.5748511e+3, 2.6442665e+2, -796236.3, -515058.97, -30030.326, 0.0306991, 0.23181152, -511887.44, -163246.63, 0.0, 9.996686, 10.000415 
1.5748191e+3, 2.7442735e+2, -830233.0, -477191.47, -31977.848, 0.028429603, 0.26232946, -474318.34, -223681.52, 0.0, 9.995766, 10.000445 
1.5747872e+3, 2.8442833e+2, -822218.2, -361717.28, -25730.945, 0.02249304, 0.2918285, -360284.0, -207653.69, 0.0, 9.994886, 10.000988 
1.5747553e+3, 2.9442957e+2, -841480.9, -315546.28, -27960.076, 0.012110708, 0.31916985, -314064.03, -259443.53, 0.0, 9.994062, 10.00103 
1.5747236e+3, 3.0443147e+2, -797219.75, -65375.35, -32864.78, 0.0020620122, 0.32485053, -63902.465, -63902.465, 0.0, 9.993155, 10.00285 
1.5746917e+3, 3.1443414e+2, -939207.9, -124683.85, -36851.508, -0.007547206, 0.30421212, -123019.98, -123019.98, 0.0, 9.992142, 10.00293 
1.585296e+3, 1.24478176e+2, -818460.3, -1673050.6, 63472.25, 0.03022184, 0.12848385, -813771.8, 906355.25, 0.0071804393, 10.0079, 9.996482 
1.5852629e+3, 1.3447472e+2, -856858.4, -1648914.1, 37683.32, -0.050112538, 0.14776607, -855069.56, 767092.06, 0.0044653397, 10.006968, 9.996425 
1.585232e+3, 1.4447148e+2, -799153.5, -1432284.4, 57067.742, 0.088676974, 0.1266123, -794050.75, 730143.1, 0.0020820706, 10.006079, 9.997667 
1.5851998e+3, 1.5446925e+2, -815164.3, -1381671.8, 56265.074, 0.035449725, 0.13522893, -809630.1, 616585.25, 0.0006031331, 10.005253, 9.997738 
1.5851678e+3, 1.644673e+2, -783783.56, -1231228.6, 54749.844, 0.009869085, 0.13528562, -777181.7, 551051.94, 0.00007348758, 10.004427, 9.998497 
1.5851364e+3, 1.7446567e+2, -802911.94, -1184096.6, 55054.52, 0.023043375, 0.122372195, -795119.75, 435128.34, 0.000000665107, 10.003598, 9.998547 
1.5851049e+3, 1.8446413e+2, -827907.44, -1151818.3, 50838.625, 0.03042389, 0.12174857, -820115.56, 312147.34, 0.0, 10.00278, 9.99849 
1.5850732e+3, 1.944627e+2, -846696.6, -1109599.3, 49115.15, 0.029232206, 0.13512295, -837820.6, 196457.66, 0.0, 10.001976, 9.998495 
1.5850414e+3, 2.0446135e+2, -849101.5, -1041469.0, 42545.64, 0.029716846, 0.14892837, -840111.8, 96181.086, 0.0, 10.001205, 9.998661 
1.5850095e+3, 2.1446012e+2, -855826.8, -991932.75, 43694.95, 0.032744743, 0.161441, -843006.7, -4700.025, 0.0, 10.000478, 9.998678 
1.5849775e+3, 2.2445913e+2, -819416.1, -855195.8, 24357.693, 0.03675478, 0.1721009, -807084.4, -66766.734, 0.0, 9.999761, 9.99929 
1.5849452e+3, 2.3445848e+2, -821048.1, -800384.4, 22611.76, 0.041745186, 0.17932819, -785855.9, -143530.61, 0.0, 9.999056, 9.999333 
1.5849128e+3, 2.4445818e+2, -784473.0, -652182.9, 22625.463, 0.042691857, 0.18822414, -648420.3, -104091.2, 0.0, 9.998291, 10.000046 
1.5848804e+3, 2.5445834e+2, -804888.06, -605654.6, 27559.127, 0.038623314, 0.19768478, -601912.75, -155584.48, 0.0, 9.997455, 10.000095 
1.5848477e+3, 2.6445875e+2, -804322.6, -519997.47, 17895.793, 0.03337974, 0.21962662, -518875.53, -170549.56, 0.0, 9.996637, 10.000403 
1.5848148e+3, 2.7445948e+2, -819906.1, -473662.4, 15191.487, 0.02667148, 0.2551797, -472997.16, -222675.36, 0.0, 9.995845, 10.00043 
1.5847822e+3, 2.8446043e+2, -802455.06, -353521.06, 22639.385, 0.018415157, 0.28701857, -352382.25, -200066.89, 0.0, 9.99503, 10.000975 
1.5847494e+3, 2.9446164e+2, -824057.94, -308566.75, 21800.574, 0.008325447, 0.31331912, -307646.44, -253340.47, 0.0, 9.99419, 10.001015 
1.5847167e+3, 3.0446354e+2, -778325.6, -60850.875, 12578.839, 0.0024853183, 0.3210289, -60630.41, -60630.41, 0.0, 9.993306, 10.002806 
1.584684e+3, 3.144662e+2, -909677.4, -115557.11, 8518.074, 0.0018941284, 0.30613428, -115465.75, -115465.75, 0.0, 9.992369, 10.002882 
1.5953037e+3, 1.24511324e+2, -820912.6, -1677018.6, 31804.37, 0.031224966, 0.11946739, -819732.75, 900069.06, 0.007587592, 10.007896, 9.996458 
1.5952696e+3, 1.3450794e+2, -856619.94, -1648484.9, 3027.484, -0.04732006, 0.14341049, -856608.4, 765227.56, 0.0047390237, 10.006967, 9.996429 
1.595238e+3, 1.4450459e+2, -804799.7, -1444872.3, 26436.092, 0.08737899, 0.11785174, -803709.7, 720159.25, 0.0022275492, 10.006081, 9.997581 
1.5952049e+3, 1.5450226e+2, -821158.5, -1395425.1, 25947.902, 0.032103628, 0.124786794, -819988.44, 605902.8, 0.0006557346, 10.005257, 9.997643 
1.5951723e+3, 1.6450025e+2, -784102.25, -1233278.9, 24324.082, 0.006613143, 0.1256574, -782788.9, 545121.1, 0.00008298377, 10.004431, 9.998482 
1.59514e+3, 1.7449865e+2, -803153.4, -1185844.4, 24513.252, 0.021935735, 0.116906725, -801589.56, 428334.7, 0.00000090338955, 10.003601, 9.998535 
1.5951076e+3, 1.8449712e+2, -831037.5, -1159571.3, 21161.588, 0.027089642, 0.12136752, -829680.06, 302259.2, 0.0, 10.002783, 9.998437 
1.595075e+3, 1.944957e+2, -849793.0, -1117381.6, 19540.232, 0.0184424, 0.1405193, -848373.6, 185581.39, 0.0, 10.001979, 9.998441 
1.5950425e+3, 2.0449436e+2, -846272.3, -1036932.6, 15705.662, 0.021516124, 0.1551857, -844987.2, 90982.74, 0.0, 10.001209, 9.998692 
1.59501e+3, 2.1449308e+2, -852697.6, -986662.1, 16993.762, 0.039330915, 0.16278851, -850575.56, -12591.717, 0.0, 10.000481, 9.998714 
1.5949772e+3, 2.2449216e+2, -819166.6, -855923.25, -1510.3325, 0.045356143, 0.17661469, -819104.7, -79110.1, 0.0, 9.9997635, 9.999285 
1.5949441e+3, 2.3449163e+2, -820936.0, -801550.0, -3030.1243, 0.036920976, 0.1966778, -801087.4, -159086.03, 0.0, 9.99906, 9.999325 
1.594911e+3, 2.444914e+2, -773439.56, -630669.6, -7730.319, 0.03573799, 0.20517574, -630252.3, -86248.02, 0.0, 9.998295, 10.000193 
1.5948778e+3, 2.5449154e+2, -793575.3, -583242.3, -2840.809, 0.043317888, 0.19820227, -583203.94, -137201.52, 0.0, 9.997457, 10.000249 
1.5948443e+3, 2.6449192e+2, -805032.1, -522520.7, -10695.215, 0.040126555, 0.21033083, -522116.34, -174116.56, 0.0, 9.996639, 10.000386 
1.5948106e+3, 2.744926e+2, -820898.94, -477332.97, -13120.051, 0.023713557, 0.24400185, -476832.66, -226836.44, 0.0, 9.995849, 10.000404 
1.594777e+3, 2.8449348e+2, -801346.1, -353242.53, -7328.3164, 0.01154261, 0.27033854, -353122.72, -201132.23, 0.0, 9.995036, 10.000975 
1.5947436e+3, 2.944946e+2, -822848.4, -308186.16, -8130.785, 0.004684765, 0.28653255, -308057.75, -254075.78, 0.0, 9.994197, 10.001016 
1.5947099e+3, 3.0449653e+2, -779873.2, -66486.64, -20633.428, 0.0032727786, 0.2990094, -65890.36, -65890.36, 0.0, 9.993315, 10.002765 
1.5946762e+3, 3.1449938e+2, -911139.9, -121776.05, -24645.467, 0.008279196, 0.3074196, -121007.31, -121007.31, 0.0, 9.99238, 10.002835 
1.6053115e+3, 1.24545395e+2, -837968.5, -1689957.5, 55459.35, 0.030818833, 0.12933882, -834373.56, 885094.6, 0.0080178175, 10.007805, 9.996411 
1.6052766e+3, 1.3454203e+2, -859832.6, -1651071.8, 22372.846, -0.04659038, 0.15811758, -859200.5, 762301.7, 0.0050297934, 10.006954, 9.996416 
1.6052441e+3, 1.4453861e+2, -797890.2, -1441726.9, 50912.938, 0.08385079, 0.12444896, -793889.0, 729646.8, 0.0023836726, 10.006133, 9.997576 
1.6052102e+3, 1.5453614e+2, -807606.25, -1389551.9, 56265.016, 0.027437853, 0.12041679, -802216.2, 623342.56, 0.0007132195, 10.005356, 9.997635 
1.6051766e+3, 1.6453406e+2, -774195.7, -1235696.5, 53706.527, 0.0038367715, 0.11812919, -768028.06, 559549.94, 0.00009352236, 10.004533, 9.998415 
1.6051435e+3, 1.7453244e+2, -800623.56, -1192263.9, 49116.137, 0.024211455, 0.11552831, -794557.8, 435035.0, 0.0000012060138, 10.003654, 9.998464 
1.6051102e+3, 1.845309e+2, -823032.75, -1154132.4, 48165.22, 0.029427052, 0.12130199, -816168.44, 315439.78, 0.0, 10.002833, 9.998448 
1.605077e+3, 1.9452944e+2, -833739.75, -1107470.3, 51476.457, 0.01499281, 0.13589887, -824379.44, 209244.81, 0.0, 10.002083, 9.998458 
1.6050436e+3, 2.0452814e+2, -830537.44, -1023917.44, 50470.316, 0.016843734, 0.15185015, -818157.75, 117481.13, 0.0, 10.001296, 9.998737 
1.6050105e+3, 2.14527e+2, -851426.2, -980440.6, 52238.836, 0.038881205, 0.1676199, -832926.94, 4724.808, 0.0, 10.000468, 9.998762 
1.6049771e+3, 2.245261e+2, -831111.3, -860671.8, 36090.203, 0.04730407, 0.18353488, -806892.1, -67229.89, 0.0, 9.99968, 9.999291 
1.6049431e+3, 2.3452553e+2, -838367.3, -809240.25, 35162.98, 0.0390326, 0.19852418, -785744.2, -144074.6, 0.0, 9.9989395, 9.999329 
1.6049092e+3, 2.4452531e+2, -783868.4, -626595.6, 25020.977, 0.037823964, 0.20527947, -622710.94, -79038.695, 0.0, 9.998186, 10.000272 
1.6048752e+3, 2.5452554e+2, -793564.7, -573916.75, 23773.332, 0.045264356, 0.20041083, -571373.1, -125704.12, 0.0, 9.997418, 10.000331 
1.6048409e+3, 2.6452595e+2, -802475.06, -516950.9, 14990.856, 0.04156123, 0.21079543, -516166.0, -168500.22, 0.0, 9.99664, 10.000423 
1.6048063e+3, 2.7452663e+2, -818355.25, -471953.88, 16868.182, 0.02413166, 0.23801486, -471134.4, -221472.02, 0.0, 9.995851, 10.00044 
1.6047719e+3, 2.845275e+2, -793721.1, -342378.94, 26001.354, 0.011148263, 0.26023573, -340885.97, -189229.48, 0.0, 9.99506, 10.001037 
1.6047376e+3, 2.9452866e+2, -808145.8, -293916.38, 29435.25, 0.0037597886, 0.27511752, -292236.94, -238589.47, 0.0, 9.994269, 10.001078 
1.6047034e+3, 3.0453065e+2, -753569.5, -59272.21, 18378.988, 0.0033087188, 0.2919224, -58786.035, -58786.035, 0.0, 9.993521, 10.002713 
1.6046688e+3, 3.1453353e+2, -850659.44, -99073.72, 12826.609, 0.010917365, 0.31159365, -98854.88, -98854.88, 0.0, 9.992825, 10.002775 
1.6153193e+3, 1.2458036e+2, -843622.56, -1701364.1, 26608.51, 0.028421506, 0.15669787, -842797.94, 876328.7, 0.008471308, 10.007804, 9.996334 
1.6152835e+3, 1.34577e+2, -862417.1, -1656838.8, -9001.171, -0.04773072, 0.19001222, -862315.1, 758845.6, 0.0053388444, 10.006955, 9.996378 
1.6152501e+3, 1.4457346e+2, -793536.44, -1433280.3, 22344.742, 0.07830783, 0.14500925, -792756.94, 730438.1, 0.0025517389, 10.006133, 9.997635 
1.6152154e+3, 1.5457088e+2, -803295.44, -1381092.0, 27618.037, 0.021527892, 0.121548295, -801978.3, 623239.94, 0.0007763808, 10.005355, 9.997694 
1.6151811e+3, 1.645687e+2, -782902.75, -1254454.4, 21350.645, 0.0015065568, 0.112572186, -781938.0, 545300.06, 0.00010541941, 10.004533, 9.998287 
1.6151471e+3, 1.7456703e+2, -809752.1, -1212348.0, 16727.262, 0.029666968, 0.118066795, -809058.3, 420195.72, 0.0000016105266, 10.003655, 9.998326 
1.6151132e+3, 1.8456541e+2, -817846.8, -1144663.9, 20467.637, 0.0371457, 0.1214821, -816569.94, 314700.2, 0.0, 10.002836, 9.998513 
1.615079e+3, 1.945639e+2, -827897.8, -1096534.0, 23970.295, 0.018672304, 0.12144204, -825775.75, 207510.55, 0.0, 10.002085, 9.998533 
1.6150448e+3, 2.0456265e+2, -826484.56, -1016680.6, 20130.035, 0.015550462, 0.13917606, -824377.4, 110922.58, 0.0, 10.001299, 9.998788 
1.6150108e+3, 2.1456179e+2, -847448.75, -973403.2, 21756.451, 0.031259913, 0.1760818, -843796.56, -6485.8433, 0.0, 10.00047, 9.998811 
1.6149765e+3, 2.2456093e+2, -829924.9, -859424.6, 8758.969, 0.04258143, 0.19274947, -827520.25, -88199.29, 0.0, 9.999682, 9.9993 
1.6149421e+3, 2.3456012e+2, -837421.25, -808357.9, 8142.4355, 0.048360337, 0.18428607, -806232.1, -164901.77, 0.0, 9.998941, 9.999335 
1.6149075e+3, 2.4455987e+2, -783625.4, -627089.3, -2947.4397, 0.049149197, 0.18805088, -627033.8, -83700.5, 0.0, 9.998188, 10.000269 
1.6148725e+3, 2.5456032e+2, -793439.9, -574788.25, -4191.431, 0.0441398, 0.20460488, -574707.94, -129379.45, 0.0, 9.997421, 10.000325 
1.6148375e+3, 2.6456082e+2, -795917.2, -504639.4, -13820.008, 0.03736022, 0.22161965, -503985.16, -156660.94, 0.0, 9.996643, 10.000507 
1.6148022e+3, 2.7456146e+2, -811401.5, -458873.78, -11827.797, 0.028233068, 0.23758024, -458477.38, -209156.77, 0.0, 9.995854, 10.000529 
1.6147672e+3, 2.845624e+2, -784579.25, -324903.13, -2574.2378, 0.01772089, 0.2574055, -324888.72, -173575.08, 0.0, 9.995064, 10.001156 
1.614732e+3, 2.9456377e+2, -798729.75, -276239.0, 1068.8838, 0.0057358374, 0.2807648, -276236.8, -222934.3, 0.0, 9.994274, 10.001198 
1.6146968e+3, 3.0456582e+2, -757122.0, -69729.08, -6198.751, 0.002361345, 0.30140746, -69673.18, -69673.18, 0.0, 9.993531, 10.002638 
1.6146617e+3, 3.1456864e+2, -853663.9, -110595.91, -11465.535, 0.008964343, 0.31892803, -110419.03, -110419.03, 0.0, 9.992845, 10.002688 
1.6253269e+3, 1.2461585e+2, -843466.4, -1702734.4, 52108.816, 0.02377974, 0.16054514, -840317.8, 878461.3, 0.008949336, 10.007818, 9.996316 
1.6252904e+3, 1.3461246e+2, -856832.7, -1650887.5, 18015.723, -0.05011338, 0.18838558, -856424.2, 764389.3, 0.005667609, 10.006985, 9.996403 
1.6252561e+3, 1.446089e+2, -794316.7, -1434683.5, 49971.367, 0.07389958, 0.14083412, -790440.6, 732407.2, 0.0027330155, 10.006137, 9.9976225 
1.6252208e+3, 1.5460637e+2, -815273.5, -1388506.0, 49441.22, 0.020984104, 0.12635705, -811040.44, 613829.9, 0.0008460939, 10.005283, 9.997676 
1.6251856e+3, 1.6460416e+2, -796378.6, -1265941.1, 42246.945, 0.0031766165, 0.117576934, -792607.94, 534282.56, 0.0001191273, 10.004464, 9.99824 
1.6251507e+3, 1.7460233e+2, -809511.06, -1217542.5, 43401.31, 0.031236118, 0.1133419, -804945.6, 423962.38, 0.0000021694043, 10.003683, 9.998276 
1.625116e+3, 1.8460068e+2, -805444.25, -1127815.9, 52308.008, 0.040545672, 0.11203805, -797169.2, 333755.1, 0.0, 10.002878, 9.998608 
1.625081e+3, 1.9459926e+2, -827183.75, -1084579.4, 57294.42, 0.026318537, 0.11285824, -815006.5, 217932.48, 0.0, 10.002043, 9.998634 
1.625046e+3, 2.0459811e+2, -832550.06, -1016502.44, 53267.727, 0.022018626, 0.13326952, -818238.56, 116713.27, 0.0, 10.001246, 9.998813 
1.6250113e+3, 2.145973e+2, -842562.3, -968200.4, 52566.65, 0.03003512, 0.17492004, -823469.94, 13492.49, 0.0, 10.000495, 9.998834 
1.6249762e+3, 2.2459649e+2, -817567.06, -847258.56, 41277.086, 0.038244747, 0.19181432, -788547.2, -49574.816, 0.0, 9.9997425, 9.999353 
1.624941e+3, 2.3459567e+2, -826516.9, -796817.0, 43849.14, 0.04646642, 0.17834853, -765371.5, -124389.96, 0.0, 9.998991, 9.999389 
1.6249055e+3, 2.4459542e+2, -781138.4, -632397.56, 31303.54, 0.048569728, 0.18258953, -626078.0, -83093.48, 0.0, 9.998235, 10.000209 
1.6248699e+3, 2.5459585e+2, -790648.06, -580664.1, 24943.438, 0.043366157, 0.20604579, -577741.8, -132761.6, 0.0, 9.997474, 10.0002575 
1.6248341e+3, 2.6459637e+2, -783951.2, -492045.06, 10532.691, 0.03695651, 0.22357643, -491665.53, -144689.42, 0.0, 9.996698, 10.0005665 
1.624798e+3, 2.74597e+2, -799011.7, -445384.06, 10227.986, 0.029105607, 0.23244844, -445088.5, -196116.38, 0.0, 9.995909, 10.000594 
1.6247621e+3, 2.84598e+2, -772634.75, -313758.88, 15555.455, 0.019697363, 0.25160062, -313232.2, -162267.66, 0.0, 9.995125, 10.001202 
1.6247262e+3, 2.9459947e+2, -785068.9, -264411.44, 12873.119, 0.008470573, 0.2818354, -264093.34, -211140.86, 0.0, 9.994348, 10.001242 
1.6246904e+3, 3.0460155e+2, -743763.7, -67125.1, 8211.345, 0.004946629, 0.30712223, -67025.47, -67025.47, 0.0, 9.993642, 10.002601 
1.6246545e+3, 3.1460434e+2, -831084.06, -104144.65, 6277.9395, 0.010251222, 0.3264692, -104090.44, -104090.44, 0.0, 9.993021, 10.0026455 
1.6353346e+3, 1.2465186e+2, -842108.44, -1699530.6, 24462.215, 0.016308855, 0.14458352, -841411.1, 877014.6, 0.009452209, 10.007818, 9.99634 
1.6352972e+3, 1.3464838e+2, -851871.94, -1640796.9, -12289.8, -0.053682428, 0.15668932, -851680.56, 768779.94, 0.006016209, 10.006986, 9.996473 
1.6352622e+3, 1.4464487e+2, -800283.25, -1447774.4, 18939.234, 0.07046794, 0.11452224, -799729.75, 722764.75, 0.0029276263, 10.006138, 9.997533 
1.635226e+3, 1.546426e+2, -821718.56, -1403011.3, 18243.09, 0.025375338, 0.13485295, -821146.56, 603368.75, 0.00092261354, 10.005285, 9.997577 
1.63519e+3, 1.646404e+2, -794516.7, -1263433.1, 13598.611, 0.008481947, 0.13227908, -794122.6, 532412.94, 0.00013490056, 10.004468, 9.998257 
1.6351545e+3, 1.7463832e+2, -807386.4, -1214526.4, 14758.448, 0.029037865, 0.10158552, -806852.06, 421703.0, 0.000002908042, 10.003687, 9.998297 
1.6351187e+3, 1.8463667e+2, -796977.3, -1111580.5, 21685.545, 0.039878577, 0.09353973, -795489.56, 335081.44, 0.0, 10.002881, 9.998719 
1.6350831e+3, 1.9463553e+2, -818529.75, -1067911.5, 26515.53, 0.03784154, 0.1101797, -815741.7, 216841.13, 0.0, 10.002046, 9.998749 
1.6350473e+3, 2.0463446e+2, -832615.5, -1017946.0, 25500.768, 0.03602694, 0.13391177, -829170.7, 105424.2, 0.0, 10.001249, 9.998803 
1.6350117e+3, 2.1463352e+2, -842864.1, -970144.4, 24961.324, 0.0351666, 0.1639762, -838143.94, -1536.7217, 0.0, 10.000498, 9.99882 
1.6349758e+3, 2.2463274e+2, -810755.75, -834433.94, 13712.273, 0.03419003, 0.18078929, -804478.8, -65861.93, 0.0, 9.999745, 9.999441 
1.6349398e+3, 2.3463215e+2, -819454.1, -783510.94, 16441.777, 0.03290713, 0.18118057, -777124.56, -136501.19, 0.0, 9.998995, 9.99948 
1.6349036e+3, 2.4463195e+2, -789731.1, -651628.8, 3480.89, 0.03569098, 0.18926136, -651541.1, -108914.9, 0.0, 9.998239, 10.000076 
1.6348673e+3, 2.5463215e+2, -799869.6, -601283.1, -2857.1848, 0.04306458, 0.20442581, -601242.0, -156617.34, 0.0, 9.997477, 10.000116 
1.6348308e+3, 2.6463252e+2, -781692.25, -488938.78, -18367.633, 0.040491957, 0.21610561, -487790.88, -141169.05, 0.0, 9.996702, 10.000587 
1.6347939e+3, 2.7463314e+2, -796224.25, -441265.16, -18675.963, 0.02635677, 0.22223483, -440285.25, -191667.9, 0.0, 9.9959135, 10.000622 
1.6347572e+3, 2.8463414e+2, -775051.8, -320525.4, -12981.688, 0.016625006, 0.24245986, -320154.94, -169545.3, 0.0, 9.99513, 10.001155 
1.6347206e+3, 2.9463565e+2, -787680.25, -271770.4, -15816.359, 0.012036537, 0.27788603, -271285.97, -218687.94, 0.0, 9.994353, 10.00119 
1.634684e+3, 3.0463776e+2, -742588.06, -67213.805, -14804.386, 0.011408571, 0.30870706, -66889.445, -66889.445, 0.0, 9.99365, 10.002598 
1.6346475e+3, 3.1464058e+2, -829329.7, -103822.66, -16334.471, 0.015011383, 0.334063, -103455.08, -103455.08, 0.0, 9.993032, 10.002645 
1.6453423e+3, 1.2468882e+2, -843182.2, -1700489.3, 68506.71, 0.012037648, 0.12216417, -837742.4, 880320.0, 0.009978989, 10.007819, 9.996331 
1.6453043e+3, 1.3468547e+2, -847159.5, -1633726.4, 27103.98, -0.05357455, 0.14419517, -846226.6, 773869.1, 0.0063834293, 10.007003, 9.996511 
1.6452682e+3, 1.4468196e+2, -803252.4, -1461955.9, 55708.855, 0.066896565, 0.106137305, -798574.1, 723555.9, 0.0031345347, 10.006177, 9.997416 
1.6452312e+3, 1.5467957e+2, -821457.4, -1416706.1, 52691.207, 0.02177663, 0.12779714, -816829.1, 607323.44, 0.001005355, 10.00535, 9.99745 
1.6451944e+3, 1.6467728e+2, -785098.3, -1260544.8, 47474.484, 0.0070599234, 0.124609284, -780404.2, 545769.7, 0.00015257366, 10.004542, 9.9982395 
1.6451581e+3, 1.7467515e+2, -798675.25, -1211701.5, 45687.85, 0.031627152, 0.0908937, -793681.75, 434511.97, 0.000003794381, 10.003756, 9.9982815 
1.6451217e+3, 1.8467353e+2, -786817.56, -1103251.6, 45747.473, 0.04517649, 0.086441725, -780336.5, 349872.78, 0.0, 10.002938, 9.998747 
1.6450852e+3, 1.9467252e+2, -810729.2, -1060516.5, 43743.938, 0.04472106, 0.11418134, -803290.06, 228929.84, 0.0, 10.002087, 9.998778 
1.6450487e+3, 2.0467152e+2, -828521.0, -1010367.8, 43495.387, 0.04204042, 0.13920458, -818653.0, 115578.64, 0.0, 10.001256, 9.99885 
1.645012e+3, 2.1467052e+2, -846492.5, -966086.75, 47265.652, 0.03736549, 0.159159, -830068.0, 6176.343, 0.0, 10.00045, 9.99887 
1.6449754e+3, 2.2466977e+2, -817798.7, -835522.8, 37094.434, 0.033601414, 0.17643166, -788522.4, -50268.67, 0.0, 9.99969, 9.999459 
1.6449387e+3, 2.3466933e+2, -820633.7, -781979.25, 33765.984, 0.03072569, 0.189591, -762400.4, -122141.336, 0.0, 9.99898, 9.999496 
1.6449018e+3, 2.446691e+2, -790992.44, -657454.3, 19741.79, 0.03293424, 0.1983358, -654596.94, -112334.82, 0.0, 9.998255, 10.000028 
1.6448647e+3, 2.546691e+2, -798509.2, -606241.7, 19829.598, 0.04101458, 0.20028715, -604217.9, -159955.42, 0.0, 9.997513, 10.000063 
1.6448274e+3, 2.6466945e+2, -770428.06, -477647.0, 7380.374, 0.038890526, 0.20665298, -477461.1, -131200.98, 0.0, 9.9967575, 10.000637 
1.6447897e+3, 2.7467012e+2, -782195.44, -428342.44, 8573.984, 0.024850482, 0.21641108, -428134.8, -179880.31, 0.0, 9.995986, 10.000674 
1.6447523e+3, 2.846712e+2, -760205.2, -311981.84, 17710.197, 0.016350057, 0.2364865, -311283.2, -161036.81, 0.0, 9.995229, 10.001164 
1.6447149e+3, 2.946726e+2, -767809.25, -261100.45, 18973.244, 0.014323549, 0.2673986, -260391.0, -208155.88, 0.0, 9.994488, 10.001198 
1.6446777e+3, 3.046747e+2, -725589.4, -62101.29, 25160.387, 0.013121232, 0.29716003, -61148.54, -61148.54, 0.0, 9.993783, 10.002568 
1.6446406e+3, 3.146775e+2, -818939.75, -102149.805, 20856.672, 0.012439875, 0.3252414, -101543.445, -101543.445, 0.0, 9.993121, 10.002611 
1.65535e+3, 1.2472669e+2, -846723.5, -1707451.3, 40293.152, 0.009508463, 0.0957301, -844841.4, 872848.1, 0.010530153, 10.007819, 9.9962845 
1.6553111e+3, 1.3472365e+2, -846988.9, -1633785.9, -3359.881, -0.0502179, 0.14902093, -846974.56, 772745.6, 0.0067687784, 10.007004, 9.996512 
1.6552743e+3, 1.447201e+2, -813747.06, -1484595.0, 25159.205, 0.06312824, 0.11358603, -812804.8, 708950.3, 0.0033528698, 10.006179, 9.99726 
1.6552363e+3, 1.5471724e+2, -832370.9, -1440506.4, 22260.205, 0.010717306, 0.10623046, -831557.1, 592225.25, 0.0010935457, 10.005353, 9.997287 
1.6551988e+3, 1.647148e+2, -788751.75, -1269458.3, 18538.793, -0.0005599625, 0.09644374, -788037.8, 537767.8, 0.00017177306, 10.004545, 9.9981785 
1.6551618e+3, 1.7471279e+2, -802215.06, -1220450.3, 16772.715, 0.03882658, 0.081458814, -801543.5, 426280.8, 0.0000047681788, 10.003758, 9.998221 
1.6551246e+3, 1.8471126e+2, -790587.9, -1112469.3, 14474.459, 0.056047276, 0.09022805, -789938.3, 339901.28, 0.0, 10.002942, 9.998684 
1.6550872e+3, 1.9471024e+2, -814442.25, -1069734.3, 12356.483, 0.04698922, 0.124580175, -813845.56, 218005.19, 0.0, 10.0020895, 9.998714 
1.6550498e+3, 2.0470923e+2, -821173.25, -996599.44, 13836.026, 0.040247187, 0.1490296, -820088.7, 113773.695, 0.0, 10.00126, 9.998944 
1.6550125e+3, 2.1470825e+2, -838803.6, -951460.56, 17642.451, 0.036643475, 0.16051996, -836105.4, -231.11247, 0.0, 10.000453, 9.99897 
1.6549751e+3, 2.2470753e+2, -821798.75, -845108.8, 10958.182, 0.036533155, 0.17887749, -817456.2, -79572.9, 0.0, 9.999693, 9.999393 
1.6549376e+3, 2.3470713e+2, -825015.4, -792402.44, 7756.8955, 0.040278185, 0.20368022, -790651.5, -150762.6, 0.0, 9.998982, 9.999425 
1.6549e+3, 2.4470685e+2, -788382.2, -653448.9, -7494.5776, 0.04056051, 0.20981687, -653033.9, -111141.266, 0.0, 9.998258, 10.000054 
1.6548622e+3, 2.547067e+2, -795619.44, -601777.94, -7315.9937, 0.03694466, 0.19345999, -601502.2, -157608.19, 0.0, 9.997517, 10.000093 
1.654824e+3, 2.6470703e+2, -764781.8, -467606.7, -20872.4, 0.031816144, 0.19518861, -466147.84, -120256.516, 0.0, 9.996761, 10.000706 
1.6547856e+3, 2.747079e+2, -776481.6, -418298.88, -19575.328, 0.024719536, 0.21550685, -417232.22, -169348.3, 0.0, 9.995991, 10.000742 
1.6547474e+3, 2.84709e+2, -754768.8, -302798.1, -9174.806, 0.019027228, 0.23396285, -302611.94, -152736.94, 0.0, 9.9952345, 10.001226 
1.6547093e+3, 2.9471037e+2, -762163.9, -251851.1, -7707.478, 0.0150711285, 0.24944378, -251734.72, -199870.69, 0.0, 9.994495, 10.001259 
1.6546714e+3, 3.0471236e+2, -729317.3, -72581.45, 1377.7552, 0.00933617, 0.2706492, -72578.56, -72578.56, 0.0, 9.993792, 10.002493 
1.6546334e+3, 3.147151e+2, -823197.8, -113544.83, -2831.7458, 0.0011614873, 0.29766068, -113533.53, -113533.53, 0.0, 9.99313, 10.002531 
1.6653578e+3, 1.2476535e+2, -849995.7, -1715431.8, 56649.492, 0.008068879, 0.08649982, -846303.3, 871006.5, 0.011108726, 10.007832, 9.996222 
1.6653182e+3, 1.3476236e+2, -843128.75, -1633050.6, 9391.593, -0.05000237, 0.14749017, -843017.06, 776323.1, 0.0071735983, 10.007042, 9.996497 
1.6652805e+3, 1.4475882e+2, -808952.2, -1486099.9, 40430.965, 0.05836371, 0.11505619, -806546.7, 714828.6, 0.0035828378, 10.006233, 9.997223 
1.6652417e+3, 1.5475586e+2, -826870.3, -1442206.9, 45588.16, 0.007821562, 0.10249744, -823511.2, 599892.4, 0.0011869413, 10.005413, 9.997245 
1.6652034e+3, 1.6475333e+2, -784758.94, -1275058.0, 46801.684, -0.00030506714, 0.09177846, -780331.44, 545096.1, 0.00019231174, 10.004608, 9.998108 
1.6651657e+3, 1.747513e+2, -798836.1, -1226629.0, 43680.766, 0.043284215, 0.08120682, -794421.56, 433025.22, 0.0000058024802, 10.003818, 9.998149 
1.6651276e+3, 1.8474971e+2, -782141.25, -1112861.3, 39822.906, 0.06072989, 0.09127402, -777413.6, 352049.0, 0.0, 10.003022, 9.998641 
1.6650894e+3, 1.9474863e+2, -799048.5, -1066730.8, 38771.43, 0.047637694, 0.1229292, -793545.94, 237928.67, 0.0, 10.002217, 9.9986725 
1.665051e+3, 2.0474759e+2, -797028.7, -977639.75, 39654.813, 0.03973707, 0.14387095, -788705.7, 144780.69, 0.0, 10.001396, 9.999007 
1.665013e+3, 2.1474662e+2, -819359.1, -934357.9, 40410.8, 0.038193602, 0.15114115, -806578.94, 28918.629, 0.0, 10.000556, 9.999037 
1.6649747e+3, 2.2474594e+2, -816534.06, -844091.5, 36376.4, 0.038517874, 0.17073715, -791414.25, -53907.96, 0.0, 9.999738, 9.999377 
1.6649365e+3, 2.3474559e+2, -831888.8, -797513.4, 36790.52, 0.040931124, 0.20265368, -774093.7, -134581.73, 0.0, 9.998946, 9.999406 
1.6648982e+3, 2.4474531e+2, -798138.6, -656426.5, 23154.105, 0.039861254, 0.21055163, -652739.3, -111223.51, 0.0, 9.998186, 10.000068 
1.6648595e+3, 2.5474513e+2, -802931.5, -603629.44, 21567.979, 0.03469091, 0.19030029, -601322.1, -157804.7, 0.0, 9.997462, 10.000106 
1.6648206e+3, 2.6474547e+2, -770073.7, -470109.44, 3182.788, 0.028689872, 0.19293937, -470075.66, -124560.98, 0.0, 9.996728, 10.000703 
1.6647816e+3, 2.747464e+2, -778079.6, -419087.16, -1481.257, 0.021712486, 0.21937768, -419081.03, -171574.03, 0.0, 9.995983, 10.000739 
1.6647425e+3, 2.8474754e+2, -746859.2, -291259.78, 7290.9165, 0.017112985, 0.2391507, -291143.16, -141645.6, 0.0, 9.995258, 10.001292 
1.6647038e+3, 2.947489e+2, -748608.94, -237453.02, 8784.732, 0.015180945, 0.25052407, -237302.1, -185816.22, 0.0, 9.994557, 10.001327 
1.664665e+3, 3.047509e+2, -723334.4, -70822.58, 20880.574, 0.0083923545, 0.2671033, -70155.08, -70155.08, 0.0, 9.99384, 10.0024805 
1.6646264e+3, 3.1475353e+2, -827625.94, -117150.59, 21230.172, -0.0041593323, 0.2887888, -116516.766, -116516.766, 0.0, 9.993109, 10.002515 
1.6753656e+3, 1.2480475e+2, -855898.3, -1728247.9, 29467.748, 0.0061189765, 0.09306589, -854904.06, 862019.44, 0.011717635, 10.007835, 9.996134 
1.675325e+3, 1.348016e+2, -845775.75, -1639042.0, -19593.678, -0.052681584, 0.1401766, -845292.06, 773663.75, 0.0075997477, 10.007043, 9.996457 
1.6752864e+3, 1.4479809e+2, -804694.94, -1477767.5, 10490.367, 0.052719332, 0.11146033, -804531.5, 716458.94, 0.0038253893, 10.006233, 9.997281 
1.6752471e+3, 1.5479535e+2, -822513.6, -1433976.3, 15328.362, 0.012438567, 0.11521534, -822129.6, 600886.8, 0.0012859871, 10.005414, 9.997303 
1.6752079e+3, 1.6479285e+2, -790684.25, -1288448.4, 17617.148, 0.0071386658, 0.10868764, -790061.5, 534978.7, 0.00021438973, 10.00461, 9.998017 
1.6751693e+3, 1.7479064e+2, -804980.1, -1240621.3, 14558.337, 0.045014445, 0.08943753, -804494.2, 422567.22, 0.000006937598, 10.00382, 9.998053 
1.6751304e+3, 1.8478888e+2, -783922.1, -1117806.1, 10249.411, 0.059498306, 0.08961304, -783607.8, 345471.0, 0.0, 10.003024, 9.998608 
1.6750914e+3, 1.9478764e+2, -800759.1, -1071526.9, 9208.516, 0.046745863, 0.10958079, -800446.3, 230645.6, 0.0, 10.00222, 9.99864 
1.6750523e+3, 2.0478652e+2, -795085.4, -974840.3, 8797.535, 0.040492207, 0.12412448, -794655.9, 138448.13, 0.0, 10.001399, 9.999027 
1.6750135e+3, 2.1478559e+2, -817261.56, -931314.9, 9473.137, 0.042006504, 0.131101, -816480.06, 18634.656, 0.0, 10.000559, 9.999058 
1.6749746e+3, 2.2478493e+2, -814275.75, -840781.25, 7223.2876, 0.03943416, 0.15182611, -812435.06, -75311.984, 0.0, 9.999742, 9.9994 
1.6749354e+3, 2.3478463e+2, -829614.3, -794098.44, 7762.1313, 0.032335877, 0.18611237, -792476.06, -153347.5, 0.0, 9.998949, 9.99943 
1.6748962e+3, 2.4478443e+2, -798640.6, -658757.9, -3413.3477, 0.030572485, 0.2003083, -658674.6, -117542.6, 0.0, 9.998189, 10.0000515 
1.674857e+3, 2.5478435e+2, -803589.2, -606327.06, -4900.492, 0.034451116, 0.19120987, -606205.44, -163072.44, 0.0, 9.997465, 10.000088 
1.6748174e+3, 2.647847e+2, -775807.25, -483417.13, -24215.408, 0.029687107, 0.20056216, -481425.2, -136294.63, 0.0, 9.996731, 10.000612 
1.6747773e+3, 2.7478555e+2, -783867.3, -432631.4, -28922.617, 0.015429943, 0.22839773, -430265.7, -183141.45, 0.0, 9.995986, 10.000646 
1.6747376e+3, 2.847867e+2, -741722.5, -282373.88, -18520.705, 0.010101735, 0.25300065, -281628.34, -132513.72, 0.0, 9.995263, 10.001352 
1.6746983e+3, 2.947882e+2, -743138.75, -228170.27, -17018.178, 0.014594615, 0.27323216, -227608.47, -176507.33, 0.0, 9.994563, 10.001389 
1.674659e+3, 3.0479026e+2, -719052.7, -64085.355, -6087.5317, 0.010690313, 0.2898002, -64028.777, -64028.777, 0.0, 9.993847, 10.002525 
1.6746195e+3, 3.1479284e+2, -823562.06, -110494.08, -5573.853, -0.0027714353, 0.30143744, -110450.51, -110450.51, 0.0, 9.993113, 10.00256 
1.6853735e+3, 1.24844745e+2, -838864.9, -1718425.0, 49907.316, 0.00612269, 0.090614356, -836042.1, 880489.1, 0.012356475, 10.007956, 9.996141 
1.685332e+3, 1.3484155e+2, -834527.1, -1627099.4, 5044.07, -0.051858056, 0.13055524, -834495.06, 784068.5, 0.008047478, 10.007099, 9.9965105 
1.6852926e+3, 1.448381e+2, -804987.7, -1481154.8, 35065.438, 0.04876744, 0.10520298, -803174.06, 717423.8, 0.0040811393, 10.006249, 9.997249 
1.6852523e+3, 1.5483537e+2, -825308.3, -1439006.1, 32910.887, 0.013369851, 0.115119316, -823548.44, 599075.56, 0.00139141, 10.005414, 9.997267 
1.6852126e+3, 1.6483289e+2, -793614.8, -1293718.6, 35137.79, 0.009380943, 0.113154724, -791158.06, 533489.94, 0.00023845183, 10.004609, 9.99798 
1.685173e+3, 1.7483066e+2, -805559.4, -1244932.8, 35693.54, 0.04399889, 0.09682325, -802678.6, 423990.8, 0.000008248046, 10.003837, 9.998014 
1.6851334e+3, 1.8482885e+2, -781248.1, -1114076.6, 33489.527, 0.058312107, 0.09314596, -777911.8, 350775.47, 0.0, 10.003035, 9.998627 
1.6850936e+3, 1.9482751e+2, -802475.9, -1069832.0, 35751.492, 0.04912466, 0.10185792, -797777.6, 232923.2, 0.0, 10.0022, 9.99866 
1.6850537e+3, 2.0482638e+2, -796707.75, -969997.3, 37281.703, 0.044673115, 0.11202618, -789027.4, 143685.45, 0.0, 10.001367, 9.999074 
1.6850139e+3, 2.148255e+2, -817743.25, -925859.94, 39506.715, 0.046021413, 0.12204941, -804845.75, 29876.875, 0.0, 10.000534, 9.999105 
1.6849741e+3, 2.2482488e+2, -814742.0, -842748.44, 38886.098, 0.04093557, 0.1442744, -787414.6, -50683.81, 0.0, 9.999748, 9.999382 
1.6849342e+3, 2.3482455e+2, -821853.2, -792133.4, 35739.88, 0.028784666, 0.17829402, -768287.3, -129550.52, 0.0, 9.999013, 9.999411 
1.6848943e+3, 2.4482433e+2, -793097.8, -663783.94, 21081.541, 0.024202038, 0.19744153, -660433.9, -119693.3, 0.0, 9.998263, 9.99998 
1.6848542e+3, 2.5482428e+2, -803862.44, -614324.5, 15001.159, 0.027781647, 0.19919972, -613144.56, -170402.73, 0.0, 9.997499, 10.000014 
1.684814e+3, 2.6482463e+2, -772696.1, -485359.66, -3896.0686, 0.022748087, 0.21053407, -485306.84, -140566.78, 0.0, 9.99677, 10.000578 
1.6847733e+3, 2.7482533e+2, -773360.06, -431047.03, -4408.7603, 0.008151247, 0.23072089, -430990.28, -184255.47, 0.0, 9.996077, 10.000612 
1.6847329e+3, 2.848265e+2, -730216.1, -274531.8, 5278.4805, 0.0048807296, 0.25507018, -274470.66, -125745.38, 0.0, 9.995335, 10.00137 
1.6846928e+3, 2.948281e+2, -744737.44, -226613.34, 2712.1204, 0.0139677655, 0.28290707, -226599.16, -175888.3, 0.0, 9.994545, 10.001407 
1.6846526e+3, 3.0483013e+2, -728592.9, -68455.945, 10000.778, 0.009553351, 0.30019546, -68304.48, -68304.48, 0.0, 9.993783, 10.002523 
1.6846125e+3, 3.1483263e+2, -833013.1, -114816.06, 6369.6157, -0.009668981, 0.30509317, -114759.58, -114759.58, 0.0, 9.993051, 10.002559 
1.6953813e+3, 1.2488533e+2, -834325.4, -1707193.4, 20446.154, 0.0056773103, 0.08231899, -833846.7, 882286.4, 0.013021381, 10.00795, 9.996223 
1.6953391e+3, 1.3488223e+2, -826259.6, -1609475.3, -26389.242, -0.04799607, 0.11887607, -825371.5, 792792.4, 0.0085150665, 10.007098, 9.9966345 
1.6952987e+3, 1.448788e+2, -813737.56, -1499801.8, 4554.7407, 0.04622899, 0.09636377, -813707.3, 706490.6, 0.004349964, 10.00625, 9.997122 
1.6952577e+3, 1.5487593e+2, -834090.8, -1458289.5, 2462.908, 0.010863866, 0.1033295, -834081.1, 588145.25, 0.0015037948, 10.005415, 9.997135 
1.695217e+3, 1.648734e+2, -792860.1, -1293341.3, 7090.7485, 0.0067886533, 0.10631159, -792759.7, 531491.3, 0.00026490664, 10.004611, 9.997983 
1.6951768e+3, 1.7487133e+2, -804833.75, -1244528.5, 7524.222, 0.04041874, 0.10350903, -804705.0, 421566.25, 0.000009795661, 10.003838, 9.998018 
1.6951364e+3, 1.8486957e+2, -776728.5, -1105777.1, 2938.4248, 0.057218064, 0.101589344, -776702.25, 351586.2, 0.0, 10.0030365, 9.998684 
1.6950959e+3, 1.9486818e+2, -797821.0, -1061418.8, 5070.0693, 0.05467081, 0.0995366, -797723.56, 232578.42, 0.0, 10.002202, 9.998718 
1.695055e+3, 2.048671e+2, -791640.7, -960836.6, 6631.7104, 0.052120164, 0.10743395, -791381.2, 140932.08, 0.0, 10.001369, 9.999138 
1.6950145e+3, 2.1486636e+2, -812673.75, -916715.4, 8861.649, 0.050182458, 0.12401537, -811924.4, 22397.422, 0.0, 10.000537, 9.999168 
1.6949739e+3, 2.2486573e+2, -819163.56, -853378.2, 11908.441, 0.043071367, 0.14822961, -815426.9, -79097.09, 0.0, 9.999751, 9.999309 
1.6949332e+3, 2.348653e+2, -826276.9, -802906.6, 8834.958, 0.03043456, 0.17941767, -799942.56, -161605.67, 0.0, 9.999017, 9.999337 
1.6948925e+3, 2.4486502e+2, -802235.94, -684460.56, -6989.0356, 0.020714002, 0.20228064, -684047.25, -143705.39, 0.0, 9.998267, 9.999838 
1.6948515e+3, 2.5486493e+2, -813130.44, -635232.3, -13132.402, 0.01413287, 0.21470682, -634268.1, -191923.78, 0.0, 9.997504, 9.99987 
1.6948104e+3, 2.6486513e+2, -770552.56, -482754.44, -29482.64, 0.0073032463, 0.22295207, -479765.22, -135421.6, 0.0, 9.996775, 10.000595 
1.6947691e+3, 2.7486572e+2, -770928.8, -428161.03, -29771.865, -0.00015702147, 0.2256336, -425594.34, -179255.16, 0.0, 9.996082, 10.00063 
1.6947281e+3, 2.8486678e+2, -732257.3, -280831.06, -23758.74, 0.0015788003, 0.24406259, -279584.06, -131254.0, 0.0, 9.99534, 10.001326 
1.6946873e+3, 2.948684e+2, -747253.94, -233371.05, -26497.2, 0.013186862, 0.2779268, -232008.39, -181692.72, 0.0, 9.994549, 10.00136 
1.6946462e+3, 3.0487043e+2, -732689.56, -78295.74, -17085.709, 0.004343782, 0.29661995, -77849.95, -77849.95, 0.0, 9.993786, 10.002457 
1.6946052e+3, 3.1487283e+2, -837111.6, -124754.1, -20882.209, -0.026363973, 0.29840502, -124142.484, -124142.484, 0.0, 9.993053, 10.002491 
1.7053892e+3, 1.24926716e+2, -846228.56, -1710523.0, 49911.86, 0.016108632, 0.07123796, -843355.75, 872371.2, 0.013707588, 10.007865, 9.99624 
1.7053463e+3, 1.349237e+2, -827633.25, -1603716.0, -3544.3005, -0.042520158, 0.11005711, -827617.06, 790139.94, 0.009000151, 10.007067, 9.996688 
1.705305e+3, 1.4492033e+2, -812469.3, -1498738.5, 29486.947, 0.042477544, 0.09337369, -811204.7, 708585.56, 0.0046313494, 10.006262, 9.997122 
1.7052631e+3, 1.549174e+2, -828680.5, -1455564.5, 35974.547, 0.01028424, 0.09589074, -826622.8, 595196.5, 0.0016233547, 10.005456, 9.997133 
1.7052215e+3, 1.6491489e+2, -790730.0, -1294471.9, 44634.95, 0.0054686107, 0.099388905, -786805.6, 537038.7, 0.0002939538, 10.004638, 9.997961 
1.7051806e+3, 1.7491283e+2, -811316.9, -1249948.9, 42717.855, 0.033924695, 0.10255945, -807195.4, 418669.16, 0.000011612507, 10.003806, 9.997994 
1.7051393e+3, 1.8491106e+2, -783429.44, -1107539.6, 34401.402, 0.05141726, 0.10158336, -779818.25, 348063.5, 0.0, 10.002987, 9.998694 
1.7050979e+3, 1.9490963e+2, -800722.56, -1061415.4, 32556.068, 0.055829756, 0.09510035, -796718.4, 233177.02, 0.0, 10.002179, 9.998728 
1.7050564e+3, 2.0490853e+2, -788519.5, -961690.25, 29948.273, 0.055669427, 0.103046276, -783486.5, 148420.25, 0.0, 10.001404, 9.999114 
1.705015e+3, 2.1490781e+2, -796349.9, -911146.2, 25159.46, 0.051420037, 0.12422457, -791077.9, 42837.453, 0.0, 10.000662, 9.9991455 
1.7049736e+3, 2.2490719e+2, -800069.2, -841065.44, 28143.469, 0.042588282, 0.14929378, -785750.25, -49826.965, 0.0, 9.999872, 9.999334 
1.7049322e+3, 2.3490675e+2, -821970.44, -797619.25, 32197.59, 0.028912399, 0.17745611, -775372.0, -137441.84, 0.0, 9.999035, 9.999363 
1.7048904e+3, 2.4490644e+2, -809510.6, -696693.4, 23716.28, 0.017004754, 0.20038132, -691910.5, -151974.86, 0.0, 9.998259, 9.999757 
1.7048489e+3, 2.549063e+2, -813424.5, -644304.0, 21827.553, 0.006895397, 0.21621647, -641532.25, -199592.98, 0.0, 9.997543, 9.999787 
1.7048071e+3, 2.649065e+2, -763575.1, -476750.78, 8147.891, 0.0006897412, 0.2251393, -476519.5, -132580.47, 0.0, 9.996815, 10.000616 
1.7047651e+3, 2.7490705e+2, -771228.1, -425670.2, 7491.6475, -0.0016929115, 0.22547323, -425507.84, -179573.45, 0.0, 9.996072, 10.000651 
1.7047234e+3, 2.8490812e+2, -736935.4, -286410.53, 11409.226, -0.00017948994, 0.24318802, -286121.78, -138196.5, 0.0, 9.995326, 10.001293 
1.7046817e+3, 2.949097e+2, -745864.06, -236212.95, 8980.215, 0.0056774896, 0.27812237, -236054.78, -186143.58, 0.0, 9.994576, 10.001326 
1.70464e+3, 3.049116e+2, -729742.06, -76373.89, 21391.379, -0.004716724, 0.2915066, -75674.29, -75674.29, 0.0, 9.993807, 10.002458 
1.7045982e+3, 3.149139e+2, -842437.7, -126846.914, 22329.342, -0.032567084, 0.28158537, -126150.82, -126150.82, 0.0, 9.993018, 10.002492 
1.7153971e+3, 1.2496889e+2, -850409.1, -1718528.6, 22267.605, 0.033010248, 0.059979975, -849838.3, 865474.9, 0.014412495, 10.007864, 9.996186 
1.7153531e+3, 1.3496588e+2, -829369.25, -1607112.4, -32477.797, -0.035723813, 0.10390573, -828015.4, 789327.94, 0.009501577, 10.007066, 9.996666 
1.715311e+3, 1.4496267e+2, -805247.06, -1483912.8, 389.12985, 0.037682857, 0.09564392, -805246.9, 714128.4, 0.0049250866, 10.006261, 9.997227 
1.7152685e+3, 1.5495978e+2, -821271.1, -1440762.0, 6498.123, 0.011414676, 0.09232823, -821203.0, 600200.5, 0.0017501254, 10.005456, 9.997236 
1.715226e+3, 1.6495724e+2, -794517.1, -1303121.1, 14159.308, 0.005223533, 0.09227716, -794123.25, 529305.25, 0.00032567565, 10.004639, 9.997904 
1.7151842e+3, 1.7495511e+2, -815191.4, -1258830.8, 12223.998, 0.024630288, 0.09442632, -814854.8, 410594.94, 0.000013729934, 10.003806, 9.997935 
1.7151421e+3, 1.8495329e+2, -786237.7, -1114459.9, 4797.464, 0.041106604, 0.09364943, -786167.6, 341300.03, 0.0, 10.002988, 9.998649 
1.7151e+3, 1.9495183e+2, -803418.56, -1068441.1, 2934.4597, 0.05276053, 0.088680595, -803386.06, 226095.52, 0.0, 10.002182, 9.99868 
1.7150578e+3, 2.0495068e+2, -796356.3, -979477.94, 2774.6182, 0.0554336, 0.09882662, -796314.25, 135179.52, 0.0, 10.001407, 9.998992 
1.7150155e+3, 2.1494985e+2, -804194.2, -928895.56, -2043.2002, 0.04972213, 0.12264801, -804160.7, 29343.02, 0.0, 10.000665, 9.999023 
1.7149733e+3, 2.2494923e+2, -791375.06, -824518.2, -2604.6392, 0.039388195, 0.1474164, -791171.6, -55659.977, 0.0, 9.999875, 9.999448 
1.714931e+3, 2.3494887e+2, -813142.06, -780785.5, 1447.8907, 0.024103936, 0.1723259, -780720.9, -143203.81, 0.0, 9.999039, 9.999478 
1.7148887e+3, 2.4494857e+2, -810874.06, -701139.56, -2465.6597, 0.01312098, 0.19138001, -701084.2, -161561.84, 0.0, 9.998262, 9.999725 
1.7148463e+3, 2.5494835e+2, -814679.8, -648713.94, -4221.7505, 0.0065173483, 0.20280148, -648606.6, -207079.6, 0.0, 9.997548, 9.999757 
1.7148039e+3, 2.6494858e+2, -761951.25, -475217.34, -18989.39, 0.0035461, 0.21649441, -473965.22, -130438.58, 0.0, 9.9968195, 10.000626 
1.7147613e+3, 2.7494928e+2, -769815.7, -424376.8, -19512.133, 0.004111379, 0.23098394, -423278.16, -177757.58, 0.0, 9.996076, 10.00066 
1.7147186e+3, 2.8495038e+2, -738468.4, -291229.38, -15727.126, -0.00039551946, 0.25363716, -290677.03, -143165.9, 0.0, 9.99533, 10.00126 
1.7146759e+3, 2.949519e+2, -747211.5, -241045.36, -18063.69, -0.0096286675, 0.28411135, -240401.53, -190903.9, 0.0, 9.994582, 10.001291 
1.7146334e+3, 3.049537e+2, -723943.06, -66541.195, -7013.743, -0.018077709, 0.28447828, -66466.375, -66466.375, 0.0, 9.9938135, 10.002524 
1.7145911e+3, 3.1495583e+2, -836778.44, -117024.66, -5857.0366, -0.026462212, 0.25280675, -116977.0, -116977.0, 0.0, 9.993023, 10.002559 
1.7254049e+3, 1.2501204e+2, -845514.4, -1716704.1, 53416.387, 0.035459813, 0.062759094, -842251.44, 872638.6, 0.015136546, 10.00791, 9.996176 
1.7253602e+3, 1.3500895e+2, -828183.9, -1604400.8, -346.31717, -0.029721059, 0.096559174, -828183.75, 788737.4, 0.010019829, 10.007072, 9.99668 
1.7253171e+3, 1.4500578e+2, -805844.2, -1479311.9, 31717.266, 0.03656548, 0.0931212, -804353.75, 714598.6, 0.005231402, 10.006241, 9.997267 
1.7252737e+3, 1.5500295e+2, -823684.44, -1437093.8, 32980.17, 0.01027449, 0.091295525, -821916.4, 599063.7, 0.0018841632, 10.005422, 9.997276 
1.7252307e+3, 1.6500044e+2, -802734.8, -1307108.8, 38803.863, 0.0035765092, 0.09298848, -799766.94, 523237.97, 0.0003601873, 10.004585, 9.9979 
1.7251877e+3, 1.7499833e+2, -827324.0, -1264873.1, 40254.793, 0.02134732, 0.09746147, -823651.3, 401374.88, 0.000016213808, 10.003727, 9.997931 
1.7251448e+3, 1.8499647e+2, -796378.5, -1123611.0, 37729.82, 0.036578547, 0.09664002, -792084.6, 334959.84, 0.0, 10.00294, 9.998608 
1.725102e+3, 1.9499496e+2, -800663.2, -1071466.3, 35827.184, 0.047720626, 0.08928617, -796003.44, 233055.61, 0.0, 10.002222, 9.998638 
1.7250592e+3, 2.0499371e+2, -789111.75, -976966.25, 39212.94, 0.052373566, 0.09525859, -781255.0, 149816.84, 0.0, 10.001464, 9.99898 
1.7250161e+3, 2.149928e+2, -805444.06, -930482.9, 42204.79, 0.05109134, 0.11306497, -792531.9, 40550.566, 0.0, 10.000664, 9.999012 
1.7249732e+3, 2.2499219e+2, -791631.8, -822468.44, 39851.28, 0.042182945, 0.13843086, -764320.2, -29229.86, 0.0, 9.999867, 9.999464 
1.72493e+3, 2.3499191e+2, -806553.7, -775342.06, 35826.57, 0.02540517, 0.17026168, -751869.94, -114775.016, 0.0, 9.999077, 9.9994955 
1.7248869e+3, 2.449916e+2, -806999.1, -698820.1, 31374.523, 0.013150761, 0.19063674, -690379.3, -151279.2, 0.0, 9.99829, 9.999726 
1.7248437e+3, 2.5499135e+2, -820606.9, -650983.6, 31656.174, 0.0054884865, 0.19804385, -645268.3, -204162.86, 0.0, 9.997508, 9.999759 
1.7248005e+3, 2.649916e+2, -770787.7, -481172.66, 17406.89, 0.003462447, 0.21557559, -480130.22, -137025.2, 0.0, 9.996769, 10.0006075 
1.7247573e+3, 2.749924e+2, -771935.25, -427258.38, 14164.237, 0.0069076936, 0.24185923, -426677.28, -181578.92, 0.0, 9.996073, 10.00064 
1.7247139e+3, 2.8499347e+2, -734101.2, -290279.06, 16676.203, -0.00057715166, 0.26396307, -289653.38, -142564.25, 0.0, 9.995368, 10.001246 
1.7246704e+3, 2.949948e+2, -737535.5, -237609.73, 15305.928, -0.018635627, 0.28139582, -237141.56, -188064.84, 0.0, 9.9946575, 10.001277 
1.724627e+3, 3.0499658e+2, -716167.75, -57657.125, 21245.725, -0.027663585, 0.27684054, -56972.38, -56972.38, 0.0, 9.993848, 10.002567 
1.724584e+3, 3.149988e+2, -845893.8, -116276.305, 19864.078, -0.028067918, 0.24844362, -115735.9, -115735.9, 0.0, 9.992942, 10.002601 
1.7354126e+3, 1.2505613e+2, -846038.8, -1715719.5, 23580.396, 0.024102375, 0.0785227, -845399.94, 869058.3, 0.015881792, 10.007903, 9.996187 
1.7353672e+3, 1.3505283e+2, -826900.0, -1600470.4, -30916.41, -0.0243563, 0.08804908, -825666.4, 790824.6, 0.010556024, 10.007067, 9.996713 
1.7353234e+3, 1.4504968e+2, -808435.7, -1484161.4, 2140.8438, 0.03852667, 0.08649332, -808428.94, 710093.1, 0.0055506397, 10.006237, 9.997236 
1.7352791e+3, 1.5504691e+2, -825685.9, -1441549.4, 3299.157, 0.00703772, 0.09265075, -825668.2, 594881.4, 0.0020255777, 10.005421, 9.997249 
1.735235e+3, 1.6504446e+2, -800007.4, -1302245.0, 7590.0703, 0.0007377255, 0.10089283, -799892.7, 522681.16, 0.0003976608, 10.004585, 9.997935 
1.7351913e+3, 1.7504244e+2, -824425.94, -1260015.9, 8825.979, 0.02369005, 0.110885665, -824247.2, 400347.2, 0.000019163283, 10.003729, 9.997965 
1.7351478e+3, 1.8504058e+2, -799145.06, -1130748.5, 11576.609, 0.03737908, 0.10987961, -798741.4, 327871.25, 0.0, 10.002942, 9.998559 
1.7351042e+3, 1.9503894e+2, -803452.75, -1078640.5, 9632.121, 0.040635463, 0.096590176, -803116.0, 225512.22, 0.0, 10.002225, 9.9985895 
1.7350604e+3, 2.0503761e+2, -782471.9, -964553.3, 9896.216, 0.046561424, 0.092212476, -781935.56, 148705.89, 0.0, 10.001467, 9.999065 
1.7350167e+3, 2.1503665e+2, -798836.5, -918237.25, 12809.658, 0.05555924, 0.095396176, -797477.75, 35174.184, 0.0, 10.000667, 9.999096 
1.734973e+3, 2.2503604e+2, -797725.0, -836665.5, 10918.595, 0.051018663, 0.122401625, -794872.44, -60212.805, 0.0, 9.999871, 9.999367 
1.7349291e+3, 2.3503582e+2, -812649.6, -789648.5, 6885.765, 0.032963783, 0.17152809, -787744.7, -151080.5, 0.0, 9.999081, 9.999397 
1.7348851e+3, 2.4503557e+2, -804493.8, -695340.6, 2673.7937, 0.017173199, 0.19854791, -695275.2, -156605.73, 0.0, 9.998294, 9.99975 
1.7348412e+3, 2.5503528e+2, -818195.6, -647483.75, 3012.5518, 0.0036567708, 0.20250055, -647430.6, -206755.88, 0.0, 9.997511, 9.999783 
1.7347972e+3, 2.6503554e+2, -774596.9, -490604.88, -7959.187, 0.00013663508, 0.2230128, -490382.0, -147707.56, 0.0, 9.996772, 10.000543 
1.7347531e+3, 2.7503636e+2, -775615.8, -436676.47, -11128.322, 0.0063244286, 0.25856963, -436311.5, -191643.45, 0.0, 9.996078, 10.000575 
1.7347091e+3, 2.8503734e+2, -733341.1, -290826.13, -9196.942, -0.0006995967, 0.27395105, -290635.06, -143975.34, 0.0, 9.995374, 10.001242 
1.7346649e+3, 2.950385e+2, -736539.4, -238114.55, -10423.712, -0.02041095, 0.2687538, -237896.64, -189247.69, 0.0, 9.994665, 10.001272 
1.7346208e+3, 3.0504027e+2, -714982.3, -57516.086, -12124.072, -0.033084694, 0.26901522, -57292.59, -57292.59, 0.0, 9.9938545, 10.002566 
1.7345768e+3, 3.1504285e+2, -845289.9, -116508.19, -13544.575, -0.03908666, 0.275004, -116256.55, -116256.55, 0.0, 9.992945, 10.0026 
1.7454204e+3, 1.2510097e+2, -853588.06, -1713513.0, 49324.574, 0.025058797, 0.089895114, -850768.1, 863251.25, 0.016650317, 10.007834, 9.996234 
1.7453742e+3, 1.350976e+2, -837475.56, -1598521.5, -3940.8494, -0.020826189, 0.08613741, -837455.1, 778597.4, 0.011110727, 10.00697, 9.996771 
1.7453295e+3, 1.4509451e+2, -820046.8, -1484510.6, 34203.3, 0.038445916, 0.08757222, -818290.8, 699791.9, 0.0058826543, 10.00614, 9.997279 
1.7452843e+3, 1.5509178e+2, -833597.5, -1440229.4, 39842.66, 0.0112676835, 0.0948842, -830991.9, 589117.94, 0.0021742263, 10.005348, 9.997291 
1.7452395e+3, 1.6508935e+2, -808817.56, -1309300.6, 42542.375, 0.0043286807, 0.10420028, -805227.1, 516906.94, 0.00043814792, 10.00454, 9.997907 
1.7451951e+3, 1.7508732e+2, -828579.7, -1264822.1, 38867.996, 0.02155265, 0.11535728, -825143.75, 399011.2, 0.000022658158, 10.0037155, 9.997937 
1.7451505e+3, 1.8508542e+2, -801257.4, -1131813.3, 44671.477, 0.032649446, 0.113263115, -795326.9, 330846.7, 0.0, 10.002932, 9.998555 
1.7451061e+3, 1.9508372e+2, -809836.6, -1081916.5, 45432.31, 0.036321715, 0.09678146, -802450.75, 225738.8, 0.0, 10.002185, 9.998585 
1.7450617e+3, 2.0508242e+2, -785819.94, -963117.9, 42785.79, 0.04475586, 0.093297966, -776034.8, 154167.75, 0.0, 10.001433, 9.999089 
1.7450173e+3, 2.1508151e+2, -796044.0, -914096.75, 40529.68, 0.05840848, 0.10110246, -783468.94, 48743.32, 0.0, 10.000677, 9.999118 
1.7449728e+3, 2.2508088e+2, -795389.75, -837136.7, 38192.652, 0.055985652, 0.12530479, -772738.75, -38518.55, 0.0, 9.999897, 9.999349 
1.744928e+3, 2.3508054e+2, -812138.7, -791149.25, 39669.504, 0.037718464, 0.16452636, -760609.75, -124383.86, 0.0, 9.999095, 9.999378 
1.7448834e+3, 2.4508026e+2, -796376.0, -688413.9, 39777.418, 0.020027267, 0.19125576, -675341.25, -137110.05, 0.0, 9.99834, 9.999774 
1.7448387e+3, 2.550801e+2, -799368.3, -635422.44, 39527.934, 0.0029520772, 0.20430295, -626389.75, -186154.2, 0.0, 9.997631, 9.999806 
1.744794e+3, 2.650804e+2, -759137.7, -490114.63, 29265.4, -0.002492595, 0.22971338, -486967.8, -144732.55, 0.0, 9.996912, 10.000477 
1.7447491e+3, 2.7508116e+2, -764705.44, -438272.6, 25485.637, 0.0032111881, 0.2660216, -436294.8, -192064.97, 0.0, 9.996185, 10.00051 
1.7447044e+3, 2.8508204e+2, -724924.5, -283216.97, 26439.85, -0.0020128766, 0.2772133, -281639.97, -135417.94, 0.0, 9.9954195, 10.001269 
1.7446595e+3, 2.950831e+2, -741345.0, -236971.97, 27311.482, -0.017565414, 0.26315728, -235497.39, -187286.1, 0.0, 9.99462, 10.001299 
1.7446147e+3, 3.0508488e+2, -718879.94, -65443.24, 21335.52, -0.031436082, 0.26113454, -64747.348, -64747.348, 0.0, 9.993857, 10.002509 
1.7445695e+3, 3.150875e+2, -822589.06, -111392.61, 14895.534, -0.044507165, 0.28076485, -111080.766, -111080.766, 0.0, 9.993129, 10.002544 
1.7554282e+3, 1.2514655e+2, -851419.5, -1705560.9, 18466.648, 0.0337539, 0.09846363, -851020.4, 862553.25, 0.017444327, 10.007823, 9.996296 
1.7553811e+3, 1.3514319e+2, -833726.6, -1589251.5, -34976.6, -0.019002538, 0.09002021, -832110.8, 783495.4, 0.011684069, 10.006965, 9.99684 
1.7553355e+3, 1.4514025e+2, -814054.3, -1471639.1, 5798.78, 0.03669065, 0.09529956, -814003.2, 703631.7, 0.006226812, 10.006136, 9.997372 
1.7552897e+3, 1.5513754e+2, -827439.6, -1427453.1, 11033.867, 0.022217335, 0.09787324, -827236.8, 592424.44, 0.0023296184, 10.005345, 9.997381 
1.755244e+3, 1.6513507e+2, -815669.6, -1324113.0, 12407.724, 0.0135707725, 0.103334896, -815367.0, 506318.9, 0.00048147884, 10.0045395, 9.9978075 
1.7551985e+3, 1.7513289e+2, -834884.1, -1279122.5, 8914.095, 0.01510046, 0.11150203, -834705.3, 389003.03, 0.000026695143, 10.003717, 9.99784 
1.7551534e+3, 1.8513095e+2, -798833.4, -1128206.4, 17586.98, 0.022771742, 0.10737026, -797897.0, 327830.63, 0.000000000016639355, 10.002934, 9.99858 
1.7551081e+3, 1.9512929e+2, -807513.6, -1078491.9, 18209.898, 0.034747906, 0.090118, -806295.4, 221448.02, 0.0, 10.002188, 9.998609 
1.7550631e+3, 2.0512809e+2, -788685.6, -970535.4, 15107.939, 0.04678256, 0.09863304, -787439.0, 142316.61, 0.0, 10.001436, 9.999039 
1.755018e+3, 2.1512736e+2, -798907.5, -921608.0, 12794.571, 0.05953163, 0.1303209, -797587.56, 34176.367, 0.0, 10.00068, 9.999066 
1.7549726e+3, 2.2512665e+2, -791132.25, -829908.06, 8816.679, 0.05699001, 0.14700289, -789221.7, -55449.35, 0.0, 9.999901, 9.999399 
1.7549272e+3, 2.3512597e+2, -807907.06, -784021.75, 10351.654, 0.039574675, 0.14860225, -780159.9, -144379.53, 0.0, 9.999099, 9.999427 
1.7548816e+3, 2.4512567e+2, -794778.94, -687003.5, 13941.176, 0.02166694, 0.16821617, -685229.4, -147443.56, 0.0, 9.998344, 9.9997835 
1.7548361e+3, 2.5512573e+2, -797608.1, -634000.94, 13684.545, 0.0034418483, 0.20350036, -632864.2, -193075.97, 0.0, 9.997637, 9.999815 
1.7547908e+3, 2.6512605e+2, -763487.9, -501611.94, 2704.9363, -0.004464998, 0.23548932, -501584.0, -159796.14, 0.0, 9.996919, 10.000397 
1.7547452e+3, 2.7512664e+2, -768855.75, -449384.13, -1005.3303, -0.0027638495, 0.26315272, -449380.94, -205596.72, 0.0, 9.996192, 10.000432 
1.7546996e+3, 2.851275e+2, -720193.4, -275600.88, -2872.0369, -0.0046355706, 0.27319935, -275582.3, -129805.96, 0.0, 9.995426, 10.001321 
1.754654e+3, 2.951287e+2, -737123.5, -229811.61, -1820.1234, -0.009523878, 0.26576933, -229805.08, -182041.23, 0.0, 9.994624, 10.0013485 
1.7546085e+3, 3.0513027e+2, -727449.2, -85590.445, -4792.7964, -0.02173672, 0.2526585, -85554.664, -85554.664, 0.0, 9.993864, 10.002369 
1.7545626e+3, 3.151327e+2, -829180.0, -129579.35, -11142.2295, -0.04252236, 0.26473746, -129401.94, -129401.94, 0.0, 9.993144, 10.002414 
1.7654358e+3, 1.2519312e+2, -873321.0, -1708943.9, 58007.37, 0.031467047, 0.105858445, -869313.5, 843804.4, 0.01826638, 10.007648, 9.996355 
1.7653878e+3, 1.351897e+2, -846206.9, -1588165.8, 3790.1438, -0.018061198, 0.08653446, -846187.5, 768963.1, 0.012276375, 10.006854, 9.996899 
1.7653415e+3, 1.4518681e+2, -826152.9, -1474784.3, 42486.176, 0.035100814, 0.095979236, -823381.8, 693796.7, 0.006582398, 10.006047, 9.997392 
1.765295e+3, 1.5518418e+2, -841997.94, -1431712.3, 42400.914, 0.023440292, 0.10155121, -838964.9, 580239.56, 0.00249103, 10.005239, 9.997402 
1.7652485e+3, 1.6518167e+2, -827744.0, -1329612.9, 44959.027, 0.016155912, 0.1045933, -823748.25, 497481.1, 0.0005272706, 10.004459, 9.997807 
1.7652021e+3, 1.751794e+2, -836996.6, -1279782.4, 47936.008, 0.017231308, 0.10592623, -831866.5, 391385.8, 0.000031169693, 10.003705, 9.997839 
1.7651561e+3, 1.8517746e+2, -802308.4, -1133359.1, 57857.31, 0.024028914, 0.103834674, -792488.0, 332783.75, 0.0000000004293444, 10.002929, 9.998546 
1.7651102e+3, 1.9517586e+2, -818210.0, -1087006.8, 53711.008, 0.034960605, 0.09675273, -807874.9, 219412.53, 0.0, 10.002132, 9.998575 
1.7650643e+3, 2.0517467e+2, -800128.1, -976309.5, 50516.16, 0.047105193, 0.10907906, -786671.5, 142628.17, 0.0, 10.001363, 9.999033 
1.7650186e+3, 2.1517392e+2, -808885.7, -926727.1, 51018.207, 0.060923785, 0.1387379, -789867.25, 41440.96, 0.0, 10.000616, 9.999061 
1.7649724e+3, 2.2517315e+2, -789561.5, -823648.94, 47941.31, 0.058849767, 0.1489587, -755724.44, -22407.523, 0.0, 9.999891, 9.999445 
1.7649262e+3, 2.351724e+2, -792494.94, -771303.7, 48619.434, 0.04159599, 0.13962713, -732138.7, -96813.664, 0.0, 9.999186, 9.999472 
1.7648798e+3, 2.4517211e+2, -786032.4, -686364.7, 49574.965, 0.024472034, 0.1618471, -665905.6, -128575.36, 0.0, 9.998424, 9.999748 
1.7648338e+3, 2.5517228e+2, -803856.06, -640404.3, 45400.906, 0.0075835083, 0.21245666, -628640.3, -189308.11, 0.0, 9.997612, 9.999782 
1.7647876e+3, 2.6517257e+2, -767795.7, -500859.28, 38759.34, -0.0006877171, 0.2424456, -495345.28, -154013.17, 0.0, 9.996881, 10.000419 
1.7647414e+3, 2.75173e+2, -762948.4, -443626.28, 42300.66, -0.0011031686, 0.25209913, -438117.75, -194788.16, 0.0, 9.996223, 10.000455 
1.764695e+3, 2.8517386e+2, -707122.7, -271089.4, 38019.098, -0.004799179, 0.26034722, -267799.22, -122477.5, 0.0, 9.995526, 10.001302 
1.7646487e+3, 2.9517514e+2, -713857.75, -220362.97, 33007.44, -0.010980669, 0.26638806, -218165.05, -170856.86, 0.0, 9.994794, 10.001329 
1.7646024e+3, 3.0517662e+2, -712756.44, -80936.984, 30141.357, -0.019295745, 0.24348025, -79502.33, -79502.33, 0.0, 9.9939785, 10.002344 
1.7645557e+3, 3.1517896e+2, -838174.2, -134810.63, 32626.162, -0.03270636, 0.25135967, -133300.48, -133300.48, 0.0, 9.993091, 10.002402 
1.7754433e+3, 1.2524061e+2, -873035.7, -1704598.0, 28779.941, 0.017752904, 0.11300411, -872040.8, 840611.8, 0.019119225, 10.007634, 9.996393 
1.7753947e+3, 1.3523707e+2, -845357.06, -1584186.9, -25186.01, -0.017805975, 0.07676199, -844499.44, 770186.94, 0.012888803, 10.006845, 9.996932 
1.7753473e+3, 1.4523421e+2, -830992.5, -1483922.0, 13097.162, 0.03351503, 0.09075082, -830729.94, 685984.06, 0.006949297, 10.006042, 9.997333 
1.7752999e+3, 1.552316e+2, -845734.6, -1439872.3, 13088.601, 0.015866177, 0.10590862, -845446.44, 573293.56, 0.0026578514, 10.005237, 9.997349 
1.7752528e+3, 1.6522911e+2, -822132.1, -1318969.6, 17570.053, 0.012873151, 0.107669294, -821511.56, 499253.2, 0.0005750583, 10.00446, 9.997881 
1.7752059e+3, 1.7522682e+2, -831489.75, -1269457.6, 20377.498, 0.027438808, 0.09870813, -830543.7, 392243.72, 0.000035919948, 10.003706, 9.997911 
1.7751591e+3, 1.8522492e+2, -809032.7, -1148619.8, 28649.107, 0.035597913, 0.10268168, -806632.6, 318173.97, 0.0000000022461928, 10.002931, 9.998442 
1.7751123e+3, 1.952234e+2, -824549.2, -1101753.4, 24549.732, 0.0367139, 0.116312444, -822391.8, 204430.23, 0.0, 10.002135, 9.998474 
1.7750657e+3, 2.0522211e+2, -797598.5, -972761.9, 23247.777, 0.045729324, 0.124187, -794565.56, 134269.72, 0.0, 10.001367, 9.999058 
1.775019e+3, 2.1522114e+2, -806327.75, -923123.1, 23738.275, 0.062577635, 0.12609376, -801687.44, 29158.3, 0.0, 10.00062, 9.999085 
1.7749722e+3, 2.2522034e+2, -786741.6, -819570.56, 22251.822, 0.061551847, 0.13129595, -775505.06, -42650.867, 0.0, 9.999895, 9.999473 
1.7749253e+3, 2.3521979e+2, -789821.06, -767719.1, 22854.42, 0.043758675, 0.1382634, -753384.1, -118523.85, 0.0, 9.99919, 9.9994955 
1.7748784e+3, 2.4521959e+2, -791794.75, -700268.06, 19723.703, 0.028493118, 0.17290196, -696198.6, -159333.63, 0.0, 9.998428, 9.999652 
1.7748313e+3, 2.5521973e+2, -809416.0, -653597.2, 15634.221, 0.015610232, 0.23165978, -652044.0, -213176.23, 0.0, 9.997616, 9.999691 
1.7747845e+3, 2.6521993e+2, -758618.4, -483588.5, 14893.04, 0.009308602, 0.25051954, -482784.4, -141916.03, 0.0, 9.996884, 10.000537 
1.7747375e+3, 2.752202e+2, -753643.75, -426556.22, 18619.04, 0.0089580575, 0.23189439, -425499.78, -182633.53, 0.0, 9.996229, 10.000571 
1.7746906e+3, 2.85221e+2, -713541.0, -287216.2, 11571.454, -0.0024815884, 0.23763038, -286902.3, -142043.9, 0.0, 9.995535, 10.001188 
1.7746434e+3, 2.9522237e+2, -719454.7, -235629.7, 6345.878, -0.023575366, 0.2648064, -235546.48, -188701.81, 0.0, 9.994806, 10.001221 
1.7745961e+3, 3.052238e+2, -704434.44, -67028.96, -2654.097, -0.025159594, 0.23350906, -67017.914, -67017.914, 0.0, 9.993989, 10.002437 
1.7745489e+3, 3.1522626e+2, -829529.2, -118580.08, 1081.6841, -0.0127527, 0.24390623, -118578.43, -118578.43, 0.0, 9.9930935, 10.002514 
1.7854506e+3, 1.2528884e+2, -898457.1, -1705959.6, 52932.207, 0.011229927, 0.1197464, -895002.2, 817178.44, 0.020004798, 10.00742, 9.996486 
1.7854013e+3, 1.3528533e+2, -865979.75, -1584461.0, 2045.9039, -0.019165957, 0.081318304, -865973.9, 748239.6, 0.013522919, 10.006667, 9.997014 
1.7853531e+3, 1.4528255e+2, -848291.0, -1490458.3, 44138.742, 0.031313136, 0.09683589, -845271.4, 670969.06, 0.007328035, 10.00592, 9.997344 
1.785305e+3, 1.5527986e+2, -852625.56, -1441334.5, 48469.863, 0.01634848, 0.10454362, -848661.56, 569605.5, 0.0028297626, 10.005186, 9.99736 
1.7852572e+3, 1.6527736e+2, -826788.1, -1320048.8, 52196.387, 0.01486659, 0.104577415, -821325.25, 498966.66, 0.0006244206, 10.004427, 9.997887 
1.7852095e+3, 1.752751e+2, -840238.56, -1272755.1, 49705.99, 0.02965756, 0.099211715, -834599.75, 387714.38, 0.00004079304, 10.003646, 9.997915 
1.7851618e+3, 1.8527319e+2, -821221.44, -1163514.6, 55867.504, 0.037445445, 0.10680665, -812333.75, 311999.9, 0.0000000068240182, 10.00289, 9.998358 
1.7851144e+3, 1.9527163e+2, -827804.4, -1112014.4, 52597.87, 0.037574418, 0.12422159, -818382.6, 207967.58, 0.0, 10.002154, 9.998392 
1.7850669e+3, 2.052703e+2, -789709.94, -965857.1, 51968.89, 0.045552988, 0.13163005, -775520.56, 152843.28, 0.0, 10.0014105, 9.999082 
1.7850195e+3, 2.1526927e+2, -799322.5, -916783.6, 51941.41, 0.06132003, 0.12884118, -779649.06, 50725.133, 0.0, 10.000659, 9.999108 
1.7849721e+3, 2.2526847e+2, -785802.3, -820094.0, 49052.32, 0.061520226, 0.13258053, -750985.56, -18602.963, 0.0, 9.999909, 9.99946 
1.7849243e+3, 2.3526792e+2, -795367.44, -771570.6, 46095.03, 0.047275174, 0.14145571, -735863.1, -101474.555, 0.0, 9.999161, 9.999481 
1.7848766e+3, 2.4526769e+2, -794770.94, -705117.25, 42047.855, 0.03281501, 0.17646582, -688482.94, -152089.28, 0.0, 9.998426, 9.999619 
1.7848289e+3, 2.552678e+2, -798790.75, -651366.5, 42251.785, 0.018318972, 0.23369269, -640115.75, -201718.44, 0.0, 9.9977045, 9.999661 
1.7847812e+3, 2.6526797e+2, -743957.8, -468034.97, 43288.688, 0.013033623, 0.25144073, -461402.94, -121005.266, 0.0, 9.996952, 10.000609 
1.7847338e+3, 2.7526832e+2, -756900.44, -419765.84, 42933.996, 0.015844146, 0.23225862, -414384.13, -171989.72, 0.0, 9.996175, 10.000643 
1.7846859e+3, 2.8526914e+2, -727167.56, -297265.4, 37659.625, 0.00488872, 0.23696363, -293991.34, -149604.89, 0.0, 9.9954605, 10.001154 
1.7846379e+3, 2.9527044e+2, -722289.2, -240226.6, 37820.848, -0.018096112, 0.26307094, -237277.36, -190903.92, 0.0, 9.994804, 10.001188 
1.78459e+3, 3.0527171e+2, -688137.25, -59195.895, 22650.479, -0.020156275, 0.22158934, -58381.223, -58381.223, 0.0, 9.994105, 10.002433 
1.784542e+3, 3.1527436e+2, -787879.3, -95043.586, 19218.15, -0.008069773, 0.25112224, -94510.914, -94510.914, 0.0, 9.993368, 10.002542 
1.7954579e+3, 1.2533778e+2, -892780.4, -1689984.1, 25589.87, 0.008898761, 0.12707017, -891959.75, 819742.06, 0.02092255, 10.007403, 9.996607 
1.7954077e+3, 1.3533449e+2, -860317.06, -1570100.9, -25389.049, -0.022097396, 0.098163955, -859410.06, 754322.44, 0.014179335, 10.006657, 9.997122 
1.795359e+3, 1.4533176e+2, -845549.94, -1483109.5, 17177.293, 0.02858317, 0.112427376, -845087.5, 670670.94, 0.00771931, 10.005912, 9.997401 
1.7953102e+3, 1.5532891e+2, -849652.4, -1434081.5, 21363.742, 0.024068253, 0.097935416, -848872.44, 568913.8, 0.0030069314, 10.005178, 9.997416 
1.7952617e+3, 1.6532639e+2, -832037.0, -1330931.6, 23320.531, 0.02146234, 0.096148305, -830949.25, 488862.1, 0.0006752068, 10.004424, 9.997816 
1.795213e+3, 1.7532422e+2, -844695.4, -1283238.1, 21097.246, 0.02431646, 0.1070075, -843682.75, 378150.2, 0.000045711688, 10.003648, 9.997845 
1.7951645e+3, 1.8532224e+2, -826197.94, -1175461.8, 28955.531, 0.030231066, 0.115670174, -823813.6, 300039.78, 0.000000015228453, 10.002893, 9.998276 
1.7951164e+3, 1.9532047e+2, -832461.06, -1123274.8, 25718.096, 0.03765802, 0.12073673, -830204.2, 195667.98, 0.0, 10.002158, 9.998316 
1.7950682e+3, 2.0531915e+2, -788231.3, -964496.94, 24506.766, 0.046455063, 0.13188927, -784887.5, 142998.28, 0.0, 10.001414, 9.999091 
1.79502e+3, 2.153183e+2, -798000.0, -915821.0, 24423.178, 0.057081867, 0.14725015, -793137.94, 36756.13, 0.0, 10.000663, 9.999115 
1.7949718e+3, 2.253175e+2, -789664.06, -829876.3, 21688.684, 0.05873222, 0.15289077, -780195.56, -48293.035, 0.0, 9.999913, 9.999393 
1.7949234e+3, 2.3531675e+2, -799203.1, -781287.1, 18582.777, 0.052188914, 0.1490967, -769615.9, -135705.44, 0.0, 9.999165, 9.999414 
1.794875e+3, 2.4531637e+2, -792617.0, -702523.06, 15582.553, 0.037324525, 0.1719843, -699904.06, -163987.13, 0.0, 9.99843, 9.999636 
1.7948264e+3, 2.5531638e+2, -796207.8, -648261.3, 15712.829, 0.015237013, 0.2172907, -646610.94, -208689.61, 0.0, 9.99771, 9.999682 
1.7947781e+3, 2.653167e+2, -742257.0, -466784.03, 14569.868, 0.009932398, 0.24505092, -466015.6, -126095.03, 0.0, 9.996958, 10.000617 
1.7947298e+3, 2.753173e+2, -755527.06, -418649.75, 14192.111, 0.01916191, 0.25577495, -418052.94, -176138.45, 0.0, 9.996179, 10.00065 
1.7946814e+3, 2.8531817e+2, -723520.75, -291448.88, 13509.385, 0.018051703, 0.26073906, -291026.88, -147120.75, 0.0, 9.995464, 10.001194 
1.794633e+3, 2.953193e+2, -718560.8, -234812.67, 13721.158, 0.008276046, 0.26081374, -234423.8, -188528.88, 0.0, 9.994811, 10.0012245 
1.7945842e+3, 3.0532038e+2, -695400.8, -77811.65, -4217.065, -0.0029437554, 0.20775037, -77782.85, -77782.85, 0.0, 9.994116, 10.002301 
1.7945352e+3, 3.1532335e+2, -790640.1, -106400.05, -6783.0166, -0.022146579, 0.2850608, -106332.81, -106332.81, 0.0, 9.993388, 10.002456 
1.8054649e+3, 1.2538747e+2, -926689.75, -1701630.0, 56490.965, -0.001695166, 0.12700051, -922593.4, 788621.56, 0.021868251, 10.007155, 9.996643 
1.8054141e+3, 1.3538423e+2, -890939.9, -1581703.9, -155.21165, -0.020635318, 0.10221907, -890939.9, 722305.44, 0.014856506, 10.006437, 9.997144 
1.8053646e+3, 1.4538157e+2, -875377.06, -1492561.8, 38252.418, 0.031016978, 0.119896226, -873015.3, 642255.4, 0.008123335, 10.005691, 9.99744 
1.8053152e+3, 1.5537868e+2, -883672.1, -1445826.4, 40729.742, 0.026374081, 0.09759302, -880736.44, 536562.2, 0.0031899686, 10.004929, 9.997454 
1.8052657e+3, 1.6537614e+2, -859528.44, -1344880.0, 45440.684, 0.023197364, 0.095670946, -855310.75, 464012.94, 0.000727675, 10.004242, 9.997806 
1.8052164e+3, 1.7537405e+2, -850433.1, -1286880.5, 46790.668, 0.024750322, 0.113501094, -845473.2, 375871.75, 0.000050707928, 10.003616, 9.997833 
1.8051673e+3, 1.8537202e+2, -826986.4, -1178662.3, 55723.242, 0.031570423, 0.12155533, -818368.2, 304997.63, 0.000000026593373, 10.002904, 9.998246 
1.8051185e+3, 1.9537015e+2, -840624.4, -1129886.3, 55738.723, 0.04191863, 0.119134344, -830255.56, 195130.0, 0.0, 10.002117, 9.998288 
1.8050694e+3, 2.053688e+2, -794642.8, -969351.75, 55970.816, 0.048715346, 0.12994839, -778249.8, 149149.66, 0.0, 10.001382, 9.999072 
1.8050206e+3, 2.15368e+2, -795815.5, -916661.1, 53112.52, 0.053048205, 0.15151566, -775790.44, 53616.965, 0.0, 10.0006895, 9.999094 
1.8049715e+3, 2.2536714e+2, -786062.3, -831457.4, 48757.098, 0.054240182, 0.1573438, -754978.5, -23562.248, 0.0, 9.999955, 9.99936 
1.8049225e+3, 2.3536631e+2, -798923.3, -784520.44, 47811.81, 0.05249503, 0.14830993, -743370.75, -109945.72, 0.0, 9.999185, 9.999381 
1.8048733e+3, 2.4536589e+2, -791180.0, -702862.9, 45981.676, 0.04064903, 0.16983166, -683269.6, -147837.69, 0.0, 9.998448, 9.999623 
1.804824e+3, 2.5536588e+2, -792550.75, -647355.2, 43189.957, 0.020006664, 0.21670978, -635479.25, -198042.92, 0.0, 9.997743, 9.999671 
1.804775e+3, 2.6536617e+2, -735752.5, -469308.25, 36531.684, 0.0140660675, 0.24702875, -464390.25, -124954.46, 0.0, 9.99703, 10.000564 
1.804726e+3, 2.7536678e+2, -739362.7, -415921.7, 30986.385, 0.020763086, 0.26183608, -412979.88, -171549.77, 0.0, 9.996315, 10.000602 
1.804677e+3, 2.8536764e+2, -706970.06, -279910.66, 28622.896, 0.022022787, 0.26804543, -278000.78, -134579.08, 0.0, 9.995565, 10.001223 
1.8046276e+3, 2.9536873e+2, -720012.3, -232436.53, 27507.607, 0.019078074, 0.2666791, -230889.55, -185479.5, 0.0, 9.994791, 10.001248 
1.8045783e+3, 3.0536965e+2, -701184.44, -92631.13, 11935.009, 0.007521758, 0.20071274, -92397.15, -92397.15, 0.0, 9.994132, 10.00219 
1.8045285e+3, 3.1537274e+2, -766882.7, -100172.555, 11679.147, -0.020968603, 0.29838526, -99968.03, -99968.03, 0.0, 9.993578, 10.002405 
1.8154718e+3, 1.2543789e+2, -933322.2, -1710183.0, 29323.85, -0.020709673, 0.12085555, -932216.9, 778503.56, 0.022835895, 10.007135, 9.996594 
1.8154205e+3, 1.3543457e+2, -897114.8, -1591782.9, -26643.617, -0.015232155, 0.09532168, -896094.4, 716657.75, 0.0155517, 10.006426, 9.997082 
1.8153702e+3, 1.4543197e+2, -875469.94, -1492047.4, 10387.54, 0.037835926, 0.12043492, -875295.0, 639482.25, 0.008540005, 10.005686, 9.997448 
1.81532e+3, 1.5542912e+2, -882638.56, -1444725.8, 13067.613, 0.023644801, 0.10289456, -882334.94, 534469.7, 0.0033798274, 10.0049305, 9.997462 
1.8152699e+3, 1.6542663e+2, -856889.25, -1340853.0, 22469.455, 0.020589137, 0.10224906, -855848.3, 462981.0, 0.0007824715, 10.004245, 9.997834 
1.8152201e+3, 1.7542453e+2, -848100.44, -1283008.6, 23591.84, 0.03062021, 0.118685745, -846824.44, 374026.03, 0.000055930563, 10.003616, 9.997861 
1.8151703e+3, 1.854225e+2, -826321.75, -1178325.9, 26670.414, 0.040848047, 0.124691, -824312.5, 298558.7, 0.000000038391406, 10.002904, 9.998251 
1.8151204e+3, 1.9542061e+2, -839661.44, -1129469.9, 26935.791, 0.050073773, 0.11943784, -837179.2, 187711.64, 0.0, 10.00212, 9.998291 
1.8150708e+3, 2.0541918e+2, -798166.06, -978503.94, 30656.654, 0.052242983, 0.12578182, -793097.06, 133808.34, 0.0, 10.001386, 9.999009 
1.8150212e+3, 2.1541826e+2, -799242.2, -925651.3, 27675.285, 0.049157202, 0.14155915, -793448.6, 35466.066, 0.0, 10.000694, 9.999032 
1.8149713e+3, 2.2541735e+2, -786096.8, -833361.7, 20534.361, 0.047942076, 0.14582954, -778421.9, -47497.79, 0.0, 9.99996, 9.999347 
1.8149215e+3, 2.3541653e+2, -799120.56, -786818.0, 19564.223, 0.047987845, 0.13900878, -772460.8, -139528.06, 0.0, 9.999188, 9.999365 
1.8148717e+3, 2.4541616e+2, -794374.0, -711491.1, 20132.398, 0.04283753, 0.1703962, -706859.75, -171920.66, 0.0, 9.998453, 9.999563 
1.814822e+3, 2.5541627e+2, -795813.44, -656248.4, 17179.615, 0.03323146, 0.23321524, -654164.8, -217222.16, 0.0, 9.997748, 9.999609 
1.814772e+3, 2.6541638e+2, -743890.4, -488686.63, 10151.887, 0.025861047, 0.25765395, -488283.4, -149339.56, 0.0, 9.997037, 10.000429 
1.8147221e+3, 2.754166e+2, -746697.9, -434214.34, 4283.9214, 0.02030371, 0.24811116, -434155.63, -193213.44, 0.0, 9.996324, 10.000474 
1.8146722e+3, 2.8541744e+2, -705184.9, -279224.13, -542.19165, 0.015423457, 0.25709713, -279223.44, -136289.39, 0.0, 9.995575, 10.001225 
1.8146223e+3, 2.9541883e+2, -719175.5, -232976.19, -1526.9163, 0.011586598, 0.28210256, -232971.39, -188051.95, 0.0, 9.994797, 10.001245 
1.8145724e+3, 3.0541953e+2, -706942.44, -107534.914, -8744.426, 0.010212373, 0.20110598, -107407.375, -107407.375, 0.0, 9.994141, 10.002086 
1.8145223e+3, 3.1542248e+2, -765747.6, -102638.38, -7639.2065, -0.0010632094, 0.29640853, -102550.39, -102550.39, 0.0, 9.993595, 10.002382 
1.8254787e+3, 1.2548892e+2, -977358.7, -1721494.4, 44096.063, -0.01894113, 0.12407437, -974754.75, 735465.5, 0.02382109, 10.006792, 9.99668 
1.8254268e+3, 1.354856e+2, -925984.3, -1598267.4, -3540.0156, -0.014956681, 0.093236975, -925965.7, 686286.3, 0.016262885, 10.006201, 9.997143 
1.8253757e+3, 1.4548303e+2, -888723.44, -1495634.9, 36128.473, 0.033010166, 0.119438, -886580.4, 627696.25, 0.008969335, 10.005588, 9.997468 
1.8253247e+3, 1.5548019e+2, -876845.56, -1439485.6, 39201.855, 0.018863324, 0.09988898, -874127.3, 542176.6, 0.0035774966, 10.004965, 9.997479 
1.825274e+3, 1.6547771e+2, -856049.1, -1342162.8, 45958.863, 0.018388435, 0.10077854, -851742.1, 466586.53, 0.0008403794, 10.004262, 9.997814 
1.8252236e+3, 1.7547563e+2, -867888.3, -1294130.4, 43040.95, 0.032792408, 0.12169167, -863585.56, 356764.44, 0.000061603234, 10.003491, 9.997843 
1.8251729e+3, 1.854736e+2, -844498.8, -1183441.8, 43566.832, 0.04409558, 0.12783885, -838988.44, 283382.2, 0.00000004824908, 10.002768, 9.99828 
1.8251225e+3, 1.9547169e+2, -843748.94, -1128227.6, 45053.742, 0.051750354, 0.11924207, -836784.2, 187605.78, 0.0, 10.002082, 9.998316 
1.8250722e+3, 2.0547023e+2, -803646.94, -989022.0, 49648.01, 0.05418298, 0.12468954, -791187.44, 135217.48, 0.0, 10.001386, 9.998935 
1.8250217e+3, 2.1546924e+2, -806669.6, -936919.25, 45085.22, 0.05281091, 0.1413275, -792586.4, 35828.86, 0.0, 10.00068, 9.99896 
1.8249711e+3, 2.254683e+2, -787099.8, -835244.56, 35025.08, 0.049581073, 0.14781979, -768672.4, -38247.31, 0.0, 9.999963, 9.9993305 
1.8249205e+3, 2.354675e+2, -793977.9, -786041.3, 33467.938, 0.04469076, 0.14461772, -756307.25, -123873.625, 0.0, 9.999235, 9.999346 
1.82487e+3, 2.454671e+2, -789536.75, -713955.0, 35272.65, 0.042086083, 0.177791, -700051.5, -165611.3, 0.0, 9.99851, 9.999517 
1.8248196e+3, 2.5546715e+2, -793303.94, -659675.94, 32764.512, 0.041266, 0.24056502, -652074.75, -215630.56, 0.0, 9.997788, 9.999564 
1.8247691e+3, 2.6546717e+2, -743053.1, -494372.63, 29027.543, 0.03482577, 0.2604151, -491029.28, -152582.92, 0.0, 9.997073, 10.000371 
1.8247184e+3, 2.7546728e+2, -745108.2, -439169.56, 28448.766, 0.02353343, 0.24264218, -436546.63, -196100.48, 0.0, 9.996363, 10.000419 
1.8246678e+3, 2.8546807e+2, -690533.56, -273209.38, 25036.191, 0.01461874, 0.25419223, -271712.78, -129274.68, 0.0, 9.995684, 10.001212 
1.8246171e+3, 2.9546955e+2, -686149.2, -218465.53, 22371.262, 0.008148722, 0.291017, -217397.86, -172975.47, 0.0, 9.995033, 10.001228 
1.8245666e+3, 3.0547002e+2, -684718.6, -105651.81, 18135.854, 0.012039498, 0.19349854, -105084.375, -105084.375, 0.0, 9.994335, 10.002003 
1.8245159e+3, 3.1547293e+2, -763763.44, -99343.65, 21810.555, 0.009599756, 0.29090992, -98628.45, -98628.45, 0.0, 9.993602, 10.002399 
1.8354855e+3, 1.2554055e+2, -968687.06, -1697271.1, 22057.703, -0.0015436461, 0.13440095, -968019.9, 741694.56, 0.024822917, 10.006768, 9.996861 
1.8354328e+3, 1.3553733e+2, -917879.2, -1578162.1, -25551.89, -0.019507343, 0.09512407, -916891.9, 694853.25, 0.01699, 10.0061865, 9.9972925 
1.8353811e+3, 1.4553477e+2, -889095.1, -1494502.8, 12803.791, 0.018099051, 0.11703477, -888824.5, 624944.7, 0.009412019, 10.005578, 9.997482 
1.8353295e+3, 1.5553187e+2, -877071.2, -1438765.4, 15829.082, 0.0124351, 0.0894317, -876625.5, 539171.44, 0.0037839606, 10.004957, 9.997491 
1.8352781e+3, 1.6552936e+2, -861930.9, -1354347.5, 17265.617, 0.016533924, 0.092085086, -861326.25, 456495.8, 0.00090212235, 10.004258, 9.997735 
1.8352269e+3, 1.755273e+2, -872485.5, -1305081.4, 14790.388, 0.03145069, 0.12277016, -871980.44, 347863.28, 0.00006797303, 10.003493, 9.997769 
1.8351756e+3, 1.8552528e+2, -840975.94, -1178146.5, 18384.793, 0.04163055, 0.13103111, -839976.44, 281887.9, 0.000000055274803, 10.002772, 9.998316 
1.8351243e+3, 1.9552338e+2, -840625.75, -1123856.3, 19895.914, 0.047214556, 0.11854643, -839234.94, 184648.33, 0.0, 10.002088, 9.998345 
1.8350734e+3, 2.055219e+2, -809740.2, -1003663.75, 23785.115, 0.054668844, 0.1266403, -806865.5, 119032.89, 0.0, 10.00139, 9.998834 
1.8350223e+3, 2.1552087e+2, -812691.75, -951323.2, 19152.186, 0.06402709, 0.1508878, -810094.5, 17814.896, 0.0, 10.000684, 9.998861 
1.834971e+3, 2.2551993e+2, -788590.1, -840213.56, 8385.337, 0.05910628, 0.16357297, -787262.25, -57342.67, 0.0, 9.999967, 9.999297 
1.8349198e+3, 2.3551916e+2, -795638.5, -791514.5, 6637.1963, 0.042495757, 0.16562535, -786626.4, -154698.28, 0.0, 9.99924, 9.999309 
1.8348683e+3, 2.4551864e+2, -791806.44, -720807.56, 8587.719, 0.038151674, 0.19208236, -719783.56, -185847.83, 0.0, 9.998516, 9.99947 
1.8348172e+3, 2.5551847e+2, -795281.2, -665971.2, 5955.225, 0.04368301, 0.23785916, -665697.5, -229755.89, 0.0, 9.997794, 9.99952 
1.834766e+3, 2.6551846e+2, -741038.75, -492568.9, 2714.3481, 0.040785886, 0.2548529, -492539.28, -154595.38, 0.0, 9.997079, 10.000382 
1.8347147e+3, 2.755187e+2, -743175.0, -437732.72, 2240.9478, 0.030839158, 0.24651423, -437716.28, -197773.9, 0.0, 9.99637, 10.000427 
1.8346633e+3, 2.8551945e+2, -691823.4, -279256.13, 1236.9166, 0.020222763, 0.26003993, -279252.44, -137318.19, 0.0, 9.995694, 10.001167 
1.834612e+3, 2.9552084e+2, -686715.9, -224364.7, -1684.8445, 0.009431742, 0.29223663, -224358.56, -180438.97, 0.0, 9.995049, 10.001182 
1.8345608e+3, 3.055211e+2, -687140.9, -115348.586, -9405.103, 0.012729801, 0.17678659, -115193.92, -115193.92, 0.0, 9.994351, 10.00193 
1.8345094e+3, 3.1552407e+2, -758687.44, -91711.21, -3931.958, 0.00915324, 0.29112387, -91688.03, -91688.03, 0.0, 9.99361, 10.00245 
1.845492e+3, 1.2559263e+2, -1023276.4, -1717632.1, 49259.508, 0.006176303, 0.12380083, -1019799.2, 689404.0, 0.025842806, 10.006367, 9.996912 
1.8454388e+3, 1.3558947e+2, -956672.06, -1593128.9, -6873.523, -0.011544341, 0.088841535, -956597.9, 654635.9, 0.017734358, 10.005908, 9.99732 
1.8453863e+3, 1.4558703e+2, -919943.0, -1501748.5, 25030.834, 0.02153919, 0.11741957, -918868.06, 594388.8, 0.009869199, 10.005338, 9.997546 
1.8453342e+3, 1.555842e+2, -912886.75, -1449134.3, 30513.498, 0.01612017, 0.09216347, -911156.06, 504127.78, 0.0040001087, 10.004684, 9.997548 
1.8452822e+3, 1.6558167e+2, -889491.8, -1366806.5, 34576.984, 0.019928975, 0.09093103, -887000.0, 430309.13, 0.0009682256, 10.004069, 9.997738 
1.8452302e+3, 1.7557953e+2, -874380.2, -1305194.4, 37264.402, 0.03369575, 0.11297396, -871180.7, 348150.84, 0.00007524983, 10.003481, 9.997772 
1.8451783e+3, 1.8557751e+2, -830239.25, -1171224.9, 41570.348, 0.041489672, 0.12249279, -825244.44, 296107.53, 0.00000006030829, 10.002843, 9.998327 
1.8451263e+3, 1.955757e+2, -829303.8, -1117098.1, 40581.12, 0.043768425, 0.119016945, -823691.06, 199679.0, 0.0, 10.002163, 9.998353 
1.8450746e+3, 2.0557418e+2, -808468.9, -1008853.7, 42560.242, 0.051850703, 0.12598452, -799804.06, 125581.49, 0.0, 10.001428, 9.998778 
1.8450229e+3, 2.1557301e+2, -822262.94, -961946.4, 40776.246, 0.0650163, 0.14110427, -811230.9, 16167.126, 0.0, 10.0006485, 9.998803 
1.8449709e+3, 2.25572e+2, -797595.8, -853142.3, 31135.732, 0.061719004, 0.1549864, -783646.3, -54237.297, 0.0, 9.999946, 9.999216 
1.8449189e+3, 2.3557124e+2, -792165.5, -798185.3, 25312.03, 0.045037054, 0.1664942, -769685.06, -138267.1, 0.0, 9.999304, 9.999229 
1.8448669e+3, 2.4557072e+2, -780726.06, -716730.06, 24824.328, 0.040088277, 0.19828789, -708229.7, -174803.98, 0.0, 9.998601, 9.9994545 
1.844815e+3, 2.5557053e+2, -788279.56, -663837.6, 24115.918, 0.044628914, 0.24546818, -659327.6, -223896.08, 0.0, 9.997851, 9.999506 
1.844763e+3, 2.6557043e+2, -735444.2, -492686.94, 21002.713, 0.042866852, 0.25707358, -490883.25, -153448.84, 0.0, 9.997133, 10.000353 
1.844711e+3, 2.755705e+2, -734932.94, -436604.88, 16808.875, 0.035674892, 0.23876472, -435660.78, -196226.89, 0.0, 9.996443, 10.000398 
1.844659e+3, 2.855713e+2, -691027.3, -283138.4, 14360.228, 0.025457216, 0.25779933, -282633.47, -141207.67, 0.0, 9.995722, 10.001125 
1.844607e+3, 2.9557285e+2, -700377.9, -235444.72, 10962.564, 0.013303719, 0.30744088, -235186.38, -191775.95, 0.0, 9.994979, 10.001138 
1.844555e+3, 3.0557287e+2, -694000.7, -122692.99, 5299.869, 0.016463608, 0.17619729, -122643.83, -122643.83, 0.0, 9.994326, 10.00189 
1.844503e+3, 3.1557578e+2, -731726.1, -66786.75, 14294.008, 0.009059681, 0.28433844, -66479.62, -66479.62, 0.0, 9.993748, 10.002553 
1.8554981e+3, 1.2564516e+2, -1028864.9, -1728400.5, 31586.953, 0.004862254, 0.09561484, -1027441.5, 681245.3, 0.026882706, 10.006364, 9.996841 
1.8554448e+3, 1.3564204e+2, -963899.0, -1606297.5, -23873.209, 0.0072645787, 0.07567358, -963013.06, 647704.6, 0.018497402, 10.005899, 9.997233 
1.8553919e+3, 1.4563978e+2, -914656.2, -1489647.8, 1279.833, 0.040635165, 0.120153345, -914653.4, 598086.44, 0.010341927, 10.005331, 9.997636 
1.8553388e+3, 1.5563716e+2, -906830.3, -1437194.5, 6544.2847, 0.028411042, 0.10660705, -906749.56, 508015.44, 0.004226656, 10.004684, 9.997633 
1.855286e+3, 1.6563462e+2, -884565.3, -1357778.0, 12691.214, 0.027895074, 0.0963349, -884225.2, 432564.97, 0.0010390426, 10.00407, 9.997802 
1.8552336e+3, 1.7563228e+2, -870042.0, -1297171.6, 15367.747, 0.039193224, 0.092993036, -869489.8, 349323.9, 0.0000835782, 10.003481, 9.997829 
1.855181e+3, 1.8563028e+2, -831696.7, -1175358.6, 16456.146, 0.04346006, 0.10318143, -830910.5, 289923.4, 0.00000006571913, 10.002843, 9.998301 
1.8551284e+3, 1.9562866e+2, -830597.2, -1121349.6, 15341.753, 0.04131043, 0.12080788, -829789.94, 193060.7, 0.0, 10.002166, 9.998324 
1.8550758e+3, 2.0562705e+2, -809430.06, -1012728.0, 13812.738, 0.04571252, 0.122605436, -808495.9, 116370.914, 0.0, 10.001432, 9.998752 
1.8550234e+3, 2.156256e+2, -823691.9, -966928.06, 12466.069, 0.05572014, 0.11190388, -822615.0, 4266.429, 0.0, 10.000653, 9.998769 
1.8549708e+3, 2.2562446e+2, -806651.25, -874008.44, 7662.603, 0.057463042, 0.121813685, -805790.56, -76896.68, 0.0, 9.99995, 9.999072 
1.8549182e+3, 2.3562367e+2, -800618.5, -817961.0, 1439.2844, 0.05260426, 0.14665918, -800499.8, -169596.25, 0.0, 9.999309, 9.999094 
1.8548654e+3, 2.4562329e+2, -779386.56, -716227.4, -2963.4849, 0.04806458, 0.1963085, -716088.6, -183178.05, 0.0, 9.998607, 9.999457 
1.8548128e+3, 2.556233e+2, -787221.7, -663957.0, -3591.57, 0.04381669, 0.264465, -663852.44, -228938.08, 0.0, 9.997857, 9.999504 
1.85476e+3, 2.6562306e+2, -740462.75, -505662.84, -4690.4414, 0.040646147, 0.26749784, -505569.2, -168650.8, 0.0, 9.997141, 10.000263 
1.8547074e+3, 2.7562276e+2, -739515.8, -448968.56, -9211.117, 0.037785303, 0.2177299, -448676.84, -209755.27, 0.0, 9.996451, 10.000312 
1.8546547e+3, 2.856236e+2, -693680.56, -291304.47, -13755.425, 0.030307358, 0.24668425, -290834.78, -149921.19, 0.0, 9.995729, 10.001068 
1.8546018e+3, 2.9562548e+2, -703448.25, -243781.47, -16984.295, 0.019983748, 0.3390235, -243154.77, -200259.22, 0.0, 9.994984, 10.0010805 
1.8545492e+3, 3.0562535e+2, -694008.56, -125472.15, -16274.647, 0.0235284, 0.19437885, -125006.664, -125006.664, 0.0, 9.994333, 10.001869 
1.8544964e+3, 3.15628e+2, -718637.9, -44372.34, -5688.598, 0.010052116, 0.27934998, -44324.348, -44324.348, 0.0, 9.993764, 10.002701 
1.8655044e+3, 1.2569842e+2, -1027159.9, -1720739.9, 54231.26, 0.0055522597, 0.08046442, -1022945.1, 685218.44, 0.027942637, 10.006357, 9.996896 
1.8654504e+3, 1.3569526e+2, -985854.56, -1614096.0, 6956.431, 0.012450057, 0.055629633, -985777.56, 624417.25, 0.019279037, 10.005742, 9.997253 
1.865397e+3, 1.4569306e+2, -938942.25, -1503651.3, 29644.873, 0.042583782, 0.108322166, -937390.25, 574826.44, 0.010830139, 10.005178, 9.99761 
1.8653435e+3, 1.5569057e+2, -912484.4, -1441487.1, 26697.977, 0.02926584, 0.10821619, -911140.4, 503101.2, 0.0044636684, 10.004658, 9.997614 
1.8652901e+3, 1.6568804e+2, -883374.1, -1346355.1, 27687.598, 0.030169297, 0.097166464, -881724.2, 434542.2, 0.0011146868, 10.004036, 9.997894 
1.8652369e+3, 1.7568567e+2, -885588.06, -1294869.4, 31809.64, 0.044306487, 0.08238331, -883130.5, 335158.97, 0.000093036746, 10.003336, 9.997913 
1.8651837e+3, 1.856837e+2, -858315.9, -1191201.9, 32718.436, 0.049385484, 0.09239357, -855130.56, 265178.97, 0.00000007494837, 10.002677, 9.99827 
1.8651304e+3, 1.9568211e+2, -849797.2, -1133479.3, 30621.195, 0.046671286, 0.11847303, -846529.5, 175796.8, 0.0, 10.00205, 9.998295 
1.8650772e+3, 2.056805e+2, -808087.25, -1011965.5, 28168.068, 0.046061557, 0.121521205, -804267.06, 120075.52, 0.0, 10.001445, 9.998749 
1.8650238e+3, 2.15679e+2, -795285.8, -953879.8, 27647.291, 0.04766552, 0.1063745, -790604.3, 35753.14, 0.0, 10.0008545, 9.998759 
1.8649706e+3, 2.2567779e+2, -783520.94, -869584.75, 25055.785, 0.052201763, 0.115198135, -776757.9, -48387.406, 0.0, 10.000142, 9.999008 
1.8649174e+3, 2.3567696e+2, -801506.7, -825562.2, 24241.041, 0.05879882, 0.14166778, -786473.5, -156092.56, 0.0, 9.999338, 9.999025 
1.864864e+3, 2.456765e+2, -784088.1, -725671.25, 19210.084, 0.054808337, 0.19150993, -719920.3, -187531.53, 0.0, 9.99861, 9.999389 
1.8648104e+3, 2.5567645e+2, -780117.4, -667109.94, 12348.8125, 0.042677417, 0.25860322, -665776.25, -231382.88, 0.0, 9.997939, 9.999441 
1.8647571e+3, 2.6567617e+2, -728086.94, -497977.5, 12495.444, 0.039252196, 0.26097602, -497300.97, -160903.33, 0.0, 9.997223, 10.000274 
1.8647037e+3, 2.7567583e+2, -736525.4, -446735.2, 15030.935, 0.042021487, 0.21101947, -445957.66, -207557.06, 0.0, 9.996472, 10.000315 
1.8646502e+3, 2.8567666e+2, -694152.2, -301850.78, 12078.716, 0.03463846, 0.24365196, -301479.25, -161086.13, 0.0, 9.995774, 10.000972 
1.8645968e+3, 2.956785e+2, -690631.06, -247643.45, 5178.882, 0.020251403, 0.34278816, -247582.9, -205206.86, 0.0, 9.995119, 10.000987 
1.8645434e+3, 3.0567822e+2, -683111.25, -121833.984, 6069.8394, 0.025604393, 0.19026236, -121768.35, -121768.35, 0.0, 9.994419, 10.001851 
1.86449e+3, 3.156809e+2, -717920.2, -24401.662, 17750.717, 0.012614092, 0.27833807, -23947.627, -23947.627, 0.0, 9.99369, 10.002872 
1.8755107e+3, 1.2575236e+2, -1019133.4, -1701439.0, 30827.256, 0.0062562106, 0.07511736, -1017743.4, 689890.44, 0.02901977, 10.0063505, 9.997034 
1.875456e+3, 1.3574913e+2, -980292.25, -1601952.6, -15728.062, 0.0058944183, 0.02981366, -979894.6, 629770.8, 0.0200772, 10.00574, 9.997341 
1.8754019e+3, 1.457469e+2, -948581.94, -1524006.0, 10259.549, 0.02982396, 0.084269576, -948399.06, 563288.75, 0.011332454, 10.0051775, 9.997472 
1.8753478e+3, 1.557444e+2, -921108.4, -1459707.9, 7042.848, 0.02019482, 0.0985646, -921016.25, 492697.34, 0.004710432, 10.004655, 9.997493 
1.875294e+3, 1.6574195e+2, -875845.94, -1331474.4, 1794.4681, 0.027415976, 0.09402276, -875838.9, 439898.94, 0.0011950176, 10.004036, 9.997999 
1.87524e+3, 1.757397e+2, -878470.75, -1281852.9, 6130.66, 0.049084254, 0.08050756, -878377.6, 339381.5, 0.00010366756, 10.003339, 9.998003 
1.8751863e+3, 1.8573773e+2, -860641.7, -1198151.6, 9531.981, 0.05899639, 0.08939957, -860372.7, 259406.52, 0.00000009512311, 10.002683, 9.998221 
1.8751325e+3, 1.9573607e+2, -852006.8, -1140176.6, 7717.1113, 0.059441324, 0.11205382, -851800.3, 169997.02, 0.0, 10.002055, 9.998249 
1.8750785e+3, 2.057345e+2, -806869.5, -1011469.7, 6598.8354, 0.052562658, 0.12297638, -806656.94, 117156.41, 0.0, 10.00145, 9.998753 
1.8750246e+3, 2.1573317e+2, -794284.9, -953855.56, 5604.397, 0.040746257, 0.12463496, -794088.3, 31738.184, 0.0, 10.000859, 9.998759 
1.8749706e+3, 2.2573198e+2, -782599.2, -869740.3, -4626.1196, 0.04590685, 0.13531958, -782354.3, -54515.137, 0.0, 10.000147, 9.999007 
1.8749166e+3, 2.3573105e+2, -801573.0, -827755.7, -5150.2656, 0.06353586, 0.1518402, -800596.3, -170745.98, 0.0, 9.999343, 9.99901 
1.8748625e+3, 2.457303e+2, -794441.5, -749367.94, -5519.1772, 0.06023193, 0.18332525, -748701.94, -216841.19, 0.0, 9.998615, 9.999226 
1.8748082e+3, 2.5572985e+2, -788774.5, -687699.3, -12777.096, 0.04116619, 0.22556697, -686109.1, -252239.78, 0.0, 9.997946, 9.999298 
1.8747541e+3, 2.6572964e+2, -719447.3, -482756.1, -15537.6045, 0.038743436, 0.23635653, -481740.5, -145867.75, 0.0, 9.99723, 10.000378 
1.8747e+3, 2.7572978e+2, -729369.3, -434378.22, -12683.24, 0.04855963, 0.22085053, -433833.9, -195962.66, 0.0, 9.996479, 10.000399 
1.874646e+3, 2.857305e+2, -703794.4, -324882.66, -12033.936, 0.03817313, 0.2491142, -324500.84, -184636.08, 0.0, 9.995783, 10.000812 
1.8745917e+3, 2.9573184e+2, -699009.06, -269183.06, -19412.135, 0.012986042, 0.31341022, -268308.13, -226455.13, 0.0, 9.995132, 10.000834 
1.8745378e+3, 3.0573145e+2, -683579.25, -126712.305, -21570.512, 0.021847911, 0.16034701, -125878.01, -125878.01, 0.0, 9.9944315, 10.001814 
1.8744838e+3, 3.1573454e+2, -704436.56, 1291.8876, -8252.245, 0.017688451, 0.29319137, 1388.3699, 1388.3699, 0.0, 9.993694, 10.003048 
1.8855168e+3, 1.2580693e+2, -1030429.3, -1708146.5, 56387.03, 0.0112640755, 0.0648545, -1025769.9, 681328.25, 0.030111449, 10.006287, 9.997016 
1.8854615e+3, 1.3580374e+2, -985066.56, -1608864.3, 535.42694, 0.010925691, 0.030054552, -985066.06, 624063.4, 0.020889508, 10.005736, 9.9972925 
1.8854068e+3, 1.4580147e+2, -954393.94, -1528754.3, 26606.691, 0.031152105, 0.0836209, -953164.06, 557988.44, 0.011846939, 10.005153, 9.99745 
1.8853523e+3, 1.5579882e+2, -938805.5, -1469739.0, 30294.934, 0.023046512, 0.08659306, -937082.44, 476097.28, 0.0049657077, 10.004544, 9.997475 
1.8852979e+3, 1.6579638e+2, -884207.9, -1327744.1, 23620.541, 0.02945912, 0.08106272, -882953.5, 432250.25, 0.0012796286, 10.003949, 9.998065 
1.8852434e+3, 1.7579424e+2, -871859.44, -1272047.1, 24658.889, 0.048139445, 0.074203484, -870345.75, 346877.8, 0.00011545641, 10.00336, 9.998058 
1.8851888e+3, 1.857923e+2, -855252.8, -1197781.6, 27115.1, 0.05763787, 0.083998665, -853119.6, 266123.9, 0.00000013665432, 10.002733, 9.998198 
1.8851344e+3, 1.9579057e+2, -851057.5, -1141922.6, 26279.635, 0.059775658, 0.10296917, -848702.25, 172560.3, 0.0, 10.002075, 9.998225 
1.8850799e+3, 2.05789e+2, -815753.8, -1014384.7, 25086.031, 0.055124335, 0.11343294, -812634.56, 110644.195, 0.0, 10.001387, 9.99876 
1.8850252e+3, 2.1578768e+2, -821339.1, -966329.3, 23556.516, 0.045679316, 0.11760739, -817607.94, 7683.6895, 0.0, 10.000675, 9.99876 
1.8849705e+3, 2.2578654e+2, -801606.44, -882946.6, 9679.059, 0.049039293, 0.13330367, -800470.5, -73166.28, 0.0, 10.000038, 9.998966 
1.8849158e+3, 2.357856e+2, -788116.94, -824917.6, 5623.939, 0.06200002, 0.15592694, -787276.6, -157961.1, 0.0, 9.999455, 9.998973 
1.884861e+3, 2.4578477e+2, -773392.7, -734997.4, 10777.511, 0.058075387, 0.1796899, -732179.0, -200852.56, 0.0, 9.998746, 9.999259 
1.884806e+3, 2.5578415e+2, -787175.1, -683401.1, 17918.709, 0.041370086, 0.2039863, -680394.2, -247058.36, 0.0, 9.997947, 9.999326 
1.8847512e+3, 2.6578397e+2, -721093.1, -488875.53, 15486.06, 0.03924766, 0.2167115, -487847.34, -152508.08, 0.0, 9.997246, 10.000325 
1.8846965e+3, 2.757842e+2, -712813.6, -431393.34, 5543.539, 0.0478034, 0.21845657, -431284.2, -193947.0, 0.0, 9.996618, 10.000349 
1.8846416e+3, 2.8578487e+2, -686089.94, -316562.06, 6929.0996, 0.03740992, 0.24723165, -316432.16, -177101.06, 0.0, 9.995911, 10.000805 
1.8845867e+3, 2.9578608e+2, -698845.75, -270961.97, 10764.464, 0.013221165, 0.29900274, -270691.3, -229370.83, 0.0, 9.995146, 10.0008135 
1.8845321e+3, 3.0578566e+2, -695264.4, -151051.23, 6984.0947, 0.02617229, 0.14870717, -150961.63, -150961.63, 0.0, 9.994437, 10.001642 
1.8844773e+3, 3.157887e+2, -689577.9, 16100.24, 10645.955, 0.021415556, 0.29720652, 16260.81, 16260.81, 0.0, 9.993768, 10.003112 
1.895523e+3, 1.258621e+2, -1042697.75, -1732701.9, 33925.133, 0.018489266, 0.050669458, -1041033.75, 665522.75, 0.031219253, 10.006282, 9.996852 
1.8954673e+3, 1.3585909e+2, -998439.75, -1635462.4, -20085.316, 0.025666343, 0.052293107, -997807.1, 610780.06, 0.02171584, 10.005729, 9.997116 
1.895412e+3, 1.4585674e+2, -951007.56, -1520533.1, 4446.9404, 0.044369347, 0.10240413, -950972.9, 559638.1, 0.012372515, 10.005146, 9.997511 
1.8953568e+3, 1.5585382e+2, -935105.6, -1462142.0, 7965.881, 0.036168195, 0.07238558, -934985.25, 477654.88, 0.005228306, 10.004541, 9.997531 
1.8953016e+3, 1.6585134e+2, -882887.7, -1325866.0, 1935.594, 0.03557754, 0.059595756, -882879.25, 431785.06, 0.0013678719, 10.003948, 9.99808 
1.8952465e+3, 1.7584933e+2, -870772.2, -1271031.9, 2846.6104, 0.041805472, 0.06394917, -870751.94, 345931.03, 0.00012825709, 10.003362, 9.998067 
1.8951912e+3, 1.858474e+2, -855846.8, -1200602.5, 2953.777, 0.046023972, 0.07634089, -855821.5, 262881.2, 0.00000020670124, 10.002735, 9.998179 
1.8951362e+3, 1.9584562e+2, -851392.4, -1144635.0, 2064.5715, 0.04830467, 0.09134639, -851377.9, 169344.33, 0.0, 10.00208, 9.998207 
1.8950811e+3, 2.0584394e+2, -814953.56, -1014865.56, -983.90906, 0.05411136, 0.0930002, -814948.75, 107790.52, 0.0, 10.001391, 9.998757 
1.8950258e+3, 2.158425e+2, -821343.4, -968487.0, -2129.778, 0.0625025, 0.08528744, -821312.56, 3440.772, 0.0, 10.00068, 9.998745 
1.8949704e+3, 2.2584136e+2, -807396.8, -897214.3, -11551.195, 0.06138973, 0.10909424, -805935.06, -79168.86, 0.0, 10.000044, 9.998868 
1.8949151e+3, 2.3584056e+2, -791999.56, -835550.8, -16521.553, 0.053696383, 0.15398233, -786441.4, -157664.3, 0.0, 9.999462, 9.998899 
1.8948595e+3, 2.4583986e+2, -756381.06, -702212.9, -18968.951, 0.04803344, 0.18104509, -696230.8, -165444.55, 0.0, 9.998753, 9.999483 
1.8948038e+3, 2.5583935e+2, -773068.6, -656285.8, -11110.702, 0.043549262, 0.19494423, -655238.2, -222445.1, 0.0, 9.9979515, 9.999512 
1.8947484e+3, 2.6583904e+2, -736802.9, -524079.0, -7479.4634, 0.04067198, 0.20221011, -523816.34, -189018.72, 0.0, 9.997253, 10.000082 
1.894693e+3, 2.7583903e+2, -725852.9, -462067.13, -18298.73, 0.038657293, 0.20196092, -460803.8, -224004.39, 0.0, 9.99663, 10.000135 
1.8946373e+3, 2.858398e+2, -673424.8, -293888.84, -21944.2, 0.031886116, 0.2373748, -292624.25, -153831.38, 0.0, 9.995921, 10.0009575 
1.8945818e+3, 2.9584125e+2, -689780.7, -254989.25, -17385.787, 0.022350859, 0.30256036, -254295.16, -213516.48, 0.0, 9.995154, 10.000921 
1.8945265e+3, 3.0584073e+2, -718205.94, -201924.52, -17639.91, 0.039861504, 0.15866202, -201322.5, -201322.5, 0.0, 9.994446, 10.00129 
1.8944709e+3, 3.158433e+2, -693848.4, 2750.016, -13062.407, 0.024041368, 0.29666197, 2994.8723, 2994.8723, 0.0, 9.993783, 10.0030155 
1.9055294e+3, 1.2591785e+2, -1043125.75, -1725727.8, 37417.95, 0.0328753, 0.059083764, -1041080.75, 664929.6, 0.03234598, 10.006259, 9.996908 
1.9054729e+3, 1.3591476e+2, -1015751.3, -1640274.8, -1428.1055, 0.030656517, 0.052759316, -1015748.06, 592293.44, 0.022557024, 10.0056, 9.997142 
1.9054168e+3, 1.459124e+2, -967951.2, -1520397.4, 29954.084, 0.044545405, 0.096341155, -966331.75, 543733.4, 0.012908447, 10.004998, 9.9975815 
1.9053613e+3, 1.5590946e+2, -946200.94, -1459907.1, 33416.645, 0.041461695, 0.059423734, -944036.3, 468057.6, 0.0054968135, 10.004437, 9.997594 
1.9053054e+3, 1.6590703e+2, -895120.1, -1328977.3, 26897.969, 0.039562, 0.048011474, -893458.94, 420658.63, 0.0014586489, 10.003857, 9.9981 
1.9052497e+3, 1.7590512e+2, -884673.3, -1275322.6, 27356.646, 0.03950988, 0.059934586, -882766.9, 333368.8, 0.00014169511, 10.00326, 9.998084 
1.9051938e+3, 1.8590318e+2, -863265.56, -1198678.6, 28442.244, 0.04235089, 0.07050654, -860870.8, 257284.5, 0.00000030311395, 10.0026655, 9.998224 
1.905138e+3, 1.9590135e+2, -850295.25, -1139496.5, 31129.332, 0.046879124, 0.07693159, -846982.5, 173192.52, 0.0, 10.002071, 9.998244 
1.9050823e+3, 2.0589969e+2, -808561.94, -1012433.5, 26942.174, 0.05314398, 0.07923225, -805061.56, 117130.39, 0.0, 10.001443, 9.998747 
1.9050264e+3, 2.158983e+2, -807184.4, -963114.44, 24701.25, 0.06096156, 0.07848973, -803364.94, 20840.676, 0.0, 10.000788, 9.998728 
1.9049704e+3, 2.2589712e+2, -800747.7, -897541.94, 18757.617, 0.06072182, 0.10215374, -797239.75, -71020.74, 0.0, 10.00011, 9.998833 
1.9049144e+3, 2.3589623e+2, -801322.25, -842934.3, 17507.328, 0.05447335, 0.1420996, -794936.44, -166705.44, 0.0, 9.999414, 9.998869 
1.904858e+3, 2.4589553e+2, -756434.25, -696016.3, 5071.973, 0.04787986, 0.16999367, -695593.5, -165353.6, 0.0, 9.99873, 9.999534 
1.9048016e+3, 2.5589514e+2, -755833.0, -642499.4, -525.8975, 0.04125454, 0.18858609, -642496.94, -210251.48, 0.0, 9.998051, 9.999556 
1.9047455e+3, 2.6589483e+2, -724644.56, -521484.16, 9197.641, 0.03919118, 0.19551428, -521068.63, -186818.55, 0.0, 9.997355, 10.000049 
1.9046894e+3, 2.758947e+2, -725135.8, -464454.13, 13614.087, 0.039679486, 0.19144423, -463745.06, -227492.08, 0.0, 9.996652, 10.000106 
1.9046332e+3, 2.8589544e+2, -665621.0, -285971.22, 8437.351, 0.03322835, 0.22796002, -285783.78, -147537.34, 0.0, 9.995962, 10.00099 
1.9045767e+3, 2.9589704e+2, -670852.6, -244058.4, 3017.129, 0.023058824, 0.29799828, -244037.08, -203805.75, 0.0, 9.99528, 10.000933 
1.9045208e+3, 3.0589646e+2, -719728.6, -222797.4, 5917.436, 0.046489228, 0.16081996, -222726.95, -222726.95, 0.0, 9.994527, 10.001105 
1.9044647e+3, 3.1589866e+2, -697747.06, 8826.196, 24513.875, 0.032744702, 0.2745364, 9675.66, 9675.66, 0.0, 9.993727, 10.003082 
1.9155356e+3, 1.2597413e+2, -1028990.94, -1694502.6, 13091.522, 0.051243268, 0.084304854, -1028733.5, 676726.2, 0.03348899, 10.006257, 9.9971285 
1.9154783e+3, 1.3597083e+2, -1003209.56, -1614677.6, -24651.916, 0.027262684, 0.03481044, -1002217.3, 605274.75, 0.023410846, 10.005605, 9.997318 
1.9154216e+3, 1.4596848e+2, -962997.7, -1511427.6, 9604.135, 0.03369926, 0.06974718, -962829.5, 546685.4, 0.013452467, 10.005003, 9.9976425 
1.9153655e+3, 1.5596576e+2, -942105.75, -1452251.4, 12746.71, 0.039961908, 0.0478261, -941787.44, 469753.7, 0.005769016, 10.004438, 9.997648 
1.9153091e+3, 1.6596344e+2, -894305.75, -1328261.8, 4892.8687, 0.041666016, 0.04511633, -894250.56, 419313.22, 0.001550453, 10.003858, 9.998108 
1.9152528e+3, 1.7596158e+2, -883358.56, -1274013.9, 5314.0513, 0.040921513, 0.0615549, -883286.3, 332295.72, 0.00015524497, 10.003262, 9.998095 
1.9151965e+3, 1.8595964e+2, -856504.4, -1186268.9, 6558.114, 0.046050906, 0.06630489, -856374.0, 261227.67, 0.00000041157583, 10.002667, 9.998311 
1.9151402e+3, 1.9595775e+2, -844382.2, -1129008.3, 9084.778, 0.05493274, 0.059826545, -844092.5, 175528.73, 0.0, 10.002075, 9.998317 
1.9150835e+3, 2.059562e+2, -810085.0, -1017570.9, 2908.2275, 0.05187924, 0.07224262, -810044.25, 111592.875, 0.0, 10.001447, 9.998712 
1.9150269e+3, 2.1595503e+2, -808587.56, -968220.9, 624.2463, 0.040969025, 0.097286925, -808585.1, 15063.864, 0.0, 10.000793, 9.9986925 
1.9149703e+3, 2.2595377e+2, -798934.44, -896083.2, -6719.0317, 0.04723067, 0.11227945, -798471.94, -72808.71, 0.0, 10.000114, 9.998842 
1.9149137e+3, 2.3595254e+2, -800750.3, -843950.06, -8044.9023, 0.06495784, 0.11948897, -799300.75, -171622.97, 0.0, 9.99942, 9.998862 
1.9148567e+3, 2.4595176e+2, -765878.3, -717906.06, -19917.629, 0.057887156, 0.14601734, -710714.56, -181026.61, 0.0, 9.998735, 9.999384 
1.9147995e+3, 2.559514e+2, -762975.56, -660201.3, -25966.305, 0.03383566, 0.18531528, -654013.4, -222319.78, 0.0, 9.998058, 9.999433 
1.9147426e+3, 2.6595122e+2, -710385.56, -494932.9, -17248.648, 0.034720328, 0.19744161, -493560.75, -159863.55, 0.0, 9.997364, 10.000229 
1.914686e+3, 2.759512e+2, -713139.2, -442269.22, -12414.137, 0.05237131, 0.18766698, -441701.44, -206003.19, 0.0, 9.996658, 10.0002575 
1.914629e+3, 2.859519e+2, -672690.4, -303753.0, -16582.598, 0.042105354, 0.21880664, -303009.16, -165316.9, 0.0, 9.995971, 10.000866 
1.914572e+3, 2.9595327e+2, -676837.06, -260733.39, -22965.92, 0.013499515, 0.28365925, -259469.67, -219790.23, 0.0, 9.995295, 10.000814 
1.9145152e+3, 3.0595273e+2, -717536.8, -222308.95, -24395.18, 0.044789672, 0.15376946, -221110.14, -221110.14, 0.0, 9.99454, 10.001105 
1.9144584e+3, 3.1595463e+2, -679803.8, 43410.113, -3493.5078, 0.050248787, 0.23661605, 43426.99, 43426.99, 0.0, 9.993733, 10.003319 
1.9255419e+3, 1.2603103e+2, -1027547.25, -1694769.8, 59939.14, 0.06265278, 0.065847814, -1022205.5, 682696.1, 0.03463913, 10.006283, 9.997111 
1.9254838e+3, 1.360278e+2, -988308.25, -1610126.3, 9004.555, 0.026371978, 0.03150696, -988177.9, 618755.56, 0.024270048, 10.005732, 9.997286 
1.9254266e+3, 1.4602548e+2, -945316.44, -1494662.9, 36237.36, 0.028675787, 0.068440005, -942936.4, 566019.4, 0.013999266, 10.005097, 9.997711 
1.9253698e+3, 1.5602279e+2, -942960.56, -1445916.3, 39399.207, 0.041484725, 0.04095059, -939892.94, 471088.63, 0.0060416143, 10.004409, 9.997704 
1.9253129e+3, 1.6602045e+2, -908516.1, -1338760.3, 30632.893, 0.044175826, 0.037262242, -906346.0, 406658.4, 0.0016417655, 10.00378, 9.998071 
1.9252558e+3, 1.7601855e+2, -896327.56, -1283395.4, 27131.127, 0.04040733, 0.055493888, -894435.06, 320588.2, 0.00016847836, 10.00319, 9.998062 
1.9251989e+3, 1.8601665e+2, -865367.25, -1184053.0, 24496.893, 0.045329046, 0.063084535, -863495.2, 253547.44, 0.0000005123015, 10.0025835, 9.998364 
1.925142e+3, 1.9601485e+2, -857868.2, -1130007.3, 23716.959, 0.055988703, 0.05999626, -855816.7, 163244.58, 0.0, 10.001963, 9.998362 
1.9250849e+3, 2.0601332e+2, -824932.06, -1024190.3, 16425.775, 0.052518673, 0.0727138, -823587.06, 97489.875, 0.0, 10.001347, 9.998713 
1.9250275e+3, 2.1601214e+2, -817734.6, -972297.9, 15705.033, 0.039499737, 0.09631262, -816155.0, 6934.188, 0.0, 10.000733, 9.998692 
1.9249701e+3, 2.2601083e+2, -800597.1, -892828.0, 8270.3, 0.04474111, 0.108557664, -799861.44, -74757.945, 0.0, 10.000091, 9.998874 
1.924913e+3, 2.360096e+2, -798090.8, -839176.94, 8135.0947, 0.062540755, 0.11149596, -796538.7, -169420.77, 0.0, 9.999428, 9.998889 
1.9248553e+3, 2.4600878e+2, -763670.94, -716435.94, 3217.5115, 0.05688795, 0.13591295, -716217.8, -187089.67, 0.0, 9.998754, 9.999383 
1.9247973e+3, 2.5600842e+2, -761189.44, -658548.75, 7907.1616, 0.034926143, 0.17503962, -657943.2, -226809.14, 0.0, 9.998072, 9.999435 
1.92474e+3, 2.6600823e+2, -705320.8, -486908.84, 13529.655, 0.03734562, 0.18786581, -486073.9, -152936.6, 0.0, 9.997379, 10.000274 
1.9246826e+3, 2.760083e+2, -707680.5, -434353.38, 7476.867, 0.05635141, 0.17926982, -434149.0, -199011.3, 0.0, 9.996677, 10.000299 
1.9246249e+3, 2.86009e+2, -671376.6, -301272.94, 5366.48, 0.046614062, 0.20804411, -301195.16, -164063.28, 0.0, 9.995976, 10.000878 
1.924567e+3, 2.9601035e+2, -679381.4, -261095.11, 8619.319, 0.017838094, 0.26836568, -260917.58, -221797.81, 0.0, 9.995278, 10.000817 
1.9245097e+3, 3.0600998e+2, -719767.6, -226628.34, 5952.0054, 0.053173173, 0.15977676, -226556.52, -226556.52, 0.0, 9.994543, 10.001071 
1.9244522e+3, 3.1601152e+2, -660558.0, 73284.195, 24651.541, 0.057901863, 0.21105136, 74111.37, 74111.37, 0.0, 9.993781, 10.003498 
1.935548e+3, 1.260885e+2, -1043438.0, -1727936.0, 37144.477, 0.067088746, 0.012020457, -1041428.25, 662908.25, 0.035786867, 10.006283, 9.996884 
1.9354893e+3, 1.3608566e+2, -1003973.25, -1642734.8, -11880.867, 0.027582277, 0.040966082, -1003752.3, 602613.8, 0.025125662, 10.005729, 9.997066 
1.9354314e+3, 1.4608337e+2, -941478.75, -1486784.1, 10968.314, 0.02846568, 0.088169925, -941258.2, 567130.3, 0.014542228, 10.005096, 9.997769 
1.935374e+3, 1.560805e+2, -939554.94, -1440294.8, 14049.511, 0.04554768, 0.03801808, -939161.06, 471254.34, 0.006311304, 10.004412, 9.997744 
1.9353165e+3, 1.6607803e+2, -914109.75, -1352560.0, 8741.734, 0.046994988, 0.025084004, -913935.56, 398503.94, 0.0017316713, 10.003785, 9.997975 
1.9352588e+3, 1.7607605e+2, -901427.75, -1296206.4, 5357.439, 0.03806819, 0.04246558, -901355.06, 313104.6, 0.00018127312, 10.003196, 9.997974 
1.9352011e+3, 1.8607421e+2, -863964.75, -1183324.4, 1806.1785, 0.04043692, 0.061048206, -863954.56, 252523.95, 0.00000059147396, 10.002588, 9.998369 
1.9351436e+3, 1.9607261e+2, -856596.7, -1129617.6, 1019.0629, 0.05038156, 0.07673341, -856592.9, 161902.48, 0.0, 10.001968, 9.9983635 
1.9350861e+3, 2.0607099e+2, -822674.7, -1021784.5, -5937.062, 0.05524398, 0.079934955, -822497.8, 98014.09, 0.0, 10.001352, 9.998729 
1.9350281e+3, 2.1606953e+2, -815585.0, -970147.75, -6848.4937, 0.05654652, 0.07529568, -815282.1, 7244.5, 0.0, 10.000739, 9.998706 
1.9349702e+3, 2.260683e+2, -796955.75, -887608.6, -15987.157, 0.052929, 0.09124636, -794218.94, -69678.734, 0.0, 10.000095, 9.998909 
1.934912e+3, 2.3606735e+2, -793803.4, -832682.56, -16443.047, 0.046363715, 0.11913426, -787781.75, -161230.03, 0.0, 9.9994335, 9.998933 
1.9348538e+3, 2.460666e+2, -752566.2, -695856.56, -21965.033, 0.04455763, 0.14019318, -688344.1, -159783.17, 0.0, 9.998759, 9.999523 
1.9347954e+3, 2.5606617e+2, -751992.4, -642022.7, -17143.164, 0.045497853, 0.15678696, -639412.2, -208845.1, 0.0, 9.998078, 9.999548 
1.9347371e+3, 2.6606593e+2, -712632.75, -504684.94, -12457.76, 0.047448188, 0.16561124, -503941.28, -171370.31, 0.0, 9.997386, 10.000152 
1.934679e+3, 2.7606592e+2, -713085.94, -448320.38, -18924.543, 0.05014145, 0.16577733, -446974.56, -212402.45, 0.0, 9.996685, 10.000203 
1.9346207e+3, 2.8606668e+2, -659282.9, -279022.94, -20982.107, 0.04639873, 0.19549984, -277868.66, -141302.73, 0.0, 9.995984, 10.001029 
1.9345623e+3, 2.960681e+2, -669208.6, -242831.08, -17507.879, 0.0388803, 0.25198168, -242113.39, -203560.64, 0.0, 9.995286, 10.000941 
1.9345042e+3, 3.0606815e+2, -724754.1, -240271.33, -22187.613, 0.07322022, 0.18192469, -239257.34, -239257.34, 0.0, 9.994553, 10.000976 
1.9344456e+3, 3.1606942e+2, -652781.8, 85245.75, -2622.498, 0.053643696, 0.2158276, 85255.06, 85255.06, 0.0, 9.993794, 10.003577 
1.9455542e+3, 1.2614703e+2, -1039120.9, -1725160.0, 43584.367, 0.0755605, 0.02821832, -1036363.06, 667400.0, 0.03692637, 10.006322, 9.996882 
1.9454949e+3, 1.36144e+2, -1012005.75, -1648735.8, 9596.331, 0.033897582, 0.04006699, -1011861.2, 593933.4, 0.025971493, 10.005691, 9.997041 
1.9454364e+3, 1.4614168e+2, -946399.1, -1489430.0, 33513.53, 0.031054601, 0.0855312, -944338.6, 563478.56, 0.015076768, 10.005071, 9.997761 
1.9453783e+3, 1.5613888e+2, -933494.1, -1437703.1, 31805.334, 0.046714596, 0.044661194, -931495.8, 478347.6, 0.0065761525, 10.004461, 9.997735 
1.9453202e+3, 1.6613638e+2, -903881.6, -1346313.3, 29852.668, 0.04656542, 0.029512683, -901876.44, 409991.2, 0.0018199761, 10.003855, 9.997982 
1.9452618e+3, 1.7613429e+2, -893958.4, -1291855.9, 32586.854, 0.035874914, 0.037261494, -891307.25, 322581.28, 0.00019374436, 10.003248, 9.997975 
1.9452035e+3, 1.8613242e+2, -859799.6, -1181830.4, 29503.467, 0.038641915, 0.05325452, -857118.94, 258788.78, 0.00000064783603, 10.002624, 9.99836 
1.9451456e+3, 1.9613081e+2, -854776.5, -1129073.4, 26923.418, 0.050265476, 0.07115703, -852158.8, 165765.75, 0.0, 10.001987, 9.998356 
1.9450872e+3, 2.0612922e+2, -823155.4, -1018595.94, 19129.41, 0.056931872, 0.076569885, -821300.6, 98640.27, 0.0, 10.001339, 9.9987545 
1.9450288e+3, 2.1612781e+2, -822202.6, -969943.75, 18077.146, 0.060394105, 0.073549144, -820022.94, 1932.5084, 0.0, 10.000684, 9.998732 
1.94497e+3, 2.2612658e+2, -799534.94, -881563.2, 9651.454, 0.055067264, 0.08804424, -798414.6, -74445.96, 0.0, 10.0000515, 9.99897 
1.9449112e+3, 2.3612568e+2, -790067.5, -824079.44, 10291.227, 0.043873664, 0.113038674, -787196.06, -161216.38, 0.0, 9.999434, 9.998989 
1.9448523e+3, 2.4612495e+2, -743858.5, -687148.8, -526.6402, 0.04157975, 0.13347541, -687143.9, -159155.39, 0.0, 9.998804, 9.999559 
1.9447933e+3, 2.5612456e+2, -737106.9, -630234.4, -4317.7813, 0.045300495, 0.15037848, -630060.2, -200065.78, 0.0, 9.998165, 9.999585 
1.9447343e+3, 2.6612437e+2, -697854.5, -492830.53, 2401.457, 0.04915667, 0.1611661, -492802.4, -160804.7, 0.0, 9.997472, 10.000189 
1.9446756e+3, 2.7612442e+2, -702546.3, -439093.3, 7659.0283, 0.052586533, 0.16460599, -438870.84, -204872.8, 0.0, 9.996744, 10.000236 
1.9446166e+3, 2.861251e+2, -652264.2, -274484.22, 3469.1125, 0.050166924, 0.1861315, -274452.38, -138459.69, 0.0, 9.996032, 10.001035 
1.9445574e+3, 2.961264e+2, -663379.6, -239817.64, -5005.6694, 0.045090348, 0.22778946, -239758.48, -201777.33, 0.0, 9.99533, 10.000938 
1.9444987e+3, 3.061268e+2, -712182.94, -240310.92, -12911.643, 0.080154546, 0.20039456, -239957.89, -239957.89, 0.0, 9.99467, 10.0009165 
1.9444394e+3, 3.1612778e+2, -613504.7, 111181.85, 9319.383, 0.050122794, 0.20984535, 111301.68, 111301.68, 0.0, 9.994039, 10.003634 
1.9555604e+3, 1.2620655e+2, -1028424.7, -1701965.1, 19225.744, 0.085973226, 0.09879719, -1027876.4, 675305.4, 0.038054805, 10.006324, 9.997043 
1.9555005e+3, 1.3620284e+2, -1003570.06, -1632227.8, -13656.029, 0.044390414, 0.029810349, -1003273.56, 601944.75, 0.0268062, 10.005696, 9.997153 
1.9554412e+3, 1.462004e+2, -951045.0, -1500994.4, 10817.28, 0.035908025, 0.06461223, -950832.3, 556409.44, 0.01560265, 10.005077, 9.99768 
1.9553825e+3, 1.5619789e+2, -937183.25, -1447354.5, 9115.036, 0.045256715, 0.059927087, -937020.44, 472245.2, 0.006836453, 10.004466, 9.997668 
1.9553238e+3, 1.6619545e+2, -897374.75, -1334803.1, 7260.1904, 0.04326944, 0.048446458, -897254.25, 414034.88, 0.0019070458, 10.0038595, 9.998062 
1.955265e+3, 1.7619327e+2, -888608.06, -1282865.1, 9769.879, 0.03381693, 0.039018624, -888366.1, 324944.13, 0.00020607443, 10.003253, 9.998037 
1.9552061e+3, 1.8619126e+2, -861530.56, -1187616.1, 5846.701, 0.039713405, 0.03990318, -861425.75, 253904.83, 0.00000068836556, 10.002628, 9.998321 
1.9551474e+3, 1.9618946e+2, -856121.56, -1134182.1, 3363.3577, 0.05533687, 0.044253867, -856080.9, 161268.27, 0.0, 10.001992, 9.998321 
1.9550884e+3, 2.0618801e+2, -820776.44, -1016048.7, -4898.3765, 0.05739354, 0.063449375, -820653.6, 98710.75, 0.0, 10.001345, 9.998772 
1.9550292e+3, 2.1618691e+2, -819659.5, -967082.6, -5730.294, 0.05098795, 0.09141637, -819437.1, 1938.9606, 0.0, 10.0006895, 9.998751 
1.9549699e+3, 2.2618566e+2, -793605.94, -871709.3, -12871.306, 0.051383752, 0.09874459, -791539.44, -68150.07, 0.0, 10.000057, 9.999037 
1.9549106e+3, 2.361845e+2, -785541.6, -817204.6, -12509.4375, 0.05579665, 0.092192605, -781195.9, -155793.58, 0.0, 9.99944, 9.999036 
1.954851e+3, 2.4618378e+2, -749060.7, -700627.7, -24160.064, 0.048082244, 0.11541331, -690636.75, -163225.33, 0.0, 9.998811, 9.999466 
1.9547912e+3, 2.5618353e+2, -739833.6, -638840.6, -28634.084, 0.033084944, 0.15724497, -631287.06, -201870.47, 0.0, 9.998174, 9.999524 
1.9547316e+3, 2.661835e+2, -682390.94, -463813.22, -25020.86, 0.04186774, 0.17645481, -460985.63, -129567.58, 0.0, 9.99748, 10.000386 
1.9546722e+3, 2.7618375e+2, -690145.56, -416518.7, -19351.012, 0.06502677, 0.17724122, -415156.94, -181741.0, 0.0, 9.996753, 10.000388 
1.9546126e+3, 2.861842e+2, -663423.75, -300945.88, -23037.947, 0.058052983, 0.18020841, -299487.5, -164074.84, 0.0, 9.996041, 10.000852 
1.9545527e+3, 2.9618502e+2, -673479.9, -264267.44, -31811.479, 0.03332928, 0.19432949, -261809.23, -224403.13, 0.0, 9.995339, 10.000768 
1.9544932e+3, 3.061858e+2, -711896.3, -244648.75, -37228.938, 0.07142908, 0.21457575, -241701.05, -241701.05, 0.0, 9.994686, 10.000881 
1.9544332e+3, 3.161866e+2, -609496.25, 112336.445, -14917.399, 0.048568316, 0.20801315, 112644.6, 112644.6, 0.0, 9.994064, 10.003633 
1.9655667e+3, 1.2626605e+2, -1016682.44, -1692984.0, 46757.867, 0.08786273, 0.097773015, -1013465.06, 689134.0, 0.039169606, 10.006405, 9.997065 
1.9655061e+3, 1.362624e+2, -985778.6, -1623028.9, 6463.7354, 0.047680177, 0.03556647, -985713.06, 618921.8, 0.027630957, 10.00583, 9.997149 
1.9654463e+3, 1.4625995e+2, -936114.5, -1496960.8, 27599.77, 0.038414888, 0.0693134, -934759.56, 571899.06, 0.016122194, 10.005203, 9.997644 
1.965387e+3, 1.5625738e+2, -928211.56, -1445733.8, 28432.703, 0.048071753, 0.06241644, -926654.1, 482029.16, 0.007093676, 10.004546, 9.997639 
1.9653276e+3, 1.6625491e+2, -889486.1, -1328664.9, 25067.6, 0.047221985, 0.05109934, -888059.94, 422646.9, 0.001993363, 10.003909, 9.998077 
1.9652681e+3, 1.7625275e+2, -883447.06, -1278024.9, 22409.984, 0.039389033, 0.042714503, -882178.3, 330549.25, 0.00021838487, 10.0032835, 9.998054 
1.9652086e+3, 1.8625073e+2, -855937.3, -1180553.1, 18555.596, 0.04328298, 0.042504344, -854880.1, 259867.52, 0.0000007202894, 10.002653, 9.998354 
1.9651492e+3, 1.9624895e+2, -850774.75, -1128292.1, 20391.453, 0.054732244, 0.044270813, -849284.44, 167481.56, 0.0, 10.00202, 9.998345 
1.9650896e+3, 2.0624748e+2, -815226.4, -1015129.7, 11568.424, 0.05614194, 0.06256658, -814559.1, 104222.37, 0.0, 10.001395, 9.998751 
1.9650298e+3, 2.1624637e+2, -808417.4, -962419.8, 6922.418, 0.05117353, 0.09123681, -808106.9, 12686.724, 0.0, 10.000774, 9.998739 
1.9649698e+3, 2.2624516e+2, -783896.9, -858510.3, -2610.4756, 0.05348095, 0.09960505, -783805.6, -60999.203, 0.0, 10.000092, 9.999108 
1.9649099e+3, 2.3624405e+2, -791617.75, -812969.1, -2176.231, 0.06031016, 0.093587086, -791398.2, -166579.78, 0.0, 9.9993725, 9.999095 
1.9648497e+3, 2.4624333e+2, -762134.4, -707507.25, -8546.173, 0.052914936, 0.1142194, -706201.5, -179373.83, 0.0, 9.998729, 9.999456 
1.9647892e+3, 2.5624302e+2, -746727.0, -642052.8, -7857.7725, 0.03666216, 0.15215366, -641466.25, -212632.77, 0.0, 9.99813, 9.99952 
1.964729e+3, 2.6624304e+2, -683925.56, -458799.5, -13210.598, 0.04485894, 0.17560363, -458026.94, -127192.65, 0.0, 9.997449, 10.000434 
1.9646688e+3, 2.7624345e+2, -692725.0, -412699.03, -19141.258, 0.068091266, 0.18515718, -411396.7, -178565.86, 0.0, 9.996718, 10.000429 
1.9646084e+3, 2.8624377e+2, -653883.56, -295458.0, -15146.166, 0.057344668, 0.17553546, -294819.1, -159990.64, 0.0, 9.996107, 10.0008545 
1.9645478e+3, 2.9624435e+2, -640202.06, -248440.88, -10022.906, 0.026359526, 0.16492605, -248184.61, -211360.5, 0.0, 9.995573, 10.000762 
1.9644877e+3, 3.0624557e+2, -673429.5, -230496.27, -11027.981, 0.067328155, 0.23051095, -230221.86, -230221.86, 0.0, 9.994974, 10.000837 
1.9644272e+3, 3.1624597e+2, -578513.2, 116637.336, 9152.768, 0.042243615, 0.19069733, 116757.82, 116757.82, 0.0, 9.994328, 10.003533 
1.9755729e+3, 1.2632568e+2, -1023098.3, -1707924.4, 24033.363, 0.0819104, 0.039852396, -1022255.94, 679758.2, 0.040269125, 10.006413, 9.996959 
1.9755119e+3, 1.3632269e+2, -992834.5, -1639843.4, -14881.978, 0.04502664, 0.05541844, -992492.4, 611551.8, 0.028446794, 10.005837, 9.997033 
1.9754513e+3, 1.4632022e+2, -936032.7, -1498717.3, 3475.8994, 0.038995333, 0.094922826, -936011.2, 570057.0, 0.016637264, 10.005209, 9.997631 
1.9753914e+3, 1.563173e+2, -928540.06, -1448689.0, 4193.1455, 0.054601647, 0.05353046, -928506.25, 479589.97, 0.0073490036, 10.004552, 9.997618 
1.9753315e+3, 1.6631475e+2, -892186.94, -1336873.8, 1764.6436, 0.057534087, 0.039769292, -892179.94, 417940.7, 0.0020792845, 10.003916, 9.99802 
1.9752713e+3, 1.7631271e+2, -885002.44, -1284043.3, -769.16254, 0.05179691, 0.04839081, -885000.94, 327139.63, 0.000230747, 10.00329, 9.998012 
1.9752112e+3, 1.8631086e+2, -848665.25, -1168229.4, -4819.701, 0.0489943, 0.059983984, -848592.56, 265566.56, 0.0000007475641, 10.002661, 9.998438 
1.975151e+3, 1.9630924e+2, -845200.9, -1119464.0, -2945.7827, 0.048629757, 0.06991614, -845169.2, 171006.36, 0.0, 10.002027, 9.998405 
1.9750907e+3, 2.0630759e+2, -819216.3, -1025983.0, -11149.573, 0.053383496, 0.07307222, -818616.9, 99575.805, 0.0, 10.001402, 9.998676 
1.9750305e+3, 2.163061e+2, -811457.3, -971189.44, -16224.627, 0.06096413, 0.07265314, -809826.0, 10382.452, 0.0, 10.00078, 9.998678 
1.9749698e+3, 2.2630501e+2, -778718.75, -850154.44, -29129.428, 0.06116635, 0.09096091, -768346.6, -46126.285, 0.0, 10.000097, 9.999166 
1.974909e+3, 2.363043e+2, -786701.5, -805028.06, -28407.545, 0.056944087, 0.11863373, -766015.94, -141787.44, 0.0, 9.999377, 9.999149 
1.9748482e+3, 2.4630354e+2, -756782.4, -698717.56, -30762.63, 0.05627788, 0.13052364, -685450.8, -159213.16, 0.0, 9.9987335, 9.9995165 
1.9747874e+3, 2.5630295e+2, -743081.0, -636931.25, -30849.55, 0.057541963, 0.13355148, -628616.9, -200371.2, 0.0, 9.998136, 9.999556 
1.9747265e+3, 2.663029e+2, -692715.06, -479438.25, -41010.504, 0.058800254, 0.15696092, -471824.25, -141576.94, 0.0, 9.997455, 10.000292 
1.9746652e+3, 2.7630335e+2, -698611.06, -427372.7, -46567.59, 0.060187533, 0.18798283, -419600.44, -187356.58, 0.0, 9.996724, 10.000328 
1.9746043e+3, 2.863037e+2, -637695.06, -265631.88, -35703.355, 0.04689723, 0.1724741, -262236.75, -127995.734, 0.0, 9.996119, 10.001057 
1.9745432e+3, 2.963043e+2, -625192.94, -223184.2, -30652.633, 0.025162838, 0.14027199, -220860.4, -184624.63, 0.0, 9.995594, 10.000928 
1.9744827e+3, 3.0630594e+2, -674799.44, -240457.55, -35412.594, 0.06852592, 0.24806239, -237589.25, -237589.25, 0.0, 9.995, 10.000759 
1.9744213e+3, 3.1630594e+2, -592190.44, 80874.86, -16246.272, 0.0307747, 0.17815274, 81266.77, 81266.77, 0.0, 9.994354, 10.003277 
1.9855791e+3, 1.2638652e+2, -1002891.5, -1699882.9, 43629.813, 0.07624633, 0.045614306, -1000171.0, 701247.1, 0.041354645, 10.006579, 9.996932 
1.9855176e+3, 1.3638344e+2, -977224.8, -1636666.8, 10491.278, 0.051328495, 0.055835184, -977057.94, 626391.1, 0.02925433, 10.005977, 9.9969845 
1.9854565e+3, 1.4638089e+2, -922911.3, -1497953.8, 26369.959, 0.047109094, 0.09352192, -921704.6, 583769.25, 0.017148348, 10.005333, 9.997575 
1.9853958e+3, 1.5637791e+2, -916406.06, -1448052.8, 23957.459, 0.060559545, 0.055039376, -915328.6, 492173.75, 0.0076028514, 10.004665, 9.997565 
1.9853352e+3, 1.6637535e+2, -876490.94, -1329962.9, 23100.996, 0.062628895, 0.041828435, -875317.1, 434209.97, 0.0021650074, 10.004032, 9.998009 
1.9852746e+3, 1.7637327e+2, -867488.0, -1276378.1, 22830.6, 0.056744985, 0.04979601, -866217.2, 345330.13, 0.00024323525, 10.00342, 9.997999 
1.9852138e+3, 1.8637143e+2, -829380.75, -1157832.3, 15146.031, 0.05237192, 0.06311909, -828683.75, 284882.03, 0.0000007722277, 10.002793, 9.998443 
1.985153e+3, 1.9636983e+2, -826257.9, -1109180.9, 10412.925, 0.049468096, 0.07611695, -825875.2, 189706.83, 0.0, 10.002157, 9.99841 
1.985092e+3, 2.0636818e+2, -807470.2, -1016592.7, 2938.6284, 0.056109622, 0.07692932, -807428.9, 110170.27, 0.0, 10.001471, 9.998704 
1.985031e+3, 2.1636665e+2, -813846.0, -969316.94, 4551.253, 0.06830205, 0.07063086, -813712.9, 5902.3677, 0.0, 10.000756, 9.998701 
1.9849698e+3, 2.263656e+2, -775931.4, -847447.25, -8112.4893, 0.06679159, 0.092424, -775022.7, -53395.84, 0.0, 10.000115, 9.999173 
1.9849083e+3, 2.3636498e+2, -766073.75, -793409.8, -11816.941, 0.05708356, 0.12951203, -761673.75, -138039.53, 0.0, 9.9995165, 9.99916 
1.9848467e+3, 2.4636419e+2, -740713.0, -685193.2, -17137.303, 0.05647771, 0.13568349, -680329.44, -154686.06, 0.0, 9.998824, 9.999563 
1.9847853e+3, 2.5636345e+2, -749350.3, -635340.3, -18629.145, 0.061298296, 0.123663, -632373.5, -204721.5, 0.0, 9.998077, 9.999592 
1.9847237e+3, 2.6636347e+2, -697777.0, -484766.2, -23831.625, 0.05930665, 0.14802754, -482132.47, -152478.88, 0.0, 9.9974375, 10.000261 
1.9846618e+3, 2.7636397e+2, -681253.4, -421282.5, -21366.984, 0.05307882, 0.18961133, -419538.06, -187888.33, 0.0, 9.996858, 10.000303 
1.9846001e+3, 2.8636426e+2, -625965.56, -256334.47, -15172.223, 0.041020934, 0.1679537, -255712.73, -122065.305, 0.0, 9.996188, 10.001084 
1.9845386e+3, 2.9636472e+2, -640591.3, -225815.73, -23565.588, 0.026102744, 0.12070185, -224481.14, -188837.95, 0.0, 9.995473, 10.000966 
1.9844775e+3, 3.0636677e+2, -673804.5, -227952.78, -22023.729, 0.07057585, 0.2627647, -226867.52, -226867.52, 0.0, 9.99496, 10.000862 
1.9844154e+3, 3.1636646e+2, -575839.3, 69008.67, 8672.761, 0.019731652, 0.15332691, 69125.3, 69125.3, 0.0, 9.994556, 10.003096 
1.9955854e+3, 1.2644845e+2, -1000924.44, -1697306.3, 19535.98, 0.0698257, 0.09999342, -1000376.9, 700435.3, 0.042430937, 10.006588, 9.996948 
1.9955234e+3, 1.3644464e+2, -977785.7, -1639012.1, -12520.455, 0.06504612, 0.03958351, -977548.7, 625300.5, 0.030056072, 10.005981, 9.996969 
1.9954617e+3, 1.4644195e+2, -929637.25, -1513864.4, 1195.3885, 0.0613935, 0.07028006, -929634.8, 575240.5, 0.017656803, 10.005339, 9.997464 
1.9954003e+3, 1.5643921e+2, -921549.3, -1461877.5, -779.1132, 0.06585252, 0.06588933, -921548.2, 485353.72, 0.007856032, 10.004674, 9.997469 
1.9953391e+3, 1.6643664e+2, -873992.44, -1328061.1, 162.28053, 0.06305043, 0.055334505, -873992.4, 434934.28, 0.0022508984, 10.004042, 9.99802 
1.9952777e+3, 1.7643441e+2, -866359.75, -1277017.4, -215.9272, 0.054932352, 0.04720064, -866359.7, 344588.34, 0.00025598553, 10.0034275, 9.997993 
1.9952163e+3, 1.8643244e+2, -834248.5, -1170512.6, -8473.896, 0.05370017, 0.053043354, -834035.1, 278932.75, 0.00000079681985, 10.0028, 9.998355 
1.9951549e+3, 1.9643074e+2, -829511.8, -1118266.6, -13480.117, 0.056950126, 0.063852735, -828883.9, 186101.52, 0.0, 10.002162, 9.998348 
1.9950934e+3, 2.0642921e+2, -798637.25, -1000632.75, -23387.148, 0.063995905, 0.07470578, -795964.8, 121036.42, 0.0, 10.001476, 9.998814 
1.9950317e+3, 2.1642798e+2, -806887.8, -957347.8, -21118.488, 0.07304292, 0.08550236, -803979.8, 15034.572, 0.0, 10.000762, 9.998782 
1.9949697e+3, 2.2642688e+2, -779041.75, -856510.06, -29925.088, 0.07035851, 0.10386268, -768828.5, -47802.105, 0.0, 10.000122, 9.99911 
1.9949077e+3, 2.3642604e+2, -768495.06, -801342.56, -34743.5, 0.060841866, 0.12519926, -746489.0, -123452.77, 0.0, 9.999524, 9.9991045 
1.9948454e+3, 2.4642521e+2, -738358.94, -683093.94, -45219.836, 0.052981436, 0.12927367, -657732.25, -132686.6, 0.0, 9.998831, 9.999577 
1.9947831e+3, 2.564246e+2, -746848.56, -632391.2, -46075.848, 0.04621832, 0.12366196, -616148.06, -189095.06, 0.0, 9.998082, 9.999613 
1.9947207e+3, 2.6642463e+2, -691207.2, -473856.3, -45531.137, 0.045111466, 0.14974, -464703.78, -135650.16, 0.0, 9.997444, 10.000336 
1.9946584e+3, 2.764252e+2, -676664.9, -415767.0, -43749.77, 0.046960004, 0.18957163, -408626.1, -177577.1, 0.0, 9.99687, 10.000338 
1.9945961e+3, 2.8642532e+2, -637839.5, -284554.6, -43074.098, 0.04030753, 0.16188322, -279378.63, -146330.1, 0.0, 9.996199, 10.000889 
1.9945338e+3, 2.9642552e+2, -648992.0, -245049.45, -50385.24, 0.02959752, 0.10762997, -238859.58, -203812.1, 0.0, 9.995475, 10.000835 
1.9944723e+3, 3.0642793e+2, -650703.3, -183435.84, -37484.563, 0.07363064, 0.27348995, -180447.9, -180447.9, 0.0, 9.994969, 10.001165 
1.9944097e+3, 3.1642765e+2, -579837.5, 53815.4, -9152.269, 0.010384244, 0.13995926, 53947.566, 53947.566, 0.0, 9.994581, 10.002982 
2.005592e+3, 1.2651038e+2, -978049.25, -1685843.4, 29464.844, 0.0670937, 0.110616446, -976824.75, 723381.1, 0.043503467, 10.006763, 9.996943 
2.0055294e+3, 1.3650654e+2, -967965.44, -1636027.0, -2521.6226, 0.075916015, 0.048333045, -967955.94, 634287.2, 0.03085631, 10.006069, 9.996944 
2.005467e+3, 1.4650378e+2, -917615.25, -1511095.9, 13976.143, 0.07021514, 0.07399447, -917286.3, 586983.56, 0.018165473, 10.005444, 9.99743 
2.005405e+3, 1.5650097e+2, -897960.8, -1453732.1, 16155.492, 0.0653959, 0.06719114, -897491.6, 508805.44, 0.008110013, 10.004858, 9.997434 
2.005343e+3, 1.6649836e+2, -848570.5, -1317552.0, 16450.074, 0.06307262, 0.05755303, -847994.2, 460327.84, 0.002337465, 10.00423, 9.997999 
2.0052812e+3, 1.7649613e+2, -846862.5, -1269508.5, 12808.342, 0.060773678, 0.051640376, -846474.7, 363868.78, 0.0002691495, 10.003574, 9.997972 
2.0052192e+3, 1.8649413e+2, -822834.0, -1164770.5, 5386.7104, 0.060374208, 0.056983083, -822749.1, 289614.5, 0.00000082357883, 10.002882, 9.998352 
2.005157e+3, 1.964924e+2, -829309.2, -1117957.0, 5333.688, 0.061795767, 0.065776885, -829210.7, 185170.86, 0.0, 10.002168, 9.998345 
2.0050947e+3, 2.064909e+2, -794245.8, -995519.5, -7433.746, 0.0672918, 0.07882728, -793971.7, 122425.48, 0.0, 10.001498, 9.998836 
2.0050323e+3, 2.1648972e+2, -792723.0, -948290.6, -12330.378, 0.07477584, 0.09443695, -791751.75, 26657.938, 0.0, 10.0008545, 9.998797 
2.0049697e+3, 2.2648862e+2, -770906.56, -852665.56, -20032.275, 0.072147354, 0.11209376, -766262.1, -45840.266, 0.0, 10.000183, 9.9991045 
2.004907e+3, 2.3648773e+2, -772831.25, -802856.8, -21412.61, 0.0637122, 0.12919317, -761692.9, -139260.5, 0.0, 9.999497, 9.9991045 
2.004844e+3, 2.464869e+2, -733736.94, -674545.0, -30684.2, 0.05216841, 0.13153973, -661509.5, -137068.03, 0.0, 9.99884, 9.999628 
2.0047809e+3, 2.564863e+2, -727709.75, -618318.8, -29090.04, 0.03897923, 0.12604704, -611064.1, -184616.14, 0.0, 9.998198, 9.999651 
2.004718e+3, 2.6648632e+2, -686785.25, -474710.4, -31918.465, 0.03995194, 0.15178046, -470010.66, -141562.03, 0.0, 9.997492, 10.000304 
2.004655e+3, 2.7648684e+2, -696417.4, -428587.3, -38669.71, 0.048730943, 0.19055524, -423115.9, -192671.31, 0.0, 9.996754, 10.000303 
2.004592e+3, 2.864869e+2, -656367.5, -298475.06, -34632.973, 0.04143992, 0.15994158, -295154.47, -162709.47, 0.0, 9.9960985, 10.000838 
2.0045291e+3, 2.96487e+2, -647254.06, -244219.38, -29731.313, 0.025998121, 0.1027435, -242037.94, -207593.06, 0.0, 9.995492, 10.00083 
2.0044671e+3, 3.064897e+2, -635430.0, -146092.61, -7970.355, 0.07247318, 0.2823318, -145962.81, -145962.81, 0.0, 9.99495, 10.001429 
2.004404e+3, 3.164895e+2, -615665.5, 14779.455, 13010.742, 0.007880163, 0.13315909, 15047.849, 15047.849, 0.0, 9.994434, 10.002782 
2.0155986e+3, 1.2657247e+2, -980698.3, -1691414.6, 2318.0527, 0.06647819, 0.08684164, -980690.75, 718907.25, 0.044576637, 10.006765, 9.996904 
2.0155354e+3, 1.3656911e+2, -969843.56, -1642542.3, -27425.0, 0.084306166, 0.07798777, -968727.3, 632903.4, 0.03165899, 10.00608, 9.996898 
2.0154724e+3, 1.4656629e+2, -915273.25, -1509316.4, -7554.981, 0.07433661, 0.09932959, -915177.2, 588480.6, 0.0186771, 10.005455, 9.997439 
2.0154096e+3, 1.5656316e+2, -896607.6, -1453894.8, -5908.23, 0.059998047, 0.0599272, -896545.0, 509142.7, 0.008366169, 10.004868, 9.997431 
2.015347e+3, 1.6656052e+2, -852240.8, -1327588.5, -7833.3423, 0.06287795, 0.050329793, -852111.75, 455601.38, 0.002425157, 10.004235, 9.99793 
2.0152846e+3, 1.7655839e+2, -849678.94, -1277280.0, -11744.963, 0.07354884, 0.06263205, -849356.6, 360377.25, 0.00028282803, 10.003578, 9.997919 
2.0152219e+3, 1.8655646e+2, -817963.9, -1156838.5, -20992.838, 0.071790345, 0.073769435, -816668.4, 295085.0, 0.00000085303316, 10.002887, 9.998407 
2.015159e+3, 1.9655477e+2, -825849.44, -1113437.0, -20705.145, 0.06400044, 0.08119294, -824366.4, 189404.28, 0.0, 10.002174, 9.998376 
2.015096e+3, 2.0655319e+2, -798769.94, -1007580.9, -31039.89, 0.06613799, 0.088971525, -794253.5, 121533.74, 0.0, 10.001505, 9.998753 
2.0150329e+3, 2.1655186e+2, -796290.9, -958269.56, -36151.8, 0.07353683, 0.09716281, -788588.5, 29213.084, 0.0, 10.00086, 9.998729 
2.0149697e+3, 2.2655077e+2, -767341.94, -847844.94, -45378.586, 0.0721397, 0.117197536, -746935.4, -27121.652, 0.0, 10.000189, 9.999138 
2.0149064e+3, 2.3654997e+2, -769017.5, -797425.7, -46767.063, 0.065675825, 0.142136, -734345.06, -112522.04, 0.0, 9.999503, 9.999142 
2.0148428e+3, 2.4654919e+2, -727318.25, -663914.75, -54560.906, 0.054285295, 0.1430293, -632514.25, -108682.79, 0.0, 9.998847, 9.999701 
2.014779e+3, 2.565486e+2, -723697.25, -613268.4, -53758.074, 0.040267996, 0.13092604, -591420.75, -165583.2, 0.0, 9.998207, 9.999684 
2.0147154e+3, 2.665485e+2, -697153.06, -499223.72, -60390.223, 0.0447737, 0.15423195, -482253.13, -154413.69, 0.0, 9.997499, 10.000134 
2.0146517e+3, 2.765489e+2, -704740.1, -447746.6, -66783.43, 0.059492458, 0.19285494, -431428.16, -201590.56, 0.0, 9.996757, 10.000173 
2.014588e+3, 2.8654894e+2, -648223.6, -283693.84, -58240.8, 0.044515394, 0.16295238, -274614.84, -142777.05, 0.0, 9.996102, 10.000941 
2.0145243e+3, 2.9654917e+2, -637304.1, -226934.2, -52257.63, 0.013585896, 0.10741716, -220384.13, -186548.1, 0.0, 9.9955015, 10.000947 
2.0144616e+3, 3.0655202e+2, -620289.0, -118056.24, -27899.096, 0.06623566, 0.2881724, -116511.195, -116511.195, 0.0, 9.994959, 10.001619 
2.0143983e+3, 3.165522e+2, -637763.06, -32703.283, -11129.198, 0.015393087, 0.1612862, -32498.646, -32498.646, 0.0, 9.994436, 10.002458 
2.0256051e+3, 1.2663539e+2, -970729.25, -1683553.1, 18302.523, 0.075412676, 0.092125386, -970259.6, 728722.2, 0.045653503, 10.006836, 9.996924 
2.0255414e+3, 1.3663201e+2, -944005.1, -1628058.5, -6736.422, 0.08964166, 0.08090328, -943938.8, 657075.7, 0.03246552, 10.006267, 9.996904 
2.0254777e+3, 1.4662914e+2, -885314.4, -1491862.6, 14990.674, 0.07584771, 0.09866329, -884944.1, 618097.75, 0.019192135, 10.00566, 9.997459 
2.0254143e+3, 1.5662602e+2, -872658.4, -1440192.0, 16184.033, 0.058988564, 0.058311917, -872197.25, 532874.4, 0.008624698, 10.005031, 9.997443 
2.0253512e+3, 1.666234e+2, -840790.75, -1322100.9, 13417.654, 0.06399468, 0.05016237, -840417.0, 466680.06, 0.002514064, 10.00432, 9.997924 
2.025288e+3, 1.7662127e+2, -852236.9, -1278927.5, 13207.92, 0.07913542, 0.0651092, -851828.44, 357289.34, 0.00029700418, 10.003568, 9.9979105 
2.0252246e+3, 1.8661933e+2, -815959.5, -1155399.4, 3504.2122, 0.0772396, 0.07626377, -815923.3, 295214.13, 0.00000088449303, 10.002903, 9.998406 
2.025161e+3, 1.9661762e+2, -810569.1, -1106201.3, -1213.1943, 0.06679245, 0.0823514, -810564.1, 202590.9, 0.0, 10.002285, 9.998369 
2.0250975e+3, 2.0661601e+2, -786488.9, -1002996.0, -11135.509, 0.06778427, 0.09041466, -785917.6, 129254.22, 0.0, 10.0016, 9.998735 
2.0250337e+3, 2.1661465e+2, -794527.25, -957939.06, -12103.152, 0.0747802, 0.09956589, -793635.7, 23550.742, 0.0, 10.00088, 9.998719 
2.0249698e+3, 2.2661358e+2, -761534.25, -839142.5, -18929.8, 0.071947925, 0.12041734, -757163.2, -37964.79, 0.0, 10.000209, 9.999186 
2.0249057e+3, 2.3661286e+2, -757630.25, -786632.8, -20115.803, 0.063709036, 0.14617136, -747333.7, -126126.46, 0.0, 9.999563, 9.999184 
2.0248413e+3, 2.4661209e+2, -722311.7, -657772.7, -30678.564, 0.053105768, 0.14658599, -645517.0, -122301.64, 0.0, 9.99887, 9.999729 
2.024777e+3, 2.5661153e+2, -730588.25, -613748.7, -33846.523, 0.041239534, 0.1334202, -604652.1, -179430.9, 0.0, 9.998153, 9.999704 
2.0247127e+3, 2.6661143e+2, -702896.94, -502883.72, -35247.375, 0.04612984, 0.1559454, -496854.03, -169630.75, 0.0, 9.99747, 10.000121 
2.0246483e+3, 2.7661175e+2, -699932.5, -447794.97, -30033.943, 0.060225442, 0.1938506, -444266.75, -215044.9, 0.0, 9.996805, 10.000147 
2.024584e+3, 2.866118e+2, -646869.94, -291532.13, -24638.697, 0.043533374, 0.16766502, -289831.84, -158609.39, 0.0, 9.996154, 10.000859 
2.0245196e+3, 2.9661196e+2, -638381.6, -230485.25, -33021.99, 0.010171798, 0.118125014, -227829.19, -194608.19, 0.0, 9.995512, 10.000915 
2.0244564e+3, 3.066148e+2, -618445.2, -94231.516, -12577.465, 0.0641729, 0.28284875, -93929.92, -93929.92, 0.0, 9.994879, 10.00182 
2.0243925e+3, 3.1661534e+2, -686808.44, -86098.65, 930.0491, 0.013805501, 0.18369488, -86097.21, -86097.21, 0.0, 9.994233, 10.002186 
2.0356119e+3, 1.2669906e+2, -966011.56, -1676902.4, -3002.6062, 0.090726145, 0.11764004, -965998.9, 732359.25, 0.046735875, 10.006852, 9.996967 
2.0355475e+3, 1.3669527e+2, -941235.2, -1623693.4, -27273.191, 0.09233419, 0.061751947, -940147.0, 660247.25, 0.03327515, 10.006272, 9.996935 
2.0354831e+3, 1.466924e+2, -884316.6, -1490713.3, -7755.237, 0.0753282, 0.07728717, -884217.44, 618204.06, 0.019709162, 10.005662, 9.997469 
2.0354192e+3, 1.5668952e+2, -871596.2, -1439047.3, -7637.0884, 0.06169876, 0.06190905, -871493.44, 532955.5, 0.008884886, 10.005032, 9.997454 
2.0353554e+3, 1.6668695e+2, -837894.0, -1317936.6, -14516.157, 0.06603236, 0.055785578, -837455.44, 469018.63, 0.0026040394, 10.004323, 9.997954 
2.0352913e+3, 1.7668475e+2, -850137.1, -1277367.0, -13969.258, 0.07814832, 0.059730683, -849680.9, 358814.7, 0.0003116134, 10.003574, 9.997921 
2.0352273e+3, 1.8668272e+2, -819803.44, -1166059.8, -19224.352, 0.077287175, 0.06572044, -818739.4, 291776.8, 0.00000091882856, 10.00291, 9.998333 
2.035163e+3, 1.966809e+2, -813644.94, -1114841.8, -24541.205, 0.070221215, 0.07010489, -811658.44, 200876.33, 0.0, 10.00229, 9.99831 
2.0350988e+3, 2.0667936e+2, -783447.8, -998936.75, -37603.85, 0.072125055, 0.0836259, -777074.25, 137476.95, 0.0, 10.001605, 9.998764 
2.0350344e+3, 2.1667811e+2, -791368.56, -953831.7, -38083.082, 0.07840837, 0.10194123, -782884.56, 33680.13, 0.0, 10.000886, 9.998747 
2.0349698e+3, 2.2667708e+2, -757337.06, -833108.3, -42596.668, 0.07142795, 0.12170958, -738215.7, -19639.33, 0.0, 10.000216, 9.999227 
2.034905e+3, 2.3667632e+2, -754472.1, -782908.9, -44486.406, 0.057527285, 0.14077349, -721987.1, -101401.73, 0.0, 9.99957, 9.999208 
2.03484e+3, 2.4667555e+2, -723680.25, -663330.6, -57591.027, 0.048423998, 0.14180128, -628488.1, -105894.43, 0.0, 9.998877, 9.999691 
2.0347749e+3, 2.5667498e+2, -730219.0, -615389.4, -60632.91, 0.041870806, 0.13343596, -589300.9, -164701.14, 0.0, 9.9981575, 9.999693 
2.0347099e+3, 2.6667497e+2, -691762.3, -482399.97, -60162.2, 0.04341497, 0.1567737, -466343.25, -139742.55, 0.0, 9.997476, 10.000261 
2.0346448e+3, 2.766754e+2, -693882.9, -438519.78, -54532.56, 0.049291745, 0.1932846, -427361.94, -198764.3, 0.0, 9.996814, 10.000209 
2.0345798e+3, 2.8667536e+2, -667334.4, -337554.28, -48931.258, 0.03803049, 0.17450775, -330447.25, -199847.84, 0.0, 9.996163, 10.000542 
2.0345148e+3, 2.9667535e+2, -652997.0, -264274.2, -57822.703, 0.017725984, 0.13643289, -255855.38, -223254.72, 0.0, 9.9955225, 10.000681 
2.0344512e+3, 3.066778e+2, -603880.44, -66563.11, -37993.76, 0.0667725, 0.26326987, -63889.863, -63889.863, 0.0, 9.9948845, 10.002009 
2.0343864e+3, 3.166791e+2, -701455.0, -116951.3, -28889.65, 0.0016196639, 0.21866232, -115526.87, -115526.87, 0.0, 9.99423, 10.001978 
2.0456187e+3, 1.2676318e+2, -929667.3, -1660380.6, 28923.172, 0.09379101, 0.10475361, -928524.3, 769204.8, 0.047822885, 10.007133, 9.996948 
2.0455538e+3, 1.3675937e+2, -928396.5, -1618954.6, 2477.8457, 0.09603722, 0.051058404, -928387.6, 671377.75, 0.03408601, 10.006381, 9.996912 
2.0454887e+3, 1.4675653e+2, -881272.5, -1486826.5, 20897.068, 0.07908642, 0.0705153, -880552.2, 621240.4, 0.020226318, 10.005681, 9.997484 
2.0454241e+3, 1.5675375e+2, -875244.7, -1439331.9, 20507.4, 0.06621033, 0.06390323, -874500.1, 529319.3, 0.009145667, 10.005006, 9.997461 
2.0453595e+3, 1.6675118e+2, -834817.9, -1316718.9, 10205.671, 0.06824772, 0.059212003, -834601.8, 471242.84, 0.0026947195, 10.004351, 9.997947 
2.0452948e+3, 1.7674895e+2, -832278.1, -1269112.3, 7555.2026, 0.07626181, 0.06030364, -832147.5, 375719.16, 0.0003265787, 10.003703, 9.997912 
2.0452301e+3, 1.867469e+2, -807510.75, -1159008.1, 4782.4688, 0.07683799, 0.06751864, -807445.7, 302441.75, 0.0000009613897, 10.002995, 9.998338 
2.0451653e+3, 1.9674511e+2, -818723.25, -1115684.5, 4001.8013, 0.07419473, 0.07514513, -818669.4, 193236.52, 0.0, 10.002253, 9.99832 
2.0451002e+3, 2.067436e+2, -789162.06, -995470.8, -7625.473, 0.07611929, 0.08801012, -788880.6, 125041.484, 0.0, 10.001544, 9.998814 
2.045035e+3, 2.1674237e+2, -793628.7, -949886.44, -7200.518, 0.07997948, 0.103915334, -793297.56, 22637.664, 0.0, 10.000854, 9.998787 
2.0449698e+3, 2.2674131e+2, -761901.1, -833861.75, -11687.299, 0.070537135, 0.1220901, -760050.56, -42103.563, 0.0, 10.000183, 9.999234 
2.0449042e+3, 2.3674054e+2, -760318.2, -783057.5, -16758.443, 0.054351233, 0.13979323, -751436.56, -131480.27, 0.0, 9.999524, 9.999228 
2.0448387e+3, 2.4673983e+2, -715213.44, -649736.44, -25647.607, 0.04576566, 0.1429337, -640886.4, -118922.44, 0.0, 9.998899, 9.99977 
2.044773e+3, 2.5673938e+2, -707259.0, -597352.75, -20814.701, 0.04115006, 0.13871329, -593542.8, -169573.97, 0.0, 9.998291, 9.99975 
2.0447071e+3, 2.6673934e+2, -670789.2, -474851.4, -26828.639, 0.040968187, 0.1609462, -471244.3, -145274.2, 0.0, 9.997636, 10.000234 
2.0446415e+3, 2.7673972e+2, -675530.56, -432558.88, -34609.67, 0.043186337, 0.19365992, -427725.13, -199757.22, 0.0, 9.996958, 10.000177 
2.0445758e+3, 2.867397e+2, -661327.2, -338328.78, -20614.229, 0.036130857, 0.18468423, -337018.47, -207049.36, 0.0, 9.996226, 10.000504 
2.0445102e+3, 2.9673982e+2, -662914.8, -271113.0, -8020.8433, 0.024044357, 0.16211131, -270948.88, -238979.64, 0.0, 9.995468, 10.000657 
2.0444459e+3, 3.0674174e+2, -610952.4, -64853.133, 12813.711, 0.06635678, 0.23403963, -64552.637, -64552.637, 0.0, 9.994819, 10.002049 
2.0443803e+3, 3.1674346e+2, -718271.56, -147119.36, 6136.2407, -0.008916052, 0.23600517, -147053.45, -147053.45, 0.0, 9.994215, 10.001776 
2.0556258e+3, 1.2682779e+2, -933297.9, -1671571.1, 1431.0167, 0.08677085, 0.061739396, -933295.06, 763799.5, 0.04891181, 10.007152, 9.996861 
2.0555598e+3, 1.3682428e+2, -931568.5, -1629991.8, -23359.736, 0.100553654, 0.04745281, -930788.06, 668340.4, 0.034896757, 10.006399, 9.99683 
2.0554942e+3, 1.4682148e+2, -879170.2, -1486332.5, -3255.5474, 0.08618912, 0.075162314, -879152.75, 622002.94, 0.020742834, 10.005695, 9.997484 
2.0554289e+3, 1.5681866e+2, -874354.56, -1440892.4, -4035.4304, 0.072170265, 0.06433333, -874325.8, 528857.5, 0.009406379, 10.005016, 9.997448 
2.0553635e+3, 1.6681607e+2, -837864.2, -1325527.5, -13478.1455, 0.0705831, 0.06104047, -837491.94, 467717.1, 0.0027857132, 10.004356, 9.997886 
2.0552984e+3, 1.7681381e+2, -834580.7, -1275445.1, -16676.023, 0.07352485, 0.06641926, -833950.8, 373280.7, 0.00034183564, 10.003705, 9.997871 
2.055233e+3, 1.8681186e+2, -802814.5, -1150855.9, -22438.936, 0.075922705, 0.08068435, -801373.75, 307877.75, 0.000001022812, 10.0029955, 9.998396 
2.0551673e+3, 1.9681022e+2, -814071.0, -1108099.0, -23024.197, 0.07864977, 0.09641902, -812279.0, 198989.69, 0.0, 10.002256, 9.998373 
2.0551015e+3, 2.0680867e+2, -784505.9, -988227.6, -32984.516, 0.07970144, 0.10294546, -779298.5, 133986.39, 0.0, 10.00155, 9.998864 
2.0550357e+3, 2.1680735e+2, -790314.4, -945611.6, -32335.174, 0.07945594, 0.10528915, -783850.75, 31447.93, 0.0, 10.000859, 9.9988165 
2.0549697e+3, 2.2680627e+2, -763819.6, -840532.7, -36024.695, 0.069317475, 0.12164696, -749554.9, -32244.057, 0.0, 10.000189, 9.999187 
2.0549035e+3, 2.368055e+2, -759443.3, -783876.25, -40907.645, 0.054335017, 0.14352724, -728966.94, -109646.63, 0.0, 9.99953, 9.999222 
2.0548373e+3, 2.4680494e+2, -700858.75, -622891.56, -48060.43, 0.045153018, 0.15038115, -599992.0, -78665.61, 0.0, 9.998907, 9.999953 
2.054771e+3, 2.5680467e+2, -698100.2, -581938.0, -43685.938, 0.038847115, 0.14975041, -567342.6, -144013.69, 0.0, 9.998301, 9.999854 
2.0547046e+3, 2.6680455e+2, -685498.7, -509384.9, -52229.69, 0.03890412, 0.16888276, -495060.38, -169728.44, 0.0, 9.997648, 9.999993 
2.0546381e+3, 2.768046e+2, -683907.3, -454223.03, -61025.156, 0.042599812, 0.19515099, -439016.0, -211682.55, 0.0, 9.99697, 10.000025 
2.0545718e+3, 2.868048e+2, -640559.1, -298802.84, -49585.418, 0.038230952, 0.19880097, -291753.88, -162421.84, 0.0, 9.996236, 10.000772 
2.0545056e+3, 2.9680538e+2, -648164.56, -242860.92, -34629.99, 0.028791301, 0.1964169, -239923.34, -208596.83, 0.0, 9.995473, 10.000852 
2.0544404e+3, 3.068065e+2, -621397.2, -89251.88, -8677.702, 0.06227487, 0.19244364, -89110.414, -89110.414, 0.0, 9.994825, 10.001882 
2.0543742e+3, 3.1680855e+2, -729904.44, -174769.5, -20221.717, -0.016332628, 0.24265197, -174033.86, -174033.86, 0.0, 9.994225, 10.001584 
2.0656328e+3, 1.2689354e+2, -894432.0, -1659271.5, 33977.746, 0.08496181, 0.043779857, -892925.5, 803523.8, 0.04999901, 10.007475, 9.996792 
2.0655662e+3, 1.3689011e+2, -893581.44, -1619035.9, 11988.415, 0.09265334, 0.04592342, -893383.4, 705099.5, 0.03570587, 10.006715, 9.99675 
2.0654997e+3, 1.4688726e+2, -847006.3, -1479150.8, 30027.443, 0.078799576, 0.07663042, -845583.2, 654927.9, 0.021258075, 10.005966, 9.997401 
2.0654339e+3, 1.5688434e+2, -850377.6, -1435809.4, 23463.65, 0.069173515, 0.0655458, -849438.75, 553101.3, 0.009666446, 10.005218, 9.997384 
2.0653678e+3, 1.6688171e+2, -825186.7, -1315543.4, 15282.939, 0.070505075, 0.06349319, -824710.8, 479855.16, 0.0028766836, 10.004433, 9.997915 
2.0653017e+3, 1.768795e+2, -844071.9, -1277195.0, 17424.97, 0.07527745, 0.070543304, -843371.94, 363216.03, 0.00035735784, 10.003633, 9.997891 
2.0652355e+3, 1.8687755e+2, -816285.2, -1156579.9, 10689.513, 0.080011524, 0.08475086, -815949.75, 292658.4, 0.0000011200523, 10.002905, 9.998398 
2.0651694e+3, 1.9687589e+2, -820035.75, -1109306.0, 5502.767, 0.08530499, 0.099933594, -819931.1, 190694.58, 0.0, 10.0022135, 9.998383 
2.065103e+3, 2.068744e+2, -782563.9, -980658.0, -5060.344, 0.08151945, 0.11031645, -782434.7, 130206.62, 0.0, 10.001539, 9.998918 
2.0650364e+3, 2.1687318e+2, -784588.94, -935834.2, -4656.433, 0.07299422, 0.1179666, -784445.7, 30208.45, 0.0, 10.000874, 9.998874 
2.0649695e+3, 2.268721e+2, -756850.25, -826167.56, -1746.0013, 0.063600086, 0.12755854, -756806.3, -40140.266, 0.0, 10.0001955, 9.999281 
2.0649028e+3, 2.3687129e+2, -757076.25, -773361.1, 2861.0544, 0.053830627, 0.1375091, -756588.25, -137912.67, 0.0, 9.999512, 9.9993 
2.0648359e+3, 2.4687083e+2, -706770.5, -621570.3, -7878.3604, 0.04651786, 0.15059955, -620847.94, -100167.15, 0.0, 9.998854, 9.999986 
2.064769e+3, 2.5687072e+2, -709564.7, -583500.2, -15526.75, 0.040319756, 0.16453022, -581615.94, -158933.92, 0.0, 9.998211, 9.999884 
2.0647019e+3, 2.6687053e+2, -693419.94, -508375.44, -15007.376, 0.040636223, 0.1747957, -507166.22, -182480.58, 0.0, 9.997579, 10.0000305 
2.064635e+3, 2.7687043e+2, -685533.06, -451255.47, -4282.436, 0.044660084, 0.18171619, -451177.22, -224488.56, 0.0, 9.996949, 10.000053 
2.0645678e+3, 2.8687084e+2, -632784.4, -293359.03, -2546.2334, 0.037189722, 0.20528015, -293339.94, -164654.61, 0.0, 9.996287, 10.000782 
2.0645007e+3, 2.9687175e+2, -628975.1, -233457.97, -7869.0986, 0.022783604, 0.23913476, -233301.47, -202624.98, 0.0, 9.99561, 10.000847 
2.0644349e+3, 3.0687213e+2, -619181.44, -96293.07, 16599.9, 0.04995442, 0.1649249, -95766.62, -95766.62, 0.0, 9.994881, 10.001803 
2.0643681e+3, 3.168744e+2, -740178.2, -170605.94, 9628.695, -0.018590553, 0.24662976, -170443.2, -170443.2, 0.0, 9.994121, 10.001659 
2.07564e+3, 1.2696029e+2, -898329.94, -1669263.1, 5802.504, 0.08636103, 0.04375761, -898286.25, 797508.25, 0.05107827, 10.007486, 9.996717 
2.0755725e+3, 1.3695678e+2, -899076.7, -1633059.4, -15110.681, 0.07454528, 0.046076793, -898765.75, 699063.4, 0.03650906, 10.006724, 9.996653 
2.0755054e+3, 1.4695378e+2, -857956.06, -1503761.9, 3049.169, 0.059553776, 0.07586641, -857941.7, 641917.5, 0.02176949, 10.005972, 9.99723 
2.0754386e+3, 1.5695071e+2, -858359.9, -1454033.4, -3966.2449, 0.058597453, 0.06751814, -858333.5, 543556.44, 0.009924645, 10.005219, 9.99726 
2.075372e+3, 1.6694812e+2, -818317.5, -1303084.3, -13967.068, 0.06836619, 0.0663333, -817915.4, 486000.28, 0.0029673378, 10.004436, 9.998002 
2.0753051e+3, 1.7694597e+2, -839224.4, -1269476.8, -11322.072, 0.08105807, 0.07267428, -838926.6, 367010.0, 0.0003731754, 10.003637, 9.997945 
2.0752382e+3, 1.8694392e+2, -820080.6, -1166930.9, -14683.634, 0.08857168, 0.08036744, -819460.1, 288497.7, 0.0000012775297, 10.002911, 9.998326 
2.0751713e+3, 1.9694212e+2, -822481.75, -1116836.3, -19652.541, 0.09391695, 0.08688633, -821175.5, 188801.72, 0.0, 10.002219, 9.998331 
2.0751043e+3, 2.0694077e+2, -778614.6, -975003.5, -29303.832, 0.08152371, 0.11082427, -774335.4, 137656.38, 0.0, 10.001545, 9.998957 
2.0750369e+3, 2.1693984e+2, -778495.2, -925820.5, -29082.484, 0.060600605, 0.14198337, -772962.0, 41040.055, 0.0, 10.00088, 9.998942 
2.0749694e+3, 2.2693878e+2, -740788.6, -795535.0, -26914.46, 0.05336671, 0.13958229, -729773.3, -13760.229, 0.0, 10.000201, 9.999491 
2.074902e+3, 2.3693788e+2, -746009.5, -753119.2, -22104.543, 0.052816954, 0.12115245, -727175.8, -109153.31, 0.0, 9.999517, 9.999438 
2.0748347e+3, 2.4693748e+2, -716191.06, -643799.44, -31796.326, 0.049997024, 0.14334002, -631817.0, -111789.4, 0.0, 9.99886, 9.999833 
2.074767e+3, 2.569375e+2, -712955.4, -592989.06, -39634.023, 0.04587814, 0.18351457, -581077.6, -159048.86, 0.0, 9.998216, 9.999819 
2.0746994e+3, 2.6693732e+2, -669296.7, -460827.8, -38355.94, 0.046517853, 0.17814809, -453994.72, -129963.07, 0.0, 9.997583, 10.000358 
2.0746316e+3, 2.7693716e+2, -670023.6, -421925.03, -27251.117, 0.049745247, 0.15085258, -418967.03, -192933.48, 0.0, 9.996956, 10.000254 
2.074564e+3, 2.8693777e+2, -653472.94, -339988.53, -27295.895, 0.032270033, 0.20299366, -337629.56, -209600.33, 0.0, 9.996298, 10.00046 
2.0744962e+3, 2.9693893e+2, -644562.25, -270740.44, -33995.04, 0.0034238505, 0.29255867, -267674.13, -237654.4, 0.0, 9.9956255, 10.0005865 
2.0744292e+3, 3.0693856e+2, -616562.06, -94954.22, -12969.323, 0.027417174, 0.15553714, -94631.945, -94631.945, 0.0, 9.994893, 10.00181 
2.074362e+3, 3.1694102e+2, -710790.2, -111413.22, -21125.713, -0.013103219, 0.24852084, -110669.54, -110669.54, 0.0, 9.9941225, 10.002068 
2.0856474e+3, 1.2702788e+2, -878340.44, -1670872.5, 29936.418, 0.088262655, 0.04998871, -877211.25, 817920.94, 0.052137632, 10.007696, 9.996601 
2.0855789e+3, 1.3702422e+2, -884094.75, -1636315.3, 7834.351, 0.06895196, 0.052144602, -884013.1, 713155.3, 0.037297457, 10.006888, 9.996548 
2.0855112e+3, 1.4702113e+2, -847417.2, -1501983.1, 30266.734, 0.05651431, 0.07897515, -846020.7, 653179.0, 0.022271613, 10.006068, 9.997192 
2.0854439e+3, 1.5701802e+2, -857817.56, -1456541.1, 31387.084, 0.062877744, 0.069907546, -856176.6, 545054.25, 0.010178504, 10.005242, 9.99723 
2.0853762e+3, 1.6701543e+2, -815147.6, -1300718.0, 20315.197, 0.07101246, 0.0715041, -814299.1, 488957.5, 0.0030569893, 10.004459, 9.998004 
2.0853086e+3, 1.7701331e+2, -830400.4, -1264065.9, 17245.092, 0.07801879, 0.08177786, -829715.7, 375561.78, 0.00038921254, 10.003698, 9.99795 
2.085241e+3, 1.8701124e+2, -811363.4, -1159123.5, 18056.813, 0.08475848, 0.08751939, -810428.3, 296870.34, 0.0000015132997, 10.00296, 9.998353 
2.0851736e+3, 1.970094e+2, -818641.56, -1111171.8, 19375.973, 0.09153652, 0.08940566, -817363.75, 191954.4, 0.0, 10.0022335, 9.99836 
2.0851055e+3, 2.0700808e+2, -775727.56, -967425.06, 13011.954, 0.07771401, 0.11259971, -774848.4, 136484.16, 0.0, 10.001544, 9.999007 
2.0850374e+3, 2.170072e+2, -776556.44, -918095.06, 12633.568, 0.05417179, 0.14518155, -775437.6, 37904.797, 0.0, 10.00087, 9.998998 
2.0849694e+3, 2.2700623e+2, -743740.75, -786618.0, 6644.3604, 0.05109635, 0.14451514, -742734.7, -27382.156, 0.0, 10.000142, 9.9995775 
2.0849013e+3, 2.3700541e+2, -759464.56, -751081.3, 2722.0437, 0.057713542, 0.12746698, -750275.0, -132914.11, 0.0, 9.999394, 9.999509 
2.0848332e+3, 2.4700502e+2, -727256.56, -646806.8, 1795.6493, 0.052507427, 0.14841537, -646766.75, -127400.82, 0.0, 9.998779, 9.999848 
2.0847648e+3, 2.5700504e+2, -709901.25, -587556.06, 4926.4063, 0.041773, 0.18655387, -587358.0, -165990.52, 0.0, 9.998225, 9.999848 
2.0846967e+3, 2.6700488e+2, -662363.1, -443996.84, -3412.0212, 0.04184278, 0.17985949, -443943.53, -120573.84, 0.0, 9.997579, 10.000472 
2.0846283e+3, 2.7700484e+2, -673740.1, -413829.63, -8480.455, 0.04719457, 0.15140435, -413553.22, -188182.9, 0.0, 9.996893, 10.000337 
2.0845598e+3, 2.8700548e+2, -658900.2, -345868.1, 1676.3372, 0.029213153, 0.2094332, -345859.13, -218493.66, 0.0, 9.996281, 10.000425 
2.0844914e+3, 2.9700673e+2, -639190.3, -273631.34, 14756.027, -0.0018417531, 0.30717993, -273036.7, -243680.7, 0.0, 9.995691, 10.000532 
2.0844239e+3, 3.0700588e+2, -625602.9, -111483.1, 29196.83, 0.0126092285, 0.13527505, -109830.33, -109830.33, 0.0, 9.994889, 10.001696 
2.084356e+3, 3.1700847e+2, -701804.7, -62219.59, 11233.463, -0.01160545, 0.24813704, -62022.35, -62022.35, 0.0, 9.993997, 10.002463 
2.0956548e+3, 1.2709625e+2, -890256.3, -1694823.3, 20.129314, 0.0902505, 0.060601998, -890256.3, 804206.25, 0.05316295, 10.007694, 9.996432 
2.0955858e+3, 1.3709244e+2, -892739.94, -1655314.5, -20599.834, 0.07343655, 0.062822044, -892183.9, 704317.2, 0.038061325, 10.006889, 9.99642 
2.095517e+3, 1.4708926e+2, -843152.0, -1494205.9, 748.25183, 0.0667045, 0.08502509, -843151.2, 655381.6, 0.02275879, 10.006071, 9.997248 
2.095449e+3, 1.5708616e+2, -855246.2, -1453128.5, 1648.9188, 0.079566754, 0.07254705, -855241.7, 545321.75, 0.010425361, 10.005246, 9.997253 
2.0953806e+3, 1.6708358e+2, -820365.6, -1314040.1, -7612.0425, 0.07749897, 0.07886386, -820248.25, 482341.13, 0.0031446058, 10.004465, 9.997912 
2.095312e+3, 1.7708145e+2, -833016.1, -1272170.9, -10397.269, 0.066882186, 0.09731596, -832770.1, 371840.66, 0.00040518993, 10.003705, 9.997894 
2.0952436e+3, 1.8707946e+2, -803385.2, -1145190.4, -8573.723, 0.06964359, 0.10526556, -803170.3, 303460.84, 0.0000018186917, 10.002966, 9.998449 
2.0951752e+3, 1.9707769e+2, -811686.25, -1099284.3, -6961.2983, 0.078911245, 0.10627242, -811517.9, 197131.34, 0.0, 10.002239, 9.998442 
2.0951067e+3, 2.0707628e+2, -771841.3, -961852.6, -11669.861, 0.07041122, 0.11510096, -771127.3, 139536.89, 0.0, 10.001549, 9.999045 
2.0950381e+3, 2.1707523e+2, -774132.44, -915629.5, -12659.223, 0.053733036, 0.12776092, -773008.8, 39666.82, 0.0, 10.000875, 9.999015 
2.0949693e+3, 2.2707438e+2, -746638.0, -795257.56, -21199.492, 0.056830678, 0.14294812, -738692.8, -24007.936, 0.0, 10.000148, 9.999518 
2.0949006e+3, 2.3707384e+2, -759368.8, -753376.1, -23698.01, 0.068633676, 0.15765516, -732485.8, -115794.62, 0.0, 9.999399, 9.999494 
2.0948318e+3, 2.4707343e+2, -713917.44, -621864.8, -18598.605, 0.053739928, 0.1660124, -618249.1, -99552.88, 0.0, 9.998786, 10.000019 
2.0947629e+3, 2.5707328e+2, -701073.5, -572339.8, -16508.139, 0.026902894, 0.17174804, -570256.6, -149557.89, 0.0, 9.998233, 9.999952 
2.0946938e+3, 2.6707324e+2, -671293.56, -465492.38, -29373.21, 0.025312724, 0.18050367, -461382.16, -138681.97, 0.0, 9.997586, 10.000324 
2.094625e+3, 2.770734e+2, -677165.1, -423478.28, -34124.8, 0.035779346, 0.18876998, -418968.13, -194268.8, 0.0, 9.996899, 10.000271 
2.094556e+3, 2.87074e+2, -637586.3, -304735.94, -20373.504, 0.028572934, 0.22501738, -303493.53, -176798.94, 0.0, 9.996288, 10.000707 
2.0944871e+3, 2.9707497e+2, -625463.7, -249278.75, -8880.219, 0.010339331, 0.2737643, -249069.23, -220383.25, 0.0, 9.995704, 10.000696 
2.0944184e+3, 3.0707407e+2, -644570.8, -153949.14, -4525.6763, 0.007118608, 0.10326906, -153907.4, -153907.4, 0.0, 9.994897, 10.001403 
2.0943496e+3, 3.1707668e+2, -676437.7, -10941.659, -20252.96, -0.016039267, 0.24421524, -10325.873, -10325.873, 0.0, 9.993997, 10.002819 
2.1056624e+3, 1.2716529e+2, -885711.7, -1688988.5, 21444.924, 0.095824875, 0.06653293, -885139.6, 808647.2, 0.054143757, 10.007725, 9.996456 
2.1055923e+3, 1.3716155e+2, -887259.3, -1650460.8, 13154.454, 0.069499, 0.075731136, -887032.6, 708791.94, 0.038793255, 10.00693, 9.996431 
2.1055229e+3, 1.4715831e+2, -837493.3, -1492706.8, 34077.973, 0.063359454, 0.093286194, -835725.7, 662131.06, 0.023226308, 10.0061245, 9.99723 
2.105454e+3, 1.5715514e+2, -847575.94, -1451186.4, 30527.693, 0.080987975, 0.07453992, -846035.9, 553852.2, 0.010662505, 10.005314, 9.9972315 
2.1053848e+3, 1.6715252e+2, -812267.56, -1313684.6, 23581.658, 0.075837046, 0.08380045, -811161.0, 490753.34, 0.0032288216, 10.004542, 9.997875 
2.1053155e+3, 1.7715043e+2, -822553.75, -1268843.8, 23728.523, 0.058583252, 0.108666115, -821295.7, 382640.16, 0.0004206337, 10.00379, 9.997873 
2.1052463e+3, 1.871484e+2, -790185.5, -1132530.6, 24213.727, 0.06169825, 0.11376811, -788481.4, 317474.8, 0.0000021507155, 10.003036, 9.9985 
2.1051772e+3, 1.9714662e+2, -803593.6, -1090328.5, 22007.473, 0.074475326, 0.10827785, -801914.4, 206059.73, 0.0, 10.002279, 9.998481 
2.1051082e+3, 2.0714521e+2, -777509.94, -963831.25, 14260.774, 0.0693571, 0.11818614, -776424.75, 133564.2, 0.0, 10.001513, 9.999046 
2.1050386e+3, 2.1714419e+2, -793116.3, -923312.94, 9874.676, 0.05618421, 0.13457362, -792371.6, 19628.695, 0.0, 10.000744, 9.9990225 
2.1049692e+3, 2.2714336e+2, -758858.9, -795919.06, 5447.196, 0.05923464, 0.14852689, -758074.8, -44065.402, 0.0, 10.000048, 9.999559 
2.1048999e+3, 2.3714282e+2, -759282.25, -748039.8, 10123.117, 0.06928505, 0.160752, -742081.94, -126066.42, 0.0, 9.999383, 9.999536 
2.1048303e+3, 2.4714242e+2, -721673.56, -617899.56, 13885.79, 0.05406786, 0.1668495, -616073.6, -98053.4, 0.0, 9.998705, 10.000082 
2.1047607e+3, 2.571423e+2, -728115.3, -579068.8, 7282.0376, 0.027283775, 0.16968103, -578713.9, -158691.5, 0.0, 9.998026, 10.000003 
2.1046911e+3, 2.671423e+2, -693525.2, -473993.38, -413.84995, 0.020352373, 0.1810167, -473992.6, -151969.19, 0.0, 9.99743, 10.000339 
2.1046214e+3, 2.7714255e+2, -679772.44, -420058.06, 6302.684, 0.023675978, 0.1948374, -419905.2, -195883.13, 0.0, 9.996866, 10.000307 
2.104552e+3, 2.871431e+2, -637434.1, -287997.22, 15564.155, 0.022709304, 0.22030757, -287305.38, -161288.14, 0.0, 9.996223, 10.000851 
2.1044824e+3, 2.9714403e+2, -644863.75, -250595.53, 13935.045, 0.015877293, 0.2509913, -250103.63, -222094.97, 0.0, 9.995542, 10.000762 
2.1044129e+3, 3.0714327e+2, -673874.0, -190842.25, 12116.843, -0.0010486406, 0.10858108, -190538.48, -190538.48, 0.0, 9.9948, 10.001194 
2.1043435e+3, 3.171456e+2, -645228.25, 42712.176, 5634.309, -0.01770711, 0.23544526, 42758.32, 42758.32, 0.0, 9.99405, 10.003159 
2.11567e+3, 1.27235e+2, -877450.44, -1669119.0, -6956.8564, 0.10343911, 0.06844334, -877389.3, 815715.3, 0.05507489, 10.007713, 9.996609 
2.1155989e+3, 1.3723154e+2, -880575.0, -1636929.0, -15291.139, 0.058621585, 0.09049805, -880266.0, 714873.44, 0.039487638, 10.006932, 9.996526 
2.1155286e+3, 1.4722823e+2, -843135.75, -1506816.0, 4598.937, 0.04886221, 0.10334056, -843103.9, 654068.3, 0.02366919, 10.006131, 9.997131 
2.115459e+3, 1.5722486e+2, -851800.0, -1462773.3, 1342.0751, 0.06950817, 0.07607101, -851797.06, 547408.25, 0.0108865285, 10.0053215, 9.997151 
2.115389e+3, 1.6722223e+2, -811755.25, -1315388.1, -4052.4304, 0.067254834, 0.08666056, -811722.6, 489509.16, 0.003307925, 10.004549, 9.997863 
2.1153188e+3, 1.7722015e+2, -822359.06, -1270978.3, -4126.122, 0.052914426, 0.11612109, -822321.1, 380931.97, 0.000434973, 10.003796, 9.997859 
2.115249e+3, 1.8721806e+2, -789903.06, -1134041.8, -3753.8228, 0.060263388, 0.113729894, -789862.1, 315412.03, 0.0000024542016, 10.003038, 9.99849 
2.1151794e+3, 1.9721614e+2, -804304.6, -1093710.9, -6028.0674, 0.077639356, 0.09659668, -804179.1, 203114.0, 0.0, 10.002282, 9.99846 
2.1151094e+3, 2.0721486e+2, -780413.4, -972206.75, -14165.051, 0.07418438, 0.12237208, -779372.8, 129934.266, 0.0, 10.001517, 9.99899 
2.1150391e+3, 2.1721405e+2, -793269.75, -926335.25, -17610.492, 0.061329275, 0.16529404, -790978.56, 20338.295, 0.0, 10.000751, 9.9990015 
2.114969e+3, 2.2721308e+2, -749105.9, -778429.7, -18993.83, 0.05804935, 0.16049817, -739773.25, -26446.578, 0.0, 10.000053, 9.99968 
2.1148989e+3, 2.3721229e+2, -752666.1, -737151.9, -14513.813, 0.059175555, 0.13524808, -728452.3, -113117.88, 0.0, 9.99939, 9.99961 
2.1148288e+3, 2.4721196e+2, -725790.56, -629039.25, -11733.606, 0.053787697, 0.15045153, -627636.56, -110298.086, 0.0, 9.998711, 10.000006 
2.1147588e+3, 2.5721207e+2, -729146.6, -583037.5, -17671.674, 0.044551875, 0.18198436, -580930.56, -161591.61, 0.0, 9.998029, 9.999977 
2.1146882e+3, 2.67212e+2, -680395.8, -448804.72, -21524.234, 0.028103897, 0.18063526, -446821.22, -125481.31, 0.0, 9.997433, 10.000513 
2.114618e+3, 2.772121e+2, -669616.44, -401933.16, -15471.751, 0.010533715, 0.1641122, -401041.88, -177702.67, 0.0, 9.996873, 10.000431 
2.1145478e+3, 2.8721273e+2, -639567.94, -294915.63, -10390.362, 0.010479776, 0.19219176, -294602.7, -169268.66, 0.0, 9.996228, 10.000803 
2.1144778e+3, 2.972138e+2, -649505.25, -261395.36, -13402.335, 0.013112931, 0.24210423, -260933.1, -233608.56, 0.0, 9.995541, 10.000691 
2.1144074e+3, 3.0721357e+2, -682353.5, -210402.89, -17529.111, -0.01238641, 0.16116756, -209752.73, -209752.73, 0.0, 9.994802, 10.001061 
2.1143371e+3, 3.1721517e+2, -623553.3, 83006.74, -16402.234, -0.017368857, 0.22459565, 83387.305, 83387.305, 0.0, 9.994064, 10.003431 
2.1256773e+3, 1.2730564e+2, -894683.4, -1678990.6, 30553.75, 0.1055748, 0.07100122, -893494.94, 798917.9, 0.055953458, 10.007608, 9.996584 
2.1256055e+3, 1.3730222e+2, -873941.7, -1634956.6, 12121.382, 0.054785714, 0.09864881, -873748.7, 720699.06, 0.040138975, 10.006996, 9.996505 
2.1255344e+3, 1.4729887e+2, -826973.75, -1498357.8, 29091.324, 0.044059947, 0.11166574, -825715.56, 670765.06, 0.02408163, 10.006251, 9.9971285 
2.1254641e+3, 1.572955e+2, -835750.44, -1456695.5, 31466.098, 0.065303415, 0.085111775, -834160.0, 564353.6, 0.011093328, 10.005447, 9.997129 
2.1253933e+3, 1.672928e+2, -803373.0, -1319472.8, 25159.082, 0.063215785, 0.09485439, -802149.44, 498391.6, 0.003379931, 10.004648, 9.997785 
2.1253225e+3, 1.7729062e+2, -818842.25, -1275093.5, 19746.818, 0.04923857, 0.122495346, -817989.2, 384574.44, 0.00044759206, 10.00385, 9.997801 
2.1252519e+3, 1.8728852e+2, -793145.7, -1133545.3, 18144.67, 0.058641024, 0.124200396, -792181.2, 312403.28, 0.0000026861098, 10.003014, 9.998504 
2.1251814e+3, 1.9728668e+2, -821847.0, -1101757.3, 17294.256, 0.07847556, 0.11338015, -820782.56, 185820.23, 0.0, 10.002165, 9.998458 
2.1251106e+3, 2.072853e+2, -792367.3, -981689.4, 12574.6, 0.07504597, 0.13274452, -791535.75, 117081.84, 0.0, 10.001457, 9.998951 
2.1250398e+3, 2.1728434e+2, -786336.5, -924224.2, 9573.644, 0.06137486, 0.16458881, -785675.0, 24953.79, 0.0, 10.000809, 9.998984 
2.1249688e+3, 2.2728342e+2, -733513.44, -762984.56, 6015.0493, 0.05593643, 0.16111182, -732333.06, -19694.984, 0.0, 10.000133, 9.999744 
2.124898e+3, 2.3728271e+2, -742237.6, -726167.0, 5480.378, 0.054255266, 0.14157559, -724476.06, -109831.414, 0.0, 9.999441, 9.999658 
2.1248272e+3, 2.4728239e+2, -728171.44, -629477.25, 9019.81, 0.05146692, 0.15500575, -628659.7, -112011.0, 0.0, 9.998697, 10.000007 
2.1247563e+3, 2.572824e+2, -742697.2, -587725.1, 8983.095, 0.04742204, 0.18241099, -587206.2, -168556.66, 0.0, 9.997933, 9.999989 
2.1246855e+3, 2.672824e+2, -701680.5, -451414.7, 4002.0317, 0.02993896, 0.18142982, -451350.72, -130700.74, 0.0, 9.997259, 10.000576 
2.1246146e+3, 2.772826e+2, -701718.3, -411333.53, 1403.2756, 0.008237556, 0.16593148, -411326.75, -188678.34, 0.0, 9.996633, 10.00048 
2.1245436e+3, 2.872831e+2, -650626.9, -298312.22, 7330.399, 0.006252801, 0.17984658, -298159.75, -173515.47, 0.0, 9.996149, 10.000814 
2.1244729e+3, 2.97284e+2, -625537.1, -249984.64, 5729.739, 0.007881486, 0.21307586, -249897.23, -223260.88, 0.0, 9.995711, 10.000685 
2.124402e+3, 3.0728438e+2, -669373.75, -209165.17, -1384.9757, -0.023236074, 0.20088981, -209161.0, -209161.0, 0.0, 9.994919, 10.001011 
2.124331e+3, 3.1728536e+2, -625446.4, 93307.6, 12227.729, -0.01683187, 0.20604955, 93515.56, 93515.56, 0.0, 9.994009, 10.003526 
2.1356848e+3, 1.2737715e+2, -906991.56, -1705302.5, 7334.831, 0.10311537, 0.07342184, -906924.2, 784787.9, 0.056777276, 10.007608, 9.996402 
2.1356124e+3, 1.3737355e+2, -882932.9, -1654312.5, -11383.272, 0.056637306, 0.10161888, -882764.94, 710984.7, 0.040743683, 10.006994, 9.996376 
2.1355405e+3, 1.4737025e+2, -823235.75, -1491074.8, -345.61404, 0.04706302, 0.11880994, -823235.56, 672546.6, 0.024459984, 10.00625, 9.997183 
2.1354692e+3, 1.57367e+2, -834867.8, -1456623.5, 1463.5516, 0.06709221, 0.1004811, -834864.4, 562949.2, 0.011280212, 10.00545, 9.997131 
2.1353976e+3, 1.6736417e+2, -813253.8, -1342364.6, -4634.5776, 0.0630097, 0.10750167, -813213.25, 486629.16, 0.0034434039, 10.004653, 9.997628 
2.135326e+3, 1.7736177e+2, -825874.3, -1292235.8, -10347.163, 0.04722731, 0.12800805, -825644.9, 376222.72, 0.0004580094, 10.003856, 9.997684 
2.1352546e+3, 1.8735978e+2, -791057.75, -1131994.8, -13646.659, 0.05673503, 0.14460829, -790512.44, 313375.16, 0.0000028192917, 10.00302, 9.998514 
2.1351834e+3, 1.9735818e+2, -820728.6, -1102512.6, -12705.285, 0.07703697, 0.15664402, -820156.94, 185746.61, 0.0, 10.002172, 9.998451 
2.1351118e+3, 2.073565e+2, -794017.0, -988080.44, -11298.186, 0.07205511, 0.14818406, -793361.44, 114559.46, 0.0, 10.001464, 9.998906 
2.1350403e+3, 2.17355e+2, -787587.7, -929605.3, -14475.068, 0.05640214, 0.13268188, -786127.4, 23809.041, 0.0, 10.000815, 9.998947 
2.1349688e+3, 2.2735427e+2, -733050.06, -764946.44, -19445.277, 0.053001396, 0.15129635, -723849.44, -11905.408, 0.0, 10.000139, 9.999731 
2.1348973e+3, 2.3735407e+2, -740796.7, -726183.2, -20845.414, 0.054677326, 0.18160018, -711401.0, -97454.55, 0.0, 9.999449, 9.999657 
2.1348257e+3, 2.4735364e+2, -722646.44, -620769.56, -19884.393, 0.046597544, 0.1811884, -617026.1, -101074.83, 0.0, 9.998703, 10.000067 
2.1347539e+3, 2.5735334e+2, -739972.94, -584406.56, -18852.553, 0.034285616, 0.16929898, -582154.5, -164199.69, 0.0, 9.997937, 10.000012 
2.1346824e+3, 2.6735345e+2, -707173.9, -464637.2, -20377.18, 0.02546405, 0.18430297, -462937.1, -142982.9, 0.0, 9.997262, 10.000486 
2.1346109e+3, 2.773539e+2, -705679.7, -420575.72, -21397.713, 0.018720573, 0.20592609, -418978.72, -197028.6, 0.0, 9.996631, 10.00042 
2.1345395e+3, 2.8735405e+2, -645292.5, -290013.8, -9271.667, 0.011262147, 0.18540657, -289772.03, -165823.17, 0.0, 9.996156, 10.000872 
2.1344686e+3, 2.9735443e+2, -619074.75, -242325.88, -15864.131, -0.0006150179, 0.15881608, -241659.05, -215713.55, 0.0, 9.99573, 10.000731 
2.1343964e+3, 3.0735564e+2, -664932.7, -204735.19, -38443.813, -0.033351827, 0.22452968, -201545.78, -201545.78, 0.0, 9.994933, 10.001037 
2.1343248e+3, 3.173563e+2, -637694.9, 65281.285, -12923.145, -0.018318718, 0.19710127, 65518.777, 65518.777, 0.0, 9.994015, 10.003334 
2.145692e+3, 1.2744933e+2, -906240.06, -1708725.6, 26016.121, 0.09228152, 0.08419163, -905397.56, 785607.94, 0.057543796, 10.007642, 9.996359 
2.1456191e+3, 1.3744564e+2, -890560.3, -1661498.5, 14821.867, 0.056691863, 0.111129664, -890275.5, 702768.4, 0.041300643, 10.006964, 9.996339 
2.1455467e+3, 1.4744231e+2, -827474.9, -1494112.6, 21034.998, 0.045250203, 0.12699516, -826811.8, 668265.1, 0.024803644, 10.006233, 9.997167 
2.1454744e+3, 1.5743904e+2, -833163.44, -1458582.4, 17890.242, 0.057920005, 0.11008504, -832652.1, 564456.2, 0.011446488, 10.005481, 9.9971 
2.1454021e+3, 1.6743615e+2, -811761.6, -1349053.8, 13186.233, 0.056300655, 0.11813922, -811438.2, 487699.63, 0.0034977829, 10.004702, 9.997556 
2.1453296e+3, 1.7743367e+2, -823704.75, -1299168.1, 11567.113, 0.046748757, 0.13912109, -823423.5, 377740.4, 0.00046601595, 10.003911, 9.997606 
2.1452573e+3, 1.8743166e+2, -783016.44, -1137516.8, 3291.2534, 0.053923767, 0.16031066, -782985.94, 320198.75, 0.000002843591, 10.003121, 9.998424 
2.1451853e+3, 1.9743001e+2, -801943.8, -1099181.9, -2511.8281, 0.06870561, 0.17851502, -801922.56, 203278.64, 0.0, 10.002333, 9.998394 
2.145113e+3, 2.0742823e+2, -780341.06, -975034.1, 3541.4756, 0.069712974, 0.16198048, -780276.6, 126942.28, 0.0, 10.001536, 9.998958 
2.1450408e+3, 2.1742666e+2, -797612.44, -931848.06, 6543.0303, 0.064365156, 0.13265209, -797294.3, 11940.462, 0.0, 10.000741, 9.998964 
2.1449685e+3, 2.2742592e+2, -751768.94, -783001.06, 733.7417, 0.060406387, 0.15644206, -751751.7, -40509.11, 0.0, 10.000055, 9.999644 
2.1448965e+3, 2.3742574e+2, -750351.7, -736400.94, -7418.659, 0.057298645, 0.20002018, -733193.4, -119948.21, 0.0, 9.9994135, 9.9996 
2.144824e+3, 2.474253e+2, -717633.6, -612078.3, -11392.067, 0.047613274, 0.19815387, -610862.8, -95612.766, 0.0, 9.998716, 10.000117 
2.1447517e+3, 2.5742495e+2, -729870.2, -576146.3, -10726.249, 0.034847904, 0.17834881, -575401.5, -158147.86, 0.0, 9.997998, 10.000036 
2.1446794e+3, 2.674251e+2, -702072.2, -466750.53, -7929.832, 0.02539016, 0.1948385, -466483.63, -147230.7, 0.0, 9.997322, 10.000441 
2.1446072e+3, 2.7742553e+2, -703135.0, -421906.38, -5124.637, 0.018481027, 0.22154494, -421813.03, -200564.31, 0.0, 9.996665, 10.000391 
2.1445353e+3, 2.8742552e+2, -663205.25, -293149.78, 9968.947, 0.01390406, 0.18364486, -292881.4, -169632.67, 0.0, 9.996015, 10.000916 
2.1444638e+3, 2.9742566e+2, -667205.5, -257348.77, -556.8355, 0.0054193414, 0.13305517, -257348.02, -232101.03, 0.0, 9.995371, 10.000798 
2.1443911e+3, 3.074275e+2, -676623.75, -192594.84, -23925.273, -0.029550174, 0.24616297, -191415.1, -191415.1, 0.0, 9.994782, 10.00119 
2.1443187e+3, 3.1742778e+2, -623906.25, 42491.36, 20108.053, -0.027158068, 0.17562379, 43097.555, 43097.555, 0.0, 9.994243, 10.003064 
2.1556993e+3, 1.2752217e+2, -904768.6, -1703465.4, 629.28046, 0.07474598, 0.100796014, -904768.1, 785524.75, 0.058250125, 10.007632, 9.996403 
2.1556257e+3, 1.3751851e+2, -889664.3, -1660620.9, -10579.644, 0.055359475, 0.12568511, -889519.2, 702811.5, 0.041809693, 10.006966, 9.996346 
2.1555525e+3, 1.4751504e+2, -832943.9, -1507871.9, -6547.0884, 0.039368484, 0.13586879, -832880.4, 661484.5, 0.025113277, 10.006238, 9.997072 
2.1554795e+3, 1.5751164e+2, -837352.9, -1470063.9, -10321.72, 0.03949757, 0.114831194, -837184.56, 559213.2, 0.011592483, 10.005487, 9.997022 
2.1554065e+3, 1.6750875e+2, -812111.25, -1352484.8, -16323.515, 0.044122063, 0.12723769, -811618.6, 486808.7, 0.0035431522, 10.004707, 9.997532 
2.1553333e+3, 1.7750631e+2, -827257.75, -1309165.1, -18098.955, 0.04765564, 0.15519266, -826578.94, 373874.06, 0.00047168205, 10.003917, 9.997538 
2.1552603e+3, 1.8750408e+2, -796066.94, -1167176.8, -26054.482, 0.050118964, 0.17141727, -794246.6, 308229.4, 0.0000027657557, 10.003127, 9.99822 
2.155187e+3, 1.9750217e+2, -809375.44, -1117202.3, -31612.494, 0.053902123, 0.18048221, -806162.5, 198333.36, 0.0, 10.002338, 9.998271 
2.1551143e+3, 2.0750053e+2, -770592.6, -957576.0, -25892.568, 0.068217374, 0.17499745, -767073.4, 139438.5, 0.0, 10.001542, 9.999078 
2.1550415e+3, 2.1749924e+2, -793191.06, -925521.4, -21450.367, 0.085084654, 0.16426472, -789800.9, 18723.32, 0.0, 10.000748, 9.999008 
2.1549685e+3, 2.274983e+2, -763181.06, -809611.3, -22959.617, 0.07801828, 0.1758057, -753745.25, -43210.883, 0.0, 10.000062, 9.999461 
2.1548955e+3, 2.3749772e+2, -758445.56, -756111.2, -32131.918, 0.062146265, 0.19541706, -725125.25, -112583.87, 0.0, 9.99942, 9.999465 
2.1548225e+3, 2.4749735e+2, -715078.75, -609759.75, -38610.49, 0.055121195, 0.20604579, -597121.56, -82575.93, 0.0, 9.998723, 10.000133 
2.1547495e+3, 2.5749728e+2, -728057.06, -575756.5, -37702.227, 0.050406456, 0.21232526, -566934.3, -150387.69, 0.0, 9.998007, 10.000038 
2.1546765e+3, 2.674972e+2, -701726.75, -469656.22, -33488.645, 0.029823264, 0.21324952, -464920.3, -146373.28, 0.0, 9.997332, 10.000419 
2.1546035e+3, 2.7749735e+2, -702680.44, -424420.5, -30656.52, 0.005503488, 0.20832027, -421083.03, -200537.58, 0.0, 9.996675, 10.000373 
2.1545312e+3, 2.8749734e+2, -662512.9, -293277.3, -16136.196, 0.014081387, 0.17413779, -292573.47, -170028.5, 0.0, 9.996016, 10.000917 
2.1544592e+3, 2.9749772e+2, -663635.75, -248594.55, -26104.705, 0.029540628, 0.1426468, -246959.1, -222417.84, 0.0, 9.995359, 10.000867 
2.1543857e+3, 3.074998e+2, -655976.94, -151343.17, -45699.176, -0.008390144, 0.26306534, -147238.08, -147238.08, 0.0, 9.994783, 10.001476 
2.1543123e+3, 3.1750005e+2, -647891.56, -15289.447, 8652.234, -0.04865322, 0.16729453, -15171.131, -15171.131, 0.0, 9.99427, 10.002657 
2.1657063e+3, 1.2759562e+2, -914156.25, -1698465.4, 23320.62, 0.05848287, 0.11782394, -913463.44, 776110.7, 0.05889286, 10.007532, 9.996482 
2.1656324e+3, 1.375918e+2, -882432.5, -1651119.5, 13392.896, 0.053296097, 0.12048652, -882199.2, 709413.5, 0.04226932, 10.007001, 9.996391 
2.1655583e+3, 1.4758833e+2, -825211.7, -1509077.5, 15278.5205, 0.035639405, 0.13293703, -824870.5, 668776.5, 0.025388349, 10.006322, 9.997021 
2.1654846e+3, 1.5758501e+2, -828772.4, -1472174.6, 12702.039, 0.027831972, 0.12541668, -828521.75, 567157.9, 0.011718081, 10.005581, 9.996959 
2.1654108e+3, 1.6758208e+2, -806770.94, -1358112.9, 2375.9282, 0.03665066, 0.14185052, -806760.7, 490949.13, 0.0035796163, 10.0047865, 9.997452 
2.1653369e+3, 1.7757954e+2, -824527.1, -1314923.9, -3577.154, 0.04888634, 0.16943307, -824501.06, 375235.5, 0.00047516223, 10.003972, 9.997468 
2.1652631e+3, 1.8757719e+2, -793966.2, -1169688.3, -5089.2607, 0.052370194, 0.17948763, -793897.25, 307863.44, 0.0000026027112, 10.003162, 9.998183 
2.1651892e+3, 1.9757514e+2, -809198.44, -1120085.4, -228.20804, 0.054052677, 0.18106608, -809198.25, 194583.42, 0.0, 10.002358, 9.998239 
2.1651155e+3, 2.0757358e+2, -761193.44, -953497.06, 2034.9691, 0.06880845, 0.18523127, -761171.9, 144625.2, 0.0, 10.001615, 9.999067 
2.165042e+3, 2.1757242e+2, -773708.1, -917875.5, -2769.1804, 0.08762849, 0.18990682, -773654.94, 34153.273, 0.0, 10.0008955, 9.998986 
2.1649686e+3, 2.2757131e+2, -754374.94, -810119.1, 1290.7657, 0.0847056, 0.18992978, -754345.06, -44525.348, 0.0, 10.00015, 9.999413 
2.1648948e+3, 2.3757045e+2, -766617.7, -766435.25, 942.81384, 0.07324777, 0.18845555, -765579.25, -153750.06, 0.0, 9.999397, 9.999402 
2.164821e+3, 2.4757008e+2, -723404.8, -623519.3, -9302.002, 0.06450473, 0.20851853, -622660.44, -108826.71, 0.0, 9.998714, 10.000039 
2.1647473e+3, 2.5757012e+2, -725883.7, -581580.9, -16748.096, 0.05606167, 0.23522452, -579662.5, -163828.38, 0.0, 9.998057, 9.99997 
2.1646737e+3, 2.6756996e+2, -691794.56, -462204.8, -12566.347, 0.034263674, 0.22752097, -461519.06, -143683.7, 0.0, 9.997395, 10.000437 
2.1646e+3, 2.775699e+2, -695177.0, -419237.16, -7800.7285, 0.0092801545, 0.20334576, -419016.8, -199181.83, 0.0, 9.996725, 10.000381 
2.1645269e+3, 2.8756994e+2, -666665.44, -296184.25, 4718.3345, 0.013623756, 0.17573199, -296124.16, -174290.27, 0.0, 9.995997, 10.000903 
2.1644542e+3, 2.9757044e+2, -675060.9, -247284.53, -5677.9463, 0.024737282, 0.15996951, -247209.17, -223380.34, 0.0, 9.995257, 10.000922 
2.1643804e+3, 3.0757245e+2, -651947.1, -119719.77, -22820.412, 0.0006377355, 0.25580284, -118743.09, -118743.09, 0.0, 9.994689, 10.001736 
2.1643062e+3, 3.1757295e+2, -682874.8, -68364.18, 37813.68, -0.05738915, 0.16537158, -66046.08, -66046.08, 0.0, 9.994193, 10.002327 
2.1757133e+3, 1.2766968e+2, -907906.6, -1686255.9, 3506.7642, 0.043030877, 0.13407071, -907890.9, 780958.1, 0.059469357, 10.007537, 9.996568 
2.1756391e+3, 1.3766557e+2, -880031.75, -1644674.9, -8043.451, 0.050589647, 0.09957262, -879947.1, 710942.4, 0.0426773, 10.006992, 9.996443 
2.1755645e+3, 1.476622e+2, -829250.8, -1516233.0, -12179.906, 0.033632863, 0.12087076, -829034.94, 663888.25, 0.025627663, 10.006311, 9.99698 
2.1754898e+3, 1.576591e+2, -834527.56, -1483776.6, -15859.082, 0.021820694, 0.1411897, -834140.44, 560813.7, 0.011823091, 10.005573, 9.996885 
2.1754153e+3, 1.6765606e+2, -817257.1, -1380711.8, -28049.506, 0.03313178, 0.16108313, -815864.25, 481121.28, 0.0036073497, 10.004784, 9.997301 
2.1753408e+3, 1.7765334e+2, -829901.1, -1328009.1, -33674.0, 0.050329767, 0.18193433, -827634.94, 371379.63, 0.00047663317, 10.003975, 9.99738 
2.1752661e+3, 1.8765093e+2, -786563.2, -1157016.9, -34930.48, 0.060209826, 0.18485495, -783298.4, 317740.44, 0.0000023806035, 10.003168, 9.99827 
2.1751913e+3, 1.976489e+2, -806001.75, -1116629.8, -29232.328, 0.06805952, 0.18034214, -803274.7, 199784.31, 0.0, 10.002366, 9.998261 
2.175117e+3, 2.0764732e+2, -770705.0, -976408.3, -24497.21, 0.07091804, 0.19270658, -767827.9, 137247.05, 0.0, 10.001623, 9.99891 
2.1750425e+3, 2.1764615e+2, -779501.6, -932876.9, -29574.465, 0.07207052, 0.20973189, -773996.56, 33090.523, 0.0, 10.000902, 9.998883 
2.1749683e+3, 2.2764494e+2, -748512.2, -800905.1, -26688.807, 0.080711156, 0.19897419, -737311.5, -28212.371, 0.0, 10.000156, 9.9994755 
2.174894e+3, 2.3764394e+2, -766421.9, -768910.0, -26234.959, 0.090953775, 0.17917055, -741401.5, -130292.53, 0.0, 9.999404, 9.999385 
2.1748199e+3, 2.4764349e+2, -738373.56, -657655.3, -33907.617, 0.07552087, 0.20500872, -645302.1, -132187.33, 0.0, 9.998721, 9.9998045 
2.174745e+3, 2.5764343e+2, -735777.25, -605538.0, -41734.766, 0.050682373, 0.24571595, -593311.94, -178194.92, 0.0, 9.998066, 9.999805 
2.1746708e+3, 2.676432e+2, -687300.4, -456502.22, -38166.832, 0.039172772, 0.2373827, -450354.38, -133235.81, 0.0, 9.997404, 10.000474 
2.1745966e+3, 2.776431e+2, -692612.06, -417566.0, -34309.164, 0.032635268, 0.20820935, -413350.88, -194233.0, 0.0, 9.996735, 10.000391 
2.1745227e+3, 2.8764325e+2, -669231.7, -304391.03, -24613.963, 0.0115019055, 0.19051504, -302737.94, -181621.81, 0.0, 9.996003, 10.000847 
2.1744487e+3, 2.9764384e+2, -673629.6, -246123.61, -32704.113, -0.016257763, 0.18652579, -243636.22, -220525.72, 0.0, 9.995259, 10.000933 
2.1743748e+3, 3.076453e+2, -637130.25, -91266.625, -43223.176, -0.0049765697, 0.21671003, -87865.27, -87865.27, 0.0, 9.994693, 10.001933 
2.1743003e+3, 3.1764662e+2, -697757.75, -101960.0, 21595.94, -0.048720367, 0.1964876, -101178.234, -101178.234, 0.0, 9.994199, 10.002096 
2.1857205e+3, 1.277442e+2, -896094.3, -1674366.1, 25533.238, 0.02777046, 0.13194983, -895257.56, 792861.56, 0.059978615, 10.007605, 9.996618 
2.1856457e+3, 1.3774024e+2, -898138.75, -1649938.1, 11497.185, 0.049547374, 0.108398564, -897962.94, 692194.94, 0.043032546, 10.006854, 9.99647 
2.1855703e+3, 1.4773685e+2, -858751.25, -1533152.6, 4782.017, 0.03602959, 0.13071403, -858717.4, 633474.44, 0.025830993, 10.006121, 9.996952 
2.185495e+3, 1.5773372e+2, -862650.8, -1500034.1, 1012.68933, 0.02327182, 0.15043275, -862649.25, 531574.25, 0.011908093, 10.005395, 9.996857 
2.1854196e+3, 1.677306e+2, -835952.56, -1391378.5, -6227.307, 0.034456406, 0.16587645, -835882.75, 460372.88, 0.0036268944, 10.004668, 9.99728 
2.1853445e+3, 1.7772779e+2, -835910.3, -1331127.6, -4405.561, 0.051796727, 0.1808353, -835871.1, 362414.22, 0.0004763576, 10.003941, 9.997372 
2.185269e+3, 1.8772541e+2, -777502.6, -1149195.0, -7120.3535, 0.061892886, 0.18461823, -777366.25, 322943.1, 0.0000021370356, 10.003222, 9.998295 
2.1851936e+3, 1.977234e+2, -786727.25, -1107920.6, -6164.1465, 0.07015146, 0.18344569, -786609.0, 215720.02, 0.0, 10.002507, 9.99825 
2.1851183e+3, 2.0772177e+2, -758390.56, -981855.4, -459.37735, 0.073715605, 0.19835383, -758389.6, 145956.31, 0.0, 10.001762, 9.998802 
2.1850432e+3, 2.1772051e+2, -769406.94, -934944.75, -3062.5823, 0.0752307, 0.21781914, -769350.25, 37009.3, 0.0, 10.001007, 9.998815 
2.1849683e+3, 2.2771929e+2, -730641.5, -786763.2, -1308.4812, 0.083281524, 0.20987947, -730611.0, -22239.736, 0.0, 10.000261, 9.999518 
2.1848933e+3, 2.3771836e+2, -750857.5, -762694.3, -1818.236, 0.093199454, 0.19243023, -750584.5, -140204.39, 0.0, 9.999522, 9.999368 
2.1848184e+3, 2.4771771e+2, -731281.2, -672666.94, -4293.6367, 0.07883088, 0.21344744, -672354.1, -159966.3, 0.0, 9.998856, 9.999634 
2.1847431e+3, 2.5771743e+2, -723680.0, -612677.5, -8805.417, 0.055361066, 0.2470695, -611983.4, -197590.66, 0.0, 9.998211, 9.999683 
2.1846682e+3, 2.6771715e+2, -674351.4, -447885.47, -7691.6216, 0.0462348, 0.23852733, -447624.53, -131229.8, 0.0, 9.997489, 10.000489 
2.1845932e+3, 2.777171e+2, -692938.75, -418050.38, -6666.4707, 0.041989617, 0.21275601, -417888.78, -199495.17, 0.0, 9.99674, 10.000381 
2.1845183e+3, 2.8771737e+2, -674080.8, -312520.72, 291.39966, 0.009164193, 0.2124196, -312520.47, -192129.64, 0.0, 9.996001, 10.000789 
2.1844436e+3, 2.9771805e+2, -675039.4, -249768.1, -7196.055, -0.03387378, 0.22612143, -249646.36, -227262.0, 0.0, 9.995269, 10.000899 
2.1843691e+3, 3.077188e+2, -642448.2, -89623.04, -22663.133, 0.00068581314, 0.18441902, -88695.516, -88695.516, 0.0, 9.994644, 10.001964 
2.184294e+3, 3.177208e+2, -723644.3, -118028.586, 33468.547, -0.056851707, 0.22834711, -116184.61, -116184.61, 0.0, 9.994042, 10.002058 
2.1957278e+3, 1.2781923e+2, -897528.2, -1675424.4, -2077.8523, 0.012325753, 0.11614084, -897522.7, 789861.3, 0.060422458, 10.007593, 9.996619 
2.1956523e+3, 1.3781574e+2, -898822.6, -1652394.6, -15453.064, 0.04990063, 0.14099674, -898505.9, 690912.3, 0.04333724, 10.006854, 9.996457 
2.1955761e+3, 1.4781228e+2, -861036.3, -1539316.8, -21581.002, 0.041995604, 0.15765998, -860350.4, 631102.75, 0.026000759, 10.006121, 9.996913 
2.1955003e+3, 1.5780887e+2, -863341.2, -1502482.8, -25708.984, 0.030712206, 0.15381117, -862308.7, 531178.9, 0.011975189, 10.005394, 9.996843 
2.1954241e+3, 1.678057e+2, -830488.0, -1381884.9, -33170.582, 0.03968547, 0.15836877, -828499.75, 467020.34, 0.0036394603, 10.00467, 9.997348 
2.1953481e+3, 1.7780288e+2, -832101.06, -1326082.6, -31381.29, 0.053146232, 0.16793789, -830115.5, 367433.72, 0.00047479194, 10.003947, 9.997407 
2.195272e+3, 1.8780056e+2, -779742.75, -1157103.6, -33624.727, 0.057855185, 0.17959353, -776770.06, 322802.56, 0.000001916005, 10.00323, 9.9982395 
2.1951959e+3, 1.9779861e+2, -789628.6, -1117292.0, -32939.324, 0.06116648, 0.19031823, -786350.06, 215241.81, 0.0, 10.002516, 9.998184 
2.1951199e+3, 2.0779687e+2, -762749.7, -993937.0, -28414.135, 0.077547304, 0.20216715, -759308.7, 144301.67, 0.0, 10.00177, 9.998718 
2.1950442e+3, 2.1779545e+2, -772302.06, -943781.8, -30741.467, 0.09684947, 0.21429178, -766957.56, 38668.414, 0.0, 10.001014, 9.9987545 
2.1949683e+3, 2.277944e+2, -729196.75, -786802.2, -28879.46, 0.0918895, 0.22310561, -717211.94, -9575.571, 0.0, 10.000268, 9.999518 
2.1948926e+3, 2.3779368e+2, -752085.94, -768592.9, -28398.074, 0.07901713, 0.22945835, -730766.3, -121123.305, 0.0, 9.999531, 9.999326 
2.1948169e+3, 2.4779278e+2, -738314.1, -691000.6, -28335.094, 0.074311934, 0.23429245, -677745.06, -166092.08, 0.0, 9.998866, 9.999506 
2.1947412e+3, 2.577921e+2, -728706.2, -627099.7, -34073.977, 0.07126867, 0.23809586, -616731.0, -203069.28, 0.0, 9.998222, 9.999581 
2.1946655e+3, 2.6779175e+2, -675081.8, -453140.56, -36236.586, 0.055175044, 0.2299683, -447374.0, -131709.6, 0.0, 9.9974985, 10.000451 
2.1945895e+3, 2.7779177e+2, -695340.25, -426133.25, -35080.055, 0.034789898, 0.21701081, -421637.13, -203974.36, 0.0, 9.996747, 10.000326 
2.1945141e+3, 2.8779224e+2, -678857.9, -325410.9, -28116.117, 0.007346265, 0.24295558, -323188.3, -203529.77, 0.0, 9.996008, 10.0007 
2.1944387e+3, 2.9779306e+2, -681686.56, -267017.8, -34305.445, -0.022351932, 0.28183928, -264198.88, -242548.0, 0.0, 9.995277, 10.00078 
2.1943638e+3, 3.0779284e+2, -655598.8, -119925.586, -46623.94, 0.019631438, 0.16083239, -115897.81, -115897.81, 0.0, 9.994651, 10.001756 
2.1942876e+3, 3.1779528e+2, -707515.8, -85162.2, 5326.3047, -0.08632049, 0.26410797, -85116.625, -85116.625, 0.0, 9.994039, 10.002289 
2.2057348e+3, 1.2789506e+2, -910311.2, -1673185.6, 20987.145, 0.008657683, 0.11379947, -909734.25, 776906.44, 0.06080349, 10.00747, 9.996691 
2.205659e+3, 1.3789164e+2, -895204.25, -1644427.3, 11020.215, 0.048463836, 0.13722038, -895042.2, 693632.3, 0.04359493, 10.006862, 9.996505 
2.205582e+3, 1.4788817e+2, -862056.9, -1539203.0, 5088.872, 0.03978224, 0.15505084, -862018.7, 628690.7, 0.026140342, 10.006118, 9.996912 
2.205505e+3, 1.5788476e+2, -872623.75, -1505775.3, 3447.591, 0.026864925, 0.15382574, -872605.0, 520138.84, 0.012026809, 10.00533, 9.996848 
2.2054285e+3, 1.6788156e+2, -832250.9, -1378613.8, -3612.293, 0.037577834, 0.1546372, -832227.0, 462549.4, 0.0036464455, 10.004646, 9.997378 
2.2053517e+3, 1.7787871e+2, -823623.9, -1319620.5, -5184.293, 0.05351882, 0.15864623, -823569.7, 373235.88, 0.0004725135, 10.004001, 9.997422 
2.2052749e+3, 1.8787639e+2, -767559.06, -1153864.9, -7902.7925, 0.059922375, 0.17432328, -767397.44, 331431.53, 0.0000017580452, 10.003331, 9.99821 
2.205198e+3, 1.978745e+2, -773530.6, -1113115.3, -7350.93, 0.064611845, 0.19247995, -773371.56, 227476.67, 0.0, 10.002648, 9.998146 
2.2051215e+3, 2.0787273e+2, -753560.75, -994762.25, -4274.455, 0.08171487, 0.20694421, -753485.0, 149382.33, 0.0, 10.001862, 9.998665 
2.2050449e+3, 2.1787125e+2, -771925.06, -948875.94, -4750.1177, 0.10164288, 0.21991596, -771797.6, 33086.285, 0.0, 10.001045, 9.998701 
2.2049685e+3, 2.278702e+2, -723633.56, -789143.44, -3699.453, 0.094142035, 0.23567547, -723425.3, -16530.787, 0.0, 10.000335, 9.999467 
2.2048919e+3, 2.378695e+2, -737512.7, -766208.2, -7441.4956, 0.07758636, 0.25074017, -735697.75, -126796.61, 0.0, 9.999658, 9.999278 
2.2048154e+3, 2.4786848e+2, -735285.3, -691123.5, -3026.4072, 0.07564572, 0.24783117, -690917.06, -180005.06, 0.0, 9.9989, 9.999485 
2.204739e+3, 2.578676e+2, -746012.25, -638571.25, -1467.8906, 0.07757472, 0.23837796, -638551.2, -225629.27, 0.0, 9.998123, 9.999547 
2.2046626e+3, 2.6786724e+2, -683177.5, -463753.03, -3370.107, 0.058106598, 0.23294736, -463701.28, -148776.03, 0.0, 9.9974785, 10.000385 
2.2045861e+3, 2.778673e+2, -682557.7, -425166.1, -6475.8643, 0.03163847, 0.22893742, -425003.28, -208079.31, 0.0, 9.996864, 10.000273 
2.2045098e+3, 2.8786778e+2, -677374.56, -324817.9, -143.87051, 0.003987637, 0.26594156, -324817.84, -205898.61, 0.0, 9.996025, 10.000692 
2.2044335e+3, 2.978687e+2, -709605.1, -287405.84, 1301.5386, -0.023087822, 0.3135929, -287401.84, -266490.72, 0.0, 9.995122, 10.000711 
2.2043581e+3, 3.078679e+2, -704340.3, -167289.14, -5700.5166, 0.030528674, 0.15274416, -167228.64, -167228.64, 0.0, 9.994426, 10.001536 
2.204281e+3, 3.1787053e+2, -723136.3, -48632.62, 39572.97, -0.10601411, 0.28620803, -46318.824, -46318.824, 0.0, 9.993749, 10.002676 
2.2157422e+3, 1.2797163e+2, -902580.1, -1659154.5, 156.52266, 0.013327137, 0.12040538, -902580.06, 783309.7, 0.06112215, 10.007475, 9.996794 
2.2156653e+3, 1.3796791e+2, -891808.6, -1635238.9, -12348.347, 0.045217752, 0.10466921, -891603.56, 696322.56, 0.04380716, 10.006848, 9.996577 
2.215588e+3, 1.4796455e+2, -861899.3, -1538994.9, -23705.88, 0.030777553, 0.12928595, -861070.3, 628889.8, 0.026251517, 10.006113, 9.996919 
2.21551e+3, 1.579614e+2, -871305.5, -1506399.0, -24319.275, 0.013719987, 0.15146534, -870375.6, 521616.75, 0.012064466, 10.005339, 9.996843 
2.2154328e+3, 1.6795819e+2, -832308.75, -1381947.4, -27369.48, 0.029381048, 0.15417266, -830949.25, 463075.63, 0.003649025, 10.004654, 9.997355 
2.2153555e+3, 1.7795525e+2, -824470.7, -1323552.0, -29327.32, 0.05309349, 0.15257357, -822753.25, 373301.44, 0.00047009703, 10.0040045, 9.997396 
2.2152781e+3, 1.8795292e+2, -768641.75, -1158285.0, -32991.77, 0.06757649, 0.16879997, -765868.0, 332210.56, 0.0000016934508, 10.003335, 9.998181 
2.2152005e+3, 1.9795102e+2, -775033.1, -1118664.6, -33975.566, 0.07952002, 0.19014776, -771706.06, 228392.16, 0.0, 10.002652, 9.998109 
2.215123e+3, 2.0794928e+2, -755674.4, -1001971.25, -34850.285, 0.0857496, 0.21277195, -750838.1, 151279.14, 0.0, 10.001868, 9.998616 
2.2150457e+3, 2.1794784e+2, -775494.25, -959349.5, -33458.39, 0.08966405, 0.23476426, -769594.75, 34538.902, 0.0, 10.001053, 9.998629 
2.2149685e+3, 2.2794665e+2, -731062.0, -807762.7, -28668.838, 0.090418726, 0.2473479, -721530.7, -15384.631, 0.0, 10.000342, 9.999338 
2.2148913e+3, 2.3794577e+2, -741154.9, -777151.1, -33776.355, 0.08967335, 0.25536913, -720880.6, -112725.57, 0.0, 9.999666, 9.999202 
2.214814e+3, 2.4794479e+2, -729035.94, -681247.94, -32736.0, 0.08279212, 0.2538942, -664613.3, -154448.03, 0.0, 9.998907, 9.999553 
2.2147368e+3, 2.5794402e+2, -744159.56, -637179.6, -28934.713, 0.072952926, 0.24920939, -629855.2, -217681.61, 0.0, 9.998128, 9.999558 
2.2146599e+3, 2.6794362e+2, -690621.3, -482320.4, -25988.332, 0.054503616, 0.24903189, -479126.97, -164949.44, 0.0, 9.997486, 10.0002575 
2.2145827e+3, 2.779436e+2, -685498.06, -435626.3, -32923.88, 0.03317786, 0.24965818, -431360.97, -215183.27, 0.0, 9.996877, 10.000198 
2.2145054e+3, 2.8794405e+2, -671499.4, -315681.5, -35406.414, -0.0018029854, 0.2791447, -312192.53, -194018.97, 0.0, 9.996032, 10.000755 
2.2144282e+3, 2.9794487e+2, -711924.56, -293043.84, -30216.771, -0.039199688, 0.31551182, -290875.34, -270709.53, 0.0, 9.995119, 10.000678 
2.2143523e+3, 3.0794403e+2, -723565.7, -207057.84, -29788.678, 0.031446226, 0.16645107, -205345.52, -205345.52, 0.0, 9.994419, 10.001269 
2.2142744e+3, 3.1794626e+2, -684737.2, 33161.293, 4815.4985, -0.10971407, 0.27867708, 33193.594, 33193.594, 0.0, 9.993733, 10.003249 
2.2257495e+3, 1.2804891e+2, -895517.56, -1659672.1, 36600.8, 0.01745137, 0.09861538, -893768.5, 791363.25, 0.061375417, 10.007553, 9.996749 
2.2256719e+3, 1.3804537e+2, -919399.06, -1651859.9, 17544.602, 0.042488944, 0.10799067, -918979.06, 668187.75, 0.04397192, 10.006669, 9.996546 
2.2255935e+3, 1.4804196e+2, -874120.5, -1543488.4, 6516.3955, 0.025346898, 0.13060695, -874057.1, 615144.06, 0.026333524, 10.006026, 9.996926 
2.2255151e+3, 1.5803872e+2, -854373.9, -1496469.8, 4947.984, 0.007215586, 0.14408672, -854335.75, 536898.4, 0.012088415, 10.005456, 9.996852 
2.225437e+3, 1.6803549e+2, -820646.44, -1373689.8, 2091.9731, 0.025285738, 0.1444242, -820638.56, 472628.13, 0.0036478618, 10.004729, 9.997373 
2.2253591e+3, 1.7803256e+2, -832324.6, -1327302.1, 2317.7556, 0.052455787, 0.14277041, -832313.75, 362982.6, 0.00046787772, 10.003957, 9.997391 
2.225281e+3, 1.8803023e+2, -784800.06, -1172064.1, -2055.1047, 0.07058958, 0.16377126, -784789.1, 312531.47, 0.000001730247, 10.003256, 9.998121 
2.2252029e+3, 1.9802831e+2, -789941.3, -1131797.5, -6891.996, 0.085874885, 0.1909515, -789802.4, 209538.44, 0.0, 10.002582, 9.99805 
2.2251247e+3, 2.080265e+2, -753771.4, -1005927.94, -11155.621, 0.08727883, 0.21331304, -753278.8, 148081.92, 0.0, 10.001908, 9.998566 
2.2250465e+3, 2.1802498e+2, -753260.7, -952473.8, -10650.288, 0.083963595, 0.23380515, -752692.94, 50685.008, 0.0, 10.001228, 9.998588 
2.2249685e+3, 2.2802383e+2, -722380.9, -805532.2, -1201.2645, 0.08771918, 0.25323325, -722363.5, -16973.063, 0.0, 10.000417, 9.999314 
2.2248906e+3, 2.38023e+2, -755595.1, -783905.56, 904.16895, 0.09318871, 0.26955885, -755566.25, -148166.92, 0.0, 9.999573, 9.999197 
2.2248128e+3, 2.4802198e+2, -730052.2, -674849.6, 3416.4524, 0.08234588, 0.2618885, -674638.94, -165229.27, 0.0, 9.998878, 9.999607 
2.2247346e+3, 2.5802115e+2, -729094.6, -625939.56, 5736.906, 0.06580911, 0.24769281, -625621.44, -214203.47, 0.0, 9.998221, 9.999587 
2.224657e+3, 2.6802078e+2, -703597.44, -491677.47, 12968.289, 0.05402623, 0.25456697, -490886.8, -177465.05, 0.0, 9.997417, 10.000222 
2.2245793e+3, 2.7802083e+2, -730997.6, -459438.34, 11366.403, 0.04254327, 0.26635906, -458963.4, -243541.55, 0.0, 9.996579, 10.0001745 
2.2245012e+3, 2.8802115e+2, -684838.75, -319885.3, 5386.504, -0.001966736, 0.28533784, -319805.8, -202386.72, 0.0, 9.995938, 10.000769 
2.2244228e+3, 2.9802185e+2, -682853.0, -281268.22, 5933.5435, -0.053370632, 0.30747905, -281180.56, -261767.69, 0.0, 9.995336, 10.00065 
2.2243464e+3, 3.0802143e+2, -731208.5, -223090.66, 11931.592, 0.029716423, 0.2112519, -222810.64, -222810.64, 0.0, 9.994426, 10.001152 
2.2242676e+3, 3.1802315e+2, -709845.9, 69608.86, 41786.063, -0.11051469, 0.27512038, 71842.586, 71842.586, 0.0, 9.993359, 10.003676 
2.2357567e+3, 1.2812684e+2, -907570.1, -1684888.1, 3476.209, 0.020828638, 0.056758832, -907554.56, 776812.0, 0.06156059, 10.007548, 9.996571 
2.2356783e+3, 1.3812388e+2, -925993.44, -1670589.1, -11477.747, 0.040158387, 0.13979004, -925816.56, 660580.9, 0.04408723, 10.006682, 9.996415 
2.2355992e+3, 1.4812033e+2, -873454.75, -1545376.5, -13903.097, 0.022790208, 0.1529392, -873167.2, 615266.06, 0.026385676, 10.006035, 9.996913 
2.2355203e+3, 1.5811673e+2, -854453.94, -1497478.3, -18271.549, 0.0060249805, 0.13231857, -853935.2, 536533.94, 0.012098937, 10.005453, 9.99685 
2.2354414e+3, 1.6811347e+2, -818279.0, -1369927.8, -26823.88, 0.02448638, 0.12700956, -816977.8, 475524.03, 0.003643347, 10.004728, 9.997402 
2.2353628e+3, 1.781106e+2, -832256.2, -1329498.0, -25546.521, 0.05149426, 0.12969753, -830947.1, 363583.6, 0.00046589482, 10.003961, 9.997376 
2.235284e+3, 1.8810827e+2, -791305.6, -1188412.0, -27039.549, 0.06927883, 0.1592565, -789472.94, 307082.34, 0.0000018512796, 10.003262, 9.99801 
2.235205e+3, 1.9810632e+2, -795734.06, -1146826.4, -31740.434, 0.08424151, 0.19484855, -792887.6, 205688.66, 0.0, 10.002588, 9.997947 
2.2351262e+3, 2.0810436e+2, -757714.3, -1016945.7, -35834.84, 0.08660881, 0.20865186, -752851.94, 147746.11, 0.0, 10.001914, 9.99849 
2.2350474e+3, 2.1810265e+2, -754326.2, -957481.0, -37410.44, 0.08452795, 0.21707946, -747656.1, 54961.03, 0.0, 10.001234, 9.998554 
2.2349685e+3, 2.2810169e+2, -717012.5, -797277.75, -33011.977, 0.08577825, 0.25358263, -705179.56, -551.57214, 0.0, 10.000423, 9.999372 
2.2348899e+3, 2.3810114e+2, -751507.6, -778157.4, -28487.848, 0.08746621, 0.2940577, -733382.4, -126748.1, 0.0, 9.999578, 9.999237 
2.234811e+3, 2.481e+2, -727506.9, -672664.75, -20589.002, 0.07381825, 0.27167052, -665795.56, -157150.06, 0.0, 9.998884, 9.999622 
2.2347324e+3, 2.580989e+2, -725607.6, -622412.25, -20911.732, 0.055943143, 0.23221378, -618335.7, -207680.05, 0.0, 9.998231, 9.999609 
2.234654e+3, 2.6809868e+2, -699437.25, -485331.94, -19438.53, 0.057116173, 0.2481893, -483581.44, -170923.16, 0.0, 9.997421, 10.000268 
2.2345757e+3, 2.7809897e+2, -731173.75, -459752.34, -17272.414, 0.061239325, 0.27836242, -458657.6, -244001.05, 0.0, 9.996573, 10.000179 
2.2344968e+3, 2.8809908e+2, -689311.75, -331338.63, -15685.233, 0.004761323, 0.28291544, -330652.66, -213996.52, 0.0, 9.995941, 10.000691 
2.234418e+3, 2.9809955e+2, -682231.8, -286271.88, -20720.82, -0.06559676, 0.2874869, -285190.5, -266537.72, 0.0, 9.995357, 10.000609 
2.2343403e+3, 3.081002e+2, -726708.6, -216692.48, -26917.236, 0.023969235, 0.29740655, -215275.8, -215275.8, 0.0, 9.994432, 10.001197 
2.2342607e+3, 3.181011e+2, -701472.25, 91537.055, -9250.104, -0.10532155, 0.27583292, 91644.94, 91644.94, 0.0, 9.993333, 10.003843 
2.245764e+3, 1.2820596e+2, -914002.75, -1694451.0, 18525.148, 0.024312884, 0.0734217, -913563.25, 770028.25, 0.0616782, 10.007535, 9.996509 
2.2456846e+3, 1.3820273e+2, -903135.0, -1662602.9, 11111.203, 0.031697787, 0.1382422, -902972.44, 682652.3, 0.04415339, 10.006868, 9.996376 
2.245605e+3, 1.481991e+2, -860386.1, -1535850.5, 13682.326, 0.016912472, 0.14409795, -860109.1, 627552.0, 0.026408287, 10.00612, 9.996934 
2.2455254e+3, 1.5819548e+2, -869009.4, -1502083.1, 10072.5, 0.006825074, 0.12095533, -868849.2, 520847.7, 0.012096253, 10.005347, 9.996865 
2.2454458e+3, 1.6819228e+2, -831766.8, -1374261.4, -636.6304, 0.025135191, 0.12160479, -831766.06, 459963.0, 0.0036354344, 10.004632, 9.997416 
2.2453664e+3, 1.7818949e+2, -835671.5, -1330224.1, -242.01231, 0.04954413, 0.13218698, -835671.4, 358086.06, 0.0004639245, 10.003939, 9.997379 
2.2452869e+3, 1.8818712e+2, -792055.8, -1190179.0, 3632.873, 0.065198906, 0.16058356, -792022.7, 303759.78, 0.000002025898, 10.003269, 9.997991 
2.2452076e+3, 1.981851e+2, -795027.5, -1147132.4, 3740.6023, 0.07868863, 0.19239694, -794987.75, 202816.48, 0.0, 10.002603, 9.997934 
2.2451279e+3, 2.0818311e+2, -766897.44, -1019701.8, 3423.0073, 0.08556193, 0.20511635, -766851.1, 132975.03, 0.0, 10.001851, 9.998499 
2.2450481e+3, 2.181814e+2, -777536.8, -968043.5, 6356.9478, 0.089159936, 0.21337539, -777324.94, 24520.375, 0.0, 10.001079, 9.998553 
2.2449686e+3, 2.2818044e+2, -722452.7, -801279.25, 6051.0103, 0.08499279, 0.25279158, -721990.94, -18134.537, 0.0, 10.000399, 9.999352 
2.2448891e+3, 2.381799e+2, -727275.0, -763607.5, 4917.412, 0.07840384, 0.29704463, -726621.25, -120758.375, 0.0, 9.999739, 9.999256 
2.2448096e+3, 2.4817878e+2, -710323.75, -651554.6, 16570.133, 0.06596732, 0.27209997, -647204.56, -139331.06, 0.0, 9.998954, 9.99973 
2.2447303e+3, 2.5817776e+2, -735905.5, -619042.6, 20646.541, 0.052259196, 0.22894312, -615502.25, -205619.38, 0.0, 9.998131, 9.999677 
2.2446512e+3, 2.681777e+2, -717760.1, -494997.28, 16163.523, 0.057009745, 0.25531888, -493830.56, -181945.81, 0.0, 9.997306, 10.000253 
2.244572e+3, 2.78178e+2, -745938.75, -467707.44, 15776.708, 0.064742975, 0.2978387, -466815.7, -252933.19, 0.0, 9.996483, 10.000164 
2.2444925e+3, 2.881779e+2, -721167.4, -347186.84, 24584.986, 0.009316666, 0.28039744, -345577.56, -229693.0, 0.0, 9.995731, 10.00068 
2.2444129e+3, 2.9817808e+2, -731443.0, -304105.9, 20356.754, -0.061353385, 0.25990167, -303138.4, -285254.56, 0.0, 9.995, 10.000655 
2.2443345e+3, 3.081797e+2, -750683.94, -208295.88, 13993.57, 0.026745878, 0.3559194, -207935.08, -207935.08, 0.0, 9.994188, 10.0013685 
2.2442536e+3, 3.1818008e+2, -716304.2, 71847.06, 22798.572, -0.09693387, 0.27068338, 72506.0, 72506.0, 0.0, 9.993292, 10.003724 
2.2557713e+3, 1.2828608e+2, -912734.06, -1694266.0, -5376.067, 0.027574359, 0.13157314, -912697.06, 770110.4, 0.061730683, 10.00754, 9.9965105 
2.255691e+3, 1.38282e+2, -903698.4, -1662491.5, -13774.765, 0.018277083, 0.11005153, -903448.44, 681399.7, 0.044171795, 10.006856, 9.996387 
2.2556105e+3, 1.4827834e+2, -859094.44, -1533171.1, -14366.826, 0.008382053, 0.11116577, -858788.4, 628095.9, 0.026401628, 10.006113, 9.996959 
2.2555305e+3, 1.5827496e+2, -867358.06, -1501185.5, -17522.336, 0.009203471, 0.11034969, -866874.0, 522043.38, 0.012079905, 10.005352, 9.996873 
2.2554502e+3, 1.682719e+2, -832455.0, -1378025.3, -26199.025, 0.026857473, 0.12650771, -831199.75, 459748.84, 0.0036235184, 10.004636, 9.997391 
2.2553699e+3, 1.782692e+2, -835478.8, -1331412.3, -25467.21, 0.046635125, 0.14838855, -834174.44, 358802.28, 0.00046153905, 10.00394, 9.997374 
2.2552899e+3, 1.8826675e+2, -788790.0, -1184891.4, -20715.871, 0.058601607, 0.16695106, -787709.5, 307292.9, 0.0000022188058, 10.003269, 9.99803 
2.2552097e+3, 1.9826464e+2, -791114.44, -1140698.9, -22162.201, 0.06953422, 0.18383893, -789715.06, 207309.92, 0.0, 10.002604, 9.997981 
2.2551294e+3, 2.0826277e+2, -761400.75, -1010698.8, -25402.014, 0.08423041, 0.2029019, -758838.75, 140206.69, 0.0, 10.001855, 9.998562 
2.255049e+3, 2.1826121e+2, -775876.3, -967569.4, -20852.986, 0.09766887, 0.22268903, -773634.1, 27428.62, 0.0, 10.001085, 9.998556 
2.2549687e+3, 2.2826006e+2, -729548.6, -819232.94, -17967.164, 0.08519567, 0.25038752, -726083.06, -23007.125, 0.0, 10.000406, 9.9992285 
2.2548884e+3, 2.3825924e+2, -727328.5, -767308.3, -21310.35, 0.065876804, 0.27719218, -718099.75, -113014.234, 0.0, 9.999748, 9.999229 
2.2548084e+3, 2.4825835e+2, -695986.25, -625024.7, -14334.802, 0.05899436, 0.26295272, -622238.4, -115144.31, 0.0, 9.998961, 9.999912 
2.2547282e+3, 2.582577e+2, -728951.0, -606850.2, -10223.116, 0.05534886, 0.23965836, -606000.1, -196900.4, 0.0, 9.998135, 9.999763 
2.2546482e+3, 2.6825765e+2, -724789.9, -511487.3, -14960.584, 0.052871443, 0.2777975, -510443.13, -199341.8, 0.0, 9.997308, 10.000142 
2.2545679e+3, 2.7825797e+2, -749639.5, -477365.84, -14321.313, 0.04995603, 0.3260085, -476614.63, -263514.66, 0.0, 9.996485, 10.0001 
2.2544877e+3, 2.8825757e+2, -718474.56, -342098.44, -3346.9775, 0.011502259, 0.277661, -342068.66, -226964.02, 0.0, 9.995727, 10.000721 
2.2544077e+3, 2.982574e+2, -724439.2, -287549.88, -8369.105, -0.036094815, 0.22230127, -287389.63, -270283.4, 0.0, 9.994985, 10.00078 
2.2543284e+3, 3.0825987e+2, -730273.3, -165018.0, -16645.236, 0.040275536, 0.3773113, -164528.27, -164528.27, 0.0, 9.994178, 10.001674 
2.2542468e+3, 3.1826034e+2, -755272.06, -10901.472, -19396.504, -0.08425756, 0.28360635, -10396.388, -10396.388, 0.0, 9.993293, 10.003159 
2.2657786e+3, 1.2836649e+2, -900439.8, -1680007.0, 17140.625, 0.041359305, 0.145137, -900063.1, 781957.2, 0.061717357, 10.007601, 9.996576 
2.2656973e+3, 1.383623e+2, -923810.75, -1665249.6, 14171.85, 0.013172182, 0.10687486, -923539.94, 660521.44, 0.044141598, 10.006685, 9.996447 
2.2656162e+3, 1.4835864e+2, -871146.1, -1532331.8, 18791.803, 0.0048013926, 0.10441726, -870612.44, 615484.75, 0.026364475, 10.006005, 9.997013 
2.2655354e+3, 1.5835533e+2, -861163.5, -1494320.5, 15832.335, 0.01241559, 0.10598251, -860767.8, 527361.75, 0.012048566, 10.005384, 9.996901 
2.2654545e+3, 1.683523e+2, -836739.2, -1381125.9, 5683.2725, 0.026969763, 0.12802145, -836679.9, 453480.9, 0.0036065723, 10.004618, 9.9973755 
2.2653735e+3, 1.7834966e+2, -854530.6, -1339855.1, 6882.294, 0.041098397, 0.15634951, -854433.06, 337756.0, 0.00045819185, 10.003813, 9.997374 
2.2652924e+3, 1.8834725e+2, -815834.9, -1193618.1, 12122.146, 0.055772625, 0.17755681, -815446.3, 278768.2, 0.000002394006, 10.003072, 9.998062 
2.2652116e+3, 1.9834515e+2, -825728.44, -1153946.8, 8822.354, 0.071371555, 0.19523035, -825491.5, 170745.3, 0.0, 10.0023575, 9.998006 
2.2651309e+3, 2.0834325e+2, -782308.2, -1018618.0, 1364.3126, 0.08433153, 0.21075557, -782300.3, 115956.97, 0.0, 10.001709, 9.998574 
2.2650498e+3, 2.1834165e+2, -776829.75, -965539.4, 2007.2385, 0.094681166, 0.22625065, -776808.4, 23466.346, 0.0, 10.001075, 9.998571 
2.2649688e+3, 2.2834048e+2, -735616.1, -819612.2, 11668.836, 0.083106205, 0.25006968, -734025.2, -31737.014, 0.0, 10.0003605, 9.999245 
2.2648877e+3, 2.3833962e+2, -743809.44, -770414.5, 15656.437, 0.06555379, 0.27323472, -736567.4, -132269.3, 0.0, 9.999621, 9.999266 
2.264807e+3, 2.4833885e+2, -707286.0, -620286.5, 15334.634, 0.05926485, 0.26645893, -617662.75, -111357.26, 0.0, 9.998847, 9.999996 
2.264726e+3, 2.583384e+2, -735818.5, -603396.2, 12260.172, 0.0558196, 0.2539517, -602270.7, -193961.02, 0.0, 9.998065, 9.999816 
2.264645e+3, 2.6833832e+2, -722850.56, -509792.0, 12320.578, 0.048905153, 0.28991845, -509081.9, -198770.4, 0.0, 9.997325, 10.000142 
2.2645642e+3, 2.7833855e+2, -734994.5, -468343.78, 19774.959, 0.04097017, 0.33195692, -466885.25, -254574.31, 0.0, 9.996583, 10.000111 
2.2644831e+3, 2.8833812e+2, -719052.2, -337044.63, 30418.72, 0.012389533, 0.282305, -334637.6, -220322.28, 0.0, 9.995707, 10.000761 
2.2644024e+3, 2.9833806e+2, -742327.7, -282269.56, 25708.012, -0.022337738, 0.22633295, -280837.47, -264521.22, 0.0, 9.994809, 10.000897 
2.2643222e+3, 3.0834064e+2, -713342.6, -125869.47, 16992.434, 0.039086074, 0.37185064, -125378.375, -125378.375, 0.0, 9.994167, 10.001945 
2.26424e+3, 3.1834128e+2, -748946.44, -62818.313, 3336.6187, -0.07418099, 0.28322777, -62802.09, -62802.09, 0.0, 9.99358, 10.00266 
2.2757861e+3, 1.2844731e+2, -897372.9, -1669860.1, -15859.183, 0.062382787, 0.12656172, -897047.4, 784181.5, 0.061633557, 10.007576, 9.996665 
2.2757035e+3, 1.3844356e+2, -917900.3, -1654628.0, -15139.525, 0.014221528, 0.123775445, -917589.3, 665676.0, 0.0440598, 10.006688, 9.996521 
2.275622e+3, 1.4843993e+2, -866933.6, -1524944.6, -3384.706, 0.0049934937, 0.11819485, -866916.25, 618384.44, 0.026294986, 10.006005, 9.997067 
2.2755405e+3, 1.5843654e+2, -860474.94, -1492382.9, -9582.153, 0.016198954, 0.106572874, -860329.6, 527004.2, 0.012000967, 10.005376, 9.996922 
2.2754587e+3, 1.6843349e+2, -839042.0, -1386761.8, -24618.965, 0.02564396, 0.12664123, -837937.6, 451428.1, 0.0035836776, 10.004614, 9.997341 
2.2753769e+3, 1.7843081e+2, -854760.7, -1343081.3, -22195.803, 0.033241604, 0.15710339, -853753.9, 337640.66, 0.00045344493, 10.003818, 9.997353 
2.2752954e+3, 1.8842854e+2, -814333.44, -1193529.4, -14645.467, 0.05639616, 0.19227934, -813768.6, 279650.28, 0.000002521187, 10.003078, 9.998062 
2.2752139e+3, 1.984266e+2, -825953.5, -1157401.9, -16709.635, 0.08321786, 0.22524095, -825113.25, 170326.69, 0.0, 10.002364, 9.997982 
2.2751321e+3, 2.0842451e+2, -785057.4, -1027469.25, -21792.684, 0.0854083, 0.22781348, -783113.8, 114348.24, 0.0, 10.001716, 9.998513 
2.2750503e+3, 2.1842267e+2, -774945.3, -964797.44, -22358.615, 0.08034846, 0.22389138, -772347.75, 27133.854, 0.0, 10.001082, 9.998576 
2.2749688e+3, 2.2842161e+2, -724872.8, -800383.5, -15764.847, 0.07906817, 0.25215608, -721713.7, -20220.332, 0.0, 10.000367, 9.999376 
2.2748873e+3, 2.3842101e+2, -737599.75, -760229.44, -12317.942, 0.078003705, 0.28617322, -732188.6, -128688.01, 0.0, 9.999626, 9.999336 
2.2748055e+3, 2.4842027e+2, -709696.0, -627750.94, -14189.44, 0.06699209, 0.2834553, -625363.5, -119855.39, 0.0, 9.998852, 9.999946 
2.2747236e+3, 2.5841978e+2, -734938.75, -604142.7, -16748.258, 0.05317754, 0.27188915, -602032.1, -194518.95, 0.0, 9.99807, 9.999812 
2.2746421e+3, 2.684196e+2, -714417.1, -495528.13, -15360.466, 0.04525066, 0.28968462, -494455.47, -184939.53, 0.0, 9.997332, 10.00024 
2.2745603e+3, 2.784197e+2, -728183.8, -458206.5, -10105.672, 0.038908407, 0.31164986, -457828.75, -246312.8, 0.0, 9.996594, 10.000178 
2.2744785e+3, 2.8841966e+2, -717244.0, -335642.75, -4713.0273, 0.011403943, 0.2972324, -335584.56, -222068.02, 0.0, 9.99571, 10.000772 
2.274397e+3, 2.9842004e+2, -737301.3, -272049.9, -4688.609, -0.02370244, 0.28285044, -272002.66, -256489.47, 0.0, 9.994803, 10.000974 
2.274316e+3, 3.084218e+2, -698155.3, -97690.67, -4043.4292, 0.018514687, 0.32887766, -97663.445, -97663.445, 0.0, 9.994175, 10.002138 
2.2742334e+3, 3.1842303e+2, -772415.4, -120669.47, -22342.803, -0.066538595, 0.29367596, -119904.43, -119904.43, 0.0, 9.993612, 10.002251 
2.2857933e+3, 1.2852918e+2, -926875.44, -1675757.8, 15205.185, 0.073616356, 0.12932062, -926566.9, 753860.4, 0.061473157, 10.007327, 9.996738 
2.2857103e+3, 1.3852555e+2, -911432.0, -1645045.1, 15406.7295, 0.016694523, 0.13130006, -911108.6, 671353.94, 0.043922234, 10.006713, 9.996572 
2.2856277e+3, 1.4852194e+2, -874791.5, -1527017.6, 24947.082, 0.010622288, 0.12771568, -873838.7, 610659.0, 0.026190378, 10.005948, 9.997077 
2.2855456e+3, 1.5851855e+2, -893171.7, -1507607.0, 15636.961, 0.02696023, 0.11785878, -892774.0, 493756.97, 0.011935209, 10.005152, 9.996922 
2.285463e+3, 1.6851552e+2, -859991.06, -1397527.3, 684.2808, 0.03154778, 0.14143611, -859990.2, 428572.84, 0.0035537814, 10.004479, 9.997329 
2.2853804e+3, 1.7851286e+2, -851983.6, -1340477.3, 3355.6792, 0.031868707, 0.17537405, -851960.56, 338631.47, 0.00044701452, 10.003839, 9.997356 
2.2852981e+3, 1.8851061e+2, -807806.06, -1185817.0, 11444.674, 0.052180413, 0.21106796, -807459.9, 285156.34, 0.0000025840552, 10.003111, 9.998096 
2.2852159e+3, 1.9850868e+2, -823924.7, -1152209.3, 12180.431, 0.077814154, 0.24345337, -823473.4, 171163.56, 0.0, 10.002367, 9.998013 
2.2851336e+3, 2.0850652e+2, -785149.44, -1023793.1, 14337.814, 0.0811266, 0.23885284, -784291.06, 112368.09, 0.0, 10.001706, 9.99854 
2.285051e+3, 2.1850462e+2, -776105.7, -961319.0, 16915.055, 0.07746287, 0.22643664, -774573.56, 24105.41, 0.0, 10.001063, 9.998606 
2.2849688e+3, 2.2850358e+2, -727465.5, -797159.1, 15359.616, 0.07712878, 0.25388327, -724230.56, -23540.1, 0.0, 10.000338, 9.99941 
2.2848865e+3, 2.3850301e+2, -743082.56, -759937.0, 10323.107, 0.07737788, 0.28955573, -738183.7, -135486.3, 0.0, 9.999583, 9.999355 
2.284804e+3, 2.485023e+2, -721469.7, -633809.5, 7124.293, 0.06721792, 0.29165256, -633234.3, -128529.516, 0.0, 9.998779, 9.999936 
2.2847214e+3, 2.5850183e+2, -748621.4, -606796.1, 7653.7627, 0.053576622, 0.2849128, -606384.3, -199674.45, 0.0, 9.997966, 9.99984 
2.2846389e+3, 2.685016e+2, -724826.0, -487564.38, 11266.742, 0.043423373, 0.2937874, -487030.56, -178317.95, 0.0, 9.997211, 10.000349 
2.2845563e+3, 2.7850175e+2, -741167.5, -454108.9, 14663.304, 0.035157464, 0.30481687, -453361.84, -242649.39, 0.0, 9.996468, 10.000264 
2.2844741e+3, 2.8850198e+2, -724714.3, -333427.25, 17206.465, 0.014454815, 0.31170735, -332672.1, -219961.72, 0.0, 9.995641, 10.000818 
2.2843914e+3, 2.985026e+2, -734892.25, -263635.06, 21929.406, -0.014111961, 0.319907, -262616.78, -247912.42, 0.0, 9.994796, 10.001032 
2.2843096e+3, 3.0850348e+2, -706070.1, -91908.51, 21916.482, 0.006535469, 0.27587602, -91127.41, -91127.41, 0.0, 9.994087, 10.002216 
2.2842269e+3, 3.1850547e+2, -795243.94, -132706.3, 2494.6248, -0.054218143, 0.30579272, -132696.9, -132696.9, 0.0, 9.993467, 10.002234 
2.2958003e+3, 1.2861201e+2, -921602.25, -1670387.1, -6281.3276, 0.07745606, 0.14742379, -921549.56, 758066.7, 0.06123099, 10.007344, 9.996773 
2.2957166e+3, 1.3860823e+2, -910772.44, -1645214.1, -9225.842, 0.020299543, 0.13146454, -910656.56, 670996.44, 0.043724015, 10.006711, 9.996574 
2.2956333e+3, 1.4860466e+2, -877834.1, -1534511.9, -4741.768, 0.020524954, 0.13424367, -877799.9, 605888.3, 0.02604627, 10.005945, 9.99703 
2.2955506e+3, 1.5860136e+2, -895327.44, -1513916.0, -12151.666, 0.043273997, 0.13807283, -895088.8, 490632.28, 0.011848183, 10.005153, 9.9968815 
2.2954673e+3, 1.6859838e+2, -860505.6, -1400709.3, -22634.188, 0.043384347, 0.16989674, -859558.94, 428194.03, 0.003515508, 10.004482, 9.997309 
2.2953838e+3, 1.7859575e+2, -851035.7, -1340664.8, -21418.223, 0.03591816, 0.20877707, -850100.56, 339681.25, 0.0004386907, 10.003841, 9.997357 
2.2953008e+3, 1.8859342e+2, -803804.0, -1180318.5, -16263.828, 0.043330032, 0.23313165, -803102.75, 288703.84, 0.0000025797033, 10.003117, 9.998135 
2.2952178e+3, 1.9859137e+2, -818399.0, -1144220.4, -14114.316, 0.056488864, 0.25058118, -817788.75, 176039.22, 0.0, 10.002376, 9.998067 
2.2951348e+3, 2.085893e+2, -777652.75, -1011474.1, -9097.442, 0.07216485, 0.24440852, -777299.3, 118549.625, 0.0, 10.001714, 9.998624 
2.295052e+3, 2.1858747e+2, -773134.56, -958152.25, -8017.316, 0.08581664, 0.23394765, -772787.8, 25079.387, 0.0, 10.00107, 9.998628 
2.2949688e+3, 2.2858632e+2, -732606.5, -810872.6, -12503.858, 0.07682557, 0.25502753, -730657.44, -30777.414, 0.0, 10.000344, 9.999315 
2.2948855e+3, 2.3858558e+2, -745844.06, -768679.9, -18748.57, 0.06290998, 0.28274164, -735310.25, -133421.39, 0.0, 9.99959, 9.999296 
2.2948022e+3, 2.4858491e+2, -719834.6, -633072.75, -23856.398, 0.059619755, 0.29036933, -626945.8, -123049.82, 0.0, 9.998784, 9.999942 
2.2947189e+3, 2.5858453e+2, -745192.75, -601923.6, -22348.256, 0.05739373, 0.29267752, -598518.5, -192618.39, 0.0, 9.997969, 9.999875 
2.2946358e+3, 2.6858443e+2, -717473.4, -474216.56, -16985.836, 0.043559648, 0.30327883, -473036.22, -165134.34, 0.0, 9.997213, 10.000443 
2.2945525e+3, 2.7858463e+2, -735171.75, -443188.38, -15065.008, 0.029255258, 0.3140423, -442413.16, -232512.47, 0.0, 9.996467, 10.000343 
2.2944695e+3, 2.8858495e+2, -720037.94, -325634.38, -15544.162, 0.022489365, 0.32492694, -325022.7, -213125.36, 0.0, 9.995643, 10.0008745 
2.2943862e+3, 2.985856e+2, -733445.6, -263432.56, -8520.054, 0.009503364, 0.3321157, -263278.2, -249387.44, 0.0, 9.994801, 10.001034 
2.2943032e+3, 3.0858567e+2, -712867.25, -107611.88, -4922.5156, 0.0059337853, 0.21108964, -107571.85, -107571.85, 0.0, 9.994087, 10.002112 
2.29422e+3, 3.1858844e+2, -757861.75, -55935.555, -14519.348, -0.038472194, 0.32056552, -55635.35, -55635.35, 0.0, 9.9934635, 10.002767 
2.3058073e+3, 1.2869553e+2, -903637.3, -1668102.4, 22028.037, 0.0855936, 0.15443537, -903003.1, 775795.56, 0.060901117, 10.007509, 9.996706 
2.3057228e+3, 1.3869175e+2, -920472.25, -1653346.8, 13566.522, 0.02347238, 0.14773811, -920221.2, 660614.6, 0.043458182, 10.00666, 9.996539 
2.305639e+3, 1.4868821e+2, -887352.6, -1535930.6, 18748.078, 0.027576603, 0.1540919, -886811.1, 596059.9, 0.025856456, 10.00587, 9.997053 
2.3055555e+3, 1.5868495e+2, -900955.5, -1512634.6, 16786.148, 0.055185232, 0.16017891, -900495.2, 484408.5, 0.011736012, 10.005103, 9.99691 
2.3054715e+3, 1.6868195e+2, -866850.75, -1397571.3, 13549.0, 0.052052557, 0.18654871, -866505.06, 420430.56, 0.0034673235, 10.004418, 9.997357 
2.3053874e+3, 1.7867929e+2, -861311.7, -1341750.8, 17289.693, 0.039490025, 0.21872818, -860690.3, 328274.3, 0.0004282159, 10.003761, 9.997384 
2.3053035e+3, 1.8867697e+2, -804877.25, -1181324.6, 18692.318, 0.043997403, 0.24687868, -803951.4, 287037.84, 0.0000025086267, 10.0031185, 9.998123 
2.3052198e+3, 1.9867496e+2, -803039.8, -1133266.0, 16459.65, 0.054542027, 0.26939026, -802221.44, 190788.97, 0.0, 10.002474, 9.998091 
2.3051362e+3, 2.0867287e+2, -769302.0, -996501.6, 19684.365, 0.06876819, 0.25607383, -767609.2, 127421.836, 0.0, 10.001731, 9.998714 
2.3050524e+3, 2.1867104e+2, -785089.2, -957277.9, 20024.836, 0.08215734, 0.2367981, -782791.06, 14257.814, 0.0, 10.000967, 9.998679 
2.3049687e+3, 2.2866988e+2, -750591.1, -820801.5, 18435.695, 0.07635159, 0.2598229, -746044.7, -46983.145, 0.0, 10.000233, 9.999297 
2.3048848e+3, 2.3866913e+2, -760155.8, -777145.06, 15793.15, 0.06553452, 0.29103985, -750717.7, -149647.11, 0.0, 9.999505, 9.999275 
2.3048007e+3, 2.4866842e+2, -727464.2, -638495.75, 7819.3823, 0.058880836, 0.2953191, -637813.75, -134735.44, 0.0, 9.998746, 9.999919 
2.3047166e+3, 2.5866798e+2, -743947.6, -599092.75, 6700.7246, 0.05253726, 0.29346675, -598783.44, -193700.38, 0.0, 9.997974, 9.999888 
2.3046325e+3, 2.686679e+2, -719291.0, -465879.03, 9862.812, 0.040562004, 0.3040827, -465495.75, -158411.47, 0.0, 9.997168, 10.000519 
2.3045486e+3, 2.786682e+2, -745315.44, -437722.7, 10125.835, 0.02964726, 0.31568897, -437389.72, -228307.47, 0.0, 9.99636, 10.000428 
2.3044649e+3, 2.886686e+2, -710424.06, -308506.7, 11736.943, 0.02760369, 0.32683444, -308164.25, -197086.44, 0.0, 9.995662, 10.000979 
2.3043808e+3, 2.986693e+2, -710652.2, -252886.58, 19983.42, 0.018527295, 0.33338475, -252015.88, -238945.45, 0.0, 9.994966, 10.001023 
2.3042971e+3, 3.0866906e+2, -735650.8, -142416.23, 14628.533, 0.004278829, 0.19982272, -142055.73, -142055.73, 0.0, 9.9940405, 10.001892 
2.3042132e+3, 3.1867197e+2, -770484.6, -5184.2856, 9099.827, -0.027894398, 0.33258432, -5076.099, -5076.099, 0.0, 9.993139, 10.003268 
2.3158146e+3, 1.2877972e+2, -914363.3, -1692201.6, -8652.178, 0.096597224, 0.15383473, -914267.06, 763707.4, 0.060475897, 10.0075035, 9.996542 
2.3157293e+3, 1.3877611e+2, -924148.8, -1665369.8, -15407.48, 0.026088517, 0.17650482, -923828.7, 656182.3, 0.043116953, 10.006669, 9.996456 
2.3156445e+3, 1.4877258e+2, -881892.8, -1528310.1, -8988.709, 0.032243606, 0.18413085, -881767.9, 600278.25, 0.025615206, 10.005878, 9.997105 
2.3155603e+3, 1.5876932e+2, -895157.94, -1503985.9, -10156.9795, 0.06344245, 0.18364638, -894988.56, 489090.3, 0.011595839, 10.005111, 9.996969 
2.3154756e+3, 1.687662e+2, -859368.4, -1385834.6, -10812.783, 0.05808141, 0.19311373, -859146.44, 426964.75, 0.003408182, 10.004429, 9.997437 
2.3153909e+3, 1.7876345e+2, -857786.7, -1338414.8, -6917.511, 0.04272907, 0.20848003, -857687.1, 330453.4, 0.0004153753, 10.003772, 9.997406 
2.3153064e+3, 1.8876126e+2, -809226.75, -1193343.4, -4858.651, 0.053330597, 0.25376403, -809165.3, 280999.0, 0.0000023733726, 10.003125, 9.99804 
2.3152219e+3, 1.987594e+2, -803893.25, -1137337.4, -8855.519, 0.07030181, 0.29915375, -803658.25, 188526.28, 0.0, 10.002477, 9.998065 
2.3151374e+3, 2.0875722e+2, -763134.2, -986580.2, -8638.583, 0.070132405, 0.27321538, -762800.7, 131404.97, 0.0, 10.001738, 9.998783 
2.315053e+3, 2.1875526e+2, -779612.94, -949152.9, -7793.6753, 0.06654858, 0.23503631, -779255.44, 16968.734, 0.0, 10.000974, 9.998735 
2.3149686e+3, 2.2875425e+2, -746883.6, -816192.75, -8479.289, 0.076144084, 0.26868775, -745861.4, -47625.91, 0.0, 10.000239, 9.999329 
2.314884e+3, 2.3875369e+2, -759538.75, -778696.4, -11894.415, 0.08608986, 0.31528324, -753845.7, -153602.84, 0.0, 9.999511, 9.999265 
2.3147991e+3, 2.4875277e+2, -731852.3, -650454.56, -20977.457, 0.065042615, 0.30664727, -645366.4, -143114.28, 0.0, 9.998752, 9.999838 
2.314714e+3, 2.5875208e+2, -745424.1, -605218.5, -22967.596, 0.037747603, 0.2862353, -601552.0, -197292.9, 0.0, 9.997981, 9.999846 
2.3146294e+3, 2.6875198e+2, -716380.1, -462317.47, -21533.768, 0.034185622, 0.29491237, -460505.22, -154244.95, 0.0, 9.997171, 10.000545 
2.3145446e+3, 2.7875233e+2, -740091.0, -428586.7, -19121.059, 0.037478656, 0.30823773, -427417.38, -219159.69, 0.0, 9.996361, 10.000495 
2.31446e+3, 2.887528e+2, -699293.1, -288644.75, -13806.384, 0.028661577, 0.3146588, -288181.1, -177928.64, 0.0, 9.995668, 10.001116 
2.3143752e+3, 2.9875362e+2, -712272.06, -261419.55, -10327.172, 0.008812847, 0.32178494, -261183.11, -248939.14, 0.0, 9.994982, 10.00096 
2.3142907e+3, 3.0875385e+2, -763198.8, -201196.69, -24843.695, 0.0016870878, 0.26129797, -200100.6, -200100.6, 0.0, 9.99404, 10.0014925 
2.3142058e+3, 3.1875578e+2, -743396.6, 53939.582, -13003.72, -0.02923383, 0.322703, 54151.605, 54151.605, 0.0, 9.993119, 10.003688 
2.3258218e+3, 1.2886482e+2, -923299.94, -1691882.1, 17280.434, 0.0948922, 0.16846913, -922911.6, 754230.2, 0.059947852, 10.007419, 9.996582 
2.3257355e+3, 1.3886121e+2, -912818.5, -1656419.9, 20521.889, 0.04097688, 0.18958484, -912252.56, 666925.8, 0.0426945, 10.006741, 9.99648 
2.3256502e+3, 1.488577e+2, -870530.44, -1521541.5, 25724.313, 0.042477977, 0.19805793, -869515.56, 611698.06, 0.025319178, 10.0059595, 9.997108 
2.3255652e+3, 1.5885442e+2, -885653.25, -1496225.9, 23393.729, 0.06421135, 0.19936058, -884758.25, 498488.06, 0.011426325, 10.00517, 9.99699 
2.3254797e+3, 1.6885136e+2, -843417.25, -1371112.6, 23885.662, 0.06048754, 0.20987786, -842338.3, 442939.75, 0.0033376103, 10.004516, 9.997492 
2.3253943e+3, 1.7884864e+2, -840182.6, -1326481.8, 24236.94, 0.04957237, 0.22515197, -838977.6, 348329.2, 0.00040012732, 10.003885, 9.997429 
2.3253094e+3, 1.8884638e+2, -812640.4, -1197310.0, 25918.346, 0.06298812, 0.2649025, -810901.94, 278429.47, 0.0000021867893, 10.003119, 9.998013 
2.3252241e+3, 1.9884442e+2, -823820.4, -1144227.5, 25145.377, 0.08141046, 0.304627, -821858.94, 169493.56, 0.0, 10.002336, 9.998081 
2.3251389e+3, 2.0884234e+2, -761168.8, -975240.9, 27408.006, 0.073651396, 0.28259403, -757715.44, 135657.25, 0.0, 10.001713, 9.998869 
2.3250537e+3, 2.188405e+2, -758748.4, -935530.56, 25602.447, 0.06134097, 0.2505632, -755115.2, 40274.76, 0.0, 10.001109, 9.99876 
2.3249686e+3, 2.2883947e+2, -748663.7, -823929.75, 14782.758, 0.07536684, 0.287654, -745864.3, -48462.83, 0.0, 10.000264, 9.999261 
2.3248833e+3, 2.3883885e+2, -781935.7, -792563.1, 5424.3403, 0.09251805, 0.33541772, -779656.06, -180246.47, 0.0, 9.999377, 9.99923 
2.3247977e+3, 2.488378e+2, -742786.6, -652923.56, 2731.7422, 0.06931269, 0.31507474, -652840.6, -151420.92, 0.0, 9.998672, 9.999856 
2.3247117e+3, 2.5883698e+2, -743250.5, -603343.5, 5362.4756, 0.037559714, 0.281961, -603138.3, -199710.94, 0.0, 9.998, 9.999847 
2.3246261e+3, 2.6883695e+2, -710675.7, -461664.44, 1779.2472, 0.03297854, 0.29767877, -461651.72, -156223.58, 0.0, 9.997227, 10.000519 
2.3245408e+3, 2.7883732e+2, -728201.56, -420443.63, 1605.0072, 0.036033638, 0.31984788, -420435.28, -213010.23, 0.0, 9.996439, 10.000509 
2.3244554e+3, 2.8883767e+2, -680708.7, -269867.2, 5077.792, 0.023011139, 0.30729523, -269804.44, -160383.38, 0.0, 9.995761, 10.001197 
2.3243698e+3, 2.9883838e+2, -697497.1, -253695.58, 687.9487, -0.000042124382, 0.2988289, -253694.52, -242281.06, 0.0, 9.995088, 10.000959 
2.3242845e+3, 3.0883932e+2, -747423.25, -208048.88, -5644.334, 0.011990754, 0.32299015, -207989.81, -207989.81, 0.0, 9.994217, 10.001356 
2.3241988e+3, 3.1884038e+2, -709743.1, 81961.164, 28513.86, -0.03428153, 0.3067533, 82986.78, 82986.78, 0.0, 9.993306, 10.003786 
2.3358288e+3, 1.2895076e+2, -909159.4, -1668139.8, -6157.2036, 0.08406054, 0.19307572, -909109.4, 767191.8, 0.05931293, 10.007437, 9.996742 
2.3357424e+3, 1.3894707e+2, -906153.44, -1645659.3, -5894.969, 0.06523001, 0.19080657, -906106.44, 672231.6, 0.042189285, 10.006745, 9.996554 
2.335656e+3, 1.4894353e+2, -872577.44, -1529811.4, -3799.9805, 0.056679077, 0.19987184, -872555.5, 607818.0, 0.024968263, 10.005967, 9.997051 
2.3355699e+3, 1.5894029e+2, -885502.56, -1500656.9, -3538.012, 0.05874497, 0.20901547, -885482.2, 496924.1, 0.011227629, 10.005182, 9.996957 
2.3354839e+3, 1.689374e+2, -841010.7, -1369828.1, 1201.4471, 0.06000854, 0.2354516, -841008.0, 443428.63, 0.0032557477, 10.004525, 9.997499 
2.3353979e+3, 1.789348e+2, -839019.7, -1326663.1, -1287.0117, 0.059514727, 0.26485533, -839016.3, 347447.72, 0.000382689, 10.00389, 9.997429 
2.335312e+3, 1.8893227e+2, -811541.4, -1198373.6, -3720.8926, 0.07275522, 0.27904928, -811505.6, 276985.1, 0.00000197261, 10.003127, 9.998005 
2.3352264e+3, 1.9893003e+2, -819693.3, -1139820.6, -1193.2511, 0.08818642, 0.28775308, -819688.8, 170825.61, 0.0, 10.002347, 9.99811 
2.3351404e+3, 2.089282e+2, -754133.3, -964155.8, 5950.142, 0.07940428, 0.2854034, -753964.9, 138567.42, 0.0, 10.001722, 9.998944 
2.3350544e+3, 2.189267e+2, -759759.5, -940582.06, -671.2194, 0.066264786, 0.28329507, -759757.0, 34789.434, 0.0, 10.001116, 9.998726 
2.3349683e+3, 2.289255e+2, -761312.3, -853063.25, -19138.037, 0.07355859, 0.3164227, -757480.4, -60920.246, 0.0, 10.00027, 9.999061 
2.334882e+3, 2.3892456e+2, -786468.3, -804728.94, -25013.99, 0.08397288, 0.3510703, -768970.44, -170399.03, 0.0, 9.999383, 9.999147 
2.3347959e+3, 2.4892347e+2, -734590.0, -638825.94, -22288.992, 0.07198667, 0.32054982, -633892.4, -133310.97, 0.0, 9.998677, 9.999953 
2.3347095e+3, 2.5892264e+2, -740639.4, -601069.7, -21681.125, 0.053795546, 0.28125116, -597779.25, -195191.05, 0.0, 9.998007, 9.999863 
2.334623e+3, 2.689227e+2, -717169.9, -478494.3, -28823.377, 0.03724693, 0.31451708, -475062.8, -170474.69, 0.0, 9.997234, 10.000403 
2.3345366e+3, 2.7892315e+2, -731696.75, -431463.4, -26964.611, 0.023179261, 0.3541999, -429060.9, -222476.25, 0.0, 9.9964485, 10.000433 
2.3344506e+3, 2.8892308e+2, -679824.56, -272217.06, -20880.33, 0.00921968, 0.3054062, -271150.25, -162565.78, 0.0, 9.995772, 10.001179 
2.3343645e+3, 2.9892346e+2, -691211.2, -245105.42, -29594.496, -0.007561962, 0.26121193, -243150.69, -232570.47, 0.0, 9.9951, 10.001016 
2.3342785e+3, 3.0892554e+2, -731788.4, -181418.33, -40845.992, 0.03943545, 0.38441542, -178403.44, -178403.44, 0.0, 9.994235, 10.001534 
2.3341914e+3, 3.1892592e+2, -735897.44, 21579.04, -4258.9873, -0.04784675, 0.2935267, 21602.984, 21602.984, 0.0, 9.993326, 10.0033655 
2.3458359e+3, 1.2903738e+2, -889077.56, -1658352.4, 24708.31, 0.08874925, 0.20167522, -888284.8, 787168.75, 0.058570113, 10.007585, 9.996739 
2.3457488e+3, 1.3903378e+2, -903667.56, -1642139.5, 17028.854, 0.070373446, 0.21070725, -903275.1, 674214.4, 0.04160261, 10.006757, 9.99657 
2.3456617e+3, 1.4903025e+2, -861618.75, -1519091.9, 22248.74, 0.06399577, 0.21732669, -860866.7, 618658.25, 0.024564415, 10.006026, 9.997093 
2.345575e+3, 1.5902701e+2, -864381.2, -1486563.1, 28472.527, 0.067467235, 0.22224177, -863080.94, 518476.94, 0.011001118, 10.005319, 9.9969845 
2.345488e+3, 1.6902412e+2, -832652.4, -1364053.6, 35175.12, 0.06829593, 0.25075573, -830334.1, 453253.84, 0.0031633766, 10.004582, 9.997508 
2.3454016e+3, 1.7902155e+2, -844063.75, -1326300.1, 31679.275, 0.06711618, 0.28250536, -841991.56, 343623.53, 0.00036345134, 10.003851, 9.997447 
2.3453149e+3, 1.8901895e+2, -798451.0, -1187707.8, 30161.37, 0.07703715, 0.28773722, -796127.8, 291514.47, 0.0000017518076, 10.003205, 9.998036 
2.3452283e+3, 1.9901662e+2, -788377.4, -1124114.8, 33364.945, 0.08904412, 0.28691533, -785093.75, 204572.84, 0.0, 10.002567, 9.998108 
2.3451419e+3, 2.0901486e+2, -750787.5, -968234.0, 32097.623, 0.08385924, 0.29914555, -746148.5, 145535.5, 0.0, 10.001777, 9.998886 
2.3450552e+3, 2.1901348e+2, -784759.25, -956515.94, 15496.058, 0.07501789, 0.31478903, -783372.4, 10325.285, 0.0, 10.000968, 9.998684 
2.3449683e+3, 2.2901213e+2, -756535.5, -851772.6, 4507.231, 0.07590944, 0.3361503, -756322.7, -60610.04, 0.0, 10.000315, 9.999044 
2.3448813e+3, 2.3901099e+2, -744985.56, -784608.56, 9905.942, 0.07835793, 0.35373938, -742647.0, -144921.63, 0.0, 9.999674, 9.999142 
2.3447941e+3, 2.4900992e+2, -710631.5, -625690.0, 8436.508, 0.069713086, 0.326371, -624860.2, -125125.266, 0.0, 9.998842, 9.99996 
2.3447073e+3, 2.5900915e+2, -745474.2, -605040.8, 2911.5398, 0.05769306, 0.2941092, -604980.44, -203239.55, 0.0, 9.997988, 9.999841 
2.3446201e+3, 2.690091e+2, -709929.25, -481587.25, -2206.1726, 0.043533597, 0.32334346, -481565.94, -177824.19, 0.0, 9.99732, 10.000338 
2.3445329e+3, 2.7900943e+2, -703869.1, -421677.7, 1109.7219, 0.029472642, 0.35687453, -421673.34, -215933.8, 0.0, 9.996662, 10.000393 
2.344446e+3, 2.8900933e+2, -685266.8, -274365.5, 5675.8853, 0.007568032, 0.30495432, -274287.13, -166547.13, 0.0, 9.99574, 10.001176 
2.3443592e+3, 2.9900968e+2, -729018.5, -253687.39, -831.65063, -0.014562114, 0.26011226, -253685.94, -243950.05, 0.0, 9.994806, 10.001095 
2.3442727e+3, 3.0901214e+2, -708657.75, -146014.1, -8346.523, 0.06547238, 0.40681645, -145890.3, -145890.3, 0.0, 9.994297, 10.001744 
2.3441845e+3, 3.190122e+2, -711379.6, -23165.953, 18114.838, -0.04969596, 0.27984115, -22689.473, -22689.473, 0.0, 9.993745, 10.002852 
2.3558433e+3, 1.2912473e+2, -897177.2, -1678978.8, -5313.822, 0.10364988, 0.19998619, -897141.1, 777457.56, 0.057720497, 10.0075865, 9.996593 
2.3557551e+3, 1.3912135e+2, -904154.3, -1648863.9, -10625.995, 0.060872767, 0.24450693, -904002.7, 672630.25, 0.04093714, 10.00677, 9.996521 
2.3556675e+3, 1.4911783e+2, -852813.9, -1505232.1, -2932.8875, 0.06639543, 0.24626476, -852800.7, 625867.56, 0.024110788, 10.006038, 9.997186 
2.35558e+3, 1.5911451e+2, -859287.75, -1479674.5, 2008.1443, 0.08760573, 0.23822975, -859281.25, 521420.1, 0.010749366, 10.005327, 9.997031 
2.3554924e+3, 1.6911153e+2, -831921.9, -1366251.4, 7729.053, 0.083514154, 0.25744677, -831810.1, 450922.13, 0.0030619758, 10.004591, 9.997492 
2.3554051e+3, 1.7910889e+2, -841680.1, -1325129.3, 5925.581, 0.07248547, 0.28138283, -841607.5, 343152.63, 0.00034287455, 10.00386, 9.997454 
2.3553176e+3, 1.8910637e+2, -794047.2, -1181863.5, 7150.248, 0.07638916, 0.2921904, -793915.4, 292870.94, 0.000001534202, 10.003213, 9.998076 
2.3552305e+3, 1.9910415e+2, -791315.4, -1133058.5, 7165.265, 0.08448278, 0.30089626, -791165.25, 197644.19, 0.0, 10.002573, 9.998047 
2.3551433e+3, 2.0910235e+2, -764157.06, -999109.7, 1429.4375, 0.08718295, 0.32287258, -764148.4, 126679.85, 0.0, 10.001783, 9.998674 
2.355056e+3, 2.1910085e+2, -788056.6, -966714.4, -12132.079, 0.08745868, 0.34492534, -787236.5, 5607.2813, 0.0, 10.000976, 9.998613 
2.3549682e+3, 2.2909936e+2, -744812.56, -830901.9, -18281.932, 0.08240815, 0.34670776, -741091.1, -46231.934, 0.0, 10.000322, 9.999187 
2.3548806e+3, 2.3909813e+2, -740218.2, -778699.8, -17064.922, 0.075693496, 0.34297717, -733740.9, -136869.02, 0.0, 9.999684, 9.999181 
2.3547925e+3, 2.4909717e+2, -717260.8, -643065.56, -24708.912, 0.061763637, 0.33305728, -635590.06, -136709.61, 0.0, 9.998852, 9.99984 
2.3547046e+3, 2.590965e+2, -750398.4, -618146.1, -26528.053, 0.04766804, 0.32217288, -613023.4, -212137.7, 0.0, 9.997993, 9.999752 
2.3546171e+3, 2.6909614e+2, -710560.3, -486923.28, -26089.268, 0.052680623, 0.3220103, -483920.06, -181030.47, 0.0, 9.997331, 10.000299 
2.3545295e+3, 2.7909607e+2, -702916.75, -424865.5, -28556.582, 0.05892602, 0.3216103, -421962.97, -217072.33, 0.0, 9.996677, 10.000367 
2.3544414e+3, 2.8909633e+2, -685795.75, -277142.97, -32788.62, 0.020560618, 0.30777067, -274528.88, -167641.06, 0.0, 9.99574, 10.00116 
2.3543532e+3, 2.990971e+2, -725518.4, -244321.33, -29444.986, -0.021313235, 0.30518156, -242526.25, -233646.36, 0.0, 9.99479, 10.00117 
2.3542671e+3, 3.0909896e+2, -691182.6, -114372.95, -23242.363, 0.08918992, 0.3739792, -113437.93, -113437.93, 0.0, 9.994309, 10.001959 
2.3541783e+3, 3.1909955e+2, -751646.6, -117452.37, -23184.154, -0.030959506, 0.2962776, -116605.96, -116605.96, 0.0, 9.993784, 10.00219 
2.3658504e+3, 1.2921292e+2, -898831.56, -1674774.4, 20559.959, 0.096346974, 0.21117605, -898287.2, 775447.9, 0.056767404, 10.007552, 9.996635 
2.3657615e+3, 1.3920946e+2, -888202.7, -1635923.4, 24890.15, 0.07458055, 0.24314827, -887375.06, 688395.0, 0.040196415, 10.006865, 9.996561 
2.365673e+3, 1.4920603e+2, -838656.3, -1493499.6, 31971.254, 0.076865934, 0.25135913, -837099.06, 640705.56, 0.023610855, 10.006121, 9.997223 
2.365585e+3, 1.5920281e+2, -851640.0, -1472921.6, 33526.918, 0.090498075, 0.25230896, -849836.0, 530000.9, 0.01047522, 10.005373, 9.997051 
2.3654968e+3, 1.6919978e+2, -822497.25, -1360426.6, 39232.895, 0.08584647, 0.26558325, -819650.94, 462217.3, 0.0029531335, 10.004657, 9.997496 
2.3654087e+3, 1.7919704e+2, -828152.06, -1316214.1, 38362.633, 0.07581054, 0.28183433, -825155.06, 358741.84, 0.00032134887, 10.00395, 9.997468 
2.3653206e+3, 1.891946e+2, -789251.7, -1175816.6, 39389.12, 0.08183956, 0.29997292, -785279.0, 300643.28, 0.0000013212426, 10.003238, 9.998102 
2.3652327e+3, 1.9919248e+2, -799773.4, -1138807.1, 36980.305, 0.09151711, 0.31765395, -795786.6, 192157.89, 0.0, 10.002529, 9.998025 
2.3651448e+3, 2.0919052e+2, -761788.5, -1007524.56, 35428.82, 0.09113658, 0.3336063, -756782.56, 133182.39, 0.0, 10.001848, 9.998582 
2.3650566e+3, 2.1918885e+2, -763572.75, -957986.2, 28812.617, 0.08822099, 0.3478926, -759392.5, 32589.97, 0.0, 10.001164, 9.998578 
2.3649682e+3, 2.2918741e+2, -732020.94, -818416.25, 18469.936, 0.084281564, 0.3521, -728238.0, -34240.76, 0.0, 10.000391, 9.999237 
2.3648798e+3, 2.3918623e+2, -750583.94, -781728.94, 11856.789, 0.07883597, 0.35179493, -746583.9, -150574.84, 0.0, 9.999613, 9.99919 
2.364791e+3, 2.491852e+2, -708062.56, -643691.6, 5014.718, 0.06177374, 0.3418033, -643303.3, -145285.27, 0.0, 9.998943, 9.999787 
2.3647024e+3, 2.5918448e+2, -711645.8, -601097.44, 7862.518, 0.045013342, 0.33001825, -600541.06, -200517.02, 0.0, 9.998274, 9.99973 
2.364614e+3, 2.69184e+2, -695636.06, -476589.0, 12360.867, 0.05878515, 0.3197234, -475893.7, -173864.9, 0.0, 9.997427, 10.0003195 
2.364526e+3, 2.7918383e+2, -721796.06, -433114.9, 10544.527, 0.07474448, 0.31004357, -432730.25, -228699.78, 0.0, 9.9965515, 10.000367 
2.364437e+3, 2.8918433e+2, -687435.7, -281202.94, 955.14124, 0.03040655, 0.32123125, -281200.7, -175174.94, 0.0, 9.99575, 10.001123 
2.3643479e+3, 2.9918525e+2, -696550.25, -226992.56, 8530.26, -0.019901892, 0.33983475, -226837.64, -218821.28, 0.0, 9.994982, 10.001193 
2.364261e+3, 3.0918634e+2, -665892.7, -89197.06, 16311.713, 0.092528276, 0.32274213, -88736.055, -88736.055, 0.0, 9.994434, 10.002068 
2.3641716e+3, 3.191876e+2, -762646.2, -142095.28, -8985.165, -0.018484125, 0.3121656, -141965.2, -141965.2, 0.0, 9.993799, 10.002009 
2.3758574e+3, 1.2930194e+2, -884554.8, -1652823.3, -2154.8142, 0.07410651, 0.22967497, -884548.75, 788314.4, 0.055717453, 10.007572, 9.996787 
2.3757683e+3, 1.3929814e+2, -881488.0, -1625066.3, -224.55203, 0.10576568, 0.215469, -881487.9, 693412.7, 0.03938621, 10.006867, 9.996637 
2.375679e+3, 1.4929487e+2, -838887.4, -1498012.9, 4814.941, 0.09275521, 0.23889655, -838852.25, 638081.75, 0.023069005, 10.006128, 9.997191 
2.3755899e+3, 1.5929188e+2, -850700.25, -1475827.0, 6630.9995, 0.07933266, 0.2649984, -850629.9, 528334.6, 0.010181491, 10.005386, 9.997029 
2.375501e+3, 1.692888e+2, -820854.3, -1361027.4, 13356.383, 0.07777407, 0.27472448, -820524.25, 460472.16, 0.0028382263, 10.004667, 9.997491 
2.3754121e+3, 1.7928597e+2, -827054.0, -1317149.9, 12367.02, 0.07752121, 0.28360313, -826742.1, 356283.56, 0.00029919873, 10.003957, 9.997461 
2.3753235e+3, 1.8928362e+2, -788651.25, -1177675.8, 13167.591, 0.09279635, 0.3107491, -788206.06, 296844.4, 0.0000011181178, 10.003244, 9.99809 
2.3752351e+3, 1.9928157e+2, -799061.8, -1140455.0, 11181.602, 0.109025836, 0.33695987, -798696.0, 188376.2, 0.0, 10.002536, 9.9980135 
2.3751463e+3, 2.0927939e+2, -760783.94, -1008585.7, 10487.72, 0.09528589, 0.33177385, -760340.9, 128753.6, 0.0, 10.001855, 9.998574 
2.3750572e+3, 2.192775e+2, -764415.25, -962876.3, 1856.8235, 0.07743387, 0.3242874, -764397.9, 26716.035, 0.0, 10.001171, 9.998545 
2.3749682e+3, 2.2927622e+2, -735702.2, -829229.44, -11130.038, 0.08171674, 0.35295218, -734395.94, -41268.824, 0.0, 10.000398, 9.999163 
2.3748791e+3, 2.3927528e+2, -752361.7, -788461.9, -15458.342, 0.08807, 0.38135394, -746646.94, -151509.98, 0.0, 9.999619, 9.999145 
2.3747899e+3, 2.4927405e+2, -706653.56, -644548.25, -19208.043, 0.07038314, 0.35207382, -639087.7, -141939.73, 0.0, 9.998953, 9.999781 
2.3747005e+3, 2.5927308e+2, -707449.6, -597313.56, -20297.746, 0.050494485, 0.3150959, -593691.8, -194535.45, 0.0, 9.998288, 9.999752 
2.374611e+3, 2.6927277e+2, -689834.6, -467994.0, -21424.771, 0.06087143, 0.31727594, -465943.8, -164784.5, 0.0, 9.997435, 10.000379 
2.374522e+3, 2.7927282e+2, -721828.56, -434323.16, -21054.93, 0.07392897, 0.32715157, -432789.44, -229630.86, 0.0, 9.99655, 10.000363 
2.3744324e+3, 2.8927332e+2, -692744.5, -294991.47, -28417.584, 0.036760066, 0.3469187, -292971.44, -187817.73, 0.0, 9.995755, 10.00103 
2.3743425e+3, 2.9927415e+2, -699094.5, -238088.77, -16356.13, -0.008307912, 0.3605872, -237509.19, -230363.47, 0.0, 9.995, 10.001112 
2.3742549e+3, 3.092742e+2, -667656.7, -98069.43, -3646.768, 0.067448005, 0.2481049, -98046.08, -98046.08, 0.0, 9.99445, 10.002004 
2.3741654e+3, 3.1927645e+2, -726356.0, -68784.29, -54332.656, -0.0076818513, 0.32845974, -64325.227, -64325.227, 0.0, 9.993801, 10.002516 
2.3858647e+3, 1.2939173e+2, -866310.56, -1645823.9, 37766.664, 0.07793223, 0.22008987, -864485.06, 807497.75, 0.05457856, 10.00771, 9.996767 
2.3857749e+3, 1.3938792e+2, -889223.2, -1631527.4, 32968.477, 0.106399, 0.2092545, -887761.8, 686258.6, 0.03851345, 10.0068245, 9.996611 
2.3856848e+3, 1.4938463e+2, -839181.94, -1501933.0, 38355.633, 0.09478226, 0.23677175, -836969.56, 639084.7, 0.022490142, 10.0061455, 9.997153 
2.385595e+3, 1.5938166e+2, -833750.0, -1465154.3, 38832.453, 0.082750246, 0.26720032, -831370.7, 546714.44, 0.0098708235, 10.005499, 9.997045 
2.3855054e+3, 1.6937862e+2, -804585.3, -1342946.9, 48747.61, 0.08033736, 0.2770544, -800206.94, 479909.4, 0.0027184223, 10.004742, 9.997575 
2.3854157e+3, 1.7937584e+2, -824003.9, -1313018.0, 52472.44, 0.07937671, 0.28502142, -818436.8, 363708.2, 0.00027674294, 10.003974, 9.997478 
2.3853265e+3, 1.8937342e+2, -791906.25, -1186246.0, 50867.223, 0.09595487, 0.31104296, -785450.44, 298720.25, 0.00000093646815, 10.003259, 9.99802 
2.3852374e+3, 1.9937128e+2, -798609.4, -1142695.5, 44649.55, 0.11347673, 0.3369062, -792909.94, 193283.5, 0.0, 10.002557, 9.997985 
2.3851477e+3, 2.0936914e+2, -761252.06, -1005758.75, 44453.94, 0.09831797, 0.33573204, -753420.7, 134794.67, 0.0, 10.001846, 9.998594 
2.3850581e+3, 2.1936727e+2, -769928.25, -965954.6, 36099.76, 0.07818167, 0.331286, -763491.5, 26742.877, 0.0, 10.0011425, 9.998534 
2.3849683e+3, 2.2936589e+2, -726260.6, -830036.1, 23300.23, 0.079019226, 0.3538384, -721269.2, -29020.56, 0.0, 10.000493, 9.999107 
2.3848784e+3, 2.3936482e+2, -723072.7, -776010.25, 19162.686, 0.082942724, 0.37658525, -716864.2, -122604.54, 0.0, 9.999835, 9.999123 
2.3847884e+3, 2.4936363e+2, -694678.56, -636138.94, 15902.704, 0.06994368, 0.35293266, -632097.9, -135827.48, 0.0, 9.999032, 9.999797 
2.3846982e+3, 2.5936273e+2, -717044.3, -598189.2, 14324.616, 0.054823633, 0.32245582, -596487.1, -198208.86, 0.0, 9.998214, 9.999778 
2.3846081e+3, 2.6936242e+2, -677568.1, -457039.47, 9491.681, 0.059140272, 0.32486257, -456631.7, -156350.73, 0.0, 9.997505, 10.000416 
2.3845184e+3, 2.7936253e+2, -684993.6, -414366.6, 7819.251, 0.06672335, 0.33423865, -414140.88, -211860.9, 0.0, 9.9968, 10.000376 
2.384428e+3, 2.89363e+2, -659690.5, -280950.44, 3534.2324, 0.04799705, 0.3544271, -280917.44, -176642.19, 0.0, 9.995998, 10.001005 
2.3843376e+3, 2.9936373e+2, -679671.6, -234537.38, 21599.121, 0.018086383, 0.36633366, -233491.78, -227223.9, 0.0, 9.995166, 10.001053 
2.3842485e+3, 3.0936345e+2, -696318.25, -122699.67, 33623.016, 0.043699965, 0.23252995, -120735.57, -120735.57, 0.0, 9.994307, 10.001899 
2.3841587e+3, 3.1936604e+2, -735976.2, -14490.091, -32399.42, 0.0050457614, 0.34015635, -13038.068, -13038.068, 0.0, 9.993488, 10.003036 
2.395872e+3, 1.2948225e+2, -876529.6, -1669635.9, 4482.584, 0.09869784, 0.19206207, -876504.25, 794590.1, 0.05335776, 10.007706, 9.9966 
2.395781e+3, 1.3947868e+2, -894824.6, -1649423.8, 4608.35, 0.08398923, 0.21913052, -894796.5, 678334.0, 0.03758406, 10.006836, 9.996485 
2.3956904e+3, 1.4947525e+2, -841667.3, -1511708.6, 15608.571, 0.08685561, 0.24184032, -841303.94, 633862.06, 0.021878464, 10.006154, 9.997085 
2.3956001e+3, 1.5947212e+2, -830992.75, -1462024.0, 13256.477, 0.097817175, 0.26103646, -830714.44, 546484.25, 0.009545652, 10.005502, 9.997068 
2.3955098e+3, 1.6946922e+2, -794163.44, -1323702.8, 19810.607, 0.0912964, 0.27410275, -793423.4, 485804.88, 0.0025948647, 10.0047455, 9.997709 
2.3954195e+3, 1.794666e+2, -822253.8, -1312147.1, 24353.123, 0.08113691, 0.28612393, -821046.1, 360209.03, 0.00025431975, 10.003979, 9.997485 
2.3953293e+3, 1.8946396e+2, -800619.94, -1207636.0, 24671.725, 0.092021234, 0.3018605, -799129.9, 284153.28, 0.00000078702317, 10.003266, 9.997872 
2.3952393e+3, 1.9946161e+2, -801813.25, -1152911.9, 18490.7, 0.10598384, 0.31932274, -800842.1, 184466.25, 0.0, 10.002565, 9.997913 
2.3951492e+3, 2.0945974e+2, -758371.0, -1003093.8, 18034.803, 0.10063536, 0.3458772, -757049.06, 130278.73, 0.0, 10.001854, 9.998612 
2.3950589e+3, 2.1945815e+2, -769664.0, -968641.2, 10706.9375, 0.09013099, 0.36835063, -769089.5, 20254.695, 0.0, 10.00115, 9.998515 
2.3949683e+3, 2.2945635e+2, -729019.25, -839258.06, -425.0567, 0.07569663, 0.35381398, -729017.6, -37655.383, 0.0, 10.000502, 9.999043 
2.3948777e+3, 2.394548e+2, -723049.1, -779800.9, -8011.9355, 0.06261225, 0.33560446, -721939.7, -128562.266, 0.0, 9.999845, 9.999095 
2.3947869e+3, 2.4945395e+2, -692309.4, -634478.4, -15543.353, 0.059889268, 0.34458408, -630565.5, -135180.13, 0.0, 9.999039, 9.999808 
2.394696e+3, 2.5945348e+2, -716149.3, -598722.6, -14580.391, 0.057765108, 0.3551895, -596939.4, -199549.63, 0.0, 9.998218, 9.999777 
2.3946053e+3, 2.69453e+2, -677186.0, -459887.38, -16448.383, 0.052808035, 0.3434466, -458649.38, -159255.52, 0.0, 9.997514, 10.000396 
2.3945144e+3, 2.7945286e+2, -681705.2, -413213.0, -20536.277, 0.05195359, 0.32876867, -411651.3, -210256.1, 0.0, 9.996819, 10.000379 
2.3944236e+3, 2.8945324e+2, -654502.3, -276026.13, -27949.729, 0.065603845, 0.33900285, -273973.22, -170582.19, 0.0, 9.9960165, 10.001035 
2.3943327e+3, 2.99454e+2, -681775.06, -243717.84, -10337.161, 0.06346368, 0.3539138, -243474.05, -238090.89, 0.0, 9.995179, 10.000986 
2.3942421e+3, 3.0945438e+2, -710820.25, -151860.05, -494.5078, 0.021713132, 0.29918748, -151859.61, -151859.61, 0.0, 9.994296, 10.001708 
2.3941518e+3, 3.1945607e+2, -704648.44, 54545.05, -57258.445, 0.018101254, 0.3258277, 58839.2, 58839.2, 0.0, 9.9934635, 10.003526 
2.4058793e+3, 1.2957375e+2, -891485.94, -1676029.3, 22401.646, 0.09692887, 0.19710802, -890846.8, 779350.5, 0.052059222, 10.007588, 9.996609 
2.4057876e+3, 1.3957006e+2, -887359.75, -1646260.1, 33103.715, 0.091183074, 0.21320345, -885918.44, 686316.06, 0.036600556, 10.006892, 9.996476 
2.4056964e+3, 1.4956656e+2, -841794.25, -1514598.1, 49447.113, 0.089962915, 0.23292537, -838179.6, 636091.1, 0.021235768, 10.006168, 9.997055 
2.4056052e+3, 1.5956339e+2, -840553.1, -1467204.4, 46586.023, 0.09603563, 0.25169876, -837108.8, 539195.2, 0.009207455, 10.005443, 9.997058 
2.4055141e+3, 1.6956055e+2, -800599.3, -1324704.8, 44576.496, 0.09171859, 0.2715975, -796835.0, 481498.22, 0.0024684712, 10.004698, 9.997722 
2.405423e+3, 1.7955798e+2, -823712.56, -1309956.5, 43641.285, 0.084136374, 0.29079044, -819826.7, 360532.94, 0.0002322214, 10.003963, 9.997504 
2.4053323e+3, 1.8955536e+2, -793915.56, -1200731.6, 53800.19, 0.09187762, 0.30648112, -786920.9, 295466.56, 0.00000067454846, 10.0033045, 9.997898 
2.4052414e+3, 1.99553e+2, -791904.56, -1150566.0, 55356.043, 0.10189327, 0.322056, -783555.25, 200857.56, 0.0, 10.002651, 9.997885 
2.4051507e+3, 2.09551e+2, -757004.9, -1012188.7, 47486.004, 0.09618006, 0.34636042, -748454.9, 137978.52, 0.0, 10.001913, 9.998518 
2.4050596e+3, 2.1954931e+2, -769481.44, -969324.9, 33616.38, 0.08650506, 0.3676903, -763978.25, 24472.621, 0.0, 10.001162, 9.998501 
2.4049683e+3, 2.2954755e+2, -733820.1, -832110.1, 30506.4, 0.072994195, 0.3528644, -725121.6, -34653.313, 0.0, 10.000436, 9.99912 
2.404877e+3, 2.3954605e+2, -738962.0, -784463.9, 30321.594, 0.05996425, 0.33345604, -723805.1, -131322.11, 0.0, 9.99973, 9.999114 
2.4047855e+3, 2.4954517e+2, -684815.1, -636061.6, 18208.482, 0.055204, 0.34344995, -630011.8, -135520.17, 0.0, 9.999121, 9.999754 
2.4046938e+3, 2.5954464e+2, -676964.2, -580274.5, 13259.886, 0.05168744, 0.35760295, -578489.0, -181992.38, 0.0, 9.998496, 9.999764 
2.4046023e+3, 2.6954427e+2, -654452.06, -444392.7, 11926.544, 0.048373178, 0.35468036, -443717.72, -145217.83, 0.0, 9.997658, 10.000428 
2.404511e+3, 2.7954417e+2, -683449.75, -410595.25, 10789.204, 0.05041323, 0.34486786, -410169.3, -209668.73, 0.0, 9.996799, 10.0004015 
2.4044195e+3, 2.8954434e+2, -643794.9, -269137.4, 1591.6531, 0.0754624, 0.3311839, -269130.66, -166632.17, 0.0, 9.99609, 10.001042 
2.4043278e+3, 2.9954496e+2, -655385.44, -228835.83, 14600.223, 0.08113833, 0.3295007, -228336.66, -223844.66, 0.0, 9.995358, 10.000998 
2.4042359e+3, 3.0954605e+2, -708791.44, -149134.69, 31557.877, 0.0055270554, 0.3486973, -147360.83, -147360.83, 0.0, 9.99431, 10.001716 
2.404145e+3, 3.195471e+2, -710660.56, 60826.918, -2241.0095, 0.035882603, 0.3076761, 60833.426, 60833.426, 0.0, 9.99339, 10.0036 
2.4158862e+3, 1.296661e+2, -879719.3, -1659680.3, -2270.3179, 0.08047603, 0.22415733, -879712.7, 789579.6, 0.050684575, 10.007608, 9.996718 
2.4157941e+3, 1.3966206e+2, -881588.06, -1638824.8, 6893.294, 0.12024673, 0.19534133, -881525.3, 689807.0, 0.035563286, 10.0069, 9.996528 
2.4157022e+3, 1.4965856e+2, -841501.7, -1518105.4, 22525.898, 0.100545935, 0.21372871, -840752.56, 632615.94, 0.020562379, 10.006175, 9.997031 
2.4156101e+3, 1.596554e+2, -843157.8, -1476621.1, 19246.416, 0.08067965, 0.23985183, -842573.6, 532827.75, 0.00885702, 10.005451, 9.996992 
2.4155183e+3, 1.6965257e+2, -806251.56, -1340967.0, 17014.563, 0.083739415, 0.26947665, -805710.7, 471720.53, 0.0023399729, 10.00471, 9.997607 
2.4154265e+3, 1.7965002e+2, -820446.5, -1308061.6, 17934.484, 0.08812723, 0.2987453, -819787.75, 359670.44, 0.0002107057, 10.003978, 9.997514 
2.4153352e+3, 1.8964761e+2, -781405.6, -1178531.5, 29856.695, 0.095009156, 0.32351583, -779173.5, 302310.22, 0.0000005952588, 10.003314, 9.99805 
2.4152437e+3, 1.9964539e+2, -792254.0, -1154124.9, 29120.725, 0.10076434, 0.34308928, -789925.56, 193581.58, 0.0, 10.002657, 9.997861 
2.4151519e+3, 2.0964293e+2, -771723.1, -1045704.94, 19345.623, 0.08498349, 0.3368728, -770363.9, 115168.586, 0.0, 10.001919, 9.998288 
2.4150601e+3, 2.1964076e+2, -770188.0, -973983.5, 6075.183, 0.06768092, 0.33009315, -770007.06, 17547.533, 0.0, 10.001169, 9.998469 
2.4149683e+3, 2.2963952e+2, -718947.3, -804419.94, 3696.563, 0.07144054, 0.35219368, -718787.7, -29220.691, 0.0, 10.0004425, 9.9993105 
2.4148765e+3, 2.3963855e+2, -735322.7, -779884.75, 5679.17, 0.075766735, 0.37228808, -734610.3, -143034.06, 0.0, 9.999736, 9.999146 
2.4147841e+3, 2.4963722e+2, -693786.4, -658481.6, -3967.5452, 0.05576635, 0.3488555, -658041.25, -164451.81, 0.0, 9.99913, 9.9995985 
2.4146919e+3, 2.596362e+2, -677836.56, -587068.8, -14290.346, 0.035372537, 0.32560733, -584872.1, -189272.45, 0.0, 9.998511, 9.999715 
2.4145997e+3, 2.6963624e+2, -648089.3, -435015.97, -21899.268, 0.046609502, 0.35844713, -432788.5, -135189.2, 0.0, 9.997667, 10.000492 
2.4145073e+3, 2.796366e+2, -681708.4, -409226.28, -19172.092, 0.06460427, 0.3872567, -407883.94, -208288.13, 0.0, 9.996802, 10.000413 
2.414415e+3, 2.8963628e+2, -645623.2, -276612.38, -24403.465, 0.07453623, 0.33220467, -275005.53, -173407.81, 0.0, 9.9960985, 10.00099 
2.4143225e+3, 2.9963645e+2, -646709.2, -215898.42, -18971.21, 0.06291714, 0.2890241, -215064.63, -211469.55, 0.0, 9.995374, 10.001083 
2.4142298e+3, 3.0963844e+2, -691244.44, -114276.02, -10769.336, -0.0010652895, 0.374075, -114075.086, -114075.086, 0.0, 9.994309, 10.001959 
2.4141382e+3, 3.1963915e+2, -751756.7, -25862.057, -10087.0625, 0.050461102, 0.2984197, -25721.914, -25721.914, 0.0, 9.993389, 10.00301 
2.4258938e+3, 1.2975888e+2, -866398.9, -1658645.5, 22717.658, 0.09011691, 0.21735655, -865748.0, 802634.75, 0.04923638, 10.007725, 9.996665 
2.4258007e+3, 1.3975482e+2, -881805.9, -1637615.0, 25289.832, 0.110519566, 0.1919363, -880960.56, 689462.4, 0.034473985, 10.006892, 9.996535 
2.4257077e+3, 1.4975132e+2, -837650.06, -1507795.0, 45148.883, 0.09399793, 0.2085259, -834621.94, 637836.75, 0.019859418, 10.006168, 9.997102 
2.425615e+3, 1.5974821e+2, -838217.5, -1470355.6, 47207.086, 0.079641774, 0.23251802, -834711.56, 539779.56, 0.008495182, 10.005474, 9.997021 
2.4255225e+3, 1.6974537e+2, -793520.8, -1336708.3, 50748.934, 0.07990142, 0.263736, -788820.1, 487701.22, 0.0022100052, 10.004812, 9.997583 
2.4254301e+3, 1.7974281e+2, -798088.56, -1299691.0, 54385.97, 0.080801375, 0.2958123, -792259.5, 386289.25, 0.00018999948, 10.0041485, 9.997485 
2.4253379e+3, 1.897404e+2, -772766.25, -1176857.4, 55173.07, 0.08752375, 0.32515034, -765368.56, 315205.84, 0.00000053401743, 10.003391, 9.99802 
2.4252458e+3, 1.9973819e+2, -796287.3, -1153875.9, 44024.754, 0.09346697, 0.34806648, -790946.94, 191651.03, 0.0, 10.002627, 9.997873 
2.4251533e+3, 2.0973569e+2, -768957.4, -1037775.0, 48670.656, 0.07747578, 0.33454636, -760416.6, 124206.734, 0.0, 10.001917, 9.99834 
2.4250607e+3, 2.1973348e+2, -763540.6, -968432.44, 50266.555, 0.06020503, 0.31983823, -751873.0, 34772.74, 0.0, 10.001212, 9.998483 
2.4249683e+3, 2.2973223e+2, -718927.7, -807141.44, 35164.75, 0.066473685, 0.34757492, -706625.56, -17967.373, 0.0, 10.000462, 9.999278 
2.4248758e+3, 2.3973133e+2, -739227.4, -780183.2, 24591.148, 0.07401062, 0.3757483, -727704.2, -137036.97, 0.0, 9.99971, 9.999153 
2.4247827e+3, 2.4973002e+2, -711596.8, -661339.6, 26789.586, 0.056515988, 0.3525075, -649737.75, -157057.48, 0.0, 9.998991, 9.999642 
2.42469e+3, 2.59729e+2, -708327.9, -596292.6, 26495.734, 0.038027015, 0.32696623, -590342.56, -195652.0, 0.0, 9.998286, 9.999756 
2.424597e+3, 2.6972905e+2, -652243.06, -432382.63, 15207.528, 0.05077052, 0.35800523, -431335.72, -134645.61, 0.0, 9.997627, 10.000525 
2.4245039e+3, 2.797294e+2, -657322.3, -393667.56, 16619.95, 0.06892371, 0.38658437, -392624.03, -193937.61, 0.0, 9.996961, 10.00044 
2.4244106e+3, 2.8972912e+2, -625840.06, -264647.03, 15729.269, 0.06733925, 0.33316028, -263963.38, -163275.36, 0.0, 9.996231, 10.001004 
2.4243174e+3, 2.997293e+2, -627798.7, -198304.42, 18493.473, 0.04624591, 0.28915334, -197509.6, -194824.42, 0.0, 9.995475, 10.001152 
2.4242239e+3, 3.0973127e+2, -636916.06, -73128.055, 11285.547, 0.006795371, 0.3643325, -72902.24, -72902.24, 0.0, 9.994625, 10.002086 
2.4241313e+3, 3.1973207e+2, -718391.56, -60650.91, 33414.63, 0.053225864, 0.29733676, -58957.734, -58957.734, 0.0, 9.993844, 10.002547 
2.4359012e+3, 1.2985216e+2, -876077.4, -1685732.6, -8125.801, 0.11625079, 0.18777548, -875995.8, 791472.06, 0.04772289, 10.007733, 9.996476 
2.4358067e+3, 1.398483e+2, -879848.44, -1642542.5, -2019.3014, 0.07172105, 0.19953659, -879843.06, 689663.5, 0.033339053, 10.006917, 9.996493 
2.4357134e+3, 1.498449e+2, -825972.94, -1489798.9, 19743.281, 0.07514455, 0.2137964, -825386.25, 646155.4, 0.019130724, 10.0061865, 9.99722 
2.4356204e+3, 1.5984179e+2, -830779.06, -1459014.4, 21452.16, 0.0899238, 0.22888453, -830047.4, 543526.2, 0.0081236875, 10.005484, 9.997097 
2.4355268e+3, 1.6983895e+2, -790204.4, -1333034.8, 26019.111, 0.07896135, 0.25495726, -788960.06, 486643.7, 0.0020792962, 10.004819, 9.997609 
2.4354336e+3, 1.7983633e+2, -803345.06, -1313253.3, 27504.594, 0.06379014, 0.28334567, -801865.75, 375765.84, 0.00017027475, 10.004153, 9.997394 
2.4353409e+3, 1.8983375e+2, -786604.1, -1208450.8, 26401.234, 0.070773944, 0.31312624, -784958.2, 294701.38, 0.0000004720076, 10.003397, 9.997804 
2.4352477e+3, 1.998314e+2, -792791.44, -1149768.5, 16796.146, 0.08055617, 0.3387143, -792002.94, 189682.02, 0.0, 10.002634, 9.997902 
2.4351548e+3, 2.0982926e+2, -747404.2, -995802.0, 22769.67, 0.073652826, 0.3396416, -745334.25, 138371.98, 0.0, 10.001923, 9.998629 
2.4350618e+3, 2.1982738e+2, -761118.5, -966174.4, 23021.432, 0.06364651, 0.33625656, -758565.7, 27159.0, 0.0, 10.001217, 9.998499 
2.4349682e+3, 2.2982568e+2, -737617.1, -849059.44, 6826.076, 0.057482317, 0.3378956, -737200.56, -49458.363, 0.0, 10.000469, 9.998991 
2.4348748e+3, 2.398243e+2, -740384.25, -785678.0, -3216.571, 0.053860728, 0.34202284, -740156.94, -150400.52, 0.0, 9.999717, 9.999116 
2.4347815e+3, 2.4982353e+2, -694519.25, -628264.3, -284.98642, 0.058143806, 0.3555765, -628263.06, -136498.84, 0.0, 9.998995, 9.999871 
2.434688e+3, 2.5982305e+2, -700535.3, -581421.44, 872.55005, 0.061998583, 0.3658595, -581415.06, -187646.19, 0.0, 9.998284, 9.999862 
2.4345942e+3, 2.6982266e+2, -653538.44, -437614.22, -9129.356, 0.061184723, 0.35092446, -437228.9, -141456.33, 0.0, 9.997631, 10.000491 
2.4345003e+3, 2.7982253e+2, -653850.5, -391064.3, -9441.013, 0.06101579, 0.33379006, -390725.56, -192952.23, 0.0, 9.996974, 10.000455 
2.4344064e+3, 2.8982288e+2, -619200.75, -255082.97, -12365.508, 0.052527886, 0.33613828, -254663.52, -154894.48, 0.0, 9.996243, 10.001068 
2.4343123e+3, 2.9982358e+2, -625639.2, -197399.84, -10971.381, 0.032050945, 0.3414954, -197118.94, -195357.88, 0.0, 9.995482, 10.001158 
2.4342182e+3, 3.0982438e+2, -637076.4, -81381.69, -21163.168, 0.03435674, 0.30350026, -80576.87, -80576.87, 0.0, 9.994652, 10.00202 
2.4341245e+3, 3.1982598e+2, -730666.25, -98427.266, 15463.391, 0.033913586, 0.33302155, -98049.28, -98049.28, 0.0, 9.99389, 10.00227 
2.4459085e+3, 1.2994637e+2, -868565.8, -1670926.6, 15736.515, 0.11697102, 0.18252806, -868257.3, 798287.1, 0.04615627, 10.007735, 9.996573 
2.4458133e+3, 1.3994257e+2, -852850.7, -1625722.1, 33994.758, 0.058622938, 0.19221786, -851358.3, 717224.1, 0.03216764, 10.007093, 9.99652 
2.445719e+3, 1.4993913e+2, -812377.8, -1487621.8, 48172.652, 0.064599134, 0.20966496, -808958.44, 661659.25, 0.01838183, 10.006304, 9.997175 
2.4456252e+3, 1.5993603e+2, -827894.06, -1457972.6, 41822.16, 0.0846945, 0.2283103, -825130.25, 547519.7, 0.0077450187, 10.00551, 9.9970875 
2.4455312e+3, 1.6993318e+2, -791593.9, -1330435.0, 45797.05, 0.075539395, 0.2554476, -787729.25, 486950.8, 0.0019486508, 10.004803, 9.997631 
2.4454373e+3, 1.7993058e+2, -808872.75, -1312926.5, 46585.445, 0.060348164, 0.2836419, -804603.44, 372104.44, 0.00015162086, 10.004109, 9.997413 
2.4453434e+3, 1.8992797e+2, -786354.4, -1206127.3, 56828.414, 0.061651513, 0.31018597, -778797.06, 299939.13, 0.00000040151969, 10.003396, 9.997816 
2.44525e+3, 1.9992559e+2, -786613.0, -1143012.5, 57345.797, 0.06702634, 0.33363593, -777613.2, 203148.61, 0.0, 10.002667, 9.997929 
2.4451563e+3, 2.0992355e+2, -756979.3, -994975.2, 48400.48, 0.068877526, 0.3419854, -747512.8, 135269.42, 0.0, 10.001841, 9.99867 
2.4450622e+3, 2.1992177e+2, -787369.6, -974069.56, 35708.137, 0.06789916, 0.34573385, -780773.2, 4026.672, 0.0, 10.001024, 9.998534 
2.4449682e+3, 2.2992e+2, -751604.75, -853042.9, 37697.33, 0.057895172, 0.3397061, -739129.56, -52311.613, 0.0, 10.000368, 9.999008 
2.444874e+3, 2.3991854e+2, -735971.6, -777821.5, 44949.89, 0.04910589, 0.33545354, -707314.9, -118481.945, 0.0, 9.99973, 9.999159 
2.44478e+3, 2.4991791e+2, -685764.3, -615516.8, 38426.563, 0.055434886, 0.35697716, -598580.25, -107740.67, 0.0, 9.999025, 9.99994 
2.4446858e+3, 2.5991756e+2, -692102.5, -568865.56, 29632.605, 0.06283796, 0.37587523, -562110.56, -169267.72, 0.0, 9.998314, 9.99993 
2.4445914e+3, 2.6991707e+2, -650600.3, -428965.44, 24334.627, 0.06256289, 0.34880298, -426325.06, -131478.0, 0.0, 9.997627, 10.000548 
2.4444969e+3, 2.799169e+2, -653092.6, -380731.3, 28683.924, 0.060904205, 0.31950188, -377743.22, -180894.95, 0.0, 9.996943, 10.000536 
2.4444021e+3, 2.899175e+2, -611083.25, -238945.95, 26758.623, 0.045486927, 0.34067667, -237031.72, -138190.5, 0.0, 9.996253, 10.00117 
2.4443074e+3, 2.9991838e+2, -619143.56, -198995.67, 27247.344, 0.023037815, 0.3601395, -197236.02, -196404.64, 0.0, 9.995555, 10.001108 
2.4442129e+3, 3.0991843e+2, -622683.3, -97067.695, 4485.74, 0.061877485, 0.26303256, -97029.414, -97029.414, 0.0, 9.994856, 10.00181 
2.444118e+3, 3.1992057e+2, -700564.6, -67837.56, 40523.375, 0.022212178, 0.35758603, -65252.78, -65252.78, 0.0, 9.994035, 10.002406 
2.4559158e+3, 1.3004142e+2, -845832.94, -1631948.8, -6356.0015, 0.100628294, 0.19369216, -845781.56, 819831.3, 0.044545956, 10.007753, 9.996846 
2.4558198e+3, 1.4003755e+2, -845527.75, -1618513.0, 6604.77, 0.0645736, 0.17385787, -845471.4, 722179.3, 0.030967006, 10.007114, 9.996563 
2.4557249e+3, 1.5003406e+2, -821912.5, -1514902.9, 17749.965, 0.059684314, 0.19869997, -821458.1, 648228.75, 0.017617654, 10.006323, 9.996982 
2.4556302e+3, 1.600309e+2, -831479.5, -1471545.1, 14047.01, 0.06710543, 0.23012988, -831171.4, 540548.75, 0.0073617487, 10.0055275, 9.99699 
2.4555357e+3, 1.7002809e+2, -789795.25, -1331042.8, 20338.383, 0.0704413, 0.26358053, -789032.06, 484718.13, 0.0018189007, 10.004813, 9.997625 
2.4554412e+3, 1.8002556e+2, -801115.8, -1299791.4, 20447.424, 0.06824619, 0.29494745, -800278.75, 375498.84, 0.00013406799, 10.004116, 9.997503 
2.4553464e+3, 1.9002302e+2, -772289.44, -1179252.1, 30121.55, 0.058882855, 0.31518212, -770072.0, 307732.4, 0.00000032533248, 10.0034, 9.998003 
2.455252e+3, 2.0002073e+2, -786662.1, -1145251.6, 27968.314, 0.05285396, 0.33224443, -784493.9, 195335.03, 0.0, 10.00267, 9.997915 
2.4551575e+3, 2.1001855e+2, -771306.9, -1027461.8, 16949.236, 0.063223876, 0.34152138, -770190.25, 111661.48, 0.0, 10.001845, 9.998447 
2.455063e+3, 2.2001663e+2, -783043.94, -968305.94, 8311.615, 0.07299756, 0.34857562, -782671.8, 1199.5483, 0.0, 10.001032, 9.998573 
2.4549682e+3, 2.3001522e+2, -729234.5, -809900.0, 14471.092, 0.06804723, 0.353723, -726717.0, -40831.484, 0.0, 10.000376, 9.999304 
2.4548735e+3, 2.4001409e+2, -728481.2, -765490.3, 20055.117, 0.06018199, 0.35716236, -719697.9, -131801.25, 0.0, 9.999737, 9.999244 
2.4547783e+3, 2.500131e+2, -693867.25, -635489.06, 11541.862, 0.047195796, 0.35541973, -633290.0, -143383.4, 0.0, 9.999032, 9.999803 
2.4546833e+3, 2.6001248e+2, -690443.06, -568558.5, 2977.139, 0.037383057, 0.35341656, -568485.8, -176572.6, 0.0, 9.998321, 9.999932 
2.4545884e+3, 2.7001235e+2, -640006.5, -409746.4, -1761.503, 0.05392797, 0.35402316, -409732.94, -115819.42, 0.0, 9.997633, 10.000682 
2.4544933e+3, 2.8001258e+2, -643269.2, -362501.8, 2924.4712, 0.07052931, 0.35182014, -362471.34, -166560.8, 0.0, 9.996945, 10.000664 
2.454398e+3, 2.9001305e+2, -601908.3, -222272.05, 768.07855, 0.048170984, 0.34530824, -222270.5, -124365.91, 0.0, 9.996257, 10.0012865 
2.4543023e+3, 3.0001366e+2, -628934.7, -222541.42, 1430.0828, 0.020297138, 0.3353634, -222536.39, -222536.39, 0.0, 9.995562, 10.000946 
2.4542075e+3, 3.100135e+2, -650375.9, -160467.11, -22521.598, 0.088441685, 0.25346804, -159433.95, -159433.95, 0.0, 9.994874, 10.001369 
2.4541116e+3, 3.200155e+2, -648371.94, 37109.313, -6116.0654, 0.026381586, 0.3506545, 37163.88, 37163.88, 0.0, 9.994041, 10.003127 
2.4659228e+3, 1.3013704e+2, -841158.06, -1637828.4, 24863.678, 0.0929676, 0.18647519, -840382.8, 824293.06, 0.04289352, 10.007817, 9.996769 
2.4658264e+3, 1.4013325e+2, -828317.1, -1611280.8, 17251.195, 0.05394606, 0.18181132, -827937.25, 738775.94, 0.029738905, 10.00724, 9.996548 
2.4657308e+3, 1.5012972e+2, -799093.44, -1498957.6, 33258.78, 0.05043315, 0.20255397, -797516.44, 671233.1, 0.016840035, 10.006465, 9.997019 
2.4656352e+3, 1.6012652e+2, -810557.06, -1458702.6, 42269.473, 0.059028704, 0.22847566, -807812.06, 562971.06, 0.0069752857, 10.005667, 9.997007 
2.4655397e+3, 1.7012373e+2, -781161.94, -1326653.4, 50877.35, 0.06241922, 0.2633975, -776457.25, 496355.9, 0.0016905708, 10.004879, 9.99762 
2.4654447e+3, 1.801212e+2, -800984.4, -1293907.8, 49072.72, 0.060676992, 0.29687902, -796146.44, 378694.1, 0.00011760008, 10.004099, 9.997548 
2.4653494e+3, 1.9011873e+2, -777846.6, -1170884.0, 52097.203, 0.05267537, 0.3160955, -771058.4, 305808.28, 0.00000024971717, 10.003322, 9.998094 
2.4652542e+3, 2.0011649e+2, -800599.94, -1146478.0, 44479.137, 0.047551736, 0.33220312, -794971.6, 183918.92, 0.0, 10.002559, 9.997956 
2.465159e+3, 2.1011432e+2, -771995.25, -1028806.0, 44317.49, 0.057047777, 0.345315, -764562.56, 116350.914, 0.0, 10.001853, 9.998431 
2.4650635e+3, 2.2011244e+2, -763222.06, -951419.7, 46709.215, 0.06692721, 0.35619795, -752266.94, 30666.352, 0.0, 10.001143, 9.9986315 
2.4649683e+3, 2.3011109e+2, -725742.94, -793331.4, 43243.9, 0.068035886, 0.36064115, -704654.7, -19708.387, 0.0, 10.000343, 9.99943 
2.4648726e+3, 2.4011005e+2, -749716.94, -766809.9, 39387.074, 0.06542176, 0.3631452, -717959.75, -131003.49, 0.0, 9.99956, 9.999316 
2.4647768e+3, 2.501091e+2, -706905.6, -639851.4, 39643.99, 0.047704168, 0.36054707, -621458.25, -132492.03, 0.0, 9.998942, 9.999813 
2.4646811e+3, 2.6010847e+2, -686573.5, -560022.9, 38229.996, 0.03253267, 0.35710236, -549370.5, -158397.56, 0.0, 9.998325, 9.999985 
2.4645858e+3, 2.7010843e+2, -640874.4, -399812.2, 29235.36, 0.051326428, 0.35838658, -396317.28, -103345.016, 0.0, 9.997589, 10.000767 
2.46449e+3, 2.801087e+2, -650727.2, -355276.0, 30873.229, 0.07131407, 0.3556006, -352084.38, -157116.13, 0.0, 9.996856, 10.000753 
2.4643938e+3, 2.9010907e+2, -598022.25, -209818.89, 26200.012, 0.0491861, 0.33223358, -208058.63, -111095.5, 0.0, 9.996244, 10.001374 
2.4642976e+3, 3.0010965e+2, -622810.6, -223551.4, 25636.777, 0.0223263, 0.31379926, -221911.98, -221911.98, 0.0, 9.995628, 10.000904 
2.4642022e+3, 3.1010988e+2, -656151.5, -180949.23, 18788.998, 0.10145484, 0.28973967, -180207.5, -180207.5, 0.0, 9.994918, 10.0012045 
2.4641052e+3, 3.2011133e+2, -627617.3, 86807.2, 19262.744, 0.034050554, 0.33238012, 87326.195, 87326.195, 0.0, 9.99402, 10.003475 
2.4759302e+3, 1.3023324e+2, -858585.7, -1685606.5, 4045.9744, 0.09075994, 0.1674788, -858565.9, 805167.06, 0.041194983, 10.007845, 9.996423 
2.475833e+3, 1.4022963e+2, -831763.94, -1621937.3, -6784.8857, 0.030804183, 0.20940223, -831705.7, 734063.9, 0.02848105, 10.007238, 9.99648 
2.4757366e+3, 1.502261e+2, -784950.3, -1472140.5, 4003.8237, 0.038126785, 0.21734186, -784927.0, 682878.6, 0.0160482, 10.006466, 9.997206 
2.4756403e+3, 1.6022289e+2, -803365.7, -1447421.0, 12257.548, 0.058372572, 0.22408596, -803132.44, 566706.44, 0.0065856683, 10.005674, 9.997085 
2.4755442e+3, 1.7022006e+2, -781572.1, -1331126.9, 21316.123, 0.05163117, 0.25650775, -780746.5, 491122.6, 0.0015637362, 10.004888, 9.997588 
2.475448e+3, 1.8021752e+2, -800929.8, -1297168.6, 19728.938, 0.04008981, 0.2908062, -800146.7, 373749.94, 0.00010218418, 10.0041065, 9.997525 
2.475352e+3, 1.9021505e+2, -778059.5, -1173804.6, 23268.855, 0.04382388, 0.31346026, -776696.06, 299226.88, 0.00000017954461, 10.003325, 9.9980755 
2.4752563e+3, 2.0021287e+2, -794784.56, -1136557.9, 17147.488, 0.050173704, 0.33357197, -793926.44, 184020.25, 0.0, 10.002561, 9.998027 
2.4751602e+3, 2.1021087e+2, -760414.56, -1007415.8, 18525.754, 0.049982343, 0.35325336, -759032.8, 120934.87, 0.0, 10.001858, 9.998579 
2.4750642e+3, 2.2020917e+2, -759293.25, -946085.56, 18514.203, 0.049762566, 0.36829633, -757475.9, 24509.906, 0.0, 10.001149, 9.998669 
2.474968e+3, 2.3020765e+2, -729858.9, -804737.06, 12833.502, 0.057764, 0.3599602, -727720.44, -43719.75, 0.0, 10.000349, 9.9993515 
2.4748719e+3, 2.4020647e+2, -745833.8, -761387.9, 13085.182, 0.06477192, 0.35285848, -738389.0, -152376.81, 0.0, 9.999565, 9.999354 
2.4747756e+3, 2.5020587e+2, -695779.2, -619560.8, 17229.896, 0.058237374, 0.37382483, -615846.8, -127828.24, 0.0, 9.998947, 9.999953 
2.4746792e+3, 2.6020554e+2, -680177.3, -549650.2, 12568.456, 0.050871115, 0.39014596, -548450.94, -158429.03, 0.0, 9.998331, 10.000057 
2.4745828e+3, 2.7020523e+2, -640351.8, -400741.66, 281.481, 0.05513804, 0.36060533, -400741.3, -108717.8, 0.0, 9.997591, 10.000763 
2.4744861e+3, 2.8020513e+2, -649559.5, -354158.94, 5253.3506, 0.061052606, 0.3244413, -354065.53, -160043.2, 0.0, 9.996854, 10.000765 
2.4743897e+3, 2.902055e+2, -595859.25, -207567.02, 3044.8633, 0.04835926, 0.29735413, -207543.14, -111525.445, 0.0, 9.996247, 10.001391 
2.4742927e+3, 3.0020633e+2, -614778.9, -209992.63, -294.92563, 0.030320803, 0.29731283, -209992.4, -209992.4, 0.0, 9.995635, 10.000998 
2.4741966e+3, 3.1020784e+2, -643228.5, -156465.48, -8234.481, 0.095030256, 0.3897959, -156326.22, -156326.22, 0.0, 9.994921, 10.001375 
2.474099e+3, 3.2020795e+2, -648138.2, 45249.703, -33414.12, 0.052309155, 0.29116967, 46856.195, 46856.195, 0.0, 9.994009, 10.0032 
2.4859375e+3, 1.303303e+2, -832171.56, -1660034.8, 17509.959, 0.07965902, 0.18116604, -831801.4, 830981.25, 0.03944684, 10.007974, 9.996533 
2.4858396e+3, 1.4032666e+2, -848555.56, -1623796.4, 27263.848, 0.015149448, 0.21281609, -847597.94, 717221.1, 0.02719115, 10.007091, 9.996534 
2.4857424e+3, 1.5032318e+2, -798467.25, -1477461.6, 31571.691, 0.03299741, 0.22401576, -797002.4, 669852.5, 0.015241009, 10.006368, 9.997213 
2.4856457e+3, 1.6032e+2, -803018.1, -1443953.0, 29387.793, 0.06244074, 0.23425664, -801673.5, 567214.44, 0.00619244, 10.005668, 9.9971075 
2.4855486e+3, 1.7031714e+2, -776547.6, -1324626.9, 39348.39, 0.04735945, 0.26288962, -773737.06, 497181.2, 0.0014382165, 10.004911, 9.997618 
2.4854517e+3, 1.8031457e+2, -793180.2, -1286310.6, 39719.46, 0.027506802, 0.29336542, -790001.44, 382944.44, 0.00008779794, 10.004137, 9.9975815 
2.485355e+3, 1.903122e+2, -781277.75, -1166308.0, 47338.055, 0.036322787, 0.31857103, -775543.1, 299428.16, 0.000000118594194, 10.003272, 9.998149 
2.4852583e+3, 2.003101e+2, -808631.3, -1133203.1, 48095.246, 0.048397366, 0.34128353, -801654.5, 175339.63, 0.0, 10.00243, 9.998109 
2.4851616e+3, 2.1030816e+2, -769188.25, -1001085.5, 48216.023, 0.04574284, 0.3581814, -759562.75, 119452.08, 0.0, 10.00176, 9.998666 
2.4850647e+3, 2.203065e+2, -762378.6, -939613.7, 42050.67, 0.042951513, 0.37145305, -752907.8, 28124.72, 0.0, 10.0011015, 9.998733 
2.4849677e+3, 2.3030508e+2, -726418.6, -799011.5, 39955.35, 0.055302244, 0.36984575, -708734.9, -25688.307, 0.0, 10.000362, 9.999381 
2.4848709e+3, 2.4030395e+2, -735571.1, -750307.94, 47872.617, 0.067075714, 0.36724156, -694503.2, -109445.67, 0.0, 9.999617, 9.999402 
2.4847741e+3, 2.503033e+2, -699815.9, -614032.56, 48495.258, 0.062279943, 0.37700438, -592182.56, -105118.414, 0.0, 9.998895, 10.000012 
2.4846773e+3, 2.6030293e+2, -695241.1, -547917.2, 37968.094, 0.055804346, 0.383141, -538707.8, -149640.14, 0.0, 9.998197, 10.00013 
2.4845798e+3, 2.7030268e+2, -634739.56, -389352.9, 28802.5, 0.055524174, 0.3552986, -386017.53, -94949.27, 0.0, 9.9976, 10.0008335 
2.4844827e+3, 2.8030264e+2, -629866.06, -342591.6, 37339.926, 0.057309456, 0.32018167, -337817.5, -144751.02, 0.0, 9.996987, 10.000776 
2.4843852e+3, 2.9030287e+2, -598910.56, -213363.3, 29976.984, 0.05040165, 0.28684533, -211046.45, -115983.41, 0.0, 9.996252, 10.001346 
2.4842878e+3, 3.0030367e+2, -622170.25, -200454.98, 23089.143, 0.035265166, 0.28619215, -199194.61, -199194.61, 0.0, 9.995535, 10.001107 
2.4841909e+3, 3.1030574e+2, -611870.7, -112312.19, 20055.06, 0.07820278, 0.41223514, -111508.36, -111508.36, 0.0, 9.995018, 10.001627 
2.484093e+3, 3.203054e+2, -603696.9, 21880.316, -19700.205, 0.07521917, 0.2659328, 22500.088, 22500.088, 0.0, 9.9945135, 10.002791 
2.4959448e+3, 1.3042815e+2, -807803.5, -1606500.8, -14905.93, 0.06228698, 0.21657656, -807525.44, 854299.7, 0.037650682, 10.007938, 9.996935 
2.4958462e+3, 1.4042434e+2, -837423.94, -1607780.5, -3337.0002, 0.005233551, 0.19830929, -837409.5, 726452.44, 0.025870087, 10.007108, 9.99664 
2.4957483e+3, 1.5042092e+2, -806901.8, -1499713.3, 5385.376, 0.033320315, 0.22513959, -806860.0, 659037.5, 0.014419054, 10.006375, 9.99706 
2.495651e+3, 1.6041781e+2, -805707.75, -1450476.4, 2209.3254, 0.06997014, 0.25596517, -805700.2, 562230.06, 0.0057959487, 10.005663, 9.997068 
2.495553e+3, 1.7041495e+2, -772869.2, -1317750.3, 11270.401, 0.048255034, 0.2798278, -772636.2, 497324.56, 0.0013141512, 10.004908, 9.99767 
2.4954553e+3, 1.8041238e+2, -786157.9, -1272972.8, 9099.856, 0.021491013, 0.30320728, -785987.9, 386000.4, 0.00007448614, 10.004135, 9.997677 
2.4953577e+3, 1.9041015e+2, -771484.8, -1148273.6, 14698.922, 0.029755022, 0.3305914, -770912.25, 303099.7, 0.00000007053605, 10.003276, 9.998274 
2.4952602e+3, 2.0040816e+2, -802783.9, -1124186.9, 19930.27, 0.042589866, 0.35458222, -801552.7, 174480.58, 0.0, 10.002438, 9.998171 
2.4951628e+3, 2.1040612e+2, -767810.2, -1001077.1, 24235.361, 0.044363935, 0.35991862, -765318.9, 112736.27, 0.0, 10.001765, 9.998667 
2.4950655e+3, 2.2040442e+2, -756553.6, -930336.0, 15845.195, 0.04623495, 0.36611968, -755120.7, 24952.928, 0.0, 10.001107, 9.998797 
2.4949677e+3, 2.3040335e+2, -717490.94, -783501.9, 12037.629, 0.06059152, 0.39118612, -715364.3, -33280.223, 0.0, 10.000369, 9.999488 
2.4948701e+3, 2.404025e+2, -732628.56, -747289.4, 20555.564, 0.072151944, 0.40720677, -718135.44, -134043.25, 0.0, 9.999623, 9.999423 
2.4947725e+3, 2.5040132e+2, -702826.56, -622853.6, 21196.918, 0.058852494, 0.367797, -617582.75, -131479.38, 0.0, 9.998899, 9.999953 
2.4946748e+3, 2.6040047e+2, -691158.4, -541290.5, 13270.341, 0.04550218, 0.33076543, -540124.5, -152013.7, 0.0, 9.998198, 10.000178 
2.4945769e+3, 2.7040073e+2, -624591.25, -371170.63, 6603.057, 0.052246302, 0.342544, -370998.7, -80892.016, 0.0, 9.997605, 10.000959 
2.4944793e+3, 2.804012e+2, -629649.06, -346079.25, 11648.684, 0.06161586, 0.3492865, -345601.53, -153501.31, 0.0, 9.996998, 10.0007515 
2.494381e+3, 2.9040125e+2, -609477.0, -237132.19, 314.593, 0.05580943, 0.3070083, -237131.92, -143032.98, 0.0, 9.996253, 10.001185 
2.494283e+3, 3.0040166e+2, -615495.2, -186625.55, -756.53925, 0.035780713, 0.28001156, -186624.22, -186624.22, 0.0, 9.995528, 10.001209 
2.4941851e+3, 3.1040323e+2, -586834.4, -64110.01, 1507.486, 0.047049187, 0.32492796, -64105.664, -64105.664, 0.0, 9.995027, 10.001958 
2.4940874e+3, 3.2040414e+2, -640393.0, -67604.2, -38207.977, 0.1054506, 0.29666868, -65066.773, -65066.773, 0.0, 9.994564, 10.002156 
2.5059518e+3, 1.3052644e+2, -867607.94, -1634456.4, 21577.898, 0.051472276, 0.216698, -867001.25, 793861.1, 0.035813354, 10.007501, 9.9969425 
2.505853e+3, 1.4052272e+2, -826210.5, -1598906.0, 8731.275, 0.0031549535, 0.20756415, -826111.8, 736786.6, 0.02452206, 10.00717, 9.996667 
2.5057542e+3, 1.5051931e+2, -810629.6, -1496957.6, 20000.734, 0.027902286, 0.23465861, -810047.3, 654886.56, 0.013584833, 10.006332, 9.997096 
2.505656e+3, 1.6051625e+2, -830441.56, -1454328.1, 27348.936, 0.061187275, 0.26495612, -829245.0, 537721.44, 0.005397688, 10.005462, 9.997135 
2.5055572e+3, 1.7051342e+2, -796080.7, -1318550.3, 39921.75, 0.04579468, 0.28742912, -793047.9, 475948.3, 0.0011922733, 10.00471, 9.997756 
2.5054586e+3, 1.8051091e+2, -803775.4, -1271074.1, 36718.344, 0.024222571, 0.30841324, -800907.75, 370115.28, 0.000062362335, 10.003978, 9.997762 
2.5053602e+3, 1.905087e+2, -772676.94, -1139368.1, 37875.613, 0.025222393, 0.3298449, -768805.6, 304240.84, 0.000000037711487, 10.003234, 9.998351 
2.5052622e+3, 2.0050673e+2, -791790.7, -1110846.5, 41371.11, 0.031799547, 0.35042557, -786513.5, 188553.98, 0.0, 10.002485, 9.998235 
2.505164e+3, 2.1050483e+2, -775515.4, -998773.56, 48625.992, 0.040349294, 0.36604846, -765384.25, 111703.94, 0.0, 10.001695, 9.998713 
2.5050658e+3, 2.2050324e+2, -779770.56, -933576.0, 41789.23, 0.049105376, 0.3805995, -769149.75, 9956.016, 0.0, 10.000921, 9.99886 
2.5049675e+3, 2.3050217e+2, -729753.8, -781069.44, 34988.54, 0.061721835, 0.39902642, -712023.6, -30907.441, 0.0, 10.000257, 9.999555 
2.504869e+3, 2.405013e+2, -731250.06, -738435.4, 41657.914, 0.07115244, 0.40772966, -693030.2, -109905.89, 0.0, 9.999605, 9.999488 
2.504771e+3, 2.5050008e+2, -693219.7, -611155.25, 49066.918, 0.05989923, 0.3621983, -588224.94, -103089.84, 0.0, 9.998942, 10.000009 
2.5046727e+3, 2.6049924e+2, -678203.9, -531356.9, 47671.156, 0.04801246, 0.31980738, -517238.7, -130096.35, 0.0, 9.998279, 10.000204 
2.504574e+3, 2.704995e+2, -622171.94, -370306.38, 32611.986, 0.051267363, 0.33576867, -366152.25, -77014.016, 0.0, 9.997631, 10.000949 
2.5044757e+3, 2.8050005e+2, -631910.5, -346865.0, 27887.117, 0.05836728, 0.35053474, -344162.34, -153030.8, 0.0, 9.996988, 10.000747 
2.504377e+3, 2.9050022e+2, -594749.1, -229958.55, 23715.99, 0.058337368, 0.3231097, -228423.17, -135294.38, 0.0, 9.996362, 10.001179 
2.504278e+3, 3.0050063e+2, -587467.3, -172100.3, 31277.549, 0.039173782, 0.29545057, -169758.28, -169758.28, 0.0, 9.995723, 10.001211 
2.5041795e+3, 3.105014e+2, -579199.56, -57665.53, 12764.39, 0.022319993, 0.26010463, -57353.313, -57353.313, 0.0, 9.995074, 10.001975 
2.5040814e+3, 3.2050318e+2, -637711.0, -73331.76, -20904.55, 0.11954605, 0.31896815, -72558.516, -72558.516, 0.0, 9.99462, 10.002086 
2.5159588e+3, 1.3062525e+2, -879456.5, -1673249.8, 13330.912, 0.045342512, 0.19366209, -879232.7, 780661.2, 0.03394539, 10.007541, 9.996654 
2.5158593e+3, 1.406218e+2, -830858.56, -1607058.0, -12234.939, 0.0063053425, 0.23436703, -830665.75, 731262.9, 0.023154654, 10.007146, 9.996626 
2.51576e+3, 1.5061839e+2, -800073.1, -1475870.3, -11928.552, 0.017605068, 0.24993327, -799862.6, 664101.25, 0.012743075, 10.006325, 9.997248 
2.5156605e+3, 1.606153e+2, -819658.7, -1436610.6, -2118.304, 0.039707236, 0.26396668, -819651.44, 546344.9, 0.005000243, 10.005474, 9.997254 
2.5155616e+3, 1.7061259e+2, -788781.4, -1306196.6, 12928.95, 0.041010916, 0.28779525, -788458.5, 479566.16, 0.0010736727, 10.004715, 9.997842 
2.5154623e+3, 1.8061015e+2, -800102.44, -1264706.0, 9108.95, 0.034205914, 0.30974707, -799923.94, 370126.53, 0.000051513114, 10.003976, 9.99781 
2.515363e+3, 1.9060782e+2, -771468.1, -1138502.6, 10475.354, 0.022112709, 0.31767097, -771169.4, 300905.56, 0.000000018502952, 10.003235, 9.998361 
2.515264e+3, 2.006058e+2, -788081.2, -1105241.5, 12829.063, 0.016370477, 0.33079377, -787563.1, 186533.48, 0.0, 10.002488, 9.998276 
2.515165e+3, 2.1060428e+2, -770253.9, -990239.0, 19003.068, 0.03394262, 0.3771408, -768624.4, 107489.71, 0.0, 10.001698, 9.998773 
2.5150663e+3, 2.2060294e+2, -776262.94, -929065.7, 15025.79, 0.051449288, 0.41414878, -774799.44, 3329.7393, 0.0, 10.000926, 9.998892 
2.5149673e+3, 2.3060149e+2, -728518.8, -781568.44, 10784.677, 0.05845281, 0.39195472, -726410.1, -46266.926, 0.0, 10.000263, 9.999552 
2.514868e+3, 2.4060032e+2, -723605.2, -725674.1, 17099.576, 0.063842505, 0.3670244, -707508.8, -125354.71, 0.0, 9.999612, 9.999577 
2.5147694e+3, 2.5059965e+2, -681125.06, -589228.94, 23984.117, 0.06618659, 0.3623605, -583345.94, -99186.72, 0.0, 9.998949, 10.000159 
2.5146705e+3, 2.6059926e+2, -679373.44, -537099.1, 22829.447, 0.06495566, 0.3559674, -533525.6, -147363.89, 0.0, 9.998286, 10.000164 
2.5145712e+3, 2.70599e+2, -635069.1, -399814.25, 7430.9956, 0.052523427, 0.33443853, -399579.75, -111416.36, 0.0, 9.997636, 10.000748 
2.514472e+3, 2.805991e+2, -630994.25, -347096.9, 3113.1326, 0.045669693, 0.31742868, -347062.75, -156901.1, 0.0, 9.99699, 10.000748 
2.5143728e+3, 2.905998e+2, -582158.56, -207355.94, -450.9382, 0.057365846, 0.33512762, -207355.39, -115202.41, 0.0, 9.996369, 10.001334 
2.5142735e+3, 3.0060062e+2, -597548.6, -197922.53, 6627.899, 0.046651404, 0.34006295, -197812.64, -197812.64, 0.0, 9.995737, 10.001031 
2.5141737e+3, 3.106002e+2, -609758.7, -123138.69, -15025.2, 0.0068336437, 0.22661488, -122675.195, -122675.195, 0.0, 9.995076, 10.001529 
2.5140753e+3, 3.2060224e+2, -582139.94, 37930.59, -19718.914, 0.103535, 0.32293862, 38557.04, 38557.04, 0.0, 9.99463, 10.00285 
2.525966e+3, 1.30725e+2, -848005.2, -1650868.8, 39501.168, 0.019903796, 0.1929163, -846066.44, 812850.0, 0.032057926, 10.007728, 9.996716 
2.5258657e+3, 1.4072162e+2, -884134.4, -1626291.5, 29383.73, -0.002884498, 0.2359029, -882972.9, 677977.75, 0.021777524, 10.006739, 9.996686 
2.5257656e+3, 1.5071826e+2, -824389.3, -1480657.6, 27096.516, 0.0047289715, 0.25168744, -823272.44, 639713.06, 0.0119001, 10.006127, 9.997306 
2.5256655e+3, 1.607152e+2, -808918.06, -1423076.0, 28768.78, 0.022568412, 0.2648425, -807573.44, 557444.2, 0.0046065724, 10.005518, 9.997322 
2.5255656e+3, 1.7071253e+2, -793312.2, -1300415.6, 39689.453, 0.03034354, 0.2860383, -790224.56, 476820.97, 0.0009592255, 10.004657, 9.997906 
2.5254658e+3, 1.807101e+2, -820820.2, -1265158.3, 36335.99, 0.031166123, 0.3066481, -817868.4, 351202.34, 0.000041928477, 10.0038, 9.997888 
2.5253657e+3, 1.907079e+2, -790257.8, -1137919.6, 42662.46, 0.024161128, 0.31921726, -785099.1, 285995.03, 0.000000008423833, 10.003072, 9.998439 
2.5252658e+3, 2.0070595e+2, -805065.1, -1107738.1, 46364.42, 0.021096777, 0.33521184, -798122.2, 174992.88, 0.0, 10.002355, 9.998319 
2.5251663e+3, 2.1070437e+2, -784305.3, -994732.56, 48093.688, 0.033718158, 0.3751401, -773834.4, 101298.734, 0.0, 10.001599, 9.998786 
2.5250667e+3, 2.2070302e+2, -781959.2, -926063.25, 44271.79, 0.047022317, 0.40759274, -769444.75, 7703.831, 0.0, 10.00087, 9.998936 
2.524967e+3, 2.3070163e+2, -724625.1, -773228.8, 44960.17, 0.055938758, 0.39005506, -697819.3, -18657.432, 0.0, 10.00027, 9.999601 
2.5248674e+3, 2.4070051e+2, -712345.06, -713919.9, 51258.59, 0.06369233, 0.3684882, -661867.8, -80695.75, 0.0, 9.99967, 9.999625 
2.5247678e+3, 2.5069988e+2, -671635.44, -579223.94, 48711.453, 0.068484135, 0.36345732, -558289.75, -75112.98, 0.0, 9.998999, 10.0002 
2.5246686e+3, 2.6069948e+2, -675736.5, -537699.44, 41854.152, 0.069371365, 0.35764343, -526000.4, -140821.34, 0.0, 9.998329, 10.000135 
2.5245684e+3, 2.706991e+2, -631739.94, -407890.34, 32999.07, 0.055295028, 0.33463344, -403127.1, -115945.1, 0.0, 9.997707, 10.000653 
2.5244686e+3, 2.8069913e+2, -615846.3, -340736.1, 34842.355, 0.04559936, 0.315358, -336391.97, -147210.36, 0.0, 9.997107, 10.000731 
2.5243688e+3, 2.906999e+2, -547814.25, -185804.2, 23155.813, 0.0531846, 0.33546752, -184329.06, -93156.664, 0.0, 9.996592, 10.001371 
2.524269e+3, 3.0070072e+2, -565512.3, -199893.3, 20250.863, 0.04058697, 0.34615073, -198775.06, -198775.06, 0.0, 9.996039, 10.000868 
2.5241685e+3, 3.1070012e+2, -599985.44, -152880.16, 4011.3499, 0.008832438, 0.24325998, -152844.17, -152844.17, 0.0, 9.995299, 10.001213 
2.5240695e+3, 3.207018e+2, -554483.44, 104827.42, 19276.22, 0.08826906, 0.31502146, 105390.52, 105390.52, 0.0, 9.9945965, 10.003322 
2.5359726e+3, 1.3082561e+2, -829492.44, -1613349.9, 1769.3655, -0.018864084, 0.20656818, -829488.44, 828442.25, 0.030159535, 10.0077095, 9.996993 
2.535872e+3, 1.4082216e+2, -873240.44, -1611157.9, 50.333195, -0.020743957, 0.21926717, -873240.44, 686724.44, 0.020398896, 10.006758, 9.996785 
2.535771e+3, 1.5081888e+2, -825500.9, -1486143.0, 6409.664, -0.009877743, 0.2439494, -825438.7, 636560.5, 0.011061469, 10.006129, 9.997271 
2.5356704e+3, 1.6081591e+2, -809769.9, -1423785.1, 871.57837, 0.00858325, 0.26729694, -809768.6, 554262.1, 0.004219065, 10.005505, 9.997328 
2.5355697e+3, 1.7081319e+2, -791790.9, -1298125.4, 6910.7837, 0.014589314, 0.28236657, -791696.56, 474362.5, 0.00084943394, 10.004653, 9.997927 
2.535469e+3, 1.808108e+2, -813970.25, -1253774.1, 7160.8145, 0.017405001, 0.30007333, -813853.7, 354230.4, 0.0000335782, 10.003806, 9.997967 
2.5353685e+3, 1.9080888e+2, -781477.3, -1121934.8, 16097.221, 0.031230684, 0.33331043, -780717.9, 289386.5, 0.0000000033700214, 10.003075, 9.99855 
2.535268e+3, 2.0080712e+2, -803312.5, -1105967.8, 18472.584, 0.043900147, 0.36099842, -802189.2, 169934.11, 0.0, 10.002357, 9.998334 
2.5351673e+3, 2.108051e+2, -787316.0, -1003534.75, 19695.37, 0.03871652, 0.35967937, -785536.6, 88608.96, 0.0, 10.001604, 9.998727 
2.535067e+3, 2.2080341e+2, -778443.56, -921913.6, 19760.477, 0.035840243, 0.36231652, -775771.7, 392.42773, 0.0, 10.000877, 9.998964 
2.5349668e+3, 2.3080261e+2, -717739.2, -762226.3, 23217.389, 0.054474555, 0.39514112, -707829.6, -29657.547, 0.0, 10.0002775, 9.999677 
2.5348666e+3, 2.4080195e+2, -712720.1, -717860.1, 27399.916, 0.070961565, 0.41433188, -687769.94, -107591.79, 0.0, 9.999677, 9.999598 
2.5347665e+3, 2.5080076e+2, -677865.56, -595210.7, 22810.088, 0.06591378, 0.3639039, -589333.7, -107145.54, 0.0, 9.999005, 10.000091 
2.534666e+3, 2.6079988e+2, -677027.56, -543430.56, 17100.545, 0.05953035, 0.3200575, -541276.4, -157081.31, 0.0, 9.998335, 10.000096 
2.5345656e+3, 2.7079996e+2, -630112.56, -407677.06, 9190.805, 0.060440965, 0.33821422, -407297.97, -121103.875, 0.0, 9.997715, 10.000655 
2.5344652e+3, 2.8080022e+2, -619405.56, -351852.0, 13953.525, 0.060848065, 0.35094672, -351126.28, -162935.47, 0.0, 9.997115, 10.000654 
2.5343648e+3, 2.9080036e+2, -555042.94, -206250.36, 3217.2112, 0.044055134, 0.31889346, -206220.69, -116032.625, 0.0, 9.996608, 10.001226 
2.534264e+3, 3.0080074e+2, -573088.6, -222261.55, -5992.4473, 0.016924616, 0.30268198, -222159.22, -222159.22, 0.0, 9.996061, 10.000708 
2.5341636e+3, 3.1080133e+2, -609051.75, -176840.45, -26561.33, 0.03625332, 0.3327527, -175214.25, -175214.25, 0.0, 9.995314, 10.001045 
2.5340635e+3, 3.208016e+2, -556744.1, 100381.07, -3642.0896, 0.06770128, 0.2725545, 100401.26, 100401.26, 0.0, 9.994588, 10.003299 
2.5459796e+3, 1.3092701e+2, -868165.9, -1633516.6, 33495.895, -0.04776972, 0.21226339, -866702.7, 790234.4, 0.028253745, 10.007435, 9.996979 
2.5458783e+3, 1.4092353e+2, -862871.8, -1602744.1, 18967.05, -0.020715846, 0.22271611, -862385.9, 696585.9, 0.019021818, 10.006814, 9.996812 
2.5457764e+3, 1.5092029e+2, -842318.94, -1488584.4, 29477.955, -0.01998504, 0.24808352, -840977.1, 620028.5, 0.010229357, 10.00599, 9.997317 
2.545675e+3, 1.6091736e+2, -851634.56, -1434909.0, 26511.564, -0.011634631, 0.2720373, -850432.0, 512604.72, 0.0038387862, 10.005181, 9.997403 
2.5455734e+3, 1.709147e+2, -811691.25, -1297453.5, 35240.68, 0.0008681515, 0.2844835, -809147.94, 455916.38, 0.0007445487, 10.004479, 9.998011 
2.545472e+3, 1.809123e+2, -817406.5, -1251759.4, 36580.273, 0.011323463, 0.29937008, -814347.3, 352741.66, 0.000026431622, 10.003774, 9.997992 
2.5453708e+3, 1.9091037e+2, -797896.06, -1131560.4, 37087.074, 0.030891817, 0.33160913, -793823.5, 275286.25, 0.0000000010058756, 10.002976, 9.998528 
2.5452697e+3, 2.0090862e+2, -822946.25, -1109100.0, 33918.69, 0.048127152, 0.35919127, -818980.7, 152148.16, 0.0, 10.002202, 9.998383 
2.5451684e+3, 2.1090664e+2, -791117.9, -994509.25, 44067.715, 0.041360993, 0.35775816, -781980.44, 91169.71, 0.0, 10.001539, 9.998816 
2.5450674e+3, 2.20905e+2, -775456.75, -917239.25, 52387.625, 0.036519855, 0.35889822, -758200.25, 16967.84, 0.0, 10.000892, 9.998985 
2.5449666e+3, 2.3090413e+2, -725674.5, -769431.5, 49062.625, 0.056354545, 0.39016193, -693833.25, -16656.566, 0.0, 10.000246, 9.999639 
2.544866e+3, 2.4090344e+2, -722294.94, -720819.8, 46858.65, 0.07418885, 0.41044685, -674692.94, -95509.67, 0.0, 9.999612, 9.999605 
2.544765e+3, 2.5090232e+2, -674009.94, -589644.25, 49850.277, 0.06867959, 0.3653891, -566524.4, -85331.55, 0.0, 9.999023, 10.000116 
2.544664e+3, 2.609015e+2, -662631.25, -535282.1, 52153.016, 0.06201968, 0.3249064, -516650.06, -133450.48, 0.0, 9.998437, 10.000099 
2.544563e+3, 2.7090153e+2, -612774.1, -400774.16, 42658.76, 0.06543883, 0.34241438, -392512.3, -107313.59, 0.0, 9.997848, 10.000634 
2.544462e+3, 2.8090173e+2, -605214.1, -353791.2, 46794.742, 0.0658933, 0.35380343, -345364.22, -158168.28, 0.0, 9.997258, 10.000568 
2.5443608e+3, 2.909016e+2, -553877.0, -220533.28, 35924.164, 0.03561191, 0.3124055, -216705.72, -127509.98, 0.0, 9.996687, 10.001086 
2.5442594e+3, 3.0090186e+2, -567247.8, -221655.36, 26328.49, 0.0027245758, 0.29292697, -219661.08, -219661.08, 0.0, 9.996119, 10.00068 
2.5441587e+3, 3.109028e+2, -567740.25, -149945.0, 18807.354, 0.058976106, 0.35840547, -149100.1, -149100.1, 0.0, 9.995575, 10.001101 
2.5440574e+3, 3.2090253e+2, -552630.75, 65135.508, 36244.406, 0.052878305, 0.25366855, 67254.7, 67254.7, 0.0, 9.994783, 10.002958 
2.555986e+3, 1.3102917e+2, -882619.56, -1668150.9, 11668.73, -0.06940322, 0.21352904, -882446.3, 773489.7, 0.026340082, 10.007433, 9.99674 
2.5558844e+3, 1.4102568e+2, -866528.6, -1610193.0, -7784.614, -0.008217467, 0.24052443, -866447.2, 691524.4, 0.01764516, 10.006797, 9.996773 
2.555782e+3, 1.5102245e+2, -836623.4, -1477506.9, -780.53064, -0.027232194, 0.26060382, -836622.44, 623382.7, 0.009403365, 10.005982, 9.9974 
2.5556794e+3, 1.6101955e+2, -843373.2, -1419992.4, -1120.0057, -0.036662903, 0.27853584, -843371.0, 518664.53, 0.003466065, 10.005183, 9.997508 
2.5555775e+3, 1.7101698e+2, -803317.2, -1281834.5, 9661.425, -0.010975261, 0.29145837, -803122.2, 460939.53, 0.00064479763, 10.004479, 9.998121 
2.5554752e+3, 1.8101464e+2, -820356.94, -1259458.5, 7886.873, 0.011346801, 0.30337802, -820215.4, 345870.53, 0.000020399864, 10.003774, 9.997943 
2.5553733e+3, 1.9101237e+2, -808274.94, -1155826.3, 7280.1587, 0.02356606, 0.31566286, -808122.56, 259987.64, 0.00000000010643588, 10.002982, 9.998363 
2.5552714e+3, 2.010104e+2, -817001.56, -1100250.6, 7769.428, 0.03563168, 0.33304882, -816788.56, 153342.78, 0.0, 10.002211, 9.998443 
2.5551698e+3, 2.11009e+2, -775547.25, -965234.4, 19969.502, 0.04235829, 0.36987716, -773467.75, 98679.195, 0.0, 10.001546, 9.999017 
2.5550678e+3, 2.2100773e+2, -775647.2, -920481.6, 28247.275, 0.048840094, 0.3958017, -770333.06, 3827.7412, 0.0, 10.000897, 9.998963 
2.5549662e+3, 2.3100619e+2, -737032.5, -796001.4, 24862.098, 0.06119962, 0.37308222, -727949.4, -51773.22, 0.0, 10.000252, 9.999456 
2.554865e+3, 2.4100499e+2, -719466.8, -717868.06, 23990.05, 0.07300786, 0.35435754, -694664.06, -116476.305, 0.0, 9.999619, 9.999625 
2.5547636e+3, 2.510046e+2, -662509.25, -568832.2, 27767.531, 0.07765353, 0.370053, -561220.0, -81029.29, 0.0, 9.99903, 10.000259 
2.5546622e+3, 2.6100436e+2, -659884.8, -533018.7, 30084.947, 0.07841226, 0.37794235, -526245.94, -144053.94, 0.0, 9.9984455, 10.000114 
2.5545603e+3, 2.7100384e+2, -616450.4, -412082.63, 20198.986, 0.069646515, 0.34558973, -410105.38, -125909.3, 0.0, 9.997857, 10.000556 
2.5544587e+3, 2.8100353e+2, -612151.1, -372002.84, 24871.29, 0.058397207, 0.31680974, -369454.06, -183256.28, 0.0, 9.997268, 10.0004425 
2.554357e+3, 2.9100373e+2, -564381.5, -245154.78, 13610.208, 0.028637312, 0.32075968, -244575.56, -156380.5, 0.0, 9.996693, 10.000918 
2.554255e+3, 3.0100414e+2, -557507.5, -203799.11, 5671.8555, 0.0005928675, 0.3257806, -203708.19, -203708.19, 0.0, 9.996121, 10.000805 
2.554154e+3, 3.1100437e+2, -541167.7, -101203.305, 237.43379, 0.07393774, 0.29110155, -101203.18, -101203.18, 0.0, 9.995595, 10.001429 
2.554052e+3, 3.2100523e+2, -611965.1, -60642.94, -16787.055, 0.051732365, 0.3000386, -60132.27, -60132.27, 0.0, 9.994788, 10.002096 
2.5659928e+3, 1.3113193e+2, -899896.3, -1662525.5, 27510.166, -0.08151209, 0.21934538, -898905.2, 756024.2, 0.024419876, 10.007242, 9.996867 
2.5658903e+3, 1.4112851e+2, -906087.75, -1618391.0, 22421.145, -0.02569381, 0.24471684, -905382.7, 651581.1, 0.016269268, 10.00647, 9.99687 
2.565787e+3, 1.5112528e+2, -863713.2, -1481974.0, 29739.244, -0.04224307, 0.25733593, -862285.94, 596711.4, 0.008584118, 10.005759, 9.997474 
2.5656837e+3, 1.6112238e+2, -858365.5, -1421628.5, 28023.934, -0.048865616, 0.27066585, -856974.6, 504052.97, 0.0031018835, 10.005061, 9.997552 
2.5655812e+3, 1.711199e+2, -823345.6, -1289195.6, 33449.246, -0.021895535, 0.29251245, -820956.1, 442097.0, 0.0005506741, 10.004339, 9.998135 
2.5654784e+3, 1.8111764e+2, -838454.06, -1262384.4, 27589.762, 0.0017955389, 0.31086755, -836666.06, 328410.7, 0.000015376541, 10.003632, 9.997987 
2.565376e+3, 1.9111532e+2, -808274.0, -1149035.5, 39111.418, 0.015434198, 0.31458944, -803842.5, 263258.66, 0.0, 10.00296, 9.998415 
2.565273e+3, 2.0111331e+2, -805182.3, -1090857.1, 49035.92, 0.029735895, 0.3246249, -796999.7, 172122.9, 0.0, 10.002283, 9.998468 
2.5651705e+3, 2.1111195e+2, -776007.56, -964387.75, 48776.93, 0.04333493, 0.36666095, -764127.1, 107010.6, 0.0, 10.001545, 9.999019 
2.5650683e+3, 2.2111073e+2, -782145.75, -917760.6, 49635.38, 0.055640653, 0.39661628, -765920.3, 7230.822, 0.0, 10.000835, 9.999008 
2.564966e+3, 2.3110913e+2, -734592.25, -787903.0, 61787.71, 0.06608952, 0.36438033, -693955.5, -18788.752, 0.0, 10.000247, 9.999511 
2.5648642e+3, 2.4110788e+2, -715440.4, -716224.4, 71300.35, 0.07576263, 0.33878052, -644530.94, -67352.17, 0.0, 9.999655, 9.999616 
2.564762e+3, 2.5110757e+2, -671856.5, -579107.3, 60438.73, 0.082147405, 0.36945766, -549301.6, -70120.195, 0.0, 9.998999, 10.0002 
2.56466e+3, 2.611074e+2, -671035.5, -539619.2, 52939.543, 0.08384485, 0.38944352, -520946.3, -139763.8, 0.0, 9.998382, 10.000096 
2.5645578e+3, 2.711067e+2, -604731.2, -405816.44, 47884.26, 0.06998358, 0.34238407, -394889.63, -111701.67, 0.0, 9.997943, 10.000554 
2.5644556e+3, 2.811063e+2, -586510.25, -361415.44, 55418.766, 0.055792358, 0.30432314, -348511.03, -163320.5, 0.0, 9.997459, 10.000419 
2.5643533e+3, 2.911067e+2, -558394.3, -246676.22, 50125.95, 0.034369025, 0.33592716, -238814.0, -151628.34, 0.0, 9.99676, 10.000872 
2.5642508e+3, 3.0110714e+2, -559892.8, -198520.72, 49479.773, 0.0095018335, 0.3467757, -191868.31, -191868.31, 0.0, 9.996085, 10.0008545 
2.564149e+3, 3.1110647e+2, -529959.44, -81990.44, 29391.088, 0.06370141, 0.21515845, -80070.33, -80070.33, 0.0, 9.995621, 10.001545 
2.564046e+3, 3.2110855e+2, -585731.94, -77644.62, -8871.04, 0.053460445, 0.3484226, -77489.77, -77489.77, 0.0, 9.995103, 10.001823 
2.5759995e+3, 1.3123527e+2, -874815.1, -1613036.0, 803.5418, -0.088363156, 0.22747955, -874814.25, 779102.9, 0.022503344, 10.007235, 9.997221 
2.575896e+3, 1.4123201e+2, -894140.5, -1595478.1, -4688.68, -0.064638264, 0.23922445, -894109.1, 661839.8, 0.014901819, 10.006465, 9.997033 
2.575792e+3, 1.5122876e+2, -861129.8, -1477020.1, 4665.065, -0.062425, 0.24263982, -861094.44, 596888.0, 0.00777674, 10.005751, 9.997516 
2.5756884e+3, 1.6122583e+2, -861376.3, -1427308.3, 2108.7988, -0.051312067, 0.25202778, -861368.44, 498644.53, 0.0027491248, 10.00505, 9.997521 
2.575585e+3, 1.7122345e+2, -829900.2, -1303040.0, 7358.614, -0.032490607, 0.28911543, -829785.75, 432252.75, 0.00046321622, 10.0043335, 9.998046 
2.5754815e+3, 1.8122129e+2, -830804.4, -1247616.3, 2348.1433, -0.015701225, 0.32147473, -830791.1, 333270.44, 0.00001132073, 10.003631, 9.998093 
2.5753778e+3, 1.912192e+2, -792716.8, -1118033.5, 14381.193, 0.00692424, 0.3266116, -792082.3, 274000.88, 0.0, 10.002959, 9.9986315 
2.575275e+3, 2.0121726e+2, -807644.1, -1097561.1, 22186.412, 0.02977469, 0.3316619, -805956.06, 162147.02, 0.0, 10.002283, 9.9984255 
2.5751716e+3, 2.1121547e+2, -789808.8, -995527.75, 20994.332, 0.04394647, 0.34810925, -787688.1, 82434.66, 0.0, 10.00155, 9.998806 
2.5750685e+3, 2.2121397e+2, -774177.7, -904251.75, 25932.758, 0.056820784, 0.3628289, -769198.1, 2940.8708, 0.0, 10.000842, 9.999102 
2.574966e+3, 2.3121297e+2, -714375.75, -749098.7, 40420.87, 0.071227975, 0.36583704, -687745.56, -13597.255, 0.0, 10.000254, 9.999777 
2.574863e+3, 2.4121213e+2, -719993.1, -728673.8, 47934.78, 0.08268979, 0.36560676, -676202.56, -100046.58, 0.0, 9.999661, 9.99953 
2.5747606e+3, 2.512112e+2, -692781.5, -624933.6, 35210.75, 0.08129361, 0.36127424, -609963.5, -131798.25, 0.0, 9.999002, 9.9998865 
2.5746578e+3, 2.612105e+2, -675580.44, -551215.0, 33327.188, 0.07654456, 0.35363272, -542847.06, -162675.13, 0.0, 9.998384, 10.000018 
2.5745553e+3, 2.712101e+2, -599072.44, -397574.63, 31627.729, 0.06601675, 0.33313802, -392726.88, -110552.33, 0.0, 9.9979515, 10.000609 
2.5744525e+3, 2.8121006e+2, -579146.06, -350401.88, 32309.537, 0.059379615, 0.3219902, -345925.8, -161752.02, 0.0, 9.997472, 10.000492 
2.5743496e+3, 2.9121056e+2, -552198.25, -235776.31, 22648.09, 0.056484837, 0.35883042, -234163.48, -147996.34, 0.0, 9.996762, 10.000949 
2.5742465e+3, 3.0121085e+2, -567197.3, -213733.44, 29373.154, 0.032268893, 0.35220003, -211309.14, -211309.14, 0.0, 9.9960785, 10.000756 
2.5741434e+3, 3.112091e+2, -544489.06, -113383.875, 11831.355, 0.017019745, 0.12871687, -113059.414, -113059.414, 0.0, 9.995619, 10.001333 
2.574041e+3, 3.2121256e+2, -538806.2, 12032.808, -32599.846, 0.06649093, 0.39528605, 13955.426, 13955.426, 0.0, 9.99513, 10.002431 
2.586006e+3, 1.3133943e+2, -904595.9, -1623409.5, 40046.22, -0.11321009, 0.21521442, -902371.75, 750523.94, 0.020609405, 10.007002, 9.997256 
2.5859016e+3, 1.4133622e+2, -917056.94, -1594872.3, 20610.498, -0.0733857, 0.22727466, -916430.8, 638496.44, 0.013557335, 10.006253, 9.997136 
2.585797e+3, 1.5133311e+2, -889740.75, -1475781.4, 34456.42, -0.0717645, 0.23643251, -887721.8, 569237.2, 0.006990414, 10.00549, 9.997646 
2.5856927e+3, 1.6133031e+2, -903074.5, -1444738.1, 36772.684, -0.060540646, 0.25005493, -900589.44, 458398.94, 0.002412231, 10.004757, 9.9975395 
2.5855884e+3, 1.7132784e+2, -870163.75, -1328156.5, 44463.84, -0.038360868, 0.28458133, -865886.94, 395128.16, 0.00038377076, 10.004088, 9.997988 
2.5854844e+3, 1.8132564e+2, -859606.75, -1258777.3, 38229.867, -0.018838255, 0.31582892, -855978.4, 307060.75, 0.000008180157, 10.0034275, 9.99811 
2.5853804e+3, 1.9132361e+2, -820283.06, -1124665.6, 39660.39, 0.005466804, 0.32684642, -815200.3, 249859.45, 0.0, 10.002749, 9.998684 
2.5852764e+3, 2.0132175e+2, -834227.2, -1107029.6, 40679.33, 0.030169943, 0.33519942, -828290.44, 138788.48, 0.0, 10.002094, 9.998448 
2.5851727e+3, 2.1131985e+2, -796462.9, -998808.94, 51619.105, 0.046015985, 0.3424045, -784055.5, 85043.93, 0.0, 10.001512, 9.998798 
2.5850692e+3, 2.2131829e+2, -762408.1, -895376.3, 64637.594, 0.06028336, 0.35011026, -736166.0, 34950.3, 0.0, 10.0009165, 9.999123 
2.5849655e+3, 2.3131737e+2, -715974.25, -745964.5, 62355.105, 0.07558912, 0.361941, -666836.6, 6287.9854, 0.0, 10.000234, 9.999804 
2.5848624e+3, 2.4131659e+2, -729782.56, -734926.56, 61071.668, 0.086637095, 0.36899662, -671228.75, -96097.17, 0.0, 9.999608, 9.999509 
2.584759e+3, 2.5131553e+2, -667717.0, -618935.2, 65632.94, 0.07990568, 0.35600525, -573307.5, -96165.164, 0.0, 9.999208, 9.999825 
2.584656e+3, 2.613147e+2, -627313.5, -531532.1, 75144.34, 0.07102185, 0.34092662, -490315.1, -111164.49, 0.0, 9.998739, 9.999978 
2.5845525e+3, 2.7131432e+2, -600231.9, -401443.56, 65532.65, 0.0625061, 0.32813302, -381784.25, -100631.26, 0.0, 9.997965, 10.000572 
2.5844494e+3, 2.8131428e+2, -612199.1, -365123.56, 59169.215, 0.060667433, 0.32393226, -351684.78, -168532.78, 0.0, 9.997247, 10.000495 
2.5843462e+3, 2.9131475e+2, -542269.7, -227925.89, 43490.9, 0.07081963, 0.354735, -222019.7, -136874.02, 0.0, 9.996824, 10.000969 
2.5842425e+3, 3.0131498e+2, -535222.0, -201864.25, 46469.305, 0.049009096, 0.34281155, -195507.75, -195507.75, 0.0, 9.996321, 10.000718 
2.5841385e+3, 3.113132e+2, -570398.8, -133931.25, 36797.285, -0.006217036, 0.1246818, -130850.72, -130850.72, 0.0, 9.995482, 10.001254 
2.5840354e+3, 3.213168e+2, -554025.7, 31578.938, 345.21225, 0.08088714, 0.40546736, 31579.143, 31579.143, 0.0, 9.994917, 10.002664 
2.596012e+3, 1.3144432e+2, -921670.94, -1655781.8, 12897.211, -0.14883593, 0.19001879, -921444.44, 730421.7, 0.018757923, 10.0069685, 9.997049 
2.5959074e+3, 1.4144108e+2, -916439.06, -1590835.3, -6346.6987, -0.060654867, 0.21093608, -916379.3, 637519.56, 0.012251086, 10.006227, 9.99718 
2.595802e+3, 1.514383e+2, -879328.94, -1452450.4, 6943.9243, -0.073698275, 0.23664947, -879244.9, 576682.75, 0.0062347306, 10.005473, 9.997818 
2.5956967e+3, 1.6143572e+2, -901703.56, -1441544.5, 10443.938, -0.0750089, 0.26070917, -901501.56, 456453.16, 0.0020956653, 10.004747, 9.997569 
2.595592e+3, 1.7143306e+2, -874285.1, -1337338.6, 19985.523, -0.040159084, 0.27869773, -873424.1, 386559.38, 0.0003134347, 10.004085, 9.997931 
2.5954872e+3, 1.8143064e+2, -865203.06, -1271834.0, 13237.874, -0.0101679545, 0.29672638, -864772.56, 297237.06, 0.000005818289, 10.0034275, 9.998024 
2.5953826e+3, 1.914286e+2, -827473.75, -1141796.8, 14711.223, 0.009752912, 0.3172198, -826786.7, 237244.17, 0.0, 10.002752, 9.998568 
2.595278e+3, 2.0142679e+2, -828425.7, -1097824.4, 18142.387, 0.030650737, 0.33602613, -827209.44, 138840.48, 0.0, 10.0021, 9.998511 
2.5951737e+3, 2.114251e+2, -784053.0, -975948.2, 30308.543, 0.049519252, 0.34914562, -779379.75, 88687.96, 0.0, 10.001518, 9.998955 
2.5950694e+3, 2.214236e+2, -767303.5, -908324.9, 40505.863, 0.066095285, 0.35734132, -756497.0, 13586.3125, 0.0, 10.000922, 9.999034 
2.5949654e+3, 2.314223e+2, -731991.0, -781859.7, 36451.85, 0.078968376, 0.35157934, -712761.4, -40665.477, 0.0, 10.000239, 9.999558 
2.5948617e+3, 2.4142127e+2, -726076.5, -730123.7, 42720.855, 0.087106936, 0.34789276, -685331.4, -111225.555, 0.0, 9.999615, 9.999541 
2.5947577e+3, 2.5142056e+2, -652489.44, -591697.2, 51498.05, 0.07801322, 0.35500512, -562293.9, -86181.22, 0.0, 9.999222, 10.000009 
2.594654e+3, 2.6141998e+2, -627283.2, -536566.25, 50731.848, 0.067583546, 0.35455304, -513872.47, -135754.52, 0.0, 9.9987545, 9.99994 
2.59455e+3, 2.7141935e+2, -612249.9, -427858.97, 34534.242, 0.05935594, 0.32737896, -421603.34, -141480.06, 0.0, 9.997965, 10.000394 
2.594446e+3, 2.8141895e+2, -621535.0, -383034.03, 38687.207, 0.058786176, 0.30577588, -376915.56, -194789.89, 0.0, 9.997234, 10.000381 
2.5943425e+3, 2.9141912e+2, -547267.4, -240839.47, 28136.7, 0.07486818, 0.31552824, -238277.34, -154154.78, 0.0, 9.996829, 10.000881 
2.5942382e+3, 3.0141944e+2, -531585.5, -198973.23, 18310.346, 0.05829862, 0.31625444, -197968.28, -197968.28, 0.0, 9.996334, 10.000734 
2.5941336e+3, 3.1141913e+2, -568271.5, -125520.92, 1864.6299, 0.0045914846, 0.23955159, -125513.07, -125513.07, 0.0, 9.995459, 10.0013275 
2.59403e+3, 3.2142082e+2, -584089.6, -26753.375, 5029.628, 0.08813598, 0.3363126, -26707.99, -26707.99, 0.0, 9.994892, 10.002278 
2.6060182e+3, 1.3155009e+2, -977530.44, -1665753.9, 35658.016, -0.1429149, 0.18431804, -975687.9, 675140.7, 0.01696206, 10.006496, 9.997205 
2.605913e+3, 1.4154683e+2, -974204.25, -1613064.4, 29559.31, -0.07994796, 0.19440594, -972839.5, 580021.9, 0.010993043, 10.005799, 9.99723 
2.6058066e+3, 1.5154414e+2, -931705.0, -1478760.8, 34106.88, -0.08227912, 0.22912434, -929586.75, 525302.94, 0.0055160676, 10.005118, 9.997805 
2.6057008e+3, 1.6154163e+2, -941068.5, -1456436.9, 31016.895, -0.073568374, 0.26100528, -939208.5, 417708.03, 0.001802425, 10.004465, 9.9976 
2.6055956e+3, 1.7153896e+2, -904580.6, -1346195.8, 46497.367, -0.041103754, 0.2767403, -899738.06, 359207.1, 0.00025268173, 10.003859, 9.997974 
2.60549e+3, 1.8153654e+2, -890391.3, -1283766.0, 44447.01, -0.013154103, 0.29277715, -885431.8, 275539.53, 0.0000040688988, 10.003262, 9.998018 
2.605385e+3, 1.915345e+2, -845782.94, -1155111.1, 49986.156, 0.008649925, 0.316517, -837905.94, 225087.02, 0.0, 10.002653, 9.99852 
2.6052797e+3, 2.0153265e+2, -834337.94, -1098190.0, 56129.527, 0.031109897, 0.33700916, -822893.8, 142118.56, 0.0, 10.002056, 9.998527 
2.6051745e+3, 2.1153092e+2, -787845.56, -972200.7, 60762.094, 0.050231695, 0.34437868, -769620.5, 97409.62, 0.0, 10.001476, 9.998998 
2.60507e+3, 2.215294e+2, -770644.94, -911724.94, 65479.72, 0.0668343, 0.3476564, -744937.94, 24107.79, 0.0, 10.000915, 9.99901 
2.604965e+3, 2.31528e+2, -714423.9, -781378.8, 71167.38, 0.07863342, 0.34095636, -669253.2, 1806.1147, 0.0, 10.0004015, 9.999479 
2.6048607e+3, 2.4152689e+2, -693775.94, -716934.6, 85372.59, 0.08652695, 0.3375486, -619201.0, -46130.848, 0.0, 9.999854, 9.999513 
2.6047564e+3, 2.515262e+2, -658675.6, -594692.44, 80723.53, 0.08095241, 0.34968957, -539852.3, -64775.484, 0.0, 9.9991865, 10.000001 
2.604652e+3, 2.6152566e+2, -655644.4, -553451.9, 67530.84, 0.07198298, 0.35444084, -519864.97, -142783.02, 0.0, 9.998582, 9.999904 
2.6045474e+3, 2.7152497e+2, -582088.2, -419779.38, 56563.58, 0.057536755, 0.33008537, -402012.22, -122924.51, 0.0, 9.998207, 10.000329 
2.6044428e+3, 2.8152448e+2, -556185.7, -361345.8, 66266.67, 0.05214113, 0.3060126, -340944.22, -159852.95, 0.0, 9.997733, 10.000286 
2.6043385e+3, 2.9152432e+2, -546151.56, -252964.81, 52250.37, 0.069020085, 0.2963143, -243931.33, -160839.88, 0.0, 9.996899, 10.000761 
2.6042342e+3, 3.0152455e+2, -558830.3, -211368.66, 38507.848, 0.05921953, 0.29749003, -207152.16, -207152.16, 0.0, 9.996152, 10.000733 
2.604129e+3, 3.1152505e+2, -515209.75, -92641.266, 18788.164, 0.03275772, 0.30014575, -91807.555, -91807.555, 0.0, 9.995798, 10.001386 
2.6040244e+3, 3.2152545e+2, -547304.06, -59753.746, 36722.82, 0.08038951, 0.2810858, -57003.258, -57003.258, 0.0, 9.99537, 10.001818 
2.6160243e+3, 1.3165666e+2, -956533.94, -1614801.5, 9083.604, -0.11125321, 0.19082488, -956408.56, 693375.2, 0.015227765, 10.006448, 9.997584 
2.6159176e+3, 1.4165343e+2, -973000.4, -1611292.4, 1975.3043, -0.122252546, 0.1781248, -972994.25, 578821.3, 0.009787563, 10.00579, 9.99725 
2.615811e+3, 1.5165064e+2, -943899.3, -1505028.9, 8622.156, -0.09501444, 0.21626705, -943766.9, 510078.66, 0.0048373267, 10.005113, 9.99763 
2.6157048e+3, 1.6164805e+2, -940119.25, -1455268.6, 7726.9956, -0.06007028, 0.25368693, -940003.4, 415870.03, 0.001533822, 10.00446, 9.997613 
2.6155987e+3, 1.7164558e+2, -897200.56, -1332022.1, 24055.744, -0.041897938, 0.2783054, -895873.75, 362026.38, 0.00020135219, 10.003857, 9.9980755 
2.6154926e+3, 1.816433e+2, -887335.44, -1279079.6, 21259.21, -0.025903834, 0.30132118, -886185.1, 273739.56, 0.0000027979336, 10.0032625, 9.998053 
2.6153868e+3, 1.9164124e+2, -845663.06, -1157259.6, 27057.162, 0.003121534, 0.32315174, -843331.06, 218615.45, 0.0, 10.002658, 9.998507 
2.615281e+3, 2.016393e+2, -837099.56, -1106826.0, 34033.703, 0.03166272, 0.3375991, -832871.56, 131095.16, 0.0, 10.002063, 9.998467 
2.6151755e+3, 2.1163733e+2, -792944.94, -985816.44, 39152.598, 0.0481625, 0.3285033, -785300.06, 80686.6, 0.0, 10.001483, 9.998903 
2.61507e+3, 2.2163564e+2, -767820.1, -908859.94, 45742.516, 0.062266465, 0.32204235, -754283.9, 13719.645, 0.0, 10.000921, 9.99903 
2.614965e+3, 2.3163448e+2, -708416.7, -772100.6, 52307.53, 0.07451756, 0.33074132, -679021.5, -9006.737, 0.0, 10.000409, 9.999542 
2.6148602e+3, 2.4163346e+2, -701438.25, -736356.4, 62362.953, 0.08514462, 0.33820826, -654136.56, -82111.984, 0.0, 9.999864, 9.999378 
2.614755e+3, 2.5163245e+2, -675298.4, -631176.56, 54705.074, 0.08935357, 0.33894295, -594251.6, -120216.41, 0.0, 9.999189, 9.999753 
2.6146504e+3, 2.6163167e+2, -659109.75, -561577.7, 49830.023, 0.08499821, 0.33870658, -540621.7, -164578.55, 0.0, 9.998579, 9.999851 
2.6145452e+3, 2.716312e+2, -576701.0, -413624.38, 43279.195, 0.057062697, 0.3375953, -402850.25, -124803.86, 0.0, 9.998222, 10.000367 
2.61444e+3, 2.816309e+2, -559379.7, -375665.47, 39650.13, 0.039311633, 0.32945433, -367473.28, -187424.81, 0.0, 9.99776, 10.000178 
2.6143348e+3, 2.916304e+2, -559463.25, -281672.28, 17762.855, 0.050022542, 0.30307513, -280541.1, -198489.06, 0.0, 9.996897, 10.000568 
2.6142296e+3, 3.016303e+2, -565101.44, -221434.22, 19532.94, 0.049410753, 0.2870067, -220327.6, -220327.6, 0.0, 9.996133, 10.000677 
2.6141244e+3, 3.116307e+2, -510600.28, -90808.36, 7154.8286, 0.085956804, 0.28067258, -90686.45, -90686.45, 0.0, 9.995825, 10.001389 
2.614019e+3, 3.21631e+2, -583347.5, -144688.17, 9515.312, 0.044795882, 0.27247322, -144481.88, -144481.88, 0.0, 9.995406, 10.001221 
2.62603e+3, 1.317636e+2, -1035725.06, -1640387.6, 33273.523, -0.10509992, 0.18590702, -1033899.56, 614835.56, 0.013559218, 10.005838, 9.997697 
2.6259226e+3, 1.4176054e+2, -1006707.8, -1618571.8, 9131.128, -0.12963015, 0.17973058, -1006571.56, 544193.9, 0.008637484, 10.005517, 9.997328 
2.6258156e+3, 1.5175773e+2, -975693.44, -1514190.1, 24618.922, -0.09924558, 0.21293788, -974570.25, 478225.13, 0.004200064, 10.00487, 9.997681 
2.6257086e+3, 1.6175517e+2, -971422.75, -1465827.4, 34254.188, -0.06037519, 0.24655215, -969060.75, 385762.53, 0.0012901154, 10.004232, 9.997647 
2.625602e+3, 1.7175274e+2, -926375.94, -1343302.9, 46808.21, -0.04287911, 0.27381843, -921185.44, 335664.25, 0.00015878295, 10.003652, 9.998093 
2.6254955e+3, 1.8175048e+2, -911403.7, -1288280.0, 39288.305, -0.027460206, 0.29902032, -907351.56, 251522.36, 0.0000019056313, 10.003094, 9.998067 
2.6253888e+3, 1.9174838e+2, -859739.8, -1163221.4, 45133.94, 0.0038710223, 0.31927273, -853169.7, 207726.3, 0.0, 10.002565, 9.998507 
2.6252824e+3, 2.0174643e+2, -839279.9, -1105883.3, 53774.656, 0.033420525, 0.33161584, -828842.06, 134074.4, 0.0, 10.002047, 9.998478 
2.6251766e+3, 2.1174443e+2, -786065.44, -981685.5, 64530.613, 0.045541357, 0.32079017, -766696.1, 98240.28, 0.0, 10.001534, 9.998903 
2.6250705e+3, 2.217427e+2, -756746.5, -905664.9, 73817.27, 0.05784582, 0.31365052, -726357.44, 40596.004, 0.0, 10.001015, 9.999003 
2.6249647e+3, 2.317415e+2, -705498.6, -775653.0, 71429.3, 0.077658564, 0.324944, -660998.5, 7966.5977, 0.0, 10.000459, 9.999491 
2.6248595e+3, 2.4174045e+2, -699489.3, -740622.75, 75370.13, 0.092964, 0.33409753, -641930.2, -70954.7, 0.0, 9.999907, 9.999324 
2.624754e+3, 2.5173932e+2, -654081.94, -627858.0, 78312.805, 0.09164077, 0.3319595, -561567.06, -88579.91, 0.0, 9.999372, 9.999683 
2.6246485e+3, 2.6173848e+2, -628191.8, -551840.56, 85562.53, 0.08421339, 0.33095795, -496323.47, -121327.41, 0.0, 9.998821, 9.999798 
2.624543e+3, 2.7173802e+2, -579689.0, -420651.75, 73236.43, 0.061719652, 0.3385624, -392064.94, -115065.695, 0.0, 9.998234, 10.00031 
2.6244372e+3, 2.817377e+2, -578821.25, -388914.63, 58640.93, 0.045123007, 0.33512336, -372266.47, -193264.88, 0.0, 9.99765, 10.000136 
2.6243314e+3, 2.9173702e+2, -534886.25, -274210.4, 42792.023, 0.042116735, 0.2967723, -267365.5, -186358.86, 0.0, 9.997091, 10.000522 
2.624225e+3, 3.0173674e+2, -514271.06, -212107.08, 59323.016, 0.037544705, 0.2757134, -200877.67, -200877.67, 0.0, 9.996553, 10.000535 
2.62412e+3, 3.1173718e+2, -481950.47, -97849.61, 35307.406, 0.10672884, 0.28869247, -94631.05, -94631.05, 0.0, 9.996119, 10.001195 
2.6240134e+3, 3.2173717e+2, -589093.3, -122106.95, 19657.154, 0.023209069, 0.25597724, -121280.98, -121280.98, 0.0, 9.995265, 10.00144 
2.636035e+3, 1.3187104e+2, -1038451.5, -1653684.1, 24594.3, -0.114973314, 0.17498098, -1037469.9, 610212.0, 0.011964013, 10.005856, 9.9976 
2.6359278e+3, 1.4186819e+2, -1003309.06, -1606370.6, -11252.815, -0.112384655, 0.1937342, -1003099.1, 546611.5, 0.007547806, 10.005484, 9.997431 
2.63582e+3, 1.5186548e+2, -964017.25, -1487685.8, -553.194, -0.09799129, 0.2160465, -964016.7, 487722.7, 0.0036065085, 10.004851, 9.997874 
2.635712e+3, 1.6186292e+2, -969814.44, -1463491.0, 10921.016, -0.071299985, 0.2393677, -969572.94, 384193.56, 0.0010713628, 10.00423, 9.997667 
2.635605e+3, 1.7186041e+2, -930516.0, -1354251.6, 25360.389, -0.04365207, 0.26441088, -929003.6, 326790.06, 0.00012409028, 10.003656, 9.998019 
2.6354977e+3, 1.8185809e+2, -911766.3, -1292031.1, 19129.045, -0.019774552, 0.28775826, -910806.44, 247012.27, 0.0000013074796, 10.0031, 9.998041 
2.6353908e+3, 1.9185597e+2, -859536.4, -1165426.6, 25818.305, 0.009754081, 0.3065164, -857372.5, 202468.64, 0.0, 10.00257, 9.998492 
2.635284e+3, 2.0185402e+2, -834733.5, -1099034.6, 34712.566, 0.03588876, 0.32032806, -830250.5, 131610.98, 0.0, 10.002051, 9.998525 
2.6351774e+3, 2.1185221e+2, -780219.3, -972567.75, 45446.816, 0.042311553, 0.3211668, -770022.06, 93857.375, 0.0, 10.001541, 9.998965 
2.6350707e+3, 2.2185057e+2, -762624.44, -920835.25, 53594.66, 0.053887546, 0.32141495, -746178.56, 19717.123, 0.0, 10.001021, 9.9988985 
2.634965e+3, 2.3184909e+2, -717980.0, -804275.4, 50520.125, 0.08840701, 0.3229642, -694689.7, -26779.22, 0.0, 10.000464, 9.999294 
2.6348588e+3, 2.4184784e+2, -697312.1, -738766.3, 55169.773, 0.109921925, 0.32518423, -659104.4, -89181.336, 0.0, 9.999912, 9.999337 
2.6347527e+3, 2.5184688e+2, -645232.75, -613020.0, 58223.637, 0.08655027, 0.32954708, -568716.06, -96783.414, 0.0, 9.999381, 9.999784 
2.6346466e+3, 2.6184607e+2, -632656.8, -565192.7, 63994.508, 0.06791645, 0.33215967, -526584.25, -152643.81, 0.0, 9.998833, 9.999704 
2.6345408e+3, 2.718454e+2, -593149.94, -450150.3, 50058.086, 0.073189095, 0.33104312, -434368.75, -158422.2, 0.0, 9.998234, 10.000111 
2.6344347e+3, 2.8184482e+2, -578017.0, -386862.8, 37024.664, 0.07400293, 0.31842318, -379942.1, -201990.89, 0.0, 9.9976425, 10.000157 
2.634328e+3, 2.9184422e+2, -524995.8, -257539.02, 22485.387, 0.04828599, 0.27403966, -255661.81, -175706.52, 0.0, 9.997102, 10.000634 
2.634221e+3, 3.0184403e+2, -530834.1, -254463.16, 42430.563, 0.021727739, 0.26434082, -248095.6, -248095.6, 0.0, 9.996581, 10.000234 
2.6341155e+3, 3.118446e+2, -513850.28, -169910.48, 17369.234, 0.08035872, 0.33611417, -169035.55, -169035.55, 0.0, 9.996138, 10.000695 
2.6340082e+3, 3.2184392e+2, -493834.8, 83698.06, -47907.008, 0.03332792, 0.22328149, 87645.03, 87645.03, 0.0, 9.995223, 10.002878 
2.6460403e+3, 1.3197912e+2, -1049542.1, -1653999.5, 40528.527, -0.11777164, 0.17532463, -1046836.9, 599785.8, 0.010452936, 10.005754, 9.9976425 
2.6459324e+3, 1.419763e+2, -1076233.4, -1631854.6, 10962.538, -0.11133853, 0.19390747, -1076017.1, 472633.94, 0.0065254997, 10.004938, 9.997515 
2.6458237e+3, 1.5197362e+2, -1013847.7, -1500138.4, 18197.238, -0.093527995, 0.21100599, -1013167.7, 437511.44, 0.0030597523, 10.004463, 9.9979725 
2.6457158e+3, 1.619711e+2, -995067.5, -1464771.3, 26569.902, -0.06578206, 0.22934689, -993569.3, 359136.28, 0.00087774795, 10.004015, 9.997758 
2.645608e+3, 1.7196862e+2, -943643.7, -1351384.9, 49128.086, -0.042162556, 0.25185263, -937807.8, 316924.25, 0.00009637828, 10.003533, 9.998095 
2.6455003e+3, 1.8196633e+2, -919059.9, -1291154.9, 48772.992, -0.020295613, 0.2732751, -912773.06, 243983.66, 0.0000009214656, 10.003039, 9.998073 
2.6453927e+3, 1.9196421e+2, -871919.44, -1170624.6, 56155.96, 0.012610499, 0.29175794, -861711.1, 197068.14, 0.0, 10.00249, 9.998491 
2.6452857e+3, 2.0196226e+2, -846408.0, -1103650.5, 65776.49, 0.04050491, 0.30679467, -830564.8, 130234.805, 0.0, 10.001975, 9.998527 
2.6451784e+3, 2.1196048e+2, -779671.94, -972747.9, 71470.03, 0.044249337, 0.31292522, -756095.2, 106722.24, 0.0, 10.0015545, 9.998954 
2.645071e+3, 2.2195885e+2, -755536.0, -921856.1, 73559.96, 0.054722723, 0.31716985, -727670.56, 37163.285, 0.0, 10.001097, 9.998852 
2.6449648e+3, 2.3195729e+2, -718553.06, -812321.0, 76162.21, 0.09266989, 0.3177317, -676001.06, -9151.347, 0.0, 10.000502, 9.999217 
2.6448584e+3, 2.4195595e+2, -696306.5, -739561.3, 87268.03, 0.1148082, 0.31886694, -628025.9, -59162.707, 0.0, 9.999932, 9.999318 
2.6447514e+3, 2.5195497e+2, -634149.25, -607477.8, 82766.08, 0.083368, 0.32370836, -536980.0, -66107.32, 0.0, 9.999463, 9.999779 
2.6446447e+3, 2.6195416e+2, -617842.06, -560870.2, 81144.0, 0.06007441, 0.3262914, -503357.3, -130476.836, 0.0, 9.998954, 9.999672 
2.6445383e+3, 2.7195337e+2, -585514.0, -452412.16, 74748.68, 0.07281792, 0.32212475, -418881.16, -143993.67, 0.0, 9.99832, 10.000051 
2.6444316e+3, 2.819527e+2, -567724.06, -383921.2, 70277.93, 0.08099278, 0.30488813, -360129.66, -183236.5, 0.0, 9.997728, 10.000133 
2.6443246e+3, 2.9195195e+2, -498150.38, -246025.3, 46218.69, 0.05824046, 0.25414252, -237819.7, -158921.66, 0.0, 9.997298, 10.000615 
2.644217e+3, 3.019518e+2, -514410.53, -260240.92, 59996.727, 0.023970261, 0.25029826, -246790.48, -246790.48, 0.0, 9.99676, 10.000105 
2.6441106e+3, 3.1195253e+2, -559120.2, -211849.73, 56218.063, 0.04723958, 0.3603722, -202975.61, -202975.61, 0.0, 9.99592, 10.000508 
2.644003e+3, 3.2195154e+2, -450189.6, 182975.22, -40009.02, 0.049040377, 0.2020552, 185493.34, 185493.34, 0.0, 9.995193, 10.0035715 
2.6560456e+3, 1.320878e+2, -1042707.7, -1637989.8, 5856.331, -0.116583765, 0.18230309, -1042650.1, 602907.4, 0.009036356, 10.005733, 9.9977665 
2.6559365e+3, 1.4208491e+2, -1069000.1, -1623948.6, -12080.449, -0.12179545, 0.18448032, -1068737.3, 478849.0, 0.0055771717, 10.004958, 9.997562 
2.655828e+3, 1.5208223e+2, -1011330.94, -1499596.6, 1958.5374, -0.08644977, 0.20037188, -1011323.1, 438291.06, 0.0025627066, 10.004476, 9.997973 
2.6557192e+3, 1.6207974e+2, -985396.4, -1446898.1, 9110.171, -0.048112474, 0.21739785, -985216.6, 366423.53, 0.0007092559, 10.004019, 9.997883 
2.6556107e+3, 1.720774e+2, -931434.25, -1327217.3, 30864.31, -0.039420985, 0.2368789, -929041.9, 324623.03, 0.00007468621, 10.003532, 9.998263 
2.6555026e+3, 1.8207523e+2, -915012.0, -1284138.1, 28031.6, -0.027721768, 0.25614998, -912895.4, 242792.77, 0.0000006730687, 10.003039, 9.998124 
2.6553947e+3, 1.920731e+2, -871002.1, -1172239.8, 35188.6, 0.013026809, 0.2752148, -866946.25, 190764.27, 0.0, 10.002499, 9.998479 
2.655287e+3, 2.0207113e+2, -848971.5, -1113133.5, 48712.574, 0.04726354, 0.29078937, -840275.0, 119456.24, 0.0, 10.001987, 9.998459 
2.6551795e+3, 2.1206924e+2, -785910.44, -988293.8, 56016.01, 0.051071566, 0.2963622, -771440.75, 90309.77, 0.0, 10.00156, 9.998848 
2.655072e+3, 2.2206755e+2, -755472.4, -923798.7, 53157.563, 0.059663136, 0.3018143, -740090.75, 23677.123, 0.0, 10.0011, 9.998839 
2.654965e+3, 2.3206607e+2, -716214.1, -809941.44, 53629.168, 0.089854755, 0.30969205, -691857.8, -26074.99, 0.0, 10.000506, 9.999234 
2.6548576e+3, 2.4206477e+2, -701093.06, -752316.1, 68680.89, 0.10717941, 0.31505567, -653403.75, -85607.73, 0.0, 9.999939, 9.99923 
2.6547503e+3, 2.520636e+2, -643139.56, -629050.4, 65057.207, 0.08282577, 0.31375226, -570657.5, -100849.984, 0.0, 9.99947, 9.99963 
2.6546434e+3, 2.6206264e+2, -615122.8, -557913.44, 58522.832, 0.0613794, 0.31226102, -521378.7, -149562.11, 0.0, 9.99896, 9.999692 
2.6545358e+3, 2.7206197e+2, -579085.75, -441160.53, 50197.387, 0.05730444, 0.31182575, -424825.88, -151003.89, 0.0, 9.9983225, 10.000129 
2.6544288e+3, 2.820613e+2, -575378.0, -401956.0, 52370.008, 0.06112883, 0.2955714, -387368.38, -211541.19, 0.0, 9.997732, 10.0000105 
2.6543212e+3, 2.9206035e+2, -511604.34, -277786.28, 29756.555, 0.07414741, 0.23773687, -274058.75, -196223.7, 0.0, 9.997309, 10.000396 
2.6542136e+3, 3.0206e+2, -506480.9, -246364.6, 30950.234, 0.05002383, 0.23160261, -242732.66, -242732.66, 0.0, 9.996765, 10.0002 
2.6541054e+3, 3.1206107e+2, -548203.2, -182084.61, 23581.098, 0.0036498783, 0.3513503, -180572.03, -180572.03, 0.0, 9.995883, 10.000733 
2.6539978e+3, 3.2206017e+2, -489138.13, 104501.2, -54278.145, 0.07393815, 0.2082065, 109423.2, 109423.2, 0.0, 9.995175, 10.003044 
2.6660505e+3, 1.3219705e+2, -1093575.4, -1654285.3, 27319.627, -0.11538217, 0.18897475, -1092247.4, 552239.3, 0.0077214874, 10.005344, 9.997838 
2.6659408e+3, 1.4219406e+2, -1064964.4, -1611733.0, 8412.223, -0.12629305, 0.17343535, -1064835.0, 481681.34, 0.0047071707, 10.004945, 9.99765 
2.6658314e+3, 1.5219143e+2, -1018498.4, -1493533.4, 28065.488, -0.089869425, 0.1883832, -1016845.94, 431697.25, 0.0021168508, 10.00439, 9.998053 
2.6657227e+3, 1.6218902e+2, -1007031.25, -1450544.6, 35784.33, -0.04842924, 0.2064432, -1004162.6, 346405.72, 0.0005650512, 10.003847, 9.997936 
2.665614e+3, 1.7218675e+2, -961612.44, -1337038.5, 49076.027, -0.0334927, 0.22975414, -955303.2, 297289.3, 0.000057851314, 10.003312, 9.998298 
2.665505e+3, 1.8218462e+2, -940217.0, -1289230.1, 42018.82, -0.020039313, 0.25062346, -935229.5, 219385.8, 0.00000049652584, 10.002844, 9.998179 
2.6653966e+3, 1.921825e+2, -863898.3, -1162409.8, 53049.17, 0.011062071, 0.26502562, -854751.1, 201886.38, 0.0, 10.002528, 9.9985285 
2.6652884e+3, 2.021805e+2, -828909.94, -1103011.1, 66284.37, 0.042149596, 0.2779484, -813722.3, 144935.84, 0.0, 10.0021305, 9.998455 
2.6651806e+3, 2.1217863e+2, -802918.1, -999926.8, 75908.29, 0.061074242, 0.2874705, -777063.4, 83614.336, 0.0, 10.001466, 9.99881 
2.6650724e+3, 2.2217692e+2, -786641.7, -938729.9, 78453.766, 0.07588921, 0.2959672, -753426.0, 9269.387, 0.0, 10.000893, 9.998833 
2.6649645e+3, 2.3217542e+2, -702867.44, -803830.9, 77446.6, 0.086113706, 0.30367583, -660902.56, 3807.9766, 0.0, 10.000607, 9.999225 
2.664857e+3, 2.4217409e+2, -663217.1, -737672.6, 88286.67, 0.091405414, 0.30873165, -604630.25, -37906.258, 0.0, 10.000221, 9.999191 
2.6647493e+3, 2.5217283e+2, -638897.4, -633672.3, 87968.78, 0.08076436, 0.30652383, -548277.3, -79541.1, 0.0, 9.999536, 9.999564 
2.6646417e+3, 2.6217178e+2, -623890.2, -562423.3, 85018.21, 0.06769045, 0.301873, -502754.1, -132008.08, 0.0, 9.998908, 9.999682 
2.6645336e+3, 2.7217102e+2, -556586.7, -429492.28, 70125.3, 0.052766327, 0.29330775, -398404.38, -125652.3, 0.0, 9.99848, 10.00013 
2.6644257e+3, 2.8217033e+2, -542473.5, -396968.53, 69553.375, 0.051371373, 0.27872837, -369070.16, -194312.66, 0.0, 9.998012, 9.999907 
2.6643184e+3, 2.9216945e+2, -504777.0, -291469.78, 50840.4, 0.07834733, 0.2489448, -279972.06, -203207.53, 0.0, 9.997436, 10.000237 
2.66421e+3, 3.0216902e+2, -499263.28, -234072.5, 43395.88, 0.059126437, 0.24195363, -227151.8, -227151.8, 0.0, 9.996783, 10.000273 
2.6641008e+3, 3.1216943e+2, -527305.2, -153429.0, 25206.936, -0.010611684, 0.2795808, -151737.19, -151737.19, 0.0, 9.995953, 10.000894 
2.6639926e+3, 3.2216942e+2, -479762.72, 45611.902, -27451.408, 0.093341984, 0.2346802, 47042.375, 47042.375, 0.0, 9.99552, 10.00247 
2.676055e+3, 1.3230689e+2, -1092100.5, -1653330.4, 13854.312, -0.11447732, 0.19515195, -1091758.8, 551651.6, 0.0065122424, 10.005341, 9.997849 
2.6759455e+3, 1.4230374e+2, -1059761.4, -1599640.1, -11045.611, -0.12692846, 0.16155666, -1059535.5, 485905.44, 0.0039172806, 10.00493, 9.997743 
2.6758352e+3, 1.5230122e+2, -1010251.25, -1477125.9, 7052.0264, -0.101288095, 0.17551646, -1010144.75, 437321.6, 0.0017217627, 10.004386, 9.99817 
2.6757258e+3, 1.622989e+2, -1007497.25, -1454346.1, 15000.491, -0.06214091, 0.19617468, -1006994.25, 342496.13, 0.00044330617, 10.003853, 9.9979105 
2.6756167e+3, 1.7229664e+2, -965753.2, -1350365.6, 29194.99, -0.024495473, 0.2288993, -963549.7, 287965.2, 0.000044623055, 10.003327, 9.998202 
2.6755077e+3, 1.822945e+2, -934621.1, -1282681.8, 28251.83, -0.00023094007, 0.2545328, -932342.8, 221195.2, 0.00000034654582, 10.00286, 9.9982195 
2.6753983e+3, 1.9229238e+2, -857354.5, -1151095.4, 41812.2, 0.006411788, 0.2602163, -851518.75, 204041.23, 0.0, 10.002532, 9.998607 
2.6752898e+3, 2.0229042e+2, -826642.4, -1099236.1, 44721.34, 0.026393935, 0.2683516, -819493.0, 138087.34, 0.0, 10.002129, 9.998485 
2.6751813e+3, 2.1228862e+2, -801656.0, -999926.7, 50434.004, 0.07447865, 0.28601485, -789564.5, 70034.65, 0.0, 10.0014715, 9.99881 
2.675073e+3, 2.2228695e+2, -787055.7, -943032.8, 64234.242, 0.10290205, 0.29891968, -764008.3, -2391.744, 0.0, 10.000902, 9.998802 
2.6749647e+3, 2.3228534e+2, -705501.56, -812521.0, 67404.02, 0.080995515, 0.29929918, -672949.75, -9316.755, 0.0, 10.000615, 9.999164 
2.6748565e+3, 2.4228391e+2, -662380.6, -738942.75, 66416.445, 0.06691286, 0.29995662, -624002.8, -58355.55, 0.0, 10.000229, 9.999182 
2.6747483e+3, 2.522827e+2, -638316.06, -634466.25, 61178.883, 0.07715522, 0.30260313, -575182.0, -107523.36, 0.0, 9.999538, 9.999559 
2.67464e+3, 2.6228163e+2, -628781.7, -574049.7, 66554.99, 0.07985422, 0.2955215, -529454.1, -159785.38, 0.0, 9.998908, 9.999605 
2.6745316e+3, 2.722805e+2, -563393.3, -446926.63, 54069.414, 0.06162401, 0.26448458, -425695.34, -154017.16, 0.0, 9.998488, 10.000009 
2.6744235e+3, 2.8227973e+2, -547165.0, -411266.47, 48459.953, 0.053445414, 0.25322908, -395756.34, -222071.73, 0.0, 9.998025, 9.9998045 
2.674315e+3, 2.922795e+2, -511456.75, -307207.75, 27610.137, 0.066142745, 0.2974332, -303541.25, -227855.42, 0.0, 9.9974375, 10.000131 
2.6742062e+3, 3.02279e+2, -500344.6, -234967.55, 13810.879, 0.046701998, 0.2890968, -234250.73, -234250.73, 0.0, 9.996772, 10.000276 
2.6740965e+3, 3.1227732e+2, -525940.1, -149582.31, -7767.4473, 0.018801836, 0.11599675, -149422.08, -149422.08, 0.0, 9.995942, 10.000928 
2.6739874e+3, 3.2227948e+2, -520177.72, -47183.78, -15018.22, 0.092910774, 0.30692255, -46707.414, -46707.414, 0.0, 9.995551, 10.001821 
2.6860598e+3, 1.3241702e+2, -1122169.3, -1646726.6, 32471.393, -0.1152309, 0.18768528, -1120166.9, 522163.84, 0.0054101227, 10.005043, 9.998035 
2.6859495e+3, 1.4241412e+2, -1110569.4, -1613856.8, 12045.446, -0.11687962, 0.1637551, -1110281.3, 434077.44, 0.0032072002, 10.004539, 9.99783 
2.685839e+3, 1.5241161e+2, -1046740.0, -1488911.6, 26690.14, -0.09262688, 0.1737619, -1045134.75, 401249.28, 0.001375431, 10.004116, 9.998216 
2.685729e+3, 1.6240928e+2, -1024640.8, -1458355.1, 32950.34, -0.057813354, 0.1897755, -1022151.75, 326256.38, 0.0003415489, 10.003724, 9.997941 
2.6856193e+3, 1.7240699e+2, -961655.25, -1346172.6, 53237.23, -0.029322233, 0.21787997, -954420.56, 296012.38, 0.000033944598, 10.003353, 9.998216 
2.6855096e+3, 1.8240485e+2, -920876.75, -1270319.1, 55357.645, -0.0064990115, 0.24231793, -912316.8, 240139.16, 0.00000021350293, 10.002936, 9.998264 
2.6854002e+3, 1.9240281e+2, -877912.9, -1155581.8, 66182.65, 0.016123876, 0.25508842, -862945.0, 191532.03, 0.0, 10.002375, 9.998648 
2.6852912e+3, 2.0240091e+2, -859861.94, -1109142.4, 65958.38, 0.04143185, 0.26629272, -843485.56, 113011.27, 0.0, 10.001882, 9.998531 
2.6851824e+3, 2.1239908e+2, -785964.4, -987792.3, 72756.48, 0.06916071, 0.27667695, -762471.2, 96044.64, 0.0, 10.001567, 9.998843 
2.6850736e+3, 2.2239739e+2, -746399.94, -922394.44, 89753.43, 0.087227784, 0.28651005, -708702.4, 51831.02, 0.0, 10.001184, 9.998804 
2.6849645e+3, 2.3239583e+2, -710292.7, -816616.8, 94948.72, 0.07976163, 0.2946691, -654636.25, 7913.2705, 0.0, 10.000597, 9.999141 
2.684856e+3, 2.4239439e+2, -692577.9, -754153.25, 90160.44, 0.073423155, 0.29903546, -628093.4, -63529.527, 0.0, 10.000031, 9.999169 
2.684747e+3, 2.523931e+2, -640343.0, -637501.25, 80785.83, 0.07493769, 0.29532978, -558123.8, -91547.88, 0.0, 9.99954, 9.999535 
2.6846385e+3, 2.623919e+2, -617053.94, -576522.06, 88122.86, 0.07481979, 0.2837343, -506364.84, -137777.95, 0.0, 9.999031, 9.999526 
2.6845297e+3, 2.723907e+2, -571935.06, -463073.72, 76140.3, 0.06821832, 0.2531377, -423909.28, -153311.72, 0.0, 9.998488, 9.999894 
2.684421e+3, 2.8238982e+2, -561775.9, -422192.44, 69525.42, 0.06422872, 0.2443546, -393471.88, -220867.02, 0.0, 9.997949, 9.999763 
2.684312e+3, 2.923897e+2, -515842.28, -311745.84, 52524.336, 0.061473656, 0.29723716, -299021.94, -224416.17, 0.0, 9.997425, 10.000103 
2.6842022e+3, 3.023891e+2, -488208.47, -235855.02, 35953.293, 0.042993527, 0.28811976, -230832.64, -230832.64, 0.0, 9.99689, 10.000209 
2.6840922e+3, 3.12387e+2, -472516.53, -132849.19, 2016.0254, 0.061540563, 0.08400714, -132837.22, -132837.22, 0.0, 9.996354, 10.000841 
2.6839826e+3, 3.2238954e+2, -519764.5, -77046.07, 20580.02, 0.078809276, 0.3300112, -76091.46, -76091.46, 0.0, 9.99569, 10.001544 
2.696064e+3, 1.3252759e+2, -1097624.4, -1603986.8, 13688.404, -0.11684947, 0.17236228, -1097254.6, 543992.2, 0.004415453, 10.005068, 9.998321 
2.6959535e+3, 1.4252517e+2, -1105861.9, -1605710.6, -5754.318, -0.099213086, 0.17539276, -1105795.6, 437474.34, 0.0025754964, 10.004537, 9.99789 
2.6958427e+3, 1.5252256e+2, -1047407.7, -1493342.9, 11683.523, -0.06944897, 0.17968284, -1047101.8, 398194.5, 0.0010751988, 10.004122, 9.998185 
2.695732e+3, 1.6252014e+2, -1018961.9, -1450012.3, 19042.531, -0.0407241, 0.1862721, -1018122.25, 329199.13, 0.0002573104, 10.003733, 9.997997 
2.6956218e+3, 1.7251778e+2, -955922.9, -1335536.4, 39863.87, -0.04601343, 0.1986654, -951781.9, 297564.4, 0.00002511838, 10.003353, 9.998291 
2.695512e+3, 1.8251562e+2, -919450.94, -1267877.0, 35906.773, -0.03360087, 0.21717827, -915789.06, 235579.95, 0.00000010818493, 10.0029335, 9.998285 
2.6954025e+3, 1.925138e+2, -877557.0, -1157509.9, 44913.56, 0.039318714, 0.25017312, -870527.94, 182860.77, 0.0, 10.002381, 9.998634 
2.6952928e+3, 2.02512e+2, -854948.75, -1102870.0, 51877.066, 0.0830523, 0.2704796, -844531.3, 110876.44, 0.0, 10.001894, 9.998571 
2.6951832e+3, 2.1250999e+2, -781384.2, -981421.2, 61383.383, 0.04476701, 0.25940263, -764050.1, 93377.73, 0.0, 10.0015745, 9.998885 
2.6950735e+3, 2.2250824e+2, -744617.3, -920790.0, 70426.54, 0.030683538, 0.25967437, -719924.7, 39521.07, 0.0, 10.001188, 9.998816 
2.6949647e+3, 2.325069e+2, -710238.94, -818588.9, 72537.22, 0.08404167, 0.2905006, -673878.94, -12418.885, 0.0, 10.000601, 9.999127 
2.6948556e+3, 2.4250555e+2, -695122.06, -761079.75, 70797.75, 0.11215036, 0.30640832, -649998.9, -86525.1, 0.0, 10.000033, 9.999124 
2.694746e+3, 2.5250402e+2, -644556.06, -648244.9, 62205.082, 0.07301331, 0.28396606, -584168.06, -118679.88, 0.0, 9.999543, 9.999462 
2.6946366e+3, 2.6250264e+2, -623339.4, -592039.3, 67962.93, 0.050012663, 0.26617128, -537947.75, -170447.22, 0.0, 9.999036, 9.999419 
2.6945275e+3, 2.7250162e+2, -581178.1, -483112.4, 54813.156, 0.07259814, 0.26371515, -458601.38, -189091.47, 0.0, 9.9984865, 9.999761 
2.6944184e+3, 2.8250068e+2, -562114.6, -421989.44, 49391.063, 0.086041465, 0.25429362, -406330.13, -234811.97, 0.0, 9.997939, 9.999771 
2.6943085e+3, 2.9249978e+2, -513549.06, -306277.9, 32663.953, 0.066625506, 0.23032935, -301252.25, -227726.33, 0.0, 9.9974165, 10.000147 
2.6941985e+3, 3.0249923e+2, -501721.72, -265135.38, 16592.018, 0.050558683, 0.22759235, -263977.44, -263977.44, 0.0, 9.99689, 10.0000105 
2.6940885e+3, 3.1249908e+2, -488760.25, -174069.75, -18511.355, 0.12220195, 0.24745628, -172984.58, -172984.58, 0.0, 9.996381, 10.000548 
2.6939774e+3, 3.22499e+2, -500733.63, -36625.863, -16641.428, 0.04366027, 0.23793186, -36029.918, -36029.918, 0.0, 9.995681, 10.00183 
2.7060685e+3, 1.3263892e+2, -1116915.1, -1623052.1, 35419.15, -0.12665099, 0.1616059, -1114448.5, 525706.3, 0.003528585, 10.004979, 9.998229 
2.7059576e+3, 1.426365e+2, -1143005.6, -1618572.5, 12560.1045, -0.07133432, 0.17094532, -1142674.1, 399504.47, 0.0020206897, 10.004263, 9.997931 
2.705846e+3, 1.5263395e+2, -1068290.6, -1495323.1, 39183.06, -0.065847024, 0.17479773, -1064725.1, 379479.13, 0.0008186285, 10.003949, 9.998252 
2.7057353e+3, 1.6263157e+2, -1032455.06, -1447672.0, 46814.875, -0.04968819, 0.18079884, -1027242.25, 318986.4, 0.00018851034, 10.003608, 9.99807 
2.7056244e+3, 1.7262925e+2, -985817.25, -1342025.4, 65894.98, -0.03704956, 0.19224143, -974018.2, 274234.66, 0.000017786588, 10.00312, 9.998355 
2.705514e+3, 1.8262713e+2, -957085.9, -1285829.0, 59757.938, -0.017234916, 0.2092714, -946560.25, 203715.08, 0.00000003912219, 10.002681, 9.99828 
2.7054042e+3, 1.9262524e+2, -885859.25, -1165616.4, 66331.34, 0.038945403, 0.24057564, -870928.7, 181367.13, 0.0, 10.002349, 9.998591 
2.7052942e+3, 2.0262341e+2, -834218.9, -1084978.3, 74245.234, 0.073074095, 0.2601231, -813885.06, 140430.13, 0.0, 10.002008, 9.998636 
2.7051842e+3, 2.126215e+2, -769934.8, -965867.94, 86249.91, 0.04018579, 0.24956147, -737377.44, 118956.75, 0.0, 10.001617, 9.998968 
2.705074e+3, 2.2261979e+2, -747231.7, -922203.2, 89176.22, 0.028267514, 0.250712, -709792.9, 48558.62, 0.0, 10.001178, 9.998808 
2.7049646e+3, 2.326184e+2, -710650.1, -823959.3, 85435.84, 0.07911951, 0.28411615, -664791.2, -4424.747, 0.0, 10.000627, 9.999075 
2.7048552e+3, 2.4261704e+2, -685152.7, -757631.6, 85799.65, 0.10722393, 0.3013406, -628253.1, -65872.41, 0.0, 10.000114, 9.9991045 
2.7047452e+3, 2.5261542e+2, -623922.2, -640210.8, 80916.805, 0.07075002, 0.2764162, -550740.9, -86345.35, 0.0, 9.999701, 9.999437 
2.704635e+3, 2.6261404e+2, -600266.2, -585576.75, 86137.16, 0.050490532, 0.25909954, -506471.75, -140063.55, 0.0, 9.999222, 9.999372 
2.7045256e+3, 2.7261302e+2, -571057.5, -485623.06, 75216.06, 0.07793374, 0.2656054, -441840.47, -173422.89, 0.0, 9.998595, 9.999688 
2.704416e+3, 2.82612e+2, -555445.06, -420324.97, 73525.016, 0.09382224, 0.25450763, -388033.7, -217606.88, 0.0, 9.997998, 9.999751 
2.7043054e+3, 2.9261076e+2, -502402.97, -301979.28, 51410.152, 0.06953997, 0.20069534, -289561.56, -217123.83, 0.0, 9.997504, 10.000131 
2.7041948e+3, 3.0261025e+2, -487904.97, -260421.5, 36998.95, 0.05859995, 0.20452674, -254555.11, -254555.11, 0.0, 9.997, 9.999987 
2.7040848e+3, 3.1261107e+2, -476174.34, -172372.75, 20812.074, 0.16066302, 0.32596287, -170953.64, -170953.64, 0.0, 9.996492, 10.000503 
2.7039725e+3, 3.2260963e+2, -457905.16, -15163.303, 14541.677, 0.033738244, 0.18411648, -14686.201, -14686.201, 0.0, 9.995977, 10.001832 
2.7160728e+3, 1.3275091e+2, -1139924.0, -1675345.0, 2444.2156, -0.1406692, 0.15304226, -1139912.8, 499143.1, 0.002750047, 10.004989, 9.997868 
2.7159616e+3, 1.427482e+2, -1137656.6, -1614737.8, -2355.719, -0.037150986, 0.15579882, -1137645.0, 403438.6, 0.001541743, 10.004288, 9.997949 
2.7158493e+3, 1.5274581e+2, -1057605.1, -1477602.0, 29477.432, -0.07737734, 0.1625126, -1055546.4, 387561.16, 0.0006038162, 10.0039625, 9.998369 
2.715738e+3, 1.6274358e+2, -1027150.0, -1438631.9, 30233.313, -0.07729879, 0.17386244, -1024940.5, 320189.72, 0.00013350826, 10.003612, 9.998133 
2.7156276e+3, 1.7274141e+2, -982840.7, -1337399.4, 47672.965, -0.0064804666, 0.19607146, -976542.6, 270610.3, 0.000011824636, 10.003121, 9.998388 
2.715517e+3, 1.8273929e+2, -959541.6, -1293181.0, 45927.242, 0.033427622, 0.21504137, -953334.94, 195840.34, 0.000000006820838, 10.002686, 9.99823 
2.7154058e+3, 1.9273712e+2, -890536.25, -1178659.4, 54627.535, 0.016341722, 0.22629918, -880526.75, 170671.8, 0.0, 10.002358, 9.9985 
2.7152953e+3, 2.0273519e+2, -828126.6, -1075186.8, 60679.94, 0.018181615, 0.23726137, -814027.7, 139191.25, 0.0, 10.002016, 9.998702 
2.715185e+3, 2.1273357e+2, -762491.6, -952157.8, 71677.65, 0.05627705, 0.24748895, -738450.8, 116783.984, 0.0, 10.001619, 9.9990635 
2.715075e+3, 2.22732e+2, -750390.94, -930575.44, 69629.25, 0.0771033, 0.2589085, -726619.94, 30630.87, 0.0, 10.001181, 9.998751 
2.7149647e+3, 2.3273034e+2, -717730.56, -840755.06, 64485.17, 0.06251182, 0.27476412, -690124.4, -30855.646, 0.0, 10.00063, 9.9989605 
2.7148542e+3, 2.4272881e+2, -684744.1, -759162.44, 69243.32, 0.056745704, 0.2832343, -643345.7, -82060.9, 0.0, 10.00012, 9.999094 
2.7147442e+3, 2.527274e+2, -622294.8, -639717.9, 65206.805, 0.069789745, 0.27369228, -565220.2, -101922.32, 0.0, 9.999708, 9.99944 
2.714634e+3, 2.6272607e+2, -599478.1, -586678.5, 64088.297, 0.07954781, 0.26384592, -528671.25, -163361.4, 0.0, 9.9992285, 9.999363 
2.7145237e+3, 2.7272487e+2, -572237.8, -489671.28, 50893.453, 0.083252065, 0.25617436, -465422.5, -198101.56, 0.0, 9.998596, 9.999662 
2.714413e+3, 2.8272378e+2, -561661.0, -434003.22, 53859.56, 0.08390041, 0.24401234, -414315.78, -244984.84, 0.0, 9.997996, 9.9996605 
2.7143025e+3, 2.927228e+2, -511109.97, -320785.7, 32112.572, 0.0698928, 0.22244014, -315513.53, -244173.38, 0.0, 9.997501, 10.000006 
2.7141914e+3, 3.0272225e+2, -474160.03, -232354.33, 17540.113, 0.066489734, 0.22784, -231088.63, -231088.63, 0.0, 9.996997, 10.000184 
2.7140808e+3, 3.1272262e+2, -456990.5, -132314.72, 3036.8354, 0.16593102, 0.27495334, -132286.31, -132286.31, 0.0, 9.996486, 10.000784 
2.7139682e+3, 3.2272208e+2, -490577.38, -87079.29, -1385.0044, 0.07069619, 0.22424208, -87074.54, -87074.54, 0.0, 9.995989, 10.001335 
2.726077e+3, 1.328635e+2, -1163127.9, -1680143.8, 13820.419, -0.13903005, 0.15185294, -1162758.8, 475192.75, 0.0020798503, 10.004804, 9.997921 
2.7259654e+3, 1.428607e+2, -1147172.6, -1617318.1, 34328.496, -0.025595233, 0.14145114, -1144679.4, 395300.8, 0.0011376604, 10.004217, 9.997961 
2.7258527e+3, 1.5285832e+2, -1079747.1, -1488938.8, 63057.6, -0.06483813, 0.15106998, -1070250.3, 371753.78, 0.00042900213, 10.0038185, 9.998358 
2.725741e+3, 1.6285609e+2, -1055369.3, -1449791.9, 52839.94, -0.06565829, 0.16494523, -1048413.1, 295613.53, 0.000090798705, 10.003413, 9.998149 
2.7256298e+3, 1.7285395e+2, -1009844.06, -1348661.5, 67270.99, 0.000899491, 0.18825749, -996976.4, 249072.78, 0.000007202006, 10.002935, 9.998398 
2.725519e+3, 1.8285182e+2, -976091.44, -1294796.4, 72968.59, 0.03715155, 0.20512275, -960179.44, 187892.0, 0.00000000041812537, 10.00255, 9.998281 
2.7254075e+3, 1.9284959e+2, -889455.4, -1172336.6, 91925.19, 0.014823174, 0.2065602, -862207.9, 187887.06, 0.0, 10.002347, 9.998545 
2.7252966e+3, 2.0284764e+2, -825360.3, -1070612.1, 94222.445, 0.013944243, 0.2142145, -793341.5, 158773.83, 0.0, 10.0020275, 9.998724 
2.725186e+3, 2.1284615e+2, -790871.8, -965699.06, 95984.21, 0.059446216, 0.23702063, -748462.06, 105668.31, 0.0, 10.001431, 9.999059 
2.7250758e+3, 2.228446e+2, -786076.9, -949224.2, 93555.01, 0.08301248, 0.25471976, -743526.4, 12619.788, 0.0, 10.000948, 9.998732 
2.7249646e+3, 2.3284282e+2, -707106.5, -838681.5, 93966.76, 0.055474397, 0.26034355, -658186.8, -21.29636, 0.0, 10.000724, 9.998926 
2.7248538e+3, 2.428412e+2, -651073.7, -745285.06, 96794.836, 0.043452095, 0.26422626, -590530.94, -30348.496, 0.0, 10.000368, 9.999066 
2.7247432e+3, 2.5283983e+2, -624064.4, -644925.25, 87057.55, 0.07016709, 0.26568678, -546814.6, -84619.53, 0.0, 9.999722, 9.999394 
2.7246326e+3, 2.628385e+2, -613726.8, -595103.56, 82911.26, 0.08774824, 0.2611589, -520982.7, -156775.47, 0.0, 9.999145, 9.999342 
2.7245218e+3, 2.728372e+2, -553601.1, -482998.4, 68196.29, 0.08152143, 0.24412642, -441508.38, -175288.72, 0.0, 9.998742, 9.999634 
2.7244106e+3, 2.8283608e+2, -520445.2, -415806.34, 73087.875, 0.077853575, 0.23448807, -378241.63, -210011.73, 0.0, 9.998294, 9.999639 
2.7242994e+3, 2.9283535e+2, -476790.25, -308030.84, 56931.06, 0.07514731, 0.24320877, -290621.16, -220384.45, 0.0, 9.997761, 9.999966 
2.724188e+3, 3.0283478e+2, -447531.34, -215940.64, 37755.78, 0.07710967, 0.2449026, -209940.83, -209940.83, 0.0, 9.99717, 10.000209 
2.7240768e+3, 3.1283435e+2, -453453.72, -125479.88, 1567.1049, 0.16554393, 0.2104989, -125472.4, -125472.4, 0.0, 9.996494, 10.000824 
2.723964e+3, 3.2283482e+2, -448158.28, -80269.55, 21106.717, 0.09489759, 0.2637769, -79062.56, -79062.56, 0.0, 9.9963455, 10.001206 
2.7360812e+3, 1.329767e+2, -1142592.3, -1636121.0, -11577.698, -0.12861149, 0.15552738, -1142320.8, 494520.9, 0.001517106, 10.00479, 9.998232 
2.7359688e+3, 1.4297388e+2, -1146559.5, -1619897.5, 16550.924, -0.029110752, 0.12707894, -1145981.4, 392888.0, 0.0008066689, 10.004228, 9.997942 
2.7358562e+3, 1.5297143e+2, -1087896.8, -1507235.3, 48938.242, -0.03376796, 0.13989726, -1082261.3, 358633.06, 0.00029170673, 10.0038185, 9.998235 
2.735744e+3, 1.6296913e+2, -1057704.3, -1455577.0, 35871.85, -0.02582019, 0.15458803, -1054495.9, 288422.06, 0.000058731657, 10.003412, 9.998113 
2.735632e+3, 1.7296688e+2, -1009805.1, -1352539.3, 50139.926, -0.011767036, 0.1712216, -1002620.56, 242320.78, 0.0000038826934, 10.002947, 9.998368 
2.7355206e+3, 1.8296474e+2, -965237.56, -1276865.0, 63933.27, 0.0035194575, 0.18252537, -952631.06, 194332.61, 0.0000000000007307137, 10.002565, 9.998399 
2.7354094e+3, 1.9296265e+2, -878971.94, -1151981.3, 84792.57, 0.03322718, 0.18250859, -854780.3, 194204.92, 0.0, 10.002348, 9.998687 
2.7352983e+3, 2.0296077e+2, -828836.0, -1078142.0, 74399.97, 0.053528108, 0.19102615, -808321.06, 142683.58, 0.0, 10.002025, 9.998676 
2.7351868e+3, 2.1295922e+2, -798152.8, -983021.0, 73269.19, 0.048507936, 0.21849075, -772635.94, 80384.97, 0.0, 10.001436, 9.9989395 
2.7350757e+3, 2.2295763e+2, -784456.4, -948692.3, 82637.82, 0.048173808, 0.2383613, -750073.8, 4963.76, 0.0, 10.000956, 9.998734 
2.7349645e+3, 2.3295583e+2, -704128.6, -835320.94, 85973.836, 0.0600034, 0.24101561, -661584.4, -4527.7603, 0.0, 10.000731, 9.998948 
2.7348536e+3, 2.429542e+2, -655185.2, -756351.44, 75498.95, 0.068569876, 0.24463822, -614890.7, -55817.117, 0.0, 10.000374, 9.998989 
2.7347425e+3, 2.5295275e+2, -632271.56, -663065.44, 61863.637, 0.07041346, 0.25176558, -583917.6, -122830.38, 0.0, 9.999722, 9.999272 
2.734631e+3, 2.6295137e+2, -617901.06, -604145.7, 66106.586, 0.07184668, 0.24983983, -544559.94, -181459.53, 0.0, 9.999141, 9.999284 
2.7345198e+3, 2.7295e+2, -556458.94, -491264.56, 53057.066, 0.07186609, 0.22913612, -461591.13, -196477.23, 0.0, 9.998747, 9.9995775 
2.734408e+3, 2.829489e+2, -515628.1, -409695.66, 53973.24, 0.076821275, 0.22602761, -387040.9, -219917.17, 0.0, 9.998305, 9.999678 
2.7342966e+3, 2.9294848e+2, -472051.66, -301377.9, 36507.484, 0.08685392, 0.26214504, -293896.8, -224769.63, 0.0, 9.997769, 10.00001 
2.7341846e+3, 3.0294776e+2, -464986.1, -252909.06, 12457.024, 0.09085916, 0.25344542, -252179.88, -252179.88, 0.0, 9.997169, 9.999959 
2.7340725e+3, 3.129461e+2, -479726.06, -176296.11, -27341.682, 0.15658537, 0.12883331, -173852.08, -173852.08, 0.0, 9.996472, 10.000488 
2.73396e+3, 3.2294768e+2, -413247.0, -16851.906, 50825.207, 0.09799618, 0.2990678, -10438.922, -10438.922, 0.0, 9.996378, 10.00163 
2.7460855e+3, 1.3309021e+2, -1196008.6, -1647463.8, 4051.5112, -0.10622292, 0.1480228, -1195972.4, 439756.16, 0.001059124, 10.004364, 9.998357 
2.7459723e+3, 1.4308743e+2, -1172921.3, -1625743.1, 26924.813, -0.02752235, 0.11493752, -1171325.9, 366429.7, 0.000545166, 10.004022, 9.997998 
2.7458593e+3, 1.5308505e+2, -1126317.8, -1522675.4, 67662.164, -0.020934248, 0.13240267, -1115085.5, 324694.38, 0.00018823815, 10.003547, 9.998257 
2.745747e+3, 1.6308276e+2, -1092755.3, -1468479.4, 63017.047, -0.007947466, 0.14756912, -1082467.6, 259335.77, 0.00003549902, 10.0031595, 9.998142 
2.7456346e+3, 1.7308044e+2, -1014539.8, -1352515.3, 80872.016, -0.0068646637, 0.1553935, -996185.25, 247642.08, 0.000001739693, 10.002911, 9.998383 
2.7455226e+3, 1.8307826e+2, -957729.75, -1266954.3, 93642.61, -0.00070524454, 0.1627462, -931582.8, 214266.94, 0.0, 10.002597, 9.998448 
2.745411e+3, 1.9307628e+2, -909729.0, -1161632.1, 107545.33, 0.032171547, 0.16945067, -870061.1, 177809.08, 0.0, 10.002121, 9.998727 
2.7452996e+3, 2.0307447e+2, -869753.5, -1095525.8, 92660.87, 0.053616323, 0.1828243, -836594.06, 113294.97, 0.0, 10.0017395, 9.998692 
2.7451876e+3, 2.1307291e+2, -784879.2, -977064.3, 97890.47, 0.0413633, 0.21003729, -743799.1, 108106.57, 0.0, 10.001535, 9.998929 
2.7450758e+3, 2.2307128e+2, -747936.6, -932806.44, 110646.17, 0.038277272, 0.22882262, -696195.3, 57727.617, 0.0, 10.001221, 9.998713 
2.744965e+3, 2.3306943e+2, -716648.5, -845002.94, 108799.26, 0.060054734, 0.2303178, -654508.7, 1433.6464, 0.0, 10.000668, 9.998909 
2.7448535e+3, 2.4306773e+2, -681062.25, -771243.7, 94292.836, 0.07334921, 0.23328468, -621633.56, -63673.81, 0.0, 10.000214, 9.998961 
2.7447414e+3, 2.5306624e+2, -601365.94, -652450.94, 84854.28, 0.06617877, 0.24008036, -538293.2, -78319.08, 0.0, 9.999959, 9.999228 
2.7446297e+3, 2.6306483e+2, -553691.0, -575778.06, 92624.44, 0.06321827, 0.23967227, -471454.06, -109466.29, 0.0, 9.9996, 9.999254 
2.744518e+3, 2.7306345e+2, -516830.9, -476368.13, 79323.48, 0.07013763, 0.22461885, -414736.7, -150735.48, 0.0, 9.999043, 9.999534 
2.744406e+3, 2.8306234e+2, -489967.97, -396443.44, 76955.055, 0.07893485, 0.22185516, -353156.88, -187145.45, 0.0, 9.998485, 9.999679 
2.7442938e+3, 2.930618e+2, -446969.13, -288913.03, 53524.6, 0.086226225, 0.24719925, -272493.13, -204477.08, 0.0, 9.997946, 10.000007 
2.7441815e+3, 3.03061e+2, -429037.7, -253606.5, 31108.004, 0.09235827, 0.24190663, -248253.66, -248253.66, 0.0, 9.997499, 9.999791 
2.7440685e+3, 3.1305945e+2, -381539.4, -153678.19, -198.67363, 0.16766775, 0.14779736, -153678.02, -153678.02, 0.0, 9.997259, 10.000261 
2.7439556e+3, 3.2306054e+2, -398014.5, -21268.969, 77896.71, 0.10078521, 0.28716344, -5798.1743, -5798.1743, 0.0, 9.996539, 10.001518 
2.7560896e+3, 1.3320407e+2, -1194664.0, -1649175.8, -5543.7583, -0.07642916, 0.13295949, -1194596.4, 440015.25, 0.0007004515, 10.004377, 9.998342 
2.7559757e+3, 1.4320137e+2, -1163462.5, -1610749.6, 11109.121, -0.02310829, 0.10504177, -1163186.9, 373451.34, 0.00034739068, 10.004036, 9.998096 
2.7558622e+3, 1.5319915e+2, -1116887.3, -1506506.8, 50538.984, -0.022023214, 0.12792313, -1110438.4, 328222.22, 0.00011385205, 10.003556, 9.998365 
2.7557495e+3, 1.6319697e+2, -1086927.6, -1459419.1, 51963.477, -0.005887111, 0.14281252, -1079814.4, 260868.67, 0.000019413366, 10.003168, 9.998203 
2.755637e+3, 1.7319459e+2, -1011153.6, -1347684.8, 71939.57, 0.012800213, 0.14030412, -996420.25, 246287.19, 0.0000005772202, 10.002915, 9.998416 
2.7555245e+3, 1.8319239e+2, -959005.8, -1271429.0, 77342.836, 0.018026201, 0.14550622, -940907.44, 203822.61, 0.0, 10.0026, 9.998419 
2.7554125e+3, 1.9319047e+2, -912794.1, -1170983.3, 89868.15, 0.013029762, 0.16603015, -884593.75, 162156.34, 0.0, 10.00213, 9.99866 
2.7553004e+3, 2.0318873e+2, -863910.0, -1086643.0, 83318.195, 0.019293608, 0.18768223, -836192.3, 112576.23, 0.0, 10.001749, 9.99875 
2.7551883e+3, 2.131872e+2, -779048.9, -967072.06, 90550.52, 0.03906922, 0.21075821, -742532.4, 108252.39, 0.0, 10.00154, 9.998998 
2.7550766e+3, 2.2318557e+2, -752515.2, -943815.3, 92223.31, 0.05174878, 0.22642969, -715296.6, 37505.563, 0.0, 10.001223, 9.998638 
2.7549648e+3, 2.3318361e+2, -724492.0, -862842.75, 87645.35, 0.054351214, 0.22861303, -682011.94, -27189.217, 0.0, 10.00067, 9.998787 
2.7548528e+3, 2.4318184e+2, -679948.8, -770458.9, 82895.266, 0.056798838, 0.23009555, -630760.0, -73919.0, 0.0, 10.000216, 9.998967 
2.7547407e+3, 2.5318033e+2, -598430.94, -649723.7, 75644.91, 0.05763496, 0.2304418, -544203.1, -85347.49, 0.0, 9.999969, 9.999244 
2.7546287e+3, 2.6317888e+2, -552845.7, -578739.3, 73936.336, 0.06299104, 0.23130372, -490731.2, -129862.12, 0.0, 9.999616, 9.9992285 
2.7545163e+3, 2.7317762e+2, -518905.3, -483986.84, 57910.55, 0.07789961, 0.23328127, -440960.9, -178079.77, 0.0, 9.999053, 9.999478 
2.754404e+3, 2.831764e+2, -494342.9, -407249.72, 56700.07, 0.08413331, 0.22175585, -379303.63, -214410.83, 0.0, 9.998487, 9.999606 
2.754291e+3, 2.9317513e+2, -453076.7, -302869.3, 32558.303, 0.06843788, 0.18599303, -296115.75, -229211.2, 0.0, 9.997947, 9.999913 
2.754178e+3, 3.0317453e+2, -431809.44, -264140.13, 21160.314, 0.07802341, 0.20720541, -261510.86, -261510.86, 0.0, 9.997516, 9.999714 
2.754066e+3, 3.1317493e+2, -378530.72, -163087.36, -7108.9497, 0.20916167, 0.31694952, -162853.05, -162853.05, 0.0, 9.997321, 10.000169 
2.7539515e+3, 3.2317278e+2, -469202.25, -164406.7, 15071.385, 0.09712221, 0.17815636, -163663.27, -163663.27, 0.0, 9.996513, 10.00055 
2.766093e+3, 1.3331833e+2, -1230354.6, -1662865.1, 25323.465, -0.08166656, 0.103605956, -1228877.0, 404613.2, 0.00043303493, 10.004121, 9.998368 
2.7659792e+3, 1.4331587e+2, -1186860.1, -1616508.1, 32614.477, 0.0005896107, 0.09869816, -1184398.5, 351116.03, 0.00020584681, 10.003856, 9.998141 
2.7658653e+3, 1.533136e+2, -1141178.8, -1514157.8, 66323.375, -0.010458138, 0.11352159, -1129736.1, 307801.56, 0.00006323938, 10.003377, 9.998397 
2.765752e+3, 1.6331144e+2, -1108510.6, -1461245.9, 71314.1, -0.0016311218, 0.12603182, -1094638.3, 244921.9, 0.000009089207, 10.002988, 9.998275 
2.765639e+3, 1.733092e+2, -1034620.44, -1351447.3, 94291.68, 0.01877247, 0.13285914, -1008681.6, 232901.36, 0.00000012209587, 10.0027275, 9.998478 
2.7655265e+3, 1.8330708e+2, -977743.44, -1277315.1, 97246.93, 0.021866225, 0.14045359, -948943.8, 194661.14, 0.0, 10.002463, 9.998442 
2.7654138e+3, 1.9330508e+2, -909306.5, -1169402.5, 112370.11, 0.0067209653, 0.15078124, -867483.9, 178142.23, 0.0, 10.00216, 9.998654 
2.7653015e+3, 2.0330329e+2, -850445.8, -1074953.1, 109141.67, 0.008115635, 0.17053553, -806133.9, 141510.88, 0.0, 10.001825, 9.998791 
2.765189e+3, 2.1330193e+2, -794796.1, -970625.2, 113810.79, 0.03434964, 0.20650235, -738898.75, 110760.93, 0.0, 10.001421, 9.999027 
2.765077e+3, 2.2330034e+2, -773305.5, -951916.3, 113175.91, 0.050853908, 0.22726215, -718443.5, 33233.086, 0.0, 10.001078, 9.998649 
2.7649647e+3, 2.3329829e+2, -700187.8, -851227.6, 115436.35, 0.050411083, 0.22039177, -637762.8, 15935.102, 0.0, 10.000844, 9.99878 
2.7648526e+3, 2.4329644e+2, -640221.3, -751408.4, 114466.95, 0.05266689, 0.2168214, -568561.9, -12845.124, 0.0, 10.000496, 9.9989605 
2.7647403e+3, 2.5329491e+2, -604434.56, -654899.8, 103051.04, 0.059998456, 0.21974923, -523571.9, -65840.445, 0.0, 9.999944, 9.999217 
2.7646276e+3, 2.6329347e+2, -570818.9, -585726.3, 99223.89, 0.069376916, 0.22137302, -478769.16, -119024.11, 0.0, 9.999492, 9.999237 
2.764515e+3, 2.7329218e+2, -493603.8, -471470.38, 85583.82, 0.08288781, 0.22136284, -396240.72, -134483.48, 0.0, 9.999232, 9.9994755 
2.764402e+3, 2.832909e+2, -448018.6, -388981.63, 81766.016, 0.08860581, 0.20764022, -331568.97, -167799.53, 0.0, 9.99883, 9.999563 
2.7642885e+3, 2.9328954e+2, -424528.06, -296637.3, 56992.426, 0.073349774, 0.16714354, -274925.53, -209142.94, 0.0, 9.998181, 9.999839 
2.764175e+3, 3.0328894e+2, -411087.3, -263138.8, 59325.742, 0.08275092, 0.19842902, -242288.31, -242288.31, 0.0, 9.997703, 9.999627 
2.764063e+3, 3.1328964e+2, -349613.03, -159303.16, 31471.8, 0.21447109, 0.35170352, -154233.66, -154233.66, 0.0, 9.997569, 10.0000725 
2.7639475e+3, 3.2328656e+2, -450758.7, -156507.16, 23913.09, 0.105613574, 0.12519076, -154576.47, -154576.47, 0.0, 9.996651, 10.000536 
2.7760962e+3, 1.3343301e+2, -1221302.1, -1654613.6, 19067.229, -0.10780128, 0.06666153, -1220464.8, 411899.25, 0.00024606512, 10.004161, 9.998408 
2.775983e+3, 1.434309e+2, -1187299.8, -1618479.5, 15931.214, 0.037639197, 0.09426736, -1186711.9, 347673.6, 0.000111321555, 10.003856, 9.99813 
2.7758682e+3, 1.5342845e+2, -1141069.1, -1518818.4, 49438.176, 0.009868779, 0.09136489, -1134706.1, 301704.97, 0.0000311053, 10.003394, 9.998359 
2.7757543e+3, 1.6342622e+2, -1100437.1, -1450359.4, 61237.023, 0.0036048382, 0.100736916, -1090030.1, 248403.97, 0.0000033173612, 10.003009, 9.998342 
2.775641e+3, 1.7342432e+2, -1028589.0, -1341594.6, 85570.44, 0.013483924, 0.13209932, -1006723.0, 233730.94, 0.000000015332924, 10.002735, 9.998544 
2.7755284e+3, 1.834223e+2, -973989.56, -1270491.6, 86475.39, 0.014062765, 0.14485809, -950612.0, 191862.78, 0.0, 10.002463, 9.99849 
2.7754152e+3, 1.9342002e+2, -907032.25, -1165803.5, 101419.19, 0.012057828, 0.12469323, -872020.5, 172477.67, 0.0, 10.002161, 9.99868 
2.7753028e+3, 2.0341818e+2, -849730.25, -1074921.5, 94653.44, 0.016760314, 0.1344974, -815230.5, 131287.05, 0.0, 10.001827, 9.998792 
2.77519e+3, 2.1341707e+2, -795617.7, -974296.8, 98702.27, 0.026508866, 0.19832177, -751826.9, 96703.555, 0.0, 10.001426, 9.999002 
2.7750775e+3, 2.234156e+2, -766592.2, -940124.5, 103580.12, 0.0363667, 0.23051335, -718239.1, 32307.098, 0.0, 10.001083, 9.99873 
2.7749652e+3, 2.3341347e+2, -692840.1, -838362.0, 106840.07, 0.048848253, 0.20494632, -636337.94, 16229.964, 0.0, 10.00085, 9.998867 
2.7748525e+3, 2.4341157e+2, -642641.7, -758641.56, 95492.96, 0.061557207, 0.1934423, -588914.7, -34327.76, 0.0, 10.000501, 9.99891 
2.7747396e+3, 2.5341007e+2, -611240.4, -669561.4, 81752.66, 0.07420578, 0.20842697, -553603.2, -97001.68, 0.0, 9.999942, 9.999119 
2.7746266e+3, 2.634086e+2, -569170.56, -582152.1, 88309.85, 0.08270704, 0.2088669, -487113.25, -128497.55, 0.0, 9.999487, 9.999266 
2.7745137e+3, 2.7340707e+2, -489901.47, -466238.6, 76415.93, 0.084048636, 0.18354267, -400743.6, -140113.78, 0.0, 9.999238, 9.999511 
2.7744004e+3, 2.8340587e+2, -448355.97, -393305.56, 59994.75, 0.09286437, 0.17786811, -354823.13, -192182.05, 0.0, 9.998841, 9.99953 
2.7742863e+3, 2.9340515e+2, -428843.56, -307164.63, 32380.4, 0.10918264, 0.20721997, -299084.38, -234436.34, 0.0, 9.998184, 9.999768 
2.7741724e+3, 3.0340427e+2, -419177.63, -281006.97, 52596.234, 0.11156458, 0.21888842, -263264.03, -263264.03, 0.0, 9.997703, 9.999507 
2.7740592e+3, 3.1340295e+2, -358132.88, -178950.2, 27209.65, 0.16507228, 0.18322335, -174909.42, -174909.42, 0.0, 9.997573, 9.999939 
2.7739435e+3, 3.2340282e+2, -355185.16, 48328.457, -49500.06, 0.14174241, 0.19951844, 54312.027, 54312.027, 0.0, 9.996617, 10.001962 
2.7860996e+3, 1.3354835e+2, -1225142.0, -1646673.1, 22347.475, -0.10641775, 0.06537696, -1223960.5, 407272.06, 0.00012571632, 10.004096, 9.998491 
2.785986e+3, 1.4354615e+2, -1230167.4, -1625230.0, 29592.604, 0.05232281, 0.07377419, -1227963.1, 305291.84, 0.00005315654, 10.003506, 9.99825 
2.7858707e+3, 1.5354382e+2, -1152423.8, -1511828.4, 73252.43, 0.00946764, 0.07381681, -1138067.3, 297211.75, 0.000012620243, 10.003267, 9.998466 
2.7857566e+3, 1.635417e+2, -1099508.4, -1442872.1, 88625.03, -0.0025927753, 0.08673654, -1077982.9, 259318.06, 0.00000079198065, 10.00299, 9.9984 
2.7856433e+3, 1.7353988e+2, -1048242.94, -1347268.3, 110632.836, 0.015958523, 0.12259031, -1011761.9, 227558.48, 0.000000000043158813, 10.002589, 9.998572 
2.78553e+3, 1.835379e+2, -1002235.25, -1276793.8, 111468.67, 0.019474514, 0.13639258, -962678.9, 178662.06, 0.0, 10.002243, 9.99855 
2.7854168e+3, 1.9353561e+2, -931330.56, -1171711.0, 127691.97, 0.011761408, 0.111180365, -876161.4, 167202.77, 0.0, 10.001974, 9.998727 
2.7853036e+3, 2.0353377e+2, -866767.9, -1082963.3, 119334.23, 0.014039483, 0.11880202, -813850.75, 131532.83, 0.0, 10.001716, 9.998788 
2.785191e+3, 2.1353264e+2, -794426.56, -976982.25, 121993.88, 0.02561414, 0.18486126, -733342.5, 114054.375, 0.0, 10.001453, 9.998967 
2.785078e+3, 2.2353119e+2, -753131.9, -924073.06, 126308.14, 0.036062308, 0.21830189, -686093.56, 63319.0, 0.0, 10.001141, 9.998809 
2.784965e+3, 2.3352914e+2, -704014.4, -833444.75, 128540.13, 0.04820864, 0.19319534, -624817.75, 26615.436, 0.0, 10.000735, 9.998954 
2.7848524e+3, 2.4352728e+2, -653779.3, -758898.56, 117500.9, 0.06214543, 0.18045071, -577618.4, -24166.854, 0.0, 10.000408, 9.99895 
2.784739e+3, 2.5352576e+2, -571401.6, -648576.94, 110779.27, 0.07767974, 0.19133008, -492681.75, -37215.445, 0.0, 10.000214, 9.999129 
2.7846256e+3, 2.6352426e+2, -513800.44, -554798.56, 119734.805, 0.08808291, 0.1897336, -412822.63, -55341.867, 0.0, 9.99987, 9.999266 
2.7845123e+3, 2.735227e+2, -484389.63, -465401.97, 102114.53, 0.089380935, 0.16531965, -372340.88, -112845.74, 0.0, 9.99929, 9.999488 
2.7843988e+3, 2.835215e+2, -451770.16, -399387.8, 80772.97, 0.10373823, 0.16381417, -340665.78, -179159.28, 0.0, 9.998842, 9.999485 
2.7842844e+3, 2.9352084e+2, -368927.4, -285499.34, 51418.273, 0.13615508, 0.20470786, -261002.36, -197489.31, 0.0, 9.9986315, 9.999699 
2.78417e+3, 3.0351985e+2, -354440.1, -244598.48, 75434.79, 0.13047658, 0.20897025, -206209.58, -206209.58, 0.0, 9.998131, 9.999548 
2.7840555e+3, 3.135181e+2, -413429.2, -200355.75, 63146.836, 0.13151945, 0.12605038, -183047.42, -183047.42, 0.0, 9.997176, 9.99998 
2.78394e+3, 3.235191e+2, -272013.47, 148106.31, -54340.18, 0.17317411, 0.23468402, 155021.11, 155021.11, 0.0, 9.996937, 10.002491 
2.7961034e+3, 1.3366422e+2, -1216885.0, -1632097.8, -6568.682, -0.0885509, 0.08481833, -1216781.1, 413315.56, 0.000055668912, 10.004103, 9.99859 
2.795989e+3, 1.4366165e+2, -1211898.5, -1594592.0, 18271.621, 0.05101309, 0.0427116, -1211028.1, 321093.8, 0.000020918105, 10.003532, 9.998449 
2.7958733e+3, 1.536597e+2, -1137158.5, -1483246.8, 65296.496, -0.0058953874, 0.060390357, -1125248.9, 308893.0, 0.0000036404313, 10.003277, 9.998659 
2.7957588e+3, 1.6365778e+2, -1096686.4, -1438584.5, 74285.42, -0.016877715, 0.08097652, -1081243.6, 254918.11, 0.00000009176467, 10.002994, 9.998429 
2.7956453e+3, 1.7365584e+2, -1047522.44, -1349127.6, 95908.39, 0.024920981, 0.105687365, -1019607.8, 218574.67, 0.0, 10.0026, 9.998556 
2.7955317e+3, 1.8365388e+2, -996315.06, -1268247.4, 100913.74, 0.034969006, 0.117950425, -962957.94, 177245.3, 0.0, 10.002255, 9.998605 
2.795418e+3, 1.936518e+2, -926909.94, -1164870.4, 117817.55, 0.0060285036, 0.109199636, -878446.9, 163777.44, 0.0, 10.001981, 9.998773 
2.7953047e+3, 2.0365e+2, -867968.44, -1087025.1, 109338.92, 0.0017302247, 0.120393105, -822734.2, 121509.09, 0.0, 10.0017185, 9.99876 
2.7951917e+3, 2.136486e+2, -798014.8, -985993.6, 112200.516, 0.031724498, 0.16547205, -745638.4, 100620.805, 0.0, 10.001456, 9.998906 
2.7950788e+3, 2.2364709e+2, -748269.94, -915416.94, 111977.375, 0.048958104, 0.19190146, -692117.06, 56158.625, 0.0, 10.001143, 9.998869 
2.7949652e+3, 2.3364529e+2, -698870.2, -824135.94, 113224.19, 0.047869314, 0.18609965, -632109.9, 18183.732, 0.0, 10.000737, 9.999019 
2.794852e+3, 2.4364358e+2, -644722.3, -741563.56, 109365.95, 0.053472247, 0.1777964, -573537.44, -21226.986, 0.0, 10.000411, 9.999069 
2.7947384e+3, 2.5364196e+2, -561925.44, -632126.6, 103920.984, 0.06910007, 0.16696434, -487337.25, -33011.473, 0.0, 10.000224, 9.999239 
2.794625e+3, 2.6364046e+2, -516377.63, -563479.0, 99925.1, 0.084693305, 0.16369285, -437265.47, -80925.56, 0.0, 9.999881, 9.999203 
2.794511e+3, 2.7363917e+2, -492897.4, -482661.06, 79545.94, 0.100120634, 0.17214651, -408068.8, -149716.33, 0.0, 9.999285, 9.999374 
2.794397e+3, 2.8363782e+2, -458206.2, -411927.16, 71949.53, 0.121983185, 0.16741818, -359487.75, -199122.33, 0.0, 9.998835, 9.999404 
2.7942824e+3, 2.936364e+2, -371904.4, -297881.22, 44386.516, 0.15056042, 0.14257905, -277099.9, -214720.61, 0.0, 9.998654, 9.999605 
2.7941674e+3, 3.0363563e+2, -335400.9, -208844.56, 41536.42, 0.13642074, 0.16332674, -196429.92, -196429.92, 0.0, 9.998142, 9.99979 
2.7940518e+3, 3.1363574e+2, -404998.72, -166143.17, 25544.008, 0.12176688, 0.23890314, -163441.95, -163441.95, 0.0, 9.9971, 10.000254 
2.7939364e+3, 3.2363483e+2, -332865.03, 15505.971, -17394.58, 0.19009861, 0.17567828, 16372.348, 16372.348, 0.0, 9.996959, 10.001572 
2.8061068e+3, 1.337802e+2, -1258084.0, -1644145.1, 7575.417, -0.07870472, 0.06552157, -1257935.5, 371023.6, 0.000019587487, 10.003791, 9.998656 
2.8059918e+3, 1.4377782e+2, -1220031.1, -1584643.8, 36064.926, 0.04425141, 0.033752345, -1216498.0, 314484.53, 0.000005785506, 10.003422, 9.998569 
2.8058758e+3, 1.5377599e+2, -1163626.8, -1483747.5, 79565.56, 0.0013751776, 0.053108253, -1144941.5, 288059.66, 0.00000052450997, 10.003048, 9.998763 
2.805761e+3, 1.6377416e+2, -1126376.6, -1441775.6, 86590.89, -0.006100442, 0.07262994, -1104167.5, 230852.61, 0.0000000009211335, 10.002747, 9.998524 
2.8056473e+3, 1.7377223e+2, -1054994.8, -1343943.6, 113429.48, 0.020404909, 0.09131853, -1015787.06, 221253.6, 0.0, 10.002516, 9.99863 
2.805533e+3, 1.8377028e+2, -995497.2, -1265530.9, 119961.28, 0.02572118, 0.1028147, -949903.25, 189157.88, 0.0, 10.002256, 9.99862 
2.8054196e+3, 1.937683e+2, -935836.1, -1170228.5, 132647.53, 0.008961936, 0.102907486, -876028.6, 165053.16, 0.0, 10.001929, 9.998757 
2.805306e+3, 2.0376652e+2, -878909.5, -1088041.1, 124245.09, 0.009306277, 0.11685682, -821084.3, 122016.29, 0.0, 10.001631, 9.998793 
2.8051925e+3, 2.1376505e+2, -810633.2, -989291.56, 132217.31, 0.031836107, 0.15297973, -740396.94, 104719.94, 0.0, 10.001364, 9.998925 
2.8050792e+3, 2.2376351e+2, -747513.8, -907834.94, 133344.38, 0.044475574, 0.17324086, -672090.2, 75043.336, 0.0, 10.001122, 9.998928 
2.8049654e+3, 2.3376176e+2, -669728.2, -804221.6, 132281.89, 0.042669304, 0.16818137, -588581.44, 60569.4, 0.0, 10.000917, 9.999065 
2.8048518e+3, 2.4376014e+2, -606043.06, -713738.9, 126757.164, 0.047949575, 0.16292655, -522170.3, 28996.578, 0.0, 10.000643, 9.999146 
2.804738e+3, 2.537586e+2, -551384.8, -619210.25, 117107.76, 0.06430523, 0.15681647, -463378.3, -10197.105, 0.0, 10.000268, 9.999304 
2.804624e+3, 2.6375717e+2, -516203.78, -563713.4, 105594.82, 0.08338021, 0.15649082, -431724.75, -76529.92, 0.0, 9.999889, 9.999195 
2.8045097e+3, 2.7375585e+2, -462962.1, -472050.56, 89056.67, 0.10625463, 0.16697787, -378333.78, -121126.21, 0.0, 9.999512, 9.999335 
2.8043953e+3, 2.8375444e+2, -422333.9, -397992.6, 92250.84, 0.1324492, 0.15602331, -317113.03, -157891.42, 0.0, 9.999102, 9.999369 
2.8042808e+3, 2.9375273e+2, -375766.38, -306125.16, 67369.1, 0.15960215, 0.10969682, -265109.94, -203871.7, 0.0, 9.99866, 9.999542 
2.8041652e+3, 3.03752e+2, -318885.47, -189819.66, 44653.973, 0.14513104, 0.13916297, -175876.63, -175876.63, 0.0, 9.998213, 9.999884 
2.8040487e+3, 3.1375283e+2, -302046.84, -105248.35, 9895.99, 0.13440298, 0.2744977, -104751.984, -104751.984, 0.0, 9.997763, 10.000351 
2.8039333e+3, 3.2375094e+2, -282997.78, -33166.43, 26123.113, 0.1994384, 0.13709205, -30464.146, -30464.146, 0.0, 9.99762, 10.0009165 
2.81611e+3, 1.3389641e+2, -1255525.1, -1639953.9, -6503.3145, -0.07451191, 0.023770098, -1255415.1, 372403.72, 0.000004401662, 10.003792, 9.998686 
2.815994e+3, 1.4389454e+2, -1213185.4, -1576307.3, 21887.27, 0.03393827, 0.04004709, -1211870.9, 317966.88, 0.00000077180357, 10.003443, 9.998617 
2.8158787e+3, 1.5389265e+2, -1158637.9, -1478676.6, 66068.945, 0.025254577, 0.049870897, -1145535.0, 286321.94, 0.0000000125921, 10.003067, 9.998791 
2.8157637e+3, 1.6389084e+2, -1114766.8, -1421539.6, 77207.805, 0.022344211, 0.06239715, -1096431.3, 237444.6, 0.0, 10.00276, 9.998658 
2.815649e+3, 1.7388903e+2, -1045196.9, -1325154.3, 104799.055, 0.0043150396, 0.0791045, -1010313.06, 225581.77, 0.0, 10.00252, 9.998759 
2.8155348e+3, 1.8388712e+2, -997787.7, -1271188.5, 107941.03, -0.0028203393, 0.09027444, -960309.25, 177605.6, 0.0, 10.002257, 9.998583 
2.815421e+3, 1.9388509e+2, -940464.06, -1181873.9, 120609.18, 0.020187898, 0.09267905, -890534.1, 149402.36, 0.0, 10.001935, 9.998676 
2.815307e+3, 2.0388333e+2, -872486.44, -1076905.5, 114205.734, 0.033534322, 0.109189354, -821432.4, 120522.984, 0.0, 10.0016365, 9.998868 
2.8151932e+3, 2.1388197e+2, -804511.25, -978154.0, 122216.125, 0.025467597, 0.14738733, -741416.9, 102553.23, 0.0, 10.001367, 9.9990015 
2.8150794e+3, 2.2388041e+2, -744204.75, -902445.56, 125519.61, 0.023385668, 0.16134876, -674949.94, 71036.44, 0.0, 10.001126, 9.998965 
2.8149655e+3, 2.3387852e+2, -667767.75, -802135.06, 124545.375, 0.03293826, 0.13840778, -593441.0, 54564.047, 0.0, 10.000922, 9.999079 
2.8148517e+3, 2.4387692e+2, -604171.3, -711826.75, 113228.82, 0.04585366, 0.13582742, -532626.8, 17394.006, 0.0, 10.000648, 9.999159 
2.814738e+3, 2.5387576e+2, -551518.6, -620370.8, 102399.49, 0.06363634, 0.1635746, -477913.16, -25880.645, 0.0, 10.000268, 9.999297 
2.8146234e+3, 2.6387438e+2, -513491.06, -558320.4, 91078.41, 0.08368761, 0.17015144, -442109.7, -88064.086, 0.0, 9.9998865, 9.999235 
2.8145087e+3, 2.7387276e+2, -459670.4, -467442.2, 74739.3, 0.10642463, 0.1457693, -388716.06, -132655.13, 0.0, 9.999517, 9.999366 
2.814394e+3, 2.8387126e+2, -421516.03, -398526.66, 75358.17, 0.13295901, 0.12736762, -333791.53, -175716.27, 0.0, 9.999107, 9.999364 
2.8142786e+3, 2.9386994e+2, -380713.16, -313350.53, 49660.504, 0.16135967, 0.11815333, -287026.88, -226938.33, 0.0, 9.998644, 9.999503 
2.8141627e+3, 3.0386904e+2, -330994.84, -212015.92, 29105.04, 0.15871094, 0.13988635, -205277.75, -205277.75, 0.0, 9.998197, 9.999742 
2.814046e+3, 3.1386888e+2, -308916.3, -129583.43, -7510.0186, 0.18014884, 0.19213293, -129269.48, -129269.48, 0.0, 9.997802, 10.000167 
2.8139302e+3, 3.2386777e+2, -292333.38, -64210.25, 32251.54, 0.18979062, 0.15295058, -59738.266, -59738.266, 0.0, 9.997664, 10.000684 
2.826113e+3, 1.3401322e+2, -1308134.5, -1654370.6, 7572.37, -0.054679412, 0.017838312, -1307969.0, 318704.2, 0.00000040927964, 10.0033865, 9.99878 
2.825997e+3, 1.440114e+2, -1236163.5, -1580552.0, 30844.03, 0.020310275, 0.03167099, -1233422.9, 295268.84, 0.000000024714444, 10.00326, 9.998674 
2.825881e+3, 1.5400954e+2, -1176537.6, -1483747.8, 74663.26, 0.024155172, 0.03996582, -1159353.0, 271357.75, 0.0, 10.0029335, 9.998818 
2.8257656e+3, 1.6400777e+2, -1126360.5, -1413251.0, 86648.38, 0.028481502, 0.051500928, -1102221.5, 230507.56, 0.0, 10.0026245, 9.998777 
2.8256506e+3, 1.7400606e+2, -1068823.6, -1323700.5, 113059.234, 0.00659754, 0.06824586, -1025900.8, 208846.03, 0.0, 10.002307, 9.998869 
2.825536e+3, 1.8400428e+2, -1022919.0, -1275656.5, 119203.36, -0.0047389204, 0.081617355, -975568.2, 161197.64, 0.0, 10.002057, 9.998647 
2.825422e+3, 1.9400233e+2, -945430.5, -1179299.6, 139373.7, 0.015679853, 0.08954397, -880434.5, 158352.3, 0.0, 10.001884, 9.998715 
2.825308e+3, 2.040006e+2, -868172.5, -1072397.9, 133391.97, 0.030435475, 0.10685662, -802295.9, 138509.63, 0.0, 10.001661, 9.998884 
2.8251937e+3, 2.1399918e+2, -807900.7, -980015.2, 134935.17, 0.027468638, 0.13829498, -733916.25, 108904.48, 0.0, 10.001349, 9.998995 
2.82508e+3, 2.239976e+2, -748794.0, -895307.25, 138064.5, 0.026959922, 0.14667831, -665754.94, 79082.03, 0.0, 10.00106, 9.999044 
2.8249657e+3, 2.3399572e+2, -681851.3, -800558.06, 140460.94, 0.034704875, 0.12072024, -588718.25, 58136.703, 0.0, 10.000794, 9.999149 
2.824852e+3, 2.4399419e+2, -617742.94, -714912.06, 129051.555, 0.04677341, 0.119640976, -528433.44, 20436.8, 0.0, 10.000545, 9.999185 
2.8247374e+3, 2.539931e+2, -544906.6, -616289.2, 117903.19, 0.063786276, 0.15571295, -457410.9, -6529.3486, 0.0, 10.000315, 9.999301 
2.8246227e+3, 2.639918e+2, -492461.7, -542520.7, 104229.016, 0.08139489, 0.166071, -410299.0, -57404.605, 0.0, 10.000011, 9.999281 
2.8245077e+3, 2.7399018e+2, -442623.63, -454634.66, 87449.695, 0.09934867, 0.13759327, -360973.47, -106063.83, 0.0, 9.9996195, 9.999402 
2.8243923e+3, 2.8398868e+2, -399163.28, -384791.7, 88335.61, 0.13015702, 0.11911852, -303350.1, -146426.45, 0.0, 9.999253, 9.999386 
2.824277e+3, 2.939874e+2, -337589.56, -292882.25, 64246.465, 0.175254, 0.11730015, -247211.7, -188275.72, 0.0, 9.998946, 9.9994955 
2.8241605e+3, 3.039864e+2, -276631.22, -197684.69, 46876.652, 0.16923502, 0.12829652, -175875.33, -175875.33, 0.0, 9.998627, 9.99963 
2.8240433e+3, 3.1398562e+2, -249414.9, -118929.99, 11205.8955, 0.16145723, 0.13938458, -117974.64, -117974.64, 0.0, 9.998293, 10.000001 
2.8239274e+3, 3.239849e+2, -258104.58, -45787.934, 71137.055, 0.2153968, 0.1467581, -24157.094, -24157.094, 0.0, 9.997897, 10.000695 
2.836116e+3, 1.3413051e+2, -1298826.6, -1636130.6, 6890.087, -0.026303092, 0.033395782, -1298686.0, 326837.22, 0.000000010043455, 10.003388, 9.998906 
2.835999e+3, 1.4412844e+2, -1232076.3, -1573071.3, 18732.91, 0.0040065018, 0.013461438, -1231050.3, 296493.72, 0.0000000000000128326135, 10.003262, 9.998727 
2.8358832e+3, 1.5412664e+2, -1174042.6, -1481034.8, 62614.45, 0.0049861455, 0.025530629, -1161762.9, 267799.44, 0.0, 10.002941, 9.998835 
2.8357676e+3, 1.6412497e+2, -1117503.8, -1398737.4, 74650.125, 0.018688852, 0.04025475, -1098917.1, 232662.66, 0.0, 10.002639, 9.998872 
2.8356525e+3, 1.7412336e+2, -1060207.4, -1310771.0, 101042.336, 0.023922035, 0.05855901, -1024538.56, 209057.83, 0.0, 10.002325, 9.998951 
2.8355375e+3, 1.8412173e+2, -1011082.44, -1254873.1, 112082.56, 0.013626624, 0.07618805, -967385.0, 168228.95, 0.0, 10.00207, 9.998784 
2.835423e+3, 1.9412e+2, -936252.94, -1160920.6, 132784.42, -0.0034621847, 0.09256632, -874659.8, 162973.1, 0.0, 10.001885, 9.998843 
2.835309e+3, 2.0411831e+2, -872433.75, -1081172.6, 122071.22, 0.0041448586, 0.10892924, -816196.94, 123454.3, 0.0, 10.001658, 9.998827 
2.8351945e+3, 2.1411665e+2, -814162.44, -994282.5, 123287.58, 0.038283043, 0.12552838, -751544.25, 90124.52, 0.0, 10.001352, 9.998897 
2.8350806e+3, 2.2411501e+2, -740426.1, -879330.7, 128398.12, 0.053930804, 0.129686, -663900.0, 79785.33, 0.0, 10.001062, 9.999153 
2.8349662e+3, 2.3411341e+2, -673648.9, -784685.75, 130386.22, 0.047647323, 0.11590245, -587453.25, 58247.332, 0.0, 10.000797, 9.999259 
2.8348514e+3, 2.4411193e+2, -616016.94, -712048.4, 120329.6, 0.050390687, 0.11435131, -534476.8, 13238.37, 0.0, 10.0005455, 9.999206 
2.834737e+3, 2.5411063e+2, -544473.5, -616639.9, 108983.97, 0.064557485, 0.1304971, -465754.7, -16026.072, 0.0, 10.000317, 9.999299 
2.834622e+3, 2.6410937e+2, -489586.47, -537645.94, 89549.6, 0.07595658, 0.14212258, -420898.56, -69157.13, 0.0, 10.000013, 9.999315 
2.8345063e+3, 2.7410808e+2, -440993.8, -451513.5, 72328.03, 0.083299175, 0.146714, -373734.63, -119981.22, 0.0, 9.999618, 9.999426 
2.834391e+3, 2.8410673e+2, -396544.63, -379908.0, 76287.46, 0.12349124, 0.13541183, -311486.7, -155720.33, 0.0, 9.999252, 9.999421 
2.8342754e+3, 2.9410517e+2, -335476.78, -290980.44, 52966.836, 0.20583066, 0.102373, -255778.92, -197997.97, 0.0, 9.998954, 9.999506 
2.8341585e+3, 3.0410397e+2, -280447.97, -209816.27, 34697.53, 0.1721618, 0.10233668, -195623.25, -195623.25, 0.0, 9.998641, 9.999541 
2.83404e+3, 3.141033e+2, -257509.53, -140751.08, -1647.9596, 0.046773247, 0.13384749, -140727.83, -140727.83, 0.0, 9.998311, 9.999844 
2.8339255e+3, 3.241022e+2, -236038.03, 4153.4355, 51923.77, 0.30959663, 0.09816728, 14897.54, 14897.54, 0.0, 9.997875, 10.001052 
2.8461185e+3, 1.3424769e+2, -1358261.0, -1652201.0, 18429.035, -0.024449065, 0.027856587, -1357110.0, 267264.25, 0.0, 10.002929, 9.999017 
2.8460014e+3, 1.4424579e+2, -1279674.6, -1582398.6, 20982.418, 0.00035227402, 0.013285565, -1278227.3, 248166.27, 0.0, 10.002878, 9.998846 
2.8458852e+3, 1.5424404e+2, -1205931.5, -1485761.6, 68781.23, 0.00852973, 0.019195257, -1189939.3, 238472.05, 0.0, 10.00268, 9.998926 
2.8457695e+3, 1.6424239e+2, -1131470.4, -1397135.8, 82548.22, 0.021143949, 0.02979708, -1107910.3, 222518.11, 0.0, 10.00251, 9.998943 
2.8456542e+3, 1.7424083e+2, -1054531.6, -1301850.5, 106561.67, 0.015578524, 0.04637677, -1014951.75, 217492.92, 0.0, 10.002342, 9.9990015 
2.8455392e+3, 1.8423933e+2, -999614.6, -1232180.1, 114243.625, 0.004716985, 0.068908505, -952884.25, 181576.72, 0.0, 10.002079, 9.998934 
2.8454244e+3, 1.942379e+2, -956673.44, -1154544.5, 135193.02, -0.0014573024, 0.098999575, -888081.7, 148395.56, 0.0, 10.001679, 9.998984 
2.8453097e+3, 2.0423631e+2, -900080.56, -1081510.5, 133534.89, 0.008698341, 0.113912866, -829362.06, 109132.23, 0.0, 10.001417, 9.998939 
2.8451952e+3, 2.1423453e+2, -812064.25, -982852.8, 147557.3, 0.035900027, 0.108963296, -726972.94, 113539.47, 0.0, 10.001327, 9.998986 
2.8450808e+3, 2.2423287e+2, -728653.25, -868196.4, 153530.42, 0.052614238, 0.10560876, -629784.2, 112744.664, 0.0, 10.001124, 9.999198 
2.8449664e+3, 2.342314e+2, -677214.0, -783833.94, 147396.06, 0.056301527, 0.10369657, -573783.56, 70759.39, 0.0, 10.000766, 9.999277 
2.8448516e+3, 2.4422999e+2, -625474.75, -712340.4, 137136.73, 0.06040166, 0.10754957, -525057.3, 21499.668, 0.0, 10.000466, 9.999239 
2.8447366e+3, 2.5422868e+2, -554132.06, -618884.4, 126633.84, 0.065340936, 0.1185484, -455801.13, -7230.236, 0.0, 10.000244, 9.999316 
2.8446212e+3, 2.642274e+2, -492148.34, -537192.56, 102716.99, 0.07322425, 0.12884787, -409513.3, -58929.4, 0.0, 9.999992, 9.999326 
2.8445053e+3, 2.7422616e+2, -426932.1, -444262.4, 82774.484, 0.08362577, 0.13950792, -352370.47, -99775.0, 0.0, 9.999717, 9.999426 
2.8443894e+3, 2.842248e+2, -369092.3, -362964.34, 86231.57, 0.12494137, 0.13034035, -279742.34, -125134.18, 0.0, 9.999429, 9.99945 
2.844274e+3, 2.9422325e+2, -304094.16, -273880.94, 63360.754, 0.2060135, 0.09292967, -223850.81, -167227.98, 0.0, 9.999166, 9.999519 
2.8441566e+3, 3.04222e+2, -235319.08, -183364.44, 49572.055, 0.16430669, 0.08520873, -153375.61, -153375.61, 0.0, 9.998937, 9.999578 
2.8440377e+3, 3.142212e+2, -190952.38, -109485.77, 24759.598, 0.025243176, 0.104851075, -102551.06, -102551.06, 0.0, 9.998777, 9.999831 
2.8439236e+3, 3.2421997e+2, -131205.7, 25967.227, 55158.07, 0.3355537, 0.066775076, 43392.453, 43392.453, 0.0, 9.998724, 10.00079 
2.8561205e+3, 1.3436492e+2, -1348118.1, -1637511.3, 20386.955, -0.038605303, 0.010293888, -1346689.0, 276536.2, 0.0, 10.002954, 9.999106 
2.856004e+3, 1.4436343e+2, -1267862.1, -1559506.1, 13882.024, 0.0052810106, 0.02526211, -1267202.9, 258037.61, 0.0, 10.002883, 9.999002 
2.8558874e+3, 1.543617e+2, -1195748.1, -1466073.9, 61858.91, 0.02803847, 0.018542573, -1182265.4, 244992.3, 0.0, 10.002684, 9.999061 
2.8557715e+3, 1.6436005e+2, -1128544.8, -1391364.3, 76452.29, 0.031665042, 0.01996207, -1107923.3, 221351.34, 0.0, 10.002509, 9.998984 
2.8556556e+3, 1.7435847e+2, -1054479.4, -1300117.4, 100560.4, -0.013593373, 0.032146975, -1018563.06, 212728.36, 0.0, 10.002333, 9.99902 
2.85554e+3, 1.843571e+2, -990227.06, -1211422.0, 100159.69, -0.024973944, 0.06035925, -951614.06, 181692.45, 0.0, 10.002071, 9.999081 
2.8554255e+3, 1.9435601e+2, -945972.6, -1133882.9, 120233.05, 0.019705176, 0.108521886, -887338.25, 147981.44, 0.0, 10.001683, 9.9991255 
2.8553107e+3, 2.0435458e+2, -880691.25, -1043740.06, 129384.08, 0.03894187, 0.12115169, -809289.3, 128045.234, 0.0, 10.001425, 9.999195 
2.8551957e+3, 2.1435277e+2, -793957.44, -946671.2, 143932.27, 0.019901307, 0.088664845, -707382.25, 131969.44, 0.0, 10.00133, 9.999233 
2.855081e+3, 2.2435114e+2, -731538.06, -874648.94, 140758.81, 0.024529487, 0.074744225, -645190.94, 96176.73, 0.0, 10.001124, 9.999155 
2.8549665e+3, 2.3434968e+2, -683076.75, -796757.06, 133510.63, 0.061235074, 0.08397568, -594810.44, 48571.77, 0.0, 10.000767, 9.999189 
2.8548515e+3, 2.4434838e+2, -622584.4, -707124.44, 128622.74, 0.076983884, 0.09933583, -529464.0, 15931.764, 0.0, 10.000467, 9.999276 
2.8547364e+3, 2.543472e+2, -552549.7, -615772.0, 117666.84, 0.06601474, 0.121970415, -462321.78, -14913.618, 0.0, 10.000242, 9.99934 
2.8546205e+3, 2.6434585e+2, -494934.0, -542850.6, 92128.35, 0.07380296, 0.12716587, -423699.7, -74278.016, 0.0, 9.9999895, 9.9992895 
2.8545046e+3, 2.7434433e+2, -429931.1, -451233.13, 72280.95, 0.10423198, 0.111162655, -367520.63, -116084.37, 0.0, 9.999717, 9.999379 
2.8543884e+3, 2.843429e+2, -368379.34, -362817.28, 74917.89, 0.1348702, 0.09918353, -290628.84, -137179.2, 0.0, 9.999432, 9.999452 
2.8542718e+3, 2.9434165e+2, -304266.22, -275113.6, 53495.664, 0.16388114, 0.09199875, -234243.95, -178782.38, 0.0, 9.999167, 9.999511 
2.8541544e+3, 3.0434042e+2, -221160.66, -155252.45, 42150.12, 0.1468251, 0.07789495, -134703.23, -134703.23, 0.0, 9.99894, 9.99977 
2.854037e+3, 3.1433922e+2, -177325.97, -84455.234, 20354.072, 0.14330824, 0.039076798, -80190.19, -80190.19, 0.0, 9.99879, 9.999998 
2.8539205e+3, 3.243382e+2, -211731.47, -155086.11, 50077.426, 0.22740585, 0.06619121, -125876.86, -125876.86, 0.0, 9.998778, 9.999522 
2.8661224e+3, 1.3448234e+2, -1384650.9, -1643343.4, 29680.57, -0.04404491, -0.0026603998, -1381289.1, 240784.73, 0.0, 10.002654, 9.999209 
2.866006e+3, 1.4448112e+2, -1310096.0, -1561409.9, 20063.455, 0.006609056, 0.025983838, -1308504.4, 215582.25, 0.0, 10.002516, 9.999165 
2.865889e+3, 1.5447953e+2, -1231426.6, -1467472.4, 68494.81, 0.021087585, 0.019997418, -1212990.9, 213111.53, 0.0, 10.002373, 9.9992 
2.8657728e+3, 1.64478e+2, -1168521.9, -1399085.9, 82659.98, 0.027971517, 0.020112589, -1141949.6, 186168.78, 0.0, 10.002188, 9.999085 
2.865657e+3, 1.7447647e+2, -1107788.8, -1315917.3, 110352.3, -0.0011811424, 0.028548935, -1060172.4, 169962.3, 0.0, 10.001926, 9.999105 
2.8655416e+3, 1.8447514e+2, -1031279.06, -1219020.0, 110177.71, -0.01315655, 0.05196165, -980405.7, 151743.5, 0.0, 10.0017395, 9.999187 
2.8654262e+3, 1.9447407e+2, -947217.25, -1123378.3, 126679.72, 0.0124160005, 0.093755476, -881006.06, 153155.55, 0.0, 10.00163, 9.999222 
2.8653115e+3, 2.0447277e+2, -863698.0, -1017862.06, 133637.5, 0.02861026, 0.10527828, -786505.56, 149669.58, 0.0, 10.001469, 9.999351 
2.8651965e+3, 2.1447116e+2, -797174.44, -931330.7, 140381.89, 0.023321662, 0.07836806, -708668.06, 129522.16, 0.0, 10.001239, 9.999381 
2.8650814e+3, 2.2446966e+2, -743533.4, -871874.0, 132523.97, 0.030670153, 0.06762819, -660460.94, 79743.86, 0.0, 10.001009, 9.999228 
2.8649667e+3, 2.3446828e+2, -679140.56, -789261.56, 134263.1, 0.058809, 0.077392764, -589086.5, 53132.363, 0.0, 10.000773, 9.999235 
2.8648514e+3, 2.4446698e+2, -613106.4, -697892.06, 136321.4, 0.07309554, 0.09157608, -512738.3, 31493.916, 0.0, 10.000517, 9.999313 
2.8647357e+3, 2.5446582e+2, -554521.9, -615629.44, 122938.02, 0.068008155, 0.110934384, -458397.75, -12153.054, 0.0, 10.000229, 9.999346 
2.8646198e+3, 2.6446444e+2, -489564.63, -534446.2, 101982.48, 0.08227538, 0.1121639, -407583.13, -59324.816, 0.0, 10.000006, 9.999338 
2.864504e+3, 2.7446288e+2, -406755.4, -436781.16, 87502.52, 0.12008229, 0.09044334, -332987.22, -82714.03, 0.0, 9.9998665, 9.999405 
2.8643873e+3, 2.8446156e+2, -341581.88, -349261.84, 88681.29, 0.13703957, 0.08333293, -256657.47, -104371.31, 0.0, 9.999618, 9.999453 
2.86427e+3, 2.9446042e+2, -284008.63, -265808.2, 69683.9, 0.12594195, 0.09432533, -204632.81, -150336.17, 0.0, 9.999313, 9.999502 
2.8641528e+3, 3.0445912e+2, -194074.3, -146296.19, 52739.902, 0.14035793, 0.07669554, -112287.19, -112287.19, 0.0, 9.999148, 9.999729 
2.8640363e+3, 3.1445763e+2, -124058.9, -70545.016, 13266.87, 0.25808576, 0.010982605, -67436.53, -67436.53, 0.0, 9.999212, 9.999887 
2.863918e+3, 3.244566e+2, -157670.83, -161507.98, 76457.71, 0.13334025, 0.06036079, -83107.625, -83107.625, 0.0, 9.999293, 9.999228 
2.8761244e+3, 1.3459995e+2, -1371699.4, -1625214.9, 25260.078, -0.04422943, -0.012888527, -1369207.0, 251713.63, 0.0, 10.00269, 9.999317 
2.8760076e+3, 1.445989e+2, -1299985.5, -1538729.5, 16152.79, 0.004900707, 0.019333987, -1298897.6, 224034.05, 0.0, 10.002506, 9.999326 
2.8758907e+3, 1.5459758e+2, -1222330.5, -1448204.5, 64432.05, -0.005148054, 0.023115339, -1205243.5, 219702.0, 0.0, 10.00237, 9.999334 
2.8757745e+3, 1.645962e+2, -1158413.3, -1379052.5, 73905.16, 0.01497316, 0.02764692, -1135945.9, 191013.89, 0.0, 10.00219, 9.999223 
2.8756586e+3, 1.7459479e+2, -1096900.6, -1296302.4, 100558.0, 0.04468923, 0.033322554, -1054995.8, 173978.97, 0.0, 10.001938, 9.999235 
2.875543e+3, 1.8459342e+2, -1025145.1, -1209236.1, 105873.86, 0.030042728, 0.042984217, -976899.3, 154089.81, 0.0, 10.001751, 9.99925 
2.875427e+3, 1.9459213e+2, -943065.4, -1115864.1, 122698.84, -0.021024356, 0.057609174, -879398.56, 153604.27, 0.0, 10.001633, 9.999272 
2.8753117e+3, 2.045909e+2, -860042.5, -1010351.2, 125536.79, -0.015770806, 0.06997864, -788883.25, 146132.44, 0.0, 10.001468, 9.999404 
2.8751972e+3, 2.1458969e+2, -793981.0, -924999.06, 131714.63, 0.046437867, 0.0784924, -712384.06, 124643.78, 0.0, 10.001238, 9.999426 
2.8750822e+3, 2.2458845e+2, -730444.5, -845418.56, 123641.164, 0.06828142, 0.08310661, -651579.44, 87460.766, 0.0, 10.00101, 9.99941 
2.8749666e+3, 2.3458716e+2, -666708.6, -764373.8, 125277.28, 0.047532063, 0.08372071, -581083.0, 59969.99, 0.0, 10.000775, 9.999406 
2.874851e+3, 2.4458583e+2, -611719.75, -695529.3, 125792.34, 0.048107404, 0.083843485, -521035.97, 22030.516, 0.0, 10.000517, 9.9993305 
2.8747353e+3, 2.5458443e+2, -556920.4, -620689.7, 110853.53, 0.07197419, 0.08321537, -473457.13, -28376.295, 0.0, 10.000227, 9.999313 
2.8746194e+3, 2.645831e+2, -480135.0, -515275.88, 96733.02, 0.09914122, 0.0821547, -399389.63, -52295.582, 0.0, 10.000005, 9.999471 
2.874503e+3, 2.7458188e+2, -398915.28, -422024.63, 81552.94, 0.12951903, 0.08004569, -328102.53, -78996.62, 0.0, 9.99987, 9.999506 
2.874386e+3, 2.8458068e+2, -341773.56, -351588.53, 75275.18, 0.12980229, 0.086275004, -271246.06, -120128.79, 0.0, 9.999623, 9.999435 
2.8742683e+3, 2.945796e+2, -285770.94, -269585.25, 60841.926, 0.09401549, 0.10060446, -216300.28, -163172.5, 0.0, 9.999312, 9.999477 
2.8741515e+3, 3.0457813e+2, -221908.64, -203952.1, 49999.066, 0.14597008, 0.08747651, -162131.58, -162131.58, 0.0, 9.999147, 9.999334 
2.8740358e+3, 3.1457633e+2, -159785.67, -145506.55, 15209.462, 0.36489838, 0.040660195, -135844.3, -135844.3, 0.0, 9.999216, 9.999371 
2.873916e+3, 3.2457522e+2, -71970.8, 21020.496, 87332.59, 0.076532915, 0.04231356, 73463.35, 73463.35, 0.0, 9.999275, 10.00049 
2.8861263e+3, 1.3471797e+2, -1385744.4, -1611196.9, 20108.607, -0.056126162, -0.014044865, -1383965.0, 235798.84, 0.0, 10.002505, 9.999502 
2.8860092e+3, 1.4471695e+2, -1361925.6, -1553283.5, 32462.742, 0.00091049256, 0.005778141, -1356568.5, 165205.52, 0.0, 10.002016, 9.999462 
2.885892e+3, 1.5471584e+2, -1271928.6, -1460047.6, 79344.9, -0.0034469056, 0.019359423, -1242932.0, 180853.97, 0.0, 10.001978, 9.999441 
2.885776e+3, 1.647146e+2, -1194609.9, -1392994.6, 82448.06, 0.014456075, 0.030595358, -1164818.5, 160980.83, 0.0, 10.001927, 9.999252 
2.88566e+3, 1.7471322e+2, -1108188.9, -1298644.0, 101871.85, 0.0348637, 0.039077118, -1063966.9, 163847.25, 0.0, 10.001847, 9.999262 
2.885544e+3, 1.8471187e+2, -1021618.06, -1189170.5, 106566.41, 0.0221209, 0.039028086, -969840.4, 159987.67, 0.0, 10.001697, 9.9994135 
2.885428e+3, 1.947105e+2, -956549.8, -1103882.5, 130211.305, -0.017125519, 0.02999839, -880610.94, 151230.22, 0.0, 10.001462, 9.999436 
2.8853124e+3, 2.047093e+2, -889137.3, -1018231.06, 135627.95, -0.010034389, 0.036646064, -803480.2, 130373.05, 0.0, 10.001243, 9.999457 
2.8851977e+3, 2.147083e+2, -819986.1, -931657.94, 141627.89, 0.04501608, 0.060400974, -723585.06, 112279.2, 0.0, 10.001037, 9.999476 
2.8850827e+3, 2.2470723e+2, -743263.75, -838406.3, 132646.53, 0.06473171, 0.074368045, -649916.2, 87959.15, 0.0, 10.000867, 9.999525 
2.8849664e+3, 2.3470607e+2, -663712.25, -749067.1, 129212.35, 0.045437064, 0.0767745, -570311.75, 69574.99, 0.0, 10.000739, 9.999527 
2.8848508e+3, 2.447048e+2, -604202.8, -677964.6, 126877.75, 0.04675169, 0.072783224, -508954.38, 32944.934, 0.0, 10.000512, 9.999452 
2.884735e+3, 2.547034e+2, -558405.0, -609656.94, 120248.49, 0.07198857, 0.061465453, -461082.22, -17168.906, 0.0, 10.000171, 9.9994135 
2.884619e+3, 2.6470217e+2, -472844.16, -499186.22, 119828.586, 0.09939555, 0.059217285, -365464.94, -19539.273, 0.0, 10.000008, 9.999577 
2.8845024e+3, 2.7470112e+2, -377764.84, -406738.16, 96940.836, 0.12741707, 0.067409135, -294234.22, -46298.023, 0.0, 10.0, 9.999545 
2.884385e+3, 2.847e+2, -315276.7, -327944.3, 80928.76, 0.12873955, 0.07894638, -240434.27, -90487.57, 0.0, 9.999764, 9.999526 
2.884267e+3, 2.9469892e+2, -261401.45, -265434.13, 81376.92, 0.09773811, 0.09343788, -182015.89, -130058.74, 0.0, 9.999523, 9.999399 
2.88415e+3, 3.0469736e+2, -175379.7, -217433.84, 83470.89, 0.14774185, 0.08723566, -110328.164, -110328.164, 0.0, 9.99963, 9.999005 
2.8840348e+3, 3.1469512e+2, -81021.58, -174993.48, 51037.316, 0.3598524, 0.046846434, -58635.438, -58635.438, 0.0, 10.00005, 9.998766 
2.883915e+3, 3.2469356e+2, 46496.336, 70337.53, 37797.063, 0.08417356, 0.047650706, 98049.23, 98049.23, 0.0, 10.000119, 10.000425 
2.896128e+3, 1.3483627e+2, -1372937.4, -1579564.8, -12999.017, -0.07567762, -0.010493083, -1372122.9, 246481.4, 0.0, 10.002482, 9.999731 
2.8960106e+3, 1.448352e+2, -1347971.5, -1534363.3, 31803.85, -0.0041906885, -0.012257028, -1342694.3, 177920.0, 0.0, 10.002059, 9.999572 
2.8958935e+3, 1.5483427e+2, -1263361.3, -1446880.5, 77929.08, 0.018630361, 0.010922005, -1234735.0, 187889.47, 0.0, 10.001997, 9.999523 
2.8957772e+3, 1.6483313e+2, -1197629.8, -1400795.8, 80342.695, 0.021337898, 0.030268902, -1169698.1, 154939.16, 0.0, 10.001933, 9.999197 
2.8956604e+3, 1.7483178e+2, -1111721.3, -1306791.5, 99674.76, -0.019966006, 0.04553319, -1069799.6, 156853.08, 0.0, 10.001849, 9.999207 
2.8955445e+3, 1.8483044e+2, -1004265.25, -1153413.1, 99106.89, -0.024705173, 0.039116662, -954809.2, 173856.75, 0.0, 10.001697, 9.99966 
2.895429e+3, 1.9482912e+2, -938425.06, -1066877.8, 121592.89, 0.02079209, 0.009775053, -865138.3, 165538.5, 0.0, 10.001463, 9.999691 
2.8953135e+3, 2.0482796e+2, -885556.25, -1011752.3, 127941.695, 0.037316423, 0.004558911, -805999.3, 126688.62, 0.0, 10.0012455, 9.999501 
2.895198e+3, 2.1482697e+2, -815804.3, -924084.6, 133707.28, 0.018443964, 0.024747277, -725691.94, 109007.555, 0.0, 10.0010395, 9.999528 
2.8950822e+3, 2.2482598e+2, -740053.44, -832446.0, 127612.93, 0.02313366, 0.042383805, -650532.5, 86177.63, 0.0, 10.000869, 9.999566 
2.894967e+3, 2.3482499e+2, -659316.25, -740705.56, 124118.984, 0.054208953, 0.056848362, -569390.94, 69329.29, 0.0, 10.000741, 9.999585 
2.894851e+3, 2.4482393e+2, -588479.06, -645695.06, 113617.89, 0.06900247, 0.058701564, -499922.88, 40807.813, 0.0, 10.000512, 9.999674 
2.8947344e+3, 2.5482276e+2, -542564.8, -576475.6, 107156.92, 0.066598326, 0.046859387, -451030.2, -8288.161, 0.0, 10.000168, 9.999643 
2.894618e+3, 2.6482162e+2, -470146.8, -493958.13, 121416.55, 0.080551945, 0.044098083, -360053.6, -15300.487, 0.0, 10.000008, 9.999613 
2.8945014e+3, 2.7482054e+2, -381205.6, -416392.16, 92357.82, 0.11126153, 0.05165806, -304780.3, -58015.836, 0.0, 10.000007, 9.999477 
2.8943843e+3, 2.8481945e+2, -299505.7, -298313.9, 62691.316, 0.13658248, 0.05841055, -236215.66, -87440.47, 0.0, 9.999774, 9.999727 
2.8942665e+3, 2.9481837e+2, -270636.2, -283348.0, 83385.39, 0.15092026, 0.06719962, -193364.81, -142579.28, 0.0, 9.999521, 9.999275 
2.8941488e+3, 3.0481678e+2, -188845.44, -242703.9, 97302.51, 0.14001873, 0.065570034, -114814.48, -114814.48, 0.0, 9.999622, 9.998834 
2.8940323e+3, 3.1481397e+2, -123143.25, -262896.53, 67529.89, 0.18618575, 0.013995665, -95844.63, -95844.63, 0.0, 10.000053, 9.998159 
2.8939158e+3, 3.2481158e+2, -104923.57, -241331.72, 8610.724, 0.21375081, 0.0972727, -104382.164, -104382.164, 0.0, 10.000108, 9.998289 
2.9061297e+3, 1.3495457e+2, -1444889.8, -1605373.1, -8095.1787, -0.06278511, -0.025047716, -1444482.5, 172961.61, 0.0, 10.00195, 9.99981 
2.9060113e+3, 1.4495371e+2, -1344429.1, -1525506.9, 33585.16, -0.029275268, -0.012934605, -1338400.6, 181051.55, 0.0, 10.002052, 9.999636 
2.9058948e+3, 1.5495281e+2, -1281404.9, -1450743.3, 75368.42, 0.009830046, 0.0059944177, -1252719.5, 168742.83, 0.0, 10.001851, 9.999567 
2.9057783e+3, 1.6495173e+2, -1223608.5, -1401505.4, 84353.82, 0.019154666, 0.023990894, -1189970.8, 133503.86, 0.0, 10.001702, 9.999304 
2.9056618e+3, 1.7495048e+2, -1139033.6, -1307627.6, 113298.484, -0.025670234, 0.04100616, -1082112.6, 143376.4, 0.0, 10.001608, 9.999317 
2.9055455e+3, 1.8494925e+2, -1028525.5, -1152147.4, 110294.04, -0.030489491, 0.032837596, -963903.2, 163597.9, 0.0, 10.001473, 9.999776 
2.9054296e+3, 1.9494799e+2, -954339.3, -1060976.5, 123460.84, 0.020250307, -0.0013946329, -873175.75, 156335.1, 0.0, 10.001294, 9.999813 
2.9053143e+3, 2.0494692e+2, -898692.1, -1013470.75, 127119.96, 0.038346812, -0.005612677, -816607.4, 114913.6, 0.0, 10.001134, 9.999543 
2.9051983e+3, 2.1494603e+2, -818384.94, -918305.9, 132949.64, 0.014441128, 0.020539768, -726318.44, 107213.3, 0.0, 10.000991, 9.999592 
2.9050824e+3, 2.249451e+2, -746843.56, -821851.5, 128512.65, 0.02013771, 0.034707583, -650474.25, 85067.57, 0.0, 10.000762, 9.999691 
2.9049668e+3, 2.3494412e+2, -691810.25, -738958.1, 131605.16, 0.06034623, 0.037540365, -581684.4, 55867.0, 0.0, 10.000443, 9.999741 
2.9048505e+3, 2.4494319e+2, -611988.6, -643042.7, 122852.055, 0.075187095, 0.03903628, -503686.28, 35874.094, 0.0, 10.000292, 9.999798 
2.904734e+3, 2.5494227e+2, -510378.97, -539971.9, 109806.81, 0.06265173, 0.03735501, -414376.16, 27193.115, 0.0, 10.000301, 9.999829 
2.9046172e+3, 2.6494133e+2, -443137.63, -463735.72, 127545.52, 0.069896474, 0.03629734, -325476.03, 18102.666, 0.0, 10.000123, 9.9997635 
2.9045004e+3, 2.7494037e+2, -402936.9, -399088.1, 111272.375, 0.09791135, 0.037282906, -289723.5, -44134.56, 0.0, 9.999745, 9.999719 
2.9043832e+3, 2.8493953e+2, -291300.8, -261501.83, 101688.46, 0.13774389, 0.039753623, -173627.11, -26029.527, 0.0, 9.999702, 10.000008 
2.9042655e+3, 2.949388e+2, -301799.94, -226055.39, 116703.43, 0.17424454, 0.045805622, -141232.92, -91629.08, 0.0, 9.999013, 9.999904 
2.916131e+3, 1.3507292e+2, -1446455.8, -1608148.5, 5111.1914, -0.031959403, -0.0490126, -1446294.4, 169988.9, 0.0, 10.001947, 9.999792 
2.9160124e+3, 1.4507243e+2, -1344477.3, -1521785.5, 28220.627, -0.06817853, -0.0023826652, -1340094.0, 178194.64, 0.0, 10.002035, 9.99967 
2.915896e+3, 1.550714e+2, -1280200.8, -1448520.6, 67811.87, -0.021083748, 0.002931145, -1256280.4, 164019.25, 0.0, 10.001851, 9.999583 
2.9157794e+3, 1.6507034e+2, -1206563.9, -1367487.9, 81894.336, 0.011680228, 0.013179797, -1172218.1, 150093.17, 0.0, 10.001708, 9.999536 
2.9156628e+3, 1.7506933e+2, -1121925.0, -1272540.0, 109119.24, 0.008091915, 0.02799338, -1064649.6, 159673.72, 0.0, 10.001609, 9.999558 
2.9155463e+3, 1.8506823e+2, -1028491.6, -1152272.6, 103730.21, -0.005606447, 0.021924598, -969591.4, 156742.64, 0.0, 10.001472, 9.999776 
2.91543e+3, 1.9506706e+2, -953274.5, -1059696.5, 116461.88, -0.015204438, -0.004513385, -878443.4, 149900.14, 0.0, 10.001297, 9.999822 
2.915314e+3, 2.0506614e+2, -895280.06, -1006911.75, 122160.086, 0.00074939075, 0.0038915596, -816788.44, 113564.1, 0.0, 10.001135, 9.999589 
2.9151988e+3, 2.1506548e+2, -813273.2, -907683.56, 127253.57, 0.033366226, 0.045968097, -724751.44, 107609.82, 0.0, 10.000989, 9.999666 
2.915083e+3, 2.2506459e+2, -732740.2, -792735.56, 116556.41, 0.052448157, 0.05015138, -642383.2, 91987.266, 0.0, 10.000761, 9.999891 
2.9149666e+3, 2.350635e+2, -674199.75, -702627.06, 119172.414, 0.062224682, 0.018098291, -568396.4, 67983.84, 0.0, 10.0004425, 9.99999 
2.91485e+3, 2.4506262e+2, -611046.44, -642067.56, 123498.61, 0.065289095, 0.013400541, -502088.2, 36300.227, 0.0, 10.000295, 9.9998045 
2.9147333e+3, 2.5506198e+2, -500486.1, -522426.7, 109228.13, 0.060801215, 0.03377764, -401678.72, 38716.5, 0.0, 10.000312, 9.999945 
2.9146168e+3, 2.650613e+2, -422785.78, -424882.78, 112227.81, 0.06769031, 0.037041195, -311601.56, 30800.914, 0.0, 10.000135, 10.000026 
2.9144996e+3, 2.7506056e+2, -365690.34, -321105.63, 95774.83, 0.08746131, 0.024494529, -245063.0, -653.3688, 0.0, 9.999741, 10.0002575 
2.9143822e+3, 2.8506008e+2, -272013.1, -222580.61, 114421.19, 0.12840898, 0.023003723, -130236.61, 16177.565, 0.0, 9.999706, 10.000275 
2.9142633e+3, 2.950602e+2, -201220.42, -41864.86, 45698.47, 0.15716493, 0.032186933, -29690.047, 18722.752, 0.0, 9.999092, 10.001145 
2.926132e+3, 1.3519147e+2, -1508512.1, -1636060.4, 7450.997, -0.039898507, -0.04943389, -1508078.3, 107042.555, 0.0, 10.001513, 9.999811 
2.9260135e+3, 1.4519098e+2, -1405491.6, -1541953.9, 25887.162, -0.08227031, -0.007396252, -1400745.9, 116380.62, 0.0, 10.001575, 9.999754 
2.9258966e+3, 1.5518986e+2, -1314057.8, -1457481.4, 65586.05, -0.02408915, -0.018491335, -1288588.8, 130549.03, 0.0, 10.001585, 9.999651 
2.92578e+3, 1.6518892e+2, -1227231.1, -1365477.9, 77850.445, 0.011153852, -0.005375907, -1192245.3, 128902.97, 0.0, 10.001512, 9.999645 
2.9256636e+3, 1.7518821e+2, -1146477.0, -1270840.1, 96403.99, 0.0033130958, 0.028930195, -1093940.3, 129217.086, 0.0, 10.001378, 9.999682 
2.9255468e+3, 1.8518731e+2, -1052576.3, -1154436.5, 90998.24, -0.012384696, 0.030631496, -999225.25, 125941.17, 0.0, 10.001264, 9.999864 
2.9254305e+3, 1.9518621e+2, -965470.56, -1055436.6, 108716.27, -0.02404893, 0.002809122, -892798.6, 134376.78, 0.0, 10.001166, 9.999915 
2.9253143e+3, 2.0518534e+2, -909439.25, -1002511.8, 117506.77, -0.0038457166, 0.0051434943, -829589.3, 99594.586, 0.0, 10.000986, 9.999692 
2.925199e+3, 2.1518466e+2, -842569.06, -908080.25, 125731.42, 0.04053387, 0.03588032, -745396.5, 85795.52, 0.0, 10.000725, 9.999792 
2.9250827e+3, 2.2518384e+2, -753513.44, -796119.1, 114126.68, 0.06165734, 0.036148414, -658718.44, 74482.07, 0.0, 10.0005865, 9.999955 
2.9249662e+3, 2.3518285e+2, -650490.5, -679584.25, 105479.76, 0.06353892, 0.006411422, -558559.25, 76650.06, 0.0, 10.000551, 10.000099 
2.92485e+3, 2.451821e+2, -589633.06, -619868.9, 111163.85, 0.06573204, 0.0012965819, -492563.84, 44652.613, 0.0, 10.000385, 9.999915 
2.9247332e+3, 2.5518158e+2, -517819.66, -510319.47, 102976.61, 0.06741222, 0.020417735, -411024.7, 28197.11, 0.0, 10.000099, 10.0001335 
2.924616e+3, 2.6518106e+2, -442859.5, -417491.8, 101733.62, 0.07314447, 0.025182746, -327654.38, 13572.792, 0.0, 9.999917, 10.000185 
2.9244986e+3, 2.7518064e+2, -333505.5, -273285.53, 70752.195, 0.08494551, 0.015094657, -226502.84, 16728.998, 0.0, 9.999813, 10.000556 
2.9243812e+3, 2.8518036e+2, -275563.25, -204425.47, 88425.24, 0.11994214, 0.01023939, -144683.44, 550.78284, 0.0, 9.999582, 10.000466 
2.924262e+3, 2.951806e+2, -79512.74, 36585.656, -39058.08, 0.13823503, 0.012123494, 48502.473, 95733.93, 0.0, 9.999808, 10.001358 
2.9361326e+3, 1.353101e+2, -1508686.0, -1631144.9, 8020.044, -0.07065001, -0.035650708, -1508163.0, 105794.6, 0.0, 10.00149, 9.999855 
2.9360145e+3, 1.453094e+2, -1398174.8, -1525331.4, 27782.492, -0.079626195, -0.022759506, -1392369.5, 123595.79, 0.0, 10.001569, 9.99987 
2.9358977e+3, 1.553082e+2, -1306390.8, -1442364.5, 64016.92, -0.0073997844, -0.052844662, -1280994.6, 136981.97, 0.0, 10.001588, 9.999754 
2.935781e+3, 1.6530745e+2, -1225565.0, -1362258.1, 73335.945, 0.014313793, -0.028995669, -1193664.8, 126320.57, 0.0, 10.001513, 9.999667 
2.9356638e+3, 1.7530712e+2, -1144203.8, -1265267.1, 91028.42, -0.032649364, 0.04103166, -1095418.3, 126573.125, 0.0, 10.001373, 9.999723 
2.9355472e+3, 1.8530644e+2, -1041718.0, -1131167.5, 88167.11, -0.043053694, 0.054755833, -987580.56, 136417.89, 0.0, 10.00126, 10.000026 
2.935431e+3, 1.9530544e+2, -953566.2, -1030976.75, 104366.27, -0.008836839, 0.018625103, -880959.2, 145047.45, 0.0, 10.001166, 10.000084 
2.935315e+3, 2.0530449e+2, -898312.5, -979769.25, 107871.23, 0.018860431, -0.0018674638, -823736.94, 104278.32, 0.0, 10.000986, 9.999848 
2.9351988e+3, 2.153036e+2, -830306.0, -883203.7, 115335.33, 0.03534963, -0.008096917, -738425.75, 91598.42, 0.0, 10.000726, 9.999964 
2.935083e+3, 2.2530286e+2, -757759.25, -805706.1, 113191.47, 0.049666442, -0.005538533, -666030.4, 66001.54, 0.0, 10.000588, 9.999888 
2.9349664e+3, 2.3530221e+2, -651518.56, -682844.3, 103102.15, 0.065004736, 0.003949562, -562896.3, 71142.24, 0.0, 10.000554, 10.000076 
2.9348496e+3, 2.453016e+2, -572990.06, -586924.6, 100456.49, 0.0763933, 0.0036113537, -479259.5, 56784.81, 0.0, 10.00039, 10.00014 
2.9347327e+3, 2.553011e+2, -498224.34, -470278.78, 91778.19, 0.08305929, -0.0042827874, -391415.84, 46633.074, 0.0, 10.000099, 10.00041 
2.9346156e+3, 2.6530072e+2, -438201.5, -409171.03, 99432.84, 0.087620445, -0.0012625701, -323199.53, 16853.104, 0.0, 9.999921, 10.000241 
2.934498e+3, 2.7530053e+2, -325696.28, -262563.34, 65699.586, 0.09201511, 0.01023479, -221240.31, 20814.9, 0.0, 9.999834, 10.000621 
2.93438e+3, 2.8530034e+2, -261276.73, -180075.14, 74799.41, 0.11169738, 0.0023651542, -135567.92, 8489.506, 0.0, 9.999602, 10.000626 
2.9342607e+3, 2.9530033e+2, -130851.14, -58867.504, -13412.662, 0.113394946, 0.0020796896, -56449.55, -10391.884, 0.0, 9.999771, 10.000714 
2.946133e+3, 1.3542844e+2, -1569554.3, -1651703.3, -4050.2336, -0.092647344, -0.02453213, -1569355.1, 43442.15, 0.0, 10.001032, 9.999936 
2.946015e+3, 1.4542772e+2, -1433984.4, -1528844.9, 15885.706, -0.104729354, -0.025013212, -1431394.8, 83410.445, 0.0, 10.001262, 9.999996 
2.9458985e+3, 1.5542662e+2, -1327889.1, -1439673.0, 48127.98, -0.0136446105, -0.05687189, -1310023.3, 106791.89, 0.0, 10.00138, 9.999874 
2.9457816e+3, 1.6542587e+2, -1245444.6, -1357236.6, 54761.8, 0.012690549, -0.04515454, -1223089.6, 95733.63, 0.0, 10.001308, 9.999802 
2.9456642e+3, 1.7542548e+2, -1171668.9, -1263602.3, 78466.19, -0.037789904, 0.0049153995, -1126696.8, 94132.42, 0.0, 10.001116, 9.999862 
2.9455477e+3, 1.854249e+2, -1073005.5, -1141583.5, 80176.016, -0.046093877, 0.018072562, -1020093.94, 102741.57, 0.0, 10.0010195, 10.0000725 
2.9454318e+3, 1.9542411e+2, -973262.94, -1034855.8, 87539.01, -0.0051185624, -0.0015295757, -911261.2, 113581.26, 0.0, 10.001001, 10.00014 
2.9453155e+3, 2.054233e+2, -901352.8, -965493.8, 82107.92, 0.02441725, -0.01854861, -845274.4, 81575.26, 0.0, 10.000892, 9.999995 
2.945199e+3, 2.154225e+2, -822407.25, -862829.7, 88329.68, 0.036918372, -0.03333834, -752005.94, 76851.06, 0.0, 10.000703, 10.000118 
2.9450825e+3, 2.2542185e+2, -760477.06, -807672.4, 94907.22, 0.049605433, -0.028700765, -686277.8, 44586.01, 0.0, 10.000566, 9.999889 
2.944966e+3, 2.3542133e+2, -663247.25, -687503.4, 87929.59, 0.06556738, -0.0071043507, -586613.25, 46256.707, 0.0, 10.000462, 10.0000925 
2.9448494e+3, 2.4542081e+2, -571217.3, -572096.9, 78735.27, 0.08097567, -0.008234095, -492920.56, 41954.523, 0.0, 10.000334, 10.000274 
2.9447323e+3, 2.554203e+2, -474591.8, -444324.25, 61542.47, 0.0950746, -0.029468894, -396082.13, 40796.99, 0.0, 10.000189, 10.00055 
2.944615e+3, 2.6542008e+2, -414097.16, -390263.66, 69974.375, 0.09767583, -0.02230043, -331198.56, 7682.735, 0.0, 10.000043, 10.0003195 
2.944497e+3, 2.7542016e+2, -299825.78, -249389.78, 39557.56, 0.092000455, 0.009321213, -227695.66, 13186.07, 0.0, 9.999993, 10.000643 
2.944379e+3, 2.854199e+2, -201138.78, -146650.05, 39702.81, 0.10519935, -0.008785574, -125742.9, 17141.613, 0.0, 9.999977, 10.000684 
2.94426e+3, 2.9541993e+2, -78004.61, -57403.72, -8234.858, 0.10390362, 0.0020582725, -54516.594, -9631.99, 0.0, 10.000231, 10.000506 
2.9561332e+3, 1.355465e+2, -1564438.5, -1637384.8, 7576.0557, -0.11119985, -0.016870916, -1563660.0, 47979.336, 0.0, 10.001017, 10.000042 
2.956015e+3, 1.455459e+2, -1427509.8, -1510911.0, 23644.35, -0.14797129, -0.018932689, -1421273.0, 92373.38, 0.0, 10.001244, 10.000128 
2.955899e+3, 1.5554504e+2, -1321905.3, -1421151.8, 50946.453, -0.03582197, -0.039448135, -1300408.9, 115244.9, 0.0, 10.001353, 10.000014 
2.955782e+3, 1.6554418e+2, -1232640.5, -1326312.8, 48104.145, 0.008547168, -0.057138253, -1212337.8, 105324.37, 0.0, 10.001289, 10.000023 
2.955665e+3, 1.7554341e+2, -1156146.0, -1232361.4, 70921.875, -0.018103356, -0.06961683, -1113742.1, 105928.125, 0.0, 10.00112, 10.000074 
2.9555482e+3, 1.8554279e+2, -1075545.1, -1147833.9, 79495.45, -0.028027438, -0.06663414, -1024362.9, 97314.03, 0.0, 10.001023, 10.000029 
2.955432e+3, 1.9554229e+2, -976923.9, -1040322.1, 85515.91, -0.012304729, -0.05101792, -917421.0, 106261.31, 0.0, 10.000991, 10.000108 
2.9553154e+3, 2.055418e+2, -892225.8, -944638.4, 75150.72, 0.01562698, -0.042443875, -838843.2, 86843.68, 0.0, 10.000882, 10.000144 
2.955199e+3, 2.1554133e+2, -811964.94, -841468.7, 80682.97, 0.04516267, -0.039912604, -744696.3, 82994.29, 0.0, 10.000703, 10.000265 
2.9550827e+3, 2.255408e+2, -755222.2, -797241.0, 91264.54, 0.059811678, -0.034387913, -682580.06, 47116.23, 0.0, 10.0005665, 9.999962 
2.9549658e+3, 2.3554021e+2, -658428.2, -678045.9, 83153.31, 0.06446874, -0.027819922, -584507.2, 47196.33, 0.0, 10.000463, 10.000158 
2.954849e+3, 2.4553968e+2, -567295.4, -564349.5, 73508.64, 0.07929997, -0.035404213, -492299.03, 41409.797, 0.0, 10.000334, 10.000328 
2.9547316e+3, 2.555392e+2, -472183.8, -440647.25, 56019.387, 0.102920435, -0.055019446, -398219.22, 37493.12, 0.0, 10.000193, 10.000575 
2.9546142e+3, 2.655392e+2, -403203.1, -369958.72, 64631.53, 0.10185645, -0.036422778, -319846.1, 17866.672, 0.0, 10.000051, 10.000456 
2.954496e+3, 2.7553955e+2, -297672.75, -244841.25, 41948.664, 0.08277355, 0.0133372, -221684.0, 18026.803, 0.0, 9.999993, 10.000673 
2.954378e+3, 2.8553915e+2, -201535.52, -145557.94, 38788.844, 0.10042476, -0.025563953, -125714.234, 16000.551, 0.0, 9.9999695, 10.000695 
2.9542595e+3, 2.9553902e+2, -60151.49, -15072.255, 12187.893, 0.10405479, -0.033046786, -11988.073, 31727.023, 0.0, 10.0002165, 10.0008 
2.966133e+3, 1.3566382e+2, -1600289.9, -1641849.4, 13312.436, -0.12125523, -0.0834683, -1596391.3, 14096.972, 0.0, 10.000713, 10.000158 
2.9660153e+3, 1.456636e+2, -1469731.4, -1521103.1, 22967.848, -0.14447503, -0.05537795, -1460960.3, 51531.008, 0.0, 10.000906, 10.000221 
2.965899e+3, 1.5566297e+2, -1380056.3, -1439948.5, 43178.21, -0.047153007, -0.064479895, -1357456.0, 57041.063, 0.0, 10.00091, 10.000102 
2.9657826e+3, 1.656623e+2, -1276201.1, -1336629.0, 34476.867, 0.0012530527, -0.07148872, -1260572.5, 55930.523, 0.0, 10.000939, 10.000124 
2.9656655e+3, 1.756617e+2, -1160477.3, -1224316.4, 49139.97, -0.012973949, -0.078615494, -1133800.0, 84708.9, 0.0, 10.00104, 10.000172 
2.9655486e+3, 1.8566117e+2, -1092002.5, -1161939.0, 50127.176, -0.021807702, -0.07035137, -1065851.9, 54662.984, 0.0, 10.00093, 9.99998 
2.9654318e+3, 1.956607e+2, -1029290.75, -1069262.0, 56027.43, -0.013180102, -0.049477823, -989791.1, 32729.771, 0.0, 10.00064, 10.000082 
2.9653153e+3, 2.056602e+2, -929394.2, -954672.44, 49271.79, 0.008962227, -0.04585168, -891166.25, 33359.438, 0.0, 10.0005865, 10.000221 
2.965199e+3, 2.1565968e+2, -802829.06, -828633.5, 49581.49, 0.035326473, -0.05507489, -764498.56, 62030.715, 0.0, 10.000721, 10.000348 
2.9650822e+3, 2.2565924e+2, -736984.06, -775856.2, 54556.98, 0.050133534, -0.05112508, -698504.44, 30029.672, 0.0, 10.000628, 10.000083 
2.9649657e+3, 2.3565882e+2, -665543.8, -669984.0, 50222.03, 0.05858951, -0.03804561, -617492.8, 13047.054, 0.0, 10.000355, 10.00027 
2.9648486e+3, 2.4565844e+2, -570204.56, -553024.06, 50440.78, 0.07666086, -0.044051763, -510447.28, 22096.578, 0.0, 10.00025, 10.000451 
2.9647312e+3, 2.5565806e+2, -453907.9, -426839.72, 37704.508, 0.10130074, -0.06421189, -400313.8, 34232.51, 0.0, 10.000286, 10.000629 
2.9646137e+3, 2.656581e+2, -371776.1, -344267.2, 43083.676, 0.10221876, -0.049319718, -312795.7, 23750.523, 0.0, 10.00021, 10.000562 
2.9644957e+3, 2.7565843e+2, -280402.34, -239963.56, 25086.244, 0.0860909, -0.00686539, -227962.72, 10581.569, 0.0, 10.000117, 10.000652 
2.9643777e+3, 2.8565803e+2, -167619.25, -136633.1, 17835.426, 0.104160234, -0.045266587, -128501.23, 12047.373, 0.0, 10.000223, 10.00064 
2.964259e+3, 2.95658e+2, -19693.584, -1060.8395, -7915.0234, 0.089983314, -0.036211696, 1847.4513, 44395.617, 0.0, 10.000507, 10.000762 
2.976133e+3, 1.3578066e+2, -1587660.8, -1621796.9, 17129.469, -0.122553885, -0.18950282, -1580547.5, 28793.9, 0.0, 10.000741, 10.000282 
2.9760158e+3, 1.4578101e+2, -1465196.0, -1510258.6, 20705.98, -0.111224085, -0.11658706, -1457126.8, 54212.24, 0.0, 10.000901, 10.0002985 
2.9758993e+3, 1.5578051e+2, -1377037.4, -1432768.8, 36834.375, -0.052640084, -0.11796665, -1358715.8, 54628.17, 0.0, 10.000906, 10.000154 
2.9757828e+3, 1.6578028e+2, -1277280.1, -1335132.0, 34410.313, -0.009640495, -0.08607423, -1261253.0, 54093.055, 0.0, 10.000923, 10.000141 
2.9756656e+3, 1.7578024e+2, -1164562.9, -1224380.5, 48895.01, -0.020076724, -0.03644319, -1137154.5, 80191.45, 0.0, 10.001004, 10.000189 
2.9755488e+3, 1.8577984e+2, -1098584.9, -1169905.8, 38747.01, -0.02492031, -0.0107082715, -1081586.1, 37764.582, 0.0, 10.000905, 9.999937 
2.975432e+3, 1.9577919e+2, -1029432.4, -1071161.3, 45438.832, -0.008362857, -0.0068904, -1000296.75, 21062.135, 0.0, 10.000647, 10.000066 
2.9753155e+3, 2.0577838e+2, -926003.6, -950127.75, 54690.676, 0.003458411, -0.03339508, -882060.6, 41305.844, 0.0, 10.000596, 10.000248 
2.9751986e+3, 2.1577756e+2, -800310.4, -823028.25, 53836.082, 0.0086063305, -0.07985669, -756647.94, 68724.945, 0.0, 10.000719, 10.000388 
2.975082e+3, 2.257772e+2, -725092.0, -749726.25, 44621.953, 0.02244405, -0.07809728, -691118.4, 36258.734, 0.0, 10.000622, 10.000266 
2.974965e+3, 2.3577726e+2, -654025.44, -645356.1, 40640.06, 0.048566747, -0.036490828, -608820.2, 20558.637, 0.0, 10.000351, 10.000442 
2.9748482e+3, 2.4577716e+2, -555660.44, -522926.56, 51187.754, 0.072032094, -0.031868376, -485552.8, 45827.1, 0.0, 10.000249, 10.000658 
2.9747307e+3, 2.557769e+2, -446133.8, -411096.94, 39561.543, 0.0885978, -0.05461316, -385348.63, 48032.074, 0.0, 10.000288, 10.000737 
2.974613e+3, 2.657768e+2, -365176.38, -330037.6, 36929.207, 0.0987597, -0.06174391, -306711.38, 28669.936, 0.0, 10.000207, 10.000661 
2.974495e+3, 2.7577683e+2, -285228.4, -247226.53, 26037.143, 0.10504277, -0.057255056, -233994.44, 3387.8142, 0.0, 10.000107, 10.0006075 
2.9743773e+3, 2.8577662e+2, -175878.13, -152374.56, 27157.879, 0.1172647, -0.06443759, -134534.88, 4850.363, 0.0, 10.000219, 10.000533 
2.9742587e+3, 2.957768e+2, -48740.973, -62009.23, 5258.9736, 0.07173478, -0.012240479, -46909.38, -5525.111, 0.0, 10.000514, 10.000338 
2.9861334e+3, 1.3589965e+2, -1569799.0, -1596534.6, -16173.471, -0.129273, -0.005804769, -1562184.0, 45990.164, 0.0, 10.0007925, 10.000431 
2.9860163e+3, 1.458996e+2, -1488534.5, -1522580.5, -24466.44, -0.08547282, 0.02257869, -1475751.6, 34424.21, 0.0, 10.000747, 10.000288 
2.9858994e+3, 1.5589842e+2, -1396125.3, -1441200.3, -14265.1, -0.07568481, -0.048080318, -1391990.1, 20198.094, 0.0, 10.0007715, 10.00016 
2.9857823e+3, 1.6589747e+2, -1306350.1, -1330134.4, -14864.827, -0.0621576, -0.098724015, -1299205.9, 14991.377, 0.0, 10.000642, 10.000312 
2.9856655e+3, 1.7589687e+2, -1239843.5, -1243455.4, 6390.3115, -0.044348877, -0.12485736, -1235008.8, -18806.682, 0.0, 10.000412, 10.000343 
2.985549e+3, 1.8589638e+2, -1153388.0, -1185389.1, 10167.26, -0.021103563, -0.123672225, -1150431.0, -32223.057, 0.0, 10.000481, 10.000036 
2.985432e+3, 1.95896e+2, -1001999.2, -1047034.9, 22713.115, 0.012974826, -0.10080326, -992533.56, 27680.258, 0.0, 10.000785, 10.000166 
2.9853156e+3, 2.0589563e+2, -885464.5, -909032.25, 39056.484, 0.039832152, -0.0992323, -856452.9, 65764.14, 0.0, 10.000778, 10.000445 
2.985199e+3, 2.158953e+2, -817770.94, -811246.3, 48300.594, 0.05072131, -0.11593773, -766097.94, 58120.23, 0.0, 10.000506, 10.000574 
2.9850823e+3, 2.2589536e+2, -753750.4, -755516.3, 39233.953, 0.059780817, -0.08496375, -715389.5, 10828.889, 0.0, 10.000384, 10.000343 
2.9849648e+3, 2.3589566e+2, -640661.5, -632649.9, 28488.742, 0.067857385, -0.025700433, -607886.7, 20331.307, 0.0, 10.00041, 10.000504 
2.9848477e+3, 2.4589558e+2, -545848.5, -511349.34, 30021.6, 0.07666328, -0.025058955, -493974.6, 36244.176, 0.0, 10.00028, 10.000727 
2.9847303e+3, 2.5589526e+2, -473853.22, -420451.56, 13699.379, 0.08943554, -0.0653804, -417142.25, 15077.988, 0.0, 10.000074, 10.000779 
2.984613e+3, 2.6589513e+2, -363660.94, -320655.16, 12114.941, 0.103823125, -0.08176325, -317477.2, 16743.758, 0.0, 10.0001745, 10.000744 
2.984495e+3, 2.7589515e+2, -230747.92, -219765.81, 6002.2593, 0.12014597, -0.081033036, -217121.84, 19099.707, 0.0, 10.000472, 10.000622 
2.9843768e+3, 2.8589523e+2, -126732.49, -121619.87, 16646.83, 0.13027646, -0.060949508, -107334.22, 30887.553, 0.0, 10.0005245, 10.000599 
2.9842585e+3, 2.958953e+2, -68487.5, -77804.77, 12895.175, 0.07317201, -0.028942028, -59435.25, -19212.137, 0.0, 10.000406, 10.000281 
2.996134e+3, 1.3601476e+2, -1660111.5, -1625069.5, 44760.8, -0.06989998, -0.17580585, -1594522.6, 12522.343, 0.0, 10.000101, 10.000571 
2.9960167e+3, 1.4601518e+2, -1516759.0, -1542710.6, 39173.355, -0.07312065, -0.10001787, -1488468.4, 20574.412, 0.0, 10.000574, 10.0002365 
2.9958993e+3, 1.5601484e+2, -1329371.8, -1412845.6, 50950.734, -0.08712449, -0.0802813, -1305245.6, 105802.086, 0.0, 10.001236, 10.000136 
2.9957822e+3, 1.660147e+2, -1231301.5, -1267520.9, 34337.195, -0.07594683, -0.062313933, -1210591.0, 102457.63, 0.0, 10.001031, 10.00056 
2.995665e+3, 1.7601427e+2, -1206980.5, -1204039.5, 35827.33, -0.056306627, -0.09297267, -1169652.5, 45398.16, 0.0, 10.000523, 10.000567 
2.9955485e+3, 1.8601415e+2, -1149491.9, -1166111.4, 23960.805, -0.027689507, -0.07488452, -1132440.8, -15387.75, 0.0, 10.000419, 10.000205 
2.995432e+3, 1.9601405e+2, -1019921.75, -1037573.0, 9.934603, -0.011023976, -0.038162883, -1019921.75, -864.74164, 0.0, 10.000571, 10.00034 
2.9953155e+3, 2.0601383e+2, -900960.8, -881231.4, -23925.744, -0.007185571, -0.052251287, -865216.5, 55842.41, 0.0, 10.000508, 10.000771 
2.9951984e+3, 2.160136e+2, -811557.2, -774834.5, -19297.186, 0.018587103, -0.09205206, -766559.0, 56499.523, 0.0, 10.000397, 10.000882 
2.995082e+3, 2.2601362e+2, -723793.8, -744008.06, -10203.235, 0.06136519, -0.08041826, -719539.2, 5519.817, 0.0, 10.000596, 10.000323 
2.9949647e+3, 2.3601381e+2, -595780.4, -615638.5, -2505.763, 0.0747, -0.030562473, -595469.06, 31590.818, 0.0, 10.000733, 10.000466 
2.9948473e+3, 2.4601361e+2, -519338.78, -505289.75, 6303.567, 0.082124375, -0.036461458, -502876.1, 26185.592, 0.0, 10.000488, 10.000669 
2.99473e+3, 2.56013e+2, -471509.13, -421044.16, 6995.7646, 0.10511377, -0.1008627, -420092.3, 10973.083, 0.0, 10.000097, 10.000763 
2.9946122e+3, 2.66013e+2, -359621.56, -311405.8, 22876.0, 0.11763627, -0.11034492, -302279.66, 30785.668, 0.0, 10.000171, 10.000809 
2.9944947e+3, 2.7601343e+2, -222948.16, -206790.22, 17201.861, 0.1292312, -0.0728858, -195864.61, 39197.49, 0.0, 10.000486, 10.000703 
2.994377e+3, 2.8601396e+2, -107088.875, -81627.72, 11918.516, 0.1428001, -0.033272393, -76919.3, 60138.92, 0.0, 10.00053, 10.000869 
2.9942584e+3, 2.960142e+2, -47777.43, -29477.014, 3101.0706, 0.09989429, -0.013693829, -28965.807, 10091.278, 0.0, 10.000385, 10.000623 
