coord_x,coord_y,stress_xx,stress_yy,tau_xy,velocity_x,velocity_y,stress_1,eps,damage,lx,ly
5.0009304e+0, 1.2424033e+2, -1570807.1, -1935899.3, 8793.4375, -0.018488519, -0.048209034, -1570595.4, 151836.23, 0.0026923823, 10.002123, 9.997455 
5.001167e+0, 1.3423778e+2, -1365536.1, -1637781.9, 23700.195, 0.0004230892, -0.2397231, -1363488.4, 260972.63, 0.0015911749, 10.002266, 9.99875 
5.001163e+0, 1.442386e+2, -1217789.6, -1395073.4, 11256.572, 0.008377898, -0.07584024, -1217077.8, 309375.4, 0.0007108368, 10.0021, 9.999813 
5.0008446e+0, 1.542385e+2, -1202067.8, -1326057.5, -51516.707, 0.007339552, -0.12494163, -1183456.5, 244993.53, 0.00020845741, 10.00149, 9.999909 
5.000844e+0, 1.6423827e+2, -1265729.5, -1560019.0, -29716.086, 0.008296017, -0.030705404, -1262759.0, 67694.625, 0.000030560106, 10.001475, 9.997641 
5.001231e+0, 1.7423679e+2, -1073916.1, -1445386.6, 10523.19, 0.008599751, 0.033499736, -1073618.3, 158858.3, 0.0000010193884, 10.002241, 9.997386 
5.001213e+0, 1.842349e+2, -858656.7, -1141622.9, 14416.853, -0.0022385826, 0.048590563, -857924.06, 276572.5, 0.0, 10.002417, 9.998709 
5.0006247e+0, 1.9423242e+2, -854140.06, -1086209.0, -7366.9746, -0.027971538, -0.120769024, -853906.44, 182607.02, 0.0, 10.0017605, 9.998736 
5.00037e+0, 2.042305e+2, -824477.44, -1033811.1, 7221.884, -0.03325988, -0.17592141, -824228.6, 114299.83, 0.0, 10.001354, 9.998613 
5.000502e+0, 2.1422909e+2, -741863.75, -951704.6, 7203.4004, -0.016603675, -0.21677083, -741616.8, 98926.81, 0.0, 10.001282, 9.998542 
5.000519e+0, 2.2422838e+2, -614675.06, -767872.4, 26935.238, -0.009096197, -0.16690798, -610077.25, 132473.9, 0.0, 10.001175, 9.999182 
5.000409e+0, 2.3422837e+2, -537306.5, -677486.2, 34213.313, -0.012714708, -0.1345646, -529401.9, 115148.68, 0.0, 10.001022, 9.999206 
5.000011e+0, 2.4422851e+2, -467102.2, -473123.2, 19283.273, -0.01667895, -0.08842398, -450595.8, 95952.06, 0.0, 10.000311, 10.0002775 
4.999252e+0, 2.542284e+2, -579106.25, -478608.94, -9695.205, -0.021357154, -0.1749046, -477682.16, -29135.643, 0.000000000017365094, 9.998878, 10.000259 
4.9990407e+0, 2.6422846e+2, -583076.44, -461517.7, 27729.148, -0.014012484, -0.17729631, -455491.1, -104945.05, 0.000000288742, 9.998317, 9.9999695 
4.9995726e+0, 2.7422887e+2, -402215.5, -327851.47, 28444.152, 0.009441901, -0.17138502, -318219.25, -65674.11, 0.0000032414011, 9.9989, 9.999933 
4.9995294e+0, 2.8423014e+2, -266120.13, -153719.52, -3881.3967, 0.004366025, -0.060361195, -153585.64, 948.4702, 0.00001724438, 9.9989195, 10.00044 
4.9986142e+0, 2.9423103e+2, -272661.88, -101252.65, -51523.07, -0.050555117, -0.064993694, -86957.72, -30433.441, 0.000074921634, 9.998166, 10.000493 
4.998497e+0, 3.0422994e+2, -444826.34, -470782.0, -40207.023, -0.052775875, -0.0928986, -415554.56, -415554.56, 0.0002850154, 9.997991, 9.997706 
4.9995852e+0, 3.142297e+2, -94865.46, 124831.914, -29543.535, 0.027032787, 0.0847166, 128735.39, 128735.39, 0.0007432572, 9.998496, 10.001568 
1.5002733e+1, 1.2423968e+2, -1541132.6, -1820994.1, -12199.349, -0.05903574, -0.121970005, -1540601.9, 181838.42, 0.0025889925, 10.00193, 9.998347 
1.5003535e+1, 1.3423908e+2, -1320018.1, -1516756.4, 35797.027, 0.0058792704, -0.16593872, -1313707.3, 310739.2, 0.0015350278, 10.002178, 9.999637 
1.5003486e+1, 1.442401e+2, -1314721.4, -1563879.5, -18405.19, 0.02636152, 0.01894567, -1313369.1, 213067.81, 0.00068435894, 10.001975, 9.998726 
1.5002538e+1, 1.5423767e+2, -1309414.6, -1521217.6, -66085.26, 0.02295207, -0.110148504, -1290486.6, 137975.23, 0.00019662973, 10.001387, 9.998629 
1.5002549e+1, 1.6423629e+2, -1206258.9, -1407485.3, -12025.439, 0.027671263, -0.11216006, -1205542.9, 124933.77, 0.000026649353, 10.001363, 9.998753 
1.5003738e+1, 1.742355e+2, -991444.6, -1253132.0, 48170.926, 0.02905822, -0.08940853, -982859.1, 249626.75, 0.00000066228677, 10.002154, 9.99876 
1.5003608e+1, 1.842344e+2, -888706.2, -1165427.5, -12667.397, -0.007746264, -0.06758641, -888127.56, 246369.42, 0.0, 10.002272, 9.99862 
1.5001886e+1, 1.94233e+2, -887900.25, -1125299.1, -22934.088, -0.082405746, -0.084637396, -885704.94, 150804.73, 0.0, 10.001639, 9.998536 
1.5001084e+1, 2.0423181e+2, -832218.3, -1009346.1, -3083.7422, -0.10007604, -0.06670545, -832164.7, 106356.0, 0.0, 10.001204, 9.9988575 
1.5001485e+1, 2.1423078e+2, -744529.3, -916820.06, 15191.094, -0.05048449, -0.07931527, -743200.1, 97330.72, 0.0, 10.001127, 9.99886 
1.5001553e+1, 2.2422996e+2, -599343.8, -699798.94, 12260.876, -0.025836345, -0.082391486, -597868.94, 144668.52, 0.0, 10.001039, 9.999722 
1.50012e+1, 2.3422956e+2, -522295.84, -607590.94, 38318.81, -0.03903126, -0.11968069, -507609.75, 136929.02, 0.0, 10.000875, 9.999761 
1.5000044e+1, 2.4422939e+2, -512737.7, -539620.75, -38701.066, -0.04915528, -0.11549358, -485210.38, 61328.33, 0.0, 10.000202, 9.999881 
1.499774e+1, 2.5422928e+2, -628699.2, -541279.56, -56041.223, -0.06514124, -0.1380531, -513917.8, -65378.8, 0.0, 9.998719, 9.99991 
1.4997134e+1, 2.6422903e+2, -586266.8, -437870.28, 36317.105, -0.040200252, -0.16645004, -429459.13, -78917.63, 0.00000013049092, 9.998206, 10.000193 
1.4998749e+1, 2.742287e+2, -409192.34, -306496.3, 57826.656, 0.031078313, -0.23757556, -280510.38, -27964.896, 0.0000023602508, 9.998757, 10.000159 
1.4998549e+1, 2.8422952e+2, -345258.6, -286316.75, -34688.867, 0.010392473, -0.14201833, -270270.06, -115731.02, 0.000014211254, 9.998805, 9.99959 
1.4995833e+1, 2.9423088e+2, -361920.94, -240785.7, -66240.29, -0.1536469, 0.011981899, -211596.92, -155068.33, 0.0000647229, 9.997979, 9.999634 
1.4995524e+1, 3.0422947e+2, -437641.78, -409486.28, -29757.713, -0.15150428, -0.022751503, -390644.38, -390644.38, 0.00025372737, 9.997845, 9.998206 
1.4998752e+1, 3.1422606e+2, -155219.27, 80964.78, 24432.781, 0.084501676, -0.17951854, 83465.82, 83465.82, 0.0006708774, 9.998197, 10.001421 
2.500527e+1, 1.2424063e+2, -1256090.3, -1678284.1, 74558.59, -0.08770107, -0.113667175, -1243310.1, 479121.5, 0.002469872, 10.003889, 9.9983635 
2.5006026e+1, 1.3423966e+2, -1199362.3, -1480038.6, 25234.549, -0.002344868, -0.18608692, -1197111.6, 427328.6, 0.001465867, 10.003122, 9.999427 
2.500579e+1, 1.4424045e+2, -1244991.0, -1590785.3, -16931.879, 0.028229918, 0.013316579, -1244163.9, 282269.53, 0.0006493342, 10.002732, 9.99816 
2.5004718e+1, 1.5423787e+2, -1130890.9, -1506564.4, -22963.365, 0.031084651, -0.0789738, -1129492.4, 298970.28, 0.00018140074, 10.00293, 9.997975 
2.5004476e+1, 1.642363e+2, -1020625.4, -1262289.6, 61169.547, 0.03706174, -0.08502549, -1006024.44, 324454.75, 0.000022322774, 10.002416, 9.999225 
2.5005385e+1, 1.7423539e+2, -1137949.6, -1255916.1, 54319.727, 0.046409946, -0.13853835, -1116747.8, 115737.91, 0.00000035252413, 10.000888, 9.99933 
2.5005236e+1, 1.8423466e+2, -1144669.5, -1266193.0, 11779.501, 0.026032964, -0.11958269, -1143538.3, -9046.165, 0.0, 10.000409, 9.998821 
2.5003842e+1, 1.9423436e+2, -940522.6, -1126481.3, 26772.668, -0.022741856, -0.052478258, -936744.9, 99751.83, 0.0, 10.00118, 9.998736 
2.50029e+1, 2.0423374e+2, -808892.25, -1003299.56, 65905.4, -0.0428226, 0.00993833, -788656.25, 149847.44, 0.0, 10.001374, 9.998816 
2.5002602e+1, 2.1423241e+2, -815922.06, -960809.1, 50244.797, -0.023869952, -0.029821813, -800203.25, 40312.824, 0.0, 10.000673, 9.998773 
2.500206e+1, 2.2423133e+2, -766516.75, -798959.5, 33063.32, -0.021439826, -0.049083408, -745909.94, -3384.3633, 0.0, 9.999963, 9.99955 
2.5001234e+1, 2.3423052e+2, -781596.6, -757083.06, -3274.2737, -0.034856148, -0.11787467, -756653.25, -112121.586, 0.0, 9.999187, 9.99954 
2.4999681e+1, 2.442302e+2, -706906.9, -646745.8, -74581.37, -0.038648568, -0.10959792, -596407.3, -49873.76, 0.0, 9.998939, 9.9997425 
2.4997135e+1, 2.542303e+2, -539424.2, -517292.06, -78283.17, -0.026747849, -0.10338138, -449296.66, -764.38776, 0.0, 9.999413, 9.999735 
2.4996103e+1, 2.642301e+2, -442081.78, -380457.13, 47351.45, -0.011562088, -0.10927847, -354775.56, -4241.7217, 0.00000003137998, 9.99926, 10.000069 
2.4997072e+1, 2.7422968e+2, -491176.13, -356393.44, 31562.975, 0.017948482, -0.18365574, -349368.28, -96830.82, 0.0000016165861, 9.998258, 10.000044 
2.4996854e+1, 2.8422984e+2, -462174.25, -379016.97, -15561.26, -0.0014599351, -0.1314342, -376200.38, -221663.77, 0.000011342512, 9.998156, 9.999263 
2.4995095e+1, 2.942301e+2, -207545.56, -200654.83, -12241.694, -0.07913881, -0.05971554, -191382.9, -134845.92, 0.00005395602, 9.999202, 9.999311 
2.4994516e+1, 3.0422956e+2, -202703.45, -179836.58, 66852.61, -0.08271818, -0.040735584, -123446.76, -123446.76, 0.00022021512, 9.998962, 9.99925 
2.4995898e+1, 3.142267e+2, -331168.06, 27471.492, 141226.39, 0.061371833, -0.26902547, 76407.0, 76407.0, 0.00059438485, 9.996873, 10.001682 
3.5008344e+1, 1.2424316e+2, -1324969.1, -1796364.6, 25526.656, -0.21582343, -0.060988806, -1323590.9, 398814.9, 0.0023442989, 10.003796, 9.997598 
3.5008392e+1, 1.3423957e+2, -1271014.3, -1621757.9, 1734.7429, -0.10243633, -0.28291398, -1271005.6, 353436.1, 0.0013882996, 10.00311, 9.998454 
3.50078e+1, 1.4423962e+2, -1243506.1, -1574629.3, -20405.81, -0.07205032, -0.10999905, -1242253.4, 284189.84, 0.0006086515, 10.002679, 9.998295 
3.5007125e+1, 1.5423912e+2, -1116499.5, -1466404.0, -5008.6133, -0.04739421, -0.017326334, -1116427.8, 312024.72, 0.00016439817, 10.002894, 9.998263 
3.5006496e+1, 1.6423833e+2, -1028538.25, -1267335.4, -1867.5353, -0.025575448, 0.03394867, -1028523.6, 301937.8, 0.000017966355, 10.00236, 9.999225 
3.500597e+1, 1.7423633e+2, -1145932.3, -1266776.9, 5710.747, -0.0077073057, -0.114738174, -1145663.0, 86814.64, 0.00000014192928, 10.00086, 9.999274 
3.5005882e+1, 1.8423551e+2, -1107803.8, -1167249.6, 28459.72, 0.028325103, -0.13235892, -1096375.6, 38108.08, 0.0, 10.000319, 9.99954 
3.5006264e+1, 1.9423637e+2, -894459.1, -1014880.9, 66006.055, 0.07839951, -0.025873074, -865327.1, 171148.67, 0.0, 10.001112, 9.999535 
3.500563e+1, 2.0423612e+2, -833623.06, -1026683.56, 33474.293, 0.0740405, 0.03412457, -827983.75, 110495.04, 0.0, 10.001262, 9.998709 
3.5003647e+1, 2.1423408e+2, -844879.75, -992910.4, 32388.422, -0.007744973, -0.05227654, -838103.5, 2395.254, 0.0, 10.000559, 9.998606 
3.500186e+1, 2.2423244e+2, -834177.3, -907201.7, -2639.9163, -0.057906944, -0.086685, -834082.0, -91566.27, 0.0, 9.999831, 9.99887 
3.5000274e+1, 2.342313e+2, -848412.1, -864336.06, -23834.549, -0.07008416, -0.11195031, -831244.9, -186716.23, 0.0, 9.999061, 9.998864 
3.4998742e+1, 2.4423093e+2, -703934.25, -621222.25, -68306.75, -0.045077413, -0.081482746, -582727.56, -36195.09, 0.0, 9.998854, 9.999963 
3.4997255e+1, 2.5423145e+2, -535018.2, -481406.9, -51279.555, 0.022340013, -0.05717983, -450349.47, -1823.4314, 0.0, 9.999302, 10.000033 
3.4995788e+1, 2.6423174e+2, -471884.44, -430837.44, 6422.0723, 0.012464137, -0.015080182, -429856.13, -79333.94, 0.0000000045955626, 9.999206, 9.999753 
3.4994262e+1, 2.7423182e+2, -530017.2, -414116.16, 4441.282, -0.111847594, -0.0017099618, -413946.22, -161425.2, 0.0000011861115, 9.998157, 9.9997 
3.4994245e+1, 2.8423107e+2, -445591.56, -328396.7, 9277.014, -0.09987315, -0.0392095, -327666.88, -173139.4, 0.000009324045, 9.998093, 9.9996395 
3.4996146e+1, 2.9422867e+2, -194104.5, -151419.27, 35683.89, 0.07973421, -0.26962674, -131182.47, -74632.31, 0.00004426637, 9.999113, 9.999694 
3.499516e+1, 3.0423e+2, -78290.87, 82343.375, -10434.099, 0.06600978, -0.16955413, 83018.29, 83018.29, 0.00018818198, 9.998933, 10.001065 
3.4990555e+1, 3.1423157e+2, -287665.13, 129145.54, 93030.695, -0.20538498, -0.14019588, 148967.05, 148967.05, 0.00052315294, 9.996805, 10.002418 
4.50125e+1, 1.2424559e+2, -1623022.9, -1916908.5, 55060.83, -0.052322995, -0.012270462, -1613045.6, 109337.76, 0.0022184679, 10.001671, 9.997785 
4.5011067e+1, 1.3424157e+2, -1424452.0, -1710878.3, 49998.258, -0.08271059, -0.26330546, -1415975.3, 208448.31, 0.0013082918, 10.002128, 9.998316 
4.500972e+1, 1.4424133e+2, -1317386.8, -1582439.6, 85047.74, -0.10475803, -0.123609275, -1292444.5, 233982.7, 0.00056754425, 10.002045, 9.998562 
4.500926e+1, 1.5424122e+2, -1333553.3, -1542125.5, 81944.02, -0.032345075, -0.014673658, -1305210.5, 123220.54, 0.00014805637, 10.001271, 9.998541 
4.50084e+1, 1.642405e+2, -1262616.4, -1423174.5, 80300.945, 0.008117359, 0.046095643, -1229348.3, 101090.78, 0.000013959289, 10.000942, 9.998837 
4.5007122e+1, 1.7423812e+2, -1123032.6, -1307498.3, 39035.99, 0.010722341, -0.09576357, -1115112.1, 117348.25, 0.000000037538413, 10.00123, 9.998823 
4.5006564e+1, 1.8423688e+2, -984450.75, -1111554.3, 61019.266, 0.029378505, -0.12894408, -959899.3, 174572.03, 0.0, 10.001182, 9.9995165 
4.5006847e+1, 1.9423737e+2, -978428.1, -1054442.0, 27116.592, 0.062115587, -0.057981327, -969746.4, 66720.45, 0.0, 10.000536, 9.999544 
4.500623e+1, 2.0423716e+2, -948243.7, -1049276.4, -15580.026, 0.061901305, -0.0028618416, -945895.7, -7426.736, 0.0, 10.000329, 9.999005 
4.5004448e+1, 2.1423586e+2, -816728.6, -945088.75, 3244.083, 0.02299063, -0.051368903, -816646.7, 23835.545, 0.0, 10.000599, 9.998919 
4.5002395e+1, 2.2423461e+2, -727767.2, -867337.06, 17150.162, -0.018059967, -0.05796319, -725690.7, 16805.096, 0.0, 10.000614, 9.998767 
4.4999957e+1, 2.3423341e+2, -684934.1, -802952.4, 22437.787, -0.060799807, -0.0717368, -680812.2, -36302.45, 0.0, 10.000263, 9.998709 
4.4998103e+1, 2.4423285e+2, -544575.9, -571150.25, 30678.506, -0.04737928, -0.041606367, -524430.7, 22085.797, 0.0, 10.000072, 9.999715 
4.4997016e+1, 2.5423285e+2, -436791.06, -466069.25, -6443.3657, 0.033726573, -0.043456454, -435435.78, 13080.605, 0.0, 10.000113, 9.999747 
4.4995442e+1, 2.6423305e+2, -389470.44, -396556.2, 12604.563, 0.033709466, 0.00905951, -379920.3, -29407.102, 0.000000013083459, 9.9998045, 9.999692 
4.4993266e+1, 2.7423367e+2, -399732.84, -359511.3, 14621.672, -0.065416194, 0.08330596, -354757.72, -102252.586, 0.0000010541644, 9.999085, 9.99963 
4.499275e+1, 2.8423265e+2, -419559.5, -322425.75, 71393.38, -0.0615876, 0.021922378, -284645.9, -130132.43, 0.000008050424, 9.998305, 9.999584 
4.499431e+1, 2.9422897e+2, -430726.72, -274814.66, 47420.09, 0.07044815, -0.3264094, -261524.84, -204977.13, 0.00003666787, 9.997538, 9.999609 
4.4993237e+1, 3.0423096e+2, -265466.28, 12470.96, -83062.945, 0.057383418, -0.166761, 35402.71, 35402.71, 0.00016032506, 9.997549, 10.001251 
4.498891e+1, 3.1423345e+2, -95406.56, 191365.06, -132290.34, -0.11087657, -0.06996046, 243069.55, 243069.55, 0.00046162336, 9.99825, 10.002147 
5.501674e+1, 1.2424818e+2, -1539643.1, -1781681.5, 42958.09, 0.13834839, 0.0416716, -1532244.9, 190117.13, 0.0020911084, 10.001806, 9.998656 
5.501371e+1, 1.3424566e+2, -1365437.9, -1616536.4, 76308.9, -0.06690785, -0.12606665, -1344066.5, 280318.9, 0.0012261746, 10.002232, 9.998919 
5.501137e+1, 1.4424555e+2, -1286512.4, -1528235.0, 47173.242, -0.17844774, -0.02487237, -1277632.5, 248753.17, 0.0005263589, 10.002084, 9.998916 
5.501078e+1, 1.5424423e+2, -1308687.4, -1496548.8, 60948.547, -0.037336174, -0.067547426, -1290646.3, 137751.4, 0.00013276051, 10.001295, 9.998843 
5.500973e+1, 1.6424285e+2, -1324785.5, -1545050.6, 80096.25, 0.020760018, -0.048971195, -1298739.5, 31671.922, 0.0000106646075, 10.000914, 9.998013 
5.5008423e+1, 1.7424063e+2, -1187676.4, -1439133.1, 58505.383, -0.010152434, -0.085590504, -1174730.8, 57704.05, 0.000000007551507, 10.001224, 9.99792 
5.5007e+1, 1.8423873e+2, -1045116.44, -1227285.1, 29251.043, -0.06875578, -0.102951355, -1040534.8, 93920.01, 0.0, 10.001136, 9.998744 
5.5005276e+1, 1.9423734e+2, -1036649.0, -1166912.8, 9906.8545, -0.17488946, -0.14384529, -1035899.9, 569.6999, 0.0, 10.000503, 9.998787 
5.500439e+1, 2.0423694e+2, -910683.7, -950915.56, -14827.8955, -0.17685151, -0.10247087, -905809.25, 32664.727, 0.0, 10.000246, 9.999718 
5.500464e+1, 2.1423769e+2, -768390.5, -827544.94, 22387.64, -0.042106234, -0.027667254, -760873.0, 79593.76, 0.0, 10.000529, 9.999757 
5.5003333e+1, 2.242378e+2, -703183.25, -801512.4, -2496.0613, -0.008882451, 0.033197477, -703119.9, 39345.914, 0.0, 10.000547, 9.999252 
5.5000013e+1, 2.34237e+2, -664629.1, -743311.0, 17743.828, -0.104339615, 0.012552056, -660812.75, -16338.8545, 0.0, 10.000184, 9.999157 
5.4997426e+1, 2.4423599e+2, -606164.56, -683958.4, 25054.877, -0.14472748, 0.00816896, -598793.6, -52308.266, 0.0, 10.000011, 9.998966 
5.4995996e+1, 2.542345e+2, -511760.7, -592156.3, 3448.3582, -0.105073474, -0.061201006, -511613.03, -63109.848, 0.0, 9.999995, 9.998932 
5.4994726e+1, 2.6423413e+2, -382549.03, -376821.4, -20958.229, -0.042038746, -0.0308633, -358532.25, -8025.771, 0.000000016276152, 9.999775, 9.9998455 
5.499381e+1, 2.7423525e+2, -390666.66, -329189.3, -5148.01, 0.05532231, 0.07164337, -328761.22, -76270.85, 0.00000094951764, 9.999027, 9.99987 
5.4992074e+1, 2.842345e+2, -456464.84, -392436.53, 32478.996, 0.017939698, 0.046351466, -378845.97, -224350.75, 0.0000068870954, 9.9982815, 9.999113 
5.498925e+1, 2.9423094e+2, -482204.38, -364129.78, 29911.031, -0.21748307, -0.23821425, -356984.94, -300454.25, 0.00003048685, 9.9974575, 9.999036 
5.498843e+1, 3.042323e+2, -367086.6, -180338.78, -62873.637, -0.20070623, -0.04551825, -161143.69, -161143.69, 0.0001366128, 9.997484, 9.999956 
5.499029e+1, 3.1423217e+2, -194117.66, 5564.068, -85900.04, 0.15419015, -0.0767205, 37431.273, 37431.273, 0.00040785797, 9.998177, 10.0009 
6.5019196e+1, 1.24249674e+2, -1440674.9, -1672303.3, 60220.414, 0.19646652, -0.027839012, -1425953.9, 296393.88, 0.0019647046, 10.002196, 9.999232 
6.501622e+1, 1.3424894e+2, -1436495.9, -1611328.6, 42337.96, 0.003405697, -0.04782724, -1426782.8, 197570.5, 0.0011417874, 10.001558, 9.999285 
6.501356e+1, 1.442489e+2, -1414716.0, -1600319.1, 11186.448, -0.11848306, 0.043827467, -1414044.3, 112308.234, 0.0004823996, 10.001258, 9.998811 
6.501241e+1, 1.5424618e+2, -1251425.8, -1482646.5, -29207.828, -0.018178513, -0.12509464, -1247793.3, 180584.78, 0.00011742101, 10.001754, 9.998708 
6.501107e+1, 1.6424449e+2, -1171959.8, -1454740.5, 25355.328, 0.022072947, -0.13667956, -1169704.3, 160690.55, 0.000008467286, 10.001889, 9.998164 
6.5009826e+1, 1.7424357e+2, -1148703.4, -1401090.4, 69381.195, 0.0048168045, -0.061141003, -1130888.0, 101517.734, 0.000000004638606, 10.001413, 9.998089 
6.50082e+1, 1.8424203e+2, -1091147.6, -1293291.6, 98322.39, -0.04885099, -0.03405386, -1051213.1, 83210.05, 0.0, 10.0010195, 9.99834 
6.500592e+1, 1.9423963e+2, -1041181.3, -1221763.9, 82153.52, -0.16320965, -0.12965745, -1009400.0, 27048.87, 0.0, 10.000693, 9.998321 
6.500449e+1, 2.0423876e+2, -909506.44, -942348.6, 68309.625, -0.18329369, -0.11282074, -855671.9, 82786.52, 0.0, 10.000213, 9.999798 
6.500423e+1, 2.1423985e+2, -925349.56, -888375.56, 38435.66, -0.07358639, -0.013118455, -864212.0, -23764.89, 0.0, 9.99939, 9.999889 
6.50028e+1, 2.2424021e+2, -896423.4, -850718.75, 1483.2417, -0.035157826, 0.049209837, -850670.7, -108228.23, 0.0, 9.99903, 9.99965 
6.4999807e+1, 2.3423955e+2, -767812.7, -744196.0, 1748.5375, -0.09137648, -0.0013866638, -744067.25, -99620.0, 0.0, 9.999263, 9.9995985 
6.499748e+1, 2.4423859e+2, -713257.6, -780294.06, 40280.855, -0.1057024, -0.006973586, -694373.4, -147915.33, 0.0, 9.999449, 9.998596 
6.499613e+1, 2.5423715e+2, -614437.44, -690753.9, 31433.111, -0.058419, -0.024571732, -603157.94, -154680.17, 0.0, 9.999493, 9.998514 
6.49947e+1, 2.6423642e+2, -416630.5, -395331.63, 22725.035, -0.0053430772, -0.0043815854, -380884.5, -30399.428, 0.00000000394634, 9.999542, 9.999841 
6.4993256e+1, 2.7423665e+2, -290105.7, -273727.84, 6539.8037, 0.070830844, 0.004481107, -271436.9, -18960.916, 0.0000007712445, 9.999696, 9.999927 
6.499105e+1, 2.8423586e+2, -248107.58, -317703.44, 57531.574, 0.017950924, -0.015815206, -215668.78, -61188.38, 0.000006042053, 9.999822, 9.998882 
6.498794e+1, 2.9423353e+2, -165016.42, -239501.5, 57951.527, -0.20082127, -0.15262084, -133372.2, -76867.35, 0.000026514133, 9.999763, 9.998777 
6.498689e+1, 3.042343e+2, -168024.9, -194907.83, 16930.275, -0.18571857, 0.037319317, -159849.08, -159849.08, 0.00011960156, 9.999323, 9.998973 
6.4988714e+1, 3.1423196e+2, -206439.14, -64504.277, -17064.035, 0.18209396, -0.10814774, -62481.59, -62481.59, 0.000365328, 9.99836, 10.000344 
7.501934e+1, 1.2424995e+2, -1395165.0, -1592133.4, 9568.397, -0.06469859, -0.21296516, -1394701.3, 327640.84, 0.0018421272, 10.002265, 9.999746 
7.501817e+1, 1.3425137e+2, -1419241.8, -1586681.6, 19447.594, 0.012121561, -0.03271877, -1417012.6, 207314.66, 0.0010580781, 10.001614, 9.999425 
7.501578e+1, 1.4425142e+2, -1447543.6, -1677251.1, 17105.041, -0.053081956, 0.08385037, -1446277.0, 80050.63, 0.0004375462, 10.001291, 9.99827 
7.5013787e+1, 1.5424705e+2, -1288776.1, -1573761.1, 308.823, -0.08587817, -0.1918952, -1288775.8, 139597.0, 0.00010224, 10.001804, 9.998064 
7.50121e+1, 1.6424546e+2, -1094547.3, -1292256.1, 2456.0728, -0.08974093, -0.20972934, -1094516.8, 235872.14, 0.000007138289, 10.00188, 9.999283 
7.5011057e+1, 1.7424697e+2, -1058536.8, -1216580.9, 58729.414, -0.039975837, -0.01911684, -1039102.56, 193270.25, 0.00000003688298, 10.001422, 9.9993515 
7.500987e+1, 1.842467e+2, -1099464.1, -1309094.6, 78139.53, -0.0070396587, 0.07442415, -1073542.9, 60833.426, 0.0, 10.001006, 9.998242 
7.500847e+1, 1.942441e+2, -1056982.3, -1251938.9, 78261.96, -0.0041085933, -0.024244081, -1029452.8, 6953.09, 0.0, 10.000679, 9.998122 
7.5006264e+1, 2.0424259e+2, -959011.06, -1029877.1, 31872.016, -0.04847013, -0.03449257, -946785.7, -8363.315, 0.0, 10.00015, 9.999227 
7.5002944e+1, 2.1424238e+2, -977413.0, -980373.1, 15201.134, -0.16322745, -0.007533993, -963620.0, -123196.9, 0.0, 9.999314, 9.999296 
7.5000453e+1, 2.242419e+2, -889779.44, -817518.06, 1079.5242, -0.19350667, -0.011957079, -817501.94, -75076.4, 0.0, 9.998949, 9.999914 
7.4999046e+1, 2.3424093e+2, -757979.1, -703368.9, 20972.152, -0.114672996, -0.12590742, -696244.3, -51813.49, 0.0, 9.999173, 9.999922 
7.499792e+1, 2.4424058e+2, -722758.9, -785552.8, 35126.723, -0.025798613, -0.08792034, -707042.6, -160607.6, 0.0, 9.99939, 9.998583 
7.499714e+1, 2.5424084e+2, -629468.7, -706571.0, 39849.516, 0.07138061, 0.06592263, -612574.6, -164134.8, 0.0, 9.999419, 9.998442 
7.499501e+1, 2.6424006e+2, -436454.75, -420350.97, 21401.006, 0.05266085, 0.09115281, -405537.25, -55089.016, 0.00000000015133415, 9.999482, 9.999694 
7.4991244e+1, 2.7423793e+2, -316332.38, -305321.84, 25767.79, -0.1250148, -0.121120505, -284477.78, -32016.305, 0.00000065427645, 9.9996, 9.999753 
7.498937e+1, 2.8423685e+2, -249790.08, -315447.8, 50031.52, -0.15548055, -0.16563033, -222778.44, -68309.91, 0.0000058927376, 9.999793, 9.998912 
7.499002e+1, 2.9423678e+2, -174429.53, -243221.97, 64183.645, 0.0048794593, -0.078620054, -136006.52, -79536.23, 0.000025865007, 9.999685, 9.998795 
7.498834e+1, 3.042368e+2, -229220.77, -311697.78, -17956.805, 0.0046509546, 0.074492514, -225480.81, -225480.81, 0.00011192772, 9.999285, 9.998182 
7.4983597e+1, 3.1423247e+2, -214945.33, -53205.18, -26505.924, -0.20948473, -0.19494516, -48972.184, -48972.184, 0.00033923058, 9.998236, 10.000477 
8.502025e+1, 1.24251544e+2, -1614814.9, -1651338.0, -4490.223, -0.10455116, -0.22352886, -1614270.9, 108056.38, 0.0017237901, 10.000569, 10.000145 
8.501933e+1, 1.3425307e+2, -1529941.0, -1627304.3, -38012.2, 0.018659947, -0.04427535, -1516858.3, 107453.2, 0.0009802121, 10.000814, 9.999522 
8.5016936e+1, 1.4425302e+2, -1507378.0, -1681279.1, 13295.276, -0.032900847, 0.04897975, -1506367.4, 19945.416, 0.00039778455, 10.000763, 9.998503 
8.5014987e+1, 1.5424953e+2, -1478289.1, -1635958.8, 42050.18, -0.070079654, -0.16245267, -1467775.5, -39425.703, 0.000088897265, 10.000384, 9.998318 
8.5013217e+1, 1.6424838e+2, -1295071.6, -1359023.4, 63895.133, -0.08480662, -0.1625313, -1255597.9, 74764.05, 0.000006071428, 10.000378, 9.999549 
8.501187e+1, 1.7424971e+2, -1138059.5, -1222355.3, 28698.477, -0.060493838, -0.01579163, -1129216.8, 103130.62, 0.000000076650345, 10.000739, 9.9996395 
8.5010546e+1, 1.8424965e+2, -1125091.4, -1291044.9, 20645.568, -0.02024221, 0.07068687, -1122561.6, 11786.796, 0.0, 10.000703, 9.998513 
8.50093e+1, 1.9424792e+2, -1129511.3, -1255211.4, 40689.61, 0.04861583, 0.03267984, -1117489.5, -81120.93, 0.0, 10.000054, 9.998398 
8.5006875e+1, 2.0424639e+2, -1014595.1, -1097528.5, 45338.656, 0.013756525, 0.0225797, -994620.1, -56235.496, 0.0, 9.99994, 9.998865 
8.500274e+1, 2.14245e+2, -846440.56, -964755.2, 24302.287, -0.16391768, -0.025236953, -841643.3, -1246.8308, 0.0, 10.000415, 9.998876 
8.5000044e+1, 2.2424383e+2, -703184.75, -772362.75, 6306.493, -0.19698498, -0.056484435, -702614.56, 39791.535, 0.0, 10.00043, 9.999507 
8.4999365e+1, 2.3424292e+2, -697416.25, -720722.5, -47367.6, -0.025088722, -0.12370425, -660289.4, -15876.717, 0.0, 9.999794, 9.9995 
8.4998345e+1, 2.4424258e+2, -695274.94, -721883.0, -25174.484, 0.08446521, -0.080958925, -680105.25, -133689.38, 0.0, 9.99936, 9.999028 
8.4996885e+1, 2.5424296e+2, -612788.3, -636524.9, 7047.9097, 0.11727251, 0.0327695, -610853.4, -162437.95, 0.0, 9.99928, 9.99898 
8.4994507e+1, 2.6424223e+2, -476126.28, -495429.8, 23769.145, 0.06271627, 0.052705258, -460124.03, -109700.88, 0.0000000019213902, 9.999435, 9.999207 
8.4991133e+1, 2.7423987e+2, -337367.8, -379662.0, -20689.563, -0.09508499, -0.12207652, -328930.16, -76487.37, 0.0000006294421, 9.9997225, 9.999189 
8.4989625e+1, 2.842387e+2, -272618.97, -318422.7, -13417.413, -0.09364511, -0.14718305, -268978.0, -114525.36, 0.0000062489003, 9.999597, 9.998988 
8.499061e+1, 2.942388e+2, -256530.11, -265834.1, -12171.668, 0.13501132, -0.05810797, -248151.73, -191700.03, 0.000027811611, 9.999049, 9.998942 
8.4988207e+1, 3.042381e+2, -310737.75, -361705.88, -50529.043, 0.096517235, 0.02516727, -279630.1, -279630.1, 0.000112212314, 9.998759, 9.9981 
8.4981376e+1, 3.142345e+2, -126684.164, 52717.11, -34999.227, -0.25931966, -0.17198068, 59303.285, 59303.285, 0.00032853556, 9.998566, 10.001038 
9.5021325e+1, 1.2425469e+2, -1596283.5, -1620083.3, -19013.904, -0.10773227, -0.04167287, -1585752.6, 136548.42, 0.0016162735, 10.000601, 10.00034 
9.5019287e+1, 1.3425396e+2, -1521448.3, -1630716.0, -21541.03, -0.09689728, -0.08834669, -1517355.0, 106951.16, 0.000914127, 10.000899, 9.999456 
9.501672e+1, 1.4425372e+2, -1433854.8, -1531726.3, -7578.5317, -0.15825531, -0.059526708, -1433271.4, 93036.57, 0.00036652523, 10.000779, 9.999518 
9.5015764e+1, 1.5425369e+2, -1398092.5, -1475868.9, 37754.227, -0.05902973, -0.033633646, -1382780.4, 45528.453, 0.00007896126, 10.000411, 9.999403 
9.5014215e+1, 1.6425332e+2, -1338710.5, -1447865.1, 68223.7, -0.04556641, 0.013825057, -1305919.9, 24393.4, 0.000005121987, 10.000366, 9.998946 
9.501195e+1, 1.7425178e+2, -1186416.5, -1327657.6, 50624.28, -0.15251072, -0.054104086, -1170145.9, 62183.72, 0.00000007826353, 10.000755, 9.998911 
9.500991e+1, 1.8425089e+2, -1088342.6, -1205055.6, -7747.2847, -0.17285112, -0.041271828, -1087830.6, 46508.41, 0.0, 10.000661, 9.999123 
9.5008165e+1, 1.9425099e+2, -1083627.6, -1152324.4, 25696.51, -0.09430161, 0.033264812, -1075079.4, -38741.69, 0.0, 10.000021, 9.99912 
9.5006037e+1, 2.0425011e+2, -1038045.75, -1131040.9, 52790.465, -0.083727896, 0.056049276, -1014195.2, -75849.56, 0.0, 9.999871, 9.998669 
9.5003283e+1, 2.1424761e+2, -875609.44, -1010514.1, 52233.707, -0.17369577, -0.07600306, -857749.5, -17381.332, 0.0, 10.000347, 9.998596 
9.5001304e+1, 2.2424595e+2, -793653.2, -944729.0, -21056.523, -0.13529024, -0.08906028, -790773.25, -48388.27, 0.0, 10.0003605, 9.998356 
9.500041e+1, 2.3424529e+2, -791769.7, -902165.5, -64912.84, 0.07795829, -0.012453137, -761759.06, -117364.39, 0.0, 9.999726, 9.998288 
9.4998467e+1, 2.4424449e+2, -640404.3, -590348.25, -38682.53, 0.14063895, 0.006203261, -569303.06, -22901.781, 0.0, 9.999288, 9.999965 
9.499508e+1, 2.5424343e+2, -544016.3, -481337.75, 14547.599, -0.013578274, -0.1355968, -478125.88, -29720.807, 0.0, 9.999221, 10.000076 
9.4992965e+1, 2.6424268e+2, -543942.8, -625444.06, 26324.025, -0.05461498, -0.13268705, -536179.9, -185768.58, 0.0000000017799018, 9.99939, 9.998336 
9.499261e+1, 2.742423e+2, -420329.44, -533380.25, -1976.082, 0.05755717, -0.012520893, -420294.9, -167873.28, 0.0000005677249, 9.999641, 9.998172 
9.4991523e+1, 2.8424144e+2, -269952.06, -304081.2, -40204.02, 0.11526952, 0.03953207, -243340.97, -88907.62, 0.0000064583187, 9.999558, 9.9991045 
9.498938e+1, 2.9423955e+2, -254620.13, -242445.72, -19277.455, 0.08077824, -0.09086428, -228317.23, -171868.05, 0.000029725905, 9.998963, 9.9991455 
9.4986135e+1, 3.0423838e+2, -265541.28, -262934.75, -63764.32, -0.0065665827, -0.10159804, -200460.38, -200460.38, 0.00011359201, 9.9987335, 9.998789 
9.4981354e+1, 3.1423816e+2, -77394.69, 179977.05, -8101.92, -0.16611165, -0.029238306, 180231.84, 180231.84, 0.00032159366, 9.998454, 10.001967 
1.0502264e+2, 1.2425805e+2, -1505470.5, -1609438.8, 77804.875, -0.06259722, 0.036425233, -1463881.4, 258387.3, 0.0015309328, 10.001329, 10.000077 
1.0501988e+2, 1.3425626e+2, -1586224.6, -1714158.9, 14534.405, -0.106924795, -0.07319138, -1584594.1, 39691.46, 0.0008642909, 10.000649, 9.999017 
1.0501711e+2, 1.4425546e+2, -1467582.9, -1488962.9, 21239.848, -0.16706572, -0.10029593, -1454494.6, 71797.99, 0.00034447288, 10.000313, 10.00003 
1.0501669e+2, 1.5425676e+2, -1353224.0, -1396469.4, 7548.7085, -0.001756228, 0.0074920915, -1351944.1, 76334.54, 0.00007296801, 10.000477, 9.999919 
1.05015196e+2, 1.6425668e+2, -1331949.3, -1467190.0, 57031.836, 0.014465127, 0.06724966, -1311109.8, 19169.924, 0.000004414203, 10.000519, 9.9987335 
1.0501255e+2, 1.7425424e+2, -1262279.1, -1396674.1, 55511.44, -0.14359768, -0.06435944, -1242315.8, -10009.876, 0.000000050630582, 10.000389, 9.998606 
1.0501031e+2, 1.8425298e+2, -1085244.9, -1173022.8, 9328.67, -0.1885132, -0.08650825, -1084264.4, 50054.42, 0.0, 10.000541, 9.9994 
1.0500851e+2, 1.9425337e+2, -942374.7, -1048009.56, -5015.009, -0.09576538, -0.017476467, -942137.1, 94175.61, 0.0, 10.000828, 9.999446 
1.05006546e+2, 2.0425275e+2, -894660.44, -1040308.2, 40308.793, -0.059138846, 0.006955891, -884249.0, 54067.73, 0.0, 10.000775, 9.998852 
1.05004385e+2, 2.142506e+2, -888213.6, -995419.06, 54295.094, -0.0840686, -0.11037046, -865519.5, -25183.457, 0.0, 10.000181, 9.998775 
1.0500243e+2, 2.2424902e+2, -851203.4, -1006234.8, 45268.414, -0.040389027, -0.10796194, -838953.25, -96601.14, 0.0, 10.000102, 9.99807 
1.0500084e+2, 2.3424822e+2, -670968.56, -879550.8, 53313.516, 0.10507394, -0.009836625, -658131.7, -13767.495, 0.0, 10.000709, 9.997975 
1.04998305e+2, 2.4424697e+2, -439597.2, -532554.3, 74573.36, 0.12325057, -0.0034525099, -398204.0, 148171.67, 0.0, 10.000833, 9.999618 
1.0499463e+2, 2.5424504e+2, -419968.84, -462782.5, 1202.2568, -0.026852801, -0.1948268, -419935.13, 28452.445, 0.0, 10.000255, 9.999704 
1.0499246e+2, 2.642442e+2, -514829.84, -612655.56, 2128.1301, -0.049822234, -0.18258718, -514783.6, -164387.84, 0.00000000014537505, 9.999609, 9.998308 
1.0499241e+2, 2.7424473e+2, -520929.16, -585189.3, 31005.809, 0.11303277, 0.026591565, -508408.34, -256008.55, 0.00000042821608, 9.998966, 9.99814 
1.0499126e+2, 2.8424424e+2, -382516.53, -307062.28, 55359.934, 0.18853846, 0.10182068, -277796.44, -123388.46, 0.0000059800022, 9.998547, 9.999583 
1.0498846e+2, 2.9424235e+2, -306535.03, -208340.19, 78572.96, 0.13114624, -0.08526341, -164786.3, -108363.78, 0.000029321069, 9.998336, 9.999691 
1.0498482e+2, 3.0424148e+2, -337551.2, -258857.23, 58787.625, 0.028824072, -0.10877953, -227464.06, -227464.06, 0.000109979665, 9.998085, 9.999126 
1.0498025e+2, 3.1424162e+2, -181028.3, 135831.58, 53663.957, -0.07513444, -0.028775845, 144673.47, 144673.47, 0.000307793, 9.997719, 10.002021 
1.150234e+2, 1.2426131e+2, -1547508.4, -1711078.0, 19971.107, -0.17577313, -0.0023038692, -1545105.3, 177127.9, 0.001474528, 10.001393, 9.999346 
1.1502088e+2, 1.342598e+2, -1631491.3, -1818918.0, -6086.2983, -0.09952422, -0.004956304, -1631293.9, -7043.082, 0.00083337264, 10.000698, 9.998271 
1.1501791e+2, 1.4425825e+2, -1473199.1, -1498548.0, 16646.096, -0.14359026, -0.06812951, -1464951.5, 61315.29, 0.00033260565, 10.000301, 9.99997 
1.1501732e+2, 1.5425868e+2, -1346633.6, -1392589.4, 26298.809, -0.014668921, -0.047479376, -1334688.6, 93571.17, 0.0000710648, 10.000523, 9.99992 
1.15015835e+2, 1.6425848e+2, -1323063.9, -1451245.6, 45369.184, 0.0010565404, -0.0053829234, -1308630.9, 21630.152, 0.0000041843605, 10.000523, 9.998844 
1.15013465e+2, 1.7425703e+2, -1247094.8, -1372867.0, 59412.156, -0.11661921, -0.053687803, -1223468.1, 8808.918, 0.000000024917117, 10.000419, 9.998756 
1.1501154e+2, 1.8425585e+2, -1097154.3, -1182215.9, 12539.246, -0.13953044, -0.070524715, -1095344.4, 38943.86, 0.0, 10.000475, 9.999372 
1.1501001e+2, 1.9425502e+2, -949738.7, -1056107.8, 13433.891, -0.054580342, -0.11955066, -948068.3, 88225.375, 0.0, 10.000796, 9.999407 
1.1500812e+2, 2.0425436e+2, -868120.75, -971992.56, 11674.087, 0.002858955, -0.11901579, -866824.9, 71472.74, 0.0, 10.000713, 9.999353 
1.1500575e+2, 2.1425381e+2, -859543.75, -918853.7, 38399.633, 0.014181984, -0.13277984, -840681.2, -380.34024, 0.0, 10.000104, 9.99934 
1.1500318e+2, 2.2425298e+2, -822723.1, -929126.0, 56297.465, 0.0072583575, -0.11263989, -798466.2, -56158.074, 0.0, 10.000026, 9.998634 
1.1500036e+2, 2.342517e+2, -642396.25, -800310.56, 85758.21, -0.034768328, -0.12259589, -604782.8, 39538.676, 0.0, 10.000621, 9.998562 
1.1499767e+2, 2.4425004e+2, -567828.0, -781472.56, 48338.42, -0.044363573, -0.11095904, -557400.1, -11061.158, 0.0, 10.00076, 9.997945 
1.14995204e+2, 2.542478e+2, -559190.44, -735477.2, -15249.099, -0.015361642, -0.1491923, -557881.1, -109517.984, 0.0, 10.000183, 9.997867 
1.14992715e+2, 2.642467e+2, -464096.9, -501800.94, -29101.414, -0.004560012, -0.09871883, -448274.84, -97898.12, 0.0, 9.999582, 9.999087 
1.1499026e+2, 2.7424702e+2, -462501.78, -448681.44, 16783.814, -0.020720456, -0.0054597254, -437440.94, -185063.33, 0.0000002594802, 9.998895, 9.999118 
1.149885e+2, 2.8424716e+2, -332276.16, -188771.08, 39894.395, 0.039199322, 0.039932974, -178426.19, -24049.697, 0.000005001763, 9.998495, 10.000418 
1.1498755e+2, 2.9424718e+2, -267962.38, -97035.016, 80464.21, 0.18204808, -0.036006983, -65116.71, -8745.369, 0.000026475647, 9.998209, 10.000515 
1.1498397e+2, 3.0424747e+2, -349003.75, -267276.56, 44232.297, 0.11604575, 0.013597845, -247921.16, -247921.16, 0.000100772006, 9.998033, 9.999089 
1.1497749e+2, 3.1424472e+2, -254096.38, 9084.747, 62633.87, -0.17257343, -0.18370086, 23230.516, 23230.516, 0.00028477213, 9.997618, 10.001197 
1.250247e+2, 1.2426342e+2, -1657697.5, -1736693.4, -66152.19, -0.1325617, -0.034679234, -1620148.8, 102063.414, 0.0014451224, 10.000532, 9.99958 
1.2502205e+2, 1.3426262e+2, -1630981.0, -1787969.9, -45959.895, -0.03607879, 0.008623637, -1618515.6, 5706.103, 0.000820366, 10.000578, 9.998541 
1.2501872e+2, 1.4426082e+2, -1449319.8, -1508200.9, 54315.617, -0.09623574, -0.08461095, -1416979.0, 109260.83, 0.00033115427, 10.000549, 9.999786 
1.2501784e+2, 1.54261e+2, -1341635.9, -1417093.3, 24943.965, -0.017155373, -0.06883054, -1334135.6, 94100.7, 0.00007354598, 10.000664, 9.999682 
1.2501629e+2, 1.6426072e+2, -1282752.6, -1410729.5, 42335.457, -0.0108134495, -0.030824669, -1270015.5, 60222.82, 0.0000047036624, 10.000702, 9.999044 
1.2501411e+2, 1.7425953e+2, -1226812.4, -1338915.5, 48183.508, -0.089654505, -0.07214274, -1208949.0, 23301.514, 0.000000012759114, 10.000442, 9.998989 
1.2501237e+2, 1.8425848e+2, -1149235.0, -1204671.1, 24614.988, -0.07930952, -0.09070103, -1139883.0, -5622.954, 0.0, 10.00011, 9.999391 
1.250111e+2, 1.9425763e+2, -1126070.5, -1144509.0, 11571.431, 0.03956801, -0.13817996, -1120494.8, -84228.82, 0.0, 9.999604, 9.999374 
1.2500906e+2, 2.0425703e+2, -1038891.2, -1057628.6, 8030.7104, 0.088502124, -0.12946548, -1035920.3, -97650.13, 0.0, 9.999552, 9.999323 
1.2500608e+2, 2.1425666e+2, -877879.0, -930550.75, -24737.207, 0.04847604, -0.12205014, -868083.06, -27809.693, 0.0, 9.99999, 9.9993105 
1.2500322e+2, 2.2425595e+2, -782851.6, -849085.4, -11306.023, 0.013393055, -0.11492159, -780974.9, -38695.64, 0.0, 10.000039, 9.999171 
1.2500057e+2, 2.3425469e+2, -759672.75, -792429.75, 396.1949, -0.016100144, -0.17949434, -759668.0, -115378.445, 0.0, 9.999547, 9.999127 
1.2499801e+2, 2.4425335e+2, -756853.1, -875453.8, 33577.617, -0.016478697, -0.16580863, -748006.6, -201703.44, 0.0, 9.999475, 9.99792 
1.2499569e+2, 2.5425184e+2, -590752.0, -761959.75, 88475.78, 0.030305756, -0.121627145, -553246.25, -104923.94, 0.0, 10.000006, 9.997776 
1.2499279e+2, 2.6425093e+2, -400384.22, -449316.0, 112908.61, 0.03165608, -0.05568048, -309321.2, 41012.934, 0.0, 9.99993, 9.999276 
1.24989174e+2, 2.742506e+2, -422243.06, -402600.8, 82879.914, -0.021523587, -0.048142698, -328962.16, -76623.64, 0.00000012209664, 9.999072, 9.999339 
1.2498658e+2, 2.8425023e+2, -351141.44, -214629.97, 75126.12, 0.0068987045, -0.06013087, -181383.1, -27041.31, 0.000003888246, 9.998447, 10.000256 
1.24985375e+2, 2.9425025e+2, -288492.8, -124946.1, 23850.705, 0.15323292, -0.1200907, -121538.836, -65200.184, 0.00002250982, 9.998156, 10.00034 
1.2498214e+2, 3.042521e+2, -325306.28, -220453.63, -16496.244, 0.14059901, 0.07378959, -217919.56, -217919.56, 0.000088219014, 9.998006, 9.999447 
1.24976605e+2, 3.142491e+2, -248299.48, -2687.0864, 2196.3037, -0.015348721, -0.18567327, -2667.4482, -2667.4482, 0.00025421128, 9.997716, 10.001077 
1.35026e+2, 1.2426417e+2, -1578192.5, -1563472.9, -95615.305, -0.109545216, -0.07558496, -1474934.5, 247273.0, 0.0014399097, 10.000515, 10.000772 
1.3502304e+2, 1.3426468e+2, -1529635.1, -1584034.3, -38129.426, -0.022218974, -0.038521037, -1509998.1, 114200.5, 0.0008240123, 10.000624, 9.999909 
1.3501923e+2, 1.4426322e+2, -1467601.0, -1563504.1, 47966.555, -0.13043045, -0.14975044, -1447728.3, 78483.07, 0.00033951883, 10.000608, 9.999383 
1.3501795e+2, 1.5426369e+2, -1373995.8, -1491873.6, 38794.87, -0.098596476, -0.055941757, -1362373.8, 65834.68, 0.00008018549, 10.000687, 9.999163 
1.350162e+2, 1.642634e+2, -1273509.0, -1373905.6, 24889.068, -0.10735806, -0.0037301052, -1267677.5, 62534.098, 0.0000062149566, 10.000637, 9.999323 
1.3501407e+2, 1.7426175e+2, -1205130.5, -1290563.5, 48970.867, -0.16130683, -0.12513721, -1182863.5, 49362.95, 0.000000017143847, 10.00044, 9.999314 
1.3501243e+2, 1.8426089e+2, -1151416.8, -1207323.8, -1847.0573, -0.10755248, -0.14213334, -1151355.9, -17122.174, 0.0, 10.00009, 9.999387 
1.3501137e+2, 1.9426115e+2, -1129865.3, -1146877.5, 1454.2067, 0.0826135, -0.0782908, -1129741.9, -93512.07, 0.0, 9.999577, 9.9993725 
1.350091e+2, 2.0426068e+2, -1088222.0, -1145845.3, 13929.221, 0.11573891, -0.029393034, -1085031.6, -146796.56, 0.0, 9.99949, 9.99875 
1.3500506e+2, 2.1425909e+2, -934954.06, -1025206.94, 1574.6874, -0.07516518, -0.08203524, -934926.6, -94673.0, 0.0, 9.999891, 9.998708 
1.3500227e+2, 2.2425793e+2, -760450.3, -788223.75, -36548.387, -0.107060365, -0.11005721, -735239.4, 7025.719, 0.0, 9.999967, 9.999629 
1.3500108e+2, 2.3425715e+2, -729991.3, -716218.75, -11690.37, 0.061538517, -0.18134342, -709537.2, -65268.516, 0.0, 9.999478, 9.999683 
1.3499905e+2, 2.4425685e+2, -649526.44, -642375.6, 42222.676, 0.119603105, -0.17036255, -603577.25, -57308.25, 0.0, 9.999429, 9.999543 
1.3499586e+2, 2.542572e+2, -483873.16, -518320.13, 116655.586, 0.025797391, -0.1111304, -383176.44, 65088.426, 0.0, 9.999913, 9.999493 
1.3499244e+2, 2.6425695e+2, -438469.56, -516226.88, 77889.95, -0.016231822, -0.051291928, -390294.25, -40026.836, 0.0, 9.999881, 9.998838 
1.3498881e+2, 2.7425542e+2, -476480.56, -493474.0, 59211.36, 0.013203329, -0.1037331, -425159.4, -172876.2, 0.000000046518082, 9.998981, 9.998756 
1.3498524e+2, 2.8425336e+2, -434063.2, -379105.94, 54086.465, 0.0073167165, -0.20279403, -345918.1, -191613.2, 0.0000029362805, 9.998414, 9.999145 
1.3498169e+2, 2.942513e+2, -379880.28, -300148.88, 23394.416, -0.056912377, -0.35322285, -293791.5, -237464.9, 0.000019015239, 9.998088, 9.999174 
1.3497892e+2, 3.0425513e+2, -275486.47, -103329.23, -31130.27, 0.003518201, 0.063921005, -97873.03, -97873.03, 0.000075927965, 9.997952, 10.000273 
1.3497701e+2, 3.1425464e+2, -221368.23, 72534.94, 14606.152, 0.20785178, -0.03977332, 73259.04, 73259.04, 0.00022269739, 9.997628, 10.001637 
1.4502633e+2, 1.24265425e+2, -1788846.8, -1644558.0, -39896.04, -0.03520321, -0.07924234, -1634261.5, 87934.484, 0.0014542761, 9.99897, 10.000969 
1.4502367e+2, 1.342664e+2, -1542885.6, -1540510.1, -85112.43, 0.00074690056, -0.0399505, -1456577.1, 167603.56, 0.0008417685, 10.000307, 10.000364 
1.4502e+2, 1.4426494e+2, -1409007.0, -1544707.9, -24896.473, -0.13219714, -0.1737566, -1404583.5, 121609.56, 0.0003553583, 10.001051, 9.999304 
1.4501877e+2, 1.5426534e+2, -1326059.1, -1480682.5, -23514.615, -0.097027645, -0.07008798, -1322562.1, 105629.59, 0.00008912462, 10.00107, 9.999059 
1.4501706e+2, 1.6426526e+2, -1213470.4, -1304464.3, -13778.967, -0.09135379, -0.010035904, -1211429.6, 118763.62, 0.000008328298, 10.000878, 9.999679 
1.450149e+2, 1.7426415e+2, -1203065.0, -1251383.8, -8046.753, -0.11044614, -0.1169734, -1201760.1, 30442.123, 0.0000000715251, 10.000279, 9.999663 
1.4501308e+2, 1.8426351e+2, -1107421.8, -1170662.8, -15723.586, -0.05962828, -0.13401544, -1103728.1, 30478.666, 0.0, 10.000329, 9.999524 
1.4501157e+2, 1.9426355e+2, -884395.8, -1018779.1, -18613.523, 0.07031682, -0.103208475, -881865.3, 154340.14, 0.0, 10.001209, 9.999475 
1.4500885e+2, 2.0426317e+2, -854210.25, -1015542.0, 10545.705, 0.07051742, -0.057754643, -853523.8, 84686.54, 0.0, 10.001037, 9.99889 
1.4500435e+2, 2.1426213e+2, -994878.1, -1043550.06, 31836.71, -0.10600424, -0.06828348, -979141.44, -138916.81, 0.0, 9.99944, 9.998797 
1.4500155e+2, 2.2426137e+2, -913405.94, -844319.9, 56019.633, -0.11590413, -0.06699534, -813049.4, -70816.59, 0.0, 9.998849, 9.999781 
1.4500098e+2, 2.342608e+2, -699368.94, -687554.06, 35859.984, 0.10061702, -0.12875178, -657118.2, -12884.117, 0.0, 9.999627, 9.999815 
1.4499912e+2, 2.4426043e+2, -568961.94, -580654.44, 34968.81, 0.16588345, -0.14051877, -539354.06, 6880.6797, 0.0, 9.999887, 9.999744 
1.449955e+2, 2.542604e+2, -532889.94, -516095.56, -23037.232, 0.026330693, -0.14174663, -499972.84, -51739.06, 0.0, 9.9994755, 9.999714 
1.449919e+2, 2.642603e+2, -541471.8, -548700.2, -108948.77, -0.012308781, -0.08973643, -436077.28, -85842.92, 0.0, 9.999091, 9.9990015 
1.4498843e+2, 2.742596e+2, -501725.72, -490805.47, -88850.336, 0.09567315, -0.07253452, -407247.66, -155006.5, 0.00000002138944, 9.998735, 9.998904 
1.4498444e+2, 2.8425744e+2, -407814.1, -384210.9, 8868.88, 0.07921855, -0.17940454, -381249.9, -226987.11, 0.0000023054517, 9.998655, 9.999 
1.4497969e+2, 2.9425427e+2, -268975.6, -263403.47, 35414.68, -0.10097353, -0.42494515, -230665.44, -174370.73, 0.000016570593, 9.9989195, 9.999025 
1.4497693e+2, 3.0425817e+2, -165514.83, -72426.59, -11372.756, -0.025956908, 0.01706108, -71057.31, -71057.31, 0.0000664134, 9.998816, 10.000056 
1.4497565e+2, 3.1425783e+2, -178620.1, 64432.484, -88052.24, 0.2979921, -0.04739401, 92978.97, 92978.97, 0.0001967113, 9.99806, 10.001361 
1.5502529e+2, 1.2426741e+2, -1827296.4, -1753134.9, -26597.057, -0.09132008, -0.024116555, -1744582.5, -22407.56, 0.0014746141, 9.999089, 10.000169 
1.550236e+2, 1.3426785e+2, -1575114.3, -1613675.9, -30820.174, -0.060430262, 0.014278497, -1558040.8, 66126.66, 0.00086313457, 10.000326, 9.999858 
1.550206e+2, 1.4426589e+2, -1392112.4, -1503070.5, -31403.695, -0.19963045, -0.15668543, -1383841.0, 142344.63, 0.00037152023, 10.001028, 9.999598 
1.5501994e+2, 1.5426597e+2, -1299799.6, -1428726.8, -11973.956, -0.1127978, -0.11824769, -1298697.0, 129489.27, 0.00009663115, 10.001085, 9.999404 
1.5501855e+2, 1.6426638e+2, -1189718.3, -1248535.5, -42479.223, -0.052100997, -0.048297405, -1167461.1, 162721.56, 0.000009881803, 10.000851, 10.000078 
1.5501633e+2, 1.7426683e+2, -1177968.8, -1191800.3, -20962.549, -0.018059937, -0.03486172, -1162810.6, 69365.92, 0.00000020107916, 10.000251, 10.000086 
1.5501398e+2, 1.8426643e+2, -1095878.8, -1141104.3, 5149.946, -0.022948112, -0.06333785, -1095299.8, 38879.027, 0.0, 10.000303, 9.999741 
1.5501142e+2, 1.9426484e+2, -881185.9, -993914.8, 24147.36, -0.08824939, -0.21485072, -876231.06, 159961.5, 0.0, 10.001143, 9.999673 
1.550081e+2, 2.042645e+2, -806188.94, -906930.4, -51268.58, -0.12817204, -0.20935687, -784687.0, 153508.94, 0.0, 10.000985, 9.999669 
1.5500364e+2, 2.142658e+2, -945123.4, -922662.75, -21488.729, -0.14234838, -0.072967425, -909646.7, -69460.484, 0.0, 9.999363, 9.999665 
1.5500076e+2, 2.242663e+2, -937531.56, -880278.8, 71358.01, -0.097659595, 0.020155732, -832019.4, -89837.69, 0.0, 9.998784, 9.999566 
1.55e+2, 2.3426567e+2, -731224.56, -737667.5, 75234.33, 0.020375764, -0.022069767, -659142.75, -14957.05, 0.0, 9.999554, 9.999507 
1.5499796e+2, 2.4426413e+2, -661415.75, -764912.5, 14757.088, 0.040555287, -0.07759188, -659352.75, -113152.29, 0.0, 9.999847, 9.998501 
1.5499431e+2, 2.542613e+2, -634829.6, -715660.2, -28758.4, -0.061811104, -0.22326165, -625642.1, -177411.95, 0.0, 9.999412, 9.998379 
1.549909e+2, 2.6426083e+2, -494547.53, -440835.88, -130598.89, -0.041845266, -0.17151968, -334360.16, 15875.6, 0.0, 9.999053, 9.999757 
1.5498775e+2, 2.74263e+2, -452279.9, -369183.47, -92337.625, 0.13465624, 0.03644648, -309477.1, -57263.684, 0.000000019825112, 9.998652, 9.999779 
1.5498386e+2, 2.8426245e+2, -354595.28, -263725.03, 11202.011, 0.13511516, 0.004734179, -262364.47, -108148.42, 0.0000019865888, 9.998615, 9.999845 
1.5497907e+2, 2.9425907e+2, -218663.44, -143513.94, 57791.395, -0.082944535, -0.3475273, -112156.055, -55911.773, 0.000014949104, 9.998848, 9.999885 
1.549759e+2, 3.0426124e+2, -261249.95, -258136.94, -41037.457, -0.029539268, -0.06594503, -218626.48, -218626.48, 0.000059797247, 9.998772, 9.998792 
1.5497197e+2, 3.1425884e+2, -272151.94, -109418.05, -90465.14, 0.07881821, -0.19586332, -69111.164, -69111.164, 0.0001777337, 9.997979, 10.000199 
1.6502589e+2, 1.2426882e+2, -1518939.9, -1669353.1, 40715.06, -0.05105416, -0.08869539, -1508626.0, 213530.88, 0.0014821975, 10.00148, 9.999589 
1.6502431e+2, 1.342693e+2, -1549943.0, -1639923.3, 28056.9, -0.03359321, -0.013030131, -1541911.4, 82240.3, 0.0008719991, 10.000661, 9.999517 
1.650213e+2, 1.4426745e+2, -1519216.8, -1564037.1, 41213.207, -0.18168902, -0.15233353, -1494714.9, 31455.383, 0.0003781117, 10.00018, 9.999573 
1.6502097e+2, 1.5426748e+2, -1406380.8, -1482810.3, 12905.239, -0.07736704, -0.121397555, -1404260.5, 23911.611, 0.000098805474, 10.000376, 9.999367 
1.6501942e+2, 1.6426785e+2, -1290414.5, -1289623.5, -56093.14, -0.006092145, -0.052118924, -1233924.5, 96244.516, 0.000009884257, 10.0001135, 10.000152 
1.6501655e+2, 1.7426853e+2, -1326965.0, -1249762.0, -74998.04, 0.03810533, -0.0315776, -1204014.4, 28146.908, 0.0000002904704, 9.999163, 10.000212 
1.650137e+2, 1.8426852e+2, -1307433.6, -1180516.4, 8226.302, 0.009995641, -0.051634315, -1179985.5, -45826.063, 0.0, 9.998597, 10.000281 
1.6501093e+2, 1.9426754e+2, -1220543.4, -1094408.5, 41281.016, -0.11471193, -0.20088133, -1082099.4, -45933.03, 0.0, 9.998537, 10.000233 
1.6500783e+2, 2.042675e+2, -1067748.4, -998586.56, -35611.09, -0.15248512, -0.21207424, -983528.9, -45363.08, 0.0, 9.999048, 9.999971 
1.6500412e+2, 2.1426867e+2, -780264.06, -812237.25, -66394.01, -0.073884845, -0.11245687, -727959.06, 112196.516, 0.0, 10.000358, 9.999948 
1.6500136e+2, 2.2426915e+2, -658493.44, -763474.6, 24010.814, -0.012519429, -0.030221842, -653262.44, 88888.984, 0.0, 10.0007925, 9.999394 
1.6499972e+2, 2.3426874e+2, -676047.7, -729826.5, 15298.887, 0.018856179, -0.028474078, -672000.1, -27845.018, 0.0, 10.000038, 9.999317 
1.6499713e+2, 2.4426736e+2, -709106.7, -771192.25, 10604.082, -0.0030543618, -0.06161446, -707345.5, -161176.6, 0.0, 9.999456, 9.998644 
1.6499332e+2, 2.5426474e+2, -662455.06, -706117.3, 59923.82, -0.08341909, -0.2058053, -620509.5, -172313.61, 0.0, 9.999134, 9.998572 
1.6498989e+2, 2.6426414e+2, -455378.06, -419845.56, 31625.281, -0.05567287, -0.17821285, -401337.88, -51135.473, 0.0, 9.9993, 9.999785 
1.6498695e+2, 2.742658e+2, -232466.95, -253605.67, -12064.169, 0.12300248, -0.022162912, -226997.13, 25187.852, 0.000000024295247, 10.000125, 9.999852 
1.6498311e+2, 2.8426567e+2, -159112.95, -145476.08, 22508.148, 0.14409554, -0.02941695, -128776.27, 25407.371, 0.0000019697127, 9.999866, 10.000051 
1.6497836e+2, 2.9426363e+2, -292205.1, -145826.94, -258.49667, -0.0020327077, -0.26588756, -145826.47, -89628.94, 0.000013995548, 9.998208, 10.000176 
1.6497509e+2, 3.042645e+2, -389618.44, -335012.38, -22187.18, 0.06297872, -0.12745927, -327134.06, -327134.06, 0.00005518299, 9.997938, 9.998678 
1.6497022e+2, 3.142614e+2, -78938.06, -37867.523, -630.07916, 0.04573444, -0.30857617, -37857.86, -37857.86, 0.00016337763, 9.99939, 10.000017 
1.7502755e+2, 1.2426958e+2, -1538387.0, -1708947.1, -18876.76, -0.08282541, -0.28269318, -1536322.9, 185819.86, 0.001464911, 10.001484, 9.9993105 
1.750254e+2, 1.3427083e+2, -1559972.4, -1656935.6, 1136.7892, -0.011358644, -0.11688061, -1559959.1, 64173.383, 0.0008580161, 10.000661, 9.9993925 
1.7502198e+2, 1.442697e+2, -1544264.4, -1623415.3, 36418.8, -0.15843679, -0.15816242, -1530057.5, -3911.1792, 0.00036898247, 10.0002, 9.999163 
1.7502154e+2, 1.5426975e+2, -1433182.0, -1541625.6, 30831.705, -0.083093196, -0.07983607, -1425029.1, 3120.5012, 0.00009401229, 10.000386, 9.998961 
1.7501941e+2, 1.642697e+2, -1304958.1, -1313734.6, -97436.21, -0.04185313, -0.025693933, -1211811.4, 118340.79, 0.000008393363, 10.000087, 10.000001 
1.7501523e+2, 1.7426927e+2, -1340820.1, -1273231.3, -102641.01, -0.031851757, -0.09902044, -1198964.4, 33191.297, 0.00000020811186, 9.999146, 10.000057 
1.7501198e+2, 1.8426989e+2, -1247527.3, -1056509.9, -2575.3577, -0.044312727, -0.08930253, -1056475.1, 77672.41, 0.0, 9.998585, 10.001143 
1.7500985e+2, 1.9427177e+2, -1158890.9, -956416.0, 47541.574, -0.09974944, -0.04909693, -945808.8, 90316.75, 0.0, 9.998492, 10.001203 
1.7500769e+2, 2.0427223e+2, -1089430.3, -1032048.75, -62.067062, -0.0890566, -0.053145576, -1032048.7, -93929.91, 0.0, 9.998994, 9.999768 
1.7500554e+2, 2.1427076e+2, -815073.25, -866503.25, -8395.749, 0.012203333, -0.19000854, -813737.4, 26395.791, 0.0, 10.000281, 9.999611 
1.75003e+2, 2.2426996e+2, -678612.4, -791344.6, -7469.422, 0.055140596, -0.20867695, -678119.6, 64021.785, 0.0, 10.000727, 9.999236 
1.749999e+2, 2.3426999e+2, -694204.2, -755380.8, -5372.471, 0.011892789, -0.14970647, -693735.94, -49593.336, 0.0, 9.999977, 9.999173 
1.7499635e+2, 2.4427019e+2, -611729.44, -558369.44, -10890.238, -0.044797547, -0.087981336, -556232.44, -10092.672, 0.0, 9.999412, 10.000125 
1.7499223e+2, 2.5427058e+2, -563101.3, -480813.47, 54361.723, -0.12477267, -0.09132388, -453781.03, -5649.1836, 0.0, 9.999053, 10.000158 
1.7498869e+2, 2.6427007e+2, -501561.38, -512001.4, 51635.72, -0.1232127, -0.10853621, -454882.5, -104747.55, 0.0, 9.999282, 9.999162 
1.749858e+2, 2.7426803e+2, -297370.97, -376227.88, 27542.291, -0.028714342, -0.24738088, -288703.9, -36547.734, 0.000000035492793, 10.000069, 9.99904 
1.7498195e+2, 2.8426707e+2, -190727.6, -208603.6, -44012.07, 0.019225126, -0.27058548, -154755.13, -589.577, 0.0000021240596, 9.999855, 9.9996195 
1.7497705e+2, 2.9426792e+2, -326627.66, -200275.3, -53789.03, 0.025604868, -0.181277, -180478.66, -124323.414, 0.000013429294, 9.998142, 9.99983 
1.7497426e+2, 3.0426785e+2, -312246.56, -176789.33, 18336.322, 0.1656678, -0.1720879, -174351.1, -174351.1, 0.000050917075, 9.997941, 9.99977 
1.7496975e+2, 3.1426555e+2, -32165.21, 76296.555, 98495.21, 0.012049869, -0.38272828, 134503.63, 134503.63, 0.00014886881, 9.999327, 10.00083 
1.8502808e+2, 1.2427197e+2, -1832718.3, -1846559.6, -34602.43, -0.065926254, -0.26386264, -1804351.3, -82230.64, 0.0014182838, 9.999434, 9.999358 
1.850264e+2, 1.3427332e+2, -1528785.1, -1616244.0, -15636.589, 0.025058327, -0.10940562, -1526073.6, 98034.48, 0.00082149997, 10.000758, 9.999624 
1.8502288e+2, 1.4427248e+2, -1420311.9, -1570692.4, 53014.715, -0.12682763, -0.13186248, -1403501.5, 122616.61, 0.00034638878, 10.00107, 9.999104 
1.8502186e+2, 1.5427212e+2, -1444859.8, -1552465.1, 55305.914, -0.08208589, -0.09027958, -1421503.6, 6621.324, 0.000084445885, 10.000325, 9.998918 
1.850192e+2, 1.6427185e+2, -1315705.0, -1326538.4, -39393.74, -0.065955244, -0.05181728, -1281357.3, 48772.195, 0.000006352812, 10.000057, 9.999922 
1.8501465e+2, 1.7427142e+2, -1160343.0, -1197452.6, -55994.633, -0.0638358, -0.117896155, -1119909.0, 112224.72, 0.000000056960435, 10.00043, 9.999958 
1.8501133e+2, 1.8427204e+2, -1001681.75, -959019.6, 22807.625, -0.053850275, -0.09488471, -949122.44, 185004.27, 0.0, 10.000372, 10.000949 
1.8500936e+2, 1.94274e+2, -996527.8, -899027.75, -30194.45, -0.05317154, -0.025363458, -890434.3, 145671.03, 0.0, 9.999702, 10.001013 
1.8500756e+2, 2.0427452e+2, -1018409.44, -979619.3, -57826.992, -0.018567748, -0.021213463, -938021.5, 77.02363, 0.0, 9.999399, 9.999933 
1.850059e+2, 2.1427308e+2, -907810.25, -889856.75, -41445.36, 0.0628513, -0.17063549, -856427.1, -16315.618, 0.0, 9.999542, 9.999809 
1.8500325e+2, 2.2427231e+2, -832906.4, -839453.8, -31441.188, 0.07018733, -0.21218307, -804568.94, -62449.91, 0.0, 9.999544, 9.999481 
1.8499918e+2, 2.3427227e+2, -766297.4, -765204.56, -19690.684, -0.020888804, -0.18235828, -746052.7, -101932.57, 0.0, 9.999359, 9.99941 
1.8499537e+2, 2.4427268e+2, -600228.7, -513654.25, -20748.896, -0.07671578, -0.12941808, -508938.34, 37176.066, 0.0, 9.999316, 10.000479 
1.8499188e+2, 2.5427362e+2, -478959.28, -398601.75, -64277.906, -0.07990182, -0.11388529, -362978.28, 85121.4, 0.0, 9.999452, 10.000531 
1.8498841e+2, 2.642733e+2, -531525.44, -515631.66, -79450.5, -0.06391603, -0.13826634, -443731.6, -93630.836, 0.0, 9.999032, 9.999257 
1.8498482e+2, 2.7427098e+2, -605954.1, -518354.44, -54868.44, -0.020427654, -0.30585417, -491947.66, -239822.63, 0.000000044067633, 9.997914, 9.999109 
1.8498063e+2, 2.8427035e+2, -464639.2, -349481.94, -55517.082, -0.0005753554, -0.29923397, -327076.53, -172943.97, 0.000002141611, 9.997999, 9.999553 
1.8497583e+2, 2.942721e+2, -107730.445, -106909.78, -62418.297, 0.017894918, -0.11134947, -44900.47, 11214.899, 0.000012353572, 9.999681, 9.99974 
1.8497337e+2, 3.0427122e+2, 342.5756, 48805.484, 13743.934, 0.19928348, -0.21186022, 52431.867, 52431.867, 0.0000445169, 9.999767, 10.00043 
1.849692e+2, 3.1427082e+2, -278039.38, -63537.45, 49282.348, 0.11598628, -0.29602072, -52756.56, -52756.56, 0.00012870552, 9.997688, 10.000675 
1.9502702e+2, 1.24276e+2, -1802087.8, -1785116.6, -21208.455, -0.16403992, -0.0201621, -1770759.1, -48669.047, 0.0013429979, 9.999453, 9.999766 
1.9502702e+2, 1.342767e+2, -1491831.6, -1529765.5, 35811.434, -0.0107496185, 0.008728355, -1470274.5, 153804.39, 0.0007683095, 10.000731, 10.000224 
1.9502372e+2, 1.4427577e+2, -1393963.4, -1517863.3, 18094.816, -0.17652321, -0.072254635, -1391374.9, 134710.72, 0.00031677555, 10.001068, 9.999472 
1.9502157e+2, 1.5427463e+2, -1420229.6, -1502500.1, 34927.633, -0.16537406, -0.14450602, -1407401.5, 20695.68, 0.000073711046, 10.000327, 9.999261 
1.9501853e+2, 1.642744e+2, -1316876.6, -1328932.9, -34169.035, -0.15973029, -0.12026958, -1288208.1, 41891.938, 0.0000047225935, 10.000048, 9.999915 
1.950146e+2, 1.7427503e+2, -1164005.3, -1203038.3, -31560.674, -0.1347213, -0.07885039, -1146414.3, 85680.484, 0.0000000036456946, 10.000416, 9.999929 
1.9501148e+2, 1.8427502e+2, -1094990.3, -1144498.5, -8972.324, -0.096546546, -0.05877951, -1093414.4, 40681.75, 0.0, 10.000332, 9.9997 
1.9500922e+2, 1.9427416e+2, -1098898.8, -1102102.9, -46292.008, -0.058519416, -0.13383593, -1054181.1, -18074.88, 0.0, 9.999659, 9.999643 
1.9500706e+2, 2.0427436e+2, -991593.4, -904265.56, -61109.36, -0.025771076, -0.11490899, -872823.6, 65281.38, 0.0, 9.999318, 10.000485 
1.9500498e+2, 2.1427573e+2, -869752.44, -790928.06, -27687.205, -0.0031469187, -0.056265987, -782174.9, 57915.62, 0.0, 9.999458, 10.000525 
1.9500183e+2, 2.2427623e+2, -801831.1, -756819.9, -46729.152, -0.042008452, -0.034493268, -727459.1, 14624.706, 0.0, 9.999469, 10.000083 
1.9499728e+2, 2.3427558e+2, -735935.5, -681909.94, -19405.83, -0.16561167, -0.12659043, -675662.0, -31574.115, 0.0, 9.999275, 10.000019 
1.9499388e+2, 2.4427482e+2, -664822.1, -633377.44, -25508.348, -0.17361267, -0.18517047, -619135.4, -73042.586, 0.0, 9.999252, 9.999688 
1.9499196e+2, 2.5427386e+2, -553149.44, -532630.94, -50894.168, -0.037854362, -0.27460858, -490972.28, -42872.734, 0.0, 9.999368, 9.999648 
1.9498876e+2, 2.6427382e+2, -477764.97, -399103.44, -126519.59, 0.04923291, -0.25887585, -305942.25, 44156.684, 0.0, 9.999007, 10.0000725 
1.9498374e+2, 2.7427477e+2, -547874.3, -385543.1, -86980.414, 0.05949145, -0.19490206, -347740.44, -95649.49, 0.000000036761158, 9.997856, 10.000053 
1.9497888e+2, 2.842755e+2, -452634.28, -315586.97, -5841.4795, 0.005319033, -0.112908185, -315338.44, -161254.0, 0.0000018181237, 9.997965, 9.9998 
1.9497442e+2, 2.942762e+2, -107987.12, -85878.6, 14775.505, -0.11422412, -0.04810749, -78479.89, -22403.03, 0.000010151812, 9.999599, 9.999919 
1.9497222e+2, 3.0427462e+2, 16116.912, 83652.17, -59389.973, 0.08484079, -0.23821658, 118203.07, 118203.07, 0.00003534469, 9.999759, 10.000671 
1.9496801e+2, 3.1427762e+2, -353693.4, -196495.27, 13361.754, 0.1841894, -0.01433448, -195367.61, -195367.61, 0.0001028295, 9.9976015, 9.999792 
2.0502807e+2, 1.24278285e+2, -1436896.9, -1608049.3, 3606.7595, -0.12344445, 0.04910885, -1436820.9, 285250.75, 0.0012444656, 10.001975, 9.999762 
2.0502834e+2, 1.3427839e+2, -1376051.1, -1478506.6, -6465.229, 0.014339331, 0.019652316, -1375644.8, 248420.56, 0.00070293987, 10.001537, 10.000197 
2.0502484e+2, 1.4427759e+2, -1411556.4, -1489658.9, -73156.62, -0.1526564, -0.05904451, -1367680.6, 158388.89, 0.00028321997, 10.0008, 9.999794 
2.050218e+2, 1.5427643e+2, -1454465.1, -1479157.5, -83128.73, -0.1494296, -0.16815153, -1382770.8, 45308.8, 0.000063005726, 9.99992, 9.999616 
2.0501854e+2, 1.6427636e+2, -1371929.6, -1335520.3, -85476.33, -0.13614248, -0.15458041, -1266331.5, 63748.426, 0.0000035155435, 9.999595, 10.000084 
2.0501532e+2, 1.7427748e+2, -1215015.0, -1209548.4, -83228.03, -0.07922037, -0.077950194, -1129008.9, 103061.36, 0.0000000004928599, 9.999997, 10.000085 
2.050121e+2, 1.8427765e+2, -1145532.1, -1181395.4, -30172.662, -0.04589121, -0.042071555, -1128364.8, 5705.445, 0.0, 10.000039, 9.999586 
2.0500879e+2, 1.9427662e+2, -1120626.3, -1128143.5, 2623.1462, -0.057021517, -0.1242373, -1119801.4, -83718.195, 0.0, 9.999573, 9.999505 
2.0500617e+2, 2.0427674e+2, -993976.75, -906155.44, 57237.223, -0.041648187, -0.10347085, -877925.6, 60157.625, 0.0, 9.999302, 10.000485 
2.0500448e+2, 2.142783e+2, -902889.56, -805060.7, 26639.75, 0.016781775, -0.026839985, -798276.9, 41790.746, 0.0, 9.999227, 10.000543 
2.0500146e+2, 2.242791e+2, -824628.5, -729147.2, -20379.914, -0.0058115884, 0.0088499095, -724979.2, 17078.752, 0.0, 9.9991455, 10.000426 
2.0499675e+2, 2.3427887e+2, -744961.0, -647732.7, -26962.408, -0.130633, -0.07761273, -640756.3, 3300.7957, 0.0, 9.999047, 10.000365 
2.0499335e+2, 2.442782e+2, -728036.56, -672686.06, -1058.7861, -0.12827437, -0.14216201, -672665.8, -126604.76, 0.0, 9.9988575, 9.999605 
2.0499164e+2, 2.5427684e+2, -673089.94, -609855.9, 14727.142, 0.035396814, -0.25633854, -606594.1, -158521.53, 0.0, 9.998616, 9.999484 
2.049883e+2, 2.6427677e+2, -499808.22, -395333.44, -45279.54, 0.11735799, -0.2430923, -378440.66, -28367.844, 0.0, 9.998804, 10.000191 
2.0498267e+2, 2.742781e+2, -289465.25, -243475.83, -89333.25, 0.08625192, -0.15537716, -174225.28, 77834.875, 0.00000002096579, 9.999571, 10.000194 
2.049776e+2, 2.842788e+2, -198473.13, -189455.45, -5860.115, 0.000250587, -0.08338704, -186570.33, -32517.307, 0.0000012828043, 9.999699, 9.999831 
2.0497349e+2, 2.9427904e+2, -184390.97, -118117.87, -5927.9336, -0.13268645, -0.0678358, -117591.81, -61542.973, 0.000007381431, 9.999056, 9.999958 
2.0497134e+2, 3.0427757e+2, -68321.85, 72796.42, -113401.43, 0.06323206, -0.2668232, 135798.05, 135798.05, 0.000026183789, 9.999063, 10.000937 
2.0496678e+2, 3.1428126e+2, -69334.5, -100533.48, -55261.195, 0.20143235, 0.002408403, -27513.229, -27513.229, 0.00007851838, 9.999762, 9.999404 
2.1503052e+2, 1.24278836e+2, -1471444.0, -1671599.0, -55280.45, -0.122094184, -0.056140978, -1457191.1, 264873.7, 0.0011273269, 10.001946, 9.999339 
2.1503009e+2, 1.3427846e+2, -1418147.5, -1568723.9, -15450.808, 0.014326509, -0.06979333, -1416578.4, 207488.0, 0.0006276391, 10.001555, 9.999569 
2.1502592e+2, 1.4427812e+2, -1397869.8, -1460709.6, -116732.15, -0.1524199, -0.07834537, -1308403.0, 217665.02, 0.0002466057, 10.000794, 9.999996 
2.1502227e+2, 1.5427762e+2, -1430395.0, -1434045.1, -108087.555, -0.12228689, -0.15161163, -1324117.1, 103954.055, 0.000052325075, 9.999939, 9.999918 
2.1501899e+2, 1.642778e+2, -1351548.6, -1286730.1, -82748.31, -0.07290334, -0.14598231, -1230270.6, 99798.08, 0.000002586899, 9.999566, 10.000432 
2.1501653e+2, 1.7427875e+2, -1195296.8, -1160335.4, -59371.88, 0.021607617, -0.122012, -1115924.3, 116136.18, 0.000000000052014764, 9.999966, 10.000434 
2.1501295e+2, 1.842799e+2, -1084462.0, -1043991.9, -52219.527, 0.017384673, -0.050613444, -1008223.94, 125825.8, 0.0, 9.999989, 10.000557 
2.1500786e+2, 1.9428124e+2, -1050920.6, -976449.2, -6291.0557, -0.1292471, 0.0008848477, -975921.5, 60115.605, 0.0, 9.999539, 10.000563 
2.1500468e+2, 2.0428163e+2, -1039116.94, -986893.0, 43990.35, -0.13817431, 0.015562327, -961848.5, -23814.67, 0.0, 9.999245, 9.999958 
2.1500409e+2, 2.1428074e+2, -958933.25, -903015.44, 30689.87, 0.0347525, -0.08629751, -889458.5, -49415.24, 0.0, 9.999146, 9.9999075 
2.1500184e+2, 2.2428086e+2, -832977.6, -724601.6, -31852.148, 0.09825994, -0.089494735, -715933.44, 26108.373, 0.0, 9.999054, 10.000501 
2.1499734e+2, 2.3428218e+2, -750515.2, -633373.0, -20276.506, 0.005121494, -0.036285378, -629962.56, 14064.764, 0.0, 9.9989395, 10.000513 
2.149935e+2, 2.4428287e+2, -695197.4, -594127.4, -17387.334, -0.017939541, -0.00041952092, -591219.8, -45200.965, 0.0, 9.998815, 10.000166 
2.1499068e+2, 2.542827e+2, -644599.9, -526962.44, 13198.756, 0.05697261, -0.05258787, -525499.75, -77481.62, 0.0, 9.998519, 10.000099 
2.1498677e+2, 2.6428217e+2, -551632.44, -493312.75, -26313.139, 0.06677034, -0.08548992, -483195.66, -133174.13, 0.0, 9.998761, 9.999537 
2.149813e+2, 2.7428088e+2, -356010.88, -362732.3, -50808.926, -0.028312305, -0.1893264, -308451.63, -56417.953, 0.00000000626477, 9.999488, 9.999414 
2.1497652e+2, 2.8428015e+2, -206654.48, -198473.31, -36451.16, -0.09890821, -0.2136703, -165883.94, -11844.809, 0.00000075455597, 9.999667, 9.9997835 
2.1497293e+2, 2.9428074e+2, -197254.34, -132759.42, -21200.389, -0.11879963, -0.1640761, -126414.71, -70384.22, 0.0000049684672, 9.999003, 9.999884 
2.1497057e+2, 3.0428e+2, -54902.766, 96934.336, -94882.37, 0.0626288, -0.2884769, 142532.4, 142532.4, 0.000019548965, 9.999072, 10.001104 
2.149651e+2, 3.1428167e+2, -85174.02, -122195.65, 21304.578, 0.013799803, -0.24135365, -75461.88, -75461.88, 0.00006122242, 9.999706, 9.99929 
2.2503231e+2, 1.24281295e+2, -1581619.8, -1711676.3, 5411.6685, -0.08361214, -0.06805502, -1581395.0, 140645.72, 0.0009979393, 10.001115, 9.999471 
2.2503148e+2, 1.3428076e+2, -1599951.3, -1668045.9, 58615.797, 0.06514042, -0.09056699, -1566211.9, 57833.824, 0.0005469221, 10.000364, 9.999455 
2.2502682e+2, 1.4428091e+2, -1514823.3, -1489642.4, 11285.585, -0.090926014, -0.053516682, -1485324.8, 40718.03, 0.00020906674, 9.999876, 10.000246 
2.2502257e+2, 1.5428108e+2, -1406392.8, -1390858.5, 4349.3867, -0.08018765, -0.08608457, -1389723.6, 38314.25, 0.000042237294, 9.999968, 10.000206 
2.2501901e+2, 1.6428119e+2, -1332300.4, -1313140.3, 34114.805, -0.035377663, -0.0910024, -1287286.0, 42750.016, 0.0000020119714, 9.999841, 10.000122 
2.2501655e+2, 1.7428102e+2, -1319479.4, -1265729.8, -14941.2295, 0.06578294, -0.14022188, -1261855.6, -29816.098, 0.0, 9.999297, 10.000038 
2.250129e+2, 1.8428198e+2, -1173904.4, -1033836.5, -37373.133, 0.057867605, -0.08977346, -1024488.44, 109542.26, 0.0, 9.99915, 10.001025 
2.2500755e+2, 1.9428436e+2, -1030070.25, -907863.94, -45771.008, -0.10461142, 0.012994837, -892621.94, 143383.98, 0.0, 9.999444, 10.001078 
2.2500426e+2, 2.0428516e+2, -972783.9, -950295.5, 22168.752, -0.122765966, 0.03894114, -936682.4, 1315.2825, 0.0, 9.999678, 10.000005 
2.2500369e+2, 2.1428378e+2, -869143.94, -858653.4, 43652.688, 0.05601079, -0.113408275, -819932.0, 20079.969, 0.0, 9.999753, 9.999924 
2.2500135e+2, 2.2428373e+2, -757672.94, -696135.44, 6537.4927, 0.12159339, -0.13223167, -695448.56, 46564.4, 0.0, 9.999602, 10.000434 
2.2499658e+2, 2.3428527e+2, -733571.9, -632155.06, -17351.35, 0.03556839, -0.04976238, -629268.56, 14729.328, 0.0, 9.999086, 10.000448 
2.2499266e+2, 2.4428625e+2, -663543.9, -558721.9, -5857.983, 0.013560612, 0.012667183, -558395.56, -12408.515, 0.0, 9.9989395, 10.000354 
2.2498988e+2, 2.542865e+2, -507742.22, -436880.0, -18423.46, 0.090022966, -0.022462675, -432376.3, 15605.796, 0.0, 9.999349, 10.000322 
2.2498605e+2, 2.6428598e+2, -466830.0, -467188.9, -32205.512, 0.091203436, -0.059357412, -434803.44, -84818.41, 0.0, 9.999406, 9.999405 
2.2498076e+2, 2.7428427e+2, -421337.94, -413572.88, -27326.16, -0.0077919937, -0.18810667, -389854.8, -137853.8, 0.00000000006385136, 9.999113, 9.999248 
2.2497618e+2, 2.8428313e+2, -296423.3, -278442.56, 9347.259, -0.070206806, -0.23040023, -274463.8, -120453.484, 0.00000032397858, 9.9992, 9.999462 
2.249728e+2, 2.9428327e+2, -127862.52, -144781.2, -23012.416, -0.059250873, -0.19301887, -111803.875, -55797.76, 0.000003287384, 9.999677, 9.999475 
2.2497003e+2, 3.0428267e+2, 4647.922, 72864.11, -102463.05, 0.07826505, -0.25754583, 146746.94, 146746.94, 0.00001589248, 9.999707, 10.000629 
2.2496393e+2, 3.1428286e+2, -148842.48, -163069.61, -36422.19, -0.04399664, -0.32426432, -118845.68, -118845.68, 0.000052100033, 9.999307, 9.999202 
2.3503299e+2, 1.2428569e+2, -1529346.6, -1612041.9, -64667.66, -0.17848551, 0.013502767, -1493938.0, 228060.86, 0.0008671324, 10.001158, 10.000135 
2.3503217e+2, 1.3428518e+2, -1568359.3, -1617400.8, 28531.803, 0.07456423, -0.03855208, -1555259.1, 68745.07, 0.0004662031, 10.000415, 9.999785 
2.3502718e+2, 1.4428581e+2, -1495246.3, -1437734.5, 256.37378, -0.06154073, 0.009149996, -1437733.4, 88262.49, 0.00017258529, 9.999834, 10.000621 
2.350225e+2, 1.5428674e+2, -1379650.3, -1336949.5, 17691.61, -0.10863218, 0.018142818, -1330572.1, 97408.63, 0.000033446406, 9.999976, 10.00057 
2.3501836e+2, 1.6428642e+2, -1410887.5, -1467920.1, 5688.082, -0.10634998, 0.0025735665, -1410325.8, -80343.36, 0.0000017722703, 9.999805, 9.999079 
2.3501518e+2, 1.7428423e+2, -1395394.8, -1421912.5, -27646.588, -0.022078987, -0.13733625, -1377992.0, -145983.64, 0.0000000001389195, 9.9992895, 9.998972 
2.3501167e+2, 1.8428393e+2, -1188660.6, -1048480.6, -36770.664, 0.0018911911, -0.15633726, -1039420.8, 94592.055, 0.0, 9.9990835, 10.000959 
2.3500757e+2, 1.9428599e+2, -1035485.8, -909027.25, -27203.139, -0.068518594, -0.082220085, -903423.75, 132565.89, 0.0, 9.999401, 10.00109 
2.3500454e+2, 2.0428728e+2, -939023.4, -860899.3, 17812.633, -0.076805316, -0.038186327, -857029.6, 80945.55, 0.0, 9.999596, 10.000659 
2.3500307e+2, 2.142874e+2, -833705.56, -763013.3, 55286.902, -0.0026682885, -0.11243828, -732739.4, 107234.29, 0.0, 9.999656, 10.000628 
2.3499982e+2, 2.2428772e+2, -792570.56, -741790.56, -18309.477, -0.008239076, -0.120042644, -735877.4, 6093.7295, 0.0, 9.999494, 10.000172 
2.3499426e+2, 2.3428813e+2, -770597.56, -687441.5, -28478.035, -0.12552094, -0.112544686, -678623.8, -34655.113, 0.0, 9.998996, 10.000114 
2.3499043e+2, 2.4428831e+2, -679278.06, -580745.2, -2424.5327, -0.12390558, -0.10671412, -580685.56, -34719.004, 0.0, 9.998894, 10.000224 
2.3498894e+2, 2.5428817e+2, -529437.7, -459499.84, 4969.932, 0.03994051, -0.16847128, -459148.44, -11183.24, 0.0, 9.999254, 10.000212 
2.349859e+2, 2.6428825e+2, -444476.53, -411358.7, -49433.605, 0.11521043, -0.16051143, -375784.3, -25821.44, 0.0, 9.999366, 9.999808 
2.3498076e+2, 2.7428836e+2, -399707.66, -353176.4, -28083.377, 0.059410997, -0.1486142, -339973.34, -88011.414, 0.0, 9.9990425, 9.9997 
2.3497625e+2, 2.8428784e+2, -342583.4, -366338.72, 18085.75, -0.004979159, -0.12949416, -332823.75, -178857.27, 0.00000009734078, 9.999166, 9.998876 
2.349728e+2, 2.942866e+2, -190375.5, -260080.39, 1375.7344, -0.051015846, -0.15852974, -190348.36, -134371.69, 0.0000024854203, 9.999606, 9.998722 
2.3496939e+2, 3.042855e+2, -67193.414, -74581.805, -122311.05, 0.022681568, -0.17823295, 51479.21, 51479.21, 0.00001465121, 9.999696, 9.999624 
2.349627e+2, 3.1428486e+2, -158589.22, -175623.33, -6458.7383, -0.13934508, -0.23642787, -156417.23, -156417.23, 0.000049295926, 9.99926, 9.999145 
2.4503395e+2, 1.2428996e+2, -1635416.8, -1633363.3, -37726.758, -0.14540873, 0.03156756, -1596649.3, 125309.516, 0.0007416808, 10.000302, 10.000406 
2.4503225e+2, 1.3428976e+2, -1636797.9, -1650992.6, 11669.211, 0.07213433, 0.010354593, -1630237.1, -6276.734, 0.00038814702, 9.999953, 9.999782 
2.4502721e+2, 1.4429007e+2, -1469519.9, -1424703.5, 13014.637, -0.043202583, 0.0271141, -1421198.3, 104756.08, 0.00013769997, 9.999994, 10.000631 
2.4502337e+2, 1.5429054e+2, -1273297.0, -1288035.6, -11731.882, -0.05038629, -0.011735934, -1266812.0, 161131.27, 0.000025817635, 10.000719, 10.0005455 
2.4501902e+2, 1.6429013e+2, -1261851.1, -1403580.9, -24401.775, -0.06961144, -0.031187529, -1257767.5, 72177.89, 0.0000016011192, 10.000868, 9.999007 
2.4501443e+2, 1.7428832e+2, -1279699.5, -1376222.1, 69.856026, -0.062284954, -0.12600574, -1279699.5, -47732.33, 0.0000000006420841, 10.000133, 9.99888 
2.450107e+2, 1.8428779e+2, -1097448.6, -1040571.3, 70068.23, -0.038107052, -0.14661068, -993390.44, 140583.22, 0.0, 9.999866, 10.000633 
2.4500786e+2, 1.9428882e+2, -954688.0, -910090.75, 39030.043, -0.011231588, -0.14112748, -887438.6, 148522.17, 0.0, 10.000129, 10.000728 
2.4500488e+2, 2.0428994e+2, -899221.75, -825913.2, 35258.254, -0.008608646, -0.100944206, -811708.0, 126240.44, 0.0, 9.9998045, 10.000795 
2.4500193e+2, 2.142911e+2, -981970.25, -814995.8, 13031.512, -0.020988412, -0.0879136, -813984.9, 25952.568, 0.0, 9.998565, 10.000793 
2.4499826e+2, 2.2429177e+2, -974024.7, -840109.56, -31739.895, -0.047887705, -0.062801525, -832967.6, -91035.82, 0.0, 9.998291, 10.000077 
2.4499367e+2, 2.3429173e+2, -742462.0, -684236.5, -35592.156, -0.09201315, -0.092778765, -667367.1, -23432.793, 0.0, 9.999237, 10.000019 
2.4498993e+2, 2.4429163e+2, -609216.0, -559926.0, 2356.0906, -0.08647785, -0.10605028, -559813.6, -13877.94, 0.0, 9.999431, 10.000113 
2.4498741e+2, 2.542914e+2, -623345.94, -518573.4, -9580.769, -0.0010455111, -0.164383, -517704.53, -69768.34, 0.0, 9.998668, 10.0000925 
2.449843e+2, 2.642916e+2, -546616.94, -449215.2, -42605.13, 0.059899885, -0.13976394, -433209.25, -83276.14, 0.0, 9.998613, 9.999913 
2.4498029e+2, 2.7429232e+2, -320788.28, -296384.4, -58663.094, 0.08945929, -0.0801026, -248667.67, 3258.793, 0.0, 9.999519, 9.999854 
2.4497646e+2, 2.8429213e+2, -205621.86, -290185.44, 18239.086, 0.06030927, -0.03860223, -201855.7, -47927.938, 0.00000009803459, 10.000063, 9.998968 
2.4497299e+2, 2.9429072e+2, -111674.195, -211379.1, 38850.945, -0.012273436, -0.09733375, -98323.305, -42383.348, 0.0000023443192, 10.000102, 9.998818 
2.449688e+2, 3.0428967e+2, -121888.59, -167750.67, -48479.348, 0.004153812, -0.087488346, -91190.53, -91190.53, 0.000014050109, 9.999621, 9.999014 
2.4496178e+2, 3.1428894e+2, -260720.63, -213145.84, 73250.56, -0.11255165, -0.09204331, -159917.1, -159917.1, 0.000047419504, 9.998543, 9.999215 
2.550346e+2, 1.2429418e+2, -1641080.6, -1645180.1, -87390.6, -0.15528996, -0.0050005056, -1555715.8, 166204.17, 0.000622871, 10.000308, 10.00032 
2.5503156e+2, 1.3429435e+2, -1652345.3, -1683515.4, 3265.979, -0.012500977, 0.03803033, -1652006.6, -28091.152, 0.00031436078, 9.999966, 9.999548 
2.5502685e+2, 1.4429365e+2, -1498419.3, -1484782.4, 27997.332, -0.1072274, -0.013569616, -1462785.1, 63133.59, 0.00010539114, 9.99999, 10.000222 
2.5502476e+2, 1.5429251e+2, -1298054.6, -1343370.1, 24798.291, -0.006761004, -0.1758335, -1287121.8, 140803.44, 0.000019009012, 10.00073, 10.000162 
2.550206e+2, 1.6429232e+2, -1210240.1, -1281058.9, -55536.613, -0.017525742, -0.19276507, -1179784.9, 150139.55, 0.0000013062046, 10.000811, 9.999872 
2.55014e+2, 1.7429331e+2, -1214342.9, -1236677.6, -17533.621, -0.13987485, -0.103962876, -1204722.3, 27193.102, 0.000000000635992, 10.000122, 9.999839 
2.5500968e+2, 1.8429358e+2, -1148247.9, -1135167.9, 70529.664, -0.14593278, -0.064640045, -1070875.6, 63037.18, 0.0, 9.999816, 10.00001 
2.5500813e+2, 1.9429278e+2, -1009756.5, -1015652.6, 57048.473, -0.018710297, -0.17225504, -955579.94, 80340.2, 0.0, 10.000089, 10.000023 
2.5500506e+2, 2.0429309e+2, -945640.8, -897604.3, -14566.11, 0.010848932, -0.15498163, -893532.56, 44385.496, 0.0, 9.9997015, 10.000352 
2.5500003e+2, 2.1429476e+2, -1021135.8, -879956.0, -25206.803, -0.08824967, -0.05050355, -875590.44, -35685.938, 0.0, 9.998494, 10.000381 
2.5499636e+2, 2.2429584e+2, -976020.3, -825870.56, -9755.896, -0.08388223, 0.032209806, -825239.4, -83343.445, 0.0, 9.998212, 10.000214 
2.5499445e+2, 2.3429605e+2, -742529.8, -664450.8, 9377.783, 0.046659343, 0.008706138, -663340.3, -19445.285, 0.0, 9.999148, 10.000198 
2.549909e+2, 2.4429621e+2, -626284.1, -583734.5, -29969.01, 0.049618524, 0.01725262, -568256.6, -22362.406, 0.0, 9.999381, 9.99997 
2.549851e+2, 2.5429612e+2, -648217.0, -550023.3, -31998.402, -0.120809086, -0.010484549, -540516.44, -92621.055, 0.0, 9.998577, 9.99992 
2.5498098e+2, 2.6429605e+2, -565106.6, -476368.25, -20221.635, -0.15418285, 0.004919887, -471977.44, -122081.516, 0.0, 9.998567, 9.99975 
2.5497904e+2, 2.7429605e+2, -340883.84, -324458.03, -14425.726, -0.0090400465, 0.0068631377, -316071.13, -64174.953, 0.0, 9.999453, 9.999699 
2.549765e+2, 2.8429598e+2, -159199.02, -178812.08, 12538.526, 0.0390113, 0.033887018, -153087.55, 807.87573, 0.00000013920514, 10.00001, 9.999753 
2.5497302e+2, 2.942956e+2, -65271.07, -86579.07, 45882.754, -0.041700207, -0.005747672, -28821.625, 27074.318, 0.0000022917138, 9.999989, 9.999724 
2.54968e+2, 3.0429503e+2, -141722.94, -204096.98, -93358.51, -0.057066023, 0.010265101, -74480.08, -74480.08, 0.000012885881, 9.9996, 9.998776 
2.549606e+2, 3.1429467e+2, -266807.94, -213127.53, 72911.69, -0.13137281, 0.08654894, -162272.75, -162272.75, 0.000044516015, 9.9984865, 9.9992485 
2.6503602e+2, 1.2430017e+2, -1718844.0, -1698809.8, 16179.354, -0.010767965, 0.034585457, -1689797.5, 32062.947, 0.0005136847, 9.999824, 10.00018 
2.6503226e+2, 1.3429938e+2, -1482278.1, -1626192.9, 93160.49, 0.008510703, -0.004104965, -1436520.9, 187342.8, 0.0002486243, 10.00121, 9.999347 
2.650274e+2, 1.442978e+2, -1382611.3, -1495184.0, 102055.65, -0.09634138, -0.10654121, -1322349.4, 203527.0, 0.00007773356, 10.001083, 9.999621 
2.6502526e+2, 1.54297e+2, -1524446.3, -1519702.5, 60237.074, 0.038382813, -0.17304744, -1461790.6, -33907.01, 0.000013419433, 9.9994755, 9.999555 
2.650211e+2, 1.6429709e+2, -1423397.6, -1336385.9, -1046.5967, 0.042881887, -0.14953762, -1336373.3, -6492.3037, 0.0000010267595, 9.999132, 10.000309 
2.6501456e+2, 1.7429832e+2, -1152076.9, -1147176.0, -10765.449, -0.101170026, -0.08784988, -1138585.6, 93280.28, 0.0000000012219834, 10.000291, 10.000371 
2.6500988e+2, 1.8429856e+2, -1072376.4, -1160806.3, 58928.855, -0.14193454, -0.054768134, -1042919.25, 90943.53, 0.0, 10.000604, 9.999455 
2.6500762e+2, 1.9429737e+2, -1115685.1, -1140827.4, 32195.486, -0.052051697, -0.13378194, -1093693.5, -57816.902, 0.0, 9.999678, 9.999367 
2.650043e+2, 2.0429721e+2, -997276.4, -949833.25, -11636.928, -0.016451351, -0.11858947, -947132.7, -9252.332, 0.0, 9.999468, 10.000104 
2.6499963e+2, 2.1429823e+2, -808600.8, -804770.2, -25812.494, -0.050735652, -0.05389655, -780802.0, 59070.0, 0.0, 10.0000725, 10.000137 
2.6499605e+2, 2.242991e+2, -675967.9, -658769.4, 29447.227, -0.029735515, 0.009561967, -636691.5, 105173.164, 0.0, 10.000169, 10.000421 
2.6499397e+2, 2.3429972e+2, -667625.1, -606080.56, 34456.918, 0.06697966, 0.0039133816, -590655.3, 53203.637, 0.0, 9.99956, 10.000406 
2.6499033e+2, 2.4430017e+2, -653324.6, -597936.9, -1155.3345, 0.06587255, 0.034967605, -597912.8, -52057.84, 0.0, 9.999215, 9.9999485 
2.6498452e+2, 2.543003e+2, -548959.6, -501707.94, -7585.3286, -0.0620001, 0.032186333, -500520.13, -52665.418, 0.0, 9.999273, 9.9999075 
2.6498032e+2, 2.6430005e+2, -469096.7, -441400.9, 54349.742, -0.106554225, 0.033654127, -399162.63, -49305.473, 0.0, 9.999267, 9.999659 
2.6497817e+2, 2.7429947e+2, -383250.78, -351598.34, 48453.39, -0.02194153, -0.010640831, -316452.0, -64589.99, 0.0, 9.999199, 9.999633 
2.6497573e+2, 2.8429922e+2, -321725.03, -268643.6, 40620.645, 0.021545192, 0.0037753717, -246661.69, -92798.055, 0.00000017298198, 9.998934, 9.999655 
2.6497266e+2, 2.94299e+2, -298244.97, -200571.2, -16294.929, 0.009193124, -0.014430262, -197924.44, -142059.63, 0.000002277503, 9.9983835, 9.999718 
2.6496723e+2, 3.0429864e+2, -221408.23, -192782.06, -126025.125, -0.046292838, 0.000829869, -80259.836, -80259.836, 0.000011802607, 9.998818, 9.999248 
2.649605e+2, 3.1429866e+2, 44617.977, 14291.793, 88305.35, -0.06885534, 0.070660554, 119052.625, 119052.625, 0.000041814666, 10.000267, 9.999966 
2.750378e+2, 1.2430773e+2, -1727853.6, -1724141.1, 18957.037, 0.12775953, 0.12878248, -1706949.8, 14832.749, 0.00042107303, 9.9998455, 9.999998 
2.7503386e+2, 1.3430491e+2, -1484209.8, -1638460.0, 144554.86, 0.025815465, -0.10224603, -1397492.3, 226311.83, 0.00019522583, 10.001242, 9.999248 
2.750286e+2, 1.4430256e+2, -1441194.3, -1613447.8, 33246.54, -0.11477581, -0.23816864, -1435000.1, 90826.25, 0.000056360343, 10.001076, 9.998811 
2.7502465e+2, 1.5430395e+2, -1584785.6, -1643617.0, 9048.916, 0.007161515, -0.00016533975, -1583425.3, -155606.44, 0.000009372096, 9.999477, 9.998701 
2.750204e+2, 1.6430433e+2, -1419458.8, -1326089.6, 27335.818, 0.03638992, 0.093778074, -1318675.3, 11140.217, 0.0000008660051, 9.999123, 10.0003805 
2.750157e+2, 1.7430325e+2, -1144507.9, -1131951.3, 40868.742, -0.040159356, -0.087535925, -1096881.4, 134938.05, 0.000000004874734, 10.000293, 10.000472 
2.7501097e+2, 1.8430263e+2, -1120975.8, -1244502.0, 20787.658, -0.1130952, -0.11940068, -1117571.4, 16252.843, 0.0, 10.000535, 9.998911 
2.7500606e+2, 1.9430263e+2, -1160967.0, -1224353.9, 6469.6074, -0.19945145, -0.02620841, -1160313.4, -124483.58, 0.0, 9.999639, 9.998808 
2.7500242e+2, 2.0430239e+2, -1015896.9, -970295.6, -605.7453, -0.16934171, 0.01625377, -970287.56, -32453.266, 0.0, 9.999391, 10.000003 
2.7500045e+2, 2.1430153e+2, -826766.3, -818373.9, 5883.936, 0.0045734253, -0.10176665, -815343.1, 24496.865, 0.0, 9.999969, 10.000093 
2.7499712e+2, 2.2430153e+2, -679885.5, -638817.44, 2132.346, 0.03935539, -0.13232973, -638707.06, 103131.25, 0.0, 10.0000515, 10.000615 
2.7499184e+2, 2.3430257e+2, -667412.06, -580232.94, 17922.854, -0.11691127, -0.11504682, -576692.06, 67135.484, 0.0, 9.999453, 10.000635 
2.7498788e+2, 2.443034e+2, -653559.94, -583885.3, -8974.88, -0.11557426, -0.065029964, -582747.8, -36928.695, 0.0, 9.999153, 10.000073 
2.7498546e+2, 2.5430378e+2, -552280.8, -494111.34, 2825.1658, 0.082560435, -0.05313734, -493974.47, -46158.902, 0.0, 9.999204, 9.999996 
2.749821e+2, 2.6430354e+2, -480181.22, -451791.6, 40994.363, 0.12489413, -0.057760123, -422604.03, -72786.54, 0.0, 9.999216, 9.99961 
2.7497742e+2, 2.743024e+2, -400221.03, -369458.7, 54109.547, -0.038183164, -0.147795, -328586.66, -76760.516, 0.00000000009324417, 9.999124, 9.999548 
2.7497393e+2, 2.8430155e+2, -392901.47, -405716.38, 12136.823, -0.072731644, -0.14802472, -385584.56, -231749.16, 0.00000023612336, 9.99889, 9.998731 
2.7497154e+2, 2.9430065e+2, -372009.56, -339628.8, -27261.123, 0.031216495, -0.1349288, -324112.75, -268264.4, 0.0000024951785, 9.998321, 9.998793 
2.7496603e+2, 3.0430052e+2, -133332.28, 711.09784, -83117.85, -0.065047026, -0.113037325, 40462.457, 40462.457, 0.000011675634, 9.998787, 10.000583 
2.7496082e+2, 3.1430098e+2, 123148.055, 206572.66, 163869.27, -0.10993221, -0.13950004, 333955.16, 333955.16, 0.000040361934, 10.000147, 10.001341 
2.850376e+2, 1.24312274e+2, -1685792.6, -1697816.6, -46751.53, 0.12399168, 0.04944292, -1644668.1, 77068.17, 0.00034660724, 10.000118, 10.000043 
2.8503466e+2, 1.343108e+2, -1691607.6, -1700674.6, 81310.54, 0.0669025, -0.077809304, -1614704.3, 9041.556, 0.00015383559, 9.999674, 9.999566 
2.850301e+2, 1.4430869e+2, -1614281.1, -1695509.0, 16402.293, -0.005409743, -0.2069583, -1611094.0, -85327.66, 0.00004093297, 9.999882, 9.998826 
2.8502524e+2, 1.5430988e+2, -1345662.6, -1529463.8, 34921.97, 0.042098846, 0.014576484, -1339251.1, 88509.73, 0.0000066741927, 10.001112, 9.998702 
2.8502053e+2, 1.643099e+2, -1132922.9, -1254126.1, 90754.164, 0.032896213, 0.10061569, -1084396.6, 245365.22, 0.00000074756446, 10.001385, 9.999786 
2.850162e+2, 1.7430817e+2, -1168546.9, -1219417.5, 28415.545, -0.022004329, -0.078622974, -1155845.6, 75928.1, 0.000000006090155, 10.000451, 9.999805 
2.8501153e+2, 1.8430728e+2, -1153771.0, -1248280.3, 12538.71, -0.09159466, -0.10673327, -1152135.9, -18354.336, 0.0, 10.000262, 9.999015 
2.8500637e+2, 1.9430749e+2, -958710.44, -1111534.8, 32890.586, -0.19252989, -0.0054936516, -951932.44, 83851.56, 0.0, 10.00096, 9.998947 
2.8500262e+2, 2.0430729e+2, -779266.7, -850536.6, 69934.516, -0.16181654, 0.03140957, -736411.56, 201375.0, 0.0, 10.000991, 10.000048 
2.8500074e+2, 2.1430635e+2, -815332.94, -810530.7, 65427.883, 0.04045479, -0.09816293, -747459.9, 92331.3, 0.0, 10.000041, 10.000109 
2.84997e+2, 2.2430606e+2, -798050.75, -737188.8, 56343.926, 0.060936872, -0.14033037, -703583.2, 38208.54, 0.0, 9.999425, 10.000237 
2.8499076e+2, 2.3430651e+2, -730888.2, -655972.56, 8473.244, -0.15371569, -0.13973126, -655026.2, -11238.404, 0.0, 9.999214, 10.000229 
2.8498676e+2, 2.4430695e+2, -636426.4, -567760.4, -6273.468, -0.1442271, -0.11343495, -567191.94, -21408.605, 0.0, 9.999228, 10.000149 
2.8498563e+2, 2.543073e+2, -491707.88, -451744.47, -11327.456, 0.1642869, -0.11782491, -448757.1, -978.6181, 0.0, 9.999571, 10.000107 
2.8498256e+2, 2.6430714e+2, -422787.06, -444673.8, 27526.465, 0.23248766, -0.10728363, -404108.4, -54329.418, 0.0, 9.999709, 9.999413 
2.8497714e+2, 2.7430618e+2, -359489.38, -372433.38, 10433.934, 0.010667976, -0.16138372, -353683.2, -101895.15, 0.0000000018932573, 9.9995, 9.99934 
2.8497317e+2, 2.843052e+2, -351020.5, -405212.3, 3079.275, -0.051132668, -0.15522037, -350846.1, -197046.83, 0.00000028816427, 9.999255, 9.998569 
2.849706e+2, 2.943042e+2, -264416.22, -300121.9, 11167.274, 0.07248906, -0.13739058, -261211.23, -205398.2, 0.0000027347362, 9.999116, 9.998683 
2.8496486e+2, 3.0430397e+2, -117153.06, -8236.141, -24731.426, -0.06024501, -0.11154654, -2883.5044, -2883.5044, 0.000012525966, 9.998955, 10.000437 
2.8496101e+2, 3.1430352e+2, -182160.55, 61156.17, 56429.395, 0.012934936, -0.21630493, 73606.1, 73606.1, 0.000040482082, 9.998043, 10.001344 
2.9503483e+2, 1.24314025e+2, -1658652.5, -1660083.8, -94432.484, -0.22700506, -0.1851676, -1564932.9, 156786.55, 0.00028487924, 10.00019, 10.000269 
2.9503432e+2, 1.3431701e+2, -1642983.3, -1607894.6, 66983.21, 0.03858552, 0.06794663, -1556196.3, 67492.12, 0.000121053716, 9.999713, 10.000181 
2.950317e+2, 1.44316e+2, -1550728.8, -1573300.8, 42715.574, 0.13818046, -0.022090763, -1517833.4, 7864.053, 0.000029834508, 9.999911, 9.999655 
2.9502657e+2, 1.5431476e+2, -1287128.4, -1409425.0, 86585.44, 0.038574003, -0.13164869, -1242276.0, 185434.36, 0.000004731658, 10.001116, 9.999525 
2.9502127e+2, 1.6431382e+2, -1228008.6, -1443944.0, 53171.164, -0.054451182, -0.123109475, -1215626.0, 114094.164, 0.00000054097734, 10.001356, 9.998494 
2.9501578e+2, 1.7431319e+2, -1268169.6, -1422429.1, 5146.925, -0.13354936, -0.052533817, -1267998.1, -36270.64, 0.0000000012704189, 10.000445, 9.998408 
2.950113e+2, 1.8431258e+2, -1110071.8, -1149942.4, 26900.4, -0.16012305, -0.012344903, -1096525.0, 37208.715, 0.0, 10.000223, 9.999713 
2.9500824e+2, 1.9431186e+2, -906258.94, -993672.94, 68659.234, -0.124064915, -0.08702515, -868575.56, 167164.5, 0.0, 10.00092, 9.999776 
2.9500464e+2, 2.0431183e+2, -781130.1, -833738.8, 31388.98, -0.07910889, -0.08360099, -766481.0, 171257.14, 0.0, 10.000902, 10.000205 
2.9500023e+2, 2.1431263e+2, -821659.2, -798444.1, 39630.633, -0.03782221, -0.050669227, -768756.1, 70970.21, 0.0, 9.999936, 10.000239 
2.949955e+2, 2.2431268e+2, -881649.94, -882949.3, 38161.938, -0.047918987, -0.021398723, -844132.2, -102406.97, 0.0, 9.999307, 9.999292 
2.9499048e+2, 2.3431164e+2, -818026.1, -811544.75, 10197.933, -0.12271092, -0.069972605, -804084.94, -160345.83, 0.0, 9.99911, 9.999208 
2.9498675e+2, 2.4431098e+2, -641621.25, -566705.56, -2897.8635, -0.087832905, -0.098975636, -566593.6, -20847.72, 0.0, 9.999171, 10.00019 
2.9498464e+2, 2.5431076e+2, -491912.97, -439230.47, 9874.63, 0.08938592, -0.16583334, -437440.4, 10303.294, 0.0, 9.999508, 10.000231 
2.9498148e+2, 2.6431075e+2, -450135.06, -494557.38, 13743.244, 0.13084488, -0.13191141, -446227.03, -96483.555, 0.0, 9.999675, 9.999088 
2.9497698e+2, 2.743108e+2, -393719.28, -428577.0, 7594.708, 0.018996181, -0.054449398, -392136.44, -140388.17, 0.0000000016821552, 9.999432, 9.998989 
2.949731e+2, 2.8431034e+2, -311230.28, -312827.75, -14356.0205, -0.0045560957, -0.004504525, -297650.78, -143896.42, 0.00000022409213, 9.999217, 9.999223 
2.949696e+2, 2.9430965e+2, -223590.25, -204347.63, 21738.918, 0.029228956, -0.026528385, -190196.05, -134437.25, 0.0000026534976, 9.999064, 9.999369 
2.9496342e+2, 3.04309e+2, -235969.1, -246653.31, -57421.902, -0.1231691, 0.0016491723, -183641.34, -183641.34, 0.00001292508, 9.998919, 9.998816 
2.9496038e+2, 3.1430584e+2, -283925.3, -142931.58, 28117.89, 0.09170123, -0.20410483, -137530.98, -137530.98, 0.00004085486, 9.998005, 9.99996 
3.0503505e+2, 1.2431826e+2, -1675967.4, -1658666.8, -64734.35, -0.20261408, -0.18691789, -1602007.4, 119673.86, 0.00023189351, 10.000037, 10.000362 
3.0503416e+2, 1.343219e+2, -1564129.0, -1517069.3, 42312.938, 0.042674698, 0.08894041, -1492183.9, 131459.58, 0.000094942065, 10.000008, 10.000678 
3.0503199e+2, 1.4432155e+2, -1521859.5, -1527195.0, 53133.66, 0.17776155, 0.023164999, -1471326.6, 54319.504, 0.000021738364, 10.000001, 9.999913 
3.0502707e+2, 1.5432073e+2, -1377379.4, -1430234.4, 28658.984, 0.019432383, -0.06281112, -1364822.9, 62832.082, 0.0000030875526, 10.00041, 9.999715 
3.0502194e+2, 1.6431983e+2, -1332109.4, -1495613.8, -12325.269, -0.07829552, -0.062106997, -1331185.5, -1521.3353, 0.0000002653173, 10.000643, 9.99848 
3.0501655e+2, 1.7431873e+2, -1251933.1, -1415373.8, 22224.975, -0.10089572, -0.034378383, -1248964.9, -17290.178, 0.0, 10.000563, 9.998397 
3.0501223e+2, 1.8431784e+2, -1101574.4, -1143073.1, 110000.11, -0.088126585, -0.02214212, -1010383.8, 123298.664, 0.0, 10.000271, 9.999741 
3.0500937e+2, 1.9431703e+2, -1093318.9, -1085021.9, 75106.15, -0.033478368, -0.106187135, -1013949.7, 21738.594, 0.0, 9.999631, 9.999778 
3.050053e+2, 2.043169e+2, -1016901.3, -969189.7, -3140.7324, -0.020349544, -0.105443254, -968983.8, -31296.617, 0.0, 9.999376, 10.000014 
3.0499965e+2, 2.1431755e+2, -888879.5, -858011.1, -39664.234, -0.06291678, -0.06387931, -830884.0, 8793.479, 0.0, 9.99958, 10.00001 
3.0499473e+2, 2.2431737e+2, -820226.7, -889011.1, 1585.4484, -0.0781411, -0.031090915, -820190.2, -78511.31, 0.0, 9.99988, 9.998976 
3.0499083e+2, 2.3431599e+2, -669410.2, -775458.7, 10392.69, -0.05212828, -0.08244121, -668401.3, -24705.629, 0.0, 10.000288, 9.998885 
3.0498707e+2, 2.4431525e+2, -520973.1, -514655.22, 24689.613, -0.009714139, -0.09913264, -492923.28, 52779.89, 0.0, 10.000037, 10.000125 
3.0498347e+2, 2.5431532e+2, -564166.7, -473088.56, 12151.814, 0.047203228, -0.13733353, -471495.1, -23796.326, 0.0, 9.999022, 10.000224 
3.0497992e+2, 2.6431534e+2, -620238.5, -614374.7, 45642.926, 0.06417811, -0.08637508, -571569.6, -221870.28, 0.0, 9.998664, 9.998758 
3.0497664e+2, 2.7431506e+2, -445597.72, -495347.38, 25297.338, 0.0591311, -0.0027435347, -434994.22, -183285.33, 0.00000000014964384, 9.999249, 9.998624 
3.0497307e+2, 2.8431442e+2, -266925.63, -247327.61, -6460.7583, 0.0705897, 0.02897135, -245389.42, -91672.88, 0.00000013461268, 9.999344, 9.999601 
3.049686e+2, 2.943138e+2, -251363.22, -172536.19, -9703.393, 0.049231667, -0.028002445, -171359.3, -115642.31, 0.0000024184974, 9.998699, 9.999752 
3.0496228e+2, 3.0431286e+2, -268965.4, -366735.78, -32922.03, -0.1323261, -0.007864245, -258913.14, -258913.14, 0.00001259153, 9.999144, 9.99789 
3.049608e+2, 3.143095e+2, 56098.43, -51659.72, 58218.055, 0.2086375, -0.12969936, 81543.35, 81543.35, 0.000039631555, 10.000651, 9.999328 
3.1503785e+2, 1.24325015e+2, -1663469.1, -1647024.8, -83600.29, 0.02490767, 0.059593353, -1571243.3, 150377.81, 0.00018871382, 10.000105, 10.000407 
3.1503373e+2, 1.3432571e+2, -1537012.6, -1452586.0, 42967.074, -0.02198103, 0.001391262, -1434565.4, 189043.05, 0.00007509751, 9.999995, 10.001118 
3.150306e+2, 1.4432554e+2, -1548858.9, -1590713.4, 54997.547, 0.014899151, -0.050019722, -1510941.6, 14668.351, 0.00001598166, 10.00002, 9.999471 
3.1502646e+2, 1.5432782e+2, -1409520.9, -1502635.9, 54108.74, -0.108942874, 0.22044416, -1384696.6, 42897.88, 0.00000170519, 10.000433, 9.999206 
3.1502244e+2, 1.6432783e+2, -1247402.4, -1319207.4, -27156.316, -0.11863269, 0.28421748, -1238288.8, 91305.59, 0.000000057148895, 10.000633, 9.999701 
3.1501824e+2, 1.7432474e+2, -1159271.0, -1220422.4, 23937.832, -0.00812848, -0.023073655, -1151015.1, 80600.74, 0.0, 10.000549, 9.999742 
3.1501392e+2, 1.8432306e+2, -1151880.1, -1240805.3, 77784.41, 0.03418942, -0.12979297, -1106747.3, 26880.408, 0.0, 10.0002365, 9.999087 
3.1500942e+2, 1.943231e+2, -1153015.3, -1197312.6, 59430.4, -0.01283798, -0.056406267, -1111740.5, -76112.17, 0.0, 9.99958, 9.999031 
3.1500444e+2, 2.0432256e+2, -1074001.9, -1061138.3, -6987.692, -0.06438475, -0.026325522, -1058072.9, -120439.95, 0.0, 9.9992695, 9.999433 
3.149988e+2, 2.1432121e+2, -946759.2, -949849.4, -22742.164, -0.12352044, -0.12882946, -925509.7, -85865.75, 0.0, 9.999466, 9.999431 
3.149944e+2, 2.2432023e+2, -807516.75, -844013.3, 8428.535, -0.11931015, -0.16023119, -805664.3, -64012.523, 0.0, 9.999797, 9.999329 
3.1499147e+2, 2.343196e+2, -651897.25, -720693.5, 34367.03, -0.031847935, -0.17644806, -637671.06, 5986.1855, 0.0, 10.000207, 9.999305 
3.149874e+2, 2.4431972e+2, -536065.3, -537376.7, -19880.06, -0.0010992233, -0.123098135, -516830.1, 28825.479, 0.0, 10.000001, 9.999985 
3.1498167e+2, 2.5432086e+2, -590266.3, -505066.4, -21846.543, -0.05095236, -0.03473442, -499791.25, -52147.13, 0.0, 9.998926, 10.000051 
3.149777e+2, 2.6432088e+2, -645659.8, -658041.44, 55704.742, -0.04550566, 0.037055258, -595802.94, -246156.81, 0.0, 9.998624, 9.99848 
3.1497595e+2, 2.74319e+2, -473767.44, -539790.5, 57077.496, 0.040710427, -0.009427547, -440842.63, -189172.92, 0.00000000001473293, 9.9991865, 9.998351 
3.1497276e+2, 2.8431737e+2, -269232.6, -240924.36, -35970.953, 0.08443701, -0.0663172, -216422.97, -62736.727, 0.000000108201135, 9.999298, 9.999665 
3.1496727e+2, 2.943165e+2, -259767.16, -175689.14, -23943.303, 0.021540629, -0.15609537, -169348.83, -113659.55, 0.0000023186144, 9.9986315, 9.999765 
3.1496117e+2, 3.043153e+2, -284947.2, -395696.3, 16104.527, -0.17925543, -0.14908719, -282652.88, -282652.88, 0.000012381474, 9.999124, 9.997704 
3.1496167e+2, 3.143144e+2, 71409.55, -14620.582, 119320.195, 0.18173969, -0.018230975, 155231.4, 155231.4, 0.000038035574, 10.000618, 9.999602 
3.250393e+2, 1.2433115e+2, -1725123.3, -1762629.1, 30707.44, 0.1735383, 0.13866542, -1707895.4, 13664.775, 0.00015750076, 10.000036, 9.999644 
3.2503363e+2, 1.343304e+2, -1573478.1, -1547320.6, 27973.29, -0.024071807, -0.00074831897, -1529519.6, 94044.83, 0.00006189271, 10.000045, 10.000455 
3.2503024e+2, 1.4433e+2, -1623165.5, -1637748.4, 29250.318, 0.0037063635, -0.035385672, -1600311.5, -74742.45, 0.000012633238, 9.999545, 9.999383 
3.250262e+2, 1.54332e+2, -1645004.6, -1618493.3, 44164.67, -0.090930626, 0.21187635, -1585637.9, -158083.03, 0.0000008198343, 9.998816, 9.999195 
3.2502273e+2, 1.6433217e+2, -1450883.6, -1362008.0, 6309.9795, -0.06360574, 0.2662463, -1361562.3, -32010.006, 0.000000004124255, 9.999013, 10.00018 
3.2501963e+2, 1.7432976e+2, -1147064.9, -1162076.3, -21535.979, 0.086009614, -0.021510147, -1131764.1, 99802.24, 0.0, 10.000403, 10.000215 
3.2501522e+2, 1.8432835e+2, -1074214.5, -1226972.0, -19426.016, 0.11464556, -0.115496226, -1071782.8, 61792.58, 0.0, 10.000878, 9.998863 
3.250093e+2, 1.9432822e+2, -1095913.4, -1198069.6, -25437.77, -0.006004856, -0.031156957, -1089929.6, -54351.324, 0.0, 10.000107, 9.998762 
3.250039e+2, 2.0432745e+2, -982327.1, -1056215.3, -4842.309, -0.07623542, 0.0029933425, -982011.1, -44424.797, 0.0, 10.000055, 9.999093 
3.2499936e+2, 2.1432576e+2, -772711.7, -903513.0, -15288.174, -0.07741756, -0.09954912, -770948.56, 68653.27, 0.0, 10.000819, 9.999101 
3.249951e+2, 2.2432458e+2, -658153.8, -741713.9, 8342.269, -0.067534, -0.14670381, -657329.1, 84281.695, 0.0, 10.000689, 9.999602 
3.249912e+2, 2.3432392e+2, -738587.1, -727583.6, 9345.323, -0.040162586, -0.19889112, -722240.8, -78628.01, 0.0, 9.9994545, 9.999621 
3.2498676e+2, 2.4432372e+2, -688715.6, -705023.4, -35739.418, -0.030804183, -0.15504116, -660211.75, -114597.83, 0.0, 9.999349, 9.999153 
3.2498154e+2, 2.5432417e+2, -378051.38, -506345.5, -105055.74, -0.0450294, -0.04660152, -319106.78, 128506.664, 0.0, 10.000813, 9.99914 
3.249774e+2, 2.6432395e+2, -286396.4, -417937.1, -40849.598, -0.04166968, 0.025179813, -274743.06, 74875.03, 0.0, 10.000815, 9.999068 
3.2497457e+2, 2.7432254e+2, -458165.63, -453773.75, 15461.088, 0.001803085, -0.042391993, -440353.44, -188720.3, 0.00000000010851988, 9.998972, 9.999039 
3.2497147e+2, 2.8432128e+2, -409777.4, -362507.97, -5082.647, 0.06904624, -0.07666912, -361967.63, -208321.73, 0.00000014604628, 9.998555, 9.999195 
3.2496765e+2, 2.9432055e+2, -117667.234, -169820.83, -56101.617, 0.14156663, -0.097662054, -81878.125, -26226.242, 0.0000023415487, 9.999879, 9.999203 
3.249617e+2, 3.0431885e+2, -146661.66, -226411.83, -7616.8296, -0.05574944, -0.15249176, -145940.7, -145940.7, 0.000012312151, 9.999652, 9.998598 
3.2496032e+2, 3.1431916e+2, -366034.13, -125380.586, 121145.055, 0.16834028, -0.003917147, -74960.01, -74960.01, 0.000036624067, 9.997219, 10.00046 
3.3503884e+2, 1.2433664e+2, -1841224.8, -2002252.0, 16964.7, 0.07105256, 0.050920486, -1839456.9, -117958.07, 0.00013853858, 10.000043, 9.997993 
3.3503363e+2, 1.34336e+2, -1696492.4, -1793977.4, 27212.953, -0.05138086, 0.090945154, -1689410.4, -65899.016, 0.000055370125, 10.000037, 9.998751 
3.3503056e+2, 1.4433493e+2, -1601215.6, -1591946.3, -11201.482, 0.053744394, 0.068325095, -1584458.5, -58934.977, 0.000011804474, 9.999541, 9.999701 
3.3502594e+2, 1.5433352e+2, -1607599.0, -1540911.6, 25002.674, -0.021172764, -0.074566975, -1532578.8, -105044.81, 0.00000057438905, 9.998819, 9.999725 
3.3502254e+2, 1.6433305e+2, -1473827.0, -1406992.9, 45705.902, -0.005381088, -0.09992904, -1383790.8, -54255.086, 0.00000000201948, 9.999, 9.999882 
3.3502036e+2, 1.7433381e+2, -1172428.3, -1214300.4, 41109.637, 0.095143706, -0.03199336, -1147230.6, 84295.07, 0.0, 10.000401, 9.99986 
3.350159e+2, 1.8433373e+2, -1074260.5, -1211202.9, -53483.8, 0.070732795, 0.017130714, -1055847.8, 77677.63, 0.0, 10.00081, 9.999007 
3.3500865e+2, 1.9433235e+2, -1091542.8, -1176450.8, -47043.67, -0.10342228, -0.039121777, -1070629.1, -35089.992, 0.0, 10.000054, 9.998937 
3.3500347e+2, 2.043315e+2, -997303.8, -1069352.8, 10646.243, -0.13903213, -0.019041618, -995763.56, -58215.598, 0.0, 9.99998, 9.999041 
3.3500105e+2, 2.1433118e+2, -792667.7, -918229.3, 21907.123, -0.008425509, 0.019488165, -788955.25, 50596.47, 0.0, 10.000706, 9.999054 
3.3499658e+2, 2.2433037e+2, -660877.94, -724364.56, -43215.91, -0.004184324, 0.005027503, -638999.9, 102556.55, 0.0, 10.000589, 9.999768 
3.3498958e+2, 2.3432894e+2, -739737.3, -704023.0, -31652.758, -0.164183, -0.1447883, -685537.7, -41975.156, 0.0, 9.999345, 9.999834 
3.3498478e+2, 2.4432729e+2, -797067.56, -923137.3, 5296.0474, -0.18012044, -0.18958561, -796845.5, -251267.66, 0.0, 9.999314, 9.997674 
3.349828e+2, 2.543252e+2, -500425.0, -744911.2, -42074.047, -0.018486798, -0.17209964, -493387.03, -45780.75, 0.0, 10.000747, 9.997532 
3.3497885e+2, 2.6432458e+2, -192629.27, -217972.22, -111150.03, 0.005242802, -0.12122261, -93430.75, 256184.2, 0.0, 10.0007925, 10.000453 
3.3497223e+2, 2.743256e+2, -356487.56, -223080.08, -46076.156, -0.15217495, -0.10569582, -208713.47, 42886.477, 0.000000000044508567, 9.998888, 10.000662 
3.349689e+2, 2.8432614e+2, -478563.13, -501820.84, 29503.877, -0.063255124, -0.0053093014, -458479.06, -304883.7, 0.00000018851506, 9.99853, 9.998255 
3.349694e+2, 2.9432604e+2, -204389.44, -343796.13, 3642.207, 0.30034527, 0.14899902, -204294.34, -148690.44, 0.0000023038672, 9.999841, 9.998034 
3.349635e+2, 3.0432343e+2, -20348.113, 43259.973, -96395.25, 0.1395374, -0.02292105, 112962.3, 112962.3, 0.000011796056, 9.999623, 10.000463 
3.3495614e+2, 3.143236e+2, -291633.16, 57020.08, 36228.785, -0.014959661, -0.09414345, 60744.844, 60744.844, 0.000034748333, 9.997092, 10.001778 
3.450388e+2, 1.24340564e+2, -1953443.0, -2092715.4, -6896.4116, 0.102772765, -0.056216113, -1953102.4, -231648.77, 0.00012841672, 9.999445, 9.997658 
3.4503406e+2, 1.3434021e+2, -1603867.4, -1816066.4, 23363.18, -0.047328677, 0.0683765, -1601325.6, 22141.566, 0.00005393956, 10.000944, 9.998178 
3.450313e+2, 1.4433931e+2, -1378904.4, -1497194.5, -15649.348, 0.10109451, 0.097715065, -1376869.0, 148610.19, 0.00001321429, 10.00113, 9.999579 
3.450262e+2, 1.5433672e+2, -1462104.1, -1488271.4, -54888.03, 0.07478698, -0.15123443, -1418761.9, 8737.8545, 0.00000089811203, 9.999891, 9.99957 
3.450225e+2, 1.6433597e+2, -1444273.3, -1400759.4, 25511.6, 0.082471214, -0.19029564, -1388987.1, -59482.71, 0.0000000015154811, 9.999228, 9.999818 
3.4502012e+2, 1.7433773e+2, -1336647.6, -1295032.3, 31714.389, 0.09016189, -0.021456275, -1277908.9, -46421.434, 0.0, 9.999287, 9.99984 
3.4501565e+2, 1.8433805e+2, -1236572.5, -1252977.9, -57248.5, 0.034885634, 0.054034926, -1186942.0, -53458.25, 0.0, 9.999537, 9.999334 
3.4500882e+2, 1.9433628e+2, -1077423.9, -1132278.9, -52825.957, -0.08085523, -0.07593741, -1045329.56, -9830.147, 0.0, 9.999984, 9.999278 
3.4500384e+2, 2.043354e+2, -988291.8, -1062205.4, 37594.88, -0.09814125, -0.07773054, -972530.7, -35023.04, 0.0, 10.000025, 9.999067 
3.450012e+2, 2.1433549e+2, -974455.75, -1009180.75, 35472.27, 0.004084019, 0.0024877805, -952324.75, -112816.56, 0.0, 9.999461, 9.999032 
3.4499657e+2, 2.243349e+2, -853849.7, -855928.94, -41695.71, -0.0024424384, 0.02731328, -813180.6, -71668.55, 0.0, 9.999436, 9.999419 
3.4498948e+2, 2.3433346e+2, -654013.8, -706594.4, -92002.93, -0.142547, -0.08437091, -584618.56, 58902.13, 0.0, 10.000121, 9.999446 
3.4498465e+2, 2.4433157e+2, -680095.9, -842078.06, 9439.576, -0.15760596, -0.140407, -679547.6, -134009.58, 0.0, 10.000024, 9.997886 
3.4498265e+2, 2.543289e+2, -746750.94, -839826.4, 85794.58, -0.015342413, -0.20369473, -695685.0, -248116.08, 0.0, 9.998954, 9.997748 
3.449785e+2, 2.6432797e+2, -521346.1, -389665.63, 22924.932, 0.0071930196, -0.1887135, -385788.66, -36209.438, 0.0, 9.998593, 10.000333 
3.4497163e+2, 2.7432916e+2, -322989.72, -223568.89, -61966.336, -0.11035623, -0.14335887, -193837.81, 57725.918, 0.0, 9.9991865, 10.000519 
3.449681e+2, 2.8432992e+2, -341937.28, -409223.4, 40161.156, -0.030865768, -0.019984495, -323189.75, -169632.73, 0.00000016974016, 9.999374, 9.998477 
3.4496853e+2, 2.9433003e+2, -292342.78, -359497.0, 100712.04, 0.27048922, 0.13128738, -219758.03, -164194.56, 0.0000020169734, 9.999129, 9.998271 
3.449624e+2, 3.0432773e+2, -90848.49, 43112.836, -40264.86, 0.1077381, -0.033761803, 54283.746, 54283.746, 0.0000103175025, 9.998975, 10.00078 
3.449543e+2, 3.1432825e+2, -93713.88, 112679.0, -88077.79, 0.027251968, -0.10972032, 145155.7, 145155.7, 0.00003196276, 9.998605, 10.00143 
3.5503858e+2, 1.24343e+2, -1880956.9, -1960997.0, 54237.004, 0.077664666, -0.1755882, -1853573.3, -132149.75, 0.00012227354, 9.999515, 9.998532 
3.5503456e+2, 1.3434318e+2, -1552683.9, -1714628.5, 85012.766, -0.118837476, -0.061361156, -1516252.3, 107178.445, 0.00005490219, 10.000973, 9.998856 
3.5503212e+2, 1.4434332e+2, -1424706.8, -1598733.8, -66947.84, 0.0386261, 0.0687087, -1401932.5, 123501.75, 0.000015641235, 10.001151, 9.998878 
3.550267e+2, 1.5434158e+2, -1515990.9, -1610389.8, -93833.43, 0.108615525, -0.010337819, -1458154.6, -30702.234, 0.0000017221555, 9.999933, 9.998714 
3.5502228e+2, 1.6434087e+2, -1429130.0, -1366104.6, 13343.832, 0.11469455, -0.011743046, -1363395.9, -33936.645, 0.000000007086625, 9.999211, 10.000061 
3.550185e+2, 1.7434146e+2, -1314617.1, -1247924.6, 43096.492, -0.020400284, 0.008056083, -1226779.8, 4672.0225, 0.0, 9.999278, 10.000167 
3.550142e+2, 1.8434133e+2, -1209188.9, -1182828.9, -47454.766, -0.08450137, -0.0054858956, -1146757.8, -13307.47, 0.0, 9.99948, 9.999845 
3.5500956e+2, 1.943401e+2, -1046978.56, -1058378.3, -26768.926, -0.026207592, -0.13476421, -1025309.4, 10148.65, 0.0, 9.999938, 9.999807 
3.5500473e+2, 2.0433924e+2, -995824.1, -1059330.8, 10624.487, -0.029070273, -0.16495335, -994093.9, -56629.39, 0.0, 9.999942, 9.99913 
3.5499954e+2, 2.1433875e+2, -984441.44, -1008521.25, 23438.684, -0.12384568, -0.1457977, -970131.2, -130660.75, 0.0, 9.999369, 9.999082 
3.549948e+2, 2.2433823e+2, -929507.25, -995650.56, -25110.967, -0.1395799, -0.07514791, -921054.3, -179577.0, 0.0, 9.99936, 9.998498 
3.5499066e+2, 2.3433754e+2, -737205.0, -860621.06, -57963.453, -0.05219139, -0.010659898, -714251.1, -70764.5, 0.0, 10.000039, 9.998428 
3.54986e+2, 2.4433662e+2, -560913.56, -579385.6, -35702.48, -0.04010528, -0.0015228845, -533271.8, 12222.624, 0.0, 9.999962, 9.999716 
3.5498068e+2, 2.5433522e+2, -617414.06, -548471.3, 51463.426, -0.1267953, -0.14375287, -521001.1, -73499.22, 0.0, 9.998862, 9.999788 
3.549761e+2, 2.6433414e+2, -642626.3, -631698.0, 35361.867, -0.11514481, -0.17607673, -601380.6, -251869.86, 0.0, 9.99855, 9.998689 
3.549725e+2, 2.7433327e+2, -468727.06, -509464.53, -29875.945, 0.03776418, -0.14732948, -452937.03, -201413.78, 0.0, 9.999118, 9.998586 
3.5496885e+2, 2.8433266e+2, -253871.0, -219951.97, 24090.621, 0.083536476, -0.11888041, -207449.94, -53919.395, 0.00000011654808, 9.999351, 9.999786 
3.5496473e+2, 2.9433233e+2, -191736.84, -134153.3, 103217.65, -0.047843106, -0.16575077, -55787.016, -255.4361, 0.0000016052002, 9.999063, 9.999847 
3.5495812e+2, 3.0433175e+2, -170676.67, -122729.305, -56001.875, -0.23584647, -0.19509707, -85785.445, -85785.445, 0.000008325357, 9.998969, 9.999649 
3.5495412e+2, 3.1433362e+2, -249194.78, -193090.11, -87420.664, 0.09652362, 0.005344792, -129331.19, -129331.19, 0.000028550077, 9.998533, 9.999366 
3.6503914e+2, 1.2434512e+2, -1444296.0, -1644771.3, -33718.44, 0.068279736, -0.17758866, -1438776.8, 282629.28, 0.000118926524, 10.002051, 9.999484 
3.6503503e+2, 1.3434532e+2, -1783254.3, -1749608.9, -67074.18, -0.05963091, -0.12722728, -1697279.9, -73871.29, 0.000056465244, 9.999062, 9.999531 
3.6503226e+2, 1.443462e+2, -1826009.8, -1747261.6, -115376.9, 0.09267962, 0.018434176, -1664725.3, -139321.67, 0.00001794202, 9.998213, 9.999273 
3.650267e+2, 1.5434572e+2, -1456491.0, -1536045.0, -69550.83, 0.10999871, 0.028612368, -1416146.1, 11264.433, 0.000002788093, 10.000149, 9.999121 
3.650222e+2, 1.6434525e+2, -1229702.8, -1303421.0, 56408.645, 0.11611513, 0.045172904, -1199178.5, 130237.86, 0.00000008230677, 10.000731, 9.999759 
3.650183e+2, 1.7434478e+2, -1303657.0, -1281200.9, 11166.803, 0.027273664, -0.0068786955, -1276593.3, -45172.516, 0.0, 9.999522, 9.999822 
3.6501405e+2, 1.8434446e+2, -1271877.5, -1184274.1, -69132.19, -0.016653014, -0.031121828, -1146235.4, -12813.966, 0.0, 9.998929, 10.0001 
3.6500952e+2, 1.9434415e+2, -1153094.8, -1075042.6, -77384.26, 0.025612807, -0.09545617, -1027400.56, 8018.434, 0.0, 9.999064, 10.000115 
3.6500472e+2, 2.0434342e+2, -1083825.5, -1106104.5, -48144.563, 0.009794749, -0.12609264, -1045548.56, -108125.24, 0.0, 9.999366, 9.999083 
3.649994e+2, 2.1434207e+2, -920055.44, -984982.4, -64260.414, -0.09199698, -0.18700852, -880523.94, -41086.42, 0.0, 9.999854, 9.999006 
3.6499465e+2, 2.2434142e+2, -832362.1, -926979.4, -58810.566, -0.11407929, -0.13551523, -804193.7, -62747.7, 0.0, 9.9999275, 9.998699 
3.6499065e+2, 2.3434153e+2, -811482.4, -869796.6, -12859.792, -0.021446778, -0.011213891, -808772.44, -165324.25, 0.0, 9.999413, 9.998667 
3.6498585e+2, 2.4434116e+2, -611690.06, -566371.44, 14346.604, -0.021859838, 0.023333251, -562211.5, -16761.352, 0.0, 9.99943, 10.000075 
3.6497995e+2, 2.5434005e+2, -411331.4, -405505.7, -40844.305, -0.14083466, -0.12823838, -367470.5, 79982.44, 0.0, 10.000079, 10.000191 
3.6497533e+2, 2.6433903e+2, -425930.66, -567700.4, -55433.676, -0.12106247, -0.16218351, -406829.1, -57367.883, 0.0, 10.000215, 9.998326 
3.6497247e+2, 2.743378e+2, -408849.06, -527267.56, -25156.428, 0.09896731, -0.12483193, -403726.5, -152247.28, 0.0, 9.999731, 9.998167 
3.6496848e+2, 2.8433684e+2, -239189.17, -144846.17, 64236.152, 0.1302801, -0.1403641, -112321.79, 41167.723, 0.000000055764154, 9.99914, 10.000409 
3.649628e+2, 2.9433626e+2, -241027.06, -75218.914, 60149.86, -0.10453805, -0.2826944, -55696.965, -208.29692, 0.0000011855267, 9.998366, 10.000586 
3.649563e+2, 3.0433688e+2, -273813.66, -198551.78, -56346.293, -0.2789347, -0.22253759, -168425.86, -168425.86, 0.0000067298934, 9.998396, 9.999399 
3.649538e+2, 3.1433892e+2, -179952.16, -208738.5, -43748.914, 0.18457137, 0.034553092, -148289.6, -148289.6, 0.000025648078, 9.999232, 9.998928 
3.7503985e+2, 1.2434719e+2, -1362366.1, -1487688.6, -140803.44, -0.11887307, -0.02530597, -1270910.4, 450487.6, 0.0001191897, 10.002099, 10.000537 
3.7503532e+2, 1.3434681e+2, -1723455.6, -1638547.9, -173523.75, 0.029737277, -0.115991555, -1502360.1, 121039.54, 0.00005856906, 9.999112, 10.000268 
3.750314e+2, 1.4434794e+2, -1720840.4, -1526068.5, -64854.168, 0.15800244, -0.055988207, -1506449.8, 18937.375, 0.000020069963, 9.998201, 10.000795 
3.7502584e+2, 1.5434909e+2, -1338955.4, -1300825.0, 14563.259, -0.014763844, -0.04007373, -1295899.1, 131475.22, 0.0000038584762, 10.000184, 10.00072 
3.7502196e+2, 1.643491e+2, -1296564.9, -1437119.4, 9775.458, -0.0036377178, -0.019758431, -1295888.3, 33487.28, 0.00000020238203, 10.00071, 9.998851 
3.7501928e+2, 1.7434768e+2, -1381621.1, -1444187.4, -24670.824, 0.1489932, -0.057821684, -1373063.5, -141669.42, 0.0, 9.99952, 9.998706 
3.7501484e+2, 1.843474e+2, -1276254.4, -1179870.0, -74977.68, 0.15034762, -0.020009255, -1138932.3, -5534.978, 0.0, 9.998876, 10.000153 
3.7500843e+2, 1.9434845e+2, -1154176.4, -1060573.1, -62588.305, -0.010196521, 0.034873072, -1029223.06, 6159.4863, 0.0, 9.998999, 10.000242 
3.7500358e+2, 2.0434797e+2, -1110206.5, -1146259.6, -38789.355, -0.058380473, 0.031604983, -1085459.6, -148074.88, 0.0, 9.999297, 9.998843 
3.7500054e+2, 2.1434543e+2, -950949.06, -1028055.56, -38184.41, 0.016097037, -0.11874734, -935239.94, -95830.12, 0.0, 9.9997635, 9.9987545 
3.7499586e+2, 2.2434445e+2, -749609.25, -735553.94, -86046.33, -0.0018624279, -0.1477983, -656248.75, 85169.4, 0.0, 9.999838, 10.000059 
3.749891e+2, 2.3434536e+2, -717173.6, -657715.75, -25035.646, -0.13667914, -0.096223995, -648578.4, -5172.1997, 0.0, 9.999333, 10.000164 
3.749838e+2, 2.4434522e+2, -699091.7, -729197.9, 29737.535, -0.18495958, -0.070736125, -680814.4, -135408.84, 0.0, 9.999356, 9.99899 
3.7498024e+2, 2.5434348e+2, -514073.3, -601012.5, -6793.703, -0.14022303, -0.1541263, -513545.66, -66124.16, 0.0, 10.000002, 9.998886 
3.7497607e+2, 2.6434258e+2, -367159.06, -438355.97, -79149.05, -0.08786242, -0.1430639, -315971.47, 33459.08, 0.0, 10.000186, 9.999227 
3.749712e+2, 2.7434266e+2, -343059.13, -375267.38, -34035.13, -0.021138892, -0.0871847, -321510.44, -70077.99, 0.0, 9.999664, 9.999244 
3.7496674e+2, 2.843424e+2, -246649.61, -149182.67, 28633.361, 0.018489819, -0.08522464, -141393.4, 12040.393, 0.00000003400916, 9.999092, 10.000404 
3.7496245e+2, 2.9434192e+2, -259198.97, -96774.8, 41193.69, 0.0004005494, -0.20994289, -86924.69, -31490.914, 0.000000899484, 9.998293, 10.000477 
3.7495652e+2, 3.0434307e+2, -239435.95, -116035.82, -32812.316, -0.11457171, -0.111912504, -107853.51, -107853.51, 0.000005766145, 9.998351, 9.999988 
3.7495267e+2, 3.1434387e+2, -113473.85, -49404.523, 19794.09, 0.105756514, -0.04739409, -43782.504, -43782.504, 0.000023919054, 9.999143, 10.000065 
3.850419e+2, 1.2435211e+2, -1618936.9, -1587600.6, 139542.9, -0.02022505, 0.03222666, -1462849.0, 258504.19, 0.00012316402, 10.000251, 10.000737 
3.8503522e+2, 1.3435152e+2, -1534275.4, -1551045.8, -12604.528, 0.051165953, -0.07713692, -1527521.6, 95833.24, 0.000061385945, 10.0004225, 10.000244 
3.8503e+2, 1.4435211e+2, -1404464.1, -1360986.9, 110755.87, 0.09714927, -0.07232928, -1269856.5, 255489.81, 0.000022093489, 10.000319, 10.000906 
3.8502598e+2, 1.5435344e+2, -1402782.6, -1316864.1, 56099.016, 0.009549255, -0.051787656, -1289165.0, 138166.72, 0.000004863891, 9.999696, 10.000838 
3.850225e+2, 1.6435362e+2, -1459330.0, -1509911.3, 6898.738, 0.041495066, -0.02430288, -1458406.0, -129074.92, 0.00000029520132, 9.999547, 9.998921 
3.8501874e+2, 1.743524e+2, -1315439.0, -1401691.4, 43275.195, 0.12563598, -0.05356075, -1297470.1, -66122.82, 0.0, 9.999919, 9.998809 
3.8501412e+2, 1.8435204e+2, -1100025.8, -1158478.4, 61983.367, 0.123810634, -0.0028171593, -1060723.9, 72628.195, 0.0, 10.000348, 9.999596 
3.8500887e+2, 1.9435254e+2, -933812.4, -1026540.4, 2289.0823, 0.051188827, 0.060076546, -933755.94, 101588.87, 0.0, 10.000802, 9.999616 
3.8500434e+2, 2.0435183e+2, -915901.0, -1048222.8, 5399.732, 0.024707172, 0.06475714, -915681.0, 21669.225, 0.0, 10.000612, 9.998883 
3.8500044e+2, 2.1434939e+2, -974416.0, -1033527.8, 15429.173, 0.04270681, -0.08232218, -970631.06, -131257.88, 0.0, 9.999563, 9.99882 
3.849955e+2, 2.243485e+2, -822461.06, -749116.56, -28365.098, 0.009986017, -0.117499605, -739426.8, 1953.51, 0.0, 9.999256, 10.000237 
3.8498923e+2, 2.3434946e+2, -615037.4, -587148.8, -85497.25, -0.08294944, -0.07928672, -514466.2, 128901.7, 0.0, 9.999959, 10.0003395 
3.8498405e+2, 2.4434921e+2, -645076.4, -725304.94, -52319.133, -0.11658295, -0.062662795, -619263.06, -73894.516, 0.0, 9.999826, 9.998782 
3.8498005e+2, 2.5434723e+2, -735575.3, -736646.94, -26271.184, -0.08461608, -0.14844902, -709834.5, -262446.63, 0.0, 9.998603, 9.998625 
3.8497546e+2, 2.6434636e+2, -612650.25, -513469.25, -40376.402, -0.07031639, -0.1382705, -499110.78, -149714.38, 0.0, 9.998303, 9.999624 
3.8497025e+2, 2.7434686e+2, -381077.53, -340691.56, -58776.992, -0.055497, -0.08360246, -298735.6, -47343.47, 0.0, 9.999176, 9.999717 
3.849656e+2, 2.8434694e+2, -239856.34, -178345.11, -47974.43, -0.004725253, -0.06618578, -152114.28, 1276.3356, 0.000000026095549, 9.999281, 10.000114 
3.849615e+2, 2.9434645e+2, -279155.16, -146380.06, -71766.77, 0.077726156, -0.14976121, -115003.734, -59611.793, 0.00000066980994, 9.998336, 10.000116 
3.849554e+2, 3.0434763e+2, -268276.25, -130669.555, -99145.09, -0.039486453, -0.03287434, -78792.95, -78792.95, 0.000005131084, 9.998144, 9.999983 
3.849513e+2, 3.1434786e+2, -132959.47, -5950.0166, -112319.96, 0.082235225, -0.03352592, 59574.805, 59574.805, 0.000023468077, 9.998776, 10.000536 
3.950449e+2, 1.24359995e+2, -1678101.0, -1698421.3, 137333.92, 0.20122722, 0.0057380954, -1550551.9, 170718.63, 0.0001272644, 10.000226, 9.999984 
3.9503455e+2, 1.3435934e+2, -1591742.9, -1667964.3, 2779.387, -0.07953974, -0.024139678, -1591641.6, 31633.371, 0.00006380605, 10.00043, 9.9994335 
3.9502782e+2, 1.4435871e+2, -1504801.8, -1570037.0, 81427.57, -0.18271504, -0.03357169, -1449701.9, 75579.5, 0.000023677207, 10.000307, 9.999484 
3.9502665e+2, 1.543587e+2, -1496518.9, -1524340.4, 42054.6, 0.08162185, -0.0034980602, -1466134.0, -38850.67, 0.000005569423, 9.999742, 9.999396 
3.9502344e+2, 1.6435868e+2, -1384860.0, -1343048.6, 5711.018, 0.15988772, 0.025556253, -1342282.6, -12998.412, 0.00000035120044, 9.999506, 10.000084 
3.9501643e+2, 1.7435879e+2, -1226407.1, -1206419.6, 65642.03, -0.11868297, 0.00051809446, -1150015.0, 81266.3, 0.0, 9.999882, 10.000165 
3.9501178e+2, 1.8435822e+2, -1192793.6, -1336659.6, 70796.36, -0.16446312, 0.013534445, -1163798.5, -30511.973, 0.0, 10.000282, 9.998407 
3.9501065e+2, 1.9435655e+2, -1038251.06, -1224835.6, 27271.602, 0.12506294, -0.0062111425, -1034346.7, 958.1839, 0.0, 10.000727, 9.998288 
3.9500666e+2, 2.0435512e+2, -906222.06, -1004139.6, -40130.453, 0.17983498, -0.018276038, -891876.7, 45442.207, 0.0, 10.00051, 9.999235 
3.949988e+2, 2.1435398e+2, -960613.7, -970207.1, -14328.809, -0.095482774, -0.08490389, -950300.0, -110972.36, 0.0, 9.999422, 9.999318 
3.949933e+2, 2.243535e+2, -912333.25, -912932.6, -13623.968, -0.15179265, -0.053353515, -899005.7, -157673.19, 0.0, 9.999156, 9.999164 
3.9499083e+2, 2.3435369e+2, -713068.5, -767036.5, -49753.945, 0.06346153, 0.029513346, -683452.2, -40117.9, 0.0, 9.999858, 9.999153 
3.949863e+2, 2.4435306e+2, -602935.4, -626332.56, -102039.86, 0.10891155, 0.037476033, -511925.72, 33414.707, 0.0, 9.999776, 9.99949 
3.9497906e+2, 2.543512e+2, -685587.8, -617173.6, -64248.508, -0.06439114, -0.11969871, -578593.4, -131240.14, 0.0, 9.998529, 9.999485 
3.9497322e+2, 2.6435035e+2, -628100.9, -531567.94, -19588.055, -0.14282559, -0.15434, -527744.7, -178385.48, 0.0, 9.998242, 9.999531 
3.9496925e+2, 2.7435043e+2, -402709.38, -371812.66, -15918.096, -0.09326672, -0.11766035, -365079.1, -113720.34, 0.0, 9.99911, 9.999538 
3.9496484e+2, 2.8435028e+2, -284266.06, -256965.22, -87047.76, -0.026611637, -0.08557909, -182504.08, -29143.783, 0.000000010243951, 9.999233, 9.999595 
3.9495957e+2, 2.9434994e+2, -333741.25, -234359.92, -94642.99, 0.028889647, -0.101678744, -177155.98, -121792.98, 0.0000005130985, 9.998234, 9.999559 
3.949528e+2, 3.043505e+2, -313978.2, -218156.34, -82842.78, -0.13685805, 0.010902411, -170367.83, -170367.83, 0.0000059963604, 9.998108, 9.9994 
3.9494908e+2, 3.143507e+2, -159628.94, -40889.27, -56724.81, -0.059281692, 0.066845514, -18146.49, -18146.49, 0.000027743677, 9.998694, 10.000333 
4.0504542e+2, 1.24366224e+2, -1784139.9, -1801405.5, 70277.805, 0.2719706, -0.0106064975, -1721966.8, -760.03436, 0.0001282802, 9.999696, 9.99954 
4.05036e+2, 1.3436556e+2, -1479135.4, -1651057.3, -63329.285, -0.011098567, -0.01508737, -1458326.1, 164886.67, 0.00006493345, 10.001356, 9.999105 
4.050284e+2, 1.4436428e+2, -1314833.6, -1547797.6, 28477.545, -0.22397931, -0.039381262, -1311403.0, 213823.25, 0.00002457309, 10.001915, 9.9988575 
4.0502664e+2, 1.5436378e+2, -1369570.5, -1537969.9, 20330.16, 0.053864993, 0.0027790281, -1367150.9, 60083.582, 0.000005781208, 10.000926, 9.9987335 
4.0502343e+2, 1.6436343e+2, -1244049.8, -1281298.9, 34977.133, 0.16565284, 0.039770767, -1223047.6, 106191.09, 0.0000003430959, 10.000495, 10.000029 
4.0501705e+2, 1.743636e+2, -1101991.5, -1150603.4, -25576.25, -0.079877764, 0.0197937, -1091014.0, 140220.92, 0.0, 10.000747, 10.000132 
4.0501264e+2, 1.8436296e+2, -1130009.3, -1305366.3, -28824.076, -0.12228644, 0.026245296, -1125392.9, 7848.0415, 0.0, 10.000718, 9.998409 
4.0501124e+2, 1.9436096e+2, -1110007.1, -1259987.9, 15397.144, 0.14097813, -0.024910687, -1108442.8, -73179.98, 0.0, 10.000241, 9.998283 
4.0500683e+2, 2.0435959e+2, -967770.94, -1004769.25, -6309.953, 0.18181404, -0.042142563, -966724.44, -29448.379, 0.0, 9.999966, 9.999491 
4.049985e+2, 2.1435896e+2, -873175.1, -902651.75, -18733.404, -0.08085851, -0.08372813, -864077.4, -24798.178, 0.0, 9.999907, 9.999552 
4.049929e+2, 2.2435871e+2, -841134.9, -929784.1, 43912.816, -0.1339659, -0.021941118, -823065.56, -81782.39, 0.0, 9.999866, 9.998708 
4.0499082e+2, 2.3435871e+2, -746015.75, -842101.3, 47429.254, 0.07829676, 0.09461011, -726548.25, -83258.266, 0.0, 9.999878, 9.998632 
4.0498638e+2, 2.443581e+2, -579155.6, -588695.56, -12731.439, 0.1421128, 0.12246647, -570329.94, -25032.9, 0.0, 9.999833, 9.999719 
4.04979e+2, 2.5435668e+2, -485349.47, -481327.34, -37073.66, 0.019580973, -0.02322611, -446210.25, 1094.0352, 0.0, 9.999759, 9.999816 
4.0497282e+2, 2.6435566e+2, -458070.66, -490529.94, 26269.441, -0.070029594, -0.07466211, -443421.75, -94110.945, 0.0, 9.999579, 9.999168 
4.0496826e+2, 2.7435485e+2, -412910.22, -423766.72, 1165.8494, -0.10349961, -0.08703444, -412786.44, -161467.28, 0.0, 9.999236, 9.99912 
4.0496355e+2, 2.843544e+2, -325842.9, -289504.16, -74745.8, -0.059648614, -0.06041007, -230751.1, -77427.414, 0.0000000008315615, 9.998991, 9.999487 
4.049584e+2, 2.943543e+2, -242775.7, -196461.05, -68235.45, 0.06709801, -0.04856326, -147560.48, -92237.12, 0.0000007104038, 9.998874, 9.999506 
4.0495145e+2, 3.0435416e+2, -219525.52, -224977.11, 24862.96, -0.11762112, 0.019459248, -197239.38, -197239.38, 0.000009515816, 9.998983, 9.998934 
4.0494826e+2, 3.143531e+2, -109722.51, -66972.01, 34318.93, -0.022526652, 0.000118106174, -47915.953, -47915.953, 0.0000394484, 9.999236, 9.999898 
4.1504315e+2, 1.2437068e+2, -1781661.4, -1809500.5, 92803.82, 0.022178067, -0.03214362, -1701739.0, 19423.686, 0.0001259659, 9.999745, 9.99946 
4.150392e+2, 1.3437027e+2, -1449967.0, -1609675.1, 7632.158, 0.14685637, -0.039521184, -1449603.1, 173563.61, 0.00006410072, 10.001423, 9.999358 
4.150315e+2, 1.4436892e+2, -1306998.1, -1526913.8, -8957.315, -0.13548496, -0.09417966, -1306633.9, 218546.97, 0.00002430965, 10.001905, 9.999003 
4.1502577e+2, 1.5436867e+2, -1360340.6, -1511454.0, -5035.14, -0.15242305, -0.038073, -1360173.0, 67012.01, 0.0000053776803, 10.000904, 9.998923 
4.1502228e+2, 1.6436796e+2, -1344723.6, -1477603.0, 33260.594, -0.02254487, 0.014894826, -1336863.3, -7669.1167, 0.0000002359893, 10.00044, 9.998708 
4.1502032e+2, 1.7436692e+2, -1202470.5, -1357114.6, -6118.6294, 0.147202, 0.015632348, -1202228.8, 28978.297, 0.0, 10.000736, 9.998719 
4.1501635e+2, 1.8436626e+2, -1053635.0, -1134002.9, -53129.97, 0.15551351, 0.03735082, -1027204.06, 106010.73, 0.0, 10.000665, 9.999609 
4.1501027e+2, 1.9436581e+2, -1021639.75, -1059786.0, 4971.8125, 0.0033501396, 0.0041539143, -1021002.4, 14215.411, 0.0, 10.000176, 9.999682 
4.1500467e+2, 2.0436525e+2, -976412.06, -1004518.2, -18286.795, -0.05008523, -0.009024138, -967402.25, -30180.764, 0.0, 9.999879, 9.999539 
4.149994e+2, 2.143644e+2, -890578.06, -911379.56, -15189.966, -0.0030106176, -0.07067967, -882569.3, -43341.83, 0.0, 9.999791, 9.999546 
4.149941e+2, 2.2436413e+2, -843551.5, -912596.3, 35793.902, -0.020781202, -0.015687022, -828344.6, -87112.97, 0.0, 9.999767, 9.998875 
4.1498876e+2, 2.3436454e+2, -745735.06, -820371.4, 56339.32, -0.1301322, 0.11789256, -715475.4, -72240.664, 0.0, 9.999787, 9.998824 
4.1498393e+2, 2.4436441e+2, -602087.06, -627546.5, -23297.83, -0.109749526, 0.19665918, -588268.06, -43030.41, 0.0, 9.99979, 9.999472 
4.1497946e+2, 2.543635e+2, -512701.0, -525821.2, -31218.06, 0.07117287, 0.12936753, -487361.22, -40119.29, 0.0, 9.999699, 9.999541 
4.1497394e+2, 2.6436222e+2, -502747.75, -573924.4, 7490.9463, 0.06663842, 0.09126117, -501967.9, -152715.58, 0.0, 9.999545, 9.998609 
4.1496697e+2, 2.7436027e+2, -466117.1, -515542.84, -2074.3342, -0.17971328, 0.019727973, -466030.2, -214757.97, 0.0, 9.999162, 9.998524 
4.149615e+2, 2.8435928e+2, -301605.9, -242412.48, -88849.55, -0.19098999, 0.012999916, -178359.81, -25079.777, 0.00000000001177225, 9.998992, 9.999815 
4.1495764e+2, 2.9435948e+2, -224353.31, -144439.69, -63787.223, 0.07483385, 0.01364977, -109127.94, -53854.742, 0.0000013022876, 9.998807, 9.9999 
4.1495106e+2, 3.0435857e+2, -238497.77, -259891.6, 30803.453, -0.07996053, -0.0010265684, -216586.75, -216586.75, 0.000014575742, 9.998971, 9.998696 
4.1494846e+2, 3.1435534e+2, -164974.83, -155400.25, 59900.418, 0.025980879, -0.21469961, -100096.12, -100096.12, 0.000055427667, 9.999133, 9.999336 
4.2504233e+2, 1.2437453e+2, -1534647.4, -1675012.0, 8624.078, -0.10696532, -0.007892367, -1534119.5, 187008.4, 0.000120138786, 10.001356, 9.99961 
4.2504108e+2, 1.3437453e+2, -1657860.5, -1670496.1, -64227.973, 0.2786924, -0.017919846, -1599640.4, 23487.313, 0.00006079175, 9.999802, 9.999731 
4.2503348e+2, 1.4437354e+2, -1596498.9, -1630041.5, -41256.65, -0.01603291, -0.069901906, -1568734.9, -43597.586, 0.00002257458, 9.999758, 9.999333 
4.2502704e+2, 1.5437359e+2, -1279090.3, -1434768.8, -51519.434, -0.12560816, -0.019979576, -1263584.9, 163552.17, 0.0000044461326, 10.001304, 9.999256 
4.250231e+2, 1.6437285e+2, -1207521.9, -1446360.6, 20010.97, -0.033265483, 0.029087259, -1205856.9, 123289.38, 0.00000009724189, 10.00154, 9.998388 
4.2502105e+2, 1.7437123e+2, -1319502.8, -1453525.0, 41064.37, 0.18232194, 0.007676306, -1307921.5, -76754.79, 0.0, 10.00011, 9.99836 
4.2501682e+2, 1.8437068e+2, -1205015.5, -1158040.0, 39502.113, 0.20293671, 0.040930137, -1135570.3, -2396.42, 0.0, 9.999409, 10.0000515 
4.250102e+2, 1.9437131e+2, -1073573.5, -1034419.56, 17285.578, 0.01168123, 0.06515022, -1027880.5, 7285.7866, 0.0, 9.999591, 10.000144 
4.250044e+2, 2.0437123e+2, -990903.9, -1017307.06, -21754.318, -0.05604083, 0.07748532, -978658.8, -41493.3, 0.0, 9.999808, 9.999479 
4.249994e+2, 2.1437009e+2, -867267.1, -914467.2, -39441.203, 0.013929491, -0.00048206546, -844904.44, -5729.274, 0.0, 10.000011, 9.999419 
4.2499414e+2, 2.2436954e+2, -787240.25, -843851.1, 20509.922, 0.0028337, 0.013533511, -780590.6, -39409.168, 0.0, 9.999982, 9.999238 
4.249886e+2, 2.3436967e+2, -744011.8, -776402.0, 35601.76, -0.11668692, 0.08221958, -721094.7, -77910.89, 0.0, 9.999617, 9.999208 
4.2498353e+2, 2.443696e+2, -669120.06, -687037.8, -15303.767, -0.10603591, 0.15793169, -660345.75, -115160.19, 0.0, 9.999451, 9.999227 
4.2497906e+2, 2.543691e+2, -547267.25, -576336.1, -41296.81, 0.072520055, 0.16312224, -518021.8, -70833.34, 0.0, 9.999605, 9.999241 
4.2497346e+2, 2.643679e+2, -526036.9, -572248.6, 13163.218, 0.08043061, 0.14817268, -522550.4, -173351.73, 0.0, 9.999329, 9.998732 
4.2496637e+2, 2.743657e+2, -552352.44, -537008.44, 42121.363, -0.11718623, 0.03481245, -501866.1, -250646.53, 0.0, 9.998484, 9.998706 
4.2496064e+2, 2.8436452e+2, -431988.4, -310805.0, 13991.168, -0.12739907, 0.0033361835, -309210.63, -155982.27, 0.0000000012455732, 9.998138, 9.999748 
4.2495644e+2, 2.943646e+2, -278430.25, -180983.6, -14847.696, 0.097743146, 0.0014247714, -178771.52, -123548.01, 0.0000019825331, 9.998484, 9.999805 
4.2494968e+2, 3.0436385e+2, -274392.44, -230663.23, 97335.1, -0.081978515, -0.012625083, -152767.2, -152767.2, 0.000019679212, 9.998527, 9.999111 
4.249483e+2, 3.1436032e+2, -290177.78, -153290.42, 114529.305, 0.16430128, -0.30474252, -88311.85, -88311.85, 0.00007104561, 9.998005, 9.99989 
4.3504232e+2, 1.2437787e+2, -1518635.5, -1622733.6, -111070.22, -0.29318097, 0.05653639, -1448023.6, 273077.9, 0.000112459136, 10.001312, 9.999976 
4.350415e+2, 1.343784e+2, -1623122.3, -1592733.3, -106774.18, 0.31090888, 0.04865808, -1500077.9, 123017.16, 0.000055857796, 9.999798, 10.00026 
4.350341e+2, 1.4437813e+2, -1566253.6, -1568619.5, 5837.9673, 0.042026624, 0.023661114, -1561480.0, -36383.79, 0.000019900395, 9.999752, 9.999763 
4.3503016e+2, 1.5437849e+2, -1239515.1, -1365045.8, 17322.572, 0.025907751, 0.05943028, -1237168.6, 189922.34, 0.0000034951138, 10.001345, 9.999721 
4.3502554e+2, 1.64378e+2, -1162968.5, -1345353.6, -36090.15, 0.034111038, 0.07361724, -1156086.8, 173009.3, 0.000000032016867, 10.00151, 9.999093 
4.3501896e+2, 1.7437646e+2, -1273438.6, -1350898.9, -3320.8042, -0.0598313, -0.0109789325, -1273296.5, -42182.566, 0.0, 10.000082, 9.999076 
4.350137e+2, 1.8437622e+2, -1239606.1, -1211961.4, 35170.18, -0.06671848, 0.029886574, -1187994.9, -54876.277, 0.0, 9.999336, 9.999715 
4.3501067e+2, 1.9437745e+2, -1111135.5, -1094732.8, 33241.676, 0.07906526, 0.15543362, -1068695.6, -33587.816, 0.0, 9.999521, 9.999761 
4.3500575e+2, 2.0437758e+2, -1020184.0, -1054061.5, -22082.158, 0.081908405, 0.21773095, -1009292.1, -72184.72, 0.0, 9.999707, 9.999274 
4.3499827e+2, 2.1437612e+2, -893828.3, -947598.8, -23528.443, -0.119448446, 0.12610406, -884986.75, -45865.113, 0.0, 9.999919, 9.999233 
4.3499276e+2, 2.2437501e+2, -772135.1, -784455.8, -270.1723, -0.14870727, 0.073098324, -772129.2, -30997.898, 0.0, 9.999861, 9.999704 
4.3498987e+2, 2.3437415e+2, -721546.2, -704688.06, 29642.395, 0.03426111, -0.010289788, -682299.56, -39162.848, 0.0, 9.999511, 9.999749 
4.3498498e+2, 2.4437368e+2, -700209.6, -738070.3, -19476.498, 0.07848302, 0.010264442, -691979.5, -146839.03, 0.0, 9.999392, 9.998905 
4.349775e+2, 2.5437355e+2, -584608.4, -636507.94, -27917.873, -0.065593205, 0.087992124, -572442.56, -125299.266, 0.0, 9.999533, 9.998861 
4.3497106e+2, 2.6437286e+2, -468513.22, -449214.75, -23822.332, -0.108388, 0.10230817, -433161.63, -84012.48, 0.0, 9.99931, 9.999586 
4.3496603e+2, 2.743712e+2, -494137.63, -403131.03, 20184.541, -0.020683428, -0.0479816, -398855.16, -147694.14, 0.0, 9.998422, 9.999657 
4.349606e+2, 2.8437018e+2, -475069.88, -387011.8, 17272.197, 0.037868686, -0.094776906, -383745.16, -230576.25, 0.000000012355592, 9.998092, 9.999242 
4.3495458e+2, 2.9436985e+2, -335364.9, -280617.3, 10732.321, 0.04123412, -0.07604656, -278588.6, -223415.73, 0.0000027662056, 9.998413, 9.999152 
4.3494707e+2, 3.0437005e+2, -197755.42, -79406.586, 76171.68, -0.21528615, -0.00801773, -42125.125, -42125.125, 0.000024180765, 9.998545, 10.000145 
4.3494704e+2, 3.1436798e+2, -191655.13, 67685.32, 75025.54, 0.19338347, -0.26754978, 87825.63, 87825.63, 0.00008333817, 9.99793, 10.001447 
4.4504353e+2, 1.243826e+2, -1733975.1, -1747165.4, -1129.8282, -0.2202385, 0.06309774, -1733879.1, -12823.567, 0.00010599228, 9.999936, 9.999786 
4.4504204e+2, 1.3438292e+2, -1404330.6, -1492788.1, -19271.85, 0.3249265, 0.043092966, -1400314.3, 222736.86, 0.00005101591, 10.001345, 10.0002 
4.450342e+2, 1.443828e+2, -1268068.5, -1411761.8, 95574.77, -0.011726716, 0.03204368, -1220347.3, 304703.3, 0.000017295639, 10.001743, 9.999877 
4.4503137e+2, 1.5438288e+2, -1334562.4, -1392164.9, 59076.902, 0.057639886, 0.02303265, -1297640.0, 129407.6, 0.0000027656245, 10.000615, 9.999883 
4.4502676e+2, 1.6438267e+2, -1334055.3, -1381738.6, -23374.463, 0.081545845, 0.03416333, -1324508.4, 4541.318, 0.000000035556127, 10.000122, 9.99952 
4.450188e+2, 1.7438206e+2, -1193713.4, -1261279.4, -28534.35, -0.09269415, -0.00053836504, -1183275.4, 47782.734, 0.0, 10.000409, 9.999534 
4.4501314e+2, 1.8438202e+2, -1091163.3, -1147063.9, 42604.715, -0.10522302, 0.03817517, -1068158.9, 64901.508, 0.0, 10.000383, 9.999656 
4.450109e+2, 1.9438243e+2, -1070204.3, -1086320.5, 46064.477, 0.13942696, 0.091631755, -1031498.4, 3558.8342, 0.0, 9.999846, 9.999661 
4.450062e+2, 2.0438236e+2, -1019006.2, -1047564.2, 42867.074, 0.15896699, 0.13787614, -988102.5, -51043.77, 0.0, 9.999704, 9.999316 
4.4499815e+2, 2.143815e+2, -876068.2, -934327.8, 41258.367, -0.12258854, 0.10365268, -854692.56, -15624.791, 0.0, 10.000029, 9.99927 
4.4499248e+2, 2.2438069e+2, -747223.75, -761996.4, 51071.727, -0.16408889, 0.07352312, -703007.0, 38067.53, 0.0, 9.999977, 9.999803 
4.4498992e+2, 2.3437974e+2, -731160.3, -702382.9, 30136.248, 0.09904895, -0.027401064, -683376.56, -40296.58, 0.0, 9.999404, 9.99982 
4.44985e+2, 2.44379e+2, -730146.9, -734728.0, 17119.758, 0.16302079, -0.04616385, -715165.1, -170079.92, 0.0, 9.9991045, 9.999064 
4.4497707e+2, 2.5437838e+2, -629512.8, -641797.7, 35467.992, -0.03687902, -0.035625093, -599659.3, -152567.92, 0.0, 9.999146, 9.999011 
4.4497025e+2, 2.6437786e+2, -497040.75, -455087.28, 26424.361, -0.10628402, -0.0153480405, -442325.75, -93230.18, 0.0, 9.99909, 9.999641 
4.4496492e+2, 2.7437732e+2, -411936.72, -358990.13, -18046.822, 0.0029917716, -0.059669018, -353424.03, -102325.16, 0.0, 9.998979, 9.999684 
4.4495952e+2, 2.8437665e+2, -350222.0, -340714.56, -1861.1517, 0.08184089, -0.06559034, -340363.22, -187258.0, 0.00000003062236, 9.998998, 9.999129 
4.4495407e+2, 2.9437566e+2, -246862.13, -243560.58, 10848.313, 0.121142365, -0.099846154, -234238.16, -179121.33, 0.0000032986038, 9.999047, 9.999098 
4.449466e+2, 3.043761e+2, -103369.39, -46052.043, 70905.2, -0.1469489, -0.005028706, 1767.1693, 1767.1693, 0.000027227657, 9.9992485, 10.000032 
4.4494545e+2, 3.143755e+2, 80069.57, 239730.92, -95522.91, 0.1646842, -0.10196751, 284389.44, 284389.44, 0.000091368296, 9.999612, 10.00182 
4.5504537e+2, 1.2438849e+2, -1777916.3, -1842504.8, -40597.33, -0.08434494, -0.0029387327, -1758335.0, -37342.688, 0.00010140695, 9.999962, 9.999115 
4.5504248e+2, 1.3438793e+2, -1443671.1, -1586782.5, 45528.945, 0.20739406, -0.044861488, -1430414.6, 192582.83, 0.00004730018, 10.001392, 9.999534 
4.5503354e+2, 1.4438735e+2, -1279371.9, -1433319.8, 55424.355, -0.2836552, -0.06056299, -1261494.1, 263508.2, 0.000015080613, 10.001741, 9.999727 
4.550305e+2, 1.5438671e+2, -1345832.9, -1412906.3, 28112.52, -0.11836044, -0.12711759, -1335608.5, 91398.9, 0.0000021144335, 10.00061, 9.99974 
4.5502654e+2, 1.6438682e+2, -1321238.9, -1354213.0, -26481.71, 0.022138068, -0.08310307, -1306531.4, 22475.96, 0.00000004449902, 10.00011, 9.999718 
4.5502037e+2, 1.7438796e+2, -1173978.8, -1228250.6, -8815.201, -0.0045399354, 0.032985985, -1172582.8, 58416.934, 0.0, 10.000434, 9.999752 
4.550148e+2, 1.8438798e+2, -1086368.1, -1120600.4, 16858.836, 0.0038406865, 0.057684477, -1079459.6, 53540.523, 0.0, 10.00032, 9.999863 
4.550106e+2, 1.9438627e+2, -1069051.8, -1064001.9, 33280.13, 0.10115502, -0.12120212, -1033151.0, 1862.8062, 0.0, 9.99977, 9.9998455 
4.5500538e+2, 2.0438562e+2, -1015251.3, -1018442.1, 42931.402, 0.08769551, -0.15415905, -973885.7, -36866.863, 0.0, 9.999606, 9.999566 
4.5499876e+2, 2.1438621e+2, -872869.8, -899272.4, 63029.406, -0.084324166, -0.071971975, -821674.06, 17339.377, 0.0, 9.999906, 9.99957 
4.5499304e+2, 2.2438657e+2, -785522.06, -815311.25, 25433.559, -0.124333, 0.013590412, -770942.7, -29931.762, 0.0, 9.999864, 9.9994955 
4.549885e+2, 2.3438644e+2, -766020.06, -754597.3, 19086.572, -0.0053165113, 0.029016627, -740385.94, -97372.234, 0.0, 9.999315, 9.999505 
4.5498332e+2, 2.4438557e+2, -697135.8, -642326.2, 9425.366, 0.06439076, -0.015262479, -640750.7, -95730.65, 0.0, 9.999012, 9.9997425 
4.549775e+2, 2.5438356e+2, -589452.9, -535193.8, 46167.734, 0.072503835, -0.21321654, -508774.56, -61741.836, 0.0, 9.99905, 9.99979 
4.5497075e+2, 2.6438293e+2, -563957.4, -581874.06, 16373.174, 0.01447236, -0.20673007, -554252.0, -205214.3, 0.0, 9.999038, 9.998796 
4.5496273e+2, 2.7438396e+2, -491509.84, -507378.53, -10983.054, -0.13544483, -0.0008219983, -485894.97, -234861.48, 0.0, 9.998905, 9.9987 
4.5495713e+2, 2.8438395e+2, -332035.7, -292872.5, -7690.4116, -0.079464436, 0.09188292, -291416.47, -138379.13, 0.000000022691747, 9.998951, 9.999482 
4.549546e+2, 2.9438215e+2, -219167.63, -174553.0, 24075.047, 0.24141976, -0.06542422, -164039.22, -108984.28, 0.0000033720132, 9.998987, 9.999607 
4.5494792e+2, 3.043819e+2, -193336.61, -229973.25, 82470.734, 0.0362528, -0.007378463, -127174.266, -127174.266, 0.000028360193, 9.999246, 9.998766 
4.549431e+2, 3.1438288e+2, 6748.122, 106626.586, -92984.37, -0.08068864, 0.1895245, 162233.64, 162233.64, 0.00009465621, 9.999535, 10.000941 
4.6504593e+2, 1.243948e+2, -1674740.3, -1796598.5, -97413.58, -0.050293665, 0.026809286, -1620770.5, 100160.055, 0.000096649455, 10.000663, 9.999093 
4.650437e+2, 1.343934e+2, -1450660.8, -1608755.9, 75216.07, 0.19832441, -0.089215666, -1420593.8, 202348.69, 0.00004344866, 10.001391, 9.999393 
4.6503487e+2, 1.4439282e+2, -1344697.0, -1486399.0, 51890.645, -0.29839188, -0.08796239, -1327727.1, 197220.3, 0.000012657647, 10.001384, 9.999537 
4.650304e+2, 1.543925e+2, -1389394.4, -1454373.4, -7174.5303, -0.17126103, -0.10382544, -1388611.6, 38339.887, 0.0000014631825, 10.000395, 9.999563 
4.6502608e+2, 1.6439277e+2, -1334362.5, -1349586.6, 5313.635, -0.020459248, -0.040030345, -1332691.3, -3740.702, 0.000000030371112, 9.999992, 9.999801 
4.6502125e+2, 1.7439373e+2, -1180368.9, -1220201.3, -3323.8953, 0.048639704, 0.048252504, -1180093.4, 50850.402, 0.0, 10.000352, 9.999845 
4.6501574e+2, 1.8439367e+2, -1077082.1, -1135784.6, -6163.802, 0.064506285, 0.06844774, -1076442.0, 56502.586, 0.0, 10.000459, 9.999696 
4.6500993e+2, 1.943921e+2, -1023293.8, -1065103.3, -32177.543, 0.044424713, -0.07829202, -1005826.6, 29130.715, 0.0, 10.000169, 9.999657 
4.6500438e+2, 2.0439135e+2, -979253.1, -974731.75, -10700.61, 0.03082917, -0.12477254, -966055.6, -29092.846, 0.0, 9.999732, 9.999805 
4.649991e+2, 2.1439148e+2, -976839.56, -924451.56, -11265.712, 0.011082471, -0.11175475, -922131.7, -83171.75, 0.0, 9.999078, 9.999797 
4.6499363e+2, 2.243919e+2, -962624.4, -916357.4, -31591.105, 0.0086054895, -0.02547612, -900335.3, -159378.17, 0.0, 9.998729, 9.999337 
4.6498778e+2, 2.3439246e+2, -853492.3, -817247.06, -44972.52, 0.024024012, 0.07690985, -786883.0, -143926.95, 0.0, 9.998817, 9.999308 
4.6498233e+2, 2.4439192e+2, -663774.1, -591654.5, -25834.125, 0.06611865, 0.060493153, -583355.44, -38395.43, 0.0, 9.999075, 10.000067 
4.649775e+2, 2.5438982e+2, -495673.56, -449444.88, -32217.219, 0.149368, -0.18572845, -432907.94, 14063.806, 0.0, 9.999512, 10.000158 
4.6497092e+2, 2.6438907e+2, -480953.2, -564538.4, -54367.223, 0.10051773, -0.2039206, -454171.63, -105194.24, 0.0, 9.999688, 9.998612 
4.64962e+2, 2.7438983e+2, -424499.75, -501348.6, -44074.25, -0.12083993, -0.000026128722, -404452.16, -153475.75, 0.0, 9.999462, 9.998484 
4.6495587e+2, 2.8438973e+2, -295722.9, -286068.66, 173.70879, -0.10835764, 0.10313286, -286065.53, -133084.08, 0.00000001636591, 9.999238, 9.999393 
4.6495348e+2, 2.9438812e+2, -203932.36, -166287.56, -30208.93, 0.2343243, -0.03158612, -149516.95, -94519.27, 0.0000038591365, 9.999085, 9.999614 
4.6494746e+2, 3.0438733e+2, -229110.3, -260433.27, 74231.29, 0.08311473, -0.024824668, -168906.33, -168906.33, 0.000029778155, 9.999053, 9.998662 
4.6494183e+2, 3.143891e+2, -91164.945, 41806.406, -68189.18, -0.1168661, 0.27075514, 70557.86, 70557.86, 0.00009717631, 9.998949, 10.000781 
4.7504443e+2, 1.2440138e+2, -1632128.1, -1691124.0, -169246.78, -0.3208789, 0.15245587, -1489827.9, 231043.1, 0.0000915649, 10.000613, 9.999827 
4.750454e+2, 1.3439937e+2, -1419607.8, -1534216.5, 114743.61, 0.20831998, -0.07734883, -1348655.0, 274230.38, 0.000038474074, 10.00137, 9.999901 
4.7503802e+2, 1.4439929e+2, -1356951.9, -1515933.3, 10960.677, -0.15308285, -0.041929636, -1356199.8, 168685.3, 0.000009911169, 10.001385, 9.999342 
4.7503072e+2, 1.5440026e+2, -1394930.8, -1479716.5, -34767.64, -0.20326449, 0.08972441, -1382497.1, 44382.68, 0.0000009593812, 10.0004425, 9.9993725 
4.750252e+2, 1.644004e+2, -1340452.8, -1357786.3, 7472.3965, -0.13225207, 0.15438242, -1337676.3, -8795.629, 0.000000014696447, 9.999973, 9.999754 
4.7502115e+2, 1.7439924e+2, -1186292.3, -1229371.4, 20601.086, -0.014683283, 0.039973736, -1178026.5, 52864.938, 0.0, 10.000341, 9.999787 
4.750156e+2, 1.8439905e+2, -1116935.3, -1206037.3, -22295.646, -0.013087768, 0.0691544, -1111667.8, 21226.451, 0.0, 10.000402, 9.999244 
4.7500867e+2, 1.943999e+2, -1062467.5, -1137771.4, -33289.543, -0.11978167, 0.21313944, -1049861.5, -14973.602, 0.0, 10.000127, 9.999182 
4.7500306e+2, 2.0439951e+2, -980991.4, -956683.56, -41371.465, -0.09630305, 0.22242181, -925717.7, 11173.0205, 0.0, 9.999642, 9.999971 
4.7499904e+2, 2.1439737e+2, -976896.4, -900855.56, -27045.697, 0.07673508, -0.012562143, -892217.44, -53310.54, 0.0, 9.998978, 10.000006 
4.749939e+2, 2.2439666e+2, -975223.56, -927320.1, -37306.367, 0.14760813, -0.0479426, -906938.44, -166024.97, 0.0, 9.9986515, 9.999308 
4.749875e+2, 2.343977e+2, -870595.06, -831808.0, -32354.42, 0.09729457, 0.106963634, -813479.94, -170571.5, 0.0, 9.998719, 9.999261 
4.7498176e+2, 2.4439797e+2, -674897.06, -596905.56, -17372.34, 0.08039447, 0.1735967, -593210.94, -48304.86, 0.0, 9.999002, 10.000063 
4.7497678e+2, 2.543971e+2, -511689.72, -465355.56, -7002.776, 0.10384203, 0.048648663, -464320.3, -17411.28, 0.0, 9.999432, 10.000089 
4.7497052e+2, 2.643961e+2, -452444.06, -492221.0, -67995.97, 0.07217247, -0.010275817, -401487.63, -52572.082, 0.0, 9.999634, 9.999133 
4.7496244e+2, 2.7439484e+2, -392667.22, -420885.6, -42549.73, -0.04704807, -0.064504065, -361948.4, -111020.03, 0.0, 9.999405, 9.999061 
4.7495553e+2, 2.84394e+2, -336892.9, -369610.8, -15949.291, -0.08853672, -0.04034446, -330404.63, -177466.3, 0.0000000367379, 9.999225, 9.998828 
4.749504e+2, 2.9439345e+2, -261394.64, -270503.34, -26539.457, -0.006648922, -0.005727951, -239021.6, -184074.86, 0.000004901276, 9.999006, 9.998943 
4.7494483e+2, 3.0439225e+2, -161110.53, -103624.125, 63404.832, -0.10034812, -0.06004246, -62751.637, -62751.637, 0.000032907166, 9.998988, 9.999768 
4.7494116e+2, 3.143938e+2, -60697.023, 110144.99, -63176.613, -0.1269471, 0.10474301, 130969.13, 130969.13, 0.00010232853, 9.998921, 10.001266 
4.850457e+2, 1.24407075e+2, -1668441.4, -1680157.0, -133882.52, -0.2236588, 0.12439901, -1540288.5, 180526.45, 0.00008664265, 10.000226, 10.0001 
4.8504612e+2, 1.344056e+2, -1454867.8, -1544438.8, 145523.72, 0.16543536, -0.06020891, -1347393.9, 275430.7, 0.000032757685, 10.001074, 9.999991 
4.8503965e+2, 1.4440562e+2, -1375811.0, -1547950.5, 2423.9858, -0.12394585, -0.008863647, -1375776.9, 149046.88, 0.000007215262, 10.00137, 9.999119 
4.8503155e+2, 1.5440625e+2, -1319220.8, -1473650.8, -76145.29, -0.19110207, 0.1153871, -1287991.0, 138831.69, 0.00000059770906, 10.001103, 9.99909 
4.8502553e+2, 1.644061e+2, -1229495.6, -1319555.5, 1354.7268, -0.1325508, 0.17183593, -1229475.3, 99350.87, 0.0000000048834687, 10.000801, 9.999617 
4.8502162e+2, 1.7440473e+2, -1180209.3, -1239819.9, -2924.0383, -0.0041225613, 0.045240223, -1180066.1, 50771.973, 0.0, 10.000446, 9.9996605 
4.8501605e+2, 1.8440427e+2, -1164574.8, -1238212.8, -30447.217, 0.0076034726, 0.059532758, -1153616.5, -20773.848, 0.0, 10.000116, 9.999155 
4.8500872e+2, 1.944049e+2, -1123711.4, -1172115.8, -27562.78, -0.099030636, 0.18682024, -1111233.3, -76394.73, 0.0, 9.99974, 9.999121 
4.8500282e+2, 2.0440467e+2, -1022465.9, -991703.3, -18567.664, -0.06824441, 0.21953213, -982973.56, -46132.934, 0.0, 9.999416, 9.999847 
4.849986e+2, 2.1440308e+2, -966543.5, -906614.56, -38791.78, 0.13703603, 0.050418466, -887562.0, -48709.227, 0.0, 9.999095, 9.999912 
4.849934e+2, 2.2440226e+2, -898137.8, -871158.06, -14230.73, 0.21043347, 0.0022059123, -865039.5, -124179.65, 0.0, 9.999103, 9.999476 
4.8498687e+2, 2.3440231e+2, -741229.3, -750533.94, -6593.356, 0.12414418, 0.0405753, -737812.2, -94950.09, 0.0, 9.999522, 9.999433 
4.849808e+2, 2.4440256e+2, -638278.44, -591023.25, 12081.199, 0.07616405, 0.100950256, -588113.75, -43253.4, 0.0, 9.9993, 9.99996 
4.8497534e+2, 2.5440297e+2, -692792.7, -562341.2, -3634.9136, 0.0838487, 0.11882194, -562240.0, -115385.34, 0.0, 9.998237, 9.999995 
4.8496944e+2, 2.644025e+2, -604517.8, -516715.8, -16366.263, 0.06924159, 0.09374146, -513764.34, -164906.98, 0.0, 9.9983835, 9.999562 
4.8496282e+2, 2.7440056e+2, -258464.31, -304383.22, -11214.975, 0.024589373, -0.07172885, -255871.63, -4997.9443, 0.0, 10.000101, 9.999525 
4.849559e+2, 2.8439957e+2, -180892.97, -297039.72, -10686.224, -0.022357844, -0.0860971, -179917.95, -27034.094, 0.00000008825205, 10.000315, 9.998796 
4.849489e+2, 2.943998e+2, -326239.06, -308418.22, -5085.963, -0.029702622, 0.033297606, -307068.9, -252183.64, 0.0000056092463, 9.998601, 9.998871 
4.849436e+2, 3.0439875e+2, -246959.23, -120897.35, 157312.3, -0.07673998, -0.015496527, -14458.354, -14458.354, 0.000035389916, 9.998287, 9.999977 
4.8494077e+2, 3.143993e+2, 24249.984, 115264.85, -68333.74, -0.087449394, 0.023268921, 151857.52, 151857.52, 0.00010599746, 9.999655, 10.0009365 
4.950489e+2, 1.244119e+2, -1679798.0, -1709631.5, -185636.27, 0.019324835, -0.05186483, -1508480.1, 212282.06, 0.000079155536, 10.000259, 9.99988 
4.950455e+2, 1.3441204e+2, -1470532.4, -1581954.3, 186596.88, -0.026801342, -0.04663767, -1331507.4, 291253.13, 0.000026309019, 10.001096, 9.9997225 
4.9503937e+2, 1.444118e+2, -1407537.1, -1603556.0, -15982.297, -0.31615362, 0.008804485, -1406242.5, 118521.375, 0.0000047383246, 10.00133, 9.9987545 
4.9503252e+2, 1.5441054e+2, -1347604.3, -1530680.6, -77942.61, -0.22854528, -0.017955361, -1318916.4, 107863.09, 0.0000002991547, 10.0011, 9.998698 
4.950268e+2, 1.6440997e+2, -1244643.6, -1345848.3, -21513.646, -0.1068655, 0.02451038, -1240260.1, 88526.34, 0.0000000005507737, 10.000774, 9.999453 
4.9502233e+2, 1.744101e+2, -1191410.4, -1260599.3, -8586.694, 0.0021333615, 0.06593815, -1190360.6, 40423.426, 0.0, 10.000435, 9.999524 
4.9501675e+2, 1.8440929e+2, -1152297.5, -1199365.1, -52770.258, 0.04592807, 0.037545152, -1118051.3, 14739.302, 0.0, 10.000059, 9.99945 
4.950099e+2, 1.9440706e+2, -1107683.4, -1128435.6, -36794.855, 0.021169262, -0.15490888, -1079829.6, -45019.484, 0.0, 9.99969, 9.999448 
4.9500346e+2, 2.0440672e+2, -1054062.3, -1039122.1, -40713.266, 0.03834237, -0.13451357, -1005199.25, -68386.02, 0.0, 9.999333, 9.999567 
4.949976e+2, 2.1440865e+2, -1001636.44, -962418.75, -42389.676, 0.10685665, 0.080918185, -935322.25, -96525.3, 0.0, 9.99901, 9.9995775 
4.949916e+2, 2.2440864e+2, -893172.4, -834391.7, -6127.987, 0.10503925, 0.11691922, -833759.6, -92962.57, 0.0, 9.998997, 9.999776 
4.9498546e+2, 2.3440613e+2, -734222.44, -706470.44, 18235.574, 0.012923486, -0.13625857, -697431.8, -54613.023, 0.0, 9.999402, 9.99979 
4.9497926e+2, 2.4440561e+2, -657630.2, -616007.0, -32410.691, -0.029952735, -0.16497135, -598301.4, -53477.613, 0.0, 9.999237, 9.99982 
4.949729e+2, 2.5440747e+2, -715348.4, -592741.7, -35682.137, -0.008750372, 0.016311573, -583113.25, -136303.97, 0.0, 9.998166, 9.999822 
4.9496743e+2, 2.6440814e+2, -588088.06, -470523.16, 33286.29, 0.008193032, 0.10169378, -461753.0, -112949.164, 0.0, 9.998333, 9.999904 
4.9496287e+2, 2.744071e+2, -246542.2, -256087.48, 63967.16, -0.0047709215, -0.021241441, -187169.88, 63642.59, 0.0, 10.000006, 9.9999 
4.9495664e+2, 2.844067e+2, -153559.6, -226362.4, -73793.95, -0.0012258792, -0.019331617, -107677.29, 45139.004, 0.00000018947561, 10.000258, 9.999308 
4.9494877e+2, 2.9440725e+2, -298402.66, -238835.72, -56948.84, 0.068415, 0.08761849, -204352.36, -149539.4, 0.000005650319, 9.998556, 9.999368 
4.949437e+2, 3.044068e+2, -289858.4, -217053.78, 197032.13, 0.08052157, 0.10585637, -53089.46, -53089.46, 0.00003451672, 9.998302, 9.999314 
4.9493974e+2, 3.1440574e+2, -63920.51, -57966.07, 18582.717, -0.20347837, 0.044774998, -42123.586, -42123.586, 0.00010174547, 9.999607, 9.999767 
5.050509e+2, 1.2441832e+2, -1479280.6, -1675922.1, -192833.7, 0.115495816, -0.08774589, -1361148.6, 359549.9, 0.00006651573, 10.001937, 9.999294 
5.050454e+2, 1.3441882e+2, -1584950.0, -1710852.4, 147704.97, -0.105911896, 0.02125711, -1487340.9, 135356.69, 0.00001955312, 10.000634, 9.9990635 
5.050408e+2, 1.4441818e+2, -1560447.8, -1629049.0, -2812.4463, -0.23326302, 0.05445902, -1560332.8, -35628.027, 0.0000028130235, 10.000078, 9.999185 
5.050344e+2, 1.5441635e+2, -1371613.4, -1485297.8, -21034.924, -0.12885039, -0.07779033, -1367846.1, 58874.45, 0.00000011765629, 10.000702, 9.999199 
5.0502825e+2, 1.644156e+2, -1240477.5, -1375143.8, 66956.47, -0.04003965, -0.067929626, -1212853.1, 115874.15, 0.000000000026416515, 10.00093, 9.999177 
5.0502264e+2, 1.74416e+2, -1195574.1, -1302453.0, 47537.754, -0.009434075, 0.033211473, -1177490.1, 53234.23, 0.0, 10.000564, 9.99918 
5.050166e+2, 1.8441513e+2, -1123561.0, -1171528.0, 7103.3896, 0.025512464, 0.0138477925, -1122531.1, 10200.083, 0.0, 10.000205, 9.999571 
5.050102e+2, 1.9441253e+2, -1072287.6, -1094262.9, -4523.0376, 0.07451943, -0.225984, -1071393.0, -36640.855, 0.0, 9.999874, 9.999589 
5.050037e+2, 2.04412e+2, -971538.2, -1032312.5, 14917.935, 0.097221404, -0.21893516, -968073.8, -31316.496, 0.0, 10.000051, 9.999259 
5.0499725e+2, 2.1441396e+2, -778033.8, -891028.6, -8228.448, 0.09215032, 0.032256797, -777437.75, 61305.92, 0.0, 10.000721, 9.999233 
5.049908e+2, 2.244142e+2, -658847.25, -718298.5, 14811.831, 0.055363152, 0.1094599, -655361.4, 85381.62, 0.0, 10.000577, 9.999818 
5.049845e+2, 2.3441216e+2, -735857.25, -698192.0, 2877.6836, -0.014477307, -0.10094091, -697973.44, -55213.77, 0.0, 9.999348, 9.999874 
5.049783e+2, 2.4441159e+2, -727383.4, -672113.1, -38033.99, -0.024543043, -0.13248193, -652734.6, -107968.88, 0.0, 9.998862, 9.999613 
5.049722e+2, 2.544126e+2, -548482.4, -537840.2, -60144.152, 0.052584544, -0.012288844, -482782.2, -36021.605, 0.0, 9.999425, 9.999592 
5.049668e+2, 2.6441336e+2, -436984.9, -370602.47, 39788.06, 0.067806974, 0.08131638, -351979.13, -3223.7266, 0.0, 9.999253, 10.000151 
5.049617e+2, 2.744136e+2, -506945.06, -353701.84, 38379.223, -0.01467801, 0.060725216, -344627.28, -93874.66, 0.00000000061010413, 9.998095, 10.000154 
5.049557e+2, 2.8441364e+2, -441680.66, -331861.94, -105684.07, -0.009558586, 0.081974536, -267674.03, -114922.45, 0.00000027597625, 9.998135, 9.99961 
5.0494874e+2, 2.9441375e+2, -122119.58, -125875.12, -123937.56, 0.16023283, 0.11282111, -45.55752, 54705.254, 0.0000049916057, 9.999644, 9.999627 
5.049442e+2, 3.0441353e+2, -79067.48, -138688.17, 156971.73, 0.22728147, 0.1526395, 50899.46, 50899.46, 0.000030276777, 9.999875, 9.999093 
5.049384e+2, 3.1441152e+2, -238875.06, -150292.77, 1701.9181, -0.23156653, 0.026580842, -150260.08, -150260.08, 0.000090525835, 9.998441, 9.999709 
5.150506e+2, 1.2442622e+2, -1544639.4, -1818331.9, -279512.75, -0.15618405, 0.012832243, -1370271.4, 350353.5, 0.00005196835, 10.001963, 9.998303 
5.150458e+2, 1.3442594e+2, -1650323.8, -1860825.6, 108592.71, -0.1579171, 0.14309967, -1604346.0, 18289.496, 0.000013925394, 10.0006895, 9.998009 
5.150438e+2, 1.4442483e+2, -1472339.8, -1451256.3, 3457.0476, 0.027294906, 0.12811911, -1450703.9, 73941.79, 0.000001645238, 10.000096, 10.000399 
5.1503676e+2, 1.5442364e+2, -1274544.6, -1287374.1, 12955.796, 0.016864704, -0.073313214, -1266502.5, 160144.03, 0.00000003629146, 10.000714, 10.000554 
5.1502955e+2, 1.6442288e+2, -1280139.9, -1441543.0, 49242.445, -0.024456637, -0.11521368, -1266302.9, 62347.027, 0.0, 10.000869, 9.998744 
5.150223e+2, 1.7442241e+2, -1238883.0, -1384764.3, 43144.04, -0.12884572, -0.050786473, -1227078.5, 3580.145, 0.0, 10.00054, 9.99862 
5.150153e+2, 1.8442197e+2, -1130791.1, -1182757.6, -15013.246, -0.14385806, 0.0039087036, -1126765.5, 5897.5957, 0.0, 10.000183, 9.999503 
5.150092e+2, 1.944214e+2, -1077231.9, -1101688.3, -7648.408, -0.029411646, -0.03160352, -1075036.9, -40372.855, 0.0, 9.99985, 9.999553 
5.1500314e+2, 2.0442042e+2, -1019123.8, -1106004.1, 30528.2, 0.026401127, -0.046492577, -1009469.56, -72795.96, 0.0, 9.999945, 9.998802 
5.1499736e+2, 2.1441878e+2, -824686.06, -966516.7, 25461.91, 0.011050728, -0.11062346, -820253.56, 18441.506, 0.0, 10.000624, 9.998763 
5.149909e+2, 2.2441871e+2, -683754.6, -747344.5, -37300.92, -0.014182617, -0.030652659, -666536.56, 74163.02, 0.0, 10.00048, 9.999666 
5.1498365e+2, 2.3442055e+2, -758919.94, -723254.44, -36528.27, -0.052398913, 0.15724738, -700438.44, -57754.754, 0.0, 9.999253, 9.999746 
5.149776e+2, 2.4442062e+2, -752078.25, -712896.2, -28911.016, 0.0017689175, 0.21108611, -697563.6, -152878.81, 0.0, 9.998815, 9.999356 
5.1497304e+2, 2.5441837e+2, -577130.6, -579144.75, -27608.082, 0.16864353, 0.030588225, -550511.25, -103802.875, 0.0, 9.999345, 9.999347 
5.149671e+2, 2.6441815e+2, -438625.63, -362937.47, -7946.752, 0.15994017, 0.032581966, -362112.13, -13400.033, 0.0, 9.99921, 10.000225 
5.149593e+2, 2.7442002e+2, -510706.78, -343991.88, 5704.8477, -0.09153266, 0.17382543, -343796.88, -93102.305, 0.0000000018853024, 9.998022, 10.000256 
5.149528e+2, 2.8442043e+2, -441911.84, -323221.8, -62646.52, -0.13559386, 0.22202255, -296274.22, -143584.3, 0.00000034894228, 9.9980955, 9.999687 
5.1494825e+2, 2.944193e+2, -127204.516, -125796.21, -55463.375, 0.12372443, 0.11047989, -71032.52, -16333.265, 0.000004315403, 9.999597, 9.999647 
5.149446e+2, 3.044188e+2, -70546.85, -115243.74, 103999.37, 0.26495838, 0.12036406, 13478.2, 13478.2, 0.000026122347, 9.99986, 9.999263 
5.149364e+2, 3.144165e+2, -185812.58, -3718.8792, 3881.2605, -0.32250625, -0.053552147, -3636.189, -3636.189, 0.00008115159, 9.998304, 10.000776 
5.250519e+2, 1.24434434e+2, -1772258.5, -1947606.4, -234789.9, -0.13900754, 0.14790261, -1609307.3, 111240.58, 0.000041741798, 10.000469, 9.998136 
5.250469e+2, 1.3443251e+2, -1431039.1, -1763406.9, 166348.98, -0.19098614, 0.12253719, -1362086.8, 260484.84, 0.000010470756, 10.002225, 9.997935 
5.250468e+2, 1.4443098e+2, -1136543.3, -1316970.9, 57616.227, 0.20088372, 0.07928043, -1119714.3, 404871.53, 0.0000009776196, 10.002522, 10.000149 
5.2503824e+2, 1.5443093e+2, -1198835.8, -1280055.8, -74003.22, 0.073831156, 0.015606412, -1155032.1, 271546.38, 0.000000005050013, 10.001354, 10.000295 
5.250303e+2, 1.644305e+2, -1298554.8, -1409178.5, -56528.258, -0.012604153, 0.0026757831, -1274779.1, 53799.66, 0.0, 10.000559, 9.999125 
5.250232e+2, 1.7442937e+2, -1254078.9, -1346069.1, -10925.61, -0.06856099, -0.03738375, -1252799.1, -22208.723, 0.0, 10.00023, 9.9990425 
5.2501607e+2, 1.8442874e+2, -1138908.3, -1207193.8, -7963.9556, -0.08616821, -0.012988627, -1137991.8, -5396.484, 0.0, 10.000217, 9.999324 
5.250092e+2, 1.9442858e+2, -1000806.7, -1084530.8, -34169.246, -0.042941254, 0.014873914, -988632.0, 45961.17, 0.0, 10.000474, 9.999367 
5.250027e+2, 2.0442739e+2, -1003652.75, -1108119.1, 19895.434, -0.014148347, -0.005023915, -999992.0, -63387.2, 0.0, 10.000084, 9.998723 
5.2499694e+2, 2.1442483e+2, -1085478.3, -1097901.9, 29460.174, 0.0028811237, -0.15395987, -1061582.1, -222947.28, 0.0, 9.998857, 9.99871 
5.249906e+2, 2.2442478e+2, -940418.5, -872912.5, 14250.091, 0.0034859867, -0.071635514, -870027.7, -129387.984, 0.0, 9.9987335, 9.999641 
5.249836e+2, 2.344276e+2, -657665.56, -680325.1, 5071.8105, -0.015054652, 0.2209964, -656582.2, -13966.46, 0.0, 9.999974, 9.999697 
5.249773e+2, 2.4442789e+2, -581213.9, -651209.75, 17853.11, 0.038147014, 0.30694914, -576923.3, -32308.082, 0.0, 10.0000725, 9.999176 
5.2497214e+2, 2.544249e+2, -676640.3, -649444.3, 4464.8975, 0.18144995, 0.07020109, -648730.06, -202085.02, 0.0, 9.9987545, 9.999151 
5.249659e+2, 2.6442406e+2, -597723.3, -467442.06, 34904.24, 0.16888131, 0.033962183, -458680.0, -110025.63, 0.0, 9.998244, 9.999967 
5.249581e+2, 2.7442557e+2, -420926.8, -325968.38, 6532.4116, -0.047757626, 0.16590132, -325521.1, -74880.25, 0.00000000009174081, 9.998764, 10.000013 
5.249514e+2, 2.8442582e+2, -294859.53, -244332.94, -17183.082, -0.12102262, 0.2043648, -239043.13, -86405.15, 0.00000033351301, 9.999073, 9.999753 
5.249466e+2, 2.9442453e+2, -203967.67, -160129.44, -33457.523, 0.029343974, 0.07234201, -142050.39, -87402.484, 0.0000041082662, 9.99905, 9.999676 
5.249433e+2, 3.0442393e+2, -242942.31, -195461.16, 74501.3, 0.21233994, 0.06847293, -141009.28, -141009.28, 0.000024723933, 9.998656, 9.999292 
5.2493525e+2, 3.1442267e+2, -233105.75, 31576.674, -52030.727, -0.22558074, -0.006221641, 41437.406, 41437.406, 0.000077842684, 9.99771, 10.001312 
5.35054e+2, 1.244427e+2, -1707792.3, -1830967.8, -158858.7, -0.03338909, 0.2946412, -1599000.6, 121468.93, 0.000035627574, 10.000551, 9.998894 
5.3504825e+2, 1.3443857e+2, -1369961.6, -1632868.3, 233841.1, -0.29704642, -0.03844591, -1233158.4, 389347.7, 0.000008273398, 10.00221, 9.998842 
5.350493e+2, 1.4443664e+2, -1262251.4, -1568493.4, 10793.52, 0.17806104, -0.08730118, -1261871.4, 262653.9, 0.00000061502607, 10.002481, 9.998439 
5.350387e+2, 1.544382e+2, -1330803.0, -1555739.5, -107646.02, -0.042154685, 0.19252008, -1287589.6, 138926.8, 0.00000000036285042, 10.001357, 9.998401 
5.350304e+2, 1.6443841e+2, -1220733.4, -1241430.6, -80939.35, -0.08426571, 0.28852928, -1149483.8, 179030.05, 0.0, 10.000533, 10.00029 
5.3502524e+2, 1.7443684e+2, -1158594.9, -1150280.5, -13485.192, 0.09419655, 0.07259005, -1140326.3, 90193.58, 0.0, 10.0002365, 10.000388 
5.3501844e+2, 1.8443541e+2, -1166227.3, -1255501.3, -6667.0757, 0.11067386, -0.04128515, -1165732.0, -33204.0, 0.0, 10.000182, 9.999006 
5.350097e+2, 1.9443394e+2, -1040686.4, -1157973.1, -13991.537, -0.056560986, -0.10080421, -1039040.4, -4499.7827, 0.0, 10.000427, 9.998889 
5.35002e+2, 2.0443293e+2, -991359.56, -1062846.6, -31597.99, -0.11257085, -0.096137956, -979395.3, -42843.92, 0.0, 10.000001, 9.999071 
5.349958e+2, 2.1443233e+2, -1071075.4, -1048476.7, -9109.523, -0.019596694, -0.08865101, -1045261.94, -206700.8, 0.0, 9.998767, 9.999093 
5.349898e+2, 2.2443247e+2, -951724.1, -874340.4, 47542.81, 0.025208795, -0.009370662, -851734.8, -111172.06, 0.0, 9.998638, 9.999678 
5.34984e+2, 2.3443332e+2, -669693.75, -683189.3, 60111.93, 0.010186664, 0.08102267, -615952.06, 26603.967, 0.0, 9.999881, 9.999721 
5.349773e+2, 2.4443327e+2, -600961.7, -678512.2, -33505.99, 0.004907359, 0.14153373, -588490.75, -43932.773, 0.0, 10.000017, 9.999015 
5.349694e+2, 2.54432e+2, -698448.7, -680898.0, -35394.54, 0.0040411237, 0.094996095, -653207.2, -206635.34, 0.0, 9.998694, 9.998964 
5.349627e+2, 2.64431e+2, -640793.2, -548594.44, 43626.137, 0.009320787, 0.08192716, -531224.2, -182641.44, 0.0, 9.998207, 9.999427 
5.3495765e+2, 2.744302e+2, -468828.03, -411669.22, 38781.375, 0.0113768075, 0.029974578, -392074.2, -141482.1, 0.0, 9.9987, 9.999457 
5.349513e+2, 2.844297e+2, -298005.9, -243920.9, -23378.908, -0.058055997, 0.021735689, -235216.1, -82619.38, 0.00000019037492, 9.999047, 9.999767 
5.349436e+2, 2.9442945e+2, -213349.27, -158721.9, -22160.91, -0.20254871, -0.0047262837, -150862.55, -96265.67, 0.0000040138116, 9.998964, 9.999725 
5.349399e+2, 3.044289e+2, -258564.78, -226437.17, 38562.023, -0.01631286, 0.0033373693, -200726.88, -200726.88, 0.000024880646, 9.998635, 9.999093 
5.349343e+2, 3.1442982e+2, -230033.5, 33798.73, -25536.164, -0.14532949, 0.16066639, 36247.63, 36247.63, 0.000077454766, 9.997712, 10.001328 
5.450562e+2, 1.2444825e+2, -1464307.3, -1658241.5, -55940.14, 0.06679587, 0.15773615, -1449328.4, 271084.1, 0.000030309948, 10.001991, 9.999407 
5.450491e+2, 1.3444537e+2, -1537300.5, -1645419.4, 205056.28, -0.35269523, -0.10176732, -1379297.4, 243136.28, 0.000006366235, 10.000775, 9.999453 
5.45051e+2, 1.4444402e+2, -1641739.6, -1805861.5, 24156.324, 0.22074741, -0.103799336, -1638258.0, -113809.73, 0.00000037085837, 10.000104, 9.997965 
5.450394e+2, 1.544451e+2, -1464334.6, -1676640.4, -17149.242, -0.06530537, 0.18082924, -1462958.3, -36509.51, 0.00000000007720086, 10.000687, 9.997894 
5.450308e+2, 1.6444495e+2, -1164232.6, -1222760.8, 42373.676, -0.11226348, 0.2719096, -1142000.0, 186451.5, 0.0, 10.000972, 10.000197 
5.450263e+2, 1.7444317e+2, -1084184.3, -1119059.3, -14126.16, 0.15014003, 0.04314426, -1079180.4, 151277.23, 0.0, 10.000784, 10.000332 
5.450195e+2, 1.8444173e+2, -1120574.4, -1223831.5, -26944.152, 0.19131553, -0.07425342, -1113966.5, 18499.135, 0.0, 10.000438, 9.999109 
5.4501015e+2, 1.9444051e+2, -1100708.1, -1170815.3, -9829.147, -0.029649202, -0.12216217, -1099356.1, -64879.17, 0.0, 9.999937, 9.999039 
5.4500204e+2, 2.0443997e+2, -1018094.2, -1062293.4, -8227.445, -0.099042736, -0.08407077, -1016612.4, -80129.195, 0.0, 9.999763, 9.999194 
5.449956e+2, 2.1444003e+2, -896219.7, -947995.3, -21313.094, 0.032932453, -0.020043435, -888575.0, -50089.965, 0.0, 9.999904, 9.999236 
5.449895e+2, 2.2443971e+2, -802054.1, -833433.9, 62783.613, 0.08083434, 0.018991042, -753029.6, -12539.739, 0.0, 9.9998, 9.9994 
5.4498374e+2, 2.344387e+2, -762593.44, -764282.4, 34815.656, 0.027333234, -0.043382302, -728612.0, -86111.76, 0.0, 9.999399, 9.999399 
5.449769e+2, 2.4443823e+2, -700266.56, -713303.94, -81471.75, -0.00002713874, -0.01445947, -625053.1, -80547.46, 0.0, 9.999276, 9.999134 
5.4496837e+2, 2.5443828e+2, -571645.06, -602236.94, -81406.1, 0.0007865248, 0.05595325, -504110.34, -57604.047, 0.0, 9.999496, 9.999116 
5.4496163e+2, 2.644376e+2, -494592.22, -524401.5, 53480.453, 0.020413272, 0.08353598, -453978.34, -105463.49, 0.0, 9.999411, 9.999013 
5.4495704e+2, 2.744357e+2, -456611.38, -455440.38, 41248.766, 0.07170381, -0.028278653, -414772.97, -164237.34, 0.0, 9.99899, 9.999022 
5.449507e+2, 2.8443506e+2, -353200.94, -298202.94, -10563.5625, -0.006272458, -0.015761849, -296243.78, -143700.61, 0.00000011177434, 9.998795, 9.999518 
5.449422e+2, 2.9443577e+2, -231231.34, -187403.55, -48967.277, -0.22713228, 0.07399641, -155670.33, -101134.23, 0.0000045059896, 9.998947, 9.999531 
5.449381e+2, 3.0443472e+2, -253008.86, -222275.1, -5624.256, -0.05054645, 0.04500388, -221278.19, -221278.19, 0.000026381855, 9.998679, 9.999091 
5.44933e+2, 3.1443563e+2, -263455.16, -2741.5513, -69174.94, -0.024129482, 0.20178255, 14475.586, 14475.586, 0.00007890932, 9.997593, 10.001122 
5.550577e+2, 1.2445139e+2, -1435466.1, -1599776.9, -44481.203, -0.027787318, -0.21598226, -1424197.3, 296176.28, 0.000026661139, 10.00201, 9.999791 
5.550492e+2, 1.3445298e+2, -1518739.5, -1602711.1, 157751.27, -0.43925595, -0.060431223, -1397482.3, 224872.22, 0.0000052899522, 10.000768, 9.999746 
5.550516e+2, 1.4445302e+2, -1583477.9, -1689253.1, 27885.645, 0.24711512, 0.025178958, -1576576.6, -52221.48, 0.00000021782215, 10.000116, 9.998761 
5.550402e+2, 1.5445153e+2, -1402965.4, -1556945.5, 16740.844, -0.0849641, -0.024084093, -1401166.4, 25209.64, 0.00000000000011946363, 10.000709, 9.998713 
5.550312e+2, 1.6445008e+2, -1261021.0, -1418205.9, 28984.908, -0.19262318, -0.04627595, -1255846.5, 72545.336, 0.0, 10.000955, 9.99886 
5.5502594e+2, 1.7444834e+2, -1191735.3, -1336923.0, -12222.243, 0.01862799, -0.1270797, -1190713.6, 39690.63, 0.0, 10.000761, 9.998847 
5.55019e+2, 1.844477e+2, -1087755.9, -1142159.4, -53009.383, 0.082637034, -0.11035838, -1055376.4, 77031.34, 0.0, 10.00038, 9.9997 
5.5501014e+2, 1.9444829e+2, -1059375.1, -1076876.4, -19822.729, -0.04047563, -0.047279134, -1046457.44, -12055.548, 0.0, 9.999894, 9.999711 
5.5500233e+2, 2.0444843e+2, -1032665.6, -1073268.8, -10976.823, -0.057388045, 0.027226698, -1029888.06, -93487.23, 0.0, 9.999683, 9.999153 
5.54996e+2, 2.1444784e+2, -918763.9, -972302.25, -6235.895, 0.07062365, 0.035479896, -918047.1, -79639.66, 0.0, 9.999803, 9.99912 
5.549895e+2, 2.244464e+2, -864027.75, -934113.4, 41399.652, 0.08754363, -0.001030663, -844831.0, -104408.69, 0.0, 9.999684, 9.998762 
5.549826e+2, 2.3444377e+2, -825866.94, -869189.06, 30445.81, -0.0431417, -0.1584408, -810162.94, -167714.67, 0.0, 9.999287, 9.998732 
5.5497575e+2, 2.4444282e+2, -685136.44, -666182.1, -80497.83, -0.05743628, -0.15912522, -594605.5, -50147.79, 0.0, 9.999205, 9.9994955 
5.5496883e+2, 2.5444373e+2, -552897.06, -544942.75, -63184.813, 0.07771367, -0.043994587, -485610.03, -39161.547, 0.0, 9.999416, 9.999549 
5.549623e+2, 2.6444367e+2, -519059.13, -567609.75, 31142.79, 0.12705292, 0.03324797, -503848.2, -155396.63, 0.0, 9.99938, 9.99873 
5.549561e+2, 2.744421e+2, -491755.38, -513437.63, 34425.668, 0.052177045, -0.009020434, -466504.16, -216032.4, 0.0, 9.998927, 9.998652 
5.549494e+2, 2.8444195e+2, -392835.44, -376803.53, -14692.063, -0.041036185, 0.09810953, -368082.94, -215605.48, 0.00000024371042, 9.998774, 9.998992 
5.549422e+2, 2.944433e+2, -271764.38, -264174.03, -31254.367, -0.15049256, 0.30285612, -236485.27, -182018.14, 0.0000058589785, 9.998908, 9.999026 
5.549376e+2, 3.0444127e+2, -245980.02, -204443.3, -47861.152, 0.0149798, 0.19529587, -173038.72, -173038.72, 0.000029984647, 9.998665, 9.99922 
5.54931e+2, 3.144397e+2, -305603.16, -77578.305, -68435.33, -0.033873588, 0.089972176, -58616.19, -58616.19, 0.00008416486, 9.997529, 10.000643 
5.6506073e+2, 1.24458574e+2, -1279582.1, -1555968.8, 72700.484, 0.030844372, -0.2648404, -1261625.6, 458674.53, 0.000022362587, 10.003196, 9.999516 
5.6504977e+2, 1.3446064e+2, -1541001.9, -1651333.0, 85392.305, -0.44823465, -0.033228092, -1494505.9, 127772.84, 0.000004259607, 10.000759, 9.999413 
5.650516e+2, 1.4446078e+2, -1608345.4, -1647673.9, 42051.49, 0.26249495, 0.05797836, -1581587.5, -57309.43, 0.00000013010742, 9.99972, 9.999237 
5.65041e+2, 1.5445897e+2, -1340635.4, -1461732.6, -3178.2405, -0.07141049, -0.07867151, -1340552.0, 85746.45, 0.0, 10.000869, 9.999285 
5.6503206e+2, 1.6445732e+2, -1264881.3, -1479740.6, 1246.6531, -0.20641133, -0.12334986, -1264874.0, 63441.332, 0.0, 10.001169, 9.998346 
5.6502587e+2, 1.7445561e+2, -1279040.9, -1439739.5, 7113.036, -0.03709544, -0.14686048, -1278726.6, -48395.766, 0.0, 10.000417, 9.998308 
5.6501883e+2, 1.8445495e+2, -1139061.1, -1192859.3, 4848.044, 0.04096577, -0.095213786, -1138627.8, -6290.974, 0.0, 10.000145, 9.999458 
5.650106e+2, 1.9445543e+2, -999468.6, -1066030.0, -42357.836, -0.0037580817, -0.021992762, -978881.0, 55451.23, 0.0, 10.000396, 9.999533 
5.6500286e+2, 2.0445533e+2, -927325.9, -1033824.0, -50919.707, -0.00815978, 0.0413008, -906898.06, 29435.322, 0.0, 10.000455, 9.999053 
5.649959e+2, 2.1445437e+2, -862817.25, -951502.56, -63407.75, 0.061962556, 0.018809346, -829785.44, 8557.578, 0.0, 10.000223, 9.999054 
5.649891e+2, 2.2445293e+2, -818865.75, -908578.25, 17824.14, 0.0651564, -0.013855001, -815454.2, -75096.97, 0.0, 9.999971, 9.9988 
5.6498235e+2, 2.3445082e+2, -768552.44, -831667.4, 45882.27, -0.010286488, -0.12700783, -744422.8, -102044.37, 0.0, 9.999639, 9.998814 
5.6497556e+2, 2.4444985e+2, -647091.3, -654674.56, -14932.337, -0.004951239, -0.12881891, -635476.75, -91088.875, 0.0, 9.999523, 9.999405 
5.649687e+2, 2.5445005e+2, -511744.8, -539370.8, -56392.8, 0.11145832, -0.076132976, -467497.94, -21112.398, 0.0, 9.99977, 9.999413 
5.649619e+2, 2.6444978e+2, -473170.3, -562163.9, 18948.236, 0.14040719, -0.0030639947, -469303.9, -120912.94, 0.0, 9.999767, 9.998579 
5.649551e+2, 2.744488e+2, -423217.63, -491663.75, 17247.88, 0.050174236, 0.026195232, -419116.97, -168710.45, 0.0, 9.999457, 9.998538 
5.649484e+2, 2.844486e+2, -356970.84, -361921.9, 21832.656, -0.029952994, 0.13569547, -337473.8, -185061.0, 0.00000046127252, 9.999015, 9.998982 
5.649416e+2, 2.944492e+2, -338458.53, -299494.16, 30248.115, -0.073349945, 0.2663766, -282997.13, -228588.27, 0.000007820285, 9.998446, 9.999015 
5.649365e+2, 3.0444735e+2, -301796.94, -202150.47, 45332.72, 0.06910233, 0.16094932, -184613.4, -184613.4, 0.00003595913, 9.998158, 9.999478 
5.649289e+2, 3.1444636e+2, -249181.3, -58060.14, 2842.1863, -0.007265347, 0.085065596, -58017.887, -58017.887, 0.000094486146, 9.997962, 10.000562 
5.750649e+2, 1.24469526e+2, -1339116.8, -1683212.9, 51067.277, 0.07972278, -0.016346667, -1331697.9, 388496.8, 0.000015098279, 10.003214, 9.998626 
5.7505035e+2, 1.3446829e+2, -1606770.4, -1790038.4, -9722.774, -0.4846338, -0.023018362, -1606256.1, 15951.006, 0.0000026568694, 10.000766, 9.998454 
5.750507e+2, 1.4446734e+2, -1597125.5, -1621088.3, 62598.703, 0.17704391, 0.0007008029, -1545371.9, -21155.207, 0.000000050157187, 9.999711, 9.999423 
5.750418e+2, 1.5446728e+2, -1326474.1, -1428052.4, 49578.16, -0.106864914, 0.015855942, -1306287.6, 119929.35, 0.0, 10.0008545, 9.999525 
5.750331e+2, 1.644666e+2, -1238787.6, -1421495.0, -35094.67, -0.23317325, 0.03503625, -1232278.4, 95944.67, 0.0, 10.001145, 9.998757 
5.7502586e+2, 1.7446496e+2, -1253811.4, -1386325.9, -13406.1045, -0.103418216, -0.022998925, -1252468.8, -22230.516, 0.0, 10.000405, 9.998683 
5.7501864e+2, 1.8446346e+2, -1213273.3, -1336452.3, 5835.3237, -0.019779265, -0.027294854, -1212997.4, -80744.78, 0.0, 10.000107, 9.998488 
5.750112e+2, 1.9446194e+2, -1083800.0, -1224897.0, -23150.818, -0.008127558, -0.04596499, -1080098.5, -45830.35, 0.0, 10.000329, 9.998475 
5.7500327e+2, 2.0446067e+2, -952387.94, -1061334.4, -67851.516, -0.0266615, -0.038170792, -919848.75, 16432.209, 0.0, 10.000349, 9.998914 
5.749949e+2, 2.1445954e+2, -887257.6, -975789.25, -64056.457, -0.08022814, -0.06771405, -853660.1, -15368.356, 0.0, 10.000109, 9.998942 
5.749879e+2, 2.2445926e+2, -773626.25, -792927.06, -2662.0176, -0.06580061, -0.018866628, -773265.8, -32970.91, 0.0, 9.999875, 9.9996395 
5.7498264e+2, 2.3445989e+2, -722158.2, -712018.56, 43224.832, 0.033697926, 0.05515313, -673567.25, -31276.973, 0.0, 9.999536, 9.999685 
5.749761e+2, 2.444593e+2, -694165.4, -748608.94, -15413.247, 0.069108844, 0.074829, -690104.7, -145807.95, 0.0, 9.999494, 9.998781 
5.749678e+2, 2.544571e+2, -570083.5, -646345.25, -37225.336, 0.017857544, -0.04199889, -554925.6, -108607.16, 0.0, 9.999704, 9.998712 
5.749604e+2, 2.6445585e+2, -472334.16, -560972.25, 211.44199, -0.013991056, -0.027088635, -472333.63, -124000.44, 0.0, 9.999757, 9.998597 
5.74954e+2, 2.744557e+2, -422690.4, -485815.03, 11801.445, -0.03444314, 0.07259717, -420556.22, -170215.16, 0.0, 9.99942, 9.998604 
5.749472e+2, 2.84455e+2, -322464.44, -277726.16, -9150.824, -0.065123074, 0.09795125, -275926.78, -123576.81, 0.0000006054728, 9.998964, 9.999585 
5.749401e+2, 2.944535e+2, -304818.13, -213388.97, 22264.88, -0.09637684, -0.039693102, -208255.27, -153894.03, 0.000009307056, 9.998384, 9.999632 
5.749345e+2, 3.0445293e+2, -278219.16, -156262.2, 35270.254, 0.031228062, -0.06162348, -146796.63, -146796.63, 0.000040671366, 9.9981575, 9.9998045 
5.749263e+2, 3.1445524e+2, -231708.64, -21519.313, 20017.148, -0.11126558, 0.15873136, -19629.984, -19629.984, 0.000103750725, 9.997941, 10.000834 
5.850679e+2, 1.2447838e+2, -1516374.8, -1800816.3, 74440.055, 0.12838055, 0.07544233, -1498071.1, 222037.52, 0.000008007214, 10.002108, 9.998364 
5.8505225e+2, 1.3447572e+2, -1405760.5, -1723273.6, -62794.758, -0.44330883, -0.041594084, -1393792.8, 228341.13, 0.0000012151539, 10.002274, 9.99819 
5.850511e+2, 1.4447401e+2, -1353382.4, -1535262.1, 84306.73, 0.16337071, -0.06406267, -1320315.4, 203834.55, 0.000000012980553, 10.001529, 9.9991255 
5.850428e+2, 1.5447412e+2, -1446305.5, -1519126.4, 12596.485, -0.04802518, -0.0068705343, -1444188.1, -18039.238, 0.0, 10.000173, 9.999218 
5.850344e+2, 1.6447362e+2, -1422309.3, -1510555.8, -78444.61, -0.15578112, 0.04592426, -1376430.1, -48276.383, 0.0, 9.999892, 9.998746 
5.8502686e+2, 1.7447221e+2, -1168481.5, -1339882.9, -102438.55, -0.06920338, 0.011411642, -1120622.3, 109545.375, 0.0, 10.000972, 9.998723 
5.850193e+2, 1.8447058e+2, -1063043.8, -1285753.6, -69231.836, -0.013582832, -0.0012028329, -1043276.75, 88906.82, 0.0, 10.00123, 9.9983 
5.8501154e+2, 1.9446844e+2, -1084915.8, -1248018.3, -53318.95, -0.00501236, -0.061533518, -1069032.3, -34828.16, 0.0, 10.000416, 9.998279 
5.850036e+2, 2.0446675e+2, -988360.4, -1061793.6, -25253.941, -0.010377429, -0.09339586, -980513.9, -44294.098, 0.0, 10.000023, 9.999069 
5.8499557e+2, 2.1446544e+2, -865107.06, -946351.56, -14094.04, -0.024222448, -0.15936865, -862731.56, -24500.52, 0.0, 10.00017, 9.999121 
5.8498836e+2, 2.2446552e+2, -768137.2, -778829.8, 29799.26, -0.0056401594, -0.08899644, -743208.44, -2977.4822, 0.0, 9.999878, 9.999737 
5.8498204e+2, 2.3446707e+2, -784670.0, -736338.6, -6220.032, 0.05240131, 0.07106804, -735550.94, -93331.53, 0.0, 9.999078, 9.999747 
5.849751e+2, 2.444669e+2, -760228.6, -759595.3, -10279.015, 0.057744667, 0.12054253, -749628.06, -205405.55, 0.0, 9.998941, 9.998972 
5.849672e+2, 2.5446454e+2, -544536.06, -610297.3, 22925.904, -0.0040297164, -0.032323696, -537332.6, -91088.086, 0.0, 9.999771, 9.998924 
5.8496e+2, 2.6446325e+2, -483970.94, -554137.06, 70688.17, -0.023184033, -0.038522772, -440138.63, -91879.42, 0.0, 9.999639, 9.998695 
5.849533e+2, 2.7446315e+2, -561319.2, -543790.4, 65194.758, 0.009040435, 0.059474576, -486773.53, -236506.92, 0.0, 9.998442, 9.998674 
5.849461e+2, 2.8446263e+2, -435522.84, -277843.34, 80948.07, -0.0160718, 0.07855368, -243686.22, -91413.52, 0.00000055145284, 9.997962, 10.000061 
5.849384e+2, 2.9446158e+2, -289708.06, -153189.61, 83793.95, -0.08667228, -0.06480179, -113371.33, -59093.72, 0.000008783807, 9.998267, 10.000097 
5.849328e+2, 3.0446115e+2, -301230.84, -175257.94, 80516.62, 0.056433514, -0.09198038, -136018.08, -136018.08, 0.000039667964, 9.998034, 9.9997225 
5.8492476e+2, 3.1446284e+2, -353731.9, -77758.99, 1711.7241, -0.013994778, 0.071087, -77748.38, -77748.38, 0.00010388018, 9.997095, 10.00084 
5.9506977e+2, 1.2448499e+2, -1472037.9, -1712210.0, 131486.27, 0.04686657, 0.012269889, -1414052.9, 305990.5, 0.0000033726953, 10.002141, 9.99895 
5.9505504e+2, 1.3448294e+2, -1376649.1, -1660100.1, -58442.844, -0.4062192, -0.090599336, -1365072.1, 256986.77, 0.00000044999516, 10.002272, 9.998623 
5.9505254e+2, 1.4448084e+2, -1408387.3, -1644922.3, 22057.326, 0.12277755, -0.1417699, -1406348.0, 117730.09, 0.000000014541682, 10.001509, 9.99838 
5.950438e+2, 1.5447952e+2, -1507720.3, -1645251.9, -31336.154, 0.009191627, -0.14290534, -1500916.9, -74823.26, 0.0, 10.000166, 9.998357 
5.9503543e+2, 1.6447848e+2, -1454367.1, -1568640.9, -52182.83, -0.057225198, -0.07803954, -1434124.0, -106017.664, 0.0, 9.999861, 9.998362 
5.950286e+2, 1.7447749e+2, -1194738.5, -1389418.8, -52111.254, -0.017310442, -0.035715025, -1181667.3, 48450.996, 0.0, 10.000955, 9.998391 
5.950206e+2, 1.8447633e+2, -1025213.0, -1201059.6, -105724.12, -0.02539266, -0.011666007, -975629.56, 156499.92, 0.0, 10.001201, 9.998897 
5.9501123e+2, 1.9447483e+2, -1049826.8, -1160171.9, -75983.516, -0.093314, -0.073632136, -1011097.75, 23043.258, 0.0, 10.000352, 9.998913 
5.950035e+2, 2.0447351e+2, -962558.0, -989138.25, -29965.81, -0.045832075, -0.12823805, -943067.4, -6916.7163, 0.0, 9.99994, 9.999609 
5.9499764e+2, 2.1447216e+2, -842970.56, -876766.6, 1370.4242, 0.14838505, -0.24959682, -842915.06, -4755.054, 0.0, 10.00007, 9.999648 
5.9499013e+2, 2.2447176e+2, -828019.25, -888547.1, -7885.9175, 0.16398741, -0.21981966, -827008.7, -86843.94, 0.0, 9.999807, 9.999022 
5.9498036e+2, 2.3447233e+2, -855833.25, -860019.3, -27874.56, -0.045094155, -0.08032956, -829973.25, -187807.06, 0.0, 9.99897, 9.998954 
5.9497243e+2, 2.444726e+2, -692145.06, -610992.8, 9807.136, -0.12819254, 0.0049203425, -609824.5, -65658.805, 0.0, 9.998901, 10.000016 
5.949667e+2, 2.544724e+2, -472929.84, -446187.06, 61499.58, -0.049890313, -0.045153655, -396622.03, 49541.63, 0.0, 9.999701, 10.000088 
5.9496033e+2, 2.6447204e+2, -478036.84, -532256.4, 20658.082, 0.031113887, -0.031673886, -471062.97, -122894.71, 0.0, 9.9996, 9.998864 
5.949528e+2, 2.744712e+2, -564019.7, -534562.2, 31332.61, 0.09015185, -0.017072564, -514669.16, -264485.97, 0.0, 9.998378, 9.998771 
5.949448e+2, 2.844716e+2, -419494.44, -234974.33, 81699.33, 0.030526835, 0.07341051, -204000.06, -51819.207, 0.0000003359344, 9.997922, 10.000372 
5.949363e+2, 2.9447338e+2, -277272.56, -109845.625, 103678.516, -0.14418574, 0.182691, -60303.027, -6144.681, 0.000006914508, 9.998197, 10.000424 
5.9493107e+2, 3.0447194e+2, -344474.16, -256513.55, 41286.0, 0.06250982, 0.061907653, -240171.38, -240171.38, 0.000035638073, 9.997994, 9.999187 
5.949235e+2, 3.1446922e+2, -384129.0, -119822.016, -3220.69, 0.104850985, -0.1594922, -119782.77, -119782.77, 0.00009897654, 9.997006, 10.000595 
6.050724e+2, 1.244912e+2, -1427489.8, -1655470.9, 165063.45, 0.09685128, -0.05664699, -1340881.8, 379100.2, 0.0000011578151, 10.002282, 9.999285 
6.050582e+2, 1.3449022e+2, -1514225.1, -1674908.9, -124543.41, -0.25775108, -0.0916242, -1446358.1, 175628.3, 0.00000014603442, 10.001127, 9.999061 
6.050536e+2, 1.4448841e+2, -1558629.1, -1731026.8, 6262.642, 0.13195929, -0.13077463, -1558401.9, -34398.97, 0.0000000031309833, 10.000529, 9.998273 
6.0504484e+2, 1.5448672e+2, -1386669.3, -1600440.9, -16853.805, 0.060073465, -0.15355611, -1385348.6, 40674.207, 0.0, 10.001055, 9.998244 
6.050365e+2, 1.6448548e+2, -1281671.1, -1476461.0, 47125.715, 0.005573618, -0.10542266, -1270869.0, 57168.355, 0.0, 10.000993, 9.998455 
6.0502934e+2, 1.7448461e+2, -1304604.6, -1433557.0, 65190.71, 0.012357922, -0.063311175, -1277391.0, -47343.332, 0.0, 10.000151, 9.998483 
6.050213e+2, 1.844836e+2, -1202126.0, -1256533.9, 20834.947, -0.0023215956, -0.04128977, -1195064.1, -63007.023, 0.0, 9.999864, 9.999157 
6.0501194e+2, 1.9448228e+2, -1042028.94, -1125502.5, 5014.1475, -0.04734751, -0.111922726, -1041728.9, -7662.29, 0.0, 10.00027, 9.99919 
6.050038e+2, 2.0448133e+2, -904670.9, -976609.44, 36270.094, -0.021973247, -0.13575986, -889558.75, 46514.367, 0.0, 10.000406, 9.9994755 
6.0499716e+2, 2.144806e+2, -843787.3, -894968.4, -1481.8745, 0.09570934, -0.17871778, -843744.44, -5666.1875, 0.0, 10.000137, 9.999493 
6.0498923e+2, 2.2447994e+2, -798531.25, -881327.4, -6926.239, 0.09753063, -0.16291164, -797955.8, -57870.176, 0.0, 10.000043, 9.998952 
6.049799e+2, 2.3447925e+2, -679579.06, -775704.0, 10195.276, -0.044088695, -0.14665209, -678509.6, -36412.1, 0.0, 10.0001955, 9.998931 
6.0497206e+2, 2.4447933e+2, -525477.44, -496669.16, 81625.89, -0.10174184, -0.09237199, -428186.25, 115911.64, 0.0, 9.999928, 10.000298 
6.0496616e+2, 2.5448018e+2, -522144.44, -436274.22, 51093.813, -0.044808548, -0.062706605, -412471.03, 33614.75, 0.0, 9.999234, 10.000378 
6.049596e+2, 2.6448023e+2, -543314.0, -512042.47, -20071.168, 0.036080472, -0.044048876, -502235.56, -154150.7, 0.0, 9.998914, 9.999343 
6.0495186e+2, 2.7447912e+2, -435840.34, -418361.28, 639.9067, 0.13348304, -0.10393508, -418337.88, -168238.81, 0.0, 9.999008, 9.999271 
6.0494363e+2, 2.8447947e+2, -316872.88, -224529.42, 78445.43, 0.084906556, -0.028535921, -179676.34, -27579.418, 0.00000016006682, 9.998789, 10.00003 
6.04935e+2, 2.944815e+2, -301163.78, -164759.11, 27171.186, -0.0930944, 0.13929018, -159545.97, -105470.04, 0.0000052467194, 9.998208, 10.000048 
6.0492957e+2, 3.0447993e+2, -346598.38, -222793.08, -26352.422, 0.12840086, 0.009360073, -217417.28, -217417.28, 0.000031333126, 9.997842, 9.999494 
6.049215e+2, 3.1447765e+2, -276878.8, -55110.37, -32229.037, 0.178325, -0.18895887, -50521.56, -50521.56, 0.000092264556, 9.997686, 10.000726 
6.150755e+2, 1.24497175e+2, -1409612.1, -1617434.4, 123124.9, 0.13053851, -0.1168108, -1352410.6, 367511.72, 0.00000031033701, 10.00229, 9.999533 
6.150612e+2, 1.344976e+2, -1492441.5, -1627119.5, -165090.05, -0.08918312, -0.041603208, -1381485.0, 240431.08, 0.000000018009526, 10.001128, 9.999383 
6.150541e+2, 1.4449668e+2, -1518697.6, -1656432.9, 5211.409, 0.09846161, -0.03304826, -1518500.8, 5424.172, 0.0, 10.000552, 9.998776 
6.1504567e+2, 1.5449558e+2, -1343372.8, -1522873.8, 10838.874, 0.016241832, -0.048734616, -1342720.6, 83216.65, 0.0, 10.001091, 9.998765 
6.15037e+2, 1.6449459e+2, -1245710.4, -1392379.1, 8731.55, -0.058418088, -0.03586202, -1245192.4, 82754.97, 0.0, 10.000959, 9.999046 
6.1502904e+2, 1.7449345e+2, -1266134.3, -1353278.8, 42501.492, -0.056615327, -0.074734665, -1248838.5, -18881.623, 0.0, 10.000145, 9.999039 
6.150211e+2, 1.8449228e+2, -1216513.9, -1270286.1, 25449.611, -0.022905879, -0.09471478, -1206379.1, -74411.98, 0.0, 9.999797, 9.999093 
6.1501336e+2, 1.9449088e+2, -1058493.4, -1147488.5, 30132.309, 0.04917606, -0.16574004, -1049250.9, -15271.139, 0.0, 10.000217, 9.999066 
6.1500436e+2, 2.044904e+2, -971994.7, -1097505.4, 19181.96, -0.025058137, -0.09888973, -969128.56, -33142.902, 0.0, 10.000325, 9.998682 
6.149938e+2, 2.1449083e+2, -919986.25, -1027874.1, -3695.2068, -0.26732305, 0.05942535, -919859.8, -81874.71, 0.0, 10.000027, 9.998633 
6.149857e+2, 2.2449014e+2, -769347.06, -800121.7, -8490.333, -0.28402883, 0.08677497, -767160.1, -27167.125, 0.0, 9.999949, 9.999556 
6.149804e+2, 2.344879e+2, -645532.1, -683011.75, 25872.352, -0.029335883, -0.119103655, -632325.75, 9686.771, 0.0, 10.000099, 9.999615 
6.1497366e+2, 2.4448708e+2, -570717.9, -581120.1, 46938.777, 0.053075895, -0.16665779, -528692.94, 15326.216, 0.0, 9.999883, 9.99974 
6.149653e+2, 2.5448775e+2, -576786.6, -536793.5, 31844.037, -0.07819676, -0.094229005, -519188.16, -73176.164, 0.0, 9.999172, 9.99972 
6.149574e+2, 2.6448783e+2, -492698.47, -396655.4, -25900.02, -0.09019873, -0.07860322, -390116.16, -42106.535, 0.0, 9.998873, 10.000154 
6.1495006e+2, 2.7448693e+2, -386490.63, -294743.84, 15762.927, 0.033366997, -0.20566964, -292111.16, -42096.707, 0.0, 9.998923, 10.000157 
6.1494225e+2, 2.8448626e+2, -393615.22, -377332.25, 47790.703, 0.052540716, -0.22687303, -336994.5, -184973.6, 0.00000012615395, 9.998757, 9.998995 
6.14934e+2, 2.9448578e+2, -389311.78, -326692.44, 12967.72, -0.038107928, -0.20164287, -324113.22, -270082.7, 0.000004351736, 9.998122, 9.998972 
6.14928e+2, 3.0448502e+2, -274834.2, -69736.72, -39813.24, 0.16219825, -0.2484972, -62279.375, -62279.375, 0.000027327982, 9.997818, 10.000566 
6.14918e+2, 3.144883e+2, -250894.47, 16187.134, 3526.2458, 0.0070368936, -0.00406335, 16233.683, 16233.683, 0.00008383067, 9.997616, 10.001252 
6.250775e+2, 1.2450483e+2, -1482207.9, -1679161.0, 204439.2, 0.13669868, -0.12929283, -1353763.8, 366082.78, 0.000000031381585, 10.00189, 9.999315 
6.2506366e+2, 1.345054e+2, -1451746.6, -1623467.5, -158268.17, 0.032394595, -0.024980424, -1357549.3, 264292.03, 0.000000000001578113, 10.001449, 9.999271 
6.250545e+2, 1.4450474e+2, -1449486.9, -1568274.6, 52544.805, 0.079207, -0.0048154774, -1429580.1, 94267.664, 0.0, 10.000796, 9.99926 
6.2504685e+2, 1.5450424e+2, -1395421.6, -1484571.1, 45268.71, 0.064220935, -0.015773978, -1376465.6, 49386.867, 0.0, 10.0004835, 9.999305 
6.250382e+2, 1.6450344e+2, -1334967.3, -1408391.1, 26674.045, 0.0053410605, -0.022451544, -1326300.0, 1559.284, 0.0, 10.000235, 9.999284 
6.250292e+2, 1.7450212e+2, -1287491.9, -1331366.1, 8530.638, -0.034021664, -0.10555911, -1285891.6, -56021.332, 0.0, 9.999885, 9.999304 
6.250209e+2, 1.8450114e+2, -1197453.1, -1268151.9, 34431.74, -0.024877237, -0.11665999, -1183455.5, -51576.79, 0.0, 9.999937, 9.999048 
6.250134e+2, 1.9450037e+2, -1036680.9, -1140652.1, 30678.143, 0.0275365, -0.12175018, -1028303.8, 5582.473, 0.0, 10.000374, 9.999039 
6.250045e+2, 2.0449981e+2, -978740.0, -1138915.8, 28116.621, -0.0459955, -0.04313976, -973947.9, -38054.164, 0.0, 10.00044, 9.998344 
6.24994e+2, 2.1449932e+2, -942855.8, -1072892.9, 24494.223, -0.25472203, 0.056192208, -938395.0, -100491.86, 0.0, 10.000023, 9.998324 
6.2498575e+2, 2.244985e+2, -797250.25, -803470.75, 50246.137, -0.25523716, 0.08113717, -750018.2, -10105.767, 0.0, 9.999721, 9.999641 
6.2498045e+2, 2.34497e+2, -715341.75, -707130.0, 24386.295, 0.002475184, -0.058778126, -686506.4, -44582.723, 0.0, 9.999575, 9.999705 
6.249736e+2, 2.4449615e+2, -658488.25, -649399.9, 35127.7, 0.08114683, -0.10199696, -618523.7, -74593.484, 0.0, 9.9993725, 9.999527 
6.249646e+2, 2.5449598e+2, -595283.8, -568938.7, 33346.934, -0.057194587, -0.093729824, -546256.9, -100324.6, 0.0, 9.999139, 9.999517 
6.249565e+2, 2.6449585e+2, -465825.78, -376773.16, -2464.409, -0.07291263, -0.08728746, -376705.0, -28773.525, 0.0, 9.999024, 10.000215 
6.249492e+2, 2.7449554e+2, -366886.13, -276991.6, -40833.918, 0.05836077, -0.1645492, -261212.7, -11283.177, 0.0, 9.999014, 10.000234 
6.249412e+2, 2.8449476e+2, -417044.22, -419494.13, -14121.344, 0.07111768, -0.19333969, -404094.78, -252156.98, 0.000000116905284, 9.998732, 9.998721 
6.2493217e+2, 2.9449317e+2, -401002.6, -370457.97, -8607.705, -0.030727759, -0.24440196, -368199.28, -314239.47, 0.000004287332, 9.998187, 9.998653 
6.249256e+2, 3.0449295e+2, -215356.69, 34804.97, -7562.311, 0.14701961, -0.24862619, 35033.367, 35033.367, 0.000025852014, 9.997912, 10.001229 
6.249154e+2, 3.1449768e+2, -197871.1, 68615.77, -16719.586, -0.0069596088, 0.06910293, 69660.68, 69660.68, 0.00007867894, 9.997865, 10.001487 
6.3507825e+2, 1.2451396e+2, -1518041.9, -1765515.0, 135685.06, -0.034193765, -0.10463501, -1458145.1, 261610.92, 0.0000000061075784, 10.001946, 9.998693 
6.3506514e+2, 1.3451357e+2, -1492680.6, -1707772.0, -176487.31, 0.018754128, -0.041707218, -1393553.0, 228209.42, 0.0, 10.001446, 9.998697 
6.350546e+2, 1.4451271e+2, -1415023.6, -1490032.0, 27515.47, -0.017494518, -0.035807278, -1406012.5, 117758.305, 0.0, 10.000771, 9.999808 
6.350482e+2, 1.5451266e+2, -1349640.5, -1398430.8, 47121.91, 0.12477961, -0.059045672, -1320973.5, 104795.17, 0.0, 10.000513, 9.999887 
6.3503975e+2, 1.64512e+2, -1345952.0, -1425943.1, 3553.575, 0.11142075, -0.07917702, -1345794.4, -18020.525, 0.0, 10.000213, 9.999173 
6.350297e+2, 1.7451048e+2, -1296979.9, -1356120.5, 3842.686, -0.002738648, -0.16458611, -1296731.3, -66942.29, 0.0, 9.999894, 9.999136 
6.350203e+2, 1.8451004e+2, -1200381.8, -1264797.9, 41921.94, -0.09865981, -0.116277166, -1179723.9, -47930.484, 0.0, 9.999902, 9.999085 
6.3501173e+2, 1.9451064e+2, -1042316.3, -1140250.4, 55017.285, -0.197459, 0.012922245, -1017630.94, 16156.153, 0.0, 10.00032, 9.999067 
6.350039e+2, 2.045095e+2, -983390.94, -1122576.4, 4370.3423, -0.15960138, 0.023668913, -983253.9, -47455.477, 0.0, 10.00033, 9.998509 
6.349971e+2, 2.1450607e+2, -948056.6, -1053476.0, 18375.646, 0.04717297, -0.18898955, -944945.4, -107112.945, 0.0, 9.999895, 9.998519 
6.349892e+2, 2.2450498e+2, -844250.6, -879704.2, 36384.195, 0.101775415, -0.17884067, -821504.6, -81660.234, 0.0, 9.999622, 9.999167 
6.3497984e+2, 2.3450646e+2, -765599.8, -788278.25, 29635.195, -0.03844225, 0.02763661, -745208.56, -103376.96, 0.0, 9.999471, 9.9992 
6.349713e+2, 2.4450657e+2, -658244.75, -632787.3, 19102.225, -0.103323996, 0.099341415, -622561.4, -78730.51, 0.0, 9.999307, 9.999671 
6.3496387e+2, 2.5450486e+2, -595085.06, -550549.06, 33138.656, -0.06970713, -0.062016346, -532891.7, -87045.29, 0.0, 9.999061, 9.999682 
6.3495654e+2, 2.645044e+2, -525153.06, -484774.94, -12575.439, 0.010746108, -0.06429847, -481178.72, -133328.39, 0.0, 9.998966, 9.999497 
6.349491e+2, 2.7450514e+2, -436062.84, -394581.13, -32019.732, 0.123439275, 0.034460247, -377171.66, -127328.23, 0.0, 9.998911, 9.999473 
6.3494e+2, 2.8450492e+2, -384222.72, -343616.16, -45946.95, 0.05929912, 0.08311738, -313686.53, -161839.42, 0.0000001448745, 9.998698, 9.999261 
6.3492906e+2, 2.9450372e+2, -375469.56, -293417.06, -17658.996, -0.18342802, 0.015537464, -289777.97, -235915.44, 0.000005079309, 9.998101, 9.999218 
6.3492197e+2, 3.0450404e+2, -205677.88, 47654.688, -14547.192, -0.026182696, 0.028159516, 48487.297, 48487.297, 0.000027855136, 9.997924, 10.00132 
6.349132e+2, 3.145058e+2, -232534.55, 21937.578, 32087.445, -0.06222179, 0.035971496, 25921.254, 25921.254, 0.00008145653, 9.997751, 10.001223 
6.450801e+2, 1.2452453e+2, -1545425.0, -1787248.0, 161503.05, -0.030278897, -0.019418836, -1464587.0, 255065.33, 0.0000000021671396, 10.001791, 9.998624 
6.4506745e+2, 1.3452294e+2, -1490780.3, -1696989.6, -100824.664, 0.11662595, -0.07835945, -1449676.1, 171993.06, 0.0, 10.001444, 9.9987545 
6.4505494e+2, 1.4452183e+2, -1429879.0, -1498969.8, 125119.5, -0.046014924, -0.10104002, -1334623.5, 189056.22, 0.0, 10.000683, 9.999791 
6.450483e+2, 1.5452197e+2, -1484912.4, -1462852.8, 76054.71, 0.13696519, -0.10332183, -1397032.1, 28643.654, 0.0, 9.999588, 9.99989 
6.4503974e+2, 1.6452156e+2, -1469264.5, -1503986.5, 61775.188, 0.13269158, -0.0885627, -1422457.3, -94777.93, 0.0, 9.999446, 9.99901 
6.4502966e+2, 1.7452042e+2, -1225936.9, -1338217.4, 49383.438, -0.013486483, -0.11997545, -1207307.9, 22384.139, 0.0, 10.000458, 9.998986 
6.4502037e+2, 1.8451978e+2, -1117928.0, -1248256.5, 73003.305, -0.10964455, -0.07379685, -1085235.9, 46462.688, 0.0, 10.000568, 9.9988785 
6.4501196e+2, 1.9451946e+2, -1175310.5, -1226171.5, 47228.71, -0.16142558, -0.015152267, -1147100.9, -113400.44, 0.0, 9.999512, 9.998864 
6.4500433e+2, 2.04518e+2, -1099947.5, -1141415.8, 31154.027, -0.095944256, -0.04116438, -1083258.8, -147545.31, 0.0, 9.999373, 9.998836 
6.4499795e+2, 2.1451499e+2, -873351.8, -983401.25, 37722.582, 0.1215887, -0.24847953, -861662.9, -23921.182, 0.0, 10.000258, 9.998823 
6.4498985e+2, 2.2451398e+2, -728825.0, -849649.3, 68446.12, 0.16713345, -0.23288418, -697943.7, 41808.457, 0.0, 10.000518, 9.998946 
6.449799e+2, 2.3451525e+2, -700666.56, -783656.7, 58370.543, 0.0007968395, -0.024997436, -670544.8, -28802.133, 0.0, 10.000027, 9.998962 
6.4497095e+2, 2.4451526e+2, -614916.1, -626336.44, 71610.56, -0.08097289, 0.056708302, -548788.44, -5044.8555, 0.0, 9.999675, 9.99954 
6.4496326e+2, 2.5451365e+2, -538722.7, -533935.25, 49461.535, -0.046662614, -0.08244961, -486809.56, -41051.563, 0.0, 9.999501, 9.999584 
6.4495593e+2, 2.64513e+2, -484161.9, -505193.0, 34638.277, 0.03787933, -0.08035137, -458478.2, -110713.875, 0.0, 9.999411, 9.99915 
6.4494884e+2, 2.7451324e+2, -379244.4, -408629.28, 25806.178, 0.1853587, 0.006020291, -364241.28, -114477.36, 0.000000000000000000046744374, 9.99947, 9.999116 
6.4493936e+2, 2.8451318e+2, -250293.97, -229477.33, 27581.336, 0.105009995, 0.065294296, -210405.77, -58639.58, 0.00000034821963, 9.999404, 9.999702 
6.4492726e+2, 2.9451278e+2, -201581.9, -163347.25, 23806.041, -0.21757577, 0.029586311, -151932.64, -98160.85, 0.0000068469953, 9.999077, 9.999647 
6.449196e+2, 3.045137e+2, -181531.98, 14278.858, 19725.96, -0.072926395, 0.105705656, 16246.281, 16246.281, 0.00003364889, 9.998303, 10.000892 
6.4491135e+2, 3.145134e+2, -336702.97, -42334.168, -1865.7542, 0.021752875, -0.05609467, -42322.344, -42322.344, 0.000093640454, 9.997111, 10.001073 
6.5508246e+2, 1.24536455e+2, -1504100.4, -1694165.8, 60102.76, -0.011713186, 0.119628444, -1486689.5, 232846.55, 0.0000000012982254, 10.001766, 9.99927 
6.5507025e+2, 1.3453352e+2, -1438667.4, -1594593.4, -109417.836, 0.23123491, -0.13903171, -1382278.3, 239283.5, 0.0, 10.001473, 9.999438 
6.5505546e+2, 1.4453202e+2, -1468508.3, -1585833.6, 70964.32, -0.090124026, -0.20945817, -1435098.9, 88476.12, 0.0, 10.000708, 9.999187 
6.5504694e+2, 1.545321e+2, -1533312.4, -1566759.6, 43279.56, 0.0114649115, -0.14867, -1503637.8, -78062.836, 0.0, 9.999596, 9.99918 
6.550378e+2, 1.645321e+2, -1480579.8, -1524675.6, 85753.85, -0.022249369, -0.04868856, -1414084.9, -86508.83, 0.0, 9.999433, 9.998869 
6.5502894e+2, 1.7453189e+2, -1233552.1, -1358056.0, 96466.46, -0.15293269, 0.025008578, -1180995.1, 48584.38, 0.0, 10.000471, 9.998843 
6.5502095e+2, 1.845303e+2, -1153824.1, -1311894.1, 27707.848, -0.13538024, 0.0046027997, -1149108.0, -17513.197, 0.0, 10.000523, 9.998464 
6.550138e+2, 1.9452684e+2, -1210564.1, -1286848.9, 17829.143, 0.047570106, -0.21025862, -1206602.9, -172976.83, 0.0, 9.99946, 9.998471 
6.550055e+2, 2.0452538e+2, -1084176.3, -1089951.4, 53356.113, 0.06229097, -0.23567544, -1033629.6, -97991.11, 0.0, 9.99929, 9.999231 
6.5499586e+2, 2.1452604e+2, -856283.0, -922489.3, 80028.28, -0.12592205, -0.11796621, -802781.6, 34849.316, 0.0, 10.000151, 9.999292 
6.549875e+2, 2.2452553e+2, -747940.2, -859762.25, 43073.574, -0.1419761, -0.07986213, -733272.4, 6363.3193, 0.0, 10.000397, 9.998931 
6.549805e+2, 2.3452334e+2, -722422.0, -797353.3, 48133.855, 0.036535595, -0.21267176, -698891.4, -57234.082, 0.0, 9.9999, 9.998925 
6.549723e+2, 2.4452221e+2, -653158.4, -686129.8, 54004.66, 0.06916536, -0.22415891, -613179.25, -69510.91, 0.0, 9.99959, 9.999169 
6.5496266e+2, 2.5452223e+2, -576981.06, -592666.9, 52433.563, -0.08090933, -0.1621911, -531807.1, -86139.24, 0.0, 9.999417, 9.999217 
6.549545e+2, 2.6452163e+2, -482817.8, -499224.4, 26286.5, -0.07022879, -0.14266528, -463484.34, -115810.445, 0.0, 9.999389, 9.999206 
6.5494806e+2, 2.7451998e+2, -381422.2, -403088.34, 39785.953, 0.13653058, -0.24760123, -351020.84, -101330.836, 0.0000000002377775, 9.999418, 9.999184 
6.5493894e+2, 2.8451955e+2, -234760.05, -181115.16, 7795.4272, 0.09684035, -0.2456494, -180005.31, -28311.027, 0.0000008000927, 9.999344, 10.000058 
6.549264e+2, 2.945204e+2, -193978.77, -119059.664, 22543.596, -0.2368501, -0.1985285, -112799.29, -59112.895, 0.000010270006, 9.998969, 9.999996 
6.54918e+2, 3.0452216e+2, -251493.56, -136098.75, -30330.35, -0.08461352, -0.006883281, -128612.414, -128612.414, 0.00004390313, 9.998312, 9.9998665 
6.549094e+2, 3.145202e+2, -352363.38, -62575.445, -6629.3027, 0.057032034, -0.2211419, -62423.87, -62423.87, 0.00011355579, 9.997056, 10.000969 
6.6508335e+2, 1.24546416e+2, -1902099.8, -1864952.6, 109515.1, 0.055785175, -0.01226097, -1772447.3, -53015.96, 0.00000000035571668, 9.998938, 9.999461 
6.6507196e+2, 1.3454433e+2, -1505908.5, -1621732.1, -70358.91, 0.28738514, -0.19937998, -1472693.3, 148757.33, 0.0, 10.000968, 9.999508 
6.6505635e+2, 1.4454322e+2, -1354373.8, -1597016.0, 50489.117, -0.12144493, -0.20629553, -1344287.3, 179174.63, 0.0, 10.001786, 9.998587 
6.6504705e+2, 1.5454276e+2, -1289054.9, -1519058.6, 4627.5576, -0.024311416, -0.13703065, -1288961.9, 136507.36, 0.0, 10.00158, 9.998548 
6.6503793e+2, 1.6454221e+2, -1227831.6, -1438577.9, 104189.04, -0.04961112, -0.042063948, -1185019.5, 142457.02, 0.0, 10.001327, 9.998548 
6.650296e+2, 1.745414e+2, -1181402.9, -1364533.3, 82424.65, -0.15134953, 0.00073533895, -1149769.0, 79716.234, 0.0, 10.000964, 9.998558 
6.650217e+2, 1.845396e+2, -1116725.4, -1271520.5, 12220.999, -0.107819654, -0.03543958, -1115766.5, 15735.503, 0.0, 10.000694, 9.9986515 
6.6501415e+2, 1.945364e+2, -1038617.06, -1183211.4, 28686.129, 0.09028459, -0.24233991, -1033133.94, 396.3774, 0.0, 10.00055, 9.998657 
6.6500545e+2, 2.0453519e+2, -919479.06, -1008208.06, 124613.58, 0.077970505, -0.25484827, -831568.25, 103971.86, 0.0, 10.000407, 9.999256 
6.6499543e+2, 2.145361e+2, -846447.9, -918253.8, 101621.664, -0.18131295, -0.11271185, -774573.4, 62956.566, 0.0, 10.000219, 9.999291 
6.649871e+2, 2.2453554e+2, -781655.75, -870506.8, 44657.97, -0.20287476, -0.08067844, -763089.56, -23554.785, 0.0, 10.000137, 9.998985 
6.649806e+2, 2.3453304e+2, -690097.2, -779698.1, 39409.11, 0.05250946, -0.2482111, -675230.6, -33671.41, 0.0, 10.000106, 9.998955 
6.6497254e+2, 2.4453178e+2, -595719.0, -672184.1, 80635.55, 0.11994621, -0.26966688, -544711.3, -1140.0322, 0.0, 10.0000305, 9.999057 
6.6496265e+2, 2.5453183e+2, -518359.22, -584639.6, 74070.83, -0.03960885, -0.19349319, -470352.88, -24782.35, 0.0, 9.999882, 9.999059 
6.6495407e+2, 2.6453105e+2, -451255.56, -493560.28, 69659.02, -0.05834395, -0.17875409, -399608.2, -52029.95, 0.0, 9.99965, 9.999117 
6.64947e+2, 2.7452904e+2, -396525.56, -416018.97, 52135.918, 0.09603648, -0.30857238, -353233.1, -103635.555, 0.0000000023427176, 9.99935, 9.99912 
6.6493803e+2, 2.8452832e+2, -284293.4, -241639.63, 11701.077, 0.08961845, -0.31838888, -238640.58, -87035.77, 0.0000014418595, 9.999158, 9.999733 
6.6492677e+2, 2.9452875e+2, -201644.06, -154578.3, -48738.88, -0.09965133, -0.28144914, -123988.4, -70387.68, 0.000014823799, 9.999058, 9.999704 
6.6491765e+2, 3.0452996e+2, -186162.42, -177076.4, -107089.984, 0.020114867, -0.098116495, -74433.11, -74433.11, 0.000057815294, 9.999087, 9.999207 
6.6490716e+2, 3.145279e+2, -57316.586, 75207.95, -84576.414, 0.037631303, -0.25276977, 116388.03, 116388.03, 0.00014076727, 9.999106, 10.00093 
6.750823e+2, 1.2455449e+2, -1918634.3, -1909979.4, 86286.55, 0.008400886, -0.4199915, -1827911.8, -108573.83, 0.0000000023126079, 9.99899, 9.999125 
6.7507225e+2, 1.3455535e+2, -1545035.9, -1699893.3, 8757.381, 0.19925216, -0.26070967, -1544542.1, 76793.195, 0.0, 10.000965, 9.99897 
6.750572e+2, 1.445555e+2, -1395448.4, -1680214.4, 32340.748, -0.23927613, -0.08515342, -1391821.6, 131517.45, 0.0, 10.001774, 9.998022 
6.7504835e+2, 1.5455411e+2, -1323349.6, -1594825.4, 7968.383, -0.07946017, -0.0519977, -1323116.0, 102241.36, 0.0, 10.001598, 9.998019 
6.750395e+2, 1.6455202e+2, -1259012.1, -1506181.0, 80984.27, -0.04104337, -0.061815154, -1234841.5, 92538.27, 0.0, 10.001332, 9.998084 
6.750314e+2, 1.74549e+2, -1215855.0, -1432043.0, 78011.14, -0.08766304, -0.19424666, -1190644.6, 38763.89, 0.0, 10.000946, 9.998104 
6.750226e+2, 1.8454768e+2, -1068197.6, -1164351.4, -3151.9758, -0.112949125, -0.19517112, -1068094.4, 63325.777, 0.0, 10.000661, 9.999405 
6.750127e+2, 1.9454819e+2, -991428.56, -1069397.4, 32267.56, -0.12750387, -0.11213441, -979806.8, 53606.36, 0.0, 10.000483, 9.999471 
6.750039e+2, 2.0454748e+2, -962260.56, -1077395.6, 109843.24, -0.13175905, -0.09453504, -895813.75, 39604.23, 0.0, 10.000315, 9.998831 
6.749964e+2, 2.1454512e+2, -892206.06, -991979.4, 103713.66, -0.124066636, -0.23376639, -827004.94, 10433.923, 0.0, 10.000123, 9.998834 
6.7498845e+2, 2.245441e+2, -790191.3, -856949.25, 36077.0, -0.09244226, -0.2312551, -774420.5, -34971.77, 0.0, 10.000009, 9.999139 
6.749799e+2, 2.3454449e+2, -695009.75, -759538.5, 50065.61, -0.042833377, -0.12909876, -667712.75, -26265.637, 0.0, 9.999983, 9.999149 
6.7497146e+2, 2.445441e+2, -605782.9, -672207.6, 68629.28, -0.014732679, -0.07629405, -562751.94, -19300.76, 0.0, 9.999943, 9.999096 
6.74963e+2, 2.5454253e+2, -531091.9, -589390.44, 77544.92, -0.013550905, -0.16403387, -477398.6, -31934.1, 0.0, 9.999788, 9.999068 
6.7495435e+2, 2.6454136e+2, -475869.38, -530942.94, 49950.883, -0.011413219, -0.17418428, -446367.88, -98892.25, 0.0, 9.999591, 9.998889 
6.7494535e+2, 2.745405e+2, -422193.53, -454545.66, 52394.83, -0.023399223, -0.16813229, -383534.56, -134048.73, 0.0000000015372758, 9.999287, 9.998888 
6.7493665e+2, 2.8453952e+2, -352655.13, -383067.3, -1514.4827, 0.006679323, -0.14788271, -352579.9, -201082.52, 0.0000017821444, 9.999154, 9.998765 
6.749279e+2, 2.94538e+2, -284280.47, -303450.22, -41596.65, 0.08882638, -0.20226273, -251178.67, -197665.17, 0.000019076204, 9.9989605, 9.99873 
6.749181e+2, 3.0453712e+2, -218401.28, -232185.89, -112480.37, 0.13209857, -0.16114424, -112602.26, -112602.26, 0.000073988194, 9.999039, 9.998846 
6.749039e+2, 3.1453633e+2, -65742.445, 78652.625, -58196.477, -0.24477406, -0.1508734, 99187.58, 99187.58, 0.00017626329, 9.999026, 10.000982 
6.8508154e+2, 1.2456432e+2, -1802223.3, -1821383.4, -38265.58, 0.00810891, -0.46753865, -1772356.8, -53117.426, 0.0000000036242784, 9.999637, 9.999426 
6.8507206e+2, 1.3456544e+2, -1577741.4, -1695647.4, -36865.56, 0.108309336, -0.2982985, -1567163.6, 54069.5, 0.0, 10.000666, 9.999136 
6.850581e+2, 1.4456567e+2, -1485306.5, -1755154.8, 928.54663, -0.2902052, -0.10907155, -1485303.4, 37932.727, 0.0, 10.001283, 9.997746 
6.8505085e+2, 1.5456408e+2, -1335346.3, -1632739.8, -24818.45, 0.014571661, -0.06843966, -1333289.3, 91968.5, 0.0, 10.001645, 9.997741 
6.850422e+2, 1.6456176e+2, -1233527.6, -1474396.6, 71875.125, 0.09156102, -0.09683293, -1213710.6, 113572.09, 0.0, 10.00142, 9.998264 
6.850325e+2, 1.7455849e+2, -1268985.4, -1438710.3, 98051.984, -0.051797617, -0.27435318, -1224171.9, 5140.5537, 0.0, 10.000494, 9.998282 
6.850228e+2, 1.8455741e+2, -1143629.9, -1219624.0, 57317.75, -0.13114138, -0.25078592, -1112858.5, 18463.598, 0.0, 10.000225, 9.999235 
6.85013e+2, 1.9455868e+2, -977512.06, -1081448.4, 3078.8591, -0.15213913, -0.073317714, -977420.94, 55889.36, 0.0, 10.000659, 9.999301 
6.850043e+2, 2.0455809e+2, -909862.9, -1025864.5, 61563.195, -0.13502085, -0.048144486, -883281.7, 52032.785, 0.0, 10.000576, 9.999047 
6.849969e+2, 2.1455507e+2, -911541.5, -974214.5, 89335.33, -0.07219726, -0.2763693, -848206.06, -10866.612, 0.0, 9.999882, 9.999065 
6.8498886e+2, 2.245538e+2, -833128.8, -901438.1, 78628.68, -0.04052838, -0.30161375, -781557.1, -42206.14, 0.0, 9.999802, 9.9989395 
6.8498e+2, 2.3455442e+2, -652421.6, -765007.1, 44120.855, -0.047281172, -0.15135826, -637191.5, 4156.403, 0.0, 10.000373, 9.99893 
6.849715e+2, 2.445541e+2, -518839.38, -629184.7, 46350.598, -0.026622614, -0.081759095, -501953.72, 41398.28, 0.0, 10.000534, 9.999103 
6.8496335e+2, 2.5455242e+2, -460280.88, -551350.6, 38965.67, 0.024738437, -0.18360272, -445884.56, -517.91296, 0.0, 10.000268, 9.999093 
6.849544e+2, 2.645515e+2, -435929.94, -513362.88, 30882.262, 0.024681395, -0.17389679, -425121.88, -77745.41, 0.0, 9.999874, 9.998869 
6.849445e+2, 2.745512e+2, -423519.84, -457592.34, 28362.117, -0.029441923, -0.10969552, -407470.7, -158088.55, 0.00000000039754933, 9.999285, 9.998865 
6.849358e+2, 2.8455037e+2, -362897.13, -410417.72, 51858.59, 0.013018046, -0.062702745, -329614.75, -178222.45, 0.000001935021, 9.999175, 9.998567 
6.849282e+2, 2.9454845e+2, -175434.25, -271152.94, 55853.855, 0.17842989, -0.13100266, -149739.73, -96328.54, 0.000022833043, 9.9997835, 9.998558 
6.84918e+2, 3.045465e+2, -134790.8, -238350.8, 12298.614, 0.18686077, -0.17164138, -133350.27, -133350.27, 0.00009092674, 9.999803, 9.998439 
6.8490267e+2, 3.1454557e+2, -156096.9, -22595.654, 20526.365, -0.24073058, -0.13444996, -19510.918, -19510.918, 0.00021663119, 9.998615, 10.0005 
6.9508034e+2, 1.24575935e+2, -1724086.4, -1668318.5, -85239.14, -0.13191481, -0.16273557, -1606518.4, 112616.516, 0.00000000017840025, 9.999689, 10.00044 
6.950711e+2, 1.3457467e+2, -1517980.4, -1574026.4, 9199.84, -0.0759535, -0.31394172, -1516508.9, 104633.93, 0.0, 10.000682, 9.999958 
6.9505894e+2, 1.4457376e+2, -1477885.8, -1745458.9, 5280.7476, -0.36470127, -0.28683823, -1477781.6, 45370.965, 0.0, 10.001302, 9.9978075 
6.950543e+2, 1.5457265e+2, -1334207.9, -1637522.3, 683.5988, 0.173754, -0.19759077, -1334206.4, 90964.63, 0.0, 10.001667, 9.997705 
6.950455e+2, 1.645714e+2, -1180228.0, -1359420.5, 30625.465, 0.25505713, -0.15246345, -1175138.4, 152047.14, 0.0, 10.001407, 9.999055 
6.950324e+2, 1.7456996e+2, -1214855.8, -1320733.3, 73921.734, -0.13021654, -0.22978178, -1176871.9, 52324.266, 0.0, 10.00047, 9.999103 
6.9502205e+2, 1.8456888e+2, -1225861.5, -1378080.4, 64541.203, -0.24819526, -0.19886318, -1202180.0, -70972.97, 0.0, 10.000175, 9.998169 
6.950147e+2, 1.9456798e+2, -1069112.5, -1255656.1, 29616.324, -0.06881165, -0.12485441, -1064523.4, -31302.355, 0.0, 10.000598, 9.998131 
6.9500625e+2, 2.0456702e+2, -862685.56, -910149.8, 27511.889, -0.017197404, -0.11388983, -850084.25, 85145.17, 0.0, 10.000495, 9.999883 
6.9499654e+2, 2.1456586e+2, -862282.1, -847904.75, 71768.555, -0.11575654, -0.24859911, -782965.75, 54266.79, 0.0, 9.999778, 9.999982 
6.9498795e+2, 2.2456454e+2, -889571.94, -992773.1, 89629.664, -0.12529457, -0.29708818, -837750.6, -98508.37, 0.0, 9.999692, 9.998365 
6.9498056e+2, 2.3456281e+2, -711625.56, -864232.6, 74462.58, -0.040445726, -0.32004333, -681313.4, -40051.22, 0.0, 10.000274, 9.998294 
6.9497246e+2, 2.4456182e+2, -526489.5, -627787.5, 29719.727, 0.0020579167, -0.2851681, -518413.88, 24859.793, 0.0, 10.000459, 9.999151 
6.9496346e+2, 2.545615e+2, -462171.2, -542863.8, 38865.313, -0.010364019, -0.25895637, -446496.66, -1219.4171, 0.0, 10.000211, 9.999182 
6.94954e+2, 2.645613e+2, -431302.72, -492398.47, 2278.365, -0.021864576, -0.186626, -431217.84, -83936.87, 0.0, 9.999829, 9.999032 
6.949441e+2, 2.7456108e+2, -424515.0, -442594.22, 15520.647, -0.022567473, -0.13513951, -415593.4, -166306.55, 0.0000000054780975, 9.999211, 9.999003 
6.9493514e+2, 2.8456083e+2, -328057.34, -324273.03, 63951.887, 0.0069502783, -0.06454359, -262185.3, -110895.35, 0.000002364329, 9.999121, 9.999181 
6.9492686e+2, 2.945603e+2, -139904.64, -180559.63, 96750.01, 0.048448283, -0.061207697, -61369.746, -8077.231, 0.000027093956, 9.999719, 9.999208 
6.949171e+2, 3.0455816e+2, -166040.73, -305081.13, -31163.268, 0.093148895, -0.13161711, -159375.58, -159375.58, 0.00010798756, 9.999807, 9.997981 
6.949033e+2, 3.145558e+2, -246914.14, -189757.34, -5266.5957, -0.08429094, -0.18159862, -189276.13, -189276.13, 0.00025661878, 9.998526, 9.999398 
7.0507956e+2, 1.2458616e+2, -1869194.5, -1719845.3, -22511.22, -0.110545054, -0.06374493, -1716525.9, 2511.5718, 0.0, 9.998604, 10.000625 
7.05072e+2, 1.3458417e+2, -1593694.3, -1600790.0, 33759.96, -0.020109104, -0.2899489, -1563296.3, 57753.023, 0.0, 10.000114, 10.00005 
7.050611e+2, 1.4458263e+2, -1549112.9, -1743576.0, -8833.275, -0.24118526, -0.34711966, -1548712.5, -25649.156, 0.0, 10.000669, 9.99812 
7.0505536e+2, 1.5458174e+2, -1469369.1, -1659861.8, -10549.489, 0.1717039, -0.26857752, -1468786.8, -43707.99, 0.0, 10.000575, 9.998064 
7.05046e+2, 1.6458118e+2, -1281954.3, -1401588.4, 13424.236, 0.21236247, -0.17645137, -1280466.4, 46621.105, 0.0, 10.000684, 9.999111 
7.0503324e+2, 1.7458084e+2, -1143726.3, -1276952.8, -20904.01, -0.10660997, -0.14786926, -1140523.3, 88567.08, 0.0, 10.000924, 9.99918 
7.0502305e+2, 1.8457988e+2, -1111377.9, -1301250.1, 15146.401, -0.19031675, -0.118727125, -1110177.3, 20923.232, 0.0, 10.000863, 9.998369 
7.050157e+2, 1.9457792e+2, -1073439.6, -1237044.1, 64825.523, -0.013277999, -0.17029485, -1050867.8, -17745.646, 0.0, 10.000466, 9.99833 
7.05007e+2, 2.0457678e+2, -892754.7, -937749.6, 90699.1, 0.026952948, -0.18003088, -821804.5, 113327.78, 0.0, 10.000348, 9.999765 
7.049968e+2, 2.1457654e+2, -765989.5, -818120.0, 36947.71, -0.0910619, -0.20778538, -746838.25, 90291.74, 0.0, 10.000507, 9.99984 
7.049882e+2, 2.2457558e+2, -748534.2, -870245.06, 82680.77, -0.105860196, -0.23690693, -706727.6, 32408.799, 0.0, 10.000438, 9.998837 
7.04981e+2, 2.3457356e+2, -694168.0, -798521.94, 137515.95, -0.01269149, -0.3392916, -599263.06, 41891.91, 0.0, 10.00016, 9.998794 
7.049728e+2, 2.4457245e+2, -646570.2, -709244.9, 123607.36, 0.022809874, -0.3332507, -550389.7, -7223.001, 0.0, 9.999739, 9.998939 
7.049631e+2, 2.545722e+2, -637214.4, -652069.0, 91253.02, -0.007835857, -0.27527043, -553086.94, -107915.09, 0.0, 9.999122, 9.998954 
7.049535e+2, 2.6457196e+2, -529676.8, -535619.5, 71527.61, -0.016009718, -0.19883446, -461058.84, -113882.18, 0.0, 9.999135, 9.999076 
7.0494395e+2, 2.7457148e+2, -328235.53, -384459.88, 57635.4, 0.018233873, -0.17632978, -292221.78, -43038.816, 0.000000016182126, 9.999831, 9.999103 
7.049347e+2, 2.845711e+2, -229612.36, -264209.2, 96564.48, 0.02737748, -0.12914881, -148809.13, 2377.1113, 0.0000030357212, 9.999723, 9.999314 
7.049255e+2, 2.9457074e+2, -294601.8, -237838.08, 76136.17, -0.003408713, -0.12812743, -184965.73, -131778.39, 0.000031540207, 9.998569, 9.999375 
7.0491594e+2, 3.045692e+2, -318095.8, -335331.8, -9647.126, 0.07404672, -0.16415899, -313777.94, -313777.94, 0.00012311795, 9.9985895, 9.99835 
7.0490414e+2, 3.1456742e+2, -54711.203, -72867.414, 40292.14, 0.09477764, -0.19636963, -22487.148, -22487.148, 0.00029061802, 9.999759, 9.99959 
7.150784e+2, 1.2459518e+2, -1886762.5, -1774106.5, -27527.701, -0.13214098, -0.13242716, -1767739.9, -48794.49, 0.0, 9.998681, 10.000211 
7.150744e+2, 1.345939e+2, -1628466.9, -1688815.9, 93523.984, 0.18440674, -0.23377234, -1560370.1, 60583.063, 0.0, 10.000173, 9.999422 
7.150642e+2, 1.4459226e+2, -1506250.4, -1658849.6, -24663.1, -0.02205047, -0.29380855, -1502363.4, 20605.162, 0.0, 10.000692, 9.998684 
7.1505374e+2, 1.5459138e+2, -1427326.4, -1570570.0, -4213.4697, -0.07850877, -0.27719182, -1427202.5, -2221.858, 0.0, 10.000565, 9.998681 
7.1504366e+2, 1.6459104e+2, -1330415.0, -1493576.4, 13587.513, -0.11522564, -0.16678108, -1329291.3, -2302.1755, 0.0, 10.000652, 9.998492 
7.1503484e+2, 1.745911e+2, -1194743.1, -1382203.4, -2758.8464, -0.061867576, -0.031891696, -1194702.5, 34292.918, 0.0, 10.000923, 9.998458 
7.1502566e+2, 1.8459037e+2, -1010983.06, -1087882.4, -6583.2837, -0.04383701, -0.012637253, -1010423.56, 120579.14, 0.0, 10.000839, 9.9998455 
7.1501577e+2, 1.9458856e+2, -975212.94, -1013418.6, 60269.66, -0.076531656, -0.20591767, -931091.1, 101921.625, 0.0, 10.000383, 9.999904 
7.150064e+2, 2.045875e+2, -986618.6, -1107021.1, 87144.59, -0.08811494, -0.23715745, -940903.06, -5881.1895, 0.0, 10.000242, 9.998652 
7.149977e+2, 2.1458714e+2, -872632.06, -1007287.56, 48993.34, -0.07711548, -0.15452142, -856692.94, -19661.072, 0.0, 10.000377, 9.9986 
7.149892e+2, 2.2458693e+2, -655132.06, -652350.6, 63443.668, -0.062357455, -0.11685806, -590282.44, 148750.58, 0.0, 10.000331, 10.000387 
7.1498096e+2, 2.3458673e+2, -591596.25, -563132.4, 136345.22, -0.050714456, -0.20485409, -440278.34, 200747.33, 0.0, 10.000062, 10.000458 
7.1497196e+2, 2.44586e+2, -693732.44, -787575.25, 91859.61, -0.046300605, -0.22231337, -637504.44, -94474.09, 0.0, 9.999653, 9.998444 
7.149619e+2, 2.5458446e+2, -689126.7, -742236.7, 76208.56, -0.057396416, -0.23224846, -634979.06, -189928.23, 0.0, 9.999047, 9.998373 
7.149525e+2, 2.6458335e+2, -536940.2, -543279.0, 86545.914, -0.04482723, -0.20982589, -453505.66, -106441.92, 0.0, 9.999101, 9.99904 
7.149438e+2, 2.745824e+2, -339526.25, -394863.7, 96003.04, -0.0024966365, -0.23605442, -267284.28, -18213.547, 0.000000020828322, 9.999771, 9.999062 
7.1493435e+2, 2.8458115e+2, -254797.36, -307185.66, 46624.555, -0.004191346, -0.25962657, -227512.7, -76431.125, 0.0000037854625, 9.99969, 9.999034 
7.149235e+2, 2.9457968e+2, -332266.3, -295844.5, 44872.387, -0.07959758, -0.33513388, -265628.47, -212532.27, 0.000035842306, 9.998491, 9.999013 
7.149143e+2, 3.0457962e+2, -229645.1, -154520.4, 27236.053, 0.02469907, -0.26459938, -145685.2, -145685.2, 0.00013552594, 9.998589, 9.9995985 
7.149044e+2, 3.145802e+2, 33623.89, 121784.15, 103424.82, 0.09081531, -0.19433735, 190130.67, 190130.67, 0.00031582415, 9.999697, 10.000967 
7.2507924e+2, 1.24602765e+2, -1576188.1, -1649396.3, -91021.48, -0.023192402, -0.235549, -1514686.3, 204183.22, 0.0, 10.0008745, 10.000039 
7.250749e+2, 1.346025e+2, -1593387.1, -1677190.3, 48201.953, 0.21328071, -0.22110774, -1571420.3, 49449.04, 0.0, 10.000444, 9.999372 
7.2506547e+2, 1.4460117e+2, -1535035.6, -1611478.0, -42728.113, 0.06386662, -0.27667958, -1515928.4, 6953.1924, 0.0, 10.000217, 9.999249 
7.250541e+2, 1.546004e+2, -1408215.8, -1489733.9, -42957.95, -0.07946557, -0.30832598, -1389757.5, 35132.254, 0.0, 10.000381, 9.999327 
7.2504395e+2, 1.6460018e+2, -1357213.4, -1501044.8, 20696.26, -0.13138407, -0.22353046, -1354294.6, -27398.328, 0.0, 10.000428, 9.998557 
7.250359e+2, 1.7460033e+2, -1274190.4, -1411502.5, 39989.273, -0.016023224, -0.08194928, -1263393.4, -34490.21, 0.0, 10.000338, 9.998538 
7.2502667e+2, 1.8459995e+2, -1062135.8, -1068778.0, 31539.365, 0.013130175, -0.051835086, -1033743.1, 97164.24, 0.0, 10.000297, 10.000241 
7.2501606e+2, 1.945987e+2, -963525.44, -962711.94, -6650.9946, -0.071741015, -0.22815974, -956455.3, 76455.586, 0.0, 10.000263, 10.000315 
7.250065e+2, 2.0459795e+2, -1037485.7, -1160953.6, 26919.508, -0.08220336, -0.23968571, -1031871.75, -96953.99, 0.0, 10.000009, 9.998404 
7.2499824e+2, 2.1459751e+2, -1022077.7, -1112043.3, 46240.2, -0.005676888, -0.13623765, -1002549.94, -165618.86, 0.0, 9.999477, 9.9983225 
7.2498953e+2, 2.2459745e+2, -780734.94, -673066.0, 81145.125, -0.0026237532, -0.08552488, -629521.44, 109410.43, 0.0, 9.999298, 10.000743 
7.249805e+2, 2.3459771e+2, -638965.75, -546082.06, 36717.965, -0.07827393, -0.16463046, -533320.44, 107599.14, 0.0, 9.999559, 10.00082 
7.2497123e+2, 2.4459727e+2, -656856.5, -755849.9, -21714.652, -0.090839244, -0.17891772, -652302.75, -109382.12, 0.0, 9.999849, 9.998563 
7.2496164e+2, 2.5459585e+2, -507712.47, -644473.44, -816.51355, -0.04439009, -0.18944691, -507707.6, -62768.438, 0.0, 10.000242, 9.998467 
7.249524e+2, 2.6459458e+2, -401303.63, -473288.03, 55952.676, -0.010591055, -0.19092141, -370766.6, -23814.133, 0.0, 10.000023, 9.999069 
7.249435e+2, 2.7459314e+2, -428532.88, -435212.1, 47983.28, 0.028515385, -0.26804098, -383773.13, -134810.42, 0.000000011844985, 9.999148, 9.9990835 
7.249337e+2, 2.8459162e+2, -350330.97, -370613.6, 27047.215, -0.0015866301, -0.3110028, -331586.34, -180610.53, 0.000004675658, 9.999129, 9.9988575 
7.2492236e+2, 2.9459006e+2, -113641.18, -212791.64, 13036.127, -0.11837766, -0.37626347, -111955.86, -58963.56, 0.000040333267, 10.000097, 9.998805 
7.2491354e+2, 3.0459002e+2, 6021.022, -25135.438, -12279.872, 0.019447727, -0.2976164, 10279.034, 10279.034, 0.00014552726, 10.000148, 9.999739 
7.249044e+2, 3.1459093e+2, -30303.887, 144475.69, -68219.31, 0.16854665, -0.21404845, 167950.0, 167950.0, 0.0003310756, 9.999032, 10.001442 
7.350812e+2, 1.2460903e+2, -1561861.4, -1617826.4, -139734.84, 0.04480627, -0.35827565, -1447334.8, 271474.25, 0.0, 10.000883, 10.000238 
7.350733e+2, 1.3461e+2, -1571085.1, -1632820.1, 35830.33, -0.013644775, -0.25423506, -1554659.8, 66138.0, 0.0, 10.000443, 9.999678 
7.350645e+2, 1.446092e+2, -1498178.9, -1521808.0, -49198.516, -0.074984126, -0.30535874, -1459396.3, 63407.67, 0.0, 10.000173, 9.999877 
7.350563e+2, 1.546087e+2, -1369170.0, -1411404.8, -24280.059, 0.07436682, -0.37129256, -1358108.8, 66697.87, 0.0, 10.000393, 9.999858 
7.350466e+2, 1.6460855e+2, -1297656.8, -1382052.3, 6288.848, 0.07123912, -0.34442762, -1297190.8, 29618.379, 0.0, 10.000445, 9.999364 
7.3503613e+2, 1.7460865e+2, -1218629.1, -1293295.8, 45914.145, -0.051175516, -0.29174614, -1196785.8, 32026.867, 0.0, 10.000319, 9.999361 
7.3502606e+2, 1.8460868e+2, -1121270.3, -1176770.4, 21810.9, -0.09938053, -0.22865304, -1113724.8, 17089.447, 0.0, 10.000236, 9.999527 
7.350164e+2, 1.946084e+2, -1029752.5, -1081323.0, 664.8278, -0.07902959, -0.23089077, -1029743.94, 3072.0254, 0.0, 10.00019, 9.999532 
7.3500717e+2, 2.0460817e+2, -1000808.6, -1066565.3, -409.73428, -0.035419974, -0.18186907, -1000806.06, -65986.81, 0.0, 9.999928, 9.99909 
7.349982e+2, 2.1460778e+2, -984560.3, -1006431.8, 36505.03, 0.02975652, -0.1514755, -957388.2, -120561.7, 0.0, 9.999362, 9.999098 
7.349889e+2, 2.246073e+2, -861840.25, -815607.9, 80186.98, -0.0075311097, -0.13893689, -755271.6, -16439.92, 0.0, 9.999184, 9.999822 
7.349793e+2, 2.346065e+2, -724235.5, -695382.3, 55263.78, -0.1730708, -0.2254824, -652693.1, -11856.227, 0.0, 9.999442, 9.999851 
7.349702e+2, 2.4460626e+2, -612536.25, -647798.6, -14938.838, -0.19599195, -0.20619567, -607058.4, -64220.586, 0.0, 9.99978, 9.999337 
7.3496205e+2, 2.5460643e+2, -463137.6, -529735.5, 22696.496, -0.049848035, -0.14343584, -456138.28, -11302.156, 0.0, 10.000151, 9.999298 
7.349529e+2, 2.6460573e+2, -404023.84, -467863.25, 17757.248, 0.023283217, -0.13042518, -399417.03, -52575.53, 0.0, 9.999973, 9.999132 
7.3494273e+2, 2.7460372e+2, -435357.5, -435791.6, 27742.943, 0.013018225, -0.26512614, -407830.75, -158972.52, 0.000000051096855, 9.999088, 9.999111 
7.3493236e+2, 2.8460252e+2, -350770.56, -372147.94, 53085.395, -0.067827515, -0.28369048, -307308.47, -156439.4, 0.0000058850314, 9.999127, 9.998847 
7.349217e+2, 2.94602e+2, -124299.76, -226709.0, 62880.85, -0.22718081, -0.24156702, -94412.36, -41537.87, 0.000044056193, 10.000061, 9.998726 
7.349134e+2, 3.0460057e+2, -71068.41, -192491.23, -56080.23, -0.02950072, -0.24337429, -49130.754, -49130.754, 0.00015023218, 10.000169, 9.998583 
7.349036e+2, 3.145991e+2, -89874.53, 42464.625, -85487.805, 0.1271716, -0.28242078, 84399.52, 84399.52, 0.00033283475, 9.998934, 10.00079 
7.450831e+2, 1.2461884e+2, -1613621.3, -1671937.4, 17075.756, 0.16849197, -0.3182498, -1608989.3, 109724.445, 0.0, 10.000674, 9.999954 
7.450735e+2, 1.346195e+2, -1578079.8, -1639083.6, 123059.836, -0.03108263, -0.2363601, -1481798.1, 138907.83, 0.0, 10.000437, 9.999624 
7.450651e+2, 1.446185e+2, -1479006.3, -1520655.5, 39670.414, -0.041364588, -0.29986346, -1455026.8, 67687.65, 0.0, 10.000332, 9.999807 
7.4505746e+2, 1.5461846e+2, -1342718.6, -1402360.4, -6972.898, 0.15284468, -0.31769633, -1341914.3, 82799.22, 0.0, 10.000595, 9.999815 
7.4504775e+2, 1.646184e+2, -1290815.1, -1334527.0, -19364.025, 0.14744431, -0.29762036, -1283471.0, 43242.824, 0.0, 10.000303, 9.999764 
7.450361e+2, 1.7461812e+2, -1323343.5, -1294884.9, -28838.744, -0.026070219, -0.3243902, -1276956.0, -48238.074, 0.0, 9.999388, 9.9998045 
7.4502593e+2, 1.8461804e+2, -1272897.3, -1278206.0, 1600.5193, -0.083452255, -0.28350854, -1272452.0, -141732.02, 0.0, 9.999316, 9.999273 
7.450172e+2, 1.9461794e+2, -1043065.44, -1119133.1, 2422.7637, -0.025265422, -0.24176966, -1042988.4, -10265.814, 0.0, 10.00023, 9.99925 
7.4500805e+2, 2.046178e+2, -839208.44, -941306.25, 5960.6533, 0.021192377, -0.1880982, -838861.6, 95862.83, 0.0, 10.000842, 9.999498 
7.449987e+2, 2.1461748e+2, -702695.8, -824767.75, -1946.4827, 0.061131574, -0.19200999, -702664.8, 134062.73, 0.0, 10.001102, 9.999505 
7.4498916e+2, 2.2461683e+2, -714134.0, -843405.6, 33546.5, 0.021636238, -0.17705475, -705947.06, 32788.3, 0.0, 10.000618, 9.998942 
7.4497896e+2, 2.3461558e+2, -818010.2, -846264.6, -6763.9297, -0.12700307, -0.21595232, -816474.4, -175723.58, 0.0, 9.999235, 9.998922 
7.4496984e+2, 2.4461526e+2, -729909.7, -616947.75, -23268.916, -0.14966065, -0.19653043, -612342.4, -69588.95, 0.0, 9.998591, 10.000129 
7.4496186e+2, 2.5461572e+2, -582690.2, -491677.22, -3812.6492, -0.011883212, -0.18543279, -491517.78, -46774.492, 0.0, 9.99891, 10.000164 
7.4495274e+2, 2.646153e+2, -504797.72, -522125.6, -12225.965, 0.04820271, -0.19073465, -498477.06, -151732.4, 0.0, 9.999305, 9.9990835 
7.449422e+2, 2.7461353e+2, -334369.5, -391285.44, -30092.408, 0.016439004, -0.29163256, -321409.97, -72648.82, 0.00000017449423, 9.999811, 9.9990635 
7.449318e+2, 2.846128e+2, -248297.16, -285330.44, 31144.523, -0.057152197, -0.27648354, -230580.56, -79812.92, 0.0000070145306, 9.999666, 9.999187 
7.449218e+2, 2.946129e+2, -276390.13, -256404.22, 49113.75, -0.15374227, -0.21042241, -216277.13, -163512.13, 0.00004543542, 9.998825, 9.999118 
7.449137e+2, 3.0461064e+2, -254232.14, -326547.1, 2468.1494, 0.043453634, -0.29721564, -254148.0, -254148.0, 0.00014809403, 9.999114, 9.998167 
7.449028e+2, 3.1460816e+2, 103957.62, 79289.08, 4677.8994, 0.08662904, -0.3878135, 104814.9, 104814.9, 0.0003227844, 10.000512, 10.000279 
7.5508434e+2, 1.2463207e+2, -1664454.0, -1772166.8, -6058.8154, 0.1808037, -0.12255001, -1664114.3, 54470.473, 0.0, 10.000665, 9.999267 
7.5507516e+2, 1.3463084e+2, -1608864.6, -1706661.5, 118000.1, 0.07018032, -0.18402715, -1530032.6, 90562.9, 0.0, 10.000459, 9.999148 
7.550668e+2, 1.4462899e+2, -1525962.3, -1623299.0, 35286.906, 0.074982636, -0.27205867, -1514516.0, 8098.229, 0.0, 10.000351, 9.999097 
7.550574e+2, 1.5462977e+2, -1392361.3, -1501983.1, 12150.876, 0.057396352, -0.13459836, -1391030.5, 33578.58, 0.0, 10.000579, 9.999144 
7.550469e+2, 1.6462976e+2, -1290926.1, -1330235.6, -63280.234, 0.011385456, -0.079301305, -1244318.5, 82291.52, 0.0, 10.000283, 9.999805 
7.5503576e+2, 1.746287e+2, -1324358.5, -1294123.6, -54126.195, -0.022177145, -0.18415835, -1253043.4, -24423.98, 0.0, 9.999378, 9.999814 
7.5502604e+2, 1.8462797e+2, -1258092.8, -1241219.9, 24247.16, -0.023624927, -0.22193684, -1223983.4, -93357.9, 0.0, 9.999287, 9.999544 
7.5501776e+2, 1.946273e+2, -1033770.6, -1080990.5, 46845.363, -0.0037926694, -0.2625278, -1004921.9, 27708.592, 0.0, 10.000153, 9.999549 
7.55009e+2, 2.0462689e+2, -849220.4, -943009.06, 6210.5435, 0.008191274, -0.25366044, -848810.94, 85822.02, 0.0, 10.000752, 9.999536 
7.549995e+2, 2.146266e+2, -717822.8, -824006.6, 15548.924, 0.010993013, -0.25763005, -715592.75, 121041.625, 0.0, 10.000971, 9.999573 
7.5498974e+2, 2.2462608e+2, -788138.06, -968152.6, -23981.406, 0.004747448, -0.19461553, -784998.06, -46355.742, 0.0, 10.000498, 9.998143 
7.549794e+2, 2.3462506e+2, -896601.44, -978799.0, -48093.188, -0.025240934, -0.12563705, -874438.4, -233778.2, 0.0, 9.99911, 9.998072 
7.549697e+2, 2.4462436e+2, -686403.9, -511997.72, -22649.256, -0.037966598, -0.13464713, -509104.38, 33561.68, 0.0, 9.998525, 10.000883 
7.5496083e+2, 2.546237e+2, -533410.6, -375913.3, 17642.396, -0.026336392, -0.32212615, -373961.25, 70700.13, 0.0, 9.998848, 10.000991 
7.549515e+2, 2.6462314e+2, -518351.22, -541581.56, -1262.851, -0.02862697, -0.37667537, -518282.78, -171620.31, 0.0, 9.999271, 9.998965 
7.549415e+2, 2.7462256e+2, -359972.25, -424945.44, 1599.9973, -0.05038908, -0.34511697, -359932.88, -111261.4, 0.0000002213921, 9.999729, 9.998874 
7.549318e+2, 2.8462252e+2, -204649.45, -186678.66, -7319.8086, -0.044369195, -0.2785855, -184074.53, -33403.61, 0.000006961638, 9.999627, 9.999887 
7.5492245e+2, 2.9462272e+2, -231773.52, -147872.89, 29622.787, 0.0009159974, -0.2798288, -138468.19, -85804.23, 0.00004401986, 9.998749, 9.999907 
7.549139e+2, 3.0462e+2, -239191.22, -276974.25, 49461.406, 0.13378412, -0.47011417, -205136.34, -205136.34, 0.0001416952, 9.999045, 9.998533 
7.549013e+2, 3.1461865e+2, 74251.97, 33372.08, 107452.805, -0.16089797, -0.48148787, 163191.63, 163191.63, 0.00030699253, 10.000451, 9.999989 
7.650854e+2, 1.246421e+2, -1560583.3, -1773299.6, -35213.86, 0.18785596, -0.14131257, -1554905.4, 163580.05, 0.00000000032551553, 10.001541, 9.99885 
7.6507664e+2, 1.346413e+2, -1393468.1, -1628549.9, 48901.39, 0.10499343, -0.14350279, -1383701.5, 236791.47, 0.0, 10.0020075, 9.998947 
7.650685e+2, 1.4463936e+2, -1410398.6, -1597676.4, -5532.2446, 0.16859543, -0.21907145, -1410235.4, 112278.234, 0.0, 10.001269, 9.998835 
7.650575e+2, 1.5463918e+2, -1549872.9, -1609206.8, -18172.559, 0.07083609, -0.14773464, -1544749.4, -120230.85, 0.0, 9.999622, 9.998878 
7.6504666e+2, 1.646391e+2, -1413987.0, -1378941.5, -19297.504, 0.008671198, -0.0918989, -1370398.3, -43877.45, 0.0, 9.999403, 9.9998865 
7.650362e+2, 1.7463888e+2, -1108104.5, -1176354.8, -23890.324, 0.024005609, -0.1251325, -1100573.0, 127948.516, 0.0, 10.000814, 9.999922 
7.6502687e+2, 1.8463823e+2, -961125.0, -1084781.1, 67092.805, 0.03448968, -0.16694169, -931716.3, 198809.02, 0.0, 10.0012665, 9.999664 
7.6501834e+2, 1.9463679e+2, -959622.8, -1035411.6, 61447.46, 0.024526132, -0.29587573, -925324.56, 107210.59, 0.0, 10.000606, 9.999652 
7.6500946e+2, 2.0463614e+2, -936634.56, -996452.9, 26364.219, 0.014259926, -0.31424305, -926673.56, 7866.0195, 0.0, 10.000204, 9.999435 
7.6499987e+2, 2.1463606e+2, -852145.75, -906520.9, 5898.5127, -0.00044071683, -0.28389335, -851513.25, -14972.888, 0.0, 10.000105, 9.9994335 
7.6499003e+2, 2.246357e+2, -805680.44, -922890.25, -713.135, 0.012949096, -0.21975845, -805676.1, -67130.18, 0.0, 10.000162, 9.998611 
7.6497984e+2, 2.3463488e+2, -667018.2, -811592.25, 53945.01, 0.051688585, -0.18000025, -649108.3, -8549.761, 0.0, 10.00046, 9.998562 
7.649699e+2, 2.4463408e+2, -460094.7, -466993.8, 115786.91, 0.041878402, -0.19482593, -347705.97, 194859.28, 0.0, 10.000366, 10.000299 
7.6496017e+2, 2.5463313e+2, -436828.4, -396733.0, 29869.076, -0.022980412, -0.34895507, -380807.5, 63759.496, 0.0, 9.999818, 10.000374 
7.6495045e+2, 2.6463258e+2, -495975.25, -498489.88, -12000.764, -0.057601467, -0.38284406, -485166.13, -138596.64, 0.0, 9.999284, 9.999258 
7.6494074e+2, 2.7463236e+2, -477983.4, -442285.38, 8299.154, -0.0498049, -0.34859404, -440450.3, -191876.13, 0.00000016204108, 9.99875, 9.999225 
7.6493144e+2, 2.8463238e+2, -331534.44, -271362.4, 9978.436, 0.0008661977, -0.2846478, -269750.8, -119177.68, 0.000006290961, 9.998858, 9.999675 
7.649227e+2, 2.9463232e+2, -112736.7, -107297.945, -45536.445, 0.11045059, -0.2863805, -64399.75, -11830.574, 0.000041719115, 9.999653, 9.999742 
7.649143e+2, 3.046299e+2, -81649.695, -161137.06, -26337.693, 0.22508764, -0.463651, -73714.93, -73714.93, 0.00013461517, 9.99995, 9.998897 
7.649016e+2, 3.1462887e+2, -111165.34, -73215.19, 15379.812, -0.11418706, -0.4716433, -67765.02, -67765.02, 0.00029005748, 9.999263, 9.999824 
7.7508557e+2, 1.2464888e+2, -1564492.0, -1776948.8, -28905.877, -0.00649925, -0.38283247, -1560629.5, 157786.69, 0.00000000045588486, 10.001527, 9.998829 
7.7507764e+2, 1.3465098e+2, -1383195.5, -1607444.9, 65248.8, -0.023983544, -0.106174104, -1365592.1, 254805.53, 0.0, 10.002008, 9.999091 
7.7506983e+2, 1.4464962e+2, -1393998.3, -1563570.8, -81496.56, 0.14445601, -0.14243138, -1361181.8, 161230.8, 0.0, 10.0012665, 9.999072 
7.7505773e+2, 1.5464686e+2, -1533785.5, -1580304.5, -70369.164, 0.10413786, -0.35035214, -1482931.4, -58490.48, 0.0, 9.99964, 9.999069 
7.750467e+2, 1.6464654e+2, -1403675.0, -1355751.0, 19904.758, 0.052648924, -0.33451635, -1348562.1, -22117.04, 0.0, 9.999394, 10.00005 
7.7503735e+2, 1.7464875e+2, -1097833.9, -1149987.5, 39907.316, 0.028285578, -0.14365976, -1076238.9, 152184.77, 0.0, 10.000793, 10.0001135 
7.75028e+2, 1.8464893e+2, -970261.9, -1091892.9, 36716.95, 0.004823387, -0.11032937, -960037.5, 170381.39, 0.0, 10.001211, 9.999646 
7.750187e+2, 1.9464658e+2, -972896.2, -1043900.44, 44608.992, -0.026858842, -0.32838446, -951386.4, 81048.96, 0.0, 10.000524, 9.999634 
7.7500916e+2, 2.046456e+2, -971503.75, -1042919.1, 11833.122, -0.048052873, -0.3641033, -969594.1, -35150.668, 0.0, 10.0000925, 9.99917 
7.7499956e+2, 2.1464595e+2, -892065.75, -956849.7, 9889.529, -0.059176333, -0.2626622, -890589.7, -54145.15, 0.0, 9.999972, 9.999148 
7.7498984e+2, 2.2464584e+2, -704221.75, -685096.7, -685.3596, -0.03973213, -0.24066383, -685072.1, 53372.74, 0.0, 10.000042, 10.000305 
7.749802e+2, 2.3464492e+2, -557652.4, -560601.3, 74706.89, 0.014134674, -0.38845542, -484405.4, 156041.64, 0.0, 10.000352, 10.00034 
7.7497005e+2, 2.4464433e+2, -608630.75, -755572.2, 87004.766, 0.0003205912, -0.3804849, -568225.3, -25773.805, 0.0, 10.000284, 9.998357 
7.749595e+2, 2.5464404e+2, -595751.94, -708325.1, 19308.076, -0.08666275, -0.25955963, -592532.4, -148072.58, 0.0, 9.99974, 9.998272 
7.749493e+2, 2.6464364e+2, -450553.53, -398607.25, -40027.25, -0.114221126, -0.20268331, -376864.72, -30399.41, 0.0, 9.999253, 9.999962 
7.749394e+2, 2.7464283e+2, -428713.75, -327709.22, -2565.9873, -0.080568224, -0.30961058, -327644.06, -79173.36, 0.00000014054619, 9.998689, 10.000047 
7.749303e+2, 2.8464222e+2, -417855.38, -433859.6, 30283.86, -0.022622919, -0.30225056, -394534.25, -244058.44, 0.0000059856334, 9.998795, 9.998585 
7.7492225e+2, 2.9464167e+2, -200194.05, -281321.75, -1856.1621, 0.07406543, -0.23786919, -200151.6, -147669.2, 0.0000396548, 9.999619, 9.998561 
7.749145e+2, 3.0464014e+2, -59305.35, -108495.73, -55263.875, 0.23853149, -0.27702525, -23410.71, -23410.71, 0.00012692052, 9.999926, 9.999273 
7.749029e+2, 3.14639e+2, -142462.3, -117498.46, 25903.945, 0.04170459, -0.33707345, -101226.03, -101226.03, 0.00027215088, 9.999162, 9.99958 
7.8508794e+2, 1.2465764e+2, -1359208.4, -1659806.6, -86745.39, 0.020873778, -0.32660624, -1335971.9, 382362.4, 0.0000000009851104, 10.002877, 9.998974 
7.850791e+2, 1.3465916e+2, -1637043.4, -1696737.0, -48011.508, 0.021205585, -0.1360244, -1610357.5, 9963.998, 0.0, 10.00015, 9.999362 
7.850705e+2, 1.4465849e+2, -1622572.9, -1583815.0, -109389.78, 0.19312581, -0.15660298, -1492100.9, 30227.57, 0.0, 9.999316, 9.99987 
7.850575e+2, 1.5465699e+2, -1310927.3, -1383730.0, -72270.93, 0.06917282, -0.31781235, -1266408.0, 157933.73, 0.0, 10.000794, 9.999859 
7.8504664e+2, 1.6465686e+2, -1184141.8, -1295117.0, 49055.355, 0.026573803, -0.3034006, -1165566.5, 160776.55, 0.0, 10.001097, 9.99964 
7.8503853e+2, 1.7465805e+2, -1246992.3, -1272663.8, 325.235, 0.110412076, -0.16917843, -1246988.1, -18655.367, 0.0, 9.9999895, 9.999654 
7.8502953e+2, 1.8465793e+2, -1194308.8, -1198556.4, -16890.064, 0.11605086, -0.14430639, -1179409.5, -49078.1, 0.0, 9.999673, 9.99965 
7.8501946e+2, 1.9465603e+2, -1026133.3, -1064614.4, -23494.17, 0.021179693, -0.31783128, -1015006.5, 17336.396, 0.0, 10.000152, 9.999663 
7.850094e+2, 2.0465519e+2, -967896.0, -1056446.8, -39324.355, -0.031700745, -0.3363567, -952953.9, -18603.533, 0.0, 10.000188, 9.999029 
7.849995e+2, 2.146553e+2, -959973.3, -1005736.3, -50232.496, -0.033075314, -0.24421912, -927656.4, -91301.23, 0.0, 9.99958, 9.998999 
7.849898e+2, 2.2465514e+2, -745600.4, -671399.7, -55571.836, -0.029688759, -0.23426214, -641681.9, 96673.55, 0.0, 9.999601, 10.000612 
7.8498006e+2, 2.3465441e+2, -539765.75, -514747.56, -106856.11, -0.024963705, -0.3926599, -419670.88, 220681.84, 0.0, 10.000308, 10.000677 
7.849699e+2, 2.4465397e+2, -623152.75, -751427.44, -106913.266, -0.027234994, -0.394148, -562614.3, -20259.336, 0.0, 10.000137, 9.998452 
7.8495944e+2, 2.5465366e+2, -696089.06, -746099.9, -31863.543, -0.031163687, -0.286347, -680590.7, -236226.05, 0.0, 9.9990015, 9.998365 
7.8494924e+2, 2.6465335e+2, -492368.75, -425852.1, 27762.168, -0.028184326, -0.22227657, -415787.72, -69418.24, 0.0, 9.999006, 9.99989 
7.8493947e+2, 2.7465272e+2, -200161.5, -226993.98, -21205.246, -0.018751236, -0.29968807, -188484.75, 59887.395, 0.0000001311964, 10.000302, 9.999959 
7.849303e+2, 2.8465164e+2, -156566.19, -368932.9, 11142.92, 0.0057872855, -0.30783483, -155983.11, -5600.254, 0.0000058891046, 10.00084, 9.99805 
7.849222e+2, 2.9465017e+2, -124833.55, -308629.38, 5654.269, 0.07527949, -0.27977544, -124659.766, -72257.93, 0.000037489564, 10.00041, 9.997995 
7.8491414e+2, 3.0464956e+2, -61922.797, -106400.76, -47664.38, 0.21806905, -0.19825915, -31564.578, -31564.578, 0.00011865352, 9.999876, 9.9993105 
7.8490216e+2, 3.146496e+2, -148543.33, -94058.03, -21037.475, 0.06978509, -0.15972854, -86880.67, -86880.67, 0.0002544846, 9.998995, 9.999813 
7.95092e+2, 1.2466846e+2, -1336711.5, -1623446.1, -191031.61, 0.08359402, 0.013405723, -1241233.1, 477005.78, 0.0000000034592607, 10.002919, 9.999208 
7.950806e+2, 1.3466594e+2, -1600436.5, -1631806.1, -146486.0, 0.13427909, -0.23730524, -1468798.0, 151465.23, 0.0, 10.000202, 9.999781 
7.950703e+2, 1.4466603e+2, -1530496.1, -1394741.0, -71289.95, 0.21916199, -0.26707324, -1364182.6, 158077.52, 0.0, 9.999325, 10.001163 
7.9505664e+2, 1.5466957e+2, -1213169.1, -1183392.1, -4557.959, -0.12563166, -0.063133314, -1182710.0, 241511.13, 0.0, 10.000806, 10.001225 
7.950461e+2, 1.6467005e+2, -1258591.9, -1446699.3, 497.1314, -0.15853377, -0.008408491, -1258590.6, 67624.53, 0.0, 10.001079, 9.998614 
7.9503953e+2, 1.7466685e+2, -1321739.3, -1432487.6, -33200.87, 0.18808894, -0.20087714, -1312548.8, -84300.41, 0.0, 10.000002, 9.998554 
7.95031e+2, 1.8466526e+2, -1202980.5, -1199707.9, -9641.596, 0.28116986, -0.2672265, -1191564.8, -61302.25, 0.0, 9.999603, 9.999673 
7.9502034e+2, 1.946652e+2, -1028484.8, -1056592.0, 4267.8315, 0.0697517, -0.26752913, -1027851.06, 4406.7456, 0.0, 10.000098, 9.99974 
7.9500985e+2, 2.0466489e+2, -983838.25, -1065741.6, -70767.39, -0.0284312, -0.23391837, -943027.7, -8767.77, 0.0, 10.000086, 9.999015 
7.949996e+2, 2.1466401e+2, -977893.2, -1016253.44, -64341.813, -0.0026145608, -0.24024606, -929933.56, -93660.805, 0.0, 9.999466, 9.998982 
7.949894e+2, 2.2466359e+2, -841663.5, -839245.25, -37745.98, -0.03908043, -0.20390484, -802689.06, -64411.465, 0.0, 9.999466, 9.999523 
7.949793e+2, 2.3466349e+2, -634078.3, -689260.0, -69929.69, -0.15259665, -0.18812858, -586493.25, 53781.96, 0.0, 10.000212, 9.999526 
7.9496926e+2, 2.4466304e+2, -482416.0, -440886.75, -157941.11, -0.12991251, -0.23570344, -302351.16, 239924.5, 0.0, 10.000059, 10.000623 
7.949594e+2, 2.5466192e+2, -550065.3, -421458.8, -65304.945, 0.048828527, -0.43332207, -394112.5, 50169.37, 0.0, 9.998907, 10.000641 
7.949498e+2, 2.646616e+2, -557968.0, -555807.25, 64856.03, 0.11267196, -0.44532233, -492022.6, -145740.02, 0.0, 9.998972, 9.999017 
7.9494053e+2, 2.74662e+2, -277166.4, -379354.38, 40761.773, 0.041059755, -0.32327303, -262898.97, -14619.668, 0.000000103459534, 10.000266, 9.998933 
7.949314e+2, 2.8466076e+2, -155884.48, -362787.25, -10725.16, 0.004465198, -0.29552296, -155330.02, -5035.973, 0.0000054454867, 10.000822, 9.9981 
7.949221e+2, 2.9465774e+2, -130995.484, -305506.88, 4950.6904, -0.0013927706, -0.42869198, -130855.16, -78526.625, 0.00003447301, 10.000341, 9.998052 
7.949125e+2, 3.0465817e+2, -84916.41, -149726.13, -82873.414, 0.05005127, -0.23746124, -28337.68, -28337.68, 0.0001104858, 9.999848, 9.999026 
7.948987e+2, 3.1465963e+2, -131490.98, -41481.133, -15621.549, -0.233261, -0.024974197, -38847.04, -38847.04, 0.000240168, 9.998911, 10.000219 
8.0509424e+2, 1.2467805e+2, -1765358.9, -1775489.1, -34838.22, 0.18893825, 0.03662219, -1735219.5, -17070.69, 0.0000000057252847, 9.999766, 9.999688 
8.05081e+2, 1.3467611e+2, -1500885.0, -1543947.4, -45719.117, 0.13240051, -0.1936869, -1471880.8, 148285.11, 0.0, 10.000704, 10.000161 
8.0507004e+2, 1.4467648e+2, -1305884.8, -1334409.8, 47299.734, 0.17950477, -0.19199659, -1270744.0, 251415.89, 0.0, 10.00108, 10.00073 
8.0505764e+2, 1.5467939e+2, -1215392.3, -1242223.9, -47512.11, -0.10953294, -0.0018134421, -1179438.3, 244690.3, 0.0, 10.001036, 10.000714 
8.0504763e+2, 1.6467942e+2, -1227912.5, -1428073.4, -89146.945, -0.1193106, 0.0336516, -1193965.8, 132161.27, 0.0, 10.001276, 9.998652 
8.0504066e+2, 1.7467606e+2, -1055903.1, -1300818.0, -57127.832, 0.21434173, -0.17910393, -1043233.2, 184927.8, 0.0, 10.001817, 9.998589 
8.050317e+2, 1.8467462e+2, -943572.2, -1062111.5, 15463.769, 0.31183976, -0.23633489, -941588.1, 188585.67, 0.0, 10.001337, 9.999781 
8.0502063e+2, 1.9467515e+2, -1096484.9, -1083545.9, 10332.204, 0.12556866, -0.18559843, -1077824.9, -45659.875, 0.0, 9.999602, 9.999802 
8.0501e+2, 2.0467484e+2, -1058273.5, -1091781.0, -1596.5181, 0.018851843, -0.15852514, -1058197.5, -124030.54, 0.0, 9.999528, 9.99911 
8.0499995e+2, 2.1467333e+2, -711531.75, -875133.7, -6864.6616, 0.004852292, -0.23650257, -711244.25, 124939.7, 0.0, 10.001245, 9.999094 
8.0498976e+2, 2.2467278e+2, -600608.8, -723581.5, 32050.795, -0.026819807, -0.21939893, -592756.7, 145432.8, 0.0, 10.001131, 9.999509 
8.0497944e+2, 2.346731e+2, -828415.44, -783466.25, 65660.21, -0.08375958, -0.1580189, -736540.75, -96357.04, 0.0, 9.998895, 9.999506 
8.0496925e+2, 2.446729e+2, -708046.9, -541459.44, -1076.0518, -0.052088037, -0.1832847, -541452.44, 729.8101, 0.0, 9.998464, 10.000707 
8.0495924e+2, 2.5467178e+2, -379760.9, -330533.25, -92157.68, 0.09085829, -0.39168474, -259759.03, 184429.6, 0.0, 10.000027, 10.000736 
8.049497e+2, 2.6467133e+2, -364448.3, -488917.88, -3253.1787, 0.1378753, -0.4121424, -364363.34, -18172.598, 0.0, 10.000415, 9.998779 
8.049408e+2, 2.7467135e+2, -396976.03, -461172.06, 11181.776, 0.07925265, -0.30126983, -395084.13, -146893.38, 0.00000004701224, 9.999539, 9.998718 
8.0493146e+2, 2.8467023e+2, -383136.75, -435626.88, 6966.4824, 0.02276583, -0.26880118, -382227.88, -232023.53, 0.000004093495, 9.99911, 9.998424 
8.0492157e+2, 2.9466766e+2, -269265.53, -333657.75, 18157.668, -0.029915884, -0.39401737, -264498.28, -212264.05, 0.000029631305, 9.999227, 9.998393 
8.0491155e+2, 3.0466783e+2, -181165.61, -194870.38, -41712.71, 0.007306897, -0.24136825, -145746.19, -145746.19, 0.00010221737, 9.999201, 9.999035 
8.0489796e+2, 3.1466913e+2, -91918.55, 47624.953, 21375.582, -0.1860775, -0.04598882, 50825.89, 50825.89, 0.00023173695, 9.998916, 10.000828 
8.150941e+2, 1.24686755e+2, -1722019.0, -1703778.0, -11611.217, 0.14761077, -0.23175438, -1698133.5, 19927.521, 0.000000004999778, 9.999839, 10.000149 
8.1507975e+2, 1.3468967e+2, -1468160.3, -1486999.6, -5824.678, -0.0796852, -0.013032536, -1466504.9, 153524.6, 0.0, 10.000755, 10.000522 
8.150694e+2, 1.4468989e+2, -1463845.4, -1666216.3, 34018.125, -0.02005643, 0.06469402, -1458280.0, 63747.29, 0.0, 10.001093, 9.998449 
8.150602e+2, 1.5468657e+2, -1376055.6, -1576153.6, -38514.29, 0.016788462, -0.13044173, -1368898.5, 55164.184, 0.0, 10.001041, 9.998419 
8.150508e+2, 1.6468516e+2, -1159391.5, -1279867.8, -79956.33, 0.04727083, -0.17075622, -1119521.5, 206555.73, 0.0, 10.001249, 9.9996805 
8.150415e+2, 1.7468569e+2, -977301.3, -1132569.3, -26914.982, 0.09449403, -0.113235734, -972768.06, 255302.36, 0.0, 10.001797, 9.99975 
8.1503135e+2, 1.8468602e+2, -946095.94, -1053751.4, -54703.977, 0.11963974, -0.05746642, -923177.7, 206887.48, 0.0, 10.001273, 9.999872 
8.150202e+2, 1.9468589e+2, -1099630.3, -1078346.0, -44681.56, 0.09972167, -0.07683028, -1043056.7, -10992.636, 0.0, 9.999549, 9.999864 
8.1500983e+2, 2.0468508e+2, -1066625.0, -1083152.6, 48760.94, 0.03027108, -0.1088769, -1025432.56, -91361.81, 0.0, 9.999414, 9.999226 
8.1500036e+2, 2.1468328e+2, -719047.44, -863926.3, 67384.164, -0.096133605, -0.2313199, -692552.06, 143536.25, 0.0, 10.001128, 9.999227 
8.149905e+2, 2.2468269e+2, -542892.7, -572969.7, -58018.684, -0.080892295, -0.27531493, -497995.2, 240095.45, 0.0, 10.0009985, 10.000609 
8.149802e+2, 2.3468323e+2, -766076.8, -626925.8, -9329.549, 0.08758784, -0.30798778, -626303.1, 13775.493, 0.0, 9.9987755, 10.00064 
8.149696e+2, 2.446835e+2, -865826.94, -844428.7, 44774.547, 0.120769985, -0.24461839, -809092.7, -267017.4, 0.0, 9.998361, 9.998676 
8.1495863e+2, 2.546833e+2, -542319.0, -649689.94, -24184.633, 0.00858743, -0.14738972, -537123.0, -93039.055, 0.0, 9.999949, 9.998581 
8.149486e+2, 2.646825e+2, -334701.78, -418807.94, -42420.203, -0.03409559, -0.11427302, -317022.66, 29070.81, 0.0, 10.000381, 9.999275 
8.149397e+2, 2.7468082e+2, -375118.75, -386766.94, -10222.753, -0.008733758, -0.23098056, -369177.44, -121071.16, 0.000000004527389, 9.999424, 9.999284 
8.149302e+2, 2.8467998e+2, -347026.7, -353081.22, -478.84186, -0.03833699, -0.22583602, -346989.06, -196874.92, 0.0000024308686, 9.999069, 9.999012 
8.149202e+2, 2.9468e+2, -245995.44, -266167.1, 32898.223, -0.11860455, -0.15416038, -221671.72, -169553.73, 0.00002455122, 9.9991455, 9.998896 
8.1491095e+2, 3.0467868e+2, -158760.53, -150875.39, -57478.926, 0.0037251122, -0.18400802, -97203.98, -97203.98, 0.00009685274, 9.999208, 9.9993305 
8.148992e+2, 3.1467718e+2, -52485.164, 156106.61, 45981.44, 0.0020163704, -0.3034948, 165792.84, 165792.84, 0.00023260323, 9.998803, 10.001629 
8.250942e+2, 1.24697365e+2, -1589267.4, -1678473.5, 18220.72, 0.13839923, -0.24023813, -1585689.1, 132266.55, 0.0000000017683296, 10.000887, 9.999814 
8.2508063e+2, 1.3469999e+2, -1267230.3, -1450773.0, -84597.87, -0.143318, -0.007392333, -1234186.6, 385741.25, 0.0, 10.002378, 9.9999895 
8.250706e+2, 1.446998e+2, -1308370.3, -1618984.1, -50925.887, -0.06429479, 0.071582735, -1300233.9, 221696.02, 0.0, 10.002286, 9.998194 
8.25062e+2, 1.5469566e+2, -1461575.6, -1649737.3, 4009.3684, 0.11868727, -0.1796468, -1461490.3, -37516.215, 0.0, 10.000595, 9.998125 
8.2505226e+2, 1.6469434e+2, -1341082.5, -1306718.6, 84150.016, 0.15003702, -0.22323409, -1238014.4, 87973.31, 0.0, 9.999745, 10.000214 
8.2504165e+2, 1.7469604e+2, -1229957.9, -1197425.4, 72560.66, 0.03331308, -0.10147092, -1139330.1, 88638.18, 0.0, 9.999808, 10.000264 
8.2503116e+2, 1.8469676e+2, -1152135.9, -1188407.6, -10809.468, 0.04763151, -0.018466711, -1149158.9, -19198.621, 0.0, 10.000015, 9.999551 
8.2502097e+2, 1.9469608e+2, -1013768.75, -1075799.6, -53392.414, 0.18928063, -0.05684649, -983037.06, 48930.44, 0.0, 10.000315, 9.999506 
8.2501054e+2, 2.046953e+2, -973786.25, -998313.94, 85628.34, 0.14208859, -0.08565189, -899548.0, 34426.695, 0.0, 9.999888, 9.999568 
8.249999e+2, 2.1469422e+2, -1064899.0, -992756.75, 101470.54, -0.115004376, -0.1712976, -921136.7, -85153.51, 0.0, 9.99859, 9.999564 
8.249899e+2, 2.2469373e+2, -894320.2, -757071.7, -59805.26, -0.11615543, -0.21786164, -734668.7, 3315.3286, 0.0, 9.998639, 10.000492 
8.249804e+2, 2.3469362e+2, -572723.1, -549164.0, -127713.75, 0.16982916, -0.29961544, -432687.75, 207291.28, 0.0, 10.000162, 10.000515 
8.2496995e+2, 2.4469362e+2, -566039.7, -761278.8, -17620.088, 0.21641964, -0.23175427, -564462.25, -22482.697, 0.0, 10.000689, 9.998125 
8.249585e+2, 2.5469357e+2, -548324.25, -710830.7, 14962.914, -0.004211162, -0.06489147, -546958.06, -102969.83, 0.0, 10.0001745, 9.998049 
8.2494825e+2, 2.6469272e+2, -421664.78, -446916.4, 17962.295, -0.07243771, -0.013678073, -412334.84, -66335.87, 0.0, 9.9997225, 9.999403 
8.249393e+2, 2.7469078e+2, -383608.78, -374560.66, -1835.308, 0.030904634, -0.17435414, -374202.56, -126187.625, 0.0, 9.999289, 9.999435 
8.2492965e+2, 2.846903e+2, -342637.97, -295379.44, 29222.066, 0.016007293, -0.1671086, -281428.5, -131410.13, 0.000001518397, 9.99887, 9.999503 
8.24919e+2, 2.9469112e+2, -311271.28, -238892.28, 34715.09, -0.107800774, -0.06138378, -224933.83, -172922.81, 0.000022026383, 9.9984455, 9.99942 
8.2490975e+2, 3.0468896e+2, -233752.98, -161880.52, -20099.223, 0.0036036253, -0.21382582, -156641.61, -156641.61, 0.00009707927, 9.998583, 9.999547 
8.248994e+2, 3.1468675e+2, 25951.55, 203005.92, 44359.582, 0.12440094, -0.4338635, 213498.11, 213498.11, 0.00024343694, 9.999283, 10.00171 
8.35094e+2, 1.2470985e+2, -1664822.1, -1834875.4, 53390.605, -0.026015185, -0.0035701334, -1649449.1, 68384.2, 0.000000000051048894, 10.000891, 9.998739 
8.350832e+2, 1.3470724e+2, -1343147.9, -1613997.4, -18700.666, -0.15029329, -0.17106579, -1341862.9, 277995.97, 0.0, 10.002407, 9.998853 
8.3507323e+2, 1.4470653e+2, -1200738.0, -1395163.5, -122845.95, -0.05811665, -0.1639152, -1141293.6, 380571.7, 0.0, 10.002281, 9.999733 
8.3506256e+2, 1.5470669e+2, -1343231.1, -1405432.4, -50325.773, 0.09152049, -0.15349089, -1315171.5, 108691.13, 0.0, 10.0006, 9.999797 
8.3505166e+2, 1.647069e+2, -1347270.3, -1307738.1, 74821.625, 0.09682375, -0.13010979, -1250115.8, 75743.34, 0.0, 9.999698, 10.000232 
8.350408e+2, 1.7470723e+2, -1233285.1, -1199547.5, 87119.18, -0.049281932, -0.13985306, -1127679.0, 100174.77, 0.0, 9.999797, 10.000253 
8.3503115e+2, 1.8470694e+2, -1211209.5, -1305748.8, -11010.351, 0.014136411, -0.11550118, -1209944.1, -80086.13, 0.0, 9.999988, 9.998764 
8.350226e+2, 1.9470568e+2, -1077500.9, -1191691.3, -32382.285, 0.30053785, -0.1373277, -1068957.1, -37081.2, 0.0, 10.000244, 9.998746 
8.350118e+2, 2.0470545e+2, -954598.6, -930880.6, 28249.361, 0.26224267, -0.09595478, -912102.0, 21777.184, 0.0, 9.999765, 10.000091 
8.349985e+2, 2.1470618e+2, -1041484.2, -916881.94, 62302.85, -0.14320527, -0.058686096, -891074.75, -55206.367, 0.0, 9.998474, 10.000136 
8.3498776e+2, 2.2470592e+2, -1007247.56, -964316.1, -16705.008, -0.21535148, -0.045818802, -958582.0, -220712.98, 0.0, 9.998517, 9.99913 
8.3497983e+2, 2.3470435e+2, -687297.1, -765738.0, -60379.582, 0.0774019, -0.13247606, -654518.0, -14633.496, 0.0, 10.000063, 9.999078 
8.349702e+2, 2.447033e+2, -507709.1, -624494.9, -44288.625, 0.14710312, -0.14266361, -492813.44, 49081.13, 0.0, 10.000618, 9.999099 
8.3495855e+2, 2.5470254e+2, -487613.47, -568232.25, 7098.0063, -0.034249496, -0.14808434, -486993.3, -43092.063, 0.0, 10.000097, 9.999066 
8.3494824e+2, 2.6470196e+2, -447659.4, -485052.63, -5254.829, -0.05636785, -0.11481473, -446934.97, -101027.41, 0.0, 9.999657, 9.999173 
8.349396e+2, 2.7470133e+2, -415235.4, -422099.0, -4932.184, 0.10232575, -0.115431905, -412658.6, -164743.16, 0.0, 9.999213, 9.9991455 
8.349295e+2, 2.8470117e+2, -317833.25, -235378.97, 4748.348, 0.09591192, -0.080291346, -235106.42, -85190.53, 0.0000012583888, 9.998835, 9.999931 
8.349178e+2, 2.94701e+2, -296108.16, -182278.52, 31120.527, -0.09553454, -0.11512052, -174325.89, -122412.875, 0.000022671806, 9.998341, 9.999862 
8.3490765e+2, 3.046985e+2, -226194.69, -140457.14, 2505.6067, -0.08646017, -0.336716, -140383.98, -140383.98, 0.0001036696, 9.998554, 9.999712 
8.348976e+2, 3.1469914e+2, -31912.455, 101821.46, 113709.14, -0.038937844, -0.27796984, 166867.2, 166867.2, 0.0002623637, 9.99921, 10.001051 
8.4509516e+2, 1.24720186e+2, -1408499.9, -1685474.6, 66596.414, -0.07109892, 0.023904324, -1393319.3, 324412.4, 0.0, 10.00256, 9.998958 
8.450856e+2, 1.3471681e+2, -1648189.5, -1758683.0, 39235.133, -0.039131626, -0.21928431, -1635674.9, -15909.631, 0.0, 10.000322, 9.998862 
8.450752e+2, 1.4471635e+2, -1522526.4, -1481798.0, -16650.42, 0.044768214, -0.21528661, -1475857.5, 45911.324, 0.0, 9.9997835, 10.000337 
8.450632e+2, 1.5471806e+2, -1175818.0, -1259160.3, -44003.105, 0.06757617, -0.11135117, -1156885.9, 266863.44, 0.0, 10.00147, 10.000383 
8.450518e+2, 1.6471857e+2, -1091013.4, -1224082.5, 20131.37, 0.057092514, -0.07254568, -1088034.5, 237708.5, 0.0, 10.001622, 9.999884 
8.450413e+2, 1.7471768e+2, -1250225.9, -1252245.3, -14767.989, 0.017684774, -0.16393416, -1236433.1, -8681.344, 0.0, 9.999869, 9.999861 
8.450315e+2, 1.8471722e+2, -1257705.4, -1285196.9, -10807.442, 0.087028384, -0.15841687, -1253965.5, -124206.83, 0.0, 9.999487, 9.99914 
8.450226e+2, 1.947169e+2, -993397.4, -1114206.5, 37270.2, 0.26632145, -0.121991105, -982824.6, 48941.83, 0.0, 10.00065, 9.999087 
8.450117e+2, 2.04717e+2, -803811.94, -865386.5, 72065.59, 0.23299098, -0.063282706, -756232.75, 177533.64, 0.0, 10.000832, 10.000031 
8.449986e+2, 2.147173e+2, -852979.75, -839246.25, 32294.385, -0.035952516, -0.05661984, -813096.7, 22663.236, 0.0, 9.999822, 10.000028 
8.449878e+2, 2.2471686e+2, -892652.5, -943592.44, 62844.555, -0.10024391, -0.03931253, -850312.75, -112549.766, 0.0, 9.999471, 9.998798 
8.449795e+2, 2.3471549e+2, -742572.94, -825938.44, 79419.73, 0.060022138, -0.074290186, -694562.06, -54784.24, 0.0, 9.999853, 9.998751 
8.449699e+2, 2.447142e+2, -596614.56, -635639.06, 78552.16, 0.09969953, -0.104027405, -535187.5, 6602.097, 0.0, 9.99987, 9.999381 
8.449586e+2, 2.547127e+2, -562873.4, -566231.94, 51417.08, 0.0060481685, -0.21483076, -513108.2, -69307.19, 0.0, 9.999425, 9.999395 
8.449484e+2, 2.64712e+2, -504586.34, -540822.4, 49183.523, 0.009150357, -0.19840068, -470289.84, -124481.74, 0.0, 9.999387, 9.998916 
8.449394e+2, 2.74712e+2, -341234.03, -412409.4, 31937.674, 0.13556659, -0.10864623, -329004.38, -81192.586, 0.0000000050987805, 9.999835, 9.998909 
8.449294e+2, 2.8471196e+2, -168031.4, -204833.2, 23318.914, 0.1498594, -0.035355464, -156727.67, -6914.842, 0.0000017149706, 10.0000305, 9.999567 
8.4491813e+2, 2.9471117e+2, -94495.85, -116598.016, -31500.22, 0.03949435, -0.09900001, -72164.445, -20347.861, 0.0000255943, 9.999851, 9.999582 
8.449072e+2, 3.0470872e+2, -83034.79, -82509.61, -55828.504, -0.02122075, -0.30196875, -26943.078, -26943.078, 0.000114907256, 9.999587, 9.99962 
8.4489626e+2, 3.1470925e+2, -103617.0, -11301.496, 6510.966, -0.07716613, -0.2373247, -10844.542, -10844.542, 0.00028673265, 9.999033, 10.000372 
8.550971e+2, 1.2472887e+2, -1324437.3, -1509470.3, -43705.813, -0.18352836, -0.1251171, -1314633.1, 403012.8, 0.0, 10.002552, 10.000172 
8.550874e+2, 1.347287e+2, -1575834.4, -1604386.0, -41092.227, 0.087901495, -0.15493509, -1546608.8, 73038.49, 0.0, 10.000319, 9.999916 
8.550763e+2, 1.4472926e+2, -1540106.9, -1526752.6, 31700.43, 0.14348143, -0.08703492, -1501033.8, 20607.086, 0.0, 9.999806, 10.000024 
8.5506386e+2, 1.5472986e+2, -1195713.5, -1306123.4, 35102.14, -0.048941795, -0.0585686, -1185498.6, 238134.73, 0.0, 10.0014925, 10.000049 
8.5505253e+2, 1.6472942e+2, -1151603.3, -1344158.3, -53414.17, -0.05480882, -0.055107605, -1137778.9, 187859.84, 0.0, 10.001595, 9.999075 
8.550426e+2, 1.7472748e+2, -1306078.8, -1364070.6, -72314.53, 0.14424652, -0.17767182, -1257163.5, -29501.9, 0.0, 9.999853, 9.999099 
8.55032e+2, 1.8472762e+2, -1160500.0, -1074042.3, 22077.414, 0.16925578, -0.14362644, -1068730.9, 60930.582, 0.0, 9.999439, 10.000616 
8.550208e+2, 1.9472991e+2, -889183.94, -890097.06, 90709.984, -0.006847841, -0.002027873, -798929.4, 232708.67, 0.0, 10.000612, 10.000645 
8.5501015e+2, 2.047301e+2, -866827.4, -979212.1, 25655.162, -0.025431387, 0.023190526, -861247.9, 72386.96, 0.0, 10.000751, 9.999295 
8.550002e+2, 2.1472763e+2, -920988.1, -956521.3, 5060.0083, 0.12483747, -0.16866495, -920281.6, -84624.22, 0.0, 9.999712, 9.999278 
8.549899e+2, 2.2472657e+2, -868309.06, -857980.9, 66762.72, 0.14529723, -0.20782454, -796182.8, -58516.926, 0.0, 9.999323, 9.999457 
8.549793e+2, 2.3472698e+2, -708406.9, -729917.9, 105168.484, 0.026178265, -0.13504851, -613445.4, 26214.225, 0.0, 9.999745, 9.999461 
8.549688e+2, 2.447263e+2, -639700.0, -704353.5, 52683.086, -0.011073185, -0.11921599, -610216.3, -68551.35, 0.0, 9.99978, 9.998955 
8.549586e+2, 2.5472406e+2, -608482.8, -640554.44, 43494.613, 0.040163923, -0.26141664, -578162.06, -134474.81, 0.0, 9.999332, 9.998933 
8.5494846e+2, 2.647228e+2, -530105.75, -577473.56, 55292.113, 0.0598562, -0.2622388, -493638.63, -147937.72, 0.0, 9.999317, 9.9987 
8.5493845e+2, 2.747227e+2, -371013.47, -453357.47, 61157.5, 0.039619982, -0.16480583, -338460.47, -90755.08, 0.0000001292932, 9.999747, 9.998673 
8.54929e+2, 2.8472257e+2, -252171.89, -363708.06, 11114.229, 0.08240829, -0.03262371, -251075.17, -101365.52, 0.0000031613251, 9.9999695, 9.998502 
8.549198e+2, 2.947218e+2, -180034.98, -279568.06, -26218.006, 0.19011, 0.014003991, -173551.27, -121831.09, 0.000030116835, 9.999791, 9.998491 
8.5490835e+2, 3.0471954e+2, -108773.68, -126770.945, -83704.84, 0.1095391, -0.09713485, -33585.16, -33585.16, 0.0001273879, 9.999558, 9.999329 
8.5489494e+2, 3.147177e+2, -195929.9, -163771.86, 4432.1826, -0.15865014, -0.23106281, -163172.17, -163172.17, 0.00031292601, 9.998879, 9.999399 
8.6509913e+2, 1.24739625e+2, -1765339.5, -1690987.6, 69718.86, -0.06809881, -0.221953, -1649152.4, 68387.016, 0.00000000000000000000885557, 9.999384, 10.000448 
8.650878e+2, 1.3474101e+2, -1515607.6, -1558106.4, -21488.885, 0.09186394, -0.11858324, -1506636.0, 112888.92, 0.0, 10.000626, 10.000095 
8.6507607e+2, 1.4474158e+2, -1424998.6, -1489513.0, 79818.54, 0.10441841, -0.05290761, -1371165.6, 150352.73, 0.0, 10.000687, 9.999854 
8.6506456e+2, 1.5474087e+2, -1485879.8, -1472989.5, 72556.93, -0.024497923, -0.1294969, -1406592.0, 16931.51, 0.0, 9.999611, 9.999821 
8.6505365e+2, 1.647401e+2, -1470704.9, -1512740.0, 10735.419, 0.00775521, -0.14134738, -1468121.8, -142588.92, 0.0, 9.999477, 9.998923 
8.650434e+2, 1.7473896e+2, -1229487.5, -1350125.6, 13787.638, 0.21456431, -0.16804604, -1227931.8, -382.3308, 0.0, 10.000472, 9.998893 
8.6503214e+2, 1.8473935e+2, -1038188.8, -1000876.4, 104756.266, 0.20583348, -0.10348515, -913128.06, 216419.16, 0.0, 10.000232, 10.000729 
8.6501986e+2, 1.9474134e+2, -1179073.3, -1014721.6, 50294.25, -0.052771736, -0.0016053485, -1000552.4, 30973.209, 0.0, 9.998578, 10.000758 
8.650094e+2, 2.0474131e+2, -1200688.0, -1160149.5, -11643.35, -0.05883579, 0.005894734, -1157043.4, -223518.97, 0.0, 9.998559, 9.999097 
8.6500096e+2, 2.1473879e+2, -856648.9, -949149.06, -12159.546, 0.20696957, -0.17518125, -855077.1, -19528.35, 0.0, 10.000271, 9.999049 
8.649907e+2, 2.2473761e+2, -655271.56, -725221.4, 50460.14, 0.23498096, -0.2272531, -628850.5, 108707.516, 0.0, 10.000644, 9.999742 
8.649786e+2, 2.3473784e+2, -726454.75, -706603.5, 40611.25, 0.0073901387, -0.20031878, -674722.56, -35171.246, 0.0, 9.9994755, 9.999758 
8.649679e+2, 2.4473752e+2, -724900.7, -767445.75, 21525.396, -0.054883435, -0.15490599, -715910.0, -174356.08, 0.0, 9.999302, 9.998743 
8.649586e+2, 2.5473624e+2, -483057.47, -603433.25, 9306.778, 0.06081386, -0.17609446, -482342.16, -38772.13, 0.0, 10.000307, 9.998713 
8.6494863e+2, 2.6473507e+2, -353885.16, -472840.75, 48420.227, 0.091499, -0.1671817, -336667.94, 8915.419, 0.0000000005766255, 10.000436, 9.998877 
8.64938e+2, 2.7473396e+2, -375960.34, -434267.5, 63205.01, 0.036148895, -0.19080895, -335509.28, -87914.57, 0.000000514823, 9.999613, 9.998868 
8.6492854e+2, 2.847334e+2, -373968.1, -467057.8, 85175.33, 0.08291718, -0.088186145, -323449.78, -173846.73, 0.0000054394536, 9.999313, 9.998119 
8.649201e+2, 2.9473314e+2, -233310.58, -343655.2, 85402.15, 0.25615615, 0.04514211, -186809.34, -135196.58, 0.000035908153, 9.999587, 9.998156 
8.649084e+2, 3.04732e+2, -106233.49, -153960.67, 59395.473, 0.16218948, 0.07385141, -66086.98, -66086.98, 0.00014004746, 9.999698, 9.9990635 
8.6489445e+2, 3.1472984e+2, -162724.53, -164965.25, 106718.53, -0.09711869, -0.073402755, -57120.477, -57120.477, 0.00033713353, 9.999197, 9.999217 
8.7510026e+2, 1.2475266e+2, -1797834.4, -1774255.0, 85657.21, 0.059428625, -0.24100697, -1699580.0, 17829.703, 0.0000000055054987, 9.999442, 9.999848 
8.750866e+2, 1.3475388e+2, -1551139.0, -1630173.4, 34104.207, -0.11633312, -0.107025884, -1538457.5, 80939.58, 0.0, 10.000625, 9.999594 
8.750744e+2, 1.4475343e+2, -1435930.0, -1515930.5, 28834.05, -0.16011883, -0.10628449, -1426620.9, 94778.87, 0.0, 10.000699, 9.999668 
8.7506515e+2, 1.5475123e+2, -1495028.1, -1489283.5, 42267.45, 0.04628698, -0.3221624, -1449790.9, -26372.285, 0.0, 9.99961, 9.999703 
8.750548e+2, 1.6475075e+2, -1438223.4, -1449987.9, 36692.57, 0.14442246, -0.31981868, -1406944.5, -81520.445, 0.0, 9.999486, 9.999356 
8.750434e+2, 1.7475218e+2, -1196199.1, -1285143.6, 60781.73, 0.14329019, -0.130065, -1165357.4, 62057.254, 0.0, 10.000486, 9.999333 
8.7503165e+2, 1.8475254e+2, -1131038.1, -1188283.0, 35492.027, 0.1127878, -0.030663125, -1114065.3, 15349.294, 0.0, 10.000206, 9.999457 
8.750196e+2, 1.9475123e+2, -1274602.0, -1203090.4, -2109.0056, 0.042949725, -0.12856553, -1203028.3, -171599.34, 0.0, 9.998532, 9.999489 
8.7500924e+2, 2.0475067e+2, -1197924.1, -1129160.9, 40809.047, 0.045614585, -0.12524253, -1110180.8, -176745.53, 0.0, 9.998449, 9.999364 
8.7500054e+2, 2.1475077e+2, -850776.9, -911487.8, 61010.008, 0.12357334, -0.07284947, -812987.8, 22446.002, 0.0, 10.000159, 9.999361 
8.7499005e+2, 2.2475001e+2, -679102.06, -747776.7, -1264.2078, 0.089486, -0.09251396, -679078.75, 58359.883, 0.0, 10.000526, 9.999643 
8.749774e+2, 2.3474811e+2, -751677.25, -728140.8, 6183.609, -0.07356943, -0.270801, -726615.1, -87162.45, 0.0, 9.999343, 9.999672 
8.749668e+2, 2.4474785e+2, -741330.94, -780222.0, 47486.09, -0.11292885, -0.21318884, -709463.2, -168007.03, 0.0, 9.999205, 9.998706 
8.749582e+2, 2.5474924e+2, -501580.2, -616406.56, 58341.848, -0.024757458, 0.037892886, -477139.56, -33689.957, 0.0, 10.000198, 9.998675 
8.7494856e+2, 2.6474875e+2, -319762.97, -393251.2, 10154.919, 0.023808774, 0.08587394, -318385.53, 27070.445, 0.0000000691861, 10.000395, 9.999445 
8.7493783e+2, 2.7474582e+2, -347215.1, -355022.0, 42470.81, 0.028028911, -0.17491853, -308468.75, -60989.176, 0.000001269736, 9.99953, 9.999452 
8.7492794e+2, 2.847447e+2, -347183.25, -406364.44, 83472.57, 0.06803772, -0.18474008, -288211.6, -138719.97, 0.000008255043, 9.999286, 9.998553 
8.7491876e+2, 2.947452e+2, -213439.36, -288242.47, 109219.03, 0.13895759, -0.011876935, -135395.36, -83900.99, 0.000042714033, 9.999522, 9.998571 
8.7490714e+2, 3.047461e+2, -129514.17, -187533.72, 42488.49, 0.048868924, 0.20821637, -107076.51, -107076.51, 0.00015286829, 9.999633, 9.998861 
8.748944e+2, 3.1474465e+2, -153656.5, -133170.3, 104727.18, -0.082112156, 0.15437575, -38186.48, -38186.48, 0.00035722472, 9.999137, 9.999467 
8.851012e+2, 1.2476691e+2, -1564188.1, -1694499.8, 135170.6, 0.12445008, -0.16212206, -1479289.4, 237979.56, 0.00000006865043, 10.0012, 9.999555 
8.850878e+2, 1.3476647e+2, -1458476.6, -1618641.4, 77483.53, -0.0936038, -0.16027209, -1427127.9, 192143.66, 0.0, 10.001398, 9.999311 
8.8507557e+2, 1.4476524e+2, -1377568.0, -1532648.1, 51336.004, -0.13302687, -0.20223778, -1362114.3, 159168.06, 0.0, 10.001307, 9.99925 
8.850663e+2, 1.5476365e+2, -1288397.0, -1438502.3, 16762.586, 0.13183384, -0.31508142, -1286547.9, 136749.47, 0.0, 10.00124, 9.999258 
8.850555e+2, 1.6476339e+2, -1216932.8, -1314681.0, 41100.75, 0.207615, -0.27968845, -1201948.1, 123352.375, 0.0, 10.000897, 9.999604 
8.8504314e+2, 1.7476471e+2, -1212562.4, -1261358.3, 34701.875, 0.085322075, -0.1273741, -1194540.1, 32749.428, 0.0, 10.000252, 9.999609 
8.850311e+2, 1.8476465e+2, -1204215.8, -1298573.1, 9042.988, 0.051828157, -0.04894029, -1203357.0, -74063.85, 0.0, 10.000028, 9.998786 
8.8501954e+2, 1.9476272e+2, -1077569.9, -1187159.6, -7414.8867, 0.104029536, -0.1397561, -1077070.5, -45754.273, 0.0, 10.00023, 9.998779 
8.8500917e+2, 2.0476195e+2, -946923.2, -989215.3, 120662.79, 0.12400139, -0.12992463, -845567.56, 87757.57, 0.0, 10.000078, 9.999547 
8.850002e+2, 2.147623e+2, -936303.3, -932143.75, 119267.89, 0.11257656, -0.06985681, -814937.5, 20382.14, 0.0, 9.999473, 9.999559 
8.849896e+2, 2.2476175e+2, -873653.9, -871279.94, 28246.498, 0.0619229, -0.06665237, -844195.5, -106872.11, 0.0, 9.999327, 9.999365 
8.849772e+2, 2.347599e+2, -725709.3, -751367.56, -5596.598, -0.036087766, -0.20852095, -724541.75, -85201.65, 0.0, 9.999675, 9.999351 
8.849665e+2, 2.447595e+2, -666690.4, -706460.8, 85065.88, -0.073147014, -0.16418701, -599216.44, -57871.258, 0.0, 9.99955, 9.999044 
8.8495743e+2, 2.5476047e+2, -651804.75, -651438.44, 104823.37, -0.04900274, 0.006741343, -546798.06, -103458.28, 0.00000000006372724, 9.998984, 9.999024 
8.849479e+2, 2.647601e+2, -518935.6, -481179.9, 63251.91, -0.008582844, 0.04759715, -434048.84, -88705.16, 0.00000025387644, 9.998995, 9.999516 
8.849377e+2, 2.7475795e+2, -314494.3, -329438.06, 35348.883, 0.05624652, -0.14073099, -285836.25, -38475.613, 0.0000021793016, 9.999712, 9.999538 
8.849276e+2, 2.847569e+2, -210516.61, -301427.44, 81840.49, 0.069742516, -0.16574264, -162355.47, -12983.9795, 0.000011106664, 10.000085, 9.998873 
8.849175e+2, 2.9475674e+2, -101303.41, -200025.61, 77891.37, 0.030389648, -0.09022061, -58449.63, -7071.1626, 0.000049522223, 10.000151, 9.99887 
8.84906e+2, 3.0475777e+2, -39908.457, -162474.48, 16608.9, -0.05625049, 0.13883166, -37697.664, -37697.664, 0.00016466355, 10.000322, 9.998714 
8.84895e+2, 3.147576e+2, 36956.574, -5970.7573, 36340.152, 0.01723265, 0.23349246, 57698.31, 57698.31, 0.00037254568, 10.000286, 9.999808 
8.951011e+2, 1.2478217e+2, -1571326.0, -1698174.5, 105613.695, -0.052890286, 0.0025895552, -1511555.8, 205563.25, 0.00000033567557, 10.001172, 9.999533 
8.95091e+2, 1.34779e+2, -1461662.5, -1619456.8, 88745.61, 0.07452854, -0.26391676, -1421813.9, 197332.56, 0.00000000007521531, 10.001391, 9.999301 
8.9507926e+2, 1.4477736e+2, -1424769.0, -1633793.1, 36813.555, 0.07897831, -0.31487975, -1418474.9, 102688.055, 0.0, 10.001312, 9.998558 
8.9506793e+2, 1.547783e+2, -1339971.8, -1547293.3, 27214.46, 0.14419387, -0.09983585, -1336458.9, 86699.39, 0.0, 10.001244, 9.998514 
8.950556e+2, 1.6477813e+2, -1214085.4, -1309798.6, 6576.4937, 0.10475079, -0.019091759, -1213635.6, 111525.51, 0.0, 10.000897, 9.999638 
8.950424e+2, 1.7477652e+2, -1209309.8, -1250384.0, 20486.266, -0.033417292, -0.16731395, -1200838.9, 26335.08, 0.0, 10.000235, 9.999692 
8.9503026e+2, 1.8477581e+2, -1220003.3, -1320782.9, 6367.221, -0.057923082, -0.15405269, -1219602.5, -90420.49, 0.0, 9.999976, 9.99866 
8.950193e+2, 1.9477585e+2, -1098098.3, -1215124.5, 8995.235, 0.036562365, -0.03384426, -1097410.9, -66223.914, 0.0, 10.000162, 9.998621 
8.950091e+2, 2.0477514e+2, -953026.5, -979627.75, 89414.05, 0.08738933, -0.011535537, -875929.25, 57264.844, 0.0, 9.999983, 9.999659 
8.949996e+2, 2.1477343e+2, -946773.25, -921199.0, 107706.65, 0.089020416, -0.17303364, -825523.06, 9682.873, 0.0, 9.999337, 9.999697 
8.9498925e+2, 2.2477289e+2, -933044.75, -964296.1, 31199.807, 0.07399956, -0.14954673, -913776.5, -176565.08, 0.0, 9.99919, 9.9987955 
8.949778e+2, 2.3477338e+2, -783629.94, -842944.25, 17044.098, 0.030906852, -0.000802622, -779081.1, -139869.06, 0.0, 9.999553, 9.998779 
8.949667e+2, 2.4477255e+2, -627331.9, -608974.6, 54354.13, -0.025822036, -0.005258304, -563029.56, -21809.346, 0.0, 9.999476, 9.999752 
8.949561e+2, 2.5477e+2, -617054.8, -551946.6, 93790.49, -0.10154962, -0.26043448, -485221.16, -41981.75, 0.0000000002378373, 9.998869, 9.999764 
8.949463e+2, 2.6476938e+2, -555512.8, -544274.0, 80889.375, -0.08821863, -0.2627745, -468809.06, -123565.02, 0.00000030747992, 9.99894, 9.999106 
8.949373e+2, 2.7477056e+2, -362690.5, -405757.66, 74585.65, 0.022268739, -0.074474946, -306592.16, -59356.125, 0.0000026197797, 9.999617, 9.999058 
8.9492714e+2, 2.8477004e+2, -206505.27, -288559.06, 74971.87, -0.0050363992, -0.024680246, -162068.8, -12826.17, 0.000013171274, 10.000054, 9.998977 
8.949157e+2, 2.947676e+2, -96671.664, -181086.16, 91993.78, -0.1862471, -0.1947522, -37664.742, 13601.393, 0.000055655084, 10.000105, 9.999021 
8.949047e+2, 3.04767e+2, -54176.145, -181183.61, 9079.962, -0.24419372, -0.13436332, -53530.285, -53530.285, 0.00017577781, 10.000282, 9.998603 
8.9489573e+2, 3.1476668e+2, 54209.25, 61833.332, 50857.195, 0.0148331085, -0.04419364, 109021.15, 109021.15, 0.0003866523, 10.000162, 10.000324 
9.0510327e+2, 1.2479455e+2, -1539461.0, -1746425.6, 91741.23, 0.038631644, -0.07963916, -1504650.0, 212344.69, 0.0000010657902, 10.001637, 9.998989 
9.050931e+2, 1.3479199e+2, -1514247.1, -1699533.1, 11058.588, 0.15303352, -0.23877437, -1513589.5, 105430.766, 0.000000007369457, 10.00126, 9.998815 
9.050807e+2, 1.4479052e+2, -1476056.4, -1657585.1, -6553.228, 0.11864621, -0.24955669, -1475820.1, 45216.54, 0.0, 10.00095, 9.9985695 
9.050683e+2, 1.5479122e+2, -1387000.5, -1565625.3, 15824.045, 0.079951964, -0.06418885, -1385609.5, 37423.83, 0.0, 10.000897, 9.998555 
9.050556e+2, 1.6479063e+2, -1268094.3, -1392190.1, 15678.518, 0.031002708, 0.00091270654, -1266144.0, 58895.36, 0.0, 10.000764, 9.999144 
9.050429e+2, 1.7478839e+2, -1201200.0, -1302783.3, -35231.617, -0.014403559, -0.16077396, -1190177.0, 36881.617, 0.0, 10.000525, 9.999195 
9.05031e+2, 1.8478714e+2, -1173328.9, -1316032.3, -33897.844, 0.0042992155, -0.16825774, -1165686.1, -36614.797, 0.0, 10.000369, 9.998502 
9.0502e+2, 1.9478682e+2, -1075392.3, -1222283.5, -46229.8, 0.08626408, -0.07041903, -1062053.9, -30974.992, 0.0, 10.000377, 9.998475 
9.050094e+2, 2.04786e+2, -919208.1, -974655.94, 24696.482, 0.11365965, -0.048709076, -909803.44, 23283.842, 0.0, 10.000268, 9.999549 
9.049992e+2, 2.1478435e+2, -851860.2, -889631.7, 31.929184, 0.08219091, -0.19178514, -851860.2, -16760.787, 0.0, 10.000047, 9.99957 
9.0498865e+2, 2.24784e+2, -838185.75, -909191.8, -23826.656, 0.06860355, -0.14522193, -830931.6, -93828.09, 0.0, 9.9998045, 9.998879 
9.049777e+2, 2.3478486e+2, -768086.9, -827646.25, -6217.774, 0.06896496, 0.033239238, -767444.7, -128343.38, 0.0, 9.999621, 9.998855 
9.0496665e+2, 2.4478403e+2, -598545.06, -559593.1, 46169.695, 0.0213508, 0.0104156835, -528959.7, 12148.815, 0.0, 9.999534, 10.000056 
9.049555e+2, 2.5478116e+2, -487398.63, -453683.28, 30596.127, -0.083320595, -0.3095604, -435608.13, 7520.095, 0.0, 9.999611, 10.000076 
9.0494555e+2, 2.6478043e+2, -465968.47, -536450.6, 48190.633, -0.08877228, -0.3215525, -441508.03, -96374.69, 0.0000002007212, 9.999719, 9.998786 
9.0493697e+2, 2.7478173e+2, -344532.78, -435276.84, 28425.703, 0.022759352, -0.08293013, -336363.78, -89237.99, 0.0000025589381, 9.999905, 9.99872 
9.0492696e+2, 2.8478113e+2, -239333.56, -315711.78, 30856.965, -0.014613037, -0.021101866, -228425.22, -79291.82, 0.000014749117, 9.9998665, 9.998892 
9.049152e+2, 2.9477838e+2, -190109.03, -229530.02, 8454.79, -0.21122155, -0.21092448, -188372.2, -137214.97, 0.00006245814, 9.999485, 9.998989 
9.049042e+2, 3.047768e+2, -174131.78, -229004.44, -49201.957, -0.2648112, -0.25220793, -145233.53, -145233.53, 0.00018870574, 9.999425, 9.998686 
9.048956e+2, 3.147763e+2, -43846.29, 19639.322, -48999.844, 0.035990328, -0.18187717, 46279.65, 46279.65, 0.00040376265, 9.999457, 10.0003805 
9.1510683e+2, 1.2480458e+2, -1604785.6, -1885540.4, 42943.703, 0.180863, -0.36741048, -1598364.0, 118526.94, 0.000002613721, 10.001669, 9.998012 
9.1509354e+2, 1.3480543e+2, -1580618.5, -1834221.1, 3401.7725, 0.055053253, -0.09501037, -1580572.9, 38319.68, 0.00000007607973, 10.001248, 9.997893 
9.1507965e+2, 1.4480446e+2, -1429498.1, -1553865.3, -20162.152, -0.10955662, -0.042261302, -1426311.1, 94594.336, 0.0, 10.000919, 9.999295 
9.1506714e+2, 1.5480246e+2, -1332897.6, -1453204.5, 26224.35, -0.15068889, -0.2025738, -1327429.8, 95491.76, 0.0, 10.000899, 9.999325 
9.150552e+2, 1.648012e+2, -1340312.3, -1540829.3, -4962.4565, -0.10646352, -0.19777364, -1340189.5, -15256.513, 0.0, 10.00076, 9.998123 
9.1504425e+2, 1.748005e+2, -1281198.3, -1462752.5, -34522.34, 0.049190503, -0.09635096, -1274855.5, -47914.137, 0.0, 10.000501, 9.998108 
9.1503304e+2, 1.8479876e+2, -1189859.1, -1340069.3, -42739.31, 0.14579046, -0.09022785, -1178549.9, -49589.97, 0.0, 10.000324, 9.998361 
9.150214e+2, 1.947957e+2, -1099500.1, -1248905.5, -34400.707, 0.17004374, -0.2524019, -1091959.9, -60968.254, 0.0, 10.000281, 9.998338 
9.1501e+2, 2.0479456e+2, -962255.2, -1041056.06, 7357.488, 0.12103143, -0.23667495, -961574.1, -28570.105, 0.0, 10.000166, 9.999142 
9.149986e+2, 2.1479519e+2, -900645.2, -959747.06, -564.945, 0.0005143433, -0.110804416, -900639.8, -65641.37, 0.0, 9.999915, 9.999149 
9.1498744e+2, 2.2479519e+2, -800400.44, -810783.5, -42236.03, -0.047069676, -0.042988196, -763038.06, -26039.182, 0.0, 9.999708, 9.999606 
9.1497666e+2, 2.3479436e+2, -733274.75, -727796.4, -2872.033, -0.010011002, -0.10930985, -726566.7, -87559.12, 0.0, 9.999502, 9.9995985 
9.149659e+2, 2.4479407e+2, -619092.5, -585181.0, 40991.395, -0.022509223, -0.11092326, -557777.0, -16768.23, 0.0, 9.9994545, 9.999922 
9.1495526e+2, 2.5479403e+2, -511769.2, -486063.6, 43678.242, -0.08599531, -0.12621492, -453386.34, -10381.478, 0.0, 9.999528, 9.999898 
9.1494536e+2, 2.6479328e+2, -489220.63, -575154.8, 46669.61, -0.09592273, -0.12130965, -468750.94, -123739.77, 0.00000011562638, 9.999678, 9.99854 
9.149365e+2, 2.7479148e+2, -370775.16, -473389.47, 48254.75, -0.040156472, -0.17239478, -351648.34, -104617.54, 0.0000025826089, 9.999834, 9.998493 
9.1492665e+2, 2.8479016e+2, -267071.78, -359760.8, 6647.844, -0.047910374, -0.15605071, -266597.4, -117553.63, 0.000017159802, 9.99981, 9.998616 
9.149157e+2, 2.9478922e+2, -224704.13, -284813.1, 6227.55, -0.13457817, -0.1359777, -224065.7, -173014.77, 0.00007135739, 9.9994135, 9.998645 
9.149044e+2, 3.0478722e+2, -173775.45, -210813.1, -52604.695, -0.20614126, -0.20666437, -136525.1, -136525.1, 0.00020552066, 9.999351, 9.998843 
9.1489404e+2, 3.1478608e+2, -69131.164, -6336.7935, -30843.766, -0.12057183, -0.22811301, 6278.7603, 6278.7603, 0.00042645857, 9.99935, 10.000248 
9.2510957e+2, 1.2481699e+2, -1572976.5, -1870197.4, 26688.494, 0.28889814, -0.38252613, -1570599.1, 146169.5, 0.0000053718704, 10.001875, 9.998025 
9.250944e+2, 1.348184e+2, -1520403.9, -1790861.1, 30838.256, 0.00832289, -0.06814854, -1516932.3, 101833.39, 0.00000033393198, 10.0015955, 9.998034 
9.2508006e+2, 1.4481743e+2, -1388311.1, -1570077.5, 47967.074, -0.17532258, -0.0069911554, -1376429.5, 144349.55, 0.0, 10.001353, 9.998981 
9.2506844e+2, 1.5481463e+2, -1280213.1, -1465340.4, -10804.04, -0.13140799, -0.21356997, -1279584.8, 143218.25, 0.0, 10.001418, 9.998995 
9.250568e+2, 1.6481306e+2, -1242632.4, -1487038.8, -27769.607, -0.047348477, -0.22696956, -1239516.9, 85300.336, 0.0, 10.001391, 9.998188 
9.250455e+2, 1.7481267e+2, -1161357.8, -1397324.4, 8111.06, 0.08978863, -0.1036292, -1161079.3, 65742.99, 0.0, 10.001285, 9.998181 
9.250339e+2, 1.8481112e+2, -1083698.0, -1282935.0, 68151.93, 0.17588727, -0.0855376, -1062616.3, 66222.35, 0.0, 10.001027, 9.998417 
9.2502207e+2, 1.9480802e+2, -1052841.4, -1218198.6, 66517.14, 0.20009431, -0.25722197, -1029405.56, 1464.5562, 0.0, 10.000567, 9.998408 
9.2501044e+2, 2.0480683e+2, -947889.7, -1065463.4, 150151.45, 0.14996524, -0.2329744, -845427.1, 87456.3, 0.0, 10.0004, 9.998869 
9.2499906e+2, 2.1480753e+2, -816321.4, -949096.94, 138161.27, 0.029470043, -0.07192483, -729425.5, 105453.805, 0.0, 10.000618, 9.998891 
9.249877e+2, 2.2480717e+2, -681349.56, -752351.5, 82789.39, -0.03133057, -0.026869554, -626770.56, 110112.32, 0.0, 10.000529, 9.999603 
9.249762e+2, 2.3480551e+2, -640657.7, -682711.7, 42871.895, -0.028218752, -0.1751047, -613933.94, 24962.68, 0.0, 10.000134, 9.999599 
9.249654e+2, 2.4480517e+2, -596389.7, -633928.2, 73261.39, -0.040178776, -0.15479861, -539531.5, 1367.3125, 0.0, 9.9998665, 9.999394 
9.2495507e+2, 2.54806e+2, -507807.7, -541062.6, 28903.254, -0.06808228, -0.033166923, -491090.44, -48199.316, 0.0, 9.9998045, 9.999388 
9.2494535e+2, 2.6480526e+2, -428054.28, -521706.25, 65591.75, -0.07599415, -0.009983062, -394289.03, -49391.336, 0.00000007319143, 9.99998, 9.998765 
9.249365e+2, 2.748026e+2, -274966.13, -397007.53, 87774.34, -0.044351615, -0.17628898, -229085.66, 17836.648, 0.0000027897247, 10.000354, 9.998765 
9.2492676e+2, 2.8480104e+2, -236036.6, -347107.13, 61145.19, -0.022243202, -0.19394144, -208971.0, -60035.28, 0.000020180585, 10.000042, 9.998584 
9.2491615e+2, 2.9480064e+2, -280133.44, -317221.7, 55449.504, -0.009468725, -0.1163413, -240209.36, -189271.08, 0.00008284934, 9.999055, 9.998592 
9.249044e+2, 3.0479854e+2, -259832.1, -240012.98, 55304.098, -0.09412154, -0.19543603, -193737.64, -193737.64, 0.00022869528, 9.998676, 9.998975 
9.248926e+2, 3.1479713e+2, -185848.58, -90345.48, 24757.152, -0.15329352, -0.26281038, -84309.234, -84309.234, 0.00046065266, 9.998646, 10.000016 
9.351108e+2, 1.2483121e+2, -1511024.8, -1720631.9, -18914.977, 0.17559591, -0.19049057, -1509331.6, 207301.56, 0.000009857008, 10.001798, 9.999084 
9.3509525e+2, 1.3483103e+2, -1428525.3, -1612879.6, 24668.734, -0.08548377, -0.15672572, -1425281.4, 193357.05, 0.0000009955157, 10.001655, 9.999223 
9.350816e+2, 1.448296e+2, -1480871.4, -1773093.4, 35533.965, -0.1827456, -0.12830403, -1476612.6, 44043.074, 0.00000000002439963, 10.0014, 9.997569 
9.350718e+2, 1.5482765e+2, -1386706.5, -1676994.9, 1760.5929, 0.044554763, -0.104398, -1386695.9, 35982.297, 0.0, 10.001379, 9.997562 
9.3506014e+2, 1.6482611e+2, -1163969.4, -1312620.8, -43403.87, 0.11669875, -0.10281892, -1152224.1, 172469.0, 0.0, 10.001343, 9.999409 
9.350463e+2, 1.748249e+2, -1073122.5, -1214487.8, 14172.828, 0.023672596, -0.18731295, -1071715.6, 154985.4, 0.0, 10.001286, 9.999436 
9.3503344e+2, 1.8482424e+2, -1077169.8, -1258776.1, 43270.445, 0.008126768, -0.1506168, -1067386.9, 61319.813, 0.0, 10.000983, 9.998605 
9.350216e+2, 1.9482382e+2, -1053896.4, -1199954.9, 58349.477, 0.07834741, -0.0715911, -1033448.75, -2735.06, 0.0, 10.0004835, 9.998575 
9.350106e+2, 2.0482296e+2, -960754.4, -1077083.3, 145929.61, 0.10723617, -0.024400296, -861824.7, 70899.91, 0.0, 10.000329, 9.998825 
9.350004e+2, 2.1482141e+2, -840381.2, -971879.5, 155986.08, 0.089115225, -0.07732271, -736853.6, 97887.81, 0.0, 10.000495, 9.998798 
9.3498904e+2, 2.2481999e+2, -755027.25, -874242.9, 60832.87, 0.03205286, -0.09740948, -729466.25, 7288.73, 0.0, 10.000396, 9.99883 
9.349762e+2, 2.3481838e+2, -715484.7, -810157.0, 38561.51, -0.063039176, -0.16043621, -701765.94, -62997.977, 0.0, 10.000011, 9.998788 
9.3496466e+2, 2.448174e+2, -672267.1, -770750.1, 60142.773, -0.118761405, -0.11867223, -643779.06, -103000.7, 0.0, 9.999777, 9.998497 
9.349545e+2, 2.548169e+2, -583649.8, -683045.94, 36734.965, -0.1182252, -0.041196924, -571546.94, -128758.695, 0.0, 9.99973, 9.998454 
9.3494517e+2, 2.6481625e+2, -382557.3, -409267.03, 73028.2, -0.106428094, 0.0013841084, -321672.88, 23121.027, 0.00000003612581, 9.9999075, 9.999568 
9.349367e+2, 2.748152e+2, -232730.72, -287405.78, 114356.766, -0.079275325, -0.0811213, -142489.3, 104309.18, 0.0000027030533, 10.000268, 9.999556 
9.34927e+2, 2.8481403e+2, -225365.39, -318318.97, 16968.7, -0.027595153, -0.11655398, -222364.63, -73557.984, 0.000022488803, 10.000004, 9.998802 
9.3491614e+2, 2.9481262e+2, -271783.38, -295454.53, 34424.42, 0.057274066, -0.15867184, -247216.72, -196398.14, 0.000095232324, 9.999026, 9.998759 
9.34904e+2, 3.048108e+2, -262196.88, -236258.73, 50889.895, -0.029455556, -0.22620295, -196711.34, -196711.34, 0.0002574787, 9.998643, 9.999014 
9.3489075e+2, 3.148101e+2, -226607.47, -148781.94, 46811.637, -0.24916528, -0.22634442, -126821.62, -126821.62, 0.0005076496, 9.998539, 9.999662 
9.451107e+2, 1.24843016e+2, -1666394.3, -1774858.8, -58497.043, 0.05364313, -0.13913603, -1640857.9, 75663.97, 0.000016753027, 10.000623, 9.999287 
9.450971e+2, 1.3484293e+2, -1481623.6, -1617809.4, -123072.45, -0.040441938, -0.1154658, -1409062.8, 209462.83, 0.000002343361, 10.001195, 9.999414 
9.450839e+2, 1.4484173e+2, -1488945.5, -1713329.0, -74316.26, -0.06805175, -0.10328405, -1466564.3, 53974.77, 0.0000000053592455, 10.001072, 9.998134 
9.4507295e+2, 1.5483989e+2, -1494491.1, -1670799.3, 17109.648, 0.07621202, -0.12619288, -1492846.0, -70288.3, 0.0, 10.00038, 9.998091 
9.450608e+2, 1.6483858e+2, -1299309.1, -1350969.3, 57587.83, 0.10869468, -0.13848928, -1262023.8, 62545.523, 0.0, 10.000305, 9.999639 
9.450474e+2, 1.7483771e+2, -1109532.8, -1205974.0, 14908.544, 0.019635206, -0.21163678, -1107280.6, 119293.664, 0.0, 10.000931, 9.999658 
9.4503444e+2, 1.8483731e+2, -1037565.25, -1238806.0, -2605.1833, -0.0049552303, -0.16126403, -1037531.5, 91045.92, 0.0, 10.001261, 9.998598 
9.450221e+2, 1.9483708e+2, -936433.6, -1144014.6, -16417.334, 0.041862715, -0.0635392, -935143.2, 95438.766, 0.0, 10.001297, 9.998561 
9.450112e+2, 2.0483617e+2, -856557.3, -1050256.1, 83011.75, 0.092476144, -0.0077859815, -825849.8, 106743.73, 0.0, 10.001148, 9.998609 
9.4500166e+2, 2.1483445e+2, -815650.94, -979015.8, 60060.91, 0.1532198, -0.063231476, -795946.3, 38667.5, 0.0, 10.000754, 9.998613 
9.449903e+2, 2.2483297e+2, -740059.7, -881798.9, 3791.902, 0.11729271, -0.07331493, -739958.3, -3330.1523, 0.0, 10.000564, 9.998699 
9.44977e+2, 2.3483154e+2, -631462.5, -780055.06, 14852.38, -0.014787611, -0.10635316, -629992.5, 8645.732, 0.0, 10.000639, 9.998689 
9.449652e+2, 2.4482986e+2, -578887.5, -792007.94, 100186.75, -0.081049405, -0.0994318, -539186.1, 1469.0123, 0.0, 10.0007, 9.997907 
9.4495535e+2, 2.5482774e+2, -481520.9, -694259.06, 81670.09, -0.059723165, -0.12386124, -453784.13, -11103.086, 0.0, 10.000696, 9.997905 
9.4494575e+2, 2.648268e+2, -319047.47, -360193.56, 115611.59, -0.058354214, -0.09362685, -222192.7, 122497.34, 0.000000027783642, 10.00026, 9.999742 
9.449365e+2, 2.7482682e+2, -349122.1, -321234.25, 88622.125, -0.070481844, -0.08902611, -245465.78, 1218.6398, 0.000002329391, 9.99937, 9.999764 
9.449267e+2, 2.8482613e+2, -307973.8, -351192.8, -8749.899, -0.020835979, -0.081332915, -306269.56, -157581.53, 0.000023981273, 9.99941, 9.998868 
9.4491625e+2, 2.9482478e+2, -75691.96, -190339.13, -22490.887, 0.10606017, -0.13095847, -71437.68, -20735.936, 0.000106754764, 10.000338, 9.99885 
9.449042e+2, 3.048232e+2, -20425.816, -85831.86, -2907.4937, 0.06681106, -0.19236068, -20296.824, -20296.824, 0.00028782972, 10.000172, 9.999313 
9.448904e+2, 3.148218e+2, -189823.69, -115697.91, -23676.344, -0.1375197, -0.28377366, -108780.945, -108780.945, 0.0005617916, 9.998729, 9.999807 
9.551084e+2, 1.2485284e+2, -1720561.8, -1886760.3, -63430.58, -0.2803141, -0.2018778, -1699119.5, 17311.055, 0.00002677623, 10.000638, 9.9985 
9.5509946e+2, 1.3485427e+2, -1547397.3, -1735685.3, -93968.79, 0.058108337, 0.051904276, -1508525.4, 109899.68, 0.0000047533053, 10.001128, 9.998628 
9.550867e+2, 1.4485371e+2, -1323837.6, -1357397.3, -111728.21, 0.07843469, 0.04416331, -1227636.3, 292793.4, 0.000000046136613, 10.001009, 10.000611 
9.550714e+2, 1.5485139e+2, -1309516.5, -1298171.8, 540.82916, -0.13738906, -0.27920166, -1298146.0, 124295.45, 0.0, 10.000427, 10.000627 
9.550586e+2, 1.6485061e+2, -1350053.6, -1464177.4, 69715.945, -0.16681162, -0.32736287, -1317024.5, 7420.1143, 0.0, 10.000337, 9.998849 
9.550483e+2, 1.7485121e+2, -1169694.5, -1328526.6, 47749.152, 0.0004958369, -0.17011784, -1156445.1, 69996.16, 0.0, 10.000917, 9.998825 
9.550365e+2, 1.8485035e+2, -1052246.5, -1262811.0, -10666.985, 0.05416945, -0.11624579, -1051707.5, 76743.04, 0.0, 10.001228, 9.998452 
9.5502305e+2, 1.9484776e+2, -954210.5, -1168364.1, -6159.381, -0.0086563025, -0.24013759, -954033.5, 76441.93, 0.0, 10.001243, 9.99842 
9.550118e+2, 2.0484656e+2, -894560.4, -1109449.6, 57233.35, 0.0211591, -0.18891624, -880267.56, 52222.625, 0.0, 10.001061, 9.998247 
9.550024e+2, 2.1484664e+2, -863713.75, -1044897.25, 54044.797, 0.14215086, -0.026144905, -848817.56, -14320.951, 0.0, 10.0006075, 9.998236 
9.549913e+2, 2.2484615e+2, -716160.75, -802205.8, -3524.5066, 0.14567485, 0.05490236, -716016.6, 20485.266, 0.0, 10.000437, 9.999306 
9.549782e+2, 2.3484488e+2, -607637.9, -704459.5, 29185.12, 0.026859118, -0.023101155, -599521.0, 38987.55, 0.0, 10.000523, 9.999268 
9.549667e+2, 2.4484245e+2, -610396.44, -831764.44, 92290.21, -0.018304724, -0.10938388, -576967.9, -36437.887, 0.0, 10.000598, 9.997678 
9.5495695e+2, 2.548386e+2, -513064.88, -741158.44, 91139.086, 0.018233147, -0.28127214, -481121.9, -38552.563, 0.0, 10.000616, 9.99762 
9.5494664e+2, 2.648369e+2, -363982.13, -433312.0, 72972.336, -0.0096673565, -0.28935075, -317859.56, 26726.389, 0.000000030362223, 10.000179, 9.999275 
9.5493567e+2, 2.7483723e+2, -394773.84, -398437.47, 67710.44, -0.114098154, -0.20701607, -328870.44, -82289.22, 0.000002140531, 9.999295, 9.99927 
9.549255e+2, 2.8483728e+2, -323744.7, -366447.75, 16386.09, -0.09892459, -0.09956089, -318181.7, -169600.02, 0.000025889522, 9.999338, 9.998795 
9.549162e+2, 2.94837e+2, -90126.695, -205975.02, 24250.53, 0.043639347, -0.032501467, -85255.19, -34667.02, 0.000117742304, 10.0002775, 9.998769 
9.549051e+2, 3.0483583e+2, 16051.617, 657.1933, -58310.918, 0.1189087, -0.077636175, 67171.16, 67171.16, 0.00031737162, 10.000126, 9.999931 
9.5489115e+2, 3.148329e+2, -155449.16, -27207.615, -47297.21, 0.022308186, -0.39291587, -11650.916, -11650.916, 0.0006187205, 9.998653, 10.000453 
9.651094e+2, 1.24865465e+2, -1734750.0, -1862821.3, 76208.375, -0.21990241, -0.14803897, -1699245.3, 17063.787, 0.000040530904, 10.000393, 9.998785 
9.6509993e+2, 1.3486607e+2, -1702668.5, -1774113.3, 95148.836, 0.06706493, -0.010278382, -1636757.3, -18449.084, 0.000008656152, 9.999896, 9.9989605 
9.6508753e+2, 1.448657e+2, -1473480.9, -1429275.1, 69130.54, 0.114278, -0.013466069, -1378800.0, 141510.66, 0.00000019058375, 10.000003, 10.0005865 
9.6507263e+2, 1.5486448e+2, -1221914.6, -1257398.8, -35756.35, -0.08700202, -0.22376056, -1199740.5, 222574.69, 0.0, 10.00106, 10.000588 
9.6505976e+2, 1.6486394e+2, -1222341.0, -1437143.3, -33249.777, -0.13091329, -0.23051888, -1217311.9, 107006.09, 0.0, 10.001373, 9.998535 
9.650491e+2, 1.7486389e+2, -1192828.0, -1377409.4, -35900.805, -0.0071427375, -0.10604954, -1186091.1, 40230.17, 0.0, 10.000921, 9.998492 
9.650375e+2, 1.8486246e+2, -1065466.1, -1272670.6, -36960.586, 0.045933515, -0.090978, -1059070.6, 69264.84, 0.0, 10.001143, 9.998433 
9.65025e+2, 1.9485937e+2, -832125.0, -1112621.8, -41185.6, 0.024249922, -0.26116356, -826202.75, 204160.36, 0.0, 10.002087, 9.9984045 
9.650133e+2, 2.0485798e+2, -770778.9, -1039066.1, 11483.203, 0.03373408, -0.23321135, -770288.3, 162090.06, 0.0, 10.001891, 9.998317 
9.650023e+2, 2.1485816e+2, -868989.6, -1039109.4, 19082.63, 0.07542427, -0.0679919, -866875.4, -32492.61, 0.0, 10.000551, 9.998292 
9.649911e+2, 2.2485779e+2, -718105.7, -815304.6, 29059.08, 0.0860605, 0.02685033, -710080.6, 26307.25, 0.0, 10.000468, 9.999207 
9.649797e+2, 2.3485667e+2, -441538.22, -628486.6, -8332.502, 0.07649437, -0.027093375, -441167.56, 197228.02, 0.0, 10.001682, 9.9992285 
9.649686e+2, 2.4485464e+2, -411990.13, -684768.94, 29674.535, 0.061437465, -0.09419105, -408799.25, 131613.69, 0.0, 10.001734, 9.998146 
9.649579e+2, 2.5485158e+2, -484129.56, -672236.06, 65831.164, 0.05233842, -0.23225051, -463379.7, -20937.955, 0.0, 10.000589, 9.998107 
9.6494704e+2, 2.648499e+2, -391059.53, -482878.75, 111645.086, 0.017376643, -0.24632533, -316253.28, 28203.904, 0.000000012060779, 10.00014, 9.998952 
9.64936e+2, 2.7484939e+2, -264956.84, -374060.66, 94221.484, -0.048603155, -0.21392144, -210634.5, 35827.227, 0.0000023356135, 10.000343, 9.99893 
9.649255e+2, 2.848491e+2, -214081.95, -317747.16, 88732.945, -0.06016377, -0.1224777, -163151.94, -14685.329, 0.000028869204, 10.000112, 9.99875 
9.6491545e+2, 2.94849e+2, -218074.95, -275302.47, 74162.49, -0.0058514858, -0.032357756, -167197.69, -116725.37, 0.00012890252, 9.999432, 9.998699 
9.649048e+2, 3.0484852e+2, -96419.984, -37960.62, -34200.883, 0.12434225, -0.0133105125, -22200.586, -22200.586, 0.00034520676, 9.999279, 10.000073 
9.6489197e+2, 3.1484595e+2, -24725.682, 82360.414, -95166.37, 0.21007907, -0.3059256, 138012.13, 138012.13, 0.0006746772, 9.999365, 10.000852 
9.7511286e+2, 1.2488043e+2, -1628388.5, -1642157.0, 24556.252, 0.0275247, -0.014805936, -1609769.8, 106392.23, 0.000058506626, 10.000393, 10.000298 
9.7509825e+2, 1.3487838e+2, -1586893.9, -1540416.1, 78169.03, -0.107840635, -0.2974331, -1482104.8, 136069.73, 0.00001444443, 9.99993, 10.000544 
9.7508603e+2, 1.4487797e+2, -1648785.1, -1804200.3, 96347.2, -0.06212254, -0.2607478, -1602713.6, -82533.734, 0.0000005546723, 10.000048, 9.997997 
9.750762e+2, 1.5487921e+2, -1409545.0, -1645872.3, 15602.037, 0.14140199, 0.042074945, -1408519.5, 13658.847, 0.0, 10.001054, 9.997928 
9.750639e+2, 1.6487852e+2, -1211797.9, -1412997.0, -62765.88, 0.12767023, 0.14752562, -1193823.3, 130366.05, 0.0, 10.001357, 9.998711 
9.750494e+2, 1.7487572e+2, -1176470.9, -1347948.1, -46432.066, -0.09244526, -0.025528077, -1164705.4, 61509.363, 0.0, 10.000937, 9.998687 
9.750372e+2, 1.8487363e+2, -1060236.9, -1257253.6, -9902.72, -0.118892044, -0.09161916, -1059740.4, 68491.88, 0.0, 10.001122, 9.9985485 
9.750276e+2, 1.9487204e+2, -833930.7, -1100068.4, 5407.705, 0.05637356, -0.12571484, -833820.9, 196423.06, 0.0, 10.002015, 9.998523 
9.750156e+2, 2.0487055e+2, -753863.75, -982411.4, -49016.22, 0.051168054, -0.13481766, -743794.94, 188461.94, 0.0, 10.001794, 9.998755 
9.7500086e+2, 2.1486893e+2, -855836.44, -985424.5, -23750.908, -0.14253834, -0.19197997, -851620.5, -17347.29, 0.0, 10.000434, 9.998719 
9.749893e+2, 2.2486776e+2, -788281.06, -931229.3, 62552.836, -0.15210547, -0.16243942, -764774.1, -28487.307, 0.0, 10.000342, 9.998468 
9.749812e+2, 2.3486689e+2, -519719.47, -751714.75, 46005.867, 0.037455246, -0.11871682, -510929.3, 127370.27, 0.0, 10.00152, 9.998458 
9.749707e+2, 2.4486656e+2, -339453.75, -514617.03, -22817.967, 0.07320119, -0.035689134, -336530.13, 203772.9, 0.0, 10.001645, 9.999359 
9.749576e+2, 2.5486666e+2, -406998.94, -496488.2, 34036.137, -0.055217445, 0.016174916, -395524.9, 46773.938, 0.0, 10.000519, 9.99935 
9.7494656e+2, 2.648657e+2, -412278.66, -510613.6, 109797.16, -0.068118446, 0.017409477, -341142.94, 3162.416, 0.0000000034767167, 10.0000725, 9.998792 
9.749375e+2, 2.7486336e+2, -286628.9, -404096.63, 114002.586, 0.038591497, -0.111955315, -217119.81, 29205.969, 0.0000028342504, 10.00028, 9.998753 
9.7492665e+2, 2.8486177e+2, -221540.38, -325519.78, 55119.742, 0.014286999, -0.1424684, -197759.94, -49418.08, 0.000032313746, 10.000078, 9.998714 
9.749137e+2, 2.9486078e+2, -230680.5, -286994.88, 64139.836, -0.15318918, -0.13558345, -188789.52, -138435.0, 0.00013997531, 9.999372, 9.998649 
9.749028e+2, 3.0486104e+2, -143896.78, -112032.0, -36707.88, -0.016255664, -0.010686938, -87948.02, -87948.02, 0.00037147623, 9.99918, 9.999611 
9.7489196e+2, 3.148607e+2, -51603.48, 61807.504, -55915.97, 0.23209791, -0.040233254, 84739.37, 84739.37, 0.00072750956, 9.999224, 10.0007715 
9.8511374e+2, 1.24892816e+2, -1650333.0, -1592466.4, -60484.258, 0.11676332, 0.011378826, -1554351.3, 161693.4, 0.00008108169, 9.9999895, 10.000836 
9.8509836e+2, 1.3489112e+2, -1434273.4, -1413946.4, -119184.305, -0.12155213, -0.28320065, -1304493.0, 313557.03, 0.000022462764, 10.000736, 10.001034 
9.8508674e+2, 1.4489071e+2, -1533622.3, -1803538.9, -25995.076, -0.04631522, -0.24697141, -1531141.5, -11086.749, 0.0000013019285, 10.001059, 9.997519 
9.850781e+2, 1.5489174e+2, -1420836.6, -1703362.3, 30168.113, 0.23042595, 0.078443386, -1417651.1, 4406.7764, 0.0, 10.001194, 9.997464 
9.8506624e+2, 1.6489086e+2, -1206712.3, -1413537.8, 30114.32, 0.22497343, 0.18946281, -1202416.8, 121655.4, 0.0, 10.001412, 9.998674 
9.85051e+2, 1.7488787e+2, -1057254.6, -1290340.9, 9302.795, -0.062559135, 0.0030652054, -1056884.0, 169215.3, 0.0, 10.001769, 9.998674 
9.8503846e+2, 1.8488596e+2, -973875.5, -1181376.9, 61876.26, -0.12524146, -0.05841784, -956825.25, 171289.05, 0.0, 10.001568, 9.998857 
9.8502874e+2, 1.9488499e+2, -1005847.2, -1148769.0, 68734.86, 0.036544584, -0.063112944, -978156.0, 51963.156, 0.0, 10.000689, 9.99883 
9.8501647e+2, 2.0488352e+2, -924792.9, -1063203.3, 15912.8955, 0.033334143, -0.086986765, -922986.94, 9143.68, 0.0, 10.000587, 9.9987955 
9.850016e+2, 2.1488127e+2, -733828.1, -922013.56, -6132.8623, -0.14089683, -0.20924407, -733628.5, 100522.84, 0.0, 10.001238, 9.998776 
9.8499006e+2, 2.2487994e+2, -707928.44, -909063.94, 118713.07, -0.14006492, -0.19509189, -652911.3, 83255.61, 0.0, 10.000961, 9.9983225 
9.849819e+2, 2.3487929e+2, -794171.06, -900927.8, 128916.08, 0.052447427, -0.11062708, -708019.5, -69840.37, 0.0, 9.999704, 9.998308 
9.849712e+2, 2.4487925e+2, -636030.3, -624145.0, 66657.79, 0.08240109, -0.007997838, -563165.5, -22985.063, 0.0, 9.99948, 9.999644 
9.8495793e+2, 2.548795e+2, -402991.1, -465519.38, 28567.049, -0.061575375, 0.03526901, -391905.25, 50267.938, 0.0, 10.000413, 9.999617 
9.84947e+2, 2.6487857e+2, -328295.0, -500162.34, 83873.61, -0.050733186, 0.03662308, -294147.97, 50031.61, 0.00000001775074, 10.000783, 9.9985285 
9.8493886e+2, 2.7487612e+2, -262220.53, -422617.1, 59910.625, 0.13434234, -0.075083345, -242313.63, 3888.4353, 0.000003544514, 10.00058, 9.998488 
9.849276e+2, 2.8487417e+2, -206117.61, -308315.53, -5531.9785, 0.107302964, -0.12984473, -205819.03, -57598.57, 0.00003520851, 10.000136, 9.998814 
9.849132e+2, 2.9487255e+2, -218790.83, -269852.4, -5996.904, -0.13949667, -0.19596165, -218095.98, -167859.72, 0.00014919741, 9.9994, 9.998756 
9.849019e+2, 3.0487245e+2, -144269.92, -184023.94, -37152.75, -0.024758456, -0.08546241, -122011.17, -122011.17, 0.00039500848, 9.9994755, 9.998972 
9.84892e+2, 3.1487226e+2, 70210.055, 81730.33, -99853.984, 0.27848563, -0.036505383, 175990.17, 175990.17, 0.0007743357, 10.00019, 10.000455 
9.9511176e+2, 1.24902956e+2, -1684381.1, -1666608.9, -60733.555, -0.13439222, -0.042392638, -1614114.8, 101838.88, 0.000108580556, 10.000017, 10.000308 
9.951001e+2, 1.3490434e+2, -1475818.0, -1496102.3, -84165.94, -0.047917537, 0.024513548, -1401185.3, 216748.44, 0.000033028722, 10.000728, 10.000469 
9.950892e+2, 1.44904e+2, -1420520.5, -1569780.6, -34559.11, 0.06798397, 0.019006927, -1412907.3, 107026.97, 0.0000026281716, 10.001058, 9.9991255 
9.950782e+2, 1.5490216e+2, -1298509.8, -1458722.4, 44448.71, 0.090177715, -0.106896065, -1287004.4, 134948.64, 0.00000000019976186, 10.001227, 9.99913 
9.950663e+2, 1.6490102e+2, -1223564.1, -1448969.4, 32827.594, 0.06922968, -0.09471547, -1218880.5, 105085.06, 0.0, 10.001417, 9.998427 
9.9505365e+2, 1.7490034e+2, -1075516.3, -1329618.3, 31230.389, 0.008077245, -0.023416903, -1071734.1, 154240.53, 0.0, 10.00177, 9.998406 
9.950409e+2, 1.848994e+2, -948684.44, -1119254.3, 17387.629, -0.05669333, 0.0016692361, -946930.0, 181052.38, 0.0, 10.001528, 9.999304 
9.95028e+2, 1.9489805e+2, -981527.1, -1083875.6, 43810.273, -0.1235838, -0.08391583, -965335.6, 64654.44, 0.0, 10.000627, 9.999306 
9.9501586e+2, 2.0489676e+2, -962819.7, -1115004.0, 27035.346, -0.10560938, -0.09893355, -958159.6, -26159.05, 0.0, 10.000475, 9.998493 
9.950045e+2, 2.1489528e+2, -775248.25, -975324.1, 26646.73, -0.000085967695, -0.115049034, -771760.2, 62256.223, 0.0, 10.001099, 9.998477 
9.94993e+2, 2.2489439e+2, -698161.6, -851983.06, 62362.266, 0.04432647, -0.061180186, -676055.6, 59971.234, 0.0, 10.000806, 9.998787 
9.949815e+2, 2.3489395e+2, -782152.06, -841239.7, 90528.625, 0.027867239, -0.004856398, -716468.44, -78434.73, 0.0, 9.99956, 9.998785 
9.9497e+2, 2.4489264e+2, -700545.3, -735226.4, 89408.195, -0.0031611046, -0.018334113, -626811.6, -86766.09, 0.0, 9.999378, 9.998931 
9.9495864e+2, 2.5489017e+2, -468293.3, -576208.1, 72461.42, -0.0499321, -0.17692375, -431906.63, 10158.223, 0.0, 10.000304, 9.998909 
9.949485e+2, 2.648886e+2, -369152.38, -567968.8, 67746.086, -0.005458137, -0.18079288, -348262.94, -4183.9824, 0.000000028595345, 10.00071, 9.998099 
9.9493957e+2, 2.7488768e+2, -305883.56, -492634.97, 64439.81, 0.12911674, -0.09808929, -285806.6, -39716.363, 0.000003781716, 10.000494, 9.998049 
9.9492806e+2, 2.848863e+2, -199481.78, -274234.1, -43444.055, 0.11586927, -0.0878092, -179548.58, -31445.48, 0.000036350866, 10.000051, 9.999086 
9.9491364e+2, 2.9488432e+2, -206446.36, -226300.0, -20885.434, -0.050979402, -0.21792379, -193248.67, -143130.77, 0.00015454051, 9.9993305, 9.999084 
9.9490213e+2, 3.0488265e+2, -210026.16, -312767.3, -14483.054, 0.027973851, -0.23888434, -208023.56, -208023.56, 0.00041140616, 9.999441, 9.998107 
9.948913e+2, 3.148802e+2, 7828.561, -4225.582, -40450.18, 0.13443726, -0.32471785, 42698.223, 42698.223, 0.00080725906, 10.00002, 9.99994 
1.0051128e+3, 1.24915846e+2, -1511978.5, -1693655.6, 105103.07, -0.10920974, -0.02643505, -1463898.8, 251928.52, 0.00014134821, 10.001673, 9.999323 
1.00510165e+3, 1.3491698e+2, -1514563.4, -1620645.6, 22167.51, 0.039737284, 0.11076516, -1510117.5, 107697.97, 0.000046426092, 10.00093, 9.999506 
1.00509085e+3, 1.4491616e+2, -1441580.9, -1509963.5, 60502.742, 0.16019572, 0.077436686, -1406276.6, 113543.83, 0.00000474816, 10.00063, 9.999735 
1.00507855e+3, 1.549138e+2, -1286579.8, -1384866.5, 35732.613, 0.021960497, -0.15832944, -1274962.1, 146876.6, 0.000000004412824, 10.001024, 9.999737 
1.0050667e+3, 1.6491267e+2, -1258620.9, -1484075.4, 5498.525, -0.018149283, -0.16904442, -1258486.9, 65362.813, 0.0, 10.001238, 9.998287 
1.00505546e+3, 1.7491256e+2, -1161366.6, -1385760.4, -4449.934, 0.04495387, -0.027642038, -1161278.5, 64576.867, 0.0, 10.001238, 9.998284 
1.0050429e+3, 1.849119e+2, -1010206.5, -1138810.6, -34659.656, 0.016798716, 0.030124433, -1001460.3, 126401.2, 0.0, 10.001076, 9.999376 
1.00502886e+3, 1.9491056e+2, -952121.2, -1062379.1, -57580.977, -0.10400798, -0.06435564, -927533.3, 102336.805, 0.0, 10.000809, 9.999358 
1.0050166e+3, 2.0490943e+2, -914762.9, -1093741.8, -20879.45, -0.09177464, -0.0653112, -912359.4, 19520.469, 0.0, 10.000813, 9.998472 
1.00500606e+3, 2.149083e+2, -789253.3, -985789.1, -21768.348, 0.05734418, -0.044484574, -786871.1, 47021.926, 0.0, 10.001019, 9.998442 
1.0049944e+3, 2.2490752e+2, -672952.2, -817589.6, -12492.82, 0.1124195, 0.011065487, -671881.06, 64020.715, 0.0, 10.000886, 9.998987 
1.00498185e+3, 2.3490685e+2, -640129.06, -754109.75, -27067.377, 0.070308544, 0.026191806, -634027.9, 3880.605, 0.0, 10.000447, 9.998961 
1.0049703e+3, 2.449051e+2, -561119.75, -675817.94, 59141.92, 0.03981513, -0.035216976, -536087.5, 3835.12, 0.0, 10.000359, 9.998869 
1.0049599e+3, 2.5490206e+2, -425835.8, -556779.1, 74431.15, 0.029048204, -0.24548437, -392178.6, 49767.508, 0.0, 10.000613, 9.998885 
1.0049498e+3, 2.6490048e+2, -375053.38, -547788.56, 103151.43, 0.07030734, -0.26104805, -326886.28, 17073.596, 0.000000017098808, 10.000581, 9.998291 
1.0049402e+3, 2.7490005e+2, -333920.28, -483939.03, 124189.15, 0.1608264, -0.15059303, -263845.72, -17878.982, 0.000003428396, 10.00021, 9.998238 
1.0049285e+3, 2.848989e+2, -167713.16, -306141.78, 51810.84, 0.14211409, -0.10381801, -150469.47, -2491.662, 0.00003625069, 10.0004635, 9.99867 
1.00491464e+3, 2.948969e+2, 46926.992, -154878.08, -1576.5313, 0.028237307, -0.19606535, 46939.305, 96933.79, 0.00015742959, 10.001265, 9.998651 
1.004903e+3, 3.0489463e+2, 38966.98, -226651.53, 10263.24, 0.087462544, -0.24284275, 39362.953, 39362.953, 0.0004215928, 10.0013, 9.997807 
1.0048915e+3, 3.148917e+2, 51798.133, -11783.173, -8152.151, 0.1436173, -0.34075043, 52826.73, 52826.73, 0.0008275706, 10.000426, 9.999707 
1.015116e+3, 1.2493134e+2, -1606566.5, -1887684.9, 33574.273, -0.0067274994, 0.047508143, -1602612.4, 113055.17, 0.0001798155, 10.00166, 9.997993 
1.01510294e+3, 1.3492902e+2, -1602771.6, -1816664.6, -694.3096, 0.040618546, -0.028014882, -1602769.4, 14926.063, 0.000062927356, 10.000976, 9.998138 
1.0150915e+3, 1.4492725e+2, -1471563.4, -1575694.4, 60709.023, 0.12821549, -0.06858746, -1443651.4, 76062.16, 0.000007860604, 10.0006485, 9.999272 
1.01507895e+3, 1.5492669e+2, -1322499.3, -1455627.3, 60339.496, -0.058085185, -0.077168845, -1299221.0, 122494.32, 0.000000028517778, 10.001015, 9.999252 
1.0150672e+3, 1.6492584e+2, -1255352.4, -1479526.1, -5637.5356, -0.120592475, -0.035128426, -1255210.8, 68513.04, 0.0, 10.001244, 9.998315 
1.01505615e+3, 1.7492457e+2, -1156692.8, -1381994.6, 4529.2817, -0.033058353, -0.015493283, -1156601.8, 69138.76, 0.0, 10.001255, 9.998304 
1.01504415e+3, 1.8492357e+2, -1037565.2, -1188454.3, -54905.617, 0.012353628, 0.023010783, -1019701.06, 108049.95, 0.0, 10.001045, 9.99905 
1.01503104e+3, 1.949226e+2, -986651.7, -1116221.3, -58367.508, 0.008782184, -0.00014034346, -964236.5, 65521.66, 0.0, 10.00073, 9.999027 
1.0150184e+3, 2.0492157e+2, -913318.5, -1064929.5, -23588.904, -0.016004035, 0.01465416, -909733.1, 22034.54, 0.0, 10.000704, 9.998721 
1.015006e+3, 2.1492033e+2, -786712.56, -955121.1, -6821.075, -0.05776067, -0.001469816, -786436.7, 47344.676, 0.0, 10.000912, 9.998702 
1.01499416e+3, 2.2491924e+2, -701461.3, -843455.75, -40275.7, -0.022024035, 0.015947703, -690832.94, 44959.22, 0.0, 10.000745, 9.998875 
1.01498276e+3, 2.3491809e+2, -665446.7, -778041.06, -34777.332, 0.0922141, -0.008583163, -655571.06, -17768.658, 0.0, 10.000324, 9.998854 
1.0149717e+3, 2.4491684e+2, -536403.7, -594752.8, 57246.48, 0.12934327, -0.04593568, -501326.25, 38483.57, 0.0, 10.000235, 9.999484 
1.01496115e+3, 2.549153e+2, -396213.47, -474949.25, 93341.98, 0.082731664, -0.17180502, -334277.1, 107539.34, 0.0, 10.000527, 9.999489 
1.0149507e+3, 2.6491413e+2, -326772.75, -432272.47, 81427.016, 0.08846748, -0.21168801, -282502.47, 61320.496, 0.000000011022683, 10.000512, 9.999119 
1.01494044e+3, 2.7491325e+2, -284531.4, -361856.7, 124484.64, 0.14073603, -0.23296115, -192843.66, 52987.5, 0.0000031084232, 10.000127, 9.999115 
1.01492874e+3, 2.849121e+2, -257828.1, -480774.63, 73825.734, 0.10928853, -0.17298295, -235598.23, -87754.29, 0.000035475467, 10.000414, 9.997491 
1.0149158e+3, 2.949105e+2, -56550.016, -339205.25, 42206.87, -0.0152740255, -0.10677829, -50382.156, -518.49097, 0.00015859005, 10.001148, 9.997433 
1.01490416e+3, 3.0490842e+2, 47135.223, -198695.75, -28218.209, 0.047288444, -0.07967562, 50332.72, 50332.72, 0.00042792913, 10.0012455, 9.998029 
1.014892e+3, 3.1490672e+2, 40290.977, 4346.5347, -3029.9973, 0.10761471, -0.08329349, 40544.605, 40544.605, 0.00084075227, 10.00027, 9.9998865 
1.0251174e+3, 1.24943994e+2, -1955239.9, -2025839.8, -80230.414, 0.1127679, 0.050201215, -1902887.0, -187343.53, 0.00022439056, 9.999135, 9.99827 
1.025104e+3, 1.3494143e+2, -1478854.1, -1732846.1, -22149.908, 0.029738506, -0.0685575, -1476937.0, 140636.61, 0.0000828242, 10.0017185, 9.998366 
1.02509305e+3, 1.4493977e+2, -1255542.6, -1524969.6, 71203.77, 0.13352138, -0.08685313, -1237882.5, 281709.4, 0.000012107546, 10.002352, 9.998804 
1.0250807e+3, 1.5493989e+2, -1332823.1, -1514859.0, 48908.758, 0.01482154, 0.019508107, -1320514.8, 101074.99, 0.00000009714164, 10.001163, 9.9987755 
1.0250688e+3, 1.6493908e+2, -1290232.5, -1442850.4, 49246.617, -0.049557574, 0.06542236, -1275721.4, 47876.383, 0.0, 10.000792, 9.998775 
1.0250575e+3, 1.7493722e+2, -1098906.5, -1296825.0, 69730.94, -0.029407859, -0.016751282, -1076806.5, 148810.3, 0.0, 10.001425, 9.998797 
1.02504544e+3, 1.8493614e+2, -995679.5, -1189429.1, 20232.38, 0.028767776, -0.004656716, -993589.3, 134038.31, 0.0, 10.001408, 9.998876 
1.0250327e+3, 1.9493555e+2, -1003825.9, -1144027.0, 11308.846, 0.11162157, 0.028702699, -1002919.56, 26713.111, 0.0, 10.000687, 9.998862 
1.0250198e+3, 2.0493451e+2, -959242.3, -1084018.6, 88395.78, 0.07585283, 0.04894676, -913435.75, 18206.934, 0.0, 10.000389, 9.998743 
1.0250066e+3, 2.1493283e+2, -837854.44, -978343.06, 66248.51, -0.07118436, -0.00990381, -811542.4, 22117.13, 0.0, 10.0005665, 9.998711 
1.0249946e+3, 2.2493157e+2, -684076.3, -846229.06, 35989.438, -0.04969977, -0.005361368, -676447.5, 59223.992, 0.0, 10.000913, 9.9987755 
1.024984e+3, 2.3493055e+2, -529895.1, -724009.5, 22596.13, 0.1427986, -0.0036133258, -527299.5, 110380.87, 0.0, 10.001317, 9.998747 
1.0249732e+3, 2.4492942e+2, -404764.0, -541111.1, 97306.625, 0.20722342, -0.018526526, -354125.88, 185561.38, 0.0, 10.001192, 9.999383 
1.02496214e+3, 2.549279e+2, -413140.53, -497767.84, 53982.016, 0.13544519, -0.12653156, -386864.8, 54829.79, 0.0, 10.000474, 9.999358 
1.0249512e+3, 2.6492676e+2, -381883.44, -451186.84, 7072.336, 0.11000423, -0.16264494, -381169.1, -37467.285, 0.00000001218603, 10.000094, 9.999192 
1.02494046e+3, 2.7492577e+2, -293273.3, -354311.13, -28240.111, 0.14228415, -0.20211697, -282212.1, -36501.32, 0.0000027111198, 10.000019, 9.999217 
1.02492906e+3, 2.849248e+2, -281741.88, -464782.7, -6936.3804, 0.11714422, -0.14614241, -281479.4, -133757.69, 0.00003356273, 10.000151, 9.997719 
1.024917e+3, 2.9492345e+2, -140537.17, -356059.28, 42894.43, 0.033858135, -0.07396819, -132313.84, -82575.91, 0.00015687123, 10.000474, 9.99764 
1.02490515e+3, 3.0492136e+2, -73056.62, -240043.8, 921.4933, 0.07596419, -0.062942356, -73051.53, -73051.53, 0.00042992222, 10.000369, 9.998154 
1.02489196e+3, 3.149202e+2, -45573.285, -32270.857, -21049.188, 0.11942174, -0.0248505, -16847.041, -16847.041, 0.0008482756, 9.999649, 9.999932 
1.0351166e+3, 1.2495398e+2, -1820485.3, -1764128.0, -34976.61, 0.061515298, -0.014501154, -1747391.3, -31938.152, 0.00027553758, 9.999209, 10.000031 
1.035105e+3, 1.3495432e+2, -1367288.0, -1495124.0, 81271.73, -0.07387821, -0.008987968, -1327810.6, 289638.06, 0.000106410545, 10.001696, 10.000011 
1.0350951e+3, 1.4495374e+2, -1286667.3, -1589546.8, 12808.653, 0.0787197, 0.02417209, -1286126.5, 233328.98, 0.000017580353, 10.002349, 9.9983635 
1.0350835e+3, 1.5495339e+2, -1359631.9, -1575476.0, 11514.707, 0.14500757, 0.1256294, -1359019.4, 62442.965, 0.00000023822265, 10.00118, 9.998354 
1.0350713e+3, 1.6495241e+2, -1231226.1, -1316269.4, 59029.445, 0.099857986, 0.13155477, -1200997.8, 122473.61, 0.0, 10.00078, 9.999645 
1.0350591e+3, 1.7495058e+2, -1045489.44, -1175254.8, 102513.99, -0.027279656, -0.034492224, -989050.7, 236433.6, 0.0, 10.001383, 9.99965 
1.03504665e+3, 1.8494968e+2, -1001860.06, -1191789.5, -18885.56, -0.02098157, -0.048044555, -1000000.44, 127490.59, 0.0, 10.001361, 9.998884 
1.0350337e+3, 1.9494943e+2, -1011677.06, -1148714.8, -10202.887, 0.117346704, 0.018688055, -1010921.6, 18572.16, 0.0, 10.000631, 9.998859 
1.0350205e+3, 2.0494823e+2, -992556.4, -1128670.0, 83474.375, 0.10130132, 0.035936374, -952911.3, -21406.262, 0.0, 10.000283, 9.9984865 
1.03500746e+3, 2.1494575e+2, -868078.1, -1019835.1, 84010.25, -0.0630559, -0.07726991, -830752.06, 2775.6104, 0.0, 10.000468, 9.998474 
1.0349958e+3, 2.2494443e+2, -713792.0, -873563.25, 41263.758, -0.05260014, -0.061999917, -703764.25, 31775.723, 0.0, 10.00077, 9.998656 
1.0349853e+3, 2.3494413e+2, -553297.7, -745621.2, 47753.22, 0.13184108, 0.02270708, -542093.5, 95449.53, 0.0, 10.001203, 9.9986515 
1.0349742e+3, 2.4494272e+2, -489224.34, -684861.94, 62439.3, 0.18289676, 0.031011382, -470994.97, 68560.914, 0.0, 10.0010605, 9.99846 
1.0349624e+3, 2.5494e+2, -490302.28, -635799.2, 38800.113, 0.09826273, -0.10886959, -480602.06, -39021.574, 0.0, 10.000382, 9.998452 
1.0349509e+3, 2.6493847e+2, -440094.78, -554879.06, -6087.726, 0.056397084, -0.106231414, -439772.8, -96177.03, 0.00000000560088, 10.000024, 9.998512 
1.0349398e+3, 2.749378e+2, -360297.3, -463813.94, -20414.398, 0.05876636, -0.044973288, -356416.88, -110812.15, 0.0000022721786, 9.999905, 9.998514 
1.0349289e+3, 2.8493696e+2, -176162.83, -230184.92, -5057.405, 0.06893027, -0.018937133, -175693.45, -28082.111, 0.000031159278, 10.00008, 9.999366 
1.03491805e+3, 2.9493588e+2, -36098.613, -116102.46, 71844.66, 0.07530806, -0.08909367, 6129.6772, 55745.434, 0.00015252481, 10.000382, 9.99933 
1.03490576e+3, 3.0493352e+2, -88833.5, -263436.1, -32021.365, 0.0859408, -0.18486035, -83146.18, -83146.18, 0.00042681763, 10.000326, 9.998013 
1.0348905e+3, 3.1493235e+2, -91027.87, -65531.45, -16002.849, -0.043307677, -0.1355743, -57819.746, -57819.746, 0.00084848254, 9.999419, 9.999798 
1.0451162e+3, 1.2496573e+2, -1496445.6, -1563225.4, 56092.082, 0.011261887, -0.0041731684, -1464557.6, 250784.45, 0.0003338259, 10.001228, 10.000438 
1.0451058e+3, 1.349669e+2, -1587433.9, -1565514.1, 69798.3, -0.05605872, 0.04971577, -1505820.4, 111506.69, 0.00013404706, 10.000017, 10.000332 
1.0450967e+3, 1.4496642e+2, -1577955.4, -1702657.6, 1249.3629, 0.11885307, 0.065378934, -1577942.9, -58611.38, 0.000024406929, 10.000241, 9.998602 
1.0450851e+3, 1.549657e+2, -1197991.9, -1463826.1, 22379.928, 0.14511971, 0.106018715, -1196121.0, 225221.1, 0.0000004785213, 10.002167, 9.998638 
1.045073e+3, 1.6496487e+2, -1053246.8, -1233557.0, 37911.383, 0.12664954, 0.113987744, -1045599.94, 277749.72, 0.0, 10.002005, 9.999628 
1.0450607e+3, 1.7496367e+2, -1285199.0, -1294336.5, -1460.9174, 0.078929424, 0.010172886, -1284971.1, -59614.355, 0.0, 9.999741, 9.999627 
1.0450477e+3, 1.8496273e+2, -1246634.0, -1296066.5, -73532.46, 0.052682623, -0.009633477, -1193775.0, -66411.65, 0.0, 9.999638, 9.998994 
1.0450341e+3, 1.9496194e+2, -836057.5, -1047999.06, -77948.1, 0.047290735, -0.0101846745, -810477.1, 218893.84, 0.0, 10.001788, 9.998987 
1.0450213e+3, 2.0496067e+2, -664103.9, -968219.75, 10671.602, 0.030994354, -0.0054688547, -663729.9, 267651.75, 0.0, 10.0025215, 9.998512 
1.0450091e+3, 2.149587e+2, -683553.1, -927429.06, 12577.556, 0.011549772, -0.07367036, -682906.2, 150492.1, 0.0, 10.001723, 9.998503 
1.0449976e+3, 2.2495721e+2, -686077.4, -866928.44, 5053.248, 0.051835615, -0.07317728, -685936.3, 49475.273, 0.0, 10.000975, 9.998608 
1.0449862e+3, 2.3495606e+2, -694093.8, -824299.5, -5220.808, 0.1474561, -0.06737253, -693884.8, -56461.56, 0.0, 10.000261, 9.998573 
1.04497485e+3, 2.4495472e+2, -606399.5, -748315.44, 70948.57, 0.17973527, -0.043989606, -577014.44, -37577.887, 0.0, 10.000269, 9.998414 
1.0449636e+3, 2.5495306e+2, -402764.72, -599591.56, 93473.125, 0.14981137, -0.07649221, -365448.9, 76004.4, 0.0, 10.000997, 9.99841 
1.0449519e+3, 2.6495177e+2, -291525.38, -517290.94, 101666.84, 0.103848524, -0.030682104, -252491.52, 90976.44, 0.0000000009945924, 10.001194, 9.998211 
1.0449399e+3, 2.7495047e+2, -250012.11, -452018.44, 93453.51, 0.044681195, 0.002568143, -213410.05, 32074.477, 0.0000020282196, 10.000812, 9.998174 
1.04492895e+3, 2.849494e+2, -101538.86, -134984.6, 107821.94, 0.053677466, -0.0016340363, -9150.66, 138341.83, 0.00002862002, 10.000324, 9.99991 
1.0449187e+3, 2.9494852e+2, -94989.52, -81762.8, 73022.28, 0.13328685, -0.108766384, -15055.015, 34437.086, 0.00014590684, 9.999693, 9.999905 
1.0449064e+3, 3.049462e+2, -122167.516, -256971.63, -28604.803, 0.13332134, -0.23725958, -116348.87, -116348.87, 0.0004168189, 10.000004, 9.998209 
1.0448905e+3, 3.1494522e+2, 164547.75, 62553.613, -23818.627, -0.049691413, -0.18366878, 169835.92, 169835.92, 0.0008363063, 10.001109, 9.9998865 
1.05511546e+3, 1.249792e+2, -1550433.4, -1673041.1, -49787.777, -0.24013913, 0.070569456, -1532762.6, 182448.4, 0.00039971265, 10.001229, 9.999677 
1.0551066e+3, 1.3497923e+2, -1650158.3, -1696076.0, 32245.014, -0.017221864, 0.1048462, -1633533.6, -16325.554, 0.00016604259, 10.000025, 9.999431 
1.0550975e+3, 1.4497803e+2, -1509485.3, -1571729.0, 59594.6, 0.14842637, 0.04686791, -1473375.5, 45842.64, 0.000032768716, 10.000284, 9.999481 
1.05508536e+3, 1.5497695e+2, -1139783.1, -1343208.9, 104354.57, -0.064306006, -0.03762342, -1095772.3, 325455.75, 0.0000008393984, 10.002159, 9.9994755 
1.0550734e+3, 1.6497652e+2, -1118884.9, -1357372.1, -58446.51, -0.057045467, 0.011213206, -1105331.5, 217901.02, 0.0, 10.001959, 9.9987955 
1.0550619e+3, 1.7497653e+2, -1344135.0, -1417752.3, -79975.766, 0.20315897, 0.11164031, -1292903.9, -67670.055, 0.0, 9.999747, 9.9987755 
1.0550487e+3, 1.8497546e+2, -1236940.6, -1270437.0, -4604.962, 0.16119072, 0.11212692, -1236319.0, -109075.5, 0.0, 9.999615, 9.99918 
1.0550337e+3, 1.9497308e+2, -832188.44, -1025786.7, 13285.027, -0.18929496, -0.06585396, -831281.06, 197982.86, 0.0, 10.001724, 9.999171 
1.05502136e+3, 2.0497192e+2, -660655.25, -934696.8, -29915.982, -0.2200935, -0.076057635, -657427.5, 273844.56, 0.0, 10.002409, 9.998797 
1.05501175e+3, 2.1497169e+2, -680684.4, -897598.2, -8856.717, 0.07534956, 0.0031721895, -680323.3, 152947.25, 0.0, 10.001615, 9.998762 
1.055e+3, 2.2496991e+2, -709637.2, -883592.06, -31373.828, 0.18104309, -0.03564492, -704151.75, 31134.283, 0.0, 10.000836, 9.998556 
1.0549861e+3, 2.3496635e+2, -712886.3, -835389.3, -22046.486, 0.09950406, -0.27094185, -709039.5, -71718.94, 0.0, 10.000141, 9.99855 
1.0549745e+3, 2.4496551e+2, -564569.2, -636325.4, 87220.6, 0.10512444, -0.23985021, -506135.72, 33192.656, 0.0, 10.000158, 9.999237 
1.0549652e+3, 2.5496718e+2, -358253.8, -486240.25, 128564.79, 0.20130569, -0.020116186, -278636.3, 162675.3, 0.0, 10.000906, 9.999231 
1.054954e+3, 2.6496673e+2, -303505.56, -521179.6, 79740.555, 0.17339148, 0.06653952, -277420.2, 65897.53, 0.000000000012280949, 10.001107, 9.998222 
1.0549407e+3, 2.7496392e+2, -260431.03, -452792.03, 94994.63, 0.011313979, -0.056701224, -221427.69, 23920.955, 0.0000016155456, 10.000729, 9.998203 
1.0549287e+3, 2.849623e+2, -154175.48, -233522.16, 74710.69, -0.015824802, -0.085741304, -109257.69, 38105.805, 0.000025303238, 10.000275, 9.999259 
1.0549183e+3, 2.9496154e+2, -159957.67, -188670.69, 62970.832, 0.10441274, -0.11420007, -109727.53, -60362.38, 0.000137169, 9.999579, 9.999224 
1.0549064e+3, 3.0495957e+2, -95549.87, -183663.2, 9714.561, 0.11843217, -0.20425083, -94491.54, -94491.54, 0.0004008363, 9.999926, 9.99875 
1.0548919e+3, 3.1495917e+2, 168980.52, 114029.74, 51225.3, -0.08386509, -0.14690955, 199633.69, 199633.69, 0.00081260194, 10.000945, 10.000315 
1.0651163e+3, 1.249922e+2, -1651394.8, -1733623.5, -68591.836, -0.23957047, 0.1294567, -1612538.9, 102545.18, 0.00047318285, 10.000591, 9.999574 
1.06510855e+3, 1.3499123e+2, -1371973.3, -1576587.4, 56627.242, 0.088787295, 0.0810237, -1357347.1, 259741.95, 0.00020250746, 10.002014, 9.99929 
1.0650991e+3, 1.4498979e+2, -1299383.1, -1470165.0, 99359.29, 0.2121542, 0.005840864, -1253763.0, 265337.66, 0.000042863663, 10.0017185, 9.999493 
1.06508605e+3, 1.5498887e+2, -1473984.5, -1500238.4, 55781.727, -0.08016217, -0.063147545, -1429806.0, -8696.552, 0.0000013547858, 9.9998455, 9.99951 
1.0650738e+3, 1.6498847e+2, -1418522.0, -1493761.0, -81891.484, -0.08411062, -0.016892618, -1366022.4, -42908.68, 0.0, 9.999855, 9.998882 
1.06506296e+3, 1.7498851e+2, -1042114.4, -1258670.3, -54853.996, 0.24238645, 0.07780638, -1029012.44, 196102.23, 0.0, 10.001762, 9.998902 
1.0650501e+3, 1.849875e+2, -897199.0, -1122837.1, 81889.41, 0.22301881, 0.08377789, -870612.1, 256511.63, 0.0, 10.002002, 9.999046 
1.0650352e+3, 1.9498517e+2, -1007568.1, -1127363.8, 55661.49, -0.15523972, -0.0758458, -985698.25, 43445.414, 0.0, 10.000577, 9.999031 
1.0650227e+3, 2.0498404e+2, -969149.06, -1048058.25, 2689.76, -0.20039839, -0.090689875, -969057.5, -37905.99, 0.0, 10.000139, 9.999109 
1.065013e+3, 2.14984e+2, -790056.94, -911812.7, 5381.002, 0.09800696, -0.025113188, -789819.6, 43329.117, 0.0, 10.000708, 9.999095 
1.0650011e+3, 2.249825e+2, -670599.1, -859715.06, 2189.3298, 0.20220867, -0.055490058, -670573.8, 64587.875, 0.0, 10.001078, 9.99861 
1.06498696e+3, 2.3497929e+2, -555185.4, -751756.3, -1313.3733, 0.1168153, -0.25831503, -555176.56, 82016.24, 0.0, 10.001193, 9.99862 
1.0649751e+3, 2.4497858e+2, -413724.53, -523925.78, 127834.57, 0.100391395, -0.23534681, -329621.16, 209577.83, 0.0, 10.001034, 9.999585 
1.0649654e+3, 2.5498012e+2, -375669.97, -459287.53, 109919.01, 0.14810456, -0.06130427, -299877.03, 141305.67, 0.0, 10.000635, 9.999552 
1.0649543e+3, 2.649798e+2, -395659.66, -522523.66, 54562.387, 0.1499306, 0.00446319, -375421.63, -32235.076, 0.0, 10.000276, 9.998614 
1.0649418e+3, 2.7497748e+2, -360481.5, -452818.5, 71590.9, 0.1053497, -0.1110059, -321463.22, -76251.31, 0.00000091217555, 9.999836, 9.99863 
1.0649297e+3, 2.849761e+2, -241390.92, -315946.5, 110100.26, 0.081670664, -0.11866955, -162428.88, -15203.671, 0.000020741376, 9.99986, 9.998889 
1.0649181e+3, 2.9497528e+2, -70321.35, -190104.8, 96680.86, 0.0911442, -0.11442411, -16484.42, 32745.979, 0.00012515363, 10.000375, 9.998836 
1.0649061e+3, 3.0497324e+2, -14068.446, -145174.33, 76422.38, 0.084584266, -0.19216721, 21064.107, 21064.107, 0.00037813088, 10.000474, 9.99875 
1.0648931e+3, 3.1497288e+2, 32149.09, 49298.063, 34100.89, 0.009196964, -0.1365969, 75885.945, 75885.945, 0.0007771597, 9.999983, 10.000327 
1.0751179e+3, 1.2500456e+2, -1613695.0, -1653139.4, -61892.168, -0.19012082, 0.14916243, -1568458.8, 146504.44, 0.00055371417, 10.000606, 10.000106 
1.0751115e+3, 1.3500291e+2, -1344178.8, -1507967.4, 113377.664, 0.16432524, -0.017507248, -1286211.8, 330757.84, 0.00024334127, 10.001985, 9.999766 
1.0751012e+3, 1.450017e+2, -1350944.4, -1584853.0, 11815.297, 0.21396247, -0.05427825, -1350349.0, 168630.13, 0.00005483326, 10.001738, 9.998703 
1.07508704e+3, 1.550014e+2, -1524337.5, -1613108.9, -6675.406, -0.0007473715, 0.01774103, -1523838.4, -102851.55, 0.000002073113, 9.999874, 9.998726 
1.0750744e+3, 1.6500083e+2, -1346369.4, -1343868.9, -22263.646, -0.044344105, 0.033004917, -1322820.4, 172.14197, 0.0000000000166348, 9.999859, 9.999906 
1.0750637e+3, 1.749997e+2, -971497.25, -1110829.6, 25494.459, 0.11961761, -0.09399364, -966978.94, 258019.73, 0.0, 10.001754, 9.99992 
1.07505165e+3, 1.849989e+2, -939598.2, -1193821.1, 16373.58, 0.15761086, -0.09357177, -938547.94, 188455.78, 0.0, 10.001937, 9.998588 
1.0750381e+3, 1.9499819e+2, -1050922.9, -1197845.9, 9812.754, 0.06318424, -0.04406539, -1050270.4, -21260.182, 0.0, 10.0005, 9.998581 
1.0750251e+3, 2.0499714e+2, -961005.06, -1008871.5, 11225.007, 0.008086845, -0.046001665, -958503.44, -27484.016, 0.0, 10.000043, 9.999426 
1.0750128e+3, 2.1499553e+2, -785225.6, -871225.9, 36552.797, -0.0060753794, -0.17057353, -771788.9, 61244.44, 0.0, 10.000575, 9.999438 
1.0750006e+3, 2.249949e+2, -679955.9, -845129.9, -2120.0615, 0.034063675, -0.13871388, -679928.7, 55110.33, 0.0, 10.000934, 9.99878 
1.0749884e+3, 2.3499501e+2, -562800.2, -736468.4, 14338.217, 0.12723435, -0.027204854, -561624.4, 75414.44, 0.0, 10.001063, 9.998788 
1.0749761e+3, 2.4499403e+2, -447593.3, -566624.9, 105760.85, 0.08550596, -0.027855918, -385752.25, 153295.25, 0.0, 10.000917, 9.999346 
1.0749639e+3, 2.5499174e+2, -401477.75, -494626.1, 107799.086, -0.09540454, -0.21421546, -330621.97, 110445.21, 0.0, 10.000557, 9.999344 
1.07495286e+3, 2.6499087e+2, -360102.47, -423489.75, 27385.871, -0.04439833, -0.22860295, -349909.7, -6834.611, 0.000000000031670343, 10.00017, 9.999348 
1.07494324e+3, 2.749912e+2, -325089.94, -355955.88, 67515.54, 0.23930119, -0.1543087, -271265.94, -26192.336, 0.00000057346807, 9.999736, 9.999346 
1.07493155e+3, 2.8499097e+2, -254046.61, -328929.22, 119661.414, 0.25496116, -0.08097792, -166105.67, -19029.203, 0.000016659129, 9.999801, 9.998828 
1.0749177e+3, 2.9498994e+2, -82388.836, -197671.28, 134853.56, -0.0075873863, -0.09443781, 6625.984, 55711.496, 0.000111912384, 10.000302, 9.9988165 
1.0749054e+3, 3.0498737e+2, -64610.58, -241710.03, 54767.348, -0.069295384, -0.19001625, -49042.504, -49042.504, 0.0003521945, 10.000436, 9.998107 
1.0748938e+3, 3.1498626e+2, -41070.984, -65023.76, 49028.01, 0.03425497, -0.14359027, -2577.7793, -2577.7793, 0.0007370222, 9.999822, 9.999623 
1.0851209e+3, 1.2501672e+2, -1293687.8, -1551905.9, 3264.861, -0.064779215, 0.092037365, -1293646.5, 421192.3, 0.00064071716, 10.003004, 9.999661 
1.0851135e+3, 1.3501458e+2, -1430576.6, -1596815.9, 83105.94, 0.20783024, -0.084332265, -1396157.0, 220694.92, 0.00028839763, 10.001567, 9.999372 
1.08510196e+3, 1.4501347e+2, -1480379.4, -1642848.0, -21448.898, 0.17167303, -0.08860746, -1477595.4, 41265.766, 0.00006873226, 10.000864, 9.998708 
1.0850888e+3, 1.550135e+2, -1339897.1, -1525359.9, -14292.884, 0.13168547, 0.015715083, -1338802.1, 82063.81, 0.0000030594845, 10.001157, 9.998703 
1.0850762e+3, 1.6501285e+2, -1181036.3, -1277258.6, 31262.303, 0.09319345, 0.03055834, -1171771.4, 151101.27, 0.000000000186287, 10.001056, 9.999779 
1.0850645e+3, 1.7501134e+2, -1146210.8, -1210656.3, -28336.18, 0.07992255, -0.12100172, -1135523.8, 89359.336, 0.0, 10.000629, 9.999771 
1.0850523e+3, 1.8501048e+2, -1088149.9, -1242903.4, -73867.08, 0.09795521, -0.12897357, -1058552.3, 68336.266, 0.0, 10.000811, 9.998802 
1.0850398e+3, 1.9501013e+2, -886331.06, -1094155.5, -50270.78, 0.14355032, -0.0648893, -874809.75, 154080.84, 0.0, 10.001527, 9.998801 
1.0850266e+3, 2.0500928e+2, -817178.4, -947445.5, -25775.08, 0.10597287, -0.053859927, -812263.8, 118634.62, 0.0, 10.001068, 9.999348 
1.0850127e+3, 2.1500762e+2, -954940.6, -965872.25, -56956.723, -0.01586416, -0.17689824, -903188.06, -70272.99, 0.0, 9.999459, 9.999327 
1.0850003e+3, 2.2500739e+2, -876767.06, -850796.4, -24341.154, 0.0051886067, -0.1381852, -836193.5, -101276.8, 0.0, 9.999217, 9.999562 
1.0849895e+3, 2.3500837e+2, -604432.56, -669899.56, 13873.918, 0.16871166, -0.013422637, -601613.75, 35291.695, 0.0, 10.000416, 9.999554 
1.0849774e+3, 2.4500754e+2, -523603.1, -638331.5, 93185.35, 0.14754684, -0.021998301, -471540.78, 67371.734, 0.0, 10.000533, 9.999049 
1.0849642e+3, 2.5500467e+2, -580682.1, -615076.75, 71852.11, -0.05687614, -0.23292905, -523997.97, -83058.23, 0.0, 9.99947, 9.999048 
1.08495265e+3, 2.6500377e+2, -476112.44, -430930.4, 25289.21, -0.029006284, -0.2599577, -419611.25, -76662.984, 0.000000020287489, 9.999172, 9.999769 
1.08494274e+3, 2.750045e+2, -310253.25, -304094.03, 15383.383, 0.23337404, -0.18737791, -291485.03, -46544.063, 0.0000009638229, 9.999643, 9.9997425 
1.0849314e+3, 2.8500476e+2, -220375.44, -298707.75, 97321.89, 0.25892335, -0.09013551, -154634.31, -7695.562, 0.00001551447, 9.999968, 9.998954 
1.08491845e+3, 2.9500434e+2, -112087.2, -194880.28, 95719.766, 0.049131148, -0.05604942, -49195.938, -252.42491, 0.000103287646, 10.000024, 9.998969 
1.08490616e+3, 3.0500177e+2, -129760.305, -278908.75, 44591.77, -0.008735342, -0.15554084, -117445.28, -117445.28, 0.00033301808, 10.00004, 9.998042 
1.0848943e+3, 3.1500027e+2, -42559.902, -78226.875, 37535.12, 0.110175304, -0.13637078, -18837.182, -18837.182, 0.00070935563, 9.99989, 9.999496 
1.095125e+3, 1.2502857e+2, -1382146.6, -1735129.8, -59076.39, 0.0024434247, -0.059235457, -1372521.9, 342190.75, 0.000734217, 10.003002, 9.998404 
1.09511465e+3, 1.3502647e+2, -1508746.5, -1763033.1, 34711.3, 0.1309154, -0.11850232, -1504093.4, 112639.91, 0.00033773432, 10.00158, 9.998226 
1.0951012e+3, 1.4502531e+2, -1434292.3, -1548997.1, -21916.027, -0.011772911, -0.10212988, -1430247.5, 88497.21, 0.0000845864, 10.000875, 9.999343 
1.095091e+3, 1.5502515e+2, -1297906.6, -1433720.3, 8258.702, 0.22797377, -0.07837609, -1297406.3, 123340.45, 0.0000043925156, 10.001148, 9.999332 
1.09507896e+3, 1.6502461e+2, -1266537.3, -1461757.4, 2313.1458, 0.23939823, -0.020022564, -1266509.8, 56243.77, 0.0000000006358386, 10.00108, 9.998506 
1.09506495e+3, 1.7502339e+2, -1230555.9, -1394066.8, -33872.21, 0.042422697, -0.016483122, -1223816.8, 951.60956, 0.0, 10.000655, 9.998504 
1.0950519e+3, 1.850223e+2, -1029894.0, -1113929.4, -57847.1, -0.04008274, -0.029828055, -1000415.0, 126362.586, 0.0, 10.000784, 9.999695 
1.09504014e+3, 1.9502112e+2, -836528.6, -969394.56, -11921.554, 0.0027645747, -0.1392561, -835467.44, 193316.1, 0.0, 10.001439, 9.999697 
1.09502696e+3, 2.050205e+2, -870211.4, -1035875.8, -98026.19, 0.013450331, -0.12015242, -824706.9, 106081.41, 0.0, 10.00097, 9.998792 
1.09501235e+3, 2.150203e+2, -1010540.5, -1052974.4, -109376.67, -0.010267328, -0.040960792, -920341.9, -87548.484, 0.0, 9.999337, 9.99879 
1.095e+3, 2.2501999e+2, -806107.94, -672539.4, 9770.033, 0.03230078, -0.048528064, -671828.5, 62965.734, 0.0, 9.9990835, 10.000847 
1.09498985e+3, 2.3501928e+2, -533973.4, -492209.22, 69029.99, 0.14581087, -0.22592556, -440971.94, 195821.81, 0.0, 10.000281, 10.000835 
1.0949785e+3, 2.4501905e+2, -565640.06, -694569.75, 43268.88, 0.19541614, -0.22265597, -552465.25, -13670.344, 0.0, 10.000399, 9.998728 
1.09496616e+3, 2.5501907e+2, -615828.56, -666907.06, 43175.28, 0.18427911, -0.11504431, -591204.5, -150405.08, 0.0, 9.999374, 9.998738 
1.0949535e+3, 2.650186e+2, -489177.34, -434089.2, 36397.355, 0.11682039, -0.08276488, -415988.53, -73183.73, 0.00000010014453, 9.999069, 9.999798 
1.09494016e+3, 2.7501735e+2, -315917.1, -301371.4, 50404.508, -0.014039348, -0.20996691, -257717.75, -12904.04, 0.0000018004142, 9.999578, 9.999794 
1.094929e+3, 2.8501734e+2, -211840.61, -265873.44, 87383.64, -0.0021528078, -0.15903513, -147392.36, -578.613, 0.000016749305, 9.999903, 9.99921 
1.0949198e+3, 2.950183e+2, -107982.36, -166344.7, 110180.11, 0.16144072, -0.015193628, -23184.598, 25622.012, 0.00010005187, 9.999939, 9.999206 
1.0949081e+3, 3.050164e+2, -107854.48, -215762.36, 32322.611, 0.1710581, -0.08296175, -98913.44, -98913.44, 0.00032272984, 9.999963, 9.998514 
1.0948939e+3, 3.1501487e+2, -29775.262, -30448.254, 60889.574, 0.033897728, -0.11268049, 30778.746, 30778.746, 0.0006960898, 9.999793, 9.999877 
1.1051293e+3, 1.2504086e+2, -1388708.1, -1761856.4, -33748.848, 0.13436432, -0.15810694, -1385680.4, 328905.9, 0.00083503575, 10.003076, 9.998168 
1.1051163e+3, 1.3503939e+2, -1410089.3, -1727842.0, 52300.25, 0.12178644, -0.14792776, -1401702.4, 214901.55, 0.0003918232, 10.002302, 9.998117 
1.10510156e+3, 1.4503822e+2, -1270726.0, -1485344.6, 86798.164, -0.118354216, -0.12172481, -1240016.5, 278599.53, 0.000102570426, 10.002045, 9.999228 
1.1050933e+3, 1.550375e+2, -1111153.4, -1356297.8, 43420.37, 0.2666388, -0.14217818, -1103689.9, 316931.7, 0.0000061708192, 10.002471, 9.99923 
1.10508144e+3, 1.6503683e+2, -1143517.8, -1436674.1, 29435.395, 0.33234155, -0.0763332, -1140591.4, 182038.78, 0.0000000015512864, 10.002078, 9.998194 
1.1050663e+3, 1.7503598e+2, -1201457.5, -1410933.1, 39589.094, 0.10252266, -0.0044718483, -1194225.3, 30418.584, 0.0, 10.000998, 9.998218 
1.1050526e+3, 1.850349e+2, -1093901.0, -1145793.8, 73024.64, -0.017033534, -0.001652353, -1042350.25, 84304.25, 0.0, 10.000362, 9.999673 
1.1050405e+3, 1.9503333e+2, -1022332.5, -1057655.3, 28360.463, -0.02532498, -0.14888251, -1006583.7, 22081.008, 0.0, 10.000175, 9.999691 
1.1050276e+3, 2.0503259e+2, -899902.0, -1015038.8, -52857.89, 0.0020678707, -0.15764795, -879316.25, 51353.223, 0.0, 10.000616, 9.999107 
1.1050136e+3, 2.150325e+2, -641406.5, -839082.25, -19811.516, 0.06369489, -0.09604527, -639440.5, 193230.1, 0.0, 10.001715, 9.999114 
1.1050008e+3, 2.2503226e+2, -496140.88, -539289.9, 91474.05, 0.11029278, -0.10747565, -423731.53, 310939.16, 0.0, 10.001272, 10.0007105 
1.1049895e+3, 2.3503157e+2, -689662.6, -583874.2, 23440.555, 0.14848581, -0.2679611, -578912.94, 57759.637, 0.0, 9.999278, 10.000694 
1.1049784e+3, 2.4503168e+2, -712057.6, -726794.1, 20525.975, 0.20914572, -0.23928024, -697617.44, -158946.47, 0.0, 9.999246, 9.999048 
1.1049675e+3, 2.550324e+2, -334842.75, -494414.78, 40055.918, 0.29115978, -0.09469114, -325352.3, 115315.44, 0.0, 10.001164, 9.999046 
1.1049547e+3, 2.6503167e+2, -167661.66, -383382.3, 16635.06, 0.2068547, -0.05455166, -166386.4, 176289.52, 0.00000018749917, 10.001717, 9.998877 
1.10494e+3, 2.7502936e+2, -202305.03, -349032.66, -64104.555, -0.040153347, -0.1982817, -178243.78, 66453.88, 0.0000025324416, 10.000802, 9.99888 
1.1049283e+3, 2.850288e+2, -219239.1, -238491.95, -52562.332, -0.03757496, -0.1711355, -175428.95, -28725.338, 0.000018771152, 9.99973, 9.999481 
1.1049197e+3, 2.9502967e+2, -307322.6, -234536.94, -55773.063, 0.23092775, -0.057012264, -204333.42, -155637.58, 0.00010057408, 9.998458, 9.99945 
1.1049084e+3, 3.050283e+2, -191976.38, -226974.47, -46046.28, 0.25752774, -0.097567976, -160216.14, -160216.14, 0.0003198817, 9.999237, 9.99879 
1.1048954e+3, 3.1502777e+2, 275954.75, 161791.44, -73575.484, 0.117023796, -0.062295474, 311994.88, 311994.88, 0.0006923279, 10.001711, 10.000261 
1.11513354e+3, 1.2505361e+2, -1343253.6, -1660106.5, -28830.71, 0.20616654, -0.23542339, -1340651.6, 373807.5, 0.000944546, 10.003064, 9.998869 
1.11511864e+3, 1.3505343e+2, -1359204.3, -1619729.9, 31219.4, 0.10493051, -0.1632025, -1355515.4, 260947.13, 0.00045159098, 10.002298, 9.998863 
1.1151027e+3, 1.4505225e+2, -1319349.4, -1590539.3, 86094.414, -0.24316484, -0.13828829, -1294326.0, 224148.38, 0.00012308804, 10.002062, 9.998497 
1.1150949e+3, 1.5505071e+2, -1163447.0, -1464717.3, 68156.55, 0.15930414, -0.17096178, -1148745.4, 271743.66, 0.000008505592, 10.002468, 9.998489 
1.1150831e+3, 1.650497e+2, -1102878.9, -1350466.5, -25852.678, 0.27984974, -0.13179985, -1100208.1, 222292.23, 0.0000000033697685, 10.002068, 9.998794 
1.1150683e+3, 1.7504916e+2, -1160098.3, -1326083.4, 7308.9277, 0.17599513, -0.085461274, -1159777.1, 64732.082, 0.0, 10.000995, 9.998808 
1.1150542e+3, 1.8504825e+2, -1160873.6, -1280154.8, 53598.926, 0.076599985, -0.0472522, -1140327.9, -13808.357, 0.0, 10.000344, 9.998759 
1.1150409e+3, 1.950468e+2, -1097398.3, -1197602.9, 30214.35, -0.030026602, -0.08935556, -1088992.9, -60459.266, 0.0, 10.000109, 9.998763 
1.1150282e+3, 2.0504554e+2, -826711.2, -845845.06, -26217.787, -0.019043835, -0.16529737, -808369.4, 122172.55, 0.0, 10.000539, 10.000304 
1.115016e+3, 2.1504414e+2, -580784.0, -680254.06, 32043.828, 0.11486544, -0.35672548, -571355.0, 261192.42, 0.0, 10.001571, 10.000275 
1.1150027e+3, 2.2504413e+2, -627210.56, -775916.4, 6964.707, 0.1495527, -0.32308936, -626885.06, 107661.484, 0.0, 10.001124, 9.999156 
1.1149884e+3, 2.3504531e+2, -816501.44, -816043.56, -39773.816, 0.09799822, -0.14005889, -776498.0, -139957.1, 0.0, 9.999146, 9.999164 
1.1149768e+3, 2.450455e+2, -670346.3, -610247.56, 84503.85, 0.10264498, -0.07057963, -550609.3, -12069.32, 0.0, 9.999117, 9.999909 
1.1149676e+3, 2.5504446e+2, -288010.5, -379103.0, 124579.89, 0.16756032, -0.18827337, -200912.08, 239634.02, 0.0, 10.001086, 9.999876 
1.1149561e+3, 2.6504284e+2, -309788.2, -662414.25, -28979.424, 0.15198535, -0.18610129, -307422.47, 35140.836, 0.00000020790911, 10.001647, 9.996994 
1.114942e+3, 2.7504045e+2, -344359.88, -623985.94, -86088.18, 0.059402138, -0.15336119, -319981.38, -75387.8, 0.0000030041272, 10.000714, 9.997033 
1.1149292e+3, 2.8503913e+2, -218711.67, -210199.83, -110106.67, 0.060604423, -0.11812346, -104266.85, 42341.258, 0.000021469468, 9.999617, 9.999728 
1.1149176e+3, 2.9503858e+2, -300609.25, -202847.14, -84961.27, 0.1503531, -0.17475817, -153708.94, -105098.68, 0.00010458993, 9.998385, 9.999701 
1.1149069e+3, 3.0503747e+2, -198508.44, -231841.22, 42413.613, 0.15695807, -0.19843662, -169604.19, -169604.19, 0.00032358713, 9.999197, 9.998776 
1.1148982e+3, 3.1503862e+2, 271831.66, 171939.27, 51474.766, 0.16557212, 0.004153045, 293609.06, 293609.06, 0.00069615606, 10.001628, 10.000372 
1.125136e+3, 1.2506737e+2, -1357074.3, -1729274.9, 54074.367, 0.15022552, -0.22483993, -1349377.4, 364946.38, 0.0010643419, 10.003234, 9.99832 
1.1251225e+3, 1.350672e+2, -1258110.9, -1634637.5, -78167.266, 0.22192249, -0.09277096, -1242528.3, 373801.72, 0.00051804923, 10.003274, 9.998288 
1.1251061e+3, 1.4506564e+2, -1241127.6, -1526769.4, -5962.655, -0.12815788, -0.09391483, -1241003.3, 277342.75, 0.00014661087, 10.002491, 9.998724 
1.12509586e+3, 1.5506358e+2, -1346260.0, -1526087.0, 16767.746, 0.08093195, -0.20002304, -1344709.9, 75652.72, 0.00001150662, 10.0011015, 9.998724 
1.12508364e+3, 1.6506273e+2, -1266817.4, -1408824.3, -14092.728, 0.1809181, -0.16644499, -1265432.3, 56938.992, 0.0000000061074554, 10.000845, 9.998985 
1.12506986e+3, 1.750629e+2, -1029370.75, -1236064.4, -29111.598, 0.20953202, -0.0693214, -1025348.8, 199024.14, 0.0, 10.00178, 9.999043 
1.125056e+3, 1.8506205e+2, -991505.8, -1236483.1, 24994.998, 0.1686684, -0.023221113, -988981.56, 137401.92, 0.0, 10.001666, 9.998424 
1.125042e+3, 1.950599e+2, -1052408.3, -1217115.3, 24357.465, 0.04817794, -0.10333968, -1048881.6, -20476.055, 0.0, 10.000568, 9.998419 
1.1250288e+3, 2.0505868e+2, -896893.2, -834376.5, 21214.3, 0.03369829, -0.17386293, -827857.44, 102555.9, 0.0, 9.999873, 10.000702 
1.1250167e+3, 2.1505815e+2, -830529.9, -749595.4, -7170.5996, 0.13435805, -0.31984386, -748965.0, 83444.76, 0.0, 9.999652, 10.000714 
1.12500355e+3, 2.2505812e+2, -797845.06, -947414.0, -32681.756, 0.16256954, -0.27257267, -791015.75, -56605.836, 0.0, 10.000328, 9.998364 
1.1249892e+3, 2.3505843e+2, -465362.0, -732161.06, -40970.5, 0.12440383, -0.09924287, -459212.22, 177202.72, 0.0, 10.001918, 9.998401 
1.1249773e+3, 2.45058e+2, -301292.75, -448967.22, 102309.98, 0.111388795, -0.0470197, -248958.4, 289462.16, 0.0, 10.001725, 9.999765 
1.1249676e+3, 2.5505662e+2, -484968.7, -491092.6, 49033.58, 0.12582442, -0.18127087, -438901.56, 1527.346, 0.0, 9.999808, 9.99973 
1.1249565e+3, 2.65055e+2, -557062.75, -754706.1, -21789.666, 0.13310121, -0.18533859, -554689.0, -212243.89, 0.00000016860811, 9.999848, 9.997219 
1.12494394e+3, 2.7505282e+2, -167895.23, -514820.53, 50269.543, 0.13307136, -0.14897828, -160758.0, 83713.66, 0.0000038179373, 10.001836, 9.997235 
1.12493075e+3, 2.850511e+2, 100269.305, -157736.48, 16398.014, 0.1311069, -0.115946114, 101307.336, 247797.38, 0.000026281929, 10.00223, 9.998834 
1.1249169e+3, 2.9504964e+2, 8796.832, -149115.3, -70358.78, 0.12652357, -0.17816772, 35597.176, 84100.1, 0.00011359424, 10.00092, 9.998846 
1.124906e+3, 3.0504814e+2, -93504.2, -170579.28, 120185.1, 0.123041205, -0.20752765, -5829.2207, -5829.2207, 0.00033605486, 9.999898, 9.998853 
1.1248993e+3, 3.150491e+2, -109254.81, -4411.5396, 92913.87, 0.26004806, -0.019405413, 49848.664, 49848.664, 0.0007117771, 9.998965, 10.000457 
1.1351365e+3, 1.2508217e+2, -1460847.9, -1946040.5, 90849.414, -0.18131955, -0.12465686, -1444394.8, 269784.84, 0.0011953667, 10.003259, 9.996811 
1.1351275e+3, 1.3508078e+2, -1377448.1, -1879769.6, -69684.84, 0.3571832, 0.054322116, -1367960.3, 248244.9, 0.00059164723, 10.003262, 9.996614 
1.1351112e+3, 1.4507848e+2, -1163120.0, -1359809.5, -69929.836, 0.11079455, 0.0053782943, -1140792.1, 377436.72, 0.00017336896, 10.002473, 9.99988 
1.1350958e+3, 1.550763e+2, -1264068.1, -1360125.9, -23148.43, -0.056650996, -0.2263766, -1258780.8, 161460.17, 0.000015247707, 10.0011215, 9.999855 
1.13508224e+3, 1.6507602e+2, -1272877.3, -1428210.5, 8161.624, -0.06388629, -0.18255104, -1272449.6, 49792.098, 0.000000009421829, 10.000873, 9.998838 
1.1350709e+3, 1.7507738e+2, -1037565.7, -1258577.5, 14134.775, 0.108892106, 0.044708245, -1036665.4, 187568.61, 0.0, 10.0018015, 9.9988785 
1.13505796e+3, 1.8507631e+2, -972841.44, -1198987.9, -29706.33, 0.16811128, 0.06483869, -969004.4, 157241.69, 0.0, 10.001665, 9.998683 
1.1350434e+3, 1.9507265e+2, -1046690.25, -1185897.5, -8859.173, 0.115962505, -0.1911617, -1046128.75, -17848.885, 0.0, 10.00048, 9.998677 
1.1350293e+3, 2.0507218e+2, -943111.9, -909656.5, 124.51046, 0.07067857, -0.17850292, -909656.0, 20626.588, 0.0, 9.999782, 10.000232 
1.1350156e+3, 2.150746e+2, -882023.7, -827027.9, -7578.9893, 0.041168563, 0.018804232, -826002.56, 6254.5483, 0.0, 9.999522, 10.000249 
1.1350029e+3, 2.250742e+2, -812782.75, -947205.9, 13899.049, 0.062634334, 0.050473176, -811360.6, -77099.805, 0.0, 10.000195, 9.998428 
1.1349914e+3, 2.3507082e+2, -483988.06, -739299.75, 29340.795, 0.13852015, -0.15158871, -480659.6, 155635.63, 0.0, 10.001781, 9.998418 
1.1349795e+3, 2.4506915e+2, -399135.03, -626572.44, 18610.762, 0.13808906, -0.1651296, -397622.22, 140690.55, 0.0, 10.001614, 9.998598 
1.1349671e+3, 2.5506896e+2, -575604.6, -658667.94, -12619.024, 0.07862233, -0.067809835, -573729.8, -133414.6, 0.0, 9.999717, 9.998624 
1.13495596e+3, 2.6506817e+2, -404798.97, -424397.6, 46771.53, 0.0633507, -0.04865224, -366811.22, -24490.748, 0.00000020663475, 9.999781, 9.999525 
1.1349457e+3, 2.750665e+2, -18077.328, -194498.25, 141133.58, 0.08551217, -0.19015433, 60144.695, 304476.34, 0.0000055002247, 10.00179, 9.999463 
1.1349326e+3, 2.850647e+2, -56457.637, -464795.8, -44196.973, 0.076378204, -0.17367497, -51728.69, 94621.3, 0.00003348711, 10.002161, 9.996751 
1.1349174e+3, 2.950627e+2, -147808.4, -452893.34, -106460.6, 0.050688293, -0.080364086, -114331.88, -65956.266, 0.00012808957, 10.000831, 9.9968 
1.1349055e+3, 3.0506006e+2, -100098.96, -157339.38, 78248.71, 0.05733756, -0.12865554, -45400.64, -45400.64, 0.0003591798, 9.9997835, 9.999 
1.1348982e+3, 3.1505913e+2, -121115.56, 7585.7437, 85427.3, 0.20340924, -0.14876644, 50187.55, 50187.55, 0.0007452587, 9.998812, 10.000609 
1.14514e+3, 1.2509586e+2, -1473051.0, -1908252.6, 108639.78, -0.119683005, -0.07280417, -1447438.5, 266609.47, 0.0013373722, 10.002959, 9.997235 
1.14512965e+3, 1.3509376e+2, -1445188.9, -1878773.8, 13820.219, 0.29410344, 0.0046543274, -1444748.9, 171329.23, 0.000672049, 10.002618, 9.996952 
1.14511415e+3, 1.4509182e+2, -1184673.6, -1380784.0, 49568.184, 0.16692092, -0.021565214, -1172857.0, 345241.63, 0.0002032588, 10.002372, 9.999785 
1.1450981e+3, 1.5509069e+2, -1095049.5, -1289515.9, -21908.87, 0.0126714, -0.13444573, -1092611.8, 327491.47, 0.000019742625, 10.0023365, 9.999754 
1.145084e+3, 1.6509034e+2, -1115980.4, -1359758.8, 21419.217, -0.025918342, -0.09048495, -1114112.6, 207993.08, 0.000000013934886, 10.001988, 9.998767 
1.14507206e+3, 1.7509043e+2, -1106382.3, -1299733.8, 13119.265, 0.07406074, 0.020104654, -1105496.3, 118612.54, 0.0, 10.001366, 9.998804 
1.14505894e+3, 1.8508936e+2, -1015592.94, -1142471.0, -17990.072, 0.13613027, 0.008987375, -1013091.44, 113027.43, 0.0, 10.001046, 9.999367 
1.1450444e+3, 1.9508693e+2, -911769.7, -1037739.44, 10700.924, 0.15063478, -0.1940231, -910867.1, 117270.71, 0.0, 10.001075, 9.999393 
1.1450302e+3, 2.0508668e+2, -819034.5, -955373.06, 56559.695, 0.12062192, -0.1463465, -798625.9, 131513.56, 0.0, 10.001081, 9.999293 
1.14501595e+3, 2.150884e+2, -724364.3, -855245.1, -2934.297, 0.057496402, 0.07216093, -724298.56, 107827.484, 0.0, 10.001045, 9.999325 
1.1450035e+3, 2.2508757e+2, -685244.06, -850332.3, 61682.742, 0.073685646, 0.09265997, -664743.1, 69391.01, 0.0, 10.000919, 9.998745 
1.1449929e+3, 2.3508409e+2, -617808.2, -765257.7, 72124.41, 0.16706097, -0.15326725, -588395.8, 47769.51, 0.0, 10.000702, 9.998758 
1.1449811e+3, 2.4508211e+2, -554951.75, -783632.0, 59478.895, 0.18046305, -0.17671925, -540406.6, -2221.6553, 0.0, 10.000896, 9.997863 
1.1449681e+3, 2.5508144e+2, -362815.53, -630569.0, 38951.277, 0.12678462, -0.05638046, -357264.2, 82930.83, 0.0, 10.001514, 9.997938 
1.1449564e+3, 2.6508066e+2, -207906.47, -294809.88, 87424.87, 0.088047616, -0.020941678, -153730.52, 188470.75, 0.00000038376965, 10.000964, 9.999854 
1.1449459e+3, 2.7507946e+2, -362130.38, -324338.16, 14724.395, 0.06212944, -0.14805466, -319278.7, -75071.79, 0.0000075917305, 9.999254, 9.999801 
1.1449333e+3, 2.850778e+2, -429490.84, -652202.8, -123154.14, 0.06636794, -0.12981032, -374813.4, -228590.48, 0.0000412879, 9.999621, 9.996695 
1.1449193e+3, 2.950757e+2, 1480.6367, -389879.1, -58931.836, 0.12627871, -0.038787745, 10162.1455, 58411.223, 0.00014511992, 10.001887, 9.996731 
1.1449066e+3, 3.0507287e+2, 124512.21, -80958.3, 112261.86, 0.12096596, -0.090979055, 173952.05, 173952.05, 0.00038843177, 10.001433, 9.998736 
1.1448966e+3, 3.150712e+2, -238067.0, -71420.53, 43995.777, 0.21130332, -0.16126283, -60518.555, -60518.555, 0.0007935078, 9.998111, 10.000395 
1.1551458e+3, 1.2510842e+2, -1321375.0, -1575884.1, 77642.7, 0.10630414, -0.08001829, -1299558.8, 414370.25, 0.001489488, 10.002898, 9.9995365 
1.155129e+3, 1.3510631e+2, -1289776.8, -1553928.0, 9238.914, -0.053440396, -0.23235281, -1289454.0, 326493.44, 0.00075867696, 10.002613, 9.999178 
1.1551146e+3, 1.4510563e+2, -1277859.4, -1578953.6, 35182.027, -0.045737326, -0.17353308, -1273803.1, 244152.55, 0.0002361324, 10.002383, 9.998425 
1.1551024e+3, 1.5510672e+2, -1182127.1, -1479619.5, -13401.198, 0.18120009, 0.06833719, -1181524.6, 238425.66, 0.000024990082, 10.002367, 9.998437 
1.1550884e+3, 1.6510558e+2, -1112199.9, -1352419.6, -13812.254, 0.1840527, 0.095856056, -1111408.4, 210555.56, 0.000000023716384, 10.001994, 9.998813 
1.1550731e+3, 1.7510217e+2, -1106285.3, -1293235.1, -876.9697, 0.023102812, -0.15043844, -1106281.1, 117715.77, 0.0, 10.001345, 9.998855 
1.15505874e+3, 1.8510136e+2, -948300.44, -997875.56, -27970.502, -0.011492312, -0.18716285, -935714.56, 190286.06, 0.0, 10.001022, 10.000371 
1.1550448e+3, 1.9510277e+2, -848930.7, -897250.6, 19680.33, 0.05635703, -0.10997093, -841929.44, 186049.81, 0.0, 10.001025, 10.000385 
1.155031e+3, 2.0510219e+2, -921679.25, -1150464.3, 39452.37, 0.08739974, -0.07988003, -915067.06, 14917.238, 0.0, 10.001001, 9.9979925 
1.1550176e+3, 2.150995e+2, -834840.1, -1056096.0, 5232.434, 0.09592124, -0.1707634, -834716.44, -2699.5713, 0.0, 10.000913, 9.998013 
1.155005e+3, 2.2509827e+2, -669691.94, -784836.8, 43672.5, 0.109577954, -0.15258221, -655001.8, 79027.68, 0.0, 10.000778, 9.999261 
1.1549934e+3, 2.3509823e+2, -598834.2, -699630.56, 74621.805, 0.12506692, -0.10627622, -559185.75, 76839.29, 0.0, 10.00059, 9.999264 
1.1549818e+3, 2.4509683e+2, -591393.25, -829917.5, 69262.67, 0.15425119, -0.0823537, -572739.56, -34701.754, 0.0, 10.000772, 9.997603 
1.15497045e+3, 2.5509402e+2, -401172.78, -684389.7, 70921.15, 0.19014277, -0.15118161, -384405.84, 55662.707, 0.0, 10.001402, 9.997622 
1.154958e+3, 2.650923e+2, -339666.7, -544180.7, 11325.339, 0.12546521, -0.10633371, -339041.44, 3046.871, 0.0000005356376, 10.000862, 9.998189 
1.1549443e+3, 2.750915e+2, -485947.97, -553809.25, -38185.926, -0.03980125, -0.03406945, -468795.78, -224696.39, 0.000008957139, 9.999141, 9.998276 
1.1549326e+3, 2.8509048e+2, -299851.03, -355860.13, -45646.37, 0.007319756, 0.013614106, -274303.3, -128194.24, 0.00004724257, 9.999503, 9.998788 
1.15492284e+3, 2.9508886e+2, 138547.66, -102995.11, 45175.883, 0.2515768, -0.049906585, 146720.39, 194841.6, 0.00015981888, 10.001866, 9.998716 
1.1549092e+3, 3.050866e+2, 47705.707, -212758.42, -18975.25, 0.2100572, -0.09452854, 49080.824, 49080.824, 0.00041743313, 10.001328, 9.997871 
1.1548937e+3, 3.1508502e+2, -318865.03, -198583.55, -45897.535, 0.06554068, -0.079501145, -183070.53, -183070.53, 0.0008473706, 9.997939, 9.999598 
1.1651498e+3, 1.2512238e+2, -1513720.5, -1576047.9, 158050.8, 0.32274312, -0.06572708, -1383790.4, 330003.78, 0.0016512593, 10.001172, 10.000363 
1.16512954e+3, 1.3512105e+2, -1406718.1, -1498120.9, -13237.569, -0.1868305, -0.23352748, -1404839.5, 210961.42, 0.0008513687, 10.001352, 10.000155 
1.16511606e+3, 1.4512084e+2, -1419579.8, -1675640.6, 38155.52, -0.08652913, -0.16360113, -1414015.1, 103788.875, 0.00027198074, 10.00154, 9.998163 
1.1651047e+3, 1.551216e+2, -1313241.1, -1573089.0, 41485.895, 0.22584401, 0.071136296, -1306778.5, 113026.555, 0.00003101119, 10.001601, 9.998163 
1.1650908e+3, 1.6512044e+2, -1164072.3, -1336987.8, 92672.92, 0.25845584, 0.09417915, -1123789.3, 198029.95, 0.00000004774233, 10.001469, 9.999173 
1.16507486e+3, 1.7511731e+2, -1092374.8, -1249841.3, 105307.1, 0.07200018, -0.15607339, -1039622.2, 184225.44, 0.0, 10.001279, 9.999193 
1.1650602e+3, 1.851166e+2, -942679.2, -1025074.94, 79342.305, 0.02911192, -0.18619868, -894476.5, 231373.6, 0.0, 10.001178, 10.000113 
1.16504624e+3, 1.9511802e+2, -843649.75, -924846.9, 14117.065, 0.09538734, -0.07976042, -841265.3, 186564.28, 0.0, 10.001182, 10.000125 
1.1650326e+3, 2.05117e+2, -895448.8, -1159200.3, 52620.215, 0.13869952, -0.07102938, -885338.3, 44500.574, 0.0, 10.001279, 9.997794 
1.1650194e+3, 2.1511348e+2, -765077.94, -1038935.1, 73690.72, 0.1720697, -0.22890654, -746508.1, 85370.24, 0.0, 10.001478, 9.9978485 
1.1650067e+3, 2.2511204e+2, -590356.25, -793838.44, 132565.39, 0.1708819, -0.2032996, -524990.06, 208903.27, 0.0, 10.001534, 9.998834 
1.16499454e+3, 2.3511228e+2, -506624.25, -701908.9, 73238.82, 0.14254117, -0.0848915, -482209.4, 153678.56, 0.0, 10.0014305, 9.998844 
1.1649828e+3, 2.451108e+2, -504967.2, -767475.7, 84566.586, 0.15058967, -0.05814503, -480083.1, 57818.113, 0.0, 10.001256, 9.997807 
1.1649716e+3, 2.5510755e+2, -449920.16, -690636.2, 100565.01, 0.18616807, -0.18759403, -413436.28, 26497.414, 0.0, 10.000962, 9.997805 
1.164959e+3, 2.651057e+2, -385230.8, -631150.6, 83647.77, 0.14540306, -0.13995625, -359475.94, -17519.746, 0.00000056359414, 10.000843, 9.997592 
1.1649449e+3, 2.7510485e+2, -276688.34, -521992.25, 84952.85, 0.036814936, -0.0020043126, -250140.81, -6169.5786, 0.00000928475, 10.000887, 9.997651 
1.1649331e+3, 2.85104e+2, -134631.11, -188020.38, 131857.69, 0.07625794, 0.053236123, -26793.027, 119187.016, 0.000050363375, 10.000263, 9.99957 
1.1649232e+3, 2.951028e+2, -229266.03, -188378.83, 95809.54, 0.25231993, -0.048720397, -110856.07, -62870.69, 0.00017050822, 9.998968, 9.999513 
1.1649089e+3, 3.0510107e+2, -305529.3, -393006.34, -21723.166, 0.19183859, -0.07808535, -300431.84, -300431.84, 0.00044292747, 9.998936, 9.997797 
1.1648932e+3, 3.1509936e+2, -71147.51, -88841.88, -22855.742, 0.13981375, -0.057748526, -55486.375, -55486.375, 0.00089617184, 9.999674, 9.999533 
1.1751507e+3, 1.2513722e+2, -1559381.3, -1659314.0, 70429.375, 0.25097942, -0.08077746, -1522994.1, 190654.56, 0.0018234614, 10.00113, 9.999811 
1.175131e+3, 1.3513792e+2, -1417451.4, -1531104.3, 2005.169, -0.19494827, -0.018909413, -1417416.0, 198223.06, 0.0009506097, 10.001397, 9.999908 
1.1751182e+3, 1.4513743e+2, -1362386.9, -1559108.1, 29567.1, -0.06075091, -0.006632549, -1358039.0, 159604.66, 0.00031097958, 10.001553, 9.998954 
1.175105e+3, 1.5513541e+2, -1263353.4, -1468283.9, 53303.867, 0.06876468, -0.1247641, -1250317.9, 169348.58, 0.00003785508, 10.0015955, 9.998884 
1.175091e+3, 1.651349e+2, -1128336.0, -1258935.6, 73076.484, 0.10839212, -0.09672269, -1095634.6, 226037.31, 0.00000010132158, 10.001453, 9.999712 
1.1750769e+3, 1.7513578e+2, -1054714.9, -1169275.8, 107366.76, 0.13235885, -0.0075727645, -990304.44, 233357.52, 0.0, 10.001269, 9.999747 
1.1750629e+3, 1.851351e+2, -1047010.44, -1239564.9, 66756.91, 0.16283573, 0.011062525, -1026130.56, 99536.53, 0.0, 10.001167, 9.998647 
1.1750486e+3, 1.951327e+2, -953422.44, -1142357.0, 26538.285, 0.18440092, -0.11823991, -949765.56, 77923.45, 0.0, 10.001129, 9.998662 
1.17503464e+3, 2.0513123e+2, -849013.5, -1041668.5, 48432.848, 0.18775578, -0.12459218, -837522.94, 92179.375, 0.0, 10.001191, 9.998641 
1.1750214e+3, 2.1513043e+2, -725288.7, -929112.0, 90307.72, 0.19487491, -0.095283985, -691033.25, 140676.23, 0.0, 10.001357, 9.998663 
1.1750084e+3, 2.2512877e+2, -705601.8, -997539.1, 116213.68, 0.17473814, -0.062484976, -664989.5, 68737.12, 0.0, 10.001386, 9.997505 
1.1749958e+3, 2.351262e+2, -619775.4, -899179.2, 80467.555, 0.1256639, -0.09658722, -598258.0, 37496.406, 0.0, 10.001274, 9.9975605 
1.1749834e+3, 2.4512403e+2, -480408.53, -683958.8, 63592.367, 0.0741987, -0.107501, -462174.63, 75600.26, 0.0, 10.001114, 9.998451 
1.1749711e+3, 2.551221e+2, -412559.75, -590984.1, 100646.625, 0.022642609, -0.17417838, -367278.22, 72512.04, 0.0, 10.000871, 9.998529 
1.17495924e+3, 2.6512074e+2, -371134.66, -584620.94, 74444.24, 0.073802255, -0.12791847, -347739.25, -5934.427, 0.0000005132723, 10.000762, 9.997956 
1.1749478e+3, 2.7511966e+2, -261312.97, -479115.16, 100697.29, 0.20019653, -0.056972608, -221892.14, 21929.574, 0.000009286575, 10.000836, 9.9979725 
1.1749346e+3, 2.851185e+2, -194121.98, -294387.6, 74183.15, 0.17684029, -0.008062869, -154720.23, -8885.491, 0.00005131962, 10.000187, 9.998876 
1.17492005e+3, 2.9511723e+2, -273183.16, -271070.16, 61216.313, 0.01969503, -0.056717064, -210901.22, -163056.58, 0.0001770123, 9.998919, 9.998972 
1.1749059e+3, 3.0511588e+2, -268786.7, -279406.84, 4413.4033, -0.023655461, -0.066378176, -267192.03, -267192.03, 0.0004593758, 9.998796, 9.998638 
1.1748944e+3, 3.151145e+2, -31233.393, 29904.6, 37439.0, 0.25413167, -0.09447939, 47669.258, 47669.258, 0.0009233706, 9.99954, 10.000402 
1.18515186e+3, 1.2515219e+2, -1549345.6, -1733800.5, 55407.613, 0.2347732, -0.08093132, -1533981.6, 179518.11, 0.0020081834, 10.001522, 9.99911 
1.1851343e+3, 1.3515277e+2, -1302465.4, -1532343.8, 6794.9385, -0.047818515, 0.014072247, -1302264.8, 313230.44, 0.0010574218, 10.002405, 9.999425 
1.18512146e+3, 1.4515215e+2, -1220357.4, -1417201.4, 1522.4529, 0.08889292, 0.0012793625, -1220345.6, 297155.5, 0.00035351914, 10.002212, 9.999607 
1.1851058e+3, 1.5515026e+2, -1296354.4, -1407336.8, -11606.873, 0.024972491, -0.16773406, -1295153.4, 124364.96, 0.00004562391, 10.001045, 9.999561 
1.1850914e+3, 1.6515008e+2, -1232298.6, -1338754.4, 35388.465, 0.039964996, -0.13154887, -1221608.3, 99911.92, 0.00000019883093, 10.000863, 9.999454 
1.18507884e+3, 1.7515133e+2, -1011860.9, -1173132.6, -10478.693, 0.18190224, 0.01899026, -1011182.9, 212325.4, 0.0, 10.001668, 9.999526 
1.1850653e+3, 1.8515047e+2, -960452.2, -1236384.5, -34629.477, 0.25906596, 0.047289427, -956172.56, 169344.36, 0.0, 10.001941, 9.998291 
1.1850507e+3, 1.9514735e+2, -881565.9, -1139770.0, -19919.139, 0.25664285, -0.11956681, -880038.25, 147509.02, 0.0, 10.001778, 9.998358 
1.1850364e+3, 2.0514588e+2, -747335.44, -960017.7, 53977.273, 0.22976449, -0.12706041, -734420.6, 195139.55, 0.0, 10.001745, 9.998943 
1.185023e+3, 2.1514566e+2, -637899.94, -850178.7, 38905.94, 0.20103087, -0.066513516, -630994.06, 200565.06, 0.0, 10.001804, 9.998991 
1.18501e+3, 2.25144e+2, -665452.1, -1009514.7, 99778.01, 0.17607233, -0.036852077, -638610.56, 94965.375, 0.0, 10.001777, 9.997241 
1.18499756e+3, 2.3514079e+2, -579842.94, -909911.6, 118903.13, 0.14637685, -0.1069083, -541470.56, 94140.97, 0.0, 10.001656, 9.997312 
1.184985e+3, 2.4513856e+2, -449400.22, -647462.6, 133085.58, 0.11569849, -0.12481666, -382543.06, 155090.13, 0.0, 10.0012455, 9.998634 
1.1849724e+3, 2.5513697e+2, -439078.94, -590800.1, 109942.34, 0.089653246, -0.16984287, -381365.03, 58279.297, 0.0, 10.000633, 9.998651 
1.1849603e+3, 2.6513574e+2, -414307.97, -561064.9, 97107.28, 0.12911315, -0.13455854, -365972.72, -24316.541, 0.0000005059796, 10.000296, 9.998333 
1.1849482e+3, 2.7513462e+2, -326530.06, -472951.63, 95269.89, 0.20719175, -0.10237896, -279590.22, -35918.73, 0.000009353779, 10.000237, 9.9983 
1.1849347e+3, 2.8513333e+2, -208061.06, -347274.4, 81737.92, 0.16787739, -0.06264597, -170307.7, -24620.656, 0.000051335024, 10.000303, 9.99845 
1.1849199e+3, 2.9513186e+2, -80859.53, -226144.48, 62069.36, 0.04071383, -0.07978558, -57953.41, -10250.848, 0.00017979782, 10.000458, 9.998535 
1.18490554e+3, 3.0513126e+2, -69922.62, -129202.305, 23778.03, 0.006374135, -0.02430973, -61563.58, -61563.58, 0.0004625388, 9.999897, 9.999153 
1.1848939e+3, 3.1513047e+2, -169193.31, 2837.3406, -5906.7603, 0.31852695, -0.04212799, 3039.9138, 3039.9138, 0.00092024915, 9.998382, 10.000791 
1.1951516e+3, 1.2516691e+2, -1604566.5, -1840639.3, -9731.352, 0.0076115155, -0.121496946, -1604166.1, 109184.92, 0.0022081332, 10.001489, 9.998392 
1.1951391e+3, 1.3516577e+2, -1349533.1, -1619656.1, 48639.06, 0.16097614, -0.1405887, -1341042.0, 274325.72, 0.0011730703, 10.002365, 9.99884 
1.1951256e+3, 1.4516507e+2, -1190615.4, -1350042.5, -52502.625, 0.2461932, -0.15419953, -1174878.6, 342496.9, 0.00040013902, 10.002186, 10.000083 
1.19510695e+3, 1.5516628e+2, -1256228.9, -1337605.9, -42327.465, 0.007180809, -0.061789166, -1238204.9, 181155.19, 0.00005450229, 10.001092, 10.000024 
1.1950917e+3, 1.6516602e+2, -1291613.5, -1470786.4, 50540.32, -0.035887007, -0.01021156, -1278340.5, 43022.332, 0.00000035173326, 10.000901, 9.998531 
1.1950804e+3, 1.7516413e+2, -1083571.4, -1314298.9, 28322.734, 0.14758457, -0.077165, -1080145.5, 143239.3, 0.0, 10.001634, 9.998576 
1.19506724e+3, 1.8516284e+2, -918964.8, -1143846.5, -51128.37, 0.23112342, -0.07606056, -907886.25, 217511.75, 0.0, 10.001914, 9.998939 
1.1950523e+3, 1.9516197e+2, -847137.4, -1053471.1, -15650.982, 0.22082622, -0.0833582, -845956.94, 181447.5, 0.0, 10.00171, 9.998986 
1.1950378e+3, 2.0516081e+2, -771484.4, -988159.2, 41995.75, 0.17598915, -0.0820324, -763629.5, 165784.03, 0.0, 10.001655, 9.998791 
1.19502395e+3, 2.1515915e+2, -668285.25, -881697.5, 49997.973, 0.10751597, -0.15277947, -657152.56, 174274.83, 0.0, 10.001671, 9.9988365 
1.195011e+3, 2.2515768e+2, -630492.4, -905549.6, 83654.33, 0.08865268, -0.1357008, -607048.44, 126393.23, 0.0, 10.00164, 9.998019 
1.194999e+3, 2.3515622e+2, -543566.5, -805315.8, 123204.46, 0.118525356, -0.11096347, -494698.25, 140759.92, 0.0, 10.001532, 9.998086 
1.1949871e+3, 2.451545e+2, -489608.72, -706081.0, 97292.21, 0.18583612, -0.09723285, -452308.5, 85166.586, 0.0, 10.001133, 9.998291 
1.1949752e+3, 2.5515231e+2, -478537.34, -643481.2, 96910.92, 0.29185724, -0.16745132, -433756.2, 5738.196, 0.0, 10.000511, 9.998344 
1.1949617e+3, 2.6515082e+2, -414713.2, -539941.1, 85053.1, 0.21727565, -0.15721177, -371712.1, -30203.111, 0.0000006389743, 10.000195, 9.998533 
1.1949463e+3, 2.7514973e+2, -318537.53, -437174.72, 105331.305, -0.032826547, -0.14399719, -256970.31, -13449.299, 0.000009301616, 10.000159, 9.998582 
1.1949332e+3, 2.8514847e+2, -233925.86, -387120.1, 77979.59, -0.031290345, -0.10452289, -201216.36, -55679.266, 0.000051838055, 10.000236, 9.998213 
1.1949223e+3, 2.951468e+2, -106767.5, -270471.1, 82815.59, 0.21414739, -0.12621169, -72179.875, -24620.396, 0.00018153801, 10.000407, 9.998258 
1.19490735e+3, 3.0514714e+2, -87538.125, -132643.02, -38111.94, 0.18407886, 0.04821688, -65805.89, -65805.89, 0.0004580292, 9.999766, 9.999186 
1.19489096e+3, 3.1514716e+2, -202772.89, -16291.682, -20866.557, 0.14453696, 0.09524827, -13985.315, -13985.315, 0.0008969489, 9.9981785, 10.000748 
1.2051531e+3, 1.2518167e+2, -1712594.1, -1850552.0, 6303.7554, 0.0641268, -0.14539711, -1712306.8, 899.82874, 0.0024257244, 10.000586, 9.99877 
1.2051407e+3, 1.351807e+2, -1594382.4, -1715999.0, 99156.16, 0.18953855, -0.15700307, -1538873.9, 76346.875, 0.0012988481, 10.000619, 9.999017 
1.2051262e+3, 1.4517969e+2, -1372180.4, -1448869.1, 9309.953, 0.16374183, -0.20500165, -1371066.4, 146164.64, 0.00045139206, 10.000977, 9.999991 
1.205109e+3, 1.5518138e+2, -1156290.3, -1293717.4, -46623.773, 0.078017235, -0.061160006, -1141965.6, 277245.1, 0.00006471426, 10.001799, 9.999986 
1.205094e+3, 1.6518103e+2, -1147482.4, -1408825.5, 93959.234, 0.058356684, -0.011974962, -1117208.6, 204005.16, 0.00000057087306, 10.001924, 9.998459 
1.20508164e+3, 1.7517842e+2, -1107364.6, -1329579.1, 112946.95, 0.12491001, -0.14506356, -1060036.3, 163205.53, 0.0, 10.001494, 9.998532 
1.2050684e+3, 1.8517698e+2, -1002019.94, -1182729.6, 60601.008, 0.18973374, -0.15784094, -983579.2, 141677.22, 0.0, 10.001341, 9.998942 
1.2050541e+3, 1.9517645e+2, -877838.4, -1063735.6, 30994.57, 0.24909437, -0.13359214, -872806.8, 154453.31, 0.0, 10.001483, 9.999017 
1.2050397e+3, 2.051755e+2, -799940.9, -1001230.56, 93695.305, 0.20823827, -0.112490095, -763078.6, 166189.31, 0.0, 10.001451, 9.998796 
1.2050252e+3, 2.1517392e+2, -721221.8, -907789.5, 89048.766, 0.08040199, -0.17706834, -685542.25, 145740.13, 0.0, 10.001292, 9.998846 
1.20501205e+3, 2.2517267e+2, -654657.6, -873013.44, 137858.81, 0.05956804, -0.15807946, -587980.9, 145313.47, 0.0, 10.001292, 9.998412 
1.2050007e+3, 2.3517154e+2, -530082.5, -755635.25, 127203.28, 0.14422768, -0.13492346, -472861.25, 162444.42, 0.0, 10.001449, 9.998467 
1.2049889e+3, 2.4517006e+2, -458091.8, -726993.3, 92324.266, 0.23489973, -0.09945892, -429445.13, 107876.08, 0.0, 10.001508, 9.997958 
1.20497644e+3, 2.5516796e+2, -363066.16, -626603.94, 69390.09, 0.31533986, -0.13081019, -345912.16, 93431.21, 0.00000000020898414, 10.001464, 9.998 
1.2049621e+3, 2.6516634e+2, -290245.7, -485312.22, 68072.88, 0.21340579, -0.10900652, -268839.25, 72520.555, 0.00000074892756, 10.001072, 9.998479 
1.2049462e+3, 2.751651e+2, -291104.8, -430627.06, 43516.195, -0.057072245, -0.10893991, -278645.06, -35272.484, 0.000009032264, 10.000369, 9.99852 
1.2049334e+3, 2.851638e+2, -271389.16, -384251.78, 50293.66, -0.01810195, -0.08052975, -252229.83, -106841.26, 0.000052112464, 9.99989, 9.9984 
1.20492324e+3, 2.9516223e+2, -223601.47, -307329.75, 57170.867, 0.30979285, -0.10535608, -194605.8, -147195.69, 0.00018292993, 9.999527, 9.998428 
1.2049076e+3, 3.0516297e+2, -34131.746, -101405.164, -25113.793, 0.22504881, 0.09469338, -25790.715, -25790.715, 0.000455038, 10.000127, 9.999211 
1.2048898e+3, 3.1516284e+2, 225154.22, 166925.14, -48873.11, 0.060428776, 0.1290428, 252927.63, 252927.63, 0.0008751653, 10.001259, 10.000504 
1.2151554e+3, 1.251964e+2, -1607626.4, -1626830.8, 25941.967, 0.20347449, -0.17852744, -1589566.5, 123500.49, 0.0026624324, 10.000591, 10.00029 
1.2151394e+3, 1.351976e+2, -1547076.5, -1621780.5, 106919.36, -0.022679994, -0.04193619, -1471172.5, 143881.28, 0.0014356553, 10.000632, 9.999661 
1.2151235e+3, 1.4519595e+2, -1409054.9, -1518232.1, 25860.793, -0.22717874, -0.16001754, -1403239.0, 113829.31, 0.0005075534, 10.000957, 9.99952 
1.2151117e+3, 1.5519556e+2, -1193477.0, -1368381.4, -3759.6245, 0.15017685, -0.17669691, -1193396.3, 225674.25, 0.000076397075, 10.001788, 9.999479 
1.21509776e+3, 1.6519506e+2, -1096072.6, -1299727.5, 67277.28, 0.21833833, -0.15270434, -1075854.8, 245218.61, 0.0000008702971, 10.001917, 9.999206 
1.21508256e+3, 1.7519419e+2, -1059385.3, -1226016.5, 106532.61, 0.032129984, -0.188585, -1007457.8, 215621.97, 0.0, 10.001473, 9.999253 
1.2150685e+3, 1.8519282e+2, -1037531.7, -1255103.6, 53007.305, 0.04944119, -0.20427476, -1025304.6, 99788.305, 0.0, 10.001335, 9.998449 
1.2150558e+3, 1.9519085e+2, -922302.4, -1144136.9, 46563.32, 0.25009617, -0.27401152, -912925.06, 114188.81, 0.0, 10.001428, 9.998495 
1.2150415e+3, 2.0519002e+2, -807512.6, -991479.3, 75538.695, 0.23294295, -0.22005337, -780470.6, 148652.36, 0.0, 10.001346, 9.99891 
1.215026e+3, 2.151901e+2, -735421.6, -900243.2, 91973.72, 0.024420818, -0.13247733, -694338.7, 136784.31, 0.0, 10.001135, 9.998968 
1.21501304e+3, 2.2518906e+2, -675392.7, -885225.6, 130951.42, 0.0015623341, -0.0980568, -612512.44, 120620.41, 0.0, 10.001153, 9.998399 
1.21500246e+3, 2.3518683e+2, -547923.5, -765308.9, 144425.47, 0.15206069, -0.18453954, -475859.94, 159293.6, 0.0, 10.001327, 9.998462 
1.2149899e+3, 2.4518523e+2, -506152.13, -789382.75, 83167.32, 0.1718993, -0.14237168, -483536.8, 53634.938, 0.0, 10.001353, 9.9976 
1.2149757e+3, 2.5518394e+2, -402594.5, -686860.75, 78512.99, 0.07698093, -0.057242196, -382351.16, 56839.168, 0.00000000018849695, 10.001373, 9.997627 
1.21496156e+3, 2.6518252e+2, -328391.44, -544389.6, 31304.223, 0.030189252, 0.017862123, -323946.06, 17261.553, 0.00000061447383, 10.000981, 9.998119 
1.2149478e+3, 2.7518073e+2, -326118.9, -484425.8, 28688.49, 0.038799126, 0.0012057328, -321080.34, -77854.28, 0.000008322687, 10.000282, 9.998195 
1.2149346e+3, 2.8517935e+2, -257649.98, -319962.53, 26961.764, 0.10642969, 0.011545304, -247603.7, -102362.56, 0.000050693892, 9.999745, 9.998909 
1.21492215e+3, 2.951783e+2, -197279.48, -230965.67, 61763.133, 0.2258817, -0.016297996, -150104.03, -102850.34, 0.00018223259, 9.999438, 9.998992 
1.214906e+3, 3.0517858e+2, -64022.43, -139716.89, 11403.599, 0.039437745, 0.12076923, -62341.758, -62341.758, 0.00045375043, 10.000026, 9.9990015 
1.2148895e+3, 3.1517714e+2, 167445.44, 80556.41, 33424.41, -0.13697918, 0.044214416, 178815.31, 178815.31, 0.0008639957, 10.001129, 9.999967 
1.22515626e+3, 1.2521252e+2, -1358844.9, -1471776.0, 117702.17, 0.16277753, -0.110533506, -1284764.8, 428145.97, 0.0029179724, 10.002093, 10.00065 
1.22514e+3, 1.3521335e+2, -1513955.4, -1621969.9, 42371.414, -0.020856122, -0.0023407168, -1499317.8, 115581.03, 0.0015834377, 10.000908, 9.99953 
1.2251238e+3, 1.4521159e+2, -1462568.4, -1553734.9, 28398.715, -0.27642447, -0.120914005, -1454445.8, 62467.84, 0.00056846405, 10.0006275, 9.999436 
1.22511305e+3, 1.5521069e+2, -1243595.4, -1390377.1, 2943.9087, 0.13348532, -0.18518867, -1243536.4, 175385.08, 0.00008951281, 10.001445, 9.999484 
1.2250997e+3, 1.6521017e+2, -1123906.9, -1292981.8, 52231.82, 0.24268408, -0.17554778, -1109072.6, 211851.69, 0.0000012652538, 10.001608, 9.999422 
1.2250844e+3, 1.752097e+2, -1088588.9, -1215175.3, 37324.887, 0.091290124, -0.19294997, -1078403.0, 144522.53, 0.0, 10.001144, 9.999501 
1.22507006e+3, 1.8520859e+2, -1064677.6, -1273597.4, 32897.844, 0.0824592, -0.19494268, -1059619.8, 65316.844, 0.0, 10.001167, 9.99841 
1.2250569e+3, 1.9520666e+2, -881994.3, -1126688.3, 33853.57, 0.20349993, -0.25578135, -877397.0, 149561.52, 0.0, 10.001718, 9.998479 
1.2250427e+3, 2.0520578e+2, -745349.06, -992305.75, 69596.24, 0.20073844, -0.1932514, -727086.3, 201883.0, 0.0, 10.00189, 9.998649 
1.225028e+3, 2.1520571e+2, -674549.8, -896767.2, 40079.973, 0.08697755, -0.092752405, -667541.9, 163429.69, 0.0, 10.001666, 9.998735 
1.225015e+3, 2.2520457e+2, -611680.44, -830425.4, 105149.445, 0.072777696, -0.068794206, -569333.6, 163648.63, 0.0, 10.00149, 9.998607 
1.2250035e+3, 2.3520218e+2, -529651.44, -734632.6, 105444.48, 0.14422125, -0.19278102, -485094.9, 149908.36, 0.0, 10.001354, 9.998658 
1.2249905e+3, 2.452006e+2, -513407.78, -790421.2, 88509.68, 0.10505294, -0.15967263, -487542.75, 49478.234, 0.0, 10.001281, 9.997639 
1.2249758e+3, 2.551996e+2, -410311.56, -680971.1, 96515.805, -0.031043904, -0.04823525, -379420.25, 59616.94, 0.0, 10.001287, 9.997708 
1.2249622e+3, 2.6519823e+2, -268663.9, -534111.75, 83945.47, -0.03328746, 0.03532954, -244344.9, 96709.66, 0.0000003685213, 10.0014715, 9.997956 
1.2249492e+3, 2.751962e+2, -127454.35, -407349.34, 71579.77, 0.08743618, 0.012502843, -110210.99, 132864.83, 0.0000073761885, 10.001737, 9.998021 
1.2249358e+3, 2.8519467e+2, 7173.8047, -211378.5, 63422.273, 0.16940577, 0.024180803, 24245.041, 169337.06, 0.00004908337, 10.001623, 9.998753 
1.22492224e+3, 2.9519352e+2, 25129.766, -146485.05, 23469.475, 0.21713412, 0.005152828, 28281.492, 75385.9, 0.00018069774, 10.00105, 9.998803 
1.22490615e+3, 3.0519328e+2, 24547.09, -112231.58, 7528.3984, 0.02468886, 0.10313719, 24960.21, 24960.21, 0.00045143487, 10.000697, 9.998864 
1.22489065e+3, 3.1519118e+2, 3498.2012, -76140.234, -3104.3079, -0.08479983, -0.017762039, 3619.0237, 3619.0237, 0.0008578977, 10.000275, 9.999326 
1.2351569e+3, 1.2522998e+2, -1392696.9, -1542231.5, 130011.64, -0.031693824, 0.06799723, -1317487.0, 395251.56, 0.0031899144, 10.002101, 10.000154 
1.2351421e+3, 1.3522778e+2, -1559638.9, -1727382.6, -2890.9548, 0.065519504, -0.056409303, -1559589.1, 55168.07, 0.0017411282, 10.000937, 9.998795 
1.2351263e+3, 1.452265e+2, -1438179.8, -1510827.9, 46300.793, -0.10991425, -0.10771728, -1415654.9, 101112.97, 0.0006337289, 10.000653, 9.999723 
1.2351129e+3, 1.5522666e+2, -1218711.3, -1347756.3, 40922.332, -0.048810244, -0.09154448, -1206828.4, 211936.42, 0.00010392506, 10.001465, 9.999778 
1.2350997e+3, 1.652262e+2, -1130331.0, -1305194.3, 19871.26, 0.057445146, -0.08686943, -1128101.3, 192666.83, 0.0000017603737, 10.001605, 9.999336 
1.2350868e+3, 1.7522502e+2, -1096751.9, -1232981.0, 28748.47, 0.20946375, -0.16725972, -1090933.6, 131845.28, 0.0, 10.001142, 9.999383 
1.23507254e+3, 1.8522426e+2, -1045314.0, -1228020.0, 42452.668, 0.19112128, -0.14161497, -1035931.75, 88855.51, 0.0, 10.001145, 9.998734 
1.2350569e+3, 1.9522375e+2, -869509.44, -1087002.6, 65058.105, 0.022998502, -0.091659814, -851534.4, 175260.77, 0.0, 10.001654, 9.998784 
1.2350431e+3, 2.0522265e+2, -798698.75, -1076620.9, 46875.49, 0.02819522, -0.040843844, -791005.5, 137802.66, 0.0, 10.00178, 9.998121 
1.23503074e+3, 2.1522084e+2, -729979.3, -983688.0, 41235.137, 0.18916488, -0.061931614, -723445.6, 107381.94, 0.0, 10.001541, 9.998201 
1.2350177e+3, 2.2521923e+2, -606291.3, -789309.25, 89493.97, 0.18474263, -0.07469948, -569804.0, 163038.33, 0.0, 10.001357, 9.998956 
1.235004e+3, 2.3521759e+2, -525825.06, -697636.0, 112110.54, 0.030400803, -0.15967906, -470491.3, 164363.81, 0.0, 10.001226, 9.998977 
1.2349902e+3, 2.452162e+2, -497120.38, -725921.75, 77232.74, -0.06517969, -0.14683068, -473490.6, 63378.145, 0.0, 10.00115, 9.998143 
1.23497665e+3, 2.552149e+2, -386412.7, -612988.6, 107663.12, -0.0966059, -0.11921402, -343414.03, 95470.65, 0.0, 10.001199, 9.998222 
1.2349634e+3, 2.6521337e+2, -291722.0, -546447.4, 86304.71, -0.06905981, -0.07514387, -265234.9, 75666.914, 0.00000016286783, 10.0013275, 9.997937 
1.23495035e+3, 2.7521142e+2, -146425.0, -422400.53, 96088.48, 0.0027725382, -0.08596866, -116265.16, 126657.08, 0.000006622681, 10.001637, 9.997962 
1.2349368e+3, 2.8520966e+2, -67838.5, -343061.63, 34183.78, 0.0777367, -0.050786804, -63656.29, 81285.695, 0.00004875032, 10.001522, 9.997897 
1.2349231e+3, 2.952078e+2, -41758.723, -272693.1, 18199.094, 0.17472842, -0.05616336, -40333.316, 6630.1333, 0.00018165374, 10.00099, 9.997969 
1.2349075e+3, 3.0520687e+2, 553.61646, -139499.11, -10812.464, 0.07049913, 0.022646535, 1383.4521, 1383.4521, 0.00045300575, 10.000599, 9.998726 
1.2348927e+3, 3.1520507e+2, -64135.145, -174005.98, 18743.482, 0.036860168, -0.06117692, -61025.594, -61025.594, 0.0008590856, 10.000099, 9.9987335 
1.24515906e+3, 1.2524433e+2, -1524513.4, -1635352.3, 75698.74, 0.013646318, 0.036941234, -1486115.9, 226479.39, 0.003475539, 10.001352, 9.999862 
1.24514304e+3, 1.3524139e+2, -1657480.8, -1775018.4, -77171.48, 0.12045031, -0.15609413, -1619248.5, -4626.0757, 0.0019075654, 10.000276, 9.998791 
1.24512844e+3, 1.4524086e+2, -1521276.5, -1513920.3, 89783.84, 0.07730431, -0.14955242, -1427739.3, 88886.48, 0.0007030745, 9.999933, 10.000045 
1.24511376e+3, 1.5524119e+2, -1366901.3, -1387669.4, 60083.813, -0.051442668, -0.14811128, -1316310.8, 102309.36, 0.00011956255, 10.000318, 10.000053 
1.2451002e+3, 1.6524097e+2, -1275886.0, -1366829.5, 40878.008, -0.00070759124, -0.13581415, -1260212.9, 60409.023, 0.0000023468863, 10.000589, 9.999394 
1.245088e+3, 1.752402e+2, -1132886.3, -1238310.9, 37056.45, 0.23229712, -0.17800182, -1121164.4, 101466.48, 0.0, 10.000868, 9.999464 
1.2450741e+3, 1.8524006e+2, -1034694.94, -1168733.6, 94343.945, 0.25099722, -0.12211306, -985988.8, 138644.44, 0.0, 10.000971, 9.999226 
1.2450587e+3, 1.952402e+2, -947447.94, -1073651.9, 113554.25, 0.0765262, -0.056097373, -880640.6, 145991.98, 0.0, 10.000882, 9.99925 
1.2450448e+3, 2.0523898e+2, -888591.7, -1130256.3, 143616.02, 0.053064745, -0.03609926, -821738.06, 106907.46, 0.0, 10.001207, 9.998029 
1.2450323e+3, 2.1523632e+2, -686605.1, -970867.1, 145963.95, 0.17554305, -0.13347426, -625004.2, 205668.3, 0.0, 10.001876, 9.998127 
1.2450191e+3, 2.252346e+2, -576125.56, -829435.06, 173265.98, 0.16047965, -0.13068785, -488158.5, 244531.83, 0.0, 10.001803, 9.998463 
1.245005e+3, 2.3523343e+2, -583856.56, -775604.2, 111819.13, 0.020189546, -0.11906709, -532437.1, 102265.5, 0.0, 10.001045, 9.998525 
1.24499135e+3, 2.452322e+2, -512542.16, -682848.56, 91725.55, -0.04845772, -0.09376071, -472536.88, 64177.984, 0.0, 10.00082, 9.9986 
1.24497816e+3, 2.5523075e+2, -376825.78, -557542.25, 95773.71, -0.048433453, -0.12541635, -335513.2, 103215.266, 0.0, 10.001047, 9.998673 
1.244965e+3, 2.652292e+2, -338379.75, -564239.3, 85970.98, -0.017674366, -0.11034529, -309379.47, 31364.86, 0.000000050542315, 10.000971, 9.997989 
1.2449516e+3, 2.752273e+2, -298030.03, -495019.8, 79413.26, 0.038112048, -0.12104096, -270003.34, -27238.813, 0.0000061370592, 10.000574, 9.997987 
1.24493785e+3, 2.8522548e+2, -239400.64, -479686.1, 57511.78, 0.08785596, -0.06304858, -226344.72, -81559.41, 0.000049451537, 10.000587, 9.99741 
1.2449237e+3, 2.9522347e+2, -81155.305, -340972.13, 41062.24, 0.14549036, -0.03424453, -74820.17, -28010.465, 0.00018703903, 10.000945, 9.997518 
1.2449084e+3, 3.0522186e+2, 115813.43, -79592.39, 61246.63, 0.07517192, -0.005176447, 133423.17, 133423.17, 0.00046630288, 10.001351, 9.998789 
1.24489464e+3, 3.152204e+2, 164463.38, -77706.95, 73411.87, 0.15786257, -0.06082404, 184979.48, 184979.48, 0.0008809238, 10.001728, 9.99862 
1.2551622e+3, 1.2525573e+2, -1532029.3, -1667362.1, -42048.65, 0.15528737, -0.19869894, -1520028.6, 192451.14, 0.0037739007, 10.001398, 9.999633 
1.2551431e+3, 1.3525438e+2, -1601343.5, -1671757.6, -105823.62, 0.07208352, -0.2970119, -1525024.0, 89469.06, 0.0020822603, 10.000325, 9.999482 
1.2551302e+3, 1.4525487e+2, -1486841.4, -1456303.4, 92847.16, 0.21529359, -0.24391873, -1377478.1, 139007.92, 0.0007764397, 9.999988, 10.000416 
1.2551151e+3, 1.552544e+2, -1340082.8, -1339528.5, 83687.805, 0.025853373, -0.35517594, -1256117.4, 162368.86, 0.00013646827, 10.000345, 10.000372 
1.2551007e+3, 1.6525453e+2, -1267586.1, -1354171.0, 37219.586, -0.023878163, -0.32664043, -1253786.3, 66698.734, 0.0000030208696, 10.000605, 9.9994755 
1.2550877e+3, 1.7525528e+2, -1123721.8, -1221519.6, 55382.305, 0.08892958, -0.22736013, -1098740.4, 123741.1, 0.0, 10.000873, 9.9995775 
1.2550747e+3, 1.852559e+2, -980812.94, -1056311.3, 78282.2, 0.18984284, -0.14058614, -931653.5, 192821.9, 0.0, 10.000965, 10.000002 
1.2550616e+3, 1.9525607e+2, -899080.75, -964929.25, 119740.95, 0.2687708, -0.15197232, -807820.06, 218650.45, 0.0, 10.000841, 10.000016 
1.2550475e+3, 2.0525484e+2, -883922.0, -1092239.0, 156033.7, 0.18630576, -0.18604842, -800475.8, 128004.97, 0.0, 10.00109, 9.998347 
1.2550323e+3, 2.1525218e+2, -689280.94, -943911.3, 179374.03, -0.04094358, -0.31233168, -596632.06, 233874.27, 0.0, 10.001738, 9.998381 
1.2550184e+3, 2.2525053e+2, -690872.25, -1030131.0, 132079.55, -0.09214191, -0.24610658, -645515.3, 87012.22, 0.0, 10.001643, 9.997161 
1.2550062e+3, 2.3524964e+2, -688809.06, -966310.56, 93615.766, 0.026710354, -0.07916479, -660180.94, -25634.424, 0.0, 10.000923, 9.997275 
1.2549935e+3, 2.4524857e+2, -503546.94, -630809.5, 89671.234, 0.06788172, 0.0017611933, -457224.28, 79334.96, 0.0, 10.000678, 9.999024 
1.2549803e+3, 2.5524712e+2, -369771.84, -514878.03, 114740.63, 0.031475414, -0.07109414, -306570.16, 131998.6, 0.0, 10.000923, 9.999026 
1.2549667e+3, 2.6524553e+2, -352348.72, -559752.3, 61084.49, 0.03881313, -0.07884787, -335695.3, 4887.913, 0.00000007625481, 10.000828, 9.998088 
1.254953e+3, 2.752437e+2, -306348.5, -484665.53, 78969.18, 0.09634577, -0.095049664, -276404.66, -33801.406, 0.0000061507535, 10.000455, 9.998116 
1.2549387e+3, 2.8524223e+2, -262031.66, -508549.84, 62144.566, 0.0942935, -0.007129239, -247251.81, -102630.2, 0.000051588533, 10.000502, 9.997253 
1.2549238e+3, 2.9524067e+2, -102456.69, -372129.5, 70902.805, 0.037987076, 0.08027489, -84951.164, -38309.25, 0.00019968531, 10.000881, 9.997335 
1.2549087e+3, 3.052382e+2, 118650.55, -55374.656, 69499.664, -0.05714892, 0.02379022, 142999.5, 142999.5, 0.00050037476, 10.001277, 9.998986 
1.254896e+3, 3.1523708e+2, 151418.08, -61008.563, 129732.68, 0.06813382, -0.019336814, 212870.61, 212870.61, 0.00094181777, 10.001544, 9.998822 
1.265164e+3, 1.2527092e+2, -1801364.8, -1801041.4, 36756.336, 0.29308018, -0.20687827, -1764446.4, -52114.625, 0.004085261, 9.99959, 9.999578 
1.2651435e+3, 1.3527046e+2, -1376207.1, -1502664.3, 3311.4778, 0.010459265, -0.25810313, -1376120.4, 238216.36, 0.0022650692, 10.001648, 9.999987 
1.2651312e+3, 1.4527124e+2, -1228152.0, -1348674.6, 156802.14, 0.24818964, -0.19532408, -1120430.1, 395897.38, 0.00085386867, 10.001843, 10.00026 
1.2651162e+3, 1.552709e+2, -1348748.6, -1360694.3, 84303.99, 0.10994123, -0.2737854, -1270206.1, 148121.28, 0.00015477135, 10.000369, 10.000214 
1.2651016e+3, 1.6527079e+2, -1341161.6, -1375759.1, 89839.22, 0.037268374, -0.26690838, -1266970.9, 53356.773, 0.0000038088367, 10.000035, 9.9995985 
1.2650882e+3, 1.7527092e+2, -1107726.0, -1203093.6, 89746.35, 0.048661705, -0.24375801, -1053782.3, 168546.05, 0.0, 10.000926, 9.999684 
1.2650754e+3, 1.852711e+2, -911285.9, -1043437.3, 79596.33, 0.13685086, -0.19719405, -873913.2, 250412.97, 0.0, 10.001543, 9.999808 
1.2650631e+3, 1.9527104e+2, -752163.7, -913529.75, 21789.021, 0.27667215, -0.20790565, -749273.3, 277050.88, 0.0, 10.001954, 9.999828 
1.2650491e+3, 2.0527014e+2, -748452.4, -989212.75, 41200.656, 0.21285759, -0.2181258, -741597.0, 186734.17, 0.0, 10.001854, 9.998685 
1.2650336e+3, 2.1526825e+2, -743824.4, -935176.06, 44188.34, -0.03844423, -0.30246046, -734112.94, 96235.35, 0.0, 10.001207, 9.998693 
1.2650199e+3, 2.2526678e+2, -750315.94, -1070129.9, 68771.81, -0.09110338, -0.22831039, -736154.56, -3786.9814, 0.0, 10.001271, 9.997073 
1.2650079e+3, 2.3526566e+2, -549620.8, -906487.5, 100984.71, 0.04616272, -0.07552392, -523026.4, 111363.08, 0.0, 10.00191, 9.997213 
1.2649952e+3, 2.4526444e+2, -322457.7, -558725.3, 131408.66, 0.11263178, -0.0015770451, -263888.8, 272515.1, 0.0, 10.001987, 9.998888 
1.2649822e+3, 2.5526282e+2, -291550.25, -493610.3, 93448.016, 0.11159664, -0.07310925, -254959.06, 183455.44, 0.0, 10.001528, 9.998882 
1.2649685e+3, 2.652611e+2, -244908.36, -525829.1, 42160.723, 0.10539044, -0.078007914, -238717.3, 101713.23, 0.00000015326442, 10.001642, 9.997932 
1.2649544e+3, 2.7525917e+2, -58662.42, -377772.2, 13609.759, 0.101735465, -0.09300313, -58083.027, 184369.75, 0.0000068361555, 10.0022135, 9.998 
1.2649399e+3, 2.852578e+2, 7400.0483, -337234.56, 24276.926, 0.08975331, -0.0057983636, 9101.773, 153570.84, 0.000055437977, 10.002178, 9.997616 
1.2649255e+3, 2.9525664e+2, 49532.88, -259756.03, 46927.797, 0.07380076, 0.08734873, 56496.36, 102979.45, 0.00021948728, 10.001761, 9.997675 
1.2649104e+3, 3.0525365e+2, 133131.92, -85152.59, 68433.984, -0.019672556, -0.02193302, 152812.19, 152812.19, 0.0005556111, 10.001544, 9.998644 
1.2648976e+3, 3.1525272e+2, 100638.11, -94249.83, 52731.848, 0.09956958, -0.011860199, 113991.14, 113991.14, 0.0010464599, 10.001244, 9.998725 
1.2751622e+3, 1.2529004e+2, -1777088.8, -1776647.3, -39778.934, 0.099238455, 0.00877739, -1737088.5, -24938.88, 0.0044096503, 9.999675, 9.999714 
1.2751436e+3, 1.3528968e+2, -1367129.3, -1483679.5, 86080.5, -0.14062554, -0.046529714, -1321453.3, 292699.56, 0.0024558255, 10.001635, 10.000129 
1.2751316e+3, 1.4528987e+2, -1271127.4, -1443373.3, 88769.86, 0.06398148, -0.01846429, -1233568.3, 282582.84, 0.00093550276, 10.001864, 9.999599 
1.2751168e+3, 1.5529063e+2, -1392315.8, -1456474.8, 40735.906, 0.11759979, 0.07979878, -1372544.4, 45599.41, 0.00017466526, 10.00039, 9.999546 
1.2751025e+3, 1.6528969e+2, -1319671.5, -1344221.4, 109436.07, 0.09563421, 0.023711747, -1221824.1, 98326.734, 0.0000047674703, 10.000082, 9.999797 
1.275089e+3, 1.7528713e+2, -1094287.4, -1178627.0, 131511.52, 0.021264816, -0.24133717, -998350.06, 223821.27, 0.0, 10.000935, 9.999849 
1.2750757e+3, 1.8528572e+2, -1002111.44, -1227982.9, 84398.99, -0.0014320448, -0.29583767, -974059.0, 150125.55, 0.0, 10.001522, 9.998552 
1.2750627e+3, 1.9528513e+2, -842916.8, -1093690.8, 47884.582, 0.018266033, -0.23623517, -834084.5, 192109.05, 0.0, 10.001913, 9.998613 
1.2750496e+3, 2.0528483e+2, -738651.56, -944752.44, 4695.5884, 0.049573317, -0.14437076, -738544.6, 189652.5, 0.0, 10.001751, 9.99904 
1.2750363e+3, 2.1528457e+2, -736420.25, -887448.06, 29973.066, 0.09581101, -0.10229817, -730689.25, 99508.73, 0.0, 10.001066, 9.99909 
1.2750229e+3, 2.2528347e+2, -692215.3, -910611.7, 82618.15, 0.075249776, -0.071751185, -664482.9, 67726.43, 0.0, 10.00111, 9.998242 
1.2750092e+3, 2.3528148e+2, -493752.03, -759536.9, 136352.22, -0.0064454195, -0.12218784, -436244.03, 197987.69, 0.0, 10.001778, 9.998285 
1.2749963e+3, 2.4527967e+2, -398833.78, -681695.8, 104049.03, 0.0019927109, -0.11579897, -364683.1, 171566.81, 0.0, 10.001837, 9.998116 
1.2749837e+3, 2.552779e+2, -357765.8, -603042.94, 89923.195, 0.09486191, -0.13311908, -328330.72, 109934.875, 0.0, 10.001408, 9.998189 
1.27497e+3, 2.65276e+2, -291761.34, -596684.06, 53838.96, 0.080137566, -0.10230668, -282534.44, 57751.188, 0.00000020123079, 10.001531, 9.997498 
1.2749553e+3, 2.7527368e+2, -106375.36, -449783.16, 47071.53, -0.040493365, -0.11136472, -100040.055, 142272.56, 0.0000077157165, 10.002103, 9.997556 
1.2749413e+3, 2.8527218e+2, 53182.11, -222091.55, -4737.0215, -0.014224018, -0.056604296, 53263.6, 197591.8, 0.000060411407, 10.002091, 9.998448 
1.2749282e+3, 2.9527128e+2, 86975.24, -152230.89, 46484.81, 0.1567949, -0.02492462, 95691.05, 142025.89, 0.0002426435, 10.001637, 9.998474 
1.2749133e+3, 3.0526814e+2, 48203.992, -237749.66, 51207.547, 0.09196458, -0.1370651, 57097.46, 57097.46, 0.0006215773, 10.001443, 9.9976425 
1.274899e+3, 3.1526786e+2, 31726.955, -186228.94, 80882.664, 0.06504091, 0.03102413, 58462.668, 58462.668, 0.0011780667, 10.001044, 9.998179 
1.2851617e+3, 1.2530605e+2, -1751289.3, -1715794.5, -113770.28, 0.100023046, 0.03386334, -1618395.6, 93600.94, 0.0047468157, 9.999612, 10.000173 
1.2851448e+3, 1.3530621e+2, -1697856.9, -1624733.9, 27064.113, -0.0686804, 0.00699378, -1615806.9, -1813.8773, 0.0026545508, 9.999273, 10.00029 
1.2851313e+3, 1.45306e+2, -1617068.6, -1622061.3, 37424.594, -0.028627591, -0.005317537, -1582057.3, -66062.25, 0.0010215283, 9.999549, 9.99949 
1.2851171e+3, 1.5530695e+2, -1319003.4, -1426902.1, 9808.441, 0.07516974, 0.12091251, -1318119.0, 99868.47, 0.00019628371, 10.00092, 9.999495 
1.2851033e+3, 1.6530617e+2, -1216522.1, -1303049.6, 104342.336, 0.13186623, 0.08765369, -1146829.9, 173163.3, 0.0000059623408, 10.0008335, 9.99972 
1.28509e+3, 1.7530371e+2, -1315360.0, -1294332.3, 83999.555, 0.11009017, -0.15694906, -1220191.1, 1820.2867, 0.0, 9.999467, 9.999762 
1.2850766e+3, 1.8530211e+2, -1278922.1, -1382440.9, 136204.58, 0.042419825, -0.21521208, -1184973.9, -60947.09, 0.0, 9.999725, 9.998353 
1.2850635e+3, 1.9530109e+2, -918601.4, -1150991.0, 154137.47, -0.06292008, -0.17893803, -841768.75, 184272.45, 0.0, 10.001495, 9.998417 
1.2850508e+3, 2.0530072e+2, -693168.25, -935769.5, 92496.984, -0.01120313, -0.07680248, -661925.3, 266120.97, 0.0, 10.002117, 9.998926 
1.2850386e+3, 2.1530077e+2, -650888.1, -853785.7, 63534.895, 0.1821997, 0.005846684, -632635.0, 197409.55, 0.0, 10.001691, 9.999019 
1.2850253e+3, 2.2529946e+2, -618993.6, -842897.8, 113082.33, 0.2028887, 0.0031844995, -571820.4, 160235.89, 0.0, 10.00148, 9.998528 
1.2850116e+3, 2.3529676e+2, -525611.56, -744039.2, 76887.43, 0.06927498, -0.14471865, -501261.38, 132820.52, 0.0, 10.001434, 9.998554 
1.2849984e+3, 2.4529472e+2, -443353.16, -736770.75, 46251.695, 0.0367059, -0.15805845, -436235.16, 99866.414, 0.0, 10.001663, 9.997825 
1.2849855e+3, 2.5529322e+2, -277745.22, -595966.94, 42317.484, 0.100837894, -0.12211208, -272213.94, 165903.17, 0.0, 10.00209, 9.997911 
1.2849718e+3, 2.6529136e+2, -194755.5, -520890.34, 72378.32, 0.07600386, -0.08696385, -179414.38, 160722.33, 0.00000014147287, 10.002069, 9.997758 
1.2849572e+3, 2.752889e+2, -140921.81, -438304.13, 93891.07, -0.03326405, -0.13211109, -113759.06, 128403.69, 0.000007879153, 10.001739, 9.99781 
1.2849434e+3, 2.852874e+2, 15560.812, -235825.39, 54852.984, 0.004824365, -0.09020875, 27008.533, 171186.16, 0.00006527563, 10.00181, 9.998495 
1.2849303e+3, 2.9528657e+2, 160633.98, -112044.51, 15884.324, 0.18902004, -0.05914523, 161556.17, 207740.81, 0.00026928063, 10.002111, 9.998527 
1.2849152e+3, 3.0528367e+2, 91738.57, -206437.84, 41374.918, 0.14483361, -0.15338212, 97373.266, 97373.266, 0.0006972263, 10.001681, 9.997755 
1.2849005e+3, 3.152839e+2, 9272.581, -140916.28, 117123.56, 0.14534184, 0.05593604, 73307.95, 73307.95, 0.0013269355, 10.0006, 9.998727 
1.2951605e+3, 1.2531936e+2, -1688916.3, -1587621.3, -114328.234, -0.028007155, -0.124817856, -1513224.3, 198645.19, 0.0050962004, 9.999633, 10.0010395 
1.2951465e+3, 1.3532026e+2, -1695747.1, -1611866.1, 17955.807, 0.15120122, -0.09348875, -1608184.0, 5670.8037, 0.0028611089, 9.999249, 10.000387 
1.29513e+3, 1.453198e+2, -1588084.5, -1563567.9, 70857.766, -0.13526963, -0.14627399, -1503915.9, 11941.532, 0.00111182, 9.999554, 9.999887 
1.2951164e+3, 1.5532015e+2, -1287522.9, -1360934.3, 68597.32, -0.100974195, -0.13008152, -1246428.1, 171427.45, 0.000219555, 10.0009165, 9.999949 
1.2951036e+3, 1.6532047e+2, -1240221.0, -1355316.5, 37644.973, 0.054749854, -0.058934294, -1229001.9, 90850.68, 0.0000074533, 10.000842, 9.999357 
1.2950909e+3, 1.7532068e+2, -1336124.0, -1344742.3, 43112.97, 0.23558429, -0.0005909285, -1297105.4, -75256.58, 0.0, 9.999494, 9.999402 
1.295078e+3, 1.8532023e+2, -1221717.6, -1266493.5, 190710.94, 0.17751081, 0.03282275, -1052085.0, 71768.08, 0.0, 9.999733, 9.999149 
1.2950653e+3, 1.9531891e+2, -871598.5, -1043136.0, 226504.75, -0.05552792, -0.039654184, -715167.56, 310699.88, 0.0, 10.001445, 9.9991865 
1.2950526e+3, 2.0531781e+2, -748410.7, -1022860.4, 64731.98, -0.05993658, -0.021299835, -733909.2, 193969.7, 0.0, 10.002002, 9.998382 
1.29504e+3, 2.1531677e+2, -713455.4, -947327.56, 56110.168, 0.1337352, 0.008034834, -700690.25, 129198.59, 0.0, 10.001537, 9.998448 
1.2950271e+3, 2.2531465e+2, -686589.6, -947151.75, 100366.2, 0.20683122, -0.013052472, -652412.44, 79496.82, 0.0, 10.001323, 9.997889 
1.2950143e+3, 2.3531143e+2, -586320.3, -839227.56, 89020.27, 0.1758049, -0.14950375, -558128.75, 75811.66, 0.0, 10.001298, 9.997969 
1.2950009e+3, 2.4530959e+2, -456461.06, -723173.0, 51321.47, 0.11718964, -0.12720591, -446926.47, 89032.695, 0.0, 10.001496, 9.997995 
1.2949872e+3, 2.5530872e+2, -287062.84, -579921.8, 68771.04, 0.039337814, -0.04041027, -271717.66, 166251.52, 0.0, 10.001948, 9.998085 
1.2949733e+3, 2.6530716e+2, -142556.95, -395746.16, 49825.332, 0.012827718, -0.029312834, -133104.66, 206878.9, 0.000000052302592, 10.001985, 9.998664 
1.2949598e+3, 2.7530494e+2, -95435.08, -316411.7, 96513.18, 0.027534626, -0.14928459, -59218.03, 182784.4, 0.000007172051, 10.0016165, 9.99871 
1.2949458e+3, 2.853036e+2, -59463.41, -360146.0, 57920.555, 0.03990283, -0.09615625, -48692.027, 95324.484, 0.00006969282, 10.001673, 9.997705 
1.2949313e+3, 2.9530266e+2, 87787.336, -234060.02, 42055.563, 0.053262766, 0.0054776166, 93191.95, 139222.5, 0.00030090305, 10.00199, 9.997743 
1.294916e+3, 3.053004e+2, 158950.64, -44183.664, -9764.998, 0.039156348, -0.04303149, 159418.98, 159418.98, 0.0007862506, 10.001592, 9.998912 
1.2949018e+3, 3.1530115e+2, 91043.75, 89823.93, 118883.94, 0.17928237, 0.09086091, 209319.34, 209319.34, 0.0014963577, 10.000359, 10.0004225 
1.3051614e+3, 1.2533572e+2, -1519627.5, -1541696.4, 22282.025, 0.035341475, -0.03841195, -1505797.4, 205915.72, 0.0054552136, 10.00097, 10.000709 
1.3051471e+3, 1.3533534e+2, -1689106.6, -1684298.1, -54060.223, 0.27226007, -0.066282436, -1632588.8, -18877.277, 0.003073975, 9.999615, 9.9997225 
1.305129e+3, 1.4533436e+2, -1693152.6, -1616650.3, 63332.71, -0.15703443, -0.13695732, -1580913.8, -65195.277, 0.0012055306, 9.998832, 9.99987 
1.3051166e+3, 1.5533423e+2, -1485689.8, -1454371.0, 9750.809, -0.09600702, -0.17401288, -1451583.3, -33863.5, 0.000244213, 9.999541, 9.999969 
1.3051045e+3, 1.6533454e+2, -1288882.5, -1384380.9, -40998.457, 0.08582948, -0.1010089, -1273696.4, 46019.535, 0.000009295233, 10.000544, 9.999297 
1.3050917e+3, 1.7533517e+2, -999567.94, -1188767.1, -37051.227, 0.24856171, 0.008220268, -992570.9, 229137.06, 0.0, 10.001839, 9.999341 
1.3050789e+3, 1.8533494e+2, -967432.9, -1134443.3, 112461.22, 0.20788981, 0.060847573, -910864.4, 212845.72, 0.0, 10.001423, 9.999248 
1.3050665e+3, 1.953337e+2, -1144164.1, -1161114.6, 75867.766, 0.02052342, -0.016185395, -1076299.8, -50576.645, 0.0, 9.999506, 9.999312 
1.305054e+3, 2.053325e+2, -1083379.1, -1161487.8, -29676.738, 0.004946674, -0.024635237, -1073383.0, -145647.78, 0.0, 9.99961, 9.998584 
1.3050413e+3, 2.1533121e+2, -704933.3, -921202.5, -1858.2037, 0.13215098, -0.03931264, -704917.4, 124829.98, 0.0, 10.00151, 9.998642 
1.3050285e+3, 2.253292e+2, -533806.2, -900676.4, 81717.83, 0.17326589, -0.046157572, -516427.38, 215340.06, 0.0, 10.002486, 9.997642 
1.3050158e+3, 2.353264e+2, -409810.97, -777496.0, 75484.086, 0.14374416, -0.1202779, -394917.7, 238878.55, 0.0, 10.002612, 9.997751 
1.3050024e+3, 2.4532488e+2, -301687.78, -613450.6, 76068.664, 0.0837845, -0.07410609, -284117.6, 251694.67, 0.0, 10.002407, 9.998307 
1.3049887e+3, 2.5532424e+2, -262761.47, -534825.6, 84517.33, 0.0005374755, 0.0027497797, -238643.92, 199175.39, 0.0, 10.001958, 9.998393 
1.3049753e+3, 2.6532277e+2, -160044.89, -385484.88, 55627.504, 0.015919782, 0.0019139927, -147065.97, 192765.64, 0.000000026393016, 10.001792, 9.998827 
1.3049623e+3, 2.7532047e+2, -43590.438, -277011.72, 17197.201, 0.112884216, -0.13883123, -42330.246, 199519.95, 0.0000066700077, 10.001904, 9.998848 
1.3049479e+3, 2.8531906e+2, -38256.12, -339262.6, 16438.967, 0.08803837, -0.10332458, -37360.996, 106503.36, 0.00007506801, 10.001781, 9.997791 
1.3049321e+3, 2.9531825e+2, 27032.021, -256101.16, 37409.586, -0.03694872, 0.0014919179, 31891.441, 77768.63, 0.00033560226, 10.001542, 9.997806 
1.304917e+3, 3.053162e+2, 171839.56, -65914.914, -21859.338, -0.02605474, -0.012968913, 173832.63, 173832.63, 0.0008828964, 10.001799, 9.998663 
1.3049038e+3, 3.153161e+2, 393385.66, 238549.28, -38228.62, 0.25122806, 0.062706076, 402309.8, 402309.8, 0.0016816291, 10.00241, 10.000468 
1.3151632e+3, 1.2535459e+2, -1630992.0, -1759106.6, 114907.33, 0.076402284, 0.24107976, -1563493.1, 148039.86, 0.005819013, 10.00093, 9.999221 
1.3151461e+3, 1.353513e+2, -1781749.6, -1884121.0, -108723.29, 0.19688275, 0.06894266, -1712765.8, -99201.96, 0.0032902497, 9.999644, 9.998339 
1.3151276e+3, 1.4534965e+2, -1710694.4, -1663486.9, 67080.8, -0.19440624, 0.013148143, -1615978.3, -100400.49, 0.0013013786, 9.99888, 9.999527 
1.3151175e+3, 1.5534918e+2, -1510964.1, -1507254.4, 45870.555, 0.00917219, -0.019418318, -1463201.3, -45621.715, 0.00026992275, 9.999544, 9.999606 
1.3151059e+3, 1.6534843e+2, -1272691.3, -1357315.9, -4033.6497, 0.13195623, -0.044425923, -1272499.4, 47083.27, 0.00001153221, 10.000562, 9.999479 
1.315092e+3, 1.7534731e+2, -984778.3, -1161768.6, 15746.107, 0.07616996, -0.13047537, -983388.4, 238199.72, 0.0, 10.001848, 9.999523 
1.3150789e+3, 1.8534642e+2, -1011633.75, -1219937.4, 27751.23, 0.050464254, -0.122818016, -1008000.0, 115595.945, 0.0, 10.001395, 9.998674 
1.3150668e+3, 1.9534552e+2, -1188204.3, -1240781.5, 15916.442, 0.08300931, -0.10939151, -1183761.4, -158153.78, 0.0, 9.9994545, 9.998792 
1.3150547e+3, 2.0534486e+2, -1028474.3, -1026386.2, 30715.766, 0.097924516, -0.08966794, -996696.75, -69082.18, 0.0, 9.999521, 9.999552 
1.3150427e+3, 2.153442e+2, -658481.06, -797110.06, 77567.13, 0.09298889, -0.13585038, -623770.75, 205848.28, 0.0, 10.001386, 9.999557 
1.3150297e+3, 2.2534318e+2, -545672.75, -888088.75, 76798.52, 0.013448958, -0.09738182, -529236.94, 202393.34, 0.0, 10.00233, 9.997805 
1.315016e+3, 2.3534167e+2, -421736.06, -766399.3, 91825.18, -0.116729856, -0.057009887, -398798.5, 234850.63, 0.0, 10.0024605, 9.997902 
1.3150027e+3, 2.4534057e+2, -290611.47, -554689.06, 48304.094, -0.15406026, 0.0034781997, -282053.22, 253607.44, 0.0, 10.002252, 9.998788 
1.3149898e+3, 2.553398e+2, -253439.16, -479864.84, 79985.375, -0.106096506, 0.019711072, -228034.52, 209631.64, 0.0, 10.001804, 9.998846 
1.3149771e+3, 2.6533818e+2, -225654.28, -491408.3, 49067.137, -0.009320049, 0.014241431, -216884.27, 122796.31, 0.000000066602475, 10.001661, 9.998162 
1.3149646e+3, 2.7533555e+2, -108200.52, -375465.56, 35704.066, 0.12532967, -0.09487691, -103513.01, 138192.8, 0.0000067822207, 10.001764, 9.998232 
1.3149495e+3, 2.8533396e+2, 17668.63, -212351.42, -2001.1831, 0.059368625, -0.095043495, 17686.041, 161405.84, 0.000081610815, 10.001716, 9.998706 
1.3149326e+3, 2.9533315e+2, 68445.1, -143101.02, 47640.793, -0.1778361, -0.08087219, 78678.875, 124403.93, 0.0003693925, 10.001415, 9.9986515 
1.3149177e+3, 3.0533093e+2, 28814.42, -330977.4, -4210.992, -0.15906924, -0.066269144, 28863.697, 28863.697, 0.00097559066, 10.001672, 9.996894 
1.3149056e+3, 3.1532863e+2, 242284.08, -10005.432, 26797.344, 0.14695986, -0.036284544, 245099.0, 245099.0, 0.0018605303, 10.002157, 9.998865 
1.3251638e+3, 1.2536916e+2, -1985515.8, -1968775.5, 124444.22, 0.1739526, 0.27557623, -1852420.3, -141030.1, 0.006183249, 9.9986105, 9.998913 
1.3251461e+3, 1.353663e+2, -1556330.9, -1760517.4, -129112.92, 0.16505724, 0.13479628, -1493824.0, 119595.96, 0.0035072896, 10.001135, 9.998455 
1.3251293e+3, 1.4536487e+2, -1341869.3, -1525956.1, 103836.6, -0.056177802, 0.109857015, -1295153.8, 220278.53, 0.0013982238, 10.001587, 9.999169 
1.3251176e+3, 1.5536357e+2, -1368328.1, -1481230.0, 68505.97, 0.031718288, 0.034357693, -1336010.9, 81429.35, 0.00029637254, 10.000704, 9.99923 
1.325106e+3, 1.6536224e+2, -1290257.6, -1367791.9, 66640.75, 0.09968521, -0.027385324, -1251928.3, 67520.0, 0.000014169166, 10.000457, 9.999451 
1.325093e+3, 1.7536083e+2, -1141527.9, -1244893.8, 43310.56, 0.050959554, -0.14130299, -1125779.9, 95677.07, 0.0, 10.000804, 9.999456 
1.32508e+3, 1.8535967e+2, -1079171.9, -1268539.4, 20655.705, 0.035988685, -0.14774868, -1076945.0, 46522.7, 0.0, 10.00101, 9.998522 
1.3250668e+3, 1.9535856e+2, -953047.3, -1143182.8, 19854.176, 0.07352788, -0.13709702, -950996.25, 74485.445, 0.0, 10.001148, 9.99864 
1.3250549e+3, 2.053581e+2, -808029.9, -905346.25, 91964.12, 0.10284468, -0.09677283, -752644.7, 174842.61, 0.0, 10.000963, 9.99969 
1.3250437e+3, 2.1535803e+2, -779998.8, -837311.9, 58108.574, 0.116641246, -0.10108876, -743864.9, 85622.305, 0.0, 10.000467, 9.9997225 
1.325031e+3, 2.2535771e+2, -787601.25, -925012.5, 51883.81, 0.0214343, -0.03701945, -770211.6, -38720.72, 0.0, 10.000336, 9.998508 
1.325017e+3, 2.3535703e+2, -650372.2, -796151.56, 86016.63, -0.15618241, 0.01660371, -610515.4, 22984.09, 0.0, 10.000557, 9.9986105 
1.3250041e+3, 2.4535573e+2, -492023.1, -687673.9, 52827.902, -0.1801877, 0.038454648, -478670.28, 56842.2, 0.0, 10.00102, 9.998471 
1.3249917e+3, 2.5535378e+2, -294194.8, -530211.44, 1222.3533, -0.07359617, -0.03341179, -294188.47, 143341.9, 0.0, 10.001663, 9.998566 
1.3249789e+3, 2.6535222e+2, -192485.8, -479251.22, -13968.423, 0.003552231, -0.018567901, -191807.0, 147738.22, 0.0000000978673, 10.001912, 9.998119 
1.3249655e+3, 2.753507e+2, -96546.37, -374897.28, -5779.0713, 0.049267434, -0.010870588, -96426.43, 145134.27, 0.000006920427, 10.001857, 9.998196 
1.3249508e+3, 2.8534895e+2, 47831.2, -168673.8, -28742.813, 0.014565049, -0.03520875, 51582.06, 195156.69, 0.000086783395, 10.001819, 9.998946 
1.324935e+3, 2.95347e+2, 161948.8, -70159.82, -64468.535, -0.09225022, -0.15848406, 178652.89, 224240.67, 0.00039491727, 10.001948, 9.998889 
1.3249202e+3, 3.053449e+2, 72091.45, -324393.47, -30773.56, -0.08274923, -0.13898806, 74465.75, 74465.75, 0.0010484561, 10.002024, 9.996775 
1.3249063e+3, 3.1534266e+2, 185944.72, -67380.414, 81270.19, 0.037092596, -0.08980245, 209775.52, 209775.52, 0.0020034304, 10.001871, 9.998618 
1.3351627e+3, 1.2537931e+2, -1916662.5, -1822281.9, 194374.3, 0.14662755, 0.040747877, -1669451.5, 41834.973, 0.0065457188, 9.998602, 9.999922 
1.3351466e+3, 1.3538042e+2, -1452892.6, -1535924.3, -44944.293, 0.08010376, 0.13972408, -1433223.9, 180055.66, 0.0037237175, 10.001092, 10.000018 
1.3351333e+3, 1.4537984e+2, -1361303.4, -1563410.1, 50928.125, 0.16209814, 0.13282202, -1349195.6, 166088.34, 0.0014951822, 10.001567, 9.998927 
1.3351172e+3, 1.5537748e+2, -1388769.4, -1528535.0, 46252.063, -0.10574195, -0.014924349, -1374849.6, 42452.094, 0.00032323142, 10.000715, 9.998904 
1.3351046e+3, 1.6537613e+2, -1314031.9, -1416343.1, 67112.81, -0.10330774, -0.04400709, -1280801.4, 38510.277, 0.000017128494, 10.000453, 9.99912 
1.3350944e+3, 1.7537569e+2, -1164457.0, -1289748.3, 65733.086, 0.091546685, -0.030844206, -1136298.9, 85015.74, 0.00000000003443261, 10.000791, 9.999154 
1.3350816e+3, 1.8537463e+2, -1065817.3, -1239875.5, 13964.243, 0.07504564, -0.024607854, -1064704.0, 58621.46, 0.0, 10.000999, 9.998727 
1.3350667e+3, 1.953728e+2, -946172.9, -1122131.9, 32645.617, -0.08992212, -0.10667016, -940311.4, 85034.164, 0.0, 10.00111, 9.998807 
1.3350545e+3, 2.0537226e+2, -868988.4, -1007673.44, 62038.984, -0.06406975, -0.049419485, -845286.7, 82066.55, 0.0, 10.000859, 9.999037 
1.3350444e+3, 2.1537264e+2, -842669.25, -937132.4, 50391.723, 0.119861744, 0.057128783, -820834.56, 8517.465, 0.0, 10.00033, 9.999108 
1.3350323e+3, 2.2537272e+2, -720679.2, -751469.56, 51942.547, 0.10506214, 0.12620828, -681898.4, 49451.44, 0.0, 10.000185, 9.999771 
1.3350187e+3, 2.3537247e+2, -586367.25, -635194.44, 107173.15, -0.06864825, 0.09608063, -500862.2, 132485.22, 0.0, 10.000432, 9.999777 
1.3350059e+3, 2.4537025e+2, -586752.9, -854741.06, 66056.14, -0.099845074, 0.026132453, -571355.44, -35986.99, 0.0, 10.000895, 9.997383 
1.3349943e+3, 2.5536615e+2, -385898.38, -693058.06, 34395.395, -0.003732918, -0.15418932, -382093.94, 55317.902, 0.0, 10.001546, 9.997502 
1.3349804e+3, 2.6536483e+2, -166855.06, -407260.44, -26398.14, -0.044435833, -0.0891596, -163990.5, 175435.14, 0.00000008871969, 10.001823, 9.99866 
1.334965e+3, 2.7536574e+2, -77186.48, -306279.1, 6128.4893, -0.20856516, 0.10656232, -77022.65, 164393.2, 0.000006673535, 10.001733, 9.998728 
1.3349512e+3, 2.8536397e+2, -5386.6675, -255264.53, -37812.99, -0.15126519, 0.08023448, 210.0617, 143640.0, 0.00008871381, 10.001712, 9.998404 
1.3349392e+3, 2.9535976e+2, 106544.84, -150465.45, -43037.355, 0.11878389, -0.21768278, 113560.125, 159025.92, 0.00040757706, 10.001797, 9.998412 
1.3349243e+3, 3.053583e+2, 169577.6, -87869.42, -40021.207, 0.09552343, -0.20042498, 175655.56, 175655.56, 0.0010919488, 10.001891, 9.998456 
1.3349056e+3, 3.1535777e+2, 224412.69, 78884.555, 112053.79, -0.2671122, -0.13966139, 285255.0, 285255.0, 0.002095802, 10.001602, 9.99975 
1.3451625e+3, 1.2538983e+2, -1900630.3, -1766360.4, 133901.34, 0.2991826, -0.076889314, -1683706.5, 27475.162, 0.0069055543, 9.998518, 10.00034 
1.3451454e+3, 1.353928e+2, -1781935.1, -1620968.4, -124649.53, -0.0150252525, 0.14520395, -1553077.0, 60081.453, 0.0039389143, 9.998525, 10.000677 
1.3451348e+3, 1.4539286e+2, -1648220.0, -1649123.0, -47874.367, 0.2807169, 0.14299895, -1600795.0, -85637.57, 0.0015916337, 9.999376, 9.99939 
1.3451184e+3, 1.5539083e+2, -1322245.6, -1450191.4, -26555.701, -0.062097955, -0.015589214, -1316952.9, 100218.97, 0.0003501717, 10.000987, 9.999303 
1.3451052e+3, 1.6538988e+2, -1249881.5, -1383524.6, 21967.203, -0.10474953, -0.024896339, -1246363.4, 72815.484, 0.000020254476, 10.000894, 9.999132 
1.3450946e+3, 1.7538978e+2, -1367265.5, -1379496.6, 24295.943, 0.10515935, 0.024489319, -1348327.3, -127146.93, 0.0000000014653116, 9.999381, 9.999211 
1.345082e+3, 1.8538925e+2, -1284937.5, -1293879.9, 56348.44, 0.11380506, 0.055396944, -1232883.1, -109696.76, 0.0, 9.999282, 9.99918 
1.3450678e+3, 1.9538806e+2, -1012891.06, -1107871.8, 71479.78, -0.04906516, -0.0063086245, -974563.6, 50635.26, 0.0, 10.000459, 9.999217 
1.3450556e+3, 2.0538738e+2, -884156.25, -1036330.2, 108887.82, -0.029635023, 0.029872267, -827405.8, 99801.16, 0.0, 10.000849, 9.998843 
1.345045e+3, 2.1538705e+2, -824584.0, -940162.7, 108788.76, 0.14476657, 0.08040285, -759188.1, 70024.125, 0.0, 10.000526, 9.998979 
1.345033e+3, 2.2538668e+2, -656639.75, -723390.94, 125073.07, 0.14624591, 0.1121286, -560565.75, 170648.16, 0.0, 10.000626, 9.999759 
1.3450201e+3, 2.3538615e+2, -492964.28, -590346.4, 67646.12, 0.004036095, 0.056163974, -458307.75, 174906.13, 0.0, 10.00107, 9.99978 
1.3450077e+3, 2.4538416e+2, -554436.7, -822039.25, 44012.21, -0.022846121, -0.00022474828, -547383.94, -12150.794, 0.0, 10.001059, 9.997525 
1.3449958e+3, 2.553807e+2, -502670.44, -732118.06, 84243.516, 0.049935013, -0.12756398, -475061.8, -37791.06, 0.0, 10.000679, 9.997654 
1.3449818e+3, 2.653795e+2, -309818.84, -431742.22, 82485.836, -0.03521579, -0.077905476, -268212.3, 71070.336, 0.000000062099474, 10.000662, 9.999046 
1.3449658e+3, 2.7538007e+2, -150575.48, -298667.28, 75217.1, -0.25805774, 0.043505505, -119073.25, 122201.06, 0.0000065347235, 10.001052, 9.999099 
1.3449526e+3, 2.8537834e+2, -34057.793, -321837.9, 65200.08, -0.18562226, 0.027606992, -19975.072, 123313.51, 0.00008986311, 10.001725, 9.997949 
1.3449417e+3, 2.953747e+2, 197174.48, -145811.03, 34475.895, 0.1538972, -0.16852383, 200605.58, 245927.33, 0.00041353333, 10.002581, 9.998069 
1.3449271e+3, 3.0537334e+2, 299306.28, -13503.86, -23610.871, 0.1717242, -0.13170986, 301078.38, 301078.38, 0.0011124206, 10.002709, 9.9985895 
1.3449077e+3, 3.153726e+2, 282557.3, 77466.55, -39773.76, -0.23289095, -0.10767183, 290000.6, 290000.6, 0.0021418033, 10.002125, 9.999489 
1.3551632e+3, 1.2540074e+2, -1912862.8, -1787857.1, -62822.266, 0.43845809, -0.11948372, -1761741.5, -50665.594, 0.0072628423, 9.998499, 10.000207 
1.3551423e+3, 1.3540374e+2, -1800528.0, -1657721.8, -104785.95, -0.18861337, 0.13706851, -1602323.9, 10730.109, 0.004152666, 9.998534, 10.000414 
1.3551337e+3, 1.4540423e+2, -1575762.3, -1503322.3, 2557.22, 0.19370022, 0.14353663, -1503232.1, 11817.478, 0.0016872559, 9.999391, 10.000384 
1.355121e+3, 1.554037e+2, -1250848.3, -1304620.5, 39786.195, 0.06238296, 0.031715557, -1229715.5, 187333.84, 0.0003769789, 10.000986, 10.000307 
1.3551074e+3, 1.6540338e+2, -1224251.4, -1332323.0, -50312.324, 0.0019241332, 0.016687194, -1204455.0, 114595.555, 0.000023370363, 10.000896, 9.999487 
1.3550934e+3, 1.7540307e+2, -1341142.1, -1329744.5, -21089.281, 0.02207378, 0.010446681, -1313597.6, -92543.15, 0.0000000068048798, 9.999389, 9.999557 
1.3550809e+3, 1.854035e+2, -1241136.3, -1198170.8, 87996.02, 0.05433184, 0.087137766, -1129073.0, -6022.604, 0.0, 9.999266, 9.999841 
1.3550699e+3, 1.954043e+2, -975134.2, -1018576.0, 123643.12, 0.10066279, 0.15730995, -871318.56, 153723.44, 0.0, 10.000408, 9.999853 
1.355058e+3, 2.0540348e+2, -883142.94, -1008496.25, 84364.82, 0.11483212, 0.13554977, -840720.6, 86327.84, 0.0, 10.000741, 9.999086 
1.3550453e+3, 2.1540117e+2, -830146.94, -922351.1, 105706.28, 0.10962673, -0.033248227, -760926.75, 68141.72, 0.0, 10.000396, 9.9991665 
1.355033e+3, 2.2539948e+2, -767803.6, -912762.75, 128064.67, 0.0630849, -0.081441164, -693130.7, 37953.754, 0.0, 10.000453, 9.998541 
1.3550211e+3, 2.3539814e+2, -593521.3, -764988.56, 92272.21, -0.020586396, -0.09695852, -553300.94, 79797.52, 0.0, 10.000926, 9.998649 
1.3550088e+3, 2.4539755e+2, -477540.5, -632639.56, 19438.307, -0.036456615, -0.02868459, -475141.44, 59963.86, 0.0, 10.000925, 9.998893 
1.3549963e+3, 2.553974e+2, -429084.28, -547237.3, 83690.6, 0.0009130503, 0.039767507, -385719.84, 51387.758, 0.0, 10.000542, 9.99899 
1.3549824e+3, 2.653961e+2, -313520.78, -414482.06, 85858.98, -0.058570415, 0.0039680423, -264401.94, 74715.66, 0.000000036385206, 10.000552, 9.99922 
1.3549678e+3, 2.7539352e+2, -164087.86, -293596.53, 104953.77, -0.18797715, -0.2021176, -105519.78, 135616.8, 0.0000068750182, 10.000909, 9.999206 
1.3549544e+3, 2.8539205e+2, -77578.53, -382401.7, 89194.17, -0.19935317, -0.18023986, -53397.668, 89752.266, 0.00009120505, 10.001599, 9.997591 
1.3549419e+3, 2.953915e+2, 149751.75, -217085.81, 81912.79, -0.10492836, -0.029520832, 167211.42, 212369.86, 0.00041554915, 10.002459, 9.9976425 
1.3549288e+3, 3.0538973e+2, 176586.66, -229533.47, -56474.83, 0.03760108, 0.06140375, 184293.75, 184293.75, 0.00111335, 10.0025625, 9.997167 
1.354912e+3, 3.153866e+2, 110661.29, -208750.98, -35876.918, -0.054174256, -0.008627687, 114641.445, 114641.445, 0.002141611, 10.001841, 9.997649 
1.3651606e+3, 1.2541412e+2, -1991620.6, -1760804.0, -56699.33, 0.40919128, 0.0104265455, -1747628.1, -36678.664, 0.0076198755, 9.997652, 10.00081 
1.3651414e+3, 1.3541587e+2, -1687015.8, -1585229.4, 9056.917, -0.15873608, 0.11693829, -1584429.8, 28506.283, 0.004366158, 9.999216, 10.000588 
1.3651328e+3, 1.4541624e+2, -1560648.5, -1455577.9, 115622.16, 0.18059132, 0.08795274, -1381115.4, 133816.47, 0.0017823466, 9.99933, 10.000736 
1.3651212e+3, 1.5541698e+2, -1578521.0, -1418344.3, 85183.98, 0.10398792, 0.06568924, -1381511.9, 35408.87, 0.0004035849, 9.998566, 10.000684 
1.365108e+3, 1.6541705e+2, -1449586.6, -1430119.4, -17187.857, 0.06109588, 0.06583456, -1420100.4, -101181.266, 0.000026350568, 9.999295, 9.999584 
1.3650939e+3, 1.7541645e+2, -1042987.9, -1172032.9, -29431.861, 0.04772485, 0.018309304, -1036592.2, 184333.94, 0.000000016360648, 10.00138, 9.999673 
1.3650814e+3, 1.854168e+2, -911506.3, -1046688.44, 51126.24, 0.073661834, 0.086171605, -894348.1, 228574.61, 0.0, 10.001554, 9.999782 
1.3650705e+3, 1.9541779e+2, -1020435.2, -1038230.0, 13736.921, 0.13871023, 0.17503999, -1012965.94, 11946.319, 0.0, 10.000097, 9.999864 
1.3650589e+3, 2.0541699e+2, -969927.06, -1017856.25, -8011.939, 0.16557795, 0.13872392, -968623.25, -41705.766, 0.0, 10.0, 9.999385 
1.3650465e+3, 2.1541454e+2, -712624.9, -836647.75, -1792.3561, 0.15922058, -0.072153464, -712598.94, 116338.54, 0.0, 10.001071, 9.999436 
1.365034e+3, 2.2541313e+2, -641147.94, -860154.2, 77727.31, 0.08331378, -0.10162295, -616366.06, 114585.53, 0.0, 10.001358, 9.99846 
1.3650216e+3, 2.3541245e+2, -596661.9, -777581.2, 102011.02, -0.056056615, -0.0433, -550779.3, 82182.56, 0.0, 10.000941, 9.998561 
1.3650094e+3, 2.4541236e+2, -466114.34, -572417.2, 46415.66, -0.05210515, 0.056234736, -448700.28, 86264.15, 0.0, 10.000773, 9.999375 
1.3649975e+3, 2.554126e+2, -345427.13, -453525.47, 20451.234, 0.06380036, 0.11360311, -341687.34, 95274.65, 0.0, 10.000888, 9.999462 
1.364984e+3, 2.654113e+2, -221602.17, -389869.7, 24431.236, 0.02988061, 0.06019232, -218126.72, 120845.36, 0.000000033203506, 10.001268, 9.999047 
1.3649698e+3, 2.7540842e+2, -29638.148, -238335.22, -5414.742, -0.12480328, -0.16271134, -29497.756, 211496.72, 0.0000069323874, 10.001878, 9.999117 
1.3649562e+3, 2.854071e+2, -17325.168, -326920.72, 13485.062, -0.18554813, -0.13260423, -16738.908, 126267.43, 0.000089487476, 10.001926, 9.997804 
1.3649435e+3, 2.9540715e+2, 51390.684, -232227.72, 29484.299, -0.15478465, 0.05460741, 54423.375, 99432.44, 0.00040599194, 10.001671, 9.997904 
1.364931e+3, 3.05405e+2, 141575.28, -276690.6, -7421.041, 0.025435846, 0.10754978, 141706.9, 141706.9, 0.0010855788, 10.002438, 9.996913 
1.3649158e+3, 3.15402e+2, 362933.4, -137912.1, 43487.297, 0.0409451, 0.08564977, 366681.25, 366681.25, 0.0020884634, 10.003753, 9.997243 
1.3751559e+3, 1.2543002e+2, -1909204.9, -1590076.5, -61315.316, 0.113475196, 0.29992703, -1578701.3, 132100.6, 0.0079810945, 9.997665, 10.001973 
1.375142e+3, 1.3542908e+2, -1649745.9, -1507405.8, 65881.125, -0.027927898, 0.076370746, -1481593.8, 131211.63, 0.0045821774, 9.999211, 10.001125 
1.3751319e+3, 1.4542885e+2, -1578233.0, -1493328.3, 66184.46, 0.13855273, -0.022345645, -1457151.3, 57653.406, 0.0018779465, 9.999335, 10.000476 
1.3751186e+3, 1.5543057e+2, -1593869.9, -1450784.8, 70459.96, -0.017795201, 0.073682606, -1421913.4, -5126.6426, 0.00043006244, 9.99857, 10.000458 
1.3751069e+3, 1.6543089e+2, -1454338.9, -1447265.9, 46144.69, -0.017554652, 0.11955417, -1404522.4, -85738.17, 0.000029160963, 9.999317, 9.999461 
1.375096e+3, 1.7542996e+2, -1052159.1, -1192755.3, 51953.08, 0.09257986, 0.049105123, -1035044.7, 185750.44, 0.000000027808229, 10.00137, 9.999545 
1.3750833e+3, 1.8542923e+2, -965873.0, -1150719.6, -16861.705, 0.08018684, 0.050585594, -964347.5, 158455.48, 0.0, 10.001522, 9.999081 
1.3750693e+3, 1.9542846e+2, -1077233.9, -1141836.1, -30513.588, -0.012102375, 0.039300364, -1065100.3, -40290.387, 0.0, 10.000035, 9.999185 
1.3750577e+3, 2.0542784e+2, -953823.2, -963949.06, 21345.242, 0.03164365, 0.031234227, -936948.7, -10134.038, 0.0, 9.999912, 9.999796 
1.3750482e+3, 2.1542718e+2, -705475.56, -786633.06, 48093.027, 0.19646075, -0.042837664, -683129.2, 145689.64, 0.0, 10.000919, 9.999852 
1.375036e+3, 2.2542772e+2, -598513.9, -727690.4, 53225.184, 0.10531102, 0.052478068, -579408.8, 151405.39, 0.0, 10.001173, 9.999457 
1.3750212e+3, 2.3542908e+2, -554649.6, -650914.9, 98258.266, -0.19631909, 0.21471691, -493368.2, 139435.95, 0.0, 10.000778, 9.999504 
1.3750093e+3, 2.4542855e+2, -519405.75, -650739.8, 37077.94, -0.1635307, 0.24848564, -509661.03, 25150.285, 0.0, 10.00063, 9.998908 
1.3749994e+3, 2.5542632e+2, -397294.9, -529175.2, 34882.566, 0.1587937, 0.102085546, -388636.8, 48197.047, 0.0, 10.000749, 9.999011 
1.3749868e+3, 2.6542518e+2, -270443.2, -462436.34, 37977.164, 0.14230642, 0.11221504, -263204.1, 75640.71, 0.000000022673568, 10.001146, 9.998607 
1.3749713e+3, 2.754246e+2, -79366.79, -306824.03, 28457.574, -0.16263826, 0.16452752, -75860.47, 164988.63, 0.0000066245593, 10.0017395, 9.99871 
1.3749577e+3, 2.8542334e+2, 35143.563, -201375.64, -10306.841, -0.23619297, 0.17464186, 35591.86, 178451.05, 0.000084736, 10.001847, 9.998707 
1.374946e+3, 2.9542163e+2, 89808.016, -114838.414, 39130.152, -0.094941355, 0.09379624, 97034.83, 141908.34, 0.00038240635, 10.001503, 9.998796 
1.3749336e+3, 3.05419e+2, 182706.08, -150886.14, 41507.25, 0.027380304, 0.0083043175, 187793.05, 187793.05, 0.0010235131, 10.002277, 9.997847 
1.3749178e+3, 3.1541836e+2, 384669.88, -18747.658, 114474.86, -0.15950494, 0.13316886, 414889.8, 414889.8, 0.001977613, 10.003466, 9.998185 
1.3851534e+3, 1.2544234e+2, -1920063.6, -1619314.1, -32535.355, 0.104862794, 0.30013102, -1615834.6, 94848.06, 0.008351057, 9.997697, 10.001757 
1.3851424e+3, 1.3544162e+2, -1790848.8, -1615377.5, -34313.758, 0.11452476, 0.1345215, -1608906.0, 3779.614, 0.004803759, 9.998417, 10.000766 
1.3851309e+3, 1.4544147e+2, -1707147.9, -1561558.4, -69220.94, 0.13764364, 0.06558463, -1533901.0, -19216.262, 0.0019753822, 9.998478, 10.000419 
1.3851169e+3, 1.5544255e+2, -1549872.4, -1430952.6, -74227.81, -0.05582136, 0.099371515, -1395306.0, 21367.402, 0.00045665295, 9.998872, 10.000451 
1.3851058e+3, 1.654431e+2, -1485655.8, -1419138.4, -6076.3037, -0.02252341, 0.14898291, -1418587.9, -99919.586, 0.00003186285, 9.99894, 9.999833 
1.3850966e+3, 1.7544319e+2, -1413291.9, -1321839.1, 7689.4697, 0.15285616, 0.14263165, -1321197.1, -100528.53, 0.000000039188958, 9.998724, 9.9999275 
1.3850842e+3, 1.8544237e+2, -1298470.6, -1318431.0, -32066.75, 0.14458351, 0.12062279, -1274866.9, -152190.48, 0.0, 9.999262, 9.999025 
1.3850696e+3, 1.9544071e+2, -994109.56, -1101443.0, -12932.691, -0.0057597775, 0.02016406, -992573.25, 32118.332, 0.0, 10.000606, 9.999186 
1.3850577e+3, 2.054401e+2, -832682.56, -913255.1, 73680.18, 0.013792869, 0.018678134, -788994.1, 137702.53, 0.0, 10.000778, 9.999723 
1.3850483e+3, 2.154403e+2, -840382.1, -852762.4, 41214.676, 0.17928533, 0.034596384, -804895.3, 23798.959, 0.0, 9.999997, 9.999841 
1.3850366e+3, 2.2544119e+2, -742143.94, -741177.5, 34725.07, 0.117555015, 0.13711259, -706932.25, 23753.824, 0.0, 9.999929, 9.999977 
1.3850226e+3, 2.3544246e+2, -548796.8, -591178.6, 24544.455, -0.1329411, 0.2387439, -537561.06, 95113.91, 0.0, 10.000563, 10.000025 
1.3850108e+3, 2.4544194e+2, -485964.6, -644468.3, -11638.18, -0.09207118, 0.25482857, -485114.63, 49567.273, 0.0, 10.000912, 9.998807 
1.3850006e+3, 2.554399e+2, -354056.9, -516092.78, -13952.692, 0.191542, 0.13501269, -352864.25, 83840.086, 0.0, 10.001084, 9.998932 
1.384988e+3, 2.6543894e+2, -272500.56, -462301.72, 44918.14, 0.16871105, 0.16804525, -262407.03, 76307.6, 0.0000000049794013, 10.001131, 9.9986105 
1.3849732e+3, 2.7543864e+2, -161610.66, -346846.25, 48851.875, -0.115518644, 0.24577, -149516.66, 91201.05, 0.0000064670485, 10.001162, 9.998717 
1.3849598e+3, 2.854374e+2, -50689.285, -216312.56, 3330.5798, -0.17523383, 0.24766141, -50622.336, 92104.75, 0.00007993784, 10.001133, 9.998959 
1.3849477e+3, 2.954355e+2, 58441.42, -91136.38, -22233.174, -0.036459032, 0.11803153, 61676.195, 106417.95, 0.00035406946, 10.00111, 9.999149 
1.384936e+3, 3.054325e+2, 185798.84, -108439.64, 23966.994, 0.06772035, -0.042857677, 187738.28, 187738.28, 0.00094634306, 10.002114, 9.998218 
1.3849218e+3, 3.1543228e+2, 494720.53, 111825.44, 5603.5576, -0.115063064, 0.08471977, 494802.5, 494802.5, 0.0018380386, 10.003873, 9.998888 
1.395153e+3, 1.2545052e+2, -2029857.3, -1832545.6, 14280.441, 0.24198556, -0.03589698, -1831517.4, -120919.42, 0.008733579, 9.997667, 10.000289 
1.3951415e+3, 1.3545348e+2, -1864276.6, -1771828.6, -15734.12, 0.16493165, 0.28003258, -1769224.1, -156647.94, 0.005033633, 9.998437, 9.99968 
1.3951291e+3, 1.4545426e+2, -1689204.3, -1534513.3, -77417.836, 0.08645528, 0.34593174, -1502424.6, 12145.726, 0.002076125, 9.998516, 10.000589 
1.3951154e+3, 1.5545307e+2, -1537032.4, -1404861.0, -48752.984, -0.11936479, 0.13874032, -1388823.8, 27755.428, 0.00048381835, 9.99887, 10.000633 
1.3951045e+3, 1.6545375e+2, -1426876.0, -1303464.9, -28559.143, -0.068282306, 0.15166996, -1297176.4, 21394.287, 0.000034571214, 9.998964, 10.000617 
1.3950954e+3, 1.7545596e+2, -1365106.8, -1216974.4, 7762.144, 0.15198141, 0.2814386, -1216568.8, 3979.2065, 0.00000005013657, 9.9987, 10.000661 
1.3950841e+3, 1.8545614e+2, -1244228.5, -1208618.6, 2128.4182, 0.17765191, 0.2866142, -1208491.9, -85947.836, 0.0, 9.99927, 9.999777 
1.3950711e+3, 1.954545e+2, -956166.5, -1009611.8, 42230.99, 0.06835596, 0.11511046, -932913.6, 91643.63, 0.0, 10.000541, 9.999852 
1.3950588e+3, 2.0545383e+2, -884940.94, -995907.6, 32240.879, 0.01887118, 0.103009194, -876253.6, 50309.582, 0.0, 10.000671, 9.999205 
1.3950469e+3, 2.154539e+2, -899044.5, -938962.2, 22160.432, 0.017577812, 0.1597065, -889179.9, -60615.63, 0.0, 9.999848, 9.999319 
1.3950357e+3, 2.2545354e+2, -750122.56, -732187.6, 46571.63, 0.023790149, 0.15682283, -693727.94, 36839.348, 0.0, 9.999809, 10.000099 
1.395025e+3, 2.3545271e+2, -559483.94, -585112.25, 59365.156, 0.048725244, 0.033305336, -511565.72, 121007.586, 0.0, 10.000433, 10.000132 
1.3950135e+3, 2.4545276e+2, -489581.75, -619036.06, -15319.772, 0.06390505, 0.08748944, -487793.47, 46780.848, 0.0, 10.000772, 9.999047 
1.3950007e+3, 2.5545332e+2, -364433.97, -498470.5, 3781.3325, 0.07366586, 0.20778117, -364327.4, 72246.19, 0.0, 10.000926, 9.9991255 
1.3949879e+3, 2.654525e+2, -257098.94, -405589.78, 34812.793, 0.023354521, 0.22571628, -249342.45, 89239.984, 0.0000000011462398, 10.001019, 9.999056 
1.394975e+3, 2.7545056e+2, -156105.95, -299132.44, 63564.28, -0.06890888, 0.08926881, -131939.72, 108660.1, 0.0000063015364, 10.001, 9.9991255 
1.3949619e+3, 2.8544945e+2, -105487.48, -293295.56, -7029.285, -0.10556633, 0.10445199, -105224.76, 37383.902, 0.00007549819, 10.00098, 9.9985 
1.3949485e+3, 2.9544863e+2, -111.341576, -175813.86, -3770.209, -0.08906867, 0.13772729, -30.477985, 44583.797, 0.0003302392, 10.0009575, 9.998639 
1.3949381e+3, 3.054453e+2, 166972.4, -120384.836, 79526.34, 0.039276075, -0.029287124, 187513.11, 187513.11, 0.0008840725, 10.001998, 9.99819 
1.3949274e+3, 3.1544402e+2, 480806.97, 160342.9, 85219.12, -0.00053558557, -0.014649675, 502059.38, 502059.38, 0.0017240661, 10.0035515, 9.999373 
1.4051513e+3, 1.2546179e+2, -1732329.5, -1733804.3, 29163.076, 0.21762314, -0.015460541, -1703894.5, 6594.4775, 0.009133226, 9.999872, 9.999911 
1.4051403e+3, 1.3546483e+2, -1758030.0, -1719720.8, 18277.893, 0.17299955, 0.30714712, -1712399.4, -99932.25, 0.005275387, 9.9991455, 9.9997015 
1.4051287e+3, 1.4546576e+2, -1608787.8, -1508721.9, 39578.56, 0.17125712, 0.38887638, -1494960.1, 19500.129, 0.0021822979, 9.999111, 10.000485 
1.405115e+3, 1.5546446e+2, -1418859.0, -1365761.4, 18063.61, -0.086282685, 0.184806, -1360199.0, 56271.977, 0.00051218417, 9.99975, 10.000485 
1.405104e+3, 1.6546483e+2, -1306735.5, -1234895.3, 457.71234, -0.06153669, 0.16953704, -1234892.3, 83572.41, 0.000037386584, 9.999744, 10.000703 
1.4050949e+3, 1.7546655e+2, -1238538.9, -1140940.9, -32515.951, 0.18962958, 0.23565085, -1131100.0, 89344.84, 0.00000006103049, 9.999498, 10.0007925 
1.405084e+3, 1.8546711e+2, -1203048.8, -1135419.4, -13930.315, 0.24093486, 0.24594557, -1132662.4, -10225.85, 0.0, 9.999334, 10.000241 
1.4050716e+3, 1.954666e+2, -1104933.3, -1028660.9, -19604.896, 0.1279552, 0.14016882, -1023916.75, 521.6882, 0.0, 9.999298, 10.000315 
1.4050594e+3, 2.0546621e+2, -1034198.25, -1072964.8, -19808.184, 0.053137183, 0.13492274, -1025867.4, -99425.77, 0.0, 9.999665, 9.999166 
1.4050469e+3, 2.1546583e+2, -805164.2, -892424.3, -10965.666, 0.008155511, 0.15031913, -803807.3, 24639.557, 0.0, 10.000494, 9.999326 
1.4050357e+3, 2.2546518e+2, -665421.7, -707430.06, 40448.914, 0.019296054, 0.12698722, -640848.56, 89604.59, 0.0, 10.000489, 9.999928 
1.4050256e+3, 2.3546419e+2, -658136.2, -639763.4, 6489.341, 0.08022541, 0.0022257068, -637702.44, -5241.04, 0.0, 9.99981, 10.000044 
1.4050138e+3, 2.4546441e+2, -618334.8, -655597.8, -42831.273, 0.0870284, 0.064540714, -590258.1, -55797.195, 0.0, 9.999769, 9.9992895 
1.4050008e+3, 2.5546545e+2, -436637.38, -504223.72, -40837.99, 0.04042121, 0.20855646, -417423.78, 19031.469, 0.0, 10.000298, 9.999395 
1.4049886e+3, 2.654649e+2, -320798.25, -411314.03, -7073.3667, 0.029047038, 0.22818038, -320248.8, 18212.607, 0.0000000047036606, 10.000468, 9.999285 
1.404977e+3, 2.7546316e+2, -222119.77, -301954.38, -25834.168, 0.055257406, 0.0936944, -214489.25, 25987.195, 0.000006310061, 10.000428, 9.99938 
1.4049642e+3, 2.85462e+2, -57360.293, -327119.94, -39809.22, -0.00032068903, 0.1183095, -51608.184, 90878.41, 0.00007173929, 10.001566, 9.997977 
1.4049506e+3, 2.9546085e+2, 357482.22, -60422.184, -62001.164, -0.11469834, 0.16843167, 366486.8, 410984.34, 0.0003165935, 10.00368, 9.998114 
1.4049408e+3, 3.054574e+2, 428258.97, -49803.414, -2318.8464, 0.0123365065, 0.041539527, 428270.22, 428270.22, 0.00085306494, 10.004024, 9.997705 
1.4049317e+3, 3.1545556e+2, 381515.9, 110352.72, -92056.43, 0.13597384, 0.047705296, 409814.63, 409814.63, 0.0016667417, 10.002856, 9.999375 
1.4151476e+3, 1.254756e+2, -1679370.8, -1622353.5, -79017.86, -0.19432528, 0.28552547, -1566858.8, 143501.94, 0.009556688, 9.999858, 10.000695 
1.4151382e+3, 1.3547574e+2, -1684587.4, -1562863.1, 2010.1558, 0.04230095, 0.21323343, -1562830.0, 49528.09, 0.0055341963, 9.999129, 10.000788 
1.4151292e+3, 1.4547592e+2, -1626594.6, -1555410.9, 46527.39, 0.27203566, 0.17834443, -1532423.0, -18067.057, 0.0022969088, 9.999153, 10.000145 
1.4151153e+3, 1.5547672e+2, -1452193.3, -1434026.9, 48202.668, -0.04412722, 0.23208617, -1394059.1, 22289.643, 0.0005425403, 9.999748, 10.000017 
1.4151037e+3, 1.6547649e+2, -1336294.3, -1302664.1, -25111.818, -0.09367614, 0.20386241, -1289257.5, 29091.441, 0.000040406845, 9.999767, 10.000233 
1.4150944e+3, 1.7547522e+2, -1273679.4, -1206828.1, -32251.656, 0.18131723, 0.022414006, -1193805.5, 26551.477, 0.00000007226826, 9.999464, 10.000362 
1.4150836e+3, 1.8547554e+2, -1192662.9, -1110598.6, -28411.902, 0.23952961, 0.018366588, -1101722.1, 20629.148, 0.0, 9.999322, 10.000416 
1.4150707e+3, 1.9547704e+2, -1101852.6, -1009864.56, -12232.428, 0.085913375, 0.098161384, -1008265.75, 16069.328, 0.0, 9.9992485, 10.000467 
1.415059e+3, 2.0547722e+2, -1005163.25, -1000377.06, -6099.2666, 0.029199714, 0.11499769, -996218.25, -69886.01, 0.0, 9.999604, 9.999696 
1.4150482e+3, 2.1547619e+2, -795439.94, -837639.1, 25897.297, 0.07123606, 0.010389319, -783135.0, 45206.723, 0.0, 10.000338, 9.999782 
1.4150363e+3, 2.2547612e+2, -721352.25, -785787.8, 1942.6774, 0.016180692, 0.048741877, -721293.7, 9050.03, 0.0, 10.000326, 9.999466 
1.4150234e+3, 2.354768e+2, -718048.7, -721628.5, -6126.509, -0.12565921, 0.13945657, -713455.94, -81115.63, 0.0, 9.999636, 9.999561 
1.4150117e+3, 2.454769e+2, -610429.3, -616929.44, -32704.365, -0.12283324, 0.19596629, -580813.94, -46472.215, 0.0, 9.999662, 9.999607 
1.415001e+3, 2.554763e+2, -431423.63, -468436.1, -9263.776, 0.0038709387, 0.13927542, -429234.5, 7114.605, 0.0, 10.000182, 9.9997 
1.41499e+3, 2.6547614e+2, -346154.63, -431670.5, -18630.36, 0.098069735, 0.18754876, -342272.13, -3921.1938, 0.000000079284355, 10.000334, 9.999206 
1.4149785e+3, 2.7547628e+2, -254793.94, -335193.38, -8250.694, 0.16037522, 0.2506669, -253955.97, -13606.759, 0.000007370644, 10.000287, 9.999216 
1.4149663e+3, 2.8547496e+2, -98428.74, -398014.0, 29470.959, 0.034258768, 0.2889439, -95557.13, 46805.613, 0.00007202747, 10.001493, 9.997527 
1.4149533e+3, 2.9547203e+2, 300210.72, -151678.61, 30675.998, -0.21911514, 0.20461464, 302283.6, 346676.0, 0.0003176136, 10.003542, 9.997561 
1.4149436e+3, 3.0546862e+2, 319427.6, -225132.86, -53844.227, -0.1295551, 0.16752598, 324700.47, 324700.47, 0.0008555333, 10.003831, 9.996574 
1.4149347e+3, 3.154668e+2, 282625.53, -18995.244, -110732.375, 0.10440559, 0.28390196, 318912.53, 318912.53, 0.0016666559, 10.002564, 9.998604 
1.4251474e+3, 1.2548782e+2, -1914964.8, -1715195.6, -40158.27, -0.11346494, 0.36379623, -1707425.1, 2819.1528, 0.010011913, 9.998168, 10.000868 
1.4251368e+3, 1.3548687e+2, -1653557.4, -1530491.8, -14081.095, -0.009250607, 0.17463084, -1528901.1, 83347.72, 0.0058154534, 9.999305, 10.000917 
1.4251281e+3, 1.4548647e+2, -1534773.4, -1540427.4, 20948.236, 0.2245575, 0.08917174, -1516462.3, -2210.58, 0.002423067, 9.999932, 9.999862 
1.4251158e+3, 1.5548813e+2, -1471677.6, -1475429.3, 1135.9095, 0.027728597, 0.2570475, -1471360.5, -55122.9, 0.00057589856, 9.999771, 9.999707 
1.4251038e+3, 1.6548795e+2, -1362254.5, -1345750.3, -44031.816, -0.03286359, 0.26239368, -1309204.0, 9033.65, 0.00004378684, 9.999707, 9.9999695 
1.4250937e+3, 1.7548615e+2, -1226700.4, -1211496.9, -56318.28, 0.1468498, 0.049735963, -1162269.6, 57980.96, 0.00000008454083, 9.999898, 10.000122 
1.425083e+3, 1.8548602e+2, -1110735.5, -1111077.5, -37923.69, 0.21737075, 0.031319972, -1072982.4, 49267.52, 0.0, 10.00006, 10.000057 
1.425071e+3, 1.9548717e+2, -970114.5, -981326.4, -80484.195, 0.14946657, 0.11202195, -895041.25, 129197.86, 0.0, 10.000304, 10.000156 
1.4250591e+3, 2.0548756e+2, -911585.9, -889605.56, -70420.53, 0.08907146, 0.13424486, -829322.75, 96910.77, 0.0, 9.999967, 10.000279 
1.4250477e+3, 2.1548712e+2, -917829.94, -836231.3, -58247.195, 0.052304402, 0.032058023, -805915.8, 22318.53, 0.0, 9.999223, 10.000332 
1.425036e+3, 2.2548722e+2, -853014.25, -868446.56, -38823.1, 0.00063126016, 0.06604557, -821147.94, -90913.586, 0.0, 9.9995, 9.9993 
1.425024e+3, 2.3548768e+2, -569994.75, -668064.5, -46499.676, -0.08025093, 0.15419175, -551452.75, 80781.54, 0.0, 10.000712, 9.999419 
1.4250124e+3, 2.4548776e+2, -411709.47, -489603.84, -50647.68, -0.0849232, 0.20211501, -386765.56, 147469.77, 0.0, 10.00091, 9.999876 
1.425001e+3, 2.5548735e+2, -378099.06, -411477.25, -60056.49, -0.023051668, 0.13803716, -332455.94, 103782.805, 0.00000000006254562, 10.000424, 9.999968 
1.42499e+3, 2.6548702e+2, -291773.72, -468411.6, -43652.406, 0.045784447, 0.18338417, -281574.8, 56667.305, 0.00000036239143, 10.000974, 9.998647 
1.4249794e+3, 2.7548674e+2, 9521.102, -263864.63, -86239.9, 0.118563354, 0.25386268, 34452.06, 274698.22, 0.000010087366, 10.002333, 9.99872 
1.424968e+3, 2.8548506e+2, -17448.652, -338698.28, -27209.596, 0.043482054, 0.27588928, -15160.32, 127103.25, 0.00007869426, 10.001965, 9.997716 
1.4249562e+3, 2.9548207e+2, -145387.69, -339350.66, -15075.384, -0.13053212, 0.16672944, -144222.98, -99928.664, 0.00033370158, 10.000367, 9.997804 
1.4249463e+3, 3.0547947e+2, -14965.044, -364287.4, 37965.113, -0.093688115, 0.18558156, -10886.531, -10886.531, 0.00088811334, 10.001408, 9.996801 
1.4249375e+3, 3.1547788e+2, 568829.4, 137780.7, 43779.785, 0.048223663, 0.30119348, 573230.94, 573230.94, 0.0017196501, 10.004432, 9.998796 
1.4351496e+3, 1.2549935e+2, -1923086.9, -1751628.8, -52790.44, 0.22601177, 0.28018683, -1736678.6, -26547.49, 0.010506618, 9.998232, 10.00059 
1.435136e+3, 1.3549858e+2, -1725222.9, -1669538.6, 50643.82, -0.047222495, 0.1999685, -1639588.3, -27452.348, 0.006123269, 9.999274, 9.999966 
1.4351253e+3, 1.4549766e+2, -1540624.9, -1566267.5, 5925.4043, -0.07426033, 0.11965803, -1539321.9, -25176.904, 0.002563054, 9.999981, 9.999668 
1.435116e+3, 1.5549883e+2, -1485614.0, -1502437.5, 5048.666, 0.042395342, 0.25913835, -1484215.1, -68079.25, 0.0006133788, 9.999757, 9.999535 
1.4351043e+3, 1.6549931e+2, -1364635.9, -1352794.3, -52176.215, 0.018605249, 0.34118214, -1306204.0, 11925.927, 0.000047750204, 9.999715, 9.999919 
1.4350924e+3, 1.754991e+2, -1232237.8, -1227260.8, -40856.92, -0.0008684886, 0.29382095, -1188816.6, 31310.982, 0.00000010052836, 9.999911, 10.00001 
1.435082e+3, 1.8549837e+2, -1170347.6, -1232657.5, -43573.797, 0.08668725, 0.26586127, -1147936.6, -25802.393, 0.0, 10.0000515, 9.999228 
1.4350724e+3, 1.9549707e+2, -1036909.0, -1099762.0, -63385.664, 0.22883756, 0.18314618, -997586.9, 26562.898, 0.0, 10.000217, 9.999386 
1.4350598e+3, 2.0549732e+2, -881390.75, -805426.3, -111813.23, 0.13104497, 0.19597995, -725320.2, 200824.28, 0.0, 9.99987, 10.000904 
1.4350452e+3, 2.1549873e+2, -903450.06, -768129.1, -72628.695, -0.13821895, 0.21619129, -736528.0, 91595.83, 0.0, 9.999062, 10.000875 
1.4350344e+3, 2.254985e+2, -867568.8, -862625.7, -5648.1733, -0.118458964, 0.19029635, -858931.94, -128807.73, 0.0, 9.999346, 9.999414 
1.4350268e+3, 2.3549692e+2, -585965.25, -659634.8, 5413.134, 0.1316036, 0.057556536, -585569.6, 46572.832, 0.0, 10.000542, 9.9995575 
1.4350154e+3, 2.4549705e+2, -419693.0, -475896.2, -83779.04, 0.1072557, 0.09540777, -359428.16, 174713.23, 0.0, 10.000768, 10.000044 
1.4350003e+3, 2.5549847e+2, -395897.1, -412948.72, -64674.18, -0.13797085, 0.20046519, -339189.2, 96936.55, 0.000000006122379, 10.000273, 10.000031 
1.4349885e+3, 2.6549754e+2, -366948.8, -601821.2, -3607.2605, -0.21925396, 0.22631265, -366893.44, -28758.201, 0.0000008787704, 10.000869, 9.997786 
1.4349791e+3, 2.754945e+2, -63473.57, -388806.13, -26307.553, -0.16509184, 0.112825975, -61359.98, 178806.73, 0.000014147242, 10.002213, 9.997927 
1.434969e+3, 2.8549236e+2, 15801.663, -243510.22, -100436.93, -0.075341575, 0.08672612, 50152.55, 192341.38, 0.000090676054, 10.001846, 9.9984255 
1.4349584e+3, 2.9549068e+2, -123490.19, -258964.05, -50588.97, 0.044269178, 0.039573908, -106684.016, -62478.016, 0.00036367134, 10.000209, 9.998436 
1.434949e+3, 3.0548972e+2, 93177.61, -100442.79, 144308.72, 0.0093990825, 0.09961956, 170140.89, 170140.89, 0.00095384644, 10.001261, 9.998676 
1.4349398e+3, 3.154888e+2, 611567.1, 304203.84, 193762.77, -0.20300534, 0.091425486, 705195.1, 705195.1, 0.0018355994, 10.004108, 10.000101 
1.445148e+3, 1.2551075e+2, -1714602.9, -1686551.6, 10762.969, 0.17732678, 0.20728499, -1682897.9, 27118.695, 0.011047917, 9.999795, 10.000287 
1.4451362e+3, 1.3551056e+2, -1738849.0, -1764925.6, 67612.414, 0.04116367, 0.25140643, -1683029.3, -71010.67, 0.00646129, 9.999536, 9.999187 
1.445125e+3, 1.4550932e+2, -1631026.1, -1623291.5, 34458.227, -0.081298836, 0.19081871, -1592484.3, -78453.02, 0.0027186894, 9.999431, 9.999533 
1.4451161e+3, 1.5550937e+2, -1510162.0, -1518408.5, 12231.669, 0.09249087, 0.22292961, -1501377.4, -85345.305, 0.0006559602, 9.999611, 9.999494 
1.445105e+3, 1.6550945e+2, -1330119.8, -1346374.6, 597.247, 0.093025714, 0.2720968, -1330097.8, -12068.471, 0.000052490832, 10.000014, 9.999808 
1.445093e+3, 1.7550942e+2, -1099454.0, -1173292.1, -14545.458, 0.022437578, 0.2549942, -1096692.0, 123332.91, 0.00000012546444, 10.000883, 9.999902 
1.4450823e+3, 1.8550877e+2, -1066937.8, -1211426.8, -834.2811, 0.08326253, 0.25346306, -1066933.0, 55097.824, 0.0, 10.000867, 9.998984 
1.4450724e+3, 1.9550753e+2, -1062412.9, -1135328.9, 1417.77, 0.21760833, 0.19614938, -1062385.3, -38339.08, 0.0, 10.000137, 9.999178 
1.4450598e+3, 2.0550746e+2, -863840.75, -836218.5, -38326.76, 0.1363091, 0.20420222, -809290.4, 116754.45, 0.0, 10.000167, 10.000548 
1.4450455e+3, 2.1550821e+2, -660649.94, -685035.5, -93148.734, -0.10349836, 0.19445908, -578899.4, 249131.98, 0.0, 10.000877, 10.000571 
1.445035e+3, 2.2550778e+2, -663005.3, -760045.56, -23856.307, -0.058509722, 0.16036725, -657457.6, 72575.65, 0.0, 10.000726, 9.999457 
1.4450279e+3, 2.3550628e+2, -672344.94, -698615.4, -40267.035, 0.20816939, 0.03102821, -643124.9, -11075.719, 0.0, 9.999922, 9.999593 
1.4450161e+3, 2.4550623e+2, -574500.75, -587243.3, -135177.86, 0.15660477, 0.0650684, -445544.1, 88505.02, 0.0, 9.999871, 9.999703 
1.4450005e+3, 2.555072e+2, -377610.34, -445767.88, -171268.38, -0.16258056, 0.15969405, -237063.17, 198974.55, 0.000000012932129, 10.000556, 9.999679 
1.4449891e+3, 2.6550588e+2, -371823.84, -592437.5, -44367.47, -0.23710157, 0.16360338, -363235.47, -25185.266, 0.0000016431604, 10.000794, 9.997879 
1.4449811e+3, 2.755027e+2, -262643.75, -470467.72, -28959.543, -0.1101302, 0.021811172, -258683.8, -18600.998, 0.000019343763, 10.000793, 9.998039 
1.4449716e+3, 2.8550082e+2, -55708.242, -310044.8, -117934.17, 0.015424103, 0.02743773, -9439.963, 132663.4, 0.00010742276, 10.0014925, 9.998134 
1.4449608e+3, 2.9549977e+2, 216721.48, -120183.32, -155117.02, 0.14421897, 0.0709386, 277261.44, 321377.44, 0.00040939415, 10.002653, 9.998202 
1.4449516e+3, 3.0549875e+2, 360909.47, 82111.09, 38970.44, 0.05052136, 0.10926131, 366254.28, 366254.28, 0.0010584168, 10.002859, 9.999176 
1.4449428e+3, 3.154969e+2, 368659.34, 206330.0, -70491.1, -0.22827166, -0.045453977, 394996.75, 394996.75, 0.002024874, 10.002363, 10.000261 
1.4551441e+3, 1.2552257e+2, -1741998.1, -1751305.0, 84854.73, -0.22989906, 0.17145254, -1661669.3, 48226.523, 0.011640448, 9.999844, 9.999812 
1.4551371e+3, 1.3552284e+2, -1789400.8, -1861195.4, 64082.414, 0.16832118, 0.32048422, -1751846.3, -139949.77, 0.0068325973, 9.999493, 9.998551 
1.4551264e+3, 1.455216e+2, -1640639.4, -1638881.3, 27395.563, 0.07905025, 0.30116948, -1612350.6, -98441.24, 0.0028915813, 9.999418, 9.999426 
1.4551157e+3, 1.5551975e+2, -1513799.3, -1517848.9, 27230.695, 0.07873191, 0.14231448, -1488518.1, -72592.06, 0.00070428615, 9.999585, 9.999504 
1.4551052e+3, 1.6551846e+2, -1330725.4, -1361694.9, 16944.916, 0.09364328, 0.06035527, -1323255.6, -5320.474, 0.000058062662, 10.000067, 9.999681 
1.4550953e+3, 1.7551732e+2, -1109877.8, -1191987.6, 25431.348, 0.13679264, -0.055384964, -1102639.1, 117301.555, 0.00000016567238, 10.000865, 9.999785 
1.4550838e+3, 1.8551743e+2, -1045510.56, -1161200.5, -40725.97, 0.11133384, 0.004267268, -1032612.0, 89326.0, 0.0, 10.000846, 9.999338 
1.4550708e+3, 1.9551855e+2, -1056894.8, -1107946.8, -14568.696, 0.029027333, 0.15465331, -1053029.9, -29101.338, 0.0, 10.000069, 9.999402 
1.4550589e+3, 2.0551786e+2, -971822.5, -1033402.9, -24466.21, 0.012131101, 0.15906925, -963285.44, -37349.867, 0.0, 10.000056, 9.999246 
1.455048e+3, 2.1551552e+2, -768695.6, -870813.8, -59583.426, 0.06570018, -0.030673306, -741286.8, 86670.45, 0.0, 10.000719, 9.99937 
1.4550373e+3, 2.2551501e+2, -679037.5, -759183.3, -66582.97, 0.078569144, -0.021585595, -641398.56, 88563.13, 0.0, 10.000577, 9.999536 
1.4550264e+3, 2.3551592e+2, -703734.44, -714541.1, -55985.664, 0.05662883, 0.08554239, -652892.0, -20938.994, 0.0, 9.99972, 9.999577 
1.4550143e+3, 2.4551539e+2, -650463.94, -719423.3, -119651.92, -0.033747178, 0.11829979, -560422.8, -26465.21, 0.0, 9.999745, 9.998863 
1.4550011e+3, 2.555136e+2, -444962.63, -559296.6, -134800.3, -0.1797426, 0.01914967, -355708.38, 80265.586, 0.000000017460069, 10.00044, 9.998958 
1.4549915e+3, 2.6551226e+2, -321189.38, -461791.06, -53649.555, -0.09924161, 0.0037121123, -303056.72, 34929.277, 0.000002726617, 10.000677, 9.998836 
1.454985e+3, 2.755112e+2, -226947.67, -360390.16, -13737.901, 0.17459533, -0.022064285, -225548.05, 14447.87, 0.000025176965, 10.000641, 9.998866 
1.4549752e+3, 2.8551027e+2, -154196.9, -480600.4, -84005.37, 0.21751103, 0.10204825, -133845.63, 8162.6196, 0.00012772917, 10.0013485, 9.997033 
1.454963e+3, 2.955094e+2, 120394.93, -288028.22, -97620.46, 0.071428746, 0.2695774, 142528.5, 186552.13, 0.0004671954, 10.002511, 9.997123 
1.4549534e+3, 3.0550662e+2, 270564.5, -70955.45, 9172.911, -0.0708072, 0.23406956, 270810.7, 270810.7, 0.0011937756, 10.00271, 9.998193 
1.4549455e+3, 3.1550178e+2, 225299.58, -25567.605, -58814.867, -0.22498836, -0.12087819, 238403.97, 238403.97, 0.0022758725, 10.002082, 9.998799 
1.4651436e+3, 1.255322e+2, -1825698.8, -1730849.6, -68921.36, -0.22690816, 0.22584555, -1694612.6, 15190.144, 0.012283002, 9.999008, 10.000359 
1.4651361e+3, 1.3553225e+2, -1819212.4, -1799628.3, -99599.6, 0.14629167, 0.28355053, -1709340.5, -97536.44, 0.00723705, 9.998966, 9.999226 
1.4651263e+3, 1.4553156e+2, -1706376.5, -1675592.3, -19225.383, 0.15759197, 0.29497132, -1666356.5, -152545.94, 0.0030819494, 9.998961, 9.999413 
1.465116e+3, 1.5552993e+2, -1465053.5, -1485996.9, -39247.8, 0.13338135, 0.14810166, -1434904.4, -19079.193, 0.0007585455, 9.999859, 9.999604 
1.4651059e+3, 1.6552873e+2, -1346591.9, -1398809.3, -36075.773, 0.1523261, 0.08153331, -1328168.3, -10333.608, 0.00006440502, 10.000086, 9.999419 
1.465096e+3, 1.7552751e+2, -1260188.4, -1290718.1, -63671.14, 0.18228973, -0.014992281, -1209977.8, 9865.46, 0.00000022299002, 9.999946, 9.999552 
1.4650841e+3, 1.8552735e+2, -1135144.5, -1163671.8, -129663.83, 0.11822215, 0.0136324605, -1018962.06, 102879.84, 0.0, 10.000072, 9.999687 
1.4650705e+3, 1.9552813e+2, -960578.6, -1020856.94, -123889.97, -0.018268874, 0.08908826, -863214.5, 160617.78, 0.0, 10.000566, 9.999752 
1.4650589e+3, 2.0552741e+2, -931266.0, -1067862.9, -60547.156, -0.0096225245, 0.09823606, -908292.1, 17547.22, 0.0, 10.000555, 9.998776 
1.4650491e+3, 2.1552533e+2, -871766.5, -968484.9, -52867.406, 0.12008563, -0.020643853, -848476.75, -20615.338, 0.0, 10.000215, 9.998945 
1.4650382e+3, 2.2552478e+2, -712846.8, -798959.5, -33059.316, 0.120794624, 0.015592125, -701619.06, 28248.064, 0.0, 10.000462, 9.999315 
1.4650264e+3, 2.3552528e+2, -490714.03, -636887.2, -65738.89, 0.014007059, 0.106558, -465498.78, 166362.53, 0.0, 10.001284, 9.999361 
1.4650147e+3, 2.4552421e+2, -413834.8, -630376.94, -81473.83, -0.051539097, 0.108303174, -386604.53, 147266.03, 0.0, 10.001487, 9.998635 
1.4650027e+3, 2.5552183e+2, -332421.1, -525409.94, -76692.65, -0.08851233, -0.026679143, -305655.9, 130236.51, 0.000000044837254, 10.001309, 9.998767 
1.4649935e+3, 2.6552048e+2, -239585.28, -438165.97, -8160.2007, 0.01167258, -0.027453164, -239250.53, 98654.45, 0.0000038968087, 10.001309, 9.998693 
1.4649865e+3, 2.755199e+2, -115452.99, -326075.1, -64388.477, 0.22219308, 0.010523729, -97328.664, 142582.66, 0.000030518888, 10.001478, 9.998708 
1.4649771e+3, 2.8551888e+2, -91647.555, -457147.47, -76457.71, 0.24284798, 0.1380699, -76298.23, 65625.74, 0.00014669269, 10.001804, 9.996978 
1.4649656e+3, 2.9551768e+2, 88887.38, -304106.03, -56371.61, 0.10886082, 0.27870882, 96813.56, 140754.23, 0.0005242596, 10.00231, 9.997102 
1.4649563e+3, 3.0551404e+2, 200008.78, -154200.22, 91253.88, -0.02569623, 0.17942774, 222136.0, 222136.0, 0.0013356343, 10.002445, 9.997734 
1.4649487e+3, 3.155092e+2, 192883.95, -126695.195, 37075.004, -0.116513014, -0.12002927, 197128.72, 197128.72, 0.002548591, 10.002193, 9.998055 
1.4751455e+3, 1.2553847e+2, -1719435.1, -1497863.3, -118036.914, 0.0073228017, 0.2677264, -1446765.8, 262982.7, 0.012969953, 9.998972, 10.001975 
1.4751323e+3, 1.3553885e+2, -1685022.5, -1515686.5, -109550.914, -0.16544105, 0.1509064, -1461898.4, 149842.0, 0.0076708426, 9.998948, 10.001183 
1.4751247e+3, 1.4553933e+2, -1678110.8, -1639051.3, -9840.811, 0.061285503, 0.17024927, -1636712.0, -122977.805, 0.0032881629, 9.9990425, 9.999629 
1.4751163e+3, 1.5554011e+2, -1460054.9, -1468273.4, 1505.7749, 0.17393948, 0.24799962, -1459787.6, -44060.36, 0.00081847684, 9.999824, 9.999745 
1.4751063e+3, 1.6554032e+2, -1370599.8, -1457286.9, -55747.113, 0.1619215, 0.33940262, -1343328.9, -25602.176, 0.000071419374, 10.0001135, 9.999004 
1.4750952e+3, 1.7553994e+2, -1292773.8, -1351906.8, -59794.688, 0.06462306, 0.36749, -1255635.1, -35902.617, 0.0000002932695, 9.999917, 9.999144 
1.4750834e+3, 1.8553856e+2, -1106569.5, -1109215.6, -123812.92, 0.008649732, 0.27312145, -984072.56, 137669.9, 0.0, 10.000082, 10.000061 
1.4750715e+3, 1.9553624e+2, -941361.8, -968436.06, -98142.95, -0.011691234, 0.0017584555, -855826.8, 167930.39, 0.0, 10.000505, 10.000146 
1.4750595e+3, 2.0553613e+2, -911362.44, -1008657.5, -89026.78, -0.026722442, 0.0294216, -858558.75, 67197.19, 0.0, 10.000476, 9.99922 
1.4750479e+3, 2.1553773e+2, -870944.06, -930342.8, -57212.297, -0.0289651, 0.23339356, -836181.8, -8438.912, 0.0, 10.000062, 9.999279 
1.4750375e+3, 2.2553706e+2, -772869.9, -891735.5, -14174.979, -0.019865097, 0.27605465, -771202.9, -41453.414, 0.0, 10.000315, 9.998753 
1.4750277e+3, 2.3553449e+2, -543648.75, -717220.8, -25921.795, -0.008543106, 0.10827901, -539860.2, 91913.11, 0.0, 10.001154, 9.998873 
1.4750168e+3, 2.4553281e+2, -405421.47, -589717.3, -101441.78, -0.0002695512, 0.05365016, -360523.13, 173264.13, 0.0, 10.001377, 9.99897 
1.4750053e+3, 2.5553176e+2, -338129.44, -501983.28, -72759.63, 0.017693277, 0.021211376, -310484.53, 125309.64, 0.000000082863835, 10.001157, 9.9990015 
1.4749949e+3, 2.655305e+2, -343850.63, -622341.1, -9760.063, -0.005032422, 0.077213325, -343509.0, -5701.2783, 0.0000048986644, 10.001168, 9.997495 
1.4749852e+3, 2.755288e+2, -212344.95, -493077.34, -40633.473, -0.06544378, 0.120710924, -206581.94, 33246.566, 0.00003489947, 10.001335, 9.997624 
1.4749764e+3, 2.8552666e+2, -54802.242, -355045.47, -69750.586, -0.012781627, 0.14569774, -39389.438, 102460.125, 0.00016199038, 10.00168, 9.997745 
1.4749685e+3, 2.9552433e+2, 118664.484, -206957.33, -25650.52, 0.13341346, 0.09447408, 120672.695, 164542.16, 0.0005762134, 10.002153, 9.997848 
1.47496e+3, 3.055207e+2, 190246.06, -132807.47, 73085.87, 0.070677415, -0.04748456, 206011.27, 206011.27, 0.0014700064, 10.002276, 9.997954 
1.4749514e+3, 3.1551936e+2, 143618.1, -134268.45, 67987.5, -0.09625159, -0.028890537, 159360.1, 159360.1, 0.0028040595, 10.001817, 9.99817 
1.4851455e+3, 1.2554626e+2, -2117289.8, -1696504.0, 84193.97, 0.26020095, 0.19244878, -1680283.3, 29387.3, 0.013700781, 9.996256, 10.001921 
1.4851306e+3, 1.3554719e+2, -1593588.4, -1441331.0, -12016.809, -0.23743552, 0.11388879, -1440388.4, 171269.06, 0.00813248, 9.999419, 10.001485 
1.4851244e+3, 1.4554828e+2, -1483685.9, -1507699.5, 13506.666, 0.080127224, 0.16042337, -1477620.9, 36024.62, 0.0035089266, 10.000248, 9.999932 
1.4851166e+3, 1.5554936e+2, -1457342.9, -1432222.9, 6377.5034, 0.22115201, 0.23660646, -1430696.5, -15060.975, 0.0008836724, 9.999713, 10.000029 
1.4851063e+3, 1.6554986e+2, -1488465.0, -1512428.4, -12856.679, 0.19567484, 0.34299475, -1482872.4, -165239.69, 0.00007901186, 9.999323, 9.999 
1.4850944e+3, 1.7554975e+2, -1386411.9, -1395978.6, -8928.996, 0.05534966, 0.399265, -1381065.8, -161428.38, 0.00000037325287, 9.999279, 9.999148 
1.4850833e+3, 1.8554829e+2, -1225637.3, -1202992.9, -40339.23, 0.02356939, 0.31409925, -1172417.0, -50767.574, 0.0, 9.999421, 9.999737 
1.4850722e+3, 1.9554566e+2, -1044941.2, -1050373.6, -89555.11, 0.060565658, 0.041743126, -958061.1, 65607.586, 0.0, 9.999929, 9.999862 
1.4850606e+3, 2.0554551e+2, -872841.25, -988277.8, -106738.1, 0.026241913, 0.080054305, -809215.3, 116452.71, 0.0, 10.000745, 9.999224 
1.4850485e+3, 2.1554734e+2, -610414.25, -802927.44, -128635.67, -0.05745324, 0.30754, -546008.25, 281643.75, 0.0, 10.001842, 9.999295 
1.4850381e+3, 2.2554629e+2, -575161.5, -812249.4, -71361.85, -0.04740756, 0.31562686, -555339.4, 174322.52, 0.0, 10.001737, 9.998611 
1.4850289e+3, 2.3554286e+2, -609278.94, -761727.8, -75799.69, 0.022884697, 0.08024429, -578005.7, 53687.484, 0.0, 10.000761, 9.9987545 
1.4850186e+3, 2.4554142e+2, -452534.47, -611645.0, -110476.125, 0.055649564, 0.054572195, -395950.06, 137755.2, 0.0, 10.001057, 9.998973 
1.4850074e+3, 2.5554147e+2, -156215.55, -415022.97, -129459.91, 0.060947318, 0.13152559, -102575.03, 333127.78, 0.00000011463164, 10.002409, 9.998998 
1.4849968e+3, 2.655401e+2, -158809.06, -542686.44, -46756.89, 0.014129842, 0.1830374, -153196.08, 184521.02, 0.000005857849, 10.002488, 9.997403 
1.4849864e+3, 2.7553737e+2, -175999.92, -483585.97, -25962.63, -0.082915284, 0.13881412, -173823.88, 65922.375, 0.000039275426, 10.001624, 9.997551 
1.4849779e+3, 2.8553492e+2, -25855.076, -302503.03, 26052.867, -0.038152695, 0.114174165, -23422.973, 118345.91, 0.00017769578, 10.001731, 9.998069 
1.4849709e+3, 2.9553264e+2, 215605.13, -126244.81, 9829.648, 0.12278328, 0.042382322, 215887.55, 259673.08, 0.0006294966, 10.002664, 9.998161 
1.4849623e+3, 3.0552912e+2, 191115.02, -115685.6, 55980.305, 0.09233162, -0.11618439, 201010.3, 201010.3, 0.0015962292, 10.002183, 9.998137 
1.4849536e+3, 3.1552956e+2, -14650.192, -153953.88, -1360.6373, 0.02035215, 0.06556988, -14636.903, -14636.903, 0.0030239006, 10.000457, 9.9987 
1.4951412e+3, 1.2555614e+2, -2185722.5, -1870713.4, 9558.436, 0.15066645, 0.06926541, -1870423.6, -160860.02, 0.014485426, 9.996385, 10.000667 
1.495131e+3, 1.3555765e+2, -1698443.4, -1638673.4, 104252.555, -0.1647171, 0.19447611, -1560107.0, 51444.957, 0.008627366, 9.999353, 10.000148 
1.4951253e+3, 1.455586e+2, -1446847.5, -1448616.1, -29187.932, 0.10154017, 0.26498193, -1418530.5, 95012.66, 0.0037456865, 10.0003, 10.000324 
1.495116e+3, 1.5555792e+2, -1438659.5, -1391025.9, -5131.7905, 0.17428178, 0.13439411, -1390479.4, 25068.465, 0.0009542572, 9.999694, 10.000329 
1.4951055e+3, 1.6555758e+2, -1448877.3, -1443400.0, -30915.936, 0.13942544, 0.11813098, -1415101.6, -97550.66, 0.00008722728, 9.999376, 9.999445 
1.4950942e+3, 1.7555705e+2, -1367142.1, -1348047.5, -3101.374, 0.072217345, 0.091661304, -1347556.4, -127999.45, 0.0000004647829, 9.999249, 9.999488 
1.4950834e+3, 1.8555668e+2, -1290874.3, -1348337.3, -36834.574, 0.06343135, 0.15185064, -1272890.9, -151328.9, 0.0, 9.9994545, 9.998727 
1.4950727e+3, 1.955564e+2, -1125424.3, -1203324.6, -61910.406, 0.096123844, 0.21680744, -1091230.6, -67664.25, 0.0, 9.9998665, 9.998843 
1.495062e+3, 2.0555559e+2, -912117.0, -1050276.5, -78146.87, 0.04937093, 0.25558823, -876894.56, 48680.406, 0.0, 10.000653, 9.998844 
1.4950506e+3, 2.1555421e+2, -655447.2, -861783.0, -82116.68, -0.04587675, 0.20099765, -626756.2, 200831.84, 0.0, 10.001696, 9.99896 
1.49504e+3, 2.2555251e+2, -578309.4, -789181.5, -122031.62, -0.048393972, 0.14699474, -522474.0, 207129.23, 0.0, 10.001599, 9.998842 
1.4950296e+3, 2.3555046e+2, -619043.6, -745564.6, -97874.86, 0.021132072, 0.023075685, -565765.0, 65856.03, 0.0, 10.000602, 9.998945 
1.4950193e+3, 2.4555008e+2, -501792.5, -674960.44, -68776.58, 0.015234732, 0.11481945, -477800.7, 55824.047, 0.0, 10.000887, 9.99862 
1.495009e+3, 2.5555092e+2, -198213.8, -469201.5, -70139.23, -0.04473689, 0.3022471, -181136.05, 254482.56, 0.00000015644366, 10.002266, 9.998694 
1.4949991e+3, 2.655493e+2, -117712.68, -424830.78, -89515.28, -0.021261223, 0.2993701, -93526.49, 244106.58, 0.000006865855, 10.002347, 9.998281 
1.4949898e+3, 2.7554563e+2, -142386.9, -376384.5, -42028.336, 0.07355397, 0.06862046, -135067.16, 104598.09, 0.00004412461, 10.001469, 9.998361 
1.4949809e+3, 2.8554353e+2, -54438.555, -330900.53, 51550.867, 0.05832962, 0.05082797, -45138.875, 96543.89, 0.00019465707, 10.00159, 9.997946 
1.4949721e+3, 2.955427e+2, 185347.13, -151252.78, 60109.33, -0.03692411, 0.12952088, 195759.25, 239447.78, 0.00068026775, 10.0025015, 9.998069 
1.494963e+3, 3.055393e+2, 166972.5, -119780.42, -17456.934, -0.075637676, -0.011919187, 168031.34, 168031.34, 0.0016995047, 10.001998, 9.998192 
1.4949545e+3, 3.155398e+2, -12406.343, -74810.266, -25028.84, 0.014987572, 0.16941786, -3608.2393, -3608.2393, 0.0031810992, 10.0001545, 9.999385 
1.505139e+3, 1.2556614e+2, -1531474.1, -1624757.6, -107836.234, 0.05400626, 0.11657253, -1460625.0, 248838.97, 0.015336173, 10.001206, 10.000026 
1.505132e+3, 1.3556635e+2, -1799149.9, -1750301.0, 66718.39, 0.044204555, 0.15971988, -1703676.9, -92211.91, 0.0091627855, 9.998919, 9.999595 
1.5051249e+3, 1.4556697e+2, -1763474.6, -1589814.5, -39453.83, 0.16105208, 0.22335471, -1581271.3, -67811.49, 0.0040015904, 9.998102, 10.000404 
1.5051153e+3, 1.5556684e+2, -1542793.8, -1425887.3, -61105.832, 0.18077515, 0.13542618, -1399778.6, 15681.278, 0.001031135, 9.9989195, 10.000463 
1.5051048e+3, 1.655666e+2, -1440087.4, -1415659.8, -75936.664, 0.14224324, 0.10970401, -1350961.0, -33499.1, 0.000096309515, 9.999315, 9.999675 
1.5050937e+3, 1.7556576e+2, -1296644.0, -1286616.1, -84613.625, 0.09708277, 0.027021667, -1206868.0, 12601.209, 0.000000575819, 9.999598, 9.999746 
1.5050833e+3, 1.855657e+2, -1232923.9, -1319083.1, -47021.78, 0.09669129, 0.102438465, -1212231.3, -90759.695, 0.0, 9.99986, 9.998722 
1.5050729e+3, 1.9556619e+2, -1070102.3, -1174340.9, -18250.232, 0.10983535, 0.24713702, -1066999.4, -43529.676, 0.0, 10.000246, 9.99885 
1.5050624e+3, 2.0556515e+2, -986093.44, -1104592.8, 32600.729, 0.073706016, 0.27208927, -977716.7, -52235.324, 0.0, 10.000241, 9.998669 
1.505052e+3, 2.1556272e+2, -907147.5, -1002872.0, 16782.611, 0.000012206969, 0.13018633, -904290.44, -76784.83, 0.0, 10.000052, 9.998787 
1.5050413e+3, 2.2556122e+2, -733374.9, -842401.75, -14570.295, -0.020123003, 0.0976968, -731461.25, -1942.3136, 0.0, 10.000465, 9.99901 
1.5050304e+3, 2.3556043e+2, -492509.0, -666823.2, -20928.133, -0.0068587507, 0.08459379, -490031.56, 141492.66, 0.0, 10.001403, 9.999091 
1.5050203e+3, 2.4555999e+2, -432829.75, -656549.94, 51035.645, -0.002095822, 0.17079511, -421737.3, 111791.266, 0.0, 10.001431, 9.998478 
1.5050109e+3, 2.555598e+2, -422057.72, -585626.6, 36997.18, -0.009050117, 0.267068, -414078.66, 21454.057, 0.00000020302433, 10.000778, 9.9986 
1.5050013e+3, 2.655581e+2, -300756.2, -484614.0, 8706.313, 0.03481593, 0.24782154, -300344.8, 37202.254, 0.0000077496, 10.00097, 9.998531 
1.504992e+3, 2.7555504e+2, -63626.527, -313940.5, -10325.98, 0.12070238, 0.058385123, -63201.28, 176369.95, 0.000048509926, 10.001889, 9.998594 
1.5049829e+3, 2.8555313e+2, -64170.934, -352543.75, 81017.29, 0.10027716, 0.056552283, -42968.34, 98619.47, 0.00020995413, 10.001603, 9.997788 
1.5049739e+3, 2.9555216e+2, -115603.21, -302938.13, 46819.703, 0.00066921476, 0.13362981, -104553.54, -60955.55, 0.0007218437, 10.000483, 9.997986 
1.5049645e+3, 3.0554903e+2, -24307.01, -199606.97, -11744.587, -0.046323232, 0.0114627, -23523.658, -23523.658, 0.0017668722, 10.000608, 9.998326 
1.5049557e+3, 3.1554964e+2, 223966.72, 114535.98, -45032.44, 0.07597187, 0.20347358, 240115.25, 240115.25, 0.0032563144, 10.001434, 10.000089 
1.5151383e+3, 1.2557709e+2, -1528823.8, -1640978.9, -160234.84, -0.19760954, 0.35535124, -1415137.0, 294226.06, 0.016257107, 10.001295, 9.999881 
1.5151338e+3, 1.3557376e+2, -1804831.6, -1744656.8, 2548.244, 0.2970888, 0.019295339, -1744549.0, -133156.81, 0.009740974, 9.998863, 9.999653 
1.515123e+3, 1.4557391e+2, -1771600.5, -1634569.4, -26729.0, 0.11509363, 0.06231075, -1629540.3, -116149.484, 0.0042781597, 9.998204, 10.000055 
1.515114e+3, 1.555762e+2, -1555094.9, -1453542.8, -20671.525, 0.13796806, 0.23806822, -1449496.3, -34124.81, 0.0011151112, 9.998924, 10.000271 
1.515104e+3, 1.6557693e+2, -1423650.6, -1396796.8, -81193.35, 0.101145096, 0.3146387, -1327927.6, -10562.647, 0.000106548556, 9.9993725, 9.999778 
1.515093e+3, 1.75576e+2, -1290219.5, -1268182.5, -64201.652, 0.045229554, 0.20562714, -1214060.8, 5312.212, 0.0000007145684, 9.999571, 9.999887 
1.5150826e+3, 1.8557541e+2, -1159744.8, -1170730.0, -44424.4, 0.023120537, 0.1715031, -1120474.6, 902.27576, 0.0, 9.999869, 9.99974 
1.5150726e+3, 1.9557512e+2, -1012743.94, -1039951.6, 3139.9954, 0.017572876, 0.13557579, -1012386.25, 10991.47, 0.0, 10.000182, 9.999804 
1.5150623e+3, 2.055743e+2, -1000781.25, -1117094.8, 9875.701, 0.0048291683, 0.13986218, -999948.7, -74562.05, 0.0, 10.000157, 9.998628 
1.5150522e+3, 2.1557292e+2, -930195.94, -1016395.2, 21195.535, -0.0048977574, 0.10767715, -925266.1, -97862.72, 0.0, 9.999902, 9.998769 
1.5150414e+3, 2.2557251e+2, -753746.56, -843059.1, 10240.418, -0.062234428, 0.17915496, -752587.5, -23179.746, 0.0, 10.000284, 9.999095 
1.5150306e+3, 2.3557279e+2, -511758.9, -669925.94, 23446.746, -0.15089034, 0.26644248, -508356.34, 123046.555, 0.0, 10.0012455, 9.9991455 
1.515021e+3, 2.455712e+2, -452678.6, -665441.56, 13131.916, -0.09769703, 0.23288573, -451871.13, 81545.38, 0.0, 10.001283, 9.998493 
1.5150125e+3, 2.5556803e+2, -442201.0, -595632.56, 26497.105, 0.07521784, 0.03285744, -437753.94, -2308.4446, 0.00000026346208, 10.000635, 9.998604 
1.515003e+3, 2.6556635e+2, -345765.13, -543528.44, 34068.1, 0.08271243, 0.02925886, -340060.88, -2600.6025, 0.000008336701, 10.000819, 9.998201 
1.5149923e+3, 2.7556574e+2, -110306.05, -372056.7, 36158.355, -0.04151372, 0.11508226, -105402.96, 134060.92, 0.00005112129, 10.001733, 9.998267 
1.5149833e+3, 2.855639e+2, -105733.15, -412804.44, 26771.186, -0.025494304, 0.15092987, -103416.65, 38066.39, 0.00022272031, 10.001477, 9.9974375 
1.5149759e+3, 2.955609e+2, -162546.94, -363392.4, 26414.174, 0.11939637, 0.060777325, -159131.17, -115616.17, 0.000756888, 10.000319, 9.997648 
1.5149665e+3, 3.0555797e+2, -40251.523, -172679.97, 10895.495, 0.068668194, -0.03849967, -39361.09, -39361.09, 0.0018087787, 10.000379, 9.998609 
1.514957e+3, 3.1555915e+2, 229075.42, 221901.0, 19648.39, 0.0013532803, 0.16808711, 245461.38, 245461.38, 0.0032696738, 10.001075, 10.000975 
1.5251386e+3, 1.2558566e+2, -1852693.6, -1777248.5, -61556.055, -0.17163292, 0.35771292, -1742776.0, -33496.008, 0.017244658, 9.998994, 10.000037 
1.5251338e+3, 1.3558245e+2, -1668556.4, -1687881.6, -65963.2, 0.39048633, 0.03161029, -1611551.8, -244.68056, 0.010359608, 9.999828, 9.999583 
1.5251215e+3, 1.4558217e+2, -1593001.0, -1559246.1, -15026.494, 0.08378142, 0.04641418, -1553526.1, -40216.523, 0.0045741852, 9.999492, 9.999942 
1.525113e+3, 1.5558441e+2, -1517873.4, -1432991.3, -20181.111, 0.13952117, 0.21604025, -1428437.4, -13146.589, 0.0012060112, 9.999167, 10.00029 
1.5251033e+3, 1.6558541e+2, -1472817.3, -1373994.1, -41141.043, 0.12380517, 0.29922643, -1359108.9, -41827.566, 0.000118081814, 9.99887, 10.000171 
1.5250921e+3, 1.7558523e+2, -1368592.9, -1259187.4, -29539.879, 0.0344693, 0.22831671, -1251721.0, -32439.764, 0.0000008766353, 9.99886, 10.000288 
1.5250818e+3, 1.8558474e+2, -1279184.3, -1216019.3, -6466.5415, 0.0059372624, 0.18022469, -1215364.0, -94079.555, 0.0, 9.999001, 9.999852 
1.5250723e+3, 1.9558398e+2, -1110167.5, -1078463.6, -49070.516, 0.014855321, 0.09022242, -1042748.1, -19457.738, 0.0, 9.999465, 9.999896 
1.5250625e+3, 2.0558357e+2, -1003366.7, -1093572.1, -46456.34, 0.022538781, 0.11954357, -983720.3, -58424.2, 0.0, 10.000015, 9.998856 
1.5250526e+3, 2.1558335e+2, -807576.75, -930517.25, -37618.7, 0.023418684, 0.17572744, -796979.25, 30322.875, 0.0, 10.000616, 9.999008 
1.5250424e+3, 2.2558318e+2, -704686.56, -812699.56, -15679.877, -0.016386222, 0.25523135, -702456.44, 26847.078, 0.0, 10.00058, 9.9991665 
1.5250318e+3, 2.3558296e+2, -680262.1, -743102.5, -21718.23, -0.089372285, 0.2848179, -673486.6, -42184.605, 0.0, 10.00005, 9.999221 
1.5250221e+3, 2.455809e+2, -613189.6, -766794.3, -22386.637, -0.05910638, 0.21178351, -609993.5, -76673.62, 0.0, 10.000301, 9.99826 
1.5250133e+3, 2.5557724e+2, -370133.22, -585676.44, -51568.555, 0.05205672, -0.014199855, -358430.84, 76923.35, 0.0000003530132, 10.001237, 9.998379 
1.5250038e+3, 2.6557556e+2, -241506.17, -501492.3, -11535.115, 0.04960377, -0.0027812447, -240995.39, 96374.38, 0.000008619123, 10.001569, 9.998129 
1.5249938e+3, 2.7557537e+2, -153276.84, -392505.88, -20006.516, -0.05001641, 0.1309267, -151615.25, 87755.51, 0.000051931653, 10.001444, 9.998258 
1.524985e+3, 2.855738e+2, -90184.125, -358186.34, 445.6631, -0.0041638794, 0.17680806, -90183.38, 51203.867, 0.00023518385, 10.0013895, 9.99786 
1.5249771e+3, 2.9557106e+2, 23244.107, -234760.81, 33557.746, 0.16156706, 0.068879515, 27537.398, 70954.81, 0.0007914608, 10.001416, 9.998018 
1.5249676e+3, 3.0556878e+2, 75874.06, -141337.64, 78140.19, 0.10874871, 0.03105907, 101063.28, 101063.28, 0.001844471, 10.001254, 9.99842 
1.5249582e+3, 3.1556916e+2, 179026.19, 179261.72, -1214.4248, 0.051845066, 0.18064234, 180364.08, 180364.08, 0.0032658095, 10.000742, 10.0008745 
1.5351412e+3, 1.2559183e+2, -1820340.6, -1717780.4, 111901.64, 0.13253419, 0.124362335, -1645968.5, 63246.543, 0.018294634, 9.999033, 10.000424 
1.5351322e+3, 1.3559255e+2, -1677613.0, -1704073.5, -44696.984, 0.20829661, 0.20535749, -1644229.4, -33020.95, 0.011016667, 9.999821, 9.999475 
1.5351202e+3, 1.45592e+2, -1568265.4, -1533554.3, -49476.137, -0.031153826, 0.19328867, -1498478.0, 14735.543, 0.0048880493, 9.99959, 10.000082 
1.535112e+3, 1.555917e+2, -1511151.9, -1402409.9, -24091.549, 0.09241479, 0.091296434, -1397311.5, 17904.65, 0.0013030368, 9.999106, 10.000531 
1.5351023e+3, 1.6559231e+2, -1418993.4, -1277777.6, -57399.66, 0.10794315, 0.09034769, -1257390.0, 59818.336, 0.00013086536, 9.998925, 10.00081 
1.5350905e+3, 1.755936e+2, -1334122.0, -1183755.5, -20903.738, -0.020994779, 0.1069651, -1180903.5, 38289.33, 0.0000010420176, 9.998845, 10.000812 
1.5350804e+3, 1.8559372e+2, -1331436.5, -1335612.9, -3181.9976, -0.056855664, 0.13932817, -1329718.8, -208525.36, 0.0, 9.999041, 9.999014 
1.5350717e+3, 1.9559279e+2, -1165556.5, -1185428.4, -22937.277, 0.00887332, 0.11007937, -1150495.6, -127287.99, 0.0, 9.999428, 9.999179 
1.5350628e+3, 2.0559296e+2, -984945.2, -1025763.5, -33053.734, 0.023521814, 0.20462774, -966507.44, -41298.06, 0.0, 9.999893, 9.999377 
1.5350531e+3, 2.1559395e+2, -799495.8, -873848.94, -6824.633, -0.0070727724, 0.33171993, -798874.6, 28327.36, 0.0, 10.000448, 9.999476 
1.5350433e+3, 2.255932e+2, -722265.4, -808823.6, -47403.918, 0.015326066, 0.32631862, -701355.6, 27850.896, 0.0, 10.0004, 9.999283 
1.5350337e+3, 2.35591e+2, -692974.06, -737303.25, -25487.45, 0.091458365, 0.14211541, -681361.75, -50140.375, 0.0, 9.9999075, 9.999332 
1.5350233e+3, 2.4558908e+2, -677998.0, -856387.2, 3147.6118, 0.012270218, 0.10712725, -677942.5, -144703.48, 0.0, 10.000115, 9.99773 
1.5350124e+3, 2.555874e+2, -430714.4, -671792.5, -6148.023, -0.17592448, 0.12822857, -430557.72, 4701.301, 0.0000004707298, 10.00108, 9.997859 
1.5350035e+3, 2.655857e+2, -247457.53, -486670.06, -30564.494, -0.17118676, 0.15778276, -243614.02, 93662.15, 0.0000086272985, 10.001445, 9.998293 
1.5349959e+3, 2.7558395e+2, -155393.31, -367859.5, -15836.322, -0.011519225, 0.114236385, -154219.42, 85072.75, 0.000052741245, 10.00132, 9.998487 
1.5349871e+3, 2.8558293e+2, -32282.098, -204781.81, -9663.41, 0.04822157, 0.1424154, -31742.443, 109559.35, 0.00024875673, 10.001238, 9.998992 
1.5349773e+3, 2.955825e+2, 72035.766, -99642.65, 52429.258, 0.022489842, 0.15406835, 86780.836, 130087.22, 0.0008280687, 10.001271, 9.999014 
1.5349676e+3, 3.0558148e+2, -5369.1567, -263730.9, 47447.438, -0.03599148, 0.23646712, 3068.8538, 3068.8538, 0.001889822, 10.001067, 9.997661 
1.534959e+3, 3.1557974e+2, 60264.14, 28281.445, 15057.507, 0.015525025, 0.2393379, 66237.58, 66237.58, 0.003290945, 10.000371, 9.99999 
1.5451416e+3, 1.2559873e+2, -1774193.1, -1654001.6, 139239.81, 0.26717237, 0.024071513, -1562442.4, 146704.72, 0.019406972, 9.999172, 10.000794 
1.5451303e+3, 1.3560115e+2, -1758801.6, -1680824.5, -58428.58, 0.09374397, 0.22085105, -1649570.5, -38446.566, 0.0117135905, 9.998974, 10.00004 
1.5451202e+3, 1.4560148e+2, -1691675.3, -1574488.9, -5265.96, 0.07254054, 0.255943, -1574252.6, -61132.508, 0.0052204016, 9.998667, 10.000248 
1.5451114e+3, 1.556003e+2, -1494801.3, -1386183.3, -4887.496, 0.13254812, 0.05497456, -1385963.8, 29166.844, 0.0014059248, 9.99915, 10.00064 
1.5451014e+3, 1.656006e+2, -1393963.3, -1259981.4, -45786.266, 0.12620999, 0.01632223, -1245829.4, 71296.21, 0.00014487762, 9.999083, 10.000843 
1.5450898e+3, 1.756022e+2, -1338008.1, -1183880.8, -72496.79, 0.025410388, 0.05741454, -1155139.9, 63967.645, 0.000001197513, 9.998797, 10.000832 
1.5450801e+3, 1.8560278e+2, -1305411.9, -1308702.5, 20484.81, -0.0071694995, 0.12840031, -1286506.5, -165402.44, 0.0, 9.99917, 9.999128 
1.5450718e+3, 1.956025e+2, -1039052.44, -1108755.1, 47949.99, 0.023087014, 0.15255246, -1014626.3, 8485.9375, 0.0, 10.000241, 9.99931 
1.5450628e+3, 2.0560256e+2, -913947.56, -980405.5, 43136.98, 0.02707864, 0.22311789, -892725.06, 32389.695, 0.0, 10.000349, 9.999469 
1.5450533e+3, 2.1560286e+2, -895679.5, -908796.75, 15673.768, 0.001080408, 0.2740013, -885247.5, -58134.625, 0.0, 9.999756, 9.99957 
1.5450439e+3, 2.2560193e+2, -753227.44, -806344.9, -4148.511, 0.05606072, 0.23900284, -752905.44, -23786.809, 0.0, 10.000126, 9.999425 
1.5450351e+3, 2.3559995e+2, -485973.78, -622143.7, -10795.429, 0.17001344, 0.0646891, -485123.25, 146007.94, 0.0, 10.001278, 9.999457 
1.5450247e+3, 2.4559842e+2, -501288.47, -805668.8, 43915.543, 0.072174415, 0.07915679, -495079.06, 38067.38, 0.000000000009610117, 10.001457, 9.997446 
1.5450132e+3, 2.555972e+2, -478630.72, -724214.25, 35977.188, -0.18981431, 0.178633, -473468.7, -38304.246, 0.0000005675007, 10.000861, 9.997619 
1.5450044e+3, 2.655956e+2, -363314.47, -514559.34, 37621.8, -0.169092, 0.2104603, -354472.97, -17290.86, 0.000008574752, 10.000542, 9.998536 
1.5449974e+3, 2.755934e+2, -258381.72, -400219.44, 31038.81, 0.060865436, 0.110902905, -251886.81, -12685.546, 0.00005426492, 10.000523, 9.998663 
1.5449885e+3, 2.855926e+2, -137935.19, -235469.9, 16772.791, 0.11052171, 0.14084384, -135131.42, 6077.3955, 0.00026286932, 10.000451, 9.999136 
1.5449777e+3, 2.9559278e+2, -55935.47, -153154.72, -26347.22, 0.0009991884, 0.20609958, -49254.3, -6047.3315, 0.0008684361, 10.000371, 9.999066 
1.5449683e+3, 3.055921e+2, -31804.672, -308419.78, -6760.9985, -0.046329137, 0.332281, -31639.518, -31639.518, 0.0019566913, 10.001016, 9.997384 
1.5449609e+3, 3.155893e+2, 266990.7, 41083.0, -55747.344, 0.097003445, 0.26478493, 279998.5, 279998.5, 0.0033753177, 10.002144, 9.999242 
1.5551387e+3, 1.2560673e+2, -1730968.3, -1594379.5, -20374.06, 0.004056802, 0.114570424, -1591405.3, 117666.92, 0.020587768, 9.999281, 10.001163 
1.555128e+3, 1.3560829e+2, -1669064.1, -1479319.5, -76410.016, -0.07778961, 0.0989002, -1452375.4, 158678.39, 0.012455585, 9.998911, 10.001468 
1.5551212e+3, 1.4561057e+2, -1664623.9, -1529765.1, -7776.9478, 0.2771701, 0.23383728, -1529318.1, -16287.988, 0.0055746003, 9.998706, 10.000537 
1.555111e+3, 1.5561034e+2, -1496795.3, -1381629.8, 23317.68, 0.15442751, 0.1171719, -1377087.8, 37945.203, 0.001515748, 9.999127, 10.000675 
1.5551002e+3, 1.6561049e+2, -1417770.8, -1329974.5, -69409.086, 0.07270581, 0.09010413, -1291746.8, 25284.56, 0.00016035176, 9.99916, 10.000333 
1.5550895e+3, 1.7561108e+2, -1366627.8, -1239864.4, -73553.625, 0.0928812, 0.08191664, -1206151.4, 12873.515, 0.0000013687348, 9.998784, 10.000456 
1.5550803e+3, 1.8561207e+2, -1231544.9, -1155508.8, 49418.727, 0.061093207, 0.15401553, -1131176.3, -10161.156, 0.0, 9.999173, 10.000178 
1.5550716e+3, 1.9561319e+2, -985996.6, -978601.3, 94378.38, -0.03206274, 0.2168684, -887848.2, 135156.03, 0.0, 10.000163, 10.000238 
1.5550624e+3, 2.056124e+2, -948770.1, -1038126.56, 7769.613, -0.06598117, 0.18114397, -948099.56, -23087.682, 0.0, 10.000274, 9.999117 
1.5550527e+3, 2.1561012e+2, -933004.7, -961930.1, 7366.512, -0.037118904, 0.008414426, -931236.7, -104202.3, 0.0, 9.999639, 9.9992695 
1.5550438e+3, 2.2560936e+2, -771031.8, -806919.1, 29573.19, 0.002602957, -0.0011225165, -754384.3, -25344.527, 0.0, 9.999969, 9.999496 
1.5550353e+3, 2.3560973e+2, -504030.22, -628067.2, 40003.367, 0.05412329, 0.052500393, -492247.88, 138784.66, 0.0, 10.001141, 9.999484 
1.5550257e+3, 2.456088e+2, -523934.72, -814958.8, 11526.671, 0.015028231, 0.12666136, -523478.9, 9564.543, 0.0, 10.001293, 9.997462 
1.5550153e+3, 2.556068e+2, -494343.34, -724214.2, 25561.418, -0.07908417, 0.14223048, -491535.25, -56465.598, 0.0000005355393, 10.000724, 9.997683 
1.5550062e+3, 2.6560518e+2, -368351.72, -493347.53, 29120.104, -0.04770453, 0.1602393, -361900.6, -24813.574, 0.000008556659, 10.0004015, 9.998751 
1.5549983e+3, 2.7560386e+2, -271453.6, -393256.22, 47143.023, 0.08317194, 0.117194735, -255339.1, -16241.418, 0.000056489618, 10.00038, 9.9987755 
1.5549889e+3, 2.8560278e+2, -230862.78, -393168.44, 4620.477, 0.08569432, 0.17532437, -230731.34, -89622.9, 0.00027893353, 10.000298, 9.998129 
1.5549783e+3, 2.956019e+2, -141914.86, -290948.03, -10622.398, -0.011776291, 0.22199476, -141161.55, -98041.58, 0.00091525615, 10.000204, 9.998196 
1.5549695e+3, 3.056006e+2, -65979.84, -318629.53, 24546.232, -0.03965821, 0.3278951, -63617.14, -63617.14, 0.0020505092, 10.000785, 9.997413 
1.5549636e+3, 3.1559747e+2, 169107.34, -54342.59, 19270.564, 0.1160741, 0.22032346, 170757.08, 170757.08, 0.0035280038, 10.001737, 9.998754 
1.5651388e+3, 1.2561803e+2, -1737523.0, -1639525.3, 109036.94, 0.09030845, 0.2163363, -1568983.6, 139976.64, 0.021849003, 9.999445, 10.000776 
1.5651274e+3, 1.356183e+2, -1637407.0, -1450290.5, 39945.64, -0.008444243, 0.071622156, -1442119.8, 168834.81, 0.013250772, 9.9990635, 10.001607 
1.5651211e+3, 1.456201e+2, -1653464.0, -1541193.1, 86432.48, 0.39191812, 0.15259892, -1494266.6, 18669.764, 0.0059556314, 9.998875, 10.000373 
1.5651102e+3, 1.5562052e+2, -1561533.5, -1441037.1, 65535.32, 0.18124986, 0.12763816, -1412264.4, 2668.9956, 0.0016345053, 9.9988165, 10.000409 
1.5650994e+3, 1.6562083e+2, -1420539.0, -1355386.4, 5446.814, 0.06508955, 0.14078493, -1354934.3, -38003.348, 0.00017771397, 9.999243, 10.000126 
1.5650895e+3, 1.7562115e+2, -1149063.5, -1154972.9, 4674.802, 0.13343064, 0.12753852, -1146487.9, 72439.98, 0.0000016137079, 10.000351, 10.000292 
1.5650806e+3, 1.8562178e+2, -1056353.9, -1054888.9, 110110.4, 0.13266133, 0.16296072, -945508.5, 175412.33, 0.0, 10.000303, 10.000324 
1.565072e+3, 1.9562253e+2, -1068399.1, -1005482.4, 71118.67, 0.022925947, 0.17237464, -959175.1, 63736.625, 0.0, 9.999528, 10.000365 
1.5650627e+3, 2.0562175e+2, -1041158.6, -1066767.0, -6184.933, -0.018354118, 0.12553345, -1039743.06, -114825.16, 0.0, 9.999588, 9.999237 
1.5650532e+3, 2.1561985e+2, -800872.06, -883429.06, 7769.895, 0.005199345, -0.02441317, -800147.2, 26788.652, 0.0, 10.000504, 9.999376 
1.565044e+3, 2.256192e+2, -689969.8, -824798.4, 52956.586, -0.0035496268, 0.0004507361, -671657.25, 57284.684, 0.0, 10.000761, 9.998993 
1.5650351e+3, 2.3561947e+2, -628241.4, -737041.2, 4138.319, -0.03992915, 0.09346701, -628084.25, 2855.6345, 0.0, 10.0004835, 9.999052 
1.5650263e+3, 2.4561866e+2, -579964.1, -795734.0, -20648.832, -0.008896878, 0.17410168, -578005.9, -45055.29, 0.0, 10.000705, 9.99788 
1.5650177e+3, 2.5561693e+2, -373624.03, -620733.4, -1883.3313, 0.066297635, 0.1768581, -373609.66, 61362.125, 0.00000039469393, 10.001358, 9.998086 
1.5650085e+3, 2.6561543e+2, -254347.39, -439643.16, 2792.4407, 0.09553905, 0.19106388, -254305.33, 82681.72, 0.000008163994, 10.001197, 9.998732 
1.5649985e+3, 2.7561405e+2, -276587.5, -398411.75, -19009.209, 0.08226843, 0.14611307, -273690.25, -34691.582, 0.000058543963, 10.000363, 9.998741 
1.5649892e+3, 2.8561255e+2, -164243.3, -408895.47, 24533.7, 0.070007816, 0.18446887, -161807.31, -20793.445, 0.00029613846, 10.000954, 9.997721 
1.5649803e+3, 2.9561093e+2, 193187.36, -176290.0, 15870.127, 0.05789833, 0.20888633, 193867.77, 236899.89, 0.00096595153, 10.002693, 9.997802 
1.5649718e+3, 3.0560908e+2, 188383.34, -187572.92, 57895.45, 0.029703159, 0.26809213, 197097.02, 197097.02, 0.0021626693, 10.002465, 9.997505 
1.5649651e+3, 3.1560612e+2, -10825.797, -180910.63, 16511.84, 0.15970646, 0.17170419, -9237.655, -9237.655, 0.0037320128, 10.000586, 9.998463 
1.5751393e+3, 1.2563191e+2, -1799578.0, -1786253.8, -59720.188, 0.13113663, 0.25284472, -1732825.3, -24006.914, 0.023204513, 9.9994955, 9.999743 
1.5751289e+3, 1.356318e+2, -1728913.0, -1630268.0, 39744.98, 0.20706083, 0.18935712, -1616247.1, -5426.6353, 0.014108494, 9.999043, 10.000359 
1.5751195e+3, 1.4563034e+2, -1679415.5, -1627874.4, 69321.26, 0.3094182, 0.039431494, -1579688.5, -66852.46, 0.0063687824, 9.999001, 9.999724 
1.5751088e+3, 1.5563083e+2, -1607842.0, -1533773.4, 70938.16, 0.13637647, 0.089912966, -1490784.1, -75952.055, 0.00176415, 9.998803, 9.999782 
1.5750983e+3, 1.6563165e+2, -1404627.8, -1332735.0, 32550.447, 0.0061216666, 0.17530064, -1320187.4, -3362.9094, 0.00019721544, 9.99928, 10.000264 
1.5750892e+3, 1.7563248e+2, -1149044.4, -1148779.9, 51822.457, 0.058259197, 0.19769348, -1097089.5, 121726.74, 0.0000019795527, 10.000325, 10.000345 
1.5750808e+3, 1.8563205e+2, -1097637.8, -1152625.6, 69004.23, 0.103566594, 0.16228054, -1050851.8, 69968.42, 0.0, 10.000347, 9.999636 
1.5750726e+3, 1.9563064e+2, -1121700.4, -1102380.5, 53653.793, 0.10162005, 0.027971776, -1057524.0, -34690.45, 0.0, 9.999469, 9.99973 
1.5750635e+3, 2.0563073e+2, -1013766.44, -993984.06, 18274.252, 0.06853946, 0.067093, -983095.8, -58264.453, 0.0, 9.999513, 9.999772 
1.5750542e+3, 2.1563192e+2, -793436.2, -834687.94, 48284.11, 0.037317023, 0.17392577, -761557.0, 65261.055, 0.0, 10.000361, 9.999777 
1.5750444e+3, 2.256313e+2, -780542.4, -978097.6, 34682.406, -0.058903046, 0.2347908, -774630.5, -45803.938, 0.0, 10.000608, 9.9980135 
1.5750341e+3, 2.3562922e+2, -712647.1, -875562.06, 4968.1484, -0.20157729, 0.18759842, -712495.75, -81642.53, 0.0, 10.000328, 9.998175 
1.5750264e+3, 2.4562806e+2, -552770.2, -699418.8, -6054.6157, -0.1060745, 0.23543817, -552520.7, -19653.865, 0.0, 10.000529, 9.998625 
1.5750203e+3, 2.5562757e+2, -347556.22, -536464.6, 29738.031, 0.17265622, 0.28721476, -342985.44, 91885.24, 0.00000029448665, 10.0012245, 9.998727 
1.5750106e+3, 2.6562625e+2, -299135.66, -500272.94, -35958.645, 0.17650779, 0.30664158, -292900.38, 43982.625, 0.000007127328, 10.001054, 9.998387 
1.5749979e+3, 2.7562404e+2, -313169.94, -444438.6, -29940.373, -0.039544016, 0.20670575, -306663.5, -67759.125, 0.000059012113, 10.0002365, 9.9984865 
1.5749893e+3, 2.8562182e+2, -177434.2, -411823.97, 79260.76, -0.048972, 0.18154271, -153147.97, -12222.488, 0.00030982727, 10.00084, 9.997757 
1.5749839e+3, 2.956199e+2, 169245.44, -188431.05, 93211.95, 0.111322924, 0.17079069, 192079.17, 235022.75, 0.0010138974, 10.002529, 9.997799 
1.5749747e+3, 3.0561742e+2, 167398.36, -169622.05, -19590.006, 0.039272442, 0.15921976, 168533.25, 168533.25, 0.0022779866, 10.002233, 9.99772 
1.5749647e+3, 3.156152e+2, -69279.15, -193957.36, -14874.2295, 0.010724368, 0.107256666, -67529.2, -67529.2, 0.003951804, 10.000171, 9.998542 
1.5851378e+3, 1.2564094e+2, -2050108.0, -1850053.5, -259762.58, 0.14909877, 0.13114278, -1671724.8, 37007.52, 0.024665277, 9.997538, 10.000245 
1.5851289e+3, 1.3564298e+2, -1795538.1, -1684686.5, -104602.29, 0.33937025, 0.29758382, -1621733.0, -11018.511, 0.0150364665, 9.99868, 10.000156 
1.585118e+3, 1.456412e+2, -1603836.9, -1541117.9, 3652.1497, 0.25389105, 0.10391077, -1540906.0, -28174.256, 0.0068181083, 9.999315, 10.00016 
1.5851079e+3, 1.5564133e+2, -1481569.8, -1431685.9, 56863.35, 0.14346443, 0.07770593, -1394534.8, 20193.475, 0.0019058621, 9.999484, 10.000155 
1.585098e+3, 1.65642e+2, -1401298.9, -1372223.8, 74333.664, 0.05822147, 0.15125087, -1311019.5, 5702.4014, 0.0002187055, 9.999488, 9.999886 
1.5850899e+3, 1.7564274e+2, -1273005.3, -1243994.9, 32688.03, 0.12077092, 0.19946727, -1222738.3, -4021.6846, 0.000002466339, 9.999645, 10.000008 
1.5850814e+3, 1.8564218e+2, -1201914.1, -1249593.3, 36358.05, 0.14902103, 0.18870668, -1182276.9, -61553.45, 0.0, 9.999838, 9.999214 
1.5850721e+3, 1.9564064e+2, -1029779.06, -1096056.1, 22807.053, 0.09214559, 0.08217778, -1022689.2, 50.253082, 0.0, 10.000265, 9.999385 
1.5850633e+3, 2.0564069e+2, -866059.94, -902363.7, 29276.139, 0.0722231, 0.12164163, -849765.0, 74972.375, 0.0, 10.000425, 9.999974 
1.5850551e+3, 2.156418e+2, -764042.0, -803350.56, 16789.875, 0.10682265, 0.20394538, -757846.9, 68876.125, 0.0, 10.000456, 9.999966 
1.5850458e+3, 2.2564127e+2, -783158.75, -984276.8, 39645.46, 0.022632139, 0.265327, -775625.8, -46894.875, 0.0, 10.000628, 9.997967 
1.5850352e+3, 2.3563941e+2, -601800.06, -825888.4, 55933.207, -0.16511142, 0.2521242, -588614.8, 42141.55, 0.0, 10.001108, 9.998153 
1.5850273e+3, 2.4563803e+2, -451555.84, -593293.7, 80049.984, -0.08292989, 0.25629875, -415511.7, 117259.02, 0.0, 10.001006, 9.999106 
1.5850213e+3, 2.5563705e+2, -423353.78, -525073.56, 70357.86, 0.19979154, 0.21244384, -387398.03, 47378.438, 0.00000023115544, 10.000509, 9.999141 
1.5850115e+3, 2.656359e+2, -334710.66, -522141.22, 29867.773, 0.1779953, 0.23174225, -330066.2, 6720.2983, 0.0000061293663, 10.000834, 9.998334 
1.5849985e+3, 2.7563444e+2, -72679.71, -331694.0, 31873.725, -0.08595322, 0.21457449, -68815.07, 169986.38, 0.000060026516, 10.001916, 9.998442 
1.5849905e+3, 2.8563243e+2, 6461.993, -336654.13, 179339.0, -0.06982282, 0.21973583, 83086.62, 223907.6, 0.0003212461, 10.002163, 9.997631 
1.5849863e+3, 2.9563022e+2, 40777.563, -255742.47, 146597.98, 0.16255844, 0.18996517, 101016.95, 143859.22, 0.0010568721, 10.001658, 9.997751 
1.5849766e+3, 3.056273e+2, 99706.25, -174747.95, 12288.173, 0.069197476, 0.11729085, 100255.33, 100255.33, 0.0023826924, 10.0016, 9.998033 
1.5849653e+3, 3.1562585e+2, 192041.28, -22411.826, -23545.273, 0.0025560071, 0.12923823, 194595.94, 194595.94, 0.004144855, 10.001741, 9.999002 
1.5951352e+3, 1.2564667e+2, -1892431.5, -1564980.0, -116073.38, 0.081885554, -0.037669476, -1528009.1, 180677.25, 0.026239868, 9.997678, 10.002169 
1.5951277e+3, 1.3565186e+2, -1746975.0, -1584174.3, -45604.82, 0.32357457, 0.37099904, -1572269.6, 38365.883, 0.016040104, 9.998677, 10.000849 
1.5951164e+3, 1.4565265e+2, -1489813.9, -1335445.6, -2057.492, 0.11566998, 0.33388183, -1335418.3, 177205.1, 0.0073062, 9.999422, 10.001538 
1.5951073e+3, 1.5565221e+2, -1387754.5, -1244926.9, 70775.016, 0.11031933, 0.1039274, -1215797.0, 198822.81, 0.002060233, 9.999507, 10.001434 
1.5950985e+3, 1.6565214e+2, -1453638.3, -1497052.5, 63030.016, 0.119143315, 0.092461005, -1408682.3, -92061.625, 0.00024185247, 9.999555, 9.998999 
1.5950908e+3, 1.7565209e+2, -1334664.4, -1368674.4, 46399.33, 0.24474326, 0.14830935, -1302252.1, -83624.49, 0.0000030340082, 9.999633, 9.999158 
1.5950817e+3, 1.8565221e+2, -1205057.9, -1263385.1, 40119.26, 0.17147775, 0.24975608, -1184622.4, -63991.95, 0.0, 9.999866, 9.999105 
1.5950708e+3, 1.956525e+2, -1051202.9, -1120274.6, 48390.598, -0.08967445, 0.336677, -1026288.2, -3658.5425, 0.0, 10.000184, 9.999254 
1.5950623e+3, 2.0565161e+2, -886212.5, -924220.56, 20713.979, -0.09741157, 0.29518577, -877105.6, 47530.453, 0.0, 10.000338, 9.999866 
1.5950559e+3, 2.1564966e+2, -792222.75, -819686.7, 27294.96, 0.12350559, 0.07812317, -775400.1, 51249.42, 0.0, 10.000284, 9.999931 
1.5950477e+3, 2.2564931e+2, -749115.8, -878062.25, 47632.625, 0.13737498, 0.11687427, -733428.8, -4776.12, 0.0, 10.000465, 9.998777 
1.595038e+3, 2.3565017e+2, -574701.06, -731235.06, 86403.33, -0.017062405, 0.29274678, -536386.56, 94261.84, 0.0, 10.000941, 9.998883 
1.595029e+3, 2.4564868e+2, -472220.78, -592065.3, 55915.277, -0.04055261, 0.24663612, -450184.53, 82477.195, 0.0, 10.000821, 9.9992 
1.5950206e+3, 2.556453e+2, -440463.03, -515573.22, 67431.516, 0.054603953, -0.048353344, -400833.97, 33855.723, 0.00000009760233, 10.000332, 9.999282 
1.5950109e+3, 2.6564437e+2, -343679.0, -513402.6, 59504.758, 0.011088616, -0.02136164, -324895.53, 11801.854, 0.0000054247644, 10.000708, 9.99846 
1.595e+3, 2.756453e+2, -89172.04, -332333.3, 83518.77, -0.14883092, 0.18207431, -63249.332, 175440.3, 0.0000627863, 10.001765, 9.99851 
1.5949926e+3, 2.856443e+2, -41210.625, -392857.3, 150897.23, -0.10283234, 0.2988544, 14663.735, 155365.58, 0.0003316825, 10.00198, 9.9973345 
1.5949877e+3, 2.956416e+2, -1327.4243, -298254.44, 147229.48, 0.0966609, 0.25184587, 59297.402, 102028.41, 0.0010852148, 10.001465, 9.997555 
1.5949778e+3, 3.0563846e+2, 81311.21, -146152.28, 5186.323, 0.0021398116, 0.15064275, 81429.4, 81429.4, 0.0024471504, 10.001346, 9.99834 
1.594967e+3, 3.1563827e+2, 176925.38, 52826.043, 30270.15, -0.04793931, 0.254182, 183915.14, 183915.14, 0.004255502, 10.001333, 9.999702 
1.6051336e+3, 1.2565695e+2, -1783838.3, -1461579.6, 118568.72, 0.1319437, 0.08497378, -1422656.0, 285933.3, 0.027939666, 9.998233, 10.002616 
1.6051257e+3, 1.3566065e+2, -1753884.8, -1530934.9, 70673.28, 0.2644997, 0.29363146, -1510419.8, 100129.5, 0.01712635, 9.998404, 10.001346 
1.6051151e+3, 1.4566188e+2, -1621181.4, -1407723.5, 69675.4, 0.09878224, 0.28560027, -1386993.8, 125538.78, 0.007836914, 9.99859, 10.00142 
1.605107e+3, 1.556623e+2, -1444051.3, -1275923.9, 708.8498, 0.16795233, 0.14479113, -1275920.9, 138602.27, 0.0022287087, 9.999156, 10.001372 
1.6050987e+3, 1.6566235e+2, -1453427.6, -1500619.4, 5817.67, 0.18965785, 0.14904924, -1452721.0, -136197.42, 0.00026665046, 9.99958, 9.998958 
1.6050906e+3, 1.7566189e+2, -1245379.9, -1326995.4, 29530.395, 0.2265769, 0.17163451, -1235815.9, -17281.783, 0.0000036433328, 10.000244, 9.999154 
1.6050814e+3, 1.8566212e+2, -1130121.6, -1174042.9, 75414.01, 0.14859058, 0.25839028, -1073535.8, 46998.523, 0.0, 10.000148, 9.999582 
1.605071e+3, 1.9566278e+2, -1095523.8, -1094356.6, 106588.9, -0.05465807, 0.332081, -988349.7, 34177.645, 0.0, 9.99966, 9.999688 
1.6050626e+3, 2.0566185e+2, -992231.1, -1012993.56, 123916.02, -0.0649221, 0.28599468, -878262.25, 46272.13, 0.0, 9.999785, 9.99952 
1.605056e+3, 2.1565966e+2, -777769.75, -841396.6, 88938.734, 0.08144996, 0.081749104, -715125.8, 111426.664, 0.0, 10.00052, 9.999665 
1.605048e+3, 2.2565919e+2, -685049.8, -776603.7, 101004.24, 0.12865093, 0.08884507, -619933.2, 108622.54, 0.0, 10.000606, 9.999395 
1.6050394e+3, 2.3566008e+2, -630148.3, -683436.2, 102401.81, 0.08438685, 0.20345317, -550980.94, 79566.266, 0.0, 10.000251, 9.999523 
1.60503e+3, 2.4565925e+2, -532547.7, -614459.94, 85473.58, 0.02064793, 0.18477242, -478724.38, 53829.38, 0.0, 10.000362, 9.999285 
1.6050202e+3, 2.5565696e+2, -356089.0, -469657.0, 80890.52, -0.041292716, -0.004745027, -314041.3, 120531.59, 0.000000007673713, 10.000866, 9.99936 
1.6050112e+3, 2.6565576e+2, -232424.25, -457470.38, 117141.46, -0.061895773, -0.007649137, -182517.14, 154065.67, 0.0000049768487, 10.001465, 9.998484 
1.6050027e+3, 2.7565542e+2, -36644.816, -310536.63, 94422.84, -0.062468782, 0.07389904, -7248.139, 231337.39, 0.00006482946, 10.002124, 9.998506 
1.6049953e+3, 2.8565428e+2, -17548.385, -366740.9, 156440.64, -0.018461192, 0.17253165, 42285.58, 182884.16, 0.00033743004, 10.002063, 9.997477 
1.6049886e+3, 2.9565248e+2, 22070.887, -271592.47, 153803.13, 0.0576821, 0.19881728, 87877.26, 130497.445, 0.001089985, 10.001557, 9.997693 
1.6049789e+3, 3.056498e+2, 97097.39, -175992.08, 58483.188, -0.027527904, 0.14995492, 109094.734, 109094.734, 0.0024499798, 10.001612, 9.997992 
1.6049697e+3, 3.156489e+2, 278316.7, 107778.62, -8644.373, 0.07683785, 0.22117698, 278753.75, 278753.75, 0.0042540967, 10.001964, 9.999775 
1.6151334e+3, 1.2567085e+2, -1843062.1, -1630942.1, 112060.91, 0.22943422, 0.4095645, -1582708.9, 125741.82, 0.02978273, 9.998421, 10.001348 
1.6151223e+3, 1.356698e+2, -1730514.0, -1486741.5, 77688.234, 0.059181277, 0.108626015, -1464088.0, 146363.81, 0.018308382, 9.998413, 10.001657 
1.6151139e+3, 1.4566934e+2, -1715119.6, -1625332.3, 79134.32, 0.0865154, -0.0034629803, -1579244.3, -66789.19, 0.008418617, 9.998683, 9.99988 
1.6151072e+3, 1.5567158e+2, -1540421.3, -1480384.0, 30447.578, 0.22596373, 0.19947547, -1467645.5, -53207.637, 0.0024150687, 9.99918, 9.999956 
1.6150984e+3, 1.6567253e+2, -1376337.1, -1373317.6, 14597.683, 0.16403465, 0.31192362, -1360151.9, -43720.332, 0.0002938315, 9.999704, 9.999778 
1.6150886e+3, 1.7567219e+2, -1188367.1, -1211565.8, 59197.957, -0.008246354, 0.26648945, -1139642.8, 78793.28, 0.000004294035, 10.000244, 9.999952 
1.6150802e+3, 1.8567191e+2, -1057774.1, -1027634.06, 44640.68, -0.012735746, 0.21281964, -995588.3, 124847.27, 0.0, 10.000166, 10.000576 
1.6150725e+3, 1.9567156e+2, -1040864.4, -968567.25, 99157.16, 0.10650096, 0.085559405, -899175.0, 123256.945, 0.0, 9.99961, 10.000575 
1.615064e+3, 2.0567155e+2, -1049380.0, -1106775.4, 136640.25, 0.060612984, 0.12236985, -938456.4, -14025.497, 0.0, 9.999679, 9.998927 
1.6150548e+3, 2.1567181e+2, -836039.1, -929867.9, 121892.7, -0.0935449, 0.22008184, -752344.25, 74087.76, 0.0, 10.000384, 9.99912 
1.6150467e+3, 2.2567089e+2, -686111.75, -734198.2, 76786.38, -0.0849016, 0.18549241, -629692.4, 98747.95, 0.0, 10.000418, 9.999776 
1.6150396e+3, 2.3566902e+2, -629011.25, -639613.44, 102356.86, 0.046116017, -0.0153375, -531818.3, 98636.164, 0.0, 10.00008, 9.999904 
1.6150303e+3, 2.4566959e+2, -547705.44, -611426.94, 92170.38, -0.0047400137, 0.084449284, -482044.44, 50403.53, 0.0, 10.000207, 9.999383 
1.6150197e+3, 2.55672e+2, -375295.66, -471361.22, 113622.37, -0.18461351, 0.34922183, -299970.47, 134455.31, 0.00000000987263, 10.000705, 9.999423 
1.615012e+3, 2.6567003e+2, -279645.06, -508726.28, 130769.39, -0.14366108, 0.2787024, -220346.14, 116096.74, 0.000004852571, 10.00127, 9.998221 
1.6150063e+3, 2.7566454e+2, -77625.76, -347904.4, 132382.72, 0.06712941, -0.13029629, -23588.389, 214903.3, 0.00006465758, 10.001943, 9.998323 
1.6149986e+3, 2.8566238e+2, -5081.3857, -307601.72, 123434.12, 0.07740824, -0.14852771, 38890.67, 179402.3, 0.0003366383, 10.001912, 9.99796 
1.6149892e+3, 2.956629e+2, 24449.904, -227196.03, 156156.36, -0.06935782, 0.053917, 99166.78, 141675.5, 0.0010765177, 10.001384, 9.998086 
1.6149795e+3, 3.0566093e+2, -6069.864, -330751.0, 58162.324, -0.15019765, 0.111899786, 4034.6777, 4034.6777, 0.0024046022, 10.001381, 9.997021 
1.6149728e+3, 3.156581e+2, 180554.1, 19230.768, 59397.645, 0.14666483, 0.07053291, 200064.2, 200064.2, 0.004159517, 10.001533, 9.999337 
1.6251315e+3, 1.2568104e+2, -2076806.5, -1814693.9, 80544.45, 0.28355226, 0.43802252, -1791921.9, -83574.56, 0.03179242, 9.997136, 10.000668 
1.6251203e+3, 1.356795e+2, -1732277.6, -1491671.6, 5905.8965, 0.046850473, 0.085975945, -1491526.8, 118827.07, 0.019603958, 9.998401, 10.001623 
1.6251132e+3, 1.456784e+2, -1709935.4, -1667911.5, 67104.77, 0.14395352, -0.06791293, -1618606.0, -106240.89, 0.009062119, 9.998926, 9.999468 
1.6251065e+3, 1.5568103e+2, -1469426.0, -1476785.9, 87832.83, 0.21406573, 0.21016775, -1385196.0, 29150.72, 0.002624408, 9.999807, 9.999677 
1.6250978e+3, 1.6568232e+2, -1320032.8, -1290122.9, 94927.49, 0.14885326, 0.3439752, -1208979.5, 107356.99, 0.00032476612, 9.999865, 10.000266 
1.6250885e+3, 1.7568222e+2, -1283556.5, -1204378.3, 92734.625, -0.011353806, 0.27035236, -1143135.8, 75199.984, 0.000005034694, 9.999377, 10.00041 
1.6250801e+3, 1.8568164e+2, -1181827.9, -1116325.9, 41174.996, 0.009359153, 0.18232974, -1096465.0, 23872.225, 0.0, 9.999442, 10.0003195 
1.6250728e+3, 1.9568075e+2, -983073.3, -957093.5, -14806.083, 0.1582683, 0.024362162, -950386.75, 71952.86, 0.0, 10.000094, 10.000414 
1.6250645e+3, 2.0568098e+2, -982846.7, -1048862.5, 37792.766, 0.12913723, 0.0767511, -965676.75, -41340.066, 0.0, 10.000021, 9.999158 
1.6250552e+3, 2.1568193e+2, -958152.75, -964457.7, 65505.938, -0.032906454, 0.22124381, -895723.5, -69392.52, 0.0, 9.999431, 9.999347 
1.6250472e+3, 2.2568122e+2, -779987.5, -750732.1, 65082.043, -0.035905793, 0.18414643, -698654.2, 29682.373, 0.0, 9.999638, 10.000041 
1.6250399e+3, 2.3567916e+2, -557115.8, -584420.56, 58081.246, 0.06606717, -0.059183292, -511103.97, 119247.45, 0.0, 10.000466, 10.000106 
1.6250311e+3, 2.4567959e+2, -451848.1, -587771.4, 54691.21, 0.022113426, 0.026927741, -432574.94, 99771.695, 0.0, 10.000962, 9.999176 
1.625021e+3, 2.556818e+2, -309610.25, -465053.97, 24310.955, -0.14919597, 0.2957003, -305896.8, 128430.445, 0.000000011745934, 10.001249, 9.999206 
1.6250136e+3, 2.6568004e+2, -249844.83, -505766.66, 64859.766, -0.10864543, 0.26182258, -234345.7, 101997.805, 0.0000048598445, 10.001525, 9.998118 
1.6250084e+3, 2.756751e+2, -101705.93, -373175.7, 49184.34, 0.0955175, -0.081526846, -93069.56, 145318.73, 0.00006306325, 10.001818, 9.998215 
1.6250007e+3, 2.856728e+2, -16313.353, -281356.97, 29356.906, 0.11178778, -0.122486584, -13100.649, 127308.086, 0.00033149842, 10.001718, 9.998225 
1.6249909e+3, 2.956726e+2, 45659.645, -189549.14, 4097.6665, -0.038854767, -0.013610301, 45731.01, 88141.48, 0.0010551804, 10.001415, 9.998325 
1.624981e+3, 3.0567104e+2, 23029.45, -303442.9, 2043.7286, -0.12568432, 0.06653692, 23042.244, 23042.244, 0.0023358958, 10.001507, 9.9971695 
1.6249746e+3, 3.1566808e+2, 233088.47, 39327.18, 40784.168, 0.17552792, 0.014519022, 241323.05, 241323.05, 0.004008395, 10.001848, 9.999372 
1.6351266e+3, 1.256882e+2, -2052493.4, -1795666.0, -2836.1572, 0.004547549, 0.20514236, -1795634.6, -87362.17, 0.03398967, 9.997264, 10.000737 
1.63512e+3, 1.3568972e+2, -1764598.5, -1563521.4, 48775.77, 0.14279863, 0.21354358, -1552314.4, 57941.04, 0.02102759, 9.998432, 10.001104 
1.6351126e+3, 1.4568889e+2, -1636321.5, -1547862.4, 72227.16, 0.15416682, 0.07465282, -1507398.4, 4865.9355, 0.009775217, 9.999049, 10.000239 
1.6351046e+3, 1.5569082e+2, -1413205.3, -1358298.8, 124611.74, 0.032095514, 0.19490851, -1258152.0, 156096.13, 0.002860367, 9.999798, 10.000497 
1.6350971e+3, 1.6569194e+2, -1303086.9, -1265778.4, 63799.805, 0.04160603, 0.2648945, -1217961.6, 98275.0, 0.00036087315, 9.999903, 10.000419 
1.6350894e+3, 1.7569195e+2, -1285444.1, -1205365.8, 80366.69, 0.13025782, 0.19264698, -1155616.6, 62617.05, 0.000005927034, 9.999366, 10.000409 
1.6350809e+3, 1.8569128e+2, -1269468.0, -1309847.8, 52471.96, 0.1126208, 0.16832723, -1233435.6, -113195.85, 0.0, 9.999486, 9.998975 
1.6350718e+3, 1.9569026e+2, -1071891.3, -1132889.1, 14787.619, 0.02228621, 0.1300687, -1068495.3, -46243.844, 0.0, 10.000054, 9.999231 
1.6350639e+3, 2.0568988e+2, -923734.56, -904601.44, 5122.018, 0.05033687, 0.12355046, -903316.56, 20937.373, 0.0, 9.999927, 10.000196 
1.6350569e+3, 2.156899e+2, -908762.6, -834996.2, 58169.61, 0.17483808, 0.072362304, -803002.1, 23248.365, 0.0, 9.999309, 10.000299 
1.635049e+3, 2.2569014e+2, -805069.3, -757149.7, 87877.42, 0.15851238, 0.08505641, -690024.3, 38220.617, 0.0, 9.99944, 10.00009 
1.6350403e+3, 2.3569055e+2, -579217.0, -591983.0, 98682.17, 0.052686106, 0.07815651, -486711.63, 143526.14, 0.0, 10.000305, 10.000128 
1.635032e+3, 2.456892e+2, -522744.94, -688247.06, 54651.363, -0.0022221766, 0.015226834, -506326.9, 25922.855, 0.0, 10.000763, 9.998581 
1.6350237e+3, 2.556864e+2, -367603.38, -550615.06, 47229.938, -0.027481178, -0.15828378, -356133.56, 78143.555, 0.000000006263202, 10.00111, 9.998681 
1.635016e+3, 2.6568598e+2, -265354.5, -513052.47, 65786.15, -0.05562936, -0.035758313, -248966.58, 87316.484, 0.000005059976, 10.001402, 9.9981365 
1.6350086e+3, 2.7568722e+2, -121532.305, -381327.94, 78033.04, -0.077164166, 0.2349933, -99895.97, 138377.61, 0.000060994436, 10.001668, 9.998236 
1.6350012e+3, 2.8568554e+2, -53735.15, -312148.06, 7736.1387, -0.04380848, 0.25824043, -53503.758, 86785.92, 0.0003219481, 10.001529, 9.998098 
1.6349931e+3, 2.9568154e+2, 11196.476, -210692.02, 15205.917, 0.02766546, 0.0020668511, 12233.682, 54559.555, 0.0010249827, 10.001218, 9.998266 
1.6349833e+3, 3.0568016e+2, 69469.46, -149643.33, 1218.7668, -0.07618741, 0.03941033, 69476.24, 69476.24, 0.0022521797, 10.001271, 9.998336 
1.634975e+3, 3.1567895e+2, 225540.95, 120580.97, 97021.52, -0.024263801, 0.036284138, 283366.56, 283366.56, 0.0038299921, 10.001457, 10.000107 
1.645125e+3, 1.2569608e+2, -1744127.6, -1744149.8, 65.63579, 0.00083887205, 0.06657749, -1744072.1, -35882.234, 0.036383986, 9.999818, 9.9998665 
1.6451196e+3, 1.3569833e+2, -1775277.1, -1637400.8, -5255.81, 0.26154858, 0.2230572, -1637200.8, -27029.895, 0.022584815, 9.998665, 10.0004835 
1.6451111e+3, 1.4569786e+2, -1779857.3, -1569482.1, 61529.43, 0.16071603, 0.12921059, -1552807.9, -40631.074, 0.010560797, 9.997857, 10.000668 
1.6451035e+3, 1.5569948e+2, -1563882.9, -1388683.3, 63846.32, 0.0029343155, 0.17216934, -1367885.3, 46276.16, 0.0031241647, 9.998561, 10.00089 
1.6450967e+3, 1.6570039e+2, -1470051.8, -1348543.9, -33860.406, 0.08106331, 0.20295087, -1339745.1, -23594.152, 0.0004029895, 9.99877, 10.000395 
1.6450895e+3, 1.7570043e+2, -1389610.1, -1262901.3, -45897.188, 0.25892538, 0.13824546, -1248023.0, -29874.69, 0.0000070009137, 9.998673, 10.000355 
1.6450809e+3, 1.8570004e+2, -1350642.9, -1347416.8, 31458.26, 0.20472479, 0.14673886, -1317530.3, -197377.4, 0.0, 9.998936, 9.998969 
1.6450712e+3, 1.956995e+2, -1126084.4, -1156755.8, 66218.96, -0.01743474, 0.15349224, -1073448.5, -51286.938, 0.0, 9.999677, 9.999243 
1.6450633e+3, 2.0569918e+2, -888503.94, -848868.6, 57385.145, 0.009036807, 0.13341226, -807975.56, 116187.65, 0.0, 10.000003, 10.000539 
1.6450569e+3, 2.15699e+2, -776362.5, -731244.25, 41190.58, 0.21357748, 0.027029246, -706839.8, 119319.74, 0.0, 10.000061, 10.000635 
1.6450492e+3, 2.256994e+2, -740699.56, -767627.3, 75534.84, 0.2059162, 0.058033384, -677438.0, 50714.758, 0.0, 10.000065, 9.999726 
1.6450404e+3, 2.3570009e+2, -642171.75, -662666.25, 34930.18, 0.04145803, 0.12021792, -616016.75, 14128.094, 0.0, 10.000045, 9.999779 
1.6450326e+3, 2.4569845e+2, -560289.3, -708125.6, 26530.902, -0.0050808094, 0.048384078, -555672.2, -23512.559, 0.0, 10.000518, 9.998561 
1.6450253e+3, 2.5569496e+2, -332657.22, -544889.44, 36337.46, 0.012558954, -0.18916845, -326608.1, 107584.58, 0.000000005166704, 10.001392, 9.998593 
1.6450179e+3, 2.6569432e+2, -246465.6, -528966.75, 61024.656, -0.009871855, -0.069500424, -233846.97, 102353.77, 0.000005473011, 10.00164, 9.997902 
1.6450103e+3, 2.7569577e+2, -157425.98, -418863.1, 16566.53, -0.07097655, 0.24277365, -156380.39, 81809.97, 0.000058881178, 10.001524, 9.99803 
1.6450028e+3, 2.8569394e+2, -21785.203, -326822.66, -37293.527, -0.035591148, 0.27233237, -17291.926, 122916.96, 0.0003079229, 10.001876, 9.997837 
1.6449954e+3, 2.956896e+2, 167072.67, -165421.95, -70679.445, 0.0782923, 0.0129123265, 181473.5, 223722.67, 0.0009850244, 10.002419, 9.998001 
1.6449855e+3, 3.0568847e+2, 227982.78, -43145.58, -106480.84, -0.001359472, 0.07791192, 264801.38, 264801.38, 0.00216182, 10.002186, 9.998642 
1.6449764e+3, 3.156875e+2, 174521.0, 73036.35, -137422.2, 0.025028, 0.05960005, 270269.78, 270269.78, 0.0036594307, 10.001188, 9.999906 
1.6551264e+3, 1.2570465e+2, -1851479.0, -1988711.4, 37064.848, 0.091728725, 0.02788526, -1842108.1, -134008.39, 0.03897044, 9.999922, 9.998129 
1.6551189e+3, 1.357057e+2, -1824027.1, -1739616.6, -62087.348, 0.30447295, 0.1441007, -1706747.8, -96651.18, 0.024272982, 9.998661, 9.999787 
1.6551082e+3, 1.4570564e+2, -1765977.0, -1551126.6, 64692.652, 0.057022292, 0.11320465, -1533151.3, -21051.246, 0.0114189135, 9.997899, 10.000774 
1.6551025e+3, 1.5570712e+2, -1569947.6, -1399615.1, 97933.95, 0.03527224, 0.14848131, -1354995.6, 59089.707, 0.0034161112, 9.998557, 10.000816 
1.6550964e+3, 1.6570777e+2, -1466854.5, -1367366.6, -49595.695, 0.14959006, 0.16634251, -1346866.8, -30787.922, 0.00045137366, 9.998864, 10.000225 
1.6550888e+3, 1.7570777e+2, -1388500.9, -1260584.8, -39918.977, 0.29508293, 0.10671679, -1249149.5, -31070.898, 0.000008273259, 9.998675, 10.000366 
1.65508e+3, 1.8570802e+2, -1258001.6, -1168331.4, 50178.168, 0.19955628, 0.11097338, -1145875.9, -25800.398, 0.0, 9.998981, 10.000181 
1.6550708e+3, 1.9570844e+2, -1056416.5, -1003712.56, 98695.73, -0.046194937, 0.09613274, -927911.4, 94159.05, 0.0, 9.999629, 10.000322 
1.6550624e+3, 2.0570888e+2, -928066.6, -904813.7, 49767.53, -0.098711714, 0.12092053, -865332.6, 58731.55, 0.0, 9.999893, 10.000206 
1.655055e+3, 2.1570925e+2, -820994.2, -791311.06, 51362.12, 0.0030017989, 0.09863477, -752689.2, 73368.68, 0.0, 9.999921, 10.000289 
1.6550474e+3, 2.2570878e+2, -817356.56, -891075.5, 62419.91, 0.007080662, 0.10008408, -781725.56, -53663.72, 0.0, 9.999909, 9.998955 
1.6550396e+3, 2.3570764e+2, -713658.56, -775262.0, 48828.555, -0.053787097, 0.05569516, -686728.4, -56654.395, 0.0, 9.99989, 9.999083 
1.6550323e+3, 2.4570727e+2, -554620.8, -655028.5, 54174.473, -0.09732663, 0.1199128, -530964.7, 1112.5917, 0.0, 10.00034, 9.999009 
1.6550256e+3, 2.5570744e+2, -329529.88, -497845.88, 79503.414, -0.111874975, 0.19693348, -297914.97, 136159.55, 0.00000000856411, 10.001232, 9.998983 
1.6550192e+3, 2.65705e+2, -313018.16, -635189.8, 45593.547, -0.06509797, 0.15452948, -306690.1, 29407.4, 0.0000057188686, 10.001493, 9.997248 
1.655013e+3, 2.7570054e+2, -217545.63, -513926.53, 29565.795, 0.018676074, -0.06207702, -214625.03, 23515.727, 0.00005720022, 10.001389, 9.997445 
1.6550055e+3, 2.8569785e+2, -77014.625, -397256.38, -29417.875, 0.027231583, -0.07015458, -74334.68, 65833.16, 0.0002952708, 10.00168, 9.99745 
1.6549973e+3, 2.9569647e+2, 117361.49, -238653.73, -33650.85, -0.0019414936, -0.000105945735, 120514.28, 162697.64, 0.00095027586, 10.00228, 9.997569 
1.6549876e+3, 3.0569574e+2, 136171.73, -161637.06, -156981.73, -0.03671063, 0.16285877, 203636.89, 203636.89, 0.002094606, 10.001901, 9.997955 
1.6549793e+3, 3.156933e+2, 25864.604, -142705.9, -118457.82, 0.13176714, 0.066625044, 86962.49, 86962.49, 0.0035466496, 10.000795, 9.998607 
1.6651255e+3, 1.2571174e+2, -2251777.3, -2112502.3, 2195.747, 0.18000805, 0.051866, -2112467.5, -404435.0, 0.041736465, 9.996863, 9.998759 
1.6651176e+3, 1.3571306e+2, -1661213.0, -1566917.0, -95190.164, 0.27845764, 0.10384851, -1507838.4, 102183.81, 0.026087236, 9.999344, 10.000664 
1.665107e+3, 1.4571352e+2, -1616056.5, -1497932.9, 58988.973, 0.10904708, 0.08975827, -1473520.1, 38499.492, 0.012349877, 9.999018, 10.000598 
1.6651009e+3, 1.5571484e+2, -1786465.8, -1517115.0, 72337.87, 0.080962345, 0.12696198, -1498917.1, -84909.14, 0.003737191, 9.997141, 10.000684 
1.6650948e+3, 1.6571566e+2, -1677368.0, -1446964.1, 11216.376, 0.1737392, 0.15965228, -1446419.4, -130418.33, 0.00050616945, 9.997344, 10.000403 
1.665088e+3, 1.7571595e+2, -1286049.3, -1191443.0, 13534.462, 0.30238342, 0.11089039, -1189544.9, 28453.9, 0.000009797576, 9.999286, 10.000548 
1.6650796e+3, 1.857165e+2, -1152505.9, -1069474.8, 65273.914, 0.22732435, 0.11373761, -1033632.5, 86359.695, 0.0, 9.999511, 10.000597 
1.6650704e+3, 1.9571732e+2, -1162405.1, -1009461.0, 39022.68, -0.005208914, 0.09656036, -1000080.06, 21901.28, 0.0, 9.998729, 10.000699 
1.6650622e+3, 2.0571776e+2, -1100765.3, -1059833.0, -5247.006, -0.070982754, 0.13420807, -1059171.1, -135194.83, 0.0, 9.99901, 9.999569 
1.6650549e+3, 2.1571782e+2, -831898.2, -862434.3, -47008.62, -0.008670882, 0.14465809, -797740.3, 28236.18, 0.0, 10.000124, 9.999704 
1.6650476e+3, 2.2571701e+2, -703065.4, -822667.5, -9417.37, -0.00040599998, 0.13463739, -702328.4, 25655.848, 0.0, 10.00064, 9.999063 
1.6650401e+3, 2.3571557e+2, -584366.94, -698257.0, 19911.795, -0.03946567, 0.044898275, -580986.06, 49011.742, 0.0, 10.000716, 9.9992 
1.6650333e+3, 2.4571532e+2, -465273.88, -640639.06, 69042.5, -0.07641403, 0.1278514, -441354.03, 90645.99, 0.0, 10.00106, 9.99878 
1.665027e+3, 2.5571588e+2, -280864.84, -492165.47, 22409.918, -0.11015975, 0.2702753, -278514.25, 155480.56, 0.0000000057748837, 10.001633, 9.998841 
1.665021e+3, 2.657134e+2, -236357.36, -525934.56, 12332.381, -0.041750643, 0.19512372, -235833.11, 100183.72, 0.0000055479773, 10.001722, 9.997883 
1.6650149e+3, 2.7570853e+2, -164909.6, -436902.03, 65021.777, 0.083717875, -0.11828109, -150164.97, 87895.086, 0.000055377644, 10.001503, 9.997936 
1.6650076e+3, 2.857059e+2, -72595.36, -385702.06, 113114.336, 0.07624148, -0.14385374, -36006.777, 104078.68, 0.00028510438, 10.00167, 9.997526 
1.6649991e+3, 2.9570517e+2, 91688.03, -242306.81, 99460.734, -0.03158857, -0.015522662, 119062.875, 161158.66, 0.00092673383, 10.002095, 9.997617 
1.6649897e+3, 3.0570424e+2, 250811.31, -163319.61, 13381.15, -0.062988065, 0.14859465, 251243.22, 251243.22, 0.0020606702, 10.002923, 9.99745 
1.6649818e+3, 3.1570193e+2, 400562.28, -45970.836, 7578.749, 0.17570361, 0.12568139, 400690.88, 400690.88, 0.0035071587, 10.003746, 9.997845 
1.6751224e+3, 1.2571797e+2, -2019413.3, -1645334.3, 85172.34, 0.13606788, 0.1995578, -1626854.8, 81126.97, 0.044670317, 9.996911, 10.001965 
1.6751151e+3, 1.3572057e+2, -1497801.5, -1232887.8, -17249.8, 0.07671489, 0.11616133, -1231769.3, 378177.28, 0.028026333, 9.999349, 10.003016 
1.6751075e+3, 1.4572135e+2, -1627164.3, -1537675.6, -28797.223, 0.21784917, 0.038302485, -1529209.6, -17272.088, 0.013357116, 9.999084, 10.000291 
1.6750981e+3, 1.5572268e+2, -1801926.8, -1554252.5, 21616.965, 0.05718013, 0.10733366, -1552379.9, -138450.66, 0.004090086, 9.997158, 10.000424 
1.6750912e+3, 1.6572398e+2, -1631849.4, -1372645.5, 71095.02, 0.047708537, 0.17626281, -1354426.0, -38507.477, 0.0005678562, 9.997426, 10.000878 
1.6750865e+3, 1.7572495e+2, -1266149.0, -1139322.9, 85225.19, 0.20450023, 0.15403616, -1096507.1, 121402.086, 0.000011659807, 9.999245, 10.000928 
1.675079e+3, 1.857256e+2, -1170937.1, -1117962.9, 23438.533, 0.18157926, 0.16718215, -1109081.5, 10820.268, 0.0, 9.999543, 10.000256 
1.6750695e+3, 1.9572607e+2, -1196282.4, -1072568.5, 21880.725, 0.015442103, 0.15124673, -1068812.6, -46917.645, 0.0, 9.9986925, 10.000289 
1.675062e+3, 2.057257e+2, -1169401.3, -1190967.1, 25511.656, -0.0057798023, 0.17285687, -1152487.4, -228586.88, 0.0, 9.998958, 9.998695 
1.6750562e+3, 2.1572454e+2, -906270.25, -988455.9, 1699.106, 0.09259539, 0.15315153, -906235.2, -80318.805, 0.0, 9.999994, 9.998906 
1.6750492e+3, 2.2572398e+2, -668225.9, -701065.75, -15306.834, 0.080525756, 0.15514876, -662197.8, 65722.79, 0.0, 10.00043, 9.999995 
1.6750413e+3, 2.3572387e+2, -551743.5, -593936.7, 32502.658, -0.0035917817, 0.103519656, -534091.06, 95825.3, 0.0, 10.000561, 9.9999895 
1.6750346e+3, 2.4572255e+2, -549536.0, -777116.25, 77502.45, -0.050335646, 0.088074215, -525649.6, 6278.9365, 0.0, 10.00089, 9.997925 
1.6750292e+3, 2.5572032e+2, -351067.22, -599476.2, 54081.133, -0.071763664, 0.03810914, -339803.9, 94149.46, 0.0000000017385277, 10.001466, 9.998182 
1.6750228e+3, 2.6571947e+2, -135257.14, -273908.66, -5243.2065, -0.04647316, 0.059833206, -135059.16, 200899.27, 0.0000048816705, 10.001535, 9.999707 
1.6750161e+3, 2.7571952e+2, -64963.18, -201287.3, 77054.71, 0.025291584, 0.056523915, -30249.125, 207701.28, 0.000051551386, 10.001378, 9.999618 
1.6750085e+3, 2.8571796e+2, -77470.4, -351472.13, 120485.336, -0.013113512, 0.04275855, -32026.883, 107936.09, 0.0002714196, 10.001478, 9.997855 
1.6750005e+3, 2.9571545e+2, 98390.93, -197198.36, 139955.16, -0.13013802, -0.04420866, 154141.63, 196130.2, 0.00089928973, 10.001941, 9.99801 
1.6749914e+3, 3.0571365e+2, 172947.38, -242060.02, 35385.918, -0.21443662, 0.02845972, 175942.95, 175942.95, 0.0020308485, 10.002592, 9.997057 
1.6749834e+3, 3.1571284e+2, 335259.53, -110501.81, 71862.93, -0.07963681, 0.19125207, 346558.44, 346558.44, 0.003496756, 10.003463, 9.997524 
1.685121e+3, 1.2572461e+2, -1905448.5, -1532532.4, 251273.86, 0.28768063, 0.19134085, -1406092.5, 301823.28, 0.04776628, 9.997449, 10.002529 
1.6851118e+3, 1.3572782e+2, -1714182.5, -1258446.3, 28565.371, -0.09220523, 0.09360058, -1256662.8, 353210.88, 0.030093629, 9.9975195, 10.003714 
1.6851063e+3, 1.4572915e+2, -1729705.8, -1589492.3, -68806.29, 0.22774425, 0.03605363, -1561368.4, -49509.355, 0.0144471, 9.998388, 10.000273 
1.6850966e+3, 1.5573028e+2, -1503093.0, -1414785.6, -27038.691, 0.10405542, 0.087321885, -1407164.4, 6688.849, 0.004479329, 9.999226, 10.000389 
1.6850893e+3, 1.6573153e+2, -1425504.6, -1265205.5, 73353.5, 0.061528943, 0.15245181, -1236705.8, 79137.195, 0.0006375465, 9.998821, 10.000939 
1.6850847e+3, 1.7573273e+2, -1443930.6, -1211681.3, 46083.938, 0.17501433, 0.13843517, -1202871.4, 14959.757, 0.00001399049, 9.997983, 10.001026 
1.685078e+3, 1.8573327e+2, -1322462.8, -1223497.8, -7225.3267, 0.18199022, 0.15062903, -1222973.0, -103148.11, 0.0, 9.998649, 9.999959 
1.6850695e+3, 1.9573335e+2, -945961.25, -986851.2, -21866.453, 0.05983037, 0.12693572, -936470.7, 85352.22, 0.0, 10.000547, 9.99999 
1.6850623e+3, 2.0573278e+2, -876002.25, -1045737.8, 26491.125, 0.039662253, 0.1436764, -871963.8, 51867.066, 0.0, 10.000961, 9.998731 
1.6850565e+3, 2.1573177e+2, -863339.2, -960609.8, 49539.063, 0.10823532, 0.13374765, -842551.8, -16705.998, 0.0, 10.000272, 9.998963 
1.68505e+3, 2.2573139e+2, -697285.5, -759570.0, 40799.97, 0.12651299, 0.17013617, -677100.56, 50748.816, 0.0, 10.000404, 9.999622 
1.6850431e+3, 2.3573138e+2, -494408.75, -605310.2, -25131.84, 0.09355427, 0.17208841, -488979.34, 140866.03, 0.0, 10.001113, 9.999659 
1.6850366e+3, 2.4572979e+2, -486528.44, -721823.44, 31085.152, 0.042254567, 0.13364205, -482491.0, 49369.348, 0.0, 10.001223, 9.998129 
1.6850306e+3, 2.5572693e+2, -415612.66, -613296.6, 58194.48, -0.033866066, -0.00068965787, -399753.56, 34136.64, 0.0000000018399801, 10.00093, 9.998346 
1.685024e+3, 2.657265e+2, -199387.48, -267524.8, -11094.97, -0.0459311, 0.033952776, -197626.39, 138265.05, 0.0000039092515, 10.000937, 10.000039 
1.6850169e+3, 2.7572775e+2, -56904.332, -146713.9, -64220.664, -0.008027827, 0.11785188, -23446.285, 214425.73, 0.000046409757, 10.001255, 10.000033 
1.68501e+3, 2.857268e+2, -10527.381, -283700.72, -24584.84, -0.021990247, 0.1244167, -8332.45, 131545.77, 0.00025645504, 10.001774, 9.99819 
1.6850032e+3, 2.957244e+2, 191729.19, -113423.74, -38046.176, -0.07475755, 0.019781558, 196401.22, 238302.0, 0.0008662299, 10.00241, 9.998365 
1.6849944e+3, 3.057217e+2, 281645.34, -200761.75, -84208.984, -0.1942626, -0.009387697, 295922.3, 295922.3, 0.0019879541, 10.00335, 9.997001 
1.6849867e+3, 3.1572014e+2, 459582.34, -55126.125, -77718.4, -0.12095588, 0.10479785, 471061.44, 471061.44, 0.0034694744, 10.004276, 9.997563 
1.6951196e+3, 1.2573044e+2, -2036020.8, -1830303.8, 83938.484, 0.33770075, -0.1135057, -1800401.1, -92553.52, 0.051028147, 9.997561, 10.000363 
1.6951074e+3, 1.3573475e+2, -1792240.6, -1399250.0, 59859.457, -0.31841284, 0.016263507, -1390334.6, 219469.86, 0.032295942, 9.997456, 10.0027485 
1.6951032e+3, 1.4573708e+2, -1698935.9, -1547788.5, -39435.137, 0.029645331, 0.083452165, -1538118.4, -26335.51, 0.015627254, 9.99847, 10.000526 
1.6950963e+3, 1.5573786e+2, -1491898.6, -1399228.8, 6865.1104, 0.12859906, 0.089205086, -1398722.9, 15054.705, 0.004910431, 9.999252, 10.000489 
1.695089e+3, 1.6573845e+2, -1430554.3, -1293269.5, 25280.186, 0.102626845, 0.09339994, -1288762.3, 27010.625, 0.0007170378, 9.998892, 10.000712 
1.6950823e+3, 1.7573932e+2, -1460138.9, -1246521.9, 29816.42, 0.12926878, 0.07186909, -1242438.1, -24674.53, 0.000016975888, 9.997984, 10.000787 
1.6950764e+3, 1.8573956e+2, -1331416.9, -1256891.0, 51631.07, 0.12317333, 0.077563584, -1230480.6, -110719.55, 0.0, 9.998705, 9.999705 
1.6950701e+3, 1.957391e+2, -968928.56, -1017428.6, 47999.785, 0.036124814, 0.026663775, -939400.9, 82364.54, 0.0, 10.000473, 9.999816 
1.6950628e+3, 2.0573911e+2, -834349.5, -923169.9, -13419.281, -0.031092832, 0.058219854, -832366.4, 91400.266, 0.0, 10.000807, 9.999646 
1.6950554e+3, 2.1573946e+2, -831465.2, -866297.2, 36089.13, -0.051827658, 0.09559038, -808809.44, 16955.65, 0.0, 10.000145, 9.999674 
1.6950496e+3, 2.2573914e+2, -832196.94, -997323.75, 56676.547, 0.022832626, 0.18606639, -814615.7, -86844.26, 0.0, 10.000228, 9.998074 
1.6950451e+3, 2.3573816e+2, -617668.94, -817842.7, 12348.667, 0.16165656, 0.24534224, -616910.0, 12874.787, 0.0, 10.00093, 9.998285 
1.6950387e+3, 2.4573696e+2, -441093.53, -571330.75, 10736.11, 0.10373951, 0.2483932, -440214.44, 91581.95, 0.0, 10.000981, 9.999281 
1.6950312e+3, 2.557356e+2, -369905.2, -480125.66, 60875.414, -0.081663, 0.15036595, -342899.94, 90906.57, 0.0000000033657745, 10.0007715, 9.999336 
1.6950242e+3, 2.6573431e+2, -310173.25, -453260.7, -8715.845, -0.15025438, 0.11869681, -309644.28, 26172.19, 0.0000030031388, 10.000748, 9.998855 
1.6950174e+3, 2.75733e+2, -154632.8, -311049.78, -37033.98, -0.11617941, 0.06097666, -146307.58, 91519.0, 0.000041455987, 10.001094, 9.99898 
1.6950117e+3, 2.857321e+2, -19452.2, -254101.48, -14524.402, -0.06065588, 0.10057748, -18556.582, 121276.94, 0.0002433747, 10.001565, 9.998497 
1.6950068e+3, 2.9573148e+2, 191263.6, -80877.53, 2886.0913, 0.019598432, 0.14543761, 191294.2, 233131.58, 0.0008327765, 10.0022545, 9.998671 
1.6949986e+3, 3.057279e+2, 248274.0, -189518.16, -59441.19, -0.13332304, 0.0015317112, 256201.1, 256201.1, 0.0019274647, 10.003032, 9.997217 
1.694991e+3, 3.157244e+2, 447466.6, 25292.564, -2166.5203, -0.16592568, -0.10904425, 447477.72, 447477.72, 0.0033941083, 10.003859, 9.998295 
1.7051174e+3, 1.2573944e+2, -2104368.3, -1957666.5, 37654.164, 0.3569395, -0.064889856, -1948566.3, -240807.53, 0.054460447, 9.997485, 9.999536 
1.7051053e+3, 1.3574272e+2, -1744073.8, -1485888.5, 50765.35, -0.29195783, 0.074320436, -1476265.5, 133463.97, 0.034638863, 9.998255, 10.001758 
1.7051013e+3, 1.4574373e+2, -1686361.3, -1498137.6, -30821.92, 0.008562277, 0.037226237, -1493219.0, 18501.037, 0.016903277, 9.998404, 10.000891 
1.7050955e+3, 1.5574527e+2, -1601241.0, -1416645.0, -2373.322, 0.16598919, 0.07911106, -1416614.5, -2910.985, 0.00538814, 9.998367, 10.000783 
1.7050882e+3, 1.6574578e+2, -1487892.5, -1400480.8, 14151.492, 0.14153849, 0.09974786, -1398246.9, -82547.89, 0.0008082668, 9.998819, 10.000018 
1.7050809e+3, 1.7574604e+2, -1243675.6, -1212128.9, -28304.488, 0.09944709, 0.084138036, -1195499.4, 22198.922, 0.000020835996, 9.999753, 10.000183 
1.705075e+3, 1.8574588e+2, -1228487.9, -1204815.5, 23530.906, 0.09311601, 0.080589324, -1190311.6, -70611.516, 0.0, 9.999402, 9.999736 
1.7050695e+3, 1.9574524e+2, -1281068.9, -1163310.9, 21402.576, 0.05478486, 0.007817841, -1159541.6, -137835.88, 0.0, 9.998305, 9.999871 
1.705063e+3, 2.0574544e+2, -1109505.3, -1038435.2, -33007.695, 0.011373614, 0.049070433, -1025470.25, -101765.72, 0.0, 9.998845, 9.999788 
1.705056e+3, 2.1574636e+2, -743065.7, -810639.6, -60899.32, -0.025326503, 0.12590925, -707208.6, 118488.81, 0.0, 10.000699, 9.999781 
1.7050503e+3, 2.2574599e+2, -661632.06, -919236.4, 5034.149, 0.019326365, 0.20930193, -661533.75, 66170.72, 0.0, 10.00142, 9.99803 
1.7050457e+3, 2.3574452e+2, -571877.3, -797188.06, 46390.254, 0.119731516, 0.22306561, -562699.6, 67023.516, 0.0, 10.001257, 9.998264 
1.7050397e+3, 2.4574347e+2, -430595.06, -565735.06, 49280.816, 0.10400971, 0.2420373, -414533.1, 117200.11, 0.0, 10.001054, 9.999289 
1.7050327e+3, 2.557427e+2, -361785.84, -472575.63, -6598.8604, -0.009134105, 0.20036955, -361394.2, 72342.86, 0.0000000026261497, 10.000826, 9.999357 
1.7050259e+3, 2.6574114e+2, -266071.03, -478498.7, -27480.426, -0.07133719, 0.16585682, -262573.66, 73176.47, 0.0000021613648, 10.001239, 9.998449 
1.705019e+3, 2.7573907e+2, -30540.586, -301682.56, -25027.563, -0.101771824, 0.072179206, -28249.79, 209520.3, 0.000036656253, 10.002149, 9.998544 
1.7050135e+3, 2.857377e+2, 103436.42, -236916.94, 11936.826, -0.072087966, 0.112392835, 103854.555, 243637.56, 0.00022920681, 10.002601, 9.998108 
1.7050089e+3, 2.9573682e+2, 228517.4, -103028.836, -53423.652, -0.005783688, 0.17083545, 236913.2, 278704.75, 0.00079251203, 10.002694, 9.998304 
1.7050014e+3, 3.0573368e+2, 261317.72, -138480.36, -99152.25, -0.1342956, 0.06445996, 284557.2, 284557.2, 0.0018379622, 10.002913, 9.997623 
1.7049956e+3, 3.1573078e+2, 381711.78, 65301.78, -87160.055, -0.035294905, -0.023958663, 404132.66, 404132.66, 0.0032495628, 10.003092, 9.998925 
1.7151135e+3, 1.2575142e+2, -2057890.3, -1856778.1, 94442.984, 0.1765445, 0.30271035, -1819381.4, -111731.02, 0.058051143, 9.99748, 10.00022 
1.7151056e+3, 1.3575235e+2, -1825997.6, -1637568.6, 86932.48, -0.10401076, 0.31681284, -1603589.4, 6053.084, 0.037118543, 9.998215, 10.000698 
1.7151003e+3, 1.4574932e+2, -1636654.0, -1427874.4, -43937.1, 0.029694995, -0.09070329, -1419004.8, 92663.84, 0.018276531, 9.998517, 10.001337 
1.7150936e+3, 1.5575223e+2, -1574184.3, -1363884.1, 9146.036, 0.11722276, 0.04108313, -1363487.1, 50145.734, 0.005915651, 9.998374, 10.001147 
1.7150867e+3, 1.657535e+2, -1555075.9, -1548352.6, 34149.297, 0.08139908, 0.17541307, -1517399.9, -201778.5, 0.0009130136, 9.998861, 9.998977 
1.71508e+3, 1.75753e+2, -1316259.5, -1351753.9, 7803.239, 0.00069919653, 0.18522215, -1314619.8, -96986.16, 0.000025810483, 9.999718, 9.999234 
1.7150737e+3, 1.8575233e+2, -1204190.3, -1161574.4, -29238.95, -0.008532692, 0.16056582, -1146703.0, -27061.768, 0.0, 9.999422, 10.000027 
1.7150678e+3, 1.9575176e+2, -1268443.0, -1129464.4, -2510.279, 0.025227925, 0.061403528, -1129419.0, -107775.35, 0.0, 9.99827, 10.00012 
1.7150626e+3, 2.0575184e+2, -1164667.1, -1135170.4, 28334.682, 0.05697261, 0.1124544, -1117975.6, -194331.4, 0.0, 9.998767, 9.999164 
1.7150581e+3, 2.157523e+2, -798626.06, -889405.3, 13023.148, 0.0998727, 0.20810741, -796794.75, 28849.365, 0.0, 10.000541, 9.999317 
1.715052e+3, 2.2575177e+2, -594114.3, -728322.3, -9974.558, 0.028210463, 0.22013961, -593377.06, 134272.97, 0.0, 10.001198, 9.999452 
1.7150447e+3, 2.3575045e+2, -507253.72, -630558.9, 52108.25, -0.12202104, 0.11012269, -488182.66, 141478.03, 0.0, 10.00111, 9.999484 
1.715039e+3, 2.4574922e+2, -540443.7, -743518.06, 29820.59, -0.085808374, 0.11454717, -536155.25, -4483.5317, 0.0, 10.000844, 9.998164 
1.7150348e+3, 2.5574797e+2, -457067.84, -634475.94, 545.54395, 0.09422984, 0.13610119, -457066.2, -23382.387, 0.0000000000058928205, 10.00067, 9.99832 
1.7150289e+3, 2.657468e+2, -271415.88, -443223.66, -6132.304, 0.08361611, 0.16532904, -271197.28, 64497.637, 0.0000014626683, 10.001046, 9.998783 
1.7150217e+3, 2.7574572e+2, -38477.105, -276791.16, 18897.754, -0.06403226, 0.14202139, -36987.863, 200716.52, 0.000032258973, 10.001972, 9.998799 
1.7150153e+3, 2.8574356e+2, -12372.777, -427158.22, 5501.449, -0.18030107, 0.15308934, -12299.822, 127428.08, 0.00021422074, 10.002379, 9.99691 
1.7150092e+3, 2.9574046e+2, 130860.58, -266379.06, -26144.947, -0.2765427, 0.09885282, 132573.95, 174337.34, 0.0007452291, 10.002521, 9.997264 
1.7150027e+3, 3.0573884e+2, 234355.89, -114794.33, -107004.11, -0.32325363, 0.17657728, 264540.03, 264540.03, 0.0017263927, 10.002596, 9.997932 
1.7150003e+3, 3.1573862e+2, 351303.5, 131622.2, -31171.86, 0.075005785, 0.3185084, 355641.0, 355641.0, 0.0030576424, 10.002586, 9.999604 
1.7251104e+3, 1.257583e+2, -2046626.1, -1823828.9, 86845.49, 0.13125685, 0.29989666, -1793976.8, -86393.21, 0.06177432, 9.997424, 10.000479 
1.7251047e+3, 1.3575938e+2, -1861543.1, -1674883.8, 67485.195, 0.0029704156, 0.3331793, -1653041.0, -43466.906, 0.039721623, 9.998042, 10.000521 
1.7251e+3, 1.457561e+2, -1653580.9, -1479346.9, -41694.992, 0.15119363, -0.07075405, -1469883.1, 41719.43, 0.019743169, 9.998581, 10.000953 
1.7250925e+3, 1.5575808e+2, -1435568.3, -1328160.3, -73212.805, 0.12791137, 0.0028025089, -1291066.5, 122508.62, 0.006494274, 9.999433, 10.000902 
1.7250857e+3, 1.6575933e+2, -1473286.9, -1502842.8, -5795.972, 0.08020049, 0.14295232, -1472190.9, -156626.97, 0.001032908, 9.999407, 9.999029 
1.7250796e+3, 1.7575915e+2, -1415876.9, -1397213.0, 23190.768, 0.039059017, 0.18218623, -1381547.0, -163974.1, 0.00003215152, 9.99902, 9.999262 
1.7250733e+3, 1.8575853e+2, -1237568.5, -1198505.5, 10160.149, 0.030859603, 0.16993652, -1196020.9, -76440.53, 0.0, 9.999297, 9.999821 
1.7250669e+3, 1.9575794e+2, -978002.6, -1009049.1, -20937.19, 0.01345651, 0.090271495, -967461.75, 54121.65, 0.0, 10.00036, 9.999929 
1.7250623e+3, 2.057577e+2, -920628.25, -1028902.56, 56889.254, 0.06386858, 0.124663934, -896233.75, 27353.03, 0.0, 10.000491, 9.999072 
1.725059e+3, 2.1575761e+2, -884435.7, -942845.25, 61108.1, 0.16949323, 0.17518233, -845912.2, -20320.17, 0.0, 10.0, 9.999221 
1.7250533e+3, 2.2575714e+2, -717673.7, -790585.1, 6734.456, 0.093584366, 0.20179686, -717056.9, 10541.01, 0.0, 10.000376, 9.99941 
1.7250457e+3, 2.3575649e+2, -461094.44, -613547.0, -65030.9, -0.1346507, 0.16221723, -437123.6, 192479.72, 0.0, 10.001466, 9.999418 
1.7250401e+3, 2.4575502e+2, -376531.2, -679821.56, -88239.84, -0.11769231, 0.1533494, -352726.84, 178889.64, 0.0, 10.002031, 9.998025 
1.7250359e+3, 2.557529e+2, -250161.6, -548151.5, -60654.26, 0.07881453, 0.100402765, -238288.78, 195347.22, 0.0000000000049057277, 10.002159, 9.998186 
1.7250305e+3, 2.657516e+2, -158000.66, -422572.0, -30611.78, 0.10192699, 0.13980265, -154504.97, 181144.34, 0.0000011502509, 10.001972, 9.998477 
1.725024e+3, 2.7575088e+2, -123601.0, -347965.1, -79294.34, -0.005237226, 0.18434533, -98406.18, 139251.6, 0.000029351942, 10.00151, 9.998534 
1.7250179e+3, 2.8574902e+2, -61506.734, -392770.28, -10006.858, -0.12202952, 0.21046865, -61204.723, 78473.59, 0.00020332911, 10.001799, 9.99742 
1.7250118e+3, 2.957461e+2, 183847.44, -194943.78, 43126.984, -0.26794353, 0.12713134, 188695.58, 230405.63, 0.00070499646, 10.002704, 9.997657 
1.7250058e+3, 3.05745e+2, 380313.3, -95678.9, 14766.248, -0.32578632, 0.26435238, 380770.97, 380770.97, 0.0016286852, 10.003782, 9.997516 
1.725004e+3, 3.1574458e+2, 633491.5, 185693.52, -7440.717, 0.09898398, 0.43581438, 633615.06, 633615.06, 0.00288782, 10.004784, 9.998979 
1.7351076e+3, 1.2576142e+2, -2059845.1, -1858806.5, 110011.25, 0.049441896, 0.06278849, -1810307.0, -102761.734, 0.06561491, 9.997474, 10.000204 
1.7351022e+3, 1.3576354e+2, -1824972.6, -1584295.3, 82300.02, -0.08747238, 0.101777546, -1558844.1, 50683.34, 0.042436883, 9.99798, 10.0011835 
1.7351e+3, 1.4576375e+2, -1730044.6, -1646415.0, -27632.074, 0.263465, 0.0865846, -1638109.9, -126585.21, 0.021297567, 9.998618, 9.999779 
1.7350918e+3, 1.55763e+2, -1490736.5, -1442051.4, -38909.79, 0.088682555, -0.021999512, -1420496.9, -6967.9976, 0.0071235094, 9.999437, 10.000108 
1.7350848e+3, 1.6576344e+2, -1379045.4, -1332759.0, -33244.594, 0.016338715, 0.015412157, -1315395.3, 129.2137, 0.0011691477, 9.9995, 10.000158 
1.7350799e+3, 1.7576455e+2, -1347533.4, -1261244.6, 19534.996, 0.13251589, 0.07309393, -1257028.1, -39512.03, 0.00004011834, 9.999034, 10.000193 
1.7350738e+3, 1.857645e+2, -1286559.5, -1309186.1, 34840.742, 0.10426947, 0.117430024, -1261241.3, -141723.69, 0.0, 9.999333, 9.999045 
1.7350666e+3, 1.957637e+2, -1039613.25, -1116236.5, 20884.494, -0.07041749, 0.09359083, -1034290.7, -12764.799, 0.0, 10.00027, 9.999235 
1.7350617e+3, 2.0576304e+2, -907784.2, -975452.94, 25271.504, -0.06851071, 0.093535975, -899388.06, 24144.84, 0.0, 10.000373, 9.9994955 
1.7350583e+3, 2.1576236e+2, -883543.8, -912401.1, 55919.004, 0.08979663, 0.04085896, -840221.94, -14681.576, 0.0, 9.999874, 9.999489 
1.7350538e+3, 2.2576214e+2, -856094.4, -1032158.7, 37367.855, 0.09050364, 0.1656674, -848491.75, -120944.41, 0.0, 10.00018, 9.997843 
1.7350484e+3, 2.3576236e+2, -579358.1, -821622.9, -16077.289, -0.021265283, 0.36399087, -578295.9, 51257.457, 0.0, 10.001301, 9.998068 
1.7350425e+3, 2.4576062e+2, -349427.53, -567319.5, -92950.44, -0.09901488, 0.34161124, -315163.8, 216405.92, 0.0, 10.001798, 9.998909 
1.7350361e+3, 2.5575742e+2, -223721.33, -447678.8, -43823.957, -0.15005367, 0.09274505, -215451.25, 218142.7, 0.000000000000012544113, 10.001973, 9.998961 
1.7350304e+3, 2.657555e+2, -258841.17, -582668.94, -57059.31, -0.12399721, 0.08828139, -249081.33, 86532.52, 0.0000010511417, 10.00176, 9.99748 
1.7350253e+3, 2.7575457e+2, -203107.75, -472213.34, -77775.82, -0.033815015, 0.20610411, -182246.48, 55383.508, 0.000029114979, 10.001341, 9.997758 
1.735021e+3, 2.8575397e+2, 44567.734, -125358.9, 7524.4683, -0.01758373, 0.28770056, 44900.27, 184535.86, 0.00019954717, 10.001593, 9.99936 
1.7350166e+3, 2.9575333e+2, 268262.72, 35541.195, 95446.7, -0.08694108, 0.23790693, 302400.8, 344036.3, 0.00068326393, 10.002469, 9.999353 
1.7350101e+3, 3.0575186e+2, 243030.77, -295576.16, 37759.785, -0.28893998, 0.32382232, 245665.1, 245665.1, 0.0015767389, 10.003439, 9.996291 
1.7350063e+3, 3.1574774e+2, 440539.63, -77295.08, 82008.68, -0.20179048, 0.23215492, 453216.88, 453216.88, 0.0028063208, 10.004245, 9.997396 
1.7451057e+3, 1.2576565e+2, -2175183.0, -1895677.9, 21471.28, 0.16166314, 0.03457922, -1894038.1, -186537.44, 0.06957688, 9.996617, 10.00037 
1.7450997e+3, 1.3576813e+2, -1889971.5, -1538014.5, 7009.623, -0.07777755, 0.038653135, -1537874.9, 71605.09, 0.045260757, 9.99719, 10.001898 
1.7450991e+3, 1.4576973e+2, -1830690.1, -1712694.6, -22829.47, 0.35686892, 0.13500197, -1708431.6, -196966.02, 0.022935338, 9.998034, 9.999587 
1.7450912e+3, 1.5576868e+2, -1637595.0, -1529958.4, -16589.072, 0.13604881, 0.015240145, -1527459.6, -113984.18, 0.0078018596, 9.998524, 9.999927 
1.745084e+3, 1.657688e+2, -1516994.9, -1387960.3, -42441.113, 0.03926681, 0.021047635, -1375252.4, -59777.43, 0.0013223152, 9.9985075, 10.00026 
1.7450789e+3, 1.757698e+2, -1406480.4, -1278457.0, -77199.91, 0.16019301, 0.06255458, -1242182.5, -24716.148, 0.000049909977, 9.99859, 10.00029 
1.7450735e+3, 1.857698e+2, -1284278.1, -1301892.4, 7799.9473, 0.15163763, 0.101888165, -1281320.6, -161854.23, 0.0000000000000006446772, 9.999332, 9.999091 
1.7450675e+3, 1.9576891e+2, -996782.2, -1096976.3, 28522.65, -0.017110528, 0.066242665, -989231.5, 32242.715, 0.0, 10.000573, 9.999216 
1.7450623e+3, 2.0576815e+2, -853827.06, -999638.25, -7517.8276, -0.04289488, 0.082909204, -853440.5, 70042.14, 0.0, 10.000956, 9.999044 
1.7450583e+3, 2.1576753e+2, -769000.9, -897367.75, -62700.137, 0.04846917, 0.07869504, -743457.94, 82033.21, 0.0, 10.000839, 9.99912 
1.7450541e+3, 2.2576709e+2, -769786.75, -979472.8, 10835.337, 0.07459829, 0.18969972, -769228.3, -41728.12, 0.0, 10.0007105, 9.997962 
1.7450501e+3, 2.3576677e+2, -683146.06, -861181.7, 62499.332, 0.043597184, 0.32534888, -663396.5, -33886.758, 0.0, 10.000536, 9.998176 
1.7450443e+3, 2.4576518e+2, -498532.7, -636555.06, 13887.598, -0.03489639, 0.3144712, -497149.22, 34375.77, 0.0, 10.000776, 9.99892 
1.7450374e+3, 2.557626e+2, -312646.4, -493442.06, -32792.387, -0.16249946, 0.13029562, -306882.34, 126662.61, 0.0, 10.001378, 9.998937 
1.7450319e+3, 2.6576087e+2, -238368.1, -577714.25, -24705.094, -0.13938068, 0.14612022, -236578.95, 98984.47, 0.0000010008785, 10.001922, 9.997436 
1.7450275e+3, 2.757597e+2, -38264.855, -402753.25, -1025.145, -0.013006349, 0.24862589, -38261.973, 199318.9, 0.000030147008, 10.002507, 9.997674 
1.7450236e+3, 2.857586e+2, 218642.05, -56680.55, 65503.742, 0.025624733, 0.2942232, 233431.97, 373022.22, 0.00019895253, 10.002858, 9.999216 
1.7450197e+3, 2.957573e+2, 318467.94, 34115.668, -44124.297, -0.026334716, 0.19661197, 325157.53, 366753.3, 0.0006793162, 10.0029, 9.9991455 
1.7450137e+3, 3.057558e+2, 208337.89, -257450.88, -60407.344, -0.24230742, 0.26738894, 216044.52, 216044.52, 0.0015806378, 10.002943, 9.996803 
1.7450094e+3, 3.1575233e+2, 322368.4, -115044.3, 53736.64, -0.24731137, 0.18730107, 328873.28, 328873.28, 0.0028403166, 10.003328, 9.997575 
1.755103e+3, 1.2576936e+2, -2125245.0, -1800828.8, -192070.47, 0.17766716, 0.045697294, -1711635.8, -4169.8794, 0.07366958, 9.996634, 10.001021 
1.7550972e+3, 1.3577354e+2, -1841436.8, -1429471.3, 53180.53, -0.083110094, 0.1595106, -1422716.9, 186711.27, 0.048192136, 9.997145, 10.002697 
1.7550972e+3, 1.4577454e+2, -1766243.3, -1601627.5, -10121.752, 0.3128071, 0.1104309, -1601007.5, -89587.3, 0.024652572, 9.998118, 10.000318 
1.7550905e+3, 1.5577517e+2, -1612489.6, -1481225.4, 6823.097, 0.18510965, 0.11571478, -1480871.6, -67457.21, 0.008527423, 9.9985285, 10.000266 
1.7550829e+3, 1.6577516e+2, -1578247.8, -1523737.1, -61569.406, 0.038829375, 0.14589043, -1483660.0, -168242.86, 0.0014925194, 9.998545, 9.999311 
1.7550763e+3, 1.7577486e+2, -1462927.5, -1385938.3, -62753.254, 0.03347009, 0.14320637, -1350813.5, -133389.27, 0.00006156021, 9.998557, 9.999564 
1.7550723e+3, 1.8577442e+2, -1222327.5, -1175390.9, 45280.566, 0.068938404, 0.124978125, -1147858.3, -28431.686, 0.0000000010737394, 9.999341, 9.999955 
1.7550692e+3, 1.9577359e+2, -958935.56, -1005551.94, 79670.61, 0.0772667, 0.01130975, -899233.7, 122194.5, 0.0, 10.000518, 9.99987 
1.7550643e+3, 2.0577307e+2, -961398.94, -1201888.6, -24755.67, 0.022844777, 0.09364861, -958877.06, -35441.277, 0.0, 10.000861, 9.997702 
1.7550583e+3, 2.157729e+2, -864363.44, -1065128.8, -59079.613, -0.043962855, 0.2662929, -848268.3, -22821.664, 0.0, 10.000704, 9.998036 
1.7550537e+3, 2.2577175e+2, -673028.7, -735393.94, -5174.948, -0.054590307, 0.261034, -672602.2, 54856.27, 0.0, 10.000528, 9.999725 
1.75505e+3, 2.357698e+2, -597057.8, -646648.6, 70059.336, -0.035091832, 0.056625947, -547535.5, 81936.21, 0.0, 10.000383, 9.999721 
1.7550452e+3, 2.4576876e+2, -598585.6, -797407.4, 28388.852, -0.051989824, 0.08184797, -594611.56, -63129.63, 0.0, 10.00057, 9.997916 
1.75504e+3, 2.557684e+2, -394285.5, -625894.5, 159.32094, -0.07151795, 0.2150665, -394285.4, 39204.406, 0.0, 10.001224, 9.998097 
1.7550349e+3, 2.6576743e+2, -204435.34, -478317.16, -16637.16, -0.05965215, 0.30819404, -203428.4, 132071.84, 0.00000094846536, 10.001784, 9.99819 
1.7550299e+3, 2.757661e+2, -20854.717, -326267.75, 34062.84, -0.045414805, 0.31087983, -17101.79, 220409.92, 0.000030605133, 10.002337, 9.998277 
1.7550252e+3, 2.8576285e+2, 27095.383, -410743.72, 56408.473, -0.1136414, 0.23510768, 34245.92, 173788.83, 0.00020031627, 10.002662, 9.996882 
1.7550209e+3, 2.9575798e+2, 140062.34, -286003.97, -26447.045, -0.2277056, 0.009657849, 141697.7, 183288.78, 0.0006943286, 10.002686, 9.997047 
1.7550157e+3, 3.0575702e+2, 294954.72, -1749.366, -69731.25, -0.35687324, 0.13678674, 310525.75, 310525.75, 0.0016369672, 10.0026245, 9.998706 
1.7550132e+3, 3.1575876e+2, 351981.44, 66018.52, 123751.03, -0.2508531, 0.35838905, 398097.88, 398097.88, 0.0029657707, 10.002848, 9.999033 
1.7651005e+3, 1.2577373e+2, -1967257.4, -1712453.4, -94783.35, 0.2160748, -0.060268674, -1681062.6, 26359.695, 0.07790593, 9.997639, 10.001151 
1.765095e+3, 1.3577797e+2, -1960644.8, -1576756.8, 72464.836, 0.010685159, 0.15285122, -1563533.4, 45852.723, 0.05123237, 9.996727, 10.001841 
1.7650932e+3, 1.4577916e+2, -1935585.5, -1617980.5, -9739.497, 0.18104705, 0.13228434, -1617682.1, -106304.9, 0.026445003, 9.996675, 10.000909 
1.7650884e+3, 1.5578091e+2, -1657649.0, -1450982.6, -13502.111, 0.17095211, 0.19565944, -1450104.3, -36743.51, 0.009296644, 9.998007, 10.000728 
1.7650817e+3, 1.6578102e+2, -1540620.4, -1562963.9, -51385.6, 0.061885934, 0.24533436, -1499206.1, -183842.61, 0.0016790463, 9.999071, 9.998772 
1.7650749e+3, 1.7577991e+2, -1305689.9, -1368568.1, -53151.5, -0.025995534, 0.21434876, -1275375.5, -57995.09, 0.000074904594, 9.999881, 9.999041 
1.7650715e+3, 1.8577932e+2, -1119158.1, -1107515.1, 59196.855, 0.025687283, 0.19637434, -1053854.1, 65530.367, 0.000000009428086, 9.999964, 10.000127 
1.76507e+3, 1.9577903e+2, -1044610.56, -1026869.5, 21806.18, 0.12973595, 0.11832875, -1012198.7, 9181.507, 0.0, 9.999841, 10.000057 
1.7650655e+3, 2.0577827e+2, -1087670.5, -1283461.4, -46566.81, 0.08901497, 0.17953968, -1077159.4, -153770.22, 0.0, 10.000094, 9.997508 
1.765059e+3, 2.1577726e+2, -890470.3, -1098359.0, -17085.244, -0.04298095, 0.2919604, -889075.56, -63668.38, 0.0, 10.000624, 9.997844 
1.7650543e+3, 2.2577575e+2, -608925.9, -699679.94, 9523.624, -0.057155117, 0.25632122, -607937.25, 119484.11, 0.0, 10.000955, 9.999759 
1.7650509e+3, 2.3577377e+2, -476276.13, -583791.44, -68812.76, -0.0070467885, 0.04755663, -442712.06, 186721.23, 0.0, 10.0012, 9.999754 
1.7650466e+3, 2.4577285e+2, -444873.5, -747421.94, -89975.14, -0.008059192, 0.09308737, -420138.0, 111304.37, 0.0, 10.0017, 9.997733 
1.765042e+3, 2.5577268e+2, -234591.22, -576429.75, -75100.77, -0.043103397, 0.26719457, -218819.5, 214630.22, 0.0, 10.002403, 9.997888 
1.7650375e+3, 2.6577136e+2, -85094.26, -431900.56, -97291.1, -0.0307235, 0.34169984, -59665.293, 275798.1, 0.0000007067664, 10.002673, 9.998072 
1.7650327e+3, 2.757692e+2, 11048.91, -331007.0, -148252.86, -0.010947876, 0.2751747, 66360.24, 303841.78, 0.000029110019, 10.002647, 9.998098 
1.765028e+3, 2.8576562e+2, -25274.77, -489555.53, -70684.164, -0.10327363, 0.20347935, -14751.992, 124764.55, 0.00020317562, 10.002539, 9.996405 
1.765023e+3, 2.9576096e+2, 76296.555, -370912.2, -55713.51, -0.25751835, 0.057553038, 83132.87, 124697.61, 0.00072254677, 10.002484, 9.996565 
1.7650187e+3, 3.0575937e+2, 334329.56, 47820.26, -58607.99, -0.31126064, 0.12618749, 345854.72, 345854.72, 0.0017154181, 10.002751, 9.998988 
1.7650169e+3, 3.157604e+2, 393299.03, 104308.53, -44570.65, -0.15600254, 0.26565197, 400016.94, 400016.94, 0.003103051, 10.003007, 9.999246 
1.775098e+3, 1.2578072e+2, -1977218.0, -1750865.1, -86865.48, 0.1435983, -0.110538505, -1721372.4, -14021.257, 0.08231803, 9.997712, 10.000845 
1.7750931e+3, 1.3578159e+2, -2133847.5, -1934100.6, 44184.027, 0.1308262, 0.020344824, -1924763.5, -315411.47, 0.054393712, 9.996723, 9.999375 
1.7750867e+3, 1.4578333e+2, -1902727.4, -1559644.6, 18320.951, -0.16741407, 0.16693678, -1558669.0, -47329.945, 0.02831169, 9.996707, 10.001296 
1.775085e+3, 1.5578596e+2, -1617384.5, -1364630.1, 47158.35, -0.01069109, 0.25277513, -1356118.1, 57195.664, 0.010105246, 9.997991, 10.00133 
1.7750806e+3, 1.657865e+2, -1552450.0, -1594871.3, -30526.318, 0.0036523805, 0.3243851, -1536488.8, -221176.1, 0.0018804772, 9.999099, 9.998541 
1.7750742e+3, 1.7578495e+2, -1332557.1, -1416072.0, -16808.72, -0.10416913, 0.2786819, -1329301.0, -111966.445, 0.00008970714, 9.999851, 9.998725 
1.7750706e+3, 1.8578452e+2, -1149543.5, -1180818.6, 41665.715, -0.08667869, 0.3206501, -1120677.5, -1337.5804, 0.000000028818846, 10.000001, 9.999607 
1.7750691e+3, 1.957851e+2, -1076595.3, -1083852.0, 28849.781, 0.045231186, 0.3798088, -1051146.5, -29815.563, 0.0, 9.999797, 9.999689 
1.7750654e+3, 2.0578368e+2, -1037823.75, -1157919.9, -37172.773, 0.048794836, 0.34091437, -1027249.0, -103905.62, 0.0, 10.000008, 9.9984045 
1.7750598e+3, 2.1578065e+2, -868230.1, -1013053.06, 9343.6, -0.034518726, 0.15785323, -867629.75, -42256.996, 0.0, 10.000467, 9.998496 
1.7750558e+3, 2.2577906e+2, -758797.25, -974656.2, 9209.706, -0.031672597, 0.18432218, -758405.06, -31015.883, 0.0, 10.000785, 9.997959 
1.7750527e+3, 2.3577859e+2, -602541.25, -821359.8, -46919.883, 0.04025092, 0.29684982, -592904.9, 36490.76, 0.0, 10.001082, 9.998183 
1.7750485e+3, 2.4577731e+2, -427414.88, -666676.7, -74601.43, -0.010165799, 0.34465864, -406060.22, 125347.805, 0.0, 10.001511, 9.998376 
1.7750435e+3, 2.5577557e+2, -224049.19, -512984.9, -39390.723, -0.1544547, 0.2942142, -218775.3, 214648.6, 0.0, 10.002236, 9.998398 
1.7750391e+3, 2.657728e+2, -194397.48, -613982.94, -105907.09, -0.14617702, 0.2595669, -169181.06, 166270.39, 0.00000032366296, 10.002479, 9.996918 
1.7750354e+3, 2.7576914e+2, -90718.445, -488553.03, -133287.42, -0.023668347, 0.16282102, -50191.324, 187297.38, 0.00002512301, 10.002433, 9.997112 
1.775031e+3, 2.85767e+2, 18425.537, -351875.22, -88553.28, -0.075506255, 0.22666751, 38512.453, 178022.48, 0.0002007502, 10.002326, 9.9974575 
1.775026e+3, 2.9576617e+2, 121367.55, -236667.33, -40850.035, -0.23705003, 0.34320086, 125969.195, 167487.11, 0.0007396981, 10.002311, 9.99757 
1.7750224e+3, 3.0576265e+2, 189724.6, -176480.22, -57342.094, -0.24679267, 0.23888992, 198493.52, 198493.52, 0.0017576203, 10.0024395, 9.99759 
1.7750202e+3, 3.1575912e+2, 239046.89, -61213.28, 7095.677, -0.16880672, 0.06936716, 239214.48, 239214.48, 0.0031473008, 10.00241, 9.99836 
1.7850943e+3, 1.2578732e+2, -2185049.5, -1758184.0, -77612.18, 0.09434901, 0.046487916, -1744510.6, -37218.53, 0.08696164, 9.995938, 10.001625 
1.7850907e+3, 1.3578628e+2, -2055155.3, -1978987.1, -16898.395, 0.17869061, 0.05657939, -1975406.5, -366097.78, 0.057701517, 9.997647, 9.998614 
1.7850831e+3, 1.457871e+2, -1820962.6, -1563595.4, 38903.734, -0.22780797, 0.17419353, -1557843.3, -46538.97, 0.030258754, 9.997457, 10.000907 
1.7850825e+3, 1.5578894e+2, -1662974.3, -1412567.8, -12205.453, -0.03324846, 0.20899992, -1411974.3, 1313.4961, 0.0109521225, 9.997777, 10.001106 
1.7850795e+3, 1.6578978e+2, -1582472.1, -1530160.0, -53922.594, 0.020857282, 0.28110424, -1496384.6, -181102.55, 0.0020959692, 9.998536, 9.99926 
1.785074e+3, 1.757891e+2, -1326686.1, -1344419.9, 112.3847, -0.093446165, 0.25200945, -1326685.4, -109393.68, 0.000105867584, 9.999591, 9.999344 
1.7850704e+3, 1.857889e+2, -1204267.0, -1262540.8, 77069.445, -0.08754276, 0.31582534, -1151010.6, -31715.012, 0.0000000562377, 9.999867, 9.999117 
1.7850687e+3, 1.9578935e+2, -1109551.5, -1144972.4, 52688.195, 0.023058614, 0.4068505, -1071676.9, -50385.105, 0.0, 9.99976, 9.999291 
1.7850655e+3, 2.0578769e+2, -929257.06, -1089930.0, 16324.87, 0.044939876, 0.3548449, -927615.2, -4308.946, 0.0, 10.000673, 9.998565 
1.7850615e+3, 2.1578431e+2, -568667.94, -862915.9, -16318.972, -0.008425302, 0.12608212, -567765.7, 257570.17, 0.0, 10.002479, 9.998575 
1.7850578e+3, 2.2578257e+2, -514363.2, -942616.8, -21253.4, -0.0056603933, 0.17622904, -513311.03, 214043.52, 0.0, 10.00285, 9.997179 
1.7850544e+3, 2.357821e+2, -493555.4, -848898.5, -29489.031, 0.034129027, 0.37043378, -491124.8, 138239.55, 0.0, 10.002192, 9.997458 
1.7850502e+3, 2.4578054e+2, -353021.84, -602341.56, -7822.692, -0.017108308, 0.41159612, -352776.66, 178603.16, 0.0, 10.001926, 9.998602 
1.7850456e+3, 2.557782e+2, -243663.5, -503604.72, -29579.223, -0.15565568, 0.27935895, -240340.11, 193059.13, 0.0, 10.002033, 9.998552 
1.7850417e+3, 2.6577526e+2, -215941.3, -643452.7, -54247.406, -0.13769935, 0.23355907, -209165.19, 126262.484, 0.00000018370703, 10.002398, 9.99676 
1.7850381e+3, 2.757718e+2, -13187.441, -474625.16, -30650.852, -0.022397563, 0.17153074, -11160.373, 226304.13, 0.000020759246, 10.003022, 9.9969425 
1.7850341e+3, 2.8577003e+2, 215103.92, -204018.38, 48600.324, -0.048026532, 0.2568448, 220665.69, 360147.38, 0.00019246842, 10.003475, 9.997903 
1.7850298e+3, 2.957699e+2, 377437.4, -71837.836, 8969.295, -0.15852948, 0.40463108, 377616.4, 419097.13, 0.0007361142, 10.003905, 9.997925 
1.7850268e+3, 3.0576593e+2, 427944.0, -124108.47, 27916.84, -0.12833463, 0.27199206, 429352.16, 429352.16, 0.001742138, 10.004345, 9.997031 
1.7850244e+3, 3.1576115e+2, 511572.0, 12060.517, 65589.27, -0.08048923, 0.042289726, 520040.75, 520040.75, 0.0030650639, 10.004491, 9.997882 
1.7950897e+3, 1.2579234e+2, -2059351.8, -1526180.5, 168866.4, -0.012098271, 0.26644534, -1477197.1, 230059.45, 0.09190124, 9.9959955, 10.003334 
1.7950872e+3, 1.3579215e+2, -1987021.8, -1851048.4, 7615.844, 0.028647585, 0.25659412, -1850623.1, -241367.75, 0.06119029, 9.997685, 9.999484 
1.7950821e+3, 1.4579059e+2, -1909865.8, -1750481.3, 17439.783, -0.10807686, 0.16726512, -1748595.4, -237323.88, 0.03230053, 9.99747, 9.9996195 
1.795081e+3, 1.5578996e+2, -1740557.9, -1564659.3, 13924.429, 0.012964695, 0.08219077, -1563563.8, -150282.31, 0.011841973, 9.997751, 10.000069 
1.7950782e+3, 1.6579095e+2, -1457214.3, -1287282.9, -25703.322, 0.0057127513, 0.12914355, -1283480.1, 31790.559, 0.0023264778, 9.998595, 10.000907 
1.795074e+3, 1.7579234e+2, -1217463.5, -1121696.5, 39998.88, -0.076676756, 0.14105028, -1107188.1, 110064.266, 0.00012352158, 9.999599, 10.0008745 
1.7950706e+3, 1.8579245e+2, -1230601.3, -1322311.8, 59591.11, -0.08345496, 0.18667938, -1201264.8, -82012.98, 0.000000085167756, 9.999893, 9.998692 
1.7950681e+3, 1.9579178e+2, -1154231.6, -1221892.6, 60137.664, -0.02849657, 0.2113648, -1119061.8, -97799.52, 0.0, 9.999694, 9.998794 
1.7950657e+3, 2.057904e+2, -981156.56, -1177710.0, 71538.36, -0.029961048, 0.24064076, -957876.5, -34599.543, 0.0, 10.00058, 9.99801 
1.7950636e+3, 2.1578845e+2, -621196.06, -943333.25, 54368.066, -0.054839782, 0.20689169, -612267.6, 213027.5, 0.0, 10.002348, 9.998091 
1.79506e+3, 2.2578633e+2, -535616.0, -945370.2, -55740.676, -0.0802681, 0.23876107, -528168.7, 199148.58, 0.0, 10.002669, 9.997249 
1.7950551e+3, 2.3578425e+2, -516940.8, -855178.9, -41211.465, -0.10748334, 0.26322305, -511991.94, 117348.875, 0.0, 10.002013, 9.997498 
1.7950511e+3, 2.4578238e+2, -402927.25, -660790.6, -11564.503, -0.13090862, 0.28747275, -402409.66, 128949.81, 0.0, 10.001726, 9.9983015 
1.7950478e+3, 2.557806e+2, -281695.25, -543984.25, -11978.07, -0.13815817, 0.24058774, -281149.38, 152225.97, 0.0, 10.001874, 9.998348 
1.7950444e+3, 2.6577878e+2, -187647.58, -543783.94, -39654.73, -0.11777301, 0.27514318, -183285.56, 152106.89, 0.00000013255313, 10.002216, 9.997535 
1.7950404e+3, 2.7577704e+2, 11929.445, -373935.72, 4380.424, -0.10789239, 0.30055803, 11979.167, 249389.05, 0.0000188634, 10.002829, 9.99772 
1.7950368e+3, 2.8577477e+2, 162363.61, -268274.03, 49751.86, -0.14189361, 0.3136412, 168036.73, 307467.22, 0.00018763817, 10.003265, 9.99757 
1.7950341e+3, 2.9577234e+2, 318674.38, -128469.305, 47299.65, -0.15144093, 0.26379058, 323623.03, 365074.56, 0.0007283647, 10.003636, 9.997659 
1.7950317e+3, 3.0576935e+2, 369982.34, -170497.52, 20709.797, -0.10303495, 0.24928707, 370774.72, 370774.72, 0.0016996954, 10.00401, 9.996883 
1.7950287e+3, 3.1576654e+2, 474232.56, 44782.285, 97567.805, -0.1560022, 0.21076797, 495359.8, 495359.8, 0.002917687, 10.004057, 9.998294 
1.8050878e+3, 1.2579606e+2, -1798138.9, -1338504.1, 240504.55, 0.12778933, 0.38387865, -1235667.8, 471560.4, 0.097200245, 9.997498, 10.004044 
1.8050833e+3, 1.3579516e+2, -2139710.8, -1914783.0, -103198.82, -0.048713952, 0.28950343, -1874609.6, -265379.1, 0.06490086, 9.996578, 9.999593 
1.8050806e+3, 1.4579411e+2, -1976292.6, -1779321.3, 5032.689, 0.04794525, 0.23829289, -1779192.8, -267953.3, 0.034457777, 9.996999, 9.999641 
1.80508e+3, 1.5579328e+2, -1596122.4, -1500136.4, 73775.555, 0.09007297, 0.13355453, -1460117.1, -46867.004, 0.0127833225, 9.99876, 10.000021 
1.8050773e+3, 1.6579387e+2, -1392646.3, -1267440.5, -3588.8, 0.028592907, 0.15257755, -1267337.8, 47904.76, 0.0025744103, 9.999111, 10.00079 
1.8050736e+3, 1.7579505e+2, -1359284.3, -1191624.6, -88851.18, -0.024184126, 0.1500316, -1153298.9, 63927.484, 0.00014305822, 9.998659, 10.000838 
1.8050708e+3, 1.8579493e+2, -1309839.0, -1348070.9, -69414.61, -0.020943668, 0.1685075, -1256956.3, -137729.16, 0.00000010953618, 9.999282, 9.998809 
1.8050684e+3, 1.9579402e+2, -991105.7, -1133308.6, -47387.727, -0.021922654, 0.15635827, -976761.2, 44477.953, 0.0, 10.000771, 9.998879 
1.8050663e+3, 2.0579295e+2, -916633.8, -1153021.9, 23137.201, -0.04648971, 0.21611908, -914390.5, 8860.652, 0.0, 10.001052, 9.997956 
1.8050648e+3, 2.157917e+2, -891250.4, -1072619.8, 21335.895, -0.06899508, 0.2586707, -888774.25, -63510.605, 0.0, 10.000497, 9.99809 
1.8050617e+3, 2.2578956e+2, -791105.9, -1021317.44, -61310.39, -0.07350628, 0.26332256, -775795.75, -48510.72, 0.0, 10.000727, 9.997653 
1.8050572e+3, 2.3578677e+2, -551890.7, -840636.4, -43776.84, -0.0827507, 0.1816983, -545399.56, 83913.24, 0.0, 10.001636, 9.997777 
1.8050535e+3, 2.4578474e+2, -394947.88, -718454.44, -181.60765, -0.079019204, 0.20660777, -394947.78, 136385.67, 0.0, 10.002027, 9.997779 
1.8050504e+3, 2.5578326e+2, -295207.03, -607188.5, -39384.47, -0.06208055, 0.2474379, -290311.97, 143037.23, 0.0, 10.001996, 9.997881 
1.8050472e+3, 2.657815e+2, -114469.17, -461195.88, -45358.66, -0.06098975, 0.28798264, -108633.586, 226731.61, 0.00000007008213, 10.002524, 9.99795 
1.8050435e+3, 2.7577955e+2, 140910.75, -277059.13, -62950.164, -0.11432247, 0.2599333, 150185.81, 387567.22, 0.000018211349, 10.00356, 9.998041 
1.8050401e+3, 2.8577697e+2, 195883.97, -258731.17, -33608.61, -0.1418977, 0.23146923, 198355.14, 337759.44, 0.0001838329, 10.003514, 9.997517 
1.8050376e+3, 2.9577407e+2, 190162.34, -205469.02, -45934.313, -0.10629633, 0.14606412, 195425.48, 236856.42, 0.0007150246, 10.0027895, 9.997551 
1.8050359e+3, 3.0577183e+2, 224268.8, -257815.61, -11372.724, -0.03201707, 0.21954176, 224536.94, 224536.94, 0.0016464369, 10.003103, 9.99671 
1.8050337e+3, 3.1577012e+2, 433309.2, -15544.641, -42955.25, -0.036476202, 0.3305638, 437383.03, 437383.03, 0.0027767632, 10.003876, 9.99801 
1.8150862e+3, 1.2579884e+2, -1810099.9, -1380683.5, 67893.984, 0.17304848, 0.4493763, -1370204.6, 336999.13, 0.10291468, 9.997519, 10.0037155 
1.815079e+3, 1.3579519e+2, -2174201.5, -1977737.9, -127556.75, -0.1822397, 0.15049237, -1914972.1, -305736.75, 0.06887483, 9.996558, 9.999162 
1.815079e+3, 1.4579765e+2, -1863778.1, -1566968.3, 53608.742, 0.13965957, 0.38388193, -1557582.5, -46374.3, 0.036753505, 9.997071, 10.001074 
1.8150792e+3, 1.557987e+2, -1523628.6, -1358580.0, 141352.38, 0.10505019, 0.34693265, -1277425.5, 135770.0, 0.01378539, 9.998781, 10.001001 
1.815076e+3, 1.6579853e+2, -1518257.9, -1535247.1, -35615.59, -0.03523356, 0.34421957, -1490137.9, -174940.17, 0.002842686, 9.999143, 9.998935 
1.8150726e+3, 1.7579722e+2, -1474969.3, -1435575.8, -90339.75, -0.012410766, 0.27869475, -1362810.5, -145597.52, 0.00016504708, 9.998667, 9.999163 
1.8150707e+3, 1.8579644e+2, -1258663.4, -1245191.9, -23168.6, 0.00804275, 0.26587793, -1227799.8, -108579.07, 0.00000012908751, 9.999293, 9.999512 
1.815069e+3, 1.9579609e+2, -948844.5, -1036186.25, 11243.89, -0.046946675, 0.24145614, -947420.25, 73801.85, 0.0, 10.000727, 9.99957 
1.8150671e+3, 2.0579526e+2, -905178.44, -1103182.8, -6338.874, -0.106757835, 0.27197918, -904975.7, 18253.941, 0.0, 10.000942, 9.998349 
1.815065e+3, 2.15794e+2, -884376.8, -1024336.3, 14159.893, -0.12818854, 0.2731466, -882958.6, -57716.223, 0.0, 10.000351, 9.99849 
1.8150626e+3, 2.2579211e+2, -774522.56, -940407.3, -37868.313, -0.08039595, 0.24930301, -766286.8, -39027.492, 0.0, 10.000524, 9.998308 
1.81506e+3, 2.3578972e+2, -539694.8, -776342.6, -1468.5771, 0.01152489, 0.14372537, -539685.7, 89594.016, 0.0, 10.001469, 9.998299 
1.8150568e+3, 2.4578768e+2, -484981.75, -862268.1, -9843.463, 0.02081913, 0.1919045, -484725.1, 46576.133, 0.0, 10.001836, 9.996882 
1.8150531e+3, 2.55786e+2, -367658.8, -723837.5, -26282.557, -0.015045258, 0.29051328, -365729.88, 67592.625, 0.0, 10.001852, 9.997144 
1.81505e+3, 2.657832e+2, -149883.14, -491759.53, -16149.018, -0.0675939, 0.2654643, -149122.02, 186225.9, 0.0000000874347, 10.002333, 9.997834 
1.815047e+3, 2.7577946e+2, 101526.6, -305920.6, -13042.515, -0.14349186, 0.06309154, 101943.664, 339321.78, 0.00001648955, 10.0033455, 9.997936 
1.8150435e+3, 2.8577682e+2, 165513.38, -273760.5, -71981.7, -0.18303384, 0.036161356, 177007.89, 316409.2, 0.00017253889, 10.003296, 9.997521 
1.8150401e+3, 2.9577518e+2, 169857.17, -206658.05, -48123.715, -0.15839902, 0.05912406, 175910.7, 217328.64, 0.000680335, 10.002613, 9.997622 
1.8150388e+3, 3.0577344e+2, 138493.83, -367343.7, 6354.322, -0.07550792, 0.20967771, 138573.64, 138573.64, 0.0015763064, 10.002819, 9.996093 
1.8150374e+3, 3.157696e+2, 300532.97, -123973.12, -5262.508, -0.08397498, 0.16356976, 300598.2, 300598.2, 0.002670895, 10.003235, 9.997532 
1.8250838e+3, 1.2580115e+2, -1903691.4, -1473689.3, 58967.195, 0.20223758, 0.47796035, -1465749.6, 241429.9, 0.10907774, 9.997108, 10.003205 
1.8250775e+3, 1.3579665e+2, -1890064.6, -1930139.0, -130238.016, -0.087548934, 0.17668493, -1778331.5, -169108.61, 0.07313931, 9.99886, 9.998384 
1.8250777e+3, 1.4579819e+2, -1553607.5, -1367754.9, 3666.217, 0.20887624, 0.32404548, -1367682.6, 143521.95, 0.039204508, 9.998991, 10.001542 
1.825077e+3, 1.5579998e+2, -1714971.5, -1418032.3, -3182.58, 0.078527585, 0.32608318, -1417998.1, -4816.019, 0.014855209, 9.997348, 10.001267 
1.825074e+3, 1.658e+2, -1717699.5, -1660531.9, -86765.484, -0.08756643, 0.3466983, -1597763.1, -282580.6, 0.0031336718, 9.997887, 9.998682 
1.8250722e+3, 1.7579854e+2, -1253944.4, -1347640.9, -42215.32, 0.0030270005, 0.28360632, -1237730.0, -20528.611, 0.00019006866, 10.00026, 9.998997 
1.825071e+3, 1.8579783e+2, -1118218.1, -1159282.3, 32237.924, 0.08556107, 0.27843365, -1100529.1, 18679.35, 0.00000015151502, 10.000187, 9.999669 
1.8250695e+3, 1.9579776e+2, -1271220.4, -1171138.5, 7563.3906, 0.03801677, 0.26975772, -1170570.1, -149364.17, 0.0, 9.998449, 9.999734 
1.8250677e+3, 2.0579697e+2, -1176651.5, -1207814.0, 17087.86, -0.02129996, 0.2825581, -1169107.6, -245895.2, 0.0, 9.99897, 9.9985695 
1.8250664e+3, 2.1579546e+2, -751057.2, -937383.56, 4457.579, -0.055208944, 0.23536843, -750950.6, 74276.73, 0.0, 10.001172, 9.998684 
1.8250643e+3, 2.257937e+2, -581221.56, -848573.9, -79414.53, -0.022556817, 0.21595235, -559411.44, 167831.66, 0.0, 10.001828, 9.998324 
1.8250616e+3, 2.3579183e+2, -554602.2, -774846.5, -106350.234, 0.032474168, 0.1580742, -511632.0, 117626.93, 0.0, 10.001322, 9.998383 
1.8250589e+3, 2.4578995e+2, -410007.2, -805360.06, -39178.58, 0.031941194, 0.2048473, -406162.06, 125116.7, 0.0, 10.0022745, 9.997049 
1.8250562e+3, 2.5578797e+2, 865.9247, -530849.1, -8635.26, -0.005445188, 0.26242262, 1006.1277, 434307.94, 0.0, 10.004323, 9.997269 
1.8250535e+3, 2.6578525e+2, 113736.04, -345095.28, 6936.9, -0.020357981, 0.22677104, 113840.89, 449167.0, 0.00000011582431, 10.004076, 9.997996 
1.8250507e+3, 2.757818e+2, -58996.125, -376454.78, -1942.4265, -0.038178694, 0.046525408, -58984.242, 178368.56, 0.000015405387, 10.002198, 9.9980135 
1.8250474e+3, 2.8577915e+2, 33657.875, -372881.56, -943.6143, -0.07818268, 0.032263555, 33660.066, 173037.3, 0.00016027999, 10.002559, 9.997191 
1.825044e+3, 2.957773e+2, 436913.2, -122040.58, -43353.2, -0.139556, 0.08106073, 440255.75, 481653.72, 0.00063771853, 10.004637, 9.997234 
1.8250427e+3, 3.0577534e+2, 535458.56, -165956.5, 38447.832, -0.10623618, 0.22254027, 537559.8, 537559.8, 0.0015065027, 10.005488, 9.996193 
1.825043e+3, 3.1577113e+2, 612416.6, -8931.698, -34947.918, 0.049722306, 0.13848308, 614376.06, 614376.06, 0.002611432, 10.005436, 9.997317 
1.8350795e+3, 1.2580124e+2, -1959130.3, -1590309.0, 103555.81, -0.0017404158, 0.27198365, -1563222.4, 143950.19, 0.11569034, 9.99715, 10.002318 
1.835079e+3, 1.357999e+2, -1964093.5, -2075987.6, -45977.016, 0.15958378, 0.39264646, -1947625.4, -338436.25, 0.07769921, 9.998837, 9.997387 
1.835076e+3, 1.4579584e+2, -1589612.9, -1451809.3, -62940.12, 0.110238284, 0.057836406, -1427389.5, 83838.125, 0.04181763, 9.9990425, 10.000924 
1.835073e+3, 1.5579718e+2, -1745102.3, -1488734.6, -44708.785, -0.08911516, 0.07619873, -1481161.5, -67952.055, 0.015997248, 9.9973755, 10.000771 
1.8350708e+3, 1.6579841e+2, -1613279.8, -1455442.9, -12873.991, -0.22108182, 0.17052698, -1454399.6, -139203.73, 0.0034491862, 9.997935, 10.000067 
1.835072e+3, 1.7579883e+2, -1163726.1, -1162847.5, 41427.44, -0.059808973, 0.15516506, -1121857.0, 95336.23, 0.00021871291, 10.000263, 10.000268 
1.8350716e+3, 1.8579885e+2, -1148450.5, -1221735.0, -44920.54, 0.0886254, 0.18850692, -1127122.8, -7929.637, 0.00000018976193, 10.000192, 9.999235 
1.8350692e+3, 1.957989e+2, -1307039.0, -1237116.0, -38084.035, 0.14330351, 0.23492672, -1220379.3, -199187.02, 0.0, 9.998413, 9.999298 
1.8350682e+3, 2.0579796e+2, -1179913.6, -1196988.4, 89828.34, 0.10706291, 0.24717203, -1098217.9, -175017.08, 0.0, 9.998894, 9.998681 
1.8350688e+3, 2.157961e+2, -766863.7, -939365.8, 86438.5, 0.05068969, 0.15545171, -731004.75, 94213.5, 0.0, 10.00104, 9.998733 
1.8350664e+3, 2.2579442e+2, -651688.44, -948618.3, -106928.26, -0.0145430025, 0.17391825, -617190.3, 110045.29, 0.0, 10.001628, 9.997736 
1.8350616e+3, 2.3579298e+2, -607922.5, -844919.7, -105270.14, -0.09728171, 0.2127643, -567916.5, 61335.37, 0.0, 10.001151, 9.997986 
1.8350595e+3, 2.4579132e+2, -359745.16, -649990.06, 29005.844, -0.13483366, 0.2377519, -356874.84, 174393.33, 0.0, 10.002052, 9.998228 
1.8350594e+3, 2.5578934e+2, 43990.484, -391247.78, 71201.3, -0.122718245, 0.18246327, 55342.336, 488628.1, 0.0, 10.00412, 9.998324 
1.8350576e+3, 2.657878e+2, 98640.23, -336927.38, -72445.195, -0.04146741, 0.21105883, 110373.51, 445671.1, 0.000000090536304, 10.003894, 9.998144 
1.8350543e+3, 2.7578646e+2, -68396.234, -363260.2, -45846.496, 0.08972019, 0.2172523, -61432.324, 175873.81, 0.00001528185, 10.002057, 9.998171 
1.8350513e+3, 2.857837e+2, -51240.457, -509751.25, 59043.113, 0.03722547, 0.2294941, -43759.45, 95574.25, 0.00015297614, 10.002379, 9.996344 
1.8350486e+3, 2.9578027e+2, 351229.84, -240634.77, 48110.066, -0.16315931, 0.19794464, 355115.0, 396487.47, 0.000605686, 10.004395, 9.996529 
1.8350466e+3, 3.0577767e+2, 510925.4, -135313.92, 24433.36, -0.27598134, 0.29147628, 511847.9, 511847.9, 0.001455701, 10.00514, 9.99657 
1.835048e+3, 3.1577522e+2, 527664.1, -67751.21, -12628.238, -0.017722035, 0.32149526, 527931.9, 527931.9, 0.0025875566, 10.004968, 9.997118 
1.8450764e+3, 1.2579863e+2, -1993959.6, -1513018.5, -25057.37, 0.028789844, 0.1448828, -1511716.5, 195485.38, 0.12272786, 9.996472, 10.003244 
1.8450774e+3, 1.3580094e+2, -2168540.8, -2059541.1, -107787.43, 0.21188855, 0.52258426, -1993258.6, -384077.78, 0.08254445, 9.996972, 9.998396 
1.8450736e+3, 1.4579606e+2, -1782605.1, -1558998.1, -70333.17, 0.03553572, 0.072473094, -1538715.4, -27488.164, 0.04459436, 9.997774, 10.00079 
1.8450716e+3, 1.5579739e+2, -1539205.9, -1390647.8, -37813.375, -0.0067660967, 0.095742986, -1381576.8, 31633.76, 0.017215712, 9.998789, 10.000772 
1.8450704e+3, 1.6579907e+2, -1439620.6, -1308542.0, 45335.504, -0.09510261, 0.2030696, -1294390.0, 20801.809, 0.0037916328, 9.998874, 10.000624 
1.8450713e+3, 1.7579989e+2, -1378504.3, -1210835.5, 12167.7705, -0.072661735, 0.17723247, -1209957.1, 7225.5503, 0.00025177147, 9.9985695, 10.000753 
1.845071e+3, 1.8579988e+2, -1263973.3, -1291968.3, -102325.08, 0.057640713, 0.19136545, -1174692.8, -55510.457, 0.00000025167606, 9.999454, 9.999109 
1.8450695e+3, 1.9579965e+2, -886835.06, -1046739.2, -87993.03, 0.20009804, 0.22053644, -847896.0, 173288.36, 0.0, 10.001335, 9.999198 
1.8450694e+3, 2.0579855e+2, -786870.25, -1012805.06, 82914.29, 0.19599926, 0.22338718, -759707.7, 163487.31, 0.0, 10.001612, 9.998643 
1.8450701e+3, 2.1579663e+2, -794347.06, -951121.56, 48532.313, 0.10288531, 0.13144474, -780539.2, 44674.348, 0.0, 10.000854, 9.998746 
1.845068e+3, 2.2579554e+2, -743889.94, -946451.75, -109138.05, 0.027859781, 0.18432899, -696278.44, 30947.145, 0.0, 10.000816, 9.998127 
1.8450633e+3, 2.3579495e+2, -555719.0, -782227.7, -58221.965, -0.05860729, 0.27240917, -541629.94, 87603.63, 0.0, 10.00135, 9.99831 
1.8450618e+3, 2.4579315e+2, -425704.84, -670969.2, 111580.21, -0.095550716, 0.26058015, -382539.56, 148711.02, 0.0, 10.001559, 9.998316 
1.8450625e+3, 2.5579038e+2, -319223.22, -557796.2, 45769.09, -0.10694791, 0.117872626, -310744.0, 122530.53, 0.0, 10.001575, 9.998406 
1.8450607e+3, 2.6578894e+2, -126166.85, -451613.2, -157185.61, -0.045868803, 0.15453452, -62646.465, 272639.38, 0.00000009817215, 10.002387, 9.998079 
1.8450569e+3, 2.757884e+2, 181617.63, -252259.14, -169269.05, 0.057919733, 0.25004923, 239841.52, 477130.16, 0.000013983738, 10.003826, 9.998077 
1.8450549e+3, 2.8578573e+2, 215345.08, -371391.34, 17905.807, 0.07214314, 0.2745868, 215891.0, 355206.38, 0.00014295103, 10.00418, 9.996426 
1.8450539e+3, 2.9578197e+2, 268322.56, -262638.0, 26503.506, -0.013101412, 0.20852281, 269642.25, 310998.0, 0.00057309034, 10.0037365, 9.99671 
1.8450512e+3, 3.0577892e+2, 334361.06, -150488.98, 58286.207, -0.24085186, 0.2114798, 341269.5, 341269.5, 0.0014018475, 10.003628, 9.9972 
1.845052e+3, 3.1577677e+2, 427848.8, -76106.125, -31629.502, -0.072620735, 0.22727244, 429826.22, 429826.22, 0.0025416666, 10.004089, 9.997487 
1.8550754e+3, 1.2579486e+2, -1796436.1, -1190064.9, 57265.125, 0.21436968, 0.22870985, -1184704.3, 522547.84, 0.13014582, 9.996612, 10.005747 
1.8550724e+3, 1.3579959e+2, -1966543.5, -1639444.0, -84284.016, -0.011047692, 0.5326865, -1619003.8, -9803.936, 0.08765755, 9.99696, 10.001285 
1.8550701e+3, 1.4579897e+2, -1755927.5, -1510731.1, -39739.96, -0.12418874, 0.3595494, -1504451.1, 6751.643, 0.04753598, 9.997799, 10.001116 
1.855073e+3, 1.5580054e+2, -1502960.5, -1328615.0, 4292.1704, 0.21941769, 0.3670723, -1328509.4, 84676.88, 0.01851746, 9.998832, 10.00119 
1.8550721e+3, 1.658018e+2, -1449885.8, -1344162.6, 18909.787, 0.15816575, 0.42340648, -1340882.1, -25710.291, 0.0041650403, 9.998933, 10.000349 
1.8550695e+3, 1.7580162e+2, -1402760.1, -1261954.0, 16718.086, -0.12174521, 0.33354503, -1259996.3, -42825.27, 0.00029041685, 9.998564, 10.000408 
1.8550692e+3, 1.8580082e+2, -1247491.6, -1259668.8, -42997.27, -0.10561319, 0.27586725, -1210154.0, -90977.61, 0.0000003514084, 9.999465, 9.999325 
1.8550703e+3, 1.9580007e+2, -882364.1, -1022432.5, -18925.564, 0.115839824, 0.22947653, -879852.0, 141329.86, 0.0, 10.001271, 9.999395 
1.8550706e+3, 2.0579877e+2, -815418.7, -1049062.8, 44138.7, 0.1376405, 0.21830106, -807358.3, 115836.21, 0.0, 10.001513, 9.998442 
1.8550704e+3, 2.1579699e+2, -820866.1, -971301.4, 33512.242, 0.02975933, 0.15732202, -813738.4, 11475.366, 0.0, 10.000705, 9.998678 
1.8550688e+3, 2.2579683e+2, -677160.06, -766768.75, -97580.7, 0.010293898, 0.23436755, -614589.25, 112625.86, 0.0, 10.000632, 9.999454 
1.855066e+3, 2.3579778e+2, -500384.22, -633878.6, -29191.252, 0.050680142, 0.34726337, -494280.1, 134923.94, 0.0, 10.001204, 9.999402 
1.8550646e+3, 2.4579558e+2, -528034.6, -838380.75, 100440.39, 0.026065527, 0.30473146, -498364.66, 32859.96, 0.0, 10.001363, 9.997261 
1.8550648e+3, 2.5579107e+2, -410310.88, -703125.5, 60344.473, -0.0435329, 0.08381216, -398362.4, 34905.934, 0.0, 10.001398, 9.997487 
1.8550625e+3, 2.657886e+2, -174013.73, -506418.9, -115240.16, -0.12631948, 0.076864816, -137969.95, 197321.27, 0.00000008466028, 10.002194, 9.997797 
1.855058e+3, 2.7578753e+2, 132905.58, -301132.53, -102606.484, -0.21980157, 0.14993106, 155939.36, 393239.7, 0.000011476472, 10.003611, 9.997841 
1.8550578e+3, 2.8578526e+2, 230467.3, -287113.5, -12646.309, -0.09271979, 0.1833119, 230776.11, 370097.7, 0.00012752597, 10.00394, 9.9971285 
1.8550599e+3, 2.9578242e+2, 298350.47, -149834.88, 27782.313, 0.18859264, 0.13102087, 300066.1, 341414.22, 0.0005311809, 10.003517, 9.997592 
1.8550558e+3, 3.0577907e+2, 337986.44, -73815.98, 52409.9, -0.16901849, 0.020234523, 344551.94, 344551.94, 0.0013273064, 10.003335, 9.997865 
1.8550552e+3, 3.1577775e+2, 402296.72, 10208.277, 47875.85, -0.18790351, 0.064800605, 408057.94, 408057.94, 0.0024360388, 10.003529, 9.998337 
1.865073e+3, 1.2579456e+2, -1731957.6, -1254101.0, 232642.81, 0.2817828, 0.36242908, -1159548.5, 547708.2, 0.1378835, 9.997604, 10.0048 
1.8650693e+3, 1.3579899e+2, -1995198.3, -1500705.0, -11819.475, 0.027378866, 0.49042204, -1500422.8, 108783.48, 0.09301642, 9.996058, 10.002743 
1.865068e+3, 1.4580008e+2, -1942489.6, -1606497.4, 78351.88, -0.06565917, 0.4166961, -1589124.4, -77931.75, 0.050644647, 9.996573, 10.001028 
1.865072e+3, 1.5580174e+2, -1521262.9, -1356646.4, 43699.414, 0.2534754, 0.4459137, -1345765.0, 67411.34, 0.01991141, 9.998807, 10.000994 
1.865072e+3, 1.6580223e+2, -1453771.1, -1397712.9, -30297.197, 0.24310476, 0.4602794, -1384467.9, -69298.195, 0.0045744055, 9.999128, 9.999881 
1.8650693e+3, 1.7580107e+2, -1498891.9, -1349128.6, -52575.55, 0.012732103, 0.31517234, -1332514.6, -115336.66, 0.0003360051, 9.998088, 10.000026 
1.865069e+3, 1.8580025e+2, -1332526.3, -1265714.1, 3296.9297, -0.031088118, 0.2530579, -1265551.9, -146368.7, 0.00000050835786, 9.9987335, 9.999637 
1.8650706e+3, 1.9580005e+2, -923409.94, -1004945.0, 9151.731, 0.040055946, 0.23053466, -922395.4, 98786.87, 0.0, 10.000833, 9.999729 
1.865071e+3, 2.0579933e+2, -868825.6, -1044292.2, 14243.072, 0.06443316, 0.24353217, -867677.0, 55512.49, 0.0, 10.001022, 9.998706 
1.8650708e+3, 2.15798e+2, -917468.2, -992124.5, 23655.799, 0.04576576, 0.2032675, -910603.75, -85398.84, 0.0, 9.999919, 9.998918 
1.8650699e+3, 2.2579783e+2, -693377.8, -754116.44, -50385.367, 0.0738733, 0.25860497, -664917.0, 62289.176, 0.0, 10.000437, 9.99964 
1.8650682e+3, 2.3579857e+2, -344777.34, -539846.2, -89851.445, 0.11849302, 0.33378252, -309698.63, 319497.72, 0.0, 10.002192, 9.999583 
1.8650673e+3, 2.4579667e+2, -351465.66, -745376.7, 19685.148, 0.09779985, 0.31154755, -350484.34, 180729.72, 0.0, 10.002541, 9.997331 
1.865067e+3, 2.557928e+2, -340747.34, -670909.6, 43747.24, 0.012785727, 0.14904362, -335049.1, 98203.58, 0.0, 10.001876, 9.997483 
1.865065e+3, 2.6579e+2, -196406.94, -547593.3, -23277.082, -0.089923464, 0.12301927, -194870.83, 140409.34, 0.000000065173005, 10.002167, 9.997525 
1.8650615e+3, 2.7578795e+2, 59184.734, -364206.72, -46354.742, -0.21589302, 0.12806177, 64200.438, 301500.28, 0.000009433609, 10.00321, 9.997605 
1.8650617e+3, 2.8578573e+2, 163586.98, -306411.6, -7262.8276, -0.06077223, 0.17213672, 163699.19, 303019.47, 0.00011541126, 10.003434, 9.997224 
1.8650639e+3, 2.957836e+2, 248269.56, -162590.39, -49613.734, 0.270578, 0.17883702, 254175.81, 295515.25, 0.0004957237, 10.00313, 9.99767 
1.8650596e+3, 3.0578008e+2, 319809.56, -99394.78, -25877.785, -0.12500508, 0.0535873, 321400.97, 321400.97, 0.0012524537, 10.003266, 9.997717 
1.865059e+3, 3.157782e+2, 484710.44, 79174.44, -102201.9, -0.1821143, 0.055463433, 509010.9, 509010.9, 0.0022969444, 10.003917, 9.99863 
1.8750682e+3, 1.2579691e+2, -2039621.0, -1872212.4, 5985.5396, -0.022462375, 0.4535682, -1871998.6, -164774.34, 0.14588223, 9.997703, 10.000009 
1.8750674e+3, 1.3579924e+2, -1980239.4, -1482726.3, -49300.063, 0.2140565, 0.39598992, -1477888.0, 131311.38, 0.0986057, 9.996097, 10.002873 
1.8750663e+3, 1.4579953e+2, -1966254.3, -1675374.4, 151132.08, 0.087208055, 0.24261701, -1611067.6, -99872.01, 0.053927336, 9.996651, 10.000518 
1.8750687e+3, 1.5580101e+2, -1576114.8, -1473025.3, 130938.63, 0.00855323, 0.3334559, -1383851.3, 29329.832, 0.021407956, 9.9988165, 10.000188 
1.8750696e+3, 1.6580048e+2, -1488243.1, -1479556.6, -81376.914, 0.058182865, 0.31640646, -1402407.1, -87222.34, 0.0050250688, 9.999171, 9.999301 
1.8750697e+3, 1.7579831e+2, -1529318.5, -1418073.3, -76168.52, 0.23001988, 0.12865843, -1379379.9, -162176.34, 0.00038988978, 9.998103, 9.999552 
1.8750699e+3, 1.8579808e+2, -1292270.5, -1190541.5, 69812.57, 0.15010157, 0.12258654, -1155029.0, -35825.813, 0.000000733184, 9.998773, 10.000134 
1.87507e+3, 1.9579957e+2, -900004.4, -937359.75, 86660.17, -0.11383104, 0.22279406, -830031.94, 191154.02, 0.0, 10.000756, 10.000231 
1.8750705e+3, 2.0580007e+2, -828048.4, -942752.9, -42391.84, -0.12593004, 0.2924487, -814082.0, 109099.305, 0.0, 10.000942, 9.999445 
1.8750711e+3, 2.1579969e+2, -897475.56, -919923.0, -1294.1125, 0.053406958, 0.27682877, -897401.2, -72214.305, 0.0, 9.999785, 9.999479 
1.8750708e+3, 2.2579867e+2, -788427.9, -911517.2, 5178.155, 0.0989139, 0.27671602, -788210.4, -61012.836, 0.0, 10.000257, 9.99865 
1.8750699e+3, 2.3579724e+2, -426276.22, -665174.8, -19734.594, 0.054916304, 0.23004194, -424657.0, 204554.14, 0.0, 10.002006, 9.998807 
1.8750691e+3, 2.4579622e+2, -303764.63, -598604.3, -14284.343, 0.014178144, 0.2691635, -303074.22, 228146.83, 0.0, 10.00233, 9.998446 
1.8750685e+3, 2.5579545e+2, -298258.88, -537807.94, 37052.305, -0.029925602, 0.30707684, -292658.72, 140569.98, 0.0, 10.001691, 9.998485 
1.8750678e+3, 2.6579306e+2, -249282.61, -615982.0, 5306.058, -0.046876766, 0.29632372, -249205.86, 86046.78, 0.00000004605578, 10.001973, 9.997159 
1.8750666e+3, 2.7578962e+2, 7734.416, -427240.66, 2939.6155, -0.040333536, 0.19505474, 7754.2817, 245041.8, 0.000008319171, 10.003016, 9.99727 
1.8750663e+3, 2.8578722e+2, 96107.95, -399346.47, -32952.73, 0.022757884, 0.26413187, 98290.03, 237601.9, 0.00010877432, 10.003225, 9.996692 
1.875066e+3, 2.9578534e+2, 162426.16, -278696.1, -38436.875, 0.13338888, 0.3576474, 165750.28, 207081.42, 0.0004720907, 10.002874, 9.996996 
1.8750617e+3, 3.0578172e+2, 215790.11, -246356.05, -22807.357, -0.26732406, 0.3029864, 216912.95, 216912.95, 0.0011878542, 10.002974, 9.996848 
1.8750642e+3, 3.1577718e+2, 390803.2, 24164.031, 33189.91, -0.10434345, 0.11537149, 393783.5, 393783.5, 0.002155699, 10.003352, 9.998511 
1.8850644e+3, 1.2579702e+2, -2442794.0, -2166051.0, -78543.58, -0.040236782, 0.36735973, -2145313.3, -438095.47, 0.15411249, 9.995349, 9.999131 
1.8850657e+3, 1.3579848e+2, -1629959.1, -1392961.5, -64160.65, 0.3084897, 0.27083346, -1376706.6, 232497.19, 0.10442951, 9.998807, 10.0022545 
1.8850653e+3, 1.4579982e+2, -1588643.8, -1553283.6, 73549.96, 0.18174548, 0.28403136, -1495318.6, 15873.4, 0.057399224, 9.999504, 9.999985 
1.8850668e+3, 1.5580025e+2, -1711490.3, -1567823.6, 66823.38, -0.026383575, 0.3066965, -1541547.9, -128358.21, 0.023018045, 9.998043, 9.999897 
1.8850684e+3, 1.6579947e+2, -1515276.0, -1489166.6, -58717.27, 0.04034995, 0.27601856, -1442070.3, -126874.04, 0.005521801, 9.998961, 9.999338 
1.8850702e+3, 1.7579798e+2, -992585.7, -1158610.0, -32018.729, 0.293949, 0.15107803, -986624.7, 230583.05, 0.0004532519, 10.001775, 9.999572 
1.8850705e+3, 1.8579786e+2, -911624.1, -1025432.44, 89015.96, 0.20383902, 0.16199407, -862878.25, 256328.23, 0.0000010252129, 10.001468, 9.999965 
1.8850696e+3, 1.957987e+2, -1145117.4, -1071106.6, 46067.676, -0.14241567, 0.21061188, -1049022.0, -27825.777, 0.0, 9.999134, 10.000092 
1.8850702e+3, 2.0579915e+2, -1045322.44, -1020137.5, -83852.96, -0.15918045, 0.27251494, -947936.75, -24745.578, 0.0, 9.999337, 9.999685 
1.8850717e+3, 2.1579935e+2, -624036.2, -762630.4, -98895.26, 0.053864963, 0.29045168, -572575.8, 252614.34, 0.0, 10.001561, 9.999698 
1.8850718e+3, 2.2579822e+2, -557532.6, -836102.25, -63470.383, 0.10853396, 0.2857352, -543752.94, 183449.44, 0.0, 10.0020075, 9.998312 
1.8850712e+3, 2.3579596e+2, -564251.9, -767223.3, -63620.492, 0.03581832, 0.19228993, -545958.94, 83266.586, 0.0, 10.001202, 9.998494 
1.8850708e+3, 2.4579519e+2, -438752.5, -610316.1, -64271.547, 0.0046234466, 0.24634755, -417345.9, 113888.19, 0.0, 10.001185, 9.998912 
1.8850705e+3, 2.557955e+2, -250191.56, -467242.9, -86930.164, -0.011794128, 0.3491595, -219668.05, 213563.9, 0.0, 10.001813, 9.998913 
1.8850705e+3, 2.6579392e+2, -145845.25, -509961.44, -49836.316, 0.009911967, 0.37287068, -139147.4, 196099.94, 0.000000017635879, 10.002467, 9.997638 
1.8850705e+3, 2.757911e+2, 74010.125, -345446.8, -16625.012, 0.03281786, 0.28657648, 74668.016, 311942.28, 0.000007223604, 10.003282, 9.997692 
1.8850702e+3, 2.8578848e+2, 207219.28, -383667.6, -9560.324, 0.05464638, 0.3334568, 207373.92, 346675.25, 0.00010058898, 10.004179, 9.99633 
1.8850698e+3, 2.957856e+2, 478514.25, -180411.92, -37241.426, 0.10639175, 0.3649635, 480612.4, 521944.66, 0.00044321027, 10.005273, 9.996523 
1.8850663e+3, 3.0578247e+2, 512084.16, -158051.45, 3930.62, -0.19971834, 0.4108469, 512107.2, 512107.2, 0.0011140355, 10.005217, 9.996398 
1.885069e+3, 3.1577736e+2, 499578.66, 81159.19, 62170.69, 0.021190554, 0.20375971, 508620.84, 508620.84, 0.002010326, 10.004065, 9.998571 
1.8950611e+3, 1.2579648e+2, -2169597.3, -1653411.1, -50125.004, 0.025384521, 0.22271207, -1648588.8, 58632.164, 0.16258536, 9.995508, 10.002662 
1.8950638e+3, 1.3579687e+2, -1746501.4, -1611103.1, 63872.195, 0.20491657, 0.12140783, -1585728.0, 23489.783, 0.110513955, 9.998778, 10.000624 
1.8950643e+3, 1.4580086e+2, -1620567.8, -1615602.3, 5291.332, 0.09865043, 0.53125656, -1612240.1, -101057.734, 0.06108175, 9.9994955, 9.999554 
1.8950658e+3, 1.5579936e+2, -1699252.5, -1544146.0, 33545.95, 0.05460953, 0.35806438, -1537201.8, -123998.914, 0.024752133, 9.998052, 10.000056 
1.895068e+3, 1.6579907e+2, -1452865.0, -1376598.9, 39492.79, 0.06823044, 0.32484034, -1359833.8, -44628.39, 0.0060684755, 9.999032, 10.000078 
1.8950705e+3, 1.7580003e+2, -958081.6, -1079970.4, 66708.43, 0.12531012, 0.37504992, -928669.9, 288521.53, 0.0005270964, 10.001744, 10.000127 
1.8950705e+3, 1.857994e+2, -961447.2, -1134561.0, -9898.849, 0.036020108, 0.3542715, -960883.0, 158311.4, 0.0000013718216, 10.001494, 9.999199 
1.8950689e+3, 1.9579753e+2, -1203224.0, -1181319.3, -22530.18, -0.15116099, 0.2078725, -1167220.4, -146009.22, 0.0, 9.999094, 9.999351 
1.8950698e+3, 2.057968e+2, -1073592.1, -1068585.5, -8851.259, -0.15998738, 0.20008112, -1061890.4, -138673.1, 0.0, 9.99928, 9.999386 
1.8950725e+3, 2.1579702e+2, -658767.4, -805722.0, -14722.434, -0.03190108, 0.24577394, -657306.94, 167907.69, 0.0, 10.001427, 9.999471 
1.895073e+3, 2.2579628e+2, -569373.44, -812335.94, -104069.25, 0.0065299007, 0.2758836, -530891.9, 196330.8, 0.0, 10.001798, 9.998577 
1.8950719e+3, 2.357948e+2, -575855.8, -747112.9, -77278.9, -0.03688638, 0.23215081, -546140.2, 83098.59, 0.0, 10.001017, 9.998716 
1.8950717e+3, 2.4579376e+2, -489107.97, -670401.4, -52099.137, -0.046459444, 0.2657703, -475202.56, 56048.918, 0.0, 10.000979, 9.998607 
1.8950725e+3, 2.5579306e+2, -288559.03, -503707.47, -51375.816, -0.018783128, 0.2939615, -276920.47, 156341.16, 0.0, 10.00163, 9.99875 
1.8950728e+3, 2.6579255e+2, -82044.13, -338416.3, -30295.926, -0.02845928, 0.3650503, -78512.664, 256752.17, 0.0000000071100716, 10.002293, 9.998902 
1.8950728e+3, 2.757923e+2, 124321.21, -188711.5, 27172.21, -0.09512814, 0.40757957, 126662.336, 363924.0, 0.0000064443307, 10.00307, 9.998864 
1.8950732e+3, 2.8578943e+2, 158472.64, -437046.6, 14555.006, -0.09045624, 0.3871314, 158828.16, 298117.94, 0.0000894982, 10.003955, 9.9960785 
1.8950747e+3, 2.9578418e+2, 405912.38, -261770.77, 18842.871, 0.050226826, 0.2050673, 406443.72, 447788.6, 0.00040204544, 10.004969, 9.996114 
1.8950728e+3, 3.0578223e+2, 440414.06, -215974.7, -50819.56, -0.11657872, 0.40747654, 444325.38, 444325.38, 0.0010230613, 10.004851, 9.996163 
1.8950732e+3, 3.1577826e+2, 375434.44, -19129.605, 113723.266, -0.0073220143, 0.3254944, 405865.34, 405865.34, 0.0018604711, 10.003462, 9.998144 
1.9050585e+3, 1.2579644e+2, -1899836.9, -1406601.5, -69191.375, 0.15891257, 0.21956289, -1397079.1, 310139.94, 0.1713416, 9.996674, 10.004136 
1.90506e+3, 1.3579567e+2, -1991292.5, -1809269.3, 99277.07, 0.01987996, 0.039186902, -1765599.6, -156372.14, 0.11689223, 9.99749, 9.99985 
1.9050635e+3, 1.458004e+2, -1819065.0, -1738816.1, 39704.844, 0.15549348, 0.59022176, -1722492.0, -211306.45, 0.06499328, 9.998241, 9.999316 
1.9050652e+3, 1.557985e+2, -1484522.1, -1418527.1, 54142.414, 0.1286682, 0.35917825, -1388119.3, 25091.764, 0.026617203, 9.999411, 10.000272 
1.9050674e+3, 1.6579853e+2, -1381424.8, -1311648.6, 109354.61, 0.09131323, 0.3302051, -1231751.6, 83459.61, 0.0066676727, 9.999391, 10.000354 
1.9050702e+3, 1.7580017e+2, -1347966.1, -1238775.1, 85047.73, 0.07703739, 0.42365485, -1192307.4, 24883.625, 0.0006122247, 9.998954, 10.00037 
1.9050711e+3, 1.8579952e+2, -1217470.4, -1304775.9, -15344.769, 0.037350297, 0.41073024, -1214852.0, -95656.984, 0.0000017786746, 9.999936, 9.998789 
1.9050704e+3, 1.9579709e+2, -792406.4, -1031898.7, -19651.693, -0.05074587, 0.25188863, -790804.56, 230413.5, 0.0, 10.002118, 9.99893 
1.905071e+3, 2.0579585e+2, -703229.9, -929679.25, 30708.412, -0.09577384, 0.2346008, -699139.5, 224090.02, 0.0, 10.002019, 9.999006 
1.9050726e+3, 2.157955e+2, -833081.94, -928419.06, -6830.542, -0.10689199, 0.26261362, -832595.0, -7362.968, 0.0, 10.000403, 9.999117 
1.9050735e+3, 2.257947e+2, -794408.3, -891508.6, -90325.26, -0.0472053, 0.28937456, -740412.06, -13171.829, 0.0, 10.000113, 9.998852 
1.9050737e+3, 2.357936e+2, -582703.7, -726671.0, -81873.6, 0.042441707, 0.25563338, -545669.3, 83582.73, 0.0, 10.000853, 9.998942 
1.9050737e+3, 2.4579272e+2, -412703.16, -630620.25, 1634.3698, 0.028717104, 0.29142523, -412690.88, 118571.45, 0.0, 10.001511, 9.998608 
1.9050737e+3, 2.5579175e+2, -200677.53, -462196.84, -5.0648327, -0.0658967, 0.29629713, -200677.53, 232595.64, 0.0, 10.002237, 9.998734 
1.9050747e+3, 2.6579085e+2, -41330.51, -353871.66, -16766.684, -0.07648621, 0.3422223, -40433.613, 294846.66, 0.000000016068412, 10.002723, 9.998587 
1.905076e+3, 2.7579007e+2, 115493.055, -232208.05, -104171.87, -0.06302779, 0.36783126, 144314.14, 381597.4, 0.000006020835, 10.00314, 9.998547 
1.9050771e+3, 2.8578708e+2, 63875.703, -446760.28, -123694.39, -0.04079797, 0.33272916, 92261.04, 231573.66, 0.00007835106, 10.003147, 9.996403 
1.9050786e+3, 2.9578224e+2, 142474.02, -348724.47, -114857.32, 0.05208685, 0.15536207, 168004.25, 209367.81, 0.00035541624, 10.002989, 9.996465 
1.9050777e+3, 3.057811e+2, 323909.78, -247236.25, -107405.8, -0.039569385, 0.41514277, 343439.94, 343439.94, 0.000923281, 10.003948, 9.9963875 
1.9050786e+3, 3.1577668e+2, 662638.8, 62921.816, 18000.648, 0.09838742, 0.2759968, 663178.6, 663178.6, 0.0017138167, 10.005598, 9.9977255 
1.915056e+3, 1.2579556e+2, -1974677.5, -1525796.9, -107142.64, 0.18101576, 0.22338879, -1501534.6, 205690.6, 0.18042894, 9.996636, 10.003183 
1.915054e+3, 1.357948e+2, -1987007.5, -1800451.5, 119552.83, -0.35393965, 0.01708259, -1742092.9, -132859.23, 0.12358676, 9.9974985, 9.999902 
1.9150631e+3, 1.457982e+2, -1799063.0, -1725648.4, 73157.28, 0.23760568, 0.43915102, -1680505.8, -169301.88, 0.069141634, 9.998359, 9.9993515 
1.9150646e+3, 1.557976e+2, -1466095.1, -1379184.8, 98177.914, 0.095830776, 0.31200346, -1315274.9, 97939.92, 0.028615344, 9.999407, 10.000554 
1.9150661e+3, 1.6579793e+2, -1381608.4, -1327157.4, 76432.68, -0.009494584, 0.3047008, -1273246.1, 41967.004, 0.0073205116, 9.999455, 10.000213 
1.9150692e+3, 1.757986e+2, -1362640.9, -1262388.8, 80514.78, 0.054650903, 0.31599063, -1217671.5, -466.41116, 0.00070924795, 9.99893, 10.000216 
1.915072e+3, 1.8579829e+2, -1215788.8, -1311848.9, 55884.266, 0.09686334, 0.3482035, -1190130.8, -70923.16, 0.0000023137907, 9.999973, 9.998728 
1.9150741e+3, 1.957974e+2, -811065.7, -1051248.5, 59586.58, 0.07812651, 0.35040995, -797095.56, 224121.25, 0.0, 10.002033, 9.998839 
1.9150735e+3, 2.0579618e+2, -756956.44, -1021773.6, -40049.76, -0.06729978, 0.37237182, -751032.0, 172196.72, 0.0, 10.001924, 9.998423 
1.9150716e+3, 2.1579476e+2, -886335.1, -1010831.2, -53272.816, -0.26622242, 0.3464024, -866651.4, -41408.477, 0.0, 10.000277, 9.9986105 
1.9150728e+3, 2.257935e+2, -801648.6, -863449.3, -69633.02, -0.15276435, 0.33449447, -756367.7, -29112.719, 0.0, 9.999923, 9.999139 
1.9150761e+3, 2.3579243e+2, -589970.56, -695882.3, -42533.64, 0.1866382, 0.27677312, -575004.2, 54260.625, 0.0, 10.000666, 9.999242 
1.9150762e+3, 2.4579182e+2, -422312.88, -606664.1, 19118.781, 0.111202955, 0.31589073, -420350.97, 110917.58, 0.0, 10.001313, 9.998871 
1.9150743e+3, 2.5579154e+2, -217626.33, -456256.94, 36419.625, -0.2558689, 0.35942718, -212191.77, 221076.08, 0.0, 10.002065, 9.998856 
1.9150761e+3, 2.6578897e+2, -201252.02, -645751.1, -15456.641, -0.24960747, 0.335267, -200715.19, 134577.7, 0.000000038925435, 10.00254, 9.996676 
1.9150801e+3, 2.757846e+2, -35378.418, -495337.88, -77670.78, 0.011067409, 0.19135688, -22616.668, 214720.92, 0.0000054500297, 10.0029335, 9.996837 
1.9150816e+3, 2.857816e+2, 86510.19, -353471.56, -143845.03, 0.054079603, 0.19398963, 129364.09, 268732.75, 0.00006657065, 10.002944, 9.997145 
1.9150811e+3, 2.957796e+2, 157593.42, -257324.64, -97050.8, -0.007084888, 0.22532713, 179171.73, 220561.16, 0.00030457476, 10.002742, 9.997209 
1.9150811e+3, 3.0577937e+2, 332503.0, -169811.81, -61291.754, -0.11763317, 0.50295746, 339873.6, 339873.6, 0.00081276876, 10.003682, 9.997041 
1.9150817e+3, 3.1577483e+2, 564383.9, 14677.016, 88265.195, -0.18650188, 0.27428755, 578208.7, 578208.7, 0.0015532211, 10.004977, 9.99766 
1.925054e+3, 1.2579413e+2, -1984325.8, -1650018.0, -99960.7, 0.31135672, 0.25240263, -1622409.0, 84829.086, 0.18987963, 9.997177, 10.001906 
1.9250512e+3, 1.357937e+2, -1858483.5, -1733480.8, 56913.9, -0.4169519, 0.07099937, -1711450.4, -102205.445, 0.13060497, 9.998336, 9.999965 
1.925062e+3, 1.4579661e+2, -1762486.4, -1699834.4, 37734.164, 0.2796, 0.43582407, -1682117.6, -170899.03, 0.07352615, 9.998579, 9.999419 
1.9250633e+3, 1.5579548e+2, -1617791.3, -1444484.5, 22621.205, 0.10057236, 0.24603972, -1441580.5, -28348.834, 0.030745408, 9.998334, 10.000609 
1.925065e+3, 1.6579558e+2, -1529999.1, -1436458.3, -5248.6484, -0.013102646, 0.2343665, -1436164.6, -120931.71, 0.008026891, 9.99862, 9.999856 
1.9250686e+3, 1.7579652e+2, -1280177.6, -1260437.8, -31626.807, 0.06509241, 0.30747345, -1237176.6, -19950.637, 0.0008187495, 9.999658, 9.999885 
1.925072e+3, 1.857966e+2, -1198672.9, -1270149.8, 532.79926, 0.12706597, 0.3768318, -1198668.9, -79443.38, 0.0000031359323, 9.999952, 9.999016 
1.9250752e+3, 1.9579603e+2, -1096491.9, -1157890.8, 6354.409, 0.09677138, 0.37901813, -1095841.1, -74610.89, 0.0, 9.999938, 9.999109 
1.925075e+3, 2.0579465e+2, -1030318.75, -1178074.3, -103583.8, -0.015576814, 0.380883, -976966.3, -53722.543, 0.0, 10.00015, 9.998208 
1.925073e+3, 2.1579275e+2, -837910.6, -1008982.6, -104361.87, -0.17195937, 0.3304006, -788510.3, 36753.145, 0.0, 10.000711, 9.998413 
1.9250742e+3, 2.257915e+2, -624717.8, -790301.7, -68229.125, -0.05767486, 0.33560598, -600226.44, 127049.16, 0.0, 10.00121, 9.999012 
1.9250776e+3, 2.3579063e+2, -451379.06, -644104.9, -94622.93, 0.23006031, 0.30972266, -412689.0, 216594.4, 0.0, 10.001681, 9.999108 
1.9250782e+3, 2.4578948e+2, -329596.22, -586880.7, -47673.926, 0.14738606, 0.31274512, -321046.53, 210244.47, 0.0, 10.002046, 9.99866 
1.9250768e+3, 2.557883e+2, -177885.02, -471028.88, -86319.375, -0.21578875, 0.2905516, -154355.9, 278941.4, 0.0, 10.0024605, 9.99858 
1.9250791e+3, 2.657854e+2, -209415.94, -701223.7, -80098.234, -0.19412689, 0.273612, -196699.55, 138626.67, 0.000000047147957, 10.002713, 9.99621 
1.9250835e+3, 2.7578104e+2, -68635.49, -552734.0, -65682.67, 0.07360617, 0.17495781, -59881.926, 177491.81, 0.0000044268, 10.002884, 9.996468 
1.9250852e+3, 2.8577805e+2, 170166.6, -260035.8, -73400.375, 0.11218351, 0.17312804, 182345.27, 321749.53, 0.000054025306, 10.003315, 9.997591 
1.9250849e+3, 2.9577637e+2, 392493.47, -111024.484, -79956.445, 0.018752059, 0.20047572, 404885.25, 446304.84, 0.0002523582, 10.004196, 9.997518 
1.9250853e+3, 3.0577564e+2, 438051.75, -135748.14, -40971.16, -0.09665023, 0.4239171, 440962.44, 440962.44, 0.00069489033, 10.004473, 9.996898 
1.925087e+3, 3.157727e+2, 441279.88, -54602.316, -59570.742, -0.116607696, 0.37314776, 448335.75, 448335.75, 0.0013683981, 10.004093, 9.997643 
1.9350505e+3, 1.2579086e+2, -2066737.4, -1837719.9, -62366.97, 0.17396276, 0.18370652, -1821837.4, -114566.92, 0.1997211, 9.997303, 10.000438 
1.9350511e+3, 1.3579206e+2, -1855352.1, -1719438.1, 93604.055, -0.27991712, 0.1806851, -1671723.8, -62459.684, 0.13795441, 9.998306, 10.000076 
1.9350594e+3, 1.4579593e+2, -1738963.1, -1668183.3, 20484.066, 0.13304001, 0.61231875, -1662682.6, -151455.58, 0.07814733, 9.998648, 9.999606 
1.9350615e+3, 1.5579224e+2, -1627269.4, -1471079.1, 23241.965, 0.05304387, 0.17601569, -1467693.9, -54433.48, 0.033007, 9.998356, 10.0004225 
1.9350639e+3, 1.6579142e+2, -1555584.1, -1505460.3, 20489.879, -0.034107383, 0.11237387, -1498150.4, -182879.13, 0.008786739, 9.998686, 9.999354 
1.935068e+3, 1.7579393e+2, -1310937.1, -1323937.6, 12864.643, 0.027965605, 0.39449388, -1303023.8, -85770.19, 0.00094156526, 9.999655, 9.999454 
1.9350713e+3, 1.8579444e+2, -1146715.5, -1171717.6, -9001.0, 0.017668903, 0.4924296, -1143812.3, -24563.56, 0.0000044945964, 9.999988, 9.999677 
1.9350734e+3, 1.9579306e+2, -1062017.4, -1077106.9, 15376.83, -0.079972774, 0.35027635, -1052434.1, -31176.67, 0.0, 9.999889, 9.999694 
1.935075e+3, 2.0579126e+2, -1029749.75, -1160205.6, -94026.98, -0.05599495, 0.27371547, -980541.0, -57266.72, 0.0, 10.000075, 9.998368 
1.9350764e+3, 2.1578941e+2, -856859.0, -1009676.94, -76171.89, 0.08757026, 0.21772179, -825376.9, -82.74011, 0.0, 10.000546, 9.998488 
1.9350775e+3, 2.2578847e+2, -698327.6, -886324.3, -58793.184, 0.12317335, 0.2792381, -681455.2, 45849.273, 0.0, 10.000975, 9.998462 
1.9350779e+3, 2.3578809e+2, -517660.88, -736977.2, -67509.36, 0.07526317, 0.35874873, -498546.25, 130762.266, 0.0, 10.001499, 9.998552 
1.9350792e+3, 2.4578577e+2, -407029.6, -704743.2, -45534.098, 0.016107855, 0.3071298, -400221.03, 131107.9, 0.0, 10.001856, 9.997947 
1.9350813e+3, 2.557821e+2, -243808.11, -565985.3, -63112.71, -0.039561067, 0.10533534, -231885.86, 201474.86, 0.0, 10.002288, 9.99801 
1.9350837e+3, 2.6578006e+2, -183920.06, -592107.94, -85489.3, -0.02119303, 0.15684691, -166738.7, 168642.16, 0.00000001782158, 10.0024805, 9.997068 
1.9350863e+3, 2.7577922e+2, -47396.293, -447692.94, -46401.605, 0.029081449, 0.32092988, -42087.906, 195305.31, 0.0000033385966, 10.002648, 9.99729 
1.9350877e+3, 2.8577656e+2, 149022.4, -267158.16, -61946.785, 0.008385166, 0.30982432, 158047.22, 297466.13, 0.00004416703, 10.003138, 9.997638 
1.935089e+3, 2.957726e+2, 360562.13, -120874.49, -33778.164, -0.015703607, 0.104112945, 362920.5, 404374.5, 0.00021030295, 10.003964, 9.997559 
1.9350897e+3, 3.057702e+2, 310189.9, -332160.7, -65117.605, -0.140559, 0.21580169, 316724.66, 316724.66, 0.0005914415, 10.004178, 9.99569 
1.9350919e+3, 3.15769e+2, 350770.56, -93341.38, -70037.69, -0.052937474, 0.45209798, 361553.88, 361553.88, 0.0011864355, 10.003523, 9.997619 
1.9450477e+3, 1.2578596e+2, -2074258.1, -1956029.5, -13987.35, 0.14282939, 0.16181816, -1954397.3, -247078.36, 0.20999403, 9.997742, 9.999414 
1.9450516e+3, 1.3578773e+2, -1863373.1, -1632845.6, -7348.306, -0.037330575, 0.16157877, -1632611.6, -23304.896, 0.14565058, 9.997831, 10.000915 
1.9450565e+3, 1.4579178e+2, -1773130.0, -1663399.0, -33314.574, -0.012505148, 0.54913557, -1654076.6, -142810.1, 0.083007626, 9.9983, 9.999822 
1.9450608e+3, 1.5578848e+2, -1528509.1, -1438408.6, -58587.71, 0.113410525, 0.15727033, -1409553.3, 3741.3494, 0.03539992, 9.99908, 10.000305 
1.945064e+3, 1.657875e+2, -1479824.0, -1510002.5, -17397.67, 0.09400851, 0.09987629, -1471883.6, -156575.94, 0.009600047, 9.999376, 9.998996 
1.9450676e+3, 1.7578985e+2, -1327486.9, -1359898.9, -29731.969, 0.016174737, 0.39914513, -1309831.0, -92537.234, 0.0010784023, 9.999663, 9.999197 
1.9450709e+3, 1.8579035e+2, -1199959.5, -1161068.6, -73307.57, 0.0035866825, 0.4879858, -1104671.3, 14618.249, 0.0000066792873, 9.999471, 9.999999 
1.9450739e+3, 1.9578888e+2, -1150962.0, -1079129.1, -84797.35, 0.0037789678, 0.30488804, -1022955.5, -1657.0107, 0.0, 9.99912, 10.000045 
1.945076e+3, 2.0578755e+2, -1075218.4, -1127586.1, -136194.33, 0.052763335, 0.23491262, -962713.8, -39403.66, 0.0, 9.999537, 9.99885 
1.9450775e+3, 2.1578652e+2, -810517.7, -941584.6, -111897.82, 0.14005738, 0.21478894, -746375.56, 78946.5, 0.0, 10.000664, 9.998901 
1.9450787e+3, 2.257858e+2, -679781.1, -917087.2, -68451.44, 0.15084527, 0.2992718, -661451.94, 65878.445, 0.0, 10.001257, 9.998118 
1.9450794e+3, 2.357852e+2, -536566.75, -789204.56, -78544.18, 0.094556265, 0.3921767, -514138.7, 115198.69, 0.0, 10.001542, 9.998185 
1.9450814e+3, 2.4578257e+2, -462279.25, -789775.5, -25943.936, 0.054012943, 0.35496828, -460236.72, 71126.44, 0.0, 10.001753, 9.997408 
1.9450839e+3, 2.5577834e+2, -314085.16, -652687.1, -57192.81, 0.010269357, 0.15792872, -304685.72, 128717.7, 0.0, 10.002035, 9.997538 
1.9450864e+3, 2.657765e+2, -149913.44, -480997.97, -60064.965, 0.011343079, 0.20123231, -139353.33, 196067.95, 0.000000002142629, 10.0022955, 9.997919 
1.9450888e+3, 2.7577642e+2, 3996.544, -347708.1, -45485.535, 0.021207064, 0.36538506, 9783.901, 247205.88, 0.0000030022966, 10.002635, 9.998003 
1.9450909e+3, 2.857742e+2, 93856.55, -303443.66, -34798.52, 0.045656037, 0.37031338, 96881.44, 236324.4, 0.00003904193, 10.002795, 9.997564 
1.9450934e+3, 2.957705e+2, 206455.98, -191000.23, -55643.72, 0.09067772, 0.19635323, 214099.1, 255576.5, 0.0001845939, 10.002868, 9.997615 
1.9450939e+3, 3.0576703e+2, 241413.81, -346680.53, -756.71497, -0.10334624, 0.18710789, 241414.78, 241414.78, 0.0005147042, 10.00364, 9.99584 
1.9450961e+3, 3.1576622e+2, 642013.0, 108942.55, 34983.742, -0.06323908, 0.46716663, 644299.06, 644299.06, 0.001026342, 10.005212, 9.998217 
1.955045e+3, 1.2578025e+2, -2094435.5, -2043217.1, 265409.25, 0.048169594, 0.28320026, -1802184.5, -94809.21, 0.22070916, 9.997905, 9.998751 
1.9550523e+3, 1.3578075e+2, -1731837.3, -1414358.9, 5823.963, 0.23328003, 0.02662952, -1414252.1, 195119.78, 0.15369554, 9.997896, 10.002632 
1.9550523e+3, 1.4578417e+2, -1737784.3, -1613743.3, -11231.765, -0.2863341, 0.23627628, -1612734.5, -101397.08, 0.08810495, 9.998402, 10.000111 
1.9550608e+3, 1.5578416e+2, -1532983.4, -1455286.6, -23976.285, 0.17922133, 0.18258592, -1448483.5, -35148.973, 0.037922986, 9.9991045, 10.000179 
1.9550654e+3, 1.6578381e+2, -1479872.5, -1528945.8, -19653.701, 0.24606334, 0.20333076, -1472971.6, -157629.83, 0.010466628, 9.999454, 9.99883 
1.9550668e+3, 1.7578425e+2, -1336092.0, -1384982.6, -14347.3125, -0.05711166, 0.3280329, -1332192.6, -114846.25, 0.0012294218, 9.999682, 9.99902 
1.9550703e+3, 1.8578419e+2, -1189983.1, -1149314.8, -95851.72, -0.03741509, 0.3676674, -1071664.1, 47684.688, 0.000009908067, 9.999516, 10.000054 
1.9550757e+3, 1.9578345e+2, -1151030.4, -1067094.6, -87040.69, 0.2529989, 0.25324288, -1012432.4, 8920.729, 0.0, 9.999071, 10.000151 
1.9550772e+3, 2.0578335e+2, -1036663.0, -1021647.2, -103894.336, 0.20110774, 0.2589688, -924989.8, -1636.6267, 0.0, 9.999425, 9.99963 
1.9550759e+3, 2.1578395e+2, -782294.9, -844171.2, -63485.48, -0.101149976, 0.32023326, -742610.25, 82737.945, 0.0, 10.000504, 9.999642 
1.955078e+3, 2.2578342e+2, -713880.5, -947554.1, -65472.457, -0.08157071, 0.3928398, -696786.44, 30568.096, 0.0, 10.001074, 9.998002 
1.9550821e+3, 2.3578201e+2, -572257.9, -821305.94, -58384.25, 0.1877438, 0.41628045, -559250.25, 70119.305, 0.0, 10.001372, 9.998041 
1.955084e+3, 2.4577978e+2, -529233.1, -880450.1, -24331.09, 0.13153039, 0.45630315, -527555.56, 3838.808, 0.0, 10.001541, 9.996888 
1.9550844e+3, 2.5577694e+2, -367312.22, -720272.94, -34604.516, -0.15550804, 0.44347504, -363951.56, 69475.29, 0.0, 10.0018635, 9.997148 
1.9550867e+3, 2.6577476e+2, -119665.49, -379387.03, -57431.945, -0.20193838, 0.42720112, -107532.44, 227914.17, 0.00000003752054, 10.002116, 9.998712 
1.9550908e+3, 2.757729e+2, 28421.021, -255818.7, -20599.064, -0.058339592, 0.32921684, 29906.094, 267364.9, 0.0000033251551, 10.0024605, 9.998718 
1.9550943e+3, 2.8577125e+2, 26789.014, -380220.66, -46957.625, 0.08227492, 0.3812411, 32136.367, 171610.73, 0.000036409245, 10.002527, 9.997165 
1.9550978e+3, 2.9577017e+2, 162710.22, -220680.42, -32482.752, 0.22882125, 0.50386506, 165442.83, 206931.2, 0.00016708692, 10.002621, 9.997522 
1.9550975e+3, 3.0576634e+2, 298242.8, -169574.34, 30655.508, -0.14840542, 0.38372317, 300243.06, 300243.06, 0.00045037686, 10.003366, 9.997198 
1.9551004e+3, 3.1576368e+2, 663637.1, 273489.13, 166307.1, -0.19511113, 0.34471458, 724906.44, 724906.44, 0.00087174913, 10.004742, 9.999556 
1.965042e+3, 1.2577245e+2, -2213875.5, -2155124.3, 204550.17, -0.020901699, 0.36407325, -1977851.0, -270395.13, 0.23177752, 9.997386, 9.998196 
1.9650514e+3, 1.3577448e+2, -1600800.6, -1179829.8, -57264.023, 0.35327277, 0.07950411, -1172179.3, 437256.38, 0.1620495, 9.997928, 10.004526 
1.9650505e+3, 1.457782e+2, -1757813.1, -1590215.5, -74029.375, -0.28091183, 0.2077117, -1562199.4, -50802.113, 0.093428105, 9.998157, 10.000367 
1.9650596e+3, 1.5577917e+2, -1614579.6, -1464520.5, -89761.375, 0.1944803, 0.23127642, -1422560.6, -9175.711, 0.04057487, 9.99845, 10.000404 
1.965065e+3, 1.6577898e+2, -1586086.0, -1520410.9, -40734.445, 0.32200482, 0.22418371, -1500926.4, -185537.69, 0.011385711, 9.99846, 9.999371 
1.9650665e+3, 1.7577873e+2, -1508239.6, -1410883.6, 1861.6344, 0.025331594, 0.22791028, -1410848.1, -193451.8, 0.0013940044, 9.998259, 9.999529 
1.9650698e+3, 1.857791e+2, -1330467.5, -1214092.6, -34342.023, 0.023942739, 0.2828468, -1204714.1, -85319.11, 0.000014255441, 9.99853, 10.000087 
1.9650751e+3, 1.9577959e+2, -1108716.4, -1047167.3, -42946.88, 0.2862231, 0.28840253, -1025107.1, -3716.761, 0.0, 9.999354, 10.000152 
1.965077e+3, 2.0577969e+2, -993881.75, -1025562.8, -69984.91, 0.23048948, 0.32509223, -937967.06, -14577.089, 0.0, 9.999814, 9.999417 
1.9650762e+3, 2.157796e+2, -861851.44, -906026.5, -120919.1, -0.08813148, 0.33830702, -761019.1, 64372.86, 0.0, 10.000037, 9.99945 
1.9650792e+3, 2.2577882e+2, -705058.56, -920433.94, -115032.01, -0.060215395, 0.38523868, -655174.06, 72226.65, 0.0, 10.00105, 9.998198 
1.9650844e+3, 2.3577741e+2, -352008.3, -698237.44, -112037.99, 0.20544271, 0.3935305, -318916.28, 310499.34, 0.0, 10.002797, 9.998204 
1.9650865e+3, 2.457756e+2, -324801.0, -759129.25, -70800.87, 0.1554738, 0.45496762, -313551.0, 217886.2, 0.0, 10.002829, 9.997107 
1.9650862e+3, 2.5577363e+2, -393956.22, -711767.9, -46555.44, -0.14077371, 0.51155555, -387276.8, 46185.355, 0.0, 10.0015745, 9.99735 
1.9650887e+3, 2.6577157e+2, -208820.02, -391194.75, -15728.62, -0.17307447, 0.48703834, -207473.47, 128006.49, 0.00000006167767, 10.001381, 9.998983 
1.9650933e+3, 2.7576926e+2, -19739.105, -254917.81, -47866.42, -0.02268222, 0.31843334, -10370.0, 227124.56, 0.000003603985, 10.002042, 9.998918 
1.965097e+3, 2.8576732e+2, 46716.45, -421926.03, -64098.31, 0.09115676, 0.35542622, 55325.316, 194838.69, 0.00003430298, 10.002892, 9.996696 
1.9651003e+3, 2.957662e+2, 325599.2, -191474.42, -91556.875, 0.16712254, 0.5325473, 341332.22, 382861.66, 0.00015136057, 10.003939, 9.9971 
1.9651006e+3, 3.0576286e+2, 424655.8, 3009.746, -47911.03, -0.17790794, 0.42422774, 430031.34, 430031.34, 0.0003913985, 10.003745, 9.998212 
1.9651036e+3, 3.1576014e+2, 302990.47, 48623.8, 8648.778, -0.21817179, 0.29830167, 303284.2, 303284.2, 0.0007265236, 10.002425, 9.999155 
1.9750386e+3, 1.2576371e+2, -2220900.5, -2228067.8, -110073.22, -0.15051146, 0.47441506, -2114352.8, -406803.2, 0.24301729, 9.997605, 9.997609 
1.975048e+3, 1.3576894e+2, -1488737.9, -962507.44, -29636.514, 0.20035566, 0.3077835, -960843.6, 648653.56, 0.17062773, 9.997975, 10.006347 
1.9750509e+3, 1.4577386e+2, -1728467.0, -1555559.1, -78811.945, -0.10447047, 0.4576778, -1525027.6, -13581.527, 0.09895461, 9.998252, 10.000567 
1.9750571e+3, 1.5577336e+2, -1574528.6, -1395566.8, -73136.33, 0.069744885, 0.29676256, -1369480.5, 43966.453, 0.04335473, 9.998495, 10.0008745 
1.9750626e+3, 1.657728e+2, -1479012.3, -1311788.0, -58184.258, 0.2077414, 0.15817256, -1293535.5, 21914.322, 0.012356995, 9.998527, 10.000769 
1.9750665e+3, 1.757732e+2, -1419490.4, -1226860.3, 3750.7803, 0.1777204, 0.0951497, -1226787.3, -9342.813, 0.0015709848, 9.998265, 10.000787 
1.9750693e+3, 1.857749e+2, -1326738.6, -1212812.6, -15182.212, 0.08717647, 0.22385938, -1210824.1, -91394.37, 0.000019593592, 9.998555, 10.000087 
1.9750719e+3, 1.9577712e+2, -1123439.3, -1063430.8, -5255.967, 0.009142496, 0.40321136, -1062973.9, -41561.75, 0.0, 9.999297, 10.000067 
1.975075e+3, 2.057764e+2, -1095511.4, -1210776.5, -68672.766, 0.02115643, 0.4271937, -1063492.1, -140069.88, 0.0, 9.999706, 9.998196 
1.9750781e+3, 2.1577367e+2, -961312.44, -1076669.5, -100435.63, 0.0847817, 0.29822844, -903171.6, -77720.22, 0.0, 9.999886, 9.998348 
1.9750819e+3, 2.2577214e+2, -706120.6, -880147.56, -59494.67, 0.093922384, 0.29974678, -687725.56, 39742.113, 0.0, 10.0008545, 9.998572 
1.9750859e+3, 2.3577136e+2, -344904.06, -647881.1, -43118.586, 0.07278817, 0.32925993, -338887.06, 290588.84, 0.0, 10.002637, 9.99863 
1.9750881e+3, 2.4577007e+2, -292629.06, -647955.5, -127721.03, 0.025273195, 0.3741238, -251484.42, 280006.3, 0.0, 10.002631, 9.997969 
1.975089e+3, 2.557685e+2, -359091.1, -606262.8, -78978.01, -0.03838898, 0.38365805, -336010.7, 97498.5, 0.0, 10.001431, 9.998143 
1.9750918e+3, 2.6576698e+2, -267640.78, -462560.22, -3767.6697, -0.035922382, 0.3958808, -267567.97, 67953.74, 0.000000055759365, 10.001164, 9.998594 
1.975096e+3, 2.7576548e+2, -71512.53, -315753.84, -10069.425, 0.025454205, 0.3410252, -71098.1, 166431.78, 0.0000036492006, 10.001853, 9.99858 
1.9750988e+3, 2.8576255e+2, -29816.447, -538362.06, -40987.125, -0.042425394, 0.32780448, -26534.201, 113024.26, 0.00003270768, 10.002693, 9.996002 
1.975101e+3, 2.9575863e+2, 259096.97, -288219.4, -36493.816, -0.20414859, 0.28819585, 261519.56, 303120.47, 0.00013942833, 10.00376, 9.996521 
1.9751027e+3, 3.0575663e+2, 376917.94, 1415.8452, -114771.54, -0.35933873, 0.33142683, 409219.06, 409219.06, 0.00034788088, 10.00335, 9.998384 
1.9751078e+3, 3.1575498e+2, 91149.08, -263900.28, 56029.813, -0.08110285, 0.2925013, 99781.195, 99781.195, 0.00061971706, 10.001922, 9.9972315 
1.9850378e+3, 1.2575866e+2, -1998538.5, -2019535.9, -41321.145, -0.06633484, 0.4751909, -1966403.1, -258800.97, 0.25424254, 9.998674, 9.998545 
1.9850455e+3, 1.3576335e+2, -1520991.4, -1090105.5, 70258.805, 0.15083843, 0.356733, -1078938.8, 530616.75, 0.17932345, 9.998263, 10.005204 
1.9850501e+3, 1.4576784e+2, -1774122.4, -1523535.6, -41545.258, 0.030916344, 0.5006674, -1516827.4, -5318.8887, 0.104643695, 9.997711, 10.001052 
1.985055e+3, 1.557677e+2, -1653454.1, -1357617.4, -27624.646, 0.057909835, 0.31017599, -1355060.0, 58445.043, 0.046255346, 9.997626, 10.001568 
1.9850604e+3, 1.6576767e+2, -1533328.1, -1290547.4, -18179.338, 0.16878149, 0.16820697, -1289193.6, 26307.441, 0.013380272, 9.997954, 10.001185 
1.9850653e+3, 1.7576845e+2, -1309426.5, -1134652.3, -43182.63, 0.20980774, 0.10107575, -1124565.0, 92924.87, 0.0017591557, 9.998852, 10.001139 
1.9850683e+3, 1.8577015e+2, -1252158.3, -1203938.4, -82144.98, 0.10712201, 0.2282833, -1142438.3, -22963.182, 0.0000256483, 9.999172, 9.999851 
1.9850703e+3, 1.9577213e+2, -1145558.0, -1099100.6, -106156.32, -0.07617146, 0.40361434, -1013661.25, 7800.5933, 0.0, 9.999233, 9.999858 
1.9850741e+3, 2.0577116e+2, -1047520.5, -1167852.6, -86952.664, -0.04342847, 0.40337676, -1001947.7, -78474.12, 0.0, 9.999956, 9.998372 
1.985079e+3, 2.1576817e+2, -741055.0, -955111.6, -37870.766, 0.12602986, 0.23347446, -734552.5, 90949.9, 0.0, 10.001336, 9.998486 
1.9850832e+3, 2.2576676e+2, -622110.75, -844578.75, 35412.563, 0.12988527, 0.2444319, -616609.75, 110908.234, 0.0, 10.001456, 9.998522 
1.985087e+3, 2.357664e+2, -638078.75, -790663.5, -2416.454, 0.007069398, 0.3230618, -638040.5, -8515.342, 0.0, 10.000634, 9.998607 
1.9850896e+3, 2.457655e+2, -492632.7, -679264.25, -111807.91, -0.008112718, 0.3789082, -440315.9, 91220.15, 0.0, 10.001008, 9.99852 
1.9850916e+3, 2.5576416e+2, -188086.81, -473606.03, -110268.92, 0.033670478, 0.35764363, -150459.22, 283090.8, 0.0, 10.002398, 9.998589 
1.9850945e+3, 2.6576263e+2, -47461.906, -400504.97, -22854.252, 0.057827897, 0.37239543, -45988.582, 289574.28, 0.00000004684117, 10.002865, 9.998201 
1.9850986e+3, 2.757611e+2, 17755.557, -318909.7, -57467.367, 0.06321306, 0.36048952, 27294.713, 264868.53, 0.000003631824, 10.00265, 9.998182 
1.9851017e+3, 2.85758e+2, -1248.1694, -492096.8, -13316.158, -0.0338695, 0.33796638, -887.1828, 138716.42, 0.000030883682, 10.002768, 9.996274 
1.9851041e+3, 2.9575357e+2, 182721.55, -308014.34, 15239.753, -0.22140053, 0.22226524, 183194.36, 224843.22, 0.00012822116, 10.003185, 9.99665 
1.985107e+3, 3.057518e+2, 348912.88, -40663.87, -86006.33, -0.2458368, 0.2997931, 367055.47, 367055.47, 0.00031412422, 10.003253, 9.998137 
1.985111e+3, 3.157493e+2, 209925.95, -235541.33, -12906.233, 0.0085983155, 0.19919343, 210299.58, 210299.58, 0.00054942287, 10.002809, 9.997005 
1.9950369e+3, 1.2575747e+2, -1806221.6, -1638731.4, -343891.03, -0.07997354, 0.3725646, -1368535.4, 339076.47, 0.26535824, 9.998816, 10.00162 
1.9950436e+3, 1.3575783e+2, -1789279.0, -1595435.1, 61577.867, 0.104321435, 0.22982208, -1577528.1, 32081.385, 0.18805622, 9.998327, 10.00097 
1.995048e+3, 1.4576006e+2, -1701612.0, -1418595.0, -55906.58, -0.0014102827, 0.3317584, -1407951.6, 103633.63, 0.11045076, 9.99785, 10.001795 
1.995053e+3, 1.5576209e+2, -1584248.5, -1227938.1, -20439.19, 0.06683364, 0.2606151, -1226769.5, 186790.61, 0.04926506, 9.997661, 10.002488 
1.995058e+3, 1.6576345e+2, -1561149.8, -1364652.0, 3266.6736, 0.10167973, 0.24560243, -1364597.6, -49054.06, 0.014456319, 9.99802, 10.000644 
1.9950627e+3, 1.7576434e+2, -1343062.5, -1208947.9, -8547.963, 0.04276095, 0.240277, -1208405.3, 9128.291, 0.0019582892, 9.998867, 10.00062 
1.9950666e+3, 1.8576476e+2, -1279401.3, -1268675.6, -87335.92, -0.019494954, 0.28646287, -1186538.1, -67005.71, 0.000032105352, 9.999212, 9.999388 
1.99507e+3, 1.9576465e+2, -1172793.3, -1142347.9, -92279.6, -0.053129207, 0.30054808, -1064043.8, -42504.465, 0.0, 9.999186, 9.99958 
1.9950742e+3, 2.0576403e+2, -958720.3, -961141.06, -46562.484, -0.0600843, 0.26497763, -913352.5, 10191.182, 0.0, 9.999853, 9.999843 
1.9950789e+3, 2.1576297e+2, -668708.75, -772406.2, 17045.605, -0.04559876, 0.14248645, -665978.7, 159567.58, 0.0, 10.001196, 9.999807 
1.995083e+3, 2.2576256e+2, -686443.06, -934870.94, -1719.8751, -0.060246427, 0.21894458, -686431.1, 41121.773, 0.0, 10.001267, 9.997993 
1.9950868e+3, 2.3576258e+2, -694129.56, -870386.94, -14453.833, -0.08365058, 0.38476613, -692952.1, -63389.113, 0.0, 10.000474, 9.998136 
1.9950902e+3, 2.4576178e+2, -519467.44, -683415.8, -71113.28, -0.068310514, 0.46741128, -492920.34, 38654.03, 0.0, 10.000781, 9.998605 
1.9950937e+3, 2.5576046e+2, -204787.81, -470756.2, -53859.492, -0.009102496, 0.43415138, -194295.05, 239290.84, 0.0, 10.002236, 9.998684 
1.9950972e+3, 2.6575848e+2, -116361.55, -492210.25, -41671.117, 0.008814092, 0.42395994, -111796.83, 223807.44, 0.000000042002604, 10.002647, 9.997677 
1.9951007e+3, 2.757561e+2, -41513.53, -392516.03, -50569.926, -0.006194366, 0.3790937, -34373.04, 203253.8, 0.0000035134383, 10.002452, 9.997766 
1.9951047e+3, 2.8575355e+2, 23258.299, -387543.75, -10919.184, -0.03352352, 0.38334203, 23548.328, 163199.14, 0.00002820436, 10.002532, 9.9971075 
1.9951095e+3, 2.9575062e+2, 198753.88, -225215.88, 45469.008, -0.033319592, 0.32366332, 203575.4, 245252.77, 0.00011358975, 10.002965, 9.997324 
1.995113e+3, 3.057481e+2, 225024.84, -192035.66, -117057.57, -0.0088824835, 0.34367707, 255633.34, 255633.34, 0.00027761376, 10.002823, 9.9972925 
1.9951113e+3, 3.157442e+2, 208556.34, -123297.46, -29561.152, -0.29157668, 0.1512042, 211169.05, 211169.05, 0.0004898738, 10.002354, 9.997972 
2.005036e+3, 1.2575659e+2, -1901704.3, -1536919.0, -332525.8, 0.04402629, 0.3508892, -1340048.6, 367569.13, 0.27641812, 9.997313, 10.003221 
2.0050417e+3, 1.3575426e+2, -1912675.3, -1917832.3, 148083.55, 0.06796534, 0.16401078, -1767147.8, -157505.56, 0.1968332, 9.998632, 9.998556 
2.0050457e+3, 1.4575581e+2, -1607941.3, -1424025.0, 66259.59, -0.0438734, 0.3465569, -1402640.3, 108985.445, 0.11636926, 9.998729, 10.0013275 
2.0050515e+3, 1.557575e+2, -1481220.3, -1230296.8, -13375.291, 0.11733348, 0.28084657, -1229585.9, 184019.92, 0.05238356, 9.998582, 10.00203 
2.0050567e+3, 1.6575864e+2, -1473415.9, -1353454.9, 25394.83, 0.13466954, 0.27953663, -1348300.5, -32707.854, 0.015589432, 9.998749, 10.000375 
2.0050614e+3, 1.7575943e+2, -1269759.3, -1199587.8, 17083.18, -0.004535398, 0.28571537, -1195649.9, 21934.078, 0.0021699998, 9.999472, 10.000397 
2.005066e+3, 1.8575956e+2, -1219964.6, -1240011.9, -44678.9, -0.005485816, 0.31569555, -1184198.8, -64613.43, 0.00003871999, 9.999641, 9.999367 
2.0050707e+3, 1.9575916e+2, -1099653.3, -1109684.4, -36287.074, 0.08530968, 0.30389526, -1068036.8, -46442.266, 0.0, 9.999714, 9.999544 
2.005075e+3, 2.0575869e+2, -918707.44, -904156.4, 20834.367, 0.04549785, 0.26940852, -889363.75, 34232.5, 0.0, 9.999966, 10.000178 
2.0050791e+3, 2.1575816e+2, -757174.6, -781028.56, -18847.494, -0.10556716, 0.1633145, -746797.3, 78795.445, 0.0, 10.000437, 10.000116 
2.0050833e+3, 2.257579e+2, -769216.06, -990554.8, -84872.74, -0.13875921, 0.2491926, -740418.25, -12820.218, 0.0, 10.000779, 9.997844 
2.0050874e+3, 2.357578e+2, -608579.2, -840457.2, -91059.555, -0.09724312, 0.42152286, -577094.7, 52515.484, 0.0, 10.00113, 9.998021 
2.0050918e+3, 2.4575678e+2, -388616.47, -605197.75, -72611.625, -0.019534903, 0.47787297, -366525.72, 165097.52, 0.0, 10.00158, 9.99877 
2.0050965e+3, 2.55755e+2, -223505.67, -467328.75, -72066.555, 0.07583914, 0.38841423, -203797.97, 229839.23, 0.0, 10.002032, 9.998812 
2.0051004e+3, 2.6575333e+2, -145450.58, -513535.7, -49228.74, 0.07430531, 0.40298745, -138980.31, 196673.47, 0.000000029896977, 10.002482, 9.9976015 
2.0051032e+3, 2.757515e+2, 44402.887, -358855.6, -52150.6, -0.019285457, 0.4205018, 51037.984, 288712.1, 0.0000031274246, 10.003057, 9.99771 
2.0051076e+3, 2.857494e+2, 117493.484, -246515.45, 8419.867, -0.0075074197, 0.4332043, 117688.14, 257381.19, 0.000025154262, 10.002763, 9.997972 
2.0051128e+3, 2.9574716e+2, 59513.63, -222707.98, 22852.482, 0.078132875, 0.36372325, 61352.098, 103063.51, 0.00009776422, 10.001709, 9.997949 
2.0051172e+3, 3.0574426e+2, 168850.84, -300483.4, -52951.188, 0.14184247, 0.3595941, 174750.73, 174750.73, 0.0002403355, 10.002759, 9.996603 
2.005116e+3, 3.1573936e+2, 659985.06, 147073.88, -103377.32, -0.18230334, 0.13920988, 680036.9, 680036.9, 0.00043342356, 10.0051985, 9.998491 
2.0150349e+3, 1.2575506e+2, -1898007.4, -1563640.4, 6866.6646, 0.12299317, 0.33178237, -1563499.4, 144129.28, 0.28771394, 9.997372, 10.002678 
2.0150396e+3, 1.3575235e+2, -1933987.4, -1968276.3, 170957.08, -0.03381487, 0.14903389, -1779317.1, -169660.97, 0.20582092, 9.998657, 9.998205 
2.015043e+3, 1.457551e+2, -1709848.4, -1645616.6, 53811.668, -0.21705034, 0.54786885, -1615065.8, -103435.55, 0.12247417, 9.998807, 9.999683 
2.0150504e+3, 1.5575388e+2, -1601961.5, -1475218.1, -13790.971, 0.10930605, 0.37585884, -1473734.9, -60092.297, 0.055639356, 9.998602, 10.000269 
2.015056e+3, 1.6575326e+2, -1455396.4, -1337969.0, 40948.06, 0.14793588, 0.28014767, -1325100.4, -9452.772, 0.016791714, 9.998839, 10.000442 
2.0150611e+3, 1.7575368e+2, -1261298.8, -1181488.9, 48851.49, -0.008551512, 0.24235426, -1158315.5, 59325.957, 0.0023981123, 9.99947, 10.000524 
2.0150666e+3, 1.8575454e+2, -1189752.3, -1190289.4, -57268.867, 0.04098965, 0.31887704, -1132751.4, -13116.823, 0.000045425786, 9.999687, 9.999692 
2.0150723e+3, 1.957555e+2, -1090913.3, -1080703.5, -28028.705, 0.24285789, 0.41532224, -1057318.6, -35689.68, 0.0, 9.999668, 9.999765 
2.0150763e+3, 2.0575516e+2, -985130.7, -1015664.94, 28639.066, 0.15362419, 0.42001763, -967943.5, -44311.805, 0.0, 9.999855, 9.999466 
2.0150794e+3, 2.1575376e+2, -831134.9, -894001.75, 7246.5103, -0.13686839, 0.30593178, -830310.4, -4669.1484, 0.0, 10.00027, 9.99942 
2.0150834e+3, 2.2575268e+2, -792203.2, -992994.0, -80795.39, -0.21501946, 0.33979785, -763729.94, -36076.082, 0.0, 10.000571, 9.997932 
2.0150883e+3, 2.357519e+2, -616481.25, -830491.2, -66904.02, -0.1214067, 0.43045115, -597287.1, 32381.105, 0.0, 10.001003, 9.998157 
2.015094e+3, 2.4575025e+2, -404067.1, -583550.2, -60521.383, 0.014030183, 0.40329546, -385566.4, 146118.4, 0.0, 10.001359, 9.999021 
2.0150998e+3, 2.5574788e+2, -233553.27, -444922.6, -44806.992, 0.18995515, 0.23073415, -224447.19, 209256.44, 0.0, 10.001862, 9.9990425 
2.0151037e+3, 2.6574698e+2, -157456.1, -493701.63, -36525.98, 0.12887448, 0.30250287, -153534.06, 182179.39, 0.0000000091701935, 10.002286, 9.997836 
2.015106e+3, 2.7574718e+2, 39838.508, -324253.38, -19629.434, -0.08139674, 0.49666733, 40893.74, 278609.84, 0.0000023642951, 10.002869, 9.998038 
2.0151095e+3, 2.8574586e+2, 123671.305, -171587.81, -47022.34, -0.10976211, 0.52613115, 130979.11, 270708.4, 0.000021595964, 10.002502, 9.998606 
2.015114e+3, 2.9574296e+2, 72002.195, -166697.22, 6694.145, -0.004517986, 0.3303787, 72189.78, 113943.38, 0.000083873885, 10.001564, 9.998406 
2.0151192e+3, 3.0573985e+2, 56172.82, -445892.16, 28918.16, 0.02679095, 0.33016708, 57832.97, 57832.97, 0.00020822523, 10.002409, 9.995756 
2.0151228e+3, 3.1573656e+2, 578719.4, 150843.61, -85057.62, -0.069241874, 0.33574256, 595007.94, 595007.94, 0.0003832048, 10.00453, 9.998802 
2.0250326e+3, 1.2574893e+2, -1894230.4, -1639515.6, -67131.695, 0.15373228, 0.37431666, -1622905.8, 84782.56, 0.29983783, 9.99787, 10.001739 
2.0250383e+3, 1.357458e+2, -1928625.8, -1864803.0, -113691.72, 0.0022752862, 0.076460786, -1778629.0, -168908.42, 0.21537028, 9.998265, 9.999095 
2.0250419e+3, 1.4575101e+2, -1675847.3, -1641951.9, -128583.61, -0.22365658, 0.66993135, -1529203.9, -17533.828, 0.12892798, 9.999088, 9.999578 
2.025049e+3, 1.5574788e+2, -1566415.6, -1507519.6, -117192.375, 0.118760854, 0.35043478, -1416132.0, -2431.0242, 0.05909158, 9.999059, 9.999829 
2.0250553e+3, 1.6574645e+2, -1427001.0, -1324406.6, 20752.795, 0.18678686, 0.19573276, -1320367.8, -4653.531, 0.018083457, 9.999056, 10.000418 
2.0250611e+3, 1.7574757e+2, -1252389.5, -1177874.3, 3910.8926, 0.06198899, 0.2343176, -1177669.5, 40031.75, 0.0026487417, 9.999564, 10.00049 
2.0250668e+3, 1.8574879e+2, -1140165.3, -1147487.0, -109215.336, 0.09923464, 0.33935657, -1034549.5, 85140.47, 0.000052423693, 9.999939, 9.999864 
2.025072e+3, 1.9574952e+2, -977330.7, -1018232.7, -106172.21, 0.22419658, 0.39624524, -889657.8, 132026.83, 0.0, 10.000395, 9.999849 
2.0250766e+3, 2.0574905e+2, -911254.6, -1039431.6, -26175.314, 0.1630249, 0.41263607, -906115.4, 17574.818, 0.0, 10.000626, 9.998924 
2.0250806e+3, 2.1574768e+2, -783748.44, -922053.8, -53625.785, -0.049089283, 0.3525984, -765392.2, 60311.633, 0.0, 10.000814, 9.99896 
2.0250851e+3, 2.257465e+2, -679376.25, -835853.3, -81513.87, -0.12154679, 0.34556982, -644629.06, 83086.55, 0.0, 10.000907, 9.998842 
2.0250894e+3, 2.3574549e+2, -562359.9, -712125.6, -24684.09, -0.10372183, 0.32535687, -558396.4, 71329.086, 0.0, 10.000981, 9.998972 
2.0250954e+3, 2.457441e+2, -414986.44, -615936.1, 12509.802, 0.020054484, 0.2996058, -414210.66, 117527.914, 0.0, 10.001417, 9.99876 
2.025102e+3, 2.5574225e+2, -201581.34, -456371.84, -29212.857, 0.19930558, 0.2078182, -198274.88, 235480.63, 0.0, 10.0022, 9.998798 
2.025106e+3, 2.6574138e+2, -125833.03, -425508.7, -28899.016, 0.13507462, 0.26605612, -123071.62, 212693.75, 0.000000001074916, 10.002268, 9.998321 
2.0251079e+3, 2.7574134e+2, -100055.086, -339428.78, -20530.203, -0.10876802, 0.389629, -98307.05, 139461.45, 0.0000018159459, 10.001698, 9.998492 
2.0251119e+3, 2.857403e+2, 55396.105, -214590.22, -48232.52, -0.082712136, 0.43463692, 63754.016, 203533.64, 0.000018189116, 10.002055, 9.9985285 
2.0251173e+3, 2.9573822e+2, 298436.5, -41016.69, -71123.836, 0.10462413, 0.32631084, 312736.28, 354535.78, 0.000072171526, 10.003063, 9.998537 
2.025122e+3, 3.0573642e+2, 343812.13, -245865.44, 84876.086, 0.009954157, 0.41008404, 355785.78, 355785.78, 0.00017992307, 10.004056, 9.996372 
2.0251279e+3, 3.1573412e+2, 550666.25, 58229.555, -68950.91, -0.003094161, 0.48587495, 560138.56, 560138.56, 0.0003355793, 10.004607, 9.998161 
2.0350297e+3, 1.2573798e+2, -1970743.3, -1810900.9, -39956.266, -0.010768435, 0.43823665, -1801469.4, -93670.3, 0.3135409, 9.998029, 10.000262 
2.0350373e+3, 1.3573436e+2, -1769540.5, -1564503.9, -54392.332, 0.039349165, -0.06661226, -1550968.3, 58868.984, 0.22593072, 9.998323, 10.001243 
2.0350417e+3, 1.4574343e+2, -1560152.0, -1441856.5, -124680.34, -0.19096905, 0.71148145, -1363005.5, 148741.42, 0.13594478, 9.999242, 10.000994 
2.0350479e+3, 1.5573949e+2, -1497366.8, -1371144.6, -114172.516, 0.06128469, 0.20811708, -1303801.3, 109979.9, 0.06282382, 9.999088, 10.000782 
2.0350541e+3, 1.6573812e+2, -1428395.1, -1347957.4, 23397.643, 0.124561094, 0.023224112, -1341646.6, -25853.672, 0.019494196, 9.999137, 10.000219 
2.0350616e+3, 1.7574105e+2, -1254561.6, -1194572.0, 29588.09, 0.110929154, 0.25599235, -1182434.4, 35330.12, 0.0029308582, 9.999607, 10.000356 
2.0350666e+3, 1.8574229e+2, -1131775.6, -1143295.4, -98217.414, 0.054386005, 0.3680732, -1039149.3, 80602.65, 0.00006041413, 9.999995, 9.999869 
2.0350699e+3, 1.9574131e+2, -985448.5, -1023577.8, -81579.48, -0.0481924, 0.2553977, -920735.6, 101025.44, 0.0, 10.000348, 9.999837 
2.0350754e+3, 2.0574042e+2, -952837.1, -1103542.4, -29774.055, -0.048646763, 0.2501214, -947168.06, -23396.293, 0.0, 10.000532, 9.9985285 
2.0350827e+3, 2.1573983e+2, -818175.94, -960239.7, -38278.594, 0.062037382, 0.30669525, -808518.44, 17262.49, 0.0, 10.0006695, 9.998768 
2.0350875e+3, 2.2573926e+2, -595892.56, -601302.2, -85624.72, 0.017077658, 0.27538538, -512929.94, 214853.56, 0.0, 10.000654, 10.00057 
2.0350903e+3, 2.3573855e+2, -485275.25, -507611.7, -8016.915, -0.13141619, 0.113424264, -482695.75, 147086.73, 0.0, 10.000799, 10.00046 
2.0350955e+3, 2.4573815e+2, -504986.34, -754519.6, 32674.914, -0.118632376, 0.16421017, -500778.72, 31007.854, 0.0, 10.001207, 9.997912 
2.0351025e+3, 2.5573802e+2, -269709.97, -568950.06, 5795.8076, 0.022306245, 0.32170355, -269597.75, 164196.64, 0.0, 10.002067, 9.998095 
2.0351067e+3, 2.6573643e+2, -117166.81, -347299.03, -58742.605, -0.035438277, 0.3074827, -103039.64, 232770.95, 0.000000023664393, 10.002027, 9.998964 
2.0351088e+3, 2.7573362e+2, -85689.63, -274910.56, -26499.03, -0.20924927, 0.08603568, -82048.69, 155785.63, 0.0000019634658, 10.00155, 9.999005 
2.0351145e+3, 2.857324e+2, -41372.855, -350029.66, -25033.824, -0.057771087, 0.13659376, -39355.652, 100492.35, 0.000016146072, 10.001786, 9.997725 
2.0351225e+3, 2.9573283e+2, 244953.36, -106471.09, -14832.717, 0.2964874, 0.3484801, 245578.3, 287428.72, 0.00006227005, 10.002855, 9.998194 
2.035125e+3, 3.0573374e+2, 391746.88, -20002.191, 91559.555, -0.12816782, 0.613388, 411188.72, 411188.72, 0.00015436458, 10.003551, 9.998144 
2.0351322e+3, 3.157288e+2, 379289.6, -149456.23, 34613.395, -0.07762467, 0.26515216, 381545.84, 381545.84, 0.00029086813, 10.004027, 9.996982 
2.0450282e+3, 1.2572908e+2, -1839582.6, -1870903.1, 31569.195, -0.012500692, 0.5003519, -1820002.9, -112112.72, 0.3294151, 9.999456, 9.999182 
2.0450373e+3, 1.3572587e+2, -1731778.0, -1418552.6, 67055.23, 0.24638999, -0.098853156, -1404801.1, 205120.4, 0.23787552, 9.997874, 10.002774 
2.0450413e+3, 1.4573598e+2, -1732494.3, -1491037.3, -30064.203, -0.09351818, 0.69388384, -1487350.3, 24470.066, 0.14372098, 9.997916, 10.0012045 
2.0450471e+3, 1.5573235e+2, -1408628.6, -1313694.9, -104639.34, 0.055398457, 0.2050576, -1246259.6, 167592.2, 0.06692591, 9.999629, 10.000938 
2.0450537e+3, 1.657311e+2, -1287732.4, -1282352.0, 4551.626, 0.1322092, 0.024757242, -1279755.0, 36107.277, 0.021061258, 10.000117, 10.000199 
2.0450616e+3, 1.7573395e+2, -1216812.4, -1187707.5, -1443.7604, 0.15317906, 0.2555678, -1187636.0, 30198.422, 0.003256253, 9.999912, 10.000258 
2.045067e+3, 1.8573503e+2, -1123716.5, -1156911.6, -107456.14, 0.07545717, 0.36583114, -1031583.6, 88239.84, 0.00007088071, 10.000137, 9.999704 
2.0450698e+3, 1.9573382e+2, -921425.5, -1005195.6, -123931.586, -0.1070742, 0.24351141, -832492.44, 189342.4, 0.0, 10.000859, 9.999707 
2.0450756e+3, 2.0573275e+2, -940587.75, -1069724.8, -68399.18, -0.076200694, 0.21580116, -911094.9, 12751.579, 0.0, 10.000487, 9.998793 
2.0450833e+3, 2.1573217e+2, -981082.56, -1005035.1, -47128.43, 0.1192401, 0.24600683, -944432.5, -118578.086, 0.0, 9.999418, 9.9990635 
2.0450886e+3, 2.2573203e+2, -735004.2, -661588.75, -86577.81, 0.105274916, 0.23953125, -604258.3, 123594.63, 0.0, 9.99966, 10.000642 
2.0450917e+3, 2.3573183e+2, -463507.84, -488975.2, -148137.03, -0.08214098, 0.12374397, -327558.22, 302289.53, 0.0, 10.000904, 10.000541 
2.0450968e+3, 2.457316e+2, -455857.6, -700490.06, -101965.4, -0.12048705, 0.17514844, -418931.25, 112918.51, 0.0, 10.001402, 9.998192 
2.0451035e+3, 2.5573155e+2, -358706.75, -578973.94, -66175.56, -0.06422907, 0.3129579, -340354.5, 93501.15, 0.0, 10.001319, 9.998379 
2.0451078e+3, 2.6573008e+2, -149788.88, -367184.13, -109525.58, -0.10976515, 0.29839376, -104178.28, 231691.89, 0.00000011200642, 10.001795, 9.998947 
2.0451109e+3, 2.757274e+2, 76639.95, -203411.39, -149998.83, -0.20768271, 0.09387332, 141813.78, 379706.6, 0.000002326167, 10.002686, 9.998953 
2.0451175e+3, 2.857258e+2, 110612.93, -318260.66, -121271.875, 0.005338615, 0.12468926, 142529.56, 282440.4, 0.000014696717, 10.002997, 9.997363 
2.0451261e+3, 2.9572535e+2, 204920.78, -155488.03, -120270.84, 0.37686852, 0.29507652, 241369.8, 283291.78, 0.00005375532, 10.002717, 9.997921 
2.0451273e+3, 3.057266e+2, 339372.22, 21903.65, -21416.125, -0.19366285, 0.5729343, 340810.44, 340810.44, 0.00013253847, 10.0028925, 9.998739 
2.0451362e+3, 3.1572142e+2, 434921.53, -22818.764, -152222.27, -0.063947484, 0.15244593, 480920.75, 480920.75, 0.00025389736, 10.003922, 9.997911 
2.0550276e+3, 1.2572315e+2, -1885314.0, -1991091.8, -295471.78, -0.088626385, 0.62087995, -1638034.9, 69917.586, 0.3476065, 9.99967, 9.998375 
2.055038e+3, 1.3572095e+2, -1666450.9, -1329479.8, 35717.777, 0.5110575, 0.014993599, -1325735.4, 284232.5, 0.2513395, 9.997923, 10.003585 
2.0550396e+3, 1.457286e+2, -1794822.1, -1637291.8, 20497.943, -0.093972616, 0.59609526, -1634668.3, -122777.56, 0.15236652, 9.998005, 10.00013 
2.0550464e+3, 1.5572657e+2, -1441588.9, -1393517.5, -37215.59, -0.010276066, 0.33787727, -1373250.8, 40661.105, 0.071473114, 9.999673, 10.00033 
2.0550537e+3, 1.6572551e+2, -1276783.3, -1283041.8, -13949.394, 0.090768084, 0.20437868, -1265616.4, 50304.855, 0.022826005, 10.000213, 10.0001545 
2.0550613e+3, 1.7572632e+2, -1226205.4, -1206837.5, -1116.8497, 0.10971366, 0.24249585, -1206773.3, 11137.823, 0.0036400491, 9.999908, 10.000131 
2.0550668e+3, 1.8572687e+2, -1142045.6, -1208528.4, -88716.71, 0.03948953, 0.3264277, -1080547.1, 39358.613, 0.00008593674, 10.000185, 9.999332 
2.0550716e+3, 1.9572677e+2, -938601.25, -1040586.2, -94524.57, -0.057003226, 0.34778225, -882192.0, 139716.22, 0.0, 10.000844, 9.999479 
2.0550767e+3, 2.0572586e+2, -891494.2, -948886.94, -116979.445, -0.047117107, 0.29906353, -799742.75, 124173.23, 0.0, 10.000407, 9.9996605 
2.0550823e+3, 2.157245e+2, -952080.1, -916923.9, -70891.26, 0.03964669, 0.16417007, -861463.9, -35537.668, 0.0, 9.999292, 9.99973 
2.0550877e+3, 2.2572438e+2, -879477.9, -905806.9, -47990.35, 0.02213033, 0.21473819, -842879.1, -114951.54, 0.0, 9.999431, 9.999071 
2.055093e+3, 2.3572512e+2, -582905.1, -693239.6, -94544.39, -0.054747533, 0.34524965, -528609.75, 101313.45, 0.0, 10.000722, 9.999224 
2.0550986e+3, 2.4572441e+2, -400701.8, -518954.9, -114797.53, -0.11215064, 0.33392727, -330698.88, 201229.9, 0.0, 10.001128, 9.999565 
2.0551041e+3, 2.557227e+2, -301121.25, -414392.44, -56196.95, -0.15344356, 0.16969809, -277971.6, 155969.81, 0.0, 10.00114, 9.999591 
2.0551088e+3, 2.6572216e+2, -231809.42, -481344.53, -85567.72, -0.20370391, 0.22806606, -205286.61, 130659.73, 0.00000017468948, 10.001557, 9.998277 
2.0551138e+3, 2.757225e+2, 6508.3613, -310472.78, -105633.17, -0.2144047, 0.39293662, 38484.66, 276430.63, 0.0000023499456, 10.002512, 9.998303 
2.0551203e+3, 2.8572023e+2, 46514.633, -368520.66, -141877.03, -0.041469403, 0.39689687, 90378.5, 230348.52, 0.000012296112, 10.002661, 9.997173 
2.0551275e+3, 2.9571572e+2, 155417.39, -212617.63, -113257.14, 0.2180855, 0.16783577, 187477.7, 229492.63, 0.000044415407, 10.002525, 9.997617 
2.055129e+3, 3.0571416e+2, 214835.25, -125885.18, -18692.447, -0.37383974, 0.22498353, 215857.69, 215857.69, 0.00011238554, 10.002447, 9.997926 
2.0551398e+3, 3.157128e+2, 500823.47, 272537.1, 68235.74, -0.13629031, 0.2288609, 519664.44, 519664.44, 0.00022330374, 10.0032625, 10.000252 
2.0650283e+3, 1.2571734e+2, -1745047.9, -1825252.8, -124089.21, 0.0024380605, 0.5562729, -1654742.0, 53267.875, 0.36771804, 10.000224, 9.999188 
2.0650373e+3, 1.3571525e+2, -1443885.1, -1330440.4, -13871.734, 0.53106433, 0.046522934, -1328768.8, 281253.9, 0.26616043, 10.000404, 10.002419 
2.0650381e+3, 1.4572124e+2, -1637020.4, -1641996.1, 5007.486, -0.10544937, 0.5645979, -1633916.8, -121954.12, 0.1618756, 9.99942, 9.999419 
2.0650464e+3, 1.5571955e+2, -1415052.6, -1422715.8, -42893.79, 0.017127836, 0.38479182, -1375819.6, 38163.215, 0.07651462, 10.000047, 9.999942 
2.0650542e+3, 1.6571887e+2, -1306080.3, -1309845.0, -48127.418, 0.114517786, 0.31089768, -1259798.4, 56191.08, 0.024829434, 10.000071, 10.000032 
2.0650603e+3, 1.7571917e+2, -1295770.9, -1253214.8, -54355.457, 0.040539037, 0.311995, -1216121.0, 1862.8447, 0.0041003036, 9.999495, 10.000004 
2.0650664e+3, 1.8571925e+2, -1269899.4, -1260308.0, -72608.734, 0.005234207, 0.35238728, -1192336.8, -72353.875, 0.000108260756, 9.999278, 9.999403 
2.0650725e+3, 1.9571911e+2, -1104079.1, -1105413.4, -68455.38, 0.03318347, 0.3592244, -1036287.7, -14301.771, 0.0, 9.999656, 9.999599 
2.0650776e+3, 2.0571853e+2, -920400.94, -948767.3, -120822.86, 0.03554802, 0.33012652, -812931.6, 111058.32, 0.0, 10.000146, 9.999781 
2.0650816e+3, 2.157176e+2, -727737.8, -801570.9, -146530.7, -0.01633855, 0.22791281, -613544.9, 212450.28, 0.0, 10.000806, 9.999788 
2.0650871e+3, 2.2571728e+2, -719572.25, -876549.8, -59941.74, -0.019106593, 0.27750927, -699301.25, 28698.135, 0.0, 10.000711, 9.998669 
2.0650943e+3, 2.3571736e+2, -714149.5, -794996.3, -38456.62, 0.024101786, 0.38521615, -698778.94, -68775.945, 0.0, 9.999984, 9.998884 
2.0651004e+3, 2.4571647e+2, -469337.1, -525171.8, -35068.39, -0.014684619, 0.35554636, -452430.7, 79579.7, 0.0, 10.000535, 9.999811 
2.0651054e+3, 2.5571465e+2, -149904.44, -317383.1, -83909.75, -0.14791706, 0.15789236, -115097.9, 318924.13, 0.0, 10.002072, 9.999807 
2.0651108e+3, 2.6571414e+2, -184136.61, -505030.63, -151205.47, -0.17699757, 0.22820333, -124115.17, 211911.58, 0.00000012472299, 10.002088, 9.997856 
2.0651165e+3, 2.7571464e+2, -242828.08, -472023.4, -170129.72, -0.10963984, 0.45579717, -152299.58, 85726.37, 0.0000018192295, 10.000985, 9.997924 
2.065123e+3, 2.857121e+2, -75278.0, -417493.72, -123428.945, 0.022172604, 0.4463845, -35405.754, 104645.44, 0.000008845643, 10.00177, 9.997273 
2.0651294e+3, 2.957068e+2, 335444.3, -135188.67, -128802.79, 0.11476245, 0.13672923, 368388.9, 410489.7, 0.000033872344, 10.003804, 9.997536 
2.0651317e+3, 3.05704e+2, 332873.1, -140069.33, -44840.18, -0.36619148, 0.10823472, 337086.9, 337086.9, 0.00009226444, 10.003505, 9.997355 
2.0651428e+3, 3.157036e+2, 260663.13, 158648.97, 61642.93, -0.060345065, 0.26494512, 289665.88, 289665.88, 0.00019349625, 10.001554, 10.000325 
2.0750293e+3, 1.2571155e+2, -1595642.6, -1523657.5, 130695.27, -0.00739864, 0.29798755, -1424089.3, 283973.88, 0.38886976, 10.000282, 10.001947 
2.0750347e+3, 1.357085e+2, -1597959.3, -1684309.1, -62828.973, 0.17154156, -0.019379895, -1564900.6, 45187.62, 0.28190908, 10.00054, 9.999267 
2.0750366e+3, 1.4571369e+2, -1645340.9, -1681297.0, -5214.066, -0.25240904, 0.6007659, -1644600.0, -132562.48, 0.17213808, 9.999512, 9.999108 
2.0750469e+3, 1.5571114e+2, -1415956.3, -1434180.0, -13379.306, 0.033279855, 0.34835273, -1408880.8, 5185.453, 0.08207624, 10.000085, 9.999833 
2.0750542e+3, 1.6571097e+2, -1304549.4, -1323282.8, -79066.91, 0.07474461, 0.33420548, -1234296.3, 81772.84, 0.027111659, 10.000142, 9.999908 
2.075058e+3, 1.7571244e+2, -1296162.0, -1259687.9, -69436.79, -0.14072795, 0.46197206, -1206133.1, 11920.373, 0.0046569863, 9.999518, 9.9999485 
2.0750645e+3, 1.8571219e+2, -1225838.9, -1188958.3, -67567.695, -0.13233994, 0.4488555, -1137359.8, -17304.69, 0.00014131474, 9.999362, 9.999853 
2.075073e+3, 1.957107e+2, -1085019.4, -1058423.4, -47682.965, 0.08372847, 0.2793368, -1022218.8, -149.57225, 0.0000000002137382, 9.999621, 9.999941 
2.0750783e+3, 2.057105e+2, -979206.25, -1046506.1, -105739.086, 0.059289746, 0.30381587, -901891.94, 22179.025, 0.0, 10.000039, 9.99916 
2.0750813e+3, 2.1571119e+2, -784612.94, -887075.94, -115028.74, -0.14397277, 0.4239573, -709922.7, 116141.08, 0.0, 10.000659, 9.999272 
2.075087e+3, 2.2571045e+2, -705336.94, -786365.25, -91269.29, -0.12863947, 0.41386592, -645993.75, 82076.51, 0.0, 10.000464, 9.999398 
2.0750947e+3, 2.3570856e+2, -698536.06, -720789.06, -48060.688, 0.06623995, 0.2511644, -660330.7, -30243.28, 0.0, 9.999816, 9.99947 
2.0751016e+3, 2.4570757e+2, -565321.9, -671296.2, 16351.295, 0.04084523, 0.2331195, -562856.3, -30760.035, 0.0, 10.000311, 9.998912 
2.0751077e+3, 2.557072e+2, -234418.42, -452292.47, -23565.633, -0.14964852, 0.27108705, -231898.67, 202200.42, 0.0, 10.001901, 9.9989605 
2.0751135e+3, 2.6570588e+2, -241008.6, -558010.0, -204860.64, -0.15737656, 0.311001, -140491.25, 195620.89, 0.000000021824269, 10.001818, 9.99762 
2.0751187e+3, 2.757037e+2, -277207.63, -502603.72, -188956.81, 0.002049791, 0.28844023, -169893.11, 68240.78, 0.00000084431264, 10.000824, 9.997787 
2.0751253e+3, 2.8570107e+2, -99424.53, -403564.9, -60033.68, 0.035942454, 0.26289952, -88003.484, 52154.645, 0.000005133315, 10.001499, 9.997497 
2.0751318e+3, 2.956982e+2, 306740.75, -154697.19, -48941.16, -0.06315505, 0.1726156, 311874.44, 354058.7, 0.000023723636, 10.00361, 9.997502 
2.0751357e+3, 3.0569607e+2, 206639.14, -255704.98, -140928.17, -0.3506432, 0.25349832, 246209.16, 246209.16, 0.00007269625, 10.0029335, 9.996808 
2.0751436e+3, 3.1569472e+2, -14074.547, -222966.28, 66646.62, -0.18680209, 0.3423229, 5377.5703, 5377.5703, 0.0001604348, 10.000837, 9.998005 
2.0850283e+3, 1.2570542e+2, -1912937.4, -1589417.3, 176574.63, 0.035324752, 0.35094175, -1511709.3, 196415.03, 0.40993002, 9.997309, 10.002907 
2.0850354e+3, 1.3570252e+2, -1769100.8, -1925458.0, -201855.16, 0.22343259, 0.18043575, -1630813.6, -20662.334, 0.29801235, 9.999933, 9.997882 
2.085037e+3, 1.457045e+2, -1456510.3, -1578920.4, -53265.93, -0.2233859, 0.5411805, -1436577.6, 75554.66, 0.18298064, 10.000914, 9.999139 
2.0850463e+3, 1.5570234e+2, -1423954.4, -1447968.8, -77311.836, -0.023827288, 0.33051753, -1357722.9, 56432.082, 0.088167645, 10.0000925, 9.999755 
2.0850535e+3, 1.657024e+2, -1368442.3, -1354859.5, -119986.02, 0.020588266, 0.35107833, -1241472.9, 74681.52, 0.029713616, 9.999694, 9.999919 
2.0850584e+3, 1.757036e+2, -1215297.5, -1214250.5, -119501.875, -0.1104509, 0.44508904, -1095270.9, 122870.734, 0.005333032, 10.000036, 10.00002 
2.085065e+3, 1.8570356e+2, -1135334.9, -1148000.3, -109068.53, -0.06043243, 0.44966266, -1032415.3, 87726.71, 0.00018960002, 9.999994, 9.999839 
2.085073e+3, 1.957028e+2, -1042889.2, -1038361.56, -137216.83, 0.11938158, 0.35530794, -903389.9, 118760.805, 0.000000020895914, 9.999912, 9.999941 
2.0850784e+3, 2.0570272e+2, -1009751.9, -1016827.9, -150515.11, 0.08695445, 0.37371027, -862733.2, 61417.86, 0.0, 9.999658, 9.999545 
2.0850815e+3, 2.1570311e+2, -934084.0, -912629.0, -105669.09, -0.1153041, 0.42420968, -817144.25, 9001.556, 0.0, 9.999447, 9.999675 
2.0850874e+3, 2.2570246e+2, -756009.1, -792123.94, -55892.098, -0.100910544, 0.39611262, -715329.9, 12820.136, 0.0, 10.000021, 9.999584 
2.0850952e+3, 2.3570096e+2, -485644.44, -604689.25, -70178.21, 0.066257596, 0.25338635, -453145.66, 177016.45, 0.0, 10.001199, 9.999613 
2.0851025e+3, 2.4570021e+2, -489865.16, -711626.06, 8926.041, 0.057653755, 0.28844553, -489506.47, 42663.688, 0.0, 10.001155, 9.99823 
2.0851094e+3, 2.5569993e+2, -516370.78, -661356.3, -31021.158, -0.09827499, 0.40479708, -510012.34, -75836.086, 0.0, 10.000267, 9.998318 
2.0851152e+3, 2.65698e+2, -328257.63, -559596.25, -155184.73, -0.10287896, 0.39536792, -250376.69, 85817.75, 0.0, 10.001041, 9.997982 
2.0851207e+3, 2.7569467e+2, 71812.305, -301698.56, -123728.016, -0.00450483, 0.22486554, 109079.664, 347302.56, 0.000000115745564, 10.003081, 9.998078 
2.0851274e+3, 2.8569207e+2, 159748.16, -314656.94, 19244.072, 0.027476054, 0.20464037, 160527.52, 300774.3, 0.0000020138657, 10.003422, 9.99718 
2.085135e+3, 2.956902e+2, 110342.414, -270676.72, -44254.816, -0.031806268, 0.25267366, 115415.016, 157680.86, 0.000014504671, 10.002374, 9.99729 
2.0851396e+3, 3.0568877e+2, 178296.44, -233635.03, -105037.59, -0.2054233, 0.38728273, 203533.6, 203533.6, 0.000053401807, 10.002535, 9.997172 
2.085145e+3, 3.156867e+2, 345400.22, -75591.86, 28018.344, -0.24458596, 0.38809386, 347256.75, 347256.75, 0.00012548068, 10.003308, 9.997868 
2.095024e+3, 1.2569644e+2, -1975447.9, -1702384.4, 235845.08, -0.20739125, 0.5002179, -1566402.3, 141815.83, 0.42994058, 9.997428, 10.001846 
2.095039e+3, 1.3569725e+2, -1714901.8, -1816480.8, -95063.445, 0.5661755, 0.6580416, -1657910.8, -47698.176, 0.31401625, 9.999961, 9.998615 
2.0950389e+3, 1.4569354e+2, -1428372.9, -1534398.0, -84872.89, -0.1638956, 0.38539615, -1381316.8, 130931.4, 0.19429262, 10.001014, 9.999444 
2.0950444e+3, 1.5569298e+2, -1418643.5, -1452516.6, -99233.94, -0.25795105, 0.33459935, -1334911.1, 79339.07, 0.094824284, 10.00016, 9.999704 
2.0950516e+3, 1.6569316e+2, -1340255.8, -1326163.4, -120038.4, -0.17914762, 0.36431643, -1212964.5, 103281.25, 0.032688897, 9.999821, 10.000059 
2.09506e+3, 1.7569274e+2, -1199039.5, -1188532.3, -103358.875, 0.03872138, 0.27730897, -1090293.6, 127954.29, 0.0061590113, 10.000064, 10.000186 
2.0950669e+3, 1.8569341e+2, -1159241.3, -1210556.3, -123655.875, 0.09870704, 0.36749482, -1058609.1, 61634.484, 0.00026052183, 10.000048, 9.999383 
2.0950726e+3, 1.9569537e+2, -1074023.1, -1094769.1, -133557.97, 0.04524199, 0.5928359, -950435.94, 71794.35, 0.00000016154512, 9.999878, 9.999569 
2.0950773e+3, 2.0569523e+2, -933159.4, -835866.06, -168402.83, 0.0038384048, 0.5525276, -709224.3, 215005.81, 0.0, 9.999564, 10.00083 
2.0950823e+3, 2.1569331e+2, -875219.9, -755106.1, -102536.914, -0.018053599, 0.24560107, -696332.7, 129908.86, 0.0, 9.999299, 10.000823 
2.095088e+3, 2.2569318e+2, -810489.25, -854581.8, -19325.143, -0.04862954, 0.22981782, -803218.3, -74978.26, 0.0, 9.999803, 9.99926 
2.0950949e+3, 2.356944e+2, -536746.94, -666266.3, -21448.955, -0.07478983, 0.39349914, -533287.3, 96941.195, 0.0, 10.00101, 9.999281 
2.0951022e+3, 2.456942e+2, -560400.9, -797102.44, -33228.83, -0.09297361, 0.52229166, -555824.56, -23590.61, 0.0, 10.000892, 9.99777 
2.0951098e+3, 2.556927e+2, -563783.6, -728528.25, -45265.195, -0.08714807, 0.56098896, -552165.9, -117911.47, 0.0, 10.000129, 9.997926 
2.0951162e+3, 2.6569024e+2, -303747.06, -453444.9, -86174.82, -0.14678895, 0.47438508, -264453.72, 71821.83, 0.0, 10.000814, 9.998816 
2.0951216e+3, 2.7568716e+2, 88132.125, -219575.42, -41563.133, -0.23207842, 0.24655034, 93647.35, 331943.9, 0.0, 10.002877, 9.998739 
2.0951296e+3, 2.8568482e+2, 36233.316, -476260.1, -32253.068, -0.1381478, 0.27011752, 38255.145, 178574.64, 0.00000039293647, 10.003023, 9.996261 
2.0951389e+3, 2.9568297e+2, 38352.71, -361327.22, -56062.426, 0.087647885, 0.3978115, 46067.574, 88412.38, 0.000007667558, 10.002126, 9.996783 
2.095143e+3, 3.0568063e+2, 159685.78, -121346.51, -83332.36, -0.16559465, 0.40113232, 182537.53, 182537.53, 0.000037309004, 10.001941, 9.998209 
2.0951468e+3, 3.1567836e+2, 390237.8, 228574.44, 16470.846, -0.4575683, 0.29504147, 391898.84, 391898.84, 0.00009604867, 10.002494, 10.000313 
2.1050219e+3, 1.2568508e+2, -1822528.8, -1649015.3, 162817.7, -0.21426389, 0.47866738, -1551282.6, 157050.5, 0.44859928, 9.998565, 10.001753 
2.1050395e+3, 1.3568892e+2, -1608581.3, -1631525.6, -4905.646, 0.63648427, 0.812105, -1607576.4, 2722.6052, 0.3298663, 10.00011, 9.999826 
2.1050395e+3, 1.4568427e+2, -1453691.6, -1503410.3, -74323.586, -0.17025132, 0.3613408, -1400180.1, 112163.02, 0.20615475, 10.000609, 9.999855 
2.1050444e+3, 1.5568522e+2, -1422338.0, -1408887.8, -83337.9, -0.24955964, 0.41605246, -1332004.0, 82324.42, 0.10215144, 9.999954, 10.000092 
2.1050516e+3, 1.6568542e+2, -1348578.4, -1332085.6, -32029.307, -0.1571614, 0.42998815, -1307258.3, 9064.551, 0.036114734, 9.999765, 10.0000305 
2.1050605e+3, 1.7568415e+2, -1160850.5, -1169124.3, -45420.64, 0.08126879, 0.26244193, -1119378.8, 98953.83, 0.007176738, 10.000322, 10.000191 
2.1050674e+3, 1.8568474e+2, -1142105.4, -1163541.8, -57466.363, 0.153747, 0.3220069, -1094366.3, 25962.115, 0.0003661867, 10.000004, 9.999725 
2.105072e+3, 1.9568683e+2, -1149528.9, -1093399.1, -25105.531, 0.06265265, 0.5298347, -1083808.6, -61496.574, 0.00000091193453, 9.9992075, 9.999898 
2.1050769e+3, 2.0568718e+2, -966152.2, -849665.6, -40876.824, 0.026739381, 0.5185381, -836752.75, 87554.74, 0.0, 9.999285, 10.000885 
2.1050823e+3, 2.1568592e+2, -750807.75, -698936.6, -78575.65, 0.027125614, 0.27173266, -642126.9, 184187.64, 0.0, 10.000131, 10.00083 
2.1050887e+3, 2.2568576e+2, -716065.8, -843837.94, -60.310596, -0.0067865094, 0.27591833, -716065.8, 12248.269, 0.0, 10.000625, 9.998919 
2.105096e+3, 2.3568639e+2, -553673.8, -705225.7, -30355.58, -0.08853686, 0.4110434, -547819.75, 82489.13, 0.0, 10.001039, 9.998982 
2.1051033e+3, 2.4568579e+2, -519721.1, -735816.9, -42875.0, -0.079708874, 0.49652857, -511525.22, 20791.627, 0.0, 10.000989, 9.99815 
2.1051109e+3, 2.5568417e+2, -481591.2, -647883.1, -5967.4434, -0.018832034, 0.48810172, -481377.3, -47041.5, 0.0, 10.000534, 9.998278 
2.1051174e+3, 2.6568207e+2, -335651.88, -506983.75, 19680.648, -0.0889196, 0.43547523, -333420.25, 2934.1423, 0.0, 10.000731, 9.998502 
2.1051233e+3, 2.7567956e+2, -146919.22, -367549.66, -45109.777, -0.26249045, 0.3015666, -138052.47, 100320.44, 0.0, 10.001391, 9.998447 
2.1051319e+3, 2.8567758e+2, -124103.945, -516906.16, -58310.49, -0.14279473, 0.35765052, -115630.68, 24763.3, 0.00000006547354, 10.001785, 9.996565 
2.1051416e+3, 2.9567567e+2, 38477.855, -335085.3, -41921.79, 0.1587125, 0.46251526, 43124.58, 85544.445, 0.000004738257, 10.00203, 9.997007 
2.1051455e+3, 3.0567318e+2, 220891.47, -77552.91, -23618.053, -0.11179708, 0.4297152, 222748.97, 222748.97, 0.00002905632, 10.00225, 9.998374 
2.1051496e+3, 3.1567052e+2, 344110.4, 221158.28, -102022.21, -0.3885895, 0.2781378, 401747.06, 401747.06, 0.00007990105, 10.002069, 10.000478 
2.1150227e+3, 1.2567173e+2, -1737344.1, -1578748.5, -30705.188, -0.07260202, 0.2799602, -1573011.3, 135454.27, 0.46656317, 9.998657, 10.002329 
2.1150368e+3, 1.3567743e+2, -1532595.6, -1476032.0, 43633.49, 0.31044158, 0.6195651, -1452316.3, 158095.28, 0.34608045, 10.000175, 10.00134 
2.1150386e+3, 1.4567648e+2, -1418552.1, -1460199.4, -90402.44, -0.37401918, 0.45790032, -1346606.0, 165813.06, 0.21890919, 10.000773, 10.000133 
2.1150461e+3, 1.5567888e+2, -1349604.6, -1287542.4, -96942.78, -0.109677985, 0.57721525, -1216785.3, 197605.73, 0.110347085, 10.000061, 10.000949 
2.1150528e+3, 1.6567907e+2, -1342964.6, -1338315.5, -23690.682, -0.045559935, 0.5450735, -1316835.6, -449.42365, 0.040102176, 9.999846, 9.999944 
2.1150596e+3, 1.7567785e+2, -1170363.1, -1192006.5, -21369.275, -0.07198567, 0.40272143, -1157231.6, 61164.426, 0.008443992, 10.000337, 10.000024 
2.1150659e+3, 1.8567733e+2, -1061422.1, -1006784.6, -99181.24, -0.015061702, 0.3042422, -931228.56, 189169.7, 0.00052604213, 10.000049, 10.000779 
2.1150717e+3, 1.9567709e+2, -1092530.1, -963603.75, -45721.56, 0.07841517, 0.17291869, -949035.5, 73361.62, 0.0000034897541, 9.99916, 10.00081 
2.1150766e+3, 2.0567837e+2, -1060896.0, -1018923.1, -18688.057, 0.03705332, 0.27191398, -1011808.44, -87423.125, 0.0, 9.999169, 9.99978 
2.1150815e+3, 2.1568081e+2, -849648.3, -862744.3, -41521.9, -0.0688674, 0.50423586, -814161.25, 12204.337, 0.0, 9.999971, 9.999774 
2.1150886e+3, 2.2568011e+2, -781209.2, -923783.3, 10288.707, -0.100708015, 0.5257379, -780470.5, -52097.332, 0.0, 10.000384, 9.998485 
2.1150973e+3, 2.3567685e+2, -602194.94, -769270.0, -4669.2, -0.06563698, 0.317302, -602064.56, 28339.293, 0.0, 10.000878, 9.998621 
2.115105e+3, 2.4567495e+2, -475281.38, -585056.1, -67559.22, -0.040215455, 0.22757067, -443123.53, 89295.94, 0.0, 10.000745, 9.999294 
2.1151118e+3, 2.5567418e+2, -436060.78, -518665.66, -12258.706, 0.008112761, 0.18553133, -434279.97, 143.00584, 0.0, 10.000393, 9.999226 
2.1151187e+3, 2.6567322e+2, -477706.44, -737371.06, 37588.035, -0.062316626, 0.28002256, -472374.8, -135941.28, 0.0, 10.000462, 9.9970455 
2.1151255e+3, 2.7567184e+2, -250201.13, -550364.25, -5265.8716, -0.21395633, 0.39654097, -250108.77, -11656.85, 0.0, 10.001252, 9.997257 
2.1151336e+3, 2.8566986e+2, -89573.69, -374999.03, -61135.33, -0.17922297, 0.44503486, -77030.33, 63444.277, 0.00000005479561, 10.001488, 9.99768 
2.1151428e+3, 2.9566777e+2, 59258.387, -244707.89, -7753.563, 0.045893352, 0.4134044, 59456.035, 101953.13, 0.0000044706885, 10.001813, 9.997737 
2.1151462e+3, 3.0566615e+2, 48246.67, -241718.38, -48272.96, -0.2962267, 0.488829, 56071.906, 56071.906, 0.000027145721, 10.001478, 9.997586 
2.1151535e+3, 3.1566316e+2, 36914.336, -226862.33, 22310.57, -0.24617153, 0.34501317, 38788.082, 38788.082, 0.00007500409, 10.001316, 9.997739 
2.1250239e+3, 1.2566513e+2, -1857611.5, -1770296.5, -341186.66, 0.15553865, 0.63673156, -1469985.5, 238553.9, 0.48543465, 9.999106, 10.000905 
2.125035e+3, 1.3566871e+2, -1653708.1, -1462419.9, 130830.35, 0.18224657, 0.61353105, -1396001.1, 214497.61, 0.3637423, 9.998838, 10.002222 
2.1250388e+3, 1.4566767e+2, -1540601.1, -1513379.6, -72359.68, -0.3565447, 0.40626335, -1453361.8, 59142.246, 0.23315269, 9.999733, 10.000226 
2.1250473e+3, 1.5567021e+2, -1401115.6, -1288892.0, -130672.61, 0.024836065, 0.5167083, -1202793.1, 211681.28, 0.1197026, 9.999555, 10.001239 
2.1250537e+3, 1.6567087e+2, -1396377.1, -1362240.1, -35616.44, 0.083543375, 0.5142443, -1339813.5, -23347.504, 0.044803485, 9.99946, 9.999979 
2.1250594e+3, 1.7567052e+2, -1239122.8, -1233001.1, -35523.266, -0.11290619, 0.46520334, -1200407.0, 18062.22, 0.01004214, 9.999886, 9.999967 
2.1250655e+3, 1.8567008e+2, -1082301.8, -1013059.3, -169494.67, -0.064439625, 0.3759807, -874686.06, 245785.14, 0.0007722133, 9.999872, 10.000817 
2.1250717e+3, 1.9566917e+2, -1004524.56, -919085.1, -202623.45, 0.13960674, 0.17063923, -754727.0, 267749.13, 0.000010944595, 9.999739, 10.000837 
2.1250771e+3, 2.0567034e+2, -937305.9, -967496.94, -105739.29, 0.120069385, 0.2629703, -845590.0, 78875.4, 0.0, 10.000089, 9.999675 
2.1250817e+3, 2.1567306e+2, -705392.2, -800303.2, -80963.57, -0.088095926, 0.5373019, -659001.44, 167441.81, 0.0, 10.001016, 9.999687 
2.1250893e+3, 2.2567247e+2, -631725.56, -828755.0, 24688.338, -0.097803205, 0.5577464, -628679.1, 99770.57, 0.0, 10.001294, 9.998713 
2.1250992e+3, 2.356692e+2, -568444.4, -726812.4, 43540.645, 0.011154925, 0.32753026, -557263.06, 73216.18, 0.0, 10.001007, 9.998851 
2.1251068e+3, 2.4566706e+2, -447389.94, -605571.8, -44795.434, 0.04619311, 0.21669346, -435585.28, 96911.875, 0.0, 10.001085, 9.99899 
2.1251129e+3, 2.556657e+2, -293718.2, -482063.63, -116467.42, 0.017191712, 0.15489642, -238113.86, 196393.1, 0.0, 10.001501, 9.998952 
2.1251202e+3, 2.65665e+2, -261923.58, -580165.25, -4643.2695, -0.027845243, 0.2652011, -261855.84, 74659.2, 0.0, 10.001732, 9.997503 
2.1251279e+3, 2.756644e+2, -148695.73, -451600.9, 54441.656, -0.11205716, 0.4187314, -139208.03, 99317.9, 0.0, 10.001764, 9.997682 
2.125136e+3, 2.8566265e+2, -70981.83, -361391.5, 20750.71, -0.08461524, 0.46794775, -69506.62, 71039.46, 0.000000117451826, 10.001573, 9.997753 
2.125144e+3, 2.956604e+2, -29118.615, -284178.7, -32174.809, 0.038977165, 0.42386937, -25122.5, 17447.063, 0.0000050467984, 10.001193, 9.997766 
2.1251485e+3, 3.056588e+2, 24985.473, -328349.75, -46602.887, -0.21330796, 0.5267951, 31028.764, 31028.764, 0.00002697455, 10.001557, 9.9970045 
2.125157e+3, 3.156559e+2, 113395.836, -194335.16, -17626.088, -0.046207707, 0.46486944, 114402.125, 114402.125, 0.00007158717, 10.001765, 9.997799 
2.1350338e+3, 1.3566275e+2, -1648133.3, -1450396.5, 163152.67, 0.15482263, 0.8325726, -1358493.4, 252067.47, 0.38411817, 9.998868, 10.002421 
2.13504e+3, 1.4565788e+2, -1536123.9, -1525210.8, -84302.34, -0.2671924, 0.23159179, -1446188.6, 66408.83, 0.24951555, 9.999847, 10.00009 
2.1350476e+3, 1.5565924e+2, -1407369.0, -1314639.6, -134226.34, 0.055781245, 0.24273263, -1218995.9, 195582.77, 0.13052814, 9.999623, 10.001019 
2.1350537e+3, 1.6566058e+2, -1374770.9, -1347079.4, -33594.617, 0.10413122, 0.31766477, -1324589.1, -8024.333, 0.050404422, 9.999581, 10.000027 
2.1350594e+3, 1.7566203e+2, -1235097.3, -1227115.3, -16289.5205, -0.13497956, 0.4389407, -1214335.0, 4218.47, 0.012084308, 9.999897, 10.0 
2.1350652e+3, 1.8566287e+2, -1140229.1, -1150060.0, -180754.17, -0.11642131, 0.5283516, -964323.56, 156224.4, 0.001155736, 9.999942, 9.9998455 
2.1350718e+3, 1.9566302e+2, -1066834.9, -1045922.0, -198232.02, 0.15165962, 0.5239387, -857870.9, 164678.39, 0.000030850606, 9.9997225, 9.999978 
2.1350776e+3, 2.056629e+2, -898822.4, -858883.7, -82234.96, 0.13484581, 0.48484161, -794228.2, 130321.24, 0.0, 9.999966, 10.000481 
2.1350828e+3, 2.1566255e+2, -671610.5, -692940.44, -39352.547, -0.11152007, 0.37085807, -641503.4, 185045.92, 0.0, 10.0008545, 10.000504 
2.1350905e+3, 2.2566277e+2, -606519.44, -710993.9, 9402.281, -0.12954119, 0.38473448, -605680.0, 122864.06, 0.0, 10.001025, 9.999643 
2.1351005e+3, 2.3566328e+2, -542510.2, -638460.7, 43299.848, 0.047939245, 0.44136074, -525859.56, 104677.016, 0.0, 10.000857, 9.999532 
2.135108e+3, 2.456617e+2, -607101.5, -884332.7, -37309.063, 0.045270193, 0.45414388, -602168.3, -69614.95, 0.0, 10.000864, 9.997179 
2.1351135e+3, 2.556585e+2, -421213.9, -713507.9, -89840.51, -0.0797021, 0.38092634, -395808.4, 38780.918, 0.0, 10.001356, 9.997431 
2.1351211e+3, 2.6565707e+2, -156403.48, -296092.94, -11046.309, -0.115626045, 0.37676048, -155535.38, 181066.73, 0.0, 10.001468, 9.999576 
2.1351303e+3, 2.756568e+2, -49291.746, -202351.22, 66146.41, -0.06303133, 0.35420564, -24667.404, 213931.94, 0.00000000014169585, 10.001582, 9.999479 
2.1351382e+3, 2.8565532e+2, -197831.14, -532484.8, -4723.0957, -0.044352714, 0.40580007, -197764.48, -57149.99, 0.000000256191, 10.001202, 9.996739 
2.1351452e+3, 2.9565325e+2, -117021.93, -431776.7, -14611.0, 0.02099228, 0.46574134, -116345.14, -73704.31, 0.0000052967753, 10.001027, 9.996834 
2.1351512e+3, 3.056498e+2, -114267.89, -443129.56, -37315.176, -0.15334558, 0.45092604, -110086.98, -110086.98, 0.000025200057, 10.000886, 9.996505 
2.1351577e+3, 3.1564608e+2, 142752.52, 116969.07, 111593.336, -0.20242403, 0.346773, 242196.31, 242196.31, 0.00006359548, 10.000777, 10.000376 
2.1450323e+3, 1.3565336e+2, -1630780.4, -1538576.1, 174189.73, 0.10073124, 0.7420391, -1404490.9, 206159.22, 0.40760165, 9.9996, 10.001263 
2.1450415e+3, 1.4564964e+2, -1785377.0, -1584750.0, -139028.42, -0.005210363, 0.27748698, -1513623.5, -945.265, 0.26811564, 9.997837, 10.00057 
2.1450472e+3, 1.5565132e+2, -1471407.5, -1309432.8, -134504.13, 0.0818697, 0.28257626, -1233416.0, 181241.48, 0.14296411, 9.998998, 10.001377 
2.1450531e+3, 1.6565272e+2, -1334215.9, -1294315.3, 8335.982, 0.0926255, 0.33357662, -1292643.8, 23999.164, 0.057087187, 9.999727, 10.00032 
2.1450596e+3, 1.7565396e+2, -1203709.9, -1174522.9, 22385.262, -0.0943664, 0.3948763, -1162394.3, 56238.793, 0.014719365, 9.999974, 10.0003195 
2.1450654e+3, 1.8565507e+2, -1156180.4, -1186409.5, -99854.45, -0.07915595, 0.5117803, -1070303.0, 50322.76, 0.0017550356, 9.999972, 9.99958 
2.1450715e+3, 1.9565594e+2, -1013500.6, -1049606.4, -82619.99, 0.13042067, 0.6099086, -946984.2, 75638.09, 0.00008036648, 10.000227, 9.999708 
2.1450774e+3, 2.056556e+2, -843583.5, -806656.9, 62280.39, 0.11913595, 0.5499051, -760160.6, 164463.19, 0.000000018813253, 10.000224, 10.000715 
2.1450832e+3, 2.1565434e+2, -756790.75, -710798.7, 46218.78, -0.102131225, 0.31960097, -682171.1, 144458.03, 0.0, 10.000157, 10.000715 
2.1450916e+3, 2.2565465e+2, -702745.8, -762145.75, 39694.215, -0.08771678, 0.33390304, -682870.4, 45752.516, 0.0, 10.000386, 9.9996 
2.145102e+3, 2.3565596e+2, -534478.4, -639488.3, -14285.151, 0.099135995, 0.4792982, -532569.75, 98040.01, 0.0, 10.000936, 9.999489 
2.1451093e+3, 2.4565484e+2, -579157.3, -872014.06, -35001.04, 0.08819551, 0.5383879, -575032.25, -42408.76, 0.0, 10.001059, 9.997175 
2.1451142e+3, 2.5565174e+2, -495278.47, -748455.1, 23240.727, -0.09418301, 0.4786158, -493162.72, -58503.984, 0.0, 10.00085, 9.997431 
2.1451221e+3, 2.6564994e+2, -280200.28, -372910.4, 78740.77, -0.110120915, 0.4421196, -235183.03, 101492.66, 0.0, 10.000676, 9.999437 
2.1451318e+3, 2.7564895e+2, -208500.1, -287563.06, -27733.816, -0.006444716, 0.36908162, -199741.8, 38937.977, 0.00000000016893417, 10.000523, 9.999406 
2.1451399e+3, 2.856479e+2, -164100.34, -473410.63, -67282.9, 0.025309645, 0.43562132, -150098.42, -9408.313, 0.0000002738674, 10.001202, 9.997159 
2.145147e+3, 2.9564646e+2, 122381.914, -253694.33, -13062.186, 0.009964879, 0.5229453, 122835.055, 165543.03, 0.0000047479944, 10.002412, 9.997379 
2.1451536e+3, 3.056424e+2, 149058.08, -303730.0, 39080.348, -0.05603692, 0.4015863, 152406.36, 152406.36, 0.000021563434, 10.0025425, 9.996709 
2.1451597e+3, 3.156392e+2, 250061.63, 231116.31, 94701.79, -0.096156426, 0.34587753, 335763.34, 335763.34, 0.000054127435, 10.001187, 10.00097 
2.15503e+3, 1.3564093e+2, -1726077.4, -1785086.9, 110291.73, -0.16375896, 0.4004342, -1641412.1, -30648.703, 0.43279883, 9.999738, 9.998883 
2.155042e+3, 1.4564249e+2, -1678527.9, -1447991.1, -132905.66, 0.19069204, 0.4907739, -1387331.4, 125419.695, 0.28823382, 9.99808, 10.001686 
2.1550454e+3, 1.556464e+2, -1396447.8, -1201470.4, -81415.73, -0.0009805051, 0.6275351, -1171945.1, 242766.17, 0.15688464, 9.999103, 10.002184 
2.1550515e+3, 1.6564743e+2, -1278633.8, -1214139.0, 12904.289, -0.08816653, 0.57427573, -1211653.0, 105046.2, 0.06501248, 9.999883, 10.000832 
2.1550599e+3, 1.7564628e+2, -1165018.4, -1096811.5, 33089.895, -0.095337875, 0.34192798, -1083396.6, 135311.6, 0.018139776, 9.99999, 10.000849 
2.1550657e+3, 1.8564655e+2, -1121011.9, -1131288.5, -103872.055, -0.080826655, 0.33114734, -1022151.2, 98555.04, 0.0026903055, 10.000043, 9.999927 
2.1550706e+3, 1.9564793e+2, -989578.25, -996843.3, -66810.195, -0.023162955, 0.4380164, -926301.9, 96393.99, 0.00019736934, 10.00022, 10.000068 
2.1550761e+3, 2.0564844e+2, -882621.7, -867761.4, 51165.324, -0.056937635, 0.46481267, -823489.5, 101199.51, 0.0000007869328, 10.000137, 10.000338 
2.155083e+3, 2.1564826e+2, -803171.94, -780702.5, 50281.477, -0.15699854, 0.38186538, -740415.94, 86268.95, 0.0, 10.00004, 10.000291 
2.155092e+3, 2.2564787e+2, -808064.25, -931775.1, 50675.313, -0.10726416, 0.40057155, -789956.7, -61268.203, 0.0, 10.000174, 9.998537 
2.1551028e+3, 2.3564714e+2, -615737.3, -773224.3, 13933.69, 0.06727725, 0.4430454, -614514.06, 16185.489, 0.0, 10.000781, 9.998645 
2.1551101e+3, 2.4564628e+2, -500479.03, -643517.9, -50392.64, 0.046698123, 0.47525868, -484508.75, 48199.914, 0.0, 10.00079, 9.998867 
2.1551153e+3, 2.5564522e+2, -416732.0, -553997.5, 23428.516, -0.11506751, 0.45030943, -412843.38, 21873.979, 0.0, 10.000713, 9.998832 
2.1551228e+3, 2.6564324e+2, -474206.97, -723253.5, 65881.5, -0.14795835, 0.4561241, -457852.94, -121114.1, 0.0, 10.000458, 9.997134 
2.1551323e+3, 2.7564055e+2, -370248.84, -593715.7, -15519.039, -0.040539633, 0.43460518, -369176.25, -130405.57, 0.0, 10.000388, 9.997371 
2.155141e+3, 2.8563958e+2, -101544.75, -249083.31, -29398.088, -0.030564722, 0.5192053, -95902.73, 44877.027, 0.000000100631844, 10.000831, 9.998862 
2.1551484e+3, 2.9563963e+2, 189188.05, -41066.6, 50719.684, -0.114772685, 0.5830477, 199865.28, 242639.77, 0.0000031808167, 10.002097, 9.99899 
2.1551548e+3, 3.0563533e+2, 73618.75, -260019.81, -20288.953, -0.24304073, 0.33396474, 74848.016, 74848.016, 0.000016664693, 10.0017395, 9.997364 
2.1551609e+3, 3.156354e+2, -17194.688, -167574.98, 44333.145, -0.14360666, 0.5141069, -5098.0313, -5098.0313, 0.00004561872, 10.000539, 9.998531 
2.1650298e+3, 1.3563134e+2, -1532115.5, -1662171.8, 25372.164, -0.22796817, 0.27675137, -1527341.0, 83512.85, 0.45757636, 10.001614, 9.998832 
2.1650413e+3, 1.4563453e+2, -1452576.3, -1305462.1, -35836.19, 0.2529768, 0.5081275, -1297197.0, 215630.78, 0.3088363, 9.999451, 10.002345 
2.1650442e+3, 1.5563878e+2, -1381385.8, -1161196.3, -32859.063, -0.032871854, 0.62738144, -1156397.3, 258388.58, 0.17204043, 9.999049, 10.002557 
2.1650508e+3, 1.6564041e+2, -1467735.9, -1266630.0, 47222.0, -0.08104652, 0.5974111, -1256093.8, 60674.742, 0.07433442, 9.998383, 10.001187 
2.16506e+3, 1.7563975e+2, -1345145.4, -1145600.1, 50156.816, 0.0069553507, 0.3797855, -1133702.4, 85070.32, 0.022589553, 9.998555, 10.001219 
2.1650665e+3, 1.856399e+2, -1189752.3, -1152082.1, -60745.242, 0.008302333, 0.33303684, -1107318.9, 13451.808, 0.00413868, 9.999531, 10.000027 
2.1650706e+3, 1.9564064e+2, -833453.75, -924374.4, -75036.82, -0.07242295, 0.37442288, -791180.56, 231583.81, 0.00045452762, 10.001306, 10.000051 
2.1650767e+3, 2.0564108e+2, -717180.8, -880619.56, -18272.957, -0.10098198, 0.43741184, -715162.75, 209596.67, 0.000007502901, 10.001659, 9.999521 
2.165084e+3, 2.1564117e+2, -698442.4, -819136.06, -67326.78, -0.12256166, 0.4667267, -668375.5, 158381.1, 0.0, 10.001144, 9.999502 
2.165093e+3, 2.2564015e+2, -748360.56, -911599.5, -12679.878, -0.04464795, 0.46760875, -747381.56, -18614.371, 0.0, 10.000632, 9.998447 
2.1651036e+3, 2.3563816e+2, -700814.7, -820152.7, 459.42178, 0.09160352, 0.39008147, -700812.94, -70023.7, 0.0, 10.000226, 9.998585 
2.1651109e+3, 2.4563731e+2, -498764.66, -583632.44, -56451.086, 0.06474827, 0.39956722, -470577.3, 62219.33, 0.0, 10.000535, 9.999403 
2.1651162e+3, 2.5563723e+2, -280453.28, -424605.28, -80892.13, -0.121988125, 0.41882208, -244184.98, 190609.1, 0.0, 10.001394, 9.999379 
2.165124e+3, 2.656358e+2, -284489.78, -661354.75, 13926.625, -0.13788655, 0.4634329, -283975.84, 52834.66, 0.0, 10.001885, 9.996868 
2.1651338e+3, 2.7563313e+2, -140148.0, -505281.7, 58560.94, -0.0020115979, 0.47379366, -130985.766, 107857.99, 0.0, 10.00209, 9.997142 
2.1651426e+3, 2.8563178e+2, -795.6413, -194205.8, 59966.152, 0.03954949, 0.52046543, 16287.731, 157144.78, 0.0000000029805467, 10.001484, 9.99893 
2.1651495e+3, 2.956312e+2, -86848.32, -149581.13, -10699.06, -0.096039526, 0.52882063, -85073.8, -42216.656, 0.000001345268, 10.000103, 9.999205 
2.1651556e+3, 3.0562842e+2, 7301.4243, -149657.55, -49780.45, -0.25628173, 0.34157306, 21758.063, 21758.063, 0.000010778314, 10.000641, 9.998654 
2.165164e+3, 3.1562972e+2, 296889.94, -94724.21, -58222.168, -0.0139404945, 0.5467819, 305362.66, 305362.66, 0.00003608632, 10.003043, 9.997816 
2.175032e+3, 1.3562547e+2, -1448388.6, -1482752.4, -140171.64, -0.24968745, 0.44536385, -1324349.8, 286563.2, 0.48078975, 10.002011, 10.00057 
2.1750394e+3, 1.4562644e+2, -1445460.6, -1324652.3, -26732.113, 0.03944636, 0.35954762, -1319001.4, 193900.8, 0.32934, 9.999675, 10.002095 
2.1750428e+3, 1.5562856e+2, -1395804.1, -1200455.3, -46543.254, -0.10658486, 0.2942145, -1189932.9, 224947.64, 0.18832743, 9.999073, 10.0022545 
2.1750498e+3, 1.6563138e+2, -1436044.0, -1239367.6, 38372.844, -0.05494532, 0.39466402, -1232146.0, 84707.71, 0.0852701, 9.998529, 10.001322 
2.1750598e+3, 1.7563444e+2, -1315778.0, -1102044.3, 68559.71, 0.10625684, 0.5149032, -1081942.8, 136883.19, 0.028395085, 9.998627, 10.001489 
2.1750666e+3, 1.8563509e+2, -1203835.4, -1200994.5, -3642.1528, 0.059212912, 0.5196379, -1198505.6, -77685.69, 0.006367479, 9.999612, 9.999651 
2.1750718e+3, 1.9563387e+2, -869820.0, -995504.5, -10108.161, -0.11600861, 0.4085338, -869012.25, 153817.75, 0.0009868387, 10.001285, 9.999568 
2.1750781e+3, 2.0563327e+2, -820896.2, -1077478.1, -48385.164, -0.15907544, 0.45799184, -812075.2, 112762.55, 0.000047582707, 10.001573, 9.998216 
2.1750857e+3, 2.1563295e+2, -800045.56, -993489.2, -79907.016, -0.08762484, 0.5697093, -771307.25, 55537.934, 0.00000000032497088, 10.000986, 9.998382 
2.1750942e+3, 2.2563134e+2, -734362.5, -819503.06, -33734.438, -0.015053603, 0.5250332, -722616.6, 6243.5625, 0.0, 10.000367, 9.999205 
2.1751037e+3, 2.3562871e+2, -681408.56, -737169.56, -1969.9347, 0.07651653, 0.3095113, -681339.06, -50457.535, 0.0, 10.000051, 9.999233 
2.175111e+3, 2.4562761e+2, -584315.1, -688395.2, -32063.563, -0.0024922483, 0.29235762, -575230.4, -42340.094, 0.0, 10.000234, 9.998822 
2.175117e+3, 2.556276e+2, -335665.22, -495960.25, -40137.535, -0.21030656, 0.37129673, -326176.56, 108713.83, 0.0, 10.001216, 9.998971 
2.1751252e+3, 2.6562735e+2, -213857.92, -440529.25, 12147.806, -0.21307263, 0.46507326, -213208.75, 123683.98, 0.0, 10.001581, 9.998525 
2.1751362e+3, 2.7562657e+2, -69592.805, -312610.8, 74962.336, -0.002561282, 0.4965596, -48330.004, 190570.75, 0.0, 10.001901, 9.998552 
2.1751446e+3, 2.85624e+2, -167491.52, -449802.63, -3801.0513, 0.04461042, 0.44433147, -167440.34, -26513.953, 0.0, 10.001115, 9.997344 
2.1751499e+3, 2.956207e+2, -208539.58, -361361.97, -40978.555, -0.09746019, 0.32159546, -198244.88, -155284.9, 0.00000028754212, 9.9999275, 9.997832 
2.1751557e+3, 3.0562022e+2, 28935.514, 33983.05, 8451.04, -0.35187918, 0.3546466, 40279.117, 40279.117, 0.0000061263827, 10.00011, 10.000139 
2.1751691e+3, 3.1562316e+2, 233546.6, -26911.512, 144463.5, 0.14597973, 0.56230533, 297815.13, 297815.13, 0.000027574106, 10.002227, 9.998656 
2.1850394e+3, 1.4562196e+2, -1588872.4, -1462003.0, 14066.9795, 0.12045764, 0.30614874, -1460462.0, 52482.227, 0.34983045, 9.998908, 10.001077 
2.1850413e+3, 1.5562232e+2, -1380137.9, -1363184.8, -26966.441, -0.20865029, 0.27582994, -1343394.0, 71548.54, 0.2059314, 10.000085, 10.000419 
2.1850508e+3, 1.656239e+2, -1351678.8, -1267812.9, -964.72455, 0.15947852, 0.37821314, -1267801.8, 49128.477, 0.09816949, 9.99944, 10.000669 
2.1850593e+3, 1.756274e+2, -1253038.1, -1123343.4, -39725.332, 0.15490107, 0.6005389, -1112142.9, 106757.836, 0.036017943, 9.99933, 10.000992 
2.1850657e+3, 1.8562795e+2, -1198978.9, -1186514.1, -65494.508, 0.002145231, 0.6110874, -1126956.1, -6061.805, 0.009796201, 9.999568, 9.999779 
2.185073e+3, 1.9562607e+2, -1024204.1, -1065192.8, -48589.207, -0.057223212, 0.420245, -991963.94, 30943.512, 0.0020521113, 10.000185, 9.999619 
2.1850803e+3, 2.0562495e+2, -986389.44, -1196293.3, -53106.223, -0.03139148, 0.43800303, -973718.4, -48798.625, 0.00020967671, 10.000625, 9.997854 
2.1850872e+3, 2.1562433e+2, -796581.6, -1025551.56, -42199.97, -0.047636315, 0.5542271, -789051.7, 37880.727, 0.00000086887735, 10.001158, 9.99808 
2.185095e+3, 2.2562301e+2, -595035.56, -735685.2, 19791.4, -0.011928712, 0.5444523, -592303.7, 136641.3, 0.0, 10.001231, 9.999376 
2.1851042e+3, 2.3562112e+2, -525380.3, -638718.44, -3430.2737, 0.09063804, 0.38685402, -525276.6, 105681.38, 0.0, 10.001032, 9.999435 
2.1851121e+3, 2.4561986e+2, -472072.28, -662343.75, 11849.018, 0.043504126, 0.35587204, -471337.25, 61630.996, 0.0, 10.001116, 9.998579 
2.1851186e+3, 2.5561896e+2, -316417.66, -516113.53, 1.8655119, -0.16361247, 0.37576514, -316417.66, 118559.86, 0.0, 10.0014515, 9.998731 
2.1851271e+3, 2.6561874e+2, -227950.34, -409626.75, -4090.2202, -0.15660831, 0.45989892, -227858.3, 109121.24, 0.0, 10.001293, 9.998894 
2.1851377e+3, 2.7561846e+2, -200246.73, -342706.16, -56223.39, 0.02574801, 0.5195433, -180730.97, 58249.992, 0.0, 10.000836, 9.99888 
2.1851458e+3, 2.8561574e+2, -163628.45, -460405.0, -96595.38, 0.07236393, 0.4368431, -134958.13, 6049.0674, 0.0, 10.001164, 9.997261 
2.1851511e+3, 2.956115e+2, 103875.74, -236528.64, -61452.67, -0.062360182, 0.24134272, 114629.945, 157679.14, 0.000000027227998, 10.002169, 9.997616 
2.1851581e+3, 3.0561218e+2, 400231.88, 137666.64, 15764.913, -0.2195567, 0.42971605, 401175.03, 401175.03, 0.0000044959556, 10.002929, 9.999531 
2.1851714e+3, 3.1561357e+2, 366726.25, 64493.35, -72304.69, 0.13329703, 0.5635451, 383133.38, 383133.38, 0.000025056477, 10.00291, 9.999018 
2.1950398e+3, 1.4561974e+2, -1637460.3, -1538475.4, -180525.5, 0.2020328, 0.33769578, -1400780.9, 112186.01, 0.371045, 9.998983, 10.000602 
2.1950388e+3, 1.5561956e+2, -1581889.1, -1806411.6, -27098.623, -0.48404947, 0.57184577, -1578664.8, -163688.11, 0.22535217, 10.000174, 9.997246 
2.1950537e+3, 1.6561796e+2, -1429479.6, -1449759.8, -37720.19, 0.44345033, 0.5686125, -1400560.4, -83561.82, 0.113554515, 9.999555, 9.999327 
2.1950579e+3, 1.7561837e+2, -1347194.1, -1314769.9, -33291.49, 0.076126605, 0.63085675, -1293952.9, -74953.89, 0.046104282, 9.999333, 9.999648 
2.1950628e+3, 1.8561813e+2, -1138538.6, -1076094.1, -44003.99, -0.28676352, 0.5901172, -1053361.0, 67636.45, 0.015073848, 9.999631, 10.000514 
2.1950743e+3, 1.9561721e+2, -976000.56, -960684.75, -20462.203, 0.013122165, 0.42268983, -946494.44, 76501.93, 0.004138987, 10.0001745, 10.000341 
2.195083e+3, 2.0561616e+2, -969329.56, -1141991.5, -43402.62, 0.14085035, 0.39152107, -959033.25, -34028.223, 0.00072646124, 10.000543, 9.998266 
2.1950878e+3, 2.1561515e+2, -791782.3, -975895.2, -19097.402, -0.106562644, 0.42441446, -789822.25, 37197.684, 0.000022642807, 10.000994, 9.998492 
2.195095e+3, 2.2561501e+2, -658930.1, -806755.1, 4713.8755, -0.16565564, 0.52622354, -658779.94, 70243.164, 0.000000000011542125, 10.000962, 9.999017 
2.195105e+3, 2.3561524e+2, -568095.94, -694739.7, -753.01886, 0.03591205, 0.6117929, -568091.44, 62928.406, 0.0, 10.000886, 9.999119 
2.1951136e+3, 2.4561392e+2, -518420.56, -687317.2, 14786.725, 0.05009966, 0.5904987, -517135.78, 15895.872, 0.0, 10.000819, 9.998546 
2.1951209e+3, 2.5561118e+2, -349245.47, -546694.8, 19451.037, -0.092929184, 0.4307151, -347347.56, 87709.51, 0.0, 10.00129, 9.998597 
2.1951291e+3, 2.6560962e+2, -351486.0, -583194.2, -30574.904, -0.12502736, 0.44309786, -347519.4, -10445.606, 0.0, 10.000957, 9.99785 
2.1951382e+3, 2.7560857e+2, -289355.75, -475432.6, -56231.668, -0.03451485, 0.51829416, -273682.88, -34596.027, 0.0, 10.00063, 9.998053 
2.1951462e+3, 2.8560644e+2, -129151.75, -311003.47, -69352.22, -0.050792586, 0.46440896, -105721.84, 35383.27, 0.0, 10.000847, 9.998432 
2.1951531e+3, 2.9560357e+2, 121896.52, -146548.89, -3110.803, -0.11294002, 0.29560786, 121932.57, 165058.17, 0.000000020729713, 10.001948, 9.998338 
2.1951623e+3, 3.056037e+2, 119406.46, -299523.38, 20173.037, -0.1530974, 0.55277956, 120375.63, 120375.63, 0.0000055230016, 10.002349, 9.996774 
2.1951711e+3, 3.155994e+2, 107906.734, -245268.83, 4176.038, -0.24082766, 0.35736415, 107956.1, 107956.1, 0.000029811183, 10.002019, 9.997274 
2.2050373e+3, 1.4561442e+2, -1597506.9, -1508130.4, -144870.89, 0.06715806, 0.33071718, -1401211.9, 111810.74, 0.39437363, 9.999222, 10.000727 
2.2050388e+3, 1.5561476e+2, -1529909.1, -1824643.9, -64175.32, -0.5187302, 0.6972207, -1516541.9, -101514.54, 0.24751917, 10.000714, 9.996865 
2.205054e+3, 1.6561168e+2, -1348598.9, -1485252.4, 47802.848, 0.49258655, 0.58582455, -1333537.0, -16474.959, 0.13222682, 10.0004015, 9.998695 
2.2050583e+3, 1.7561053e+2, -1157011.3, -1343627.6, 103945.87, 0.103880234, 0.59066373, -1110637.1, 108438.06, 0.059555795, 10.001136, 9.998626 
2.2050634e+3, 1.8560965e+2, -968796.1, -1056401.9, 57810.57, -0.22944662, 0.5651676, -940067.94, 181012.98, 0.023171267, 10.001091, 9.999955 
2.2050744e+3, 1.9560888e+2, -974183.75, -1007099.5, -31331.234, 0.02287568, 0.46407574, -955250.8, 67830.71, 0.008108057, 10.000389, 9.999933 
2.2050835e+3, 2.0560807e+2, -971045.3, -1065044.0, -48619.64, 0.15634955, 0.43856347, -950422.1, -25335.133, 0.0021629941, 10.000189, 9.998971 
2.2050893e+3, 2.1560717e+2, -791636.2, -909727.4, -21623.537, -0.038680594, 0.41706917, -787801.25, 39295.094, 0.00023583506, 10.0006895, 9.9991045 
2.2050962e+3, 2.2560684e+2, -719967.0, -838986.4, 6439.464, -0.09421508, 0.4787047, -719619.6, 9480.666, 0.0000019906881, 10.000559, 9.998991 
2.205105e+3, 2.3560712e+2, -703080.3, -764157.4, 1724.7327, 0.009950509, 0.5703537, -703031.6, -71933.19, 0.0, 9.999967, 9.999099 
2.2051138e+3, 2.456062e+2, -589926.5, -698780.4, 92621.3, 0.027305365, 0.5836326, -536924.44, -3817.115, 0.0, 10.0002165, 9.998765 
2.2051223e+3, 2.5560433e+2, -345197.72, -509007.0, 94436.07, -0.07751085, 0.48395783, -302096.22, 133028.25, 0.0, 10.001216, 9.998868 
2.2051306e+3, 2.6560277e+2, -314350.47, -605045.4, 58169.305, -0.07426684, 0.49926466, -303142.66, 33999.61, 0.0, 10.001379, 9.9975 
2.2051394e+3, 2.7560088e+2, -266792.22, -508821.22, 63944.68, 0.016060542, 0.5342605, -250936.58, -11771.748, 0.0, 10.00096, 9.997674 
2.2051482e+3, 2.8559875e+2, 10072.439, -217569.06, 112277.09, 0.02977118, 0.4830708, 56130.734, 197313.61, 0.0, 10.001699, 9.998659 
2.2051565e+3, 2.955959e+2, 358143.78, -20761.318, 64940.8, -0.04321139, 0.31001085, 368965.0, 412166.22, 0.00000007580395, 10.003523, 9.998447 
2.205166e+3, 3.0559534e+2, 154773.69, -433873.78, 75046.13, -0.04943964, 0.5498008, 164190.61, 164190.61, 0.0000083740215, 10.003194, 9.995472 
2.2051731e+3, 3.1559032e+2, 73779.07, -133400.77, 57427.723, -0.196606, 0.42337802, 88632.45, 88632.45, 0.000042885644, 10.001177, 9.998453 
2.2150351e+3, 1.456085e+2, -1618445.1, -1483718.9, 329555.0, -0.14442632, 0.5632284, -1214712.8, 298373.97, 0.4221777, 9.999168, 10.001479 
2.215042e+3, 1.556075e+2, -1388180.3, -1497323.3, -40347.29, -0.30910704, 0.64267635, -1374884.5, 40213.82, 0.27423543, 10.000694, 9.999141 
2.2150512e+3, 1.6560477e+2, -1323013.9, -1449442.4, 37281.258, 0.12123177, 0.4356874, -1312839.1, 4285.155, 0.15564767, 10.000486, 9.998893 
2.2150598e+3, 1.7560397e+2, -1196453.6, -1421993.1, 132070.25, 0.11882092, 0.4960811, -1135558.3, 83570.85, 0.07778218, 10.00113, 9.998083 
2.2150679e+3, 1.8560252e+2, -1093393.6, -1334921.8, 27386.336, 0.05105135, 0.5482612, -1090327.3, 30817.318, 0.035576556, 10.001153, 9.998009 
2.2150737e+3, 1.9560097e+2, -1093283.4, -1239882.8, -51065.23, -0.11043337, 0.54855, -1077249.4, -54085.504, 0.0154146915, 10.000328, 9.998362 
2.2150813e+3, 2.056004e+2, -918635.5, -932809.25, -37068.03, -0.11571188, 0.5678896, -887982.94, 37184.727, 0.005714695, 10.000086, 9.999929 
2.215091e+3, 2.1560019e+2, -752872.56, -793784.1, 3314.2231, 0.046594888, 0.52297443, -752605.8, 74557.47, 0.0013616167, 10.000541, 9.999968 
2.2150984e+3, 2.255988e+2, -755345.3, -845030.9, -25531.53, 0.046715308, 0.4333277, -748586.4, -19412.338, 0.00013056793, 10.000271, 9.999087 
2.2151043e+3, 2.3559667e+2, -714047.0, -749298.5, -8860.054, -0.07800387, 0.26870742, -711945.4, -80750.47, 0.0000045921656, 9.999802, 9.99928 
2.2151123e+3, 2.455966e+2, -612592.94, -661481.56, 116198.34, -0.1657651, 0.33804378, -518295.6, 14900.653, 0.000000030624218, 9.999871, 9.999179 
2.2151223e+3, 2.5559816e+2, -345278.56, -453384.1, 135850.08, -0.20998333, 0.5278657, -253122.77, 182059.48, 0.0, 10.000988, 9.999352 
2.2151315e+3, 2.6559758e+2, -350145.03, -600418.94, 24532.656, -0.13634934, 0.6138064, -347762.94, -10572.674, 0.0, 10.001057, 9.997682 
2.215141e+3, 2.7559516e+2, -290385.47, -505892.8, 57620.484, 0.06639379, 0.565353, -275946.78, -36729.047, 0.0, 10.00075, 9.997786 
2.2151509e+3, 2.8559238e+2, -121603.36, -386652.56, 166343.6, 0.107883565, 0.49623632, -41447.54, 99796.32, 0.0, 10.001277, 9.997685 
2.2151609e+3, 2.9558817e+2, 253887.42, -172625.3, 141144.28, 0.017637031, 0.26826164, 296365.25, 339645.28, 0.00000027397763, 10.003265, 9.997516 
2.2151688e+3, 3.0558655e+2, 95016.0, -440892.34, -13923.66, -0.15133777, 0.43970394, 95377.51, 95377.51, 0.000015050563, 10.002736, 9.995616 
2.2151741e+3, 3.155851e+2, 160489.11, 241333.53, 67072.5, -0.27072522, 0.63143057, 279222.72, 279222.72, 0.00007034586, 10.000397, 10.00138 
2.2250347e+3, 1.4559515e+2, -2224537.5, -2092390.4, 427217.8, 0.019122047, 0.7308002, -1726166.9, -212943.9, 0.45833316, 9.996103, 9.997846 
2.2250442e+3, 1.5559518e+2, -1515325.3, -1299327.6, -165342.81, -0.033807926, 0.41881445, -1209837.3, 205382.95, 0.30885017, 9.998483, 10.002011 
2.225052e+3, 1.6559765e+2, -1123179.9, -1321853.1, -160568.31, 0.096224464, 0.58472764, -1033704.56, 283487.88, 0.18666483, 10.002083, 9.999103 
2.225061e+3, 1.7559534e+2, -1199644.5, -1380329.5, -87901.21, 0.13293336, 0.46059114, -1163937.9, 55272.793, 0.103338934, 10.000936, 9.998456 
2.2250696e+3, 1.8559346e+2, -1272169.9, -1468147.0, -73132.32, 0.16133897, 0.47313997, -1247887.9, -126656.85, 0.054786276, 10.000094, 9.997621 
2.2250745e+3, 1.9559239e+2, -1025727.0, -1250224.9, -59076.355, -0.099637955, 0.56072646, -1011130.25, 12117.915, 0.028543482, 10.000943, 9.998 
2.2250815e+3, 2.0559184e+2, -813803.1, -872124.44, -32013.182, -0.13143301, 0.5889089, -799660.3, 125592.34, 0.013685946, 10.000781, 10.000006 
2.2250916e+3, 2.155914e+2, -884536.9, -854961.94, -80869.53, 0.08954185, 0.5198779, -787539.0, 39710.86, 0.005262215, 9.999637, 9.999985 
2.225099e+3, 2.2559008e+2, -821419.9, -871470.1, -94980.53, 0.122188024, 0.43218994, -748223.0, -18963.223, 0.001420654, 9.999768, 9.999157 
2.225105e+3, 2.355882e+2, -544895.0, -657000.4, -98382.24, -0.05018408, 0.2851596, -487717.97, 143560.2, 0.0002619265, 10.0009, 9.9993925 
2.225113e+3, 2.455882e+2, -477263.03, -603856.5, 11081.922, -0.12137359, 0.36151648, -476300.25, 56978.668, 0.000035642544, 10.000816, 9.99913 
2.2251235e+3, 2.5558972e+2, -489875.34, -531410.1, -15116.858, -0.12642394, 0.55379933, -484956.1, -49690.598, 0.0000011567587, 9.9999695, 9.999337 
2.225133e+3, 2.655891e+2, -462183.34, -603701.94, -110449.5, -0.039986003, 0.6103296, -401771.1, -64497.03, 0.0, 10.000065, 9.998136 
2.2251423e+3, 2.7558675e+2, -188593.56, -400199.5, -88453.086, 0.10146515, 0.5315145, -156489.98, 82809.555, 0.0, 10.001235, 9.998273 
2.2251526e+3, 2.855849e+2, -61999.887, -360561.56, 104855.17, 0.1325211, 0.53120667, -28854.367, 112463.48, 0.0, 10.001684, 9.997685 
2.2251633e+3, 2.9558176e+2, 51703.336, -266285.5, 114618.234, 0.018579299, 0.42636096, 88710.36, 132056.84, 0.00000073017384, 10.0018835, 9.997524 
2.2251716e+3, 3.0557856e+2, 121245.414, -378807.13, -33302.76, -0.11159347, 0.39729896, 123453.58, 123453.58, 0.00002755439, 10.00268, 9.996093 
2.2251765e+3, 3.1557703e+2, 690525.1, 568352.4, -13405.9795, -0.22907501, 0.5830144, 691978.8, 691978.8, 0.000118261974, 10.003686, 10.002081 
2.2350444e+3, 1.555781e+2, -1320935.3, -948440.4, 1703.2063, 0.111488916, 0.101487905, -948432.6, 466956.9, 0.35698506, 9.998251, 10.005785 
2.2350569e+3, 1.6558981e+2, -1130754.0, -1311667.0, -159403.88, 0.31140256, 0.9869191, -1037929.4, 279341.88, 0.23053116, 10.002052, 9.9992285 
2.2350615e+3, 1.755843e+2, -1141839.3, -1223333.5, -127923.93, 0.065367244, 0.45303944, -1048329.7, 170993.17, 0.14104874, 10.000842, 9.999641 
2.235068e+3, 1.8558232e+2, -1197738.5, -1309281.4, -61834.16, -0.05521003, 0.32519835, -1170239.9, -48897.95, 0.08532412, 10.000076, 9.998716 
2.2350761e+3, 1.9558313e+2, -975399.75, -1125935.8, -20852.377, -0.047934923, 0.50191116, -972564.6, 50770.242, 0.05187056, 10.000878, 9.998886 
2.2350834e+3, 2.0558256e+2, -895992.1, -1011198.2, -80205.66, -0.034828614, 0.5342425, -854847.7, 70492.43, 0.030293982, 10.000652, 9.99911 
2.2350903e+3, 2.155807e+2, -961458.8, -979548.6, -112763.57, 0.0037685616, 0.40828004, -857377.94, -30021.045, 0.015773455, 9.999484, 9.999202 
2.2350979e+3, 2.2558041e+2, -867041.75, -890301.8, -58943.87, -0.0046084803, 0.4614608, -818591.5, -89231.97, 0.0069356123, 9.999455, 9.999167 
2.2351062e+3, 2.3558146e+2, -562859.1, -660517.7, -50658.22, -0.021939559, 0.5930022, -541328.25, 90021.88, 0.002541045, 10.000753, 9.999433 
2.2351152e+3, 2.4558088e+2, -568159.1, -716693.9, -35078.785, -0.0022203005, 0.644671, -560291.5, -26935.457, 0.00075579167, 10.000504, 9.998498 
2.2351255e+3, 2.5557917e+2, -552945.56, -609941.56, -34844.78, 0.05574892, 0.5589343, -536429.2, -101056.39, 0.00014769337, 9.999751, 9.998898 
2.2351342e+3, 2.6557747e+2, -495819.7, -571100.44, -87356.52, 0.038722124, 0.50902987, -438339.28, -100948.53, 0.000007045108, 9.999648, 9.998546 
2.2351429e+3, 2.7557576e+2, -183499.48, -339004.22, -36693.023, 0.009805062, 0.43368933, -175276.23, 64133.56, 0.00000000065814787, 10.001021, 9.998784 
2.2351526e+3, 2.8557596e+2, -74929.45, -283629.56, 85370.664, -0.06058954, 0.5713695, -44457.09, 96951.266, 0.0, 10.001273, 9.998391 
2.2351636e+3, 2.955765e+2, 28578.678, -213501.52, 134642.47, -0.17864971, 0.758821, 88589.13, 131991.81, 0.0000012574419, 10.001482, 9.99806 
2.2351739e+3, 3.055705e+2, 21429.996, -404920.03, -14708.228, -0.20687175, 0.42174798, 21936.799, 21936.799, 0.000044073433, 10.001951, 9.996237 
2.2351812e+3, 3.1556812e+2, 394412.3, 188711.58, 172502.84, -0.16794689, 0.49667653, 492398.78, 492398.78, 0.00018419352, 10.002763, 9.999881 
2.2450437e+3, 1.55573e+2, -1048462.5, -1076150.3, 91899.8, -0.08322589, 0.59270614, -969369.7, 446075.44, 0.42759266, 10.003263, 10.002347 
2.2450563e+3, 1.6557747e+2, -1584632.9, -1473921.4, -120427.15, 0.25314575, 0.8975544, -1396736.8, -79340.914, 0.29616648, 9.99822, 9.99982 
2.2450627e+3, 1.755739e+2, -1151090.6, -1153302.8, -104348.93, 0.13402505, 0.48443878, -1047841.9, 171588.05, 0.19952731, 10.000443, 10.000385 
2.2450696e+3, 1.8557306e+2, -1006942.6, -1076416.6, -51890.508, 0.07919991, 0.36619464, -979235.4, 142200.0, 0.13536815, 10.000899, 9.999966 
2.245078e+3, 1.9557446e+2, -985317.9, -1005600.06, -20516.063, 0.08035531, 0.4825132, -972573.3, 50843.98, 0.09319166, 10.00027, 10.00003 
2.245085e+3, 2.0557426e+2, -983313.0, -1092447.8, -47054.895, 0.074562475, 0.50977993, -965826.5, -40408.637, 0.06306426, 10.000135, 9.998841 
2.2450908e+3, 2.155722e+2, -848419.6, -961562.1, -55033.496, 0.05175967, 0.3987299, -826066.94, 1371.9253, 0.0400799, 10.000371, 9.998928 
2.2450984e+3, 2.2557145e+2, -705585.25, -858850.3, 65049.28, 0.03388514, 0.44522437, -681699.3, 47747.266, 0.023131557, 10.000749, 9.998781 
2.2451074e+3, 2.3557198e+2, -551488.7, -694799.44, 6741.341, 0.02287751, 0.56346905, -551172.25, 80269.625, 0.011994159, 10.001003, 9.999084 
2.2451164e+3, 2.455708e+2, -508208.94, -692174.9, -1969.2329, 0.06297581, 0.57684594, -508187.84, 25265.275, 0.0054928027, 10.000903, 9.998485 
2.2451262e+3, 2.5556862e+2, -424089.38, -539520.7, 25022.504, 0.10161087, 0.4405244, -418898.6, 16575.154, 0.002050329, 10.0006, 9.998977 
2.2451347e+3, 2.6556703e+2, -377530.0, -559570.06, 26027.768, 0.082209244, 0.42795727, -373881.72, -36390.402, 0.0004876709, 10.000637, 9.998161 
2.2451441e+3, 2.7556595e+2, -118797.54, -339747.84, 6242.0356, 0.023249514, 0.44937783, -118621.336, 120885.81, 0.000047167257, 10.001602, 9.998504 
2.2451541e+3, 2.855663e+2, -50710.88, -255371.17, 34441.363, -0.03187527, 0.6028403, -45070.35, 96434.82, 0.00000034188096, 10.001345, 9.998563 
2.2451648e+3, 2.955667e+2, -16629.918, -226100.89, 18738.5, -0.16882555, 0.78389174, -14966.844, 28533.52, 0.0000013302117, 10.001074, 9.998206 
2.2451763e+3, 3.0556133e+2, 117905.72, -269798.38, -16171.105, -0.15814608, 0.43431613, 118579.05, 118579.05, 0.0000584347, 10.002169, 9.997076 
2.2451855e+3, 3.1555966e+2, 477884.53, 167052.97, 28749.41, -0.03558723, 0.54949313, 480521.25, 480521.25, 0.00025945, 10.0035, 9.999389 
2.2550495e+3, 1.6556124e+2, -1638906.5, -1472554.6, -77527.18, -0.3248336, 0.40335938, -1442026.1, -124466.15, 0.39765337, 9.997716, 10.00006 
2.2550647e+3, 1.7556392e+2, -1143461.0, -1124771.6, -46334.336, 0.2227379, 0.55083436, -1086849.1, 132684.77, 0.29298013, 10.000379, 10.000734 
2.2550747e+3, 1.8556537e+2, -985430.25, -969173.2, -97200.56, 0.41880697, 0.58530146, -879761.9, 241752.78, 0.21888196, 10.000664, 10.001047 
2.2550793e+3, 1.9556588e+2, -944211.4, -867092.5, -40970.125, 0.1721783, 0.47373962, -849390.25, 174110.53, 0.16615056, 10.000029, 10.001281 
2.255085e+3, 2.055664e+2, -1000865.44, -1065763.8, -44933.414, 0.02685855, 0.48238507, -977889.3, -52398.168, 0.12546477, 9.999869, 9.999134 
2.2550918e+3, 2.1556559e+2, -856136.44, -944455.44, -40296.47, 0.10024632, 0.46336457, -840514.1, -13015.583, 0.0914258, 10.000235, 9.999093 
2.2550999e+3, 2.255632e+2, -820965.56, -1034215.56, 70921.54, 0.082916684, 0.38876113, -799532.94, -70011.75, 0.062582165, 10.000463, 9.997716 
2.2551087e+3, 2.3555987e+2, -640936.5, -836502.56, 23803.82, 0.010698503, 0.21262729, -638080.9, -6527.9424, 0.039919913, 10.000788, 9.998222 
2.2551163e+3, 2.4555808e+2, -571033.6, -676716.4, -32801.84, -0.07421431, 0.19066578, -561680.4, -28111.145, 0.023601582, 10.000296, 9.998873 
2.255125e+3, 2.5555807e+2, -423010.06, -474539.63, 19678.313, -0.101190224, 0.20176464, -416354.78, 19213.68, 0.012405956, 10.000347, 9.999532 
2.255134e+3, 2.6555765e+2, -534791.06, -787870.25, 28870.945, -0.06457926, 0.35592493, -531539.3, -193961.11, 0.005154125, 10.000239, 9.9967785 
2.2551458e+3, 2.7555725e+2, -254382.36, -526901.75, 43878.45, 0.0064470912, 0.5521155, -247491.7, -7898.481, 0.0013586987, 10.001215, 9.997396 
2.255156e+3, 2.8555578e+2, -203227.39, -407470.06, -14376.974, -0.0018639711, 0.6129316, -202220.34, -60610.2, 0.00015517221, 10.000682, 9.997815 
2.2551669e+3, 2.955528e+2, -99180.52, -294667.56, 33880.14, -0.091471985, 0.5235125, -93475.22, -49839.75, 0.0000026982873, 10.000712, 9.997867 
2.2551782e+3, 3.0555105e+2, 116358.05, -142596.19, 30439.057, -0.23377848, 0.4701562, 119887.92, 119887.92, 0.000065484004, 10.001659, 9.998174 
2.2551866e+3, 3.1554878e+2, 414046.75, 218416.45, 49150.91, -0.3424612, 0.44642997, 425701.3, 425701.3, 0.00034262822, 10.002783, 10.00007 
2.2650655e+3, 1.7555727e+2, -1034212.0, -896987.9, -100507.266, 0.29664153, 0.9970545, -843906.4, 375704.1, 0.44342524, 9.999899, 10.004203 
2.265069e+3, 1.8555836e+2, -1370109.4, -1228273.0, 28298.514, -0.08934728, 0.66857713, -1222835.5, -101248.9, 0.3585124, 9.9980345, 10.000272 
2.2650774e+3, 1.9555642e+2, -1272955.5, -1075163.9, -107229.86, 0.07505345, 0.42039517, -1028187.75, -4594.1567, 0.29413474, 9.997978, 10.000584 
2.2650854e+3, 2.0555584e+2, -1029560.6, -1069330.8, -95927.555, 0.10400164, 0.34377742, -951478.8, -25884.104, 0.24160613, 9.999533, 9.999304 
2.2650926e+3, 2.1555659e+2, -603733.56, -811164.6, -115603.02, 0.054460518, 0.48455042, -552139.9, 275449.06, 0.1940874, 10.002302, 9.999119 
2.2651008e+3, 2.2555494e+2, -517091.44, -838972.8, -50656.184, 0.04011015, 0.46530527, -509307.66, 220295.8, 0.14888066, 10.002614, 9.998047 
2.2651094e+3, 2.3555164e+2, -733871.7, -848190.44, -45717.31, 0.05422428, 0.27638403, -717837.75, -86205.96, 0.108788945, 10.000007, 9.998525 
2.2651172e+3, 2.4554972e+2, -698228.75, -801548.9, -6044.1206, 0.032201618, 0.25759384, -697876.4, -164227.52, 0.07581198, 9.999598, 9.998388 
2.2651264e+3, 2.555495e+2, -335321.97, -517667.1, -57867.676, -0.02172754, 0.31114864, -318507.94, 117143.664, 0.048806984, 10.001251, 9.998869 
2.265135e+3, 2.655484e+2, -357678.4, -771438.1, -79435.42, -0.062691435, 0.47441122, -342952.16, -5283.603, 0.026684597, 10.001656, 9.996244 
2.265146e+3, 2.7554706e+2, -226946.95, -540739.75, -26445.496, -0.09863766, 0.60722905, -224733.83, 14958.604, 0.010897145, 10.001414, 9.997252 
2.2651565e+3, 2.855449e+2, -195822.3, -377812.97, 785.00745, -0.004771214, 0.5890884, -195818.9, -54103.48, 0.002788968, 10.000581, 9.99809 
2.2651707e+3, 2.9554167e+2, 275632.9, -98519.67, 145553.69, 0.103181235, 0.46623814, 325587.03, 369328.44, 0.0003034348, 10.003237, 9.998002 
2.2651826e+3, 3.0554003e+2, 377953.8, -160643.7, 54479.566, -0.06075401, 0.44265655, 383409.22, 383409.22, 0.000074942734, 10.004138, 9.996857 
2.2651906e+3, 3.1553483e+2, 349011.16, -14244.553, -199973.1, -0.24106589, 0.42327344, 437527.53, 437527.53, 0.00045627946, 10.00308, 9.99842 
2.2750854e+3, 2.0554496e+2, -1047741.9, -1230833.1, -21563.79, 0.0877794, 0.3576522, -1045236.5, -119531.625, 0.4526298, 10.00009, 9.99788 
2.275094e+3, 2.1554615e+2, -626705.1, -810875.75, -31013.963, -0.0691885, 0.56403893, -621622.7, 206077.5, 0.38963944, 10.002775, 9.998828 
2.275105e+3, 2.2554623e+2, -712145.06, -829402.3, -148350.27, 0.13285187, 0.6362363, -611258.44, 118439.17, 0.32267725, 10.000788, 9.999065 
2.2751111e+3, 2.3554541e+2, -913621.7, -791978.75, -117610.92, 0.19741577, 0.54421383, -720393.3, -88696.77, 0.25840095, 9.998184, 9.999735 
2.2751191e+3, 2.4554405e+2, -994981.56, -1199338.0, 47184.92, 0.16478363, 0.63331884, -984612.9, -450905.0, 0.20062341, 9.998692, 9.996061 
2.2751306e+3, 2.555425e+2, -560668.8, -835125.44, 10822.997, 0.23279539, 0.69724363, -560242.7, -124516.05, 0.14660953, 10.000597, 9.996954 
2.2751372e+3, 2.6553965e+2, -611871.6, -959398.94, -119422.4, -0.0714427, 0.8097486, -574790.5, -237031.48, 0.09444842, 10.000234, 9.995602 
2.2751448e+3, 2.7553615e+2, -259015.44, -469983.5, -44403.234, -0.37978417, 0.6631595, -250050.67, -10253.062, 0.04983968, 10.000861, 9.997963 
2.2751553e+3, 2.8553402e+2, -285014.56, -328720.16, -27633.002, -0.21304847, 0.56008106, -271637.72, -129820.25, 0.019500945, 9.99962, 9.998861 
2.2751753e+3, 2.9553333e+2, 208242.27, -78343.516, 237089.4, 0.21499029, 0.5791716, 341976.88, 385795.28, 0.004786881, 10.002619, 9.998405 
2.275188e+3, 3.0552843e+2, -57868.984, -806062.0, -47498.754, 0.013714605, 0.37829524, -54865.6, -54865.6, 0.0007184054, 10.003108, 9.992879 
2.2751953e+3, 3.155205e+2, -176356.25, -767274.0, -29881.24, -0.13357867, 0.5486579, -174849.08, -174849.08, 0.0007782504, 10.001825, 9.993757 
2.2851157e+3, 2.4552383e+2, -652168.56, -570919.7, -115412.73, -0.12768523, 0.025532553, -489190.38, 44718.01, 0.45869297, 9.998281, 10.001243 
2.2851336e+3, 2.5553042e+2, -300272.0, -442954.7, -171990.36, 0.39357263, 0.88242555, -185413.8, 250429.72, 0.36361384, 10.001848, 9.999491 
2.2851379e+3, 2.655187e+2, -291866.6, -678441.5, -120886.32, -0.14054054, -0.09013258, -257176.98, 80784.44, 0.26167566, 10.001897, 9.996819 
2.2851491e+3, 2.7552044e+2, -39500.16, -473157.16, -65551.24, -0.11454683, 0.3339081, -29808.102, 210142.05, 0.1640845, 10.00305, 9.997001 
2.2851579e+3, 2.855203e+2, -151546.17, -410875.72, -229464.72, 0.008639794, 0.60551554, -17644.988, 124307.47, 0.0825175, 10.001119, 9.99765 
2.2851777e+3, 2.9551873e+2, 358106.88, 410.82532, 74872.984, 0.16892263, 0.571818, 373146.9, 417111.75, 0.030766618, 10.003555, 9.998586 
2.2851934e+3, 3.0551463e+2, 441421.1, -133048.77, -109313.86, 0.1712628, 0.25209606, 461518.94, 461518.94, 0.009050316, 10.004543, 9.996867 
2.2851945e+3, 3.15513e+2, 213828.77, 165454.78, 332917.84, -0.36684358, 0.6489535, 523437.06, 523437.06, 0.0039658807, 10.001255, 10.000431 
2.2951502e+3, 2.755054e+2, 1564.213, -618492.8, 34330.543, -0.3733313, 0.1389563, 3459.1924, 243555.11, 0.434636, 10.0054245, 9.994723 
2.2951625e+3, 2.8550512e+2, -1087880.3, -1485087.8, -456432.84, 0.26884386, 0.7392352, -788714.56, -646608.2, 0.25417706, 9.997397, 9.991982 
2.2951782e+3, 2.9550156e+2, 191331.95, -81695.93, 223829.9, -0.19834639, 0.55085194, 316993.3, 361137.6, 0.12176396, 10.00276, 9.998346 
2.2951984e+3, 3.0550164e+2, 139766.61, 621939.6, -222241.03, 0.09891133, 0.19405325, 708746.06, 708746.06, 0.05398185, 9.998647, 10.005024 
2.2951911e+3, 3.1550977e+2, 997311.75, 2184777.3, 120273.336, -0.9752575, 0.35830674, 2196836.8, 2196836.8, 0.03139238, 9.999819, 10.015351 
2.3051912e+3, 2.955066e+2, 574464.8, 792248.56, -341992.03, 0.34899387, 1.5841389, 1042266.1, 1086372.4, 0.36105698, 10.002583, 10.008231 
2.3051931e+3, 3.054938e+2, -1066943.9, -779683.6, 285772.88, -0.6578852, -0.32648826, -603476.7, -603476.7, 0.21455322, 9.993613, 9.997666 
2.3052022e+3, 3.1549764e+2, 101115.305, -1161415.8, -108907.17, -0.29969087, 1.3174063, 110440.86, 110440.86, 0.16645536, 10.005473, 9.989876 
2.3509763e+3, 2.7481624e+2, -235858.08, -749289.9, 396696.88, 0.064269796, -0.35397917, -20057.875, 226735.48, 0.45023853, 10.002549, 9.994754 
2.3505618e+3, 2.8480038e+2, 302946.9, -443375.03, -464364.97, -0.6730568, -0.7584137, 525507.3, 674453.6, 0.35409364, 10.006619, 9.994726 
2.3501767e+3, 2.9481527e+2, -163562.06, 60873.62, 638006.0, 0.107642725, 0.9798596, 596455.5, 647247.06, 0.27795747, 9.998779, 10.0019455 
2.3497851e+3, 3.047823e+2, 72998.516, -1027529.75, -802527.25, 0.021659855, -0.62790596, 495791.72, 495791.72, 0.22400425, 10.007197, 9.990031 
2.3648894e+3, 1.7530891e+2, -2224665.5, -1466944.5, 10820.625, -0.13070469, -0.61321497, -1466790.0, -244824.4, 0.4364118, 9.9914055, 10.00172 
2.3644888e+3, 1.8531024e+2, -684955.2, -1259269.4, 52691.063, -1.4287785, 0.48115745, -680161.0, 443794.03, 0.3776002, 10.006489, 9.995083 
2.3641084e+3, 1.952953e+2, -1121677.6, -1586941.6, 260654.22, -0.2742303, 0.075033434, -1004941.25, 21163.244, 0.33353606, 10.0010805, 9.994845 
2.3637265e+3, 2.0528051e+2, -1103210.8, -1124891.1, 34406.246, 0.44946328, -0.29311988, -1077977.4, -149729.78, 0.30097756, 9.998777, 9.9984 
2.3633316e+3, 2.1527094e+2, -1241142.9, -1125551.3, 258244.17, 0.16394071, -0.42638278, -918714.5, -88380.45, 0.27814174, 9.99686, 9.998808 
2.362936e+3, 2.2526547e+2, -455355.16, -1099749.5, -72669.53, -0.17685273, 0.08033986, -447261.75, 285128.1, 0.261044, 10.004289, 9.994687 
2.362542e+3, 2.3525146e+2, -1334570.1, -1442271.3, -277299.4, -0.52858555, -0.17983305, -1105940.9, -471402.4, 0.24562603, 9.996527, 9.99544 
2.362147e+3, 2.452409e+2, -845442.44, -1107730.8, -58422.105, -0.60114735, -0.081132635, -833018.06, -296370.63, 0.23008443, 9.999013, 9.995846 
2.3617597e+3, 2.5523096e+2, -776302.8, -838729.2, 283511.78, -0.13924529, 0.07751707, -522291.2, -83546.234, 0.20982926, 9.997952, 9.997577 
2.3613675e+3, 2.6522672e+2, 199498.16, 206846.2, -104273.56, 0.54506695, 0.26516452, 307510.44, 648297.06, 0.1745722, 10.002137, 10.002969 
2.3609734e+3, 2.7521864e+2, -865735.94, -1200488.5, 136817.56, 0.32154423, 0.23267493, -816932.0, -574067.1, 0.1247914, 9.998055, 9.993659 
2.3605664e+3, 2.852038e+2, 296391.66, -146548.4, -508478.88, -0.072573125, -0.034842484, 629538.4, 774542.4, 0.081877075, 10.003615, 9.9977665 
2.3601595e+3, 2.9519227e+2, -35105.723, 176413.06, 150378.36, -0.8914213, -0.7667951, 254497.9, 301605.03, 0.05532396, 9.998953, 10.001823 
2.3597866e+3, 3.0519393e+2, 581361.94, 464789.75, 244681.14, 0.45049718, 0.21423863, 774603.44, 774603.44, 0.039714552, 10.003818, 10.001616 
2.3756607e+3, 1.5572459e+2, -1340773.9, -1319754.8, -53532.844, -0.56354624, 1.1077961, -1275709.6, 138217.48, 0.40917337, 9.999568, 10.00063 
2.3752752e+3, 1.6569641e+2, -662290.7, -1102555.6, 30404.604, 0.29949006, -0.92103803, -660200.8, 655996.1, 0.3191415, 10.006708, 9.998201 
2.3748855e+3, 1.7569861e+2, -1187358.6, -1393800.4, -173681.53, 0.08228672, 0.14430308, -1088540.4, 129629.875, 0.25440004, 10.000636, 9.997945 
2.3744935e+3, 1.8569149e+2, -1152152.5, -1082708.1, -228368.95, -0.15860024, 0.25959277, -886436.75, 233797.17, 0.20803122, 9.999148, 10.000203 
2.3741023e+3, 1.9567956e+2, -923436.7, -996675.94, -76990.48, -0.22149245, -0.24021435, -874800.6, 147543.72, 0.17323056, 10.000245, 9.999516 
2.3737088e+3, 2.0567109e+2, -824253.0, -929322.4, -44015.074, -0.58611935, -0.26270652, -808251.4, 116172.68, 0.14628343, 10.000412, 9.999136 
2.3733154e+3, 2.1566653e+2, -664699.3, -789742.3, -58445.023, -0.7604888, 0.0773993, -641636.0, 184831.14, 0.1255341, 10.000781, 9.999291 
2.3729326e+3, 2.2565994e+2, -777717.2, -1074480.0, 13078.968, 0.14174993, 0.37356701, -777141.9, -48607.164, 0.10829949, 10.000404, 9.996788 
2.372554e+3, 2.3564985e+2, -843172.75, -1021451.94, 15088.722, 1.5210617, 0.47144085, -841904.7, -211264.17, 0.09199208, 9.999122, 9.99711 
2.3721592e+3, 2.4564016e+2, -533199.44, -469763.9, 3538.2542, 1.5482955, 0.35718265, -469567.16, 63169.508, 0.07586676, 9.999036, 10.0003195 
2.3717576e+3, 2.556283e+2, -611210.94, -743602.8, 100552.01, 0.55643886, 0.05796373, -557021.6, -122172.52, 0.059159193, 9.9991665, 9.997619 
2.3713547e+3, 2.6562104e+2, -109513.16, -118628.38, -164993.77, 0.025306448, 0.14689252, 50985.93, 387906.4, 0.04041217, 10.000485, 10.000695 
2.3709592e+3, 2.7561623e+2, -573793.0, -715231.4, 230712.75, -0.15403302, 0.49740288, -403204.13, -164234.27, 0.02171852, 9.998714, 9.996587 
2.3705596e+3, 2.8560364e+2, -184796.36, -511265.94, -135404.63, -0.1884732, 0.39744705, -135946.23, 5144.267, 0.00948937, 10.000936, 9.9961815 
2.3701635e+3, 2.9558736e+2, 391091.97, 194918.8, 215584.63, -0.013985756, -0.42959988, 529854.94, 573097.56, 0.0043440894, 10.002909, 9.999733 
2.3697753e+3, 3.0558354e+2, -196288.6, -27001.025, -108561.055, 0.059513606, 0.14770578, 26014.453, 26014.453, 0.0025770308, 9.998598, 10.000263 
2.3860489e+3, 1.461075e+2, -1509209.8, -1577079.6, -9013.268, -0.29400897, -0.5687001, -1508033.1, 137.04228, 0.38968232, 9.999859, 9.998856 
2.3856573e+3, 1.5611753e+2, -1464613.1, -1665585.5, -119088.3, -0.22952455, 1.2093511, -1409280.5, 797.9481, 0.27836236, 10.000039, 9.997633 
2.3852646e+3, 1.6610701e+2, -1394018.8, -1570520.9, 118747.76, -0.37062123, 1.1663439, -1334319.6, -22137.994, 0.19862524, 9.999919, 9.997564 
2.3848718e+3, 1.7608617e+2, -1296749.6, -1525784.9, 128644.51, -0.61271167, 0.028563203, -1239035.8, -24654.39, 0.1461588, 10.000062, 9.997204 
2.3844832e+3, 1.860771e+2, -1000789.94, -888661.3, 158654.53, -0.42281422, -0.04750099, -776456.56, 340005.0, 0.11113541, 9.999608, 10.0012665 
2.3840986e+3, 1.9607435e+2, -1061132.8, -935156.94, 102685.0, 0.14797223, 0.26932728, -877680.4, 140797.25, 0.08556882, 9.998625, 10.000714 
2.3837107e+3, 2.0606698e+2, -1089046.6, -1061336.4, 62893.69, 0.34903723, 0.29148692, -1010789.75, -90241.61, 0.065839775, 9.998534, 9.999093 
2.3833166e+3, 2.1605635e+2, -1013844.7, -1028299.8, -36468.7, 0.0603555, 0.041460194, -983894.25, -161238.03, 0.050802168, 9.998567, 9.9986725 
2.38292e+3, 2.2604811e+2, -863368.1, -820797.3, -46081.57, -0.39539418, 0.03390847, -791322.7, -66582.87, 0.038884565, 9.998668, 9.999315 
2.3825245e+3, 2.3604006e+2, -921085.9, -959026.1, -62347.715, -0.66306293, 0.1006209, -874886.2, -248064.98, 0.028499383, 9.998261, 9.997943 
2.3821302e+3, 2.460296e+2, -525156.0, -452298.88, -11934.452, -0.586855, -0.13746639, -450393.75, 78527.08, 0.019239577, 9.999194, 10.000272 
2.3817413e+3, 2.5601628e+2, -753492.1, -813655.4, 125205.75, -0.28003567, -0.61154866, -654805.0, -223760.63, 0.011432521, 9.9983425, 9.9975 
2.381345e+3, 2.6601288e+2, -57878.72, 40082.5, -156521.05, -0.24602689, -0.19865213, 155107.81, 488185.78, 0.005416997, 10.000427, 10.001673 
2.3809467e+3, 2.76014e+2, -239065.69, -268778.38, 40607.516, -0.57988286, 0.5126236, -210682.22, 24389.146, 0.001679893, 9.999819, 9.999126 
2.3805515e+3, 2.8600276e+2, -81439.72, -520868.66, -83481.03, -0.3687677, 0.46368012, -66114.766, 71066.67, 0.00032890253, 10.001916, 9.995661 
2.380168e+3, 2.9599005e+2, -192812.78, -509945.7, 193699.53, 0.8117791, 0.15034676, -101053.78, -61751.605, 0.000101582686, 10.00064, 9.996049 
2.3797603e+3, 3.0597347e+2, -245659.73, -400757.6, -202591.4, -0.75836927, -0.2139438, -106282.14, -106282.14, 0.00014345841, 9.99977, 9.99715 
2.3964334e+3, 1.3651194e+2, -1580716.8, -1546458.3, 190436.6, -0.46497682, 0.48362103, -1372382.1, 229827.13, 0.42782584, 9.99979, 10.0003395 
2.3960395e+3, 1.4650317e+2, -1339392.1, -1274304.1, -130681.62, -0.53902006, 0.1892231, -1172175.1, 332120.7, 0.2998544, 10.000153, 10.001577 
2.3956518e+3, 1.5649608e+2, -1299534.1, -1320790.1, -65242.242, -0.07556745, 0.08427066, -1244059.9, 162300.17, 0.19614406, 10.000086, 10.000186 
2.3952608e+3, 1.664902e+2, -1199220.4, -1251722.9, 60599.414, -0.0631104, 0.24723639, -1159430.6, 148985.52, 0.12585048, 10.0002775, 9.999715 
2.394868e+3, 1.7648365e+2, -1144790.8, -1249676.1, 118385.56, -0.31711224, 0.36294466, -1067752.3, 142728.5, 0.083471425, 10.00024, 9.999074 
2.3944773e+3, 1.8647528e+2, -969881.9, -955537.3, 121671.34, -0.27991617, 0.30531302, -840827.0, 271729.4, 0.057587944, 10.000156, 10.000432 
2.3940884e+3, 1.9646636e+2, -1029652.44, -1030917.0, 102055.2, -0.07747159, 0.11830763, -928227.56, 86406.48, 0.03970386, 9.999328, 9.999656 
2.3936982e+3, 2.0645775e+2, -1110067.4, -1209664.8, 60159.32, -0.024826549, 0.13976113, -1081769.6, -165048.98, 0.026570952, 9.9990015, 9.997838 
2.3933066e+3, 2.1644883e+2, -975837.3, -1090217.8, 5082.2886, -0.11021636, 0.2121745, -975611.94, -156794.9, 0.017417854, 9.999183, 9.997938 
2.3929147e+3, 2.264411e+2, -620772.8, -574922.75, -41447.777, -0.11069878, 0.22475596, -550482.44, 170412.92, 0.011141793, 9.999755, 10.000505 
2.392523e+3, 2.3643264e+2, -458760.2, -571207.7, -15891.784, -0.07942799, 0.14997075, -456557.44, 166420.05, 0.0065593217, 10.000727, 9.999392 
2.3921275e+3, 2.4642509e+2, -126142.65, -79096.54, -21809.861, -0.17793435, 0.053057965, -70541.5, 454506.28, 0.0032030866, 10.001179, 10.001852 
2.3917337e+3, 2.5641766e+2, -372457.94, -405858.66, 166950.22, -0.2752627, -0.013290505, -221374.88, 205740.23, 0.0011282732, 10.000019, 9.999442 
2.3913382e+3, 2.6641032e+2, -157375.23, -197143.55, -31337.887, -0.25290853, 0.0505017, -140145.47, 189037.95, 0.00023273825, 10.000596, 9.999915 
2.3909426e+3, 2.764025e+2, -59655.938, -108988.6, 26121.791, -0.35596058, 0.0005406853, -48394.9, 182863.11, 0.000018051116, 10.000735, 9.999733 
2.3905462e+3, 2.8639254e+2, 2478.8555, -208221.23, -63090.55, -0.33483964, -0.096347034, 19925.592, 153280.28, 0.000004039042, 10.001307, 9.998074 
2.3901574e+3, 2.963877e+2, -43859.99, -371282.38, 207374.81, 0.42474115, 0.2726603, 56636.438, 92038.1, 0.00001362104, 10.001258, 9.996713 
2.3897581e+3, 3.0636945e+2, 575156.9, -70363.49, -57491.727, -0.53814644, -0.09660366, 580237.25, 580237.25, 0.00005414364, 10.005592, 9.996688 
2.4068215e+3, 1.2691242e+2, -2123907.3, -2253101.5, -168083.16, -0.34808484, 0.22944641, -2008435.8, -312170.4, 0.49043512, 9.998333, 9.996113 
2.406426e+3, 1.369037e+2, -1809830.8, -2078937.4, -41916.836, -0.49091622, 0.38384616, -1803452.8, -205088.81, 0.36336103, 9.9996805, 9.996239 
2.4060346e+3, 1.468943e+2, -1257698.6, -1164252.1, 65249.82, -0.32836217, 0.19762887, -1130722.1, 369735.22, 0.24041095, 10.000595, 10.002058 
2.4056445e+3, 1.5688492e+2, -1227210.6, -1208173.0, 15800.411, -0.09157549, -0.19407804, -1199245.8, 203297.63, 0.14389461, 10.000347, 10.000812 
2.405254e+3, 1.6687939e+2, -1231509.0, -1271707.9, 48921.71, -0.038665544, -0.007991927, -1198718.8, 105877.734, 0.08188297, 10.000122, 9.999586 
2.4048628e+3, 1.7687526e+2, -1245821.6, -1308393.5, -65310.613, -0.07259103, 0.36456057, -1204690.1, 1948.4464, 0.047678713, 9.999532, 9.999013 
2.4044709e+3, 1.8686701e+2, -1076531.6, -1042916.0, -73396.68, -0.14559355, 0.3101924, -984427.2, 124288.21, 0.028905774, 9.999588, 10.000052 
2.4040788e+3, 1.968569e+2, -1092203.9, -1123003.1, -89734.4, -0.2061747, 0.03609707, -1016557.25, -5749.596, 0.017015342, 9.999221, 9.9990635 
2.4036875e+3, 2.068489e+2, -1086048.6, -1083262.3, 32712.688, -0.23494221, 0.07147578, -1051913.1, -139025.72, 0.00915297, 9.998751, 9.998816 
2.4032976e+3, 2.1684156e+2, -1167862.0, -1141314.4, 132515.73, -0.12731129, 0.23414677, -1021409.3, -206443.63, 0.0045936005, 9.997771, 9.998274 
2.4029082e+3, 2.2683407e+2, -866081.5, -675995.56, 131025.11, 0.09811863, 0.25338855, -609172.06, 107870.63, 0.0022051786, 9.998042, 10.000619 
2.4025193e+3, 2.368251e+2, -845774.25, -723631.56, 61836.496, 0.32615063, 0.10341905, -697792.25, -78660.266, 0.0009056362, 9.997964, 9.999681 
2.4021228e+3, 2.4682106e+2, -427414.94, -59941.195, -63311.664, 0.12692574, 0.24914324, -49339.176, 471830.16, 0.00023937336, 9.99851, 10.003205 
2.4017256e+3, 2.568187e+2, -772601.56, -528692.2, 11622.775, -0.22271554, 0.5202276, -528139.6, -104951.07, 0.000025130046, 9.996995, 10.000078 
2.401331e+3, 2.6680773e+2, -460940.5, -485175.13, -52591.004, -0.2202061, 0.271215, -419088.9, -93798.81, 0.00000030344088, 9.999212, 9.998572 
2.4009383e+3, 2.7679285e+2, -193708.8, -200104.67, -25593.979, -0.12324528, -0.42623624, -171113.75, 56315.285, 0.000000006555133, 9.999955, 9.99951 
2.4005407e+3, 2.867851e+2, 203644.61, 156079.42, -86088.12, -0.24435182, -0.47022077, 269174.8, 398677.75, 0.00000087941476, 10.001607, 10.000409 
2.4001457e+3, 2.967845e+2, -280011.03, -558415.3, 149359.94, -0.18355526, 0.21307252, -215042.6, -183532.44, 0.0000072209577, 10.000038, 9.996 
2.3997605e+3, 3.0676943e+2, -63576.45, -446041.06, 305641.44, -0.13519576, 0.17025681, 105727.64, 105727.64, 0.00003484927, 10.001647, 9.995891 
2.4168122e+3, 1.2729706e+2, -1706827.1, -1415918.8, -124098.445, -0.37645543, 0.086663246, -1370173.3, 322331.88, 0.44509998, 9.997638, 10.003905 
2.4164253e+3, 1.3729061e+2, -1480484.4, -1385078.9, 31253.732, 0.14761968, -0.23448041, -1375752.3, 218810.9, 0.31930807, 9.999698, 10.001708 
2.4160312e+3, 1.4728712e+2, -1317837.3, -1313218.6, 39697.73, -0.009263903, 0.04720392, -1275763.1, 220834.36, 0.20041417, 10.000665, 10.000599 
2.4156341e+3, 1.5728329e+2, -1309388.0, -1403069.4, 13824.025, -0.49825886, 0.3593681, -1307390.8, 91245.35, 0.110025235, 10.000461, 9.999184 
2.4152438e+3, 1.6727251e+2, -1314451.3, -1529344.4, 14435.01, -0.3423238, 0.19792698, -1313485.9, -12744.022, 0.054970514, 10.000455, 9.997621 
2.4148564e+3, 1.772592e+2, -1307972.5, -1495810.0, -72796.375, 0.018287469, -0.15476952, -1283063.5, -80191.336, 0.027314784, 9.999777, 9.997605 
2.414464e+3, 1.8725124e+2, -1042755.06, -1036615.0, -90742.19, -0.062207405, -0.12734255, -948890.94, 156058.75, 0.013986388, 9.999849, 9.999971 
2.4140698e+3, 1.9724502e+2, -949547.94, -942330.94, -91379.4, -0.35508388, -0.0053728065, -854488.8, 152520.6, 0.006556314, 9.99969, 10.000086 
2.4136792e+3, 2.0723955e+2, -712084.94, -430754.44, -3187.311, -0.24267836, -0.016115466, -430718.3, 478336.16, 0.002469395, 9.9992695, 10.003076 
2.41329e+3, 2.1723405e+2, -823503.5, -629703.2, 169329.73, -0.0049138167, -0.061820485, -531507.94, 279590.5, 0.00078321603, 9.998585, 10.001416 
2.4128982e+3, 2.2722681e+2, -932033.44, -866160.75, 174005.94, 0.006835948, -0.04756329, -722001.5, -8825.416, 0.00023610769, 9.998233, 9.999227 
2.4125059e+3, 2.3721816e+2, -893091.1, -832983.4, 110531.3, -0.10130415, -0.03177693, -748492.94, -133219.48, 0.000047296035, 9.997965, 9.998931 
2.4121106e+3, 2.472131e+2, -648496.2, -280763.9, -85082.445, -0.12757778, 0.113891855, -262032.45, 255293.92, 0.0000020598873, 9.9974575, 10.002213 
2.4117158e+3, 2.5720927e+2, -856564.2, -540339.94, -20570.537, -0.1532431, 0.3134218, -539007.4, -119644.41, 0.0, 9.996256, 10.000341 
2.4113242e+3, 2.6720077e+2, -579751.94, -503455.22, 50011.035, -0.004934353, 0.2884892, -478703.63, -157258.84, 0.0, 9.998245, 9.998908 
2.4109343e+3, 2.7719036e+2, -4362.44, -65333.383, 29287.994, 0.13463792, 0.03752178, 7426.7925, 230971.55, 0.0, 10.000962, 9.999978 
2.4105364e+3, 2.8718156e+2, 307752.97, 182378.36, -173331.75, -0.14269187, -0.123618945, 429384.94, 555013.5, 0.0000001537889, 10.0022745, 10.000357 
2.4101387e+3, 2.971764e+2, 225855.75, -226943.7, 6552.926, -0.41817665, 0.13969098, 225950.56, 253627.1, 0.000003139397, 10.002938, 9.996924 
2.4097575e+3, 3.071631e+2, -68186.125, -198156.38, 157709.75, 0.27300403, 0.08300005, 37402.58, 37402.58, 0.000017282315, 10.000248, 9.998366 
2.426809e+3, 1.2768877e+2, -1196240.8, -1168754.6, 100710.76, -0.03690509, -0.04502243, -1080853.5, 607813.6, 0.4141129, 10.003237, 10.003881 
2.4264182e+3, 1.3768467e+2, -1430922.4, -1384156.9, -39309.348, 0.1982395, -0.088364474, -1361801.5, 228899.08, 0.28877336, 10.000203, 10.001404 
2.4260236e+3, 1.4768033e+2, -1453390.5, -1463222.0, -49863.39, -0.035188656, 0.16374773, -1408201.1, 84543.02, 0.17287979, 9.9998455, 9.999762 
2.425627e+3, 1.5767583e+2, -1333553.3, -1504516.9, -75229.78, -0.49863574, 0.494146, -1305163.8, 89628.33, 0.08747846, 10.000503, 9.998551 
2.4252369e+3, 1.6766423e+2, -1197018.1, -1442563.8, 36075.92, -0.3586867, 0.24470659, -1191827.5, 105078.305, 0.038149297, 10.001096, 9.997939 
2.4248496e+3, 1.7764989e+2, -1089302.0, -1351844.1, 80440.01, 0.067068525, -0.22371006, -1066616.3, 132428.52, 0.01570925, 10.001123, 9.997936 
2.4244565e+3, 1.8764256e+2, -1053307.3, -997597.3, 102464.95, -0.025615033, -0.16920258, -919268.6, 181848.0, 0.0064830934, 9.999562, 10.00036 
2.4240616e+3, 1.9763769e+2, -1320177.1, -1071455.6, 114488.55, -0.27564391, 0.07465364, -1026780.25, -23615.926, 0.0021827125, 9.99695, 10.000511 
2.4236704e+3, 2.0763195e+2, -929016.7, -382234.5, 73748.5, -0.17495973, -0.054844346, -372462.16, 532744.4, 0.00044835047, 9.997159, 10.004398 
2.4232812e+3, 2.176259e+2, -955236.0, -607888.25, -840.9754, 0.08001697, -0.31142315, -607886.2, 199361.02, 0.000068581576, 9.997388, 10.002127 
2.422888e+3, 2.2761956e+2, -974269.5, -941459.6, 14981.235, -0.0867887, -0.21473534, -935648.3, -226330.27, 0.0000096515805, 9.998311, 9.998631 
2.4224938e+3, 2.3761229e+2, -925167.3, -950230.0, 2210.4976, -0.33489305, -0.022383798, -924973.9, -313565.6, 0.00000040342232, 9.998276, 9.997973 
2.4220999e+3, 2.4760582e+2, -404728.8, -291880.47, -156228.25, -0.25361633, 0.06726561, -182199.39, 331279.13, 0.0, 9.999743, 10.001015 
2.4217068e+3, 2.5759968e+2, -439179.25, -440766.2, -111424.516, -0.0384777, 0.11763839, -328545.38, 86995.23, 0.0, 9.999606, 9.999436 
2.4213174e+3, 2.675936e+2, -340105.0, -325849.84, 59169.23, 0.16719753, 0.2992144, -273380.44, 44221.96, 0.0, 9.999679, 9.999401 
2.4209292e+3, 2.7758738e+2, -522754.6, -465581.0, 5359.334, 0.33804116, 0.45522937, -465082.97, -245417.27, 0.0, 9.998106, 9.998616 
2.4205303e+3, 2.8757688e+2, -154386.4, -140476.9, -178946.25, -0.13896888, 0.24444123, 31649.695, 153414.77, 0.0000000009564638, 9.99969, 9.999303 
2.4201326e+3, 2.9756647e+2, -381129.53, -478351.1, 22029.65, -0.5670252, 0.009939633, -376370.72, -352509.28, 0.0000004799063, 9.99874, 9.997205 
2.4197513e+3, 3.0755764e+2, 78640.28, 136019.25, -170803.16, 0.24511021, 0.053721413, 280525.63, 280525.63, 0.0000055147566, 10.000224, 10.000648 
2.4368052e+3, 1.2808858e+2, -1465022.0, -1645129.0, -20972.1, -0.05312068, 0.2864901, -1462612.1, 222134.16, 0.39271495, 10.002564, 9.998587 
2.4364063e+3, 1.380811e+2, -1658454.6, -1829113.9, -111165.44, -0.32876337, 0.42067087, -1603645.4, -16825.172, 0.26710206, 9.99994, 9.997881 
2.4360134e+3, 1.4807208e+2, -1450617.0, -1474050.8, -33170.523, -0.3299347, 0.33739972, -1427154.9, 61757.41, 0.15331793, 9.999944, 9.999613 
2.435622e+3, 1.5806298e+2, -1333195.4, -1440834.8, -29489.54, -0.31639448, 0.21946567, -1325645.8, 65359.848, 0.07196278, 10.000251, 9.999099 
2.435232e+3, 1.6805564e+2, -1031391.1, -1109590.5, 49717.49, -0.24134907, 0.23275441, -1007240.44, 285836.8, 0.027363949, 10.001163, 10.000226 
2.4348418e+3, 1.7804825e+2, -926227.1, -1042956.3, 76465.24, -0.1648182, 0.23335348, -888397.4, 306750.5, 0.009079448, 10.001279, 9.999968 
2.434448e+3, 1.8804228e+2, -976150.3, -847164.7, 13938.487, -0.0985776, 0.292034, -845675.6, 251527.6, 0.002868925, 9.999617, 10.00136 
2.4340534e+3, 1.980364e+2, -1288153.1, -1046771.5, 91517.56, -0.0868377, 0.35858053, -1015997.0, -16739.887, 0.00059867656, 9.9971075, 10.0006075 
2.433661e+3, 2.0802666e+2, -1142150.5, -848253.94, 112861.555, -0.09650838, 0.03568496, -809914.56, 91427.44, 0.000045539302, 9.997215, 10.001185 
2.4332698e+3, 2.1801613e+2, -1004181.7, -840287.6, 10120.78, -0.12285562, -0.36014113, -839665.0, -36232.137, 0.0000022398012, 9.997914, 10.000266 
2.4328786e+3, 2.2801107e+2, -834399.2, -754953.2, 8447.917, -0.14195317, -0.12831114, -754064.8, -48574.06, 0.000000052409952, 9.998738, 9.999712 
2.4324876e+3, 2.3800713e+2, -674342.44, -706463.44, 28861.215, -0.17648031, 0.28598332, -657374.0, -49829.207, 0.0, 9.999428, 9.999091 
2.432095e+3, 2.4799953e+2, -315286.56, -383410.22, -110821.76, -0.07356401, 0.31004202, -233410.17, 276216.1, 0.0, 10.000882, 9.999871 
2.4317019e+3, 2.5799096e+2, -60250.824, -257862.4, -109237.05, 0.032578554, 0.22699837, -11763.314, 399950.3, 0.0, 10.002117, 9.999491 
2.431309e+3, 2.6798394e+2, -151452.11, -187205.4, -69796.53, 0.03170569, 0.28361532, -97279.25, 216503.38, 0.0, 10.000658, 9.999931 
2.4309172e+3, 2.7797744e+2, -420793.25, -332436.25, -66692.76, 0.03505335, 0.3854575, -296616.84, -80771.336, 0.0, 9.99832, 9.999444 
2.4305215e+3, 2.879688e+2, -171158.1, -114328.68, -90472.8, -0.16993655, 0.32224402, -47913.418, 70013.63, 0.0, 9.999297, 9.999728 
2.4301282e+3, 2.9795983e+2, 19902.074, -109375.55, 130476.086, -0.32975116, 0.17923051, 100872.96, 120883.75, 0.000000008678429, 10.000603, 9.998862 
2.4297458e+3, 3.0795127e+2, 464158.9, 195737.02, -281091.6, 0.21367896, 0.26636076, 641436.44, 641436.44, 0.0000009202062, 10.003077, 9.999847 
2.4471924e+3, 1.1848827e+2, -1605463.5, -1369799.9, 14001.528, -0.045021378, 0.4107644, -1368970.9, 409861.8, 0.4945417, 9.999054, 10.005455 
2.4467969e+3, 1.2847959e+2, -1815212.3, -1891774.3, -236450.22, -0.17407188, 0.16506594, -1613964.3, 66943.555, 0.3775347, 9.999524, 9.998358 
2.4463968e+3, 1.3847147e+2, -1650317.1, -1789303.1, -92554.73, -0.49384683, 0.25806117, -1604070.5, -21080.533, 0.25111946, 9.99983, 9.99821 
2.4460049e+3, 1.4846273e+2, -1558797.9, -1545519.4, 52445.9, -0.39468336, 0.20728092, -1499294.1, -14213.425, 0.13882844, 9.999235, 9.999437 
2.4456155e+3, 1.5845346e+2, -1656234.4, -1554414.5, 53623.816, -0.11116329, 0.100948036, -1531383.0, -144206.03, 0.060861234, 9.997841, 9.999459 
2.4452244e+3, 1.6844803e+2, -1547502.5, -1225355.0, 86576.15, -0.14562126, 0.21815792, -1203562.1, 85669.1, 0.02025213, 9.997084, 10.001334 
2.4448323e+3, 1.7844354e+2, -1575244.8, -1252670.1, 13983.369, -0.23862898, 0.40623915, -1252065.0, -60790.48, 0.0052852775, 9.996384, 10.000884 
2.444439e+3, 1.8843797e+2, -1167300.8, -894810.06, -89510.6, -0.11336517, 0.43040094, -868037.2, 225288.23, 0.0012089658, 9.998123, 10.001771 
2.4440457e+3, 1.9843167e+2, -950733.75, -924945.56, -33369.48, 0.10208866, 0.41556162, -902065.6, 93316.76, 0.00012403581, 9.999655, 10.000211 
2.4436526e+3, 2.084208e+2, -865960.0, -942268.44, 82666.57, -0.03310772, 0.101136595, -813067.5, 84415.484, 0.000001917801, 10.000151, 9.999074 
2.44326e+3, 2.1840864e+2, -876729.1, -970027.94, 63474.246, -0.20513697, -0.25357643, -844605.75, -45009.48, 0.000000018702426, 9.999647, 9.998522 
2.4428697e+3, 2.2840363e+2, -649147.3, -600640.2, 54465.246, -0.17803738, -0.0070711253, -565272.44, 136379.53, 0.0, 9.999716, 10.00028 
2.4424805e+3, 2.3840035e+2, -779983.1, -760306.9, 34685.54, -0.053817727, 0.40839678, -734091.2, -130396.76, 0.0, 9.998755, 9.99904 
2.4420889e+3, 2.4839243e+2, -613232.2, -582223.0, -35679.96, 0.06316277, 0.42006314, -558824.5, -53045.285, 0.0, 9.999187, 9.999269 
2.4416965e+3, 2.5838304e+2, -593660.25, -592817.7, -13687.227, 0.13366427, 0.3102615, -579545.25, -171668.77, 0.0, 9.9988785, 9.998737 
2.4413006e+3, 2.683752e+2, -169274.31, -127622.68, -1012.98376, -0.12181776, 0.2701633, -127598.055, 182352.25, 0.0, 10.000301, 10.000495 
2.4409053e+3, 2.7836782e+2, -160800.11, -195725.56, 42058.746, -0.31559294, 0.2371857, -132722.9, 79294.734, 0.0, 10.000123, 9.999532 
2.4405144e+3, 2.8836095e+2, 129079.97, 63455.547, 50823.184, -0.13658653, 0.29927343, 156762.69, 270846.28, 0.0, 10.001291, 9.99996 
2.4401245e+3, 2.983542e+2, -259931.89, -325147.25, 184164.98, -0.040228486, 0.3741413, -105510.164, -89361.44, 0.0, 9.999142, 9.998093 
2.4397373e+3, 3.0834085e+2, -221617.83, -176090.28, 119136.28, -0.1944259, -0.0415436, -77562.5, -77562.5, 0.00000009984614, 9.998954, 9.999102 
2.4571858e+3, 1.1887311e+2, -1721634.5, -1588200.0, -3885.9297, 0.032151356, 0.042707603, -1588087.0, 186961.06, 0.48539782, 9.998951, 10.002484 
2.4567875e+3, 1.2886502e+2, -1631536.3, -1511981.1, -142127.38, -0.32387134, -0.2589917, -1417571.9, 259549.72, 0.36593348, 9.999408, 10.001588 
2.4563885e+3, 1.3885932e+2, -1559528.1, -1556195.5, -48227.008, -0.6215451, -0.21337405, -1509606.0, 69572.7, 0.23856215, 9.999753, 9.999896 
2.4559966e+3, 1.4885329e+2, -1544660.9, -1555071.9, 21177.895, -0.4195196, -0.037523095, -1528058.1, -46814.84, 0.1275105, 9.999417, 9.999263 
2.4556069e+3, 1.5884669e+2, -1630663.3, -1539311.1, 29363.209, -0.07321917, 0.13356268, -1530687.1, -147373.13, 0.052560914, 9.998047, 9.999441 
2.4552144e+3, 1.6884056e+2, -1516478.9, -1215245.0, 61871.313, -0.13224632, 0.18035969, -1203032.3, 82344.54, 0.01541553, 9.997318, 10.001285 
2.4548209e+3, 1.7883442e+2, -1567012.5, -1248897.0, 32383.188, -0.31490242, 0.21403848, -1245633.9, -58195.684, 0.0031067657, 9.996444, 10.000877 
2.4544293e+3, 1.8882814e+2, -1148233.8, -890490.5, 1303.8457, -0.15515836, 0.17272854, -890483.9, 199013.42, 0.00048131414, 9.998283, 10.001714 
2.4540383e+3, 1.988215e+2, -863083.25, -893155.8, 31586.357, 0.046559628, 0.1336293, -843136.8, 148422.27, 0.000015932997, 10.000294, 10.000099 
2.4536458e+3, 2.0881346e+2, -779432.5, -930091.2, 72379.0, -0.05515185, 0.13531686, -750295.44, 143342.39, 0.0000000054715246, 10.000863, 9.9988165 
2.4532534e+3, 2.1880472e+2, -680553.1, -844450.75, 67213.695, -0.24396028, 0.1435624, -656514.75, 139209.13, 0.0, 10.000804, 9.998842 
2.4528615e+3, 2.2879688e+2, -572802.06, -573976.8, 39049.14, -0.27488914, 0.11171265, -534335.9, 163466.19, 0.0, 10.000207, 10.0002775 
2.4524707e+3, 2.3878951e+2, -652779.44, -625937.4, 9301.032, -0.24816729, 0.12058631, -623029.5, -23152.516, 0.0, 9.999225, 9.999758 
2.4520797e+3, 2.4878258e+2, -609010.8, -493619.75, -30855.47, 0.009761878, 0.16910179, -485887.2, 16063.381, 0.0, 9.998771, 10.000123 
2.4516886e+3, 2.587755e+2, -517817.4, -372542.47, 50873.402, 0.21664135, 0.21123548, -356499.03, 47525.523, 0.0, 9.998492, 10.000466 
2.4512938e+3, 2.687684e+2, -15375.54, 111538.82, 148498.58, -0.11069657, 0.09332982, 209570.47, 515655.84, 0.0, 10.000531, 10.002087 
2.4508992e+3, 2.7876136e+2, 324864.0, 98141.88, 181307.17, -0.4500208, -0.026807113, 425332.34, 633476.4, 0.0, 10.0030775, 10.0001545 
2.4505107e+3, 2.887537e+2, 315664.34, -124497.22, 73553.38, -0.063966975, 0.12659346, 327630.22, 437853.88, 0.0, 10.003636, 9.997597 
2.450124e+3, 2.9874557e+2, 265245.97, -167451.11, 60169.242, 0.36099002, 0.3004872, 273457.06, 285767.44, 0.0, 10.002936, 9.997394 
2.4497308e+3, 3.0873293e+2, -20190.05, 123615.31, 63948.883, -0.038851563, -0.022651536, 147938.7, 147938.7, 0.000000000000427524, 9.999168, 10.001145 
2.4671744e+3, 1.19264506e+2, -1811401.8, -1725515.8, 19572.926, -0.30170572, -0.28566107, -1721265.6, 49935.844, 0.47722325, 9.998786, 10.000761 
2.466781e+3, 1.2925978e+2, -1762829.8, -1515208.5, 22674.715, -0.074803054, -0.195456, -1513149.3, 160100.83, 0.3557266, 9.997818, 10.002277 
2.4663813e+3, 1.3925478e+2, -1626496.3, -1563897.9, 36490.715, -0.4941187, -0.10478271, -1547122.0, 28180.38, 0.22774403, 9.999049, 10.000187 
2.4659893e+3, 1.4924733e+2, -1448386.9, -1544854.4, 68385.78, -0.3646291, -0.04858843, -1412936.1, 64443.137, 0.11809006, 10.000299, 9.998924 
2.4655993e+3, 1.5923962e+2, -1209831.9, -1381729.3, 42801.176, -0.047277667, 0.055411126, -1199764.4, 179694.48, 0.04605504, 10.001177, 9.999027 
2.4652056e+3, 1.692327e+2, -1153843.0, -1133461.6, 2980.2356, -0.12813038, 0.087461956, -1133034.8, 148494.66, 0.012013259, 10.000214, 10.000455 
2.4648112e+3, 1.7922583e+2, -1288261.5, -1194295.3, -43843.1, -0.26334205, 0.11638352, -1177016.3, 6582.6226, 0.0018483637, 9.998683, 10.000183 
2.4644202e+3, 1.8921849e+2, -1102541.3, -954225.2, -61099.33, -0.17532715, 0.025118034, -932297.1, 153372.8, 0.00018026956, 9.998922, 10.00099 
2.4640301e+3, 1.9921128e+2, -1066651.5, -1029775.25, -67474.984, -0.0054622237, -0.018502938, -978264.56, 9474.648, 0.0000007906511, 9.999102, 9.999749 
2.4636385e+3, 2.0920536e+2, -878773.56, -922100.2, 12289.836, -0.09274343, 0.14670582, -875530.25, 14269.352, 0.0, 9.999955, 9.999336 
2.4632466e+3, 2.1919908e+2, -803067.94, -883047.56, 51839.758, -0.20199797, 0.35641265, -777586.06, 14277.697, 0.0, 9.999981, 9.998961 
2.462854e+3, 2.2918999e+2, -638534.4, -594996.7, 18246.914, -0.2860084, 0.17727198, -588360.75, 105590.86, 0.0, 9.999883, 10.00021 
2.4624617e+3, 2.3918046e+2, -756969.8, -712267.8, -17849.69, -0.28988153, -0.020060971, -706015.0, -109971.59, 0.0, 9.998758, 9.9993725 
2.4620706e+3, 2.4917385e+2, -483237.8, -415107.44, -73713.71, -0.031955127, 0.042061593, -367968.25, 130144.82, 0.0, 9.999568, 10.000274 
2.4616802e+3, 2.5916776e+2, -401438.8, -302745.2, -22106.97, 0.24544486, 0.1486712, -298019.6, 102157.42, 0.0, 9.999298, 10.000554 
2.4612874e+3, 2.691609e+2, -22012.629, 196800.6, 40830.027, -0.04474522, -0.03866046, 204171.11, 506402.63, 0.0, 10.000182, 10.002792 
2.4608947e+3, 2.7915433e+2, -161200.11, -222271.38, -11321.363, -0.38408217, -0.17390594, -159168.92, 45112.688, 0.0, 10.000218, 9.999313 
2.4605064e+3, 2.8914598e+2, -180318.16, -580548.4, -47929.023, -0.077531144, 0.021170864, -174658.52, -68287.1, 0.0, 10.00124, 9.995592 
2.4601221e+3, 2.9913485e+2, -490236.4, -834627.1, -10486.272, 0.65589964, 0.14973328, -489917.4, -481425.34, 0.0, 9.999247, 9.994559 
2.4597253e+3, 3.0912346e+2, -124800.16, 168797.25, -89800.18, 0.16788308, -0.020136233, 194085.53, 194085.53, 0.0, 9.998452, 10.001632 
2.4771631e+3, 1.1966151e+2, -2043679.1, -1964122.5, -286227.72, -0.5802639, -0.27733347, -1714922.3, 52380.0, 0.4678463, 9.998155, 9.999236 
2.4767746e+3, 1.2965955e+2, -1820338.4, -1598419.9, 51279.68, 0.25839347, 0.18828534, -1587143.5, 82189.58, 0.34520847, 9.99798, 10.001252 
2.476375e+3, 1.3965377e+2, -1732095.5, -1716221.4, 71607.16, -0.3348222, 0.3040835, -1652112.8, -80715.64, 0.21743059, 9.99883, 9.999185 
2.4759825e+3, 1.4964283e+2, -1481295.6, -1599706.8, 111867.07, -0.35390788, 0.061804414, -1413932.9, 59572.914, 0.109704144, 10.000295, 9.998518 
2.4755917e+3, 1.596316e+2, -1278544.6, -1502520.5, 55014.754, -0.21912311, -0.13875791, -1265761.0, 109855.51, 0.040704507, 10.001088, 9.998223 
2.4751978e+3, 1.6962391e+2, -1239938.3, -1339445.6, -49497.156, -0.20526664, -0.05245059, -1219510.8, 58183.05, 0.00953522, 10.000321, 9.998987 
2.4748032e+3, 1.796168e+2, -1357142.8, -1364260.5, -62411.324, -0.25738475, 0.10047442, -1298188.9, -118422.88, 0.0011160366, 9.998804, 9.998956 
2.4744108e+3, 1.8960859e+2, -1162590.4, -1122089.5, -52799.51, -0.2511559, 0.048228025, -1085790.3, -3941.7104, 0.00006263998, 9.99911, 9.999748 
2.4740198e+3, 1.9960068e+2, -998209.7, -931595.44, -52177.89, -0.24614115, 0.023691589, -903000.25, 80926.94, 0.0000000031066179, 9.99929, 10.000327 
2.4736299e+3, 2.0959549e+2, -682268.94, -580823.9, 44968.65, -0.20638339, 0.096612476, -563760.3, 322216.03, 0.0, 10.000204, 10.001598 
2.47324e+3, 2.195902e+2, -596594.8, -624330.6, 72080.945, -0.20519283, 0.2111813, -537059.9, 250966.95, 0.0, 10.000663, 10.0004225 
2.4728474e+3, 2.295827e+2, -610149.06, -612113.7, 7072.134, -0.19529054, 0.1805518, -603991.4, 86110.766, 0.0, 10.000157, 9.99999 
2.4724549e+3, 2.3957463e+2, -632885.75, -680095.06, -11120.697, -0.19456665, 0.16393664, -630397.3, -38213.51, 0.0, 9.999655, 9.999174 
2.4720626e+3, 2.4956703e+2, -440260.5, -517996.2, -53618.88, -0.11693891, 0.22371495, -412903.78, 81360.36, 0.0, 10.000338, 9.999226 
2.4716711e+3, 2.5955945e+2, -226663.6, -359009.72, -40698.574, -0.009418787, 0.2968594, -215149.8, 181194.05, 0.0, 10.001004, 9.999355 
2.471282e+3, 2.6955172e+2, -113825.51, -130833.91, -76007.016, 0.09278957, 0.23913725, -45848.414, 252566.89, 0.0, 10.000698, 10.00032 
2.470892e+3, 2.7954486e+2, -102391.79, -138527.64, -190322.13, 0.032713644, 0.25184378, 70718.11, 271194.4, 0.0, 10.0003, 9.999849 
2.4704981e+3, 2.8953648e+2, -48425.332, -166049.48, -147915.45, -0.22872974, 0.1986742, 51941.24, 154496.69, 0.0, 10.000455, 9.998905 
2.4701108e+3, 2.9952517e+2, -167440.73, -595410.3, 55702.875, 0.18971482, 0.05550272, -160309.48, -155643.44, 0.0, 10.000889, 9.995464 
2.4697211e+3, 3.0951414e+2, 534616.2, 139900.3, -36684.06, 0.23014423, 0.17754452, 537996.56, 537996.56, 0.0, 10.004106, 9.998853 
2.487152e+3, 1.2005608e+2, -2204519.0, -2029147.4, -500531.94, -0.65859544, -0.16577595, -1608678.6, 154762.25, 0.45571515, 9.99686, 9.99983 
2.486765e+3, 1.3005261e+2, -1794880.6, -1650181.3, -46689.33, 0.21031803, 0.16899134, -1636424.3, 29060.516, 0.33319858, 9.998408, 10.000558 
2.4863684e+3, 1.400457e+2, -1610260.0, -1651178.0, -10817.143, -0.1391988, 0.20961548, -1607576.4, -40017.395, 0.20679392, 9.999601, 9.999289 
2.4859753e+3, 1.5003677e+2, -1485148.0, -1581570.6, 45999.64, -0.33516395, 0.14014427, -1466723.8, 2925.003, 0.10179194, 10.00007, 9.998797 
2.4855834e+3, 1.6002695e+2, -1415767.5, -1559979.4, 6501.5884, -0.34025374, 0.055111524, -1415475.0, -43728.64, 0.036105353, 10.000062, 9.99833 
2.4851902e+3, 1.7001782e+2, -1195508.6, -1365536.1, -42483.715, -0.24265821, 0.020946655, -1185484.5, 88351.516, 0.0076701324, 10.000847, 9.998563 
2.4847966e+3, 1.8000908e+2, -1039915.7, -1279393.8, 37716.58, -0.14457493, 0.07981584, -1034116.0, 141806.25, 0.000687035, 10.001308, 9.99831 
2.4844038e+3, 1.9000092e+2, -938281.8, -1082934.5, 88575.61, -0.2075223, 0.091153264, -896254.56, 181750.13, 0.000019881356, 10.001016, 9.999047 
2.4840117e+3, 1.9999287e+2, -901484.3, -900103.44, 107444.21, -0.25166863, 0.122018605, -793347.44, 186738.02, 0.0, 10.000063, 10.00014 
2.4836214e+3, 2.0998695e+2, -856280.0, -583201.06, 80727.67, -0.25204325, 0.08092622, -561121.56, 321017.84, 0.0, 9.998747, 10.002209 
2.4832317e+3, 2.1998136e+2, -1084936.6, -867932.4, -3331.9192, -0.20156154, 0.1080576, -867881.2, -83690.47, 0.0, 9.997369, 10.000326 
2.4828406e+3, 2.299745e+2, -739977.5, -720296.94, -64004.523, -0.11230409, 0.15003365, -665380.7, 20881.686, 0.0, 9.999436, 9.999604 
2.4824487e+3, 2.3996735e+2, -536845.3, -698661.2, -59345.31, -0.046101864, 0.25786301, -517414.03, 70923.836, 0.0, 10.000679, 9.998542 
2.482055e+3, 2.4995942e+2, -364562.13, -524288.44, -28328.46, -0.17927165, 0.30641326, -359686.7, 130734.375, 0.0, 10.001112, 9.998768 
2.4816626e+3, 2.5995108e+2, -456468.47, -666226.1, 49739.395, -0.19816719, 0.3855099, -445271.56, -52763.207, 0.0, 10.000376, 9.997543 
2.4812761e+3, 2.6994282e+2, -263263.75, -470891.25, 41847.5, 0.17317073, 0.4927668, -255146.69, 39447.168, 0.0, 10.000905, 9.997869 
2.4808879e+3, 2.799348e+2, -152234.22, -223088.2, -35860.535, 0.33577216, 0.6137472, -137252.38, 59421.58, 0.0, 10.000292, 9.999274 
2.4804898e+3, 2.8992555e+2, 211443.17, 316630.16, -102158.82, -0.381207, 0.25600582, 378938.78, 477690.6, 0.0, 10.000878, 10.001938 
2.4801001e+3, 2.999163e+2, -318432.75, -623715.0, 51167.04, -0.25209, 0.06426067, -310085.13, -309253.66, 0.0, 9.999817, 9.995764 
2.4797188e+3, 3.099082e+2, -55773.273, -377536.78, 70945.74, 0.29406235, 0.5384046, -40824.89, -40824.89, 0.0, 10.001147, 9.99672 
2.4971391e+3, 1.20449744e+2, -2080206.1, -1811254.4, -353069.94, -0.9206879, 0.09927161, -1567917.9, 191675.33, 0.43991756, 9.997052, 10.001356 
2.4967536e+3, 1.30442e+2, -1726731.8, -1627348.8, 46443.063, -0.041091204, -0.040459014, -1609024.0, 52649.53, 0.31901658, 9.998982, 10.000462 
2.4963619e+3, 1.4043356e+2, -1599436.3, -1626116.1, 38279.77, -0.06936666, -0.14279372, -1572238.5, -8479.494, 0.19536594, 9.999659, 9.999405 
2.4959676e+3, 1.5042996e+2, -1453835.1, -1474141.0, 73606.44, -0.37578863, 0.25510332, -1389684.8, 76115.89, 0.094030365, 9.999954, 9.999587 
2.4955742e+3, 1.6042505e+2, -1397346.0, -1477311.3, 37037.477, -0.571294, 0.5909231, -1382827.4, -14973.647, 0.032013185, 9.999906, 9.998952 
2.4951829e+3, 1.7041375e+2, -1141256.8, -1267617.0, 9038.4795, -0.31855065, 0.2727132, -1140613.5, 129348.516, 0.0062260167, 10.000932, 9.9991665 
2.4947914e+3, 1.8040262e+2, -994826.5, -1201910.4, 66833.66, -0.10197759, 0.034992147, -975130.2, 196938.06, 0.00043419475, 10.001387, 9.998788 
2.4943991e+3, 1.9039564e+2, -872900.75, -1031043.2, 96783.59, -0.07986407, 0.14578216, -826994.7, 247141.81, 0.0000058323185, 10.001355, 9.999244 
2.4940063e+3, 2.003886e+2, -885106.9, -991459.06, 82782.07, -0.13634144, 0.2958816, -839893.1, 136312.38, 0.000000000090419006, 10.000571, 9.999266 
2.4936126e+3, 2.1037965e+2, -982722.0, -888325.5, 16611.352, -0.29315743, 0.13665196, -885487.6, -7197.5317, 0.0, 9.998869, 10.000066 
2.4932197e+3, 2.2037083e+2, -1116130.8, -968301.9, -10321.566, -0.41583782, 0.022678468, -967584.7, -187210.69, 0.0, 9.997482, 9.999573 
2.4928325e+3, 2.3036337e+2, -686643.5, -699630.8, 19773.658, -0.13568407, 0.032993477, -672324.56, 10127.73, 0.0, 9.999785, 9.999597 
2.4924445e+3, 2.4035618e+2, -242299.63, -426789.7, -41880.535, 0.06754138, 0.11263313, -233237.58, 351290.25, 0.0, 10.002086, 9.999728 
2.4920493e+3, 2.5034976e+2, -143039.23, -251572.05, -41846.734, -0.1731709, 0.17433049, -128778.336, 357811.84, 0.0, 10.001836, 10.000324 
2.4916548e+3, 2.603428e+2, -243941.25, -464265.94, 79670.66, -0.3750749, 0.26572433, -218150.83, 170508.0, 0.0, 10.001321, 9.998482 
2.4912676e+3, 2.703341e+2, -146652.38, -452142.6, 152133.8, -0.11257715, 0.35159013, -83815.11, 206934.69, 0.0, 10.001783, 9.997615 
2.4908799e+3, 2.803248e+2, 85043.86, -212000.38, 99184.7, 0.056572635, 0.40667498, 115117.445, 307962.03, 0.0, 10.002222, 9.998455 
2.4904864e+3, 2.9031384e+2, 281273.88, 107851.65, -59829.363, -0.16098335, 0.10141491, 299911.56, 394852.1, 0.0, 10.002292, 9.999879 
2.4900994e+3, 3.0030414e+2, 184018.94, -194126.33, 437.9421, 0.21249889, -0.03832292, 184019.45, 184019.45, 0.0, 10.002339, 9.997524 
2.4897116e+3, 3.102958e+2, 220461.1, 99931.91, 74781.51, 0.16239882, 0.17383435, 256238.66, 256238.66, 0.0, 10.001256, 10.000066 
2.5071317e+3, 1.208427e+2, -1753696.6, -1743817.4, -47788.555, -0.7845633, -0.2316216, -1700713.9, 55019.96, 0.42027465, 9.999618, 10.000115 
2.5067443e+3, 1.308366e+2, -1603018.1, -1776352.4, 138502.97, -0.24572763, 0.022138257, -1526301.5, 131504.97, 0.30251706, 10.001104, 9.998418 
2.5063533e+3, 1.4082624e+2, -1411340.1, -1545832.0, 38579.36, -0.20809862, -0.10425445, -1401059.4, 158856.39, 0.18302314, 10.001136, 9.999311 
2.5059602e+3, 1.5082268e+2, -1349277.1, -1320721.3, 64980.42, -0.3596225, 0.2118793, -1268468.6, 193483.4, 0.08629053, 10.000129, 10.00066 
2.5055674e+3, 1.6081862e+2, -1491145.6, -1466419.9, 72043.984, -0.43401194, 0.5423758, -1405685.8, -41692.605, 0.028287582, 9.998974, 9.999489 
2.5051755e+3, 1.708077e+2, -1426513.5, -1419169.4, 27697.44, -0.2699057, 0.24633054, -1394901.6, -128802.734, 0.0050760456, 9.998934, 9.999128 
2.5047842e+3, 1.8079656e+2, -1330134.3, -1342789.8, 83329.086, -0.0780131, 0.0039224317, -1252893.0, -84686.76, 0.00028139996, 9.9990225, 9.998976 
2.504393e+3, 1.9078997e+2, -919652.06, -1023567.75, 108822.28, -0.059656527, 0.12727018, -851020.06, 219249.14, 0.0000014559199, 10.000984, 9.999478 
2.5040007e+3, 2.0078287e+2, -712967.8, -1019127.3, 72649.19, -0.069387786, 0.2919893, -696603.44, 275733.78, 0.0, 10.002271, 9.998272 
2.5036055e+3, 2.1077217e+2, -642224.1, -901528.6, 10110.205, -0.26664445, 0.10242807, -641830.56, 232610.53, 0.0, 10.002061, 9.998423 
2.5032115e+3, 2.2076176e+2, -673632.0, -860830.6, 82128.93, -0.3931033, -0.014600941, -642708.25, 133834.86, 0.0, 10.00103, 9.998611 
2.5028256e+3, 2.3075409e+2, -613824.8, -654269.6, 159535.86, -0.119766206, -0.00921198, -473234.8, 205388.84, 0.0, 10.000299, 9.999642 
2.5024387e+3, 2.4074696e+2, -603497.56, -574767.06, 61431.293, 0.12227517, 0.075223096, -526043.75, 54653.934, 0.0, 9.999535, 9.999936 
2.5020435e+3, 2.507409e+2, -206840.11, -183443.1, -38348.977, -0.15678084, 0.087527305, -155047.97, 327704.38, 0.0, 10.001043, 10.001146 
2.501648e+3, 2.6073447e+2, -213185.22, -451527.4, 22550.426, -0.42800608, 0.1739698, -211070.4, 173741.0, 0.0, 10.001595, 9.99844 
2.5012594e+3, 2.7072504e+2, -254775.34, -516613.8, 95270.65, -0.3435024, 0.17102169, -223779.95, 63129.313, 0.0, 10.001119, 9.997494 
2.500872e+3, 2.8071487e+2, -373037.7, -596265.06, 55377.375, -0.15104312, 0.18718171, -360054.94, -171042.17, 0.0, 9.999888, 9.996916 
2.500484e+3, 2.9070315e+2, -54581.336, -312221.94, -557.5211, 0.17057067, -0.023412485, -54580.13, 36538.38, 0.0, 10.001159, 9.997505 
2.5000978e+3, 3.0069184e+2, 34343.707, -155138.61, 68425.97, 0.54715204, -0.1665329, 56469.996, 56469.996, 0.0, 10.001001, 9.998393 
2.499702e+3, 3.1068224e+2, -77081.305, 286389.97, 60034.266, -0.21064146, -0.45543358, 296049.1, 296049.1, 0.0, 9.998119, 10.002737 
2.517127e+3, 1.21237814e+2, -2018185.9, -2108791.0, 30910.16, -0.4604016, -0.4408064, -2008645.4, -256798.42, 0.39734322, 9.998914, 9.997743 
2.5167352e+3, 1.3123293e+2, -1831941.5, -2221312.5, 195772.0, -0.526712, 0.20174101, -1750530.9, -96609.56, 0.28406283, 10.000743, 9.995392 
2.516344e+3, 1.4122067e+2, -1492728.8, -1627920.6, 56307.426, -0.58915365, 0.11944558, -1472348.9, 83707.87, 0.16993596, 10.000688, 9.998918 
2.5159532e+3, 1.5121423e+2, -1268134.5, -1123812.3, 47789.215, -0.3549131, 0.023665262, -1109422.5, 348688.13, 0.078587286, 10.00004, 10.002129 
2.515562e+3, 1.6120803e+2, -1480064.3, -1437255.1, 50819.305, -0.17447355, 0.044008005, -1403516.6, -43353.32, 0.024857625, 9.998969, 9.999679 
2.515168e+3, 1.7119966e+2, -1427419.6, -1445467.0, 44329.84, -0.20199116, 0.023902971, -1391204.4, -128956.24, 0.0041356636, 9.999061, 9.998877 
2.5147745e+3, 1.8119088e+2, -1304559.5, -1308094.4, 125908.91, -0.25745648, 0.033299513, -1180405.6, -16069.275, 0.00018434241, 9.999115, 9.999152 
2.5143844e+3, 1.9118294e+2, -871607.44, -971897.2, 205138.6, -0.2622725, 0.003372621, -710573.8, 355836.8, 0.00000026313862, 10.0011835, 9.999741 
2.5139943e+3, 2.0117457e+2, -640377.6, -999241.1, 97430.54, -0.26862457, 0.033355284, -615631.8, 352858.3, 0.0, 10.002835, 9.998129 
2.5136018e+3, 2.111644e+2, -558600.3, -949298.5, 23662.418, -0.17406024, -0.02952112, -557172.44, 313420.8, 0.0, 10.00299, 9.997673 
2.5132093e+3, 2.2115484e+2, -427103.6, -728479.56, 70907.11, -0.12630124, -0.00061969674, -411254.22, 361436.3, 0.0, 10.002591, 9.998789 
2.5128186e+3, 2.3114869e+2, -515091.34, -578227.6, 122655.93, -0.1370474, 0.13926497, -420006.3, 254749.38, 0.0, 10.000776, 9.9999695 
2.5124282e+3, 2.4114227e+2, -611532.3, -622119.94, 105513.95, -0.14441055, 0.28932184, -511179.44, 65642.47, 0.0, 9.999603, 9.999581 
2.5120375e+3, 2.511332e+2, -225788.16, -354681.75, 41062.5, -0.13845289, 0.135594, -213818.22, 265088.94, 0.0, 10.001512, 9.99979 
2.5116464e+3, 2.6112416e+2, -27383.545, -387218.1, -22381.227, -0.14441878, 0.06689839, -25996.807, 354995.97, 0.0, 10.002877, 9.998295 
2.5112557e+3, 2.711152e+2, -236914.13, -498636.13, -12469.939, -0.07428583, 0.11559409, -236321.33, 46763.11, 0.0, 10.001093, 9.997688 
2.5108662e+3, 2.8110582e+2, -302505.9, -452018.88, 41618.457, 0.0025654817, 0.1663848, -291701.75, -106523.07, 0.0, 9.999787, 9.997976 
2.510478e+3, 2.9109535e+2, 72461.96, -175160.22, 102288.7, 0.15427789, 0.00063403504, 109250.26, 196523.23, 0.0, 10.00153, 9.998337 
2.5100905e+3, 3.010855e+2, 213827.1, -71325.86, 63909.113, 0.38052452, -0.045098234, 227495.38, 227495.38, 0.0, 10.002112, 9.998461 
2.5096953e+3, 3.1107682e+2, -192897.83, 19720.02, -109566.53, 0.054620124, -0.10073568, 66075.47, 66075.47, 0.0, 9.998022, 10.001015 
2.527123e+3, 1.2163483e+2, -2091363.1, -2195238.8, -169288.53, -0.0064144754, -0.19623858, -1966224.3, -218259.92, 0.3720952, 9.998447, 9.997397 
2.526728e+3, 1.3162814e+2, -1936688.9, -2202665.8, 231041.69, -0.4782044, 0.20394433, -1803094.9, -153045.89, 0.26429757, 9.999605, 9.996101 
2.5263363e+3, 1.4161687e+2, -1590702.3, -1701120.9, 183354.42, -0.6100856, 0.17751668, -1454425.5, 97744.85, 0.15642525, 10.000091, 9.998712 
2.525946e+3, 1.516076e+2, -1446285.6, -1365024.9, 14763.165, -0.3136318, -0.065500066, -1362425.9, 91826.02, 0.071005836, 9.999471, 10.000601 
2.525555e+3, 1.6159914e+2, -1475318.8, -1465772.0, -42278.195, -0.019224262, -0.15688275, -1427998.5, -71672.07, 0.021693112, 9.999174, 9.999389 
2.5251606e+3, 1.7159235e+2, -1170325.1, -1274890.8, -26536.71, -0.15191647, -0.041900676, -1163976.1, 94419.836, 0.00335279, 10.000752, 9.99921 
2.5247672e+3, 1.8158507e+2, -923325.1, -1162118.8, 98149.12, -0.2637133, 0.10007819, -888161.75, 272308.03, 0.00011963712, 10.001846, 9.998852 
2.5243783e+3, 1.9157566e+2, -813830.0, -1007404.0, 124078.81, -0.28442717, -0.05285623, -753253.5, 309305.2, 0.00000002568285, 10.001777, 9.999226 
2.523989e+3, 2.0156641e+2, -841380.8, -1141231.3, -13051.731, -0.24881117, -0.08618645, -840813.75, 123833.73, 0.0, 10.001617, 9.997746 
2.5235972e+3, 2.115572e+2, -745913.7, -1065857.0, -52602.37, -0.09924217, -0.060069837, -737487.2, 129255.88, 0.0, 10.001763, 9.99747 
2.5232053e+3, 2.2154856e+2, -645135.0, -865641.4, 26967.307, 0.019686202, 0.07614788, -641884.94, 126948.15, 0.0, 10.00131, 9.998429 
2.522812e+3, 2.3154257e+2, -537298.8, -617058.5, 1529.6273, -0.1429981, 0.23357318, -537269.44, 133626.47, 0.0, 10.000793, 9.999674 
2.5224194e+3, 2.4153577e+2, -654569.1, -757672.56, 44612.813, -0.2543813, 0.39656067, -637945.44, -64980.24, 0.0, 9.999876, 9.998516 
2.5220317e+3, 2.5152475e+2, -484004.56, -602689.0, 60613.008, -0.08876424, 0.13178737, -458520.88, 16549.967, 0.0, 10.00035, 9.99863 
2.5216433e+3, 2.615142e+2, -413998.75, -644617.7, -25010.775, 0.08856052, 0.021356693, -411317.5, -34145.242, 0.0, 10.000633, 9.997578 
2.5212517e+3, 2.71506e+2, -210104.45, -454211.9, -50080.004, 0.14430399, 0.11482549, -200229.72, 79025.13, 0.0, 10.001257, 9.9978485 
2.52086e+3, 2.8149715e+2, -110196.73, -308742.88, 71362.08, 0.12459493, 0.20074768, -87209.055, 94132.67, 0.0, 10.001016, 9.998344 
2.520471e+3, 2.9148728e+2, 36590.332, -73494.47, 129379.836, 0.01437463, -0.012849631, 122149.52, 205580.83, 0.0, 10.000897, 9.999297 
2.520083e+3, 3.0147967e+2, -195346.94, -395420.13, -63237.215, 0.18912902, 0.12952274, -177035.47, -177035.47, 0.0, 9.999971, 9.99723 
2.5196844e+3, 3.1146967e+2, -434315.2, -343457.75, -152911.78, -0.097379744, 0.09239373, -229369.13, -229369.13, 0.0, 9.997653, 9.998614 
2.537117e+3, 1.2203064e+2, -2147570.0, -2120745.3, -181802.03, 0.23931736, 0.09975096, -1951861.5, -207759.05, 0.34545994, 9.99773, 9.9982195 
2.5367224e+3, 1.3202304e+2, -1800863.4, -1820980.8, 257528.45, -0.29196677, 0.14117433, -1553197.3, 92982.516, 0.24384509, 9.999286, 9.998948 
2.5363293e+3, 1.4201377e+2, -1765924.1, -1921654.1, 155748.03, -0.58866906, 0.1679739, -1669661.6, -121390.91, 0.14280653, 9.999497, 9.997397 
2.5359374e+3, 1.5200172e+2, -1683023.9, -1831025.0, 2640.6284, -0.34333247, -0.05939602, -1682976.8, -232589.63, 0.06363834, 9.99947, 9.997314 
2.535546e+3, 1.619912e+2, -1499937.9, -1547627.4, -2572.6194, -0.104949825, -0.11480882, -1499799.5, -147311.06, 0.0187796, 9.999324, 9.998742 
2.535154e+3, 1.7198487e+2, -1100201.9, -1175119.3, 53499.79, -0.19916461, 0.0009221349, -1072350.6, 182199.69, 0.0026956536, 10.000906, 9.999835 
2.5347623e+3, 1.8197781e+2, -937313.5, -1213859.5, 118435.625, -0.28724065, 0.14432359, -893524.94, 263094.8, 0.00007576087, 10.001974, 9.998412 
2.5343743e+3, 1.9196746e+2, -856289.06, -1145998.6, 118216.73, -0.16938098, -0.0014545028, -814173.0, 244548.56, 0.00000000011876218, 10.00198, 9.998175 
2.533985e+3, 2.019579e+2, -772358.9, -1030099.4, -34267.523, -0.11225923, -0.013187757, -767880.7, 192935.52, 0.0, 10.001751, 9.9984255 
2.5335908e+3, 2.1195091e+2, -615574.75, -858309.3, -38796.47, -0.19069287, 0.12486671, -609524.6, 253364.03, 0.0, 10.00201, 9.998772 
2.533197e+3, 2.2194323e+2, -573267.1, -855821.8, 7280.9233, -0.24658082, 0.27545536, -573079.6, 191888.69, 0.0, 10.001878, 9.998222 
2.5328055e+3, 2.3193355e+2, -550015.5, -778094.25, -28452.576, -0.1525303, 0.20050262, -546519.6, 120547.586, 0.0, 10.001322, 9.99834 
2.5324142e+3, 2.419241e+2, -511511.47, -684244.44, 1190.797, -0.0991998, 0.1843998, -511503.28, 57659.004, 0.0, 10.000751, 9.998623 
2.5320247e+3, 2.51915e+2, -448331.63, -552822.44, 50951.98, -0.0778035, 0.100718126, -427599.72, 43649.273, 0.0, 10.000385, 9.998982 
2.531635e+3, 2.6190618e+2, -355847.84, -540271.5, 25028.045, -0.071045294, 0.11931672, -352511.66, 20821.898, 0.0, 10.000629, 9.998314 
2.5312445e+3, 2.7189818e+2, -15893.166, -318526.03, 30738.492, -0.052252192, 0.2072589, -12802.612, 262610.97, 0.0, 10.00232, 9.9983015 
2.530854e+3, 2.8188935e+2, 226364.23, -119655.695, 63101.19, -0.048590824, 0.25623265, 237512.38, 415013.06, 0.0, 10.0031595, 9.998608 
2.5304642e+3, 2.9187834e+2, 60896.715, -118805.09, 45114.633, -0.04567616, -0.009449658, 71586.92, 151192.03, 0.0, 10.001233, 9.998867 
2.5300747e+3, 3.018699e+2, -128894.23, -255139.39, -130938.22, 0.1490363, 0.050315842, -46657.67, -46657.67, 0.0, 9.999824, 9.998327 
2.5296766e+3, 3.1186557e+2, 94784.914, 67475.12, -108945.08, -0.118341334, 0.49558118, 190927.5, 190927.5, 0.0, 10.000351, 10.000265 
2.547107e+3, 1.2242187e+2, -1924062.6, -1597155.5, -118825.984, 0.24123737, 0.3103873, -1558528.1, 181753.17, 0.31815657, 9.997212, 10.002583 
2.5467145e+3, 1.3241443e+2, -1785444.0, -1592170.5, 43392.945, -0.192217, 0.12433337, -1582875.1, 59470.65, 0.22319712, 9.998257, 10.001048 
2.5463226e+3, 1.4240634e+2, -1783576.5, -1930658.6, -64221.676, -0.43865222, 0.113258824, -1759482.0, -215063.2, 0.12934339, 9.99928, 9.997484 
2.5459298e+3, 1.5239443e+2, -1574244.1, -1892631.3, -101237.01, -0.32976624, -0.039825536, -1544780.5, -98244.21, 0.05657354, 10.000617, 9.996406 
2.545538e+3, 1.623838e+2, -1277576.0, -1446513.8, 3535.6208, -0.176356, -0.050061185, -1277502.0, 71138.95, 0.016116831, 10.000836, 9.998717 
2.5451458e+3, 1.723769e+2, -1326902.9, -1296388.5, 3367.3958, -0.25096288, -0.006610347, -1296021.4, -45314.145, 0.0021455006, 9.99932, 9.999786 
2.5447547e+3, 1.8236957e+2, -1414173.6, -1405143.3, 132135.7, -0.27436915, 0.09368615, -1277445.6, -124668.01, 0.000046550977, 9.998523, 9.998776 
2.5443685e+3, 1.9235983e+2, -1080548.3, -1207472.3, 235358.73, -0.14019968, -0.042267036, -900245.75, 154626.28, 0.0, 10.000239, 9.998609 
2.5439796e+3, 2.0235084e+2, -849899.44, -1037093.56, 138451.02, -0.048030607, -0.012682943, -776376.5, 180584.88, 0.0, 10.001137, 9.998657 
2.5435844e+3, 2.123444e+2, -757277.06, -887197.75, 29894.764, -0.20989637, 0.148392, -750728.4, 108302.055, 0.0, 10.000919, 9.99908 
2.5431904e+3, 2.223367e+2, -811107.3, -1027571.0, 38726.465, -0.28545788, 0.30922195, -804387.56, -43276.465, 0.0, 10.000522, 9.997706 
2.542799e+3, 2.3232509e+2, -733376.44, -942364.5, 57746.53, -0.12053593, 0.09754892, -718481.8, -55252.24, 0.0, 10.00045, 9.997617 
2.5424087e+3, 2.4231467e+2, -608118.25, -736936.7, 160345.11, 0.028170781, 0.05586537, -499729.63, 65604.5, 0.0, 10.000233, 9.998465 
2.542018e+3, 2.5230718e+2, -372595.94, -475680.03, 195524.31, -0.044402916, 0.095898554, -221934.28, 245470.53, 0.0, 10.00081, 9.999265 
2.5416276e+3, 2.6229927e+2, -351970.7, -541499.6, 187716.4, -0.14098504, 0.20863603, -236454.98, 133025.97, 0.0, 10.000764, 9.998212 
2.5412372e+3, 2.7229038e+2, -293652.88, -433494.47, 163394.08, -0.22004771, 0.18295734, -185847.64, 85722.37, 0.0, 10.000409, 9.998409 
2.540847e+3, 2.8228167e+2, -278872.56, -429299.06, 109378.44, -0.19689047, 0.27542248, -221342.92, -47685.926, 0.0, 10.00007, 9.997948 
2.5404575e+3, 2.9227093e+2, -97203.63, -248030.22, 89258.97, -0.054987956, 0.06449736, -55765.188, 19998.148, 0.0, 10.000491, 9.99829 
2.5400665e+3, 3.022603e+2, -37427.42, -141531.89, -36282.184, 0.09831445, -0.042599346, -26030.213, -26030.213, 0.0, 10.000308, 9.998835 
2.539668e+3, 3.1225944e+2, 208326.11, 477793.53, -82432.18, -0.25101483, 0.5652477, 501009.94, 501009.94, 0.0, 9.999803, 10.003304 
2.5570843e+3, 1.22808635e+2, -1976180.6, -1571722.4, -85231.57, -1.0933971, 0.3058993, -1554495.3, 182005.17, 0.29081753, 9.99677, 10.002897 
2.5567058e+3, 1.3280307e+2, -1694129.4, -1385591.3, 86744.74, -0.19548416, 0.11545302, -1362875.6, 275663.44, 0.2027681, 9.99809, 10.002858 
2.5563157e+3, 1.427958e+2, -1771233.4, -1803387.3, -45058.93, -0.36690453, 0.05064518, -1739469.1, -198869.1, 0.11625642, 9.998903, 9.998509 
2.5559226e+3, 1.5278603e+2, -1518117.5, -1736784.5, -34178.332, -0.38664666, -0.014910995, -1512899.9, -70203.92, 0.04988728, 10.000473, 9.99752 
2.5555298e+3, 1.6277649e+2, -1295878.5, -1451087.5, -23800.873, -0.38176703, 0.019706585, -1292310.8, 52478.71, 0.013707004, 10.00072, 9.998737 
2.5551367e+3, 1.7276774e+2, -1357272.6, -1355514.9, -28353.55, -0.37176114, -0.07637825, -1328026.5, -81152.55, 0.0016894786, 9.999316, 9.999382 
2.5547457e+3, 1.8275979e+2, -1246759.8, -1093254.1, 185368.0, -0.37698624, -0.08840914, -969377.25, 179570.97, 0.000027889511, 9.9986925, 10.000819 
2.5543597e+3, 1.9275269e+2, -867693.0, -811824.3, 339255.72, -0.33567545, -0.2135348, -499354.8, 551653.8, 0.0, 10.000447, 10.001219 
2.5539717e+3, 2.0274508e+2, -810608.06, -1044938.44, 156544.39, -0.26529086, -0.19073601, -732238.5, 220841.81, 0.0, 10.001494, 9.998441 
2.553579e+3, 2.1273647e+2, -795418.8, -1053178.5, 52341.33, -0.15286125, -0.1188139, -785195.75, 69979.8, 0.0, 10.001227, 9.997821 
2.5531855e+3, 2.2272806e+2, -696117.3, -878788.44, 51210.625, -0.097823575, 0.016684039, -682740.4, 74526.5, 0.0, 10.000889, 9.998549 
2.552792e+3, 2.327197e+2, -598493.7, -753167.0, 112311.65, -0.13287431, 0.03968333, -539467.4, 119886.22, 0.0, 10.000812, 9.998752 
2.5524008e+3, 2.4271154e+2, -421725.47, -552436.2, 251589.44, -0.104666136, 0.12210587, -227141.3, 334294.13, 0.0, 10.001035, 9.999365 
2.552013e+3, 2.5270373e+2, -219634.48, -376118.3, 302978.72, 0.033631846, 0.11506534, 15041.971, 478549.56, 0.0, 10.0016575, 9.999581 
2.5516236e+3, 2.6269472e+2, -231839.8, -509736.72, 223205.25, 0.046788797, 0.116647504, -107867.62, 257726.16, 0.0, 10.001609, 9.998063 
2.5512302e+3, 2.7268335e+2, -406346.34, -582397.0, 174653.84, -0.15111946, -0.050088536, -298789.4, -31080.291, 0.0, 9.99994, 9.997673 
2.550839e+3, 2.8267422e+2, -327805.22, -385103.97, 208138.31, -0.23040666, 0.022143574, -146353.8, 23448.781, 0.0, 9.999327, 9.998644 
2.5504512e+3, 2.9266825e+2, 45131.92, -130640.51, 241592.4, -0.043475352, 0.2604545, 214327.17, 286191.78, 0.0, 10.001127, 9.998848 
2.5500622e+3, 3.0265778e+2, 269220.16, -33216.84, 57721.316, 0.22882213, 0.13563068, 279862.06, 279862.06, 0.0, 10.002463, 9.998591 
2.5496596e+3, 3.1264532e+2, 344974.78, 219211.52, -126146.21, -0.46459562, -0.21587047, 423043.38, 423043.38, 0.0, 10.001921, 10.000589 
2.56708e+3, 1.2319636e+2, -1798638.0, -1516413.9, -60153.68, -0.5163858, 0.19885485, -1504127.5, 228571.17, 0.26403108, 9.997973, 10.002819 
2.5666976e+3, 1.3319133e+2, -1933858.8, -1559870.9, -12173.811, -0.028920239, 0.16541138, -1559475.0, 75261.13, 0.18292536, 9.996829, 10.00199 
2.5663075e+3, 1.431836e+2, -1968159.1, -1690705.8, -124259.734, -0.18096647, 0.026604895, -1643191.8, -106390.2, 0.1037245, 9.996598, 10.000415 
2.5659162e+3, 1.5317595e+2, -1519359.5, -1493840.6, -53682.594, -0.24352445, -0.08012025, -1451422.0, -12552.176, 0.043632858, 9.999327, 9.999776 
2.5655237e+3, 1.6316779e+2, -1314005.1, -1475503.8, -70191.39, -0.27593106, -0.044478588, -1287762.5, 53184.992, 0.011545959, 10.000688, 9.998555 
2.5651288e+3, 1.7315876e+2, -1365775.0, -1473183.4, -156296.39, -0.35133526, -0.09124979, -1254213.6, -11173.082, 0.0013158798, 9.999778, 9.998325 
2.564737e+3, 1.831506e+2, -1188459.4, -984200.56, 73774.56, -0.38039252, -0.10357407, -960341.5, 184777.83, 0.000016496271, 9.998797, 10.001509 
2.5643513e+3, 1.9314413e+2, -1161777.3, -852829.9, 97225.42, -0.3579236, -0.28024942, -824779.9, 222390.31, 0.0, 9.998014, 10.002125 
2.5639638e+3, 2.0313725e+2, -1273408.9, -1191469.4, -99106.13, -0.27912983, -0.28623196, -1125198.5, -175967.3, 0.0, 9.998039, 9.999098 
2.563572e+3, 2.1312875e+2, -1036190.25, -1124880.9, -53158.91, -0.12359943, -0.2842586, -1011308.56, -159986.25, 0.0, 9.999439, 9.998195 
2.5631794e+3, 2.2312061e+2, -708596.3, -870270.3, 36799.46, -0.018441075, -0.1434866, -700614.3, 52795.57, 0.0, 10.000793, 9.998625 
2.5627857e+3, 2.3311362e+2, -467055.9, -680539.7, -4459.939, -0.1453857, -0.028449463, -466962.75, 188522.45, 0.0, 10.00171, 9.9987955 
2.562394e+3, 2.4310642e+2, -325905.22, -514828.28, 84665.73, -0.15355617, 0.13774908, -293515.4, 264042.6, 0.0, 10.001785, 9.99924 
2.5620073e+3, 2.530982e+2, -377885.44, -475039.88, 90354.945, 0.063170254, 0.057170372, -323877.28, 135756.08, 0.0, 10.000718, 9.999342 
2.5616187e+3, 2.6308888e+2, -518013.34, -708055.5, -4621.196, 0.19034417, 0.05038897, -517901.03, -156178.89, 0.0, 10.000029, 9.9973955 
2.561224e+3, 2.7307647e+2, -358733.7, -630058.1, -11094.799, -0.026364787, -0.20792851, -358280.78, -94432.516, 0.0, 10.0006695, 9.996943 
2.5608316e+3, 2.830669e+2, -173528.1, -314796.1, 101483.53, -0.20737699, -0.14465672, -120517.164, 45430.57, 0.0, 10.000481, 9.998543 
2.560444e+3, 2.9306382e+2, -136367.33, -199366.47, 116932.3, -0.12330452, 0.3251298, -46766.17, 21217.256, 0.0, 9.999871, 9.998939 
2.5600576e+3, 3.0305487e+2, -118033.586, -374584.53, -106597.63, 0.33410802, 0.38075778, -79522.805, -79522.805, 0.0, 10.000605, 9.997064 
2.5596565e+3, 3.1303853e+2, 3939.0247, -365831.06, 26482.768, -0.2635901, -0.24944662, 5826.078, 5826.078, 0.0, 10.001649, 9.996577 
2.5770757e+3, 1.2358554e+2, -1943191.8, -1782025.6, -27510.74, -0.0984986, 0.2595569, -1777458.9, -48580.23, 0.23823552, 9.998215, 10.000291 
2.5766888e+3, 1.3357867e+2, -2008523.6, -1791515.3, -45608.51, 0.12907769, 0.22430354, -1782319.4, -151376.58, 0.16394834, 9.997285, 10.000015 
2.5762987e+3, 1.4357015e+2, -1770055.0, -1330995.5, -19748.04, -0.03656841, 0.016431607, -1330109.1, 202908.3, 0.09188186, 9.996789, 10.002914 
2.575911e+3, 1.5356423e+2, -1317523.1, -1032477.1, 75982.375, -0.010208714, -0.23747316, -1013488.1, 421569.47, 0.03784501, 9.999148, 10.003137 
2.5755194e+3, 1.635577e+2, -1398721.4, -1589037.6, -101833.62, -0.0650685, -0.19800724, -1354505.4, -17388.85, 0.009625426, 10.000471, 9.997851 
2.5751215e+3, 1.7354964e+2, -1467642.1, -1685596.8, -166244.95, -0.31437284, -0.009399354, -1377839.6, -138628.88, 0.0010124295, 9.9998045, 9.996842 
2.5747284e+3, 1.8354157e+2, -1232895.6, -1079023.8, 45359.203, -0.41822952, 0.10105663, -1066647.9, 74648.49, 0.000009793076, 9.998821, 10.000829 
2.5743434e+3, 1.9353339e+2, -1231702.3, -979357.6, 74632.61, -0.23429859, -0.1546557, -958937.0, 84431.31, 0.0, 9.997921, 10.001299 
2.5739554e+3, 2.0352647e+2, -1089549.1, -799547.3, -81633.39, -0.17884836, -0.23326582, -778147.3, 167280.39, 0.0, 9.997954, 10.001838 
2.5735626e+3, 2.135212e+2, -734241.9, -605594.94, 28679.287, -0.2918645, -0.2281675, -599491.06, 247981.31, 0.0, 9.999852, 10.001578 
2.5731707e+3, 2.2351405e+2, -651206.94, -936169.4, 84048.414, -0.32462218, -0.15191662, -628264.4, 121278.5, 0.0, 10.001533, 9.99782 
2.57278e+3, 2.3350394e+2, -431996.8, -866790.5, 25699.457, -0.23889706, -0.16687357, -430483.06, 221170.83, 0.0, 10.002731, 9.997048 
2.5723892e+3, 2.434948e+2, -218627.14, -539215.3, -17241.746, -0.18275937, -0.078687996, -217702.52, 336047.72, 0.0, 10.002799, 9.998598 
2.5719988e+3, 2.534868e+2, -384504.94, -563769.5, -37953.36, -0.14379165, -0.038904548, -376800.7, 79025.7, 0.0, 10.00097, 9.998644 
2.571609e+3, 2.634782e+2, -426845.9, -602683.6, -57417.77, -0.0475971, 0.03079771, -409757.5, -51847.82, 0.0, 10.000319, 9.997984 
2.5712198e+3, 2.7346793e+2, -127531.73, -456520.94, -31998.07, 0.1027379, -0.06429095, -124448.44, 135562.97, 0.0, 10.001896, 9.997567 
2.5708282e+3, 2.8345874e+2, 21697.277, -305293.44, -36782.707, 0.013674847, 0.019250594, 25783.84, 187891.06, 0.0, 10.002104, 9.997846 
2.5704342e+3, 2.9345176e+2, -214688.72, -395121.9, -81860.8, -0.31812188, 0.23957984, -183084.86, -118896.83, 0.0, 9.999904, 9.997621 
2.570046e+3, 3.0344197e+2, -87675.68, -101198.05, -133799.05, -0.06023991, 0.17911907, 39532.91, 39532.91, 0.0, 9.999584, 9.999465 
2.5696525e+3, 3.1343156e+2, 350359.88, 120750.18, 229644.9, -0.16866376, -0.10897223, 492297.97, 492297.97, 0.0, 10.002442, 9.999592 
2.587067e+3, 1.2397371e+2, -1610427.3, -1717965.3, 77613.03, -0.25217062, 0.121076904, -1569777.5, 155287.6, 0.21373183, 10.001008, 9.999471 
2.58668e+3, 1.3396643e+2, -1482596.6, -1636195.6, 3890.7283, 0.04213325, 0.121602595, -1482498.1, 144640.7, 0.14603193, 10.001415, 9.999132 
2.5862902e+3, 1.4395788e+2, -1293045.9, -1120384.5, 19451.742, -0.022987388, -0.03204112, -1118220.1, 410998.0, 0.080827504, 10.000275, 10.002772 
2.585902e+3, 1.5395302e+2, -1528310.5, -1153041.5, -98184.94, -0.00021879173, -0.1601257, -1128904.9, 302346.4, 0.032553293, 9.997781, 10.002916 
2.585511e+3, 1.63947e+2, -1735294.6, -1638103.0, -270844.22, -0.034483187, -0.12341054, -1411529.6, -78224.75, 0.007938516, 9.997641, 9.998882 
2.585115e+3, 1.7393933e+2, -1253826.0, -1464228.8, -170862.06, -0.20743516, -0.03825036, -1158375.5, 77015.19, 0.00076767127, 10.000744, 9.997919 
2.5847226e+3, 1.8393192e+2, -866082.75, -963982.25, 97383.53, -0.24575143, 0.103259265, -806038.75, 331431.63, 0.000005913737, 10.00161, 10.000272 
2.584336e+3, 1.9392431e+2, -1172493.8, -1055375.1, 74580.72, -0.051407438, -0.010753571, -1019111.06, 20433.082, 0.0, 9.9988165, 10.000321 
2.583947e+3, 2.0391743e+2, -1057783.4, -713374.6, -21313.656, -0.044609908, -0.05106374, -712060.6, 229543.98, 0.0, 9.997877, 10.002457 
2.583554e+3, 2.13912e+2, -741304.75, -501498.97, -101471.28, -0.35602543, -0.18405089, -464325.06, 379318.25, 0.0, 9.999336, 10.002541 
2.5831625e+3, 2.2390465e+2, -879296.8, -1132364.9, -128328.336, -0.46453553, -0.16806263, -825611.5, -79899.414, 0.0, 10.000455, 9.996972 
2.5827742e+3, 2.3389342e+2, -794801.56, -1160771.4, -118698.67, -0.27337718, -0.22549681, -759674.44, -111838.35, 0.0, 10.000859, 9.99592 
2.582384e+3, 2.4388361e+2, -466347.38, -715526.3, -142557.34, -0.17231207, -0.12974037, -401608.72, 148332.16, 0.0, 10.001443, 9.997997 
2.5819913e+3, 2.5387552e+2, -325791.66, -614450.5, -151315.16, -0.26645467, -0.072469324, -261010.44, 191009.27, 0.0, 10.0018015, 9.997861 
2.581601e+3, 2.6386717e+2, -218376.47, -457289.88, -73196.78, -0.17944591, 0.052516118, -197734.38, 156366.36, 0.0, 10.001604, 9.998366 
2.581215e+3, 2.738586e+2, -235834.22, -441161.0, -31910.11, 0.19461481, 0.032821402, -230989.34, 25193.238, 0.0, 10.000954, 9.998103 
2.5808242e+3, 2.8385004e+2, -270571.8, -527331.3, -78955.664, 0.19249801, 0.18149203, -248235.4, -89962.93, 0.0, 10.00053, 9.997042 
2.5804254e+3, 2.938396e+2, -347318.16, -595869.06, -82104.75, -0.45505795, 0.12869823, -322645.38, -262252.8, 0.0, 9.999667, 9.996327 
2.5800338e+3, 3.0382884e+2, 60941.848, 278703.72, -8901.85, -0.50740933, -0.057951678, 279067.0, 279067.0, 0.0, 9.999374, 10.00215 
2.5796515e+3, 3.138313e+2, 436048.84, 927390.2, -28106.541, 0.20916846, 0.57037467, 928992.75, 928992.75, 0.0, 9.999853, 10.006386 
2.5970596e+3, 1.24362305e+2, -1719208.8, -1788156.6, 31266.314, -0.42271733, -0.03704677, -1707142.0, 14104.405, 0.19077115, 10.000228, 9.999292 
2.5966716e+3, 1.3435444e+2, -1576327.1, -1736132.4, 45329.066, -0.21873124, -0.059838008, -1564364.9, 58963.914, 0.12932457, 10.000914, 9.998686 
2.5962815e+3, 1.4434601e+2, -1481983.8, -1435397.0, -44781.094, -0.2054231, -0.07629724, -1408213.4, 117200.734, 0.07062259, 9.999964, 10.000545 
2.5958902e+3, 1.5434147e+2, -1697792.4, -1511668.1, -138322.38, -0.26425546, 0.08828432, -1438016.0, -10558.68, 0.027766839, 9.997879, 10.000328 
2.5954992e+3, 1.6433541e+2, -1470001.3, -1140525.9, -147923.0, -0.25270775, 0.11817832, -1083859.6, 245652.44, 0.0064744665, 9.997886, 10.002179 
2.59511e+3, 1.7432733e+2, -955470.3, -892110.9, -8109.8433, -0.10647161, -0.21285386, -891089.3, 340495.03, 0.0005723583, 10.000927, 10.00177 
2.5947198e+3, 1.8432125e+2, -885623.75, -1015810.3, 27115.74, -0.004430866, -0.12473432, -880201.8, 253442.61, 0.0000035552432, 10.001663, 9.9998865 
2.594329e+3, 1.9431698e+2, -1200977.8, -1168208.1, 8918.436, 0.061823756, 0.19066311, -1165938.3, -130243.32, 0.0, 9.999016, 9.999466 
2.593938e+3, 2.0430976e+2, -1149559.8, -996213.0, 30464.113, -0.033264037, 0.25564954, -990382.6, -52616.676, 0.0, 9.998268, 10.000334 
2.5935468e+3, 2.1429917e+2, -814825.06, -816161.25, -49845.1, -0.32800278, -0.12652397, -765643.56, 74216.02, 0.0, 9.999977, 10.000107 
2.5931564e+3, 2.242901e+2, -772211.7, -1015770.75, -165282.45, -0.4342009, -0.1756486, -688690.1, 53257.3, 0.0, 10.000891, 9.997561 
2.5927675e+3, 2.342821e+2, -687861.44, -1010908.9, -120945.016, -0.2933753, 0.008972341, -647599.06, -3562.2112, 0.0, 10.00111, 9.996844 
2.5923783e+3, 2.4427342e+2, -379257.34, -630000.6, -131779.52, -0.19179863, 0.14240699, -322739.22, 223388.08, 0.0, 10.001778, 9.998442 
2.5919878e+3, 2.542639e+2, -126765.02, -495618.75, -119364.98, -0.15099558, 0.049667995, -91507.414, 356710.88, 0.0, 10.002974, 9.998143 
2.5915974e+3, 2.6425484e+2, 54171.37, -200643.58, -136457.4, -0.07509299, 0.028653877, 113454.25, 463758.2, 0.0, 10.002915, 9.999498 
2.5912076e+3, 2.742463e+2, -108627.11, -259695.34, -90361.73, 0.11546638, -0.06129628, -66387.52, 185995.45, 0.0, 10.00125, 9.999227 
2.590816e+3, 2.8423816e+2, -211651.69, -383451.63, -95869.02, 0.08535, 0.011330953, -168828.4, -14363.114, 0.0, 10.000371, 9.99812 
2.5904194e+3, 2.9422936e+2, -171601.89, -398220.88, -70316.38, -0.34340248, 0.050234407, -151556.84, -94993.9, 0.0, 10.000281, 9.997424 
2.5900277e+3, 3.0422017e+2, 42176.137, 56372.715, -36060.473, -0.32044175, 0.042030253, 86026.89, 86026.89, 0.0, 10.000097, 10.000318 
2.5896356e+3, 3.142134e+2, 125123.45, 338584.63, -24071.607, -0.5933383, 0.020476159, 341265.47, 341265.47, 0.0, 9.999515, 10.002532 
2.607056e+3, 1.2475241e+2, -1769203.6, -1832001.4, 7606.9365, -0.056479473, -0.06611424, -1768295.4, -50871.113, 0.16949552, 9.999873, 9.999193 
2.6066637e+3, 1.3474533e+2, -1610222.5, -1668658.9, 69719.516, -0.3089197, -0.07953935, -1563846.3, 55650.24, 0.11391175, 10.000241, 9.999512 
2.606272e+3, 1.4473778e+2, -1428325.0, -1447463.8, 68794.89, -0.3906571, -0.032203976, -1368437.1, 153134.9, 0.061296463, 10.000532, 10.000154 
2.605882e+3, 1.5473181e+2, -1275200.3, -1393143.4, 74887.34, -0.2687998, 0.06942091, -1238852.5, 184777.92, 0.023481611, 10.001169, 9.999551 
2.605492e+3, 1.6472487e+2, -1044078.06, -941705.5, 86956.1, -0.17658535, 0.07997803, -891988.9, 433706.2, 0.005220199, 10.00084, 10.002149 
2.6051033e+3, 1.7471658e+2, -1219213.0, -1021720.6, -54547.95, -0.026610743, -0.2575923, -1007656.0, 220111.78, 0.00041937284, 9.999113, 10.001779 
2.6047134e+3, 1.8471046e+2, -1270356.5, -1225788.0, -153459.64, 0.081292674, -0.1841384, -1093003.1, 36823.945, 0.0000020172258, 9.999107, 9.999691 
2.6043218e+3, 1.9470663e+2, -1032013.7, -1126759.6, -139485.19, 0.11839488, 0.17505142, -932076.44, 99797.52, 0.0, 10.000344, 9.999114 
2.6039305e+3, 2.0469913e+2, -881855.4, -1032603.44, 41221.82, 0.011997398, 0.29371434, -871319.7, 62631.0, 0.0, 10.000875, 9.9988 
2.6035404e+3, 2.1468693e+2, -895871.7, -1053636.8, 20950.637, -0.24421315, -0.094060354, -893136.94, -57071.508, 0.0, 10.000364, 9.998254 
2.6031506e+3, 2.2467737e+2, -742904.7, -957752.1, -64067.06, -0.34404707, -0.09658701, -725250.7, 12909.656, 0.0, 10.000921, 9.997941 
2.602762e+3, 2.3467068e+2, -596943.6, -910606.2, -68330.766, -0.23700196, 0.14994584, -582704.3, 57530.145, 0.0, 10.001535, 9.997313 
2.6023728e+3, 2.4466245e+2, -435872.06, -616701.8, -79854.81, -0.13979083, 0.28780422, -405656.78, 136661.27, 0.0, 10.001251, 9.998788 
2.6019832e+3, 2.5465208e+2, -609485.44, -713590.4, -62131.45, -0.048763815, 0.067372166, -580483.75, -136067.72, 0.0, 9.999645, 9.998246 
2.6015925e+3, 2.6464283e+2, -361967.75, -351018.47, -125612.93, -0.0017125282, 0.008240114, -230760.94, 115741.73, 0.0, 9.999904, 9.9999075 
2.6012006e+3, 2.7463427e+2, -123223.96, -248253.16, -136173.19, 0.024940522, -0.14017668, -35901.277, 212680.34, 0.0, 10.001109, 9.999384 
2.6008084e+3, 2.8462607e+2, 21509.84, -193011.25, -157609.2, -0.01243457, -0.10941894, 104894.21, 255555.5, 0.0, 10.001701, 9.998778 
2.600414e+3, 2.9461864e+2, -9345.991, -259756.63, -169326.81, -0.2082501, -0.034786075, 76038.2, 128776.38, 0.0, 10.001239, 9.997895 
2.6000226e+3, 3.046108e+2, -20856.81, -318160.3, -117167.36, -0.1273632, 0.20192793, 19767.78, 19767.78, 0.0, 10.001268, 9.997118 
2.5996324e+3, 3.1459835e+2, -145139.52, -161160.7, 238955.56, -0.1892669, -0.06772695, 85939.695, 85939.695, 0.0, 9.9994135, 9.999097 
2.6170543e+3, 1.2514314e+2, -1691971.0, -1521516.8, 46883.645, 0.46900493, 0.004754772, -1509472.4, 204128.19, 0.14988421, 9.999199, 10.001846 
2.6166555e+3, 1.3513817e+2, -1533612.4, -1486076.6, 95957.086, -0.435122, 0.03245634, -1410987.6, 204660.31, 0.09979623, 10.000167, 10.000863 
2.6162633e+3, 1.4513144e+2, -1382800.5, -1332747.4, 84545.42, -0.6384035, 0.053873233, -1269602.3, 248106.86, 0.05285716, 10.000476, 10.000994 
2.615877e+3, 1.5512308e+2, -1260136.3, -1338498.8, 110542.125, -0.15893845, -0.15258059, -1182036.9, 237746.53, 0.019694533, 10.001061, 9.999995 
2.6154873e+3, 1.6511485e+2, -1282085.3, -1417098.8, 19688.242, -0.01114034, -0.13102913, -1279272.9, 42589.93, 0.004163879, 10.000781, 9.998874 
2.615094e+3, 1.7510642e+2, -1461352.9, -1521459.1, -95520.42, -0.15546614, -0.14545573, -1391269.4, -167319.92, 0.00030229846, 9.999128, 9.998318 
2.6147032e+3, 1.8509872e+2, -1180935.3, -1084481.3, -96919.5, -0.13238677, -0.09835328, -1024452.8, 101573.06, 0.0000010444409, 9.99928, 10.000578 
2.6143143e+3, 1.9509171e+2, -903060.8, -979976.6, -56919.254, 0.005766017, -0.1329065, -872825.1, 155269.23, 0.0, 10.000803, 9.999918 
2.6139244e+3, 2.050843e+2, -796597.0, -1006861.06, 32996.484, -0.02210968, -0.040826656, -791540.5, 138627.1, 0.0, 10.001496, 9.998681 
2.613534e+3, 2.1507584e+2, -790106.7, -1029529.6, 33034.195, -0.23478115, -0.025405385, -785632.44, 46618.63, 0.0, 10.001159, 9.99804 
2.6131457e+3, 2.2506687e+2, -626529.5, -884648.25, -5015.3325, -0.25474387, 0.033377446, -626432.06, 107909.87, 0.0, 10.001587, 9.998144 
2.6127586e+3, 2.3505764e+2, -423801.56, -811406.0, 3621.9434, -0.081740454, 0.031046525, -423767.72, 212670.58, 0.0, 10.002553, 9.99754 
2.612368e+3, 2.4504857e+2, -309740.56, -453415.84, -160621.78, -0.043394253, 0.023561705, -205623.66, 332904.03, 0.0, 10.001635, 9.999735 
2.611974e+3, 2.550393e+2, -640960.06, -645087.3, -115720.22, -0.14204165, -0.14135265, -527285.06, -86671.086, 0.0, 9.998989, 9.999059 
2.6115832e+3, 2.6503146e+2, -497524.22, -498613.13, 1376.2776, -0.11358449, -0.06864858, -496588.63, -153897.78, 0.0, 9.999244, 9.999247 
2.6111954e+3, 2.750247e+2, -4209.944, -274409.75, -25626.54, 0.033086307, 0.071619965, -1800.9258, 242959.6, 0.0, 10.002171, 9.998732 
2.6108038e+3, 2.8501594e+2, 277912.9, -91950.18, -171839.84, -0.024058284, 0.08145168, 345426.63, 492274.5, 0.0, 10.003527, 9.998596 
2.610408e+3, 2.950057e+2, 325060.9, -113295.22, -189479.23, -0.3243711, -0.07331609, 395609.28, 444556.25, 0.0, 10.003545, 9.997802 
2.6100165e+3, 3.0499828e+2, 261898.14, -208486.67, -147515.75, -0.27437282, 0.2083048, 304332.03, 304332.03, 0.0, 10.003179, 9.996994 
2.609632e+3, 3.149863e+2, 64813.043, -247995.38, -65344.094, 0.415694, 0.029737148, 77914.375, 77914.375, 0.0, 10.001464, 9.997537 
2.6270443e+3, 1.2553424e+2, -1654324.4, -1575169.5, 147328.3, 0.23686719, -0.09329552, -1462195.3, 247568.58, 0.13183987, 9.999878, 10.0010605 
2.6266488e+3, 1.3552961e+2, -1483871.8, -1536449.5, 47346.668, -0.39787087, 0.057926636, -1456005.1, 155805.64, 0.08692974, 10.000849, 10.000154 
2.6262578e+3, 1.4552262e+2, -1298831.4, -1357337.9, -47429.2, -0.520298, 0.10193231, -1272359.6, 241516.16, 0.045284748, 10.001255, 10.000492 
2.6258713e+3, 1.5551355e+2, -1279112.1, -1402824.0, -111898.57, -0.10813309, -0.13945553, -1213110.9, 202846.39, 0.01638905, 10.001095, 9.99958 
2.6254806e+3, 1.655047e+2, -1267397.1, -1530353.9, -149017.72, -0.0034125426, -0.13263534, -1200147.4, 117895.414, 0.0032885466, 10.001378, 9.997832 
2.6250866e+3, 1.7549585e+2, -1157721.8, -1510352.1, -118274.95, -0.17216957, -0.07724776, -1121725.9, 98408.586, 0.00021471751, 10.001762, 9.997157 
2.6246956e+3, 1.8548702e+2, -837922.06, -982686.06, -49969.754, -0.19651935, -0.060870618, -822348.8, 299873.6, 0.00000047553752, 10.001924, 9.999993 
2.624307e+3, 1.9547822e+2, -862262.1, -1036285.4, -141635.75, -0.07662986, -0.2278217, -783045.9, 241260.39, 0.0, 10.00145, 9.999212 
2.6239184e+3, 2.0547058e+2, -800162.56, -971470.0, -92125.24, -0.026707895, -0.14901212, -760024.3, 166355.88, 0.0, 10.001334, 9.998999 
2.6235297e+3, 2.1546386e+2, -856267.0, -1044528.44, -55664.582, -0.05215673, -0.007120827, -841039.9, -12592.817, 0.0, 10.000671, 9.998172 
2.623141e+3, 2.2545546e+2, -776202.0, -895832.4, -5494.3896, -0.05828079, 0.069240704, -775950.2, -45417.93, 0.0, 10.000347, 9.998648 
2.6227534e+3, 2.3544538e+2, -899181.2, -1003222.7, 17356.432, 0.013633949, -0.08175714, -896362.2, -263727.13, 0.0, 9.9992075, 9.997818 
2.6223612e+3, 2.4543625e+2, -566310.06, -522568.3, -178764.98, -0.046040267, -0.13136718, -364341.28, 170382.33, 0.0, 9.9997225, 10.000148 
2.6219648e+3, 2.5542775e+2, -484153.44, -559946.94, -173393.97, -0.22267574, -0.26859128, -344563.2, 92238.734, 0.0, 10.000095, 9.999094 
2.621575e+3, 2.6542088e+2, -362338.1, -505231.88, 85212.07, -0.1647095, -0.06722013, -322583.56, 16289.079, 0.0, 10.000536, 9.998536 
2.6211902e+3, 2.754154e+2, -321553.8, -543286.7, 72578.99, 0.093104646, 0.24638018, -299909.6, -58972.434, 0.0, 10.000568, 9.997623 
2.620799e+3, 2.8540602e+2, -129633.76, -282202.94, -116705.81, -0.023530496, 0.25867122, -66492.43, 76538.836, 0.0, 10.000798, 9.99857 
2.620402e+3, 2.9539305e+2, -207068.08, -422027.6, -85572.72, -0.43905064, -0.18309619, -177163.02, -132009.19, 0.0, 10.000196, 9.997282 
2.6200113e+3, 3.0538693e+2, -47581.56, -269792.2, -56985.93, -0.28766888, 0.23397267, -33819.793, -33819.793, 0.0, 10.000768, 9.99771 
2.619623e+3, 3.153739e+2, -19585.24, -196213.83, 49262.277, 0.077722006, -0.12691285, -6774.925, -6774.925, 0.0, 10.000656, 9.998262 
2.6370314e+3, 1.2592614e+2, -1823499.6, -1868294.6, 126182.5, -0.35068753, -0.121647865, -1717742.3, -11826.424, 0.11528824, 9.99971, 9.998942 
2.636644e+3, 1.3591945e+2, -1670843.0, -1872915.6, 76428.164, -0.3072095, 0.0129258325, -1645192.4, -37203.52, 0.07524984, 10.000572, 9.997926 
2.6362538e+3, 1.459119e+2, -1426488.9, -1520804.3, -52625.723, -0.3209948, 0.15656419, -1402983.3, 107082.06, 0.038529176, 10.000858, 9.999486 
2.6358637e+3, 1.559033e+2, -1380787.3, -1546271.9, -88281.25, -0.26748878, 0.05730398, -1342534.3, 69614.13, 0.013527696, 10.000844, 9.998691 
2.635473e+3, 1.6589417e+2, -1182585.3, -1363715.1, -121901.93, -0.19645481, 0.021589007, -1121288.1, 192946.39, 0.0025719018, 10.001433, 9.998946 
2.6350814e+3, 1.7588471e+2, -1086911.0, -1374833.9, -65806.336, -0.17551136, -0.091144405, -1072583.6, 143739.7, 0.00015054179, 10.001805, 9.998062 
2.63469e+3, 1.8587536e+2, -981508.56, -1319508.1, -57985.875, -0.2179111, -0.042445548, -971837.44, 146579.5, 0.0000001940375, 10.00209, 9.9976 
2.634299e+3, 1.9586599e+2, -959003.75, -1313316.1, -133585.83, -0.33696726, -0.023438577, -914282.75, 106231.31, 0.0, 10.001734, 9.997185 
2.633912e+3, 2.0585753e+2, -680679.75, -758831.7, -109072.02, -0.09580282, -0.012077962, -603895.3, 318700.56, 0.0, 10.001499, 10.000364 
2.6335275e+3, 2.1584976e+2, -660718.2, -793592.25, -46692.156, 0.32587934, -0.10200819, -645951.56, 178715.47, 0.0, 10.001296, 9.999599 
2.633137e+3, 2.2584234e+2, -647500.56, -682238.5, -45395.227, 0.21854012, -0.06550138, -616264.94, 110475.17, 0.0, 10.000537, 10.000037 
2.6327428e+3, 2.3583503e+2, -781787.94, -782388.75, 2942.37, -0.25170937, -0.05821163, -779130.7, -150314.8, 0.0, 9.999239, 9.999333 
2.6323503e+3, 2.4582745e+2, -569341.06, -553465.25, -98080.81, -0.3378514, -0.014530556, -463001.66, 67888.42, 0.0, 9.999782, 9.999916 
2.631959e+3, 2.5581965e+2, -266748.1, -451765.72, -84125.19, -0.19614837, -0.046371397, -234217.2, 198745.9, 0.0, 10.001509, 9.999161 
2.6315704e+3, 2.6581186e+2, -186747.55, -412533.94, 61070.563, -0.04838599, 0.051816765, -171287.77, 163755.89, 0.0, 10.001641, 9.998669 
2.631184e+3, 2.7580428e+2, -296406.22, -483297.5, 62554.72, 0.12325975, 0.17013325, -277401.06, -40273.555, 0.0, 10.0004425, 9.998117 
2.6307938e+3, 2.857955e+2, -200438.92, -146707.75, -96739.37, 0.22367878, 0.13292134, -73172.82, 66040.945, 0.0, 9.999464, 10.000187 
2.6304004e+3, 2.9578537e+2, -298567.03, -243714.39, -9007.623, 0.22011007, -0.150879, -242273.08, -200967.31, 0.0, 9.9984865, 9.99937 
2.6300073e+3, 3.0577987e+2, -67008.46, -58847.254, 146511.38, 0.08861319, 0.12745835, 83640.336, 83640.336, 0.0, 9.999582, 9.999793 
2.629616e+3, 3.1576848e+2, 326280.3, 383528.47, 155041.95, 0.032398555, -0.21143448, 512566.53, 512566.53, 0.0, 10.001042, 10.002146 
2.647027e+3, 1.2631612e+2, -1487176.9, -1723707.5, -97690.734, -0.18806775, 0.08352237, -1452046.8, 250053.5, 0.10017185, 10.002183, 9.998835 
2.6466376e+3, 1.3630666e+2, -1634012.8, -1837666.0, -100295.63, -0.22315635, -0.039894626, -1592913.3, 11282.493, 0.06469282, 10.000767, 9.998077 
2.6462474e+3, 1.4629894e+2, -1541284.1, -1572671.3, -118080.98, -0.2319838, 0.057206288, -1437858.4, 68413.98, 0.032530583, 10.000033, 9.9995165 
2.645857e+3, 1.5629162e+2, -1586514.8, -1649828.3, -110135.28, -0.20524551, 0.08965504, -1503576.9, -95232.734, 0.011066901, 9.999431, 9.998658 
2.6454666e+3, 1.6628294e+2, -1240080.6, -1328974.1, -63831.28, -0.173921, 0.05970654, -1206746.0, 103679.08, 0.0019930317, 10.000743, 9.99952 
2.6450765e+3, 1.7627338e+2, -965822.8, -1298661.5, -76563.164, -0.12897131, -0.10839355, -949055.6, 263456.34, 0.00010503105, 10.00252, 9.998269 
2.644685e+3, 1.8626404e+2, -1020844.7, -1376415.8, -50819.86, -0.18602842, -0.053911697, -1013723.9, 100881.984, 0.00000008640195, 10.002072, 9.997166 
2.6442924e+3, 1.9625473e+2, -1268917.6, -1529772.9, -4426.9434, -0.3179459, 0.034849312, -1268842.5, -252137.0, 0.0, 9.999944, 9.99655 
2.643906e+3, 2.0624582e+2, -892937.44, -838452.2, 73046.69, -0.051292133, 0.029851433, -787733.44, 131059.36, 0.0, 9.999959, 10.000566 
2.6435226e+3, 2.1623722e+2, -824476.6, -870479.44, 4666.3594, 0.50977737, -0.15593898, -824008.06, -3136.67, 0.0, 10.000164, 9.999642 
2.6431307e+3, 2.2623049e+2, -649707.5, -609444.06, -89588.6, 0.2985476, -0.090357676, -537753.1, 185184.75, 0.0, 10.000227, 10.000666 
2.642733e+3, 2.36225e+2, -811198.5, -754716.9, -107797.8, -0.40909407, 0.013989884, -671522.0, -46525.734, 0.0, 9.998895, 9.999689 
2.642341e+3, 2.4621831e+2, -623613.5, -567698.9, -107270.164, -0.4654639, 0.11298334, -484802.7, 42258.35, 0.0, 9.999391, 9.999998 
2.6419532e+3, 2.5621074e+2, -558937.0, -627546.3, -65934.45, -0.09490411, 0.08430835, -518916.97, -89785.52, 0.0, 9.999698, 9.998835 
2.641565e+3, 2.662022e+2, -420706.97, -501682.56, 17765.76, 0.04711134, 0.11119123, -416980.7, -85761.58, 0.0, 10.000011, 9.998806 
2.641176e+3, 2.7619293e+2, -536276.2, -613703.6, 9791.008, 0.07969956, 0.03165394, -535057.25, -301738.38, 0.0, 9.998933, 9.997945 
2.6407877e+3, 2.8618518e+2, -160997.66, 5054.019, -166862.58, 0.42335042, 0.036454134, 108405.24, 243798.69, 0.0, 9.999235, 10.001306 
2.6403978e+3, 2.9617834e+2, -140511.3, -58921.76, -132541.08, 0.8462073, -0.062704705, 38960.617, 76413.01, 0.0, 9.999183, 10.000291 
2.640001e+3, 3.0617228e+2, 199391.33, 256148.44, 38254.176, 0.23041113, -0.008112724, 275401.0, 275401.0, 0.0, 10.000727, 10.001328 
2.6396057e+3, 3.1616268e+2, -105919.67, -460937.3, 147801.36, -0.4254316, -0.33632782, -52442.297, -52442.297, 0.0, 10.000977, 9.996307 
2.6570255e+3, 1.267051e+2, -1626336.4, -1683059.5, -116735.55, 0.12099836, 0.4066711, -1534566.4, 163733.03, 0.086430125, 10.000764, 9.999755 
2.656631e+3, 1.3669233e+2, -1609344.8, -1736620.0, -75376.37, -0.2770024, -0.15394166, -1574334.8, 26083.57, 0.055199515, 10.000586, 9.998848 
2.65624e+3, 1.4668456e+2, -1477813.8, -1462325.6, -101210.305, -0.28542474, -0.14043748, -1368563.6, 133927.3, 0.027235242, 10.000172, 10.0001955 
2.6558506e+3, 1.5667892e+2, -1531121.3, -1563388.5, -69226.484, -0.09162392, -0.0024789143, -1476173.3, -71629.84, 0.0089680515, 9.999571, 9.999175 
2.6554608e+3, 1.666711e+2, -1218626.8, -1292095.9, 31409.709, -0.088441394, 0.022195136, -1207029.1, 99586.44, 0.0015322798, 10.00084, 9.999695 
2.6550713e+3, 1.7666195e+2, -920537.8, -1231761.8, 4515.4595, -0.20568813, -0.11704088, -920472.3, 288227.44, 0.00007382683, 10.002644, 9.99866 
2.6546803e+3, 1.8665323e+2, -893290.75, -1136319.1, -105174.47, -0.16101189, -0.10792013, -854096.0, 256690.67, 0.000000036839044, 10.002165, 9.998776 
2.6542878e+3, 1.9664459e+2, -1154960.1, -1323421.8, -14820.764, -0.090106435, -0.10215153, -1153666.3, -140789.89, 0.0, 10.000049, 9.997915 
2.6538986e+3, 2.0663573e+2, -994966.56, -1062308.0, 129346.85, -0.015625808, -0.07238924, -894979.8, 19986.63, 0.0, 10.000027, 9.9989805 
2.6535118e+3, 2.166269e+2, -807782.5, -1006042.44, 57448.008, 0.052260756, -0.11501348, -792339.25, 24715.553, 0.0, 10.000858, 9.998378 
2.6531202e+3, 2.2662015e+2, -631841.06, -675325.06, -114644.0, -0.06456695, 0.036545876, -536895.56, 182229.77, 0.0, 10.000625, 10.00004 
2.6527262e+3, 2.3661457e+2, -677510.9, -711411.94, -124872.6, -0.3350229, 0.20462878, -568443.6, 52741.984, 0.0, 9.999818, 9.999562 
2.6523355e+3, 2.4660684e+2, -473189.88, -358586.66, -95683.63, -0.2602721, 0.13338149, -304358.75, 218897.2, 0.0, 9.999779, 10.001275 
2.651947e+3, 2.565981e+2, -417170.78, -418160.16, -27672.625, -0.0024336544, -0.12116822, -389988.44, 35342.73, 0.0, 9.999979, 10.0001545 
2.651556e+3, 2.6659033e+2, -437880.47, -500565.53, 16385.762, -0.06605236, -0.0759072, -433855.7, -106445.1, 0.0, 9.999782, 9.998949 
2.6511648e+3, 2.7658302e+2, -448461.7, -527805.75, 7935.3755, -0.2303849, 0.03937621, -447675.84, -218182.52, 0.0, 9.999242, 9.998411 
2.650776e+3, 2.8657547e+2, -138246.45, -163921.95, -142206.39, 0.03384258, 0.1283368, -8299.514, 123270.625, 0.0, 10.000057, 9.99981 
2.6503864e+3, 2.9656813e+2, 119016.1, -72447.81, -175426.84, 0.3883497, 0.14552803, 223132.06, 256772.16, 0.0, 10.001442, 9.999141 
2.6499945e+3, 3.0656016e+2, 266868.6, 64596.676, -130160.81, 0.11348214, 0.1619801, 330566.84, 330566.84, 0.0, 10.002077, 9.999396 
2.6496053e+3, 3.1655273e+2, 10898.507, -499986.22, -210929.83, 0.05963742, 0.24983361, 86729.74, 86729.74, 0.0, 10.002031, 9.995571 
2.6670155e+3, 1.2709208e+2, -1820522.1, -1701504.3, 74113.85, -0.123384595, 0.15505914, -1665965.0, 28537.123, 0.07399981, 9.998951, 10.000459 
2.6666266e+3, 1.3708267e+2, -1441700.0, -1638408.0, 57875.906, -0.07292586, -0.10822681, -1425935.0, 170652.08, 0.046711504, 10.001629, 9.999046 
2.666235e+3, 1.4707369e+2, -1164677.0, -1452356.6, -45485.625, -0.14832932, -0.1360101, -1157656.5, 341016.3, 0.022592498, 10.002935, 9.998969 
2.6658434e+3, 1.5706559e+2, -1049895.4, -1419809.5, -134935.36, -0.17827792, -0.121566564, -1005905.56, 394846.06, 0.0071954923, 10.003223, 9.998446 
2.6654541e+3, 1.670579e+2, -1061440.4, -1163440.3, -55543.57, -0.14414412, -0.09290942, -1037034.1, 265788.66, 0.001170623, 10.001658, 10.000216 
2.6650655e+3, 1.7705025e+2, -1464656.8, -1436706.4, -64053.234, -0.09364723, -0.14137597, -1385121.5, -180228.73, 0.00005271245, 9.998683, 9.999171 
2.6646745e+3, 1.8704236e+2, -1163110.8, -1185424.1, -166267.47, -0.048981033, -0.119189896, -1007626.1, 99345.2, 0.000000014947995, 9.999948, 9.999525 
2.6642823e+3, 1.9703443e+2, -851591.1, -1136133.3, -144220.0, 0.05499989, -0.12264239, -791277.7, 217775.39, 0.0, 10.00198, 9.998281 
2.6638922e+3, 2.0702581e+2, -724269.7, -1009673.0, 46901.96, -0.037480135, -0.063596785, -716759.6, 194383.13, 0.0, 10.002279, 9.998214 
2.6635024e+3, 2.1701701e+2, -879723.56, -1135313.6, 21013.682, -0.20943329, -0.035065345, -878007.44, -64772.633, 0.0, 10.000866, 9.997453 
2.6631114e+3, 2.270101e+2, -694540.0, -710010.56, -97350.58, -0.23015787, 0.13428608, -604617.9, 110689.805, 0.0, 10.000292, 9.999911 
2.6627198e+3, 2.3700401e+2, -857173.0, -829323.5, -64811.344, -0.14951035, 0.26078412, -776957.94, -159585.81, 0.0, 9.998787, 9.999235 
2.6623297e+3, 2.4699548e+2, -460090.94, -302495.38, -33762.086, -0.06987635, 0.101679966, -295567.03, 223880.64, 0.0, 9.999723, 10.001668 
2.6619396e+3, 2.5698575e+2, -379332.63, -397100.1, -66656.6, 0.008710326, -0.29545382, -320970.38, 100558.48, 0.0, 10.000326, 10.000112 
2.6615477e+3, 2.669789e+2, -330330.53, -413736.84, -62436.984, -0.1791775, -0.18820238, -296950.2, 26649.135, 0.0, 10.000503, 9.999133 
2.6611546e+3, 2.769733e+2, -481339.28, -585886.75, -45028.656, -0.446028, 0.067074575, -464619.38, -238953.64, 0.0, 9.999328, 9.997938 
2.6607648e+3, 2.869657e+2, -207608.22, -325519.13, -82164.21, -0.3295634, 0.22960547, -165436.52, -37690.1, 0.0, 10.000271, 9.998529 
2.660375e+3, 2.969573e+2, -141186.92, -423265.84, -52644.383, -0.17494659, 0.27435037, -131682.16, -101849.86, 0.0, 10.000763, 9.997028 
2.6599884e+3, 3.069474e+2, 6460.6187, -328743.2, -2384.9512, 0.07697838, 0.33374, 6477.587, 6477.587, 0.0, 10.001525, 9.996912 
2.659602e+3, 3.169363e+2, -1986.1404, -206959.19, -362741.44, 0.26724857, 0.23505925, 272468.75, 272468.75, 0.0, 10.000803, 9.998143 
2.6770023e+3, 1.2747835e+2, -1708960.9, -1577609.9, 129876.57, -0.6904702, -0.26726156, -1497747.8, 192956.61, 0.06278203, 9.999543, 10.00104 
2.6766238e+3, 1.3747522e+2, -1547279.8, -1737703.0, 129547.62, 0.18047051, 0.038271457, -1481718.8, 111011.64, 0.039146993, 10.001128, 9.998601 
2.6762322e+3, 1.4746426e+2, -1405308.8, -1829804.9, -21161.336, -0.01567469, -0.023248143, -1404256.5, 90583.516, 0.018543638, 10.00243, 9.996584 
2.675836e+3, 1.5745091e+2, -1202995.1, -1665605.0, -100926.64, -0.5511972, -0.30272308, -1181934.9, 215040.48, 0.005710664, 10.002919, 9.996897 
2.6754463e+3, 1.6744332e+2, -1015668.3, -1027954.5, -138107.63, -0.36042348, -0.27451968, -883567.2, 415479.6, 0.0008890518, 10.001508, 10.001196 
2.6750588e+3, 1.7743775e+2, -1400264.0, -1324441.0, -91484.516, 0.041881535, -0.2021855, -1263323.8, -62228.313, 0.000037964888, 9.99878, 9.999876 
2.6746678e+3, 1.8743096e+2, -1138483.4, -1179328.5, -51763.51, 0.0331145, -0.08955585, -1103259.4, -94.00578, 0.0000000057994387, 10.000148, 9.999469 
2.6742762e+3, 1.974238e+2, -747157.0, -1061911.0, -51672.656, -0.13421713, -0.008932885, -738891.06, 266351.63, 0.0, 10.00257, 9.998507 
2.673886e+3, 2.0741604e+2, -601274.94, -870367.8, 16462.762, -0.19029354, 0.08744264, -600271.5, 307052.1, 0.0, 10.0027685, 9.998942 
2.6734966e+3, 2.1740793e+2, -658957.2, -908744.06, 1574.6042, -0.24293742, 0.11659432, -658947.3, 150459.98, 0.0, 10.001796, 9.998572 
2.6731056e+3, 2.2740023e+2, -573332.56, -549211.9, -113014.13, -0.12698443, 0.107540004, -447616.4, 263866.84, 0.0, 10.000641, 10.000873 
2.6727137e+3, 2.373928e+2, -708355.4, -698626.8, -30428.219, 0.033885278, 0.034268662, -672676.5, -59121.184, 0.0, 9.999484, 9.999815 
2.6723224e+3, 2.473841e+2, -490162.63, -523134.75, 45218.45, -0.037972286, -0.051123783, -458518.7, 57117.184, 0.0, 10.000334, 9.999891 
2.6719317e+3, 2.5737494e+2, -230929.27, -433021.9, -32474.26, -0.22517748, -0.208003, -225839.19, 191879.6, 0.0, 10.001712, 9.999223 
2.671541e+3, 2.6736793e+2, -131000.07, -258430.89, -110007.62, -0.22227408, -0.11216281, -67588.266, 252201.4, 0.0, 10.001556, 9.999721 
2.6711506e+3, 2.7736172e+2, -200517.36, -330501.72, -70288.805, -0.13705859, 0.041560467, -169778.16, 52078.35, 0.0, 10.000666, 9.999056 
2.6707602e+3, 2.873543e+2, -23308.268, -102819.33, -27072.797, -0.14509425, 0.10236779, -14965.579, 108965.98, 0.0, 10.000926, 9.999767 
2.670368e+3, 2.9734623e+2, 69896.53, -192099.38, 56027.43, -0.2819601, 0.09131584, 81375.016, 107385.91, 0.0, 10.00155, 9.998271 
2.669982e+3, 3.0733562e+2, 59217.348, -320444.0, 151721.27, 0.0019792675, 0.054393105, 112399.08, 112399.08, 0.0, 10.001864, 9.99686 
2.669596e+3, 3.173246e+2, 347071.22, 212733.34, -222812.39, 0.31098405, -0.0005565379, 512618.9, 512618.9, 0.0, 10.0019, 10.000554 
2.6870006e+3, 1.2786865e+2, -1011447.7, -1354051.5, 7136.965, -0.395874, -0.18537031, -1011299.06, 675577.75, 0.052677616, 10.004885, 10.000168 
2.686616e+3, 1.3786398e+2, -1618728.6, -1798704.3, -60265.59, 0.07090138, 0.04836841, -1600412.5, -11490.665, 0.03242507, 10.000684, 9.998399 
2.686225e+3, 1.4785382e+2, -1672876.5, -1876233.6, -6926.169, -0.10157235, 0.008314371, -1672640.9, -181616.98, 0.015032841, 10.000193, 9.997336 
2.6858315e+3, 1.5784141e+2, -1484168.4, -1733107.1, 31330.488, -0.43216786, -0.23859888, -1480285.8, -87136.67, 0.0044764117, 10.000685, 9.997506 
2.6854408e+3, 1.6783361e+2, -1155695.3, -1095610.0, -47582.207, -0.27076223, -0.23640305, -1069379.9, 225842.73, 0.00066900725, 10.000581, 10.001171 
2.685051e+3, 1.7782767e+2, -1260393.8, -1271354.3, -38049.258, 0.09082732, -0.18526162, -1227432.1, -30156.287, 0.000027210404, 9.999805, 9.999756 
2.684661e+3, 1.8782048e+2, -1100677.1, -1177128.3, 83998.734, 0.04531315, -0.0896091, -1046615.25, 52734.14, 0.000000001728097, 10.000482, 9.999336 
2.6842704e+3, 1.9781327e+2, -1002591.6, -1179355.6, 40434.453, -0.12031008, 0.0062188995, -993781.44, 7644.848, 0.0, 10.000809, 9.99856 
2.68388e+3, 2.0780599e+2, -937859.8, -949400.2, 30368.58, -0.1775385, 0.095847405, -912718.1, -9216.681, 0.0, 10.000069, 9.999723 
2.6834902e+3, 2.1779858e+2, -1204690.5, -1133318.5, 17833.379, -0.15504828, 0.13320267, -1129110.6, -323534.13, 0.0, 9.997897, 9.998932 
2.683099e+3, 2.2779037e+2, -718919.8, -630962.9, -108987.14, -0.0388066, 0.05924775, -557415.6, 150240.5, 0.0, 9.999714, 10.000752 
2.6827073e+3, 2.3778202e+2, -524898.9, -694003.94, -106906.484, 0.1301434, -0.09879828, -473149.8, 136586.13, 0.0, 10.001179, 9.999025 
2.6823157e+3, 2.4777345e+2, -342962.47, -583802.4, 31075.02, -0.0691764, -0.088469744, -339017.53, 172801.64, 0.0, 10.0020275, 9.998577 
2.681924e+3, 2.57765e+2, -379970.5, -648809.3, -14872.925, -0.39138263, -0.064463, -379150.2, 34751.59, 0.0, 10.001404, 9.99786 
2.6815346e+3, 2.6775748e+2, -222363.27, -252528.83, -132710.8, -0.22690451, -0.00005330727, -103880.914, 212094.31, 0.0, 10.000783, 10.000095 
2.6811463e+3, 2.777502e+2, -451182.78, -429424.88, -88846.52, 0.14214152, -0.004940601, -350793.75, -132746.98, 0.0, 9.998911, 9.999217 
2.680755e+3, 2.8774258e+2, -103386.37, -23635.455, -38150.51, 0.01980813, -0.0427833, -8324.74, 111794.39, 0.0, 9.999908, 10.000778 
2.6803613e+3, 2.9773498e+2, -72690.68, -203536.19, -4145.159, -0.32219774, -0.12539203, -72559.49, -50368.844, 0.0, 10.000415, 9.99872 
2.6799756e+3, 3.0772454e+2, -95598.28, -325475.13, 81067.75, -0.050775204, -0.21029025, -69885.29, -69885.29, 0.0, 10.000631, 9.997347 
2.6795918e+3, 3.1771523e+2, 69579.56, 275942.38, -200416.52, 0.47216973, -0.19053817, 398178.75, 398178.75, 0.0, 9.999379, 10.002136 
2.6970026e+3, 1.2826005e+2, -1406127.3, -1687793.3, -150994.23, 0.062265027, 0.105755, -1340482.1, 342561.16, 0.043619078, 10.002794, 9.99868 
2.6966047e+3, 1.3825044e+2, -1706403.0, -1857970.9, -115098.07, -0.4119403, -0.057857573, -1644380.0, -59237.965, 0.026486209, 10.000225, 9.998179 
2.6962155e+3, 1.4824316e+2, -1489213.8, -1476129.8, 55620.875, -0.3282245, 0.017645137, -1426667.5, 60546.133, 0.012009438, 10.000151, 10.0000925 
2.695829e+3, 1.5823594e+2, -1379629.1, -1497008.4, 59775.832, -0.063931674, 0.034547593, -1354547.5, 34736.01, 0.003455713, 10.000625, 9.99914 
2.6954362e+3, 1.6822761e+2, -1211157.9, -1227475.3, -52972.48, -0.039818257, -0.025297875, -1165719.5, 125642.664, 0.00049606664, 10.00063, 10.000232 
2.695042e+3, 1.7821932e+2, -1288377.9, -1375914.8, -6049.0615, -0.10600968, -0.1146885, -1287961.9, -94521.734, 0.00001910138, 9.999988, 9.998946 
2.694653e+3, 1.8821044e+2, -1085631.0, -1182727.6, 126670.28, -0.05899297, -0.15202545, -998524.25, 97002.45, 0.0000000002885943, 10.000634, 9.999207 
2.6942655e+3, 1.982019e+2, -934266.0, -1113139.4, 64326.59, -0.012207314, -0.18049021, -913535.4, 84076.42, 0.0, 10.001095, 9.998871 
2.693874e+3, 2.0819485e+2, -873901.1, -805390.06, -10630.668, -0.038484823, -0.14197406, -803778.44, 95902.164, 0.0, 9.999958, 10.000789 
2.6934817e+3, 2.1818832e+2, -1135421.6, -1068038.3, 40126.477, -0.098300815, -0.1018199, -1049334.6, -247589.8, 0.0, 9.998183, 9.999241 
2.6930904e+3, 2.2818026e+2, -811275.5, -914259.75, 20075.117, -0.12770343, -0.028391762, -807500.56, -103672.21, 0.0, 10.000071, 9.998653 
2.6926997e+3, 2.38172e+2, -337752.78, -704484.9, -31698.336, -0.15376702, 0.024319096, -335033.13, 270881.63, 0.0, 10.002842, 9.998157 
2.6923096e+3, 2.4816422e+2, -145623.94, -448164.22, 13805.32, -0.24253193, 0.12192877, -144995.3, 362999.2, 0.0, 10.0031395, 9.999013 
2.6919192e+3, 2.5815636e+2, -156694.34, -460046.06, -29096.7, -0.38346255, 0.1869644, -153928.69, 256144.92, 0.0, 10.002484, 9.998658 
2.691528e+3, 2.6814795e+2, -166858.9, -200754.25, -172295.7, -0.25173897, 0.11593498, -10679.3545, 301472.2, 0.0, 10.00097, 10.000407 
2.6911366e+3, 2.7813938e+2, -390879.8, -378125.56, -85330.36, -0.014279517, -0.021911498, -298934.38, -84705.12, 0.0, 9.999129, 9.999477 
2.6907462e+3, 2.881306e+2, -163488.9, -149584.33, 12049.368, -0.09085748, -0.12950733, -142625.42, -26311.31, 0.0, 9.999819, 9.999973 
2.6903552e+3, 2.9812235e+2, 57523.69, -110816.48, -34891.742, -0.28705618, -0.20739982, 64469.12, 82864.41, 0.0, 10.001078, 9.999039 
2.68997e+3, 3.0811614e+2, -44348.953, -80227.94, -21064.918, 0.1530258, -0.011031913, -34619.758, -34619.758, 0.0, 9.999914, 9.999423 
2.6895824e+3, 3.1810755e+2, 49594.105, 294679.78, -73921.195, 0.377321, -0.08629087, 315249.1, 315249.1, 0.0, 9.998917, 10.002531 
2.7069938e+3, 1.2864798e+2, -1994612.0, -1918443.8, -53630.387, -0.1006819, -0.15877546, -1890750.8, -211517.34, 0.035549942, 9.998328, 9.999265 
2.7065992e+3, 1.3864063e+2, -1483246.9, -1700156.8, 33714.93, -0.27213448, -0.10719489, -1478127.3, 103183.266, 0.021269772, 10.001445, 9.998738 
2.7062103e+3, 1.4863363e+2, -1229812.5, -1292053.4, 125185.75, -0.19870706, -0.048144907, -1131937.0, 351444.13, 0.009415533, 10.001629, 10.0007 
2.7058232e+3, 1.586269e+2, -1317885.4, -1439484.3, 9624.382, 0.044572525, -0.028756365, -1317128.4, 68319.87, 0.0026134893, 10.000882, 9.999434 
2.7054304e+3, 1.6861935e+2, -1107729.6, -1252908.5, -107621.54, 0.05248774, 0.013139903, -1050505.3, 237017.75, 0.0003600524, 10.001604, 9.999609 
2.705036e+3, 1.7861143e+2, -1033046.9, -1283079.3, -39907.83, -0.0266238, 0.016125299, -1026831.6, 162769.38, 0.000012952271, 10.001887, 9.998665 
2.704647e+3, 1.8860179e+2, -1032663.3, -1112065.4, 118985.19, -0.012247018, -0.12503122, -946930.5, 144761.27, 0.000000000007316074, 10.000859, 9.999563 
2.7042592e+3, 1.9859198e+2, -1210386.0, -1239241.5, 88023.35, 0.05439694, -0.29941112, -1135615.9, -141832.31, 0.0, 9.999196, 9.998926 
2.7038673e+3, 2.0858483e+2, -786351.0, -748400.3, -45372.04, 0.022427648, -0.2874174, -718195.5, 177655.55, 0.0, 10.000545, 10.000879 
2.7034742e+3, 2.1857846e+2, -733108.4, -952563.75, -36768.742, -0.03516967, -0.23028645, -727111.8, 70800.2, 0.0, 10.00135, 9.998489 
2.7030832e+3, 2.2857006e+2, -676271.3, -1001032.2, 45231.44, -0.17758673, -0.0985463, -670089.3, 29912.602, 0.0, 10.00173, 9.997197 
2.7026927e+3, 2.3856148e+2, -713953.6, -1034171.2, 26932.566, -0.31286263, 0.05805789, -711704.25, -109608.47, 0.0, 10.000946, 9.996796 
2.7023035e+3, 2.4855398e+2, -555773.25, -618450.75, -8544.1045, -0.3256916, 0.20142017, -554629.44, -50453.727, 0.0, 10.000245, 9.999207 
2.7019137e+3, 2.585467e+2, -781407.1, -759468.5, -76962.57, -0.29622108, 0.29361838, -692697.5, -286446.47, 0.0, 9.998295, 9.9985895 
2.7015206e+3, 2.6853803e+2, -315428.63, -217225.13, -194472.38, -0.26414058, 0.15545164, -65751.48, 242576.8, 0.0, 9.999788, 10.000824 
2.7011266e+3, 2.7852896e+2, -240999.3, -342220.5, -65317.414, -0.20115949, -0.07369638, -208979.4, 1427.444, 0.0, 10.000427, 9.999084 
2.7007377e+3, 2.885196e+2, -199175.11, -263353.7, 81450.805, -0.17933004, -0.16858967, -143720.36, -31220.38, 0.0, 10.000107, 9.999011 
2.7003494e+3, 2.9851073e+2, -354118.6, -360421.03, 28391.525, -0.20142819, -0.21267447, -328703.94, -314113.63, 0.0, 9.998573, 9.998525 
2.6999637e+3, 3.0850795e+2, -17579.313, 126890.03, -82026.43, 0.2940281, 0.21081771, 163953.95, 163953.95, 0.0, 9.999354, 10.001088 
2.6995698e+3, 3.1849572e+2, 4844.1763, 196687.72, 48100.215, -0.07424546, -0.38336313, 208072.13, 208072.13, 0.0, 9.999123, 10.0017395 
2.716981e+3, 1.2903488e+2, -1810133.9, -1636479.6, 19562.336, -0.5402603, -0.5496951, -1634303.1, 41125.8, 0.028414965, 9.9988785, 10.000909 
2.7165976e+3, 1.3903277e+2, -1516971.3, -1655446.8, 87404.625, 0.11685684, -0.13718759, -1474703.8, 102748.16, 0.016713178, 10.001023, 9.999219 
2.7162066e+3, 1.490243e+2, -1339714.3, -1435585.4, 94763.93, 0.00568006, -0.1905326, -1281451.8, 198088.73, 0.0071980846, 10.001316, 9.999819 
2.7158147e+3, 1.5901501e+2, -1401652.9, -1555443.9, 11205.398, -0.20788653, -0.34179375, -1400840.8, -19202.875, 0.0019202423, 10.000674, 9.998722 
2.715424e+3, 1.6900946e+2, -1128592.9, -1287894.3, -58587.84, 0.0012064356, -0.0639074, -1109366.1, 174333.45, 0.00025324232, 10.001604, 9.999357 
2.7150336e+3, 1.7900412e+2, -1009212.75, -1242988.0, -23670.678, 0.20843783, 0.2236008, -1006840.06, 178917.5, 0.000008369746, 10.001918, 9.998928 
2.7146417e+3, 1.8899444e+2, -976796.6, -976623.5, 77049.77, 0.09460138, 0.0028422393, -899660.25, 188184.8, 0.0, 10.000787, 10.000526 
2.7142498e+3, 1.9898415e+2, -1180188.1, -1191314.4, 105478.07, -0.09401156, -0.29693693, -1080126.6, -90190.33, 0.0, 9.9992485, 9.999233 
2.7138594e+3, 2.0897605e+2, -815204.7, -912226.4, 53973.41, -0.0964934, -0.2910183, -791145.4, 100867.55, 0.0, 10.00098, 9.999559 
2.713469e+3, 2.1896851e+2, -535056.06, -915702.4, 8088.1025, -0.11043946, -0.22168069, -534884.3, 259201.73, 0.0, 10.0029125, 9.998004 
2.713078e+3, 2.289588e+2, -538150.75, -911693.6, 23075.56, -0.20259607, -0.20602824, -536730.6, 159455.36, 0.0, 10.002529, 9.997462 
2.712687e+3, 2.3894894e+2, -606403.9, -943072.7, 5180.569, -0.31655034, -0.18816964, -606324.2, -8035.074, 0.0, 10.001447, 9.997184 
2.7122962e+3, 2.4894048e+2, -686812.7, -728074.4, -62489.41, -0.2647827, -0.11614549, -641636.56, -141259.77, 0.0, 9.999512, 9.998821 
2.7119052e+3, 2.5893265e+2, -835489.0, -717714.7, -73428.29, -0.2025873, -0.045864023, -682477.4, -280020.4, 0.0, 9.997569, 9.999221 
2.711513e+3, 2.6892537e+2, -231818.52, -85666.42, -64356.777, -0.25854537, -0.12097124, -61367.406, 243154.7, 0.0, 9.999885, 10.001714 
2.7111205e+3, 2.7891815e+2, 148397.7, -57879.574, -9582.734, -0.28887752, -0.23480904, 148841.92, 355426.8, 0.0, 10.002622, 9.999979 
2.7107322e+3, 2.8891125e+2, -107365.2, -226065.98, 17399.502, -0.059542917, -0.09211881, -104867.3, 3788.934, 0.0, 10.0007515, 9.998973 
2.7103433e+3, 2.9890403e+2, -451080.75, -441391.06, 50347.24, 0.09697828, 0.053805124, -395656.1, -384923.28, 0.0, 9.997964, 9.998278 
2.7099535e+3, 3.0889443e+2, -84735.98, -110409.69, -7086.961, 0.065059796, -0.05039415, -82909.62, -82909.62, 0.0, 9.999685, 9.99936 
2.7095634e+3, 3.188824e+2, 187141.6, 250319.55, -200153.08, 0.018355578, -0.44938767, 421361.06, 421361.06, 0.0, 10.000396, 10.00154 
2.7269754e+3, 1.2942448e+2, -1027390.5, -1221130.4, -144939.03, -0.57818806, -0.44873837, -949930.0, 721684.06, 0.022191124, 10.00405, 10.001408 
2.726592e+3, 1.3942058e+2, -1566920.3, -1647020.8, -151722.22, 0.2249109, -0.23352201, -1450051.3, 123600.484, 0.012784308, 10.000435, 9.999612 
2.7262e+3, 1.4941296e+2, -1459995.9, -1500887.0, -78936.34, 0.016656462, -0.23959577, -1398900.3, 76831.97, 0.00532732, 10.000459, 9.999826 
2.725807e+3, 1.5940472e+2, -1355830.0, -1507784.9, -106035.23, -0.27809227, -0.29210004, -1301361.9, 76458.19, 0.0013580795, 10.000872, 9.998971 
2.7254185e+3, 1.6939932e+2, -1061238.1, -1188690.0, -117671.125, 0.028446436, -0.06332727, -991145.25, 288734.44, 0.00016970174, 10.001832, 9.999921 
2.72503e+3, 1.7939433e+2, -935300.6, -1176384.6, -81944.15, 0.39581317, 0.20858927, -910085.25, 271848.72, 0.0000049540654, 10.002304, 9.999205 
2.7246356e+3, 1.8938525e+2, -816302.8, -886171.0, -67663.95, 0.16099502, 0.017545464, -775087.06, 308927.84, 0.0, 10.001793, 10.000669 
2.7242416e+3, 1.9937545e+2, -1045811.6, -1167090.5, -35917.863, -0.12272376, -0.25199878, -1035972.44, -49871.74, 0.0, 10.0003605, 9.998856 
2.7238524e+3, 2.093667e+2, -853644.9, -1014643.2, 16889.781, -0.15600367, -0.2666365, -851892.1, 36291.883, 0.0, 10.001124, 9.99876 
2.7234635e+3, 2.1935824e+2, -824816.94, -1122539.5, -16216.147, -0.12915725, -0.22033378, -823936.3, -33669.758, 0.0, 10.001268, 9.997379 
2.7230722e+3, 2.2934839e+2, -766929.44, -961310.2, -35562.535, -0.19178128, -0.24275696, -760627.44, -68261.66, 0.0, 10.000776, 9.997947 
2.7226806e+3, 2.393384e+2, -963473.6, -1102384.9, -29929.137, -0.24039938, -0.2764117, -957299.7, -362832.7, 0.0, 9.999059, 9.997218 
2.722289e+3, 2.4932885e+2, -617129.06, -688251.1, -52943.453, -0.19454993, -0.32868195, -588912.4, -92351.06, 0.0, 10.000044, 9.998804 
2.721897e+3, 2.5932008e+2, -509206.25, -596207.1, 14891.395, -0.12838472, -0.3434278, -506728.0, -108080.02, 0.0, 10.000025, 9.998885 
2.7215058e+3, 2.6931366e+2, -223116.97, -61819.207, 28170.105, -0.2389237, -0.3436047, -57040.945, 243666.1, 0.0, 9.999931, 10.001838 
2.7211148e+3, 2.793079e+2, -408362.78, -369690.3, -52341.008, -0.29920354, -0.31776798, -333228.06, -130468.74, 0.0, 9.999049, 9.99956 
2.720726e+3, 2.8930274e+2, -176657.61, -244607.06, -109472.91, 0.054284155, -0.027996603, -96008.6, 8805.932, 0.0, 10.000237, 9.999071 
2.7203363e+3, 2.9929668e+2, -254718.97, -480647.44, 12734.196, 0.27793324, 0.24583347, -254003.48, -247123.88, 0.0, 9.999971, 9.9970255 
2.7199435e+3, 3.0928007e+2, -159224.36, -369533.8, 93719.234, -0.19848439, -0.4124946, -123521.68, -123521.68, 0.0, 10.000203, 9.99727 
2.7195612e+3, 3.1927282e+2, -20303.55, 139613.89, -355496.03, 0.51007885, -0.18279806, 424032.5, 424032.5, 0.0, 9.999183, 10.001292 
2.7369714e+3, 1.2981479e+2, -1329442.3, -1408024.9, -265476.38, -0.6246125, -0.10748902, -1100365.4, 567434.56, 0.016854001, 10.002229, 10.000892 
2.7365834e+3, 1.39806e+2, -1641954.9, -1697759.8, -165600.27, 0.016694456, -0.37361377, -1501922.8, 67961.18, 0.009467282, 10.000052, 9.9994135 
2.7361915e+3, 1.498007e+2, -1422838.3, -1398198.0, -6848.543, -0.14975381, -0.1932359, -1396422.5, 75518.336, 0.0037924994, 10.000408, 10.000521 
2.7358e+3, 1.597954e+2, -1314139.4, -1384846.8, -45404.727, -0.3570911, -0.020990968, -1291947.6, 82050.51, 0.0009170214, 10.000754, 9.999846 
2.7354127e+3, 1.6978861e+2, -984677.06, -1013715.2, -47778.19, 0.010502405, -0.03915884, -949260.56, 326805.28, 0.0001065257, 10.001795, 10.001125 
2.735025e+3, 1.7978185e+2, -894127.0, -1097797.4, -53174.81, 0.35385713, -0.038388513, -881079.8, 297052.22, 0.0000025959862, 10.002346, 9.999712 
2.7346298e+3, 1.8977392e+2, -847793.7, -974094.94, -84221.63, 0.12660016, -0.082163125, -805676.7, 274528.56, 0.0, 10.001871, 10.000043 
2.734235e+3, 1.9976556e+2, -983628.75, -1154891.4, -34518.434, -0.18469676, -0.14193138, -976933.25, 5348.3887, 0.0, 10.000837, 9.998703 
2.7338454e+3, 2.0975626e+2, -796163.75, -972863.5, 57329.16, -0.24515517, -0.2167531, -779193.5, 105178.195, 0.0, 10.001426, 9.998913 
2.7334565e+3, 2.1974735e+2, -664240.25, -969386.94, -11683.663, -0.27718985, -0.23063765, -663793.56, 122665.37, 0.0, 10.001996, 9.998079 
2.7330652e+3, 2.2973987e+2, -695917.9, -832829.25, -72134.01, -0.22024599, -0.09579333, -664927.6, 23607.76, 0.0, 10.000807, 9.998829 
2.7326733e+3, 2.3973228e+2, -798973.75, -869258.75, -13690.787, -0.17610528, 0.022447113, -796401.1, -205789.36, 0.0, 9.999468, 9.99862 
2.732282e+3, 2.4972205e+2, -393724.63, -450503.13, 55127.043, -0.20018603, -0.21678674, -360106.28, 132598.52, 0.0, 10.000944, 10.000038 
2.7318907e+3, 2.5971204e+2, -158632.8, -415468.0, 67606.72, -0.22628225, -0.4380135, -141923.73, 252872.22, 0.0, 10.002315, 9.999024 
2.7314988e+3, 2.6970497e+2, -323923.88, -371970.25, -40525.66, -0.18265395, -0.32284462, -300836.1, -3969.0315, 0.0, 10.000315, 9.999545 
2.7311078e+3, 2.796983e+2, -548657.06, -485483.16, -62928.992, -0.1057441, -0.18675502, -446658.5, -247723.56, 0.0, 9.998168, 9.999218 
2.7307186e+3, 2.8969088e+2, -7710.0293, -43446.344, -11832.225, -0.028080294, -0.18052703, -4147.5405, 96859.9, 0.0, 10.00075, 10.000272 
2.7303284e+3, 2.9968336e+2, 322741.22, -80136.91, 48773.23, -0.036919393, -0.16002722, 328561.72, 331643.56, 0.0, 10.003322, 9.998172 
2.7299386e+3, 3.0967084e+2, -8484.536, -284233.53, 72629.484, -0.03532912, -0.43663797, 9475.554, 9475.554, 0.0, 10.001093, 9.997465 
2.7295524e+3, 3.1966662e+2, 111960.45, 200706.55, -171051.47, 0.4536424, 0.11582924, 333046.75, 333046.75, 0.0, 9.999907, 10.001414 
2.7469677e+3, 1.3020769e+2, -1866619.3, -1860086.4, 22683.082, -0.29483387, -0.060242314, -1840435.8, -176485.53, 0.012358423, 9.999224, 9.999232 
2.7465767e+3, 1.4019802e+2, -1396837.4, -1623148.5, 30812.033, 0.018379303, -0.22925496, -1392717.4, 173332.36, 0.006744914, 10.001892, 9.999024 
2.7461848e+3, 1.5019183e+2, -1177918.4, -1239839.4, 147218.92, -0.18144415, -0.14450309, -1058439.6, 409671.25, 0.0025850076, 10.001868, 10.000911 
2.745794e+3, 1.6018617e+2, -1219886.8, -1292699.1, 99948.484, -0.3181313, -0.03128516, -1149920.4, 220246.25, 0.0005889778, 10.001155, 10.000285 
2.7454063e+3, 1.7017898e+2, -1027435.5, -1016550.75, 64652.504, -0.03357575, -0.11440495, -957112.0, 315123.84, 0.00006228534, 10.001348, 10.001345 
2.745018e+3, 1.8017162e+2, -1082485.9, -1228208.3, 9195.015, 0.25827798, -0.17058213, -1081908.0, 92398.45, 0.0000011486238, 10.00121, 9.999366 
2.7446237e+3, 1.9016397e+2, -880145.0, -1051133.1, -45123.758, 0.08445484, -0.13922358, -868967.5, 207413.03, 0.0, 10.001934, 9.999463 
2.744229e+3, 2.0015629e+2, -891326.9, -1159030.1, 16253.134, -0.1307079, -0.07347705, -890343.7, 88111.47, 0.0, 10.001742, 9.998226 
2.7438396e+3, 2.1014692e+2, -941939.75, -1051436.9, 81701.07, -0.19341509, -0.1410637, -898339.6, -17792.002, 0.0, 10.000472, 9.998823 
2.7434504e+3, 2.2013772e+2, -1151896.8, -1185466.5, -8076.8223, -0.20391458, -0.17758171, -1150054.6, -367416.16, 0.0, 9.998613, 9.998209 
2.7430582e+3, 2.3013087e+2, -881896.4, -835392.44, -98142.43, -0.1880841, -0.05394289, -757785.1, -73079.43, 0.0, 9.999209, 9.99955 
2.7426654e+3, 2.4012421e+2, -826983.0, -871256.2, -1308.4384, -0.15469244, 0.103168495, -826944.4, -240174.34, 0.0, 9.999257, 9.99871 
2.7422753e+3, 2.5011414e+2, -365930.8, -401024.72, 26027.604, -0.21956544, -0.17004466, -352087.75, 136770.94, 0.0, 10.001008, 10.000325 
2.7418846e+3, 2.6010406e+2, -349157.47, -625323.1, -105539.0, -0.27919576, -0.41109338, -313443.44, 77504.66, 0.0, 10.001605, 9.9979 
2.7414918e+3, 2.7009612e+2, -451731.22, -631625.7, -216115.23, -0.13516688, -0.2583043, -307592.38, -14560.814, 0.0, 10.000342, 9.997711 
2.7411e+3, 2.8008837e+2, -619951.06, -619780.9, -56957.59, 0.024588602, -0.07915473, -562908.3, -367794.03, 0.0, 9.998223, 9.998238 
2.7407107e+3, 2.9007888e+2, -81589.9, 20107.188, 49251.1, -0.12935582, -0.34023288, 40048.793, 137251.97, 0.0, 9.9999275, 10.001062 
2.740321e+3, 3.0006996e+2, -25862.95, -221165.28, -46622.523, -0.31902263, -0.5299104, -15304.087, -15304.087, 0.0, 10.000937, 9.99833 
2.7399346e+3, 3.1006292e+2, -11723.151, -211296.64, -120691.39, 0.20472237, -0.34142843, 45090.887, 45090.887, 0.0, 10.000879, 9.998002 
2.7395406e+3, 3.2005724e+2, 185197.81, 216313.64, -33181.992, -0.032439947, -0.0006172648, 237403.97, 237403.97, 0.0, 10.000666, 10.001107 
2.7569634e+3, 1.3060182e+2, -2007534.5, -2155341.3, 76738.82, 0.036613956, -0.08943456, -1974898.9, -314814.2, 0.008685319, 9.999353, 9.997109 
2.7565712e+3, 1.4059351e+2, -1518085.8, -1786799.0, 95786.766, -0.012346914, 0.035897426, -1487436.9, 74743.625, 0.004592608, 10.001566, 9.998038 
2.7561793e+3, 1.50585e+2, -1208995.9, -1231968.3, 152286.42, -0.19564708, -0.11335729, -1067763.0, 396494.28, 0.0016782222, 10.0016, 10.00108 
2.7557883e+3, 1.6057692e+2, -1267623.8, -1331022.1, 109214.88, -0.3299918, -0.24226137, -1185600.8, 180727.94, 0.0003582281, 10.000934, 10.0001135 
2.755399e+3, 1.705702e+2, -1072784.9, -1086547.0, 90491.14, -0.17991067, -0.24159768, -988913.5, 279479.84, 0.000033741435, 10.0012665, 10.000887 
2.7550092e+3, 1.8056348e+2, -1097672.5, -1276255.5, 35948.215, -0.04908383, -0.18345152, -1090707.9, 79751.3, 0.00000040337267, 10.001273, 9.998996 
2.754617e+3, 1.905554e+2, -892256.2, -1102252.4, 6365.4863, -0.06666821, -0.15299056, -892063.44, 180477.73, 0.0, 10.002028, 9.999069 
2.7542242e+3, 2.0054743e+2, -836621.56, -1157591.6, 8353.693, -0.11113734, -0.07008332, -836404.25, 138217.92, 0.0, 10.002189, 9.998032 
2.7538347e+3, 2.1053891e+2, -939459.56, -1081160.0, 39340.14, 0.00719597, -0.023516731, -929270.3, -52561.36, 0.0, 10.00056, 9.99861 
2.753445e+3, 2.2053005e+2, -1079201.5, -1093577.3, -11265.364, 0.06601822, -0.01922953, -1073026.3, -294229.5, 0.0, 9.998846, 9.99872 
2.75305e+3, 2.3051992e+2, -821455.9, -757855.6, -37442.51, -0.16111839, -0.25462547, -740531.56, -59645.67, 0.0, 9.999376, 10.000028 
2.7526563e+3, 2.405104e+2, -708833.6, -869100.4, 60880.547, -0.36800963, -0.39596128, -688330.0, -105359.195, 0.0, 10.000227, 9.998273 
2.7522686e+3, 2.5050247e+2, -426903.25, -659692.9, 61272.184, -0.2939896, -0.27128497, -411760.88, 73289.73, 0.0, 10.0015335, 9.998322 
2.75188e+3, 2.604945e+2, -227640.23, -559697.06, -176730.14, -0.2273673, -0.14505523, -151183.64, 235947.13, 0.0, 10.002338, 9.998006 
2.7514845e+3, 2.7048546e+2, -272966.25, -428125.1, -297155.0, -0.19466338, -0.17670646, -43430.605, 245790.48, 0.0, 10.000998, 9.998829 
2.7510902e+3, 2.8047657e+2, -418639.3, -509115.8, -46734.066, -0.14846216, -0.18599527, -398834.72, -207524.08, 0.0, 9.99949, 9.99839 
2.750703e+3, 2.9046768e+2, -218442.13, -224818.45, 42852.12, -0.12794062, -0.2470618, -178659.73, -85261.305, 0.0, 9.999744, 9.999485 
2.750316e+3, 3.004592e+2, -101043.805, -243292.36, -101764.39, -0.13436326, -0.26862028, -48012.32, -48012.32, 0.0, 10.000261, 9.998539 
2.749931e+3, 3.104521e+2, 247766.55, 35822.652, -164216.66, 0.4373295, -0.16932158, 337235.56, 337235.56, 0.0, 10.00199, 9.999246 
2.7495357e+3, 3.2044452e+2, 538034.5, 406028.47, -60126.766, -0.020625424, -0.11739787, 561315.44, 561315.44, 0.0, 10.002818, 10.0014105 
2.7669567e+3, 1.3099262e+2, -1475910.0, -1799638.4, -49028.863, -0.013694711, -0.11999042, -1468647.5, 187613.27, 0.005822694, 10.002496, 9.998084 
2.7665663e+3, 1.4098603e+2, -1290030.3, -1565098.9, 13264.24, 0.0369027, 0.103114486, -1289392.1, 268941.94, 0.0029696804, 10.002623, 9.999074 
2.7661735e+3, 1.509778e+2, -1173302.3, -1152466.3, 75499.13, -0.16853777, -0.090384424, -1086669.8, 373735.88, 0.0010279784, 10.001576, 10.001646 
2.765782e+3, 1.6096942e+2, -1347239.6, -1427719.9, 86046.75, -0.29536712, -0.2693584, -1292488.6, 69989.734, 0.0002033788, 10.000588, 9.999653 
2.765392e+3, 1.7096162e+2, -1108319.9, -1227160.9, 44822.457, -0.24063382, -0.28278777, -1093310.1, 171243.89, 0.000016580547, 10.001519, 9.99983 
2.7650023e+3, 1.8095425e+2, -1024187.7, -1282330.5, -43774.367, -0.16571763, -0.21052149, -1016966.7, 149660.38, 0.00000009587778, 10.001991, 9.9986105 
2.764611e+3, 1.9094624e+2, -938001.94, -1117572.4, -66518.21, -0.09289978, -0.1798621, -916046.1, 152663.36, 0.0, 10.001711, 9.999123 
2.7642193e+3, 2.009383e+2, -1013555.94, -1277169.4, -29983.846, -0.01993416, -0.086228415, -1010188.5, -39396.64, 0.0, 10.001133, 9.997731 
2.7638286e+3, 2.1093033e+2, -821099.9, -1037152.2, -28041.47, 0.05936579, 0.021406036, -817519.7, 55354.938, 0.0, 10.001461, 9.99847 
2.7634376e+3, 2.2092181e+2, -791274.0, -966403.0, -38952.746, 0.12049405, 0.073125795, -783000.8, -8042.1587, 0.0, 10.000943, 9.998577 
2.7630433e+3, 2.309099e+2, -529785.9, -602386.2, -61594.03, -0.11263053, -0.3708666, -494591.1, 182467.98, 0.0, 10.001365, 10.00012 
2.7626497e+3, 2.4089868e+2, -718956.5, -995104.0, 42525.86, -0.32579273, -0.65639925, -712556.0, -133399.84, 0.0, 10.000781, 9.997111 
2.7622628e+3, 2.5089148e+2, -730070.9, -964956.94, 109222.56, -0.24405298, -0.3478188, -687131.75, -205894.88, 0.0, 10.000184, 9.996847 
2.7618745e+3, 2.608844e+2, -705879.0, -845223.3, -103550.45, -0.14812241, -0.0112416595, -650743.7, -267427.13, 0.0, 9.99936, 9.997486 
2.7614772e+3, 2.7087492e+2, -274369.7, -313578.78, -279965.25, -0.23033795, -0.15644012, -13323.429, 272084.78, 0.0, 10.000621, 9.9997635 
2.7610812e+3, 2.808655e+2, -332539.3, -560154.9, -16520.96, -0.25431165, -0.25290048, -331346.4, -143847.08, 0.0, 10.000565, 9.997521 
2.760696e+3, 2.9085708e+2, -225235.7, -425471.03, 121660.74, -0.07453873, -0.1319463, -167794.23, -78207.26, 0.0, 10.00057, 9.99771 
2.760311e+3, 3.0084902e+2, -204389.89, -338622.47, 28141.04, 0.0903982, 0.044630073, -198729.03, -198729.03, 0.0, 9.999848, 9.998061 
2.7599266e+3, 3.1084055e+2, 153455.4, 114746.13, -38929.438, 0.57933676, -0.08679681, 177576.1, 177576.1, 0.0, 10.000915, 10.000258 
2.7595305e+3, 3.208312e+2, 189250.45, 243026.55, -21374.8, -0.082175285, -0.29479477, 250487.42, 250487.42, 0.0, 10.000651, 10.001248 
2.776949e+3, 1.3138182e+2, -1495340.3, -1538694.6, -40339.38, -0.3294371, -0.09056597, -1471222.6, 181232.25, 0.0036891415, 10.001313, 10.000384 
2.7765614e+3, 1.413766e+2, -1339901.0, -1424931.6, 22908.406, 0.015022832, 0.0349758, -1334122.0, 220380.31, 0.001804215, 10.001647, 10.000472 
2.7761674e+3, 1.5137044e+2, -1165911.9, -1053154.6, 55134.56, -0.20212513, -0.059337873, -1030676.6, 425878.38, 0.00058557204, 10.001257, 10.002454 
2.7757746e+3, 1.6136314e+2, -1398479.1, -1534465.1, 96520.17, -0.36262256, -0.15808798, -1348407.9, 10212.207, 0.00010501939, 10.0006, 9.998907 
2.7753854e+3, 1.7135307e+2, -1201735.3, -1430798.0, 108037.33, -0.3128759, -0.26926127, -1158819.9, 101899.336, 0.0000068884756, 10.00156, 9.998414 
2.7749965e+3, 1.8134378e+2, -1033514.7, -1302161.8, -33989.5, -0.24488747, -0.27845648, -1029281.06, 133530.61, 0.00000000965895, 10.002016, 9.99845 
2.7746055e+3, 1.9133624e+2, -901512.6, -1047080.3, -50600.168, -0.07390603, -0.23282246, -885651.9, 179236.4, 0.0, 10.001726, 9.999608 
2.7742136e+3, 2.013288e+2, -968578.6, -1203660.8, -9877.883, -0.020960236, -0.12621866, -968164.3, -1199.9502, 0.0, 10.001239, 9.998161 
2.77382e+3, 2.1132076e+2, -771595.1, -1009958.06, 20977.264, -0.26407474, -0.02802828, -769763.1, 99284.2, 0.0, 10.001809, 9.998481 
2.773427e+3, 2.2131231e+2, -591783.5, -869542.3, -19788.484, -0.3962191, 0.038978502, -590380.75, 180749.5, 0.0, 10.002262, 9.998625 
2.7730384e+3, 2.313019e+2, -414965.06, -596270.44, -40649.44, -0.05143466, -0.20484613, -406268.4, 266949.44, 0.0, 10.002309, 9.999749 
2.7726492e+3, 2.4129157e+2, -507115.5, -806814.3, 16904.832, 0.17006817, -0.39378417, -506165.0, 69143.016, 0.0, 10.001839, 9.997886 
2.7722582e+3, 2.5128183e+2, -668646.3, -857895.7, 88557.54, 0.012123598, -0.3953261, -633670.56, -156260.53, 0.0, 10.00023, 9.997589 
2.7718663e+3, 2.6127282e+2, -671035.0, -756847.75, -33614.28, -0.13638946, -0.3041212, -659435.6, -279930.53, 0.0, 9.999214, 9.99818 
2.7714708e+3, 2.7126533e+2, -173967.03, -283686.94, -145348.6, -0.19363722, -0.23531413, -73469.88, 208109.78, 0.0, 10.001313, 9.999674 
2.7710775e+3, 2.8125754e+2, 49640.13, -325498.06, 63832.766, -0.16248122, -0.16381493, 60204.29, 243860.06, 0.0, 10.002878, 9.998025 
2.770692e+3, 2.9124853e+2, 28256.92, -298223.88, 178213.33, 0.08744089, -0.10772018, 106692.8, 192436.52, 0.0, 10.002129, 9.997894 
2.7703053e+3, 3.0123916e+2, -3225.0078, -236562.28, 137296.36, 0.16556996, -0.06662252, 60278.11, 60278.11, 0.0, 10.001088, 9.998175 
2.7699137e+3, 3.1122765e+2, 54071.297, 3850.7202, 57155.266, -0.015962558, -0.43856066, 91388.98, 91388.98, 0.0, 10.000414, 9.999749 
2.7695248e+3, 3.2122236e+2, 11010.228, -110416.62, 21608.803, 0.0358281, -0.10553377, 14741.045, 14741.045, 0.0, 10.000433, 9.998936 
2.786942e+3, 1.317746e+2, -1562282.6, -1391747.6, 84274.125, -0.31105193, -0.0164156, -1357129.0, 291473.6, 0.0021708824, 9.999981, 10.002065 
2.7865553e+3, 1.4176571e+2, -1632087.3, -1582816.5, 95444.81, 0.13585857, -0.34063292, -1508879.0, 41796.69, 0.001007235, 9.999583, 10.000439 
2.786162e+3, 1.5176155e+2, -1241837.4, -1232090.8, 26437.568, -0.1020864, -0.13109356, -1210081.1, 242637.1, 0.00030058212, 10.001218, 10.001316 
2.7857697e+3, 1.6175583e+2, -1173303.9, -1429895.0, 2571.6582, -0.24715298, 0.0013134052, -1173278.1, 181496.81, 0.000046417692, 10.002141, 9.998892 
2.7853805e+3, 1.7174496e+2, -1198316.1, -1387862.4, 88900.24, -0.22769749, -0.23347932, -1163146.1, 93732.98, 0.0000020738605, 10.001406, 9.99879 
2.7849907e+3, 1.8173485e+2, -1231000.3, -1399791.0, 57372.26, -0.17385283, -0.33610287, -1213345.8, -54368.46, 0.00000000000031198744, 10.000667, 9.998425 
2.7845997e+3, 1.9172765e+2, -916898.2, -1057664.9, -12085.158, -0.042108495, -0.2564478, -915868.2, 145182.53, 0.0, 10.001661, 9.999543 
2.7842078e+3, 2.017204e+2, -888820.8, -1183644.0, 18707.06, 0.0045875977, -0.11715759, -887638.56, 75485.82, 0.0, 10.001914, 9.997965 
2.7838132e+3, 2.117114e+2, -788278.25, -1014619.1, 31924.193, -0.3332717, -0.11591488, -783861.7, 81352.92, 0.0, 10.001734, 9.998468 
2.78342e+3, 2.2170249e+2, -821371.4, -1045351.1, 6783.234, -0.48524073, -0.07475975, -821166.2, -53864.164, 0.0, 10.001, 9.998011 
2.7830335e+3, 2.3169322e+2, -595475.5, -751542.5, -44456.113, 0.04976612, -0.15703239, -583700.5, 85683.36, 0.0, 10.001394, 9.999101 
2.782646e+3, 2.4168374e+2, -662055.2, -889972.25, -20597.0, 0.45597684, -0.21253724, -660208.8, -88739.164, 0.0, 10.0008745, 9.997777 
2.7822524e+3, 2.5167277e+2, -574214.7, -723893.2, 5608.207, 0.15435448, -0.40263796, -574004.9, -100425.266, 0.0, 10.000593, 9.99831 
2.7818587e+3, 2.6166284e+2, -625326.94, -756496.25, -46766.813, -0.11441361, -0.44492367, -610360.44, -234680.05, 0.0, 9.999756, 9.997871 
2.7814648e+3, 2.7165616e+2, -267123.22, -380257.75, -136671.22, -0.15376103, -0.27488455, -175775.38, 101972.766, 0.0, 10.000958, 9.999148 
2.7810735e+3, 2.8164917e+2, -208913.27, -472102.97, -7540.582, -0.076330975, -0.087935925, -208697.4, -28880.568, 0.0, 10.001298, 9.997756 
2.780688e+3, 2.916394e+2, -75010.27, -296350.44, 55773.9, 0.21332073, -0.16528203, -61750.56, 20155.844, 0.0, 10.001325, 9.998225 
2.7802986e+3, 3.0162895e+2, -158283.64, -372743.06, 19138.438, 0.13356763, -0.2409285, -156589.11, -156589.11, 0.0, 10.000435, 9.997518 
2.7798998e+3, 3.116152e+2, -151187.25, -169308.67, -52568.156, -0.69435924, -0.8010591, -106904.664, -106904.664, 0.0, 9.999449, 9.998993 
2.7795228e+3, 3.2161543e+2, -261817.97, -521396.44, 72622.945, 0.5209538, 0.23502402, -242881.48, -242881.48, 0.0, 9.999916, 9.996358 
2.7969357e+3, 1.3216855e+2, -1509191.0, -1209778.4, 19564.02, -0.24384828, 0.04840354, -1208505.5, 436227.16, 0.001167355, 9.999776, 10.003376 
2.7965486e+3, 1.4215441e+2, -1778422.3, -1832571.6, 116138.734, 0.22086895, -0.8284441, -1686244.1, -139395.23, 0.00050489604, 9.999423, 9.998773 
2.796157e+3, 1.52152e+2, -1444169.6, -1576417.4, 114142.875, 0.006074316, -0.23321916, -1378380.9, 70507.11, 0.00013439951, 10.000959, 9.999043 
2.795766e+3, 1.6214791e+2, -1184992.9, -1371310.1, 12873.63, -0.11836321, 0.19689769, -1184107.6, 166830.6, 0.000016423304, 10.0018215, 9.999435 
2.7953756e+3, 1.7213717e+2, -1097083.0, -1128564.3, 83356.99, -0.09826713, -0.18543708, -1027993.5, 225041.05, 0.0000003300107, 10.00122, 10.000647 
2.7949852e+3, 1.821274e+2, -1215091.0, -1369244.4, 79342.17, -0.11649738, -0.3794178, -1181551.3, -26426.674, 0.0, 10.000659, 9.998643 
2.7945933e+3, 1.9212025e+2, -947578.75, -1142518.8, 53998.395, -0.11220664, -0.23433188, -933620.6, 123577.88, 0.0, 10.001735, 9.998943 
2.794202e+3, 2.0211259e+2, -825799.25, -1131287.3, 23895.709, -0.093189254, -0.094993874, -823941.44, 135334.73, 0.0, 10.002269, 9.998136 
2.7938107e+3, 2.1210197e+2, -748728.25, -970303.9, 47662.895, -0.044763185, -0.26743355, -738910.56, 122467.04, 0.0, 10.001905, 9.99869 
2.793419e+3, 2.2209175e+2, -747843.7, -1058228.3, 26944.463, -0.034081586, -0.3469691, -745522.0, 17954.719, 0.0, 10.001656, 9.99761 
2.7930275e+3, 2.3208232e+2, -608022.5, -876791.5, -12942.179, -0.01395996, -0.34298158, -607400.75, 58170.973, 0.0, 10.001754, 9.998081 
2.792636e+3, 2.4207358e+2, -507915.78, -779874.5, -17439.047, 0.003178605, -0.26370785, -506802.1, 60856.97, 0.0, 10.001714, 9.998141 
2.792244e+3, 2.5206554e+2, -396489.22, -582259.06, 16734.355, -0.07766359, -0.19733909, -394993.78, 74745.45, 0.0, 10.001473, 9.998912 
2.7918515e+3, 2.6205695e+2, -431999.84, -704251.44, -39044.24, -0.16425525, -0.12978493, -426511.06, -54686.746, 0.0, 10.001169, 9.99756 
2.7914584e+3, 2.7204686e+2, -282967.3, -553634.75, -131792.64, -0.17426515, -0.16302125, -229397.58, 44525.4, 0.0, 10.001464, 9.99775 
2.791067e+3, 2.8203693e+2, -176989.28, -472354.78, -28000.826, -0.11149795, -0.17108504, -174358.23, 1660.4904, 0.0, 10.001552, 9.997617 
2.7906805e+3, 2.9202637e+2, -25083.5, -271062.0, 7253.9634, 0.04932403, -0.31201032, -24869.766, 53245.652, 0.0, 10.001617, 9.998258 
2.7902904e+3, 3.0201623e+2, -3016.017, -287998.8, -79807.71, -0.025846036, -0.37366918, 17811.506, 17811.506, 0.0, 10.001327, 9.997705 
2.789895e+3, 3.1200683e+2, -47269.965, -176852.56, -166344.34, -0.4047063, -0.45055145, 66455.83, 66455.83, 0.0, 10.000246, 9.99864 
2.7895162e+3, 3.220008e+2, 135193.23, -91191.95, 321815.84, 0.45352986, -0.07541827, 363142.84, 363142.84, 0.0, 10.001432, 9.998639 
2.8069293e+3, 1.3255887e+2, -1184245.8, -1088758.1, -94802.37, -0.24979135, -0.0966384, -1030355.94, 610547.3, 0.0005664123, 10.002025, 10.003176 
2.806543e+3, 1.4254735e+2, -1437949.8, -1713394.9, 12175.253, 0.35126862, -0.6782213, -1437412.6, 105582.72, 0.00022570654, 10.001921, 9.998384 
2.8061515e+3, 1.525426e+2, -1356855.8, -1594529.9, 96270.54, 0.077345446, -0.2790798, -1322754.1, 122303.85, 0.00005282333, 10.001781, 9.9985285 
2.8057608e+3, 1.6253717e+2, -1238042.9, -1371068.5, 33011.43, -0.057674948, 0.04480024, -1230301.4, 116820.5, 0.000004777361, 10.001369, 9.999616 
2.8053698e+3, 1.7252795e+2, -1081122.1, -1087762.9, -21894.668, -0.044434927, -0.22795218, -1062297.5, 186906.9, 0.00000002399446, 10.001157, 10.000942 
2.804979e+3, 1.8251927e+2, -1144055.3, -1320759.3, -19080.791, -0.047039837, -0.34908524, -1142018.4, 9265.763, 0.0, 10.001119, 9.99875 
2.8045878e+3, 1.9251202e+2, -856107.8, -1094924.9, 6330.9277, -0.08861859, -0.23741783, -855940.1, 197418.64, 0.0, 10.002351, 9.9989805 
2.804197e+3, 2.02504e+2, -788904.6, -1118485.6, -18038.383, -0.0518739, -0.13413185, -787920.3, 167518.4, 0.0, 10.002518, 9.998126 
2.8038064e+3, 2.1249323e+2, -861399.94, -1002615.5, -29202.092, 0.15173686, -0.35567224, -855599.5, 1939.4838, 0.0, 10.001004, 9.998917 
2.803415e+3, 2.224829e+2, -1059154.9, -1254802.3, 39501.33, 0.23500036, -0.44150198, -1051480.6, -291841.84, 0.0, 9.999828, 9.997108 
2.8030208e+3, 2.3247339e+2, -756840.5, -1012964.06, 23941.182, -0.047508843, -0.39922, -754621.8, -92880.12, 0.0, 10.001091, 9.997449 
2.8026274e+3, 2.4246494e+2, -536171.9, -813692.25, 45251.867, -0.23547739, -0.23031954, -528979.6, 34852.21, 0.0, 10.001685, 9.997909 
2.802237e+3, 2.5245863e+2, -272974.38, -486701.78, 20989.748, -0.17419024, -0.027475636, -270932.53, 194962.22, 0.0, 10.002249, 9.999158 
2.801846e+3, 2.6245072e+2, -399269.4, -807739.06, -32335.771, -0.13492194, 0.13799635, -396725.44, -28753.633, 0.0, 10.00197, 9.996465 
2.801453e+3, 2.7243772e+2, -241940.4, -661342.44, -85949.875, -0.1515298, -0.09280303, -225009.8, 45087.395, 0.0, 10.002351, 9.996573 
2.8010613e+3, 2.8242534e+2, -222654.48, -571588.4, 33792.695, -0.13301884, -0.22751492, -219411.94, -47197.297, 0.0, 10.001649, 9.996879 
2.800673e+3, 2.9241407e+2, -236433.56, -384311.28, 49191.754, -0.10452973, -0.43066797, -221564.86, -147245.95, 0.0, 10.000292, 9.998108 
2.8002828e+3, 3.024046e+2, -367442.6, -500095.03, -57728.895, -0.15678814, -0.39553666, -345838.22, -345838.22, 0.0, 9.999125, 9.9972515 
2.7998915e+3, 3.123992e+2, -168504.11, -255032.66, -121453.125, -0.012378942, -0.056373317, -82839.49, -82839.49, 0.0, 9.999649, 9.998312 
2.7995047e+3, 3.2238314e+2, -107638.02, 189575.56, 632059.44, -0.12167394, -0.79674864, 690263.1, 690263.1, 0.0, 9.998346, 10.001943 
2.8169227e+3, 1.3294853e+2, -1400770.6, -1296955.1, -94543.52, -0.39552253, -0.17789675, -1241007.0, 396076.63, 0.0002493907, 10.001098, 10.002151 
2.8165382e+3, 1.4294244e+2, -1482330.1, -1688469.9, 16288.386, 0.3697685, -0.18505181, -1481051.0, 58077.64, 0.00009135431, 10.0014925, 9.998739 
2.8161454e+3, 1.5293308e+2, -1359262.1, -1495138.6, 120231.88, 0.027700376, -0.33773327, -1289101.5, 152127.55, 0.000018191195, 10.001374, 9.999397 
2.8157538e+3, 1.6292456e+2, -1299010.3, -1442334.0, 26937.027, -0.17673974, -0.35523543, -1294114.8, 49204.227, 0.000001253609, 10.001152, 9.999232 
2.8153628e+3, 1.7291766e+2, -1150546.4, -1215989.3, 7253.9473, -0.15350148, -0.31127584, -1149752.0, 95634.04, 0.0000000065346386, 10.001111, 10.000086 
2.8149724e+3, 1.8291062e+2, -1110754.4, -1231508.1, 16920.01, -0.13132823, -0.22705576, -1108428.4, 39026.37, 0.0, 10.001089, 9.99934 
2.8145835e+3, 1.929026e+2, -789900.9, -968152.25, 80633.36, -0.06702205, -0.2703751, -758838.7, 290696.84, 0.0, 10.002417, 9.999809 
2.8141928e+3, 2.0289463e+2, -698145.7, -989462.94, -60079.848, -0.013068248, -0.23420414, -686241.56, 265372.25, 0.0, 10.002764, 9.998885 
2.8137985e+3, 2.1288615e+2, -801740.75, -921080.3, -62024.95, 0.0124474075, -0.26917407, -775343.25, 78349.516, 0.0, 10.0011425, 9.999424 
2.8134054e+3, 2.2287755e+2, -953304.6, -1156062.8, 77481.4, 0.009700361, -0.22438012, -927086.4, -171309.53, 0.0, 10.000326, 9.997548 
2.813015e+3, 2.3286827e+2, -648599.4, -944429.5, 118396.445, -0.050360385, -0.16229829, -607050.5, 50825.234, 0.0, 10.001705, 9.997648 
2.8126243e+3, 2.428594e+2, -372241.8, -752347.06, 102501.02, -0.08987396, -0.04266064, -346362.8, 213606.5, 0.0, 10.002836, 9.997774 
2.8122342e+3, 2.5285122e+2, -160428.08, -514005.63, 63859.316, -0.03255566, 0.05467973, -149248.02, 312803.4, 0.0, 10.003317, 9.998475 
2.8118432e+3, 2.6284188e+2, -130876.7, -659738.9, -19484.305, 0.00089588994, 0.11550189, -130159.836, 233982.9, 0.0, 10.003635, 9.996714 
2.81145e+3, 2.7282894e+2, -21837.686, -549356.8, -41626.813, -0.011601034, -0.099942066, -18573.094, 247693.06, 0.0, 10.003713, 9.996752 
2.811058e+3, 2.8281716e+2, -13110.787, -424347.47, 36199.34, 0.0060981126, -0.20404248, -9948.635, 158429.02, 0.0, 10.002786, 9.997373 
2.810667e+3, 2.9280752e+2, -239751.89, -391877.53, 38675.004, 0.036296554, -0.22186886, -230484.13, -160017.19, 0.0, 10.000189, 9.9981575 
2.8102747e+3, 3.0279806e+2, -356537.53, -415354.38, 56232.46, -0.08640532, -0.20739396, -322487.72, -322487.72, 0.0, 9.998792, 9.997999 
2.8098828e+3, 3.127889e+2, 27552.016, -110174.125, 56445.94, -0.178568, -0.26311842, 47729.76, 47729.76, 0.0, 10.000686, 9.998845 
2.8094962e+3, 3.227765e+2, -309090.0, 258643.6, 313770.28, 0.064273745, -0.7230043, 397898.7, 397898.7, 0.0, 9.996037, 10.0036 
2.82692e+3, 1.3333836e+2, -1510340.6, -1562917.9, 12702.133, -0.0137541, -0.39102432, -1507432.8, 125819.17, 0.00010698146, 10.00124, 10.000258 
2.8265306e+3, 1.4333321e+2, -1382852.6, -1614294.5, 19078.3, 0.18764782, -0.15595765, -1381290.5, 154011.9, 0.000035101017, 10.002057, 9.998972 
2.8261387e+3, 1.5332425e+2, -1334203.8, -1428916.4, 57225.426, -0.026057785, -0.30758634, -1307281.0, 130116.195, 0.0000055355054, 10.001335, 9.999866 
2.8257483e+3, 1.6331594e+2, -1256852.0, -1386925.9, 31719.674, -0.1110043, -0.34896338, -1249529.1, 89954.664, 0.0000002527922, 10.001304, 9.999554 
2.825358e+3, 1.7330925e+2, -910680.1, -1091306.5, 53370.03, -0.080249995, -0.29052693, -896089.4, 345461.6, 0.0, 10.002756, 10.000172 
2.8249675e+3, 1.833028e+2, -775771.5, -1005490.5, 117025.08, -0.07769941, -0.16466112, -726656.7, 416958.84, 0.0, 10.003069, 9.999966 
2.824578e+3, 1.9329555e+2, -864621.06, -935202.56, 152846.83, -0.069039255, -0.20030409, -743043.75, 302644.1, 0.0, 10.001554, 10.000485 
2.824187e+3, 2.0328788e+2, -934603.94, -1103659.1, 7642.1533, -0.03654693, -0.16134666, -934259.2, 13503.543, 0.0, 10.001226, 9.998792 
2.823792e+3, 2.1327938e+2, -477768.2, -782560.25, -76580.16, -0.062360212, -0.19599143, -459609.03, 390234.3, 0.0, 10.003517, 9.999191 
2.8233993e+3, 2.2327092e+2, -430426.88, -944496.75, 54395.88, -0.077403724, -0.10325168, -424734.06, 327192.25, 0.0, 10.004142, 9.997142 
2.8230098e+3, 2.3326154e+2, -518611.88, -887734.7, 53832.64, -0.017683318, -0.059936814, -510921.2, 143102.83, 0.0, 10.002701, 9.997521 
2.8226203e+3, 2.4325232e+2, -613273.7, -942534.06, 35367.813, 0.035700403, 0.05591264, -609517.44, -53397.805, 0.0, 10.001589, 9.997049 
2.8222308e+3, 2.5324258e+2, -466806.44, -739209.5, -828.45135, 0.10798798, 0.042199258, -466803.9, -8585.428, 0.0, 10.001605, 9.997738 
2.82184e+3, 2.6323244e+2, -441863.0, -808793.0, -58713.023, 0.14110872, 0.07289342, -432697.2, -72378.73, 0.0, 10.001624, 9.996606 
2.821447e+3, 2.7322042e+2, -198325.7, -581123.94, -62166.652, 0.109506465, -0.11953843, -188482.89, 73949.82, 0.0, 10.002378, 9.99712 
2.8210536e+3, 2.832098e+2, -154322.39, -499531.56, -49745.836, 0.094308466, -0.11872782, -147296.83, 17236.041, 0.0, 10.001974, 9.997206 
2.8206608e+3, 2.9320154e+2, -187316.55, -356886.16, -76571.25, 0.1470046, -0.030631393, -157857.66, -91247.18, 0.0, 10.000614, 9.998149 
2.8202668e+3, 3.0319175e+2, -257579.97, -341312.38, 56835.637, -0.044832103, -0.049944807, -228855.31, -228855.31, 0.0, 9.999445, 9.998176 
2.8198734e+3, 3.1317833e+2, -114019.69, -114505.19, 74383.22, -0.40911308, -0.60859543, -39878.82, -39878.82, 0.0, 9.99951, 9.999361 
2.8194886e+3, 3.2317376e+2, -191927.81, 462216.38, -245884.86, 0.42376187, -0.3969925, 544333.1, 544333.1, 0.0, 9.996403, 10.004754 
2.8369182e+3, 1.3372819e+2, -1699734.0, -1922749.1, 57270.098, 0.38364097, -0.61012197, -1685886.9, -56470.15, 0.000050519644, 10.001152, 9.997813 
2.8365216e+3, 1.4372185e+2, -1446625.6, -1651986.1, 24940.281, -0.20906569, -0.35619676, -1443640.1, 87855.83, 0.000015386411, 10.001713, 9.998848 
2.8361315e+3, 1.537164e+2, -1359329.3, -1431345.5, 71552.62, -0.1682179, -0.17732579, -1315235.1, 118323.56, 0.0000020566958, 10.001171, 9.9999075 
2.8357428e+3, 1.6371003e+2, -1212926.4, -1264654.6, 81346.67, -0.054879475, -0.059233204, -1153431.1, 182195.67, 0.00000005936716, 10.001194, 10.000427 
2.8353545e+3, 1.7370185e+2, -877151.56, -991245.44, 139613.55, 0.03346447, -0.23655099, -783379.75, 454327.16, 0.0, 10.002615, 10.000926 
2.8349638e+3, 1.8369558e+2, -706496.2, -858418.6, 77611.69, -0.018898576, -0.18038192, -673858.75, 465910.0, 0.0, 10.003037, 10.001001 
2.8345704e+3, 1.936914e+2, -816569.4, -816199.56, 131484.8, -0.23073024, 0.005687893, -684899.56, 356911.06, 0.0, 10.001456, 10.001358 
2.8341788e+3, 2.0368443e+2, -957329.75, -1195336.0, 97566.38, -0.27623418, 0.10186487, -922446.7, 21432.055, 0.0, 10.001429, 9.998063 
2.8337884e+3, 2.1367258e+2, -443353.97, -907677.3, 65805.734, -0.13246274, -0.13368085, -434207.9, 411785.34, 0.0, 10.004344, 9.99795 
2.833397e+3, 2.2366145e+2, -271323.38, -925636.25, 10998.81, -0.057817232, -0.20996743, -271138.53, 476963.16, 0.0, 10.0054655, 9.996635 
2.8330055e+3, 2.3365086e+2, -464802.3, -950271.7, -11518.369, -0.064109154, -0.20451033, -464529.2, 185678.27, 0.0, 10.003406, 9.996777 
2.8326145e+3, 2.4364087e+2, -546726.94, -908130.44, 1251.8618, -0.01164368, -0.12518604, -546722.6, 5586.0015, 0.0, 10.001981, 9.99711 
2.8322256e+3, 2.5363114e+2, -463999.0, -775366.9, -783.5089, 0.16047329, -0.10392521, -463997.03, -9587.872, 0.0, 10.001698, 9.997479 
2.831835e+3, 2.6362172e+2, -344485.13, -643409.44, -30847.791, 0.2101595, -0.038430613, -341334.97, 15169.171, 0.0, 10.001734, 9.997693 
2.8314415e+3, 2.7361202e+2, -122295.97, -452401.25, -25918.99, 0.05198114, -0.06705392, -120273.27, 138324.2, 0.0, 10.002464, 9.997976 
2.8310475e+3, 2.8360248e+2, -23982.637, -394441.06, -58506.766, -0.022639303, -0.03004743, -14962.261, 145726.7, 0.0, 10.002617, 9.99764 
2.8306535e+3, 2.9359305e+2, 18667.021, -298377.75, -96645.0, -0.0029744168, -0.017273458, 45804.547, 108583.75, 0.0, 10.002103, 9.997872 
2.8302598e+3, 3.035827e+2, 33025.234, -170686.63, 24178.52, -0.08629793, -0.09684551, 35855.65, 35855.65, 0.0, 10.0012045, 9.99853 
2.8298694e+3, 3.1357035e+2, -70254.35, -133572.94, 9627.64, -0.057835784, -0.52703315, -68822.82, -68822.82, 0.0, 9.99985, 9.999118 
2.829476e+3, 3.2356742e+2, 119360.49, 273893.4, -386673.47, 0.044638723, -0.015164828, 590944.7, 590944.7, 0.0, 9.999807, 10.001909 
2.8469127e+3, 1.3412146e+2, -1342676.1, -1911103.1, 67806.69, 0.27750945, -0.62578017, -1334699.5, 290860.94, 0.000026715637, 10.004108, 9.996564 
2.846515e+3, 1.4411317e+2, -1251886.4, -1544501.3, 124510.125, -0.3347059, -0.4761469, -1206077.6, 321584.3, 0.000008259592, 10.002935, 9.9990225 
2.8461266e+3, 1.5410845e+2, -982561.94, -1268617.9, 137292.92, -0.15242122, -0.2002221, -927331.6, 502384.28, 0.0000013335809, 10.003767, 9.9998045 
2.845738e+3, 1.6410281e+2, -927525.3, -1106567.9, 115519.75, -0.000102549755, -0.005726514, -870899.8, 460876.72, 0.000000073245815, 10.003096, 10.000576 
2.845348e+3, 1.7409495e+2, -1183920.8, -1139185.4, 98151.3, 0.0018787241, -0.15139562, -1060885.4, 172970.13, 0.0, 10.000526, 10.000906 
2.8449574e+3, 1.8408847e+2, -1196809.3, -1102615.8, 15334.935, -0.056507424, -0.11558169, -1100182.1, 35737.715, 0.0, 9.999728, 10.000903 
2.8445646e+3, 1.940838e+2, -813959.0, -840998.06, -45400.707, -0.2075706, 0.0153078, -780107.6, 257858.11, 0.0, 10.001591, 10.001111 
2.8441733e+3, 2.0407668e+2, -794673.75, -1145779.0, 7313.8506, -0.2556179, 0.10610327, -794521.5, 145513.77, 0.0, 10.002668, 9.997814 
2.8437847e+3, 2.1406478e+2, -655779.4, -1046180.0, 55600.758, -0.1368467, -0.13904408, -648015.2, 194135.52, 0.0, 10.003071, 9.997603 
2.8433943e+3, 2.2405319e+2, -616894.7, -1128816.3, -5032.4785, -0.053918075, -0.22346812, -616845.2, 127418.46, 0.0, 10.003264, 9.99632 
2.843001e+3, 2.340419e+2, -518092.88, -1027042.25, -11893.72, -0.052283775, -0.27243605, -517815.1, 128559.51, 0.0, 10.00325, 9.996352 
2.8426093e+3, 2.4403128e+2, -466519.03, -897232.75, 70460.44, -0.00076057715, -0.20742117, -455285.4, 93195.44, 0.0, 10.002707, 9.9968405 
2.84222e+3, 2.5402108e+2, -499951.9, -829596.4, 41631.082, 0.19539586, -0.21905166, -494775.56, -44189.227, 0.0, 10.001685, 9.997106 
2.841829e+3, 2.6401225e+2, -435782.03, -603616.8, 47098.027, 0.22517821, -0.091211006, -423468.7, -70792.08, 0.0, 10.00085, 9.998355 
2.841435e+3, 2.7400443e+2, -335385.94, -470838.66, 38681.39, 0.0025207866, -0.035262197, -325118.0, -70363.91, 0.0, 10.000731, 9.998649 
2.8410408e+3, 2.839957e+2, -307051.13, -527131.2, -10410.064, -0.13595006, 0.053872056, -306559.8, -149720.36, 0.0, 10.000729, 9.997616 
2.8406462e+3, 2.9398507e+2, -192498.31, -422517.84, -26530.96, -0.15848006, -0.059974223, -189477.83, -130535.695, 0.0, 10.00082, 9.997625 
2.8402528e+3, 3.0397475e+2, -107893.555, -233145.69, 91841.38, -0.13276379, -0.10776885, -59358.195, -59358.195, 0.0, 10.000359, 9.998456 
2.839865e+3, 3.1396407e+2, -213962.14, -225322.95, 88789.01, 0.31060776, -0.37805867, -130672.016, -130672.016, 0.0, 9.99911, 9.998785 
2.8394607e+3, 3.2396048e+2, -271510.38, -259219.63, -122029.74, -0.7037692, 0.19601277, -143180.63, -143180.63, 0.0, 9.998855, 9.998583 
2.8569052e+3, 1.3451627e+2, -1509033.4, -2020666.3, -67701.05, -0.1614087, -0.51936877, -1500226.5, 121468.35, 0.000013313803, 10.003165, 9.996249 
2.8565097e+3, 1.4450607e+2, -1298989.5, -1567699.9, 145645.53, -0.4103943, -0.5434963, -1235193.4, 288618.0, 0.0000038169696, 10.0026655, 9.998963 
2.8561231e+3, 1.5450051e+2, -1086756.8, -1364052.0, 198774.52, -0.14283559, -0.33599088, -983052.44, 442816.78, 0.0000005153316, 10.00328, 9.999367 
2.8557333e+3, 1.6449499e+2, -1000830.4, -1187399.5, 22765.408, -0.053888015, -0.08739021, -998092.7, 329835.22, 0.00000002542409, 10.002812, 10.000142 
2.8553388e+3, 1.7448893e+2, -1256530.0, -1246477.1, 32339.691, -0.2780676, 0.001840492, -1218775.5, 11217.425, 0.0, 10.000365, 10.000232 
2.8549477e+3, 1.8448128e+2, -1266564.0, -1267263.8, 89489.71, -0.29181245, 0.016336057, -1177423.5, -45353.18, 0.0, 9.999826, 9.999714 
2.8545606e+3, 1.9447158e+2, -888310.6, -1030646.9, 58728.805, -0.061696183, -0.21091385, -867207.56, 166956.52, 0.0, 10.001726, 9.999748 
2.854171e+3, 2.0446338e+2, -668227.06, -941732.0, 17782.701, -0.039662153, -0.21373945, -667075.7, 269167.63, 0.0, 10.002902, 9.999094 
2.8537795e+3, 2.1445574e+2, -544490.9, -831204.56, 85325.03, -0.22537112, -0.16876757, -521019.84, 317297.03, 0.0, 10.003108, 9.999062 
2.8533888e+3, 2.2444716e+2, -504894.9, -958299.25, 20320.219, -0.21697448, -0.077788815, -503986.03, 236415.55, 0.0, 10.003514, 9.997361 
2.8529975e+3, 2.3443706e+2, -346893.63, -847207.5, 57313.01, -0.036782663, -0.07707734, -340412.16, 302091.22, 0.0, 10.003939, 9.997268 
2.852606e+3, 2.4442643e+2, -319319.25, -831038.06, 71585.01, 0.05694063, -0.06508905, -309493.8, 235116.44, 0.0, 10.003663, 9.996855 
2.8522137e+3, 2.5441492e+2, -395231.28, -805708.56, 63455.563, 0.06501439, -0.16124365, -385645.53, 61080.344, 0.0, 10.002425, 9.996944 
2.8518212e+3, 2.6440564e+2, -316151.8, -462944.38, 71848.76, 0.044870522, -0.1040545, -286838.53, 61980.848, 0.0, 10.00125, 9.99915 
2.8514278e+3, 2.7439877e+2, -297243.56, -377783.66, 76457.2, -0.046584673, 0.021224327, -251099.61, -210.01796, 0.0, 10.000595, 9.999384 
2.851034e+3, 2.843908e+2, -241372.73, -360090.75, 58572.535, -0.11154069, 0.088483065, -217339.69, -64371.547, 0.0, 10.00049, 9.998919 
2.8506395e+3, 2.9438108e+2, -70881.46, -229731.81, 81808.12, -0.16468593, -0.023120632, -36285.035, 18776.121, 0.0, 10.000992, 9.998902 
2.8502455e+3, 3.0437258e+2, 86469.76, 1277.987, 201664.98, -0.1762873, -0.013073496, 249988.34, 249988.34, 0.0, 10.000975, 9.999824 
2.8498563e+3, 3.1436524e+2, 64420.523, 26086.684, 230758.9, 0.16892284, -0.02028242, 276807.16, 276807.16, 0.0, 10.000401, 9.999953 
2.8494567e+3, 3.2435825e+2, -25809.697, -54940.38, 62616.71, -0.2982569, 0.14768668, 23913.389, 23913.389, 0.0, 9.9999, 9.999605 
2.8669003e+3, 1.3491112e+2, -1381414.4, -1786435.1, -55663.91, -0.19653098, -0.25447074, -1373903.5, 243938.89, 0.000005962988, 10.003228, 9.99785 
2.8665087e+3, 1.4490114e+2, -1013416.3, -1429560.5, 69990.49, -0.14577647, -0.32885098, -1001960.1, 517984.25, 0.0000015122073, 10.0046, 9.998991 
2.8661177e+3, 1.5489307e+2, -1275245.8, -1491803.4, 91627.53, -0.19990692, -0.3515418, -1241680.0, 180341.6, 0.0000000966577, 10.002103, 9.999065 
2.8657264e+3, 1.6488598e+2, -1234861.5, -1404501.6, -54799.03, -0.19831416, -0.20951495, -1218699.5, 105394.14, 0.00000000026919006, 10.001592, 9.999282 
2.8653324e+3, 1.7487983e+2, -948666.44, -1212684.3, -97466.086, -0.31427467, -0.039484434, -916583.94, 309577.06, 0.0, 10.002908, 9.999275 
2.8649417e+3, 1.848716e+2, -843126.5, -1122693.5, 31228.41, -0.28937262, -0.015206437, -839680.7, 288563.63, 0.0, 10.003073, 9.999114 
2.8645554e+3, 1.9486047e+2, -910988.3, -1112235.8, 28825.412, -0.011795483, -0.33094618, -906940.94, 123410.3, 0.0, 10.001979, 9.999023 
2.8641665e+3, 2.0485221e+2, -807759.94, -945515.8, 7053.2124, 0.026119446, -0.32815298, -807399.75, 125031.055, 0.0, 10.001637, 9.999706 
2.8637746e+3, 2.1484664e+2, -727147.1, -860859.7, -2890.4485, -0.2111599, -0.15826128, -727084.7, 107400.06, 0.0, 10.001545, 9.999654 
2.8633836e+3, 2.2483948e+2, -736474.1, -1006234.0, -75332.15, -0.23674966, 0.010004492, -716862.9, 19693.875, 0.0, 10.001682, 9.997883 
2.8629935e+3, 2.3483014e+2, -621668.9, -919278.3, -74370.164, 0.00014898674, -0.008403645, -604119.25, 34533.89, 0.0, 10.001886, 9.997712 
2.8626016e+3, 2.4482027e+2, -533276.0, -849884.7, -36010.316, 0.08675715, 0.014515126, -529231.94, 11519.929, 0.0, 10.001977, 9.997448 
2.8622076e+3, 2.548089e+2, -491800.0, -819106.7, 19319.986, 0.014042032, -0.15473412, -490663.53, -47800.785, 0.0, 10.001726, 9.997123 
2.8618136e+3, 2.6479986e+2, -355405.4, -483784.63, 54626.18, -0.034834214, -0.078000374, -335307.88, 9645.776, 0.0, 10.001048, 9.999077 
2.8614205e+3, 2.7479315e+2, -434051.53, -473070.78, 2251.83, -0.032027084, 0.04453784, -433922.0, -186897.42, 0.0, 9.999813, 9.999099 
2.861027e+3, 2.8478563e+2, -357043.6, -299889.97, -9244.492, -0.06917179, 0.12223812, -298431.88, -149332.77, 0.0, 9.999336, 9.999832 
2.8606322e+3, 2.947765e+2, -251564.17, -223137.63, -21413.086, -0.16215983, -0.06048589, -211649.98, -160465.17, 0.0, 9.99946, 9.999649 
2.860238e+3, 3.0476987e+2, -85468.73, 33074.906, 30665.918, -0.24036552, 0.040782046, 40537.99, 40537.99, 0.0, 9.99943, 10.000726 
2.8598464e+3, 3.1476608e+2, -205263.6, -40851.063, 36559.574, -0.06556333, 0.25284025, -33088.043, -33088.043, 0.0, 9.998408, 10.000398 
2.8594556e+3, 3.247546e+2, 40732.813, 230582.97, -116245.2, 0.38345683, -0.19991386, 285736.94, 285736.94, 0.0, 9.999463, 10.001698 
2.8768978e+3, 1.3530667e+2, -1316885.8, -1470192.8, 91132.484, -0.07279015, 0.18778117, -1274455.8, 339532.3, 0.0000021473002, 10.002501, 10.000356 
2.876509e+3, 1.4529726e+2, -1142014.5, -1495200.0, -22357.92, 0.1848097, 0.047625225, -1140604.9, 375464.72, 0.00000043033984, 10.003765, 9.998928 
2.87611e+3, 1.5528558e+2, -1374421.9, -1575300.8, 21266.545, -0.44827127, -0.31827313, -1372195.1, 45981.266, 0.000000019645139, 10.001595, 9.998739 
2.875718e+3, 1.652759e+2, -1344588.1, -1576806.6, -7907.713, -0.47876468, -0.36416757, -1344319.1, -24047.516, 0.0, 10.001388, 9.998182 
2.875329e+3, 1.7526798e+2, -1080896.1, -1418835.6, -11488.247, -0.21851668, -0.24455467, -1080506.0, 141850.06, 0.0, 10.002626, 9.9979925 
2.8749388e+3, 1.852597e+2, -840495.9, -1105709.6, -6699.666, -0.18043879, -0.16958365, -840326.7, 284112.3, 0.0, 10.003, 9.99927 
2.874548e+3, 1.9525033e+2, -914847.3, -1122947.9, 27461.463, -0.25317445, -0.3064161, -911284.44, 115243.99, 0.0, 10.001948, 9.998988 
2.8741586e+3, 2.0524283e+2, -788952.5, -911915.4, 11886.227, -0.22417669, -0.2355983, -787814.06, 140787.19, 0.0, 10.001699, 9.999878 
2.8737694e+3, 2.1523672e+2, -698387.8, -851765.7, 22393.432, -0.18999597, -0.106132925, -695185.2, 135476.75, 0.0, 10.001749, 9.999615 
2.8733787e+3, 2.2522871e+2, -667403.6, -927077.44, -74615.95, -0.17304316, -0.04164037, -647490.2, 85253.72, 0.0, 10.00193, 9.998314 
2.8729868e+3, 2.352187e+2, -544593.94, -832032.4, -63877.023, -0.14129463, -0.1477809, -531038.0, 103809.945, 0.0, 10.002141, 9.99821 
2.872595e+3, 2.4521028e+2, -293623.4, -428061.8, -37236.19, -0.026900137, -0.15093772, -283998.9, 252931.47, 0.0, 10.002243, 10.000248 
2.8722033e+3, 2.5520253e+2, -199866.81, -382034.84, 57085.324, 0.111764364, -0.1973779, -183456.5, 255544.61, 0.0, 10.002364, 9.999856 
2.8718093e+3, 2.6519465e+2, -331811.94, -618482.3, 33284.98, 0.11788247, -0.08219033, -327998.0, 13082.531, 0.0, 10.001756, 9.997837 
2.871414e+3, 2.751867e+2, -423453.63, -616069.44, -36374.918, 0.014435822, 0.080373734, -416813.25, -173646.2, 0.0, 10.000435, 9.997841 
2.871019e+3, 2.8517717e+2, -339869.03, -328318.25, -38904.246, -0.08032159, 0.032278206, -294763.03, -149502.69, 0.0, 9.999564, 9.999541 
2.8706238e+3, 2.951659e+2, -259610.08, -263044.97, -77056.62, -0.21462624, -0.30997878, -184251.77, -136887.83, 0.0, 9.999475, 9.999392 
2.8702292e+3, 3.0515832e+2, -130262.22, -41681.832, -93824.62, -0.27956697, -0.28473777, 17780.953, 17780.953, 0.0, 9.999261, 10.000317 
2.8698373e+3, 3.1515452e+2, -135298.03, -46135.32, -151844.0, -0.1028216, -0.004818923, 67536.59, 67536.59, 0.0, 9.998942, 10.000137 
2.869447e+3, 3.2514355e+2, 196955.7, 70940.09, -214714.4, 0.17250858, -0.29710975, 357716.22, 357716.22, 0.0, 10.001388, 9.999718 
2.8868926e+3, 1.3569562e+2, -1263125.6, -1330604.8, 71388.03, -0.09151273, 0.008405602, -1217905.6, 392272.22, 0.0000003382392, 10.002253, 10.0014515 
2.8865042e+3, 1.4568922e+2, -1338927.0, -1574145.1, -96095.625, 0.18192612, 0.10706744, -1304660.3, 207569.4, 0.000000039050374, 10.002282, 9.999124 
2.8861052e+3, 1.5567774e+2, -1163658.5, -1476735.3, -62976.605, -0.3955415, -0.23894417, -1151465.4, 262871.97, 0.0000000006124831, 10.003005, 9.998766 
2.885713e+3, 1.6566783e+2, -1115746.3, -1430638.3, 18423.35, -0.42389777, -0.32740507, -1114672.0, 201761.27, 0.0, 10.00281, 9.998465 
2.8853244e+3, 1.75659e+2, -1179490.5, -1450074.8, 86870.336, -0.13960202, -0.32980177, -1154002.0, 64520.387, 0.0, 10.001852, 9.9981365 
2.8849337e+3, 1.8565078e+2, -1007724.75, -1158823.3, 150827.7, -0.15500338, -0.25801578, -914582.9, 206019.67, 0.0, 10.0017605, 9.999516 
2.8845417e+3, 1.956427e+2, -888745.25, -1096166.5, 161188.8, -0.32793614, -0.2791133, -800785.0, 221894.17, 0.0, 10.00207, 9.999142 
2.8841522e+3, 2.0563503e+2, -818410.2, -962162.75, 164832.67, -0.2886669, -0.19483387, -710464.3, 214290.75, 0.0, 10.001747, 9.999492 
2.8837645e+3, 2.156275e+2, -859503.5, -981072.9, 109775.26, -0.07354246, -0.16018556, -794807.56, 32024.334, 0.0, 10.000965, 9.999082 
2.8833732e+3, 2.2561926e+2, -830813.06, -866323.56, 61993.605, -0.06404653, -0.14005263, -784082.2, -55166.004, 0.0, 10.000281, 9.999519 
2.8829798e+3, 2.3561005e+2, -898781.2, -890594.7, 118324.85, -0.16971019, -0.27161586, -776292.3, -145281.66, 0.0, 9.999327, 9.999158 
2.8825885e+3, 2.4560289e+2, -511395.7, -406116.75, 134791.14, -0.077950455, -0.22731012, -314051.13, 219029.22, 0.0, 10.000214, 10.001396 
2.8821984e+3, 2.555971e+2, -265251.88, -318266.44, 61334.223, 0.17431405, -0.20266989, -224942.08, 210189.89, 0.0, 10.001562, 10.000689 
2.8818044e+3, 2.655897e+2, -340984.56, -683244.25, -18491.133, 0.1909601, -0.0501245, -339988.44, -2781.8198, 0.0, 10.002059, 9.9972105 
2.8814074e+3, 2.7558047e+2, -403838.66, -716616.2, -2777.591, 0.05669892, 0.037241798, -403813.97, -164508.31, 0.0, 10.001145, 9.996786 
2.8810114e+3, 2.8556964e+2, -217443.83, -325866.72, 72508.84, -0.07645142, -0.056159683, -181121.23, -39709.695, 0.0, 10.000708, 9.99898 
2.8806156e+3, 2.9555687e+2, -292014.22, -385374.13, 42659.75, -0.20693542, -0.49709558, -275457.53, -231928.9, 0.0, 9.999787, 9.998384 
2.8802213e+3, 3.0554783e+2, -152029.05, -161115.22, -1954.5215, -0.25876412, -0.50704604, -151626.45, -151626.45, 0.0, 9.999694, 9.999267 
2.8798294e+3, 3.1554198e+2, -250573.17, -300905.84, -68040.69, -0.060392335, -0.31800464, -203193.8, -203193.8, 0.0, 9.999113, 9.998302 
2.8794354e+3, 3.255323e+2, -334964.03, -443194.72, 102518.38, -0.32434878, -0.3399993, -273154.9, -273154.9, 0.0, 9.999145, 9.997132 
2.8968856e+3, 1.360821e+2, -1310006.9, -1310081.4, 34230.188, -0.31365064, -0.37250927, -1275813.9, 330568.94, 0.0000000028010363, 10.001824, 10.001778 
2.8964964e+3, 1.4607896e+2, -1389951.5, -1556065.5, -41664.64, -0.07326152, 0.022633012, -1380087.0, 128321.85, 0.0, 10.001798, 9.999449 
2.8961027e+3, 1.5607004e+2, -1229440.1, -1463672.8, 7023.902, -0.23021303, -0.1014842, -1229229.6, 181269.05, 0.0, 10.002379, 9.999147 
2.8957102e+3, 1.6606131e+2, -1054531.3, -1230554.5, 2993.758, -0.24268799, -0.17859936, -1054480.4, 258101.63, 0.0, 10.002497, 9.999982 
2.895318e+3, 1.7605254e+2, -1106083.6, -1264827.4, 86787.375, -0.25419804, -0.3159765, -1067846.3, 146817.0, 0.0, 10.001706, 9.999479 
2.8949267e+3, 1.8604484e+2, -960054.8, -1082523.6, 168531.16, -0.29571366, -0.281271, -841978.3, 274756.75, 0.0, 10.001832, 10.000007 
2.8945363e+3, 1.9603775e+2, -854832.1, -1044852.2, 200847.88, -0.36182922, -0.23241203, -727655.8, 291145.72, 0.0, 10.00211, 9.99949 
2.8941473e+3, 2.0602879e+2, -851649.94, -1077987.3, 146318.05, -0.22747327, -0.24634416, -779842.6, 141049.22, 0.0, 10.001907, 9.998626 
2.893759e+3, 2.1601845e+2, -838400.56, -1016402.8, 123320.18, -0.0027530415, -0.39994788, -775319.25, 47680.05, 0.0, 10.00124, 9.998721 
2.893367e+3, 2.2601168e+2, -615597.8, -470021.4, 55224.777, 0.022852914, -0.3642475, -451442.78, 273622.88, 0.0, 10.000453, 10.002171 
2.8929725e+3, 2.3600689e+2, -717661.6, -544281.06, 168883.67, -0.11043365, -0.29457018, -441137.47, 185971.63, 0.0, 9.999368, 10.001542 
2.8925806e+3, 2.4600062e+2, -662475.94, -738351.94, 262989.53, -0.1393219, -0.1473685, -434702.1, 94472.49, 0.0, 10.000227, 9.99913 
2.8921902e+3, 2.5599322e+2, -271827.6, -518216.03, 144405.9, -0.12397442, -0.039003637, -205206.42, 226048.86, 0.0, 10.002266, 9.999005 
2.891797e+3, 2.6598465e+2, -36745.406, -278014.66, -6454.2153, -0.05907221, -0.0544031, -36572.875, 296767.47, 0.0, 10.002994, 9.999559 
2.891402e+3, 2.7597484e+2, 27062.264, -257833.53, 73261.77, 0.008336233, -0.21739711, 44797.668, 280231.5, 0.0, 10.002952, 9.999081 
2.8910068e+3, 2.8596705e+2, 22082.975, -223244.34, 148920.3, 0.04335906, -0.10333992, 92353.58, 229865.1, 0.0, 10.002315, 9.99894 
2.890612e+3, 2.9595995e+2, -53385.43, -271093.84, 151398.13, 0.044784114, 0.06395581, 24229.207, 63812.83, 0.0, 10.001335, 9.998447 
2.8902173e+3, 3.0594924e+2, -39494.582, -312101.4, 160436.89, 0.017312808, -0.006283015, 34721.875, 34721.875, 0.0, 10.001294, 9.997508 
2.8898248e+3, 3.1593665e+2, 61698.24, -303298.7, 61795.9, 0.14954403, -0.25903237, 71876.766, 71876.766, 0.0, 10.001814, 9.997058 
2.8894275e+3, 3.2592973e+2, -265776.38, -271040.8, 84142.19, -0.2998307, 0.07264069, -184225.23, -184225.23, 0.0, 9.998798, 9.998648 
2.9068813e+3, 1.3647622e+2, -1121539.1, -1506218.4, 119816.914, -0.33201993, -0.41738433, -1087272.0, 515242.1, 0.00000000011876347, 10.004266, 9.99931 
2.906489e+3, 1.4647159e+2, -1285781.4, -1457953.6, 88978.39, -0.25218976, -0.06507592, -1248061.4, 256497.58, 0.0, 10.002297, 9.999907 
2.906098e+3, 1.5646312e+2, -1384686.9, -1483903.9, 133389.03, -0.08917626, -0.16935234, -1291980.1, 114663.414, 0.0, 10.001069, 9.999648 
2.9057065e+3, 1.6645524e+2, -1175695.9, -1249798.8, 127835.65, -0.036208056, -0.1880437, -1079650.5, 229068.11, 0.0, 10.001508, 10.000335 
2.9053137e+3, 1.7644732e+2, -973945.94, -1172126.0, 131934.75, -0.12497503, -0.26990196, -908034.1, 302757.53, 0.0, 10.002479, 9.99977 
2.9049218e+3, 1.8643951e+2, -923079.44, -1093510.3, 158395.05, -0.24810863, -0.24368298, -828431.94, 284433.16, 0.0, 10.002189, 9.999754 
2.9045308e+3, 1.9643192e+2, -1038135.1, -1147121.5, 129494.59, -0.30918518, -0.24257514, -952135.06, 62802.527, 0.0, 10.000923, 9.999325 
2.9041412e+3, 2.064231e+2, -1049744.5, -1114118.5, 144716.13, -0.19649497, -0.27707765, -933679.2, -16652.912, 0.0, 10.000297, 9.999125 
2.9037523e+3, 2.1641292e+2, -1065644.4, -1085331.5, 213279.39, 0.041736796, -0.4643724, -861981.5, -42849.97, 0.0, 9.999528, 9.999057 
2.9033604e+3, 2.264069e+2, -600456.75, -396895.22, 102495.38, 0.06225385, -0.3944147, -354230.06, 366958.9, 0.0, 10.000343, 10.00268 
2.9029655e+3, 2.3640344e+2, -464290.13, -417554.28, 23331.432, -0.038694512, -0.26749408, -407900.75, 215316.27, 0.0, 10.001124, 10.001546 
2.9025733e+3, 2.463972e+2, -667549.9, -840804.6, 183916.06, -0.15221809, -0.077806, -550880.9, -25596.172, 0.0, 10.0007515, 9.99808 
2.9021823e+3, 2.5638884e+2, -802971.6, -886478.6, 184468.83, -0.2632378, 0.016520096, -655589.94, -228209.11, 0.0, 9.99922, 9.99788 
2.90179e+3, 2.6637977e+2, -319961.25, -214046.27, 48530.14, -0.20023699, -0.09616121, -195172.9, 134295.56, 0.0, 10.000243, 10.001293 
2.9013965e+3, 2.7636996e+2, -125196.67, -205624.44, 38270.62, -0.007838782, -0.45922238, -109896.625, 121657.09, 0.0, 10.0014305, 10.000163 
2.9010022e+3, 2.863649e+2, -86962.6, -285915.44, 15358.494, 0.13000779, -0.11087009, -85783.95, 47823.227, 0.0, 10.001735, 9.998753 
2.9006073e+3, 2.9636237e+2, -201904.66, -415380.16, 24243.123, 0.25200385, 0.5181451, -199186.14, -163541.67, 0.0, 10.00077, 9.997682 
2.9002118e+3, 3.0634955e+2, 260043.2, -242890.14, 198722.45, 0.04394061, 0.28849253, 329085.66, 329085.66, 0.0, 10.0038395, 9.996621 
2.8998166e+3, 3.163315e+2, 645104.2, -310440.16, 216692.7, -0.24000002, -0.38775375, 691948.06, 691948.06, 0.0, 10.007263, 9.994277 
2.8994197e+3, 3.2632422e+2, 395836.72, 21649.93, -107706.44, -0.3485783, -0.0009794942, 424624.34, 424624.34, 0.0, 10.003721, 9.998059 
2.9168776e+3, 1.3687381e+2, -1600987.1, -2064312.8, -76458.375, -0.37255996, -0.23939028, -1588696.0, 9916.818, 0.0000000000007792345, 10.002456, 9.996344 
2.9164818e+3, 1.4686581e+2, -1306144.1, -1410421.3, 28939.918, -0.4513801, -0.13399245, -1298651.0, 202040.98, 0.0, 10.001952, 10.000381 
2.9160917e+3, 1.568565e+2, -1441495.6, -1499131.6, 103960.88, -0.10410312, -0.36843234, -1362432.5, 40346.457, 0.0, 10.00064, 9.999752 
2.9157022e+3, 1.668494e+2, -1237343.6, -1322043.0, 150093.03, 0.097723596, -0.2969352, -1123740.1, 181107.66, 0.0, 10.001283, 9.999933 
2.9153112e+3, 1.7684315e+2, -1046352.44, -1267726.4, 160361.02, 0.07507417, -0.1676659, -962187.5, 244722.23, 0.0, 10.002231, 9.999238 
2.914918e+3, 1.8683442e+2, -978976.6, -1195520.3, 103912.625, -0.108897105, -0.17959653, -937179.75, 171816.98, 0.0, 10.002111, 9.999092 
2.914524e+3, 1.9682464e+2, -1060948.6, -1173369.6, 97925.61, -0.35761335, -0.32669118, -1004247.5, 6846.4526, 0.0, 10.000791, 9.999223 
2.914133e+3, 2.0681842e+2, -865000.4, -737972.44, 121232.78, -0.30410784, -0.25225395, -664623.6, 248531.06, 0.0, 10.000264, 10.001751 
2.9137433e+3, 2.1681333e+2, -896337.75, -800159.06, 236197.36, -0.15216395, -0.17011523, -607205.3, 207998.75, 0.0, 9.999744, 10.000939 
2.913352e+3, 2.268061e+2, -763190.2, -836972.3, 162644.92, -0.08526634, -0.11262601, -633305.0, 83972.62, 0.0, 10.000745, 9.999486 
2.9129598e+3, 2.36798e+2, -435626.34, -651312.25, 42235.76, -0.104835875, -0.11794701, -427650.63, 191710.13, 0.0, 10.002301, 9.999402 
2.9125682e+3, 2.4679032e+2, -420195.66, -462939.4, 72404.4, -0.067826286, -0.12785304, -366074.78, 155363.3, 0.0, 10.001255, 10.000452 
2.9121765e+3, 2.5678253e+2, -674616.0, -574884.5, 147210.11, -0.033972707, -0.19777125, -469323.72, -45807.37, 0.0, 9.998905, 10.000197 
2.9117838e+3, 2.6677492e+2, -443825.34, -305350.9, 147177.89, -0.02758506, -0.24707378, -211937.81, 113648.42, 0.0, 9.999423, 10.001108 
2.91139e+3, 2.767673e+2, -127422.305, -212814.22, 92158.41, -0.05278336, -0.3551827, -68549.98, 159102.56, 0.0, 10.001346, 10.000179 
2.9109952e+3, 2.867596e+2, -96482.52, -400012.3, -3957.9634, 0.0061252806, -0.2234738, -96430.914, 33301.74, 0.0, 10.002083, 9.997819 
2.9106006e+3, 2.9675147e+2, -35905.04, -256577.39, 39603.406, 0.16908553, -0.058427542, -29012.797, 2810.1064, 0.0, 10.001423, 9.998476 
2.9268715e+3, 1.372669e+2, -1730937.0, -1677082.8, 35816.586, -0.28915855, -0.16488953, -1659200.3, -64436.824, 0.0, 9.9995575, 10.000405 
2.926477e+3, 1.4725806e+2, -1122176.9, -1380978.6, -87030.94, -0.4347646, -0.28526998, -1095632.4, 401209.16, 0.0, 10.003406, 9.999903 
2.9260856e+3, 1.5724987e+2, -1369301.5, -1511344.3, -49412.973, -0.0492373, -0.36346534, -1353803.1, 45116.68, 0.0, 10.00129, 9.999369 
2.925696e+3, 1.6724245e+2, -1255325.9, -1385418.0, 63706.676, 0.097178295, -0.2954485, -1229325.0, 71669.63, 0.0, 10.001365, 9.999473 
2.9253057e+3, 1.7723538e+2, -1070510.6, -1296226.4, 39109.434, 0.06461905, -0.21547756, -1063926.3, 139141.77, 0.0, 10.002131, 9.9991 
2.9249123e+3, 1.8722738e+2, -976267.75, -1115648.8, -3398.807, -0.10193509, -0.2081955, -976184.94, 128963.53, 0.0, 10.001849, 9.999741 
2.9245183e+3, 1.9721843e+2, -1050475.6, -1109961.1, 72325.76, -0.2503205, -0.33456323, -1002015.7, 5221.892, 0.0, 10.000596, 9.99977 
2.9241264e+3, 2.0721348e+2, -771234.56, -566188.1, 89882.84, -0.23450148, -0.2248857, -532366.4, 376916.8, 0.0, 10.000411, 10.002844 
2.9237354e+3, 2.1721028e+2, -853664.8, -731246.2, 84064.02, -0.1436678, -0.081218995, -688468.25, 122841.77, 0.0, 9.999881, 10.00134 
2.9233447e+3, 2.2720225e+2, -927566.7, -1090785.6, 146494.73, -0.11288572, -0.042058434, -841483.56, -128089.2, 0.0, 10.000402, 9.997904 
2.922954e+3, 2.3719193e+2, -761749.56, -939831.5, 142643.95, -0.07896779, -0.12446587, -682637.06, -67131.65, 0.0, 10.000692, 9.998188 
2.9225624e+3, 2.4718413e+2, -423846.2, -296547.0, 72218.04, 0.018612055, -0.17807484, -263932.78, 253648.5, 0.0, 10.000563, 10.00192 
2.92217e+3, 2.5717717e+2, -564171.8, -405720.38, 68167.805, 0.17191298, -0.32462865, -380430.25, 39213.41, 0.0, 9.999245, 10.00119 
2.921777e+3, 2.6717082e+2, -416501.88, -271322.38, 165792.98, 0.10712565, -0.30648884, -162924.33, 158775.05, 0.0, 9.999687, 10.001125 
2.9213834e+3, 2.771647e+2, -354792.2, -361861.47, 135542.06, -0.081071295, -0.28963912, -222738.7, 1013.84235, 0.0, 10.000062, 9.999742 
2.920988e+3, 2.871548e+2, -267030.9, -548732.0, 37573.56, -0.14981683, -0.3236791, -262105.42, -136251.7, 0.0, 10.001309, 9.997116 
2.9205933e+3, 2.971418e+2, -151159.77, -158917.69, 91284.3, 0.083874114, -0.6509482, -63672.05, -35682.754, 0.0, 10.000076, 9.999793 
2.936865e+3, 1.3765788e+2, -1270191.8, -699244.0, 451968.7, -0.2648243, -0.1446792, -450142.34, 1140792.8, 0.0, 9.999558, 10.007096 
2.9364732e+3, 1.4764898e+2, -1329506.4, -1567916.1, -170245.6, -0.37682244, -0.47600067, -1240881.1, 252122.06, 0.0, 10.002362, 9.999122 
2.9360792e+3, 1.5764326e+2, -1467144.8, -1649826.3, -77786.07, -0.10082298, -0.22386692, -1438511.4, -43446.93, 0.0, 10.001015, 9.998554 
2.9356882e+3, 1.6763447e+2, -1291099.5, -1452155.3, 105268.164, -0.08955097, -0.23918942, -1239090.1, 58066.47, 0.0, 10.001339, 9.999021 
2.9352972e+3, 1.7762466e+2, -1086173.1, -1278764.0, 64109.258, -0.3098337, -0.39496246, -1066784.5, 132474.4, 0.0, 10.0019045, 9.999333 
2.934905e+3, 1.8761885e+2, -851296.56, -835219.44, -46407.605, -0.2769594, -0.30533537, -796159.3, 305156.22, 0.0, 10.001739, 10.001728 
2.934513e+3, 1.9761397e+2, -951322.0, -894186.25, 55175.918, -0.14663841, -0.20900139, -860621.2, 142739.55, 0.0, 10.000536, 10.001283 
2.9341215e+3, 2.0760775e+2, -827527.7, -694569.94, 75033.984, -0.033295922, -0.23158805, -660801.44, 244614.98, 0.0, 10.000479, 10.0019245 
2.93373e+3, 2.1760114e+2, -799538.4, -746971.8, 71823.375, 0.0039513325, -0.32938427, -696773.7, 110701.56, 0.0, 10.000369, 10.001014 
2.9333392e+3, 2.2759344e+2, -743292.1, -827308.2, 143206.17, 0.00031926067, -0.3419567, -636059.8, 73494.734, 0.0, 10.000794, 9.99958 
2.932948e+3, 2.3758522e+2, -591203.6, -696632.6, 165781.9, -0.062993586, -0.36506194, -469957.03, 141685.69, 0.0, 10.00104, 9.999742 
2.932555e+3, 2.4757972e+2, -435718.34, -401386.4, 57748.266, -0.018197536, -0.20218436, -358306.78, 155394.0, 0.0, 10.000803, 10.0011425 
2.9321617e+3, 2.575748e+2, -406250.72, -350883.16, 33233.082, 0.055408817, -0.057476144, -335313.88, 80436.87, 0.0, 10.00029, 10.001108 
2.931769e+3, 2.6756722e+2, -291269.2, -148197.31, 138982.34, 0.041549824, -0.20230767, -63421.12, 254395.81, 0.0, 10.000174, 10.001775 
2.931376e+3, 2.775589e+2, -210407.14, -199298.36, 107295.86, -0.06688531, -0.46219632, -97413.23, 122474.58, 0.0, 10.000479, 10.000711 
2.9309806e+3, 2.8755212e+2, -219454.67, -469285.34, 46154.863, -0.21484603, -0.25680023, -211200.52, -89241.64, 0.0, 10.00118, 9.997836 
2.9305863e+3, 2.9754347e+2, 114086.13, 42542.176, -143728.75, 0.07357696, -0.20231816, 226427.58, 250480.8, 0.0, 10.001273, 10.000701 
2.9468605e+3, 1.3805136e+2, -1041274.25, -694215.8, 374395.8, -0.066965826, -0.20568776, -455089.5, 1131982.9, 0.0, 10.001441, 10.006283 
2.946467e+3, 1.4804122e+2, -1710988.8, -1759133.9, -29807.404, -0.28853053, -0.603216, -1696747.3, -207590.36, 0.0, 9.99973, 9.999107 
2.9460737e+3, 1.5803587e+2, -1050674.0, -1446635.8, 45170.87, -0.11871495, -0.30368212, -1045586.4, 345631.53, 0.0, 10.003838, 9.99861 
2.945682e+3, 1.6802798e+2, -1033285.25, -1331248.1, 183974.77, -0.1770397, -0.2144997, -945534.4, 347768.72, 0.0, 10.00316, 9.998973 
2.94529e+3, 1.7801887e+2, -1240982.8, -1323570.5, 159735.75, -0.40838945, -0.28703398, -1117289.6, 78109.65, 0.0, 10.000724, 9.999578 
2.944898e+3, 1.8801329e+2, -999209.6, -809854.9, 33094.402, -0.32334083, -0.23463807, -804237.44, 293213.6, 0.0, 10.000296, 10.002586 
2.9445067e+3, 1.980088e+2, -974558.8, -862527.1, 54978.82, -0.037979502, -0.18227884, -840054.5, 159434.33, 0.0, 10.000215, 10.001641 
2.9441154e+3, 2.0800142e+2, -764651.8, -762312.1, 90977.99, 0.021355843, -0.2917979, -672496.44, 229058.8, 0.0, 10.001333, 10.00104 
2.9437235e+3, 2.1799292e+2, -646202.2, -760231.25, 73229.586, 0.02456916, -0.486524, -610409.25, 193223.83, 0.0, 10.00181, 10.000244 
2.9433322e+3, 2.2798611e+2, -654549.5, -624566.56, 110336.3, -0.018602427, -0.47240287, -528207.94, 177494.95, 0.0, 10.000831, 10.000876 
2.9429403e+3, 2.379797e+2, -905749.3, -787378.94, 99280.69, -0.066812985, -0.45763314, -730980.6, -123208.766, 0.0, 9.998724, 10.000182 
2.9425475e+3, 2.4797508e+2, -634799.4, -561003.1, 30797.092, -0.04368107, -0.18841068, -549839.5, -40015.668, 0.0, 9.99986, 10.00043 
2.9421544e+3, 2.5797117e+2, -379502.94, -393459.6, 19127.29, 0.03263821, 0.10526531, -366120.75, 45747.793, 0.0, 10.000858, 10.000512 
2.9417616e+3, 2.679627e+2, -203384.89, -70006.21, 109424.23, 0.011105581, -0.13600309, -8550.593, 305392.34, 0.0, 10.000645, 10.002092 
2.941369e+3, 2.779528e+2, -412771.8, -279788.7, 74955.805, -0.050641824, -0.601524, -246082.94, -30055.543, 0.0, 9.99912, 10.000794 
2.9409736e+3, 2.8794885e+2, -276592.9, -352310.34, 69410.35, -0.2555343, -0.19621548, -235387.84, -117317.21, 0.0, 10.000317, 9.998994 
2.940581e+3, 2.9794315e+2, 44356.43, 13795.844, -291576.7, 0.17070523, 0.06548156, 321052.94, 341187.75, 0.0, 10.001065, 10.000511 
2.9568568e+3, 1.3844644e+2, -1444973.1, -1302714.6, -158654.61, 0.12583445, -0.20268953, -1199974.3, 383217.13, 0.0, 10.000474, 10.00258 
2.9564592e+3, 1.4843458e+2, -1670902.4, -1708383.5, 124949.03, -0.28894746, -0.66874456, -1563296.4, -77993.875, 0.0, 9.999907, 9.999354 
2.956069e+3, 1.5842812e+2, -1129627.8, -1473057.8, 121003.23, -0.25755042, -0.50092894, -1091276.5, 296099.38, 0.0, 10.003248, 9.998721 
2.955677e+3, 1.684228e+2, -1069667.3, -1316494.5, 77919.64, -0.24658173, -0.18109533, -1047127.44, 242308.36, 0.0, 10.002764, 9.999263 
2.9552835e+3, 1.784175e+2, -1257191.8, -1291699.1, 90058.55, -0.43024018, 0.10206015, -1182749.0, 8745.054, 0.0, 10.000428, 9.999944 
2.9548907e+3, 1.8841015e+2, -1018785.1, -841215.06, 21586.68, -0.34329557, -0.03765119, -838628.5, 254931.69, 0.0, 10.000228, 10.00241 
2.954499e+3, 1.9840232e+2, -988386.0, -915526.44, 75071.29, -0.16493094, -0.2878752, -868512.6, 127115.12, 0.0, 10.000261, 10.001276 
2.9541072e+3, 2.0839463e+2, -749226.6, -833240.4, 127289.664, -0.23051599, -0.37130782, -657191.56, 240507.4, 0.0, 10.00166, 10.000449 
2.9537147e+3, 2.1838696e+2, -509426.9, -698402.56, 63066.895, -0.40700522, -0.42427713, -490312.88, 309459.22, 0.0, 10.002681, 10.000279 
2.9533222e+3, 2.2838154e+2, -580536.7, -539986.2, 7097.3477, -0.38305545, -0.3046838, -538779.9, 163050.14, 0.0, 10.001104, 10.001342 
2.9529294e+3, 2.3837641e+2, -820948.8, -692589.56, 34408.016, -0.32175016, -0.19838794, -683947.94, -80060.83, 0.0, 9.998981, 10.000726 
2.95254e+3, 2.4836974e+2, -595761.8, -578411.9, 82140.08, -0.07871042, -0.14071795, -504489.94, 1466.2288, 0.0, 10.000179, 10.000213 
2.9521504e+3, 2.5836286e+2, -141669.33, -267513.3, 33169.65, 0.17568621, -0.10939468, -133461.84, 274564.28, 0.0, 10.00231, 10.00073 
2.9517558e+3, 2.6835582e+2, -70966.84, -19243.252, 2701.692, 0.06105467, -0.22387673, -19102.518, 290987.03, 0.0, 10.001494, 10.002087 
2.9513597e+3, 2.783485e+2, -229120.5, -104950.31, 2726.4014, -0.18901134, -0.4172195, -104890.48, 107262.266, 0.0, 9.999866, 10.001683 
2.9509678e+3, 2.8834236e+2, -46062.094, -13478.916, 97517.53, -0.12016217, -0.40836155, 69098.52, 183309.39, 0.0, 10.000761, 10.001178 
2.950575e+3, 2.9833528e+2, 512735.06, 315886.75, -88575.0, 0.067485906, -0.44403297, 546722.56, 562999.56, 0.0, 10.003683, 10.001387 
2.966851e+3, 1.3884047e+2, -1503102.6, -1561369.6, -218209.61, 0.25886512, -0.28365746, -1312090.3, 267240.3, 0.0, 10.001078, 10.000504 
2.9664543e+3, 1.4883094e+2, -1316788.4, -1553558.0, 195103.38, -0.17065021, -0.43011338, -1206962.1, 274462.8, 0.0, 10.002434, 9.999204 
2.9660636e+3, 1.5882386e+2, -1283315.4, -1508603.6, 130525.836, -0.3276282, -0.30683333, -1223548.1, 159954.42, 0.0, 10.0019865, 9.999101 
2.9656717e+3, 1.6881773e+2, -1106653.0, -1226336.3, 69797.125, -0.2725046, -0.15675128, -1074556.3, 211008.0, 0.0, 10.001962, 10.000302 
2.965278e+3, 1.7881194e+2, -1043850.06, -1177450.3, 137758.81, -0.30212277, -0.012145319, -957549.75, 230071.69, 0.0, 10.001814, 10.000082 
2.9648846e+3, 1.8880364e+2, -896755.25, -949004.0, 14915.078, -0.26836774, -0.14145961, -892797.4, 196901.13, 0.0, 10.001843, 10.000881 
2.9644927e+3, 1.9879447e+2, -925676.9, -1009189.9, -14276.536, -0.10650822, -0.38590908, -923303.75, 68478.88, 0.0, 10.001276, 10.000141 
2.9641005e+3, 2.0878746e+2, -923195.56, -890555.75, 80106.484, -0.2574165, -0.38612258, -825123.7, 68725.57, 0.0, 10.000459, 10.000594 
2.9637074e+3, 2.1878088e+2, -1065924.9, -978575.6, 27608.307, -0.48674247, -0.34967625, -970581.25, -174667.69, 0.0, 9.999008, 10.000093 
2.9633135e+3, 2.2877574e+2, -924903.9, -725745.75, -88027.98, -0.49944788, -0.18879586, -692415.4, 5554.8003, 0.0, 9.998856, 10.001138 
2.96292e+3, 2.3877099e+2, -966592.25, -792064.56, -60169.152, -0.37747353, -0.041564517, -773331.7, -173307.52, 0.0, 9.998164, 10.000446 
2.9625323e+3, 2.4876282e+2, -655641.8, -578592.7, 97885.914, -0.08515877, -0.15753, -511923.2, -9818.911, 0.0, 9.999687, 10.00042 
2.9621452e+3, 2.587539e+2, -417179.25, -441749.16, 47886.563, 0.2537285, -0.3525584, -380026.94, 24163.1, 0.0, 10.000678, 10.000289 
2.961749e+3, 2.6874855e+2, -254641.31, -132342.2, -83341.46, 0.050875515, -0.27648422, -90123.164, 216117.88, 0.0, 10.000428, 10.001774 
2.961351e+3, 2.7874368e+2, -400090.72, -189557.72, -66020.99, -0.29350734, -0.21637125, -170567.2, 37718.72, 0.0, 9.998842, 10.001556 
2.9609624e+3, 2.887357e+2, -112866.57, 136349.8, 41682.586, 0.04067727, -0.51551396, 143136.6, 253492.11, 0.0, 9.999653, 10.002673 
2.9605672e+3, 2.987266e+2, 112444.414, 171960.66, 39670.418, -0.30815098, -0.9325016, 191793.75, 204224.81, 0.0, 10.0009, 10.001697 
2.9768446e+3, 1.3923576e+2, -1618528.4, -1768354.5, -107230.36, 0.2183574, -0.21382293, -1562635.0, 12827.6455, 0.0, 10.001061, 9.999047 
2.9764506e+3, 1.4922895e+2, -1380904.1, -1636729.1, 180695.47, -0.035083782, -0.020099964, -1287429.0, 190105.34, 0.0, 10.002258, 9.998698 
2.9760563e+3, 1.5922186e+2, -1313625.9, -1474465.4, 110156.22, -0.505626, 0.13804598, -1257657.5, 121951.266, 0.0, 10.001592, 9.999518 
2.9756653e+3, 1.6921258e+2, -1026583.06, -989051.25, 66520.37, -0.34389266, -0.17340767, -938700.44, 342989.78, 0.0, 10.001671, 10.002067 
2.9752737e+3, 1.7920285e+2, -1086970.4, -1235012.4, 114542.06, -0.22119877, -0.54481083, -1024613.25, 159162.1, 0.0, 10.001658, 9.999768 
2.9748806e+3, 1.8919407e+2, -1080062.4, -1380601.8, -15346.04, -0.1405698, -0.50376934, -1079280.8, 6583.292, 0.0, 10.001999, 9.997871 
2.9744875e+3, 1.9918557e+2, -966218.4, -1154169.9, -65390.402, -0.051268224, -0.41827124, -945706.8, 42244.63, 0.0, 10.0014715, 9.999075 
2.9740953e+3, 2.0917961e+2, -864566.94, -749492.94, 1497.3506, -0.07767764, -0.35517693, -749473.5, 140535.89, 0.0, 10.000351, 10.001633 
2.9737023e+3, 2.1917415e+2, -1036749.94, -926493.44, -34564.137, -0.19429548, -0.29197535, -916554.0, -124491.445, 0.0, 9.9989395, 10.000523 
2.9733074e+3, 2.2916782e+2, -1001255.3, -910372.7, -113066.67, -0.22015956, -0.18062803, -833957.6, -139825.0, 0.0, 9.998836, 9.999947 
2.972913e+3, 2.3916125e+2, -826894.7, -728908.2, -65482.9, -0.2344851, -0.10670108, -696119.1, -99914.02, 0.0, 9.999034, 10.000496 
2.9725242e+3, 2.4915302e+2, -496852.94, -379364.2, 117956.93, -0.15284282, -0.31394464, -306333.22, 191948.48, 0.0, 10.00013, 10.001623 
2.9721358e+3, 2.5914472e+2, -272033.3, -297039.25, 17882.365, -0.046511374, -0.5465708, -262716.5, 137641.5, 0.0, 10.001198, 10.001069 
2.9717404e+3, 2.6914078e+2, -267150.38, -229823.31, -154397.38, -0.109494545, -0.2938336, -92965.55, 209437.45, 0.0, 10.000616, 10.00109 
2.9713434e+3, 2.7913746e+2, -274313.63, -179692.7, -119159.48, -0.26253965, 0.01035443, -98795.29, 105646.93, 0.0, 9.999751, 10.001253 
2.9709557e+3, 2.8913245e+2, -149690.47, 31470.738, -28140.293, 0.17643276, 0.065233715, 35741.188, 142225.69, 0.0, 9.999649, 10.002036 
2.9705617e+3, 2.9912162e+2, 104185.9, 248597.81, 51753.977, -0.15722503, -0.4534354, 265229.75, 273808.6, 0.0, 10.00036, 10.002546 
2.9868385e+3, 1.3962865e+2, -1167023.5, -1521965.6, -54484.34, 0.04642135, -0.27404642, -1158848.4, 412760.13, 0.0, 10.003928, 9.99939 
2.986447e+3, 1.4962085e+2, -1172242.5, -1542583.3, 96893.82, 0.032480065, -0.18007037, -1148423.8, 325267.16, 0.0, 10.003638, 9.998715 
2.9860497e+3, 1.5961389e+2, -1310677.8, -1454562.9, 58271.297, -0.57991, -0.029915562, -1290039.1, 85724.81, 0.0, 10.001487, 9.999749 
2.9856583e+3, 1.6960593e+2, -1153523.3, -1020505.9, -27938.904, -0.36040074, -0.23133233, -1014875.9, 262957.03, 0.0, 10.000685, 10.002359 
2.9852682e+3, 1.795968e+2, -1317375.8, -1362885.5, -12866.402, -0.09077633, -0.56125623, -1313990.0, -134078.31, 0.0, 10.000138, 9.999653 
2.9848742e+3, 1.8958806e+2, -1200603.8, -1440802.3, 43299.523, -0.15131563, -0.5134284, -1193036.8, -111036.336, 0.0, 10.001178, 9.997874 
2.9844803e+3, 1.9958001e+2, -926730.56, -1134173.1, 148096.64, -0.1977841, -0.3819342, -849646.1, 134438.81, 0.0, 10.001739, 9.999094 
2.984088e+3, 2.0957312e+2, -777829.44, -764456.06, 112732.99, -0.107880354, -0.37197858, -658211.6, 227941.94, 0.0, 10.001129, 10.001184 
2.9836962e+3, 2.1956737e+2, -974926.7, -936604.2, 18145.248, 0.038109273, -0.3044321, -929376.0, -141165.34, 0.0, 9.999574, 10.000159 
2.9833016e+3, 2.2956094e+2, -791810.6, -821358.9, 25274.225, 0.0021725134, -0.17713463, -777309.1, -87028.305, 0.0, 10.000411, 9.999778 
2.9829067e+3, 2.3955339e+2, -611632.1, -655376.4, 145105.14, -0.07933102, -0.15500614, -486759.94, 105602.07, 0.0, 10.000722, 10.000177 
2.9825163e+3, 2.4954568e+2, -409444.78, -257326.88, 265410.4, -0.21991266, -0.33767813, -57292.293, 437139.66, 0.0, 10.000516, 10.002239 
2.982127e+3, 2.5953835e+2, -551415.6, -507513.2, 85483.77, -0.2590823, -0.48512396, -441207.22, -44709.473, 0.0, 9.999722, 10.000325 
2.981733e+3, 2.6953372e+2, -247887.92, -309100.13, -125607.68, -0.15644546, -0.22353937, -149211.31, 149344.55, 0.0, 10.001214, 10.00023 
2.9813376e+3, 2.7953023e+2, -129487.04, -227643.58, -90755.25, -0.114675716, 0.13600038, -75389.766, 125214.375, 0.0, 10.001391, 10.000118 
2.9809484e+3, 2.895284e+2, -113089.78, -4797.7417, 7501.76, 0.20269786, 0.57323325, -4280.539, 98337.14, 0.0, 10.000289, 10.001432 
2.9805568e+3, 2.995149e+2, -216569.45, 139629.9, 233366.61, 0.053636838, -0.18000555, 255093.63, 259837.7, 0.0, 9.998213, 10.002766 
2.9968324e+3, 1.40018e+2, -1374933.0, -1461423.0, 77308.164, -0.24691212, -0.5608554, -1329596.5, 238186.45, 0.0, 10.001922, 10.00077 
2.9964426e+3, 1.5000822e+2, -1323453.4, -1546515.4, -7329.276, -0.0033062932, -0.7466899, -1323212.8, 146671.95, 0.0, 10.002363, 9.9993 
2.9960427e+3, 1.600015e+2, -1456868.0, -1546530.5, 10397.313, -0.7012801, -0.60803485, -1455678.1, -83721.44, 0.0, 10.000594, 9.99955 
2.995652e+3, 1.6999723e+2, -1313622.3, -1203894.1, -55086.35, -0.32390842, -0.3662153, -1181011.4, 92987.08, 0.0, 10.000057, 10.001401 
2.9952615e+3, 1.7999296e+2, -1289639.1, -1189090.0, -4026.8896, -0.06919599, -0.1668177, -1188929.0, -12891.009, 0.0, 9.999682, 10.001043 
2.994865e+3, 1.8998532e+2, -965866.4, -938784.94, 105770.36, -0.49635383, -0.29752046, -845692.06, 232417.89, 0.0, 10.001165, 10.001303 
2.994469e+3, 1.9997713e+2, -935928.06, -1061191.6, 150879.03, -0.79640347, -0.4308327, -835197.56, 144990.88, 0.0, 10.001331, 9.999781 
2.994079e+3, 2.0996918e+2, -930877.7, -1039930.1, 82891.74, -0.40120214, -0.4036229, -886186.25, -3917.1787, 0.0, 10.000953, 9.999372 
2.9936877e+3, 2.19961e+2, -860288.0, -910886.75, 15365.385, -0.08752365, -0.41024157, -855987.44, -71635.58, 0.0, 10.000434, 9.999924 
2.9932943e+3, 2.2995466e+2, -591222.0, -586738.7, 71162.39, -0.08009715, -0.34969732, -517782.66, 168633.11, 0.0, 10.001116, 10.00109 
2.9929015e+3, 2.3994961e+2, -351686.0, -445887.6, 190667.64, -0.09127002, -0.19449383, -202387.64, 386079.16, 0.0, 10.002082, 10.000972 
2.9925102e+3, 2.499453e+2, -347870.16, -351335.44, 247550.53, -0.22189431, 0.032267902, -102046.19, 388461.03, 0.0, 10.001427, 10.001193 
2.9921195e+3, 2.5993973e+2, -507862.53, -581938.25, 105314.46, -0.33356017, 0.18026522, -433262.84, -40701.816, 0.0, 10.0003195, 9.999585 
2.9917297e+3, 2.699296e+2, -220954.02, -435694.78, -30751.838, 0.088697664, 0.029012423, -216637.0, 78034.34, 0.0, 10.001951, 9.999071 
2.9913378e+3, 2.7992034e+2, 212272.69, -55335.26, -85401.16, 0.32028222, -0.07463473, 237203.9, 433976.8, 0.0, 10.003587, 10.000319 
2.990938e+3, 2.899168e+2, 88492.1, 155426.69, -63727.68, -0.17730048, 0.14773095, 193940.48, 292742.97, 0.0, 10.001283, 10.002194 
2.9905447e+3, 2.9990906e+2, -590465.2, -561977.9, 180699.39, -0.2369447, 0.07691458, -394961.63, -394082.13, 0.0, 9.997627, 9.99842 
3.0068237e+3, 1.4040934e+2, -2083336.9, -1668613.4, 111148.39, -0.3357812, -0.5785227, -1640703.3, -76762.4, 0.0, 9.996211, 10.002187 
3.006437e+3, 1.5040754e+2, -1504997.0, -1345106.3, 69750.03, 0.14326441, -0.21910246, -1318955.8, 147009.11, 0.0, 9.999823, 10.00188 
3.006039e+3, 1.6040204e+2, -1395015.1, -1377621.3, 134916.08, -0.4000649, -0.17494856, -1251122.1, 116901.84, 0.0, 10.000302, 10.000824 
3.0056447e+3, 1.703941e+2, -1347404.4, -1219151.3, 142497.53, -0.2745658, -0.34670624, -1127016.0, 143085.66, 0.0, 9.999709, 10.001417 
3.0052552e+3, 1.8038651e+2, -1401422.4, -1434754.6, 306776.0, 0.06364851, -0.4409078, -1110860.1, 61316.137, 0.0, 9.999582, 9.999431 
3.0048653e+3, 1.9038111e+2, -932485.94, -1173571.6, 57274.01, 0.10897903, -0.16966817, -919571.3, 154663.4, 0.0, 10.002319, 9.999128 
3.0044726e+3, 2.003717e+2, -530675.25, -1094072.3, -261861.1, -0.014181017, -0.23086831, -427763.2, 548567.94, 0.0, 10.004964, 9.997806 
3.0040747e+3, 2.1036477e+2, -746561.2, -919006.9, -267667.88, -0.2230136, -0.13436928, -551571.5, 326831.5, 0.0, 10.002063, 9.999588 
3.003677e+3, 2.2035745e+2, -1072975.3, -1139401.1, -164262.34, -0.42884567, -0.04937083, -938601.75, -158124.03, 0.0, 9.999473, 9.998783 
3.0032834e+3, 2.3034811e+2, -717224.5, -727010.44, -159832.06, -0.444, -0.2565326, -562210.56, 120354.7, 0.0, 10.000585, 10.000281 
3.0028924e+3, 2.4034084e+2, -725327.0, -757518.25, -191402.33, -0.35393, -0.32534435, -549344.75, 35287.703, 0.0, 10.00008, 9.999738 
3.002505e+3, 2.5033197e+2, -575296.4, -629503.4, -164649.61, -0.110603265, -0.4911187, -435534.38, 51184.24, 0.0, 10.000658, 9.9995165 
3.0021146e+3, 2.6032418e+2, -518440.47, -612983.5, -244131.11, -0.10258687, -0.51347053, -317046.34, 71748.97, 0.0, 10.000405, 9.999252 
3.001722e+3, 2.7031925e+2, -654428.3, -474769.63, -39559.555, 0.020343224, -0.31240898, -466444.66, -175596.39, 0.0, 9.9983635, 10.00038 
3.0013278e+3, 2.803123e+2, -652668.0, -495374.9, 147368.8, -0.05262964, -0.28588432, -406980.03, -214059.25, 0.0, 9.997822, 9.999989 
3.0009276e+3, 2.9029998e+2, 314718.94, 187625.45, 13093.784, -0.6055287, -0.8764667, 316053.9, 411088.22, 0.0, 10.00333, 10.001278 
3.0005407e+3, 3.002995e+2, 490634.16, -563901.9, 89150.52, 0.12740226, -0.0673425, 498117.8, 498117.8, 0.0, 10.007541, 9.993476 
