coord_x,coord_y,stress_xx,stress_yy,tau_xy,velocity_x,velocity_y,stress_1,eps,damage,lx,ly
5.002879e+0, 1.2342856e+2, -1145665.8, -2051968.8, -58340.074, -0.039532896, 0.45543876, -1141925.8, 588502.44, 0.0024706877, 10.006501, 9.994551 
5.0029945e+0, 1.3342491e+2, -1014655.75, -1815086.9, 4690.807, -0.012656683, 0.50902176, -1014628.25, 617842.6, 0.0014833831, 10.006218, 9.995634 
5.0029266e+0, 1.4341943e+2, -875902.4, -1501180.9, 32987.19, 0.008899574, 0.32439914, -874166.94, 660356.7, 0.00067821774, 10.005652, 9.997383 
5.002513e+0, 1.5341511e+2, -911524.56, -1441142.8, 10907.398, 0.019141639, 0.105490215, -911300.06, 525253.56, 0.00020495885, 10.004619, 9.99762 
5.0020796e+0, 1.6341251e+2, -954846.2, -1453739.4, 14629.8545, 0.015402021, 0.10062168, -954417.5, 384156.94, 0.00003053311, 10.00383, 9.997243 
5.0016683e+0, 1.7341232e+2, -917090.2, -1401028.9, 11347.184, -0.0086474735, 0.34586373, -916824.3, 323761.4, 0.0000010193884, 10.003488, 9.997096 
5.001172e+0, 1.8341114e+2, -823852.94, -1181869.6, 7915.425, -0.030410495, 0.47323725, -823678.0, 318924.47, 0.0, 10.002929, 9.998198 
5.000498e+0, 1.9340819e+2, -861649.7, -1136357.3, 17453.6, -0.048128933, 0.32448077, -860545.2, 184083.14, 0.0, 10.001939, 9.998315 
5.000222e+0, 2.0340621e+2, -833533.9, -1015628.06, 32440.21, -0.03981159, 0.27778044, -827927.25, 118719.4, 0.0, 10.001218, 9.998816 
5.0006545e+0, 2.1340597e+2, -764617.2, -927590.0, -1794.0181, 0.014276719, 0.3413165, -764597.44, 84054.57, 0.0, 10.001001, 9.998851 
5.0007224e+0, 2.2340558e+2, -695805.7, -754248.56, -28944.059, 0.050263643, 0.38752884, -683897.44, 66758.6, 0.0, 10.000418, 9.999649 
5.000121e+0, 2.3340495e+2, -773423.0, -733781.06, -12975.772, 0.052227683, 0.325845, -729911.5, -77253.31, 0.0, 9.999178, 9.999716 
4.999555e+0, 2.4340446e+2, -760753.06, -612253.06, 14552.707, 0.03912356, 0.28446725, -610840.4, -56182.04, 0.0, 9.998311, 10.000298 
4.9990797e+0, 2.5340396e+2, -687604.2, -528168.0, -9710.161, -0.0002736677, 0.17903635, -527578.8, -70920.88, 0.0, 9.998148, 10.00028 
4.9987072e+0, 2.6340288e+2, -707864.25, -648127.06, -14185.041, -0.031720184, 0.108824916, -644929.8, -286262.47, 0.000000019594776, 9.998033, 9.9988365 
4.9985132e+0, 2.7340153e+2, -641084.44, -600975.94, -3426.6226, -0.048252832, 0.09203545, -600685.3, -339997.7, 0.00000061394036, 9.997972, 9.998516 
4.9984565e+0, 2.8340217e+2, -460048.9, -176942.95, -19008.514, -0.021216614, 0.19829412, -175672.38, -12989.71, 0.000004739669, 9.997314, 10.001067 
4.998575e+0, 2.934046e+2, -598472.9, -155922.69, -23566.52, 0.079938486, 0.27471092, -154671.27, -90020.914, 0.00003407196, 9.995526, 10.001402 
4.9982673e+0, 3.0340162e+2, -805092.94, -515525.56, 39379.74, 0.07568676, -0.043373305, -510265.66, -510265.66, 0.00018243087, 9.994999, 9.9988575 
4.9972257e+0, 3.1340125e+2, -286963.4, 119579.29, 36755.613, -0.12365732, 0.031770974, 122875.65, 122875.65, 0.0005320596, 9.996875, 10.002319 
1.5008608e+1, 1.2342438e+2, -1041537.8, -1814522.9, -81387.91, -0.121725515, 0.1805133, -1033061.4, 697406.9, 0.0023865493, 10.006422, 9.996224 
1.5008979e+1, 1.3342398e+2, -889490.9, -1545211.6, -3606.3047, -0.03871486, 0.3867824, -889471.0, 743003.2, 0.0014352042, 10.0061865, 9.997508 
1.5008791e+1, 1.4342062e+2, -886168.44, -1510641.5, -4327.411, 0.02828822, 0.30879992, -886138.44, 648367.1, 0.00065422704, 10.005605, 9.997348 
1.5007526e+1, 1.5341671e+2, -945931.06, -1500981.9, -23432.57, 0.056314383, 0.17891747, -944943.56, 491594.03, 0.00019365616, 10.004575, 9.997234 
1.5006258e+1, 1.6341347e+2, -967454.44, -1468959.3, -4668.0576, 0.048001837, 0.13578337, -967410.94, 371156.06, 0.000026637821, 10.003785, 9.997166 
1.5005015e+1, 1.7341112e+2, -923870.6, -1405144.1, 2581.5327, -0.02575673, 0.17799743, -923856.8, 316738.1, 0.00000066228677, 10.0034485, 9.997092 
1.5003501e+1, 1.8340926e+2, -807586.56, -1131507.4, -27665.285, -0.09213985, 0.22178493, -805240.7, 337374.7, 0.0, 10.002866, 9.998574 
1.5001489e+1, 1.934083e+2, -837439.7, -1073360.9, -15436.92, -0.14495093, 0.23388363, -836433.9, 208188.19, 0.0, 10.001889, 9.998774 
1.5000653e+1, 2.0340705e+2, -887304.9, -1112190.4, 17570.094, -0.120441735, 0.25747597, -885940.44, 60694.074, 0.0, 10.001162, 9.998181 
1.5001954e+1, 2.1340525e+2, -835311.7, -1058329.5, -5198.299, 0.04234282, 0.26278713, -835190.6, 13466.884, 0.0, 10.00094, 9.997985 
1.5002157e+1, 2.2340403e+2, -675136.25, -695073.44, -73063.195, 0.15005095, 0.25694007, -611364.75, 139305.97, 0.0, 10.000357, 10.000087 
1.5000355e+1, 2.3340404e+2, -734091.8, -636844.44, -56521.836, 0.15636705, 0.20268917, -610909.56, 41755.02, 0.0, 9.999121, 10.000411 
1.4998668e+1, 2.4340424e+2, -798891.1, -680396.7, -845.98016, 0.11780165, 0.20656233, -680390.6, -125732.03, 0.0, 9.998265, 9.999857 
1.4997245e+1, 2.5340453e+2, -736289.75, -616832.1, -11931.778, -0.00029498024, 0.25009874, -615652.0, -158996.56, 0.0, 9.9980955, 9.999702 
1.4996119e+1, 2.6340404e+2, -693983.25, -609034.2, -19979.912, -0.0957167, 0.2569347, -604569.6, -245907.38, 0.0000000045160005, 9.9979925, 9.999128 
1.4995553e+1, 2.7340275e+2, -620095.75, -546244.8, -2454.47, -0.14431226, 0.2189471, -546163.4, -285482.5, 0.00000044568839, 9.997925, 9.9989195 
1.4995344e+1, 2.8340358e+2, -457093.3, -156209.31, -78411.75, -0.0651155, 0.31162798, -137001.1, 25672.762, 0.000003862279, 9.99726, 10.001238 
1.4995717e+1, 2.934066e+2, -593294.9, -131104.16, -86982.914, 0.23868766, 0.44483343, -115276.266, -50641.266, 0.000030142082, 9.995471, 10.001603 
1.4994797e+1, 3.034042e+2, -819989.3, -533447.56, 86416.29, 0.2269105, 0.17275338, -509403.4, -509403.4, 0.0001696507, 9.994958, 9.998757 
1.499164e+1, 3.134041e+2, -338693.94, 40829.64, 122080.24, -0.3735219, 0.30960327, 76707.22, 76707.22, 0.00050278765, 9.99677, 10.00183 
2.5014794e+1, 1.23423815e+2, -1103481.0, -1755065.3, 44077.836, -0.10275333, 0.09530674, -1100512.8, 629959.7, 0.0022877362, 10.00563, 9.997003 
2.5014877e+1, 1.3342397e+2, -1004445.4, -1508282.1, 38044.043, -0.006091941, 0.27079478, -1001588.94, 630880.6, 0.0013754693, 10.005007, 9.998328 
2.5014186e+1, 1.4342156e+2, -1039257.75, -1603006.9, 855.23376, 0.05792752, 0.24743159, -1039256.5, 495235.34, 0.0006224078, 10.004637, 9.997172 
2.5012052e+1, 1.5341869e+2, -944030.8, -1542620.9, -18225.674, 0.04319502, 0.25252923, -943476.4, 493043.38, 0.00017896573, 10.004772, 9.996848 
2.501e+1, 1.6341572e+2, -873239.5, -1410226.8, 6276.6494, 0.015240905, 0.25358206, -873166.1, 465383.2, 0.00002231755, 10.004387, 9.99727 
2.5008175e+1, 1.7341226e+2, -971391.94, -1405808.6, 23092.238, -0.032073516, 0.16393422, -970167.9, 270416.44, 0.00000035252413, 10.003036, 9.997279 
2.5006187e+1, 1.8340982e+2, -918953.1, -1186336.3, 8359.474, -0.07014954, 0.14088832, -918692.0, 223915.92, 0.0, 10.002101, 9.998565 
2.5003934e+1, 1.934094e+2, -834012.94, -1075436.8, -17006.71, -0.08999464, 0.20555498, -832820.8, 211788.81, 0.0, 10.001928, 9.998735 
2.5002402e+1, 2.0340838e+2, -844456.1, -1098997.0, 21610.684, -0.076922126, 0.25819987, -842634.4, 103985.305, 0.0, 10.001483, 9.998117 
2.5002155e+1, 2.134062e+2, -909536.9, -1102459.9, 54553.28, -0.006069461, 0.22942823, -895179.25, -46533.438, 0.0, 10.000463, 9.997913 
2.5001347e+1, 2.2340475e+2, -774261.06, -764386.06, 11784.709, 0.064686954, 0.21305874, -756546.3, -5884.9507, 0.0, 9.999758, 9.9999 
2.4999505e+1, 2.3340486e+2, -678068.94, -636524.5, -38862.12, 0.1361598, 0.18748592, -613231.44, 39424.19, 0.0, 9.999613, 10.000175 
2.4997638e+1, 2.4340503e+2, -700322.8, -676818.8, -7537.8906, 0.14603215, 0.21966341, -674609.06, -119957.6, 0.0, 9.999137, 9.999452 
2.4995722e+1, 2.5340506e+2, -772065.56, -682918.06, -8974.458, 0.040441886, 0.2769136, -682023.56, -225370.66, 0.0, 9.998068, 9.999252 
2.4994096e+1, 2.6340467e+2, -763197.25, -554318.2, 22828.357, -0.05335308, 0.28739968, -551852.4, -193194.06, 0.00000000030772893, 9.997144, 9.9999075 
2.4993043e+1, 2.7340415e+2, -757392.2, -498798.84, 83274.78, -0.11549281, 0.22239083, -474302.4, -213637.56, 0.00000033210142, 9.996503, 9.999924 
2.4992274e+1, 2.834051e+2, -579953.9, -287197.84, 28975.127, -0.06862305, 0.2982971, -284357.63, -121702.5, 0.0000031221457, 9.996715, 10.000606 
2.4991955e+1, 2.9340735e+2, -234198.11, -60197.61, -60996.953, 0.1724337, 0.43727857, -40944.992, 23684.385, 0.000025684236, 9.998376, 10.000691 
2.4990663e+1, 3.03405e+2, -370266.84, -258292.55, 52968.23, 0.17783509, 0.20088217, -237207.05, -237207.05, 0.0001534223, 9.997797, 9.999279 
2.4987765e+1, 3.1340584e+2, -852208.2, -182851.31, 140905.73, -0.25272715, 0.36127734, -154398.8, -154398.8, 0.00046499635, 9.993146, 10.002039 
3.5021332e+1, 1.2342684e+2, -1116328.6, -1772287.6, 5205.806, -0.03306182, 0.18222387, -1116287.4, 614153.56, 0.0021840075, 10.00559, 9.996903 
3.502058e+1, 1.3342491e+2, -1012694.7, -1523536.6, 17073.555, 0.052996166, 0.1666541, -1012124.7, 620331.8, 0.0013093051, 10.005005, 9.998221 
3.501903e+1, 1.4342222e+2, -1060623.4, -1640089.3, -2496.3801, 0.067022614, 0.13063046, -1060612.6, 473870.06, 0.0005857444, 10.004606, 9.996933 
3.501598e+1, 1.5342106e+2, -968138.8, -1581432.4, -8778.174, -0.052905947, 0.33591312, -968013.25, 468486.75, 0.00016238126, 10.004733, 9.996597 
3.5013214e+1, 1.6341922e+2, -853292.0, -1361873.5, -39951.12, -0.11368678, 0.45029318, -850172.75, 488348.63, 0.000017960578, 10.004354, 9.99762 
3.5011035e+1, 1.7341565e+2, -940575.4, -1339398.6, -25482.758, -0.059522036, 0.30327857, -938953.75, 301600.9, 0.00000014192928, 10.003027, 9.99774 
3.5009164e+1, 1.8341276e+2, -945507.5, -1234226.5, -7678.542, 0.0073887557, 0.22265032, -945303.44, 197277.17, 0.0, 10.00207, 9.998251 
3.500776e+1, 1.9341142e+2, -872452.75, -1145973.0, -19214.623, 0.08868776, 0.24374227, -871109.56, 173481.8, 0.0, 10.001887, 9.998272 
3.500537e+1, 2.0341012e+2, -810775.25, -1013619.56, -16473.625, 0.06358657, 0.27058592, -809446.06, 137156.69, 0.0, 10.001422, 9.998733 
3.500116e+1, 2.1340877e+2, -858706.44, -983879.6, 19468.758, -0.16013803, 0.24400103, -855748.25, -7131.0845, 0.0, 10.00041, 9.998752 
3.4998196e+1, 2.234077e+2, -833501.4, -872010.56, -1429.7899, -0.23502749, 0.24639148, -833448.3, -82820.03, 0.0, 9.999697, 9.99919 
3.4997487e+1, 2.3340744e+2, -755058.4, -783759.7, -39816.832, -0.035419174, 0.2858171, -727085.0, -74454.02, 0.0, 9.999562, 9.999188 
3.4996384e+1, 2.4340689e+2, -728920.4, -728146.1, -46221.34, 0.09735075, 0.31740388, -682310.3, -127673.53, 0.0, 9.999103, 9.999118 
3.4994447e+1, 2.5340557e+2, -794281.4, -718425.3, -47671.94, 0.095862135, 0.2655918, -695434.2, -238783.83, 0.0, 9.998021, 9.999032 
3.4992576e+1, 2.6340482e+2, -672882.1, -359395.5, -7499.254, 0.07145122, 0.19386588, -359216.2, -560.45123, 0.00000000006499392, 9.997114, 10.00126 
3.499086e+1, 2.7340564e+2, -645166.6, -255752.33, 63007.75, 0.0062239645, 0.10334157, -245811.36, 14828.684, 0.00000028362408, 9.996461, 10.001613 
3.4989142e+1, 2.834067e+2, -679712.8, -484845.44, 75101.91, -0.062044613, 0.15045929, -459260.34, -296633.34, 0.0000026203563, 9.996681, 9.999264 
3.498719e+1, 2.9340672e+2, -372647.72, -339976.72, 5965.2515, -0.15178543, 0.25735673, -338921.63, -274288.22, 0.000020827198, 9.998344, 9.998785 
3.498576e+1, 3.034039e+2, -286833.13, -81687.88, -88994.97, -0.100034766, 0.027715085, -48461.957, -48461.957, 0.0001336939, 9.997785, 10.000499 
3.4985474e+1, 3.1340656e+2, -788424.1, -42146.824, -28858.576, 0.18403643, 0.20308548, -41032.523, -41032.523, 0.000419702, 9.993109, 10.003024 
4.502708e+1, 1.2343035e+2, -1186080.0, -1786023.1, 1931.7476, 0.020468976, 0.31219435, -1186073.9, 544336.44, 0.0020834794, 10.005022, 9.997088 
4.5025945e+1, 1.3342744e+2, -1038483.06, -1523130.9, 22242.795, 0.10608287, 0.18806373, -1037464.4, 594968.3, 0.0012430036, 10.00477, 9.998343 
4.502396e+1, 1.4342448e+2, -1066455.6, -1612585.5, 45056.234, 0.11304889, 0.10834323, -1062763.4, 471696.38, 0.0005491514, 10.0044365, 9.9972105 
4.502014e+1, 1.5342341e+2, -1054952.5, -1592729.0, 71920.016, -0.067972384, 0.29343605, -1045500.4, 390975.38, 0.00014635138, 10.003994, 9.996887 
4.5016804e+1, 1.6342184e+2, -958986.75, -1408147.0, 43886.83, -0.148058, 0.41713017, -954738.75, 383755.63, 0.000013952347, 10.003608, 9.997664 
4.5014474e+1, 1.7341891e+2, -891388.1, -1316010.6, 12827.857, -0.03254604, 0.33511427, -891000.94, 349521.06, 0.000000037538413, 10.003363, 9.997743 
4.5012322e+1, 1.8341613e+2, -804725.2, -1178871.5, 40205.105, 0.068233825, 0.26878756, -800453.56, 342093.66, 0.0, 10.003092, 9.998143 
4.5010337e+1, 1.9341394e+2, -762291.56, -1106845.5, 50590.207, 0.120864175, 0.2202155, -755017.06, 289548.25, 0.0, 10.002708, 9.998147 
4.500722e+1, 2.0341225e+2, -703523.5, -955769.4, 35603.535, 0.07514478, 0.21137929, -698594.5, 247985.48, 0.0, 10.0021305, 9.998789 
4.500214e+1, 2.1341129e+2, -744411.5, -919103.4, 5423.021, -0.1364954, 0.21756904, -744243.3, 104346.4, 0.0, 10.001152, 9.998839 
4.499836e+1, 2.2341034e+2, -779647.06, -905860.0, -12266.1455, -0.2159224, 0.24971162, -778466.06, -27865.938, 0.0, 10.00033, 9.99865 
4.4996965e+1, 2.334096e+2, -763411.75, -859831.2, -27397.682, -0.053871363, 0.3048612, -756170.5, -103560.49, 0.0, 9.999821, 9.99854 
4.49952e+1, 2.4340862e+2, -699994.94, -713205.8, -15803.655, 0.062274843, 0.3306629, -689471.8, -134850.6, 0.0, 9.999302, 9.9991255 
4.499269e+1, 2.5340697e+2, -672055.9, -646897.7, 568.9228, 0.08233015, 0.23605192, -646884.8, -190247.78, 0.0, 9.998807, 9.999148 
4.4990256e+1, 2.634062e+2, -500721.3, -249516.75, 28596.477, 0.07779395, 0.14751138, -246302.52, 112338.59, 0.00000000016705606, 9.99818, 10.001502 
4.4988117e+1, 2.7340764e+2, -497095.1, -155369.23, -11272.709, 0.044811085, 0.089385174, -154997.78, 105620.14, 0.00000025695456, 9.997352, 10.001877 
4.4985867e+1, 2.8340882e+2, -745642.94, -511267.8, 14706.562, -0.030736249, 0.13086206, -510348.6, -347745.28, 0.0000021581377, 9.996212, 9.999308 
4.4983187e+1, 2.9340824e+2, -917377.1, -601332.8, 85358.484, -0.1961704, 0.17877199, -579752.4, -515134.34, 0.000016077325, 9.994606, 9.998795 
4.4981185e+1, 3.0340615e+2, -728217.44, -148852.58, 31995.012, -0.14936884, -0.033474926, -147091.03, -147091.03, 0.00011232623, 9.9941225, 10.001806 
4.4980562e+1, 3.1341067e+2, -397167.5, 226516.25, 52065.97, 0.2715081, 0.18335102, 230832.9, 230832.9, 0.00037058155, 9.995441, 10.003753 
5.5031604e+1, 1.2343451e+2, -1147986.6, -1725179.8, -22203.787, -0.059692837, 0.50070965, -1147133.6, 583245.06, 0.0019831837, 10.005091, 9.997476 
5.5030787e+1, 1.3343167e+2, -1008656.1, -1469931.9, 15626.546, 0.098612174, 0.34360886, -1008127.4, 624269.9, 0.0011754384, 10.004805, 9.998693 
5.502879e+1, 1.4342843e+2, -1011464.06, -1503448.4, 26524.545, 0.13713104, 0.18595298, -1010038.1, 524384.2, 0.0005127106, 10.004454, 9.9979515 
5.502432e+1, 1.5342575e+2, -993953.9, -1470669.1, 59559.895, -0.06485656, 0.12718558, -986625.25, 449821.6, 0.00013151119, 10.004015, 9.997714 
5.502058e+1, 1.6342363e+2, -979543.44, -1449421.0, 28147.953, -0.14384384, 0.15875217, -977863.25, 360604.56, 0.000010659703, 10.003603, 9.997384 
5.501835e+1, 1.7342205e+2, -928075.3, -1387703.3, 6216.949, 0.007545822, 0.26136482, -927991.25, 312495.13, 0.000000007551507, 10.003346, 9.997256 
5.501551e+1, 1.8341993e+2, -801114.1, -1166015.0, 22654.248, 0.06728509, 0.28362638, -799713.0, 342794.5, 0.0, 10.003068, 9.998243 
5.501147e+1, 1.9341695e+2, -748242.1, -1075364.1, 38926.29, -0.049086265, 0.13446996, -743673.8, 300857.97, 0.0, 10.002701, 9.998366 
5.5007833e+1, 2.0341471e+2, -742798.8, -1031097.75, -1884.3932, -0.08806901, 0.079425, -742786.5, 203764.94, 0.0, 10.002103, 9.998285 
5.5004954e+1, 2.1341377e+2, -794631.6, -1016652.94, -29216.496, 0.01888392, 0.15077764, -790851.3, 57712.14, 0.0, 10.001123, 9.998183 
5.500171e+1, 2.2341268e+2, -807363.2, -958031.94, -38036.31, 0.074019626, 0.2195307, -798305.44, -47728.453, 0.0, 10.000305, 9.998303 
5.49978e+1, 2.3341136e+2, -788919.06, -905652.3, -44357.99, 0.037075385, 0.24577688, -773976.1, -121383.75, 0.0, 9.999789, 9.99824 
5.4993916e+1, 2.4341023e+2, -681163.94, -666263.44, -37370.26, -0.0068489797, 0.2597492, -635608.0, -81003.336, 0.0, 9.999271, 9.99946 
5.4990214e+1, 2.5340927e+2, -646404.44, -582591.25, -15056.715, -0.056833066, 0.1853909, -579217.06, -122603.99, 0.0, 9.998763, 9.999608 
5.4986995e+1, 2.6340887e+2, -564344.7, -380434.7, -4418.33, -0.07697257, 0.14680982, -380328.6, -21714.07, 0.00000000012003064, 9.998172, 10.000609 
5.49847e+1, 2.7341005e+2, -581716.1, -325020.84, -40777.39, -0.042247843, 0.17898634, -318698.84, -58100.277, 0.00000017731924, 9.997323, 10.000727 
5.498235e+1, 2.8341135e+2, -648924.44, -306041.38, -46354.676, -0.01364125, 0.23873405, -299885.16, -137300.86, 0.0000014062957, 9.996196, 10.000724 
5.4979837e+1, 2.9341176e+2, -788126.06, -321007.06, 29073.18, -0.0024718007, 0.1989688, -319204.53, -254620.83, 0.00001153016, 9.994555, 10.000741 
5.49768e+1, 3.0341175e+2, -630268.5, 60586.434, 65306.965, -0.009670336, 0.012170822, 66705.74, 66705.74, 0.000091940805, 9.994097, 10.003258 
5.497263e+1, 3.1341812e+2, -362398.34, 300633.13, 114641.08, -0.088491924, 0.28865224, 319895.47, 319895.47, 0.00032222702, 9.995431, 10.004266 
6.5037477e+1, 1.23438284e+2, -900017.5, -1652771.6, 136655.73, -0.071290724, 0.4034281, -875976.7, 854360.7, 0.0018795015, 10.00701, 9.997047 
6.5035903e+1, 1.3343604e+2, -895873.2, -1475960.0, 95708.0, 0.08198596, 0.36001384, -880490.4, 751864.3, 0.0011035843, 10.005837, 9.998154 
6.50335e+1, 1.4343315e+2, -964872.25, -1464409.0, 62624.195, 0.15405677, 0.2612547, -957141.06, 577236.75, 0.00047309493, 10.004707, 9.9980955 
6.502906e+1, 1.5342966e+2, -998471.8, -1441143.3, 48997.457, 0.019516516, 0.094706774, -993113.4, 443293.56, 0.00011673527, 10.003849, 9.997995 
6.502506e+1, 1.6342695e+2, -1012009.9, -1487018.9, 27063.5, -0.04618185, 0.06089559, -1010472.9, 327958.8, 0.000008465429, 10.00347, 9.9971895 
6.502198e+1, 1.734253e+2, -869424.7, -1393137.6, 18347.158, 0.012683568, 0.1829446, -868782.75, 371669.63, 0.000000004638606, 10.003889, 9.99696 
6.50182e+1, 1.8342339e+2, -740146.94, -1136808.4, 8957.363, 0.012121128, 0.24292612, -739944.75, 402528.4, 0.0, 10.003492, 9.998235 
6.5013105e+1, 1.9342105e+2, -903636.25, -1146114.8, -2337.1995, -0.0983167, 0.1548817, -903613.75, 140878.97, 0.0, 10.001612, 9.998405 
6.5008897e+1, 2.0341903e+2, -973934.9, -1159409.3, -5604.5356, -0.11321659, 0.12780085, -973765.7, -27254.63, 0.0, 10.000589, 9.998134 
6.5006256e+1, 2.134177e+2, -808777.44, -1043776.06, -332.84998, 0.039690632, 0.17750299, -808776.94, 39749.914, 0.0, 10.001113, 9.998001 
6.5002817e+1, 2.2341627e+2, -695774.3, -880732.9, 10397.421, 0.12388884, 0.21606785, -695191.7, 55350.836, 0.0, 10.000967, 9.998519 
6.499789e+1, 2.3341478e+2, -798560.75, -878192.9, 34311.563, 0.0804956, 0.198234, -785816.4, -133259.44, 0.0, 9.999579, 9.998536 
6.499306e+1, 2.4341367e+2, -787463.94, -703644.4, 79416.484, 0.022956602, 0.19232985, -655757.6, -101190.27, 0.0, 9.9984665, 9.9996 
6.498852e+1, 2.534132e+2, -764105.56, -626163.75, 73838.57, -0.055313777, 0.15779026, -594094.44, -137523.31, 0.0, 9.9978895, 9.999736 
6.498473e+1, 2.6341298e+2, -702348.56, -527610.56, 87076.16, -0.08853487, 0.15958574, -491628.03, -133055.53, 0.00000000000043891748, 9.997575, 9.999885 
6.498226e+1, 2.7341354e+2, -576031.4, -422642.94, 65047.848, -0.039169826, 0.21424377, -398772.63, -138205.88, 0.00000007111923, 9.997794, 9.999827 
6.4979273e+1, 2.834144e+2, -464530.28, -179683.89, -2299.5198, 0.008295018, 0.26895237, -179665.33, -17107.309, 0.0000006300397, 9.9972925, 10.001066 
6.497535e+1, 2.9341516e+2, -615805.7, -168426.97, -40550.94, 0.05356548, 0.20545872, -164781.1, -100230.4, 0.000007787418, 9.995436, 10.001366 
6.497136e+1, 3.0341598e+2, -566018.56, 81281.586, -13490.362, 0.01692287, 0.06853313, 81562.62, 81562.62, 0.0000752456, 9.994582, 10.00316 
6.496691e+1, 3.1342155e+2, -420466.0, 173477.89, -80735.39, -0.20091233, 0.29141206, 184256.72, 184256.72, 0.00028007472, 9.9954605, 10.003375 
7.504434e+1, 1.2344165e+2, -974325.44, -1816611.0, 82066.016, -0.11062885, 0.027394077, -966404.06, 763882.9, 0.0017720304, 10.0070505, 9.995901 
7.50411e+1, 1.3344052e+2, -992466.2, -1684572.6, 52014.746, 0.0043751653, 0.23860012, -988578.9, 643726.1, 0.0010282539, 10.005872, 9.996705 
7.5037897e+1, 1.4343862e+2, -990246.75, -1521928.3, 24985.637, 0.10981747, 0.33892938, -989075.2, 545250.9, 0.00043098995, 10.004729, 9.99769 
7.5034195e+1, 1.5343513e+2, -1013970.8, -1475677.4, 21358.459, 0.13549773, 0.19517559, -1012984.94, 423371.03, 0.000101858735, 10.0038595, 9.997754 
7.503006e+1, 1.6343187e+2, -1020006.06, -1503106.4, 34091.77, 0.093374036, 0.12650245, -1017612.1, 320773.7, 0.0000071379577, 10.003467, 9.997082 
7.5025225e+1, 1.7342871e+2, -873631.25, -1403486.8, 38664.12, -0.06537563, 0.1036712, -870824.75, 369594.97, 0.00000003688298, 10.003897, 9.996884 
7.5020266e+1, 1.8342654e+2, -749579.7, -1155571.1, -52324.254, -0.14252417, 0.14935675, -742944.56, 399499.0, 0.0, 10.003488, 9.99811 
7.5015116e+1, 1.9342627e+2, -916760.94, -1169885.8, -70578.46, -0.07062594, 0.28125513, -898411.8, 146036.2, 0.0, 10.001597, 9.99825 
7.501024e+1, 2.0342532e+2, -964592.1, -1134767.1, -1710.1091, -0.048867803, 0.36080492, -964574.94, -18116.602, 0.0, 10.000566, 9.998313 
7.500586e+1, 2.1342312e+2, -795950.06, -1010876.5, 24948.27, -0.12280397, 0.29798445, -793092.1, 55387.574, 0.0, 10.001083, 9.998242 
7.500147e+1, 2.2342117e+2, -648112.1, -775466.4, -34297.516, -0.11769633, 0.24017017, -639462.94, 111033.45, 0.0, 10.000939, 9.999253 
7.499707e+1, 2.3341985e+2, -748325.5, -763890.56, -14154.169, 0.032207455, 0.15524133, -739955.4, -87451.445, 0.0, 9.999536, 9.999341 
7.499245e+1, 2.4341899e+2, -795085.3, -711175.4, 50605.434, 0.10569539, 0.12884967, -687395.06, -132886.03, 0.0, 9.998435, 9.99956 
7.498751e+1, 2.5341895e+2, -784559.44, -661583.4, 55435.125, 0.045291733, 0.1560401, -640283.5, -183773.22, 0.0, 9.997857, 9.999509 
7.498333e+1, 2.6341867e+2, -745938.4, -613056.9, 88417.586, 0.004055714, 0.18761797, -568899.06, -210384.6, 0.0, 9.997553, 9.999308 
7.4980605e+1, 2.734181e+2, -627455.6, -519998.2, 79351.77, 0.004519015, 0.19349284, -477896.44, -217374.2, 0.000000009748358, 9.997754, 9.999177 
7.497644e+1, 2.83418e+2, -516430.44, -284818.44, -63618.133, -0.015361009, 0.2191594, -268494.6, -105970.45, 0.00000018216522, 9.997282, 10.000349 
7.496957e+1, 2.934184e+2, -670717.25, -276315.28, -107791.414, -0.07835391, 0.19373825, -248778.16, -184259.39, 0.000005368871, 9.995406, 10.000641 
7.496479e+1, 3.0341887e+2, -689801.44, -173059.19, 4481.9404, -0.10935618, 0.13477652, -173020.31, -173020.31, 0.00006268461, 9.994574, 10.001415 
7.496318e+1, 3.1342074e+2, -594525.2, -172814.0, -37448.69, -0.14039953, 0.18253191, -169514.31, -169514.31, 0.00024571895, 9.995396, 10.001024 
8.505157e+1, 1.2344684e+2, -1233658.5, -1976041.6, -42282.94, -0.005474451, -0.01720659, -1231258.0, 498973.9, 0.0016640681, 10.005402, 9.995602 
8.5046685e+1, 1.3344514e+2, -1065265.5, -1773637.8, -12666.622, -0.007839122, 0.18184529, -1065039.0, 567220.2, 0.0009551369, 10.00561, 9.996214 
8.5042214e+1, 1.4344348e+2, -895149.56, -1500680.0, 6450.032, 0.034484267, 0.34439525, -895080.9, 639200.06, 0.00039230753, 10.005485, 9.997477 
8.503805e+1, 1.5344064e+2, -873435.06, -1423513.5, 3661.4048, 0.085874856, 0.2833322, -873410.7, 562896.2, 0.00008862546, 10.004891, 9.997616 
8.5033613e+1, 1.6343792e+2, -883696.3, -1355728.5, 63338.094, 0.07631877, 0.24344589, -875345.2, 462986.6, 0.000006071428, 10.004057, 9.9978075 
8.502887e+1, 1.7343497e+2, -978006.2, -1353794.1, 134453.48, -0.03043238, 0.15451391, -934854.94, 305504.44, 0.000000076650345, 10.002749, 9.997778 
8.5023576e+1, 1.8343279e+2, -976055.1, -1296406.4, 75385.65, -0.08653724, 0.15967673, -959201.9, 183179.72, 0.0, 10.002069, 9.997829 
8.501734e+1, 1.9343224e+2, -818225.75, -1177471.3, 23832.88, -0.0496829, 0.3138262, -816651.56, 227740.13, 0.0, 10.002514, 9.997758 
8.5011595e+1, 2.0343107e+2, -689926.44, -1003231.44, 92850.33, -0.060586467, 0.40290898, -664476.75, 281928.75, 0.0, 10.002453, 9.998312 
8.500672e+1, 2.1342885e+2, -742589.6, -974621.94, 101407.9, -0.15753733, 0.33116657, -704517.1, 143908.83, 0.0, 10.001405, 9.99834 
8.500165e+1, 2.234269e+2, -696009.25, -777116.94, 432.67053, -0.17054014, 0.25812492, -696006.94, 54434.797, 0.0, 10.000521, 9.999443 
8.49962e+1, 2.3342557e+2, -665695.75, -699920.3, -37120.863, -0.028465452, 0.15315361, -641932.75, 10515.188, 0.0, 10.000001, 9.999553 
8.4991014e+1, 2.4342468e+2, -644509.6, -691303.56, 19295.855, 0.058257136, 0.13176495, -637579.25, -83126.055, 0.0, 9.999696, 9.99909 
8.498633e+1, 2.534246e+2, -537099.5, -606249.75, -6418.147, 0.045595918, 0.21559899, -536508.9, -80052.47, 0.0, 9.999838, 9.998932 
8.4981924e+1, 2.6342416e+2, -533244.2, -506413.03, 3708.473, 0.039563283, 0.26183015, -505909.9, -147447.17, 0.0, 9.998989, 9.999353 
8.497814e+1, 2.7342302e+2, -822483.7, -596557.06, 38985.695, 0.056421626, 0.19626068, -590018.94, -329544.47, 0.0, 9.996334, 9.999341 
8.497303e+1, 2.8342232e+2, -821284.56, -500844.34, -9020.353, 0.008682113, 0.17995876, -500590.63, -338108.94, 0.000000023853914, 9.995481, 9.999736 
8.496548e+1, 2.934225e+2, -344731.75, -202053.88, -49903.24, -0.15419745, 0.2042774, -186332.05, -121851.54, 0.0000039776505, 9.997998, 9.999902 
8.4960246e+1, 3.034232e+2, -223836.22, -3822.2607, 35995.56, -0.18873075, 0.23149434, 1917.1029, 1917.1029, 0.000053629374, 9.998008, 10.000924 
8.495832e+1, 3.1342345e+2, -959866.75, -409564.66, 74906.875, -0.048856936, 0.16573426, -399550.6, -399550.6, 0.00021910039, 9.993149, 10.000477 
9.5058936e+1, 1.23453826e+2, -1192182.5, -1890732.0, -49263.83, 0.167639, 0.26483184, -1188725.4, 541447.0, 0.0015672252, 10.005408, 9.996183 
9.505247e+1, 1.3344981e+2, -1030944.94, -1708904.0, -4299.698, -0.0020123292, 0.18846664, -1030917.7, 601299.9, 0.0008931544, 10.005635, 9.996647 
9.5046294e+1, 1.434477e+2, -892804.5, -1495605.9, -13091.558, -0.11709358, 0.27626085, -892520.3, 641722.5, 0.00036184158, 10.005485, 9.997508 
9.5040476e+1, 1.5344627e+2, -876538.4, -1430524.6, -13573.246, -0.1735375, 0.3605201, -876206.06, 560053.44, 0.00007877631, 10.004896, 9.997561 
9.5035654e+1, 1.6344516e+2, -776548.1, -1132888.6, 15787.764, -0.13632344, 0.41990036, -775850.0, 562419.06, 0.000005121987, 10.004053, 9.99934 
9.503275e+1, 1.7344403e+2, -849195.94, -1088523.8, 87845.805, 0.072510965, 0.3344161, -820413.44, 419858.25, 0.00000007826353, 10.002756, 9.999598 
9.502794e+1, 1.8344207e+2, -1011305.2, -1366633.8, 79687.6, 0.13481104, 0.27761912, -994252.44, 148034.88, 0.0, 10.002057, 9.997353 
9.501965e+1, 1.9343889e+2, -882849.1, -1306313.1, 46393.355, -0.08144676, 0.2511102, -877826.0, 166498.16, 0.0, 10.002494, 9.9968815 
9.501284e+1, 2.0343633e+2, -708198.0, -1034681.4, 58614.176, -0.19178572, 0.25784364, -697993.8, 248358.84, 0.0, 10.002425, 9.998108 
9.500869e+1, 2.1343488e+2, -753498.6, -990046.9, 65672.945, -0.11059551, 0.27351117, -736488.94, 111877.2, 0.0, 10.001371, 9.99825 
9.500318e+1, 2.2343339e+2, -728154.75, -835149.7, -25321.074, -0.0797999, 0.26807675, -722464.94, 27913.94, 0.0, 10.000484, 9.999062 
9.4995147e+1, 2.3343189e+2, -701807.7, -765491.25, -54086.734, -0.14288782, 0.18854229, -670885.8, -18496.086, 0.0, 9.999959, 9.999125 
9.49886e+1, 2.4343073e+2, -710616.8, -820622.25, 16889.291, -0.1603493, 0.20210582, -708082.2, -153682.11, 0.0, 9.999664, 9.998215 
9.498482e+1, 2.5343025e+2, -609023.4, -749144.75, 3004.5737, -0.09768177, 0.33455503, -608959.0, -152549.61, 0.0, 9.99981, 9.997964 
9.498038e+1, 2.6342946e+2, -491563.16, -417395.44, -83790.984, -0.022559624, 0.37977105, -362848.84, -4431.053, 0.0, 9.998979, 9.99997 
9.497474e+1, 2.7342823e+2, -764107.56, -466002.9, -59538.28, 0.07325002, 0.2155767, -454551.66, -194127.25, 0.0, 9.996293, 10.000258 
9.4968927e+1, 2.834274e+2, -857974.2, -571998.0, 53665.86, 0.040441215, 0.15178488, -562258.8, -399827.9, 0.000000004406078, 9.995461, 9.999254 
9.496289e+1, 2.9342747e+2, -401385.7, -313807.9, 54712.074, -0.22428003, 0.23726316, -287519.13, -223083.5, 0.0000031202694, 9.997973, 9.9991455 
9.4957566e+1, 3.03429e+2, -168486.48, 109416.695, -104953.984, -0.26810896, 0.35947245, 144599.78, 144599.78, 0.00004667503, 9.9980135, 10.001699 
9.495195e+1, 3.134298e+2, -883572.6, -232922.55, -103137.516, -0.024197798, 0.24247393, -216965.11, -216965.11, 0.0001974869, 9.9930725, 10.001726 
1.05064794e+2, 1.23460524e+2, -965733.94, -1719012.8, 47569.348, 0.15356807, 0.3623478, -962741.8, 767369.5, 0.0014926867, 10.006682, 9.996751 
1.0505809e+2, 1.3345598e+2, -1089318.6, -1688503.5, 79113.97, 0.031085389, 0.18545288, -1079048.9, 553108.94, 0.0008481822, 10.005011, 9.997094 
1.050513e+2, 1.434538e+2, -1124579.6, -1602053.6, 89292.1, -0.081798665, 0.24123344, -1108427.6, 425754.16, 0.00034114823, 10.003868, 9.997556 
1.0504407e+2, 1.5345249e+2, -1053023.0, -1523319.3, 84599.48, -0.24097806, 0.34160924, -1038267.7, 397931.84, 0.00007287254, 10.003715, 9.9974985 
1.0503838e+2, 1.6345166e+2, -868685.3, -1170580.3, 56066.67, -0.2333379, 0.4303995, -858609.1, 479599.2, 0.0000044141693, 10.0034, 9.999391 
1.0503566e+2, 1.7345113e+2, -838563.3, -1075768.8, -13437.226, 0.08761259, 0.39777446, -837804.56, 402401.8, 0.000000050630582, 10.00281, 9.999653 
1.0503064e+2, 1.8344943e+2, -969524.6, -1308914.8, -39639.125, 0.19494091, 0.34812093, -964956.44, 177262.83, 0.0, 10.002178, 9.997686 
1.0502144e+2, 1.9344588e+2, -1014176.7, -1327205.6, 17260.674, -0.09476937, 0.24479553, -1013227.8, 31028.713, 0.0, 10.001403, 9.997261 
1.0501395e+2, 2.034432e+2, -969198.8, -1135163.8, 76417.52, -0.22505622, 0.20902549, -939372.94, 6911.0103, 0.0, 10.000528, 9.99833 
1.0500969e+2, 2.1344212e+2, -1016663.9, -1093566.0, 93295.82, -0.050015353, 0.24020898, -954206.06, -105912.72, 0.0, 9.99947, 9.998453 
1.0500394e+2, 2.2344083e+2, -947810.4, -995907.44, 62399.12, 0.014092861, 0.2637101, -904986.0, -154681.02, 0.0, 9.999211, 9.998575 
1.0499549e+2, 2.3343925e+2, -679510.6, -821853.5, 23817.59, -0.12330633, 0.23805685, -675631.06, -23311.168, 0.0, 10.000404, 9.998522 
1.0498837e+2, 2.434378e+2, -586816.4, -764509.9, 81309.44, -0.19184425, 0.25746465, -555226.56, -892.16406, 0.0, 10.000529, 9.998182 
1.04983754e+2, 2.5343654e+2, -767032.44, -816600.5, 129240.9, -0.12678193, 0.30794403, -660220.7, -203872.39, 0.0, 9.998689, 9.998038 
1.0497847e+2, 2.6343533e+2, -680631.9, -540177.25, 65505.023, -0.051469464, 0.31872976, -514369.22, -156009.88, 0.0, 9.997819, 9.999682 
1.04971945e+2, 2.7343428e+2, -425719.6, -341903.4, -10642.311, 0.043390945, 0.20669805, -340573.25, -80208.03, 0.0, 9.998783, 9.999909 
1.04965515e+2, 2.8343353e+2, -424674.13, -340386.56, 94825.47, 0.013627338, 0.16180737, -278761.53, -116389.99, 0.0000000012345152, 9.998336, 9.999462 
1.0495948e+2, 2.9343355e+2, -768059.44, -454557.56, 167718.61, -0.22702761, 0.20895141, -381742.84, -317366.3, 0.0000025058646, 9.995301, 9.999469 
1.0495373e+2, 3.0343574e+2, -736971.9, -133792.86, 4207.805, -0.24903712, 0.37167922, -133763.5, -133763.5, 0.000040625986, 9.993976, 10.001981 
1.04946315e+2, 3.1343764e+2, -443959.94, 48353.5, -71266.01, -0.02436372, 0.33750182, 58462.22, 58462.22, 0.00017793833, 9.995776, 10.002367 
1.15068786e+2, 1.2346684e+2, -929199.75, -1648925.4, -24540.709, -0.14320923, 0.266478, -928364.0, 801685.7, 0.0014418858, 10.006703, 9.997224 
1.15063354e+2, 1.3346353e+2, -1057452.4, -1622796.1, 15940.511, 0.045894943, 0.16910635, -1057003.3, 575077.3, 0.0008204805, 10.005014, 9.997541 
1.1505711e+2, 1.4346181e+2, -1126041.6, -1600155.4, 71566.75, 0.10273964, 0.24320506, -1115474.3, 418623.9, 0.0003303068, 10.003846, 9.997581 
1.1504858e+2, 1.5345934e+2, -1054546.6, -1525799.9, 85013.56, -0.17255192, 0.22909664, -1039679.25, 396447.72, 0.00007096415, 10.003717, 9.997477 
1.1504161e+2, 1.6345745e+2, -969895.7, -1384055.8, 33627.582, -0.2626976, 0.2779742, -967183.06, 370966.16, 0.000004183742, 10.003407, 9.997928 
1.1503749e+2, 1.7345622e+2, -955549.5, -1321113.6, -31745.281, -0.02252383, 0.34171617, -952813.25, 287350.44, 0.000000024917117, 10.002817, 9.997966 
1.15031615e+2, 1.834548e+2, -893065.2, -1142427.5, -69736.33, 0.06466207, 0.36866114, -874887.9, 267289.66, 0.0, 10.002146, 9.998847 
1.1502254e+2, 1.9345318e+2, -899299.1, -1083696.6, -9337.881, -0.13623177, 0.29681054, -898827.44, 145361.5, 0.0, 10.001383, 9.998942 
1.15014814e+2, 2.0345172e+2, -928299.56, -1043402.44, 34090.508, -0.19998252, 0.25939763, -918960.56, 27238.629, 0.0, 10.000498, 9.998976 
1.1500957e+2, 2.1345054e+2, -987734.7, -1026065.06, 55798.453, -0.01787259, 0.23176485, -947901.8, -99693.94, 0.0, 9.999437, 9.998933 
1.1500382e+2, 2.2344917e+2, -993844.1, -1083750.3, 92111.57, 0.07282724, 0.24610187, -936301.75, -186081.39, 0.0, 9.999178, 9.997989 
1.14997104e+2, 2.3344763e+2, -738947.7, -937962.25, 73895.86, -0.012510955, 0.29926738, -714510.2, -62271.49, 0.0, 10.000372, 9.997742 
1.14990205e+2, 2.4344581e+2, -536740.75, -651671.0, 24853.729, -0.070370436, 0.29403317, -531596.4, 22660.184, 0.0, 10.000491, 9.998977 
1.14983015e+2, 2.534435e+2, -694814.2, -658352.44, 59741.734, -0.078134425, 0.13335636, -614121.8, -157848.52, 0.0, 9.998652, 9.999144 
1.1497609e+2, 2.634418e+2, -766100.6, -712931.4, 83692.59, -0.07970387, 0.07814464, -651702.56, -293415.2, 0.0, 9.9978, 9.9985075 
1.1496962e+2, 2.734412e+2, -542184.6, -580478.6, 32111.162, -0.07851209, 0.17046693, -523945.3, -263648.47, 0.0, 9.998766, 9.998282 
1.1496267e+2, 2.834407e+2, -364532.0, -213508.25, -2042.9584, -0.11444355, 0.21087712, -213480.61, -51176.914, 0.00000000007947066, 9.998329, 10.000337 
1.1495511e+2, 2.9344064e+2, -681960.9, -263144.44, 53363.785, -0.20107111, 0.12351149, -256452.0, -192148.81, 0.000001910546, 9.995248, 10.00081 
1.1494854e+2, 3.0344343e+2, -755727.1, -162039.33, 46601.18, -0.17130165, 0.27161816, -158403.67, -158403.67, 0.000034739915, 9.993936, 10.0018015 
1.1494104e+2, 3.13447e+2, -444657.9, 56693.44, 12839.965, -0.1534809, 0.44327807, 57022.066, 57022.066, 0.00015856141, 9.995742, 10.002436 
1.2507425e+2, 1.234741e+2, -1223757.9, -1730514.8, -56110.99, -0.1488421, 0.2684973, -1217619.4, 512363.3, 0.0014114049, 10.004435, 9.99775 
1.2506759e+2, 1.3347164e+2, -1143733.3, -1623436.5, -31593.4, 0.011514742, 0.22032847, -1141661.4, 490342.84, 0.00080715783, 10.0042515, 9.997904 
1.2506087e+2, 1.4347048e+2, -1138305.8, -1564549.0, 47297.48, 0.11173275, 0.31362402, -1133120.6, 400894.25, 0.00032838222, 10.0035925, 9.997942 
1.2505281e+2, 1.5346764e+2, -1251936.5, -1584020.6, 77305.05, -0.042796053, 0.2299615, -1234822.9, 201221.5, 0.0000730394, 10.002204, 9.997804 
1.2504539e+2, 1.6346538e+2, -1289643.5, -1584317.9, 99590.5, -0.12232802, 0.2386307, -1259142.3, 78927.62, 0.0000046457744, 10.001413, 9.997512 
1.2503923e+2, 1.7346379e+2, -1162436.4, -1486374.8, 116090.55, -0.06917325, 0.32313287, -1125129.3, 114962.44, 0.000000012759114, 10.001672, 9.997389 
1.2503245e+2, 1.8346235e+2, -916357.0, -1130597.6, 96184.71, -0.049592804, 0.37395167, -879511.1, 262596.63, 0.0, 10.001891, 9.99905 
1.2502456e+2, 1.934614e+2, -799111.0, -998202.9, 50897.69, -0.097318195, 0.33949652, -786853.7, 257257.44, 0.0, 10.001917, 9.999272 
1.2501693e+2, 2.034603e+2, -745951.5, -948577.7, 8874.907, -0.09763789, 0.31502625, -745563.56, 200553.38, 0.0, 10.0017185, 9.999038 
1.2500985e+2, 2.1345891e+2, -750357.94, -911125.9, -15346.105, -0.011649434, 0.26464945, -748906.2, 99221.29, 0.0, 10.001064, 9.998937 
1.2500319e+2, 2.2345744e+2, -833849.56, -989221.4, 58135.86, 0.042941753, 0.25990108, -814505.2, -64364.664, 0.0, 10.0001955, 9.998148 
1.249972e+2, 2.3345591e+2, -936301.0, -1013369.2, 109224.82, 0.035792172, 0.297592, -859012.2, -206854.97, 0.0, 9.99893, 9.997919 
1.24990456e+2, 2.434541e+2, -824302.75, -761154.0, 76644.17, 0.012638969, 0.27215737, -709835.25, -155661.48, 0.0, 9.998395, 9.999233 
1.24982364e+2, 2.5345182e+2, -594978.6, -582931.1, 42630.348, -0.034017563, 0.08754298, -545901.06, -89711.43, 0.0, 9.999217, 9.9993925 
1.24974824e+2, 2.6345024e+2, -541710.44, -630781.5, 84105.51, -0.066569276, 0.038387887, -491076.9, -132873.73, 0.0, 9.999454, 9.998273 
1.24968275e+2, 2.734499e+2, -583715.44, -635403.44, 123550.4, -0.08011758, 0.1889854, -483334.97, -223122.36, 0.0, 9.998641, 9.99796 
1.24960795e+2, 2.8344956e+2, -421109.25, -224332.58, 66206.414, -0.108526416, 0.25704643, -204131.06, -41912.527, 0.00000000021645001, 9.99787, 10.000483 
1.24951914e+2, 2.9344943e+2, -386734.78, -90774.25, 23051.234, -0.13694306, 0.13972162, -88989.64, -24774.516, 0.0000014014497, 9.997148, 10.001076 
1.2494433e+2, 3.0345112e+2, -456382.06, -112501.65, 34861.48, -0.10482654, 0.20080228, -109003.09, -109003.09, 0.000028974657, 9.996385, 10.00097 
1.24935806e+2, 3.13453e+2, -507172.22, -46902.285, -39032.844, -0.23985693, 0.30153686, -43615.6, -43615.6, 0.0001384936, 9.995625, 10.001786 
1.3508086e+2, 1.2348233e+2, -1192710.6, -1657714.6, -75344.13, 0.04485815, 0.3712238, -1180807.4, 549102.5, 0.0014014122, 10.004402, 9.998264 
1.3507068e+2, 1.334804e+2, -1115723.9, -1568271.8, -34560.82, -0.11717948, 0.33984706, -1113099.6, 518828.2, 0.00080764474, 10.004273, 9.998266 
1.3506252e+2, 1.4347987e+2, -1092892.1, -1477943.6, -1793.0198, -0.09636016, 0.45240325, -1092883.8, 441047.2, 0.00033483436, 10.003617, 9.998527 
1.3505663e+2, 1.5347742e+2, -1205202.0, -1488597.4, 27969.82, 0.10694716, 0.34146586, -1202467.9, 233483.53, 0.00007883327, 10.002209, 9.998457 
1.350496e+2, 1.6347541e+2, -1252449.4, -1503855.5, 96666.78, 0.14609304, 0.3137957, -1219578.5, 118392.04, 0.00000595432, 10.001399, 9.998073 
1.350407e+2, 1.7347378e+2, -1121984.4, -1404061.9, 131168.38, -0.10105334, 0.34001774, -1070417.1, 169573.98, 0.000000014220786, 10.001685, 9.997944 
1.35033e+2, 1.834721e+2, -970894.0, -1244257.3, 95049.805, -0.19714086, 0.3677269, -941093.4, 200916.56, 0.0, 10.001885, 9.998277 
1.3502727e+2, 1.9347054e+2, -868437.75, -1142075.4, 55647.34, -0.028167186, 0.36850435, -857554.06, 186469.33, 0.0, 10.001912, 9.998289 
1.3502012e+2, 2.0346892e+2, -788290.94, -1030104.44, -15128.069, 0.041905385, 0.37244844, -787348.2, 158689.31, 0.0, 10.00169, 9.998493 
1.350104e+2, 2.134672e+2, -788258.25, -980196.3, -36242.68, -0.0731782, 0.33683842, -781642.75, 66409.86, 0.0, 10.001023, 9.998481 
1.3500193e+2, 2.2346558e+2, -775411.44, -861641.8, 9669.026, -0.11332904, 0.30472094, -774340.56, -24274.8, 0.0, 10.000164, 9.99904 
1.3499561e+2, 2.3346406e+2, -857484.7, -845399.7, 63433.32, -0.02504478, 0.22997212, -787721.7, -135645.97, 0.0, 9.998908, 9.999083 
1.3498895e+2, 2.4346267e+2, -850356.4, -807467.75, 93360.06, 0.014475826, 0.19045576, -733120.8, -179034.64, 0.0, 9.998363, 9.998931 
1.3498169e+2, 2.5346148e+2, -639166.6, -667220.75, 78197.03, -0.031653397, 0.17167814, -573748.5, -117651.43, 0.0, 9.999186, 9.998828 
1.3497457e+2, 2.6346064e+2, -495691.97, -531633.8, 59742.074, -0.046307445, 0.2013332, -451276.44, -93170.15, 0.0, 9.999438, 9.998961 
1.3496776e+2, 2.7346033e+2, -522988.34, -500662.53, 96149.26, -0.005608741, 0.2640682, -415030.34, -154917.64, 0.0, 9.998603, 9.998904 
1.3495974e+2, 2.8346002e+2, -462043.44, -303616.8, 35808.8, -0.009461778, 0.30231497, -295899.0, -133782.84, 0.000000004047862, 9.99785, 9.999947 
1.3494982e+2, 2.934598e+2, -447470.84, -212998.66, -748.64984, -0.07121297, 0.2549118, -212996.27, -148883.36, 0.0000011638989, 9.997129, 10.000247 
1.3494095e+2, 3.034588e+2, -563081.8, -327045.5, 3032.5278, -0.08819768, 0.15775804, -327006.56, -327006.56, 0.00002372901, 9.996366, 9.999503 
1.3493039e+2, 3.134556e+2, -612778.9, -248467.58, -54770.68, -0.36328062, -0.09173356, -240411.48, -240411.48, 0.000118264084, 9.995562, 10.000429 
1.4508535e+2, 1.2349121e+2, -1495961.6, -1782753.6, 24761.64, 0.17058098, 0.42649898, -1493839.4, 235986.44, 0.0014086015, 10.00222, 9.998461 
1.450744e+2, 1.3348922e+2, -1303220.1, -1658112.1, 30254.438, -0.104539566, 0.38555285, -1300659.4, 331186.88, 0.00082004577, 10.002968, 9.998283 
1.4506568e+2, 1.4348882e+2, -1112742.5, -1446531.0, 13471.891, -0.12411513, 0.49316183, -1112199.6, 421648.78, 0.0003478852, 10.003306, 9.998893 
1.450593e+2, 1.5348665e+2, -1063971.4, -1376375.6, 12899.043, 0.11824939, 0.3712406, -1063439.6, 372423.7, 0.000086944005, 10.002987, 9.998856 
1.450519e+2, 1.634849e+2, -1063934.0, -1375550.9, 93946.03, 0.18294343, 0.33084604, -1037802.5, 300075.2, 0.000007920221, 10.002532, 9.9984045 
1.4504278e+2, 1.7348345e+2, -1086931.6, -1354906.9, 105562.39, -0.066026054, 0.3441161, -1050343.5, 189551.5, 0.000000062379044, 10.0017805, 9.998237 
1.4503479e+2, 1.834818e+2, -1065294.1, -1296287.0, 94685.07, -0.1702891, 0.35931584, -1031443.06, 110469.89, 0.0, 10.001269, 9.998212 
1.4502881e+2, 1.9347994e+2, -984050.6, -1215712.5, 111621.68, -0.026159406, 0.3438513, -939020.7, 104909.83, 0.0, 10.00119, 9.998133 
1.4502147e+2, 2.0347822e+2, -902848.4, -1104796.3, 77327.625, 0.04428136, 0.35358727, -876640.2, 69306.82, 0.0, 10.000993, 9.998313 
1.4501162e+2, 2.1347675e+2, -875896.75, -1046891.94, 65590.75, -0.025808396, 0.36518276, -853635.4, -5674.311, 0.0, 10.000526, 9.998263 
1.4500259e+2, 2.2347508e+2, -748480.7, -825356.3, 107823.766, -0.06339789, 0.33402288, -672448.25, 77526.61, 0.0, 10.0002575, 9.999241 
1.449951e+2, 2.3347306e+2, -625390.8, -704712.25, 86368.55, -0.03887801, 0.18247853, -570012.06, 81975.83, 0.0, 10.000381, 9.99934 
1.4498775e+2, 2.434717e+2, -614242.94, -723775.3, 99909.72, -0.026749766, 0.14283024, -555073.7, -1075.5017, 0.0, 10.000108, 9.998667 
1.449807e+2, 2.5347158e+2, -676717.75, -722965.0, 95268.63, -0.04171868, 0.26433516, -601806.6, -145803.89, 0.0, 9.999097, 9.998485 
1.4497343e+2, 2.634712e+2, -659176.44, -544599.94, 59725.234, -0.029834997, 0.3372169, -519129.25, -161120.8, 0.0, 9.998032, 9.99955 
1.4496578e+2, 2.7347043e+2, -721959.44, -510463.6, 72954.66, 0.02571687, 0.27733183, -487739.72, -227723.94, 0.0, 9.996869, 9.999673 
1.4495717e+2, 2.8347003e+2, -686409.75, -453269.97, 54612.563, 0.019840246, 0.2800748, -441111.2, -279093.1, 0.000000009906891, 9.99648, 9.999584 
1.4494711e+2, 2.9347047e+2, -441434.7, -270792.56, 36865.68, -0.06650999, 0.35115212, -263168.7, -199158.08, 0.0000010384059, 9.997431, 9.999703 
1.4493819e+2, 3.034686e+2, -417703.03, -264429.2, 57995.754, -0.04830892, 0.2030145, -244958.23, -244958.23, 0.000019000812, 9.997388, 9.99944 
1.4492728e+2, 3.13464e+2, -624381.94, -254619.77, 105068.11, -0.22094043, -0.19024806, -226850.14, -226850.14, 0.0000984148, 9.995471, 10.000435 
1.5508753e+2, 1.23500764e+2, -1496990.5, -1798284.8, 36420.387, 0.1426876, 0.43940306, -1492650.5, 237079.94, 0.0014182358, 10.002274, 9.99833 
1.5507856e+2, 1.3349815e+2, -1322271.6, -1699859.4, 60623.953, 0.005911959, 0.36440435, -1312776.9, 318982.63, 0.0008338585, 10.002973, 9.997998 
1.5507011e+2, 1.4349738e+2, -1103550.9, -1426329.3, 2897.7898, -0.020995693, 0.4429883, -1103524.9, 430241.94, 0.0003605607, 10.003301, 9.999036 
1.5506074e+2, 1.5349534e+2, -1048596.6, -1345458.0, 4542.264, -0.047355246, 0.31857607, -1048527.2, 387252.97, 0.00009387686, 10.002995, 9.999063 
1.5505221e+2, 1.6349387e+2, -1058655.9, -1362018.5, 65061.734, -0.048320968, 0.2903628, -1045291.06, 292500.06, 0.000009513788, 10.0025215, 9.998504 
1.5504527e+2, 1.7349288e+2, -1080275.0, -1340122.1, 81216.055, -0.0032736643, 0.33965445, -1056979.1, 182823.34, 0.00000019835329, 10.001778, 9.99834 
1.5503772e+2, 1.8349148e+2, -1025137.4, -1212118.6, 84922.87, -0.01532628, 0.35079402, -992325.25, 149491.06, 0.0, 10.001264, 9.998794 
1.5502906e+2, 1.934896e+2, -941391.06, -1120187.1, 112583.64, -0.13156918, 0.26594344, -887028.56, 156803.83, 0.0, 10.001164, 9.998799 
1.5502083e+2, 2.0348819e+2, -896153.94, -1086448.3, 58925.066, -0.12830003, 0.26306996, -879385.3, 66460.0, 0.0, 10.000968, 9.998454 
1.550133e+2, 2.1348758e+2, -874715.0, -1037194.56, 50937.184, 0.07958512, 0.35199866, -860066.8, -12214.023, 0.0, 10.000495, 9.998344 
1.5500507e+2, 2.2348602e+2, -792288.6, -909499.1, 105495.94, 0.14822416, 0.3513417, -730212.6, 19654.818, 0.0, 10.000226, 9.998681 
1.5499556e+2, 2.3348287e+2, -675446.06, -804844.25, 95439.28, -0.038123146, 0.15204777, -624842.8, 27051.322, 0.0, 10.00036, 9.998665 
1.5498672e+2, 2.4348116e+2, -633520.1, -759062.9, 64394.56, -0.14918938, 0.12731747, -606364.3, -52454.2, 0.0, 10.000086, 9.998437 
1.5497924e+2, 2.53482e+2, -690951.44, -747755.44, 59904.22, -0.10650131, 0.36331812, -653057.25, -197150.03, 0.0, 9.999072, 9.998329 
1.5497126e+2, 2.6348191e+2, -627052.6, -472623.16, 12448.198, -0.060049478, 0.4486469, -471626.16, -113716.086, 0.0, 9.9980135, 10.000051 
1.549622e+2, 2.7348006e+2, -687057.06, -428015.22, 31377.828, -0.026237361, 0.22283097, -424268.6, -164345.73, 0.0, 9.996825, 10.000259 
1.5495293e+2, 2.8347954e+2, -700614.6, -475685.16, 76292.57, -0.060181778, 0.18412787, -452249.7, -290324.4, 0.000000005626964, 9.996449, 9.999445 
1.549436e+2, 2.9348138e+2, -461665.25, -308889.7, 80306.59, -0.1710841, 0.42380208, -274443.16, -210534.52, 0.00000082513446, 9.997408, 9.9994545 
1.5493588e+2, 3.0348068e+2, -326017.97, -64427.387, -924.7115, -0.025740286, 0.3414751, -64424.117, -64424.117, 0.000014599608, 9.997358, 10.00082 
1.5492629e+2, 3.1347853e+2, -531155.0, -46852.125, 48613.324, 0.116000056, 0.03073753, -42020.62, -42020.62, 0.00007959566, 9.995421, 10.001879 
1.6509026e+2, 1.23510554e+2, -1279156.0, -1716684.1, 72245.9, 0.11197113, 0.4255364, -1267535.3, 462096.84, 0.0014117385, 10.003875, 9.9981165 
1.6508162e+2, 1.3350743e+2, -1366145.4, -1760100.0, 81381.66, 0.022112414, 0.33648983, -1349995.9, 281672.16, 0.0008337956, 10.00285, 9.997638 
1.6507316e+2, 1.4350651e+2, -1240112.8, -1481277.5, 33705.555, 0.00530121, 0.41778043, -1235490.6, 298187.84, 0.00036324788, 10.002325, 9.999125 
1.6506293e+2, 1.5350519e+2, -1071950.5, -1340184.4, 27572.924, -0.113727115, 0.34719414, -1069145.5, 366540.84, 0.000095506475, 10.002759, 9.999212 
1.6505398e+2, 1.6350405e+2, -1005961.3, -1327728.9, 68953.15, -0.13666613, 0.3410912, -991807.6, 345886.9, 0.0000096286785, 10.002836, 9.998589 
1.6504748e+2, 1.7350285e+2, -1007418.0, -1296018.0, 73163.71, 0.018900383, 0.36268845, -989929.8, 249776.92, 0.00000029047038, 10.002235, 9.998423 
1.6503982e+2, 1.8350148e+2, -969952.44, -1144583.4, 78069.05, 0.059983242, 0.35541725, -940140.8, 201578.8, 0.0, 10.001472, 9.999155 
1.6503006e+2, 1.935e+2, -1023106.25, -1113498.9, 79976.51, -0.10694446, 0.2699375, -976438.8, 67292.37, 0.0, 10.000406, 9.99921 
1.6502123e+2, 2.0349891e+2, -1021043.6, -1089754.6, 52181.082, -0.12738718, 0.25607565, -992923.75, -47183.996, 0.0, 9.999867, 9.998961 
1.6501401e+2, 2.1349859e+2, -868269.4, -976777.8, 74302.336, 0.114128, 0.32219627, -830521.6, 17221.215, 0.0, 10.000292, 9.99886 
1.6500582e+2, 2.2349735e+2, -788991.5, -952515.1, 157117.53, 0.19315143, 0.33833903, -693634.94, 56120.367, 0.0, 10.000448, 9.998275 
1.6499583e+2, 2.334946e+2, -757531.75, -905631.9, 146532.23, -0.030168166, 0.23740862, -667401.7, -15619.079, 0.0, 10.000073, 9.998105 
1.6498646e+2, 2.4349299e+2, -692332.0, -734182.4, 120218.37, -0.14902471, 0.23637067, -591231.3, -37432.023, 0.0, 9.999455, 9.99891 
1.6497838e+2, 2.534935e+2, -734325.4, -694439.4, 164039.95, -0.06616492, 0.37180614, -549134.56, -93338.21, 0.0, 9.998453, 9.998993 
1.6496971e+2, 2.6349312e+2, -624656.1, -494660.5, 164940.67, -0.017267562, 0.4030606, -382372.84, -24573.46, 0.0, 9.998119, 9.999853 
1.6495988e+2, 2.7349126e+2, -398821.06, -326914.4, 111458.72, -0.044417374, 0.20560157, -245753.73, 14059.109, 0.0, 9.99896, 9.999927 
1.6495028e+2, 2.8349054e+2, -360322.38, -326400.16, 116174.055, -0.08509602, 0.17319724, -225955.61, -64137.66, 0.00000000009995645, 9.998852, 9.9993105 
1.6494156e+2, 2.9349208e+2, -512500.7, -344656.94, 120367.67, -0.09877976, 0.39080322, -281843.47, -218036.72, 0.00000049216277, 9.997112, 9.9993515 
1.6493383e+2, 3.034919e+2, -465365.84, -75796.69, 10884.209, 0.09810048, 0.34639868, -75492.836, -75492.836, 0.000010365808, 9.996149, 10.00133 
1.6492282e+2, 3.1349242e+2, -358947.72, 66696.17, -29523.838, 0.17994528, 0.24775107, 68734.266, 68734.266, 0.000061981555, 9.996465, 10.002154 
1.7509331e+2, 1.2352058e+2, -1299278.0, -1754387.8, 26349.242, 0.009880968, 0.3883923, -1297757.6, 431773.03, 0.001380499, 10.003859, 9.997864 
1.7508344e+2, 1.335171e+2, -1399063.8, -1826090.3, 41387.785, -0.0877902, 0.30761296, -1395089.4, 236482.19, 0.00081155327, 10.002847, 9.997183 
1.7507477e+2, 1.4351621e+2, -1234816.4, -1474946.0, 37736.48, -0.0744719, 0.4165789, -1229025.6, 304557.94, 0.0003505451, 10.002338, 9.999166 
1.7506564e+2, 1.535161e+2, -1064983.9, -1321876.3, 48259.094, -0.12852977, 0.45366585, -1056217.3, 379365.34, 0.000090039786, 10.002744, 9.999345 
1.7505702e+2, 1.6351545e+2, -1003026.75, -1317157.8, 48116.395, -0.12882124, 0.48513758, -995821.8, 341765.63, 0.000008219061, 10.002813, 9.998673 
1.7504928e+2, 1.7351343e+2, -1004661.75, -1288086.6, 52914.46, -0.037189566, 0.41745275, -995105.0, 244502.23, 0.00000020811186, 10.002227, 9.99848 
1.7504098e+2, 1.8351181e+2, -961785.1, -1125877.6, 38231.047, 0.018907951, 0.37753153, -953315.1, 188307.17, 0.0, 10.001459, 9.999292 
1.7503165e+2, 1.9351111e+2, -1014905.75, -1091914.6, 43610.406, 0.0013337696, 0.3545713, -995234.06, 48392.867, 0.0, 10.000384, 9.999371 
1.750225e+2, 2.0351042e+2, -964946.5, -967939.75, 55534.05, 0.0037714564, 0.3340936, -910888.9, 34741.45, 0.0, 9.999841, 9.999812 
1.7501363e+2, 2.1350978e+2, -803618.94, -837506.25, 94547.09, 0.039644357, 0.27151647, -724509.25, 123122.414, 0.0, 10.000269, 9.999827 
1.7500474e+2, 2.2350907e+2, -812025.4, -992429.5, 145264.34, 0.03208, 0.29899517, -731235.8, 18402.268, 0.0, 10.000415, 9.998016 
1.7499575e+2, 2.3350826e+2, -795766.8, -979494.6, 137060.67, -0.055390287, 0.43509543, -722631.9, -70978.26, 0.0, 10.000047, 9.997612 
1.7498681e+2, 2.4350722e+2, -613363.2, -566015.3, 81287.26, -0.07003632, 0.46893358, -505024.75, 48641.133, 0.0, 9.999437, 10.000072 
1.7497803e+2, 2.5350598e+2, -638639.3, -487040.66, 128679.266, 0.044690125, 0.2856985, -413495.1, 42175.594, 0.0, 9.998415, 10.000435 
1.7496881e+2, 2.635049e+2, -687004.7, -620705.6, 184455.95, 0.072188854, 0.1988434, -466444.13, -108767.57, 0.0, 9.998106, 9.998994 
1.7495872e+2, 2.73504e+2, -490455.5, -514651.6, 148530.08, -0.066097066, 0.22496709, -353531.6, -93845.96, 0.0, 9.998945, 9.998647 
1.7494914e+2, 2.835031e+2, -371937.34, -351241.16, 58584.86, -0.095676124, 0.2521699, -302097.5, -140401.47, 0.0, 9.998856, 9.999136 
1.7494085e+2, 2.9350242e+2, -518094.28, -348512.78, 57231.04, 0.11106297, 0.24979874, -331005.63, -267300.06, 0.00000022526268, 9.997078, 9.999342 
1.7493194e+2, 3.0350208e+2, -492380.6, -124704.164, 10668.042, 0.28703028, 0.20448264, -124394.89, -124394.89, 0.0000067412816, 9.996121, 10.001006 
1.7491645e+2, 3.1350574e+2, -428285.84, -66298.22, 3421.115, -0.12692623, 0.46060532, -66265.89, -66265.89, 0.000045960638, 9.996426, 10.001256 
1.8509611e+2, 1.2353029e+2, -1443209.6, -1797357.0, -17993.867, -0.03520176, 0.37764204, -1442297.6, 287139.25, 0.0013241966, 10.002742, 9.998107 
1.8508635e+2, 1.335272e+2, -1334986.6, -1780674.8, 29444.758, -0.099231645, 0.32139504, -1333049.8, 298422.94, 0.0007691539, 10.003204, 9.997328 
1.850777e+2, 1.4352638e+2, -1145330.8, -1429479.6, 51934.293, -0.044012826, 0.42587775, -1136136.1, 397348.06, 0.0003253587, 10.002944, 9.99918 
1.8506819e+2, 1.535265e+2, -1235052.8, -1405990.9, 42683.645, -0.086960874, 0.49006194, -1224987.3, 210495.45, 0.000079856014, 10.001583, 9.999326 
1.8505913e+2, 1.6352607e+2, -1266750.5, -1383160.5, 64183.098, -0.092186235, 0.52201176, -1238310.9, 99175.04, 0.0000062139093, 10.000753, 9.999209 
1.8505085e+2, 1.7352425e+2, -1156417.8, -1292424.0, 104380.37, -0.03328706, 0.41312572, -1099842.9, 139658.7, 0.000000056960435, 10.00089, 9.999097 
1.8504217e+2, 1.835229e+2, -1029657.44, -1152629.0, 106562.125, 0.021240199, 0.36070722, -968114.8, 173398.3, 0.0, 10.000969, 9.999342 
1.8503278e+2, 1.9352262e+2, -941870.4, -1063191.3, 88371.94, 0.0545642, 0.38597304, -895342.75, 148172.27, 0.0, 10.000913, 9.999312 
1.8502335e+2, 2.0352201e+2, -815189.0, -900285.4, 95703.68, 0.056230597, 0.37854764, -753001.6, 192516.9, 0.0, 10.000891, 9.999766 
1.850138e+2, 2.135209e+2, -708779.44, -795321.8, 56609.28, -0.001432315, 0.27335545, -680797.5, 166726.66, 0.0, 10.000934, 9.999794 
1.850045e+2, 2.2352017e+2, -748177.25, -901873.7, 63600.973, -0.038996875, 0.27537063, -725272.1, 24258.32, 0.0, 10.000581, 9.998565 
1.849957e+2, 2.3352014e+2, -825244.94, -921528.7, 127320.78, -0.035421755, 0.4268705, -737268.44, -85730.89, 0.0, 9.999521, 9.998269 
1.8498674e+2, 2.4351966e+2, -669642.7, -587076.25, 109589.766, 0.0020711503, 0.47761613, -511251.72, 42292.46, 0.0, 9.999028, 10.000122 
1.8497758e+2, 2.5351855e+2, -472668.38, -411335.2, 40304.9, 0.103399724, 0.31083056, -391356.7, 64191.902, 0.0, 9.999577, 10.000392 
1.8496804e+2, 2.6351753e+2, -521638.7, -570503.94, 52412.69, 0.12292111, 0.24204005, -488243.6, -130688.49, 0.0, 9.9993725, 9.998725 
1.8495768e+2, 2.7351654e+2, -667332.1, -629835.06, 82120.85, -0.007226064, 0.28964677, -564349.75, -304783.38, 0.0, 9.997868, 9.99837 
1.8494748e+2, 2.835154e+2, -625549.25, -447191.75, 42956.32, -0.051362127, 0.3000728, -437385.2, -275806.0, 0.0, 9.996997, 9.999374 
1.8493795e+2, 2.935144e+2, -469560.28, -290754.4, 54853.35, 0.108726755, 0.2331687, -275268.0, -211677.9, 0.000000073239775, 9.997264, 9.999645 
1.8492833e+2, 3.0351442e+2, -332719.16, -68294.25, 56451.42, 0.26003605, 0.21632694, -56746.848, -56746.848, 0.000003933053, 9.997299, 10.000832 
1.8491253e+2, 3.1351823e+2, -403601.6, -116446.46, 64710.42, -0.17613466, 0.50717753, -102537.664, -102537.664, 0.000032239117, 9.996847, 10.000723 
1.9509847e+2, 1.2353965e+2, -1390644.9, -1689495.9, -15298.78, -0.096854605, 0.3895775, -1389863.8, 339487.44, 0.001244292, 10.002752, 9.99884 
1.9509013e+2, 1.3353774e+2, -1287126.1, -1671505.6, 48474.3, -0.04951875, 0.37457263, -1281107.3, 350264.1, 0.0007131833, 10.003174, 9.998086 
1.9508179e+2, 1.4353703e+2, -1149736.8, -1436728.3, 5398.6826, 0.059924968, 0.4496147, -1149635.3, 383744.7, 0.00029469843, 10.002928, 9.999142 
1.9507043e+2, 1.535365e+2, -1249167.1, -1432984.8, -5866.4727, -0.03038474, 0.46363202, -1248980.1, 186406.06, 0.00006895607, 10.001574, 9.9991455 
1.9506021e+2, 1.6353603e+2, -1198700.4, -1242629.4, 60112.34, -0.067470625, 0.46178785, -1156665.4, 180723.64, 0.00000458339, 10.0007515, 10.000176 
1.9505209e+2, 1.7353536e+2, -1074756.1, -1121690.4, 115385.83, -0.0069829905, 0.34900236, -980475.2, 258914.2, 0.0000000036456946, 10.000883, 10.000272 
1.9504334e+2, 1.8353476e+2, -1036076.06, -1164015.3, 101285.44, 0.029596694, 0.30904338, -980250.6, 161141.16, 0.0, 10.000955, 9.999275 
1.9503339e+2, 1.9353451e+2, -961702.0, -1103203.9, 89481.445, 0.013415201, 0.36355984, -918380.06, 125015.586, 0.0, 10.000905, 9.9990425 
1.9502367e+2, 2.0353372e+2, -885327.56, -1038447.44, 94361.516, -0.010435363, 0.39190623, -840374.06, 105030.09, 0.0, 10.000858, 9.998834 
1.9501436e+2, 2.1353193e+2, -787743.94, -951406.2, 62773.31, -0.04889096, 0.32158855, -766440.1, 80980.734, 0.0, 10.0009, 9.998738 
1.95005e+2, 2.235306e+2, -657999.8, -706209.1, 25319.766, -0.054271065, 0.2689014, -647145.56, 102287.01, 0.0, 10.0005455, 9.999925 
1.9499555e+2, 2.3353028e+2, -704142.5, -661994.75, 90001.33, -0.0084691355, 0.21587344, -590633.0, 60801.2, 0.0, 9.999487, 10.000066 
1.9498618e+2, 2.4353038e+2, -748069.9, -746239.44, 118294.18, 0.034383, 0.2653539, -628856.94, -75422.94, 0.0, 9.99901, 9.999039 
1.9497693e+2, 2.535312e+2, -587631.1, -645455.5, 64565.57, 0.0719075, 0.4466168, -545799.94, -90369.35, 0.0, 9.999554, 9.998796 
1.9496724e+2, 2.6353097e+2, -496661.16, -516095.8, 2099.4998, 0.09889165, 0.53794825, -496436.94, -139001.92, 0.0, 9.999364, 9.999103 
1.9495663e+2, 2.7352884e+2, -621581.1, -528231.7, 27583.69, 0.09115161, 0.39957082, -520690.28, -261235.08, 0.0, 9.997837, 9.999085 
1.9494516e+2, 2.8352743e+2, -580864.2, -350911.78, 40942.047, 0.007893271, 0.31212267, -343839.75, -182371.66, 0.0, 9.996983, 10.000041 
1.9493271e+2, 2.9352808e+2, -433357.88, -210429.4, 71221.12, -0.15451919, 0.3463184, -189618.45, -126158.11, 0.000000013907536, 9.997238, 10.000212 
1.9492282e+2, 3.0352902e+2, -331049.47, -61081.027, 40003.594, -0.031179257, 0.38615257, -55278.08, -55278.08, 0.0000021091166, 9.9972925, 10.000879 
1.9491093e+2, 3.1352997e+2, -415822.88, -129992.19, 65564.88, -0.038676657, 0.39257506, -115670.3, -115670.3, 0.000021823846, 9.996805, 10.000645 
2.0510206e+2, 1.23550996e+2, -1124927.4, -1536419.3, 91590.27, -0.09847247, 0.42888394, -1105461.9, 623780.75, 0.0011450421, 10.004485, 9.999056 
2.0509312e+2, 1.3354918e+2, -1348543.6, -1678842.1, 100839.164, -0.039425153, 0.40241963, -1320191.4, 311068.22, 0.0006483529, 10.002655, 9.99829 
2.0508426e+2, 1.4354819e+2, -1339224.9, -1505642.3, 57673.344, 0.08706896, 0.4300483, -1321191.8, 212077.66, 0.00026199786, 10.001535, 9.999339 
2.0507212e+2, 1.5354776e+2, -1195265.9, -1385673.0, 65957.625, -0.031150172, 0.43621525, -1174650.1, 260624.47, 0.0000586805, 10.001848, 9.999338 
2.0506147e+2, 1.6354734e+2, -1042290.56, -1174413.5, 130783.82, -0.07199812, 0.4298871, -961830.6, 375446.44, 0.0000033794695, 10.001858, 10.000111 
2.0505348e+2, 1.7354669e+2, -1027384.8, -1111613.1, 85710.484, 0.026735261, 0.33367103, -974000.9, 265276.78, 0.0000000004928599, 10.001265, 10.000156 
2.0504448e+2, 1.8354617e+2, -1059507.0, -1158244.8, 31407.736, 0.062679164, 0.30118576, -1050363.3, 90916.36, 0.0, 10.000725, 9.999424 
2.0503362e+2, 1.9354604e+2, -1031926.9, -1117034.3, 43614.49, -0.024037324, 0.34655166, -1013545.9, 29736.71, 0.0, 10.000336, 9.999224 
2.0502354e+2, 2.0354542e+2, -1004523.44, -1088171.1, 110558.15, -0.06374824, 0.37974235, -928142.6, 17146.904, 0.0, 10.000005, 9.998907 
2.0501491e+2, 2.13544e+2, -958762.75, -1028952.56, 155184.6, -0.021305235, 0.34294176, -834754.2, 12549.13, 0.0, 9.999704, 9.998786 
2.0500565e+2, 2.2354288e+2, -806758.3, -760980.4, 117841.46, 0.0110364035, 0.30184686, -663825.56, 85487.67, 0.0, 9.999458, 10.000068 
2.0499526e+2, 2.3354241e+2, -716347.0, -650778.7, 50583.887, 0.02228746, 0.21908875, -623284.06, 28031.365, 0.0, 9.999334, 10.000216 
2.0498519e+2, 2.4354237e+2, -749029.56, -763201.9, 66600.87, 0.033226267, 0.25203022, -689138.94, -135822.23, 0.0, 9.999072, 9.998895 
2.0497575e+2, 2.535431e+2, -736621.6, -739437.75, 113373.61, 0.048154134, 0.44458705, -624647.3, -169331.72, 0.0, 9.998627, 9.9986 
2.0496607e+2, 2.6354313e+2, -598652.8, -515927.47, 97937.74, 0.09204174, 0.5515994, -450976.1, -93657.41, 0.0, 9.998445, 9.999551 
2.0495573e+2, 2.7354172e+2, -453427.5, -383344.66, 100729.93, 0.17734312, 0.42797694, -311735.16, -52403.59, 0.0, 9.998715, 9.999658 
2.0494388e+2, 2.835407e+2, -331061.8, -232952.72, 109282.17, 0.09807405, 0.3535339, -162220.2, -880.1104, 0.0, 9.998713, 10.000019 
2.049299e+2, 2.9354152e+2, -294035.3, -156865.19, 81770.63, -0.20715213, 0.41451144, -118724.68, -55393.145, 0.0000000026409164, 9.998263, 10.000084 
2.0491964e+2, 3.0354264e+2, -268740.8, -50138.727, 6997.8833, -0.10015484, 0.48658895, -49914.94, -49914.94, 0.000001406237, 9.997804, 10.0007105 
2.0490918e+2, 3.1354183e+2, -340375.47, -81526.69, 15068.577, 0.08624649, 0.3303405, -80652.445, -80652.445, 0.000015573223, 9.997284, 10.000738 
2.1510652e+2, 1.2356423e+2, -1150258.1, -1581591.9, 18165.277, -0.11905803, 0.49548927, -1149494.5, 579617.9, 0.0010310514, 10.004451, 9.998766 
2.1509519e+2, 1.3356155e+2, -1367461.4, -1718193.1, 32497.64, -0.10376589, 0.41426808, -1364475.8, 266661.22, 0.00057646574, 10.002658, 9.99802 
2.1508498e+2, 1.4355993e+2, -1309289.0, -1447362.6, 55572.598, -0.0025656924, 0.3777013, -1289700.9, 243451.2, 0.00022762635, 10.00155, 9.999734 
2.1507312e+2, 1.5356025e+2, -1156859.3, -1306902.0, 82587.7, -0.1262477, 0.40742987, -1120305.9, 314842.3, 0.000048750117, 10.001853, 9.999876 
2.1506274e+2, 1.6355996e+2, -1121453.8, -1335549.3, 108365.37, -0.13916332, 0.4284576, -1076178.6, 260971.92, 0.000002474108, 10.001842, 9.999013 
2.150549e+2, 1.7355828e+2, -1125088.1, -1309936.9, 66028.39, 0.033715535, 0.36380512, -1103925.5, 135240.78, 0.000000000052014764, 10.001247, 9.998801 
2.1504547e+2, 1.8355715e+2, -1040112.44, -1113247.1, 12690.389, 0.08203289, 0.33471516, -1037972.94, 103203.65, 0.0, 10.000702, 9.999746 
2.1503335e+2, 1.9355714e+2, -989300.9, -1025846.06, 34155.13, -0.09237534, 0.3340018, -968837.7, 74338.445, 0.0, 10.000323, 9.999856 
2.1502288e+2, 2.0355713e+2, -933292.1, -935120.3, 95686.05, -0.1393152, 0.34593838, -838515.8, 106658.88, 0.0, 9.999982, 9.999968 
2.150153e+2, 2.1355714e+2, -882196.7, -863103.56, 146961.03, 0.03874557, 0.33845237, -725379.3, 121792.06, 0.0, 9.999674, 9.999938 
2.1500626e+2, 2.2355698e+2, -888991.7, -924591.5, 108409.54, 0.118474, 0.37206176, -796930.5, -47757.71, 0.0, 9.999426, 9.998961 
2.1499462e+2, 2.3355651e+2, -825059.75, -868370.44, 50822.07, 0.018915275, 0.43372816, -791471.7, -140289.88, 0.0, 9.999301, 9.998736 
2.1498366e+2, 2.4355564e+2, -694341.44, -647289.5, 47470.44, -0.036127966, 0.43599075, -617835.1, -64642.645, 0.0, 9.999062, 9.999698 
2.1497394e+2, 2.5355425e+2, -657143.94, -565449.5, 99199.38, -0.004672256, 0.30233642, -502015.06, -46810.895, 0.0, 9.998588, 9.999814 
2.1496437e+2, 2.6355392e+2, -566369.4, -442610.06, 102372.4, 0.07231148, 0.27956563, -384868.66, -27662.24, 0.0, 9.998419, 10.000065 
2.1495487e+2, 2.7355507e+2, -431740.34, -332800.84, 115548.805, 0.20779409, 0.37608063, -256577.39, 2618.0889, 0.0, 9.998692, 10.000015 
2.1494351e+2, 2.8355527e+2, -377564.2, -328234.22, 91254.805, 0.18209884, 0.42740536, -258369.84, -97174.68, 0.0, 9.99871, 9.999367 
2.1492952e+2, 2.9355466e+2, -355773.84, -284105.78, 66220.15, -0.080777474, 0.42858544, -244645.81, -181441.31, 0.000000034055795, 9.998256, 9.999217 
2.1491879e+2, 3.0355522e+2, -299183.1, -110563.85, -13694.148, 0.029606909, 0.51564175, -109574.81, -109574.81, 0.0000015569075, 9.997794, 10.000299 
2.1490702e+2, 3.13554e+2, -336203.84, -63852.55, 16975.295, 0.120300315, 0.34255597, -62798.582, -62798.582, 0.000013189906, 9.997247, 10.000878 
2.2511011e+2, 1.2357641e+2, -1442652.0, -1704906.6, 2355.2925, -0.09502932, 0.46293902, -1442630.9, 286360.03, 0.00090860366, 10.00236, 9.998926 
2.2509763e+2, 1.335741e+2, -1336349.4, -1676674.9, 34579.266, -0.12853251, 0.3942431, -1332871.5, 298138.66, 0.0005009662, 10.002763, 9.998249 
2.2508696e+2, 1.435722e+2, -1169238.0, -1437019.6, 74998.125, -0.01884512, 0.33754084, -1149663.9, 383363.97, 0.00019284802, 10.002757, 9.999227 
2.2507536e+2, 1.5357207e+2, -1171524.8, -1387300.6, 15585.816, -0.09543181, 0.38495854, -1170404.8, 264626.53, 0.00003945687, 10.002066, 9.999228 
2.2506486e+2, 1.635717e+2, -1148364.6, -1319299.8, 33248.207, -0.09270637, 0.42626235, -1142125.3, 194910.3, 0.0000019469612, 10.001531, 9.999276 
2.2505619e+2, 1.735706e+2, -1100469.4, -1255266.8, 110404.75, 0.040325683, 0.38077936, -1043035.6, 196009.06, 0.0, 10.00123, 9.999189 
2.2504623e+2, 1.8356976e+2, -997450.94, -1099947.8, 132525.63, 0.073629335, 0.36043176, -906609.8, 234442.4, 0.0, 10.001026, 9.99968 
2.250341e+2, 1.9356956e+2, -918481.7, -1008651.06, 92459.914, -0.075148575, 0.35323936, -860700.1, 182354.86, 0.0, 10.00089, 9.999699 
2.2502354e+2, 2.0356937e+2, -829807.56, -863625.8, 93915.58, -0.09923426, 0.35015664, -751291.06, 193764.4, 0.0, 10.000601, 10.000162 
2.2501571e+2, 2.1356924e+2, -806994.25, -797633.94, 71076.24, 0.095987, 0.3041056, -731083.94, 115968.195, 0.0, 10.000067, 10.000198 
2.2500646e+2, 2.2356917e+2, -851269.9, -934979.3, 43345.258, 0.17862926, 0.34322944, -832869.9, -83817.65, 0.0, 9.999808, 9.998706 
2.2499466e+2, 2.3356912e+2, -748361.5, -870974.56, 64476.895, 0.060945183, 0.4809073, -720697.5, -69638.555, 0.0, 9.999996, 9.9983835 
2.2498336e+2, 2.4356823e+2, -575948.9, -578624.3, 73683.914, -0.0062866607, 0.49525568, -503590.53, 49480.117, 0.0, 9.999824, 9.999801 
2.2497298e+2, 2.53566e+2, -574032.1, -505350.78, 39480.957, 0.019967813, 0.26109535, -487365.28, -32276.059, 0.0, 9.99907, 9.999994 
2.2496283e+2, 2.6356554e+2, -522019.06, -378757.1, 24164.838, 0.07298083, 0.20052136, -374790.88, -17699.307, 0.0, 9.998542, 10.000443 
2.2495294e+2, 2.7356797e+2, -440099.78, -290859.2, 37756.29, 0.16130887, 0.37840578, -281850.97, -22782.95, 0.0, 9.998437, 10.000426 
2.249418e+2, 2.8356874e+2, -420601.88, -337578.8, 34118.95, 0.16165115, 0.4584569, -325356.66, -164294.81, 0.00000000075483947, 9.998354, 9.999477 
2.2492903e+2, 2.9356745e+2, -369952.0, -290520.84, 62904.992, 0.054432075, 0.38714293, -255843.11, -192764.97, 0.0000002669958, 9.99815, 9.999225 
2.2491796e+2, 3.0356774e+2, -303359.72, -136281.39, 36288.83, 0.16902795, 0.46000573, -128739.98, -128739.98, 0.0000027230408, 9.997855, 10.000095 
2.2490329e+2, 3.1356704e+2, -248420.84, 14453.163, 78517.445, 0.007342087, 0.35482144, 36119.64, 36119.64, 0.000014136897, 9.997672, 10.001222 
2.3511261e+2, 1.2358766e+2, -1403070.8, -1627087.9, 8982.351, -0.10099741, 0.33878472, -1402711.1, 326165.72, 0.00078656705, 10.002382, 9.99945 
2.351003e+2, 1.3358673e+2, -1286225.4, -1578804.0, 47826.195, -0.1472445, 0.342961, -1278606.0, 352274.0, 0.000426009, 10.002787, 9.998911 
2.3509e+2, 1.4358482e+2, -1266659.0, -1636400.8, 48421.19, 0.00089148455, 0.30539423, -1260422.9, 272475.78, 0.0001592594, 10.002746, 9.997864 
2.3507865e+2, 1.5358317e+2, -1289086.6, -1634476.9, -8018.03, 0.014098012, 0.3716373, -1288900.6, 146023.06, 0.00003147824, 10.002079, 9.997525 
2.3506764e+2, 1.635826e+2, -1042032.3, -1095376.3, 16179.088, 0.023569634, 0.42356446, -1037508.8, 299423.06, 0.000001752053, 10.001516, 10.000822 
2.3505722e+2, 1.7358361e+2, -950470.7, -943384.4, 102550.66, 0.012801264, 0.38083383, -844315.7, 394597.88, 0.0000000001389195, 10.001226, 10.001333 
2.3504661e+2, 1.8358395e+2, -1038373.3, -1175961.0, 122588.59, 0.0017649155, 0.37585008, -966594.9, 174312.13, 0.0, 10.000989, 9.999177 
2.3503572e+2, 1.9358319e+2, -985421.8, -1144630.5, 89258.91, -0.011864341, 0.40693963, -945426.8, 97492.92, 0.0, 10.000876, 9.998773 
2.3502538e+2, 2.0358205e+2, -879856.9, -959330.75, 71624.62, 0.01566095, 0.38807046, -837684.7, 107247.99, 0.0, 10.000566, 9.999521 
2.35016e+2, 2.1358033e+2, -854037.3, -885811.94, 54904.5, 0.109247595, 0.2400395, -812767.75, 34177.527, 0.0, 10.000025, 9.999612 
2.3500611e+2, 2.2357953e+2, -817724.44, -855553.0, 44588.52, 0.15514345, 0.21634099, -788204.4, -39253.043, 0.0, 9.999767, 9.999271 
2.3499529e+2, 2.335803e+2, -699084.44, -761250.56, 75737.03, 0.11509295, 0.3639225, -648300.2, 2646.4795, 0.0, 9.999966, 9.999152 
2.3498419e+2, 2.435801e+2, -619958.4, -666683.56, 46401.785, 0.08362095, 0.4300797, -591369.7, -38418.15, 0.0, 9.999808, 9.999204 
2.3497276e+2, 2.5357834e+2, -637572.7, -629964.2, 13165.1, 0.08149031, 0.32058457, -620064.7, -165093.16, 0.0, 9.999039, 9.999153 
2.3496133e+2, 2.6357806e+2, -506793.66, -341797.16, 13571.323, 0.06223077, 0.31601992, -340688.34, 16286.32, 0.0, 9.998522, 10.000705 
2.349498e+2, 2.7358025e+2, -412258.75, -223131.69, 38678.938, -0.005024583, 0.4304834, -215527.11, 43422.875, 0.0, 9.998397, 10.000908 
2.3493858e+2, 2.8358108e+2, -361714.2, -211244.06, 24667.87, -0.0055545955, 0.4473438, -207303.27, -46362.867, 0.00000003119879, 9.998335, 10.000356 
2.349283e+2, 2.9357988e+2, -308747.03, -159484.33, 57567.945, 0.1555391, 0.29071194, -139861.2, -76908.516, 0.00000087505157, 9.998129, 10.000138 
2.3491703e+2, 3.035802e+2, -301184.22, -126724.336, 25639.457, 0.28094718, 0.31808034, -123034.29, -123034.29, 0.0000050395365, 9.997838, 10.000168 
2.3489766e+2, 3.1358105e+2, -214347.63, 99087.77, 96542.65, -0.34021643, 0.3662099, 126437.78, 126437.78, 0.00001767749, 9.99762, 10.001826 
2.4511617e+2, 1.23599485e+2, -1175979.5, -1561528.0, 31407.775, -0.06520375, 0.2556544, -1173437.8, 555319.2, 0.0006697947, 10.004134, 9.99906 
2.4510323e+2, 1.3359886e+2, -1178048.5, -1555586.6, -12228.119, -0.17437091, 0.31829876, -1177652.9, 453105.94, 0.00035362015, 10.003653, 9.998659 
2.450924e+2, 1.4359675e+2, -1235063.9, -1633055.6, -24738.514, -0.04312465, 0.28148842, -1233532.1, 299248.2, 0.00012732633, 10.003017, 9.997753 
2.4508049e+2, 1.5359491e+2, -1272434.5, -1637468.4, 24311.598, -0.01422799, 0.33614975, -1270822.5, 163984.53, 0.000024660334, 10.002251, 9.997419 
2.4506888e+2, 1.6359419e+2, -1038849.6, -1103427.6, 79777.29, -0.005741888, 0.38332397, -985074.7, 351742.44, 0.0000015995058, 10.00158, 10.000733 
2.4505782e+2, 1.7359525e+2, -994050.2, -976586.56, -656.4243, -0.03490986, 0.3550337, -976561.9, 262238.22, 0.0000000006420841, 10.0009775, 10.0012245 
2.4504709e+2, 1.8359582e+2, -1100592.9, -1177750.4, -38855.29, -0.019516563, 0.3708783, -1084417.1, 56374.746, 0.0, 10.000442, 9.999428 
2.4503696e+2, 1.935956e+2, -1094434.4, -1163642.6, 11388.505, 0.07192476, 0.4223917, -1092608.5, -49809.492, 0.0, 9.999983, 9.999072 
2.4502648e+2, 2.0359473e+2, -993897.1, -1041459.3, 73229.164, 0.10634593, 0.42313522, -940684.4, 4125.2095, 0.0, 9.9999, 9.999279 
2.4501553e+2, 2.1359289e+2, -831719.06, -913488.44, 68891.64, 0.047672752, 0.29829815, -792493.75, 54331.17, 0.0, 10.000347, 9.999269 
2.4500492e+2, 2.2359173e+2, -708471.94, -771108.5, 59372.168, 0.03390445, 0.24786891, -672664.3, 76170.086, 0.0, 10.00038, 9.999557 
2.4499486e+2, 2.3359181e+2, -712854.94, -722847.25, 56644.965, 0.093579754, 0.28559992, -660986.2, -10152.467, 0.0, 9.9996805, 9.999553 
2.4498408e+2, 2.4359183e+2, -701908.56, -692860.7, 37915.58, 0.12479448, 0.34384438, -659200.1, -106364.69, 0.0, 9.99919, 9.999323 
2.4497217e+2, 2.5359172e+2, -612863.94, -610329.7, 64721.42, 0.11419502, 0.39309916, -546863.0, -92022.07, 0.0, 9.999175, 9.999226 
2.449603e+2, 2.6359183e+2, -444038.13, -343756.0, 98646.77, 0.07986756, 0.43576914, -283238.53, 73602.46, 0.0, 9.999082, 10.000427 
2.4494836e+2, 2.735924e+2, -373215.6, -242383.88, 59680.56, -0.0066997535, 0.41993216, -219250.3, 39581.457, 0.0, 9.998824, 10.000574 
2.4493666e+2, 2.8359258e+2, -352736.9, -184709.72, -16039.165, -0.025951298, 0.38649827, -183192.39, -22364.916, 0.00000009380251, 9.998309, 10.0005455 
2.4492563e+2, 2.9359227e+2, -400546.03, -171640.89, -47683.57, 0.11528716, 0.29101866, -162105.11, -99274.73, 0.0000015673739, 9.99737, 10.000416 
2.4491431e+2, 3.0359244e+2, -411035.47, -169639.97, -67726.1, 0.26928475, 0.2815183, -151936.95, -151936.95, 0.000007492646, 9.997043, 10.000258 
2.4489655e+2, 3.1359357e+2, -144021.52, 184575.38, 14472.442, -0.22027734, 0.34779695, 185211.55, 185211.55, 0.000021673697, 9.997891, 10.002276 
2.5512058e+2, 1.2361185e+2, -1260539.3, -1742426.4, 6598.7974, -0.058812547, 0.21505474, -1260448.9, 468182.44, 0.00056044967, 10.004149, 9.997814 
2.5510627e+2, 1.336105e+2, -1253404.6, -1713365.3, -30234.012, -0.2421754, 0.3169778, -1251425.9, 379220.34, 0.00028575517, 10.003656, 9.997577 
2.5509414e+2, 1.436081e+2, -1163664.0, -1480544.3, -54902.66, -0.17957076, 0.2656752, -1154421.3, 378250.44, 0.000097906326, 10.002998, 9.99881 
2.5508073e+2, 1.5360719e+2, -1170778.1, -1426928.8, -20.742022, -0.22368564, 0.27224246, -1170778.1, 263903.94, 0.000018480354, 10.002252, 9.998862 
2.5506842e+2, 1.6360638e+2, -1162409.1, -1356577.5, 53288.617, -0.21844067, 0.30117366, -1148745.9, 187946.55, 0.0000013062046, 10.001566, 9.999004 
2.5505784e+2, 1.7360559e+2, -1150265.3, -1301692.5, -20000.813, -0.13994189, 0.31063494, -1147668.0, 91035.54, 0.000000000635992, 10.000985, 9.998988 
2.5504753e+2, 1.8360555e+2, -1031318.0, -1033382.25, -58638.008, -0.028130492, 0.3498797, -973703.0, 167002.72, 0.0, 10.000436, 10.000424 
2.5503767e+2, 1.9360676e+2, -986764.2, -938693.56, -1396.1512, 0.13528433, 0.39662716, -938653.06, 104039.73, 0.0, 9.999974, 10.000621 
2.550268e+2, 2.0360734e+2, -992316.75, -1030675.44, 83291.484, 0.14026973, 0.4490135, -926024.94, 18661.838, 0.0, 9.9998665, 9.999371 
2.550142e+2, 2.1360682e+2, -844174.2, -935148.56, 90101.47, -0.12816396, 0.47006825, -788728.94, 57963.25, 0.0, 10.000326, 9.999131 
2.550028e+2, 2.236057e+2, -711307.2, -769709.8, 34883.617, -0.22607698, 0.429843, -695015.9, 53686.68, 0.0, 10.000349, 9.999581 
2.549933e+2, 2.3360363e+2, -713869.94, -716623.06, 32853.543, -0.03785074, 0.24456736, -682364.1, -31643.48, 0.0, 9.999643, 9.999614 
2.5498292e+2, 2.4360335e+2, -645576.06, -572076.06, 31050.61, 0.07992916, 0.23554435, -560714.7, -7992.1553, 0.0, 9.999175, 10.000159 
2.549711e+2, 2.5360608e+2, -548874.7, -471912.22, 67319.58, 0.07991847, 0.4738041, -432851.66, 21846.123, 0.0, 9.999147, 10.000191 
2.5495958e+2, 2.6360682e+2, -506325.13, -466842.88, 87768.34, 0.09323302, 0.5587968, -396622.94, -39931.945, 0.0, 9.999058, 9.999594 
2.5494856e+2, 2.7360427e+2, -458832.13, -410780.97, 54217.332, 0.12003028, 0.34421766, -375504.38, -116790.53, 0.0, 9.998782, 9.99944 
2.549359e+2, 2.8360322e+2, -394421.3, -264459.72, -52586.734, 0.057472944, 0.2735691, -245847.03, -85123.336, 0.00000013915765, 9.998284, 10.000008 
2.5492078e+2, 2.9360455e+2, -437579.5, -236746.47, -82991.195, -0.11270887, 0.38572028, -206890.13, -144177.45, 0.0000020008988, 9.997318, 9.999994 
2.5490966e+2, 3.0360425e+2, -408105.47, -153819.8, -48576.305, 0.09400783, 0.34889382, -144856.22, -144856.22, 0.000009108913, 9.997007, 10.000381 
2.5489998e+2, 3.1360424e+2, -129976.96, 221063.25, 70111.2, 0.31076038, 0.2876919, 234548.14, 234548.14, 0.000024996654, 9.997864, 10.002541 
2.6512408e+2, 1.23625025e+2, -1265405.5, -1766571.8, -24012.256, -0.122297116, 0.27050352, -1264257.6, 464246.06, 0.0004624542, 10.004213, 9.997607 
2.6510957e+2, 1.3362347e+2, -1372398.8, -1773254.4, -4054.247, -0.23365627, 0.35161662, -1372357.8, 258164.19, 0.00022622835, 10.002845, 9.997555 
2.650971e+2, 1.4362101e+2, -1278150.5, -1488426.0, 28463.78, -0.12873717, 0.28128302, -1274365.8, 258181.33, 0.000072718096, 10.002008, 9.999232 
2.6508316e+2, 1.5362048e+2, -1137042.6, -1355736.4, 11490.053, -0.20402285, 0.2766228, -1136440.6, 298110.0, 0.000013218284, 10.002246, 9.999354 
2.6507026e+2, 1.6361979e+2, -1119224.5, -1391337.8, 56408.52, -0.2159625, 0.30998483, -1107994.5, 228564.45, 0.0000010267595, 10.002099, 9.998513 
2.6505893e+2, 1.736187e+2, -1157571.6, -1377906.5, 91531.13, -0.13859235, 0.3534989, -1124509.1, 114067.23, 0.0000000012219834, 10.0012455, 9.9983425 
2.6504803e+2, 1.8361822e+2, -974389.8, -1029717.5, 112993.95, -0.044920783, 0.39531982, -885722.56, 254862.06, 0.0, 10.000933, 10.000208 
2.650378e+2, 1.9361883e+2, -775855.9, -856153.94, 43298.582, 0.07838237, 0.39899367, -756956.56, 285620.1, 0.0, 10.001505, 10.000451 
2.650269e+2, 2.036193e+2, -762208.25, -904686.56, 48160.027, 0.089000225, 0.4450048, -747456.7, 197114.63, 0.0, 10.001393, 9.999495 
2.6501474e+2, 2.136195e+2, -866332.3, -928387.75, 66770.78, -0.09452395, 0.5201263, -823732.2, 22838.557, 0.0, 10.000104, 9.999282 
2.6500314e+2, 2.236188e+2, -845135.7, -815517.5, 39690.79, -0.17217614, 0.5057748, -787963.06, -39385.793, 0.0, 9.99935, 9.999747 
2.649926e+2, 2.3361677e+2, -717693.4, -701031.5, 37482.77, -0.06418898, 0.31042475, -670965.0, -20371.031, 0.0, 9.999541, 9.99977 
2.649816e+2, 2.4361639e+2, -566048.06, -517081.34, 31257.67, 0.009384403, 0.2765054, -501859.84, 50735.797, 0.0, 9.999653, 10.000305 
2.6496992e+2, 2.536188e+2, -470419.53, -412937.2, 4454.1904, 0.026905224, 0.4671061, -412594.1, 41978.14, 0.0, 9.99961, 10.000364 
2.6495865e+2, 2.6361915e+2, -474688.7, -480056.94, 4299.099, 0.07848045, 0.51190406, -472304.6, -115736.03, 0.0, 9.999401, 9.999334 
2.6494804e+2, 2.736162e+2, -460848.1, -445263.9, 22360.06, 0.1877731, 0.2878359, -429377.13, -170781.05, 0.0, 9.998921, 9.99913 
2.649351e+2, 2.8361514e+2, -345451.3, -301756.22, -35214.71, 0.12639435, 0.25984585, -282162.34, -121555.55, 0.00000017298198, 9.998875, 9.999472 
2.6491842e+2, 2.93617e+2, -164619.27, -162099.75, -81317.05, -0.18129884, 0.4796503, -82032.71, -19440.385, 0.0000022405377, 9.999435, 9.999487 
2.6490664e+2, 3.0361587e+2, -123547.46, -31417.752, -60903.992, -0.0028167788, 0.3926459, -1119.8744, -1119.8744, 0.00001010162, 9.999007, 10.000267 
2.648988e+2, 3.1361508e+2, -279731.66, 120757.2, 38884.918, 0.45545894, 0.26136988, 124497.74, 124497.74, 0.00002797797, 9.996938, 10.002303 
2.7512646e+2, 1.2363882e+2, -1219168.8, -1658459.0, -72962.984, -0.32739118, 0.41135097, -1207367.1, 521008.25, 0.00037988625, 10.004162, 9.998373 
2.7511287e+2, 1.3363762e+2, -1297004.0, -1615844.9, -58569.645, -0.19558908, 0.42154804, -1286585.5, 343801.25, 0.00017814184, 10.002846, 9.99863 
2.7510116e+2, 1.436355e+2, -1291829.0, -1520217.8, 23547.96, 0.06605595, 0.33086094, -1289426.4, 242980.52, 0.000053026073, 10.002018, 9.999014 
2.750876e+2, 1.5363482e+2, -1164286.8, -1414913.8, 24076.488, 0.0040451945, 0.35225624, -1161994.8, 272417.84, 0.000009282913, 10.002257, 9.998944 
2.7507418e+2, 1.6363445e+2, -1067513.1, -1282364.3, 25661.785, -0.04107273, 0.41180906, -1064490.6, 271926.1, 0.0000008660051, 10.002093, 9.999262 
2.750609e+2, 1.736345e+2, -1094581.3, -1242812.8, 61822.297, -0.07644175, 0.47681072, -1072182.0, 166237.56, 0.000000004874734, 10.00123, 9.999273 
2.750484e+2, 1.8363376e+2, -1082620.4, -1246772.0, 123863.945, -0.10917212, 0.50293756, -1016107.1, 124322.62, 0.0, 10.0009, 9.998733 
2.7503723e+2, 1.9363186e+2, -908086.3, -1124549.5, 68911.56, -0.13757613, 0.4340397, -888010.1, 154440.16, 0.0, 10.001483, 9.998616 
2.7502665e+2, 2.0363075e+2, -755695.4, -886022.2, 5954.458, -0.080401205, 0.42271626, -755423.94, 189038.19, 0.0, 10.001368, 9.999638 
2.7501696e+2, 2.136309e+2, -838853.5, -862567.3, 22246.139, 0.10937426, 0.44921836, -825501.75, 20958.783, 0.0, 10.000065, 9.999753 
2.750059e+2, 2.2363101e+2, -833562.8, -782680.75, 36634.51, 0.1604435, 0.47747293, -763519.9, -15061.27, 0.0, 9.99931, 9.999993 
2.7499261e+2, 2.3363113e+2, -706975.8, -671609.6, 48932.24, -0.020890504, 0.47625345, -637263.4, 13191.508, 0.0, 9.999509, 9.999989 
2.7497998e+2, 2.4363084e+2, -605774.06, -594304.9, 27915.486, -0.122870095, 0.46110472, -571541.06, -19085.313, 0.0, 9.999632, 9.9997835 
2.7496848e+2, 2.5362977e+2, -520636.75, -511175.1, 5012.4033, -0.085092634, 0.36479455, -509013.53, -54548.156, 0.0, 9.999578, 9.999706 
2.7495733e+2, 2.6362872e+2, -455729.28, -431264.16, -15739.842, -0.0007264196, 0.29383865, -423562.38, -67087.95, 0.0, 9.999366, 9.999684 
2.749467e+2, 2.73628e+2, -429371.9, -374996.2, 8596.861, 0.15068936, 0.24420291, -373669.4, -115189.64, 0.00000000009324417, 9.9988985, 9.999624 
2.7493423e+2, 2.8362826e+2, -380985.6, -374093.78, -20792.217, 0.1389196, 0.33921534, -356463.88, -195985.86, 0.00000023612336, 9.998869, 9.998975 
2.7491853e+2, 2.9362953e+2, -210463.64, -256672.28, -55282.063, -0.13167012, 0.56387526, -173652.06, -111181.58, 0.0000024950837, 9.999423, 9.998846 
2.7490506e+2, 3.0362725e+2, -148135.89, -70620.17, -130736.41, -0.069923885, 0.4086241, 26982.447, 26982.447, 0.000010927285, 9.998975, 10.000002 
2.7489242e+2, 3.1362605e+2, -348045.28, 5021.293, -22011.736, 0.10504624, 0.2614614, 6388.3096, 6388.3096, 0.000030095847, 9.996835, 10.001552 
2.8513005e+2, 1.2365243e+2, -1464694.8, -1766263.0, 50495.125, -0.2914563, 0.37478536, -1456464.4, 271774.22, 0.00031135374, 10.002428, 9.9984665 
2.8511587e+2, 1.3365166e+2, -1282187.6, -1576092.8, -20271.635, -0.17444737, 0.39914086, -1280796.0, 349450.88, 0.00014022988, 10.002807, 9.998921 
2.851038e+2, 1.4364976e+2, -1188636.5, -1510271.0, 48734.637, 0.08680408, 0.3295914, -1181414.4, 350851.13, 0.000038555852, 10.002903, 9.9986515 
2.8509015e+2, 1.5364863e+2, -1137217.3, -1454111.1, 40582.29, 0.017272446, 0.35438204, -1132102.8, 302173.13, 0.000006618197, 10.002665, 9.998481 
2.8507644e+2, 1.6364793e+2, -1068908.4, -1299702.8, -12674.401, -0.023724535, 0.4120666, -1068214.5, 268069.28, 0.00000074756446, 10.002169, 9.999104 
2.850625e+2, 1.7364772e+2, -1101029.6, -1261443.5, -67759.8, -0.03651926, 0.4646088, -1076238.8, 162050.52, 0.000000006090155, 10.001253, 9.999138 
2.8504962e+2, 1.8364677e+2, -1108330.4, -1289677.5, 42207.05, -0.072055474, 0.48931608, -1098988.3, 41312.996, 0.0, 10.000856, 9.998457 
2.850385e+2, 1.936447e+2, -955560.1, -1182087.0, 99507.0, -0.14582853, 0.4352504, -918058.06, 124265.11, 0.0, 10.001303, 9.99831 
2.8502762e+2, 2.0364334e+2, -794645.94, -915599.44, 40657.62, -0.10618497, 0.4173124, -782249.6, 162088.03, 0.0, 10.001141, 9.999543 
2.8501698e+2, 2.1364312e+2, -863778.06, -880109.94, 1517.5016, 0.11491201, 0.41097718, -863638.25, -17297.96, 0.0, 9.999919, 9.9997015 
2.8500548e+2, 2.2364317e+2, -808081.7, -759963.8, 54840.293, 0.18136512, 0.43449596, -724137.1, 24201.676, 0.0, 9.999443, 10.000085 
2.8499255e+2, 2.336438e+2, -593611.8, -603176.0, 62642.914, -0.011215744, 0.4730147, -535568.75, 114760.734, 0.0, 10.000227, 10.000113 
2.8497985e+2, 2.4364355e+2, -560086.9, -625937.75, 6357.595, -0.12350981, 0.47558102, -559478.7, -7148.094, 0.0, 10.000174, 9.999307 
2.8496757e+2, 2.5364178e+2, -676122.44, -649290.2, -24510.578, -0.092533186, 0.36736035, -634764.25, -180414.56, 0.0, 9.998784, 9.999143 
2.8495568e+2, 2.6364058e+2, -607242.44, -462372.63, -9198.455, -0.03630618, 0.29959056, -461790.9, -105430.31, 0.0, 9.998139, 10.000064 
2.8494465e+2, 2.736408e+2, -424559.72, -309860.0, 13163.594, 0.069665015, 0.2888774, -308368.7, -50014.383, 0.0000000018932573, 9.998662, 10.000185 
2.849325e+2, 2.8364128e+2, -393071.3, -373734.0, 10390.305, 0.08921922, 0.37053645, -369209.66, -208861.33, 0.00000028816427, 9.998761, 9.999034 
2.8491837e+2, 2.9364163e+2, -387961.75, -334724.3, 18736.68, -0.02205011, 0.50827986, -328791.25, -266443.1, 0.0000027347362, 9.998185, 9.998903 
2.849047e+2, 3.0363902e+2, -275309.06, -170693.6, -44837.695, 0.03748997, 0.324244, -154106.34, -154106.34, 0.000011893844, 9.998248, 9.999673 
2.8488988e+2, 3.1363854e+2, -106955.61, 20812.883, 38874.965, 0.06677378, 0.2948849, 31711.387, 31711.387, 0.000031796684, 9.998926, 10.00065 
2.9513448e+2, 1.2366612e+2, -1506349.9, -1863027.3, 57313.535, -0.11580782, 0.18223709, -1497366.5, 230724.48, 0.0002524897, 10.002467, 9.997788 
2.9511842e+2, 1.3366562e+2, -1317127.9, -1651369.6, -7826.5024, -0.20897911, 0.28730226, -1316944.8, 313157.1, 0.000109538494, 10.002818, 9.998401 
2.9510492e+2, 1.4366376e+2, -1226742.5, -1585369.1, 35811.863, -0.10190429, 0.27336177, -1223201.4, 308921.94, 0.000028075765, 10.002883, 9.998148 
2.950907e+2, 1.5366201e+2, -1176481.8, -1529415.0, 34389.1, -0.20327073, 0.28573218, -1173162.1, 260978.03, 0.00000469312, 10.00264, 9.997975 
2.9507694e+2, 1.6366024e+2, -1148560.6, -1460624.0, -46399.746, -0.19881296, 0.31479132, -1141807.6, 194352.2, 0.00000054097734, 10.002149, 9.998007 
2.9506367e+2, 1.7365845e+2, -1182608.8, -1431658.8, -97765.06, -0.05432524, 0.32330352, -1148816.1, 89368.3, 0.0000000012704189, 10.00126, 9.997962 
2.9505157e+2, 1.8365733e+2, -1046531.94, -1159469.6, 48918.48, 0.027054016, 0.3579987, -1028289.7, 111908.96, 0.0, 10.000846, 9.999358 
2.950415e+2, 1.9365737e+2, -873425.06, -1007885.44, 120406.41, 0.011691512, 0.39568552, -802750.94, 239444.81, 0.0, 10.001286, 9.999515 
2.950296e+2, 2.0365699e+2, -825531.06, -969815.06, -207.73819, -0.030146437, 0.4241315, -825530.75, 118668.1, 0.0, 10.0011, 9.99919 
2.9501462e+2, 2.1365598e+2, -912202.0, -969308.0, -40548.07, -0.11958753, 0.3986066, -891162.44, -44951.07, 0.0, 9.99987, 9.999112 
2.9500172e+2, 2.2365518e+2, -818476.2, -768898.56, 70837.914, -0.14776163, 0.37108144, -718637.44, 29581.48, 0.0, 9.999391, 10.000048 
2.949923e+2, 2.3365477e+2, -599237.8, -602830.8, 96889.49, -0.067501836, 0.3035776, -504128.16, 146089.53, 0.0, 10.000177, 10.000139 
2.9498112e+2, 2.436546e+2, -591869.5, -688691.6, -39302.813, -0.02404616, 0.32846254, -577924.0, -25704.553, 0.0, 10.000157, 9.998885 
2.9496694e+2, 2.536547e+2, -714225.4, -725176.56, -73443.04, -0.038884655, 0.46041906, -646054.1, -191827.58, 0.0, 9.998766, 9.998633 
2.949536e+2, 2.6365465e+2, -580301.5, -401463.2, -1156.0134, -0.06797103, 0.5159689, -401455.72, -45227.047, 0.0, 9.998118, 10.000492 
2.9494163e+2, 2.7365452e+2, -389175.8, -230129.03, 36458.957, -0.10809255, 0.4147823, -222169.7, 36051.094, 0.0000000016821552, 9.998631, 10.000751 
2.9492977e+2, 2.8365418e+2, -350822.03, -278425.94, -11345.254, -0.06621054, 0.35679078, -276689.66, -116471.65, 0.00000022409213, 9.998732, 9.9997015 
2.9491785e+2, 2.9365325e+2, -343844.03, -236809.33, 5268.076, 0.09651651, 0.2981447, -236550.67, -174324.02, 0.0000026529046, 9.998153, 9.999594 
2.9490545e+2, 3.036511e+2, -303556.94, -219528.55, -23848.127, 0.27972877, 0.1293725, -213232.02, -213232.02, 0.000012290724, 9.998212, 9.999351 
2.9489082e+2, 3.1365246e+2, -182920.25, -133927.95, 81519.48, 0.24393691, 0.3377487, -73303.68, -73303.68, 0.000033071607, 9.998913, 9.999592 
3.0513915e+2, 1.23679385e+2, -1241497.3, -1801310.8, -34573.563, 0.00254702, 0.065335274, -1239370.1, 488585.72, 0.00020166399, 10.00458, 9.997196 
3.0512142e+2, 1.3367908e+2, -1358532.3, -1730413.3, -123766.35, -0.18284397, 0.24327943, -1321107.6, 308860.28, 0.00008489224, 10.002782, 9.997881 
3.0510685e+2, 1.4367756e+2, -1361798.0, -1619269.3, -15524.083, -0.13970095, 0.27929413, -1360865.4, 171121.61, 0.00002050689, 10.001827, 9.998423 
3.0509287e+2, 1.5367554e+2, -1187292.4, -1493876.9, 39580.04, -0.23380011, 0.22655264, -1182265.0, 251739.27, 0.0000030775127, 10.002389, 9.99834 
3.0507922e+2, 1.6367348e+2, -1105203.3, -1512273.5, -3949.4583, -0.21353821, 0.23473528, -1105164.9, 230861.45, 0.0000002653173, 10.002753, 9.997361 
3.0506575e+2, 1.736715e+2, -1018813.9, -1438507.4, -33587.504, -0.0434869, 0.30280584, -1016142.9, 221912.81, 0.0, 10.002756, 9.997193 
3.0505323e+2, 1.8367024e+2, -848808.06, -1045856.0, 107974.6, 0.04799711, 0.36078936, -801162.7, 338909.9, 0.0, 10.00213, 9.999519 
3.050424e+2, 1.9367021e+2, -969329.4, -1019321.8, 103434.43, 0.016468978, 0.36220336, -887913.7, 154155.03, 0.0, 10.000481, 9.999824 
3.0502987e+2, 2.036699e+2, -1020624.4, -1067251.5, -23766.746, -0.043484475, 0.38174853, -1010645.56, -66575.46, 0.0, 9.999775, 9.999162 
3.050145e+2, 2.1366923e+2, -810086.75, -930067.7, -31463.902, -0.1524019, 0.39637703, -802336.25, 43743.477, 0.0, 10.00061, 9.999028 
3.050013e+2, 2.2366835e+2, -668479.06, -723838.2, 96825.51, -0.18318003, 0.37577462, -595454.44, 152633.7, 0.0, 10.000536, 9.999805 
3.0499172e+2, 2.336672e+2, -797939.56, -726128.9, 90731.26, -0.07803375, 0.2583468, -664456.8, -14362.633, 0.0, 9.998938, 9.999886 
3.049805e+2, 2.4366671e+2, -845251.1, -805620.44, -22363.096, -0.009224133, 0.2665804, -795556.75, -243458.05, 0.0, 9.998399, 9.998928 
3.0496648e+2, 2.5366738e+2, -573435.3, -643846.2, -15419.713, -0.0056839203, 0.44384524, -570206.56, -116106.07, 0.0, 9.9996805, 9.998748 
3.049529e+2, 2.6366755e+2, -302191.38, -298198.88, 65365.566, -0.049251564, 0.52685446, -234799.08, 121301.58, 0.0, 10.00016, 10.000219 
3.0494016e+2, 2.7366695e+2, -308000.94, -228986.47, 28614.256, -0.15189058, 0.4139578, -219712.6, 38385.145, 0.00000000014964384, 9.999353, 10.000411 
3.0492803e+2, 2.836662e+2, -362090.72, -274804.66, -83461.83, -0.10338214, 0.32748345, -224263.88, -64164.33, 0.00000013461268, 9.998619, 9.999775 
3.0491674e+2, 2.9366517e+2, -354500.9, -225877.31, -117018.88, 0.18220328, 0.24181817, -156662.25, -94552.86, 0.0000024042524, 9.998022, 9.999725 
3.0490437e+2, 3.0366397e+2, -285205.22, -167521.06, -91916.734, 0.35768187, 0.14690547, -117225.26, -117225.26, 0.000011913728, 9.998147, 9.999743 
3.0488944e+2, 3.1366605e+2, -147133.5, -100729.17, 77732.53, 0.21305113, 0.38755935, -42809.9, -42809.9, 0.0000326923, 9.999073, 9.999754 
3.151438e+2, 1.2369223e+2, -1278938.0, -1872982.6, -95153.67, -0.008817961, 0.01753313, -1264068.5, 463763.84, 0.00016123151, 10.004558, 9.996714 
3.1512478e+2, 1.3369226e+2, -1389391.1, -1797751.0, -189135.38, -0.13478243, 0.27499923, -1315251.8, 314591.13, 0.00006639979, 10.002803, 9.997408 
3.151094e+2, 1.4369132e+2, -1293192.9, -1483066.0, -8725.366, -0.07485137, 0.35689017, -1292792.8, 239062.39, 0.000015182977, 10.00185, 9.999347 
3.1509644e+2, 1.5368913e+2, -1106555.4, -1327504.1, 64487.098, -0.12360143, 0.17424425, -1089111.1, 344757.5, 0.0000017051648, 10.002393, 9.999481 
3.150831e+2, 1.6368748e+2, -1119859.3, -1537800.5, -7110.8247, -0.11069479, 0.16584939, -1119738.3, 216146.2, 0.000000057148895, 10.00273, 9.997198 
3.1506857e+2, 1.7368682e+2, -1047398.44, -1492551.3, -31055.71, -0.0439783, 0.39961863, -1045242.25, 192661.48, 0.0, 10.002735, 9.996832 
3.1505445e+2, 1.8368551e+2, -891413.56, -1131846.5, 50585.12, -0.050848182, 0.49970648, -881204.4, 258718.72, 0.0, 10.002114, 9.998939 
3.1504112e+2, 1.936832e+2, -1014352.9, -1107116.8, 44408.227, -0.16822287, 0.3338666, -996521.3, 45421.03, 0.0, 10.000454, 9.999234 
3.1502834e+2, 2.0368207e+2, -1005109.94, -1024506.44, -8890.09, -0.17993255, 0.28979835, -1001651.8, -57700.086, 0.0, 9.999731, 9.999476 
3.1501648e+2, 2.1368288e+2, -785035.6, -868574.3, 4368.4453, -0.02429599, 0.40989193, -784807.8, 61137.22, 0.0, 10.00057, 9.99947 
3.1500402e+2, 2.2368273e+2, -702418.4, -787382.9, 45158.297, 0.028642932, 0.45578933, -682900.5, 65045.31, 0.0, 10.000506, 9.999384 
3.1499067e+2, 2.3368098e+2, -841928.4, -810379.4, 33999.043, -0.08526747, 0.33436695, -788673.6, -138714.1, 0.0, 9.998904, 9.999327 
3.1497788e+2, 2.436798e+2, -807617.8, -724896.94, 7812.9937, -0.12216068, 0.28262067, -724165.44, -172196.03, 0.0, 9.998388, 9.999487 
3.1496596e+2, 2.5367978e+2, -525641.75, -537391.06, 35702.98, -0.031139696, 0.31652397, -495333.34, -41361.773, 0.0, 9.999649, 9.999495 
3.1495354e+2, 2.6367933e+2, -370483.16, -439289.94, 42402.72, -0.010346357, 0.33647436, -350282.66, 5693.459, 0.0, 10.000155, 9.999255 
3.149401e+2, 2.736781e+2, -395637.03, -407134.88, 1612.2198, -0.10305997, 0.280052, -395415.25, -137429.45, 0.00000000001473293, 9.999333, 9.999199 
3.1492716e+2, 2.8367722e+2, -405438.78, -357995.75, -112481.05, -0.062876806, 0.2742424, -266762.06, -106767.9, 0.000000108201135, 9.99859, 9.999217 
3.1491482e+2, 2.9367718e+2, -392740.2, -297069.06, -135560.67, 0.17834704, 0.33650345, -201151.58, -139153.73, 0.0000022594174, 9.997984, 9.999256 
3.1490123e+2, 3.036776e+2, -204472.2, 6603.984, -62225.832, 0.22318333, 0.37681234, 23582.596, 23582.596, 0.000011524727, 9.998125, 10.000947 
3.1488532e+2, 3.136794e+2, -45472.69, 119964.125, 120547.875, -0.12950456, 0.4406165, 183444.64, 183444.64, 0.00003194629, 9.999036, 10.001286 
3.2514602e+2, 1.2370808e+2, -1594624.1, -1984418.8, 13717.792, -0.1191902, 0.14611614, -1594141.9, 133540.6, 0.00013436515, 10.002206, 9.997084 
3.251282e+2, 1.3370708e+2, -1201941.6, -1666917.4, -45349.39, -0.12225092, 0.26542425, -1197560.0, 432137.7, 0.000055119122, 10.003913, 9.99777 
3.251129e+2, 1.4370589e+2, -975762.7, -1377053.0, 114896.47, -0.026956772, 0.3213471, -945194.4, 586515.6, 0.000012140696, 10.004234, 9.998923 
3.25099e+2, 1.537034e+2, -1140145.1, -1399299.3, 58503.465, -0.10480783, 0.16079786, -1127550.3, 306178.7, 0.0000008198343, 10.002409, 9.998976 
3.250852e+2, 1.6370188e+2, -1260772.3, -1533188.6, -17582.117, -0.10493647, 0.16285828, -1259642.1, 76101.46, 0.000000004124255, 10.001458, 9.997841 
3.25071e+2, 1.737019e+2, -1104233.3, -1432911.0, 38562.56, -0.0311627, 0.38922498, -1099769.5, 137982.06, 0.0, 10.001966, 9.997614 
3.2505664e+2, 1.8370064e+2, -951866.56, -1259268.0, 122082.61, -0.041777138, 0.4878925, -909281.6, 230487.7, 0.0, 10.002128, 9.998053 
3.2504204e+2, 1.9369733e+2, -913776.3, -1186151.5, 63521.004, -0.18063974, 0.33256403, -899690.9, 142111.63, 0.0, 10.001698, 9.998091 
3.2502875e+2, 2.036955e+2, -785940.4, -931424.9, 22824.645, -0.18819588, 0.2904123, -782443.56, 161377.02, 0.0, 10.001292, 9.999363 
3.250176e+2, 2.1369627e+2, -734884.75, -839748.2, 4007.7334, 0.019388467, 0.40389705, -734731.8, 111081.18, 0.0, 10.000898, 9.99951 
3.2500505e+2, 2.2369622e+2, -706695.06, -801441.44, 5748.163, 0.085041754, 0.46042225, -706347.56, 41465.14, 0.0, 10.000524, 9.999282 
3.249902e+2, 2.3369475e+2, -655101.75, -733860.9, 15630.901, -0.08350745, 0.37757298, -652112.94, -2288.019, 0.0, 10.000238, 9.999211 
3.2497662e+2, 2.4369346e+2, -628470.56, -630387.4, 32451.873, -0.14395666, 0.31655073, -596963.0, -45127.535, 0.0, 9.999579, 9.999566 
3.2496506e+2, 2.536926e+2, -701018.0, -607652.0, 14040.348, -0.020691458, 0.25869393, -605586.3, -151744.67, 0.0, 9.998383, 9.999621 
3.249529e+2, 2.636917e+2, -725644.94, -666232.56, 14367.735, 0.02539963, 0.24434844, -662940.4, -307090.38, 0.0, 9.997963, 9.99875 
3.2493967e+2, 2.736904e+2, -513532.53, -532152.56, 12324.634, -0.05009056, 0.24444664, -507396.72, -249532.72, 0.00000000010851988, 9.998822, 9.998585 
3.249264e+2, 2.8368944e+2, -335669.1, -351565.72, -75780.53, -0.020896355, 0.27766186, -267421.2, -107545.52, 0.00000014601811, 9.99918, 9.998981 
3.2491302e+2, 2.9368952e+2, -301621.4, -274623.5, -86051.32, 0.16817257, 0.3672066, -201018.77, -139140.11, 0.000002235968, 9.998702, 9.999064 
3.2489878e+2, 3.0369017e+2, -196953.34, 5680.086, -14273.861, 0.16501705, 0.44722614, 6680.622, 6680.622, 0.000011294619, 9.9982, 10.000903 
3.2488325e+2, 3.1369096e+2, -255160.55, 60846.496, 38249.49, -0.15797336, 0.40448624, 65410.3, 65410.3, 0.000031418378, 9.99743, 10.001645 
3.3514565e+2, 1.2372678e+2, -1509254.3, -1810772.4, 71430.38, -0.3976444, 0.4463169, -1493188.3, 234319.08, 0.000120489916, 10.002223, 9.998265 
3.3513162e+2, 1.337233e+2, -1122556.4, -1500257.1, 17270.63, -0.18075866, 0.20534039, -1121768.3, 507766.3, 0.000050672905, 10.003904, 9.998918 
3.3511716e+2, 1.4372109e+2, -1100068.0, -1624725.9, 56962.387, -0.035144966, 0.16626562, -1093954.8, 437598.72, 0.000011528013, 10.004193, 9.99724 
3.3510038e+2, 1.5371843e+2, -1285132.0, -1700312.3, -7372.9746, -0.21707028, 0.1934937, -1285001.0, 148583.0, 0.00000057438905, 10.002413, 9.996905 
3.3508545e+2, 1.637167e+2, -1162258.0, -1331324.9, -11648.06, -0.23460932, 0.23258023, -1161459.3, 174143.39, 0.00000000201948, 10.001468, 9.999223 
3.35073e+2, 1.7371674e+2, -970075.2, -1155076.1, 61163.97, -0.039529953, 0.27351347, -951682.1, 285917.06, 0.0, 10.001967, 9.999522 
3.3505964e+2, 1.8371561e+2, -1040849.4, -1436461.4, 105289.664, 0.035363387, 0.32761034, -1014572.56, 125038.84, 0.0, 10.002095, 9.996853 
3.3504495e+2, 1.9371249e+2, -1033703.0, -1430096.1, 50677.926, -0.06933509, 0.35777283, -1027326.5, 14323.06, 0.0, 10.0016775, 9.996427 
3.3503088e+2, 2.0371021e+2, -828123.6, -1012584.2, 5208.8076, -0.1116166, 0.38672468, -827976.7, 115699.81, 0.0, 10.001265, 9.998818 
3.350178e+2, 2.1370934e+2, -767627.6, -896205.06, -6992.746, -0.056812607, 0.37372142, -767248.44, 78436.03, 0.0, 10.000849, 9.999145 
3.3500436e+2, 2.237087e+2, -696524.9, -770667.7, -9413.282, -0.04669394, 0.38405406, -695348.4, 52341.258, 0.0, 10.000482, 9.999514 
3.3499023e+2, 2.3370847e+2, -638192.6, -689449.3, 7519.489, -0.11074381, 0.39338157, -637112.25, 12578.228, 0.0, 10.000196, 9.999537 
3.3497658e+2, 2.4370763e+2, -655820.2, -685629.0, -11736.959, -0.11243395, 0.37418577, -651753.6, -100057.016, 0.0, 9.999571, 9.99919 
3.3496362e+2, 2.5370586e+2, -739277.5, -681923.7, -28862.023, -0.012716351, 0.2712189, -669914.2, -216203.42, 0.0, 9.99836, 9.999123 
3.3495092e+2, 2.6370457e+2, -734003.5, -678681.8, 33713.613, 0.024442945, 0.2509417, -662733.8, -307011.0, 0.0, 9.997942, 9.998674 
3.349387e+2, 2.7370378e+2, -516266.47, -531363.25, 48562.62, -0.03745094, 0.3044424, -474669.1, -216935.98, 0.000000000044508567, 9.998793, 9.998604 
3.3492568e+2, 2.8370288e+2, -329118.8, -336925.6, -90381.42, -0.01966593, 0.33292738, -242556.52, -82812.39, 0.00000018850986, 9.999174, 9.999085 
3.349112e+2, 2.937022e+2, -299765.3, -270487.7, -99294.266, 0.10422948, 0.33428088, -184758.94, -123007.555, 0.0000021997091, 9.998696, 9.999098 
3.3489686e+2, 3.037016e+2, -296667.4, -194201.7, -44019.508, 0.14423525, 0.35392913, -177888.11, -177888.11, 0.000010789971, 9.998176, 9.999538 
3.34883e+2, 3.1370035e+2, -335384.28, -81704.38, 8170.4697, 0.055254444, 0.25502607, -81441.5, -81441.5, 0.000030295108, 9.997333, 10.0007105 
3.4514907e+2, 1.2374301e+2, -1427111.0, -1711050.8, 80874.62, -0.29032513, 0.5424806, -1405691.3, 321659.88, 0.000115265684, 10.00253, 9.998801 
3.4513476e+2, 1.3373849e+2, -1340420.1, -1561588.5, -45809.273, -0.16757818, 0.15472654, -1331307.4, 298077.13, 0.00005099492, 10.002216, 9.999314 
3.4511983e+2, 1.4373626e+2, -1370176.0, -1771850.0, -11317.06, -0.09205331, 0.098468214, -1369857.5, 161544.38, 0.000013110799, 10.002407, 9.997092 
3.4510362e+2, 1.5373439e+2, -1148541.1, -1662253.3, 42295.773, -0.18472067, 0.22660413, -1145082.1, 288344.66, 0.00000089811203, 10.003465, 9.996661 
3.450887e+2, 1.6373248e+2, -852249.1, -1245565.4, 67430.88, -0.17470063, 0.28755742, -841009.8, 494438.13, 0.0000000015154811, 10.003867, 9.998655 
3.4507528e+2, 1.7373084e+2, -829963.9, -1152752.3, -46533.418, -0.06550485, 0.21874939, -823389.5, 414070.4, 0.0, 10.003214, 9.998935 
3.4506133e+2, 1.8372898e+2, -939507.6, -1359824.8, -64410.58, -0.026151596, 0.22207446, -929858.6, 209619.02, 0.0, 10.002671, 9.997102 
3.4504682e+2, 1.9372667e+2, -917773.7, -1334423.8, 19563.541, -0.07718331, 0.2979374, -916857.1, 124648.8, 0.0, 10.002299, 9.996785 
3.450324e+2, 2.0372461e+2, -801564.6, -1037854.06, 57754.57, -0.10225289, 0.3434199, -788203.56, 155326.23, 0.0, 10.001604, 9.998485 
3.4501803e+2, 2.1372291e+2, -866773.6, -992983.06, 35146.586, -0.091511704, 0.29198706, -857646.1, -12099.606, 0.0, 10.000374, 9.998712 
3.4500405e+2, 2.2372188e+2, -831220.6, -872859.9, 46435.15, -0.08323346, 0.30172646, -801151.4, -53594.3, 0.0, 9.999725, 9.999171 
3.449907e+2, 2.33722e+2, -685393.56, -746500.25, 10984.155, -0.07407783, 0.37881005, -683479.06, -33922.13, 0.0, 10.0000305, 9.99922 
3.4497702e+2, 2.4372123e+2, -587160.25, -689125.7, -50719.188, -0.054889183, 0.39977998, -566228.6, -14664.608, 0.0, 10.000206, 9.998858 
3.4496278e+2, 2.5371906e+2, -503185.16, -607660.3, -66677.89, -0.018002016, 0.29052788, -470719.13, -17136.53, 0.0, 10.000149, 9.998774 
3.4494954e+2, 2.637176e+2, -458778.56, -515596.03, 37795.0, 0.008219982, 0.2645628, -439906.03, -84310.35, 0.0, 9.999698, 9.998948 
3.4493804e+2, 2.7371728e+2, -513577.44, -486037.78, 76170.94, 0.030568032, 0.32444584, -422402.06, -164801.61, 0.0, 9.998632, 9.998988 
3.449251e+2, 2.8371662e+2, -482293.38, -407104.75, -46150.926, 0.061258856, 0.3562577, -385173.94, -225566.0, 0.00000016974016, 9.998113, 9.999113 
3.4490946e+2, 2.9371563e+2, -342814.1, -298449.97, -70583.17, 0.07982836, 0.33651897, -246645.34, -185028.0, 0.0000019719364, 9.99843, 9.999037 
3.4489483e+2, 3.0371392e+2, -289255.5, -284015.44, -1354.8378, 0.109492846, 0.28372195, -283685.88, -283685.88, 0.0000096256135, 9.998614, 9.998714 
3.4488225e+2, 3.1371143e+2, -194031.56, -61416.15, 73707.875, 0.1983953, 0.1418939, -28579.703, -28579.703, 0.00002817607, 9.998486, 10.000303 
3.5515574e+2, 1.2375692e+2, -1427652.0, -1719881.1, 62989.098, 0.09638356, 0.4491435, -1414653.1, 312559.88, 0.0001131843, 10.002563, 9.998723 
3.5513735e+2, 1.3375276e+2, -1354573.4, -1599250.9, -56661.945, -0.13910156, 0.122365065, -1342088.8, 287157.2, 0.00005300272, 10.0022545, 9.999035 
3.551208e+2, 1.437515e+2, -1276000.3, -1583089.5, 18316.252, -0.2460753, 0.12228521, -1274911.6, 256342.2, 0.000015563297, 10.002436, 9.998376 
3.5510853e+2, 1.537512e+2, -1040897.56, -1442091.6, 83886.34, -0.05076211, 0.26007435, -1024063.94, 409193.84, 0.0000017221554, 10.003478, 9.998168 
3.550947e+2, 1.6374908e+2, -1027186.9, -1601653.6, 44028.254, 0.029763533, 0.3215245, -1023832.06, 311448.94, 0.000000007086625, 10.003838, 9.996224 
3.5507777e+2, 1.7374419e+2, -1042553.5, -1591047.1, -67717.32, -0.14999522, 0.22478217, -1034316.75, 203016.69, 0.0, 10.003201, 9.995933 
3.5506174e+2, 1.8374078e+2, -830405.6, -1123859.8, -81629.3, -0.2619866, 0.17246866, -809227.44, 330140.1, 0.0, 10.002632, 9.998739 
3.550476e+2, 1.9373986e+2, -760204.56, -997240.6, 9177.861, -0.23529194, 0.15790169, -759849.75, 281521.75, 0.0, 10.002258, 9.999118 
3.5503316e+2, 2.0373867e+2, -815847.56, -1058911.5, 12016.243, -0.188556, 0.16513278, -815254.94, 128125.73, 0.0, 10.001565, 9.99836 
3.550182e+2, 2.1373701e+2, -905183.44, -1065171.5, -7348.869, -0.12204357, 0.1617824, -904846.6, -59447.61, 0.0, 10.0003395, 9.998233 
3.5500407e+2, 2.237358e+2, -900997.25, -1009927.6, 49043.617, -0.062680475, 0.21854419, -882170.3, -134755.97, 0.0, 9.999692, 9.998247 
3.5499144e+2, 2.3373531e+2, -758476.6, -893826.3, 26806.234, -0.011471798, 0.33506286, -753361.0, -103936.47, 0.0, 10.0000105, 9.99822 
3.549778e+2, 2.4373421e+2, -610852.44, -735159.3, -54615.227, -0.0059034694, 0.39247903, -590266.06, -38827.84, 0.0, 10.000193, 9.998549 
3.549624e+2, 2.5373212e+2, -519941.4, -637459.3, -66205.43, -0.07856369, 0.31207561, -490180.47, -36722.64, 0.0, 10.000128, 9.998579 
3.5494867e+2, 2.637308e+2, -418286.2, -428265.63, 1.8430634, -0.060579345, 0.2854808, -418286.2, -62817.426, 0.0, 9.999684, 9.999553 
3.549376e+2, 2.7373084e+2, -468829.94, -389176.38, 39869.22, 0.11237451, 0.30799237, -372649.56, -115183.85, 0.0, 9.998615, 9.9996605 
3.549245e+2, 2.8373057e+2, -487149.63, -414973.4, -43786.277, 0.18235105, 0.34581172, -394320.1, -234852.44, 0.00000011654808, 9.998102, 9.9990635 
3.5490778e+2, 2.9372984e+2, -356126.94, -322181.63, -53435.844, 0.05728355, 0.36058626, -283087.72, -221609.9, 0.0000016005947, 9.998408, 9.998885 
3.5489267e+2, 3.0372715e+2, -306175.7, -313038.75, -1959.7021, 0.022288973, 0.228544, -305655.53, -305655.53, 0.00000802472, 9.998595, 9.998523 
3.5488075e+2, 3.1372443e+2, -186276.73, -36114.074, 73668.99, 0.17291403, 0.086406246, -6008.2993, -6008.2993, 0.000025457135, 9.998456, 10.000487 
3.6515826e+2, 1.23770416e+2, -1403221.5, -1745172.5, 114976.125, 0.082530834, 0.2670533, -1368157.8, 358916.8, 0.000112439, 10.002888, 9.998397 
3.6514053e+2, 1.3376763e+2, -1184024.9, -1585549.1, -43534.793, -0.113429934, 0.13872842, -1179358.9, 449740.3, 0.000054973105, 10.00372, 9.998422 
3.651239e+2, 1.4376691e+2, -1046550.4, -1464250.9, -12427.596, -0.25712827, 0.22341843, -1046181.0, 484923.47, 0.00001776245, 10.00398, 9.998446 
3.6511174e+2, 1.5376575e+2, -1052146.5, -1426918.5, -52474.086, -0.06482631, 0.25850785, -1044938.0, 388177.56, 0.000002786188, 10.003309, 9.998357 
3.6509803e+2, 1.6376334e+2, -1145851.9, -1657358.3, -72023.6, 0.023425648, 0.27974766, -1135904.0, 199236.81, 0.00000008230677, 10.003015, 9.996241 
3.6508107e+2, 1.7375906e+2, -1027822.3, -1585711.3, 23296.213, -0.13830978, 0.2457037, -1026851.2, 210336.47, 0.0, 10.00331, 9.995917 
3.6506468e+2, 1.8375592e+2, -795841.5, -1093976.4, 59954.61, -0.2366511, 0.21494123, -784236.44, 354982.84, 0.0, 10.0028105, 9.99886 
3.650495e+2, 1.9375461e+2, -931814.4, -1063180.1, -16620.67, -0.20587891, 0.14779986, -929744.1, 111482.0, 0.0, 10.001004, 9.999271 
3.6503443e+2, 2.0375328e+2, -983105.3, -1124402.6, -55444.973, -0.15578602, 0.12550552, -963946.5, -20711.01, 0.0, 10.00036, 9.998488 
3.650194e+2, 2.1375187e+2, -721358.1, -963673.0, -37204.055, -0.089272246, 0.13590954, -715774.6, 129474.85, 0.0, 10.001554, 9.998343 
3.6500496e+2, 2.2375044e+2, -623401.75, -925602.56, 50744.297, -0.045106564, 0.18650728, -615108.56, 132157.27, 0.0, 10.001805, 9.997812 
3.649915e+2, 2.3374903e+2, -725030.75, -936553.3, 56546.504, -0.02914728, 0.26373702, -710863.06, -61577.645, 0.0, 10.000487, 9.997701 
3.649775e+2, 2.437476e+2, -695647.0, -800217.25, 23859.744, -0.02496658, 0.32613182, -690460.25, -139156.45, 0.0, 9.999712, 9.998335 
3.6496267e+2, 2.537461e+2, -574751.25, -680789.2, 11045.262, -0.045635533, 0.32154387, -573612.94, -120292.87, 0.0, 9.999826, 9.9984255 
3.649486e+2, 2.637449e+2, -440398.28, -414569.25, 31821.285, -0.018784376, 0.3052799, -393141.7, -37811.227, 0.0, 9.99943, 9.999771 
3.6493585e+2, 2.7374434e+2, -507992.94, -381247.66, 25370.553, 0.096811704, 0.24687694, -376357.88, -119027.18, 0.0, 9.998222, 9.99991 
3.6492217e+2, 2.8374413e+2, -528808.75, -447772.38, -11131.454, 0.15387999, 0.27875534, -446271.13, -286939.0, 0.000000055764154, 9.997865, 9.998957 
3.6490673e+2, 2.937442e+2, -306137.3, -311905.06, -24658.45, 0.09717413, 0.3904938, -284194.7, -222857.25, 0.0000011854916, 9.99882, 9.9987545 
3.6489195e+2, 3.0374157e+2, -189246.16, -200006.3, 25836.68, 0.06637552, 0.2469467, -168235.34, -168235.34, 0.0000066145303, 9.999153, 9.999034 
3.6487862e+2, 3.1374037e+2, -144038.25, 44057.5, 132774.06, 0.119567156, 0.20105734, 112717.81, 112717.81, 0.00002317202, 9.99849, 10.001026 
3.7515652e+2, 1.23783596e+2, -1439673.1, -1823195.1, 130155.91, -0.4051179, 0.014147322, -1399673.8, 327261.5, 0.00011475776, 10.002897, 9.997855 
3.7514427e+2, 1.3378312e+2, -1244546.3, -1718345.3, -10089.848, -0.12532173, 0.20323464, -1244331.5, 384612.75, 0.000057299243, 10.00375, 9.997495 
3.7512887e+2, 1.4378242e+2, -1123312.4, -1621279.8, -35010.867, -0.16968957, 0.391547, -1120862.9, 410091.66, 0.000019792478, 10.003971, 9.997373 
3.7511313e+2, 1.5377809e+2, -1127165.5, -1585742.6, -73373.56, -0.26647958, 0.21786995, -1115711.6, 317287.78, 0.000003853391, 10.00332, 9.997262 
3.7509862e+2, 1.6377537e+2, -983837.6, -1315384.0, -67577.59, -0.22981177, 0.16439693, -970592.7, 364433.78, 0.00000020238203, 10.002991, 9.998598 
3.7508515e+2, 1.7377543e+2, -829939.1, -1174162.3, 37268.277, -0.07284231, 0.28378168, -825950.4, 411072.78, 0.0, 10.003304, 9.998746 
3.7506995e+2, 1.837742e+2, -894526.56, -1292108.1, -3651.4075, 0.0004225369, 0.34320524, -894493.0, 244541.67, 0.0, 10.002782, 9.997513 
3.750523e+2, 1.9377083e+2, -1070970.9, -1348206.3, -81273.766, -0.031986367, 0.25953224, -1048901.6, -7830.9663, 0.0, 10.000988, 9.997321 
3.7503597e+2, 2.0376836e+2, -963642.56, -1079787.6, -26309.176, -0.04172, 0.21943378, -957960.94, -14866.467, 0.0, 10.0003395, 9.998806 
3.750216e+2, 2.137674e+2, -679956.75, -869684.4, 13580.311, -0.032079566, 0.21300444, -678989.6, 166108.77, 0.0, 10.001517, 9.999006 
3.7500662e+2, 2.2376579e+2, -627530.2, -922218.9, 8284.034, -0.06620144, 0.20662583, -627297.5, 119814.18, 0.0, 10.001754, 9.997859 
3.749907e+2, 2.3376316e+2, -731662.25, -941191.4, 9622.385, -0.16449903, 0.16086069, -731221.25, -82081.18, 0.0, 10.000446, 9.997687 
3.7497607e+2, 2.4376144e+2, -708068.25, -818427.5, 19739.135, -0.1472749, 0.19840012, -704643.9, -153483.38, 0.0, 9.9996805, 9.998226 
3.749635e+2, 2.5376102e+2, -587334.2, -703512.0, 20322.615, 0.045264643, 0.318927, -583881.75, -130712.78, 0.0, 9.99981, 9.998279 
3.749493e+2, 2.6375988e+2, -457339.03, -445722.8, -11978.205, 0.10060095, 0.3251932, -438218.84, -83037.914, 0.0, 9.999415, 9.999563 
3.7493256e+2, 2.737578e+2, -527279.94, -410421.2, -15998.821, -0.063506454, 0.13091263, -408270.4, -151074.19, 0.0, 9.9981785, 9.99973 
3.7491783e+2, 2.837573e+2, -545820.2, -478656.0, 13134.301, -0.072813444, 0.15532444, -476178.88, -316977.4, 0.00000003400916, 9.997842, 9.998757 
3.7490627e+2, 2.9375878e+2, -320568.03, -342681.16, 15108.234, 0.15915336, 0.42891982, -312902.78, -251706.16, 0.0000008994765, 9.9988165, 9.9985485 
3.748925e+2, 3.0375716e+2, -102927.44, -17206.531, 4568.2637, 0.19999333, 0.34417796, -16963.766, -16963.766, 0.000005653272, 9.999141, 10.000295 
3.7487552e+2, 3.137594e+2, -81050.91, 185439.66, 108470.39, -0.05945087, 0.495741, 224008.61, 224008.61, 0.000021689997, 9.998443, 10.002021 
3.8515842e+2, 1.2379781e+2, -1414001.3, -1782533.6, 21020.79, -0.5017497, 0.060465027, -1412806.1, 313990.2, 0.00011936392, 10.002963, 9.998097 
3.8514873e+2, 1.3379659e+2, -1266306.4, -1730519.6, -61725.723, -0.040641118, 0.17322558, -1258239.0, 370572.6, 0.000060083228, 10.003607, 9.997482 
3.8513356e+2, 1.4379552e+2, -1153213.9, -1632976.5, -57000.152, -0.08289778, 0.32201368, -1146534.8, 384290.75, 0.000021868578, 10.003743, 9.997407 
3.8511613e+2, 1.5379211e+2, -1184503.1, -1606528.8, -29824.639, -0.2741909, 0.2357282, -1182405.9, 250456.53, 0.000004862859, 10.002902, 9.997319 
3.8510063e+2, 1.6378988e+2, -1055388.9, -1284690.0, -3300.8408, -0.28187284, 0.20363013, -1055341.4, 279543.03, 0.00000029520132, 10.002211, 9.999188 
3.8508743e+2, 1.7378977e+2, -1007868.1, -1182458.0, -57457.742, -0.094522074, 0.23732239, -990655.6, 246225.05, 0.0, 10.001745, 9.99944 
3.850723e+2, 1.8378878e+2, -1016344.3, -1353934.8, -144722.28, 0.0034281593, 0.28299934, -962796.6, 176092.56, 0.0, 10.001955, 9.997488 
3.850546e+2, 1.9378622e+2, -763685.1, -1216134.5, -100322.836, -0.009396149, 0.29340315, -742438.0, 298481.03, 0.0, 10.003162, 9.997183 
3.8503808e+2, 2.0378397e+2, -556860.4, -925495.7, 20380.291, -0.012414777, 0.3004137, -555737.06, 387205.0, 0.0, 10.003308, 9.998436 
3.8502344e+2, 2.1378228e+2, -674738.7, -913513.56, -22922.975, -0.0083039515, 0.2602122, -672557.94, 172395.77, 0.0, 10.001745, 9.998599 
3.8500804e+2, 2.2378013e+2, -778223.75, -974399.3, -82377.91, -0.039752416, 0.21255302, -748220.4, -1248.706, 0.0, 10.000632, 9.99804 
3.8499144e+2, 2.3377728e+2, -738966.1, -913230.3, -71541.11, -0.1227275, 0.11921828, -713359.0, -64359.51, 0.0, 10.000271, 9.997959 
3.8497618e+2, 2.4377559e+2, -686069.2, -784416.44, -16850.418, -0.105406895, 0.13469756, -683262.2, -132244.47, 0.0, 9.999729, 9.998434 
3.84963e+2, 2.537756e+2, -711899.56, -745799.44, 4392.2144, 0.0652256, 0.2775291, -711339.75, -258317.92, 0.0, 9.998874, 9.998441 
3.8494837e+2, 2.6377454e+2, -596335.3, -567396.94, -10850.183, 0.10281342, 0.30371606, -563780.7, -208746.63, 0.0, 9.99869, 9.999078 
3.8493127e+2, 2.7377206e+2, -371309.44, -398923.3, -51252.566, -0.0702894, 0.12772028, -332036.66, -74980.31, 0.0, 9.999524, 9.999159 
3.8491628e+2, 2.8377143e+2, -282512.75, -341168.25, -14742.516, -0.096315704, 0.16543885, -279015.84, -119951.35, 0.000000026095549, 9.999614, 9.998843 
3.849044e+2, 2.9377306e+2, -344825.88, -332018.53, 11401.352, 0.10913837, 0.43553492, -325345.6, -264288.53, 0.0000006696504, 9.998564, 9.998738 
3.8489065e+2, 3.037716e+2, -273512.1, -40219.242, -19447.445, 0.17609529, 0.32942367, -38609.203, -38609.203, 0.000004955279, 9.997715, 10.000821 
3.848738e+2, 3.1377506e+2, -299324.1, 68314.06, -12203.915, 0.0020907617, 0.55662096, 68718.73, 68718.73, 0.000021234744, 9.9970045, 10.001907 
3.9516366e+2, 1.2381308e+2, -1345363.9, -1650529.0, 23674.65, -0.29710612, 0.3893359, -1343538.1, 383119.0, 0.00012330188, 10.003011, 9.998981 
3.9515382e+2, 1.3380806e+2, -1209226.1, -1614147.4, -33148.188, 0.092855275, 0.044621218, -1206530.4, 422170.5, 0.00006261064, 10.003615, 9.99828 
3.951378e+2, 1.4380625e+2, -1082313.6, -1478923.6, -85730.61, -0.04442039, 0.027563943, -1064575.5, 466141.4, 0.000023583854, 10.003713, 9.998479 
3.951204e+2, 1.5380771e+2, -1102640.6, -1441221.9, -59157.668, -0.14373876, 0.31445655, -1092602.1, 340103.34, 0.000005569423, 10.00292, 9.998445 
3.951039e+2, 1.6380668e+2, -1129700.0, -1442132.5, -28627.24, -0.18389894, 0.38705865, -1127098.6, 207617.92, 0.00000035120044, 10.002221, 9.998106 
3.9508784e+2, 1.7380205e+2, -1103253.4, -1380673.5, -71970.97, -0.23576625, 0.10530543, -1085693.5, 151066.83, 0.0, 10.001744, 9.998082 
3.9507177e+2, 1.837997e+2, -933381.25, -1172577.8, -109132.84, -0.25123927, 0.035944328, -891073.0, 247709.2, 0.0, 10.001915, 9.998754 
3.9505616e+2, 1.9380084e+2, -654941.25, -980235.5, -51232.504, -0.17718555, 0.25632066, -647063.1, 393707.97, 0.0, 10.00312, 9.998822 
3.9504054e+2, 2.0380011e+2, -638810.06, -1082004.4, -31599.426, -0.104352854, 0.3677094, -636568.44, 306210.56, 0.0, 10.003252, 9.997388 
3.950248e+2, 2.1379645e+2, -782653.8, -1122079.9, -79168.82, -0.053844593, 0.27078167, -765096.4, 79719.94, 0.0, 10.001684, 9.997194 
3.9500916e+2, 2.237934e+2, -761192.44, -931764.56, -104701.266, 0.0016635362, 0.1986334, -711437.5, 35408.848, 0.0, 10.000597, 9.998353 
3.949936e+2, 2.3379134e+2, -704711.8, -834963.9, -80959.92, 0.060690824, 0.1318249, -665934.5, -17070.176, 0.0, 10.000238, 9.998514 
3.9497766e+2, 2.4379003e+2, -654502.75, -710894.06, -50072.637, 0.06296242, 0.13243991, -625233.06, -74357.06, 0.0, 9.999699, 9.998953 
3.9496103e+2, 2.5378972e+2, -679941.9, -668697.7, -23041.957, -0.028249938, 0.19234177, -650601.9, -197722.83, 0.0, 9.998828, 9.998992 
3.949456e+2, 2.6378882e+2, -656872.4, -685022.7, 12263.559, -0.049900934, 0.23803332, -652279.25, -297389.38, 0.0, 9.998653, 9.99829 
3.9493203e+2, 2.7378714e+2, -440840.25, -541778.9, -14737.268, 0.04451919, 0.24018805, -438732.6, -181821.36, 0.0, 9.999514, 9.998186 
3.9491746e+2, 2.8378654e+2, -254591.83, -280650.3, -50839.15, 0.048016276, 0.3158521, -215138.89, -56217.836, 0.000000010243951, 9.999608, 9.999261 
3.9490098e+2, 2.9378694e+2, -305995.25, -239798.08, -23711.164, -0.100015596, 0.4073751, -232181.36, -171262.48, 0.00000051187845, 9.998515, 9.999395 
3.948862e+2, 3.037847e+2, -300045.75, -84066.45, -46903.016, -0.047065414, 0.19160256, -74320.56, -74320.56, 0.0000058094397, 9.997668, 10.000542 
3.9487338e+2, 3.1378725e+2, -400898.5, -128767.914, -37638.77, 0.24264598, 0.3778282, -123657.99, -123657.99, 0.000025375839, 9.99695, 10.000577 
4.05169e+2, 1.2382707e+2, -1061853.0, -1485643.0, 82959.79, -0.1536145, 0.46424, -1046191.9, 680331.94, 0.00012453554, 10.004832, 9.999237 
4.0515667e+2, 1.3382211e+2, -1297934.0, -1633387.9, -9892.243, 0.061033387, 0.103483915, -1297642.5, 330922.38, 0.00006386171, 10.002905, 9.998488 
4.051392e+2, 1.4382003e+2, -1271912.9, -1508813.6, -67313.6, -0.18932615, 0.025432674, -1254122.3, 276459.16, 0.000024485202, 10.0021515, 9.9990225 
4.0512365e+2, 1.538219e+2, -1027946.7, -1339500.0, -86185.125, -0.12011438, 0.29306227, -1005694.56, 426869.22, 0.000005781208, 10.003146, 9.999035 
4.0510765e+2, 1.6382101e+2, -979072.3, -1403801.9, -71084.56, -0.09237016, 0.36013877, -967491.1, 367081.94, 0.0000003430959, 10.003416, 9.997787 
4.0508988e+2, 1.7381606e+2, -1023059.4, -1393995.5, -61489.41, -0.24301893, 0.09037013, -1013132.06, 223489.98, 0.0, 10.002525, 9.997611 
4.050731e+2, 1.8381354e+2, -918644.25, -1119782.9, -46352.766, -0.30106902, 0.012188117, -908476.2, 230169.8, 0.0, 10.00182, 9.999163 
4.0505835e+2, 1.938148e+2, -867833.6, -1023511.9, -68840.84, -0.17798734, 0.19350784, -841759.4, 198871.53, 0.0, 10.0014, 9.999356 
4.0504286e+2, 2.0381422e+2, -958460.1, -1221693.0, -96351.63, -0.07945711, 0.28427696, -926961.5, 15674.617, 0.0, 10.000995, 9.997516 
4.0502614e+2, 2.1381068e+2, -937520.75, -1191557.5, -47869.97, -0.030785337, 0.19320679, -928799.7, -84126.195, 0.0, 10.000594, 9.997245 
4.0500987e+2, 2.23808e+2, -771313.3, -923660.6, 20964.549, 0.021566782, 0.15009765, -768481.06, -21780.055, 0.0, 10.000477, 9.998463 
4.0499425e+2, 2.338067e+2, -609144.5, -780214.94, 9478.421, 0.07548453, 0.1496167, -608620.94, 40091.477, 0.0, 10.000853, 9.998596 
4.0497816e+2, 2.4380548e+2, -470947.38, -632305.8, -10642.219, 0.080801286, 0.16019593, -470248.5, 80474.65, 0.0, 10.000999, 9.998866 
4.0496114e+2, 2.538044e+2, -396175.28, -540224.9, -42299.254, 0.006470761, 0.1487269, -384672.84, 68059.79, 0.0, 10.00082, 9.99891 
4.049454e+2, 2.6380327e+2, -429205.47, -578720.1, 11188.004, -0.009525022, 0.18007055, -428372.9, -73627.76, 0.0, 10.000231, 9.9982605 
4.0493155e+2, 2.738023e+2, -514788.44, -580338.94, 53228.387, 0.07144601, 0.25410852, -485053.84, -228292.53, 0.0, 9.99902, 9.998158 
4.049164e+2, 2.8380182e+2, -442993.3, -350045.78, 42642.63, 0.056493897, 0.33672464, -333446.53, -174676.7, 0.0000000008315615, 9.998219, 9.999454 
4.048992e+2, 2.9380155e+2, -352930.7, -232082.77, 30779.543, -0.10183873, 0.3354266, -224694.95, -163923.14, 0.00000071034475, 9.998061, 9.999664 
4.0488407e+2, 3.0379966e+2, -233444.27, -59917.457, 22659.191, -0.04574152, 0.13986291, -57007.414, -57007.414, 0.000009258835, 9.998156, 10.000472 
4.048708e+2, 3.1380188e+2, -220711.64, -125009.24, 42949.504, 0.21965232, 0.30779538, -108561.16, -108561.16, 0.000036115405, 9.998521, 9.99985 
4.1517404e+2, 1.2383983e+2, -1081810.1, -1527191.9, -17938.672, -0.15421247, 0.29722938, -1081088.9, 645307.7, 0.00012183713, 10.004828, 9.998952 
4.1515738e+2, 1.3383871e+2, -1314085.0, -1677698.3, -78492.91, -0.168009, 0.34688854, -1297864.4, 330539.5, 0.00006268926, 10.002944, 9.998166 
4.151379e+2, 1.4383683e+2, -1264068.3, -1499765.9, -42019.625, -0.54799235, 0.30233735, -1256801.1, 273618.56, 0.000024127196, 10.002185, 9.999069 
4.1512576e+2, 1.5383483e+2, -1022879.3, -1323938.8, -42398.184, -0.2327399, 0.17779589, -1017022.3, 415413.72, 0.0000053776757, 10.003129, 9.999149 
4.1511166e+2, 1.6383305e+2, -959648.75, -1356972.3, -100566.05, -0.040840358, 0.13436143, -935644.75, 398807.44, 0.0000002359893, 10.003385, 9.998125 
4.1509333e+2, 1.7383175e+2, -997984.1, -1340165.1, -91779.77, -0.16041647, 0.19095807, -974921.4, 261545.19, 0.0, 10.002517, 9.997985 
4.1507608e+2, 1.8383016e+2, -949602.5, -1181421.4, -67082.8, -0.19507141, 0.20285387, -931589.94, 206891.8, 0.0, 10.001808, 9.998744 
4.1506103e+2, 1.9382812e+2, -907619.2, -1099531.9, -80485.73, -0.05849827, 0.10492203, -878333.5, 162164.81, 0.0, 10.001375, 9.998844 
4.15045e+2, 2.038264e+2, -873255.8, -1039225.2, -114413.29, 0.02530391, 0.055318438, -814901.0, 127611.57, 0.0, 10.000965, 9.998785 
4.1502726e+2, 2.1382509e+2, -838435.94, -972375.0, -59166.32, 0.016408538, 0.034643013, -816043.44, 28480.648, 0.0, 10.000538, 9.9987755 
4.1500995e+2, 2.23824e+2, -787607.9, -950402.06, 29369.441, -0.02537403, 0.072683774, -782471.44, -35936.35, 0.0, 10.000443, 9.998298 
4.1499323e+2, 2.3382327e+2, -639702.06, -836526.75, 27967.059, -0.12042338, 0.16766283, -635805.3, 12739.3125, 0.0, 10.000821, 9.998224 
4.149775e+2, 2.4382192e+2, -522555.2, -736169.1, -17616.52, -0.092496425, 0.21462336, -521112.13, 29447.535, 0.0, 10.000986, 9.998158 
4.149633e+2, 2.5381947e+2, -451382.03, -651796.4, -45959.848, 0.1318343, 0.14290288, -441345.0, 11238.636, 0.0, 10.000805, 9.998152 
4.1494766e+2, 2.6381785e+2, -374585.84, -461285.6, -34166.055, 0.18605319, 0.12803985, -362740.3, -8139.7134, 0.0, 10.000218, 9.999069 
4.1492954e+2, 2.7381757e+2, -449828.72, -435521.22, 11507.225, -0.040079135, 0.17119657, -429125.34, -172519.11, 0.0, 9.998978, 9.999171 
4.1491297e+2, 2.8381732e+2, -449703.47, -358715.47, 29869.885, -0.1173387, 0.22279821, -349786.0, -191175.28, 0.00000000001177225, 9.998192, 9.999408 
4.14899e+2, 2.938168e+2, -368411.66, -259046.34, 30446.645, 0.06337733, 0.21593046, -251141.53, -190525.27, 0.0000013013552, 9.998035, 9.999494 
4.148842e+2, 3.038165e+2, -218076.39, -26724.1, 35525.492, 0.14480096, 0.17897901, -20341.51, -20341.51, 0.000013961503, 9.998152, 10.000701 
4.1486567e+2, 3.138192e+2, -231344.89, -133871.0, 66169.45, -0.1699456, 0.37006265, -100427.13, -100427.13, 0.00004972542, 9.99847, 9.999812 
4.2517787e+2, 1.2385395e+2, -1358189.9, -1685781.4, 12115.986, -0.15711656, 0.16253005, -1357742.4, 368508.9, 0.00011416314, 10.003038, 9.998726 
4.251609e+2, 1.3385376e+2, -1237206.5, -1661415.0, -24369.31, -0.1377203, 0.3235374, -1235811.1, 392440.47, 0.000058582853, 10.003558, 9.997984 
4.251407e+2, 1.4385152e+2, -1100168.1, -1482305.5, 23783.586, -0.55258733, 0.2812125, -1098693.6, 431578.9, 0.000022257931, 10.00357, 9.998526 
4.2512864e+2, 1.5384847e+2, -1161583.8, -1456448.1, -33462.7, -0.22103027, 0.10644454, -1157833.9, 274467.66, 0.0000044458184, 10.002455, 9.998566 
4.2511454e+2, 1.638467e+2, -1140124.8, -1371258.4, -107709.74, -0.0087708505, 0.06819369, -1097713.4, 236604.89, 0.00000009724189, 10.001836, 9.998772 
4.2509612e+2, 1.7384705e+2, -1003473.94, -1252162.3, -76137.4, -0.10314013, 0.2115339, -982015.56, 254299.4, 0.0, 10.002086, 9.998797 
4.2507857e+2, 1.838461e+2, -915737.3, -1194057.1, -23351.016, -0.13813649, 0.25379664, -913791.75, 224531.88, 0.0, 10.002169, 9.998483 
4.2506278e+2, 1.9384308e+2, -851958.0, -1118162.5, -33858.35, -0.045692574, 0.098804355, -847719.06, 192632.25, 0.0, 10.001954, 9.998436 
4.2504612e+2, 2.03841e+2, -771476.0, -952010.56, -98047.5, 0.020939032, 0.02010704, -728471.0, 213898.42, 0.0, 10.001504, 9.999122 
4.2502803e+2, 2.1384032e+2, -783508.1, -897993.5, -132662.0, 0.034202117, 0.021114958, -696265.75, 148107.2, 0.0, 10.000708, 9.999205 
4.2501053e+2, 2.238395e+2, -820791.1, -971330.94, -50542.63, 0.0015078407, 0.06554577, -805396.2, -59016.152, 0.0, 10.000241, 9.998251 
4.249939e+2, 2.3383854e+2, -718958.1, -885895.44, -37141.293, -0.10650902, 0.14446631, -711067.7, -62675.484, 0.0, 10.000328, 9.998122 
4.2497796e+2, 2.4383697e+2, -660249.7, -806972.0, -66633.46, -0.09421024, 0.17890182, -634505.5, -84096.11, 0.0, 10.000054, 9.998125 
4.2496312e+2, 2.538345e+2, -680313.5, -767099.94, -48483.91, 0.1135143, 0.10472596, -658640.1, -206205.56, 0.0, 9.9992485, 9.998114 
4.249469e+2, 2.6383302e+2, -571682.6, -518699.1, -22197.762, 0.1663902, 0.09425846, -510628.53, -156178.84, 0.0, 9.998702, 9.999409 
4.2492837e+2, 2.738332e+2, -482187.16, -405401.6, -32772.64, -0.029979937, 0.14588024, -393316.16, -136867.05, 0.0, 9.998563, 9.999579 
4.249114e+2, 2.8383294e+2, -408332.84, -343851.1, -10907.661, -0.10326086, 0.17571919, -342055.94, -183603.17, 0.0000000012455732, 9.9985, 9.999363 
4.248972e+2, 2.9383194e+2, -296062.78, -234573.9, -9343.408, 0.054104786, 0.12943833, -233185.5, -172722.06, 0.0000019618685, 9.998575, 9.999405 
4.2488235e+2, 3.0383247e+2, -178834.38, -19819.129, -4310.6626, 0.13063492, 0.18455744, -19702.36, -19702.36, 0.000018429422, 9.99847, 10.0006 
4.24863e+2, 3.138349e+2, -295584.38, -163802.69, -15150.315, -0.25669107, 0.3567012, -162083.36, -162083.36, 0.00006268099, 9.998031, 9.999819 
4.3518037e+2, 1.2386943e+2, -1368573.5, -1713227.4, -10022.109, -0.23561063, 0.0675785, -1368282.4, 357806.06, 0.0001021238, 10.003068, 9.998522 
4.35167e+2, 1.3386732e+2, -1240678.0, -1674585.6, 1044.4586, 0.107636645, 0.049220312, -1240675.5, 387431.94, 0.000052080995, 10.003579, 9.997887 
4.3514732e+2, 1.4386426e+2, -1181400.5, -1645397.9, -11545.508, -0.25786766, -0.022492398, -1181113.4, 349026.06, 0.000019336056, 10.00355, 9.997414 
4.3513206e+2, 1.5386276e+2, -1247732.1, -1636928.5, -71282.25, -0.13609415, 0.08070869, -1235087.4, 197073.17, 0.0000034941986, 10.002463, 9.997323 
4.3511614e+2, 1.6386184e+2, -1072415.5, -1232755.8, -106186.71, -0.03909246, 0.1551317, -1019533.5, 314638.5, 0.000000032016867, 10.001842, 9.999721 
4.350983e+2, 1.7386197e+2, -917288.44, -1073524.5, -61974.637, -0.10455484, 0.15546148, -895690.5, 340476.7, 0.0, 10.002083, 10.000028 
4.3508056e+2, 1.838614e+2, -929985.5, -1213541.5, -33453.477, -0.16577484, 0.17280282, -926092.2, 212079.1, 0.0, 10.002128, 9.998368 
4.350635e+2, 1.9385967e+2, -879603.4, -1164055.6, -38350.984, -0.17528808, 0.17247745, -874523.5, 165666.78, 0.0, 10.001907, 9.998143 
4.3504617e+2, 2.0385799e+2, -822162.1, -1045027.8, -128996.766, -0.13015892, 0.17709436, -763132.5, 179074.58, 0.0, 10.001452, 9.998507 
4.3502828e+2, 2.1385641e+2, -834976.8, -995828.2, -159411.48, -0.015371133, 0.15458784, -736851.94, 107367.99, 0.0, 10.000672, 9.998548 
4.3501145e+2, 2.2385463e+2, -821842.2, -965882.2, -54622.445, 0.06258528, 0.13596691, -803471.44, -57236.11, 0.0, 10.000207, 9.998305 
4.349962e+2, 2.3385249e+2, -714994.94, -867122.25, -31195.605, 0.083101556, 0.08309467, -708846.4, -60591.223, 0.0, 10.000283, 9.998273 
4.3497944e+2, 2.438507e+2, -619912.75, -715263.06, -97830.54, 0.040832173, 0.057765782, -558759.0, -8486.669, 0.0, 10.000021, 9.99877 
4.3496034e+2, 2.5384942e+2, -635303.5, -665138.44, -76403.195, -0.098246925, 0.03695099, -572375.06, -120089.77, 0.0, 9.999212, 9.99883 
4.3494287e+2, 2.638488e+2, -584276.44, -541822.1, -31999.441, -0.11043905, 0.07863386, -524649.3, -170357.05, 0.0, 9.998687, 9.999259 
4.3492794e+2, 2.738492e+2, -501796.38, -444090.2, -33272.71, 0.06264217, 0.17164636, -428902.7, -172612.02, 0.0, 9.9985485, 9.999322 
4.3491164e+2, 2.8384867e+2, -413258.0, -350831.63, -12523.614, 0.06257272, 0.1921906, -348412.9, -190116.23, 0.000000012355592, 9.99849, 9.999317 
4.3489352e+2, 2.93847e+2, -303504.0, -242961.14, -871.4097, -0.17829338, 0.08063332, -242948.6, -182635.6, 0.0000026583295, 9.998548, 9.99936 
4.3487823e+2, 3.0384746e+2, -211129.7, -87298.47, -22550.543, -0.13404635, 0.15805453, -83319.695, -83319.695, 0.000022356537, 9.99847, 10.000137 
4.348627e+2, 3.1384853e+2, -304977.88, -169252.13, -18950.645, -0.10720073, 0.23910141, -166655.83, -166655.83, 0.000073377385, 9.997979, 9.999803 
4.4518363e+2, 1.2388445e+2, -1230636.1, -1641251.8, -108140.445, -0.25862738, 0.035816498, -1203897.3, 522042.56, 0.00008877718, 10.004005, 9.998561 
4.4517145e+2, 1.3388261e+2, -1186630.4, -1616239.1, -45506.543, 0.18425637, 0.016765948, -1181863.0, 446093.75, 0.000044559954, 10.003822, 9.998166 
4.4515175e+2, 1.438798e+2, -1142651.8, -1574770.9, -18778.363, -0.16872172, -0.06441187, -1141837.3, 388148.66, 0.000016139618, 10.0035925, 9.997878 
4.4513533e+2, 1.538793e+2, -1126896.4, -1520901.8, 31792.621, -0.08145082, 0.08921577, -1124347.4, 307648.28, 0.0000027558829, 10.003048, 9.997837 
4.4511852e+2, 1.6387865e+2, -987193.75, -1234594.9, 59064.06, -0.018044068, 0.17734312, -973816.3, 360188.44, 0.000000035556127, 10.002601, 9.999347 
4.451003e+2, 1.7387792e+2, -924178.9, -1129065.6, -22539.709, -0.11675816, 0.1413061, -921728.6, 314281.8, 0.0, 10.002264, 9.9995575 
4.4508222e+2, 1.8387713e+2, -963083.56, -1193987.4, -58288.344, -0.18839191, 0.14677452, -949203.8, 188813.75, 0.0, 10.0017395, 9.9986925 
4.4506487e+2, 1.9387609e+2, -1000247.44, -1173479.4, -21690.305, -0.1737499, 0.17333017, -997572.9, 42455.25, 0.0, 10.000864, 9.998581 
4.4504753e+2, 2.0387463e+2, -890074.06, -1114323.4, -25515.303, -0.12335795, 0.1914418, -887207.56, 54834.58, 0.0, 10.001147, 9.998176 
4.4503003e+2, 2.1387254e+2, -500893.9, -883337.5, -40366.9, -0.02946779, 0.16043562, -496679.63, 347381.56, 0.0, 10.003177, 9.998114 
4.4501302e+2, 2.238704e+2, -370286.03, -748976.56, 11472.015, 0.050010446, 0.12975304, -369938.84, 376141.84, 0.0, 10.003311, 9.998298 
4.449968e+2, 2.338681e+2, -673389.44, -843357.25, 13356.451, 0.10576954, 0.05926851, -672346.25, -24244.873, 0.0, 10.000549, 9.998309 
4.449791e+2, 2.4386634e+2, -742141.94, -753455.3, -25255.65, 0.056549735, 0.027314598, -721917.25, -171799.48, 0.0, 9.99909, 9.998955 
4.4495916e+2, 2.5386542e+2, -553753.8, -601893.7, -44058.117, -0.15332183, 0.021377357, -527619.4, -75492.21, 0.0, 9.99967, 9.9990425 
4.449415e+2, 2.6386493e+2, -433397.03, -499326.28, -25557.402, -0.17264055, 0.073067956, -424650.2, -70517.07, 0.0, 9.999855, 9.998985 
4.4492722e+2, 2.7386495e+2, -394546.3, -432752.34, -39923.266, 0.0945003, 0.16784744, -369391.1, -113256.17, 0.0, 9.999458, 9.998961 
4.4491068e+2, 2.838642e+2, -378914.66, -346251.16, -27853.959, 0.10562755, 0.18753925, -330294.06, -172150.16, 0.00000003060041, 9.998772, 9.999213 
4.4489092e+2, 2.938624e+2, -447943.03, -318319.88, -29234.924, -0.24041569, 0.07060813, -312031.38, -251869.39, 0.000003132682, 9.99758, 9.999306 
4.4487533e+2, 3.03863e+2, -480838.75, -193196.03, -20486.453, -0.1714926, 0.15029731, -191744.27, -191744.27, 0.000025258936, 9.996521, 10.000346 
4.448607e+2, 3.1386346e+2, -566137.5, -212239.14, 39013.805, 0.004969568, 0.15223205, -207989.28, -207989.28, 0.00008019797, 9.9958105, 10.000561 
4.5518732e+2, 1.23899e+2, -1217215.1, -1600953.9, -163293.02, -0.31241032, 0.05618928, -1157135.1, 568669.75, 0.00007730068, 10.003962, 9.998854 
4.551741e+2, 1.338994e+2, -1148688.9, -1532428.8, -42999.92, 0.059829213, 0.2020452, -1143929.6, 483871.2, 0.00003766172, 10.003804, 9.99875 
4.5515397e+2, 1.4389792e+2, -1006333.6, -1286764.0, -37120.977, -0.3127519, 0.13476995, -1001503.06, 528310.44, 0.000013071128, 10.003569, 9.9998665 
4.551383e+2, 1.53898e+2, -976337.6, -1207068.9, 16943.646, -0.09715749, 0.12982856, -975100.06, 456708.1, 0.0000020817529, 10.003041, 9.999994 
4.5512155e+2, 1.6389707e+2, -1103127.1, -1471567.8, 39690.348, 0.010962572, 0.14371513, -1098899.9, 234917.2, 0.00000004449902, 10.002585, 9.997726 
4.551021e+2, 1.7389481e+2, -1072081.0, -1436212.8, -31305.729, -0.17478088, 0.16025251, -1069409.1, 166436.9, 0.0, 10.002261, 9.997452 
4.550835e+2, 1.8389316e+2, -913982.8, -1084825.6, -90045.65, -0.24219328, 0.16514409, -875287.2, 262576.28, 0.0, 10.001711, 9.9994545 
4.550667e+2, 1.9389234e+2, -925018.44, -1012547.06, -50305.69, -0.087302454, 0.10434357, -902104.6, 137760.2, 0.0, 10.000846, 9.999694 
4.5504993e+2, 2.0389096e+2, -899164.7, -1124226.4, 33629.273, -0.004636716, 0.06972897, -894247.2, 47627.313, 0.0, 10.001107, 9.998128 
4.550331e+2, 2.1388869e+2, -524187.16, -914134.4, 40420.555, -0.047966048, 0.0392652, -520041.38, 323855.56, 0.0, 10.003102, 9.997937 
4.5501515e+2, 2.2388676e+2, -384949.63, -765809.6, -75961.95, -0.075234026, 0.04499792, -370358.16, 375558.2, 0.0, 10.00325, 9.998213 
4.5499554e+2, 2.3388536e+2, -682313.8, -854092.8, -87624.14, -0.08039549, 0.06905874, -645504.5, 2426.5486, 0.0, 10.000515, 9.998251 
4.5497683e+2, 2.4388395e+2, -765747.0, -795777.6, -19851.059, -0.085475914, 0.08745915, -755872.06, -205926.5, 0.0, 9.999063, 9.998679 
4.5495963e+2, 2.538825e+2, -579696.1, -646806.8, -17969.057, -0.082892746, 0.0581272, -575187.75, -123227.69, 0.0, 9.999632, 9.998754 
4.5494267e+2, 2.6388136e+2, -466612.38, -563437.94, -38239.063, -0.046959892, 0.07818745, -453332.2, -99359.88, 0.0, 9.999835, 9.998553 
4.54926e+2, 2.738805e+2, -430734.66, -501534.47, -50094.37, 0.02216868, 0.13326812, -404794.53, -148812.4, 0.0, 9.999433, 9.9985 
4.5490828e+2, 2.838795e+2, -389886.56, -365504.88, -71916.945, -0.015889391, 0.1594882, -304752.84, -146758.28, 0.000000022691747, 9.998753, 9.999092 
4.5488936e+2, 2.938783e+2, -458409.72, -330790.3, -71756.35, -0.16459626, 0.11067015, -298575.78, -238566.27, 0.0000032965943, 9.997538, 9.999244 
4.5487356e+2, 3.03879e+2, -421875.16, -62390.117, -49898.297, -0.00566707, 0.16600813, -55592.527, -55592.527, 0.000026467469, 9.996488, 10.001261 
4.5485657e+2, 3.1387973e+2, -463587.1, 24685.324, 38837.33, 0.00024597585, 0.087635905, 27755.156, 27755.156, 0.00008171888, 9.995721, 10.002228 
4.6519086e+2, 1.23916395e+2, -1398237.6, -1662736.6, -42019.31, -0.2767777, 0.12356874, -1391722.8, 333916.78, 0.00006861708, 10.002594, 9.999096 
4.6517694e+2, 1.3391732e+2, -1360898.8, -1581388.4, 106335.82, 0.053652897, 0.27191466, -1317972.9, 309655.56, 0.000031830437, 10.0021, 9.999245 
4.6515638e+2, 1.4391604e+2, -1235255.5, -1386505.4, 61834.28, -0.34178567, 0.1946569, -1213194.1, 316443.56, 0.000010127311, 10.001946, 9.999964 
4.651404e+2, 1.5391569e+2, -1101171.9, -1260078.9, -45398.465, -0.14005683, 0.13972342, -1089116.5, 342518.97, 0.0000014146574, 10.002147, 10.000063 
4.6512356e+2, 1.6391453e+2, -1176008.6, -1510820.1, -51295.387, -0.017425383, 0.12833557, -1168326.1, 165319.72, 0.000000030371112, 10.002115, 9.99768 
4.6510446e+2, 1.7391232e+2, -1149563.5, -1479507.1, 15983.179, -0.1344438, 0.1546857, -1148791.1, 86882.73, 0.0, 10.0017605, 9.997395 
4.65086e+2, 1.8391041e+2, -915699.6, -1110009.0, 23527.533, -0.16366218, 0.14608873, -912891.44, 224801.75, 0.0, 10.001808, 9.999232 
4.6506897e+2, 1.939089e+2, -705426.8, -936024.4, -39867.504, -0.020435259, 0.040461805, -698728.75, 340971.56, 0.0, 10.00248, 9.999434 
4.6505195e+2, 2.039074e+2, -750208.2, -1024921.7, 5662.6455, 0.04444597, -0.0028354754, -750091.5, 191619.4, 0.0, 10.0020075, 9.998377 
4.6503472e+2, 2.1390592e+2, -987258.0, -1104064.8, 38830.348, -0.02423788, 0.013698742, -975527.6, -131800.78, 0.0, 9.999773, 9.998239 
4.6501595e+2, 2.2390446e+2, -1043660.3, -1087038.0, -75358.38, -0.08901779, 0.05270317, -986931.75, -241189.16, 0.0, 9.998747, 9.998175 
4.649949e+2, 2.3390307e+2, -818564.8, -929608.75, -99477.25, -0.14750865, 0.08420765, -760163.94, -112405.57, 0.0, 9.999623, 9.998162 
4.6497598e+2, 2.4390161e+2, -627607.4, -749728.8, 17276.205, -0.12781172, 0.1114323, -625210.4, -75436.59, 0.0, 10.000099, 9.998495 
4.6496037e+2, 2.5390005e+2, -539588.4, -650232.8, 25120.816, 0.015136015, 0.09046534, -534152.0, -82363.08, 0.0, 10.000003, 9.998551 
4.6494323e+2, 2.6389864e+2, -495709.63, -544679.44, 4555.823, 0.0462733, 0.08628991, -495289.4, -141487.16, 0.0, 9.999483, 9.998856 
4.6492356e+2, 2.738975e+2, -566234.75, -524233.3, 44224.67, -0.10913944, 0.070501104, -496276.38, -240463.19, 0.0, 9.998314, 9.998884 
4.6490481e+2, 2.838966e+2, -538348.7, -453578.75, 78564.336, -0.18939486, 0.09667902, -406695.38, -248871.45, 0.00000001636591, 9.997804, 9.998947 
4.6488786e+2, 2.9389623e+2, -360694.63, -304502.63, 61452.633, -0.10095581, 0.15135263, -265027.84, -205194.44, 0.0000038137496, 9.998298, 9.999058 
4.6487212e+2, 3.038967e+2, -214671.22, 40117.117, 26039.781, 0.13692844, 0.19097702, 42751.19, 42751.19, 0.000027236774, 9.997893, 10.001288 
4.6485195e+2, 3.1389692e+2, -375175.38, 100322.3, 39134.293, -0.051383324, 0.05429565, 103521.586, 103521.586, 0.00008037478, 9.996182, 10.002521 
4.75194e+2, 1.2393632e+2, -1382668.9, -1627557.5, -115502.13, -0.24492326, 0.22844748, -1336788.1, 388659.03, 0.0000619462, 10.00258, 9.999343 
4.7517976e+2, 1.3393633e+2, -1327945.8, -1512576.6, 96017.59, 0.11827248, 0.2399921, -1287063.9, 340376.6, 0.000026823842, 10.002101, 9.999714 
4.751588e+2, 1.4393422e+2, -1347682.4, -1628386.6, 66756.7, -0.3041678, 0.12839615, -1332615.1, 196842.81, 0.00000757137, 10.001978, 9.998292 
4.751415e+2, 1.5393242e+2, -1232855.5, -1538050.9, -31770.34, -0.25299713, 0.11994741, -1229583.4, 201894.05, 0.000000923615, 10.002167, 9.998147 
4.7512454e+2, 1.6393106e+2, -1070222.0, -1292721.3, -64538.965, -0.13857146, 0.12787615, -1052856.9, 280633.75, 0.000000014696447, 10.002119, 9.999177 
4.7510728e+2, 1.7393042e+2, -1015086.0, -1201458.8, 6536.2466, -0.038044386, 0.12573057, -1014857.06, 220637.25, 0.0, 10.001767, 9.9993 
4.7508955e+2, 1.8392883e+2, -997948.06, -1279090.6, 40408.23, 0.001189796, 0.09423626, -992255.5, 145251.73, 0.0, 10.001799, 9.998079 
4.750716e+2, 1.9392571e+2, -814956.1, -1159326.3, -10100.14, -0.015453615, -0.019827195, -814660.1, 224874.78, 0.0, 10.002459, 9.997913 
4.750534e+2, 2.0392394e+2, -718510.4, -949537.6, -69490.234, -0.014570976, -0.030001914, -699219.4, 242331.98, 0.0, 10.0019655, 9.998917 
4.7503483e+2, 2.1392421e+2, -937368.5, -991642.56, -42847.52, 0.0011934041, 0.08674388, -913787.44, -70236.84, 0.0, 9.999735, 9.999029 
4.7501537e+2, 2.2392347e+2, -1046579.9, -1088491.6, -58012.703, -0.03028421, 0.15228973, -1005854.2, -260294.64, 0.0, 9.998723, 9.998179 
4.7499475e+2, 2.3392119e+2, -831909.44, -946697.5, -61678.11, -0.13018893, 0.105086125, -805052.3, -157468.92, 0.0, 9.999576, 9.998071 
4.7497636e+2, 2.4391928e+2, -638259.06, -767684.94, 14990.535, -0.10844608, 0.09832752, -636545.5, -86943.03, 0.0, 10.000078, 9.998383 
4.749613e+2, 2.53918e+2, -552598.06, -673210.75, 25325.99, 0.10083596, 0.11454973, -547496.0, -95881.47, 0.0, 9.99998, 9.998406 
4.74943e+2, 2.6391688e+2, -423011.6, -387028.6, -37587.734, 0.06819772, 0.09584658, -363348.38, -9725.196, 0.0, 9.999457, 9.999949 
4.7491965e+2, 2.7391592e+2, -486556.0, -346110.63, 4287.5156, -0.34074587, -0.019141078, -345979.84, -90352.29, 0.0, 9.9982605, 10.000133 
4.7490004e+2, 2.839156e+2, -553958.6, -481906.0, 90031.29, -0.45513865, 0.0018879334, -420960.5, -263329.38, 0.0000000367379, 9.997784, 9.998762 
4.7488636e+2, 2.9391623e+2, -390196.78, -362490.5, 86605.305, -0.089032866, 0.18914619, -288637.38, -229003.95, 0.000004802636, 9.998279, 9.998671 
4.7487086e+2, 3.0391604e+2, -276807.47, -87845.39, -32078.125, 0.21304905, 0.22592911, -82548.31, -82548.31, 0.000029242266, 9.997885, 10.000414 
4.7484648e+2, 3.1391507e+2, -454078.6, -61020.273, 5857.7026, -0.23789251, 0.06556407, -60932.996, -60932.996, 0.000080926366, 9.996168, 10.001419 
4.8519698e+2, 1.2395661e+2, -1521350.1, -1703621.8, -49255.727, -0.15002066, 0.2505517, -1508891.3, 216354.42, 0.000055526405, 10.001672, 9.999251 
4.8518246e+2, 1.3395582e+2, -1195769.1, -1445294.5, 164688.17, 0.14174625, 0.17953697, -1113921.3, 513324.13, 0.000022118897, 10.002986, 9.999747 
4.8516196e+2, 1.439534e+2, -1173879.6, -1624541.0, 134274.67, -0.26408058, 0.06513835, -1136905.9, 392360.56, 0.000005492993, 10.003525, 9.99757 
4.851443e+2, 1.5395114e+2, -1198345.4, -1609441.0, 104306.39, -0.22050497, 0.09103492, -1173394.4, 257899.02, 0.0000005793721, 10.002788, 9.997356 
4.8512715e+2, 1.6394962e+2, -1024909.25, -1272422.6, 84659.6, -0.103304334, 0.12914705, -998722.7, 334587.06, 0.0000000048834687, 10.002438, 9.999164 
4.8511004e+2, 1.739493e+2, -867513.0, -1120757.1, 20775.205, 0.020201648, 0.14703791, -865820.0, 369490.22, 0.0, 10.002738, 9.999385 
4.8509222e+2, 1.839478e+2, -896230.9, -1235826.3, 18715.219, 0.057090923, 0.12403626, -895202.56, 242119.3, 0.0, 10.002519, 9.998028 
4.850736e+2, 1.9394456e+2, -963807.25, -1236963.6, 68287.234, -0.0044096024, 0.0032955343, -947687.2, 91663.77, 0.0, 10.001464, 9.997857 
4.8505473e+2, 2.039428e+2, -888763.3, -1050519.8, 23583.697, -0.023045493, 0.0068740933, -885395.0, 55973.047, 0.0, 10.000886, 9.998741 
4.8503533e+2, 2.1394326e+2, -756591.1, -924819.6, -28630.404, 0.01690859, 0.15860751, -751852.1, 91515.164, 0.0, 10.001068, 9.998845 
4.8501566e+2, 2.2394247e+2, -672765.9, -896827.6, -23202.928, 0.0023283244, 0.2261546, -670388.3, 74988.58, 0.0, 10.001241, 9.998279 
4.849956e+2, 2.3393984e+2, -555048.5, -796238.9, -10147.292, -0.089396425, 0.1294789, -554622.4, 92780.35, 0.0, 10.001406, 9.998217 
4.8497686e+2, 2.4393779e+2, -529542.25, -691328.2, 42976.332, -0.090468414, 0.09018891, -518834.78, 30587.201, 0.0, 10.000721, 9.998597 
4.8496014e+2, 2.5393665e+2, -711439.6, -723132.1, 66223.51, 0.050059162, 0.101914346, -650804.8, -199373.45, 0.0, 9.998776, 9.998643 
4.849411e+2, 2.639357e+2, -660502.6, -506101.56, 11123.001, 0.013632834, 0.088462554, -505304.4, -151866.08, 0.0, 9.997847, 9.999908 
4.8491842e+2, 2.7393487e+2, -461238.8, -341965.72, -48518.453, -0.29190314, -0.009701648, -324722.13, -69279.27, 0.0, 9.998464, 10.000066 
4.8489892e+2, 2.8393465e+2, -445979.1, -395167.4, 5789.7173, -0.36770675, 0.010999414, -394516.06, -237071.08, 0.00000008825205, 9.998383, 9.999064 
4.8488438e+2, 2.9393548e+2, -511931.38, -384376.5, 45412.043, -0.061110485, 0.18803021, -369860.78, -310418.38, 0.0000054540624, 9.997288, 9.998994 
4.84868e+2, 3.0393502e+2, -469214.53, -207188.94, -31653.508, 0.20254475, 0.18893027, -203419.31, -203419.31, 0.000030858784, 9.99668, 10.00017 
4.848433e+2, 3.1393373e+2, -407811.03, -102024.39, 58138.78, -0.19629845, 0.028229438, -91343.61, -91343.61, 0.00008250138, 9.996769, 10.000843 
4.951995e+2, 1.2397735e+2, -1546011.0, -1763531.0, -57888.313, -0.09089124, 0.2038167, -1531564.6, 193470.22, 0.000046844398, 10.001705, 9.998826 
4.95185e+2, 1.3397582e+2, -1226560.0, -1503717.3, 216557.84, 0.08634438, 0.09749811, -1108036.9, 519006.7, 0.000016949705, 10.002964, 9.999357 
4.951656e+2, 1.4397351e+2, -1160109.9, -1594094.9, 109434.09, -0.2624837, 0.007326642, -1134076.5, 394987.34, 0.0000036399508, 10.003512, 9.997787 
4.9514848e+2, 1.5397182e+2, -1180814.4, -1569070.0, 77224.32, -0.09023762, 0.06145066, -1166018.3, 265065.94, 0.00000029431382, 10.00277, 9.997643 
4.951311e+2, 1.6397025e+2, -1127791.0, -1481910.1, 86664.52, 0.039924566, 0.14082801, -1107719.0, 225384.77, 0.0000000005507737, 10.0024185, 9.997735 
4.9511278e+2, 1.7396885e+2, -985645.0, -1359181.3, 35873.086, 0.0073208255, 0.21821281, -982231.06, 252890.78, 0.0, 10.002709, 9.997763 
4.95094e+2, 1.839673e+2, -829063.7, -1085979.3, -18423.814, -0.024801264, 0.22932269, -827749.2, 309388.03, 0.0, 10.002474, 9.999079 
4.95075e+2, 1.939654e+2, -871932.7, -1040550.0, 29877.732, -0.021376938, 0.108858526, -866795.1, 172354.1, 0.0, 10.001438, 9.999219 
4.9505574e+2, 2.0396394e+2, -952431.4, -1176892.6, 21720.97, -0.018420141, 0.10299336, -950348.75, -9186.605, 0.0, 10.000857, 9.997889 
4.950361e+2, 2.1396303e+2, -839540.25, -1090952.6, -17668.193, -0.019177688, 0.2307355, -838304.7, 4872.076, 0.0, 10.001037, 9.997723 
4.950166e+2, 2.2396146e+2, -665375.3, -872175.1, -20040.643, -0.03312485, 0.27170032, -663451.06, 81743.69, 0.0, 10.0012, 9.998469 
4.9499735e+2, 2.3395894e+2, -535593.44, -747711.06, -809.25006, -0.065006286, 0.15403104, -535590.4, 111626.77, 0.0, 10.00137, 9.998568 
4.9497744e+2, 2.4395704e+2, -489656.75, -606452.4, -25365.908, -0.1145552, 0.084101975, -484385.63, 64847.36, 0.0, 10.000709, 9.999187 
4.9495667e+2, 2.5395605e+2, -674066.0, -638088.5, -4067.9753, -0.18416226, 0.04796224, -637634.25, -186394.3, 0.0, 9.99874, 9.999246 
4.9493733e+2, 2.6395515e+2, -748728.8, -682356.94, 22088.709, -0.15594226, 0.061391406, -675677.9, -322429.66, 0.0, 9.997818, 9.998712 
4.9491993e+2, 2.7395427e+2, -565569.0, -550356.56, -20234.025, 0.0022679723, 0.09884136, -536346.3, -281086.84, 0.0, 9.998429, 9.998651 
4.9490148e+2, 2.839538e+2, -392165.13, -280451.13, -32880.12, 0.04174369, 0.13477144, -271492.2, -114227.016, 0.00000018947561, 9.998368, 9.99986 
4.9488175e+2, 2.9395398e+2, -440362.63, -230608.88, 8875.312, -0.06080727, 0.14497682, -230234.0, -170972.83, 0.000005346717, 9.997263, 10.000064 
4.9486333e+2, 3.0395356e+2, -445640.13, -152925.6, -33289.688, 0.06545637, 0.07073659, -149187.38, -149187.38, 0.000029419843, 9.996657, 10.000554 
4.9484217e+2, 3.1395283e+2, -421931.75, -121751.01, 91134.734, -0.008462965, -0.06484965, -96249.07, -96249.07, 0.000078988014, 9.996731, 10.000725 
5.05202e+2, 1.23996034e+2, -1528122.6, -1778028.8, -168725.0, -0.018594328, 0.10062447, -1443120.0, 281727.38, 0.0000353746, 10.00195, 9.998601 
5.0518745e+2, 1.3399489e+2, -1392303.4, -1613294.6, 142785.19, 0.0915641, 0.05827668, -1322252.9, 304602.22, 0.000011528855, 10.001952, 9.999097 
5.05169e+2, 1.4399311e+2, -1370068.4, -1663657.4, 13982.891, -0.1924532, 0.023931323, -1369403.9, 159467.33, 0.0000021243734, 10.001943, 9.998063 
5.0515133e+2, 1.5399145e+2, -1288111.5, -1583160.9, -30295.725, -0.029190304, 0.048106857, -1285032.8, 145857.19, 0.000000117380544, 10.001873, 9.997976 
5.0513357e+2, 1.6398983e+2, -1251079.9, -1562062.4, 40431.723, 0.08506996, 0.11209486, -1245909.3, 87000.44, 0.000000000026416515, 10.001656, 9.997553 
5.05115e+2, 1.7398827e+2, -1224335.3, -1502602.8, 83559.43, 0.041184165, 0.19638583, -1201171.8, 33758.594, 0.0, 10.001187, 9.997514 
5.0509584e+2, 1.8398683e+2, -1030078.7, -1171518.4, 53437.418, -0.011439551, 0.23071022, -1012159.6, 124786.1, 0.0, 10.00105, 9.999177 
5.050761e+2, 1.9398557e+2, -864300.56, -1018318.6, 5393.426, -0.0463122, 0.15960787, -864111.94, 174841.11, 0.0, 10.001421, 9.999375 
5.050567e+2, 2.0398402e+2, -838223.9, -1117948.9, -5037.8994, -0.04241379, 0.1373642, -838133.2, 102833.08, 0.0, 10.001618, 9.997929 
5.0503767e+2, 2.1398206e+2, -769818.5, -1053022.3, 34096.863, 0.016787067, 0.15463674, -765771.2, 77217.5, 0.0, 10.0015, 9.997757 
5.050182e+2, 2.2398031e+2, -687754.44, -864190.1, 67551.555, 0.020017054, 0.16929969, -664861.56, 80145.83, 0.0, 10.000965, 9.998637 
5.0499797e+2, 2.3397888e+2, -750975.1, -833123.56, 65484.453, -0.05860615, 0.14514811, -714749.25, -67728.78, 0.0, 9.999807, 9.998738 
5.0497735e+2, 2.4397765e+2, -684567.44, -704799.0, 14009.406, -0.12429139, 0.13271189, -677403.4, -128371.88, 0.0, 9.999397, 9.999143 
5.0495625e+2, 2.5397655e+2, -474127.03, -547342.75, -22426.172, -0.16459163, 0.09718729, -467803.9, -16763.648, 0.0, 10.000145, 9.999189 
5.0493675e+2, 2.639755e+2, -437053.56, -579182.4, 23415.115, -0.10462651, 0.11643948, -433295.38, -80244.2, 0.0, 10.000165, 9.998287 
5.049195e+2, 2.7397436e+2, -501236.03, -572095.56, 42479.418, 0.091745555, 0.17465222, -481350.63, -226284.4, 0.00000000061010413, 9.999105, 9.998173 
5.049007e+2, 2.8397337e+2, -386789.25, -266494.16, 36355.44, 0.12715638, 0.18040937, -256360.5, -99283.54, 0.00000027554938, 9.998354, 9.999965 
5.0487953e+2, 2.9397282e+2, -314376.5, -148985.11, 1873.176, -0.044080187, 0.09792816, -148963.9, -89885.33, 0.000004532087, 9.998044, 10.000248 
5.048601e+2, 3.0397302e+2, -286736.34, -36107.145, -57487.93, 0.03233364, 0.064024284, -23550.025, -23550.025, 0.0000250645, 9.997574, 10.000919 
5.0483954e+2, 3.1397355e+2, -399274.72, -90897.72, 73049.39, 0.059975095, 0.015138437, -74468.79, -74468.79, 0.0000692816, 9.996791, 10.000916 
5.152042e+2, 1.24012895e+2, -1524649.4, -1781698.4, -208152.08, -0.02211271, -0.043978345, -1408539.8, 316141.0, 0.000024368303, 10.001994, 9.998555 
5.1518977e+2, 1.3401322e+2, -1396113.8, -1628005.0, 149358.9, 0.116360284, 0.06909244, -1322978.9, 303699.0, 0.000007175908, 10.001984, 9.998979 
5.1517195e+2, 1.4401233e+2, -1344727.0, -1619473.4, 8651.902, -0.09976621, 0.11811484, -1344454.9, 184232.1, 0.0000011817215, 10.001975, 9.998351 
5.151528e+2, 1.5401006e+2, -1263865.3, -1532388.0, -28279.62, -0.07697392, 0.04601701, -1260919.4, 169790.72, 0.00000003629146, 10.001873, 9.998323 
5.151344e+2, 1.6400841e+2, -1184191.9, -1417744.0, 22056.426, -0.0009668623, 0.04233167, -1182127.1, 150599.69, 0.0, 10.001633, 9.998553 
5.1511663e+2, 1.7400755e+2, -1149332.8, -1348254.6, 68989.75, 0.08045738, 0.09066286, -1127748.0, 106987.48, 0.0, 10.001192, 9.99857 
5.150976e+2, 1.8400648e+2, -1088941.9, -1291986.4, 59650.84, 0.048984293, 0.14019987, -1072714.5, 64032.383, 0.0, 10.001043, 9.998351 
5.150769e+2, 1.9400509e+2, -941973.56, -1174350.8, 23737.74, -0.11995468, 0.15670459, -939573.5, 99188.77, 0.0, 10.001393, 9.99832 
5.150575e+2, 2.0400308e+2, -782706.44, -990687.0, -11238.431, -0.13113336, 0.10729866, -782100.94, 158679.84, 0.0, 10.001566, 9.998827 
5.1504e+2, 2.1400025e+2, -694636.44, -889680.25, 32196.982, 0.0881898, -0.07438699, -689458.94, 153344.66, 0.0, 10.001466, 9.998895 
5.1502025e+2, 2.2399892e+2, -684915.2, -849030.8, 23154.023, 0.122655764, -0.08761499, -681711.06, 63104.668, 0.0, 10.000924, 9.998761 
5.1499724e+2, 2.3399971e+2, -756412.0, -834991.44, 23885.748, -0.11386708, 0.10716755, -749721.2, -102908.52, 0.0, 9.999767, 9.998744 
5.1497644e+2, 2.439996e+2, -735697.1, -805738.94, 31778.215, -0.1607053, 0.24037072, -723428.3, -174611.16, 0.0, 9.999374, 9.998462 
5.149588e+2, 2.5399822e+2, -528485.44, -655744.6, 10974.258, 0.070918545, 0.24927635, -527546.0, -76713.57, 0.0, 10.000126, 9.998456 
5.149393e+2, 2.639968e+2, -413295.06, -528887.44, -13195.787, 0.12894155, 0.25608912, -411807.8, -58960.508, 0.0, 10.000163, 9.998633 
5.149171e+2, 2.739951e+2, -472453.88, -506930.1, 6948.7363, -0.076362945, 0.21149196, -471106.03, -216242.42, 0.0000000018853024, 9.999083, 9.9986315 
5.1489615e+2, 2.839933e+2, -432333.66, -358294.0, 18587.447, -0.16596326, 0.14342839, -353889.66, -197008.72, 0.00000034744536, 9.998342, 9.99934 
5.1487744e+2, 2.939919e+2, -370577.2, -262467.47, -4426.087, -0.0627008, 0.048185635, -262286.56, -203391.36, 0.0000038784074, 9.99803, 9.9994755 
5.14858e+2, 3.0399346e+2, -259656.11, 19265.217, -87806.69, 0.06124611, 0.17534205, 44605.316, 44605.316, 0.000021208403, 9.997578, 10.0013 
5.148351e+2, 3.1399614e+2, -370953.4, -16689.684, 64626.707, -0.077704266, 0.29174373, -5268.349, -5268.349, 0.00006028198, 9.996735, 10.001449 
5.252068e+2, 1.24032445e+2, -1427743.3, -1737737.4, -151151.95, 0.01324907, -0.010722632, -1366243.3, 358248.22, 0.000017419088, 10.002666, 9.998537 
5.251918e+2, 1.3403237e+2, -1277146.1, -1585542.6, 210640.89, 0.079660125, 0.07486972, -1170295.1, 456197.8, 0.0000044679277, 10.002849, 9.998861 
5.251748e+2, 1.4403172e+2, -1240532.1, -1552386.8, 55737.395, -0.038887776, 0.14798273, -1230869.6, 297630.6, 0.00000056158297, 10.002622, 9.998498 
5.2515507e+2, 1.5403005e+2, -1265562.1, -1513633.6, -5432.475, -0.026463736, 0.120783225, -1265443.3, 165074.34, 0.000000004981165, 10.001776, 9.9985 
5.251362e+2, 1.640284e+2, -1206663.3, -1380267.9, 36764.906, 0.03426793, 0.08812834, -1199198.4, 133334.48, 0.0, 10.001268, 9.99899 
5.2511805e+2, 1.7402673e+2, -1094583.0, -1267598.5, 35158.902, 0.0986311, 0.006620209, -1087711.3, 146834.13, 0.0, 10.001334, 9.999056 
5.250989e+2, 1.8402554e+2, -1065118.9, -1287409.4, 38810.67, 0.07497893, 0.020022953, -1058537.6, 78019.02, 0.0, 10.001231, 9.998297 
5.250786e+2, 1.9402502e+2, -1036160.7, -1229705.9, 64437.96, -0.052131888, 0.13685481, -1016669.9, 21896.44, 0.0, 10.000791, 9.998229 
5.25059e+2, 2.040236e+2, -917635.3, -1018600.06, 54318.05, -0.07813369, 0.1354322, -893963.0, 46617.215, 0.0, 10.000484, 9.999156 
5.2504045e+2, 2.1402088e+2, -828126.7, -912584.1, 33728.215, 0.048812766, -0.07152736, -816310.44, 26289.813, 0.0, 10.000372, 9.999266 
5.2502036e+2, 2.2401953e+2, -761583.6, -901443.8, -18752.428, 0.071115315, -0.100383855, -759112.94, -14500.777, 0.0, 10.000467, 9.998621 
5.2499807e+2, 2.3402008e+2, -610672.06, -786439.2, -42365.504, -0.060626965, 0.09097819, -600993.56, 45619.566, 0.0, 10.000867, 9.998547 
5.249775e+2, 2.440199e+2, -501893.22, -682311.56, 8858.782, -0.06833359, 0.2219549, -501459.28, 47159.83, 0.0, 10.000937, 9.998552 
5.2495944e+2, 2.5401866e+2, -456524.03, -609358.6, 46577.293, 0.105531886, 0.23452686, -443448.03, 7183.8755, 0.0, 10.000572, 9.998558 
5.249394e+2, 2.640174e+2, -393115.72, -490553.84, 28277.71, 0.11794101, 0.23823425, -385503.8, -32859.414, 0.0, 10.000174, 9.998894 
5.249161e+2, 2.7401575e+2, -358499.53, -418641.97, 27948.38, -0.104910545, 0.17277257, -347517.25, -92858.516, 0.00000000009174081, 9.999721, 9.998931 
5.248947e+2, 2.84014e+2, -318020.4, -323765.1, 67881.47, -0.18548124, 0.09667513, -252950.55, -96274.53, 0.00000033351301, 9.999224, 9.999149 
5.24876e+2, 2.940125e+2, -293765.88, -257826.77, 72777.375, -0.043596067, 0.018215654, -200833.33, -142140.2, 0.000003888586, 9.998698, 9.999184 
5.248557e+2, 3.0401468e+2, -204796.48, 3950.4543, -20872.08, 0.04187488, 0.24455719, 6016.944, 6016.944, 0.000020489533, 9.998134, 10.000927 
5.248317e+2, 3.1401744e+2, -275113.13, 19406.01, 52693.863, -0.11921835, 0.40926045, 28549.842, 28549.842, 0.000057556197, 9.997418, 10.001375 
5.352094e+2, 1.24054454e+2, -1422931.6, -1731372.0, -170663.67, -0.010425425, 0.18316557, -1347130.3, 377151.2, 0.00001393923, 10.002692, 9.998563 
5.351934e+2, 1.3405229e+2, -1292732.3, -1609519.6, 219889.4, -0.05383374, 0.07853237, -1180127.9, 446172.84, 0.0000028709262, 10.002821, 9.998709 
5.351774e+2, 1.4405128e+2, -1241691.0, -1553781.4, 24136.646, -0.048376516, 0.12358169, -1239835.4, 288475.6, 0.00000017575856, 10.00261, 9.998496 
5.3515804e+2, 1.540514e+2, -1265954.0, -1514836.6, -34818.76, 0.077972986, 0.2704457, -1261174.6, 169138.7, 0.00000000000050979853, 10.001774, 9.998495 
5.351386e+2, 1.6404979e+2, -1213359.5, -1393529.5, 31196.7, 0.14065056, 0.24796033, -1208110.8, 124217.195, 0.0, 10.001267, 9.998898 
5.3511906e+2, 1.7404576e+2, -1100773.4, -1282509.8, 41206.188, 0.05864301, -0.06020902, -1091867.0, 142493.25, 0.0, 10.001344, 9.998949 
5.350998e+2, 1.8404399e+2, -1014940.2, -1181654.5, 20966.662, 0.033466406, -0.13137227, -1012343.75, 124031.266, 0.0, 10.001224, 9.999025 
5.350811e+2, 1.9404541e+2, -981603.5, -1114272.4, 50848.56, 0.11133319, 0.098624885, -964356.6, 74008.54, 0.0, 10.000777, 9.99903 
5.3506106e+2, 2.040456e+2, -940477.44, -1058350.5, 44992.87, 0.070191205, 0.22399901, -925266.3, 15098.456, 0.0, 10.000452, 9.998898 
5.35039e+2, 2.1404396e+2, -860388.4, -970917.7, 33662.973, -0.14030209, 0.16256407, -850943.06, -8564.928, 0.0, 10.000333, 9.998884 
5.350185e+2, 2.2404213e+2, -796951.44, -968155.3, -9176.284, -0.17116746, 0.12823279, -796461.06, -52064.695, 0.0, 10.000436, 9.99818 
5.3500026e+2, 2.3404e+2, -644327.7, -849200.9, -23393.51, 0.062301446, 0.093292356, -641690.44, 4731.3965, 0.0, 10.000836, 9.998131 
5.349803e+2, 2.4403845e+2, -446612.13, -563666.3, -5712.9478, 0.11054597, 0.07253755, -446333.97, 102103.95, 0.0, 10.000922, 9.999373 
5.34958e+2, 2.5403777e+2, -393253.38, -473536.4, 35444.977, -0.10776463, 0.04410947, -379844.1, 70595.8, 0.0, 10.000553, 9.999499 
5.3493667e+2, 2.6403716e+2, -380518.6, -459463.34, 9169.44, -0.17876562, 0.056091644, -379467.56, -27024.404, 0.0, 10.0001545, 9.999117 
5.3491664e+2, 2.740364e+2, -351593.9, -396624.66, 16174.899, -0.03396008, 0.06291158, -346386.22, -91935.31, 0.0, 9.999688, 9.999098 
5.3489625e+2, 2.8403544e+2, -299608.34, -288307.78, 44712.973, 0.032598637, 0.044633366, -248889.5, -92427.96, 0.00000019037492, 9.999231, 9.999392 
5.34875e+2, 2.940346e+2, -280652.78, -226353.48, 58041.254, -0.019673683, 0.009924171, -189425.9, -130954.45, 0.000003945089, 9.998678, 9.999411 
5.3485286e+2, 3.0403668e+2, -293172.44, -174237.45, -46367.21, -0.056535408, 0.27076936, -158297.38, -158297.38, 0.000021599248, 9.998117, 9.999709 
5.348291e+2, 3.1403732e+2, -334973.13, -87607.68, 33366.43, -0.14377517, 0.34885234, -83186.016, -83186.016, 0.000060066017, 9.997361, 10.000659 
5.4521286e+2, 1.2407561e+2, -1312001.6, -1664075.8, -174845.6, 0.037637006, 0.28606215, -1239925.8, 484152.56, 0.000011458186, 10.003397, 9.998691 
5.451958e+2, 1.3407305e+2, -1364680.8, -1642707.5, 215004.22, -0.06261107, 0.14018762, -1247663.8, 378436.7, 0.000001954622, 10.002323, 9.998721 
5.451805e+2, 1.4407183e+2, -1384144.6, -1594874.9, 42737.836, 0.053809386, 0.15399966, -1375806.9, 152304.64, 0.000000029079224, 10.001515, 9.998742 
5.451601e+2, 1.5407199e+2, -1308615.9, -1503852.8, -6976.4033, 0.13912043, 0.27808595, -1308366.9, 121745.44, 0.0, 10.001345, 9.9987755 
5.4514015e+2, 1.6407059e+2, -1188348.3, -1388578.9, 106540.97, 0.16526273, 0.2637823, -1142264.9, 189860.08, 0.0, 10.001479, 9.998828 
5.4512084e+2, 1.7406698e+2, -1016139.2, -1254083.6, 109610.7, 0.07235518, 0.009290822, -973343.4, 260811.63, 0.0, 10.001982, 9.998837 
5.4510146e+2, 1.8406525e+2, -901856.2, -1114064.0, 44403.094, 0.04108626, -0.054955352, -892939.75, 243229.97, 0.0, 10.001941, 9.999146 
5.450821e+2, 1.940663e+2, -912013.1, -1063660.0, 15061.012, 0.115065746, 0.122484624, -910531.8, 127630.6, 0.0, 10.001178, 9.999186 
5.4506165e+2, 2.0406647e+2, -889631.1, -1030668.25, 19664.445, 0.0784535, 0.23751178, -886940.7, 53221.32, 0.0, 10.000786, 9.998927 
5.450397e+2, 2.1406534e+2, -779210.06, -927055.3, 34010.145, -0.1185259, 0.22406189, -771761.7, 70410.55, 0.0, 10.000873, 9.998922 
5.450192e+2, 2.240637e+2, -765561.06, -949640.6, 26691.322, -0.14815205, 0.20288695, -761769.0, -17579.678, 0.0, 10.000642, 9.998206 
5.450007e+2, 2.340612e+2, -765680.25, -905570.94, 37398.055, 0.07113823, 0.13075286, -756310.0, -110093.02, 0.0, 9.999994, 9.998149 
5.449805e+2, 2.4405941e+2, -597263.94, -590333.7, 66759.74, 0.106707394, 0.066498734, -526949.2, 21284.348, 0.0, 9.999679, 9.999796 
5.4495794e+2, 2.540587e+2, -460548.8, -452229.66, 65168.418, -0.12788007, -0.010539908, -391088.22, 59145.38, 0.0, 9.999858, 9.999983 
5.449364e+2, 2.640584e+2, -409336.3, -441689.6, 18900.021, -0.19816874, -0.0064799474, -400635.38, -48402.766, 0.0, 9.999822, 9.999398 
5.4491633e+2, 2.7405843e+2, -359099.47, -371726.72, 24522.701, -0.02318543, 0.052897807, -340090.7, -85857.66, 0.0, 9.999512, 9.999356 
5.448957e+2, 2.8405786e+2, -285832.28, -273369.63, 58883.766, 0.06140898, 0.058650915, -220388.38, -64149.016, 0.00000011177434, 9.999296, 9.99946 
5.4487413e+2, 2.9405683e+2, -196037.6, -180523.53, 51665.355, 0.008396192, -0.0024490827, -136036.13, -77785.96, 0.0000044340386, 9.999241, 9.999453 
5.448511e+2, 3.0405793e+2, -241027.17, -221843.69, -50226.07, -0.06602396, 0.18733032, -180301.69, -180301.69, 0.000024114986, 9.998796, 9.999048 
5.4482645e+2, 3.1405717e+2, -304839.7, -102992.98, 47670.453, -0.14802818, 0.1970743, -92300.94, -92300.94, 0.00006615612, 9.997699, 10.000389 
5.552168e+2, 1.2409612e+2, -1290422.1, -1618628.1, -224579.64, 0.07130114, 0.31965908, -1176378.0, 547502.5, 0.000009520663, 10.003399, 9.999 
5.5519885e+2, 1.3409464e+2, -1351748.0, -1612949.5, 174649.1, 0.00574846, 0.26139894, -1264268.9, 361623.1, 0.0000015554338, 10.002316, 9.998927 
5.551837e+2, 1.4409335e+2, -1348575.6, -1525995.3, 25397.537, 0.2172834, 0.23722386, -1345011.6, 182890.31, 0.000000016896806, 10.001533, 9.999208 
5.551613e+2, 1.5409192e+2, -1268799.4, -1428913.6, -9601.093, 0.11849715, 0.15324256, -1268225.8, 161688.34, 0.0, 10.001378, 9.999274 
5.5514085e+2, 1.640909e+2, -1188747.6, -1395790.5, 119097.516, 0.0757478, 0.15101479, -1134468.9, 197454.45, 0.0, 10.001504, 9.998766 
5.5512315e+2, 1.7409028e+2, -1029204.9, -1274442.5, 131755.52, 0.10141493, 0.20976023, -971837.9, 262092.34, 0.0, 10.001953, 9.998712 
5.5510366e+2, 1.8408926e+2, -942537.25, -1186659.3, 15382.349, 0.059241246, 0.24293141, -941571.8, 194369.31, 0.0, 10.001889, 9.998673 
5.550815e+2, 1.9408764e+2, -952956.7, -1143690.9, -9816.234, -0.072509445, 0.206287, -952452.8, 85505.18, 0.0, 10.001154, 9.9986515 
5.550609e+2, 2.0408623e+2, -865898.4, -976321.0, 17859.281, -0.08591869, 0.17446713, -863081.75, 76890.3, 0.0, 10.000765, 9.99931 
5.550426e+2, 2.1408509e+2, -753242.9, -863814.1, 41319.637, 0.07352237, 0.11312057, -739508.1, 102474.03, 0.0, 10.000831, 9.999379 
5.550224e+2, 2.240842e+2, -740963.5, -886682.25, 747.34467, 0.09723873, 0.123918235, -740959.7, 3031.3784, 0.0, 10.000593, 9.99866 
5.5499935e+2, 2.3408365e+2, -742918.0, -845381.2, 17181.717, -0.07044799, 0.20140047, -740113.6, -94114.984, 0.0, 9.99994, 9.998588 
5.549781e+2, 2.4408281e+2, -599370.0, -588867.5, 68163.32, -0.11510948, 0.20684788, -525753.44, 22252.426, 0.0, 9.999653, 9.999819 
5.549593e+2, 2.5408152e+2, -467116.56, -457763.63, 76856.62, 0.016569199, 0.075693384, -385441.34, 64571.234, 0.0, 9.999824, 9.999962 
5.5493855e+2, 2.6408115e+2, -388805.47, -393983.5, 6101.569, 0.029324573, 0.05413385, -384766.34, -32753.703, 0.0, 9.999802, 9.999733 
5.549149e+2, 2.7408183e+2, -341152.8, -326751.78, 17167.98, -0.11804477, 0.14309025, -315335.44, -61330.266, 0.0, 9.999479, 9.9996805 
5.548931e+2, 2.8408125e+2, -294871.0, -291704.28, 53807.76, -0.14134459, 0.13635857, -239456.6, -83446.555, 0.00000024371042, 9.999289, 9.999341 
5.548734e+2, 2.9407907e+2, -207022.63, -203121.45, 54335.516, 0.00089238596, -0.020396555, -150701.53, -92671.664, 0.0000057652805, 9.999235, 9.999304 
5.5485034e+2, 3.040783e+2, -247287.33, -234627.02, -88213.51, -0.028867777, -0.006100815, -152516.83, -152516.83, 0.000028463612, 9.998793, 9.998962 
5.548237e+2, 3.140766e+2, -286338.0, -59643.42, 8923.403, -0.21915299, -0.08514997, -59292.71, -59292.71, 0.00007494189, 9.997676, 10.000696 
5.652207e+2, 1.2411635e+2, -1369885.9, -1679658.5, -162841.22, 0.15657645, 0.2392184, -1300034.5, 423643.2, 0.0000076155075, 10.002939, 9.998805 
5.652009e+2, 1.3411479e+2, -1380937.6, -1658768.6, 165147.11, -0.007022063, 0.20019989, -1304049.8, 321642.53, 0.0000012604258, 10.002235, 9.998657 
5.651859e+2, 1.4411339e+2, -1252323.0, -1465413.1, 41995.62, 0.2596929, 0.17108111, -1244345.3, 283359.38, 0.000000037787355, 10.002136, 9.999331 
5.6516296e+2, 1.5411207e+2, -1010230.1, -1286118.6, -23097.54, 0.062061448, 0.08559861, -1008309.75, 421404.72, 0.0, 10.0030775, 9.999436 
5.65142e+2, 1.6411157e+2, -1013321.2, -1298756.0, 59840.79, -0.01679405, 0.12188541, -1001283.4, 330436.22, 0.0, 10.002658, 9.998876 
5.6512403e+2, 1.7411205e+2, -1248880.3, -1368013.5, 75419.14, 0.07369409, 0.2771653, -1212341.6, 21378.094, 0.0, 10.00039, 9.998822 
5.6510437e+2, 1.8411137e+2, -1257134.9, -1295690.1, 45413.547, 0.06819448, 0.32209206, -1227076.8, -91348.84, 0.0, 9.999551, 9.999046 
5.650823e+2, 1.941091e+2, -988793.4, -1111890.9, 86081.45, -0.07328142, 0.17822465, -944520.25, 93227.19, 0.0, 10.000704, 9.99908 
5.6506175e+2, 2.0410754e+2, -862073.3, -982742.44, 113805.74, -0.07532643, 0.11330818, -793597.94, 146164.19, 0.0, 10.000832, 9.999233 
5.6504333e+2, 2.14107e+2, -949963.9, -970475.2, 83400.086, 0.1324808, 0.12590648, -876191.25, -34421.37, 0.0, 9.999537, 9.999268 
5.650228e+2, 2.2410671e+2, -884197.56, -881969.56, 66145.64, 0.15530935, 0.17267303, -816928.5, -73155.04, 0.0, 9.999287, 9.999322 
5.649994e+2, 2.3410676e+2, -608318.6, -693464.9, 102921.31, -0.0777164, 0.23286127, -539512.8, 106258.875, 0.0, 10.000488, 9.999363 
5.6497794e+2, 2.4410616e+2, -510176.1, -592842.0, 123462.76, -0.12737413, 0.2407952, -421311.25, 126464.52, 0.0, 10.000486, 9.99938 
5.649593e+2, 2.5410452e+2, -646131.6, -606189.2, 77998.76, 0.086355634, 0.1302993, -545645.5, -95856.234, 0.0, 9.998869, 9.999396 
5.649384e+2, 2.6410383e+2, -589836.5, -457315.13, 25260.863, 0.1148276, 0.09576533, -452663.28, -100869.875, 0.0, 9.998284, 10.000027 
5.649143e+2, 2.7410436e+2, -356429.13, -285054.75, 35843.137, -0.109003104, 0.13052355, -270162.25, -16377.4, 0.0, 9.999178, 10.000103 
5.648921e+2, 2.8410393e+2, -282088.3, -284323.4, 63360.57, -0.16516054, 0.11871561, -219835.44, -64048.48, 0.00000046127252, 9.999372, 9.9993515 
5.648724e+2, 2.941024e+2, -304089.22, -251962.86, 63674.645, 0.007929856, 0.022378705, -209223.8, -151421.2, 0.000007729108, 9.998579, 9.999285 
5.648489e+2, 3.0410117e+2, -292485.78, -210759.33, -46679.594, -0.02451142, -0.02327351, -189583.95, -189583.95, 0.000034443015, 9.998271, 9.999383 
5.6482196e+2, 3.1409946e+2, -129256.41, 68079.01, 66756.34, -0.19504341, -0.14812091, 88540.33, 88540.33, 0.00008580813, 9.998515, 10.001177 
5.752243e+2, 1.2413643e+2, -1411649.9, -1774182.5, -175293.67, 0.19939148, 0.057925973, -1340754.8, 382715.1, 0.00000524954, 10.00297, 9.99814 
5.75202e+2, 1.3413373e+2, -1429878.1, -1761420.6, 138436.47, -0.13546664, -0.025018157, -1379675.4, 245824.73, 0.00000084613123, 10.00224, 9.997949 
5.7518715e+2, 1.4413214e+2, -1266590.5, -1496804.9, 67300.81, 0.15423572, -0.024811255, -1248359.5, 279158.06, 0.00000002938157, 10.002142, 9.999115 
5.7516485e+2, 1.541325e+2, -1030741.25, -1317750.9, 17842.55, -0.06441041, 0.076739416, -1029636.3, 399876.72, 0.0, 10.003032, 9.999242 
5.7514334e+2, 1.6413262e+2, -999538.6, -1262022.3, -19084.105, -0.15298653, 0.1731823, -998158.4, 333355.34, 0.0, 10.002615, 9.99915 
5.751233e+2, 1.7413229e+2, -1225793.6, -1322032.4, -6127.1978, -0.047687337, 0.21532503, -1225405.0, 8117.792, 0.0, 10.000394, 9.999137 
5.7510364e+2, 1.841317e+2, -1169946.1, -1113318.4, 75248.4, 0.028585844, 0.19365379, -1061233.3, 74295.36, 0.0, 9.999549, 10.0002985 
5.750845e+2, 1.941307e+2, -901415.94, -921501.8, 133513.75, 0.06823396, 0.0463879, -777567.94, 259962.39, 0.0, 10.000666, 10.000406 
5.7506406e+2, 2.0413041e+2, -906440.1, -1065036.1, 67317.09, 0.06727403, 0.05998332, -881720.06, 57812.508, 0.0, 10.000786, 9.998691 
5.7504183e+2, 2.1413104e+2, -1007219.0, -1079903.8, 37350.813, 0.017696219, 0.26083028, -991447.5, -149911.47, 0.0, 9.999494, 9.99854 
5.7502055e+2, 2.2413115e+2, -821960.0, -743577.06, 100834.34, -0.008143709, 0.34237817, -674585.7, 68951.8, 0.0, 9.999248, 10.000291 
5.750009e+2, 2.3413053e+2, -536411.0, -535142.75, 153288.22, 0.0076625366, 0.22763781, -382487.38, 263048.5, 0.0, 10.00045, 10.00047 
5.7498e+2, 2.4412943e+2, -575280.0, -729369.94, 67004.12, 0.024945764, 0.16763455, -550219.75, -2676.1602, 0.0, 10.000485, 9.998446 
5.749578e+2, 2.5412765e+2, -731744.94, -774883.75, 19455.602, 0.039557543, 0.15247971, -724266.8, -274702.34, 0.0, 9.998829, 9.998259 
5.7493585e+2, 2.6412642e+2, -571029.25, -417596.03, 48083.313, 0.02355823, 0.11713148, -403772.9, -52197.684, 0.0, 9.998273, 10.000308 
5.7491434e+2, 2.7412593e+2, -328330.97, -225865.77, 73675.71, -0.033652794, 0.00924052, -187360.47, 66212.36, 0.0, 9.999163, 10.000523 
5.748927e+2, 2.8412595e+2, -275149.47, -261151.9, 33822.086, -0.048578076, 0.0061179074, -233612.06, -78041.21, 0.0000006054728, 9.999336, 9.999527 
5.7487077e+2, 2.9412672e+2, -301147.1, -234700.6, 40329.867, -0.013549155, 0.13048951, -215671.73, -158103.39, 0.000009214798, 9.998532, 9.999425 
5.7484657e+2, 3.041266e+2, -228406.77, -74185.62, -39849.195, -0.08967905, 0.13956523, -64497.582, -64497.582, 0.00003883035, 9.998255, 10.000333 
5.7482123e+2, 3.1412578e+2, -78667.01, 178198.53, 76616.49, -0.13705882, 0.004196325, 199315.28, 199315.28, 0.00009398202, 9.998493, 10.001947 
5.8522695e+2, 1.24157205e+2, -1418999.3, -1769130.3, -191764.73, 0.1748448, -0.0003846963, -1334408.0, 388858.0, 0.0000028849727, 10.002887, 9.99821 
5.8520377e+2, 1.3415554e+2, -1412047.6, -1737572.6, 127988.195, -0.18009989, 0.010611226, -1367753.1, 257532.9, 0.0000003255817, 10.002299, 9.998082 
5.851895e+2, 1.4415427e+2, -1374328.8, -1544329.1, 126461.22, 0.22507857, 0.032938037, -1306956.1, 220344.73, 0.0000000021906112, 10.001396, 9.999143 
5.851671e+2, 1.541544e+2, -1418468.0, -1501742.5, 85287.9, -0.0027713047, 0.10946024, -1365196.5, 64102.68, 0.0, 10.0003605, 9.999261 
5.8514476e+2, 1.6415428e+2, -1407833.9, -1449315.9, 25398.525, -0.11948567, 0.17642558, -1395783.5, -64480.977, 0.0, 9.999771, 9.999233 
5.851233e+2, 1.7415373e+2, -1302404.0, -1346069.5, 10787.565, -0.057185266, 0.1879373, -1299884.4, -66571.016, 0.0, 9.999818, 9.999245 
5.851032e+2, 1.841533e+2, -1091383.5, -1042133.0, 116943.15, 0.018919783, 0.16390051, -947250.5, 188066.64, 0.0, 9.999939, 10.000605 
5.850853e+2, 1.9415306e+2, -963746.4, -913726.8, 100071.266, 0.11293422, 0.059314847, -835587.44, 201723.92, 0.0, 10.000074, 10.000747 
5.8506495e+2, 2.0415324e+2, -998190.56, -1085462.1, -17564.47, 0.11746769, 0.09072313, -994788.1, -55479.45, 0.0, 10.000052, 9.998903 
5.850413e+2, 2.141539e+2, -938701.9, -1020714.8, 9939.002, 0.0029457575, 0.2719748, -937514.56, -96203.555, 0.0, 9.999854, 9.998768 
5.850197e+2, 2.2415394e+2, -778849.0, -720617.75, 124073.63, -0.025984555, 0.33209455, -622289.4, 121023.88, 0.0, 9.999539, 10.00031 
5.8500123e+2, 2.34153e+2, -737931.6, -633998.8, 88033.49, 0.07247547, 0.18592264, -583738.0, 61577.992, 0.0, 9.999072, 10.00046 
5.8498067e+2, 2.4415207e+2, -750908.56, -766876.25, -18123.37, 0.10806459, 0.12401563, -739088.44, -191766.19, 0.0, 9.999076, 9.99887 
5.849572e+2, 2.5415117e+2, -557576.3, -638774.75, 47271.914, 0.051431708, 0.15000613, -535862.4, -86529.1, 0.0, 9.999799, 9.998727 
5.849349e+2, 2.6415017e+2, -356853.75, -333361.6, 150796.61, 0.024603538, 0.12167103, -193854.28, 157487.28, 0.0, 9.999833, 10.00013 
5.8491415e+2, 2.7414906e+2, -369379.16, -273295.2, 120210.91, 0.044426005, -0.027435565, -191881.8, 61465.227, 0.0, 9.999006, 10.000267 
5.8489233e+2, 2.8414926e+2, -401915.56, -287100.84, 40475.586, 0.03962966, -0.008491121, -274266.63, -118922.57, 0.00000055145284, 9.998314, 9.999839 
5.8486897e+2, 2.941515e+2, -386800.84, -233445.13, 53522.492, -0.0038334995, 0.2286029, -216612.81, -159285.17, 0.000008696917, 9.997765, 9.999798 
5.848446e+2, 3.0415168e+2, -309795.16, -85073.72, -3388.3003, -0.07472532, 0.23601872, -85022.64, -85022.64, 0.000037738446, 9.997582, 10.000574 
5.848209e+2, 3.1414977e+2, -189702.81, 113841.53, 27148.117, 0.022217937, -0.032693755, 116250.46, 116250.46, 0.000093645554, 9.99778, 10.001842 
5.9522843e+2, 1.2417866e+2, -1358349.0, -1647922.4, -177060.72, 0.020909172, 0.061088692, -1274413.9, 448651.22, 0.0000011095248, 10.002913, 9.999027 
5.9520614e+2, 1.3418011e+2, -1349551.4, -1606898.0, 104555.28, -0.18088017, 0.28950074, -1312427.8, 312623.16, 0.000000025767086, 10.002298, 9.998979 
5.951929e+2, 1.4417955e+2, -1356312.8, -1507823.6, 83533.99, 0.41228837, 0.32617477, -1319299.4, 207756.8, 0.0, 10.001396, 9.999394 
5.951695e+2, 1.5417768e+2, -1402260.3, -1471439.4, 49981.74, 0.19351797, 0.18141843, -1376066.5, 53007.17, 0.0, 10.000372, 9.999465 
5.9514624e+2, 1.6417652e+2, -1415797.0, -1464097.1, 19018.69, 0.040129304, 0.13949357, -1409207.3, -78121.45, 0.0, 9.999764, 9.999137 
5.9512377e+2, 1.7417628e+2, -1308265.0, -1364257.5, 16689.895, 0.0055359066, 0.19344258, -1303667.6, -70575.664, 0.0, 9.999842, 9.999112 
5.9510297e+2, 1.8417612e+2, -1133124.5, -1125827.1, 119199.67, -0.0040449607, 0.23062591, -1010220.3, 124873.805, 0.0, 9.999929, 10.000032 
5.9508455e+2, 1.9417611e+2, -1011352.25, -1006920.56, 109282.695, 0.022489054, 0.2091675, -899831.25, 137260.02, 0.0, 10.000048, 10.000122 
5.950643e+2, 2.0417596e+2, -932792.06, -940175.94, -27002.479, 0.039309613, 0.19605105, -909230.3, 29860.62, 0.0, 10.000013, 9.999919 
5.9504163e+2, 2.1417563e+2, -865686.3, -857994.4, 7152.597, 0.048158683, 0.16394727, -853719.3, -12625.009, 0.0, 9.999807, 9.999908 
5.950202e+2, 2.241751e+2, -848853.75, -860038.25, 103259.19, 0.058540802, 0.1478319, -751035.5, -7934.8496, 0.0, 9.99951, 9.999368 
5.950004e+2, 2.3417415e+2, -824075.6, -804089.4, 73118.34, 0.07405244, 0.11382461, -740284.44, -95172.414, 0.0, 9.999033, 9.999311 
5.949795e+2, 2.4417402e+2, -623498.94, -501432.6, 1024.9634, 0.0830573, 0.111034684, -501424.0, 45687.95, 0.0, 9.999065, 10.000701 
5.9495735e+2, 2.5417507e+2, -410807.75, -330530.56, 77755.21, 0.083171, 0.1231266, -283165.0, 165930.63, 0.0, 9.999783, 10.000854 
5.949353e+2, 2.6417515e+2, -403710.84, -431058.9, 121537.48, 0.08071557, 0.11295031, -295080.6, 56011.293, 0.0, 9.999833, 9.999459 
5.949136e+2, 2.7417365e+2, -438658.5, -411931.63, 92887.164, 0.07745671, 0.020701604, -331451.53, -78343.9, 0.0, 9.998981, 9.999329 
5.9489095e+2, 2.8417388e+2, -372168.84, -222670.95, 14017.823, 0.055889368, 0.07256515, -221367.9, -66261.016, 0.0000003359344, 9.998299, 10.00029 
5.948668e+2, 2.941768e+2, -352115.53, -152052.63, 34958.727, -0.0021745178, 0.31502333, -146119.9, -89039.27, 0.00000683328, 9.99772, 10.000381 
5.948428e+2, 3.0417636e+2, -356534.03, -167488.75, 1637.4506, -0.015144252, 0.25772512, -167474.56, -167474.56, 0.0000338567, 9.997525, 10.000035 
5.9482074e+2, 3.1417143e+2, -271704.28, -41464.97, 27615.016, 0.20595083, -0.24666436, -38199.133, -38199.133, 0.00008915562, 9.997718, 10.000805 
6.052319e+2, 1.2420179e+2, -1295776.3, -1600049.3, -15954.327, 0.06261033, 0.10729881, -1294941.9, 427897.13, 0.0000003167021, 10.003252, 9.999205 
6.052083e+2, 1.34203e+2, -1317063.4, -1559728.1, 151106.78, -0.20035098, 0.28847644, -1244605.1, 380219.3, 0.000000000013925105, 10.002388, 9.999258 
6.051945e+2, 1.442024e+2, -1366861.3, -1524520.4, 98980.43, 0.44216204, 0.30955654, -1319155.4, 207674.45, 0.0, 10.001373, 9.99929 
6.051705e+2, 1.542006e+2, -1385395.8, -1477482.8, 34153.797, 0.24968746, 0.1864351, -1374111.4, 54737.363, 0.0, 10.000551, 9.999336 
6.051469e+2, 1.6419941e+2, -1299095.6, -1372279.1, 57616.137, 0.10074198, 0.1339085, -1267433.6, 63427.36, 0.0, 10.000414, 9.999454 
6.0512465e+2, 1.74199e+2, -1096395.5, -1222513.1, 88232.26, 0.042648952, 0.13750221, -1051004.6, 181860.14, 0.0, 10.001128, 9.999465 
6.0510355e+2, 1.8419886e+2, -1016886.44, -1115387.3, 185562.38, 0.0130473375, 0.17509598, -874149.9, 260716.69, 0.0, 10.000924, 9.999624 
6.0508424e+2, 1.9419906e+2, -1126917.4, -1111945.3, 175283.77, 0.021665787, 0.21994503, -943987.75, 92878.27, 0.0, 9.999475, 9.999671 
6.050638e+2, 2.0419885e+2, -1054681.6, -957414.06, 62476.14, 0.043167673, 0.20911151, -926873.9, 11993.634, 0.0, 9.998996, 10.000295 
6.050418e+2, 2.1419807e+2, -838186.3, -795032.3, 42121.37, 0.09119283, 0.08791788, -769283.0, 71589.49, 0.0, 9.999774, 10.000362 
6.0502034e+2, 2.2419761e+2, -788940.5, -849430.9, 118539.46, 0.10175808, 0.06426433, -696848.56, 46029.12, 0.0, 10.000002, 9.999204 
6.049994e+2, 2.3419748e+2, -771936.8, -800449.3, 148639.39, 0.062241554, 0.13298874, -636871.56, 8012.6953, 0.0, 9.999488, 9.999115 
6.049784e+2, 2.4419785e+2, -581304.4, -417704.53, 104087.484, 0.069246575, 0.16531248, -367120.8, 179759.56, 0.0, 9.999095, 10.001254 
6.049572e+2, 2.5419894e+2, -492865.16, -301360.38, 61860.14, 0.13868895, 0.120312884, -283116.28, 165745.4, 0.0, 9.998924, 10.001465 
6.0493517e+2, 2.6419935e+2, -563779.3, -506873.9, 44194.758, 0.14402409, 0.111161135, -482764.9, -131910.97, 0.0, 9.998719, 9.999482 
6.049121e+2, 2.7419865e+2, -514725.66, -451899.1, 76037.875, 0.066081315, 0.09981183, -401041.16, -148177.8, 0.0, 9.998462, 9.999312 
6.04889e+2, 2.8419855e+2, -370178.44, -236381.8, 35627.574, 0.03220899, 0.12781963, -227486.27, -72620.586, 0.00000016006682, 9.9983835, 10.000154 
6.0486555e+2, 2.9419976e+2, -234961.92, -112730.805, -6148.482, 0.057353027, 0.21681054, -112422.305, -55568.465, 0.0000051844427, 9.998602, 10.000224 
6.0484195e+2, 3.0419937e+2, -130082.51, -85091.625, -25092.281, 0.06660887, 0.1786303, -73887.41, -73887.41, 0.000029848581, 9.99919, 9.999802 
6.048196e+2, 3.1419545e+2, 55026.316, 77056.81, 6933.689, 0.2048665, -0.19866663, 79057.39, 79057.39, 0.00008365637, 10.000133, 10.00046 
6.152368e+2, 1.2422648e+2, -1323263.9, -1648389.0, -12967.132, 0.21309648, 0.14281937, -1322747.5, 399842.06, 0.000000083479314, 10.0032215, 9.998882 
6.1520994e+2, 1.3422444e+2, -1346321.1, -1608971.3, 113660.08, -0.27426177, 0.032964762, -1303965.8, 320639.72, 0.0, 10.002343, 9.998939 
6.151945e+2, 1.4422294e+2, -1400646.3, -1591073.4, 57667.813, 0.2920123, 0.004351357, -1384544.0, 142076.45, 0.0, 10.0013485, 9.998849 
6.1517e+2, 1.5422316e+2, -1411616.9, -1541197.4, 5305.0586, 0.13348395, 0.12568825, -1411400.1, 17224.678, 0.0, 10.000583, 9.998887 
6.151466e+2, 1.6422288e+2, -1249248.1, -1266279.0, 77276.09, 0.02405088, 0.15357669, -1180019.8, 150608.89, 0.0, 10.000408, 10.000182 
6.151256e+2, 1.7422186e+2, -1039911.25, -1103763.9, 118257.516, 0.024132337, 0.017450074, -949346.2, 283286.53, 0.0, 10.001121, 10.000285 
6.151048e+2, 1.8422149e+2, -1040786.94, -1153846.6, 132072.53, 0.037255738, -0.0019358753, -953654.75, 180980.28, 0.0, 10.000876, 9.999381 
6.150843e+2, 1.9422194e+2, -1155768.3, -1167201.1, 123737.625, 0.069849536, 0.10156096, -1037615.06, -979.6448, 0.0, 9.999451, 9.999305 
6.1506325e+2, 2.0422192e+2, -1074957.5, -992875.56, 81972.055, 0.088759124, 0.13927604, -942244.4, -3605.98, 0.0, 9.998967, 10.000063 
6.150417e+2, 2.1422122e+2, -859183.1, -830186.3, 75120.664, 0.09469103, 0.04780741, -768177.75, 72467.77, 0.0, 9.999736, 10.000139 
6.1502004e+2, 2.2422151e+2, -749050.4, -757388.94, 100048.83, 0.06779104, 0.0804112, -653084.0, 89560.234, 0.0, 9.999962, 9.999854 
6.1499834e+2, 2.3422304e+2, -725593.9, -697003.5, 133525.89, -0.000798605, 0.24255705, -577009.75, 67622.72, 0.0, 9.999455, 9.999841 
6.149772e+2, 2.4422354e+2, -639542.94, -535718.06, 91900.984, 0.02599796, 0.28572187, -482081.03, 64546.73, 0.0, 9.999079, 10.000452 
6.149566e+2, 2.542227e+2, -565164.3, -445243.8, 57655.14, 0.1829156, 0.140153, -422021.44, 26610.844, 0.0, 9.998895, 10.000492 
6.149343e+2, 2.642228e+2, -512689.75, -395555.0, 30919.49, 0.17729619, 0.1189708, -387894.34, -37266.3, 0.0, 9.998697, 10.000255 
6.149095e+2, 2.742241e+2, -456054.63, -318973.97, 69987.79, -0.041161276, 0.21274142, -289554.78, -36941.07, 0.0, 9.998417, 10.000243 
6.1488634e+2, 2.8422335e+2, -427198.8, -352836.75, 38729.758, -0.075892225, 0.16228291, -336329.56, -181710.02, 0.00000012615395, 9.998369, 9.999362 
6.1486495e+2, 2.9422033e+2, -304958.66, -255308.58, 6528.9087, 0.12852652, -0.080733165, -254464.39, -197815.66, 0.000004328694, 9.998588, 9.999252 
6.1484176e+2, 3.0422056e+2, -124427.836, -72977.61, 6033.3286, 0.12517111, -0.0054453327, -72279.58, -72279.58, 0.000026339554, 9.999191, 9.999884 
6.1481696e+2, 3.1422213e+2, 74945.17, 125895.53, 44771.41, -0.088368416, 0.14439456, 151932.14, 151932.14, 0.00007734693, 10.000109, 10.000803 
6.252398e+2, 1.2424933e+2, -1563031.4, -1760204.0, -113355.53, 0.27824447, 0.16943607, -1511388.8, 210976.16, 0.000000013492005, 10.00156, 9.998919 
6.2521183e+2, 1.3424632e+2, -1626341.4, -1733124.3, -28309.08, -0.21455665, -0.04524249, -1619300.6, 5088.1514, 0.0, 10.000378, 9.999036 
6.251953e+2, 1.4424461e+2, -1600807.4, -1685890.4, -579.03845, 0.31292868, -0.101050444, -1600803.5, -74398.13, 0.0, 9.99998, 9.998854 
6.251698e+2, 1.5424536e+2, -1348117.0, -1511862.5, -23256.39, 0.041908022, 0.074751206, -1344878.0, 83527.15, 0.0, 10.001037, 9.998865 
6.2514645e+2, 1.6424556e+2, -1131314.8, -1199411.4, 36325.277, -0.07092658, 0.14779268, -1115575.4, 214829.72, 0.0, 10.001164, 10.00028 
6.2512666e+2, 1.74245e+2, -1201106.4, -1165596.9, 16284.868, 0.079387374, 0.04290151, -1159259.5, 73146.42, 0.0, 9.9999485, 10.0004225 
6.251059e+2, 1.8424483e+2, -1223921.0, -1192579.6, 23433.725, 0.13776128, 0.015406257, -1180059.6, -45653.645, 0.0, 9.999398, 9.999831 
6.2508374e+2, 1.9424511e+2, -1086742.9, -1080369.0, 67900.54, 0.06299805, 0.055323727, -1015580.7, 20825.43, 0.0, 9.999687, 9.999789 
6.2506205e+2, 2.0424531e+2, -979684.0, -985838.56, 93047.69, 0.03896126, 0.10456585, -889662.75, 48744.605, 0.0, 9.99979, 9.999715 
6.250413e+2, 2.1424529e+2, -903953.6, -894272.6, 66276.5, 0.0922371, 0.12120421, -832660.06, 7750.863, 0.0, 9.99962, 9.99975 
6.250201e+2, 2.2424582e+2, -786377.6, -729118.0, 61242.24, 0.10278628, 0.17911862, -690144.0, 52264.066, 0.0, 9.999501, 10.000273 
6.2499833e+2, 2.3424701e+2, -692742.2, -627270.8, 68200.29, 0.060827672, 0.25944468, -584356.6, 60040.535, 0.0, 9.999444, 10.000328 
6.249767e+2, 2.4424729e+2, -638135.5, -564997.44, 43435.19, 0.06799361, 0.2648266, -544787.0, 1606.964, 0.0, 9.999211, 10.00019 
6.24955e+2, 2.542463e+2, -603138.7, -497180.8, 49354.37, 0.14321674, 0.13758354, -477753.78, -29352.525, 0.0, 9.99878, 10.000189 
6.2493265e+2, 2.6424637e+2, -471152.84, -362329.0, 53694.48, 0.13103686, 0.122442484, -340296.47, 10101.511, 0.0, 9.998925, 10.000375 
6.249091e+2, 2.742477e+2, -238887.75, -195749.58, 28680.746, 0.006917369, 0.2054649, -181432.6, 70949.6, 0.0, 9.999825, 10.000414 
6.248861e+2, 2.8424665e+2, -214475.73, -274275.9, -28145.537, -0.009134036, 0.12336009, -203312.63, -48922.363, 0.000000116905284, 9.999925, 9.999157 
6.248635e+2, 2.9424274e+2, -265018.63, -266588.84, -17514.908, 0.11786615, -0.18699104, -248271.23, -191843.63, 0.000004282829, 9.998981, 9.998991 
6.2484056e+2, 3.042434e+2, -231559.17, -154848.42, 43253.664, 0.12235915, -0.041521195, -135393.64, -135393.64, 0.000025214384, 9.998585, 9.999613 
6.248169e+2, 3.1424654e+2, -92989.12, 54021.715, 34827.824, -0.040460985, 0.28993553, 61855.242, 61855.242, 0.00007395699, 9.998894, 10.000901 
6.352408e+2, 1.2427052e+2, -1527182.0, -1696604.8, -114724.27, 0.20186554, 0.1870702, -1469283.1, 252879.25, 0.0000000049225286, 10.001607, 9.999334 
6.352138e+2, 1.3426864e+2, -1583897.8, -1657364.1, -73911.85, -0.06487867, 0.038058776, -1538094.4, 86079.52, 0.0, 10.000429, 9.999533 
6.351968e+2, 1.4426734e+2, -1568928.0, -1629050.0, 28504.592, 0.45375034, -0.022849038, -1557562.3, -31377.588, 0.0, 10.000017, 9.999228 
6.351699e+2, 1.5426716e+2, -1321752.6, -1458940.8, 23769.854, -0.06272009, 0.026184957, -1317750.9, 110439.3, 0.0, 10.001041, 9.9992285 
6.351462e+2, 1.6426747e+2, -1171121.4, -1270128.0, -6679.3193, -0.2217681, 0.11040931, -1170672.8, 159517.73, 0.0, 10.001118, 9.999816 
6.351276e+2, 1.7426835e+2, -1238753.9, -1245612.8, -25892.041, 0.17061737, 0.20449081, -1216065.1, 16119.33, 0.0, 9.999952, 9.999874 
6.351067e+2, 1.842688e+2, -1144734.3, -1026808.7, 27888.15, 0.27265266, 0.21401855, -1020546.06, 113633.836, 0.0, 9.999393, 10.00097 
6.3508254e+2, 1.9426855e+2, -1000955.7, -897109.06, 81877.98, -0.031930413, 0.074871816, -852078.6, 184099.66, 0.0, 9.999664, 10.001059 
6.3506025e+2, 2.0426898e+2, -1019140.1, -1055947.6, 82377.05, -0.13276717, 0.1013364, -953136.06, -14961.384, 0.0, 9.99974, 9.999257 
6.350405e+2, 2.1427023e+2, -953451.3, -985142.1, 62825.613, 0.044484407, 0.30463913, -904503.7, -64334.58, 0.0, 9.999569, 9.999151 
6.3502026e+2, 2.242705e+2, -781125.8, -705496.0, 55434.863, 0.16559637, 0.35931212, -676206.56, 65962.95, 0.0, 9.999449, 10.000458 
6.3499933e+2, 2.342694e+2, -678875.06, -591677.44, 70529.164, 0.208753, 0.18238892, -552359.3, 91819.164, 0.0, 9.999414, 10.000586 
6.349768e+2, 2.442691e+2, -619017.44, -521912.56, 24505.637, 0.15503076, 0.10352449, -516078.75, 30099.83, 0.0, 9.999195, 10.000496 
6.349522e+2, 2.5426984e+2, -585231.06, -453759.3, 35656.453, -0.023763493, 0.118984565, -444711.56, 3456.2698, 0.0, 9.998751, 10.0005045 
6.3492996e+2, 2.6427e+2, -513551.22, -445604.03, 81345.68, -0.033182755, 0.123516664, -391422.5, -41258.55, 0.0, 9.998907, 9.999811 
6.3491076e+2, 2.7426937e+2, -287566.72, -289800.13, 66917.96, 0.17960371, 0.07235603, -221756.14, 30413.863, 0.0, 9.999797, 9.999781 
6.348882e+2, 2.8426838e+2, -182168.81, -209150.7, -65831.09, 0.19972987, 0.0076119495, -128460.51, 25718.201, 0.0000001448745, 9.99993, 9.999605 
6.348612e+2, 2.942671e+2, -234540.94, -193522.03, -51129.926, -0.029554548, -0.08654798, -158941.48, -102752.5, 0.0000050785306, 9.998943, 9.999512 
6.3483804e+2, 3.04268e+2, -282583.28, -253221.94, 51483.813, 0.008074418, 0.09046133, -214366.6, -214366.6, 0.000027373664, 9.998552, 9.998954 
6.348192e+2, 3.1426856e+2, -125379.3, 19350.31, 56168.105, 0.2862402, 0.23163378, 38590.75, 38590.75, 0.00007720963, 9.998769, 10.000719 
6.452431e+2, 1.24292865e+2, -1394580.8, -1637496.6, 63189.35, 0.23685956, 0.122469336, -1379126.5, 342815.28, 0.0000000021351345, 10.002532, 9.999296 
6.4521515e+2, 1.3429204e+2, -1249554.5, -1497267.3, 3583.362, -0.08400523, 0.08084246, -1249502.6, 374443.47, 0.0, 10.00274, 9.999512 
6.4519733e+2, 1.4429125e+2, -1251394.5, -1442235.1, 101072.1, 0.41052836, 0.061131556, -1207816.3, 318135.63, 0.0, 10.002044, 9.999537 
6.451713e+2, 1.5429053e+2, -1380167.0, -1447104.0, 89518.84, 0.008235306, 0.019681979, -1318064.8, 109894.555, 0.0, 10.000463, 9.99959 
6.451474e+2, 1.6429053e+2, -1382184.9, -1410856.0, 72104.69, -0.13628191, 0.07042862, -1323004.5, 6957.801, 0.0, 9.999834, 9.999471 
6.4512736e+2, 1.7429148e+2, -1197359.3, -1270146.9, 56273.383, 0.13838315, 0.2125492, -1166736.6, 65222.49, 0.0, 10.000426, 9.999478 
6.451061e+2, 1.8429194e+2, -996604.75, -975512.3, 80699.414, 0.21895143, 0.25493374, -904672.94, 229283.47, 0.0, 10.000496, 10.000792 
6.450828e+2, 1.9429162e+2, -983996.3, -904576.8, 23501.615, 0.02196849, 0.122733325, -898143.4, 137812.2, 0.0, 9.999852, 10.000914 
6.4506066e+2, 2.0429197e+2, -990798.75, -969038.0, 23619.707, -0.051120445, 0.11638598, -953913.1, -15962.2295, 0.0, 9.999619, 9.999911 
6.450403e+2, 2.1429314e+2, -854502.8, -861567.8, 93181.25, 0.05205405, 0.24054502, -764787.1, 75154.54, 0.0, 9.999914, 9.999838 
6.450196e+2, 2.2429328e+2, -769915.0, -753461.56, 104680.586, 0.1423711, 0.26946345, -656684.94, 85257.29, 0.0, 9.99975, 9.999987 
6.4499855e+2, 2.34292e+2, -786767.2, -705422.94, 48068.773, 0.21427684, 0.13347398, -683128.2, -39172.13, 0.0, 9.99894, 10.000032 
6.449761e+2, 2.4429175e+2, -636654.4, -513495.16, -1736.586, 0.17601447, 0.079550624, -513470.7, 32486.621, 0.0, 9.999001, 10.0006485 
6.4495176e+2, 2.5429273e+2, -358426.5, -321075.16, -1373.3784, -0.007543637, 0.099689126, -321024.72, 126917.87, 0.0, 10.000204, 10.000718 
6.4492947e+2, 2.642931e+2, -332689.2, -365483.8, 41392.844, -0.030577254, 0.11260452, -304564.16, 45372.99, 0.0, 10.000177, 9.999749 
6.4490974e+2, 2.742925e+2, -470341.75, -387366.63, 60293.8, 0.1650715, 0.075295314, -355665.66, -103720.86, 0.000000000000000000046744374, 9.998584, 9.999694 
6.4488727e+2, 2.84292e+2, -377338.03, -290576.47, -25439.576, 0.19074929, 0.06018563, -283667.44, -129717.71, 0.00000034821963, 9.998544, 9.999708 
6.4486104e+2, 2.9429168e+2, -1308.4316, -68379.555, -47934.56, -0.0026859893, 0.046633564, 23656.912, 79607.41, 0.000006846114, 10.000487, 9.999628 
6.448382e+2, 3.0429167e+2, 9067.773, -186920.53, 12279.183, 0.05712591, 0.15414342, 9834.1, 9834.1, 0.000033104992, 10.000872, 9.998291 
6.448182e+2, 3.1429014e+2, -57972.137, 10161.799, 223.23592, 0.27893615, 0.15666251, 10162.53, 10162.53, 0.000088752815, 9.999398, 10.000353 
6.552465e+2, 1.2431623e+2, -1431341.6, -1704823.5, 98664.72, 0.30827156, -0.025479395, -1399462.3, 322242.53, 0.0000000012982254, 10.002501, 9.998847 
6.552158e+2, 1.3431641e+2, -1294681.8, -1580311.9, 8237.421, -0.30054379, 0.08776594, -1294444.4, 329261.72, 0.0, 10.002699, 9.998959 
6.5519696e+2, 1.4431626e+2, -1236017.1, -1402297.8, 38693.313, 0.16184616, 0.1445621, -1227454.1, 298254.1, 0.0, 10.002007, 9.999832 
6.551739e+2, 1.5431531e+2, -1353869.5, -1395721.5, 33823.637, 0.20898698, 0.04754063, -1335022.0, 92692.2, 0.0, 10.000473, 9.999941 
6.5514994e+2, 1.6431469e+2, -1397276.6, -1446129.5, 85058.9, 0.1280485, 0.028609727, -1333206.4, -3485.3647, 0.0, 9.999851, 9.999217 
6.55126e+2, 1.7431442e+2, -1215358.9, -1314969.5, 81910.79, -0.053839795, 0.077802464, -1169300.0, 62429.742, 0.0, 10.000455, 9.999157 
6.551039e+2, 1.843143e+2, -1096189.8, -1179116.8, 54478.69, -0.050641105, 0.14456011, -1069190.5, 64545.133, 0.0, 10.000484, 9.9994 
6.550843e+2, 1.9431433e+2, -1090974.8, -1118591.0, 3233.584, 0.18055686, 0.19580647, -1090601.3, -54863.25, 0.0, 9.999821, 9.999459 
6.550632e+2, 2.0431428e+2, -875994.4, -721709.9, 29420.79, 0.23628302, 0.14684369, -716289.94, 221445.72, 0.0, 9.9995775, 10.001632 
6.550404e+2, 2.1431398e+2, -721673.56, -577172.4, 108653.78, 0.06900017, -0.06915482, -518940.03, 320788.44, 0.0, 9.999877, 10.001809 
6.55018e+2, 2.243142e+2, -860008.94, -926649.25, 72264.99, -0.0036320745, -0.08646503, -813752.3, -72026.6, 0.0, 9.999695, 9.998823 
6.549958e+2, 2.3431493e+2, -892096.94, -911867.0, 20757.254, 0.042553417, 0.1167447, -878991.1, -235261.45, 0.0, 9.998892, 9.998637 
6.5497434e+2, 2.4431522e+2, -640858.6, -514950.47, 35158.754, 0.09531513, 0.19356593, -505798.0, 39932.168, 0.0, 9.998969, 10.000653 
6.549537e+2, 2.5431496e+2, -352628.4, -304564.4, 48156.81, 0.16023165, 0.07586417, -274776.2, 172949.92, 0.0, 10.000187, 10.000837 
6.5493107e+2, 2.643156e+2, -296668.2, -292769.2, -16693.434, 0.10943609, 0.08910669, -277911.8, 71805.82, 0.0, 10.000183, 10.000249 
6.549058e+2, 2.7431735e+2, -440482.4, -315202.06, 3906.4866, -0.09136962, 0.23499884, -315080.34, -63375.867, 0.0000000002377775, 9.998537, 10.000216 
6.5488297e+2, 2.843178e+2, -400121.53, -329533.53, 37806.69, -0.09564998, 0.2976577, -313107.0, -159405.5, 0.0000008000927, 9.99851, 9.9994545 
6.548633e+2, 2.943165e+2, -26439.555, -111767.336, 30986.174, 0.1637512, 0.21728331, -16374.417, 39337.496, 0.0000102621225, 10.000457, 9.999341 
6.5484095e+2, 3.0431426e+2, -31466.627, -280154.13, -40441.91, 0.230465, 0.14852948, -25055.2, -25055.2, 0.000043104363, 10.000909, 9.997636 
6.548132e+2, 3.1431118e+2, -103234.09, -68801.266, -37263.984, -0.18058118, 0.06785314, -44968.813, -44968.813, 0.000108066146, 9.999346, 9.999834 
6.6524863e+2, 1.243407e+2, -1603919.3, -1817435.6, 115127.19, 0.33618647, -0.0487634, -1553669.3, 167790.95, 0.00000000035571668, 10.001427, 9.998595 
6.652171e+2, 1.3434048e+2, -1674616.6, -1805462.9, -14056.386, -0.3098396, 0.058529187, -1673123.6, -49654.188, 0.0, 10.000257, 9.998599 
6.6519725e+2, 1.4434038e+2, -1526891.3, -1507515.8, 43831.816, 0.10089491, 0.12755989, -1472313.9, 53158.13, 0.0, 9.999872, 10.000131 
6.651749e+2, 1.5433992e+2, -1273661.8, -1318422.8, 31270.357, 0.25474212, 0.04402693, -1257588.0, 169882.84, 0.0, 10.000869, 10.000274 
6.6515124e+2, 1.6433923e+2, -1181902.3, -1368562.3, 110130.76, 0.19674419, 0.013701465, -1130874.0, 198602.97, 0.0, 10.001444, 9.9989805 
6.651267e+2, 1.7433824e+2, -1096467.5, -1282934.6, 103403.055, -0.0712486, 0.014847144, -1050472.1, 181020.7, 0.0, 10.00139, 9.9989195 
6.6510427e+2, 1.8433782e+2, -1023303.9, -1185189.8, 92968.85, -0.09576857, 0.0811219, -980979.0, 152523.44, 0.0, 10.001165, 9.99903 
6.6508454e+2, 1.9433808e+2, -993411.25, -1117201.8, 110541.195, 0.18179664, 0.1961267, -928616.44, 106887.92, 0.0, 10.000683, 9.999059 
6.6506326e+2, 2.04338e+2, -829776.8, -741454.44, 124641.664, 0.2582098, 0.18218052, -653381.9, 284122.16, 0.0, 10.0000725, 10.001259 
6.6504e+2, 2.1433727e+2, -834440.3, -671589.0, 23820.207, 0.07969663, -0.039736107, -668176.4, 171325.83, 0.0, 9.999279, 10.001445 
6.650173e+2, 2.2433734e+2, -901330.94, -944474.75, -39917.16, -0.013819539, -0.053235885, -877529.7, -136028.6, 0.0, 9.999404, 9.998839 
6.6499513e+2, 2.3433833e+2, -629645.2, -782990.0, 10804.475, -0.0013134761, 0.17287281, -628887.7, 14613.893, 0.0, 10.000679, 9.998664 
6.6497386e+2, 2.4433851e+2, -430456.1, -446474.16, 60411.375, 0.07476386, 0.25074193, -377525.2, 167978.16, 0.0, 10.000556, 10.0003605 
6.649538e+2, 2.543376e+2, -597704.06, -458843.7, 29565.807, 0.23635578, 0.09965493, -452810.72, -5303.5645, 0.0, 9.998658, 10.000517 
6.649311e+2, 2.6433802e+2, -587092.3, -414786.13, -56688.7, 0.19264866, 0.099927105, -397808.4, -48307.316, 0.0, 9.99811, 10.000409 
6.649044e+2, 2.7434018e+2, -314686.7, -229512.98, -67029.06, -0.12045077, 0.26535147, -192686.14, 58796.48, 0.0000000023427176, 9.999294, 10.000436 
6.6488165e+2, 2.8434074e+2, -234646.66, -274466.56, 1476.1958, -0.13661046, 0.3385824, -234592.02, -81113.98, 0.0000014418595, 9.99975, 9.999237 
6.6486394e+2, 2.9433906e+2, -212019.63, -223674.73, -7605.371, 0.24619079, 0.24167371, -208265.84, -152772.69, 0.000014782389, 9.999276, 9.999141 
6.648419e+2, 3.0433625e+2, -189478.94, -340824.9, -64224.785, 0.29945478, 0.11999876, -165898.6, -165898.6, 0.000056755354, 9.999765, 9.997769 
6.6481197e+2, 3.143341e+2, 208251.8, 78903.35, -3256.3652, -0.33343345, 0.12263526, 208333.73, 208333.73, 0.00013493579, 10.001498, 9.999816 
6.752496e+2, 1.24366105e+2, -1609034.3, -1826044.1, 88890.836, 0.26191792, 0.031238422, -1577271.9, 143937.14, 0.0000000023126079, 10.001427, 9.998531 
6.752188e+2, 1.3436423e+2, -1681074.9, -1824613.3, -60441.133, -0.16568284, -0.013385075, -1659014.8, -35779.03, 0.0, 10.000289, 9.998447 
6.751979e+2, 1.4436379e+2, -1503232.8, -1468896.9, 69429.02, 0.16889285, 0.01893736, -1414544.6, 110696.97, 0.0, 9.999913, 10.000378 
6.7517436e+2, 1.5436444e+2, -1249123.4, -1275541.8, 71614.54, 0.099348366, 0.019147165, -1189510.0, 237718.8, 0.0, 10.0009, 10.000554 
6.751512e+2, 1.6436423e+2, -1192748.6, -1388376.8, 104772.97, 0.038573362, 0.026519697, -1147227.5, 182002.4, 0.0, 10.001433, 9.998851 
6.7512935e+2, 1.7436294e+2, -1108555.6, -1306247.9, 104703.26, 0.044775292, 0.01612329, -1063411.0, 167837.47, 0.0, 10.001381, 9.998765 
6.7510676e+2, 1.8436249e+2, -986643.7, -1102791.3, 69994.84, 0.032239806, 0.058726344, -953767.75, 179489.48, 0.0, 10.001137, 9.99961 
6.750833e+2, 1.9436294e+2, -955014.5, -1028841.6, 94131.99, -0.015902115, 0.129245, -890817.0, 144437.63, 0.0, 10.000646, 9.999682 
6.7506063e+2, 2.0436314e+2, -1007332.44, -1101566.9, 90940.305, -0.01694446, 0.22871815, -952028.1, -14772.153, 0.0, 10.000032, 9.998807 
6.7503905e+2, 2.1436298e+2, -1025683.0, -1060371.8, -2842.2795, 0.048254643, 0.32587206, -1025451.6, -186188.53, 0.0, 9.999243, 9.998795 
6.7501765e+2, 2.2436272e+2, -822137.25, -770263.8, 398.9919, 0.073465854, 0.36571604, -770260.7, -28992.549, 0.0, 9.999361, 10.000055 
6.7499626e+2, 2.343623e+2, -529348.6, -567597.6, 64592.168, 0.045615364, 0.30042586, -481109.22, 162162.06, 0.0, 10.0006485, 10.000156 
6.749745e+2, 2.4436171e+2, -479124.03, -543007.44, -7142.4697, 0.07319753, 0.25083157, -478335.22, 66941.01, 0.0, 10.000538, 9.999704 
6.7495203e+2, 2.5436074e+2, -661799.7, -582125.56, -39531.8, 0.17776208, 0.17706838, -565839.94, -118555.13, 0.0, 9.998614, 9.999691 
6.749291e+2, 2.6436037e+2, -605614.0, -444545.6, -22018.41, 0.18036962, 0.1508229, -441589.88, -92302.94, 0.0, 9.998074, 10.000221 
6.749055e+2, 2.743608e+2, -326503.22, -251515.47, -16885.375, 0.044154957, 0.15764338, -247888.72, 3391.8406, 0.0000000015372758, 9.999283, 10.00029 
6.748832e+2, 2.843606e+2, -241163.72, -292059.44, -18263.188, 0.03087393, 0.1669142, -235288.47, -82007.02, 0.0000017821444, 9.999767, 9.999107 
6.7486274e+2, 2.9435933e+2, -230288.23, -248762.53, -23627.621, 0.19020295, 0.12381201, -214156.31, -158862.27, 0.000018938657, 9.99922, 9.998997 
6.748408e+2, 3.0435768e+2, -129146.49, -204914.14, -4991.308, 0.20795682, 0.07784357, -128819.1, -128819.1, 0.00007225524, 9.9997225, 9.998719 
6.748145e+2, 3.1435898e+2, 243364.98, 156404.38, 86715.48, -0.25161788, 0.3268757, 296890.4, 296890.4, 0.00016863653, 10.001486, 10.000349 
6.852499e+2, 1.2438983e+2, -1633468.4, -1780727.8, 58946.504, 0.18554732, 0.0085478285, -1612779.4, 108199.29, 0.0000000036242784, 10.000999, 9.999059 
6.85221e+2, 1.3438864e+2, -1478811.3, -1676757.5, -84560.99, -0.029433796, -0.007617639, -1447606.6, 175389.17, 0.0, 10.001468, 9.998892 
6.851993e+2, 1.4438827e+2, -1319717.6, -1446598.6, 71804.414, 0.25307795, 0.034341227, -1287342.8, 237658.25, 0.0, 10.001454, 9.99979 
6.8517447e+2, 1.5438804e+2, -1272600.1, -1362614.0, 2181.2883, 0.013480041, 0.011791739, -1272547.4, 154452.48, 0.0, 10.001056, 9.999888 
6.85151e+2, 1.6438763e+2, -1296763.0, -1415695.9, -2225.4817, -0.080205604, 0.024265027, -1296721.4, 32282.588, 0.0, 10.000618, 9.999061 
6.851303e+2, 1.7438702e+2, -1274086.4, -1358837.0, 17960.41, 0.07213626, 0.056425698, -1270437.3, -39422.703, 0.0, 10.000122, 9.999018 
6.851081e+2, 1.8438676e+2, -1143172.4, -1176610.9, -3529.6633, 0.11828607, 0.105574556, -1142803.9, -9783.961, 0.0, 10.000054, 9.999624 
6.8508404e+2, 1.943868e+2, -974821.5, -1035771.56, -30624.326, 0.011265729, 0.1316214, -962092.6, 72927.266, 0.0, 10.000501, 9.999701 
6.8506086e+2, 2.043865e+2, -942477.1, -1148363.0, 33.62851, -0.028625939, 0.21029934, -942477.1, -5450.5566, 0.0, 10.00082, 9.998103 
6.8503886e+2, 2.1438573e+2, -825225.44, -1049496.3, 38705.96, 0.02234125, 0.3234375, -818733.3, 20309.143, 0.0, 10.000985, 9.998031 
6.850175e+2, 2.2438532e+2, -612992.3, -621344.0, 109585.11, 0.06602974, 0.36802545, -507503.53, 233545.86, 0.0, 10.000585, 10.000492 
6.8499684e+2, 2.3438528e+2, -667640.06, -575821.9, 90995.17, 0.097775355, 0.2900183, -519810.56, 123235.2, 0.0, 9.999443, 10.000682 
6.849747e+2, 2.4438503e+2, -696986.2, -661861.7, -17455.902, 0.11442085, 0.25415108, -654662.25, -109615.914, 0.0, 9.999098, 9.999582 
6.849505e+2, 2.5438446e+2, -501814.16, -521867.56, -7696.428, 0.11388224, 0.23475458, -499200.84, -52147.758, 0.0, 9.999788, 9.9995365 
6.8492776e+2, 2.6438358e+2, -306609.0, -366793.78, 83992.3, 0.1276109, 0.19370557, -247481.11, 101579.87, 0.0, 10.000413, 9.999629 
6.8490666e+2, 2.7438232e+2, -126163.766, -223668.58, 45608.797, 0.16293739, 0.092253275, -108155.71, 142914.64, 0.00000000039754933, 10.000953, 9.99968 
6.848847e+2, 2.8438157e+2, -60356.77, -206409.92, -14579.791, 0.14840211, 0.07835482, -58915.563, 94160.55, 0.0000019350068, 10.001014, 9.999098 
6.8486154e+2, 2.9438117e+2, -35129.074, -147134.19, -17131.887, 0.08580822, 0.12407137, -32567.238, 22512.248, 0.000022513892, 10.000528, 9.9990635 
6.8483967e+2, 3.0437988e+2, -39471.74, -146555.44, 36832.734, 0.09959026, 0.10497561, -28026.049, -28026.049, 0.000087464054, 10.000257, 9.998867 
6.8481725e+2, 3.1438082e+2, 14681.776, 13654.918, 64160.46, -0.04649875, 0.30091855, 78330.87, 78330.87, 0.00020410729, 10.000041, 10.000066 
6.952497e+2, 1.244121e+2, -1559816.4, -1620656.5, 69909.0, 0.03853818, -0.10511985, -1513995.8, 206770.53, 0.00000000017840025, 10.00098, 10.000158 
6.9522345e+2, 1.3441384e+2, -1412562.3, -1535940.5, -66658.33, 0.059412446, 0.07247528, -1383428.0, 239320.98, 0.0, 10.001462, 9.999855 
6.952015e+2, 1.4441378e+2, -1415529.8, -1646874.4, 52978.49, 0.31494477, 0.1595275, -1403974.6, 120775.98, 0.0, 10.001458, 9.998414 
6.9517493e+2, 1.5441078e+2, -1375539.8, -1584294.8, -5930.0054, -0.04868977, 0.013294834, -1375371.4, 51411.453, 0.0, 10.001086, 9.998355 
6.9515043e+2, 1.6440958e+2, -1262392.1, -1345428.8, -22934.516, -0.20565806, 0.005518111, -1256478.8, 72318.586, 0.0, 10.000624, 9.999539 
6.951295e+2, 1.744106e+2, -1230574.4, -1269357.6, 3413.5688, -0.02625275, 0.13764384, -1230276.1, 513.6791, 0.0, 10.000125, 9.999629 
6.951084e+2, 1.8441077e+2, -1179797.0, -1250236.6, 8351.305, 0.12650205, 0.21998592, -1178820.4, -46030.902, 0.0, 10.000044, 9.999125 
6.950867e+2, 1.9440976e+2, -1018654.9, -1121586.3, -9604.467, 0.2213114, 0.19886497, -1017766.4, 17032.777, 0.0, 10.00048, 9.999122 
6.9506377e+2, 2.0440811e+2, -877182.0, -1005231.44, 2695.3303, 0.1760288, 0.12672222, -877125.3, 59689.83, 0.0, 10.000787, 9.999103 
6.9503933e+2, 2.144056e+2, -754860.56, -893109.4, 48543.97, -0.039674703, -0.0441704, -739517.8, 99321.98, 0.0, 10.00094, 9.999126 
6.950168e+2, 2.2440517e+2, -646432.9, -680662.3, 65901.17, -0.07167477, -0.040905856, -595460.3, 145384.11, 0.0, 10.000542, 10.000105 
6.949966e+2, 2.3440726e+2, -708811.3, -650403.56, 51836.813, 0.12153819, 0.1416248, -620110.2, 22714.922, 0.0, 9.999397, 10.000192 
6.9497424e+2, 2.4440853e+2, -668819.44, -594407.44, 747.976, 0.16131108, 0.26184744, -594399.94, -49586.52, 0.0, 9.999061, 10.000064 
6.9494927e+2, 2.5440878e+2, -465931.8, -443316.4, 22707.455, 0.0060281884, 0.26993233, -429256.97, 17554.709, 0.0, 9.999771, 10.000086 
6.94927e+2, 2.6440766e+2, -378937.9, -517663.28, 102946.05, 0.0021307094, 0.22361928, -324167.3, 24655.729, 0.0, 10.000418, 9.99859 
6.94908e+2, 2.7440476e+2, -209582.3, -393830.53, 70736.19, 0.19324455, 0.073896885, -185557.97, 65293.53, 0.0000000054780975, 10.000939, 9.998518 
6.94886e+2, 2.8440362e+2, -51786.516, -187293.83, -34329.855, 0.17113154, 0.08129141, -43585.6, 109275.78, 0.000002355568, 10.001009, 9.999229 
6.9486e+2, 2.9440466e+2, -21780.047, -115388.89, -28776.416, -0.12902457, 0.24779049, -13641.443, 41207.434, 0.000026314181, 10.000512, 9.999289 
6.948383e+2, 3.0440286e+2, -88828.21, -244238.72, 25595.973, -0.07296009, 0.19285896, -84721.11, -84721.11, 0.00010198075, 10.000242, 9.9982 
6.9482005e+2, 3.1439954e+2, -81204.11, -164548.25, 70765.63, 0.2152318, 0.03997804, -40752.277, -40752.277, 0.00023747227, 9.99996, 9.998877 
7.052503e+2, 1.2443677e+2, -1700626.9, -1670852.0, 131136.42, 0.065002605, -0.009054694, -1553760.6, 166767.92, 0.0, 9.999929, 10.000326 
7.0522404e+2, 1.3443789e+2, -1475649.0, -1560456.8, -86829.82, 0.004868343, 0.09891755, -1421422.1, 201093.11, 0.0, 10.000998, 9.999912 
7.052016e+2, 1.4443763e+2, -1456881.3, -1668257.3, 12067.941, 0.19506407, 0.1632395, -1456194.5, 68323.52, 0.0, 10.001183, 9.9984 
7.051761e+2, 1.5443522e+2, -1442630.5, -1614448.3, 50619.676, -0.015479235, 0.07735187, -1428826.4, -2280.9543, 0.0, 10.000632, 9.998357 
7.0515174e+2, 1.6443402e+2, -1297788.6, -1398211.5, 85825.38, -0.12941265, 0.086601004, -1248565.8, 79994.664, 0.0, 10.00054, 9.999214 
7.051298e+2, 1.7443429e+2, -1142245.3, -1263572.0, 36581.273, -0.044757586, 0.17887232, -1132069.1, 98491.336, 0.0, 10.000895, 9.999295 
7.051083e+2, 1.8443397e+2, -1065493.1, -1209210.3, 28257.697, 0.07459062, 0.23412903, -1060136.6, 72428.22, 0.0, 10.000891, 9.998997 
7.050871e+2, 1.944327e+2, -1030249.25, -1143011.5, 34546.953, 0.21300565, 0.20206966, -1020506.8, 14069.392, 0.0, 10.000462, 9.998988 
7.050645e+2, 2.0443112e+2, -946636.06, -994917.2, 49652.863, 0.19976844, 0.1253484, -915566.4, 21024.436, 0.0, 10.000121, 9.9994955 
7.050401e+2, 2.1442907e+2, -882296.44, -905580.8, 37391.08, 0.001442937, -0.041306682, -854777.0, -16167.221, 0.0, 9.999859, 9.999561 
7.0501715e+2, 2.2442865e+2, -793484.56, -769768.75, 20250.023, -0.03563701, -0.053281922, -758160.25, -17547.094, 0.0, 9.999615, 9.999936 
7.04996e+2, 2.3443018e+2, -721167.8, -679467.25, 18827.71, 0.12925284, 0.093928084, -672224.5, -29626.443, 0.0, 9.999416, 9.99998 
7.0497364e+2, 2.444311e+2, -583667.25, -597827.1, 14001.077, 0.15582, 0.20759526, -575057.8, -30467.545, 0.0, 9.999836, 9.999666 
7.049496e+2, 2.544312e+2, -312953.03, -414828.0, -39129.59, 0.008456118, 0.24160865, -299658.5, 146933.72, 0.0, 10.001014, 9.999682 
7.049277e+2, 2.6443025e+2, -274159.3, -453436.34, 3867.904, -0.00054993853, 0.23004751, -274075.9, 74526.7, 0.0, 10.001078, 9.9987135 
7.0490813e+2, 2.7442795e+2, -371338.8, -452230.88, 60249.035, 0.17441067, 0.12281874, -339218.8, -88594.29, 0.000000016182126, 9.999747, 9.998688 
7.048861e+2, 2.84427e+2, -246636.27, -306049.4, 39166.695, 0.14444841, 0.14793737, -227184.83, -74552.08, 0.0000029996863, 9.999776, 9.999008 
7.0486075e+2, 2.9442772e+2, 99349.82, -83839.71, 5058.7095, -0.1470524, 0.30683845, 99489.41, 154113.4, 0.000030264622, 10.001456, 9.999052 
7.048392e+2, 3.0442566e+2, 86923.7, -179148.61, 10618.281, -0.0558529, 0.24642229, 87346.78, 87346.78, 0.00011479558, 10.001535, 9.998025 
7.0482117e+2, 3.1442043e+2, -158718.89, -236891.0, 89284.15, 0.35561338, -0.081268355, -100340.19, -100340.19, 0.0002649436, 9.999569, 9.998571 
7.1525145e+2, 1.2446357e+2, -1735041.1, -1756647.5, 156192.72, 0.16761117, 0.26856616, -1589278.4, 130990.28, 0.0, 9.999994, 9.999702 
7.1522284e+2, 1.3446082e+2, -1525563.1, -1669145.5, -47854.707, -0.22131309, 0.06401105, -1511075.4, 111218.55, 0.0, 10.001019, 9.999156 
7.151996e+2, 1.4445996e+2, -1368043.1, -1485285.8, -12762.612, -0.13109933, 0.04988257, -1366669.9, 157631.38, 0.0, 10.001189, 9.999651 
7.1517766e+2, 1.544613e+2, -1342663.0, -1413794.8, 32761.785, 0.06996422, 0.20086123, -1329873.3, 96414.89, 0.0, 10.000658, 9.999723 
7.1515465e+2, 1.6446081e+2, -1373266.3, -1554941.4, 92835.72, 0.09779068, 0.26083925, -1334219.5, -5924.5547, 0.0, 10.000541, 9.998137 
7.15131e+2, 1.7445813e+2, -1228814.8, -1444041.8, 54446.21, -0.024628744, 0.17956127, -1215825.4, 14501.191, 0.0, 10.000897, 9.998056 
7.1510774e+2, 1.844564e+2, -1053221.5, -1179712.6, 10542.403, -0.07474923, 0.14921743, -1052348.9, 79996.84, 0.0, 10.000872, 9.999209 
7.15085e+2, 1.9445568e+2, -1014993.7, -1101722.1, 23405.305, -0.048108056, 0.1430148, -1009080.5, 25270.342, 0.0, 10.00042, 9.999291 
7.1506274e+2, 2.044556e+2, -969568.6, -1030392.6, 35401.34, 0.010377737, 0.2095999, -953310.06, -16957.063, 0.0, 10.0000725, 9.999273 
7.150411e+2, 2.1445613e+2, -909588.2, -947948.7, 29277.701, 0.10771682, 0.32779798, -893767.5, -55414.895, 0.0, 9.999802, 9.999296 
7.150186e+2, 2.244557e+2, -795204.9, -761984.9, 7693.1978, 0.13789119, 0.32698768, -760289.75, -19933.818, 0.0, 9.999562, 10.000017 
7.1499497e+2, 2.3445405e+2, -717545.44, -665692.6, 15525.443, 0.0827058, 0.1471305, -661399.56, -19035.139, 0.0, 9.999387, 10.000091 
7.149726e+2, 2.4445273e+2, -678084.6, -788486.44, 51572.086, 0.061394963, 0.08996604, -657742.0, -113365.03, 0.0, 9.999814, 9.998369 
7.1495146e+2, 2.5445166e+2, -414223.88, -619171.06, 7115.3003, 0.084475935, 0.1491212, -413977.16, 32418.322, 0.0, 10.00099, 9.998291 
7.1492964e+2, 2.644514e+2, -180739.77, -254251.94, -46495.71, 0.08252143, 0.21263869, -158226.45, 190173.8, 0.0, 10.001056, 10.000092 
7.1490675e+2, 2.74452e+2, -271266.06, -231519.28, 14282.914, 0.050192926, 0.2405784, -226919.14, 23470.201, 0.000000020828322, 9.999692, 10.000231 
7.1488476e+2, 2.844517e+2, -291372.97, -393298.2, 94156.67, 0.024646675, 0.2764843, -235271.73, -82881.41, 0.0000037479972, 9.999751, 9.998424 
7.1486384e+2, 2.9445034e+2, 47274.54, -190078.33, 75540.3, 0.0032002337, 0.30280244, 69276.58, 123681.77, 0.000034324887, 10.001452, 9.998325 
7.148427e+2, 3.044484e+2, 118321.91, -117433.05, -59399.74, 0.11799284, 0.2712107, 132442.27, 132442.27, 0.00012562028, 10.001549, 9.998441 
7.148199e+2, 3.1444392e+2, -126737.58, -150435.86, 30434.309, 0.24814938, -0.03129647, -105927.125, -105927.125, 0.00028501154, 9.999489, 9.9992 
7.252517e+2, 1.24486305e+2, -1567136.8, -1664973.3, 75953.73, 0.13915035, 0.26089773, -1525711.4, 194335.98, 0.0, 10.001076, 9.999826 
7.252234e+2, 1.3448368e+2, -1627868.0, -1708441.8, -77398.484, -0.2220151, 0.06213486, -1580899.3, 41171.74, 0.0, 10.000276, 9.999245 
7.251998e+2, 1.4448276e+2, -1484657.6, -1529146.0, -30952.016, -0.17614731, 0.030876545, -1468785.9, 55292.832, 0.0, 10.000334, 9.999766 
7.251787e+2, 1.5448421e+2, -1207272.3, -1333631.5, -80689.39, 0.07307826, 0.18172726, -1167970.5, 258093.75, 0.0, 10.001522, 9.999858 
7.251559e+2, 1.644839e+2, -1238224.0, -1474416.6, -55909.207, 0.13312533, 0.24452367, -1225658.3, 102410.53, 0.0, 10.001398, 9.998279 
7.251316e+2, 1.7448142e+2, -1396244.4, -1507285.3, -5891.949, 0.014732026, 0.16701438, -1395932.5, -165835.23, 0.0, 9.999675, 9.998209 
7.251079e+2, 1.8447967e+2, -1285921.0, -1279099.8, 42203.797, -0.05550794, 0.12331857, -1240169.0, -108053.305, 0.0, 9.999217, 9.999326 
7.2508496e+2, 1.9447877e+2, -1026988.2, -1093911.6, 37884.324, -0.07804434, 0.084597014, -1009903.8, 24218.635, 0.0, 10.000278, 9.999412 
7.250626e+2, 2.0447902e+2, -922665.06, -1037633.8, 20533.168, -0.02566524, 0.19186437, -919107.94, 17014.395, 0.0, 10.000521, 9.999008 
7.25041e+2, 2.1448055e+2, -939428.06, -996397.25, 5057.2095, 0.12470137, 0.4379194, -938982.6, -100867.33, 0.0, 9.999734, 9.998999 
7.250185e+2, 2.2448e+2, -774058.7, -777109.06, 17376.188, 0.16671798, 0.44958428, -758140.9, -18020.293, 0.0, 9.999816, 9.99979 
7.249951e+2, 2.3447686e+2, -505023.3, -588588.94, -7523.6914, 0.07488102, 0.14350279, -504351.34, 137789.95, 0.0, 10.000958, 9.999862 
7.249728e+2, 2.4447486e+2, -516832.1, -731736.94, 44005.426, 0.046204854, 0.03959153, -508170.38, 35989.09, 0.0, 10.001011, 9.998181 
7.249519e+2, 2.5447413e+2, -608220.06, -733060.25, 83982.55, 0.09462819, 0.14949073, -566001.06, -119825.77, 0.0, 9.999743, 9.99811 
7.2493005e+2, 2.6447406e+2, -389054.75, -350172.75, 35763.457, 0.09387941, 0.23833433, -328907.75, 19270.482, 0.0, 9.999607, 10.00013 
7.249068e+2, 2.7447462e+2, -100589.65, -143906.33, -26177.158, 0.036829993, 0.25883988, -88272.59, 161894.05, 0.000000011844985, 10.000841, 10.00028 
7.248851e+2, 2.8447393e+2, -112499.94, -304974.25, 38629.477, 0.03337382, 0.2548946, -105036.44, 47134.53, 0.0000046664522, 10.00098, 9.998432 
7.248653e+2, 2.9447177e+2, -190254.88, -304361.28, 66974.57, 0.09489315, 0.19759879, -159327.05, -105132.45, 0.00003902921, 9.999823, 9.998322 
7.248441e+2, 3.0447057e+2, -87913.82, -145155.88, -46966.62, 0.2006782, 0.2133787, -61534.605, -61534.605, 0.00013569239, 9.999825, 9.999083 
7.2482014e+2, 3.1446794e+2, 187297.63, 113977.65, 44896.426, 0.25339684, 0.026980605, 208600.06, 208600.06, 0.0002996597, 10.001143, 10.000228 
7.352509e+2, 1.2450547e+2, -1509659.5, -1536115.8, 26775.8, -0.0600205, 0.0053722304, -1493022.5, 226837.48, 0.0, 10.001044, 10.000719 
7.352255e+2, 1.3450658e+2, -1565588.4, -1583060.5, -106925.38, -0.045313943, 0.09449214, -1467042.8, 154802.55, 0.0, 10.000293, 10.000096 
7.35202e+2, 1.4450596e+2, -1551489.0, -1666950.9, 6386.194, -0.0034978054, 0.093904264, -1551136.9, -27286.277, 0.0, 10.000335, 9.998816 
7.351791e+2, 1.545042e+2, -1284359.4, -1492010.8, -29318.922, -0.04650445, 0.026672382, -1280299.3, 145572.03, 0.0, 10.001515, 9.998773 
7.351556e+2, 1.6450354e+2, -1147094.3, -1283137.9, -118896.516, -0.04881367, 0.048217494, -1078136.8, 249742.42, 0.0, 10.001387, 9.999598 
7.351317e+2, 1.745042e+2, -1292532.0, -1295239.6, -67156.95, 0.045551073, 0.14319308, -1226715.3, 3157.0027, 0.0, 9.999687, 9.999661 
7.3510873e+2, 1.845038e+2, -1283409.6, -1273619.3, 74250.05, 0.09402512, 0.15453203, -1204103.1, -72228.08, 0.0, 9.999218, 9.999362 
7.350869e+2, 1.9450197e+2, -1035440.9, -1103222.5, 81690.21, 0.07788259, 0.028960496, -980890.3, 53000.484, 0.0, 10.000247, 9.999362 
7.350639e+2, 2.0450145e+2, -946370.1, -1078178.9, -9150.669, 0.04843671, 0.074893005, -945737.9, -9839.516, 0.0, 10.000482, 9.99875 
7.3503953e+2, 2.1450242e+2, -960309.44, -1034298.3, -20577.998, 0.008007635, 0.291118, -954971.3, -117074.38, 0.0, 9.999711, 9.99875 
7.350168e+2, 2.2450162e+2, -819624.56, -863555.94, 52546.695, 0.013529968, 0.3179529, -784637.25, -44731.188, 0.0, 9.999781, 9.999215 
7.34996e+2, 2.3449856e+2, -552856.44, -679434.0, 39125.06, 0.070768, 0.07935684, -541739.25, 100189.62, 0.0, 10.000921, 9.999257 
7.3497415e+2, 2.4449746e+2, -451917.38, -590199.8, -3032.4111, 0.07031984, 0.05208433, -451850.9, 92086.945, 0.0, 10.000983, 9.9991665 
7.349508e+2, 2.5449866e+2, -539589.1, -578821.8, 40160.25, -0.001690362, 0.24454685, -514510.4, -68579.67, 0.0, 9.999695, 9.999191 
7.349288e+2, 2.6449826e+2, -490633.06, -552185.5, 76584.336, -0.00026817908, 0.31056637, -438872.4, -90936.84, 0.0, 9.99957, 9.998761 
7.3490834e+2, 2.7449575e+2, -208172.4, -365736.63, 26244.363, 0.09619431, 0.17892097, -203916.05, 46040.355, 0.000000051096855, 10.0008335, 9.998761 
7.348872e+2, 2.8449363e+2, -64686.953, -207180.23, -5740.242, 0.12719083, 0.07647179, -64456.086, 87519.555, 0.0000058850314, 10.000986, 9.9991 
7.34865e+2, 2.9449198e+2, -146638.05, -196948.3, 27892.678, 0.07178905, -0.012451939, -134232.8, -80240.39, 0.000043358832, 9.99975, 9.999093 
7.348434e+2, 3.0449224e+2, -38316.066, -28635.898, 1164.9563, 0.14177704, 0.07401852, -28497.676, -28497.676, 0.00014281429, 9.999771, 9.999906 
7.34822e+2, 3.1449258e+2, 277534.56, 311163.72, 110728.09, 0.29432023, 0.09803022, 406346.66, 406346.66, 0.00030710292, 10.001113, 10.001593 
7.4524975e+2, 1.2452814e+2, -1756418.4, -1687139.4, 103223.01, -0.19719544, 0.0033076152, -1612898.8, 106738.22, 0.0, 9.999486, 10.000434 
7.4522704e+2, 1.3452962e+2, -1480084.9, -1567415.8, -107744.45, 0.044717368, 0.15698884, -1407494.0, 214127.52, 0.0, 10.001, 9.999858 
7.452038e+2, 1.445288e+2, -1450180.3, -1621497.9, -18863.484, 0.11337004, 0.1502079, -1448127.8, 75502.266, 0.0, 10.001044, 9.998786 
7.4517995e+2, 1.5452659e+2, -1581588.5, -1637484.9, 10692.801, -0.010192932, 0.04081819, -1579612.8, -153958.2, 0.0, 9.999487, 9.998752 
7.4515593e+2, 1.6452593e+2, -1394132.6, -1364185.6, -51274.64, -0.051773693, 0.045917045, -1325742.9, 1918.9099, 0.0, 9.999528, 9.999937 
7.4513227e+2, 1.7452705e+2, -1004419.25, -1114644.8, -84402.516, 0.055516053, 0.15117277, -958729.2, 270919.56, 0.0, 10.001484, 10.000032 
7.4510944e+2, 1.8452692e+2, -909682.6, -1098708.9, 3740.307, 0.121658936, 0.17252417, -909608.6, 222039.47, 0.0, 10.001804, 9.999316 
7.450875e+2, 1.9452514e+2, -1050825.9, -1117591.3, 2762.1846, 0.12327073, 0.055825155, -1050711.9, -17048.057, 0.0, 10.000168, 9.999302 
7.4506426e+2, 2.0452413e+2, -1023550.1, -1119162.3, -48619.74, 0.064466946, 0.057257183, -1003170.44, -67495.17, 0.0, 9.999968, 9.998717 
7.4503946e+2, 2.1452403e+2, -705321.44, -913965.56, -47525.93, -0.0578155, 0.16951968, -695005.8, 142676.4, 0.0, 10.001477, 9.998725 
7.450168e+2, 2.2452313e+2, -586103.7, -786860.7, 25741.146, -0.05688376, 0.2030893, -582855.7, 156836.75, 0.0, 10.001538, 9.998898 
7.449965e+2, 2.3452115e+2, -736764.94, -806695.5, 23140.883, 0.08541225, 0.104957566, -729800.8, -88092.83, 0.0, 9.999816, 9.99892 
7.449747e+2, 2.4452034e+2, -679359.6, -677048.2, -22927.303, 0.117790766, 0.11477107, -655247.5, -111533.35, 0.0, 9.999322, 9.999372 
7.4495095e+2, 2.5452092e+2, -427486.88, -499688.0, -53095.652, 0.019088393, 0.22346154, -399381.53, 46327.777, 0.0, 10.000353, 9.999421 
7.449291e+2, 2.645199e+2, -342355.44, -553386.6, 10615.1045, 0.009852329, 0.24461143, -341822.8, 5896.608, 0.0, 10.0009, 9.998113 
7.4490935e+2, 2.745168e+2, -248854.08, -461978.63, 16871.74, 0.11784562, 0.12102589, -247526.72, 2222.2292, 0.00000017449423, 10.000889, 9.998072 
7.4488825e+2, 2.8451455e+2, -128847.766, -211808.94, -55013.992, 0.16835313, 0.035345305, -101428.58, 50341.43, 0.0000070142673, 10.000429, 9.999339 
7.4486524e+2, 2.945134e+2, -173029.48, -178352.77, -72316.13, 0.14603317, -0.0316099, -103326.03, -49545.152, 0.000045203302, 9.99943, 9.999377 
7.448434e+2, 3.045137e+2, -123082.67, -64429.176, -60889.61, 0.21071616, 0.040990543, -26171.883, -26171.883, 0.00014394909, 9.999158, 9.999963 
7.448229e+2, 3.1451464e+2, 97718.266, 270247.8, -22327.602, 0.35928386, 0.11921892, 273090.47, 273090.47, 0.00030552503, 9.999674, 10.002008 
7.5524783e+2, 1.2455398e+2, -1851022.9, -1881550.5, 122409.625, -0.3577581, 0.22897884, -1742929.1, -23547.393, 0.0, 9.999485, 9.999098 
7.5522786e+2, 1.3455275e+2, -1575147.3, -1758929.9, -50911.85, 0.02114167, 0.24053863, -1561986.1, 59413.523, 0.0, 10.0009775, 9.998553 
7.552053e+2, 1.445513e+2, -1393810.6, -1499679.4, -77640.71, 0.14956188, 0.19703177, -1352776.3, 170640.2, 0.0, 10.00102, 9.999635 
7.5518095e+2, 1.5455133e+2, -1510312.9, -1493976.3, -42813.816, 0.13492814, 0.21914107, -1458558.5, -33143.64, 0.0, 9.999506, 9.999728 
7.551568e+2, 1.645509e+2, -1430146.9, -1447148.4, 12855.168, 0.07291749, 0.22359632, -1423236.0, -95817.74, 0.0, 9.999561, 9.9993515 
7.551334e+2, 1.7454994e+2, -1055291.5, -1216624.6, -6841.2686, 0.009611438, 0.18704951, -1055001.9, 174425.11, 0.0, 10.001467, 9.999343 
7.5511e+2, 1.8454911e+2, -921422.6, -1112496.5, -54945.133, -0.0053281276, 0.17860033, -906749.44, 224684.72, 0.0, 10.0017605, 9.999242 
7.550867e+2, 1.9454826e+2, -1060975.5, -1128504.4, -55122.42, 0.024003053, 0.16234645, -1030098.5, 3342.5088, 0.0, 10.000127, 9.999248 
7.5506353e+2, 2.0454708e+2, -1015267.94, -1093926.1, -987.2422, -0.008985332, 0.13880073, -1015255.56, -79802.92, 0.0, 9.999932, 9.998907 
7.550405e+2, 2.145454e+2, -699245.0, -888363.56, 12695.785, -0.107539706, 0.07304848, -698396.5, 139074.14, 0.0, 10.001422, 9.998926 
7.5501806e+2, 2.2454458e+2, -600319.2, -800470.6, -36547.25, -0.08398262, 0.10738309, -593854.56, 145624.69, 0.0, 10.001471, 9.998836 
7.549963e+2, 2.3454468e+2, -748113.94, -819425.2, -37329.74, 0.079836346, 0.2250797, -732147.56, -90669.85, 0.0, 9.999773, 9.998852 
7.549744e+2, 2.4454355e+2, -726723.25, -770615.94, 7584.3213, 0.1515115, 0.23608753, -725449.7, -181962.28, 0.0, 9.999301, 9.998739 
7.549523e+2, 2.5454083e+2, -475748.47, -598629.06, -10730.181, 0.116516076, 0.08128908, -474818.53, -29306.813, 0.0, 10.000345, 9.998746 
7.5493073e+2, 2.6453885e+2, -335381.13, -536290.75, 8767.729, 0.08235955, 0.037381656, -334999.22, 12531.402, 0.0, 10.000894, 9.998231 
7.5490975e+2, 2.7453765e+2, -244983.31, -442589.6, 22151.543, 0.054872647, 0.08675375, -242530.6, 7013.564, 0.0000002213921, 10.000842, 9.998226 
7.548882e+2, 2.8453678e+2, -152276.81, -253641.14, -93748.516, 0.11408177, 0.13944754, -96387.57, 55166.137, 0.000006955663, 10.000397, 9.999068 
7.5486606e+2, 2.945362e+2, -199102.47, -224529.23, -106336.21, 0.27422097, 0.16019802, -104722.336, -51163.156, 0.000043838252, 9.999392, 9.999081 
7.5484425e+2, 3.0453497e+2, -179123.89, -168874.63, -46052.07, 0.36451945, 0.12830193, -127662.93, -127662.93, 0.0001394824, 9.999114, 9.999262 
7.5482273e+2, 3.145337e+2, 47940.02, 188442.53, 5633.4307, 0.3568656, 0.059893712, 188668.05, 188668.05, 0.0002957357, 9.999585, 10.001486 
7.6524955e+2, 1.2457539e+2, -1694349.5, -1781165.0, -42389.91, -0.17263189, 0.23992828, -1677084.9, 42089.438, 0.0, 10.000432, 9.9993305 
7.652282e+2, 1.3457447e+2, -1808407.5, -1838162.6, -99006.19, 0.05837772, 0.2501232, -1723167.3, -101978.984, 0.0, 9.999225, 9.998854 
7.652047e+2, 1.4457339e+2, -1615997.6, -1534081.9, -64697.54, 0.09029098, 0.19586009, -1498467.5, 24732.725, 0.0, 9.99918, 10.000286 
7.651808e+2, 1.5457426e+2, -1285302.3, -1312114.8, -59111.145, 0.11587786, 0.23479013, -1238096.1, 187092.45, 0.0, 10.000728, 10.00039 
7.6515734e+2, 1.645741e+2, -1220497.8, -1365276.5, 21804.93, 0.09989023, 0.2386197, -1217285.0, 109903.72, 0.0, 10.001083, 9.999183 
7.6513475e+2, 1.7457266e+2, -1275706.0, -1343942.5, 29122.01, 0.07887088, 0.17596178, -1264967.3, -35764.586, 0.0, 10.000047, 9.999154 
7.6511127e+2, 1.845716e+2, -1226365.9, -1283669.9, -30754.775, 0.047591537, 0.16295773, -1212984.6, -81771.49, 0.0, 9.99977, 9.999028 
7.6508665e+2, 1.9457078e+2, -1037947.0, -1140232.0, -49958.33, -0.00550335, 0.17150068, -1017595.5, 15625.429, 0.0, 10.000381, 9.999044 
7.6506346e+2, 2.0456968e+2, -919788.6, -1028325.94, 42313.832, -0.03132745, 0.15850826, -905242.0, 29989.256, 0.0, 10.000503, 9.9990835 
7.6504207e+2, 2.1456811e+2, -887442.44, -959241.6, 49523.094, -0.02063191, 0.08574509, -862175.75, -24930.002, 0.0, 10.000038, 9.999109 
7.6501983e+2, 2.245672e+2, -787645.4, -914789.2, -28867.018, 0.013027607, 0.111258194, -781398.25, -42143.637, 0.0, 10.000293, 9.998615 
7.649967e+2, 2.3456702e+2, -533154.2, -742729.9, -53095.08, 0.0701347, 0.22477277, -520470.4, 120787.1, 0.0, 10.00137, 9.998606 
7.649744e+2, 2.4456534e+2, -426313.22, -681667.94, 13425.455, 0.11048627, 0.21834834, -425609.3, 117664.1, 0.0, 10.001605, 9.998239 
7.64953e+2, 2.545618e+2, -437752.7, -635466.94, 385.20175, 0.12798603, 0.033323493, -437751.94, 7553.7207, 0.0, 10.000854, 9.998243 
7.649317e+2, 2.6455975e+2, -393876.3, -551840.06, 25205.826, 0.115028664, 0.0016470379, -389951.8, -42626.113, 0.0, 10.000437, 9.998345 
7.6491046e+2, 2.745593e+2, -299487.97, -451386.28, 26695.531, 0.076074414, 0.112497695, -294932.94, -45600.75, 0.00000016204108, 10.000391, 9.998383 
7.648889e+2, 2.8455862e+2, -143346.22, -307957.34, -93199.34, 0.1285537, 0.20162761, -101312.234, 50027.77, 0.0000062859385, 10.00071, 9.998547 
7.6486653e+2, 2.945575e+2, 59246.22, -158156.44, -132047.8, 0.28742155, 0.22416331, 121578.805, 174929.34, 0.000041485197, 10.001424, 9.998556 
7.648445e+2, 3.045551e+2, 111861.82, -138673.64, -79035.79, 0.36150306, 0.14550978, 134711.14, 134711.14, 0.00013263787, 10.001585, 9.998279 
7.648231e+2, 3.1455353e+2, 167217.64, 122601.73, -66883.19, 0.364309, 0.14615266, 215415.05, 215415.05, 0.0002807991, 10.000943, 10.000374 
7.7525437e+2, 1.2459298e+2, -1585073.0, -1541914.5, -114320.03, 0.2435055, 0.05996886, -1447154.9, 271853.72, 0.00000000003061157, 10.000382, 10.000997 
7.752281e+2, 1.3459502e+2, -1679440.8, -1579568.4, -141940.06, 0.10997145, 0.19062307, -1479036.6, 141949.16, 0.0, 9.999261, 10.000612 
7.752021e+2, 1.4459516e+2, -1579475.5, -1465987.9, -16104.41, -0.09777102, 0.14368324, -1463746.9, 59234.69, 0.0, 9.999213, 10.000737 
7.751796e+2, 1.5459555e+2, -1259785.1, -1258649.4, 2389.5803, -0.08906503, 0.10044428, -1256761.1, 168213.4, 0.0, 10.000723, 10.000761 
7.7515745e+2, 1.6459568e+2, -1205380.9, -1329914.8, -18650.627, -0.0014164295, 0.10265707, -1202647.8, 124324.04, 0.0, 10.001065, 9.9994335 
7.751363e+2, 1.7459533e+2, -1257428.1, -1307847.6, -6859.9126, 0.22097851, 0.12089144, -1256511.4, -27536.14, 0.0, 10.0000515, 9.999401 
7.75113e+2, 1.845944e+2, -1250075.6, -1331356.4, -14234.534, 0.23210655, 0.12584044, -1247654.9, -116669.63, 0.0, 9.999765, 9.998703 
7.750871e+2, 1.9459271e+2, -1066850.3, -1193636.1, -23631.822, -0.007739544, 0.082889095, -1062588.6, -29585.326, 0.0, 10.000351, 9.998693 
7.7506393e+2, 2.0459197e+2, -917164.6, -1009736.8, 22459.393, -0.043183163, 0.11730197, -912003.4, 23007.486, 0.0, 10.000449, 9.999235 
7.7504396e+2, 2.1459222e+2, -883967.3, -939073.2, 35231.574, 0.16249926, 0.20790872, -866794.06, -29786.955, 0.0, 9.999987, 9.99927 
7.75022e+2, 2.2459102e+2, -823152.0, -977438.06, 4534.4126, 0.19114798, 0.21684942, -823018.9, -84000.46, 0.0, 10.000244, 9.998209 
7.749976e+2, 2.3458806e+2, -568383.44, -807665.9, -8437.207, 0.017878726, 0.09469057, -568086.3, 72961.98, 0.0, 10.001332, 9.998179 
7.7497447e+2, 2.4458566e+2, -456273.34, -735521.06, -16267.976, -0.045608327, 0.056383308, -455328.8, 87743.7, 0.0, 10.001572, 9.997885 
7.749528e+2, 2.5458387e+2, -466623.44, -688169.06, -23554.03, 0.017211476, 0.0804951, -464146.94, -19055.89, 0.0, 10.000823, 9.997897 
7.7493185e+2, 2.6458257e+2, -392371.9, -543371.56, 19936.943, 0.07503162, 0.1389783, -389783.9, -42679.383, 0.0, 10.000411, 9.998418 
7.749116e+2, 2.7458173e+2, -298168.47, -443034.4, 29427.848, 0.13620503, 0.20247765, -292418.75, -43305.496, 0.00000014054619, 10.00036, 9.99846 
7.7488995e+2, 2.8458002e+2, -197292.06, -412820.3, -70552.266, 0.16001289, 0.21903877, -176251.19, -25121.422, 0.000005985507, 10.000683, 9.997835 
7.748665e+2, 2.9457712e+2, 7569.782, -268510.13, -98462.86, 0.13429621, 0.13652526, 39087.97, 92245.22, 0.000039454848, 10.001436, 9.997791 
7.7484405e+2, 3.0457386e+2, 20120.473, -332126.78, -101980.23, 0.15486522, 0.07881066, 47514.652, 47514.652, 0.00012495591, 10.001598, 9.996944 
7.7482337e+2, 3.1457418e+2, 42446.52, -134361.05, -80987.055, 0.2731037, 0.40506977, 73934.91, 73934.91, 0.00026321306, 10.000929, 9.998617 
7.852541e+2, 1.24614745e+2, -1778867.3, -1574879.5, 48347.473, 0.27012908, 0.08235756, -1564000.8, 154797.0, 0.0000000009851104, 9.998792, 10.00154 
7.852281e+2, 1.3461676e+2, -1428888.3, -1386082.6, -56469.96, 0.118460916, 0.14719799, -1347095.6, 273674.56, 0.0, 10.000677, 10.001253 
7.8520215e+2, 1.4461681e+2, -1350671.4, -1404281.5, -6541.9214, -0.09871234, 0.07963141, -1349884.6, 172880.77, 0.0, 10.000993, 10.000304 
7.8518003e+2, 1.5461715e+2, -1468824.1, -1411208.0, -56256.55, -0.052964073, 0.075364225, -1376812.4, 47949.676, 0.0, 9.999517, 10.000292 
7.851578e+2, 1.6461724e+2, -1432736.3, -1400834.8, -91979.47, 0.014011668, 0.08261855, -1323433.3, 3327.1143, 0.0, 9.999343, 9.999773 
7.851359e+2, 1.746169e+2, -1140016.0, -1207251.6, -79542.836, 0.14948659, 0.06553715, -1087278.6, 141483.19, 0.0, 10.000675, 9.999784 
7.85113e+2, 1.8461616e+2, -995119.44, -1197491.9, -52904.406, 0.1747292, 0.064778715, -982123.7, 148645.16, 0.0, 10.001464, 9.998805 
7.8508866e+2, 1.9461489e+2, -885973.8, -1093868.8, -37047.75, 0.06358348, 0.05014256, -879569.06, 153214.31, 0.0, 10.001542, 9.998803 
7.8506565e+2, 2.0461416e+2, -788572.0, -967959.9, -5728.4087, 0.047975004, 0.08892444, -788389.25, 146401.52, 0.0, 10.001419, 9.999054 
7.850443e+2, 2.14614e+2, -750154.75, -896286.75, -28487.838, 0.15171957, 0.15884751, -744797.56, 91993.445, 0.0, 10.000999, 9.999075 
7.8502196e+2, 2.2461267e+2, -774488.1, -942582.3, -20527.365, 0.15347952, 0.15933318, -772017.7, -33214.207, 0.0, 10.000529, 9.998309 
7.849984e+2, 2.3460989e+2, -752501.44, -883623.94, -463.089, 0.035479646, 0.04528532, -752499.8, -111668.66, 0.0, 10.000015, 9.99829 
7.849757e+2, 2.4460782e+2, -676161.06, -855386.7, 18957.064, -0.0041247797, 0.039043754, -674177.9, -131324.95, 0.0, 10.000126, 9.997754 
7.8495395e+2, 2.546065e+2, -457930.2, -700231.5, 17341.73, 0.048831373, 0.12179439, -456695.3, -11826.633, 0.0, 10.000953, 9.997748 
7.849329e+2, 2.6460505e+2, -282723.28, -494221.1, 62816.293, 0.114151165, 0.17548427, -265473.34, 81409.984, 0.0, 10.001177, 9.998387 
7.849127e+2, 2.746034e+2, -245922.58, -417893.8, 57467.58, 0.20057575, 0.16261125, -228486.5, 20410.576, 0.0000001311964, 10.000723, 9.998456 
7.848911e+2, 2.8460112e+2, -173127.75, -452069.56, 15848.665, 0.19653791, 0.14616, -172230.16, -21311.738, 0.000005888669, 10.001069, 9.997381 
7.848679e+2, 2.9459795e+2, 96219.5, -277834.78, 1407.8656, 0.0892886, 0.08454687, 96224.8, 149175.27, 0.000037310834, 10.002274, 9.997323 
7.848452e+2, 3.045946e+2, 84396.875, -329147.88, -17783.05, 0.08365683, 0.05374305, 85160.164, 85160.164, 0.00011684081, 10.002151, 9.996704 
7.84824e+2, 3.1459516e+2, -86586.47, -276850.7, 69155.78, 0.28255674, 0.4265899, -64106.33, -64106.33, 0.00024566453, 10.000376, 9.997916 
7.9524904e+2, 1.2464044e+2, -1808765.9, -1644675.9, 87189.49, -0.14301544, 0.28557855, -1606998.8, 111546.23, 0.0000000034592607, 9.998833, 10.00104 
7.952282e+2, 1.346397e+2, -1456695.3, -1442804.3, 14993.315, 0.057086192, 0.11675908, -1433225.9, 187315.94, 0.0, 10.000678, 10.000862 
7.9520464e+2, 1.4463848e+2, -1441215.5, -1587015.4, -63581.645, 0.041595925, 0.003192364, -1417383.6, 105167.15, 0.0, 10.000972, 9.99906 
7.951818e+2, 1.5463908e+2, -1551646.5, -1592616.3, -105911.266, 0.16502815, 0.15065138, -1464257.3, -39706.668, 0.0, 9.999557, 9.999029 
7.95158e+2, 1.646388e+2, -1400836.1, -1339852.3, -47941.402, 0.095775105, 0.16751127, -1313527.5, 13026.352, 0.0, 9.999367, 10.000179 
7.951336e+2, 1.7463748e+2, -1106264.4, -1139129.5, -25479.002, -0.15879714, 0.0044322093, -1092378.5, 136183.0, 0.0, 10.000682, 10.000249 
7.9511124e+2, 1.8463701e+2, -963539.44, -1122622.8, -51456.77, -0.1455522, -0.020746704, -948346.4, 182216.94, 0.0, 10.001424, 9.999337 
7.9509133e+2, 1.9463734e+2, -855079.44, -1020602.56, -30226.244, 0.16222183, 0.07316721, -849732.56, 182827.72, 0.0, 10.001501, 9.999326 
7.950687e+2, 2.0463626e+2, -832359.6, -1045329.56, -25887.436, 0.19362098, 0.07418474, -829258.06, 105312.52, 0.0, 10.001362, 9.998549 
7.95043e+2, 2.1463345e+2, -796224.8, -979704.6, -40458.457, -0.08599192, -0.06737852, -787699.6, 48897.813, 0.0, 10.000946, 9.9985285 
7.950196e+2, 2.2463217e+2, -740720.75, -859097.8, -43898.7, -0.13472047, -0.06312405, -726218.2, 12391.411, 0.0, 10.000472, 9.99891 
7.9499894e+2, 2.3463258e+2, -713661.94, -794151.25, -16219.748, 0.08303805, 0.07875034, -710516.3, -69910.75, 0.0, 9.999974, 9.998925 
7.949779e+2, 2.4463184e+2, -674125.6, -847732.25, 43714.902, 0.1935723, 0.16798407, -663739.4, -121125.14, 0.0, 10.000108, 9.997817 
7.949564e+2, 2.5462958e+2, -460316.63, -698349.7, 51631.38, 0.18352218, 0.15676132, -449599.8, -4960.914, 0.0, 10.000919, 9.99778 
7.949349e+2, 2.6462707e+2, -291633.8, -506245.72, 43221.594, 0.19201763, 0.10652475, -283256.25, 63405.996, 0.0, 10.001149, 9.998318 
7.9491377e+2, 2.7462423e+2, -255498.1, -433221.75, 45909.043, 0.22409374, -0.020805173, -244339.61, 4344.873, 0.000000103459534, 10.000703, 9.998361 
7.948923e+2, 2.8462198e+2, -189086.86, -483844.56, 57852.6, 0.20031308, -0.020896284, -178138.67, -27432.66, 0.000005445095, 10.001061, 9.997167 
7.9487044e+2, 2.9462022e+2, 79157.09, -308776.97, 54980.277, 0.107177205, 0.08085105, 86798.695, 139527.25, 0.000034263594, 10.002251, 9.997123 
7.948476e+2, 3.0461746e+2, 148362.27, -188132.03, -80317.445, 0.10495908, 0.06840206, 166550.08, 166550.08, 0.000108508386, 10.002121, 9.997684 
7.9482484e+2, 3.146166e+2, -63908.945, -213801.39, 9902.122, 0.30685696, 0.20088509, -63257.625, -63257.625, 0.00023086925, 10.000313, 9.998376 
8.052477e+2, 1.24663815e+2, -1677397.0, -1661866.4, 48598.99, -0.20846084, 0.33111987, -1620416.3, 97896.875, 0.0000000057252847, 10.000083, 10.000327 
8.052286e+2, 1.3466209e+2, -1703445.0, -1633744.5, -33367.258, 0.10017165, 0.12960877, -1620346.3, -23.44343, 0.0, 9.999288, 10.000233 
8.052056e+2, 1.4466037e+2, -1657598.3, -1693848.8, -86691.64, 0.11926652, -0.0011122002, -1587157.3, -64819.19, 0.0, 9.999499, 9.999035 
8.0518246e+2, 1.5466103e+2, -1341318.9, -1492975.1, -52510.945, 0.20389651, 0.15275453, -1324911.9, 99424.484, 0.0, 10.001014, 9.999009 
8.051586e+2, 1.6466078e+2, -1115193.1, -1226976.9, 42721.266, 0.12246717, 0.1850978, -1100735.8, 225603.77, 0.0, 10.0014305, 9.999964 
8.0513453e+2, 1.7465949e+2, -1147127.0, -1182936.3, 9524.537, -0.120808356, 0.049271584, -1144751.3, 83597.055, 0.0, 10.000508, 10.000034 
8.0511224e+2, 1.8465912e+2, -1161498.9, -1195642.0, -56692.297, -0.11345564, 0.03539812, -1119363.6, 10986.071, 0.0, 9.999976, 9.999529 
8.0509204e+2, 1.946596e+2, -1077908.3, -1106586.8, -66790.58, 0.17341137, 0.12528202, -1023935.06, 8409.193, 0.0, 9.999884, 9.999515 
8.050694e+2, 2.0465843e+2, -1031264.25, -1151885.8, -52986.086, 0.20728295, 0.111946896, -1011294.8, -76939.734, 0.0, 10.000046, 9.998453 
8.0504405e+2, 2.1465522e+2, -878448.94, -1028999.75, -45154.61, -0.042678297, -0.058387633, -865944.4, -29558.791, 0.0, 10.000428, 9.998438 
8.0502075e+2, 2.2465372e+2, -684567.94, -831925.75, -45828.695, -0.08821404, -0.073171034, -671477.9, 66921.625, 0.0, 10.000855, 9.998913 
8.0499977e+2, 2.3465407e+2, -518093.3, -697864.0, -70971.7, 0.1041297, 0.060937177, -493452.0, 146943.19, 0.0, 10.001309, 9.998944 
8.049789e+2, 2.4465343e+2, -456717.9, -705143.6, -4850.6836, 0.21605745, 0.14421946, -456623.22, 85778.12, 0.0, 10.001439, 9.998156 
8.049579e+2, 2.5465152e+2, -388903.66, -624771.7, 17671.08, 0.23673147, 0.12985463, -387587.1, 56833.96, 0.0, 10.001241, 9.998133 
8.049364e+2, 2.646489e+2, -315910.78, -521233.34, 6116.457, 0.23246183, 0.053652633, -315728.75, 30715.492, 0.0, 10.0009985, 9.998286 
8.0491424e+2, 2.7464548e+2, -260521.95, -441194.88, 1123.3427, 0.20639472, -0.12619415, -260514.97, -12043.019, 0.00000004701224, 10.000691, 9.998311 
8.0489296e+2, 2.846436e+2, -261219.14, -465552.3, 76528.76, 0.1990987, -0.110735536, -235735.19, -85245.05, 0.0000040934947, 10.000336, 9.997643 
8.048725e+2, 2.9464328e+2, -216960.1, -394078.1, 119537.516, 0.20652421, 0.08576764, -156751.11, -104252.12, 0.000029452855, 9.999972, 9.997633 
8.0484957e+2, 3.0464128e+2, -45385.98, -192886.45, -14318.514, 0.18041405, 0.084564224, -44008.875, -44008.875, 0.000100260084, 10.000407, 9.998479 
8.0482495e+2, 3.146388e+2, 154916.39, -40459.363, 43070.01, 0.2366572, -0.024314143, 163989.67, 163989.67, 0.00022208261, 10.001526, 9.998981 
8.152497e+2, 1.24685206e+2, -1738263.4, -1794686.5, -7840.9004, -0.039598394, 0.23482653, -1737194.0, -19094.68, 0.000000004999778, 10.000114, 9.999398 
8.152288e+2, 1.3468407e+2, -1756584.5, -1750326.8, -60275.5, 0.19028261, 0.17205006, -1693099.0, -72986.96, 0.0, 9.999319, 9.999414 
8.15205e+2, 1.4468259e+2, -1583516.8, -1543501.5, -35533.797, 0.09840958, 0.059353974, -1522729.8, -603.82513, 0.0, 9.999513, 10.000061 
8.151819e+2, 1.5468301e+2, -1262054.6, -1332447.1, 10242.458, 0.03913811, 0.08231668, -1260594.6, 163524.6, 0.0, 10.001027, 10.000105 
8.151596e+2, 1.6468316e+2, -1173882.8, -1345048.6, 6488.771, 0.06428716, 0.13583273, -1173637.0, 152480.48, 0.0, 10.001416, 9.999159 
8.1513834e+2, 1.7468292e+2, -1209822.6, -1310457.3, -21876.963, 0.20614313, 0.19081675, -1205272.5, 22849.9, 0.0, 10.000495, 9.999165 
8.151155e+2, 1.846825e+2, -1177610.0, -1221115.0, -62800.652, 0.21195629, 0.22473778, -1132901.3, -2773.6716, 0.0, 9.999943, 9.999371 
8.1509084e+2, 1.9468172e+2, -1089544.0, -1128549.5, -64209.53, 0.05624726, 0.20044018, -1041940.7, -9805.851, 0.0, 9.99987, 9.999372 
8.15068e+2, 2.0468071e+2, -1018730.56, -1114683.1, -42781.44, 0.056619536, 0.19809185, -1002426.4, -68282.8, 0.0, 10.0, 9.998729 
8.150474e+2, 2.1467936e+2, -864794.5, -990861.06, -27263.766, 0.23800668, 0.18501793, -859150.94, -22995.805, 0.0, 10.000384, 9.998721 
8.15025e+2, 2.2467732e+2, -730727.1, -915286.5, -33685.62, 0.24334514, 0.12964709, -724771.06, 13402.094, 0.0, 10.000802, 9.998366 
8.1500065e+2, 2.3467438e+2, -566191.06, -787066.1, -49628.785, 0.05255063, -0.009783446, -555552.3, 84647.35, 0.0, 10.001262, 9.998355 
8.149784e+2, 2.4467264e+2, -416039.13, -617161.6, -16592.27, 0.019188032, -0.034258567, -414679.47, 127534.5, 0.0, 10.001418, 9.998773 
8.149586e+2, 2.5467223e+2, -345216.8, -531308.94, 13901.228, 0.16672637, 0.03661206, -344184.13, 100031.195, 0.0, 10.001223, 9.998788 
8.1493706e+2, 2.6467052e+2, -319826.53, -522332.5, -7856.9814, 0.19535072, 0.015064041, -319522.16, 26707.27, 0.0, 10.000973, 9.998289 
8.149139e+2, 2.7466723e+2, -270988.28, -450279.0, -4416.2227, 0.0990289, -0.14743823, -270879.56, -22620.379, 0.000000004527389, 10.000638, 9.998274 
8.148928e+2, 2.8466603e+2, -181375.4, -294107.4, 57378.89, 0.14367254, -0.11735884, -157308.44, -7037.9316, 0.0000024308686, 10.000306, 9.9988365 
8.1487393e+2, 2.9466715e+2, -138034.03, -223159.92, 110438.99, 0.3458025, 0.09820908, -62239.992, -9978.113, 0.000024457544, 9.999933, 9.99883 
8.1485087e+2, 3.0466607e+2, -8314.079, -100645.2, 30092.22, 0.27055338, 0.09987911, 627.53564, 627.53564, 0.00009519151, 10.00035, 9.999133 
8.1482416e+2, 3.146621e+2, 193526.5, 49877.348, 98123.23, -0.021462297, -0.2242893, 243303.47, 243303.47, 0.00022313076, 10.001485, 9.999621 
8.2525045e+2, 1.24706075e+2, -1791953.9, -1836751.9, -12815.499, 0.044559747, 0.08360193, -1788546.9, -70656.305, 0.0000000017683296, 9.999803, 9.999259 
8.2522845e+2, 1.3470666e+2, -1611479.8, -1688236.6, -12721.037, 0.1770898, 0.19883688, -1609426.4, 10464.313, 0.0, 10.000342, 9.999347 
8.252044e+2, 1.4470588e+2, -1438491.3, -1467528.4, 46201.516, 0.045675483, 0.15515725, -1404580.8, 117318.586, 0.0, 10.0004835, 10.0001135 
8.251819e+2, 1.5470557e+2, -1370441.8, -1378520.8, 11044.63, -0.021893678, 0.09914865, -1362721.1, 61176.68, 0.0, 10.000256, 10.00016 
8.2516e+2, 1.6470541e+2, -1382864.0, -1458842.9, -43437.004, 0.043167487, 0.12556927, -1363147.5, -37248.484, 0.0, 10.000043, 9.999034 
8.251393e+2, 1.747054e+2, -1311275.8, -1376926.9, -29288.367, 0.28578943, 0.21659511, -1300109.0, -72205.16, 0.0, 9.999875, 9.999006 
8.251164e+2, 1.84705e+2, -1137256.8, -1190514.5, 6404.498, 0.29724452, 0.25622714, -1136497.4, -6588.003, 0.0, 10.000174, 9.999469 
8.2509106e+2, 1.9470401e+2, -929085.5, -1037082.94, 14471.356, 0.040619716, 0.20197034, -927180.0, 104737.18, 0.0, 10.000922, 9.999487 
8.2506824e+2, 2.0470312e+2, -834993.06, -1017726.8, 36683.89, 0.021854345, 0.20136438, -827903.8, 106020.89, 0.0, 10.00122, 9.998807 
8.250484e+2, 2.1470231e+2, -775836.7, -938016.4, 30447.578, 0.28418732, 0.2324752, -770308.9, 65623.266, 0.0, 10.000955, 9.998809 
8.2502645e+2, 2.2470045e+2, -752180.5, -922905.4, 45235.3, 0.32142028, 0.19127598, -740935.6, -2987.5703, 0.0, 10.00064, 9.998396 
8.2500184e+2, 2.346973e+2, -716987.94, -855663.9, 64464.32, 0.10466092, 0.028680919, -691650.7, -51675.51, 0.0, 10.000212, 9.99839 
8.2497936e+2, 2.4469516e+2, -618407.06, -710960.5, 105005.71, 0.049899094, -0.0389857, -549933.06, -7940.805, 0.0, 10.000019, 9.998799 
8.2495934e+2, 2.5469413e+2, -501303.34, -598638.0, 79168.67, 0.18435024, -0.0318214, -457039.56, -13041.059, 0.0, 10.000132, 9.998843 
8.249377e+2, 2.646927e+2, -402098.63, -569992.3, 42598.605, 0.19020168, -0.026999356, -391908.78, -45897.93, 0.0, 10.000436, 9.998223 
8.249142e+2, 2.746906e+2, -234133.3, -437388.38, 35258.438, 0.059223652, -0.06419593, -228190.78, 19840.838, 0.0, 10.000914, 9.998228 
8.2489306e+2, 2.8468955e+2, -87090.41, -185910.9, 55735.88, 0.12427504, -0.04546862, -62016.69, 88024.68, 0.000001518397, 10.000688, 9.999395 
8.248744e+2, 2.9468957e+2, -138170.45, -156397.19, 51535.586, 0.41449425, 0.0065862285, -94948.66, -42909.336, 0.000022006743, 9.999649, 9.999423 
8.248515e+2, 3.0468908e+2, -116038.27, -127052.77, 772.0894, 0.3433614, 0.021954281, -115984.414, -115984.414, 0.00009542949, 9.999498, 9.99936 
8.248247e+2, 3.1468606e+2, 49709.46, 40095.58, 18908.416, -0.04079069, -0.23124035, 64412.383, 64412.383, 0.0002328845, 10.000244, 10.000145 
8.3524966e+2, 1.2472659e+2, -1755623.0, -1750936.4, -16180.559, -0.038052406, -0.1160375, -1736930.4, -19245.078, 0.000000000051048894, 9.999758, 9.9998665 
8.3522743e+2, 1.3472997e+2, -1557312.5, -1586086.6, 9278.157, 0.03190478, 0.21001245, -1554580.1, 65078.367, 0.0, 10.000386, 10.000024 
8.352037e+2, 1.4473021e+2, -1495536.0, -1595760.8, 31768.098, -0.07465141, 0.27865484, -1486314.9, 35343.777, 0.0, 10.000525, 9.999213 
8.3518213e+2, 1.5472873e+2, -1437847.3, -1514481.1, 5836.999, -0.031349678, 0.19768767, -1437405.3, -13733.692, 0.0, 10.000239, 9.999234 
8.351599e+2, 1.6472764e+2, -1350543.4, -1386846.4, -52653.664, 0.01800945, 0.153984, -1313000.3, 12682.292, 0.0, 10.000018, 9.999543 
8.351373e+2, 1.7472702e+2, -1268157.4, -1294544.5, -29501.568, 0.09450851, 0.13089219, -1249033.6, -21342.06, 0.0, 9.999905, 9.999558 
8.351149e+2, 1.8472667e+2, -1114080.5, -1146349.9, 29834.822, 0.11949018, 0.13296233, -1096297.0, 33397.527, 0.0, 10.000186, 9.999768 
8.350925e+2, 1.9472644e+2, -909332.1, -993197.0, 46113.367, 0.0802647, 0.12449439, -888936.6, 142755.5, 0.0, 10.000901, 9.999802 
8.3506984e+2, 2.0472565e+2, -848691.3, -1032277.5, 23380.2, 0.05679125, 0.11928566, -845760.56, 87938.11, 0.0, 10.001162, 9.998734 
8.350472e+2, 2.1472408e+2, -787807.6, -953322.8, 24688.088, 0.057095565, 0.08269808, -784203.7, 51512.586, 0.0, 10.000913, 9.998723 
8.35025e+2, 2.2472316e+2, -719549.25, -840800.6, 23700.586, 0.11291259, 0.11077106, -715081.25, 22642.47, 0.0, 10.000578, 9.998991 
8.350033e+2, 2.347229e+2, -677904.6, -768735.25, 52000.465, 0.22218071, 0.17825197, -654279.4, -14558.505, 0.0, 10.00018, 9.999005 
8.349817e+2, 2.4472103e+2, -663001.0, -796922.5, 104460.82, 0.26958087, 0.1315934, -605881.9, -64146.355, 0.0, 9.9999895, 9.998223 
8.349602e+2, 2.547172e+2, -550354.6, -694570.6, 88329.09, 0.25256637, -0.07999539, -508438.13, -64667.05, 0.0, 10.000101, 9.998201 
8.3493805e+2, 2.6471537e+2, -412841.66, -584364.94, 57821.92, 0.17797141, -0.075421855, -395170.06, -49381.004, 0.0, 10.000402, 9.99814 
8.349151e+2, 2.7471563e+2, -242770.47, -450184.84, 58543.86, 0.0423046, 0.12933207, -227387.1, 20401.816, 0.0, 10.000887, 9.998157 
8.348936e+2, 2.847141e+2, -95684.25, -195798.58, 14934.236, 0.09831575, 0.10697375, -93503.96, 56298.582, 0.0000012583888, 10.000659, 9.999338 
8.348736e+2, 2.9471046e+2, -150325.1, -172126.05, 17554.848, 0.36682847, -0.20285873, -140561.77, -88729.05, 0.000022643984, 9.999609, 9.999335 
8.348512e+2, 3.0471015e+2, -135082.63, -157917.22, 26690.934, 0.3579267, -0.15470442, -117469.586, -117469.586, 0.000101563375, 9.999461, 9.999169 
8.348266e+2, 3.1471065e+2, 59322.555, 69116.625, 58729.844, 0.10091186, -0.033156663, 123153.24, 123153.24, 0.0002494841, 10.0002, 10.000373 
8.452488e+2, 1.24748245e+2, -2026231.6, -1862904.9, -50032.957, 0.0146637205, -0.065116905, -1848796.6, -131322.1, 0.0, 9.99783, 10.00003 
8.4522736e+2, 1.347512e+2, -1532710.3, -1552954.9, -64089.332, -0.012257606, 0.2027753, -1477948.8, 141501.33, 0.0, 10.000473, 10.00021 
8.452043e+2, 1.4475144e+2, -1405411.6, -1528264.1, -108888.92, -0.093112476, 0.250953, -1341817.9, 179631.69, 0.0, 10.001047, 9.999421 
8.4518296e+2, 1.5475008e+2, -1530420.1, -1537837.9, -63048.227, 0.074310794, 0.16112426, -1470971.8, -47509.95, 0.0, 9.999513, 9.999424 
8.451604e+2, 1.6474937e+2, -1414437.4, -1370901.8, -17847.883, 0.10571232, 0.12401796, -1364520.3, -39051.168, 0.0, 9.999377, 9.999964 
8.4513676e+2, 1.7474939e+2, -1122925.8, -1177026.1, -9520.217, 0.009690677, 0.12276624, -1121299.3, 106171.57, 0.0, 10.000697, 9.999984 
8.4511447e+2, 1.847493e+2, -984533.75, -1066953.1, 21228.43, 0.02343826, 0.12144564, -979387.3, 150083.34, 0.0, 10.001005, 9.999918 
8.450936e+2, 1.94749e+2, -1007539.94, -1026382.75, 17087.652, 0.15164165, 0.09068504, -997448.5, 34020.598, 0.0, 10.000169, 9.9999275 
8.450713e+2, 2.0474826e+2, -1003902.9, -1104738.3, 9142.08, 0.14637077, 0.08539471, -1003080.75, -69605.49, 0.0, 10.000083, 9.99876 
8.450474e+2, 2.1474689e+2, -811022.1, -964426.06, 9534.865, 0.0022410387, 0.06822539, -810431.75, 25059.795, 0.0, 10.000749, 9.998729 
8.4502506e+2, 2.2474603e+2, -600501.2, -758077.94, -602.8464, 0.034502845, 0.090988606, -600498.9, 136999.52, 0.0, 10.001295, 9.999205 
8.4500456e+2, 2.3474576e+2, -444873.47, -629894.2, -13264.409, 0.26044157, 0.13306908, -443927.38, 195567.36, 0.0, 10.001682, 9.999228 
8.4498316e+2, 2.4474409e+2, -416197.7, -682720.3, 46190.625, 0.337137, 0.09834258, -408419.47, 133087.77, 0.0, 10.001703, 9.998184 
8.449608e+2, 2.5474072e+2, -382736.44, -617576.56, 63943.105, 0.2503469, -0.06464936, -366454.63, 77084.766, 0.0, 10.00127, 9.998164 
8.449386e+2, 2.6473895e+2, -332934.28, -553429.9, 78651.19, 0.16664904, -0.049442805, -307754.66, 37802.88, 0.0, 10.000985, 9.998072 
8.4491646e+2, 2.7473888e+2, -246702.66, -457047.06, 73034.09, 0.09576769, 0.1315448, -223831.22, 23729.492, 0.0000000050987805, 10.00089, 9.998105 
8.4489447e+2, 2.8473705e+2, -144077.0, -300861.28, -21983.584, 0.12677667, 0.11514146, -141052.89, 8525.624, 0.0000017148438, 10.000677, 9.998609 
8.448726e+2, 2.9473302e+2, -112298.59, -232854.73, -80711.695, 0.27921644, -0.16083826, -71840.26, -20226.088, 0.000025402682, 10.0002165, 9.998621 
8.4485054e+2, 3.0473217e+2, -78401.83, -192857.83, -54373.266, 0.31515262, -0.10320997, -56690.004, -56690.004, 0.00011168263, 10.000112, 9.998622 
8.448286e+2, 3.147324e+2, 76797.07, 68489.75, -57957.41, 0.28192288, 0.043694787, 130749.47, 130749.47, 0.00027089723, 10.000357, 10.000296 
8.5524786e+2, 1.2477102e+2, -2032810.8, -1905688.4, 30641.965, 0.11163123, 0.21244696, -1898687.8, -181430.03, 0.0, 9.997956, 9.999676 
8.5522807e+2, 1.3477066e+2, -1564042.5, -1604289.0, 38633.86, 0.007894563, 0.182969, -1540605.1, 78657.17, 0.0, 10.0004225, 9.999879 
8.552059e+2, 1.4476994e+2, -1324473.4, -1346788.6, -163633.92, -0.04698448, 0.089423776, -1171617.1, 349651.44, 0.0, 10.000981, 10.000702 
8.551843e+2, 1.5476982e+2, -1435777.5, -1346986.3, -111866.2, 0.24415925, -0.006199787, -1271028.1, 152238.73, 0.0, 9.999535, 10.000724 
8.551614e+2, 1.647707e+2, -1389582.4, -1327353.1, 27242.186, 0.26008207, 0.035184983, -1317112.5, 8145.317, 0.0, 9.999407, 10.00025 
8.5513735e+2, 1.7477252e+2, -1104356.5, -1136390.1, 44278.625, -0.0099708885, 0.18629088, -1073286.9, 153954.8, 0.0, 10.000685, 10.000271 
8.55115e+2, 1.8477295e+2, -991831.1, -1072837.0, -10887.137, -0.03160269, 0.22188695, -990393.4, 138844.13, 0.0, 10.000961, 9.999899 
8.550945e+2, 1.9477166e+2, -1009970.1, -1031740.44, -9954.45, 0.21336706, 0.0968681, -1006104.75, 25143.063, 0.0, 10.000164, 9.999895 
8.550725e+2, 2.0477098e+2, -999328.44, -1091415.8, 28976.219, 0.25557148, 0.09329903, -990969.56, -57715.35, 0.0, 10.000063, 9.998863 
8.5504895e+2, 2.1477081e+2, -805595.56, -947075.25, 39048.59, 0.07720217, 0.18472062, -795533.7, 39723.91, 0.0, 10.000717, 9.998865 
8.5502654e+2, 2.2476913e+2, -623829.44, -791929.5, 10568.961, 0.044736017, 0.12714091, -623167.56, 114104.02, 0.0, 10.001232, 9.999004 
8.5500544e+2, 2.3476578e+2, -463105.13, -662239.3, 6600.7534, 0.17610481, -0.11751326, -462886.56, 176410.97, 0.0, 10.001654, 9.999021 
8.549836e+2, 2.447643e+2, -385594.8, -610893.2, 26285.672, 0.21135537, -0.14638558, -382568.7, 158739.22, 0.0, 10.00167, 9.998693 
8.5496104e+2, 2.5476474e+2, -349244.97, -541145.4, 51075.44, 0.14313026, 0.01949636, -336497.7, 106805.21, 0.0, 10.001239, 9.998707 
8.549393e+2, 2.6476344e+2, -340415.03, -560472.9, 70332.484, 0.13377972, 0.055594474, -319856.72, 25459.043, 0.0, 10.00095, 9.998041 
8.549183e+2, 2.7476025e+2, -258282.83, -470633.03, 74468.93, 0.18295819, -0.073830396, -234770.72, 12577.75, 0.0000001292932, 10.000846, 9.998034 
8.5489565e+2, 2.8475824e+2, -247496.0, -506124.63, -40309.43, 0.17204705, -0.03216286, -241359.06, -91988.64, 0.000003149254, 10.000635, 9.997219 
8.548711e+2, 2.9475737e+2, -215888.66, -444022.16, -93693.35, 0.09862611, 0.14769743, -182342.17, -130959.03, 0.000029420804, 10.000192, 9.997188 
8.5484916e+2, 3.0475518e+2, -146826.22, -322492.97, -48984.332, 0.16758808, 0.19282155, -134090.39, -134090.39, 0.00012215794, 10.000072, 9.997746 
8.548306e+2, 3.1475055e+2, 31775.432, -2613.0833, -40739.777, 0.42985854, -0.05918378, 58800.76, 58800.76, 0.00029314935, 10.000272, 9.9998455 
8.6524737e+2, 1.2479274e+2, -1418429.6, -1566523.1, 104498.484, 0.06751059, 0.2654154, -1364402.8, 352643.28, 0.00000000000000000000885557, 10.001985, 10.000053 
8.652287e+2, 1.3479157e+2, -1771498.0, -1664270.5, 157134.72, 0.11150675, 0.112710394, -1551854.9, 67200.11, 0.0, 9.99881, 10.000245 
8.652065e+2, 1.4479119e+2, -1750207.3, -1518839.4, -23585.266, 0.07839646, 0.019925468, -1516459.6, 4597.7275, 0.0, 9.997923, 10.000993 
8.651836e+2, 1.5479231e+2, -1405759.0, -1300417.3, -54183.004, 0.22008222, 0.02347366, -1277523.4, 145522.72, 0.0, 9.999604, 10.00101 
8.6516064e+2, 1.6479363e+2, -1282400.3, -1242225.9, 56333.977, 0.21462631, 0.08006661, -1202505.0, 122527.85, 0.0, 9.999998, 10.0005455 
8.651378e+2, 1.7479509e+2, -1324839.6, -1210292.4, 68206.5, 0.056624077, 0.1631622, -1178502.0, 48515.664, 0.0, 9.999027, 10.000561 
8.6511564e+2, 1.8479541e+2, -1268141.9, -1209065.4, 21746.94, 0.04133809, 0.17594473, -1201923.4, -72909.35, 0.0, 9.99908, 9.999868 
8.650943e+2, 1.9479439e+2, -1009709.5, -1034423.5, 16372.779, 0.18260992, 0.08054583, -1001554.0, 29469.955, 0.0, 10.000185, 9.999861 
8.650725e+2, 2.04794e+2, -847595.94, -947040.9, 88779.055, 0.2136492, 0.07879055, -795563.56, 137462.84, 0.0, 10.000805, 9.999493 
8.650502e+2, 2.1479423e+2, -743648.94, -845222.4, 128651.58, 0.123434514, 0.14671475, -656122.56, 178899.23, 0.0, 10.000842, 9.9995 
8.650282e+2, 2.2479266e+2, -687543.0, -867485.6, 118586.83, 0.10076036, 0.08688382, -628659.75, 108375.18, 0.0, 10.000981, 9.99861 
8.650066e+2, 2.3478903e+2, -560154.9, -756073.1, 91596.625, 0.15641332, -0.14402434, -524002.34, 115066.016, 0.0, 10.001189, 9.998599 
8.649847e+2, 2.4478754e+2, -452265.38, -652239.94, 68517.1, 0.17320004, -0.14922038, -431041.9, 110039.61, 0.0, 10.001256, 9.998605 
8.649623e+2, 2.5478825e+2, -361297.13, -555220.2, 37847.68, 0.14625683, 0.054023534, -354172.22, 88901.52, 0.0, 10.001198, 9.998627 
8.6494046e+2, 2.6478684e+2, -336885.1, -562266.0, 40299.016, 0.16389793, 0.08361625, -329896.2, 15191.45, 0.0000000005766255, 10.000984, 9.998011 
8.649194e+2, 2.74783e+2, -298792.16, -495674.75, 38192.113, 0.2335414, -0.10895939, -291643.06, -44516.77, 0.000000514823, 10.000578, 9.9979925 
8.648968e+2, 2.847809e+2, -180093.53, -493263.34, 11209.448, 0.20495889, -0.06796346, -179692.83, -30543.316, 0.0000053955687, 10.001182, 9.9970455 
8.648724e+2, 2.9478052e+2, 169321.67, -275071.13, 45609.734, 0.075865805, 0.18304507, 173954.47, 225112.22, 0.00003455936, 10.002916, 9.997034 
8.6485004e+2, 3.0477798e+2, 140882.94, -219886.55, 87244.01, 0.14370646, 0.21303333, 160873.27, 160873.27, 0.000132535, 10.002189, 9.997432 
8.648305e+2, 3.147737e+2, -209536.33, -131107.16, 125850.24, 0.4780687, 0.029706603, -38503.438, -38503.438, 0.00031326473, 9.998658, 9.999735 
8.75247e+2, 1.2481363e+2, -1346739.6, -1411864.5, -21513.83, -0.1907176, 0.11454889, -1340274.5, 376563.16, 0.0000000055054987, 10.001958, 10.001125 
8.7522894e+2, 1.3481387e+2, -1694078.3, -1504976.1, 41801.14, 0.25102323, -0.006017939, -1496148.1, 122680.71, 0.0, 9.998821, 10.0013275 
8.752061e+2, 1.4481504e+2, -1792002.5, -1620345.9, 33043.652, 0.2348434, 0.039227348, -1614204.8, -93387.46, 0.0, 9.997982, 10.00027 
8.7518084e+2, 1.5481748e+2, -1456314.5, -1404414.1, 14950.642, -0.020465875, 0.24255213, -1400415.5, 22384.91, 0.0, 9.999602, 10.000297 
8.751581e+2, 1.6481818e+2, -1258618.4, -1193502.4, 19449.79, -0.05082697, 0.25752303, -1188135.3, 136658.88, 0.0, 9.999997, 10.000884 
8.7513804e+2, 1.7481707e+2, -1297726.0, -1159521.5, 36427.918, 0.17101988, 0.051956665, -1150507.8, 76291.1, 0.0, 9.999048, 10.000901 
8.751164e+2, 1.8481682e+2, -1271658.4, -1214203.9, 59627.67, 0.19920747, -0.008875501, -1176744.1, -47945.01, 0.0, 9.999071, 9.999838 
8.7509304e+2, 1.9481722e+2, -1014684.56, -1040718.3, 62986.805, 0.02272022, 0.040096782, -963383.7, 67413.21, 0.0, 10.000164, 9.999829 
8.7507117e+2, 2.0481735e+2, -778324.0, -789369.1, 86772.125, -0.008593525, 0.037478466, -696898.9, 235892.97, 0.0, 10.000747, 10.000604 
8.750509e+2, 2.1481718e+2, -670347.06, -683808.56, 133097.8, 0.10951153, -0.049152073, -543809.94, 290974.4, 0.0, 10.000801, 10.000629 
8.7502986e+2, 2.2481664e+2, -736288.56, -957798.75, 121130.055, 0.1677728, -0.032494526, -682912.06, 53876.484, 0.0, 10.000933, 9.9980135 
8.75008e+2, 2.348156e+2, -609787.94, -848564.6, 102559.9, 0.167519, 0.057857443, -571784.7, 67021.92, 0.0, 10.001141, 9.99799 
8.749862e+2, 2.4481383e+2, -507394.84, -757114.3, 62217.36, 0.18541642, 0.08969916, -492752.06, 48075.516, 0.0, 10.001213, 9.997906 
8.749643e+2, 2.5481123e+2, -417950.5, -662682.25, 40077.83, 0.21955313, 0.031328537, -411554.4, 31297.994, 0.0, 10.001155, 9.997909 
8.749421e+2, 2.6480904e+2, -342446.88, -570537.0, 22506.486, 0.22247331, 0.025217796, -340247.28, 4626.7637, 0.0000000691861, 10.000964, 9.997967 
8.749197e+2, 2.7480724e+2, -306401.5, -500873.56, 27895.035, 0.19779918, 0.03967629, -302479.34, -55585.953, 0.000001269736, 10.000533, 9.99798 
8.748979e+2, 2.8480512e+2, -101816.305, -329646.16, 71920.88, 0.18403037, 0.021678654, -81012.17, 67902.086, 0.000008177336, 10.001172, 9.998177 
8.7487644e+2, 2.9480237e+2, 250927.25, -107187.53, 118272.27, 0.18087177, -0.07933414, 286462.22, 337401.56, 0.000040999803, 10.002917, 9.998191 
8.74853e+2, 3.0480042e+2, 159308.67, -174797.33, -39456.836, 0.21579158, -0.064961694, 163905.17, 163905.17, 0.00014405875, 10.002168, 9.997747 
8.748278e+2, 3.148018e+2, -205540.19, -99778.55, 9914.765, 0.32820168, 0.2913022, -98857.1, -98857.1, 0.00033067827, 9.998566, 9.999992 
8.852483e+2, 1.24837056e+2, -1493921.4, -1520534.1, 56455.824, -0.20383377, 0.0055583753, -1449225.0, 267377.47, 0.00000006865043, 10.001109, 10.000796 
8.852282e+2, 1.348378e+2, -1519339.0, -1463107.1, 5427.607, 0.22973607, -0.025872145, -1462588.0, 156003.69, 0.0, 10.000196, 10.00096 
8.852047e+2, 1.4483921e+2, -1542950.3, -1469710.6, 93037.14, 0.21646976, 0.04793971, -1406345.9, 114231.98, 0.0, 9.999559, 10.000543 
8.851798e+2, 1.5484129e+2, -1456414.3, -1374164.4, 141737.64, -0.071118824, 0.18991747, -1267706.0, 154855.2, 0.0, 9.999465, 10.00057 
8.8515747e+2, 1.6484164e+2, -1344746.0, -1262956.6, 129192.92, -0.08301602, 0.16967575, -1168340.5, 156216.8, 0.0, 9.9995365, 10.000628 
8.8513786e+2, 1.7484024e+2, -1215008.9, -1148234.0, 90845.055, 0.21483138, -0.038591634, -1084835.4, 141730.64, 0.0, 9.999748, 10.000641 
8.851165e+2, 1.8483987e+2, -1118767.4, -1138132.1, 143704.84, 0.25728956, -0.09756147, -984419.1, 144148.53, 0.0, 10.000109, 9.999861 
8.8509333e+2, 1.9484045e+2, -950076.7, -1004796.75, 143993.13, 0.023141775, -0.03338527, -830867.3, 199695.83, 0.0, 10.000592, 9.999868 
8.850716e+2, 2.0484047e+2, -796050.6, -799972.5, 101057.15, -0.029421436, -0.04923191, -696935.4, 235623.52, 0.0, 10.000629, 10.000587 
8.8505137e+2, 2.1483986e+2, -769100.44, -732378.2, 55445.51, 0.11609231, -0.1775874, -692332.7, 142222.84, 0.0, 10.000125, 10.000622 
8.850305e+2, 2.2483957e+2, -845176.44, -1013041.6, 53164.375, 0.17689806, -0.13446029, -829755.5, -93196.59, 0.0, 10.000201, 9.997984 
8.850088e+2, 2.3483953e+2, -647043.56, -869082.44, 68952.13, 0.14849982, 0.059046563, -627373.6, 11196.801, 0.0, 10.000899, 9.997963 
8.8498735e+2, 2.4483812e+2, -459663.72, -696413.8, 84297.02, 0.18241593, 0.1119722, -432716.22, 107872.68, 0.0, 10.001372, 9.998249 
8.8496625e+2, 2.548351e+2, -321240.44, -578744.56, 134430.81, 0.28248203, -0.020699725, -263850.78, 178765.56, 0.00000000006372724, 10.001645, 9.998254 
8.8494396e+2, 2.6483315e+2, -214302.2, -505985.28, 158437.63, 0.2702211, -0.02300272, -144801.61, 199834.34, 0.00000025387644, 10.001846, 9.997979 
8.849204e+2, 2.7483228e+2, -87743.43, -391446.6, 154536.61, 0.14089468, 0.0818769, -22937.521, 223710.3, 0.0000021793016, 10.002032, 9.998001 
8.8489866e+2, 2.8483042e+2, -58081.668, -265998.3, 184862.98, 0.14626864, 0.07511224, 50048.81, 198714.7, 0.00001103343, 10.001299, 9.9985485 
8.8487875e+2, 2.9482734e+2, -208899.36, -283361.34, 164787.44, 0.29726118, -0.09779605, -77189.39, -26496.273, 0.00004783983, 9.999567, 9.99859 
8.848548e+2, 3.0482495e+2, -167557.73, -302195.47, -44742.1, 0.30432197, -0.16147931, -154045.38, -154045.38, 0.00015538944, 9.999784, 9.998032 
8.848269e+2, 3.1482738e+2, 289450.1, 137339.03, -8914.965, 0.21905522, 0.27639404, 289970.78, 289970.78, 0.00034428985, 10.001968, 9.999996 
8.9525074e+2, 1.2486286e+2, -1614200.0, -1754847.0, 5177.0396, -0.0923046, -0.059187546, -1614009.8, 102332.91, 0.00000033567557, 10.001055, 9.99921 
8.952264e+2, 1.3486338e+2, -1639354.8, -1707286.1, -27441.46, 0.027905904, 0.05782804, -1629654.6, -11311.696, 0.00000000007521531, 10.00019, 9.999284 
8.9520216e+2, 1.4486384e+2, -1448772.4, -1287554.4, 85324.94, 0.002023666, 0.059830964, -1250783.0, 269553.97, 0.0, 9.999608, 10.001775 
8.951802e+2, 1.54864e+2, -1365555.6, -1191919.4, 143124.19, 0.009494696, -0.11402601, -1111340.0, 310986.84, 0.0, 9.999488, 10.001813 
8.9515847e+2, 1.6486427e+2, -1403724.8, -1390335.4, 132021.92, 0.053347386, -0.16097356, -1264838.5, 59482.105, 0.0, 9.999556, 9.999745 
8.951371e+2, 1.7486456e+2, -1276048.9, -1279133.5, 102987.7, 0.1554164, -0.11141906, -1174592.0, 51727.6, 0.0, 9.999763, 9.999737 
8.95116e+2, 1.8486452e+2, -1116554.1, -1128143.1, 158213.52, 0.18681742, -0.09555879, -964029.0, 164291.0, 0.0, 10.000085, 9.999942 
8.9509517e+2, 1.9486403e+2, -947847.75, -993671.9, 166193.95, 0.13758786, -0.14698404, -802993.94, 227329.05, 0.0, 10.000562, 9.99996 
8.950736e+2, 2.0486334e+2, -880700.0, -964773.8, 77222.1, 0.10626196, -0.18462223, -834814.5, 97513.1, 0.0, 10.000581, 9.999481 
8.950514e+2, 2.1486233e+2, -856844.7, -900265.25, 40449.074, 0.096131824, -0.24101208, -832647.8, 1686.8438, 0.0, 10.000065, 9.999497 
8.9502984e+2, 2.2486153e+2, -817693.5, -944294.7, 74471.375, 0.08413589, -0.21638732, -783254.9, -46910.035, 0.0, 10.000146, 9.998484 
8.9500886e+2, 2.3486084e+2, -614475.2, -794780.9, 99229.36, 0.061096158, -0.14151266, -570560.9, 67798.45, 0.0, 10.000868, 9.998489 
8.949883e+2, 2.4486041e+2, -364309.16, -493848.16, 90320.336, 0.12862441, -0.08659108, -317935.28, 222430.0, 0.0, 10.001353, 9.999649 
8.949681e+2, 2.548601e+2, -229634.64, -377625.44, 149256.77, 0.29366794, -0.09376868, -137038.02, 305325.94, 0.0000000002378373, 10.001599, 9.999659 
8.949458e+2, 2.6485935e+2, -213415.78, -500196.25, 162252.48, 0.2614818, -0.04984913, -140272.81, 204098.63, 0.00000030747992, 10.001827, 9.998029 
8.949213e+2, 2.7485806e+2, -91567.055, -393331.75, 167939.19, 0.021175334, 0.01537571, -16686.137, 229702.95, 0.0000026197797, 10.002005, 9.998004 
8.9489913e+2, 2.848569e+2, -91950.58, -331687.1, 116857.29, 0.050900422, 0.094839744, -44415.055, 103988.81, 0.000013141425, 10.001275, 9.998108 
8.948792e+2, 2.9485556e+2, -248614.28, -353812.72, 103156.016, 0.37405527, 0.145615, -185421.27, -135003.64, 0.00005419451, 9.999508, 9.998137 
8.9485514e+2, 3.048516e+2, -158762.88, -265775.47, 35887.617, 0.36086392, -0.068681575, -147842.13, -147842.13, 0.0001662128, 9.999716, 9.998307 
8.948275e+2, 3.148497e+2, 274972.72, 111558.31, 89668.6, 0.05913641, -0.09388932, 314577.22, 314577.22, 0.0003568497, 10.00196, 9.999815 
9.052516e+2, 1.24888964e+2, -1920821.1, -1924298.0, 3548.207, 0.009294248, -0.05232515, -1918608.4, -202527.81, 0.0000010657902, 9.999034, 9.99903 
9.0522593e+2, 1.3488862e+2, -1615915.5, -1723613.8, 56482.04, -0.044359412, 0.0036269124, -1591726.5, 26363.957, 0.000000007369457, 10.0004635, 9.999043 
9.052017e+2, 1.4488854e+2, -1299855.8, -1262501.0, 146231.47, -0.06329487, -0.016430972, -1133759.0, 386331.38, 0.0, 10.000839, 10.001348 
9.0518105e+2, 1.5488824e+2, -1298706.5, -1207985.9, 71812.32, 0.11141637, -0.19242845, -1168407.5, 253676.66, 0.0, 10.00016, 10.001379 
9.051594e+2, 1.648885e+2, -1332873.0, -1366157.8, 67517.17, 0.1733455, -0.21524592, -1279977.3, 44101.35, 0.0, 10.000083, 9.999657 
9.05137e+2, 1.7488924e+2, -1153923.8, -1227358.4, 89245.98, 0.13145661, -0.11234838, -1094137.1, 131937.47, 0.0, 10.000636, 9.999666 
9.051157e+2, 1.8488914e+2, -1068216.9, -1133665.1, 151014.5, 0.13218823, -0.08515249, -946421.6, 181654.55, 0.0, 10.000535, 9.999687 
9.0509564e+2, 1.9488807e+2, -1085013.1, -1090435.9, 127670.18, 0.1762452, -0.16929597, -960025.56, 70059.195, 0.0, 9.99974, 9.999697 
9.0507436e+2, 2.0488724e+2, -1024074.06, -1086042.0, 71157.96, 0.16540591, -0.18575148, -977447.06, -45354.027, 0.0, 9.999826, 9.999008 
9.050518e+2, 2.1488652e+2, -780620.6, -918674.2, 69359.97, 0.097851425, -0.16467291, -751792.94, 82309.06, 0.0, 10.000826, 9.999003 
9.0503037e+2, 2.2488573e+2, -652727.94, -811744.06, 129178.14, 0.08270705, -0.1378914, -580550.4, 155561.86, 0.0, 10.001054, 9.998957 
9.0501004e+2, 2.3488475e+2, -633446.94, -750537.56, 141245.86, 0.11776832, -0.13824803, -539093.8, 99031.03, 0.0, 10.000507, 9.998967 
9.049895e+2, 2.4488428e+2, -525414.56, -566128.0, 88305.81, 0.17681767, -0.113193244, -455149.47, 84980.055, 0.0, 10.000226, 9.999693 
9.049686e+2, 2.5488424e+2, -428237.13, -466556.4, 33461.59, 0.26244292, -0.09645898, -408838.1, 33288.867, 0.0, 10.000211, 9.999711 
9.0494645e+2, 2.6488367e+2, -399557.5, -529393.0, 25927.41, 0.22780482, -0.063994594, -394571.44, -50438.992, 0.0000002007212, 10.000288, 9.998571 
9.04923e+2, 2.7488247e+2, -273258.47, -419577.16, 63527.348, 0.07271387, -0.04610742, -249526.05, -3378.8909, 0.0000025589381, 10.000486, 9.998558 
9.0490067e+2, 2.848817e+2, -141348.45, -382735.16, 27669.941, 0.099808075, 0.059125904, -138217.3, 9940.629, 0.000014744336, 10.00105, 9.9978695 
9.048794e+2, 2.9488125e+2, 96514.805, -208847.34, 17896.836, 0.32606778, 0.2198956, 97560.13, 147725.7, 0.00006127167, 10.001982, 9.997936 
9.0485585e+2, 3.0487692e+2, 222092.17, -103595.8, 5094.4063, 0.32736808, -0.015138068, 222171.84, 222171.84, 0.00017929857, 10.002416, 9.998125 
9.0483075e+2, 3.1487334e+2, 257399.75, 31963.598, 11337.084, 0.18859339, -0.18855979, 257968.45, 257968.45, 0.00037394426, 10.002133, 9.999187 
9.1525084e+2, 1.2491558e+2, -1840166.6, -1758992.1, 46973.1, 0.004859724, 0.027544156, -1737500.4, -21686.063, 0.000002613721, 9.999043, 10.000157 
9.152266e+2, 1.3491371e+2, -1543498.8, -1569111.4, 109618.89, -0.042077415, -0.17972584, -1445940.6, 171892.66, 0.00000007607973, 10.000442, 10.000113 
9.1520286e+2, 1.4491335e+2, -1444355.0, -1559434.8, 114725.086, -0.037044264, -0.17880519, -1373549.0, 146288.9, 0.0, 10.000822, 9.999319 
9.1518205e+2, 1.5491395e+2, -1440413.9, -1503524.4, 52051.26, 0.19336998, -0.06469907, -1411099.9, 10733.741, 0.0, 10.000164, 9.999348 
9.1516024e+2, 1.649143e+2, -1286924.4, -1269091.0, 84751.875, 0.24058445, -0.00850309, -1192788.0, 131042.75, 0.0, 10.000077, 10.000325 
9.151374e+2, 1.7491433e+2, -1106823.1, -1127567.1, 114736.56, 0.100513056, -0.044617727, -1001990.75, 223839.28, 0.0, 10.000626, 10.000357 
9.1511554e+2, 1.8491384e+2, -1110878.8, -1215777.5, 117717.08, 0.05244663, -0.06608161, -1034455.1, 93379.94, 0.0, 10.000506, 9.999139 
9.150947e+2, 1.9491267e+2, -1128530.8, -1175336.9, 103100.234, 0.09836843, -0.10327059, -1046210.75, -16363.561, 0.0, 9.999718, 9.9991255 
9.150737e+2, 2.0491225e+2, -1022695.5, -1076461.3, 104917.125, 0.10882949, -0.051974833, -941271.94, -9417.956, 0.0, 9.999794, 9.999091 
9.150525e+2, 2.1491247e+2, -781878.25, -907641.5, 111966.914, 0.08011457, 0.052381653, -716343.75, 117512.875, 0.0, 10.000768, 9.999107 
9.1503197e+2, 2.2491215e+2, -632096.6, -757254.25, 103789.09, 0.13307358, 0.102705956, -573480.2, 162380.48, 0.0, 10.001, 9.999357 
9.150122e+2, 2.3491123e+2, -611480.25, -695127.25, 124835.02, 0.27375963, 0.06630986, -521648.94, 116217.766, 0.0, 10.000465, 9.999368 
9.149908e+2, 2.449098e+2, -622345.1, -760129.94, 83652.4, 0.27770746, 0.036366124, -582868.3, -42987.324, 0.0, 10.000193, 9.998379 
9.149677e+2, 2.549076e+2, -527015.3, -664359.7, 37313.863, 0.14409697, -0.026845051, -517532.53, -75627.26, 0.0, 10.000175, 9.998373 
9.149459e+2, 2.649062e+2, -327866.9, -374409.2, 29067.191, 0.13335395, -0.06372379, -313903.03, 30015.88, 0.00000011562638, 10.000261, 9.999648 
9.1492534e+2, 2.7490547e+2, -201745.7, -263023.66, 75457.98, 0.25134292, -0.1076019, -150943.58, 94979.13, 0.0000025826089, 10.000447, 9.999655 
9.149033e+2, 2.8490487e+2, -149498.63, -391050.3, 58460.297, 0.24463354, -0.038864527, -136093.95, 11834.839, 0.000017158924, 10.001015, 9.9978285 
9.148793e+2, 2.949043e+2, 92103.2, -219981.1, 59761.11, 0.10728151, 0.11238102, 103155.46, 153093.67, 0.000070174305, 10.001985, 9.997862 
9.148568e+2, 3.0490083e+2, 173616.55, -197434.52, -9299.735, 0.17176495, -0.00025159304, 173849.48, 173849.48, 0.00019601652, 10.002397, 9.997485 
9.1483665e+2, 3.1489846e+2, 170469.25, -127773.99, 8797.97, 0.5471863, 0.012294186, 170728.56, 170728.56, 0.00039683623, 10.002055, 9.998123 
9.252496e+2, 1.24938264e+2, -1998583.1, -1780934.3, -28164.219, 0.044520423, -0.08914489, -1777348.9, -61762.273, 0.0000053718704, 9.997721, 10.000642 
9.252265e+2, 1.3493729e+2, -1734374.4, -1611474.8, -26574.766, -0.006944915, -0.2514441, -1605974.5, 11622.053, 0.00000033393198, 9.998916, 10.000559 
9.252031e+2, 1.449376e+2, -1641879.1, -1638168.0, -20623.016, -0.023446979, -0.21403824, -1619317.3, -99722.19, 0.0, 9.999408, 9.999458 
9.251812e+2, 1.5493849e+2, -1560725.0, -1545961.4, 58062.367, 0.1394314, -0.081176236, -1494813.5, -73224.61, 0.0, 9.999282, 9.999477 
9.251594e+2, 1.6493869e+2, -1393548.1, -1349632.3, 177781.02, 0.19067362, -0.033637978, -1192458.3, 131130.52, 0.0, 9.999472, 10.000063 
9.2513794e+2, 1.7493816e+2, -1223024.1, -1214979.6, 129778.27, 0.12741487, -0.10116654, -1089161.4, 136433.88, 0.0, 9.999965, 10.000076 
9.2511636e+2, 1.8493785e+2, -1119605.3, -1191885.0, 103376.54, 0.096270636, -0.101264365, -1046233.5, 81365.31, 0.0, 10.000329, 9.999388 
9.250947e+2, 1.9493768e+2, -998505.94, -1082827.9, 136878.83, 0.09606346, -0.06289053, -897442.06, 132158.61, 0.0, 10.00049, 9.999384 
9.2507374e+2, 2.0493732e+2, -936054.3, -1075521.4, 191351.84, 0.09977159, -0.0014620527, -802125.6, 129482.0, 0.0, 10.000562, 9.998729 
9.250534e+2, 2.1493658e+2, -837757.7, -977188.44, 156841.05, 0.107939236, 0.044931337, -735835.8, 97785.38, 0.0, 10.00056, 9.998733 
9.25033e+2, 2.2493608e+2, -675201.2, -736562.5, 110079.3, 0.16063513, 0.07736987, -591606.94, 144019.44, 0.0, 10.000529, 9.999724 
9.2501247e+2, 2.3493579e+2, -586071.94, -642317.0, 117295.31, 0.25933817, 0.06665052, -493574.97, 144048.31, 0.0, 10.0004635, 9.999733 
9.24991e+2, 2.4493432e+2, -571295.9, -791414.1, 138519.69, 0.25690746, 0.04445332, -504434.9, 35202.387, 0.0, 10.000783, 9.997882 
9.2496854e+2, 2.5493157e+2, -362535.53, -639814.5, 146176.25, 0.15042813, -0.025836565, -299709.38, 141960.61, 0.0, 10.001543, 9.997883 
9.24947e+2, 2.6492986e+2, -144123.33, -312557.97, 106478.41, 0.15423328, -0.05695801, -92582.76, 251105.44, 0.00000007319143, 10.001634, 9.9994135 
9.249264e+2, 2.749291e+2, -133246.67, -253215.22, 43679.36, 0.28321716, -0.08384176, -119028.53, 126664.17, 0.0000027897247, 10.001021, 9.999441 
9.249045e+2, 2.849282e+2, -104422.55, -330322.94, 44191.273, 0.26810896, -0.052172717, -96085.42, 51614.992, 0.000020132902, 10.001153, 9.9981785 
9.248812e+2, 2.9492712e+2, 123938.24, -166051.97, 69754.55, 0.10528471, 0.015929438, 139844.6, 189556.25, 0.00008107723, 10.002033, 9.998211 
9.248591e+2, 3.049245e+2, 202852.19, -215923.52, 7918.8384, 0.15601555, -0.013972568, 203001.88, 203001.88, 0.00021777536, 10.002727, 9.997201 
9.2483944e+2, 3.1492323e+2, 280780.9, -142885.77, 32986.586, 0.5724638, 0.13222547, 283333.84, 283333.84, 0.000428338, 10.003096, 9.997521 
9.3524736e+2, 1.2495731e+2, -2003214.3, -1789270.3, 10327.093, 0.035116456, -0.4012047, -1788772.9, -73378.58, 0.000009857008, 9.997721, 10.000584 
9.3522584e+2, 1.3495964e+2, -1742253.5, -1627213.1, 23977.889, 0.023456782, -0.22164659, -1622415.5, -5038.251, 0.0000009955157, 9.998916, 10.000451 
9.352021e+2, 1.4496152e+2, -1497107.8, -1336737.3, -28982.389, -0.062329292, -0.1264882, -1331660.1, 187699.06, 0.00000000002439963, 9.999398, 10.001534 
9.3517834e+2, 1.549621e+2, -1414359.1, -1243506.5, 57075.555, -0.086014025, -0.23288879, -1226194.0, 195154.52, 0.0, 9.999284, 10.0015545 
9.35157e+2, 1.6496186e+2, -1473794.0, -1516785.1, 189478.5, -0.01177483, -0.2759294, -1304595.6, 18756.068, 0.0, 9.9994755, 9.998914 
9.351384e+2, 1.7496079e+2, -1302527.1, -1383149.8, 152503.64, 0.17204148, -0.27922818, -1185097.0, 40272.08, 0.0, 9.999979, 9.998916 
9.3511796e+2, 1.8496127e+2, -1055268.0, -1052254.6, 106383.64, 0.22027305, -0.1901536, -947367.0, 179999.4, 0.0, 10.000302, 10.0003605 
9.350956e+2, 1.9496317e+2, -933407.7, -940686.94, 146807.75, 0.12420257, -0.045010056, -790194.5, 239150.44, 0.0, 10.000461, 10.000376 
9.350743e+2, 2.0496242e+2, -995333.0, -1192369.4, 184657.8, 0.09695849, -0.03210523, -884556.4, 46797.773, 0.0, 10.000532, 9.997943 
9.3505436e+2, 2.149589e+2, -900855.75, -1098163.3, 160632.67, 0.14163826, -0.18262029, -811001.1, 22394.121, 0.0, 10.000514, 9.997928 
9.350332e+2, 2.2495762e+2, -661571.25, -694500.56, 103252.09, 0.12351782, -0.20566827, -573479.3, 161928.88, 0.0, 10.000472, 10.000039 
9.3501085e+2, 2.3495843e+2, -571949.5, -601636.9, 119187.23, 0.045402985, -0.13731049, -466685.2, 170708.94, 0.0, 10.000415, 10.000035 
9.349901e+2, 2.4495798e+2, -552250.44, -745245.9, 162719.81, 0.08097012, -0.090088636, -459566.88, 79831.15, 0.0, 10.000753, 9.998213 
9.349711e+2, 2.549562e+2, -343988.75, -596554.44, 179232.53, 0.2393244, -0.09822758, -251019.11, 190401.89, 0.0, 10.001519, 9.998194 
9.349497e+2, 2.649547e+2, -255825.28, -539203.56, 80573.83, 0.2521425, -0.044469897, -234517.63, 108922.39, 0.00000003612581, 10.00161, 9.9978695 
9.349259e+2, 2.749534e+2, -247081.14, -483125.6, 25709.227, 0.123972476, 0.031144049, -244313.42, 1143.1112, 0.0000027028154, 10.000992, 9.997877 
9.349044e+2, 2.8495175e+2, -52954.008, -216334.39, 74137.28, 0.13369285, 0.028124904, -24328.184, 123143.734, 0.000022320448, 10.001123, 9.998977 
9.3488514e+2, 2.9494977e+2, 178401.02, -51706.59, 109744.01, 0.27853444, -0.07540462, 222347.61, 271833.56, 0.000092742026, 10.002026, 9.9990015 
9.348627e+2, 3.0494794e+2, 204468.53, -205586.33, 20303.756, 0.23242934, -0.0693683, 205471.4, 205471.4, 0.0002446386, 10.0027, 9.997284 
9.3483835e+2, 3.1494778e+2, 263572.13, -160697.33, 56108.086, 0.14146379, 0.17911796, 270866.78, 270866.78, 0.00047061927, 10.003027, 9.997427 
9.4524556e+2, 1.2497983e+2, -1939135.6, -1698164.4, 78916.47, 0.0787312, -0.42527914, -1674620.1, 40551.67, 0.000016753027, 9.997892, 10.001136 
9.452234e+2, 1.3498251e+2, -1976743.4, -1686775.1, 110765.2, -0.009472537, -0.257127, -1649305.6, -32156.867, 0.000002343361, 9.99708, 10.00093 
9.452004e+2, 1.4498459e+2, -1755291.1, -1469718.1, 41502.258, -0.09085588, -0.16038409, -1463808.9, 55320.06, 0.0000000053592455, 9.9976635, 10.001454 
9.4517815e+2, 1.5498513e+2, -1353750.8, -1225114.5, -35197.215, -0.048851628, -0.26530233, -1216113.8, 205007.9, 0.0, 9.9997425, 10.00146 
9.4515723e+2, 1.649851e+2, -1311107.3, -1397960.0, 41632.195, 0.020490978, -0.29964316, -1294374.8, 28747.994, 0.0, 10.000412, 9.99928 
9.4513774e+2, 1.7498456e+2, -1329217.6, -1354514.8, 106520.734, 0.13001624, -0.28868026, -1234597.1, -9464.547, 0.0, 9.999615, 9.999288 
9.451174e+2, 1.8498504e+2, -1142511.9, -1108424.6, 112776.47, 0.17132701, -0.21209003, -1011411.2, 115718.164, 0.0, 9.999771, 10.000224 
9.450963e+2, 1.949864e+2, -879654.75, -932056.9, 63116.867, 0.1348822, -0.10639266, -837516.7, 191597.97, 0.0, 10.000904, 10.000217 
9.450754e+2, 2.0498566e+2, -889646.2, -1096795.4, 71374.266, 0.12368676, -0.10636269, -867435.4, 63687.625, 0.0, 10.001068, 9.998339 
9.4505477e+2, 2.1498273e+2, -915343.44, -1057851.5, 125164.98, 0.14509547, -0.23944904, -842571.75, -9417.072, 0.0, 10.000217, 9.9983425 
9.450333e+2, 2.249812e+2, -729465.0, -797013.56, 121414.77, 0.100757204, -0.27604562, -637214.44, 97955.35, 0.0, 10.000303, 9.999419 
9.450112e+2, 2.3498096e+2, -479600.8, -624328.94, 59560.844, -0.0048017697, -0.25153005, -458241.6, 178927.81, 0.0, 10.001339, 9.999432 
9.4499075e+2, 2.449805e+2, -416736.03, -647576.3, 59490.566, 0.03947758, -0.18899894, -402306.5, 136867.53, 0.0, 10.001543, 9.998504 
9.449722e+2, 2.5497976e+2, -412194.0, -594047.0, 66578.05, 0.23865704, -0.12233218, -390425.06, 50759.668, 0.0, 10.000898, 9.998508 
9.44951e+2, 2.649785e+2, -366242.56, -657090.0, 18462.46, 0.25103974, -0.037458405, -365075.3, -21873.408, 0.000000027783642, 10.001129, 9.997292 
9.4492704e+2, 2.749765e+2, -104803.016, -479820.44, 29524.797, 0.0829067, 0.030543001, -102492.79, 142734.1, 0.000002328807, 10.00225, 9.997296 
9.449057e+2, 2.8497428e+2, 93516.91, -181306.08, 68005.18, 0.10017693, 0.011826731, 109424.11, 256673.44, 0.000023776485, 10.002285, 9.998658 
9.448869e+2, 2.9497173e+2, 26436.375, -159268.3, 8998.472, 0.30253264, -0.115581326, 26871.385, 76140.35, 0.00010394975, 10.001136, 9.998688 
9.4486487e+2, 3.0497012e+2, 70507.08, -207510.78, -49398.164, 0.24648575, -0.09840459, 79023.27, 79023.27, 0.00027361658, 10.001509, 9.9978485 
9.44841e+2, 3.1496966e+2, 349465.66, -63505.863, 7373.618, 0.092488475, 0.064335965, 349597.28, 349597.28, 0.00052026927, 10.003362, 9.99795 
9.552435e+2, 1.250057e+2, -1870451.1, -1551487.0, 45319.953, 0.06731702, -0.17990367, -1545172.8, 169746.94, 0.00002677623, 9.997883, 10.002138 
9.552192e+2, 1.3500601e+2, -1903384.6, -1544615.5, 79510.8, -0.14157568, -0.35101768, -1527783.9, 89126.63, 0.0000047533053, 9.997123, 10.001882 
9.551975e+2, 1.4500691e+2, -1899348.5, -1774941.4, 113862.914, -0.15065104, -0.31399053, -1707398.9, -188495.06, 0.000000046136613, 9.997688, 9.999351 
9.5518035e+2, 1.5500759e+2, -1499792.1, -1530589.8, 48876.848, 0.18665516, -0.1918307, -1463945.8, -43038.133, 0.0, 9.999751, 9.999361 
9.551597e+2, 1.650085e+2, -1186479.5, -1131692.9, 8325.263, 0.2232798, -0.120993614, -1130455.8, 192445.14, 0.0, 10.000381, 10.001121 
9.551358e+2, 1.7500955e+2, -1203388.4, -1089951.3, 79953.36, -0.034074634, -0.13524625, -1048641.6, 176243.03, 0.0, 9.999601, 10.001109 
9.551148e+2, 1.8500924e+2, -1229440.5, -1288036.0, 150872.78, -0.07973024, -0.16626918, -1105047.1, 21839.924, 0.0, 9.9997635, 9.998998 
9.550968e+2, 1.9500752e+2, -968944.4, -1112630.3, 110422.51, 0.086140566, -0.2456242, -909050.7, 119858.164, 0.0, 10.00088, 9.998991 
9.5507663e+2, 2.0500715e+2, -787014.1, -874599.9, 33988.84, 0.13809381, -0.22253953, -775371.9, 155540.78, 0.0, 10.001028, 9.999885 
9.5505434e+2, 2.1500804e+2, -816213.0, -839182.94, 96065.18, 0.077530645, -0.12913889, -730948.7, 101950.914, 0.0, 10.000159, 9.999873 
9.550332e+2, 2.2500682e+2, -842024.4, -1019560.44, 154635.22, 0.052930076, -0.13640326, -752489.8, -17578.393, 0.0, 10.000255, 9.997914 
9.5501333e+2, 2.3500338e+2, -594094.25, -851878.1, 103101.61, 0.068303205, -0.27850842, -557931.44, 79017.63, 0.0, 10.001289, 9.997896 
9.5499283e+2, 2.4500194e+2, -403448.2, -608980.56, 31602.049, 0.08473022, -0.25379416, -398698.88, 140266.3, 0.0, 10.001499, 9.998787 
9.549719e+2, 2.5500235e+2, -396813.0, -555992.0, 46284.535, 0.107904956, -0.09960889, -384333.25, 56627.78, 0.0, 10.000872, 9.998782 
9.5495087e+2, 2.6500118e+2, -341203.66, -597406.94, 58212.51, 0.11877607, -0.03692431, -328597.34, 14376.485, 0.000000030362223, 10.001099, 9.997715 
9.5492977e+2, 2.7499837e+2, -80067.73, -423278.34, 78655.42, 0.11650545, -0.097673394, -62900.535, 182104.06, 0.000002140531, 10.002227, 9.997697 
9.5490825e+2, 2.8499565e+2, -15861.353, -399463.78, 21269.754, 0.11968961, -0.10996069, -14685.604, 132347.98, 0.000025776937, 10.002248, 9.997175 
9.5488644e+2, 2.94993e+2, -83936.53, -379627.9, -30524.482, 0.1342856, -0.09856779, -80818.34, -31757.846, 0.00011520068, 10.001096, 9.997193 
9.548656e+2, 3.049911e+2, 138270.86, -50737.41, 19991.523, 0.16752374, -0.09483208, 140362.23, 140362.23, 0.0003025404, 10.001444, 9.998956 
9.548473e+2, 3.1498885e+2, 428264.28, 113935.555, 85837.1, 0.3650401, -0.22048558, 450177.13, 450177.13, 0.00057311467, 10.003309, 9.99919 
9.652408e+2, 1.2502858e+2, -2005760.6, -1666488.3, 61265.816, 0.04721656, -0.19129768, -1655763.9, 58928.254, 0.000040530904, 9.997162, 10.0016985 
9.652182e+2, 1.3502854e+2, -1616525.0, -1454180.3, -29927.113, -0.062994935, -0.35369253, -1448839.1, 167848.22, 0.000008656152, 9.9993, 10.001451 
9.651971e+2, 1.4502911e+2, -1647360.9, -1686110.5, 14156.509, -0.054453347, -0.313854, -1642740.0, -124055.11, 0.00000019058375, 9.999556, 9.999061 
9.6517926e+2, 1.5502937e+2, -1780607.1, -1698518.9, 67380.55, 0.19520935, -0.20394413, -1660665.9, -239972.06, 0.0, 9.997969, 9.999067 
9.651586e+2, 1.6503038e+2, -1510403.4, -1233396.9, 55857.367, 0.19467184, -0.13415182, -1222557.5, 100127.91, 0.0, 9.997927, 10.001604 
9.651351e+2, 1.7503196e+2, -1191989.3, -1032999.7, 21893.121, -0.05310048, -0.14194696, -1030040.06, 194621.27, 0.0, 9.999452, 10.001574 
9.6511465e+2, 1.850316e+2, -1221222.6, -1329279.3, 81605.82, -0.08523579, -0.18528031, -1177380.8, -50716.418, 0.0, 10.000014, 9.998597 
9.650971e+2, 1.9502915e+2, -1185460.3, -1261332.3, 92048.48, 0.100395165, -0.29471946, -1123836.9, -95141.91, 0.0, 9.999587, 9.998595 
9.650773e+2, 2.0502865e+2, -895168.0, -912392.25, 5767.4663, 0.14260116, -0.2709331, -893415.2, 37285.324, 0.0, 10.000233, 10.000004 
9.65055e+2, 2.1502998e+2, -545214.25, -694741.3, -46606.117, 0.04280692, -0.14671819, -531877.2, 300804.9, 0.0, 10.001967, 9.99999 
9.6503425e+2, 2.2502904e+2, -558442.5, -920244.6, -2225.1633, 0.03313212, -0.11599898, -558428.8, 176262.92, 0.0, 10.00236, 9.997584 
9.650151e+2, 2.3502573e+2, -594619.0, -885114.9, 24974.787, 0.11972936, -0.21286845, -592487.5, 44242.555, 0.0, 10.001432, 9.997599 
9.6499455e+2, 2.4502385e+2, -430583.44, -622865.3, -4732.071, 0.12133751, -0.2173062, -430467.06, 108283.086, 0.0, 10.001314, 9.998782 
9.6497273e+2, 2.550233e+2, -230455.31, -475616.88, -20097.951, 0.047162812, -0.15705538, -228818.64, 211934.19, 0.0, 10.002021, 9.998778 
9.6495193e+2, 2.650219e+2, -185118.81, -500022.78, -11003.857, 0.06784636, -0.13151792, -184734.77, 158031.56, 0.000000012060779, 10.002073, 9.997917 
9.6493214e+2, 2.7501938e+2, -181612.58, -449482.8, -15014.556, 0.17853183, -0.1776019, -180773.61, 64018.387, 0.0000023356135, 10.0014305, 9.9979 
9.649111e+2, 2.850166e+2, -72272.62, -473060.13, -26962.328, 0.19570985, -0.18558589, -70466.91, 76354.8, 0.000028836348, 10.002056, 9.996763 
9.648889e+2, 2.950136e+2, 299622.72, -244033.0, -8374.363, 0.13080494, -0.1718192, 299751.7, 348606.3, 0.00012695143, 10.003945, 9.996755 
9.648683e+2, 3.0501175e+2, 515495.28, 117893.29, 34391.063, 0.1634579, -0.1308222, 518448.03, 518448.03, 0.00033048782, 10.004093, 9.998838 
9.6485096e+2, 3.1500915e+2, 287970.66, 50314.99, -12732.91, 0.45593435, -0.28361794, 288650.9, 288650.9, 0.00062489236, 10.00233, 9.999222 
9.7523695e+2, 1.2504864e+2, -2114119.8, -1903813.1, 136615.3, -0.0713329, -0.44362617, -1836568.8, -122081.04, 0.000058506626, 9.997212, 10.000046 
9.752199e+2, 1.3505022e+2, -1730239.5, -1692849.5, 52467.848, 0.16901155, -0.2765636, -1655845.5, -39367.715, 0.00001444443, 9.999301, 9.999814 
9.751987e+2, 1.4505124e+2, -1556919.8, -1491101.5, -49614.234, 0.14204009, -0.18096718, -1464474.3, 53997.22, 0.0000005546723, 9.999524, 10.000417 
9.7517484e+2, 1.5505056e+2, -1683283.9, -1501623.0, 11844.768, -0.04506722, -0.2984373, -1500853.9, -80374.37, 0.0, 9.997991, 10.00041 
9.751538e+2, 1.6505088e+2, -1562184.0, -1347061.3, 108376.516, -0.08288345, -0.32576787, -1301930.5, 20545.27, 0.0, 9.997952, 10.000813 
9.751355e+2, 1.75052e+2, -1244763.6, -1146467.0, 82358.94, 0.03391472, -0.30015197, -1099706.3, 124754.84, 0.0, 9.999466, 10.00079 
9.7511655e+2, 1.8505219e+2, -1195846.6, -1273734.5, 61199.84, 0.10635163, -0.26726985, -1162250.6, -35790.703, 0.0, 10.000001, 9.998985 
9.750972e+2, 1.9505133e+2, -1161554.1, -1208275.0, 80028.84, 0.13553399, -0.25775284, -1101546.0, -73073.17, 0.0, 9.999571, 9.998968 
9.7507715e+2, 2.0505017e+2, -986588.75, -1099150.9, 66174.33, 0.09785307, -0.2555681, -955998.6, -25512.213, 0.0, 10.000216, 9.998733 
9.750566e+2, 2.1504858e+2, -641418.7, -885128.06, 22288.123, -0.0010255184, -0.29275557, -639397.1, 193104.53, 0.0, 10.001922, 9.99871 
9.750363e+2, 2.250479e+2, -505717.22, -799509.3, -41843.313, -0.0019834673, -0.2149654, -499873.9, 234635.97, 0.0, 10.002313, 9.998434 
9.750165e+2, 2.3504797e+2, -545019.44, -768494.9, -6127.209, 0.1016814, -0.05906088, -544851.6, 91660.79, 0.0, 10.001373, 9.998427 
9.7499585e+2, 2.4504621e+2, -453778.13, -665883.8, 16609.283, 0.108533494, -0.07697728, -452485.38, 86043.73, 0.0, 10.001289, 9.9985 
9.749746e+2, 2.550426e+2, -253133.61, -519977.75, 10667.754, 0.018775769, -0.29668066, -252707.83, 187852.75, 0.0, 10.002003, 9.998486 
9.749539e+2, 2.6504046e+2, -193039.45, -505573.72, -38519.01, 0.05731707, -0.32724047, -188362.1, 154218.03, 0.0000000034767167, 10.002033, 9.997894 
9.7493416e+2, 2.7503955e+2, -189992.17, -454478.88, -34089.684, 0.22853716, -0.21223569, -185669.03, 58920.668, 0.0000028342504, 10.001381, 9.997888 
9.7491425e+2, 2.8503716e+2, -29226.305, -376952.72, 42114.88, 0.29395044, -0.21473695, -24198.266, 122415.766, 0.000032308424, 10.0020275, 9.997438 
9.7489405e+2, 2.950334e+2, 346663.13, -149089.81, 71755.164, 0.24784881, -0.34476066, 356840.03, 405492.03, 0.00013865711, 10.003955, 9.997403 
9.748727e+2, 3.0503207e+2, 405950.34, -98222.73, -35241.477, 0.18852171, -0.20858335, 408401.78, 408401.78, 0.0003574127, 10.004052, 9.99737 
9.7485155e+2, 3.150306e+2, 186951.7, -131657.53, -71877.086, 0.26921764, -0.10371248, 202416.3, 202416.3, 0.0006733306, 10.002223, 9.9980135 
9.852355e+2, 1.250691e+2, -1871691.8, -1766240.9, 21227.572, -0.011702088, -0.4477581, -1762128.1, -47840.215, 0.00008108169, 9.998785, 10.000229 
9.852178e+2, 1.3507083e+2, -2030583.0, -1817613.5, 42108.355, 0.14718874, -0.28445092, -1809590.1, -193314.1, 0.000022462764, 9.997157, 9.99999 
9.8519665e+2, 1.450721e+2, -1816797.0, -1534565.6, -5138.05, 0.09817623, -0.20884371, -1534472.1, -16207.476, 0.0000013019285, 9.99739, 10.001143 
9.851731e+2, 1.5507169e+2, -1407979.5, -1287777.4, 3060.076, -0.09581161, -0.3762853, -1287699.6, 132566.02, 0.0, 9.999533, 10.001129 
9.851527e+2, 1.6507177e+2, -1299108.1, -1326631.3, 82205.25, -0.0969675, -0.41190782, -1229520.5, 92743.67, 0.0, 10.0002165, 9.999862 
9.851356e+2, 1.7507228e+2, -1319692.3, -1285120.5, 36332.613, 0.1039116, -0.35465956, -1262171.3, -37910.203, 0.0, 9.999404, 9.999864 
9.85117e+2, 1.8507248e+2, -1221043.5, -1254118.8, 17762.725, 0.16651858, -0.28952184, -1213311.6, -87050.48, 0.0, 9.99969, 9.999269 
9.8509693e+2, 1.9507225e+2, -928905.94, -1064638.5, 20806.115, 0.08948419, -0.24720217, -925788.25, 102477.16, 0.0, 10.001031, 9.99925 
9.8507726e+2, 2.0507097e+2, -872080.3, -1084664.6, 41626.156, 0.045705188, -0.25223416, -864220.1, 66059.586, 0.0, 10.001173, 9.998373 
9.85058e+2, 2.1506856e+2, -926645.4, -1058963.1, 57511.88, 0.038497623, -0.3387853, -905142.3, -72837.414, 0.0, 10.000123, 9.998381 
9.850382e+2, 2.2506768e+2, -751846.6, -860609.1, 23053.818, 0.056225717, -0.29102302, -747161.8, -12847.417, 0.0, 10.000375, 9.998951 
9.8501813e+2, 2.3506817e+2, -434657.44, -656458.06, 29026.506, 0.109265834, -0.14350507, -430921.75, 205387.64, 0.0, 10.001879, 9.998954 
9.849978e+2, 2.450666e+2, -335259.84, -650265.6, 36702.004, 0.12890105, -0.15054034, -331040.16, 207283.64, 0.0, 10.002293, 9.998121 
9.8497725e+2, 2.5506288e+2, -323963.6, -596134.0, 12052.432, 0.11211859, -0.34307757, -323430.94, 116927.48, 0.0, 10.0017, 9.998107 
9.849567e+2, 2.6506057e+2, -204967.58, -516447.44, -29417.6, 0.13442172, -0.36825684, -202213.6, 140166.58, 0.00000001775074, 10.001963, 9.997859 
9.849361e+2, 2.7505955e+2, 47101.227, -343231.6, -35128.824, 0.21118082, -0.2621455, 50237.52, 294627.78, 0.000003544514, 10.003019, 9.997866 
9.8491645e+2, 2.8505725e+2, 119781.32, -312943.97, 31554.543, 0.26336247, -0.25170425, 122070.18, 268483.88, 0.000035208486, 10.003085, 9.997372 
9.8489743e+2, 2.950537e+2, 82342.4, -285835.84, -2902.1396, 0.2831807, -0.35252497, 82365.27, 130815.32, 0.00014828902, 10.002177, 9.997323 
9.8487586e+2, 3.0505228e+2, 113137.586, -290762.25, -121580.87, 0.19863644, -0.19768308, 146911.4, 146911.4, 0.00038101713, 10.002253, 9.996916 
9.8485315e+2, 3.1505042e+2, 314507.13, -101269.67, -101036.305, 0.16469309, -0.08737972, 337759.2, 337759.2, 0.0007157471, 10.00321, 9.997761 
9.95236e+2, 1.2509e+2, -1751603.0, -1506977.1, -40121.406, 0.13022059, -0.23303537, -1500564.8, 213526.83, 0.000108580556, 9.99875, 10.002025 
9.952122e+2, 1.3509054e+2, -1899757.3, -1549335.3, -18395.104, -0.13672459, -0.3744639, -1548372.3, 67708.32, 0.000033028722, 9.997174, 10.001822 
9.9519116e+2, 1.4509186e+2, -1806041.5, -1516468.6, 68869.586, -0.19954684, -0.3892036, -1500923.8, 17139.686, 0.0000026281716, 9.997401, 10.0012665 
9.951736e+2, 1.5509276e+2, -1393137.9, -1263898.4, 85630.73, -0.009480601, -0.43949404, -1221241.3, 198810.38, 0.00000000019976186, 9.999556, 10.001285 
9.951549e+2, 1.650931e+2, -1379573.8, -1488605.9, 44588.594, 0.09432789, -0.40371624, -1363661.5, -41610.67, 0.0, 10.000198, 9.998758 
9.9513525e+2, 1.7509279e+2, -1394582.4, -1443338.6, 8416.457, 0.12007688, -0.31699148, -1393170.4, -169108.9, 0.0, 9.999414, 9.998773 
9.951157e+2, 1.8509243e+2, -1209381.4, -1226694.9, 62630.043, 0.064516634, -0.26179606, -1154812.6, -28744.287, 0.0, 9.999677, 9.999464 
9.9509645e+2, 1.9509193e+2, -918843.0, -1037678.1, 73188.86, -0.07053153, -0.26625717, -883989.4, 144083.02, 0.0, 10.001001, 9.999452 
9.950775e+2, 2.0509113e+2, -842605.0, -1009480.3, -4011.5657, -0.049554367, -0.26053718, -842508.6, 87571.23, 0.0, 10.001116, 9.998916 
9.95059e+2, 2.1508992e+2, -897631.3, -984061.2, 21612.955, 0.1233969, -0.2815059, -892528.06, -60436.33, 0.0, 10.00006, 9.998926 
9.950398e+2, 2.2508834e+2, -742291.8, -826553.8, 75088.3, 0.17197937, -0.34123865, -698322.44, 35782.586, 0.0, 10.000316, 9.999211 
9.9502003e+2, 2.350864e+2, -426040.03, -625579.94, 89026.086, 0.103232, -0.46528006, -392095.03, 244025.4, 0.0, 10.001824, 9.999192 
9.950003e+2, 2.45085e+2, -375906.13, -728128.5, 10010.411, 0.14126106, -0.43846774, -375621.84, 162512.06, 0.0, 10.002261, 9.9976015 
9.9498075e+2, 2.5508407e+2, -364403.47, -673530.8, -5127.704, 0.28765437, -0.2999465, -364318.44, 75828.22, 0.0, 10.001668, 9.997593 
9.9495995e+2, 2.650822e+2, -212735.77, -526700.7, 7537.6084, 0.2607486, -0.2516465, -212554.9, 129611.336, 0.000000028595345, 10.001936, 9.997802 
9.949378e+2, 2.7507937e+2, 37053.875, -358048.44, 9691.754, 0.06998693, -0.3231022, 37291.47, 281484.94, 0.000003781716, 10.002991, 9.997778 
9.9491745e+2, 2.850768e+2, 57335.453, -432572.8, -6528.822, 0.052073028, -0.29415274, 57422.445, 203643.61, 0.000036350866, 10.003043, 9.99657 
9.9489886e+2, 2.9507443e+2, 24570.098, -397426.84, -31070.637, 0.19964169, -0.19570923, 26845.486, 75094.83, 0.00015374523, 10.002143, 9.996571 
9.9487776e+2, 3.050724e+2, 143115.47, -216735.67, -85068.92, 0.15942028, -0.098794304, 162212.33, 162212.33, 0.0003968945, 10.002204, 9.997446 
9.948554e+2, 3.150683e+2, 353534.0, 4222.365, -52519.664, 0.051290736, -0.26554582, 361259.56, 361259.56, 0.00074672233, 10.003115, 9.998526 
1.00523494e+3, 1.2511006e+2, -1908593.5, -1520572.4, 28672.316, 0.22890325, -0.18643412, -1518465.1, 195433.33, 0.00014134821, 9.997417, 10.002569 
1.0052093e+3, 1.3511044e+2, -1722034.5, -1400933.3, -66197.82, -0.18939818, -0.40038937, -1387821.4, 228064.2, 0.000046426092, 9.99813, 10.002378 
1.00518875e+3, 1.4511184e+2, -1674599.9, -1498216.0, 25762.947, -0.23355316, -0.41190806, -1494530.0, 23336.555, 0.00000474816, 9.998514, 10.000847 
1.00517355e+3, 1.5511309e+2, -1570934.5, -1399835.4, -13246.816, 0.07806943, -0.38536802, -1398815.9, 21037.33, 0.000000004412824, 9.998565, 10.000827 
1.0051556e+3, 1.6511323e+2, -1552898.5, -1610973.8, -74187.4, 0.19275445, -0.32852182, -1502268.4, -180412.77, 0.0, 9.999171, 9.998416 
1.0051351e+3, 1.7511228e+2, -1287556.0, -1429281.5, -63807.34, 0.12039128, -0.27356973, -1263062.0, -39188.4, 0.0, 10.000313, 9.998438 
1.00511536e+3, 1.851116e+2, -1099217.8, -1159827.6, 21929.81, 0.027002467, -0.23944461, -1092115.4, 33768.168, 0.0, 10.000372, 9.99959 
1.0050964e+3, 1.951111e+2, -1156361.0, -1137084.4, 18070.035, -0.08750035, -0.2572759, -1126242.9, -98356.03, 0.0, 9.9993105, 9.999582 
1.005078e+3, 2.0511058e+2, -1004791.4, -1036131.25, -45218.0, -0.03799946, -0.25321394, -972605.1, -42715.035, 0.0, 9.999778, 9.999376 
1.0050603e+3, 2.1510996e+2, -631616.5, -804824.6, -34255.117, 0.17270045, -0.26237723, -625088.0, 206806.33, 0.0, 10.001666, 9.99938 
1.0050412e+3, 2.251085e+2, -498177.8, -758698.2, -4212.683, 0.19631205, -0.3113487, -498109.72, 235797.14, 0.0, 10.002204, 9.998769 
1.00502096e+3, 2.3510616e+2, -511907.6, -714734.2, -52685.973, 0.043832812, -0.43207717, -499038.47, 136890.05, 0.0, 10.001437, 9.998766 
1.0050015e+3, 2.4510464e+2, -479790.84, -734722.9, -127394.64, 0.08692895, -0.41774702, -427043.13, 110899.97, 0.0, 10.001355, 9.997996 
1.0049829e+3, 2.551039e+2, -298542.53, -594654.1, -79888.766, 0.3270315, -0.30065644, -278364.16, 161587.25, 0.0, 10.001925, 9.998008 
1.0049626e+3, 2.6510212e+2, -157372.08, -532844.4, -5463.208, 0.31611684, -0.2509902, -157292.6, 184677.39, 0.000000017098808, 10.002472, 9.997496 
1.00494064e+3, 2.750992e+2, 15543.376, -402099.6, -31833.045, 0.062171794, -0.3010649, 17955.78, 261955.77, 0.000003428396, 10.002995, 9.997471 
1.0049202e+3, 2.8509656e+2, 68614.71, -399147.06, -62256.137, 0.033136994, -0.27348435, 76758.81, 222786.81, 0.00003625069, 10.002993, 9.996825 
1.0049014e+3, 2.9509425e+2, 80573.82, -343646.22, -17226.262, 0.22896068, -0.19740288, 81272.18, 129326.34, 0.00015665985, 10.002405, 9.996815 
1.00488044e+3, 3.0509198e+2, 197358.3, -216575.94, 7571.489, 0.1849931, -0.12172612, 197496.75, 197496.75, 0.0004073917, 10.002679, 9.99722 
1.0048584e+3, 3.1508753e+2, 442599.78, 41432.15, -33770.11, 0.013344847, -0.30211273, 445422.66, 445422.66, 0.00076893705, 10.003735, 9.998488 
1.0152323e+3, 1.2512949e+2, -1954773.0, -1617997.6, 57155.336, 0.20016477, -0.29662937, -1608562.0, 105144.63, 0.0001798155, 9.9974165, 10.001903 
1.01520866e+3, 1.3513064e+2, -1752861.1, -1485298.0, -35213.99, -0.07468996, -0.3728189, -1480741.1, 134948.58, 0.000062927356, 9.998206, 10.001765 
1.015189e+3, 1.4513217e+2, -1742363.0, -1649091.8, 21514.053, -0.06899605, -0.29002687, -1644368.5, -126695.586, 0.000007860604, 9.998558, 9.999791 
1.0151726e+3, 1.5513277e+2, -1640951.5, -1550805.5, -6924.935, 0.12611425, -0.22124636, -1550276.6, -130607.8, 0.000000028517778, 9.998589, 9.999779 
1.0151546e+3, 1.6513233e+2, -1524645.8, -1556041.1, -34643.895, 0.16427837, -0.19014384, -1502309.0, -180632.39, 0.0, 9.999183, 9.99879 
1.015135e+3, 1.7513084e+2, -1255955.9, -1371587.3, -15956.715, 0.069667056, -0.22704262, -1253794.3, -30098.26, 0.0, 10.0003395, 9.998822 
1.0151157e+3, 1.8513006e+2, -1099040.3, -1155093.8, -21662.52, 0.01378027, -0.22484313, -1091644.4, 34061.45, 0.0, 10.000352, 9.999631 
1.0150965e+3, 1.9512981e+2, -1155706.5, -1130829.4, -16635.963, -0.009878317, -0.2236949, -1122496.0, -94788.0, 0.0, 9.999286, 9.999639 
1.01507865e+3, 2.0512937e+2, -983991.1, -983304.5, 21181.164, 0.034160856, -0.2345132, -962463.9, -32753.84, 0.0, 9.999738, 9.999759 
1.0150617e+3, 2.1512869e+2, -612779.4, -756871.5, 38555.63, 0.14457099, -0.2857254, -603111.44, 228601.16, 0.0, 10.001627, 9.99973 
1.0150425e+3, 2.2512811e+2, -587754.5, -927143.44, -38648.65, 0.092667125, -0.20814696, -583408.94, 150311.17, 0.0, 10.002132, 9.997644 
1.0150209e+3, 2.3512748e+2, -597294.5, -878456.0, -76843.13, -0.11193071, -0.04454054, -577663.5, 58069.99, 0.0, 10.001378, 9.99767 
1.0150013e+3, 2.4512556e+2, -394216.38, -544425.1, -111186.04, -0.076408684, -0.084334195, -335145.47, 202605.31, 0.0, 10.001302, 9.999327 
1.0149835e+3, 2.551223e+2, -211637.06, -408863.1, -54635.375, 0.1890966, -0.35071743, -197513.42, 242259.56, 0.0, 10.001899, 9.999297 
1.01496466e+3, 2.6512015e+2, -200961.94, -614390.44, 11696.457, 0.26292646, -0.374458, -200631.28, 141161.19, 0.000000011022683, 10.002434, 9.996955 
1.0149446e+3, 2.7511892e+2, -23021.299, -476738.2, -5160.434, 0.15328938, -0.20016573, -22962.613, 220847.6, 0.0000031084232, 10.00297, 9.996971 
1.0149247e+3, 2.8511658e+2, 153977.4, -213445.58, -87278.12, 0.17510766, -0.18582402, 173655.64, 319489.53, 0.000035475463, 10.002959, 9.998115 
1.0149048e+3, 2.9511315e+2, 157944.14, -166881.31, -32118.438, 0.32936445, -0.35004297, 161089.53, 208953.17, 0.000157892, 10.002338, 9.998057 
1.0148837e+3, 3.0511108e+2, 118260.016, -365843.66, 49407.94, 0.23410425, -0.26397255, 123251.164, 123251.164, 0.00041497825, 10.002618, 9.996224 
1.0148619e+3, 3.1510818e+2, 373111.16, -82993.91, 20809.523, -0.030042412, -0.19012544, 374058.6, 374058.6, 0.00078677625, 10.003662, 9.997663 
1.025229e+3, 1.2514956e+2, -2086101.4, -1809485.5, 124098.125, 0.15695001, -0.33398053, -1761972.5, -48466.426, 0.00022439056, 9.997062, 10.000764 
1.025208e+3, 1.3515063e+2, -1684318.5, -1574685.0, -24595.906, -0.007531845, -0.30856866, -1569419.9, 46076.598, 0.0000828242, 9.999198, 10.000677 
1.02518946e+3, 1.4515157e+2, -1511299.3, -1548181.0, 6172.416, 0.048720594, -0.22616349, -1510293.8, 7193.9194, 0.000012107546, 10.00018, 9.999703 
1.0251721e+3, 1.5515123e+2, -1416407.3, -1451357.1, 39017.438, 0.13929288, -0.2440887, -1391130.1, 28360.89, 0.00000009714164, 10.000162, 9.999702 
1.0251537e+3, 1.6515079e+2, -1355167.5, -1401307.4, 82841.05, 0.12505677, -0.24110465, -1292244.0, 29251.828, 0.0, 10.000037, 9.999436 
1.0251346e+3, 1.751502e+2, -1290028.4, -1317969.3, 109396.17, 0.03090324, -0.2507923, -1193714.3, 29788.092, 0.0, 9.999808, 9.999447 
1.02511585e+3, 1.851496e+2, -1183499.6, -1263855.9, 71933.89, 0.016683638, -0.23058274, -1141283.8, -15773.211, 0.0, 10.000071, 9.999018 
1.02509744e+3, 1.9514884e+2, -979006.6, -1110912.3, 21761.547, 0.069137655, -0.21815334, -975509.2, 52012.633, 0.0, 10.000791, 9.999044 
1.0250795e+3, 2.0514813e+2, -822340.94, -924188.94, 55440.938, 0.08973065, -0.21750833, -797985.8, 131542.5, 0.0, 10.000925, 9.999596 
1.0250621e+3, 2.1514744e+2, -794086.6, -861835.6, 22558.135, 0.085230045, -0.25457358, -787262.8, 44268.098, 0.0, 10.000458, 9.999575 
1.0250434e+3, 2.2514682e+2, -770853.1, -987705.6, -34379.656, 0.045513712, -0.18531682, -765533.1, -31994.986, 0.0, 10.000753, 9.997894 
1.0250233e+3, 2.351462e+2, -533535.06, -820360.6, 21723.78, -0.02483153, -0.044617042, -531899.06, 103651.48, 0.0, 10.001704, 9.997912 
1.025004e+3, 2.4514441e+2, -241609.69, -492227.28, 2636.1108, 0.0080136, -0.07142566, -241581.97, 295985.13, 0.0, 10.002452, 9.999127 
1.02498546e+3, 2.551414e+2, -70581.62, -362523.8, -69282.875, 0.1400241, -0.29222766, -54974.008, 384614.8, 0.0, 10.002968, 9.999099 
1.02496654e+3, 2.6513922e+2, -142892.11, -550474.9, -47123.875, 0.20029366, -0.32460666, -137514.69, 204093.42, 0.00000001218603, 10.002662, 9.99729 
1.02494724e+3, 2.7513778e+2, -211474.8, -528489.06, -4693.039, 0.19756292, -0.20851453, -211405.34, 32220.291, 0.0000027111198, 10.001503, 9.997322 
1.0249277e+3, 2.8513545e+2, -22290.105, -299801.78, -71510.66, 0.24227023, -0.2129208, -4946.7573, 140701.83, 0.00003356216, 10.001763, 9.998091 
1.0249077e+3, 2.951321e+2, 300817.06, -100974.445, -128102.25, 0.3383085, -0.36155158, 338184.38, 385862.06, 0.00015613875, 10.00334, 9.998028 
1.024887e+3, 3.0513006e+2, 298273.78, -274932.16, -50760.21, 0.24495836, -0.27441666, 302734.13, 302734.13, 0.0004183757, 10.003843, 9.996258 
1.0248661e+3, 3.1512722e+2, 315087.38, -97371.95, -19388.936, 0.050453626, -0.1989639, 315996.8, 315996.8, 0.000800343, 10.0032015, 9.997786 
1.03522494e+3, 1.251703e+2, -2184360.3, -2035058.3, 191603.77, 0.0147647215, -0.30179524, -1904076.6, -190780.03, 0.00027553758, 9.997164, 9.999164 
1.03520714e+3, 1.351705e+2, -1798386.4, -1798110.5, 55369.742, -0.020143846, -0.20855282, -1742878.5, -127574.03, 0.000106410545, 9.99915, 9.999166 
1.0351901e+3, 1.4517023e+2, -1460298.9, -1431375.1, 756.6806, 0.08065006, -0.21380182, -1431355.3, 85953.5, 0.000017580353, 10.000128, 10.000533 
1.03517175e+3, 1.5516856e+2, -1351740.1, -1324061.3, 42021.0, 0.07915738, -0.4485003, -1293659.4, 125659.71, 0.00000023822265, 10.000188, 10.0005665 
1.035153e+3, 1.6516872e+2, -1289665.0, -1272452.8, 66708.88, 0.03565409, -0.47451076, -1213797.1, 107515.734, 0.0, 10.000065, 10.000308 
1.0351339e+3, 1.7517044e+2, -1231326.6, -1199282.5, 102139.88, -0.032477442, -0.3407876, -1111915.6, 111376.555, 0.0, 9.999818, 10.000258 
1.0351159e+3, 1.8517025e+2, -1273752.9, -1449465.6, 91638.836, -0.004271271, -0.25418058, -1234658.9, -109360.98, 0.0, 10.000063, 9.997747 
1.03509866e+3, 1.9516818e+2, -1068057.8, -1295441.8, 49224.99, 0.11181533, -0.24488081, -1057858.8, -30530.156, 0.0, 10.000786, 9.997781 
1.0350805e+3, 2.0516689e+2, -876503.25, -1027662.7, 31454.434, 0.09454548, -0.20594023, -870219.25, 59125.746, 0.0, 10.000886, 9.998903 
1.0350614e+3, 2.1516618e+2, -844608.25, -959731.06, 9958.829, -0.046132986, -0.17538255, -843753.1, -12403.945, 0.0, 10.000423, 9.99892 
1.035044e+3, 2.2516464e+2, -668535.7, -760988.3, -3898.5112, 0.014111824, -0.24611165, -668371.6, 64989.14, 0.0, 10.000693, 9.999479 
1.03502795e+3, 2.3516227e+2, -430554.7, -599447.94, 60910.664, 0.26023236, -0.43917292, -410879.53, 224500.23, 0.0, 10.00167, 9.999446 
1.0350094e+3, 2.4516119e+2, -373751.66, -754625.2, 18448.5, 0.29676187, -0.38246933, -372860.16, 164531.92, 0.0, 10.002399, 9.997351 
1.03498854e+3, 2.551612e+2, -191645.3, -614161.0, -44931.867, 0.14221075, -0.12765077, -186919.94, 252479.16, 0.0, 10.002963, 9.9973755 
1.0349681e+3, 2.6515937e+2, -60956.875, -371277.72, -94420.02, 0.094113156, -0.10229235, -34486.082, 306930.84, 0.00000000560088, 10.002627, 9.998536 
1.0349484e+3, 2.7515572e+2, -137873.17, -358844.16, -40998.023, 0.1476715, -0.3295443, -130511.81, 112934.45, 0.0000022721786, 10.001431, 9.998522 
1.0349289e+3, 2.8515294e+2, -130571.03, -508690.5, -13382.58, 0.18567665, -0.3618939, -130097.98, 15375.08, 0.00003115889, 10.001695, 9.99669 
1.0349098e+3, 2.9515108e+2, 205928.72, -297559.0, -60102.32, 0.2051147, -0.22939783, 213003.83, 260500.53, 0.00015172908, 10.003336, 9.996678 
1.0348901e+3, 3.0514884e+2, 370039.25, -123663.38, -76837.95, 0.17437372, -0.14867657, 381721.56, 381721.56, 0.0004166064, 10.0038395, 9.997294 
1.0348705e+3, 3.151446e+2, 375727.34, 60702.918, -31540.691, 0.16052231, -0.31615195, 378854.22, 378854.22, 0.00080601213, 10.003081, 9.99892 
1.04522385e+3, 1.251887e+2, -1683367.3, -1780163.5, 41261.063, 0.030415649, -0.2979613, -1668166.3, 44950.625, 0.0003338259, 10.000533, 9.999291 
1.0452056e+3, 1.3518897e+2, -1967959.0, -1860678.6, 16138.029, -0.031178007, -0.21597402, -1858303.5, -243180.88, 0.00013404706, 9.997891, 9.999348 
1.04518905e+3, 1.4518875e+2, -1834061.6, -1631655.1, 51943.445, 0.09631309, -0.2166004, -1619103.3, -101976.55, 0.000024406929, 9.997654, 10.000351 
1.0451714e+3, 1.5518735e+2, -1436259.4, -1385495.1, 5879.9517, 0.058225453, -0.40550548, -1384822.9, 34313.426, 0.0000004785213, 9.999698, 10.000381 
1.0451531e+3, 1.6518722e+2, -1201792.8, -1227548.4, -73933.96, 0.015989235, -0.45000997, -1139623.4, 181509.13, 0.0, 10.000665, 10.000323 
1.0451343e+3, 1.7518821e+2, -1103143.6, -1133629.1, -106820.984, -0.014100576, -0.39275494, -1010483.3, 212633.77, 0.0, 10.000689, 10.000282 
1.04511656e+3, 1.8518803e+2, -1119491.4, -1365493.4, -56048.66, 0.013207902, -0.31326422, -1107323.3, 17798.127, 0.0, 10.001079, 9.997834 
1.0450997e+3, 1.9518666e+2, -918955.56, -1215122.8, -8156.7344, 0.09301441, -0.24202268, -918731.06, 108413.414, 0.0, 10.001772, 9.997859 
1.04508154e+3, 2.0518534e+2, -752582.1, -998104.06, 2730.1467, 0.06327434, -0.19621894, -752551.75, 176610.17, 0.0, 10.001874, 9.998627 
1.045062e+3, 2.151839e+2, -721639.2, -928026.9, 2266.866, -0.06519164, -0.21135573, -721614.3, 109561.08, 0.0, 10.001397, 9.998664 
1.04504496e+3, 2.2518222e+2, -565828.1, -672712.1, -741.9535, 0.02235204, -0.3019715, -565823.0, 167365.11, 0.0, 10.00123, 9.999826 
1.0450299e+3, 2.3518026e+2, -458209.84, -575990.75, -40053.05, 0.31082875, -0.48969793, -445879.97, 189320.83, 0.0, 10.001321, 9.999775 
1.0450117e+3, 2.4517934e+2, -501641.22, -843450.2, -59832.64, 0.3337956, -0.41977203, -491470.3, 45741.434, 0.0, 10.001624, 9.997122 
1.0449907e+3, 2.5517935e+2, -336153.38, -708144.94, -14520.751, 0.11344599, -0.14133383, -335587.4, 103634.35, 0.0, 10.002071, 9.99716 
1.04497045e+3, 2.6517764e+2, -42554.95, -351982.0, -73681.164, 0.06341022, -0.09810676, -25905.732, 315333.56, 0.0000000009945924, 10.002715, 9.998621 
1.0449511e+3, 2.7517417e+2, 168007.06, -203458.27, -118780.7, 0.17689733, -0.31765455, 202740.89, 446006.63, 0.0000020282196, 10.0035, 9.9985895 
1.0449315e+3, 2.8517136e+2, 141100.52, -411755.94, -48682.055, 0.17662957, -0.34128428, 145354.5, 290647.5, 0.000028619394, 10.003696, 9.996395 
1.04491174e+3, 2.951693e+2, 177425.86, -342130.16, -22899.732, 0.07371735, -0.20100705, 178433.23, 225753.69, 0.00014518836, 10.003269, 9.996406 
1.0448928e+3, 3.051669e+2, 294219.9, -139130.27, -55989.21, 0.092820756, -0.13039571, 301336.88, 301336.88, 0.00040815427, 10.00323, 9.997481 
1.044875e+3, 3.1516272e+2, 453268.0, 123507.98, -93521.695, 0.28565043, -0.30965126, 477944.66, 477944.66, 0.00079748995, 10.003488, 9.999169 
1.05522536e+3, 1.2520501e+2, -1569528.1, -1526989.6, -75526.914, 0.09937042, -0.3274989, -1469794.3, 243169.4, 0.00039971265, 10.000467, 10.001057 
1.05520286e+3, 1.3520627e+2, -1837043.0, -1602806.4, -77987.06, -0.08723348, -0.32429, -1579217.0, 35731.82, 0.00016604259, 9.997954, 10.001084 
1.0551864e+3, 1.4520732e+2, -1900657.4, -1793739.4, 121143.086, 0.053188767, -0.22539261, -1714784.1, -197844.31, 0.000032768716, 9.997753, 9.999194 
1.05517104e+3, 1.5520766e+2, -1518790.8, -1556521.3, 83433.914, 0.035014905, -0.12326106, -1452115.9, -33174.32, 0.0000008393984, 9.999694, 9.999211 
1.0551539e+3, 1.6520643e+2, -1263172.9, -1348006.3, -76892.79, 0.019964222, -0.1795433, -1217773.4, 103179.91, 0.0, 10.000635, 9.99951 
1.05513565e+3, 1.752037e+2, -1153510.8, -1243317.5, -101583.42, 0.040277127, -0.41542703, -1087348.9, 135626.1, 0.0, 10.00071, 9.999519 
1.0551178e+3, 1.852031e+2, -1023960.94, -1162435.9, -35305.195, 0.027799942, -0.4083494, -1015479.1, 109499.95, 0.0, 10.001059, 9.999237 
1.0551003e+3, 1.952044e+2, -829335.4, -1018383.94, 20783.389, -0.027565282, -0.21194701, -827077.5, 199890.6, 0.0, 10.001725, 9.999232 
1.0550824e+3, 2.0520355e+2, -753486.75, -989208.9, -21194.72, -0.039890606, -0.19060418, -751596.2, 177382.14, 0.0, 10.001823, 9.998714 
1.05506405e+3, 2.1520062e+2, -722396.4, -921321.75, -12524.531, -0.009518517, -0.36490315, -721610.94, 109398.12, 0.0, 10.001357, 9.998732 
1.05504625e+3, 2.2519955e+2, -637416.25, -808422.06, -2209.6033, 0.033177115, -0.35178393, -637387.7, 95632.18, 0.0, 10.001172, 9.998923 
1.055029e+3, 2.3520009e+2, -522139.03, -702139.1, -31754.148, 0.08751598, -0.20003302, -516701.47, 118311.97, 0.0, 10.001288, 9.998924 
1.05501086e+3, 2.4519885e+2, -414693.53, -654152.8, -47163.582, 0.08106112, -0.1880849, -405739.1, 131286.84, 0.0, 10.001586, 9.99844 
1.05499186e+3, 2.551959e+2, -251033.11, -525367.7, 6652.15, 0.017537529, -0.33948472, -250871.89, 188184.95, 0.0, 10.002043, 9.998429 
1.0549734e+3, 2.65194e+2, -128635.15, -518377.94, -45550.64, 0.07442049, -0.3192903, -123382.28, 217693.56, 0.000000000012280949, 10.002665, 9.997501 
1.05495535e+3, 2.751931e+2, 89673.914, -362481.5, -82160.06, 0.23960118, -0.17300126, 104140.19, 347224.53, 0.0000016155456, 10.003484, 9.997505 
1.0549353e+3, 2.8519064e+2, 197544.42, -291445.53, -68370.33, 0.17380168, -0.14825605, 206924.0, 352032.7, 0.00002530106, 10.003683, 9.99723 
1.0549135e+3, 2.9518673e+2, 227926.45, -227870.11, -32260.773, -0.09574196, -0.27436703, 230198.52, 277347.38, 0.00013660942, 10.003228, 9.9972105 
1.0548948e+3, 3.051842e+2, 235913.84, -248150.23, -46354.227, -0.041293908, -0.22286788, 240312.78, 240312.78, 0.00039392404, 10.003174, 9.996761 
1.0548791e+3, 3.1518155e+2, 399804.88, 26888.047, -69496.57, 0.3347119, -0.17486586, 412335.2, 412335.2, 0.00077736063, 10.003431, 9.998531 
1.0652245e+3, 1.25222e+2, -1968432.3, -1699119.6, -84899.69, 0.11698632, -0.26078838, -1674589.6, 38213.42, 0.00047318285, 9.997642, 10.001237 
1.0652027e+3, 1.352228e+2, -1431688.5, -1386904.5, -201682.16, -0.0358293, -0.32337704, -1206375.1, 408413.5, 0.00020250746, 10.000645, 10.00127 
1.0651868e+3, 1.4522369e+2, -1412332.1, -1567683.3, -16663.666, 0.13778245, -0.24542798, -1410564.9, 106215.0, 0.000042863663, 10.001149, 9.999104 
1.06517054e+3, 1.5522444e+2, -1563520.3, -1588845.5, 11344.318, 0.031703964, -0.09300761, -1559181.8, -140403.2, 0.0000013547858, 9.999436, 9.999111 
1.0651537e+3, 1.652234e+2, -1481824.6, -1489089.1, -60869.3, 0.009167433, -0.109791964, -1424479.3, -103689.0, 0.0, 9.999284, 9.999198 
1.0651369e+3, 1.7522068e+2, -1197655.8, -1297385.9, -58805.95, 0.103406146, -0.3092135, -1170419.1, 52394.87, 0.0, 10.000547, 9.999231 
1.0651193e+3, 1.8521975e+2, -1019414.5, -1084675.6, -22496.113, 0.079923674, -0.35830468, -1012411.44, 112408.82, 0.0, 10.000765, 9.999913 
1.0651007e+3, 1.9522032e+2, -1033642.1, -1043217.4, -28805.717, -0.070457526, -0.30144125, -1009228.9, 17582.484, 0.0, 10.000003, 9.999892 
1.065083e+3, 2.0522007e+2, -999107.56, -1068512.3, -73244.555, -0.0668433, -0.2700036, -952760.44, -23945.883, 0.0, 9.99997, 9.999063 
1.0650659e+3, 2.1521899e+2, -809437.8, -925957.06, -55605.902, 0.08491711, -0.2935703, -787160.5, 43669.098, 0.0, 10.000601, 9.9990635 
1.0650481e+3, 2.2521839e+2, -695207.06, -855423.0, -2256.2554, 0.10905276, -0.2425972, -695175.3, 37662.09, 0.0, 10.000859, 9.998752 
1.0650293e+3, 2.3521811e+2, -614247.1, -763690.4, 14889.975, 0.016559359, -0.1538329, -612778.0, 22061.205, 0.0, 10.000737, 9.998766 
1.0650113e+3, 2.4521664e+2, -463307.53, -639759.9, 17026.123, -0.0013890235, -0.173819, -461679.66, 75173.164, 0.0, 10.001102, 9.998765 
1.0649941e+3, 2.5521392e+2, -247286.88, -488194.4, -16467.744, 0.04720547, -0.33226305, -246166.39, 192712.38, 0.0, 10.0019245, 9.998738 
1.0649763e+3, 2.6521197e+2, -203141.1, -593025.7, -75455.15, 0.12455023, -0.31730822, -189047.56, 151851.44, 0.0, 10.002315, 9.99716 
1.064958e+3, 2.7521074e+2, -117576.234, -496924.06, -62199.914, 0.2323961, -0.16919087, -107637.97, 135275.95, 0.00000091217555, 10.002211, 9.997195 
1.0649381e+3, 2.852084e+2, 12316.719, -320316.72, -44550.734, 0.1633674, -0.14786862, 18180.193, 163117.72, 0.00002073869, 10.002159, 9.997761 
1.0649164e+3, 2.952049e+2, 110979.38, -226377.0, -41054.816, -0.06315969, -0.28489265, 115903.7, 162874.53, 0.00012474366, 10.002176, 9.997727 
1.0648979e+3, 3.052027e+2, 149228.13, -312791.22, -6201.665, -0.011780754, -0.21274254, 149311.36, 149311.36, 0.00037297295, 10.002661, 9.996566 
1.06488235e+3, 3.1520033e+2, 397266.4, 8115.7354, -6092.8105, 0.31620926, -0.121269874, 397361.78, 397361.78, 0.00074707123, 10.003465, 9.99839 
1.0752212e+3, 1.2523966e+2, -2040844.8, -1868546.5, -3746.3948, -0.0039652972, -0.107283756, -1868465.1, -155830.13, 0.00055371417, 9.997732, 10.000027 
1.0752046e+3, 1.3523872e+2, -1518808.4, -1560880.4, -89211.17, 0.07941935, -0.21913828, -1448186.6, 166453.33, 0.00024334127, 10.000623, 10.000082 
1.0751897e+3, 1.4523815e+2, -1352304.0, -1444037.6, -84496.695, 0.30290303, -0.27528164, -1302027.9, 214615.58, 0.00005483326, 10.001143, 9.999959 
1.0751698e+3, 1.5523794e+2, -1497088.8, -1461488.5, -46534.91, 0.0037181715, -0.30459338, -1429465.5, -10820.513, 0.000002073113, 9.999478, 9.999967 
1.07515246e+3, 1.652384e+2, -1466686.8, -1464746.6, -17893.162, -0.05453417, -0.22246802, -1447797.3, -127155.96, 0.0000000000166348, 9.999313, 9.999351 
1.07513785e+3, 1.7523926e+2, -1184705.4, -1274203.1, -8216.173, 0.14201541, -0.080960356, -1183957.4, 38676.76, 0.0, 10.00056, 9.999384 
1.0751206e+3, 1.8523794e+2, -1028453.8, -1095614.4, -55663.137, 0.13197133, -0.1718396, -997026.25, 127618.7, 0.0, 10.000733, 9.999853 
1.0751007e+3, 1.9523455e+2, -1037628.56, -1048420.1, -53665.156, -0.07800445, -0.50525165, -989088.6, 37584.24, 0.0, 9.999991, 9.999862 
1.0750832e+3, 2.0523508e+2, -961655.0, -986990.75, -55379.816, -0.05670512, -0.42546353, -917512.7, 11156.176, 0.0, 9.999949, 9.999635 
1.0750675e+3, 2.1523905e+2, -774420.94, -844050.6, -28466.62, 0.17694065, -0.0023750516, -764264.44, 66372.29, 0.0, 10.000556, 9.999648 
1.0750499e+3, 2.2523871e+2, -664794.6, -779498.94, -12386.301, 0.2116521, 0.020573515, -663472.3, 69168.08, 0.0, 10.000804, 9.999301 
1.0750305e+3, 2.352344e+2, -584560.6, -690436.6, 14553.594, 0.06363529, -0.35071152, -582596.5, 52080.773, 0.0, 10.000689, 9.999293 
1.07501306e+3, 2.4523275e+2, -520022.44, -748726.2, 44789.293, 0.05147484, -0.37753966, -511563.75, 25128.436, 0.0, 10.00106, 9.998041 
1.0749973e+3, 2.5523344e+2, -296406.16, -589005.2, 19573.559, 0.16230239, -0.123196505, -295102.56, 143585.25, 0.0, 10.001912, 9.998055 
1.0749792e+3, 2.6523152e+2, -176974.53, -529107.8, -82537.42, 0.1796978, -0.095891714, -158588.38, 182120.73, 0.000000000031670343, 10.002274, 9.99762 
1.0749591e+3, 2.7522707e+2, -91719.46, -434088.25, -60167.004, 0.11617149, -0.311166, -81453.68, 161301.19, 0.00000057346807, 10.002171, 9.997648 
1.0749397e+3, 2.8522462e+2, 22256.402, -289349.0, -47981.684, 0.10468788, -0.33733743, 29477.39, 174256.88, 0.00001665899, 10.002114, 9.997996 
1.0749207e+3, 2.952239e+2, 123983.18, -193447.84, -31112.324, 0.13485861, -0.22031169, 127003.84, 173788.98, 0.000111651505, 10.002146, 9.997971 
1.0749022e+3, 3.052225e+2, 166902.16, -264486.88, 27184.87, 0.1431078, -0.094690695, 168608.52, 168608.52, 0.00034802765, 10.002618, 9.996918 
1.0748843e+3, 3.1521907e+2, 404650.53, 47062.344, 41212.426, 0.14654097, -0.14095643, 409338.84, 409338.84, 0.0007106943, 10.00337, 9.998704 
1.0852208e+3, 1.2525584e+2, -1638417.1, -1698997.1, 21899.307, 0.053062353, -0.08997052, -1631329.8, 81147.31, 0.00064071716, 10.000605, 9.999806 
1.0852051e+3, 1.352549e+2, -1621612.9, -1638522.8, 14472.607, 0.097117975, -0.17595309, -1613306.5, 1176.703, 0.00028839763, 10.000041, 9.999831 
1.08519055e+3, 1.45254e+2, -1507269.6, -1503210.9, -26812.645, 0.34359366, -0.2579528, -1478350.9, 38139.04, 0.00006873226, 10.000031, 10.000083 
1.0851701e+3, 1.5525343e+2, -1337844.6, -1370728.5, -54911.34, 0.049390916, -0.33582947, -1296966.5, 121527.8, 0.0000030594845, 10.000521, 10.000084 
1.0851523e+3, 1.6525406e+2, -1263564.3, -1305113.0, 1528.3068, -0.042186208, -0.26697224, -1263508.1, 56979.492, 0.000000000186287, 10.000444, 9.999895 
1.0851374e+3, 1.7525573e+2, -1249991.3, -1248127.1, 28943.82, 0.08701053, -0.099016316, -1220100.4, 2371.2507, 0.0, 9.999867, 9.999894 
1.0851205e+3, 1.8525492e+2, -1162953.4, -1184187.1, -15222.05, 0.09482283, -0.15498222, -1155011.5, -30532.775, 0.0, 9.999908, 9.999644 
1.0851016e+3, 1.9525173e+2, -981451.4, -1044523.4, -31975.6, -0.020922624, -0.44651243, -968076.8, 58430.496, 0.0, 10.000478, 9.999655 
1.0850841e+3, 2.0525204e+2, -834325.0, -904987.75, -33567.473, 0.011224755, -0.3877918, -820921.56, 107583.664, 0.0, 10.000741, 9.99981 
1.0850681e+3, 2.1525536e+2, -742964.4, -812536.56, -47170.297, 0.17872028, -0.04405205, -719140.7, 111335.555, 0.0, 10.000704, 9.999791 
1.0850509e+3, 2.2525503e+2, -607041.0, -770096.9, -57529.863, 0.20640126, -0.020539137, -588786.75, 143693.48, 0.0, 10.001284, 9.999133 
1.08503245e+3, 2.3525122e+2, -342565.56, -592162.3, -96771.484, 0.10617343, -0.32302508, -309441.97, 325073.1, 0.0, 10.002428, 9.999131 
1.0850152e+3, 2.4524967e+2, -334295.75, -625458.4, -75625.99, 0.10184618, -0.34714904, -315824.6, 220704.39, 0.0, 10.002188, 9.998344 
1.0849988e+3, 2.5525016e+2, -457765.56, -632616.1, -31519.814, 0.18510363, -0.1439428, -452257.13, -13732.904, 0.0, 10.000663, 9.998356 
1.08498044e+3, 2.6524863e+2, -408684.94, -596737.44, -62201.703, 0.16598262, -0.11180799, -389972.6, -49431.516, 0.000000020287489, 10.000494, 9.998009 
1.0849603e+3, 2.7524513e+2, -161592.11, -424552.1, -55663.08, 0.05737475, -0.2748699, -150294.78, 92284.266, 0.0000009638229, 10.001509, 9.998028 
1.0849412e+3, 2.8524306e+2, 44524.39, -262426.84, -49880.83, 0.048109088, -0.28395227, 52426.78, 197026.27, 0.000015514439, 10.002197, 9.998139 
1.084923e+3, 2.952424e+2, 186587.25, -142397.33, -51425.938, 0.13427193, -0.17850107, 194438.63, 241042.22, 0.000103128805, 10.0025, 9.998144 
1.0849051e+3, 3.0524063e+2, 211425.58, -225763.88, 19655.576, 0.1606658, -0.110275015, 212307.48, 212307.48, 0.00032888475, 10.002859, 9.997065 
1.08488746e+3, 3.1523624e+2, 390225.6, 57544.008, 1638.7202, 0.131928, -0.27007428, 390233.7, 390233.7, 0.0006833059, 10.003217, 9.998837 
1.0952231e+3, 1.2527087e+2, -1586977.1, -1595692.1, -35544.977, 0.20346996, -0.1989164, -1555523.5, 156803.08, 0.000734217, 10.000618, 10.000509 
1.095204e+3, 1.3527158e+2, -1581722.4, -1554338.3, -1712.162, -0.021297406, -0.18270154, -1554231.6, 60084.723, 0.00033773432, 10.000035, 10.000411 
1.09518945e+3, 1.4527138e+2, -1549715.1, -1593548.3, -11018.729, 0.22037558, -0.19117288, -1547101.1, -30782.744, 0.0000845864, 10.000038, 9.999461 
1.09517165e+3, 1.552708e+2, -1379590.1, -1457068.6, -31183.37, 0.13136439, -0.2045133, -1368598.8, 49728.133, 0.0000043925156, 10.000523, 9.99949 
1.0951535e+3, 1.6527045e+2, -1199103.5, -1176056.4, -23825.738, 0.010007585, -0.25059542, -1161113.8, 159215.06, 0.0000000006358386, 10.000457, 10.00078 
1.0951356e+3, 1.7527024e+2, -1184482.4, -1120711.6, 12122.033, -0.09280043, -0.35999745, -1118485.1, 103840.516, 0.0, 9.999896, 10.000758 
1.0951189e+3, 1.8527079e+2, -1190899.8, -1237024.1, 864.51337, -0.06550141, -0.30283085, -1190883.5, -66563.15, 0.0, 9.999891, 9.999288 
1.0951029e+3, 1.9527185e+2, -1010585.4, -1096915.1, -6815.915, 0.06576314, -0.13459128, -1010050.56, 16264.072, 0.0, 10.000445, 9.99931 
1.0950858e+3, 2.052709e+2, -857715.8, -946407.56, -40175.758, 0.10026741, -0.16973165, -842223.2, 86100.71, 0.0, 10.000707, 9.999545 
1.0950678e+3, 2.1526812e+2, -768466.4, -854444.56, -43570.16, 0.053411685, -0.41308004, -750247.5, 80099.37, 0.0, 10.000655, 9.999529 
1.0950508e+3, 2.2526748e+2, -681567.94, -910527.4, -18668.695, 0.05617031, -0.35827795, -680055.75, 52299.555, 0.0, 10.00122, 9.9982 
1.0950349e+3, 2.3526865e+2, -410317.13, -722500.7, -50446.02, 0.10175698, -0.07319087, -402367.9, 231984.16, 0.0, 10.00238, 9.99826 
1.0950175e+3, 2.4526745e+2, -248039.36, -435426.9, -137113.95, 0.10618522, -0.086720504, -175664.61, 360698.72, 0.0, 10.00214, 9.999673 
1.0949984e+3, 2.552641e+2, -369769.13, -443119.06, -81524.28, 0.07867869, -0.40019876, -317050.25, 121337.89, 0.0, 10.000631, 9.999672 
1.0949799e+3, 2.652634e+2, -396124.25, -557482.3, -26482.445, 0.048523515, -0.36456448, -391889.06, -51494.438, 0.00000010014453, 10.000438, 9.998306 
1.09496154e+3, 2.7526495e+2, -142469.33, -380792.06, -10540.687, 0.008755154, -0.053422004, -142004.03, 100381.79, 0.0000018004142, 10.001488, 9.998341 
1.09494254e+3, 2.852638e+2, 43776.508, -258134.77, -42005.594, -0.049404003, 0.0077885618, 49511.887, 193909.89, 0.000016749296, 10.002169, 9.998186 
1.0949231e+3, 2.952602e+2, 187009.83, -140033.1, -33268.945, -0.112218045, -0.18239088, 190359.84, 236788.95, 0.00009990713, 10.002483, 9.998174 
1.09490626e+3, 3.052568e+2, 199616.8, -236953.48, 30363.176, -0.0110273585, -0.27275357, 201718.4, 201718.4, 0.00031833493, 10.00281, 9.997008 
1.0948915e+3, 3.152517e+2, 372693.97, 31990.023, 25156.379, 0.1929945, -0.49768713, 374541.4, 374541.4, 0.00066799513, 10.003167, 9.998689 
1.1052247e+3, 1.2528718e+2, -1600818.3, -1622039.8, -9194.975, 0.30709124, -0.2787852, -1597388.5, 114774.07, 0.00083503575, 10.000602, 10.000339 
1.1052036e+3, 1.3528807e+2, -1619623.4, -1599275.1, -15883.406, -0.052778605, -0.22163838, -1590586.8, 23566.207, 0.0003918232, 9.999877, 10.000183 
1.1051889e+3, 1.4528805e+2, -1593273.4, -1630154.1, 15499.074, 0.16787235, -0.19370143, -1587625.0, -71469.97, 0.000102570426, 9.999811, 9.999315 
1.1051721e+3, 1.5528765e+2, -1428676.8, -1496531.3, 19087.943, 0.14798078, -0.17221144, -1423675.8, -5512.5166, 0.0000061708192, 10.000253, 9.999347 
1.1051539e+3, 1.652873e+2, -1260130.0, -1201681.9, -21016.041, 0.034182105, -0.21369416, -1194909.9, 125256.11, 0.0000000015512864, 10.00003, 10.000809 
1.105135e+3, 1.7528696e+2, -1268517.6, -1155846.6, -54855.273, -0.11522746, -0.34230936, -1133551.4, 88612.54, 0.0, 9.999306, 10.000798 
1.1051184e+3, 1.8528773e+2, -1240210.4, -1256693.8, -19321.45, -0.08372075, -0.26486158, -1227446.3, -103289.01, 0.0, 9.999533, 9.999325 
1.10510364e+3, 1.9528943e+2, -989000.56, -1081942.1, -7689.163, 0.09022195, -0.03873326, -988368.7, 37778.77, 0.0, 10.000575, 9.999348 
1.1050868e+3, 2.0528823e+2, -833226.8, -940947.0, -46133.887, 0.1138426, -0.0968282, -816169.75, 111988.64, 0.0, 10.000906, 9.999487 
1.1050679e+3, 2.1528439e+2, -775740.6, -863418.06, -45207.105, 0.011196205, -0.43909547, -756607.0, 73581.51, 0.0, 10.000633, 9.999476 
1.1050511e+3, 2.2528364e+2, -812587.44, -956680.9, 54548.23, 0.026369652, -0.40154096, -794266.94, -62069.527, 0.0, 10.000251, 9.998345 
1.1050364e+3, 2.3528552e+2, -787248.1, -887717.94, 93018.195, 0.14432967, -0.05692395, -731766.75, -97578.49, 0.0, 9.999726, 9.9984 
1.1050188e+3, 2.452847e+2, -532954.3, -551376.75, -10594.282, 0.13792971, -0.048466936, -528126.8, 8069.771, 0.0, 10.000096, 9.99986 
1.1049988e+3, 2.5528142e+2, -266076.72, -372197.25, -52078.176, 0.022822864, -0.3730451, -244789.63, 193431.45, 0.0, 10.001259, 9.999856 
1.1049803e+3, 2.6528078e+2, -194750.77, -422765.7, -8938.768, -0.00091351336, -0.35855135, -194400.88, 145824.64, 0.00000018749917, 10.001657, 9.998645 
1.1049633e+3, 2.752824e+2, -149142.3, -350272.44, -1037.4701, 0.054768853, -0.06944909, -149136.95, 93075.66, 0.0000025324416, 10.001298, 9.998642 
1.1049447e+3, 2.852811e+2, -114441.37, -374288.94, -41886.5, -0.0056230077, -0.020465722, -107856.3, 36370.363, 0.000018771152, 10.00126, 9.997823 
1.1049245e+3, 2.9527706e+2, 12360.994, -262912.56, -75634.305, -0.15757406, -0.21514739, 31773.35, 78038.44, 0.0001004618, 10.001457, 9.997821 
1.10490784e+3, 3.052741e+2, 56856.477, -272942.47, -1293.7053, -0.06955358, -0.2629837, 56861.55, 56861.55, 0.00031494282, 10.001661, 9.997327 
1.1048938e+3, 3.1527e+2, 180030.42, -26662.904, 4183.642, 0.19600464, -0.42214757, 180115.08, 180115.08, 0.0006609386, 10.001693, 9.998997 
1.1152255e+3, 1.253048e+2, -1680947.9, -1768839.5, -81806.53, 0.28843668, -0.33654365, -1632030.6, 79953.95, 0.000944546, 10.000529, 9.999361 
1.1152039e+3, 1.3530454e+2, -1689822.9, -1744063.5, -35277.547, -0.026653728, -0.28655466, -1672445.8, -58454.938, 0.00045159098, 9.999885, 9.999183 
1.1151886e+3, 1.4530423e+2, -1562648.0, -1580510.4, 28469.334, 0.14831717, -0.25575113, -1541741.8, -25744.082, 0.00012308804, 9.999866, 9.999633 
1.1151715e+3, 1.5530424e+2, -1408032.5, -1453900.3, 37109.746, 0.058139987, -0.2268421, -1387341.9, 30659.55, 0.000008505592, 10.000251, 9.999641 
1.1151536e+3, 1.6530478e+2, -1317165.8, -1320763.6, -53951.754, -0.013026783, -0.15269516, -1264982.9, 55014.727, 0.0000000033697685, 10.00003, 9.999994 
1.1151354e+3, 1.7530574e+2, -1318103.1, -1266626.0, -75982.516, -0.016831042, -0.06504439, -1212141.1, 9846.396, 0.0, 9.999337, 10.000026 
1.1151188e+3, 1.853057e+2, -1209435.3, -1194217.3, 15437.108, -0.004052593, -0.056611266, -1184615.8, -60625.98, 0.0, 9.999539, 9.99975 
1.1151035e+3, 1.9530463e+2, -966661.06, -1025955.25, 32647.38, 0.01032753, -0.14941424, -952208.25, 73795.92, 0.0, 10.000533, 9.999752 
1.1150867e+3, 2.0530416e+2, -833415.94, -930042.8, -63900.24, 0.013397651, -0.15960103, -801620.5, 126386.89, 0.0, 10.000855, 9.999585 
1.1150686e+3, 2.1530409e+2, -773606.94, -848067.25, -51625.707, 0.009700534, -0.13477679, -747187.25, 82814.64, 0.0, 10.000584, 9.999606 
1.115052e+3, 2.2530332e+2, -734851.0, -784622.56, 30425.473, 0.07161309, -0.16601615, -720430.1, 11577.368, 0.0, 10.000206, 9.999549 
1.11503676e+3, 2.3530188e+2, -711927.0, -723225.4, 79264.28, 0.19582257, -0.27501506, -638110.9, -4087.4067, 0.0, 9.999689, 9.999548 
1.1150192e+3, 2.4530154e+2, -608833.4, -699555.4, 30118.174, 0.15742539, -0.22487526, -599745.06, -63717.11, 0.0, 10.000052, 9.998865 
1.11499965e+3, 2.5530207e+2, -334268.53, -514011.2, -3356.3901, -0.026893806, -0.06829238, -334205.88, 103817.41, 0.0, 10.001255, 9.998886 
1.11498185e+3, 2.6530066e+2, -173396.69, -372352.38, -25832.227, -0.02230933, -0.102048986, -170097.36, 169937.2, 0.00000020790911, 10.00163, 9.999005 
1.1149657e+3, 2.7529743e+2, -129408.625, -303781.1, -6388.273, 0.15213777, -0.33758342, -129174.91, 112885.72, 0.0000030041272, 10.00127, 9.998976 
1.1149474e+3, 2.8529498e+2, -179736.52, -496286.75, -35874.59, 0.13779284, -0.37465662, -175721.78, -31636.018, 0.000021469468, 10.001202, 9.997012 
1.1149272e+3, 2.9529315e+2, -43037.2, -376113.84, -58693.336, -0.04338905, -0.2725577, -32997.152, 13113.807, 0.00010445724, 10.001446, 9.997049 
1.1149098e+3, 3.0529264e+2, 101364.04, -172294.64, -651.74316, -0.048109356, -0.07225913, 101365.59, 101365.59, 0.00031704624, 10.001632, 9.998032 
1.11489415e+3, 3.1529108e+2, 211875.23, 60883.094, 18154.602, 0.042974487, -0.04529468, 214027.38, 214027.38, 0.00065944524, 10.001605, 9.99964 
1.12522386e+3, 1.2532213e+2, -1966882.6, -1885222.9, -192317.83, 0.19711292, -0.24802293, -1729448.5, -17628.414, 0.0010643419, 9.998466, 9.999563 
1.1252046e+3, 1.3532141e+2, -1553641.5, -1662779.0, -41698.355, 0.026168875, -0.25943875, -1539533.5, 74296.734, 0.00051804923, 10.000751, 9.999323 
1.1251894e+3, 1.4532119e+2, -1365827.3, -1467308.4, 17820.06, 0.16961725, -0.2344461, -1362789.0, 153046.19, 0.00014661087, 10.001137, 9.999798 
1.1251708e+3, 1.5532164e+2, -1463951.8, -1464062.9, 3070.3752, -0.017184008, -0.18015994, -1460936.5, -43102.973, 0.00001150662, 9.999793, 9.999794 
1.1251529e+3, 1.6532208e+2, -1367930.5, -1367825.6, -31898.76, -0.06395536, -0.111249514, -1335979.3, -16148.535, 0.0000000061074554, 9.999781, 9.999788 
1.12513624e+3, 1.7532249e+2, -1091789.5, -1179430.0, -18852.256, 0.058434207, -0.05788546, -1087906.4, 133920.83, 0.0, 10.000986, 9.999827 
1.1251196e+3, 1.8532242e+2, -1054949.6, -1124795.5, 58986.19, 0.077931695, -0.039466865, -1021323.44, 102506.74, 0.0, 10.000618, 9.99971 
1.125103e+3, 1.953218e+2, -1206078.8, -1145321.1, 34785.79, -0.011051062, -0.084083796, -1129516.4, -103676.125, 0.0, 9.998898, 9.999727 
1.1250862e+3, 2.0532158e+2, -1089771.8, -1013615.0, -18852.012, -0.025785943, -0.08535505, -1009203.8, -81362.86, 0.0, 9.998928, 9.999936 
1.1250692e+3, 2.1532163e+2, -758739.9, -800015.8, -786.2338, 0.029784106, -0.084999375, -758724.94, 71109.65, 0.0, 10.000512, 9.999967 
1.12505265e+3, 2.2532105e+2, -586452.3, -668510.1, 24419.271, 0.08226785, -0.13429414, -579735.3, 152101.23, 0.0, 10.001032, 9.999952 
1.12503625e+3, 2.353199e+2, -546790.25, -598336.3, 4895.8774, 0.13310625, -0.25430563, -546329.4, 87516.805, 0.0, 10.000635, 9.999949 
1.1250189e+3, 2.4531959e+2, -539036.9, -699123.75, 9241.002, 0.09180581, -0.20640302, -538505.25, -2655.327, 0.0, 10.000678, 9.998563 
1.1250007e+3, 2.553199e+2, -379810.1, -570268.4, 19478.637, -0.03258063, -0.04178971, -377838.38, 60011.074, 0.0, 10.001092, 9.998576 
1.1249835e+3, 2.653182e+2, -241794.4, -428486.88, -30653.81, 0.0029028757, -0.077160016, -236890.08, 102974.62, 0.00000016860811, 10.001266, 9.998791 
1.1249672e+3, 2.753146e+2, -153376.83, -335337.3, -66020.09, 0.18303688, -0.3277679, -131946.84, 109947.85, 0.0000038179373, 10.001202, 9.998787 
1.1249492e+3, 2.853121e+2, -82244.305, -418954.16, -33320.645, 0.17974404, -0.37808007, -78978.58, 64941.594, 0.000026281929, 10.001734, 9.997291 
1.1249299e+3, 2.953105e+2, 161908.45, -244846.97, 15216.51, 0.016665125, -0.28228623, 162476.9, 208419.06, 0.00011318937, 10.002715, 9.997338 
1.1249129e+3, 3.0531055e+2, 323924.97, -69021.61, 69651.18, 0.011654023, -0.03712493, 335905.6, 335905.6, 0.0003258272, 10.003188, 9.997988 
1.12489685e+3, 3.1530964e+2, 420338.5, 139814.72, 17703.002, 0.079152, 0.061345175, 421451.25, 421451.25, 0.0006650931, 10.003119, 9.999462 
1.1352203e+3, 1.253392e+2, -1867674.8, -1683353.1, -142863.19, -0.028772462, -0.035867497, -1605503.6, 106164.19, 0.0011953667, 9.998499, 10.000925 
1.1352057e+3, 1.3533874e+2, -1472314.4, -1481450.4, 44644.824, 0.055651173, -0.14960314, -1432004.5, 181665.47, 0.00059164723, 10.000708, 10.000584 
1.1351906e+3, 1.4533898e+2, -1369825.9, -1469521.0, -35924.254, 0.17803328, -0.13963564, -1358229.8, 157437.14, 0.00017336896, 10.001104, 9.999803 
1.1351697e+3, 1.553399e+2, -1459248.4, -1459467.1, -38331.04, -0.11632694, -0.039657664, -1421026.5, -3367.6233, 0.000015247707, 9.999812, 9.999819 
1.1351518e+3, 1.6533935e+2, -1339888.4, -1314856.1, 9172.245, -0.16200304, -0.088006906, -1311855.1, 7808.5728, 0.000000009421829, 9.9998, 10.000142 
1.13513745e+3, 1.7533745e+2, -1069986.3, -1133015.5, 26355.836, 0.06820128, -0.3047088, -1060418.0, 161262.83, 0.0, 10.000978, 10.00015 
1.1351208e+3, 1.8533811e+2, -1091362.8, -1198999.0, -11101.627, 0.118873425, -0.20212175, -1090229.6, 33447.406, 0.0, 10.000611, 9.999205 
1.1351019e+3, 1.953409e+2, -1238750.0, -1212471.8, -22296.482, -0.01300474, 0.14674434, -1199731.0, -174075.19, 0.0, 9.998893, 9.9992695 
1.1350849e+3, 2.0534046e+2, -1052690.1, -933105.7, 34918.15, -0.041724347, 0.114536956, -923656.4, 4003.0115, 0.0, 9.998911, 10.000498 
1.13506995e+3, 2.153371e+2, -729524.75, -727295.6, 57723.56, 0.033609096, -0.28225747, -670675.9, 159009.58, 0.0, 10.000458, 10.000494 
1.1350531e+3, 2.2533695e+2, -623538.6, -729933.7, 2363.3699, 0.01716925, -0.29370967, -623486.1, 108196.95, 0.0, 10.000967, 9.999559 
1.1350348e+3, 2.3533957e+2, -579897.6, -656238.06, -6327.963, -0.08290404, 0.0014437414, -579376.6, 54279.797, 0.0, 10.000588, 9.999573 
1.1350177e+3, 2.4533874e+2, -517125.16, -646060.8, 19764.527, -0.09537402, -0.0030115256, -514163.5, 21499.822, 0.0, 10.000643, 9.998945 
1.1350019e+3, 2.5533488e+2, -357494.0, -517210.53, 38151.0, -0.029626673, -0.2977275, -348848.9, 88850.98, 0.0, 10.001062, 9.998956 
1.13498524e+3, 2.6533344e+2, -303146.44, -547668.06, -35104.277, 0.036638197, -0.2831072, -298206.56, 41509.08, 0.00000020663475, 10.001228, 9.997993 
1.13496765e+3, 2.75334e+2, -208087.44, -446912.22, -59941.215, 0.10392552, -0.035498116, -193887.45, 47827.152, 0.0000055002247, 10.00119, 9.99803 
1.1349501e+3, 2.8533238e+2, 9768.872, -222866.14, 20.759974, 0.07654184, -0.029635979, 9768.874, 153499.34, 0.00003348498, 10.001714, 9.998646 
1.13493234e+3, 2.953289e+2, 249312.14, -56818.3, 57453.586, -0.023754504, -0.25570795, 259739.66, 305499.97, 0.00012691141, 10.002686, 9.998646 
1.1349166e+3, 3.0532762e+2, 262663.2, -183685.0, 65442.63, 0.06608745, -0.16734505, 272060.4, 272060.4, 0.00034269877, 10.003138, 9.99722 
1.13490164e+3, 3.1532565e+2, 345406.56, 1238.2618, 27853.934, 0.22247705, -0.10221046, 347646.25, 347646.25, 0.00068300014, 10.0030575, 9.998531 
1.1452201e+3, 1.253564e+2, -1693392.1, -1610800.8, 16740.965, 0.0410777, 0.012716105, -1607536.4, 103967.48, 0.0013373722, 9.999717, 10.0008545 
1.14520535e+3, 1.3535605e+2, -1654809.0, -1576545.3, 110162.09, 0.016491262, -0.08295431, -1498771.3, 114734.78, 0.000672049, 9.999463, 10.000547 
1.1451897e+3, 1.4535663e+2, -1547793.4, -1489939.9, -32980.164, 0.061049007, -0.06814071, -1474998.1, 40500.297, 0.0002032588, 9.999607, 10.00038 
1.14516996e+3, 1.5535772e+2, -1392322.5, -1369693.5, -9513.945, -0.082825676, -0.005591448, -1366225.1, 51260.418, 0.000019742625, 10.000024, 10.000332 
1.1451521e+3, 1.6535723e+2, -1353153.0, -1371973.5, 60710.76, -0.1147341, -0.047838, -1301127.5, 18362.55, 0.000000013934886, 9.999931, 9.999685 
1.14513695e+3, 1.7535533e+2, -1324350.5, -1303686.0, 8972.56, 0.0024633466, -0.21989772, -1300333.9, -78823.22, 0.0, 9.99944, 9.99972 
1.1451203e+3, 1.8535554e+2, -1205702.6, -1199190.9, -37716.695, 0.05851121, -0.16479498, -1164589.9, -41080.473, 0.0, 9.999602, 9.999683 
1.1451021e+3, 1.9535758e+2, -993179.3, -1041952.44, 15093.112, 0.036821008, 0.059058227, -988886.5, 36602.92, 0.0, 10.00037, 9.999719 
1.1450852e+3, 2.0535718e+2, -845876.2, -918777.4, 105207.49, 0.00406119, 0.04909777, -770983.75, 156509.42, 0.0, 10.000694, 9.999742 
1.1450698e+3, 2.1535456e+2, -758996.06, -821793.6, 21912.59, -0.024248583, -0.19581544, -752105.9, 77412.414, 0.0, 10.000605, 9.999776 
1.1450531e+3, 2.2535425e+2, -650667.4, -747447.44, -81970.0, -0.064466044, -0.18984921, -603869.8, 127649.74, 0.0, 10.000794, 9.999523 
1.14503525e+3, 2.3535581e+2, -492558.75, -619284.8, -72716.8, -0.11898095, 0.0040948684, -459471.75, 174029.28, 0.0, 10.001198, 9.999539 
1.1450187e+3, 2.4535477e+2, -446397.75, -578732.7, -36275.56, -0.07950149, -0.035170015, -437106.28, 98402.19, 0.0, 10.000989, 9.99924 
1.1450033e+3, 2.553514e+2, -451403.66, -528471.5, -36044.074, 0.043570183, -0.3086875, -437173.6, 365.53983, 0.0, 10.00028, 9.99925 
1.1449867e+3, 2.6535043e+2, -375722.84, -583697.1, -44156.02, 0.08701623, -0.2625552, -366736.2, -27185.354, 0.00000038376965, 10.0007305, 9.997988 
1.1449689e+3, 2.7535143e+2, -63367.0, -377593.16, -16097.659, 0.060332514, 0.028502367, -62544.477, 179002.67, 0.0000075917305, 10.002178, 9.998032 
1.14495166e+3, 2.853499e+2, 174908.73, -122433.23, 25296.652, 0.024716733, 0.03614159, 177045.52, 320606.84, 0.00004126663, 10.002761, 9.998831 
1.14493504e+3, 2.9534626e+2, 239917.78, -41642.13, -15963.526, -0.008273634, -0.22661707, 240819.97, 286410.3, 0.00014267156, 10.002537, 9.998821 
1.1449199e+3, 3.0534467e+2, 227667.16, -202597.89, -12795.865, 0.1029343, -0.18134771, 228047.36, 228047.36, 0.00036406744, 10.002894, 9.997211 
1.144905e+3, 3.15342e+2, 422890.97, 22473.822, -14041.015, 0.23577242, -0.18302353, 423382.72, 423382.72, 0.00071071996, 10.003659, 9.998384 
1.1552225e+3, 1.2537372e+2, -1789728.5, -1803704.4, -7817.0894, 0.29958698, -0.09873763, -1786231.4, -74901.61, 0.001489488, 9.999692, 9.9995365 
1.1552035e+3, 1.3537358e+2, -1734474.0, -1743369.4, 108034.836, -0.12884459, -0.05014811, -1630795.4, -17459.21, 0.00075867696, 9.999475, 9.99939 
1.15518674e+3, 1.4537434e+2, -1472848.0, -1344182.8, -19861.086, -0.2091394, -0.012171545, -1341186.8, 174140.84, 0.0002361324, 9.999639, 10.001371 
1.1551712e+3, 1.5537524e+2, -1324644.8, -1231735.0, 7104.1504, 0.029198464, -0.070744336, -1231194.9, 186117.4, 0.000024990082, 10.00003, 10.001279 
1.1551536e+3, 1.6537578e+2, -1441312.3, -1554477.4, 34372.336, 0.019081697, 0.006104412, -1431690.3, -112380.664, 0.000000023716384, 9.999928, 9.998436 
1.15513474e+3, 1.7537603e+2, -1404926.1, -1468826.1, -5605.024, -0.17061563, 0.1748099, -1404438.1, -183120.78, 0.0, 9.9994335, 9.998589 
1.15511805e+3, 1.853747e+2, -1106107.9, -996059.56, -13923.815, -0.13144556, 0.059590053, -994325.2, 129001.97, 0.0, 9.999612, 10.001077 
1.155103e+3, 1.9537196e+2, -905527.56, -858616.2, 44574.695, 0.09231497, -0.33601764, -831702.56, 193637.34, 0.0, 10.000357, 10.000987 
1.1550865e+3, 2.0537187e+2, -994509.0, -1217793.0, 92816.58, 0.06230555, -0.2687755, -960965.4, -33624.234, 0.0, 10.000655, 9.997706 
1.1550689e+3, 2.1537402e+2, -902382.0, -1107318.3, 22111.87, -0.18397182, 0.16419409, -900023.4, -70690.13, 0.0, 10.00055, 9.997842 
1.1550526e+3, 2.2537285e+2, -638751.6, -707589.2, -71379.81, -0.19592704, 0.16174161, -593925.7, 137420.84, 0.0, 10.0007305, 9.999827 
1.1550376e+3, 2.3536873e+2, -478288.7, -577591.0, -54345.266, -0.01254669, -0.24533693, -454328.38, 179050.4, 0.0, 10.001149, 9.999847 
1.15502164e+3, 2.453678e+2, -442691.75, -560220.44, -68817.29, 0.09854714, -0.2961511, -410962.63, 124421.46, 0.0, 10.000941, 9.99939 
1.15500465e+3, 2.5536954e+2, -445697.8, -507176.8, -56941.57, 0.14845586, -0.07359751, -411728.28, 25638.46, 0.0, 10.000238, 9.999416 
1.1549878e+3, 2.6536915e+2, -326743.22, -473752.38, 6713.786, 0.1195941, -0.019064592, -326437.25, 12933.244, 0.0000005356376, 10.000694, 9.99876 
1.1549707e+3, 2.7536675e+2, -15952.525, -269220.0, 41974.434, 0.01467991, -0.14425269, -9177.28, 232216.03, 0.000008957139, 10.002135, 9.998796 
1.1549541e+3, 2.853647e+2, 100653.96, -262179.72, 14461.923, -0.019008592, -0.18518017, 101229.48, 244642.44, 0.000047151985, 10.002702, 9.997898 
1.154938e+3, 2.9536265e+2, 172138.22, -177958.73, -13613.72, 0.018914476, -0.18879649, 172666.8, 218098.05, 0.00015594735, 10.002514, 9.997897 
1.1549226e+3, 3.0536163e+2, 266284.63, -112309.81, 16365.354, 0.07969912, -0.0725165, 266990.75, 266990.75, 0.0003853337, 10.002856, 9.997847 
1.1549068e+3, 3.1535858e+2, 449026.5, 93781.76, 27035.96, 0.034134403, -0.18008345, 451072.28, 451072.28, 0.00074189703, 10.003588, 9.998908 
1.1652218e+3, 1.2539147e+2, -1760610.6, -1806984.6, -79050.12, 0.24944223, -0.05237081, -1701417.0, 9739.658, 0.0016512593, 9.99997, 9.999372 
1.1652036e+3, 1.3539085e+2, -1769126.4, -1774705.9, 91290.695, -0.04526146, -0.042273674, -1680582.9, -67415.89, 0.0008513687, 9.999294, 9.999263 
1.1651862e+3, 1.4539112e+2, -1600889.1, -1477429.5, -27546.334, -0.20042245, -0.011733235, -1471562.3, 43602.11, 0.00027198074, 9.999077, 10.000724 
1.1651709e+3, 1.5539122e+2, -1483283.0, -1375556.5, -132366.23, 0.049520835, -0.08604068, -1286514.0, 130646.23, 0.00003101119, 9.999236, 10.000672 
1.16515346e+3, 1.6539189e+2, -1486086.6, -1526215.3, -100241.53, 0.05316277, 0.009655041, -1403921.0, -84765.016, 0.00000004774233, 9.999409, 9.9988785 
1.1651346e+3, 1.7539312e+2, -1345793.8, -1395934.6, -25665.742, -0.13462815, 0.23210268, -1334985.9, -113834.43, 0.0, 9.999647, 9.998987 
1.16511814e+3, 1.8539171e+2, -1066739.3, -1041211.06, -15649.272, -0.103453696, 0.11722409, -1033780.56, 89381.31, 0.0, 10.000154, 10.000506 
1.1651038e+3, 1.9538791e+2, -864269.5, -898183.9, -109538.27, 0.10770641, -0.324295, -770383.7, 254802.9, 0.0, 10.000894, 10.000459 
1.1650874e+3, 2.0538762e+2, -937992.9, -1148524.5, -64564.332, 0.07610854, -0.27378806, -919770.06, 7419.685, 0.0, 10.000866, 9.9980755 
1.1650695e+3, 2.1539031e+2, -932303.4, -1081613.3, 31064.63, -0.15941268, 0.17367058, -926098.1, -96923.56, 0.0, 10.000175, 9.998196 
1.1650533e+3, 2.2538944e+2, -772109.9, -783144.56, 33384.137, -0.15456544, 0.19142354, -743790.2, -12605.348, 0.0, 9.999865, 9.999724 
1.1650387e+3, 2.3538537e+2, -672543.5, -682356.2, 8505.106, 0.05735962, -0.19752498, -667631.0, -34412.453, 0.0, 9.9998665, 9.999743 
1.1650227e+3, 2.4538438e+2, -546797.25, -619689.9, -28289.54, 0.16051574, -0.24492754, -537106.44, -1881.7045, 0.0, 10.00027, 9.999304 
1.1650055e+3, 2.55386e+2, -340142.6, -468144.3, -43053.207, 0.16878082, -0.025361607, -327009.22, 110198.3, 0.0, 10.001005, 9.99932 
1.16498865e+3, 2.6538527e+2, -223753.5, -413732.44, 18592.422, 0.111622155, -0.00060680666, -221951.03, 117261.55, 0.00000056359414, 10.001361, 9.998848 
1.16497226e+3, 2.753825e+2, -120442.92, -312506.38, -12885.902, -0.0042891894, -0.17801626, -119582.234, 121655.375, 0.0000092835935, 10.001392, 9.998857 
1.1649563e+3, 2.853801e+2, -54489.37, -389017.7, -56141.523, -0.017505836, -0.2265551, -45318.926, 97941.42, 0.000049926817, 10.001853, 9.997439 
1.1649409e+3, 2.9537803e+2, 164038.03, -225158.31, -59439.04, 0.0649234, -0.191063, 172913.33, 218194.86, 0.00016435768, 10.002656, 9.9975 
1.1649258e+3, 3.05377e+2, 313191.88, -99682.75, -19965.674, 0.09826749, -0.051940218, 314155.13, 314155.13, 0.00040264626, 10.0032215, 9.997763 
1.1649097e+3, 3.1537396e+2, 403115.66, 38392.88, -76256.28, -0.030154442, -0.14668061, 418417.34, 418417.34, 0.0007699058, 10.003408, 9.998626 
1.1752182e+3, 1.2540963e+2, -1705861.6, -1688093.8, -78266.92, -0.12444639, 0.12472609, -1618208.1, 92776.17, 0.0018234614, 9.999953, 10.0001955 
1.1752057e+3, 1.3540795e+2, -1713396.1, -1660541.0, 69304.39, 0.21777976, -0.061471567, -1612796.4, 200.9227, 0.0009506097, 9.999298, 10.000046 
1.1751875e+3, 1.4540714e+2, -1755150.1, -1799073.5, -23855.348, 0.019799499, -0.065487385, -1744686.6, -229679.08, 0.00031097958, 9.999081, 9.998515 
1.1751692e+3, 1.5540582e+2, -1622127.3, -1670136.6, -117973.65, -0.059743047, -0.057835806, -1525740.9, -108713.94, 0.00003785508, 9.999266, 9.998636 
1.175152e+3, 1.6540582e+2, -1339509.9, -1231984.0, -93632.96, -0.049029246, -0.035425004, -1177776.6, 141250.02, 0.00000010132158, 9.999449, 10.00088 
1.17513634e+3, 1.754069e+2, -1215013.9, -1127376.1, -12662.273, 0.06664766, -0.02916619, -1125583.3, 95426.66, 0.0, 9.999658, 10.000826 
1.1751204e+3, 1.8540674e+2, -1242396.5, -1402123.3, 7688.9497, 0.09480503, 0.021224707, -1242027.3, -119015.82, 0.0, 10.00014, 9.998035 
1.17510416e+3, 1.9540544e+2, -1029077.5, -1228759.1, -78575.99, 0.03824144, 0.073274426, -1001865.7, 23163.607, 0.0, 10.000847, 9.998211 
1.1750878e+3, 2.054044e+2, -755538.94, -759564.9, -95592.5, 0.0072693853, 0.0173213, -661938.2, 265100.34, 0.0, 10.000818, 10.000772 
1.1750713e+3, 2.1540353e+2, -759229.2, -710844.0, 9155.076, 0.003054661, -0.15924682, -709169.7, 119871.08, 0.0, 10.000123, 10.000769 
1.1750549e+3, 2.2540411e+2, -818379.5, -867139.1, 26543.814, 0.018545233, -0.0928463, -806718.4, -75684.43, 0.0, 9.99981, 9.999175 
1.1750386e+3, 2.3540582e+2, -716248.5, -759216.44, 13107.789, 0.047494423, 0.14711629, -712565.56, -79545.51, 0.0, 9.999808, 9.999243 
1.1750221e+3, 2.4540457e+2, -577561.06, -676317.5, -5720.6973, 0.06428618, 0.11839946, -577230.8, -42200.54, 0.0, 10.000232, 9.998938 
1.1750055e+3, 2.5540075e+2, -365939.16, -519161.25, -10390.748, 0.06830506, -0.17244034, -365237.72, 71823.93, 0.0, 10.00099, 9.998979 
1.1749893e+3, 2.6539892e+2, -275613.0, -512088.6, 16055.693, 0.030066008, -0.2093348, -274527.88, 64548.97, 0.0000005132723, 10.001323, 9.998191 
1.17497325e+3, 2.753986e+2, -172624.98, -410322.3, -3446.197, -0.045087945, -0.07311606, -172575.03, 68504.836, 0.000009280944, 10.0013485, 9.998205 
1.1749583e+3, 2.8539625e+2, -65622.23, -403952.78, -27995.092, -0.020119853, -0.08130984, -63321.43, 79781.69, 0.000050485156, 10.001814, 9.997356 
1.174944e+3, 2.9539222e+2, 159053.98, -233650.48, -23836.031, 0.08885827, -0.24082275, 160495.47, 205638.45, 0.00016787817, 10.002637, 9.997456 
1.1749293e+3, 3.0539054e+2, 257925.3, -197384.58, -13752.016, 0.1244942, -0.13344002, 258340.28, 258340.28, 0.00041124245, 10.003158, 9.997118 
1.17491305e+3, 3.1538826e+2, 320865.72, -108398.45, -55366.04, -0.04933775, -0.08106306, 327891.78, 327891.78, 0.00078260904, 10.003316, 9.997655 
1.1852179e+3, 1.254252e+2, -1733425.8, -1674230.8, -36677.43, -0.13753888, 0.057004664, -1656698.1, 54133.355, 0.0020081834, 9.999654, 10.000432 
1.185206e+3, 1.3542466e+2, -1673251.0, -1605325.0, 2329.3142, 0.32955268, -0.052474644, -1605245.3, 7587.8135, 0.0010574218, 9.99942, 10.000367 
1.1851871e+3, 1.4542419e+2, -1693663.0, -1794160.8, 10516.495, 0.04488694, -0.02251559, -1692574.4, -177734.25, 0.00035351914, 9.999619, 9.998283 
1.18516855e+3, 1.5542266e+2, -1487657.4, -1628845.0, 46358.887, -0.09753271, -0.017092329, -1473796.4, -56933.08, 0.00004562391, 10.000294, 9.998419 
1.185152e+3, 1.6542204e+2, -1176487.1, -1167340.0, 51193.574, -0.05544939, -0.03736332, -1120516.1, 198352.23, 0.00000019883093, 10.000631, 10.000753 
1.1851375e+3, 1.754222e+2, -1069678.6, -1069184.5, -28741.838, 0.16046396, -0.110790215, -1040688.6, 180169.77, 0.0, 10.0007105, 10.000715 
1.1851213e+3, 1.8542223e+2, -1245243.8, -1422835.9, 8430.374, 0.17528622, -0.028631486, -1244844.4, -121985.29, 0.0, 10.000209, 9.997857 
1.1851037e+3, 1.9542205e+2, -1276524.5, -1365895.1, 79316.05, 0.009126466, 0.15469272, -1230172.5, -205302.9, 0.0, 9.999228, 9.998049 
1.1850874e+3, 2.05421e+2, -998898.6, -859476.4, 50354.88, -0.017752504, 0.099636465, -843191.8, 83686.54, 0.0, 9.999072, 10.00093 
1.1850719e+3, 2.154191e+2, -822423.0, -727002.9, -39504.293, 0.07983904, -0.19654, -712770.7, 116116.32, 0.0, 9.999624, 10.0009 
1.1850558e+3, 2.2541927e+2, -746700.94, -878251.06, -70753.76, 0.08579734, -0.15471695, -715871.4, 15011.969, 0.0, 10.000505, 9.998759 
1.1850389e+3, 2.3542117e+2, -473186.53, -689007.56, -87694.766, 0.008202834, 0.1458867, -442046.5, 190822.89, 0.0, 10.001676, 9.998827 
1.18502244e+3, 2.4541989e+2, -323694.66, -560507.94, -95983.04, -0.0132364435, 0.13521051, -289677.94, 245202.48, 0.0, 10.0020075, 9.998875 
1.1850062e+3, 2.5541583e+2, -270047.47, -481454.7, -91588.09, 0.011352939, -0.17426991, -235888.17, 201025.33, 0.0, 10.001693, 9.998896 
1.184991e+3, 2.6541358e+2, -198084.42, -521194.56, -31677.674, 0.028730161, -0.2280779, -195008.05, 143924.75, 0.0000005059796, 10.002051, 9.99778 
1.1849762e+3, 2.7541274e+2, 28383.52, -356897.7, -45311.72, 0.039981887, -0.10069405, 33640.754, 274582.3, 0.000009346627, 10.002916, 9.997819 
1.1849612e+3, 2.8541055e+2, 106759.07, -289360.63, -50393.387, 0.046244808, -0.087230735, 113069.46, 256032.47, 0.000050141156, 10.0028715, 9.997629 
1.1849459e+3, 2.9540727e+2, 93689.11, -237059.78, -30522.58, 0.05524282, -0.19601795, 96482.24, 141477.02, 0.0001672216, 10.00207, 9.997702 
1.1849319e+3, 3.054054e+2, 177263.6, -248794.39, 51229.957, 0.08791026, -0.115633525, 183337.0, 183337.0, 0.00040719565, 10.002638, 9.997021 
1.18491724e+3, 3.1540272e+2, 432393.88, -100032.65, 29020.367, -0.005523081, -0.09427908, 433970.97, 433970.97, 0.0007697525, 10.004252, 9.997269 
1.1952206e+3, 1.2543839e+2, -1752002.0, -1706911.5, 17265.6, 0.14932887, -0.24749303, -1701059.8, 9637.065, 0.0022081332, 9.999635, 10.000211 
1.19520485e+3, 1.3544112e+2, -1678330.9, -1613619.4, -3978.6184, 0.25613996, -0.01479976, -1613375.8, -703.6986, 0.0011730703, 9.999409, 10.000316 
1.19518496e+3, 1.4544238e+2, -1584553.6, -1568094.5, 29920.324, -0.14794505, 0.10694453, -1545292.6, -30631.195, 0.00040013902, 9.999615, 9.99984 
1.1951688e+3, 1.5544164e+2, -1390682.9, -1425119.8, 72286.14, -0.10166291, 0.03605102, -1333592.8, 83077.266, 0.00005450229, 10.00028, 9.9998255 
1.1951531e+3, 1.6544048e+2, -1325631.9, -1474234.4, 47297.19, -0.013849006, 0.0042614006, -1311855.3, 6826.699, 0.00000035173326, 10.000621, 9.998652 
1.1951377e+3, 1.7543902e+2, -1207878.9, -1351554.1, -24102.207, 0.11164803, -0.022967637, -1203943.4, 16753.48, 0.0, 10.000692, 9.998786 
1.1951209e+3, 1.8543819e+2, -1104726.0, -1132440.8, -33073.33, 0.10150373, -0.035808515, -1082724.3, 39980.08, 0.0, 10.000211, 9.99985 
1.1951028e+3, 1.9543786e+2, -1151132.9, -1104000.8, 47401.13, -0.020425925, -0.06606502, -1074630.8, -49924.39, 0.0, 9.999218, 9.999852 
1.1950863e+3, 2.0543751e+2, -1162903.3, -1197759.5, 63381.73, -0.03852708, -0.017643742, -1114597.3, -187888.39, 0.0, 9.9990635, 9.998611 
1.1950712e+3, 2.1543704e+2, -983342.3, -1051598.5, -15401.106, 0.029289993, 0.059293408, -980028.2, -151315.45, 0.0, 9.999589, 9.998687 
1.19505554e+3, 2.2543499e+2, -775417.94, -928367.3, -32056.738, 0.00523693, 0.0010763011, -768970.9, -38238.56, 0.0, 10.000462, 9.998439 
1.1950395e+3, 2.3543157e+2, -502021.8, -736572.25, -41667.586, -0.095125034, -0.19893855, -494839.56, 137925.9, 0.0, 10.001624, 9.998525 
1.1950236e+3, 2.4543047e+2, -315788.3, -537355.94, -112740.49, -0.11100001, -0.18543491, -268510.53, 266263.44, 0.0, 10.001974, 9.999053 
1.1950074e+3, 2.5543123e+2, -265340.38, -460426.25, -96115.945, -0.05375025, -0.027990114, -225942.1, 210820.44, 0.0, 10.001644, 9.9990635 
1.1949934e+3, 2.6542923e+2, -220296.52, -558381.4, -2802.2427, 0.059016548, -0.0525694, -220273.3, 118506.99, 0.0000006389743, 10.0020075, 9.997548 
1.194981e+3, 2.754248e+2, 13800.614, -381966.1, -9131.627, 0.21191858, -0.26573166, 14011.198, 254834.61, 0.000009277396, 10.002892, 9.997659 
1.19496524e+3, 2.8542298e+2, 147380.94, -199485.27, -85538.305, 0.1500734, -0.24305703, 167327.89, 310168.38, 0.000049688064, 10.002845, 9.998261 
1.1949467e+3, 2.9542324e+2, 129060.55, -155041.47, -47951.355, -0.08896806, -0.059230622, 136935.6, 181772.13, 0.00016438575, 10.002029, 9.998286 
1.1949331e+3, 3.0542165e+2, 188961.86, -205357.9, 113570.65, -0.062312596, 0.006194561, 219332.88, 219332.88, 0.00039412428, 10.002564, 9.99735 
1.194922e+3, 3.1541738e+2, 427881.13, -84404.96, 103405.875, 0.020447223, -0.17163949, 447966.3, 447966.3, 0.0007360574, 10.004155, 9.9974165 
1.20522045e+3, 1.2545365e+2, -1778977.6, -1723581.4, 104.97713, 0.1831788, -0.22277974, -1723581.1, -13032.771, 0.0024257244, 9.999478, 10.00017 
1.2052032e+3, 1.3545619e+2, -1789177.0, -1663801.6, -105225.09, 0.19472428, -0.008556029, -1604006.4, 8520.601, 0.0012988481, 9.998629, 10.000352 
1.2051839e+3, 1.4545766e+2, -1671424.5, -1516366.0, -34421.344, -0.16294983, 0.08938244, -1509068.4, 5444.1914, 0.00045139206, 9.998617, 10.000677 
1.20516956e+3, 1.5545781e+2, -1455167.0, -1367355.8, -57006.496, -0.010345709, 0.024622465, -1339306.9, 77200.88, 0.00006471426, 9.999455, 10.000621 
1.2051539e+3, 1.654569e+2, -1467860.3, -1599737.1, -56883.082, 0.055392455, 0.0048830872, -1446715.0, -128197.43, 0.00000057087306, 9.999885, 9.998147 
1.2051373e+3, 1.7545515e+2, -1339722.4, -1467285.4, -22676.445, 0.04502238, -0.00054677064, -1335811.3, -115271.836, 0.0, 10.000009, 9.9983225 
1.2051204e+3, 1.8545423e+2, -1052353.4, -1066820.9, -44552.266, 0.027816892, -0.020394698, -1014451.44, 108096.43, 0.0, 10.000392, 10.000215 
1.2051032e+3, 1.954539e+2, -870703.2, -934373.9, -88974.82, 0.008797485, -0.08763934, -808039.8, 216506.53, 0.0, 10.000988, 10.000164 
1.2050873e+3, 2.0545317e+2, -817868.5, -1142412.6, -26797.104, 0.009194108, -0.042032603, -815670.75, 110881.84, 0.0, 10.001909, 9.99762 
1.2050724e+3, 2.1545202e+2, -537802.2, -946218.2, -21999.71, 0.021629857, 0.06681797, -536620.56, 291945.4, 0.0, 10.003112, 9.997716 
1.205057e+3, 2.2544931e+2, -483654.75, -821701.6, -30204.623, 0.00063461444, 0.005845757, -480977.16, 249615.39, 0.0, 10.002608, 9.998141 
1.2050411e+3, 2.3544523e+2, -657151.0, -843480.1, -47718.227, -0.049306426, -0.2285839, -645641.5, -13010.794, 0.0, 10.000697, 9.998238 
1.20502554e+3, 2.4544384e+2, -517749.66, -678662.06, -93683.4, -0.042020258, -0.21136792, -474715.88, 59927.28, 0.0, 10.000777, 9.998655 
1.20501004e+3, 2.554446e+2, -163529.4, -453267.1, -131313.45, 0.007780858, -0.01658759, -112872.8, 323762.06, 0.00000000020898414, 10.002516, 9.998696 
1.2049959e+3, 2.6544285e+2, -98865.82, -442652.16, -48275.035, 0.08176463, -0.022510974, -92215.6, 246434.08, 0.00000074892756, 10.002609, 9.998044 
1.2049827e+3, 2.7543896e+2, -172835.81, -418409.7, -12811.26, 0.17384364, -0.23068823, -172169.27, 68515.43, 0.000008958339, 10.001387, 9.998126 
1.2049668e+3, 2.8543708e+2, -41160.266, -313263.06, -75026.48, 0.090650044, -0.22799334, -21844.498, 120857.17, 0.000049074697, 10.001649, 9.998054 
1.2049487e+3, 2.9543677e+2, 269614.6, -105952.53, -116877.0, -0.13582024, -0.07919583, 303016.25, 347720.28, 0.00016160097, 10.003079, 9.9981165 
1.2049357e+3, 3.054349e+2, 252018.69, -103385.24, 23639.742, -0.05587545, -0.064283326, 253584.19, 253584.19, 0.0003810888, 10.002689, 9.997987 
1.2049254e+3, 3.154318e+2, -55507.914, -259855.75, 13819.859, 0.13370311, -0.1902787, -54577.523, -54577.523, 0.00070004223, 10.000597, 9.997914 
1.2152176e+3, 1.2547097e+2, -1767187.5, -1701946.0, 30398.492, -0.05932557, 0.107425965, -1689977.8, 20407.969, 0.0026624324, 9.999501, 10.000301 
1.215201e+3, 1.3547005e+2, -1780474.5, -1652842.1, -131721.61, 0.10904074, -0.030455051, -1570292.1, 42103.45, 0.0014356553, 9.998659, 10.000411 
1.2151837e+3, 1.4547032e+2, -1653203.6, -1488021.1, -6050.556, -0.043809254, -0.066061445, -1487799.8, 26590.54, 0.0005075534, 9.998652, 10.000855 
1.21517055e+3, 1.5547143e+2, -1438602.3, -1336716.3, -20377.875, 0.12803617, -0.05275583, -1332791.8, 83582.45, 0.000076397075, 9.999471, 10.000824 
1.2151545e+3, 1.6547154e+2, -1397200.5, -1456540.5, -58579.063, 0.10512112, -0.03241761, -1361206.1, -42833.086, 0.0000008702971, 9.999897, 9.999123 
1.21513635e+3, 1.7547074e+2, -1277796.1, -1339573.6, -15387.511, -0.07082715, -0.039508358, -1274175.5, -53790.62, 0.0, 10.00001, 9.999199 
1.2151197e+3, 1.8547037e+2, -1134041.4, -1238413.3, -27768.652, -0.07926494, 0.014544677, -1127113.3, -4723.852, 0.0, 10.000399, 9.999035 
1.2151046e+3, 1.9547024e+2, -951477.6, -1098717.6, -61323.145, 0.047236487, 0.08345518, -929283.0, 95105.71, 0.0, 10.000972, 9.999045 
1.21508986e+3, 2.0546806e+2, -805650.5, -1106898.5, 12341.8125, 0.07101092, 0.026142206, -805145.7, 121262.77, 0.0, 10.001865, 9.997883 
1.21507555e+3, 2.1546416e+2, -532507.44, -915549.25, 21978.45, 0.016427761, -0.16838983, -531250.44, 297195.03, 0.0, 10.003029, 9.997965 
1.2150599e+3, 2.2546235e+2, -515223.13, -873310.6, -108600.41, 0.033521023, -0.13563086, -484861.25, 245601.84, 0.0, 10.002546, 9.997819 
1.21504344e+3, 2.3546219e+2, -687560.2, -896119.1, -108207.86, 0.10634328, 0.053292174, -641562.75, -9097.607, 0.0, 10.00065, 9.997901 
1.2150283e+3, 2.4545996e+2, -593343.06, -822247.1, -31812.916, 0.14275901, 0.05321348, -589003.94, -54515.6, 0.0, 10.000722, 9.997693 
1.21501416e+3, 2.5545588e+2, -229247.31, -580584.8, -65104.473, 0.15696241, -0.1404576, -217571.19, 218958.97, 0.00000000018849695, 10.0024805, 9.997835 
1.21499844e+3, 2.6545447e+2, -17163.459, -270673.38, -98940.82, 0.0610321, -0.13499238, 16879.92, 355420.3, 0.00000061447383, 10.002595, 9.999234 
1.2149812e+3, 2.7545524e+2, -103410.03, -264504.5, -46781.81, -0.12774108, 0.00068968354, -90810.09, 149715.03, 0.00000822272, 10.001342, 9.999207 
1.2149658e+3, 2.8545278e+2, -131866.47, -485804.8, -23056.213, -0.18892868, -0.04106166, -130370.86, 12175.651, 0.000047693058, 10.001579, 9.996904 
1.2149519e+3, 2.9544765e+2, 193842.53, -256766.9, -58906.707, -0.13520849, -0.2603968, 201415.94, 246014.55, 0.00015870755, 10.003051, 9.997094 
1.2149397e+3, 3.05445e+2, 309988.16, 28484.785, -59406.39, 0.07055515, -0.3295262, 322011.3, 322011.3, 0.00037049488, 10.002644, 9.998915 
1.21492736e+3, 3.154459e+2, -12246.322, -138197.81, -52053.094, 0.24399833, -0.14442751, 6481.477, 6481.477, 0.0006721225, 10.000469, 9.998809 
1.2252167e+3, 1.2548684e+2, -1743502.0, -1737956.3, 203365.31, -0.12371476, 0.10664086, -1537344.9, 172883.42, 0.0029179724, 9.999854, 9.999897 
1.2252002e+3, 1.3548551e+2, -1601418.5, -1616983.0, -52972.07, 0.08807431, -0.022259241, -1555660.0, 56583.09, 0.0015834377, 10.000098, 9.99997 
1.22518435e+3, 1.4548516e+2, -1495977.6, -1457125.3, 62926.043, 0.08769412, -0.07807048, -1410695.0, 103549.48, 0.00056846405, 9.999933, 10.000445 
1.2251703e+3, 1.5548566e+2, -1453301.3, -1386413.5, -4169.9614, 0.15116107, -0.086084336, -1386154.5, 30080.023, 0.00008951281, 9.999554, 10.000442 
1.225154e+3, 1.6548577e+2, -1404525.0, -1414230.9, -69885.29, 0.08919864, -0.0677716, -1339324.4, -21091.736, 0.0000012652538, 9.999649, 9.999534 
1.22513644e+3, 1.7548554e+2, -1231829.3, -1273820.0, -74024.95, -0.05707211, -0.060520075, -1175879.9, 44357.996, 0.0, 10.000139, 9.999586 
1.2251205e+3, 1.8548512e+2, -1142104.5, -1291211.4, -61140.223, -0.05312636, -0.0056270296, -1120240.4, 2002.337, 0.0, 10.000564, 9.9985895 
1.2251058e+3, 1.954845e+2, -979782.44, -1154684.8, -54015.344, 0.06616325, 0.057962723, -964445.7, 59802.297, 0.0, 10.000973, 9.998656 
1.2250913e+3, 2.054823e+2, -955269.1, -1143543.1, 43536.62, 0.092969246, -0.00015996414, -945689.1, -19420.816, 0.0, 10.000683, 9.998203 
1.22507714e+3, 2.1547875e+2, -982552.56, -1097502.8, 47969.86, 0.050325714, -0.19113864, -965164.5, -136862.77, 0.0, 9.999787, 9.998277 
1.2250618e+3, 2.2547704e+2, -801623.7, -999375.7, -54330.617, 0.06678916, -0.16673887, -787680.06, -57363.32, 0.0, 10.000527, 9.997923 
1.2250453e+3, 2.3547682e+2, -395679.47, -748640.6, -34225.207, 0.12640397, 0.0044496413, -392391.4, 239925.58, 0.0, 10.002622, 9.997963 
1.2250303e+3, 2.454744e+2, -270685.75, -757267.5, 93595.67, 0.14848845, 0.023580648, -253303.27, 281040.28, 0.0, 10.003323, 9.996894 
1.2250167e+3, 2.5547e+2, -219986.36, -659236.7, 59767.105, 0.1437785, -0.12083165, -211999.3, 224393.6, 0.0, 10.002903, 9.997093 
1.2250008e+3, 2.6546824e+2, -5342.1367, -281086.13, -62144.785, 0.032957703, -0.108646765, 8016.359, 346424.72, 0.0000003685213, 10.002747, 9.999092 
1.2249828e+3, 2.7546856e+2, 95445.055, -184565.72, -120673.49, -0.16824824, -0.0002734863, 140273.66, 380670.16, 0.000007319039, 10.002775, 9.999067 
1.2249679e+3, 2.8546616e+2, 18947.53, -416310.22, -41641.98, -0.18198557, -0.029103624, 22895.688, 165313.13, 0.000046575948, 10.00263, 9.996873 
1.22495554e+3, 2.954614e+2, 87443.36, -312376.1, -6272.7505, -0.035282668, -0.20931648, 87541.75, 132008.52, 0.0001562628, 10.002341, 9.997053 
1.22494325e+3, 3.0545813e+2, 309193.8, 8924.325, -50219.35, 0.15988538, -0.32712805, 317370.25, 317370.25, 0.00036177837, 10.002727, 9.998741 
1.2249293e+3, 3.1545874e+2, 430936.2, 65417.277, -149373.42, 0.246917, -0.15259174, 484213.7, 484213.7, 0.00065233634, 10.003535, 9.998746 
1.2352167e+3, 1.2550136e+2, -1796445.0, -1851947.1, 209594.03, -0.13239884, -0.19419411, -1612772.9, 97302.69, 0.0031899144, 9.999873, 9.999103 
1.2352003e+3, 1.3550258e+2, -1654948.1, -1737472.5, -44807.547, 0.08528771, 0.01632298, -1635298.3, -23228.096, 0.0017411282, 10.000141, 9.99912 
1.2351854e+3, 1.4550216e+2, -1556520.3, -1601163.3, 44076.508, 0.19184113, 0.044601522, -1529435.4, -15359.863, 0.0006337289, 10.000004, 9.999429 
1.2351687e+3, 1.5550046e+2, -1513139.8, -1525795.8, -12591.128, 0.029418623, -0.079737365, -1505375.9, -89286.7, 0.00010392506, 9.999611, 9.999462 
1.2351527e+3, 1.6549964e+2, -1403856.9, -1421413.0, -56604.496, -0.024298787, -0.10216107, -1355353.8, -37257.734, 0.0000017603737, 9.999684, 9.999468 
1.2351377e+3, 1.7549965e+2, -1234129.3, -1281317.6, -52817.03, 0.037478887, -0.06637871, -1199876.0, 20220.95, 0.0, 10.000148, 9.999531 
1.2351223e+3, 1.8549864e+2, -1127834.3, -1261826.3, -50884.406, 0.058487732, -0.078302056, -1110701.3, 11405.071, 0.0, 10.000563, 9.998795 
1.23510644e+3, 1.9549674e+2, -966660.94, -1124431.8, -36363.246, 0.03329432, -0.16180843, -958683.25, 65440.355, 0.0, 10.000957, 9.998874 
1.2350915e+3, 2.0549586e+2, -930837.44, -1087338.6, 1927.2004, 0.04217201, -0.11975631, -930813.7, -4681.317, 0.0, 10.00066, 9.998599 
1.2350774e+3, 2.1549577e+2, -959281.2, -1043639.0, 22023.166, 0.081073046, -0.0061828177, -953877.75, -125742.914, 0.0, 9.99976, 9.998661 
1.23506226e+3, 2.2549342e+2, -773816.5, -928355.9, 18185.73, 0.053116746, -0.09010089, -771705.3, -41551.832, 0.0, 10.000472, 9.998436 
1.2350464e+3, 2.3548917e+2, -373804.66, -688620.0, 44960.78, -0.028369965, -0.37236357, -367509.4, 264676.7, 0.0, 10.0025625, 9.998404 
1.2350315e+3, 2.4548718e+2, -321265.2, -854340.1, 71745.766, -0.0684075, -0.29450446, -311777.88, 222430.56, 0.0, 10.003286, 9.996245 
1.2350175e+3, 2.55487e+2, -273973.2, -762319.25, 49834.566, -0.07376478, 0.044087034, -268939.56, 167283.22, 0.0, 10.002858, 9.996409 
1.2350028e+3, 2.654841e+2, -119373.04, -504248.44, -64806.125, -0.04438222, 0.056007374, -108753.84, 229499.94, 0.00000016286783, 10.002688, 9.997587 
1.23498745e+3, 2.7547893e+2, -7607.687, -389392.0, -113275.12, 0.013953576, -0.23379514, 23471.03, 263770.22, 0.0000066111284, 10.002738, 9.997677 
1.23497315e+3, 2.8547713e+2, 92345.766, -258775.23, -56077.406, 0.06546498, -0.19350722, 101084.38, 243399.5, 0.000046430763, 10.002605, 9.997968 
1.2349596e+3, 2.9547802e+2, 149997.02, -174163.19, -7052.7007, 0.11599051, 0.07768455, 150150.38, 194458.47, 0.00015647624, 10.002302, 9.998023 
1.234946e+3, 3.054743e+2, 208706.56, -191939.28, -16828.7, 0.16087347, -0.056599546, 209412.19, 209412.19, 0.00036044128, 10.002687, 9.997381 
1.2349309e+3, 3.1547034e+2, 351160.25, -82276.336, -102920.71, 0.038960703, -0.20996086, 374357.56, 374357.56, 0.0006474148, 10.003464, 9.997761 
1.24521725e+3, 1.2551709e+2, -1787761.6, -1866352.6, 142262.77, -0.057523955, -0.23755881, -1679467.0, 30449.074, 0.003475539, 10.000022, 9.998923 
1.2451998e+3, 1.3551758e+2, -1457013.8, -1666893.9, -65501.14, -0.05243892, -0.07742629, -1438249.3, 173667.44, 0.0019075654, 10.001607, 9.9988985 
1.2451864e+3, 1.4551696e+2, -1299883.1, -1529644.6, 22269.22, 0.1883594, -0.034898832, -1297744.6, 216180.53, 0.0007030745, 10.001993, 9.99896 
1.24516904e+3, 1.5551549e+2, -1294023.9, -1471790.8, -4295.852, 0.01733292, -0.08879485, -1293920.1, 122019.61, 0.00011956255, 10.001343, 9.998998 
1.24515295e+3, 1.6551447e+2, -1249288.4, -1375207.9, -7535.749, -0.018986655, -0.09622997, -1248839.0, 69110.9, 0.0000023468863, 10.000872, 9.999213 
1.2451386e+3, 1.7551394e+2, -1187922.8, -1285245.6, -27468.762, 0.08999515, -0.086805016, -1180705.1, 39250.5, 0.0, 10.000582, 9.999295 
1.2451233e+3, 1.8551277e+2, -1122699.4, -1242262.6, -19204.17, 0.11182308, -0.11178429, -1119690.5, 2275.6694, 0.0, 10.000517, 9.99895 
1.2451074e+3, 1.9551098e+2, -1005241.5, -1129907.1, -14966.727, 0.049455646, -0.2005508, -1003469.8, 20512.14, 0.0, 10.000625, 9.998999 
1.2450924e+3, 2.0551026e+2, -863156.75, -1086706.1, -1216.6777, 0.034300238, -0.13433568, -863150.1, 62840.004, 0.0, 10.001256, 9.998321 
1.2450782e+3, 2.155104e+2, -604696.1, -898126.9, -40527.25, 0.06346628, 0.029498948, -599201.56, 228790.53, 0.0, 10.002307, 9.998434 
1.2450636e+3, 2.2550815e+2, -457053.63, -768174.4, -45562.664, 0.037630968, -0.03809961, -450518.38, 279492.28, 0.0, 10.002613, 9.998506 
1.2450487e+3, 2.3550382e+2, -404233.06, -693636.9, -63517.01, -0.033221845, -0.33703962, -390906.3, 241138.0, 0.0, 10.002307, 9.998492 
1.2450342e+3, 2.4550173e+2, -482189.6, -908921.0, -48759.883, -0.07095779, -0.28595796, -476689.03, 57377.324, 0.0, 10.002085, 9.9964485 
1.2450198e+3, 2.5550145e+2, -393796.84, -799787.7, -16514.713, -0.08018435, 0.024101613, -393126.16, 42952.7, 0.0, 10.001952, 9.996587 
1.2450055e+3, 2.6549843e+2, -173365.92, -588855.5, -19337.059, -0.025194118, 0.04119088, -172467.9, 165644.36, 0.000000050542315, 10.002565, 9.997065 
1.24499135e+3, 2.7549306e+2, 109250.805, -388660.44, -7100.9478, 0.08302278, -0.21815415, 109352.055, 349516.1, 0.000006130949, 10.003773, 9.997188 
1.2449769e+3, 2.8549156e+2, 206844.72, -182771.58, -5888.468, 0.16004628, -0.13379253, 206933.69, 349112.7, 0.0000467863, 10.003312, 9.998146 
1.24496244e+3, 2.954931e+2, 49263.637, -201553.98, -35176.234, 0.21396111, 0.18918934, 54103.58, 98268.695, 0.00016088788, 10.001523, 9.998206 
1.24494836e+3, 3.054893e+2, -21515.303, -299332.13, 54807.758, 0.20262516, 0.031703636, -11093.754, -11093.754, 0.00037296483, 10.00108, 9.997417 
1.24493286e+3, 3.154851e+2, 123619.16, -146119.64, 53545.64, -0.02524132, -0.14522196, 133859.69, 133859.69, 0.00066910277, 10.001699, 9.998172 
1.2552173e+3, 1.2553415e+2, -1754688.3, -1814909.5, 128659.94, -0.071125396, -0.027875166, -1652662.4, 57085.727, 0.0037739007, 10.000077, 9.999255 
1.2551984e+3, 1.3553071e+2, -1435014.6, -1615381.4, -7398.861, -0.34464002, -0.30102938, -1434711.6, 177069.28, 0.0020822603, 10.001579, 9.999265 
1.255187e+3, 1.4552985e+2, -1301500.5, -1527618.5, -7151.0654, 0.051347468, -0.30313575, -1301274.6, 212516.6, 0.0007764397, 10.001966, 9.998988 
1.255171e+3, 1.5553087e+2, -1292407.9, -1467756.6, -24598.27, 0.06855698, -0.110841274, -1289022.5, 126762.58, 0.00013646827, 10.001336, 9.999028 
1.2551548e+3, 1.6553026e+2, -1283810.3, -1449336.1, -24653.752, 0.061256282, -0.052750345, -1280216.3, 37577.492, 0.0000030208696, 10.000877, 9.998703 
1.2551391e+3, 1.755284e+2, -1217830.3, -1352404.8, -34563.324, 0.074156746, -0.12445785, -1209472.3, 10341.268, 0.0, 10.0006, 9.998826 
1.2551235e+3, 1.855275e+2, -1109537.9, -1219799.1, -20513.031, 0.0785365, -0.111105174, -1105845.3, 15976.954, 0.0, 10.000537, 9.999095 
1.2551083e+3, 1.955272e+2, -999948.8, -1116213.6, -6399.2544, 0.06540561, -0.06690858, -999597.7, 24225.643, 0.0, 10.000612, 9.999097 
1.2550937e+3, 2.0552552e+2, -934536.0, -1226054.3, 31074.01, 0.027704682, -0.05019762, -931260.5, -5419.401, 0.0, 10.001218, 9.997384 
1.2550797e+3, 2.1552269e+2, -674423.25, -1033137.7, 87.18664, -0.034034904, -0.08638091, -674423.25, 153449.66, 0.0, 10.002266, 9.997529 
1.2550658e+3, 2.2552124e+2, -489264.3, -822098.9, -62279.87, -0.016415482, -0.015444376, -477992.28, 251896.06, 0.0, 10.002557, 9.998163 
1.2550521e+3, 2.355208e+2, -431448.13, -738312.44, -70042.79, 0.0700978, 0.10733784, -416216.66, 215674.66, 0.0, 10.002253, 9.998213 
1.2550381e+3, 2.4551806e+2, -415702.16, -759015.3, -58503.11, 0.100637525, 0.05220053, -406006.6, 127910.125, 0.0, 10.002034, 9.997501 
1.2550235e+3, 2.5551334e+2, -330302.44, -658317.94, -13459.8955, 0.08654371, -0.18421276, -329751.03, 106210.32, 0.0, 10.001911, 9.997578 
1.2550089e+3, 2.655111e+2, -148071.55, -525943.5, 23188.223, 0.049272794, -0.15889819, -146653.9, 191330.81, 0.00000007625481, 10.00252, 9.997518 
1.2549944e+3, 2.7551088e+2, 128907.35, -334305.3, 40141.203, -0.00514342, 0.04977598, 132360.19, 372351.1, 0.0000061180435, 10.003715, 9.997588 
1.2549794e+3, 2.8550938e+2, 147757.77, -298050.94, -76265.35, 0.055800684, 0.1548718, 160443.64, 302452.38, 0.00004818149, 10.003276, 9.997374 
1.2549642e+3, 2.9550663e+2, -4586.35, -305058.88, -89309.36, 0.22155716, 0.12507738, 19954.666, 63992.66, 0.00017152917, 10.001484, 9.997516 
1.25495e+3, 3.0550295e+2, 71768.4, -95395.41, 77933.42, 0.24166976, -0.056962393, 102464.9, 102464.9, 0.00040416623, 10.001035, 9.998839 
1.2549347e+3, 3.1550294e+2, 228777.6, 104363.69, 88108.76, -0.028672632, 0.034514047, 274426.38, 274426.38, 0.0007265205, 10.001563, 9.999959 
1.2652177e+3, 1.2554702e+2, -1647986.5, -1637135.3, -67758.31, -0.059714485, -0.028959114, -1574585.6, 135040.28, 0.004085261, 10.000258, 10.000396 
1.2651983e+3, 1.3554503e+2, -1699586.8, -1612232.8, -88478.56, -0.41196004, -0.277556, -1557237.9, 54401.65, 0.0022650692, 9.999205, 10.000426 
1.2651877e+3, 1.4554468e+2, -1695976.8, -1699668.4, -54472.97, 0.072318524, -0.2915159, -1643318.4, -129675.36, 0.00085386867, 9.999193, 9.999136 
1.2651715e+3, 1.5554546e+2, -1498433.1, -1552189.4, -78249.055, 0.071431525, -0.1375508, -1442574.6, -26934.107, 0.00015477135, 9.999867, 9.999151 
1.2651555e+3, 1.6554491e+2, -1330711.6, -1480396.4, -40069.355, 0.06577636, -0.074684806, -1320660.4, -3011.1323, 0.0000038088367, 10.000597, 9.998621 
1.2651403e+3, 1.7554337e+2, -1095244.4, -1304078.5, -27767.807, 0.097874194, -0.10851539, -1091615.3, 128051.05, 0.0, 10.001491, 9.998727 
1.2651251e+3, 1.8554237e+2, -945981.2, -1185096.4, -24907.693, 0.10890255, -0.07637594, -943414.25, 178262.16, 0.0, 10.001855, 9.998697 
1.2651098e+3, 1.9554174e+2, -856911.56, -1088255.1, -60204.95, 0.08732524, -0.024473805, -842181.6, 181500.11, 0.0, 10.00178, 9.998726 
1.2650955e+3, 2.0553964e+2, -823567.4, -1160008.8, 35931.145, 0.04533613, -0.03817374, -819772.8, 105930.04, 0.0, 10.001932, 9.997486 
1.265082e+3, 2.1553628e+2, -672300.0, -1026495.0, 67941.87, -0.014870766, -0.13842963, -659714.5, 168023.06, 0.0, 10.002254, 9.997576 
1.2650682e+3, 2.2553468e+2, -593675.56, -935598.94, 1115.5842, 0.0074542505, -0.053532552, -593671.9, 136084.23, 0.0, 10.002111, 9.997597 
1.2650543e+3, 2.3553456e+2, -562120.8, -851711.75, -32028.299, 0.09881229, 0.15623447, -558620.8, 73140.305, 0.0, 10.001581, 9.997754 
1.2650403e+3, 2.4553223e+2, -360410.1, -621046.44, 10575.095, 0.13478361, 0.11124354, -359981.72, 173799.83, 0.0, 10.001932, 9.998498 
1.2650262e+3, 2.555279e+2, -109565.1, -448139.3, 41274.69, 0.1260702, -0.18370137, -104606.05, 331210.28, 0.0, 10.0029745, 9.99851 
1.2650116e+3, 2.6552588e+2, -193235.84, -581691.8, 24212.83, 0.075011976, -0.16886248, -191732.45, 146104.55, 0.00000015326442, 10.0023575, 9.997215 
1.2649964e+3, 2.7552566e+2, -371840.06, -603533.6, -27683.926, -0.009012835, 0.072351694, -368578.16, -128732.26, 0.000006713193, 10.000398, 9.997334 
1.2649806e+3, 2.8552383e+2, -249963.27, -488827.47, -113111.04, 0.0011432173, 0.15581563, -204901.8, -63034.098, 0.000050966704, 10.000535, 9.997383 
1.2649648e+3, 2.9552048e+2, 126673.63, -239599.84, -79145.79, 0.09549534, 0.06632336, 143044.1, 186945.97, 0.00018813205, 10.002376, 9.997535 
1.2649508e+3, 3.055173e+2, 261331.94, 20400.768, 52219.758, 0.17238337, -0.08368664, 272163.2, 272163.2, 0.00045240793, 10.002236, 9.999056 
1.2649368e+3, 3.1551823e+2, 106600.27, 107525.9, -53696.5, 0.08047871, 0.08309024, 160761.58, 160761.58, 0.0008183063, 10.000447, 10.000519 
1.2752165e+3, 1.2555636e+2, -1521283.4, -1367144.4, -200112.94, -0.21473162, -0.20903395, -1229773.0, 479769.9, 0.0044096503, 10.000226, 10.002276 
1.2751986e+3, 1.3556069e+2, -1569424.5, -1341264.0, -117768.76, -0.29726326, -0.01760563, -1291381.5, 320109.16, 0.0024558255, 9.999207, 10.002286 
1.2751883e+3, 1.4556152e+2, -1672070.1, -1665541.5, -31699.47, 0.19257629, -0.015315357, -1636938.6, -123458.76, 0.00093550276, 9.999252, 9.999346 
1.2751707e+3, 1.5555933e+2, -1483980.9, -1529040.0, -47987.08, -0.005103805, -0.17428781, -1453497.8, -37992.758, 0.00017466526, 9.99989, 9.999303 
1.2751551e+3, 1.6555852e+2, -1305307.9, -1432682.5, -12730.34, -0.038662937, -0.16019826, -1304048.0, 13467.223, 0.0000047674703, 10.000613, 9.998942 
1.2751421e+3, 1.7555885e+2, -1076306.3, -1263694.4, 7000.4063, 0.11756716, -0.040987425, -1076045.1, 143468.05, 0.0, 10.001483, 9.999008 
1.2751274e+3, 1.8555751e+2, -1013067.25, -1324042.3, -32294.361, 0.15558213, -0.008102978, -1009748.94, 111778.74, 0.0, 10.001849, 9.997748 
1.2751114e+3, 1.9555478e+2, -914946.5, -1210672.6, -57460.977, 0.07482366, -0.07213947, -904174.0, 119381.87, 0.0, 10.001784, 9.997884 
1.2750974e+3, 2.0555276e+2, -752101.7, -1005829.8, 42351.938, 0.04942967, -0.095223926, -745219.06, 180355.23, 0.0, 10.0019045, 9.99856 
1.2750854e+3, 2.155512e+2, -615085.3, -887984.94, 82129.516, 0.07978696, -0.12312755, -592274.94, 235310.98, 0.0, 10.002169, 9.998569 
1.275071e+3, 2.255486e+2, -660517.75, -1054768.4, -24512.71, 0.06822402, -0.14438134, -658999.5, 70613.875, 0.0, 10.0020275, 9.9968195 
1.2750551e+3, 2.3554513e+2, -616720.44, -956841.5, -42435.746, 0.018225262, -0.19093528, -611505.8, 20147.96, 0.0, 10.001543, 9.997053 
1.275041e+3, 2.4554421e+2, -301544.7, -487263.44, 46182.977, -0.004325047, -0.11038843, -290694.22, 242967.11, 0.0, 10.001884, 9.999438 
1.2750281e+3, 2.5554523e+2, -57248.613, -328055.3, 80271.04, 0.00059443805, 0.031061316, -35243.24, 400400.1, 0.0, 10.002924, 9.999359 
1.2750134e+3, 2.6554275e+2, -274553.13, -742181.5, -53690.996, 0.012688129, 0.020180605, -268467.75, 69200.65, 0.00000020123079, 10.002317, 9.996134 
1.2749971e+3, 2.7553734e+2, -449451.53, -754778.44, -86224.92, 0.0309582, -0.15048717, -426784.25, -187055.03, 0.0000075115454, 10.000353, 9.99632 
1.2749808e+3, 2.8553486e+2, -201794.1, -377189.6, -47591.188, -0.055968978, -0.12634252, -189713.0, -47956.555, 0.000055155855, 10.000488, 9.998166 
1.274964e+3, 2.955346e+2, 166243.28, -143190.16, -7654.8047, -0.21619843, 0.011030306, 166432.53, 210189.92, 0.00020861672, 10.002315, 9.998225 
1.274951e+3, 3.0553207e+2, 180166.7, -137543.64, -16855.266, -0.053369574, -0.0456593, 181058.4, 181058.4, 0.00051069446, 10.002189, 9.997995 
1.2749387e+3, 3.155309e+2, 37140.965, -9665.573, -107984.734, 0.22068104, 0.008364734, 124229.4, 124229.4, 0.0009331976, 10.000339, 9.9997635 
1.285216e+3, 1.2557061e+2, -1845254.1, -1583161.9, -19151.566, -0.17822808, -0.2091622, -1581769.8, 127630.76, 0.0047468157, 9.998239, 10.001753 
1.2851988e+3, 1.3557424e+2, -1470167.5, -1344987.6, -51716.89, -0.25077757, -0.032121237, -1326385.6, 284972.78, 0.0026545508, 10.00012, 10.001817 
1.2851885e+3, 1.4557503e+2, -1417684.4, -1496146.1, -41709.11, 0.20383117, -0.03477471, -1399655.3, 113693.21, 0.0010215283, 10.000798, 9.999763 
1.2851714e+3, 1.5557359e+2, -1360195.0, -1422859.8, -52989.36, 0.044788126, -0.16063759, -1329967.8, 85396.37, 0.00019628371, 10.000542, 9.999715 
1.285156e+3, 1.6557288e+2, -1329936.4, -1432619.4, 2626.7712, 0.0019683961, -0.16349815, -1329869.3, -12497.7, 0.0000059623408, 10.000391, 9.999053 
1.2851427e+3, 1.7557278e+2, -1239370.0, -1331112.0, -850.865, 0.09576425, -0.09623104, -1239362.1, -19990.34, 0.0, 10.000314, 9.999111 
1.2851284e+3, 1.8557116e+2, -1142264.9, -1405765.3, 1308.0696, 0.10352418, -0.08568548, -1142258.4, -20869.385, 0.0, 10.001052, 9.997569 
1.2851131e+3, 1.9556828e+2, -819632.9, -1182017.6, 19716.559, 0.020209527, -0.14698817, -818563.3, 204857.03, 0.0, 10.002518, 9.997726 
1.2850992e+3, 2.055667e+2, -719229.44, -958596.5, 61270.742, 0.03516912, -0.1309916, -704457.56, 220977.58, 0.0, 10.002, 9.998837 
1.2850867e+3, 2.1556613e+2, -931828.9, -1007573.9, 36088.566, 0.13713051, -0.09005259, -917387.8, -89950.23, 0.0, 9.999854, 9.998861 
1.2850727e+3, 2.2556356e+2, -875961.4, -1112214.8, 31928.395, 0.118355975, -0.14436002, -871722.5, -142259.7, 0.0, 10.000351, 9.9972315 
1.2850572e+3, 2.3555936e+2, -385052.13, -804996.4, 85644.32, -0.0031968453, -0.30335286, -368257.3, 263249.4, 0.0, 10.002967, 9.997406 
1.2850428e+3, 2.4555807e+2, -238534.94, -555500.5, 85307.234, -0.055019647, -0.22895813, -217034.06, 316485.06, 0.0, 10.002738, 9.99856 
1.2850292e+3, 2.5555912e+2, -507164.16, -630178.06, -25241.672, -0.044891734, 0.0016969299, -502186.2, -66679.88, 0.0, 10.000207, 9.99859 
1.2850146e+3, 2.655568e+2, -461388.8, -747833.8, -93271.09, -0.007197871, 0.003729435, -433695.6, -96166.18, 0.00000014147287, 10.000669, 9.996888 
1.2849993e+3, 2.7555168e+2, 58751.277, -433437.13, -617.26685, 0.052533347, -0.21610561, 58752.05, 298334.97, 0.00000765521, 10.003511, 9.9970045 
1.2849829e+3, 2.8554893e+2, 223621.81, -244027.25, 37267.28, -0.03782533, -0.2139489, 226573.03, 368184.1, 0.00005963982, 10.003721, 9.99753 
1.2849659e+3, 2.9554805e+2, 47447.813, -270479.25, -46945.23, -0.23524515, -0.07405981, 54234.875, 97854.15, 0.00023270557, 10.001803, 9.997596 
1.2849526e+3, 3.055454e+2, 16022.1455, -319319.7, -101417.03, -0.06383875, -0.07022266, 44307.73, 44307.73, 0.0005779569, 10.001504, 9.997075 
1.2849405e+3, 3.1554317e+2, 295262.13, 35130.703, -207464.1, 0.27109912, -0.023122905, 410060.53, 410060.53, 0.0010646739, 10.002456, 9.999053 
1.295215e+3, 1.2558936e+2, -2028341.4, -1978661.4, -17897.066, -0.12637024, -0.06433757, -1972885.5, -263681.72, 0.0050962004, 9.998308, 9.999004 
1.2951985e+3, 1.3558587e+2, -1661657.1, -1736655.4, 21268.598, -0.29291704, -0.31279767, -1656045.5, -44804.38, 0.0028611089, 10.000105, 9.999126 
1.2951879e+3, 1.4558549e+2, -1376038.8, -1411639.5, -56169.316, 0.066259034, -0.33273154, -1334916.8, 178329.03, 0.00111182, 10.0008, 10.000344 
1.2951733e+3, 1.5558839e+2, -1313313.1, -1332699.6, -58021.438, 0.17202863, -0.08906166, -1264180.9, 151035.63, 0.000219555, 10.000566, 10.000326 
1.2951578e+3, 1.6558804e+2, -1329762.4, -1438070.3, -6957.148, 0.13517733, -0.08397494, -1329317.3, -12099.677, 0.0000074533, 10.000416, 9.999002 
1.2951422e+3, 1.7558528e+2, -1242951.8, -1341628.6, 1426.5303, 0.0014174589, -0.2755296, -1242931.1, -23690.12, 0.0, 10.000327, 9.999032 
1.2951277e+3, 1.8558352e+2, -1105940.9, -1330814.4, 50607.65, -0.07742215, -0.30234832, -1095076.5, 26182.574, 0.0, 10.001051, 9.998086 
1.2951143e+3, 1.9558233e+2, -791005.4, -1114818.8, 71532.266, -0.1113159, -0.24563235, -775907.44, 247367.23, 0.0, 10.002482, 9.998206 
1.2951006e+3, 2.0558153e+2, -759995.0, -1035299.4, -24801.578, -0.038730357, -0.15031615, -757778.5, 167507.19, 0.0, 10.0019655, 9.998326 
1.2950866e+3, 2.1558103e+2, -963784.25, -1068891.1, -30820.988, 0.11994936, -0.05048143, -955413.2, -128120.34, 0.0, 9.999831, 9.998451 
1.2950732e+3, 2.2557954e+2, -774340.75, -892192.75, 125856.87, 0.11856952, -0.05556133, -694298.3, 35006.082, 0.0, 10.000312, 9.99876 
1.2950602e+3, 2.355772e+2, -301814.34, -619097.06, 179092.6, -0.007857539, -0.18571562, -221204.28, 410116.28, 0.0, 10.002908, 9.998712 
1.2950455e+3, 2.4557382e+2, -435439.0, -947845.25, -16256.06, -0.0605839, -0.24192011, -434923.8, 98431.57, 0.0, 10.002668, 9.995899 
1.2950294e+3, 2.5556958e+2, -680147.1, -981051.6, -102789.664, -0.051121388, -0.27552673, -648386.3, -212980.69, 0.0, 10.00017, 9.9962015 
1.2950152e+3, 2.6556802e+2, -287572.34, -378668.4, 11343.083, -0.026873639, -0.21963717, -286181.16, 51239.4, 0.000000052184554, 10.00063, 9.999443 
1.2950024e+3, 2.7556857e+2, 215263.31, -98274.85, 105158.375, 0.0093052285, -0.12454218, 247266.13, 486673.47, 0.000006761853, 10.003466, 9.9993305 
1.2949874e+3, 2.8556606e+2, 72973.13, -547804.25, -38694.527, 0.011118003, -0.10267887, 75375.75, 216807.38, 0.000062792315, 10.003675, 9.995469 
1.29497e+3, 2.955609e+2, -101850.61, -574590.2, -103899.59, -0.0055274903, -0.18561295, -80023.19, -36535.594, 0.00025879944, 10.001769, 9.99553 
1.2949558e+3, 3.0555707e+2, -51645.547, -443884.9, -66918.47, 0.08931638, -0.15014173, -40543.098, -40543.098, 0.0006519277, 10.001447, 9.996242 
1.294942e+3, 3.1555492e+2, 222717.9, -81612.766, -159954.05, 0.14523357, -0.019420808, 291323.0, 291323.0, 0.0012067992, 10.002321, 9.998308 
1.3052148e+3, 1.2560424e+2, -1654800.0, -1836108.4, -109069.54, -0.12258851, -0.16251472, -1603629.1, 105420.65, 0.0054552136, 10.001039, 9.998663 
1.3051996e+3, 1.3560063e+2, -1711388.9, -1827420.0, 94784.17, -0.18229832, -0.3663544, -1658274.6, -47184.508, 0.003073975, 10.000059, 9.998521 
1.305188e+3, 1.4559957e+2, -1530927.9, -1571193.3, 50020.45, 0.03266991, -0.38286352, -1497140.5, 15962.824, 0.0012055306, 10.000105, 9.999582 
1.3051736e+3, 1.5560183e+2, -1286874.3, -1397393.1, -61551.895, 0.12768409, -0.13025671, -1259415.9, 155666.9, 0.000244213, 10.001086, 9.999628 
1.3051586e+3, 1.6560112e+2, -1179011.8, -1365670.6, -62418.41, 0.110341966, -0.12752129, -1160062.8, 157024.92, 0.000009295233, 10.00146, 9.998994 
1.305143e+3, 1.7559822e+2, -1083248.9, -1262311.4, -58383.95, -0.007982757, -0.33259737, -1065894.5, 153216.89, 0.0, 10.001423, 9.999047 
1.3051288e+3, 1.8559667e+2, -1090785.5, -1281382.5, 10945.133, -0.06971477, -0.3569378, -1090159.0, 30967.428, 0.0, 10.000968, 9.998465 
1.3051158e+3, 1.9559607e+2, -1104102.3, -1224071.6, 10085.261, -0.085639514, -0.28317106, -1103260.3, -80124.34, 0.0, 10.000152, 9.998577 
1.3051021e+3, 2.0559534e+2, -911465.8, -1118845.1, -74578.97, -0.02942627, -0.19210044, -887430.9, 37715.785, 0.0, 10.000975, 9.99823 
1.3050877e+3, 2.1559456e+2, -487333.9, -845380.06, -57862.848, 0.08527856, -0.11138198, -478215.1, 348942.9, 0.0, 10.003138, 9.99839 
1.3050745e+3, 2.2559345e+2, -369027.97, -686552.4, 73835.9, 0.09084793, -0.083178766, -352698.28, 376468.25, 0.0, 10.003046, 9.998857 
1.3050623e+3, 2.3559196e+2, -554518.8, -730355.1, 8584.702, 0.013020109, -0.13615946, -554100.6, 77073.16, 0.0, 10.001122, 9.998808 
1.3050477e+3, 2.4558847e+2, -651316.94, -1054883.1, -142366.78, -0.02624413, -0.20805852, -606149.2, -72939.91, 0.0, 10.001198, 9.995873 
1.3050312e+3, 2.5558332e+2, -289710.22, -798396.1, -41819.582, -0.03135582, -0.33009753, -286295.13, 148972.8, 0.0, 10.00287, 9.996157 
1.305017e+3, 2.655815e+2, 12973.185, -270953.03, 90665.36, -0.014514684, -0.27976522, 39455.113, 376741.16, 0.000000019202236, 10.002861, 9.999105 
1.305005e+3, 2.755823e+2, -80871.9, -270192.1, -49087.617, 0.017789476, -0.12686174, -68901.195, 170370.77, 0.0000058574187, 10.00156, 9.9990635 
1.3049902e+3, 2.8557995e+2, -140975.83, -567794.44, -195085.47, 0.03942521, -0.11460366, -65245.254, 76047.98, 0.00006594774, 10.001848, 9.99621 
1.3049732e+3, 2.95575e+2, 180260.31, -360683.28, -59114.035, 0.061592925, -0.25221255, 186644.92, 229988.83, 0.00028478247, 10.003374, 9.996223 
1.3049585e+3, 3.0557162e+2, 198897.1, -346382.66, 113129.63, 0.13385011, -0.19225065, 221436.52, 221436.52, 0.00072544854, 10.003254, 9.996052 
1.3049442e+3, 3.155689e+2, 126981.47, -166481.16, 44622.445, 0.1506278, -0.10001482, 133616.52, 133616.52, 0.0013484193, 10.001809, 9.997984 
1.3152146e+3, 1.2561579e+2, -1529250.3, -1569523.3, -141597.81, -0.25880706, -0.48733425, -1406364.4, 302568.78, 0.005819013, 10.001006, 10.000518 
1.315202e+3, 1.3561848e+2, -1621091.3, -1645276.3, 60676.918, 0.03659888, -0.20470126, -1571313.6, 39592.105, 0.0032902497, 10.000077, 9.999765 
1.3151884e+3, 1.456172e+2, -1665503.4, -1857477.4, 77159.33, 0.04766156, -0.19780736, -1638335.8, -125413.336, 0.0013013786, 10.000137, 9.997604 
1.3151725e+3, 1.5561402e+2, -1425207.5, -1679794.0, -23350.95, -0.114543594, -0.28440252, -1423083.5, -8121.6724, 0.00026992275, 10.001068, 9.9977 
1.315158e+3, 1.6561228e+2, -1180675.3, -1367709.3, -69637.8, -0.09715269, -0.29093793, -1157595.3, 159384.78, 0.00001153221, 10.001448, 9.998989 
1.3151447e+3, 1.7561162e+2, -1075722.8, -1252090.0, -56832.008, 0.030912641, -0.27596816, -1058995.9, 159986.47, 0.0, 10.00144, 9.999111 
1.3151313e+3, 1.8561067e+2, -1073214.3, -1245264.9, -24359.09, 0.074956305, -0.25892577, -1069832.0, 51158.742, 0.0, 10.000972, 9.998711 
1.3151175e+3, 1.9560947e+2, -1092761.8, -1194689.4, -11516.719, 0.05560177, -0.2658153, -1091476.6, -68472.664, 0.0, 10.000125, 9.998794 
1.3151038e+3, 2.0560819e+2, -895112.6, -1074392.6, 1204.4766, 0.02724766, -0.25625476, -895104.56, 29913.27, 0.0, 10.000929, 9.998557 
1.3150899e+3, 2.1560678e+2, -481173.34, -817811.56, 19908.63, -0.0050523076, -0.2722182, -480000.06, 347032.7, 0.0, 10.003071, 9.998613 
1.3150766e+3, 2.256053e+2, -468959.13, -876579.75, -3134.7654, -0.009039105, -0.22312847, -468935.03, 260113.61, 0.0, 10.002971, 9.997589 
1.3150635e+3, 2.3560373e+2, -636426.4, -889701.06, -48435.08, 0.012773682, -0.15774348, -627479.9, 3585.9414, 0.0, 10.001074, 9.99774 
1.3150494e+3, 2.4560207e+2, -481348.03, -690092.7, -82834.66, 0.0032119334, -0.12790374, -452471.88, 80608.555, 0.0, 10.001146, 9.998403 
1.315034e+3, 2.5560036e+2, -143042.63, -480549.75, 22139.223, -0.025734967, -0.15853408, -141596.56, 293496.47, 0.0, 10.002812, 9.998368 
1.31502e+3, 2.655972e+2, -221804.31, -745521.44, 37382.406, -0.013718543, -0.17547391, -219149.45, 117976.98, 0.000000054232096, 10.002802, 9.995875 
1.3150068e+3, 2.755928e+2, -288878.53, -690078.75, -83786.33, 0.03147631, -0.22226983, -272083.72, -32906.395, 0.0000056747863, 10.001511, 9.996203 
1.3149919e+3, 2.8559065e+2, 104691.15, -50048.45, -139290.08, 0.002572778, -0.24413498, 186656.88, 327852.88, 0.00007077781, 10.001814, 9.9997835 
1.3149753e+3, 2.955903e+2, 411090.9, 131286.86, 2468.821, -0.08171461, -0.2770575, 411112.7, 454301.63, 0.0003102898, 10.00332, 9.999632 
1.3149607e+3, 3.0558905e+2, 226924.48, -276496.8, 57559.418, 0.019182589, -0.19540784, 233421.77, 233421.77, 0.0007935088, 10.003206, 9.996552 
1.3149464e+3, 3.155853e+2, 115624.73, -158516.55, 7491.418, 0.19265735, -0.25310752, 115829.3, 115829.3, 0.00147785, 10.001688, 9.998093 
1.3252154e+3, 1.2562868e+2, -1828238.6, -1649918.9, -198404.98, -0.16405272, -0.49538153, -1521560.9, 187248.58, 0.006183249, 9.998656, 10.001104 
1.3252026e+3, 1.3563208e+2, -1527174.5, -1560141.6, -128986.13, 0.06392057, -0.18087131, -1413622.9, 197150.13, 0.0035072896, 10.000563, 10.000108 
1.3251878e+3, 1.4563112e+2, -1576141.1, -1817839.1, -74445.64, -0.04374221, -0.15530622, -1555051.3, -42266.16, 0.0013982238, 10.000771, 9.997566 
1.325173e+3, 1.5562722e+2, -1576144.5, -1757446.9, -38159.92, -0.11285006, -0.30978578, -1568440.1, -153609.6, 0.00029637254, 10.000051, 9.997659 
1.3251589e+3, 1.6562545e+2, -1344851.6, -1461404.4, 2986.436, -0.08718874, -0.31239232, -1344775.3, -27924.836, 0.000014169166, 10.000386, 9.998853 
1.3251455e+3, 1.756253e+2, -1078092.1, -1266206.8, -10822.914, -0.038830757, -0.23470874, -1077471.5, 141378.86, 0.0, 10.00148, 9.998992 
1.3251321e+3, 1.8562464e+2, -979869.7, -1157197.1, -21051.227, 0.038845833, -0.20011456, -977404.9, 143450.22, 0.0, 10.001434, 9.99909 
1.3251188e+3, 1.9562365e+2, -1004839.7, -1114292.1, -1104.1924, 0.15098672, -0.22438456, -1004828.56, 18034.805, 0.0, 10.000568, 9.99913 
1.3251051e+3, 2.0562197e+2, -974312.9, -1143898.3, 80233.62, 0.10328087, -0.25532427, -942369.8, -17490.031, 0.0, 10.000514, 9.9982815 
1.3250913e+3, 2.1561976e+2, -792914.3, -995612.44, 38496.375, -0.07037067, -0.32530284, -785849.4, 41053.445, 0.0, 10.001045, 9.99837 
1.3250783e+3, 2.256181e+2, -696910.2, -983402.7, -17810.662, -0.06847205, -0.28535807, -695807.2, 33114.27, 0.0, 10.001405, 9.997605 
1.3250655e+3, 2.3561682e+2, -543640.4, -834339.94, 25315.201, 0.07313395, -0.19092444, -541452.3, 89484.695, 0.0, 10.001681, 9.99782 
1.3250513e+3, 2.4561566e+2, -322806.8, -541664.6, 29264.986, 0.06771459, -0.15069452, -318961.16, 213984.58, 0.0, 10.001926, 9.999043 
1.3250363e+3, 2.5561455e+2, -200862.98, -437272.38, -22440.088, -0.051704444, -0.18492782, -198751.81, 236197.33, 0.0, 10.002117, 9.998994 
1.3250221e+3, 2.656116e+2, -353667.3, -813967.9, 8071.1167, -0.030663101, -0.21141562, -353525.84, -16545.547, 0.00000008813443, 10.001917, 9.995836 
1.3250089e+3, 2.7560696e+2, -305194.9, -700425.0, 120309.62, 0.099825025, -0.27340862, -271452.84, -32417.828, 0.000005758402, 10.001404, 9.996192 
1.324994e+3, 2.8560507e+2, 20686.342, -50286.586, 103668.2, 0.080037154, -0.28553113, 94773.53, 235825.97, 0.000075127005, 10.001071, 10.000136 
1.3249777e+3, 2.9560545e+2, 103290.47, 32997.31, -14282.164, -0.05822743, -0.28406173, 106081.5, 149121.02, 0.00033054428, 10.000994, 10.0000725 
1.3249631e+3, 3.0560476e+2, 68752.26, -211313.1, -55603.293, 0.03395812, -0.23419349, 79387.68, 79387.68, 0.00084821245, 10.001512, 9.997815 
1.3249491e+3, 3.1560108e+2, 288922.63, 19169.871, -68933.15, 0.2612553, -0.41077912, 305517.1, 305517.1, 0.0015816313, 10.002457, 9.998951 
1.3352166e+3, 1.256429e+2, -1864647.0, -1727349.5, -68673.96, 0.08300884, -0.21480535, -1698896.4, 9782.155, 0.0065457188, 9.998679, 10.000551 
1.3352013e+3, 1.356418e+2, -1566627.3, -1632730.8, -67140.586, -0.12485612, -0.28638253, -1524844.0, 85843.56, 0.0037237175, 10.000528, 9.999622 
1.3351865e+3, 1.4564161e+2, -1451121.6, -1554073.0, -108410.23, -0.26944506, -0.25512162, -1382586.8, 130101.516, 0.0014951822, 10.000746, 9.9993925 
1.335175e+3, 1.5564153e+2, -1449829.6, -1502024.4, -53277.22, 0.077384785, -0.21825008, -1416601.4, -1912.5039, 0.00032323142, 10.000073, 9.999403 
1.3351612e+3, 1.6564061e+2, -1365784.4, -1507541.5, 39377.445, 0.08070373, -0.1997772, -1355580.5, -38881.313, 0.000017128494, 10.000396, 9.998534 
1.3351451e+3, 1.7563927e+2, -1104243.9, -1310751.4, 28429.443, -0.2474139, -0.20485125, -1100401.5, 118313.71, 0.00000000003443261, 10.00144, 9.998704 
1.3351312e+3, 1.856387e+2, -947040.1, -1086827.3, -60295.164, -0.20120351, -0.1748512, -924626.5, 196092.44, 0.0, 10.001418, 9.999584 
1.3351195e+3, 1.9563858e+2, -971704.3, -1048851.8, -26644.45, 0.16234747, -0.16423124, -963396.7, 59317.824, 0.0, 10.000579, 9.999576 
1.3351063e+3, 2.0563674e+2, -1035429.94, -1268123.1, 93717.7, 0.15581809, -0.18998432, -1002379.3, -77646.8, 0.0, 10.000501, 9.997437 
1.3350917e+3, 2.1563351e+2, -854578.5, -1110042.0, 62265.21, -0.14755607, -0.27263343, -840210.44, -13442.447, 0.0, 10.00098, 9.997621 
1.335079e+3, 2.2563176e+2, -617660.06, -801996.5, -11447.917, -0.12856935, -0.2721817, -616951.8, 111833.53, 0.0, 10.001329, 9.998887 
1.335068e+3, 2.3563117e+2, -472269.1, -674140.8, 42063.88, 0.15260108, -0.2393387, -463854.97, 166933.52, 0.0, 10.001626, 9.998949 
1.3350539e+3, 2.456291e+2, -414018.1, -719688.56, 31922.16, 0.11821154, -0.2777775, -410719.94, 122086.62, 0.0, 10.001875, 9.997847 
1.3350374e+3, 2.5562587e+2, -273928.0, -580572.8, -11370.734, -0.15874682, -0.4065446, -273506.94, 161329.83, 0.0, 10.002076, 9.998032 
1.3350233e+3, 2.6562458e+2, -140702.11, -362248.25, -15082.295, -0.11374607, -0.3853088, -139680.06, 197168.27, 0.00000008397673, 10.001876, 9.998957 
1.3350113e+3, 2.7562472e+2, -120868.02, -301911.7, 110018.164, 0.18139623, -0.2835928, -68918.1, 169927.83, 0.0000056271715, 10.001338, 9.998959 
1.3349967e+3, 2.856232e+2, -188787.95, -475371.16, 95912.08, 0.22490132, -0.23498307, -159650.98, -18787.697, 0.000076498116, 10.001023, 9.997242 
1.3349803e+3, 2.9562035e+2, -86627.48, -350527.72, -6058.811, 0.090300135, -0.2636313, -86488.445, -43592.473, 0.00034050437, 10.000939, 9.99747 
1.3349657e+3, 3.0561873e+2, 205291.1, 89327.05, -17151.51, 0.12868877, -0.295634, 207774.67, 207774.67, 0.000882415, 10.001452, 9.999902 
1.334952e+3, 3.156161e+2, 379708.47, 242622.2, -17610.545, 0.2813746, -0.574572, 381934.63, 381934.63, 0.0016524311, 10.00232, 10.00055 
1.345216e+3, 1.2565634e+2, -1758323.0, -1726106.3, 100120.36, 0.110689454, -0.1096575, -1640806.6, 67740.766, 0.0069055543, 9.99963, 10.0001 
1.3452014e+3, 1.3565387e+2, -1791688.0, -1771051.5, 41308.68, -0.09112089, -0.28700316, -1738792.0, -128220.07, 0.0039389143, 9.999099, 9.9993725 
1.3451868e+3, 1.4565396e+2, -1585940.6, -1527855.3, -26743.879, -0.23276156, -0.25865605, -1517417.4, -4848.3804, 0.0015916337, 9.999431, 10.000202 
1.3451755e+3, 1.5565443e+2, -1282584.9, -1331636.8, -56844.824, 0.09025675, -0.24471672, -1245200.8, 169359.75, 0.0003501717, 10.000849, 10.00019 
1.345162e+3, 1.6565405e+2, -1281621.4, -1428653.0, 23699.508, 0.10676425, -0.22936359, -1277895.8, 38668.215, 0.000020254476, 10.000818, 9.998869 
1.3451461e+3, 1.7565316e+2, -1345345.9, -1397213.8, 52959.08, -0.18537322, -0.22137687, -1312311.8, -93736.58, 0.0000000014653116, 9.999659, 9.998971 
1.3451321e+3, 1.8565227e+2, -1169487.8, -1244811.5, -26611.848, -0.18415496, -0.21095134, -1161034.4, -40451.816, 0.0, 10.000114, 9.9991255 
1.3451198e+3, 1.9565128e+2, -823388.25, -1022807.4, -78191.13, 0.06610747, -0.24165308, -796386.1, 226202.19, 0.0, 10.001801, 9.999163 
1.345107e+3, 2.0564951e+2, -804010.75, -1122727.6, 41321.086, 0.09888639, -0.25538447, -798740.7, 125864.79, 0.0, 10.001951, 9.997732 
1.3450937e+3, 2.1564715e+2, -839244.8, -1064974.4, 85246.31, -0.04753604, -0.28399956, -810669.2, 15962.165, 0.0, 10.000936, 9.997943 
1.3450809e+3, 2.2564566e+2, -654601.56, -798221.56, 46525.23, -0.05172702, -0.28405452, -640847.1, 87798.31, 0.0, 10.000974, 9.999088 
1.3450688e+3, 2.3564482e+2, -428199.84, -629790.3, 9849.859, 0.06439391, -0.295756, -427719.72, 202930.75, 0.0, 10.001823, 9.99916 
1.3450551e+3, 2.4564278e+2, -439252.75, -732600.1, -7133.533, 0.051265083, -0.34389344, -439079.4, 93589.65, 0.0, 10.001711, 9.997838 
1.3450398e+3, 2.556397e+2, -444944.5, -659475.1, 30126.469, -0.06465227, -0.45447588, -440794.13, -6095.351, 0.0, 10.000891, 9.998062 
1.3450257e+3, 2.656389e+2, -204731.67, -338495.97, -10909.251, -0.025386559, -0.40948662, -203847.8, 132857.38, 0.00000006157407, 10.001205, 9.999439 
1.3450126e+3, 2.756398e+2, 72339.43, -157129.83, -100671.81, 0.13680589, -0.28259313, 110244.41, 348938.47, 0.0000055913592, 10.002446, 9.9994135 
1.344998e+3, 2.856382e+2, -10814.804, -434954.78, -116256.95, 0.19261338, -0.24391338, 18960.94, 159673.77, 0.00007685254, 10.002435, 9.996843 
1.3449822e+3, 2.9563475e+2, -31194.305, -357230.78, -37761.793, 0.17181428, -0.29731983, -26877.85, 15876.045, 0.00034429008, 10.001466, 9.997169 
1.3449681e+3, 3.0563304e+2, 333671.22, 155242.08, 31853.314, 0.18511818, -0.3302563, 339187.2, 339187.2, 0.00089966063, 10.002302, 9.999957 
1.3449551e+3, 3.1563145e+2, 683368.2, 369346.56, -139297.27, 0.25408503, -0.5064645, 736252.9, 736252.9, 0.0016932157, 10.004506, 10.000364 
1.355214e+3, 1.2566887e+2, -1785479.0, -1781920.1, 125770.01, -0.085820094, -0.19689706, -1657917.0, 50500.984, 0.0072628423, 9.999643, 9.999703 
1.3552025e+3, 1.3566816e+2, -1787836.3, -1768215.4, 22905.535, 0.10142477, -0.1995278, -1753107.8, -142680.27, 0.004152666, 9.999126, 9.999376 
1.3551888e+3, 1.4566813e+2, -1598628.9, -1560786.3, 18968.53, 0.0014460314, -0.16863509, -1552915.4, -40488.223, 0.0016872559, 9.999455, 9.999968 
1.3551746e+3, 1.5566623e+2, -1293155.3, -1353231.0, -4922.6807, -0.106453404, -0.37064806, -1292754.5, 121688.66, 0.0003769789, 10.000844, 10.000046 
1.3551615e+3, 1.656659e+2, -1210684.5, -1287242.8, -27085.5, -0.041161533, -0.39512116, -1202071.0, 114372.65, 0.000023370363, 10.000834, 9.999836 
1.3551487e+3, 1.7566688e+2, -1282208.9, -1275103.9, 19095.154, 0.097289965, -0.29538035, -1259233.5, -40802.63, 0.0000000068048798, 9.999693, 9.999795 
1.3551344e+3, 1.8566541e+2, -1266538.0, -1453693.0, 31192.012, 0.025961896, -0.30536354, -1261476.4, -141030.66, 0.0, 10.000141, 9.997681 
1.3551192e+3, 1.9566193e+2, -916028.44, -1210073.8, -16992.656, -0.18029769, -0.44211414, -915049.7, 107433.11, 0.0, 10.001772, 9.997893 
1.355107e+3, 2.0566045e+2, -709883.2, -918687.9, -3137.4004, -0.10232616, -0.4420478, -709836.06, 214661.03, 0.0, 10.00191, 9.999155 
1.355097e+3, 2.1566057e+2, -754345.6, -881550.9, 56195.746, 0.18548946, -0.3641446, -733076.25, 93417.37, 0.0, 10.000897, 9.999225 
1.3550836e+3, 2.2565962e+2, -719748.1, -918533.6, 72365.35, 0.113475434, -0.32657498, -696195.1, 32307.887, 0.0, 10.000912, 9.998291 
1.355068e+3, 2.3565784e+2, -486376.34, -735156.0, 42430.83, -0.22954181, -0.35396773, -479338.63, 151183.95, 0.0, 10.001758, 9.998468 
1.3550547e+3, 2.4565668e+2, -364492.66, -565276.56, -43293.484, -0.17081316, -0.34249663, -355555.4, 176977.36, 0.0, 10.001655, 9.999016 
1.3550434e+3, 2.5565597e+2, -383721.38, -522923.47, 10401.601, 0.1928544, -0.3327015, -382948.4, 51587.465, 0.0, 10.000848, 9.9990225 
1.3550292e+3, 2.6565444e+2, -360805.7, -656044.56, 31874.873, 0.19233496, -0.29150468, -357403.6, -20851.145, 0.000000036385206, 10.001173, 9.997276 
1.355013e+3, 2.7565214e+2, -69219.586, -438906.53, -52269.594, -0.078622565, -0.26918212, -61971.363, 176609.08, 0.000005925218, 10.002389, 9.997509 
1.3549979e+3, 2.8565e+2, 127665.03, -132494.86, -156896.7, -0.07381971, -0.3041924, 201392.27, 341994.0, 0.00007723303, 10.002378, 9.998943 
1.3549834e+3, 2.9564822e+2, 85286.836, -98495.47, -58573.12, 0.14137368, -0.40164983, 102367.22, 144983.7, 0.00034439715, 10.001396, 9.998978 
1.3549702e+3, 3.056472e+2, 189756.31, -129497.79, 111757.234, 0.16120362, -0.3448055, 224989.4, 224989.4, 0.0009018357, 10.002247, 9.998023 
1.3549581e+3, 3.1564695e+2, 516559.97, 53311.984, -38663.883, 0.09159695, -0.19523397, 519764.78, 519764.78, 0.0017008643, 10.004381, 9.998245 
1.3652137e+3, 1.256803e+2, -1655759.5, -1729967.3, 69702.35, -0.10859271, -0.28658536, -1613900.6, 94400.22, 0.0076198755, 10.000555, 9.999634 
1.3652022e+3, 1.3567992e+2, -1600186.5, -1639019.0, -54371.03, 0.104422905, -0.29082862, -1561868.9, 48438.086, 0.004366158, 10.000229, 9.999739 
1.3651894e+3, 1.456804e+2, -1543085.0, -1540824.6, 14895.67, 0.10221276, -0.22618948, -1527016.4, -14712.878, 0.0017823466, 9.999868, 9.999904 
1.3651745e+3, 1.556792e+2, -1436363.8, -1432436.3, -3174.3008, -0.15762465, -0.34804633, -1430667.4, -16351.7295, 0.0004035849, 9.999901, 9.99996 
1.3651614e+3, 1.6567887e+2, -1231319.6, -1289191.1, -69711.94, -0.11768476, -0.3697439, -1184776.8, 131540.05, 0.000026350568, 10.000657, 9.999905 
1.3651496e+3, 1.756794e+2, -949857.7, -1104883.5, -100464.01, 0.10874664, -0.3275824, -900479.9, 317827.9, 0.000000016360648, 10.001932, 9.999881 
1.3651358e+3, 1.8567804e+2, -1038104.6, -1329831.0, -41715.113, 0.07199344, -0.3380497, -1032256.9, 88064.65, 0.0, 10.001657, 9.997798 
1.3651204e+3, 1.956751e+2, -1125261.5, -1293496.6, 15848.454, -0.15389837, -0.43109617, -1123781.5, -101427.65, 0.0, 10.000265, 9.998045 
1.3651082e+3, 2.0567393e+2, -917224.5, -978060.6, 43477.81, -0.09134708, -0.42756748, -894580.56, 29784.867, 0.0, 10.000316, 9.999515 
1.3650982e+3, 2.1567416e+2, -649951.6, -791403.5, 15279.32, 0.18690942, -0.37406516, -648320.0, 178040.36, 0.0, 10.0014515, 9.999574 
1.3650848e+3, 2.2567333e+2, -592182.9, -853812.8, 48404.633, 0.10028616, -0.34350562, -583514.7, 144853.45, 0.0, 10.001778, 9.998316 
1.3650692e+3, 2.3567165e+2, -530062.4, -752990.56, 69559.734, -0.26290193, -0.36312616, -510138.47, 120247.555, 0.0, 10.001444, 9.998497 
1.3650562e+3, 2.4567078e+2, -330391.28, -540158.8, -30478.879, -0.1839672, -0.32810783, -326052.5, 206341.14, 0.0, 10.001864, 9.999081 
1.3650455e+3, 2.5567046e+2, -84974.8, -370399.13, -72640.61, 0.2321175, -0.28629148, -67551.336, 366842.3, 0.0, 10.002876, 9.999084 
1.3650313e+3, 2.6566848e+2, -217425.4, -619443.56, -12477.757, 0.24093175, -0.2780913, -217038.48, 119376.54, 0.000000033203506, 10.002304, 9.996982 
1.3650146e+3, 2.7566513e+2, -357001.9, -603250.8, 34806.71, -0.05964026, -0.33092704, -352176.63, -113723.2, 0.000006027052, 10.00053, 9.9972725 
1.3649996e+3, 2.8566322e+2, -87851.8, -212536.92, -51253.7, -0.059990037, -0.3485978, -69487.875, 70984.2, 0.00007556622, 10.0008, 9.999152 
1.3649859e+3, 2.9566243e+2, 281520.56, 16094.357, -104894.4, 0.17362167, -0.3628818, 317968.94, 360443.72, 0.00033622416, 10.002662, 9.999155 
1.3649724e+3, 3.0566072e+2, 201710.17, -222763.83, 64533.42, 0.1415326, -0.33618367, 211304.44, 211304.44, 0.0008816842, 10.00275, 9.997143 
1.3649602e+3, 3.1565988e+2, 38598.582, -272777.2, -28629.512, 0.01805145, -0.15767331, 41209.047, 41209.047, 0.001665559, 10.001469, 9.99742 
1.3752155e+3, 1.2569031e+2, -1643477.0, -1684978.6, 39117.72, -0.023752792, -0.4174028, -1619947.0, 88251.77, 0.0079810945, 10.000496, 9.999958 
1.3752003e+3, 1.3568948e+2, -1555076.3, -1535970.6, -66687.15, -0.11055595, -0.5373016, -1478155.5, 132051.33, 0.0045821774, 10.000194, 10.000462 
1.3751888e+3, 1.4569092e+2, -1533252.9, -1523844.3, 6187.56, 0.040859338, -0.42149672, -1520775.8, -8579.7295, 0.0018779465, 9.999879, 10.000018 
1.3751748e+3, 1.5569322e+2, -1432596.1, -1432150.9, 7227.6553, -0.111649655, -0.2001463, -1425142.4, -10963.259, 0.00043006244, 9.999931, 9.9999485 
1.3751616e+3, 1.6569301e+2, -1284586.9, -1404621.9, -26029.045, -0.17729376, -0.16654162, -1279185.6, 36997.52, 0.000029160963, 10.000673, 9.999107 
1.3751487e+3, 1.7569095e+2, -998027.94, -1198310.4, -54454.98, -0.17526697, -0.30335674, -984179.6, 234022.94, 0.000000027808229, 10.001898, 9.999259 
1.3751361e+3, 1.8569028e+2, -924047.75, -1090708.5, -99490.35, -0.077913165, -0.3037334, -877600.3, 242607.8, 0.0, 10.001644, 9.999447 
1.3751233e+3, 1.9569062e+2, -1022222.1, -1079943.4, -26782.285, 0.09503834, -0.23222587, -1011709.8, 10493.762, 0.0, 10.00026, 9.9995165 
1.3751103e+3, 2.0568977e+2, -966924.8, -1076418.3, 80571.74, 0.07538138, -0.22831681, -924260.0, -47.87996, 0.0, 10.000294, 9.99885 
1.3750969e+3, 2.1568799e+2, -699671.7, -880025.3, 58743.188, -0.08453221, -0.30972528, -682225.94, 144005.05, 0.0, 10.001385, 9.998999 
1.3750845e+3, 2.2568688e+2, -544238.75, -732778.7, 32032.95, -0.12982899, -0.32895112, -538945.0, 189294.97, 0.0, 10.001687, 9.99919 
1.3750724e+3, 2.3568624e+2, -487279.47, -650264.6, 66056.74, -0.087498, -0.32707676, -463869.53, 166371.66, 0.0, 10.001388, 9.9992285 
1.3750596e+3, 2.4568498e+2, -412427.97, -700195.6, 2231.1123, -0.040072363, -0.3074837, -412410.7, 119841.99, 0.0, 10.001814, 9.998009 
1.3750462e+3, 2.5568315e+2, -154089.4, -503762.63, -36436.684, 0.016486047, -0.3128888, -150332.97, 283939.4, 0.0, 10.002825, 9.998198 
1.3750322e+3, 2.6568106e+2, -114726.13, -394396.03, -83822.305, 0.08274922, -0.35955298, -91527.375, 244765.56, 0.000000022673568, 10.002255, 9.99855 
1.3750173e+3, 2.7567866e+2, -271907.44, -412093.28, -16083.779, 0.15211976, -0.47185495, -270085.78, -31771.15, 0.0000059199137, 10.000474, 9.998611 
1.3750029e+3, 2.8567758e+2, -206158.64, -449941.22, 16182.195, 0.19219494, -0.37943748, -205089.17, -64763.707, 0.000072404306, 10.000761, 9.997542 
1.374989e+3, 2.9567748e+2, 169485.0, -204357.67, -31365.682, 0.22267942, -0.16570055, 172098.34, 214426.45, 0.00031917673, 10.002603, 9.997674 
1.3749745e+3, 3.0567363e+2, 202080.28, -207728.83, 15308.706, 0.07034717, -0.29367834, 202651.36, 202651.36, 0.0008366534, 10.002695, 9.997268 
1.3749611e+3, 3.1566972e+2, 42687.87, -221560.17, -55373.01, -0.057837263, -0.4290839, 53822.105, 53822.105, 0.0015845374, 10.001304, 9.997844 
1.3852155e+3, 1.2570287e+2, -1820544.1, -1777335.9, 84207.96, 0.010415279, -0.39632455, -1712004.9, -3929.0664, 0.008351057, 9.999295, 9.999907 
1.3851993e+3, 1.3570178e+2, -1666943.4, -1588582.9, -54921.367, -0.18233103, -0.539075, -1560298.8, 49786.605, 0.004803759, 9.999423, 10.00047 
1.3851891e+3, 1.4570256e+2, -1526648.6, -1536921.6, 15718.592, 0.08643587, -0.4821676, -1515248.6, -3167.7676, 0.0019753822, 9.99999, 9.999876 
1.3851753e+3, 1.5570527e+2, -1294899.5, -1378371.8, -9835.3545, -0.10306327, -0.20483963, -1293756.3, 120304.45, 0.00045665295, 10.000933, 9.999834 
1.3851622e+3, 1.6570555e+2, -1253944.3, -1356981.1, -6912.669, -0.18734576, -0.13233998, -1253482.5, 62578.723, 0.00003186285, 10.000754, 9.999391 
1.3851497e+3, 1.7570397e+2, -1278469.6, -1296622.4, 31532.012, -0.17348963, -0.24931404, -1254733.8, -36656.574, 0.000000039188958, 9.999824, 9.999579 
1.385137e+3, 1.8570362e+2, -1143949.9, -1135541.0, -28844.8, -0.060938172, -0.26465818, -1110595.9, 9483.18, 0.0, 9.9998665, 9.999998 
1.3851239e+3, 1.9570418e+2, -928116.5, -976164.8, -41148.125, 0.115692824, -0.22595847, -904492.7, 117577.336, 0.0, 10.000661, 10.000034 
1.3851106e+3, 2.0570362e+2, -929035.94, -1100329.6, 76961.04, 0.07049325, -0.19887407, -899537.7, 24538.682, 0.0, 10.000734, 9.998472 
1.3850974e+3, 2.157021e+2, -878986.7, -1001502.2, 66903.63, -0.13480258, -0.21665493, -849532.75, -23437.64, 0.0, 10.0003, 9.998688 
1.3850853e+3, 2.2570075e+2, -681887.8, -771836.94, 32347.002, -0.15407504, -0.25866377, -671463.44, 56642.52, 0.0, 10.000619, 9.999442 
1.3850744e+3, 2.3569947e+2, -448429.03, -606419.56, 8822.905, -0.031208053, -0.3463286, -447937.84, 182173.23, 0.0, 10.00154, 9.99946 
1.3850614e+3, 2.4569802e+2, -498149.56, -743178.4, -32495.49, -0.009045203, -0.35613644, -493913.28, 38210.8, 0.0, 10.001242, 9.997983 
1.3850468e+3, 2.556964e+2, -551939.9, -692851.1, -5413.169, -0.066302605, -0.33853808, -551732.25, -117589.14, 0.0, 10.000091, 9.99821 
1.385033e+3, 2.656947e+2, -274176.13, -423934.9, -45488.977, 0.0043833246, -0.36653793, -261441.77, 74717.37, 0.0000000049794013, 10.0009575, 9.99897 
1.3850194e+3, 2.7569288e+2, 177115.75, -154298.48, -72662.805, 0.17390311, -0.4677728, 192347.11, 430520.84, 0.0000059839426, 10.003377, 9.998983 
1.3850057e+3, 2.8569156e+2, 209239.75, -306522.4, -14855.679, 0.2384199, -0.38615537, 209667.28, 349853.66, 0.00006977907, 10.003867, 9.997029 
1.3849919e+3, 2.9569075e+2, 191709.14, -234053.13, 4579.577, 0.22315371, -0.19614032, 191758.39, 233955.45, 0.0002993371, 10.00295, 9.997289 
1.3849771e+3, 3.0568665e+2, 252005.39, -172508.58, 69851.25, 0.040978253, -0.3380115, 263203.6, 263203.6, 0.00078111177, 10.002991, 9.997367 
1.3849635e+3, 3.1568334e+2, 427491.53, 20665.39, -7840.5776, -0.06189582, -0.42299303, 427642.6, 427642.6, 0.0014819879, 10.003698, 9.998359 
1.395214e+3, 1.2571752e+2, -1844780.6, -1815063.4, 104.556656, -0.08533214, -0.26480165, -1815063.0, -107127.24, 0.008733579, 9.999249, 9.999666 
1.3951991e+3, 1.3571657e+2, -1710638.9, -1691908.0, -46435.566, -0.16044484, -0.3239612, -1653902.9, -43958.72, 0.005033633, 9.999473, 9.999739 
1.3951904e+3, 1.4571525e+2, -1544629.8, -1581384.4, 41978.367, 0.1847838, -0.42488477, -1517182.3, -5223.702, 0.002076125, 10.000023, 9.999554 
1.3951756e+3, 1.5571566e+2, -1317546.1, -1414347.6, 25702.41, -0.17503136, -0.34545162, -1311145.0, 102813.0, 0.00048381835, 10.000888, 9.999608 
1.395163e+3, 1.6571671e+2, -1164678.8, -1172449.0, -48894.285, -0.19842009, -0.25289088, -1119515.5, 196433.77, 0.000034571214, 10.00075, 10.000664 
1.3951519e+3, 1.7571826e+2, -1196869.8, -1130765.5, 3203.0105, 0.06372427, -0.1836595, -1130610.6, 87323.375, 0.00000005013657, 9.999831, 10.000719 
1.3951382e+3, 1.8571788e+2, -1171069.5, -1196725.1, -6992.891, 0.06961276, -0.22875334, -1169287.3, -49351.242, 0.0, 9.999887, 9.999566 
1.3951223e+3, 1.9571593e+2, -958704.5, -1038094.44, -12516.482, -0.12370638, -0.39911553, -956777.94, 65174.06, 0.0, 10.000649, 9.999617 
1.3951094e+3, 2.0571558e+2, -936127.8, -1109988.5, 54724.004, -0.13904586, -0.32896924, -920337.2, 3619.8455, 0.0, 10.000712, 9.998416 
1.3950989e+3, 2.1571645e+2, -890280.9, -1018629.3, 57956.156, -0.016473977, -0.10242915, -867984.06, -42030.465, 0.0, 10.000272, 9.998585 
1.3950872e+3, 2.2571488e+2, -712851.6, -828300.0, 62182.332, -0.026169641, -0.14036193, -685730.5, 42236.934, 0.0, 10.00058, 9.999073 
1.395075e+3, 2.357114e+2, -474571.38, -647517.8, 43280.313, -0.13058376, -0.41578865, -464345.03, 165649.92, 0.0, 10.00148, 9.999207 
1.3950615e+3, 2.4570997e+2, -436412.22, -604189.25, -81151.24, -0.13191548, -0.46276563, -403583.97, 128422.66, 0.0, 10.00119, 9.998964 
1.3950472e+3, 2.5571012e+2, -501386.75, -575638.7, -33846.28, -0.056743853, -0.36652747, -488274.2, -54267.863, 0.0, 10.000038, 9.999041 
1.3950336e+3, 2.6570928e+2, -330559.03, -530869.2, 42820.152, -0.03212796, -0.30472466, -321789.34, 14225.551, 0.0000000011462398, 10.000911, 9.99826 
1.3950208e+3, 2.757077e+2, 124397.21, -249268.78, 17463.287, -0.038881373, -0.3120208, 125211.586, 363242.3, 0.000005942459, 10.003311, 9.998364 
1.3950075e+3, 2.8570524e+2, 241376.47, -228248.84, -54014.81, 0.021532143, -0.35154423, 247509.0, 387563.16, 0.000067021225, 10.003815, 9.997592 
1.394994e+3, 2.95702e+2, 218388.56, -169309.98, -16901.34, 0.127978, -0.457865, 219123.97, 261207.92, 0.0002811343, 10.002903, 9.997761 
1.3949798e+3, 3.0569947e+2, 263497.72, -138940.88, 95525.016, 0.0031189881, -0.47491053, 285020.94, 285020.94, 0.00073367514, 10.002953, 9.997613 
1.3949673e+3, 3.1570065e+2, 451102.0, 99081.195, 47080.984, -0.07353323, -0.13799818, 457290.06, 457290.06, 0.0013956741, 10.003572, 9.998963 
1.4052139e+3, 1.2572967e+2, -1900508.5, -1764813.0, -180388.75, 0.008228854, -0.13750453, -1639934.5, 67892.0, 0.009133226, 9.998523, 10.000369 
1.4051987e+3, 1.3572909e+2, -1469689.8, -1549562.6, -101866.36, -0.21521385, -0.1849654, -1400211.1, 209616.83, 0.005275387, 10.001019, 9.999972 
1.4051904e+3, 1.4572746e+2, -1367518.1, -1464051.1, -18476.902, 0.14731875, -0.34294227, -1364102.4, 147739.78, 0.0021822979, 10.001105, 9.999835 
1.405176e+3, 1.5572698e+2, -1535963.4, -1486791.3, -1998.7417, -0.1438616, -0.38176885, -1486710.1, -72863.15, 0.00051218417, 9.999245, 9.999902 
1.4051631e+3, 1.6572803e+2, -1415893.1, -1266477.1, -68838.12, -0.16701753, -0.31624094, -1239597.8, 76239.46, 0.000037386584, 9.998911, 10.000905 
1.4051518e+3, 1.7573021e+2, -1173155.9, -1091658.0, -99937.67, 0.059198968, -0.21162653, -1024481.0, 193335.58, 0.00000006103049, 9.999872, 10.00097 
1.4051384e+3, 1.8573016e+2, -1078279.0, -1141012.6, -88361.31, 0.060708884, -0.23877701, -1015882.25, 103933.31, 0.0, 10.000486, 9.999658 
1.405123e+3, 1.9572842e+2, -910477.75, -999654.3, -67428.93, -0.12536573, -0.39926228, -874228.06, 147601.6, 0.0, 10.000925, 9.9997425 
1.4051104e+3, 2.0572777e+2, -812853.5, -1024919.06, 17910.19, -0.1470215, -0.37832376, -811351.56, 112484.53, 0.0, 10.001449, 9.998648 
1.4050998e+3, 2.1572796e+2, -614566.0, -861316.75, 33803.086, -0.036710087, -0.24258597, -610019.0, 215817.39, 0.0, 10.002068, 9.998798 
1.4050883e+3, 2.2572671e+2, -573743.5, -784287.7, 55688.484, -0.030034607, -0.24390562, -559921.44, 167926.9, 0.0, 10.00165, 9.998853 
1.4050762e+3, 2.3572436e+2, -633687.3, -742243.5, 36876.656, -0.10465101, -0.38688287, -622345.25, 7524.341, 0.0, 10.000477, 9.999034 
1.4050628e+3, 2.4572322e+2, -480459.38, -612435.0, -100131.34, -0.093616694, -0.40425906, -426527.72, 105352.19, 0.0, 10.000826, 9.999085 
1.4050485e+3, 2.55723e+2, -158728.75, -399691.78, -124747.23, -0.023589358, -0.35632488, -105781.13, 328101.03, 0.0, 10.002337, 9.999145 
1.4050353e+3, 2.657221e+2, -159903.6, -474515.5, -31917.611, -0.01439464, -0.29445505, -156698.17, 179193.66, 0.0000000047036606, 10.002197, 9.998025 
1.4050227e+3, 2.7572083e+2, -243300.55, -444061.28, -38198.43, -0.048902042, -0.24872465, -236278.22, 1628.1686, 0.0000060153247, 10.000866, 9.998202 
1.4050096e+3, 2.8571838e+2, -96348.336, -334451.16, -89807.875, -0.016013406, -0.30420324, -66273.31, 73655.45, 0.00006434686, 10.001252, 9.998094 
1.404996e+3, 2.9571488e+2, 255929.69, -100997.5, -68890.07, 0.06548743, -0.4870619, 268764.53, 310723.47, 0.000270618, 10.00294, 9.998214 
1.4049825e+3, 3.0571267e+2, 251756.89, -172344.5, 10808.795, -0.0095038405, -0.4791687, 252032.19, 252032.19, 0.000709568, 10.002983, 9.997378 
1.4049712e+3, 3.157141e+2, 211483.03, 11596.074, -83364.8, 0.049447495, -0.10135674, 241687.11, 241687.11, 0.0013524415, 10.001815, 9.999198 
1.4152144e+3, 1.2573984e+2, -1784127.6, -1522115.0, -179247.73, 0.1836717, -0.00052791927, -1431102.4, 276639.9, 0.009556688, 9.998523, 10.00204 
1.4151983e+3, 1.3573961e+2, -1407752.8, -1401749.4, -7807.1665, -0.3800237, -0.12502274, -1396386.8, 213347.23, 0.0055341963, 10.000946, 10.001021 
1.4151895e+3, 1.4573929e+2, -1307174.4, -1343632.5, -93008.59, -0.06480531, -0.24439579, -1230625.3, 281105.47, 0.0022969088, 10.001112, 10.000669 
1.4151761e+3, 1.5573929e+2, -1480359.0, -1378751.9, -61601.652, -0.056643616, -0.32055366, -1349707.0, 64020.652, 0.0005425403, 9.9992695, 10.000635 
1.4151624e+3, 1.6573961e+2, -1459361.4, -1365876.9, -39537.633, -0.13732511, -0.321218, -1351397.8, -35673.496, 0.000040406845, 9.998952, 10.000202 
1.415149e+3, 1.7574003e+2, -1217666.1, -1180144.0, -59852.434, -0.21085256, -0.32142895, -1136181.1, 81541.11, 0.00000007226826, 9.999858, 10.000368 
1.415137e+3, 1.8574071e+2, -1034751.94, -1055836.6, -76297.72, -0.123130076, -0.28263918, -968271.6, 151443.34, 0.0, 10.000504, 10.0002365 
1.4151259e+3, 1.9574158e+2, -873148.94, -921396.4, -45988.586, 0.05669814, -0.2372843, -845340.94, 176362.55, 0.0, 10.000917, 10.000286 
1.4151134e+3, 2.0574008e+2, -778901.4, -949477.7, 33899.387, -0.0027657344, -0.35270175, -772411.3, 151303.03, 0.0, 10.001424, 9.999178 
1.4151001e+3, 2.1573675e+2, -591856.6, -796266.7, 55669.76, -0.22195187, -0.62497574, -577678.7, 248063.98, 0.0, 10.0019865, 9.999286 
1.4150883e+3, 2.2573638e+2, -591671.8, -801752.44, 5624.914, -0.19844516, -0.5587849, -591521.3, 136226.72, 0.0, 10.001563, 9.9987755 
1.4150777e+3, 2.3573828e+2, -653980.5, -769598.2, 5716.453, 0.0038981647, -0.26494658, -653698.56, -23962.82, 0.0, 10.000415, 9.998876 
1.4150654e+3, 2.4573764e+2, -534224.4, -717914.6, -46371.52, 0.05192661, -0.18575154, -523182.0, 8562.845, 0.0, 10.0007925, 9.998379 
1.4150512e+3, 2.55735e+2, -208359.78, -494323.34, -68666.76, -0.010532899, -0.30952716, -192725.94, 241044.7, 0.0, 10.002296, 9.998516 
1.4150378e+3, 2.6573318e+2, -153448.4, -450619.25, -85195.234, 0.0117130615, -0.323477, -130756.7, 205032.58, 0.000000079284355, 10.00215, 9.998213 
1.4150251e+3, 2.75732e+2, -236758.02, -421866.22, -71329.74, 0.09959504, -0.28457806, -212460.97, 25341.107, 0.0000071917057, 10.000825, 9.998377 
1.415012e+3, 2.857308e+2, -65430.98, -263893.0, -28058.807, 0.08060427, -0.2522344, -61540.27, 78272.01, 0.00006590789, 10.001221, 9.998595 
1.4149985e+3, 2.957293e+2, 275677.38, -51916.75, -2374.7173, -0.009754632, -0.28213835, 275694.6, 317517.2, 0.00027570056, 10.002895, 9.998578 
1.4149852e+3, 3.0572623e+2, 187317.81, -287435.56, -36026.17, -0.049856476, -0.3360932, 190036.06, 190036.06, 0.00071893854, 10.002912, 9.996612 
1.4149748e+3, 3.1572333e+2, 157468.52, -70910.49, -102575.76, 0.21453007, -0.32169187, 196775.03, 196775.03, 0.0013634532, 10.001695, 9.998684 
1.4252125e+3, 1.2575094e+2, -1581302.0, -1448338.8, -6058.9517, 0.07713267, -0.030334327, -1448063.3, 259570.3, 0.010011913, 10.000012, 10.00184 
1.4251998e+3, 1.357502e+2, -1595626.4, -1508126.3, 116749.734, -0.24471587, -0.1871261, -1427198.5, 182433.81, 0.0058154534, 9.9997225, 10.000878 
1.4251904e+3, 1.457511e+2, -1481116.1, -1379287.4, -75142.71, -0.013169959, -0.19897488, -1339434.5, 172183.66, 0.002423067, 9.999725, 10.001084 
1.4251757e+3, 1.5575196e+2, -1358130.6, -1274598.1, -84255.84, -0.07239682, -0.23345953, -1222324.6, 191282.11, 0.00057589856, 9.999917, 10.001038 
1.4251618e+3, 1.6575202e+2, -1278911.9, -1287649.3, 16665.734, -0.15705666, -0.27405336, -1266051.8, 49552.875, 0.00004378684, 10.000229, 10.000119 
1.4251494e+3, 1.7575154e+2, -1088155.1, -1125140.6, 29958.234, -0.20073499, -0.35867345, -1071441.6, 146167.48, 0.00000008454083, 10.000785, 10.000294 
1.4251378e+3, 1.857522e+2, -987660.0, -1069198.9, -13452.353, -0.119819924, -0.2999965, -985497.94, 134105.08, 0.0, 10.00099, 9.999907 
1.4251265e+3, 1.9575372e+2, -879713.0, -953177.4, -57251.125, 0.031222744, -0.15915258, -848423.56, 173165.16, 0.0, 10.001, 10.000024 
1.4251143e+3, 2.0575245e+2, -865243.0, -953879.44, -8611.338, -0.0075202608, -0.25834116, -864414.1, 59183.94, 0.0, 10.000671, 9.999509 
1.4251015e+3, 2.1574903e+2, -839555.9, -876124.9, -13265.19, -0.17865887, -0.57236165, -835250.8, -9625.198, 0.0, 10.0001135, 9.999637 
1.4250895e+3, 2.2574893e+2, -762713.56, -857196.56, -54529.55, -0.15551212, -0.5091729, -737807.8, -10179.691, 0.0, 10.000263, 9.999023 
1.4250785e+3, 2.357514e+2, -556404.94, -697816.5, -36266.445, 0.007703748, -0.18459818, -547646.5, 81964.734, 0.0, 10.000967, 9.999106 
1.4250663e+3, 2.4575086e+2, -465810.0, -697681.9, -5119.6973, 0.049971882, -0.099683784, -465697.03, 65922.91, 0.0, 10.001335, 9.998254 
1.425053e+3, 2.5574797e+2, -327357.06, -559521.5, -2568.9875, -0.0015513088, -0.23479883, -327328.63, 106319.664, 0.00000000006254562, 10.001526, 9.998434 
1.42504e+3, 2.6574588e+2, -209811.88, -471945.0, -45147.297, 0.03163943, -0.27713767, -202254.05, 133415.11, 0.00000036239143, 10.001735, 9.998267 
1.4250268e+3, 2.7574435e+2, -70046.38, -334744.63, -44397.137, 0.1313239, -0.27770987, -62798.24, 174885.67, 0.000010031926, 10.001941, 9.998433 
1.425014e+3, 2.857432e+2, 70480.984, -232256.14, 30845.822, 0.12108386, -0.22706123, 73591.89, 213286.72, 0.000074052536, 10.0023, 9.998296 
1.4250018e+3, 2.9574215e+2, 247276.2, -90799.39, -24951.525, 0.031711586, -0.1847886, 249107.81, 290811.78, 0.00029689216, 10.002822, 9.998342 
1.4249884e+3, 3.0573958e+2, 186661.9, -271323.63, -96070.945, -0.01972863, -0.18470535, 205998.19, 205998.19, 0.00075968413, 10.00282, 9.996772 
1.4249769e+3, 3.157357e+2, 266117.34, 4177.7764, -98022.984, 0.23778392, -0.2865113, 298737.25, 298737.25, 0.0014267517, 10.002326, 9.998902 
1.4352082e+3, 1.2576298e+2, -1713136.4, -1723826.3, -59097.805, -0.38968593, -0.20816785, -1659142.3, 48359.066, 0.010506618, 10.000017, 9.99993 
1.4352034e+3, 1.3576108e+2, -1686304.4, -1689233.6, 113680.35, 0.13021629, -0.34983012, -1574079.3, 35442.26, 0.006123269, 9.999698, 9.999641 
1.4351928e+3, 1.457631e+2, -1470776.9, -1371457.5, -72702.04, 0.23236153, -0.1933099, -1333073.6, 178428.88, 0.002563054, 9.999773, 10.0011215 
1.435174e+3, 1.5576498e+2, -1354134.4, -1262198.3, -71610.59, -0.22260231, -0.12652428, -1223071.5, 190412.77, 0.0006133788, 9.999899, 10.001134 
1.4351611e+3, 1.6576532e+2, -1238645.6, -1210374.5, 30798.424, -0.267281, -0.17590001, -1190622.6, 124855.1, 0.000047750204, 10.000248, 10.000645 
1.4351526e+3, 1.7576467e+2, -1062737.5, -1074692.0, 52343.918, 0.03285362, -0.32835364, -1016030.6, 201447.53, 0.00000010052836, 10.000788, 10.000642 
1.4351404e+3, 1.857646e+2, -1067519.0, -1237800.4, -20806.102, 0.02286237, -0.29265714, -1065013.6, 54466.734, 0.0, 10.000999, 9.998746 
1.435125e+3, 1.9576487e+2, -956633.44, -1109775.8, -53727.99, -0.2287253, -0.16134723, -939664.0, 81820.875, 0.0, 10.000983, 9.9989605 
1.4351131e+3, 2.0576487e+2, -855827.6, -930483.5, -35066.867, -0.20286673, -0.09332888, -841939.75, 81546.74, 0.0, 10.000652, 9.999678 
1.4351039e+3, 2.1576464e+2, -834806.7, -857567.9, -25380.8, 0.038599167, -0.10368393, -818371.75, 7114.5063, 0.0, 10.000072, 9.999785 
1.4350921e+3, 2.2576424e+2, -732115.1, -778479.75, -32714.361, 0.043387845, -0.107484035, -715201.94, 12287.691, 0.0, 10.0002, 9.999593 
1.4350782e+3, 2.3576374e+2, -526787.4, -620749.25, -6287.992, -0.12758617, -0.1381482, -526368.44, 103127.14, 0.0, 10.0009, 9.999668 
1.4350659e+3, 2.457629e+2, -443996.6, -641062.7, -4357.1797, -0.14291766, -0.1323717, -443900.28, 87604.445, 0.0, 10.001278, 9.998673 
1.4350544e+3, 2.5576174e+2, -308919.5, -512261.8, 9805.594, -0.037829366, -0.13531491, -308447.75, 125068.7, 0.000000006122379, 10.001482, 9.998783 
1.4350416e+3, 2.6575997e+2, -215218.28, -473649.72, -41645.844, 0.0060362653, -0.15908839, -208672.89, 126860.12, 0.0000008787704, 10.001691, 9.998278 
1.4350276e+3, 2.757578e+2, -81463.97, -350570.8, -27759.994, 0.0029890446, -0.22697712, -78630.195, 158922.48, 0.000014099222, 10.001903, 9.998348 
1.4350158e+3, 2.8575552e+2, -13787.054, -397909.7, 46142.645, 0.04913345, -0.21985357, -8321.935, 131254.83, 0.0000867421, 10.002257, 9.997177 
1.4350057e+3, 2.9575306e+2, 171600.89, -243434.81, 1546.2228, 0.13871437, -0.21003872, 171606.66, 213212.64, 0.00032959942, 10.002792, 9.997313 
1.4349918e+3, 3.057524e+2, 263864.22, -94518.8, -116484.12, 0.03080595, -0.036136363, 298397.2, 298397.2, 0.00082783273, 10.002763, 9.998009 
1.4349775e+3, 3.1575125e+2, 314198.3, 133108.27, -85810.586, 0.040942777, 0.015153069, 348400.47, 348400.47, 0.0015416822, 10.002206, 9.999847 
1.4452103e+3, 1.2577555e+2, -1467269.8, -1707325.3, -157434.22, -0.28751722, -0.23060337, -1389327.3, 318047.3, 0.011047917, 10.002171, 9.999006 
1.4452034e+3, 1.3577338e+2, -1706344.8, -1737247.0, 62885.695, 0.1643172, -0.36419892, -1657039.8, -47639.313, 0.00646129, 9.999712, 9.999307 
1.4451909e+3, 1.4577532e+2, -1578247.8, -1446096.4, -21831.559, 0.10005345, -0.1874362, -1442583.1, 68801.0, 0.0027186894, 9.999148, 10.000898 
1.4451744e+3, 1.5577745e+2, -1306784.6, -1259401.0, -52567.63, -0.20247355, -0.07737582, -1225432.9, 187931.52, 0.0006559602, 10.0003195, 10.000941 
1.4451624e+3, 1.6577762e+2, -1181483.3, -1208422.6, 7105.4976, -0.17304575, -0.12192666, -1179724.0, 135635.94, 0.000052490832, 10.000768, 10.000401 
1.4451542e+3, 1.7577654e+2, -1079005.9, -1104829.3, -36348.38, 0.120359994, -0.29115826, -1053344.0, 164020.6, 0.00000012546444, 10.00078, 10.000436 
1.4451419e+3, 1.8577622e+2, -1074794.0, -1226394.5, -71960.234, 0.08089523, -0.27977052, -1046076.5, 73292.34, 0.0, 10.000877, 9.998887 
1.4451261e+3, 1.9577639e+2, -932361.5, -1080786.6, -21141.639, -0.21959996, -0.17400835, -929408.8, 91964.35, 0.0, 10.001072, 9.999116 
1.445114e+3, 2.0577665e+2, -799370.0, -908140.06, 21726.12, -0.20030646, -0.08533106, -795190.94, 128181.59, 0.0, 10.001071, 9.999627 
1.4451046e+3, 2.1577697e+2, -709050.56, -800872.7, 8681.955, 0.066888615, -0.035497494, -708236.9, 117131.1, 0.0, 10.000964, 9.999741 
1.4450929e+3, 2.2577621e+2, -613053.1, -753592.7, 2605.9949, 0.07451384, -0.056222327, -613004.8, 114370.39, 0.0, 10.001159, 9.999303 
1.4450794e+3, 2.357747e+2, -445541.8, -605964.2, -46909.715, -0.11570878, -0.16238351, -432831.75, 196559.31, 0.0, 10.001566, 9.999447 
1.4450671e+3, 2.4577391e+2, -409862.7, -584363.1, -91355.77, -0.14103982, -0.1577098, -370786.03, 160613.06, 0.0, 10.001338, 9.999031 
1.4450555e+3, 2.5577366e+2, -399367.6, -519868.13, -86217.445, -0.044442523, -0.10684031, -354434.47, 78967.33, 0.000000012932129, 10.000696, 9.999114 
1.4450431e+3, 2.6577228e+2, -252747.52, -484649.22, -83802.734, 0.011535691, -0.11085909, -225633.69, 109780.72, 0.0000016431604, 10.001399, 9.998342 
1.4450304e+3, 2.7577016e+2, 103566.0, -253294.44, -81390.06, 0.036518786, -0.18033916, 121252.29, 358685.7, 0.000019264668, 10.003139, 9.998417 
1.4450185e+3, 2.8576776e+2, 107581.84, -344624.44, 4213.284, 0.06615687, -0.19071113, 107621.1, 247080.02, 0.000103277154, 10.003118, 9.997126 
1.4450076e+3, 2.9576492e+2, 18797.3, -318203.66, 33100.082, 0.10500067, -0.21307199, 22017.604, 63508.875, 0.00037424423, 10.001758, 9.997286 
1.4449939e+3, 3.0576476e+2, 143918.0, -161207.25, -60810.063, 0.014209592, 0.01843248, 155590.63, 155590.63, 0.0009255103, 10.001972, 9.99794 
1.4449807e+3, 3.1576374e+2, 456768.75, 156810.58, -140848.23, 0.07402336, 0.08512406, 512536.97, 512536.97, 0.0017119541, 10.003388, 9.999441 
1.4552182e+3, 1.2578854e+2, -1472925.6, -1715865.8, -216341.67, 0.26277804, -0.13422763, -1346285.5, 360967.7, 0.011640448, 10.002164, 9.998951 
1.4552e+3, 1.357872e+2, -1674684.8, -1668508.4, -17685.225, -0.14797777, -0.23676373, -1653643.8, -44375.473, 0.0068325973, 9.999702, 9.999781 
1.455185e+3, 1.4578786e+2, -1607315.3, -1517109.1, 13565.809, -0.427127, -0.18138565, -1515113.3, -3851.057, 0.0028915813, 9.99919, 10.00039 
1.455176e+3, 1.557895e+2, -1345140.5, -1338036.5, -7684.25, -0.07638127, -0.07535303, -1333123.0, 80122.96, 0.00070428615, 10.000319, 10.000401 
1.4551656e+3, 1.657891e+2, -1239939.8, -1342570.3, 1197.1815, 0.060694423, -0.100467056, -1239925.8, 75323.84, 0.000058062662, 10.000813, 9.999463 
1.4551543e+3, 1.7578724e+2, -1132328.4, -1217187.0, -28763.498, 0.03405043, -0.25273752, -1123497.8, 93769.93, 0.00000016567238, 10.00078, 9.999668 
1.455142e+3, 1.8578713e+2, -975607.1, -1021325.5, -69407.22, 0.016156157, -0.26198557, -925391.6, 193875.78, 0.0, 10.000882, 10.000292 
1.4551295e+3, 1.9578828e+2, -848211.7, -902128.2, -10590.702, 0.0021567885, -0.19482633, -846206.0, 175047.75, 0.0, 10.001056, 10.000352 
1.4551167e+3, 2.0578775e+2, -821057.1, -947961.56, 10742.51, -0.051304556, -0.22509654, -820154.25, 103102.164, 0.0, 10.001047, 9.999367 
1.4551038e+3, 2.15786e+2, -737297.75, -849615.1, 10530.5205, -0.12668905, -0.35897917, -736319.0, 88952.01, 0.0, 10.000917, 9.999432 
1.4550924e+3, 2.2578488e+2, -696764.4, -912761.06, 13296.126, -0.101890214, -0.3451869, -695949.0, 31335.584, 0.0, 10.001097, 9.9982395 
1.4550823e+3, 2.3578428e+2, -526928.7, -756355.7, -27475.057, -0.0027469066, -0.25067163, -523684.3, 105612.94, 0.0, 10.001489, 9.998451 
1.45507e+3, 2.457839e+2, -393946.78, -541853.56, -119209.39, 0.0029160127, -0.17762147, -327614.8, 203688.64, 0.0, 10.001292, 9.999347 
1.455056e+3, 2.5578368e+2, -382770.8, -477863.06, -97183.625, -0.061565638, -0.15522422, -322125.94, 111178.96, 0.000000017460069, 10.00066, 9.999421 
1.4550446e+3, 2.6578277e+2, -252299.19, -472270.84, -20536.217, 0.0029959518, -0.13157155, -250398.39, 84915.16, 0.000002726617, 10.001348, 9.998452 
1.455035e+3, 2.7578136e+2, 107765.81, -231811.3, -17343.078, 0.17783211, -0.1412956, 108649.266, 345976.6, 0.000025068905, 10.003084, 9.998591 
1.4550224e+3, 2.8577968e+2, 176538.95, -189072.38, -49944.35, 0.12221772, -0.14495455, 183238.83, 322581.56, 0.00012317942, 10.003063, 9.99822 
1.4550073e+3, 2.957777e+2, 76623.516, -193002.75, -3127.0544, -0.10706436, -0.19129924, 76659.77, 118020.14, 0.0004300027, 10.001725, 9.998167 
1.4549947e+3, 3.057767e+2, 37031.406, -365877.25, -9965.271, -0.10982248, -0.014620977, 37277.727, 37277.727, 0.0010507762, 10.001904, 9.996562 
1.454986e+3, 3.157731e+2, 305259.63, -139433.47, -68527.45, 0.24826574, -0.06207062, 315580.22, 315580.22, 0.0019355183, 10.003308, 9.997441 
1.4652196e+3, 1.2580048e+2, -1661139.3, -1779487.0, -192957.5, 0.2689917, -0.10784376, -1518486.1, 188657.16, 0.012283002, 10.0007305, 9.999208 
1.4652021e+3, 1.3580053e+2, -1358937.1, -1497011.8, -102224.46, -0.010977425, -0.089800574, -1304621.4, 304520.75, 0.00723705, 10.0018, 9.999954 
1.4651857e+3, 1.4579985e+2, -1270768.6, -1372140.4, -19482.127, -0.3799091, -0.16807155, -1267153.4, 243993.83, 0.0030819494, 10.001582, 10.000237 
1.4651766e+3, 1.5580034e+2, -1256585.4, -1312390.3, -23773.678, -0.07815573, -0.15930793, -1247830.8, 165309.19, 0.0007585455, 10.000988, 10.000262 
1.4651664e+3, 1.658002e+2, -1236555.5, -1357968.6, 34871.83, 0.04504963, -0.14463447, -1227252.6, 87889.79, 0.00006440502, 10.000916, 9.999307 
1.465155e+3, 1.7579943e+2, -1064990.0, -1198221.6, 48279.586, 0.006608236, -0.1730925, -1049334.4, 167818.88, 0.00000022299002, 10.0013075, 9.99954 
1.465143e+3, 1.8579938e+2, -880060.2, -949872.8, -10140.083, -0.015868993, -0.18055594, -878617.2, 240534.83, 0.0, 10.001441, 10.000506 
1.4651304e+3, 1.9579995e+2, -782795.94, -846020.6, -46625.477, -0.017087251, -0.19486523, -758076.44, 263064.44, 0.0, 10.001408, 10.000563 
1.465118e+3, 2.0579913e+2, -767308.75, -928192.2, -42483.047, -0.049920764, -0.26106, -756779.75, 166365.13, 0.0, 10.001435, 9.999319 
1.4651051e+3, 2.157973e+2, -646215.8, -810458.8, -36843.55, -0.10934207, -0.3983904, -638329.56, 186830.34, 0.0, 10.00156, 9.999393 
1.4650941e+3, 2.2579622e+2, -654999.44, -913828.7, 21043.98, -0.06187948, -0.36917078, -653299.6, 73873.58, 0.0, 10.001474, 9.998052 
1.4650844e+3, 2.357957e+2, -569127.8, -796146.3, 35912.19, 0.068639785, -0.24779138, -563582.3, 65602.89, 0.0, 10.00128, 9.99828 
1.465072e+3, 2.4579501e+2, -355285.72, -554278.1, -39859.434, 0.06886987, -0.18148592, -347598.6, 183596.03, 0.0, 10.001701, 9.999062 
1.4650579e+3, 2.5579426e+2, -110942.98, -373766.6, -71992.516, -0.031510305, -0.18516414, -92514.914, 340686.8, 0.000000044837254, 10.002654, 9.999169 
1.4650467e+3, 2.6579335e+2, -85460.82, -409917.06, -8461.245, 0.02002335, -0.13972633, -85240.32, 249970.77, 0.0000038968087, 10.002577, 9.99829 
1.4650375e+3, 2.7579236e+2, -97199.28, -344456.97, -37504.695, 0.18933062, -0.09237265, -91635.664, 145586.47, 0.000030358568, 10.001733, 9.998472 
1.465025e+3, 2.8579074e+2, -12512.01, -249953.11, -134535.88, 0.14783302, -0.09950853, 48195.613, 187431.6, 0.00014195647, 10.001633, 9.998495 
1.4650097e+3, 2.957887e+2, 149458.36, -131698.55, -160840.75, -0.051395215, -0.17736702, 222496.5, 263747.97, 0.00048668167, 10.002124, 9.998394 
1.4649975e+3, 3.057868e+2, 160468.1, -356518.0, -82917.96, -0.061550368, -0.07405934, 173441.52, 173441.52, 0.0011867037, 10.002963, 9.996111 
1.4649893e+3, 3.1578207e+2, 336890.47, -227568.61, -83768.22, 0.2398866, -0.18853317, 349059.7, 349059.7, 0.0021867163, 10.003964, 9.996518 
1.4752151e+3, 1.2581146e+2, -1602590.5, -1664276.3, -78271.26, -0.2820128, -0.1455297, -1549304.5, 157738.8, 0.012969953, 10.000768, 9.999972 
1.475209e+3, 1.3581358e+2, -1377155.8, -1524650.9, -67737.47, 0.47749767, 0.08794103, -1350768.1, 258251.63, 0.0076708426, 10.001756, 9.999784 
1.4751928e+3, 1.4581127e+2, -1257091.0, -1344168.4, -51638.89, 0.13875662, -0.15167974, -1233085.6, 277952.84, 0.0032881629, 10.001579, 10.000434 
1.4751762e+3, 1.5581019e+2, -1244788.1, -1279599.3, -36500.156, -0.23525119, -0.3215038, -1221755.9, 191288.75, 0.00081847684, 10.000958, 10.000499 
1.4751646e+3, 1.6581108e+2, -1195807.8, -1283393.6, 44031.773, -0.24392341, -0.2411493, -1177499.0, 137537.75, 0.000071419374, 10.000947, 9.999806 
1.4751562e+3, 1.7581305e+2, -1038047.2, -1139412.0, 65522.984, -0.01035412, -0.04926312, -1005892.6, 211129.48, 0.0000002932695, 10.00129, 9.999953 
1.475144e+3, 1.8581289e+2, -939597.44, -1076422.6, -16378.94, -0.060422014, -0.03874315, -937664.06, 181359.25, 0.0, 10.001449, 9.999637 
1.4751291e+3, 1.9581133e+2, -837937.25, -962685.2, -41967.52, -0.3093605, -0.179396, -825132.9, 195902.06, 0.0, 10.001412, 9.999763 
1.4751175e+3, 2.0581071e+2, -755809.9, -903267.94, -44911.188, -0.23844445, -0.19779731, -743208.25, 179829.77, 0.0, 10.0014305, 9.999493 
1.4751086e+3, 2.1581079e+2, -643091.2, -788611.75, -29403.791, 0.06666385, -0.16063105, -637374.44, 187660.72, 0.0, 10.001495, 9.999575 
1.4750978e+3, 2.2581011e+2, -617952.06, -821680.2, 8573.081, 0.14536348, -0.13605829, -617591.94, 109450.03, 0.0, 10.001405, 9.99872 
1.4750856e+3, 2.3580886e+2, -537923.06, -717847.0, 37655.18, 0.05584587, -0.15332668, -530360.3, 98695.3, 0.0, 10.001221, 9.998847 
1.4750732e+3, 2.4580725e+2, -420370.6, -683560.2, -8657.62, 0.010324806, -0.16156152, -420086.13, 110986.79, 0.0, 10.001668, 9.998193 
1.475061e+3, 2.558053e+2, -178655.25, -504677.47, -34867.848, 0.0050310954, -0.19634296, -174967.88, 258125.34, 0.000000082863835, 10.0026045, 9.998299 
1.4750493e+3, 2.6580396e+2, -124894.41, -475655.44, -42309.277, 0.013181705, -0.13350064, -119863.164, 215244.78, 0.0000048986644, 10.00251, 9.997867 
1.4750378e+3, 2.7580303e+2, -135769.05, -410836.7, -57140.152, 0.029215923, -0.036868904, -124371.516, 112746.99, 0.00003468843, 10.001676, 9.99804 
1.4750263e+3, 2.858008e+2, -66837.41, -350247.6, -119737.99, 0.09985589, -0.049759377, -23022.908, 116116.266, 0.00015714212, 10.001574, 9.997837 
1.4750147e+3, 2.9579762e+2, 105561.25, -218336.14, -132618.73, 0.21679984, -0.18019477, 152933.14, 194100.27, 0.0005383698, 10.002096, 9.997814 
1.4750023e+3, 3.057948e+2, 186331.73, -279052.56, -45348.78, 0.10708227, -0.16977826, 190709.5, 190709.5, 0.0013175347, 10.002878, 9.9966755 
1.4749907e+3, 3.157907e+2, 330872.06, -201320.97, -33698.254, -0.041855525, -0.2815528, 332997.34, 332997.34, 0.0024270895, 10.003817, 9.99676 
1.4852163e+3, 1.2582473e+2, -1366490.8, -1478249.0, 83520.1, -0.30637074, -0.102810696, -1321880.8, 385034.13, 0.013700781, 10.002092, 10.000637 
1.4852089e+3, 1.3582592e+2, -1624108.3, -1670644.9, 4330.166, 0.37346274, 0.055802245, -1623708.8, -14810.085, 0.00813248, 10.00015, 9.999561 
1.4851934e+3, 1.4582352e+2, -1505096.6, -1486945.3, 52857.46, 0.13208546, -0.16678205, -1442390.0, 68529.26, 0.0035089266, 9.999984, 10.000214 
1.4851785e+3, 1.5582316e+2, -1163478.1, -1253685.4, 29679.832, -0.13324474, -0.25010145, -1154588.9, 258332.4, 0.0008836724, 10.001578, 10.000373 
1.4851664e+3, 1.6582434e+2, -1096070.0, -1202500.6, 68698.27, -0.17833792, -0.14881214, -1062387.0, 252523.4, 0.00007901186, 10.00151, 10.000084 
1.4851563e+3, 1.7582627e+2, -1166030.4, -1176866.6, 66357.016, -0.086336195, 0.01264892, -1104870.6, 112023.26, 0.00000037325287, 10.000313, 10.000167 
1.4851445e+3, 1.8582551e+2, -1044441.1, -1190282.8, 50125.586, -0.13607219, -0.014453943, -1028874.56, 90025.92, 0.0, 10.001003, 9.99907 
1.4851315e+3, 1.9582303e+2, -622758.44, -916988.7, 31306.979, -0.28927696, -0.1913328, -619464.1, 401457.84, 0.0, 10.003144, 9.99924 
1.4851202e+3, 2.058225e+2, -503755.8, -809980.5, -28815.516, -0.20796649, -0.1652769, -501067.9, 421858.3, 0.0, 10.003287, 9.999234 
1.4851099e+3, 2.1582335e+2, -586485.25, -781467.75, -52258.15, 0.04639725, -0.024212, -573362.5, 251555.47, 0.0, 10.001972, 9.99939 
1.485099e+3, 2.2582258e+2, -560406.06, -742178.1, 558.74097, 0.12522689, -0.023726452, -560404.4, 166519.33, 0.0, 10.001579, 9.999179 
1.4850871e+3, 2.358207e+2, -411573.47, -613793.06, 1179.3188, 0.066670075, -0.15395217, -411566.6, 217372.58, 0.0, 10.001903, 9.99923 
1.4850754e+3, 2.4581884e+2, -385123.28, -720553.94, -10379.89, 0.031602204, -0.17685038, -384802.38, 146154.84, 0.0, 10.002139, 9.997716 
1.4850636e+3, 2.55817e+2, -249862.86, -585465.3, -19873.266, 0.018234493, -0.15265116, -248690.13, 184286.95, 0.00000011463164, 10.002317, 9.997882 
1.4850518e+3, 2.65815e+2, -156031.31, -502151.25, -24099.771, 0.02141952, -0.13124003, -154361.34, 180636.34, 0.000005857849, 10.002349, 9.997761 
1.4850397e+3, 2.7581286e+2, -53172.91, -388102.78, -25213.07, 0.035654265, -0.14228871, -51285.54, 185732.88, 0.000039061, 10.002324, 9.997882 
1.4850284e+3, 2.858104e+2, 72003.54, -353614.94, -27750.77, 0.10217004, -0.1325057, 73805.29, 212847.28, 0.00017263576, 10.00284, 9.997196 
1.4850174e+3, 2.9580778e+2, 304568.66, -182717.75, -54626.777, 0.20951746, -0.1435349, 310617.47, 351684.78, 0.000590196, 10.003729, 9.997271 
1.4850056e+3, 3.0580467e+2, 365990.66, -139189.0, 24995.926, 0.09453092, -0.16961166, 367224.44, 367224.44, 0.0014390951, 10.003858, 9.997187 
1.4849941e+3, 3.1580108e+2, 292600.38, -178792.77, 10159.691, -0.06255581, -0.27409285, 292819.25, 292819.25, 0.0026355411, 10.003359, 9.99715 
1.4952226e+3, 1.258407e+2, -1328002.5, -1383867.5, 46778.6, 0.08207853, 0.0669136, -1301451.4, 405303.1, 0.014485426, 10.002042, 10.001313 
1.4952022e+3, 1.3583775e+2, -1652491.3, -1719147.5, -62268.3, -0.31836, -0.16411729, -1615192.9, -6415.727, 0.008627366, 10.000115, 9.999239 
1.4951882e+3, 1.4583668e+2, -1541839.6, -1574707.6, 102159.805, -0.39265972, -0.20260836, -1454800.5, 55988.03, 0.0037456865, 10.000018, 9.999602 
1.495183e+3, 1.5583915e+2, -1202025.5, -1326629.4, 87208.51, 0.15785708, 0.04922805, -1157150.6, 255619.77, 0.0009542572, 10.001546, 9.99989 
1.4951713e+3, 1.6583991e+2, -1087494.0, -1192499.8, 16853.498, 0.16165373, 0.12625432, -1084855.3, 229908.36, 0.00008722728, 10.001537, 10.000141 
1.4951551e+3, 1.7583911e+2, -1165562.0, -1177399.0, 34007.8, -0.25529465, 0.015529586, -1136961.5, 79806.68, 0.0000004647829, 10.000322, 10.000158 
1.4951442e+3, 1.858374e+2, -1060706.0, -1232068.6, 124907.83, -0.28339577, -0.093329, -994917.0, 123865.16, 0.0, 10.00103, 9.998774 
1.4951375e+3, 1.958351e+2, -653462.56, -969557.7, 105486.805, -0.022332108, -0.22211409, -621493.06, 399308.78, 0.0, 10.00309, 9.998908 
1.4951254e+3, 2.0583445e+2, -556805.0, -905357.8, -84160.39, -0.019110594, -0.15862603, -537547.9, 385261.63, 0.0, 10.00322, 9.998613 
1.4951096e+3, 2.1583498e+2, -634557.6, -867278.2, -91466.66, -0.20241798, 0.011053917, -602911.56, 221896.66, 0.0, 10.001911, 9.99883 
1.4950977e+3, 2.2583371e+2, -552152.94, -716891.4, 7436.864, -0.15606862, -0.025316712, -551817.94, 175000.19, 0.0, 10.001537, 9.999375 
1.4950891e+3, 2.3583111e+2, -411175.4, -596249.94, 17760.797, 0.05722555, -0.24387184, -409486.38, 219349.66, 0.0, 10.001829, 9.999389 
1.495078e+3, 2.4582973e+2, -400910.34, -735813.25, -7681.514, 0.080827996, -0.22267538, -400734.25, 130113.414, 0.0, 10.002063, 9.997647 
1.4950654e+3, 2.5582922e+2, -260988.0, -596713.4, -6790.713, -0.035205476, -0.062776335, -260850.7, 172004.1, 0.00000015644366, 10.002264, 9.997831 
1.4950539e+3, 2.6582634e+2, -152476.33, -481425.28, -28400.484, 0.003686293, -0.13217708, -150042.33, 184839.17, 0.000006865855, 10.00229, 9.9979315 
1.4950435e+3, 2.758218e+2, -53235.215, -378475.3, -16512.992, 0.16228883, -0.404319, -52398.973, 184523.7, 0.000043953176, 10.002281, 9.99797 
1.4950314e+3, 2.8581953e+2, 15152.675, -456893.28, 2952.5955, 0.101705916, -0.3448937, 15171.143, 154116.66, 0.00018936973, 10.002775, 9.996518 
1.495018e+3, 2.9581904e+2, 256888.02, -271187.16, -16177.244, -0.120817415, -0.07571135, 257383.13, 298337.16, 0.0006395796, 10.003677, 9.996688 
1.4950071e+3, 3.0581614e+2, 377954.94, -83354.38, 4454.5107, -0.14544097, -0.07497334, 377997.94, 377997.94, 0.0015392303, 10.003743, 9.997615 
1.4949991e+3, 3.158131e+2, 312013.44, -109644.42, 8548.799, 0.07894219, -0.17284133, 312186.7, 312186.7, 0.0027906613, 10.003252, 9.997666 
1.5052228e+3, 1.2585253e+2, -1778198.4, -1557578.8, -11465.507, 0.07974386, -0.031839475, -1556984.5, 149650.0, 0.015336173, 9.998728, 10.001696 
1.5052016e+3, 1.3584997e+2, -1530746.3, -1643422.9, -134675.61, -0.4236101, -0.2506521, -1441099.9, 167554.23, 0.0091627855, 10.000877, 9.999397 
1.505189e+3, 1.458504e+2, -1397315.8, -1506512.6, 88732.88, -0.3741038, -0.14279217, -1347729.1, 162922.23, 0.0040015904, 10.001031, 9.999577 
1.5051837e+3, 1.5585235e+2, -1423727.4, -1440535.5, 99153.47, 0.15539984, 0.059977412, -1332622.5, 80016.57, 0.001031135, 10.000049, 9.999832 
1.5051726e+3, 1.658522e+2, -1259948.1, -1352607.5, 29159.035, 0.17361242, 0.08659752, -1251535.8, 63105.83, 0.000096309515, 10.000681, 9.9994545 
1.505157e+3, 1.7585044e+2, -878855.9, -1106443.0, -17110.512, -0.18785867, -0.056701433, -877576.7, 339079.5, 0.000000575819, 10.002574, 9.99956 
1.5051465e+3, 1.8584888e+2, -905880.6, -1132401.3, 68636.414, -0.20053431, -0.13355984, -886706.6, 231961.94, 0.0, 10.001996, 9.998984 
1.5051395e+3, 1.9584754e+2, -1129531.9, -1175741.4, 77939.32, 0.039704908, -0.1893545, -1071344.8, -50666.156, 0.0, 9.999729, 9.999107 
1.5051273e+3, 2.058466e+2, -1069897.3, -1179214.4, -55516.43, 0.010119, -0.1509562, -1046647.94, -123958.81, 0.0, 9.999824, 9.998367 
1.5051112e+3, 2.1584593e+2, -684945.9, -917605.6, -49435.438, -0.2170614, -0.074400425, -674877.56, 149822.22, 0.0, 10.001682, 9.998594 
1.5050994e+3, 2.2584453e+2, -498931.6, -710210.9, 35506.348, -0.18212025, -0.1033113, -493124.25, 233586.7, 0.0, 10.002001, 9.999192 
1.5050904e+3, 2.3584256e+2, -511664.5, -659814.5, 11038.185, 0.04429971, -0.24071223, -510846.6, 117875.76, 0.0, 10.001212, 9.999245 
1.50508e+3, 2.458409e+2, -481299.8, -750028.9, 25867.047, 0.10707477, -0.25016278, -478832.6, 51902.234, 0.0, 10.00142, 9.99785 
1.5050685e+3, 2.5583953e+2, -233233.88, -565067.5, 29778.705, 0.046172176, -0.19566448, -230582.72, 202164.73, 0.00000020302433, 10.002388, 9.99798 
1.505057e+3, 2.6583675e+2, -142601.4, -533323.3, -30439.887, 0.08206805, -0.24078228, -140244.16, 194530.34, 0.0000077496, 10.002601, 9.997427 
1.505046e+3, 2.7583286e+2, -84535.54, -443967.6, -74275.31, 0.19094601, -0.3942503, -69791.62, 167020.72, 0.0000483451, 10.0022745, 9.997527 
1.5050338e+3, 2.858305e+2, -25666.639, -448244.75, 2394.6357, 0.09028177, -0.33444664, -25653.068, 113182.98, 0.00020450291, 10.002373, 9.996772 
1.5050207e+3, 2.9582953e+2, 146501.38, -291810.3, 29875.61, -0.16434532, -0.1390337, 148528.34, 189375.89, 0.00068072864, 10.002794, 9.996966 
1.5050098e+3, 3.058265e+2, 135974.45, -173341.5, 21573.695, -0.15543185, -0.17896774, 137471.89, 137471.89, 0.0016085604, 10.001934, 9.99788 
1.5050015e+3, 3.1582457e+2, -131124.66, -269719.56, -1579.5289, 0.17112389, -0.18868333, -131106.66, -131106.66, 0.0028770326, 9.999939, 9.9981785 
1.5152176e+3, 1.2586087e+2, -1769397.0, -1552585.1, 46446.324, -0.34836772, -0.35842675, -1543054.1, 163494.33, 0.016257107, 9.998776, 10.001713 
1.5152062e+3, 1.3586263e+2, -1494129.9, -1550596.4, -60598.855, -0.052527, -0.21174689, -1455510.0, 153018.3, 0.009740974, 10.00081, 10.000065 
1.5151948e+3, 1.4586481e+2, -1364409.1, -1446972.4, 40863.277, 0.08638194, 0.016633002, -1347604.8, 162901.72, 0.0042781597, 10.001055, 9.999981 
1.5151806e+3, 1.5586306e+2, -1403191.0, -1398743.5, 73391.77, -0.16422224, -0.191747, -1327541.8, 84983.055, 0.0011151112, 10.000055, 10.0001135 
1.51517e+3, 1.6586159e+2, -1348789.5, -1547622.0, 94182.0, -0.16247159, -0.23719782, -1311261.0, 3280.4321, 0.000106548556, 10.000719, 9.9981 
1.5151623e+3, 1.7586039e+2, -966228.75, -1277940.4, 47164.96, 0.057654653, -0.19245479, -959248.56, 257307.55, 0.0000007145684, 10.00253, 9.998404 
1.5151511e+3, 1.8586007e+2, -856173.94, -1028303.56, -20470.965, 0.052664615, -0.13387209, -853772.9, 264785.66, 0.0, 10.00199, 9.999703 
1.5151376e+3, 1.9586033e+2, -1083905.6, -1082568.5, 9378.962, -0.13310938, -0.097970925, -1073834.3, -53282.05, 0.0, 9.999738, 9.9997425 
1.5151255e+3, 2.0585892e+2, -1061608.6, -1167218.9, 8468.276, -0.15394913, -0.13912424, -1060934.0, -138368.67, 0.0, 9.99984, 9.998444 
1.5151146e+3, 2.1585628e+2, -690608.44, -918015.75, 16348.977, -0.04884926, -0.2700631, -689439.06, 135153.19, 0.0, 10.001629, 9.99862 
1.5151031e+3, 2.258551e+2, -548086.44, -790831.44, 781.51825, -0.00972107, -0.2476614, -548083.94, 178517.83, 0.0, 10.00191, 9.998682 
1.515091e+3, 2.35855e+2, -551835.56, -728464.5, -6996.872, -0.018231196, -0.14817302, -551558.8, 77039.836, 0.0, 10.00115, 9.998804 
1.5150812e+3, 2.4585237e+2, -458898.5, -691839.44, 57735.29, 0.06463476, -0.25691846, -445373.8, 85244.94, 0.0, 10.001368, 9.998279 
1.5150727e+3, 2.5584802e+2, -220296.86, -527472.25, 67300.516, 0.2181969, -0.54357624, -206198.73, 226456.55, 0.00000026346208, 10.002338, 9.998265 
1.5150611e+3, 2.6584604e+2, -234654.9, -708800.06, -45826.69, 0.20769334, -0.45405257, -230266.31, 104411.31, 0.0000083363275, 10.002535, 9.996253 
1.5150473e+3, 2.7584583e+2, -162360.95, -587978.9, -75961.41, 0.07706021, -0.124527335, -149210.2, 87479.016, 0.000050820046, 10.002205, 9.996569 
1.5150355e+3, 2.8584328e+2, 42911.242, -291862.0, 15800.0205, 0.01935669, -0.102887936, 43655.293, 182369.88, 0.000217125, 10.002304, 9.997883 
1.5150256e+3, 2.9583913e+2, 216314.1, -142855.6, 48931.87, 0.024154032, -0.33373803, 222861.05, 263610.0, 0.00071596226, 10.0027685, 9.998005 
1.5150134e+3, 3.0583555e+2, 124948.29, -163200.92, -54363.438, 0.012412664, -0.4828641, 134863.55, 134863.55, 0.0016557103, 10.001817, 9.997995 
1.515001e+3, 3.158351e+2, -108895.516, -180558.19, -58846.047, 0.123293504, -0.36517224, -75830.25, -75830.25, 0.002908166, 9.999788, 9.998847 
1.5252163e+3, 1.2587254e+2, -1665134.4, -1506372.8, 49052.047, -0.3807322, -0.33430764, -1492440.1, 213994.84, 0.017244658, 9.999532, 10.001662 
1.5252066e+3, 1.358748e+2, -1669052.0, -1557593.5, -42208.84, -0.011718374, -0.21939811, -1543413.3, 64995.465, 0.010359608, 9.999253, 10.0007715 
1.5251966e+3, 1.4587717e+2, -1533101.3, -1577821.3, 30989.635, 0.22298437, 0.019005107, -1517247.0, -6863.3706, 0.0045741852, 10.000123, 9.999521 
1.5251812e+3, 1.5587401e+2, -1158190.8, -1326950.3, -14047.446, -0.2032919, -0.28488934, -1157029.4, 255385.53, 0.0012060112, 10.001934, 9.999702 
1.5251705e+3, 1.6587241e+2, -1179210.5, -1406789.3, 56152.29, -0.23044477, -0.3504134, -1166109.8, 148321.97, 0.000118081814, 10.001643, 9.99862 
1.5251638e+3, 1.7587227e+2, -1292686.4, -1382671.8, 127647.25, 0.089825295, -0.2500935, -1202334.5, 14100.56, 0.0000008766353, 10.000069, 9.998874 
1.5251525e+3, 1.8587232e+2, -1089329.6, -1158096.8, 77632.76, 0.06951284, -0.16651782, -1038806.94, 79627.13, 0.0, 10.000462, 9.999553 
1.5251376e+3, 1.9587244e+2, -711664.9, -921804.2, 38879.4, -0.23039791, -0.12730992, -704702.25, 315728.28, 0.0, 10.002362, 9.999587 
1.5251262e+3, 2.0587091e+2, -676129.2, -988199.5, 34120.023, -0.19543603, -0.16885145, -672442.25, 250002.48, 0.0, 10.002515, 9.998382 
1.5251176e+3, 2.1586825e+2, -721443.94, -941018.44, 20123.508, 0.08909082, -0.29668057, -719614.9, 104856.26, 0.0, 10.001451, 9.998547 
1.525106e+3, 2.2586691e+2, -656839.06, -878513.75, 1626.716, 0.11620626, -0.27104744, -656827.1, 69655.516, 0.0, 10.00131, 9.99837 
1.5250923e+3, 2.3586656e+2, -475425.72, -722778.06, 1336.1694, -0.04404341, -0.16592613, -475418.5, 153064.56, 0.0, 10.00181, 9.998523 
1.5250824e+3, 2.4586381e+2, -387637.53, -663355.25, 77092.9, 0.025029786, -0.27249208, -367545.8, 162959.31, 0.0, 10.00188, 9.998227 
1.5250751e+3, 2.5585943e+2, -324113.8, -579794.9, 43784.375, 0.26004422, -0.55731845, -316823.78, 115718.5, 0.0000003530132, 10.001634, 9.998245 
1.5250637e+3, 2.658576e+2, -309360.94, -724775.0, -22743.582, 0.2388647, -0.460827, -308119.47, 26443.271, 0.00000861748, 10.001938, 9.996429 
1.525049e+3, 2.7585766e+2, -89261.49, -533003.06, 32911.902, 0.032296963, -0.12165833, -86833.73, 149737.23, 0.000051570143, 10.002628, 9.996738 
1.5250379e+3, 2.8585526e+2, 29285.707, -289811.56, 109321.88, 0.026732974, -0.1002412, 63146.07, 201741.14, 0.00022934856, 10.002178, 9.99796 
1.5250288e+3, 2.9585108e+2, -48523.7, -266422.0, 54565.68, 0.16664475, -0.3379558, -35623.227, 5006.8413, 0.00074981863, 10.000925, 9.998051 
1.5250163e+3, 3.0584726e+2, 121518.82, -188255.98, -63703.05, 0.116226315, -0.5026061, 134107.34, 134107.34, 0.001694506, 10.001884, 9.997799 
1.5250029e+3, 3.1584585e+2, 558528.9, 155180.9, -112094.125, 0.103133544, -0.45211676, 587587.44, 587587.44, 0.0029178383, 10.004307, 9.998997 
1.5352182e+3, 1.2588732e+2, -1684118.4, -1545371.4, -30192.229, -0.16882113, 0.0035849663, -1539086.1, 167209.84, 0.018294634, 9.999519, 10.001401 
1.5352029e+3, 1.3588674e+2, -1614393.9, -1444864.3, -42254.945, -0.32426682, -0.24789351, -1434916.0, 173375.58, 0.011016667, 9.999261, 10.001546 
1.535195e+3, 1.4588784e+2, -1610506.0, -1759326.0, 90981.9, 0.022512993, -0.109519966, -1567380.8, -57101.652, 0.0048880493, 10.000204, 9.998245 
1.5351851e+3, 1.558853e+2, -1238976.9, -1473946.0, 48267.15, -0.029104417, -0.21854438, -1229448.3, 182859.31, 0.0013030368, 10.00186, 9.998725 
1.5351737e+3, 1.6588478e+2, -1024361.5, -1088297.3, -10887.173, -0.09963324, -0.25112453, -1022558.44, 291752.5, 0.00013086536, 10.001643, 10.000813 
1.5351619e+3, 1.7588603e+2, -1161625.1, -1106980.8, 81140.914, -0.1158303, -0.2289463, -1048685.4, 167607.78, 0.0000010420176, 10.000053, 10.000773 
1.5351507e+3, 1.8588564e+2, -1153494.1, -1299918.1, 142545.14, -0.17790854, -0.22086036, -1066459.0, 51836.285, 0.0, 10.000493, 9.998566 
1.5351394e+3, 1.9588396e+2, -778961.56, -1053808.8, 104198.83, -0.29729074, -0.26800013, -743924.6, 276388.2, 0.0, 10.002327, 9.998698 
1.5351291e+3, 2.0588267e+2, -697379.3, -1019705.44, -10946.495, -0.16593604, -0.23423238, -697008.0, 225318.72, 0.0, 10.0024605, 9.998192 
1.5351197e+3, 2.1588176e+2, -743346.3, -973672.0, -9704.782, 0.15300559, -0.16771859, -742938.1, 81399.35, 0.0, 10.001395, 9.998348 
1.5351076e+3, 2.2587985e+2, -676577.9, -901511.56, 16694.24, 0.15400118, -0.18315881, -675345.6, 51008.793, 0.0, 10.001231, 9.998251 
1.535094e+3, 2.3587723e+2, -493580.97, -747769.5, 23838.332, -0.07268995, -0.29364187, -491364.7, 137011.23, 0.0, 10.001752, 9.99838 
1.5350835e+3, 2.458752e+2, -436072.03, -742133.44, 65092.113, -0.056037284, -0.29586217, -422803.66, 107590.52, 0.0, 10.001792, 9.9977255 
1.5350756e+3, 2.5587365e+2, -356415.75, -631854.5, 44686.06, 0.13353328, -0.24580199, -349347.44, 83061.91, 0.0000004707298, 10.001574, 9.997914 
1.5350646e+3, 2.6587135e+2, -213597.23, -512970.88, -1337.9689, 0.13510768, -0.26633683, -213591.25, 120839.54, 0.000008627056, 10.001877, 9.997915 
1.5350516e+3, 2.7586842e+2, -7912.842, -351845.66, 57492.32, 0.004792873, -0.37540558, 1443.1492, 237900.39, 0.00005249565, 10.002576, 9.998009 
1.5350404e+3, 2.8586635e+2, -53648.414, -447317.7, 58361.793, 0.054484434, -0.31703836, -45178.465, 93299.55, 0.0002422958, 10.00211, 9.996914 
1.5350305e+3, 2.9586512e+2, -121112.45, -410496.78, 28676.023, 0.2201353, -0.16148898, -118298.23, -77805.234, 0.0007832617, 10.000892, 9.997078 
1.5350184e+3, 3.0586138e+2, 67791.81, -273776.8, 24424.914, 0.11832386, -0.2432979, 69529.55, 69529.55, 0.0017341964, 10.001787, 9.997251 
1.5350065e+3, 3.1585675e+2, 519234.25, 117938.1, -2046.5153, 0.011041795, -0.46878767, 519244.7, 519244.7, 0.0029379996, 10.004146, 9.998801 
1.5452187e+3, 1.2590063e+2, -1878308.5, -1781318.6, 74617.13, -0.040623244, 0.046057448, -1740822.1, -34662.555, 0.019406972, 9.998814, 10.000099 
1.5452026e+3, 1.3589849e+2, -1327670.4, -1378131.6, -9187.453, -0.3843418, -0.28444555, -1326049.8, 282124.4, 0.0117135905, 10.001561, 10.000899 
1.5451957e+3, 1.4589864e+2, -1352937.4, -1610421.6, 107203.766, -0.013008631, -0.22564113, -1314146.9, 196024.77, 0.0052204016, 10.00188, 9.998455 
1.5451868e+3, 1.558973e+2, -1417120.3, -1547809.6, 152948.55, 0.023261182, -0.22968155, -1316142.4, 96044.91, 0.0014059248, 10.000566, 9.998851 
1.5451749e+3, 1.6589732e+2, -1244763.6, -1203059.9, 28276.701, -0.05665076, -0.21006505, -1188778.1, 125407.56, 0.00014487762, 10.000175, 10.000723 
1.5451619e+3, 1.7589854e+2, -1084415.1, -1078118.3, -47288.305, -0.14977886, -0.18543202, -1033873.75, 182295.64, 0.000001197513, 10.00061, 10.000701 
1.5451512e+3, 1.8589768e+2, -1114552.1, -1266420.3, 53466.668, -0.17542273, -0.22886427, -1097617.1, 20558.527, 0.0, 10.000708, 9.99869 
1.545142e+3, 1.958953e+2, -1010631.94, -1147875.3, 80398.36, -0.18436061, -0.35758945, -973552.0, 46646.195, 0.0, 10.000671, 9.998846 
1.5451318e+3, 2.0589432e+2, -896276.5, -1097870.4, -16983.805, -0.06829975, -0.30960396, -894855.7, 27353.305, 0.0, 10.001027, 9.998345 
1.5451212e+3, 2.1589443e+2, -694289.8, -933837.3, 652.22894, 0.1488687, -0.15451056, -694288.06, 129922.48, 0.0, 10.001677, 9.998484 
1.5451092e+3, 2.2589238e+2, -587810.8, -860865.5, 63944.848, 0.14062268, -0.18723729, -573577.9, 152650.78, 0.0, 10.00185, 9.998232 
1.5450959e+3, 2.3588884e+2, -510677.2, -761451.44, 65333.547, -0.037106693, -0.3869324, -494676.9, 133581.69, 0.0, 10.001661, 9.998331 
1.5450856e+3, 2.4588694e+2, -478829.94, -801902.56, 117261.19, -0.015169256, -0.3547673, -440756.22, 89520.805, 0.000000000009610117, 10.001664, 9.997379 
1.5450774e+3, 2.5588623e+2, -348624.7, -664015.1, 100148.86, 0.1485947, -0.18606284, -319510.97, 112775.95, 0.0000005675007, 10.001783, 9.997597 
1.5450664e+3, 2.6588383e+2, -202993.53, -489739.4, 24636.764, 0.13044427, -0.2083987, -200892.19, 133417.11, 0.000008574752, 10.00188, 9.99807 
1.5450536e+3, 2.7588013e+2, -89654.87, -381530.72, -31146.145, -0.02297573, -0.40630108, -86368.26, 149972.84, 0.000054083343, 10.00197, 9.998098 
1.5450425e+3, 2.8587753e+2, -72357.13, -489246.47, -62291.406, 0.060726997, -0.3911894, -63248.59, 75118.61, 0.0002552126, 10.002136, 9.996602 
1.5450329e+3, 2.9587585e+2, 71699.195, -349447.88, -47822.594, 0.30025217, -0.24490209, 77061.33, 117448.97, 0.0008167423, 10.002364, 9.996781 
1.5450205e+3, 3.0587348e+2, 130880.43, -202353.2, 63049.504, 0.16028865, -0.1970779, 142410.75, 142410.75, 0.0017831527, 10.0020275, 9.997629 
1.5450086e+3, 3.1587017e+2, 103882.51, -54840.516, 81537.086, -0.04356857, -0.32421768, 138303.88, 138303.88, 0.0029899941, 10.001124, 9.999081 
1.5552174e+3, 1.2591302e+2, -2017953.4, -2094039.1, 89580.86, -0.07073339, -0.15538944, -1958672.1, -252650.6, 0.020587768, 9.998907, 9.997914 
1.5552056e+3, 1.3591027e+2, -1478929.0, -1663299.5, 84000.69, -0.25850257, -0.31349677, -1446397.6, 161656.11, 0.012455585, 10.00145, 9.998975 
1.5551981e+3, 1.459097e+2, -1248662.9, -1387441.1, 51902.273, 0.03402872, -0.32696983, -1231399.3, 278660.9, 0.0055746003, 10.001841, 10.000012 
1.5551862e+3, 1.5591022e+2, -1337590.0, -1379500.5, 112725.76, -0.09235564, -0.29914275, -1243888.3, 168164.23, 0.001515748, 10.000555, 10.000008 
1.5551744e+3, 1.6591023e+2, -1392058.8, -1523880.5, 35953.617, -0.14282794, -0.20882806, -1382890.3, -68836.125, 0.00016035176, 10.000232, 9.998499 
1.5551634e+3, 1.7590994e+2, -1218436.4, -1353019.0, -29113.064, -0.055254918, -0.11398557, -1212408.6, 3653.1738, 0.0000013687348, 10.000598, 9.998821 
1.5551539e+3, 1.8590859e+2, -1032673.5, -1098296.0, 48387.105, 0.02053311, -0.18466847, -1007022.0, 111050.87, 0.0, 10.000711, 9.999843 
1.5551451e+3, 1.9590652e+2, -941945.7, -995369.1, 86553.11, 0.0528955, -0.39597633, -878076.2, 142009.8, 0.0, 10.00063, 9.999912 
1.5551342e+3, 2.0590585e+2, -869499.06, -1034850.3, 1057.8354, 0.05207392, -0.38930643, -869492.25, 52598.965, 0.0, 10.000986, 9.998802 
1.5551218e+3, 2.1590619e+2, -671791.56, -875080.0, 26483.875, 0.042487744, -0.25776783, -668397.94, 155692.89, 0.0, 10.0016165, 9.99892 
1.5551099e+3, 2.2590445e+2, -595347.1, -858731.06, 53137.055, 0.030224683, -0.28413787, -585030.94, 141075.23, 0.0, 10.001772, 9.998284 
1.5550981e+3, 2.3590131e+2, -515136.5, -760397.5, 64787.71, 0.012207709, -0.45031756, -499074.22, 129057.93, 0.0, 10.001616, 9.998359 
1.5550885e+3, 2.4589895e+2, -504105.13, -840198.4, 116866.65, 0.09715004, -0.451842, -467463.0, 62691.688, 0.0, 10.0016, 9.99715 
1.5550803e+3, 2.5589713e+2, -378003.44, -710968.3, 109946.83, 0.25894445, -0.3717795, -344974.72, 87200.2, 0.0000005355393, 10.001722, 9.997304 
1.5550688e+3, 2.65895e+2, -298299.28, -671468.9, 27915.037, 0.1724896, -0.28534898, -296222.63, 37975.613, 0.000008556659, 10.001808, 9.996858 
1.555055e+3, 2.7589273e+2, -170432.63, -539572.06, -18642.977, -0.09066901, -0.2245908, -169493.48, 66729.93, 0.00005618316, 10.001931, 9.997029 
1.5550442e+3, 2.858886e+2, -56560.96, -444771.03, -57613.88, 0.008623605, -0.33024237, -48191.004, 90072.734, 0.0002694524, 10.002081, 9.996938 
1.5550359e+3, 2.9588324e+2, 97810.055, -286772.53, -33242.14, 0.35755557, -0.591306, 100662.25, 140976.72, 0.0008545011, 10.002325, 9.997232 
1.5550229e+3, 3.0588353e+2, 189255.94, -47839.594, 28186.709, 0.18720455, -0.36146212, 192560.8, 192560.8, 0.0018516757, 10.001904, 9.998744 
1.5550087e+3, 3.1588602e+2, 138651.72, 57641.12, 71133.26, -0.14809695, -0.022136088, 180003.73, 180003.73, 0.003092014, 10.000981, 9.9999075 
1.5652177e+3, 1.2592268e+2, -1624242.6, -1871062.1, -168219.78, -0.06703089, -0.31683826, -1539019.1, 166903.6, 0.021849003, 10.001478, 9.998219 
1.5652063e+3, 1.3592133e+2, -1793665.3, -1816676.0, 27110.596, -0.19512843, -0.33392152, -1775719.8, -167776.89, 0.013250772, 9.999262, 9.998989 
1.5651986e+3, 1.4592102e+2, -1615158.0, -1505900.8, 22645.266, 0.037033547, -0.34772065, -1501393.1, 8553.618, 0.0059556314, 9.999077, 10.0005245 
1.565187e+3, 1.5592226e+2, -1334335.9, -1330344.5, -1677.8846, -0.064337224, -0.29829204, -1329732.9, 82198.29, 0.0016345053, 10.000375, 10.000433 
1.5651755e+3, 1.65922e+2, -1316636.8, -1531549.4, -10226.514, -0.090531796, -0.23304433, -1316151.3, -2215.2869, 0.00017771397, 10.000951, 9.998097 
1.565165e+3, 1.7592067e+2, -1157368.1, -1360799.6, 42073.81, 0.0156013705, -0.20041722, -1149009.8, 66945.32, 0.0000016137079, 10.001182, 9.998485 
1.5651551e+3, 1.8591958e+2, -1019727.06, -1053518.4, 114944.33, 0.079232275, -0.24664783, -920443.25, 197520.63, 0.0, 10.000635, 10.000185 
1.5651456e+3, 1.9591875e+2, -1068519.3, -1020107.94, 92205.78, 0.07694285, -0.37065303, -948983.5, 70981.31, 0.0, 9.999598, 10.000243 
1.5651342e+3, 2.0591822e+2, -1052612.5, -1083266.0, 30163.494, 0.04538714, -0.3835903, -1034105.2, -112137.61, 0.0, 9.999558, 9.999153 
1.5651223e+3, 2.1591796e+2, -842975.8, -923163.1, 38607.203, -0.0008212089, -0.3485579, -827409.6, -3438.352, 0.0, 10.000293, 9.999223 
1.5651113e+3, 2.2591655e+2, -673884.9, -931309.06, 51512.02, 0.011745614, -0.33902523, -663959.7, 62025.09, 0.0, 10.001385, 9.9979725 
1.5651008e+3, 2.3591438e+2, -374733.4, -723147.44, 24847.604, 0.060761053, -0.3759018, -372970.3, 255034.52, 0.0, 10.002706, 9.998092 
1.565091e+3, 2.459119e+2, -305403.56, -711462.25, 63944.91, 0.13733852, -0.39390126, -295571.75, 234456.75, 0.0, 10.002818, 9.997449 
1.5650818e+3, 2.5590923e+2, -308636.22, -652384.06, 83638.19, 0.22633593, -0.42918593, -289366.22, 142688.2, 0.00000039469393, 10.002088, 9.99753 
1.5650706e+3, 2.6590705e+2, -289395.28, -724867.75, 76332.56, 0.15813917, -0.32997456, -276402.84, 57676.555, 0.000008163994, 10.002122, 9.996342 
1.565058e+3, 2.7590525e+2, -92491.03, -557331.0, 70706.12, -0.023640798, -0.16442044, -81973.984, 154129.5, 0.000058034057, 10.002702, 9.996542 
1.565047e+3, 2.859011e+2, 93115.18, -344529.22, 50245.6, 0.033918474, -0.2638581, 98809.74, 236954.14, 0.00028458447, 10.002994, 9.997188 
1.5650375e+3, 2.9589537e+2, 219354.03, -206569.77, 45337.516, 0.25189894, -0.5834568, 224126.5, 264322.7, 0.0008964698, 10.003075, 9.997423 
1.5650249e+3, 3.058954e+2, 335251.13, 5333.694, 34187.52, 0.14180483, -0.37808678, 338756.53, 338756.53, 0.0019394822, 10.002974, 9.998597 
1.5650122e+3, 3.1589723e+2, 353136.53, 90141.92, -29009.88, 0.010753345, -0.08581589, 356298.47, 356298.47, 0.0032461127, 10.002741, 9.999298 
1.5752184e+3, 1.2593022e+2, -1457784.3, -1501983.9, -298215.9, -0.15004376, -0.41224527, -1180850.5, 525005.4, 0.023204513, 10.001386, 10.000832 
1.5752053e+3, 1.3593206e+2, -1668642.1, -1557683.8, -35219.83, -0.23844332, -0.32042146, -1547448.5, 60388.19, 0.014108494, 9.999275, 10.000756 
1.5751968e+3, 1.4593285e+2, -1632621.0, -1569409.6, 64754.633, -0.04774396, -0.27235776, -1528959.3, -19130.75, 0.0063687824, 9.999182, 10.000045 
1.5751888e+3, 1.5593362e+2, -1355873.3, -1368449.1, 47165.492, 0.06132118, -0.22597428, -1314578.4, 97242.55, 0.00176415, 10.000345, 10.000186 
1.5751779e+3, 1.6593283e+2, -1229349.8, -1347654.6, -5777.0615, 0.043924294, -0.2754367, -1229068.4, 84760.47, 0.00019721544, 10.000934, 9.999369 
1.5751664e+3, 1.759309e+2, -1087996.9, -1207210.5, 51680.215, 0.018527662, -0.42801347, -1068712.5, 147135.56, 0.0000019795527, 10.001143, 9.999555 
1.5751548e+3, 1.8593076e+2, -1046429.0, -1114819.8, 70275.48, -0.036014047, -0.40434176, -1002470.9, 115377.625, 0.0, 10.000655, 9.999757 
1.5751429e+3, 1.9593194e+2, -1093048.8, -1070976.9, 61900.633, -0.14163889, -0.28425124, -1019136.1, 698.87506, 0.0, 9.999599, 9.999893 
1.5751322e+3, 2.0593144e+2, -1034085.8, -1046325.5, 54277.234, -0.13059525, -0.29378575, -985584.5, -63746.82, 0.0, 9.99956, 9.999406 
1.5751225e+3, 2.1592978e+2, -840028.25, -904903.0, 72586.84, -0.027056893, -0.42369738, -792960.7, 30890.875, 0.0, 10.000243, 9.999371 
1.5751131e+3, 2.259287e+2, -731692.3, -1035109.44, 97356.76, 0.035714027, -0.35112208, -703140.44, 22724.16, 0.0, 10.001311, 9.997296 
1.5751037e+3, 2.3592804e+2, -425256.1, -807584.6, 73080.984, 0.06359227, -0.17144693, -411763.06, 216113.83, 0.0, 10.002619, 9.997554 
1.5750931e+3, 2.459258e+2, -268211.94, -612154.75, 32489.19, 0.053340584, -0.18063796, -265169.88, 264728.3, 0.0, 10.002721, 9.998177 
1.575082e+3, 2.5592247e+2, -268046.78, -558479.25, 65100.88, 0.016689755, -0.3556484, -254121.97, 177803.72, 0.00000029448665, 10.002046, 9.998193 
1.5750717e+3, 2.6591986e+2, -288094.5, -714090.06, 95494.25, 0.04972111, -0.3356912, -267667.3, 66285.92, 0.000007127328, 10.002083, 9.996438 
1.5750621e+3, 2.759177e+2, -90237.01, -540117.5, 98806.06, 0.12664466, -0.22207963, -69493.0, 166488.56, 0.000058357444, 10.002646, 9.996686 
1.5750505e+3, 2.85915e+2, 84731.12, -350070.28, 51734.1, 0.07752879, -0.18528919, 90801.85, 228810.86, 0.0002965317, 10.002934, 9.997182 
1.5750375e+3, 2.959121e+2, 203855.3, -231467.31, 57146.91, -0.059922647, -0.21954717, 211232.25, 251265.92, 0.0009377398, 10.003039, 9.99727 
1.5750262e+3, 3.0590892e+2, 223914.77, -205179.73, 23597.605, -0.021946255, -0.24954529, 225208.6, 225208.6, 0.0020369852, 10.002895, 9.997182 
1.5750183e+3, 3.159038e+2, 201680.27, -185462.25, -15138.6455, 0.33356744, -0.5141329, 202271.34, 202271.34, 0.0034308797, 10.002596, 9.997458 
1.5852189e+3, 1.25941e+2, -1846773.5, -1616333.3, -102573.18, -0.09806326, -0.43442947, -1577290.9, 128459.45, 0.024665277, 9.99838, 10.001465 
1.585206e+3, 1.3594377e+2, -1365754.9, -1377127.3, 32908.543, -0.19643784, -0.2891648, -1338044.9, 269675.25, 0.0150364665, 10.001227, 10.001074 
1.5851961e+3, 1.4594449e+2, -1382930.1, -1488492.5, 73335.77, -0.14922288, -0.2402181, -1345356.5, 164356.56, 0.0068181083, 10.001085, 9.999677 
1.5851884e+3, 1.5594408e+2, -1540908.3, -1486001.8, 52210.31, 0.05441374, -0.2758096, -1454466.9, -42747.906, 0.0019058621, 9.999197, 9.99993 
1.585178e+3, 1.6594364e+2, -1448067.4, -1360215.3, 25525.604, 0.04491506, -0.3261166, -1353337.3, -39614.336, 0.0002187055, 9.999034, 10.0001955 
1.5851662e+3, 1.7594302e+2, -1190665.3, -1175608.5, 39616.902, -0.057977937, -0.4274526, -1142811.0, 72915.56, 0.000002466339, 10.000088, 10.00028 
1.5851548e+3, 1.8594325e+2, -1042630.8, -1141867.9, 34267.76, -0.11235464, -0.3855794, -1031947.8, 85776.07, 0.0, 10.000813, 9.999493 
1.5851432e+3, 1.9594413e+2, -844780.94, -974755.56, 29051.47, -0.1642625, -0.27020055, -838583.06, 181132.84, 0.0, 10.001406, 9.999681 
1.585133e+3, 2.0594351e+2, -728757.25, -886619.8, 46062.926, -0.121851854, -0.28811008, -716299.56, 205419.61, 0.0, 10.001612, 9.999516 
1.5851237e+3, 2.1594182e+2, -637569.5, -797302.06, 45075.145, -0.00082253723, -0.42885506, -625727.6, 198003.05, 0.0, 10.001583, 9.999472 
1.5851144e+3, 2.259405e+2, -698792.25, -1001545.1, 120168.39, 0.043401156, -0.39366618, -656893.56, 68851.625, 0.0, 10.001465, 9.997452 
1.585105e+3, 2.359395e+2, -598392.56, -879540.2, 142812.6, 0.020635873, -0.26041895, -538575.7, 89185.31, 0.0, 10.001377, 9.997662 
1.585095e+3, 2.4593745e+2, -384842.56, -692088.0, 81000.38, 0.00044749514, -0.2406514, -364796.06, 164985.8, 0.0, 10.002035, 9.997948 
1.585084e+3, 2.5593475e+2, -108108.38, -499561.5, 31444.57, -0.021883273, -0.33252844, -105598.6, 326207.25, 0.00000023115544, 10.003224, 9.998024 
1.5850744e+3, 2.6593232e+2, -59050.7, -527591.44, 53819.465, 0.04982137, -0.32111856, -52948.15, 280882.94, 0.0000061293663, 10.003335, 9.997106 
1.5850654e+3, 2.7593014e+2, -37476.086, -446964.34, 84971.94, 0.18366954, -0.27457497, -20543.898, 215313.2, 0.00005923624, 10.002727, 9.997279 
1.5850538e+3, 2.85928e+2, 86560.586, -365237.1, 73945.836, 0.119482405, -0.19684747, 98355.4, 236234.36, 0.00030706255, 10.003017, 9.997034 
1.5850405e+3, 2.9592615e+2, 317015.44, -194853.53, 51256.395, -0.09496861, -0.1156878, 322097.56, 361993.44, 0.0009776513, 10.003892, 9.997108 
1.5850294e+3, 3.05922e+2, 365029.56, -171934.45, 46868.62, -0.048756342, -0.21963772, 369089.75, 369089.75, 0.0021345343, 10.003986, 9.996904 
1.5850215e+3, 3.1591555e+2, 286967.63, -216328.11, 77397.32, 0.35934207, -0.585267, 298600.97, 298600.97, 0.0036136245, 10.003468, 9.996845 
1.5952183e+3, 1.2595487e+2, -1922075.3, -1800238.4, 26372.438, -0.0052455734, -0.38452348, -1794774.9, -89167.22, 0.026239868, 9.998497, 10.00013 
1.5952082e+3, 1.3595651e+2, -1446641.5, -1526090.3, 121851.445, -0.11287378, -0.24535926, -1358202.8, 249389.98, 0.016040104, 10.001145, 10.000073 
1.5951957e+3, 1.4595607e+2, -1412418.9, -1545644.5, -5534.554, -0.31618872, -0.24776798, -1412189.4, 97409.51, 0.0073062, 10.001055, 9.999303 
1.5951858e+3, 1.5595382e+2, -1563491.4, -1533156.8, -1971.6917, -0.12048475, -0.4290308, -1533029.1, -121405.83, 0.002060233, 9.999199, 9.999607 
1.5951754e+3, 1.6595449e+2, -1412612.1, -1297647.1, 61545.96, -0.123186536, -0.37463692, -1270914.8, 42702.305, 0.00024185247, 9.999079, 10.000605 
1.5951645e+3, 1.7595702e+2, -1167704.9, -1122007.3, 81919.43, -0.24361074, -0.20477946, -1059809.9, 155780.7, 0.0000030340082, 10.000066, 10.000657 
1.5951549e+3, 1.8595706e+2, -1049126.4, -1155781.8, 51931.684, -0.19345751, -0.19510566, -1028017.94, 89571.875, 0.0, 10.000811, 9.999399 
1.595146e+3, 1.9595546e+2, -861104.4, -996584.3, 54783.676, -0.038885158, -0.31668106, -841724.0, 177881.84, 0.0, 10.001359, 9.999552 
1.5951361e+3, 2.059545e+2, -738180.1, -902139.25, 39835.125, 0.021613993, -0.35334966, -729014.3, 192596.81, 0.0, 10.001588, 9.999421 
1.5951256e+3, 2.1595404e+2, -646918.25, -797995.8, 45881.184, 0.02954761, -0.36763313, -634076.06, 189532.69, 0.0, 10.001505, 9.999503 
1.5951154e+3, 2.25952e+2, -645045.3, -873118.5, 111813.83, -0.017078869, -0.45755205, -599373.8, 126252.13, 0.0, 10.001385, 9.998374 
1.5951054e+3, 2.3594889e+2, -558064.1, -781598.4, 149453.22, -0.10730188, -0.628466, -483208.22, 144448.23, 0.0, 10.001313, 9.998366 
1.5950964e+3, 2.4594699e+2, -480811.63, -874407.2, 123795.95, -0.07022979, -0.55888486, -445112.5, 84566.23, 0.0, 10.001963, 9.996733 
1.5950882e+3, 2.5594598e+2, -187856.33, -646772.44, 76792.52, 0.06262444, -0.36004087, -175347.25, 256347.95, 0.00000009760233, 10.003148, 9.997049 
1.5950786e+3, 2.6594442e+2, 9727.161, -369357.97, 27336.383, 0.11336406, -0.2800134, 11688.282, 345401.0, 0.0000054247644, 10.0032625, 9.998229 
1.5950674e+3, 2.7594256e+2, 22693.486, -309471.66, 75050.805, 0.105491176, -0.31546262, 38863.605, 274594.16, 0.000061938634, 10.002669, 9.998251 
1.595057e+3, 2.8594008e+2, 54291.598, -415582.6, 104389.53, 0.10691697, -0.3001062, 76439.336, 214195.08, 0.0003177167, 10.002946, 9.996725 
1.5950465e+3, 2.959373e+2, 297484.75, -224313.56, 87644.945, 0.102780655, -0.28363883, 311812.78, 351598.03, 0.0010084098, 10.00384, 9.996936 
1.595034e+3, 3.0593455e+2, 403634.44, -61774.535, 24614.031, 0.008768942, -0.28347713, 404932.56, 404932.56, 0.0022063714, 10.00388, 9.997704 
1.5950216e+3, 3.1593254e+2, 306436.34, -131068.65, 85595.12, -0.0027518321, -0.28142583, 322586.34, 322586.34, 0.0037437903, 10.003305, 9.997496 
1.6052173e+3, 1.2596674e+2, -1616654.9, -1726146.0, -28223.1, -0.08141227, -0.36686823, -1609808.1, 95679.875, 0.027939666, 10.000928, 9.999466 
1.6052088e+3, 1.3596715e+2, -1920001.9, -1799859.3, 30244.729, -0.009082277, -0.29783195, -1792675.0, -185187.52, 0.01712635, 9.998074, 9.999664 
1.6051953e+3, 1.4596677e+2, -1850821.8, -1695987.5, -22174.047, -0.2985253, -0.30631325, -1692874.5, -183381.14, 0.007836914, 9.997792, 9.999836 
1.6051851e+3, 1.5596578e+2, -1439888.1, -1423700.5, 35975.82, -0.14446415, -0.41650254, -1394919.3, 16584.87, 0.0022287087, 9.9998255, 10.000057 
1.6051748e+3, 1.659665e+2, -1255180.0, -1234471.1, 116577.38, -0.1376346, -0.3685907, -1127789.3, 185706.98, 0.00026665046, 10.000225, 10.000484 
1.6051643e+3, 1.7596833e+2, -1238069.6, -1170127.3, 89704.61, -0.24775107, -0.2554407, -1108176.9, 107299.18, 0.0000036433328, 9.999643, 10.000534 
1.6051553e+3, 1.8596825e+2, -1198723.0, -1244217.0, 63821.28, -0.17910603, -0.244234, -1153716.1, -36239.03, 0.0, 9.999852, 9.999253 
1.6051474e+3, 1.9596687e+2, -974579.25, -1071394.6, 50765.625, 0.008785166, -0.3292645, -952841.0, 66651.48, 0.0, 10.000652, 9.999383 
1.6051374e+3, 2.059657e+2, -895277.3, -1013422.25, 3757.603, 0.049206432, -0.36376572, -895157.94, 26343.604, 0.0, 10.000671, 9.999097 
1.605126e+3, 2.1596476e+2, -847909.9, -923430.7, -16137.987, -0.015226277, -0.39071205, -844605.94, -21100.799, 0.0, 10.000254, 9.99924 
1.605116e+3, 2.2596285e+2, -729697.25, -877583.3, 46543.883, -0.058694143, -0.472089, -716268.06, 9252.471, 0.0, 10.000655, 9.99869 
1.6051069e+3, 2.3596033e+2, -486711.6, -706082.5, 30086.527, -0.09378385, -0.61617357, -482660.06, 144883.36, 0.0, 10.00164, 9.998715 
1.6050987e+3, 2.4595867e+2, -462259.47, -827232.5, 63581.35, -0.036239024, -0.5611338, -451500.25, 78061.96, 0.0, 10.001923, 9.997084 
1.605091e+3, 2.5595763e+2, -375229.63, -703352.8, 119936.43, 0.08988984, -0.39336708, -336064.84, 95512.6, 0.000000007673713, 10.001719, 9.997355 
1.6050808e+3, 2.65956e+2, -190700.6, -482604.78, 51350.617, 0.094620526, -0.3264107, -181930.69, 151665.45, 0.0000049766613, 10.001961, 9.998077 
1.605069e+3, 2.7595398e+2, -8092.9453, -336509.75, -7885.7026, 0.013660581, -0.3611936, -7903.7085, 227713.36, 0.00006397672, 10.002506, 9.998147 
1.6050595e+3, 2.8595164e+2, 61636.15, -350947.88, 47750.9, 0.0865372, -0.3580898, 67090.55, 204731.28, 0.0003242289, 10.0027275, 9.997276 
1.6050513e+3, 2.9594925e+2, 175236.58, -222560.1, 79990.305, 0.2543632, -0.3545707, 190718.73, 230383.23, 0.0010201149, 10.002738, 9.997477 
1.6050386e+3, 3.0594686e+2, 329276.2, -83833.57, 15920.925, 0.1287517, -0.34908974, 329888.84, 329888.84, 0.0022306554, 10.003302, 9.9978285 
1.6050245e+3, 3.1594634e+2, 448236.22, -41726.81, 5227.4985, -0.06968415, -0.21146825, 448291.97, 448291.97, 0.0037872498, 10.0041685, 9.997704 
1.6152157e+3, 1.2597664e+2, -1615477.4, -1727628.8, -63379.176, -0.36060956, -0.3994327, -1586928.0, 118462.25, 0.02978273, 10.000938, 9.999457 
1.6152076e+3, 1.3597621e+2, -1908281.5, -1778751.1, -65122.35, 0.06670003, -0.41521066, -1751671.6, -144272.3, 0.018308382, 9.998084, 9.999808 
1.6151945e+3, 1.459768e+2, -1747407.4, -1496521.6, 47809.926, -0.16111115, -0.40659973, -1487719.6, 21674.768, 0.008418617, 9.997851, 10.00118 
1.6151857e+3, 1.5597981e+2, -1366249.1, -1259961.3, 107111.79, -0.06587, -0.24436978, -1193534.3, 217828.25, 0.0024150687, 9.999786, 10.001201 
1.615176e+3, 1.6597962e+2, -1291044.6, -1321650.4, 86647.43, -0.05306495, -0.30579296, -1218359.1, 95001.81, 0.0002938315, 10.000265, 9.999871 
1.6151653e+3, 1.7597719e+2, -1279493.9, -1259456.3, 75971.26, -0.11939272, -0.55939466, -1192846.0, 22534.984, 0.000004294035, 9.999651, 9.999919 
1.615156e+3, 1.8597697e+2, -1210850.5, -1275059.4, 90086.28, -0.11980745, -0.5177587, -1147319.0, -29934.639, 0.0, 9.999877, 9.999028 
1.6151474e+3, 1.9597837e+2, -996555.9, -1110182.4, 81279.18, -0.062959656, -0.30429283, -954202.3, 65173.367, 0.0, 10.000625, 9.999129 
1.6151369e+3, 2.059771e+2, -941356.4, -1097959.0, -19750.512, -0.08610927, -0.30856302, -938903.9, -17514.092, 0.0, 10.000623, 9.998539 
1.6151248e+3, 2.1597405e+2, -892503.3, -1006301.1, -22656.057, -0.16343702, -0.4906699, -888158.56, -64739.94, 0.0, 10.000215, 9.998689 
1.6151161e+3, 2.259731e+2, -760935.1, -927730.56, 79803.99, -0.11863882, -0.4329866, -728903.9, -3475.8193, 0.0, 10.000593, 9.998376 
1.6151096e+3, 2.3597364e+2, -502027.3, -723174.7, 69202.32, 0.007747002, -0.24042584, -482157.5, 145265.86, 0.0, 10.001579, 9.998627 
1.6151014e+3, 2.459723e+2, -341241.5, -560566.9, 51018.203, 0.042815633, -0.2517074, -329954.78, 199478.6, 0.0, 10.001853, 9.998949 
1.615092e+3, 2.5596967e+2, -277814.66, -485530.34, 121013.17, 0.015993122, -0.43271512, -222202.63, 209250.52, 0.00000000987263, 10.001651, 9.998884 
1.6150816e+3, 2.6596698e+2, -307892.72, -707596.1, 68282.56, -0.047931734, -0.4617791, -296549.7, 36932.953, 0.000004852554, 10.001879, 9.996573 
1.6150703e+3, 2.7596417e+2, -101567.02, -515836.94, 19082.035, -0.13633047, -0.42614537, -100689.93, 134829.08, 0.00006378427, 10.002447, 9.9969425 
1.6150615e+3, 2.8596255e+2, 151113.06, -155692.5, 43593.594, 0.007821626, -0.36889765, 157186.97, 294721.75, 0.0003243143, 10.002683, 9.99864 
1.6150548e+3, 2.9596198e+2, 251360.92, -53818.566, 92963.03, 0.30565208, -0.32166913, 277448.97, 316983.2, 0.0010147488, 10.0026865, 9.998664 
1.6150433e+3, 3.0595887e+2, 270594.72, -174529.31, 44559.695, 0.25366703, -0.416243, 275011.6, 275011.6, 0.0022135782, 10.003191, 9.997246 
1.6150303e+3, 3.1595677e+2, 410115.75, -70336.06, 51527.473, 0.06646266, -0.37737885, 415579.84, 415579.84, 0.0037509901, 10.003993, 9.997569 
1.6252166e+3, 1.2598646e+2, -1924619.1, -1788283.6, -54056.395, -0.24371582, -0.38243344, -1769451.8, -64154.637, 0.03179242, 9.998422, 10.00024 
1.6252057e+3, 1.3598683e+2, -1692286.5, -1634684.1, -122709.5, 0.0057784095, -0.3583176, -1537441.1, 69855.91, 0.019603958, 9.999382, 10.000179 
1.6251928e+3, 1.4598718e+2, -1555323.8, -1359753.1, 27986.98, -0.17854634, -0.40935528, -1355826.9, 153465.61, 0.009062119, 9.998988, 10.001574 
1.6251853e+3, 1.5599051e+2, -1540649.4, -1300345.9, 20091.418, -0.019846397, -0.25797677, -1298677.6, 112578.18, 0.002624408, 9.998416, 10.001572 
1.6251764e+3, 1.6599034e+2, -1491015.4, -1438267.5, -11762.371, 0.02628051, -0.32611337, -1435763.5, -122509.625, 0.00032476612, 9.998986, 9.9996805 
1.6251661e+3, 1.7598751e+2, -1203589.0, -1240668.8, -1652.046, -0.026599068, -0.59952605, -1203515.5, 11762.758, 0.000005034694, 10.000252, 9.999754 
1.6251566e+3, 1.8598717e+2, -1146513.6, -1249045.4, 35053.914, -0.055090547, -0.56313294, -1135675.0, -18391.342, 0.0, 10.000347, 9.998981 
1.6251476e+3, 1.9598868e+2, -1130848.0, -1172063.9, 31530.18, -0.062094394, -0.33588785, -1113788.5, -94514.25, 0.0, 9.999708, 9.999139 
1.6251372e+3, 2.0598781e+2, -985654.6, -1109814.5, -10517.437, -0.09617642, -0.30450168, -984770.0, -63484.777, 0.0, 10.000272, 9.998631 
1.6251259e+3, 2.1598531e+2, -676920.7, -896007.56, 27104.936, -0.14761898, -0.44051042, -673617.1, 149693.23, 0.0, 10.001661, 9.998756 
1.6251178e+3, 2.259844e+2, -519695.0, -831826.75, 163715.34, -0.09009378, -0.37249383, -449576.72, 275743.16, 0.0, 10.002332, 9.998198 
1.6251118e+3, 2.3598465e+2, -378695.0, -684520.06, 146634.89, 0.03006245, -0.19024497, -319749.03, 307568.66, 0.0, 10.00251, 9.998449 
1.6251035e+3, 2.4598293e+2, -291506.38, -529557.9, 27466.107, 0.05808457, -0.23441058, -288378.47, 240952.1, 0.0, 10.00216, 9.999009 
1.6250935e+3, 2.5597984e+2, -297343.7, -487442.63, -42948.516, 0.01395515, -0.46932045, -288090.8, 143262.9, 0.000000011745934, 10.00147, 9.998959 
1.6250832e+3, 2.6597735e+2, -301611.4, -670277.25, -17111.846, -0.04409091, -0.4965915, -300818.84, 32560.973, 0.0000048598445, 10.001775, 9.9968815 
1.625073e+3, 2.759753e+2, -31841.176, -451788.7, 51718.047, -0.10953356, -0.41514432, -25565.69, 209841.89, 0.000062331186, 10.00279, 9.997218 
1.6250648e+3, 2.8597385e+2, 250641.34, -107663.25, 58350.594, 0.03130032, -0.35376444, 259904.38, 397325.94, 0.0003208773, 10.003379, 9.99863 
1.6250579e+3, 2.9597303e+2, 393469.72, 9727.239, -14984.262, 0.305316, -0.33005205, 394053.94, 433478.0, 0.0010017914, 10.003693, 9.998612 
1.6250472e+3, 3.0596945e+2, 333064.44, -208432.78, -78904.22, 0.27674547, -0.4367702, 344327.66, 344327.66, 0.0021732925, 10.003877, 9.996699 
1.6250348e+3, 3.1596696e+2, 395323.75, -97702.99, -88589.39, 0.13219176, -0.3788725, 410758.7, 410758.7, 0.0036597592, 10.003923, 9.997447 
1.6352193e+3, 1.2599663e+2, -1817441.6, -1571779.6, 32137.168, 0.15810406, -0.29443258, -1567645.0, 137558.9, 0.03398967, 9.99843, 10.00175 
1.6352029e+3, 1.3599898e+2, -1666084.4, -1571439.4, -98765.375, -0.22153069, -0.1311463, -1509244.6, 97936.08, 0.02102759, 9.999346, 10.000632 
1.6351898e+3, 1.4599796e+2, -1576403.6, -1416229.5, -7731.935, -0.383897, -0.3175125, -1415857.1, 93330.75, 0.009775217, 9.999032, 10.001165 
1.6351835e+3, 1.5599823e+2, -1563481.3, -1351602.0, 12293.631, -0.057229754, -0.43302247, -1350891.1, 60289.344, 0.002860367, 9.998431, 10.001213 
1.6351758e+3, 1.6599883e+2, -1472043.5, -1406153.5, 33291.656, 0.05144025, -0.41923392, -1392261.5, -79088.79, 0.00036087315, 9.999018, 9.999887 
1.6351667e+3, 1.7599925e+2, -1192599.4, -1211546.1, 41657.32, -0.0012969101, -0.38765073, -1159351.9, 55816.63, 0.000005927034, 10.000229, 9.999964 
1.6351573e+3, 1.8599872e+2, -1130678.5, -1221540.5, 6216.2964, -0.02765992, -0.38950628, -1130255.1, -13079.758, 0.0, 10.000362, 9.999166 
1.6351476e+3, 1.9599776e+2, -1112765.8, -1138249.3, 19825.174, -0.032545857, -0.42700192, -1101940.8, -82753.05, 0.0, 9.99972, 9.999368 
1.6351382e+3, 2.0599775e+2, -937367.44, -1005054.3, 36634.035, -0.029487092, -0.358533, -921336.75, -148.13464, 0.0, 10.000253, 9.999358 
1.6351289e+3, 2.1599837e+2, -641011.9, -807362.94, 79438.76, -0.018454306, -0.25615436, -609171.4, 214010.94, 0.0, 10.001597, 9.999397 
1.6351207e+3, 2.2599661e+2, -543061.0, -854597.56, 166170.58, -0.034525897, -0.29483774, -471065.34, 254132.14, 0.0, 10.002219, 9.998096 
1.6351135e+3, 2.3599333e+2, -410731.28, -728022.9, 155032.95, -0.06483422, -0.45618773, -347558.0, 279668.56, 0.0, 10.002413, 9.998195 
1.635105e+3, 2.4599056e+2, -426931.03, -786476.0, -3068.4814, -0.030320806, -0.50015163, -426904.84, 102348.63, 0.0, 10.002056, 9.997295 
1.6350953e+3, 2.5598815e+2, -397497.2, -683585.25, -56114.223, 0.041784555, -0.49543917, -386884.47, 44394.023, 0.000000006263202, 10.001423, 9.997633 
1.6350862e+3, 2.6598728e+2, -161868.0, -374358.1, 18381.563, 0.05613997, -0.41443375, -160289.63, 172996.67, 0.000005059976, 10.001744, 9.998931 
1.6350774e+3, 2.759874e+2, 76499.86, -209519.36, 95342.61, 0.038666017, -0.3226937, 105368.0, 340650.78, 0.000060572125, 10.002716, 9.998919 
1.635069e+3, 2.8598544e+2, 136411.27, -326067.75, 66150.086, 0.09914647, -0.3104251, 145686.92, 282989.0, 0.00031406162, 10.003298, 9.9971695 
1.6350606e+3, 2.959822e+2, 287657.47, -195702.13, 5471.385, 0.20459403, -0.37742165, 287719.4, 327054.75, 0.0009813922, 10.003631, 9.997232 
1.6350497e+3, 3.0597857e+2, 284150.63, -284400.5, -81461.84, 0.15185937, -0.39916083, 295592.22, 295592.22, 0.0021163202, 10.003779, 9.996218 
1.635038e+3, 3.1597674e+2, 372154.1, -97844.164, -67880.125, 0.0417934, -0.23516305, 381761.38, 381761.38, 0.0035356903, 10.003745, 9.997518 
1.6452175e+3, 1.2600596e+2, -2014663.4, -1577797.1, 148621.5, 0.23463015, -0.36929393, -1532030.8, 173078.75, 0.036383986, 9.996713, 10.002547 
1.6452013e+3, 1.3600843e+2, -1867974.0, -1643605.0, -39677.48, -0.23899227, -0.22091231, -1636795.1, -29711.092, 0.022584815, 9.997866, 10.000838 
1.6451895e+3, 1.4600807e+2, -1640483.9, -1486977.6, 26885.008, -0.30130678, -0.32930234, -1482405.3, 26680.809, 0.010560797, 9.998762, 10.000809 
1.645182e+3, 1.5600783e+2, -1422336.9, -1319829.0, 42267.64, -0.100479804, -0.46030876, -1304648.6, 106438.27, 0.0031241647, 9.999538, 10.000905 
1.6451746e+3, 1.6600865e+2, -1367411.8, -1340737.5, 87123.7, 0.0063096075, -0.4174604, -1265936.0, 47142.48, 0.0004029895, 9.999666, 10.00003 
1.645167e+3, 1.7600994e+2, -1284880.9, -1240221.5, 79766.41, 0.039133083, -0.31182203, -1179718.3, 35348.055, 0.0000070009137, 9.999521, 10.000115 
1.6451581e+3, 1.8600957e+2, -1190456.0, -1230298.6, 33118.87, 0.04019635, -0.31342855, -1171728.6, -54656.984, 0.0, 9.999878, 9.9993305 
1.6451482e+3, 1.9600819e+2, -968201.2, -1056743.0, 35732.773, 0.014572268, -0.40663323, -955579.7, 63507.75, 0.0, 10.000662, 9.999473 
1.6451392e+3, 2.0600806e+2, -835052.9, -972478.4, 44965.98, 0.0076351683, -0.34967986, -821647.56, 99442.13, 0.0, 10.001017, 9.999217 
1.6451305e+3, 2.1600877e+2, -725500.5, -857251.6, 15171.552, 0.012756588, -0.22383405, -723776.0, 99306.23, 0.0, 10.001059, 9.999307 
1.6451228e+3, 2.2600697e+2, -698172.56, -908044.94, 77440.57, 0.005892405, -0.27422708, -672691.56, 52405.543, 0.0, 10.001064, 9.998287 
1.6451158e+3, 2.3600346e+2, -596891.3, -806067.8, 78296.78, -0.011378122, -0.47693446, -570830.8, 56296.45, 0.0, 10.001075, 9.99831 
1.6451076e+3, 2.4600066e+2, -499066.72, -860264.44, 2290.857, 0.041703336, -0.5094667, -499052.2, 30102.705, 0.0, 10.001739, 9.996938 
1.6450983e+3, 2.559984e+2, -211031.14, -632860.75, 36286.715, 0.12963837, -0.4511082, -207932.44, 223247.33, 0.000000005166704, 10.002877, 9.997281 
1.6450892e+3, 2.659971e+2, 26805.826, -294190.0, 64502.344, 0.120663784, -0.39237887, 39282.28, 372473.2, 0.000005473011, 10.003093, 9.998828 
1.6450801e+3, 2.7599633e+2, 70518.41, -228990.02, -33800.203, 0.04676533, -0.3769146, 74285.46, 309478.7, 0.000058693688, 10.002749, 9.998767 
1.6450717e+3, 2.85994e+2, -28860.48, -465984.06, -84576.195, 0.085699506, -0.36494264, -13067.01, 124150.63, 0.00030246936, 10.002433, 9.996618 
1.6450633e+3, 2.9599085e+2, 37414.035, -365626.25, -87119.82, 0.19686116, -0.37136462, 55439.402, 94693.97, 0.0009508184, 10.00214, 9.996772 
1.645053e+3, 3.0598778e+2, 229080.88, -282520.56, -65006.934, 0.13608412, -0.33206555, 237211.8, 237211.8, 0.0020491271, 10.003246, 9.996493 
1.6450422e+3, 3.159855e+2, 616506.3, 72737.98, -27131.977, 0.01219234, -0.24342741, 617856.7, 617856.7, 0.0034089028, 10.005186, 9.997993 
1.6552113e+3, 1.2601484e+2, -1976625.0, -1529766.3, 149344.6, -0.087902665, -0.55475575, -1484449.5, 220561.1, 0.03897044, 9.996834, 10.0028305 
1.6552006e+3, 1.3601552e+2, -1874962.6, -1649584.6, 3552.441, -0.11417778, -0.5948656, -1649528.6, -42524.55, 0.024272982, 9.997827, 10.000816 
1.6551913e+3, 1.4601769e+2, -1666387.3, -1538117.4, 49561.42, 0.002610738, -0.4308565, -1521199.1, -12213.196, 0.0114189135, 9.998752, 10.000461 
1.6551808e+3, 1.5601929e+2, -1446890.4, -1367225.9, 70505.06, -0.19095014, -0.34047005, -1326079.3, 84895.98, 0.0034161112, 9.999529, 10.000584 
1.6551729e+3, 1.6601986e+2, -1351151.3, -1323184.6, 74198.37, -0.16230546, -0.31451073, -1261663.4, 51307.492, 0.00045137366, 9.999723, 10.000126 
1.6551667e+3, 1.7601977e+2, -1276931.9, -1223643.1, 81489.266, 0.05335793, -0.3591543, -1164552.9, 50417.227, 0.000008273259, 9.9995165, 10.000232 
1.6551588e+3, 1.8601978e+2, -1185203.3, -1221528.6, 58069.008, 0.10724624, -0.3316768, -1142522.8, -25551.05, 0.0, 9.999883, 9.999392 
1.6551493e+3, 1.9601987e+2, -977240.6, -1066265.6, 66669.555, 0.039273843, -0.28373393, -941589.56, 77385.26, 0.0, 10.000621, 9.99943 
1.6551399e+3, 2.060187e+2, -909811.7, -1111878.6, 44113.918, -0.032217808, -0.2746084, -900600.9, 20387.379, 0.0, 10.000954, 9.998289 
1.6551307e+3, 2.1601675e+2, -787560.1, -974925.1, 21072.732, -0.09134109, -0.3241783, -785219.3, 37788.836, 0.0, 10.001013, 9.99852 
1.6551237e+3, 2.2601558e+2, -672719.9, -844296.25, 72916.055, -0.019574402, -0.30276012, -645918.7, 79099.23, 0.0, 10.001011, 9.9987545 
1.6551185e+3, 2.3601496e+2, -569739.5, -735972.1, 89878.49, 0.13863231, -0.26148188, -530436.6, 96583.78, 0.0, 10.001014, 9.998822 
1.655111e+3, 2.460131e+2, -446676.88, -735070.56, 42298.535, 0.21220006, -0.27041283, -440600.97, 88434.73, 0.0, 10.001665, 9.997833 
1.6551022e+3, 2.5601047e+2, -182371.58, -553505.56, 79264.66, 0.23705678, -0.3444693, -166151.56, 264907.78, 0.00000000856411, 10.002798, 9.997861 
1.6550922e+3, 2.6600665e+2, -140535.81, -630297.6, 47726.555, 0.11044512, -0.43338314, -135928.28, 197166.84, 0.0000057188686, 10.003036, 9.9965515 
1.6550814e+3, 2.760021e+2, -77411.4, -523833.94, -37605.71, -0.1253199, -0.5722749, -74265.734, 160873.39, 0.000057056757, 10.002691, 9.996773 
1.6550727e+3, 2.8599963e+2, -14295.047, -422355.88, -98028.55, -0.05748367, -0.5027567, 8032.6753, 145200.03, 0.00029092102, 10.00237, 9.99695 
1.655066e+3, 2.959987e+2, 56014.527, -314750.06, -78477.01, 0.23157407, -0.32065007, 71941.04, 111124.695, 0.00092205656, 10.00208, 9.997153 
1.6550568e+3, 3.0599675e+2, 278696.97, -139902.13, 6512.985, 0.17550382, -0.24582337, 278798.28, 278798.28, 0.0019985014, 10.003101, 9.99753 
1.655047e+3, 3.159932e+2, 634700.2, 171900.67, 53842.004, -0.042905048, -0.3886158, 640881.6, 640881.6, 0.003327925, 10.004946, 9.99878 
1.6652086e+3, 1.2602529e+2, -1816408.3, -1546094.0, 43353.81, -0.1075608, -0.49093366, -1539311.0, 165595.89, 0.041736465, 9.998293, 10.002032 
1.6651975e+3, 1.3602425e+2, -1936352.4, -1695035.6, -83150.41, -0.17199631, -0.67909724, -1669159.3, -62240.113, 0.026087236, 9.997458, 10.00069 
1.6651905e+3, 1.460275e+2, -1767016.9, -1578119.0, 24059.445, 0.067201845, -0.40634432, -1575102.8, -66211.43, 0.012349877, 9.998033, 10.00053 
1.6651805e+3, 1.560296e+2, -1454922.3, -1359775.0, 58183.742, -0.15414561, -0.27531862, -1332191.5, 78684.83, 0.003737191, 9.999432, 10.000679 
1.6651724e+3, 1.6602992e+2, -1353538.3, -1300077.9, 39401.855, -0.16605186, -0.2879312, -1279195.0, 33678.32, 0.00050616945, 9.999622, 10.00032 
1.6651657e+3, 1.7602926e+2, -1315824.5, -1223444.5, 45800.715, 0.017727958, -0.41068375, -1204586.6, 10289.424, 0.000009797576, 9.999173, 10.00039 
1.6651583e+3, 1.8602954e+2, -1292827.0, -1283772.1, 58612.62, 0.09933977, -0.35964984, -1229512.4, -112637.12, 0.0, 9.999186, 9.999301 
1.6651498e+3, 1.960304e+2, -1130914.9, -1148505.1, 50619.332, 0.08213409, -0.22817183, -1088332.3, -69459.945, 0.0, 9.999606, 9.999346 
1.6651411e+3, 2.0602897e+2, -982041.9, -1187581.1, 63848.64, 0.019232797, -0.2246125, -963822.94, -42933.855, 0.0, 10.000636, 9.997923 
1.6651325e+3, 2.1602605e+2, -657359.4, -951592.8, 69211.11, -0.06205161, -0.3332226, -641892.25, 181026.34, 0.0, 10.002074, 9.998175 
1.6651255e+3, 2.2602467e+2, -495313.84, -769600.06, 83600.72, 0.0038407038, -0.30881757, -471841.56, 253089.33, 0.0, 10.002281, 9.99865 
1.6651198e+3, 2.360244e+2, -480127.22, -698401.56, 51422.2, 0.15923156, -0.22513728, -468619.63, 158311.66, 0.0, 10.001655, 9.998765 
1.665113e+3, 2.4602282e+2, -380373.75, -663745.25, 17329.244, 0.22453313, -0.22451597, -379317.94, 149625.6, 0.0, 10.001942, 9.9981985 
1.6651051e+3, 2.5602037e+2, -147156.83, -504955.4, 1953.6194, 0.22752388, -0.31482083, -147146.16, 283817.88, 0.0000000057748837, 10.0028925, 9.998155 
1.6650954e+3, 2.660166e+2, -182347.3, -686634.1, -1464.3597, 0.11044097, -0.39233482, -182343.05, 150657.05, 0.0000055479773, 10.002912, 9.996222 
1.6650839e+3, 2.7601212e+2, -149798.77, -594209.56, 43780.285, -0.10041305, -0.48962897, -145526.9, 89518.75, 0.000055266635, 10.002341, 9.996461 
1.6650753e+3, 2.8600934e+2, 10211.746, -404739.34, 60131.652, -0.039144587, -0.4385928, 18749.898, 155826.48, 0.00028143296, 10.002506, 9.997009 
1.6650684e+3, 2.9600784e+2, 223359.16, -217972.86, 43770.715, 0.21687688, -0.3179635, 227658.39, 266754.78, 0.00090243336, 10.003164, 9.997294 
1.6650595e+3, 3.060063e+2, 276392.06, -62013.04, 126043.65, 0.15222476, -0.24798422, 318178.84, 318178.84, 0.00197664, 10.002727, 9.998257 
1.6650502e+3, 3.1600317e+2, 156742.0, -15258.225, 126670.09, -0.031569384, -0.41407827, 223847.52, 223847.52, 0.00331208, 10.00144, 9.999199 
1.6752087e+3, 1.2603687e+2, -1943774.3, -1790197.5, -78837.16, 0.041840874, -0.22391754, -1756932.5, -52130.62, 0.044670317, 9.998243, 10.000324 
1.6751924e+3, 1.3603464e+2, -1953354.3, -1733687.8, -98181.13, -0.43805465, -0.48509598, -1696202.0, -89373.836, 0.028026333, 9.997479, 10.000413 
1.6751865e+3, 1.4603761e+2, -1717929.0, -1494890.3, 76440.26, -0.14589149, -0.26428077, -1471207.3, 37593.69, 0.013357116, 9.998101, 10.001073 
1.6751812e+3, 1.5603893e+2, -1430501.8, -1300264.5, 109731.56, -0.04200536, -0.26037413, -1237784.4, 173004.03, 0.004090086, 9.999386, 10.001116 
1.6751732e+3, 1.6603889e+2, -1338923.1, -1264469.6, 15721.45, -0.061491556, -0.34144363, -1261286.0, 51499.367, 0.0005678562, 9.9996, 10.000576 
1.6751638e+3, 1.7603849e+2, -1306634.9, -1197860.6, 33876.504, -0.0979989, -0.46119505, -1188173.0, 26610.83, 0.000011659807, 9.99915, 10.000577 
1.6751562e+3, 1.8603896e+2, -1300402.8, -1307076.3, 69840.89, -0.02555264, -0.38802156, -1233819.0, -117037.805, 0.0, 9.999212, 9.999131 
1.6751498e+3, 1.9603987e+2, -1142818.9, -1170919.4, 74274.96, 0.09907771, -0.23286906, -1081277.0, -62497.695, 0.0, 9.999596, 9.999199 
1.6751428e+3, 2.0603883e+2, -970652.6, -1160000.9, 113350.67, 0.1102485, -0.19475482, -917639.4, 3152.9622, 0.0, 10.000618, 9.99812 
1.6751358e+3, 2.1603653e+2, -661180.2, -945623.6, 121101.61, 0.056844354, -0.25966355, -616606.25, 206208.61, 0.0, 10.002008, 9.998249 
1.6751282e+3, 2.2603415e+2, -559828.0, -880301.7, 57324.42, 0.026748987, -0.3004673, -549882.75, 174954.78, 0.0, 10.002181, 9.997935 
1.6751203e+3, 2.3603177e+2, -535949.44, -799608.06, 39001.816, 0.01846723, -0.35677308, -530301.06, 96558.85, 0.0, 10.001592, 9.9981 
1.675113e+3, 2.4602981e+2, -400801.03, -689118.44, 49868.465, 0.033276785, -0.35680833, -392419.25, 136458.75, 0.0, 10.001865, 9.998061 
1.6751063e+3, 2.5602823e+2, -157587.19, -505494.34, 40419.83, 0.061688773, -0.3474194, -152952.94, 277939.47, 0.0000000017385277, 10.002803, 9.998193 
1.675098e+3, 2.66027e+2, -89238.98, -475986.28, -25925.082, 0.07257608, -0.25629365, -87508.86, 245396.0, 0.0000048816705, 10.002832, 9.99771 
1.6750881e+3, 2.7602607e+2, -66351.51, -409398.1, 35705.195, 0.07343105, -0.14486118, -62674.63, 172241.36, 0.00005151775, 10.002289, 9.997759 
1.6750792e+3, 2.8602278e+2, -17826.615, -445184.3, 83160.66, 0.08229379, -0.18728071, -2214.503, 134734.23, 0.00026894332, 10.002429, 9.996768 
1.6750705e+3, 2.9601815e+2, 200534.08, -250137.81, 74923.13, 0.095575236, -0.35732698, 212663.42, 251657.56, 0.0008798074, 10.003089, 9.997114 
1.6750608e+3, 3.060164e+2, 281881.56, -9896.211, 74970.4, 0.00726729, -0.3261019, 300017.47, 300017.47, 0.0019595705, 10.002573, 9.998679 
1.6750515e+3, 3.160154e+2, 132271.61, -17839.818, 105873.89, -0.050835494, -0.32030928, 186995.1, 186995.1, 0.0033244442, 10.0012665, 9.999248 
1.6852067e+3, 1.2604657e+2, -2053871.4, -1946144.9, -76888.836, 0.047922716, -0.17251275, -1906129.8, -201419.25, 0.04776628, 9.9979515, 9.999384 
1.6851912e+3, 1.3604517e+2, -1661905.0, -1601172.0, -41593.098, -0.40776113, -0.33595073, -1580039.9, 26690.326, 0.030093629, 9.999539, 10.000315 
1.6851851e+3, 1.460474e+2, -1579300.9, -1438659.8, 91401.47, -0.13581033, -0.18519114, -1393658.1, 115051.9, 0.0144471, 9.999101, 10.00098 
1.68518e+3, 1.560479e+2, -1756734.1, -1465403.1, 70894.23, 0.011697721, -0.25092193, -1449067.3, -38363.695, 0.004479329, 9.997184, 10.001037 
1.6851722e+3, 1.6604777e+2, -1632950.9, -1395049.1, 5809.266, -0.018275095, -0.34354043, -1394907.3, -82206.914, 0.0006375465, 9.997531, 10.000682 
1.685163e+3, 1.760477e+2, -1238430.6, -1151383.9, 7639.181, -0.11562257, -0.4433893, -1150718.5, 63976.133, 0.00001399049, 9.9995575, 10.000701 
1.6851558e+3, 1.8604788e+2, -1168070.1, -1255442.4, 24538.793, -0.043961465, -0.3980414, -1161650.1, -44956.066, 0.0, 10.000184, 9.99901 
1.6851497e+3, 1.960481e+2, -1098097.4, -1157583.1, 29260.395, 0.11374427, -0.30193698, -1086117.3, -67418.96, 0.0, 9.999931, 9.999131 
1.6851436e+3, 2.0604742e+2, -967839.6, -1095495.8, 130143.08, 0.1385308, -0.2542215, -886715.1, 33991.57, 0.0, 10.000368, 9.998685 
1.6851376e+3, 2.1604627e+2, -735420.06, -921593.2, 150165.36, 0.083837815, -0.25907326, -651829.7, 170886.75, 0.0, 10.001256, 9.998768 
1.6851301e+3, 2.2604398e+2, -652376.75, -964049.6, 78073.23, 0.037978135, -0.29682738, -633913.4, 90825.87, 0.0, 10.001713, 9.997594 
1.6851217e+3, 2.3604092e+2, -513919.56, -817389.1, 80968.06, -0.0070060506, -0.38542047, -493668.1, 133102.67, 0.0, 10.001873, 9.997848 
1.6851147e+3, 2.4603905e+2, -367706.5, -628355.6, 156817.31, 0.0050107534, -0.38751698, -294128.72, 234659.69, 0.0, 10.001899, 9.998459 
1.6851085e+3, 2.5603798e+2, -273065.38, -524609.3, 172930.14, 0.048857577, -0.36491486, -185006.98, 245789.58, 0.0000000018399801, 10.001841, 9.9985285 
1.6851006e+3, 2.6603726e+2, -127924.98, -496455.28, 65083.36, 0.08566568, -0.23891202, -116768.81, 216036.44, 0.0000039092515, 10.002576, 9.997688 
1.6850917e+3, 2.7603674e+2, 169116.1, -290127.28, 3252.134, 0.11635212, -0.08623008, 169139.13, 403953.9, 0.000046398793, 10.003897, 9.997793 
1.6850825e+3, 2.860336e+2, 240746.42, -296932.63, 25877.713, 0.1004835, -0.1297179, 241989.0, 378834.94, 0.000254962, 10.0041, 9.996983 
1.6850734e+3, 2.9602906e+2, 283566.6, -183830.45, 33938.58, 0.04612096, -0.3142493, 286018.1, 324906.5, 0.0008516298, 10.003551, 9.997345 
1.6850635e+3, 3.0602688e+2, 387435.2, 27657.678, 18667.055, -0.02076696, -0.32715794, 388401.13, 388401.13, 0.0019299262, 10.003334, 9.998584 
1.6850547e+3, 3.160256e+2, 400340.0, 60058.086, -5902.7754, 0.04262977, -0.33282426, 400442.34, 400442.34, 0.003321999, 10.003282, 9.998842 
1.6952026e+3, 1.2605435e+2, -2056745.5, -1966185.5, -68679.15, -0.20259231, -0.3558778, -1929203.1, -224569.22, 0.051028147, 9.997997, 9.999232 
1.6951935e+3, 1.3605592e+2, -1677920.1, -1610781.8, 12044.293, -0.14858748, -0.22170196, -1608686.5, -2061.7341, 0.032295942, 9.999434, 10.0002985 
1.6951862e+3, 1.4605668e+2, -1629223.1, -1535513.3, 15508.956, 0.03594981, -0.18151782, -1533013.3, -24393.164, 0.015627254, 9.999071, 10.000322 
1.6951768e+3, 1.560566e+2, -1800140.6, -1556899.8, 18599.162, -0.036393512, -0.23495184, -1555485.8, -144864.72, 0.004910431, 9.997191, 10.000406 
1.6951692e+3, 1.6605665e+2, -1618003.3, -1378719.4, 78046.6, -0.09054128, -0.28766525, -1355513.6, -42896.477, 0.0007170378, 9.997589, 10.000767 
1.695163e+3, 1.7605695e+2, -1234573.6, -1145619.8, 80187.4, -0.08225672, -0.35790682, -1098400.4, 116207.76, 0.000016975888, 9.999561, 10.000742 
1.6951564e+3, 1.860563e+2, -1172100.1, -1267712.0, 9870.331, -0.010072982, -0.39264908, -1171091.8, -54477.9, 0.0, 10.000198, 9.99892 
1.6951494e+3, 1.9605505e+2, -1100943.4, -1159065.4, 27827.182, 0.08530228, -0.43211788, -1089769.0, -71139.56, 0.0, 9.999914, 9.999129 
1.6951433e+3, 2.0605482e+2, -909707.7, -963986.25, 158519.64, 0.064855464, -0.38999012, -776020.9, 144610.25, 0.0, 10.0003195, 9.999612 
1.6951379e+3, 2.1605538e+2, -688143.75, -808877.25, 184435.3, -0.021527708, -0.31956458, -554447.3, 268175.53, 0.0, 10.001187, 9.999579 
1.6951314e+3, 2.2605413e+2, -661354.0, -960923.94, 78364.94, -0.020195687, -0.2907697, -642092.8, 82543.984, 0.0, 10.00162, 9.997658 
1.695124e+3, 2.3605174e+2, -519617.4, -806323.56, 94621.23, 0.03372509, -0.3193595, -491205.28, 135459.98, 0.0, 10.001772, 9.997973 
1.6951175e+3, 2.4605025e+2, -323718.8, -509267.78, 152189.8, 0.08456632, -0.33633372, -238255.14, 290422.6, 0.0, 10.0017805, 9.999334 
1.6951114e+3, 2.5604942e+2, -241515.08, -440006.4, 181800.0, 0.14087747, -0.37319124, -133635.31, 297043.5, 0.0000000033657745, 10.001763, 9.999146 
1.6951035e+3, 2.6604724e+2, -244566.45, -719004.8, 112032.055, 0.09120939, -0.34093866, -219442.13, 113260.76, 0.0000030031388, 10.00249, 9.9962015 
1.6950943e+3, 2.760441e+2, 67143.625, -482080.56, 55371.656, -0.02361611, -0.3025945, 72670.46, 307412.66, 0.000041424442, 10.003816, 9.996509 
1.6950855e+3, 2.860417e+2, 272601.38, -210661.95, 1205.2073, -0.031786975, -0.2483713, 272604.38, 409372.47, 0.00024197955, 10.00401, 9.9976225 
1.6950768e+3, 2.9604006e+2, 309045.72, -110739.65, 24432.633, 0.024810733, -0.204599, 310462.97, 349245.8, 0.00082078995, 10.003457, 9.997897 
1.6950673e+3, 3.0603725e+2, 319915.2, -67742.42, 13129.272, 0.011806816, -0.2774931, 320359.34, 320359.34, 0.0018795029, 10.00316, 9.998001 
1.6950591e+3, 3.1603417e+2, 319485.9, -40259.094, 17645.344, 0.13245954, -0.40232655, 320349.3, 320349.3, 0.0032690766, 10.003027, 9.998255 
1.7052008e+3, 1.2606284e+2, -2081818.6, -1863671.8, -111433.54, -0.1314113, -0.34773377, -1816814.3, -112260.2, 0.054460447, 9.997308, 10.000278 
1.7051928e+3, 1.360647e+2, -1951716.0, -1694370.0, -14421.862, -0.056322176, -0.2411033, -1693564.4, -87026.3, 0.034638863, 9.997322, 10.000755 
1.705184e+3, 1.4606485e+2, -1841574.8, -1633218.3, -6453.0737, -0.015779072, -0.27989134, -1633018.5, -124481.086, 0.016903277, 9.997611, 10.000352 
1.705174e+3, 1.5606542e+2, -1643714.8, -1476588.6, 42293.98, -0.08718755, -0.27602088, -1466495.1, -55963.156, 0.00538814, 9.998251, 10.000442 
1.7051673e+3, 1.6606575e+2, -1449146.0, -1332654.3, 183323.25, -0.09560366, -0.28218594, -1198546.3, 113980.22, 0.0008082668, 9.998898, 10.000456 
1.7051631e+3, 1.7606601e+2, -1245840.9, -1181203.5, 146992.03, -0.035192218, -0.32596815, -1063019.3, 151501.44, 0.000020835996, 9.999615, 10.000475 
1.705157e+3, 1.8606524e+2, -1166673.9, -1269118.1, 38750.07, 0.030750131, -0.3577342, -1153667.6, -37139.55, 0.0, 10.00025, 9.998893 
1.7051497e+3, 1.9606389e+2, -958691.06, -1089876.8, 52315.35, 0.08815351, -0.4045871, -940383.3, 78160.45, 0.0, 10.000887, 9.99914 
1.7051437e+3, 2.0606363e+2, -850486.4, -919931.4, 156130.52, 0.05590581, -0.37475887, -725263.9, 195281.67, 0.0, 10.000667, 9.999738 
1.7051382e+3, 2.1606417e+2, -858968.25, -875900.44, 116525.02, -0.036288064, -0.3175095, -750602.2, 71935.3, 0.0, 9.999951, 9.999712 
1.7051323e+3, 2.2606339e+2, -854998.7, -1007200.94, 23114.836, -0.011931852, -0.2720018, -851565.7, -127018.555, 0.0, 10.000089, 9.998075 
1.7051259e+3, 2.3606172e+2, -633933.94, -812876.25, 50577.38, 0.09205631, -0.27104208, -620627.9, 5940.669, 0.0, 10.00078, 9.998396 
1.7051193e+3, 2.460605e+2, -388917.44, -521897.84, 90444.87, 0.13401827, -0.2908581, -343152.47, 185425.77, 0.0, 10.001255, 9.999502 
1.7051129e+3, 2.5605956e+2, -246392.89, -416526.7, 64986.797, 0.1305418, -0.35526645, -224409.98, 206169.97, 0.0000000026261497, 10.001627, 9.999371 
1.7051055e+3, 2.6605716e+2, -218299.47, -656425.8, 105939.08, 0.046135128, -0.3795804, -194027.98, 138576.69, 0.0000021613648, 10.00246, 9.996646 
1.7050971e+3, 2.7605382e+2, 63309.402, -444103.16, 167783.83, -0.09523095, -0.40402088, 113771.32, 348415.34, 0.000036573332, 10.0036125, 9.996876 
1.7050889e+3, 2.8605187e+2, 174679.16, -268851.84, 80995.27, -0.05687884, -0.31455514, 189007.22, 325673.66, 0.00022739316, 10.003394, 9.997516 
1.7050803e+3, 2.9605094e+2, 133757.55, -208997.39, 38902.87, 0.09534521, -0.18629383, 138117.6, 176794.4, 0.0007810647, 10.002312, 9.997775 
1.7050707e+3, 3.0604786e+2, 281871.88, -110687.77, 91125.38, 0.073342025, -0.27075312, 301993.56, 301993.56, 0.0017958801, 10.003001, 9.997776 
1.7050633e+3, 3.1604484e+2, 585071.94, 70318.93, 101589.85, 0.15812753, -0.36725712, 604395.94, 604395.94, 0.0031407976, 10.004913, 9.998103 
1.715201e+3, 1.26072e+2, -1933863.9, -1548795.3, -78685.11, 0.13508448, -0.17311381, -1533337.3, 171133.67, 0.058051143, 9.99724, 10.002537 
1.7151888e+3, 1.3607192e+2, -1900100.3, -1578410.5, -7724.22, -0.17992754, -0.36562735, -1578225.1, 28240.848, 0.037118543, 9.99729, 10.00157 
1.7151785e+3, 1.4607218e+2, -1783759.4, -1535326.3, 10073.256, -0.3410379, -0.4557612, -1534918.5, -26458.77, 0.018276531, 9.997687, 10.000996 
1.7151713e+3, 1.560742e+2, -1601613.6, -1393006.1, 68941.35, -0.18901572, -0.37552595, -1372281.3, 38156.36, 0.005915651, 9.998259, 10.001019 
1.7151666e+3, 1.66075e+2, -1493100.5, -1424166.5, 200104.2, -0.08019083, -0.32708284, -1255582.6, 56847.03, 0.0009130136, 9.998904, 9.999821 
1.715163e+3, 1.7607494e+2, -1295208.3, -1270677.9, 175313.83, -0.014616613, -0.33934543, -1107200.8, 107231.305, 0.000025810483, 9.999566, 9.99988 
1.7151573e+3, 1.8607473e+2, -1165346.6, -1262978.5, 58405.973, 0.029412473, -0.29082206, -1138042.5, -21605.834, 0.0, 10.000229, 9.998946 
1.7151506e+3, 1.9607455e+2, -963897.1, -1095227.9, 77172.164, 0.070140354, -0.22977053, -928233.94, 90208.12, 0.0, 10.00086, 9.999116 
1.7151444e+3, 2.0607373e+2, -899020.06, -1016753.4, 124896.625, 0.04962822, -0.21744172, -819812.7, 100638.0, 0.0, 10.0006485, 9.999082 
1.7151387e+3, 2.1607257e+2, -904648.4, -955159.06, 100282.484, -0.008535081, -0.2638193, -826489.94, -4029.1187, 0.0, 9.999886, 9.999198 
1.7151327e+3, 2.2607163e+2, -815926.4, -907701.7, 46556.426, 0.024804048, -0.25243396, -796444.5, -71973.46, 0.0, 10.000006, 9.998801 
1.715127e+3, 2.3607087e+2, -600778.06, -730047.06, 80736.984, 0.11821764, -0.23173921, -561990.75, 64489.914, 0.0, 10.000719, 9.998997 
1.7151204e+3, 2.4606974e+2, -430089.97, -592497.06, 99097.28, 0.08941535, -0.24410515, -383175.28, 145315.11, 0.0, 10.001189, 9.999048 
1.7151132e+3, 2.5606835e+2, -269961.4, -448256.3, 89266.19, -0.021162, -0.3130504, -232951.33, 197548.9, 0.0000000000058928205, 10.001553, 9.999187 
1.7151065e+3, 2.6606694e+2, -74161.734, -335777.88, 145595.78, -0.093806565, -0.35297477, -9243.251, 323268.25, 0.0000014626683, 10.002369, 9.998893 
1.7151004e+3, 2.7606562e+2, 181376.98, -169060.25, 208857.8, -0.14560062, -0.39722234, 278781.06, 513303.8, 0.000032081512, 10.003491, 9.998821 
1.7150927e+3, 2.8606376e+2, 97752.13, -406838.28, 34314.39, -0.035503518, -0.33708844, 100074.97, 236618.47, 0.00021176567, 10.003293, 9.996619 
1.7150836e+3, 2.9606155e+2, 68023.3, -330677.5, 21650.7, 0.18705697, -0.24919935, 69195.555, 107766.29, 0.0007336498, 10.002245, 9.996971 
1.7150742e+3, 3.0605865e+2, 265469.22, -114545.72, 157942.6, 0.09375969, -0.28210974, 322542.1, 322542.1, 0.001688057, 10.00288, 9.997808 
1.7150672e+3, 3.160567e+2, 573592.8, 111834.12, 203793.55, 0.033057164, -0.27364835, 650669.75, 650669.75, 0.0029601976, 10.004659, 9.998506 
1.725198e+3, 1.2607914e+2, -1980857.8, -1504989.8, -15322.424, 0.14219192, -0.17181866, -1504496.9, 199907.77, 0.06177432, 9.996612, 10.003161 
1.7251869e+3, 1.3607943e+2, -1889488.0, -1572336.9, -87874.2, -0.11135034, -0.33564895, -1549616.9, 56777.527, 0.039721623, 9.997359, 10.001581 
1.7251766e+3, 1.460803e+2, -1677921.0, -1468008.3, -75369.125, -0.31810233, -0.37036508, -1443750.4, 64630.598, 0.019743169, 9.998337, 10.001154 
1.7251706e+3, 1.5608159e+2, -1373173.4, -1262224.6, -68349.22, -0.16292278, -0.38706017, -1229670.5, 180694.6, 0.006494274, 9.999719, 10.001225 
1.725166e+3, 1.6608228e+2, -1403529.1, -1391798.1, 41728.05, -0.047057144, -0.3565407, -1355525.4, -43166.344, 0.001032908, 9.999567, 9.9997225 
1.7251621e+3, 1.760825e+2, -1451115.8, -1347104.5, 49775.086, 0.008733543, -0.3302387, -1327123.0, -112763.266, 0.00003215152, 9.998501, 9.999866 
1.7251568e+3, 1.8608278e+2, -1340406.3, -1281927.3, 20539.504, 0.019274918, -0.26667303, -1275434.1, -159075.39, 0.0, 9.998748, 9.999528 
1.7251502e+3, 1.9608314e+2, -1057524.9, -1082880.9, 62727.55, 0.0052161324, -0.20735246, -1006206.94, 12149.065, 0.0, 9.999971, 9.999627 
1.7251447e+3, 2.0608222e+2, -920977.25, -1058070.1, 110812.1, 0.015117319, -0.21384157, -859224.3, 61141.547, 0.0, 10.000627, 9.998815 
1.7251395e+3, 2.1608046e+2, -759254.8, -905983.7, 109699.99, 0.039074413, -0.2942699, -700647.9, 121736.02, 0.0, 10.000968, 9.999019 
1.725134e+3, 2.2607957e+2, -574040.1, -737460.3, 95603.61, 0.06670452, -0.29356748, -529986.2, 194406.73, 0.0, 10.001447, 9.9992695 
1.725128e+3, 2.3607941e+2, -378248.3, -579460.44, 97784.734, 0.08639536, -0.260748, -338556.72, 287837.84, 0.0, 10.002066, 9.999382 
1.7251216e+3, 2.4607852e+2, -300358.28, -548430.06, 108993.94, 0.05128402, -0.2551914, -259274.27, 269128.72, 0.0, 10.002166, 9.998877 
1.7251149e+3, 2.560772e+2, -219244.03, -432192.56, 109328.95, -0.024418464, -0.30003145, -173109.03, 257306.53, 0.0000000000049057277, 10.001938, 9.99911 
1.7251089e+3, 2.6607642e+2, -88152.44, -256033.39, 138391.9, -0.07688711, -0.31367537, -10233.956, 322186.63, 0.0000011502509, 10.0019, 9.999664 
1.7251034e+3, 2.760761e+2, 17480.04, -169867.81, 84682.53, -0.11749537, -0.33598727, 50083.33, 284503.34, 0.000029088935, 10.002017, 9.999526 
1.7250964e+3, 2.860743e+2, 164733.95, -348563.16, -65992.664, 0.0061669396, -0.31543225, 173082.6, 309521.38, 0.0002003837, 10.003654, 9.996839 
1.7250882e+3, 2.9607156e+2, 675565.6, -17942.424, -22545.572, 0.22696146, -0.30462867, 676297.75, 714767.94, 0.0006934614, 10.006357, 9.997129 
1.7250791e+3, 3.060688e+2, 746447.9, 71822.1, 113093.266, 0.13159892, -0.30628955, 764901.9, 764901.9, 0.001593252, 10.006368, 9.997426 
1.7250718e+3, 3.160671e+2, 552927.4, 85153.07, 125092.875, 0.044564202, -0.23629409, 584278.6, 584278.6, 0.0027987657, 10.004552, 9.998396 
1.7351916e+3, 1.2608463e+2, -2041137.4, -1627963.9, 75983.27, -0.19111061, -0.30465525, -1614433.5, 89918.125, 0.06561491, 9.996637, 10.0022545 
1.7351863e+3, 1.360872e+2, -1946176.0, -1677618.5, -61151.203, 0.082183085, -0.16771322, -1664349.8, -58025.707, 0.042436883, 9.997313, 10.000867 
1.7351781e+3, 1.460891e+2, -1699200.6, -1509446.6, -29081.516, -0.019265763, -0.049170975, -1505089.6, 3212.6433, 0.021297567, 9.998328, 10.000864 
1.7351714e+3, 1.5608773e+2, -1390094.3, -1286171.5, -20952.52, -0.076789744, -0.31045887, -1282106.1, 128206.36, 0.0071235094, 9.999678, 10.001076 
1.7351657e+3, 1.6608773e+2, -1367728.9, -1328856.0, -3043.568, -0.057473373, -0.3625443, -1328619.1, -16307.397, 0.0011691477, 9.9996, 10.000145 
1.7351606e+3, 1.7608881e+2, -1413312.1, -1276706.6, 22009.871, -0.0054380284, -0.29508573, -1273248.0, -58945.492, 0.00004011834, 9.998526, 10.000342 
1.7351548e+3, 1.860894e+2, -1260462.9, -1124476.1, 58939.7, -0.044861767, -0.27955073, -1102486.3, 13807.807, 0.0, 9.998784, 10.000591 
1.7351489e+3, 1.9608973e+2, -1000914.8, -950417.9, 107049.625, -0.142373, -0.32804665, -865679.5, 152606.27, 0.0, 9.9999075, 10.000567 
1.7351443e+3, 2.060891e+2, -919468.1, -1043491.8, 115547.56, -0.09229834, -0.3535523, -850343.75, 69947.92, 0.0, 10.000572, 9.998942 
1.7351407e+3, 2.160879e+2, -760621.94, -891844.9, 127678.266, 0.054520696, -0.39297885, -682683.4, 139622.84, 0.0, 10.0008955, 9.999149 
1.7351353e+3, 2.260873e+2, -571695.6, -714689.9, 114206.37, 0.050997615, -0.38044953, -508452.5, 215859.73, 0.0, 10.001368, 9.999464 
1.7351289e+3, 2.3608722e+2, -380738.1, -559200.6, 122569.51, -0.049145777, -0.3594814, -318359.66, 307951.7, 0.0, 10.001957, 9.999572 
1.7351231e+3, 2.4608673e+2, -314866.6, -549574.7, 96135.13, -0.028160127, -0.32527256, -280517.22, 247799.98, 0.0, 10.00204, 9.998931 
1.7351177e+3, 2.5608602e+2, -232122.5, -438200.94, 109298.94, 0.06768845, -0.31279027, -184950.73, 245376.31, 0.000000000000012544113, 10.001853, 9.999108 
1.735112e+3, 2.6608557e+2, -147650.31, -355817.1, 138600.83, 0.03533916, -0.26236707, -78402.98, 253929.98, 0.0000010511417, 10.001799, 9.999026 
1.735106e+3, 2.7608535e+2, -30839.717, -243955.05, 106805.44, -0.07304448, -0.2120861, 13473.214, 247808.5, 0.000028849088, 10.001911, 9.9990635 
1.7351002e+3, 2.8608355e+2, 235290.0, -184523.66, 29877.693, -0.0043779244, -0.23374936, 237405.7, 373757.16, 0.00019663657, 10.003568, 9.998011 
1.7350942e+3, 2.960806e+2, 724191.3, 109927.04, 69643.83, 0.16151048, -0.3631175, 731988.4, 770366.75, 0.00067244103, 10.006237, 9.998069 
1.7350854e+3, 3.0607802e+2, 665641.2, -50513.195, 36022.805, 0.11331759, -0.34635612, 667448.6, 667448.6, 0.0015434186, 10.006185, 9.996663 
1.7350766e+3, 3.1607515e+2, 461901.8, -21823.88, 99181.09, 0.050690915, -0.33080813, 481447.7, 481447.7, 0.0027216272, 10.004232, 9.997793 
1.7451885e+3, 1.2609082e+2, -2006846.0, -1623319.0, 79640.06, -0.18539365, -0.22441804, -1607439.1, 96853.3, 0.06957688, 9.996937, 10.002148 
1.7451835e+3, 1.360924e+2, -1815510.6, -1589378.5, -73732.13, 0.03425783, -0.20789397, -1567461.8, 38811.36, 0.045260757, 9.998089, 10.001116 
1.7451772e+3, 1.4609458e+2, -1683792.9, -1494178.8, 16671.975, 0.05720863, -0.07887791, -1492724.0, 15525.018, 0.022935338, 9.998406, 10.00093 
1.7451711e+3, 1.5609424e+2, -1565145.4, -1364283.8, 29752.447, 0.005134182, -0.24254057, -1359969.4, 50281.105, 0.0078018596, 9.998455, 10.001122 
1.7451654e+3, 1.6609436e+2, -1450489.1, -1375509.9, 20950.805, -0.020561717, -0.28310463, -1370052.9, -57803.84, 0.0013223152, 9.999068, 10.000078 
1.7451596e+3, 1.7609489e+2, -1178003.8, -1165803.8, 3052.0593, -0.031116623, -0.26004988, -1165082.9, 49161.582, 0.000049909977, 10.000155, 10.000319 
1.7451544e+3, 1.8609507e+2, -1038650.4, -979945.94, 10543.747, -0.043042965, -0.3041158, -978109.6, 138128.94, 0.0000000000000006446772, 10.000149, 10.000921 
1.7451493e+3, 1.9609503e+2, -1040197.94, -929640.6, -1444.0065, -0.062314782, -0.42401907, -929621.75, 88609.91, 0.0, 9.999466, 10.00092 
1.745145e+3, 2.0609508e+2, -1018235.44, -1035615.1, 26679.55, -0.033954363, -0.42610556, -998866.2, -78635.91, 0.0, 9.999654, 9.999435 
1.745141e+3, 2.1609522e+2, -783781.94, -849996.1, 51029.305, 0.020251693, -0.37992892, -756060.8, 66171.03, 0.0, 10.000501, 9.999627 
1.745136e+3, 2.2609486e+2, -677397.4, -748903.7, 38290.527, 0.02529052, -0.37565556, -660763.0, 63472.535, 0.0, 10.000568, 9.999619 
1.7451304e+3, 2.360942e+2, -632039.06, -666403.5, 35222.188, -0.0012526468, -0.42524195, -610031.56, 16208.473, 0.0, 10.000169, 9.9997 
1.7451249e+3, 2.4609387e+2, -506361.47, -643430.25, 26796.8, 0.012592952, -0.38065755, -501308.97, 26935.887, 0.0, 10.000733, 9.998911 
1.7451194e+3, 2.560938e+2, -223045.22, -441455.03, 19184.97, 0.041146662, -0.30302835, -221372.84, 208876.63, 0.0, 10.001947, 9.99904 
1.745114e+3, 2.6609308e+2, -107823.14, -380683.53, 45396.777, 0.040082138, -0.25352603, -100468.55, 231790.44, 0.0000010008785, 10.002257, 9.998638 
1.7451088e+3, 2.7609208e+2, -30026.281, -277646.88, 26700.703, 0.013034467, -0.24294403, -27179.889, 207090.5, 0.00002996529, 10.002054, 9.998769 
1.7451033e+3, 2.860905e+2, 124201.17, -178813.05, 4711.7363, 0.0017786368, -0.26113, 124274.414, 260558.39, 0.00019663884, 10.002562, 9.998531 
1.7450973e+3, 2.9608822e+2, 356642.6, -26643.744, -28629.25, -0.009685888, -0.3665212, 358769.22, 397070.88, 0.0006699009, 10.003526, 9.99844 
1.74509e+3, 3.0608568e+2, 461779.97, -167421.02, -108637.55, 0.031406403, -0.35455436, 480009.16, 480009.16, 0.0015486755, 10.004843, 9.996513 
1.7450826e+3, 3.160816e+2, 794065.06, 113081.04, -30420.41, 0.10913827, -0.4471111, 795421.3, 795421.3, 0.0027549064, 10.006605, 9.997584 
1.755188e+3, 1.2609744e+2, -1981941.9, -1556377.6, 139354.25, 0.05721886, 0.02854872, -1514805.9, 189423.78, 0.07366958, 9.996865, 10.002683 
1.7551783e+3, 1.3609539e+2, -1745102.8, -1435724.9, -36731.15, -0.30285764, -0.42800704, -1431423.8, 174814.77, 0.048192136, 9.998033, 10.002242 
1.755174e+3, 1.4609715e+2, -1656439.6, -1438440.9, 8318.992, -0.12907861, -0.4168446, -1438123.9, 70093.62, 0.024652572, 9.998397, 10.001331 
1.7551702e+3, 1.561012e+2, -1548922.6, -1328853.8, 39344.133, 0.041524705, -0.1755048, -1322031.3, 88147.55, 0.008527423, 9.998447, 10.001372 
1.7551649e+3, 1.6610204e+2, -1488122.4, -1458242.3, 53134.754, 0.012823654, -0.12315182, -1417987.1, -105815.0, 0.0014925194, 9.999085, 9.999506 
1.7551592e+3, 1.7610076e+2, -1222400.6, -1244945.0, 40655.39, -0.11413307, -0.2260169, -1191483.6, 22702.443, 0.00006156021, 10.000103, 9.999801 
1.7551547e+3, 1.8609984e+2, -1062421.5, -1027303.44, -18811.365, -0.031359196, -0.33862606, -1019129.5, 97062.555, 0.0000000010737394, 10.000134, 10.000605 
1.7551513e+3, 1.9609919e+2, -1056953.1, -962118.06, -15150.575, 0.17697565, -0.48884326, -959756.44, 58435.82, 0.0, 9.999455, 10.000702 
1.7551464e+3, 2.0610021e+2, -961467.56, -916915.5, 52643.484, 0.121508226, -0.4297945, -882029.0, 38152.133, 0.0, 9.999644, 10.000256 
1.7551404e+3, 2.1610238e+2, -743442.3, -747191.5, 79910.97, -0.10140588, -0.2643346, -665383.94, 156777.67, 0.0, 10.000416, 10.000376 
1.7551358e+3, 2.2610214e+2, -681350.75, -740107.94, 17486.002, -0.05225672, -0.2845435, -676540.7, 47623.277, 0.0, 10.000491, 9.999718 
1.7551324e+3, 2.3610039e+2, -635876.25, -661311.94, 32284.004, 0.17029673, -0.45541838, -613895.4, 12284.948, 0.0, 10.0001135, 9.99976 
1.7551266e+3, 2.4609995e+2, -527364.25, -670576.6, 67464.22, 0.10029148, -0.4158703, -500589.22, 27596.516, 0.0, 10.000658, 9.998763 
1.7551196e+3, 2.5610048e+2, -245319.95, -466056.7, 63811.348, -0.15009388, -0.26828873, -228200.81, 201982.55, 0.0, 10.001857, 9.998913 
1.7551148e+3, 2.66099e+2, -133126.45, -416814.1, 32970.887, -0.1145322, -0.2770084, -129344.9, 202854.0, 0.00000094846536, 10.002181, 9.998427 
1.7551117e+3, 2.7609634e+2, -55789.92, -308281.8, 31814.797, 0.090646826, -0.41091603, -51842.855, 182382.11, 0.000030532858, 10.001962, 9.998599 
1.7551056e+3, 2.8609502e+2, 101728.93, -207230.08, 36110.64, -0.031982467, -0.38733473, 105893.35, 242130.02, 0.00019885889, 10.002476, 9.998381 
1.7550974e+3, 2.9609442e+2, 323031.66, -65374.14, 18850.895, -0.3522756, -0.31403857, 323944.4, 362185.03, 0.00068665395, 10.003394, 9.998237 
1.7550927e+3, 3.0609187e+2, 453190.47, -138420.13, -51404.73, -0.20005512, -0.29855493, 457623.78, 457623.78, 0.0016054861, 10.004651, 9.996799 
1.7550895e+3, 3.160872e+2, 727860.7, 51484.523, 43892.863, 0.1275446, -0.49488857, 730697.2, 730697.2, 0.002876396, 10.006313, 9.997286 
1.7651847e+3, 1.2610076e+2, -1997596.3, -1540332.9, 197788.69, 0.060871355, -0.095863886, -1466652.1, 237540.19, 0.07790593, 9.996649, 10.002915 
1.7651747e+3, 1.3610056e+2, -1896495.4, -1487617.0, -49062.387, -0.40455508, -0.38805225, -1481812.3, 124371.85, 0.05123237, 9.996906, 10.002414 
1.7651725e+3, 1.4610113e+2, -1757403.1, -1520022.8, -43660.414, -0.08409797, -0.48966295, -1512247.1, -4071.2058, 0.026445003, 9.997861, 10.001013 
1.7651685e+3, 1.5610489e+2, -1423992.4, -1301954.1, -77654.01, -0.014445134, -0.24083798, -1264213.5, 145928.38, 0.009296644, 9.999454, 10.001073 
1.765164e+3, 1.6610597e+2, -1372074.1, -1342598.6, -50104.89, -0.02380755, -0.17832991, -1305109.0, 7023.093, 0.0016790463, 9.999633, 10.00003 
1.7651595e+3, 1.7610504e+2, -1366212.3, -1265473.3, 1012.79126, -0.015809203, -0.29877105, -1265463.1, -51322.574, 0.000074904594, 9.998901, 10.000236 
1.7651552e+3, 1.8610469e+2, -1211525.3, -1120407.3, -9112.877, 0.04099245, -0.364844, -1119504.8, -3362.3162, 0.000000009428086, 9.999206, 10.000414 
1.7651504e+3, 1.9610484e+2, -935683.5, -920032.75, -8493.074, 0.09625658, -0.41486356, -916309.6, 101829.23, 0.0, 10.000356, 10.000561 
1.7651454e+3, 2.0610575e+2, -859574.1, -850141.5, 35331.793, 0.03403161, -0.3661213, -819212.6, 100916.35, 0.0, 10.000281, 10.000405 
1.7651404e+3, 2.1610723e+2, -875414.7, -796993.2, 5945.5435, -0.09500266, -0.28237358, -796545.0, 25569.6, 0.0, 9.999464, 10.000487 
1.7651364e+3, 2.2610708e+2, -763357.7, -805601.8, -62942.246, -0.026223741, -0.2896856, -718088.0, 6029.451, 0.0, 10.000043, 9.999479 
1.765133e+3, 2.3610583e+2, -435185.34, -580431.2, -84597.43, 0.15956953, -0.3827609, -396314.72, 229816.48, 0.0, 10.001557, 9.99962 
1.7651276e+3, 2.4610548e+2, -307704.22, -492866.0, -23778.977, 0.076102085, -0.36521426, -304699.22, 223435.13, 0.0, 10.001864, 9.999404 
1.7651208e+3, 2.5610578e+2, -271454.3, -419467.78, 17647.332, -0.18239513, -0.30081993, -269379.34, 160750.48, 0.0, 10.001427, 9.999442 
1.7651168e+3, 2.661043e+2, -200443.19, -483434.34, 13875.892, -0.11627537, -0.31243324, -199764.44, 132379.52, 0.0000007067664, 10.001875, 9.998115 
1.7651147e+3, 2.7610177e+2, 57559.047, -293724.47, -7636.301, 0.14381383, -0.4042323, 57724.97, 291895.0, 0.00002910251, 10.00291, 9.998244 
1.7651089e+3, 2.8609982e+2, 183854.58, -225075.14, -13948.135, 0.009708393, -0.39924526, 184329.78, 320519.3, 0.00020251243, 10.003284, 9.997866 
1.7651007e+3, 2.9609835e+2, 284893.03, -132705.05, -76212.484, -0.36224738, -0.35887337, 298367.22, 336571.1, 0.0007166965, 10.003339, 9.997799 
1.7650975e+3, 3.0609623e+2, 438687.72, -91732.24, -85040.234, -0.16801678, -0.31207377, 451988.38, 451988.38, 0.0016843786, 10.004307, 9.997291 
1.7650951e+3, 3.1609306e+2, 672486.8, 38645.06, -17081.23, 0.09919089, -0.40086156, 672946.8, 672946.8, 0.0030089095, 10.005823, 9.9974575 
1.7751785e+3, 1.2610133e+2, -1998379.6, -1540102.9, 115989.35, -0.26008517, -0.55190104, -1512418.5, 191757.06, 0.08231803, 9.996624, 10.002926 
1.7751724e+3, 1.361078e+2, -1943187.9, -1580928.9, -34064.445, -0.34015146, -0.10521883, -1577753.5, 28356.94, 0.054393712, 9.996904, 10.001743 
1.7751727e+3, 1.461063e+2, -1828499.8, -1670465.5, 5747.2095, 0.12132303, -0.32896486, -1670256.8, -162130.45, 0.02831169, 9.9978695, 9.999978 
1.775166e+3, 1.5610553e+2, -1486807.1, -1418137.8, -20930.596, -0.2149564, -0.42995977, -1412261.0, -2123.8406, 0.010105246, 9.999399, 10.000291 
1.775162e+3, 1.6610646e+2, -1271000.0, -1129954.9, -83398.11, -0.18624681, -0.42863932, -1091259.0, 220867.03, 0.0018804772, 9.999615, 10.001503 
1.7751609e+3, 1.7610791e+2, -1278258.3, -1076035.0, -17415.514, 0.20887722, -0.45897785, -1074546.1, 139560.2, 0.00008970714, 9.998876, 10.001546 
1.7751554e+3, 1.8610965e+2, -1215251.0, -1132526.0, 26818.043, 0.1206938, -0.37045887, -1124592.8, -8502.913, 0.000000028818846, 9.99922, 10.000325 
1.7751466e+3, 1.9611184e+2, -953711.75, -942269.7, 29791.992, -0.33349535, -0.20645197, -917654.4, 100418.2, 0.0, 10.000295, 10.000437 
1.7751421e+3, 2.0611171e+2, -894722.5, -922422.94, -1964.3613, -0.33510953, -0.23167482, -894583.9, 25490.525, 0.0, 10.000273, 9.999913 
1.7751408e+3, 2.1610995e+2, -919201.06, -878374.56, -11268.849, -0.015050328, -0.42455062, -875470.75, -53381.01, 0.0, 9.999424, 9.999945 
1.7751373e+3, 2.2610973e+2, -814982.7, -900292.6, -8105.123, 0.046323903, -0.3769744, -814219.44, -90124.66, 0.0, 9.999983, 9.998861 
1.7751324e+3, 2.3611058e+2, -472798.06, -640475.6, -28680.766, -0.0687524, -0.20483214, -468028.0, 158064.44, 0.0, 10.001474, 9.999249 
1.7751276e+3, 2.4611042e+2, -228205.16, -305153.8, -45815.01, -0.10962317, -0.22564477, -206852.31, 321238.6, 0.0, 10.001766, 10.00074 
1.775123e+3, 2.561097e+2, -204352.1, -262396.7, 11421.59, -0.10136713, -0.39381853, -202185.52, 227903.36, 0.0, 10.001355, 10.000552 
1.7751199e+3, 2.6610902e+2, -243735.83, -555281.5, 47943.64, -0.015911028, -0.3570019, -236524.7, 95570.16, 0.00000032366296, 10.001794, 9.9976635 
1.7751174e+3, 2.7610824e+2, -158.42955, -375557.34, 34901.9, 0.11402738, -0.22489801, 3058.9243, 237165.48, 0.00002512301, 10.002758, 9.99775 
1.7751126e+3, 2.8610486e+2, 96939.2, -382290.56, -17386.637, 0.0520287, -0.28341475, 97569.17, 233711.55, 0.00020058491, 10.00317, 9.996849 
1.7751066e+3, 2.9610005e+2, 217291.27, -252910.75, -58793.066, -0.11581031, -0.48296365, 224531.16, 262722.47, 0.0007353013, 10.003248, 9.99702 
1.775104e+3, 3.0609852e+2, 468515.72, 11098.104, -28085.643, 0.03734216, -0.38550895, 470233.72, 470233.72, 0.001727247, 10.004146, 9.998068 
1.7750996e+3, 3.161009e+2, 668968.25, 135380.75, 35666.57, -0.058625136, 0.004548954, 671341.75, 671341.75, 0.0030484216, 10.005434, 9.998285 
1.7851748e+3, 1.2610465e+2, -2300640.8, -1689584.1, -1552.8076, -0.19015424, -0.5825354, -1689580.3, 14560.451, 0.08696164, 9.994642, 10.002743 
1.7851704e+3, 1.361114e+2, -1859950.8, -1595074.4, -71962.73, -0.26907682, -0.053681906, -1576785.9, 29290.498, 0.057701517, 9.997714, 10.001254 
1.7851721e+3, 1.4610928e+2, -1693622.3, -1590302.9, -15134.331, 0.24438988, -0.32511303, -1588131.5, -80031.71, 0.030258754, 9.9987335, 10.000112 
1.7851649e+3, 1.5610881e+2, -1666929.9, -1492363.4, 23587.63, -0.19365796, -0.4053112, -1489232.4, -79124.36, 0.0109521225, 9.998103, 10.000409 
1.7851605e+3, 1.661102e+2, -1472686.9, -1164470.5, -55315.93, -0.21501824, -0.3947746, -1154843.6, 157247.22, 0.0020959692, 9.997966, 10.002056 
1.7851594e+3, 1.761121e+2, -1316686.4, -1042669.75, -65413.63, 0.20726427, -0.43593436, -1027855.06, 186209.13, 0.000105867584, 9.998385, 10.002014 
1.7851543e+3, 1.8611376e+2, -1332400.8, -1193869.1, -17791.32, 0.13320535, -0.3730381, -1191620.8, -75572.55, 0.0000000562377, 9.998445, 10.000279 
1.7851457e+3, 1.9611557e+2, -1240634.1, -1084972.5, -18344.766, -0.34319088, -0.24277747, -1082839.8, -64803.99, 0.0, 9.998341, 10.0004 
1.7851418e+3, 2.0611557e+2, -1008298.8, -978915.56, -16581.48, -0.35441017, -0.25280115, -971453.44, -51416.492, 0.0, 9.999508, 9.999896 
1.785141e+3, 2.1611427e+2, -608821.9, -734915.75, -6011.157, -0.038166497, -0.39273158, -608536.0, 213511.69, 0.0, 10.001576, 9.9999 
1.785138e+3, 2.2611389e+2, -574205.56, -801791.1, 24947.633, 0.03152128, -0.3501188, -571502.94, 152551.69, 0.0, 10.001714, 9.998707 
1.7851333e+3, 2.3611423e+2, -616943.3, -727736.8, 23251.203, -0.07416544, -0.21387906, -612261.6, 13796.116, 0.0, 10.000568, 9.999086 
1.7851289e+3, 2.46114e+2, -406713.88, -427081.3, -41291.613, -0.10133484, -0.21610788, -374368.72, 153689.28, 0.0, 10.000692, 10.000419 
1.7851247e+3, 2.5611344e+2, -179778.03, -283527.88, -114256.04, -0.07968371, -0.33482045, -106172.08, 323883.94, 0.0, 10.001653, 10.000269 
1.7851216e+3, 2.6611254e+2, -225236.13, -510580.03, -82204.24, -0.011554581, -0.3202072, -203248.36, 128814.695, 0.00000018370703, 10.001762, 9.997983 
1.7851189e+3, 2.7611136e+2, -170044.38, -424745.84, -51281.895, 0.07089316, -0.2628593, -160106.94, 73969.87, 0.000020759246, 10.001425, 9.998062 
1.7851153e+3, 2.861085e+2, -10912.378, -372915.47, 17278.51, 0.037268475, -0.31472358, -10089.54, 126016.25, 0.00019242596, 10.002202, 9.997364 
1.7851107e+3, 2.9610488e+2, 325368.63, -155570.52, 65688.37, -0.054293573, -0.4368179, 334179.16, 372319.9, 0.0007321702, 10.003818, 9.997405 
1.7851086e+3, 3.0610272e+2, 479165.03, -59524.5, 85354.59, 0.07245312, -0.383425, 492365.88, 492365.88, 0.0017112513, 10.004544, 9.997393 
1.7851035e+3, 3.161046e+2, 493389.84, -1896.9419, -45239.016, -0.15204842, 0.030707797, 497488.03, 497488.03, 0.0029615494, 10.004435, 9.997826 
1.7951728e+3, 1.2611079e+2, -2323692.5, -1749041.5, -28915.016, 0.12220726, -0.2130232, -1747590.3, -43503.26, 0.09190124, 9.994683, 10.002312 
1.7951685e+3, 1.3611168e+2, -1889805.4, -1644350.4, 42899.473, -0.24761172, -0.21732798, -1637068.6, -30990.373, 0.06119029, 9.997667, 10.000924 
1.7951708e+3, 1.461104e+2, -1616297.0, -1430251.4, -43478.133, 0.2306158, -0.4554968, -1420592.1, 87500.9, 0.03230053, 9.998716, 10.001242 
1.7951651e+3, 1.5611467e+2, -1603008.1, -1353212.5, 5491.2744, -0.008605398, -0.17164226, -1353091.9, 56962.973, 0.011841973, 9.9980755, 10.00138 
1.7951591e+3, 1.6611701e+2, -1492882.9, -1214244.8, -47128.66, -0.16479227, -0.08831836, -1206489.3, 105538.72, 0.0023264778, 9.997988, 10.00171 
1.7951554e+3, 1.7611751e+2, -1336755.1, -1086599.3, -48879.27, -0.050838877, -0.23617157, -1077387.6, 136626.97, 0.00012352158, 9.998389, 10.001716 
1.7951517e+3, 1.8611707e+2, -1329640.3, -1193048.6, -27565.145, 0.026495436, -0.36949354, -1187695.5, -71678.98, 0.000000085167756, 9.9984665, 10.000273 
1.7951477e+3, 1.9611625e+2, -1241451.6, -1084690.6, -10300.881, -0.000051176776, -0.5009802, -1084016.6, -65990.26, 0.0, 9.998334, 10.000403 
1.7951441e+3, 2.0611756e+2, -983504.6, -923582.75, 55864.613, -0.09673912, -0.40171924, -890151.94, 29862.736, 0.0, 9.999486, 10.000288 
1.795141e+3, 2.1612018e+2, -593398.9, -685141.1, 63469.168, -0.20348352, -0.18955202, -560959.75, 261029.55, 0.0, 10.001497, 10.000281 
1.7951383e+3, 2.2611946e+2, -573101.56, -775735.44, -23064.346, -0.11354045, -0.21141373, -570509.44, 153488.88, 0.0, 10.001615, 9.998932 
1.7951356e+3, 2.3611665e+2, -632785.44, -738946.25, -5699.6807, 0.08903063, -0.40896013, -632480.25, -6451.7866, 0.0, 10.00048, 9.99905 
1.7951313e+3, 2.4611612e+2, -554728.7, -713227.1, -7568.9927, 0.0419995, -0.33485267, -554368.06, -26331.459, 0.0, 10.000601, 9.998499 
1.7951258e+3, 2.5611702e+2, -304527.22, -520510.53, -74842.66, -0.1586255, -0.119077094, -281127.75, 148902.84, 0.0, 10.001564, 9.998681 
1.795122e+3, 2.6611504e+2, -166396.45, -372539.7, -97559.9, -0.15527207, -0.1947372, -127546.64, 204501.1, 0.00000013255313, 10.001687, 9.998971 
1.7951193e+3, 2.7611127e+2, -103765.086, -267151.13, -49162.93, -0.03945013, -0.49912074, -90112.72, 143966.69, 0.0000188634, 10.001346, 9.99918 
1.7951162e+3, 2.8611082e+2, 106792.8, -109742.05, 70096.34, -0.09908035, -0.46398798, 127503.41, 263582.06, 0.00018750537, 10.0021105, 9.999221 
1.795113e+3, 2.961128e+2, 406946.94, 49253.06, 131135.05, -0.2320565, -0.21775857, 449871.56, 487925.63, 0.0007238382, 10.003671, 9.99888 
1.7951111e+3, 3.0610874e+2, 290108.5, -409231.9, 78463.28, -0.1441124, -0.29040593, 298803.66, 298803.66, 0.0016666437, 10.004353, 9.995085 
1.7951065e+3, 3.161039e+2, 362486.25, -216519.47, -71408.16, -0.31604075, -0.32590437, 371162.9, 371162.9, 0.002810747, 10.004209, 9.996446 
1.8051691e+3, 1.2611416e+2, -2042927.9, -1612778.5, -78685.78, 0.19043471, -0.093551055, -1598836.6, 105221.984, 0.097200245, 9.996567, 10.002415 
1.8051659e+3, 1.3611369e+2, -2034276.8, -1680780.6, 134035.45, -0.20255622, -0.26333955, -1635705.9, -29645.99, 0.06490086, 9.996529, 10.001228 
1.8051681e+3, 1.4611284e+2, -1842118.0, -1506609.8, -5804.1855, 0.17373994, -0.48837328, -1506509.4, 1559.841, 0.034457777, 9.997046, 10.001499 
1.8051632e+3, 1.5611862e+2, -1623289.0, -1345753.4, -34485.656, 0.015380806, -0.0773588, -1341532.5, 68483.79, 0.0127833225, 9.997858, 10.001538 
1.8051577e+3, 1.6612074e+2, -1465938.9, -1240208.3, -91110.86, -0.13266535, -0.00310026, -1208022.6, 103969.83, 0.0025744103, 9.998356, 10.0013485 
1.8051536e+3, 1.7612003e+2, -1303982.3, -1102444.5, -104296.57, -0.072729915, -0.23664652, -1058188.8, 155803.47, 0.00014305822, 9.998774, 10.001411 
1.8051508e+3, 1.8611917e+2, -1195174.3, -1141300.4, -80041.23, 0.028920712, -0.39290375, -1083784.9, 32213.117, 0.00000010953618, 9.999432, 10.000168 
1.8051477e+3, 1.9611844e+2, -963239.6, -958125.06, -78091.24, 0.07212115, -0.5064819, -882549.25, 135456.48, 0.0, 10.000274, 10.000339 
1.8051443e+3, 2.0611987e+2, -892690.1, -866769.6, -8528.149, -0.037766006, -0.39945364, -864215.44, 55777.477, 0.0, 10.0000515, 10.000407 
1.8051413e+3, 2.161226e+2, -917228.7, -821258.7, -31081.648, -0.21284266, -0.18762328, -812071.75, 9895.506, 0.0, 9.999192, 10.000455 
1.8051387e+3, 2.2612226e+2, -819612.0, -829660.9, -120174.36, -0.13420537, -0.21116282, -704357.06, 19614.4, 0.0, 9.999653, 9.9995 
1.8051364e+3, 2.3611997e+2, -526937.3, -639004.94, -85851.02, 0.09117761, -0.41269153, -480451.94, 145542.55, 0.0, 10.000991, 9.99949 
1.8051323e+3, 2.4611954e+2, -446398.03, -689698.8, 15905.115, 0.057305697, -0.33168775, -445362.7, 82638.98, 0.0, 10.001467, 9.998248 
1.8051273e+3, 2.5612035e+2, -345762.03, -572651.44, 54454.797, -0.14043643, -0.096552126, -333369.44, 96628.69, 0.0, 10.0014105, 9.998405 
1.805124e+3, 2.66118e+2, -166625.14, -421226.6, 19445.498, -0.13946219, -0.17670235, -165148.53, 166871.97, 0.00000007008213, 10.001912, 9.998524 
1.8051215e+3, 2.761136e+2, 79694.6, -223082.4, -55429.566, -0.031739943, -0.493574, 89523.08, 323581.94, 0.000018211342, 10.002807, 9.998779 
1.8051188e+3, 2.8611308e+2, 192288.38, -43476.36, -38714.668, -0.06479736, -0.45467326, 198482.9, 334541.16, 0.00018362651, 10.002579, 9.999454 
1.8051162e+3, 2.9611543e+2, 143503.28, -55611.074, -107980.57, -0.16267683, -0.19181961, 190818.28, 228847.89, 0.0007096767, 10.001745, 9.999096 
1.8051146e+3, 3.061114e+2, 45151.77, -539698.3, -78159.91, -0.149211, -0.270685, 55416.957, 55416.957, 0.0016117768, 10.002712, 9.994978 
1.8051116e+3, 3.161057e+2, 447156.53, -146503.95, -145202.33, -0.24608354, -0.36519787, 480768.28, 480768.28, 0.0026679938, 10.004613, 9.996763 
1.8151633e+3, 1.2611496e+2, -2008073.9, -1553783.4, -161306.52, -0.07640442, -0.2130332, -1502334.4, 201719.2, 0.10291468, 9.996588, 10.002884 
1.8151629e+3, 1.3611743e+2, -1968345.8, -1550213.3, 141767.44, -0.18025467, -0.19395334, -1506679.6, 99341.945, 0.06887483, 9.996541, 10.002161 
1.8151636e+3, 1.4611658e+2, -1874589.8, -1586622.3, 18361.145, 0.018909495, -0.4292499, -1585456.3, -77427.24, 0.036753505, 9.997088, 10.000937 
1.8151595e+3, 1.5612076e+2, -1663608.4, -1426778.4, -60.611443, -0.16177557, -0.118733294, -1426778.4, -16786.709, 0.01378539, 9.997844, 10.000988 
1.8151556e+3, 1.6612165e+2, -1496293.4, -1301442.4, -81368.555, -0.17760955, -0.122477174, -1271932.6, 40049.35, 0.002842686, 9.998346, 10.000933 
1.8151541e+3, 1.7611983e+2, -1332570.6, -1163325.1, -82227.71, 0.094128534, -0.42364982, -1129954.6, 84041.055, 0.00016504708, 9.998775, 10.000995 
1.8151508e+3, 1.8612011e+2, -1205641.5, -1164259.8, -50275.984, 0.08999973, -0.43818122, -1130583.5, -14591.221, 0.00000012908751, 9.999437, 10.000008 
1.8151458e+3, 1.9612202e+2, -978733.56, -981253.1, -47479.934, -0.15947236, -0.27070916, -932496.7, 85478.21, 0.0, 10.0002365, 10.000196 
1.8151426e+3, 2.0612234e+2, -908401.9, -893514.8, -45294.117, -0.21392907, -0.25768176, -855056.7, 64916.047, 0.0, 10.000025, 10.000237 
1.8151414e+3, 2.1612155e+2, -926881.44, -832444.5, -49095.336, -0.11373276, -0.3861538, -811545.9, 10435.37, 0.0, 9.99915, 10.000399 
1.8151389e+3, 2.2612232e+2, -771397.3, -709132.44, -71961.38, -0.082357205, -0.34484303, -661857.8, 62116.004, 0.0, 9.99956, 10.000374 
1.8151353e+3, 2.3612414e+2, -475942.7, -512273.3, -33233.527, -0.10741526, -0.22169483, -456233.9, 169721.69, 0.0, 10.000903, 10.000402 
1.8151323e+3, 2.4612427e+2, -369147.34, -512758.28, 8828.453, -0.10441144, -0.19500636, -368606.66, 159346.53, 0.0, 10.0013895, 9.999501 
1.8151295e+3, 2.561234e+2, -288726.94, -440563.72, 60518.51, -0.074997135, -0.26021805, -267557.28, 162402.84, 0.0, 10.0013485, 9.999341 
1.8151271e+3, 2.6612115e+2, -313034.28, -707386.6, 48346.926, -0.023950052, -0.2595157, -307193.56, 24789.77, 0.0000000874347, 10.001827, 9.996603 
1.815125e+3, 2.7611804e+2, -68171.19, -504860.03, -19930.014, 0.03526103, -0.25997615, -67263.484, 166754.14, 0.00001648955, 10.002702, 9.996892 
1.8151228e+3, 2.8611523e+2, 78536.78, -262435.16, -73433.12, 0.057766303, -0.28270164, 93679.17, 229724.2, 0.00017232615, 10.002495, 9.9979925 
1.8151204e+3, 2.961129e+2, 66799.48, -206863.5, -112140.26, 0.074953616, -0.35536206, 106881.23, 144947.17, 0.0006745652, 10.001699, 9.998082 
1.8151185e+3, 3.0611068e+2, 141915.67, -300703.94, -8291.833, -0.0440529, -0.30304837, 142070.95, 142070.95, 0.001540075, 10.002562, 9.996685 
1.815117e+3, 3.1610745e+2, 546785.06, 144525.52, -67832.83, -0.19382824, -0.33566472, 557915.7, 557915.7, 0.0025575098, 10.004295, 9.998893 
1.8251616e+3, 1.2611786e+2, -1896678.0, -1616525.1, -40119.74, 0.039648544, -0.28487048, -1610892.9, 93127.98, 0.10907774, 9.997876, 10.001762 
1.8251614e+3, 1.3612056e+2, -1674832.3, -1503673.1, 127324.86, -0.09313758, -0.15472752, -1435839.9, 170150.48, 0.07313931, 9.998958, 10.001347 
1.8251605e+3, 1.4611916e+2, -1750358.3, -1514556.4, -56358.094, -0.05735558, -0.4118406, -1501778.8, 6223.638, 0.039204508, 9.997902, 10.001035 
1.8251568e+3, 1.5612152e+2, -1944128.1, -1554654.4, -25440.326, -0.10338283, -0.29448316, -1552999.6, -143020.48, 0.014855209, 9.995896, 10.001045 
1.8251541e+3, 1.6612232e+2, -1755722.1, -1471799.6, -1594.9982, -0.09080773, -0.28761244, -1471790.6, -159818.98, 0.0031336718, 9.996757, 10.000529 
1.8251534e+3, 1.7612165e+2, -1258898.0, -1166427.4, -17092.115, 0.105815776, -0.43244046, -1163369.3, 50609.246, 0.00019006866, 9.99944, 10.000653 
1.8251503e+3, 1.8612273e+2, -1167906.6, -1121782.1, -26273.893, 0.07267092, -0.36365813, -1109884.6, 6084.079, 0.00000015151502, 9.999607, 10.000212 
1.8251447e+3, 1.9612515e+2, -1265205.8, -1101309.9, -5137.167, -0.17755882, -0.16292493, -1101149.1, -83203.445, 0.0, 9.998211, 10.000343 
1.825142e+3, 2.0612492e+2, -1152747.3, -1030833.5, 31380.863, -0.2000611, -0.20137751, -1023230.2, -103281.49, 0.0, 9.99844, 10.00005 
1.8251415e+3, 2.161229e+2, -849411.75, -809092.7, 16827.213, -0.05645163, -0.43419528, -802992.7, 18976.564, 0.0, 9.999751, 10.000263 
1.8251388e+3, 2.2612381e+2, -680358.9, -634061.56, -16546.941, -0.06957679, -0.38892314, -628755.7, 95203.47, 0.0, 10.000043, 10.000661 
1.8251348e+3, 2.3612668e+2, -641370.06, -566705.4, -30716.666, -0.19857524, -0.19016092, -555693.0, 70235.47, 0.0, 9.999657, 10.000631 
1.8251325e+3, 2.4612646e+2, -558401.94, -638359.06, -59797.402, -0.15920295, -0.18984, -526449.9, 1479.3971, 0.0, 10.000249, 9.999181 
1.8251315e+3, 2.561243e+2, -288144.22, -469225.03, -135373.22, -0.009383241, -0.35042185, -215824.33, 214125.83, 0.0, 10.001487, 9.99907 
1.8251297e+3, 2.6612243e+2, -267883.13, -656036.7, -94978.01, 0.043427136, -0.3170222, -245889.05, 86081.28, 0.00000011582431, 10.002016, 9.996864 
1.8251273e+3, 2.7612078e+2, -143073.33, -529426.1, -22445.607, 0.023615437, -0.19281404, -141773.7, 92216.34, 0.000015405387, 10.002123, 9.99701 
1.8251257e+3, 2.861176e+2, 34007.516, -381306.28, 9069.205, 0.08895707, -0.20921321, 34205.465, 170229.38, 0.00016006886, 10.002614, 9.99712 
1.8251243e+3, 2.9611373e+2, 259889.05, -192638.61, -7091.032, 0.20319194, -0.34238055, 260000.14, 298064.8, 0.000630786, 10.003367, 9.997379 
1.8251218e+3, 3.0611235e+2, 347753.25, -98618.234, 116110.8, -0.009134089, -0.22847363, 376149.7, 376149.7, 0.0014635198, 10.003544, 9.997601 
1.8251218e+3, 3.16109e+2, 495644.4, 181471.8, -30816.754, -0.088600114, -0.34710667, 498638.63, 498638.63, 0.0024798857, 10.003623, 9.999506 
1.8351638e+3, 1.2612271e+2, -2076390.5, -1986991.1, 14107.014, 0.43831873, -0.3176133, -1984817.9, -280856.0, 0.11569034, 9.997916, 9.999124 
1.8351614e+3, 1.3612323e+2, -1846735.1, -1843478.5, 159059.97, 0.008063849, -0.1371213, -1686038.5, -80073.98, 0.07769921, 9.998916, 9.998956 
1.8351579e+3, 1.4612082e+2, -1707654.5, -1428222.3, -138363.3, -0.12279519, -0.42098257, -1371304.3, 136682.58, 0.04181763, 9.997891, 10.001669 
1.8351552e+3, 1.56121e+2, -1893950.1, -1464363.9, -74587.04, 0.12588249, -0.59236133, -1451782.1, -41804.35, 0.015997248, 9.995953, 10.001639 
1.8351527e+3, 1.6612278e+2, -1773237.1, -1522893.4, 94823.44, 0.068887375, -0.49406758, -1491031.9, -179070.4, 0.0034491862, 9.9968195, 10.000149 
1.8351513e+3, 1.7612533e+2, -1281438.5, -1209834.6, 69889.11, -0.071721315, -0.27775162, -1167111.0, 46831.688, 0.00021871291, 9.999423, 10.000364 
1.8351485e+3, 1.8612681e+2, -1134936.6, -1051457.5, -84258.91, -0.074595176, -0.18151069, -999166.44, 116763.21, 0.00000018976193, 9.999596, 10.000701 
1.8351445e+3, 1.9612777e+2, -1235036.3, -1041082.6, -42293.473, -0.036253862, -0.17952408, -1032261.4, -14342.827, 0.0, 9.99822, 10.0007515 
1.8351421e+3, 2.0612757e+2, -1166881.0, -1062991.4, 76996.11, -0.04905699, -0.22269268, -1022056.3, -102135.27, 0.0, 9.998448, 9.999828 
1.8351412e+3, 2.1612656e+2, -873035.1, -845700.7, 62569.625, -0.080496535, -0.33064803, -795323.0, 26609.467, 0.0, 9.999699, 10.000037 
1.8351382e+3, 2.2612663e+2, -714545.75, -685726.0, -35160.53, -0.14292826, -0.3398899, -662137.1, 61791.426, 0.0, 9.999956, 10.00035 
1.8351342e+3, 2.3612745e+2, -681613.5, -636139.2, -33241.05, -0.22926576, -0.31698787, -618602.94, 7311.378, 0.0, 9.999596, 10.000184 
1.835133e+3, 2.4612606e+2, -699060.6, -911865.5, -16156.3955, -0.15847899, -0.31540486, -697841.0, -169910.3, 0.0, 10.000162, 9.99735 
1.8351333e+3, 2.5612316e+2, -397612.2, -679538.4, -83489.9, 0.016312335, -0.36203405, -374742.6, 55224.555, 0.0, 10.001414, 9.9976635 
1.8351315e+3, 2.6612195e+2, -121381.76, -337641.38, -92097.734, 0.008425403, -0.32653895, -87476.19, 244503.47, 0.000000090536304, 10.001948, 9.999085 
1.8351282e+3, 2.761218e+2, -15692.335, -247854.47, -5714.842, -0.116700344, -0.27815056, -15551.745, 218424.64, 0.00001528185, 10.002048, 9.998981 
1.8351272e+3, 2.861201e+2, -6559.422, -448739.9, 29022.89, -0.032711994, -0.21506466, -4662.616, 131333.78, 0.00015262203, 10.002537, 9.996696 
1.8351275e+3, 2.9611757e+2, 216668.58, -260772.78, 27074.168, 0.17008446, -0.16635609, 218198.97, 256228.38, 0.0005952896, 10.003281, 9.996949 
1.8351245e+3, 3.0611622e+2, 325200.38, -116969.09, 109175.44, -0.113680474, -0.028112369, 350687.6, 350687.6, 0.0013976282, 10.003426, 9.997526 
1.8351248e+3, 3.161115e+2, 376499.06, -8227.004, 32997.348, -0.17608139, -0.28791612, 379308.7, 379308.7, 0.0024203006, 10.003392, 9.9983 
1.8451625e+3, 1.2612517e+2, -1646656.6, -1789855.1, -107982.93, 0.36188173, -0.37962708, -1588692.1, 115241.32, 0.12272786, 10.001009, 9.999008 
1.8451606e+3, 1.3612494e+2, -2137169.3, -2037778.1, 110851.73, 0.10776769, -0.23306145, -1965992.1, -360045.66, 0.08254445, 9.997167, 9.998462 
1.8451552e+3, 1.4612378e+2, -1881926.8, -1553133.9, -95026.76, -0.10913067, -0.34172314, -1527645.5, -19686.787, 0.04459436, 9.996887, 10.00126 
1.8451528e+3, 1.5612353e+2, -1399889.4, -1260394.1, -109457.01, 0.12049498, -0.5235104, -1200351.3, 209604.23, 0.017215712, 9.999481, 10.001361 
1.8451506e+3, 1.6612501e+2, -1378751.5, -1319761.1, 60773.324, 0.06366369, -0.44691277, -1281703.6, 30237.922, 0.0037916328, 9.999478, 10.000261 
1.8451492e+3, 1.7612764e+2, -1511465.4, -1307954.6, 59518.035, -0.117181726, -0.2346576, -1291826.4, -77905.766, 0.00025177147, 9.997801, 10.000471 
1.8451472e+3, 1.8612868e+2, -1343910.1, -1140618.3, -98819.81, -0.09559445, -0.19222008, -1100499.4, 15410.654, 0.00000025167606, 9.998114, 10.000797 
1.845144e+3, 1.9612877e+2, -1006569.25, -930740.94, -95266.336, 0.021576934, -0.28830716, -866121.44, 151784.22, 0.0, 9.999777, 10.000761 
1.8451421e+3, 2.0612867e+2, -938729.75, -1016397.44, 16640.852, 0.004539653, -0.2859781, -935314.5, -15406.582, 0.0, 10.000284, 9.999266 
1.8451408e+3, 2.1612857e+2, -851882.6, -897811.9, -34100.848, -0.098084226, -0.24632762, -833734.7, -11821.115, 0.0, 10.000105, 9.99949 
1.8451384e+3, 2.2612813e+2, -679274.1, -693032.2, -143361.63, -0.13825297, -0.26985875, -542626.56, 181288.84, 0.0, 10.000322, 10.000115 
1.8451351e+3, 2.3612748e+2, -516351.0, -579639.4, -147500.44, -0.14853258, -0.36913973, -397138.53, 228776.05, 0.0, 10.00084, 9.999967 
1.8451343e+3, 2.4612598e+2, -574896.75, -841239.56, -21624.133, -0.07130042, -0.37262216, -573152.5, -45220.77, 0.0, 10.00098, 9.997436 
1.8451348e+3, 2.5612402e+2, -462760.8, -693825.7, 35415.23, 0.05119792, -0.33756214, -457454.6, -27494.99, 0.0, 10.000897, 9.997812 
1.845133e+3, 2.66123e+2, -189339.69, -310873.13, 11466.119, -0.0012249305, -0.31788936, -188267.38, 143701.3, 0.00000009817215, 10.001226, 9.999615 
1.8451296e+3, 2.761226e+2, -19111.693, -200605.1, -34552.176, -0.16641524, -0.34380305, -12756.301, 221209.03, 0.000013983738, 10.001824, 9.999405 
1.8451294e+3, 2.8612113e+2, -11141.114, -484770.88, -18049.016, -0.065559395, -0.26047793, -10454.301, 125529.07, 0.0001420209, 10.002659, 9.996386 
1.8451309e+3, 2.9611912e+2, 252452.94, -269065.97, -39233.21, 0.18012331, -0.12988372, 255387.88, 293401.2, 0.0005568261, 10.00363, 9.996729 
1.8451284e+3, 3.0611768e+2, 405095.94, -60309.227, 45387.402, -0.080750555, 0.0018924077, 409480.9, 409480.9, 0.0013237724, 10.0038805, 9.99771 
1.8451291e+3, 3.1611282e+2, 441845.34, -43520.55, 6084.639, -0.100292034, -0.2811304, 441921.6, 441921.6, 0.002331691, 10.004098, 9.9977255 
1.8551576e+3, 1.2612563e+2, -1506154.5, -1496214.0, -153141.95, -0.25230888, -0.45082694, -1347961.6, 355969.75, 0.13014582, 10.001019, 10.00121 
1.8551584e+3, 1.3612574e+2, -2045710.4, -1852201.3, -15826.294, 0.15947515, -0.4463201, -1850915.4, -244979.2, 0.08765755, 9.997178, 9.999728 
1.8551527e+3, 1.4612795e+2, -1980519.5, -1765432.5, -6201.4775, -0.07147365, -0.1858435, -1765253.9, -257334.72, 0.04753598, 9.996919, 9.99979 
1.8551497e+3, 1.5612885e+2, -1483466.1, -1426430.8, -24454.018, -0.15459543, -0.11385116, -1417381.8, -7467.52, 0.01851746, 9.999454, 10.000216 
1.8551481e+3, 1.6612893e+2, -1337166.6, -1234422.8, -5316.006, -0.15943146, -0.16239966, -1234148.4, 77764.195, 0.0041650403, 9.999478, 10.000848 
1.8551476e+3, 1.7612864e+2, -1474731.5, -1240743.8, 15486.729, -0.08089977, -0.29916507, -1239723.3, -25811.744, 0.00029041685, 9.997833, 10.0009165 
1.8551458e+3, 1.8612838e+2, -1361005.0, -1187976.5, -39838.965, -0.04258251, -0.38923272, -1179244.5, -63334.97, 0.0000003514084, 9.998159, 10.000455 
1.8551433e+3, 1.9612812e+2, -1036190.44, -989377.0, -36742.395, -0.04365931, -0.48370788, -969219.06, 48687.805, 0.0, 9.999761, 10.000368 
1.8551417e+3, 2.061283e+2, -1007422.56, -1153134.1, 5179.086, -0.084290795, -0.38569924, -1007238.7, -87329.58, 0.0, 10.000254, 9.998344 
1.8551405e+3, 2.1612889e+2, -918586.06, -1021545.44, -31366.732, -0.14588436, -0.18713969, -909782.8, -87869.586, 0.0, 10.000041, 9.9986725 
1.8551391e+3, 2.2612828e+2, -704007.7, -728241.0, -124274.63, -0.10677315, -0.18178838, -591260.44, 132659.34, 0.0, 10.000246, 9.999914 
1.8551376e+3, 2.3612681e+2, -525931.5, -585533.5, -121507.32, -0.004555825, -0.3410543, -430624.03, 195304.31, 0.0, 10.000773, 9.999962 
1.8551365e+3, 2.4612631e+2, -458711.34, -582735.75, -27097.879, 0.043683805, -0.34555092, -453049.28, 74882.36, 0.0, 10.000903, 9.9992485 
1.8551359e+3, 2.561265e+2, -366042.84, -476582.44, 41502.94, 0.056293946, -0.27789578, -352195.03, 77735.42, 0.0, 10.000828, 9.999336 
1.855134e+3, 2.6612523e+2, -272935.72, -472580.1, 28363.764, -0.027684595, -0.28875476, -268984.25, 62956.305, 0.00000008466028, 10.00117, 9.998534 
1.8551315e+3, 2.7612302e+2, -100294.375, -353111.03, -1532.9232, -0.17087524, -0.39203465, -100285.08, 133673.55, 0.000011475633, 10.001755, 9.998392 
1.8551321e+3, 2.861206e+2, -43152.035, -533922.25, 13315.815, -0.06927702, -0.34012502, -42791.008, 93194.68, 0.00012583696, 10.002578, 9.996092 
1.8551347e+3, 2.9611826e+2, 226005.36, -303339.97, 803.9541, 0.17700028, -0.21646495, 226006.58, 264023.16, 0.00050937914, 10.003536, 9.996542 
1.8551335e+3, 3.0611667e+2, 407909.6, -23959.15, 37732.813, 0.011156678, -0.11049951, 411181.56, 411181.56, 0.0012330363, 10.003761, 9.998009 
1.8551359e+3, 3.1611472e+2, 402025.25, -57561.555, 84350.875, 0.14118621, -0.1288123, 417017.63, 417017.63, 0.0021972386, 10.003827, 9.997749 
1.8651575e+3, 1.2612759e+2, -1853594.4, -1586478.0, -126389.94, -0.21733716, -0.3812204, -1536155.3, 167760.95, 0.1378835, 9.998116, 10.001933 
1.8651557e+3, 1.361272e+2, -1836283.5, -1752691.3, -198791.98, 0.104675114, -0.43320057, -1591349.0, 14576.455, 0.09301642, 9.998613, 9.999731 
1.8651497e+3, 1.4613071e+2, -1796708.4, -1632512.0, -56808.81, -0.1076632, -0.05927901, -1614773.5, -106879.08, 0.050644647, 9.998002, 10.000171 
1.8651485e+3, 1.5613124e+2, -1795690.1, -1536876.8, 44359.15, -0.0956344, -0.06767463, -1529485.0, -119593.58, 0.01991141, 9.99715, 10.000561 
1.8651472e+3, 1.6613089e+2, -1631086.8, -1399829.5, 53200.24, -0.093880154, -0.16019873, -1388177.9, -76284.92, 0.0045744055, 9.997566, 10.000629 
1.8651457e+3, 1.7613034e+2, -1354112.3, -1210120.9, 11682.974, -0.09531688, -0.30205077, -1209179.1, 4715.097, 0.0003360051, 9.998785, 10.000661 
1.8651444e+3, 1.861296e+2, -1236976.6, -1197924.3, -32881.324, -0.06599843, -0.39399043, -1179208.4, -63310.78, 0.00000050835786, 9.999319, 9.9998255 
1.8651429e+3, 1.961287e+2, -1113289.3, -1084515.8, -62199.918, -0.030291924, -0.49086493, -1035060.5, -17157.633, 0.0, 9.999488, 9.999846 
1.8651415e+3, 2.0612872e+2, -1110084.6, -1157252.9, -1857.0985, -0.058762833, -0.40587297, -1110011.6, -190106.11, 0.0, 9.999374, 9.998731 
1.8651402e+3, 2.1612945e+2, -1030165.1, -1041758.7, 46223.875, -0.13443543, -0.23165557, -989375.94, -167470.19, 0.0, 9.99914, 9.9989605 
1.8651392e+3, 2.2612889e+2, -849269.2, -845549.94, 13548.993, -0.08452854, -0.21174325, -833733.56, -109820.89, 0.0, 9.999448, 9.999495 
1.8651384e+3, 2.3612753e+2, -641966.06, -676627.8, -7878.5425, 0.038765743, -0.31907853, -640259.3, -14336.23, 0.0, 10.000126, 9.99965 
1.8651375e+3, 2.4612722e+2, -442363.94, -528571.0, 19403.902, 0.04953692, -0.3139055, -438197.75, 89725.805, 0.0, 10.000807, 9.999667 
1.8651362e+3, 2.561276e+2, -253078.02, -393484.63, -21186.764, -0.017810345, -0.27022836, -249950.67, 179966.72, 0.0, 10.00147, 9.9995985 
1.8651354e+3, 2.6612598e+2, -147576.23, -490295.6, -28843.672, -0.057303656, -0.28922665, -145165.67, 186765.69, 0.000000065173005, 10.0023775, 9.997828 
1.865135e+3, 2.761231e+2, 113817.37, -316747.03, -48486.637, -0.07563017, -0.38409933, 119209.99, 353168.22, 0.000009431519, 10.003501, 9.9978075 
1.8651362e+3, 2.8612006e+2, 218725.88, -351713.5, 17433.7, -0.006471091, -0.39609003, 219258.19, 355246.47, 0.00011327423, 10.004137, 9.99659 
1.865138e+3, 2.9611716e+2, 392977.47, -172491.0, 35229.08, 0.10529132, -0.37968108, 395163.8, 433182.03, 0.0004712911, 10.004485, 9.996969 
1.8651375e+3, 3.061149e+2, 442006.8, -51943.938, 47721.875, 0.03391717, -0.33712828, 446575.1, 446575.1, 0.0011530537, 10.004177, 9.997616 
1.8651402e+3, 3.1611434e+2, 372786.63, -73687.22, 50167.02, 0.21151268, -0.1787792, 378354.1, 378354.1, 0.0020579891, 10.00361, 9.9977455 
1.8751615e+3, 1.2613098e+2, -1902189.9, -1674428.3, -52554.258, 0.34212416, -0.17444655, -1662886.6, 41001.496, 0.14588223, 9.998105, 10.001219 
1.8751523e+3, 1.3612933e+2, -1925479.9, -1929692.0, -189628.83, -0.09294064, -0.20158811, -1737945.4, -132031.78, 0.0986057, 9.998581, 9.998527 
1.8751463e+3, 1.4613213e+2, -1647460.1, -1335475.6, -91003.805, -0.26834267, 0.03971728, -1310870.9, 197012.61, 0.053927336, 9.9980135, 10.0022745 
1.875149e+3, 1.5613076e+2, -1667673.6, -1282828.5, 26696.354, 0.23200357, -0.3684448, -1280985.5, 128901.09, 0.021407956, 9.997183, 10.002309 
1.8751478e+3, 1.6613099e+2, -1695351.3, -1541193.5, 94149.07, 0.19726133, -0.42559364, -1496595.8, -184713.42, 0.0050250688, 9.9976015, 9.999643 
1.8751436e+3, 1.7613271e+2, -1422882.9, -1349269.9, 57094.28, -0.19573097, -0.24416448, -1318146.5, -104277.336, 0.00038988978, 9.998768, 9.999717 
1.8751423e+3, 1.8613225e+2, -1297421.9, -1325080.8, -31135.479, -0.21294434, -0.21545856, -1277182.6, -161307.36, 0.000000733184, 9.999325, 9.998952 
1.875143e+3, 1.9613041e+2, -1158489.4, -1174813.6, -51716.414, 0.016427936, -0.31725377, -1114295.0, -96400.94, 0.0, 9.9994755, 9.999233 
1.875142e+3, 2.0612983e+2, -995943.5, -926335.9, -14850.388, 0.026092138, -0.35438532, -923300.0, -3401.6624, 0.0, 9.99939, 10.000315 
1.8751396e+3, 2.1613017e+2, -943323.0, -856271.25, 44952.688, -0.10853904, -0.37254575, -837225.2, -15332.698, 0.0, 9.999108, 10.000255 
1.8751383e+3, 2.261299e+2, -902444.3, -941321.8, 35395.504, -0.120158486, -0.34384567, -881501.06, -157606.0, 0.0, 9.999381, 9.998871 
1.8751377e+3, 2.3612934e+2, -697245.6, -774370.56, 24567.555, -0.05270792, -0.31207824, -690084.7, -64182.68, 0.0, 10.000056, 9.99901 
1.8751368e+3, 2.4612844e+2, -517758.13, -665357.8, 42218.33, -0.09545287, -0.28847072, -506535.6, 21374.91, 0.0, 10.00072, 9.998772 
1.8751359e+3, 2.5612727e+2, -323526.75, -523217.94, 12740.141, -0.21010917, -0.306767, -322717.22, 107203.07, 0.0, 10.001399, 9.998743 
1.8751372e+3, 2.6612523e+2, -186262.05, -557248.25, 9031.169, -0.13549884, -0.30401692, -186042.33, 145897.42, 0.00000004605578, 10.002311, 9.997406 
1.8751399e+3, 2.7612278e+2, 82500.14, -358332.34, 887.0372, 0.058331687, -0.31614095, 82501.93, 316466.56, 0.000008317367, 10.0034, 9.997573 
1.8751408e+3, 2.861195e+2, 289410.7, -183129.34, 25894.146, 0.04878468, -0.41213205, 290825.38, 426817.1, 0.00010637557, 10.004039, 9.997798 
1.8751407e+3, 2.961156e+2, 435857.0, -49029.3, 56122.83, -0.0766286, -0.6127518, 442268.13, 480288.78, 0.00044732384, 10.00434, 9.9978895 
1.8751408e+3, 3.0611217e+2, 354158.2, -203011.73, 16546.309, -0.07748041, -0.6702921, 354649.13, 354649.13, 0.001093146, 10.004044, 9.996639 
1.8751436e+3, 3.1611004e+2, 332591.94, -86624.516, 58787.11, 0.17711148, -0.57926273, 340679.7, 340679.7, 0.0019391512, 10.003334, 9.99778 
1.8851583e+3, 1.2613128e+2, -2030135.4, -1637655.3, -21270.498, 0.2730498, -0.23725253, -1636505.8, 67377.2, 0.15411249, 9.996759, 10.002166 
1.8851508e+3, 1.3612995e+2, -2075870.0, -1953268.5, -59835.81, -0.0379191, -0.29112035, -1928906.5, -323004.16, 0.10442951, 9.997331, 9.998966 
1.8851456e+3, 1.4613324e+2, -1650379.5, -1388252.5, -14951.093, -0.15113664, 0.005769255, -1387402.5, 120464.98, 0.057399224, 9.998222, 10.001793 
1.885147e+3, 1.5613063e+2, -1411344.4, -1202127.1, -86989.25, 0.21253382, -0.48078254, -1170684.0, 239200.9, 0.023018045, 9.99913, 10.001937 
1.885146e+3, 1.6613089e+2, -1486001.9, -1421399.9, -29285.541, 0.20277518, -0.5279625, -1410100.4, -98219.34, 0.005521801, 9.998958, 9.999812 
1.8851434e+3, 1.7613347e+2, -1480762.0, -1359674.0, 10091.58, -0.08482781, -0.27417842, -1358838.8, -144979.84, 0.0004532519, 9.998287, 9.999885 
1.885142e+3, 1.8613373e+2, -1348124.8, -1325833.6, 31234.268, -0.14172848, -0.19576871, -1303815.9, -187957.05, 0.0000010252129, 9.998867, 9.999169 
1.8851423e+3, 1.9613232e+2, -1026771.5, -1092128.5, 78080.61, -0.046654932, -0.27678996, -974806.8, 43067.484, 0.0, 10.000282, 9.9994135 
1.8851417e+3, 2.0613174e+2, -826285.44, -852532.0, 46540.02, 0.009478227, -0.32000154, -791053.8, 128824.75, 0.0, 10.000594, 10.000237 
1.8851407e+3, 2.1613182e+2, -774801.4, -782806.8, -17083.951, 0.029817345, -0.35634494, -761257.44, 60616.832, 0.0, 10.00031, 10.000175 
1.8851393e+3, 2.2613135e+2, -744468.06, -899294.56, -19045.0, -0.010454921, -0.327862, -742159.75, -18281.262, 0.0, 10.000625, 9.998553 
1.885138e+3, 2.3613045e+2, -537334.2, -738229.5, -19888.072, -0.09224308, -0.2962257, -535384.25, 90504.58, 0.0, 10.0013275, 9.998647 
1.8851377e+3, 2.4612859e+2, -427128.9, -679283.4, 20287.432, -0.12593693, -0.32100862, -425507.1, 102399.9, 0.0, 10.001602, 9.998249 
1.8851382e+3, 2.5612622e+2, -314576.75, -567267.2, 10138.827, -0.13315676, -0.4054992, -314170.6, 115758.53, 0.0, 10.001675, 9.99831 
1.8851404e+3, 2.6612458e+2, -166841.55, -500859.28, 85174.55, -0.04492636, -0.37056753, -146375.98, 185569.25, 0.000000017635879, 10.002251, 9.997818 
1.8851434e+3, 2.7612346e+2, 77216.11, -313140.78, 119704.39, 0.083690085, -0.28732222, 111000.03, 344956.25, 0.000007212163, 10.003176, 9.997983 
1.8851444e+3, 2.8612036e+2, 195567.66, -213049.72, 104287.12, 0.02892131, -0.3913903, 220644.77, 356625.66, 0.00009804042, 10.003347, 9.997915 
1.8851441e+3, 2.9611576e+2, 270458.88, -129054.61, 38628.984, -0.09623312, -0.6708996, 274159.66, 312175.4, 0.00041894236, 10.003195, 9.997892 
1.8851447e+3, 3.0611277e+2, 289030.1, -256376.23, 12098.519, -0.068294734, -0.6771347, 289298.34, 289298.34, 0.0010272041, 10.003663, 9.996473 
1.8851462e+3, 3.161105e+2, 486841.63, 38586.25, 55865.75, 0.059752274, -0.58628434, 493699.22, 493699.22, 0.0018204243, 10.004146, 9.998262 
1.8951474e+3, 1.2612844e+2, -1851364.4, -1329350.8, -26421.309, -0.50281316, -0.5828342, -1328016.9, 375884.88, 0.16258536, 9.99677, 10.004692 
1.8951507e+3, 1.3612908e+2, -1943615.0, -1671617.4, -31910.67, 0.1948582, -0.69039816, -1667923.8, -62031.66, 0.110513955, 9.997297, 10.000917 
1.8951473e+3, 1.4613405e+2, -1853314.5, -1797288.5, 16287.748, 0.17802213, -0.15295604, -1792897.5, -285051.0, 0.06108175, 9.998205, 9.998943 
1.8951423e+3, 1.5613087e+2, -1585267.5, -1553926.9, -54441.49, -0.17353398, -0.41065222, -1512945.3, -103059.83, 0.024752133, 9.999108, 9.9995 
1.895142e+3, 1.6613056e+2, -1394201.0, -1238681.9, -57996.863, -0.11473541, -0.47441012, -1219435.4, 92453.43, 0.0060684755, 9.998984, 10.001059 
1.8951444e+3, 1.7613272e+2, -1391021.3, -1178673.8, -2520.2878, 0.18873699, -0.38662753, -1178643.9, 35219.43, 0.0005270964, 9.998306, 10.0011215 
1.8951434e+3, 1.8613397e+2, -1256228.1, -1135162.1, 82060.9, 0.09111184, -0.33636042, -1093723.4, 22125.775, 0.0000013718216, 9.998871, 10.000475 
1.8951406e+3, 1.9613446e+2, -967286.7, -955158.4, 125920.445, -0.2590036, -0.3547817, -835156.2, 182687.69, 0.0, 10.000229, 10.000378 
1.8951409e+3, 2.0613444e+2, -944862.25, -1096086.4, 28478.203, -0.15626304, -0.29263413, -939677.06, -19830.705, 0.0, 10.000574, 9.998579 
1.8951432e+3, 2.1613424e+2, -885010.7, -1001060.5, -20094.375, 0.23480263, -0.19288883, -881629.8, -59777.402, 0.0, 10.000258, 9.998706 
1.8951422e+3, 2.261329e+2, -757612.1, -910163.8, 4248.6084, 0.1939883, -0.18349223, -757493.9, -33628.188, 0.0, 10.00055, 9.998516 
1.8951389e+3, 2.3613082e+2, -556171.9, -755252.1, 10546.625, -0.13022855, -0.26508045, -555614.7, 70269.195, 0.0, 10.001236, 9.998571 
1.8951397e+3, 2.4612787e+2, -451472.97, -714336.7, 17222.537, -0.10339781, -0.38573024, -450349.38, 77562.14, 0.0, 10.001525, 9.99805 
1.8951428e+3, 2.561244e+2, -328548.56, -580441.5, 24201.934, 0.15865009, -0.55771, -326244.3, 103700.09, 0.0, 10.001604, 9.998255 
1.8951447e+3, 2.6612374e+2, -95029.56, -333322.16, 117944.91, 0.15966019, -0.48641226, -46524.91, 285424.5, 0.0000000071100716, 10.00217, 9.999008 
1.8951455e+3, 2.7612492e+2, 126539.555, -179718.33, 156233.4, -0.04018568, -0.29468423, 192173.84, 426109.4, 0.0000064261117, 10.003051, 9.998958 
1.8951464e+3, 2.861225e+2, 115689.97, -359313.66, 89453.305, -0.11862502, -0.32314494, 131977.45, 267935.06, 0.00008702771, 10.003245, 9.996967 
1.8951482e+3, 2.9611742e+2, 184304.0, -276506.38, 53493.258, -0.029587125, -0.55629766, 190432.27, 228437.98, 0.00037900076, 10.003046, 9.996959 
1.8951488e+3, 3.061164e+2, 300740.34, -181205.23, 35246.883, -0.043191135, -0.34825724, 303304.47, 303304.47, 0.000943369, 10.003471, 9.997069 
1.8951479e+3, 3.1611547e+2, 440169.56, 48050.027, 72834.766, -0.21561298, -0.19009781, 453261.25, 453261.25, 0.0016909072, 10.003748, 9.998499 
1.905144e+3, 1.2612969e+2, -1992334.8, -1419515.6, 370.86353, -0.4782577, -0.53739196, -1419515.4, 284371.25, 0.1713416, 9.995963, 10.004366 
1.9051474e+3, 1.3612913e+2, -1864630.3, -1581988.4, -120353.59, 0.14571081, -0.81983036, -1537684.5, 68201.84, 0.11689223, 9.997603, 10.001436 
1.9051458e+3, 1.461349e+2, -1833283.6, -1846351.8, -29895.53, 0.1945218, -0.20294733, -1809216.4, -301382.56, 0.06499328, 9.998591, 9.998422 
1.9051413e+3, 1.561319e+2, -1637725.5, -1634999.9, 46601.426, -0.17956026, -0.3867547, -1589741.4, -179867.6, 0.026617203, 9.998976, 9.999013 
1.905141e+3, 1.6613129e+2, -1345421.9, -1201129.9, 47271.758, -0.13322179, -0.4671256, -1187022.4, 124857.555, 0.0066676727, 9.999255, 10.001188 
1.9051433e+3, 1.7613307e+2, -1178356.1, -1062603.8, 20828.854, 0.17261733, -0.43005905, -1058969.8, 154886.17, 0.0006122247, 9.999712, 10.001235 
1.9051433e+3, 1.8613397e+2, -1166315.3, -1114988.1, 33215.91, 0.15447278, -0.40831313, -1098676.5, 17167.945, 0.0000017786746, 9.999593, 10.00026 
1.9051419e+3, 1.9613406e+2, -1136007.0, -1062091.3, -39446.773, -0.07938361, -0.44557005, -1044994.25, -27150.85, 0.0, 9.999185, 10.000145 
1.9051419e+3, 2.0613393e+2, -1087193.0, -1188043.5, -112311.61, -0.057633396, -0.3714563, -1014506.1, -94658.31, 0.0, 9.999715, 9.998353 
1.9051425e+3, 2.1613373e+2, -809486.75, -987674.9, -68664.984, 0.12439193, -0.24819952, -786096.9, 35757.902, 0.0, 10.000878, 9.998495 
1.9051422e+3, 2.2613214e+2, -645034.5, -842257.75, 6633.118, 0.107786566, -0.2606369, -644811.6, 79058.29, 0.0, 10.001261, 9.998642 
1.905141e+3, 2.3612975e+2, -558374.56, -746509.3, 17418.846, -0.04612909, -0.38651398, -556775.4, 69114.34, 0.0, 10.00117, 9.998668 
1.9051424e+3, 2.4612746e+2, -426629.5, -698555.56, 57962.3, 0.0077872025, -0.4452605, -414790.06, 113121.52, 0.0, 10.001692, 9.998069 
1.9051452e+3, 2.561252e+2, -173722.95, -499821.84, 64081.98, 0.19427703, -0.50324035, -161582.16, 268352.84, 0.0, 10.002646, 9.998297 
1.905147e+3, 2.6612452e+2, -51754.758, -319468.1, 106536.84, 0.14756742, -0.43751097, -14533.354, 317408.13, 0.000000016068412, 10.002495, 9.998945 
1.9051473e+3, 2.7612498e+2, -72205.17, -285032.8, 40461.418, -0.08232581, -0.3089618, -64772.48, 169162.48, 0.000006012808, 10.001702, 9.99889 
1.9051486e+3, 2.8612277e+2, -117859.87, -439306.97, 4890.202, -0.12256585, -0.32546908, -117785.484, 18169.557, 0.000076223165, 10.001509, 9.997251 
1.9051513e+3, 2.9611868e+2, 29317.33, -312449.25, 42955.7, 0.038823597, -0.4895716, 34633.617, 72627.234, 0.00033497153, 10.001828, 9.997289 
1.905152e+3, 3.0611774e+2, 179349.8, -201370.5, 95230.875, 0.010973737, -0.3068049, 201841.48, 201841.48, 0.00085160905, 10.002467, 9.997423 
1.9051522e+3, 3.1611547e+2, 328817.44, -43470.285, 50887.773, -0.10503512, -0.31739405, 335647.94, 335647.94, 0.0015602609, 10.003109, 9.998192 
1.9151466e+3, 1.2613447e+2, -2217653.0, -1809717.8, -17299.496, 0.16093026, -0.15846156, -1808985.4, -105142.51, 0.18042894, 9.995897, 10.001308 
1.9151416e+3, 1.3613e+2, -1931336.5, -1702847.0, -56875.49, -0.21765834, -0.6991313, -1689472.5, -83587.27, 0.12358676, 9.997568, 10.000561 
1.9151413e+3, 1.4613572e+2, -1705086.3, -1594445.3, -19382.71, -0.13144861, -0.15045398, -1591148.0, -83318.61, 0.069141634, 9.998643, 10.000128 
1.9151434e+3, 1.5613362e+2, -1546395.6, -1438089.0, 62151.45, 0.1244844, -0.40736294, -1409808.3, 42.962322, 0.028615344, 9.998944, 10.000379 
1.9151424e+3, 1.6613303e+2, -1404036.6, -1326956.6, 57450.33, 0.07022996, -0.4972077, -1296316.6, 15538.637, 0.0073205116, 9.999273, 10.000311 
1.9151397e+3, 1.7613453e+2, -1247898.4, -1206371.6, 37603.125, -0.1620565, -0.4021525, -1184180.3, 29656.996, 0.00070924795, 9.999709, 10.000248 
1.9151416e+3, 1.861338e+2, -1279551.1, -1354294.8, 13629.1045, 0.008876101, -0.40563673, -1277143.4, -161299.25, 0.0000023137907, 9.99961, 9.998611 
1.9151464e+3, 1.9613133e+2, -1231871.1, -1258135.3, -42044.41, 0.42800963, -0.5340516, -1200955.6, -183085.08, 0.0, 9.999174, 9.998806 
1.9151448e+3, 2.0613031e+2, -1014990.94, -1036652.3, -69846.16, 0.2414682, -0.54833055, -955140.75, -35259.28, 0.0, 9.999701, 9.999401 
1.9151391e+3, 2.1613039e+2, -751358.2, -851074.2, -24844.094, -0.32819632, -0.5018926, -745511.2, 76369.31, 0.0, 10.000807, 9.999468 
1.9151394e+3, 2.261292e+2, -636454.9, -802856.7, 953.8086, -0.30102566, -0.5353942, -636449.4, 87440.65, 0.0, 10.0011635, 9.998961 
1.9151437e+3, 2.3612727e+2, -548370.1, -707154.56, 26428.064, 0.111022025, -0.64595324, -544087.0, 81819.12, 0.0, 10.001093, 9.998976 
1.9151455e+3, 2.4612716e+2, -422895.2, -673922.56, 90734.28, 0.14566174, -0.51332814, -393533.44, 134376.0, 0.0, 10.001615, 9.998277 
1.9151454e+3, 2.5612822e+2, -187200.2, -499015.56, 97755.63, -0.06398645, -0.25694072, -159087.86, 270816.22, 0.0, 10.002529, 9.998357 
1.9151469e+3, 2.6612678e+2, -151440.48, -507768.22, 69483.94, -0.12520626, -0.20291762, -138370.52, 193550.98, 0.000000038925435, 10.002407, 9.997698 
1.915149e+3, 2.7612355e+2, -152815.19, -434319.78, 23142.277, -0.109311745, -0.3169304, -150925.38, 83028.64, 0.000005434598, 10.001629, 9.9979 
1.9151509e+3, 2.8612116e+2, -28955.254, -244172.47, 10402.22, -0.06860475, -0.38223344, -28453.646, 107518.97, 0.0000648047, 10.00146, 9.998616 
1.9151533e+3, 2.9611927e+2, 98465.15, -141882.25, 68128.22, 0.05017957, -0.46566087, 116433.305, 154415.72, 0.00028761037, 10.001717, 9.998515 
1.9151549e+3, 3.0611685e+2, 180046.94, -175800.73, 112530.43, 0.017594151, -0.49837762, 212646.23, 212646.23, 0.00075054937, 10.002359, 9.997646 
1.9151567e+3, 3.1611326e+2, 232906.08, -162973.88, 95869.44, 0.019362347, -0.6630122, 254900.6, 254900.6, 0.0014148657, 10.002794, 9.997507 
1.9251432e+3, 1.2613396e+2, -2228112.3, -1889525.5, -153563.1, 0.22019053, -0.07852973, -1830254.1, -126402.86, 0.18987963, 9.99613, 10.00066 
1.9251396e+3, 1.3612948e+2, -1923063.8, -1665363.8, -64224.246, -0.17705248, -0.6358935, -1650244.8, -44350.707, 0.13060497, 9.997466, 10.000877 
1.92514e+3, 1.4613526e+2, -1692679.1, -1479965.4, -49288.113, -0.10975231, -0.15497969, -1469099.9, 38734.758, 0.07352615, 9.998262, 10.00111 
1.9251427e+3, 1.5613364e+2, -1525771.1, -1347312.4, -34225.79, 0.1653857, -0.45651412, -1340973.5, 68872.9, 0.030745408, 9.99873, 10.001116 
1.9251418e+3, 1.6613305e+2, -1488474.0, -1449710.5, -45212.81, 0.100764066, -0.53836906, -1419900.3, -108049.21, 0.008026891, 9.999066, 9.999558 
1.9251391e+3, 1.7613426e+2, -1336910.5, -1325762.1, -67025.95, -0.17056578, -0.39616963, -1264079.0, -50239.03, 0.0008187495, 9.99944, 9.999555 
1.9251415e+3, 1.8613331e+2, -1232540.1, -1348050.5, -20406.975, 0.020553289, -0.38278756, -1229040.9, -113190.55, 0.0000031359323, 10.000005, 9.998467 
1.925147e+3, 1.9613062e+2, -1007741.94, -1160993.4, 25804.443, 0.49128827, -0.51895857, -1003513.6, 14364.322, 0.0, 10.0007515, 9.998716 
1.9251455e+3, 2.0612949e+2, -870317.5, -926223.7, 19334.566, 0.30384976, -0.5608414, -864282.4, 55605.76, 0.0, 10.000518, 9.999767 
1.9251396e+3, 2.161296e+2, -886192.75, -880249.44, 7027.951, -0.3062064, -0.54652095, -875590.7, -53706.25, 0.0, 9.999734, 9.999782 
1.9251405e+3, 2.2612873e+2, -736702.44, -854478.7, 27995.7, -0.28024814, -0.56311655, -730386.5, -6495.7026, 0.0, 10.0005, 9.998924 
1.9251458e+3, 2.3612708e+2, -384041.34, -633285.44, 11832.711, 0.1487781, -0.639458, -383480.84, 242423.94, 0.0, 10.002241, 9.998932 
1.9251476e+3, 2.4612673e+2, -314862.75, -628453.2, 38334.773, 0.15253648, -0.5240723, -310244.56, 217666.06, 0.0, 10.002386, 9.998219 
1.9251469e+3, 2.5612742e+2, -329135.4, -580146.2, 17963.246, -0.124629974, -0.2986242, -327856.4, 102052.76, 0.0, 10.001594, 9.9982605 
1.9251488e+3, 2.6612577e+2, -216692.31, -544533.94, 52185.914, -0.14674678, -0.25354978, -208585.78, 123342.586, 0.000000047147957, 10.001993, 9.997642 
1.9251521e+3, 2.7612248e+2, 72642.48, -326465.1, 74572.45, -0.02927056, -0.37357903, 86121.0, 320082.9, 0.000004366453, 10.003187, 9.997889 
1.9251542e+3, 2.8611994e+2, 263708.66, -102086.555, 44289.234, 0.01590971, -0.45303926, 268994.66, 404976.84, 0.000052265208, 10.003482, 9.998613 
1.9251558e+3, 2.9611823e+2, 329169.5, -37330.85, -13193.089, 0.06301238, -0.5118969, 329643.78, 367634.34, 0.00023814115, 10.003327, 9.998457 
1.9251572e+3, 3.0611533e+2, 289831.44, -132789.11, 2710.2754, -0.023755107, -0.5858948, 289848.8, 289848.8, 0.0006419539, 10.003143, 9.99757 
1.9251607e+3, 3.1611323e+2, 250533.36, -188562.75, -27519.76, 0.13332745, -0.59260064, 252251.39, 252251.39, 0.0012461293, 10.002995, 9.997265 
1.9351335e+3, 1.2612845e+2, -2100271.3, -1660959.8, -147668.47, -0.38988927, -0.28793773, -1615937.3, 87971.89, 0.1997211, 9.996207, 10.002334 
1.9351406e+3, 1.3612781e+2, -1828636.6, -1478645.0, -9654.32, 0.18172939, -0.6158239, -1478378.9, 127531.766, 0.13795441, 9.997417, 10.002324 
1.9351411e+3, 1.4613368e+2, -1676825.0, -1445248.9, -33508.277, 0.16518436, -0.20439017, -1440497.9, 67349.96, 0.07814733, 9.998237, 10.001381 
1.9351389e+3, 1.5613213e+2, -1521976.1, -1336189.6, -11114.818, -0.091504514, -0.5223743, -1335527.0, 74330.61, 0.033007, 9.998711, 10.001206 
1.9351393e+3, 1.6613147e+2, -1530165.0, -1540347.8, -37178.176, -0.08594065, -0.5771138, -1497731.3, -185865.72, 0.008786739, 9.999082, 9.998932 
1.9351414e+3, 1.7613232e+2, -1366463.6, -1387733.6, -46220.105, 0.08944379, -0.40794042, -1329670.8, -115807.48, 0.00094156526, 9.999441, 9.99913 
1.9351427e+3, 1.8613242e+2, -1141928.6, -1161823.0, 6310.028, 0.13158892, -0.3439957, -1140096.0, -24232.773, 0.0000044945964, 10.00001, 9.999743 
1.9351438e+3, 1.9613178e+2, -934975.8, -1001407.7, 52747.2, 0.088013604, -0.4050332, -905857.44, 112009.555, 0.0, 10.000716, 9.999826 
1.9351439e+3, 2.0613128e+2, -893968.75, -972803.44, -15746.146, 0.08875896, -0.41273344, -890940.06, 28929.307, 0.0, 10.000504, 9.999456 
1.9351436e+3, 2.1613115e+2, -913128.75, -931617.4, -7186.8125, 0.1179052, -0.39286366, -910663.75, -88795.05, 0.0, 9.999711, 9.999442 
1.9351448e+3, 2.2613029e+2, -778619.2, -923413.5, 90229.18, 0.09142374, -0.36712658, -735332.94, -11457.31, 0.0, 10.000424, 9.998486 
1.9351469e+3, 2.3612893e+2, -430504.53, -698303.8, 71594.33, 0.024501987, -0.37373817, -412565.9, 213321.89, 0.0, 10.002115, 9.99854 
1.9351484e+3, 2.4612628e+2, -350739.28, -681332.7, 787.6202, -0.021415267, -0.4544951, -350737.4, 177176.83, 0.0, 10.002286, 9.997908 
1.9351493e+3, 2.5612292e+2, -351412.1, -609419.1, 2278.186, -0.049098477, -0.60479355, -351391.97, 78556.91, 0.0, 10.001523, 9.998094 
1.9351524e+3, 2.6612163e+2, -158562.16, -401886.66, 91832.49, 0.008079504, -0.5730685, -127794.39, 204167.11, 0.00000001782158, 10.001902, 9.998663 
1.9351566e+3, 2.7612156e+2, 103835.27, -221271.1, 120164.07, 0.09887353, -0.47038376, 143427.92, 377388.38, 0.0000032438913, 10.00303, 9.998678 
1.9351584e+3, 2.861192e+2, 157349.64, -306367.8, 25476.252, 0.065669864, -0.49583644, 158745.1, 294727.97, 0.00004228404, 10.003392, 9.997261 
1.9351587e+3, 2.9611558e+2, 228018.61, -225503.77, -10405.222, -0.0049855197, -0.610762, 228257.2, 266275.22, 0.0001979141, 10.003231, 9.997213 
1.9351588e+3, 3.0611324e+2, 239508.88, -204906.98, -11784.643, -0.192265, -0.5468154, 239821.16, 239821.16, 0.00054697425, 10.003011, 9.997135 
1.9351624e+3, 3.1611356e+2, 231323.48, -141864.44, 54405.66, -0.012947353, -0.28055146, 239093.31, 239093.31, 0.0010825144, 10.002679, 9.997712 
1.9451305e+3, 1.2612614e+2, -1902855.9, -1568317.6, 4603.495, -0.36978278, -0.3559855, -1568254.3, 135677.2, 0.20999403, 9.997491, 10.002451 
1.9451381e+3, 1.361259e+2, -1893985.5, -1544110.3, -13357.76, 0.21807249, -0.6013771, -1543601.0, 62328.566, 0.14565058, 9.99715, 10.001932 
1.9451384e+3, 1.4613144e+2, -1846799.0, -1485310.5, -93129.41, 0.14657742, -0.22548874, -1462728.5, 45141.85, 0.083007626, 9.996897, 10.001741 
1.945137e+3, 1.5613069e+2, -1774409.8, -1411931.1, -68143.63, -0.06242551, -0.5011594, -1399543.9, 10328.166, 0.03539992, 9.996793, 10.001595 
1.9451381e+3, 1.661303e+2, -1701741.8, -1601107.0, -8771.67, -0.0378287, -0.5597504, -1600348.1, -288471.22, 0.009600047, 9.997797, 9.999142 
1.945141e+3, 1.7613088e+2, -1321121.3, -1343986.6, 31773.654, 0.11078225, -0.43916658, -1298786.0, -84909.1, 0.0010784023, 9.999643, 9.999338 
1.9451421e+3, 1.8613103e+2, -1142034.8, -1148844.1, 27473.51, 0.07739498, -0.3848711, -1117755.8, -1880.1542, 0.0000066792873, 9.999957, 9.999852 
1.9451421e+3, 1.9613071e+2, -1131773.0, -1088768.5, -18061.717, -0.074829325, -0.42243177, -1082189.3, -64313.75, 0.0, 9.999342, 9.999884 
1.9451438e+3, 2.061303e+2, -903128.4, -1000287.06, -83354.41, 0.018723726, -0.41426042, -855230.2, 64646.8, 0.0, 10.000545, 9.999244 
1.9451463e+3, 2.1612993e+2, -458409.97, -738217.3, -81208.164, 0.2625389, -0.3945151, -436549.0, 385329.8, 0.0, 10.00294, 9.999216 
1.9451475e+3, 2.2612874e+2, -468757.22, -791466.44, 8115.11, 0.20849322, -0.3824873, -468553.28, 255335.83, 0.0, 10.002619, 9.998335 
1.9451475e+3, 2.3612706e+2, -662471.75, -824922.06, 3824.7244, -0.04292857, -0.40617305, -662381.75, -36477.008, 0.0, 10.000576, 9.998419 
1.9451496e+3, 2.4612434e+2, -572219.25, -765656.1, -6254.681, -0.0482959, -0.49841627, -572017.2, -44086.23, 0.0, 10.000682, 9.998099 
1.9451526e+3, 2.5612095e+2, -233276.78, -535806.1, 15481.077, 0.09498025, -0.6689849, -232486.64, 197477.44, 0.0, 10.00226, 9.998244 
1.945156e+3, 2.6611957e+2, -88464.12, -368552.2, 75418.695, 0.1570186, -0.6506468, -69447.44, 262529.78, 0.000000002142629, 10.002385, 9.998656 
1.9451594e+3, 2.7611962e+2, -104735.07, -330627.16, 15720.869, 0.15165053, -0.5353355, -103646.23, 130330.125, 0.0000029419668, 10.0016165, 9.998615 
1.945161e+3, 2.8611755e+2, -62149.637, -420664.94, -29397.932, 0.07843772, -0.5213097, -59755.027, 76243.375, 0.000037407608, 10.001927, 9.99718 
1.9451617e+3, 2.9611441e+2, 195845.95, -241140.02, 6652.592, -0.017674683, -0.58075833, 195947.2, 233979.44, 0.00017422454, 10.003002, 9.99722 
1.9451629e+3, 3.0611265e+2, 355955.06, -169943.63, 62975.434, -0.12982649, -0.45860228, 363391.1, 363391.1, 0.00047827733, 10.003903, 9.996943 
1.9451658e+3, 3.1611222e+2, 573961.4, 53837.125, 169002.6, -0.029294867, -0.23144329, 624051.1, 624051.1, 0.0009407246, 10.004855, 9.998027 
1.9551332e+3, 1.2612729e+2, -1988052.8, -1716297.0, 15198.381, 0.11748931, -0.25006238, -1715449.6, -11533.504, 0.22070916, 9.997514, 10.001177 
1.9551325e+3, 1.3612378e+2, -2043047.6, -1848708.0, -21782.168, -0.093824506, -0.5922708, -1846296.5, -240345.56, 0.15369554, 9.997169, 9.999763 
1.955132e+3, 1.4612848e+2, -1804626.5, -1418831.5, -100053.06, -0.20809035, -0.22060743, -1394427.3, 113475.016, 0.08810495, 9.996957, 10.002214 
1.9551364e+3, 1.561292e+2, -1726913.8, -1322179.1, -59854.59, 0.18785314, -0.40507874, -1313513.0, 96377.88, 0.037922986, 9.996815, 10.002225 
1.9551381e+3, 1.6612941e+2, -1627176.0, -1451714.5, 56332.484, 0.17146464, -0.48986882, -1435185.8, -123299.18, 0.010466628, 9.997818, 10.000155 
1.9551383e+3, 1.7612982e+2, -1267388.9, -1232980.8, 92862.96, -0.13573068, -0.4863887, -1155741.8, 58140.035, 0.0012294218, 9.999641, 10.000102 
1.9551396e+3, 1.8612908e+2, -1212732.6, -1296810.4, -380.449, -0.18391581, -0.49820313, -1212730.9, -96842.625, 0.000009908067, 9.999965, 9.998831 
1.9551419e+3, 1.9612747e+2, -1194345.0, -1223994.1, -23742.658, -0.051145263, -0.5618319, -1181178.9, -163275.7, 0.0, 9.999363, 9.998947 
1.9551447e+3, 2.0612648e+2, -922865.44, -1029127.6, 2948.8735, 0.039106734, -0.5611549, -922783.6, -2872.1602, 0.0, 10.000495, 9.999068 
1.9551477e+3, 2.1612598e+2, -485997.2, -762532.2, -4235.581, 0.09898356, -0.54018205, -485932.3, 335982.2, 0.0, 10.002803, 9.999112 
1.9551484e+3, 2.2612415e+2, -478180.13, -780211.06, -71888.85, 0.031974945, -0.59655076, -461942.25, 261988.6, 0.0, 10.002483, 9.998479 
1.9551475e+3, 2.361216e+2, -660881.56, -803448.1, -52335.75, -0.10927126, -0.7192186, -643732.2, -17777.73, 0.0, 10.000507, 9.998594 
1.9551508e+3, 2.4612089e+2, -541421.44, -685609.75, 49006.11, -0.0033058366, -0.6519836, -526342.44, 1618.5679, 0.0, 10.000612, 9.998682 
1.9551565e+3, 2.5612134e+2, -218442.75, -479825.06, 70910.75, 0.2551746, -0.4968684, -200444.6, 229511.97, 0.0, 10.002163, 9.99867 
1.9551596e+3, 2.6611972e+2, -171020.47, -523870.6, 38891.703, 0.25069275, -0.46734726, -166784.61, 165190.33, 0.00000003752054, 10.002304, 9.997635 
1.9551603e+3, 2.7611667e+2, -168740.92, -451670.1, 803.8075, 0.07210069, -0.5578662, -168738.63, 65270.31, 0.0000033154865, 10.001565, 9.997809 
1.9551623e+3, 2.8611502e+2, -2543.4685, -279026.97, 1200.1145, -0.018966364, -0.5230116, -2538.2593, 133490.02, 0.000035477744, 10.00185, 9.99819 
1.9551645e+3, 2.9611468e+2, 252920.8, -93004.97, 53572.207, -0.03543297, -0.40593347, 261027.34, 299060.84, 0.00015969804, 10.00289, 9.998286 
1.955169e+3, 3.0611348e+2, 340440.3, -188571.63, 80401.79, 0.0709605, -0.27718723, 352390.22, 352390.22, 0.00042279242, 10.003829, 9.996858 
1.9551723e+3, 3.1610867e+2, 537427.8, 43156.13, 247152.19, 0.09455011, -0.47665977, 639806.4, 639806.4, 0.00080456026, 10.004618, 9.998047 
1.9651315e+3, 1.2612584e+2, -2133350.5, -1742194.0, -61097.223, 0.2502303, -0.19506837, -1732873.0, -28942.922, 0.23177752, 9.996334, 10.001567 
1.9651294e+3, 1.3612154e+2, -2048647.4, -1815313.1, 22013.307, -0.10130365, -0.65978855, -1813254.5, -207285.16, 0.1620495, 9.996991, 10.000072 
1.9651292e+3, 1.4612597e+2, -1775434.8, -1467820.6, -590.53296, -0.20402421, -0.29318833, -1467819.5, 40105.125, 0.093428105, 9.997468, 10.001582 
1.9651341e+3, 1.5612711e+2, -1550543.0, -1294233.0, -49673.715, 0.21894419, -0.37618372, -1284942.9, 124970.39, 0.04057487, 9.998269, 10.001719 
1.9651365e+3, 1.6612737e+2, -1512856.4, -1366606.0, 25059.934, 0.19314174, -0.4494498, -1362431.1, -50522.906, 0.011385711, 9.998481, 10.000419 
1.9651371e+3, 1.7612761e+2, -1443942.4, -1294487.8, -1315.7245, -0.15431564, -0.48892754, -1294476.3, -80574.08, 0.0013940044, 9.998346, 10.0002985 
1.9651395e+3, 1.861267e+2, -1308086.6, -1381726.9, -82831.03, -0.16492675, -0.5069995, -1254260.8, -138350.75, 0.000014255441, 9.999473, 9.998492 
1.9651432e+3, 1.9612494e+2, -920896.56, -1131979.8, -68636.805, 0.050472036, -0.5512698, -900541.25, 117386.76, 0.0, 10.001411, 9.998594 
1.965146e+3, 2.0612346e+2, -900324.0, -1064180.8, -45690.473, 0.10792594, -0.55973566, -888444.75, 31498.055, 0.0, 10.000836, 9.998672 
1.965148e+3, 2.1612227e+2, -1112264.5, -1097149.0, -78720.54, 0.054090764, -0.5697772, -1025624.25, -203669.66, 0.0, 9.998638, 9.998827 
1.9651489e+3, 2.2612084e+2, -872188.9, -917082.44, -115948.11, -0.008329552, -0.5984341, -776534.75, -52568.094, 0.0, 9.999553, 9.998953 
1.9651493e+3, 2.361193e+2, -335532.56, -605862.3, -85904.88, -0.08500727, -0.6650082, -310543.78, 315435.2, 0.0, 10.002547, 9.998979 
1.9651526e+3, 2.4611863e+2, -207022.77, -522295.56, -4873.8945, 0.008518158, -0.6107978, -206947.44, 321036.5, 0.0, 10.002885, 9.998711 
1.9651578e+3, 2.5611869e+2, -313990.4, -527674.4, -33015.13, 0.20310095, -0.49837717, -309005.72, 120977.14, 0.0, 10.001507, 9.99866 
1.965161e+3, 2.6611713e+2, -256004.88, -581182.2, -23655.553, 0.20469186, -0.45051613, -254293.02, 77708.195, 0.00000006167767, 10.001796, 9.997485 
1.9651628e+3, 2.7611443e+2, 58769.402, -363196.3, -12414.9375, 0.06638346, -0.49084643, 59134.355, 293167.7, 0.000003603985, 10.003216, 9.997624 
1.9651651e+3, 2.861126e+2, 252853.83, -189913.4, -24467.377, 0.0044394345, -0.4478361, 254201.8, 390257.47, 0.00003404662, 10.003754, 9.997885 
1.9651683e+3, 2.961119e+2, 364860.97, -68249.57, -84486.27, 0.000653668, -0.3358049, 380758.1, 418824.0, 0.00014753208, 10.003777, 9.998035 
1.9651744e+3, 3.0611035e+2, 488223.06, -90741.375, -57587.49, 0.19983925, -0.24255097, 493895.5, 493895.5, 0.000374055, 10.004747, 9.997086 
1.9651757e+3, 3.1610465e+2, 737205.4, 125017.59, 31997.65, -0.09025907, -0.53633684, 738873.25, 738873.25, 0.00068023027, 10.006009, 9.997967 
1.9751252e+3, 1.2612171e+2, -1985743.5, -1510974.8, 30439.916, -0.035197873, -0.21076351, -1509031.0, 194942.95, 0.24301729, 9.996395, 10.0035515 
1.9751288e+3, 1.3611914e+2, -1862049.4, -1460638.8, 34616.953, 0.13216917, -0.8065887, -1457675.4, 148310.22, 0.17062773, 9.996996, 10.002717 
1.9751297e+3, 1.461239e+2, -1894615.4, -1714015.4, 20070.258, 0.08026434, -0.4319636, -1711811.9, -203874.4, 0.09895461, 9.997478, 9.999862 
1.9751304e+3, 1.5612438e+2, -1658385.0, -1523071.9, -21156.227, -0.00016638065, -0.40588093, -1519841.3, -109901.93, 0.04335473, 9.998304, 10.000102 
1.9751331e+3, 1.6612418e+2, -1531268.8, -1418868.0, 13461.098, -0.014342024, -0.43347183, -1417278.4, -105336.336, 0.012356995, 9.99854, 10.000033 
1.9751371e+3, 1.7612416e+2, -1459123.8, -1338072.9, 6961.9375, 0.004901667, -0.45563018, -1337673.8, -123735.266, 0.0015709848, 9.998397, 9.999977 
1.9751415e+3, 1.8612376e+2, -1286132.5, -1338648.4, -12737.591, 0.07303085, -0.42361766, -1283206.1, -167264.27, 0.000019593592, 9.999484, 9.998782 
1.975146e+3, 1.9612294e+2, -915987.9, -1107481.0, -6224.034, 0.17366953, -0.4036195, -915785.8, 102165.59, 0.0, 10.001351, 9.99879 
1.9751474e+3, 2.0612109e+2, -953745.25, -1160165.1, -131372.89, 0.161231, -0.42248783, -889889.0, 30083.426, 0.0, 10.000774, 9.998041 
1.9751468e+3, 2.1611878e+2, -1149016.0, -1171583.3, -133086.77, 0.07674071, -0.47820365, -1026735.4, -204736.48, 0.0, 9.998631, 9.99832 
1.9751489e+3, 2.2611867e+2, -829901.2, -818272.06, -4581.226, 0.02276232, -0.39542612, -816684.2, -92685.97, 0.0, 9.999504, 9.999653 
1.9751526e+3, 2.3611987e+2, -310933.56, -527344.44, 15528.673, -0.014404477, -0.25854093, -309824.97, 316155.53, 0.0, 10.002433, 9.999569 
1.9751549e+3, 2.4611753e+2, -260982.28, -608097.9, -61071.76, -0.056384172, -0.36896062, -250550.77, 277449.16, 0.0, 10.002769, 9.998179 
1.9751564e+3, 2.5611302e+2, -349090.25, -587633.1, -67666.41, -0.098375395, -0.65800875, -331232.47, 98809.61, 0.0, 10.001454, 9.998272 
1.9751605e+3, 2.6611185e+2, -225797.27, -498188.53, 23827.08, -0.04176272, -0.5932579, -223728.73, 108327.125, 0.000000055759365, 10.001711, 9.998094 
1.9751662e+3, 2.7611282e+2, 71472.61, -310503.13, 41623.68, 0.07619637, -0.33100697, 75955.7, 310006.38, 0.0000036492006, 10.003117, 9.998025 
1.97517e+3, 2.8611058e+2, 126593.73, -436641.56, -33838.633, 0.08263864, -0.25913653, 128619.44, 264697.94, 0.00003269789, 10.003675, 9.996233 
1.9751723e+3, 2.9610613e+2, 252392.67, -282450.28, -64785.492, 0.01901906, -0.35227925, 260128.25, 298256.47, 0.00013821624, 10.003692, 9.996605 
1.975179e+3, 3.0610335e+2, 472260.97, -75770.67, -9879.804, 0.16626468, -0.3308185, 472439.03, 472439.03, 0.00034001743, 10.004556, 9.997276 
1.9751789e+3, 3.161002e+2, 691291.1, 108590.68, -18110.43, -0.39936438, -0.3940478, 691853.44, 691853.44, 0.00059430103, 10.005721, 9.997969 
1.9851221e+3, 1.261172e+2, -1884925.0, -1556901.1, 101415.16, -0.05560339, -0.27227154, -1528079.1, 175938.86, 0.25424254, 9.997572, 10.002625 
1.985126e+3, 1.361167e+2, -1769077.4, -1398834.4, -149455.63, 0.11954504, -0.6820246, -1346033.6, 259978.56, 0.17932345, 9.997527, 10.003027 
1.9851287e+3, 1.4612079e+2, -1836847.6, -1716781.5, -153689.94, 0.20091635, -0.38166407, -1611815.9, -103844.71, 0.104643695, 9.998001, 9.999595 
1.9851285e+3, 1.5612058e+2, -1524917.9, -1491650.0, -99563.305, -0.07011138, -0.39218736, -1407340.8, 2637.4673, 0.046255346, 9.99938, 9.999792 
1.985132e+3, 1.6611995e+2, -1298926.1, -1356465.9, -45002.29, -0.07547004, -0.42522836, -1274283.4, 37701.895, 0.013380272, 10.000356, 9.999582 
1.9851378e+3, 1.7611954e+2, -1104832.9, -1208456.9, -65156.715, 0.099128395, -0.44025347, -1073399.0, 140588.06, 0.0017591557, 10.001005, 9.999611 
1.9851421e+3, 1.8611947e+2, -1127888.0, -1211718.4, -73320.48, 0.14657567, -0.3859857, -1085347.5, 30640.615, 0.0000256483, 10.000347, 9.999236 
1.9851452e+3, 1.961194e+2, -1238274.1, -1215813.4, -63789.37, 0.095751755, -0.3364705, -1162273.4, -144282.81, 0.0, 9.998929, 9.999214 
1.9851471e+3, 2.0611815e+2, -1044079.2, -1180018.1, -132239.73, 0.08961561, -0.32773638, -963363.8, -43357.83, 0.0, 10.000052, 9.998251 
1.9851479e+3, 2.1611628e+2, -518467.3, -849470.3, -83026.12, 0.113068745, -0.36166584, -498809.22, 323218.94, 0.0, 10.002881, 9.998481 
1.9851507e+3, 2.2611576e+2, -367609.4, -609849.9, 44170.63, 0.09425438, -0.3165566, -359806.56, 364223.6, 0.0, 10.002738, 9.999528 
1.9851546e+3, 2.3611611e+2, -579929.56, -669001.06, -4292.2173, 0.041842602, -0.2540209, -579723.2, 46296.43, 0.0, 10.000645, 9.999452 
1.9851573e+3, 2.4611358e+2, -552551.5, -766341.7, -86235.18, -0.011210411, -0.36852875, -522103.7, 5937.5166, 0.0, 10.00086, 9.998006 
1.9851586e+3, 2.561092e+2, -187620.53, -529856.3, -77216.13, -0.07468289, -0.6243393, -171005.45, 259078.03, 0.0, 10.00265, 9.998096 
1.985163e+3, 2.661078e+2, 10363.633, -375890.78, 22116.707, -0.0362424, -0.57905614, 11625.897, 343724.7, 0.00000004684117, 10.003292, 9.998175 
1.985169e+3, 2.7610847e+2, 74890.84, -309132.06, -17155.088, 0.062422216, -0.35057956, 75655.67, 309750.13, 0.000003631824, 10.003129, 9.998036 
1.9851732e+3, 2.8610626e+2, 68748.37, -471587.9, -41601.863, 0.07308769, -0.26698932, 71932.63, 208053.28, 0.00003088302, 10.003323, 9.996156 
1.9851759e+3, 2.9610187e+2, 260341.47, -292289.38, 22484.701, 0.007954021, -0.34788695, 261254.8, 299424.34, 0.00012805937, 10.003814, 9.996474 
1.9851825e+3, 3.0609837e+2, 384244.16, -125395.0, 131299.86, 0.09638261, -0.3880896, 416082.34, 416082.34, 0.0003119086, 10.003957, 9.997231 
1.9851843e+3, 3.1609464e+2, 415253.03, 6873.9126, -39872.824, -0.31196478, -0.5027586, 419109.66, 419109.66, 0.0005387999, 10.003635, 9.998294 
1.9951212e+3, 1.26112e+2, -2139827.8, -2039148.8, 127424.48, 0.08354084, -0.40427023, -1952480.8, -248415.88, 0.26535824, 9.99757, 9.998934 
1.9951206e+3, 1.3611421e+2, -1895592.8, -1638643.1, -169183.66, -0.17812182, -0.2972938, -1554682.4, 51366.82, 0.18805622, 9.997564, 10.001084 
1.995126e+3, 1.4611652e+2, -1745925.0, -1543176.3, -109846.71, 0.118754774, -0.1583069, -1495074.6, 12951.303, 0.11045076, 9.998058, 10.000769 
1.9951282e+3, 1.5611565e+2, -1461300.8, -1362301.6, -43642.48, -0.045458946, -0.3437791, -1345809.6, 64220.383, 0.04926506, 9.99938, 10.0007 
1.9951327e+3, 1.6611458e+2, -1336793.9, -1431400.5, -24224.934, -0.051737197, -0.43172124, -1330951.6, -18912.625, 0.014456319, 10.000338, 9.999076 
1.9951388e+3, 1.761137e+2, -1136378.9, -1270380.3, -46178.406, 0.093039945, -0.44333008, -1122006.8, 92041.336, 0.0019582892, 10.000985, 9.999196 
1.9951414e+3, 1.8611373e+2, -1085823.5, -1123677.0, -130995.64, 0.018660165, -0.3941537, -972394.3, 143655.03, 0.000032105352, 10.000346, 9.999841 
1.9951412e+3, 1.9611424e+2, -1191764.6, -1118009.3, -96164.305, -0.21119691, -0.3446789, -1051894.0, -33847.676, 0.0, 9.998929, 9.999885 
1.995145e+3, 2.0611441e+2, -977450.6, -1035029.94, -30084.396, -0.1445734, -0.2800925, -964600.0, -44554.527, 0.0, 10.000021, 9.999262 
1.995151e+3, 2.1611443e+2, -478749.44, -740076.7, 8031.4507, 0.12169619, -0.22535138, -478502.84, 343542.3, 0.0, 10.002765, 9.999289 
1.9951542e+3, 2.2611208e+2, -445087.7, -746009.9, -36637.098, 0.15363134, -0.3526368, -440691.38, 283372.53, 0.0, 10.002629, 9.998645 
1.9951552e+3, 2.3610818e+2, -641328.9, -786363.6, -58962.61, 0.03369627, -0.626524, -620383.1, 5711.908, 0.0, 10.0006, 9.998667 
1.995159e+3, 2.4610677e+2, -560491.0, -762949.2, -22475.307, 0.07008845, -0.5994017, -558026.0, -29917.902, 0.0, 10.000775, 9.998069 
1.9951642e+3, 2.5610703e+2, -195716.14, -529682.44, -11975.912, 0.20972562, -0.40418983, -195287.23, 234821.84, 0.0, 10.002582, 9.998127 
1.9951683e+3, 2.6610494e+2, -40555.074, -458827.88, 11561.243, 0.15549926, -0.39714643, -40235.76, 291894.66, 0.000000042002604, 10.003197, 9.997651 
1.9951715e+3, 2.7610144e+2, 38106.844, -363011.88, -12568.203, -0.027425187, -0.53329444, 38500.254, 272664.4, 0.0000035134383, 10.003041, 9.997704 
1.995175e+3, 2.860996e+2, 138558.33, -299870.22, -31833.69, -0.0953962, -0.46465027, 140857.67, 277040.63, 0.00002820436, 10.003206, 9.997393 
1.9951788e+3, 2.9609877e+2, 321259.4, -148081.94, 45725.484, -0.09315457, -0.32476804, 325672.72, 363866.1, 0.00011358282, 10.0037365, 9.9975 
1.9951849e+3, 3.060953e+2, 320586.34, -211813.53, 112355.02, -0.07173137, -0.3781186, 343325.94, 343325.94, 0.00027727842, 10.003773, 9.996717 
1.9951908e+3, 3.1608823e+2, 415060.8, 63895.12, -108948.445, -0.04848053, -0.8012853, 446115.56, 446115.56, 0.0004863012, 10.003423, 9.998767 
2.0051199e+3, 1.2610625e+2, -2297343.5, -2203281.5, 681.9605, 0.23113698, -0.3641166, -2203276.5, -499153.44, 0.27641812, 9.996862, 9.998148 
2.0051175e+3, 1.3610911e+2, -1704097.3, -1556789.9, -129847.445, -0.30396697, -0.1802021, -1481161.3, 124942.734, 0.1968332, 9.998916, 10.001079 
2.0051247e+3, 1.4611018e+2, -1552277.1, -1436906.6, -65437.11, 0.12405654, -0.18525507, -1407358.8, 100733.81, 0.11636926, 9.9993105, 10.0009575 
2.0051281e+3, 1.5610959e+2, -1547160.1, -1396215.8, -78679.13, 0.026439859, -0.35025093, -1362662.9, 47428.59, 0.05238356, 9.998747, 10.000776 
2.0051329e+3, 1.6610892e+2, -1519603.3, -1484683.1, -34042.56, -0.003190826, -0.41713303, -1463884.1, -151788.08, 0.015589432, 9.998929, 9.9993925 
2.005139e+3, 1.7610843e+2, -1314683.9, -1320297.4, -8934.424, 0.080879934, -0.42427236, -1308125.8, -94023.64, 0.0021699998, 9.99961, 9.999512 
2.0051414e+3, 1.8610875e+2, -1128718.1, -1129944.3, -121693.98, 0.014937039, -0.36678886, -1007635.7, 108465.48, 0.00003871999, 9.999995, 9.999964 
2.0051412e+3, 1.9610955e+2, -987316.25, -1004406.8, -124057.43, -0.17871815, -0.30206606, -871510.1, 146585.86, 0.0, 10.00027, 10.000016 
2.0051453e+3, 2.0610979e+2, -946603.0, -969167.5, -33870.234, -0.11670293, -0.26160154, -922185.4, -2092.1965, 0.0, 10.000021, 9.999713 
2.0051521e+3, 2.1610971e+2, -923675.7, -911186.44, -49736.4, 0.11352656, -0.2591798, -867304.2, -45212.938, 0.0, 9.999524, 9.999674 
2.0051555e+3, 2.2610745e+2, -767854.5, -918740.4, -112079.97, 0.13919431, -0.3850131, -708191.7, 15917.946, 0.0, 10.000493, 9.9984865 
2.0051567e+3, 2.3610379e+2, -382070.38, -679046.2, -92331.914, 0.024363598, -0.6173514, -355704.5, 270436.56, 0.0, 10.002463, 9.998506 
2.0051612e+3, 2.4610254e+2, -213363.11, -614678.7, -6513.99, 0.10817465, -0.55860466, -213257.4, 314896.56, 0.0, 10.003219, 9.997919 
2.005168e+3, 2.5610292e+2, -130121.805, -516191.44, -23665.701, 0.31323767, -0.33296928, -128676.52, 301477.8, 0.0, 10.003095, 9.997977 
2.0051719e+3, 2.6610085e+2, -45359.91, -456095.47, -9.539001, 0.20213255, -0.31981584, -45359.91, 286815.0, 0.000000029896977, 10.003151, 9.997683 
2.0051737e+3, 2.7609715e+2, 94511.73, -333661.9, 2228.4822, -0.119255684, -0.47992873, 94523.32, 328732.3, 0.0000031274246, 10.003416, 9.997723 
2.0051779e+3, 2.8609484e+2, 191392.95, -255776.25, -30718.96, -0.14339775, -0.4705916, 193493.36, 329724.06, 0.000025154262, 10.003477, 9.99757 
2.0051832e+3, 2.9609355e+2, 253988.02, -167499.56, -56422.555, -0.000316204, -0.382097, 261410.33, 299653.34, 0.00009776422, 10.003222, 9.997614 
2.0051879e+3, 3.0609077e+2, 289413.28, -175660.73, 35404.99, -0.12095222, -0.39755505, 292093.13, 292093.13, 0.00024026696, 10.003327, 9.997189 
2.0051959e+3, 3.1608456e+2, 525144.75, 133824.11, -120712.836, 0.09278186, -0.77662295, 559385.6, 559385.6, 0.00043209043, 10.004076, 9.998957 
2.0151176e+3, 1.2609985e+2, -2150369.3, -1905048.8, 8208.671, 0.28411838, -0.18043742, -1904774.4, -200580.83, 0.28771394, 9.996897, 10.000178 
2.0151165e+3, 1.3610144e+2, -1578072.9, -1337303.6, -56920.477, -0.31326553, -0.32582536, -1324525.1, 281651.47, 0.20582092, 9.99889, 10.002924 
2.0151246e+3, 1.4610171e+2, -1607909.4, -1543715.8, -96359.84, 0.14784881, -0.45532244, -1474247.6, 33924.17, 0.12247417, 9.999297, 10.000177 
2.0151275e+3, 1.5610239e+2, -1592315.1, -1492548.6, -90476.71, 0.0935063, -0.4069402, -1439115.0, -28952.225, 0.055639356, 9.998761, 10.000093 
2.015132e+3, 1.66103e+2, -1436996.0, -1316565.1, -10449.058, 0.015771717, -0.3762503, -1315665.3, -3509.3552, 0.016791714, 9.998945, 10.000539 
2.0151381e+3, 1.7610365e+2, -1247668.4, -1175481.4, 20706.615, 0.025110668, -0.38257048, -1169963.5, 44186.402, 0.0023981123, 9.999585, 10.000519 
2.0151421e+3, 1.861044e+2, -1153385.1, -1179609.5, -117675.7, 0.0783461, -0.3092981, -1048093.4, 68051.48, 0.000045425786, 9.999986, 9.99963 
2.0151447e+3, 1.9610526e+2, -1013814.94, -1056263.3, -112556.27, 0.12461207, -0.20339817, -920499.2, 97640.83, 0.0, 10.0002575, 9.999668 
2.0151477e+3, 2.0610431e+2, -953783.75, -981885.6, -56678.457, 0.100466326, -0.26098472, -909440.56, 10707.997, 0.0, 10.000013, 9.999628 
2.015151e+3, 2.1610221e+2, -937167.75, -924400.7, -52259.973, 0.048074745, -0.4496656, -878135.8, -55970.37, 0.0, 9.999465, 9.999612 
2.0151548e+3, 2.261018e+2, -750059.06, -861644.0, -40560.57, 0.003766505, -0.41088238, -736873.56, -12705.358, 0.0, 10.0004015, 9.998924 
2.0151587e+3, 2.3610254e+2, -363587.63, -629930.1, -20382.959, -0.030896733, -0.24955612, -362036.75, 264124.7, 0.0, 10.002409, 9.998872 
2.015164e+3, 2.461006e+2, -255151.66, -672371.7, -12624.311, 0.048472907, -0.25776112, -254770.02, 273411.6, 0.0, 10.003104, 9.997574 
2.0151702e+3, 2.5609696e+2, -165756.63, -561942.3, -20093.045, 0.20265059, -0.39923882, -164740.19, 265478.88, 0.0, 10.002985, 9.99771 
2.0151737e+3, 2.6609543e+2, -27102.941, -392992.63, 5150.99, 0.05547972, -0.34762406, -27030.441, 305202.78, 0.0000000091701935, 10.003041, 9.998171 
2.0151758e+3, 2.7609524e+2, 109595.52, -284098.25, 19721.996, -0.26735455, -0.2063151, 110581.03, 344813.3, 0.0000023642951, 10.003339, 9.998099 
2.0151813e+3, 2.8609183e+2, 103175.79, -406300.2, -47822.758, -0.15436228, -0.27377766, 107625.875, 243890.31, 0.000021595964, 10.003347, 9.996594 
2.0151888e+3, 2.9608637e+2, 188587.95, -289685.88, -59324.99, 0.20843075, -0.50868213, 195836.75, 234154.48, 0.0000838711, 10.003161, 9.996803 
2.015191e+3, 3.0608436e+2, 346272.78, -10755.424, 43039.44, -0.15394986, -0.4721991, 351387.88, 351387.88, 0.00020805722, 10.003145, 9.998401 
2.0151982e+3, 3.1608567e+2, 495687.34, 156286.19, 52497.75, -0.11112613, -0.2335536, 503622.06, 503622.06, 0.00038199668, 10.003769, 9.999229 
2.0251149e+3, 1.2609415e+2, -1922133.6, -1782037.6, 149216.84, 0.2520703, -0.15890062, -1687245.1, 17003.85, 0.29983783, 9.998403, 10.000329 
2.0251158e+3, 1.3609485e+2, -1748901.0, -1418747.5, -31254.55, -0.21203971, -0.3816894, -1415814.8, 190424.81, 0.21537028, 9.997742, 10.002786 
2.0251238e+3, 1.4609486e+2, -1692900.1, -1607783.6, -103230.93, 0.18363938, -0.5214833, -1538682.5, -30443.396, 0.12892798, 9.998813, 9.999951 
2.0251273e+3, 1.560966e+2, -1344403.3, -1391727.3, -65764.91, 0.0889814, -0.34053767, -1298173.1, 112049.766, 0.05909158, 10.000587, 9.999913 
2.0251313e+3, 1.6609782e+2, -1257321.5, -1176130.9, -34432.863, -0.002780991, -0.2691431, -1163494.6, 148716.1, 0.018083457, 9.999945, 10.001037 
2.0251366e+3, 1.7609863e+2, -1462581.4, -1229604.8, -48686.355, -0.0038029193, -0.30795306, -1219839.8, -5637.7036, 0.0026487417, 9.997902, 10.000958 
2.0251417e+3, 1.8609911e+2, -1330052.4, -1262943.0, -105225.11, 0.097973555, -0.28406087, -1186052.0, -69853.34, 0.000052423693, 9.998756, 9.999651 
2.0251465e+3, 1.9609936e+2, -819214.6, -961414.75, -91435.71, 0.2222386, -0.24206617, -774488.5, 243710.31, 0.0, 10.001576, 9.999683 
2.0251495e+3, 2.060985e+2, -652342.25, -843353.9, -90738.65, 0.1813793, -0.2885086, -616110.2, 304096.7, 0.0, 10.002111, 9.999565 
2.0251513e+3, 2.1609691e+2, -688123.25, -810273.4, -85278.0, 0.03771518, -0.4218696, -644305.5, 177915.0, 0.0, 10.001196, 9.999558 
2.0251556e+3, 2.2609693e+2, -609768.4, -786467.06, -4167.819, -0.005305478, -0.34291413, -609670.1, 114550.336, 0.0, 10.001337, 9.998986 
2.0251614e+3, 2.3609804e+2, -390014.2, -634722.6, -25414.38, 0.010130258, -0.14876744, -387402.63, 238808.31, 0.0, 10.002201, 9.998935 
2.0251666e+3, 2.4609618e+2, -373156.97, -728920.1, -64997.363, 0.047045607, -0.15213186, -361653.97, 166576.52, 0.0, 10.002293, 9.997577 
2.0251714e+3, 2.5609234e+2, -326651.25, -643724.9, -54311.313, 0.086032815, -0.3111043, -317606.3, 112663.01, 0.0, 10.001897, 9.997673 
2.0251757e+3, 2.660904e+2, -170188.03, -489776.38, -15517.582, -0.011903175, -0.2871705, -169436.36, 162851.03, 0.000000001074916, 10.002165, 9.997933 
2.0251796e+3, 2.7608967e+2, 14575.266, -358482.38, -69592.57, -0.18860926, -0.17377882, 27134.682, 261426.25, 0.0000018159459, 10.002805, 9.997849 
2.0251855e+3, 2.8608623e+2, 102004.39, -427581.72, -123776.45, -0.060431793, -0.21856584, 129505.664, 265828.9, 0.000018189116, 10.003424, 9.996413 
2.0251922e+3, 2.9608116e+2, 303123.56, -250611.19, -99016.164, 0.21442655, -0.39555925, 320296.56, 358668.6, 0.000072167386, 10.004023, 9.996655 
2.0251946e+3, 3.060777e+2, 442268.84, 3420.342, -22674.215, -0.14892477, -0.485544, 443437.28, 443437.28, 0.00017965614, 10.003895, 9.998154 
2.0252015e+3, 3.1608063e+2, 354860.72, -12817.63, -58493.6, -0.12259848, -0.042703092, 363942.13, 363942.13, 0.00033365883, 10.003184, 9.998367 
2.035111e+3, 1.2608947e+2, -2040698.1, -2032148.1, 20098.76, -0.00052352593, -0.2739641, -2015874.8, -311588.38, 0.3135409, 9.998415, 9.998576 
2.035115e+3, 1.360893e+2, -1888914.1, -1671343.3, -34907.887, -0.07516883, -0.34684798, -1665879.6, -59586.47, 0.22593072, 9.997789, 10.000676 
2.0351227e+3, 1.4608946e+2, -1663756.1, -1556700.5, -39186.625, 0.1644304, -0.39100125, -1543889.6, -35594.098, 0.13594478, 9.998856, 10.000279 
2.0351268e+3, 1.5609199e+2, -1330569.6, -1353995.3, -13021.284, -0.028485654, -0.16359022, -1324768.3, 85505.66, 0.06282382, 10.000546, 10.000201 
2.0351303e+3, 1.6609314e+2, -1265652.8, -1191783.3, -118608.01, -0.11855755, -0.10838072, -1104492.3, 207770.42, 0.019494196, 9.999937, 10.000935 
2.035134e+3, 1.7609328e+2, -1460555.4, -1236442.9, -102148.016, -0.06072402, -0.20382944, -1196871.9, 17387.215, 0.0029308582, 9.997942, 10.0008955 
2.03514e+3, 1.8609273e+2, -1301280.8, -1207466.8, 1016.93823, 0.019176438, -0.30056491, -1207455.8, -91192.09, 0.00006041413, 9.998777, 10.00002 
2.0351468e+3, 1.9609179e+2, -806309.8, -918500.6, 5799.582, 0.08703682, -0.41300467, -806010.75, 212262.1, 0.0, 10.00151, 10.000011 
2.0351505e+3, 2.0609221e+2, -662883.56, -848398.44, -130480.93, 0.07408102, -0.34529096, -595549.75, 324720.03, 0.0, 10.00204, 9.999565 
2.0351523e+3, 2.1609356e+2, -700545.5, -822128.2, -107653.01, 0.026896428, -0.18499677, -637705.3, 184553.42, 0.0, 10.001131, 9.999512 
2.0351575e+3, 2.2609265e+2, -643847.6, -831069.1, 27105.24, 0.043139134, -0.18085521, -640002.4, 84265.24, 0.0, 10.00123, 9.998729 
2.0351645e+3, 2.3609035e+2, -423160.97, -678682.8, 12357.699, 0.10237593, -0.3026757, -422564.72, 203724.6, 0.0, 10.002098, 9.998681 
2.035169e+3, 2.4608919e+2, -369706.44, -696603.0, -83594.586, 0.04609282, -0.2378719, -349569.88, 178731.84, 0.0, 10.002186, 9.99785 
2.0351717e+3, 2.560888e+2, -318939.16, -622174.5, -60100.477, -0.08267601, -0.080983475, -307461.8, 122846.125, 0.0, 10.001867, 9.997839 
2.0351772e+3, 2.660856e+2, -255778.31, -642051.9, 5929.369, -0.072636, -0.13626207, -255687.33, 76651.49, 0.000000023664393, 10.0020685, 9.996928 
2.0351848e+3, 2.7608043e+2, -59524.063, -490432.94, -35784.05, 0.0460224, -0.3679772, -56572.656, 177813.81, 0.0000019634658, 10.002716, 9.996983 
2.0351905e+3, 2.8607798e+2, 117386.94, -362758.63, -106993.58, 0.066743545, -0.30692464, 140149.78, 276557.94, 0.000016146072, 10.003289, 9.996921 
2.0351942e+3, 2.960776e+2, 333895.5, -183652.02, -69111.7, -0.010223269, -0.06730063, 342965.5, 381374.94, 0.000062268045, 10.003998, 9.997132 
2.0351979e+3, 3.0607063e+2, 277717.38, -275008.28, -57297.043, -0.22094811, -0.44100228, 283594.44, 283594.44, 0.00015400637, 10.003653, 9.996341 
2.0352064e+3, 3.1606776e+2, 197362.94, -262923.9, 41686.168, 0.034559395, -0.39188033, 201107.8, 201107.8, 0.00028777335, 10.002898, 9.996761 
2.0451085e+3, 1.260828e+2, -2089314.0, -1995791.6, -132260.92, -0.059269946, -0.3829469, -1902269.0, -197920.0, 0.3294151, 9.997815, 9.999118 
2.0451143e+3, 1.3608363e+2, -1603342.0, -1577915.0, -5499.1333, -0.032457367, -0.32817855, -1576776.6, 29569.984, 0.23787552, 9.999903, 10.000367 
2.0451216e+3, 1.460844e+2, -1586824.3, -1501890.8, 12192.11, 0.1630095, -0.30309677, -1500175.3, 8168.542, 0.14372098, 9.9992895, 10.000459 
2.0451257e+3, 1.5608603e+2, -1835245.3, -1578335.8, 17055.508, -0.0031865872, -0.18921423, -1577208.4, -166876.73, 0.06692591, 9.996969, 10.000361 
2.0451292e+3, 1.6608687e+2, -1619544.4, -1388254.1, -65675.37, -0.09017162, -0.1584757, -1370906.5, -58582.203, 0.021061258, 9.997629, 10.000673 
2.0451331e+3, 1.7608708e+2, -1127021.0, -1099515.5, -68724.375, -0.055641193, -0.22275962, -1043181.3, 171139.64, 0.003256253, 10.00034, 10.000674 
2.0451392e+3, 1.8608682e+2, -1069130.3, -1079068.4, 29403.906, -0.0015393214, -0.28737468, -1044278.5, 72044.62, 0.00007088071, 10.000312, 10.00016 
2.0451462e+3, 1.9608633e+2, -1231167.4, -1105886.1, 9732.491, 0.031493112, -0.3696742, -1105134.5, -86806.29, 0.0, 9.998533, 10.000153 
2.0451504e+3, 2.0608705e+2, -1132062.9, -1079103.6, -125754.875, 0.013965012, -0.2777738, -977070.8, -56747.926, 0.0, 9.998836, 9.99953 
2.0451528e+3, 2.1608858e+2, -780468.3, -858743.5, -114480.86, -0.02304531, -0.09428721, -698619.9, 123690.625, 0.0, 10.00059, 9.999516 
2.0451584e+3, 2.2608729e+2, -650073.7, -843133.25, 32614.979, 0.02510317, -0.12814216, -644712.6, 79610.125, 0.0, 10.001216, 9.998655 
2.0451662e+3, 2.36084e+2, -577841.56, -765725.6, 23581.596, 0.11866842, -0.33797872, -574927.0, 51425.45, 0.0, 10.00108, 9.998575 
2.0451711e+3, 2.4608256e+2, -437035.34, -771918.94, -74684.13, 0.05762287, -0.27611074, -421134.66, 107233.36, 0.0, 10.001902, 9.99747 
2.045174e+3, 2.560824e+2, -126959.23, -565283.4, -110501.8, -0.11284562, -0.05964573, -100677.49, 329696.28, 0.0, 10.003343, 9.997515 
2.04518e+3, 2.6607907e+2, -24953.13, -515496.4, -24377.102, -0.079431124, -0.11934162, -23744.709, 308660.63, 0.00000011200642, 10.003583, 9.997071 
2.0451882e+3, 2.760736e+2, -6484.2617, -448736.88, 4762.585, 0.10011936, -0.39497733, -6432.9795, 228021.27, 0.000002326167, 10.003017, 9.997119 
2.0451939e+3, 2.8607106e+2, 168687.13, -331014.3, -5369.591, 0.07314059, -0.35087082, 168744.81, 305221.06, 0.000014696717, 10.003592, 9.996998 
2.0451973e+3, 2.960707e+2, 453413.25, -115188.71, -30352.508, -0.13566984, -0.114779204, 455028.9, 493507.2, 0.000053738604, 10.004777, 9.997224 
2.0452027e+3, 3.0606538e+2, 451612.2, -188334.03, -4241.7197, -0.16562454, -0.3298052, 451640.3, 451640.3, 0.00013193817, 10.004828, 9.996369 
2.0452112e+3, 3.1606162e+2, 364862.84, -224634.69, 175928.95, 0.16207622, -0.35686317, 413374.66, 413374.66, 0.0002497408, 10.004188, 9.996425 
2.0551072e+3, 1.2607424e+2, -1895359.1, -1633525.3, -43750.7, -0.024836862, -0.490801, -1626408.3, 78027.305, 0.3476065, 9.997829, 10.001873 
2.0551133e+3, 1.3607776e+2, -1528826.6, -1421294.8, 44976.613, -0.1531723, -0.33974245, -1404963.1, 201437.83, 0.2513395, 9.999889, 10.001814 
2.0551206e+3, 1.4607957e+2, -1590027.8, -1506031.0, -77376.68, 0.09671592, -0.2690466, -1459989.5, 48395.45, 0.15236652, 9.999275, 10.000474 
2.0551237e+3, 1.5607883e+2, -1824629.6, -1568093.5, -44874.066, 0.09170437, -0.40260652, -1560470.5, -150075.28, 0.071473114, 9.997014, 10.000414 
2.0551282e+3, 1.6607904e+2, -1645276.6, -1451668.0, 32963.848, 0.014805877, -0.41043228, -1446209.4, -133813.75, 0.022826005, 9.99767, 10.00022 
2.0551337e+3, 1.7608003e+2, -1162838.3, -1163889.1, 19906.262, -0.034448013, -0.34978598, -1143450.5, 70937.54, 0.0036400491, 10.000298, 10.000255 
2.0551394e+3, 1.8608129e+2, -1071557.9, -1083567.1, -42482.297, -0.027093416, -0.24197695, -1034657.94, 81720.52, 0.00008593674, 10.000302, 10.000136 
2.0551445e+3, 1.9608274e+2, -1231449.3, -1113091.9, -38985.734, -0.005339143, -0.12389573, -1101404.5, -83037.28, 0.0, 9.998557, 10.000095 
2.0551486e+3, 2.0608278e+2, -1134246.6, -1085870.4, -63408.6, -0.06015967, -0.09520803, -1042193.06, -121824.86, 0.0, 9.998849, 9.999475 
2.055152e+3, 2.1608186e+2, -791860.44, -871313.7, -50424.72, -0.15091158, -0.15019077, -767393.2, 54984.03, 0.0, 10.000541, 9.999454 
2.0551585e+3, 2.2608048e+2, -658591.2, -834386.75, 23327.451, -0.1117261, -0.19652286, -655548.44, 68840.63, 0.0, 10.001106, 9.998766 
2.0551665e+3, 2.3607874e+2, -588764.06, -770690.94, 29236.236, 0.013981522, -0.2623736, -584181.1, 42221.875, 0.0, 10.001002, 9.998579 
2.0551729e+3, 2.4607617e+2, -528739.6, -926465.4, -23852.049, 0.017916154, -0.26014203, -527314.25, 1116.3767, 0.0, 10.001757, 9.996475 
2.055178e+3, 2.560731e+2, -199441.94, -687963.75, -54947.188, -0.06107771, -0.23704216, -193337.94, 237129.03, 0.0, 10.003229, 9.996725 
2.0551836e+3, 2.6607063e+2, 38791.453, -353291.22, -48793.824, -0.09323873, -0.23571019, 44772.5, 377260.84, 0.00000017468948, 10.003455, 9.998246 
2.0551898e+3, 2.7606872e+2, 57535.7, -305496.13, -182.3679, -0.07411196, -0.2772066, 57535.793, 292035.13, 0.0000023499456, 10.00296, 9.998136 
2.0551959e+3, 2.860652e+2, 103667.54, -415005.16, 32840.72, -0.11915819, -0.3548429, 105738.64, 242270.02, 0.000012296112, 10.003389, 9.99651 
2.0552012e+3, 2.9606047e+2, 408897.6, -172702.69, 16887.805, -0.23839433, -0.5110996, 409387.56, 447965.7, 0.00004437096, 10.004629, 9.996897 
2.0552085e+3, 3.060611e+2, 504605.5, 11887.951, -43117.42, -0.079473875, -0.2003798, 508350.22, 508350.22, 0.00011165042, 10.004476, 9.997902 
2.0552155e+3, 3.160609e+2, 356940.6, -167407.64, 88638.23, 0.16689344, -0.028048683, 371519.06, 371519.06, 0.0002193155, 10.003883, 9.996961 
2.0651047e+3, 1.2606719e+2, -1815212.6, -1517032.3, -11198.063, -0.025128456, -0.48005402, -1516612.4, 187895.61, 0.36771804, 9.997737, 10.003179 
2.0651111e+3, 1.3607116e+2, -2057417.1, -1560299.9, 10312.671, -0.13512272, -0.37309855, -1560086.0, 46380.215, 0.26616043, 9.995734, 10.002543 
2.0651191e+3, 1.4607386e+2, -1941900.0, -1626116.0, -110001.83, 0.15795562, -0.26431823, -1591575.5, -83136.25, 0.1618756, 9.996666, 10.000858 
2.0651223e+3, 1.5607324e+2, -1450963.0, -1352756.8, -60836.652, 0.13145414, -0.4316809, -1323679.1, 86767.18, 0.07651462, 9.999422, 10.000766 
2.0651272e+3, 1.660733e+2, -1392790.4, -1377696.9, 50694.844, 0.05760682, -0.45050746, -1333990.1, -21541.52, 0.024829434, 9.999585, 9.999815 
2.0651338e+3, 1.7607404e+2, -1501452.3, -1366596.0, 33567.383, 0.028381126, -0.37653595, -1358702.8, -144257.47, 0.0041003036, 9.99813, 9.999911 
2.0651391e+3, 1.860753e+2, -1333273.6, -1218522.4, -36263.79, 0.021936249, -0.24953961, -1208023.0, -91586.734, 0.000108260756, 9.998549, 10.000052 
2.065144e+3, 1.960768e+2, -976441.5, -998290.5, -41585.086, -0.0046369447, -0.12043351, -944369.94, 74054.76, 0.0, 10.000341, 10.000024 
2.0651487e+3, 2.0607637e+2, -812046.94, -940163.2, -30144.693, -0.053975444, -0.13122371, -805308.56, 115120.91, 0.0, 10.001101, 9.999391 
2.0651533e+3, 2.1607469e+2, -703389.0, -841489.1, -30256.236, -0.1159931, -0.2535085, -697051.06, 125393.555, 0.0, 10.001203, 9.99934 
2.0651597e+3, 2.2607352e+2, -678417.0, -887286.8, -1662.2043, -0.09648447, -0.25025374, -678403.75, 46051.895, 0.0, 10.001155, 9.9983835 
2.065167e+3, 2.3607267e+2, -610648.25, -814056.6, -36964.387, -0.025169771, -0.19000612, -604139.2, 22324.852, 0.0, 10.001001, 9.998279 
2.0651741e+3, 2.4607003e+2, -588184.56, -922889.2, -4397.085, -0.007956259, -0.20051593, -588126.8, -59633.92, 0.0, 10.00121, 9.996763 
2.0651804e+3, 2.5606605e+2, -413387.16, -761857.94, 39016.184, -0.041591875, -0.2931659, -409072.2, 21464.025, 0.0, 10.001636, 9.996985 
2.0651868e+3, 2.66064e+2, -175041.36, -461182.97, 5394.434, -0.05516377, -0.26348406, -174939.7, 157614.69, 0.00000012472299, 10.002002, 9.998208 
2.0651926e+3, 2.760633e+2, -36516.867, -351453.56, -42025.36, -0.045012295, -0.17674533, -31005.426, 203549.97, 0.0000018192295, 10.002323, 9.998124 
2.0651992e+3, 2.860598e+2, -22082.637, -457503.0, 19718.41, -0.06049072, -0.25751135, -21191.494, 115396.234, 0.000008845643, 10.002439, 9.996682 
2.0652056e+3, 2.9605418e+2, 68350.66, -329146.38, 16496.654, -0.13823009, -0.5168175, 69034.12, 107677.51, 0.000033808126, 10.002265, 9.996959 
2.0652124e+3, 3.0605525e+2, 262045.77, -88030.72, -77789.43, -0.032392956, -0.17353036, 278552.78, 278552.78, 0.00009162271, 10.002676, 9.998116 
2.065219e+3, 3.1605452e+2, 362929.16, -61400.04, -103510.98, 0.13377383, -0.08603504, 386833.06, 386833.06, 0.0001905405, 10.003449, 9.997915 
2.0751011e+3, 1.2606119e+2, -1835342.9, -1542638.5, -96265.36, -0.21093415, -0.3913143, -1513816.6, 190754.45, 0.38886976, 9.997742, 10.003019 
2.0751077e+3, 1.3606383e+2, -2034344.5, -1541888.8, -38319.594, -0.06633364, -0.4253462, -1538924.8, 67617.88, 0.28190908, 9.995816, 10.002699 
2.0751172e+3, 1.4606729e+2, -1879651.1, -1517047.4, -10630.198, 0.27825063, -0.28767303, -1516736.1, -8229.58, 0.17213808, 9.996746, 10.001573 
2.0751214e+3, 1.5606901e+2, -1403945.5, -1268689.5, 24888.057, 0.06347465, -0.28928575, -1264255.3, 146232.22, 0.08207624, 9.999438, 10.001384 
2.075126e+3, 1.6606933e+2, -1409857.8, -1412151.3, -13962.816, -0.026210377, -0.29455292, -1396994.8, -84508.63, 0.027111659, 9.999583, 9.999578 
2.0751323e+3, 1.7606905e+2, -1516614.8, -1400857.6, -7765.0874, 0.07760001, -0.29866207, -1400339.0, -185845.83, 0.0046569863, 9.998145, 9.999668 
2.0751387e+3, 1.8606877e+2, -1334255.6, -1232733.3, 26398.654, 0.08828783, -0.30778936, -1226279.3, -109781.46, 0.00014131474, 9.998599, 9.999932 
2.0751444e+3, 1.9606844e+2, -988730.9, -1018237.6, 23255.03, -0.0064316583, -0.3499757, -975944.1, 42557.2, 0.0000000002137382, 10.000317, 9.9999 
2.0751502e+3, 2.060678e+2, -821247.75, -950279.2, -30086.215, -0.027489908, -0.37223497, -814577.44, 105929.52, 0.0, 10.001062, 9.999337 
2.075156e+3, 2.1606705e+2, -726339.2, -869724.44, -22073.537, 0.020913098, -0.39581484, -723017.94, 99495.15, 0.0, 10.00112, 9.999186 
2.075162e+3, 2.2606638e+2, -752797.6, -1016659.25, -8136.7363, 0.010148831, -0.28985947, -752546.94, -28023.748, 0.0, 10.001053, 9.9975395 
2.0751679e+3, 2.3606573e+2, -664510.7, -909714.7, -31128.176, -0.045741122, -0.12496332, -660620.75, -34084.773, 0.0, 10.000936, 9.997652 
2.0751746e+3, 2.4606378e+2, -498958.13, -718085.8, 9008.174, -0.0822636, -0.11610465, -498588.44, 29969.182, 0.0, 10.001125, 9.998211 
2.0751816e+3, 2.5606096e+2, -338924.25, -594938.94, 60061.688, -0.10507914, -0.23936552, -325533.97, 105051.12, 0.0, 10.001579, 9.998158 
2.0751889e+3, 2.6605883e+2, -281008.03, -647555.0, 11395.598, -0.032801744, -0.20272826, -280654.1, 51952.133, 0.000000021824269, 10.001865, 9.99699 
2.0751965e+3, 2.7605712e+2, -115564.26, -499643.78, -20134.088, 0.11805936, -0.096542835, -114511.68, 120112.27, 0.00000084431264, 10.00226, 9.997135 
2.0752038e+3, 2.8605437e+2, 6167.824, -364953.78, 6692.8647, 0.14714897, -0.09788049, 6288.4854, 142938.84, 0.000005133315, 10.0023, 9.997379 
2.0752102e+3, 2.9605117e+2, 88066.43, -287608.84, 23094.418, 0.07122019, -0.18601447, 89480.82, 128161.555, 0.000023674193, 10.002246, 9.997256 
2.0752144e+3, 3.0604753e+2, 120856.0, -282681.22, -61403.914, -0.13518535, -0.25019655, 129992.61, 129992.61, 0.00007214658, 10.002306, 9.99693 
2.0752199e+3, 3.1604478e+2, 378548.53, 83703.45, -17806.254, -0.13773893, -0.2941755, 379619.97, 379619.97, 0.0001581692, 10.003032, 9.9990835 
2.0850994e+3, 1.2605537e+2, -2140250.0, -1692928.1, -47521.5, -0.06533596, -0.32597297, -1687935.4, 16695.209, 0.40993002, 9.996007, 10.002142 
2.0851047e+3, 1.3605812e+2, -1532413.4, -1359594.3, 445.14444, -0.126554, -0.347913, -1359593.1, 247007.94, 0.29801235, 9.999466, 10.002724 
2.0851152e+3, 1.4606118e+2, -1455126.3, -1354382.4, 4957.0474, 0.2651589, -0.25048825, -1354139.0, 154429.38, 0.18298064, 9.999804, 10.001445 
2.0851204e+3, 1.5606217e+2, -1572211.0, -1367959.1, -37318.758, 0.07989047, -0.30394682, -1361354.3, 49202.03, 0.088167645, 9.998388, 10.001157 
2.085125e+3, 1.6606258e+2, -1562042.6, -1464803.0, -104702.1, -0.024698237, -0.29921845, -1397982.8, -85429.26, 0.029713616, 9.998464, 9.999753 
2.0851308e+3, 1.7606287e+2, -1297705.4, -1278510.1, -74513.06, 0.037064433, -0.26340246, -1212979.1, 1574.9565, 0.005333032, 9.999588, 9.999806 
2.0851377e+3, 1.8606226e+2, -1160620.4, -1186035.1, 3827.7915, 0.06591133, -0.2954303, -1160056.4, -43494.867, 0.00018960002, 9.999944, 9.999609 
2.0851448e+3, 1.9606097e+2, -1071017.5, -1090263.5, -23694.5, 0.01314107, -0.39925364, -1055066.4, -36492.188, 0.000000020895914, 9.999882, 9.99962 
2.085151e+3, 2.0606048e+2, -960718.94, -1011142.8, -89664.68, 0.002554608, -0.3966253, -892789.06, 27789.418, 0.0, 10.000085, 9.99939 
2.085157e+3, 2.1606053e+2, -799533.9, -898822.56, -82714.06, 0.038711783, -0.34406337, -752709.7, 69867.56, 0.0, 10.000591, 9.999239 
2.0851633e+3, 2.2605976e+2, -715946.06, -981018.8, -13106.054, 0.025957735, -0.25908443, -715299.6, 9288.24, 0.0, 10.001224, 9.99771 
2.0851694e+3, 2.360584e+2, -506301.63, -816455.25, 25492.719, -0.030819854, -0.18294111, -504220.25, 122386.87, 0.0, 10.001941, 9.997816 
2.0851763e+3, 2.4605685e+2, -372598.3, -646654.3, 39623.152, -0.06711622, -0.14632265, -366984.56, 161640.48, 0.0, 10.0019455, 9.998303 
2.0851834e+3, 2.560552e+2, -339609.63, -583296.5, -13130.904, -0.09590928, -0.16064912, -338904.13, 91738.01, 0.0, 10.001524, 9.99826 
2.0851915e+3, 2.660532e+2, -233872.84, -592452.9, -177.55748, 0.010363214, -0.13336101, -233872.77, 98789.99, 0.0, 10.002045, 9.997282 
2.0852003e+3, 2.7605084e+2, 30571.83, -403573.25, 56200.71, 0.20173056, -0.12032732, 37729.1, 272416.25, 0.000000115745564, 10.003153, 9.997367 
2.0852076e+3, 2.8604856e+2, 196191.02, -299506.34, 73944.695, 0.21518889, -0.07388977, 206986.47, 343696.72, 0.0000020138657, 10.003705, 9.997157 
2.085213e+3, 2.9604653e+2, 302696.8, -201845.9, 5024.8843, 0.07714344, -0.017025646, 302746.88, 341477.3, 0.000014488007, 10.003804, 9.997092 
2.0852175e+3, 3.06042e+2, 335755.2, -185796.83, -11440.135, -0.107579224, -0.16700962, 336006.03, 336006.03, 0.000052987816, 10.003769, 9.99691 
2.0852236e+3, 3.1603795e+2, 427075.03, 41403.805, 78135.07, -0.086443655, -0.32093352, 442303.5, 442303.5, 0.0001235067, 10.003593, 9.998546 
2.095099e+3, 1.260501e+2, -2250362.5, -1922408.5, 100618.836, 0.2565392, -0.24917983, -1893998.9, -189315.33, 0.42994058, 9.996066, 10.000461 
2.095102e+3, 1.3605389e+2, -1537132.5, -1374917.8, 71329.375, -0.37776938, -0.15194899, -1348014.6, 258628.42, 0.31401625, 9.999487, 10.00262 
2.0951131e+3, 1.4605547e+2, -1512508.9, -1467673.5, -49360.15, 0.047751244, -0.15219964, -1435878.9, 72746.875, 0.19429262, 9.999806, 10.00052 
2.0951192e+3, 1.5605283e+2, -1634180.6, -1497551.3, -78095.32, 0.113646574, -0.46072605, -1462107.6, -51456.21, 0.094824284, 9.998413, 10.000224 
2.095124e+3, 1.6605304e+2, -1515874.8, -1382042.6, -65259.66, -0.00476889, -0.46263772, -1355489.0, -42838.8, 0.032688897, 9.998514, 10.0003 
2.0951289e+3, 1.7605548e+2, -1261852.9, -1209984.3, -33503.836, -0.13086173, -0.2674805, -1193550.0, 21077.816, 0.0061590113, 9.999607, 10.000273 
2.0951362e+3, 1.8605568e+2, -1194627.3, -1259367.8, -3172.9802, -0.095376134, -0.20997427, -1194472.1, -77843.95, 0.00026052183, 9.999958, 9.999097 
2.0951445e+3, 1.9605432e+2, -1107446.8, -1160156.6, -19720.352, 0.009124405, -0.26969546, -1100885.5, -82241.305, 0.00000016154512, 9.999858, 9.999151 
2.0951511e+3, 2.060542e+2, -956429.3, -994883.4, -75168.57, -0.009944254, -0.2171486, -898067.75, 22578.596, 0.0, 10.000057, 9.999512 
2.0951563e+3, 2.1605495e+2, -791670.1, -869196.8, -57210.887, -0.0933563, -0.109430924, -761327.2, 61311.645, 0.0, 10.000538, 9.999465 
2.0951633e+3, 2.2605349e+2, -650410.0, -825076.2, 11439.579, -0.091646895, -0.16465859, -649663.94, 74987.89, 0.0, 10.001137, 9.998823 
2.0951714e+3, 2.3605059e+2, -462278.94, -697084.7, 53828.22, -0.033368375, -0.35046172, -450527.22, 176151.23, 0.0, 10.001824, 9.998691 
2.0951787e+3, 2.4604918e+2, -473625.38, -824471.8, 19016.227, -0.035093743, -0.2770939, -472597.7, 56098.473, 0.0, 10.00181, 9.997147 
2.095185e+3, 2.5604868e+2, -405730.94, -714443.06, -15339.886, -0.068519935, -0.0623663, -404970.56, 25738.033, 0.0, 10.001495, 9.997375 
2.0951934e+3, 2.6604685e+2, -133685.11, -358098.88, 37899.574, 0.0005037522, -0.07137474, -127457.36, 205269.38, 0.0, 10.001942, 9.998938 
2.095203e+3, 2.760442e+2, 103180.25, -221710.95, 100800.08, 0.15005775, -0.24813934, 131913.17, 366661.2, 0.0, 10.003023, 9.998677 
2.09521e+3, 2.8604215e+2, 76621.08, -480458.03, 68564.195, 0.07507785, -0.17248209, 84935.73, 221705.11, 0.00000039293647, 10.003425, 9.996046 
2.0952149e+3, 2.9604042e+2, 238293.11, -306926.63, 22098.36, -0.14890635, 0.015826676, 239187.31, 277979.47, 0.000007661527, 10.003677, 9.996436 
2.0952214e+3, 3.060371e+2, 347275.34, -59787.742, -29657.428, -0.10315662, -0.046388205, 349424.75, 349424.75, 0.000036947218, 10.003376, 9.997947 
2.0952305e+3, 3.1603208e+2, 239703.83, -236590.08, 173781.92, 0.1842878, -0.3591202, 296368.9, 296368.9, 0.00009412645, 10.003166, 9.996821 
2.1050994e+3, 1.2604232e+2, -1648327.1, -1686705.6, 659.2875, 0.44947308, -0.22999454, -1648315.9, 56445.145, 0.44859928, 10.000776, 9.999901 
2.1051015e+3, 1.3604496e+2, -1664055.8, -1386091.9, 23051.223, -0.28179142, -0.31157964, -1384193.3, 222537.16, 0.3298663, 9.998103, 10.003234 
2.105111e+3, 1.4604895e+2, -1812770.5, -1626246.4, -93010.19, -0.023786888, -0.09688964, -1587794.0, -79103.17, 0.20615475, 9.997815, 10.000307 
2.1051174e+3, 1.5604624e+2, -1630864.4, -1523144.1, -65933.12, 0.08706634, -0.38382787, -1491868.5, -81148.805, 0.10215144, 9.998555, 9.999979 
2.1051228e+3, 1.6604593e+2, -1419803.5, -1333353.8, 2703.7437, 0.0012834774, -0.42831594, -1333269.4, -20545.654, 0.036114734, 9.999155, 10.000323 
2.1051286e+3, 1.7604813e+2, -1217795.6, -1182232.8, -14190.5625, -0.13687162, -0.2646165, -1177264.5, 37437.633, 0.007176738, 9.999869, 10.000338 
2.1051359e+3, 1.8604863e+2, -1188495.4, -1226688.5, 1360.7786, -0.10834996, -0.19534995, -1188447.0, -71749.51, 0.0003661867, 9.999881, 9.999357 
2.1051441e+3, 1.9604762e+2, -1152043.0, -1160865.0, 35714.215, -0.008065542, -0.24176587, -1120468.5, -101760.555, 0.00000091193453, 9.999477, 9.999325 
2.1051511e+3, 2.0604707e+2, -938600.1, -1037581.25, 34997.86, -0.024775302, -0.21523024, -927475.8, -6761.291, 0.0, 10.000384, 9.999065 
2.1051575e+3, 2.160469e+2, -575096.9, -805796.75, -3524.4648, -0.11252277, -0.15504126, -575043.0, 247674.6, 0.0, 10.002195, 9.999105 
2.1051648e+3, 2.2604564e+2, -521156.28, -735029.06, -37131.652, -0.10945648, -0.18936053, -514893.06, 209835.67, 0.0, 10.001915, 9.999057 
2.1051721e+3, 2.3604351e+2, -667080.2, -770498.56, -63533.723, -0.061465353, -0.3215799, -636872.5, -10126.056, 0.0, 10.000313, 9.998905 
2.1051799e+3, 2.4604197e+2, -587071.6, -854995.0, -8611.222, -0.026052983, -0.28148788, -586795.1, -58030.87, 0.0, 10.000929, 9.997364 
2.1051879e+3, 2.5604075e+2, -174495.92, -578593.5, 37098.95, -0.0063126585, -0.15864894, -171118.22, 259664.47, 0.0, 10.002994, 9.997585 
2.1051963e+3, 2.6603922e+2, -38140.668, -315194.47, 22889.6, 0.06345022, -0.14405754, -36262.313, 296536.4, 0.0, 10.002597, 9.998926 
2.1052046e+3, 2.7603757e+2, -256973.83, -389767.34, -36807.01, 0.15703408, -0.21953596, -247454.28, -12641.648, 0.0, 10.00052, 9.998731 
2.1052119e+3, 2.860358e+2, -278614.94, -559847.8, 30578.916, 0.08629044, -0.16505939, -275328.47, -138498.1, 0.00000006547354, 10.000598, 9.996857 
2.1052183e+3, 2.9603356e+2, 59614.375, -315875.28, 88150.2, -0.108253956, -0.10149749, 79278.75, 118133.234, 0.0000047361223, 10.002136, 9.99711 
2.1052258e+3, 3.0603126e+2, 306341.53, -137166.2, 10656.15, 0.018734748, -0.069187716, 306597.4, 306597.4, 0.00002876755, 10.003289, 9.997477 
2.1052334e+3, 3.1602687e+2, 300557.78, -227152.61, 41596.707, 0.16016136, -0.26614997, 303816.53, 303816.53, 0.00007804994, 10.00362, 9.996688 
2.1150999e+3, 1.2603205e+2, -1628707.4, -1647097.5, -74785.086, 0.37438768, -0.28811884, -1562554.1, 142309.17, 0.46656317, 10.000818, 10.000427 
2.1151035e+3, 1.3603154e+2, -1577871.0, -1262478.6, -20695.137, 0.07708699, -0.8142798, -1261126.5, 345734.9, 0.34608045, 9.998154, 10.0045595 
2.1151091e+3, 1.4604136e+2, -1771518.3, -1564590.8, -58793.91, -0.035471532, -0.10292389, -1549052.5, -40286.934, 0.21890919, 9.997906, 10.0006895 
2.1151148e+3, 1.560421e+2, -1588689.3, -1456261.3, -38182.484, -0.055696633, -0.095523715, -1446041.0, -35276.863, 0.110347085, 9.998632, 10.0004015 
2.1151213e+3, 1.6604109e+2, -1446628.0, -1396042.6, 23454.393, -0.07186155, -0.20541172, -1386841.4, -74065.984, 0.040102176, 9.999189, 9.999874 
2.1151297e+3, 1.7604078e+2, -1240247.3, -1229061.5, 11862.854, -0.036848776, -0.2472919, -1221539.3, -6762.257, 0.008443992, 9.999871, 10.000013 
2.1151367e+3, 1.8604095e+2, -1117525.9, -1082598.8, -19547.682, -0.038360693, -0.2509009, -1073850.0, 42921.08, 0.00052604213, 9.999895, 10.000339 
2.1151428e+3, 1.9604076e+2, -1095511.6, -1048476.1, 33445.17, -0.08468948, -0.3129763, -1031107.9, -12340.923, 0.0000034897541, 9.999497, 10.000085 
2.1151508e+3, 2.0603906e+2, -1010443.25, -1182223.8, 99727.36, -0.09819411, -0.38162446, -964717.8, -43933.863, 0.0, 10.000365, 9.998082 
2.1151602e+3, 2.1603659e+2, -655347.7, -951832.2, 56845.516, -0.07229423, -0.45350564, -644822.25, 177990.33, 0.0, 10.0021105, 9.998143 
2.1151668e+3, 2.2603616e+2, -580990.94, -834064.2, -100512.875, -0.09705106, -0.32720357, -545928.2, 178891.03, 0.0, 10.001804, 9.99843 
2.1151717e+3, 2.3603693e+2, -703501.94, -835808.9, -103176.14, -0.15719815, -0.1073405, -647092.75, -20279.947, 0.0, 10.000267, 9.998481 
2.1151805e+3, 2.4603501e+2, -496282.97, -644208.8, 67481.01, -0.102182046, -0.16848996, -470124.97, 58706.34, 0.0, 10.000835, 9.998854 
2.1151917e+3, 2.560313e+2, -109912.41, -421533.47, 104293.19, 0.04207679, -0.4376677, -78228.96, 352636.97, 0.0, 10.002892, 9.9987135 
2.1151997e+3, 2.6603028e+2, -166558.77, -545652.4, -61416.49, 0.12362157, -0.3430421, -156857.05, 176023.16, 0.0, 10.002449, 9.99741 
2.1152054e+3, 2.760308e+2, -332097.88, -545962.3, -92572.29, 0.16323145, -0.04626537, -297594.16, -62712.15, 0.0, 10.000519, 9.99766 
2.1152131e+3, 2.8602892e+2, -125226.47, -212734.67, 84577.516, 0.13092074, -0.09595663, -73755.695, 63142.598, 0.00000005479561, 10.000484, 9.9992895 
2.1152224e+3, 2.9602563e+2, 167905.56, -69576.16, 160235.38, 0.09413784, -0.37913892, 248600.83, 287522.28, 0.0000044705935, 10.002032, 9.998856 
2.1152303e+3, 3.060241e+2, 86427.8, -452276.28, 18570.102, 0.08665352, -0.2278806, 87067.18, 87067.18, 0.0000269908, 10.002729, 9.995558 
2.1152337e+3, 3.1602204e+2, 284003.63, -151606.3, 5433.0107, -0.2241502, -0.045693707, 284071.38, 284071.38, 0.000073670686, 10.003188, 9.997399 
2.1250913e+3, 1.2602918e+2, -2281352.0, -2489362.0, 102185.125, -0.4228517, 0.2781264, -2239553.0, -534658.8, 0.48543465, 9.998226, 9.995518 
2.1251033e+3, 1.3602318e+2, -1478819.6, -1200326.1, -30996.232, 0.18677077, -0.88367766, -1196918.0, 410027.5, 0.3637423, 9.999097, 10.004862 
2.1251081e+3, 1.4603496e+2, -1714266.0, -1543688.0, -44827.77, 0.06789814, 0.019015884, -1532624.9, -23795.31, 0.23315269, 9.998326, 10.000629 
2.1251133e+3, 1.5603463e+2, -1570042.6, -1436947.6, -67442.92, -0.0633122, -0.08469888, -1408747.4, 2089.4475, 0.1197026, 9.99872, 10.000496 
2.1251206e+3, 1.6603324e+2, -1474164.0, -1432870.5, -2118.9153, -0.055602435, -0.22994539, -1432762.0, -119910.59, 0.044803485, 9.9991, 9.999671 
2.1251298e+3, 1.7603287e+2, -1328467.9, -1299347.6, -9545.435, 0.028169787, -0.24800818, -1296497.6, -81644.055, 0.01004214, 9.999389, 9.999765 
2.1251372e+3, 1.8603282e+2, -1099111.8, -1075762.5, -77905.31, 0.016828788, -0.26070738, -1008661.94, 108187.46, 0.0007722133, 10.000013, 10.00033 
2.1251433e+3, 1.9603227e+2, -878547.94, -944022.9, -101429.73, -0.06570348, -0.36046317, -804703.3, 214145.06, 0.000010944595, 10.000982, 10.000086 
2.1251519e+3, 2.0603071e+2, -871566.56, -1131059.4, 2646.8213, -0.07623682, -0.40669933, -871539.56, 49324.363, 0.0, 10.001394, 9.997932 
2.125162e+3, 2.1602866e+2, -756264.6, -1020197.5, 2132.8364, -0.050634842, -0.4214517, -756247.4, 66641.664, 0.0, 10.001502, 9.997964 
2.1251687e+3, 2.2602785e+2, -598321.6, -859108.0, -150082.33, -0.0821536, -0.3161158, -529900.6, 194998.8, 0.0, 10.001759, 9.998282 
2.1251729e+3, 2.3602778e+2, -442421.38, -718971.5, -122864.38, -0.16319004, -0.16647008, -395721.72, 231179.38, 0.0, 10.002104, 9.998397 
2.1251814e+3, 2.4602596e+2, -367257.25, -561476.0, 52362.484, -0.11050254, -0.22325829, -354039.56, 174878.81, 0.0, 10.001636, 9.999034 
2.1251932e+3, 2.5602308e+2, -422087.9, -552849.8, -12682.114, 0.027099522, -0.42970383, -420869.28, 10076.299, 0.0, 10.000667, 9.99888 
2.1252012e+3, 2.6602226e+2, -294584.53, -594827.44, -149041.19, 0.09651714, -0.32016906, -233164.67, 99792.56, 0.0, 10.001521, 9.997516 
2.1252067e+3, 2.7602264e+2, 114934.44, -308962.84, -85397.86, 0.1077943, -0.05695403, 131491.86, 366453.22, 0.0, 10.00351, 9.997838 
2.1252148e+3, 2.8602073e+2, 299664.28, 39199.375, 58155.184, 0.12011459, -0.14028385, 312059.03, 449035.56, 0.000000117451826, 10.003186, 9.999729 
2.1252249e+3, 2.960177e+2, 92124.77, -60745.895, -17374.166, 0.15649866, -0.4355415, 94074.52, 133069.3, 0.0000050467984, 10.001324, 9.99925 
2.125233e+3, 3.0601665e+2, -33615.863, -530928.75, -56262.38, 0.13047132, -0.25062606, -27330.193, -27330.193, 0.000026928557, 10.001945, 9.995421 
2.1252373e+3, 3.1601566e+2, 365891.7, -73066.5, -52236.684, -0.16556038, 0.056380704, 372022.3, 372022.3, 0.00007094617, 10.003536, 9.997789 
2.1351005e+3, 1.360195e+2, -1508273.4, -1272032.8, -66811.125, 0.00482131, -0.5278627, -1254447.0, 352539.53, 0.38411817, 9.99914, 10.004182 
2.1351081e+3, 1.4602964e+2, -1743189.6, -1618482.1, -49353.277, 0.21847995, 0.27995577, -1601313.9, -92430.45, 0.24951555, 9.998384, 10.00009 
2.135113e+3, 1.5602395e+2, -1579608.3, -1466613.0, -48866.434, 0.01424351, -0.32629687, -1448411.9, -37474.777, 0.13052814, 9.998758, 10.000274 
2.1351203e+3, 1.6602221e+2, -1463757.6, -1426695.9, 5045.5996, -0.01041641, -0.503219, -1426021.3, -113068.02, 0.050404422, 9.99916, 9.999685 
2.1351291e+3, 1.7602418e+2, -1335040.6, -1325722.3, 5799.4204, 0.010262761, -0.27848384, -1322942.3, -108008.64, 0.012084308, 9.999441, 9.9995575 
2.1351372e+3, 1.8602411e+2, -1161816.6, -1216728.3, -44929.688, -0.0028717858, -0.23048037, -1136617.9, -19684.258, 0.001155736, 10.000057, 9.999342 
2.135145e+3, 1.9602217e+2, -934614.56, -1059085.8, -64281.77, -0.0028978738, -0.37566248, -907377.2, 111574.43, 0.000030850606, 10.000974, 9.999301 
2.135154e+3, 2.0602186e+2, -835160.1, -1041240.6, 1682.6465, -0.028598128, -0.29846078, -835146.4, 85809.484, 0.0, 10.001333, 9.998579 
2.1351634e+3, 2.1602274e+2, -728117.06, -939916.6, 12846.529, -0.08450806, -0.080180034, -727340.7, 95609.38, 0.0, 10.001409, 9.998561 
2.1351701e+3, 2.2602056e+2, -595076.25, -820974.7, -136377.58, -0.119975306, -0.1599915, -530948.2, 194022.56, 0.0, 10.001627, 9.998604 
2.1351753e+3, 2.3601614e+2, -445656.44, -705708.7, -108092.43, -0.13076253, -0.47354493, -406594.5, 220415.97, 0.0, 10.002018, 9.998529 
2.135183e+3, 2.4601485e+2, -453128.44, -717913.0, 10548.108, -0.1199018, -0.42761025, -452708.9, 76316.74, 0.0, 10.001544, 9.998003 
2.1351926e+3, 2.560157e+2, -479926.56, -665007.1, -30225.158, -0.091828115, -0.15924428, -475115.63, -44091.883, 0.0, 10.000631, 9.998127 
2.1352012e+3, 2.6601493e+2, -202541.98, -373559.75, -75081.516, -0.07442568, -0.10286747, -174257.19, 158775.92, 0.0, 10.001404, 9.999085 
2.1352087e+3, 2.7601284e+2, 179335.3, -145121.36, -17166.914, -0.057549935, -0.23642635, 180241.06, 415293.3, 0.00000000014169585, 10.003382, 9.999025 
2.1352166e+3, 2.8601083e+2, 165338.58, -182539.23, -21026.795, -0.04281553, -0.30194193, 166604.9, 303673.5, 0.000000256191, 10.0029545, 9.998306 
2.1352251e+3, 2.9600933e+2, 13270.6455, -217578.42, -53822.004, 0.036220837, -0.31134295, 25202.428, 64280.84, 0.0000052967753, 10.001278, 9.9982 
2.1352334e+3, 3.0600756e+2, 11046.219, -321128.22, 13049.012, -0.039594002, -0.24359192, 11558.043, 11558.043, 0.000025183504, 10.001509, 9.997041 
2.135243e+3, 3.1600466e+2, 268980.16, -102908.19, 99962.59, -0.0029955618, -0.27194494, 294146.75, 294146.75, 0.0000632292, 10.002867, 9.997878 
2.1450996e+3, 1.3601251e+2, -1556284.8, -1412400.3, -85354.12, -0.02018598, -0.3626297, -1372713.6, 234341.89, 0.40760165, 9.999405, 10.00256 
2.1451081e+3, 1.4601967e+2, -1451236.1, -1452135.3, -123304.83, 0.26722986, 0.20661521, -1328380.0, 180601.45, 0.26811564, 10.000446, 10.000452 
2.1451126e+3, 1.5601449e+2, -1398651.8, -1346845.5, -81828.695, 0.04060805, -0.39740735, -1286917.9, 124108.57, 0.14296411, 9.99986, 10.000658 
2.1451204e+3, 1.6601305e+2, -1345525.5, -1377733.0, 1598.0115, 0.01556052, -0.55538607, -1345446.4, -32408.004, 0.057087187, 10.000011, 9.999613 
2.1451294e+3, 1.7601475e+2, -1145011.1, -1245933.1, -7175.1904, 0.032099638, -0.3508045, -1144503.6, 70518.734, 0.014719365, 10.000814, 9.999444 
2.1451375e+3, 1.8601462e+2, -1072406.5, -1229297.3, -38386.137, -0.011488656, -0.2755692, -1063518.1, 53506.816, 0.0017550356, 10.000934, 9.998828 
2.1451451e+3, 1.960129e+2, -1009529.06, -1141685.4, -37707.652, -0.07282477, -0.3450158, -999527.06, 19516.65, 0.00008036648, 10.00067, 9.998882 
2.145154e+3, 2.060127e+2, -908119.4, -978609.0, 44019.137, -0.089796536, -0.2841089, -886973.75, 34072.03, 0.000000018813253, 10.000405, 9.999462 
2.145164e+3, 2.1601364e+2, -839877.94, -906452.1, 65157.78, -0.10390108, -0.14739166, -799996.94, 23038.49, 0.0, 10.000265, 9.999343 
2.1451716e+3, 2.2601154e+2, -749726.8, -938197.56, -77403.32, -0.09728128, -0.23298857, -722013.1, 3042.027, 0.0, 10.00074, 9.998231 
2.1451777e+3, 2.3600721e+2, -525402.2, -786351.06, -108609.59, -0.07544297, -0.49952474, -486113.16, 140983.6, 0.0, 10.001646, 9.998158 
2.145185e+3, 2.4600601e+2, -391879.0, -706969.0, 926.3736, -0.096401736, -0.41838136, -391876.25, 137235.9, 0.0, 10.0020485, 9.997835 
2.1451934e+3, 2.5600687e+2, -269667.1, -576354.25, 13366.533, -0.15404116, -0.13160077, -269085.63, 162024.84, 0.0, 10.002127, 9.998018 
2.1452019e+3, 2.660059e+2, -123079.43, -293401.16, -12989.306, -0.15237628, -0.11313308, -122094.516, 211025.45, 0.0, 10.001756, 9.999475 
2.1452105e+3, 2.760036e+2, -130840.65, -259417.33, -53267.953, -0.118749656, -0.3044581, -111639.68, 123498.27, 0.00000000016893417, 10.001102, 9.999336 
2.1452186e+3, 2.8600192e+2, -47277.61, -349458.1, -62135.13, -0.08217729, -0.32125986, -35000.06, 102152.31, 0.0000002738674, 10.001748, 9.997753 
2.1452266e+3, 2.9600057e+2, 266791.44, -129106.086, -52516.566, -0.026281707, -0.2582679, 273639.4, 312804.88, 0.0000047479944, 10.003176, 9.99789 
2.1452361e+3, 3.0599898e+2, 294511.25, -126253.1, 19753.896, 0.0041436437, -0.20060177, 295436.63, 295436.63, 0.00002151286, 10.003119, 9.997649 
2.1452463e+3, 3.1599447e+2, 185154.47, -30790.709, 18650.078, 0.12946229, -0.44333914, 186753.34, 186753.34, 0.000053598036, 10.00179, 9.998891 
2.1550997e+3, 1.3600296e+2, -1710168.4, -1666649.1, -13351.071, 0.0072044227, -0.33479205, -1662879.6, -55734.086, 0.43279883, 9.999397, 9.999897 
2.1551074e+3, 1.4600497e+2, -1376945.8, -1322606.5, -137983.7, 0.113728896, -0.22579606, -1209142.9, 299981.78, 0.28823382, 10.000534, 10.001598 
2.1551119e+3, 1.5600604e+2, -1333248.5, -1231039.5, -88915.195, -0.035423506, -0.31495968, -1179588.8, 231517.88, 0.15688464, 9.999918, 10.001566 
2.15512e+3, 1.6600573e+2, -1351690.0, -1401310.3, 27903.734, -0.04270447, -0.38249043, -1339161.6, -26054.627, 0.06501248, 10.00006, 9.999425 
2.1551307e+3, 1.7600463e+2, -1149345.4, -1252286.9, 22340.332, 0.04357653, -0.45233825, -1144706.1, 70412.625, 0.018139776, 10.000807, 9.999401 
2.155138e+3, 1.8600427e+2, -1079411.5, -1249912.8, -51332.703, -0.07108924, -0.39135823, -1065149.8, 51974.5, 0.0026903055, 10.000955, 9.99868 
2.1551436e+3, 1.9600427e+2, -1010408.44, -1145439.6, -40781.332, -0.31487322, -0.2729977, -999047.7, 20078.764, 0.00019736934, 10.000682, 9.998848 
2.1551524e+3, 2.0600317e+2, -836546.6, -828907.3, 37249.8, -0.31754798, -0.35814583, -795281.8, 125852.445, 0.0000007869328, 10.000398, 10.000494 
2.1551639e+3, 2.1600139e+2, -786352.56, -787532.1, 67438.79, -0.15619975, -0.6008534, -719501.0, 103644.33, 0.0, 10.000226, 10.000179 
2.1551727e+3, 2.260007e+2, -833785.2, -1093295.3, -46120.777, -0.07603751, -0.5265621, -825832.2, -100677.914, 0.0, 10.000659, 9.997204 
2.1551797e+3, 2.3600064e+2, -596944.75, -915780.7, -70953.41, -0.04700165, -0.26458284, -581867.8, 45295.15, 0.0, 10.001566, 9.997308 
2.1551873e+3, 2.4599911e+2, -369856.34, -628299.8, 2323.751, -0.103023104, -0.21171272, -369835.47, 159345.78, 0.0, 10.001916, 9.998434 
2.155195e+3, 2.5599647e+2, -250513.81, -519738.88, 19027.928, -0.20924208, -0.3321057, -249175.63, 182031.63, 0.0, 10.002056, 9.998441 
2.155203e+3, 2.6599506e+2, -187773.16, -401448.3, -42130.383, -0.21914989, -0.3375078, -179766.33, 153453.23, 0.0, 10.001648, 9.998779 
2.1552114e+3, 2.7599448e+2, -177052.45, -347691.66, -62389.43, -0.14064175, -0.290009, -156674.95, 78547.68, 0.0, 10.001067, 9.998747 
2.1552202e+3, 2.8599328e+2, -58623.66, -327344.1, -10255.938, -0.09891637, -0.24460582, -58232.8, 79002.12, 0.000000100631844, 10.001578, 9.9979725 
2.1552293e+3, 2.959913e+2, 244541.9, -139619.56, 9787.409, -0.10140438, -0.2678257, 244791.11, 284048.13, 0.0000031808088, 10.0030155, 9.997898 
2.1552397e+3, 3.059899e+2, 183577.3, -215810.55, -36311.71, 0.01980045, -0.1608246, 186851.84, 186851.84, 0.000016571294, 10.002562, 9.997273 
2.155247e+3, 3.159867e+2, 165708.19, 24898.465, 78526.836, -0.020212457, -0.2701903, 200770.42, 200770.42, 0.000044980578, 10.001379, 9.999471 
2.165101e+3, 1.3599485e+2, -1552395.6, -1667932.9, 36958.86, 0.12731901, -0.38849804, -1541584.6, 65635.586, 0.45757636, 10.001243, 9.999029 
2.1651062e+3, 1.4599553e+2, -1624314.8, -1447053.4, -597.4843, 0.046358522, -0.36455232, -1447051.4, 62162.77, 0.3088363, 9.998596, 10.001345 
2.1651112e+3, 1.559975e+2, -1363188.1, -1285130.9, -34446.4, -0.092355296, -0.32834738, -1272103.9, 139084.8, 0.17204043, 9.999882, 10.001154 
2.1651196e+3, 1.659974e+2, -1386884.3, -1460057.5, 49352.555, -0.05541413, -0.33570307, -1362035.9, -48847.664, 0.07433442, 9.999997, 9.999049 
2.1651314e+3, 1.759957e+2, -1296044.5, -1346272.6, 25146.31, 0.08998425, -0.43431643, -1285619.1, -70412.04, 0.022589553, 9.999884, 9.999201 
2.1651392e+3, 1.8599519e+2, -1127222.6, -1172217.9, -11055.813, -0.019283233, -0.4290903, -1124652.9, -7440.999, 0.00413868, 10.000176, 9.999593 
2.1651442e+3, 1.9599554e+2, -934714.8, -1029924.94, 62200.414, -0.31185415, -0.3644293, -903992.8, 115213.98, 0.00045452762, 10.000844, 9.999569 
2.165153e+3, 2.0599478e+2, -790887.3, -885254.9, 94608.0, -0.32632867, -0.41016215, -732349.9, 188862.72, 0.000007502901, 10.001049, 9.99979 
2.1651644e+3, 2.1599326e+2, -702746.6, -817506.8, -4635.8228, -0.1659997, -0.5543331, -702559.7, 120666.54, 0.0, 10.001102, 9.999552 
2.1651739e+3, 2.2599258e+2, -706514.75, -991583.56, -78869.625, -0.062423363, -0.46816507, -686148.94, 39086.64, 0.0, 10.001372, 9.997553 
2.165182e+3, 2.3599243e+2, -527168.25, -845318.25, -20667.188, -0.00041571955, -0.25018385, -525831.3, 101411.15, 0.0, 10.001896, 9.997627 
2.1651894e+3, 2.459907e+2, -360396.66, -639196.9, 49432.008, -0.065276474, -0.22678758, -351891.7, 177369.89, 0.0, 10.00203, 9.998312 
2.1651968e+3, 2.5598776e+2, -279787.84, -541309.8, 12066.61, -0.23409301, -0.36313984, -279232.28, 152057.69, 0.0, 10.001902, 9.998357 
2.1652049e+3, 2.6598588e+2, -149266.61, -421741.72, -47529.813, -0.2342753, -0.39791253, -141213.64, 192092.83, 0.0, 10.002095, 9.998416 
2.1652137e+3, 2.7598453e+2, 14983.543, -288181.6, -54864.855, -0.102447905, -0.38823974, 24607.139, 259923.47, 0.0, 10.002545, 9.998436 
2.1652229e+3, 2.859833e+2, 85588.09, -243345.98, 27935.02, -0.026261322, -0.3437529, 87943.63, 225273.08, 0.0000000029805467, 10.002495, 9.998112 
2.165232e+3, 2.9598188e+2, 107770.57, -168958.39, 14806.614, -0.06727398, -0.3182129, 108560.555, 147908.03, 0.0000013452404, 10.001946, 9.998197 
2.1652417e+3, 3.0598152e+2, 67324.4, -187009.75, 2173.0164, 0.054346096, -0.17791493, 67342.97, 67342.97, 0.000010696579, 10.00136, 9.998062 
2.165247e+3, 3.1597877e+2, 122710.83, 10419.587, 116575.914, -0.13135527, -0.30390134, 195957.16, 195957.16, 0.000035608395, 10.001055, 9.999521 
2.1751037e+3, 1.3598788e+2, -1526994.5, -1615767.6, -216726.31, 0.22015202, -0.5558337, -1350156.1, 257126.56, 0.48078975, 10.001715, 9.999759 
2.1751048e+3, 1.4599141e+2, -1735006.1, -1664173.3, 72773.08, 0.003620594, -0.20042706, -1618656.1, -109406.74, 0.32934, 9.9986725, 9.999624 
2.1751101e+3, 1.5598886e+2, -1475907.5, -1514318.1, -420.98022, -0.17822075, -0.4323822, -1475903.0, -64630.496, 0.18832743, 9.999886, 9.999395 
2.1751194e+3, 1.659879e+2, -1414969.3, -1540710.4, 38760.285, -0.104361765, -0.41612855, -1403981.5, -90697.87, 0.0852701, 10.000084, 9.998454 
2.1751316e+3, 1.7598781e+2, -1313486.1, -1391820.8, 31511.93, 0.11327862, -0.3028822, -1302383.4, -87095.09, 0.028395085, 9.999927, 9.998863 
2.1751404e+3, 1.8598725e+2, -994218.0, -909042.4, 8791.572, 0.07597405, -0.38531575, -908144.4, 209145.0, 0.006367479, 10.00023, 10.001383 
2.1751472e+3, 1.9598655e+2, -834280.44, -822725.1, 83413.805, -0.11959853, -0.60678893, -744889.1, 274397.03, 0.0009868387, 10.000848, 10.000991 
2.1751556e+3, 2.0598729e+2, -955544.56, -1228570.5, 89970.01, -0.19467556, -0.43859336, -928563.25, -7280.3135, 0.000047582707, 10.001048, 9.9974375 
2.1751656e+3, 2.1598887e+2, -851301.06, -1110153.8, 4019.5781, -0.17994921, -0.03938844, -851238.6, -27957.47, 0.00000000032497088, 10.001032, 9.997578 
2.1751748e+3, 2.259869e+2, -615694.7, -773109.1, -60214.98, -0.10709576, -0.079225846, -595302.6, 129998.65, 0.0, 10.0012455, 9.999111 
2.175184e+3, 2.359825e+2, -448769.88, -658687.56, 3103.9585, 0.015789812, -0.44415548, -448723.97, 178612.28, 0.0, 10.001796, 9.998955 
2.1751916e+3, 2.4598068e+2, -432979.3, -750655.56, 39612.445, -0.06383319, -0.45092267, -428114.38, 101239.734, 0.0, 10.001872, 9.997618 
2.1751985e+3, 2.5598052e+2, -338093.78, -638691.1, 14722.016, -0.2819832, -0.2432287, -337374.47, 93986.61, 0.0, 10.001805, 9.997731 
2.1752068e+3, 2.6597804e+2, -178333.14, -447945.2, -34453.883, -0.27028605, -0.3060527, -173999.9, 159383.97, 0.0, 10.001956, 9.9983 
2.1752165e+3, 2.7597368e+2, -10004.571, -319343.75, -29685.193, -0.0690665, -0.5861801, -7181.645, 228237.95, 0.0, 10.002463, 9.998258 
2.175226e+3, 2.8597173e+2, 52945.87, -253883.02, 5116.2715, 0.015045126, -0.5993063, 53031.16, 190469.3, 0.0, 10.002266, 9.998141 
2.1752344e+3, 2.959717e+2, 107201.016, -147138.89, 1518.9365, -0.028154682, -0.4501629, 107210.086, 146653.16, 0.00000028754212, 10.00184, 9.9984 
2.1752425e+3, 3.0597225e+2, 134036.61, 50798.293, -28059.537, -0.04646198, -0.31537503, 142612.0, 142612.0, 0.0000061160813, 10.000998, 9.999839 
2.1752478e+3, 3.1597126e+2, -2493.7073, -131598.66, 67526.79, -0.19480444, -0.43577608, 26371.64, 26371.64, 0.00002746077, 10.000567, 9.998777 
2.1851048e+3, 1.4598514e+2, -1575627.3, -1698458.8, 2362.783, 0.061361108, -0.18007791, -1575581.8, -66276.07, 0.34983045, 10.0002365, 9.998629 
2.1851099e+3, 1.5598178e+2, -1333859.6, -1575856.3, -7468.317, -0.28268647, -0.34798616, -1333629.4, 77711.78, 0.2059314, 10.001607, 9.998146 
2.185122e+3, 1.6597834e+2, -1247234.6, -1429947.0, 21914.916, 0.08868093, -0.5330158, -1244642.9, 68734.484, 0.09816949, 10.0011835, 9.998689 
2.1851316e+3, 1.7597957e+2, -1310091.8, -1372043.8, 69452.2, 0.11274574, -0.3081918, -1265020.9, -49653.117, 0.036017943, 9.999896, 9.999012 
2.18514e+3, 1.8597959e+2, -1091410.9, -1008756.3, 31640.277, 0.023262344, -0.31293976, -998035.0, 119329.65, 0.009796201, 9.999798, 10.000899 
2.1851487e+3, 1.9597839e+2, -891196.2, -900399.75, -71162.33, -0.045211237, -0.53311074, -824487.0, 194882.8, 0.0020521113, 10.000681, 10.000532 
2.1851577e+3, 2.0597868e+2, -963811.0, -1232433.0, -50086.293, -0.08602198, -0.38825506, -954775.94, -33404.227, 0.00020967671, 10.001, 9.997435 
2.1851668e+3, 2.1598004e+2, -843771.7, -1095783.4, 19559.1, -0.15337005, -0.011868614, -842262.7, -18892.094, 0.00000086887735, 10.001044, 9.997668 
2.1851757e+3, 2.2597803e+2, -617953.1, -721157.06, -3277.1523, -0.12304339, -0.08644081, -617849.1, 107539.484, 0.0, 10.000986, 9.999601 
2.1851851e+3, 2.3597369e+2, -546155.25, -650055.25, -22277.19, -0.012064102, -0.4951256, -541580.25, 85839.9, 0.0, 10.000897, 9.999443 
2.1851932e+3, 2.4597214e+2, -518249.22, -786502.5, 27622.135, -0.06626454, -0.49962515, -515434.5, 14000.613, 0.0, 10.001256, 9.997673 
2.1852005e+3, 2.5597233e+2, -311877.1, -624415.5, 42723.29, -0.24743553, -0.2606216, -306142.16, 125298.34, 0.0, 10.001959, 9.997767 
2.1852092e+3, 2.6597053e+2, -118307.69, -416452.78, 29817.076, -0.24249332, -0.2571722, -115354.97, 218103.06, 0.0, 10.002334, 9.998347 
2.1852188e+3, 2.7596703e+2, 4085.8196, -311093.22, 27037.701, -0.09920888, -0.44610262, 6388.4326, 241875.03, 0.0, 10.002538, 9.99829 
2.1852276e+3, 2.8596476e+2, -54609.58, -319119.63, 26516.166, -0.021199545, -0.5001163, -51977.62, 85530.984, 0.0, 10.001561, 9.998044 
2.1852352e+3, 2.9596323e+2, -185645.1, -303498.84, 1797.1213, -0.039250705, -0.47569114, -185617.69, -146091.44, 0.000000027227998, 9.9998865, 9.998273 
2.1852437e+3, 3.0596384e+2, 129348.12, 17380.861, -26424.838, -0.017779605, -0.3263723, 135271.19, 135271.19, 0.0000044959556, 10.001049, 9.999613 
2.18525e+3, 3.1596333e+2, 455121.13, 97737.62, -142957.22, -0.1729937, -0.35478404, 505268.88, 505268.88, 0.000025056414, 10.003604, 9.998918 
2.1951057e+3, 1.4597589e+2, -1583091.3, -1702162.5, -78314.875, 0.09619907, -0.34762067, -1544251.5, -34860.082, 0.371045, 10.000195, 9.998621 
2.1951096e+3, 1.5597607e+2, -1381032.5, -1691683.9, 33286.29, -0.47788158, -0.07024376, -1377505.9, 33890.793, 0.22535217, 10.001602, 9.9973545 
2.1951272e+3, 1.6596875e+2, -1181486.8, -1288115.6, -31723.664, 0.462075, -0.6624177, -1172762.4, 140707.5, 0.113554515, 10.001231, 9.9996605 
2.1951309e+3, 1.7597082e+2, -1269360.4, -1284054.3, 32418.959, 0.052068055, -0.4443126, -1243466.3, -28019.275, 0.046104282, 9.999888, 9.999615 
2.1951371e+3, 1.8597195e+2, -1273416.3, -1392550.1, 67040.914, -0.22997223, -0.22343265, -1243302.1, -125862.05, 0.015073848, 9.999821, 9.99825 
2.1951486e+3, 1.9597098e+2, -1045327.8, -1221860.5, -32126.88, -0.13111894, -0.1554995, -1039662.9, -20204.95, 0.004138987, 10.000692, 9.998316 
2.1951589e+3, 2.05969e+2, -815032.75, -924228.9, -50353.484, -0.07006617, -0.2508583, -795358.2, 126119.66, 0.00072646124, 10.001002, 9.999547 
2.195168e+3, 2.1596691e+2, -723354.2, -825123.2, 24908.105, -0.14401378, -0.43655276, -717584.94, 105908.66, 0.000022642807, 10.000959, 9.999562 
2.1951763e+3, 2.2596604e+2, -670723.6, -799272.25, -9500.358, -0.17649367, -0.4582616, -670025.25, 55472.33, 0.000000000011542125, 10.00085, 9.999129 
2.1951848e+3, 2.3596571e+2, -576431.4, -704833.1, -17464.777, -0.13096178, -0.42101792, -574098.25, 53398.453, 0.0, 10.000858, 9.999084 
2.1951939e+3, 2.4596469e+2, -492136.44, -698690.4, 47402.203, -0.140074, -0.3937835, -481777.6, 47730.414, 0.0, 10.0011215, 9.998334 
2.1952032e+3, 2.5596312e+2, -284082.9, -544279.25, 71071.52, -0.19018228, -0.40214664, -265935.7, 165592.84, 0.0, 10.001868, 9.998357 
2.1952116e+3, 2.6596314e+2, -145675.44, -417427.13, 31139.387, -0.2351355, -0.24508372, -142152.9, 191378.25, 0.0, 10.002112, 9.998435 
2.19522e+3, 2.7596402e+2, -8739.763, -301573.66, 32122.078, -0.2507986, -0.015166381, -5257.5767, 230266.1, 0.0, 10.002398, 9.998412 
2.1952273e+3, 2.859614e+2, -93236.875, -368481.44, -46873.234, -0.22787803, -0.09506188, -85473.49, 52076.133, 0.0, 10.001441, 9.997758 
2.1952339e+3, 2.9595634e+2, -233170.9, -394276.6, -29749.12, -0.16386312, -0.39233607, -227853.1, -188254.8, 0.000000020729713, 9.999858, 9.997661 
2.1952444e+3, 3.0595568e+2, -65305.004, -306045.4, 81897.766, -0.071992666, -0.21506329, -40085.957, -40085.957, 0.0000055230016, 10.000739, 9.997512 
2.195254e+3, 3.159522e+2, 328146.0, -24281.309, 47079.1, -0.17154138, -0.36245474, 334326.7, 334326.7, 0.000029811183, 10.003055, 9.99831 
2.2051066e+3, 1.4596269e+2, -1654133.9, -1679420.8, -221759.92, 0.21543778, -0.620648, -1444657.3, 64863.293, 0.39437363, 9.999561, 9.999226 
2.2051094e+3, 1.5596725e+2, -1391375.3, -1541221.5, -4128.3374, -0.6334618, -0.030618906, -1391261.6, 20219.803, 0.24751917, 10.000811, 9.9987755 
2.2051276e+3, 1.6595997e+2, -1281498.1, -1299868.3, -72851.18, 0.45377105, -0.72112846, -1217255.3, 96297.69, 0.13222682, 10.000275, 10.000074 
2.2051302e+3, 1.7596239e+2, -1292645.6, -1300117.0, -60898.164, -0.008366911, -0.48050183, -1235368.8, -19842.746, 0.059555795, 9.999696, 9.999624 
2.2051367e+3, 1.8596347e+2, -1241481.9, -1462503.9, 110239.9, -0.2839609, -0.22147503, -1195898.3, -78376.39, 0.023171267, 10.000391, 9.997506 
2.2051501e+3, 1.9596227e+2, -907197.44, -1219021.8, 132710.19, -0.0964979, -0.10574703, -858364.44, 161182.38, 0.008108057, 10.001909, 9.997765 
2.2051607e+3, 2.0596008e+2, -672681.1, -768976.8, 60183.66, -0.03532264, -0.24031882, -643755.75, 277812.06, 0.0021629941, 10.001608, 10.000329 
2.205168e+3, 2.1595775e+2, -781179.94, -778316.2, 34021.17, -0.20769556, -0.5232176, -745696.75, 77884.21, 0.00023583506, 10.00023, 10.000242 
2.2051765e+3, 2.2595732e+2, -713037.94, -821702.75, 37969.043, -0.22548515, -0.5268062, -701085.7, 24494.125, 0.0000019906881, 10.000564, 9.999115 
2.2051865e+3, 2.3595813e+2, -396602.13, -624575.06, 44658.965, -0.09834549, -0.375664, -388165.78, 239403.98, 0.0, 10.002102, 9.999051 
2.2051963e+3, 2.4595693e+2, -368192.06, -669944.2, 61588.477, -0.05102866, -0.3465955, -356105.78, 173477.83, 0.0, 10.002098, 9.998065 
2.2052056e+3, 2.5595447e+2, -410187.47, -617417.75, 6677.0146, -0.093531504, -0.42115137, -409972.56, 21639.916, 0.0, 10.001099, 9.998199 
2.2052136e+3, 2.659543e+2, -352346.75, -512162.2, -43085.26, -0.16076775, -0.2858543, -341471.3, -7853.043, 0.0, 10.00066, 9.998493 
2.2052215e+3, 2.7595517e+2, -246463.28, -408840.8, -50628.74, -0.23524939, -0.055755977, -231970.89, 3641.5034, 0.0, 10.000718, 9.998495 
2.2052288e+3, 2.8595346e+2, -13796.536, -266878.22, -91776.74, -0.23767638, -0.08069715, 15981.384, 153610.48, 0.0, 10.001729, 9.998316 
2.205235e+3, 2.959497e+2, 336267.78, -71525.305, -38999.895, -0.21557592, -0.29154703, 339964.1, 379627.94, 0.00000007580395, 10.003567, 9.998095 
2.2052465e+3, 3.0594814e+2, 195158.98, -275925.44, 170352.3, -0.026563117, -0.19680844, 250305.67, 250305.67, 0.0000083740215, 10.002898, 9.996706 
2.2052576e+3, 3.1594336e+2, -20068.865, -109943.62, 135548.92, 0.02046837, -0.37410814, 77797.4, 77797.4, 0.000042885644, 10.000262, 9.999085 
2.2151084e+3, 1.4594762e+2, -1546589.4, -1486112.3, -59074.066, 0.39566112, -0.7705919, -1449987.3, 59685.395, 0.4221777, 9.999584, 10.000606 
2.2151089e+3, 1.5595502e+2, -1213906.9, -1126768.1, 12827.228, -0.7663489, -0.2337222, -1124919.1, 286679.25, 0.27423543, 10.000763, 10.002386 
2.2151235e+3, 1.6595171e+2, -1292293.3, -1310720.8, -111373.734, -0.01468648, -0.70718235, -1189752.9, 123876.91, 0.15564767, 10.00024, 10.000043 
2.2151287e+3, 1.7595421e+2, -1324705.8, -1370339.4, -70866.305, -0.12830588, -0.41223025, -1273073.6, -57468.695, 0.07778218, 9.999709, 9.999136 
2.2151382e+3, 1.859542e+2, -1162838.5, -1314315.9, 163637.78, -0.21169849, -0.28731686, -1058261.8, 59348.14, 0.035576556, 10.000457, 9.998499 
2.2151533e+3, 1.959522e+2, -852913.4, -1085423.4, 179159.14, 0.006700324, -0.3580826, -755595.8, 264041.66, 0.0154146915, 10.001836, 9.998721 
2.2151624e+3, 2.0595166e+2, -716396.3, -842825.44, 3231.8855, -0.048639014, -0.34956467, -716313.75, 205330.72, 0.005714695, 10.001536, 9.999857 
2.2151662e+3, 2.159521e+2, -816909.7, -842128.94, -2746.5889, -0.39077765, -0.30606222, -816614.0, 7023.0117, 0.0013616167, 10.000183, 9.9998255 
2.2151761e+3, 2.2595172e+2, -710184.1, -788396.44, 91371.234, -0.34094125, -0.30025995, -649902.2, 75734.266, 0.00013056793, 10.000448, 9.9994 
2.21519e+3, 2.3595081e+2, -396132.03, -599357.4, 98377.41, 0.024841012, -0.35630217, -356311.88, 271328.63, 0.0000045921656, 10.001995, 9.999274 
2.2152002e+3, 2.4594879e+2, -482335.84, -855492.75, 14923.724, 0.11136551, -0.35248464, -481739.94, 47922.17, 0.000000030624218, 10.001892, 9.996882 
2.2152075e+3, 2.5594613e+2, -494716.0, -771087.8, -21964.688, -0.012105856, -0.3370614, -492981.25, -61286.21, 0.0, 10.001009, 9.997187 
2.2152151e+3, 2.6594365e+2, -371881.0, -517251.38, -51539.77, -0.097322926, -0.38795128, -355462.4, -21740.03, 0.0, 10.000522, 9.998518 
2.2152235e+3, 2.7594098e+2, -256487.53, -401817.66, -36798.57, -0.12506986, -0.51883376, -247701.11, -11952.736, 0.0, 10.000609, 9.998589 
2.2152312e+3, 2.8594124e+2, 22498.477, -123034.21, -28582.55, -0.17188919, -0.408792, 27910.795, 165655.81, 0.0, 10.001452, 9.999425 
2.2152382e+3, 2.9594296e+2, 380226.03, 65987.266, 27501.104, -0.26373464, -0.18727008, 382614.7, 422341.53, 0.00000027397763, 10.003388, 9.999112 
2.2152497e+3, 3.0594048e+2, 182119.42, -221263.61, 67407.31, -0.024746314, -0.2579375, 193085.4, 193085.4, 0.000015050563, 10.002588, 9.997208 
2.2152579e+3, 3.1593585e+2, -9562.563, 42175.95, 4601.679, 0.0031902865, -0.48600283, 42582.04, 42582.04, 0.00007034586, 9.999756, 10.000355 
2.2251093e+3, 1.4594454e+2, -1065281.6, -1322693.6, 46900.848, 0.20717862, -0.28146434, -1057002.5, 452696.94, 0.45833316, 10.005832, 9.999582 
2.2251093e+3, 1.5594395e+2, -1632058.4, -1409448.8, 69640.91, -0.6512658, -0.48223275, -1389457.8, 22248.723, 0.30885017, 9.997993, 10.001104 
2.2251223e+3, 1.65944e+2, -1449874.8, -1405222.1, -132697.33, -0.102539144, -0.54438394, -1292986.0, 20720.398, 0.18666483, 9.9991865, 9.999845 
2.2251299e+3, 1.7594486e+2, -1025238.0, -1207983.8, -78908.32, -0.082521886, -0.4062683, -995881.75, 219816.36, 0.103338934, 10.001898, 9.999209 
2.2251396e+3, 1.8594438e+2, -1059730.6, -1178884.6, 103263.87, -0.10989383, -0.37435427, -1000090.0, 117615.53, 0.054786276, 10.000826, 9.999262 
2.2251529e+3, 1.9594322e+2, -1373157.4, -1265734.4, 98019.516, -0.009138542, -0.43657777, -1207674.9, -187953.56, 0.028543482, 9.997923, 9.999361 
2.2251621e+3, 2.0594339e+2, -1213960.0, -1118554.5, -28394.12, -0.038923483, -0.3709672, -1110743.5, -189021.81, 0.013685946, 9.998261, 9.999537 
2.2251685e+3, 2.1594435e+2, -774255.6, -856603.3, -37014.734, -0.23313256, -0.24042483, -760063.6, 63648.684, 0.005262215, 10.000623, 9.999519 
2.2251782e+3, 2.2594352e+2, -581969.56, -749868.4, 53933.977, -0.21099505, -0.2544123, -566137.3, 159580.48, 0.001420654, 10.001415, 9.999204 
2.2251911e+3, 2.3594162e+2, -532668.5, -676909.94, 14162.854, -0.022504982, -0.39154482, -531291.0, 96440.88, 0.0002619265, 10.0011, 9.99918 
2.2252011e+3, 2.4593984e+2, -540463.3, -833535.2, -31541.322, 0.058338556, -0.38589925, -537107.2, -7356.5415, 0.000035642544, 10.001258, 9.99735 
2.2252095e+3, 2.5593814e+2, -329258.06, -643103.6, 46291.16, 0.039505992, -0.31750762, -322572.7, 109199.266, 0.0000011567587, 10.001902, 9.997657 
2.2252172e+3, 2.6593554e+2, -171859.1, -409431.34, 71102.164, -0.007783061, -0.4037818, -152205.11, 181593.5, 0.0, 10.001845, 9.998617 
2.2252251e+3, 2.7593222e+2, -103216.82, -308298.0, 76134.46, -0.076267734, -0.61644346, -78042.77, 157786.73, 0.0, 10.001596, 9.998745 
2.2252329e+3, 2.859326e+2, -27666.314, -150636.88, 78746.8, -0.11648839, -0.5093827, 10755.853, 148582.31, 0.0, 10.001104, 9.9994135 
2.2252409e+3, 2.9593444e+2, -4871.0063, -124486.25, 36280.086, -0.19547546, -0.25889242, 5272.756, 45083.293, 0.00000073017384, 10.000756, 9.999074 
2.2252515e+3, 3.0593297e+2, 22154.205, -157158.52, 19835.453, -0.029509239, -0.3051254, 24322.178, 24322.178, 0.00002755439, 10.000864, 9.998486 
2.2252573e+3, 3.1592926e+2, 266134.13, 248081.84, -50984.348, -0.10358187, -0.5497237, 308885.16, 308885.16, 0.000118261974, 10.001286, 10.001046 
2.2351101e+3, 1.5593423e+2, -2053740.6, -2230407.0, -43442.355, -0.38350478, -0.7209453, -2043636.0, -631832.9, 0.35698506, 9.997846, 9.995452 
2.235124e+3, 1.6593663e+2, -1492108.0, -1486782.9, -10834.157, 0.11252925, -0.25313914, -1478288.9, -164504.47, 0.23053116, 9.999144, 9.999289 
2.2351335e+3, 1.759341e+2, -1016346.56, -1155189.0, -10412.478, 0.078475416, -0.48124793, -1015570.0, 200237.73, 0.14104874, 10.0018, 9.999669 
2.2351414e+3, 1.859337e+2, -1033955.9, -1105343.6, -16004.98, -0.053296108, -0.5045078, -1030531.8, 87280.31, 0.08532412, 10.000769, 9.999787 
2.2351491e+3, 1.9593501e+2, -1343702.4, -1207083.9, 11663.078, -0.18422182, -0.36290097, -1206095.4, -186294.64, 0.05187056, 9.997933, 9.99976 
2.2351602e+3, 2.059353e+2, -1229301.0, -1145150.3, 61484.438, -0.074507855, -0.2934333, -1112722.8, -190923.94, 0.030293982, 9.998242, 9.999363 
2.2351733e+3, 2.1593459e+2, -802555.1, -893286.25, 47887.918, 0.19204722, -0.31517735, -781956.4, 41849.81, 0.015773455, 10.000529, 9.999313 
2.2351827e+3, 2.2593278e+2, -662563.5, -864339.94, 38323.348, 0.076869465, -0.37889737, -655529.94, 70293.516, 0.0069356123, 10.001202, 9.998513 
2.2351897e+3, 2.3593047e+2, -569578.06, -736818.8, 11225.873, -0.282836, -0.49742424, -568827.9, 59017.227, 0.002541045, 10.001029, 9.998796 
2.2351992e+3, 2.4592988e+2, -428581.84, -559454.5, -16480.354, -0.27054617, -0.45658782, -426538.44, 103311.94, 0.00075579167, 10.001091, 9.999305 
2.2352111e+3, 2.5593063e+2, -216592.66, -377741.5, 68672.55, 0.00048439903, -0.3569142, -191298.5, 240544.52, 0.00014769337, 10.001767, 9.99954 
2.2352195e+3, 2.6592997e+2, -223082.64, -436023.16, 42750.29, 0.010049625, -0.32998866, -214820.58, 119027.586, 0.000007045108, 10.00153, 9.998572 
2.235226e+3, 2.759283e+2, -130554.37, -319953.7, 69956.43, -0.13999043, -0.3848863, -107517.336, 128344.68, 0.00000000065814787, 10.001422, 9.998734 
2.235234e+3, 2.8592676e+2, -135914.7, -321499.7, 43971.246, -0.15901165, -0.4189814, -126023.62, 11857.156, 0.0, 10.000897, 9.998325 
2.2352429e+3, 2.9592434e+2, -113335.33, -304622.8, 32655.75, -0.10112478, -0.48081395, -107914.125, -68001.92, 0.0000012574419, 10.000585, 9.997906 
2.2352508e+3, 3.0592504e+2, 68269.484, 55684.41, 24713.621, -0.22600068, -0.33925176, 87479.086, 87479.086, 0.000044073433, 10.000407, 10.000144 
2.2352573e+3, 3.159274e+2, 115409.78, 95978.34, 118934.42, -0.26512182, -0.1457469, 225024.66, 225024.66, 0.00018419352, 10.000666, 10.000275 
2.2451116e+3, 1.5593167e+2, -938497.25, -1188874.9, -408100.66, -0.46686575, 0.27402508, -636815.6, 775028.3, 0.42759266, 10.005841, 10.000077 
2.2451243e+3, 1.6592585e+2, -1342051.1, -1370014.4, 46889.258, 0.1934798, -0.31198168, -1307103.4, 6792.0537, 0.29616648, 9.999991, 9.999693 
2.2451338e+3, 1.7592481e+2, -1323675.8, -1284961.8, 9390.874, 0.055050455, -0.4145245, -1282804.0, -66901.61, 0.19952731, 9.999373, 9.999874 
2.2451414e+3, 1.85925e+2, -1155061.1, -1138843.3, -65935.195, -0.06183566, -0.40424472, -1080520.3, 37379.55, 0.13536815, 9.999754, 10.000066 
2.2451489e+3, 1.9592631e+2, -891147.1, -962045.56, -53403.31, -0.16237317, -0.28861248, -862498.25, 157389.72, 0.09319166, 10.000994, 10.000024 
2.2451603e+3, 2.0592614e+2, -828304.4, -951052.6, 53528.168, -0.013945608, -0.28186297, -808241.1, 113648.2, 0.06306426, 10.001018, 9.999388 
2.2451748e+3, 2.1592431e+2, -883197.9, -942734.9, 28575.76, 0.31082433, -0.4025109, -871702.1, -47796.156, 0.0400799, 9.999997, 9.9992485 
2.2451846e+3, 2.2592267e+2, -783138.25, -922644.8, 63412.645, 0.21044756, -0.4446131, -758622.3, -32700.74, 0.023131557, 10.00034, 9.998543 
2.245192e+3, 2.359215e+2, -508111.06, -699155.56, 70662.055, -0.18584928, -0.4553719, -484815.7, 143117.55, 0.011994159, 10.001416, 9.998875 
2.2452009e+3, 2.4592115e+2, -302542.28, -480651.25, -9935.742, -0.24722578, -0.4019816, -301989.72, 227947.58, 0.0054928027, 10.001869, 9.99948 
2.2452119e+3, 2.5592178e+2, -172671.77, -313823.75, -65402.75, -0.10100922, -0.3383079, -147026.7, 284904.84, 0.002050329, 10.001876, 9.999937 
2.2452198e+3, 2.6592195e+2, -218687.06, -330741.16, -125289.84, -0.06878283, -0.29492667, -137467.7, 196459.94, 0.0004876709, 10.001089, 9.999521 
2.2452272e+3, 2.7592167e+2, -185880.63, -250571.75, -20183.092, -0.10871394, -0.30761477, -180100.17, 55825.74, 0.000047167257, 10.000616, 9.999611 
2.2452351e+3, 2.8592035e+2, -165176.28, -377786.7, 31709.332, -0.11448016, -0.33751094, -160547.83, -22605.32, 0.00000034188096, 10.000889, 9.997935 
2.2452436e+3, 2.959173e+2, 133189.23, -230018.66, 44855.88, -0.1666028, -0.40579396, 138646.89, 178628.97, 0.0000013302117, 10.002465, 9.997516 
2.2452524e+3, 3.0591786e+2, 415088.72, 318509.47, 27198.348, -0.17892453, -0.33062327, 422221.44, 422221.44, 0.0000584347, 10.002321, 10.001051 
2.245259e+3, 3.1592152e+2, -12554.619, -129357.836, 25975.717, -0.1382537, -0.05793432, -7038.4233, -7038.4233, 0.00025944764, 10.000428, 9.998848 
2.2551231e+3, 1.6591176e+2, -1364124.5, -1311682.1, -3622.0493, 0.023927495, -0.69824266, -1311433.3, 2604.887, 0.39765337, 9.999514, 10.000324 
2.2551309e+3, 1.7591673e+2, -1336815.4, -1292466.5, -27921.973, -0.196474, -0.21946283, -1278985.1, -63001.133, 0.29298013, 9.999269, 9.999879 
2.2551404e+3, 1.8591812e+2, -1197358.9, -1168175.4, -43516.242, -0.19503208, -0.08581281, -1136869.6, -18899.732, 0.21888196, 9.999498, 9.999957 
2.2551516e+3, 1.9591689e+2, -919567.94, -974114.06, -17197.912, -0.013923906, -0.22780877, -914598.4, 105386.73, 0.16615056, 10.000841, 10.000027 
2.2551623e+3, 2.0591557e+2, -842073.0, -943808.8, 16602.633, 0.049855802, -0.3552446, -839432.06, 82564.266, 0.12546477, 10.000909, 9.999476 
2.2551724e+3, 2.1591319e+2, -884939.0, -943237.4, -323.44693, 0.07463823, -0.5304471, -884937.25, -60922.277, 0.0914258, 9.99998, 9.999248 
2.2551844e+3, 2.2591302e+2, -751753.7, -832345.94, 102695.77, 0.12125854, -0.46285415, -681731.1, 44283.02, 0.062582165, 10.000246, 9.999216 
2.2551973e+3, 2.3591465e+2, -490618.6, -634527.4, 111377.484, 0.20151205, -0.2683398, -429974.44, 198023.14, 0.039919913, 10.001312, 9.999388 
2.2552055e+3, 2.4591364e+2, -482312.66, -747626.9, -21210.756, 0.015744993, -0.20464705, -480627.66, 49383.336, 0.023601582, 10.001431, 9.997846 
2.2552116e+3, 2.5591168e+2, -281784.22, -477632.84, -62630.37, -0.32470745, -0.27276498, -263468.53, 168568.2, 0.012405956, 10.0016365, 9.998914 
2.2552185e+3, 2.6591134e+2, -141506.16, -102721.12, -172357.2, -0.31758863, -0.3195569, 51331.094, 385369.2, 0.005154125, 10.000812, 10.001225 
2.2552285e+3, 2.7591255e+2, -102035.23, -17921.465, -32784.83, -0.06807369, -0.37625095, -6652.684, 229365.75, 0.0013586987, 10.000376, 10.001319 
2.2552364e+3, 2.8591356e+2, -244041.28, -420415.8, 53553.17, -0.11972207, -0.2534328, -229054.25, -91043.98, 0.00015517221, 10.000408, 9.997854 
2.2552437e+3, 2.9591292e+2, 87760.39, -227953.4, 99797.26, -0.43018875, -0.0687863, 116660.8, 156684.61, 0.0000026982873, 10.002114, 9.997664 
2.2552562e+3, 3.0591094e+2, 371737.78, 315583.72, -43611.67, -0.07385003, -0.28599024, 395528.8, 395528.8, 0.000065484004, 10.001991, 10.001167 
2.2552602e+3, 3.1590927e+2, -236669.1, -533551.44, 65971.664, -0.08006064, -0.50513875, -222669.39, -222669.39, 0.00034262595, 10.000195, 9.996186 
2.2651297e+3, 1.7590497e+2, -1286499.0, -839515.44, -122988.836, -0.07870058, -0.06897796, -807909.56, 408196.28, 0.44342524, 9.996291, 10.006634 
2.265144e+3, 1.8590379e+2, -1351367.8, -1359371.3, 53669.81, 0.26559636, -0.5591453, -1301550.8, -183438.8, 0.3585124, 9.998864, 9.998965 
2.2651541e+3, 1.9590585e+2, -1027833.2, -1107191.3, -32081.248, 0.17692061, -0.26111698, -1016486.44, 3612.4827, 0.29413474, 10.000348, 9.999255 
2.2651635e+3, 2.0590568e+2, -763613.7, -889762.44, -45395.184, 0.057900343, -0.24449256, -748976.44, 173123.27, 0.24160613, 10.00161, 9.999596 
2.2651726e+3, 2.1590346e+2, -548027.94, -753139.3, -62632.05, -0.05310874, -0.40859205, -530415.25, 293699.38, 0.1940874, 10.002633, 9.9994135 
2.2651844e+3, 2.2590308e+2, -341865.28, -528070.75, 45753.85, -0.03805831, -0.4306803, -331230.2, 394883.5, 0.14888066, 10.002995, 10.000225 
2.2651973e+3, 2.3590426e+2, -422911.56, -493816.38, 38198.96, 0.07427439, -0.3674717, -406248.4, 221850.36, 0.108788945, 10.001397, 10.000425 
2.2652058e+3, 2.459041e+2, -604911.7, -675475.4, 61311.285, -0.0060198186, -0.33699495, -569455.44, -39353.81, 0.07581198, 9.9999275, 9.999098 
2.2652128e+3, 2.559032e+2, -572184.25, -551216.06, 187725.7, -0.23865049, -0.39906153, -373681.9, 58432.375, 0.048806984, 9.999241, 9.999627 
2.2652197e+3, 2.659026e+2, -387544.97, -431881.66, 26413.646, -0.23924467, -0.389218, -375229.75, -41109.098, 0.026684597, 9.999961, 9.999384 
2.2652295e+3, 2.75903e+2, 83299.7, -80817.34, -81031.55, -0.0741835, -0.38006476, 116565.56, 352680.25, 0.010897145, 10.00224, 10.000034 
2.2652368e+3, 2.8590333e+2, -177375.38, -312260.2, -116735.19, -0.07856135, -0.2972783, -110000.93, 28111.844, 0.002788968, 10.000497, 9.998574 
2.2652456e+3, 2.9590264e+2, -278183.1, -310739.2, 33652.832, -0.28229752, -0.19573228, -257078.14, -216954.73, 0.0003034348, 9.999206, 9.998493 
2.2652593e+3, 3.059019e+2, 226648.52, 176731.88, -64982.188, 0.07198842, -0.32988682, 271300.56, 271300.56, 0.000074942734, 10.001352, 10.000503 
2.2652635e+3, 3.1589934e+2, 478593.2, -293441.3, -131360.3, -0.069499746, -0.43156636, 500331.8, 500331.8, 0.00045627917, 10.005476, 9.995341 
2.2751665e+3, 2.0589662e+2, -852674.3, -952118.0, -6102.2188, 0.1432412, 0.08109754, -852301.25, 69896.26, 0.4526298, 10.001206, 9.999262 
2.2751787e+3, 2.1589506e+2, -704108.0, -791919.9, 31421.336, 0.276183, -0.048513606, -694022.94, 130182.45, 0.38963944, 10.001481, 9.999704 
2.2751887e+3, 2.2589296e+2, -713100.9, -634552.44, 81401.73, 0.07932676, -0.32997155, -583445.75, 142772.89, 0.32267725, 9.999652, 10.00118 
2.2751938e+3, 2.3588955e+2, -640721.0, -485751.8, 27121.547, -0.4291651, -0.8501495, -481142.28, 147102.58, 0.25840095, 9.999072, 10.001801 
2.2752024e+3, 2.4589118e+2, -466277.78, -288820.25, 20285.764, -0.41133574, -0.9012564, -286530.88, 243691.66, 0.20062341, 9.999401, 10.002402 
2.2752154e+3, 2.558962e+2, -449821.4, -251610.06, 147316.16, 0.063645065, -0.73166305, -173165.78, 259001.8, 0.14660953, 9.999003, 10.001995 
2.2752227e+3, 2.6589623e+2, -901893.06, -1307825.9, 72865.484, 0.02975245, -0.4492434, -889209.94, -555038.75, 0.09444842, 9.999163, 9.993733 
2.2752309e+3, 2.758936e+2, -254876.64, -685940.6, -19028.176, -0.17760323, -0.28693512, -254038.31, -17830.365, 0.04983968, 10.00183, 9.996034 
2.2752376e+3, 2.858902e+2, -179933.1, -171255.5, -259059.06, -0.08983986, -0.45898387, 83501.09, 221745.72, 0.019500945, 9.999915, 9.999815 
2.275249e+3, 2.9588738e+2, -230944.64, -150004.25, -589.6474, 0.1135991, -0.7353103, -149999.95, -109728.945, 0.004786881, 9.998975, 9.999689 
2.2752602e+3, 3.0589187e+2, 47822.68, -75104.96, 44884.254, 0.01762696, -0.3515202, 62466.664, 62466.664, 0.0007184054, 10.0009165, 9.998943 
2.2752663e+3, 3.1589207e+2, 341565.22, -331395.16, -116681.28, -0.3536662, 0.052003194, 361221.88, 361221.88, 0.000778247, 10.004593, 9.9954195 
2.285212e+3, 2.4589811e+2, -660504.1, -1043153.0, 361915.97, 0.47267443, 0.6950895, -442453.2, 87712.2, 0.45869297, 10.000913, 9.99657 
2.2852094e+3, 2.5588346e+2, -133825.48, -413895.94, -472293.1, -0.6827691, -0.64219224, 218755.4, 651064.6, 0.36361384, 10.004107, 9.9992075 
2.2852153e+3, 2.6588666e+2, -301592.22, -563728.94, -343155.0, -0.773727, -0.1511065, -65326.574, 268950.88, 0.26167566, 10.001627, 9.997929 
2.2852342e+3, 2.7588496e+2, -130585.305, -338888.16, 98280.19, -0.008240656, -0.21025036, -91535.77, 144757.47, 0.1640845, 10.001535, 9.9986725 
2.2852412e+3, 2.858808e+2, -152166.63, -340367.28, -88272.72, 0.24583995, -0.47336954, -117243.914, 21090.402, 0.0825175, 10.000841, 9.998222 
2.28525e+3, 2.9587734e+2, 501463.25, 44130.684, 89474.44, 0.040119633, -0.6687304, 518345.22, 558715.1, 0.03076659, 10.004731, 9.998327 
2.2852595e+3, 3.058824e+2, 336129.03, 138595.34, 3511.582, -0.22544315, -0.196562, 336191.44, 336191.44, 0.009048649, 10.002472, 9.999727 
2.2852668e+3, 3.1588012e+2, -581656.25, -169250.7, -57262.086, -0.31931362, -0.16236393, -161447.56, -161447.56, 0.003956389, 9.995617, 10.00085 
2.2952342e+3, 2.7587384e+2, -68739.984, 314916.56, -7586.4414, -0.18132402, -0.49406478, 315066.53, 551468.8, 0.43463567, 9.99835, 10.007559 
2.2952463e+3, 2.8587544e+2, -776155.5, -1181255.1, -229395.52, 0.62384737, -0.38469765, -672684.5, -534305.4, 0.254167, 9.998924, 9.993325 
2.2952493e+3, 2.9587436e+2, 80995.27, -513113.56, 223736.9, -0.5205173, -0.022582706, 155827.3, 196228.98, 0.121655226, 10.003565, 9.994968 
2.2952576e+3, 3.0587506e+2, -1344.2573, 151669.86, -269402.06, -0.74208033, 0.10276878, 355217.78, 355217.78, 0.053589486, 9.999512, 10.001244 
2.295266e+3, 3.158651e+2, -27713.355, 1026713.06, -214754.25, -0.008896844, -1.0218709, 1068774.1, 1068774.1, 0.030551925, 9.995451, 10.009299 
2.3052451e+3, 2.9586306e+2, 706400.0, 924806.4, -476311.16, -1.6787336, -0.65419847, 1304272.5, 1344782.8, 0.3586206, 10.003749, 10.008676 
2.3052783e+3, 3.058742e+2, -1507446.4, -869385.0, 620676.75, 1.6726975, -0.16855542, -490547.38, -490547.38, 0.20999877, 9.990303, 9.998623 
2.3052509e+3, 3.1586757e+2, 600583.44, -604502.2, 445367.7, -1.8425372, 0.21029632, 747313.75, 747313.75, 0.15960443, 10.008622, 9.9920025 
2.3509626e+3, 2.770746e+2, -422362.7, -1570013.5, 564888.5, 0.92864686, 1.0399486, -190970.97, 33779.805, 0.4473218, 10.003599, 9.988513 
2.3505904e+3, 2.8706515e+2, -328222.97, -1024820.0, -1108923.8, -1.1056226, 1.3777095, 485813.94, 612661.94, 0.3480829, 10.002661, 9.992999 
2.3502529e+3, 2.970459e+2, 725438.56, 535845.4, 416757.88, 0.031167446, -0.04104508, 1058045.3, 1087073.3, 0.26837516, 10.006077, 10.002056 
2.349943e+3, 3.07063e+2, -12752.353, 466565.5, -17263.793, 1.3042383, 2.208482, 467186.5, 467186.5, 0.21190198, 9.99841, 10.004574 
2.3643684e+3, 1.7747366e+2, -1504435.0, -1730852.4, -46980.12, -0.8002088, 0.95523936, -1495073.9, -294250.94, 0.43640533, 9.999063, 9.996285 
2.3640466e+3, 1.874612e+2, -806851.75, -976509.6, -223421.66, 0.9841199, 0.4088773, -652697.06, 450256.22, 0.37759876, 10.002952, 9.999493 
2.363703e+3, 1.9746214e+2, -907175.06, -973324.0, -285612.88, 0.6729059, 0.9993416, -652728.0, 352220.16, 0.33353576, 10.000797, 9.999829 
2.3633592e+3, 2.0745775e+2, -842077.25, -749089.7, -236783.34, 0.4704526, 1.0492737, -554278.6, 352709.72, 0.30097625, 9.999612, 10.00133 
2.3630132e+3, 2.1745339e+2, -613574.25, -692275.75, -113958.48, 0.38921952, 1.0257826, -532363.7, 276662.0, 0.2781388, 10.001128, 10.000094 
2.362666e+3, 2.274441e+2, -1273684.3, -1501779.5, -106699.766, 0.23113908, 0.97032493, -1231553.5, -520431.25, 0.26103747, 9.99781, 9.995138 
2.3623215e+3, 2.3743296e+2, -2146141.8, -1678660.9, -471028.47, 0.27433753, 0.78646284, -1386566.4, -773325.2, 0.24560796, 9.990351, 9.996858 
2.3619752e+3, 2.4742469e+2, -1312282.5, -1365041.0, -166439.38, -0.09569644, 0.8675573, -1170144.9, -654818.25, 0.23007107, 9.995902, 9.995701 
2.3616357e+3, 2.5741413e+2, 895904.8, 40904.45, 58869.85, -0.096362144, 0.8378039, 899939.2, 1317371.8, 0.20981902, 10.011706, 9.997929 
2.3612945e+3, 2.6740944e+2, 1466860.6, 838529.06, -286249.53, 0.48446307, 0.7269517, 1577711.3, 1897190.4, 0.17452718, 10.012573, 10.003261 
2.3609604e+3, 2.7740496e+2, -553001.5, -843527.75, -61700.938, 1.0609907, 0.84075177, -540440.7, -318917.66, 0.12458284, 9.99929, 9.995573 
2.360603e+3, 2.8739688e+2, 459012.88, 73604.44, -652660.1, 0.43074095, 0.8591471, 946823.25, 1070408.5, 0.08131435, 10.004177, 9.999158 
2.3602474e+3, 2.9739162e+2, 733745.9, 498963.16, 128068.3, -0.60055864, 0.5478498, 790084.8, 815699.0, 0.054152656, 10.004685, 10.001395 
2.3599331e+3, 3.0737305e+2, -910132.25, -1552678.5, -5670.4297, 0.88641715, 0.023832731, -910082.2, -910082.2, 0.03783446, 9.998594, 9.990107 
2.3750515e+3, 1.5783152e+2, -2058874.3, -1313956.1, -97353.78, -0.7469559, 0.4541029, -1301443.1, 91853.42, 0.4091527, 9.992881, 10.003922 
2.3747185e+3, 1.6782726e+2, -984633.5, -1553391.4, 161948.5, 0.40188015, 0.76081717, -941753.06, 353586.78, 0.31913948, 10.004828, 9.995463 
2.374366e+3, 1.7781378e+2, -931597.0, -1310392.1, 183526.61, -0.8154787, 0.38630378, -857264.7, 340216.66, 0.25440004, 10.003243, 9.99729 
2.374024e+3, 1.8780695e+2, -1069759.9, -983273.1, 93141.375, -0.7116976, 0.3479424, -923826.1, 175728.52, 0.20803122, 9.9993105, 10.000864 
2.3736848e+3, 1.9780397e+2, -1521301.9, -1161300.3, 151157.56, -0.18004714, 0.55075026, -1106250.3, -104661.24, 0.17323056, 9.995518, 10.000624 
2.3733443e+3, 2.0779884e+2, -1317976.6, -1058537.5, 179812.0, -0.087370835, 0.60121113, -966537.56, -62896.176, 0.14628343, 9.996455, 10.000188 
2.3730034e+3, 2.1779321e+2, -751324.2, -784797.06, 47322.574, 0.04568691, 0.59406704, -717865.7, 87831.94, 0.1255341, 9.999942, 9.9997425 
2.3726648e+3, 2.2778538e+2, -343404.16, -870090.44, 140284.02, 0.38075837, 0.60721487, -308369.66, 399409.56, 0.10829949, 10.003819, 9.996613 
2.3723255e+3, 2.3777576e+2, 301365.1, -405646.94, 116962.03, 0.72657657, 0.60329974, 320211.9, 930091.94, 0.09199208, 10.007541, 9.997441 
2.3719753e+3, 2.477716e+2, -68867.805, -319346.97, 57707.99, 0.36146155, 0.88215005, -56211.9, 455712.38, 0.07586676, 10.002891, 9.999592 
2.3716262e+3, 2.5776783e+2, -1257051.0, -1102845.6, 195503.02, -0.21780327, 1.3030856, -969790.6, -555827.1, 0.05915913, 9.995059, 9.997131 
2.3712835e+3, 2.677589e+2, -713246.0, -612006.0, 48167.363, 0.037410364, 1.1633312, -592751.3, -276700.44, 0.040411502, 9.997236, 9.998826 
2.3709492e+3, 2.77747e+2, -491779.34, -835378.44, 295730.6, 0.57269263, 0.80319995, -321567.7, -103401.62, 0.021716034, 10.000027, 9.995146 
2.3706006e+3, 2.877362e+2, 77482.37, -428894.56, -235826.05, 0.39714316, 0.7868874, 170297.25, 290555.97, 0.009480063, 10.003012, 9.995764 
2.3702525e+3, 2.9772797e+2, 307369.03, 20820.215, 48639.156, 0.09835737, 0.64252585, 315400.03, 337723.47, 0.0043085683, 10.003015, 9.998458 
2.3699217e+3, 3.077127e+2, -855522.94, -1056023.4, 26053.326, 0.5865618, 0.30932775, -852192.8, -852192.8, 0.0024623917, 9.997232, 9.993864 
2.3853886e+3, 1.4818053e+2, -1094437.5, -1178775.6, 151134.03, 0.2930342, 0.82173836, -979699.8, 508194.03, 0.38967812, 10.00323, 10.001399 
2.3850538e+3, 1.5817308e+2, -1432821.3, -1352745.3, -213.04036, 0.31713006, 0.48746085, -1352744.8, 37211.043, 0.27836215, 9.998991, 10.00039 
2.3847148e+3, 1.6816454e+2, -1584125.3, -1549464.8, -41485.168, 0.40277588, 0.2714228, -1521835.5, -229796.72, 0.19862524, 9.99818, 9.9986 
2.3843731e+3, 1.7815712e+2, -1458816.4, -1433384.6, -13747.445, 0.3373023, 0.22127013, -1427373.9, -233259.53, 0.1461588, 9.998293, 9.998711 
2.3840295e+3, 1.881534e+2, -1061714.6, -1013963.6, -82853.31, 0.46432328, 0.4580886, -951614.4, 144539.4, 0.11113541, 9.999589, 10.000365 
2.3836868e+3, 1.9815041e+2, -849466.7, -940201.44, -55299.582, 0.76453996, 0.6861247, -823306.1, 174880.23, 0.08556882, 10.000722, 9.999663 
2.383344e+3, 2.0814446e+2, -879239.25, -1060369.5, 68998.54, 0.5838994, 0.7891791, -855949.94, 44300.25, 0.065839775, 10.000479, 9.9982195 
2.3829998e+3, 2.1813758e+2, -775859.0, -915878.75, -42740.996, 0.16007364, 0.83327407, -763843.44, 38479.97, 0.050802168, 10.00031, 9.9986315 
2.382656e+3, 2.2813195e+2, -774051.5, -765589.6, 42082.91, -0.18577997, 0.8912992, -727525.5, -23143.967, 0.038884565, 9.999204, 9.999514 
2.382313e+3, 2.3812549e+2, -853075.25, -854728.6, -19719.988, -0.43694538, 0.93295777, -834164.6, -227717.52, 0.028499383, 9.998458, 9.998591 
2.3819666e+3, 2.481185e+2, -461170.38, -528017.25, -254727.33, -0.14943925, 0.8860689, -237683.06, 270833.8, 0.019239577, 10.000088, 9.999412 
2.3816228e+3, 2.5811034e+2, -506616.75, -797146.2, -17637.068, 0.30189553, 0.8544105, -505550.0, -94952.22, 0.011432521, 10.00048, 9.996629 
2.3812793e+3, 2.6810205e+2, -132210.89, -475491.2, 84726.836, 0.29816234, 0.8828571, -112437.94, 200241.78, 0.005416997, 10.001964, 9.997447 
2.3809393e+3, 2.780923e+2, -295890.22, -736099.25, 216994.27, 0.05796142, 0.7685336, -206911.4, 7864.1846, 0.001679893, 10.001318, 9.995234 
2.3805957e+3, 2.880784e+2, 14292.764, -710452.9, -94894.234, 0.14558583, 0.5798454, 26511.69, 143416.89, 0.00032890108, 10.003588, 9.993602 
2.3802578e+3, 2.9806948e+2, 107883.11, -348177.1, 99092.805, 0.81327933, 0.66834486, 128483.48, 147468.31, 0.0001013413, 10.002641, 9.996217 
2.379911e+3, 3.0806243e+2, -217731.22, -156293.34, -56094.137, 0.19648549, 0.9759224, -123057.57, -123057.57, 0.00013853358, 9.9988575, 9.999386 
2.3957194e+3, 1.3852043e+2, -1630545.4, -1160610.1, -43751.926, -0.97136605, 0.5474597, -1156571.4, 425987.03, 0.4278187, 9.99602, 10.006481 
2.3953913e+3, 1.4851661e+2, -1115105.5, -1316077.0, -11876.493, 0.74301, 0.47788548, -1114406.1, 370189.1, 0.29985437, 10.003259, 9.999657 
2.3950413e+3, 1.585136e+2, -1395728.5, -1387862.3, -95748.66, -0.2915284, 0.7918221, -1295966.0, 90662.21, 0.19614404, 9.999505, 9.999926 
2.3947024e+3, 1.6850863e+2, -1309996.6, -1122860.5, -54228.31, -0.12184493, 0.74967706, -1108282.0, 180394.69, 0.12585048, 9.998579, 10.001569 
2.3943657e+3, 1.7850332e+2, -1224699.5, -1102731.3, -4477.4004, 0.31765515, 0.64217466, -1102567.1, 88160.89, 0.083471425, 9.998854, 10.0007925 
2.394023e+3, 1.8849887e+2, -942888.56, -1013192.6, -49671.555, 0.37066692, 0.7588303, -917188.9, 175581.27, 0.057587944, 10.000639, 9.999849 
2.393679e+3, 1.9849417e+2, -658559.2, -968372.94, -43849.223, 0.35899964, 0.89712816, -652472.6, 342342.75, 0.03970386, 10.0025625, 9.998546 
2.3933376e+3, 2.0848334e+2, -816399.4, -1260765.4, -24050.275, 0.38101727, 0.6848393, -815101.5, 81826.41, 0.026570952, 10.001916, 9.996135 
2.3929965e+3, 2.1847157e+2, -741817.2, -943250.5, -128539.55, 0.35339922, 0.43740898, -679235.8, 119815.09, 0.017417854, 10.000767, 9.998202 
2.3926507e+3, 2.2846898e+2, -695738.2, -447342.2, -118699.99, 0.012774051, 0.64140385, -399741.38, 301335.2, 0.011141793, 9.998554, 10.002026 
2.3923047e+3, 2.3846705e+2, -997110.44, -727064.75, -72168.164, -0.34526652, 0.911166, -708988.25, -105894.67, 0.0065593217, 9.99666, 10.0002985 
2.391962e+3, 2.4845971e+2, -382397.25, -445534.2, -135767.1, -0.016122522, 0.7491231, -274576.8, 230587.58, 0.0032030866, 10.000472, 9.999733 
2.3916225e+3, 2.5845072e+2, 120056.23, -421067.94, 54239.18, 0.5034438, 0.5697694, 125439.3, 532691.3, 0.0011282732, 10.0045395, 9.997203 
2.3912786e+3, 2.684438e+2, 122118.72, -413741.1, 68875.54, 0.41625163, 0.7700772, 130829.87, 440151.72, 0.00023273825, 10.004074, 9.996796 
2.3909356e+3, 2.7843627e+2, -167883.97, -438882.53, 173107.58, 0.090678185, 0.88156456, -83550.836, 127846.984, 0.000018051116, 10.001269, 9.99723 
2.3905934e+3, 2.8842434e+2, 69756.72, -267655.2, 94232.71, 0.22026792, 0.56787765, 94290.26, 207799.47, 0.000004039042, 10.00223, 9.997255 
2.3902571e+3, 2.9841763e+2, 260181.2, -277429.66, 284936.25, 0.9944916, 0.6934424, 383096.38, 398665.8, 0.000013542408, 10.003689, 9.996178 
2.3899038e+3, 3.0840725e+2, 164549.72, -162300.55, -234658.27, 0.04940843, 0.8683956, 287083.13, 287083.13, 0.000052298794, 10.002271, 9.9977 
2.4060598e+3, 1.2887742e+2, -1482137.1, -1696852.6, -124635.6, -0.8526199, 0.94957554, -1424996.5, 252066.08, 0.490425, 10.003308, 9.997997 
2.405734e+3, 1.38862e+2, -1592960.0, -1709277.1, -13599.243, 1.1631233, 0.16190295, -1591391.3, -12191.353, 0.36336076, 10.000101, 9.998629 
2.4053864e+3, 1.4885738e+2, -1418898.9, -1452865.5, 162401.4, 0.6536097, 0.30039075, -1272595.1, 208650.98, 0.24041095, 10.000345, 9.999774 
2.4050334e+3, 1.5885545e+2, -1264917.5, -1318729.0, 203428.45, -0.520571, 0.7258129, -1086623.3, 296647.28, 0.14389461, 10.000583, 9.999908 
2.4046938e+3, 1.6885112e+2, -1094686.1, -1038061.7, 147287.39, -0.35943255, 0.79562384, -916390.06, 368925.8, 0.08188297, 10.000317, 10.001298 
2.404358e+3, 1.7884594e+2, -1128345.3, -1078950.4, -11884.704, 0.18085362, 0.7348586, -1076239.6, 111128.3, 0.047678713, 9.999674, 10.000556 
2.4040164e+3, 1.8884064e+2, -1076185.0, -1098865.9, -51121.27, 0.2520325, 0.7732035, -1035161.4, 54255.98, 0.028905774, 9.999806, 9.999616 
2.4036728e+3, 1.9883487e+2, -1079261.9, -1242093.9, -55722.742, 0.16505037, 0.8357867, -1062019.0, -70547.65, 0.017015342, 9.999913, 9.99793 
2.4033312e+3, 2.0882355e+2, -1287733.3, -1505624.0, 46784.11, 0.23748468, 0.60480565, -1278112.9, -384522.63, 0.00915297, 9.998747, 9.995993 
2.4029905e+3, 2.1881102e+2, -1226467.9, -1177911.1, 75917.12, 0.37032104, 0.3104566, -1122484.8, -326762.44, 0.0045936005, 9.997438, 9.998206 
2.4026446e+3, 2.288089e+2, -615512.3, -291204.0, 22847.033, 0.12969998, 0.5078617, -289602.38, 408138.47, 0.0022051786, 9.998622, 10.003047 
2.4022983e+3, 2.3880811e+2, -497422.3, -419546.0, 9046.029, -0.19040608, 0.78471595, -418509.03, 181235.0, 0.0009056362, 9.999821, 10.000895 
2.4019575e+3, 2.4880104e+2, -314385.63, -396769.88, -36947.313, 0.066280976, 0.62484455, -300243.38, 201568.47, 0.00023937336, 10.00094, 9.999802 
2.4016201e+3, 2.5879234e+2, -342307.47, -600865.3, -8017.6123, 0.4749691, 0.41960272, -342059.06, 61837.375, 0.000025130046, 10.001176, 9.997598 
2.401276e+3, 2.6878652e+2, -108590.12, -479454.94, -19780.063, 0.3641928, 0.69202304, -107538.13, 198416.86, 0.00000030344088, 10.002303, 9.997202 
2.4009314e+3, 2.7878124e+2, -8812.147, -151028.19, 121337.82, 0.09005613, 0.9241642, 60718.44, 268727.34, 0.000000006555133, 10.001406, 9.999186 
2.4005911e+3, 2.8877255e+2, 204256.45, 164569.73, 104142.1, 0.33686537, 0.6184587, 290428.84, 400519.66, 0.00000087941476, 10.00154, 10.000579 
2.4002534e+3, 2.9876631e+2, -199965.4, -570478.56, 139995.6, 0.813994, 0.6039708, -153017.84, -140869.31, 0.0000071974287, 10.000781, 9.995607 
2.3998994e+3, 3.0875373e+2, 27959.35, -566968.44, -129104.94, -0.14122215, 0.7908257, 54768.26, 54768.26, 0.00003374468, 10.002706, 9.99474 
2.4160637e+3, 1.2921233e+2, -1319754.6, -1203773.0, -192021.16, -0.083377555, 0.5935616, -1061177.0, 612603.56, 0.4450997, 10.001788, 10.004514 
2.4157217e+3, 1.3920987e+2, -1331268.8, -1233223.9, -28084.39, 0.45444098, 0.5300686, -1225749.1, 350037.13, 0.31930807, 10.000665, 10.002771 
2.4153765e+3, 1.4920482e+2, -1249246.1, -1219202.0, 161375.94, 0.15098418, 0.41204888, -1072150.5, 405676.13, 0.20041417, 10.000882, 10.001365 
2.4150303e+3, 1.5919876e+2, -1189558.5, -1321522.3, 215603.02, -0.37164253, 0.31250337, -1030066.94, 349813.9, 0.110025235, 10.001299, 9.999488 
2.4146892e+3, 1.6919136e+2, -1260085.9, -1518816.8, 123742.94, -0.30886143, 0.3454432, -1210432.5, 71528.54, 0.054970514, 10.000882, 9.997569 
2.4143499e+3, 1.7918366e+2, -1180007.6, -1333558.8, -26900.887, -0.06428479, 0.37699342, -1175431.3, 8613.953, 0.027314784, 10.000288, 9.998478 
2.41401e+3, 1.8917698e+2, -1010159.3, -1054559.6, -57988.844, 0.19499877, 0.33444306, -970266.4, 115843.77, 0.013986388, 10.000175, 9.99976 
2.413669e+3, 1.9917071e+2, -964089.94, -1029969.56, -69525.836, 0.37923256, 0.3224169, -920095.5, 68074.52, 0.006556314, 10.000006, 9.999346 
2.4133237e+3, 2.0916617e+2, -1108061.8, -1075078.8, 1229.6998, 0.2288532, 0.51847667, -1075033.0, -184809.3, 0.002469395, 9.998496, 9.999077 
2.4129787e+3, 2.191611e+2, -1162150.6, -987463.0, 161185.78, 0.06128869, 0.70701224, -891477.06, -99193.6, 0.00078321603, 9.997166, 9.999648 
2.4126376e+3, 2.2915551e+2, -658871.0, -499824.25, 184278.13, 0.11738722, 0.6393675, -378642.88, 315691.94, 0.00023610769, 9.999118, 10.001371 
2.4122974e+3, 2.3914947e+2, -388654.9, -548425.94, 101201.61, 0.15975612, 0.55792475, -339608.44, 256780.64, 0.000047296035, 10.001346, 9.999264 
2.4119525e+3, 2.4914128e+2, -502683.38, -743846.44, -71096.195, 0.020293383, 0.50802886, -483284.28, 15188.899, 0.0000020598873, 10.000759, 9.997509 
2.4116087e+3, 2.5913265e+2, -568641.1, -633927.6, -46315.145, -0.079183, 0.47196066, -544621.56, -144059.25, 0.0, 9.999311, 9.998248 
2.4112691e+3, 2.691275e+2, -106956.57, -95648.586, 58435.184, 0.12351026, 0.5477557, -42594.5, 260012.98, 0.0, 10.000716, 10.000576 
2.4109297e+3, 2.7912322e+2, 152894.45, 59183.113, 140556.03, 0.298189, 0.6075339, 254199.02, 458842.9, 0.0, 10.001909, 10.000399 
2.4105845e+3, 2.8911576e+2, -69988.79, -189460.23, -67719.11, 0.16980305, 0.5236653, -39423.71, 67299.34, 0.0000001537889, 10.000573, 9.998638 
2.4102415e+3, 2.9910973e+2, -335371.1, -582396.9, -24326.518, 0.22649394, 0.69564945, -332998.25, -324209.13, 0.000003139397, 9.999608, 9.99608 
2.4099031e+3, 3.0909723e+2, 510748.9, 112231.14, 25196.402, 0.5108624, 0.5497525, 512335.63, 512335.63, 0.000017109696, 10.004163, 9.998669 
2.4260618e+3, 1.295506e+2, -1598870.1, -1302349.3, -25914.729, 0.33838207, 0.21610048, -1300101.4, 370359.34, 0.4141129, 9.998091, 10.004795 
2.4257141e+3, 1.3955384e+2, -1235663.6, -1170824.0, -98515.25, 0.17159046, 0.6681219, -1099531.3, 472884.28, 0.28877336, 10.001507, 10.00276 
2.4253704e+3, 1.4954782e+2, -1217177.4, -1192210.6, -46671.984, 0.023347639, 0.43560922, -1156381.4, 318080.4, 0.17287979, 10.001047, 10.001433 
2.4250276e+3, 1.5953974e+2, -1400481.6, -1468969.1, -104752.29, -0.134852, 0.10731975, -1324518.0, 52012.613, 0.08747846, 9.999862, 9.999095 
2.4246854e+3, 1.6953191e+2, -1413966.5, -1678100.5, -24080.564, -0.17452914, 0.13315873, -1411789.0, -133174.63, 0.038149297, 10.000194, 9.996788 
2.4243438e+3, 1.7952402e+2, -1205060.5, -1411823.9, 17380.938, -0.13619946, 0.22079572, -1203609.6, -22908.248, 0.01570925, 10.000441, 9.99785 
2.424004e+3, 1.8951705e+2, -1050701.9, -1086428.6, -1309.7822, 0.167667, 0.17096691, -1050653.9, 32117.41, 0.0064830934, 9.999972, 9.999624 
2.4236639e+3, 1.9951059e+2, -1063499.9, -1040293.0, -72619.25, 0.4664011, 0.14567058, -978356.0, 6479.269, 0.0021827125, 9.999191, 9.999663 
2.4233164e+3, 2.095085e+2, -912527.1, -819337.2, -132377.36, 0.1965257, 0.46943545, -725593.8, 161270.63, 0.00044835047, 9.999163, 10.000498 
2.4229687e+3, 2.1950662e+2, -879339.94, -790075.94, -43511.375, -0.12874088, 0.8236078, -772376.1, 16515.451, 0.000068581576, 9.998891, 10.000165 
2.4226306e+3, 2.2950011e+2, -653855.7, -580470.75, 100508.08, 0.045199983, 0.6800413, -510166.9, 180783.88, 0.0000096515805, 9.99958, 10.000567 
2.4222937e+3, 2.3949187e+2, -649491.0, -817590.94, 48813.63, 0.27161103, 0.45094463, -636344.4, -43318.254, 0.00000040342232, 10.000209, 9.997964 
2.4219462e+3, 2.4948289e+2, -548782.1, -921682.06, -59391.63, -0.08884099, 0.45617613, -539551.3, -44429.242, 0.0, 10.001164, 9.996074 
2.4215989e+3, 2.5947413e+2, -303856.2, -453663.56, 49864.79, -0.4867151, 0.49692413, -288776.22, 108439.78, 0.0, 10.000915, 9.9987335 
2.4212627e+3, 2.6946953e+2, 86071.29, 281343.38, 115071.49, -0.03171893, 0.42492065, 334618.72, 633869.7, 0.0, 10.000838, 10.003103 
2.420927e+3, 2.794657e+2, -168336.9, -168043.63, 3498.3545, 0.4521944, 0.35527918, -164688.84, 36589.195, 0.0, 10.000007, 9.999776 
2.4205764e+3, 2.894581e+2, -312537.53, -629059.44, -166660.0, -0.09464845, 0.49931046, -240967.94, -137601.75, 0.0000000009564638, 10.000286, 9.995777 
2.4202299e+3, 2.9945108e+2, -218122.47, -381625.6, 52787.152, -0.3973596, 0.7286103, -202561.13, -197111.0, 0.0000004799063, 9.999767, 9.997415 
2.4199045e+3, 3.0944276e+2, 523510.72, 572434.0, 1004.7813, 0.762162, 0.5081956, 572454.6, 572454.6, 0.0000055147566, 10.002151, 10.002868 
2.4360545e+3, 1.29895e+2, -1743255.5, -1662329.5, 76842.26, 0.3107294, 0.16892557, -1615947.9, 51130.32, 0.39271495, 9.99897, 10.000305 
2.4357104e+3, 1.398937e+2, -1295916.8, -1400899.3, -49148.39, 0.20047942, 0.59299225, -1276499.1, 292590.25, 0.26710206, 10.00205, 10.000226 
2.4353674e+3, 1.4988638e+2, -1217920.4, -1276221.9, -95293.87, 0.18529202, 0.3701205, -1147418.3, 323732.84, 0.15331793, 10.001417, 10.000528 
2.4350247e+3, 1.5987831e+2, -1299271.0, -1344252.0, -109545.09, 0.15319341, 0.10364479, -1209931.5, 163288.95, 0.07196278, 10.000231, 9.999806 
2.4346824e+3, 1.6987309e+2, -1181539.4, -1282833.1, -6982.9346, 0.05961264, 0.19377704, -1181060.3, 94213.43, 0.027363949, 10.000562, 9.999343 
2.4343401e+3, 1.7986806e+2, -1052705.6, -1201280.5, 29243.26, -0.019312827, 0.34593153, -1047157.06, 130170.55, 0.009079448, 10.000902, 9.999062 
2.433998e+3, 1.898625e+2, -1055076.8, -1156722.3, -28647.84, 0.14682774, 0.45552146, -1047558.6, 31828.828, 0.002868925, 10.000242, 9.9990015 
2.433656e+3, 1.998563e+2, -1068900.4, -1134057.8, -73134.61, 0.3204368, 0.5301347, -1021416.3, -39962.82, 0.00059867656, 9.999528, 9.9988575 
2.4333099e+3, 2.0984866e+2, -952595.3, -995103.1, -142847.6, 0.19136663, 0.42638075, -829429.1, 54105.184, 0.000045539302, 9.999538, 9.999116 
2.4329638e+3, 2.1984166e+2, -769772.3, -730067.6, -64331.047, -0.0078536775, 0.36962903, -682595.4, 103012.52, 0.0000022398012, 9.999597, 10.000226 
2.4326226e+3, 2.2983897e+2, -522372.2, -387576.47, 78792.85, -0.16846147, 0.5213856, -351288.34, 336340.72, 0.000000052409952, 9.999909, 10.00174 
2.432283e+3, 2.3983558e+2, -540367.7, -585699.2, 64092.953, -0.24954769, 0.65071684, -495050.75, 94606.266, 0.0, 10.000189, 9.999553 
2.4319412e+3, 2.4982671e+2, -437495.1, -692994.6, 16301.337, -0.1500951, 0.52146095, -436459.25, 55289.844, 0.0, 10.001179, 9.997634 
2.431599e+3, 2.598177e+2, -147572.08, -338284.97, 115055.93, -0.0705724, 0.4111614, -93493.85, 300349.94, 0.0, 10.0018, 9.999085 
2.431259e+3, 2.698138e+2, -84860.27, -40691.33, 49339.81, 0.110730365, 0.5541912, -8718.972, 287160.47, 0.0, 10.000653, 10.000997 
2.4309194e+3, 2.7981013e+2, -304475.63, -343990.3, -82602.92, 0.31927484, 0.70409673, -239300.08, -41387.098, 0.0, 9.999501, 9.998818 
2.4305728e+3, 2.898009e+2, -162454.39, -486389.8, -120762.43, 0.07966149, 0.65920067, -122389.67, -22377.016, 0.0, 10.000959, 9.996452 
2.4302295e+3, 2.9979196e+2, 139943.25, -98696.25, 118684.52, 0.02817116, 0.6200986, 188918.55, 191028.42, 0.000000008678429, 10.00174, 9.998413 
2.4298984e+3, 3.0978906e+2, 55287.477, 261427.5, -307611.16, 0.7558361, 0.92413116, 482777.03, 482777.03, 0.0000009202062, 9.999249, 10.002164 
2.4463882e+3, 1.2025188e+2, -2188470.0, -2415137.3, -137338.8, 0.31284073, 0.78378004, -2123740.5, -362178.38, 0.49454093, 9.998715, 9.99578 
2.4460503e+3, 1.3023894e+2, -1716528.5, -1768192.4, 114369.24, 0.5225187, 0.2126642, -1625110.3, 38590.754, 0.37753466, 9.999845, 9.999065 
2.4457048e+3, 1.4023586e+2, -1305389.0, -1489888.6, 53980.207, -0.03410775, 0.5753987, -1290756.1, 274978.56, 0.25111946, 10.002376, 9.999232 
2.4453628e+3, 1.5022829e+2, -1260130.5, -1391298.3, -30265.43, 0.14119872, 0.42623904, -1253483.9, 214320.02, 0.13882844, 10.001506, 9.999549 
2.4450213e+3, 1.6022027e+2, -1377905.5, -1397840.9, -13666.892, 0.3807344, 0.25284418, -1370957.5, -1080.7183, 0.060861234, 9.999749, 9.999624 
2.4446784e+3, 1.7021534e+2, -1277066.9, -1228983.5, 12485.883, 0.23591065, 0.31182235, -1225934.6, 45989.938, 0.02025213, 9.9995165, 10.000188 
2.4443352e+3, 1.8021072e+2, -1279941.3, -1278276.3, -89437.15, 0.05929599, 0.42704827, -1189667.8, -15696.856, 0.0052852775, 9.999222, 9.999339 
2.443991e+3, 1.9020547e+2, -1262831.9, -1271656.0, -125354.67, 0.04320582, 0.5582588, -1141811.6, -65782.77, 0.0012089658, 9.998904, 9.998852 
2.443647e+3, 2.001995e+2, -1222960.3, -1251808.8, -92897.46, 0.0901559, 0.66564757, -1143373.9, -165279.27, 0.00012403581, 9.998708, 9.99843 
2.4433032e+3, 2.1019037e+2, -867607.4, -1018423.75, -63402.95, 0.12542896, 0.46163508, -844494.9, 35693.83, 0.000001917801, 10.00047, 9.998472 
2.4429597e+3, 2.2018144e+2, -535540.3, -659085.06, 22200.947, 0.101284906, 0.27030697, -531671.94, 250607.08, 0.000000018702426, 10.001441, 9.9998045 
2.4426162e+3, 2.3017934e+2, -584612.1, -404167.0, 48490.504, -0.22082017, 0.483648, -391961.84, 292331.9, 0.0, 9.99945, 10.001828 
2.4422742e+3, 2.4017735e+2, -929105.44, -705374.4, -38977.313, -0.48021948, 0.71435416, -698778.44, -112471.0, 0.0, 9.997235, 10.000161 
2.4419358e+3, 2.501695e+2, -708321.75, -650603.06, -59971.004, -0.12658282, 0.5411877, -612908.8, -124522.516, 0.0, 9.998591, 9.999161 
2.4415977e+3, 2.6016134e+2, -483422.94, -567149.4, -23896.934, 0.23100519, 0.39398402, -477082.5, -86612.36, 0.0, 9.999777, 9.998506 
2.4412547e+3, 2.7015722e+2, -261755.75, -404626.53, -91647.5, 0.17652394, 0.7000086, -216991.83, 75524.57, 0.0, 10.000623, 9.99852 
2.4409121e+3, 2.8015292e+2, -178968.03, -339881.3, -155220.69, 0.14221801, 0.9670783, -84591.234, 109973.086, 0.0, 10.000611, 9.998323 
2.4405703e+3, 2.9014337e+2, -54245.777, -232472.61, -76643.96, 0.28027046, 0.74748516, -25819.85, 70840.734, 0.0, 10.000865, 9.998227 
2.4402288e+3, 3.001342e+2, -118353.555, -209602.52, 105487.445, 0.32463172, 0.552994, -49046.777, -49046.777, 0.0, 9.9999075, 9.998549 
2.4398884e+3, 3.10131e+2, 60264.66, 119275.3, -105021.625, 0.34204325, 0.8927233, 198857.58, 198857.58, 0.00000009975268, 9.999992, 10.000793 
2.4563794e+3, 1.2058563e+2, -1708992.9, -1577694.0, -174619.17, 0.09174688, 0.27138227, -1456791.3, 301500.66, 0.48539758, 9.999378, 10.002512 
2.4560486e+3, 1.3058084e+2, -1543878.0, -1519455.0, 143821.31, 0.87934476, 0.21119006, -1387327.6, 273016.0, 0.36593348, 10.00047, 10.001005 
2.4556965e+3, 1.4057973e+2, -1236206.8, -1413632.1, 63337.97, -0.5699652, 0.61819476, -1215916.5, 346442.3, 0.23856215, 10.002728, 9.999711 
2.4553563e+3, 1.5057316e+2, -1282225.0, -1485532.4, -93229.6, -0.08363832, 0.62481284, -1245946.8, 218478.16, 0.1275105, 10.001704, 9.998743 
2.4550168e+3, 1.6056554e+2, -1366528.1, -1481148.9, -30525.484, 0.51155543, 0.57389754, -1358905.5, 7594.7183, 0.052560914, 10.000206, 9.998822 
2.4546733e+3, 1.7055805e+2, -1310184.4, -1373678.9, 7338.357, 0.33889228, 0.4862866, -1309347.4, -40774.215, 0.01541553, 9.999827, 9.999042 
2.4543288e+3, 1.8055071e+2, -1234301.9, -1257570.1, -107358.75, 0.06326306, 0.4187422, -1137948.6, 32696.338, 0.0031067657, 9.99952, 9.999339 
2.453982e+3, 1.9054419e+2, -1189016.0, -1147358.8, -141312.25, -0.15724783, 0.3667406, -1025348.4, 47364.496, 0.00048131414, 9.999012, 9.999662 
2.4536365e+3, 2.0053829e+2, -1120355.8, -1092634.4, -38590.125, -0.27873662, 0.4025757, -1065491.3, -90715.87, 0.000015932997, 9.9989195, 9.99941 
2.4532966e+3, 2.105352e+2, -743786.56, -868013.44, 34775.785, -0.041705105, 0.71966755, -734714.06, 142097.69, 0.0000000054715246, 10.000915, 9.999292 
2.452957e+3, 2.205308e+2, -459040.0, -689127.7, 23656.492, 0.19218127, 0.9434073, -456632.94, 322225.88, 0.0, 10.002233, 9.99922 
2.4526145e+3, 2.3052137e+2, -790442.06, -775089.7, -84053.06, 0.2551031, 0.62938666, -698363.0, -17418.46, 0.0, 9.999181, 9.999428 
2.452272e+3, 2.4051248e+2, -1112225.8, -847889.44, -98561.63, 0.23750412, 0.36674026, -815185.5, -232160.98, 0.0, 9.996178, 9.999698 
2.4519295e+3, 2.5050792e+2, -815137.25, -609883.6, -48942.773, 0.054393094, 0.4715496, -598810.56, -113744.26, 0.0, 9.997437, 10.000015 
2.4515884e+3, 2.6050293e+2, -601703.56, -668343.2, -43668.777, -0.05151364, 0.59120256, -580094.6, -192978.86, 0.0, 9.999107, 9.998147 
2.45125e+3, 2.7049395e+2, -394394.5, -668472.44, -125358.945, 0.22648323, 0.5452598, -345706.4, -56491.58, 0.0, 10.000518, 9.996781 
2.450911e+3, 2.8048596e+2, 65981.69, -65133.03, -223427.48, 0.46435574, 0.53139216, 233271.08, 424573.63, 0.0, 10.001589, 9.999738 
2.4505638e+3, 2.9048327e+2, 176393.08, 272260.53, -169333.95, 0.13255224, 0.682257, 400314.4, 493637.66, 0.0, 10.000725, 10.001763 
2.450219e+3, 3.0047897e+2, -154868.13, -278356.4, 59785.445, -0.04710574, 0.7441268, -130666.7, -130666.7, 0.0, 9.999808, 9.998135 
2.4498872e+3, 3.1046703e+2, 162165.1, -89104.805, -42144.855, 0.6811992, 0.49608058, 169045.55, 169045.55, 0.000000000000427524, 10.001837, 9.998428 
2.4663737e+3, 1.2092431e+2, -1573292.8, -1472321.0, -174930.95, 0.10219507, 0.110298395, -1340736.4, 414233.6, 0.47722238, 10.000543, 10.003145 
2.4660422e+3, 1.309208e+2, -1626674.3, -1587594.3, 100833.85, 0.78991735, 0.19196379, -1504424.6, 152584.28, 0.3557266, 9.999842, 10.000606 
2.465693e+3, 1.4091933e+2, -1672958.8, -1622959.6, -149424.83, -0.41674823, 0.5807188, -1496457.5, 62571.527, 0.22774403, 9.999049, 9.999805 
2.4653508e+3, 1.5091373e+2, -1518135.4, -1537797.1, -266603.44, -0.094004415, 0.60238564, -1261181.6, 199905.25, 0.11809006, 9.999696, 9.999393 
2.4650098e+3, 1.6090727e+2, -1349453.5, -1416782.3, -105429.73, 0.36977154, 0.5942612, -1272444.0, 90707.984, 0.04605504, 10.000127, 9.999308 
2.4646665e+3, 1.709001e+2, -1339914.0, -1350902.3, 47181.168, 0.25611854, 0.49293235, -1297908.1, -32687.719, 0.012013259, 9.999489, 9.999363 
2.4643223e+3, 1.8089256e+2, -1334088.1, -1330165.3, 20062.207, 0.05807702, 0.40014353, -1311968.8, -144675.25, 0.0018483637, 9.998965, 9.999112 
2.4639754e+3, 1.9088526e+2, -1031507.7, -1112027.4, -79563.5, -0.17835054, 0.30980992, -982598.0, 86772.08, 0.00018026956, 10.000298, 9.999274 
2.4636298e+3, 2.0087904e+2, -817939.1, -929908.4, -53380.035, -0.3383652, 0.33264735, -796569.3, 174866.61, 0.0000007906511, 10.00097, 9.999534 
2.4632902e+3, 2.1087794e+2, -816826.25, -831840.06, 19561.877, -0.15389322, 0.78693086, -803380.3, 70070.484, 0.0, 10.000137, 9.99991 
2.4629517e+3, 2.2087522e+2, -902149.06, -991791.25, -46285.19, 0.12177719, 1.1471165, -882539.94, -107059.836, 0.0, 9.999599, 9.998417 
2.4626109e+3, 2.3086242e+2, -597515.0, -854808.6, -104854.82, 0.4811162, 0.6277318, -560196.3, 117403.57, 0.0, 10.001318, 9.997817 
2.462269e+3, 2.4085025e+2, -336980.25, -561803.44, -14954.669, 0.6782169, 0.17186768, -335989.88, 243722.88, 0.0, 10.001922, 9.998889 
2.4619234e+3, 2.5084698e+2, -278641.03, -336987.4, 41258.72, 0.124177426, 0.41485792, -257283.47, 224455.56, 0.0, 10.0010605, 10.000147 
2.4615796e+3, 2.608429e+2, -555655.6, -717784.56, 1214.0569, -0.30298138, 0.63684094, -555646.56, -171869.47, 0.0, 9.999743, 9.997513 
2.461245e+3, 2.7083066e+2, -660332.4, -884983.44, 27858.516, 0.2872742, 0.3358607, -656929.25, -371017.63, 0.0, 9.999094, 9.995973 
2.4609087e+3, 2.8082076e+2, -278749.47, -134852.22, -39945.87, 0.7167323, 0.17914897, -124506.99, 63513.055, 0.0, 9.998808, 10.00062 
2.4605557e+3, 2.908235e+2, 344544.38, 583331.4, -166707.69, -0.18553814, 0.68252164, 668989.7, 758972.2, 0.0, 10.000853, 10.003874 
2.46021e+3, 3.0082104e+2, -127684.56, -508414.97, -50422.5, -0.45108297, 0.86664367, -121119.984, -121119.984, 0.0, 10.001046, 9.995974 
2.459888e+3, 3.1080058e+2, -360629.4, -664620.1, 91447.86, 1.1108962, 0.0830814, -335240.16, -335240.16, 0.0, 9.99969, 9.995491 
2.4763665e+3, 1.21266305e+2, -1618266.5, -1635397.8, -209436.31, -0.1445606, 0.2292849, -1417220.8, 334393.6, 0.46784535, 10.001247, 10.000856 
2.4760334e+3, 1.3125949e+2, -1712098.9, -1834925.0, 122487.45, 0.4556256, 0.21281134, -1636491.0, 17197.678, 0.34520847, 10.000139, 9.998409 
2.4756934e+3, 1.4125508e+2, -1611554.4, -1559968.3, -131334.94, 0.25363594, 0.4527691, -1451917.5, 103822.45, 0.21743059, 9.999307, 10.000164 
2.4753459e+3, 1.512501e+2, -1336928.4, -1236529.8, -210394.17, 0.010635752, 0.3752772, -1070429.1, 387359.1, 0.109704144, 9.999982, 10.001438 
2.4749997e+3, 1.6124524e+2, -1136974.5, -1073759.3, -89629.79, -0.10403924, 0.3217714, -1010327.2, 349506.44, 0.040704507, 10.000555, 10.001525 
2.4746574e+3, 1.7124118e+2, -1151609.5, -1026516.0, 24695.246, -0.026714105, 0.3235216, -1021817.25, 240051.23, 0.00953522, 9.999751, 10.001486 
2.4743155e+3, 1.8123634e+2, -1304607.3, -1357274.3, 65827.38, 0.039818026, 0.37180704, -1260041.5, -96127.43, 0.0011160366, 9.999328, 9.99875 
2.4739732e+3, 1.9122931e+2, -1110399.4, -1381910.1, -10686.113, 0.10804554, 0.4872169, -1109979.5, -43986.03, 0.00006263998, 10.000738, 9.997213 
2.4736299e+3, 2.0122199e+2, -750288.4, -928037.2, -60618.918, 0.0880683, 0.55391806, -731583.5, 236489.38, 0.0000000031066179, 10.001572, 9.999247 
2.4732846e+3, 2.11215e+2, -787003.75, -768175.06, -47397.18, -0.1657647, 0.39551052, -729266.3, 140870.47, 0.0, 10.000105, 10.000382 
2.472941e+3, 2.2120836e+2, -892015.94, -904133.4, 6165.465, -0.3052062, 0.31756106, -889430.56, -117232.836, 0.0, 9.999283, 9.999178 
2.4726026e+3, 2.3120196e+2, -416025.22, -696965.1, 31892.164, 0.020859858, 0.3766515, -412450.3, 261808.56, 0.0, 10.002236, 9.998475 
2.4722634e+3, 2.411947e+2, 18729.953, -430311.97, 35732.766, 0.28191704, 0.38975176, 21555.627, 597883.5, 0.0, 10.004502, 9.998562 
2.4719195e+3, 2.5118616e+2, -137988.69, -428071.28, -12712.132, 0.076935604, 0.23520376, -137432.67, 340974.88, 0.0, 10.002691, 9.99875 
2.4715765e+3, 2.611784e+2, -356855.06, -473105.38, -45796.453, -0.0774777, 0.15787473, -340981.25, 39501.24, 0.0, 10.000448, 9.998848 
2.4712375e+3, 2.71173e+2, -547502.06, -520778.53, 41640.16, 0.24065807, 0.29418522, -490408.84, -207862.08, 0.0, 9.998507, 9.998771 
2.4708974e+3, 2.811682e+2, -535749.5, -423863.3, 131890.1, 0.40912494, 0.5098608, -336542.22, -151937.61, 0.0, 9.99773, 9.999156 
2.4705505e+3, 2.9116365e+2, 72513.125, -68099.96, -62490.395, -0.19857615, 0.6978846, 96270.71, 182920.86, 0.0, 10.001175, 9.999273 
2.4702114e+3, 3.0115587e+2, 233159.06, -303623.7, -162985.27, -0.014961234, 0.6651101, 278771.06, 278771.06, 0.0, 10.003345, 9.996295 
2.4698772e+3, 3.1114218e+2, -158789.64, -162025.61, -33345.586, 0.69603664, 0.28850362, -127022.805, -127022.805, 0.0, 9.999252, 9.999202 
2.4863616e+3, 1.21608585e+2, -1733647.5, -1753182.3, -204342.31, -0.12507975, 0.28335083, -1538839.3, 209421.16, 0.45571485, 10.00041, 10.000079 
2.4860261e+3, 1.3160083e+2, -1749955.9, -1841767.6, 226959.03, 0.2743034, 0.16577736, -1564306.6, 86033.15, 0.33319858, 9.99992, 9.998585 
2.485688e+3, 1.4159541e+2, -1674558.5, -1566885.6, 99226.03, 0.39430782, 0.30595684, -1507832.0, 44566.074, 0.20679392, 9.998739, 10.000346 
2.4853401e+3, 1.515907e+2, -1550619.1, -1324973.8, -49136.08, 0.09588535, 0.2610041, -1314738.4, 139705.53, 0.10179194, 9.998342, 10.001546 
2.4849929e+3, 1.6158599e+2, -1520274.0, -1281686.6, -51771.15, -0.13953006, 0.23094799, -1270937.0, 85551.37, 0.036105353, 9.997987, 10.001278 
2.4846499e+3, 1.715817e+2, -1297615.8, -1125944.9, -120992.29, -0.14234185, 0.23039335, -1063433.3, 195093.63, 0.0076701324, 9.998877, 10.00122 
2.4843083e+3, 1.8157719e+2, -1294746.8, -1355618.8, -153552.58, -0.04854995, 0.3133837, -1168642.9, -8073.086, 0.000687035, 9.999429, 9.99871 
2.4839684e+3, 1.9157147e+2, -1254897.6, -1422397.1, -29033.285, 0.20571525, 0.51065916, -1250007.9, -187373.08, 0.000019881356, 9.999657, 9.997437 
2.4836272e+3, 2.0156439e+2, -1057223.3, -1113827.5, 8334.602, 0.3272117, 0.59688973, -1056021.5, -91310.625, 0.0, 9.999657, 9.998886 
2.4832793e+3, 2.1155417e+2, -869986.7, -856916.06, -63778.715, -0.10392832, 0.1591759, -799338.7, 67465.8, 0.0, 9.9998, 9.999885 
2.4829334e+3, 2.215453e+2, -843100.9, -880955.94, -4360.833, -0.438303, -0.115680635, -842605.0, -73719.66, 0.0, 9.99965, 9.999151 
2.4825957e+3, 2.315423e+2, -668876.1, -760612.5, 57201.344, -0.24080315, 0.23355314, -641423.94, 29490.549, 0.0, 10.000267, 9.9989805 
2.4822578e+3, 2.4153781e+2, -602248.3, -784286.3, -35371.88, -0.011614885, 0.49547446, -595616.75, -22658.395, 0.0, 10.000498, 9.998056 
2.4819155e+3, 2.515262e+2, -631551.7, -770122.56, -65218.19, 0.07470335, 0.106735066, -605685.2, -130614.68, 0.0, 9.999752, 9.997812 
2.481573e+3, 2.615165e+2, -542750.2, -473088.6, -54945.105, 0.14970554, -0.1258256, -442864.44, -65698.7, 0.0, 9.998805, 9.999644 
2.48123e+3, 2.7151647e+2, -237138.25, -137157.06, -62007.75, 0.16872537, 0.36159372, -107498.3, 171674.8, 0.0, 9.999657, 10.000842 
2.480887e+3, 2.8151467e+2, -379924.7, -603675.5, 63224.82, 0.065610625, 0.8008204, -363295.28, -182095.47, 0.0, 9.999914, 9.99687 
2.4805467e+3, 2.9150242e+2, -310957.78, -733901.56, 79250.91, -0.151355, 0.6015784, -296595.53, -213263.06, 0.0, 10.000652, 9.99493 
2.4802129e+3, 3.014915e+2, -62661.258, -305189.3, -114540.445, 0.40530404, 0.5169234, -17118.576, -17118.576, 0.0, 10.000719, 9.997554 
2.4798664e+3, 3.114887e+2, 285177.0, 555334.2, -257989.31, 0.20004717, 0.81192684, 711468.06, 711468.06, 0.0, 10.000084, 10.003766 
2.4963592e+3, 1.2195087e+2, -1607180.8, -1600429.0, -92616.766, 0.12603557, 0.3013028, -1511126.5, 233782.06, 0.43991756, 10.000868, 10.001134 
2.4960196e+3, 1.3194397e+2, -1600824.4, -1571946.0, 163713.4, 0.15760167, 0.094623975, -1422036.3, 224934.73, 0.31901658, 10.000074, 10.000673 
2.4956782e+3, 1.4193918e+2, -1658556.9, -1573779.4, 70837.9, 0.08130257, 0.16563344, -1533616.3, 15400.4, 0.19536594, 9.998902, 10.000179 
2.495334e+3, 1.5193452e+2, -1611151.5, -1507979.5, -62512.277, 0.21587822, 0.25730723, -1478516.8, -27451.936, 0.094030365, 9.998624, 10.000053 
2.494989e+3, 1.6192879e+2, -1641563.8, -1614754.3, -21163.816, 0.23632511, 0.31536105, -1603107.1, -249983.33, 0.032013185, 9.99835, 9.99879 
2.4946438e+3, 1.7192072e+2, -1462641.0, -1527920.1, -82986.53, -0.09030451, 0.22438231, -1406106.0, -150900.27, 0.0062260167, 9.9991255, 9.99833 
2.4943e+3, 1.819138e+2, -1119221.3, -1064806.8, -139256.47, -0.27766082, 0.19221085, -950124.6, 207150.31, 0.00043419475, 9.999732, 10.000555 
2.4939607e+3, 1.9191034e+2, -960435.25, -855764.5, -17764.695, 0.015953593, 0.27567467, -852831.6, 206475.81, 0.0000058323185, 9.999814, 10.001265 
2.4936204e+3, 2.019057e+2, -1039784.9, -1115756.8, 37053.656, 0.2436072, 0.3662583, -1024705.7, -63352.293, 0.000000000090419006, 9.9998, 9.998799 
2.4932763e+3, 2.1189773e+2, -994358.56, -1154920.9, -48378.984, 0.1813642, 0.34076494, -980908.25, -117472.94, 0.0, 9.9999485, 9.997767 
2.4929331e+3, 2.2188959e+2, -811032.2, -904679.4, -7998.353, 0.089762494, 0.29440564, -810353.94, -44837.207, 0.0, 10.000023, 9.998796 
2.4925932e+3, 2.3188263e+2, -725836.0, -767024.6, 32141.441, 0.08090212, 0.24043626, -708257.06, -40676.17, 0.0, 9.999773, 9.999178 
2.4922529e+3, 2.4187617e+2, -699247.1, -720424.25, -75558.4, 0.11550806, 0.26460713, -633538.94, -63897.266, 0.0, 9.999338, 9.999038 
2.4919099e+3, 2.518701e+2, -726748.5, -696105.06, -92288.15, 0.2279168, 0.31839266, -617875.44, -146171.4, 0.0, 9.998541, 9.998907 
2.4915674e+3, 2.6186374e+2, -626101.25, -584802.06, 14235.052, 0.31879163, 0.37211588, -580370.94, -206601.19, 0.0, 9.998491, 9.999034 
2.4912259e+3, 2.7185836e+2, -190987.7, -300752.38, -22521.277, 0.291406, 0.47627658, -186546.53, 89280.47, 0.0, 10.000736, 9.999213 
2.490884e+3, 2.818522e+2, -45263.98, -411112.06, -13225.26, 0.17889427, 0.5778909, -44786.516, 133105.88, 0.0, 10.002023, 9.997186 
2.490543e+3, 2.918417e+2, -287764.7, -587290.3, 57443.176, 0.020940524, 0.45437324, -277126.1, -197125.9, 0.0, 10.000179, 9.996185 
2.4902076e+3, 3.0183244e+2, -314825.2, -490385.84, 15164.947, 0.50275475, 0.47114432, -313524.84, -313524.84, 0.0, 9.999271, 9.996956 
2.489862e+3, 3.1182617e+2, 316094.4, 319106.28, -297675.88, 0.2514564, 0.62638485, 615280.0, 615280.0, 0.0, 10.001395, 10.001474 
2.5063547e+3, 1.2229347e+2, -1714978.0, -1598309.8, -48879.926, 0.25167486, 0.33684587, -1580537.9, 161018.1, 0.42027465, 9.999176, 10.001898 
2.5060135e+3, 1.3228785e+2, -1867259.3, -1643814.4, 20378.94, 0.24798146, 0.22525921, -1641971.0, 1632.175, 0.30251706, 9.997865, 10.000845 
2.5056693e+3, 1.4228211e+2, -1950718.4, -1782685.3, -91705.55, -0.0051824874, 0.2036537, -1742328.6, -196673.33, 0.18302314, 9.997183, 9.999557 
2.5053278e+3, 1.5227644e+2, -1319140.9, -1471190.1, -138858.53, 0.2005722, 0.25034714, -1236857.4, 210856.25, 0.08629053, 10.001166, 9.99912 
2.5049847e+3, 1.6227005e+2, -972794.2, -1363880.4, -101581.95, 0.3128657, 0.31300962, -947983.06, 401796.4, 0.028287582, 10.003353, 9.998104 
2.504638e+3, 1.7226164e+2, -1266921.3, -1502405.4, -11801.775, -0.061620906, 0.23756073, -1266331.3, -14466.31, 0.0050760456, 10.0008, 9.997683 
2.5042933e+3, 1.8225418e+2, -1236987.4, -1075160.6, 27372.643, -0.29405898, 0.19452824, -1070656.0, 83283.39, 0.00028139996, 9.998756, 10.000948 
2.503954e+3, 1.9225043e+2, -1022845.2, -763542.2, -58152.074, -0.026968908, 0.15521778, -751098.06, 304873.47, 0.0000014559199, 9.998918, 10.002313 
2.503614e+3, 2.0224634e+2, -1102727.9, -1164536.8, -111442.87, 0.21976557, 0.2267951, -1017983.7, -59973.895, 0.0, 9.999462, 9.998644 
2.5032723e+3, 2.1224052e+2, -855255.6, -1143805.9, -34386.64, 0.29990053, 0.43999204, -851214.4, 8860.571, 0.0, 10.001157, 9.9972725 
2.5029308e+3, 2.2223341e+2, -561409.8, -829241.0, 80112.56, 0.33390382, 0.5508867, -539276.0, 222873.61, 0.0, 10.001965, 9.998385 
2.5025892e+3, 2.322236e+2, -484068.6, -669348.75, 88047.96, 0.2254737, 0.22996543, -448901.7, 215338.61, 0.0, 10.001518, 9.999009 
2.5022477e+3, 2.4221566e+2, -466553.75, -570400.94, -72722.23, 0.16304033, 0.10680328, -429120.88, 137194.05, 0.0, 10.000787, 9.999382 
2.5019038e+3, 2.522135e+2, -369589.66, -436515.66, -128188.29, 0.26565868, 0.48019955, -270568.66, 197773.03, 0.0, 10.000654, 9.999664 
2.501561e+3, 2.622094e+2, -421670.94, -602452.7, 7556.9014, 0.34508097, 0.7421913, -421355.6, -50967.875, 0.0, 10.000422, 9.997983 
2.5012213e+3, 2.7219912e+2, -301687.25, -546828.7, 36125.402, 0.32215366, 0.5097728, -296474.44, -23982.902, 0.0, 10.000814, 9.997487 
2.500881e+3, 2.8218946e+2, -158727.27, -384990.66, -23790.15, 0.2737626, 0.35256937, -156252.94, 18334.652, 0.0, 10.00091, 9.997912 
2.5005394e+3, 2.9218233e+2, -65707.83, -260124.89, 35176.78, 0.19312967, 0.376663, -59538.87, 17114.637, 0.0, 10.000778, 9.998139 
2.5002003e+3, 3.0217403e+2, -236599.45, -576862.75, 85423.65, 0.357582, 0.40564266, -216357.84, -216357.84, 0.0, 10.000357, 9.995844 
2.4998584e+3, 3.121623e+2, -110834.82, -325351.44, -24045.824, 0.30679837, 0.23942791, -108172.49, -108172.49, 0.0, 10.000351, 9.997553 
2.5163496e+3, 1.2263634e+2, -1648144.3, -1524516.5, 25166.547, 0.36305994, 0.44910806, -1519589.8, 218612.27, 0.3973432, 9.999649, 10.002421 
2.5160077e+3, 1.3263108e+2, -1848396.1, -1736087.5, -41034.23, 0.4576707, 0.46275133, -1722692.5, -82445.08, 0.28406283, 9.99844, 9.999923 
2.5156617e+3, 1.4262356e+2, -1870068.6, -1784550.3, 27504.047, 0.01570449, 0.34020597, -1776468.4, -234150.27, 0.16993596, 9.997906, 9.999191 
2.5153217e+3, 1.5261604e+2, -1277228.0, -1464466.5, 28851.533, 0.028257268, 0.23139517, -1272883.1, 171509.8, 0.078587286, 10.001523, 9.998958 
2.51498e+3, 1.6260938e+2, -808205.8, -1103010.9, -126092.57, 0.060764123, 0.21837246, -761631.94, 584826.3, 0.024857625, 10.003681, 9.999776 
2.5146338e+3, 1.7260447e+2, -1073413.4, -1169580.6, -98934.3, -0.01729806, 0.29448432, -1011496.9, 237007.03, 0.0041356636, 10.001076, 9.999851 
2.514289e+3, 1.8259855e+2, -1295053.1, -1265951.5, 26932.852, -0.05189421, 0.32648152, -1249890.1, -99328.94, 0.00018434241, 9.999044, 9.999495 
2.513949e+3, 1.925912e+2, -1203596.0, -1176305.3, -52538.902, 0.14795831, 0.20841876, -1135668.6, -83033.08, 0.00000026313862, 9.999064, 9.999412 
2.513608e+3, 2.0258488e+2, -957334.6, -930378.25, -64986.23, 0.24147224, 0.18842712, -877487.25, 77211.85, 0.0, 9.999747, 10.000109 
2.5132656e+3, 2.1258089e+2, -577609.75, -695611.9, 47169.58, 0.06326999, 0.32799038, -561072.1, 295666.8, 0.0, 10.001695, 10.000105 
2.5129238e+3, 2.2257535e+2, -400639.66, -716487.2, 117281.74, -0.05341971, 0.41270104, -361853.2, 396940.56, 0.0, 10.002872, 9.9987335 
2.512583e+3, 2.3256625e+2, -432050.25, -725482.0, 85602.66, -0.015193938, 0.23137829, -408903.34, 251977.97, 0.0, 10.002193, 9.998309 
2.5122416e+3, 2.4255812e+2, -362295.13, -575812.9, -59916.695, 0.0025789118, 0.15177204, -346630.7, 216329.77, 0.0, 10.001718, 9.998895 
2.5118968e+3, 2.5255302e+2, -232976.2, -445794.78, -128101.77, -0.009670289, 0.30271527, -172853.22, 292159.53, 0.0, 10.0018835, 9.999023 
2.5115538e+3, 2.625472e+2, -271814.75, -593340.06, -24024.496, 0.03602659, 0.4571775, -270029.56, 97044.69, 0.0, 10.001701, 9.997436 
2.5112152e+3, 2.7253848e+2, -349534.1, -641421.4, -3725.117, 0.20720668, 0.4486511, -349486.56, -80320.41, 0.0, 10.000773, 9.996875 
2.510876e+3, 2.8253034e+2, -92420.96, -159515.44, 11257.712, 0.2700495, 0.41880998, -90582.42, 80665.5, 0.0, 10.000509, 9.999659 
2.510534e+3, 2.925245e+2, 213573.44, 116249.02, 83259.24, 0.09435642, 0.35688934, 261348.31, 334643.2, 0.0, 10.001608, 10.00034 
2.5101948e+3, 3.0251813e+2, 71554.27, -263975.84, 86754.01, 0.25781646, 0.3884068, 92657.88, 92657.88, 0.0, 10.001735, 9.997339 
2.5098577e+3, 3.1250915e+2, -134388.73, -268795.0, 75388.766, 0.830525, 0.40376884, -100598.17, -100598.17, 0.0, 9.999859, 9.9981985 
2.526342e+3, 1.22978464e+2, -1612928.9, -1609638.6, 66246.74, 0.14396136, 0.36024314, -1545016.6, 189827.94, 0.37209463, 10.00073, 10.000837 
2.5260022e+3, 1.3297306e+2, -1430632.8, -1598866.0, 1111.0587, 0.4286034, 0.4261146, -1430625.4, 206270.48, 0.26429734, 10.002172, 9.999146 
2.5256562e+3, 1.4296545e+2, -1303691.8, -1463134.9, 102781.8, 0.047315504, 0.33063978, -1253337.9, 285631.38, 0.15642525, 10.001971, 9.999506 
2.5253162e+3, 1.5295857e+2, -1549679.6, -1540892.6, 188720.73, -0.026360381, 0.23147064, -1356514.3, 84521.83, 0.071005836, 9.999381, 9.999454 
2.524975e+3, 1.6295217e+2, -1547584.5, -1446039.9, 17040.45, -0.011223762, 0.22561795, -1443256.5, -100158.305, 0.021693112, 9.998487, 9.999877 
2.5246295e+3, 1.7294747e+2, -1012245.3, -1114047.0, -109057.45, 0.02459838, 0.31191066, -942794.94, 302348.16, 0.00335279, 10.001431, 10.000055 
2.524285e+3, 1.829417e+2, -860744.4, -1172734.4, -54172.01, 0.07832872, 0.3819808, -851605.94, 295593.75, 0.00011963712, 10.002531, 9.998467 
2.5239435e+3, 1.9293322e+2, -1031343.3, -1259485.1, -2191.9248, 0.16266876, 0.27535725, -1031322.25, 17965.285, 0.00000002568285, 10.000945, 9.997947 
2.5236017e+3, 2.0292597e+2, -913553.25, -872118.8, 86237.34, 0.15478419, 0.24506034, -804145.1, 147215.95, 0.0, 9.999889, 10.000436 
2.5232592e+3, 2.1292207e+2, -692580.8, -636831.2, 62807.62, -0.12226676, 0.2931415, -595990.6, 257405.69, 0.0, 10.000409, 10.001119 
2.522918e+3, 2.2291696e+2, -750623.56, -923272.0, -29107.75, -0.2800423, 0.36229402, -745848.2, 9596.981, 0.0, 10.000647, 9.998384 
2.5225776e+3, 2.3290892e+2, -721720.6, -926285.7, -44589.543, -0.16525602, 0.31601417, -712423.8, -54897.125, 0.0, 10.000486, 9.997748 
2.522236e+3, 2.4290074e+2, -616368.06, -784765.9, -151080.45, -0.10439384, 0.28799388, -527608.1, 32000.156, 0.0, 10.000379, 9.998101 
2.5218907e+3, 2.528928e+2, -437898.75, -632591.44, -187835.81, -0.19671448, 0.21027695, -323682.8, 138002.19, 0.0, 10.000874, 9.998221 
2.5215477e+3, 2.6288524e+2, -403194.2, -709654.9, -89984.71, -0.16883534, 0.25790522, -378725.94, -14965.5, 0.0, 10.001042, 9.996954 
2.5212094e+3, 2.728783e+2, -334969.13, -651908.8, -22871.594, 0.121680945, 0.43168205, -333327.13, -67491.586, 0.0, 10.000972, 9.996692 
2.5208703e+3, 2.8287137e+2, -8303.232, -1115.3203, 20024.064, 0.22128263, 0.49095982, 15634.756, 183539.08, 0.0, 10.0006, 10.000698 
2.5205278e+3, 2.9286543e+2, 83794.16, 210335.8, 6462.205, -0.08802747, 0.27217337, 210664.94, 280613.72, 0.0, 10.00006, 10.001727 
2.5201902e+3, 3.028612e+2, -56076.74, -186605.5, -121766.64, 0.22082256, 0.374288, 16812.979, 16812.979, 0.0, 10.00028, 9.998571 
2.5198528e+3, 3.1285393e+2, 266183.75, 67155.11, -65088.04, 0.8398014, 0.39533573, 285579.28, 285579.28, 0.0, 10.00208, 9.999409 
2.5363335e+3, 1.2331992e+2, -1680227.1, -1834779.4, 86031.09, -0.29584008, 0.14725687, -1641861.8, 89626.25, 0.34545884, 10.001037, 9.998705 
2.5359967e+3, 1.3331395e+2, -1441896.4, -1648237.0, 55130.16, 0.23777546, 0.22255814, -1428090.5, 205459.14, 0.24384478, 10.002189, 9.998742 
2.5356528e+3, 1.4330748e+2, -1243374.4, -1330948.3, 55473.047, 0.03914564, 0.22216834, -1216489.1, 319124.28, 0.14280652, 10.001912, 10.000568 
2.5353104e+3, 1.5330335e+2, -1419627.5, -1327956.5, 98589.91, 0.021914417, 0.27774185, -1265068.3, 172582.1, 0.06363834, 9.999613, 10.0008335 
2.5349683e+3, 1.6329771e+2, -1576280.3, -1613142.6, 99411.055, 0.022788925, 0.32695928, -1493606.3, -153899.9, 0.0187796, 9.998941, 9.998509 
2.5346255e+3, 1.7328973e+2, -1090726.9, -1374528.5, 12532.402, 0.02208123, 0.28542948, -1090174.5, 151617.55, 0.0026956536, 10.001821, 9.998082 
2.5342816e+3, 1.8328266e+2, -735747.7, -1045204.25, -83943.6, -0.004953148, 0.31805676, -714443.7, 429422.47, 0.00007576087, 10.0031, 9.999056 
2.5339365e+3, 1.9327687e+2, -894022.3, -1070618.4, -54305.24, -0.06205306, 0.386447, -878659.4, 167263.63, 0.00000000011876218, 10.0013485, 9.999046 
2.5335935e+3, 2.0327061e+2, -959838.3, -1046555.0, 116056.86, -0.09902479, 0.44923958, -879305.0, 68679.68, 0.0, 10.000208, 9.999078 
2.533254e+3, 2.1326417e+2, -837510.75, -938124.4, 67286.984, -0.111294575, 0.45186183, -803803.75, 46244.79, 0.0, 10.00039, 9.999054 
2.5329143e+3, 2.2325769e+2, -794570.1, -970912.0, -63277.977, -0.11474844, 0.5160018, -774213.56, -22098.545, 0.0, 10.00043, 9.998162 
2.5325733e+3, 2.33251e+2, -755332.6, -932077.6, -83807.65, -0.044738084, 0.6070543, -721912.56, -67724.21, 0.0, 10.000173, 9.997876 
2.5322318e+3, 2.4324347e+2, -661531.3, -831519.8, -167483.16, 0.030150134, 0.6442486, -558710.1, -2443.891, 0.0, 10.000131, 9.997912 
2.5318882e+3, 2.532347e+2, -508170.78, -712510.44, -198391.25, 0.09837523, 0.5311355, -387186.5, 71162.42, 0.0, 10.000566, 9.997832 
2.5315458e+3, 2.632264e+2, -321817.94, -539252.4, -81412.88, 0.13835864, 0.47834775, -294713.63, 65712.734, 0.0, 10.0010195, 9.9981365 
2.5312057e+3, 2.732189e+2, -176134.44, -427450.06, 52.04883, 0.19681454, 0.46657428, -176134.44, 86359.72, 0.0, 10.001382, 9.998053 
2.5308654e+3, 2.8321064e+2, -81300.44, -209659.61, -22690.297, 0.21031699, 0.37784442, -77407.49, 87161.95, 0.0, 10.000858, 9.999122 
2.5305226e+3, 2.9320133e+2, -271819.22, -233436.6, -149475.89, 0.07551484, 0.06532939, -101925.07, -35271.566, 0.0, 9.998806, 9.999274 
2.5301847e+3, 3.0319524e+2, -165042.67, -225169.13, -140371.89, 0.28153652, 0.11722235, -51550.8, -51550.8, 0.0, 9.9994755, 9.998693 
2.529847e+3, 3.1319323e+2, 808661.1, 424735.53, -90972.914, 0.4072975, 0.60101306, 829126.7, 829126.7, 0.0, 10.005349, 10.000337 
2.5463256e+3, 1.2366337e+2, -1809646.5, -1898841.4, 10965.108, -0.5361804, 0.19705595, -1808318.3, -80197.37, 0.31815624, 9.999944, 9.998709 
2.5459915e+3, 1.3365693e+2, -1719245.9, -1812423.8, 48338.816, 0.17841327, 0.20985381, -1698699.4, -68512.82, 0.22319707, 9.999937, 9.998652 
2.5456485e+3, 1.4365003e+2, -1526383.8, -1534243.5, -13902.629, 0.11207703, 0.19755614, -1515866.3, 16389.531, 0.12934339, 9.999963, 9.9999075 
2.5453043e+3, 1.536454e+2, -1352948.8, -1380831.1, -117095.625, 0.0076566446, 0.2662798, -1248967.3, 185333.4, 0.05657354, 10.0004425, 10.000088 
2.5449616e+3, 1.6363996e+2, -1356805.9, -1473008.6, -74465.25, -0.020997439, 0.3477504, -1320457.0, 15898.323, 0.016116831, 10.000314, 9.998802 
2.5446203e+3, 1.7363276e+2, -1338817.0, -1464393.1, 44828.08, -0.0039827176, 0.31683162, -1324456.5, -86024.71, 0.0021455006, 9.999989, 9.998342 
2.5442776e+3, 1.8362571e+2, -1119259.3, -1267538.3, -16872.404, -0.031094948, 0.36106703, -1117363.5, 23141.615, 0.000046550977, 10.000657, 9.9987 
2.5439316e+3, 1.9361974e+2, -713606.0, -1011156.5, -106009.85, -0.15380962, 0.4327918, -679700.75, 362863.78, 0.0, 10.002743, 9.998768 
2.5435883e+3, 2.0361312e+2, -611741.8, -979790.4, 21345.105, -0.19173798, 0.50261843, -610508.06, 334121.7, 0.0, 10.003057, 9.998166 
2.5432494e+3, 2.136052e+2, -821291.0, -1057205.6, 69810.65, -0.09561989, 0.4537242, -802181.0, 44527.02, 0.0, 10.001073, 9.99791 
2.5429097e+3, 2.2359815e+2, -876171.8, -1001511.2, 23834.725, -0.018879192, 0.5376072, -871792.4, -123011.055, 0.0, 9.999885, 9.998207 
2.542568e+3, 2.3359281e+2, -760329.44, -898638.1, 40778.098, -0.003529385, 0.7303358, -749201.94, -98357.49, 0.0, 10.000035, 9.998159 
2.542227e+3, 2.4358585e+2, -638301.2, -865355.0, -15152.0625, 0.106072105, 0.84484977, -637294.5, -84376.484, 0.0, 10.000519, 9.997486 
2.5418857e+3, 2.535765e+2, -381021.75, -694065.2, -33863.965, 0.32247886, 0.7113909, -377400.34, 77606.27, 0.0, 10.001651, 9.997425 
2.5415438e+3, 2.6356745e+2, -120017.28, -378369.34, 32326.498, 0.37551522, 0.59858775, -116033.82, 241054.03, 0.0, 10.002142, 9.998704 
2.541202e+3, 2.735592e+2, -42040.766, -271555.6, 31741.691, 0.21461989, 0.42766333, -37731.816, 221422.84, 0.0, 10.001926, 9.998859 
2.5408605e+3, 2.8354996e+2, -134721.64, -471650.6, -91528.13, 0.18362692, 0.28130427, -111463.19, 49772.97, 0.0, 10.001525, 9.997007 
2.5405183e+3, 2.935383e+2, -126990.23, -455362.25, -149164.88, 0.260235, -0.019480085, -69349.26, -5999.171, 0.0, 10.001078, 9.9966545 
2.540179e+3, 3.035288e+2, -26436.459, -185561.03, 86411.75, 0.286228, -0.13406532, 11462.519, 11462.519, 0.0, 10.000535, 9.998469 
2.5398406e+3, 3.1352985e+2, 260272.02, 364551.2, 148404.66, -0.13912669, 0.6202368, 469709.03, 469709.03, 0.0, 10.000684, 10.002182 
2.5563195e+3, 1.2400787e+2, -1725755.0, -1783995.3, -31610.203, -0.6272266, 0.3965092, -1711896.3, 12852.406, 0.2908175, 10.000217, 9.999374 
2.555986e+3, 1.3400087e+2, -1635307.1, -1736355.9, 63520.074, 0.18955584, 0.3356442, -1604668.0, 22148.514, 0.2027681, 10.000373, 9.998981 
2.5556436e+3, 1.439924e+2, -1595631.4, -1779619.0, 3473.4553, 0.16107973, 0.23440473, -1595565.9, -66663.266, 0.11625642, 10.000394, 9.998002 
2.5552982e+3, 1.5398441e+2, -1468312.8, -1684112.8, -87617.41, -0.089725204, 0.19272849, -1437219.1, -6229.5156, 0.04988728, 10.000679, 9.997851 
2.554955e+3, 1.6397887e+2, -1128174.1, -1082123.9, -62127.066, -0.17743367, 0.27940452, -1038892.5, 294152.88, 0.013707004, 10.000658, 10.001357 
2.5546145e+3, 1.7397653e+2, -1076418.0, -984672.75, 53418.57, -0.045177978, 0.43859264, -960133.4, 274927.16, 0.0016894786, 10.000239, 10.001532 
2.5542733e+3, 1.8397073e+2, -1180791.4, -1459147.8, 77979.66, 0.01962701, 0.4979463, -1160434.6, -23318.031, 0.000027889511, 10.000931, 9.997246 
2.5539306e+3, 1.9396058e+2, -771129.1, -1269736.4, -6886.7505, -0.0008983586, 0.366132, -771034.06, 268190.3, 0.0, 10.003339, 9.996706 
2.553588e+3, 2.0395161e+2, -438687.28, -797428.5, -37952.867, -0.037997987, 0.2794906, -434716.03, 506598.06, 0.0, 10.003802, 9.999063 
2.553245e+3, 2.1394424e+2, -690459.2, -861819.94, 6537.528, -0.07687161, 0.17827685, -690210.2, 153169.8, 0.0, 10.001369, 9.99912 
2.552903e+3, 2.2393814e+2, -776811.1, -827983.0, 72804.016, -0.099417925, 0.24061874, -725228.0, 20210.18, 0.0, 10.000016, 9.999336 
2.5525615e+3, 2.3393415e+2, -650734.25, -734749.7, 111136.27, -0.10165472, 0.48464596, -573931.5, 73551.32, 0.0, 10.000308, 9.999153 
2.5522208e+3, 2.439273e+2, -556017.7, -833174.1, 103604.125, 0.0033308342, 0.56537277, -521570.63, 27981.955, 0.0, 10.001096, 9.997432 
2.5518817e+3, 2.5391653e+2, -291728.22, -687933.9, 84606.21, 0.2631427, 0.33434618, -274417.63, 177238.89, 0.0, 10.002399, 9.997116 
2.5515407e+3, 2.6390696e+2, -86173.8, -512561.75, 87957.45, 0.3435312, 0.25311574, -68742.13, 285005.22, 0.0, 10.0029955, 9.9973755 
2.5511983e+3, 2.7389932e+2, -74738.24, -464657.16, 23204.836, 0.1920192, 0.31451923, -73362.13, 182455.47, 0.0, 10.002447, 9.997289 
2.5508568e+3, 2.838909e+2, -8588.691, -441734.75, -65895.914, 0.16050625, 0.3502649, 1214.4014, 159112.19, 0.0, 10.00249, 9.996756 
2.5505152e+3, 2.938808e+2, 184586.72, -330222.1, -72087.82, 0.2743006, 0.23290132, 194490.53, 254489.05, 0.0, 10.003284, 9.9964695 
2.5501767e+3, 3.0387047e+2, 173116.58, -42236.867, 54427.88, 0.48993906, 0.033059444, 186090.88, 186090.88, 0.0, 10.001698, 9.998889 
2.5498322e+3, 3.1386492e+2, -552383.75, -156773.52, 52221.06, -0.10422528, 0.11668935, -149996.38, -149996.38, 0.0, 9.995668, 10.000998 
2.5663164e+3, 1.24348e+2, -1743536.0, -1796881.5, -64621.016, -0.39337063, 0.29883686, -1700299.5, 21113.688, 0.26403108, 10.000123, 9.999364 
2.565981e+3, 1.343427e+2, -1505896.8, -1603048.6, -1488.6003, 0.18519172, 0.33589372, -1505874.0, 117589.56, 0.18292536, 10.0011425, 9.999566 
2.565638e+3, 1.4433515e+2, -1482545.3, -1760424.6, -16175.01, 0.112832785, 0.30949762, -1481606.9, 43935.195, 0.1037245, 10.001384, 9.997638 
2.5652933e+3, 1.5432656e+2, -1451712.8, -1749332.6, 5498.185, -0.115111135, 0.24415028, -1451611.3, -23972.043, 0.043632858, 10.001118, 9.997177 
2.56495e+3, 1.6432062e+2, -1087219.6, -1020653.2, 22626.477, -0.15922068, 0.31999746, -1013690.56, 316009.75, 0.011545959, 10.000811, 10.00168 
2.5646093e+3, 1.7431857e+2, -992830.2, -896611.5, -72529.12, -0.012631463, 0.45905846, -857686.5, 374023.2, 0.0013158798, 10.00066, 10.00191 
2.5642687e+3, 1.8431273e+2, -1246157.0, -1559951.6, -35977.164, 0.08091652, 0.51231444, -1242085.0, -108320.414, 0.000016496271, 10.000804, 9.996609 
2.5639284e+3, 1.943017e+2, -1119742.9, -1522100.5, 20131.832, 0.10307563, 0.33325005, -1118738.1, -82855.78, 0.0, 10.001313, 9.995956 
2.5635856e+3, 2.0429225e+2, -767132.6, -909231.75, -83774.1, 0.057754103, 0.22288683, -728336.25, 209640.78, 0.0, 10.001371, 9.999465 
2.5632402e+3, 2.1428517e+2, -784079.06, -852076.6, -113843.86, -0.096465126, 0.095927395, -699265.6, 140772.03, 0.0, 10.000523, 9.999591 
2.562897e+3, 2.2427943e+2, -684383.6, -714760.75, -12416.883, -0.15738088, 0.13338183, -679954.06, 62133.984, 0.0, 10.000365, 9.999944 
2.562556e+3, 2.3427555e+2, -497740.66, -585817.44, 21762.35, -0.15433712, 0.30023837, -492656.97, 151467.63, 0.0, 10.001041, 9.99982 
2.562216e+3, 2.4426845e+2, -531083.9, -841750.56, 26267.395, -0.041252807, 0.32056034, -528878.6, 17314.904, 0.0, 10.001387, 9.997224 
2.5618774e+3, 2.5425708e+2, -455548.47, -790762.0, 44649.605, 0.20797488, 0.03202152, -449703.2, -1398.3827, 0.0, 10.001393, 9.99689 
2.561537e+3, 2.6424766e+2, -382395.56, -774739.9, 61585.79, 0.30951712, 0.02006284, -372955.66, -22557.559, 0.0, 10.001497, 9.996294 
2.5611946e+3, 2.7424076e+2, -250168.42, -679810.4, 89147.33, 0.17388764, 0.26196653, -232405.44, 20062.893, 0.0, 10.00182, 9.996115 
2.5608528e+3, 2.8423265e+2, -107855.16, -484586.03, 67121.586, 0.1059078, 0.40340114, -96253.484, 58297.996, 0.0, 10.001798, 9.996793 
2.5605115e+3, 2.9422367e+2, -35110.094, -420967.9, 89682.484, 0.16297342, 0.37898248, -15284.424, 41359.465, 0.0, 10.00172, 9.996591 
2.5601745e+3, 3.0421486e+2, 68453.19, -94444.26, 5625.9214, 0.705423, 0.34065956, 68647.26, 68647.26, 0.0, 10.00101, 9.998854 
2.5598267e+3, 3.1420323e+2, -147996.13, 112465.836, 89.174835, 0.24033763, -0.18238847, 112465.87, 112465.87, 0.0, 9.998165, 10.001635 
2.5763145e+3, 1.2468571e+2, -1662918.3, -1688962.6, 22366.762, -0.077378035, 0.09855651, -1650059.0, 68038.414, 0.23823525, 10.000398, 10.000021 
2.575976e+3, 1.3468273e+2, -1424661.6, -1447687.0, 32666.9, 0.13074796, 0.25056913, -1401538.1, 218587.84, 0.16394834, 10.001166, 10.000808 
2.5756326e+3, 1.4467794e+2, -1412333.6, -1612768.3, -13553.705, -0.042713158, 0.3896005, -1411421.3, 110756.91, 0.09188186, 10.001413, 9.998645 
2.5752893e+3, 1.5467131e+2, -1346661.8, -1573098.3, 15435.619, -0.057338003, 0.4270279, -1345614.4, 78640.92, 0.03784501, 10.001297, 9.998316 
2.574947e+3, 1.6466434e+2, -1193299.8, -1307780.6, 32539.32, -0.0069501405, 0.442271, -1184697.4, 141631.94, 0.009625426, 10.001111, 9.999531 
2.5746056e+3, 1.746575e+2, -1114228.5, -1227761.0, -66714.086, 0.08710135, 0.36037892, -1083398.1, 144996.08, 0.0010124295, 10.000995, 9.999465 
2.5742647e+3, 1.8465069e+2, -1101082.5, -1322357.6, -22317.38, 0.1292913, 0.38013887, -1098854.0, 31606.707, 0.000009793076, 10.001073, 9.998106 
2.5739244e+3, 1.9464351e+2, -986919.9, -1256815.4, 49435.098, 0.14314845, 0.42320514, -978150.1, 54384.027, 0.0, 10.001332, 9.997773 
2.5735813e+3, 2.0463619e+2, -828377.94, -1010700.44, -89315.92, 0.068532996, 0.45555907, -791915.9, 142691.39, 0.0, 10.001215, 9.998858 
2.5732347e+3, 2.146291e+2, -815690.75, -967974.9, -131724.69, -0.107495986, 0.42631507, -739684.8, 96990.55, 0.0, 10.000691, 9.998733 
2.5728917e+3, 2.246223e+2, -593823.75, -628118.1, 12559.633, -0.1566202, 0.3812507, -589716.06, 149020.38, 0.0, 10.000788, 10.000321 
2.572553e+3, 2.3461597e+2, -391398.56, -501319.66, 27654.742, -0.050532266, 0.27729112, -384833.13, 255955.22, 0.0, 10.001598, 10.000132 
2.5722137e+3, 2.4460876e+2, -430217.34, -727317.0, -15493.516, 0.11361748, 0.24356264, -429411.56, 113444.32, 0.0, 10.001777, 9.997822 
2.5718743e+3, 2.5460044e+2, -436537.2, -719252.75, 3430.8362, 0.35126194, 0.20682648, -436495.56, 8446.472, 0.0, 10.001216, 9.997482 
2.5715333e+3, 2.6459247e+2, -305225.9, -526975.94, 87808.18, 0.38534942, 0.22117859, -274667.03, 72353.62, 0.0, 10.001117, 9.998174 
2.5711906e+3, 2.7458504e+2, -162835.84, -437861.34, 166586.45, 0.18387306, 0.24204066, -84337.484, 164752.7, 0.0, 10.001554, 9.99791 
2.5708482e+3, 2.8457713e+2, -88423.414, -378859.0, 155261.4, 0.069176435, 0.27627772, -21051.67, 130119.85, 0.0, 10.001495, 9.997661 
2.570506e+3, 2.9456943e+2, -130928.88, -396394.1, 188579.38, 0.10774468, 0.32614496, -33053.32, 20204.523, 0.0, 10.000731, 9.997241 
2.5701684e+3, 3.0456376e+2, -37233.242, -194444.25, 145767.73, 0.6128002, 0.5864719, 49772.42, 49772.42, 0.0, 10.000458, 9.9984455 
2.5698197e+3, 3.145524e+2, 353373.4, 491263.44, 2389.1375, 0.09849476, 0.17098501, 491304.84, 491304.84, 0.0, 10.000966, 10.002907 
2.5863087e+3, 1.2502415e+2, -1832391.0, -1734739.3, 9154.092, -0.0775315, -0.042337414, -1733888.5, -19117.186, 0.21372975, 9.998951, 10.000337 
2.5859696e+3, 1.3502105e+2, -1664260.1, -1595371.0, -50055.26, 0.026195433, 0.095963754, -1569054.1, 47751.996, 0.14603175, 9.999424, 10.000458 
2.5856268e+3, 1.4501694e+2, -1615466.3, -1631444.5, -159034.08, -0.08486711, 0.27538157, -1464220.8, 54631.715, 0.080827504, 9.999622, 9.99939 
2.5852847e+3, 1.5501189e+2, -1494150.0, -1556619.0, -147561.92, 0.017101914, 0.36549908, -1374553.1, 46357.668, 0.032553293, 9.999924, 9.999081 
2.584943e+3, 1.6500556e+2, -1302712.8, -1488413.1, -58224.01, 0.064090386, 0.44437757, -1285967.4, 37013.406, 0.007938516, 10.000928, 9.998363 
2.584601e+3, 1.7499797e+2, -1019087.25, -1339404.3, -58106.297, 0.03141473, 0.39617333, -1008872.4, 216189.58, 0.00076767127, 10.002349, 9.998042 
2.58426e+3, 1.8499118e+2, -815554.8, -1016067.7, -5611.581, 0.07990186, 0.42259836, -815397.9, 311731.16, 0.000005913737, 10.002327, 9.999598 
2.58392e+3, 1.9498545e+2, -973962.2, -1073038.6, 48932.816, 0.18349214, 0.44053465, -953869.56, 75311.39, 0.0, 10.0007, 9.999324 
2.583577e+3, 2.0497917e+2, -995169.75, -1150901.9, -60090.766, 0.15368246, 0.52986234, -974679.2, -43436.75, 0.0, 10.000376, 9.998277 
2.5832307e+3, 2.1497233e+2, -807042.5, -1031373.56, -59318.05, -0.03954444, 0.5731012, -792323.25, 40990.234, 0.0, 10.001081, 9.998089 
2.582888e+3, 2.2496451e+2, -578433.94, -680547.94, 81264.836, -0.08164593, 0.49153617, -533518.06, 201867.72, 0.0, 10.001175, 9.99978 
2.5825495e+3, 2.3495582e+2, -565952.5, -642040.4, 22776.205, 0.039446466, 0.19927448, -559655.75, 77801.74, 0.0, 10.000667, 9.999619 
2.5822103e+3, 2.4494886e+2, -528902.3, -712138.9, -73362.94, 0.20947096, 0.19036053, -503149.25, 36373.18, 0.0, 10.00085, 9.998365 
2.5818703e+3, 2.5494364e+2, -374738.9, -617513.9, -36277.637, 0.40282825, 0.38369274, -369433.9, 72147.67, 0.0, 10.001364, 9.998099 
2.581529e+3, 2.649369e+2, -155780.5, -287594.4, 32378.072, 0.3879005, 0.41310334, -148256.77, 195390.89, 0.0, 10.001437, 9.999659 
2.581186e+3, 2.7492878e+2, -124078.1, -245430.03, 71294.96, 0.1390139, 0.19310755, -91134.92, 154584.06, 0.0, 10.001088, 9.999444 
2.5808436e+3, 2.8492177e+2, -127134.445, -310768.1, 3731.2715, 0.05169206, 0.18990889, -127058.66, 20732.42, 0.0, 10.000864, 9.998436 
2.580501e+3, 2.949159e+2, -99189.96, -289660.13, 60603.176, 0.1280436, 0.32661906, -81542.516, -31678.922, 0.0, 10.000565, 9.998058 
2.5801608e+3, 3.0491182e+2, -19830.969, -217897.06, 67092.555, 0.3667488, 0.7077918, 756.02997, 756.02997, 0.0, 10.000745, 9.998135 
2.579815e+3, 3.1490514e+2, 350774.88, 297854.84, 2942.8035, 0.107102126, 0.79704595, 350938.0, 350938.0, 0.0, 10.0018015, 10.001172 
2.5963014e+3, 1.2536308e+2, -1863512.0, -1849437.3, -884.43634, -0.1585713, -0.15003914, -1849381.9, -137942.7, 0.19076674, 9.999176, 9.999453 
2.5959623e+3, 1.353579e+2, -1712755.5, -1737259.9, -23540.863, -0.08317797, -0.077209644, -1698469.3, -84967.61, 0.12932399, 9.9995985, 9.999376 
2.5956208e+3, 1.4535274e+2, -1531885.8, -1497029.9, -124452.31, -0.07166264, 0.009338853, -1388791.1, 126767.71, 0.07062259, 9.999792, 10.000254 
2.5952798e+3, 1.5534826e+2, -1402820.1, -1425903.0, -105800.56, 0.07993082, 0.09111304, -1307933.4, 109672.54, 0.027766839, 10.000175, 9.999861 
2.5949377e+3, 1.6534413e+2, -1228045.3, -1414920.3, 13965.074, 0.016197281, 0.33815184, -1227007.5, 92648.805, 0.0064744665, 10.001255, 9.998716 
2.5945958e+3, 1.7534022e+2, -914685.56, -1240179.3, 17819.576, -0.20759822, 0.6390066, -913712.9, 307997.06, 0.0005723583, 10.002816, 9.998512 
2.5942552e+3, 1.8533418e+2, -661554.94, -770953.56, -48745.62, -0.1120864, 0.6359975, -642986.6, 480782.1, 0.0000035552432, 10.002621, 10.001151 
2.5939158e+3, 1.9532663e+2, -841628.44, -850350.44, 6875.095, 0.23749027, 0.336275, -837847.9, 187981.45, 0.0, 10.000888, 10.000776 
2.5935736e+3, 2.0531979e+2, -935529.7, -1084310.3, -2169.6287, 0.32723767, 0.283727, -935498.0, -7605.6196, 0.0, 10.000613, 9.998623 
2.5932288e+3, 2.1531348e+2, -718376.06, -969060.8, 7248.6875, 0.20617762, 0.37074107, -718166.6, 111791.73, 0.0, 10.001574, 9.998298 
2.592886e+3, 2.2530486e+2, -655146.6, -934827.5, 75658.61, 0.14555536, 0.3008515, -635991.56, 96050.32, 0.0, 10.001576, 9.997835 
2.5925454e+3, 2.3529437e+2, -689121.44, -920548.75, -993.5336, 0.1402985, 0.037410185, -689117.1, -54978.46, 0.0, 10.000739, 9.997672 
2.5922048e+3, 2.452877e+2, -456366.63, -568270.2, -38354.79, 0.1502409, 0.10162287, -444482.63, 91721.805, 0.0, 10.000855, 9.999352 
2.591864e+3, 2.5528437e+2, -247730.52, -450427.22, -4512.8364, 0.18477306, 0.3978668, -247630.1, 190613.66, 0.0, 10.001756, 9.99906 
2.591523e+3, 2.6527837e+2, -106717.805, -281272.56, -6836.1377, 0.18306172, 0.46095216, -106450.49, 233852.7, 0.0, 10.001846, 9.999495 
2.5911814e+3, 2.7527022e+2, -127835.88, -268434.9, -20853.396, 0.15690777, 0.26006636, -124808.15, 117570.34, 0.0, 10.001137, 9.999257 
2.59084e+3, 2.8526372e+2, -76113.164, -164879.64, -90580.62, 0.20386371, 0.25534752, -19626.584, 124816.81, 0.0, 10.000706, 9.999505 
2.5904974e+3, 2.952586e+2, -31573.791, -133356.58, -51348.45, 0.27568948, 0.3646433, -10169.976, 36330.023, 0.0, 10.000505, 9.999155 
2.5901553e+3, 3.0525237e+2, 97084.59, -170446.72, 14674.806, 0.281184, 0.46867236, 97887.14, 97887.14, 0.0, 10.001584, 9.998051 
2.5898153e+3, 3.152452e+2, 628693.8, 529136.5, 176882.98, 0.40348205, 0.5171275, 762669.06, 762669.06, 0.0, 10.003269, 10.002058 
2.606298e+3, 1.2570252e+2, -1862548.6, -1877116.6, -39367.76, 0.15742517, -0.100967236, -1829796.6, -121677.484, 0.16949081, 9.999347, 9.999177 
2.6059553e+3, 1.3569856e+2, -1605057.5, -1677705.6, -5689.503, -0.20834374, 0.066444844, -1604614.6, 5555.196, 0.11391108, 10.000357, 9.999402 
2.605614e+3, 1.456932e+2, -1383087.9, -1383423.6, -86529.41, -0.19289638, 0.11069286, -1296726.1, 215498.48, 0.061296463, 10.00066, 10.000628 
2.605275e+3, 1.556873e+2, -1345215.6, -1378046.5, -86595.74, 0.13507648, 0.008790462, -1273493.3, 140784.6, 0.023481611, 10.000471, 10.000058 
2.6049334e+3, 1.6568299e+2, -1455809.9, -1482794.1, 26188.713, 0.09275239, 0.21065378, -1439842.1, -123514.24, 0.005220199, 9.999512, 9.999096 
2.6045904e+3, 1.7567992e+2, -1600353.6, -1532512.8, 29543.883, -0.2086775, 0.55487734, -1521450.5, -303075.3, 0.00041937284, 9.997956, 9.998854 
2.6042494e+3, 1.8567434e+2, -1313625.4, -1037575.4, -95468.48, -0.13036051, 0.55624664, -1007775.7, 112653.39, 0.0000020172258, 9.997946, 10.00157 
2.60391e+3, 1.9566676e+2, -1148658.8, -968569.44, -119710.11, 0.23610035, 0.19382583, -908819.06, 113669.07, 0.0, 9.998656, 10.001043 
2.6035684e+3, 2.0566022e+2, -1060308.9, -1135774.3, -98501.74, 0.37221217, 0.14728203, -992560.06, -68011.11, 0.0, 9.99975, 9.998678 
2.6032254e+3, 2.1565448e+2, -831797.4, -1031772.7, -93442.9, 0.32406664, 0.26719856, -794930.7, 31680.398, 0.0, 10.000868, 9.998202 
2.6028827e+3, 2.256459e+2, -800992.44, -1092255.3, -28307.994, 0.24852666, 0.24001865, -798266.6, -69570.46, 0.0, 10.000976, 9.997036 
2.6025403e+3, 2.3563506e+2, -855703.6, -1091203.1, 24334.842, 0.14713597, 0.013665774, -853215.3, -222414.84, 0.0, 10.000012, 9.996843 
2.6021984e+3, 2.456283e+2, -631876.2, -606309.6, 51756.313, 0.06678922, 0.09478719, -565781.3, -32912.83, 0.0, 9.99948, 9.999748 
2.6018572e+3, 2.556251e+2, -611507.75, -581292.06, 37701.227, -0.014452323, 0.36060095, -555784.25, -120879.25, 0.0, 9.999084, 9.99945 
2.6015165e+3, 2.6561952e+2, -483174.63, -463359.75, 7412.5874, 0.0150946835, 0.44393033, -460893.7, -123932.79, 0.0, 9.99929, 9.9994755 
2.6011765e+3, 2.7561188e+2, -377598.66, -400222.72, 49443.164, 0.15811029, 0.30138212, -338190.0, -99156.41, 0.0, 9.9994955, 9.999148 
2.6008356e+3, 2.856055e+2, -120393.07, -116290.65, -12730.357, 0.3138886, 0.2956189, -105447.305, 35647.465, 0.0, 10.000102, 10.000136 
2.600493e+3, 2.9560038e+2, 43681.11, -48573.43, -4090.0684, 0.3493754, 0.34111458, 43862.086, 87006.586, 0.0, 10.000807, 9.999602 
2.60015e+3, 3.0559203e+2, 58927.27, -215405.02, 93711.875, 0.1796875, 0.2286946, 87882.97, 87882.97, 0.0, 10.001447, 9.997801 
2.5998095e+3, 3.1558022e+2, 20694.213, -275747.4, 3067.9229, 0.063810036, -0.16088624, 20725.959, 20725.959, 0.0, 10.001327, 9.997444 
2.616297e+3, 1.2604228e+2, -1651057.5, -1599881.3, 36029.5, 0.59948313, 0.029174903, -1581278.0, 123528.016, 0.14988099, 9.999992, 10.000907 
2.6159486e+3, 1.3604185e+2, -1511727.3, -1531918.3, 42081.46, -0.39509344, 0.4599847, -1478547.3, 128271.27, 0.09979579, 10.000582, 10.0003605 
2.6156068e+3, 1.4603661e+2, -1349745.4, -1336862.1, -73295.4, -0.4357796, 0.46198392, -1269725.9, 239139.3, 0.05285716, 10.000768, 10.0009 
2.6152703e+3, 1.5602829e+2, -1285751.6, -1325634.1, -71712.62, 0.17416368, 0.107725725, -1231259.3, 179674.02, 0.019694533, 10.000762, 10.000287 
2.614929e+3, 1.6602147e+2, -1392511.1, -1392111.9, -20260.793, 0.2801495, 0.021842187, -1372049.8, -59048.465, 0.004163879, 9.999676, 9.999638 
2.6145855e+3, 1.760158e+2, -1560084.0, -1460705.5, -8767.751, 0.057762314, 0.06195883, -1459937.9, -244869.88, 0.00030229846, 9.998, 9.999316 
2.614243e+3, 1.8601047e+2, -1370894.6, -1153339.4, -48760.543, 0.025278239, 0.106446415, -1142910.6, -25790.021, 0.0000010444409, 9.9979105, 10.000794 
2.6139018e+3, 1.9600517e+2, -1176102.6, -1077872.9, -77959.0, 0.14079425, 0.067683905, -1034847.2, -15682.283, 0.0, 9.998834, 10.00022 
2.6135606e+3, 2.0599988e+2, -1038719.3, -1132437.4, -61867.094, 0.18300004, 0.19054341, -1007968.44, -86747.26, 0.0, 9.999908, 9.998625 
2.6132193e+3, 2.1599476e+2, -790807.44, -999142.5, -72394.086, 0.17250554, 0.38464358, -768121.6, 55162.266, 0.0, 10.001079, 9.998315 
2.6128766e+3, 2.2598822e+2, -627209.4, -765019.0, -62835.035, 0.11146701, 0.43461084, -602861.25, 122487.305, 0.0, 10.001089, 9.999238 
2.6125336e+3, 2.3598064e+2, -694912.8, -797130.0, 26669.63, 0.03478233, 0.33330026, -688372.8, -60957.023, 0.0, 10.000142, 9.99881 
2.6121917e+3, 2.459729e+2, -732030.25, -745512.25, 63634.277, 0.019085946, 0.26901582, -674780.94, -145289.89, 0.0, 9.999174, 9.99894 
2.6118502e+3, 2.5596544e+2, -775589.2, -731681.44, 34394.45, 0.02444153, 0.21065459, -712831.5, -281263.88, 0.0, 9.998243, 9.998831 
2.61151e+3, 2.6595962e+2, -497621.47, -264662.97, 68597.914, 0.06757754, 0.20218389, -245964.22, 87657.414, 0.0, 9.998287, 10.0013275 
2.6111698e+3, 2.759548e+2, -356750.06, -215998.45, 140397.14, 0.18965004, 0.17587733, -129326.14, 106335.66, 0.0, 9.998864, 10.000725 
2.6108295e+3, 2.8594902e+2, -189553.69, -230399.53, 120786.81, 0.27822214, 0.20310867, -87475.39, 50243.117, 0.0, 9.999981, 9.999403 
2.6104876e+3, 2.9594287e+2, 86337.445, -99326.5, 93977.555, 0.2538359, 0.23269233, 125602.234, 165386.16, 0.0, 10.001413, 9.998958 
2.610145e+3, 3.0593675e+2, 90484.44, -72334.195, 140017.31, 0.10587712, 0.31681865, 171039.08, 171039.08, 0.0, 10.001096, 9.99895 
2.6098028e+3, 3.1592596e+2, 31615.186, -4534.3525, -19230.451, -0.013021539, -0.06909765, 39931.848, 39931.848, 0.0, 10.000257, 9.999807 
2.626289e+3, 1.2638596e+2, -1456342.4, -1561199.8, 85842.62, 0.26055843, 0.3257169, -1408184.3, 293262.53, 0.13183765, 10.0018835, 10.000239 
2.6259452e+3, 1.363823e+2, -1692529.3, -1667482.9, 12047.414, -0.13819642, 0.48836663, -1662628.8, -59140.727, 0.08692953, 9.999548, 9.999852 
2.6256037e+3, 1.4637655e+2, -1417018.8, -1315946.8, -38586.664, -0.20393106, 0.43175855, -1302899.6, 202636.53, 0.045284744, 10.000024, 10.001413 
2.6252645e+3, 1.5636909e+2, -1081362.8, -1196346.4, -27226.361, 0.057626348, 0.109874636, -1075241.8, 332351.4, 0.01638905, 10.002072, 10.00056 
2.6249233e+3, 1.6636206e+2, -1063135.5, -1262751.9, -76262.35, 0.20843744, 0.009122196, -1037334.7, 272327.25, 0.0032885466, 10.002072, 9.999378 
2.6245806e+3, 1.7635539e+2, -1203853.3, -1307314.4, -106129.92, 0.23727474, -0.03774723, -1137517.6, 74218.94, 0.00021471751, 10.000527, 9.999165 
2.6242378e+3, 1.8635002e+2, -984124.56, -925824.6, -23047.295, 0.16077715, -0.018271152, -917814.2, 195972.77, 0.00000047553752, 10.000422, 10.001137 
2.623895e+3, 1.9634557e+2, -889184.9, -938867.3, 40289.137, 0.04953112, -0.005189502, -866694.25, 149128.16, 0.0, 10.00085, 10.000189 
2.6235536e+3, 2.063407e+2, -927065.44, -1108005.6, 74332.53, 0.040481202, 0.18918537, -900445.1, 17432.922, 0.0, 10.000797, 9.99837 
2.6232132e+3, 2.1633558e+2, -947756.25, -1097421.6, 49083.19, 0.080323376, 0.41352352, -933095.4, -113150.25, 0.0, 10.000103, 9.998119 
2.6228708e+3, 2.2633006e+2, -699546.94, -676764.4, -47377.402, 0.04073327, 0.51847994, -639428.06, 82572.66, 0.0, 10.0001, 10.000306 
2.6225272e+3, 2.3632436e+2, -675695.94, -694695.7, -66530.04, -0.044165887, 0.4863547, -617990.94, 6057.495, 0.0, 9.999905, 9.999627 
2.6221848e+3, 2.4631624e+2, -658451.44, -748706.5, -29376.033, -0.014333604, 0.35715833, -649732.5, -123607.34, 0.0, 9.999859, 9.998578 
2.6218435e+3, 2.5630647e+2, -636644.4, -702040.3, 23624.797, 0.06038494, 0.09124961, -629002.7, -200780.88, 0.0, 9.999365, 9.998494 
2.6215035e+3, 2.6630056e+2, -216397.39, -36016.613, 48240.54, 0.11542334, 0.039300866, -23925.744, 306348.5, 0.0, 9.999832, 10.002152 
2.6211634e+3, 2.762974e+2, -67609.8, -17776.771, 6453.6143, 0.17298621, 0.07748539, -16954.564, 215341.2, 0.0, 10.000606, 10.00125 
2.6208228e+3, 2.8629196e+2, -144785.47, -273015.84, -23643.736, 0.15708987, 0.13531959, -140564.84, -6214.3354, 0.0, 10.000582, 9.998817 
2.6204813e+3, 2.962849e+2, -164002.83, -282218.03, 5334.789, 0.07028426, 0.11206444, -163762.58, -127334.06, 0.0, 9.999967, 9.998403 
2.6201406e+3, 3.062818e+2, 103728.52, 71305.58, -18875.092, 0.13101153, 0.45117614, 112398.39, 112398.39, 0.0, 10.000605, 10.000183 
2.6197985e+3, 3.1627458e+2, 286720.9, 84357.42, 382440.47, -0.021860931, 0.28506517, 581138.0, 581138.0, 0.0, 10.002151, 9.999531 
2.6362783e+3, 1.267315e+2, -1543445.1, -1787131.4, 15704.825, -0.47640958, 0.6906025, -1542437.1, 155627.1, 0.115285456, 10.002006, 9.998486 
2.6359454e+3, 1.3671991e+2, -1729392.3, -1818395.9, -19436.764, 0.45596024, 0.2399202, -1725332.8, -125152.61, 0.07524956, 9.999821, 9.998699 
2.6356032e+3, 1.4671366e+2, -1318190.1, -1161048.9, 61428.684, 0.3109587, 0.12011605, -1139885.8, 362347.38, 0.038529173, 10.000239, 10.002409 
2.635258e+3, 1.5670973e+2, -993270.9, -1075514.3, 52195.918, -0.26915723, 0.061798204, -967944.0, 436313.63, 0.013527696, 10.00233, 10.00127 
2.6349166e+3, 1.6670473e+2, -1085332.0, -1374909.5, -110613.266, -0.13539545, 0.19002388, -1047914.6, 258396.45, 0.0025719018, 10.002332, 9.998496 
2.6345766e+3, 1.7669927e+2, -1151212.4, -1311459.0, -123784.33, 0.3157295, 0.358183, -1083883.0, 124494.95, 0.00015054179, 10.000977, 9.998929 
2.6342335e+3, 1.8669376e+2, -779215.06, -603165.9, 19389.256, 0.2564921, 0.2538356, -601055.7, 509367.16, 0.0000001940375, 10.000866, 10.003136 
2.6338896e+3, 1.9668832e+2, -683051.6, -661615.44, 87371.76, -0.044935785, -0.013561697, -584306.8, 428149.3, 0.0, 10.001473, 10.001798 
2.6335487e+3, 2.066828e+2, -894708.7, -1117505.8, 78592.28, -0.0151586095, 0.068214186, -869775.4, 44738.97, 0.0, 10.001123, 9.998143 
2.6332086e+3, 2.1667726e+2, -942025.6, -1124773.4, 64678.67, 0.17618442, 0.28237253, -921450.8, -104865.55, 0.0, 10.000243, 9.997867 
2.632866e+3, 2.2667e+2, -791604.94, -885951.0, -9492.93, 0.13317196, 0.30924922, -790659.25, -71997.65, 0.0, 10.000153, 9.998854 
2.6325217e+3, 2.366621e+2, -656015.1, -783488.75, -67208.43, -0.015480684, 0.21009456, -627127.1, -6389.9854, 0.0, 10.000435, 9.99876 
2.6321796e+3, 2.4665576e+2, -462671.4, -477513.13, -40748.79, 0.023314258, 0.20315012, -428673.28, 94121.47, 0.0, 10.000426, 10.000169 
2.631839e+3, 2.5665003e+2, -441895.34, -489074.34, 45029.32, 0.16664863, 0.19428676, -414650.75, 10194.672, 0.0, 10.000177, 9.999556 
2.6314983e+3, 2.666433e+2, -266859.47, -393488.63, 78423.35, 0.13254023, 0.18535647, -229382.38, 97528.6, 0.0, 10.000897, 9.99919 
2.6311582e+3, 2.766366e+2, -20001.37, -249282.75, -64910.715, 0.028684251, 0.1642099, -2900.3096, 226077.89, 0.0, 10.002003, 9.998991 
2.630817e+3, 2.8663042e+2, -8677.647, -98518.03, -198559.0, 0.04780359, 0.17404012, 149978.94, 281018.06, 0.0, 10.001009, 9.9998255 
2.630475e+3, 2.966244e+2, -262691.28, -230212.81, -117681.48, 0.110228255, 0.15467517, -127655.41, -94556.586, 0.0, 9.9988365, 9.999313 
2.6301366e+3, 3.066197e+2, 106879.53, 32256.234, -394.54404, 0.27233687, 0.30570704, 106881.62, 106881.62, 0.0, 10.000787, 9.999833 
2.6298016e+3, 3.1661558e+2, 518772.0, 269811.63, 157723.81, 0.5405497, 0.48702815, 595219.94, 595219.94, 0.0, 10.003425, 10.000177 
2.646274e+3, 1.270727e+2, -1556848.5, -1758546.1, -30339.666, -0.53016686, 0.5575278, -1552383.6, 142331.14, 0.10016817, 10.001766, 9.998792 
2.6459405e+3, 1.3706166e+2, -1686892.6, -1787127.1, 54126.19, 0.55619156, 0.13564824, -1663244.1, -66421.75, 0.06469218, 10.0001335, 9.99874 
2.6455978e+3, 1.4705528e+2, -1507997.1, -1325511.4, 186616.89, 0.36202326, 0.04866556, -1209025.8, 289854.03, 0.03253055, 9.999266, 10.001687 
2.6452512e+3, 1.5705124e+2, -1599480.6, -1432178.8, 69460.516, -0.41817892, 0.043809105, -1407099.5, -6187.906, 0.011066901, 9.998445, 10.00065 
2.6449105e+3, 1.6704714e+2, -1458773.1, -1504995.3, -61240.313, -0.21582088, 0.26304257, -1416428.1, -113471.16, 0.0019930317, 9.99958, 9.998914 
2.644573e+3, 1.7704299e+2, -1158757.4, -1324890.1, 5252.0776, 0.4266088, 0.53053284, -1158591.5, 46418.145, 0.00010503105, 10.001006, 9.9988165 
2.6442298e+3, 1.870361e+2, -870330.94, -809484.56, -13782.568, 0.3393184, 0.3836224, -806508.25, 300560.53, 0.00000008640195, 10.000946, 10.001673 
2.6438844e+3, 1.9702832e+2, -999569.06, -942470.9, -213696.5, -0.076575115, -0.0075488845, -755424.9, 253701.8, 0.0, 9.999882, 10.000634 
2.6435426e+3, 2.0702262e+2, -1073740.1, -1124287.4, -251263.42, -0.052118383, 0.03519022, -846482.44, 64700.957, 0.0, 9.99959, 9.998823 
2.6432028e+3, 2.1701774e+2, -1077593.0, -1157068.5, -163173.38, 0.18467803, 0.22134748, -949388.44, -136145.89, 0.0, 9.999213, 9.998136 
2.6428607e+3, 2.2700997e+2, -830814.6, -980982.94, -102439.68, 0.17647149, 0.20720753, -778888.9, -63564.504, 0.0, 10.000217, 9.99817 
2.6425174e+3, 2.3700097e+2, -595534.44, -818942.8, -78167.95, 0.034212954, 0.053792477, -570900.56, 46514.313, 0.0, 10.001147, 9.99818 
2.642175e+3, 2.469957e+2, -315741.6, -307724.13, -117452.95, 0.06583911, 0.1199574, -194211.5, 325249.0, 0.0, 10.00104, 10.001034 
2.6418334e+3, 2.5699222e+2, -475562.88, -485158.3, -91281.3, 0.1803333, 0.24303894, -388953.3, 32531.234, 0.0, 9.999882, 9.999733 
2.6414928e+3, 2.6698488e+2, -645381.1, -809344.56, 43385.37, 0.086711176, 0.27667534, -634608.94, -311049.16, 0.0, 9.999328, 9.997076 
2.6411524e+3, 2.769756e+2, -621874.7, -748216.44, 27312.357, -0.10966264, 0.20433211, -616223.2, -390562.9, 0.0, 9.99878, 9.997117 
2.6408112e+3, 2.8696874e+2, -164656.23, -101564.64, -179878.31, 0.0008490776, 0.19418366, 49513.07, 177239.67, 0.0, 9.999666, 10.00043 
2.640469e+3, 2.9696348e+2, 12472.067, -52305.293, -124102.484, 0.16265862, 0.18812849, 108342.71, 138114.92, 0.0, 10.000556, 9.9997015 
2.640132e+3, 3.069561e+2, 104204.17, -24464.549, 112782.35, 0.27157533, 0.08073029, 169711.13, 169711.13, 0.0, 10.001021, 9.999322 
2.6397935e+3, 3.1694627e+2, -25217.162, -178448.56, 105426.27, -0.021088118, -0.2572134, 28492.363, 28492.363, 0.0, 10.000491, 9.998513 
2.6562724e+3, 1.274119e+2, -1466468.3, -1551782.4, -77542.234, -0.3065751, 0.14331368, -1420624.4, 270754.7, 0.08642778, 10.00165, 10.000366 
2.655932e+3, 1.374066e+2, -1568212.8, -1635029.6, 20004.031, 0.23854183, 0.15874995, -1562681.6, 30745.434, 0.055199016, 10.000519, 9.999612 
2.6555887e+3, 1.4739992e+2, -1614155.9, -1591793.6, 174306.38, 0.06663843, 0.1301939, -1428310.1, 67182.49, 0.027235191, 9.999486, 9.999709 
2.6552448e+3, 1.5739307e+2, -1623817.6, -1557188.8, 81964.83, -0.3853915, 0.043136925, -1502026.8, -104465.69, 0.0089680515, 9.99875, 9.999644 
2.654906e+3, 1.6738915e+2, -1297280.4, -1216582.1, 28762.93, -0.06576982, 0.20922562, -1207379.6, 92221.125, 0.0015322798, 9.999803, 10.000782 
2.6545694e+3, 1.7738609e+2, -1075700.0, -1265069.9, 80954.45, 0.5447187, 0.4371493, -1045810.25, 155822.97, 0.00007382683, 10.001466, 9.999013 
2.654226e+3, 1.8737596e+2, -1254278.4, -1663871.1, -46481.58, 0.42290926, 0.32472974, -1249069.9, -145333.69, 0.000000036839044, 10.001174, 9.99571 
2.6538795e+3, 1.9736353e+2, -1247641.5, -1498646.6, -271635.78, -0.0004405301, 0.048528604, -1073916.9, -68056.43, 0.0, 10.000037, 9.996743 
2.6535365e+3, 2.0735812e+2, -911235.75, -787586.0, -288896.84, -0.074181266, 0.12544699, -553972.75, 353939.72, 0.0, 9.999589, 10.001133 
2.653195e+3, 2.1735553e+2, -884237.94, -821282.75, -182686.7, 0.01590848, 0.3184339, -667381.6, 142555.11, 0.0, 9.999471, 10.0003195 
2.652855e+3, 2.2734995e+2, -685692.6, -743590.1, -58810.773, 0.13400644, 0.3467535, -649091.9, 62900.043, 0.0, 10.000481, 9.999679 
2.6525155e+3, 2.37343e+2, -409867.6, -622733.2, -35901.875, 0.24462643, 0.2616671, -403975.47, 210085.47, 0.0, 10.001919, 9.999169 
2.6521713e+3, 2.473357e+2, -336331.0, -463779.78, -162838.73, 0.12986141, 0.16768824, -225191.88, 290935.72, 0.0, 10.001499, 9.999757 
2.6518255e+3, 2.5732872e+2, -467630.6, -533816.5, -173844.61, -0.050326344, 0.062274348, -323757.2, 94431.695, 0.0, 10.000133, 9.99928 
2.6514846e+3, 2.673225e+2, -605844.44, -552962.6, -13858.928, -0.024251806, 0.09664879, -549550.7, -229303.84, 0.0, 9.998575, 9.99919 
2.6511464e+3, 2.7731633e+2, -771114.8, -672599.5, 71678.58, 0.11607145, 0.14560121, -634885.1, -412577.78, 0.0, 9.997098, 9.99845 
2.650806e+3, 2.873084e+2, -358842.88, -410731.75, 1095.5217, 0.16546914, 0.094960004, -358819.75, -234432.92, 0.0, 9.999233, 9.998527 
2.6504645e+3, 2.973004e+2, 221352.55, -85133.96, -52207.61, 0.09521821, 0.00532671, 230001.64, 256468.19, 0.0, 10.002559, 9.998499 
2.6501268e+3, 3.0729336e+2, 97348.37, 18973.104, 2450.1401, 0.2171114, -0.05210122, 97424.89, 97424.89, 0.0, 10.000786, 9.999726 
2.6497862e+3, 3.1728846e+2, -406577.6, -329402.1, 168575.11, -0.046709355, 0.08461162, -195054.64, -195054.64, 0.0, 9.997714, 9.998827 
2.6662663e+3, 1.2775263e+2, -1706032.8, -1716275.9, -156381.77, -0.38311988, 0.03068701, -1554688.8, 133343.36, 0.07399762, 10.000119, 9.999908 
2.6659265e+3, 1.3774799e+2, -1356860.3, -1607596.0, -181317.05, 0.1432105, 0.1297959, -1261789.9, 328287.6, 0.046710875, 10.002373, 9.998933 
2.665583e+3, 1.4774138e+2, -1383021.1, -1570761.4, -71646.734, -0.005456987, 0.16262344, -1358803.0, 133342.39, 0.022592422, 10.001491, 9.998879 
2.6652384e+3, 1.5773426e+2, -1588011.6, -1609867.9, -79077.414, -0.33135545, 0.112593874, -1519110.8, -124891.445, 0.0071954923, 9.99931, 9.999021 
2.6649004e+3, 1.6772985e+2, -1352745.1, -1178803.8, -101008.65, -0.007844983, 0.19891481, -1132482.9, 163777.67, 0.001170623, 9.9991455, 10.001351 
2.6645643e+3, 1.7772631e+2, -1405369.4, -1440667.4, -123863.81, 0.5297189, 0.30322552, -1297903.5, -99612.055, 0.00005271245, 9.999308, 9.998839 
2.6642203e+3, 1.8771562e+2, -1477094.3, -1951496.8, -41110.844, 0.37803826, 0.22996274, -1473558.0, -373154.53, 0.000000014947995, 10.00046, 9.994076 
2.6638743e+3, 1.9770242e+2, -1182310.0, -1612059.6, 54245.41, -0.012011111, 0.062076557, -1175568.5, -173024.5, 0.0, 10.001155, 9.9954195 
2.6635307e+3, 2.0769653e+2, -677346.3, -632191.7, -2859.5767, -0.08311921, 0.13832171, -632011.4, 272589.22, 0.0, 10.001029, 10.001494 
2.6631883e+3, 2.1769378e+2, -777660.06, -729772.75, -57209.7, -0.036952052, 0.28885794, -691698.3, 114923.234, 0.0, 10.000061, 10.000658 
2.6628494e+3, 2.2768922e+2, -760979.6, -688749.4, -65.16702, 0.12934802, 0.36220062, -688749.3, 19915.184, 0.0, 9.999601, 10.000458 
2.6625118e+3, 2.3768379e+2, -823435.44, -794616.56, -57388.703, 0.3367487, 0.34586346, -749855.94, -139138.05, 0.0, 9.999006, 9.999381 
2.6621664e+3, 2.4767548e+2, -618131.44, -722464.5, -209121.77, 0.14917943, 0.2068946, -454767.8, 58029.66, 0.0, 10.000128, 9.998626 
2.661819e+3, 2.5766626e+2, -376617.44, -554615.2, -194030.34, -0.19963162, -0.022897784, -252148.33, 162736.23, 0.0, 10.001064, 9.998689 
2.661478e+3, 2.676606e+2, -146877.69, -141613.95, -112813.78, -0.05444774, -0.022709053, -31401.334, 285529.16, 0.0, 10.000908, 10.000902 
2.6611403e+3, 2.7765635e+2, -328039.5, -377391.7, -42239.473, 0.30158043, 0.042471748, -303796.44, -84834.73, 0.0, 9.999811, 9.999174 
2.6608014e+3, 2.876476e+2, -349959.2, -615234.4, 8730.935, 0.2744896, -0.005568265, -349672.16, -228619.94, 0.0, 10.000203, 9.996655 
2.6604602e+3, 2.9763746e+2, -142409.44, -418228.56, -47856.234, -0.0075287097, -0.13730448, -134342.06, -111180.17, 0.0, 10.000744, 9.997097 
2.6601216e+3, 3.076315e+2, 58493.766, 37908.47, -155132.02, 0.18969765, -0.06743725, 203674.2, 203674.2, 0.0, 10.000358, 10.000065 
2.659782e+3, 3.1763038e+2, -106415.83, -103501.9, 193282.4, 0.23978768, 0.3998405, 88329.04, 88329.04, 0.0, 9.99943, 9.999562 
2.6762587e+3, 1.2809342e+2, -1799359.8, -1926135.8, -54902.51, -0.6438324, 0.038901698, -1778888.8, -94201.41, 0.06277667, 10.000192, 9.998385 
2.6759237e+3, 1.3808617e+2, -1413852.5, -1739690.5, -107072.43, 0.19248852, 0.039912947, -1381817.4, 204949.78, 0.039144795, 10.002384, 9.998009 
2.6755792e+3, 1.4808017e+2, -1371955.6, -1538155.8, -116081.28, 0.06464243, 0.15323474, -1312295.5, 176535.22, 0.01854302, 10.001459, 9.999117 
2.6752326e+3, 1.5807451e+2, -1536655.8, -1570859.3, -99037.15, -0.29706606, 0.23912063, -1453254.6, -62365.438, 0.005710628, 9.999583, 9.999157 
2.6748934e+3, 1.6806856e+2, -1366885.5, -1252666.0, -72317.94, -0.06855429, 0.20524989, -1217626.9, 75316.52, 0.0008890518, 9.999331, 10.000751 
2.6745558e+3, 1.7806266e+2, -1292638.3, -1292888.4, -92614.766, 0.3148057, 0.12214016, -1200148.5, -5153.5625, 0.000037964888, 9.999664, 9.999671 
2.674213e+3, 1.880553e+2, -1132760.5, -1299502.8, 30276.033, 0.16545238, 0.08173814, -1127433.4, -30367.383, 0.0000000057994387, 10.000717, 9.998427 
2.6738688e+3, 1.9804725e+2, -908728.25, -1201850.6, 145641.61, -0.1476761, 0.03022469, -848669.9, 150476.44, 0.0, 10.001803, 9.997923 
2.673527e+3, 2.0803943e+2, -810330.56, -1015522.0, 33593.07, -0.03118464, 0.012054062, -804970.8, 96253.48, 0.0, 10.001472, 9.998657 
2.6731852e+3, 2.1803217e+2, -833559.4, -990272.5, -41810.715, 0.19366567, -0.0036268148, -823102.2, -19805.918, 0.0, 10.000634, 9.998602 
2.6728436e+3, 2.2802621e+2, -817100.8, -804014.9, -15588.467, 0.19487618, 0.054656737, -793651.9, -88296.59, 0.0, 9.999557, 9.999705 
2.6725027e+3, 2.3802072e+2, -930010.7, -904971.7, -61179.816, 0.15590629, 0.116691336, -855043.56, -247633.47, 0.0, 9.998492, 9.9988785 
2.6721606e+3, 2.4801448e+2, -663398.06, -779763.8, -125978.35, 0.15844704, 0.22357614, -582815.7, -73339.94, 0.0, 9.999948, 9.998329 
2.671818e+3, 2.5800776e+2, -233696.06, -504293.6, -127721.586, 0.14829606, 0.28366157, -182934.19, 228611.53, 0.0, 10.002083, 9.998557 
2.6714766e+3, 2.679995e+2, 49914.6, -94800.08, -136778.6, 0.1810078, 0.055412713, 132295.64, 445907.34, 0.0, 10.002433, 10.000505 
2.671136e+3, 2.7799127e+2, -24966.514, -259739.33, -117773.05, 0.29754448, -0.23639923, 23930.146, 239603.69, 0.0, 10.001992, 9.99893 
2.6707968e+3, 2.8798443e+2, -270355.34, -600116.9, -67176.086, 0.3262389, -0.07509135, -257195.98, -139444.2, 0.0, 10.000845, 9.996466 
2.6704562e+3, 2.979779e+2, -313497.34, -493680.3, -76953.56, 0.21479884, 0.18066464, -285105.38, -265269.97, 0.0, 9.999506, 9.99719 
2.6701146e+3, 3.079728e+2, 97621.445, 88990.81, -116683.125, 0.05970555, 0.31245315, 210069.03, 210069.03, 0.0, 10.000495, 10.000341 
2.669777e+3, 3.1796607e+2, 154947.45, -68163.66, 154736.83, 0.21486557, 0.21496838, 234148.61, 234148.61, 0.0, 10.001592, 9.998755 
2.686254e+3, 1.2843446e+2, -1892354.5, -1977835.1, 70246.83, -0.48510596, -0.03509455, -1852867.4, -171531.2, 0.05266761, 9.999569, 9.998333 
2.6859203e+3, 1.3842733e+2, -1630902.0, -1838389.0, 46355.32, 0.27776805, -0.027339315, -1621016.6, -37599.668, 0.032421984, 10.000827, 9.99806 
2.6855755e+3, 1.4842166e+2, -1449561.3, -1529040.8, 13370.758, 0.16921408, 0.09493535, -1447372.3, 38105.39, 0.015032093, 10.000674, 9.9995575 
2.6852286e+3, 1.5841632e+2, -1514790.4, -1574991.3, 73332.16, -0.11524028, 0.18563351, -1465621.4, -78088.29, 0.0044763535, 9.999801, 9.999027 
2.6848876e+3, 1.68409e+2, -1271155.4, -1333551.4, 132362.02, -0.04764644, 0.112163186, -1166364.4, 123238.125, 0.00066900725, 10.000539, 9.999621 
2.6845485e+3, 1.7840141e+2, -1101890.1, -1222617.9, 53142.43, 0.1127385, -0.033993427, -1081830.6, 109842.36, 0.000027210404, 10.001089, 9.999473 
2.6842067e+3, 1.8839604e+2, -1082062.8, -1024255.1, 14794.712, 0.048397534, -0.009142413, -1020688.75, 73032.98, 0.000000001728097, 10.000026, 10.000632 
2.683864e+3, 1.9839112e+2, -1365426.1, -1311529.0, -19104.84, -0.08404559, 0.03952199, -1305443.9, -309677.47, 0.0, 9.998218, 9.998901 
2.6835224e+3, 2.083825e+2, -1154397.9, -1334861.3, -41569.652, 0.039221358, -0.019523365, -1145282.8, -247429.06, 0.0, 9.999799, 9.997257 
2.683181e+3, 2.1837294e+2, -819602.0, -1124021.0, 729.19745, 0.23235905, -0.13131551, -819600.25, -19648.463, 0.0, 10.001375, 9.997322 
2.682838e+3, 2.2836594e+2, -552425.7, -728671.0, 43136.457, 0.15656269, -0.10003567, -542434.4, 159586.52, 0.0, 10.00164, 9.999207 
2.6824948e+3, 2.3835996e+2, -638212.94, -851147.06, 47556.34, 0.015953265, -0.026326433, -628074.5, -23994.637, 0.0, 10.00091, 9.998079 
2.6821554e+3, 2.483545e+2, -578571.9, -799025.5, 29771.51, 0.15851887, 0.2276299, -574622.1, -68479.87, 0.0, 10.000811, 9.997765 
2.6818165e+3, 2.583491e+2, -501434.16, -688789.75, -7314.006, 0.35904592, 0.47292706, -501149.06, -92944.86, 0.0, 10.0005245, 9.998026 
2.6814744e+3, 2.6833898e+2, -187887.2, -239348.2, -38640.492, 0.33391577, 0.09603532, -167194.16, 143091.11, 0.0, 10.000963, 10.000199 
2.681132e+3, 2.7832782e+2, -208403.97, -401483.28, -2242.7854, 0.27347553, -0.44732252, -208377.92, 3993.5042, 0.0, 10.000987, 9.998438 
2.6807922e+3, 2.8832257e+2, -304222.06, -611364.2, 15844.673, 0.3595876, -0.103509314, -303406.84, -188967.72, 0.0, 10.000594, 9.996494 
2.680452e+3, 2.9831925e+2, -311225.78, -503686.38, 39855.06, 0.36978295, 0.47626463, -303299.0, -286800.84, 0.0, 9.999587, 9.997079 
2.6801077e+3, 3.0831453e+2, 91670.24, 71992.73, 38110.688, -0.14975923, 0.6700559, 121191.69, 121191.69, 0.0, 10.000524, 10.000206 
2.679775e+3, 3.1829938e+2, -69534.664, -320848.7, 184678.23, 0.3837286, -0.23544869, 28181.857, 28181.857, 0.0, 10.000709, 9.997436 
2.696252e+3, 1.2877548e+2, -1724592.1, -1792749.0, 132400.11, -0.1513189, -0.20689648, -1621955.0, 56027.355, 0.043607555, 10.000264, 9.999267 
2.6959163e+3, 1.387703e+2, -1557124.8, -1679642.3, 85540.46, 0.3290168, -0.092146635, -1513170.4, 66871.17, 0.026483878, 10.0008135, 9.99915 
2.6955715e+3, 1.487649e+2, -1407537.4, -1424037.9, -45.145897, 0.30017206, -0.028627314, -1407537.3, 74561.11, 0.012009026, 10.000605, 10.000314 
2.6952255e+3, 1.5875925e+2, -1473570.6, -1557036.6, 89191.74, 0.17206085, -0.020229174, -1416831.3, -32674.793, 0.0034556554, 10.000078, 9.99901 
2.6948836e+3, 1.6875118e+2, -1338679.8, -1538771.4, 193772.77, 0.032721803, -0.06659103, -1220649.8, 65588.92, 0.00049606664, 10.00079, 9.998096 
2.6945424e+3, 1.787429e+2, -1105014.1, -1344312.8, 74882.96, -0.08889953, -0.1304939, -1083513.1, 104809.26, 0.00001910138, 10.001561, 9.998406 
2.6942012e+3, 1.8873745e+2, -1118792.6, -1112157.5, -44884.973, 0.076308094, -0.03417407, -1070467.6, 19908.816, 0.0000000002885943, 10.00007, 10.000005 
2.69386e+3, 1.987327e+2, -1340788.6, -1286399.3, -35274.87, 0.26776856, 0.08573028, -1269053.3, -276630.06, 0.0, 9.998288, 9.999042 
2.693517e+3, 2.0872588e+2, -1046301.25, -1137896.4, 62541.973, 0.09612696, 0.11872873, -1014581.6, -120088.93, 0.0, 9.999864, 9.998601 
2.6931736e+3, 2.1871859e+2, -631759.0, -907809.3, 92870.56, -0.11304465, 0.11117265, -603423.5, 193143.77, 0.0, 10.00209, 9.998458 
2.6928326e+3, 2.2871134e+2, -421698.03, -653884.75, 83763.71, -0.049013548, 0.07581108, -394634.03, 304000.53, 0.0, 10.002465, 9.99933 
2.6924917e+3, 2.3870425e+2, -452367.1, -774687.4, 87125.93, 0.07377051, 0.046066836, -430323.75, 170375.9, 0.0, 10.002219, 9.997969 
2.6921505e+3, 2.4869622e+2, -566088.44, -905903.7, 52151.52, 0.11816288, 0.12160874, -558264.9, -55480.227, 0.0, 10.001354, 9.996779 
2.691809e+3, 2.5868827e+2, -530736.0, -707006.4, 28329.783, 0.16831903, 0.20237173, -526294.8, -121424.78, 0.0, 10.000312, 9.998001 
2.691469e+3, 2.6868033e+2, -187198.47, -132095.56, 55600.41, 0.30312052, -0.018888324, -97594.72, 209339.8, 0.0, 10.000494, 10.001167 
2.6911288e+3, 2.786723e+2, -189226.8, -332402.38, 110133.71, 0.44989374, -0.3138708, -129459.164, 79537.08, 0.0, 10.000837, 9.99898 
2.6907873e+3, 2.8866583e+2, -303427.13, -604285.7, 107534.8, 0.3883649, -0.09924249, -268943.72, -157871.44, 0.0, 10.000561, 9.996548 
2.6904446e+3, 2.9866025e+2, -251533.2, -502437.3, 148315.38, 0.21814494, 0.26186156, -182728.55, -169582.0, 0.0, 10.000106, 9.996826 
2.6901016e+3, 3.0865446e+2, -4448.317, -136156.92, 168770.5, -0.23714098, 0.45957288, 110861.03, 110861.03, 0.0, 10.000545, 9.998783 
2.6897714e+3, 3.1864053e+2, 18641.555, -19707.064, 120569.25, 0.5347088, -0.22136897, 121551.63, 121551.63, 0.0, 10.000181, 9.99977 
2.7062517e+3, 1.2911822e+2, -1227281.0, -1545283.1, 90209.516, 0.16827473, -0.34457102, -1203473.3, 471141.44, 0.03553778, 10.003761, 9.999313 
2.7059087e+3, 1.3911347e+2, -1785006.6, -1848041.1, 30975.617, 0.14182654, -0.18736348, -1772333.0, -195663.56, 0.0212677, 9.9994755, 9.998659 
2.7055642e+3, 1.4910752e+2, -1710144.3, -1686350.6, -107264.08, 0.16432957, -0.094772585, -1590325.6, -111590.43, 0.009415013, 9.999056, 9.999258 
2.70522e+3, 1.591013e+2, -1646506.5, -1707068.8, -109413.3, 0.21600464, -0.059234437, -1563261.4, -182458.8, 0.0026133023, 9.999206, 9.998405 
2.7048784e+3, 1.6909368e+2, -1557252.0, -1616120.3, 83527.96, 0.090316355, -0.08035389, -1498123.9, -215243.98, 0.00036005196, 9.999207, 9.998307 
2.7045372e+3, 1.7908594e+2, -1499784.9, -1575750.8, 76698.125, -0.07592415, -0.10544634, -1452179.8, -267221.6, 0.000012952271, 9.999053, 9.998027 
2.704196e+3, 1.8907979e+2, -1009464.25, -1150997.4, -32953.508, 0.09484066, -0.017662965, -1002167.75, 84852.46, 0.000000000007316074, 10.001203, 9.9992 
2.7038553e+3, 1.9907415e+2, -739845.2, -1065033.9, -24607.244, 0.32085955, 0.09041501, -737993.6, 251083.69, 0.0, 10.002734, 9.998424 
2.7035117e+3, 2.0906797e+2, -757151.1, -973051.56, 2919.9343, 0.082485884, 0.18158129, -757111.6, 134030.77, 0.0, 10.001764, 9.998809 
2.703168e+3, 2.1906179e+2, -919625.0, -1037151.4, -60476.105, -0.24531251, 0.24940051, -894064.56, -100857.95, 0.0, 10.000106, 9.998527 
2.7028278e+3, 2.2905475e+2, -728335.9, -779322.2, -92455.805, -0.1235745, 0.19452664, -657922.94, 37346.12, 0.0, 10.000286, 9.999504 
2.7024877e+3, 2.390473e+2, -777380.8, -960196.4, -72785.95, 0.08487692, 0.1005143, -751941.8, -154607.69, 0.0, 10.000141, 9.997693 
2.7021453e+3, 2.4903741e+2, -747121.7, -1027535.8, -65930.82, 0.08518659, 0.005630355, -732393.6, -232959.98, 0.0, 10.000297, 9.996437 
2.7018026e+3, 2.590276e+2, -621591.3, -784039.7, -15331.92, 0.056463204, -0.07531557, -620156.94, -218622.64, 0.0, 9.999868, 9.997686 
2.701463e+3, 2.690219e+2, -266831.84, -153425.69, -37591.918, 0.2675102, -0.07887718, -142096.48, 161486.89, 0.0, 9.999894, 10.0013 
2.7011243e+3, 2.79017e+2, -368799.1, -400810.28, -61508.71, 0.50386685, -0.09654133, -321247.63, -115624.516, 0.0, 9.999555, 9.999128 
2.700782e+3, 2.8900912e+2, -245232.2, -518768.1, -14948.566, 0.36761227, -0.07740032, -244417.69, -136712.05, 0.0, 10.000724, 9.997059 
2.700438e+3, 2.9900098e+2, -91810.01, -461526.13, 110696.03, 0.05338617, -0.014474414, -61200.87, -51405.97, 0.0, 10.0013685, 9.996508 
2.700096e+3, 3.0899432e+2, -102943.125, -339757.78, 161461.66, -0.27456835, 0.1970216, -21125.17, -21125.17, 0.0, 10.0005665, 9.997371 
2.6997653e+3, 3.1898504e+2, 110986.5, 370725.16, -33551.48, 0.47567546, 0.027662385, 374989.13, 374989.13, 0.0, 9.999341, 10.002869 
2.7162525e+3, 1.2946202e+2, -1378668.8, -1653526.8, -93481.36, 0.41407758, -0.4632619, -1349888.5, 321350.6, 0.02840152, 10.002807, 9.99901 
2.7158982e+3, 1.3945664e+2, -1844988.9, -2014059.6, -49137.395, -0.2776773, -0.30233264, -1831745.4, -258443.97, 0.016710756, 9.999644, 9.9974375 
2.7155533e+3, 1.4944962e+2, -1838889.8, -2026186.6, -66559.35, -0.21598765, -0.101858, -1817646.3, -342260.0, 0.0071977535, 9.999371, 9.996778 
2.7152118e+3, 1.5944253e+2, -1615794.8, -1738232.8, -66484.61, 0.012436475, 0.05965709, -1586636.9, -209167.19, 0.0019202116, 9.9996, 9.998001 
2.7148727e+3, 1.6943653e+2, -1393031.0, -1313825.4, 98351.88, 0.14182906, 0.07123357, -1247402.4, 32123.764, 0.00025324232, 9.999365, 10.000311 
2.7145335e+3, 1.7943045e+2, -1387211.9, -1424136.3, 132937.63, 0.18300034, 0.04704023, -1271460.5, -89879.86, 0.000008369746, 9.999369, 9.998923 
2.7141914e+3, 1.8942297e+2, -1016493.56, -1248710.3, 88877.375, 0.048382934, 0.039738856, -986381.75, 97271.06, 0.0, 10.001544, 9.998371 
2.7138492e+3, 1.9941539e+2, -677647.6, -1158300.8, 19775.123, -0.06708397, 0.04745957, -676835.4, 308892.13, 0.0, 10.003681, 9.997327 
2.7135077e+3, 2.0940724e+2, -823096.7, -1208384.1, -75949.43, 0.035040785, 0.11249001, -808665.75, 79150.34, 0.0, 10.00219, 9.996995 
2.713166e+3, 2.1939936e+2, -951075.9, -1116528.4, -130091.945, 0.12532572, 0.17064938, -879634.9, -89733.6, 0.0, 10.000137, 9.997972 
2.7128235e+3, 2.2939302e+2, -742430.2, -724931.56, -111971.66, 0.06306985, 0.16546017, -621367.9, 70589.18, 0.0, 9.999908, 10.000072 
2.7124813e+3, 2.3938662e+2, -719824.56, -819119.0, -97992.71, 0.019062122, 0.11483887, -659620.0, -65608.76, 0.0, 10.0000105, 9.998726 
2.7121404e+3, 2.4937688e+2, -664062.06, -826626.2, -70324.45, 0.17444223, -0.092601396, -637862.5, -141758.89, 0.0, 10.000147, 9.997903 
2.7117994e+3, 2.593672e+2, -586391.4, -780378.94, -10360.92, 0.3358893, -0.26304364, -585839.56, -187641.69, 0.0, 10.000146, 9.997571 
2.7114567e+3, 2.6936215e+2, -501373.1, -605800.06, -95945.94, 0.25863835, 0.011036297, -444353.47, -144100.17, 0.0, 9.999724, 9.998284 
2.711115e+3, 2.7935773e+2, -412279.84, -438844.13, -138396.17, 0.20558615, 0.28158596, -286529.9, -84228.13, 0.0, 9.999325, 9.998964 
2.7107763e+3, 2.8934947e+2, 56672.92, 770.57465, -2608.8472, 0.29362622, 0.023184026, 56794.406, 161169.83, 0.0, 10.001197, 10.000393 
2.710437e+3, 2.993409e+2, 252344.1, -112467.14, 100608.53, 0.28043437, -0.24133123, 278250.47, 284702.34, 0.0, 10.002921, 9.998154 
2.710094e+3, 3.0933625e+2, -140584.2, -433804.8, 57235.54, -0.0051616724, 0.17139336, -129808.086, -129808.086, 0.0, 10.000629, 9.996688 
2.7097604e+3, 3.193255e+2, -19476.803, 154598.58, 70464.02, 0.68804365, -0.06596345, 179546.33, 179546.33, 0.0, 9.999119, 10.001468 
2.7262437e+3, 1.2980554e+2, -2192375.0, -1883942.6, -210238.67, 0.20994768, -0.33335456, -1777423.4, -109541.445, 0.02217613, 9.996465, 10.000482 
2.7258933e+3, 1.3980025e+2, -1642632.5, -1904991.8, -93441.34, -0.20644914, -0.28640667, -1612755.0, -42820.45, 0.012781011, 10.000972, 9.997553 
2.7255484e+3, 1.4979264e+2, -1353076.1, -1882481.5, 4767.1157, -0.24690303, -0.094767906, -1353033.1, 118989.586, 0.0053271013, 10.003099, 9.99596 
2.7252066e+3, 1.5978485e+2, -1017327.3, -1571257.9, 63111.703, -0.11817113, 0.08848891, -1010227.7, 363885.78, 0.0013580795, 10.004253, 9.99691 
2.7248684e+3, 1.6977766e+2, -776658.3, -1132189.6, 17798.61, 0.12059026, 0.09011773, -775769.5, 500413.78, 0.00016970174, 10.004118, 9.99927 
2.72453e+3, 1.7977095e+2, -874478.9, -1213459.3, -112666.47, 0.29741392, 0.06793323, -840448.4, 337796.5, 0.0000049540654, 10.0031, 9.998565 
2.7241874e+3, 1.8976378e+2, -932697.25, -1165454.0, -64315.668, 0.041449014, 0.046659704, -916107.9, 164202.48, 0.0, 10.001974, 9.998722 
2.7238443e+3, 1.9975613e+2, -1177008.8, -1462154.6, -75479.34, -0.2107935, 0.027689263, -1158261.5, -175878.81, 0.0, 10.000556, 9.996739 
2.7235034e+3, 2.0974652e+2, -1188431.0, -1505793.4, -140960.06, 0.051520992, 0.031031609, -1134863.6, -250375.92, 0.0, 10.000243, 9.99587 
2.7231625e+3, 2.1973732e+2, -1069865.6, -1219958.4, -100066.39, 0.3390989, 0.052300114, -1019831.06, -233242.45, 0.0, 9.999565, 9.997532 
2.722819e+3, 2.297318e+2, -665347.3, -625602.4, -37048.047, 0.17070581, 0.09779784, -603433.5, 85203.625, 0.0, 10.000202, 10.000597 
2.7224752e+3, 2.3972642e+2, -649977.3, -748846.4, -37027.93, -0.015539349, 0.109506465, -637647.44, -46965.785, 0.0, 10.000377, 9.999025 
2.722136e+3, 2.4971691e+2, -490850.94, -668722.5, -88583.79, 0.26537564, -0.13590364, -454261.2, 38508.402, 0.0, 10.001045, 9.998538 
2.7217963e+3, 2.5970745e+2, -497505.66, -820762.25, -104224.92, 0.53145087, -0.32925564, -466815.1, -71955.375, 0.0, 10.001146, 9.996815 
2.7214506e+3, 2.6970237e+2, -489495.28, -833461.06, -99195.42, 0.2135349, 0.09709857, -462938.9, -166015.22, 0.0, 10.000849, 9.996161 
2.7211058e+3, 2.7969772e+2, -331744.03, -419958.6, 8432.237, -0.09334693, 0.51995903, -330945.25, -131963.1, 0.0, 9.999989, 9.99878 
2.7207714e+3, 2.8968927e+2, 112026.52, 318332.22, 87828.49, 0.24768019, 0.06117618, 350657.6, 451705.34, 0.0, 10.000338, 10.002986 
2.720436e+3, 2.9968107e+2, -33571.035, -132476.92, 6072.7603, 0.4897346, -0.4011841, -33199.566, -30090.57, 0.0, 10.000472, 9.999194 
2.7200907e+3, 3.0967832e+2, -169338.8, -486649.6, -98977.41, 0.21596593, 0.18880972, -140996.7, -140996.7, 0.0, 10.000591, 9.996341 
2.7197552e+3, 3.1966388e+2, 2587.7263, -79818.84, 302057.75, 0.7320913, -0.3512809, 266239.47, 266239.47, 0.0, 10.0003395, 9.999268 
2.73623e+3, 1.3014899e+2, -1947903.8, -1495287.6, -35276.633, -0.2559461, -0.05359899, -1492554.8, 171979.95, 0.01683497, 9.99696, 10.002927 
2.7358928e+3, 1.40144e+2, -1499405.9, -1675353.5, 26638.748, 0.18251157, -0.18750432, -1495461.1, 71107.52, 0.009463045, 10.001262, 9.998988 
2.735548e+3, 1.5013616e+2, -1298012.1, -1792471.0, 69113.54, -0.052132007, -0.0928206, -1288533.4, 180116.17, 0.0037922803, 10.0032015, 9.996527 
2.735204e+3, 1.601275e+2, -1087118.1, -1776926.4, 97886.28, -0.25293592, 0.0010294302, -1073496.8, 297245.22, 0.0009170214, 10.004517, 9.995357 
2.7348655e+3, 1.7011654e+2, -1034265.5, -1699766.5, 18852.146, -0.0104094045, -0.03013204, -1033731.9, 239125.53, 0.0001065257, 10.004286, 9.995279 
2.7345273e+3, 1.8010652e+2, -844214.9, -1286771.8, -142224.02, 0.22515687, -0.058046293, -802449.94, 372510.56, 0.0000025959862, 10.003667, 9.9977865 
2.7341846e+3, 1.901013e+2, -757851.75, -857737.8, -115783.85, 0.13857403, -0.011496702, -681698.75, 395303.8, 0.0, 10.00217, 10.000766 
2.7338412e+3, 2.0009595e+2, -1078469.1, -1274970.4, -100264.51, 0.022837177, 0.02109148, -1036341.1, -57294.13, 0.0, 10.000599, 9.997997 
2.733498e+3, 2.1008563e+2, -1183938.4, -1477343.3, -125229.305, 0.10568783, -0.08978664, -1137757.5, -256600.2, 0.0, 10.000131, 9.996127 
2.7331552e+3, 2.2007574e+2, -950242.3, -1082784.5, -49571.31, 0.20566359, -0.16930428, -933753.6, -150489.7, 0.0, 10.000012, 9.998257 
2.7328134e+3, 2.3007157e+2, -578246.2, -523363.97, 26442.408, 0.14634499, -0.044803135, -512697.13, 172603.8, 0.0, 10.000532, 10.001141 
2.7324718e+3, 2.400675e+2, -583776.1, -775126.75, 19330.365, 0.10415548, 0.07833752, -581842.9, 5493.069, 0.0, 10.001063, 9.9985075 
2.7321327e+3, 2.5005817e+2, -511590.25, -870369.2, -59971.6, 0.33829555, 0.0052187406, -501831.16, -12402.055, 0.0, 10.001712, 9.996841 
2.7317926e+3, 2.6004863e+2, -319014.75, -684810.8, -125543.7, 0.5357257, -0.07746952, -280072.97, 111452.14, 0.0, 10.002135, 9.997268 
2.7314463e+3, 2.7004188e+2, -215364.14, -465011.1, -87912.88, 0.19415306, 0.018234044, -187512.88, 106080.984, 0.0, 10.001692, 9.998297 
2.7311012e+3, 2.8003553e+2, -161740.44, -300029.44, 79359.97, -0.06713519, 0.11282616, -125628.27, 70029.63, 0.0, 10.000944, 9.999157 
2.730767e+3, 2.900281e+2, -101782.164, -5764.094, 77847.734, 0.3902801, -0.0937263, 37687.996, 135408.83, 0.0, 9.999796, 10.001042 
2.7304313e+3, 3.0002117e+2, -277266.8, -270297.13, -42840.918, 0.6808201, -0.26962623, -230799.56, -230799.56, 0.0, 9.99889, 9.999001 
2.7300832e+3, 3.1001696e+2, -27616.55, -243838.63, -66230.53, -0.0414401, 0.05959201, -8942.415, -8942.415, 0.0, 10.000825, 9.997882 
2.7297482e+3, 3.2000524e+2, 396978.7, 443077.34, 252292.88, 0.46003163, -0.3897685, 673371.56, 673371.56, 0.0, 10.001625, 10.00223 
2.7462247e+3, 1.3049026e+2, -1600663.3, -1339645.6, -8498.61, -0.073592536, 0.22027437, -1339369.3, 321829.38, 0.012337253, 9.999404, 10.002818 
2.7458894e+3, 1.4048272e+2, -1365678.4, -1633076.9, -169433.02, 0.23903811, -0.1750025, -1283546.6, 279705.6, 0.0067410544, 10.002306, 9.998768 
2.7455455e+3, 1.5047438e+2, -1390511.4, -1824597.3, -230950.63, -0.00060693925, -0.16211773, -1290622.4, 174711.81, 0.002584837, 10.002507, 9.996641 
2.745202e+3, 1.6046584e+2, -1453443.3, -1945072.4, -218939.08, -0.2043681, -0.09936637, -1370078.4, -2656.4304, 0.0005889778, 10.001972, 9.995425 
2.7448624e+3, 1.7045541e+2, -1469889.8, -1927657.1, -61170.184, -0.0088517815, -0.10576814, -1461856.6, -192324.28, 0.00006228534, 10.0013485, 9.995135 
2.7445236e+3, 1.8044542e+2, -1324461.0, -1533423.0, 7598.5356, 0.19302006, -0.10525424, -1324185.0, -152548.28, 0.0000011486238, 10.000447, 9.9976425 
2.7441806e+3, 1.9043998e+2, -965858.0, -916724.0, -68717.35, 0.15741198, -0.10109458, -868314.2, 205366.22, 0.0, 10.000595, 10.001086 
2.743837e+3, 2.004348e+2, -1094946.3, -1258533.1, -147836.81, 0.10386927, -0.084652215, -1007784.4, -32061.771, 0.0, 10.000414, 9.998198 
2.7434933e+3, 2.1042527e+2, -1003282.56, -1325604.5, -146564.27, 0.17192625, -0.1705639, -946604.25, -68780.2, 0.0, 10.001111, 9.996691 
2.7431503e+3, 2.2041602e+2, -765640.4, -994210.1, -48140.69, 0.22863135, -0.23470816, -755914.94, 24008.604, 0.0, 10.001321, 9.998229 
2.742809e+3, 2.3041177e+2, -453053.9, -514193.97, -53078.72, 0.19190474, -0.094548404, -422371.34, 259592.78, 0.0, 10.001653, 10.000648 
2.742468e+3, 2.4040772e+2, -578886.75, -873264.6, -114457.63, 0.17889436, 0.082262754, -539621.56, 44380.95, 0.0, 10.001567, 9.997589 
2.7421287e+3, 2.5039905e+2, -508585.97, -958941.44, -90177.02, 0.34464264, 0.14000863, -491200.5, -5107.0234, 0.0, 10.002133, 9.996022 
2.741788e+3, 2.6038995e+2, -300175.4, -639260.75, -104126.4, 0.45667267, 0.15176734, -270753.2, 117434.5, 0.0, 10.002125, 9.997586 
2.741442e+3, 2.7038163e+2, -182575.58, -262097.75, -154442.92, 0.20612201, -0.054365013, -62857.633, 227404.08, 0.0, 10.001113, 9.999969 
2.7410972e+3, 2.8037378e+2, -355467.53, -439513.56, -43407.016, 0.021837696, -0.22884463, -337074.47, -144743.73, 0.0, 9.999847, 9.998721 
2.7407622e+3, 2.9036742e+2, -242884.3, -307878.25, -9948.304, 0.50423837, -0.17995529, -241395.66, -147003.72, 0.0, 9.999861, 9.99892 
2.7404252e+3, 3.0036134e+2, -251022.3, -313224.8, -43515.72, 0.7182402, -0.09993731, -228636.13, -228636.13, 0.0, 9.999336, 9.998488 
2.7400744e+3, 3.1035507e+2, -271253.56, -202221.4, -64331.805, -0.36123568, -0.08020962, -163731.03, -163731.03, 0.0, 9.998473, 9.999299 
2.7397418e+3, 3.203485e+2, 163858.45, 698913.25, 41507.336, 0.27328366, -0.22640742, 702114.06, 702114.06, 0.0, 9.998394, 10.005571 
2.756223e+3, 1.3082923e+2, -1686100.5, -1556617.9, 110028.31, 0.3555776, 0.41535214, -1493696.9, 164182.55, 0.008666201, 9.999583, 10.001228 
2.7558836e+3, 1.4081736e+2, -1427812.9, -1752280.9, -117521.2, -0.028417619, -0.26432282, -1389719.4, 170256.92, 0.004589172, 10.002245, 9.997979 
2.755542e+3, 1.5080845e+2, -1405962.3, -1843173.0, -216492.81, -0.044353344, -0.27259287, -1316903.1, 145161.75, 0.001677919, 10.002455, 9.996541 
2.7552006e+3, 1.608005e+2, -1252829.1, -1586787.0, -208919.23, 0.008728081, -0.20258047, -1152358.6, 211787.27, 0.00035822205, 10.002202, 9.997775 
2.7548596e+3, 1.7079465e+2, -1176821.1, -1340652.9, -66656.9, 0.119474776, -0.10890704, -1153127.6, 113076.14, 0.000033741435, 10.001412, 9.99914 
2.754518e+3, 1.8078831e+2, -1223250.5, -1376083.0, 23185.121, 0.18042444, -0.056662627, -1219810.8, -51545.27, 0.00000040337267, 10.000644, 9.998627 
2.7541742e+3, 1.907797e+2, -1095675.4, -1196856.0, -37746.914, 0.030033598, -0.23512562, -1083145.1, -12799.814, 0.0, 10.000625, 9.999155 
2.7538306e+3, 2.0077178e+2, -1033073.44, -1247644.5, -117668.89, -0.038998343, -0.33884066, -981122.8, -8702.979, 0.0, 10.000884, 9.998059 
2.7534908e+3, 2.1076576e+2, -852841.0, -1127062.6, -98003.266, 0.32571498, -0.15091352, -821416.9, 53069.87, 0.0, 10.001551, 9.997873 
2.7531505e+3, 2.2075951e+2, -702040.5, -1033631.0, -12422.02, 0.61500657, 0.022896364, -701575.8, 74980.87, 0.0, 10.00206, 9.997588 
2.7528074e+3, 2.3075208e+2, -553148.4, -850142.2, -55289.773, 0.392502, 0.066028506, -543189.3, 135445.38, 0.0, 10.002201, 9.998078 
2.7524647e+3, 2.40745e+2, -449931.16, -786059.8, -131436.52, 0.18068239, 0.122557126, -404638.56, 176069.47, 0.0, 10.002297, 9.997844 
2.752124e+3, 2.5073832e+2, -288150.53, -609380.1, -72179.086, 0.2203719, 0.20931467, -272677.47, 210097.88, 0.0, 10.002563, 9.998227 
2.751783e+3, 2.6073125e+2, -201146.98, -520267.06, -97523.84, 0.30352855, 0.25371754, -173703.53, 211141.98, 0.0, 10.002473, 9.998234 
2.751439e+3, 2.7072233e+2, -269398.9, -405404.22, -218472.16, 0.39081255, 0.053948894, -108590.63, 178336.53, 0.0, 10.000962, 9.999049 
2.7510953e+3, 2.807139e+2, -418640.66, -508697.94, -94751.914, 0.45723483, -0.106284745, -358762.2, -169757.69, 0.0, 9.999588, 9.998361 
2.7507558e+3, 2.9070786e+2, -221225.47, -318788.94, -11299.058, 0.42219007, 0.0066044345, -219933.98, -128869.28, 0.0, 10.000132, 9.998705 
2.750415e+3, 3.007018e+2, -183845.11, -337106.22, -111142.61, 0.2730271, 0.120009415, -125475.96, -125475.96, 0.0, 10.000021, 9.998006 
2.7500692e+3, 3.1069365e+2, -624030.7, -474783.1, -241247.4, -0.014808749, 0.038811482, -296881.6, -296881.6, 0.0, 9.996444, 9.998444 
2.749734e+3, 3.2068732e+2, -348489.63, 355992.3, 139962.28, 0.42305583, -0.013196294, 382780.53, 382780.53, 0.0, 9.995243, 10.004741 
2.766218e+3, 1.3116321e+2, -1658694.8, -1616070.3, 32609.717, 0.38913658, 0.33308157, -1598426.0, 56179.668, 0.0058038766, 10.000086, 10.000581 
2.765879e+3, 1.4115152e+2, -1695291.6, -1831042.0, -171549.36, -0.011093574, -0.29693553, -1578677.8, -21973.426, 0.0029654515, 10.000217, 9.998412 
2.7655384e+3, 1.511446e+2, -1416454.1, -1682875.1, -169002.77, -0.034839846, -0.24951327, -1334474.0, 124300.234, 0.0010274169, 10.001671, 9.998017 
2.7651975e+3, 1.6113839e+2, -1134143.8, -1387188.8, -146085.25, 0.046154484, -0.13690649, -1067407.8, 293430.06, 0.00020335741, 10.002429, 9.999039 
2.7648553e+3, 1.7113394e+2, -1071241.5, -1123774.0, -201659.97, 0.1301459, -0.045250904, -894144.4, 368735.4, 0.000016580547, 10.001461, 10.000595 
2.7645126e+3, 1.8112892e+2, -1254243.9, -1366958.1, -213106.55, 0.15499207, 0.011350972, -1090168.4, 74758.17, 0.00000009587778, 10.000372, 9.998817 
2.764169e+3, 1.9111963e+2, -1122839.6, -1290648.1, -169501.47, 0.028092297, -0.20998622, -1017612.56, 49402.85, 0.0, 10.000805, 9.998428 
2.763826e+3, 2.0111088e+2, -1033128.3, -1271886.8, -159630.19, -0.011040112, -0.33828557, -953175.6, 15925.064, 0.0, 10.001025, 9.997823 
2.7634874e+3, 2.1110621e+2, -828246.0, -1042276.3, -174371.23, 0.42135358, -0.07400265, -730669.94, 140482.9, 0.0, 10.001454, 9.998476 
2.763148e+3, 2.2110122e+2, -841847.7, -1148044.6, -115127.63, 0.75294626, 0.18393764, -803390.6, -30181.725, 0.0, 10.001325, 9.997157 
2.7628037e+3, 2.3109217e+2, -861386.8, -1114970.8, -19556.447, 0.4373815, 0.13450705, -859887.5, -184582.7, 0.0, 10.000587, 9.997037 
2.7624598e+3, 2.4108356e+2, -782325.0, -912683.06, 37297.57, 0.12218727, 0.11725332, -772408.0, -195013.36, 0.0, 9.999904, 9.998125 
2.7621195e+3, 2.5107807e+2, -400701.47, -486297.06, 42769.418, 0.112097956, 0.1927827, -382994.1, 96453.19, 0.0, 10.001053, 9.999794 
2.7617785e+3, 2.6107222e+2, -325073.3, -585631.4, -100430.08, 0.18728356, 0.2544728, -290856.66, 90646.21, 0.0, 10.001693, 9.998156 
2.7614352e+3, 2.7106318e+2, -293120.22, -535757.25, -233898.52, 0.5171417, 0.12681873, -150949.27, 132640.47, 0.0, 10.0013485, 9.997962 
2.7610922e+3, 2.8105444e+2, -308523.06, -527323.06, -47920.85, 0.7334785, 0.0443501, -298487.84, -112813.88, 0.0, 10.000673, 9.99771 
2.7607492e+3, 2.9104838e+2, -71110.84, -270983.4, 50401.258, 0.2631229, 0.17354304, -59120.598, 28616.082, 0.0, 10.0012665, 9.998488 
2.760405e+3, 3.0104214e+2, -67451.78, -370301.84, -157538.0, -0.15143377, 0.31333262, -364.19876, -364.19876, 0.0, 10.001229, 9.99719 
2.7600652e+3, 3.1103265e+2, -220588.39, -399950.66, -320241.13, 0.46077558, 0.19530432, 22291.889, 22291.889, 0.0, 9.999751, 9.997353 
2.7597225e+3, 3.210253e+2, -149479.6, 265609.63, 485860.13, 0.20671469, 0.16063125, 586397.1, 586397.1, 0.0, 9.997505, 10.002993 
2.776211e+3, 1.314943e+2, -1655206.8, -1624492.9, 38193.957, 0.19110689, 0.08602282, -1598684.1, 52674.06, 0.0036702354, 10.000148, 10.000493 
2.775876e+3, 1.4148538e+2, -1565517.8, -1564380.0, -107115.484, 0.17606008, -0.3078507, -1457831.9, 95602.93, 0.0017981271, 10.000224, 10.000236 
2.7755344e+3, 1.5148246e+2, -1219889.8, -1276396.3, -79745.81, -0.03383692, -0.113659896, -1163540.1, 291925.5, 0.00058470666, 10.001669, 10.000808 
2.775193e+3, 1.6147904e+2, -1066319.6, -1308641.0, -142458.08, -0.12561335, 0.07374921, -1000466.4, 357036.28, 0.00010500734, 10.002668, 9.999467 
2.7748498e+3, 1.7147289e+2, -1125548.6, -1276445.6, -223987.69, 0.0069181207, 0.082952835, -964643.7, 294922.13, 0.0000068884756, 10.001605, 9.999491 
2.7745074e+3, 1.8146671e+2, -1185930.5, -1296338.5, -206440.89, 0.12618323, 0.09384719, -1027440.06, 134187.6, 0.00000000965895, 10.000678, 9.999149 
2.774166e+3, 1.9146007e+2, -1025581.4, -1135636.8, -134583.02, 0.20709096, 0.059569154, -935210.9, 128479.75, 0.0, 10.000991, 9.999413 
2.7738243e+3, 2.0145303e+2, -962516.0, -1205556.5, -131656.6, 0.27696192, 0.03149336, -904869.75, 60888.62, 0.0, 10.001359, 9.99811 
2.7734825e+3, 2.1144556e+2, -831581.9, -1093067.9, -157239.44, 0.37378737, 0.05315239, -757830.44, 110004.836, 0.0, 10.001643, 9.998036 
2.77314e+3, 2.2143854e+2, -673448.1, -864248.06, -140694.42, 0.41564053, 0.084039286, -598859.6, 171047.27, 0.0, 10.001579, 9.998993 
2.7727956e+3, 2.3143193e+2, -698778.3, -719978.94, -27386.26, 0.18393864, 0.026811289, -680012.44, -8042.4204, 0.0, 10.000311, 9.999906 
2.7724525e+3, 2.414252e+2, -776248.56, -797667.6, 138052.53, 0.011488304, -0.022285298, -648490.8, -74456.414, 0.0, 9.999464, 9.999115 
2.772115e+3, 2.5141808e+2, -478344.28, -585491.9, 155962.73, 0.14882876, -0.06954228, -367010.44, 109091.56, 0.0, 10.00079, 9.999244 
2.7717754e+3, 2.6141107e+2, -319392.0, -618685.3, -54886.93, 0.29035997, -0.06545468, -309643.88, 68526.26, 0.0, 10.00188, 9.997835 
2.7714294e+3, 2.7140373e+2, -234301.73, -551759.4, -190604.22, 0.35495478, 0.022688726, -144988.61, 135257.64, 0.0, 10.0019245, 9.997586 
2.7710846e+3, 2.813962e+2, -155450.16, -496576.16, 46404.484, 0.39974746, 0.10465381, -149250.28, 33074.156, 0.0, 10.001888, 9.99733 
2.7707443e+3, 2.9138863e+2, 59277.344, -283871.25, 126559.66, 0.16564628, 0.15221006, 100905.03, 185309.17, 0.0, 10.002448, 9.997835 
2.7704033e+3, 3.0138132e+2, 165413.16, -282596.6, -108297.37, 0.015424963, 0.24344873, 190218.45, 190218.45, 0.0, 10.002912, 9.996975 
2.7700645e+3, 3.1137362e+2, 261277.13, -172929.6, -250675.88, 0.7453409, 0.3163614, 375794.4, 375794.4, 0.0, 10.003076, 9.997303 
2.7697143e+3, 3.2136583e+2, 153129.17, 228587.66, 317810.34, -0.03040279, 0.3023369, 510900.44, 510900.44, 0.0, 10.000361, 10.001352 
2.7862054e+3, 1.3182965e+2, -1512882.3, -1490598.9, 175156.86, 0.13023604, -0.023211736, -1326229.8, 321837.4, 0.0021563654, 10.000912, 10.001003 
2.7858713e+3, 1.4182296e+2, -1548059.9, -1522239.3, 36203.984, 0.2776882, -0.23407376, -1496712.6, 53411.746, 0.0010017129, 10.000199, 10.000534 
2.7855295e+3, 1.5182027e+2, -1478441.9, -1341835.1, -50730.32, -0.003653222, -0.060088348, -1325056.8, 127099.34, 0.0002997044, 9.999657, 10.001319 
2.7851877e+3, 1.6181725e+2, -1496190.9, -1448190.0, -212615.73, -0.14899775, 0.10910143, -1258224.4, 95966.19, 0.00004641634, 9.9994545, 10.00005 
2.7848452e+3, 1.7181131e+2, -1172830.5, -1238552.1, -185516.66, -0.00187963, 0.071501456, -1017286.75, 238964.17, 0.0000020738605, 10.001042, 10.000018 
2.7845028e+3, 1.8180533e+2, -979064.5, -1197115.0, -77268.18, 0.135743, 0.082435995, -954460.1, 203851.02, 0.00000000000031198744, 10.002106, 9.999144 
2.7841625e+3, 1.917998e+2, -793890.06, -1005104.5, -68048.97, 0.26910648, 0.14735082, -773864.7, 286499.88, 0.0, 10.00252, 9.999554 
2.7838212e+3, 2.0179361e+2, -846244.25, -1161048.5, -126448.664, 0.36039478, 0.19601284, -801743.7, 160681.38, 0.0, 10.002243, 9.997976 
2.7834773e+3, 2.1178459e+2, -900541.2, -1139736.0, -128267.484, 0.27298358, 0.07121727, -844764.44, 19751.293, 0.0, 10.001253, 9.997898 
2.783133e+3, 2.2177655e+2, -799794.7, -850434.6, -127512.836, 0.16249375, -0.0063934894, -695112.25, 71483.29, 0.0, 10.000418, 9.9996395 
2.782789e+3, 2.3177171e+2, -483278.13, -468793.75, -169508.8, 0.02567126, -0.018004717, -306372.5, 362266.25, 0.0, 10.001183, 10.001197 
2.7824464e+3, 2.4176635e+2, -511460.1, -634168.7, -74994.1, -0.04106482, -0.045553863, -475920.3, 94766.14, 0.0, 10.001163, 9.999418 
2.78211e+3, 2.5175825e+2, -535614.06, -617686.5, 21091.922, 0.17407192, -0.21258739, -530510.9, -57749.46, 0.0, 10.000458, 9.999169 
2.7817714e+3, 2.617506e+2, -608468.56, -789775.6, -147033.72, 0.32697433, -0.26302472, -526388.25, -151553.1, 0.0, 10.000054, 9.997537 
2.781424e+3, 2.717445e+2, -327178.16, -610214.4, -248283.53, 0.20132323, -0.05108048, -182912.97, 93989.49, 0.0, 10.001363, 9.99745 
2.7810782e+3, 2.817379e+2, -223011.06, -578255.25, 8008.331, 0.10812623, 0.14217931, -222830.63, -43855.76, 0.0, 10.001661, 9.996875 
2.7807406e+3, 2.9172903e+2, -283674.72, -515412.6, 106522.64, 0.13647403, 0.1065182, -242150.25, -161081.22, 0.0, 10.000399, 9.997224 
2.7804017e+3, 3.0172095e+2, -333212.84, -532854.7, -111302.305, 0.21047425, 0.16900526, -283526.53, -283526.53, 0.0, 9.999559, 9.996871 
2.7800626e+3, 3.1171516e+2, -115022.09, -311602.34, -209672.02, 0.8982974, 0.39825177, 18254.84, 18254.84, 0.0, 10.000345, 9.997661 
2.7797073e+3, 3.217068e+2, 76234.87, 9639.902, 122455.83, -0.24081554, 0.36856654, 169839.52, 169839.52, 0.0, 10.000599, 9.999763 
2.7962008e+3, 1.3216758e+2, -1429667.8, -1352877.6, 154138.88, 0.09324394, -0.09583349, -1232423.8, 412325.5, 0.001158505, 10.001014, 10.001922 
2.795866e+3, 1.4216317e+2, -1587855.9, -1608920.3, 19408.979, 0.28112438, -0.103285156, -1576305.5, -29520.201, 0.00050215615, 10.000201, 9.999943 
2.7955243e+3, 1.5215784e+2, -1567010.9, -1521252.0, -44677.313, 0.049824677, -0.07478982, -1493936.5, -45088.86, 0.0001341216, 9.999639, 10.000096 
2.7951828e+3, 1.6215305e+2, -1372315.1, -1251126.3, -155704.9, -0.050840322, -0.039746657, -1144640.8, 206260.31, 0.00001642319, 9.999689, 10.001298 
2.7948412e+3, 1.7214906e+2, -989143.3, -902839.9, -100158.37, 0.08415577, -0.079704314, -836933.0, 416002.8, 0.0000003300107, 10.001217, 10.002249 
2.7945e+3, 1.821445e+2, -902216.1, -1146326.5, -23221.133, 0.16437477, -0.075950414, -900026.8, 254950.9, 0.0, 10.002525, 9.999305 
2.794158e+3, 1.9213797e+2, -800694.25, -1107084.4, -30610.867, 0.13749667, -0.02618551, -797665.94, 259377.05, 0.0, 10.002866, 9.998705 
2.7938157e+3, 2.0213123e+2, -749785.75, -1069253.0, -143140.0, 0.12810473, 0.014684442, -695034.2, 264076.7, 0.0, 10.002711, 9.998373 
2.7934712e+3, 2.1212323e+2, -838130.4, -1032501.9, -147010.94, 0.12721264, -0.062548704, -759085.4, 102106.43, 0.0, 10.001349, 9.998592 
2.7931273e+3, 2.2211587e+2, -856192.3, -1029118.5, -71118.5, 0.11563485, -0.06502945, -830701.4, -67433.54, 0.0, 10.00064, 9.998305 
2.7927855e+3, 2.3211057e+2, -563882.3, -784270.5, -139502.22, 0.090277694, 0.111607976, -496302.38, 169024.3, 0.0, 10.001789, 9.998733 
2.7924442e+3, 2.4210526e+2, -307078.13, -465490.75, -154829.6, 0.08618235, 0.21994267, -212371.11, 355010.28, 0.0, 10.002238, 10.000058 
2.7921048e+3, 2.520987e+2, -390917.5, -363815.06, -78897.32, 0.15892912, 0.05699799, -297313.66, 172123.89, 0.0, 10.000602, 10.000871 
2.7917644e+3, 2.620919e+2, -594148.6, -676714.56, -144294.95, 0.2538846, -0.0490432, -485347.22, -113848.96, 0.0, 9.99966, 9.998506 
2.7914205e+3, 2.7208474e+2, -280127.34, -532239.2, -197437.75, 0.33752254, 0.002058862, -171936.03, 101634.59, 0.0, 10.001423, 9.99796 
2.7910772e+3, 2.8207752e+2, -150667.42, -497492.3, -41558.32, 0.3986688, 0.08616527, -145757.2, 29888.236, 0.0, 10.001977, 9.997255 
2.7907363e+3, 2.920697e+2, -460334.63, -579294.56, 4856.792, 0.3630236, 0.14082982, -460136.66, -382407.03, 0.0, 9.999101, 9.9973955 
2.7903947e+3, 3.0206224e+2, -596471.25, -523899.9, -88653.46, 0.3431079, 0.21208142, -464393.7, -464393.7, 0.0, 9.997142, 9.998098 
2.790054e+3, 3.1205603e+2, -264554.66, -219754.06, -120118.15, 0.7669776, 0.2627017, -119965.4, -119965.4, 0.0, 9.998583, 9.999154 
2.7897066e+3, 3.2204637e+2, 303067.94, 211756.8, 428669.25, 0.11038625, -0.018782314, 688506.0, 688506.0, 0.0, 10.001738, 10.000603 
2.8061965e+3, 1.3250607e+2, -1487282.4, -1448249.5, 110382.83, 0.12830384, -0.1453988, -1355671.1, 285757.88, 0.00056132965, 10.000897, 10.00134 
2.805861e+3, 1.4250182e+2, -1648017.5, -1655593.5, -30675.01, 0.31376937, -0.10457376, -1620897.5, -77429.61, 0.00022472485, 9.99988, 9.99978 
2.805518e+3, 1.5249638e+2, -1489153.4, -1483065.1, -1953.2163, 0.0010135353, -0.09734739, -1482492.4, -36962.93, 0.00005269784, 10.000153, 10.000124 
2.8051764e+3, 1.6249143e+2, -1300890.8, -1210801.3, -56847.03, -0.10237902, -0.07396183, -1183315.9, 164267.77, 0.0000047753, 10.000191, 10.001316 
2.8048366e+3, 1.7248793e+2, -1138597.6, -956526.3, -136087.61, 0.12633955, -0.08766667, -883832.5, 365782.1, 0.00000002399446, 10.000123, 10.002394 
2.8044963e+3, 1.8248378e+2, -1259968.1, -1266477.3, -148215.67, 0.24100284, -0.07626153, -1114971.3, 36680.45, 0.0, 9.999912, 9.99972 
2.8041536e+3, 1.9247732e+2, -1215998.6, -1239305.8, -55487.965, 0.11985276, -0.095216624, -1170953.8, -117239.6, 0.0, 9.99978, 9.999264 
2.8038105e+3, 2.0247044e+2, -1201242.9, -1299757.9, -118321.766, 0.04217837, -0.08661093, -1122335.1, -166552.83, 0.0, 9.999686, 9.998246 
2.8034657e+3, 2.1246278e+2, -999672.7, -1107920.1, -185159.45, 0.089248784, -0.1367898, -860888.7, -3026.8958, 0.0, 10.000249, 9.998589 
2.803122e+3, 2.2245589e+2, -980741.0, -1164885.8, -66024.48, 0.11797368, -0.07459881, -959514.9, -199579.06, 0.0, 10.000171, 9.997592 
2.802781e+3, 2.3245038e+2, -944812.7, -1077569.5, 19568.541, 0.13092695, 0.17454517, -941988.4, -279986.88, 0.0, 9.999688, 9.997729 
2.8024402e+3, 2.4244502e+2, -701727.9, -645775.1, 41612.113, 0.14583895, 0.36222595, -623609.25, -59548.496, 0.0, 9.999521, 10.000122 
2.8020993e+3, 2.5243956e+2, -376986.44, -275323.22, -20386.344, 0.14973699, 0.25128874, -271387.53, 194719.22, 0.0, 10.000393, 10.001556 
2.8017583e+3, 2.6243338e+2, -437292.84, -562577.4, -123658.13, 0.20328669, 0.15873101, -361315.53, 6844.4624, 0.0, 10.000608, 9.998824 
2.801417e+3, 2.7242503e+2, -303193.1, -489336.5, -147682.22, 0.43482825, 0.03882794, -221701.4, 48537.445, 0.0, 10.001051, 9.998426 
2.8010753e+3, 2.8241724e+2, -296268.6, -536782.56, -97112.11, 0.5909193, 0.030875336, -261953.58, -89638.52, 0.0, 10.000859, 9.997534 
2.800731e+3, 2.9241058e+2, -386875.5, -494226.84, -69921.555, 0.49609315, 0.15570302, -352403.0, -278016.03, 0.0, 9.999411, 9.997838 
2.8003868e+3, 3.0240384e+2, -334633.78, -301201.1, -60186.48, 0.35870692, 0.2368275, -255452.66, -255452.66, 0.0, 9.99855, 9.998941 
2.8000453e+3, 3.1239662e+2, 83808.88, 65291.62, -104235.805, 0.545539, 0.08291107, 179196.45, 179196.45, 0.0, 10.00049, 10.000182 
2.799707e+3, 3.2238615e+2, 178818.23, 232846.31, 555426.06, 0.5034013, -0.3838886, 761914.9, 761914.9, 0.0, 10.000611, 10.00126 
2.8161925e+3, 1.3284501e+2, -1599067.8, -1674496.1, 70954.19, 0.17268282, -0.18890758, -1556427.4, 81679.47, 0.00024554564, 10.000848, 9.999824 
2.815855e+3, 1.4283937e+2, -1577970.4, -1540629.5, -20010.42, 0.31408232, -0.21063283, -1531932.0, 8233.477, 0.00009055687, 9.999998, 10.00052 
2.8155106e+3, 1.5283607e+2, -1394888.6, -1299017.0, 40456.04, -0.16254704, -0.10092697, -1284227.0, 157972.5, 0.000018083496, 10.000185, 10.001384 
2.8151688e+3, 1.6283235e+2, -1346211.3, -1338063.3, -43940.6, -0.31458083, 0.0055256276, -1298008.1, 46231.113, 0.000001252134, 10.000322, 10.000384 
2.814831e+3, 1.728279e+2, -1250727.6, -1218480.4, -113369.93, 0.11323399, 0.083038755, -1120093.3, 126195.055, 0.0000000065346386, 10.000237, 10.000547 
2.8144917e+3, 1.8282335e+2, -1132622.4, -1019136.9, -144995.47, 0.35942987, 0.11301075, -920176.7, 228156.78, 0.0, 10.00001, 10.001349 
2.814149e+3, 1.9281816e+2, -1056351.0, -882709.9, -41618.797, 0.25610754, -0.010369682, -873249.94, 177125.64, 0.0, 9.999662, 10.001771 
2.8138056e+3, 2.0281199e+2, -1220318.1, -1335083.6, -78494.19, 0.19995914, -0.07457073, -1180468.6, -228035.14, 0.0, 9.999641, 9.99803 
2.8134617e+3, 2.1280374e+2, -1072689.8, -1275711.5, -139774.56, 0.23328075, -0.06502225, -1001454.06, -146930.42, 0.0, 10.000286, 9.99743 
2.8131178e+3, 2.2279668e+2, -798649.0, -852198.6, -66908.836, 0.21923967, -0.023564449, -753356.6, 3243.2366, 0.0, 10.00044, 9.999609 
2.8127745e+3, 2.3279186e+2, -784929.2, -701880.44, 51011.285, 0.09948054, 0.040280692, -677629.25, -18980.414, 0.0, 9.999475, 10.000422 
2.812433e+3, 2.4278669e+2, -821455.8, -830225.8, 179091.61, 0.07170276, 0.13563658, -646695.5, -85994.234, 0.0, 9.999231, 9.998989 
2.812095e+3, 2.527807e+2, -504430.34, -615099.06, 91211.54, 0.21237458, 0.21971984, -453080.9, 9680.834, 0.0, 10.000714, 9.999066 
2.811755e+3, 2.6277393e+2, -298599.66, -520024.75, -101444.766, 0.30861238, 0.23223111, -259151.27, 105676.01, 0.0, 10.001622, 9.998643 
2.811411e+3, 2.7276507e+2, -248572.52, -425631.34, -142312.4, 0.32246467, 0.04209045, -169500.39, 97409.23, 0.0, 10.001209, 9.9988165 
2.8110674e+3, 2.827572e+2, -225822.25, -360215.88, -85814.49, 0.34357727, -0.049527176, -184025.77, -15042.093, 0.0, 10.000681, 9.998852 
2.8107232e+3, 2.9275113e+2, -166563.58, -237125.77, -52400.973, 0.2750619, 0.008995668, -138673.33, -67630.42, 0.0, 10.000236, 9.999231 
2.8103793e+3, 3.027444e+2, -114827.016, -302080.3, 46719.33, 0.20040363, 0.051402055, -103817.89, -103817.89, 0.0, 10.000516, 9.997981 
2.8100404e+3, 3.127361e+2, 291570.4, -41866.176, -43653.777, 0.44862115, -0.031194612, 297190.84, 297190.84, 0.0, 10.002791, 9.998343 
2.809701e+3, 3.2272935e+2, -144850.97, -201220.63, 89996.21, 0.449471, 0.06959855, -78729.375, -78729.375, 0.0, 9.999541, 9.998802 
2.8261903e+3, 1.3318671e+2, -1615256.0, -1805738.8, 102212.09, 0.4069525, -0.059351243, -1570789.8, 63971.605, 0.00010291683, 10.001368, 9.998616 
2.825849e+3, 1.4317945e+2, -1358685.1, -1363006.5, 27548.379, 0.23215023, -0.19115593, -1333212.9, 203626.9, 0.00003434366, 10.001241, 10.001112 
2.8255054e+3, 1.5317732e+2, -1316488.0, -1146104.6, 69460.96, -0.13235538, -0.06265385, -1121376.1, 317478.72, 0.0000055031255, 10.000279, 10.00236 
2.825164e+3, 1.6317397e+2, -1501419.5, -1451744.8, 13580.739, -0.22524224, 0.044955943, -1448274.3, -107387.75, 0.0000002527922, 9.999451, 10.000015 
2.824825e+3, 1.73168e+2, -1460409.8, -1387528.9, 32553.322, 0.109058306, 0.027428094, -1375106.0, -132152.89, 0.0, 9.999141, 9.999901 
2.824485e+3, 1.8316293e+2, -1239682.6, -1042909.9, 29145.383, 0.31018862, 0.0523313, -1038683.75, 106321.84, 0.0, 9.999149, 10.001607 
2.8241432e+3, 1.9315912e+2, -987096.8, -772541.44, -13395.918, 0.27071476, 0.0023576168, -771708.3, 275326.25, 0.0, 9.9998045, 10.00246 
2.8238e+3, 2.031539e+2, -1169106.6, -1285419.1, -107086.15, 0.2581517, -0.011982815, -1105404.0, -156321.06, 0.0, 9.999935, 9.998218 
2.8234562e+3, 2.131457e+2, -1165347.6, -1298086.0, -42294.555, 0.2922969, -0.028943937, -1153016.8, -301843.47, 0.0, 9.9995985, 9.997598 
2.8231126e+3, 2.231387e+2, -835283.0, -802767.8, 48709.188, 0.25061944, -0.0018881097, -767674.75, -14426.458, 0.0, 9.999934, 10.000183 
2.8227687e+3, 2.3313385e+2, -430418.53, -433125.3, -25904.273, 0.08623012, -0.026607616, -405832.3, 249460.81, 0.0, 10.001524, 10.001267 
2.8224272e+3, 2.4312854e+2, -504679.94, -789864.8, 37945.586, 0.029662946, 0.029755592, -499717.4, 57627.67, 0.0, 10.001922, 9.997974 
2.82209e+3, 2.5312188e+2, -617437.1, -837173.25, 89751.56, 0.2370884, 0.1722144, -585437.9, -126021.33, 0.0, 10.000681, 9.997561 
2.8217503e+3, 2.6311478e+2, -578744.44, -662673.25, -49028.734, 0.3335779, 0.25193807, -556173.4, -194684.23, 0.0, 9.999771, 9.998545 
2.821405e+3, 2.731061e+2, -451124.72, -477630.3, -85105.86, 0.19945638, 0.04135466, -378245.97, -114676.48, 0.0, 9.999657, 9.999196 
2.8210595e+3, 2.8309834e+2, -345327.88, -341269.53, -56191.465, 0.096321374, -0.077786334, -287070.63, -121429.984, 0.0, 9.999564, 9.999506 
2.8207156e+3, 2.930922e+2, -102416.47, -105428.72, -86770.24, 0.06644099, -0.12530398, -17139.285, 50555.93, 0.0, 10.000254, 10.000121 
2.8203726e+3, 3.0308527e+2, -184545.03, -446824.63, 59121.992, 0.043762904, -0.11684049, -171834.02, -171834.02, 0.0, 10.000542, 9.996971 
2.820036e+3, 3.1307644e+2, -88376.28, -384820.5, 109107.31, 0.34389812, -0.12137625, -52548.94, -52548.94, 0.0, 10.000884, 9.9969015 
2.8196928e+3, 3.23074e+2, -313869.16, -547793.0, -111136.12, 0.24058922, 0.6029148, -269488.8, -269488.8, 0.0, 9.999551, 9.996403 
2.8361887e+3, 1.3353e+2, -1675988.8, -1947019.6, 122831.6, 0.6590336, 0.14932364, -1628605.1, 2797.1567, 0.00004648075, 10.001375, 9.997668 
2.8358433e+3, 1.4352144e+2, -1318669.5, -1245051.3, 22767.744, 0.08217154, -0.090271935, -1238579.0, 294916.8, 0.000014306027, 10.00108, 10.002002 
2.835502e+3, 1.5351975e+2, -1280296.8, -1036739.8, 60290.582, 0.060957678, 0.0037695395, -1022632.5, 412866.47, 0.0000019516297, 10.000129, 10.003185 
2.8351608e+3, 1.6351585e+2, -1448281.8, -1351624.9, 10576.058, 0.08388937, -0.014702875, -1350481.3, -12951.42, 0.00000005936716, 9.9994755, 10.000692 
2.8348178e+3, 1.7350774e+2, -1403905.0, -1300023.8, 42832.094, 0.06112765, -0.2952057, -1284641.1, -45028.68, 0.0, 9.999225, 10.000481 
2.834476e+3, 1.83502e+2, -1278271.4, -1180960.4, 70219.734, 0.058249697, -0.33125854, -1144186.5, -2514.811, 0.0, 9.999351, 10.000581 
2.8341356e+3, 1.9349992e+2, -1063798.3, -988034.9, 31815.424, 0.10747239, -0.0451491, -976446.94, 67246.8, 0.0, 10.000011, 10.000893 
2.8337938e+3, 2.0349614e+2, -974063.5, -961093.75, -107948.26, 0.16192213, 0.093515486, -859435.75, 86296.33, 0.0, 10.000268, 10.000284 
2.8334492e+3, 2.1348913e+2, -946939.7, -892308.25, -19465.672, 0.18667814, -0.059305042, -886082.06, -38278.87, 0.0, 9.999779, 10.000305 
2.8331062e+3, 2.2348242e+2, -946676.8, -1115909.1, 161107.42, 0.19281097, -0.05867748, -849316.3, -99442.71, 0.0, 10.000257, 9.997891 
2.8327662e+3, 2.3347631e+2, -522546.84, -864555.4, 48234.363, 0.16180806, 0.13797157, -515874.4, 136066.44, 0.0, 10.00252, 9.997844 
2.8324255e+3, 2.4347e+2, -219709.58, -499347.9, -41913.18, 0.14658903, 0.23174681, -213562.61, 340443.5, 0.0, 10.003196, 9.999361 
2.8320846e+3, 2.5346285e+2, -414078.97, -502177.3, 31193.451, 0.1701974, 0.1244351, -404152.6, 51920.793, 0.0, 10.001013, 9.999716 
2.8317428e+3, 2.6345614e+2, -563628.8, -559523.56, -6345.519, 0.21158686, 0.08578146, -554906.94, -196769.64, 0.0, 9.999438, 9.9994135 
2.8313985e+3, 2.7344987e+2, -495145.88, -455585.94, -38940.72, 0.23758154, 0.07962925, -431689.53, -171491.73, 0.0, 9.999165, 9.999584 
2.8310546e+3, 2.8344294e+2, -442113.44, -505132.28, 34796.285, 0.2752827, 0.068869725, -426680.1, -264414.97, 0.0, 9.999386, 9.998471 
2.8307125e+3, 2.9343495e+2, -150237.9, -305361.66, -48399.457, 0.2943406, -0.0021768096, -136375.77, -72031.61, 0.0, 10.000672, 9.99855 
2.8303695e+3, 3.034277e+2, 45868.883, -59382.848, 40940.797, 0.22653456, -0.036207687, 59918.58, 59918.58, 0.0, 10.000907, 9.999461 
2.8300294e+3, 3.134215e+2, -103131.77, -63258.242, 163271.31, 0.32050678, -0.07836137, 81289.03, 81289.03, 0.0, 9.999326, 9.999875 
2.829689e+3, 3.2341677e+2, -44402.883, -256204.58, 205816.6, 0.4185762, 0.20433521, 81160.0, 81160.0, 0.0, 10.000694, 9.997863 
2.846182e+3, 1.338714e+2, -1617888.9, -1879327.6, 139558.63, 0.39844584, -0.011218886, -1557390.8, 70663.78, 0.000024388144, 10.001589, 9.998042 
2.8458375e+3, 1.4386638e+2, -1613645.3, -1423549.3, 100951.984, 0.053056337, 0.09633028, -1379941.5, 150174.34, 0.000007474148, 9.999227, 10.001661 
2.8454965e+3, 1.53862e+2, -1497249.3, -1213954.3, 56368.918, 0.16201468, -0.017118853, -1203150.3, 228996.38, 0.0000012508747, 9.9989605, 10.002526 
2.8451556e+3, 1.6385698e+2, -1515105.4, -1358602.3, -25845.299, 0.2338324, -0.1172294, -1354444.6, -20256.842, 0.000000073245815, 9.998933, 10.000893 
2.844812e+3, 1.7385009e+2, -1369331.3, -1235916.9, -1055.3834, 0.112623714, -0.33256143, -1235908.5, 346.00925, 0.0, 9.999285, 10.000878 
2.844469e+3, 1.8384458e+2, -1320341.9, -1243802.4, 63059.836, -0.0010157389, -0.3543849, -1208308.3, -69998.336, 0.0, 9.999292, 10.000168 
2.844128e+3, 1.9384144e+2, -1277277.3, -1163967.5, 97421.96, -0.023613824, -0.12266817, -1107924.5, -67579.695, 0.0, 9.998903, 10.000213 
2.8437865e+3, 2.038377e+2, -1123960.0, -1001337.25, -65783.75, 0.034024477, 0.05551208, -972723.2, -30338.0, 0.0, 9.999118, 10.000548 
2.843443e+3, 2.1383211e+2, -875999.1, -806872.94, -170915.52, 0.15184979, -0.020374285, -667060.8, 177380.58, 0.0, 10.000052, 10.000756 
2.843101e+3, 2.2382559e+2, -1016963.8, -1307192.3, 23580.73, 0.20172589, 0.019162254, -1015060.4, -268550.75, 0.0, 10.0004835, 9.996455 
2.8427625e+3, 2.3381777e+2, -926966.25, -1262736.1, 103127.48, 0.17266658, 0.19015871, -897821.7, -249225.6, 0.0, 10.000639, 9.996011 
2.842422e+3, 2.4381058e+2, -580185.8, -567287.06, -36152.54, 0.15210122, 0.2663211, -537013.1, 13657.444, 0.0, 10.000302, 10.000267 
2.8420788e+3, 2.5380373e+2, -633879.75, -464846.88, -86630.97, 0.13863182, 0.04713819, -428334.6, 24397.213, 0.0, 9.998925, 10.0009575 
2.8417355e+3, 2.6379788e+2, -650734.6, -533523.44, -109734.04, 0.15965192, -0.006588807, -467725.75, -112940.5, 0.0, 9.998603, 9.999973 
2.8413925e+3, 2.737934e+2, -332117.28, -332592.7, -107907.016, 0.26894036, 0.102326855, -224447.72, 32381.701, 0.0, 10.000124, 9.999953 
2.84105e+3, 2.8378728e+2, -322150.3, -574307.8, 15866.867, 0.38656396, 0.200743, -321155.8, -162263.39, 0.0, 10.0007925, 9.997304 
2.840709e+3, 2.9377815e+2, -242540.38, -511922.16, 3387.618, 0.47183576, 0.13838023, -242497.78, -181508.39, 0.0, 10.0007515, 9.99709 
2.8403658e+3, 3.037709e+2, 104465.68, 226685.4, -12600.29, 0.34889802, 0.088854104, 227970.92, 227970.92, 0.0, 10.000231, 10.00174 
2.8400224e+3, 3.137666e+2, 29005.965, 317039.1, -24693.252, 0.2457763, -0.051916573, 319140.72, 319140.72, 0.0, 9.998901, 10.002678 
2.8396854e+3, 3.2375866e+2, -260999.19, -121931.83, 227181.89, 0.58713764, -0.372889, 46119.313, 46119.313, 0.0, 9.998219, 9.99995 
2.8561723e+3, 1.3421246e+2, -1574403.0, -1724888.3, -1456.7886, -0.1663647, -0.3656888, -1574388.9, 50316.234, 0.00001298758, 10.001265, 9.999288 
2.855831e+3, 1.4421313e+2, -1705931.9, -1611687.0, 81140.92, 0.07738025, 0.3099946, -1564977.8, -38264.188, 0.000003738906, 9.999179, 10.000406 
2.8554899e+3, 1.5420379e+2, -1614205.5, -1472330.5, 66285.7, 0.13672689, -0.12308281, -1446180.8, -17379.557, 0.00000051506584, 9.999, 10.000746 
2.855149e+3, 1.641978e+2, -1467371.6, -1298039.8, -1723.0707, 0.24229358, -0.23487325, -1298022.3, 32833.703, 0.00000002542409, 9.999092, 10.001236 
2.8548074e+3, 1.741957e+2, -1307798.8, -1150498.9, 35915.258, 0.27981597, -0.008027611, -1142686.6, 90187.04, 0.0, 9.999456, 10.001384 
2.8544644e+3, 1.8419118e+2, -1233520.6, -1102195.4, 70798.195, 0.1485614, 0.0040070834, -1071297.3, 63618.168, 0.0, 9.999462, 10.001052 
2.85412e+3, 1.9418365e+2, -1200526.1, -1032392.3, 116742.01, -0.14586711, -0.2741263, -972598.4, 64388.43, 0.0, 9.999, 10.00108 
2.853778e+3, 2.0417793e+2, -1296302.3, -1397025.0, -9756.537, -0.12737153, -0.20981728, -1295365.9, -356318.5, 0.0, 9.999238, 9.997794 
2.8534386e+3, 2.1417409e+2, -1041872.44, -1236829.3, -138528.03, 0.2683345, 0.21242116, -969963.56, -128865.46, 0.0, 10.000373, 9.997668 
2.8530973e+3, 2.2416738e+2, -823675.06, -990721.6, 6561.6772, 0.3408402, 0.30936912, -823417.7, -80249.35, 0.0, 10.000834, 9.998453 
2.8527555e+3, 2.3415674e+2, -774499.2, -911165.44, 119666.85, -0.0017268655, -0.040640548, -705029.7, -59762.695, 0.0, 10.000452, 9.998516 
2.852414e+3, 2.4414876e+2, -730987.56, -743472.4, -40449.797, -0.0269011, -0.14150597, -696301.3, -148955.83, 0.0, 9.999674, 9.999375 
2.8520736e+3, 2.5414404e+2, -794372.75, -696278.3, -126866.2, 0.3376488, 0.005897671, -609308.4, -159909.92, 0.0, 9.998437, 9.999624 
2.8517312e+3, 2.641393e+2, -595874.94, -421601.34, -55255.863, 0.44745052, 0.09621254, -405558.53, -54111.73, 0.0, 9.998604, 10.000746 
2.851387e+3, 2.7413446e+2, -122334.16, -124747.22, -42560.043, 0.23703012, 0.09597311, -80963.55, 172526.55, 0.0, 10.001096, 10.000919 
2.851044e+3, 2.8412887e+2, -75575.55, -386608.8, -764.9084, 0.18350568, 0.16364153, -75573.664, 79972.445, 0.0, 10.002135, 9.997966 
2.8507024e+3, 2.9412192e+2, -130299.2, -389672.7, 4743.206, 0.28758413, 0.26455677, -130212.49, -72589.99, 0.0, 10.0012045, 9.997723 
2.8503588e+3, 3.041144e+2, -49745.76, -69415.85, -36744.97, 0.22421692, 0.24232863, -21542.393, -21542.393, 0.0, 10.00012, 9.999763 
2.8500152e+3, 3.1410635e+2, -111311.99, -13069.89, -185193.83, 0.21323468, -0.036388543, 129406.63, 129406.63, 0.0, 9.999081, 10.000324 
2.8496742e+3, 3.2410097e+2, -409577.13, 173304.02, -182918.08, 0.44524318, -0.13872048, 225951.56, 225951.56, 0.0, 9.995567, 10.003287 
2.866167e+3, 1.3455793e+2, -1728824.4, -1825734.3, -85023.05, -0.167484, -0.20756982, -1679418.1, -58095.332, 0.0000059629547, 10.000371, 9.9990015 
2.8658253e+3, 1.445559e+2, -1528301.3, -1572093.8, 15939.796, 0.11811809, 0.21575879, -1523113.9, 242.4127, 0.0000015122073, 10.000634, 9.999966 
2.8654838e+3, 1.5454741e+2, -1465605.4, -1473966.6, 76409.14, 0.1523616, -0.08765261, -1393262.6, 32174.406, 0.0000000966577, 10.00035, 10.000087 
2.865143e+3, 1.6454163e+2, -1308164.6, -1190584.5, 64148.156, 0.27090758, -0.15281731, -1162361.6, 165128.52, 0.00000000026919006, 10.000074, 10.001503 
2.864802e+3, 1.7453963e+2, -1264242.6, -1106340.3, 75557.695, 0.38008273, 0.054682598, -1076010.8, 153494.03, 0.0, 9.999675, 10.001587 
2.8644592e+3, 1.8453515e+2, -1225411.8, -1162159.5, 55321.61, 0.25723377, 0.09394428, -1130062.1, 1483.9314, 0.0, 9.999798, 10.000473 
2.8641146e+3, 1.9452696e+2, -1064900.1, -1028410.8, -6407.594, -0.08981495, -0.21418181, -1027318.3, 6306.858, 0.0, 10.000225, 10.0005 
2.8637725e+3, 2.0452024e+2, -1198794.9, -1449417.5, -69031.71, -0.10067787, -0.18491104, -1181038.6, -245343.47, 0.0, 10.000394, 9.996858 
2.8634337e+3, 2.145155e+2, -1132376.3, -1390880.9, 8108.79, 0.3179813, 0.23311113, -1132122.1, -294368.44, 0.0, 10.000293, 9.996629 
2.8630924e+3, 2.2450829e+2, -838986.06, -858461.3, 180791.67, 0.3416925, 0.29560322, -667670.0, 72156.016, 0.0, 10.000148, 9.999687 
2.8627488e+3, 2.3449737e+2, -803702.4, -767987.0, 163242.88, -0.12447813, -0.22268021, -621627.94, 20292.693, 0.0, 9.999626, 9.999881 
2.862407e+3, 2.4448963e+2, -809702.4, -889032.0, -49711.117, -0.11130872, -0.32435107, -785770.9, -241773.64, 0.0, 9.999643, 9.998374 
2.8620684e+3, 2.5448573e+2, -660598.0, -784322.25, -99939.93, 0.5041475, 0.016347053, -604923.3, -158870.86, 0.0, 10.000056, 9.998226 
2.8617266e+3, 2.6448137e+2, -360512.78, -247800.78, 55978.68, 0.6301434, 0.20158952, -224723.72, 123377.21, 0.0, 9.999982, 10.001266 
2.8613815e+3, 2.7447617e+2, -291082.22, -143576.31, 59009.277, 0.16685736, 0.091783114, -122875.086, 127269.24, 0.0, 9.999682, 10.001468 
2.8610379e+3, 2.844711e+2, -350439.5, -431118.88, 4483.426, -0.012231825, 0.15550888, -350191.13, -197997.84, 0.0, 9.999909, 9.998722 
2.860696e+3, 2.9446593e+2, -196473.69, -333427.6, 8811.811, 0.1238195, 0.34934324, -195909.06, -141657.64, 0.0, 10.000393, 9.9985 
2.860352e+3, 3.0445784e+2, -169969.28, -381230.25, -17407.89, 0.10008935, 0.33315945, -168544.48, -168544.48, 0.0, 10.000413, 9.997471 
2.860008e+3, 3.144463e+2, -201355.5, -366916.1, -67506.97, 0.13867375, -0.029500209, -177319.28, -177319.28, 0.0, 9.999811, 9.997543 
2.8596622e+3, 3.244443e+2, 186962.25, 806918.0, -282472.63, 0.18353415, 0.22509234, 916317.1, 916317.1, 0.0, 9.99817, 10.006408 
2.8761643e+3, 1.34905e+2, -1841556.1, -2020128.3, -73560.33, 0.08828907, 0.14402358, -1815156.8, -197225.13, 0.0000021473002, 10.000162, 9.997779 
2.8758207e+3, 1.448962e+2, -1493312.1, -1477274.1, 27055.057, 0.13815498, -0.07618541, -1457074.8, 62952.77, 0.00000043033984, 10.000515, 10.000677 
2.875479e+3, 1.5489298e+2, -1430416.8, -1387804.8, 94384.03, 0.16964582, 0.094036095, -1312351.8, 109700.85, 0.000000019645139, 10.00027, 10.000722 
2.8751376e+3, 1.6488782e+2, -1297788.3, -1176333.4, 63917.047, 0.28934306, 0.054496348, -1148895.0, 175201.34, 0.0, 10.000074, 10.00161 
2.874796e+3, 1.7488113e+2, -1243985.6, -1096118.6, 82898.94, 0.36914188, -0.19639225, -1058973.8, 167180.8, 0.0, 9.99977, 10.001621 
2.8744543e+3, 1.8487605e+2, -1348801.1, -1465519.9, 83951.016, 0.3453465, -0.112415425, -1304917.6, -176711.16, 0.0, 9.99996, 9.998328 
2.8741124e+3, 1.9487196e+2, -1164196.6, -1323425.5, 19846.377, 0.2345733, 0.2180965, -1161760.3, -131502.39, 0.0, 10.000568, 9.9983225 
2.87377e+3, 2.048649e+2, -931334.1, -978753.8, -66674.21, 0.17591459, 0.17941345, -884279.5, 48047.617, 0.0, 10.000766, 9.999893 
2.8734267e+3, 2.1485505e+2, -865740.56, -911844.06, 53582.6, 0.1797476, -0.21627359, -830461.56, 3952.0823, 0.0, 10.00059, 9.999771 
2.8730848e+3, 2.248477e+2, -864403.06, -954583.9, 228511.88, 0.12299371, -0.2886509, -676575.44, 59905.59, 0.0, 10.000302, 9.998962 
2.8727433e+3, 2.348424e+2, -837629.9, -885181.56, 183612.95, -0.04782286, -0.1369471, -676259.8, -37727.363, 0.0, 9.999788, 9.999013 
2.872403e+3, 2.448364e+2, -761697.4, -903298.6, 12701.252, 0.06684719, 0.0003538254, -760567.1, -219967.88, 0.0, 10.000089, 9.998085 
2.8720632e+3, 2.5482994e+2, -498944.03, -733294.6, -17741.455, 0.50004804, 0.1295146, -497608.53, -54928.152, 0.0, 10.001233, 9.998033 
2.8717205e+3, 2.6482475e+2, -197696.86, -141716.14, 63586.07, 0.5274676, 0.2220176, -100232.414, 244504.34, 0.0, 10.00096, 10.001528 
2.871374e+3, 2.7482054e+2, -340085.2, -151886.08, 48266.09, 0.099666335, 0.21605319, -140229.58, 106540.09, 0.0, 9.999258, 10.001617 
2.8710318e+3, 2.848153e+2, -436805.88, -378229.72, 92427.57, 0.07020595, 0.22480956, -310560.88, -161742.61, 0.0, 9.998914, 9.999566 
2.8706935e+3, 2.9480892e+2, -137552.25, -195556.28, 101073.12, 0.42556763, 0.21485451, -61402.508, -10517.663, 0.0, 10.000324, 9.999479 
2.8703493e+3, 3.0480137e+2, 14169.546, -187259.77, 79445.32, 0.3272927, 0.1580912, 41731.938, 41731.938, 0.0, 10.001213, 9.998415 
2.8700018e+3, 3.147925e+2, 135956.13, -104275.86, 104220.73, 0.0008705489, -0.007180777, 174867.84, 174867.84, 0.0, 10.001683, 9.998445 
2.869658e+3, 3.2478973e+2, 404568.66, 372356.4, -180872.39, 0.27788365, 0.362202, 570050.6, 570050.6, 0.0, 10.002, 10.001554 
2.8861576e+3, 1.3525002e+2, -1781466.6, -1843768.1, -108200.53, 0.0019121019, 0.38431445, -1700022.0, -85464.95, 0.0000003382392, 9.999935, 9.99909 
2.8858176e+3, 1.4523795e+2, -1492167.3, -1392770.3, 49222.34, 0.38139775, -0.27114472, -1372520.4, 144155.53, 0.000000039050374, 10.000154, 10.001426 
2.8854737e+3, 1.552371e+2, -1412624.3, -1320517.8, 104482.305, 0.22757249, 0.06529198, -1252389.4, 166286.33, 0.0000000006124831, 10.000142, 10.001248 
2.8851318e+3, 1.6523248e+2, -1366178.8, -1359446.1, 42749.117, 0.27853966, 0.12538435, -1319931.0, 785.2596, 0.0, 10.000287, 10.000231 
2.8847906e+3, 1.7522414e+2, -1256059.0, -1261136.5, -33625.383, 0.3710288, -0.17360596, -1224876.6, -2080.6558, 0.0, 10.000405, 10.00017 
2.884449e+3, 1.8521813e+2, -1369487.0, -1503253.9, 5527.089, 0.39469317, -0.10602312, -1369259.1, -244400.31, 0.0, 9.999995, 9.998027 
2.8841084e+3, 1.9521436e+2, -1425868.6, -1491434.9, 88914.42, 0.41540202, 0.27614763, -1363886.3, -336979.75, 0.0, 9.998991, 9.997921 
2.8837657e+3, 2.0520738e+2, -1018339.8, -868739.94, 29333.158, 0.3017027, 0.20592946, -863194.0, 65777.23, 0.0, 9.999533, 10.0012455 
2.883421e+3, 2.1519682e+2, -687281.7, -679721.0, -3858.7915, 0.07341475, -0.4071751, -678099.4, 152956.86, 0.0, 10.001221, 10.0010605 
2.8830788e+3, 2.2518998e+2, -727353.56, -934017.25, 80446.805, -0.018722279, -0.48433614, -699730.6, 33386.363, 0.0, 10.00148, 9.99852 
2.8827384e+3, 2.3518685e+2, -815838.75, -947860.25, 88815.59, 0.017874444, -0.086107664, -771189.5, -136036.16, 0.0, 10.000292, 9.998333 
2.882398e+3, 2.4518166e+2, -759880.94, -883191.25, 29138.508, 0.17118144, 0.15908046, -753342.2, -216126.95, 0.0, 10.000067, 9.998209 
2.8820577e+3, 2.5517425e+2, -601712.4, -778653.56, 48164.094, 0.43635288, 0.16903983, -589451.5, -150146.73, 0.0, 10.000558, 9.998027 
2.881714e+3, 2.6516846e+2, -322963.97, -245892.45, 24049.207, 0.3825582, 0.22471172, -239003.89, 102361.81, 0.0, 10.000331, 10.001099 
2.881367e+3, 2.7516416e+2, -406131.16, -246870.78, -42879.215, 0.04341078, 0.24499124, -236059.86, 7340.4526, 0.0, 9.999114, 10.001023 
2.881026e+3, 2.8515866e+2, -366366.13, -262941.56, 60829.434, 0.14928095, 0.21752949, -234814.13, -89363.04, 0.0, 9.999084, 10.000259 
2.8806904e+3, 2.9515156e+2, -151044.63, -134639.52, 63591.195, 0.6647451, 0.049522102, -78724.04, -31201.889, 0.0, 9.999973, 10.000058 
2.8803462e+3, 3.0514514e+2, -43329.21, -71171.555, -29287.432, 0.4858454, 0.009851613, -24822.73, -24822.73, 0.0, 10.00022, 9.999694 
2.8799957e+3, 3.1513956e+2, -76853.44, -84947.6, 4242.7466, -0.14250621, 0.0354111, -75037.09, -75037.09, 0.0, 9.999719, 9.999529 
2.879655e+3, 3.2513472e+2, -207382.88, -566981.8, -121491.16, 0.3867723, 0.39497027, -170184.77, -170184.77, 0.0, 10.000657, 9.9957075 
2.8961498e+3, 1.3559389e+2, -1587898.8, -1453073.3, -101040.52, -0.2280215, 0.5246378, -1399021.4, 212168.86, 0.0000000028010363, 9.999934, 10.001789 
2.8958154e+3, 1.455804e+2, -1459761.1, -1298046.5, 51020.707, 0.7405826, -0.43921423, -1283295.1, 230016.33, 0.0, 10.000015, 10.002148 
2.8954685e+3, 1.5557984e+2, -1375059.5, -1244271.8, 109968.87, 0.26824886, -0.13976936, -1181722.3, 233584.53, 0.0, 10.000117, 10.001792 
2.895126e+3, 1.6557583e+2, -1529206.1, -1717282.8, 56051.215, 0.21383582, 0.08737666, -1513768.8, -196420.5, 0.0, 10.000347, 9.997749 
2.894785e+3, 1.7556898e+2, -1382840.6, -1577519.0, -15529.252, 0.35678455, 0.19574285, -1381609.8, -162182.6, 0.0, 10.000613, 9.997897 
2.8944433e+3, 1.8556105e+2, -1184866.5, -1163407.8, -23910.342, 0.37520036, 0.06462553, -1147929.8, -26424.594, 0.0, 10.00015, 10.000292 
2.894101e+3, 1.9555245e+2, -1263041.0, -1167395.6, 72659.664, 0.34104982, -0.24545005, -1128233.0, -104650.9, 0.0, 9.999007, 10.000151 
2.893759e+3, 2.0554689e+2, -1097472.1, -1073911.8, 122434.83, 0.25250897, -0.2066151, -962691.6, -37059.117, 0.0, 9.999653, 9.999806 
2.893417e+3, 2.1554305e+2, -706343.75, -839306.94, 69883.85, 0.08051213, 0.0052952133, -676370.44, 151296.6, 0.0, 10.001678, 9.999768 
2.893075e+3, 2.255364e+2, -604081.5, -788948.06, 23431.582, 0.000726637, -0.028999096, -601157.8, 128572.02, 0.0, 10.001926, 9.999308 
2.8927332e+3, 2.3552795e+2, -686936.2, -787726.2, 40070.62, -0.0031560664, -0.2315546, -672947.06, -41134.78, 0.0, 10.000708, 9.99924 
2.892392e+3, 2.4552226e+2, -627314.9, -674681.75, 58387.098, 0.10354965, -0.15340003, -587990.75, -54117.38, 0.0, 10.000322, 9.999521 
2.892051e+3, 2.5551826e+2, -488724.03, -570648.06, 91585.25, 0.28387946, 0.07898538, -429357.88, 6564.559, 0.0, 10.000643, 9.999413 
2.8917074e+3, 2.655117e+2, -447133.13, -521473.75, 29323.283, 0.28968278, 0.0901071, -436959.1, -98969.62, 0.0, 10.000381, 9.999195 
2.8913617e+3, 2.7550325e+2, -448145.97, -466684.47, -63372.426, 0.13422671, -0.09609771, -393368.5, -153299.61, 0.0, 9.999667, 9.999248 
2.89102e+3, 2.854973e+2, -307333.94, -252756.98, 71277.8, 0.18356293, -0.075286925, -203722.56, -61594.137, 0.0, 9.999545, 10.000108 
2.8906822e+3, 2.954929e+2, -126741.78, -132997.13, 43631.203, 0.40599734, 0.04565237, -86126.29, -41949.54, 0.0, 10.0001745, 9.999965 
2.890338e+3, 3.054877e+2, -57318.176, 23252.209, -126277.89, 0.30024612, 0.0782832, 115515.13, 115515.13, 0.0, 9.999709, 10.0006075 
2.8899905e+3, 3.1548193e+2, -238846.33, -86689.27, -123988.26, 0.07941674, 0.02047368, -17299.484, -17299.484, 0.0, 9.998292, 10.00024 
2.889648e+3, 3.2547644e+2, -39205.28, -170508.98, 13225.114, 0.29389265, 0.1664224, -37886.473, -37886.473, 0.0, 10.000417, 9.99862 
2.9061475e+3, 1.3593295e+2, -1497559.1, -1473863.1, -119510.58, 0.06445988, 0.17996845, -1365614.6, 242244.0, 0.00000000011876347, 10.000866, 10.001209 
2.9058102e+3, 1.4592324e+2, -1398583.0, -1382381.6, -105785.516, 0.7466, -0.33264613, -1284387.1, 225562.5, 0.0, 10.000964, 10.001113 
2.9054633e+3, 1.559216e+2, -1391525.8, -1352014.4, -157338.25, 0.26926947, -0.067019194, -1213196.4, 198765.38, 0.0, 10.0004835, 10.000862 
2.9051208e+3, 1.6591729e+2, -1474511.1, -1626069.8, -118791.02, 0.23835728, 0.11503959, -1409386.9, -95379.305, 0.0, 10.000474, 9.998299 
2.9047808e+3, 1.7591098e+2, -1382978.6, -1531147.8, 27272.14, 0.4367028, 0.21524835, -1378118.4, -162038.89, 0.0, 10.000437, 9.998298 
2.9044384e+3, 1.8590343e+2, -1041615.56, -968890.2, 44666.17, 0.39527684, 0.051536877, -947656.75, 170493.19, 0.0, 10.000625, 10.001391 
2.9040942e+3, 1.958946e+2, -961700.5, -917104.75, 62580.1, 0.25037712, -0.40042648, -872968.75, 147253.97, 0.0, 10.000665, 10.001056 
2.9037526e+3, 2.058895e+2, -1022629.6, -1128198.6, 164175.2, 0.16801882, -0.31566164, -902962.1, 19306.656, 0.0, 10.0006075, 9.998941 
2.9034126e+3, 2.158873e+2, -950037.7, -1056674.0, 159683.42, 0.10956505, 0.14110376, -835006.1, -10711.996, 0.0, 10.000481, 9.998834 
2.9030707e+3, 2.2588067e+2, -829894.25, -827046.94, 49053.816, 0.03371439, 0.12131634, -779396.1, -53036.6, 0.0, 10.000131, 9.999885 
2.9027274e+3, 2.3587039e+2, -879013.8, -826120.4, 49099.637, -0.031185428, -0.3237071, -796797.9, -168340.33, 0.0, 9.999212, 9.99968 
2.902386e+3, 2.4586469e+2, -636499.7, -595914.44, 84010.164, 0.026033632, -0.30477878, -529780.8, 734.2599, 0.0, 9.999933, 10.000232 
2.9020452e+3, 2.558623e+2, -366904.5, -464341.66, 46397.094, 0.1606688, 0.005110956, -348346.1, 84197.055, 0.0, 10.001309, 9.999817 
2.901702e+3, 2.65855e+2, -275825.2, -570769.5, -25013.469, 0.21591032, -0.019268423, -273718.9, 60897.414, 0.0, 10.002153, 9.997985 
2.9013568e+3, 2.7584386e+2, -195251.38, -505379.34, -22616.21, 0.1971256, -0.35708547, -193610.75, 43114.348, 0.0, 10.002105, 9.99781 
2.9010138e+3, 2.8583783e+2, -118515.34, -162278.98, 147824.33, 0.14273778, -0.27422208, 9037.927, 147826.33, 0.0, 10.0008745, 10.000076 
2.9006732e+3, 2.9583544e+2, -328897.84, -255934.67, 157738.19, 0.07027342, 0.070553154, -130514.31, -89695.09, 0.0, 9.998946, 9.999693 
2.9003298e+3, 3.0583122e+2, 22442.781, 160928.69, -41151.33, 0.104490094, 0.17033482, 172233.97, 172233.97, 0.0, 9.999896, 10.001411 
2.8999853e+3, 3.1582582e+2, 201183.94, 118895.01, -19455.496, 0.26336572, 0.09159919, 205551.92, 205551.92, 0.0, 10.00142, 10.000105 
2.8996366e+3, 3.258205e+2, 369968.75, 270257.97, 94915.66, -0.3924392, 0.16802716, 427325.94, 427325.94, 0.0, 10.0022135, 10.000739 
2.916147e+3, 1.3626964e+2, -1641009.9, -1802687.4, -134278.17, 0.5066639, -0.3580048, -1565114.6, 39430.15, 0.0000000000007792345, 10.000994, 9.998893 
2.915803e+3, 1.462661e+2, -1562870.0, -1692972.0, -118514.08, 0.50999504, -0.02915981, -1492727.8, 13865.571, 0.0, 10.000818, 9.999059 
2.9154575e+3, 1.5626228e+2, -1499389.9, -1570492.3, -154084.89, 0.21747424, 0.23441187, -1376808.1, 31832.4, 0.0, 10.000436, 9.999393 
2.9151165e+3, 1.6625665e+2, -1226050.9, -1104493.0, -104778.86, 0.33360276, 0.15007578, -1044141.06, 266553.2, 0.0, 10.000424, 10.001911 
2.914777e+3, 1.762497e+2, -1127032.3, -1039292.8, 38454.58, 0.5898619, -0.16148984, -1024824.7, 187930.64, 0.0, 10.000559, 10.001634 
2.9144335e+3, 1.862456e+2, -1023360.1, -967541.2, 61879.65, 0.4465632, -0.12746379, -927568.2, 187221.5, 0.0, 10.000753, 10.001345 
2.9140878e+3, 1.962429e+2, -915396.3, -904406.94, 79270.03, 0.090562284, 0.049838908, -830441.4, 186369.25, 0.0, 10.000983, 10.000997 
2.9137468e+3, 2.062359e+2, -961091.3, -1081501.0, 154810.81, 0.057515103, -0.05971383, -855190.75, 63684.047, 0.0, 10.000892, 9.999148 
2.9134083e+3, 2.1622665e+2, -917159.4, -1000938.94, 153497.0, 0.1785127, -0.32058305, -799938.9, 21023.375, 0.0, 10.00048, 9.999233 
2.9130656e+3, 2.2622082e+2, -853178.2, -810296.3, 36640.113, 0.12133371, -0.29176414, -789284.8, -66264.25, 0.0, 9.999821, 10.000167 
2.9127204e+3, 2.3621643e+2, -876956.94, -794090.0, 57203.26, -0.04069105, -0.16149673, -764891.0, -139824.55, 0.0, 9.999035, 10.000004 
2.9123798e+3, 2.4621108e+2, -685387.44, -721236.25, 165706.61, 0.015024092, -0.0720695, -536638.6, -9514.722, 0.0, 9.999991, 9.999355 
2.9120415e+3, 2.562054e+2, -292223.66, -483552.5, 93410.805, 0.19524714, 0.0023062944, -254182.22, 175003.33, 0.0, 10.002004, 9.999362 
2.911699e+3, 2.6619896e+2, -37144.234, -290932.5, 2389.149, 0.22518061, 0.0008346495, -37121.746, 294129.0, 0.0, 10.003051, 9.999485 
2.9113537e+3, 2.7619174e+2, 137220.66, -157362.05, 41747.254, 0.14317645, -0.09106268, 143022.66, 376343.63, 0.0, 10.003556, 9.999501 
2.911009e+3, 2.861865e+2, 93024.98, 45047.54, 151744.11, 0.04803561, -0.050807595, 222664.81, 358036.72, 0.0, 10.001867, 10.001027 
2.910665e+3, 2.9618284e+2, -361446.8, -111068.82, 209003.05, 0.032497346, 0.08017551, 7370.089, 44777.973, 0.0, 9.997995, 10.001143 
2.9261422e+3, 1.3661063e+2, -1383449.9, -1779501.0, -346113.84, 0.37221786, -0.33809948, -1182716.3, 418493.88, 0.0, 10.003246, 9.997954 
2.9257977e+3, 1.4661054e+2, -1616352.0, -1620327.4, -38780.375, 0.50376683, 0.31960574, -1579508.4, -76284.44, 0.0, 10.000057, 9.999912 
2.925451e+3, 1.5660392e+2, -1497767.4, -1496439.3, 103292.71, 0.15467705, 0.23498334, -1393808.5, 11486.619, 0.0, 10.000139, 10.000045 
2.92511e+3, 1.6659795e+2, -1334346.1, -1052877.0, 88538.766, 0.26247966, 0.06391856, -1027342.7, 280006.53, 0.0, 9.99926, 10.002817 
2.92477e+3, 1.7659207e+2, -1500312.8, -1129351.3, 49835.297, 0.5293651, -0.23330942, -1122773.0, 86622.92, 0.0, 9.997656, 10.002405 
2.9244274e+3, 1.8658899e+2, -1356489.3, -1182608.3, 42121.688, 0.4109993, -0.11219999, -1172942.0, -61519.375, 0.0, 9.9987135, 10.000847 
2.9240832e+3, 1.965876e+2, -1007441.44, -995641.75, 22552.145, 0.12744845, 0.22929269, -978230.5, 35206.098, 0.0, 10.000572, 10.000567 
2.9237422e+3, 2.065803e+2, -938655.8, -940708.25, 90210.49, 0.106275104, 0.034046613, -849465.7, 66036.555, 0.0, 10.000545, 10.000255 
2.9234028e+3, 2.1656922e+2, -1070618.1, -993243.4, 162329.92, 0.22763671, -0.52503854, -865054.4, -47452.465, 0.0, 9.999116, 9.999936 
2.92306e+3, 2.2656402e+2, -881249.2, -854853.5, 75229.984, 0.1583287, -0.44239828, -791672.44, -72018.055, 0.0, 9.999775, 9.999881 
2.922715e+3, 2.3656233e+2, -618954.1, -712144.8, 59040.254, -0.015130051, -0.024690092, -590337.25, 31340.93, 0.0, 10.00103, 9.9996 
2.922375e+3, 2.4655676e+2, -614010.9, -722936.9, 208919.05, 0.025609614, 0.07870027, -452572.53, 71166.61, 0.0, 10.000702, 9.998977 
2.9220372e+3, 2.565489e+2, -686378.2, -691624.56, 192157.81, 0.20158327, -0.03982458, -496825.7, -71003.664, 0.0, 9.999434, 9.999155 
2.9216954e+3, 2.6654378e+2, -331168.53, -278789.03, 90958.0, 0.2013165, 0.024189163, -210325.4, 117549.17, 0.0, 10.000405, 10.000833 
2.92135e+3, 2.7654007e+2, -12751.739, -69428.82, 75761.48, 0.055159252, 0.13872802, 39797.754, 269707.88, 0.0, 10.001862, 10.000925 
2.9210037e+3, 2.8653544e+2, 158725.88, 120939.08, -222.98917, -0.0796057, 0.14643286, 158727.19, 290679.4, 0.0, 10.00219, 10.001368 
2.920658e+3, 2.9653051e+2, 55115.016, 235508.44, -43057.973, 0.019198656, 0.05349262, 245258.89, 279254.0, 0.0, 10.000247, 10.002452 
2.9361355e+3, 1.3695474e+2, -1468245.3, -1821331.4, -615854.5, -0.0068913433, 0.045319907, -1004129.1, 593728.4, 0.0, 10.002614, 9.997993 
2.935793e+3, 1.4695603e+2, -1411057.8, -1181190.3, -15690.874, 0.6191425, 0.6540854, -1180124.1, 319721.1, 0.0, 9.999962, 10.002989 
2.9354444e+3, 1.5694629e+2, -1335906.5, -1158556.5, 97576.93, 0.017371336, -0.03130242, -1115381.1, 286547.7, 0.0, 10.00009, 10.002402 
2.9351008e+3, 1.6694133e+2, -1447538.3, -1294216.4, 25171.498, 0.019515349, -0.103811145, -1290189.6, 13783.165, 0.0, 9.999234, 10.001196 
2.9347587e+3, 1.769384e+2, -1583260.9, -1333655.1, 21214.59, 0.19109127, 0.060921352, -1331864.9, -125865.18, 0.0, 9.997741, 10.000981 
2.9344195e+3, 1.8693303e+2, -1406989.3, -1303363.4, 116579.17, 0.3204037, 0.064855866, -1227601.8, -119547.1, 0.0, 9.998744, 10.000022 
2.9340816e+3, 1.9692668e+2, -966923.7, -982951.06, 71165.7, 0.43371913, -0.0015588764, -903321.94, 106798.484, 0.0, 10.00084, 10.000537 
2.9337397e+3, 2.0692228e+2, -753335.9, -562060.06, 30414.982, 0.3676784, -0.05897854, -557340.2, 354816.22, 0.0, 10.000564, 10.00285 
2.933396e+3, 2.1691816e+2, -929623.2, -712305.1, 133261.33, 0.20974165, -0.1641808, -649018.4, 165166.52, 0.0, 9.999106, 10.001885 
2.933054e+3, 2.2691266e+2, -925716.4, -1022367.5, 153447.48, 0.14965117, -0.11089998, -813164.7, -96923.9, 0.0, 10.00002, 9.9986515 
2.932712e+3, 2.3690689e+2, -513086.22, -731194.44, 96609.0, 0.10738175, 0.018863104, -476448.53, 141857.8, 0.0, 10.001975, 9.999047 
2.932371e+3, 2.4690048e+2, -492038.47, -540950.94, 119319.88, 0.11422729, -0.0046925074, -394694.28, 125676.82, 0.0, 10.000962, 10.000123 
2.9320297e+3, 2.568936e+2, -720968.6, -579169.5, 149303.7, 0.16266905, -0.13215654, -484786.44, -62349.066, 0.0, 9.998578, 10.000359 
2.931688e+3, 2.6688898e+2, -503027.78, -362966.9, 182745.36, 0.14137451, -0.069004975, -237293.16, 87189.29, 0.0, 9.999168, 10.000875 
2.9313454e+3, 2.768855e+2, -103671.19, -148978.45, 112330.82, 0.04048555, 0.06728204, -11732.494, 214783.66, 0.0, 10.001307, 10.000671 
2.9309997e+3, 2.868791e+2, -11384.753, -302881.06, -68976.336, -0.11307315, 0.07949116, 4113.0522, 132695.28, 0.0, 10.002386, 9.998417 
2.9306558e+3, 2.968719e+2, 289843.13, -18093.162, -265487.44, 0.17434299, 0.047370292, 442778.5, 473436.75, 0.0, 10.003284, 9.999313 
2.946132e+3, 1.3729993e+2, -1606105.6, -1656717.5, -404878.0, 0.14613415, 0.14185159, -1225743.5, 368731.66, 0.0, 10.000701, 10.000035 
2.9457864e+3, 1.4729904e+2, -1252362.8, -1146268.0, 108051.63, 0.48714566, 0.4874713, -1078944.4, 417532.2, 0.0, 10.001259, 10.002591 
2.945439e+3, 1.572886e+2, -1486467.0, -1283275.9, 14894.28, 0.07161071, -0.23531479, -1282189.9, 116374.83, 0.0, 9.999303, 10.001925 
2.945095e+3, 1.6728394e+2, -1384869.1, -1356993.9, -54034.03, 0.041408516, -0.22002588, -1315128.9, -14520.546, 0.0, 10.000094, 10.000341 
2.9447517e+3, 1.7728172e+2, -1067273.8, -1180845.6, 3075.7903, 0.09732824, 0.09290337, -1067190.5, 135442.77, 0.0, 10.001724, 10.000095 
2.9444128e+3, 1.8727583e+2, -1115212.0, -1164447.5, 167155.89, 0.25934207, 0.080720626, -970870.8, 133824.69, 0.0, 10.000812, 9.9999485 
2.9440767e+3, 1.972681e+2, -1262441.9, -1124569.4, 167733.63, 0.52018434, -0.12220063, -1012158.5, -5382.442, 0.0, 9.998847, 10.000516 
2.9437342e+3, 2.07265e+2, -977849.4, -604865.4, -2672.656, 0.44537225, -0.08729169, -604846.2, 303953.9, 0.0, 9.998742, 10.003434 
2.9433894e+3, 2.1726395e+2, -981020.3, -715997.6, -36399.92, 0.21843587, 0.049072225, -711089.1, 99710.18, 0.0, 9.998707, 10.002048 
2.9430485e+3, 2.2725834e+2, -988277.94, -1064897.3, 92816.82, 0.15711541, 0.07583925, -926175.5, -213319.47, 0.0, 9.999719, 9.998457 
2.9427084e+3, 2.3725052e+2, -724455.06, -845724.94, 102072.945, 0.16400944, 0.003962221, -666365.6, -51425.137, 0.0, 10.00064, 9.998879 
2.942366e+3, 2.4724402e+2, -539330.94, -454851.28, 30213.41, 0.1391875, -0.08433928, -445157.97, 71844.17, 0.0, 10.000217, 10.001055 
2.942022e+3, 2.572382e+2, -642177.3, -456797.53, 70163.69, 0.11650201, -0.20805734, -433236.16, -14183.226, 0.0, 9.998806, 10.001086 
2.9416814e+3, 2.6723388e+2, -454824.9, -314980.44, 235614.55, 0.100184955, -0.1627934, -139131.78, 181960.72, 0.0, 9.9994335, 10.00106 
2.941341e+3, 2.772301e+2, -249224.16, -287626.78, 198402.19, 0.046237946, -0.07403389, -69096.3, 154032.45, 0.0, 10.000646, 10.000023 
2.940996e+3, 2.872221e+2, -248823.47, -661115.0, 77580.97, -0.1536192, -0.05358599, -234708.3, -109491.84, 0.0, 10.001832, 9.996213 
2.9406556e+3, 2.972128e+2, -58291.477, -521529.22, 39723.355, 0.42337796, -0.019426629, -54909.824, -27587.299, 0.0, 10.002432, 9.99623 
2.9561296e+3, 1.3764462e+2, -1433897.9, -1241996.0, -285848.66, 0.4139782, -0.08989477, -1036424.1, 554659.56, 0.0, 10.000413, 10.003034 
2.9557788e+3, 1.4764065e+2, -1481925.6, -1594774.0, 4455.8936, 0.19656426, 0.01706182, -1481750.0, 11362.709, 0.0, 10.001087, 9.999621 
2.9554343e+3, 1.5763086e+2, -1636351.3, -1608829.9, -42317.1, 0.25966457, -0.34429488, -1578092.3, -182889.0, 0.0, 9.999319, 9.999703 
2.955092e+3, 1.6762532e+2, -1370129.8, -1350235.0, 8868.783, 0.30684012, -0.33094242, -1346855.5, -49596.125, 0.0, 10.000168, 10.000364 
2.9547492e+3, 1.776217e+2, -989264.1, -1097979.5, 36512.71, 0.21867764, -0.15847036, -978139.5, 221159.63, 0.0, 10.002015, 10.000537 
2.9544073e+3, 1.8761753e+2, -1025017.25, -1017481.0, 78506.2, 0.18414524, -0.07814505, -942652.56, 158690.52, 0.0, 10.000945, 10.000905 
2.954067e+3, 1.9761282e+2, -1237568.1, -1086540.1, 108936.73, 0.2172563, -0.05414131, -1029503.8, -26112.422, 0.0, 9.998851, 10.00079 
2.9537255e+3, 2.0760807e+2, -1140318.5, -956882.75, -1464.7, 0.27615765, -0.045222457, -956871.06, -51435.234, 0.0, 9.99871, 10.001075 
2.9533833e+3, 2.176035e+2, -1000703.6, -858088.8, -59455.813, 0.28950986, -0.036117956, -836553.7, -29077.295, 0.0, 9.999076, 10.000915 
2.9530427e+3, 2.2759835e+2, -843284.2, -778635.5, 90059.875, 0.19157964, -0.03831461, -715274.75, -5749.022, 0.0, 9.9997835, 10.000392 
2.9527023e+3, 2.3759267e+2, -588329.9, -582957.7, 87518.63, 0.06637982, -0.082914405, -498083.94, 113497.945, 0.0, 10.000661, 10.000684 
2.9523596e+3, 2.475874e+2, -516459.13, -416998.5, -27920.992, 0.08289005, -0.13724603, -409696.5, 103933.15, 0.0, 10.000185, 10.001372 
2.952016e+3, 2.5758246e+2, -505736.13, -319064.9, 28075.041, 0.16406544, -0.20277184, -314933.9, 100738.58, 0.0, 9.999361, 10.001799 
2.9516768e+3, 2.6757818e+2, -292221.78, -100007.3, 246182.13, 0.21983415, -0.25806153, 68162.29, 385871.38, 0.0, 9.999909, 10.002337 
2.951338e+3, 2.775741e+2, -80955.21, -47219.902, 219024.78, 0.22042073, -0.3137072, 155585.77, 375330.56, 0.0, 10.001039, 10.001518 
2.9509923e+3, 2.8756726e+2, -61417.168, -320154.5, 169737.81, -0.070877604, -0.3698857, 22632.02, 144448.95, 0.0, 10.001958, 9.998531 
2.950652e+3, 2.9756182e+2, 195493.23, -88012.89, 178126.75, 0.38432348, -0.15633275, 281386.97, 305266.7, 0.0, 10.002702, 9.999111 
2.9661223e+3, 1.3798667e+2, -1837187.3, -1405961.0, -321316.72, 0.39956763, -0.15046549, -1234620.0, 353111.53, 0.0, 9.997589, 10.003238 
2.9657722e+3, 1.4798273e+2, -1623840.1, -1738506.0, -227272.3, 0.04887861, -0.027490148, -1446780.8, 42981.72, 0.0, 10.000496, 9.998894 
2.9654306e+3, 1.5797387e+2, -1454055.5, -1590204.1, -126459.695, 0.47577193, -0.23725542, -1378511.8, 13335.077, 0.0, 10.000915, 9.999046 
2.9650882e+3, 1.6796808e+2, -1318363.9, -1333829.6, -10438.342, 0.46487886, -0.22795463, -1313106.1, -19200.457, 0.0, 10.00059, 10.000261 
2.9647443e+3, 1.7796351e+2, -1299635.3, -1248913.9, 2113.408, 0.2107165, -0.15778975, -1248825.9, -52872.043, 0.0, 9.999924, 10.000507 
2.9644012e+3, 1.8796e+2, -1077914.5, -996364.1, -43797.637, 0.07540992, -0.044517323, -977299.1, 120690.27, 0.0, 10.000418, 10.001298 
2.9640594e+3, 1.9795641e+2, -1005014.56, -999263.9, -26176.691, 0.07908943, 0.049498487, -975805.06, 24219.406, 0.0, 10.000588, 10.00055 
2.9637185e+3, 2.0795038e+2, -918439.8, -974389.9, -31102.984, 0.1534134, 0.0020797986, -904581.9, -2500.0764, 0.0, 10.000847, 9.999894 
2.963377e+3, 2.1794344e+2, -843131.4, -882065.56, -2900.8547, 0.2259384, -0.11403419, -842916.44, -38768.992, 0.0, 10.000632, 9.999994 
2.963037e+3, 2.2793816e+2, -741627.4, -641665.1, 93718.0, 0.18074217, -0.14378485, -585433.4, 120762.45, 0.0, 10.000094, 10.001193 
2.9626974e+3, 2.379337e+2, -756001.8, -588589.1, -16036.707, 0.110804774, -0.16064551, -587066.8, 21168.523, 0.0, 9.999223, 10.00134 
2.962354e+3, 2.4792919e+2, -587351.9, -423394.63, -176392.44, 0.1233774, -0.19770873, -310861.6, 199413.14, 0.0, 9.999612, 10.001584 
2.9620102e+3, 2.579247e+2, -432662.5, -264803.5, -97071.71, 0.19624537, -0.25270346, -220408.89, 191904.61, 0.0, 9.999821, 10.001934 
2.961672e+3, 2.6792115e+2, -255125.75, 13776.207, 105852.805, 0.29141796, -0.31503966, 50444.723, 364786.7, 0.0, 9.99977, 10.003174 
2.961334e+3, 2.7791744e+2, -273163.3, -41578.13, 40704.12, 0.33067304, -0.43828622, -34632.18, 181739.44, 0.0, 9.999354, 10.002351 
2.960989e+3, 2.8791156e+2, -79840.04, -105400.19, -58979.43, -0.03644722, -0.57562596, -32271.93, 86157.36, 0.0, 10.000924, 10.000471 
2.9606467e+3, 2.9790953e+2, 367739.63, 274669.2, -174330.89, 0.13752043, -0.27154875, 501639.4, 522090.66, 0.0, 10.002763, 10.001544 
2.9761124e+3, 1.383282e+2, -1833090.8, -1569676.0, -83353.1, 0.17349066, 0.021359775, -1545516.3, 38878.773, 0.0, 9.998301, 10.001778 
2.9757664e+3, 1.4832498e+2, -1540449.1, -1580272.0, -194035.92, -0.0070641977, 0.22034052, -1365305.8, 121117.84, 0.0, 10.000533, 9.999974 
2.975428e+3, 1.583179e+2, -1379561.0, -1457265.4, -126604.695, 0.6626512, 0.08114267, -1285981.3, 102509.27, 0.0, 10.000975, 9.999938 
2.9750833e+3, 1.6831253e+2, -1332168.9, -1365390.8, -39022.844, 0.49388486, 0.11314721, -1306368.8, -15825.044, 0.0, 10.000565, 10.000075 
2.9747367e+3, 1.7830741e+2, -1274099.0, -1258179.5, -26823.064, -0.005562234, 0.16019078, -1238160.1, -45564.754, 0.0, 10.000139, 10.000357 
2.9743952e+3, 1.8830305e+2, -1052298.4, -1009658.56, -47584.902, -0.010406554, 0.20970659, -978835.75, 115802.13, 0.0, 10.000633, 10.001138 
2.9740557e+3, 1.9829871e+2, -889411.9, -914747.25, -47308.117, 0.15240079, 0.23383869, -853104.75, 143574.66, 0.0, 10.001181, 10.000875 
2.973713e+3, 2.0829174e+2, -810042.8, -866652.06, -55837.727, 0.053499483, 0.054078534, -775745.5, 122995.07, 0.0, 10.001308, 10.0004425 
2.9733688e+3, 2.1828423e+2, -731543.4, -806049.5, -27310.902, -0.10543569, -0.16838233, -722604.7, 78200.984, 0.0, 10.001211, 10.000273 
2.9730314e+3, 2.2827815e+2, -784771.44, -816603.5, 36355.438, 0.18067251, -0.20304413, -761000.75, -58138.984, 0.0, 10.0003395, 9.999931 
2.9726952e+3, 2.3827259e+2, -787800.1, -696819.44, -85074.5, 0.53739053, -0.20519468, -645836.75, -40923.066, 0.0, 9.999326, 10.000577 
2.972351e+3, 2.4826713e+2, -561642.6, -422160.4, -201715.33, 0.42410347, -0.30864516, -278470.28, 228492.58, 0.0, 9.999767, 10.00154 
2.972005e+3, 2.582619e+2, -305242.88, -221174.72, -156621.42, 0.22183211, -0.43218905, -101044.875, 307964.5, 0.0, 10.000661, 10.001857 
2.971666e+3, 2.682604e+2, -257200.86, -57590.42, -38697.91, 0.26593816, -0.25199372, -50350.742, 260671.16, 0.0, 9.999988, 10.002623 
2.971327e+3, 2.7825937e+2, -366640.4, -162975.7, -99260.05, 0.31006372, -0.04144102, -122602.625, 90427.09, 0.0, 9.9989605, 10.00174 
2.9709828e+3, 2.882525e+2, -168927.34, -234574.02, -158821.36, -0.095706694, -0.21979925, -39573.008, 75524.59, 0.0, 10.000638, 9.999757 
2.9706448e+3, 2.982454e+2, 333480.34, -3895.3108, -328552.9, 0.22380929, -0.32502884, 534119.75, 551289.06, 0.0, 10.003659, 9.999214 
2.986107e+3, 1.3867188e+2, -1598740.8, -1714230.6, 253727.19, 0.22741099, 0.08415707, -1396270.4, 184748.72, 0.0, 10.001031, 9.999485 
2.9857618e+3, 1.486677e+2, -1317037.0, -1457483.3, -47510.574, -0.010045231, 0.26236022, -1302474.9, 180591.44, 0.0, 10.002006, 10.000119 
2.985422e+3, 1.5866113e+2, -1277763.4, -1376541.6, -21065.734, 0.51915115, 0.15958811, -1273458.4, 111672.25, 0.0, 10.001547, 10.000234 
2.9850775e+3, 1.6865611e+2, -1195768.8, -1210608.4, 92129.8, 0.397357, 0.16998757, -1110760.5, 176416.17, 0.0, 10.001159, 10.000842 
2.9847318e+3, 1.7865075e+2, -1217648.6, -1242123.0, 192503.88, 0.036077034, 0.15857023, -1036993.44, 152232.5, 0.0, 10.0006075, 10.000244 
2.9843906e+3, 1.8864542e+2, -1144441.1, -1119983.3, 159115.45, 0.063256115, 0.17201856, -972627.5, 118651.234, 0.0, 10.000291, 10.0005455 
2.984051e+3, 1.986404e+2, -1118068.8, -1039673.44, 125324.41, 0.2088825, 0.17640676, -947559.75, 45768.684, 0.0, 9.999717, 10.000711 
2.983708e+3, 2.0863347e+2, -941153.6, -922826.06, 92094.08, 0.064969845, 0.005061543, -839441.0, 55948.598, 0.0, 10.000382, 10.000499 
2.9833645e+3, 2.1862663e+2, -830811.44, -883974.06, 89637.2, -0.08706149, -0.15517516, -763897.3, 33550.402, 0.0, 10.000716, 9.999962 
2.9830274e+3, 2.2861993e+2, -762209.6, -909133.25, 117874.54, 0.26909864, -0.17208704, -696779.25, 2730.8, 0.0, 10.001036, 9.998924 
2.9826915e+3, 2.3861271e+2, -648418.9, -748566.7, 15155.43, 0.7199485, -0.21834578, -646175.7, -44596.43, 0.0, 10.000852, 9.999477 
2.9823464e+3, 2.4860649e+2, -486682.06, -420852.63, -92798.484, 0.5264644, -0.33516896, -355304.47, 148333.03, 0.0, 10.000489, 10.001188 
2.982e+3, 2.5860092e+2, -492331.3, -411134.4, -84997.62, 0.23228206, -0.4305224, -357537.16, 48152.02, 0.0, 9.999884, 10.000913 
2.9816598e+3, 2.6859924e+2, -323676.4, -174544.23, -32697.555, 0.2213537, -0.17964125, -167690.22, 140015.66, 0.0, 9.999946, 10.001815 
2.9813197e+3, 2.7859867e+2, -331243.97, -239392.58, -55829.07, 0.19608825, 0.14148758, -213026.81, -3313.6704, 0.0, 9.999659, 10.00087 
2.980978e+3, 2.885922e+2, -105363.18, -245776.13, 5049.7847, -0.1436831, 0.061563693, -105181.805, 6595.7437, 0.0, 10.00132, 9.999335 
2.9806447e+3, 2.9857972e+2, 165929.86, -351270.84, 12223.529, 0.37933725, -0.4836043, 166218.6, 180122.67, 0.0, 10.003746, 9.9967575 
2.9961044e+3, 1.3901514e+2, -1693672.4, -2024760.5, 371505.7, 0.38456795, -0.089431316, -1452496.3, 125140.19, 0.0, 10.001504, 9.997145 
2.9957575e+3, 1.4900969e+2, -1378688.6, -1535331.0, -91795.04, -0.050094508, 0.06644572, -1336342.8, 143363.17, 0.0, 10.001763, 9.999726 
2.9954126e+3, 1.590029e+2, -1276252.5, -1332908.9, -30794.957, 0.021650508, -0.027927823, -1262738.0, 119038.09, 0.0, 10.001353, 10.000637 
2.9950714e+3, 1.6899757e+2, -1107269.8, -988518.4, 54407.637, 0.27399066, -0.16639893, -967360.44, 316456.3, 0.0, 10.000971, 10.002474 
2.9947302e+3, 1.7899281e+2, -1116954.8, -1070202.8, 168993.72, 0.35631657, -0.2764013, -922976.0, 262874.5, 0.0, 10.000765, 10.001345 
2.994387e+3, 1.8898655e+2, -1159893.8, -1214918.0, 162629.6, 0.20063524, -0.32659224, -1022465.6, 65447.72, 0.0, 10.00058, 9.999753 
2.9940447e+3, 1.989803e+2, -1165809.5, -1140615.6, 126028.38, 0.17770766, -0.3403264, -1026556.1, -36577.316, 0.0, 9.999709, 10.00002 
2.9937062e+3, 2.0897678e+2, -949129.2, -922041.5, 142776.63, 0.42741573, -0.14093968, -792167.75, 99846.66, 0.0, 10.0003, 10.000543 
2.9933664e+3, 2.1897246e+2, -786980.44, -912745.9, 126966.63, 0.56976163, -0.02463936, -708177.75, 85878.46, 0.0, 10.001188, 9.999537 
2.993024e+3, 2.2896364e+2, -789734.25, -1035594.5, 132824.58, 0.37686414, -0.1589028, -731683.2, -35543.8, 0.0, 10.001286, 9.997964 
2.9926828e+3, 2.389552e+2, -548587.25, -766143.6, 32746.113, 0.2524968, -0.24542645, -543765.25, 54453.75, 0.0, 10.001779, 9.998921 
2.992339e+3, 2.489504e+2, -435053.44, -529050.56, -113177.94, 0.27866498, -0.1195799, -359503.6, 140764.4, 0.0, 10.001368, 10.000062 
2.991995e+3, 2.5894564e+2, -517561.97, -535708.6, -82789.78, 0.28779283, -0.012757787, -443349.8, -41032.793, 0.0, 10.000131, 9.999985 
2.991653e+3, 2.6893726e+2, -388078.8, -340540.16, -107.11377, 0.15141912, -0.3106285, -340539.9, -36143.234, 0.0, 10.000047, 10.00067 
2.991312e+3, 2.7892935e+2, -193611.83, -176874.66, -7769.766, -0.025752453, -0.6156282, -173823.84, 32647.223, 0.0, 10.000571, 10.000902 
2.990977e+3, 2.8892764e+2, 109634.914, 33287.426, 115551.734, 0.14874719, -0.32415348, 193155.2, 301641.25, 0.0, 10.002, 10.001008 
2.9906446e+3, 2.9892194e+2, 270452.34, -220220.56, 276318.25, 0.53774893, -0.29885358, 394631.44, 405178.28, 0.0, 10.003956, 9.997714 
3.006101e+3, 1.3935532e+2, -1658071.5, -2097190.8, 243569.67, 0.32646826, -0.3602393, -1549709.5, 24578.912, 0.0, 10.002139, 9.996302 
3.0057538e+3, 1.493499e+2, -1426959.9, -1617836.4, -212368.13, 0.038624633, -0.1714818, -1289570.5, 186800.47, 0.0, 10.00169, 9.999156 
3.0054095e+3, 1.5934789e+2, -1665623.3, -1631923.4, -184658.45, 0.26988488, 0.27211648, -1463347.6, -84943.26, 0.0, 9.999113, 9.999654 
3.0050662e+3, 1.6934057e+2, -1232957.6, -1201876.0, -233018.83, 0.28596327, 0.025159337, -983880.4, 296582.94, 0.0, 10.000678, 10.00115 
3.0047268e+3, 1.7933299e+2, -853364.06, -929697.44, -271948.5, 0.45890224, -0.34308222, -616917.06, 565603.2, 0.0, 10.002473, 10.001487 
3.0043817e+3, 1.893313e+2, -1132937.8, -1021737.94, -237977.31, 0.22746225, -0.12775163, -832951.75, 251581.67, 0.0, 9.9999275, 10.001392 
3.004036e+3, 1.9932546e+2, -1484234.6, -1441750.9, 8297.024, -0.0053445934, -0.18985496, -1440188.0, -453596.25, 0.0, 9.998129, 9.998717 
3.0036968e+3, 2.09319e+2, -993467.6, -1201902.3, -35382.03, -0.019460626, -0.09931175, -987625.25, -98963.11, 0.0, 10.0011215, 9.998185 
3.0033585e+3, 2.1931283e+2, -346506.9, -802963.6, -261577.42, 0.06694543, 0.016937118, -227588.42, 563140.2, 0.0, 10.004671, 9.998588 
3.0030215e+3, 2.2930467e+2, -168803.33, -520499.34, -80092.27, 0.46369377, -0.20657745, -151422.73, 541377.3, 0.0, 10.004621, 9.9998455 
3.0026844e+3, 2.3929803e+2, -497913.1, -680341.75, 83342.09, 0.80298585, -0.3184971, -465571.94, 129284.13, 0.0, 10.001889, 9.999422 
3.0023366e+3, 2.49293e+2, -480430.88, -724287.4, -38407.76, 0.46332568, -0.13373567, -474524.66, 22386.3, 0.0, 10.001849, 9.998416 
3.001988e+3, 2.592877e+2, -413270.1, -633502.94, -7484.478, 0.097159296, 0.043550834, -413016.03, -14046.173, 0.0, 10.001516, 9.998609 
3.0016497e+3, 2.6927942e+2, -326798.84, -449965.1, 93817.13, 0.3402092, -0.12228676, -276158.38, 24885.709, 0.0, 10.001104, 9.999363 
3.0013117e+3, 2.7927083e+2, -218755.9, -243253.33, 101444.27, 0.44598278, -0.38321456, -128823.55, 74296.01, 0.0, 10.000651, 10.000384 
3.0009755e+3, 2.892702e+2, -116998.125, 69575.95, 182950.5, 0.4902175, -0.057307266, 181650.45, 286769.34, 0.0, 9.999912, 10.0021925 
3.000635e+3, 2.9926354e+2, -272191.53, -469630.47, 392369.66, -0.18157326, -0.25034478, 33686.918, 40874.703, 0.0, 10.000356, 9.997635 
