coord_x,coord_y,stress_xx,stress_yy,tau_xy,velocity_x,velocity_y,stress_1,eps,damage,lx,ly
5.000354e+0, 1.258086e+2, -1533977.4, -1741945.5, 70131.56, -0.050364774, 0.31428093, -1512537.6, 194549.45, 0.0027102246, 10.001546, 9.999063 
5.000159e+0, 1.3580568e+2, -1585610.8, -1657626.4, 31647.268, -0.005251081, -0.026105244, -1573679.9, 35438.914, 0.0016001622, 10.000335, 9.999539 
5.0001097e+0, 1.4580815e+2, -1497064.5, -1463828.5, 36166.87, 0.01301782, 0.22780481, -1440644.5, 70447.555, 0.00071385584, 9.99986, 10.000411 
4.999981e+0, 1.5580787e+2, -1401078.3, -1389679.0, -11971.22, -0.003589284, 0.08119924, -1382119.9, 30968.152, 0.00020880907, 9.999947, 10.000208 
5.00001e+0, 1.6580728e+2, -1415228.0, -1625429.9, 12569.879, -0.022416778, 0.14297138, -1414479.0, -99383.8, 0.00003056022, 10.000388, 9.997705 
5.000135e+0, 1.7580605e+2, -1221850.8, -1487394.9, 24188.063, -0.043949906, 0.18914856, -1219665.4, -2550.161, 0.0000010193884, 10.001068, 9.997654 
5.0003874e+0, 1.858052e+2, -1044502.6, -1247745.1, 21803.86, -0.024593456, 0.29739884, -1042189.8, 76936.03, 0.0, 10.001181, 9.998567 
5.000709e+0, 1.9580433e+2, -1001063.5, -1194815.4, -7243.502, 0.022723045, 0.29239613, -1000793.06, 20340.027, 0.0, 10.000885, 9.998405 
5.0004363e+0, 2.0580265e+2, -985765.4, -1194001.6, 21185.973, 0.011067643, 0.31907907, -983631.8, -60481.42, 0.0, 10.000571, 9.997881 
4.9996805e+0, 2.1579996e+2, -929159.06, -1109172.8, 47293.168, -0.048757493, 0.20151013, -917490.56, -92311.34, 0.0, 10.000256, 9.997945 
4.9998012e+0, 2.2579883e+2, -707714.9, -753707.25, 59879.17, -0.03628281, 0.20543681, -666567.94, 60620.79, 0.0, 10.000255, 9.999714 
5.000591e+0, 2.3579854e+2, -586276.2, -658047.56, -3071.0054, 0.03139977, 0.14049053, -586145.06, 43041.918, 0.0, 10.000471, 9.999595 
5.0005543e+0, 2.4579772e+2, -543603.1, -665298.9, -8244.614, 0.030547375, 0.14445037, -543047.1, -11854.8, 0.0, 10.000426, 9.998894 
4.9999133e+0, 2.557961e+2, -495045.94, -613664.9, 2261.3088, -0.021707939, 0.035839602, -495002.84, -61795.434, 0.000000000017365094, 10.000178, 9.998699 
4.999896e+0, 2.6579544e+2, -422953.63, -561282.56, 41257.03, -0.021398233, 0.12464185, -411583.22, -76366.53, 0.000000288742, 10.000145, 9.998394 
5.0003344e+0, 2.7579543e+2, -302858.34, -443169.22, 41718.445, 0.01639655, 0.22122312, -291391.4, -54169.273, 0.0000033591298, 10.000254, 9.99848 
5.0003844e+0, 2.8579444e+2, -114427.8, -168451.66, 18456.156, 0.019166503, 0.20982018, -108724.68, 30504.998, 0.000018802597, 10.000305, 9.999661 
5.000074e+0, 2.957912e+2, 10732.595, -32293.861, -54429.242, -0.016155176, -0.1492665, 47745.953, 88999.49, 0.000081046455, 10.0003605, 9.999904 
4.9999303e+0, 3.0579418e+2, 55858.938, -31775.02, -38205.07, -0.03790968, 0.16333547, 70175.9, 70175.9, 0.0003038914, 10.000529, 9.99949 
4.999959e+0, 3.157956e+2, -177207.55, -520308.2, 12239.922, -0.03735258, 0.33615842, -176771.44, -176771.44, 0.00078894256, 10.000457, 9.996192 
1.5001036e+1, 1.2580737e+2, -1610701.4, -1808629.4, -18965.125, -0.14983739, -0.04764574, -1608900.5, 98188.484, 0.0026043395, 10.001207, 9.998789 
1.5000561e+1, 1.3580741e+2, -1642220.4, -1724021.4, 3510.5757, -0.0035447772, 0.0049375994, -1642070.0, -32974.145, 0.0015429672, 10.000163, 9.99919 
1.5000314e+1, 1.4580947e+2, -1585632.8, -1586674.8, 25667.01, 0.039756015, 0.27547047, -1560481.5, -49405.797, 0.0006869522, 9.999625, 9.999696 
1.4999932e+1, 1.558068e+2, -1476425.1, -1496212.1, 8910.0205, -0.010095971, 0.0019533199, -1473004.4, -59907.266, 0.0001968844, 9.999761, 9.999579 
1.500004e+1, 1.6580525e+2, -1390517.4, -1518682.4, 25394.61, -0.0639665, -0.050591663, -1385669.0, -70557.28, 0.000026649353, 10.00018, 9.998549 
1.5000445e+1, 1.758044e+2, -1192714.9, -1381380.1, 60841.344, -0.1272918, -0.014054035, -1174796.4, 42326.348, 0.00000066228677, 10.000892, 9.998482 
1.5001132e+1, 1.8580325e+2, -1101231.4, -1303742.9, -2673.2502, -0.07395839, 0.034363225, -1101196.1, 17940.28, 0.0, 10.000951, 9.9983015 
1.5002127e+1, 1.958016e+2, -1045536.7, -1231385.3, -3278.7278, 0.0709065, 0.014122556, -1045478.9, -24324.316, 0.0, 10.000673, 9.998268 
1.5001284e+1, 2.0580061e+2, -939900.1, -1038978.2, -1923.9459, 0.03232463, 0.05175919, -939862.8, -16698.625, 0.0, 10.000347, 9.999061 
1.4999023e+1, 2.1579997e+2, -891834.7, -974827.4, 52812.38, -0.14736807, 0.05373853, -866166.4, -40997.4, 0.0, 10.00004, 9.99898 
1.4999391e+1, 2.2579917e+2, -821596.2, -932854.94, 53226.566, -0.10640595, 0.100808516, -800234.06, -73056.34, 0.0, 10.000041, 9.998596 
1.5001744e+1, 2.3579815e+2, -691460.9, -815921.25, 18174.855, 0.09398947, 0.11360803, -688861.1, -59670.535, 0.0, 10.000245, 9.998627 
1.500167e+1, 2.4579763e+2, -526028.44, -579823.0, -31546.41, 0.09399886, 0.1507892, -511469.22, 19726.506, 0.0, 10.000244, 9.999579 
1.4999734e+1, 2.5579724e+2, -476266.56, -513319.56, 6063.048, -0.06299145, 0.12417535, -475299.7, -42102.195, 0.0, 9.999943, 9.999512 
1.4999688e+1, 2.6579654e+2, -414819.1, -495136.44, 32773.56, -0.062874265, 0.13723893, -403143.16, -67939.18, 0.00000013049092, 9.999966, 9.998946 
1.5001023e+1, 2.7579555e+2, -316871.47, -414827.7, 56340.617, 0.05176836, 0.122921035, -291196.22, -53981.84, 0.0000024373799, 10.0000305, 9.998795 
1.5001109e+1, 2.8579447e+2, -250563.58, -402745.13, 8421.079, 0.055608835, 0.17008027, -250099.02, -110871.71, 0.000015368285, 10.00013, 9.998151 
1.5000205e+1, 2.9579237e+2, -114666.74, -227598.2, -30318.223, -0.050617527, 0.11085018, -107042.12, -65791.96, 0.000069496324, 10.000099, 9.998704 
1.4999858e+1, 3.0579343e+2, 157852.23, 251753.17, -50337.24, -0.099608235, 0.18237607, 273637.16, 273637.16, 0.00026841622, 10.000304, 10.001567 
1.4999801e+1, 3.157937e+2, -29376.227, -83485.36, 45024.49, -0.109978355, 0.08126543, -3903.142, -3903.142, 0.0007052667, 9.999987, 9.999436 
2.500153e+1, 1.2580784e+2, -1872865.3, -1896558.5, -56634.47, -0.1080388, -0.09923298, -1826851.8, -119769.5, 0.0024837567, 9.999275, 9.999085 
2.500102e+1, 1.3580847e+2, -1528899.9, -1661319.1, -28650.574, 0.0006110325, -0.01795646, -1522966.8, 86114.24, 0.0014731403, 10.000947, 9.999224 
2.5000942e+1, 1.4580989e+2, -1400729.5, -1574902.6, 47432.89, 0.07012464, 0.22394581, -1388649.9, 122418.19, 0.00065158884, 10.001256, 9.998969 
2.5000763e+1, 1.5580663e+2, -1390751.8, -1526320.4, 16126.1875, 0.06101246, -0.04675242, -1388859.9, 24237.965, 0.0001815959, 10.000677, 9.998914 
2.5000718e+1, 1.6580518e+2, -1342725.4, -1434868.8, 85996.91, -0.008565628, -0.08509462, -1291236.5, 23874.346, 0.000022322774, 10.000256, 9.999077 
2.5000873e+1, 1.7580494e+2, -1299784.0, -1373425.3, 82636.11, -0.1156338, -0.05486526, -1246136.5, -29023.787, 0.00000035252413, 9.999924, 9.998984 
2.5001463e+1, 1.8580382e+2, -1250841.9, -1391225.3, 50905.297, -0.07889059, -0.018648345, -1234325.9, -115200.21, 0.0, 9.999981, 9.998161 
2.5002462e+1, 1.9580185e+2, -1118052.6, -1273887.3, 47359.25, 0.069206424, -0.0697385, -1104788.8, -83640.234, 0.0, 10.00021, 9.998184 
2.500167e+1, 2.0580108e+2, -900952.9, -981023.8, 61545.832, 0.039077602, -0.026144926, -867566.75, 55588.7, 0.0, 10.000445, 9.999406 
2.4999541e+1, 2.1580099e+2, -787536.75, -897847.4, 41046.77, -0.12194987, -0.011971614, -773939.25, 51213.44, 0.0, 10.000643, 9.999211 
2.5000128e+1, 2.2580013e+2, -773281.1, -977967.75, 81986.98, -0.061221197, 0.051053196, -744490.9, -17328.105, 0.0, 10.000662, 9.9979725 
2.5002757e+1, 2.3579851e+2, -696810.4, -890142.25, 73629.15, 0.16476355, 0.05414982, -671962.7, -42778.7, 0.0, 10.000502, 9.997984 
2.5002328e+1, 2.4579793e+2, -526447.7, -590869.75, 38030.594, 0.13947904, 0.12412085, -508820.2, 22371.098, 0.0, 10.000304, 9.999457 
2.4999604e+1, 2.557979e+2, -462195.3, -518108.13, -1179.3563, -0.069017485, 0.13707149, -462170.47, -28979.84, 0.0, 10.000098, 9.999388 
2.4999835e+1, 2.65797e+2, -334728.66, -438125.56, 43832.99, -0.061082218, 0.12840672, -318647.6, 16550.35, 0.00000003137998, 10.000455, 9.999088 
2.5002223e+1, 2.7579537e+2, -137910.56, -319490.22, 21599.291, 0.11713182, 0.027900796, -135376.64, 101835.38, 0.0000016497497, 10.001236, 9.998858 
2.5002182e+1, 2.8579444e+2, -139186.4, -418128.3, 21738.037, 0.10547831, 0.12155738, -137502.52, 1722.5085, 0.000012071121, 10.0012, 9.9975195 
2.500043e+1, 2.9579338e+2, -108813.09, -297962.9, 33550.203, -0.045671724, 0.21898733, -103038.47, -61796.08, 0.00005739791, 10.000485, 9.998019 
2.4999909e+1, 3.0579302e+2, 68705.59, 199472.06, -7763.852, -0.08128919, 0.18845002, 199931.4, 199931.4, 0.00023072664, 9.999747, 10.001473 
2.5000462e+1, 3.1579238e+2, -93035.516, 39053.18, -113365.27, 0.03611525, -0.02715524, 104209.22, 104209.22, 0.000617959, 9.998909, 10.000778 
3.5001478e+1, 1.2580982e+2, -1828330.1, -1756744.4, -39462.195, -0.10946992, 0.08867405, -1739260.8, -32192.709, 0.0023583595, 9.999091, 10.000131 
3.5001105e+1, 1.3580887e+2, -1477524.5, -1531196.1, 36852.527, -0.12032651, -0.070166044, -1458772.3, 150302.14, 0.0013953737, 10.000871, 10.000147 
3.5001603e+1, 1.4580923e+2, -1452106.5, -1650220.8, 8937.037, -0.031827442, 0.04924561, -1451704.3, 59366.19, 0.0006105934, 10.001126, 9.998512 
3.500207e+1, 1.558073e+2, -1424574.0, -1573830.9, 9959.955, 0.08662333, -0.040139377, -1423912.3, -10821.509, 0.00016453842, 10.000596, 9.998621 
3.5001796e+1, 1.6580698e+2, -1317410.0, -1361029.3, 56060.273, 0.038282577, 0.01430432, -1279066.4, 36026.984, 0.000017966355, 10.0001545, 9.99964 
3.5001096e+1, 1.7580743e+2, -1273968.8, -1306716.0, 86567.13, -0.12078157, 0.06787268, -1202240.4, 14846.738, 0.00000014192928, 9.999862, 9.999478 
3.5001045e+1, 1.8580672e+2, -1250197.0, -1353188.1, 46000.17, -0.15035294, 0.10624373, -1232643.3, -113547.83, 0.0, 9.999833, 9.998488 
3.5001364e+1, 1.95805e+2, -1115148.5, -1237390.4, 69927.484, -0.09340531, 0.0541446, -1083395.3, -62279.58, 0.0, 10.000086, 9.998493 
3.500129e+1, 2.0580393e+2, -938343.1, -1020241.3, 52750.54, -0.0712439, 0.06314934, -912513.1, 10612.196, 0.0, 10.000289, 9.999211 
3.5000935e+1, 2.1580301e+2, -821476.8, -929261.4, 61480.906, -0.076243006, 0.022471547, -793611.6, 31518.672, 0.0, 10.000482, 9.999073 
3.50017e+1, 2.2580157e+2, -788818.06, -962788.94, 66230.055, 0.00082395476, 0.024477355, -766474.25, -39329.76, 0.0, 10.00047, 9.998165 
3.500328e+1, 2.3579964e+2, -713582.25, -877899.2, 81670.67, 0.1355505, -0.01661081, -679895.5, -50729.125, 0.0, 10.000314, 9.998154 
3.5002244e+1, 2.4579868e+2, -598361.9, -710378.7, 17916.771, 0.07263353, 0.04636776, -595565.94, -64387.34, 0.0, 10.000172, 9.998707 
3.4999233e+1, 2.557982e+2, -534516.5, -631413.06, 9409.705, -0.14645055, 0.09676823, -533611.2, -100425.23, 0.0, 9.999941, 9.998687 
3.500003e+1, 2.657969e+2, -349098.06, -447410.78, 61639.363, -0.11525151, 0.08561101, -319414.3, 15783.488, 0.0000000045955626, 10.000366, 9.999065 
3.500353e+1, 2.7579498e+2, -153250.81, -319111.0, 63476.742, 0.09124313, -0.042943764, -131745.78, 105468.12, 0.0000011896407, 10.001099, 9.998926 
3.5003307e+1, 2.857944e+2, -113310.445, -342678.8, -17910.947, 0.066657215, 0.05319579, -111920.24, 27302.205, 0.000009641755, 10.001117, 9.998076 
3.5000375e+1, 2.9579425e+2, -118138.586, -283696.47, 19185.063, -0.13762078, 0.19645144, -115944.48, -74714.11, 0.0000464018, 10.00035, 9.998183 
3.499962e+1, 3.057927e+2, -70743.805, -81584.1, -49524.96, -0.113501064, 0.14982271, -26343.28, -26343.28, 0.00019513248, 9.999694, 9.999565 
3.5001236e+1, 3.1579223e+2, -130691.98, -20269.387, -102795.6, 0.15254506, 0.12032165, 41203.605, 41203.605, 0.00053834624, 9.998813, 10.000416 
4.500193e+1, 1.2581046e+2, -1615469.9, -1619632.5, 43781.137, -0.010798502, 0.13796936, -1573720.6, 133342.8, 0.0022337737, 10.000433, 10.000406 
4.50013e+1, 1.3580945e+2, -1619165.6, -1577125.6, -11676.543, -0.113385975, -0.04635125, -1574100.3, 34968.598, 0.0013153872, 9.99981, 10.000335 
4.5002067e+1, 1.458092e+2, -1591773.1, -1690001.3, -4238.8296, -0.025534546, -0.010387854, -1591590.5, -80520.53, 0.00056916923, 10.000031, 9.998786 
4.5002797e+1, 1.5580814e+2, -1362261.3, -1524442.4, 10485.161, 0.098223716, -0.03286758, -1361586.1, 51495.43, 0.00014812649, 10.000919, 9.998827 
4.5002496e+1, 1.6580802e+2, -1226337.3, -1328343.5, 55335.758, 0.071299635, 0.039616097, -1202085.1, 112997.234, 0.000013959289, 10.000844, 9.999528 
4.5001587e+1, 1.7580809e+2, -1243327.0, -1300397.3, 8821.941, -0.058683854, 0.06639253, -1241994.4, -24914.248, 0.000000037538413, 10.0001135, 9.999402 
4.500133e+1, 1.8580744e+2, -1200942.3, -1293361.5, 5736.4136, -0.101928286, 0.098427765, -1200587.6, -81500.32, 0.0, 10.000018, 9.998819 
4.5001447e+1, 1.9580622e+2, -1068359.8, -1184803.6, 5421.5176, -0.091732845, 0.064837806, -1068107.9, -47006.516, 0.0, 10.000278, 9.998767 
4.500172e+1, 2.0580508e+2, -944151.5, -1062593.3, 4638.429, -0.051468294, 0.07490322, -943970.1, -20857.756, 0.0, 10.000404, 9.998874 
4.5002145e+1, 2.1580376e+2, -860184.8, -978048.8, -25615.445, 0.016555903, 0.02537055, -854858.5, -29735.037, 0.0, 10.000335, 9.998813 
4.500261e+1, 2.2580236e+2, -763234.06, -886127.4, 18808.625, 0.061802555, 0.012836431, -760419.9, -33283.586, 0.0, 10.000364, 9.998752 
4.5003092e+1, 2.3580079e+2, -663784.4, -800797.1, 38604.582, 0.091768734, -0.048663784, -653655.94, -24504.15, 0.0, 10.000428, 9.99864 
4.5002288e+1, 2.4579968e+2, -563636.4, -747339.2, 29292.813, 0.047967654, 0.006381023, -559078.5, -27913.445, 0.0, 10.000648, 9.998217 
4.5000488e+1, 2.5579864e+2, -415276.94, -630318.25, 14299.573, -0.058526658, 0.04816107, -414330.22, 18849.783, 0.0, 10.000996, 9.998186 
4.5001113e+1, 2.6579738e+2, -301472.97, -438212.75, 98756.46, -0.053246964, 0.06612598, -249729.27, 85464.086, 0.000000013083459, 10.00076, 9.998936 
4.500362e+1, 2.757959e+2, -289214.28, -395131.56, 67250.41, 0.046136644, -0.0020175467, -256573.66, -19367.807, 0.0000010541644, 10.000213, 9.998835 
4.500354e+1, 2.8579524e+2, -190977.13, -328667.06, 61.766613, 0.02677568, 0.06576581, -190977.1, -51763.12, 0.000008106713, 10.00036, 9.998546 
4.500145e+1, 2.9579464e+2, -3543.7996, -198048.83, 390.7771, -0.08532748, 0.12097428, -3543.0144, 37680.285, 0.000037622078, 10.000999, 9.998467 
4.5000276e+1, 3.057929e+2, 38210.457, -133224.33, -8526.729, -0.06466706, 0.09762773, 38633.51, 38633.51, 0.00016443121, 10.000884, 9.998631 
4.5001224e+1, 3.1579244e+2, 53861.73, 48142.918, -40745.086, 0.21812965, 0.14650899, 91847.625, 91847.625, 0.00047154687, 10.000165, 10.000228 
5.500142e+1, 1.2581004e+2, -1659743.5, -1731491.6, -24800.682, -0.198286, 0.04947867, -1652005.4, 55060.24, 0.0021078985, 10.00049, 9.99962 
5.500113e+1, 1.3581029e+2, -1646101.8, -1656973.8, -15048.148, -0.16362152, 0.059378535, -1635537.9, -26473.99, 0.0012334009, 9.999895, 9.999751 
5.5001974e+1, 1.4580986e+2, -1521380.0, -1546016.9, 8692.584, -0.09098589, 0.048123248, -1518621.8, -7555.2183, 0.00052778376, 10.000037, 9.999772 
5.500244e+1, 1.5580928e+2, -1306831.4, -1411708.6, 53891.613, -0.07232597, -0.020516183, -1284076.1, 128993.17, 0.00013278752, 10.000924, 9.999599 
5.5002165e+1, 1.6580844e+2, -1298918.5, -1462972.1, 13008.723, -0.085415505, -0.0064466433, -1297893.4, 17183.277, 0.0000106646075, 10.000775, 9.998633 
5.5001783e+1, 1.7580687e+2, -1298199.1, -1408254.0, -2212.7083, -0.08977827, -0.059326645, -1298154.6, -81062.16, 0.000000007551507, 10.000089, 9.99867 
5.5001885e+1, 1.8580598e+2, -1186566.1, -1243846.6, 170.5816, -0.08282745, -0.042844452, -1186565.6, -67464.12, 0.0, 9.999932, 9.999201 
5.500223e+1, 1.9580546e+2, -1057482.0, -1144290.6, 26770.102, -0.07734586, -0.039266676, -1049890.5, -28784.264, 0.0, 10.000203, 9.999081 
5.500248e+1, 2.0580462e+2, -997670.94, -1137989.4, -9130.064, -0.046809535, 0.006740718, -997079.4, -73963.305, 0.0, 10.000258, 9.998423 
5.5002683e+1, 2.1580322e+2, -900863.0, -1035489.56, -14453.35, 0.0024109797, -0.0013066891, -899328.8, -74196.61, 0.0, 10.00022, 9.998473 
5.5002385e+1, 2.2580251e+2, -711728.44, -749563.56, 8973.289, -0.028481312, 0.013239445, -709708.1, 17430.13, 0.0, 10.000241, 9.999747 
5.5001795e+1, 2.3580207e+2, -620228.6, -682016.44, 56380.98, -0.1119024, -0.030787585, -586832.2, 42306.723, 0.0, 10.000307, 9.999514 
5.5001956e+1, 2.4580099e+2, -594327.1, -790891.25, 32222.25, -0.08403426, -0.0004737646, -589179.75, -58028.992, 0.0, 10.000566, 9.997953 
5.5002767e+1, 2.557992e+2, -455776.22, -672570.2, 37618.152, 0.03343058, -0.0061924295, -449434.22, -16261.296, 0.0, 10.000832, 9.997966 
5.500271e+1, 2.6579836e+2, -323571.84, -478889.88, 64159.37, -0.005905496, 0.077082336, -300496.8, 34687.285, 0.000000016276152, 10.000726, 9.99868 
5.500213e+1, 2.7579802e+2, -315730.4, -434164.34, 64186.09, -0.16002914, 0.14714953, -287617.5, -50428.703, 0.00000094951764, 10.000131, 9.998614 
5.500235e+1, 2.857968e+2, -167579.66, -268629.56, 11633.979, -0.1621761, 0.1473828, -166257.53, -27056.824, 0.0000068871877, 10.0003195, 9.998971 
5.500314e+1, 2.9579452e+2, 10355.614, -145050.28, 34728.27, -0.05842031, -0.006533412, 17763.188, 58984.387, 0.00003070153, 10.000893, 9.99888 
5.50014e+1, 3.0579367e+2, 41384.758, -108779.26, -42029.785, -0.07346588, 0.026164293, 52348.15, 52348.15, 0.00013855331, 10.000819, 9.998831 
5.4999566e+1, 3.1579283e+2, 37617.8, 44137.293, -31266.82, -0.03433358, 0.026287012, 72313.836, 72313.836, 0.0004144919, 10.0000515, 10.000251 
6.50019e+1, 1.2581058e+2, -1691562.5, -1808821.9, 10884.712, -0.17806177, 0.010339887, -1690560.8, 16497.307, 0.0019834668, 10.000501, 9.999109 
6.500156e+1, 1.3581108e+2, -1617143.5, -1671376.5, 9992.588, -0.109308295, 0.08316093, -1615360.9, -6305.339, 0.001149572, 10.000193, 9.999525 
6.500255e+1, 1.4581026e+2, -1483563.5, -1503739.4, 92100.805, -0.033153903, 0.028988224, -1400999.9, 110063.234, 0.00048384682, 10.000211, 9.99997 
6.500274e+1, 1.5581042e+2, -1332410.9, -1401009.9, 39249.316, -0.10871941, 0.015811466, -1314585.9, 98472.87, 0.00011744106, 10.000675, 9.999776 
6.500254e+1, 1.6580959e+2, -1317952.6, -1478950.9, -30.164036, -0.10861386, 0.025570417, -1317952.6, -2886.8032, 0.000008467286, 10.000674, 9.998573 
6.500238e+1, 1.7580736e+2, -1286447.5, -1408791.6, 19091.361, -0.03520884, -0.08604995, -1283537.5, -66449.58, 0.000000004638606, 10.000206, 9.998606 
6.500254e+1, 1.8580632e+2, -1151414.1, -1206403.1, 88455.35, -0.007909906, -0.08697671, -1086278.8, 32818.76, 0.0, 10.000091, 9.999376 
6.500284e+1, 1.958061e+2, -1050089.9, -1122863.8, 70289.914, -0.024662195, -0.073393725, -1007327.06, 13771.292, 0.0, 10.000176, 9.999241 
6.5003157e+1, 2.058054e+2, -973531.44, -1120631.0, 72667.836, -0.0014032393, -0.022427108, -943687.9, -20581.24, 0.0, 10.000389, 9.998483 
6.500347e+1, 2.1580411e+2, -848831.1, -1003328.7, 82670.59, 0.051952366, -0.028225616, -812934.9, 12187.4375, 0.0, 10.00055, 9.998533 
6.500302e+1, 2.2580361e+2, -698703.75, -757620.9, 90134.336, 0.013339417, 0.014552676, -633336.1, 93791.305, 0.0, 10.000382, 9.999627 
6.500208e+1, 2.3580357e+2, -673296.44, -713380.3, 31866.848, -0.08768103, 0.017639827, -655693.0, -26566.832, 0.0, 9.999959, 9.999464 
6.5002555e+1, 2.4580249e+2, -595039.9, -760548.25, 53451.664, -0.06278274, 0.03369448, -579278.44, -48140.93, 0.0, 10.000417, 9.998255 
6.500415e+1, 2.5580046e+2, -334689.66, -584165.9, 69689.7, 0.065467216, -0.023859726, -316542.3, 116617.34, 0.0, 10.001523, 9.9982605 
6.500397e+1, 2.657996e+2, -212713.97, -441753.22, 97746.71, 0.014432293, 0.05533217, -176670.78, 158499.84, 0.00000000394634, 10.001561, 9.998536 
6.5002525e+1, 2.757995e+2, -208820.39, -388827.63, 84676.164, -0.16206273, 0.16233855, -175249.33, 61925.074, 0.0000007712445, 10.000913, 9.998537 
6.500282e+1, 2.8579822e+2, -119743.48, -231084.88, 81001.98, -0.1493179, 0.15435646, -77126.09, 62059.723, 0.000006042053, 10.00059, 9.999097 
6.500447e+1, 2.957958e+2, -50682.195, -151401.67, 50884.566, 0.023461131, -0.03197311, -29450.438, 11755.216, 0.000026519589, 10.000401, 9.999063 
6.500284e+1, 3.0579528e+2, 23779.03, -145705.7, -27485.98, 0.0025317648, 0.038414545, 28125.09, 28125.09, 0.00012024143, 10.000809, 9.99859 
6.500045e+1, 3.1579337e+2, 200993.11, 42026.31, -99741.68, -0.0055529783, -0.03177736, 249048.0, 249048.0, 0.00036921015, 10.0014925, 9.99957 
7.500253e+1, 1.2581186e+2, -1682549.1, -1798777.5, -56065.34, -0.24769764, 0.0258698, -1659913.3, 47129.277, 0.0018629195, 10.0005455, 9.999151 
7.5001955e+1, 1.3581172e+2, -1599888.9, -1646671.3, 7321.1353, -0.13206789, 0.010926571, -1598769.9, 10275.265, 0.0010666472, 10.000238, 9.999673 
7.500299e+1, 1.4581038e+2, -1531506.1, -1592512.4, 94014.445, -0.05486613, -0.07158603, -1463170.3, 47889.566, 0.0004391749, 10.000166, 9.999384 
7.500328e+1, 1.5581146e+2, -1362348.4, -1476059.8, 70697.83, -0.16456446, 0.068148345, -1328480.6, 84569.89, 0.00010226521, 10.000717, 9.999249 
7.5003153e+1, 1.6581137e+2, -1275059.5, -1374845.5, -33163.61, -0.1517485, 0.1358623, -1265043.0, 50007.637, 0.000007138289, 10.000617, 9.999311 
7.5002944e+1, 1.7580952e+2, -1246672.1, -1317644.3, 13919.961, -0.037047125, -0.012488648, -1244039.5, -26972.842, 0.00000003688298, 10.000168, 9.999249 
7.500284e+1, 1.8580844e+2, -1169038.0, -1225625.3, 77567.86, -0.020404613, -0.042457826, -1114764.6, 4311.285, 0.0, 10.00001, 9.999289 
7.500283e+1, 1.9580796e+2, -1056597.4, -1126014.8, 85972.414, -0.07864267, -0.047886256, -998591.75, 22487.758, 0.0, 10.00013, 9.999244 
7.5003344e+1, 2.0580737e+2, -944786.9, -1038401.6, 67010.12, -0.05290234, -0.019392977, -909855.06, 13229.658, 0.0, 10.000293, 9.999093 
7.5004095e+1, 2.1580635e+2, -831827.06, -944856.2, 99446.164, 0.026663873, -0.06212433, -773958.8, 51135.637, 0.0, 10.0004425, 9.99899 
7.5004065e+1, 2.2580573e+2, -801333.3, -941976.0, 63021.535, 0.05061921, 0.010508944, -777225.8, -50122.043, 0.0, 10.00026, 9.998419 
7.500354e+1, 2.3580524e+2, -767747.8, -878900.44, 35557.438, 0.030825237, 0.09000378, -757346.44, -128232.305, 0.0, 9.999822, 9.998398 
7.5003624e+1, 2.4580422e+2, -547166.4, -641689.94, 83293.29, -0.026291182, 0.113885626, -498660.47, 32464.59, 0.0, 10.000335, 9.999106 
7.5004244e+1, 2.5580248e+2, -300760.28, -485661.53, 119760.82, -0.109840274, 0.00015437219, -241917.25, 191221.98, 0.0, 10.001396, 9.998999 
7.5004363e+1, 2.6580128e+2, -228709.27, -451390.47, 61183.348, -0.13158694, 0.012649497, -213006.05, 122145.21, 0.00000000015133415, 10.0014715, 9.998508 
7.500427e+1, 2.7580038e+2, -231106.5, -405300.78, 78872.63, -0.1154205, 0.04242293, -200701.3, 36461.004, 0.00000065427645, 10.000789, 9.998482 
7.500456e+1, 2.857996e+2, -131544.69, -250004.98, 62171.13, -0.068684354, 0.09028115, -104905.984, 34263.063, 0.0000058927376, 10.000559, 9.998985 
7.500501e+1, 2.9579836e+2, -69223.86, -173643.22, 62293.035, -0.0037369153, 0.0372155, -40154.56, 1022.58954, 0.000025865007, 10.000311, 9.998963 
7.500408e+1, 3.0579764e+2, -38448.92, -253579.97, -4342.549, 0.013424292, 0.12510848, -38361.3, -38361.3, 0.00011203884, 10.000736, 9.997871 
7.5002944e+1, 3.1579387e+2, 86714.25, -152514.64, -30416.842, 0.028507108, -0.05146723, 90521.03, 90521.03, 0.00034091447, 10.00132, 9.998304 
8.500355e+1, 1.2581241e+2, -1801214.3, -1836115.9, -59700.797, -0.14010634, 0.022056188, -1756466.1, -49428.81, 0.0017451695, 9.999664, 9.999307 
8.5002977e+1, 1.3581257e+2, -1590620.1, -1601592.1, -43405.44, -0.032384083, 0.0012360502, -1552355.4, 56679.836, 0.0009891815, 10.000149, 10.000013 
8.500389e+1, 1.4581084e+2, -1546241.8, -1634403.9, 101551.64, 0.030686775, -0.12012203, -1479616.5, 31437.033, 0.000399723, 10.000192, 9.999095 
8.5003835e+1, 1.5581189e+2, -1482315.6, -1563270.4, 70188.22, -0.13557404, 0.047706906, -1441769.5, -28723.336, 0.00008899464, 10.00002, 9.998987 
8.500366e+1, 1.6581212e+2, -1339322.3, -1387953.8, -31322.715, -0.12679708, 0.1494978, -1323984.9, -8940.406, 0.000006071428, 10.0000925, 9.999479 
8.500367e+1, 1.7581074e+2, -1228565.1, -1289735.5, -52427.54, 0.02728543, 0.032953426, -1198453.5, 18602.885, 0.000000076650345, 10.000209, 9.999424 
8.500354e+1, 1.8580972e+2, -1125100.3, -1211326.4, 30820.016, 0.042694308, 0.00582652, -1115217.0, 3848.229, 0.0, 10.000332, 9.999237 
8.500334e+1, 1.9580913e+2, -1023206.7, -1113760.6, 15824.041, -0.043330252, -0.005786312, -1020521.1, 549.1349, 0.0, 10.000368, 9.999216 
8.5003763e+1, 2.0580861e+2, -888294.44, -967984.94, 9637.958, -0.042502426, 0.010444155, -887145.4, 35928.586, 0.0, 10.000508, 9.999467 
8.500448e+1, 2.1580781e+2, -774545.5, -882905.2, -7114.204, 0.016832503, -0.042106338, -774080.44, 50999.227, 0.0, 10.0007, 9.99929 
8.500465e+1, 2.2580701e+2, -721529.6, -942091.06, -873.2246, 0.054950774, 0.018273838, -721526.2, 5564.773, 0.0, 10.000987, 9.998061 
8.5004544e+1, 2.3580611e+2, -574707.3, -817584.06, 9379.382, 0.08417764, 0.0920268, -574345.6, 54761.367, 0.0, 10.001298, 9.998098 
8.5004723e+1, 2.4580525e+2, -403507.53, -536154.3, 100681.24, 0.017096804, 0.13116588, -349267.66, 181848.39, 0.0, 10.001154, 9.99943 
8.500516e+1, 2.5580427e+2, -378902.5, -486964.47, 71786.66, -0.11213179, 0.05683663, -343085.44, 90036.41, 0.0, 10.000709, 9.9993105 
8.5005546e+1, 2.65803e+2, -317088.78, -497737.03, 12945.924, -0.119577155, 0.047836542, -316165.75, 18967.387, 0.0000000019213902, 10.000839, 9.998511 
8.500608e+1, 2.758014e+2, -166630.02, -378976.22, 5956.4824, -0.024369279, 0.005105329, -166463.06, 70686.8, 0.0000006294421, 10.001216, 9.998472 
8.5006285e+1, 2.8580025e+2, -28019.973, -241320.05, 13882.864, 0.012952533, 0.041689433, -27120.188, 112039.57, 0.0000062489003, 10.001444, 9.998619 
8.500614e+1, 2.957992e+2, 128037.02, -109208.73, -29587.652, 0.01631477, 0.035422724, 131671.33, 172839.16, 0.000027811611, 10.001803, 9.998683 
8.500583e+1, 3.0579793e+2, 183942.84, -163027.2, -37244.727, 0.049084924, 0.091473915, 187895.77, 187895.77, 0.00011222166, 10.002304, 9.997759 
8.500548e+1, 3.1579512e+2, 202207.44, -145401.42, -61353.63, 0.118008226, 0.021380758, 212718.63, 212718.63, 0.00032900518, 10.002313, 9.997874 
9.500401e+1, 1.2581238e+2, -1792845.4, -1809092.8, -80922.45, -0.13543887, 0.00985382, -1719639.9, -12599.049, 0.0016362383, 9.999623, 9.99951 
9.5004046e+1, 1.3581353e+2, -1545372.4, -1533567.4, -15467.499, 0.017154709, 0.04259616, -1522914.4, 86111.84, 0.0009229167, 10.000249, 10.000434 
9.5004845e+1, 1.4581163e+2, -1544930.9, -1630120.1, 80003.99, 0.064416185, -0.12108327, -1496889.3, 14155.572, 0.00036888671, 10.000187, 9.9991255 
9.5003945e+1, 1.5581176e+2, -1485020.9, -1572090.8, 79399.55, -0.1664537, -0.04490149, -1438004.3, -24958.742, 0.00007923838, 10.00003, 9.998923 
9.50037e+1, 1.6581188e+2, -1373520.9, -1447242.4, -38854.55, -0.16469772, 0.07226567, -1356824.3, -41777.914, 0.0000051224774, 10.000038, 9.9991 
9.5004076e+1, 1.7581108e+2, -1252362.9, -1339906.9, -33149.203, 0.0098557295, 0.04936639, -1241227.3, -24170.998, 0.00000007826353, 10.000208, 9.99908 
9.5004183e+1, 1.8581031e+2, -1139329.9, -1226203.8, 21170.477, 0.04239937, 0.06532378, -1134445.4, -15381.118, 0.0, 10.000266, 9.999166 
9.500398e+1, 1.9580966e+2, -1037202.2, -1128836.5, 32547.428, -0.050939646, 0.05033754, -1026818.4, -5748.384, 0.0, 10.000302, 9.999144 
9.500401e+1, 2.0580915e+2, -904547.44, -975330.8, 4795.5093, -0.09860799, 0.071002394, -904224.06, 18849.584, 0.0, 10.000389, 9.999476 
9.500416e+1, 2.1580838e+2, -787284.1, -884625.0, 16366.544, -0.117177874, 0.017991025, -784606.0, 40473.176, 0.0, 10.000587, 9.999334 
9.500432e+1, 2.2580731e+2, -707502.2, -886529.75, 911.2484, -0.10894318, 0.027715445, -707497.56, 19592.838, 0.0, 10.000872, 9.998495 
9.50046e+1, 2.3580588e+2, -563291.7, -772408.75, 31275.65, -0.072854616, 0.0030143845, -558714.3, 70393.08, 0.0, 10.001196, 9.99846 
9.50054e+1, 2.4580549e+2, -429177.1, -565493.5, 71085.87, -0.060812112, 0.077045225, -398853.1, 132258.75, 0.0, 10.001052, 9.999277 
9.5006543e+1, 2.5580564e+2, -399619.44, -514659.38, 74649.97, -0.07972943, 0.13058597, -362899.47, 70209.54, 0.0, 10.00063, 9.999163 
9.500714e+1, 2.6580453e+2, -323591.6, -490213.7, 14645.641, -0.073436245, 0.1416174, -322314.1, 12804.397, 0.0000000017799018, 10.000762, 9.998592 
9.500748e+1, 2.7580234e+2, -184297.38, -385656.66, 31878.004, -0.04002105, 0.031648967, -179371.16, 57767.68, 0.0000005677249, 10.00109, 9.998483 
9.500754e+1, 2.8580028e+2, -82209.87, -340662.22, 12622.09, -0.038658805, 0.010926503, -81594.9, 57563.133, 0.0000064583187, 10.001388, 9.99796 
9.5007396e+1, 2.9579815e+2, 68038.5, -206642.92, 7488.883, -0.07764777, -0.040349115, 68242.52, 109421.04, 0.000029725905, 10.001679, 9.998074 
9.500763e+1, 3.0579618e+2, 217151.73, -76248.43, -40494.02, -0.031127984, -0.06193912, 222637.98, 222637.98, 0.0001135958, 10.002234, 9.998378 
9.500713e+1, 3.157972e+2, 203153.52, -110058.64, -17684.291, -0.017709212, 0.19165525, 204148.83, 204148.83, 0.00032168903, 10.002171, 9.998181 
1.0500444e+2, 1.258129e+2, -1858220.1, -1839821.8, 50667.844, -0.012506674, -0.023441447, -1797524.8, -90490.83, 0.0015480418, 9.999143, 9.999542 
1.0500422e+2, 1.358146e+2, -1461722.0, -1475124.1, 30303.857, -0.0015379222, 0.051832344, -1437387.1, 171626.81, 0.00087241904, 10.000735, 10.000608 
1.0500517e+2, 1.4581297e+2, -1451221.4, -1569067.3, 97408.34, 0.057730824, -0.1019014, -1396301.0, 114728.25, 0.0003471946, 10.000783, 9.999246 
1.0500442e+2, 1.5581256e+2, -1512234.4, -1588802.0, 76434.17, -0.100890584, -0.08186144, -1465032.4, -51997.76, 0.000073446034, 9.999858, 9.998894 
1.0500429e+2, 1.6581243e+2, -1410953.4, -1501370.4, 28933.652, -0.09631998, 0.029994575, -1402487.3, -87448.4, 0.000004420773, 9.999957, 9.9987545 
1.05004884e+2, 1.7581172e+2, -1191823.9, -1347961.8, 3231.899, 0.048453238, 0.05022267, -1191757.0, 25293.475, 0.000000050630582, 10.000799, 9.998732 
1.0500488e+2, 1.8581097e+2, -1067824.1, -1175397.1, 58692.777, 0.07053964, 0.07729016, -1042000.1, 77058.484, 0.0, 10.000697, 9.999302 
1.0500434e+2, 1.9581032e+2, -1114362.1, -1150496.9, 57030.652, -0.0075488933, 0.04752273, -1072605.4, -51542.133, 0.0, 9.999725, 9.999263 
1.0500435e+2, 2.0580973e+2, -984649.94, -1033588.06, 91627.84, -0.07139022, 0.06563701, -914280.2, 8787.546, 0.0, 9.999926, 9.999298 
1.05004825e+2, 2.1580891e+2, -754012.0, -880919.9, 60071.41, -0.11471565, 0.024731064, -730087.6, 94987.336, 0.0, 10.000874, 9.999219 
1.0500533e+2, 2.2580782e+2, -610801.1, -799943.94, 48118.47, -0.11140093, 0.015977362, -599263.5, 127821.51, 0.0, 10.001356, 9.998873 
1.0500597e+2, 2.3580638e+2, -500112.0, -704969.44, 46008.863, -0.061131887, -0.041382417, -490253.3, 138844.95, 0.0, 10.001476, 9.998796 
1.05006814e+2, 2.4580581e+2, -410273.72, -596536.0, 80834.38, -0.032934308, 0.02041369, -380085.72, 151018.45, 0.0, 10.001358, 9.998918 
1.050079e+2, 2.5580564e+2, -366616.8, -531802.3, 46182.91, -0.01886477, 0.07885903, -354581.75, 78524.92, 0.0, 10.001019, 9.998851 
1.0500855e+2, 2.6580447e+2, -274557.47, -451625.38, 29848.398, -0.014486689, 0.0879142, -269661.3, 65455.934, 0.00000000014537505, 10.001053, 9.998711 
1.05009064e+2, 2.7580237e+2, -133431.34, -351459.38, 20756.273, 0.0029825442, -0.024827743, -131472.94, 105662.65, 0.00000042821608, 10.001415, 9.998557 
1.0500922e+2, 2.858005e+2, -78531.74, -363730.44, 38666.54, -0.0058258707, -0.020122716, -73382.4, 65771.31, 0.0000059800022, 10.001495, 9.997763 
1.0500914e+2, 2.9579866e+2, -1444.6304, -260697.39, 37087.94, -0.039362006, -0.021998027, 3756.709, 44929.824, 0.000029321069, 10.001275, 9.997907 
1.0500954e+2, 3.0579594e+2, 139577.8, -51099.504, 38257.88, -0.011467476, -0.13940097, 146967.55, 146967.55, 0.000109980174, 10.001441, 9.998927 
1.0500934e+2, 3.157975e+2, 170079.52, -97035.13, 19706.578, 0.018267544, 0.11082583, 171525.56, 171525.56, 0.0003078243, 10.0018215, 9.998436 
1.1500394e+2, 1.2581372e+2, -1865766.9, -1867578.0, 74127.26, -0.05565301, -0.091575995, -1792539.8, -85520.65, 0.0014882531, 9.999187, 9.999334 
1.1500307e+2, 1.3581567e+2, -1460510.3, -1480234.3, 90851.47, -0.22645205, 0.020331495, -1378987.1, 230012.23, 0.000840427, 10.000768, 10.000556 
1.1500451e+2, 1.4581479e+2, -1449732.9, -1550132.9, 46012.99, -0.12546957, -0.065748796, -1431835.6, 79172.27, 0.00033535642, 10.000711, 9.999412 
1.1500462e+2, 1.5581433e+2, -1502750.6, -1569395.0, 64952.633, -0.10558367, -0.06661836, -1463071.3, -50058.242, 0.0000716502, 9.99987, 9.999015 
1.1500498e+2, 1.6581383e+2, -1441869.3, -1564004.4, 48937.926, -0.05992275, 0.025342515, -1424679.8, -109657.914, 0.0000041980056, 9.999941, 9.998339 
1.1500577e+2, 1.7581259e+2, -1214193.5, -1393393.9, 42585.52, 0.02123936, 0.029946763, -1204588.3, 12451.747, 0.000000024917117, 10.000794, 9.998423 
1.1500535e+2, 1.858117e+2, -1062971.1, -1139164.6, 8643.765, 0.019755809, 0.040059984, -1062002.8, 57045.926, 0.0, 10.000585, 9.999609 
1.1500392e+2, 1.95811e+2, -1104042.5, -1116655.0, 39266.83, -0.058123577, -0.02102192, -1070578.8, -49527.7, 0.0, 9.99967, 9.999525 
1.1500433e+2, 2.0581031e+2, -1028348.56, -1099477.5, 113546.77, -0.09486163, -0.0045077475, -944926.9, -21869.979, 0.0, 9.999816, 9.9989 
1.1500606e+2, 2.158093e+2, -795325.06, -939017.8, 104315.05, -0.107624754, -0.028318899, -740508.4, 84559.92, 0.0, 10.00075, 9.998882 
1.150073e+2, 2.2580844e+2, -609054.5, -764670.5, 40221.926, -0.07531476, -0.012136327, -599273.2, 127802.03, 0.0, 10.0012245, 9.999175 
1.1500822e+2, 2.3580752e+2, -500365.53, -677215.3, 63799.05, -0.014662478, -0.05126477, -479752.44, 149328.08, 0.0, 10.001348, 9.999051 
1.1500862e+2, 2.4580617e+2, -467876.44, -686950.5, 54756.418, -0.017910913, -0.04881311, -454952.75, 76141.14, 0.0, 10.001243, 9.998349 
1.1500874e+2, 2.5580427e+2, -421579.63, -615637.7, 45495.535, -0.06741341, -0.10552264, -411443.0, 21672.266, 0.0, 10.000893, 9.998336 
1.150094e+2, 2.6580277e+2, -273157.75, -435328.72, 32285.066, -0.06387577, -0.113260664, -266966.75, 68162.875, 0.0, 10.000993, 9.9988575 
1.1501046e+2, 2.7580136e+2, -137783.28, -337889.28, 49939.813, -0.031743325, -0.16807313, -126012.375, 111128.25, 0.0000002594802, 10.0013075, 9.998711 
1.15010895e+2, 2.8580076e+2, -72823.52, -331319.34, 20131.152, -0.01900478, -0.058233958, -71265.14, 67882.266, 0.000005001763, 10.001417, 9.998022 
1.1501092e+2, 2.958006e+2, -12452.913, -247262.75, 45582.54, -0.026729377, 0.08849013, -3914.6582, 37237.67, 0.000026475647, 10.001124, 9.998074 
1.1501118e+2, 3.0579713e+2, 164691.5, 23866.572, 49230.28, -0.02189418, -0.13620411, 180194.9, 180194.9, 0.000100772006, 10.001367, 9.999471 
1.15011215e+2, 3.1579602e+2, 167485.13, -67156.984, 90873.72, -0.046581585, -0.21871015, 198563.06, 198563.06, 0.00028477798, 10.001685, 9.998703 
1.250034e+2, 1.2581342e+2, -1859097.6, -1840313.1, -16527.197, -0.014157272, -0.07505098, -1830695.9, -123676.11, 0.0014562852, 9.999147, 9.999529 
1.2500292e+2, 1.3581455e+2, -1755797.0, -1623755.3, -49372.063, -0.2024612, -0.042362213, -1607336.1, 1672.3997, 0.0008261713, 9.998745, 10.0005455 
1.250045e+2, 1.4581418e+2, -1696140.9, -1618266.6, -67529.64, -0.08893644, -0.10108795, -1579252.8, -68240.62, 0.00033346904, 9.998801, 9.999863 
1.2500444e+2, 1.5581442e+2, -1525752.4, -1532266.3, -59680.99, -0.08338733, -0.07829327, -1469239.5, -56229.39, 0.00007407354, 9.9995, 9.999444 
1.2500507e+2, 1.6581413e+2, -1389789.8, -1509707.6, 16830.19, -0.04946307, -0.00022714298, -1387472.5, -72456.49, 0.000004716059, 10.000155, 9.998621 
1.2500638e+2, 1.7581291e+2, -1222894.5, -1374741.4, 33686.55, 0.02018273, -0.018453486, -1215756.9, 1276.2056, 0.000000012759114, 10.000611, 9.998656 
1.25006e+2, 1.8581201e+2, -1022959.75, -1135218.5, -6607.7974, 0.02006181, -0.010817423, -1022572.1, 96469.58, 0.0, 10.000924, 9.999463 
1.2500438e+2, 1.9581142e+2, -908301.0, -1042590.3, -36271.96, -0.042013727, -0.04751718, -899130.1, 121913.62, 0.0, 10.001096, 9.999344 
1.2500507e+2, 2.0581059e+2, -864176.6, -1039602.5, 79712.73, -0.05603782, -0.026117, -833366.6, 89684.766, 0.0, 10.001031, 9.998723 
1.2500745e+2, 2.1580938e+2, -813949.2, -964047.0, 58865.83, -0.031705808, -0.05237272, -793617.1, 31448.443, 0.0, 10.000698, 9.99873 
1.2500888e+2, 2.2580843e+2, -684066.3, -787095.9, 13451.727, -0.0024305922, -0.04566684, -682339.0, 44733.89, 0.0, 10.000642, 9.999295 
1.2500966e+2, 2.3580758e+2, -576348.6, -698528.2, -3553.519, 0.03289399, -0.09096747, -576245.4, 52830.875, 0.0, 10.000774, 9.9991665 
1.2500997e+2, 2.4580625e+2, -503325.13, -710718.75, 24963.58, 0.012389896, -0.090835154, -500362.63, 30726.646, 0.0, 10.00102, 9.998295 
1.2501009e+2, 2.558043e+2, -355763.97, -594074.94, 30369.629, -0.03577601, -0.14487001, -351954.66, 81157.1, 0.0, 10.001368, 9.998265 
1.2501088e+2, 2.6580298e+2, -182475.94, -383117.88, 63417.01, -0.036226306, -0.13587342, -164112.39, 171012.56, 0.0, 10.001583, 9.998922 
1.2501222e+2, 2.7580187e+2, -72743.63, -293906.4, 46106.992, 0.0033081532, -0.16705875, -63516.43, 173616.83, 0.00000012209664, 10.001721, 9.998798 
1.2501265e+2, 2.8580138e+2, -41787.246, -288959.63, 21111.256, 0.019167623, -0.06265788, -39997.08, 99141.96, 0.000003888246, 10.001524, 9.998256 
1.2501256e+2, 2.958013e+2, -5928.9746, -218413.16, 21957.936, 0.04017148, 0.06703358, -3683.5881, 37459.406, 0.00002250982, 10.00107, 9.99829 
1.2501284e+2, 3.0579868e+2, 176070.31, -1736.2217, 70371.016, 0.01303384, -0.068565354, 200550.78, 200550.78, 0.000088219014, 10.001529, 9.999249 
1.2501378e+2, 3.157961e+2, 269151.84, -34663.28, 15970.054, 0.019433765, -0.28093064, 269989.0, 269989.0, 0.00025421134, 10.002439, 9.998579 
1.3500196e+2, 1.2581187e+2, -1828374.0, -1767653.6, -81313.75, -0.14701973, 0.0107158795, -1711217.1, -4179.423, 0.0014504807, 9.99911, 10.000045 
1.3500322e+2, 1.3581131e+2, -1738197.6, -1596452.8, -52227.97, -0.08537527, -0.13939877, -1579287.3, 29754.07, 0.0008289551, 9.998793, 10.000705 
1.3500465e+2, 1.4581129e+2, -1648133.8, -1528952.3, -59315.33, 0.003906958, -0.20191313, -1504463.5, 6577.178, 0.0003411424, 9.998832, 10.000466 
1.350035e+2, 1.5581279e+2, -1480860.5, -1436183.6, -20134.01, -0.16195937, -0.11641009, -1428449.0, -15423.106, 0.00008049032, 9.999479, 10.000119 
1.3500407e+2, 1.6581333e+2, -1337354.1, -1369082.6, 19461.81, -0.19306412, -0.042759728, -1328109.9, -13088.167, 0.0000062176173, 10.000032, 9.999639 
1.3500606e+2, 1.7581268e+2, -1169564.4, -1250355.6, 66406.125, -0.10481716, -0.10175488, -1132232.4, 84797.33, 0.000000017143847, 10.000569, 9.999521 
1.350063e+2, 1.8581212e+2, -1075931.5, -1236760.9, -12215.931, -0.0810989, -0.06599525, -1075008.9, 44027.043, 0.0, 10.000872, 9.998796 
1.3500515e+2, 1.9581154e+2, -958875.2, -1133818.3, -16428.639, -0.11260807, -0.03731959, -957345.75, 63695.613, 0.0, 10.001029, 9.998752 
1.350061e+2, 2.0581058e+2, -880217.2, -1047663.7, 52502.58, -0.084033266, -0.0017024615, -865116.8, 57934.605, 0.0, 10.000919, 9.998725 
1.3500854e+2, 2.1580906e+2, -832894.6, -972580.5, 63415.434, -0.024590952, -0.057207756, -808400.1, 16667.213, 0.0, 10.000562, 9.998739 
1.3500968e+2, 2.2580779e+2, -705661.75, -807442.5, 4656.0654, -0.019234337, -0.081559, -705449.2, 21628.69, 0.0, 10.000528, 9.999212 
1.3500978e+2, 2.3580648e+2, -595965.0, -711364.94, 14782.8125, -0.06356792, -0.16711241, -594101.4, 34984.734, 0.0, 10.000647, 9.99914 
1.3501044e+2, 2.4580592e+2, -484283.2, -647830.7, 26378.746, -0.072981335, -0.11367839, -480133.8, 50957.586, 0.0, 10.000922, 9.998772 
1.3501154e+2, 2.5580573e+2, -344624.56, -538761.06, 58003.938, -0.059485674, -0.042437352, -328614.5, 104481.72, 0.0, 10.001231, 9.998707 
1.3501266e+2, 2.658051e+2, -198418.33, -398398.22, 55778.625, -0.048907902, 0.019197987, -183912.66, 151190.72, 0.0, 10.00151, 9.998852 
1.3501382e+2, 2.758038e+2, -93182.07, -305922.0, 62385.055, -0.042375073, -0.025494901, -76237.54, 160877.39, 0.000000046518082, 10.001594, 9.998775 
1.3501407e+2, 2.8580227e+2, -26792.994, -250107.48, -8550.154, -0.024026886, -0.039110005, -26466.107, 112663.89, 0.0000029362805, 10.001486, 9.998541 
1.3501363e+2, 2.9580057e+2, -3181.3557, -193915.11, 25627.432, -0.00006550663, -0.10180384, 201.98975, 41349.24, 0.000019015239, 10.0009775, 9.998507 
1.3501404e+2, 3.0580056e+2, 103127.8, -133494.22, 96396.516, -0.045512676, 0.05946055, 137426.69, 137426.69, 0.000075927965, 10.001459, 9.998369 
1.3501619e+2, 3.1579775e+2, 208354.64, -127095.69, 107293.03, -0.051060416, -0.080983214, 239736.3, 239736.3, 0.0002226974, 10.002298, 9.998011 
1.450016e+2, 1.258097e+2, -1831508.0, -1718062.6, 32024.307, -0.061402082, -0.06346937, -1709646.9, -2588.1848, 0.0014659849, 9.99889, 10.000488 
1.4500228e+2, 1.3581014e+2, -1690512.4, -1565573.5, -5595.3804, -0.062971964, -0.12318406, -1565323.5, 43729.54, 0.0008466132, 9.999097, 10.000761 
1.4500389e+2, 1.4581026e+2, -1619256.0, -1528685.6, 3729.5852, 0.040363085, -0.16642681, -1528532.3, -17480.986, 0.00035647568, 9.9990835, 10.000352 
1.450032e+2, 1.5581119e+2, -1556150.5, -1476831.6, -39269.45, -0.10568574, -0.12856993, -1460679.3, -47636.707, 0.00008921642, 9.998981, 10.000082 
1.4500386e+2, 1.6581179e+2, -1458726.3, -1383804.6, -17137.705, -0.15565898, -0.067501314, -1380070.6, -65033.855, 0.000008328298, 9.999014, 10.000023 
1.4500578e+2, 1.7581181e+2, -1355157.5, -1301658.9, -47178.57, -0.10958222, -0.10023865, -1274174.0, -57137.047, 0.0000000715251, 9.999126, 9.999865 
1.4500652e+2, 1.8581145e+2, -1234693.6, -1303463.6, -81427.81, -0.08119751, -0.06420642, -1180688.5, -61647.72, 0.0, 9.999746, 9.998891 
1.4500621e+2, 1.9581066e+2, -1001842.25, -1149060.0, -61688.65, -0.08240543, -0.060867768, -979410.75, 41637.92, 0.0, 10.000701, 9.998823 
1.4500733e+2, 2.0580974e+2, -881754.6, -1043404.75, 27101.191, -0.04417303, -0.026343193, -877332.0, 45726.414, 0.0, 10.000889, 9.998762 
1.4500946e+2, 2.1580853e+2, -847441.1, -978067.06, 12675.997, 0.026350342, -0.056955922, -846222.44, -21151.02, 0.0, 10.000461, 9.998744 
1.4501052e+2, 2.2580731e+2, -693149.44, -806167.2, 8340.657, 0.013758599, -0.07097921, -692537.2, 34544.793, 0.0, 10.000651, 9.999163 
1.4501074e+2, 2.358059e+2, -503226.63, -674450.0, -12454.286, -0.05728391, -0.15823963, -502325.47, 126767.19, 0.0, 10.00132, 9.999077 
1.4501156e+2, 2.4580519e+2, -421521.75, -609078.8, -8647.658, -0.06346178, -0.11965138, -421123.88, 109975.07, 0.0, 10.00131, 9.998858 
1.4501289e+2, 2.5580487e+2, -401628.63, -556430.4, -32704.066, -0.017387012, -0.07140796, -395003.03, 38100.62, 0.0, 10.000803, 9.998792 
1.4501402e+2, 2.6580435e+2, -318770.44, -472682.4, -12845.299, -0.016372317, 0.0074150367, -317705.75, 17403.943, 0.0, 10.000747, 9.998715 
1.4501503e+2, 2.7580345e+2, -182536.5, -368713.94, -41075.266, -0.04320362, 0.017833507, -173877.06, 63242.01, 0.00000002138944, 10.001046, 9.998624 
1.4501527e+2, 2.8580138e+2, -59387.7, -270267.06, -112981.84, -0.03287923, -0.039777465, -10287.994, 128851.65, 0.0000023054517, 10.001272, 9.9985075 
1.4501499e+2, 2.957986e+2, 72389.15, -151179.4, -135065.02, 0.022161791, -0.20897317, 135928.23, 177095.03, 0.000016570593, 10.001477, 9.9985485 
1.4501575e+2, 3.0580023e+2, 146833.1, -121287.57, 19780.402, -0.024865812, 0.11524571, 148284.53, 148284.53, 0.0000664134, 10.001818, 9.998268 
1.4501919e+2, 3.1579807e+2, 185265.33, -117441.0, 52580.563, 0.047282137, 0.05447454, 194138.56, 194138.56, 0.0001967113, 10.002065, 9.998182 
1.550017e+2, 1.2580733e+2, -1796097.1, -1673678.0, 5434.722, -0.020849591, -0.2600145, -1673437.3, 33641.266, 0.0014879738, 9.998997, 10.000755 
1.5499966e+2, 1.3581109e+2, -1697651.1, -1585038.1, 7446.292, -0.26873374, 0.021377876, -1584547.9, 24494.768, 0.0008684092, 9.999108, 10.000632 
1.5500169e+2, 1.458111e+2, -1677637.4, -1635422.4, -18440.3, -0.12776932, 0.011165464, -1628501.9, -117458.016, 0.00037251608, 9.999029, 9.99964 
1.5500294e+2, 1.5580967e+2, -1609289.4, -1574195.1, -28128.123, -0.0682633, -0.11457379, -1558589.8, -145530.9, 0.00009664872, 9.998939, 9.999426 
1.5500404e+2, 1.658097e+2, -1486642.9, -1430813.6, -26524.98, -0.07335473, -0.06637202, -1420221.1, -105161.54, 0.000009881803, 9.9989605, 9.999734 
1.550052e+2, 1.7581044e+2, -1377745.4, -1333631.1, -25356.02, -0.11214135, 0.0021850236, -1322081.0, -105027.766, 0.00000020107916, 9.999061, 9.999681 
1.5500627e+2, 1.8581007e+2, -1191093.0, -1195145.8, -58536.65, -0.10930262, 0.0045680883, -1134547.8, -15492.187, 0.0, 9.999667, 9.999674 
1.5500714e+2, 1.9580875e+2, -965236.3, -1050289.5, -13567.604, -0.08945275, -0.12523665, -963124.5, 57941.22, 0.0, 10.000613, 9.999539 
1.5500836e+2, 2.0580809e+2, -893996.56, -1044184.56, -651.6098, -0.060266856, -0.09858029, -893993.75, 29078.375, 0.0, 10.000775, 9.998817 
1.5500973e+2, 2.1580778e+2, -863936.44, -978745.5, 13032.292, -0.024327531, -0.044417195, -862475.7, -37398.31, 0.0, 10.000318, 9.99881 
1.55011e+2, 2.2580704e+2, -718738.4, -836574.6, 20720.938, -0.031378668, -0.0060073803, -715200.9, 11884.105, 0.0, 10.000544, 9.999009 
1.5501216e+2, 2.3580578e+2, -531768.2, -708770.94, 24320.14, -0.07583309, -0.06351504, -528487.44, 100608.914, 0.0, 10.001202, 9.998902 
1.5501298e+2, 2.4580401e+2, -453701.66, -655034.94, -41574.688, -0.08102926, -0.10952443, -445454.44, 85658.04, 0.0, 10.00122, 9.998586 
1.5501365e+2, 2.5580162e+2, -440612.53, -609203.06, -33713.57, -0.050708458, -0.23930359, -434120.72, -986.05585, 0.0, 10.000673, 9.998496 
1.5501451e+2, 2.6580077e+2, -345913.34, -510989.63, -13551.734, -0.07166466, -0.16813871, -344808.22, -9664.424, 0.0, 10.000675, 9.998482 
1.5501542e+2, 2.758008e+2, -222355.33, -422204.06, -12402.451, -0.13775674, -0.04548768, -221588.6, 15557.6, 0.000000019825112, 10.00092, 9.998316 
1.5501589e+2, 2.8579867e+2, -91163.89, -328408.84, -116438.74, -0.13205384, -0.06938816, -43565.813, 95602.62, 0.0000019865888, 10.001233, 9.998129 
1.5501617e+2, 2.9579526e+2, 44194.426, -189250.2, -110718.47, -0.04924786, -0.26695096, 88353.055, 129556.305, 0.000014949104, 10.001378, 9.998342 
1.5501757e+2, 3.0579767e+2, 183112.97, -22499.518, 20340.1, -0.054160044, 0.10349672, 185105.8, 185105.8, 0.000059797247, 10.001741, 9.998965 
1.550218e+2, 3.1579694e+2, 220300.55, -1893.1001, 110775.53, 0.037455767, 0.11821531, 266091.34, 266091.34, 0.00017773658, 10.001903, 9.999039 
1.6500156e+2, 1.2580661e+2, -1778519.8, -1701037.9, 31084.637, 0.0659842, -0.24731602, -1690108.8, 16976.295, 0.0014964563, 9.999268, 10.00043 
1.6499862e+2, 1.3581018e+2, -1614170.5, -1604318.9, -58377.555, -0.31304857, 0.062003944, -1550659.8, 58393.527, 0.0008776996, 9.999917, 10.000116 
1.6500081e+2, 1.4580968e+2, -1540399.8, -1563130.6, -52856.527, -0.1539219, 0.024919521, -1497700.5, 13358.881, 0.00037921302, 9.9999695, 9.999674 
1.6500278e+2, 1.5580846e+2, -1482364.9, -1513591.8, -39763.168, -0.011407131, -0.08493848, -1455259.6, -42188.348, 0.00009882513, 9.999812, 9.999422 
1.6500412e+2, 1.6580822e+2, -1352692.0, -1385577.6, 33139.55, -0.0008547386, -0.05255392, -1332140.3, -17066.516, 0.000009884257, 9.999956, 9.999559 
1.6500515e+2, 1.7580841e+2, -1207377.9, -1266554.5, 13337.124, -0.07593059, -0.024953974, -1204510.9, 12561.249, 0.0000002904704, 10.000285, 9.999546 
1.6500641e+2, 1.8580793e+2, -1132855.4, -1154188.0, -18571.654, -0.071993925, -0.034265336, -1122105.0, -3029.2583, 0.0, 10.000029, 9.99976 
1.6500778e+2, 1.958068e+2, -1140508.8, -1120377.4, -51455.8, -0.014403944, -0.15497167, -1078012.0, -56927.563, 0.0, 9.999353, 9.999646 
1.6500904e+2, 2.0580634e+2, -1040049.4, -1068768.4, -13236.401, -0.0031733336, -0.13520126, -1034879.44, -111791.53, 0.0, 9.999595, 9.999214 
1.650101e+2, 2.1580626e+2, -810370.6, -914437.25, -2970.2922, -0.020577352, -0.09637481, -810285.9, 14803.117, 0.0, 10.000522, 9.999155 
1.6501163e+2, 2.258058e+2, -702712.8, -855363.4, 36009.836, -0.02648701, -0.03266193, -694644.6, 32450.396, 0.0, 10.0007715, 9.998767 
1.650134e+2, 2.3580496e+2, -648895.56, -785074.2, 5671.0273, -0.027934996, -0.023956899, -648659.8, -19554.18, 0.0, 10.000495, 9.998713 
1.6501443e+2, 2.4580331e+2, -493500.88, -660505.06, -18444.52, -0.03455375, -0.05369849, -491488.06, 39633.402, 0.0, 10.000894, 9.998702 
1.6501498e+2, 2.5580093e+2, -265129.0, -507267.0, -13149.37, -0.03332301, -0.19477257, -264417.0, 168725.5, 0.0, 10.001815, 9.998638 
1.6501571e+2, 2.657998e+2, -197902.22, -452559.88, 39625.16, -0.062047575, -0.15354168, -191878.95, 143274.8, 0.0, 10.001725, 9.9983835 
1.6501659e+2, 2.7579924e+2, -221993.03, -425836.53, 26478.36, -0.10405287, -0.082280904, -218609.77, 18551.457, 0.000000024295247, 10.00094, 9.998269 
1.6501737e+2, 2.857972e+2, -123139.195, -375345.25, -3222.7292, -0.09318838, -0.08443029, -123098.02, 16085.165, 0.0000019697127, 10.001164, 9.997837 
1.6501842e+2, 2.957943e+2, 158822.14, -154227.83, -24604.586, 0.0044671437, -0.19739601, 160744.17, 201957.36, 0.000013995548, 10.002253, 9.998167 
1.6501935e+2, 3.057957e+2, 235574.22, 5858.6343, 74707.07, -0.051093508, 0.07070251, 257732.7, 257732.7, 0.000055183133, 10.002046, 9.999035 
1.6502383e+2, 3.1579453e+2, 32801.37, -123390.625, 67009.65, 0.12679882, 0.042327218, 57609.59, 57609.59, 0.00016346599, 10.000703, 9.998797 
1.7500022e+2, 1.2580763e+2, -1844186.8, -1834104.8, 23549.34, -0.06664034, -0.02586475, -1815062.9, -107985.28, 0.0014785845, 9.999253, 9.999519 
1.7499858e+2, 1.3580753e+2, -1681331.9, -1729876.0, -27750.38, -0.34309897, 0.006766638, -1668736.4, -59652.902, 0.00086354057, 9.999876, 9.999261 
1.7500095e+2, 1.458061e+2, -1496635.0, -1469030.9, -74486.48, -0.17730798, -0.11604572, -1407078.5, 104018.74, 0.00037008742, 9.999939, 10.000342 
1.7500234e+2, 1.5580748e+2, -1437341.1, -1416192.8, -28586.098, -0.0733488, -0.038851786, -1396287.8, 16792.191, 0.000094032526, 9.999794, 10.0001 
1.750037e+2, 1.6580738e+2, -1356374.3, -1389122.1, 31560.568, -0.07292731, -0.022927118, -1337193.0, -22114.385, 0.000008393363, 9.999926, 9.999557 
1.7500517e+2, 1.7580578e+2, -1217603.1, -1277885.3, 36687.17, -0.13683379, -0.17217657, -1200263.3, 16829.754, 0.00000020811186, 10.000243, 9.99949 
1.750065e+2, 1.858051e+2, -1181678.3, -1243621.9, -56149.016, -0.09722391, -0.167937, -1148525.5, -29425.143, 0.0, 9.999967, 9.999181 
1.7500767e+2, 1.9580495e+2, -1185594.8, -1192072.1, -58628.934, 0.0056507075, -0.13412617, -1130115.1, -109011.414, 0.0, 9.99926, 9.999202 
1.7500888e+2, 2.0580462e+2, -1006837.6, -976915.4, 5728.4087, -0.0040553184, -0.12135265, -975856.2, -52751.13, 0.0, 9.999488, 9.999899 
1.7501016e+2, 2.1580389e+2, -788744.06, -840076.2, 42344.18, -0.094679624, -0.21422966, -764894.7, 60212.41, 0.0, 10.000395, 9.999726 
1.7501195e+2, 2.2580355e+2, -739486.25, -905343.1, 12167.226, -0.09851633, -0.14744058, -738598.4, -11486.111, 0.0, 10.000653, 9.99848 
1.7501399e+2, 2.3580335e+2, -683953.5, -828699.2, 12582.252, -0.047329385, -0.04998416, -682867.94, -53746.383, 0.0, 10.000364, 9.998476 
1.7501543e+2, 2.458031e+2, -475104.78, -602852.75, 4056.8474, -0.05060316, 0.047446392, -474976.1, 56149.836, 0.0, 10.000811, 9.999135 
1.7501646e+2, 2.5580272e+2, -258521.42, -461734.78, 29686.045, -0.09679855, 0.063845225, -254273.58, 178854.3, 0.0, 10.001678, 9.999016 
1.7501743e+2, 2.6580137e+2, -189988.3, -431859.2, -5038.8735, -0.09584455, 0.05549619, -189883.38, 145256.88, 0.0, 10.001698, 9.998541 
1.7501815e+2, 2.757989e+2, -224497.63, -412106.34, 14703.221, -0.0768567, -0.082014285, -223352.3, 13811.697, 0.000000035492793, 10.00085, 9.998411 
1.7501923e+2, 2.85797e+2, -139226.02, -403530.2, 23379.643, -0.054412927, -0.06608612, -137173.84, 2009.3004, 0.0000021240596, 10.001145, 9.997647 
1.7502102e+2, 2.9579577e+2, 128169.11, -189264.69, 26984.549, 0.0037797247, 0.0048719137, 130446.69, 171643.2, 0.000013429294, 10.002144, 9.997969 
1.7502077e+2, 3.0579424e+2, 202382.5, -61902.17, 17003.732, -0.142306, 0.014038524, 203472.02, 203472.02, 0.000050919698, 10.002037, 9.998577 
1.7502443e+2, 3.157912e+2, -72476.05, -306899.06, 56918.746, 0.047819536, -0.14597414, -59386.816, -59386.816, 0.00014908816, 10.00058, 9.997586 
1.8499957e+2, 1.2580647e+2, -1837855.9, -1835855.1, 20201.176, -0.045701686, 0.045700982, -1816629.6, -109539.14, 0.0014297328, 9.999314, 9.999474 
1.8499884e+2, 1.358056e+2, -1764819.5, -1755494.3, -15250.835, -0.26112452, -0.009344105, -1744209.1, -135107.1, 0.00082590414, 9.999243, 9.999385 
1.850015e+2, 1.4580368e+2, -1564422.8, -1506164.1, -15131.791, -0.081951044, -0.18709803, -1502468.4, 8651.62, 0.00034715154, 9.999486, 10.0003 
1.8500255e+2, 1.5580548e+2, -1382763.4, -1388978.1, -54923.465, -0.040470045, -0.06722586, -1330859.5, 82239.055, 0.0000844504, 10.000156, 10.000113 
1.8500365e+2, 1.6580565e+2, -1331773.6, -1353167.1, 1922.1552, -0.06873314, -0.037458435, -1331602.3, -16507.791, 0.000006352812, 10.000026, 9.999739 
1.8500502e+2, 1.7580408e+2, -1331403.6, -1316140.3, -2958.2246, -0.1271835, -0.20107573, -1315587.0, -98478.6, 0.000000056960435, 9.999407, 9.999623 
1.8500671e+2, 1.858036e+2, -1183836.4, -1258857.8, -25715.541, -0.06886579, -0.17340408, -1175868.0, -56753.91, 0.0, 10.000025, 9.999046 
1.8500847e+2, 1.9580394e+2, -871864.8, -1056413.5, -24201.734, 0.055762142, -0.07909018, -868743.8, 152370.34, 0.0, 10.001487, 9.999061 
1.8500999e+2, 2.0580336e+2, -701096.2, -868640.7, 27046.031, 0.051105987, -0.065270275, -696838.44, 226280.11, 0.0, 10.0017395, 9.999558 
1.850113e+2, 2.1580192e+2, -709258.5, -835159.2, -38693.414, -0.04789077, -0.19800831, -698317.56, 126810.63, 0.0, 10.001067, 9.999439 
1.8501288e+2, 2.2580126e+2, -723796.25, -875264.3, -67441.52, -0.06523534, -0.1632298, -698120.25, 29015.902, 0.0, 10.0006695, 9.998681 
1.8501459e+2, 2.35801e+2, -655294.75, -791611.4, -54851.695, -0.020933406, -0.08893433, -635964.4, -6819.8696, 0.0, 10.000461, 9.998685 
1.8501617e+2, 2.4580109e+2, -505068.44, -583135.2, 328.31528, -0.034920182, 0.01732497, -505067.03, 26077.996, 0.0, 10.000454, 9.999443 
1.8501769e+2, 2.5580132e+2, -398440.13, -495750.56, -9989.247, -0.07961165, 0.061279982, -397425.25, 35715.86, 0.0, 10.000569, 9.999315 
1.8501902e+2, 2.6580012e+2, -318805.5, -500703.44, -56933.938, -0.05879763, 0.05897361, -302454.94, 32697.426, 0.0, 10.000865, 9.998465 
1.8502004e+2, 2.7579752e+2, -148732.1, -380194.47, -81042.664, 0.009463545, -0.0792729, -123177.67, 114000.086, 0.000000044067633, 10.001403, 9.998366 
1.8502133e+2, 2.8579584e+2, -65146.266, -358266.44, -21953.32, 0.024080059, -0.047722228, -63511.184, 75683.39, 0.000002141611, 10.001582, 9.997762 
1.8502311e+2, 2.9579502e+2, 32845.9, -225569.92, -31872.209, 0.04468389, 0.054828566, 36718.875, 77921.81, 0.000012353572, 10.001418, 9.998083 
1.8502222e+2, 3.0579254e+2, 160823.89, -63476.992, -657.55963, -0.17128272, -0.04312963, 160825.81, 160825.81, 0.00004451732, 10.001674, 9.998737 
1.8502639e+2, 3.1578982e+2, 140410.38, -264851.9, 18640.014, 0.11713923, -0.17937821, 141265.92, 141265.92, 0.00012893318, 10.002252, 9.997097 
1.9499888e+2, 1.2580322e+2, -1794956.8, -1724445.0, -15699.588, -0.12160245, -0.017129803, -1721107.4, -13984.868, 0.0013506947, 9.999234, 10.000273 
1.9499904e+2, 1.3580444e+2, -1699117.8, -1602611.5, -9345.195, -0.19763824, 0.018756334, -1601714.9, 7393.988, 0.00077082973, 9.999195, 10.00045 
1.9500205e+2, 1.4580242e+2, -1616706.5, -1606322.0, -7652.2495, -0.016615715, -0.18067753, -1602266.8, -91139.195, 0.0003170448, 9.999441, 9.9996395 
1.9500297e+2, 1.5580264e+2, -1428499.8, -1476928.9, -21529.049, -0.0485514, -0.15429877, -1420313.0, -7187.789, 0.000073711046, 10.000127, 9.999523 
1.9500354e+2, 1.6580316e+2, -1312889.0, -1307892.4, -33243.305, -0.113275, -0.07836405, -1277053.6, 38066.074, 0.0000047225935, 9.999984, 10.000079 
1.950043e+2, 1.7580333e+2, -1312482.8, -1268358.6, -4387.361, -0.17254616, -0.10433165, -1267926.5, -50808.742, 0.0000000036456946, 9.999364, 9.999977 
1.9500661e+2, 1.8580349e+2, -1173745.5, -1221725.5, 16072.306, -0.11257721, -0.046533603, -1168859.3, -49742.254, 0.0, 9.9999485, 9.999344 
1.9500981e+2, 1.9580363e+2, -874579.5, -1041506.1, 37805.098, 0.01182891, 0.0025497985, -866416.6, 154700.16, 0.0, 10.001395, 9.999212 
1.9501187e+2, 2.0580259e+2, -813893.5, -1068772.3, -8804.708, 0.038878307, 0.034266435, -813589.7, 109538.79, 0.0, 10.001597, 9.99825 
1.9501308e+2, 2.1580039e+2, -808476.1, -1010030.25, -49391.555, -0.0063761333, -0.04560571, -797023.4, 28128.555, 0.0, 10.000933, 9.998303 
1.9501401e+2, 2.2579893e+2, -700830.3, -793533.6, -89265.67, -0.04291253, -0.07132656, -646599.5, 80566.59, 0.0, 10.00053, 9.999307 
1.9501476e+2, 2.3579793e+2, -635165.75, -712298.56, -48891.094, -0.0779519, -0.13361925, -611460.94, 17713.592, 0.0, 10.000307, 9.999299 
1.9501624e+2, 2.4579732e+2, -505713.22, -557418.44, -8613.096, -0.09958275, -0.14013985, -504316.2, 26862.451, 0.0, 10.00034, 9.999674 
1.9501817e+2, 2.5579682e+2, -406984.44, -477598.13, 7910.961, -0.11896839, -0.19365005, -406109.03, 27072.266, 0.0, 10.00042, 9.99951 
1.9502005e+2, 2.6579618e+2, -348614.66, -555232.8, -50290.047, -0.069767505, -0.12822181, -337024.4, -1835.8646, 0.0, 10.000824, 9.998118 
1.950219e+2, 2.7579507e+2, -182426.38, -435490.2, -45397.746, 0.022380099, -0.078331314, -174528.83, 62673.973, 0.000000036761158, 10.001329, 9.998031 
1.9502324e+2, 2.8579354e+2, -45537.34, -306497.6, -39037.98, 0.026957609, -0.033900153, -39822.652, 99396.05, 0.0000018181237, 10.001536, 9.99814 
1.9502439e+2, 2.9579213e+2, 43733.855, -171974.77, -19333.293, -0.008162782, -0.03220303, 45452.938, 86684.36, 0.000010151812, 10.001293, 9.998509 
1.950233e+2, 3.0579072e+2, 210939.23, 51558.76, 12358.355, -0.26358435, -0.08905036, 211891.81, 211891.81, 0.00003534469, 10.001637, 9.9995365 
1.9502893e+2, 3.157908e+2, 157076.47, -193359.73, 40825.24, 0.08099311, -0.029960876, 161769.69, 161769.69, 0.000103030594, 10.002122, 9.997631 
2.049989e+2, 1.2579946e+2, -1714037.0, -1694107.8, 25565.408, -0.055668082, -0.11275395, -1676633.6, 30525.002, 0.0012481128, 9.999834, 10.000196 
2.04999e+2, 1.3580176e+2, -1533827.0, -1495363.0, -104649.43, -0.15727708, 0.0038014357, -1408193.1, 200940.7, 0.0007037624, 10.00019, 10.000728 
2.0500207e+2, 1.4580043e+2, -1567532.9, -1580174.0, -69142.78, 0.034566753, -0.14078414, -1504422.4, 6724.214, 0.00028324383, 9.999779, 9.999654 
2.050029e+2, 1.5580046e+2, -1573118.3, -1547686.8, -70331.93, -0.009706105, -0.13045375, -1488930.3, -75782.766, 0.000063005726, 9.999141, 9.999513 
2.050035e+2, 1.6580091e+2, -1416527.6, -1368181.0, -51009.26, -0.07617381, -0.05679924, -1335907.0, -20763.426, 0.0000035155435, 9.999322, 9.999986 
2.0500432e+2, 1.758011e+2, -1223144.8, -1233739.3, -83354.69, -0.13180521, -0.06791635, -1144919.3, 72222.84, 0.0000000004928599, 10.000013, 9.999907 
2.0500684e+2, 1.8580124e+2, -1108743.6, -1141945.4, -23873.264, -0.08866621, -0.031764414, -1096266.6, 22873.49, 0.0, 10.000185, 9.999775 
2.0501038e+2, 1.9580135e+2, -1053738.1, -1086276.5, -21717.94, 0.01032916, -0.028835304, -1042871.4, -21733.27, 0.0, 9.999976, 9.999587 
2.050127e+2, 2.0580061e+2, -1036137.94, -1180844.5, -8327.53, 0.04433704, 0.01754712, -1035660.25, -112512.875, 0.0, 10.000096, 9.998205 
2.0501414e+2, 2.1579899e+2, -889269.9, -1051884.3, 21505.135, 0.04147309, 0.0032239791, -886474.0, -61306.67, 0.0, 10.0004, 9.998273 
2.0501515e+2, 2.2579765e+2, -681050.56, -766978.0, 31000.25, 0.021993378, -0.01794243, -671034.1, 56146.08, 0.0, 10.00058, 9.999466 
2.0501587e+2, 2.3579638e+2, -579162.1, -676337.2, 9941.515, -0.0067156013, -0.12523273, -578155.5, 51034.03, 0.0, 10.000634, 9.999396 
2.0501716e+2, 2.4579544e+2, -480596.34, -576145.6, 41797.266, -0.04784069, -0.15210699, -464893.22, 66303.51, 0.0, 10.000646, 9.999395 
2.0501886e+2, 2.5579464e+2, -385441.78, -493985.25, -5612.0425, -0.095853746, -0.207301, -385152.38, 48051.645, 0.0, 10.000685, 9.999269 
2.0502087e+2, 2.6579413e+2, -316100.34, -496318.13, -11512.057, -0.06380624, -0.13944535, -315367.94, 19841.75, 0.0, 10.000867, 9.998494 
2.0502307e+2, 2.7579346e+2, -185098.98, -395935.8, 15032.704, 0.025873298, -0.08547074, -184032.55, 53185.246, 0.00000002096579, 10.001145, 9.99838 
2.0502482e+2, 2.8579193e+2, -88547.04, -323641.0, 44450.805, 0.055903263, -0.056532245, -80423.15, 58809.527, 0.0000012828043, 10.00125, 9.998151 
2.0502634e+2, 2.9579026e+2, 46340.008, -167412.92, 11375.71, 0.06782787, -0.08291617, 46943.703, 88191.27, 0.000007381431, 10.001311, 9.998525 
2.0502543e+2, 3.0578876e+2, 184611.64, 27839.355, 36300.0, -0.19355409, -0.14144364, 192608.81, 192608.81, 0.00002618385, 10.001494, 9.999458 
2.0503165e+2, 3.1578892e+2, 100210.15, -183629.78, -99919.2, 0.18107203, -0.07172257, 131856.08, 131856.08, 0.000078949044, 10.001595, 9.997949 
2.1499866e+2, 1.2579514e+2, -1789023.1, -1836362.3, 12884.83, -0.13324405, -0.24345577, -1785743.3, -78543.766, 0.0011286415, 9.999772, 9.999252 
2.1499835e+2, 1.3579765e+2, -1558584.9, -1555062.3, -83095.805, -0.2738307, -0.052628398, -1473709.1, 135466.95, 0.00062779407, 10.00022, 10.000304 
2.1500117e+2, 1.4579786e+2, -1531801.8, -1499661.8, -110504.52, -0.07663293, -0.055465452, -1404064.9, 107110.336, 0.00024660726, 9.999747, 10.000221 
2.1500194e+2, 1.557991e+2, -1535448.9, -1474562.8, -75344.695, -0.057088926, 0.014799199, -1423743.3, -10579.075, 0.000052325075, 9.999155, 10.000008 
2.1500303e+2, 1.6579895e+2, -1466991.9, -1459445.1, -38084.004, -0.08590693, 0.03790209, -1424948.0, -109782.195, 0.000002586899, 9.999263, 9.999387 
2.1500464e+2, 1.7579733e+2, -1267223.5, -1308581.0, -45237.863, -0.13071069, -0.09675171, -1238162.1, -20980.92, 0.000000000052014764, 9.999947, 9.999418 
2.1500699e+2, 1.8579684e+2, -1086288.3, -1075157.8, -43227.563, -0.119594686, -0.1299593, -1037138.7, 82045.29, 0.0, 10.000091, 10.000281 
2.1500984e+2, 1.9579704e+2, -1018863.9, -1002227.4, -12845.099, -0.07588982, -0.17460406, -995242.4, 25936.29, 0.0, 9.99992, 10.000193 
2.1501212e+2, 2.0579739e+2, -966202.9, -1010627.44, -10250.907, -0.050476987, -0.11167283, -963951.6, -40776.348, 0.0, 9.999989, 9.999423 
2.1501407e+2, 2.1579766e+2, -831134.75, -900518.6, 43266.53, -0.033963438, -0.058919236, -810369.3, 14806.096, 0.0, 10.000266, 9.999373 
2.1501586e+2, 2.2579731e+2, -725957.7, -822020.56, 20689.578, 0.010637858, -0.01629279, -721691.2, 5488.6396, 0.0, 10.0004225, 9.99916 
2.1501748e+2, 2.3579635e+2, -627857.6, -736027.2, 27180.545, 0.0644972, -0.06367042, -621411.9, 7777.1855, 0.0, 10.000463, 9.9990635 
2.1501862e+2, 2.4579558e+2, -550420.3, -704144.7, 30529.572, 0.0029759274, -0.014142069, -544579.06, -13380.773, 0.0, 10.000569, 9.998557 
2.1501942e+2, 2.5579482e+2, -451081.4, -600874.56, 11070.498, -0.14036797, 0.022837589, -450267.66, -17058.79, 0.0, 10.000558, 9.998597 
2.1502106e+2, 2.6579398e+2, -253409.53, -347289.4, -14151.494, -0.1620156, 0.028973944, -251322.7, 83892.71, 0.0, 10.000789, 9.99955 
2.1502316e+2, 2.757926e+2, -139398.31, -270298.22, 39693.03, -0.1120517, -0.09551503, -128302.64, 108920.586, 0.00000000626477, 10.001014, 9.999304 
2.1502568e+2, 2.857909e+2, -109689.55, -361791.6, 32234.467, -0.01762208, -0.11408866, -105633.23, 33604.13, 0.00000075455597, 10.0012245, 9.997901 
2.150287e+2, 2.9578936e+2, 7572.4575, -233199.08, 28042.37, 0.13646701, -0.09568434, 10795.377, 52047.004, 0.0000049684672, 10.001246, 9.998106 
2.1502838e+2, 3.057867e+2, 111817.375, -125979.64, 30518.027, -0.07694672, -0.18926492, 115671.484, 115671.484, 0.000019575336, 10.001502, 9.998402 
2.1503392e+2, 3.1578422e+2, 77098.79, -210649.42, -103693.44, 0.1825909, -0.28624612, 110572.05, 110572.05, 0.00006230811, 10.001504, 9.997811 
2.2499834e+2, 1.2579338e+2, -1816893.4, -1830108.1, 81093.04, -0.11348914, -0.12715872, -1742139.0, -34918.293, 0.0009987325, 9.999479, 9.999438 
2.2499847e+2, 1.3579485e+2, -1666049.0, -1572921.9, -34094.94, -0.2284036, -0.07831281, -1561773.9, 47431.137, 0.0005469882, 9.999351, 10.000587 
2.2500111e+2, 1.4579546e+2, -1564366.8, -1531597.5, -30808.87, -0.040114716, -0.044018112, -1513087.4, -1888.1418, 0.00020906689, 9.999599, 10.000082 
2.2500183e+2, 1.5579659e+2, -1375265.3, -1412992.8, -76227.92, -0.033211295, 0.031656746, -1315601.8, 97588.91, 0.000042237294, 10.000333, 9.999868 
2.2500323e+2, 1.6579632e+2, -1278840.0, -1367102.6, -2980.6772, -0.047254566, 0.04918747, -1278739.4, 36453.65, 0.0000020119714, 10.000547, 9.999391 
2.2500534e+2, 1.7579463e+2, -1214519.3, -1286510.6, 761.9055, -0.067407586, -0.09345927, -1214511.1, 2696.6934, 0.0, 10.000321, 9.999382 
2.250075e+2, 1.8579401e+2, -1089323.4, -1078830.6, 6488.2954, -0.069971405, -0.13768603, -1075733.0, 43479.105, 0.0, 10.000077, 10.000263 
2.2500971e+2, 1.9579406e+2, -1047573.75, -1011076.25, -31400.777, -0.065189436, -0.19240609, -993006.6, 28202.617, 0.0, 9.999714, 10.000232 
2.2501202e+2, 2.0579478e+2, -920296.94, -905708.8, -17562.855, -0.050747946, -0.13508815, -893985.56, 29215.877, 0.0, 9.999939, 10.00018 
2.250145e+2, 2.1579571e+2, -746438.2, -785372.9, -21910.342, -0.023236604, -0.08953055, -736596.1, 88596.51, 0.0, 10.000521, 10.0000515 
2.2501652e+2, 2.2579575e+2, -693149.44, -831745.3, -47388.445, 0.025522752, -0.028653072, -678495.8, 48697.984, 0.0, 10.000749, 9.9989395 
2.2501822e+2, 2.357949e+2, -612461.56, -748275.7, -62823.918, 0.0901851, -0.039712157, -587858.06, 41346.12, 0.0, 10.000656, 9.998885 
2.2501963e+2, 2.4579431e+2, -539598.3, -684221.5, 11195.9795, 0.054785475, 0.026327988, -538736.75, -7524.46, 0.0, 10.000578, 9.998691 
2.2502084e+2, 2.5579366e+2, -440250.16, -585416.6, 35881.355, -0.04620107, 0.061187666, -431865.53, 1355.1365, 0.0, 10.000571, 9.998706 
2.2502229e+2, 2.657927e+2, -279929.13, -345225.13, 34083.01, -0.099043585, 0.042726945, -265380.25, 69847.07, 0.0, 10.000542, 9.999684 
2.2502387e+2, 2.7579114e+2, -191225.11, -280062.88, -6322.0586, -0.1126404, -0.115412585, -190777.47, 46458.3, 0.00000000006385136, 10.000587, 9.999444 
2.2502688e+2, 2.8578934e+2, -138496.83, -380772.97, 3865.7393, -0.0028474764, -0.14742768, -138435.17, 815.587, 0.00000032397858, 10.001039, 9.997863 
2.2503094e+2, 2.9578778e+2, 71929.23, -216772.98, -15065.742, 0.21952595, -0.1302486, 72713.3, 113979.78, 0.000003287384, 10.001753, 9.99797 
2.2503099e+2, 3.0578536e+2, 191628.9, -124469.7, 54213.53, 0.011201392, -0.17163754, 200668.47, 200668.47, 0.00001601569, 10.002218, 9.99806 
2.2503553e+2, 3.1578237e+2, 219776.77, -129183.08, -109244.15, 0.16382097, -0.2973075, 251154.88, 251154.88, 0.000054019332, 10.002426, 9.997926 
2.3499727e+2, 1.2579416e+2, -1733176.3, -1651928.4, 48123.7, -0.24060681, 0.22004722, -1629574.6, 77648.08, 0.0008678289, 9.999468, 10.000669 
2.3499888e+2, 1.3579318e+2, -1597662.9, -1442768.8, -35682.168, -0.1541514, -0.067363426, -1434944.1, 174277.69, 0.00046623294, 9.999385, 10.001475 
2.350014e+2, 1.4579307e+2, -1631244.1, -1644320.4, -19613.033, -0.0020744717, -0.11249615, -1617108.1, -105887.23, 0.00017258529, 9.999496, 9.999357 
2.3500219e+2, 1.557928e+2, -1426087.1, -1512569.0, -34085.285, -0.06407589, -0.092931785, -1414268.3, -1040.5597, 0.000033446406, 10.00031, 9.999199 
2.3500374e+2, 1.6579287e+2, -1256834.9, -1300586.3, -25932.865, -0.08461992, -0.03896894, -1244783.3, 70443.58, 0.0000017722703, 10.0004635, 9.999889 
2.3500606e+2, 1.757928e+2, -1188529.1, -1220386.4, 5371.273, -0.060587246, -0.070578046, -1187647.9, 29575.844, 0.0000000001389195, 10.000268, 9.999865 
2.3500797e+2, 1.8579268e+2, -1148976.0, -1175643.9, -20227.4, -0.05991289, -0.05379982, -1138083.1, -18858.227, 0.0, 9.999967, 9.999653 
2.350095e+2, 1.9579238e+2, -1096990.8, -1097195.1, -30434.16, -0.08619588, -0.081988566, -1066658.6, -45428.06, 0.0, 9.99964, 9.999679 
2.3501189e+2, 2.0579267e+2, -918908.44, -865858.25, -8274.551, -0.08096443, -0.060193043, -864597.56, 58629.45, 0.0, 9.999785, 10.0005245 
2.3501499e+2, 2.1579313e+2, -748437.44, -751086.0, 13364.9375, -0.054048795, -0.097282015, -736331.3, 88887.9, 0.0, 10.000355, 10.000365 
2.3501681e+2, 2.2579297e+2, -730217.9, -869168.5, -60967.14, -0.046383787, -0.06053401, -707260.5, 19961.516, 0.0, 10.000586, 9.998761 
2.350177e+2, 2.3579213e+2, -637767.3, -769878.6, -50995.77, -0.058467954, -0.04972019, -620372.9, 8861.461, 0.0, 10.000524, 9.998803 
2.3501973e+2, 2.4579158e+2, -475068.97, -532235.25, -2530.419, -0.02506097, -0.032753445, -474957.2, 56282.063, 0.0, 10.000497, 9.999775 
2.3502263e+2, 2.5579107e+2, -393602.7, -457041.03, 49105.76, 0.043276183, -0.095028974, -366862.63, 66377.7, 0.0, 10.000434, 9.999654 
2.3502417e+2, 2.657903e+2, -345402.9, -461082.84, 22075.344, 0.005877951, -0.092416175, -341333.38, -6088.498, 0.0, 10.000461, 9.998928 
2.3502482e+2, 2.7578902e+2, -255642.92, -387977.8, 13814.65, -0.1066319, -0.1452137, -254216.17, -16960.635, 0.0, 10.000472, 9.998762 
2.350279e+2, 2.857873e+2, -130896.484, -354163.9, 19698.48, -0.036587477, -0.14933945, -129171.85, 10100.515, 0.00000009734078, 10.000994, 9.998067 
2.3503256e+2, 2.957855e+2, 66101.05, -208602.98, 24757.85, 0.16548064, -0.17697978, 68314.52, 109606.44, 0.0000024854203, 10.001657, 9.998079 
2.3503281e+2, 3.0578467e+2, 226607.06, -49058.445, 54114.133, -0.05913119, -0.08623419, 236849.31, 236849.31, 0.000014818684, 10.002207, 9.998585 
2.3503576e+2, 3.1578344e+2, 241393.02, -71307.375, -89099.58, -0.122717634, -0.0955939, 264998.7, 264998.7, 0.00005156838, 10.002362, 9.99836 
2.4499837e+2, 1.2579271e+2, -1638716.0, -1586621.4, 177260.44, -0.09262036, 0.22188674, -1433504.8, 273732.06, 0.00074233726, 10.000059, 10.000831 
2.449988e+2, 1.3579145e+2, -1592559.6, -1465910.6, -56079.813, -0.09856137, -0.06954911, -1444648.3, 164590.58, 0.00038816038, 9.999547, 10.00124 
2.4500087e+2, 1.4579138e+2, -1596960.3, -1647043.1, 20929.613, -0.010548789, -0.09057505, -1589365.5, -78127.54, 0.00013769997, 9.999802, 9.999188 
2.4500327e+2, 1.5579058e+2, -1368651.9, -1502199.1, 15458.719, -0.0018681174, -0.11098942, -1366885.8, 46364.42, 0.000025817635, 10.000785, 9.999032 
2.4500488e+2, 1.6579059e+2, -1190758.6, -1254930.3, 9807.778, -0.028638788, -0.059424438, -1189293.1, 125956.625, 0.0000016011192, 10.000847, 10.000032 
2.4500622e+2, 1.7579097e+2, -1203041.5, -1212981.1, -12807.201, -0.053299498, -0.061902996, -1194273.6, 22968.422, 0.0000000006420841, 10.000106, 10.000002 
2.4500787e+2, 1.8579112e+2, -1187313.0, -1209355.1, 4899.865, -0.048219457, -0.015849229, -1186272.8, -67031.67, 0.0, 9.9997835, 9.9995 
2.4500968e+2, 1.9579095e+2, -1098960.0, -1113912.9, 5483.5977, -0.028279379, -0.01684722, -1097164.6, -75917.734, 0.0, 9.999714, 9.999516 
2.4501222e+2, 2.0579097e+2, -941383.94, -886239.44, 62508.152, -0.011841362, -0.008586025, -845492.6, 77753.37, 0.0, 9.999675, 10.000434 
2.4501555e+2, 2.1579096e+2, -874625.4, -818979.4, 23749.535, 0.01692909, -0.08544994, -810221.56, 15020.631, 0.0, 9.999526, 10.000295 
2.4501735e+2, 2.2579065e+2, -790243.94, -883195.5, -15484.611, -0.019053536, -0.06549211, -787732.25, -60486.605, 0.0, 10.00011, 9.998893 
2.4501805e+2, 2.3579e+2, -524730.25, -699460.9, -7492.9346, -0.10188706, -0.05294491, -524409.56, 104846.58, 0.0, 10.001239, 9.9989395 
2.4502036e+2, 2.4578942e+2, -350306.8, -468034.9, 3804.6748, -0.04710292, -0.04595015, -350184.0, 181076.56, 0.0, 10.001335, 9.99982 
2.4502382e+2, 2.5578877e+2, -357041.38, -431894.3, -46642.777, 0.116290875, -0.12538935, -334665.75, 98596.14, 0.0, 10.000666, 9.999715 
2.4502549e+2, 2.6578802e+2, -326495.03, -480390.1, -37037.35, 0.08647413, -0.11370445, -318045.3, 17221.736, 0.0, 10.000696, 9.99869 
2.4502598e+2, 2.7578697e+2, -156370.02, -356613.7, -32175.13, -0.06919279, -0.123824485, -151327.11, 85950.11, 0.0, 10.001231, 9.9986105 
2.4502915e+2, 2.857854e+2, -45272.117, -271878.0, 31502.361, -0.022464408, -0.123451225, -40974.23, 98318.62, 0.00000009803459, 10.001403, 9.998443 
2.4503404e+2, 2.957835e+2, 44836.34, -175604.33, 22274.965, 0.1729673, -0.19907239, 47064.645, 88377.48, 0.0000023443192, 10.001331, 9.998463 
2.450353e+2, 3.0578408e+2, 208254.61, -27157.682, 96539.44, -0.0058456403, 0.0014652679, 242780.53, 242780.53, 0.000014153015, 10.001953, 9.998856 
2.4503809e+2, 3.15783e+2, 327282.53, -8014.8877, -137530.88, -0.13817716, -0.022301856, 376476.7, 376476.7, 0.00004937861, 10.002886, 9.9985285 
2.5500068e+2, 1.2578923e+2, -1706443.6, -1719778.6, 120663.42, 0.066516496, -0.10596564, -1592263.6, 114997.65, 0.00062344765, 10.000028, 9.999932 
2.5499785e+2, 1.3578954e+2, -1678783.1, -1640387.4, -61740.508, -0.17721552, -0.103261806, -1594928.9, 14328.768, 0.0003143659, 9.9995365, 10.000045 
2.5499928e+2, 1.4579032e+2, -1584080.1, -1607833.0, 39968.32, -0.1896992, 0.0026742858, -1554261.1, -43009.707, 0.00010539114, 9.999749, 9.999479 
2.5500444e+2, 1.557898e+2, -1354507.9, -1462775.3, 60488.523, 0.0029266088, -0.024428688, -1327467.0, 85792.34, 0.000019009012, 10.000745, 9.999318 
2.550062e+2, 1.657895e+2, -1214060.9, -1282489.4, -32123.174, -0.012570723, -0.010620938, -1201344.1, 113917.81, 0.0000013062046, 10.00076, 9.999883 
2.5500542e+2, 1.7578922e+2, -1218681.4, -1234628.3, -23300.166, -0.17518504, -0.061259344, -1202028.1, 15233.894, 0.000000000635992, 10.000063, 9.99987 
2.5500685e+2, 1.8578939e+2, -1178838.9, -1172841.6, -9375.392, -0.16218066, -0.021394866, -1165997.0, -46736.973, 0.0, 9.999698, 9.999793 
2.5500977e+2, 1.9578968e+2, -1093217.4, -1083037.5, 16952.951, -0.023715463, -0.009646022, -1070426.9, -49167.883, 0.0, 9.999627, 9.999769 
2.5501272e+2, 2.057896e+2, -1008946.5, -986683.44, 45368.21, 0.044055723, 0.008421448, -951101.06, -27841.758, 0.0, 9.999509, 9.999823 
2.550158e+2, 2.1578906e+2, -930373.2, -902736.8, 34481.375, 0.059050553, -0.060239855, -879407.94, -54145.383, 0.0, 9.9993925, 9.999782 
2.5501773e+2, 2.2578876e+2, -773058.9, -820573.75, 13337.539, -0.018661272, -0.04324512, -769571.0, -42305.5, 0.0, 9.99999, 9.999382 
2.550189e+2, 2.3578838e+2, -518756.2, -655067.94, 43985.43, -0.17118585, -0.0532494, -505795.22, 123475.4, 0.0, 10.001097, 9.999314 
2.5502113e+2, 2.4578772e+2, -434623.97, -618754.94, -35587.492, -0.13054761, -0.020273954, -427985.25, 103292.016, 0.0, 10.001235, 9.99883 
2.5502408e+2, 2.5578663e+2, -440537.06, -574072.25, -57299.492, 0.045541704, -0.044157356, -419320.88, 13966.2705, 0.0, 10.000529, 9.998804 
2.550258e+2, 2.6578572e+2, -317105.53, -437287.03, -30408.986, 0.021681804, -0.02305464, -309849.4, 25445.25, 0.0, 10.000604, 9.999027 
2.5502682e+2, 2.7578473e+2, -147898.89, -313179.38, 692.4509, -0.1378835, -0.058302794, -147896.0, 89406.44, 0.0, 10.001116, 9.998968 
2.550302e+2, 2.857834e+2, -14121.572, -192707.95, 13772.143, -0.08558845, -0.080809295, -13065.741, 126248.13, 0.00000013920514, 10.001347, 9.99901 
2.550349e+2, 2.9578164e+2, 59964.28, -108635.19, 34335.5, 0.09220673, -0.1993806, 66688.56, 108019.03, 0.0000022917138, 10.001185, 9.99899 
2.5503802e+2, 3.057834e+2, 205542.52, -23504.496, 124540.92, 0.04231114, 0.08653638, 260211.42, 260211.42, 0.0000129202135, 10.001915, 9.998895 
2.5504157e+2, 3.1578058e+2, 294411.9, -58409.68, -63988.07, -0.144893, -0.10304818, 305658.34, 305658.34, 0.000045825393, 10.002809, 9.99822 
2.6500103e+2, 1.2578733e+2, -1840477.6, -1837800.4, 100972.46, 0.15075377, -0.18140654, -1738157.6, -30881.143, 0.00051409315, 9.9992895, 9.999488 
2.649983e+2, 1.3578795e+2, -1532675.3, -1652524.8, -86745.61, -0.13648091, -0.07781188, -1487168.6, 122106.88, 0.0002486299, 10.000847, 9.999344 
2.6499903e+2, 1.4578891e+2, -1430151.3, -1479692.0, 53653.78, -0.22294825, 0.05387791, -1395826.0, 115442.47, 0.00007773356, 10.0005865, 9.999952 
2.6500434e+2, 1.5578899e+2, -1524926.9, -1497868.4, 55430.87, -0.0020596436, 0.03679157, -1454339.6, -41071.36, 0.000013419433, 9.999363, 9.999748 
2.6500663e+2, 1.6578856e+2, -1428103.4, -1406978.6, 5428.805, 0.034212425, 0.029404623, -1405665.1, -90393.3, 0.0000010267595, 9.999386, 9.999688 
2.6500654e+2, 1.7578772e+2, -1201066.5, -1245752.9, -17925.338, -0.07293825, -0.05945037, -1194764.6, 22514.225, 0.0000000012219834, 10.000266, 9.999692 
2.6500762e+2, 1.8578771e+2, -1049426.3, -1105680.8, 1598.8829, -0.08804707, -0.03248488, -1049380.9, 69897.695, 0.0, 10.0005665, 9.999841 
2.650096e+2, 1.957881e+2, -988490.56, -1031435.06, -21437.701, -0.02667625, -0.010039579, -979620.9, 41653.98, 0.0, 10.000338, 9.999788 
2.650125e+2, 2.0578793e+2, -895381.2, -965891.8, 47038.668, 0.034509484, 0.0128753465, -871852.4, 51423.563, 0.0, 10.000427, 9.999526 
2.6501608e+2, 2.1578717e+2, -768339.2, -858557.8, 33013.7, 0.094295435, -0.046753146, -757549.0, 67733.19, 0.0, 10.000648, 9.999485 
2.6501837e+2, 2.2578676e+2, -695395.5, -781211.6, 37279.55, 0.026198346, -0.027970117, -681462.9, 45823.41, 0.0, 10.00051, 9.999406 
2.6501977e+2, 2.3578641e+2, -664785.56, -727642.6, -469.15903, -0.13327406, -0.036205105, -664782.06, -35491.684, 0.0, 10.000094, 9.999305 
2.6502204e+2, 2.4578568e+2, -570920.06, -693569.8, -40006.156, -0.111529954, -0.0020341855, -559024.5, -27727.078, 0.0, 10.000351, 9.998737 
2.650248e+2, 2.5578454e+2, -355694.9, -541948.75, -16986.086, 0.04378897, -0.02459331, -354158.47, 79149.92, 0.0, 10.001161, 9.998714 
2.6502675e+2, 2.657834e+2, -211969.36, -408029.06, 48343.12, 0.02036306, -0.011143692, -200697.3, 134620.7, 0.0, 10.0014105, 9.998842 
2.650282e+2, 2.7578223e+2, -135184.52, -321924.2, 11664.086, -0.11039026, -0.046490885, -134458.77, 102868.31, 0.0, 10.001282, 9.998821 
2.6503152e+2, 2.8578067e+2, -37276.92, -247669.92, -9649.426, -0.082351185, -0.0682459, -36835.29, 102505.94, 0.00000017298198, 10.001372, 9.998617 
2.6503557e+2, 2.9577836e+2, 105981.24, -121311.766, -83995.61, 0.030579759, -0.20225708, 133652.78, 175016.55, 0.000002277503, 10.001634, 9.998692 
2.6504028e+2, 3.057803e+2, 214654.31, -35662.23, 25077.691, 0.08579382, 0.12179822, 217141.98, 217141.98, 0.000011809922, 10.0020275, 9.998777 
2.6504496e+2, 3.1577706e+2, 186893.83, -104396.06, -202959.95, -0.036121123, -0.09401116, 291059.2, 291059.2, 0.000042458643, 10.002009, 9.998306 
2.7499884e+2, 1.2578695e+2, -1837155.3, -1830803.9, 103370.46, -0.07496111, -0.015137482, -1730560.4, -23277.207, 0.00042131313, 9.999279, 9.999546 
2.7499944e+2, 1.3578683e+2, -1540398.6, -1668878.0, -30719.844, -0.14247273, 0.030615, -1533431.3, 75859.69, 0.0001952308, 10.000851, 9.9992285 
2.749995e+2, 1.4578728e+2, -1389297.0, -1386835.5, -14050.48, -0.27341226, 0.08200236, -1373962.0, 137325.67, 0.000056360343, 10.000551, 10.000608 
2.750027e+2, 1.557882e+2, -1487861.1, -1411246.3, 30788.604, -0.13732655, 0.08394517, -1400407.0, 12868.898, 0.000009372096, 9.999329, 10.0003605 
2.7500594e+2, 1.6578785e+2, -1448671.1, -1439137.0, 25640.904, -0.0059937923, 0.065821245, -1417823.9, -102545.27, 0.0000008660051, 9.999339, 9.999488 
2.7500904e+2, 1.757864e+2, -1225403.3, -1283736.5, 25559.95, 0.11271272, -0.060434617, -1215788.4, 1504.8551, 0.000000004874734, 10.000216, 9.9994545 
2.7500984e+2, 1.8578598e+2, -1084239.1, -1150851.8, -20546.197, 0.045518313, -0.04844652, -1078411.5, 40885.78, 0.0, 10.000453, 9.999583 
2.750089e+2, 1.9578616e+2, -1016468.75, -1069329.0, -12522.291, -0.16587248, -0.022606265, -1013652.4, 7642.409, 0.0, 10.000257, 9.999565 
2.750112e+2, 2.05786e+2, -912602.4, -973623.06, 42498.566, -0.16371803, 0.012551121, -890796.3, 32499.037, 0.0, 10.00031, 9.999529 
2.7501598e+2, 2.157853e+2, -794063.56, -871788.2, 53644.934, -0.0069250274, -0.04510817, -766683.44, 58617.613, 0.0, 10.00048, 9.999471 
2.7501887e+2, 2.2578467e+2, -757927.9, -871479.3, 8860.084, -0.0013610343, -0.018600522, -757240.75, -29933.002, 0.0, 10.0003395, 9.99887 
2.750203e+2, 2.357839e+2, -717844.1, -801926.7, -31.688494, -0.115597576, -0.012841879, -717844.1, -88527.24, 0.0, 9.999937, 9.998875 
2.7502266e+2, 2.4578322e+2, -528109.9, -580939.94, -21636.77, -0.11148118, -0.0004316005, -520379.6, 10942.503, 0.0, 10.000251, 9.999558 
2.7502558e+2, 2.557823e+2, -324880.9, -451203.0, 25193.54, -0.027712848, -0.078654975, -320041.72, 113285.18, 0.0, 10.001037, 9.999402 
2.7502784e+2, 2.6578096e+2, -273995.84, -513508.63, 26869.12, -0.040769428, -0.08252762, -271018.63, 64319.074, 0.0, 10.001321, 9.998157 
2.7502972e+2, 2.7577922e+2, -208433.19, -444965.94, 20297.164, -0.117733225, -0.10373443, -206704.1, 30649.248, 0.00000000009324417, 10.001159, 9.9980345 
2.750327e+2, 2.8577685e+2, -134460.78, -437434.84, -14342.503, -0.13516133, -0.09987073, -133783.34, 5594.512, 0.00000023612336, 10.001323, 9.997334 
2.7503568e+2, 2.9577354e+2, 15316.95, -290459.0, -55487.492, -0.16652624, -0.20965983, 25074.586, 66488.27, 0.0000024951785, 10.001544, 9.997574 
2.7504164e+2, 3.0577502e+2, 200519.83, -46609.195, 19603.15, -0.011119327, 0.12191965, 202065.16, 202065.16, 0.0000116764495, 10.001975, 9.9987135 
2.7504724e+2, 3.1577265e+2, 184779.19, -58439.12, -134490.6, -0.07399542, 0.0080509195, 244488.83, 244488.83, 0.000040637482, 10.001815, 9.998708 
2.849987e+2, 1.2578504e+2, -1601528.6, -1690749.3, 112515.66, -0.07770719, 0.003988322, -1525102.4, 182200.61, 0.00034670465, 10.000825, 9.99974 
2.850003e+2, 1.3578522e+2, -1723367.9, -1724503.4, -21656.938, -0.058544602, 0.05254625, -1702271.3, -92964.414, 0.00015383656, 9.99949, 9.999483 
2.8499988e+2, 1.4578512e+2, -1566514.9, -1485714.5, 6091.6597, -0.2222048, 0.04330001, -1485257.8, 26051.035, 0.00004093297, 9.999392, 10.000489 
2.850026e+2, 1.557858e+2, -1345526.3, -1349528.9, -36562.004, -0.11863583, 0.032176, -1310910.9, 102388.836, 0.0000066741927, 10.000325, 10.000306 
2.8500587e+2, 1.6578588e+2, -1301642.8, -1346922.4, -13318.753, 0.01497083, 0.049095035, -1298015.6, 17282.969, 0.00000074756446, 10.000267, 9.999677 
2.850093e+2, 1.7578529e+2, -1313854.8, -1311780.1, -11211.843, 0.16171427, -0.006598663, -1301557.8, -84252.08, 0.000000006090155, 9.999542, 9.999597 
2.850104e+2, 1.8578485e+2, -1189045.3, -1211100.1, 2071.3318, 0.10158793, 0.00070736767, -1188852.4, -69542.73, 0.0, 9.999779, 9.99949 
2.850098e+2, 1.9578436e+2, -963172.44, -1057336.8, -5476.221, -0.1121549, -0.031623024, -962855.06, 58457.848, 0.0, 10.000675, 9.999443 
2.8501204e+2, 2.0578389e+2, -858663.6, -981618.4, 45703.086, -0.13270417, -0.005288969, -843536.56, 79780.164, 0.0, 10.000842, 9.999208 
2.8501633e+2, 2.157832e+2, -830250.4, -921738.56, 4564.1377, -0.006829383, -0.028476963, -830023.25, -4699.8193, 0.0, 10.000379, 9.999174 
2.8501925e+2, 2.2578244e+2, -729445.56, -842310.4, 12819.497, 0.0038114856, -0.0061922343, -728007.8, -677.39, 0.0, 10.00048, 9.998997 
2.8502113e+2, 2.3578154e+2, -555543.44, -709132.0, 27497.059, -0.074138544, -0.028140524, -550769.0, 78569.65, 0.0, 10.001004, 9.998989 
2.850236e+2, 2.4578068e+2, -427318.44, -564027.0, 16345.432, -0.07282888, -0.024678798, -425391.28, 105953.914, 0.0, 10.001061, 9.999283 
2.8502658e+2, 2.5577968e+2, -379587.97, -503824.9, -45379.75, -0.0063107987, -0.087500915, -364777.72, 68574.08, 0.0, 10.000783, 9.999155 
2.850293e+2, 2.6577815e+2, -312947.53, -557358.1, -25273.883, -0.00962265, -0.08279265, -310361.38, 25002.744, 0.0, 10.001159, 9.997936 
2.8503203e+2, 2.757761e+2, -101152.08, -420137.0, -23655.742, -0.031929012, -0.11688003, -99407.32, 137975.42, 0.0000000018932573, 10.001991, 9.997812 
2.8503487e+2, 2.857733e+2, -46783.836, -441496.66, 19054.07, -0.08252807, -0.12063497, -45866.168, 93544.63, 0.00000028816427, 10.002124, 9.996923 
2.8503695e+2, 2.9576993e+2, 47384.266, -308657.4, 15672.811, -0.19971934, -0.20008412, 48072.844, 89520.44, 0.0000027347362, 10.001927, 9.997256 
2.8504315e+2, 3.0577016e+2, 161220.06, -86058.53, 122966.22, -0.03003529, 0.026570309, 211957.86, 211957.86, 0.000012525966, 10.001769, 9.998546 
2.8504893e+2, 3.157685e+2, 35590.844, -140248.8, -55455.176, -0.020778669, 0.005719264, 51618.95, 51618.95, 0.00004059471, 10.000827, 9.998615 
2.949995e+2, 1.2578183e+2, -1574097.1, -1651165.0, -19713.578, -0.16081488, -0.10229572, -1569347.3, 137986.47, 0.00028489743, 10.000882, 9.999989 
2.9500055e+2, 1.3578309e+2, -1684689.1, -1651270.5, -56586.027, -0.021232544, -0.015667064, -1608978.4, 345.42618, 0.000121053716, 9.999518, 9.999972 
2.949998e+2, 1.4578235e+2, -1625591.1, -1610072.3, 21348.936, -0.21180184, -0.06552797, -1595116.4, -83783.41, 0.000029834508, 9.999389, 9.999641 
2.9500353e+2, 1.5578179e+2, -1402342.4, -1460066.8, 5040.8496, -0.093053825, -0.119050786, -1401905.5, 11434.405, 0.000004731658, 10.000295, 9.999563 
2.950059e+2, 1.657827e+2, -1272352.5, -1268680.8, -52952.832, -0.038763665, -0.012210861, -1217532.0, 97799.91, 0.00000054097734, 10.000201, 10.000239 
2.9500696e+2, 1.7578453e+2, -1281739.8, -1231932.4, -16285.658, -0.06047418, 0.11260453, -1227080.1, -9765.716, 0.0000000012704189, 9.999498, 10.000156 
2.9500905e+2, 1.8578443e+2, -1197089.8, -1210895.1, 22065.111, -0.045634165, 0.12366933, -1180872.8, -61558.414, 0.0, 9.9997, 9.999534 
2.950119e+2, 1.957826e+2, -977581.4, -1065814.5, 36862.543, -0.002990226, -0.04387532, -964207.75, 57122.04, 0.0, 10.000584, 9.99943 
2.9501447e+2, 2.0578149e+2, -927762.7, -1087697.0, 15502.634, -0.00015167193, -0.04577119, -926273.9, -2932.9883, 0.0, 10.000684, 9.998554 
2.950166e+2, 2.1578075e+2, -893572.8, -1012987.44, 5181.5225, -0.043021645, -0.008312266, -893348.4, -67997.94, 0.0, 10.000209, 9.998626 
2.950191e+2, 2.2578004e+2, -699942.56, -740764.06, 18985.006, -0.0864103, 0.0035469402, -692478.1, 34876.438, 0.0, 10.000312, 9.999772 
2.9502183e+2, 2.3577926e+2, -537001.6, -631404.8, 60153.59, -0.13088496, -0.084459335, -507741.16, 121614.95, 0.0, 10.000839, 9.999599 
2.9502466e+2, 2.457781e+2, -532577.44, -761143.0, -9460.538, -0.10449712, -0.06746267, -532186.56, -820.333, 0.0, 10.000966, 9.997979 
2.9502743e+2, 2.557765e+2, -479775.13, -686662.75, -40773.504, -0.03139897, -0.057401408, -472029.47, -38645.246, 0.0, 10.00067, 9.99796 
2.9503077e+2, 2.6577485e+2, -299985.2, -515259.63, -5096.4854, -0.01088512, -0.03066502, -299864.6, 35534.85, 0.0, 10.001096, 9.998254 
2.9503468e+2, 2.757728e+2, -95890.65, -377436.3, 17324.004, -0.003134293, -0.091899544, -94828.67, 142586.81, 0.0000000016821552, 10.001859, 9.998168 
2.9503757e+2, 2.8577027e+2, -18979.646, -374672.78, -2848.7273, -0.057147995, -0.116728, -18956.834, 120481.664, 0.00000022409213, 10.00208, 9.997407 
2.9503906e+2, 2.9576743e+2, 61677.773, -269203.72, 32976.566, -0.22623819, -0.1820258, 64932.3, 106398.6, 0.0000026534976, 10.001868, 9.997567 
2.9504448e+2, 3.057655e+2, 143614.3, -110215.61, 87221.98, -0.10629483, -0.17418222, 170696.34, 170696.34, 0.00001292508, 10.001721, 9.998397 
2.9504895e+2, 3.1576434e+2, -18289.604, -232518.3, -10229.397, -0.17578429, -0.13828059, -17802.26, -17802.26, 0.000040888393, 10.000738, 9.998022 
3.0499932e+2, 1.2578017e+2, -1976180.0, -1835673.3, -23742.713, -0.11304758, -0.042918447, -1831769.8, -124416.76, 0.00023189843, 9.998096, 10.000069 
3.0500075e+2, 1.3578098e+2, -1586421.9, -1564779.9, -95462.62, 0.034099203, -0.035662416, -1479526.9, 129818.09, 0.000094942065, 10.000014, 10.000334 
3.0500013e+2, 1.4578034e+2, -1488989.9, -1551362.3, 36123.453, -0.16171943, -0.08816707, -1472453.1, 38899.402, 0.000021738364, 10.000383, 9.999552 
3.0500394e+2, 1.5578018e+2, -1480885.8, -1510321.6, 36502.31, -0.046841297, -0.08907166, -1456245.9, -42889.98, 0.0000030875526, 9.999816, 9.999442 
3.050059e+2, 1.6578095e+2, -1306472.3, -1312732.4, -4100.803, -0.03864965, 0.018607976, -1304443.5, 10906.197, 0.0000002653173, 10.00006, 10.0000105 
3.0500624e+2, 1.7578216e+2, -1104809.3, -1173427.9, -57522.79, -0.13978726, 0.106884524, -1072141.0, 145197.27, 0.0, 10.00081, 9.999934 
3.0500874e+2, 1.8578193e+2, -1057107.4, -1172375.5, -27664.67, -0.0904277, 0.12760079, -1050811.6, 68528.664, 0.0, 10.00078, 9.999284 
3.0501294e+2, 1.957803e+2, -1065635.8, -1142508.9, -64414.67, 0.074001364, 0.0077410787, -1029061.56, -7706.5747, 0.0, 10.000102, 9.999153 
3.050156e+2, 2.0577922e+2, -993791.75, -1107371.8, -33799.813, 0.08047218, 0.015578463, -984494.44, -61128.79, 0.0, 10.000165, 9.998679 
3.050171e+2, 2.157784e+2, -805843.56, -964880.25, -15948.465, -0.033115715, 0.035396706, -804260.0, 21114.588, 0.0, 10.000765, 9.9987 
3.0501953e+2, 2.2577736e+2, -657737.06, -745095.5, 4933.1724, -0.08463719, 0.019649051, -657459.4, 69921.92, 0.0, 10.000701, 9.999559 
3.0502272e+2, 2.3577598e+2, -653110.75, -712953.75, -52224.01, -0.080987394, -0.10682589, -622843.9, 6544.1445, 0.0, 10.000147, 9.999376 
3.05026e+2, 2.4577454e+2, -594677.0, -824523.3, -60308.496, -0.04691745, -0.09002845, -579814.0, -48413.11, 0.0, 10.000718, 9.997652 
3.050292e+2, 2.5577286e+2, -264348.66, -610685.44, -48383.727, 0.005606071, -0.054949686, -257716.39, 175703.7, 0.0, 10.002295, 9.99769 
3.0503267e+2, 2.6577103e+2, -139010.97, -434212.88, 2364.7322, 0.024924649, -0.03538332, -138992.03, 196445.22, 0.0, 10.002181, 9.99829 
3.0503646e+2, 2.757688e+2, -232386.63, -433641.25, -21227.543, 0.050852258, -0.119886324, -230172.0, 7283.49, 0.00000000014964384, 10.00088, 9.998251 
3.0503947e+2, 2.857669e+2, -170226.6, -370631.75, 4572.787, 0.002271402, -0.1223743, -170122.31, -30650.771, 0.00000013461268, 10.0007305, 9.998077 
3.0504128e+2, 2.9576537e+2, 25245.098, -214351.3, 27134.355, -0.15328868, -0.12210853, 28279.637, 69764.18, 0.0000024184974, 10.00134, 9.99818 
3.050462e+2, 3.057628e+2, 106920.63, -116214.16, 98246.19, -0.077363476, -0.2129279, 144012.58, 144012.58, 0.00001259153, 10.001408, 9.998519 
3.0504993e+2, 3.157617e+2, -51866.887, -279309.78, -12282.575, -0.12838967, -0.18569148, -51205.516, -51205.516, 0.000039642433, 10.000619, 9.997779 
3.1499746e+2, 1.2578009e+2, -1976787.3, -1841455.9, -42029.117, -0.18130794, 0.19617984, -1829465.5, -122105.75, 0.0001887222, 9.99812, 10.000014 
3.1500036e+2, 1.3577908e+2, -1580122.1, -1536119.3, -20249.818, -0.037470117, 0.0042065335, -1528218.9, 81149.75, 0.00007509751, 9.999969, 10.000546 
3.1500018e+2, 1.4577924e+2, -1454143.3, -1476112.0, -2590.054, -0.23494221, -0.007977564, -1453842.0, 57524.145, 0.00001598166, 10.000359, 10.000081 
3.150034e+2, 1.5578093e+2, -1453073.0, -1451916.0, 33098.777, -0.12180646, 0.11980764, -1419390.6, -6042.172, 0.00000170519, 9.999813, 9.999842 
3.150057e+2, 1.6578048e+2, -1386415.0, -1468389.3, 4186.3364, -0.10332084, 0.1442946, -1386201.8, -70848.445, 0.000000057148895, 10.000009, 9.998973 
3.1500676e+2, 1.7577815e+2, -1180541.8, -1319239.9, -23637.893, -0.20056231, -0.021260103, -1176623.9, 40753.617, 0.0, 10.000757, 9.99896 
3.1500906e+2, 1.857774e+2, -1111149.8, -1261533.1, -67321.21, -0.16488491, 0.022950372, -1085416.1, 33970.79, 0.0, 10.000678, 9.998723 
3.1501243e+2, 1.9577749e+2, -1108724.9, -1209283.6, -71530.836, -0.019671274, 0.12923376, -1071570.4, -50182.574, 0.0, 10.000007, 9.998739 
3.150151e+2, 2.0577715e+2, -958778.56, -995314.2, -24803.07, -0.009788555, 0.18576236, -946242.06, -22852.232, 0.0, 10.000002, 9.999526 
3.150174e+2, 2.157763e+2, -781231.8, -874303.7, 18652.246, -0.108044885, 0.11623193, -777632.94, 47761.684, 0.0, 10.000601, 9.9994 
3.1502014e+2, 2.2577448e+2, -756376.9, -917492.44, -28578.906, -0.1197886, 0.05144249, -751457.7, -24048.234, 0.0, 10.000562, 9.998446 
3.1502327e+2, 2.3577178e+2, -744104.5, -867153.5, -52598.844, -0.065178014, -0.09195785, -724685.2, -95251.57, 0.0, 9.999998, 9.998394 
3.1502715e+2, 2.4576995e+2, -562195.44, -745170.6, -13849.111, -0.034824498, -0.09926451, -561153.1, -29703.76, 0.0, 10.000658, 9.998228 
3.1503144e+2, 2.5576866e+2, -247352.6, -544036.2, 14772.425, -0.02958798, -0.08421882, -246618.86, 186841.38, 0.0, 10.002152, 9.9982195 
3.1503466e+2, 2.657668e+2, -161657.75, -463990.56, -60180.82, -0.023040975, -0.085364014, -150118.86, 185358.53, 0.0, 10.002107, 9.998122 
3.1503713e+2, 2.757641e+2, -252939.47, -455222.34, -50414.695, -0.002791272, -0.19883078, -241071.03, -3568.1687, 0.00000000001473293, 10.000783, 9.998153 
3.150401e+2, 2.8576314e+2, -120327.36, -254072.16, 13432.606, -0.035722848, -0.14369938, -118991.6, 20518.902, 0.000000108201135, 10.000678, 9.9988985 
3.150431e+2, 2.9576355e+2, 60573.55, -114998.66, 64922.074, -0.14967243, -0.032918386, 81972.05, 123476.5, 0.0000023186144, 10.001221, 9.998923 
3.1504792e+2, 3.0576184e+2, 135091.92, -49611.777, 62721.13, -0.0799979, -0.09535829, 154377.0, 154377.0, 0.000012381474, 10.001369, 9.998995 
3.1505126e+2, 3.1576034e+2, -41045.152, -250478.72, 1888.6287, -0.12904637, -0.16108339, -41028.12, -41028.12, 0.000038038284, 10.000583, 9.997997 
3.2499683e+2, 1.2577733e+2, -1915052.9, -1808382.4, -12618.105, -0.06412766, 0.18183532, -1806910.0, -99522.39, 0.0001575099, 9.9985, 10.00007 
3.2500005e+2, 1.357767e+2, -1686165.6, -1587202.8, -23087.07, -0.011884502, 0.023770511, -1582081.8, 27312.148, 0.00006189271, 9.999201, 10.00058 
3.2500038e+2, 1.4577727e+2, -1581992.3, -1517146.3, -38292.656, -0.1917747, 0.04159965, -1499393.8, 11992.48, 0.000012633238, 9.999376, 10.000285 
3.2500336e+2, 1.5577851e+2, -1486465.3, -1449306.5, -51235.242, -0.07972894, 0.105238646, -1413386.0, -15.51938, 0.0000008198343, 9.999484, 10.00003 
3.2500595e+2, 1.6577767e+2, -1434885.3, -1520299.1, 5627.5293, -0.05816775, 0.09644984, -1434516.0, -119137.88, 0.000000004124255, 9.999835, 9.998686 
3.250077e+2, 1.7577508e+2, -1255963.5, -1389649.5, -2854.263, -0.15366355, -0.062520325, -1255902.6, -38497.61, 0.0, 10.000403, 9.998642 
3.2500988e+2, 1.8577403e+2, -1102605.1, -1274134.6, -14176.335, -0.14731263, -0.021525547, -1101441.4, 17975.71, 0.0, 10.000818, 9.998556 
3.2501253e+2, 1.9577396e+2, -970838.6, -1155606.4, -21333.229, -0.050301734, 0.07947921, -968407.5, 53012.543, 0.0, 10.001036, 9.998595 
3.2501534e+2, 2.0577343e+2, -814009.75, -941672.75, 36737.105, -0.03080494, 0.12833914, -804192.94, 119230.83, 0.0, 10.001047, 9.999393 
3.2501835e+2, 2.1577238e+2, -764639.7, -880477.5, -17689.498, -0.07386512, 0.05169802, -761998.56, 63431.49, 0.0, 10.000772, 9.999273 
3.2502136e+2, 2.2577074e+2, -723241.6, -937387.0, -40407.85, -0.066209726, 0.027079789, -715870.6, 11574.258, 0.0, 10.000938, 9.998128 
3.2502446e+2, 2.3576847e+2, -547024.5, -799651.3, -27560.254, -0.013749782, -0.045475144, -544052.75, 85415.31, 0.0, 10.001463, 9.99815 
3.2502836e+2, 2.4576674e+2, -446197.97, -631323.3, 76741.16, 0.00069906295, -0.059115313, -418523.16, 112959.21, 0.0, 10.001187, 9.998765 
3.2503277e+2, 2.5576532e+2, -461708.84, -593018.56, 80473.99, -0.013546444, -0.11353867, -423505.03, 9986.44, 0.0, 10.0004225, 9.998722 
3.2503605e+2, 2.6576355e+2, -418091.97, -601937.56, 7371.2476, -0.002454664, -0.11910152, -417796.9, -82289.48, 0.0, 10.00041, 9.997996 
3.250385e+2, 2.757612e+2, -230884.42, -456548.9, -6408.5933, 0.050295044, -0.18546428, -230702.58, 6829.1323, 0.00000000010851988, 10.000993, 9.998042 
3.250413e+2, 2.8576025e+2, -82028.22, -252347.02, 61662.195, 0.00660152, -0.11667934, -62047.95, 77493.01, 0.00000014604628, 10.000999, 9.998764 
3.2504413e+2, 2.9576042e+2, -41013.83, -172004.36, 14822.532, -0.1227814, -0.019271689, -39357.492, 2180.8274, 0.0000023415487, 10.000557, 9.998853 
3.2504925e+2, 3.0575898e+2, 67273.82, -25477.15, 5037.834, -0.033435892, -0.076241806, 67546.65, 67546.65, 0.000012312151, 10.000699, 9.999464 
3.2505295e+2, 3.1575778e+2, 83235.92, -85563.69, -120893.21, -0.027102478, -0.16488625, 146275.92, 146275.92, 0.000036624067, 10.001033, 9.998889 
3.3499634e+2, 1.2577194e+2, -1913672.3, -1790895.0, -63338.62, -0.03287434, -0.06718047, -1764077.4, -56641.133, 0.00013854062, 9.998452, 10.000205 
3.3499944e+2, 1.3577394e+2, -1701120.4, -1603374.1, 4030.1875, -0.028263092, 0.04818236, -1603208.3, 6211.3525, 0.000055370125, 9.999165, 10.00047 
3.3500037e+2, 1.4577448e+2, -1592107.1, -1525473.9, -55988.79, -0.16978255, 0.07369032, -1493638.8, 17773.404, 0.000011804474, 9.999321, 10.000256 
3.3500347e+2, 1.557732e+2, -1483729.4, -1437829.0, -32155.334, -0.051537294, -0.119553775, -1421273.8, -7854.416, 0.00000057438905, 9.999461, 10.000119 
3.3500633e+2, 1.6577275e+2, -1418066.4, -1473878.8, 13566.753, -0.0371883, -0.11266184, -1414943.4, -99521.52, 0.00000000201948, 9.9997835, 9.999032 
3.3500874e+2, 1.7577288e+2, -1238360.4, -1347770.1, 33695.715, -0.13028833, -0.032642413, -1228815.5, -11393.949, 0.0, 10.000376, 9.998945 
3.3501083e+2, 1.8577176e+2, -1110177.9, -1260448.6, -21662.123, -0.16817914, -0.020428505, -1107117.5, 12314.805, 0.0, 10.000694, 9.99871 
3.3501288e+2, 1.9576947e+2, -979061.25, -1150962.6, -2244.5498, -0.14971055, -0.15513922, -979031.94, 42421.695, 0.0, 10.000945, 9.998669 
3.3501586e+2, 2.0576787e+2, -907141.44, -1102649.3, 11082.991, -0.1066032, -0.16059405, -906515.2, 16953.75, 0.0, 10.000913, 9.998354 
3.3501953e+2, 2.1576655e+2, -853420.44, -1023323.6, -12837.264, -0.058115296, -0.16184272, -852456.0, -26974.19, 0.0, 10.000597, 9.998377 
3.3502278e+2, 2.2576605e+2, -714506.75, -882095.06, -35201.617, -0.043551106, -0.056342512, -707413.0, 20075.518, 0.0, 10.000783, 9.99858 
3.350258e+2, 2.3576601e+2, -540643.94, -739837.06, -1584.3203, -0.050817613, 0.047390897, -540631.4, 88860.4, 0.0, 10.001274, 9.998646 
3.3502924e+2, 2.4576494e+2, -410511.0, -544746.06, 33924.156, -0.05631579, 0.039948985, -402424.72, 129075.01, 0.0, 10.001125, 9.999392 
3.3503294e+2, 2.5576288e+2, -440580.0, -519758.22, 67781.47, -0.070540786, -0.14115441, -401673.1, 31840.37, 0.0, 10.0002985, 9.999284 
3.350365e+2, 2.657614e+2, -437332.06, -628867.06, 15074.095, -0.02467645, -0.13189863, -436152.97, -100626.38, 0.0, 10.000357, 9.997833 
3.3503997e+2, 2.757601e+2, -265917.06, -498622.22, 26959.799, 0.06871488, -0.08027371, -262834.5, -25292.03, 0.000000000044508567, 10.000863, 9.997813 
3.3504254e+2, 2.8575826e+2, -150743.1, -392866.7, 32023.527, 0.0013855177, -0.04176059, -146579.23, -7016.7554, 0.00000018851506, 10.000976, 9.997816 
3.3504403e+2, 2.957561e+2, -108809.09, -306422.5, 17818.82, -0.22696537, -0.08003044, -107215.23, -65630.35, 0.0000023038672, 10.000509, 9.997963 
3.3504984e+2, 3.057541e+2, 82884.766, 14142.562, 10233.48, -0.076752685, -0.16528359, 84375.85, 84375.85, 0.000011796056, 10.000674, 9.999745 
3.3505407e+2, 3.1575376e+2, 165002.55, 112857.87, -79491.63, -0.08669087, -0.19821645, 222588.36, 222588.36, 0.000034748333, 10.0009, 10.000324 
3.4499502e+2, 1.257688e+2, -1864831.3, -1756696.8, -27463.34, -0.006621484, -0.08930878, -1750121.5, -42655.86, 0.00012841672, 9.998755, 10.000288 
3.4499857e+2, 1.3577066e+2, -1741142.3, -1655897.3, -10557.88, -0.008897401, 0.037212245, -1654609.1, -45158.35, 0.00005393956, 9.999013, 10.000201 
3.4500057e+2, 1.4577107e+2, -1594283.1, -1537999.6, -39098.99, -0.07166781, 0.06896873, -1517967.8, -6522.397, 0.00001321429, 9.9993725, 10.0001335 
3.4500337e+2, 1.5576953e+2, -1405963.9, -1414425.9, -68943.95, -0.028759431, -0.13246794, -1341121.3, 72334.49, 0.00000089811203, 10.000067, 9.999981 
3.450065e+2, 1.6576912e+2, -1324930.6, -1400854.1, -13878.881, -0.012177843, -0.13150565, -1322473.1, -7015.969, 0.0000000015154811, 10.00028, 9.9993 
3.4500974e+2, 1.7576946e+2, -1265994.8, -1330969.1, -22599.324, -0.043400045, -0.059145976, -1258907.4, -41454.563, 0.0, 10.000056, 9.999214 
3.45012e+2, 1.8576851e+2, -1157057.6, -1289866.3, -49688.94, -0.094900355, -0.040169805, -1140525.1, -21063.88, 0.0, 10.000388, 9.998666 
3.4501386e+2, 1.9576627e+2, -968658.6, -1156613.5, -70320.6, -0.14528912, -0.1636351, -945261.6, 76220.69, 0.0, 10.001044, 9.998594 
3.450168e+2, 2.0576437e+2, -865576.25, -1106449.0, -27595.807, -0.1155932, -0.18185823, -862455.2, 61045.79, 0.0, 10.001307, 9.998135 
3.450206e+2, 2.1576253e+2, -776058.7, -1009891.94, -20759.904, -0.034905273, -0.21277869, -774229.9, 51289.926, 0.0, 10.001229, 9.998166 
3.4502408e+2, 2.2576211e+2, -645667.44, -814465.7, 13158.904, -0.0016722502, -0.10430808, -644647.8, 82877.69, 0.0, 10.001103, 9.998894 
3.4502736e+2, 2.3576258e+2, -570673.4, -725459.44, 7531.5186, 0.0036739628, 0.020582423, -570307.75, 59215.516, 0.0, 10.000926, 9.998922 
3.4503073e+2, 2.4576193e+2, -485974.56, -583831.75, 7152.1025, 0.010752212, 0.043350108, -485454.6, 46073.89, 0.0, 10.000633, 9.999355 
3.4503406e+2, 2.5576013e+2, -438322.34, -525286.5, -34801.914, 0.016434265, -0.10177749, -426110.03, 7431.9727, 0.0, 10.000335, 9.999234 
3.450377e+2, 2.6575884e+2, -355373.97, -554056.75, -16675.395, 0.045074012, -0.08944743, -353984.13, -18430.104, 0.0, 10.000779, 9.998138 
3.450416e+2, 2.7575767e+2, -108088.17, -387824.75, -527.0928, 0.105490394, -0.05562353, -108087.17, 129480.375, 0.0, 10.001813, 9.998111 
3.4504402e+2, 2.8575575e+2, -25415.215, -345736.28, 36712.86, 0.012275429, -0.027936855, -21261.322, 118326.24, 0.00000016974016, 10.001922, 9.997673 
3.4504503e+2, 2.9575345e+2, 11769.478, -265514.13, 55157.945, -0.21652187, -0.067060135, 22338.762, 63950.613, 0.0000020169734, 10.001427, 9.997797 
3.450513e+2, 3.0575076e+2, 118644.57, -30866.396, 92737.2, -0.008595901, -0.18375225, 163004.88, 163004.88, 0.0000103175025, 10.001155, 9.999221 
3.4505543e+2, 3.1575057e+2, 146022.48, 130621.8, -88998.67, -0.01025101, -0.16013597, 227653.31, 227653.31, 0.000031962787, 10.000638, 10.000569 
3.5499203e+2, 1.2576789e+2, -1872596.4, -1766474.1, -64995.836, -0.26281127, 0.114135586, -1735630.9, -28154.703, 0.00012227354, 9.998726, 10.000235 
3.5499695e+2, 1.3576688e+2, -1757597.4, -1691273.9, 12091.79, -0.10649814, -0.014726894, -1689138.3, -79651.09, 0.00005490219, 9.999033, 9.999941 
3.5500053e+2, 1.4576718e+2, -1622559.6, -1599670.6, -29610.969, -0.05873849, 0.036592383, -1579369.5, -67885.35, 0.000015641235, 9.999377, 9.999716 
3.550026e+2, 1.557675e+2, -1432835.0, -1479128.0, -30856.975, -0.14832392, 0.069547415, -1417408.0, -3927.9172, 0.0000017221555, 10.000097, 9.999529 
3.5500604e+2, 1.6576669e+2, -1315257.1, -1362710.3, -39151.203, -0.11952844, 0.038896523, -1293204.1, 22280.754, 0.000000007086625, 10.000204, 9.999596 
3.550102e+2, 1.7576487e+2, -1252154.1, -1292715.4, -13779.823, -0.03172469, -0.13616028, -1247915.6, -30417.51, 0.0, 10.000012, 9.999498 
3.55013e+2, 1.8576433e+2, -1191303.1, -1333617.1, -36176.383, -0.06416579, -0.07835565, -1182635.1, -63131.79, 0.0, 10.000273, 9.998421 
3.5501498e+2, 1.9576454e+2, -995971.06, -1189869.3, -32810.652, -0.16560729, 0.06729462, -990569.5, 30934.61, 0.0, 10.000943, 9.998414 
3.550178e+2, 2.0576313e+2, -851931.7, -1044809.2, -43845.047, -0.17234886, 0.07913701, -842432.6, 81085.41, 0.0, 10.001159, 9.998632 
3.5502124e+2, 2.1576034e+2, -765116.44, -951580.94, -9527.413, -0.12034615, -0.09817183, -764630.9, 60912.746, 0.0, 10.001073, 9.998643 
3.550249e+2, 2.2575894e+2, -654946.25, -800115.6, -3638.7917, -0.0538796, -0.11747567, -654855.06, 72700.88, 0.0, 10.000961, 9.99906 
3.5502872e+2, 2.357584e+2, -589032.6, -725019.5, 14140.673, 0.02329477, -0.11064901, -587577.75, 41982.973, 0.0, 10.000765, 9.9990015 
3.550323e+2, 2.457579e+2, -560264.56, -709926.1, -15639.057, 0.07652629, -0.032062557, -558647.8, -27080.813, 0.0, 10.000519, 9.998541 
3.5503563e+2, 2.5575712e+2, -507510.06, -637630.9, -28798.69, 0.113566354, 0.006472707, -501421.2, -67844.15, 0.0, 10.000206, 9.998523 
3.5503918e+2, 2.657559e+2, -305795.38, -438402.06, 11798.847, 0.08893538, 0.01233361, -304753.72, 30835.406, 0.0, 10.000722, 9.9989605 
3.550429e+2, 2.7575403e+2, -69586.2, -283698.28, 50891.92, 0.023696614, -0.10418294, -58105.4, 179500.05, 0.0, 10.001708, 9.998878 
3.5504526e+2, 2.857528e+2, 7438.6934, -265874.22, 5021.358, -0.08651465, -0.07205554, 7530.9155, 147146.94, 0.00000011654808, 10.001875, 9.998243 
3.5504654e+2, 2.9575226e+2, 26444.012, -212116.31, 55946.34, -0.24895543, 0.0059914216, 38912.664, 80533.65, 0.0000016052002, 10.001331, 9.998211 
3.5505322e+2, 3.0574882e+2, 42897.355, -188738.56, 65734.6, 0.0371086, -0.1447204, 60251.605, 60251.605, 0.000008325357, 10.001149, 9.998144 
3.5505596e+2, 3.1574887e+2, 67348.55, -14695.592, -40953.313, -0.09492071, 0.006477799, 84291.84, 84291.84, 0.000028551576, 10.000554, 9.999616 
3.6499146e+2, 1.2576418e+2, -1821556.5, -1720954.4, -53732.52, -0.18889886, 0.09401942, -1697652.6, 9859.38, 0.000118926524, 9.99897, 10.000441 
3.6499527e+2, 1.3576345e+2, -1762286.8, -1686452.3, -20294.887, -0.1602208, -0.015268005, -1681362.5, -71844.53, 0.000056465244, 9.998968, 10.000004 
3.6500016e+2, 1.4576347e+2, -1683423.0, -1654030.0, 8287.373, -0.0070464252, 0.017660156, -1651854.5, -140336.7, 0.00001794202, 9.999064, 9.9994955 
3.6500302e+2, 1.5576375e+2, -1549724.3, -1555287.1, -4320.332, -0.07174851, 0.066217564, -1547367.5, -133851.4, 0.000002788093, 9.999385, 9.99935 
3.6500657e+2, 1.6576287e+2, -1365760.0, -1401766.6, 2858.655, -0.06528493, 0.045975123, -1365534.4, -50011.883, 0.00000008230677, 9.999918, 9.99947 
3.6501026e+2, 1.7576101e+2, -1189506.4, -1273654.0, -36987.477, -0.04317021, -0.120495856, -1175559.9, 41976.79, 0.0, 10.00049, 9.9994 
3.6501366e+2, 1.857604e+2, -1110968.9, -1294093.5, -29696.525, -0.044966407, -0.06597793, -1106273.5, 13269.116, 0.0, 10.000828, 9.998423 
3.6501703e+2, 1.9576047e+2, -997002.7, -1186793.3, -36767.11, -0.045825105, 0.066367656, -990128.94, 31415.97, 0.0, 10.000929, 9.998443 
3.6501965e+2, 2.057595e+2, -898538.6, -1023442.75, -41914.04, -0.07001339, 0.09972864, -885777.3, 37777.21, 0.0, 10.000645, 9.99903 
3.6502174e+2, 2.157575e+2, -892287.7, -969525.0, -42893.234, -0.11635794, -0.035641454, -873189.5, -47617.45, 0.0, 10.0000105, 9.999033 
3.650254e+2, 2.2575611e+2, -738619.75, -823627.3, 12800.13, -0.05945064, -0.08347853, -736734.2, -9150.487, 0.0, 10.000315, 9.999213 
3.6503032e+2, 2.3575494e+2, -500615.6, -667666.94, 678.5624, 0.08530457, -0.15174304, -500612.84, 128979.97, 0.0, 10.001312, 9.999131 
3.6503398e+2, 2.4575421e+2, -426784.63, -682916.4, -6037.1255, 0.15246923, -0.084336184, -426642.4, 104959.445, 0.0, 10.001574, 9.998233 
3.6503682e+2, 2.5575364e+2, -373497.8, -596210.25, -3434.0933, 0.1648742, 0.00017210997, -373444.88, 60167.594, 0.0, 10.001231, 9.998313 
3.6504027e+2, 2.657526e+2, -284182.6, -422732.25, 68423.33, 0.12867692, 0.03338679, -256088.25, 79535.46, 0.0, 10.000854, 9.9990015 
3.6504441e+2, 2.7575088e+2, -244835.56, -361675.8, 22577.29, 0.07407232, -0.06928275, -240624.67, -2985.6235, 0.0, 10.000478, 9.998935 
3.6504692e+2, 2.8574982e+2, -152374.6, -324246.4, -40547.746, -0.041478302, -0.038058642, -143288.92, -3640.958, 0.000000055764154, 10.000671, 9.998433 
3.6504805e+2, 2.9574943e+2, 21597.281, -198675.58, -45240.297, -0.21489216, 0.0331944, 30526.873, 72177.14, 0.0000011855267, 10.001229, 9.99835 
3.6505494e+2, 3.0574587e+2, 57469.86, -217428.28, -3009.681, 0.0951011, -0.11541291, 57502.805, 57502.805, 0.0000067298934, 10.001428, 9.997803 
3.650576e+2, 3.1574592e+2, 102892.93, -58316.39, -64462.527, -0.00061736966, 0.069839865, 125499.35, 125499.35, 0.00002565761, 10.001081, 9.999061 
3.7499228e+2, 1.2575795e+2, -1783683.5, -1641881.1, -50886.438, -0.075291455, -0.10324427, -1625510.3, 82060.41, 0.0001191897, 9.998964, 10.000979 
3.749931e+2, 1.3576038e+2, -1727041.6, -1615837.5, -11847.558, -0.31542572, 0.045457214, -1614589.4, -5045.951, 0.00005856906, 9.998977, 10.000479 
3.7499902e+2, 1.4575998e+2, -1690466.9, -1650650.9, 1051.7954, -0.06789457, 0.00995276, -1650623.1, -139076.81, 0.000020069963, 9.998993, 9.999552 
3.7500414e+2, 1.557582e+2, -1543832.9, -1549045.0, 24832.305, 0.06372087, -0.14966767, -1521470.3, -107905.945, 0.0000038584762, 9.999406, 9.999385 
3.750076e+2, 1.6575766e+2, -1415654.3, -1490666.4, 12049.873, 0.016243923, -0.11119144, -1413766.1, -98195.914, 0.00000020238203, 9.999858, 9.998885 
3.7500942e+2, 1.7575796e+2, -1234670.5, -1358939.3, -1626.7211, -0.20707504, -0.0023923875, -1234649.3, -17081.813, 0.0, 10.000449, 9.998836 
3.750136e+2, 1.8575668e+2, -1106950.3, -1261446.1, -38972.133, -0.16605519, -0.0015858958, -1097676.1, 21903.563, 0.0, 10.000723, 9.998695 
3.7501955e+2, 1.9575396e+2, -993883.2, -1153907.6, -19513.0, 0.084785074, -0.17630675, -991538.2, 30067.324, 0.0, 10.000817, 9.998718 
3.7502196e+2, 2.0575337e+2, -901306.3, -997397.4, -78792.945, 0.06954669, -0.13115901, -857065.9, 66545.53, 0.0, 10.0005045, 9.999277 
3.7502158e+2, 2.1575415e+2, -899415.7, -943695.6, -50120.24, -0.1583119, -0.0147305755, -866763.2, -41158.598, 0.0, 9.999841, 9.9992895 
3.7502515e+2, 2.2575368e+2, -749297.1, -815560.25, 33975.633, -0.13854137, 0.01232644, -734973.0, -7364.8975, 0.0, 10.000174, 9.99934 
3.7503165e+2, 2.3575206e+2, -510545.25, -658428.0, 46406.184, 0.062202565, -0.11670064, -497189.1, 132432.36, 0.0, 10.001172, 9.999267 
3.7503546e+2, 2.4575086e+2, -421800.8, -649007.06, -31604.977, 0.115638785, -0.11849111, -417486.4, 114147.54, 0.0, 10.001472, 9.998514 
3.7503707e+2, 2.557497e+2, -378455.78, -579468.7, -2151.3784, 0.038929243, -0.11659774, -378432.75, 55215.387, 0.0, 10.00111, 9.998487 
3.750406e+2, 2.6574892e+2, -342838.53, -531152.6, 41889.7, 0.043356795, -0.026484502, -333940.75, 1718.0703, 0.0, 10.000795, 9.998284 
3.7504563e+2, 2.7574813e+2, -302256.6, -462375.78, 26723.646, 0.116023414, 0.03306342, -297914.22, -60244.23, 0.0, 10.000393, 9.998287 
3.7504837e+2, 2.8574678e+2, -162317.92, -336585.34, -29815.621, 0.007040282, 0.06994575, -157357.9, -17674.443, 0.00000003400916, 10.000632, 9.998369 
3.750491e+2, 2.9574504e+2, -1418.8054, -227807.34, -8852.172, -0.27220616, 0.019465473, -1073.1982, 40625.445, 0.000000899484, 10.001138, 9.998201 
3.7505597e+2, 3.0574194e+2, 71869.766, -173451.86, -21192.105, 0.03000953, -0.09115822, 73686.984, 73686.984, 0.000005766145, 10.001377, 9.998128 
3.750594e+2, 3.1574136e+2, 64936.402, -117423.06, 21061.9, 0.0014039503, -0.0019950822, 67337.37, 67337.37, 0.000023929499, 10.000994, 9.998701 
3.849919e+2, 1.2575305e+2, -1779397.4, -1629495.0, -27589.71, 0.0043157632, -0.08515557, -1624578.4, 83040.945, 0.00012316402, 9.998955, 10.001072 
3.849923e+2, 1.3575494e+2, -1778226.0, -1621675.3, -120111.266, -0.25565508, -0.009967799, -1556584.9, 53010.043, 0.000061385945, 9.998527, 10.000671 
3.849987e+2, 1.4575449e+2, -1683580.4, -1618703.1, -39038.56, 0.015899342, -0.07135431, -1600384.8, -88787.09, 0.000022093489, 9.998919, 9.999804 
3.8500416e+2, 1.5575372e+2, -1429806.1, -1465733.3, -44547.06, 0.101248346, -0.15734217, -1399737.1, 13869.556, 0.000004863891, 10.000081, 9.999623 
3.8500807e+2, 1.6575354e+2, -1320099.8, -1459875.5, -22598.451, 0.048411623, -0.08745408, -1316536.9, -927.0371, 0.00000029520132, 10.000561, 9.998767 
3.8501033e+2, 1.7575374e+2, -1237664.6, -1368073.0, -22805.605, -0.15335962, 0.020917194, -1233791.4, -16182.052, 0.0, 10.000454, 9.998773 
3.8501456e+2, 1.857524e+2, -1123873.4, -1226516.0, -17235.451, -0.11587641, -0.0009305289, -1121056.5, -1434.9152, 0.0, 10.000412, 9.999088 
3.8502043e+2, 1.9574958e+2, -1032030.1, -1136123.3, -19575.986, 0.12332398, -0.22788851, -1028470.4, -6823.1626, 0.0, 10.000378, 9.999059 
3.85023e+2, 2.0574915e+2, -858193.75, -970438.44, -54116.074, 0.11755025, -0.18485978, -836352.9, 87298.54, 0.0, 10.000781, 9.999328 
3.8502294e+2, 2.1575034e+2, -656292.4, -825786.9, -65593.95, -0.08153684, -0.030165859, -633873.1, 191768.36, 0.0, 10.001494, 9.999312 
3.8502637e+2, 2.2575015e+2, -618731.56, -742118.94, 33077.953, -0.069669135, 0.020164335, -610423.4, 117219.36, 0.0, 10.001034, 9.999421 
3.8503242e+2, 2.357488e+2, -714312.94, -744406.5, 15654.412, 0.09872035, -0.09446477, -707646.44, -77992.375, 0.0, 9.999734, 9.999359 
3.8503617e+2, 2.4574773e+2, -604179.25, -719489.8, -14915.733, 0.11018987, -0.09481961, -602281.1, -70615.914, 0.0, 10.00016, 9.998646 
3.8503808e+2, 2.5574663e+2, -254122.64, -514775.44, -28960.729, -0.0038332473, -0.10237091, -250943.63, 182735.42, 0.0, 10.001932, 9.998535 
3.850417e+2, 2.6574576e+2, -177345.64, -477541.75, 6798.201, 0.020841345, -0.010122863, -177191.77, 158499.23, 0.0, 10.002037, 9.998062 
3.8504675e+2, 2.7574494e+2, -240195.73, -449701.0, 4040.673, 0.17145331, 0.06747578, -240117.83, -2414.8413, 0.0, 10.000901, 9.998126 
3.8504976e+2, 2.8574356e+2, -121085.71, -306817.78, 48474.92, 0.08137785, 0.10356305, -109195.27, 30521.988, 0.000000026095549, 10.000883, 9.998449 
3.8505098e+2, 2.9574165e+2, 80209.195, -176737.13, 52712.383, -0.21391793, 0.024997413, 90602.69, 132337.39, 0.00000066980994, 10.001658, 9.998296 
3.850574e+2, 3.0573946e+2, 109264.84, -137443.19, 31954.709, 0.04037865, -0.0046879165, 113336.555, 113336.555, 0.000005131084, 10.001548, 9.99829 
3.8506094e+2, 3.1573838e+2, 583.7729, -122829.3, 57710.266, 0.101804145, 0.007855766, 23364.936, 23364.936, 0.000023471404, 10.000455, 9.998914 
3.9498982e+2, 1.257496e+2, -1828184.4, -1699930.5, -26396.172, -0.17517653, 0.1476422, -1694710.3, 12946.317, 0.0001272644, 9.998861, 10.000627 
3.9499256e+2, 1.3574718e+2, -1794928.1, -1639129.9, -120399.414, -0.115923576, -0.18920386, -1573626.5, 36045.645, 0.00006380605, 9.998483, 10.0005665 
3.949988e+2, 1.457471e+2, -1672104.4, -1582996.8, -12599.901, 0.09000477, -0.22327138, -1581249.4, -69578.17, 0.000023677207, 9.998853, 10.000085 
3.9500254e+2, 1.557502e+2, -1406864.5, -1419238.8, 10092.863, -0.10705357, 0.04452145, -1401213.3, 12430.675, 0.000005569423, 10.00008, 9.999944 
3.9500752e+2, 1.6575037e+2, -1297811.3, -1393592.4, -44278.56, -0.095423006, 0.10838394, -1280478.4, 35164.977, 0.00000035120044, 10.000486, 9.999257 
3.9501265e+2, 1.757483e+2, -1214101.8, -1298102.4, -12328.364, -0.000096425814, -0.055343665, -1212329.8, 5333.0493, 0.0, 10.000374, 9.999291 
3.9501637e+2, 1.8574753e+2, -1106458.9, -1165367.4, -31569.674, -0.0062218998, -0.07282367, -1092736.8, 26932.648, 0.0, 10.000297, 9.999569 
3.9501932e+2, 1.9574742e+2, -1018670.9, -1075847.0, -5699.525, -0.059357926, -0.07170214, -1018108.25, 3560.615, 0.0, 10.000242, 9.9995365 
3.950224e+2, 2.0574698e+2, -888941.75, -995939.44, -41470.996, -0.0466204, -0.04910543, -874750.4, 48922.844, 0.0, 10.000617, 9.999231 
3.950254e+2, 2.1574609e+2, -691766.0, -850944.2, -27874.646, -0.0114212725, -0.09162258, -687025.9, 138656.89, 0.0, 10.001294, 9.999231 
3.9502868e+2, 2.257456e+2, -637737.25, -747145.7, -27821.428, 0.031080654, -0.07070802, -631069.0, 96618.29, 0.0, 10.000883, 9.999462 
3.9503214e+2, 2.3574515e+2, -734192.0, -749878.44, -9543.915, 0.07151499, -0.09408828, -729682.0, -99991.375, 0.0, 9.999582, 9.999394 
3.950357e+2, 2.4574482e+2, -619779.25, -730229.75, 39631.656, 0.020308914, -0.018723574, -607030.3, -75334.16, 0.0, 10.000065, 9.998624 
3.9503938e+2, 2.5574437e+2, -271084.3, -521051.6, 44255.4, -0.10172152, 0.039216645, -263480.44, 170225.42, 0.0, 10.001803, 9.998559 
3.9504325e+2, 2.657432e+2, -169858.69, -445408.0, -48072.453, -0.057152275, 0.0849746, -161712.77, 174006.9, 0.0, 10.001961, 9.998324 
3.9504734e+2, 2.757413e+2, -236517.72, -423632.13, -18736.844, 0.109035745, 0.034950715, -234659.94, 3078.4045, 0.0, 10.00081, 9.998357 
3.9505073e+2, 2.8574008e+2, -112080.65, -267366.25, 65688.195, 0.057384484, 0.05882516, -88021.22, 51729.023, 0.000000010243951, 10.000809, 9.99875 
3.950532e+2, 2.957391e+2, 81096.07, -138237.45, 97115.445, -0.19065273, 0.05114894, 117915.51, 159674.53, 0.0000005130985, 10.001511, 9.99863 
3.9505887e+2, 3.057384e+2, 110665.9, -127529.55, -16242.392, 0.0010453216, 0.1455064, 111768.36, 111768.36, 0.0000059963604, 10.001515, 9.998373 
3.9506143e+2, 3.1573638e+2, 37542.023, -20237.354, 93113.086, 0.03952423, 0.06409913, 106144.19, 106144.19, 0.000027747768, 10.00035, 9.999667 
4.0498966e+2, 1.257448e+2, -1881021.8, -1762020.9, 130260.75, -0.04193706, 0.17142153, -1678314.6, 29388.568, 0.0001282802, 9.998626, 10.000325 
4.0499246e+2, 1.3574204e+2, -1664911.8, -1587499.4, -75072.3, -0.0041006138, -0.19302104, -1541742.4, 67980.734, 0.00006493345, 9.999416, 10.00047 
4.0499803e+2, 1.4574198e+2, -1583119.5, -1558416.9, 68268.37, 0.10908463, -0.21258396, -1501391.5, 10330.451, 0.00002457309, 9.999536, 9.999927 
4.0500233e+2, 1.5574485e+2, -1548984.4, -1505017.5, 23729.508, -0.081036076, 0.04724764, -1494653.5, -80957.06, 0.000005781208, 9.99916, 9.999806 
4.0500778e+2, 1.6574492e+2, -1437183.1, -1417499.0, -22387.273, -0.052027848, 0.08917864, -1402885.9, -87189.41, 0.0000003430959, 9.999341, 9.999642 
4.0501305e+2, 1.7574292e+2, -1249119.4, -1272779.9, -33035.082, 0.034430094, -0.109936975, -1225860.1, -8144.4478, 0.0, 9.999939, 9.999675 
4.0501672e+2, 1.8574293e+2, -1120001.1, -1116146.3, -46723.152, 0.023756653, -0.091393284, -1071310.8, 48403.625, 0.0, 9.999982, 10.0000515 
4.050195e+2, 1.9574416e+2, -1090444.1, -1062883.0, -41181.7, -0.021163471, -0.0032159456, -1033237.4, -11536.391, 0.0, 9.999555, 9.999959 
4.0502295e+2, 2.0574383e+2, -1004648.25, -1051725.1, -15693.896, -0.0030823587, 0.014187634, -999896.1, -76192.125, 0.0, 9.99982, 9.999229 
4.050268e+2, 2.1574219e+2, -795282.94, -905071.6, -29364.418, 0.044132438, -0.107188866, -787922.5, 37798.633, 0.0, 10.000595, 9.999194 
4.050299e+2, 2.2574152e+2, -634764.4, -770703.75, -56662.42, 0.067126565, -0.09088374, -614243.9, 113484.24, 0.0, 10.001012, 9.99924 
4.0503243e+2, 2.3574133e+2, -520754.5, -675679.4, -79688.43, 0.07291438, -0.062452603, -487083.34, 142646.63, 0.0, 10.001157, 9.999153 
4.050362e+2, 2.4574111e+2, -510340.56, -673743.44, 29759.486, 0.037960976, 0.032040194, -505089.4, 26645.559, 0.0, 10.0008, 9.998657 
4.0504095e+2, 2.5574073e+2, -513397.16, -620773.5, 12914.225, -0.027152607, 0.09254903, -511865.78, -78122.234, 0.0, 10.000096, 9.998685 
4.050448e+2, 2.6573947e+2, -369876.66, -499076.22, -64234.203, -0.010446741, 0.10199474, -343376.7, -7620.2524, 0.0, 10.000393, 9.998705 
4.05048e+2, 2.7573732e+2, -125981.11, -334632.16, -49149.332, 0.07289207, -0.020124953, -114983.3, 122792.13, 0.0, 10.001399, 9.998682 
4.0505165e+2, 2.8573602e+2, -32243.463, -238259.1, 58753.465, 0.052519485, -0.009371863, -16665.53, 123121.54, 0.0000000008315615, 10.001381, 9.998677 
4.050557e+2, 2.957353e+2, -44821.1, -196835.94, 35138.863, -0.039330993, 0.0074399593, -37091.625, 4703.3296, 0.0000007104038, 10.000629, 9.998646 
4.050603e+2, 3.0573493e+2, -23511.422, -215003.77, -80125.05, 0.046669662, 0.14000985, 5591.7275, 5591.7275, 0.000009515816, 10.000683, 9.998182 
4.050624e+2, 3.157327e+2, 157465.13, 66873.97, -18180.604, 0.08538693, 0.062128145, 160977.58, 160977.58, 0.000039448827, 10.000998, 9.999973 
4.1499066e+2, 1.2573841e+2, -1876301.0, -1767811.8, 168653.95, 0.11944951, -0.028542357, -1644893.6, 62867.832, 0.00012596608, 9.9986725, 10.000261 
4.1499153e+2, 1.3573954e+2, -1652706.9, -1586841.5, -39314.69, -0.07875966, -0.012101831, -1568488.6, 41259.016, 0.00006410072, 9.99949, 10.000444 
4.149961e+2, 1.4573908e+2, -1626746.3, -1637547.6, 40443.758, -0.0815309, -0.0450284, -1591344.1, -79593.51, 0.00002430965, 9.999503, 9.999396 
4.150032e+2, 1.5573774e+2, -1589694.3, -1574846.8, 29456.215, 0.056702763, -0.14893043, -1551893.3, -138129.88, 0.0000053776803, 9.999111, 9.999348 
4.1500843e+2, 1.6573732e+2, -1438179.6, -1395971.4, -13438.35, 0.04825066, -0.14516559, -1392056.1, -76287.64, 0.0000002359893, 9.999242, 9.999834 
4.150111e+2, 1.7573771e+2, -1243412.9, -1244229.4, 2000.4209, -0.1890261, -0.12639247, -1241779.5, -24012.96, 0.0, 9.99987, 9.999901 
4.150151e+2, 1.8573868e+2, -1099049.5, -1051305.8, -77113.75, -0.16592452, -0.049142614, -994453.44, 125303.04, 0.0, 9.999892, 10.000538 
4.150205e+2, 1.9573976e+2, -1073055.0, -1001610.94, -42211.066, 0.09703143, -0.025631718, -982035.25, 39708.375, 0.0, 9.9994545, 10.000421 
4.150243e+2, 2.0573972e+2, -1020649.94, -1058589.6, 192.25148, 0.12424842, -0.0027608054, -1020648.94, -96904.97, 0.0, 9.999694, 9.99925 
4.1502675e+2, 2.1573865e+2, -821057.25, -913612.1, 10033.598, -0.046873033, -0.068909325, -819982.0, 5774.119, 0.0, 10.0004015, 9.999229 
4.1502964e+2, 2.2573796e+2, -696101.9, -857325.06, -64139.496, -0.08587955, -0.028330106, -673698.4, 54066.094, 0.0, 10.000837, 9.99873 
4.1503283e+2, 2.3573732e+2, -574078.7, -752023.94, -62397.176, -0.029562866, 0.0022122215, -554379.6, 75392.875, 0.0, 10.001011, 9.998699 
4.150372e+2, 2.4573658e+2, -512433.7, -657982.1, -8030.421, 0.023825835, 0.058108382, -511991.97, 19789.693, 0.0, 10.0007105, 9.998807 
4.150424e+2, 2.557356e+2, -516262.03, -602790.8, 5692.863, 0.074917495, 0.04334725, -515889.1, -82095.5, 0.0, 9.999988, 9.998859 
4.1504598e+2, 2.6573446e+2, -340936.66, -419565.06, -37243.406, 0.038812034, 0.024043964, -326096.66, 9706.559, 0.0, 10.0003195, 9.999281 
4.1504824e+2, 2.7573293e+2, -108950.016, -269358.97, -2317.1091, -0.07730628, -0.089752905, -108916.555, 128897.305, 0.0, 10.001284, 9.999179 
4.1505224e+2, 2.8573152e+2, -59714.906, -299249.6, 14837.9795, -0.060539816, -0.0925047, -58799.27, 81027.625, 0.00000000001177225, 10.001382, 9.998266 
4.1505778e+2, 2.957302e+2, -83471.555, -260221.47, 25297.336, 0.060651567, -0.09573047, -79922.15, -38079.805, 0.0000013022876, 10.000545, 9.998259 
4.1506112e+2, 3.0572897e+2, -49534.78, -257807.9, -72629.89, 0.029655047, -0.015248683, -26708.652, -26708.652, 0.000014575742, 10.00065, 9.997893 
4.1506302e+2, 3.1572777e+2, 138917.08, 64892.313, 29718.598, -0.021318696, 0.03723902, 149371.66, 149371.66, 0.000055427667, 10.000863, 10.000013 
4.2498982e+2, 1.2573254e+2, -1919248.0, -1821306.3, 202781.02, 0.1884492, -0.09362427, -1661666.8, 46150.754, 0.00012015749, 9.998508, 9.999973 
4.2499253e+2, 1.3573456e+2, -1564454.4, -1575193.0, -96738.85, 0.04748612, 0.04262687, -1472936.0, 136862.89, 0.00006079175, 10.000228, 10.00016 
4.249959e+2, 1.4573443e+2, -1433606.3, -1511592.5, -26464.588, -0.09876052, 0.040866915, -1425473.5, 86325.72, 0.00002257458, 10.000691, 9.999683 
4.2500296e+2, 1.5573257e+2, -1461085.4, -1477418.8, -15842.683, 0.095427886, -0.14785825, -1451428.3, -37613.027, 0.0000044461326, 9.999852, 9.999652 
4.2500815e+2, 1.657324e+2, -1415997.1, -1352234.8, 28279.379, 0.103275664, -0.14836287, -1341499.9, -25682.688, 0.00000009724189, 9.999262, 10.000121 
4.2501074e+2, 1.7573345e+2, -1373091.9, -1276612.6, 24365.057, -0.15353443, -0.0901439, -1270808.5, -53000.0, 0.0, 9.9988575, 10.000167 
4.2501482e+2, 1.8573438e+2, -1214678.1, -1122398.8, -48756.5, -0.1366881, -0.023356259, -1101411.3, 18387.895, 0.0, 9.999146, 10.000419 
4.250205e+2, 1.9573487e+2, -1012439.44, -987269.4, -84213.484, 0.13155167, -0.046473976, -914705.75, 107086.805, 0.0, 9.999914, 10.000306 
4.250245e+2, 2.0573485e+2, -956363.44, -1015089.4, -31874.736, 0.15996669, -0.02295916, -942388.4, -18595.568, 0.0, 10.000094, 9.999349 
4.2502707e+2, 2.1573423e+2, -905712.1, -947688.7, -44226.69, -0.014338406, -0.051532682, -877746.3, -51945.66, 0.0, 9.999794, 9.999289 
4.2503032e+2, 2.2573361e+2, -783483.5, -888671.1, -55463.25, -0.05869672, -0.010505471, -759642.5, -31834.41, 0.0, 10.000198, 9.9988165 
4.2503405e+2, 2.3573288e+2, -552811.1, -726745.5, -42537.25, -0.008244388, 0.0022597888, -542965.5, 86851.37, 0.0, 10.001105, 9.998821 
4.250384e+2, 2.45732e+2, -403835.0, -584348.1, 21857.566, 0.046051502, 0.026319778, -401226.06, 130600.44, 0.0, 10.001361, 9.999005 
4.2504326e+2, 2.557307e+2, -333365.22, -498530.34, 14296.08, 0.11016705, -0.03495827, -332136.94, 101702.51, 0.0, 10.00116, 9.999022 
4.2504695e+2, 2.6572993e+2, -234320.48, -362808.66, 8235.046, 0.07543583, -0.027176883, -233794.84, 102050.94, 0.0, 10.001025, 9.999343 
4.2504972e+2, 2.7572924e+2, -159277.34, -286476.75, -23051.488, -0.031999804, -0.056834273, -155228.75, 82620.91, 0.0, 10.000912, 9.999247 
4.2505386e+2, 2.8572795e+2, -113330.82, -331844.3, -2858.069, -0.013854954, -0.05130838, -113293.445, 26568.914, 0.0000000012455732, 10.001076, 9.998172 
4.2505935e+2, 2.9572597e+2, 42395.445, -211610.31, -612.6213, 0.13069673, -0.10356447, 42396.92, 84280.055, 0.0000019825331, 10.001471, 9.998143 
4.2506206e+2, 3.0572417e+2, 121657.38, -189559.08, -30509.719, 0.012428397, -0.07189815, 124620.164, 124620.164, 0.000019679212, 10.001891, 9.997766 
4.2506522e+2, 3.1572315e+2, 330073.44, 149123.75, -4384.3486, 0.061300937, 0.005398302, 330179.63, 330179.63, 0.00007104561, 10.002206, 9.999946 
4.3498635e+2, 1.2572724e+2, -1962366.9, -1889438.6, 209589.73, -0.07941817, -0.026004951, -1713164.6, -5294.0356, 0.00011272219, 9.998451, 9.999525 
4.349952e+2, 1.3572721e+2, -1600843.5, -1649412.1, -19209.605, 0.25319257, -0.028679779, -1594164.4, 15711.709, 0.00005585788, 10.000239, 9.999644 
4.3499708e+2, 1.4572802e+2, -1366849.5, -1366246.4, -67921.58, -0.0963657, 0.033321302, -1298625.8, 213242.88, 0.000019900395, 10.000652, 10.000704 
4.3500105e+2, 1.5572931e+2, -1385968.8, -1330465.4, -31149.63, -0.11952572, 0.053272136, -1316498.3, 97354.45, 0.0000034951138, 9.999875, 10.000655 
4.3500638e+2, 1.6573e+2, -1398941.6, -1295923.6, -1363.3171, -0.03041782, 0.070243634, -1295905.6, 19938.465, 0.000000032016867, 9.999182, 10.000542 
4.3501154e+2, 1.7573012e+2, -1359203.0, -1230645.8, 25836.271, 0.005709671, -0.0060754456, -1225647.8, -7805.7905, 0.0, 9.99879, 10.000512 
4.3501544e+2, 1.8573004e+2, -1283161.0, -1236300.4, -32467.266, -0.020115389, -0.01659473, -1219691.9, -99849.69, 0.0, 9.999028, 9.999695 
4.3501893e+2, 1.9572961e+2, -1075239.9, -1088595.1, -42902.32, -0.043647937, -0.060549647, -1038498.6, -16652.209, 0.0, 9.999794, 9.999669 
4.3502304e+2, 2.057293e+2, -972828.5, -1012529.94, -56393.594, -0.0217667, -0.041274413, -932893.9, -9044.133, 0.0, 9.999938, 9.99944 
4.3502736e+2, 2.1572885e+2, -920865.56, -942335.44, -38845.26, 0.007441514, -0.063661814, -891299.2, -65444.28, 0.0, 9.999637, 9.9994 
4.3503156e+2, 2.2572853e+2, -761638.25, -806693.4, -33375.46, 0.017135931, -0.03353596, -743899.0, -16040.76, 0.0, 10.000041, 9.9994545 
4.3503562e+2, 2.3572804e+2, -532601.4, -647684.2, 2753.0876, 0.009417298, -0.060273733, -532535.56, 97327.22, 0.0, 10.000944, 9.999441 
4.3503943e+2, 2.457273e+2, -410202.94, -569726.1, 1014.8426, -0.012413345, -0.05875288, -410196.47, 121673.07, 0.0, 10.001248, 9.999154 
4.3504307e+2, 2.5572613e+2, -344020.78, -490048.7, 21336.451, -0.054219563, -0.12736098, -340967.13, 92913.02, 0.0, 10.001036, 9.999133 
4.3504724e+2, 2.6572597e+2, -270667.34, -428626.7, -7102.5547, -0.02334247, -0.036923964, -270348.63, 65533.996, 0.0, 10.000978, 9.998915 
4.350518e+2, 2.7572635e+2, -196806.33, -345869.25, -9332.179, 0.052535996, 0.074266665, -196224.36, 41657.668, 0.0, 10.000824, 9.998882 
4.350559e+2, 2.857252e+2, -110186.125, -311977.8, 1124.702, 0.050318755, 0.106129505, -110179.86, 29713.77, 0.000000012355592, 10.00103, 9.998325 
4.3506023e+2, 2.9572278e+2, 33626.074, -209073.02, 30107.693, 0.029092642, -0.008874623, 37305.266, 79221.57, 0.0000027662056, 10.001389, 9.998198 
4.3506277e+2, 3.057205e+2, 118782.32, -195060.88, -26923.828, -0.13585125, -0.020913804, 121075.3, 121075.3, 0.000024180765, 10.0018835, 9.997731 
4.3506807e+2, 3.157186e+2, 287091.28, 86106.414, -9770.465, 0.0538621, -0.028973958, 287565.16, 287565.16, 0.00008333817, 10.002095, 9.999565 
4.4498536e+2, 1.2572172e+2, -1880766.6, -1764100.1, 196675.02, -0.016189711, 0.054866675, -1617290.0, 90638.11, 0.00010688196, 9.998686, 10.000261 
4.4499585e+2, 1.3572153e+2, -1829350.8, -1686400.3, 59943.992, 0.40144768, -0.03028998, -1664591.1, -54657.816, 0.000051033883, 9.998381, 10.000293 
4.4499636e+2, 1.4572272e+2, -1635602.1, -1465736.4, 25252.271, -0.12095073, 0.027531793, -1462061.8, 49859.81, 0.000017295639, 9.998672, 10.000976 
4.4500026e+2, 1.5572475e+2, -1499490.9, -1354469.8, -35794.332, -0.12726876, 0.091203436, -1346116.1, 67783.31, 0.0000027656245, 9.998963, 10.000926 
4.4500592e+2, 1.6572568e+2, -1401916.3, -1291037.0, -7837.096, 0.017253436, 0.11407594, -1290485.8, 25402.656, 0.000000035556127, 9.999103, 10.000633 
4.450114e+2, 1.7572564e+2, -1299293.3, -1194251.4, -26621.686, 0.10816136, 0.012393398, -1187889.6, 29997.389, 0.0, 9.999153, 10.000598 
4.4501528e+2, 1.8572551e+2, -1234545.1, -1220460.6, -14840.164, 0.05285908, -0.0021227195, -1211076.6, -91188.586, 0.0, 9.999416, 9.999602 
4.4501856e+2, 1.9572501e+2, -1083777.4, -1099693.5, -12838.372, -0.05089205, -0.043766495, -1076630.6, -54736.7, 0.0, 9.99978, 9.999589 
4.4502288e+2, 2.0572476e+2, -969826.44, -975737.25, -1139.0216, -0.018555056, -0.029969746, -969614.56, -45718.13, 0.0, 9.999824, 9.99974 
4.450278e+2, 2.1572448e+2, -905110.7, -898025.25, 7953.9507, 0.09540077, -0.06265626, -892860.7, -66961.945, 0.0, 9.999598, 9.999715 
4.4503227e+2, 2.257244e+2, -764369.75, -774920.8, 68110.9, 0.099297196, -0.040955488, -701330.4, 26568.475, 0.0, 9.999879, 9.999749 
4.4503644e+2, 2.3572415e+2, -579306.75, -642356.5, 47963.438, 0.029301874, -0.07162112, -553435.5, 76464.64, 0.0, 10.000499, 9.999693 
4.4504035e+2, 2.4572362e+2, -484998.28, -587301.44, 26617.385, -0.0088308565, -0.07021398, -478487.3, 53416.785, 0.0, 10.000651, 9.999322 
4.45044e+2, 2.557227e+2, -423264.72, -510911.34, 22092.316, -0.023566697, -0.13254727, -418011.03, 15900.874, 0.0, 10.000419, 9.999285 
4.4504836e+2, 2.6572254e+2, -334206.13, -475646.8, 45863.066, 0.016244948, -0.043980073, -320636.56, 15278.624, 0.0, 10.000621, 9.998755 
4.450531e+2, 2.7572268e+2, -148975.8, -339996.16, 33373.004, 0.08791575, 0.065591425, -143313.11, 94604.85, 0.0, 10.001229, 9.998726 
4.4505748e+2, 2.8572157e+2, -33258.813, -260597.16, 73010.586, 0.09302297, 0.09791837, -11830.885, 128098.336, 0.00000003062236, 10.001482, 9.998468 
4.4506234e+2, 2.957192e+2, 30008.293, -189677.03, 67225.04, 0.11877349, -0.022130864, 48946.902, 90896.04, 0.0000032986038, 10.001287, 9.998374 
4.45065e+2, 3.0571678e+2, 37986.86, -271347.75, 53990.445, -0.07072763, -0.041548003, 47139.406, 47139.406, 0.000027227657, 10.001486, 9.99739 
4.4507036e+2, 3.1571475e+2, 276132.13, 56927.78, -50894.27, 0.08380515, -0.031200018, 287372.25, 287372.25, 0.000091368296, 10.002131, 9.999335 
4.5498574e+2, 1.2571593e+2, -1752777.6, -1501580.3, 59304.668, 0.07775352, 0.13378869, -1488283.0, 219707.61, 0.000102696926, 9.998694, 10.002057 
4.5499384e+2, 1.3571738e+2, -1698918.8, -1434531.5, 70884.91, 0.32632148, 0.027826533, -1416725.6, 193245.55, 0.000047349753, 9.998439, 10.002 
4.5499337e+2, 1.4571832e+2, -1676475.9, -1536598.6, 30182.273, -0.32949108, 0.005051901, -1530363.9, -18403.648, 0.000015080613, 9.998622, 10.000509 
4.5500034e+2, 1.5571879e+2, -1536784.9, -1424654.5, -10115.5205, -0.05720848, -0.036504276, -1423749.3, -9792.86, 0.0000021144335, 9.9989395, 10.000454 
4.5500633e+2, 1.6571939e+2, -1419384.9, -1315025.1, -23211.67, 0.112711646, -0.016896896, -1310095.3, 5855.4287, 0.00000004449902, 9.999043, 10.000496 
4.5501006e+2, 1.7572e+2, -1308616.0, -1212231.8, -9243.179, 0.023758387, -0.04108385, -1211353.4, 6590.71, 0.0, 9.999139, 10.000482 
4.5501402e+2, 1.8572068e+2, -1217574.8, -1162497.5, -14449.141, -0.045554698, 0.00729381, -1158937.0, -38999.48, 0.0, 9.999322, 10.000042 
4.5501888e+2, 1.9572106e+2, -1074466.0, -1046657.7, 10869.055, -0.027339587, 0.0077349157, -1042913.56, -20978.557, 0.0, 9.9996395, 10.000015 
4.5502353e+2, 2.0572127e+2, -956660.1, -913633.8, -24026.44, 0.03874131, 0.020522157, -902896.6, 21035.832, 0.0, 9.999668, 10.000243 
4.5502785e+2, 2.1572118e+2, -897059.8, -836576.25, 15428.827, 0.11401849, -0.04589509, -832867.9, -6936.328, 0.0, 9.999408, 10.000226 
4.5503205e+2, 2.2572127e+2, -793421.7, -799470.56, 79646.945, 0.06566758, -0.02475546, -716741.75, 11187.537, 0.0, 9.999719, 9.999663 
4.550361e+2, 2.3572122e+2, -601967.9, -657502.7, 84129.97, -0.083067976, -0.029832875, -541141.4, 88787.45, 0.0, 10.000358, 9.999659 
4.5504066e+2, 2.4572098e+2, -489944.3, -565041.0, 5480.838, -0.06718482, -0.0076448265, -489546.4, 42383.582, 0.0, 10.000519, 9.999541 
4.5504567e+2, 2.5572032e+2, -426579.94, -486641.84, 30612.443, 0.073922694, -0.06062631, -413727.56, 20207.637, 0.0, 10.000285, 9.999521 
4.5504987e+2, 2.657194e+2, -346764.16, -481857.75, 58066.113, 0.07584903, -0.05766833, -325236.6, 10707.984, 0.0, 10.000541, 9.998747 
4.550532e+2, 2.757182e+2, -167300.64, -351558.8, 72511.13, -0.053689882, -0.08814897, -142187.95, 95770.45, 0.0, 10.00112, 9.9986925 
4.5505828e+2, 2.85717e+2, -25814.297, -240062.92, 52963.05, -0.008132332, -0.067127004, -13436.714, 126531.91, 0.000000022691747, 10.001449, 9.998631 
4.5506528e+2, 2.9571527e+2, 40313.055, -164096.73, 75910.52, 0.2404853, -0.14374523, 65419.777, 107401.445, 0.0000033720132, 10.0012455, 9.998581 
4.5506817e+2, 3.057129e+2, -8991.695, -357024.1, 70348.68, 0.064975336, -0.14135721, 4690.2, 4690.2, 0.000028360193, 10.001452, 9.996808 
4.5507145e+2, 3.157111e+2, 253486.98, 32231.639, -37652.434, -0.089041494, -0.046538085, 259719.0, 259719.0, 0.00009465621, 10.002041, 9.999206 
4.6498558e+2, 1.2571031e+2, -1681880.8, -1467080.0, 95774.31, 0.1810177, 0.05276924, -1430579.1, 277466.06, 0.00009773488, 9.999139, 10.002078 
4.6499217e+2, 1.3571312e+2, -1649037.4, -1409169.6, 45224.75, 0.31375107, 0.071034886, -1400926.3, 209087.16, 0.000043477085, 9.998734, 10.002039 
4.6499166e+2, 1.4571406e+2, -1644030.5, -1515248.9, 24445.553, -0.36124632, 0.044610173, -1510764.8, 1237.6161, 0.000012657647, 9.9988165, 10.0005665 
4.650002e+2, 1.5571365e+2, -1525790.9, -1410648.4, -12352.714, 0.04782832, -0.091596544, -1409338.0, 4668.701, 0.0000014631825, 9.99898, 10.000535 
4.6500623e+2, 1.6571443e+2, -1396821.5, -1289214.5, 33752.125, 0.2043848, -0.06465108, -1279504.1, 36495.406, 0.000000030371112, 9.999154, 10.000608 
4.6500906e+2, 1.7571594e+2, -1266578.4, -1177393.5, 35171.887, 0.002474549, -0.011244511, -1165192.1, 52793.04, 0.0, 9.999378, 10.0006 
4.6501315e+2, 1.8571685e+2, -1207506.1, -1138500.1, 48471.797, -0.05353724, 0.042692233, -1113505.5, 6471.0215, 0.0, 9.999284, 10.000238 
4.6501896e+2, 1.95717e+2, -1167921.8, -1071054.3, 33809.223, 0.06311848, 0.0027423198, -1060421.1, -38445.97, 0.0, 9.998885, 10.000225 
4.6502376e+2, 2.0571746e+2, -1008904.06, -934989.5, 16001.755, 0.11978563, 0.025859645, -931674.0, -7703.367, 0.0, 9.99928, 10.000287 
4.6502757e+2, 2.1571787e+2, -769653.2, -775786.06, -12104.094, 0.10854919, 0.007535549, -760233.1, 65733.055, 0.0, 10.000273, 10.000234 
4.6503195e+2, 2.2571804e+2, -674485.56, -722846.56, 63136.36, 0.05476121, 0.027107373, -631057.7, 96905.34, 0.0, 10.000464, 9.999818 
4.6503678e+2, 2.3571777e+2, -634692.5, -658252.4, 55668.11, -0.030172149, -0.0135679385, -589571.56, 40391.58, 0.0, 10.00008, 9.99978 
4.6504164e+2, 2.4571751e+2, -559664.1, -609227.1, -6221.3057, 0.008986923, 0.004866166, -558895.1, -26930.563, 0.0, 10.000074, 9.999448 
4.6504667e+2, 2.55717e+2, -424698.28, -496407.16, -29834.113, 0.14788528, -0.026839603, -413909.22, 20060.283, 0.0, 10.000337, 9.999424 
4.650511e+2, 2.657159e+2, -308031.88, -466709.63, 30548.031, 0.13984159, -0.03861663, -302354.06, 33626.613, 0.0, 10.000801, 9.998738 
4.6505493e+2, 2.757142e+2, -137588.61, -339531.28, 20848.488, 0.003734505, -0.11462212, -135458.69, 102539.31, 0.0, 10.001322, 9.998689 
4.6506e+2, 2.8571314e+2, -7007.054, -241276.28, 4932.9214, 0.016465308, -0.076814406, -6903.2295, 133104.16, 0.00000001636591, 10.001629, 9.998531 
4.6506664e+2, 2.9571196e+2, 132272.05, -113312.49, -33479.418, 0.23138703, -0.08864507, 136754.33, 178770.28, 0.0000038591365, 10.0018635, 9.998621 
4.6507037e+2, 3.0570912e+2, 117864.91, -295719.56, 27136.36, 0.110978626, -0.14053944, 119637.8, 119637.8, 0.000029778155, 10.002282, 9.996865 
4.6507406e+2, 3.1570795e+2, 333431.22, 54010.457, -111980.64, -0.045262907, 0.02187154, 372770.16, 372770.16, 0.00009717631, 10.002643, 9.999088 
4.7498366e+2, 1.2570474e+2, -1816651.9, -1707413.5, -87776.97, 0.00004453215, -0.18979503, -1658649.6, 49443.71, 0.00009217974, 9.99901, 10.000473 
4.7499046e+2, 1.3570869e+2, -1753450.4, -1618457.1, 53762.844, 0.22926375, 0.10466472, -1599662.1, 10398.034, 0.00003847725, 9.99873, 10.00059 
4.749908e+2, 1.4570998e+2, -1603249.4, -1427558.9, 16404.342, -0.3773458, 0.1476193, -1426040.4, 86007.516, 0.000009911169, 9.998789, 10.001188 
4.749995e+2, 1.5570931e+2, -1475970.4, -1315623.8, 7644.2847, 0.03800426, -0.080652066, -1315260.1, 98790.46, 0.0000009593812, 9.9990015, 10.0011835 
4.7500533e+2, 1.657107e+2, -1382491.1, -1245067.1, 28403.791, 0.1656382, -0.0397522, -1239427.8, 76608.12, 0.000000014696447, 9.999095, 10.000944 
4.7500795e+2, 1.7571336e+2, -1253890.1, -1138450.0, 57555.0, -0.07430999, 0.1005627, -1114658.3, 103352.97, 0.0, 9.999326, 10.000896 
4.7501224e+2, 1.85714e+2, -1216310.0, -1135832.5, 20952.102, -0.104429856, 0.11140747, -1130704.5, -10699.829, 0.0, 9.99919, 10.000304 
4.7501838e+2, 1.9571288e+2, -1178408.3, -1075162.5, 37671.26, 0.08603382, -0.061380316, -1062878.8, -40864.62, 0.0, 9.998802, 10.000243 
4.7502306e+2, 2.057133e+2, -1061741.3, -1010581.56, 40935.918, 0.09727033, -0.016327873, -987890.5, -63879.117, 0.0, 9.999141, 9.99983 
4.750265e+2, 2.1571465e+2, -824065.5, -843818.8, 36303.227, -0.051921554, 0.10134372, -796319.4, 29682.52, 0.0, 10.000088, 9.99985 
4.7503158e+2, 2.2571473e+2, -669279.8, -684154.6, 36071.45, -0.057017256, 0.1113012, -639887.0, 88112.65, 0.0, 10.00033, 10.000157 
4.75038e+2, 2.3571366e+2, -635184.94, -627051.44, 57300.273, 0.055383176, -0.042336795, -573673.8, 56330.93, 0.0, 9.999934, 10.00007 
4.7504282e+2, 2.4571308e+2, -605105.8, -679944.4, -7468.394, 0.08910901, -0.04564791, -604367.75, -72358.586, 0.0, 9.999968, 9.999016 
4.7504652e+2, 2.5571263e+2, -471247.63, -570552.0, -3847.675, 0.064045675, -0.031364627, -471098.75, -37082.902, 0.0, 10.000226, 9.998973 
4.7505167e+2, 2.657119e+2, -316796.8, -461008.16, 37343.484, 0.086313635, 0.014017573, -307700.5, 28323.555, 0.0, 10.00071, 9.9988165 
4.7505772e+2, 2.757107e+2, -148186.1, -335254.38, 55578.63, 0.11774928, -0.019798962, -132919.4, 105117.09, 0.0, 10.00122, 9.998762 
4.7506216e+2, 2.857098e+2, -41531.05, -310465.78, -824.671, 0.038698703, 0.055972174, -41528.523, 98517.49, 0.0000000367379, 10.001607, 9.998072 
4.75066e+2, 2.9570895e+2, 93167.86, -179162.52, -8555.499, -0.058300678, 0.117436476, 93436.375, 135491.34, 0.000004901276, 10.001775, 9.998222 
4.7507122e+2, 3.0570522e+2, 158161.0, -188265.39, 27451.193, -0.05648044, -0.046365894, 160322.78, 160322.78, 0.000032907166, 10.002196, 9.997635 
4.7507724e+2, 3.157051e+2, 319874.66, 43990.95, -75965.914, -0.062554196, 0.15432101, 339409.06, 339409.06, 0.00010232853, 10.002578, 9.999041 
4.8498145e+2, 1.2570179e+2, -2038831.6, -1856912.3, -188141.36, -0.036967333, -0.09682654, -1738896.3, -30770.938, 0.00008688649, 9.997663, 10.000114 
4.8499006e+2, 1.3570444e+2, -1652477.8, -1620102.9, 89340.34, 0.2880327, 0.11936756, -1545495.3, 64610.266, 0.000032757685, 9.999628, 10.000167 
4.8499167e+2, 1.4570563e+2, -1468675.0, -1352994.1, 54215.805, -0.20209056, 0.1692749, -1331557.4, 180536.77, 0.000007215262, 9.999677, 10.0012665 
4.8499775e+2, 1.557056e+2, -1567427.1, -1354939.6, -33208.703, 0.0064088185, -0.0032820473, -1349870.5, 64219.492, 0.00000059770906, 9.998352, 10.0012245 
4.8500332e+2, 1.6570692e+2, -1518643.3, -1315442.9, 22032.691, 0.10986493, 0.030705357, -1313081.4, 2994.249, 0.0000000048834687, 9.998189, 10.000894 
4.8500788e+2, 1.7570901e+2, -1312905.4, -1167016.0, -2648.6553, 0.011616481, 0.117319494, -1166968.0, 51088.37, 0.0, 9.998939, 10.0008745 
4.8501238e+2, 1.8570966e+2, -1198058.5, -1105922.1, -44220.816, -0.0008265207, 0.11835882, -1088133.0, 31916.443, 0.0, 9.99924, 10.000473 
4.8501742e+2, 1.9570898e+2, -1114102.9, -1019219.94, -41879.707, 0.10171601, -0.032629, -1003379.44, 18674.65, 0.0, 9.999159, 10.000437 
4.8502198e+2, 2.0570947e+2, -1049095.3, -999650.44, 40118.242, 0.07772873, 0.008090528, -977248.9, -53198.945, 0.0, 9.999195, 9.999897 
4.8502612e+2, 2.1571057e+2, -949966.6, -894584.1, 53527.31, -0.043091465, 0.09774423, -862009.5, -35967.652, 0.0, 9.999177, 9.999949 
4.8503193e+2, 2.2571059e+2, -760015.8, -731385.2, 71723.85, -0.017547918, 0.09788079, -672562.0, 55478.285, 0.0, 9.999725, 10.000124 
4.850389e+2, 2.357095e+2, -526318.7, -584365.44, 36768.344, 0.122473754, -0.051405784, -508499.03, 121547.336, 0.0, 10.00071, 9.999994 
4.850438e+2, 2.4570897e+2, -420331.06, -610812.1, -2107.763, 0.129434, -0.03797925, -420307.75, 111743.71, 0.0, 10.001323, 9.998839 
4.850471e+2, 2.5570866e+2, -283699.1, -496231.88, -10897.5205, 0.04026679, 0.0150253475, -283141.78, 150915.53, 0.0, 10.0016, 9.998817 
4.8505247e+2, 2.65708e+2, -213184.98, -425257.66, 51290.29, 0.06508516, 0.07695261, -201431.69, 134634.02, 0.0, 10.001474, 9.998694 
4.8505926e+2, 2.757066e+2, -182099.84, -366129.6, 25802.012, 0.1681795, 0.03417147, -178550.7, 59529.598, 0.0, 10.001037, 9.998645 
4.8506382e+2, 2.8570557e+2, -131940.17, -361715.3, 17310.11, 0.078085415, 0.10549491, -130643.43, 9447.994, 0.00000008825205, 10.001011, 9.998007 
4.8506707e+2, 2.9570493e+2, 15537.877, -224834.16, 3635.2505, -0.09311489, 0.19797865, 15592.842, 57691.47, 0.0000056092463, 10.001274, 9.998147 
4.8507342e+2, 3.0570132e+2, 117316.47, -173711.02, 79044.34, -0.02072472, 0.033733252, 137399.4, 137399.4, 0.000035389916, 10.001766, 9.9979315 
4.8508066e+2, 3.1570086e+2, 262200.16, -34353.945, -106718.28, 0.045091793, 0.17237705, 296611.03, 296611.03, 0.00010599746, 10.002392, 9.998588 
4.9497747e+2, 1.2570134e+2, -1969953.9, -1726082.5, -256503.52, -0.2803843, 0.3355821, -1564007.0, 144135.23, 0.00007926606, 9.997713, 10.000988 
4.9499047e+2, 1.357003e+2, -1602880.8, -1523450.5, 166904.61, 0.33631593, 0.10531572, -1391600.9, 218549.1, 0.000026309035, 9.99965, 10.000819 
4.949939e+2, 1.45701e+2, -1519262.6, -1440662.4, -11502.975, 0.014270929, 0.10576403, -1439013.5, 73127.836, 0.0000047383246, 9.999605, 10.000698 
4.9499455e+2, 1.557026e+2, -1611192.1, -1438747.1, -63243.613, -0.18584767, 0.15352851, -1418039.4, -3915.3213, 0.0000002991547, 9.998326, 10.000661 
4.9499977e+2, 1.657032e+2, -1550113.1, -1371741.5, 35161.832, -0.099676974, 0.1608411, -1365060.4, -48942.816, 0.0000000005507737, 9.998143, 10.000531 
4.9500838e+2, 1.7570284e+2, -1341022.5, -1215758.6, 35120.215, 0.13754892, 0.037578046, -1206584.0, 11537.389, 0.0, 9.998893, 10.000564 
4.9501333e+2, 1.857037e+2, -1191688.6, -1068245.1, -60144.234, 0.1377189, 0.058994178, -1043787.4, 76324.69, 0.0, 9.99914, 10.000777 
4.9501565e+2, 1.9570519e+2, -1105558.6, -979207.2, -33691.457, -0.022043215, 0.095831096, -970784.8, 51310.844, 0.0, 9.99906, 10.00076 
4.9502006e+2, 2.0570588e+2, -1019069.2, -907488.56, 24031.213, -0.055575598, 0.103923105, -902533.0, 21553.506, 0.0, 9.999058, 10.0006 
4.9502602e+2, 2.1570575e+2, -926920.94, -819989.75, 69851.38, 0.0024717138, -0.001148485, -785490.7, 40594.58, 0.0, 9.999048, 10.000531 
4.950324e+2, 2.2570558e+2, -818289.44, -813824.8, 98200.695, 0.034248795, -0.01757574, -717831.06, 10254.51, 0.0, 9.999569, 9.999627 
4.950391e+2, 2.3570521e+2, -581606.9, -658909.9, 89032.875, 0.041428268, -0.050077837, -523197.6, 106891.48, 0.0, 10.00054, 9.999561 
4.9504414e+2, 2.4570517e+2, -434846.94, -610045.5, -4153.484, 0.0031669592, 0.029458571, -434748.53, 97342.65, 0.0, 10.001197, 9.998903 
4.9504796e+2, 2.5570506e+2, -295938.2, -498393.4, 13119.433, -0.06666279, 0.09593165, -295091.6, 139003.84, 0.0, 10.001497, 9.998853 
4.950531e+2, 2.6570398e+2, -249601.08, -477650.63, 19786.92, -0.049157348, 0.13194421, -247896.98, 88210.99, 0.0, 10.001384, 9.998373 
4.950591e+2, 2.7570185e+2, -223288.4, -417387.22, 26760.338, 0.017743424, 0.047193225, -219666.55, 18463.113, 0.0, 10.000899, 9.998352 
4.9506435e+2, 2.8570065e+2, -115673.336, -314002.94, 16454.658, -0.00068285817, 0.095920324, -114317.42, 25823.838, 0.00000018947561, 10.000955, 9.998361 
4.9506938e+2, 2.957e+2, 27824.596, -188045.55, 32501.752, -0.03126268, 0.15875201, 32611.941, 74758.266, 0.000005650319, 10.001229, 9.998419 
4.9507666e+2, 3.0569744e+2, 108177.58, -193184.98, 95542.17, 0.095433295, 0.09520956, 135914.78, 135914.78, 0.00003451672, 10.001761, 9.997801 
4.950832e+2, 3.156955e+2, 190435.88, -163476.06, -27427.785, -0.011893619, 0.08695715, 192548.88, 192548.88, 0.00010176044, 10.002302, 9.99774 
5.049771e+2, 1.2569813e+2, -1768886.1, -1607970.4, -141900.98, -0.14530303, 0.37242374, -1525304.5, 182870.38, 0.000066640154, 9.999029, 10.001145 
5.049883e+2, 1.3569652e+2, -1772900.1, -1611359.3, 201898.7, 0.2314481, 0.08281446, -1474674.0, 135511.94, 0.0000195532, 9.998508, 10.000764 
5.049943e+2, 1.4569691e+2, -1713913.1, -1572085.6, 9610.226, 0.15815915, 0.07781449, -1571437.4, -59256.984, 0.0000028130235, 9.998447, 10.000347 
5.0499403e+2, 1.556986e+2, -1515473.9, -1423277.5, -59140.39, -0.09742007, 0.16837443, -1394391.5, 19773.203, 0.00000011765629, 9.999136, 10.000368 
5.049987e+2, 1.6569905e+2, -1385626.8, -1291511.9, 111292.47, -0.06787158, 0.17270769, -1217737.1, 98422.51, 0.000000000026416515, 9.999256, 10.00055 
5.050073e+2, 1.756983e+2, -1343680.9, -1217025.3, 113060.25, 0.1538662, 0.009585323, -1150765.1, 67400.4, 0.0, 9.998859, 10.000577 
5.050124e+2, 1.856991e+2, -1210468.6, -1085029.3, 46341.59, 0.14447948, 0.03028533, -1069766.3, 50390.004, 0.0, 9.99904, 10.000716 
5.0501484e+2, 1.957009e+2, -1027033.9, -947327.7, 22029.844, -0.027322091, 0.10475195, -941644.1, 80493.53, 0.0, 9.999628, 10.000707 
5.0501984e+2, 2.0570144e+2, -865184.94, -826131.5, 57785.516, -0.02765661, 0.09835443, -784662.7, 139466.81, 0.0, 10.00011, 10.000629 
5.0502676e+2, 2.157008e+2, -729591.4, -719883.8, 19765.186, 0.10761191, -0.059538826, -704385.1, 121746.49, 0.0, 10.000408, 10.000545 
5.05033e+2, 2.2570083e+2, -695244.56, -761905.4, 81786.22, 0.10169062, -0.055328593, -640257.94, 87872.59, 0.0, 10.000434, 9.9995775 
5.0503886e+2, 2.3570117e+2, -644216.56, -688900.25, 77040.27, -0.005695208, -0.011460602, -586343.94, 43784.44, 0.0, 10.000127, 9.999548 
5.0504434e+2, 2.4570103e+2, -560090.9, -683375.75, 25931.703, -0.04480328, 0.06440273, -554858.5, -22726.541, 0.0, 10.000385, 9.998793 
5.0504965e+2, 2.557002e+2, -357498.66, -538272.06, 3304.8027, -0.018565595, 0.0681102, -357438.25, 76704.89, 0.0, 10.001117, 9.998764 
5.0505495e+2, 2.656991e+2, -217783.22, -455379.3, 29111.178, -0.0013325246, 0.10395607, -214268.4, 121887.08, 0.0, 10.001564, 9.998449 
5.050601e+2, 2.7569756e+2, -102515.59, -353128.75, 31057.152, -0.001296186, 0.07315447, -98724.2, 139446.8, 0.00000000061010413, 10.001695, 9.998416 
5.050656e+2, 2.8569615e+2, -2796.659, -259034.73, 59361.313, 0.0006168193, 0.09297737, 10287.183, 150471.8, 0.00000027597625, 10.001731, 9.998367 
5.050716e+2, 2.956946e+2, 91813.92, -159653.4, 14391.907, 0.048383582, 0.06448251, 92634.914, 134832.98, 0.0000049916057, 10.001684, 9.998402 
5.050794e+2, 3.0569288e+2, 80030.49, -182035.53, 111929.67, 0.21601197, 0.07839294, 121328.27, 121328.27, 0.000030276777, 10.001458, 9.998029 
5.0508505e+2, 3.1569093e+2, 5257.465, -203285.53, -20931.05, 0.025806358, 0.045052387, 7337.526, 7337.526, 0.000090633286, 10.000814, 9.998187 
5.149791e+2, 1.2569231e+2, -1808986.0, -1703585.8, -194772.97, 0.07839246, 0.023592347, -1554509.3, 153712.48, 0.000052165007, 9.999066, 10.000476 
5.149833e+2, 1.3569316e+2, -1821537.8, -1723814.5, 196853.11, -0.16113198, 0.053265173, -1569849.6, 40362.887, 0.000013925394, 9.99855, 9.999974 
5.1499236e+2, 1.4569342e+2, -1728027.1, -1597972.9, 15877.297, 0.07656175, 0.08472856, -1596062.6, -83851.83, 0.000001645238, 9.998428, 10.000184 
5.1499593e+2, 1.5569352e+2, -1528307.3, -1442723.3, -19619.158, 0.14132628, 0.032264378, -1438440.3, -24227.832, 0.00000003629146, 9.999103, 10.000255 
5.149997e+2, 1.656944e+2, -1371021.4, -1239188.0, 85133.086, 0.07654176, 0.061677814, -1197435.5, 118767.14, 0.0, 9.999166, 10.000947 
5.150043e+2, 1.7569548e+2, -1329576.0, -1173699.6, 115097.26, -0.076816104, 0.040490057, -1112635.3, 105553.04, 0.0, 9.998807, 10.000894 
5.1500916e+2, 1.8569613e+2, -1248656.4, -1146284.9, 55263.1, -0.113046795, 0.048400328, -1122144.8, -1964.566, 0.0, 9.99896, 10.00033 
5.150146e+2, 1.9569615e+2, -1064136.9, -1012950.25, 58581.105, -0.054128487, -0.01559309, -974615.75, 47563.676, 0.0, 9.999567, 10.000287 
5.150208e+2, 2.0569603e+2, -945596.2, -955569.56, 55644.945, 0.034679394, -0.026392855, -894714.94, 29464.834, 0.0, 9.999948, 9.999819 
5.150278e+2, 2.1569559e+2, -799086.0, -830706.3, 42110.176, 0.14597708, -0.08895298, -769915.9, 56266.984, 0.0, 10.0002575, 9.999857 
5.1503336e+2, 2.2569613e+2, -683827.5, -709069.4, 54184.313, 0.07031282, -0.023163259, -640813.7, 87363.07, 0.0, 10.000301, 10.000009 
5.150377e+2, 2.3569724e+2, -637358.3, -645277.44, 81633.336, -0.16043963, 0.054142475, -559588.56, 70577.09, 0.0, 9.999995, 9.999916 
5.15044e+2, 2.4569647e+2, -588153.06, -720510.6, 39937.56, -0.15329812, 0.06314217, -577036.06, -44861.63, 0.0, 10.000296, 9.99858 
5.1505166e+2, 2.5569406e+2, -387369.1, -571105.06, 45244.504, 0.035569586, -0.07245186, -376832.03, 57368.625, 0.0, 10.000984, 9.998604 
5.1505756e+2, 2.6569343e+2, -201075.27, -398948.25, 20650.92, 0.07214731, -0.0069331885, -198943.03, 137265.13, 0.0, 10.001474, 9.998882 
5.15062e+2, 2.7569368e+2, -87545.336, -304734.0, 55422.977, -0.018381894, 0.10528766, -74219.875, 163985.47, 0.0000000018853024, 10.001611, 9.998796 
5.1506716e+2, 2.8569192e+2, -36222.47, -317906.3, 43716.43, -0.051774226, 0.0968313, -29593.807, 110628.48, 0.00000034894228, 10.001692, 9.997977 
5.15073e+2, 2.9568848e+2, 53155.613, -220902.36, 31398.416, -0.021602688, -0.090020545, 56706.867, 98962.17, 0.000004315403, 10.001597, 9.998021 
5.150809e+2, 3.0568746e+2, 116208.414, -91510.86, 81067.85, 0.19594431, -0.021109797, 144101.66, 144101.66, 0.000026122347, 10.001412, 9.998671 
5.1508534e+2, 3.1568673e+2, 104495.33, 32446.943, 23772.041, -0.09658773, 0.0043859943, 111631.91, 111631.91, 0.000081293096, 10.000706, 9.999857 
5.249795e+2, 1.25688e+2, -1854128.4, -1734219.8, -186068.19, 0.23493232, -0.07010665, -1598685.1, 109575.02, 0.000041919076, 9.998794, 10.000391 
5.2498025e+2, 1.3568932e+2, -1777674.5, -1716873.0, 129661.32, -0.32753283, 0.019635739, -1614096.1, -3849.0552, 0.000010470756, 9.99892, 9.999835 
5.249916e+2, 1.456894e+2, -1692806.8, -1597772.3, 37438.063, 0.14976293, 0.047166985, -1584795.6, -72547.63, 0.0000009776196, 9.998742, 10.000033 
5.2499574e+2, 1.556894e+2, -1564814.8, -1473635.0, -28114.818, 0.23153132, -0.0025832476, -1465663.0, -51411.926, 0.000000005050013, 9.998907, 10.000132 
5.249992e+2, 1.656903e+2, -1385717.9, -1260300.8, 67938.266, 0.12205999, 0.042337906, -1230554.0, 85687.39, 0.0, 9.999122, 10.000832 
5.2500314e+2, 1.7569152e+2, -1260292.0, -1156808.1, 30154.236, -0.09083424, 0.047042817, -1148662.6, 69563.38, 0.0, 9.999338, 10.000764 
5.250084e+2, 1.8569191e+2, -1175598.5, -1149186.9, -2067.8623, -0.11577131, 0.05689021, -1149025.9, -28804.834, 0.0, 9.999627, 9.999999 
5.250147e+2, 1.9569147e+2, -1049864.5, -1039905.25, -26838.178, -0.0047762035, -0.016420811, -1017588.6, 4637.6724, 0.0, 9.999837, 9.999973 
5.2502114e+2, 2.0569117e+2, -950754.8, -1000907.3, 15198.766, 0.07224895, -0.008979875, -946508.4, -22279.154, 0.0, 10.00008, 9.99945 
5.250278e+2, 2.1569073e+2, -821036.3, -885720.0, 8729.759, 0.12741244, -0.03268963, -819878.8, 6354.1885, 0.0, 10.000282, 9.999475 
5.2503353e+2, 2.2569098e+2, -684004.44, -721866.5, 20173.057, 0.05863214, 0.026015714, -675270.75, 52959.31, 0.0, 10.000376, 9.999869 
5.2503836e+2, 2.3569143e+2, -584523.9, -634662.5, -23475.086, -0.10669722, 0.05414202, -575248.6, 54976.242, 0.0, 10.000423, 9.99978 
5.2504474e+2, 2.4569069e+2, -544867.1, -657112.44, -19848.707, -0.100917354, 0.052267224, -541460.6, -9228.55, 0.0, 10.00041, 9.998964 
5.2505225e+2, 2.556889e+2, -460078.9, -565557.06, 1321.0581, 0.041501377, -0.0578514, -460062.34, -25812.086, 0.0, 10.000319, 9.998962 
5.250584e+2, 2.656882e+2, -349773.75, -476255.47, 3681.0095, 0.072031826, -0.011289164, -349666.7, -13409.17, 0.0, 10.000481, 9.99882 
5.250636e+2, 2.7568802e+2, -204168.83, -356579.34, -28306.193, 0.029118521, 0.05501906, -199081.52, 39178.05, 0.00000000009174081, 10.000822, 9.998797 
5.25069e+2, 2.8568646e+2, -110568.336, -343156.66, -7413.2305, -0.0050215223, 0.060937118, -110332.3, 29942.479, 0.00000033351301, 10.001135, 9.99807 
5.2507436e+2, 2.9568368e+2, 26919.049, -222149.69, -17821.557, -0.02326891, -0.068463735, 28187.77, 70489.445, 0.0000041082662, 10.0013685, 9.998117 
5.250824e+2, 3.0568245e+2, 104263.016, -103314.05, 31092.365, 0.21954753, -0.023178829, 108820.2, 108820.2, 0.000024723933, 10.001346, 9.998632 
5.2508605e+2, 3.1568187e+2, 126249.34, 94838.72, -119706.93, -0.071691886, 0.028083023, 231276.81, 231276.81, 0.00007789345, 10.000631, 10.000328 
5.349774e+2, 1.2568511e+2, -1803947.4, -1642063.4, -117664.39, 0.057393882, 0.07994421, -1580189.0, 128102.15, 0.000035694404, 9.998854, 10.000991 
5.3497875e+2, 1.3568509e+2, -1751158.8, -1654187.3, 134937.47, -0.3975383, -0.010181575, -1559289.0, 51000.234, 0.000008273398, 9.998891, 10.000284 
5.349914e+2, 1.4568493e+2, -1708705.6, -1618771.4, 26140.7, 0.21890768, -0.020912953, -1611725.3, -99433.89, 0.00000061502607, 9.998688, 9.999911 
5.3499305e+2, 1.556863e+2, -1580474.5, -1503197.8, -7161.6226, 0.036197856, 0.075508446, -1502539.6, -88259.516, 0.00000000036285042, 9.998889, 9.999936 
5.349968e+2, 1.6568679e+2, -1439524.9, -1359499.9, 59210.03, -0.05767153, 0.120676324, -1328050.3, -11774.233, 0.0, 9.99907, 10.000176 
5.3500354e+2, 1.7568628e+2, -1310738.0, -1253485.9, 52507.83, -0.010833173, 0.022583745, -1222307.9, -4028.0474, 0.0, 9.999302, 10.000122 
5.350095e+2, 1.8568641e+2, -1210808.1, -1203411.3, -6853.186, 0.008111189, 0.05411448, -1199322.3, -79042.69, 0.0, 9.999546, 9.999663 
5.3501475e+2, 1.9568676e+2, -1086469.0, -1098112.1, -4269.96, -0.0083621275, 0.09048753, -1085071.0, -62791.96, 0.0, 9.99975, 9.999619 
5.3502035e+2, 2.0568682e+2, -966048.44, -992000.75, 10108.873, -0.04372642, 0.14441177, -962575.56, -38297.215, 0.0, 9.999914, 9.999585 
5.350263e+2, 2.1568647e+2, -840100.9, -886838.75, 28381.523, -0.077005535, 0.11654668, -826705.44, -425.4428, 0.0, 10.000118, 9.999542 
5.350331e+2, 2.2568549e+2, -763267.0, -853369.2, 8925.692, -0.049352955, 0.093928985, -762391.3, -34102.305, 0.0, 10.000229, 9.99904 
5.350403e+2, 2.3568381e+2, -655741.4, -742843.7, -7043.514, 0.019202432, -0.013365066, -655175.5, -24870.01, 0.0, 10.000254, 9.999116 
5.350464e+2, 2.4568366e+2, -496572.2, -529764.94, -35436.473, -0.009183611, 0.024430921, -474038.22, 58267.027, 0.0, 10.000299, 9.99989 
5.350512e+2, 2.5568447e+2, -418221.47, -454451.5, 14920.117, -0.12864864, 0.08274815, -412868.16, 21426.334, 0.0, 10.0002165, 9.999774 
5.350573e+2, 2.6568335e+2, -392794.1, -550591.0, 2059.95, -0.11965435, 0.07796829, -392767.22, -56462.47, 0.0, 10.000416, 9.998342 
5.3506434e+2, 2.7568045e+2, -245896.89, -425024.7, 649.66833, -0.010492591, -0.08122661, -245894.53, -7560.045, 0.0, 10.000732, 9.998379 
5.350705e+2, 2.8567955e+2, -71325.48, -253237.14, -9937.799, 0.00033332524, -0.026085073, -70784.19, 69559.766, 0.00000019037492, 10.001103, 9.998699 
5.350754e+2, 2.9568e+2, 51693.113, -153044.19, 11911.917, -0.09645635, 0.109736115, 52383.836, 94723.01, 0.0000040138116, 10.001289, 9.998634 
5.3508335e+2, 3.0567768e+2, 44750.863, -225094.81, -1132.29, 0.15311569, 0.06646173, 44755.617, 44755.617, 0.000024880646, 10.001333, 9.997797 
5.350861e+2, 3.1567615e+2, 76414.67, -18764.395, -71707.86, -0.20648332, 0.102345206, 114887.8, 114887.8, 0.00007745561, 10.000656, 9.999539 
5.449773e+2, 1.2568077e+2, -1631418.9, -1625823.4, 35712.695, 0.10443475, 0.05643263, -1592799.0, 115533.44, 0.00003031358, 10.000311, 10.0004425 
5.4497784e+2, 1.3568114e+2, -1795080.6, -1706854.4, 29524.03, -0.3533405, 0.049001403, -1697886.0, -87555.516, 0.000006366235, 9.998734, 10.000006 
5.449907e+2, 1.4568087e+2, -1746190.5, -1598114.1, 11401.821, 0.31545037, 0.024170944, -1597241.3, -84907.99, 0.00000037085837, 9.99826, 10.000269 
5.4499185e+2, 1.5568209e+2, -1475174.5, -1416837.6, -16714.945, 0.0066484264, 0.067242816, -1412387.8, 1932.6191, 0.00000000007720086, 9.9994545, 10.000262 
5.449958e+2, 1.6568229e+2, -1381016.1, -1397051.4, 74130.484, -0.09827421, 0.101804174, -1314471.0, 1848.2267, 0.0, 9.9997835, 9.99956 
5.4500324e+2, 1.7568146e+2, -1353559.8, -1334884.5, 38505.426, 0.03812201, 0.034778967, -1304600.6, -86271.586, 0.0, 9.999304, 9.999549 
5.4500955e+2, 1.8568148e+2, -1267577.0, -1241614.0, 29759.139, 0.08407122, 0.085225776, -1222128.1, -101797.06, 0.0, 9.999183, 9.999586 
5.450148e+2, 1.9568191e+2, -1146524.1, -1131117.1, 27081.697, 0.04629465, 0.13679683, -1110664.6, -88335.48, 0.0, 9.999341, 9.999591 
5.450203e+2, 2.0568196e+2, -991675.06, -999204.06, 82671.03, -0.024087925, 0.18553598, -912682.9, 11645.175, 0.0, 9.999717, 9.9996395 
5.450262e+2, 2.1568142e+2, -838566.2, -876607.75, 69550.055, -0.09711846, 0.1332659, -785482.9, 40847.594, 0.0, 10.000106, 9.999616 
5.4503334e+2, 2.2568016e+2, -756127.75, -874882.0, 89960.74, -0.049335726, 0.09343503, -707715.4, 20626.166, 0.0, 10.000374, 9.998826 
5.450414e+2, 2.3567814e+2, -630477.9, -759008.06, 87383.195, 0.08751499, -0.02480201, -586272.56, 44089.234, 0.0, 10.00054, 9.998877 
5.4504734e+2, 2.456779e+2, -456011.1, -515268.9, 59447.89, 0.056229383, 0.018112719, -419217.7, 113144.49, 0.0, 10.000599, 9.9998455 
5.450517e+2, 2.5567883e+2, -366936.13, -435682.34, 6936.2407, -0.109928384, 0.09181283, -366243.28, 68106.4, 0.0, 10.000593, 9.999724 
5.450579e+2, 2.656776e+2, -326874.03, -516786.38, 30861.934, -0.115506776, 0.07985625, -321984.66, 14375.728, 0.0, 10.000869, 9.998352 
5.4506564e+2, 2.7567446e+2, -145479.08, -375421.47, 35498.03, 0.019489318, -0.108011104, -140123.7, 98268.625, 0.0, 10.001421, 9.998388 
5.450719e+2, 2.8567362e+2, 12177.986, -239000.72, 25106.117, 0.008966419, -0.031486128, 14662.841, 155064.56, 0.00000011177434, 10.001799, 9.998466 
5.450767e+2, 2.9567456e+2, 144848.1, -124887.84, -45812.938, -0.1245833, 0.17569436, 152416.77, 194810.61, 0.0000045059896, 10.002033, 9.998458 
5.450851e+2, 3.056716e+2, 130388.75, -178423.44, -47424.9, 0.16986538, 0.07316622, 137507.77, 137507.77, 0.000026381855, 10.001895, 9.99784 
5.450878e+2, 3.1566972e+2, 84116.875, -46007.082, -73465.016, -0.097477295, 0.064389005, 117188.32, 117188.32, 0.00007890932, 10.000859, 9.999235 
5.5497855e+2, 1.2567526e+2, -1736874.9, -1840798.9, 73097.02, 0.13927397, -0.10126372, -1699152.8, 9229.05, 0.000026661766, 10.000303, 9.998963 
5.549772e+2, 1.356775e+2, -1873259.3, -1870534.4, -24900.82, -0.32747024, 0.20521937, -1846958.8, -236587.81, 0.0000052899522, 9.9987335, 9.99889 
5.549893e+2, 1.4567715e+2, -1688463.9, -1463023.9, 35408.906, 0.30448076, 0.17203696, -1457593.3, 54781.824, 0.00000021782215, 9.998209, 10.001215 
5.549917e+2, 1.5567671e+2, -1422648.3, -1301603.1, 43436.59, 0.0159654, -0.036887508, -1287629.3, 126742.5, 0.00000000000011946363, 9.999429, 10.00107 
5.549955e+2, 1.6567685e+2, -1428196.8, -1489877.5, 42494.82, -0.13464174, -0.012560783, -1406530.6, -90160.33, 0.0, 9.999759, 9.998936 
5.550018e+2, 1.7567699e+2, -1401505.6, -1424472.1, 34425.637, -0.071945824, 0.07921458, -1376698.5, -158324.22, 0.0, 9.999257, 9.9989605 
5.550081e+2, 1.856771e+2, -1261955.6, -1207061.4, 22120.693, -0.0043381993, 0.1499877, -1199257.0, -78881.23, 0.0, 9.999084, 9.999872 
5.5501425e+2, 1.9567694e+2, -1141776.9, -1103584.8, 48407.613, 0.03431041, 0.11854821, -1070642.8, -48265.69, 0.0, 9.999255, 9.99983 
5.5502045e+2, 2.056765e+2, -1011116.56, -1003350.7, 84895.99, 0.0016759794, 0.10564392, -922248.9, 2130.134, 0.0, 9.999571, 9.999676 
5.550268e+2, 2.1567552e+2, -860243.9, -882783.3, 98285.07, -0.06873424, 0.008159742, -772584.5, 53799.688, 0.0, 9.999937, 9.999654 
5.5503374e+2, 2.256749e+2, -759641.75, -841370.25, 82927.04, -0.067655325, 0.0115253255, -708057.2, 20331.5, 0.0, 10.000201, 9.999141 
5.55041e+2, 2.3567435e+2, -641905.2, -736912.7, 107488.56, -0.026411444, 0.010539832, -571891.3, 58503.19, 0.0, 10.000348, 9.999118 
5.550475e+2, 2.4567345e+2, -545923.6, -676216.9, 46873.508, -0.02051589, 0.031109698, -530813.1, 1589.644, 0.0, 10.000479, 9.998807 
5.5505323e+2, 2.55672e+2, -447957.6, -576812.94, 24098.13, -0.047670018, -0.027683975, -443598.3, -9182.706, 0.0, 10.00047, 9.998819 
5.550598e+2, 2.6567096e+2, -302901.28, -449845.28, 37871.406, -0.04220678, -0.010539911, -293715.06, 42709.65, 0.0, 10.000799, 9.998842 
5.55067e+2, 2.7566984e+2, -136237.52, -334742.88, 69772.59, -0.013971785, -0.037606947, -114167.04, 124267.82, 0.0, 10.001327, 9.998715 
5.550731e+2, 2.8566855e+2, -69936.12, -398964.3, 18509.48, -0.08972592, 0.03953077, -68898.14, 71551.51, 0.00000024371042, 10.001749, 9.9973955 
5.550776e+2, 2.9566717e+2, 72903.5, -266081.47, -19746.613, -0.27586266, 0.11952243, 74049.91, 116517.625, 0.0000058589785, 10.001983, 9.997521 
5.550868e+2, 3.0566403e+2, 187836.58, -40503.016, -93453.875, 0.124452196, -0.0069536287, 221207.86, 221207.86, 0.000029984647, 10.00183, 9.998811 
5.550903e+2, 3.156625e+2, 76060.21, -37070.52, -33833.703, -0.0047919704, -0.07864426, 85406.6, 85406.6, 0.00008416486, 10.000745, 9.999354 
5.64978e+2, 1.2566991e+2, -1883669.1, -1908356.6, 72491.625, 0.122827366, -0.08312519, -1822477.9, -114042.78, 0.000022362967, 9.999264, 9.998991 
5.6497717e+2, 1.3567244e+2, -1848791.6, -1830225.6, -93055.734, -0.18626128, 0.22119172, -1745991.0, -135569.92, 0.000004259607, 9.998781, 9.999124 
5.649879e+2, 1.4567219e+2, -1652517.6, -1487743.8, 69899.836, 0.3426964, 0.20277049, -1462086.3, 50338.703, 0.00000013010742, 9.998602, 10.000874 
5.649914e+2, 1.5567142e+2, -1492548.5, -1362066.9, -40890.53, 0.07434385, -0.0056548705, -1350311.5, 64114.82, 0.0, 9.999055, 10.00084 
5.6499547e+2, 1.6567163e+2, -1451857.5, -1462233.5, -38197.363, -0.090316005, 0.017516006, -1418497.4, -102073.77, 0.0, 9.999411, 9.999301 
5.6500125e+2, 1.7567207e+2, -1303538.9, -1336352.0, 4493.108, -0.06893636, 0.09869871, -1302934.8, -84512.086, 0.0, 9.999739, 9.999331 
5.6500757e+2, 1.8567209e+2, -1136665.4, -1161433.5, 43438.85, -0.006890379, 0.15204455, -1103879.8, 16544.129, 0.0, 10.000022, 9.999721 
5.650142e+2, 1.9567165e+2, -1023471.2, -1056580.0, 13423.525, 0.057042237, 0.10076728, -1018712.7, 3715.5483, 0.0, 10.000132, 9.999711 
5.650207e+2, 2.0567095e+2, -941684.6, -987753.4, 56338.656, 0.04798182, 0.077422224, -903853.4, 20579.387, 0.0, 10.000123, 9.999516 
5.6502753e+2, 2.1566989e+2, -865452.5, -899242.06, 29334.86, 0.011476082, -0.013618895, -848495.1, -22055.762, 0.0, 9.999969, 9.999522 
5.6503445e+2, 2.2566944e+2, -805392.1, -872187.1, 19857.852, 0.0005011827, 0.01902207, -799934.44, -71492.125, 0.0, 9.999928, 9.999059 
5.650414e+2, 2.3566923e+2, -709640.0, -780405.4, -9721.667, 0.007901046, 0.05825544, -708328.75, -77883.72, 0.0, 9.999931, 9.999017 
5.650481e+2, 2.456679e+2, -587508.0, -746945.06, -19042.498, 0.004567793, 0.06766671, -585265.2, -52807.215, 0.0, 10.000439, 9.998321 
5.650545e+2, 2.5566548e+2, -345657.94, -580626.94, -35888.95, -0.0066155447, -0.04022159, -340298.53, 94183.0, 0.0, 10.001417, 9.998325 
5.6506133e+2, 2.6566434e+2, -209003.2, -411443.25, -18188.1, 0.008158191, -0.007296391, -207382.08, 129109.96, 0.0, 10.001462, 9.998788 
5.6506866e+2, 2.756639e+2, -219396.84, -373695.56, -48946.44, 0.05154883, 0.03781139, -205180.03, 33314.83, 0.0, 10.000757, 9.998713 
5.6507444e+2, 2.8566244e+2, -193999.28, -452880.72, -12877.628, -0.06636528, 0.09108607, -193360.28, -52849.71, 0.00000046127252, 10.000848, 9.997464 
5.6507885e+2, 2.956602e+2, 15567.153, -291139.53, 5391.6553, -0.32300696, 0.076246984, 15661.905, 58197.8, 0.000007820285, 10.00156, 9.997559 
5.650882e+2, 3.0565745e+2, 189775.94, -8646.036, -72978.38, 0.099824734, -0.027581753, 213726.08, 213726.08, 0.00003595913, 10.001703, 9.999095 
5.6509227e+2, 3.156564e+2, 124733.63, -466.72647, -70974.94, 0.118359566, -0.08329558, 156770.78, 156770.78, 0.000094486146, 10.0010195, 9.9994755 
5.7497525e+2, 1.256644e+2, -1774118.4, -1666371.9, 103142.4, -0.15348849, 0.07950903, -1603880.8, 104614.8, 0.000015098279, 9.999214, 10.000665 
5.7497734e+2, 1.3566573e+2, -1744671.5, -1611864.9, -108581.016, -0.078661166, 0.09117323, -1550992.0, 59490.887, 0.0000026568694, 9.998769, 10.000626 
5.7498646e+2, 1.4566584e+2, -1759764.5, -1700718.6, 63993.98, 0.29372466, 0.11641804, -1659765.8, -147281.7, 0.000000050157187, 9.9985695, 9.999424 
5.7499063e+2, 1.5566619e+2, -1590112.9, -1554715.6, -9785.192, 0.054604493, 0.1656971, -1552190.8, -137706.23, 0.0, 9.999015, 9.999541 
5.7499516e+2, 1.6566658e+2, -1356881.8, -1249901.8, -42754.6, -0.09104216, 0.1893623, -1234914.5, 81565.29, 0.0, 9.999342, 10.000788 
5.750011e+2, 1.7566669e+2, -1216970.4, -1148396.4, 30102.422, -0.08775746, 0.08971122, -1137057.1, 81417.2, 0.0, 9.999697, 10.000644 
5.7500744e+2, 1.8566658e+2, -1184110.8, -1241377.0, 35836.79, -0.05279414, 0.095967226, -1166873.0, -46398.19, 0.0, 9.999947, 9.999206 
5.750139e+2, 1.95666e+2, -1076345.4, -1137212.5, 30925.79, -0.020437224, 0.08569966, -1063389.9, -40907.156, 0.0, 10.000009, 9.999215 
5.750206e+2, 2.056654e+2, -988348.25, -1045566.4, 34884.14, 0.0017627584, 0.1080074, -971842.06, -47353.246, 0.0, 9.999952, 9.999201 
5.7502776e+2, 2.1566454e+2, -916008.7, -962064.2, 36943.06, 0.013299375, 0.07301048, -895504.06, -69008.65, 0.0, 9.999786, 9.999179 
5.750349e+2, 2.2566381e+2, -855546.75, -940955.1, 6476.1406, 0.029234326, 0.11383266, -855058.44, -126556.14, 0.0, 9.999771, 9.998664 
5.75042e+2, 2.3566288e+2, -758070.2, -844772.0, 7787.6304, 0.045397557, 0.12104906, -757376.25, -126863.88, 0.0, 9.999773, 9.9986515 
5.7504874e+2, 2.4566135e+2, -603714.56, -762983.5, 3076.2222, -0.0031691715, 0.1295994, -603655.2, -71127.79, 0.0, 10.000348, 9.998261 
5.750551e+2, 2.5565913e+2, -368031.06, -601201.6, 13189.031, -0.11411385, 0.048131336, -367287.4, 67261.38, 0.0, 10.001295, 9.998249 
5.750623e+2, 2.656577e+2, -251722.98, -490408.16, -58265.477, -0.07846435, 0.08460838, -238259.25, 98303.234, 0.0, 10.0014105, 9.998277 
5.7506996e+2, 2.756566e+2, -252426.98, -431813.03, -59616.367, 0.06883225, 0.11294185, -234421.58, 4151.4004, 0.0, 10.000694, 9.998352 
5.750757e+2, 2.8565526e+2, -110912.73, -266020.22, -709.31976, -0.057925906, 0.12604223, -110909.484, 29675.074, 0.0000006054728, 10.000792, 9.998775 
5.7507986e+2, 2.9565355e+2, 82592.57, -129705.43, 49754.023, -0.42283198, 0.038203362, 93674.43, 136273.31, 0.000009307056, 10.001469, 9.998712 
5.750889e+2, 3.0565184e+2, 153969.31, -71083.445, -105077.57, -0.026498193, 0.006957933, 195402.28, 195402.28, 0.000040671366, 10.001657, 9.998693 
5.7509315e+2, 3.1565082e+2, 115952.805, -2477.005, 2631.046, 0.02793378, -0.0072294553, 116011.23, 116011.23, 0.000103750725, 10.000948, 9.999502 
5.8497405e+2, 1.2565781e+2, -1859068.1, -1660492.6, 178284.13, -0.13410348, 0.13065368, -1555713.5, 152848.84, 0.000008007214, 9.998393, 10.001122 
5.8497727e+2, 1.3565853e+2, -1625028.9, -1500841.0, -210205.72, 0.015797863, 0.037335977, -1343749.8, 266801.78, 0.0000012151539, 9.999352, 10.001115 
5.8498406e+2, 1.4565893e+2, -1629348.5, -1641692.9, 18240.65, 0.16106452, 0.07047, -1616264.1, -103714.27, 0.000000012980553, 9.999518, 9.999345 
5.8498967e+2, 1.556598e+2, -1534951.1, -1529816.8, 13183.038, 0.054976568, 0.17574649, -1518953.3, -104405.805, 0.0, 9.999428, 9.999486 
5.84995e+2, 1.6566034e+2, -1361062.6, -1232137.4, -2170.9167, -0.025910515, 0.20695576, -1232100.9, 84441.1, 0.0, 9.999225, 10.00097 
5.8500093e+2, 1.7566043e+2, -1314624.0, -1172213.6, -51188.363, -0.031186203, 0.087146156, -1155723.8, 62812.285, 0.0, 9.998926, 10.000852 
5.850074e+2, 1.856604e+2, -1307468.0, -1310092.1, -31057.213, -0.0009070338, 0.095742375, -1277695.1, -157159.55, 0.0, 9.999129, 9.99914 
5.850143e+2, 1.9565992e+2, -1131269.1, -1177624.6, -30796.25, 0.047175553, 0.106040865, -1115903.1, -93360.32, 0.0, 9.999672, 9.999118 
5.850211e+2, 2.0565924e+2, -990379.44, -1075780.0, 9544.187, 0.055260975, 0.13854751, -989325.75, -64775.355, 0.0, 10.000061, 9.998937 
5.8502793e+2, 2.1565816e+2, -852182.9, -962213.3, -9362.929, 0.033455715, 0.10511002, -851391.8, -24831.443, 0.0, 10.000344, 9.998914 
5.850352e+2, 2.2565724e+2, -721016.8, -869873.9, 13255.151, 0.0499876, 0.13631783, -719845.7, 8723.305, 0.0, 10.000676, 9.99872 
5.850428e+2, 2.3565614e+2, -569984.3, -753429.7, 16990.426, 0.09369236, 0.12698217, -568423.94, 62155.42, 0.0, 10.001055, 9.998671 
5.850499e+2, 2.4565463e+2, -499425.63, -713886.4, 64418.92, 0.046921503, 0.13689505, -481563.44, 51030.582, 0.0, 10.001069, 9.998244 
5.8505654e+2, 2.5565258e+2, -424724.97, -627181.8, 47207.984, -0.076147325, 0.071715035, -414258.34, 20355.723, 0.0, 10.000907, 9.998245 
5.850636e+2, 2.65651e+2, -294906.84, -507428.94, 13618.694, -0.06583157, 0.09239457, -294037.7, 42591.277, 0.0, 10.00112, 9.998293 
5.8507097e+2, 2.7564955e+2, -110738.8, -358912.13, 22003.438, 0.06350678, 0.08274978, -108803.04, 129839.43, 0.0, 10.001674, 9.998374 
5.8507717e+2, 2.856483e+2, 23028.734, -172620.7, 84158.27, -0.027254704, 0.08696344, 54247.77, 194900.22, 0.00000055145284, 10.001586, 9.999029 
5.850822e+2, 2.956469e+2, 8372.473, -141872.7, 26123.605, -0.29332757, 0.008390866, 12785.071, 55447.117, 0.000008783807, 10.000855, 9.998919 
5.850907e+2, 3.056454e+2, 46634.55, -176855.64, -123317.12, 0.020722399, 0.01440657, 101304.836, 101304.836, 0.000039667964, 10.00115, 9.998202 
5.85095e+2, 3.1564432e+2, 232886.92, 5012.7534, -34198.18, 0.07771239, 0.039784413, 237908.55, 237908.55, 0.00010388018, 10.001966, 9.999048 
5.9497404e+2, 1.2565011e+2, -1890430.6, -1724159.8, 147766.33, -0.05191731, 0.07788012, -1637747.6, 70888.18, 0.0000033727015, 9.998411, 10.000664 
5.949764e+2, 1.3565086e+2, -1664808.3, -1579216.5, -170587.95, -0.03199092, 0.0532254, -1446138.1, 164489.31, 0.00000044999516, 9.999344, 10.000579 
5.9498036e+2, 1.4565141e+2, -1542018.6, -1452746.6, -5348.7085, -0.20133233, 0.056278355, -1452427.3, 60195.113, 0.000000014541682, 9.999485, 10.000654 
5.949883e+2, 1.5565223e+2, -1461790.4, -1371961.6, 22727.047, -0.06666861, 0.025023766, -1366539.0, 48076.74, 0.0, 9.999397, 10.0005865 
5.949946e+2, 1.6565298e+2, -1445807.9, -1391174.0, -28208.639, -0.022259593, 0.08374622, -1379223.4, -62613.97, 0.0, 9.999166, 9.999902 
5.9500027e+2, 1.7565334e+2, -1390149.0, -1313611.8, -46316.16, -0.021223899, 0.09714317, -1291799.9, -73192.75, 0.0, 9.998869, 9.999907 
5.9500706e+2, 1.8565352e+2, -1294130.5, -1263359.5, -26650.613, 0.026016837, 0.15206873, -1247972.1, -127365.76, 0.0, 9.999046, 9.9995 
5.950148e+2, 1.9565333e+2, -1127366.4, -1139327.9, 2377.2917, 0.11038568, 0.15326455, -1126911.3, -104302.06, 0.0, 9.999547, 9.999438 
5.950216e+2, 2.0565249e+2, -1023198.7, -1110808.5, 7551.195, 0.074194066, 0.16558954, -1022552.6, -97935.055, 0.0, 9.999916, 9.998768 
5.950277e+2, 2.1565086e+2, -885183.44, -991746.44, 16505.973, -0.05209655, 0.09190147, -882685.3, -56052.184, 0.0, 10.000178, 9.99879 
5.950351e+2, 2.2564985e+2, -708068.9, -814580.06, 12031.27, -0.057188984, 0.09631098, -706726.75, 21914.46, 0.0, 10.000544, 9.999169 
5.950435e+2, 2.3564903e+2, -566032.8, -706841.9, 44138.785, 0.022380553, 0.07086679, -553340.8, 77305.54, 0.0, 10.000883, 9.999079 
5.950511e+2, 2.4564773e+2, -514160.66, -719265.06, 44839.824, 0.022324534, 0.08238414, -504786.28, 27871.982, 0.0, 10.000954, 9.998266 
5.950581e+2, 2.556459e+2, -436292.94, -622931.7, 54773.08, -0.040561672, 0.033970624, -421406.03, 13271.176, 0.0, 10.000783, 9.998335 
5.950649e+2, 2.6564434e+2, -267602.3, -435355.9, 18666.174, -0.079447545, 0.023073336, -265550.4, 71140.516, 0.0, 10.001054, 9.998823 
5.950713e+2, 2.756427e+2, -94444.984, -305716.22, 56179.605, -0.105187, -0.05383236, -80435.164, 158268.47, 0.0, 10.001588, 9.998785 
5.950783e+2, 2.856414e+2, -40704.48, -290242.13, 44604.8, -0.10351914, -0.030053994, -32971.047, 107743.484, 0.0000003359344, 10.001526, 9.998248 
5.950854e+2, 2.9564014e+2, -55265.164, -251437.33, 19008.885, -0.10029395, -0.022588031, -53440.2, -10714.105, 0.000006914508, 10.000765, 9.998205 
5.950931e+2, 3.0563807e+2, 4227.8496, -262391.63, -100791.61, 0.1101152, -0.01220012, 38042.12, 38042.12, 0.000035638073, 10.001129, 9.997629 
5.9509665e+2, 3.1563696e+2, 172895.88, -107339.586, 73822.26, -0.0323633, 0.07411693, 191153.34, 191153.34, 0.00009897654, 10.001911, 9.998303 
6.0497254e+2, 1.2564284e+2, -1959133.3, -1725395.3, 171469.44, 0.0022568733, 0.033412654, -1634755.0, 73950.92, 0.0000011596172, 9.997804, 10.000955 
6.049763e+2, 1.3564388e+2, -1791280.5, -1601293.3, -69888.6, 0.082558624, 0.012570497, -1578353.8, 32339.588, 0.00000014603442, 9.998334, 10.000898 
6.049783e+2, 1.4564471e+2, -1641043.9, -1458990.4, 98553.64, -0.29778802, 0.006880524, -1415857.9, 96826.836, 0.0000000031309833, 9.998601, 10.001061 
6.04987e+2, 1.5564588e+2, -1517774.0, -1359290.9, 24618.75, -0.09379497, -0.024966069, -1355554.8, 59119.43, 0.0, 9.998829, 10.000963 
6.0499406e+2, 1.6564663e+2, -1435888.5, -1439325.4, 12710.878, 0.002499544, 0.03981059, -1424780.4, -108111.7, 0.0, 9.999437, 9.999454 
6.050002e+2, 1.756467e+2, -1209127.6, -1274399.4, 14793.285, 0.019132337, 0.069805145, -1205931.4, 12739.177, 0.0, 10.000305, 9.999491 
6.0500735e+2, 1.8564664e+2, -1061989.5, -1164156.1, 60293.793, 0.06674801, 0.12369374, -1034048.5, 86624.64, 0.0, 10.000717, 9.999367 
6.050153e+2, 1.9564617e+2, -954377.8, -1066722.5, 21895.537, 0.14652848, 0.10986051, -950261.25, 72417.414, 0.0, 10.0008, 9.999328 
6.0502225e+2, 2.0564537e+2, -856111.7, -1036495.44, 45840.973, 0.09525517, 0.1343436, -845130.6, 79555.95, 0.0, 10.001088, 9.998724 
6.050284e+2, 2.1564396e+2, -703554.56, -913525.6, 34393.83, -0.05616666, 0.09201461, -698064.3, 128635.484, 0.0, 10.001457, 9.998721 
6.0503596e+2, 2.2564279e+2, -630969.06, -801079.0, 15268.012, -0.0498064, 0.09751808, -629609.56, 99100.54, 0.0, 10.001191, 9.998936 
6.050445e+2, 2.3564157e+2, -641008.75, -755403.0, -30821.371, 0.075541176, 0.05215251, -633233.06, -2512.3384, 0.0, 10.000449, 9.998934 
6.0505223e+2, 2.4564056e+2, -574347.2, -685128.56, 10091.505, 0.0872063, 0.06782069, -573435.44, -40705.664, 0.0, 10.000284, 9.998822 
6.0505927e+2, 2.5563946e+2, -428602.56, -564302.56, 32550.988, 0.013948255, 0.042727366, -421198.4, 13541.555, 0.0, 10.000603, 9.99883 
6.050661e+2, 2.6563826e+2, -299116.56, -447191.5, 26456.357, -0.04182901, 0.045947127, -294531.6, 42217.93, 0.0, 10.000816, 9.998859 
6.050727e+2, 2.7563673e+2, -190482.5, -353141.34, -4418.0884, -0.07914212, -0.026611771, -190362.58, 48399.25, 0.0, 10.000916, 9.998788 
6.050802e+2, 2.8563502e+2, -101127.82, -370417.63, 578.6192, -0.045261715, -0.018207211, -101126.58, 39650.99, 0.00000016006682, 10.001343, 9.997784 
6.050881e+2, 2.9563305e+2, 107151.25, -217985.13, -30622.514, 0.04124173, -0.03187883, 110010.24, 152807.39, 0.0000052467194, 10.002079, 9.997805 
6.050951e+2, 3.0563116e+2, 214131.83, -141342.78, -66847.94, 0.14292796, 0.0045902897, 226287.11, 226287.11, 0.000031333126, 10.002496, 9.997804 
6.050994e+2, 3.1562972e+2, 225809.77, -82502.83, 112394.414, 0.04886673, 0.050342344, 262432.56, 262432.56, 0.00009226463, 10.002269, 9.998321 
6.149687e+2, 1.2563603e+2, -1871330.9, -1537609.0, 45020.734, -0.23645933, 0.0019319314, -1531642.3, 177130.28, 0.000000319301, 9.997793, 10.002238 
6.149764e+2, 1.3563766e+2, -1719045.8, -1449805.1, -36474.246, 0.22335488, -0.07942959, -1444951.4, 165797.7, 0.000000018009526, 9.998333, 10.001938 
6.149776e+2, 1.4563885e+2, -1677145.8, -1536486.3, 83316.43, -0.27656475, -0.065829106, -1497784.4, 14952.279, 0.0, 9.998607, 10.000526 
6.149856e+2, 1.5564068e+2, -1548756.3, -1430861.4, 45519.47, -0.1541539, 0.0210775, -1415331.8, -608.2248, 0.0, 9.998843, 10.000472 
6.14993e+2, 1.6564125e+2, -1426309.5, -1405218.5, 30564.072, -0.07943548, 0.07722734, -1383431.8, -66711.91, 0.0, 9.999381, 9.999714 
6.1500025e+2, 1.7564055e+2, -1204190.9, -1257178.9, 60457.707, -0.0376537, 0.0031305538, -1164676.8, 54049.848, 0.0, 10.000269, 9.99963 
6.150076e+2, 1.8563971e+2, -1122421.1, -1266032.6, 50568.246, -0.005843931, 0.010637813, -1106401.9, 14334.103, 0.0, 10.000618, 9.998712 
6.1501527e+2, 1.9563852e+2, -1011028.75, -1165389.3, 41891.61, 0.03285155, -0.011028862, -1000392.75, 22357.234, 0.0, 10.000714, 9.998694 
6.150226e+2, 2.0563792e+2, -869292.56, -1032586.3, 46253.406, -0.00829594, 0.05949251, -857101.3, 67655.06, 0.0, 10.000955, 9.998814 
6.150296e+2, 2.1563746e+2, -728432.7, -925381.4, 59052.61, -0.10717208, 0.10177682, -712083.7, 114676.63, 0.0, 10.001283, 9.998726 
6.150374e+2, 2.2563612e+2, -719856.3, -945931.6, -23211.777, -0.055888962, 0.13723966, -717497.7, 11277.77, 0.0, 10.001023, 9.998019 
6.1504567e+2, 2.3563385e+2, -721450.1, -881657.9, -40699.637, 0.114798516, 0.07625239, -711703.6, -80901.99, 0.0, 10.000276, 9.998149 
6.1505306e+2, 2.456331e+2, -514209.4, -536866.56, 6248.7056, 0.10665339, 0.09783956, -512600.3, 20207.912, 0.0, 10.00018, 9.99989 
6.1505955e+2, 2.556333e+2, -379864.63, -437222.1, 57357.43, -0.050245147, 0.094526686, -344415.8, 90386.266, 0.0, 10.000485, 9.999763 
6.1506677e+2, 2.6563284e+2, -344788.84, -524249.2, 16763.56, -0.08231707, 0.15365541, -343236.38, -6431.8223, 0.0, 10.00074, 9.998364 
6.1507463e+2, 2.756316e+2, -240558.64, -429348.97, 17285.42, -0.012462204, 0.15814479, -238989.06, -172.19817, 0.0, 10.0008, 9.998317 
6.1508244e+2, 2.8562915e+2, -118615.57, -399738.13, 13504.311, 0.011584989, 0.12445027, -117968.35, 22872.594, 0.00000012615395, 10.001307, 9.9976 
6.150899e+2, 2.956258e+2, 90779.99, -234429.61, 14454.534, -0.034431, -0.017262297, 91421.19, 134295.17, 0.000004351736, 10.002007, 9.997721 
6.1509633e+2, 3.056247e+2, 268934.2, -29993.684, -83164.47, -0.015850075, 0.059652638, 290513.5, 290513.5, 0.000027327982, 10.002496, 9.998582 
6.151022e+2, 3.1562304e+2, 263943.3, 15330.171, 134127.97, 0.028798861, 0.0127188405, 322509.47, 322509.47, 0.00008384043, 10.002188, 9.999039 
6.2496644e+2, 1.2563011e+2, -2025701.9, -1578936.3, 28661.668, -0.16450691, 0.03733345, -1577105.0, 131726.63, 0.00000004128188, 9.996575, 10.002561 
6.249754e+2, 1.3563186e+2, -1613137.6, -1361394.6, -56754.535, 0.27408555, -0.06513275, -1349191.0, 261615.31, 0.000000000001578113, 9.998876, 10.002302 
6.249768e+2, 1.4563288e+2, -1560198.1, -1543370.5, 31251.242, -0.25715852, -0.057109676, -1519420.3, -6624.298, 0.0, 9.999678, 9.999967 
6.249856e+2, 1.5563472e+2, -1472753.5, -1441215.1, -30492.527, -0.06667932, 0.0838751, -1422655.5, -7872.284, 0.0, 9.999595, 10.000023 
6.249931e+2, 1.6563505e+2, -1380184.3, -1365909.8, -5472.893, -0.012363721, 0.12881488, -1364053.0, -47271.344, 0.0, 9.999648, 9.999842 
6.2499994e+2, 1.7563389e+2, -1270949.6, -1268244.0, -22763.545, -0.057372503, -0.00410204, -1246793.0, -28001.303, 0.0, 9.999756, 9.999785 
6.250077e+2, 1.8563306e+2, -1156332.8, -1295487.5, 21435.504, -0.034615643, 0.0006271255, -1153105.6, -32305.084, 0.0, 10.000401, 9.9986315 
6.2501633e+2, 1.9563217e+2, -917404.2, -1125744.8, 33208.816, 0.04972454, 0.01429051, -912238.9, 110572.44, 0.0, 10.001357, 9.99866 
6.250238e+2, 2.0563142e+2, -818964.9, -1019674.94, 51135.844, 0.0075801653, 0.07583109, -806687.7, 118131.484, 0.0, 10.001342, 9.998721 
6.250303e+2, 2.1563046e+2, -835965.0, -978738.1, 24744.35, -0.12332576, 0.07631186, -831798.1, -4970.019, 0.0, 10.000562, 9.998701 
6.250381e+2, 2.2562914e+2, -768395.44, -984206.56, 7230.3154, -0.06288162, 0.12016415, -768153.44, -39309.46, 0.0, 10.000746, 9.9979 
6.2504697e+2, 2.3562725e+2, -528471.3, -807197.4, 21925.986, 0.16005202, 0.11285758, -526757.06, 104111.05, 0.0, 10.001662, 9.998009 
6.2505406e+2, 2.4562651e+2, -347142.94, -463571.06, 55786.49, 0.14713112, 0.14606892, -324728.16, 208147.0, 0.0, 10.001343, 9.999845 
6.2505966e+2, 2.5562644e+2, -435455.1, -463390.7, -2350.2998, -0.055301875, 0.12262859, -435258.72, -387.6363, 0.0, 10.0001, 9.999768 
6.2506753e+2, 2.6562586e+2, -368976.53, -519808.28, 21197.293, -0.06460508, 0.15888129, -366054.2, -29179.898, 0.0, 10.000495, 9.998514 
6.25077e+2, 2.7562448e+2, -39554.023, -319475.72, 35914.797, 0.092045255, 0.13711488, -35019.504, 203867.47, 0.0, 10.002113, 9.998441 
6.2508523e+2, 2.8562218e+2, 63318.633, -323968.53, 65440.06, 0.097491354, 0.12016046, 74077.195, 214986.81, 0.000000116905284, 10.002601, 9.997507 
6.250919e+2, 2.9561916e+2, 107128.805, -248678.03, 38864.23, -0.032879524, 0.025409138, 111324.41, 154264.7, 0.000004287332, 10.002185, 9.99756 
6.250981e+2, 3.05618e+2, 225629.55, -83762.0, -74007.23, -0.0678925, 0.1208672, 242420.95, 242420.95, 0.000025852014, 10.002368, 9.998258 
6.2510574e+2, 3.156156e+2, 364206.25, 90163.14, -13422.606, 0.14938086, 0.026685849, 364862.13, 364862.13, 0.00007870898, 10.002786, 9.999251 
6.349647e+2, 1.25625e+2, -2057555.5, -1658467.5, -60060.21, -0.06428586, 0.14894065, -1649624.8, 59259.184, 0.000000010756334, 9.996633, 10.001989 
6.349728e+2, 1.3562639e+2, -1641221.6, -1424496.5, 28614.217, 0.100805506, 0.052610494, -1420782.1, 190084.8, 0.0, 9.998886, 10.001873 
6.349757e+2, 1.456268e+2, -1591788.9, -1593991.0, 6838.9404, -0.38141257, 0.03884334, -1585962.9, -73100.25, 0.0, 9.999622, 9.999641 
6.3498664e+2, 1.5562807e+2, -1500078.5, -1496810.8, -15519.763, 0.043040384, 0.15846954, -1482839.1, -67986.52, 0.0, 9.999587, 9.999647 
6.3499403e+2, 1.6562797e+2, -1390906.6, -1381788.4, -17130.332, 0.08105722, 0.18400973, -1368620.9, -51766.55, 0.0, 9.999614, 9.999753 
6.34999e+2, 1.7562659e+2, -1277485.6, -1280367.1, -2649.5984, -0.16269551, 0.037615623, -1275910.4, -57042.758, 0.0, 9.999733, 9.999723 
6.3500726e+2, 1.8562645e+2, -1126574.4, -1209452.1, 42700.0, -0.14887653, 0.081867576, -1108511.4, 12357.536, 0.0, 10.000305, 9.999263 
6.3501817e+2, 1.9562697e+2, -896143.94, -1055023.3, 76869.195, 0.06342092, 0.17337148, -865041.6, 157822.64, 0.0, 10.001242, 9.999202 
6.3502544e+2, 2.0562576e+2, -861633.5, -1068538.0, 7092.846, 0.017429238, 0.17923425, -861390.6, 63485.24, 0.0, 10.001172, 9.998464 
6.3503e+2, 2.1562295e+2, -875619.44, -1019188.2, 14903.776, -0.23726135, 0.01577852, -874088.6, -47185.414, 0.0, 10.000379, 9.998512 
6.350377e+2, 2.256218e+2, -747779.7, -899665.2, 28803.96, -0.19545327, 0.052947097, -742500.7, -13584.677, 0.0, 10.000571, 9.99856 
6.350481e+2, 2.356217e+2, -518583.7, -742993.0, 68103.734, 0.07841751, 0.15614547, -499532.88, 131387.78, 0.0, 10.001477, 9.998537 
6.3505507e+2, 2.4562077e+2, -448805.72, -646126.9, -3468.1372, 0.079998724, 0.20826884, -448744.78, 84185.66, 0.0, 10.001225, 9.998643 
6.350593e+2, 2.556189e+2, -529309.94, -629761.6, -29157.543, -0.13641033, 0.12605892, -521460.0, -86513.266, 0.0, 9.999979, 9.998684 
6.350678e+2, 2.6561734e+2, -327066.7, -412745.3, 67084.0, -0.11041845, 0.07108248, -290310.34, 46648.203, 0.0, 10.000414, 9.999285 
6.3507956e+2, 2.7561554e+2, -7723.7324, -223363.0, 108343.805, 0.097972296, -0.072148964, 37307.715, 276278.47, 0.0, 10.001988, 9.99916 
6.3508797e+2, 2.8561422e+2, 54999.473, -324875.47, 32686.305, 0.082062, -0.027685476, 57791.445, 198774.4, 0.0000001448745, 10.002536, 9.997533 
6.350936e+2, 2.956133e+2, 78166.74, -277484.1, 46211.17, -0.119291164, 0.091168456, 84073.06, 127067.945, 0.000005079309, 10.0020685, 9.997412 
6.3509977e+2, 3.0561134e+2, 116725.39, -319586.06, -62575.246, -0.17058633, 0.20736542, 125522.484, 125522.484, 0.000027855136, 10.002379, 9.996646 
6.3510895e+2, 3.1560716e+2, 311002.38, -3567.5994, 28332.832, 0.11675845, 0.07379665, 313533.88, 313533.88, 0.00008149468, 10.002695, 9.998658 
6.4496344e+2, 1.2561835e+2, -1922221.0, -1749506.9, -41701.945, 0.08074826, 0.09058577, -1739965.0, -31019.438, 0.0000000047013002, 9.998243, 10.000582 
6.449714e+2, 1.3562015e+2, -1714227.5, -1583802.9, 15340.728, 0.07502554, 0.16137044, -1582022.8, 28909.744, 0.0, 9.998954, 10.000726 
6.4497566e+2, 1.4562023e+2, -1592792.4, -1554321.6, -14389.366, -0.32549793, 0.14692244, -1549535.0, -36602.93, 0.0, 9.999442, 10.000001 
6.4498675e+2, 1.5562013e+2, -1425676.4, -1424280.5, -18464.42, 0.09193721, 0.09401167, -1406500.9, 8429.01, 0.0, 9.999928, 9.999985 
6.449942e+2, 1.6561991e+2, -1344023.9, -1389742.9, 22181.662, 0.1282785, 0.10511209, -1335030.9, -18099.188, 0.0, 10.000063, 9.999488 
6.449993e+2, 1.756194e+2, -1262750.6, -1296623.9, 716.3579, -0.10457619, 0.07302042, -1262735.5, -43797.06, 0.0, 9.999936, 9.999513 
6.450077e+2, 1.8561943e+2, -1161921.3, -1202726.3, 70885.336, -0.10722149, 0.13268907, -1108560.6, 12378.162, 0.0, 9.999965, 9.999471 
6.450188e+2, 1.9561958e+2, -1055342.6, -1103904.8, 41216.51, 0.07127403, 0.16795178, -1031786.75, -8849.869, 0.0, 10.00005, 9.999432 
6.450264e+2, 2.056185e+2, -954409.5, -1085086.9, -12967.809, 0.037192807, 0.15976575, -953135.06, -28188.023, 0.0, 10.000416, 9.998708 
6.4503133e+2, 2.156161e+2, -780933.2, -948394.25, 1169.593, -0.15753268, 0.015094498, -780925.0, 46044.836, 0.0, 10.000919, 9.998732 
6.450389e+2, 2.2561534e+2, -658045.44, -826861.2, 61761.51, -0.15423766, 0.06251894, -637862.8, 91115.664, 0.0, 10.001034, 9.998844 
6.4504844e+2, 2.3561552e+2, -589668.3, -747405.25, 41725.82, 0.01281383, 0.16155376, -579310.75, 51668.254, 0.0, 10.000846, 9.998808 
6.4505583e+2, 2.4561429e+2, -498304.44, -739028.44, -6354.1694, 0.04686696, 0.20431721, -498136.84, 34855.223, 0.0, 10.001202, 9.998017 
6.4506143e+2, 2.5561166e+2, -276461.75, -572658.5, -13150.341, -0.012659733, 0.11042757, -275879.06, 159138.33, 0.0, 10.002006, 9.998099 
6.450699e+2, 2.656097e+2, -168515.6, -356681.97, 104781.24, 0.0020919314, 0.05545246, -121777.07, 215256.84, 0.0, 10.001591, 9.9991045 
6.450805e+2, 2.7560788e+2, -271377.94, -367039.28, 42343.01, 0.09136232, -0.06894445, -255328.23, -16281.151, 0.000000000000000000046744374, 10.000248, 9.999015 
6.4508957e+2, 2.856067e+2, -149320.42, -371554.97, 10670.216, 0.07934534, -0.025955059, -148809.28, -7752.691, 0.00000034821963, 10.000912, 9.997988 
6.4509714e+2, 2.95606e+2, 247732.2, -156066.64, 18684.186, -0.01861621, 0.064901315, 248594.89, 291659.3, 0.0000068469953, 10.003061, 9.997763 
6.451032e+2, 3.0560324e+2, 230816.66, -292927.9, -28940.268, -0.10108253, 0.10233092, 232410.95, 232410.95, 0.00003364889, 10.003307, 9.996359 
6.451113e+2, 3.156e+2, 191036.28, -78117.64, 71069.79, 0.13895053, 0.086361066, 208649.58, 208649.58, 0.000093661416, 10.001954, 9.998482 
6.549613e+2, 1.2561e+2, -2069283.5, -2057056.1, -120075.66, -0.028860122, -0.15875342, -1942938.6, -233920.88, 0.000000001405694, 9.998257, 9.998462 
6.549704e+2, 1.3561326e+2, -1839619.4, -1848683.0, 49163.617, 0.052188136, 0.26069555, -1794779.1, -183777.02, 0.0, 9.998976, 9.998893 
6.549764e+2, 1.4561321e+2, -1529112.3, -1414888.3, -15653.77, -0.22448178, 0.26644093, -1412781.9, 100221.83, 0.0, 9.999408, 10.000978 
6.549856e+2, 1.556109e+2, -1368483.0, -1298716.3, 12625.206, -0.0554089, -0.10446271, -1296501.9, 118513.086, 0.0, 9.999892, 10.000872 
6.5499324e+2, 1.6561078e+2, -1375196.3, -1440995.4, 296.13794, -0.01161935, -0.1061668, -1375195.0, -58180.867, 0.0, 10.000005, 9.999159 
6.550004e+2, 1.7561224e+2, -1291363.0, -1348038.8, 10692.627, -0.025715949, 0.09210786, -1289412.9, -70407.836, 0.0, 9.999903, 9.999173 
6.5500873e+2, 1.8561201e+2, -1188196.6, -1236429.0, 59578.266, -0.03535162, 0.15235397, -1148038.8, -27029.098, 0.0, 9.999877, 9.999282 
6.550179e+2, 1.9561012e+2, -1077376.3, -1126264.0, 62373.504, -0.058158252, -0.0011722747, -1034827.9, -11799.519, 0.0, 9.99995, 9.999327 
6.550262e+2, 2.056096e+2, -927117.7, -995205.75, -8318.121, -0.05298311, 0.015966676, -926116.2, -1083.2712, 0.0, 10.000273, 9.999398 
6.550339e+2, 2.1560985e+2, -763744.75, -866946.6, 31887.467, -0.021993056, 0.06890858, -754687.06, 72342.33, 0.0, 10.000728, 9.999385 
6.550411e+2, 2.2560966e+2, -689154.4, -847157.4, 40752.016, -0.061091375, 0.1459947, -679262.9, 49768.99, 0.0, 10.000847, 9.998791 
6.550478e+2, 2.3560876e+2, -618719.56, -766641.3, 50214.813, -0.17181063, 0.1412941, -603283.94, 27758.758, 0.0, 10.000673, 9.998755 
6.5505606e+2, 2.4560712e+2, -517853.38, -751493.5, 7930.501, -0.0795577, 0.14830516, -517584.5, 15474.961, 0.0, 10.001082, 9.997987 
6.5506554e+2, 2.5560462e+2, -303116.34, -594471.3, 28245.934, 0.16806696, 0.06759092, -300403.28, 134680.25, 0.0, 10.001866, 9.998013 
6.5507317e+2, 2.6560298e+2, -257545.89, -529024.44, 39938.05, 0.14514598, 0.10629177, -251792.42, 85307.984, 0.0, 10.00153, 9.997952 
6.550794e+2, 2.7560163e+2, -351775.66, -523745.66, 19414.541, -0.08128407, 0.145052, -349611.1, -110496.42, 0.0000000002377775, 10.000192, 9.997971 
6.550893e+2, 2.8559986e+2, -99344.76, -247956.28, 78268.86, -0.06998224, 0.13001351, -65727.586, 75401.51, 0.0000008000927, 10.00084, 9.998863 
6.5510184e+2, 2.9559737e+2, 286467.97, -38471.53, 109729.85, 0.10363453, -0.042647395, 320051.94, 363199.1, 0.000010270006, 10.002912, 9.998637 
6.551078e+2, 3.0559382e+2, 291134.03, -165874.75, -89189.13, -0.010727506, -0.1762994, 307923.25, 307923.25, 0.00004390313, 10.003287, 9.997249 
6.551122e+2, 3.1559354e+2, 201055.45, -46663.426, 53951.113, -0.04803632, 0.016494859, 212295.55, 212295.55, 0.00011355634, 10.001906, 9.998725 
6.649604e+2, 1.256029e+2, -1835991.4, -1942304.1, -205271.89, -0.008309068, -0.1315831, -1677105.0, 31981.578, 0.00000000035571668, 9.999852, 9.998472 
6.649694e+2, 1.356049e+2, -1735628.4, -1816546.3, 74466.23, 0.025320511, 0.16848314, -1691339.8, -80258.41, 0.0, 9.999747, 9.998753 
6.649772e+2, 1.4560485e+2, -1560582.5, -1444291.8, 53731.48, -0.07864828, 0.18918797, -1423266.8, 89816.31, 0.0, 9.999261, 10.000841 
6.6498506e+2, 1.5560308e+2, -1509545.0, -1375143.4, -33129.36, -0.043901026, -0.11755829, -1367420.9, 47669.83, 0.0, 9.998977, 10.000775 
6.649926e+2, 1.6560318e+2, -1473245.9, -1461227.4, -17088.113, -0.028830647, -0.10753894, -1449122.8, -132035.06, 0.0, 9.99922, 9.999398 
6.650007e+2, 1.7560452e+2, -1295935.0, -1324574.6, 4134.222, 0.032041408, 0.054937594, -1295350.1, -76271.94, 0.0, 9.99976, 9.999401 
6.6500926e+2, 1.8560424e+2, -1188605.5, -1248097.8, 96755.47, 0.040633496, 0.10458737, -1117126.9, 3956.7048, 0.0, 9.999938, 9.999171 
6.650181e+2, 1.9560233e+2, -1103507.5, -1152294.4, 74021.8, -0.0135504715, -0.037730146, -1049963.4, -26859.219, 0.0, 9.999821, 9.999216 
6.650265e+2, 2.0560205e+2, -963982.6, -959676.2, 32236.055, -0.016198149, -0.016598936, -929521.5, -4415.62, 0.0, 9.999784, 9.999887 
6.650346e+2, 2.156028e+2, -874134.1, -872036.9, 28252.021, 0.035673756, 0.03933115, -844814.0, -17718.672, 0.0, 9.999758, 9.999827 
6.6504216e+2, 2.2560243e+2, -770806.94, -908744.56, 61219.348, -0.0088318065, 0.089173235, -747555.9, -18457.373, 0.0, 10.000395, 9.9985895 
6.6504914e+2, 2.356009e+2, -510852.88, -738466.4, 30264.852, -0.13834551, 0.047014438, -506897.44, 124217.734, 0.0, 10.001531, 9.998541 
6.650578e+2, 2.455993e+2, -409574.56, -707810.1, -917.6596, -0.042227715, 0.071674615, -409571.75, 123560.34, 0.0, 10.001828, 9.997939 
6.650678e+2, 2.5559738e+2, -379468.03, -643409.9, -17333.686, 0.23653252, 0.051588185, -378334.56, 56817.3, 0.0, 10.001361, 9.997932 
6.6507536e+2, 2.655957e+2, -270953.7, -585418.75, 36988.926, 0.21244259, 0.11713599, -266661.44, 70508.79, 0.0, 10.00165, 9.997511 
6.6508114e+2, 2.7559403e+2, -35391.434, -411928.84, 39124.0, -0.038049683, 0.16376065, -31369.232, 207820.16, 0.0000000023427176, 10.0025625, 9.997585 
6.6509104e+2, 2.855922e+2, 75446.234, -178948.23, 133267.38, -0.026717905, 0.16938752, 132475.31, 273680.78, 0.0000014418595, 10.002086, 9.99875 
6.6510415e+2, 2.955898e+2, -86199.13, -219263.4, 60502.82, 0.1868634, 0.0132273, -62802.875, -19578.998, 0.000014823799, 10.000351, 9.998629 
6.6511047e+2, 3.0558658e+2, 40679.54, -216845.53, -124739.88, 0.045967907, -0.12325743, 91192.84, 91192.84, 0.000057815294, 10.001271, 9.997869 
6.6511554e+2, 3.1558618e+2, 505443.72, 92157.78, -78694.53, 0.0033711025, 0.006921512, 519920.97, 519920.97, 0.00014076945, 10.00402, 9.998668 
6.7495996e+2, 1.2559728e+2, -1694967.9, -1649115.0, -240819.5, -0.110984966, 0.1782078, -1430133.1, 279016.56, 0.0000000023126079, 9.999858, 10.000479 
6.749678e+2, 1.3559505e+2, -1627368.5, -1590220.1, 76178.72, -0.13794176, -0.12390108, -1530383.9, 80786.69, 0.0, 9.999748, 10.000304 
6.749772e+2, 1.4559521e+2, -1653177.9, -1623632.3, 22214.432, -0.040539652, -0.08636668, -1611727.0, -98557.445, 0.0, 9.999211, 9.999633 
6.749846e+2, 1.5559688e+2, -1583711.9, -1526885.8, -25614.836, -0.029398575, 0.073379226, -1517044.1, -101888.96, 0.0, 9.998973, 9.999735 
6.749919e+2, 1.6559727e+2, -1418678.0, -1342899.9, -12270.343, -0.054961104, 0.11616112, -1340962.6, -23812.05, 0.0, 9.999192, 10.000227 
6.7499995e+2, 1.7559636e+2, -1248664.8, -1214544.6, 36446.82, -0.05390489, -0.030385118, -1191362.8, 27793.814, 0.0, 9.999708, 10.000181 
6.750091e+2, 1.8559614e+2, -1204686.0, -1263112.4, 73921.39, -0.004001485, -0.0069095395, -1154414.8, -33254.75, 0.0, 9.999854, 9.999111 
6.7501897e+2, 1.9559626e+2, -1126888.8, -1166695.8, 83144.125, 0.063263185, 0.063240826, -1061299.0, -38135.465, 0.0, 9.99968, 9.999186 
6.7502683e+2, 2.0559596e+2, -969801.3, -937999.7, 17322.57, 0.018995935, 0.072116986, -930386.5, -5221.7646, 0.0, 9.999629, 10.000115 
6.7503315e+2, 2.1559504e+2, -883205.25, -851635.0, 42974.945, -0.113361545, -0.066307805, -821637.9, 5529.134, 0.0, 9.999587, 10.000049 
6.7504174e+2, 2.2559378e+2, -823895.0, -977411.0, 88847.055, -0.113468654, -0.09475125, -783240.94, -54063.824, 0.0, 10.000217, 9.998205 
6.750521e+2, 2.3559198e+2, -566265.4, -804822.1, 86311.25, -0.02057217, -0.12561566, -538312.75, 92883.53, 0.0, 10.001324, 9.998185 
6.750607e+2, 2.455909e+2, -441429.9, -734667.9, -29975.186, 0.03749397, -0.02736659, -438397.16, 94812.195, 0.0, 10.001665, 9.99783 
6.7506766e+2, 2.5559005e+2, -408708.56, -672142.4, -16976.68, 0.060139947, 0.07097724, -407619.03, 27602.121, 0.0, 10.001222, 9.997802 
6.7507595e+2, 2.6558807e+2, -269234.44, -556378.3, 55791.418, 0.07699427, 0.10268692, -258775.27, 78466.62, 0.0, 10.001545, 9.997759 
6.7508525e+2, 2.7558506e+2, -37838.273, -393404.72, 84223.43, 0.08218319, -0.011181418, -18897.17, 220374.61, 0.0000000015372758, 10.002459, 9.9977665 
6.7509466e+2, 2.8558376e+2, -226.73224, -322759.47, 53441.293, 0.087697096, 0.08904803, 8397.491, 149683.69, 0.0000017821444, 10.002035, 9.997781 
6.751038e+2, 2.9558346e+2, -162919.3, -352266.13, 25808.785, 0.06984748, 0.24205701, -159464.48, -116172.14, 0.000019076204, 10.000242, 9.997766 
6.7511076e+2, 3.055814e+2, 49173.105, -183988.4, -28196.023, -0.08598784, 0.24724276, 52534.37, 52534.37, 0.000073988194, 10.001213, 9.998119 
6.7512023e+2, 3.1557837e+2, 465543.1, 45455.426, 50251.02, -0.0010006366, 0.09356885, 471470.5, 471470.5, 0.00017626988, 10.003878, 9.998409 
6.849595e+2, 1.255898e+2, -1911032.1, -1680009.9, -87280.29, -0.033788566, 0.19747864, -1650743.0, 58481.79, 0.0000000036242784, 9.99803, 10.001165 
6.849663e+2, 1.3558736e+2, -1807495.8, -1623274.8, 32640.14, -0.1760101, -0.16962124, -1617662.6, -6419.6865, 0.0, 9.998307, 10.000758 
6.8497694e+2, 1.4558773e+2, -1740327.8, -1687042.6, 31692.875, 0.050497822, -0.123785935, -1672281.5, -159042.08, 0.0, 9.998694, 9.999452 
6.8498445e+2, 1.5558986e+2, -1518728.5, -1516589.4, 33282.016, 0.04513198, 0.09975783, -1484359.8, -69136.695, 0.0, 9.999492, 9.999568 
6.849918e+2, 1.6559014e+2, -1315903.4, -1299826.8, 73328.76, -0.007845845, 0.14096837, -1234097.0, 83123.234, 0.0, 9.999916, 10.00018 
6.8499976e+2, 1.7558867e+2, -1210025.5, -1205903.6, 24419.773, -0.046015363, -0.055765357, -1183458.0, 35773.04, 0.0, 10.000003, 10.000111 
6.8500906e+2, 1.8558866e+2, -1195653.0, -1237110.8, 53420.43, 0.017711561, -0.016886648, -1159080.6, -37848.4, 0.0, 9.999818, 9.999304 
6.850191e+2, 1.955895e+2, -1164150.3, -1164514.9, 56553.805, 0.13844849, 0.10256836, -1107778.5, -84549.51, 0.0, 9.999331, 9.999362 
6.850272e+2, 2.0558918e+2, -966951.4, -972528.0, 35587.848, 0.08577804, 0.116690926, -934042.8, -8811.772, 0.0, 9.999836, 9.999755 
6.8503356e+2, 2.1558759e+2, -675424.0, -791060.94, -13746.443, -0.10142706, -0.04794851, -673812.3, 153428.14, 0.0, 10.001194, 9.9996805 
6.850426e+2, 2.2558601e+2, -650912.9, -878656.75, 41640.207, -0.09116488, -0.09759307, -643538.25, 85714.695, 0.0, 10.001325, 9.998347 
6.850538e+2, 2.3558423e+2, -685249.2, -849364.8, 48798.57, 0.07444814, -0.14235234, -671835.6, -40565.59, 0.0, 10.000432, 9.998309 
6.8506265e+2, 2.4558297e+2, -592043.8, -823752.7, -11137.274, 0.12242125, -0.062145818, -591509.75, -58225.625, 0.0, 10.000718, 9.997663 
6.850694e+2, 2.555818e+2, -301506.72, -634907.8, -29912.309, 0.07415331, 0.022997772, -298844.28, 136454.25, 0.0, 10.002048, 9.997643 
6.8507785e+2, 2.6557964e+2, -169971.36, -534920.9, 42887.992, 0.07947918, 0.053141642, -164999.02, 172322.47, 0.0, 10.002325, 9.997533 
6.850878e+2, 2.7557635e+2, -174033.6, -485725.94, 3010.9963, 0.14560993, -0.060979582, -174004.52, 65349.516, 0.00000000039754933, 10.001615, 9.997545 
6.850969e+2, 2.85575e+2, -110149.03, -382848.78, -8096.6616, 0.15873535, 0.044937905, -109908.85, 31460.99, 0.000001935021, 10.001312, 9.997712 
6.85105e+2, 2.9557478e+2, 21943.541, -267081.75, 1607.5055, 0.123639576, 0.21515335, 21952.482, 65328.477, 0.000022833043, 10.001519, 9.997736 
6.851124e+2, 3.0557328e+2, 136165.23, -143490.1, 75961.266, -0.05503422, 0.2766175, 155466.1, 155466.1, 0.00009092674, 10.001824, 9.998103 
6.851237e+2, 3.1556958e+2, 151445.77, -79537.64, 71716.234, 0.08487685, 0.066157974, 171900.94, 171900.94, 0.00021663251, 10.001584, 9.998671 
6.949585e+2, 1.255806e+2, -1945948.6, -1753365.5, -51395.5, -0.012965534, -0.06434105, -1740507.8, -31197.576, 0.00000000017840025, 9.998049, 10.000642 
6.949644e+2, 1.35582e+2, -1856176.0, -1726138.6, 52200.75, -0.22666645, 0.03622386, -1707776.5, -96479.54, 0.0, 9.998321, 10.000043 
6.949761e+2, 1.4558236e+2, -1679097.3, -1555859.9, 45195.457, 0.05420068, 0.06662586, -1541062.0, -27769.31, 0.0, 9.9986725, 10.000365 
6.949844e+2, 1.5558195e+2, -1466957.9, -1411424.5, 78763.82, 0.054911036, -0.054703373, -1355676.4, 59618.617, 0.0, 9.99949, 10.000298 
6.949919e+2, 1.6558176e+2, -1391719.3, -1442355.3, 62684.406, -0.021460172, -0.042416573, -1349433.0, -32136.0, 0.0, 9.999863, 9.999221 
6.9499975e+2, 1.7558162e+2, -1280198.5, -1336595.3, 44106.52, -0.07691584, -0.010219409, -1256046.8, -36746.92, 0.0, 9.999941, 9.999241 
6.9500875e+2, 1.8558191e+2, -1176995.8, -1173459.0, 23108.697, -0.024781695, 0.072354294, -1152051.1, -30752.146, 0.0, 9.999714, 9.999786 
6.950182e+2, 1.9558217e+2, -1155232.4, -1118226.8, 56290.996, 0.082037374, 0.085508615, -1077475.6, -54176.715, 0.0, 9.999222, 9.999725 
6.95027e+2, 2.055817e+2, -1054861.0, -1127729.6, 71041.82, 0.059421256, 0.1227831, -1011455.5, -86151.234, 0.0, 9.99971, 9.998754 
6.9503546e+2, 2.155804e+2, -766624.56, -936594.3, 46380.74, -0.059492294, 0.08664732, -754792.06, 72524.18, 0.0, 10.001004, 9.998772 
6.950445e+2, 2.2557916e+2, -632104.44, -795622.5, -4688.3467, -0.062358126, 0.078215, -631970.1, 97355.57, 0.0, 10.001135, 9.999006 
6.9505394e+2, 2.3557767e+2, -666816.9, -772827.3, 33380.11, 0.017739765, -0.006118347, -657182.0, -25845.598, 0.0, 10.000271, 9.998908 
6.9506323e+2, 2.4557556e+2, -618840.56, -857550.4, 25500.338, 0.08466363, -0.026573328, -616146.9, -82791.44, 0.0, 10.000618, 9.99748 
6.950724e+2, 2.5557268e+2, -329201.63, -670398.94, 31983.781, 0.13889584, -0.098724164, -326229.38, 109154.695, 0.0, 10.001943, 9.997454 
6.950807e+2, 2.655703e+2, -234362.73, -642715.7, 5073.068, 0.103388555, -0.042657357, -234299.73, 103109.734, 0.0, 10.002223, 9.996838 
6.950883e+2, 2.7556804e+2, -235706.66, -586512.8, -5581.785, 0.002957957, 0.010920865, -235617.86, 3817.9932, 0.0000000054780975, 10.001504, 9.996902 
6.9509745e+2, 2.8556597e+2, -64839.156, -275957.66, -16126.296, 0.047423348, 0.039655868, -63614.453, 77841.734, 0.000002364329, 10.001258, 9.998469 
6.9510746e+2, 2.9556394e+2, 59647.92, -169381.19, 31234.518, 0.17248406, -0.05554584, 63831.21, 107305.2, 0.000027093956, 10.001439, 9.998443 
6.951151e+2, 3.0556232e+2, 113829.195, -188467.45, 61887.66, -0.002198803, -0.021748113, 126008.445, 126008.445, 0.00010798756, 10.001811, 9.997799 
6.951253e+2, 3.1555998e+2, 184113.31, 4077.9768, 99380.3, 0.014640106, -0.068167426, 228183.77, 228183.77, 0.00025661878, 10.00151, 9.999279 
7.049566e+2, 1.2557194e+2, -1921123.4, -1722466.1, -58014.38, 0.0032917922, -0.12331054, -1706765.0, 2629.3247, 0.0, 9.998107, 10.000841 
7.0496327e+2, 1.3557462e+2, -1797910.4, -1686082.1, 5015.472, -0.17879595, 0.09276353, -1685857.6, -74489.03, 0.0, 9.998636, 10.000174 
7.0497555e+2, 1.4557484e+2, -1621210.6, -1517998.1, 49977.234, 0.1251643, 0.09665585, -1497764.8, 15600.479, 0.0, 9.999034, 10.000443 
7.0498407e+2, 1.55574e+2, -1396178.9, -1362975.1, -10182.794, 0.06635577, -0.076958746, -1360101.1, 55269.78, 0.0, 9.999936, 10.000398 
7.049917e+2, 1.6557361e+2, -1375730.1, -1448722.5, -23186.576, -0.023760233, -0.079577975, -1368987.5, -51612.99, 0.0, 10.000048, 9.999078 
7.049996e+2, 1.7557335e+2, -1373002.0, -1390324.9, -11720.978, -0.044219483, -0.044871252, -1367089.4, -147710.19, 0.0, 9.99936, 9.999138 
7.050086e+2, 1.8557355e+2, -1170787.9, -1170999.8, 26228.994, 0.0024193206, 0.031446848, -1144664.6, -23285.635, 0.0, 9.999759, 9.999783 
7.0501816e+2, 1.955737e+2, -892877.3, -995641.3, -5529.8174, 0.077702224, 0.03738614, -892580.6, 130798.164, 0.0, 10.001029, 9.999705 
7.0502746e+2, 2.0557326e+2, -857794.2, -1045653.75, 54569.04, 0.07592784, 0.08265003, -843093.5, 82290.83, 0.0, 10.001096, 9.998661 
7.050367e+2, 2.155721e+2, -901622.7, -1009802.8, 70870.99, 0.018115066, 0.06842536, -866558.8, -39162.33, 0.0, 10.000095, 9.998714 
7.0504594e+2, 2.2557105e+2, -771382.56, -861298.3, 48078.574, 0.024953337, 0.079931766, -750516.7, -21111.676, 0.0, 10.00018, 9.999012 
7.050552e+2, 2.3556978e+2, -532608.44, -706411.9, 11021.446, 0.07184953, 0.019115204, -531912.3, 99501.43, 0.0, 10.001196, 9.998916 
7.050648e+2, 2.455675e+2, -431602.84, -783947.3, 39629.254, 0.112371735, -0.010551851, -427200.63, 106233.64, 0.0, 10.001967, 9.997344 
7.050747e+2, 2.5556415e+2, -257509.8, -649334.25, 18203.863, 0.15654626, -0.11723479, -256665.88, 178801.27, 0.0, 10.002488, 9.997344 
7.050829e+2, 2.655617e+2, -206719.75, -622993.2, -5441.7983, 0.10412387, -0.06755903, -206648.61, 130843.97, 0.0, 10.002383, 9.9969015 
7.050897e+2, 2.755597e+2, -191007.66, -555878.25, 9824.905, -0.016769294, 0.008063364, -190743.3, 48771.906, 0.000000016182126, 10.001782, 9.996975 
7.050989e+2, 2.8555724e+2, 13642.606, -284685.28, 49388.68, 0.04299649, 0.014616151, 21606.395, 163145.03, 0.0000030357212, 10.001972, 9.99808 
7.0511e+2, 2.955543e+2, 202749.38, -145541.84, -19053.123, 0.23224482, -0.13053833, 203788.56, 247353.25, 0.000031540207, 10.002592, 9.998066 
7.0511776e+2, 3.0555204e+2, 202636.63, -151366.97, -13612.986, 0.06020597, -0.14103588, 203159.33, 203159.33, 0.00012311795, 10.002447, 9.997739 
7.051275e+2, 3.1555122e+2, 190007.7, 20619.68, -36104.574, 0.10042751, -0.038968723, 197382.23, 197382.23, 0.0002906225, 10.001507, 9.999375 
7.1495306e+2, 1.2556386e+2, -1835816.9, -1547446.1, -27106.986, -0.2309133, 0.039557777, -1544920.3, 164556.8, 0.0, 9.998117, 10.002033 
7.149624e+2, 1.3556513e+2, -1715152.9, -1527049.8, 30751.014, -0.16769983, -0.013776782, -1522150.3, 89308.625, 0.0, 9.99868, 10.001248 
7.1497494e+2, 1.4556512e+2, -1673995.5, -1626442.6, 63276.996, 0.11677683, -0.0409088, -1582622.5, -69165.39, 0.0, 9.999035, 9.999693 
7.1498317e+2, 1.5556607e+2, -1445022.9, -1461625.5, 37390.18, -0.058052603, 0.03900385, -1415023.5, 426.03732, 0.0, 9.999921, 9.999728 
7.149909e+2, 1.655657e+2, -1337694.3, -1352084.9, -63709.633, -0.14228135, 0.031115474, -1280774.9, 36678.22, 0.0, 9.999978, 9.999771 
7.14999e+2, 1.7556386e+2, -1338553.9, -1308022.6, -19875.906, -0.07577434, -0.1617624, -1298226.5, -78756.93, 0.0, 9.999319, 9.999722 
7.1500844e+2, 1.8556353e+2, -1214428.3, -1245427.3, 58977.082, -0.027832357, -0.13818406, -1168948.0, -47475.2, 0.0, 9.999687, 9.9993105 
7.150187e+2, 1.955642e+2, -941551.75, -1063048.8, 53331.57, -0.0075561265, -0.03611077, -921463.1, 102004.65, 0.0, 10.000887, 9.999314 
7.1502817e+2, 2.0556396e+2, -826344.8, -934973.9, 3658.6082, 0.0036789335, 0.006730164, -826221.75, 99248.055, 0.0, 10.000913, 9.999504 
7.150369e+2, 2.1556276e+2, -883215.9, -915926.56, 49688.38, 0.008070923, -0.097933404, -847260.3, -19779.863, 0.0, 9.999872, 9.99946 
7.1504664e+2, 2.2556178e+2, -838849.9, -965517.94, 69384.195, 0.047256812, -0.079876535, -808240.5, -78750.72, 0.0, 10.00002, 9.998377 
7.1505696e+2, 2.3556069e+2, -601538.1, -808552.94, 62159.47, 0.10493993, -0.05781434, -584307.9, 47193.188, 0.0, 10.001015, 9.998305 
7.1506673e+2, 2.4555887e+2, -464347.44, -812136.0, 44720.984, 0.08288136, -0.008159679, -458689.0, 74831.05, 0.0, 10.0018, 9.997232 
7.150758e+2, 2.5555617e+2, -285850.34, -670632.0, 50467.867, -0.008141487, -0.03608436, -279341.1, 156207.03, 0.0, 10.002336, 9.997271 
7.15084e+2, 2.6555377e+2, -155434.83, -508528.0, -44074.91, -0.04927628, -0.017408822, -150016.33, 187554.47, 0.0, 10.00234, 9.997714 
7.1509147e+2, 2.7555135e+2, -155330.36, -462994.22, 6893.428, -0.053070758, -0.06678575, -155175.98, 84416.445, 0.000000020828322, 10.001693, 9.997662 
7.15101e+2, 2.8554878e+2, -98779.53, -497493.03, 60124.92, 0.024129583, -0.03262908, -89910.16, 51707.83, 0.0000037854625, 10.0019, 9.996647 
7.1511215e+2, 2.955459e+2, 88274.305, -354222.4, 24436.055, 0.14142513, -0.021650242, 89619.65, 133267.88, 0.000035842306, 10.002489, 9.996674 
7.1511984e+2, 3.0554256e+2, 213988.45, -136479.19, -56515.598, -0.01586346, -0.07579989, 222876.61, 222876.61, 0.000135526, 10.002469, 9.997841 
7.1512944e+2, 3.155425e+2, 137736.55, -68703.086, -48305.06, 0.063929506, 0.086761996, 148480.36, 148480.36, 0.00031586387, 10.001409, 9.998823 
7.249514e+2, 1.2555438e+2, -1910571.6, -1626635.1, 75754.1, -0.1697103, 0.05600137, -1607688.3, 101880.625, 0.0, 9.997759, 10.001695 
7.2496176e+2, 1.3555515e+2, -1729924.3, -1528844.8, -67654.58, -0.08700313, -0.03542476, -1508201.3, 103355.04, 0.0, 9.998587, 10.001275 
7.249738e+2, 1.4555496e+2, -1723889.4, -1610543.1, -13347.39, 0.14028011, -0.10268424, -1608992.5, -95436.6, 0.0, 9.998507, 10.000072 
7.2498226e+2, 1.5555643e+2, -1715618.6, -1545759.0, 19035.432, -0.026244432, -0.006390072, -1543651.9, -128109.984, 0.0, 9.99786, 10.000151 
7.249905e+2, 1.6555667e+2, -1522578.8, -1420637.8, -15470.819, -0.10050112, 0.0152518805, -1418341.6, -100802.28, 0.0, 9.998584, 9.999996 
7.249991e+2, 1.755555e+2, -1169480.8, -1201285.0, -33705.086, -0.03984809, -0.13492331, -1148114.8, 71435.195, 0.0, 10.000352, 9.999967 
7.2500867e+2, 1.8555504e+2, -1108191.9, -1214459.5, 52295.53, -0.0016786803, -0.12707388, -1086773.5, 34780.668, 0.0, 10.000501, 9.999129 
7.2501874e+2, 1.9555488e+2, -1184176.6, -1196006.9, 37529.777, -0.0015964663, -0.08830675, -1152098.8, -128542.4, 0.0, 9.99929, 9.999167 
7.250284e+2, 2.0555441e+2, -1069379.3, -1060323.8, -13085.024, 0.030835722, -0.060067385, -1051005.3, -125444.18, 0.0, 9.999292, 9.999429 
7.2503775e+2, 2.1555333e+2, -836148.1, -903982.75, -59375.195, 0.10005792, -0.1406842, -801685.6, 25886.078, 0.0, 10.000239, 9.999372 
7.250477e+2, 2.2555253e+2, -705742.3, -898903.06, 14444.971, 0.119316675, -0.10038925, -704668.06, 24912.195, 0.0, 10.000925, 9.9984045 
7.25058e+2, 2.3555171e+2, -541305.44, -773996.94, 23457.549, 0.104297794, -0.052954983, -538964.25, 92625.37, 0.0, 10.001403, 9.998362 
7.25068e+2, 2.4555025e+2, -490758.4, -775420.25, 61908.727, 0.0665007, 0.007561023, -477877.28, 55727.523, 0.0, 10.001416, 9.99766 
7.2507757e+2, 2.55548e+2, -428245.47, -694566.2, 80295.016, -0.000057001304, -0.018661013, -405909.94, 29717.785, 0.0, 10.0011635, 9.997667 
7.250863e+2, 2.6554573e+2, -240565.8, -535110.56, 9215.75, -0.029609272, -0.015782937, -240277.73, 97370.58, 0.0, 10.00171, 9.997825 
7.2509414e+2, 2.755431e+2, 32754.701, -364395.28, -25056.432, -0.009679213, -0.09528275, 34329.285, 273999.84, 0.000000011844985, 10.002945, 9.997737 
7.251038e+2, 2.8554028e+2, 74890.805, -460767.2, 76972.72, 0.05366271, -0.062036388, 85732.17, 227430.6, 0.000004675658, 10.003316, 9.996208 
7.2511476e+2, 2.9553717e+2, 135059.56, -375424.9, 74252.59, 0.13988179, -0.03401311, 145640.67, 189373.42, 0.000040333267, 10.003013, 9.996268 
7.2512215e+2, 3.055341e+2, 245802.1, -105336.72, 29461.791, -0.025030809, -0.050866373, 248256.88, 248256.88, 0.00014552829, 10.002629, 9.997989 
7.251314e+2, 3.1553406e+2, 178343.02, -96412.56, -46703.805, 0.110167995, 0.10880011, 186064.86, 186064.86, 0.00033116215, 10.001897, 9.998404 
7.349513e+2, 1.2554362e+2, -2040183.0, -1891410.3, 88872.29, -0.02357493, -0.058132347, -1849901.8, -140232.73, 0.0, 9.997749, 9.999874 
7.3496073e+2, 1.3554473e+2, -1822890.6, -1725450.5, -35090.04, -0.073575966, 0.0351224, -1714129.3, -102468.875, 0.0, 9.998589, 9.99993 
7.3497164e+2, 1.4554416e+2, -1626019.5, -1384158.0, -57422.56, 0.0365267, -0.09516298, -1371217.1, 142446.33, 0.0, 9.998419, 10.001658 
7.3498094e+2, 1.5554488e+2, -1619480.3, -1344136.1, 17100.553, 0.024349466, -0.23220648, -1343078.1, 72571.87, 0.0, 9.997849, 10.001539 
7.349901e+2, 1.6554646e+2, -1532794.0, -1437580.3, 35349.04, -0.027606733, -0.1330427, -1425891.5, -108257.82, 0.0, 9.998567, 9.999886 
7.3499966e+2, 1.7554842e+2, -1186503.6, -1222063.0, 43739.76, -0.056898225, 0.03967024, -1157068.0, 62550.64, 0.0, 10.000284, 9.999862 
7.3500896e+2, 1.8554819e+2, -1123107.5, -1213434.9, -6459.0845, -0.051255036, 0.0712444, -1122648.0, -1025.9344, 0.0, 10.000372, 9.999193 
7.3501796e+2, 1.955459e+2, -1204947.0, -1205924.1, 9427.228, -0.037379455, -0.109029606, -1195995.6, -172352.47, 0.0, 9.99916, 9.999156 
7.3502797e+2, 2.0554468e+2, -1155566.9, -1209441.9, 6730.4897, 0.035875767, -0.10370248, -1154738.8, -229081.66, 0.0, 9.999158, 9.998471 
7.350388e+2, 2.15544e+2, -923857.75, -1039586.75, -9796.768, 0.15357836, -0.050666474, -923034.25, -95365.97, 0.0, 10.000039, 9.998534 
7.3504883e+2, 2.2554351e+2, -691376.94, -821150.1, 18399.107, 0.11490251, 0.026485903, -688818.75, 40855.527, 0.0, 10.00072, 9.999035 
7.3505807e+2, 2.3554288e+2, -525974.9, -692402.94, 56229.496, -0.057912406, 0.027203023, -508758.16, 122920.914, 0.0, 10.001197, 9.999017 
7.3506844e+2, 2.455417e+2, -435438.47, -637781.4, 38517.19, -0.06713607, 0.034051217, -428354.5, 105333.875, 0.0, 10.001311, 9.998656 
7.350795e+2, 2.5553977e+2, -388215.06, -574899.3, 87507.05, 0.052491035, -0.0577101, -353610.97, 82093.77, 0.0, 10.001004, 9.998567 
7.35089e+2, 2.6553768e+2, -299476.2, -631459.94, 43647.363, 0.050932005, -0.046333887, -293833.56, 43889.71, 0.0, 10.0016, 9.997212 
7.350971e+2, 2.7553508e+2, -22896.814, -455051.28, 39193.53, -0.03888071, -0.065102644, -19370.988, 220376.9, 0.000000051096855, 10.002842, 9.997163 
7.351068e+2, 2.8553194e+2, 115515.93, -381556.66, 51351.285, -0.019155398, -0.06446031, 120765.45, 262544.22, 0.0000058850314, 10.0033245, 9.996751 
7.351175e+2, 2.9552826e+2, 156579.56, -315480.72, 83402.8, 0.06724907, -0.152843, 170881.7, 214699.0, 0.000044056193, 10.002936, 9.99672 
7.351243e+2, 3.0552658e+2, 249529.78, -93003.57, -3754.4841, -0.10377986, -0.052596055, 249570.92, 249570.92, 0.00015023243, 10.002611, 9.998079 
7.3513216e+2, 3.155259e+2, 140733.88, -156226.17, -58277.957, -0.07777533, 0.030399706, 151761.34, 151761.34, 0.0003329124, 10.00182, 9.998029 
7.449509e+2, 1.2553358e+2, -1843443.8, -1817718.3, 116059.195, 0.09792644, -0.060049642, -1713811.3, -4045.2632, 0.0, 9.999227, 9.999637 
7.449603e+2, 1.3553455e+2, -1792595.8, -1700425.3, 42451.594, 0.03209107, 0.013455041, -1683852.9, -72093.95, 0.0, 9.998786, 9.999986 
7.4497014e+2, 1.4553423e+2, -1605535.4, -1375229.4, 27698.252, 0.053746615, -0.09627534, -1371945.0, 141815.08, 0.0, 9.998562, 10.001645 
7.449799e+2, 1.5553491e+2, -1493667.6, -1277777.8, -51193.656, 0.09796591, -0.23801486, -1266253.4, 149494.27, 0.0, 9.998701, 10.001571 
7.449895e+2, 1.6553655e+2, -1491891.6, -1392745.1, 2341.887, 0.05385973, -0.14780961, -1392689.9, -74959.26, 0.0, 9.998746, 10.000105 
7.449995e+2, 1.7553857e+2, -1393476.8, -1291636.6, 3507.9805, -0.011488931, 0.0090736905, -1291516.0, -71802.195, 0.0, 9.998739, 10.000123 
7.4500906e+2, 1.8553859e+2, -1243019.5, -1258281.1, -29424.725, -0.022472009, 0.045223083, -1220252.3, -98537.56, 0.0, 9.999477, 9.999326 
7.450181e+2, 1.9553663e+2, -962604.9, -1079938.4, -32168.063, -0.0036211286, -0.115046866, -954364.44, 69369.11, 0.0, 10.000764, 9.999257 
7.450282e+2, 2.0553568e+2, -879949.2, -1075152.6, 42070.668, 0.06006546, -0.088494346, -871268.06, 54476.797, 0.0, 10.001037, 9.998477 
7.4503905e+2, 2.1553527e+2, -859556.44, -1010379.25, 62767.297, 0.15851416, -0.010254869, -836852.5, -9099.488, 0.0, 10.000482, 9.998518 
7.4504924e+2, 2.2553459e+2, -755396.5, -848514.5, 130178.32, 0.118519105, 0.046747323, -663701.6, 66058.74, 0.0, 10.000272, 9.999057 
7.450589e+2, 2.3553337e+2, -651586.25, -755499.44, 90066.75, -0.040460415, -0.013744732, -599564.44, 32206.004, 0.0, 10.000325, 9.999008 
7.4506956e+2, 2.4553207e+2, -526501.0, -685028.25, 39251.535, -0.042482413, -0.018918416, -517314.63, 16466.992, 0.0, 10.000698, 9.998633 
7.4508107e+2, 2.5553042e+2, -318163.78, -538769.2, -16956.549, 0.088119954, -0.08022175, -316868.03, 118928.38, 0.0, 10.001472, 9.99859 
7.4509114e+2, 2.6552856e+2, -235354.1, -576076.4, -12132.621, 0.09655894, -0.05831458, -234922.61, 102890.41, 0.0, 10.001944, 9.997428 
7.4510014e+2, 2.755262e+2, -104218.91, -459941.03, 10528.408, 0.019950313, -0.07358766, -103907.56, 135926.95, 0.00000017449423, 10.002164, 9.997443 
7.4510974e+2, 2.8552344e+2, -32980.26, -396133.66, 40110.344, 0.015043196, -0.07636183, -28602.832, 113258.6, 0.0000070145306, 10.002065, 9.997259 
7.4511975e+2, 2.955201e+2, 16030.982, -325269.5, 37035.277, 0.07103816, -0.17710492, 20003.525, 63899.19, 0.00004543542, 10.001722, 9.997238 
7.451272e+2, 3.0551898e+2, 221648.95, -146649.72, 3532.7466, -0.058230903, -0.029260103, 221682.84, 221682.84, 0.00014809403, 10.002588, 9.997715 
7.4513555e+2, 3.1551635e+2, 471545.9, 10955.902, -161291.75, -0.024591032, -0.10302487, 522410.66, 522410.66, 0.00032280377, 10.004073, 9.998075 
7.549492e+2, 1.255241e+2, -1751872.8, -1619252.6, 45116.27, -0.061593495, 0.018749487, -1605359.8, 104501.67, 0.0, 9.99919, 10.0010195 
7.549602e+2, 1.3552456e+2, -1689522.4, -1495090.9, 40023.004, 0.1053386, -0.11932541, -1487174.6, 124677.88, 0.0, 9.998809, 10.001393 
7.5496924e+2, 1.4552513e+2, -1724451.5, -1611106.6, 14056.383, 0.064408325, -0.118615575, -1609389.4, -95543.17, 0.0, 9.998525, 10.000041 
7.5497854e+2, 1.5552673e+2, -1606033.0, -1497217.5, -33071.26, 0.05130603, -0.0046035573, -1487954.9, -72121.805, 0.0, 9.998648, 10.000092 
7.549881e+2, 1.6552699e+2, -1455843.6, -1305593.6, -15667.505, 0.0062300866, -0.016996685, -1303977.3, 13852.18, 0.0, 9.99869, 10.000731 
7.549983e+2, 1.7552593e+2, -1360596.0, -1212973.9, 20608.494, -0.038200542, -0.22546107, -1210150.9, 9684.759, 0.0, 9.998694, 10.000687 
7.5500864e+2, 1.8552619e+2, -1233399.3, -1218830.8, 1914.1248, -0.043400303, -0.20681733, -1218583.5, -96750.63, 0.0, 9.999393, 9.9996395 
7.55019e+2, 1.9552715e+2, -956023.44, -1034152.25, 27554.695, -0.029096168, -0.106747754, -947283.2, 76543.35, 0.0, 10.000629, 9.999636 
7.550287e+2, 2.0552751e+2, -842735.06, -960216.8, 6151.738, -0.017683916, -0.012643462, -842413.8, 83409.68, 0.0, 10.00087, 9.999352 
7.550381e+2, 2.1552715e+2, -831959.4, -903879.0, 56132.348, -0.0111454865, -0.016351808, -801256.25, 26569.396, 0.0, 10.000278, 9.999347 
7.550487e+2, 2.2552583e+2, -821046.56, -945375.3, 118505.55, 0.0073293378, -0.031930532, -749390.3, -19552.389, 0.0, 10.0001, 9.998477 
7.5506014e+2, 2.3552339e+2, -724737.94, -858307.0, 108979.7, 0.02804686, -0.15292732, -663707.2, -31845.307, 0.0, 10.000119, 9.998402 
7.550711e+2, 2.4552159e+2, -619545.75, -846917.56, 53911.96, 0.012352602, -0.125056, -607410.44, -73528.56, 0.0, 10.000561, 9.997587 
7.550816e+2, 2.555199e+2, -401422.6, -685334.25, 25581.338, -0.034415692, -0.087062776, -399136.03, 36766.39, 0.0, 10.001358, 9.997639 
7.5509214e+2, 2.655183e+2, -169096.78, -425573.2, -17280.453, -0.024697945, -0.049421493, -167937.72, 169979.45, 0.0, 10.001887, 9.998488 
7.551027e+2, 2.7551648e+2, -52058.113, -322923.22, 35928.832, 0.030329458, -0.112755, -47373.367, 192556.56, 0.0000002213921, 10.002038, 9.998447 
7.551123e+2, 2.8551474e+2, -10500.544, -335357.16, 14630.681, 0.036377236, -0.08745103, -9842.948, 132103.08, 0.000006961638, 10.001999, 9.997711 
7.5512105e+2, 2.9551268e+2, 38972.246, -266626.1, 49773.92, -0.015073091, -0.10663036, 46874.758, 90843.4, 0.00004401986, 10.001665, 9.997676 
7.5513023e+2, 3.055111e+2, 158951.39, -259501.4, 52595.305, -0.04450413, 0.009877336, 165460.83, 165460.83, 0.0001416952, 10.00253, 9.996957 
7.551403e+2, 3.155062e+2, 480921.75, 61241.66, -75911.766, -0.030235223, -0.21681517, 494230.63, 494230.63, 0.0003069929, 10.003952, 9.998469 
7.649483e+2, 1.2551482e+2, -1849277.6, -1637479.5, 95034.625, -0.009361457, 0.042965576, -1601089.5, 108863.25, 0.00000000032551553, 9.998336, 10.001322 
7.649592e+2, 1.3551508e+2, -1787591.3, -1510743.8, -37712.52, 0.18191473, -0.14943206, -1505698.4, 106245.54, 0.0, 9.997977, 10.001687 
7.649679e+2, 1.4551602e+2, -1773104.9, -1693358.8, 29532.598, 0.090974204, -0.10164428, -1683612.9, -169678.63, 0.0, 9.998415, 9.999547 
7.6497793e+2, 1.5551734e+2, -1454257.5, -1477551.6, 36359.17, 0.075547, 0.03060444, -1427725.5, -11799.956, 0.0, 9.999894, 9.999641 
7.649879e+2, 1.6551712e+2, -1263168.1, -1245156.5, 50052.996, 0.05928419, 0.006022802, -1203305.6, 114621.89, 0.0, 10.000158, 10.000434 
7.649983e+2, 1.7551538e+2, -1278095.6, -1204560.4, -9300.282, 0.062258422, -0.24143314, -1203402.4, 16538.28, 0.0, 9.999397, 10.000404 
7.650088e+2, 1.8551566e+2, -1235774.1, -1194358.9, 11329.306, 0.047535624, -0.21986131, -1191462.3, -69525.05, 0.0, 9.999276, 9.999856 
7.6501936e+2, 1.9551718e+2, -1080202.8, -1072764.1, -3079.8833, 0.0070053535, -0.08363845, -1071654.4, -47730.195, 0.0, 9.999681, 9.999829 
7.650293e+2, 2.0551755e+2, -909073.44, -980107.6, -53408.934, -0.017797345, -0.0052032266, -880450.25, 45469.977, 0.0, 10.000378, 9.999449 
7.6503855e+2, 2.1551658e+2, -672171.7, -822628.44, -90174.086, -0.035159703, -0.07628221, -629966.4, 197960.8, 0.0, 10.001348, 9.999395 
7.650494e+2, 2.2551535e+2, -656489.9, -874431.7, -32498.93, 0.015365452, -0.08249028, -651746.94, 78192.25, 0.0, 10.001275, 9.998399 
7.6506114e+2, 2.3551361e+2, -693070.6, -846049.25, -32661.434, 0.11660806, -0.12543295, -686389.1, -54431.207, 0.0, 10.000363, 9.99836 
7.6507246e+2, 2.4551202e+2, -639403.1, -837954.0, 50113.44, 0.109805904, -0.08344042, -627471.7, -93495.42, 0.0, 10.000345, 9.997752 
7.650832e+2, 2.5551024e+2, -442895.78, -686449.1, 84595.47, 0.0137888715, -0.07130915, -416395.84, 19601.41, 0.0, 10.000994, 9.9978075 
7.650938e+2, 2.655087e+2, -237586.27, -416314.25, 56150.79, -0.007306279, -0.054725874, -221409.58, 116601.66, 0.0, 10.001237, 9.998866 
7.651043e+2, 2.755071e+2, -158789.4, -332600.38, 26018.295, 0.042853065, -0.13484715, -154978.22, 85043.85, 0.00000016204108, 10.001127, 9.998822 
7.651142e+2, 2.8550586e+2, -49751.406, -330756.4, 17959.537, 0.050421447, -0.08490011, -48608.23, 93425.05, 0.000006290961, 10.001629, 9.997913 
7.6512337e+2, 2.955047e+2, 180708.48, -166938.16, 3497.4045, 0.017295815, -0.037656073, 180743.66, 224791.17, 0.000041719115, 10.002533, 9.997921 
7.651339e+2, 3.0550244e+2, 207175.0, -262173.78, 62514.92, 0.058714237, 0.010932069, 215358.97, 215358.97, 0.00013461517, 10.002952, 9.996752 
7.6514435e+2, 3.1549728e+2, 279782.1, -1294.3107, -74515.484, 0.0657889, -0.21666968, 298314.75, 298314.75, 0.00029005748, 10.002399, 9.998808 
7.7494735e+2, 1.2550573e+2, -1910609.0, -1747291.0, -12850.79, -0.026629826, 0.0077848006, -1746286.0, -36246.387, 0.0000000023621072, 9.998273, 10.000598 
7.749568e+2, 1.3550612e+2, -1853051.3, -1643495.0, -43385.516, 0.10943768, -0.06851688, -1634867.9, -22834.207, 0.0, 9.997966, 10.000786 
7.749655e+2, 1.4550683e+2, -1714328.0, -1566831.1, 62757.64, -0.030604629, -0.048017394, -1543742.9, -29717.873, 0.0, 9.998393, 10.000425 
7.7497774e+2, 1.555068e+2, -1404332.0, -1372274.3, 105680.67, 0.03378894, -0.13186508, -1281413.8, 134610.3, 0.0, 9.9998865, 10.000367 
7.749887e+2, 1.6550702e+2, -1355783.9, -1421835.9, 4371.9717, 0.08997466, -0.08415894, -1355495.8, -37472.086, 0.0, 10.000099, 9.999249 
7.74999e+2, 1.7550704e+2, -1362747.8, -1366475.6, -18552.285, 0.16195138, -0.039357368, -1345966.0, -125938.43, 0.0, 9.999344, 9.999317 
7.750091e+2, 1.855071e+2, -1242084.0, -1188208.0, 13255.138, 0.11991944, 0.008717125, -1185123.4, -63096.75, 0.0, 9.999184, 9.999951 
7.7501905e+2, 1.9550693e+2, -1094452.3, -1074026.1, 28493.469, -0.027333371, -0.032638304, -1053970.6, -29945.693, 0.0, 9.999555, 9.9998865 
7.750293e+2, 2.055059e+2, -983774.7, -1092957.6, -32352.41, -0.07699196, -0.060783584, -974908.25, -48874.164, 0.0, 10.000199, 9.998757 
7.7504015e+2, 2.155038e+2, -748043.56, -929936.25, -44462.055, -0.040287606, -0.1758393, -737756.94, 90298.586, 0.0, 10.001139, 9.998755 
7.750509e+2, 2.2550334e+2, -658323.06, -833526.06, -82430.59, 0.018528633, -0.0924384, -625638.1, 104423.945, 0.0, 10.001079, 9.998779 
7.7506155e+2, 2.355039e+2, -685701.9, -794250.44, -49455.746, 0.09083559, 0.053601928, -666548.9, -34489.156, 0.0, 10.000199, 9.9988 
7.750731e+2, 2.4550326e+2, -565001.1, -646032.75, 60474.19, 0.11794661, 0.09987471, -532725.06, 1340.562, 0.0, 10.000192, 9.999143 
7.750854e+2, 2.5550148e+2, -375250.34, -506565.22, 123196.23, 0.103854075, -0.027492153, -301307.6, 134772.92, 0.0, 10.00083, 9.99912 
7.7509576e+2, 2.654998e+2, -275902.38, -473513.84, 37487.07, 0.033281695, -0.06966234, -269030.06, 69064.75, 0.0, 10.001142, 9.998522 
7.7510446e+2, 2.7549773e+2, -195175.39, -387015.03, 38747.473, -0.08571714, -0.15495422, -187644.84, 52468.19, 0.00000014054619, 10.001032, 9.998499 
7.7511483e+2, 2.8549662e+2, -62559.207, -334993.75, 38306.285, -0.08392032, -0.08286305, -57275.54, 84849.48, 0.0000059856334, 10.001539, 9.997923 
7.751263e+2, 2.9549605e+2, 169637.14, -173643.64, 56245.0, 0.011201221, 0.021347517, 178617.69, 222751.4, 0.0000396548, 10.002458, 9.9979105 
7.751378e+2, 3.0549306e+2, 226344.42, -204851.61, 34759.73, 0.12649725, -0.024709208, 229128.52, 229128.52, 0.00012692052, 10.002889, 9.997175 
7.751467e+2, 3.154895e+2, 275085.7, 13465.526, -25562.563, -0.013424948, -0.1279326, 277559.97, 277559.97, 0.00027215088, 10.002292, 9.998967 
7.849461e+2, 1.254951e+2, -1982414.5, -1786697.6, -92562.93, 0.070168875, -0.022341657, -1749855.8, -39712.594, 0.0000000040597263, 9.997839, 10.00052 
7.8495604e+2, 1.3549559e+2, -1605869.0, -1554415.4, -99038.5, 0.15589377, -0.054476168, -1477816.8, 134320.61, 0.0, 9.999827, 10.000481 
7.849649e+2, 1.4549631e+2, -1451785.1, -1422372.1, 17554.041, -0.0050343536, -0.028116127, -1414178.3, 99950.58, 0.0, 10.000122, 10.00058 
7.849774e+2, 1.5549599e+2, -1503697.3, -1406887.6, -28819.838, 0.053181734, -0.15276526, -1398957.6, 17172.557, 0.0, 9.999153, 10.000481 
7.8498864e+2, 1.6549645e+2, -1487233.1, -1503504.0, -82468.555, 0.122794546, -0.07511617, -1412499.8, -94371.66, 0.0, 9.999274, 9.999079 
7.8499925e+2, 1.7549725e+2, -1248663.1, -1329382.6, -65056.02, 0.21600647, 0.063751, -1212464.4, 7661.8374, 0.0, 10.000212, 9.999145 
7.850095e+2, 1.8549703e+2, -1032288.25, -1101342.6, 24872.883, 0.17457934, 0.095414154, -1024262.1, 97865.89, 0.0, 10.000692, 9.999814 
7.850194e+2, 1.9549562e+2, -943027.0, -1012932.2, -5731.7417, 0.012054958, -0.05606299, -942560.2, 81575.82, 0.0, 10.000665, 9.999757 
7.8502995e+2, 2.0549423e+2, -971278.2, -1110610.4, -21663.232, -0.032371327, -0.101962745, -967987.75, -41839.266, 0.0, 10.000373, 9.998561 
7.850412e+2, 2.1549253e+2, -965180.75, -1052546.8, -24775.236, 0.028108718, -0.15614644, -958644.06, -130476.29, 0.0, 9.999723, 9.998599 
7.850519e+2, 2.2549221e+2, -791222.44, -863647.8, -22284.707, 0.069702305, -0.0704652, -784914.94, -54741.902, 0.0, 10.000017, 9.999079 
7.850621e+2, 2.3549262e+2, -543074.44, -694038.75, -25845.313, 0.08888079, 0.033476643, -538772.3, 93397.75, 0.0, 10.001044, 9.999082 
7.850737e+2, 2.4549228e+2, -398983.4, -534829.44, 64570.797, 0.11592791, 0.080074556, -373189.16, 160983.39, 0.0, 10.001203, 9.9994135 
7.850865e+2, 2.5549102e+2, -382457.28, -482779.1, 13544.659, 0.14893706, -0.019542139, -380660.75, 55521.594, 0.0, 10.000657, 9.999365 
7.8509706e+2, 2.654896e+2, -350162.2, -508650.8, -62941.01, 0.08753872, -0.048433304, -328207.53, 9987.629, 0.0, 10.000635, 9.998522 
7.851058e+2, 2.754876e+2, -195677.94, -385498.06, -65331.426, -0.0452826, -0.1282789, -175365.97, 64848.6, 0.0000001311964, 10.001025, 9.9985075 
7.851163e+2, 2.854865e+2, -59133.38, -298056.9, 7374.239, -0.063105844, -0.07251005, -58905.992, 83320.28, 0.0000058891046, 10.001404, 9.998249 
7.8512836e+2, 2.9548603e+2, 74361.086, -188361.11, 13038.809, 0.02577194, 0.01658758, 75006.61, 119238.51, 0.000037489564, 10.001659, 9.998204 
7.851409e+2, 3.0548307e+2, 204548.73, -180216.22, 27816.865, 0.17445204, -0.05581631, 206549.38, 206549.38, 0.00011865352, 10.00257, 9.9974985 
7.8515005e+2, 3.1548104e+2, 470509.63, 100354.43, -77425.35, 0.039614957, -0.048250724, 486052.06, 486052.06, 0.00025448482, 10.00366, 9.9988985 
7.949437e+2, 1.2548344e+2, -1928027.0, -1702210.8, -96306.91, -0.03901493, -0.0105867805, -1666716.5, 43541.816, 0.0000000034592607, 9.997944, 10.001057 
7.9495645e+2, 1.3548353e+2, -1573544.5, -1507929.8, -19491.092, 0.17062496, -0.116380505, -1502576.5, 109678.305, 0.0, 9.999901, 10.000769 
7.9496574e+2, 1.4548443e+2, -1501851.6, -1516636.4, -41723.926, 0.025360351, -0.050010093, -1466870.3, 47375.723, 0.0, 10.00009, 9.999944 
7.9497623e+2, 1.554849e+2, -1543099.6, -1483981.6, -45155.063, -0.00717062, -0.041852057, -1459571.1, -43327.246, 0.0, 9.999139, 9.999952 
7.949872e+2, 1.6548553e+2, -1432586.6, -1385518.1, -62699.434, 0.013715658, 0.03411962, -1342081.6, -23841.861, 0.0, 9.999245, 9.9999075 
7.949985e+2, 1.754861e+2, -1194094.5, -1218865.8, -16571.875, 0.087577485, 0.06793042, -1185791.3, 34445.11, 0.0, 10.00021, 9.999909 
7.950095e+2, 1.8548538e+2, -1079014.5, -1168204.1, 9177.279, 0.07664398, 0.03690086, -1078080.0, 44161.496, 0.0, 10.000572, 9.999409 
7.9502016e+2, 1.9548324e+2, -981828.25, -1067721.1, 6517.152, -0.015652725, -0.15394107, -981336.56, 42921.094, 0.0, 10.000559, 9.999427 
7.950307e+2, 2.0548256e+2, -969074.75, -1069380.0, -62292.625, -0.019095698, -0.13152793, -939254.5, -12991.031, 0.0, 10.000216, 9.9989195 
7.9504126e+2, 2.1548276e+2, -967942.44, -1016589.7, -31857.143, 0.041326005, -0.03365821, -952184.7, -123920.2, 0.0, 9.999541, 9.998935 
7.950518e+2, 2.2548193e+2, -808688.0, -851694.4, 4945.408, 0.042168602, -0.02165224, -808126.6, -77854.68, 0.0, 9.999811, 9.99926 
7.950623e+2, 2.3547997e+2, -556826.8, -686191.9, 27283.164, -0.01472382, -0.17391399, -551308.2, 80979.42, 0.0, 10.000882, 9.999215 
7.9507375e+2, 2.4547914e+2, -479608.8, -666126.5, 29677.219, -0.024598751, -0.1385611, -475000.66, 59295.523, 0.0, 10.001051, 9.998584 
7.95086e+2, 2.554789e+2, -460785.78, -609822.8, 10803.677, 0.0054925997, -0.051033, -460006.7, -23704.129, 0.0, 10.000504, 9.998568 
7.950973e+2, 2.654782e+2, -333974.94, -459163.2, -60565.043, 0.017101035, 0.0071780547, -309470.56, 28841.129, 0.0, 10.00056, 9.9988985 
7.951078e+2, 2.7547675e+2, -181314.2, -340157.28, -29757.13, 0.016861731, -0.05530615, -175922.61, 64403.348, 0.000000103459534, 10.000952, 9.998856 
7.951185e+2, 2.8547564e+2, -22386.938, -212164.75, 3983.7922, -0.019465702, -0.043466568, -22303.348, 120032.0, 0.0000054454867, 10.001364, 9.998859 
7.9512906e+2, 2.954747e+2, 101361.56, -112127.86, 46199.766, -0.109203205, -0.063940935, 110930.44, 155272.36, 0.00003447301, 10.001569, 9.998775 
7.9514253e+2, 3.054726e+2, 210087.33, -152446.02, 64104.727, 0.05321637, -0.086548105, 221088.75, 221088.75, 0.0001104858, 10.002498, 9.997723 
7.951536e+2, 3.1547067e+2, 416088.03, 17234.697, 35076.43, -0.04967166, -0.09402352, 419149.25, 419149.25, 0.000240168, 10.003522, 9.998396 
8.0494297e+2, 1.2547147e+2, -1798473.5, -1634217.9, -13276.811, 0.07237683, -0.07876411, -1633151.8, 77220.91, 0.0000000057252847, 9.998831, 10.001106 
8.0495566e+2, 1.354718e+2, -1777323.5, -1629151.4, -9914.492, 0.18518874, -0.13842021, -1628490.9, -16122.219, 0.0, 9.998593, 10.000588 
8.049655e+2, 1.4547259e+2, -1681206.5, -1618940.1, -19232.47, 0.062498745, -0.06537501, -1613478.6, -99116.336, 0.0, 9.9989395, 9.999794 
8.0497605e+2, 1.5547316e+2, -1421115.4, -1445254.3, -30548.553, 0.02504705, -0.027083559, -1400338.5, 16021.405, 0.0, 10.000062, 9.999779 
8.049869e+2, 1.6547371e+2, -1280163.8, -1268518.5, -19985.713, 0.023256483, 0.02959751, -1253524.5, 64831.285, 0.0, 10.000118, 10.000294 
8.04998e+2, 1.7547406e+2, -1301490.3, -1234124.6, -40780.887, 0.064253025, 0.010425586, -1214915.0, 5437.1836, 0.0, 9.999326, 10.000238 
8.0500954e+2, 1.854736e+2, -1257216.4, -1256985.1, 19132.182, 0.090693936, -0.008045447, -1237968.3, -115612.98, 0.0, 9.999367, 9.999383 
8.050214e+2, 1.9547212e+2, -1067951.6, -1117826.3, 8180.142, 0.09483989, -0.1239704, -1066644.1, -42276.85, 0.0, 10.000004, 9.999363 
8.050319e+2, 2.0547171e+2, -923644.6, -1025707.0, -50278.766, 0.074226566, -0.08154585, -903036.9, 23334.273, 0.0, 10.000437, 9.999116 
8.050412e+2, 2.1547183e+2, -799562.06, -913819.2, -63429.336, 0.031538475, -0.009705347, -771327.0, 57044.563, 0.0, 10.000613, 9.999122 
8.050518e+2, 2.2547083e+2, -655396.1, -770525.5, 21354.066, 0.016062975, -0.029324796, -651563.0, 78816.6, 0.0, 10.000839, 9.999312 
8.0506355e+2, 2.354686e+2, -533748.0, -668394.44, 2857.8953, 0.015871165, -0.21316715, -533687.4, 98709.21, 0.0, 10.001031, 9.999252 
8.05075e+2, 2.4546762e+2, -525635.2, -721620.4, 11265.876, 0.014343248, -0.18117099, -524989.7, 9417.3545, 0.0, 10.000851, 9.998314 
8.050865e+2, 2.554673e+2, -507904.16, -661391.2, 8468.536, 0.022328299, -0.07741551, -507438.34, -71022.32, 0.0, 10.000289, 9.998329 
8.05098e+2, 2.6546672e+2, -320510.44, -465282.9, 17497.686, 0.040359452, 0.011558236, -318425.63, 19999.162, 0.0, 10.000691, 9.998803 
8.0510974e+2, 2.7546555e+2, -44455.6, -282428.38, -14569.091, 0.07604516, -0.01627049, -43566.977, 196869.83, 0.00000004701224, 10.001906, 9.998802 
8.051208e+2, 2.854643e+2, 116079.78, -165898.88, -18463.877, 0.031944267, -0.008061947, 117283.65, 259731.95, 0.000004093495, 10.0024, 9.998678 
8.0513114e+2, 2.9546273e+2, 208294.7, -76035.65, -67048.66, -0.08814127, -0.072356254, 223312.42, 267774.13, 0.000029631305, 10.002375, 9.998633 
8.0514497e+2, 3.0546144e+2, 200479.86, -132593.73, -31801.355, 0.06711997, -0.023021905, 203489.02, 203489.02, 0.00010221737, 10.002326, 9.997952 
8.051569e+2, 3.1545988e+2, 185425.19, -71589.16, -81583.0, 0.020192685, -0.013291514, 209134.58, 209134.58, 0.00023173698, 10.001856, 9.99859 
8.149431e+2, 1.254596e+2, -1826878.4, -1718644.4, -81054.16, 0.1134956, -0.1952426, -1675301.5, 35180.395, 0.000000004999778, 9.998929, 10.0004835 
8.149532e+2, 1.3546059e+2, -1818870.9, -1725460.0, -6644.571, 0.04197301, -0.118959524, -1724989.8, -112512.85, 0.0, 9.998641, 9.999901 
8.149637e+2, 1.4546095e+2, -1663545.0, -1589537.0, 2998.7917, -0.05965665, -0.06462142, -1589415.8, -74940.01, 0.0, 9.998964, 9.999989 
8.149764e+2, 1.5546085e+2, -1405151.3, -1412080.4, 23608.291, 0.006927506, -0.111349046, -1384754.6, 31722.635, 0.0, 10.000059, 10.000009 
8.1498724e+2, 1.6546106e+2, -1301384.5, -1299111.1, -67108.625, 0.017442951, -0.09097953, -1233129.5, 85345.74, 0.0, 10.000064, 10.000107 
8.149971e+2, 1.754612e+2, -1316203.0, -1254004.3, -52930.26, 0.0063910373, -0.11972187, -1223713.1, -3239.6384, 0.0, 9.999286, 10.000115 
8.150091e+2, 1.8546176e+2, -1250956.9, -1228290.9, 29928.65, 0.08014267, -0.042478397, -1207621.4, -85152.7, 0.0, 9.9992895, 9.999621 
8.1502277e+2, 1.954624e+2, -1066760.5, -1094795.3, 47944.313, 0.2005103, 0.029368687, -1030826.44, -6362.2466, 0.0, 9.999906, 9.999571 
8.15033e+2, 2.0546179e+2, -957022.2, -1052693.3, -59421.22, 0.122102186, 0.04844021, -928574.56, -2104.3093, 0.0, 10.000254, 9.99902 
8.1504047e+2, 2.1545984e+2, -830297.2, -935329.06, -41500.72, -0.12588406, -0.08138586, -815878.56, 12609.631, 0.0, 10.000429, 9.999062 
8.150513e+2, 2.2545888e+2, -689917.4, -792889.06, 12286.23, -0.13872787, -0.0893253, -688471.75, 42023.93, 0.0, 10.000632, 9.999259 
8.15065e+2, 2.3545837e+2, -567389.4, -688203.06, 23264.465, 0.035744336, -0.095783934, -563064.3, 69433.69, 0.0, 10.000816, 9.999219 
8.1507695e+2, 2.4545756e+2, -532801.4, -691649.4, -25921.482, 0.09999514, -0.06109822, -528678.4, 5827.935, 0.0, 10.000663, 9.9986105 
8.150875e+2, 2.5545618e+2, -510558.4, -635477.56, 4458.6294, 0.071353726, -0.08963935, -510399.47, -73876.92, 0.0, 10.0001545, 9.998572 
8.1509894e+2, 2.6545516e+2, -364328.22, -533886.94, 48723.035, 0.036286026, -0.03177291, -351324.78, -12790.246, 0.0, 10.000605, 9.99837 
8.151111e+2, 2.7545404e+2, -107291.93, -365667.28, 47450.574, -0.008741976, -0.008928094, -98853.26, 141693.58, 0.000000004527389, 10.001715, 9.99832 
8.151228e+2, 2.8545246e+2, 38799.867, -309321.2, -33835.598, -0.0457769, 0.034441657, 42058.023, 184623.22, 0.0000024308686, 10.002318, 9.997735 
8.151341e+2, 2.954503e+2, 122776.92, -226686.42, -44608.277, -0.07934338, 0.0054040495, 128381.2, 172971.44, 0.00002455122, 10.002259, 9.997656 
8.1514764e+2, 3.0544943e+2, 215870.05, -98052.36, -58097.285, 0.07241739, 0.13849647, 226277.05, 226277.05, 0.00009685274, 10.002319, 9.998188 
8.1515837e+2, 3.1544793e+2, 221028.34, 46426.31, -14721.706, -0.08239304, 0.12689188, 222260.9, 222260.9, 0.00023260372, 10.001678, 9.999486 
8.249424e+2, 1.2544781e+2, -1973721.4, -1826755.9, -112603.86, 0.21602009, -0.19524351, -1765779.1, -55181.754, 0.0000000017683296, 9.998078, 10.000147 
8.249519e+2, 1.3544886e+2, -1727258.4, -1725876.3, -62536.043, 0.02352878, -0.077774435, -1664027.5, -51433.977, 0.0, 9.999449, 9.999512 
8.2496315e+2, 1.4544888e+2, -1551539.8, -1489963.4, -1892.342, -0.0305136, -0.058845382, -1489905.3, 24689.852, 0.0, 9.999542, 10.000388 
8.2497627e+2, 1.5544896e+2, -1561402.9, -1447048.5, -4265.147, 0.06185385, -0.12727116, -1446889.6, -30297.225, 0.0, 9.998825, 10.000353 
8.2498735e+2, 1.6544905e+2, -1418549.3, -1396975.3, -57403.074, 0.06778917, -0.117061436, -1349354.5, -30763.564, 0.0, 9.999416, 9.999749 
8.249973e+2, 1.7544885e+2, -1090740.0, -1190039.1, -91506.96, 0.028534729, -0.14377622, -1036280.94, 184312.66, 0.0, 10.000999, 9.999737 
8.250092e+2, 1.854494e+2, -1017060.5, -1111356.1, -25414.79, 0.09472633, -0.052405193, -1010646.9, 111943.2, 0.0, 10.000874, 9.999658 
8.250225e+2, 1.9545025e+2, -1154405.6, -1132322.4, -52642.703, 0.226062, 0.037512716, -1089575.8, -64990.95, 0.0, 9.999283, 9.999607 
8.2503325e+2, 2.0544976e+2, -1033978.0, -1042680.2, -62694.5, 0.16402408, 0.043493293, -975483.8, -48894.99, 0.0, 9.999526, 9.999427 
8.25042e+2, 2.1544789e+2, -684932.9, -826887.5, -43975.703, -0.052217662, -0.116661474, -672413.9, 156189.17, 0.0, 10.001261, 9.999404 
8.250531e+2, 2.2544698e+2, -592161.56, -802001.3, -9619.236, -0.059940107, -0.10965743, -591721.5, 138889.13, 0.0, 10.001522, 9.998787 
8.2506627e+2, 2.354465e+2, -644676.94, -778217.4, -58921.88, 0.10694275, -0.06441948, -622396.3, 10220.246, 0.0, 10.000493, 9.998774 
8.250781e+2, 2.4544565e+2, -489966.84, -649941.94, -61380.777, 0.14780676, -0.021702934, -469129.75, 65495.98, 0.0, 10.000873, 9.99879 
8.250888e+2, 2.5544423e+2, -162581.66, -445946.0, -72454.79, 0.07963805, -0.076084726, -145130.13, 291510.16, 0.0, 10.002469, 9.998752 
8.251004e+2, 2.6544288e+2, -99018.35, -438076.8, -18032.865, 0.03166353, -0.042888746, -98061.97, 240592.5, 0.0, 10.002569, 9.998078 
8.2511276e+2, 2.754412e+2, -178145.66, -427902.78, -39034.703, 0.011697036, -0.05023786, -172187.06, 68485.695, 0.0, 10.001358, 9.9980545 
8.251247e+2, 2.8543952e+2, -129993.02, -412516.56, -33163.844, -0.022948142, 0.009868439, -126152.32, 16540.258, 0.000001518397, 10.001263, 9.997536 
8.2513636e+2, 2.954376e+2, 85062.914, -263277.5, -25186.895, -0.05878912, 0.021623177, 86874.64, 131591.19, 0.000022026383, 10.002069, 9.997497 
8.2514966e+2, 3.0543652e+2, 187474.55, -120018.72, -16060.041, 0.0623394, 0.14550658, 188311.06, 188311.06, 0.00009707927, 10.002174, 9.998097 
8.2516026e+2, 3.1543458e+2, 224479.19, 85681.234, -29676.846, -0.039038114, 0.08937697, 230558.25, 230558.25, 0.00024343749, 10.001528, 9.99982 
8.3493984e+2, 1.2543665e+2, -1984911.5, -1839740.4, -101719.16, 0.07973884, -0.029001132, -1787364.1, -76650.13, 0.000000000051048894, 9.998037, 10.000078 
8.3495146e+2, 1.3543676e+2, -1711525.5, -1699436.1, -343.1062, -0.0038131613, -0.010291418, -1699426.5, -86709.38, 0.0, 9.999479, 9.999675 
8.349634e+2, 1.454365e+2, -1523036.9, -1428671.1, -48994.41, -0.00016991081, -0.051954538, -1407834.4, 106884.84, 0.0, 9.999533, 10.000813 
8.349752e+2, 1.5543748e+2, -1532744.6, -1384724.0, -13082.489, 0.03516305, -0.07757229, -1383576.8, 33128.22, 0.0, 9.998813, 10.000783 
8.3498675e+2, 1.6543771e+2, -1467087.6, -1476339.6, -14053.488, 0.032268953, -0.048941858, -1456918.4, -138215.92, 0.0, 9.999329, 9.999249 
8.349985e+2, 1.754372e+2, -1131697.9, -1261359.5, -19812.822, 0.0064085606, -0.054238554, -1128737.9, 91972.805, 0.0, 10.00095, 9.999269 
8.350096e+2, 1.8543665e+2, -1044195.5, -1152809.8, -102409.3, 0.015082858, -0.03570662, -982584.9, 140133.39, 0.0, 10.000806, 9.999411 
8.3502024e+2, 1.9543566e+2, -1181661.0, -1159879.5, -92794.766, 0.0379029, -0.10884385, -1077338.6, -52609.188, 0.0, 9.999162, 9.9994755 
8.350321e+2, 2.0543559e+2, -999375.06, -930622.44, -12603.071, 0.070385344, -0.0991703, -928385.0, -1658.1563, 0.0, 9.999348, 10.000283 
8.350451e+2, 2.1543601e+2, -657142.25, -724895.0, 32329.832, 0.10764631, -0.119176246, -644191.0, 184524.77, 0.0, 10.00107, 10.000194 
8.3505666e+2, 2.2543521e+2, -682822.8, -946976.4, -64763.527, 0.119811475, -0.09192467, -667799.0, 62924.777, 0.0, 10.001329, 9.997888 
8.35067e+2, 2.3543307e+2, -729075.25, -917945.56, -76155.09, 0.09643777, -0.122479945, -702194.3, -69443.234, 0.0, 10.000328, 9.997899 
8.35078e+2, 2.4543202e+2, -508155.53, -651930.56, -15411.887, 0.023742372, -0.062141117, -506522.03, 28241.672, 0.0, 10.000715, 9.998852 
8.350899e+2, 2.5543144e+2, -182791.33, -454343.25, 924.3737, -0.09067218, -0.035475038, -182788.17, 253979.69, 0.0, 10.002316, 9.998769 
8.351019e+2, 2.654299e+2, -124627.445, -465874.03, -76646.87, -0.097725816, -0.018502956, -108202.484, 230581.25, 0.0, 10.002456, 9.997944 
8.351141e+2, 2.7542713e+2, -203501.36, -454293.75, -61568.25, -0.017354468, -0.12122768, -189201.98, 51610.887, 0.0, 10.00124, 9.997933 
8.3512604e+2, 2.8542566e+2, -98501.34, -330081.3, -17031.502, -0.045264494, -0.06595221, -97255.47, 45573.707, 0.0000012583888, 10.001193, 9.998135 
8.351376e+2, 2.9542488e+2, 98413.38, -198326.1, 22992.742, -0.17591777, 0.002071008, 100184.4, 145023.22, 0.000022671806, 10.001911, 9.998023 
8.351505e+2, 3.0542275e+2, 155006.81, -172573.16, -45587.39, -0.101316355, 0.016616246, 161232.63, 161232.63, 0.0001036696, 10.002112, 9.997766 
8.3516127e+2, 3.154216e+2, 184575.39, 39348.27, 15298.053, -0.16842319, 0.074750766, 186169.38, 186169.38, 0.00026239955, 10.001383, 9.99957 
8.449383e+2, 1.2542455e+2, -1890335.3, -1772129.1, -33911.64, 0.116302796, 0.063603334, -1763091.4, -52255.41, 0.0, 9.998582, 10.000278 
8.4495085e+2, 1.35424e+2, -1818104.8, -1714921.0, 13245.967, 0.043943923, -0.022692723, -1713247.6, -100404.3, 0.0, 9.998597, 9.999993 
8.4496325e+2, 1.454236e+2, -1645158.9, -1501695.5, -39661.977, 0.08335797, -0.08526509, -1491460.8, 23385.479, 0.0, 9.9987545, 10.000687 
8.4497446e+2, 1.5542498e+2, -1458643.9, -1368091.1, -82548.445, 0.06474195, -0.05676029, -1319217.6, 97611.65, 0.0, 9.999396, 10.000626 
8.449862e+2, 1.6542552e+2, -1413348.5, -1423036.9, -14057.002, 0.038165804, -0.0014979793, -1403324.5, -84500.336, 0.0, 9.999589, 9.999487 
8.4499854e+2, 1.7542517e+2, -1367094.5, -1351811.0, 738.8433, 0.014036403, -0.011429208, -1351775.4, -130944.97, 0.0, 9.999245, 9.999468 
8.450097e+2, 1.854245e+2, -1219158.3, -1238736.5, -58200.6, 0.009806506, -0.014985245, -1169929.3, -47090.707, 0.0, 9.999622, 9.999382 
8.4501976e+2, 1.9542311e+2, -980249.75, -1073879.0, -63979.805, 0.011525562, -0.12186727, -947786.2, 77066.33, 0.0, 10.000587, 9.999381 
8.4503233e+2, 2.0542297e+2, -774928.4, -846266.1, 46507.723, 0.085328326, -0.10530027, -751986.4, 174864.81, 0.0, 10.000991, 10.000077 
8.450471e+2, 2.1542354e+2, -713654.75, -780356.9, -24342.395, 0.22183104, -0.084487356, -705716.0, 123124.23, 0.0, 10.000798, 9.999951 
8.4505874e+2, 2.2542274e+2, -734204.94, -961956.06, -127378.18, 0.22138883, -0.047931943, -677221.4, 53627.44, 0.0, 10.000948, 9.997955 
8.4506774e+2, 2.3542064e+2, -578050.56, -833927.0, -102078.38, 0.10058037, -0.084642045, -542317.8, 90557.914, 0.0, 10.001343, 9.997971 
8.450787e+2, 2.4541943e+2, -427164.66, -629509.9, 46651.05, 0.0015467698, -0.033364456, -416927.16, 117962.664, 0.0, 10.001343, 9.998705 
8.4509164e+2, 2.554186e+2, -388798.38, -563194.8, 15261.143, -0.07192341, -0.020607527, -387472.97, 49424.27, 0.0, 10.000956, 9.998669 
8.451039e+2, 2.6541728e+2, -321806.22, -540542.6, -59063.363, -0.06302239, 0.015747635, -306876.88, 32034.307, 0.0, 10.001007, 9.998127 
8.4511584e+2, 2.7541527e+2, -157986.38, -412340.0, -51576.633, 0.023257548, -0.028759338, -147925.84, 93007.72, 0.0000000050987805, 10.001454, 9.998125 
8.451279e+2, 2.854139e+2, -27108.24, -271712.22, 46986.688, 0.0071485667, 0.012844012, -18392.957, 124554.92, 0.0000017149706, 10.001566, 9.998353 
8.4514e+2, 2.9541254e+2, 27437.78, -198628.52, 25715.65, -0.092139125, 0.00015881922, 30326.102, 75285.85, 0.0000255943, 10.001282, 9.998312 
8.451522e+2, 3.0540988e+2, 58829.43, -244415.05, -20281.797, -0.09172161, -0.050619055, 60179.914, 60179.914, 0.000114914044, 10.001548, 9.997553 
8.451632e+2, 3.1540874e+2, 241103.81, 25931.953, 49.23158, -0.12422447, 0.035460312, 241103.83, 241103.83, 0.00028702893, 10.001905, 9.999239 
8.54937e+2, 1.2541142e+2, -1878740.8, -1735957.9, -61374.242, 0.052507386, 0.045454763, -1713202.9, -2238.349, 0.0, 9.998546, 10.000539 
8.549495e+2, 1.3541068e+2, -1789897.0, -1640816.5, 22950.863, 0.012856089, -0.11184153, -1637363.3, -24392.092, 0.0, 9.998559, 10.0005045 
8.549623e+2, 1.454104e+2, -1695974.6, -1607485.3, -34136.664, 0.06858446, -0.15092458, -1595847.0, -80872.734, 0.0, 9.998741, 9.999978 
8.5497373e+2, 1.5541157e+2, -1499323.4, -1456013.4, -39358.14, 0.010438067, -0.07102478, -1432746.3, -15781.839, 0.0, 9.999411, 10.000016 
8.549853e+2, 1.6541252e+2, -1361194.4, -1305611.4, -44580.563, -0.04169043, 0.012674474, -1280869.1, 38086.543, 0.0, 9.999548, 10.000314 
8.5499716e+2, 1.754128e+2, -1312541.5, -1229317.5, 3022.0762, -0.083186515, -0.021121334, -1229207.9, -8255.539, 0.0, 9.9992075, 10.000323 
8.550089e+2, 1.85413e+2, -1222198.8, -1228118.9, -36458.035, -0.06313484, 0.013648056, -1188580.8, -65630.49, 0.0, 9.999536, 9.999504 
8.550206e+2, 1.954128e+2, -984439.25, -1067201.4, -14905.634, -0.00053048646, 0.010715343, -981836.56, 43116.07, 0.0, 10.00051, 9.999466 
8.550335e+2, 2.0541205e+2, -893938.6, -1058447.5, 22576.527, 0.07989749, 0.036649022, -890896.6, 36063.668, 0.0, 10.000839, 9.998697 
8.550475e+2, 2.1541044e+2, -828761.8, -971856.25, -15103.834, 0.16539823, -0.02463763, -827184.94, 1791.5583, 0.0, 10.000596, 9.998733 
8.5505897e+2, 2.2540958e+2, -697110.6, -837221.6, -127646.94, 0.1271645, 0.010828837, -621558.75, 109426.98, 0.0, 10.000737, 9.998917 
8.550681e+2, 2.3540907e+2, -538033.3, -712895.6, -71161.9, -0.018829608, 0.038285986, -512733.7, 120257.664, 0.0, 10.001173, 9.998886 
8.5507977e+2, 2.4540788e+2, -476182.13, -692739.8, 17110.89, -0.05389612, 0.06407514, -474838.5, 60165.88, 0.0, 10.001182, 9.998348 
8.550936e+2, 2.554056e+2, -434968.38, -622447.7, 17445.621, 0.005904558, -0.030604986, -433358.8, 3669.4448, 0.0, 10.000794, 9.9983425 
8.5510606e+2, 2.6540494e+2, -302710.94, -474089.44, -57813.688, 0.025851455, 0.05828904, -285031.6, 54006.09, 0.0, 10.000891, 9.998644 
8.551173e+2, 2.7540538e+2, -142606.7, -352562.78, -15945.12, -0.003459665, 0.20767705, -141402.66, 99634.44, 0.0000001292932, 10.001336, 9.998594 
8.5512966e+2, 2.854041e+2, -41482.758, -283212.2, 24931.455, -0.004957803, 0.23987047, -38938.164, 104111.22, 0.0000031613251, 10.001487, 9.998311 
8.551428e+2, 2.9540068e+2, 11456.127, -215361.22, 35541.918, 0.011546565, 0.023099907, 16895.066, 61974.27, 0.000030116835, 10.0012, 9.998242 
8.5515434e+2, 3.053976e+2, 42066.613, -249631.2, -14402.523, -0.05824802, -0.060624223, 42776.008, 42776.008, 0.00012742863, 10.001448, 9.997556 
8.551655e+2, 3.1539652e+2, 162415.86, -93561.67, 49723.254, -0.16696239, 0.038476504, 171735.23, 171735.23, 0.00031382052, 10.001736, 9.998498 
8.6493534e+2, 1.2539732e+2, -1846945.8, -1719246.3, -65843.14, 0.041180745, -0.00244983, -1691378.5, 19727.441, 0.00000000000000000000885557, 9.998747, 10.000562 
8.6494875e+2, 1.3539775e+2, -1746021.9, -1619562.0, -77158.23, 0.08678072, -0.049303032, -1583035.1, 30066.486, 0.0, 9.998824, 10.000541 
8.64962e+2, 1.453979e+2, -1676570.5, -1581785.9, -61029.586, 0.1707883, -0.055968255, -1551908.3, -36807.184, 0.0, 9.998807, 10.000119 
8.64973e+2, 1.553986e+2, -1547065.1, -1474271.0, -42956.69, 0.025675736, -0.033253197, -1454365.1, -37268.76, 0.0, 9.9990425, 10.000082 
8.649847e+2, 1.6539948e+2, -1371277.3, -1269103.8, -22561.96, -0.036700897, 0.022145424, -1264343.4, 54743.66, 0.0, 9.999305, 10.000673 
8.64997e+2, 1.7540017e+2, -1229921.5, -1157750.1, -47137.61, -0.023365162, -0.0069939992, -1134471.4, 86606.08, 0.0, 9.999627, 10.000612 
8.6500925e+2, 1.8540049e+2, -1163470.3, -1199708.8, -59214.66, 0.009714594, 0.027306262, -1119664.8, 3408.334, 0.0, 9.999959, 9.999485 
8.6502135e+2, 1.9540025e+2, -1024284.94, -1090980.3, -79099.84, 0.046796344, 0.02839437, -971790.6, 53284.633, 0.0, 10.0002775, 9.999407 
8.650341e+2, 2.053993e+2, -946799.3, -1112992.1, 2126.2358, 0.07469433, 0.050234042, -946772.1, -19686.146, 0.0, 10.000608, 9.998427 
8.6504734e+2, 2.1539734e+2, -814377.8, -997760.4, 11373.561, 0.08414919, -0.020913579, -813675.06, 15432.699, 0.0, 10.000837, 9.998439 
8.650592e+2, 2.2539657e+2, -603988.6, -748520.8, -42508.973, 0.060596287, 0.021467533, -592413.2, 138702.6, 0.0, 10.001207, 9.999293 
8.6506975e+2, 2.3539662e+2, -437007.9, -624347.44, -65174.785, 0.010643625, 0.06794465, -416564.66, 216549.66, 0.0, 10.00171, 9.99923 
8.650818e+2, 2.4539557e+2, -402556.44, -668481.94, 11551.1455, 0.011377009, 0.09648034, -402055.63, 133070.53, 0.0, 10.001741, 9.99824 
8.650951e+2, 2.5539318e+2, -351477.47, -593162.25, -610.0463, 0.055008855, 0.00070155674, -351475.94, 85677.39, 0.0, 10.001422, 9.99824 
8.6510736e+2, 2.6539254e+2, -236839.72, -414844.1, -24522.666, 0.053834487, 0.08830885, -233523.16, 105639.57, 0.0000000005766255, 10.001233, 9.99888 
8.6511874e+2, 2.7539313e+2, -148015.23, -330052.8, -41907.605, 0.01888461, 0.22976665, -138830.89, 102329.18, 0.000000514823, 10.001198, 9.998811 
8.6513126e+2, 2.8539208e+2, -64464.668, -296377.75, 15455.918, 0.032326553, 0.2765829, -63439.137, 79731.33, 0.0000054394536, 10.001347, 9.998296 
8.65145e+2, 2.9538915e+2, 72951.32, -180854.66, -3538.8293, 0.1062743, 0.11365795, 73000.65, 118197.26, 0.000035908153, 10.0016165, 9.998282 
8.6515653e+2, 3.0538648e+2, 134491.17, -175800.36, 5256.783, 0.0048357625, 0.048103083, 134580.2, 134580.2, 0.00014009468, 10.001932, 9.997833 
8.6516786e+2, 3.153853e+2, 177620.9, -55540.047, 20327.193, -0.0853007, 0.1116115, 179379.78, 179379.78, 0.00033844914, 10.001732, 9.998745 
8.749323e+2, 1.2538262e+2, -1865037.6, -1754561.0, -93824.38, -0.20954883, -0.040192142, -1700922.0, 10334.735, 0.0000000055054987, 9.998735, 10.000321 
8.749484e+2, 1.3538536e+2, -1762623.9, -1641478.6, -62932.074, 0.13262352, 0.15998316, -1614704.4, -1470.4377, 0.0, 9.998787, 10.000396 
8.7496203e+2, 1.4538628e+2, -1625556.1, -1473270.6, -71965.22, 0.24879694, 0.19905815, -1444643.5, 70581.88, 0.0, 9.99879, 10.0008745 
8.749718e+2, 1.5538621e+2, -1495201.1, -1357432.9, -18604.127, -0.029685799, 0.0635953, -1354964.9, 62258.652, 0.0, 9.999014, 10.000891 
8.7498385e+2, 1.6538669e+2, -1387799.9, -1297392.8, -26721.787, -0.08836095, 0.04576365, -1290085.3, 29130.18, 0.0, 9.999266, 10.000504 
8.7499785e+2, 1.7538743e+2, -1246283.4, -1185804.5, -20740.844, 0.06165292, 0.04120056, -1179375.0, 41828.676, 0.0, 9.999598, 10.000434 
8.7501043e+2, 1.8538716e+2, -1191635.0, -1239401.9, -62423.082, 0.100183636, 0.038539235, -1148682.4, -25478.084, 0.0, 9.999881, 9.99925 
8.7502176e+2, 1.9538553e+2, -1053110.1, -1119943.0, -50595.125, 0.027887259, -0.080544315, -1025892.2, -672.04254, 0.0, 10.00015, 9.999267 
8.750337e+2, 2.0538473e+2, -919032.44, -1016158.5, -3837.9421, -0.054540433, -0.076695524, -918881.0, 8347.151, 0.0, 10.000435, 9.99918 
8.750461e+2, 2.153844e+2, -790044.06, -905881.3, 33792.223, -0.15302785, -0.058835268, -780906.9, 48325.17, 0.0, 10.000655, 9.999158 
8.7505895e+2, 2.2538401e+2, -653572.1, -806158.5, -39701.152, -0.10277195, 0.00395783, -643860.5, 87375.96, 0.0, 10.001009, 9.998996 
8.7507224e+2, 2.353833e+2, -489832.4, -679194.0, -30529.506, 0.063578784, 0.0019678415, -485032.03, 148212.48, 0.0, 10.001474, 9.998968 
8.7508446e+2, 2.4538246e+2, -416219.13, -660989.06, -16048.536, 0.073712856, 0.058327403, -415171.38, 120084.37, 0.0, 10.001576, 9.998375 
8.7509567e+2, 2.553813e+2, -366062.2, -586636.8, 5147.343, -0.059726186, 0.0708178, -365942.16, 71330.17, 0.0, 10.001264, 9.998361 
8.7510735e+2, 2.6538017e+2, -253453.38, -439450.0, -40722.832, -0.10013068, 0.11204585, -244928.13, 94357.766, 0.0000000691861, 10.001177, 9.998744 
8.751195e+2, 2.7537873e+2, -171657.31, -353980.53, -24889.584, -0.058431473, 0.055790834, -168320.61, 72980.76, 0.000001269736, 10.001083, 9.998703 
8.751326e+2, 2.853781e+2, -69495.086, -295510.28, 10702.586, -0.0037982252, 0.15049839, -68989.414, 74319.43, 0.000008255043, 10.00129, 9.998336 
8.7514645e+2, 2.953778e+2, 68573.62, -177448.06, 28528.936, 0.05113845, 0.2465472, 71838.54, 117152.66, 0.000042714033, 10.001552, 9.998344 
8.751584e+2, 3.0537626e+2, 162382.4, -98173.43, -7287.279, -0.029610587, 0.26294246, 162586.06, 162586.06, 0.00015288098, 10.001852, 9.9984 
8.751698e+2, 3.1537303e+2, 227936.03, 60102.73, 37257.004, -0.14548184, 0.068312556, 235834.89, 235834.89, 0.00035815634, 10.001668, 9.999577 
8.849314e+2, 1.2536973e+2, -2003712.5, -1803948.0, -2913.1726, -0.105690666, 0.06784776, -1803905.5, -92516.96, 0.00000006865043, 9.997705, 10.000488 
8.849471e+2, 1.3537198e+2, -1767677.5, -1635790.4, -20519.584, 0.15309364, 0.21360917, -1632671.6, -19301.453, 0.0, 9.998707, 10.000482 
8.8496083e+2, 1.4537306e+2, -1601240.5, -1433649.9, -20529.018, 0.26046047, 0.25480434, -1431171.9, 84187.75, 0.0, 9.998866, 10.001097 
8.8497114e+2, 1.5537359e+2, -1531985.3, -1353191.8, -48632.105, 0.025040314, 0.15666686, -1340819.8, 76531.695, 0.0, 9.998684, 10.001066 
8.849837e+2, 1.6537376e+2, -1420986.3, -1326765.4, -21957.285, -0.008229375, 0.10934368, -1321899.8, -2554.387, 0.0, 9.999104, 10.000378 
8.8499826e+2, 1.7537358e+2, -1194062.6, -1175000.4, -44958.78, 0.1358789, 0.027231568, -1138573.5, 82768.06, 0.0, 10.000024, 10.000305 
8.850111e+2, 1.8537313e+2, -1118164.9, -1189792.9, -64719.293, 0.1611993, 0.006357055, -1080011.1, 43332.523, 0.0, 10.000317, 9.999382 
8.8502216e+2, 1.9537196e+2, -1061921.8, -1111496.6, -59001.37, 0.06986176, -0.0810181, -1022712.44, 2642.8716, 0.0, 10.000028, 9.999387 
8.850342e+2, 2.0537159e+2, -940799.25, -976234.44, 26751.678, -0.02083438, -0.06428501, -926430.0, 928.5931, 0.0, 10.000072, 9.999627 
8.85047e+2, 2.1537167e+2, -798144.7, -865026.5, 13561.311, -0.10781002, -0.04470697, -795499.56, 33857.348, 0.0, 10.000407, 9.999562 
8.8506e+2, 2.2537126e+2, -745126.94, -864671.9, -41468.496, -0.0636888, 0.00036004354, -732150.6, -788.8084, 0.0, 10.000433, 9.998866 
8.850732e+2, 2.3537004e+2, -687323.2, -791471.3, -55624.613, 0.08447788, -0.03940249, -663201.4, -29825.355, 0.0, 10.0001745, 9.998823 
8.8508534e+2, 2.4536952e+2, -573525.9, -706711.8, 5496.9136, 0.071722545, 0.04228069, -573299.44, -37914.805, 0.0, 10.000373, 9.998634 
8.8509643e+2, 2.5536922e+2, -373992.5, -565376.9, 2183.8857, -0.08926775, 0.11560658, -373967.6, 63424.54, 0.00000000006372724, 10.00108, 9.998596 
8.851085e+2, 2.6536813e+2, -217468.27, -434899.28, -11236.553, -0.11320445, 0.15307462, -216889.11, 122515.9, 0.00000025387644, 10.001487, 9.998618 
8.851213e+2, 2.75366e+2, -84038.13, -323133.7, -31158.236, -0.010418838, 0.044623453, -80044.39, 161381.77, 0.0000021793016, 10.001737, 9.998595 
8.8513434e+2, 2.8536516e+2, -24172.8, -272555.53, 32872.313, 0.03708917, 0.1217458, -19895.945, 123539.6, 0.000011106664, 10.001611, 9.998321 
8.851476e+2, 2.953651e+2, 17190.793, -203756.13, 12281.468, 0.037170116, 0.2435479, 17871.37, 63310.1, 0.000049522223, 10.00121, 9.998319 
8.851603e+2, 3.0536363e+2, 113682.57, -143204.45, -6104.916, -0.0025056705, 0.27492473, 113827.57, 113827.57, 0.00016467013, 10.001612, 9.998214 
8.851732e+2, 3.1536105e+2, 315966.94, 103938.91, -84259.69, 0.008430904, 0.16961233, 345373.25, 345373.25, 0.00037312726, 10.002282, 9.999591 
8.949317e+2, 1.2535866e+2, -1980375.9, -1733629.3, -1905.9879, 0.08277093, 0.3249221, -1733614.5, -22113.45, 0.00000033567557, 9.997635, 10.000991 
8.949448e+2, 1.3535798e+2, -1743420.3, -1579731.9, 23142.785, 0.011540372, 0.13926154, -1576522.8, 36984.227, 0.00000000007521531, 9.998695, 10.000863 
8.949579e+2, 1.453587e+2, -1632667.8, -1493327.3, -47334.582, 0.04064895, 0.14311345, -1478768.6, 36730.92, 0.0, 9.99884, 10.000702 
8.949705e+2, 1.5536088e+2, -1565363.5, -1416449.1, -34726.457, 0.053716462, 0.25444874, -1408749.1, 8729.155, 0.0, 9.998659, 10.000644 
8.949838e+2, 1.6536082e+2, -1437411.4, -1353079.5, -3681.4785, 0.061474178, 0.21542783, -1352919.1, -33443.434, 0.0, 9.999069, 10.000214 
8.949981e+2, 1.7535864e+2, -1210179.8, -1192431.8, 4647.576, 0.078278996, -0.05654801, -1191288.4, 30202.809, 0.0, 9.999959, 10.000215 
8.9501077e+2, 1.853585e+2, -1100508.9, -1130266.9, -90793.836, 0.06839683, -0.06918992, -1023383.0, 100107.305, 0.0, 10.000211, 9.999845 
8.9502203e+2, 1.953597e+2, -1053535.3, -1057732.1, -55230.926, 0.028786754, 0.039019544, -1000362.9, 25115.955, 0.0, 9.999873, 9.999828 
8.950351e+2, 2.0536001e+2, -952675.1, -967528.8, 24140.37, 0.037293337, 0.0964849, -934845.0, -7369.6396, 0.0, 9.999921, 9.999763 
8.950496e+2, 2.1535921e+2, -816935.94, -855918.4, 43800.59, 0.08469007, 0.009933705, -788485.5, 40996.34, 0.0, 10.000201, 9.999722 
8.950619e+2, 2.2535834e+2, -777110.8, -887293.1, -64813.62, 0.053626414, 0.0038157806, -747138.2, -15646.815, 0.0, 10.000234, 9.998812 
8.950722e+2, 2.3535708e+2, -715415.25, -805416.75, -49104.24, -0.05993588, -0.037169952, -693810.5, -60303.9, 0.0, 9.999982, 9.99882 
8.9508396e+2, 2.4535687e+2, -565482.44, -660250.56, 15545.9795, -0.12724197, 0.054610215, -562997.44, -27486.094, 0.0, 10.00024, 9.999021 
8.95097e+2, 2.5535715e+2, -377218.1, -526933.94, 44357.777, -0.16162361, 0.14778471, -365062.7, 72448.54, 0.0000000002378373, 10.000885, 9.998959 
8.951103e+2, 2.6535663e+2, -241171.5, -457221.38, -15298.64, -0.108865656, 0.22944346, -240093.56, 99424.27, 0.00000030747992, 10.001372, 9.998519 
8.9512366e+2, 2.7535504e+2, -114520.164, -356264.38, -1962.7996, 0.019520901, 0.190539, -114504.234, 127030.08, 0.0000026197797, 10.001614, 9.998426 
8.951361e+2, 2.853532e+2, -38748.707, -296830.5, 2154.8633, 0.011968655, 0.18504985, -38730.715, 104820.9, 0.000013171274, 10.0015745, 9.998174 
8.9514774e+2, 2.95351e+2, -4116.786, -230208.1, 15792.803, -0.108154975, 0.105180226, -3018.9666, 42552.625, 0.000055655084, 10.001122, 9.99818 
8.9516175e+2, 3.0534863e+2, 33516.094, -275995.63, 8541.273, -0.04449415, 0.09569311, 33751.62, 33751.62, 0.00017580122, 10.0014925, 9.99735 
8.9517695e+2, 3.153474e+2, 241041.55, 3316.5554, -21112.805, 0.09195734, 0.21181531, 242902.06, 242902.06, 0.00038747952, 10.002076, 9.998982 
9.049312e+2, 1.2534429e+2, -1809906.9, -1624461.6, 54169.715, 0.23975438, 0.24388659, -1609797.9, 101840.76, 0.0000010657902, 9.998644, 10.001265 
9.04943e+2, 1.353441e+2, -1822762.5, -1605248.4, 6662.5034, 0.010514367, 0.08903711, -1605044.5, 8594.662, 0.000000007369457, 9.998078, 10.000989 
9.0495616e+2, 1.4534497e+2, -1732304.6, -1572885.1, -21094.566, 0.02403144, 0.11343381, -1570141.1, -54510.227, 0.0, 9.998265, 10.000439 
9.049701e+2, 1.5534677e+2, -1485351.3, -1407375.6, -33873.633, 0.1294831, 0.2102237, -1394715.9, 22898.992, 0.0, 9.999312, 10.0004 
9.049839e+2, 1.6534689e+2, -1356251.0, -1318416.4, 40253.363, 0.1443852, 0.2013877, -1292856.8, 26755.959, 0.0, 9.999643, 10.000186 
9.049978e+2, 1.7534517e+2, -1303305.9, -1239001.9, 20727.297, 0.09674814, -0.018396115, -1232899.9, -11273.745, 0.0, 9.999322, 10.000207 
9.0501076e+2, 1.8534538e+2, -1172177.4, -1125384.0, -49927.945, 0.09018121, -0.013774905, -1093642.6, 29979.266, 0.0, 9.999536, 10.000204 
9.050228e+2, 1.953469e+2, -972247.06, -986041.06, -48880.984, 0.10701695, 0.09040322, -929778.94, 95826.98, 0.0, 10.0002575, 10.000146 
9.050361e+2, 2.0534733e+2, -904796.0, -951046.1, 35796.523, 0.13182905, 0.14759533, -885304.6, 42296.957, 0.0, 10.000288, 9.999688 
9.0505016e+2, 2.1534641e+2, -889514.7, -898655.7, 1200.3519, 0.15867803, 0.05594751, -889359.7, -59748.492, 0.0, 9.999741, 9.999645 
9.0506244e+2, 2.2534572e+2, -794390.1, -872480.8, -55421.094, 0.10367903, 0.06373529, -765641.4, -34022.074, 0.0, 10.000036, 9.999006 
9.050729e+2, 2.3534496e+2, -533566.75, -698873.56, -53979.676, -0.031091815, 0.056978498, -517501.38, 116127.68, 0.0, 10.001159, 9.998986 
9.05085e+2, 2.4534445e+2, -405349.75, -574389.6, 19608.365, -0.09317721, 0.109146416, -403105.03, 132529.86, 0.0, 10.001312, 9.999087 
9.0509844e+2, 2.5534388e+2, -406688.84, -530069.7, -8455.014, -0.09127817, 0.108726315, -406112.13, 31528.178, 0.0, 10.000652, 9.999038 
9.051121e+2, 2.6534313e+2, -325306.94, -510922.2, -24580.838, -0.034565743, 0.1728788, -322106.88, 17540.906, 0.0000002007212, 10.000863, 9.998396 
9.0512586e+2, 2.753419e+2, -85473.21, -350323.94, -44497.242, 0.07540041, 0.17804238, -78197.17, 163464.02, 0.0000025589381, 10.001859, 9.998344 
9.051383e+2, 2.8533983e+2, 71728.91, -252910.9, -26731.656, 0.04719016, 0.16006023, 73915.33, 217594.94, 0.000014749117, 10.002365, 9.998109 
9.0514964e+2, 2.9533708e+2, 172224.67, -146526.13, -40969.805, -0.0830322, 0.032949664, 177406.38, 223109.48, 0.00006245814, 10.002355, 9.998163 
9.051642e+2, 3.0533424e+2, 185217.81, -217859.94, 40866.133, 0.0109010665, -0.015857922, 189319.3, 189319.3, 0.00018874744, 10.00258, 9.997239 
9.0518e+2, 3.1533325e+2, 287176.7, -27288.912, 7628.8955, 0.17840894, 0.1395741, 287361.66, 287361.66, 0.0004049675, 10.002575, 9.99856 
9.149288e+2, 1.2532687e+2, -1805741.4, -1608276.1, -16786.305, 0.060457896, -0.16219783, -1606859.4, 104939.04, 0.000002613721, 9.998638, 10.001371 
9.149415e+2, 1.353303e+2, -1828069.8, -1606889.5, -2390.656, 0.014548666, 0.047115415, -1606863.6, 6903.0737, 0.00000007607973, 9.998051, 10.000987 
9.149552e+2, 1.4533171e+2, -1749856.0, -1594532.1, -848.8542, 0.0595963, 0.13329281, -1594527.5, -78772.516, 0.0, 9.998204, 10.000318 
9.1496956e+2, 1.5533142e+2, -1494173.5, -1419644.3, 21105.578, 0.1114287, 0.0308593, -1414082.5, 3677.0737, 0.0, 9.999292, 10.000321 
9.149834e+2, 1.6533217e+2, -1355217.4, -1313218.5, 9443.1875, 0.09847734, 0.08535351, -1311192.9, 8561.26, 0.0, 9.999626, 10.00023 
9.149969e+2, 1.7533341e+2, -1305631.8, -1237102.9, 25417.0, 0.050952245, 0.15614997, -1228705.0, -6961.051, 0.0, 9.999288, 10.000237 
9.150106e+2, 1.8533397e+2, -1163159.0, -1088179.0, -36591.86, 0.08392627, 0.18044162, -1073281.4, 50455.504, 0.0, 9.9994545, 10.0005 
9.1502404e+2, 1.9533367e+2, -976125.3, -958617.5, -6390.0693, 0.1767487, 0.07346859, -956533.4, 69201.984, 0.0, 10.000109, 10.000406 
9.150366e+2, 2.0533367e+2, -956809.6, -1020550.2, 1444.2579, 0.13460924, 0.09494649, -956776.9, -29040.938, 0.0, 10.000122, 9.99929 
9.150484e+2, 2.1533346e+2, -945754.56, -968836.3, -3350.732, -0.017365068, 0.11583092, -945278.0, -115535.305, 0.0, 9.999543, 9.999256 
9.1506124e+2, 2.2533353e+2, -788453.75, -826592.7, -30851.016, -0.046908733, 0.19596033, -771254.4, -39509.92, 0.0, 9.999879, 9.999402 
9.15075e+2, 2.353336e+2, -538234.75, -659990.9, 2845.27, 0.03244977, 0.23333693, -538168.25, 95575.805, 0.0, 10.000949, 9.999353 
9.1508794e+2, 2.4533238e+2, -446728.13, -624755.75, -20465.527, 0.037490945, 0.20805766, -444405.75, 91348.414, 0.0, 10.001151, 9.998821 
9.151001e+2, 2.5532958e+2, -444805.9, -581830.7, -15189.097, -0.021492684, 0.013671715, -443142.4, -5364.6074, 0.0, 10.0005245, 9.998751 
9.151133e+2, 2.653278e+2, -343690.25, -529450.0, -2461.039, -0.026881931, -0.006679001, -343657.63, -3863.9373, 0.00000011562638, 10.000783, 9.998305 
9.1512746e+2, 2.7532664e+2, -108705.02, -368935.84, 9366.999, 0.01830229, 0.0138925705, -108368.3, 133438.05, 0.0000025826089, 10.001731, 9.998281 
9.151406e+2, 2.853252e+2, 58212.613, -252216.64, -44034.703, 0.011383086, 0.055083014, 64338.11, 208156.77, 0.000017159802, 10.002251, 9.998164 
9.151528e+2, 2.953234e+2, 156077.23, -155714.9, -20964.209, -0.048149463, 0.020958582, 157480.5, 203312.94, 0.00007135739, 10.0022545, 9.998149 
9.151671e+2, 3.053204e+2, 204334.83, -148766.19, 32898.742, 0.017742798, -0.06476866, 207373.89, 207373.89, 0.00020564985, 10.002464, 9.997758 
9.1518116e+2, 3.15319e+2, 258834.39, -28722.309, 72508.734, -0.031165523, -0.013995867, 276083.16, 276083.16, 0.00042848263, 10.002353, 9.998639 
9.2492765e+2, 1.2531242e+2, -1923043.6, -1688072.3, -34033.43, 0.1341116, -0.20171104, -1683242.1, 28696.635, 0.0000053718704, 9.997925, 10.001179 
9.249403e+2, 1.3531616e+2, -1782634.9, -1604988.1, -84948.97, 0.08912659, 0.053214032, -1570905.4, 42999.254, 0.00000033393198, 9.998439, 10.0008335 
9.249541e+2, 1.4531721e+2, -1663052.3, -1538048.4, -8826.899, 0.11425419, 0.10813307, -1537428.3, -21532.508, 0.0, 9.998743, 10.000445 
9.2496884e+2, 1.5531646e+2, -1500200.5, -1413301.4, -9564.702, 0.12172134, -0.052335497, -1412261.0, 5642.6216, 0.0, 9.999212, 10.000403 
9.2498296e+2, 1.6531745e+2, -1379825.1, -1324170.6, -13221.696, 0.11471674, 0.021508902, -1321189.3, -1292.852, 0.0, 9.999453, 10.000231 
9.249968e+2, 1.7531969e+2, -1269011.8, -1219899.5, -34133.75, 0.098031156, 0.19369541, -1202406.6, 19471.912, 0.0, 9.999549, 10.000226 
9.250106e+2, 1.853204e+2, -1108116.3, -1060202.3, -56833.26, 0.13604848, 0.23428158, -1022483.06, 101387.79, 0.0, 9.999835, 10.000508 
9.2502445e+2, 1.9531943e+2, -961983.1, -946730.8, -83910.055, 0.21554026, 0.056330554, -870101.1, 155774.36, 0.0, 10.000195, 10.000441 
9.250369e+2, 2.0531918e+2, -938758.75, -1030112.9, -74884.9, 0.15098019, 0.061886627, -896719.56, 31158.951, 0.0, 10.000323, 9.999135 
9.250481e+2, 2.1531923e+2, -839953.06, -931296.2, -82902.6, -0.029134603, 0.12508945, -790974.06, 38909.617, 0.0, 10.000323, 9.999144 
9.2506135e+2, 2.253195e+2, -699667.2, -757458.0, -45260.504, -0.03979868, 0.21763642, -674864.75, 57018.51, 0.0, 10.000365, 9.999641 
9.250762e+2, 2.3531969e+2, -601538.25, -668616.06, -58829.85, 0.095496945, 0.24296108, -567358.56, 66522.02, 0.0, 10.000401, 9.999562 
9.2508984e+2, 2.4531837e+2, -505796.34, -673461.44, -68120.805, 0.13470344, 0.20849451, -481608.8, 54282.426, 0.0, 10.000835, 9.998647 
9.2510223e+2, 2.5531536e+2, -282186.53, -518439.63, -89120.96, 0.08834768, 0.013450375, -252338.66, 185578.39, 0.0, 10.001718, 9.998613 
9.251152e+2, 2.6531345e+2, -190789.47, -460451.63, -36801.26, 0.045770396, -0.016213223, -185857.34, 154077.03, 0.00000007319143, 10.001824, 9.99829 
9.251288e+2, 2.75312e+2, -183531.03, -407142.2, -46780.9, 0.025184905, -0.017443458, -174138.67, 67809.66, 0.0000027897247, 10.001202, 9.998281 
9.2514235e+2, 2.8531057e+2, -95717.39, -329022.38, -59958.125, 0.022530807, 0.023938699, -81210.51, 62750.51, 0.000020180585, 10.001204, 9.998136 
9.251556e+2, 2.9530892e+2, 86318.125, -193480.16, -80861.01, 0.039197363, 0.009524986, 108005.71, 153980.1, 0.00008285034, 10.001781, 9.998114 
9.251699e+2, 3.0530652e+2, 140990.69, -135483.47, -23317.076, 0.09264912, -0.04045813, 142943.39, 142943.39, 0.0002292469, 10.001799, 9.99818 
9.251831e+2, 3.1530496e+2, 65625.914, -110871.61, -28745.598, 0.015392642, -0.04690258, 70189.62, 70189.62, 0.0004645645, 10.00094, 9.998765 
9.3492675e+2, 1.253008e+2, -1964141.5, -1745353.5, -61007.855, 0.17917722, 0.10404208, -1729491.8, -17430.05, 0.000009857008, 9.997833, 10.000819 
9.34939e+2, 1.3530183e+2, -1792822.9, -1629909.8, -54601.94, 0.08657814, 0.10948209, -1613302.4, 748.6513, 0.0000009955157, 9.998473, 10.000634 
9.3495244e+2, 1.4530171e+2, -1643616.9, -1503618.1, -9629.911, 0.033453576, 0.047025356, -1502958.9, 13091.855, 0.00000000002439963, 9.998769, 10.000673 
9.3496746e+2, 1.5530188e+2, -1488531.1, -1376026.4, 23395.24, 0.027334606, -0.043453988, -1371355.4, 46691.383, 0.0, 9.99916, 10.000684 
9.3498224e+2, 1.6530277e+2, -1388598.8, -1330944.4, -28864.795, 0.060680542, 0.0049533984, -1318977.1, 1061.6532, 0.0, 9.999395, 10.0002165 
9.349968e+2, 1.7530407e+2, -1273567.1, -1226355.6, -13905.674, 0.11317904, 0.0879529, -1222564.3, -535.05634, 0.0, 9.999528, 10.000196 
9.3501055e+2, 1.8530472e+2, -1145328.8, -1118018.6, -55520.227, 0.11646648, 0.14091302, -1074498.9, 49524.434, 0.0, 9.999755, 10.000153 
9.3502367e+2, 1.9530423e+2, -1005452.3, -1007811.56, -56147.668, 0.080362365, 0.04732789, -950471.9, 75553.8, 0.0, 10.00007, 10.000086 
9.350364e+2, 2.0530398e+2, -943916.3, -1009122.8, -90497.4, 0.042842686, 0.059714902, -880328.4, 47700.098, 0.0, 10.000181, 9.999348 
9.3504894e+2, 2.1530372e+2, -853225.2, -921486.1, -65958.305, -0.00090996147, 0.07327003, -813090.06, 16944.006, 0.0, 10.000151, 9.999301 
9.350623e+2, 2.2530365e+2, -727591.9, -766432.25, -58159.492, -0.0020057536, 0.12260881, -685695.94, 46339.73, 0.0, 10.000158, 9.999679 
9.3507624e+2, 2.3530336e+2, -627991.2, -677424.7, -42506.65, 0.031587318, 0.094769634, -603537.5, 30499.848, 0.0, 10.000203, 9.999599 
9.350902e+2, 2.453026e+2, -535588.5, -699242.56, -51535.355, 0.06502033, 0.11975781, -520712.1, 15332.366, 0.0, 10.00068, 9.998545 
9.3510437e+2, 2.5530112e+2, -314099.38, -550193.8, -41364.58, 0.103490725, 0.08917321, -307061.94, 130997.43, 0.0, 10.001557, 9.99848 
9.351175e+2, 2.6529983e+2, -202101.23, -446371.75, -72073.03, 0.06509502, 0.12081549, -182421.33, 157650.19, 0.00000003612581, 10.001674, 9.998452 
9.351297e+2, 2.752982e+2, -195761.81, -399925.34, -49638.24, -0.04325862, 0.08604239, -184333.03, 57752.77, 0.0000027030533, 10.001073, 9.998385 
9.351431e+2, 2.8529623e+2, -113688.97, -354017.84, -51344.67, -0.053141695, 0.07510233, -103179.125, 40925.31, 0.000022488803, 10.001141, 9.997996 
9.3515754e+2, 2.9529378e+2, 65038.125, -221032.03, -38409.387, 0.017515557, -0.008770959, 70105.42, 116233.23, 0.00009525127, 10.0017, 9.997967 
9.35172e+2, 3.0529258e+2, 150293.23, -93464.21, -63666.625, 0.09633015, 0.051889826, 165920.38, 165920.38, 0.00025879213, 10.001717, 9.998506 
9.3518484e+2, 3.1529212e+2, 59824.14, -89379.34, 7658.775, 0.021229304, 0.11905122, 60216.242, 60216.242, 0.0005142612, 10.000811, 9.998971 
9.4492495e+2, 1.252878e+2, -1880802.0, -1712534.4, 47531.77, 0.20269382, 0.21936175, -1700036.0, 12156.521, 0.000016753027, 9.99841, 10.0007715 
9.449383e+2, 1.3528799e+2, -1651070.9, -1574144.1, 11272.536, 0.12848917, 0.14602363, -1572526.4, 41662.773, 0.000002343361, 9.999489, 10.000527 
9.4495213e+2, 1.4528753e+2, -1539884.6, -1480125.5, 50165.836, 0.089562386, 0.06517131, -1451615.0, 64576.953, 0.0000000053592455, 9.999584, 10.000444 
9.4496673e+2, 1.5528794e+2, -1512651.0, -1421739.6, 10006.622, 0.053044267, 0.02275391, -1420651.3, -2464.8494, 0.0, 9.999119, 10.000403 
9.4498163e+2, 1.6528854e+2, -1416866.3, -1321300.9, -6698.6113, 0.08199383, 0.049244925, -1320833.6, -654.17535, 0.0, 9.999107, 10.000416 
9.449966e+2, 1.7528914e+2, -1264465.6, -1202722.9, -9322.176, 0.14942157, 0.040483743, -1201346.0, 20827.418, 0.0, 9.999513, 10.000361 
9.450105e+2, 1.852895e+2, -1168663.9, -1172763.9, -15514.561, 0.14336391, 0.0778704, -1155064.4, -30894.332, 0.0, 9.999805, 9.999737 
9.450236e+2, 1.9528918e+2, -1032597.25, -1062562.4, -50502.45, 0.081581324, 0.04368763, -994901.8, 31271.729, 0.0, 10.000089, 9.999684 
9.4503677e+2, 2.0528892e+2, -883919.0, -969587.5, -63214.523, 0.048516665, 0.06526525, -850393.25, 77783.7, 0.0, 10.000531, 9.999455 
9.4504994e+2, 2.1528846e+2, -726679.06, -846443.5, -75893.16, 0.04459184, 0.046311513, -689888.4, 140294.02, 0.0, 10.000957, 9.999422 
9.450633e+2, 2.2528815e+2, -625197.4, -745823.25, -58954.73, 0.043909978, 0.08089264, -601169.9, 131016.16, 0.0, 10.001006, 9.999404 
9.450768e+2, 2.352876e+2, -560203.56, -671735.44, -96411.984, 0.050615374, 0.058108103, -504591.28, 129600.125, 0.0, 10.000802, 9.999343 
9.4509095e+2, 2.4528703e+2, -524302.9, -678433.06, -59594.598, 0.07484879, 0.1064151, -503948.53, 32249.318, 0.0, 10.00069, 9.998677 
9.451056e+2, 2.552861e+2, -435822.4, -588251.44, -60491.996, 0.12745906, 0.11382205, -414733.6, 23474.564, 0.0, 10.000636, 9.998649 
9.451191e+2, 2.652851e+2, -280946.03, -483596.56, -67525.625, 0.096504815, 0.16530985, -260507.11, 79711.06, 0.000000027783642, 10.00112, 9.998469 
9.4513166e+2, 2.7528363e+2, -55809.098, -331807.8, -89135.89, 0.0026362487, 0.14620115, -29525.072, 212706.98, 0.000002329391, 10.002022, 9.998406 
9.4514525e+2, 2.8528187e+2, 3979.2068, -293993.0, -70011.26, 0.011983736, 0.15454234, 19609.127, 163859.08, 0.000023981273, 10.001942, 9.998029 
9.451598e+2, 2.952796e+2, -54312.918, -275920.72, -80473.05, 0.1204661, 0.090304084, -28173.705, 18099.26, 0.00010679835, 10.0008745, 9.997993 
9.451737e+2, 3.0527842e+2, 38579.223, -146411.95, -62625.918, 0.14730984, 0.15574044, 57786.094, 57786.094, 0.00028981623, 10.00097, 9.9985 
9.451864e+2, 3.1527707e+2, 223120.77, 16427.002, -65479.67, 0.066237666, 0.13779643, 242118.33, 242118.33, 0.00057081727, 10.001835, 9.9992075 
9.5492107e+2, 1.2527366e+2, -1885864.8, -1704042.5, 41052.74, -0.09661278, 0.14853199, -1695203.3, 17126.182, 0.00002677623, 9.998363, 10.000832 
9.5493764e+2, 1.3527475e+2, -1658325.1, -1571490.3, 62974.746, 0.086631164, 0.15857029, -1538416.5, 75900.92, 0.0000047533053, 9.999436, 10.000554 
9.5495266e+2, 1.4527462e+2, -1600531.1, -1595761.4, 11201.687, 0.13838613, 0.1482537, -1586693.5, -70373.97, 0.000000046136613, 9.999531, 9.999681 
9.549662e+2, 1.5527475e+2, -1559652.8, -1526223.9, 8027.4717, 0.047814235, 0.15288733, -1524396.1, -106075.04, 0.0, 9.999147, 9.999672 
9.549806e+2, 1.6527502e+2, -1392876.9, -1271000.8, -7150.446, 0.031603344, 0.16328335, -1270582.6, 49733.74, 0.0, 9.999104, 10.000763 
9.5499575e+2, 1.7527503e+2, -1246631.5, -1156405.3, 20414.428, 0.08035567, 0.05755561, -1152001.3, 70308.48, 0.0, 9.999471, 10.000699 
9.550101e+2, 1.8527487e+2, -1209758.6, -1248767.5, -20085.549, 0.09359637, 0.053186666, -1201265.8, -76955.82, 0.0, 9.99975, 9.9992485 
9.55024e+2, 1.9527423e+2, -1077661.4, -1138063.1, -24308.521, 0.07341901, 0.03468554, -1069093.8, -42773.96, 0.0, 9.999998, 9.999215 
9.550375e+2, 2.0527388e+2, -903617.6, -972312.2, -64395.066, 0.040088825, 0.06896279, -864982.3, 63342.42, 0.0, 10.00037, 9.999515 
9.550505e+2, 2.1527345e+2, -757061.8, -858119.2, -47154.973, -0.013847265, 0.045973536, -738476.5, 91852.11, 0.0, 10.000735, 9.999451 
9.550639e+2, 2.2527306e+2, -694406.5, -841085.75, -82481.34, -0.01851164, 0.10052497, -657374.6, 74959.22, 0.0, 10.000796, 9.998851 
9.550776e+2, 2.3527238e+2, -628804.5, -769025.44, -86239.61, 0.020311372, 0.121106885, -587772.06, 46571.438, 0.0, 10.000603, 9.998775 
9.550914e+2, 2.4527158e+2, -522110.28, -629768.9, -74225.805, 0.03290697, 0.15409273, -484249.53, 52102.53, 0.0, 10.00051, 9.999091 
9.551055e+2, 2.5527033e+2, -429764.63, -544324.75, -44601.395, 0.020919032, 0.08684331, -414447.9, 23915.248, 0.0, 10.000504, 9.99901 
9.5511967e+2, 2.6526934e+2, -311634.25, -514994.3, -47772.91, 0.019365543, 0.13152409, -300970.72, 39402.867, 0.000000030362223, 10.000989, 9.998314 
9.551341e+2, 2.7526826e+2, -88373.734, -362179.1, -36014.934, 0.013454306, 0.16106887, -83715.76, 158671.4, 0.000002140531, 10.001868, 9.998267 
9.5514816e+2, 2.8526732e+2, -667.53485, -275325.72, -124109.21, 0.07592791, 0.2537515, 47104.363, 191502.9, 0.000025889522, 10.001821, 9.998214 
9.551618e+2, 2.952664e+2, -51071.8, -254999.6, -95731.63, 0.19509393, 0.29836753, -13174.402, 33235.426, 0.00011778403, 10.0008135, 9.998163 
9.551747e+2, 3.052643e+2, 4146.641, -205261.81, -33312.348, 0.1215577, 0.2845655, 9318.196, 9318.196, 0.00031950467, 10.000913, 9.998127 
9.551869e+2, 3.1525958e+2, 216835.86, 32592.559, 17854.984, -0.14126624, -0.032051336, 218550.22, 218550.22, 0.00062882464, 10.001702, 9.999385 
9.649195e+2, 1.2525895e+2, -1874169.6, -1710815.6, 47929.152, -0.079549186, 0.062457114, -1697791.4, 14679.007, 0.000040530904, 9.998454, 10.000767 
9.6493673e+2, 1.352605e+2, -1817268.3, -1647856.5, 21705.063, 0.11812238, 0.12000919, -1645119.9, -30665.559, 0.000008656152, 9.998324, 10.000584 
9.6495235e+2, 1.4526057e+2, -1717912.1, -1668615.8, 40366.75, 0.20518242, 0.1380066, -1645967.0, -129511.8, 0.00000019058375, 9.998829, 9.999499 
9.6496606e+2, 1.5526067e+2, -1410958.6, -1476506.5, 39250.87, 0.07249893, 0.16108218, -1392597.8, 25860.148, 0.0, 10.000297, 9.999443 
9.6498054e+2, 1.6526058e+2, -1192615.6, -1225850.6, 20658.938, 0.043607514, 0.17278221, -1182720.3, 137737.36, 0.0, 10.000724, 10.000282 
9.649958e+2, 1.7525996e+2, -1167933.5, -1174350.9, -49415.266, 0.1129325, 0.05376306, -1121622.9, 100835.4, 0.0, 10.00026, 10.000189 
9.6501017e+2, 1.8525964e+2, -1164814.8, -1230386.6, -66746.69, 0.11797636, 0.056972317, -1123236.5, 1224.1709, 0.0, 10.000051, 9.999244 
9.6502376e+2, 1.9525924e+2, -1073781.8, -1141356.0, -62574.773, 0.058005426, 0.0665303, -1036455.06, -9987.272, 0.0, 10.000027, 9.999193 
9.650374e+2, 2.0525892e+2, -946923.56, -989169.44, -51521.367, 0.022637319, 0.10556692, -912363.2, 16109.016, 0.0, 10.0000925, 9.999516 
9.650513e+2, 2.1525836e+2, -821635.9, -887581.0, -74761.0, 0.01606501, 0.06799217, -772899.25, 57578.27, 0.0, 10.000309, 9.99944 
9.6506476e+2, 2.2525796e+2, -719217.25, -853528.1, -65077.594, 0.008992827, 0.12151222, -692858.25, 39624.523, 0.0, 10.000617, 9.998858 
9.650782e+2, 2.3525739e+2, -570339.6, -733378.7, -56413.613, 0.009788469, 0.15025097, -552723.25, 81768.016, 0.0, 10.000972, 9.9988365 
9.650921e+2, 2.4525647e+2, -398882.75, -581497.44, -8067.199, 0.013761062, 0.17047958, -398527.1, 137973.88, 0.0, 10.001386, 9.999015 
9.6510667e+2, 2.5525498e+2, -244015.02, -464819.63, -44138.81, 0.031809777, 0.09340085, -235518.61, 202995.58, 0.0, 10.00182, 9.998933 
9.6512103e+2, 2.6525402e+2, -233996.77, -454909.38, -32131.766, 0.040211715, 0.13223967, -229418.1, 111106.195, 0.000000012060779, 10.001417, 9.998517 
9.6513516e+2, 2.7525306e+2, -322954.38, -457504.94, -29915.03, 0.032353934, 0.15732063, -316603.06, -74067.18, 0.0000023356135, 10.0001745, 9.998426 
9.651496e+2, 2.8525215e+2, -178161.44, -365619.6, -55449.477, 0.11348306, 0.24619702, -162987.88, -18440.424, 0.000028869204, 10.00063, 9.998153 
9.651643e+2, 2.952512e+2, 199803.22, -143737.56, -88917.69, 0.283947, 0.29418954, 221453.16, 268013.53, 0.00012892728, 10.002594, 9.998059 
9.65177e+2, 3.0524918e+2, 275722.03, -95501.07, -26655.225, 0.18316565, 0.30249092, 277626.22, 277626.22, 0.00034703137, 10.002842, 9.997955 
9.6518886e+2, 3.152454e+2, 124589.59, 10058.016, -25057.605, -0.0564928, 0.09066956, 129831.84, 129831.84, 0.0006841425, 10.000962, 9.999579 
9.749192e+2, 1.2524334e+2, -1874605.0, -1697371.6, -15351.098, -0.027182521, -0.056310225, -1696051.9, 16566.686, 0.000058506626, 9.998404, 10.000878 
9.7493494e+2, 1.3524537e+2, -1798757.4, -1610038.4, 26318.053, 0.07935483, 0.028447816, -1606437.0, 8161.206, 0.00001444443, 9.998334, 10.000834 
9.749508e+2, 1.4524566e+2, -1701190.4, -1633999.5, 80146.96, 0.12345644, 0.041489597, -1580691.6, -64095.887, 0.0000005546723, 9.998828, 9.999741 
9.7496593e+2, 1.5524584e+2, -1401142.0, -1448592.1, 112714.53, 0.0016638972, 0.04819681, -1309682.6, 108912.664, 0.0, 10.000268, 9.999648 
9.7498107e+2, 1.6524534e+2, -1293497.3, -1429425.4, -15493.002, -0.005338269, 0.07907299, -1291753.8, 28848.73, 0.0, 10.0006895, 9.998906 
9.749964e+2, 1.7524397e+2, -1263970.3, -1370370.4, -54210.35, 0.11748671, 0.024150992, -1241216.4, -18597.252, 0.0, 10.000239, 9.9988575 
9.750102e+2, 1.852438e+2, -1144174.8, -1166879.3, -80876.38, 0.08652653, 0.08499174, -1073857.8, 50764.293, 0.0, 9.999963, 9.999721 
9.7502255e+2, 1.9524439e+2, -1058396.9, -1079640.9, -47181.336, -0.09439845, 0.13941902, -1020656.6, 5959.55, 0.0, 9.999901, 9.999673 
9.750364e+2, 2.0524427e+2, -980863.2, -1023960.25, -60449.168, -0.12004687, 0.18452531, -938236.6, -9619.08, 0.0, 9.999929, 9.999363 
9.750516e+2, 2.1524319e+2, -856898.75, -921494.94, -51666.16, -0.0042613423, 0.11476106, -828266.06, 2362.8784, 0.0, 10.000133, 9.999298 
9.750654e+2, 2.2524278e+2, -704209.8, -776691.0, -69480.57, -0.009765706, 0.14194581, -662086.3, 70547.04, 0.0, 10.00042, 9.999477 
9.7507805e+2, 2.3524262e+2, -563955.1, -665118.7, -30291.824, -0.1218252, 0.14656287, -555578.4, 79056.5, 0.0, 10.000739, 9.999414 
9.7509253e+2, 2.4524179e+2, -462097.44, -673930.7, -8069.6353, -0.10688914, 0.17654023, -461790.47, 74853.055, 0.0, 10.001214, 9.998468 
9.751086e+2, 2.5524002e+2, -301064.75, -548567.06, -11707.726, 0.020174528, 0.12479039, -300512.16, 138149.81, 0.0, 10.001666, 9.998435 
9.7512263e+2, 2.6523894e+2, -213703.75, -385989.38, -93863.28, 0.027615936, 0.14950293, -172446.0, 168226.13, 0.0000000034767167, 10.0013, 9.999046 
9.751346e+2, 2.7523813e+2, -296582.44, -386110.34, -54615.156, -0.078897275, 0.13319358, -270730.34, -28051.959, 0.0000028342504, 10.000099, 9.998954 
9.7514933e+2, 2.8523657e+2, -214499.6, -423607.75, 5667.4995, -0.007908022, 0.14844607, -214346.11, -69650.86, 0.000032313746, 10.000562, 9.997786 
9.751666e+2, 2.952341e+2, 155858.11, -206588.67, 7817.0967, 0.21216296, 0.08641549, 156026.63, 202750.88, 0.0001399921, 10.002478, 9.997682 
9.7518003e+2, 3.0523288e+2, 252409.69, -114503.86, -106644.484, 0.17498057, 0.1971541, 281154.3, 281154.3, 0.00037284024, 10.002717, 9.997886 
9.751912e+2, 3.152333e+2, 114049.625, 21534.967, -51016.133, 0.0034034003, 0.40481257, 136657.28, 136657.28, 0.00073526404, 10.000823, 9.999722 
9.849187e+2, 1.2522815e+2, -1956060.8, -1767445.3, -18445.24, 0.12050999, -0.038676444, -1765658.4, -52891.88, 0.00008108169, 9.997967, 10.000612 
9.849336e+2, 1.3522953e+2, -1570662.9, -1535319.5, -66325.2, 0.047709867, 0.009694238, -1484352.1, 130401.516, 0.000022462764, 10.000026, 10.000542 
9.8494977e+2, 1.452297e+2, -1491862.5, -1498398.0, -27172.674, 0.08682708, 0.0077102846, -1467761.8, 48990.43, 0.0000013019285, 10.000098, 10.00006 
9.8496574e+2, 1.5523016e+2, -1609874.5, -1515213.3, -28722.23, 0.047810677, 0.008472877, -1507180.0, -88432.555, 0.0, 9.998677, 9.999955 
9.849813e+2, 1.6522999e+2, -1610901.1, -1594321.6, -50021.027, 0.063991256, 0.06369271, -1551908.0, -231156.06, 0.0, 9.998558, 9.998806 
9.8499656e+2, 1.7522904e+2, -1348290.6, -1418812.5, -22398.871, 0.1416151, 0.06214888, -1341777.9, -119010.81, 0.0, 9.999702, 9.998783 
9.8501045e+2, 1.8522896e+2, -1083782.6, -1112430.8, -580.861, 0.10242975, 0.12168807, -1083770.9, 40998.55, 0.0, 10.000283, 9.999933 
9.850229e+2, 1.9522926e+2, -998426.0, -1031170.3, -23752.42, -0.058384597, 0.13177651, -985949.9, 40813.855, 0.0, 10.000243, 9.999839 
9.8503685e+2, 2.0522897e+2, -913669.75, -1029075.06, -7228.495, -0.08489111, 0.16669315, -913218.75, 15547.882, 0.0, 10.000525, 9.999049 
9.8505217e+2, 2.152278e+2, -752330.4, -905022.9, -39246.49, 0.0066434406, 0.11566401, -742833.56, 87947.17, 0.0, 10.000991, 9.999001 
9.850661e+2, 2.252273e+2, -628790.44, -742995.25, -71722.125, -0.0013611708, 0.14924003, -594215.4, 138571.08, 0.0, 10.000935, 9.999467 
9.850789e+2, 2.3522711e+2, -618374.2, -693257.4, -105897.37, -0.09136046, 0.15401481, -543494.25, 91293.48, 0.0, 10.000365, 9.999408 
9.8509365e+2, 2.4522641e+2, -584947.3, -711857.7, -26418.049, -0.06621068, 0.18901442, -579667.7, -42872.984, 0.0, 10.000299, 9.998637 
9.851101e+2, 2.552248e+2, -428080.44, -594355.25, -13696.079, 0.053813536, 0.136515, -426959.84, 11851.49, 0.0, 10.000729, 9.99857 
9.851242e+2, 2.6522356e+2, -210631.4, -387481.2, -88859.945, 0.056338903, 0.14137782, -173696.61, 167125.9, 0.00000001775074, 10.001342, 9.9990225 
9.8513603e+2, 2.7522242e+2, -2645.1792, -249329.56, -127896.33, -0.034285415, 0.09844325, 51694.273, 294525.75, 0.000003544514, 10.002139, 9.998921 
9.851509e+2, 2.8522086e+2, 56412.207, -304633.2, -8697.079, 0.0005576067, 0.119264804, 56621.586, 201469.52, 0.00003520851, 10.002445, 9.997722 
9.851682e+2, 2.952186e+2, 111627.57, -239190.8, -17193.176, 0.15263651, 0.08722602, 112468.17, 159342.55, 0.00014922032, 10.0021925, 9.997615 
9.85182e+2, 3.0521682e+2, 167411.78, -139170.22, -137131.38, 0.14513601, 0.14075111, 219798.06, 219798.06, 0.00039592202, 10.002087, 9.998005 
9.851942e+2, 3.1521735e+2, 254266.06, 92745.016, -141253.6, 0.18976575, 0.35229853, 336216.44, 336216.44, 0.0007798097, 10.001787, 9.9997425 
9.949168e+2, 1.252135e+2, -2016362.4, -1882300.4, 6587.0527, 0.061930403, 0.1224715, -1881977.5, -169064.05, 0.000108580556, 9.99794, 9.999825 
9.949325e+2, 1.3521306e+2, -1630687.9, -1651757.5, 19531.707, -0.09863973, 0.066854835, -1619031.0, -4110.7544, 0.000033028722, 10.000004, 9.999743 
9.9494904e+2, 1.4521268e+2, -1465524.0, -1446431.0, -105121.52, -0.041969646, 0.032900926, -1350423.4, 166501.4, 0.0000026281716, 10.000101, 10.0004225 
9.949651e+2, 1.5521365e+2, -1575807.1, -1448884.5, -67243.1, 0.07094999, 0.048062302, -1419885.3, -970.9677, 0.00000000019976186, 9.99869, 10.00041 
9.9498063e+2, 1.6521464e+2, -1532725.3, -1419563.1, -23443.785, 0.10446487, 0.13158882, -1414898.5, -93993.16, 0.0, 9.998512, 10.000022 
9.9499583e+2, 1.7521526e+2, -1269330.9, -1247680.3, 35840.324, 0.06561761, 0.16424534, -1221066.0, 1835.4944, 0.0, 9.999671, 9.999972 
9.950104e+2, 1.8521503e+2, -1108868.8, -1143765.4, -19253.125, 0.039280776, 0.1618705, -1100333.9, 24569.14, 0.0, 10.000196, 9.999761 
9.9502426e+2, 1.9521375e+2, -1026170.0, -1060694.1, -9726.099, 0.02956745, 0.029169379, -1023618.56, 3293.4902, 0.0, 10.000122, 9.999695 
9.950384e+2, 2.052129e+2, -975153.44, -1107018.1, -7456.6514, -0.007818402, 0.038655065, -974733.1, -45812.242, 0.0, 10.000322, 9.998608 
9.9505264e+2, 2.1521212e+2, -814032.6, -980322.7, -8717.409, -0.074656226, 0.0711063, -813576.9, 17356.156, 0.0, 10.0007715, 9.998583 
9.9506646e+2, 2.252116e+2, -702317.56, -841962.94, -108413.6, -0.080470465, 0.15128691, -643187.9, 89753.164, 0.0, 10.000707, 9.998898 
9.9508005e+2, 2.3521098e+2, -686891.0, -786574.94, -109568.19, -0.033512313, 0.17016827, -616361.0, 18587.553, 0.0, 10.000157, 9.998866 
9.950948e+2, 2.4521036e+2, -553380.1, -609679.75, -24659.537, -0.004101962, 0.20010604, -544106.6, -7152.4526, 0.0, 10.000136, 9.999418 
9.951106e+2, 2.5520936e+2, -399056.28, -494689.84, 19716.035, 0.004616872, 0.1297265, -395151.03, 43810.703, 0.0, 10.000553, 9.99934 
9.9512523e+2, 2.6520804e+2, -282242.22, -499436.16, -72978.03, 0.0066974787, 0.119745374, -259999.23, 80974.836, 0.000000028595345, 10.00119, 9.998324 
9.9513894e+2, 2.7520594e+2, -71976.375, -360912.34, -78456.64, 0.005045796, 0.054557517, -52047.15, 190947.66, 0.000003781716, 10.002006, 9.998218 
9.951535e+2, 2.8520486e+2, 60520.16, -270463.53, -30710.475, -0.010394906, 0.14696687, 63345.527, 208352.1, 0.000036350866, 10.002335, 9.998007 
9.9516886e+2, 2.952046e+2, 121634.33, -193677.52, -2230.453, -0.041581646, 0.28344062, 121650.11, 168661.17, 0.00015456251, 10.002088, 9.997974 
9.9518263e+2, 3.0520123e+2, 163066.03, -127636.56, -153985.16, -0.034139037, 0.14471221, 229465.61, 229465.61, 0.00041193186, 10.002003, 9.998126 
9.951966e+2, 3.1519756e+2, 223011.9, 69396.516, -114931.555, 0.17868915, -0.06856574, 284438.38, 284438.38, 0.0008105773, 10.001617, 9.999661 
1.0049163e+3, 1.251978e+2, -1617616.3, -1712716.0, 53825.535, 0.08813518, 0.15281941, -1593345.6, 119723.016, 0.00014134821, 10.000774, 9.999622 
1.004932e+3, 1.3519718e+2, -1805246.1, -1759000.4, 67905.484, -0.07840253, 0.10022917, -1710388.9, -95311.34, 0.000046426092, 9.998913, 9.999526 
1.0049489e+3, 1.4519672e+2, -1712545.8, -1560277.9, -11715.91, 0.030748699, 0.06842782, -1559381.6, -42298.332, 0.00000474816, 9.998414, 10.00044 
1.004965e+3, 1.5519768e+2, -1445723.3, -1386970.8, -46763.977, 0.16336878, 0.083568856, -1361121.8, 57952.36, 0.000000004412824, 9.999598, 10.000397 
1.0049803e+3, 1.6519882e+2, -1298718.5, -1244478.1, 1849.0144, 0.16670078, 0.15507579, -1244415.1, 76647.39, 0.0, 9.999828, 10.000603 
1.00499496e+3, 1.7519978e+2, -1308120.1, -1202163.5, -17172.01, 0.04854391, 0.16402246, -1199450.0, 23602.387, 0.0, 9.999115, 10.00056 
1.00500986e+3, 1.851997e+2, -1275997.3, -1229515.8, -54494.516, 0.03597184, 0.14822088, -1193513.1, -68461.25, 0.0, 9.999078, 9.999706 
1.00502506e+3, 1.9519828e+2, -1087060.6, -1095386.5, -68411.66, 0.12662853, 0.008686619, -1022685.4, 4377.804, 0.0, 9.999734, 9.999637 
1.0050395e+3, 2.0519759e+2, -991733.5, -1091305.1, -6568.929, 0.090407826, 0.023143122, -991302.0, -62231.223, 0.0, 10.000096, 9.998828 
1.005053e+3, 2.1519718e+2, -894631.0, -1002493.7, 6934.866, -0.06852585, 0.07217536, -894186.94, -63108.535, 0.0, 10.000121, 9.998759 
1.0050669e+3, 2.2519661e+2, -758997.6, -880168.56, -31338.492, -0.08236631, 0.14527461, -751372.4, -18286.068, 0.0, 10.000381, 9.998788 
1.00508116e+3, 2.3519555e+2, -586910.4, -752516.75, -36812.39, 0.03353978, 0.13261838, -579096.1, 56001.82, 0.0, 10.000914, 9.998735 
1.005096e+3, 2.4519472e+2, -437537.13, -572665.2, 61119.29, 0.0695944, 0.15903705, -413994.25, 123111.336, 0.0, 10.001012, 9.999251 
1.0051115e+3, 2.551939e+2, -389686.66, -501113.6, 3402.3708, 0.039356455, 0.118602596, -389582.88, 49529.24, 0.0, 10.000689, 9.999217 
1.0051265e+3, 2.6519257e+2, -316336.22, -532116.06, -39346.81, 0.037048645, 0.12668759, -309385.38, 31739.205, 0.000000017098808, 10.001022, 9.998178 
1.0051412e+3, 2.7519038e+2, -101343.14, -384266.56, -35962.81, 0.05993288, 0.059627756, -96843.42, 146303.88, 0.000003428396, 10.001846, 9.998123 
1.0051558e+3, 2.8518948e+2, 17205.99, -243509.89, 25354.361, 0.024135426, 0.15293434, 19648.79, 164804.6, 0.00003625069, 10.001848, 9.998412 
1.0051703e+3, 2.9518968e+2, -8642.998, -213314.42, 22582.32, -0.047078367, 0.29223037, -6181.004, 40971.805, 0.00015744341, 10.001007, 9.998355 
1.0051843e+3, 3.051857e+2, 80500.94, -188860.72, -65796.8, -0.027240213, 0.08761662, 95713.88, 95713.88, 0.00042211023, 10.001504, 9.997965 
1.0051999e+3, 3.1518102e+2, 385486.56, 96429.02, -110455.04, 0.29854035, -0.2074419, 422861.28, 422861.28, 0.0008305699, 10.002913, 9.999256 
1.01491615e+3, 1.2518108e+2, -1590173.1, -1641950.8, -81381.484, -0.07610379, 0.04300876, -1530661.9, 182569.7, 0.0001798155, 10.00074, 10.0001135 
1.01493165e+3, 1.3518198e+2, -1774957.8, -1695039.5, 11662.124, -0.04176275, 0.09843345, -1693372.4, -78148.38, 0.000062927356, 9.998916, 9.999959 
1.0149488e+3, 1.4518188e+2, -1752812.1, -1635939.3, 10787.425, 0.12805833, 0.10577145, -1634952.0, -117724.89, 0.000007860604, 9.998381, 9.999934 
1.01496525e+3, 1.5518227e+2, -1484094.0, -1463490.9, 13078.807, 0.19312884, 0.11412436, -1457143.8, -37917.56, 0.000000028517778, 9.999587, 9.999872 
1.0149801e+3, 1.6518264e+2, -1305051.8, -1251772.5, -42116.19, 0.12591283, 0.13605179, -1228577.9, 92644.664, 0.0, 9.999803, 10.000565 
1.0149935e+3, 1.7518273e+2, -1311515.1, -1207612.8, -28837.762, -0.0411788, 0.058380853, -1200145.5, 23073.37, 0.0, 9.999105, 10.000527 
1.0150084e+3, 1.8518299e+2, -1284908.9, -1228558.0, -47112.6, -0.044224985, 0.07925203, -1201838.5, -76623.18, 0.0, 9.998995, 9.999752 
1.0150249e+3, 1.9518301e+2, -1100816.4, -1094867.5, -30439.896, 0.10196982, 0.07835825, -1067257.0, -40041.223, 0.0, 9.999608, 9.999701 
1.01503976e+3, 2.0518313e+2, -955222.75, -980033.7, -21776.947, 0.07570101, 0.12905064, -942565.7, -13350.751, 0.0, 9.999944, 9.999664 
1.01505294e+3, 2.1518302e+2, -861304.2, -891276.44, 21193.613, -0.108653486, 0.12092698, -850333.56, -19117.613, 0.0, 9.999944, 9.999604 
1.01506695e+3, 2.2518238e+2, -776237.06, -863702.06, -29299.928, -0.13785204, 0.13550346, -767329.1, -34107.71, 0.0, 10.000159, 9.999005 
1.0150817e+3, 2.3518091e+2, -603143.9, -735770.1, -3651.2332, -0.023799103, 0.057449855, -603043.44, 32191.238, 0.0, 10.000699, 9.99895 
1.0150968e+3, 2.4517965e+2, -541735.25, -744450.4, 29745.03, 0.029583817, 0.08429902, -537460.75, -213.41872, 0.0, 10.00082, 9.998166 
1.01511225e+3, 2.5517827e+2, -483482.0, -665980.56, 7314.2188, 0.020363508, 0.0995837, -483189.34, -43926.688, 0.0, 10.000554, 9.998155 
1.0151276e+3, 2.651771e+2, -300114.66, -468495.75, -20402.014, 0.013338951, 0.14742653, -297677.9, 43597.34, 0.000000011022683, 10.000897, 9.9986725 
1.0151428e+3, 2.7517575e+2, -87031.695, -318365.34, 15459.199, -0.0016548373, 0.11382371, -86003.19, 157285.72, 0.0000031084232, 10.001692, 9.998649 
1.01515755e+3, 2.8517476e+2, 29304.934, -189424.45, -22519.082, -0.018820453, 0.14506496, 31599.299, 176895.25, 0.000035475467, 10.001728, 9.998837 
1.0151718e+3, 2.951738e+2, -1961.6705, -166623.34, 12051.431, -0.041301403, 0.12917039, -1084.3126, 46215.195, 0.00015874387, 10.000875, 9.9987335 
1.0151864e+3, 3.0517024e+2, 36274.402, -257977.69, -21939.969, 0.0048513813, -0.027022896, 37901.29, 37901.29, 0.00042931808, 10.0014105, 9.997531 
1.0152031e+3, 3.151675e+2, 294564.7, -18648.287, -15902.135, 0.25543535, -0.091180496, 295369.97, 295369.97, 0.00084597495, 10.00262, 9.998592 
1.02491565e+3, 1.2516543e+2, -1935945.4, -1767412.9, -87021.86, -0.054842014, 0.059116233, -1730544.5, -17159.02, 0.00022439056, 9.998173, 10.000504 
1.0249317e+3, 1.3516629e+2, -1661416.3, -1603679.3, -44872.094, 0.046671033, 0.08112198, -1579191.5, 36185.22, 0.0000828242, 9.9995365, 10.0002985 
1.0249486e+3, 1.451664e+2, -1557661.9, -1552068.1, 29781.674, 0.2140991, 0.094966926, -1524952.3, -7575.0947, 0.000012107546, 9.999741, 9.999871 
1.02496445e+3, 1.5516692e+2, -1555117.5, -1505683.8, 31555.557, 0.19092947, 0.12333224, -1490317.3, -70941.96, 0.00000009714164, 9.999121, 9.999814 
1.02497935e+3, 1.6516711e+2, -1444346.5, -1354612.0, 2859.685, 0.12275555, 0.1472483, -1354521.0, -33146.637, 0.0, 9.999034, 10.000207 
1.0249934e+3, 1.7516673e+2, -1270264.1, -1222346.3, -44306.645, 0.027644914, 0.060198147, -1195935.5, 27441.0, 0.0, 9.999572, 10.000182 
1.0250084e+3, 1.8516694e+2, -1168407.0, -1161757.3, -32560.984, 0.031180887, 0.08664487, -1132351.9, -6977.635, 0.0, 9.999729, 9.999864 
1.0250244e+3, 1.9516736e+2, -1112102.0, -1087224.0, -37897.727, 0.10576301, 0.11279948, -1059776.1, -32404.793, 0.0, 9.999466, 9.999829 
1.02503955e+3, 2.0516765e+2, -974194.6, -952330.8, -14090.71, 0.08713303, 0.15829477, -945428.6, -16060.735, 0.0, 9.999672, 9.999987 
1.0250539e+3, 2.151675e+2, -788181.2, -820665.1, -43888.625, -0.011832664, 0.11850547, -757625.56, 73741.67, 0.0, 10.000318, 9.999906 
1.02506824e+3, 2.2516689e+2, -694101.8, -810762.44, -88271.2, -0.039653346, 0.11463834, -646629.3, 86742.02, 0.0, 10.000656, 9.999132 
1.0250824e+3, 2.3516552e+2, -611513.6, -727918.6, -97832.9, -0.009801064, 0.03725975, -555879.4, 79503.75, 0.0, 10.000589, 9.999059 
1.0250975e+3, 2.4516417e+2, -535523.94, -755752.6, -4302.771, 0.022205481, 0.05618871, -535439.9, 1956.4086, 0.0, 10.000944, 9.998013 
1.0251136e+3, 2.5516245e+2, -334780.97, -614950.6, 3409.305, 0.05215298, 0.05317211, -334739.5, 104675.05, 0.0, 10.001668, 9.997965 
1.025129e+3, 2.651611e+2, -219659.27, -445973.06, 2138.2979, 0.04266803, 0.1031304, -219639.06, 121790.0, 0.00000001218603, 10.00152, 9.9985285 
1.0251439e+3, 2.751598e+2, -269148.0, -418003.56, -43467.48, 0.0062075695, 0.09070355, -257384.61, -13941.4, 0.0000027111198, 10.0005045, 9.998533 
1.02515906e+3, 2.8515857e+2, -115209.9, -247859.7, -69685.42, 0.019194214, 0.09814191, -85331.625, 60121.145, 0.00003356842, 10.000679, 9.99895 
1.0251742e+3, 2.9515702e+2, 149511.05, -82163.01, -95113.66, 0.0812699, 0.012706109, 183556.72, 231018.13, 0.00015737157, 10.001861, 9.99885 
1.02518894e+3, 3.0515432e+2, 131437.81, -224324.81, -88557.58, 0.09549832, -0.057166032, 152262.83, 152262.83, 0.00043278775, 10.0021305, 9.997403 
1.0252046e+3, 3.1515327e+2, 69500.58, -166674.55, -126143.01, 0.23089364, 0.057143286, 124204.02, 124204.02, 0.00085734465, 10.001225, 9.998241 
1.0349136e+3, 1.2515077e+2, -1913690.9, -1725780.8, -99825.664, -0.15274827, 0.19236645, -1682649.3, 30882.21, 0.00027553758, 9.998191, 10.000777 
1.0349314e+3, 1.3515022e+2, -1648885.3, -1579633.5, 13751.217, 0.045224186, 0.052135386, -1577002.8, 38531.688, 0.000106410545, 9.999539, 10.0004635 
1.034948e+3, 1.451503e+2, -1525977.9, -1486735.1, -15857.3125, 0.13263778, 0.03520684, -1481128.5, 36404.78, 0.000017580353, 9.999747, 10.000316 
1.03496216e+3, 1.5515167e+2, -1519993.0, -1437067.3, 23868.18, 0.01499631, 0.101365775, -1430688.1, -11166.918, 0.00000023822265, 9.999134, 10.000282 
1.03497766e+3, 1.6515225e+2, -1505971.6, -1468010.8, 2604.5518, 0.0053992756, 0.1797349, -1467832.9, -146315.05, 0.0, 9.9989805, 9.99945 
1.03499435e+3, 1.7515182e+2, -1332202.5, -1336546.4, -10269.568, 0.1311923, 0.16310258, -1323877.8, -100352.586, 0.0, 9.999514, 9.999426 
1.03500955e+3, 1.8515165e+2, -1166029.5, -1137478.6, -61555.17, 0.13233098, 0.1787822, -1088565.3, 36962.41, 0.0, 9.999646, 10.000071 
1.0350232e+3, 1.9515137e+2, -1113185.3, -1067609.6, -35708.004, 0.009847183, 0.11058949, -1048037.7, -20508.484, 0.0, 9.999366, 10.000015 
1.0350386e+3, 2.0515113e+2, -1019963.0, -1005174.5, -7315.5425, -0.0025655967, 0.10940721, -1002167.2, -72637.586, 0.0, 9.999489, 9.999711 
1.0350557e+3, 2.1515055e+2, -826970.0, -868156.9, -2794.8127, 0.10117454, 0.05299512, -826781.2, 4751.6855, 0.0, 10.000163, 9.999658 
1.03507034e+3, 2.2515003e+2, -720452.4, -814782.8, -105651.2, 0.080541536, 0.06674758, -651916.56, 81620.09, 0.0, 10.000446, 9.999203 
1.0350828e+3, 2.3514934e+2, -634051.4, -728362.25, -85158.805, -0.061777964, 0.0476936, -583863.8, 51679.58, 0.0, 10.000391, 9.999149 
1.0350977e+3, 2.4514823e+2, -525148.0, -684165.7, 10867.525, -0.08894507, 0.05631418, -524408.75, 13143.984, 0.0, 10.000732, 9.998606 
1.035115e+3, 2.551464e+2, -320553.88, -540524.3, 48122.816, -0.0019722444, -0.01851724, -310486.8, 129080.59, 0.0, 10.00148, 9.998564 
1.0351304e+3, 2.651447e+2, -293345.16, -566498.75, -51831.008, 0.005934879, 0.0050467686, -283840.9, 57743.918, 0.00000000560088, 10.001382, 9.997766 
1.035144e+3, 2.7514273e+2, -343110.7, -538205.9, -60965.9, -0.063002676, -0.0020782545, -325626.22, -82017.055, 0.0000022721786, 10.000371, 9.997768 
1.0351598e+3, 2.8514108e+2, -141518.9, -278477.5, -37833.395, -0.0039078593, 0.012019151, -131762.8, 13862.609, 0.000031172072, 10.000577, 9.998788 
1.03517726e+3, 2.951396e+2, 113267.26, -119079.54, -24244.879, 0.16394325, -0.048095543, 115770.195, 163405.53, 0.00015322318, 10.001697, 9.998674 
1.0351915e+3, 3.0513805e+2, 117045.63, -224175.61, -128170.45, 0.113396704, 0.002609257, 159825.84, 159825.84, 0.00043103905, 10.002009, 9.997458 
1.0352035e+3, 3.1513873e+2, 31214.277, -187155.27, -107907.68, -0.06188016, 0.28585777, 75539.7, 75539.7, 0.0008619147, 10.001002, 9.998197 
1.0449131e+3, 1.2513481e+2, -1746276.8, -1637335.0, -34172.438, -0.060096912, 0.15290217, -1627503.3, 86181.8, 0.0003338259, 9.999273, 10.000871 
1.0449309e+3, 1.3513424e+2, -1780470.4, -1636711.3, 34613.523, 0.10087412, 0.00073994714, -1628811.3, -13122.978, 0.00013404706, 9.998579, 10.000537 
1.04494706e+3, 1.4513452e+2, -1669425.9, -1534373.6, 36851.79, 0.12990944, -0.00891007, -1524972.3, -7287.5615, 0.000024406929, 9.998691, 10.000486 
1.04496166e+3, 1.5513599e+2, -1397713.3, -1351703.6, 12761.532, 0.017575342, 0.049123228, -1348401.0, 71270.05, 0.0000004785213, 9.999891, 10.000488 
1.04497716e+3, 1.6513667e+2, -1339537.0, -1403548.4, 27478.105, 0.016612869, 0.13201113, -1329359.6, -7692.684, 0.0, 10.00017, 9.999338 
1.0449939e+3, 1.7513628e+2, -1322261.0, -1345549.5, 35570.113, 0.14188568, 0.13081107, -1296477.8, -72802.95, 0.0, 9.999625, 9.999323 
1.0450095e+3, 1.85136e+2, -1166691.6, -1168206.4, 31890.994, 0.16451843, 0.15526329, -1135549.0, -9869.871, 0.0, 9.999788, 9.999785 
1.0450238e+3, 1.9513549e+2, -945176.44, -1016471.44, -16442.402, 0.08541186, 0.09558433, -941567.1, 86116.57, 0.0, 10.000659, 9.999736 
1.0450391e+3, 2.0513518e+2, -853618.2, -928803.4, 19644.398, 0.055366125, 0.101772994, -848794.94, 80890.41, 0.0, 10.000646, 9.999675 
1.0450552e+3, 2.151347e+2, -896752.5, -900811.3, 9583.273, 0.07524755, 0.05639164, -888986.1, -57298.34, 0.0, 9.999697, 9.999648 
1.0450702e+3, 2.2513413e+2, -856053.0, -920710.06, -54763.46, 0.06731435, 0.08436988, -824787.75, -91094.805, 0.0, 9.999675, 9.9988575 
1.045084e+3, 2.3513319e+2, -639477.9, -771544.0, -98162.2, 0.031405758, 0.07604217, -587205.44, 48498.72, 0.0, 10.000507, 9.99881 
1.04509935e+3, 2.4513203e+2, -500760.97, -627729.56, -477.22546, 0.021182189, 0.07754157, -500759.2, 36954.805, 0.0, 10.00069, 9.999025 
1.0451162e+3, 2.5513044e+2, -468652.13, -563078.7, -7516.7993, 0.041849624, -0.016765773, -468057.5, -28332.48, 0.0, 10.00025, 9.999005 
1.04513146e+3, 2.6512906e+2, -397937.94, -589604.56, -54666.254, 0.020674815, 0.0032889175, -383442.53, -41704.277, 0.0000000009945924, 10.000536, 9.998027 
1.045145e+3, 2.7512738e+2, -171985.94, -434282.5, -22776.473, -0.038732603, 0.0035373562, -170022.84, 73736.08, 0.0000020282196, 10.001416, 9.997997 
1.0451609e+3, 2.8512585e+2, -16862.637, -243272.56, 79221.38, 0.019270495, 0.030844998, 8104.0015, 153878.88, 0.00002862313, 10.001536, 9.9985695 
1.0451787e+3, 2.9512444e+2, -19950.568, -197430.31, 49829.18, 0.19417801, -0.0057506897, -6917.5957, 40869.38, 0.00014660136, 10.0008545, 9.998533 
1.0451932e+3, 3.0512324e+2, 44168.297, -206117.61, -3042.1245, 0.13360156, 0.059101913, 44205.266, 44205.266, 0.00042212423, 10.0012665, 9.997943 
1.0452051e+3, 3.1512386e+2, 257864.14, -36143.992, -13147.021, -0.057182215, 0.29268506, 258450.84, 258450.84, 0.0008537748, 10.0023365, 9.99861 
1.0549132e+3, 1.2511735e+2, -1742429.4, -1625061.5, -111976.086, -0.0535448, -0.10086122, -1557323.6, 156524.19, 0.00039971265, 9.999272, 10.000947 
1.0549296e+3, 1.3511848e+2, -1781830.5, -1632305.4, 23090.256, 0.073571384, -0.08189091, -1628820.9, -12984.237, 0.00016604259, 9.998555, 10.000577 
1.0549453e+3, 1.4511932e+2, -1685084.1, -1563472.0, 59859.9, 0.046913564, -0.029865956, -1538951.6, -21122.568, 0.000032768716, 9.998672, 10.000297 
1.0549624e+3, 1.5511997e+2, -1414885.6, -1385870.9, 70826.24, 0.06586913, -0.035918646, -1328081.5, 91742.59, 0.0000008393984, 9.999874, 10.000267 
1.0549776e+3, 1.651204e+2, -1302545.3, -1317505.0, -10504.522, 0.014485816, 0.00429524, -1297129.6, 24691.5, 0.0, 10.000132, 9.999943 
1.0549917e+3, 1.7512022e+2, -1283286.9, -1262223.5, 29888.164, -0.07441686, -0.03780858, -1241065.8, -17241.92, 0.0, 9.99961, 9.999902 
1.0550078e+3, 1.8512012e+2, -1240550.4, -1296957.4, 46171.78, -0.010553131, 0.01776991, -1214649.6, -88822.266, 0.0, 9.999684, 9.998952 
1.0550259e+3, 1.9511978e+2, -1018038.6, -1144199.0, 31191.945, 0.198367, 0.056645084, -1010748.0, 17086.354, 0.0, 10.00055, 9.998916 
1.0550408e+3, 2.0511986e+2, -866550.8, -915729.3, -34342.88, 0.13302082, 0.13363534, -848901.9, 80932.65, 0.0, 10.000476, 9.999848 
1.05505235e+3, 2.1511993e+2, -913132.7, -894959.56, -12041.9795, -0.19774382, 0.12745705, -888960.56, -57128.656, 0.0, 9.999516, 9.999782 
1.0550675e+3, 2.2511913e+2, -944000.3, -1052296.3, -37529.215, -0.19277473, 0.16411993, -932266.25, -198425.2, 0.0, 9.99946, 9.998051 
1.0550858e+3, 2.3511708e+2, -720431.44, -896268.44, -51134.61, 0.13913827, 0.12425664, -706642.5, -70777.36, 0.0, 10.000322, 9.998039 
1.0551023e+3, 2.4511571e+2, -510849.25, -606100.06, -32379.557, 0.21515298, 0.12825346, -500884.6, 36994.387, 0.0, 10.000513, 9.999257 
1.0551168e+3, 2.5511464e+2, -475724.6, -540221.75, -9512.61, 0.047415376, 0.060792707, -474350.84, -34464.527, 0.0, 10.00009, 9.999237 
1.05513155e+3, 2.6511407e+2, -337181.9, -426608.34, -36421.465, -0.041099638, 0.09274068, -324225.4, 17664.266, 0.000000000012280949, 10.000384, 9.999212 
1.0551466e+3, 2.7511373e+2, -111171.945, -272561.97, 28936.639, -0.05830933, 0.104295954, -106140.56, 137751.77, 0.0000016155456, 10.0012665, 9.999175 
1.05516225e+3, 2.8511298e+2, -54142.508, -291242.53, 38156.777, -0.037798762, 0.16389458, -48153.188, 97747.01, 0.000025306648, 10.001413, 9.998301 
1.0551782e+3, 2.9511145e+2, -57812.586, -248790.6, 49263.324, 0.021113098, 0.14261791, -45853.813, 2062.9695, 0.00013793015, 10.000737, 9.998243 
1.0551935e+3, 3.0510965e+2, 95439.68, -78613.984, 29506.543, 0.0038776323, 0.11540386, 100305.76, 100305.76, 0.00040720604, 10.001171, 9.998865 
1.05520815e+3, 3.151088e+2, 278347.25, 61593.895, 77045.62, -0.059519056, 0.10864967, 302942.5, 302942.5, 0.00083313056, 10.002097, 9.9994 
1.0649122e+3, 1.251018e+2, -1919964.8, -1738369.3, -43328.277, -0.0054708323, -0.18020257, -1728560.9, -14565.205, 0.00047318285, 9.9981985, 10.000689 
1.0649287e+3, 1.3510342e+2, -1697868.9, -1611017.3, 1516.9202, 0.11589961, -0.08827375, -1610990.8, 4991.0723, 0.00020250746, 9.999246, 10.000387 
1.064944e+3, 1.4510424e+2, -1590663.5, -1545819.9, 79088.86, 0.021124592, -0.014487876, -1486035.9, 31939.537, 0.000042863663, 9.999421, 10.00007 
1.0649619e+3, 1.5510415e+2, -1539768.8, -1468118.1, 48105.26, 0.0832791, -0.07446665, -1443963.6, -23985.52, 0.0000013547858, 9.999109, 10.000073 
1.0649776e+3, 1.6510445e+2, -1407972.9, -1355740.4, -24422.91, 0.04382646, -0.04201726, -1346100.0, -24123.748, 0.0, 9.999348, 10.000063 
1.0649916e+3, 1.7510484e+2, -1205623.3, -1209588.5, -56154.02, -0.060678303, -0.03707349, -1151416.9, 72556.31, 0.0, 10.000082, 10.000039 
1.0650078e+3, 1.8510483e+2, -1153980.1, -1256440.8, 16551.38, -0.0041403947, 0.0210526, -1151372.9, -25397.654, 0.0, 10.00027, 9.998951 
1.06502615e+3, 1.9510412e+2, -1100129.9, -1183733.4, 33255.35, 0.19839977, 0.023408806, -1088515.3, -60530.227, 0.0, 9.999977, 9.998921 
1.0650409e+3, 2.0510396e+2, -969399.2, -1011682.25, -18691.602, 0.13957964, 0.09506609, -962321.25, -32332.674, 0.0, 9.999971, 9.999428 
1.0650525e+3, 2.1510397e+2, -833173.4, -899968.75, -74203.69, -0.16443719, 0.12493316, -785197.9, 46791.023, 0.0, 10.000258, 9.999384 
1.0650677e+3, 2.2510315e+2, -751353.6, -921276.94, -8208.423, -0.16401066, 0.16215849, -750958.0, -16959.965, 0.0, 10.000613, 9.998396 
1.0650864e+3, 2.351012e+2, -595928.3, -792496.3, 34101.89, 0.13674803, 0.095237195, -590180.2, 45838.492, 0.0, 10.001, 9.998415 
1.0651029e+3, 2.4510002e+2, -450481.5, -614294.0, 63812.17, 0.2129621, 0.116834044, -428557.97, 109473.18, 0.0, 10.001083, 9.998928 
1.0651174e+3, 2.550992e+2, -390109.47, -541236.1, 13798.64, 0.0716027, 0.11291176, -388859.9, 51179.74, 0.0, 10.000846, 9.998876 
1.0651325e+3, 2.6509866e+2, -253004.63, -368057.2, -8224.418, -0.007883247, 0.15490936, -252419.69, 89624.45, 0.0, 10.000874, 9.999378 
1.06514804e+3, 2.7509817e+2, -136140.52, -259024.14, -58376.703, -0.01890904, 0.13426267, -112830.125, 131216.67, 0.00000091217555, 10.000999, 9.999389 
1.0651637e+3, 2.8509745e+2, -96725.48, -299063.1, -66982.15, -0.0036164024, 0.17895761, -76561.125, 69492.52, 0.000020761427, 10.001057, 9.998421 
1.0651793e+3, 2.9509598e+2, -811.224, -209618.92, -62445.293, 0.045215193, 0.15225697, 16438.443, 64508.133, 0.00012637535, 10.001055, 9.9983635 
1.0651948e+3, 3.0509427e+2, 133421.55, -32057.955, -16779.756, 0.0300568, 0.119214155, 135105.89, 135105.89, 0.00038601994, 10.001316, 9.999103 
1.0652105e+3, 3.150932e+2, 214089.73, 71428.61, -75036.555, 0.0046404307, 0.05950267, 246289.53, 246289.53, 0.0008001297, 10.001503, 9.999725 
1.0749096e+3, 1.2508802e+2, -1972679.9, -1831324.6, -10214.329, -0.16428263, -0.104300685, -1830590.4, -116460.01, 0.00055371417, 9.998155, 10.000058 
1.0749278e+3, 1.350891e+2, -1741624.0, -1693050.0, 47997.797, 0.0746953, -0.014895466, -1663544.4, -47420.78, 0.00024334127, 9.999219, 9.99983 
1.07494265e+3, 1.4508933e+2, -1603938.4, -1578227.3, 41923.355, -0.1103264, 0.03772934, -1547232.6, -29108.863, 0.00005483326, 9.999428, 9.99985 
1.07495986e+3, 1.550885e+2, -1550780.1, -1497292.4, 51549.98, -0.07235301, -0.073387854, -1465961.9, -45828.83, 0.000002073113, 9.999124, 9.999871 
1.07497655e+3, 1.6508889e+2, -1443546.4, -1413495.6, -16333.122, -0.024899786, -0.0022346207, -1406327.9, -84196.56, 0.0000000000166348, 9.999291, 9.999688 
1.0749932e+3, 1.7509015e+2, -1237785.6, -1263564.8, -13641.311, 0.06391732, 0.12197192, -1231907.5, -7785.229, 0.0, 10.00003, 9.99969 
1.0750089e+3, 1.8509017e+2, -1112271.1, -1143410.1, -11323.154, 0.057440404, 0.15820932, -1108589.0, 17533.432, 0.0, 10.000163, 9.999776 
1.0750239e+3, 1.9508857e+2, -1062528.5, -1071884.8, 36083.688, -0.044335052, -0.0117020365, -1030820.94, -2685.4778, 0.0, 9.999839, 9.999752 
1.0750393e+3, 2.0508754e+2, -1067465.8, -1178065.0, -27803.328, -0.047669344, -0.012506621, -1060869.8, -130722.984, 0.0, 9.999808, 9.998369 
1.0750551e+3, 2.1508674e+2, -930103.94, -1059172.9, -48868.32, 0.041727956, 0.040603377, -913689.0, -81529.766, 0.0, 10.000072, 9.998385 
1.0750704e+3, 2.2508621e+2, -677039.44, -713712.3, -7290.9644, 0.028219668, 0.07813813, -675643.06, 58520.88, 0.0, 10.000388, 9.999929 
1.0750855e+3, 2.3508556e+2, -522953.6, -590267.9, 66844.05, -0.08917352, -0.013473544, -481771.38, 154393.16, 0.0, 10.000781, 9.999912 
1.07510105e+3, 2.4508496e+2, -551214.56, -769628.8, 41326.973, -0.100821815, 0.04181664, -543656.5, -5485.7095, 0.0, 10.000861, 9.997961 
1.07511766e+3, 2.5508407e+2, -474853.8, -684814.2, 22748.098, -0.00881483, 0.12358778, -472417.44, -32231.43, 0.0, 10.000708, 9.997952 
1.0751337e+3, 2.650828e+2, -337736.3, -503983.53, -18231.652, 0.0048574638, 0.18043908, -335760.4, 6441.186, 0.000000000031670343, 10.0007105, 9.998524 
1.07514895e+3, 2.7508077e+2, -218486.69, -397589.06, -31395.336, -0.062036462, 0.09231677, -213142.75, 31078.422, 0.00000057346807, 10.00086, 9.998508 
1.0751648e+3, 2.850794e+2, -72364.11, -226322.28, -82561.92, -0.025341308, 0.088772655, -36461.617, 109772.24, 0.000016841232, 10.000964, 9.998961 
1.0751814e+3, 2.950783e+2, 20302.348, -136148.6, -38184.98, 0.111450255, 0.04308996, 29124.662, 77367.305, 0.000114238224, 10.000929, 9.998928 
1.07519686e+3, 3.0507737e+2, 88125.8, -110056.63, -13991.123, 0.07027798, 0.08433587, 89108.66, 89108.66, 0.0003625103, 10.001244, 9.998603 
1.0752111e+3, 3.1507695e+2, 156153.27, -17591.56, -7241.0347, -0.15683362, 0.13229133, 156454.52, 156454.52, 0.00076317973, 10.001354, 9.999195 
1.0849083e+3, 1.250726e+2, -1871941.3, -1792074.9, -28117.352, -0.12626125, -0.023153374, -1783169.1, -68883.68, 0.00064071716, 9.998826, 10.00003 
1.08492665e+3, 1.3507332e+2, -1786717.0, -1709934.5, -31728.672, 0.06481088, 0.026609052, -1698520.1, -82239.03, 0.00028839763, 9.998858, 9.999899 
1.0849412e+3, 1.4507346e+2, -1695608.6, -1609575.9, 21242.4, -0.15355279, 0.06278499, -1604616.8, -86335.336, 0.00006873226, 9.998791, 9.999918 
1.0849591e+3, 1.55073e+2, -1558765.4, -1494302.6, 6801.0127, -0.045043126, -0.016010964, -1493593.0, -73306.47, 0.0000030594845, 9.999065, 9.999909 
1.08497635e+3, 1.6507338e+2, -1456633.5, -1413363.0, 10635.384, 0.039169297, 0.045942944, -1410890.3, -88605.65, 0.000000000186287, 9.999158, 9.999758 
1.0849932e+3, 1.7507426e+2, -1367856.9, -1320536.0, 11325.751, 0.11478455, 0.12704547, -1317965.0, -93686.04, 0.0, 9.999103, 9.999748 
1.0850089e+3, 1.8507431e+2, -1222023.4, -1175660.0, 28453.041, 0.09229235, 0.15460786, -1162140.6, -35862.098, 0.0, 9.999319, 9.9999695 
1.0850238e+3, 1.950732e+2, -1065081.0, -1051280.9, -4477.3174, -0.028494619, 0.01728556, -1049955.5, -21669.146, 0.0, 9.9997425, 9.999942 
1.0850395e+3, 2.050723e+2, -1004556.5, -1123485.8, -1913.612, -0.011877664, 0.009392522, -1004525.75, -74230.336, 0.0, 10.000146, 9.998571 
1.0850563e+3, 2.1507119e+2, -849538.7, -999898.3, 32264.908, 0.13281508, 0.009617736, -842907.6, -10598.171, 0.0, 10.000548, 9.998557 
1.0850718e+3, 2.250705e+2, -653432.56, -723773.5, 73190.37, 0.11809989, 0.035807632, -607400.9, 126914.29, 0.0, 10.000648, 9.999739 
1.0850863e+3, 2.3506995e+2, -586225.7, -642928.2, -18599.482, -0.04995999, -0.024309352, -580669.2, 55646.78, 0.0, 10.000444, 9.999718 
1.08510196e+3, 2.4506925e+2, -564065.9, -796307.9, -34017.266, -0.10083745, 0.03745317, -559185.8, -20861.695, 0.0, 10.000832, 9.997817 
1.0851185e+3, 2.5506806e+2, -349451.25, -639952.7, -21583.48, -0.032236643, 0.108582154, -347856.4, 92486.02, 0.0, 10.001629, 9.997832 
1.0851349e+3, 2.6506662e+2, -208034.86, -472862.1, -104.943016, 0.009196878, 0.1694525, -208034.81, 134325.39, 0.000000020287489, 10.001735, 9.998235 
1.0851506e+3, 2.750645e+2, -187835.75, -416949.03, -10064.014, 0.024664776, 0.096348144, -187394.53, 56987.19, 0.0000009682407, 10.001207, 9.998205 
1.0851666e+3, 2.8506297e+2, -27677.771, -209548.67, -9201.222, 0.05688282, 0.09770602, -27213.45, 119182.055, 0.000016002106, 10.001299, 9.998913 
1.0851829e+3, 2.9506183e+2, 150791.4, -70763.11, -51003.51, 0.12577514, 0.052651063, 161968.89, 210372.67, 0.00010691048, 10.001832, 9.998936 
1.0851984e+3, 3.050608e+2, 176823.3, -106878.195, -14002.682, 0.06988667, 0.09793545, 177512.75, 177512.75, 0.00034615427, 10.002034, 9.998258 
1.085213e+3, 3.1506008e+2, 177428.72, -46571.813, -53796.01, -0.09395199, 0.16466321, 189678.48, 189678.48, 0.0007399488, 10.001696, 9.998835 
1.0949082e+3, 1.2505539e+2, -1819985.6, -1672000.0, -1659.3519, -0.08157857, 0.04785666, -1671981.4, 42480.94, 0.000734217, 9.998777, 10.000875 
1.09492466e+3, 1.3505636e+2, -1725737.9, -1591735.4, -22230.701, -0.05269294, 0.038894918, -1588143.6, 28308.148, 0.00033773432, 9.998881, 10.000704 
1.0949392e+3, 1.4505677e+2, -1686524.5, -1582061.3, 8782.134, -0.2637369, 0.052617803, -1581328.1, -62880.99, 0.0000845864, 9.99876, 10.000118 
1.0949592e+3, 1.5505756e+2, -1553040.6, -1468339.1, 33756.16, 0.028187985, 0.082287885, -1456532.1, -36093.27, 0.0000043925156, 9.999014, 10.000109 
1.09497644e+3, 1.6505788e+2, -1422686.8, -1339674.3, -10797.284, 0.097213924, 0.10037926, -1338292.8, -15856.858, 0.0000000006358386, 9.999134, 10.000279 
1.0949911e+3, 1.7505719e+2, -1330910.3, -1246319.6, 25286.387, -0.034955688, -0.029234117, -1239337.3, -14894.11, 0.0, 9.999098, 10.000266 
1.09500736e+3, 1.8505739e+2, -1265544.8, -1247532.6, 25505.71, -0.032800388, 0.012891296, -1229489.6, -103047.414, 0.0, 9.999247, 9.999506 
1.0950252e+3, 1.9505818e+2, -1114154.5, -1121725.4, 28145.592, 0.112030454, 0.10905871, -1089540.9, -61104.527, 0.0, 9.999612, 9.999517 
1.09504126e+3, 2.0505822e+2, -931574.9, -939735.06, -3981.4268, 0.11774552, 0.14833464, -929954.2, 480.6336, 0.0, 9.999997, 9.999909 
1.0950556e+3, 2.150572e+2, -781315.1, -819089.3, 61468.582, -0.016005354, 0.022199366, -735897.4, 96543.13, 0.0, 10.000371, 9.999887 
1.0950713e+3, 2.2505596e+2, -827363.3, -1032465.25, 47195.984, -0.01920081, 0.028840741, -817024.2, -82571.57, 0.0, 10.000426, 9.997724 
1.09508865e+3, 2.3505417e+2, -757560.2, -948680.94, -10235.959, 0.10782537, 0.043643024, -757013.56, -120538.55, 0.0, 10.000229, 9.997722 
1.0951046e+3, 2.4505273e+2, -544255.06, -703874.44, -18964.219, 0.06956096, 0.09425917, -542032.9, -3540.488, 0.0, 10.000619, 9.998549 
1.0951195e+3, 2.550513e+2, -328558.06, -548779.06, 26703.455, -0.12824924, 0.06604664, -325366.3, 115141.53, 0.0, 10.001426, 9.998553 
1.0951356e+3, 2.6505032e+2, -223676.3, -458674.47, -31436.363, -0.11489082, 0.12649238, -219543.64, 122974.83, 0.00000010014453, 10.00154, 9.998424 
1.09515294e+3, 2.7504927e+2, -193186.34, -399525.88, -5724.3115, 0.09984184, 0.1457731, -193027.67, 51501.17, 0.0000018117424, 10.001082, 9.998388 
1.0951687e+3, 2.8504795e+2, -90731.5, -313862.22, -4010.6191, 0.10534088, 0.1928767, -90659.44, 55881.64, 0.000017402066, 10.001189, 9.998244 
1.0951831e+3, 2.950462e+2, 84236.125, -179162.2, -10000.479, -0.073067024, 0.14584379, 84615.266, 133172.33, 0.00010435712, 10.0017, 9.998254 
1.0951988e+3, 3.050443e+2, 138208.19, -155336.63, -39714.76, -0.117679864, 0.15310252, 143486.44, 143486.44, 0.00033796718, 10.001907, 9.997981 
1.09521545e+3, 3.1504253e+2, 123694.82, -116086.55, -13671.5625, -0.09354211, 0.14383548, 124471.81, 124471.81, 0.00073106954, 10.001505, 9.998455 
1.1049077e+3, 1.2503834e+2, -1872312.6, -1672198.8, 147100.72, 0.023313476, 0.07643846, -1594351.1, 120279.914, 0.00083503575, 9.998343, 10.001049 
1.1049231e+3, 1.3503961e+2, -1808935.1, -1613162.1, -48028.945, -0.054386146, 0.07913604, -1602014.0, 14604.393, 0.0003918232, 9.998252, 10.000841 
1.1049386e+3, 1.4504005e+2, -1723689.4, -1539066.9, 23350.44, -0.17002219, 0.057684217, -1536159.4, -17547.334, 0.000102570426, 9.998196, 10.000707 
1.10495865e+3, 1.5504086e+2, -1601375.1, -1428172.5, 47292.563, 0.10988365, 0.028904507, -1416100.8, 4499.407, 0.0000061708192, 9.998373, 10.000707 
1.1049756e+3, 1.6504133e+2, -1501616.8, -1364665.8, 39409.527, 0.13256717, 0.026650358, -1354134.9, -31540.438, 0.0000000015512864, 9.998557, 10.000372 
1.10498965e+3, 1.7504102e+2, -1347567.3, -1237653.9, 5081.059, -0.07584606, -0.07616895, -1237419.5, -12820.709, 0.0, 9.9989395, 10.000383 
1.1050063e+3, 1.850415e+2, -1231676.4, -1211458.9, 54310.71, -0.05156207, -0.021097569, -1166324.1, -39728.88, 0.0, 9.999396, 9.99968 
1.1050258e+3, 1.9504239e+2, -1058943.1, -1074342.9, 69657.47, 0.1989341, 0.066559695, -996561.25, 32026.738, 0.0, 9.999902, 9.999701 
1.1050421e+3, 2.0504253e+2, -907138.25, -947945.7, 34856.555, 0.20570488, 0.115442716, -887152.75, 43432.89, 0.0, 10.000247, 9.999738 
1.10505566e+3, 2.150416e+2, -773562.06, -834953.4, -46924.508, -0.03125726, 0.01923519, -748185.2, 84406.04, 0.0, 10.000501, 9.99972 
1.1050715e+3, 2.2504032e+2, -793580.1, -1039255.5, -27735.9, -0.040525366, 0.037195556, -790487.8, -55882.703, 0.0, 10.000752, 9.997517 
1.1050897e+3, 2.3503831e+2, -660283.75, -924175.3, 18215.014, 0.1749138, 0.05349099, -659032.4, -22401.914, 0.0, 10.000993, 9.997519 
1.1051062e+3, 2.4503683e+2, -478924.63, -646352.75, 97492.71, 0.15610531, 0.09835792, -434136.25, 104511.58, 0.0, 10.000977, 9.998755 
1.10512085e+3, 2.5503552e+2, -413263.22, -563298.8, 62640.816, -0.08585365, 0.058454685, -390549.03, 50111.223, 0.0, 10.000749, 9.998761 
1.10513724e+3, 2.6503447e+2, -288874.94, -487651.13, 5852.306, -0.08114026, 0.09939225, -288702.78, 53967.445, 0.00000018749917, 10.00107, 9.998464 
1.10515505e+3, 2.7503327e+2, -84636.734, -338588.0, -13749.65, 0.17183909, 0.10120826, -83894.45, 160786.94, 0.0000025365616, 10.001801, 9.998462 
1.1051708e+3, 2.8503174e+2, -16697.377, -336434.0, 23864.436, 0.16400912, 0.14909711, -14926.001, 131770.22, 0.000019295574, 10.001937, 9.997746 
1.10518456e+3, 2.9502967e+2, 5647.143, -274681.53, -8852.363, -0.06859927, 0.12642536, 5926.4097, 54643.176, 0.00010487227, 10.001405, 9.997751 
1.1052004e+3, 3.0502734e+2, 70605.98, -189443.3, 14569.289, -0.10734898, 0.116793655, 71419.68, 71419.68, 0.00033641586, 10.001411, 9.997991 
1.105218e+3, 3.150251e+2, 119461.37, -104992.914, 6660.451, 0.03575662, 0.04894612, 119658.836, 119658.836, 0.00073074934, 10.00142, 9.998559 
1.1149056e+3, 1.2502195e+2, -1913322.6, -1756683.9, 123884.42, -0.09261818, 0.064839646, -1688438.4, 26348.4, 0.000944546, 9.998351, 10.000466 
1.1149215e+3, 1.3502313e+2, -1865382.8, -1731158.0, -36426.918, -0.069541745, 0.14397086, -1721909.4, -105129.164, 0.00045159098, 9.998248, 10.000043 
1.1149386e+3, 1.450233e+2, -1642538.1, -1365139.5, 6664.477, -0.024927353, 0.07473368, -1364979.5, 153796.73, 0.00012308804, 9.998181, 10.001904 
1.1149569e+3, 1.5502314e+2, -1523475.3, -1263172.6, 68477.01, 0.06506371, -0.1695258, -1246257.8, 174510.13, 0.000008505592, 9.998362, 10.001844 
1.1149731e+3, 1.6502397e+2, -1532849.5, -1425420.3, 32638.467, 0.004937029, -0.16718605, -1416281.6, -93523.99, 0.0000000033697685, 9.998529, 9.999976 
1.11498825e+3, 1.7502578e+2, -1375588.3, -1294096.9, 34305.695, -0.14011984, -0.018024845, -1281578.1, -56832.566, 0.0, 9.998916, 10.00002 
1.1150056e+3, 1.8502657e+2, -1184856.9, -1098659.1, 55479.176, -0.102310196, 0.044176668, -1071505.3, 55233.223, 0.0, 9.99933, 10.000486 
1.1150249e+3, 1.9502595e+2, -1024690.9, -972060.9, 102050.65, 0.09821523, -0.09870124, -892987.0, 135753.19, 0.0, 9.99977, 10.000465 
1.11504175e+3, 2.0502537e+2, -1046579.56, -1202433.8, 21598.877, 0.11606894, -0.07392977, -1043641.7, -112895.21, 0.0, 10.000097, 9.998057 
1.1150563e+3, 2.1502441e+2, -923272.1, -1095834.6, -22077.059, -0.04495129, -0.00979476, -920492.44, -87731.08, 0.0, 10.000286, 9.99803 
1.11507215e+3, 2.2502357e+2, -712638.25, -821046.3, -33921.97, -0.07590622, 0.058028996, -702898.75, 31873.3, 0.0, 10.000544, 9.999113 
1.1150896e+3, 2.3502257e+2, -580531.2, -707048.6, 42355.18, 0.03219992, 0.01435576, -567660.9, 69120.195, 0.0, 10.000775, 9.999115 
1.1151062e+3, 2.4502166e+2, -534692.3, -718790.4, 73326.7, 0.037511196, 0.057037357, -509056.06, 29733.75, 0.0, 10.000787, 9.998349 
1.1151222e+3, 2.5502047e+2, -466853.06, -638047.9, 72121.16, -0.05496646, 0.069630794, -440520.25, 281.4004, 0.0, 10.0005865, 9.998327 
1.1151389e+3, 2.6501885e+2, -318332.8, -512103.53, 16939.635, -0.03647985, 0.08196876, -316863.06, 25954.143, 0.00000020790911, 10.000914, 9.998367 
1.11515634e+3, 2.750164e+2, -112567.37, -359887.63, 33920.59, 0.09374921, -0.03792606, -107999.445, 136840.78, 0.0000030041283, 10.001637, 9.998393 
1.11517236e+3, 2.8501442e+2, -68026.29, -397996.3, -11003.391, 0.10033488, -0.016250195, -67659.766, 79200.17, 0.000021785861, 10.001757, 9.997404 
1.1151867e+3, 2.9501247e+2, -38793.637, -336387.88, 528.35425, -0.027091822, 0.009146657, -38792.7, 10087.999, 0.00010887074, 10.001277, 9.997388 
1.11520275e+3, 3.0501005e+2, 73279.82, -164087.83, 9234.651, -0.046085887, -0.0019790633, 73638.55, 73638.55, 0.00034133886, 10.001328, 9.998203 
1.1152198e+3, 3.1500745e+2, 107865.79, -88858.05, 71646.98, -0.0025210434, -0.12821075, 131193.47, 131193.47, 0.0007374856, 10.001238, 9.998762 
1.1249045e+3, 1.2500432e+2, -2059574.0, -1795920.3, 87799.46, 0.033054125, 0.006755934, -1769358.1, -54401.656, 0.0010643419, 9.997203, 10.000771 
1.1249193e+3, 1.3500573e+2, -1953905.3, -1744690.4, -29297.494, -0.06350796, 0.08234905, -1740665.1, -123717.45, 0.00051804923, 9.997515, 10.000309 
1.12493776e+3, 1.4500633e+2, -1728614.1, -1417351.9, 60170.33, 0.10376984, 0.04982063, -1406125.3, 112814.98, 0.00014661087, 9.997647, 10.001798 
1.1249546e+3, 1.550064e+2, -1599442.0, -1306694.8, -16715.895, 0.041431446, -0.16603588, -1305743.4, 115188.79, 0.00001150662, 9.997891, 10.0017605 
1.1249712e+3, 1.6500747e+2, -1561042.5, -1404195.0, -24466.87, -0.022560395, -0.14989653, -1400467.0, -77547.24, 0.0000000061074554, 9.998185, 10.000288 
1.1249879e+3, 1.7500946e+2, -1394124.9, -1263897.8, -3432.5034, -0.043289706, -0.014459538, -1263807.3, -38903.234, 0.0, 9.99863, 10.00036 
1.1250056e+3, 1.8501027e+2, -1243689.1, -1136574.5, 41500.48, -0.003849228, 0.034609005, -1122377.3, 4518.6426, 0.0, 9.99896, 10.000408 
1.125024e+3, 1.950094e+2, -1107687.1, -1028368.9, -9003.494, 0.074903086, -0.123671986, -1027359.75, 1540.5032, 0.0, 9.999235, 10.000354 
1.1250412e+3, 2.0500867e+2, -1132714.1, -1235361.6, -25136.703, 0.07509187, -0.11010573, -1126889.0, -195981.11, 0.0, 9.99949, 9.998117 
1.12505674e+3, 2.1500768e+2, -976480.8, -1108340.8, 22056.574, 0.0049253963, -0.054278485, -972889.2, -139966.28, 0.0, 9.999884, 9.998129 
1.1250732e+3, 2.2500686e+2, -750381.6, -841528.9, 48125.063, -0.0006243841, 0.010802387, -729675.7, 5257.383, 0.0, 10.000276, 9.999114 
1.1250906e+3, 2.35006e+2, -579474.56, -705743.1, -26059.99, 0.06471486, -0.01623711, -574307.56, 62633.105, 0.0, 10.000764, 9.999133 
1.1251073e+3, 2.4500509e+2, -480934.4, -672299.56, -15320.875, 0.058763374, 0.014719903, -479715.56, 59233.406, 0.0, 10.001076, 9.99853 
1.1251234e+3, 2.5500378e+2, -360390.97, -567283.75, -4463.984, -0.0150138065, -0.0012152415, -360294.7, 80666.18, 0.0, 10.001245, 9.998501 
1.1251401e+3, 2.6500222e+2, -303435.0, -492690.0, 2711.2498, 0.0006197762, 0.008462782, -303396.2, 39578.887, 0.00000016860811, 10.000972, 9.998471 
1.1251573e+3, 2.750001e+2, -303947.53, -441165.2, -7725.9727, 0.1096779, -0.08759505, -303513.9, -58518.246, 0.0000038179373, 10.000284, 9.998482 
1.1251737e+3, 2.8499836e+2, -196591.08, -445122.34, 26864.81, 0.11924327, -0.05456851, -193720.3, -46706.703, 0.000026510976, 10.000798, 9.997538 
1.1251891e+3, 2.9499665e+2, 127162.19, -234506.78, 32521.895, 0.03142485, -0.024058636, 130063.34, 179095.56, 0.00011807009, 10.002331, 9.997566 
1.1252052e+3, 3.049943e+2, 247906.73, -89158.734, 43776.094, 0.014620796, -0.03186549, 253499.31, 253499.31, 0.0003550206, 10.002601, 9.998104 
1.1252217e+3, 3.149919e+2, 106065.555, -107169.73, 24927.08, 0.07377199, -0.11955781, 108940.74, 108940.74, 0.0007557831, 10.001304, 9.998616 
1.13490164e+3, 1.2498529e+2, -1977523.4, -1615585.4, -17705.654, -0.047353722, -0.11868423, -1614721.4, 100421.1, 0.0011953667, 9.997185, 10.002005 
1.1349158e+3, 1.3498743e+2, -1857645.4, -1534252.4, -5368.1636, -0.19879791, -0.11494486, -1534163.3, 82956.85, 0.00059164723, 9.997481, 10.001764 
1.1349353e+3, 1.4498943e+2, -1824299.8, -1615682.3, 50966.24, 0.050265815, -0.0145918885, -1603896.8, -84795.33, 0.00017336896, 9.997644, 10.000442 
1.13495156e+3, 1.5499087e+2, -1696429.6, -1507259.1, 12026.392, -0.09283559, 0.04850908, -1506497.6, -85406.86, 0.000015247707, 9.997882, 10.000394 
1.134969e+3, 1.6499193e+2, -1493514.5, -1258041.8, -27027.39, -0.101004094, 0.07964146, -1254979.4, 68100.38, 0.000000009421829, 9.998162, 10.0013 
1.1349881e+3, 1.7499222e+2, -1328653.9, -1124038.4, 26480.076, 0.07585497, -0.056851685, -1120667.1, 104405.414, 0.0, 9.998614, 10.001326 
1.13500595e+3, 1.8499261e+2, -1313916.8, -1271654.4, 31774.836, 0.112105735, -0.04920769, -1254625.9, -127558.64, 0.0, 9.998908, 9.999511 
1.1350227e+3, 1.9499281e+2, -1192854.3, -1167835.4, 16770.014, -0.004696225, -0.011667661, -1159423.0, -130355.88, 0.0, 9.999071, 9.99948 
1.1350397e+3, 2.0499253e+2, -1040399.94, -1005367.2, -29293.025, -0.048773937, 0.0070234016, -988752.9, -57684.1, 0.0, 9.999325, 9.999776 
1.1350569e+3, 2.1499145e+2, -893968.6, -884039.3, 48145.44, -0.00082384347, -0.11032653, -840603.2, -7528.0854, 0.0, 9.9996605, 9.999776 
1.13507435e+3, 2.249903e+2, -886000.6, -1077915.8, 46547.2, 0.059319943, -0.08673, -875306.9, -140219.55, 0.0, 10.000074, 9.997589 
1.13509215e+3, 2.3498867e+2, -721632.94, -949704.56, 8791.022, 0.13092965, -0.04049583, -721294.56, -84185.54, 0.0, 10.000538, 9.997571 
1.1351088e+3, 2.4498716e+2, -460705.16, -582788.1, -23334.414, 0.07406485, -0.02346523, -456397.13, 82727.49, 0.0, 10.000871, 9.999242 
1.1351241e+3, 2.5498548e+2, -335235.88, -471881.4, 18979.219, -0.091842, -0.14787555, -332648.75, 108487.79, 0.0, 10.001056, 9.999248 
1.1351405e+3, 2.649847e+2, -306482.8, -468530.13, -36177.746, -0.089316584, -0.11471114, -298772.8, 44369.773, 0.00000020663475, 10.000835, 9.998708 
1.1351577e+3, 2.749843e+2, -305622.56, -424380.63, -11276.585, 0.07778087, -0.0573672, -304561.28, -59413.4, 0.0000055002247, 10.000187, 9.998651 
1.1351744e+3, 2.8498337e+2, -174131.14, -367761.8, 66610.68, 0.07943442, 0.018972, -153429.7, -6271.184, 0.000033703815, 10.000679, 9.998119 
1.13519095e+3, 2.9498178e+2, 141427.03, -160913.44, 108770.58, -0.059187245, 0.0016346823, 176491.8, 225667.16, 0.00013271971, 10.002141, 9.998164 
1.1352071e+3, 3.049797e+2, 191357.28, -159864.25, -17203.695, -0.06911291, 0.010346201, 192197.95, 192197.95, 0.00037893685, 10.002405, 9.997711 
1.1352227e+3, 3.1497812e+2, 52287.754, -175007.94, 25810.875, -0.03611953, 0.044698127, 55181.89, 55181.89, 0.0007912106, 10.001117, 9.99824 
1.1448999e+3, 1.2496873e+2, -2051059.0, -1647410.8, -6259.023, 0.10587651, -0.03503349, -1647313.8, 67993.69, 0.0013373722, 9.996622, 10.00208 
1.1449134e+3, 1.3497026e+2, -1755142.5, -1451437.0, -44825.285, -0.18613008, -0.12414423, -1444959.3, 172328.45, 0.000672049, 9.998, 10.002102 
1.1449336e+3, 1.449723e+2, -1723612.1, -1590029.6, 19944.057, 0.08939218, -0.028581467, -1587115.5, -67847.34, 0.0002032588, 9.998442, 10.000227 
1.1449501e+3, 1.5497404e+2, -1675715.3, -1520804.5, 21339.31, -0.022722851, 0.09025236, -1517918.8, -96662.234, 0.000019742625, 9.998134, 10.000175 
1.1449675e+3, 1.6497497e+2, -1501059.0, -1264908.8, 42320.188, -0.044541415, 0.121326976, -1257553.6, 65693.48, 0.000000013934886, 9.998128, 10.001271 
1.14498645e+3, 1.7497472e+2, -1339595.0, -1129726.3, -9095.376, 0.06333028, -0.066776894, -1129332.9, 95911.01, 0.0, 9.998548, 10.001317 
1.1450048e+3, 1.8497503e+2, -1318699.0, -1261044.9, 20447.756, 0.11039416, -0.07440101, -1254529.1, -127290.21, 0.0, 9.998832, 9.999611 
1.1450224e+3, 1.9497558e+2, -1196640.9, -1146410.8, 40872.613, 0.07440561, -0.0136462245, -1123553.6, -94318.34, 0.0, 9.998984, 9.999643 
1.14503995e+3, 2.049755e+2, -997928.8, -969125.7, 29516.947, 0.049944922, 0.0053852326, -950684.4, -19449.729, 0.0, 9.999514, 9.999951 
1.1450572e+3, 2.1497437e+2, -768824.06, -805080.44, -28492.055, 0.053477127, -0.1333356, -753182.0, 80058.56, 0.0, 10.000405, 9.999975 
1.14507504e+3, 2.2497325e+2, -772486.4, -1005556.75, -3991.752, 0.0929936, -0.12129575, -772418.06, -37166.168, 0.0, 10.000808, 9.997719 
1.14509314e+3, 2.3497175e+2, -674033.75, -903651.2, 40986.2, 0.16096205, -0.07918097, -666937.1, -29665.025, 0.0, 10.0007925, 9.997749 
1.1451098e+3, 2.4497037e+2, -514939.13, -617926.3, 59031.977, 0.1198917, -0.05511909, -488097.78, 51188.92, 0.0, 10.000515, 9.999181 
1.14512525e+3, 2.549689e+2, -489664.6, -547245.8, 14647.365, -0.017151436, -0.15524386, -486152.8, -44854.977, 0.0, 9.999997, 9.999236 
1.1451416e+3, 2.649681e+2, -354954.06, -497828.6, -21447.21, -0.027508136, -0.12193538, -351804.03, -8499.516, 0.00000038376965, 10.000518, 9.998662 
1.1451589e+3, 2.7496752e+2, -32172.11, -292956.88, -48730.977, 0.0900066, -0.08012592, -23363.623, 221947.45, 0.0000075917305, 10.002068, 9.998646 
1.1451758e+3, 2.8496662e+2, 54968.563, -250169.02, 29985.328, 0.083422005, -0.0024667275, 57887.246, 205208.73, 0.000041535674, 10.002215, 9.998196 
1.14519276e+3, 2.9496533e+2, -45895.344, -241330.73, -2321.5483, -0.0064501525, 0.006800633, -45867.77, 3468.4746, 0.00014998692, 10.000814, 9.998252 
1.1452094e+3, 3.0496344e+2, 27399.732, -207702.39, -74666.49, -0.012377003, 0.01365303, 49108.633, 49108.633, 0.00040887797, 10.001107, 9.9980135 
1.1452247e+3, 3.149623e+2, 300343.22, -13170.128, -45600.91, 0.003142672, 0.05797819, 306841.25, 306841.25, 0.0008407425, 10.00265, 9.998598 
1.15489624e+3, 1.2495397e+2, -2122693.0, -1781209.9, -96674.41, 0.012603057, 0.18545239, -1755740.9, -40282.86, 0.001489488, 9.9965725, 10.001175 
1.154912e+3, 1.349545e+2, -1806621.9, -1553550.5, 21990.86, -0.16866605, 0.06637755, -1551653.9, 65794.22, 0.00075867696, 9.997991, 10.001393 
1.1549322e+3, 1.4495493e+2, -1664749.8, -1476860.1, -11860.307, 0.06027906, -0.00095230626, -1476114.4, 43326.2, 0.0002361324, 9.998463, 10.001005 
1.15495e+3, 1.5495583e+2, -1612539.3, -1398331.0, 23380.818, 0.10565075, -0.049595203, -1395808.6, 25621.47, 0.000024990082, 9.998157, 10.001013 
1.1549664e+3, 1.6495661e+2, -1567196.1, -1398614.6, 39101.66, -0.0009832208, -0.031133529, -1389986.8, -66565.18, 0.000000023716384, 9.99812, 10.000352 
1.1549825e+3, 1.749571e+2, -1414902.9, -1271219.3, 22972.445, -0.20818308, -0.053046156, -1267635.8, -42218.56, 0.0, 9.998491, 10.000367 
1.1550014e+3, 1.8495761e+2, -1261313.5, -1126527.5, 8046.2266, -0.14862135, -0.038173515, -1126048.9, 1360.9912, 0.0, 9.998764, 10.000565 
1.1550227e+3, 1.9495773e+2, -1145142.6, -1014889.06, 58306.24, 0.16675252, -0.12003215, -992602.4, 36801.715, 0.0, 9.998873, 10.000602 
1.1550415e+3, 2.0495753e+2, -1095077.6, -1135049.9, 40142.145, 0.22730601, -0.107992604, -1070221.4, -138815.97, 0.0, 9.999357, 9.998888 
1.15505785e+3, 2.1495661e+2, -877503.0, -980872.06, 20485.234, 0.03971137, -0.121319555, -873591.4, -40173.68, 0.0, 10.00018, 9.998881 
1.155075e+3, 2.2495589e+2, -689932.25, -783742.8, -20704.17, -0.024468806, -0.09414459, -685566.0, 49859.31, 0.0, 10.000591, 9.999345 
1.1550929e+3, 2.3495512e+2, -591022.56, -684155.1, 55798.23, 0.037032798, -0.13995649, -564912.44, 72518.53, 0.0, 10.000589, 9.999356 
1.1551101e+3, 2.4495454e+2, -592308.8, -732284.44, 18508.97, 0.07323694, -0.0804657, -589902.75, -50465.99, 0.0, 10.000316, 9.99849 
1.1551265e+3, 2.549539e+2, -565818.0, -667788.75, 9446.859, 0.075705834, -0.03134258, -564950.2, -123504.516, 0.0, 9.999827, 9.998492 
1.15514316e+3, 2.6495236e+2, -399566.2, -550500.1, 22875.47, 0.051808637, -0.020335326, -396175.38, -52714.043, 0.0000005356376, 10.000352, 9.998375 
1.1551604e+3, 2.7494958e+2, -72301.45, -336410.22, 30593.43, -0.00022420064, -0.17342691, -68803.94, 176683.03, 0.000008957139, 10.001894, 9.99843 
1.15517735e+3, 2.8494817e+2, 8390.77, -305658.47, -35246.125, -0.009151601, -0.121513516, 12297.876, 159799.89, 0.000047577858, 10.002042, 9.997895 
1.1551942e+3, 2.9494762e+2, -85024.38, -307797.8, -25295.557, 0.0192072, -0.0048626713, -82188.22, -32676.447, 0.00016516355, 10.000734, 9.997841 
1.155211e+3, 3.049457e+2, 54448.1, -107523.6, -25152.494, 0.02316777, -0.016839499, 58264.113, 58264.113, 0.00043857994, 10.00094, 9.998768 
1.1552268e+3, 3.149442e+2, 323153.78, 86732.164, 67948.336, -0.12462421, -0.08844892, 341290.94, 341290.94, 0.0008950194, 10.002425, 9.99939 
1.16489395e+3, 1.249375e+2, -1831428.0, -1684847.8, -76892.445, 0.026235906, 0.21421166, -1651912.3, 63706.965, 0.0016512593, 9.998759, 10.000773 
1.164911e+3, 1.3493747e+2, -1861566.6, -1638469.8, 40183.76, -0.04340649, 0.095973276, -1631452.6, -13836.676, 0.0008513687, 9.997888, 10.0008545 
1.1649302e+3, 1.4493714e+2, -1771686.0, -1502991.6, 28804.438, 0.0644578, -0.030500982, -1499938.4, 19676.814, 0.00027198074, 9.997635, 10.001214 
1.16494834e+3, 1.5493792e+2, -1588379.5, -1364761.6, -20727.783, 0.13529773, -0.11362528, -1362856.5, 58746.676, 0.00003101119, 9.998233, 10.001202 
1.1649652e+3, 1.6493876e+2, -1522824.4, -1410155.4, 29296.75, 0.04836611, -0.085634395, -1402992.8, -79398.67, 0.00000004774233, 9.998557, 10.000067 
1.1649816e+3, 1.7493942e+2, -1409855.6, -1306170.9, 25036.736, -0.1536915, -0.05620707, -1300441.8, -74851.62, 0.0, 9.998664, 10.000059 
1.16500035e+3, 1.8493992e+2, -1238690.8, -1090131.3, 42462.453, -0.11097114, -0.03882241, -1078850.9, 48732.613, 0.0, 9.998807, 10.000794 
1.1650215e+3, 1.9493994e+2, -1091969.0, -962245.25, 8711.993, 0.15256521, -0.15406765, -961662.75, 67914.23, 0.0, 9.999121, 10.000845 
1.16504066e+3, 2.0493981e+2, -1125305.0, -1159686.6, 37168.813, 0.23110077, -0.13830769, -1101544.1, -169966.34, 0.0, 9.99922, 9.99877 
1.16505824e+3, 2.1493925e+2, -1042304.44, -1064353.1, 46340.086, 0.13004287, -0.10879843, -1005695.4, -172106.39, 0.0, 9.999104, 9.998806 
1.1650757e+3, 2.2493899e+2, -820523.6, -778168.25, 39313.754, 0.06405129, -0.06405672, -754691.0, -19098.682, 0.0, 9.999384, 9.999973 
1.1650931e+3, 2.349387e+2, -622515.9, -629138.44, 16631.223, 0.03993002, -0.12594451, -608869.5, 28721.854, 0.0, 10.000058, 10.0 
1.1651105e+3, 2.4493833e+2, -546003.5, -714291.06, -10989.103, 0.06578622, -0.07564805, -545288.94, -5694.5996, 0.0, 10.000652, 9.998448 
1.1651275e+3, 2.5493765e+2, -371301.16, -578596.2, -7463.677, 0.13705719, -0.024614975, -371032.78, 70571.39, 0.0, 10.001179, 9.998454 
1.1651445e+3, 2.649361e+2, -266438.75, -501074.25, 88264.3, 0.1045198, -0.0070378534, -236943.56, 106677.15, 0.00000056359414, 10.001333, 9.99824 
1.16516136e+3, 2.7493337e+2, -208166.23, -416804.66, 67781.4, -0.024644021, -0.13596138, -188079.6, 57566.953, 0.00000928475, 10.001042, 9.998287 
1.1651785e+3, 2.8493172e+2, -135125.86, -379220.28, 3790.6816, -0.037253033, -0.1012665, -135067.0, 12596.837, 0.000050789153, 10.001052, 9.997872 
1.1651957e+3, 2.9493073e+2, -11621.103, -269024.47, -6641.512, 0.07457997, -0.031164477, -11449.852, 38226.81, 0.00017624088, 10.001236, 9.997858 
1.16521314e+3, 3.0492848e+2, 190986.52, -58181.266, 85277.11, 0.10589589, -0.07058365, 217377.23, 217377.23, 0.0004642717, 10.001928, 9.998651 
1.16523e+3, 3.1492713e+2, 346898.63, 104576.586, 63096.613, -0.044362344, -0.10617508, 362343.53, 362343.53, 0.00094307924, 10.00255, 9.999472 
1.1748925e+3, 1.2491908e+2, -1828431.3, -1655307.0, -112731.42, -0.07119386, 0.00905944, -1599737.5, 116055.64, 0.0018234614, 9.9986925, 10.001001 
1.1749104e+3, 1.3491921e+2, -1891251.9, -1700015.9, 19807.92, 0.07830936, -0.046729725, -1697985.8, -80195.01, 0.0009506097, 9.997899, 10.000426 
1.174927e+3, 1.4491901e+2, -1803478.4, -1559729.5, 34096.523, -0.05571886, -0.12192148, -1555049.9, -35258.867, 0.00031097958, 9.9976015, 10.000835 
1.1749448e+3, 1.5492041e+2, -1620045.1, -1428353.1, 20086.271, -0.07127286, -0.10198245, -1426271.0, -4496.1113, 0.00003785508, 9.998221, 10.000769 
1.1749633e+3, 1.6492137e+2, -1509722.4, -1377523.6, 14368.967, -0.041362543, -0.04991734, -1375979.9, -52214.887, 0.00000010132158, 9.998534, 10.0002985 
1.174983e+3, 1.7492168e+2, -1397006.6, -1267823.4, 45340.188, 0.100001834, -0.08841034, -1253498.5, -27735.225, 0.0, 9.9986105, 10.000346 
1.1750015e+3, 1.8492208e+2, -1278627.6, -1157068.9, 36107.574, 0.0896701, -0.07287533, -1147152.5, -19394.416, 0.0, 9.998741, 10.000366 
1.1750184e+3, 1.9492227e+2, -1139539.4, -1036641.6, 39729.03, -0.09311698, -0.12749262, -1023087.56, 6665.442, 0.0, 9.999011, 10.000392 
1.17503725e+3, 2.0492245e+2, -1096758.6, -1064479.6, 14098.853, -0.06998533, -0.095472194, -1059188.8, -127438.01, 0.0, 9.999069, 9.999494 
1.17505826e+3, 2.1492234e+2, -1019692.1, -975633.5, 56023.996, 0.18969023, -0.093020804, -937463.3, -103708.875, 0.0, 9.998916, 9.999511 
1.1750769e+3, 2.2492242e+2, -867628.1, -823880.6, 46012.246, 0.22550616, -0.03828966, -794807.5, -59053.098, 0.0, 9.999165, 9.9997635 
1.1750933e+3, 2.3492245e+2, -670375.06, -670877.75, 58768.29, 0.023412487, -0.046062134, -611857.56, 25895.441, 0.0, 9.999818, 9.999824 
1.1751103e+3, 2.449218e+2, -543967.75, -658102.2, -7525.043, -0.040683042, -0.041828923, -543473.75, -3715.3682, 0.0, 10.0004225, 9.998949 
1.1751281e+3, 2.5492013e+2, -355316.28, -506110.03, 28407.05, 0.040569205, -0.1450013, -350142.38, 91631.34, 0.0, 10.001005, 9.999035 
1.1751453e+3, 2.6491922e+2, -297119.13, -526183.75, 59377.277, 0.022640344, -0.08703275, -282642.47, 61141.12, 0.0000005132723, 10.001165, 9.998154 
1.17516175e+3, 2.749187e+2, -232318.19, -441788.66, 75723.82, -0.12385339, 0.011897403, -207811.14, 37980.668, 0.000009286575, 10.000927, 9.998176 
1.1751788e+3, 2.8491712e+2, -146034.81, -367323.47, -4153.4307, -0.13602395, 0.053557966, -145956.88, 1851.3262, 0.000051726838, 10.000911, 9.998019 
1.17519654e+3, 2.9491416e+2, -502.01178, -232611.7, 20194.734, 0.00327489, -0.09420181, 1241.9308, 51077.32, 0.00018255804, 10.001168, 9.998143 
1.17521524e+3, 3.0491126e+2, 112417.0, -181744.38, 98443.516, 0.101332135, -0.17684592, 142321.78, 142321.78, 0.00047999644, 10.00178, 9.997865 
1.1752333e+3, 3.1491107e+2, 278393.2, 28047.006, 128982.89, -0.03313751, -0.020141913, 332955.7, 332955.7, 0.0009686636, 10.002283, 9.999066 
1.18489064e+3, 1.2490086e+2, -1945224.3, -1712326.8, -79769.695, -0.059987616, -0.0883087, -1687624.8, 28343.465, 0.0020081834, 9.997854, 10.001029 
1.1849094e+3, 1.3490163e+2, -1887838.3, -1734596.8, -60654.266, 0.192679, -0.057132915, -1713495.1, -95533.67, 0.0010574218, 9.99805, 10.000128 
1.1849251e+3, 1.4490186e+2, -1729864.5, -1538160.6, 41333.184, -0.034923483, -0.06894368, -1529628.5, -9669.637, 0.00035351914, 9.998148, 10.00073 
1.1849429e+3, 1.5490302e+2, -1595074.1, -1421050.8, 11112.298, -0.084197074, -0.06309324, -1420344.0, 1601.9232, 0.00004562391, 9.998418, 10.000728 
1.1849618e+3, 1.649039e+2, -1492738.6, -1358766.6, 42105.246, -0.027389467, -0.02120981, -1346632.6, -22695.688, 0.00000019883093, 9.9986105, 10.000394 
1.1849824e+3, 1.7490415e+2, -1354507.3, -1229104.8, 24757.13, 0.17520058, -0.07699455, -1224394.1, 1540.7192, 0.0, 9.9988365, 10.000496 
1.1850011e+3, 1.8490466e+2, -1263420.5, -1163542.8, 49702.68, 0.17458914, -0.055175446, -1143024.1, -15094.917, 0.0, 9.998895, 10.000254 
1.1850176e+3, 1.9490507e+2, -1176840.8, -1063673.8, 41042.297, -0.05099605, -0.07655314, -1050356.3, -20432.52, 0.0, 9.998791, 10.000314 
1.1850362e+3, 2.0490533e+2, -1043764.4, -983080.56, 68000.67, -0.07104787, -0.05654037, -938959.56, -7039.8223, 0.0, 9.999182, 10.000012 
1.1850572e+3, 2.1490513e+2, -807797.4, -808213.44, 68934.83, 0.14054014, -0.11531067, -739070.25, 94850.62, 0.0, 10.000094, 10.000093 
1.1850764e+3, 2.249052e+2, -741080.8, -812449.44, 61399.36, 0.21540058, -0.068314284, -705749.25, 30171.484, 0.0, 10.000253, 9.999311 
1.185094e+3, 2.3490526e+2, -732888.94, -753155.94, 16191.271, 0.14242081, -0.029403932, -723921.5, -85998.7, 0.0, 9.999613, 9.999353 
1.1851113e+3, 2.449046e+2, -650402.0, -661545.1, -11171.582, 0.07639723, -0.02436723, -643489.75, -103561.016, 0.0, 9.999491, 9.999373 
1.1851282e+3, 2.5490284e+2, -485798.84, -528474.56, -15086.694, 0.016868738, -0.17006731, -481004.1, -39062.227, 0.0, 9.999934, 9.999404 
1.1851456e+3, 2.6490203e+2, -398918.5, -572839.56, 32400.854, -0.016828114, -0.120054774, -393078.47, -49128.516, 0.0000005059796, 10.000475, 9.998156 
1.1851635e+3, 2.7490184e+2, -209564.25, -434958.28, 13065.067, -0.045423146, 0.009363921, -208809.45, 37146.992, 0.000009353779, 10.001112, 9.998129 
1.1851811e+3, 2.8490022e+2, -15824.713, -323328.2, -24103.443, -0.05086581, 0.06052738, -13946.85, 134026.36, 0.000051580555, 10.001902, 9.997833 
1.1851985e+3, 2.94897e+2, 224392.05, -149157.5, -61848.95, 0.00072835485, -0.086999536, 234366.13, 284368.3, 0.00018437536, 10.002833, 9.99791 
1.1852175e+3, 3.0489382e+2, 260810.03, -169467.3, 9486.028, 0.09716664, -0.16082987, 261019.06, 261019.06, 0.0004810056, 10.003032, 9.997352 
1.18523605e+3, 3.1489348e+2, 223868.64, -41038.01, -7614.209, 0.05769561, 0.033089135, 224087.31, 224087.31, 0.0009623852, 10.002062, 9.998702 
1.1948894e+3, 1.24883e+2, -1956612.6, -1728494.3, -31202.727, -0.041670173, -0.07128276, -1724303.3, -8160.247, 0.0022081332, 9.9978285, 10.00092 
1.1949072e+3, 1.3488467e+2, -1886373.6, -1735508.9, -42479.98, 0.14175358, 0.048435584, -1724369.9, -106241.16, 0.0011730703, 9.998059, 10.0001135 
1.1949236e+3, 1.4488566e+2, -1718818.5, -1512967.0, 29821.602, -0.042023793, 0.10690044, -1508733.8, 11385.405, 0.00040013902, 9.998142, 10.000903 
1.1949423e+3, 1.5488595e+2, -1579671.6, -1395438.3, 37665.06, -0.025028419, 0.004240547, -1388035.4, 34079.465, 0.00005450229, 9.998437, 10.000897 
1.19496055e+3, 1.6488647e+2, -1493198.5, -1360043.9, 29778.654, -0.042199057, 0.0021321557, -1353687.6, -29578.734, 0.00000035173326, 9.998608, 10.00039 
1.19497925e+3, 1.7488697e+2, -1363646.4, -1241128.5, 48196.723, -0.054647423, -0.023435535, -1224441.4, 1662.5461, 0.0, 9.998799, 10.000439 
1.19499855e+3, 1.8488769e+2, -1262048.1, -1143409.0, 28250.2, 0.003439896, 0.014698601, -1137025.6, -8929.163, 0.0, 9.998826, 10.0004225 
1.1950186e+3, 1.9488834e+2, -1182126.4, -1047941.4, 52056.656, 0.13923343, -0.0014213002, -1030114.5, -25.430223, 0.0, 9.9986725, 10.00048 
1.1950372e+3, 2.0488846e+2, -1036843.2, -930432.8, 82809.25, 0.091649696, -0.02540381, -885209.5, 46875.336, 0.0, 9.999023, 10.000445 
1.1950546e+3, 2.1488774e+2, -810025.44, -763178.94, 118772.164, -0.14341766, -0.17820497, -665542.44, 168544.58, 0.0, 9.999881, 10.000506 
1.1950739e+3, 2.248874e+2, -828556.25, -940714.5, 19030.813, -0.09272711, -0.15517661, -825415.1, -89324.22, 0.0, 10.000025, 9.998539 
1.1950951e+3, 2.348872e+2, -816801.0, -877231.5, 4863.955, 0.26503852, -0.068097696, -816412.0, -178312.52, 0.0, 9.999402, 9.998599 
1.1951131e+3, 2.4488682e+2, -657907.6, -631761.6, -12281.98, 0.27866066, -0.010195357, -626897.25, -86793.21, 0.0, 9.999295, 9.999678 
1.1951273e+3, 2.5488597e+2, -488443.03, -489093.3, 18321.22, -0.076611035, -0.09933992, -470444.06, -28336.732, 0.0, 9.999745, 9.9997635 
1.195145e+3, 2.6488474e+2, -430959.8, -599475.7, 40367.734, -0.149941, -0.105865315, -421788.88, -77670.766, 0.0000006389743, 10.000299, 9.998061 
1.195166e+3, 2.748828e+2, -232876.64, -448291.9, 55670.25, 0.07083786, -0.141262, -219340.27, 26799.4, 0.000009301616, 10.000966, 9.998107 
1.1951846e+3, 2.8488117e+2, -72903.305, -413741.84, -2761.9346, 0.08985908, -0.06613832, -72880.93, 75276.65, 0.00005191434, 10.001774, 9.997278 
1.1952008e+3, 2.9487935e+2, 163037.05, -247704.7, -1819.6732, -0.09344922, -0.022357022, 163045.11, 213221.67, 0.00018470343, 10.002694, 9.997305 
1.1952194e+3, 3.0487624e+2, 196546.66, -249335.84, -32142.422, -0.044953186, -0.029377325, 198851.8, 198851.8, 0.0004730737, 10.002817, 9.996898 
1.1952379e+3, 3.148745e+2, 158286.14, -111365.02, 7863.679, -0.043189045, 0.060701642, 158515.27, 158515.27, 0.0009339275, 10.001791, 9.9983425 
1.2048881e+3, 1.2486474e+2, -1924069.9, -1703287.3, -22441.896, 0.043866973, 0.0020974667, -1701029.3, 15292.841, 0.0024257244, 9.998024, 10.001008 
1.2049044e+3, 1.3486557e+2, -1802521.0, -1637248.1, -88738.53, 0.053600617, -0.0014322307, -1598627.4, 19686.361, 0.0012988481, 9.998409, 10.000612 
1.2049221e+3, 1.448668e+2, -1694471.0, -1517038.8, 26659.412, 0.002165807, 0.05925107, -1513119.6, 7182.13, 0.00045139206, 9.998367, 10.00077 
1.2049414e+3, 1.5486744e+2, -1611450.6, -1421653.3, -32821.926, 0.068600334, 0.005678597, -1416137.6, 6157.8813, 0.00006471426, 9.998265, 10.000797 
1.20495975e+3, 1.6486812e+2, -1546713.3, -1383815.8, -8266.371, 0.039546363, 0.023404602, -1383397.4, -59108.26, 0.00000057087306, 9.998239, 10.000395 
1.2049776e+3, 1.7486851e+2, -1416083.6, -1259304.8, -21621.15, -0.06589786, -0.016092623, -1256377.6, -30091.871, 0.0, 9.9984255, 10.000482 
1.2049969e+3, 1.8486914e+2, -1294522.0, -1141083.4, -12465.656, -0.015511544, 0.0033034382, -1140077.3, -11798.471, 0.0, 9.998532, 10.000574 
1.2050177e+3, 1.9486964e+2, -1178810.4, -1023256.5, -20452.682, 0.19589265, -0.043883134, -1020612.25, 9659.502, 0.0, 9.998606, 10.000671 
1.2050369e+3, 2.0487002e+2, -1057064.1, -951103.0, 53732.81, 0.17359644, -0.051380754, -928623.94, 3641.5127, 0.0, 9.998908, 10.000363 
1.2050547e+3, 2.1486984e+2, -877081.94, -807721.1, 16217.126, -0.091936156, -0.13936526, -804116.7, 30147.016, 0.0, 9.999444, 10.000418 
1.2050738e+3, 2.2486953e+2, -843676.7, -926564.7, -64036.223, -0.07652589, -0.118798755, -808843.3, -72575.88, 0.0, 9.999823, 9.998742 
1.20509446e+3, 2.3486875e+2, -705985.5, -803116.5, -36299.43, 0.24093445, -0.104487196, -693918.8, -55639.105, 0.0, 10.000068, 9.998796 
1.2051126e+3, 2.4486834e+2, -521029.94, -592308.4, 11278.078, 0.27195486, -0.047939096, -519288.03, 20996.613, 0.0, 10.00037, 9.999411 
1.20512806e+3, 2.5486794e+2, -362971.75, -461067.1, -39806.625, -0.01713949, -0.06481857, -348851.06, 93434.47, 0.00000000020898414, 10.000757, 9.999457 
1.20514624e+3, 2.648666e+2, -302049.3, -516021.13, 1702.4148, -0.07926697, -0.079331346, -302035.75, 42261.58, 0.00000074892756, 10.001077, 9.998262 
1.20516725e+3, 2.7486396e+2, -171359.61, -397434.25, 3629.7913, 0.09906138, -0.20378427, -171301.34, 75021.68, 0.000009032264, 10.001275, 9.998309 
1.20518625e+3, 2.8486228e+2, -82601.32, -426227.44, 16997.205, 0.09964417, -0.14033656, -81762.61, 66578.18, 0.000052136886, 10.001747, 9.997209 
1.2052032e+3, 2.9486117e+2, 111847.78, -277421.44, 7852.3887, -0.08134215, -0.01202209, 112006.12, 162360.48, 0.0001849306, 10.002394, 9.997238 
1.20522216e+3, 3.048582e+2, 173813.14, -277195.22, -7026.13, -0.025826836, 0.0048059057, 173922.56, 173922.56, 0.0004665325, 10.00273, 9.996745 
1.20524e+3, 3.148555e+2, 210419.0, -81488.625, -15456.103, -0.012425436, 0.011887205, 211235.11, 211235.11, 0.00090606173, 10.002164, 9.998353 
1.2148855e+3, 1.2484508e+2, -1900583.5, -1641556.5, -100016.234, -0.08017549, 0.03204846, -1607433.1, 109081.94, 0.0026624324, 9.997997, 10.001435 
1.2149006e+3, 1.3484442e+2, -1739130.9, -1504523.8, -67520.5, -0.19568336, -0.2111736, -1486479.0, 132036.63, 0.0014356553, 9.998408, 10.001527 
1.2149205e+3, 1.4484523e+2, -1717149.4, -1563691.4, 1064.6869, -0.04148128, -0.22131991, -1563683.9, -43177.445, 0.0005075534, 9.99837, 10.000445 
1.21493995e+3, 1.5484752e+2, -1640677.4, -1483724.9, -17709.607, 0.065036945, -0.07448957, -1481751.5, -59263.387, 0.000076397075, 9.998265, 10.000377 
1.21495865e+3, 1.648488e+2, -1546545.5, -1377360.1, -18974.65, 0.06813034, 0.024190769, -1375258.1, -50779.805, 0.0000008702971, 9.998222, 10.000439 
1.2149772e+3, 1.7484875e+2, -1422849.1, -1259580.5, 574.18854, 0.014394949, -0.061145954, -1259578.5, -33098.2, 0.0, 9.998367, 10.000507 
1.2149958e+3, 1.8484895e+2, -1286374.4, -1110304.8, -27289.912, -0.014760554, -0.09845838, -1106172.0, 22304.84, 0.0, 9.998473, 10.000815 
1.2150145e+3, 1.9484906e+2, -1180201.6, -1001278.75, -948.20013, -0.016807314, -0.20915289, -1001273.7, 29197.314, 0.0, 9.998496, 10.000878 
1.2150348e+3, 2.0484997e+2, -1124828.0, -1051357.0, 54468.816, 0.038260743, -0.1388144, -1022393.56, -89932.26, 0.0, 9.998738, 9.999753 
1.2150568e+3, 2.1485154e+2, -953939.8, -908784.5, 50447.777, 0.15325084, 0.0030033279, -876092.56, -41642.63, 0.0, 9.999194, 9.999841 
1.2150759e+3, 2.248517e+2, -797462.6, -777766.3, -72255.49, 0.12993765, 0.042052403, -714690.94, 21758.09, 0.0, 9.99959, 9.999879 
1.21509194e+3, 2.3485006e+2, -652460.7, -645430.5, -10404.887, -0.04206014, -0.14444865, -637963.0, 499.1543, 0.0, 9.999864, 9.999979 
1.21511e+3, 2.4484923e+2, -621139.56, -745195.2, 11268.709, -0.07065037, -0.14549688, -620124.25, -79654.34, 0.0, 10.000135, 9.998471 
1.2151299e+3, 2.5484887e+2, -458230.44, -616064.6, -9089.941, 0.062040877, -0.06554446, -457708.66, -15233.106, 0.00000000018849695, 10.000571, 9.99848 
1.215149e+3, 2.6484767e+2, -296474.03, -461576.88, -6174.8955, 0.061175738, -0.03470484, -296243.4, 48243.074, 0.00000061447383, 10.000888, 9.998732 
1.215167e+3, 2.748452e+2, -156151.11, -334984.44, 30375.094, -0.08694342, -0.1894459, -151132.69, 95374.086, 0.000008322687, 10.001129, 9.998815 
1.2151858e+3, 2.8484353e+2, -100370.07, -405773.3, 26937.371, -0.15427677, -0.16309766, -98012.32, 50510.383, 0.000050710027, 10.001519, 9.997451 
1.2152057e+3, 2.948425e+2, 105967.0, -248535.22, 57592.184, -0.11935425, -0.056359213, 115088.67, 165624.6, 0.00018357177, 10.002223, 9.997514 
1.2152256e+3, 3.048396e+2, 149057.16, -287584.22, -37112.87, 0.013063784, -0.04977541, 152189.14, 152189.14, 0.00046227945, 10.002556, 9.996762 
1.2152417e+3, 3.1483606e+2, 196721.88, -52814.973, 3288.7507, -0.12592931, -0.12445495, 196765.22, 196765.22, 0.000888819, 10.00192, 9.99867 
1.22488424e+3, 1.24825865e+2, -2151460.8, -1727418.5, 5413.3047, 0.10586833, -0.0040174965, -1727349.4, -10646.216, 0.0029179724, 9.9961, 10.001762 
1.2248987e+3, 1.3482592e+2, -1833882.1, -1502791.8, -1746.9128, -0.18053573, -0.21935205, -1502782.5, 115912.74, 0.0015834377, 9.997551, 10.001953 
1.2249188e+3, 1.4482667e+2, -1748775.8, -1589403.6, 61869.8, -0.027695177, -0.2537596, -1568204.9, -47518.71, 0.00056846405, 9.998212, 10.000343 
1.22493796e+3, 1.5482876e+2, -1633959.1, -1478846.1, 21052.346, 0.051259805, -0.11970276, -1476039.6, -53369.484, 0.00008951281, 9.998342, 10.000353 
1.224957e+3, 1.6483001e+2, -1535046.3, -1403932.5, 68635.77, 0.08218041, -0.0104216505, -1374575.9, -49914.53, 0.0000012652538, 9.998394, 10.000205 
1.2249763e+3, 1.7483011e+2, -1429016.0, -1284993.9, 40574.21, 0.10032734, -0.062178217, -1274349.9, -47686.55, 0.0, 9.998395, 10.000337 
1.2249951e+3, 1.8483044e+2, -1231488.1, -1096178.4, 41631.215, 0.061938953, -0.07225649, -1084395.6, 44263.633, 0.0, 9.998889, 10.00072 
1.2250133e+3, 1.9483067e+2, -971584.5, -912417.7, 7469.394, -0.046188775, -0.15881851, -911489.3, 119163.16, 0.0, 9.999973, 10.000786 
1.2250337e+3, 2.0483148e+2, -960725.9, -973518.6, 71014.45, 0.009035001, -0.09404574, -895820.3, 36823.816, 0.0, 9.999885, 9.999727 
1.2250564e+3, 2.1483263e+2, -1054711.8, -957015.94, 76430.47, 0.23362947, 0.010052522, -915157.0, -80520.24, 0.0, 9.998526, 9.99982 
1.22507595e+3, 2.2483289e+2, -910613.75, -803964.8, 29710.293, 0.22815368, 0.04504625, -796246.7, -59611.72, 0.0, 9.998677, 10.000138 
1.2250922e+3, 2.3483182e+2, -557168.06, -573997.2, -13328.937, -0.029265452, -0.11077006, -549819.9, 88822.59, 0.0, 10.000392, 10.000219 
1.22511044e+3, 2.448311e+2, -494132.72, -697129.1, -693.80194, -0.06975025, -0.10655189, -494130.34, 46518.53, 0.0, 10.001032, 9.998392 
1.225131e+3, 2.5483045e+2, -470569.6, -629445.3, 13835.419, 0.122659996, -0.045382008, -469373.75, -26716.865, 0.0, 10.0005045, 9.998433 
1.2251504e+3, 2.648292e+2, -353501.2, -505891.66, 80892.44, 0.13262013, -0.010875702, -318569.0, 26099.67, 0.0000003685213, 10.000596, 9.998549 
1.2251683e+3, 2.748269e+2, -145360.56, -345334.25, 27505.168, -0.06506352, -0.132134, -141646.38, 105041.984, 0.0000073761885, 10.001322, 9.998624 
1.2251874e+3, 2.848252e+2, -52225.875, -339538.97, 25841.771, -0.14268877, -0.121910185, -49920.094, 98784.23, 0.000049087277, 10.001629, 9.99786 
1.2252079e+3, 2.9482388e+2, 82.09528, -259925.19, 36873.98, -0.06442872, -0.08000939, 5210.379, 55928.418, 0.00018153466, 10.001293, 9.997896 
1.2252282e+3, 3.048216e+2, 58837.742, -291144.2, 3754.1326, 0.08902526, -0.045128267, 58878.008, 58878.008, 0.00045750884, 10.001779, 9.997098 
1.22524485e+3, 3.1481847e+2, 344922.22, 46780.664, -11702.88, -0.02185637, -0.114255324, 345380.88, 345380.88, 0.0008771986, 10.002783, 9.998945 
1.2348823e+3, 1.2480707e+2, -2118149.3, -1671932.8, -66678.92, 0.22661425, -0.12570435, -1662181.9, 54704.633, 0.0031899144, 9.996141, 10.002127 
1.2348977e+3, 1.3481013e+2, -1834776.6, -1517033.9, 61264.777, -0.06046043, -0.033684507, -1505630.5, 113221.4, 0.0017411282, 9.997581, 10.001846 
1.2349165e+3, 1.4481102e+2, -1735464.4, -1574011.4, 45424.383, -0.13511571, -0.053185195, -1562108.8, -41267.348, 0.0006337289, 9.998256, 10.000434 
1.23493515e+3, 1.5481105e+2, -1622366.0, -1464717.5, 37384.445, -0.10318004, -0.1327318, -1456301.5, -33458.676, 0.00010392506, 9.998363, 10.000453 
1.2349544e+3, 1.6481164e+2, -1552395.4, -1438591.0, 45509.63, -0.051886596, -0.085959345, -1422630.5, -97790.62, 0.0000017603737, 9.998394, 9.99996 
1.23497464e+3, 1.7481254e+2, -1452091.0, -1331466.9, 53745.27, 0.054300256, -0.029904075, -1310994.8, -84159.69, 0.0, 9.99838, 10.000027 
1.2349944e+3, 1.8481357e+2, -1273906.5, -1171866.3, 64592.81, 0.06906381, 0.06932774, -1140574.3, -11747.8, 0.0, 9.998836, 10.000225 
1.2350138e+3, 1.9481447e+2, -1020364.6, -988641.4, 64396.5, -0.026539164, 0.09810903, -938181.8, 92634.4, 0.0, 9.999862, 10.000316 
1.23503335e+3, 2.0481446e+2, -945664.44, -903483.8, 1497.4434, -0.04071865, 0.0772001, -903430.75, 29383.34, 0.0, 9.999719, 10.000289 
1.2350531e+3, 2.1481317e+2, -1043540.6, -890871.9, 40455.188, 0.032562476, -0.12026317, -880814.3, -45990.41, 0.0, 9.998336, 10.000368 
1.2350735e+3, 2.2481309e+2, -984306.94, -912150.0, 77117.914, 0.09309367, -0.11235786, -863088.44, -126263.2, 0.0, 9.998479, 9.9994955 
1.2350945e+3, 2.3481405e+2, -635147.6, -688018.5, 70787.47, 0.13917841, -0.0027428933, -586020.5, 52799.75, 0.0, 10.000178, 9.999544 
1.2351135e+3, 2.4481402e+2, -472414.13, -597010.4, -34331.527, 0.1180844, 0.0690485, -463580.63, 77240.14, 0.0, 10.000798, 9.99919 
1.2351309e+3, 2.548127e+2, -436234.0, -518658.25, 11808.805, 0.03709598, -0.02164387, -434575.53, 8254.399, 0.0, 10.000327, 9.999283 
1.2351499e+3, 2.648111e+2, -448832.8, -652207.75, 92801.734, 0.006036974, -0.02213728, -412852.2, -68007.47, 0.00000016286783, 10.000382, 9.997647 
1.2351708e+3, 2.7480882e+2, -238038.02, -497480.38, 75807.11, 0.020249488, -0.044429, -217511.72, 29357.43, 0.000006622681, 10.001152, 9.99766 
1.23519056e+3, 2.8480697e+2, -35201.023, -259665.6, 3069.439, -0.016395112, -0.028222254, -35159.06, 113728.234, 0.000048750662, 10.001444, 9.998498 
1.2352093e+3, 2.9480526e+2, 26212.92, -172761.11, 48504.637, -0.08614489, -0.096723616, 37407.277, 88308.85, 0.00018217463, 10.001145, 9.998571 
1.2352299e+3, 3.0480418e+2, 69366.35, -230109.25, 34031.29, 0.0391152, -0.0033231482, 73184.85, 73184.85, 0.00045752534, 10.001613, 9.997599 
1.2352487e+3, 3.1480244e+2, 313127.75, 53003.31, 60079.305, 0.008459139, 0.015644426, 326333.47, 326333.47, 0.00087450614, 10.002481, 9.99913 
1.2448794e+3, 1.2478964e+2, -1946402.4, -1621460.3, 32906.11, 0.27110928, -0.14177619, -1618161.4, 98894.54, 0.003475539, 9.9974785, 10.0018215 
1.24489635e+3, 1.3479275e+2, -1899781.4, -1603804.6, 68470.51, 0.06677755, 0.0019970888, -1588732.4, 30291.648, 0.0019075654, 9.997369, 10.001358 
1.24491416e+3, 1.447938e+2, -1844124.8, -1596780.4, 70943.99, -0.13505317, 0.009576268, -1577876.8, -56864.24, 0.0007030745, 9.997383, 10.000692 
1.2449332e+3, 1.547936e+2, -1667649.1, -1462977.0, 36768.184, -0.09660413, -0.11768765, -1456572.3, -33558.938, 0.00011956255, 9.99793, 10.000679 
1.2449529e+3, 1.647939e+2, -1536152.5, -1451226.8, 92307.05, -0.04785562, -0.101672105, -1392084.1, -67072.586, 0.0000023468863, 9.998609, 9.999763 
1.2449734e+3, 1.7479452e+2, -1291144.0, -1273032.1, 69675.836, 0.042979468, -0.05226016, -1211826.1, 15182.694, 0.0, 9.999589, 9.999834 
1.2449938e+3, 1.8479528e+2, -1188679.8, -1183432.0, 99266.64, 0.08729767, 0.052439455, -1086754.6, 42248.875, 0.0, 9.999654, 9.999746 
1.2450139e+3, 1.947958e+2, -1216732.0, -1140110.6, 68263.055, 0.06878586, 0.09055803, -1100142.6, -69143.77, 0.0, 9.998752, 9.99981 
1.2450333e+3, 2.047955e+2, -1062055.8, -944283.5, 17299.457, 0.04042661, 0.058511216, -941794.94, -8795.152, 0.0, 9.998846, 10.000431 
1.24505185e+3, 2.1479402e+2, -793326.5, -750919.25, -9728.443, 0.00930595, -0.17361183, -748794.0, 86215.87, 0.0, 9.999962, 10.000547 
1.2450725e+3, 2.2479412e+2, -729588.44, -809448.9, 88304.08, 0.06100264, -0.15020074, -672606.1, 64403.777, 0.0, 10.000345, 9.999287 
1.245095e+3, 2.3479553e+2, -680822.0, -728305.6, 79888.1, 0.19829828, 0.027530326, -621222.44, 17780.088, 0.0, 9.999975, 9.999348 
1.2451149e+3, 2.4479558e+2, -517832.25, -595910.06, -4932.66, 0.19563836, 0.10605729, -517521.84, 23480.963, 0.0, 10.000398, 9.999383 
1.2451319e+3, 2.5479394e+2, -230233.33, -392904.47, -39339.836, 0.045400355, -0.037417527, -221219.03, 221794.72, 0.0, 10.001649, 9.999495 
1.2451512e+3, 2.647922e+2, -189965.0, -561221.9, 67496.74, 0.0227713, -0.04586869, -178074.5, 166955.0, 0.000000050542315, 10.002271, 9.997375 
1.24517344e+3, 2.747901e+2, -114083.38, -475556.34, 66305.18, 0.1285119, -0.02405171, -102304.79, 144749.1, 0.0000061370592, 10.002125, 9.997365 
1.2451931e+3, 2.847882e+2, 21408.58, -231395.28, 9118.897, 0.09145181, 0.0016689447, 21737.082, 170810.14, 0.000049451548, 10.001846, 9.99849 
1.2452105e+3, 2.9478613e+2, 68359.13, -143662.28, -35358.13, -0.08409181, -0.09831853, 74100.24, 125189.98, 0.00018750013, 10.001431, 9.998615 
1.2452312e+3, 3.0478528e+2, 95383.836, -178268.94, 6667.237, 0.026138475, -0.004578082, 95546.18, 95546.18, 0.000470274, 10.00159, 9.997983 
1.24525204e+3, 3.1478345e+2, 269788.06, 28132.33, -43784.676, 0.12665193, -0.029699264, 277476.63, 277476.63, 0.0008944317, 10.002193, 9.999105 
1.2548755e+3, 1.2477411e+2, -2002464.9, -1761941.9, 86643.984, 0.05153665, -0.019563118, -1733980.5, -16774.25, 0.0037739007, 9.997568, 10.000817 
1.2548941e+3, 1.3477397e+2, -1957278.5, -1729933.1, 75513.586, 0.09036342, -0.1143392, -1707136.8, -87927.14, 0.0020822603, 9.997395, 10.000483 
1.2549117e+3, 1.4477512e+2, -1812875.1, -1535950.8, 73066.65, -0.16114153, -0.072843865, -1517854.5, 3343.3225, 0.0007764397, 9.997397, 10.0011015 
1.2549317e+3, 1.5477654e+2, -1635712.3, -1398531.5, 73912.22, -0.07226267, -0.08285307, -1377383.9, 45796.473, 0.00013646827, 9.997937, 10.001117 
1.254952e+3, 1.6477697e+2, -1551934.1, -1489491.9, 108237.12, -0.036454495, -0.06316302, -1408063.0, -82888.0, 0.0000030208696, 9.998625, 9.9994955 
1.2549724e+3, 1.7477621e+2, -1309522.6, -1309904.0, 120389.54, -0.04889939, -0.12560634, -1189323.6, 37859.62, 0.0, 9.999577, 9.999589 
1.2549928e+3, 1.847756e+2, -1222755.0, -1245565.9, 47854.723, -0.00232816, -0.12585409, -1184965.3, -55775.125, 0.0, 9.999613, 9.999344 
1.2550135e+3, 1.9477472e+2, -1257802.3, -1206611.3, 50065.984, 0.109900534, -0.18614553, -1175977.5, -144777.69, 0.0, 9.998665, 9.999397 
1.2550332e+3, 2.0477466e+2, -1106448.1, -997120.1, 41188.09, 0.12378013, -0.1600359, -983339.94, -50139.33, 0.0, 9.998678, 10.000154 
1.2550522e+3, 2.1477525e+2, -844709.6, -807630.25, 49267.367, 0.027094524, -0.15517588, -773529.7, 61664.26, 0.0, 9.999745, 10.000268 
1.2550722e+3, 2.2477588e+2, -751483.8, -798049.56, 58856.844, -0.0116959, -0.071818605, -711472.0, 25717.387, 0.0, 10.000105, 9.999476 
1.2550935e+3, 2.347762e+2, -696475.5, -715036.7, 82892.32, 0.025407473, -0.024427915, -622345.9, 16844.246, 0.0, 9.999776, 9.999536 
1.255114e+3, 2.4477573e+2, -574777.0, -664529.44, 24297.215, 0.03485502, 0.00781204, -568621.56, -27426.123, 0.0, 10.000183, 9.999015 
1.2551335e+3, 2.5477406e+2, -290338.06, -473160.34, 24524.71, 0.012576557, -0.096938066, -287105.34, 156103.6, 0.0, 10.001448, 9.999044 
1.255154e+3, 2.6477247e+2, -198567.22, -525870.1, 46666.336, 0.037884135, -0.08688118, -192043.63, 153180.34, 0.00000007625481, 10.002046, 9.997724 
1.2551756e+3, 2.7477068e+2, -115721.84, -433067.84, 82031.99, 0.117140494, -0.07056914, -95771.305, 151471.89, 0.0000061507535, 10.001926, 9.997754 
1.2551948e+3, 2.8476882e+2, -50893.855, -342570.4, -18727.91, 0.036725998, -0.02362086, -49696.297, 99565.19, 0.000051588533, 10.001681, 9.997801 
1.2552111e+3, 2.9476655e+2, 1041.9819, -256382.44, -28861.26, -0.20192581, -0.083853364, 4238.0938, 55520.61, 0.00020006, 10.001315, 9.997893 
1.255232e+3, 3.0476496e+2, 101163.88, -147586.45, 18181.27, -0.08792187, -0.040670816, 102485.734, 102485.734, 0.0005036429, 10.001505, 9.998233 
1.2552539e+3, 3.1476185e+2, 203193.73, -47490.848, 17532.215, 0.022859434, -0.22435443, 204413.95, 204413.95, 0.00095318654, 10.001919, 9.99872 
1.2648723e+3, 1.24756046e+2, -2151192.3, -1866506.5, 97608.69, 0.021421332, -0.016251938, -1836254.6, -118873.01, 0.004085261, 9.996707, 10.000527 
1.2648913e+3, 1.347558e+2, -1957126.1, -1724075.5, 18206.205, 0.0770995, -0.10768918, -1722661.8, -103274.11, 0.0022650692, 9.997415, 10.000499 
1.2649101e+3, 1.4475682e+2, -1774938.5, -1516464.8, 78190.77, -0.055371862, -0.08053562, -1494652.0, 26725.574, 0.00085386867, 9.99765, 10.0011215 
1.2649307e+3, 1.5475833e+2, -1656277.1, -1401773.5, 10156.203, 0.043667406, -0.08146134, -1401368.8, 21989.74, 0.00015477135, 9.9977865, 10.001165 
1.2649511e+3, 1.647588e+2, -1627156.1, -1502090.1, 99608.41, 0.057280432, -0.06772805, -1447012.8, -121661.31, 0.0000038088367, 9.998022, 9.999688 
1.2649713e+3, 1.7475799e+2, -1438021.1, -1353842.4, 111586.45, -0.05746589, -0.15667039, -1276671.4, -49312.33, 0.0, 9.998619, 9.999749 
1.2649918e+3, 1.8475714e+2, -1296049.6, -1284523.5, 63413.92, -0.030096196, -0.18580718, -1226611.4, -97243.98, 0.0, 9.999122, 9.999311 
1.2650128e+3, 1.9475597e+2, -1131604.8, -1146043.4, 56818.684, 0.15037286, -0.27187592, -1081548.6, -50168.727, 0.0, 9.99955, 9.999379 
1.2650332e+3, 2.0475598e+2, -957612.2, -985119.06, 123375.13, 0.1955962, -0.21011724, -847226.25, 86155.164, 0.0, 9.999959, 9.999613 
1.2650527e+3, 2.1475703e+2, -798328.5, -846301.75, 76009.1, 0.08266828, -0.10904341, -742611.06, 92762.87, 0.0, 10.000326, 9.999715 
1.2650728e+3, 2.2475752e+2, -681561.3, -745676.75, 73621.57, 0.018714277, -0.018374896, -633320.6, 104049.95, 0.0, 10.00048, 9.999672 
1.2650934e+3, 2.3475724e+2, -599082.0, -642780.75, 69108.75, 0.019744124, -0.051724013, -548450.94, 90922.984, 0.0, 10.000321, 9.999781 
1.2651141e+3, 2.447565e+2, -543570.9, -697170.5, 86308.51, 0.026919167, -0.039227385, -504839.84, 36541.69, 0.0, 10.000586, 9.998609 
1.265135e+3, 2.5475493e+2, -335577.4, -542941.2, 55223.32, 0.04192856, -0.09010019, -321787.8, 121609.28, 0.0, 10.001328, 9.998634 
1.2651558e+3, 2.6475352e+2, -256673.83, -506542.5, 63133.36, 0.06828818, -0.06152273, -241628.13, 103782.97, 0.00000015326442, 10.001455, 9.998138 
1.2651768e+3, 2.7475193e+2, -235255.03, -434553.97, 61088.39, 0.10563129, -0.06972143, -218020.77, 29405.625, 0.0000068361555, 10.000882, 9.998232 
1.265196e+3, 2.8475004e+2, -145270.06, -417981.84, 40740.586, 0.038478266, -0.04086767, -139313.89, 10130.54, 0.000055437977, 10.001141, 9.997557 
1.2652138e+3, 2.9474744e+2, 152978.56, -214960.19, 29529.51, -0.11987035, -0.09968696, 155333.44, 206802.5, 0.00021969865, 10.002473, 9.997636 
1.2652348e+3, 3.0474547e+2, 300189.47, -44983.45, 90967.87, -0.021328786, -0.08197558, 322695.9, 322695.9, 0.00055763865, 10.002869, 9.99827 
1.2652558e+3, 3.1474298e+2, 165862.7, -105344.234, -5368.769, 0.037968952, -0.20217663, 165968.95, 165968.95, 0.0010546546, 10.00186, 9.9983425 
1.2748696e+3, 1.2473528e+2, -2100439.8, -1772778.3, 94573.16, 0.030214325, -0.14066526, -1747440.9, -29857.596, 0.0044096503, 9.99676, 10.001136 
1.274887e+3, 1.3473831e+2, -1904372.8, -1617546.5, 52132.53, -0.12592393, 0.020858798, -1608365.0, 11192.203, 0.0024558255, 9.9974165, 10.001232 
1.2749088e+3, 1.44739e+2, -1789942.3, -1562480.8, 63496.5, -0.00008731947, -0.008443842, -1545956.0, -24405.191, 0.00093550276, 9.997708, 10.000777 
1.2749296e+3, 1.5473914e+2, -1678919.4, -1458128.9, 31405.854, 0.12591894, -0.11250978, -1453748.5, -30202.168, 0.00017466526, 9.997818, 10.000765 
1.2749499e+3, 1.6473942e+2, -1577382.6, -1409604.5, 102108.42, 0.099705346, -0.12754448, -1361344.0, -35802.85, 0.0000047674703, 9.998063, 10.000305 
1.2749697e+3, 1.7473976e+2, -1395267.9, -1263841.6, 149669.72, -0.107977584, -0.16323651, -1166094.5, 61442.113, 0.0, 9.998608, 10.000374 
1.2749903e+3, 1.847399e+2, -1286871.8, -1248896.6, 64884.598, -0.13429679, -0.13895363, -1200278.5, -70743.59, 0.0, 9.999056, 9.999583 
1.2750117e+3, 1.9473952e+2, -1126089.4, -1112512.0, 89348.45, 0.054512635, -0.1746764, -1029694.75, 1844.3988, 0.0, 9.9994545, 9.999653 
1.2750326e+3, 2.0473942e+2, -1037074.3, -1115221.4, 118158.04, 0.1185139, -0.100483164, -951696.8, -18153.69, 0.0, 9.999809, 9.998793 
1.275053e+3, 2.1473931e+2, -890844.75, -987379.0, 104159.55, 0.04922939, -0.030067833, -824312.3, 11237.588, 0.0, 10.000104, 9.998856 
1.2750734e+3, 2.2473912e+2, -698152.8, -721603.7, 51331.266, 0.024000844, 0.022611387, -657224.8, 80328.016, 0.0, 10.0002365, 9.999949 
1.2750943e+3, 2.3473859e+2, -612201.6, -617595.94, 78971.14, 0.045957055, -0.067816906, -535881.6, 103673.02, 0.0, 10.000099, 10.000058 
1.275115e+3, 2.4473779e+2, -610070.7, -781308.4, 98608.47, 0.03312719, -0.048311222, -565097.75, -23535.47, 0.0, 10.0003605, 9.998136 
1.2751362e+3, 2.5473654e+2, -397223.25, -620628.0, 101797.234, -0.008055849, -0.023435349, -357796.22, 85781.93, 0.0, 10.001115, 9.998202 
1.2751567e+3, 2.6473537e+2, -258884.42, -463484.4, 27879.34, -0.027183738, 0.03127393, -255153.53, 90436.98, 0.00000020123079, 10.001254, 9.9985285 
1.2751767e+3, 2.7473378e+2, -234743.55, -391155.3, 57721.176, -0.03512652, -0.022047987, -215749.16, 31854.574, 0.0000077157165, 10.000706, 9.998612 
1.2751968e+3, 2.8473166e+2, -154837.55, -406848.4, 70295.12, -0.037132815, -0.04039498, -136555.86, 13066.797, 0.000060411407, 10.001004, 9.997697 
1.2752177e+3, 2.9472882e+2, 130445.125, -208435.02, 103028.734, -0.012360701, -0.14222752, 159310.02, 210959.48, 0.00024271311, 10.002249, 9.9977865 
1.2752388e+3, 3.0472675e+2, 247544.03, -117621.27, 46801.05, 0.06985818, -0.12208443, 253446.83, 253446.83, 0.0006225909, 10.002708, 9.9978485 
1.275257e+3, 3.147271e+2, 80545.07, -210042.2, -5233.373, -0.083589494, 0.07890105, 80639.29, 80639.29, 0.0011840102, 10.00157, 9.997752 
1.2848675e+3, 1.2471464e+2, -2144183.3, -1736643.8, 70406.67, 0.1920578, -0.19914569, -1724823.1, -7038.678, 0.0047468157, 9.996173, 10.001673 
1.284884e+3, 1.3471842e+2, -1926788.5, -1589640.3, -3928.6838, -0.13125739, -0.0022688026, -1589594.5, 30155.398, 0.0026545508, 9.9970665, 10.00159 
1.2849073e+3, 1.4471903e+2, -1835804.1, -1595081.5, 19824.156, 0.10222634, -0.051644154, -1593459.9, -71715.66, 0.0010215283, 9.997469, 10.000664 
1.2849274e+3, 1.5471938e+2, -1650469.3, -1452043.0, -30212.975, 0.12635207, -0.120667435, -1447544.8, -23805.057, 0.00019628371, 9.998064, 10.000683 
1.2849478e+3, 1.6471982e+2, -1546323.0, -1389540.1, 58352.69, 0.09166672, -0.11994023, -1370206.3, -44471.816, 0.0000059623408, 9.998227, 10.000381 
1.2849684e+3, 1.7472029e+2, -1488685.1, -1295995.5, 29353.676, -0.048281677, -0.14949897, -1291623.1, -63894.137, 0.0, 9.997901, 10.0005 
1.2849896e+3, 1.8472084e+2, -1383168.4, -1269849.0, -16255.191, -0.06403264, -0.10032105, -1267563.4, -137839.72, 0.0, 9.998305, 9.999797 
1.2850112e+3, 1.947211e+2, -1069858.3, -1060687.3, -29887.654, 0.05845189, -0.08991264, -1035035.4, -3313.323, 0.0, 9.999754, 9.999864 
1.2850325e+3, 2.0472102e+2, -952414.0, -1068806.5, 24321.973, 0.10689602, -0.024400169, -947535.94, -13810.751, 0.0, 10.000365, 9.998847 
1.2850532e+3, 2.1472026e+2, -899888.44, -980276.4, 46152.95, 0.0718161, -0.02336892, -878880.7, -43144.242, 0.0, 10.000006, 9.998948 
1.2850739e+3, 2.2471964e+2, -736422.06, -769337.2, 48152.75, 0.054263715, -0.006114053, -701992.1, 35750.68, 0.0, 10.000097, 9.999689 
1.2850945e+3, 2.3471893e+2, -549265.1, -614075.44, -949.52045, 0.055008423, -0.08649608, -549251.2, 90495.445, 0.0, 10.000656, 9.999807 
1.2851158e+3, 2.4471818e+2, -487289.3, -699100.25, 67332.61, 0.041580833, -0.06011576, -467697.16, 74056.445, 0.0, 10.001109, 9.998335 
1.2851375e+3, 2.5471717e+2, -342713.53, -569556.06, 82497.09, 0.021146733, -0.03145562, -315884.47, 127881.81, 0.0, 10.001393, 9.998411 
1.2851584e+3, 2.6471597e+2, -199388.03, -440278.47, 25830.613, 0.008575932, 0.009969161, -196649.36, 149129.77, 0.00000014147287, 10.001666, 9.998497 
1.285178e+3, 2.747141e+2, -48273.52, -307004.6, -11522.971, -0.0020791152, -0.061861407, -47761.34, 200034.67, 0.000007879153, 10.001994, 9.99858 
1.2851988e+3, 2.8471252e+2, 15729.872, -277028.1, 49449.2, 0.022574555, -0.045393687, 23856.648, 173667.08, 0.00006527563, 10.001982, 9.9981165 
1.2852204e+3, 2.9471081e+2, 57813.754, -193926.67, 59124.49, 0.10085274, -0.07652872, 71008.33, 122834.195, 0.000269289, 10.0015335, 9.998229 
1.2852418e+3, 3.0470812e+2, 139601.63, -197885.44, 55319.715, 0.14667667, -0.12563916, 148438.08, 148438.08, 0.0006978728, 10.002068, 9.997621 
1.2852599e+3, 3.1470835e+2, 365046.75, -90711.86, -57542.31, -0.02994003, 0.08662, 372199.56, 372199.56, 0.0013327188, 10.00354, 9.997645 
1.2948622e+3, 1.2469485e+2, -2108441.3, -1652010.0, -91058.336, -0.032114636, -0.13698468, -1634514.4, 83463.9, 0.0050962004, 9.99615, 10.002262 
1.2948823e+3, 1.3469619e+2, -1941893.5, -1602082.4, 38772.875, -0.04537602, -0.18062036, -1597714.5, 22250.291, 0.0028611089, 9.996999, 10.001536 
1.2949054e+3, 1.4469694e+2, -1832535.5, -1586830.9, 17979.164, 0.1124689, -0.21401702, -1585522.3, -63564.12, 0.00111182, 9.997465, 10.000722 
1.2949237e+3, 1.5469912e+2, -1648314.5, -1445761.0, 10799.929, -0.087964356, -0.10387649, -1445186.8, -21248.377, 0.000219555, 9.998055, 10.000734 
1.2949443e+3, 1.6470008e+2, -1570272.3, -1442481.8, 26800.492, -0.123241894, -0.03558623, -1437088.8, -111158.52, 0.0000074533, 9.998238, 10.0000105 
1.2949671e+3, 1.7469966e+2, -1521260.3, -1361131.9, 31162.996, -0.010139225, -0.116201505, -1355281.0, -127345.83, 0.0, 9.997884, 10.000061 
1.2949891e+3, 1.8470003e+2, -1381843.4, -1263504.9, 18398.342, 0.037957855, -0.06668713, -1260710.4, -130777.34, 0.0, 9.998285, 9.999851 
1.295011e+3, 1.9470079e+2, -1076927.3, -1058557.1, 39361.027, 0.03919507, -0.014581218, -1027323.7, 4604.127, 0.0, 9.999668, 9.999922 
1.2950324e+3, 2.0470083e+2, -913642.06, -946380.7, -5274.0757, 0.030753508, 0.015407362, -912813.4, 21113.965, 0.0, 10.000192, 9.999765 
1.2950529e+3, 2.1469982e+2, -863938.75, -856213.0, 45705.48, 0.013415692, -0.104354545, -814207.44, 21726.963, 0.0, 9.999795, 9.999898 
1.2950733e+3, 2.2469905e+2, -828381.75, -901426.44, 52385.6, -0.027042728, -0.11288758, -801043.8, -63102.855, 0.0, 9.999847, 9.998901 
1.295094e+3, 2.3469837e+2, -641131.8, -751551.06, 39943.684, -0.0876968, -0.108243756, -628197.5, 11751.742, 0.0, 10.000423, 9.998978 
1.2951156e+3, 2.4469773e+2, -476879.34, -607150.8, 61764.055, -0.08475148, -0.06403656, -452251.72, 89703.26, 0.0, 10.000823, 9.999096 
1.2951389e+3, 2.546968e+2, -324219.47, -469222.97, 110577.57, -0.0035503048, -0.110933445, -264494.5, 179467.38, 0.0, 10.001143, 9.999213 
1.2951608e+3, 2.6469532e+2, -256873.58, -520090.56, 20734.783, 0.045306243, -0.114227355, -255250.22, 90726.55, 0.000000052302592, 10.001484, 9.998042 
1.295181e+3, 2.746932e+2, -113817.914, -390140.8, 19932.588, 0.0558752, -0.17075878, -112387.48, 135613.61, 0.000007172051, 10.001762, 9.998123 
1.2952015e+3, 2.846927e+2, 25077.719, -206158.19, 18707.043, 0.06333668, -0.046813626, 26581.346, 176587.78, 0.00006969282, 10.001757, 9.998711 
1.295222e+3, 2.946935e+2, 68335.71, -124401.62, 66659.266, 0.07317078, 0.10831014, 89143.74, 141140.75, 0.0003009035, 10.001332, 9.998801 
1.2952434e+3, 3.046898e+2, 118372.55, -221795.23, 94503.02, 0.074037895, -0.06512702, 142863.45, 142863.45, 0.0007869782, 10.001975, 9.997504 
1.2952638e+3, 3.1468734e+2, 346134.97, -51147.63, 40269.566, -0.06587178, -0.11466378, 350175.7, 350175.7, 0.0015032798, 10.003209, 9.9980755 
1.3048582e+3, 1.24674596e+2, -2117069.5, -1659703.6, -91475.91, -0.029469945, -0.08484767, -1642086.4, 76091.19, 0.0054552136, 9.996109, 10.002229 
1.30488e+3, 1.3467506e+2, -2030293.4, -1666832.8, -7360.0317, 0.06525829, -0.19333887, -1666683.8, -46510.453, 0.003073975, 9.996499, 10.001328 
1.3049023e+3, 1.4467607e+2, -1920822.6, -1627238.4, 21197.795, 0.09717841, -0.19095631, -1625715.8, -103551.69, 0.0012055306, 9.996828, 10.000753 
1.3049214e+3, 1.546781e+2, -1667101.1, -1446221.6, -17749.197, -0.10895449, -0.10613586, -1444804.4, -20658.584, 0.000244213, 9.997878, 10.0008135 
1.3049427e+3, 1.6467918e+2, -1534835.8, -1405423.9, 22213.396, -0.112359494, -0.03720588, -1401717.1, -75580.86, 0.000009295233, 9.998439, 10.0001545 
1.3049658e+3, 1.7467915e+2, -1384475.9, -1271421.1, 30041.252, 0.04016646, -0.09348483, -1263934.3, -35797.273, 0.0, 9.998765, 10.000236 
1.3049884e+3, 1.8467946e+2, -1291021.9, -1234032.1, 91633.125, 0.10397565, -0.051616628, -1166565.6, -36430.4, 0.0, 9.998944, 9.99975 
1.3050108e+3, 1.9467983e+2, -1203318.0, -1127366.3, 68996.766, 0.086960904, -0.02932047, -1086584.8, -54450.754, 0.0, 9.998832, 9.999858 
1.3050322e+3, 2.0467979e+2, -1031848.56, -983077.4, 15945.47, 0.058732133, -0.011204435, -978326.8, -44192.875, 0.0, 9.999283, 9.999957 
1.3050528e+3, 2.1467908e+2, -767587.8, -787547.75, -24355.473, 0.012789374, -0.11984338, -751246.9, 84890.31, 0.0, 10.000362, 10.000101 
1.3050738e+3, 2.2467853e+2, -675896.44, -836875.0, 4486.5747, -0.025325522, -0.11326808, -675771.5, 62370.133, 0.0, 10.000922, 9.998824 
1.3050948e+3, 2.3467788e+2, -591571.56, -736370.06, 12024.634, -0.049310174, -0.09718408, -590579.8, 49570.254, 0.0, 10.000793, 9.9988985 
1.305117e+3, 2.4467726e+2, -455159.63, -567232.3, 80688.88, -0.039521772, -0.06490302, -412957.66, 129197.86, 0.0, 10.000817, 9.999384 
1.30514e+3, 2.546763e+2, -316383.22, -435645.28, 62514.277, 0.0083994195, -0.14163475, -289620.44, 154540.7, 0.0, 10.001041, 9.999508 
1.305162e+3, 2.64675e+2, -290539.16, -508378.2, 4343.7866, 0.056621153, -0.1533661, -290452.56, 55720.93, 0.000000026393016, 10.001139, 9.99829 
1.3051827e+3, 2.7467307e+2, -189177.36, -404292.1, 15359.857, 0.099310145, -0.2103969, -188086.16, 60109.637, 0.0000066700077, 10.001132, 9.998339 
1.3052034e+3, 2.846728e+2, -10950.58, -230657.16, 59713.715, 0.10910644, -0.07706483, 4230.0186, 154429.78, 0.00007506801, 10.001543, 9.998635 
1.305224e+3, 2.9467383e+2, 241720.66, -50872.414, 17966.459, 0.085822776, 0.11139896, 242819.73, 295008.2, 0.00033561388, 10.0025625, 9.998706 
1.3052458e+3, 3.0466974e+2, 272791.8, -161437.7, 70909.91, 0.06872949, -0.08951906, 284078.1, 284078.1, 0.0008838956, 10.003104, 9.997374 
1.3052681e+3, 3.1466675e+2, 355527.03, 8397.089, -49875.094, 0.0686571, -0.17766236, 362550.88, 362550.88, 0.0016899711, 10.003032, 9.998579 
1.3148536e+3, 1.24652945e+2, -2160971.5, -1762599.8, -34873.56, -0.16709338, -0.15337677, -1759570.0, -41178.0, 0.005819013, 9.99615, 10.001505 
1.3148767e+3, 1.346551e+2, -2060512.1, -1735775.9, 15736.01, 0.059121475, -0.041636165, -1735015.1, -114640.695, 0.0032902497, 9.996513, 10.0008545 
1.3148974e+3, 1.4465658e+2, -1907669.5, -1602198.0, 30940.516, -0.120215885, 0.021528428, -1599095.6, -76734.36, 0.0013013786, 9.996849, 10.000914 
1.31492e+3, 1.546565e+2, -1662768.6, -1430251.5, 32778.254, -0.055654474, -0.118623294, -1425719.0, -1358.3246, 0.00026992275, 9.997848, 10.000942 
1.3149427e+3, 1.6465713e+2, -1489601.9, -1320958.6, 15382.402, 0.0023705703, -0.12548387, -1319567.0, 6785.4023, 0.00001153221, 9.998466, 10.000726 
1.3149643e+3, 1.7465857e+2, -1339471.3, -1182157.5, 56889.137, -0.012716017, -0.09735968, -1163740.9, 64595.25, 0.0, 9.998769, 10.000851 
1.3149866e+3, 1.8465905e+2, -1312764.6, -1262217.0, 69722.81, 0.0026082941, -0.063877575, -1213328.6, -82997.6, 0.0, 9.99888, 9.999583 
1.3150096e+3, 1.9465813e+2, -1232662.0, -1165179.1, 77100.57, 0.06982707, -0.1497257, -1114760.1, -82418.5, 0.0, 9.998732, 9.999647 
1.3150318e+3, 2.046579e+2, -1094908.1, -1074985.6, 41153.4, 0.05584409, -0.114479765, -1042605.0, -108259.82, 0.0, 9.999121, 9.999402 
1.3150528e+3, 2.146581e+2, -838520.3, -892548.9, 34363.723, -0.05242444, -0.07385098, -821823.75, 14520.619, 0.0, 10.000169, 9.999477 
1.3150744e+3, 2.2465803e+2, -672254.25, -765033.1, -14764.018, -0.07403758, -0.016708812, -669961.5, 68383.72, 0.0, 10.00066, 9.999438 
1.3150966e+3, 2.3465736e+2, -583051.25, -661571.94, 25659.742, 0.028702602, -0.06827398, -575409.6, 64941.03, 0.0, 10.000552, 9.99953 
1.3151188e+3, 2.446567e+2, -502987.8, -604027.7, 71044.984, 0.032634612, -0.06393345, -466331.75, 76024.11, 0.0, 10.000554, 9.999257 
1.3151404e+3, 2.546559e+2, -362796.7, -474809.13, 87623.086, -0.07790961, -0.11100111, -314810.13, 129552.02, 0.0, 10.000794, 9.999358 
1.3151619e+3, 2.6465505e+2, -264157.3, -402377.56, -12268.461, -0.09383923, -0.109452404, -263076.8, 83292.336, 0.000000066602475, 10.000923, 9.999119 
1.315183e+3, 2.7465382e+2, -162068.94, -294418.44, 35373.406, -0.0043016933, -0.18394193, -153207.86, 95172.586, 0.0000067822207, 10.000918, 9.999189 
1.3152045e+3, 2.8465295e+2, -79500.15, -346780.63, 79355.74, 0.026784807, -0.11563613, -57715.01, 92673.61, 0.000081610815, 10.001414, 9.99791 
1.3152261e+3, 2.9465204e+2, 148955.78, -184832.06, 76955.836, -0.006206477, -0.04931164, 165843.73, 218241.63, 0.00036944333, 10.002301, 9.99792 
1.3152483e+3, 3.0464813e+2, 224954.27, -215509.23, 57815.027, -0.016951976, -0.17950208, 232416.61, 232416.61, 0.000976967, 10.002913, 9.99709 
1.3152719e+3, 3.146462e+2, 342020.2, 63423.87, 4484.391, 0.087306276, -0.1339501, 342092.34, 342092.34, 0.0018699674, 10.002689, 9.999118 
1.3248502e+3, 1.2463112e+2, -2186587.8, -1816528.8, -933.44415, -0.11446961, -0.113489196, -1816526.5, -97918.016, 0.006183249, 9.996113, 10.001169 
1.3248731e+3, 1.3463359e+2, -2019133.6, -1712950.1, -52262.88, 0.0573696, 0.03437772, -1704275.1, -83686.1, 0.0035072896, 9.996802, 10.00086 
1.3248943e+3, 1.4463523e+2, -1883111.1, -1580465.5, 28431.863, -0.10240967, 0.10863684, -1577817.6, -55243.23, 0.0013982238, 9.996971, 10.001002 
1.3249183e+3, 1.5463491e+2, -1718269.3, -1442450.1, -907.71533, 0.017677164, -0.06698434, -1442447.3, -17872.01, 0.00029637254, 9.997408, 10.001063 
1.3249415e+3, 1.6463543e+2, -1597221.3, -1366259.6, -19053.0, 0.09517133, -0.096282095, -1364698.4, -38130.832, 0.000014169166, 9.997702, 10.000777 
1.3249628e+3, 1.7463678e+2, -1464069.5, -1243370.3, -54849.92, 0.024080383, -0.07750484, -1230490.3, -1938.2286, 0.0, 9.997906, 10.000851 
1.3249852e+3, 1.846372e+2, -1363157.5, -1259109.8, -14331.637, 0.011730369, -0.0581453, -1257171.8, -126625.38, 0.0, 9.998423, 9.999824 
1.3250087e+3, 1.9463633e+2, -1113167.5, -1080778.9, -6191.4097, 0.08702344, -0.16411686, -1079635.6, -47080.83, 0.0, 9.999433, 9.9998865 
1.3250315e+3, 2.046362e+2, -992816.2, -1044162.1, 17909.326, 0.0861026, -0.124476194, -987186.7, -52629.04, 0.0, 9.999917, 9.999224 
1.3250531e+3, 2.1463662e+2, -903013.94, -940066.5, 11371.8545, -0.012003727, -0.042126145, -899802.2, -63245.523, 0.0, 9.999824, 9.999309 
1.3250749e+3, 2.246366e+2, -782959.5, -791581.6, -21107.83, -0.019932676, 0.01780926, -765727.0, -27169.514, 0.0, 9.999792, 9.999677 
1.3250975e+3, 2.3463583e+2, -665198.4, -663999.94, -44010.93, 0.1000049, -0.067911364, -620584.1, 19978.117, 0.0, 9.999849, 9.9998455 
1.3251196e+3, 2.4463521e+2, -581150.56, -655941.9, 35126.867, 0.0990984, -0.07026433, -567239.94, -24672.98, 0.0, 10.000078, 9.999127 
1.3251412e+3, 2.5463444e+2, -417509.94, -513125.4, 19296.486, -0.048127506, -0.09982232, -413762.5, 30811.791, 0.0, 10.000478, 9.99924 
1.3251626e+3, 2.6463383e+2, -251187.25, -397955.9, -75336.03, -0.09750493, -0.06853935, -219401.34, 127178.28, 0.0000000978673, 10.001024, 9.999094 
1.325184e+3, 2.7463302e+2, -34456.887, -233106.58, -129031.84, -0.037933204, -0.09686838, 29051.436, 277637.7, 0.000006920427, 10.001795, 9.999185 
1.3252062e+3, 2.846316e+2, 15043.463, -307250.72, -56181.168, 0.026165986, -0.07730059, 24556.0, 175154.73, 0.000086783395, 10.002119, 9.997835 
1.3252291e+3, 2.9462922e+2, 113902.29, -209284.2, -55956.1, 0.09867527, -0.15026982, 123316.24, 175937.83, 0.0003950438, 10.002109, 9.997841 
1.3252518e+3, 3.0462554e+2, 164390.58, -247736.73, 4701.5166, 0.06830982, -0.24497437, 164444.2, 164444.2, 0.0010503886, 10.002537, 9.997039 
1.3252752e+3, 3.1462443e+2, 467629.75, 170209.98, -89840.79, 0.13245362, -0.114585154, 492661.03, 492661.03, 0.0020140882, 10.003363, 9.99952 
1.3348472e+3, 1.2460872e+2, -2164257.5, -1765751.0, 34057.99, -0.08481812, -0.0050573708, -1762861.1, -44030.09, 0.0065457188, 9.9961, 10.001521 
1.334869e+3, 1.3461049e+2, -1992545.4, -1653012.5, -28682.262, -0.07605744, 0.027615793, -1650606.6, -29789.748, 0.0037237175, 9.996781, 10.001281 
1.3348927e+3, 1.446118e+2, -1864848.4, -1552727.0, 21811.01, -0.00028565532, 0.039723393, -1551210.3, -28404.97, 0.0014951822, 9.997001, 10.001187 
1.3349156e+3, 1.5461342e+2, -1705359.0, -1420461.0, 32024.37, -0.020587692, 0.045245793, -1416905.6, 7882.8525, 0.00032323142, 9.997413, 10.001221 
1.3349389e+3, 1.6461419e+2, -1642132.9, -1452786.9, -30773.174, 0.021060076, 0.05933981, -1447911.1, -121130.484, 0.000017128494, 9.997678, 10.000192 
1.334961e+3, 1.7461386e+2, -1514695.5, -1335616.8, -33596.563, 0.023052145, -0.031134175, -1329521.3, -100737.375, 0.00000000003443261, 9.997853, 10.000239 
1.3349839e+3, 1.8461409e+2, -1325689.0, -1174962.3, 4659.464, 0.0016315525, -0.030405564, -1174818.4, -44038.094, 0.0, 9.998384, 10.000426 
1.3350077e+3, 1.9461454e+2, -1080274.9, -994362.3, 46516.85, 0.0130000515, -0.06690268, -974001.44, 58771.418, 0.0, 9.999339, 10.000533 
1.335031e+3, 2.0461477e+2, -1001605.9, -1023856.2, -2012.4489, 0.020340484, -0.035102632, -1001425.3, -66654.96, 0.0, 9.999752, 9.999444 
1.3350533e+3, 2.1461451e+2, -921615.1, -930981.56, 24551.914, 0.0072709355, -0.039030604, -901303.75, -64528.402, 0.0, 9.99961, 9.999482 
1.3350752e+3, 2.2461411e+2, -822071.1, -820917.56, -30429.428, 0.0004704738, -0.02083197, -791059.44, -52279.844, 0.0, 9.999567, 9.999578 
1.335097e+3, 2.3461334e+2, -703834.06, -698928.75, -22962.277, 0.03036778, -0.09878086, -678288.56, -37504.03, 0.0, 9.999648, 9.9997015 
1.335119e+3, 2.4461277e+2, -617741.6, -683911.25, 34098.508, 0.014622253, -0.08547582, -603315.25, -60526.227, 0.0, 9.999881, 9.999023 
1.3351418e+3, 2.54612e+2, -455210.1, -546972.94, 51750.934, -0.052506637, -0.10539884, -431930.38, 12866.586, 0.0, 10.000289, 9.999095 
1.335164e+3, 2.646114e+2, -337800.4, -538039.25, -62244.59, -0.10214228, -0.021512648, -320028.8, 26775.063, 0.00000008871969, 10.000851, 9.998216 
1.335185e+3, 2.7461073e+2, -130950.75, -376523.84, -78926.68, -0.1373975, 0.047088034, -107771.695, 141040.55, 0.000006673535, 10.001556, 9.998311 
1.3352078e+3, 2.846088e+2, 18643.195, -256711.92, -73192.234, -0.04169674, 0.04346707, 36889.38, 187718.55, 0.00008871381, 10.001932, 9.998272 
1.3352329e+3, 2.9460534e+2, 118416.945, -155499.88, -32572.59, 0.2248696, -0.18647847, 122237.016, 175095.61, 0.00040777776, 10.001915, 9.998307 
1.3352552e+3, 3.0460224e+2, 160433.2, -225028.0, 25620.506, 0.1484396, -0.25890604, 162128.67, 162128.67, 0.0010944809, 10.002401, 9.997256 
1.3352773e+3, 3.1460103e+2, 421798.53, 159314.55, 22900.797, -0.06535983, -0.16014746, 423781.56, 423781.56, 0.0021080854, 10.002985, 9.999636 
1.344844e+3, 1.24585286e+2, -2205956.3, -1736883.3, 5293.3633, 0.028804066, 0.040392224, -1736823.5, -17761.297, 0.0069055543, 9.995612, 10.001948 
1.3448654e+3, 1.3458693e+2, -2004252.4, -1599708.1, -38222.09, -0.06840263, 0.007833908, -1596128.5, 24918.42, 0.0039389143, 9.996461, 10.001797 
1.344891e+3, 1.4458814e+2, -1890774.3, -1555031.8, 31204.752, 0.166237, -0.01944606, -1552156.1, -29120.594, 0.0015916337, 9.99679, 10.001272 
1.3449134e+3, 1.5459047e+2, -1729010.9, -1424470.9, -344.20016, 0.017456727, 0.050121844, -1424470.5, 543.1967, 0.0003501717, 9.99723, 10.001281 
1.3449363e+3, 1.6459167e+2, -1616721.8, -1423930.6, -2605.7002, 0.011472164, 0.09935026, -1423895.5, -96892.84, 0.000020254476, 9.9977665, 10.000354 
1.3449594e+3, 1.745915e+2, -1424528.0, -1269222.6, 17374.736, 0.062040996, 0.007023136, -1267302.5, -38297.414, 0.0000000014653116, 9.998378, 10.000442 
1.344983e+3, 1.845919e+2, -1304821.9, -1144795.4, 95983.96, 0.07561927, 0.0048044496, -1099848.5, 31151.357, 0.0, 9.998439, 10.000603 
1.345007e+3, 1.9459261e+2, -1269241.4, -1061755.8, 71376.11, 0.082607284, -0.026567735, -1039573.44, -6584.097, 0.0, 9.997954, 10.000728 
1.3450304e+3, 2.0459291e+2, -1204792.5, -1084030.4, 49750.88, 0.07692961, -0.012103067, -1066174.5, -131189.52, 0.0, 9.998175, 9.999794 
1.3450529e+3, 2.1459259e+2, -953812.8, -897187.56, 53176.85, 0.038173556, -0.06483533, -865255.8, -28266.389, 0.0, 9.999174, 9.999912 
1.345075e+3, 2.2459228e+2, -757448.06, -825517.4, 33861.457, 0.01315772, -0.044712942, -743472.75, -4480.0195, 0.0, 10.000166, 9.999264 
1.3450971e+3, 2.3459175e+2, -501289.78, -635229.56, -2511.5298, 0.028545622, -0.06409351, -501242.7, 139754.39, 0.0, 10.001194, 9.999394 
1.3451199e+3, 2.4459094e+2, -374283.13, -609700.1, 55045.797, 0.027570285, -0.038419206, -362048.06, 180956.61, 0.0, 10.0017395, 9.998648 
1.3451435e+3, 2.5458947e+2, -274089.9, -497732.03, 20266.172, 0.0054825656, -0.08885066, -272268.25, 172750.77, 0.0, 10.001709, 9.998754 
1.3451658e+3, 2.645885e+2, -219327.39, -485003.63, -33549.16, -0.0421991, -0.021928385, -215156.34, 131872.64, 0.000000062099474, 10.00169, 9.998177 
1.3451868e+3, 2.745877e+2, -102015.66, -366678.1, -28210.016, -0.11538746, 0.036085762, -99042.195, 149995.64, 0.0000065347235, 10.0017605, 9.998284 
1.3452101e+3, 2.8458562e+2, 36998.73, -281453.0, 26275.95, -0.011309033, 0.029475668, 39152.24, 190209.11, 0.00008986311, 10.002177, 9.997995 
1.345236e+3, 2.945823e+2, 263358.2, -103540.97, -31591.594, 0.30147505, -0.1582761, 266058.47, 319145.16, 0.00041373618, 10.002991, 9.998143 
1.3452584e+3, 3.0457994e+2, 305628.44, -142794.47, 25431.111, 0.1915626, -0.15832111, 307066.06, 307066.06, 0.001115336, 10.003305, 9.997402 
1.3452803e+3, 3.1457865e+2, 402117.66, 145021.92, -26297.46, -0.038965117, -0.09108547, 404779.97, 404779.97, 0.0021558101, 10.0028715, 9.999576 
1.3548383e+3, 1.2456104e+2, -2170508.3, -1653826.1, -189588.53, -0.18404344, 0.016795302, -1591723.9, 127575.92, 0.0072628423, 9.995594, 10.002526 
1.3548626e+3, 1.3456303e+2, -1968859.1, -1518964.6, 2704.5005, -0.033728376, -0.034941234, -1518948.4, 102329.19, 0.004152666, 9.996438, 10.002364 
1.3548891e+3, 1.4456435e+2, -1907507.1, -1578891.5, 23616.385, 0.24610025, -0.07137051, -1577203.0, -53938.5, 0.0016872559, 9.996746, 10.001126 
1.3549106e+3, 1.5456593e+2, -1739702.0, -1446806.9, 32981.773, -0.0017220287, -0.06173999, -1443138.9, -17887.285, 0.0003769789, 9.997224, 10.001131 
1.3549337e+3, 1.6456775e+2, -1549508.6, -1282774.1, 577.8037, -0.064319916, 0.0070040887, -1282772.9, 44462.133, 0.000023370363, 9.997758, 10.0013275 
1.3549578e+3, 1.7456955e+2, -1363545.3, -1130798.3, 54732.52, 0.02841705, 0.013243866, -1118569.9, 110646.96, 0.0000000068048798, 9.9983225, 10.001422 
1.3549818e+3, 1.8457058e+2, -1336094.1, -1186791.3, 61459.37, 0.0966465, 0.037571874, -1164746.8, -33541.42, 0.0, 9.99835, 10.00035 
1.355006e+3, 1.9457047e+2, -1308204.4, -1116250.6, 69304.695, 0.16530104, -0.047647726, -1093843.8, -60639.375, 0.0, 9.997841, 10.000407 
1.3550293e+3, 2.0457058e+2, -1193347.9, -1023321.44, 66272.58, 0.12533467, -0.061615303, -1000541.8, -65339.76, 0.0, 9.998018, 10.000284 
1.3550515e+3, 2.145707e+2, -951495.4, -839785.06, 102405.02, -0.04062176, -0.120620295, -778993.0, 58207.113, 0.0, 9.998944, 10.00042 
1.3550743e+3, 2.245709e+2, -828296.6, -909245.75, 50980.395, -0.10285741, -0.053183876, -803677.5, -64478.582, 0.0, 9.999899, 9.998816 
1.3550979e+3, 2.3457097e+2, -572158.75, -724863.2, 50152.543, -0.03465228, 0.034740623, -557160.3, 84040.57, 0.0, 10.000951, 9.998894 
1.3551217e+3, 2.445698e+2, -451086.22, -714501.94, 37945.965, 0.0048994417, 0.08095289, -445728.9, 97484.47, 0.0, 10.001503, 9.998044 
1.3551451e+3, 2.545669e+2, -350256.22, -601523.2, 36582.75, -0.0036129563, -0.05442803, -345038.38, 100202.484, 0.0, 10.001476, 9.998155 
1.3551676e+3, 2.64565e+2, -201584.73, -399893.25, -47573.84, -0.04866581, -0.07978122, -190762.47, 156494.48, 0.000000036385206, 10.001482, 9.998862 
1.3551888e+3, 2.745639e+2, -88210.32, -282424.2, -5603.6113, -0.11649965, -0.11920746, -88048.77, 161215.0, 0.0000068750182, 10.001527, 9.998977 
1.3552123e+3, 2.8456217e+2, -55190.07, -426876.44, 37711.73, -0.04515746, -0.08987502, -51402.395, 99878.47, 0.00009120505, 10.001981, 9.997088 
1.3552381e+3, 2.9455966e+2, 154992.52, -268743.78, 21711.914, 0.17420278, -0.095404625, 156102.11, 209412.1, 0.00041573873, 10.002726, 9.997141 
1.3552608e+3, 3.0455816e+2, 272534.94, -143964.7, -3564.095, 0.0688617, 0.037757, 272565.44, 272565.44, 0.0011165407, 10.003041, 9.997512 
1.3552831e+3, 3.1455645e+2, 307413.16, 43186.79, 23940.52, -0.10610212, 0.054649066, 309564.78, 309564.78, 0.0021572434, 10.002486, 9.999055 
1.3648342e+3, 1.2453738e+2, -2042799.9, -1627697.9, -89927.47, -0.16802992, -0.06125753, -1609053.5, 110474.08, 0.0076198755, 9.996592, 10.0022335 
1.3648605e+3, 1.3453902e+2, -1952119.3, -1583877.9, -2638.7773, 0.10210262, -0.089867644, -1583858.9, 37651.563, 0.004366158, 9.996828, 10.001743 
1.3648853e+3, 1.4454032e+2, -1889529.3, -1539926.0, 24663.227, 0.20131166, -0.10777945, -1538194.6, -14696.508, 0.0017823466, 9.996739, 10.0013895 
1.364908e+3, 1.5454206e+2, -1729391.6, -1405308.5, 39732.863, 0.03486076, -0.11695488, -1400508.3, 24974.814, 0.0004035849, 9.99715, 10.001439 
1.3649319e+3, 1.6454409e+2, -1589569.0, -1292694.6, 26523.213, 0.010831235, -0.045584336, -1290343.6, 37120.582, 0.000026350568, 9.997422, 10.001435 
1.3649562e+3, 1.7454633e+2, -1461696.1, -1164349.8, -24040.074, 0.07591532, -0.007847251, -1162418.6, 67024.11, 0.000000016360648, 9.99758, 10.001558 
1.3649803e+3, 1.8454753e+2, -1351261.1, -1191450.0, -2612.7793, 0.13200957, 0.026405964, -1191407.3, -59977.117, 0.0, 9.998244, 10.000367 
1.3650051e+3, 1.9454728e+2, -1052101.5, -985564.6, -4535.835, 0.1972478, -0.074184455, -985256.8, 48173.83, 0.0, 9.999585, 10.000456 
1.3650285e+3, 2.045474e+2, -926771.3, -921685.4, -1552.3589, 0.15481265, -0.07654438, -921249.0, 14179.472, 0.0, 9.999957, 10.000053 
1.3650507e+3, 2.1454778e+2, -929141.3, -857720.9, -53586.03, -0.020248849, -0.08378846, -829036.4, 8388.844, 0.0, 9.999213, 10.0001745 
1.3650742e+3, 2.245479e+2, -916098.4, -959314.75, -46982.375, -0.06407331, -0.010826224, -885993.3, -146567.67, 0.0, 9.99933, 9.998744 
1.3650993e+3, 2.3454739e+2, -648147.1, -774627.7, -52877.242, 0.04145826, 0.02983092, -628953.6, 12479.443, 0.0, 10.000469, 9.998793 
1.3651235e+3, 2.4454609e+2, -510186.66, -721604.25, -31012.63, 0.079964645, 0.059419442, -505731.34, 37714.92, 0.0, 10.001019, 9.99822 
1.3651466e+3, 2.5454357e+2, -408442.47, -606688.5, -14401.839, 0.021134624, -0.0558171, -407401.72, 38066.906, 0.0, 10.000983, 9.998352 
1.3651691e+3, 2.645416e+2, -270275.4, -462549.9, -53886.934, -0.012956648, -0.08691396, -256202.97, 91282.04, 0.000000033203506, 10.001142, 9.998596 
1.3651913e+3, 2.7454e+2, -90409.79, -305757.25, -119068.945, -0.01127676, -0.151858, -37549.895, 211947.48, 0.0000069323874, 10.001621, 9.998762 
1.365215e+3, 2.8453812e+2, -69412.85, -446996.88, -36507.367, 0.039175, -0.1203629, -65915.47, 85600.81, 0.00008948749, 10.001975, 9.996939 
1.36524e+3, 2.9453582e+2, 95656.54, -304592.22, -29175.99, 0.14980341, -0.086045675, 97772.13, 151315.34, 0.00040625758, 10.00237, 9.997053 
1.3652633e+3, 3.0453435e+2, 256332.06, -143813.3, 1698.221, 0.052010927, 0.04451755, 256339.28, 256339.28, 0.0010893871, 10.002901, 9.997593 
1.3652872e+3, 3.1453255e+2, 397129.34, 39130.152, -28454.697, 0.020329002, 0.065353304, 399376.88, 399376.88, 0.00210587, 10.003272, 9.998688 
1.3748333e+3, 1.2451389e+2, -2136126.3, -1817329.9, -3048.95, -0.006467216, -0.24976572, -1817300.8, -97551.52, 0.0079810945, 9.996597, 10.000911 
1.3748583e+3, 1.345149e+2, -2079650.1, -1850158.9, 9048.046, 0.17390382, -0.16223955, -1849802.8, -228057.08, 0.0045821774, 9.996834, 9.999908 
1.3748792e+3, 1.4451614e+2, -1840871.0, -1442798.9, 9958.692, -0.1306986, -0.122847974, -1442549.9, 81186.234, 0.0018779465, 9.996752, 10.002054 
1.3749051e+3, 1.5451878e+2, -1677775.4, -1297489.6, 70495.375, -0.00052961987, -0.11670166, -1284842.1, 140866.22, 0.00043006244, 9.99714, 10.002189 
1.3749306e+3, 1.6452077e+2, -1641267.4, -1397047.0, 12283.554, 0.095451444, -0.055200208, -1396430.8, -68741.18, 0.000029160963, 9.997405, 10.0007305 
1.374954e+3, 1.7452191e+2, -1517745.8, -1276266.3, -1853.9419, 0.073613025, -0.050872445, -1276252.0, -46570.32, 0.000000027808229, 9.997548, 10.000813 
1.374978e+3, 1.8452278e+2, -1337964.0, -1150555.1, 28007.102, 0.043845557, -0.026392728, -1146459.1, -14785.505, 0.0, 9.998197, 10.000667 
1.3750033e+3, 1.9452292e+2, -1050537.1, -952333.9, 58333.844, 0.052591458, -0.11849381, -925187.2, 108482.05, 0.0, 9.9994545, 10.00075 
1.3750273e+3, 2.0452335e+2, -1010502.8, -1057200.8, -43062.97, 0.02366324, -0.06313457, -984866.1, -49200.94, 0.0, 9.999793, 9.999204 
1.37505e+3, 2.1452403e+2, -1027844.06, -1010500.75, -64109.695, -0.041848425, 0.04845148, -954478.9, -116815.71, 0.0, 9.998988, 9.999237 
1.3750742e+3, 2.245235e+2, -937821.9, -942682.44, -22101.32, -0.016961778, 0.09744868, -918017.6, -178347.19, 0.0, 9.999072, 9.998979 
1.3751008e+3, 2.3452124e+2, -670731.5, -752589.7, 8627.006, 0.11637887, -0.06610504, -669832.2, -28140.668, 0.0, 10.000185, 9.999074 
1.375125e+3, 2.445199e+2, -484275.44, -616893.94, -50505.918, 0.11543555, -0.092689715, -467231.44, 76470.914, 0.0, 10.000787, 9.999056 
1.3751471e+3, 2.5451955e+2, -376910.1, -494507.4, -1412.3585, -0.044228803, -0.08102342, -376893.13, 68808.72, 0.0, 10.000778, 9.999224 
1.37517e+3, 2.645184e+2, -369369.44, -630692.9, -51861.125, -0.069802314, -0.025844147, -359453.56, -11741.57, 0.000000022673568, 10.000976, 9.99752 
1.3751939e+3, 2.745158e+2, -202100.34, -490880.6, -81093.67, 0.06189371, -0.07328686, -180886.45, 68852.93, 0.0000066245593, 10.001426, 9.997582 
1.3752179e+3, 2.8451338e+2, -43524.082, -367971.6, -38784.035, 0.10573411, -0.06190804, -38952.313, 112811.19, 0.00008473701, 10.001858, 9.9975395 
1.3752419e+3, 2.9451105e+2, 110925.74, -220386.8, 9952.768, 0.060923237, -0.10378265, 111224.46, 165008.83, 0.00038290335, 10.002142, 9.9977455 
1.3752656e+3, 3.0450854e+2, 228626.5, -162732.53, 8556.091, -0.030381545, -0.11011881, 228813.47, 228813.47, 0.0010283956, 10.002732, 9.997537 
1.3752909e+3, 3.145066e+2, 306592.84, -38538.88, 56849.984, 0.020520052, -0.09805201, 315716.0, 315716.0, 0.0019973381, 10.00282, 9.998353 
1.3848294e+3, 1.2449014e+2, -2194849.0, -1849794.9, -15060.645, -0.007484325, -0.21956715, -1849138.8, -129155.95, 0.008351057, 9.996226, 10.000868 
1.3848552e+3, 1.3449124e+2, -2017825.0, -1816937.9, -48083.36, 0.17260629, -0.120830156, -1806022.0, -184043.25, 0.004803759, 9.997258, 9.999935 
1.384876e+3, 1.444926e+2, -1807680.0, -1442670.6, 22263.195, -0.117921025, -0.06421115, -1441317.8, 82650.445, 0.0019753822, 9.997033, 10.001933 
1.3849023e+3, 1.5449505e+2, -1773118.9, -1353562.5, -21152.195, 0.045646396, -0.06774231, -1352498.9, 73443.66, 0.00045665295, 9.996525, 10.002108 
1.3849281e+3, 1.6449672e+2, -1713657.0, -1421001.6, -13810.226, 0.15327646, -0.033701845, -1420351.4, -92425.29, 0.00003186285, 9.996904, 10.000788 
1.3849522e+3, 1.7449746e+2, -1384639.5, -1200650.6, -4930.202, 0.11434731, -0.078561865, -1200518.6, 29402.646, 0.000000039188958, 9.998444, 10.000883 
1.3849768e+3, 1.844982e+2, -1217671.3, -1110389.4, 61947.72, 0.069125265, -0.06435246, -1082086.0, 49828.332, 0.0, 9.999073, 10.000537 
1.3850021e+3, 1.944987e+2, -1148691.9, -1004974.25, 35214.734, 0.03608846, -0.109790444, -996809.5, 37097.84, 0.0, 9.998796, 10.00071 
1.3850264e+3, 2.0449923e+2, -1121029.9, -1116626.9, -30107.004, 0.007470135, -0.042198993, -1088641.0, -152738.44, 0.0, 9.999065, 9.99914 
1.3850497e+3, 2.1449955e+2, -862695.56, -933783.0, -22407.742, -0.01315425, 0.03805051, -856221.9, -18319.086, 0.0, 10.0001335, 9.999207 
1.3850744e+3, 2.2449876e+2, -735896.4, -846792.2, 85110.24, 0.035614718, 0.060186844, -689765.6, 50145.926, 0.0, 10.000442, 9.998988 
1.3851012e+3, 2.344964e+2, -692658.44, -760256.9, 66464.8, 0.16626528, -0.116740726, -651892.56, -9959.441, 0.0, 10.000004, 9.999117 
1.385126e+3, 2.4449523e+2, -578119.1, -638514.7, 14984.977, 0.16987298, -0.13897362, -574605.56, -30663.645, 0.0, 10.000045, 9.999259 
1.3851483e+3, 2.5449535e+2, -364927.56, -467309.97, -24807.166, 0.007358365, -0.1009165, -359233.5, 86703.59, 0.0, 10.000755, 9.999423 
1.3851716e+3, 2.644943e+2, -296143.72, -625115.56, -27798.031, -0.024860663, -0.033257887, -293811.34, 54135.848, 0.0000000049794013, 10.001604, 9.997257 
1.3851961e+3, 2.7449152e+2, -25370.318, -440047.13, -26596.387, 0.095035344, -0.07007563, -23671.45, 226306.94, 0.0000064670485, 10.002762, 9.997299 
1.3852206e+3, 2.8448907e+2, 155678.45, -277039.06, 33955.867, 0.12971538, -0.041529536, 158326.81, 310329.84, 0.00007994395, 10.003239, 9.997517 
1.3852446e+3, 2.9448676e+2, 255119.34, -140107.53, -7123.092, 0.07141572, -0.08128087, 255247.67, 309270.03, 0.00035496187, 10.003081, 9.997848 
1.3852689e+3, 3.0448335e+2, 263316.22, -216399.83, -11470.336, 0.001555447, -0.15180516, 263590.34, 263590.34, 0.00095268304, 10.003267, 9.996908 
1.3852945e+3, 3.1448093e+2, 385164.13, -61272.684, -49537.098, 0.08511596, -0.12483063, 390594.75, 390594.75, 0.001860375, 10.003594, 9.99782 
1.394825e+3, 1.24465324e+2, -2112174.8, -1662267.8, 57501.137, -0.1497412, -0.024813063, -1655035.0, 65202.133, 0.008733579, 9.996181, 10.002167 
1.3948505e+3, 1.3446797e+2, -1877978.5, -1522995.0, -15715.594, -0.047898777, 0.024367923, -1522300.6, 99910.07, 0.005033633, 9.997244, 10.001957 
1.3948758e+3, 1.4446983e+2, -1865501.5, -1566840.0, -23435.588, 0.10364802, 0.06655159, -1565012.1, -40819.13, 0.002076125, 9.997053, 10.001069 
1.394899e+3, 1.5447089e+2, -1848008.9, -1502342.8, -23199.572, 0.023033911, 0.024864035, -1500792.8, -74607.89, 0.00048381835, 9.996495, 10.001102 
1.394924e+3, 1.644719e+2, -1665584.6, -1319652.8, 19258.434, 0.027101925, 0.009267125, -1318583.9, 9590.896, 0.000034571214, 9.996897, 10.001488 
1.3949507e+3, 1.7447267e+2, -1344995.4, -1099613.4, 65122.145, 0.08439353, -0.10412801, -1083401.6, 146762.39, 0.00000005013657, 9.998364, 10.001618 
1.3949762e+3, 1.844737e+2, -1242564.3, -1151501.3, 33007.207, 0.07173741, -0.08733642, -1140795.9, -8642.843, 0.0, 9.999031, 10.000273 
1.395001e+3, 1.9447476e+2, -1192817.9, -1068021.8, 38070.51, 0.013294013, -0.04132663, -1057324.8, -23181.074, 0.0, 9.998669, 10.000342 
1.3950256e+3, 2.0447512e+2, -1090793.3, -1019717.25, -9924.231, -0.033584803, -0.007789217, -1018357.56, -82217.77, 0.0, 9.998918, 9.999873 
1.3950494e+3, 2.1447434e+2, -844463.75, -838703.44, 30526.482, -0.06858029, -0.113143556, -810921.5, 27222.91, 0.0, 9.999893, 9.999972 
1.3950743e+3, 2.2447369e+2, -769189.44, -875654.3, 54074.176, -0.044473283, -0.11363995, -746542.3, -6392.8843, 0.0, 10.00025, 9.998886 
1.3951005e+3, 2.3447298e+2, -731641.44, -798089.94, 67235.42, 0.06735707, -0.11220398, -689869.3, -47712.773, 0.0, 9.999805, 9.998957 
1.3951255e+3, 2.4447222e+2, -643357.1, -721037.4, 22176.633, 0.10446445, -0.06677684, -637471.9, -93308.39, 0.0, 9.999822, 9.998799 
1.3951497e+3, 2.544709e+2, -441870.5, -561174.94, 18481.086, 0.050244626, -0.11853008, -439073.25, 7101.1836, 0.0, 10.000484, 9.998903 
1.3951737e+3, 2.644693e+2, -296209.16, -577460.8, -1802.6267, 0.00033529894, -0.09812528, -296197.63, 51992.82, 0.0000000011462398, 10.001391, 9.99769 
1.395198e+3, 2.7446726e+2, -29750.916, -389354.53, 35336.055, -0.031350933, -0.11560595, -26311.553, 223901.86, 0.0000063015364, 10.002497, 9.99778 
1.3952224e+3, 2.8446534e+2, 73851.55, -386751.8, 12182.707, -0.027911432, -0.030230891, 74173.55, 226407.38, 0.000075522126, 10.002985, 9.9968815 
1.3952474e+3, 2.9446292e+2, 161981.72, -270410.97, 9966.468, 0.022275997, -0.008244831, 162211.33, 216468.73, 0.00033164787, 10.002817, 9.997079 
1.3952723e+3, 3.0445874e+2, 159207.67, -387422.38, -14948.178, 0.0008739959, -0.063193604, 159616.14, 159616.14, 0.0008920203, 10.003068, 9.995832 
1.3952973e+3, 3.1445605e+2, 263728.88, -190714.64, 21448.506, -0.044550423, 0.042219803, 264738.94, 264738.94, 0.0017485601, 10.003081, 9.997177 
1.4048229e+3, 1.24440484e+2, -2176222.3, -1678562.9, 127455.24, 0.07177004, 0.095177166, -1647819.5, 72666.055, 0.009133226, 9.995632, 10.00233 
1.4048462e+3, 1.34443e+2, -1882745.3, -1452853.6, -41783.324, -0.16257478, 0.05970211, -1448830.1, 173628.0, 0.005275387, 9.996864, 10.002634 
1.404874e+3, 1.4444473e+2, -1816814.6, -1554154.1, -78193.38, 0.22083803, 0.05692628, -1532638.6, -8198.059, 0.0021822979, 9.997445, 10.00096 
1.4048964e+3, 1.5444587e+2, -1712404.1, -1457488.0, -61111.004, 0.07267596, 0.042980377, -1443595.0, -17163.191, 0.00051218417, 9.997525, 10.000908 
1.4049211e+3, 1.6444695e+2, -1572205.4, -1275827.3, 68142.52, 0.026796341, 0.04555442, -1260910.9, 67510.26, 0.000037386584, 9.997531, 10.001484 
1.4049487e+3, 1.7444783e+2, -1419975.6, -1124817.6, 30205.795, 0.08945579, -0.068582185, -1121758.3, 108650.65, 0.00000006103049, 9.9978, 10.001711 
1.404975e+3, 1.8444893e+2, -1353631.1, -1210626.5, -4318.318, 0.10330848, -0.046216093, -1210496.3, -78099.12, 0.0, 9.998299, 10.000217 
1.4050004e+3, 1.944501e+2, -1114385.3, -1033735.75, -14968.7705, 0.06727673, 0.012016863, -1031047.1, 3341.19, 0.0, 9.999223, 10.000311 
1.4050254e+3, 2.0445031e+2, -962666.75, -942800.6, -27833.164, 0.035270266, 0.026893798, -923181.2, 13204.106, 0.0, 9.999727, 10.000023 
1.4050499e+3, 2.144491e+2, -825035.75, -804354.4, -63790.285, -0.005736876, -0.13759649, -750072.06, 88319.664, 0.0, 9.999923, 10.000197 
1.4050749e+3, 2.2444844e+2, -776991.4, -880228.9, -45910.64, 0.0018544125, -0.147237, -759528.4, -19132.703, 0.0, 10.0002165, 9.998865 
1.4051005e+3, 2.3444822e+2, -604516.1, -733240.75, -60778.4, 0.07316746, -0.09569202, -580354.3, 62044.48, 0.0, 10.000671, 9.998979 
1.405126e+3, 2.4444743e+2, -503375.94, -687001.3, -49217.22, 0.11572432, -0.039710347, -491016.16, 53390.695, 0.0, 10.000924, 9.998504 
1.4051507e+3, 2.5444558e+2, -385573.06, -561067.1, -68144.875, 0.104749836, -0.11628628, -362219.84, 84204.3, 0.0, 10.000996, 9.998652 
1.4051753e+3, 2.6444378e+2, -324242.22, -559227.1, -39877.316, 0.053825345, -0.113628104, -317659.4, 30782.783, 0.0000000047036606, 10.001071, 9.997969 
1.4051996e+3, 2.7444214e+2, -190818.6, -425145.7, -60905.805, -0.03665175, -0.11868323, -175933.61, 74526.89, 0.000006310061, 10.001239, 9.998129 
1.4052248e+3, 2.8444055e+2, -93111.234, -478742.63, -39166.63, -0.029286442, -0.010729307, -89173.484, 63304.3, 0.00007178299, 10.001879, 9.9967785 
1.405251e+3, 2.9443833e+2, 175418.25, -282220.44, -30566.719, 0.10437372, 0.042665217, 177450.84, 231952.17, 0.0003183702, 10.002978, 9.996923 
1.4052762e+3, 3.0443433e+2, 190928.77, -324790.7, 23430.4, 0.10246639, -0.0053897398, 191991.08, 191991.08, 0.0008620041, 10.003089, 9.996247 
1.4052998e+3, 3.144315e+2, 184841.28, -125243.87, 93482.64, -0.059635848, 0.03713605, 210843.47, 210843.47, 0.0016920328, 10.002082, 9.998114 
1.4148189e+3, 1.2441522e+2, -2231197.5, -1794193.0, -157320.39, 0.035873074, 0.0723507, -1743450.1, -22718.693, 0.009556688, 9.995643, 10.001532 
1.4148419e+3, 1.3441633e+2, -1939102.3, -1557450.3, 21955.299, -0.30794683, -0.025214644, -1556191.4, 66529.17, 0.0055341963, 9.99682, 10.001935 
1.4148702e+3, 1.4441715e+2, -1769412.3, -1464072.4, -97243.195, 0.053034667, -0.11832277, -1435733.1, 88979.12, 0.0022969088, 9.9974785, 10.001564 
1.4148942e+3, 1.5441988e+2, -1675171.6, -1379863.8, -45144.594, 0.06765532, -0.024526061, -1373116.5, 53567.96, 0.0005425403, 9.99752, 10.001445 
1.414919e+3, 1.6442198e+2, -1601548.4, -1344247.1, 53880.055, 0.019199874, 0.07502195, -1333420.0, -4756.006, 0.000040406845, 9.99756, 10.001006 
1.4149459e+3, 1.7442311e+2, -1470400.8, -1211356.6, 54823.563, -0.0017685626, 0.04504155, -1200231.6, 30422.014, 0.00000007226826, 9.99772, 10.0011635 
1.4149728e+3, 1.8442412e+2, -1350654.1, -1188321.9, 11602.862, 0.017523259, 0.07674046, -1187496.8, -54851.71, 0.0, 9.998235, 10.000397 
1.4149998e+3, 1.9442466e+2, -1121657.1, -1020175.56, 33000.02, 0.06999176, 0.054705467, -1010388.44, 24252.98, 0.0, 9.999101, 10.000462 
1.4150259e+3, 2.044247e+2, -1005136.6, -1001132.2, -41588.754, 0.081324816, 0.061173134, -961497.5, -24857.357, 0.0, 9.99959, 9.99969 
1.4150505e+3, 2.1442388e+2, -887389.9, -880742.9, -42014.484, 0.056852777, -0.029555527, -841920.7, -3276.4468, 0.0, 9.999686, 9.999792 
1.4150757e+3, 2.2442304e+2, -807042.3, -884419.0, -47758.934, 0.045510624, -0.041129153, -784267.6, -43617.34, 0.0, 9.999967, 9.998954 
1.4151013e+3, 2.3442203e+2, -640583.6, -745547.56, -28137.535, 0.05540879, -0.07524485, -633516.6, 9143.688, 0.0, 10.000406, 9.99902 
1.4151266e+3, 2.4442095e+2, -536021.4, -708777.8, -59508.45, 0.05202749, -0.044644367, -517507.03, 27163.633, 0.0, 10.000715, 9.998455 
1.4151514e+3, 2.5441948e+2, -414930.78, -581773.94, -46546.434, 0.035832547, -0.08466599, -402823.7, 43860.848, 0.0, 10.0008135, 9.9986 
1.4151761e+3, 2.644179e+2, -349393.5, -567591.06, -50481.785, 0.0022887252, -0.063931964, -338280.16, 10420.534, 0.000000079284355, 10.000885, 9.997998 
1.4152008e+3, 2.74416e+2, -224865.45, -445088.97, -31971.1, -0.06326681, -0.09180867, -220317.92, 30402.963, 0.000007370644, 10.00102, 9.998098 
1.4152268e+3, 2.844146e+2, -81357.96, -411602.4, -14033.961, -0.03482146, 0.009122821, -80762.66, 71973.93, 0.00007207351, 10.001693, 9.997327 
1.4152549e+3, 2.9441306e+2, 168241.95, -230397.36, 36292.637, 0.15773141, 0.07008027, 171519.14, 226272.9, 0.00031938194, 10.002682, 9.997427 
1.4152801e+3, 3.0440995e+2, 252594.16, -123359.25, -21248.316, 0.14503302, 0.019409545, 253791.27, 253791.27, 0.00086451345, 10.002798, 9.997753 
1.4153007e+3, 3.1440714e+2, 257861.6, 133791.19, 100169.91, -0.21670556, -0.10434165, 313649.88, 313649.88, 0.0016914787, 10.0016575, 10.000078 
1.4248154e+3, 1.24390334e+2, -2142458.0, -1787140.4, -141987.38, 0.09840018, -0.0050057517, -1737372.1, -16398.89, 0.010011913, 9.996436, 10.001199 
1.4248402e+3, 1.3439126e+2, -2016927.6, -1673841.0, 102710.13, -0.14457385, -0.03791136, -1645443.1, -22477.746, 0.0058154534, 9.996669, 10.0012 
1.4248668e+3, 1.4439148e+2, -1785418.9, -1484918.4, -7828.1714, -0.027298992, -0.14951448, -1484714.5, 40248.492, 0.002423067, 9.997433, 10.001437 
1.4248927e+3, 1.54394e+2, -1545181.5, -1328461.6, -50707.063, 0.12881659, -0.06821381, -1317184.3, 109751.945, 0.00057589856, 9.99847, 10.001328 
1.424918e+3, 1.643959e+2, -1468755.8, -1329425.0, 36242.152, 0.108299814, 0.038435258, -1320561.8, 8355.792, 0.00004378684, 9.998677, 10.000564 
1.4249438e+3, 1.743969e+2, -1433477.1, -1243380.1, 7133.668, 0.014150148, 0.036277983, -1243112.9, -12202.429, 0.00000008454083, 9.9981785, 10.000719 
1.4249709e+3, 1.8439776e+2, -1355480.8, -1186051.3, 33387.69, 0.02151597, 0.07452151, -1179709.3, -46805.09, 0.0, 9.998175, 10.000443 
1.4249991e+3, 1.9439833e+2, -1132273.8, -1010165.25, 19940.947, 0.10581519, 0.047118213, -1006991.25, 27908.662, 0.0, 9.998968, 10.000589 
1.4250259e+3, 2.0439865e+2, -1018450.0, -1008946.5, -32736.64, 0.13975324, 0.074531436, -980618.56, -43722.08, 0.0, 9.9995, 9.999676 
1.425051e+3, 2.1439824e+2, -871378.3, -877480.6, -43735.273, 0.124481924, 0.028412083, -830587.9, 8309.832, 0.0, 9.999792, 9.999767 
1.4250761e+3, 2.2439744e+2, -808009.56, -885988.8, -2904.9395, 0.11035116, 0.020629494, -807901.5, -66997.34, 0.0, 9.999964, 9.998953 
1.4251018e+3, 2.3439601e+2, -680109.25, -762519.56, -22514.088, 0.08450614, -0.053595867, -674359.7, -31441.469, 0.0, 10.00012, 9.999052 
1.425127e+3, 2.4439494e+2, -589836.94, -719950.8, -20215.44, 0.053819593, -0.028948577, -586768.5, -41840.34, 0.0, 10.000286, 9.998587 
1.4251517e+3, 2.5439405e+2, -429462.5, -572897.56, -31154.75, 0.017727423, -0.023371983, -422987.8, 23948.037, 0.00000000006254562, 10.00064, 9.998748 
1.4251772e+3, 2.6439252e+2, -310267.28, -572212.75, 7911.094, 0.003582209, 0.00555156, -310028.56, 38922.566, 0.00000036239143, 10.0012455, 9.997789 
1.425203e+3, 2.7439013e+2, -71215.85, -390995.2, -20774.62, 0.006469517, -0.05446322, -69871.87, 181104.42, 0.000010087366, 10.002152, 9.99792 
1.4252295e+3, 2.8438854e+2, 39585.586, -289497.5, 15843.659, 0.04321431, 0.010584374, 40346.613, 193339.94, 0.00007872079, 10.002249, 9.997906 
1.4252569e+3, 2.943874e+2, 48579.16, -213970.83, 13214.541, 0.16470581, 0.049509317, 49242.59, 104248.56, 0.00033516844, 10.001545, 9.998083 
1.4252825e+3, 3.0438516e+2, 122503.74, -188825.33, -41966.645, 0.1679658, 0.049626086, 128061.555, 128061.555, 0.0008965645, 10.001873, 9.997773 
1.4253038e+3, 3.14382e+2, 493575.78, 254127.47, -84515.125, -0.13526738, -0.11495983, 520400.88, 520400.88, 0.0017444047, 10.003214, 10.000175 
1.4348114e+3, 1.2436712e+2, -2113928.0, -1745539.4, -83722.914, -0.04356714, -0.027303152, -1727404.6, -6206.069, 0.010506618, 9.996487, 10.001462 
1.4348407e+3, 1.3436815e+2, -2086101.3, -1810168.0, 139238.53, 0.21403018, 0.03729962, -1752118.9, -128929.79, 0.006123269, 9.996638, 10.000272 
1.4348632e+3, 1.4436801e+2, -1828507.1, -1586406.8, 14755.027, -0.17668548, -0.031131225, -1585510.8, -60320.54, 0.002563054, 9.997477, 10.000727 
1.4348914e+3, 1.5436846e+2, -1603909.1, -1444866.8, 5121.414, 0.11942063, -0.08125144, -1444702.0, -17517.64, 0.0006133788, 9.99844, 10.000552 
1.4349173e+3, 1.6436881e+2, -1500792.6, -1393700.5, -2286.2732, 0.14080316, -0.06673116, -1393651.8, -64470.832, 0.000047750204, 9.998671, 10.000126 
1.4349423e+3, 1.7436889e+2, -1468838.5, -1312317.1, 68.862686, 0.00942197, -0.11462685, -1312317.1, -81135.1, 0.00000010052836, 9.998152, 10.000263 
1.4349692e+3, 1.8436968e+2, -1359489.4, -1180966.8, 39068.426, -0.017949924, -0.05803705, -1172791.3, -39615.36, 0.0, 9.998119, 10.000504 
1.4349976e+3, 1.943712e+2, -1146191.4, -1010434.4, 64744.746, 0.040731475, -0.0019614443, -984507.94, 50655.18, 0.0, 9.998843, 10.00065 
1.4350249e+3, 2.0437221e+2, -1017536.06, -972231.9, -39769.555, 0.05797016, 0.07481605, -949115.7, -11962.031, 0.0, 9.999348, 10.0 
1.4350502e+3, 2.1437226e+2, -885448.56, -854794.94, -17721.414, 0.063895166, 0.042435408, -846691.9, -7540.3164, 0.0, 9.999562, 10.000033 
1.435076e+3, 2.2437172e+2, -852203.75, -915580.25, -13341.048, 0.05826938, 0.051882643, -849509.9, -108353.45, 0.0, 9.999704, 9.99887 
1.4351016e+3, 2.3437022e+2, -726822.25, -795347.44, 1236.221, 0.035401333, -0.021130903, -726799.94, -83628.08, 0.0, 9.999858, 9.998948 
1.4351268e+3, 2.4436933e+2, -603023.06, -696965.94, -27392.87, -0.012355991, 0.012375975, -595619.1, -50438.89, 0.0, 10.000065, 9.998854 
1.4351517e+3, 2.5436905e+2, -449126.47, -553777.75, -2486.3018, -0.07867281, 0.05259073, -449067.44, -1886.4651, 0.000000006122379, 10.000385, 9.9990015 
1.4351779e+3, 2.6436767e+2, -357080.9, -625850.3, 24307.906, -0.0725823, 0.09708723, -354900.16, -5705.7793, 0.0000008787704, 10.001051, 9.997521 
1.4352056e+3, 2.743646e+2, -126628.09, -455851.5, 33733.05, 0.031199351, 0.0018546184, -123207.266, 128019.38, 0.000014147242, 10.001929, 9.997592 
1.435232e+3, 2.843625e+2, 42799.04, -233594.8, -25193.814, 0.054159924, 0.00755023, 45076.73, 198324.97, 0.000090681104, 10.002033, 9.998392 
1.4352569e+3, 2.943612e+2, 43748.305, -175138.0, 8668.148, -0.01661685, -0.020223683, 44091.035, 99351.27, 0.0003647409, 10.001322, 9.998466 
1.4352831e+3, 3.0435988e+2, 19127.8, -348723.3, -12856.184, 0.019789953, 0.10381576, 19576.57, 19576.57, 0.0009617202, 10.001666, 9.996761 
1.435308e+3, 3.1435636e+2, 322596.8, 17192.656, 13572.976, -0.09420251, 0.012627685, 323198.84, 323198.84, 0.001861219, 10.002719, 9.998784 
1.4448063e+3, 1.2434102e+2, -1986051.8, -1667206.9, -128285.195, -0.19967134, -0.013661061, -1622001.4, 99452.234, 0.011047917, 9.997267, 10.001631 
1.444839e+3, 1.3434179e+2, -2041758.1, -1814752.5, -54645.215, 0.38303363, 0.039023317, -1802283.1, -178836.8, 0.00646129, 9.997035, 10.000046 
1.4448607e+3, 1.443417e+2, -1893372.8, -1641282.3, -73185.445, -0.13970375, 0.002771395, -1621576.0, -96128.53, 0.0027186894, 9.99715, 10.000492 
1.4448895e+3, 1.5434174e+2, -1698821.6, -1507094.6, -88441.44, 0.12314325, -0.072595, -1472529.3, -45082.383, 0.0006559602, 9.997868, 10.000396 
1.4449158e+3, 1.6434185e+2, -1520772.5, -1384785.6, -35764.234, 0.1494313, -0.07739158, -1375953.4, -46508.35, 0.000052490832, 9.998462, 10.000288 
1.4449412e+3, 1.7434204e+2, -1277368.6, -1189654.3, -16114.297, 0.036164843, -0.13697146, -1186787.5, 44655.105, 0.00000012546444, 9.999358, 10.000515 
1.4449683e+3, 1.8434282e+2, -1145055.1, -1101260.4, 75951.266, 0.01950287, -0.089905165, -1044112.94, 89322.7, 0.0, 9.999674, 10.00031 
1.4449969e+3, 1.9434407e+2, -1098361.0, -1007774.75, 46518.305, 0.067764156, -0.040550504, -988141.6, 47283.883, 0.0, 9.999249, 10.000472 
1.4450242e+3, 2.0434494e+2, -1053845.0, -987070.8, -44996.723, 0.076143056, 0.032175373, -964427.56, -27009.498, 0.0, 9.999109, 10.000011 
1.4450498e+3, 2.1434513e+2, -897212.94, -847181.0, -80500.37, 0.067917034, 0.009166991, -787899.25, 51516.996, 0.0, 9.999461, 10.000125 
1.4450757e+3, 2.2434483e+2, -816505.56, -891422.8, -43423.69, 0.069313616, 0.03858418, -796616.44, -55197.41, 0.0, 9.999902, 9.998947 
1.445102e+3, 2.3434372e+2, -635410.6, -739892.3, -44459.887, 0.069859385, -0.00804412, -619052.75, 24377.61, 0.0, 10.000418, 9.999059 
1.4451277e+3, 2.4434268e+2, -499198.8, -681807.1, -44671.02, 0.03795583, 0.018674513, -488856.78, 56583.21, 0.0, 10.000934, 9.998536 
1.4451529e+3, 2.5434148e+2, -291888.6, -519470.38, -96756.08, -0.0363074, 0.0051246053, -256313.8, 191136.19, 0.000000012932129, 10.001624, 9.998649 
1.4451794e+3, 2.6433992e+2, -251440.0, -535392.5, -54322.055, -0.02908318, 0.03590684, -241402.63, 108062.11, 0.0000016431604, 10.001616, 9.9978695 
1.4452074e+3, 2.7433768e+2, -253295.81, -467947.3, -38557.07, 0.07837379, -0.017995926, -246580.05, 4907.8423, 0.000019343763, 10.00086, 9.998016 
1.4452338e+3, 2.843357e+2, -88604.23, -319233.44, -36429.754, 0.07729366, -0.014665318, -82986.68, 70521.29, 0.00010742439, 10.001223, 9.99819 
1.4452587e+3, 2.94334e+2, 266539.22, -85539.89, -82284.43, -0.040860716, -0.06369667, 284820.7, 340345.3, 0.0004102239, 10.002936, 9.998289 
1.4452855e+3, 3.0433297e+2, 293288.13, -207154.86, -56949.387, 0.025258617, 0.097329676, 299687.03, 299687.03, 0.001066146, 10.003498, 9.996867 
1.4453115e+3, 3.1432983e+2, 268733.7, -33893.188, -37974.63, 0.030091422, 0.03422591, 273426.1, 273426.1, 0.0020519032, 10.002472, 9.998542 
1.4548048e+3, 1.2431185e+2, -1984309.4, -1687224.3, 29641.438, -0.15897056, -0.00607944, -1684295.8, 37444.83, 0.011640448, 9.997361, 10.001451 
1.4548348e+3, 1.3431224e+2, -2020380.0, -1757991.4, -49415.902, 0.22414124, -0.044719424, -1748993.4, -125256.266, 0.0068325973, 9.996977, 10.000469 
1.454859e+3, 1.4431265e+2, -1882643.6, -1618555.1, -65787.805, -0.09210105, -0.0498702, -1603074.1, -77340.09, 0.0028915813, 9.99715, 10.000645 
1.4548863e+3, 1.5431374e+2, -1682942.4, -1463542.5, -49246.336, -0.0075541874, -0.050674412, -1452995.8, -25270.957, 0.00070428615, 9.997826, 10.000712 
1.454913e+3, 1.6431513e+2, -1451974.8, -1248435.3, -27444.424, -0.01089705, 0.011293158, -1244799.8, 84909.82, 0.000058062662, 9.998485, 10.001215 
1.45494e+3, 1.7431654e+2, -1218734.3, -1057190.5, 33777.652, -0.034373507, -0.022042463, -1050412.3, 181278.69, 0.00000016567238, 9.9993105, 10.001449 
1.4549679e+3, 1.8431722e+2, -1176711.1, -1159297.3, 46319.875, -0.007550814, -0.01622839, -1120873.1, 12809.161, 0.0, 9.999639, 9.999932 
1.4549963e+3, 1.9431691e+2, -1151003.9, -1091435.6, 45621.5, 0.058017302, -0.070596784, -1066736.5, -31049.281, 0.0, 9.999131, 9.999963 
1.4550233e+3, 2.0431681e+2, -1103176.4, -1045878.44, -52692.38, 0.05990227, -0.05314285, -1014550.3, -76860.18, 0.0, 9.99893, 9.999689 
1.4550488e+3, 2.1431667e+2, -953851.1, -908340.2, -52124.285, 0.0070216204, -0.07847608, -874220.75, -34527.81, 0.0, 9.999225, 9.999818 
1.4550751e+3, 2.2431661e+2, -825206.1, -853186.94, -41761.27, 0.000994661, -0.028361842, -795154.06, -53460.37, 0.0, 9.9996605, 9.999326 
1.4551023e+3, 2.3431656e+2, -652211.0, -704931.44, -8407.554, 0.051465128, -0.006307546, -650902.7, -7209.612, 0.0, 10.000125, 9.999438 
1.4551291e+3, 2.4431516e+2, -592344.56, -822250.06, -33949.023, 0.05635701, 0.0043007485, -587436.25, -41730.105, 0.0, 10.000696, 9.997691 
1.4551553e+3, 2.543117e+2, -387225.66, -671065.2, -50294.5, 0.009736141, -0.14080474, -378577.3, 69162.5, 0.000000017460069, 10.001419, 9.997712 
1.4551815e+3, 2.643097e+2, -220660.45, -428889.44, -93190.73, -0.012541278, -0.14733966, -185045.42, 164713.63, 0.000002726617, 10.00143, 9.99869 
1.4552078e+3, 2.7430925e+2, -220676.69, -347589.25, -47979.75, 0.0024149297, -0.11614079, -204579.48, 47182.03, 0.000025176965, 10.000639, 9.998945 
1.4552344e+3, 2.8430805e+2, -166123.42, -423420.6, 5855.795, -0.020486103, -0.0529251, -165990.22, -12216.777, 0.00012773139, 10.000985, 9.997587 
1.4552616e+3, 2.9430577e+2, 181147.13, -202411.94, 8014.1294, -0.07199834, -0.08893423, 181314.5, 237113.11, 0.00046808438, 10.002673, 9.997618 
1.4552893e+3, 3.0430463e+2, 323327.8, -83503.9, -99530.55, 0.028283836, 0.043866288, 346372.44, 346372.44, 0.00120209, 10.003235, 9.997843 
1.4553142e+3, 3.1430224e+2, 228721.86, -24260.074, -39534.95, -0.023907742, -0.04880067, 234756.28, 234756.28, 0.0023053363, 10.002068, 9.998808 
1.4648035e+3, 1.24282815e+2, -2104539.3, -1744650.8, 153204.75, 0.041875325, -0.027351758, -1688265.5, 33758.008, 0.012283002, 9.9965515, 10.001445 
1.4648311e+3, 1.3428341e+2, -1966890.1, -1683938.1, -54619.77, 0.16112621, -0.087718435, -1673760.6, -49742.074, 0.00723705, 9.997159, 10.000879 
1.4648573e+3, 1.4428434e+2, -1845690.4, -1592015.6, 11111.091, 0.04027155, -0.059218306, -1591529.9, -65519.402, 0.0030819494, 9.997341, 10.000752 
1.4648847e+3, 1.5428571e+2, -1569148.6, -1378299.6, -11568.924, 0.03308388, -0.05480285, -1377600.9, 50397.535, 0.0007585455, 9.998455, 10.001004 
1.4649118e+3, 1.6428737e+2, -1394170.4, -1211121.5, -5042.875, 0.01688484, 0.0077299355, -1210982.6, 118998.25, 0.00006440502, 9.998833, 10.001302 
1.4649391e+3, 1.7428876e+2, -1333567.3, -1107410.3, -48463.406, -0.018497122, -0.031450275, -1097462.6, 134499.16, 0.00000022299002, 9.998479, 10.001509 
1.464967e+3, 1.8428937e+2, -1349958.9, -1229327.9, -29174.65, 0.006965489, -0.038413674, -1222642.5, -88689.305, 0.0, 9.998434, 10.000011 
1.4649957e+3, 1.9428898e+2, -1141087.0, -1069688.3, -23392.395, 0.099121615, -0.1115746, -1062706.9, -26748.992, 0.0, 9.999161, 10.00008 
1.465023e+3, 2.042887e+2, -1022888.4, -1036420.9, -55587.13, 0.109801754, -0.103704534, -973657.25, -35695.14, 0.0, 9.999586, 9.999451 
1.4650482e+3, 2.1428838e+2, -897925.0, -907095.94, -75837.305, 0.02029778, -0.12376832, -826534.7, 13433.045, 0.0, 9.999705, 9.999602 
1.4650747e+3, 2.2428833e+2, -775061.5, -824647.7, -29795.143, -0.004687081, -0.06384295, -761093.1, -19124.086, 0.0, 10.000008, 9.999345 
1.4651027e+3, 2.342884e+2, -559433.1, -656454.4, -61317.832, 0.050344147, -0.033495713, -529757.06, 114210.34, 0.0, 10.000748, 9.999471 
1.4651302e+3, 2.4428698e+2, -501710.8, -763671.6, -38476.383, 0.08226493, -0.028662268, -496176.38, 49803.97, 0.0, 10.001258, 9.997821 
1.4651573e+3, 2.542836e+2, -355539.38, -632898.75, -12388.339, 0.071635604, -0.1848416, -354987.16, 93026.164, 0.000000044837254, 10.0015545, 9.997897 
1.4651838e+3, 2.6428163e+2, -162238.19, -407515.75, -35691.984, 0.0698573, -0.19185793, -157149.97, 192881.78, 0.0000038968087, 10.001856, 9.998635 
1.4652099e+3, 2.7428132e+2, 2408.4915, -249366.0, -91926.98, 0.07878282, -0.13908, 32399.938, 284433.22, 0.000030518888, 10.0021925, 9.998881 
1.4652364e+3, 2.8428012e+2, 25853.525, -302510.4, 17562.586, 0.041529477, -0.081632845, 26790.191, 180834.7, 0.00014669454, 10.002181, 9.997846 
1.4652641e+3, 2.942779e+2, 65252.254, -222556.42, 35100.902, -0.040283505, -0.13752353, 69471.28, 125539.18, 0.00052534003, 10.001741, 9.99792 
1.4652921e+3, 3.0427638e+2, 170861.06, -134918.48, -43692.78, 0.06248792, -0.070434414, 176981.8, 176981.8, 0.0013448142, 10.002102, 9.998018 
1.4653179e+3, 3.1427464e+2, 371674.34, 27432.99, -113825.87, 0.11467146, -0.10411956, 405907.38, 405907.38, 0.0025808995, 10.003118, 9.998652 
1.4748e+3, 1.2425306e+2, -2078918.1, -1693077.6, -16493.193, -0.06303853, -0.14490302, -1692374.0, 29936.764, 0.012969953, 9.996583, 10.0017605 
1.4748271e+3, 1.3425533e+2, -1950989.1, -1636914.3, -39015.25, 0.015683481, -0.07521283, -1632140.3, -7850.4155, 0.0076708426, 9.997111, 10.001214 
1.4748555e+3, 1.4425679e+2, -1811221.0, -1544141.1, 19320.912, 0.088519506, -0.026241392, -1542750.6, -16474.098, 0.0032881629, 9.997425, 10.001048 
1.4748843e+3, 1.5425792e+2, -1553666.1, -1340016.4, 46198.72, 0.11310956, -0.076489754, -1330454.5, 97811.13, 0.00081847684, 9.998424, 10.001287 
1.4749119e+3, 1.6425872e+2, -1440392.5, -1318361.0, -33759.45, 0.083650164, -0.07821291, -1309644.3, 20612.854, 0.000071419374, 9.998873, 10.000546 
1.4749375e+3, 1.7425889e+2, -1404533.5, -1237493.1, -48778.867, -0.05125895, -0.15712218, -1224292.1, 7961.4595, 0.0000002932695, 9.99841, 10.000644 
1.4749649e+3, 1.8425941e+2, -1317578.3, -1163422.5, -25300.541, -0.0770771, -0.14614165, -1159376.3, -25129.234, 0.0, 9.998424, 10.000476 
1.4749947e+3, 1.942602e+2, -1115010.4, -994565.7, 18605.914, 0.055402506, -0.16138358, -991757.0, 44481.367, 0.0, 9.999059, 10.000651 
1.4750226e+3, 2.042606e+2, -1044324.94, -1047044.1, -69727.44, 0.07756097, -0.11585709, -975943.9, -37709.05, 0.0, 9.999438, 9.999445 
1.4750476e+3, 2.1426043e+2, -939097.1, -936579.75, -58786.805, -0.034579977, -0.11717067, -879038.1, -38798.8, 0.0, 9.999468, 9.999511 
1.4750743e+3, 2.242601e+2, -834309.1, -901779.44, -22151.027, -0.08632878, -0.058754053, -827686.8, -85442.555, 0.0, 9.999792, 9.998929 
1.4751025e+3, 2.3425926e+2, -618409.1, -733827.7, -15802.761, -0.06209274, -0.07651272, -616284.56, 27968.234, 0.0, 10.000542, 9.999046 
1.4751305e+3, 2.4425821e+2, -460207.3, -627312.56, -43988.836, -0.033554383, -0.06312873, -449335.06, 96927.19, 0.0, 10.0010395, 9.998862 
1.4751585e+3, 2.5425678e+2, -312601.4, -486238.28, 13286.565, 0.0149422055, -0.14079799, -311590.6, 136683.31, 0.000000082863835, 10.001304, 9.999026 
1.475186e+3, 2.6425543e+2, -252965.53, -539461.4, -36510.22, 0.07774246, -0.10950942, -248385.97, 101900.29, 0.0000048986644, 10.001609, 9.997845 
1.475213e+3, 2.7425382e+2, -93845.49, -398042.06, -53442.15, 0.15377633, -0.09772374, -84729.78, 167573.33, 0.00003489947, 10.001972, 9.997961 
1.4752394e+3, 2.8425205e+2, 47329.05, -211640.53, -14429.1045, 0.09592967, -0.08469369, 48130.523, 202450.03, 0.00016199093, 10.001977, 9.9985695 
1.4752653e+3, 2.9425004e+2, 92843.15, -110322.69, 38228.066, -0.11765618, -0.208694, 99798.125, 156133.31, 0.0005773318, 10.001501, 9.998807 
1.4752936e+3, 3.0424786e+2, 103180.89, -216605.94, -23845.633, -0.026220156, -0.23490909, 104949.21, 104949.21, 0.0014793195, 10.001843, 9.997581 
1.4753218e+3, 3.1424674e+2, 283585.66, -57541.41, -29510.832, 0.13622457, -0.16345593, 286119.8, 286119.8, 0.0028372656, 10.002696, 9.998269 
1.4847976e+3, 1.2422407e+2, -2090786.3, -1701106.8, -52479.83, 0.08029187, -0.14521818, -1694162.8, 28433.467, 0.013700781, 9.996481, 10.001772 
1.4848246e+3, 1.3422644e+2, -1861667.4, -1569120.9, -90493.96, 0.057809964, -0.08334171, -1543391.3, 81181.516, 0.00813248, 9.99757, 10.001484 
1.4848536e+3, 1.442281e+2, -1812982.1, -1521791.5, -2797.539, 0.16931409, -0.03581245, -1521764.6, 4791.7793, 0.0035089266, 9.997352, 10.00122 
1.4848825e+3, 1.5422943e+2, -1745686.9, -1411977.6, -24375.133, 0.18659762, -0.08226163, -1410206.6, 18337.195, 0.0008836724, 9.997039, 10.001447 
1.4849105e+3, 1.6423015e+2, -1680700.4, -1454884.0, -48286.063, 0.15589005, -0.088305615, -1444992.3, -114455.53, 0.00007901186, 9.99736, 10.000326 
1.4849366e+3, 1.7422988e+2, -1349595.5, -1234837.8, -55665.65, 0.007794734, -0.18508346, -1212272.9, 20265.832, 0.00000037325287, 9.998919, 10.000415 
1.484964e+3, 1.8423039e+2, -1155133.5, -1061225.3, 3431.873, -0.03574817, -0.17192452, -1061100.0, 73432.58, 0.0, 9.999425, 10.000699 
1.4849934e+3, 1.9423185e+2, -1134819.0, -971470.0, -10568.224, 0.046170812, -0.14652087, -970789.1, 65727.836, 0.0, 9.998775, 10.000948 
1.4850214e+3, 2.0423262e+2, -1117217.5, -1067898.0, -52229.652, 0.060903117, -0.08785894, -1034799.3, -96289.82, 0.0, 9.9989, 9.999551 
1.4850476e+3, 2.1423228e+2, -830611.94, -869467.1, -64325.555, -0.0057132966, -0.1106923, -782844.2, 57669.977, 0.0, 10.000159, 9.999632 
1.4850748e+3, 2.242317e+2, -713517.5, -844436.9, 10699.805, -0.025897259, -0.084433176, -712648.75, 29872.357, 0.0, 10.000624, 9.998916 
1.4851032e+3, 2.342307e+2, -670137.9, -758080.56, 12250.133, -0.009468819, -0.117411725, -668463.4, -23931.385, 0.0, 10.000188, 9.999045 
1.4851315e+3, 2.4423002e+2, -559733.9, -626592.1, 19107.793, 0.013192142, -0.08882874, -554658.3, -8120.1455, 0.0, 10.000145, 9.999304 
1.4851597e+3, 2.5422966e+2, -375902.94, -460836.16, -6177.335, 0.054645985, -0.10116663, -375456.0, 73082.87, 0.00000011463164, 10.000635, 9.999524 
1.4851876e+3, 2.6422858e+2, -301101.8, -573219.06, -20687.158, 0.10574191, -0.06567478, -299538.1, 51010.56, 0.000005857849, 10.001334, 9.997738 
1.485215e+3, 2.742262e+2, -54269.727, -399473.78, -28676.68, 0.15171929, -0.11201715, -51903.723, 200669.67, 0.000039275426, 10.00234, 9.997769 
1.4852417e+3, 2.8422415e+2, 141727.0, -188380.13, 5447.9136, 0.109032795, -0.10731493, 141816.89, 296409.44, 0.00017769585, 10.002721, 9.99837 
1.4852679e+3, 2.9422244e+2, 183665.44, -94057.734, -55411.234, -0.026842, -0.1748749, 194312.86, 250917.9, 0.0006303682, 10.002226, 9.998586 
1.4852963e+3, 3.0421984e+2, 201689.39, -188958.33, -53088.566, 0.050469644, -0.21953088, 208775.53, 208775.53, 0.0016042597, 10.0025835, 9.997425 
1.4853252e+3, 3.1421885e+2, 461956.5, 53497.73, -121265.06, 0.16109562, -0.118634626, 495245.22, 495245.22, 0.003054721, 10.003816, 9.9984865 
1.4947937e+3, 1.2419639e+2, -2065694.4, -1669792.8, -42250.59, -0.05275635, 0.038975738, -1665334.0, 57541.375, 0.014485426, 9.996574, 10.001937 
1.4948234e+3, 1.3419718e+2, -1854929.8, -1541248.5, -51863.816, 0.14241998, -0.07839613, -1532895.8, 91966.97, 0.008627366, 9.997521, 10.001695 
1.494851e+3, 1.4419854e+2, -1792464.0, -1514323.5, -45249.906, 0.118049584, -0.077179864, -1507147.0, 19700.7, 0.0037456865, 9.9974785, 10.00122 
1.4948791e+3, 1.5420046e+2, -1758728.8, -1435182.9, -23554.082, 0.10535216, -0.05133609, -1433477.1, -4645.785, 0.0009542572, 9.997011, 10.001308 
1.4949074e+3, 1.6420181e+2, -1649180.1, -1401391.1, -15107.181, 0.06595604, -0.003311285, -1400473.5, -69654.81, 0.00008722728, 9.997403, 10.000671 
1.494936e+3, 1.7420176e+2, -1332235.5, -1187628.8, 16859.846, 0.032419685, -0.11511245, -1185689.0, 47127.953, 0.0000004647829, 9.998873, 10.000757 
1.494964e+3, 1.8420245e+2, -1152214.0, -1059847.6, -34769.355, -0.015034214, -0.103666805, -1048222.56, 86586.24, 0.0, 9.999437, 10.000708 
1.4949913e+3, 1.9420415e+2, -1156983.9, -989298.06, -22651.443, -0.07394323, -0.052844018, -986292.1, 50500.176, 0.0, 9.998651, 10.000889 
1.4950192e+3, 2.0420486e+2, -1122963.1, -1046504.2, -29141.906, -0.08317792, -0.005375166, -1036663.5, -97878.6, 0.0, 9.998752, 9.999772 
1.495048e+3, 2.1420401e+2, -846546.06, -850549.06, -2519.01, -0.007243968, -0.10616527, -845330.2, -4538.141, 0.0, 9.999939, 9.9998665 
1.4950764e+3, 2.2420326e+2, -722356.0, -811546.75, -18957.19, 0.047350496, -0.12536137, -718493.94, 24304.865, 0.0, 10.000394, 9.999258 
1.4951044e+3, 2.342026e+2, -679076.06, -723765.0, 11677.614, 0.06952512, -0.16191936, -676208.56, -31402.625, 0.0, 9.999955, 9.999395 
1.4951324e+3, 2.4420233e+2, -605668.56, -665737.06, 20834.113, 0.07184367, -0.101990424, -599149.9, -52341.42, 0.0, 9.999901, 9.999151 
1.4951606e+3, 2.5420228e+2, -422002.06, -508421.97, 32120.908, 0.057578247, -0.06838449, -411371.0, 37437.02, 0.00000015644366, 10.000421, 9.999304 
1.4951883e+3, 2.642011e+2, -314849.94, -541560.75, 360.99796, 0.019684397, -0.04672281, -314849.38, 35969.45, 0.000006865855, 10.001081, 9.998074 
1.4952156e+3, 2.7419826e+2, -65964.07, -363699.44, 27895.797, -0.056978136, -0.17626242, -63372.973, 189472.92, 0.00004412461, 10.00209, 9.998134 
1.495243e+3, 2.841962e+2, 38107.6, -351649.8, -25357.73, -0.064097464, -0.14421655, 39750.46, 194616.05, 0.00019465707, 10.002493, 9.99736 
1.4952713e+3, 2.9419497e+2, 78302.51, -268289.88, -43041.445, 0.052723877, -0.05910541, 83567.61, 140445.56, 0.0006807664, 10.002026, 9.997489 
1.4953e+3, 3.041923e+2, 148678.3, -234319.97, -21118.006, 0.11074971, -0.04555967, 149839.2, 149839.2, 0.0017053906, 10.002318, 9.997236 
1.495327e+3, 3.1419072e+2, 419278.4, 72367.73, -27065.05, -0.09523608, 0.00440507, 421377.25, 421377.25, 0.0032076885, 10.003354, 9.99884 
1.504791e+3, 1.241678e+2, -2055232.9, -1671720.5, 76832.38, 0.027122451, 0.08032764, -1656900.6, 66258.164, 0.015336173, 9.9966755, 10.0018835 
1.5048206e+3, 1.3416842e+2, -1899964.4, -1536698.6, 4315.0713, 0.15237391, -0.084570296, -1536647.4, 88498.46, 0.0091627855, 9.997071, 10.001959 
1.5048482e+3, 1.441697e+2, -1825158.6, -1571811.0, 14629.018, 0.09432939, -0.08598863, -1570969.1, -43837.426, 0.0040015904, 9.997458, 10.000829 
1.5048769e+3, 1.5417172e+2, -1619706.1, -1411406.8, -30219.643, 0.14522828, -0.011346703, -1407111.1, 22006.344, 0.001031135, 9.998167, 10.00091 
1.5049057e+3, 1.641733e+2, -1502072.8, -1279338.0, 20108.746, 0.12761934, 0.061547562, -1277537.1, 53565.703, 0.000096309515, 9.998165, 10.001157 
1.5049346e+3, 1.7417379e+2, -1471255.5, -1185393.4, 37099.633, 0.07563911, -0.05686494, -1180657.0, 52436.227, 0.000000575819, 9.9976, 10.001392 
1.5049629e+3, 1.841746e+2, -1436483.4, -1229538.1, 12292.154, 0.025175458, -0.055512436, -1228810.5, -93727.37, 0.0, 9.997645, 10.00039 
1.5049902e+3, 1.9417578e+2, -1150218.3, -1025754.06, -35373.973, -0.05906854, -0.016660318, -1016403.0, 20670.326, 0.0, 9.99888, 10.000511 
1.5050182e+3, 2.0417629e+2, -1008688.75, -961898.44, -12212.102, -0.07166958, 0.016088195, -958902.94, -19834.54, 0.0, 9.999412, 10.000035 
1.5050477e+3, 2.1417566e+2, -944449.94, -864244.3, -15647.555, 0.012919818, -0.090893954, -861299.75, -20227.824, 0.0, 9.999117, 10.000174 
1.5050766e+3, 2.2417524e+2, -869580.8, -843891.7, -7496.4453, 0.09028398, -0.107567556, -841864.1, -98789.55, 0.0, 9.999241, 9.99958 
1.505105e+3, 2.3417503e+2, -648900.75, -671808.5, -17816.707, 0.14547303, -0.13011998, -639173.8, 5903.2266, 0.0, 10.000015, 9.999716 
1.5051334e+3, 2.4417484e+2, -509679.8, -625127.06, 32146.416, 0.15429354, -0.07675229, -501332.22, 45746.535, 0.0, 10.000593, 9.999091 
1.5051615e+3, 2.5417447e+2, -350934.03, -481978.8, 13125.285, 0.089041635, -0.065060884, -349632.34, 99449.055, 0.00000020302433, 10.000951, 9.999222 
1.5051895e+3, 2.6417315e+2, -255870.42, -512126.38, 26868.422, 0.027021986, -0.05197872, -253083.56, 98009.66, 0.0000077496, 10.001475, 9.998091 
1.5052177e+3, 2.7417043e+2, -37235.11, -348377.53, 1601.0662, -0.030764226, -0.17138556, -37226.87, 215891.81, 0.000048509926, 10.00226, 9.99817 
1.505246e+3, 2.8416818e+2, 90117.234, -348040.03, -28279.13, -0.027382188, -0.15160443, 91934.86, 247075.11, 0.00020995413, 10.002956, 9.997155 
1.5052743e+3, 2.941664e+2, 300449.38, -176260.13, -41671.38, 0.0758588, -0.09873553, 304064.66, 361222.78, 0.0007220719, 10.003665, 9.997301 
1.5053026e+3, 3.0416375e+2, 329334.3, -176991.78, 45644.805, 0.100623384, -0.05987164, 333416.25, 333416.25, 0.0017709631, 10.003675, 9.996995 
1.5053299e+3, 3.1416184e+2, 263056.88, -1405.6187, -26033.4, -0.061155453, -0.008099429, 265595.22, 265595.22, 0.0032780794, 10.0022545, 9.998889 
1.514791e+3, 1.24139085e+2, -2043635.6, -1686036.4, 28964.014, 0.28719682, 0.011798535, -1683705.6, 39732.9, 0.016257107, 9.99684, 10.001708 
1.5148158e+3, 1.3414054e+2, -1906624.6, -1521532.9, 49972.35, -0.056307063, -0.09581435, -1515153.8, 110264.82, 0.009740974, 9.996969, 10.002107 
1.5148443e+3, 1.4414209e+2, -1866746.8, -1690909.0, 17852.62, -0.09293195, -0.03532931, -1689114.8, -161710.9, 0.0042781597, 9.997576, 9.999961 
1.5148757e+3, 1.5414323e+2, -1678568.5, -1543465.8, 10650.278, 0.16713955, 0.04282246, -1542631.4, -113229.72, 0.0011151112, 9.9981985, 9.999992 
1.514905e+3, 1.6414467e+2, -1436011.4, -1164159.0, -21182.387, 0.18734127, 0.11461625, -1162518.4, 168870.7, 0.000106548556, 9.998251, 10.001905 
1.5149319e+3, 1.7414607e+2, -1415053.5, -1060763.6, 28698.521, 0.01304258, -0.004092947, -1058454.0, 174912.45, 0.0000007145684, 9.997556, 10.002273 
1.5149601e+3, 1.8414693e+2, -1478899.8, -1314614.0, 36405.39, -0.063351296, -0.02106051, -1306908.1, -171553.56, 0.0, 9.997632, 9.999813 
1.5149894e+3, 1.9414681e+2, -1220847.5, -1144019.5, 25381.037, -0.039770298, -0.03939501, -1136391.9, -99032.2, 0.0, 9.998762, 9.999757 
1.5150182e+3, 2.0414694e+2, -1013087.6, -935637.2, -38150.56, -0.047320787, -0.011535181, -920001.5, 19357.793, 0.0, 9.999255, 10.000295 
1.515046e+3, 2.1414736e+2, -953118.25, -827189.1, -11752.63, -0.075360134, -0.051437028, -826101.7, 15250.742, 0.0, 9.998876, 10.000546 
1.5150747e+3, 2.2414775e+2, -889577.9, -825454.06, 2147.5474, -0.041230734, -0.019359482, -825382.25, -82035.195, 0.0, 9.9989805, 9.999835 
1.5151048e+3, 2.3414795e+2, -667140.3, -656981.0, 28412.5, 0.09065563, -0.021410218, -633197.7, 12147.826, 0.0, 9.999789, 9.999928 
1.5151338e+3, 2.4414754e+2, -545177.8, -648936.6, 28910.725, 0.1161666, -0.0012213337, -537666.1, 9682.709, 0.0, 10.000366, 9.9990425 
1.5151618e+3, 2.5414613e+2, -386834.7, -506101.25, 43036.234, 0.008015553, -0.08946962, -372927.2, 76432.836, 0.00000026346208, 10.000723, 9.999171 
1.5151908e+3, 2.641446e+2, -309614.13, -559323.56, 40442.742, -0.019980814, -0.088135414, -303227.4, 48146.324, 0.000008336701, 10.001207, 9.997895 
1.5152213e+3, 2.7414274e+2, -93051.55, -398376.34, 54713.84, 0.06927633, -0.10110069, -83543.016, 169848.89, 0.00005112129, 10.001992, 9.997952 
1.51525e+3, 2.841402e+2, 74587.14, -319315.38, -17850.629, 0.046062928, -0.109558165, 75394.43, 230809.6, 0.00022272031, 10.002687, 9.997481 
1.5152764e+3, 2.9413664e+2, 282923.84, -147046.67, 8647.986, -0.111029826, -0.2750932, 283097.72, 340544.25, 0.0007570033, 10.003378, 9.997638 
1.5153043e+3, 3.0413407e+2, 265704.13, -229168.31, -14579.372, -0.12565951, -0.23971927, 266133.28, 266133.28, 0.001811775, 10.003358, 9.996777 
1.5153329e+3, 3.141323e+2, 203920.39, -24687.021, -13236.843, -0.047098354, -0.15593754, 204684.28, 204684.28, 0.0032877421, 10.001864, 9.998899 
1.5247883e+3, 1.241109e+2, -1975035.5, -1626181.3, 44321.61, 0.33161294, 0.004851076, -1620638.4, 103077.21, 0.017244658, 9.997219, 10.00193 
1.5248135e+3, 1.3411266e+2, -1906237.4, -1527632.9, -251.4836, 0.02851358, -0.07023045, -1527632.6, 98061.16, 0.010359608, 9.997023, 10.002022 
1.5248422e+3, 1.4411461e+2, -1940426.4, -1688037.4, 75873.58, 0.0030199012, 0.024348756, -1666984.3, -139309.73, 0.0045741852, 9.996924, 10.000284 
1.5248735e+3, 1.5411544e+2, -1660229.5, -1479363.5, 132791.6, 0.15078707, 0.023773715, -1409136.1, 20535.654, 0.0012060112, 9.998082, 10.0004835 
1.5249029e+3, 1.6411652e+2, -1452691.1, -1257329.0, 101030.85, 0.15899336, 0.06911404, -1214479.6, 117183.02, 0.000118081814, 9.998541, 10.001117 
1.5249301e+3, 1.7411786e+2, -1320316.6, -1109224.8, -25595.473, 0.04850159, 0.03580673, -1106165.5, 127479.71, 0.0000008766353, 9.998646, 10.001404 
1.5249588e+3, 1.8411851e+2, -1349670.5, -1229843.9, -14370.094, 0.013721712, 0.03841405, -1228144.6, -92507.695, 0.0, 9.998409, 10.000035 
1.5249886e+3, 1.9411805e+2, -1311548.6, -1153467.8, 23404.273, 0.04038222, -0.043149915, -1150075.5, -112432.73, 0.0, 9.997976, 10.000089 
1.5250175e+3, 2.041182e+2, -1170366.6, -1000139.6, 30747.1, 0.030798322, -0.03707459, -994756.25, -55115.066, 0.0, 9.998109, 10.000406 
1.5250453e+3, 2.141191e+2, -910482.7, -795303.9, 5722.967, -0.029740488, -0.04069072, -795020.2, 46609.72, 0.0, 9.999104, 10.000656 
1.5250742e+3, 2.241197e+2, -785086.25, -801425.44, 34706.93, -0.017899228, 0.012681877, -757600.4, -13977.02, 0.0, 9.999794, 9.999618 
1.5251045e+3, 2.3411964e+2, -641413.25, -670294.6, -3845.426, 0.08655771, 0.010848895, -640910.0, 4714.6846, 0.0, 10.000065, 9.999708 
1.525134e+3, 2.4411902e+2, -550486.2, -639912.5, 7869.03, 0.115299076, 0.01871002, -549799.06, -2168.9675, 0.0, 10.000314, 9.99911 
1.5251628e+3, 2.541175e+2, -389895.25, -493478.75, -2377.04, 0.040721294, -0.08841995, -389840.72, 59801.117, 0.0000003530132, 10.000666, 9.9992695 
1.5251926e+3, 2.6411605e+2, -303524.7, -539546.75, 55432.547, 0.04545683, -0.0897908, -291154.1, 60499.88, 0.000008619123, 10.001155, 9.99806 
1.5252237e+3, 2.7411464e+2, -110060.21, -378470.47, 59812.324, 0.14681874, -0.07997585, -97334.98, 156332.78, 0.000051931653, 10.001761, 9.998189 
1.5252529e+3, 2.8411236e+2, 21362.152, -330249.28, 27056.443, 0.11397491, -0.08282332, 23431.957, 179120.34, 0.00023518385, 10.002252, 9.99763 
1.5252794e+3, 2.9410893e+2, 172629.77, -194466.44, -2316.7708, -0.089704834, -0.24597101, 172644.38, 230363.83, 0.000791527, 10.002561, 9.997739 
1.5253076e+3, 3.0410656e+2, 243202.16, -245147.72, -9129.813, -0.09668946, -0.18719889, 243372.78, 243372.78, 0.0018473114, 10.0032015, 9.996756 
1.5253371e+3, 3.141035e+2, 498804.1, 75635.77, -66670.19, 0.08108773, -0.22438182, 509059.44, 509059.44, 0.0032831768, 10.004046, 9.998552 
1.5347816e+3, 1.2408376e+2, -1917206.8, -1540684.5, -21451.822, -0.1366559, 0.09551219, -1539466.3, 184518.69, 0.018294634, 9.997345, 10.00247 
1.5348132e+3, 1.3408509e+2, -1933031.4, -1584830.1, -2655.6147, 0.27431285, 0.015643863, -1584809.9, 41158.734, 0.011016667, 9.997031, 10.001623 
1.5348418e+3, 1.4408763e+2, -1803900.3, -1440230.4, 86294.83, 0.21606752, 0.11996226, -1420792.5, 107147.414, 0.0048880493, 9.9970665, 10.001927 
1.53487e+3, 1.5408859e+2, -1536615.9, -1203766.8, 189411.47, -0.042704873, -0.05453513, -1118052.8, 311872.53, 0.0013030368, 9.998009, 10.002416 
1.5348992e+3, 1.6408914e+2, -1611722.4, -1606124.9, 87204.77, -0.10814358, -0.057744835, -1521673.9, -189753.36, 0.00013086536, 9.99861, 9.998694 
1.5349291e+3, 1.740892e+2, -1525905.8, -1529849.8, -9299.721, 0.052970078, 0.06290277, -1518371.3, -284441.84, 0.0000010420176, 9.998618, 9.998529 
1.5349583e+3, 1.8408938e+2, -1278735.1, -1088677.1, -50939.77, 0.11018831, 0.13372935, -1075885.1, 60045.453, 0.0, 9.99843, 10.000997 
1.5349868e+3, 1.9408955e+2, -1224254.4, -954281.3, 18697.3, 0.050515104, -0.02288495, -952992.56, 84930.32, 0.0, 9.997892, 10.001498 
1.5350157e+3, 2.0409006e+2, -1196235.0, -1010143.3, 46686.637, 0.016671097, -0.060397815, -999087.44, -59173.496, 0.0, 9.997926, 10.0004225 
1.5350452e+3, 2.1409088e+2, -960600.06, -837756.6, 57809.074, 0.017534552, -0.059079703, -814830.75, 27074.117, 0.0, 9.998846, 10.000485 
1.5350744e+3, 2.2409105e+2, -869075.8, -913730.94, 31544.602, 0.009967135, -0.0062279683, -852756.5, -108853.07, 0.0, 9.999523, 9.998977 
1.5351039e+3, 2.3409013e+2, -720246.2, -781712.75, 25852.701, 0.006738905, -0.03169758, -710818.56, -64904.2, 0.0, 9.999833, 9.999059 
1.5351336e+3, 2.4408928e+2, -586292.75, -645060.94, 6855.813, 0.008030579, -0.017445035, -585503.56, -37580.746, 0.0, 10.000028, 9.999206 
1.5351637e+3, 2.5408846e+2, -416787.97, -493495.75, 29998.5, 0.047754467, -0.07115316, -406449.66, 43478.316, 0.0000004707298, 10.00044, 9.9993725 
1.5351942e+3, 2.6408753e+2, -297313.8, -477020.66, 58607.22, 0.06663932, -0.05186339, -279889.8, 72044.9, 0.0000086272985, 10.000939, 9.998593 
1.5352249e+3, 2.7408615e+2, -99124.82, -310110.13, 95563.19, 0.053989112, -0.09345205, -62276.254, 191670.1, 0.000052741245, 10.001564, 9.998754 
1.5352546e+3, 2.840845e+2, -19085.967, -359882.78, 20834.502, 0.02123247, -0.061772954, -17816.982, 138144.72, 0.00024875673, 10.002008, 9.99755 
1.5352829e+3, 2.9408276e+2, 124147.195, -234780.03, 35717.207, -0.03395224, -0.04477882, 127666.94, 185646.83, 0.00082812813, 10.0022955, 9.99759 
1.535312e+3, 3.0408096e+2, 200981.08, -263330.34, 5937.5273, 0.0024849705, 0.0776446, 201056.98, 201056.98, 0.001892961, 10.0029125, 9.996763 
1.535341e+3, 3.140754e+2, 379641.28, -49644.004, 23635.11, 0.025114698, -0.2195809, 380938.66, 380938.66, 0.003309201, 10.003542, 9.997923 
1.544779e+3, 1.240558e+2, -1986956.9, -1629124.9, 46481.97, -0.110804915, 0.0888625, -1623185.5, 101070.19, 0.019406972, 9.997115, 10.001954 
1.5448108e+3, 1.3405629e+2, -1909993.8, -1622377.4, -36953.79, 0.31561717, -0.036958277, -1617705.4, 8544.212, 0.0117135905, 9.997368, 10.001204 
1.544839e+3, 1.4405932e+2, -1858906.9, -1482297.1, 79392.875, 0.25855315, 0.14588362, -1466244.6, 61972.242, 0.0052204016, 9.996768, 10.001785 
1.5448676e+3, 1.5405975e+2, -1569784.4, -1229704.5, 9781.835, -0.044603225, -0.07170031, -1229423.4, 200783.25, 0.0014059248, 9.997806, 10.002347 
1.5448974e+3, 1.6406001e+2, -1652300.0, -1615142.5, -88299.32, -0.09933149, -0.10356223, -1543488.5, -211283.92, 0.00014487762, 9.998292, 9.998778 
1.5449278e+3, 1.7406018e+2, -1583418.9, -1547452.4, -883.6025, 0.09574399, 0.018036664, -1547430.8, -313218.34, 0.000001197513, 9.998166, 9.998629 
1.5449572e+3, 1.8406054e+2, -1334218.1, -1114153.6, 84257.45, 0.1694714, 0.10153306, -1085598.8, 50613.195, 0.0, 9.99807, 10.000984 
1.5449852e+3, 1.9406115e+2, -1148407.6, -915230.7, 18157.225, 0.08801328, -0.012847089, -913825.25, 124374.766, 0.0, 9.998428, 10.0015 
1.5450142e+3, 2.040617e+2, -1092814.9, -976197.2, 33664.28, 0.04708227, -0.036926024, -967176.94, -26986.197, 0.0, 9.998713, 10.000278 
1.5450442e+3, 2.1406217e+2, -951338.56, -851343.25, 11081.95, 0.044922236, -0.053727336, -850129.8, -7943.912, 0.0, 9.998991, 10.000326 
1.5450741e+3, 2.2406209e+2, -886878.3, -897706.6, 38574.04, 0.04770094, -0.02513365, -853340.3, -109153.836, 0.0, 9.999326, 9.999166 
1.5451041e+3, 2.3406114e+2, -696979.5, -737758.75, 54365.688, 0.05140626, -0.07525356, -659305.7, -13110.059, 0.0, 9.999895, 9.999308 
1.5451343e+3, 2.4406017e+2, -541580.8, -677659.5, 85182.586, 0.07294836, -0.06312148, -500599.84, 47604.926, 0.000000000009610117, 10.000531, 9.998764 
1.5451653e+3, 2.5405917e+2, -337575.63, -513889.22, 37001.742, 0.13188371, -0.083528765, -330125.16, 120089.15, 0.0000005675007, 10.001201, 9.998893 
1.545196e+3, 2.6405814e+2, -214370.73, -451319.38, 47263.547, 0.14296038, -0.04155132, -205291.11, 146932.84, 0.000008574752, 10.001592, 9.998456 
1.5452264e+3, 2.7405664e+2, -91465.555, -329555.3, -2587.0054, 0.062758856, -0.07378347, -91437.45, 162800.19, 0.00005426492, 10.001705, 9.998567 
1.5452564e+3, 2.8405508e+2, -24575.568, -316327.1, -65220.54, 0.027604992, -0.04375667, -10659.415, 145593.38, 0.00026286932, 10.001802, 9.997915 
1.5452856e+3, 2.9405367e+2, 94308.69, -201257.33, -59742.68, 0.03473494, -0.029304702, 105927.7, 164194.61, 0.0008685198, 10.001914, 9.997976 
1.5453155e+3, 3.040524e+2, 223266.9, -188972.97, 25131.738, 0.09346324, 0.09290587, 224793.38, 224793.38, 0.001959959, 10.002777, 9.997351 
1.5453456e+3, 3.1404817e+2, 501690.94, -2697.8137, 6797.8276, 0.09852213, -0.11912704, 501782.56, 501782.56, 0.0033944554, 10.004424, 9.997824 
1.5547788e+3, 1.240265e+2, -2070807.3, -1831678.3, 74859.086, 0.086229116, -0.06004882, -1810177.0, -85644.695, 0.020587768, 9.997266, 10.000474 
1.5548049e+3, 1.3402621e+2, -1944842.0, -1675630.8, -62534.453, -0.033478167, -0.21473928, -1661813.9, -35277.387, 0.012455585, 9.997302, 10.000873 
1.5548332e+3, 1.440295e+2, -1980517.8, -1751624.0, 76746.26, -0.053473346, 0.09415436, -1728273.8, -199766.98, 0.0055746003, 9.996832, 9.9999075 
1.5548663e+3, 1.54029e+2, -1724093.1, -1543241.0, 63733.773, 0.0029217198, -0.009805948, -1523037.6, -92521.92, 0.001515748, 9.997787, 10.000199 
1.5548976e+3, 1.6402933e+2, -1447933.6, -1212100.3, -107845.73, 0.04264314, -0.037953284, -1170220.0, 162293.16, 0.00016035176, 9.998374, 10.001511 
1.5549259e+3, 1.7403091e+2, -1363615.6, -1079561.1, 4836.5522, 0.056006145, -0.09044116, -1079478.9, 155014.61, 0.0000013687348, 9.998115, 10.001868 
1.5549543e+3, 1.8403219e+2, -1408746.6, -1258187.1, 77790.414, 0.047915593, -0.052202836, -1225215.4, -88736.27, 0.0, 9.998028, 10.000012 
1.5549831e+3, 1.9403282e+2, -1274593.3, -1140502.1, 47731.297, 0.017654175, -0.018607344, -1125247.1, -86773.04, 0.0, 9.998281, 10.000021 
1.5550125e+3, 2.0403315e+2, -1134505.0, -1037640.3, 26607.771, -0.0251737, 0.031949524, -1030812.7, -90341.12, 0.0, 9.998588, 9.999926 
1.5550423e+3, 2.1403302e+2, -992672.75, -895848.94, 37085.723, -0.07139802, -0.02020206, -883276.75, -40804.164, 0.0, 9.998796, 10.000123 
1.5550728e+3, 2.2403288e+2, -860788.2, -788589.7, 41684.195, -0.05345374, -0.028450312, -769546.1, -25074.4, 0.0, 9.999084, 10.000031 
1.5551046e+3, 2.3403248e+2, -662330.56, -623304.8, 90026.76, 0.079845235, -0.11900925, -550700.5, 95769.89, 0.0, 9.999699, 10.0001955 
1.5551358e+3, 2.4403152e+2, -636823.06, -816237.1, 95713.836, 0.14811547, -0.11693733, -595349.0, -46870.645, 0.0, 10.0002775, 9.997933 
1.5551668e+3, 2.5402972e+2, -436871.56, -671675.0, 78470.836, 0.15399015, -0.121395126, -413061.25, 37439.223, 0.0000005355393, 10.000993, 9.997909 
1.5551977e+3, 2.6402795e+2, -308196.06, -596168.25, 41337.613, 0.124381326, -0.0580826, -302379.66, 50141.59, 0.000008556659, 10.001378, 9.997561 
1.5552281e+3, 2.7402616e+2, -188580.1, -476733.22, 27513.041, 0.044687968, -0.03847193, -185976.66, 68564.45, 0.000056489618, 10.001472, 9.9976635 
1.555258e+3, 2.8402415e+2, -23593.361, -251878.17, -72329.19, -0.015715858, -0.026679205, -2606.1982, 153954.33, 0.00027893353, 10.001541, 9.998481 
1.555287e+3, 2.9402182e+2, 113511.516, -100322.35, -32476.51, -0.037513122, -0.18247338, 118335.15, 176914.33, 0.0009153457, 10.001662, 9.998785 
1.555318e+3, 3.04021e+2, 246503.52, -73599.75, 65559.55, 0.019181425, -0.10412466, 259410.19, 259410.19, 0.0020538478, 10.002507, 9.998266 
1.5553497e+3, 3.1402117e+2, 438777.16, 7595.0195, 106623.445, 0.020469252, 0.03127851, 463702.34, 463702.34, 0.0035486901, 10.003852, 9.9981575 
1.5647772e+3, 1.239978e+2, -2287106.3, -1934206.9, 92094.23, 0.2909251, -0.1062569, -1911619.4, -186810.11, 0.021849003, 9.99577, 10.000513 
1.5648015e+3, 1.3399632e+2, -1852670.1, -1668903.3, -85022.63, -0.1261502, -0.33504784, -1635601.3, -8776.249, 0.013250772, 9.998091, 10.000555 
1.5648304e+3, 1.4399979e+2, -1744287.8, -1683023.9, 97368.4, -0.09607069, 0.019969467, -1611582.8, -82788.24, 0.0059556314, 9.9986515, 9.999496 
1.564864e+3, 1.5399931e+2, -1967726.0, -1719947.9, 164292.72, 0.08815014, -0.030222662, -1638068.6, -207262.77, 0.0016345053, 9.996372, 9.999662 
1.5648955e+3, 1.6399983e+2, -1815122.9, -1322244.9, 77464.234, 0.14067134, -0.03993649, -1310356.8, 22444.996, 0.00017771397, 9.995561, 10.002119 
1.5649238e+3, 1.7400193e+2, -1382091.6, -1005987.8, -17466.719, 0.08130281, -0.115382485, -1005178.4, 229595.4, 0.0000016137079, 9.997617, 10.002622 
1.5649527e+3, 1.8400328e+2, -1319474.3, -1257622.6, -21983.074, 0.06624639, -0.09367522, -1250605.6, -113848.18, 0.0, 9.99881, 9.999644 
1.5649822e+3, 1.9400336e+2, -1216088.3, -1170246.0, -13752.766, 0.07482134, -0.07103351, -1166436.6, -127676.68, 0.0, 9.998903, 9.999524 
1.5650119e+3, 2.0400326e+2, -1094634.9, -1039229.6, 48000.746, 0.053804535, -0.024064489, -1011511.06, -70748.39, 0.0, 9.998998, 9.999691 
1.5650418e+3, 2.1400303e+2, -898217.44, -863210.4, 24672.777, -0.009491343, -0.06831319, -850463.0, -7698.34, 0.0, 9.99955, 9.999958 
1.5650725e+3, 2.2400284e+2, -729608.06, -723522.56, 33645.336, -0.00675225, -0.07131085, -692782.7, 51981.332, 0.0, 9.99995, 10.000075 
1.5651044e+3, 2.3400268e+2, -592781.94, -573618.06, -4190.33, 0.09570955, -0.14785957, -572741.9, 74018.305, 0.0, 10.000097, 10.000344 
1.5651362e+3, 2.4400188e+2, -582952.2, -809557.0, 41806.77, 0.15206625, -0.13273181, -575485.25, -26718.088, 0.0, 10.000719, 9.997769 
1.565168e+3, 2.5399995e+2, -301047.53, -624719.6, 51876.973, 0.13956487, -0.124286875, -292936.16, 157855.11, 0.00000039469393, 10.00201, 9.997732 
1.5651996e+3, 2.6399818e+2, -140874.38, -521561.3, 54577.29, 0.13101317, -0.05378909, -133204.4, 219608.9, 0.000008163994, 10.002546, 9.997514 
1.5652305e+3, 2.739964e+2, -132094.25, -451322.0, 56942.516, 0.11543881, -0.02740526, -122241.195, 132592.27, 0.000058543963, 10.001866, 9.997646 
1.5652604e+3, 2.8399432e+2, 9487.01, -240891.52, 36943.063, 0.06266151, -0.01819538, 14824.147, 171677.39, 0.00029613846, 10.001771, 9.998473 
1.565289e+3, 2.9399174e+2, 258166.48, -32373.082, -15935.927, -0.030641984, -0.1928882, 259037.94, 317911.3, 0.00096601876, 10.002641, 9.998805 
1.5653205e+3, 3.0399016e+2, 371045.13, -11287.891, 77515.516, 0.0076708356, -0.19636801, 386163.1, 386163.1, 0.002166349, 10.003338, 9.998291 
1.565354e+3, 3.139916e+2, 376700.1, -48772.78, -16693.49, 0.102445714, 0.07355581, 377354.03, 377354.03, 0.0037551816, 10.00348, 9.997964 
1.5747719e+3, 1.23969726e+2, -2133386.3, -1634758.4, -10579.126, 0.10338931, -0.021702595, -1634534.0, 90552.97, 0.023204513, 9.995827, 10.002562 
1.5747999e+3, 1.3396703e+2, -1864080.6, -1699425.4, 27570.654, -0.120933436, -0.35055083, -1694931.5, -67820.46, 0.014108494, 9.99812, 10.000327 
1.5748303e+3, 1.439705e+2, -1630945.9, -1490271.1, 8775.434, -0.002664362, -0.050015565, -1489725.9, 39350.953, 0.0063687824, 9.998829, 10.000737 
1.5748607e+3, 1.5397078e+2, -1898959.6, -1561876.8, 85633.36, 0.094079316, -0.13297802, -1541369.8, -110293.47, 0.00176415, 9.996315, 10.000772 
1.5748903e+3, 1.639716e+2, -1915214.8, -1535637.1, 119327.195, 0.038751353, -0.10858296, -1501241.3, -168171.78, 0.00019721544, 9.995576, 10.000648 
1.5749213e+3, 1.7397329e+2, -1510964.0, -1267336.9, 77249.3, 0.034912508, -0.05250391, -1244907.6, -9855.077, 0.0000019795527, 9.997586, 10.000842 
1.574952e+3, 1.8397398e+2, -1293104.6, -1210332.0, -28320.652, 0.078446016, -0.015012455, -1201569.8, -64524.01, 0.0, 9.998834, 9.99996 
1.574982e+3, 1.9397296e+2, -1200322.0, -1106124.8, 1824.8888, 0.12968637, -0.14837044, -1106089.4, -67033.97, 0.0, 9.99877, 10.00003 
1.5750119e+3, 2.0397228e+2, -1128603.1, -1078358.3, 48007.242, 0.12988438, -0.18327379, -1049297.4, -108235.49, 0.0, 9.998853, 9.9994955 
1.5750426e+3, 2.1397199e+2, -951510.94, -928114.6, 58025.15, 0.09400042, -0.20260867, -880620.2, -37556.22, 0.0, 9.999348, 9.999614 
1.5750733e+3, 2.2397181e+2, -802282.25, -822050.75, 27781.352, 0.041215412, -0.15905643, -782679.2, -37614.44, 0.0, 9.999726, 9.999503 
1.5751036e+3, 2.3397177e+2, -670357.7, -680699.6, 15084.842, -0.026496772, -0.16541323, -659582.1, -12517.484, 0.0, 9.999866, 9.999722 
1.5751351e+3, 2.4397124e+2, -595282.3, -769837.56, 69849.39, -0.05624414, -0.106605925, -570773.0, -21702.299, 0.0, 10.000438, 9.998176 
1.5751687e+3, 2.539699e+2, -302996.9, -573597.0, 115947.375, -0.022664635, -0.09611329, -260111.94, 190975.11, 0.00000029448665, 10.001768, 9.9981985 
1.5752015e+3, 2.6396865e+2, -135408.45, -449283.4, 20501.867, 0.038849138, -0.020870194, -134074.97, 219026.42, 0.000007127328, 10.002283, 9.998138 
1.5752326e+3, 2.739673e+2, -112688.4, -363585.06, 49519.613, 0.12919901, -0.026032986, -103268.37, 151847.63, 0.000059012113, 10.001664, 9.998348 
1.5752627e+3, 2.8396547e+2, -60047.047, -344940.34, 45602.035, 0.09558009, -0.0038341852, -52925.676, 104207.195, 0.00030982727, 10.001591, 9.997844 
1.5752913e+3, 2.9396322e+2, 163452.06, -168319.22, 44375.47, -0.10183044, -0.07047937, 169284.89, 228435.94, 0.0010139579, 10.002378, 9.997996 
1.5753229e+3, 3.0395973e+2, 270275.1, -148707.88, 74237.43, -0.107615486, -0.18134192, 283039.97, 283039.97, 0.002282176, 10.003051, 9.997468 
1.5753575e+3, 3.1395948e+2, 249998.16, -171468.16, 40246.03, 0.04253157, -0.013741208, 253806.86, 253806.86, 0.0039771725, 10.00291, 9.997369 
1.5847674e+3, 1.2394073e+2, -1963011.0, -1476086.0, 1993.0438, 0.06273916, 0.034418024, -1476077.8, 249294.66, 0.024665277, 9.996654, 10.003258 
1.5847982e+3, 1.3393845e+2, -2177156.0, -1880942.4, 23857.25, 0.0053933784, -0.23260894, -1879033.3, -251640.44, 0.0150364665, 9.9960985, 10.000047 
1.5848288e+3, 1.4394039e+2, -1928254.8, -1592587.5, -65512.043, 0.08629373, -0.0896769, -1580254.6, -50881.773, 0.0068181083, 9.996612, 10.001103 
1.584858e+3, 1.5394117e+2, -1621263.4, -1389547.5, -96643.47, 0.12554914, -0.15612654, -1354531.3, 76833.81, 0.0019058621, 9.998037, 10.001132 
1.5848874e+3, 1.6394205e+2, -1514301.3, -1395422.5, 18594.434, 0.048922405, -0.1220203, -1392581.9, -59225.168, 0.0002187055, 9.998563, 10.000168 
1.5849197e+3, 1.7394294e+2, -1448033.0, -1294820.8, 37336.914, 0.09640028, -0.09128897, -1286206.4, -50857.19, 0.000002466339, 9.998285, 10.000311 
1.5849514e+3, 1.8394333e+2, -1353596.8, -1236370.8, -9791.873, 0.16246057, -0.053094443, -1235558.4, -98212.18, 0.0, 9.998417, 9.999978 
1.5849811e+3, 1.9394287e+2, -1071560.3, -1032003.6, -44222.934, 0.13665076, -0.13821906, -1003337.6, 36013.83, 0.0, 9.999605, 10.000129 
1.5850112e+3, 2.0394245e+2, -924663.06, -983408.0, 12716.671, 0.11732238, -0.15104418, -922028.4, 19326.91, 0.0, 10.000236, 9.999497 
1.5850428e+3, 2.1394198e+2, -828049.6, -868627.7, 18700.998, 0.14816377, -0.18904455, -820745.6, 22612.324, 0.0, 10.000156, 9.999647 
1.5850739e+3, 2.2394156e+2, -782089.0, -880831.8, 33666.98, 0.12809625, -0.14698438, -771702.56, -26340.432, 0.0, 10.000188, 9.9988785 
1.585104e+3, 2.3394111e+2, -600289.1, -733075.1, -19743.652, 0.013398094, -0.11382259, -597415.6, 49953.785, 0.0, 10.000713, 9.998971 
1.5851358e+3, 2.4394035e+2, -483879.97, -656285.5, 70003.19, -0.04782369, -0.05684766, -459036.06, 90342.22, 0.0, 10.000966, 9.998692 
1.5851697e+3, 2.5393918e+2, -388724.47, -545054.3, 89458.0, -0.042110518, -0.08664919, -348093.4, 103295.49, 0.00000023115544, 10.000886, 9.998822 
1.5852027e+3, 2.6393807e+2, -292190.8, -479541.0, 6410.9043, 0.014001703, -0.050352387, -291971.7, 61427.72, 0.0000061293663, 10.001026, 9.998524 
1.5852343e+3, 2.7393675e+2, -75502.02, -300209.47, -28100.352, 0.131104, -0.08374552, -72041.29, 183370.9, 0.000060026516, 10.00175, 9.998723 
1.5852651e+3, 2.839353e+2, 50632.066, -333318.38, 16797.229, 0.14574437, -0.028718244, 51365.52, 208791.05, 0.0003212461, 10.002541, 9.997453 
1.5852952e+3, 2.939336e+2, 270375.1, -167947.89, -4705.794, 0.014108348, 0.0050615845, 270425.6, 329866.1, 0.0010570007, 10.003328, 9.997531 
1.585327e+3, 3.0392918e+2, 344046.28, -173295.38, 57950.953, -0.026973076, -0.14847174, 350458.28, 350458.28, 0.0023874303, 10.003782, 9.996975 
1.5853605e+3, 3.1392738e+2, 332128.75, -128143.46, -38343.766, 0.048127085, -0.07326815, 335301.2, 335301.2, 0.004171715, 10.003428, 9.997446 
1.5947649e+3, 1.2391018e+2, -2003874.1, -1620541.6, 31260.262, 0.05028325, -0.04764627, -1618009.1, 107662.19, 0.026239868, 9.9968815, 10.0021515 
1.5947962e+3, 1.3391085e+2, -2224457.8, -1965819.4, 36352.188, 0.17019115, 0.025282966, -1960807.1, -333139.38, 0.016040104, 9.996052, 9.999482 
1.594825e+3, 1.4390923e+2, -1954227.4, -1682274.3, -32624.777, -0.0158657, -0.1183523, -1678415.3, -148729.94, 0.0073062, 9.996742, 10.000436 
1.5948556e+3, 1.5391062e+2, -1643430.9, -1454337.6, -31246.22, 0.040911525, -0.07761101, -1449308.1, -17637.488, 0.002060233, 9.998104, 10.000661 
1.594886e+3, 1.6391149e+2, -1459796.1, -1311054.9, -11213.93, 0.026086962, -0.041774303, -1310214.1, 23446.22, 0.00024185247, 9.998683, 10.000689 
1.5949188e+3, 1.7391095e+2, -1411649.8, -1211382.4, 37404.285, 0.1550863, -0.21607377, -1204624.4, 31038.107, 0.0000030340082, 9.998251, 10.000899 
1.5949503e+3, 1.8391128e+2, -1371654.9, -1274333.8, 12149.812, 0.17288198, -0.20697542, -1272839.9, -135180.23, 0.0, 9.998415, 9.999718 
1.5949792e+3, 1.93913e+2, -1118523.4, -1097139.8, 15846.7, -0.035338316, -0.039093804, -1088715.3, -49066.715, 0.0, 9.999474, 9.9997425 
1.5950094e+3, 2.0391387e+2, -924916.06, -950965.6, -699.3659, -0.12246611, 0.08609255, -924897.3, 16744.82, 0.0, 10.000094, 9.999785 
1.5950419e+3, 2.1391322e+2, -839800.6, -830866.25, 28422.336, 0.026200725, -0.008758323, -806562.2, 37082.438, 0.0, 9.999898, 10.000027 
1.5950741e+3, 2.2391227e+2, -870065.44, -1010358.4, 35213.25, 0.10823505, -0.008386954, -861723.06, -116069.22, 0.0, 9.999948, 9.998108 
1.5951055e+3, 2.3391074e+2, -700675.2, -888803.9, 21178.514, 0.0812729, 0.0061815623, -698320.5, -50646.605, 0.0, 10.000479, 9.998016 
1.5951376e+3, 2.4390933e+2, -488670.06, -604473.3, 59976.74, 0.021868845, 0.029059937, -463206.2, 86482.27, 0.0, 10.000707, 9.9991665 
1.5951705e+3, 2.5390792e+2, -381082.75, -461647.06, 103423.164, -0.05854277, -0.095263794, -310373.9, 141322.47, 0.00000009760233, 10.000614, 9.999515 
1.595203e+3, 2.6390642e+2, -324205.4, -493921.28, 15278.784, -0.077252075, -0.13472204, -322840.9, 30866.002, 0.0000054247644, 10.000792, 9.998541 
1.5952349e+3, 2.7390495e+2, -113680.3, -329454.63, 19262.332, -0.0063995253, -0.18618481, -111974.23, 143746.64, 0.0000627863, 10.001524, 9.998633 
1.595267e+3, 2.839038e+2, -7753.409, -384757.6, 27789.24, 0.066993505, -0.085608214, -5716.055, 152015.72, 0.0003316825, 10.002252, 9.997236 
1.5953e+3, 2.9390255e+2, 209334.02, -219370.17, 49876.23, 0.13857625, 0.016748909, 215060.22, 274804.5, 0.0010854213, 10.003014, 9.99733 
1.5953319e+3, 3.0389825e+2, 265099.88, -250321.55, 32356.262, 0.06590668, -0.093590416, 267123.13, 267123.13, 0.002452494, 10.003432, 9.996607 
1.5953623e+3, 3.1389537e+2, 288169.4, -87293.086, -1238.2117, -0.15337802, -0.09776141, 288173.47, 288173.47, 0.0042832866, 10.002898, 9.997972 
1.6047615e+3, 1.2387762e+2, -2225502.8, -1782188.5, -35042.39, 0.107452534, -0.13198511, -1779435.6, -53444.227, 0.027939666, 9.99565, 10.001622 
1.6047928e+3, 1.3388042e+2, -1998456.5, -1785640.0, -39655.04, 0.18885443, 0.106094725, -1778491.0, -150522.47, 0.01712635, 9.997327, 10.000099 
1.6048226e+3, 1.438785e+2, -1816551.4, -1611103.4, 18158.29, 0.044083018, -0.0960257, -1609510.9, -79521.336, 0.007836914, 9.997701, 10.0004425 
1.6048539e+3, 1.5388007e+2, -1648650.5, -1446272.9, 16149.965, 0.07442759, -0.045242637, -1444992.3, -13019.729, 0.0022287087, 9.998047, 10.000727 
1.604885e+3, 1.6388097e+2, -1535737.5, -1340457.5, 44693.87, 0.086856365, -0.0123957265, -1330714.5, 3246.9238, 0.00026665046, 9.998153, 10.00073 
1.604917e+3, 1.7388043e+2, -1373336.3, -1184495.8, 15057.333, 0.15952094, -0.18918037, -1183302.6, 52660.98, 0.0000036433328, 9.998493, 10.000958 
1.6049485e+3, 1.8388091e+2, -1324706.4, -1243673.0, 31354.037, 0.15193018, -0.17212099, -1232958.1, -94998.76, 0.0, 9.998689, 9.999798 
1.6049784e+3, 1.9388278e+2, -1169938.6, -1110326.0, 42239.02, -0.027891058, -0.0029160916, -1088435.5, -48488.977, 0.0, 9.999043, 9.999866 
1.6050093e+3, 2.038836e+2, -1049761.4, -1013131.3, 43828.313, -0.08988942, 0.1139265, -983945.2, -42004.91, 0.0, 9.999268, 9.999754 
1.6050415e+3, 2.138828e+2, -889471.0, -856996.4, 4056.7473, 0.031677857, 0.010358433, -856497.25, -12552.933, 0.0, 9.999586, 9.999991 
1.6050743e+3, 2.2388166e+2, -838254.75, -1004853.9, 72240.54, 0.12325672, 0.00051455677, -811293.2, -65338.24, 0.0, 10.000202, 9.998016 
1.605107e+3, 2.3388012e+2, -564550.1, -819575.6, 89935.016, 0.15093917, 0.01562915, -536025.06, 111949.59, 0.0, 10.001413, 9.998016 
1.6051398e+3, 2.4387857e+2, -369543.75, -590016.94, 116502.28, 0.12629834, 0.04032843, -319390.53, 230599.88, 0.0, 10.001708, 9.998791 
1.605172e+3, 2.5387678e+2, -399433.0, -518817.7, 47333.535, 0.04212127, -0.07263721, -382943.72, 69059.06, 0.000000007673713, 10.000683, 9.999096 
1.6052043e+3, 2.6387492e+2, -341156.34, -509052.9, 4401.6113, -0.001724368, -0.12829392, -341041.03, 12976.23, 0.0000049768487, 10.000698, 9.99849 
1.6052367e+3, 2.738731e+2, -10078.389, -287642.1, -29347.992, 0.0074826656, -0.20293416, -7009.2373, 249023.48, 0.00006482946, 10.002256, 9.99859 
1.6052696e+3, 2.8387156e+2, 138887.6, -322570.56, 3130.3223, 0.06214288, -0.1336416, 138908.83, 296955.3, 0.00033743004, 10.00325, 9.997204 
1.6053033e+3, 2.9387003e+2, 269059.16, -191562.92, -7911.157, 0.16963966, -0.0524744, 269195.0, 329256.9, 0.0010902435, 10.003411, 9.997339 
1.6053356e+3, 3.038663e+2, 272212.47, -256559.31, 15183.161, 0.10609729, -0.10363055, 272648.1, 272648.1, 0.0024557733, 10.003519, 9.996514 
1.6053665e+3, 3.138631e+2, 395755.13, 2076.1047, -85736.72, -0.038339198, -0.1278699, 413616.75, 413616.75, 0.0042827246, 10.003447, 9.998326 
1.6147579e+3, 1.2384394e+2, -2198507.3, -1800033.4, -39261.367, 0.10915291, -0.11818645, -1796201.8, -69877.57, 0.02978273, 9.995942, 10.001371 
1.6147877e+3, 1.3384733e+2, -1857521.3, -1513006.5, 5448.324, -0.08496273, 0.014821998, -1512920.4, 115373.164, 0.018308382, 9.997391, 10.001963 
1.6148211e+3, 1.4384888e+2, -1746477.1, -1497409.3, 10760.036, 0.07811149, 0.02622077, -1496945.3, 33333.496, 0.008418617, 9.997827, 10.001167 
1.6148524e+3, 1.5384954e+2, -1611952.8, -1371912.4, 44528.242, 0.09333854, -0.06478557, -1363918.4, 68351.51, 0.0024150687, 9.998055, 10.001235 
1.6148835e+3, 1.6385037e+2, -1545064.3, -1399708.0, 36154.895, 0.07807329, -0.048276424, -1391211.8, -56950.547, 0.0002938315, 9.998306, 10.000254 
1.6149142e+3, 1.7385143e+2, -1413963.3, -1273657.1, 38833.36, -0.0123439925, -0.007822991, -1263626.1, -27373.799, 0.000004294035, 9.998494, 10.000354 
1.6149455e+3, 1.8385221e+2, -1293141.0, -1178173.0, 27669.45, -0.051347338, 0.053864814, -1171860.4, -33614.598, 0.0, 9.998692, 10.000242 
1.6149783e+3, 1.9385226e+2, -1144352.0, -1035168.56, 69229.98, 0.030768516, -0.015966946, -1001595.4, 38649.535, 0.0, 9.998948, 10.000427 
1.6150104e+3, 2.0385182e+2, -1102336.6, -1081720.4, 36149.69, 0.066007905, -0.040403366, -1054437.9, -112189.58, 0.0, 9.999095, 9.999365 
1.6150413e+3, 2.1385068e+2, -959373.94, -953103.1, 29151.045, 0.043209556, -0.12890856, -926919.4, -82661.74, 0.0, 9.999379, 9.99943 
1.6150737e+3, 2.2384976e+2, -840048.5, -941383.25, 97104.85, 0.0429225, -0.10925875, -781187.2, -34921.504, 0.0, 9.999925, 9.998582 
1.6151081e+3, 2.3384914e+2, -553207.3, -733699.9, 151402.53, 0.0882649, -0.07425535, -467194.94, 181077.78, 0.0, 10.001156, 9.998728 
1.6151415e+3, 2.4384792e+2, -486887.72, -782093.56, 68329.54, 0.112553716, -0.0036676961, -471839.03, 78446.875, 0.0, 10.001473, 9.997588 
1.6151737e+3, 2.5384575e+2, -532237.75, -746023.9, 27450.95, 0.11721601, -0.020917589, -528769.2, -76460.336, 0.00000000987263, 10.000468, 9.99764 
1.6152062e+3, 2.6384348e+2, -399651.56, -570184.06, 35843.266, 0.08344315, -0.022261217, -392424.2, -38094.04, 0.000004852571, 10.000448, 9.998183 
1.6152392e+3, 2.7384084e+2, -55911.227, -323312.66, 52109.176, 0.008251, -0.16170979, -46115.434, 210234.69, 0.00006465758, 10.002016, 9.998448 
1.6152722e+3, 2.8383848e+2, 98131.17, -339829.75, -4308.315, -0.03354539, -0.16947302, 98173.55, 256543.47, 0.0003366383, 10.002958, 9.997227 
1.615305e+3, 2.9383639e+2, 231243.42, -200153.28, 22420.393, -0.042061564, -0.1654423, 232405.52, 292795.63, 0.0010768002, 10.003104, 9.997431 
1.6153376e+3, 3.0383322e+2, 220923.02, -273059.44, -7073.3203, -0.06706748, -0.16638014, 221024.27, 221024.27, 0.0024103401, 10.003159, 9.996555 
1.6153714e+3, 3.138308e+2, 313808.78, -6205.4043, -18222.371, 0.048319787, -0.12739877, 314843.06, 314843.06, 0.004188097, 10.002805, 9.998546 
1.6247551e+3, 1.2381137e+2, -2205716.8, -1796758.0, 24424.428, 0.25436193, -0.038845953, -1795304.5, -68658.31, 0.03179242, 9.995881, 10.001384 
1.6247849e+3, 1.3381408e+2, -2006593.6, -1546640.6, -54214.523, -0.031313427, -0.018281808, -1540336.8, 88284.05, 0.019603958, 9.996185, 10.002297 
1.6248184e+3, 1.4381649e+2, -1985835.0, -1554718.3, -89639.29, 0.1417659, 0.037020907, -1536823.0, -6226.002, 0.009062119, 9.995962, 10.001658 
1.6248502e+3, 1.5381786e+2, -1756956.5, -1376011.0, -77799.5, 0.14155819, -0.03867579, -1360734.8, 71846.19, 0.002624408, 9.99679, 10.001809 
1.6248818e+3, 1.6381904e+2, -1671413.0, -1470311.1, -40687.445, 0.113842286, -0.010798654, -1462391.1, -127821.82, 0.00032476612, 9.997482, 10.000169 
1.6249122e+3, 1.7382024e+2, -1472561.4, -1312312.6, -41668.4, -0.020050919, 0.053935584, -1302125.5, -65563.92, 0.000005034694, 9.998147, 10.000247 
1.6249439e+3, 1.8382089e+2, -1336334.4, -1175228.8, -21770.617, -0.050358012, 0.10345967, -1172338.8, -33782.543, 0.0, 9.998301, 10.000459 
1.6249771e+3, 1.9382067e+2, -1256920.1, -1046917.1, -34831.758, 0.09233906, -0.022947412, -1041290.56, -735.7696, 0.0, 9.998027, 10.000784 
1.62501e+3, 2.0382011e+2, -1159945.9, -1132567.3, 2152.3647, 0.152326, -0.070436664, -1132399.1, -189841.39, 0.0, 9.9987755, 9.999178 
1.625042e+3, 2.1381898e+2, -709670.75, -863136.5, -5001.982, 0.07713708, -0.13014422, -709507.9, 135060.34, 0.0, 10.001201, 9.999181 
1.6250747e+3, 2.2381799e+2, -512350.56, -792428.6, 36893.2, 0.044615816, -0.0999618, -507572.34, 239005.31, 0.0, 10.0022, 9.998511 
1.6251087e+3, 2.3381712e+2, -586197.06, -760573.44, -5000.848, 0.06688572, -0.08267827, -586053.75, 62533.043, 0.0, 10.000959, 9.998645 
1.6251425e+3, 2.4381581e+2, -595696.56, -845540.3, -46783.004, 0.11320708, -0.007608369, -587223.8, -36623.074, 0.0, 10.000776, 9.997485 
1.6251755e+3, 2.5381392e+2, -263453.53, -629458.2, -29498.129, 0.1704009, 0.01564457, -261091.38, 191530.69, 0.000000011745934, 10.002363, 9.997527 
1.6252086e+3, 2.6381162e+2, -54905.91, -448482.2, 64511.992, 0.15714915, 0.03889425, -44601.395, 310042.88, 0.0000048598445, 10.003012, 9.997786 
1.6252416e+3, 2.738085e+2, -59946.28, -377909.03, 21544.826, 0.052984275, -0.103048846, -58493.066, 198177.05, 0.00006306325, 10.002205, 9.997983 
1.6252749e+3, 2.838057e+2, -33969.12, -370129.28, 694.5382, 0.0030783506, -0.14090446, -33967.684, 124726.375, 0.00033149842, 10.001931, 9.9974985 
1.625308e+3, 2.9380333e+2, 178239.83, -190084.2, -12026.8545, -0.0056156213, -0.18943477, 178632.13, 239347.36, 0.0010554205, 10.002597, 9.997735 
1.6253407e+3, 3.0380085e+2, 227474.11, -200476.98, 8361.206, -0.036228597, -0.17140892, 227637.4, 227637.4, 0.0023409368, 10.002886, 9.997199 
1.6253747e+3, 3.137991e+2, 300405.8, 19205.17, -32310.148, 0.141171, -0.11745646, 304070.53, 304070.53, 0.004034506, 10.002517, 9.998892 
1.6347489e+3, 1.2377959e+2, -2130735.5, -1677559.5, -91765.78, -0.04098149, 0.04831616, -1659682.6, 67277.945, 0.03398967, 9.996027, 10.002143 
1.6347837e+3, 1.3378067e+2, -2103759.0, -1745284.8, -48398.094, 0.20127572, 0.011853241, -1738865.4, -109914.48, 0.02102759, 9.99618, 10.000925 
1.6348144e+3, 1.4378102e+2, -1941966.9, -1501481.0, -100341.875, 0.09587913, -0.070446275, -1479700.3, 51247.223, 0.009775217, 9.9961, 10.001973 
1.6348466e+3, 1.5378506e+2, -1712615.5, -1284438.5, -37110.586, 0.07176881, 0.05798463, -1281245.9, 151659.44, 0.002860367, 9.996784, 10.002448 
1.6348787e+3, 1.637872e+2, -1635921.5, -1409733.8, -35715.254, 0.029894765, 0.12468777, -1404228.4, -69343.99, 0.00036087315, 9.997533, 10.000563 
1.634911e+3, 1.7378673e+2, -1458965.6, -1276808.1, -8491.178, 0.0137081025, -0.0013625544, -1276413.1, -39520.668, 0.000005927034, 9.998115, 10.000506 
1.6349432e+3, 1.8378685e+2, -1324734.3, -1161656.1, -49293.504, 0.015280813, -0.025151294, -1147914.1, -9022.505, 0.0, 9.998338, 10.000539 
1.634975e+3, 1.9378777e+2, -1265782.5, -1048181.2, -33148.875, 0.035017487, -0.042116508, -1043243.44, -2365.3318, 0.0, 9.997945, 10.000822 
1.6350079e+3, 2.0378816e+2, -1180082.6, -1135393.9, 66605.336, 0.03156436, 0.0006402106, -1087484.9, -144613.34, 0.0, 9.998607, 9.999243 
1.6350426e+3, 2.137876e+2, -735338.44, -869902.4, 104433.59, 0.008928018, -0.009498954, -678389.8, 166487.73, 0.0, 10.000992, 9.999239 
1.6350764e+3, 2.2378637e+2, -613342.94, -929192.5, -7209.689, -0.02673073, 0.028454065, -613178.5, 133712.5, 0.0, 10.001893, 9.997715 
1.6351089e+3, 2.3378408e+2, -684613.7, -907788.56, -36088.3, -0.040098857, -0.008816525, -678923.1, -30006.918, 0.0, 10.000718, 9.997746 
1.6351423e+3, 2.437823e+2, -582264.6, -748008.8, -14301.936, -0.011116513, 0.031330317, -581039.56, -30105.09, 0.0, 10.000486, 9.998289 
1.635177e+3, 2.5378132e+2, -223768.23, -486733.84, 49999.344, 0.072938286, 0.045659386, -214582.42, 238359.55, 0.000000006263202, 10.002121, 9.998616 
1.635211e+3, 2.6377955e+2, -128434.97, -549705.44, 27779.346, 0.082078405, 0.08270846, -126611.05, 228347.05, 0.000005059976, 10.002773, 9.997212 
1.6352436e+3, 2.7377617e+2, -144879.58, -505590.78, 17838.96, 0.0028514669, -0.014898479, -143999.5, 112991.0, 0.000060994436, 10.00198, 9.997219 
1.635277e+3, 2.8377315e+2, -57287.938, -348325.44, 4113.082, -0.007936351, -0.046928473, -57229.82, 101788.84, 0.0003219481, 10.001649, 9.997774 
1.6353118e+3, 2.9377073e+2, 158276.8, -153840.89, 42608.406, 0.08497831, -0.14112914, 163988.89, 225027.72, 0.0010251604, 10.002287, 9.998124 
1.6353442e+3, 3.0376893e+2, 247057.14, -75519.09, -21301.514, 0.008177037, -0.11732263, 248457.72, 248457.72, 0.0022563266, 10.00253, 9.998229 
1.6353762e+3, 3.137679e+2, 270998.6, 76062.09, 25896.365, -0.0075596822, -0.11151413, 274380.13, 274380.13, 0.0038521187, 10.00202, 9.999519 
1.6447446e+3, 1.2374627e+2, -2004581.6, -1556563.5, -11053.465, -0.09092656, 0.005231073, -1556291.0, 170996.72, 0.036383986, 9.996647, 10.0027075 
1.6447806e+3, 1.3374765e+2, -2102323.8, -1800045.6, -43600.95, 0.27548608, 0.042115785, -1793882.3, -164607.2, 0.022584815, 9.996439, 10.000429 
1.6448104e+3, 1.437471e+2, -1919316.9, -1500451.1, -683.76447, 0.08493899, -0.09929347, -1500450.0, 30830.668, 0.010560797, 9.996286, 10.001899 
1.6448435e+3, 1.5375109e+2, -1672719.1, -1265749.9, -12656.988, 0.08917271, 0.02099593, -1265356.6, 167883.02, 0.0031241647, 9.997043, 10.002459 
1.6448763e+3, 1.6375346e+2, -1653365.6, -1376296.3, -24391.014, 0.0760401, 0.09359999, -1374165.5, -38949.285, 0.0004029895, 9.997241, 10.000934 
1.6449088e+3, 1.7375368e+2, -1588549.5, -1298303.3, -21350.26, 0.052763727, -0.000656012, -1296741.1, -59523.902, 0.0000070009137, 9.997047, 10.000884 
1.6449416e+3, 1.8375409e+2, -1417960.6, -1210416.1, -5336.6094, 0.060051747, -0.012911522, -1210279.0, -71065.96, 0.0, 9.997735, 10.000473 
1.6449742e+3, 1.9375466e+2, -952762.0, -911528.0, -34947.215, 0.07656822, -0.05506135, -891569.5, 149632.75, 0.0, 10.000173, 10.000667 
1.645008e+3, 2.0375478e+2, -829885.6, -1003360.6, 59257.94, 0.07812012, -0.014280226, -811576.0, 131622.75, 0.0, 10.001181, 9.998898 
1.6450433e+3, 2.1375424e+2, -906803.2, -985004.2, 29113.602, 0.043029252, 0.012174578, -897154.8, -51948.164, 0.0, 9.999983, 9.998914 
1.6450775e+3, 2.2375308e+2, -891681.75, -1044118.56, -47148.55, 0.008933639, 0.06637225, -878277.44, -131057.234, 0.0, 9.9998865, 9.997909 
1.6451101e+3, 2.337508e+2, -540266.44, -807993.56, -22357.055, -0.012860582, 0.0094928555, -538412.3, 110831.02, 0.0, 10.001575, 9.998032 
1.6451436e+3, 2.4374892e+2, -319816.75, -624449.9, 57679.34, 0.0015102584, 0.021626033, -309261.47, 242000.11, 0.0, 10.002291, 9.998273 
1.6451783e+3, 2.5374743e+2, -328395.9, -553008.7, 5784.295, 0.035863306, -0.0064117704, -328247.06, 125026.8, 0.000000005166704, 10.001454, 9.998494 
1.6452126e+3, 2.637456e+2, -348406.66, -637074.3, -23087.379, 0.061121743, 0.031111978, -346571.8, 8718.924, 0.000005473011, 10.001197, 9.997361 
1.6452461e+3, 2.7374315e+2, -112189.43, -461176.22, -17088.875, 0.063925825, 0.0053538736, -111354.63, 145961.75, 0.000058881178, 10.00212, 9.997436 
1.64528e+3, 2.837407e+2, 113024.305, -253625.4, 48444.14, 0.09413106, 0.014643978, 119317.055, 278656.78, 0.0003079229, 10.002753, 9.997915 
1.6453148e+3, 2.937383e+2, 209127.11, -117267.9, 24493.924, 0.16201755, -0.08212189, 210954.98, 272313.7, 0.0009851817, 10.002576, 9.99825 
1.6453473e+3, 3.037363e+2, 308989.97, -34121.62, -25903.988, 0.061980203, -0.09531382, 310934.63, 310934.63, 0.0021653324, 10.002868, 9.998364 
1.6453794e+3, 3.1373516e+2, 480117.1, 144751.17, -135185.05, 0.049380835, -0.10867725, 527823.5, 527823.5, 0.0036780185, 10.003612, 9.999217 
1.6547443e+3, 1.2371258e+2, -1969038.3, -1534614.8, 135801.94, 0.13470326, -0.05944277, -1495656.4, 231959.5, 0.03897044, 9.996841, 10.002794 
1.654775e+3, 1.3371558e+2, -2070019.9, -1734829.3, -45851.793, 0.05534554, 0.11598165, -1728670.3, -99082.984, 0.024272982, 9.996443, 10.000882 
1.6548055e+3, 1.4371502e+2, -1935369.1, -1554177.3, 1531.8346, -0.073091984, -0.03924784, -1554171.1, -22577.684, 0.0114189135, 9.996377, 10.001482 
1.6548406e+3, 1.5371595e+2, -1718756.6, -1366421.6, 28114.736, 0.058030974, -0.15418294, -1364192.3, 69390.945, 0.0034161112, 9.997069, 10.001753 
1.6548742e+3, 1.6371788e+2, -1611782.1, -1316995.1, -49193.93, 0.10090395, -0.101231866, -1309002.4, 26562.293, 0.00045137366, 9.997346, 10.001294 
1.6549054e+3, 1.7372122e+2, -1551161.1, -1211369.3, -16912.982, -0.0231449, 0.056556027, -1210529.5, 27004.998, 0.000008273259, 9.997008, 10.001496 
1.6549385e+3, 1.8372275e+2, -1437699.8, -1257114.4, 60531.46, -0.05554724, 0.13511723, -1238701.8, -99182.94, 0.0, 9.997746, 10.0001545 
1.6549747e+3, 1.9372131e+2, -997844.2, -987192.1, 69429.96, 0.088053964, -0.059217423, -922884.2, 118643.19, 0.0, 10.000082, 10.000198 
1.65501e+3, 2.0372e+2, -907051.3, -1125465.5, 15383.165, 0.13767423, -0.102777384, -905973.2, 37565.92, 0.0, 10.0010195, 9.998136 
1.6550435e+3, 2.1371886e+2, -993432.75, -1115780.0, -3265.0725, 0.058279015, -0.059103616, -993345.7, -147789.31, 0.0, 9.999771, 9.99812 
1.6550776e+3, 2.2371788e+2, -847985.75, -892579.56, -13067.859, 0.0074016466, 0.008594891, -844438.5, -96870.625, 0.0, 9.999626, 9.999075 
1.6551122e+3, 2.3371716e+2, -475626.66, -615261.56, 60647.133, 0.0119693605, -0.036153506, -452964.1, 196606.02, 0.0, 10.001323, 9.99948 
1.655146e+3, 2.4371557e+2, -425016.8, -772556.94, 27029.63, -0.017516006, -0.036760744, -422927.2, 128656.06, 0.0, 10.001993, 9.997396 
1.655179e+3, 2.537123e+2, -449839.9, -745542.06, -8485.826, -0.07005183, -0.13078324, -449596.6, 4020.262, 0.00000000856411, 10.001211, 9.997279 
1.655213e+3, 2.6370993e+2, -341658.38, -572410.75, -12518.388, -0.044006176, -0.10463292, -340981.25, 14660.299, 0.0000057188686, 10.000969, 9.997917 
1.6552489e+3, 2.7370918e+2, -79392.09, -346517.72, 41576.96, 0.09572192, -0.045335364, -73070.42, 184579.78, 0.00005720022, 10.001906, 9.99833 
1.6552836e+3, 2.8370807e+2, 67804.09, -270952.75, 28614.98, 0.1460184, 0.044472527, 70204.21, 229864.38, 0.0002952708, 10.002422, 9.997955 
1.6553168e+3, 2.937059e+2, 166629.52, -149578.64, 48463.73, 0.06523574, -0.025897997, 173890.58, 235567.9, 0.00095047243, 10.002321, 9.998156 
1.6553491e+3, 3.0370265e+2, 188361.14, -189722.63, -18174.508, -0.06503893, -0.113877766, 189232.78, 189232.78, 0.0020977291, 10.002486, 9.997468 
1.6553831e+3, 3.137003e+2, 310619.2, -86623.17, -37316.055, 0.012732314, -0.15695494, 314094.2, 314094.2, 0.003562412, 10.003087, 9.997876 
1.664742e+3, 1.2367945e+2, -2311117.3, -1691844.9, 206830.9, 0.36199713, -0.08740813, -1629118.9, 98818.85, 0.041736465, 9.994455, 10.002845 
1.6647698e+3, 1.3368237e+2, -2105373.3, -1714356.6, -27070.447, -0.07515483, 0.043734238, -1712491.4, -82580.84, 0.026087236, 9.9960165, 10.001234 
1.6648024e+3, 1.4368303e+2, -1990876.0, -1609032.5, 49945.066, 0.0114239175, 0.008371792, -1602607.9, -70702.72, 0.012349877, 9.996148, 10.001195 
1.6648376e+3, 1.5368333e+2, -1841532.1, -1455393.9, 76851.98, 0.10045778, -0.14133345, -1440660.4, -6758.635, 0.003737191, 9.99638, 10.001457 
1.6648717e+3, 1.6368492e+2, -1690593.5, -1379780.4, 31333.666, 0.13866492, -0.09589204, -1376653.1, -40766.27, 0.00050616945, 9.996934, 10.001049 
1.664903e+3, 1.736879e+2, -1396354.0, -1165190.9, -31492.607, -0.01721076, 0.04956548, -1160977.3, 76881.98, 0.000009797576, 9.998189, 10.001242 
1.6649367e+3, 1.8368901e+2, -1316358.9, -1255310.0, 61740.0, -0.04416928, 0.12260175, -1216960.9, -77112.73, 0.0, 9.998834, 9.999637 
1.6649747e+3, 1.9368723e+2, -1185350.0, -1134940.5, 36731.047, 0.13948043, -0.05231421, -1115598.1, -73736.15, 0.0, 9.999054, 9.999668 
1.6650108e+3, 2.036858e+2, -1131093.1, -1208598.5, -12338.47, 0.20289178, -0.08782412, -1129176.4, -185300.78, 0.0, 9.999373, 9.9983635 
1.6650434e+3, 2.1368495e+2, -934275.75, -1049169.3, 17299.021, 0.06017713, -0.046300013, -931727.6, -85838.55, 0.0, 10.000007, 9.998467 
1.6650775e+3, 2.2368427e+2, -711584.6, -794515.5, 97258.92, 0.009421656, 0.017237604, -647320.75, 100576.22, 0.0, 10.000436, 9.99934 
1.6651139e+3, 2.3368382e+2, -554597.2, -620268.2, 54284.344, 0.10023762, -0.028171219, -523990.1, 125905.664, 0.0, 10.000646, 9.999752 
1.6651484e+3, 2.4368235e+2, -552186.2, -831273.56, -3128.5142, 0.092912056, -0.033810876, -552151.1, -243.69633, 0.0, 10.001084, 9.997455 
1.6651803e+3, 2.53679e+2, -346831.63, -691727.6, 16264.291, -0.07830889, -0.13143392, -346066.34, 107875.805, 0.0000000057748837, 10.00189, 9.997337 
1.665214e+3, 2.6367667e+2, -135964.98, -453261.8, 98975.984, -0.08802766, -0.11284582, -107622.58, 248344.25, 0.0000055479773, 10.002293, 9.9980955 
1.665251e+3, 2.7367613e+2, -49801.24, -328082.38, 64686.08, 0.13947096, -0.046926532, -35500.008, 222473.73, 0.000055377644, 10.002059, 9.9984 
1.6652866e+3, 2.8367516e+2, 13524.46, -296934.4, 48119.41, 0.2333833, 0.05606943, 20811.654, 180794.4, 0.00028510438, 10.002045, 9.997939 
1.665319e+3, 2.936733e+2, 171457.17, -146751.1, 12497.534, 0.08011051, 0.017731588, 171947.25, 233945.6, 0.000926934, 10.002397, 9.998107 
1.665352e+3, 3.0366957e+2, 269573.94, -198240.4, 34496.4, -0.0480487, -0.09850032, 272104.0, 272104.0, 0.0020635084, 10.003237, 9.997047 
1.6653883e+3, 3.1366765e+2, 443594.53, -56927.31, -18502.518, 0.18595362, -0.047841612, 444277.56, 444277.56, 0.0035205828, 10.004156, 9.997556 
1.6747355e+3, 1.2364711e+2, -2276987.5, -1638817.5, -22802.955, 0.20251368, -0.087646395, -1638003.8, 90247.17, 0.044670317, 9.994532, 10.003167 
1.6747645e+3, 1.3364795e+2, -2089361.1, -1694413.4, 18932.443, -0.24309413, -0.19508487, -1693507.9, -63262.836, 0.028026333, 9.996061, 10.001354 
1.6748008e+3, 1.436512e+2, -1984364.6, -1615465.9, 30855.033, 0.1722853, 0.03139893, -1612903.0, -80687.85, 0.013357116, 9.996229, 10.001113 
1.674834e+3, 1.536535e+2, -1836060.3, -1445784.6, 103469.98, 0.084746495, 0.07509695, -1420049.6, 14142.972, 0.004090086, 9.996378, 10.00153 
1.6748679e+3, 1.6365471e+2, -1740976.5, -1503882.3, 58215.71, 0.031821325, 0.115773186, -1490359.4, -154178.25, 0.0005678562, 9.997013, 10.000163 
1.674901e+3, 1.7365383e+2, -1478638.1, -1327041.6, 26159.361, -0.0539867, -0.016006647, -1322654.5, -84463.766, 0.000011659807, 9.998152, 10.00015 
1.6749357e+3, 1.8365297e+2, -1365405.1, -1362986.8, 54957.49, -0.06210489, -0.043108195, -1309225.1, -169025.3, 0.0, 9.998849, 9.9988985 
1.6749738e+3, 1.9365235e+2, -1248864.4, -1242382.1, 55725.4, 0.10780121, -0.034449477, -1189803.6, -147597.2, 0.0, 9.998943, 9.998991 
1.6750096e+3, 2.0365211e+2, -1062848.9, -1037767.06, -6850.7515, 0.13576253, 0.03382325, -1036017.9, -91808.945, 0.0, 9.99924, 9.999603 
1.6750422e+3, 2.1365243e+2, -861764.44, -849906.06, 56792.703, -0.08303836, 0.04404755, -798733.9, 47471.906, 0.0, 9.999784, 9.999949 
1.6750766e+3, 2.2365214e+2, -800048.25, -907725.8, 93314.03, -0.13884024, 0.09070537, -746155.3, 2052.771, 0.0, 10.000133, 9.998706 
1.675115e+3, 2.3365077e+2, -658601.75, -782343.7, 76006.08, 0.12180764, 0.04569475, -622467.94, 27752.414, 0.0, 10.000411, 9.998752 
1.6751507e+3, 2.4364923e+2, -529535.2, -715129.6, 7026.292, 0.1775744, 0.049846496, -529269.56, 22964.818, 0.0, 10.00079, 9.998389 
1.6751818e+3, 2.5364745e+2, -297474.06, -526064.1, 66082.3, -0.123963125, -0.016097305, -279745.53, 174505.56, 0.0000000017385277, 10.00162, 9.9986 
1.6752152e+3, 2.6364568e+2, -200436.13, -517180.13, 78328.86, -0.22328445, -0.002773378, -182124.52, 174144.14, 0.0000048816705, 10.0019865, 9.997809 
1.6752525e+3, 2.7364376e+2, -119908.22, -427478.3, 78129.6, 0.056310635, -0.020026824, -101199.57, 157090.23, 0.000051551386, 10.001845, 9.997829 
1.6752884e+3, 2.836419e+2, -58040.613, -366025.16, 42922.766, 0.18133496, 0.041495603, -52170.496, 108138.4, 0.0002714196, 10.001711, 9.997624 
1.6753215e+3, 2.9364017e+2, 127756.8, -185019.17, 54586.484, 0.035593286, 0.033425882, 137009.66, 199334.64, 0.0008994481, 10.0021515, 9.997971 
1.6753553e+3, 3.0363658e+2, 206439.3, -225667.77, 50500.77, -0.07679274, -0.07055558, 212262.89, 212262.89, 0.0020333803, 10.002817, 9.997052 
1.6753936e+3, 3.136363e+2, 416301.06, -5225.2563, 78065.2, 0.23249836, 0.14636129, 430293.97, 430293.97, 0.0035086414, 10.003705, 9.998122 
1.6847306e+3, 1.2361458e+2, -2334730.8, -1651637.1, -106877.625, 0.28858837, 0.018816814, -1635305.4, 93265.164, 0.04776628, 9.994108, 10.003259 
1.6847612e+3, 1.3361342e+2, -2179458.0, -1774563.1, -94811.92, -0.13777563, -0.26306453, -1753461.4, -122877.01, 0.030093629, 9.995631, 10.000994 
1.6847979e+3, 1.4361781e+2, -1930557.3, -1601324.9, -99501.17, 0.24961776, 0.10136462, -1573589.9, -41046.977, 0.0144471, 9.996631, 10.001028 
1.6848308e+3, 1.5361942e+2, -1729844.8, -1399279.6, -69497.52, 0.09342002, 0.08377947, -1385262.9, 49262.977, 0.004479329, 9.997124, 10.001497 
1.6848648e+3, 1.6361983e+2, -1712309.1, -1565162.5, -55795.41, 0.005499476, 0.07725057, -1546398.6, -209876.44, 0.0006375465, 9.997525, 9.999503 
1.6848996e+3, 1.7361833e+2, -1496386.1, -1414397.9, -85234.836, -0.002416102, -0.04387959, -1360811.4, -122272.09, 0.00001399049, 9.998371, 9.999441 
1.6849352e+3, 1.8361735e+2, -1345764.1, -1324236.6, -10689.578, 0.030812891, -0.056056824, -1319830.5, -179280.2, 0.0, 9.998864, 9.999149 
1.6849726e+3, 1.9361722e+2, -1209983.4, -1183317.6, 39083.918, 0.11270933, -0.034678716, -1155355.0, -112803.914, 0.0, 9.99903, 9.999355 
1.6850086e+3, 2.036172e+2, -1046108.7, -1013639.7, 25314.889, 0.11065538, 0.028957196, -999800.9, -55250.258, 0.0, 9.999291, 9.999741 
1.6850422e+3, 2.1361753e+2, -855268.44, -829046.0, -49046.043, -0.044058725, 0.028270535, -791388.94, 55158.0, 0.0, 9.999772, 10.000087 
1.6850774e+3, 2.2361714e+2, -789996.3, -904071.75, -27551.805, -0.060572553, 0.058089178, -783690.5, -35140.816, 0.0, 10.000176, 9.998737 
1.6851155e+3, 2.3361543e+2, -665741.56, -784593.2, 2029.185, 0.15127072, -0.018282695, -665706.94, -15142.275, 0.0, 10.000338, 9.998797 
1.6851515e+3, 2.4361412e+2, -519088.75, -670049.2, 7422.949, 0.20633307, -0.007849849, -518724.63, 33851.79, 0.0, 10.000689, 9.9987335 
1.6851841e+3, 2.5361344e+2, -301267.03, -494576.2, -34290.965, -0.03401981, -0.0034451832, -295364.4, 159219.36, 0.0000000018399801, 10.001427, 9.998912 
1.685218e+3, 2.6361218e+2, -210866.5, -503505.94, -39679.703, -0.12561093, 0.03616241, -205581.67, 151015.31, 0.0000039092515, 10.001826, 9.997987 
1.685254e+3, 2.7360994e+2, -112418.14, -391034.56, -34371.535, 0.049440265, -0.02818401, -108240.53, 150379.55, 0.000046409757, 10.001802, 9.998078 
1.6852899e+3, 2.8360793e+2, 26710.92, -341107.34, 39901.96, 0.16351606, 0.014053347, 30989.818, 191629.97, 0.00025645504, 10.002336, 9.997521 
1.6853252e+3, 2.9360646e+2, 326574.44, -106567.44, 18725.574, 0.14754976, 0.048593983, 327382.5, 390037.88, 0.0008664291, 10.003576, 9.997844 
1.6853599e+3, 3.036027e+2, 421928.22, -142731.73, 39242.645, 0.05315932, -0.05459205, 424642.44, 424642.44, 0.0019906836, 10.004337, 9.996925 
1.6853972e+3, 3.1360132e+2, 479730.72, 50717.883, -21192.523, 0.23846641, 0.08290993, 480775.06, 480775.06, 0.0034818335, 10.003967, 9.998437 
1.6947235e+3, 1.235803e+2, -2346407.0, -1704498.9, 5128.5347, 0.09230724, 0.09876931, -1704457.9, 24454.408, 0.051028147, 9.994228, 10.002825 
1.6947591e+3, 1.335785e+2, -2238074.3, -1892240.6, -31620.07, 0.064710885, -0.15737997, -1889373.3, -258441.81, 0.032295942, 9.995609, 10.000201 
1.6947934e+3, 1.4358266e+2, -1914291.1, -1596108.4, -98047.84, 0.09415293, 0.21796112, -1568321.6, -35431.082, 0.015627254, 9.996746, 10.001011 
1.6948272e+3, 1.5358098e+2, -1738435.0, -1429011.8, -43843.082, -0.008604468, -0.109104075, -1422919.5, 11983.656, 0.004910431, 9.997174, 10.001268 
1.6948615e+3, 1.635801e+2, -1718785.1, -1597278.4, -48870.883, -0.10692957, -0.21863484, -1580061.6, -243150.02, 0.0007170378, 9.997603, 9.999243 
1.6948985e+3, 1.7358144e+2, -1520202.3, -1458981.8, -39637.914, 0.013843807, -0.029727353, -1439510.6, -200605.73, 0.000016975888, 9.998348, 9.9991455 
1.6949351e+3, 1.8358222e+2, -1255342.4, -1145404.5, -20068.664, 0.08354743, 0.098449476, -1141855.6, -956.9027, 0.0, 9.998896, 10.000362 
1.6949709e+3, 1.9358179e+2, -1122627.0, -978682.0, 54280.824, 0.0135873975, -0.052900687, -960507.7, 82388.75, 0.0, 9.998928, 10.000807 
1.6950068e+3, 2.0358114e+2, -1144628.8, -1171504.4, 23206.105, -0.02225156, -0.09336696, -1131250.5, -186350.61, 0.0, 9.999087, 9.998759 
1.695043e+3, 2.1358024e+2, -979846.9, -1047399.1, -16417.416, 0.03987203, -0.08090808, -976068.25, -129155.61, 0.0, 9.999583, 9.998688 
1.695079e+3, 2.235792e+2, -778804.06, -808061.7, -35161.47, 0.075546816, -0.07117151, -755349.7, -6427.1763, 0.0, 9.999877, 9.999535 
1.695115e+3, 2.3357783e+2, -629363.7, -639336.94, 28167.355, 0.06154425, -0.22495484, -605744.94, 45183.54, 0.0, 10.000045, 9.999931 
1.6951507e+3, 2.4357696e+2, -593724.7, -740919.06, 19637.43, 0.041326888, -0.22215717, -591149.9, -38215.508, 0.0, 10.000332, 9.998422 
1.6951866e+3, 2.5357696e+2, -377545.7, -593918.5, 14573.764, 0.05438918, -0.092478134, -376568.5, 78371.734, 0.0000000033657745, 10.001174, 9.998355 
1.6952215e+3, 2.6357624e+2, -219568.05, -445034.28, -49773.875, 0.027855156, 0.0109679485, -209068.89, 147881.47, 0.0000030031388, 10.001508, 9.998534 
1.6952553e+3, 2.7357447e+2, -92378.76, -295866.5, -14300.583, -0.023471339, -0.08309613, -91378.67, 167587.27, 0.000041455987, 10.001577, 9.9988365 
1.6952911e+3, 2.8357303e+2, -13378.731, -351083.7, 59581.61, 0.023415104, -0.040275816, -3174.9958, 157804.64, 0.00024337543, 10.002025, 9.997602 
1.69533e+3, 2.9357174e+2, 279984.47, -138890.75, 87410.11, 0.23452812, 0.025514163, 297493.2, 360487.03, 0.0008331997, 10.003279, 9.997776 
1.6953652e+3, 3.0356774e+2, 312112.78, -236457.33, 15735.058, 0.14034246, -0.07780436, 312563.75, 312563.75, 0.0019313671, 10.0037985, 9.996521 
1.6953985e+3, 3.1356376e+2, 413013.78, 61180.906, 25291.04, -0.07796517, -0.17738916, 414822.5, 414822.5, 0.003409657, 10.003352, 9.998785 
1.7047171e+3, 1.2354351e+2, -2175984.3, -1619204.8, -6959.666, -0.0038641405, 0.14629094, -1619117.8, 110158.39, 0.054460447, 9.995365, 10.002905 
1.7047541e+3, 1.3354157e+2, -2215375.3, -1838563.6, -87986.65, 0.026583772, -0.14692485, -1819031.0, -187736.1, 0.034638863, 9.995588, 10.000583 
1.7047903e+3, 1.435457e+2, -2034429.8, -1663658.4, -94461.88, 0.1618259, 0.20461789, -1640979.4, -107725.34, 0.016903277, 9.996, 10.000899 
1.7048243e+3, 1.535442e+2, -1844992.5, -1505886.1, -84885.96, 0.03453698, -0.08151225, -1485824.3, -50557.46, 0.00538814, 9.996577, 10.001016 
1.7048591e+3, 1.6354352e+2, -1769464.8, -1576567.4, -30864.498, -0.06929035, -0.17473583, -1571749.3, -234475.39, 0.0008082668, 9.997058, 9.999643 
1.704897e+3, 1.735452e+2, -1565966.5, -1418141.6, 11853.76, 0.07109353, -0.0030774514, -1417197.1, -177935.61, 0.000020835996, 9.997762, 9.999709 
1.7049342e+3, 1.8354627e+2, -1350141.6, -1174875.6, 46721.953, 0.14916815, 0.116368614, -1163198.6, -21947.03, 0.0, 9.998174, 10.000523 
1.7049696e+3, 1.93546e+2, -1188555.1, -1002033.2, -10812.232, 0.03538574, -0.028466202, -1001408.56, 41840.137, 0.0, 9.998435, 10.0009 
1.7050059e+3, 2.0354545e+2, -1164794.8, -1169624.5, -15580.222, 0.0040872917, -0.06535449, -1151443.4, -206192.03, 0.0, 9.998905, 9.998848 
1.7050433e+3, 2.1354471e+2, -930401.0, -1015280.4, 22614.547, 0.10851278, -0.046016417, -924751.75, -77489.7, 0.0, 9.999905, 9.998743 
1.70508e+3, 2.2354366e+2, -672526.8, -748604.06, 48547.73, 0.15250741, -0.04441296, -648890.3, 100381.23, 0.0, 10.000571, 9.999599 
1.7051153e+3, 2.3354205e+2, -546808.75, -586713.5, -5343.9004, 0.08319127, -0.23181449, -546105.5, 105173.76, 0.0, 10.000568, 10.000024 
1.7051512e+3, 2.435412e+2, -537860.94, -689670.75, 4777.95, 0.061894838, -0.24313323, -537710.7, 15573.777, 0.0, 10.000613, 9.998641 
1.705188e+3, 2.535415e+2, -417597.28, -575164.9, 25860.094, 0.11187085, -0.1066924, -413461.66, 41824.754, 0.0000000026261497, 10.000763, 9.998668 
1.7052236e+3, 2.6354086e+2, -263862.4, -484585.53, 10640.854, 0.108689144, -0.0059392853, -263350.63, 93944.69, 0.0000021613648, 10.001268, 9.998387 
1.7052576e+3, 2.7353877e+2, -5194.5645, -282778.88, -56572.54, 0.01931169, -0.11133395, 5892.2803, 265207.34, 0.000036656253, 10.002286, 9.998597 
1.7052935e+3, 2.8353712e+2, 87406.88, -304817.94, 7279.2847, 0.05506974, -0.070424065, 87541.93, 248873.36, 0.00022921336, 10.002734, 9.99757 
1.7053327e+3, 2.9353595e+2, 121109.89, -217151.47, -9782.583, 0.25798732, 0.015225106, 121392.57, 184738.02, 0.00079328316, 10.002221, 9.997733 
1.7053685e+3, 3.0353275e+2, 151033.02, -257681.67, -6080.2886, 0.16812544, -0.027810346, 151123.44, 151123.44, 0.001843639, 10.002431, 9.997019 
1.7054029e+3, 3.1352857e+2, 488459.7, 184370.0, -22421.346, 0.036105078, -0.2100816, 490104.0, 490104.0, 0.003269787, 10.003529, 9.999504 
1.7147146e+3, 1.2350386e+2, -2102580.8, -1514259.9, -8644.476, 0.1285108, 0.11855872, -1514132.9, 215532.31, 0.058051143, 9.995516, 10.003611 
1.7147459e+3, 1.335031e+2, -2116790.3, -1630079.6, -52038.387, -0.371974, -0.20106149, -1624577.9, 7092.2188, 0.037118543, 9.995575, 10.002023 
1.7147878e+3, 1.4350693e+2, -2026661.5, -1680779.5, -87755.64, 0.2543573, 0.05462565, -1659788.4, -126155.305, 0.018276531, 9.996126, 10.000728 
1.7148218e+3, 1.5350904e+2, -1868229.0, -1557370.4, -47259.83, 0.08355877, 0.15968099, -1550344.3, -114726.9, 0.005915651, 9.99658, 10.000667 
1.714857e+3, 1.6351023e+2, -1683793.1, -1407593.9, -25804.0, -0.020918328, 0.22781545, -1405203.8, -67596.38, 0.0009130136, 9.997101, 10.000777 
1.7148946e+3, 1.7350984e+2, -1476802.6, -1218442.8, 50250.855, 0.042724773, 0.05075027, -1209013.1, 30594.328, 0.000025810483, 9.997705, 10.001103 
1.7149319e+3, 1.8350965e+2, -1414624.4, -1305756.9, 43877.984, 0.067447096, 0.003532865, -1290274.1, -148666.72, 0.0, 9.998159, 9.999632 
1.7149685e+3, 1.9350985e+2, -1290144.4, -1193562.5, 13122.471, 0.047045507, 0.031545624, -1191811.4, -148203.98, 0.0, 9.998349, 9.999627 
1.7150053e+3, 2.0351015e+2, -1114176.8, -1026670.2, 2419.3271, 0.029589375, 0.10573206, -1026603.4, -80998.48, 0.0, 9.998744, 9.999907 
1.7150426e+3, 2.1351069e+2, -864397.94, -817123.1, 73854.336, 0.030684583, 0.11095939, -763215.8, 84381.88, 0.0, 9.999641, 10.00023 
1.7150795e+3, 2.235102e+2, -762087.25, -862849.4, 39805.055, 0.037573826, 0.10908503, -748260.1, 1339.7168, 0.0, 10.000255, 9.998974 
1.715116e+3, 2.3350795e+2, -648296.3, -751119.9, 10569.374, 0.07926566, -0.045004062, -647221.1, 4397.1294, 0.0, 10.000355, 9.999006 
1.7151523e+3, 2.4350663e+2, -532982.56, -600893.44, -7225.096, 0.08123823, -0.077632464, -532222.4, 21405.93, 0.0, 10.00029, 9.999398 
1.715188e+3, 2.5350678e+2, -385722.22, -446570.84, 46756.0, 0.014752591, -0.059456106, -360363.38, 95261.85, 0.0000000000058928205, 10.000496, 9.999679 
1.7152238e+3, 2.635057e+2, -361918.7, -618314.9, 24999.115, -0.024419855, -0.029727915, -359503.97, -1868.087, 0.0000014626683, 10.000973, 9.997611 
1.7152601e+3, 2.735026e+2, -121094.375, -460280.44, -581.1432, 0.023564154, -0.12596267, -121093.38, 138575.67, 0.000032258973, 10.002009, 9.997514 
1.7152968e+3, 2.835002e+2, 15453.205, -371868.47, -21510.701, 0.06978147, -0.08663462, 16644.184, 178339.8, 0.00021422842, 10.002378, 9.997283 
1.7153333e+3, 2.93499e+2, 80560.87, -246078.22, 2471.263, 0.06303571, 0.00015836496, 80579.56, 144290.3, 0.0007461243, 10.001972, 9.997657 
1.7153691e+3, 3.034973e+2, 157825.2, -136380.53, 10911.689, -0.026489107, 0.06790528, 158229.34, 158229.34, 0.0017331633, 10.002008, 9.998044 
1.715409e+3, 3.134946e+2, 453509.8, 289159.84, 68516.3, 0.24060877, -0.087914795, 478326.47, 478326.47, 0.003082037, 10.002808, 10.000559 
1.7247115e+3, 1.23464994e+2, -2313940.8, -1652271.4, 84784.54, 0.34805766, 0.05008041, -1641580.1, 88464.234, 0.06177432, 9.994238, 10.003221 
1.7247412e+3, 1.3346548e+2, -2057379.1, -1567416.0, -16983.115, -0.40696314, -0.19840792, -1566828.1, 65210.1, 0.039721623, 9.995813, 10.002337 
1.7247845e+3, 1.4346956e+2, -1967088.6, -1648376.9, -66529.12, 0.33550158, 0.06562911, -1635046.9, -101047.15, 0.019743169, 9.996495, 10.000786 
1.724819e+3, 1.534718e+2, -1752920.0, -1472316.3, -24781.387, 0.12467998, 0.16578801, -1470144.5, -34161.586, 0.006494274, 9.997216, 10.000966 
1.7248547e+3, 1.6347341e+2, -1616537.4, -1351819.8, 21445.678, 0.0360781, 0.2506057, -1350093.6, -12124.912, 0.001032908, 9.997457, 10.0009985 
1.7248924e+3, 1.7347315e+2, -1500432.6, -1205826.6, -24215.977, 0.08211156, 0.063298546, -1203849.4, 36116.977, 0.00003215152, 9.997433, 10.001324 
1.72493e+3, 1.8347287e+2, -1526060.5, -1380247.1, -25583.816, 0.10991508, 0.002903756, -1375888.6, -233921.4, 0.0, 9.9974785, 9.999449 
1.7249669e+3, 1.9347297e+2, -1336458.6, -1239952.0, -10499.877, 0.090890735, 0.04543063, -1238822.9, -194852.61, 0.0, 9.998138, 9.999409 
1.7250043e+3, 2.0347326e+2, -1117724.9, -1005259.2, 32500.057, 0.07796894, 0.122233026, -996542.94, -50574.387, 0.0, 9.998616, 10.000125 
1.7250422e+3, 2.134738e+2, -926671.8, -816835.5, -7714.224, 0.06565685, 0.10300386, -816296.4, 31663.188, 0.0, 9.999074, 10.000516 
1.7250797e+3, 2.2347352e+2, -863027.3, -910823.56, -53122.984, 0.07605766, 0.10968355, -828674.5, -78715.13, 0.0, 9.999591, 9.998948 
1.7251165e+3, 2.3347192e+2, -656510.6, -765226.8, -58499.367, 0.106336884, 0.031470966, -631012.75, 20960.994, 0.0, 10.000374, 9.998886 
1.7251529e+3, 2.4347065e+2, -447958.2, -579948.1, -45838.332, 0.108006746, 0.020074774, -433600.9, 120383.55, 0.0, 10.000933, 9.999237 
1.7251888e+3, 2.5347006e+2, -326821.28, -432654.44, -102705.87, 0.0360241, -0.02210626, -264201.47, 191786.55, 0.0000000000049057277, 10.00095, 9.999555 
1.725225e+3, 2.634688e+2, -319732.22, -574173.3, -85060.87, 0.003989355, -0.011935571, -293915.44, 64084.453, 0.0000011502509, 10.001171, 9.99781 
1.7252623e+3, 2.7346626e+2, -141276.48, -447618.94, -54813.008, 0.06422143, -0.069593504, -131764.3, 128262.72, 0.000029351942, 10.001773, 9.997715 
1.7252995e+3, 2.8346404e+2, 29321.035, -319387.4, 8679.978, 0.11905163, -0.03791185, 29536.963, 191587.56, 0.00020332959, 10.002295, 9.997669 
1.7253357e+3, 2.934624e+2, 217139.64, -133788.23, 5489.17, 0.09132404, -0.03518558, 217225.48, 281294.06, 0.0007057303, 10.002743, 9.998035 
1.7253718e+3, 3.0346116e+2, 309265.53, -98405.664, 51520.285, 0.012727972, 0.06581303, 315675.72, 315675.72, 0.0016357158, 10.003142, 9.997794 
1.7254132e+3, 3.1345916e+2, 442164.5, 171039.83, -66975.67, 0.3872866, 0.033025596, 457806.97, 457806.97, 0.0029145582, 10.003111, 9.9996605 
1.7347041e+3, 1.2342749e+2, -2426881.0, -1894786.3, -73150.72, 0.102945335, -0.03840534, -1884913.0, -154505.2, 0.06561491, 9.994322, 10.001462 
1.7347394e+3, 1.3342863e+2, -2127405.3, -1713868.8, 26765.69, -0.1970639, -0.14514711, -1712143.6, -79743.375, 0.042436883, 9.995823, 10.001312 
1.7347805e+3, 1.4343327e+2, -1933133.0, -1591836.6, -68369.45, 0.22797218, 0.23451659, -1578650.1, -44293.344, 0.021297567, 9.996561, 10.001134 
1.7348152e+3, 1.534324e+2, -1683476.1, -1332972.6, 13286.805, 0.0038378874, -0.070558645, -1332469.8, 103894.31, 0.0071235094, 9.997237, 10.001914 
1.7348516e+3, 1.6343294e+2, -1641752.8, -1440363.5, 6228.3467, -0.07465778, -0.12138572, -1440171.0, -101812.79, 0.0011691477, 9.997596, 10.000329 
1.73489e+3, 1.7343499e+2, -1572083.1, -1361742.9, -15718.992, 0.06612462, 0.024808373, -1360574.6, -120235.27, 0.00004011834, 9.997449, 10.000252 
1.7349279e+3, 1.8343593e+2, -1491203.3, -1307306.8, -25738.873, 0.11637017, 0.12708141, -1303772.1, -161441.16, 0.0, 9.997478, 9.999948 
1.7349647e+3, 1.934352e+2, -1303920.5, -1137004.0, 25539.71, 0.03041517, 0.009468368, -1133183.6, -88845.18, 0.0, 9.997983, 10.000189 
1.7350022e+3, 2.0343466e+2, -1186187.1, -1105963.8, 34057.297, -0.0041994518, -0.019734945, -1093455.6, -147112.31, 0.0, 9.998433, 9.999522 
1.7350414e+3, 2.134342e+2, -1014971.9, -960207.75, 24128.264, 0.073796414, -0.057279244, -951093.94, -102747.93, 0.0, 9.998894, 9.999619 
1.7350797e+3, 2.2343382e+2, -876449.75, -873188.5, -40480.96, 0.09144912, -0.025329169, -834305.3, -83957.2, 0.0, 9.999312, 9.999337 
1.7351164e+3, 2.3343371e+2, -646476.4, -688339.94, -11670.252, 0.0262597, -0.019255195, -643442.9, 8905.42, 0.0, 10.000122, 9.9995365 
1.735153e+3, 2.4343306e+2, -562685.75, -734387.6, -52295.723, -0.0063886726, 0.03073608, -548011.94, 6343.065, 0.0, 10.000586, 9.998342 
1.7351899e+3, 2.534315e+2, -445902.03, -618087.2, -78051.21, 0.027804872, 0.0058889547, -415788.22, 40584.652, 0.000000000000012544113, 10.0006895, 9.998405 
1.7352265e+3, 2.6343024e+2, -301327.25, -457018.22, -75732.06, 0.024814341, 0.042969882, -270566.72, 87819.33, 0.0000010511417, 10.000839, 9.99877 
1.7352635e+3, 2.734297e+2, -86877.15, -267998.4, -6178.0366, -0.0070671113, 0.04819928, -86666.66, 173722.52, 0.000029114979, 10.0015, 9.999069 
1.7353012e+3, 2.834284e+2, 30125.986, -244505.9, 5631.774, 0.03477243, 0.06450921, 30241.426, 192640.86, 0.00019954766, 10.001978, 9.998338 
1.7353393e+3, 2.9342562e+2, 204331.61, -80594.02, 45423.918, 0.15307547, -0.11022608, 211398.02, 275822.75, 0.0006841952, 10.0023985, 9.998569 
1.7353758e+3, 3.0342397e+2, 143335.22, -330507.6, 28500.055, 0.0625324, -0.022493195, 145043.25, 145043.25, 0.0015848166, 10.002688, 9.996398 
1.7354147e+3, 3.134215e+2, 182908.6, -200758.16, -2547.6028, 0.16579238, 0.04970128, 182925.52, 182925.52, 0.0028348411, 10.002444, 9.997392 
1.7446996e+3, 1.2339059e+2, -2139591.5, -1787331.4, -52564.8, 0.14148492, -0.00014797972, -1779654.9, -48885.76, 0.06957688, 9.99647, 10.001158 
1.7447366e+3, 1.3339096e+2, -2114594.3, -1709023.1, 11298.154, -0.05278424, -0.16704705, -1708708.6, -75940.24, 0.045260757, 9.995938, 10.001292 
1.7447764e+3, 1.4339586e+2, -2030586.1, -1645896.9, 22647.662, 0.20165575, 0.23929507, -1644568.1, -109846.625, 0.022935338, 9.995932, 10.00105 
1.7448121e+3, 1.5339454e+2, -1795664.5, -1402276.1, -21273.195, 0.022907916, -0.10228466, -1401129.1, 35604.22, 0.0078018596, 9.996546, 10.001744 
1.7448491e+3, 1.6339469e+2, -1734761.6, -1489170.0, -35643.88, -0.032867774, -0.18161601, -1484101.5, -145370.11, 0.0013223152, 9.996981, 10.000297 
1.7448878e+3, 1.7339694e+2, -1507585.6, -1326407.9, -12682.121, 0.09249404, -0.012111331, -1325524.5, -84814.164, 0.000049909977, 9.997882, 10.000293 
1.744926e+3, 1.8339816e+2, -1358153.5, -1246828.1, 38322.383, 0.14558682, 0.11661895, -1234911.6, -92212.195, 0.0000000000000006446772, 9.998418, 9.999898 
1.7449631e+3, 1.9339763e+2, -1227182.8, -1106607.4, -6878.5454, 0.049073685, 0.022751115, -1106216.3, -61510.58, 0.0, 9.998549, 10.000108 
1.7450011e+3, 2.0339695e+2, -1155379.1, -1118593.0, 11507.8, 0.027644537, -0.0044925166, -1115289.6, -168576.9, 0.0, 9.998745, 9.999294 
1.7450412e+3, 2.1339594e+2, -977623.1, -965413.06, 14371.379, 0.1386661, -0.07264959, -955903.75, -107182.305, 0.0, 9.9992485, 9.999415 
1.7450798e+3, 2.2339532e+2, -820794.1, -817123.06, 967.0173, 0.16854465, -0.06479192, -816883.9, -66157.984, 0.0, 9.999538, 9.999631 
1.7451161e+3, 2.3339565e+2, -718049.0, -675286.75, -13445.244, 0.043339316, -0.052290563, -671410.7, -18689.85, 0.0, 9.999423, 9.999968 
1.7451529e+3, 2.4339539e+2, -680945.9, -769626.2, 336.85315, -0.007894637, 0.0029696033, -680944.6, -126221.38, 0.0, 9.999721, 9.998501 
1.7451906e+3, 2.5339383e+2, -428534.6, -597491.06, 22465.924, 0.054026313, -0.028431311, -425598.34, 31143.209, 0.0, 10.0008, 9.998479 
1.745228e+3, 2.6339266e+2, -174208.64, -369606.9, 76932.76, 0.07543463, 0.0035990772, -147554.38, 211199.0, 0.0000010008785, 10.001572, 9.999025 
1.7452653e+3, 2.7339247e+2, -22665.342, -206201.97, 36680.734, 0.020884931, 0.014060817, -15606.03, 245145.69, 0.000030147008, 10.001781, 9.999362 
1.7453036e+3, 2.8339133e+2, 52301.59, -270009.75, 24517.488, 0.08429115, 0.041808534, 54155.914, 216915.78, 0.00019898178, 10.002256, 9.998041 
1.7453432e+3, 2.9338816e+2, 263934.22, -114504.79, -52691.06, 0.28337955, -0.12299194, 271133.56, 335923.78, 0.00068108423, 10.003028, 9.998057 
1.7453797e+3, 3.033859e+2, 318509.84, -188892.8, -16492.527, 0.1688864, -0.084929556, 319045.34, 319045.34, 0.0015910987, 10.003626, 9.996939 
1.7454174e+3, 3.133841e+2, 488545.5, -15930.386, 27520.986, 0.11205368, -0.008117945, 490042.44, 490042.44, 0.0028723278, 10.004364, 9.9977455 
1.754697e+3, 1.23353496e+2, -2006511.3, -1564021.1, 71676.83, 0.1530878, 0.11692242, -1552700.3, 178436.78, 0.07366958, 9.996618, 10.002723 
1.7547314e+3, 1.333523e+2, -2032500.1, -1544106.6, 5473.308, -0.19381694, -0.28407678, -1544045.4, 89098.56, 0.048192136, 9.995943, 10.002449 
1.7547716e+3, 1.433577e+2, -2044937.9, -1706354.1, 29648.818, 0.08891463, 0.09837013, -1703777.5, -168687.45, 0.024652572, 9.996055, 10.000584 
1.7548093e+3, 1.5335831e+2, -1891465.0, -1609064.0, 10343.793, 0.062465906, 0.08764908, -1608685.6, -171595.88, 0.008527423, 9.996567, 10.000324 
1.7548469e+3, 1.6335858e+2, -1684261.9, -1392136.9, -33285.844, 0.00047195904, 0.07932411, -1388392.3, -49303.13, 0.0014925194, 9.997022, 10.00094 
1.7548853e+3, 1.7335895e+2, -1433593.9, -1159484.5, 35683.5, 0.028284272, -0.050399877, -1154915.4, 86164.55, 0.00006156021, 9.997833, 10.001457 
1.7549238e+3, 1.8335956e+2, -1397090.4, -1330237.4, 31199.729, 0.045020625, -0.027928844, -1317939.1, -174866.72, 0.0000000010737394, 9.9984255, 9.999321 
1.7549615e+3, 1.9336024e+2, -1307171.4, -1258055.0, 8947.503, 0.012203142, 0.09268325, -1256475.8, -211403.83, 0.0, 9.99848, 9.9991045 
1.755e+3, 2.0336011e+2, -1170010.8, -1114760.4, 10846.756, 0.016582916, 0.1766115, -1112707.3, -165630.55, 0.0, 9.998596, 9.999391 
1.7550404e+3, 2.1335869e+2, -983842.5, -929358.0, 46275.426, 0.13422327, 0.03185387, -902901.5, -53812.6, 0.0, 9.99903, 9.99977 
1.7550795e+3, 2.2335777e+2, -846696.5, -803257.56, -14167.546, 0.15998922, -0.021245098, -799045.25, -47950.18, 0.0, 9.999249, 9.999866 
1.7551155e+3, 2.3335782e+2, -735887.2, -663652.2, -825.05963, 0.018167177, -0.058970068, -663642.8, -10552.404, 0.0, 9.999206, 10.000156 
1.7551522e+3, 2.4335757e+2, -657605.6, -653081.25, 22180.816, -0.07518077, -0.052333817, -633047.56, -77957.8, 0.0, 9.999429, 9.999442 
1.7551906e+3, 2.5335667e+2, -389776.63, -457230.3, 79145.76, -0.03443321, -0.12790407, -337471.22, 119626.82, 0.0, 10.000541, 9.999567 
1.7552291e+3, 2.6335555e+2, -250214.42, -459380.9, 67334.984, -0.005846873, -0.13553384, -230412.56, 128695.17, 0.00000094846536, 10.001274, 9.998556 
1.7552671e+3, 2.733544e+2, -107721.336, -322749.16, 60448.363, 0.0015159587, -0.1502731, -91893.266, 169222.8, 0.000030605133, 10.001531, 9.99868 
1.7553061e+3, 2.833529e+2, -71939.37, -465046.1, 33291.36, 0.085833065, -0.07586462, -69139.93, 93990.984, 0.0002004244, 10.001985, 9.996831 
1.7553465e+3, 2.933501e+2, 115036.8, -341879.56, 411.76813, 0.29186177, -0.07638384, 115037.17, 180201.47, 0.000696978, 10.002681, 9.996659 
1.7553832e+3, 3.0334723e+2, 373485.8, 41269.758, -16347.62, 0.1164097, -0.092126235, 374288.28, 374288.28, 0.0016497358, 10.003144, 9.99874 
1.7554203e+3, 3.1334725e+2, 524269.3, 245471.9, 121339.89, -0.07867046, -0.09464379, 569682.3, 569682.3, 0.0030017775, 10.003603, 9.99989 
1.7646931e+3, 1.2331503e+2, -2141407.8, -1634079.5, 65636.49, 0.17331706, 0.17324705, -1625725.3, 105792.53, 0.07790593, 9.9957, 10.002653 
1.7647266e+3, 1.3331363e+2, -1958560.0, -1474123.3, -88936.91, -0.25072262, -0.27597615, -1458311.6, 175213.55, 0.05123237, 9.996261, 10.002809 
1.7647691e+3, 1.4331907e+2, -1901525.5, -1622607.1, -59142.08, 0.21099581, 0.07993031, -1610584.8, -75115.6, 0.026445003, 9.996975, 10.000726 
1.764807e+3, 1.533199e+2, -1790367.0, -1555550.1, -17687.258, 0.13484068, 0.093506515, -1554225.4, -116759.99, 0.009296644, 9.99727, 10.000353 
1.764844e+3, 1.6332039e+2, -1609775.1, -1332748.1, 31376.47, 0.029823357, 0.09759575, -1329238.9, 10222.516, 0.0016790463, 9.99744, 10.001135 
1.764883e+3, 1.7332053e+2, -1440718.9, -1142869.4, -2028.0165, 0.042575076, -0.07903414, -1142855.5, 98598.38, 0.000074904594, 9.997691, 10.001635 
1.764922e+3, 1.8332091e+2, -1462201.1, -1363167.5, -3800.1487, 0.07165818, -0.09094121, -1363022.0, -219573.44, 0.000000009428086, 9.997987, 9.999313 
1.7649604e+3, 1.933215e+2, -1239157.1, -1226621.5, 10490.763, 0.058833186, 0.029207291, -1220668.8, -175219.8, 0.0, 9.998963, 9.999095 
1.7649995e+3, 2.0332162e+2, -1034832.4, -1019389.44, 69603.06, 0.0805721, 0.1293462, -957080.9, -9629.335, 0.0, 9.999415, 9.99964 
1.7650397e+3, 2.1332106e+2, -979181.75, -891535.94, 69860.836, 0.17813188, 0.04382966, -852890.75, -3434.8186, 0.0, 9.998936, 10.000064 
1.7650788e+3, 2.2332062e+2, -882588.75, -810391.8, 47408.723, 0.20244963, 0.016671587, -786902.6, -35444.68, 0.0, 9.998975, 9.999939 
1.7651154e+3, 2.3332036e+2, -592050.06, -587996.1, 11932.867, 0.06349123, -0.053107996, -577919.3, 75536.96, 0.0, 10.000184, 10.000194 
1.7651528e+3, 2.4331991e+2, -466383.47, -586712.6, 9588.973, -0.008361226, -0.060266856, -465624.13, 89833.69, 0.0, 10.000802, 9.999261 
1.7651917e+3, 2.533191e+2, -458093.72, -519318.44, -51967.816, 0.049850345, -0.09987042, -428392.16, 29073.29, 0.0, 10.000155, 9.999348 
1.7652307e+3, 2.633178e+2, -384223.53, -547571.1, -40118.043, 0.0843704, -0.10745071, -374902.47, -15424.8545, 0.0000007067664, 10.000483, 9.998322 
1.7652695e+3, 2.7331558e+2, 42391.38, -280019.38, -53563.586, 0.047631543, -0.19847225, 51057.223, 312553.3, 0.000029110019, 10.002705, 9.998404 
1.765309e+3, 2.8331372e+2, 208966.08, -309832.63, -36616.5, 0.08974108, -0.14836054, 211537.7, 375051.84, 0.00020337792, 10.003848, 9.997 
1.765349e+3, 2.9331192e+2, 184407.0, -285511.16, -27745.232, 0.2615661, -0.05712211, 186039.48, 251576.48, 0.0007256054, 10.003085, 9.996846 
1.7653857e+3, 3.0330884e+2, 329815.06, -18060.104, 33216.754, 0.094139755, -0.08901809, 332958.34, 332958.34, 0.0017291429, 10.00298, 9.998416 
1.7654248e+3, 3.133085e+2, 531183.8, 204899.7, -82883.91, 0.027412247, -0.07603697, 551031.06, 551031.06, 0.0031412402, 10.003789, 9.99954 
1.7746888e+3, 1.23276204e+2, -2284955.5, -1970754.5, -204450.06, 0.09519019, 0.24143648, -1870017.1, -138115.83, 0.08231803, 9.995871, 10.000218 
1.7747228e+3, 1.3327533e+2, -1994315.4, -1552446.6, -33295.855, -0.2979, -0.10809535, -1549951.9, 83956.97, 0.054393712, 9.996283, 10.002233 
1.7747684e+3, 1.4327967e+2, -1834214.3, -1509134.4, -68951.49, 0.37543672, 0.16064711, -1495114.0, 40748.445, 0.02831169, 9.997079, 10.001464 
1.774804e+3, 1.5327917e+2, -1675945.4, -1330499.1, 5006.0796, 0.08626324, -0.104780614, -1330426.6, 107434.68, 0.010105246, 9.997306, 10.001891 
1.7748407e+3, 1.6328001e+2, -1622076.8, -1373569.3, 23168.025, -0.10104426, -0.14822935, -1371427.8, -31578.793, 0.0018804772, 9.997504, 10.000825 
1.7748804e+3, 1.7328164e+2, -1501478.1, -1263110.4, 18874.14, 0.0038354215, -0.098850586, -1261625.1, -19792.426, 0.00008970714, 9.997666, 10.00082 
1.7749202e+3, 1.8328218e+2, -1422593.3, -1284513.1, 10862.665, 0.064502835, -0.067032695, -1283663.8, -139835.9, 0.000000028818846, 9.997999, 9.999848 
1.7749596e+3, 1.9328128e+2, -1191304.6, -1108628.1, 63152.75, 0.055136155, -0.1807437, -1074487.1, -28649.11, 0.0, 9.998876, 9.99995 
1.774999e+3, 2.0328131e+2, -1034705.56, -978959.6, 44294.395, 0.06789468, -0.1557449, -954498.1, -6659.464, 0.0, 9.999249, 9.999991 
1.7750384e+3, 2.1328294e+2, -999472.7, -880658.25, 63682.25, 0.14489783, -0.04547851, -852975.6, -3152.1445, 0.0, 9.9987135, 10.00024 
1.7750774e+3, 2.2328375e+2, -935325.5, -864775.3, 68786.12, 0.14930464, 0.052371982, -822746.7, -70931.17, 0.0, 9.998727, 9.999688 
1.7751157e+3, 2.3328295e+2, -639398.56, -646877.4, 74838.76, 0.04870298, -0.046425547, -568205.9, 85615.6, 0.0, 9.999993, 9.999888 
1.7751543e+3, 2.4328208e+2, -592307.7, -771933.44, -20501.363, 0.034537118, -0.03449005, -589997.5, -34167.15, 0.0, 10.000486, 9.998135 
1.7751934e+3, 2.5328118e+2, -580979.7, -725863.8, -59853.027, 0.17623019, 0.044259448, -559452.4, -101609.31, 0.0, 9.999956, 9.998022 
1.7752324e+3, 2.6327938e+2, -435662.5, -594019.9, 14314.43, 0.19431663, 0.07674289, -434378.97, -74517.266, 0.00000032366296, 10.00023, 9.998122 
1.7752719e+3, 2.7327603e+2, -9480.921, -300187.9, 54983.875, 0.0040707365, -0.1300312, 571.0701, 262461.28, 0.00002512301, 10.002347, 9.998427 
1.7753112e+3, 2.8327385e+2, 223886.92, -183542.8, -69972.59, -0.07860385, -0.15660053, 235569.16, 399477.4, 0.00020098852, 10.003434, 9.998068 
1.7753501e+3, 2.9327354e+2, 238989.67, -105672.55, -37470.305, 0.036434174, -0.057439998, 243016.25, 308926.06, 0.00074255146, 10.002802, 9.998216 
1.7753872e+3, 3.0327067e+2, 119529.52, -367582.4, 34756.324, -0.082809746, -0.060654357, 121996.95, 121996.95, 0.001770995, 10.002616, 9.996184 
1.77543e+3, 3.1326973e+2, 237488.1, -193284.78, 34727.348, 0.10985234, 0.18400201, 240269.72, 240269.72, 0.0031863025, 10.002933, 9.997187 
1.784686e+3, 1.23238444e+2, -2173758.8, -2066135.9, -119361.47, 0.17360392, 0.25901946, -1989016.6, -256748.56, 0.08696164, 9.997328, 9.998834 
1.7847206e+3, 1.3323775e+2, -1782681.9, -1472795.9, 104178.76, -0.20404781, -0.04644981, -1441029.1, 193248.19, 0.057701517, 9.997879, 10.0020275 
1.7847662e+3, 1.4324138e+2, -1791270.8, -1460388.4, 105462.65, 0.46048874, 0.15518723, -1429632.9, 106605.12, 0.030258754, 9.997253, 10.001723 
1.7848015e+3, 1.5324062e+2, -1677777.3, -1284927.0, 64640.223, 0.1492458, -0.1830485, -1274564.4, 163671.13, 0.0109521225, 9.997083, 10.002315 
1.7848383e+3, 1.632415e+2, -1713836.3, -1466819.9, 72064.47, -0.058617674, -0.23104016, -1447333.1, -107111.61, 0.0020959692, 9.997088, 10.00038 
1.7848782e+3, 1.7324328e+2, -1518166.3, -1337222.0, 43920.066, 0.011871975, -0.10615004, -1327124.9, -84916.99, 0.000105867584, 9.997856, 10.00021 
1.7849182e+3, 1.8324393e+2, -1354394.0, -1207641.3, 73783.74, 0.07130733, -0.043997023, -1176959.4, -32755.646, 0.0000000562377, 9.998275, 10.000248 
1.7849582e+3, 1.9324322e+2, -1218178.9, -1049241.0, 83843.87, 0.074695736, -0.19955368, -1014694.0, 31514.55, 0.0, 9.99837, 10.000602 
1.7849982e+3, 2.032433e+2, -1118571.4, -1039373.06, 60713.242, 0.09742874, -0.20293593, -1006486.4, -58279.375, 0.0, 9.998751, 9.999824 
1.7850377e+3, 2.1324453e+2, -833951.9, -839051.1, 6675.7593, 0.14976624, -0.100480616, -829355.44, 20841.174, 0.0, 10.000002, 9.999913 
1.785077e+3, 2.23245e+2, -700382.6, -806855.9, 12108.329, 0.16157669, 0.005811773, -699023.0, 53170.473, 0.0, 10.0005865, 9.999193 
1.785116e+3, 2.3324415e+2, -683605.56, -727024.56, -33680.797, 0.099339634, -0.039162528, -665243.9, -11041.631, 0.0, 9.999962, 9.999354 
1.7851551e+3, 2.4324314e+2, -654638.25, -822305.9, -74157.1, 0.108873986, 0.002667828, -626546.25, -70332.36, 0.0, 10.000166, 9.99793 
1.7851947e+3, 2.5324193e+2, -286163.53, -600526.3, -62679.777, 0.21988676, 0.06145164, -274126.88, 184102.9, 0.0, 10.002069, 9.997852 
1.7852342e+3, 2.6323998e+2, -67995.4, -440735.72, 72782.125, 0.23676017, 0.099142514, -54287.887, 305961.94, 0.00000018370703, 10.002827, 9.997939 
1.785274e+3, 2.7323666e+2, -162838.19, -406378.84, 65023.773, 0.05750792, -0.08116444, -146564.66, 115714.17, 0.000020759246, 10.001381, 9.998189 
1.785314e+3, 2.8323436e+2, -91265.71, -312795.2, -28851.496, -0.027696637, -0.112627044, -87569.81, 76727.94, 0.0001926232, 10.001184, 9.99825 
1.7853531e+3, 2.9323396e+2, 369125.56, -16991.887, -115752.12, 0.042337786, -0.046877436, 401167.3, 467465.28, 0.00073852757, 10.003586, 9.998441 
1.7853908e+3, 3.0323076e+2, 391238.75, -254627.23, -44865.35, -0.058616374, -0.08229907, 394340.44, 394340.44, 0.0017551996, 10.004564, 9.996023 
1.7854337e+3, 3.132287e+2, 153222.98, -254532.97, 33761.074, 0.25737202, 0.083732486, 155999.4, 155999.4, 0.0031053715, 10.002405, 9.997041 
1.7946826e+3, 1.2319929e+2, -2158348.0, -2083374.9, -57340.473, 0.006543245, -0.055906676, -2052354.8, -319713.22, 0.09190124, 9.997529, 9.998627 
1.7947194e+3, 1.332009e+2, -1739945.4, -1428550.5, 99567.21, -0.15908651, -0.12457569, -1399436.4, 235193.06, 0.06119029, 9.998026, 10.002299 
1.7947622e+3, 1.4320442e+2, -1809959.0, -1510738.1, 74859.36, 0.29665184, 0.054734834, -1493054.9, 43537.742, 0.03230053, 9.99732, 10.00133 
1.7947994e+3, 1.5320449e+2, -1741005.1, -1407056.0, 73445.28, 0.20126443, -0.12313628, -1391617.0, 46967.984, 0.011841973, 9.997059, 10.001475 
1.7948364e+3, 1.6320498e+2, -1746542.5, -1552759.6, 74941.766, 0.011453862, -0.12837219, -1527159.4, -186581.89, 0.0023264778, 9.997153, 9.999766 
1.7948757e+3, 1.7320536e+2, -1547924.5, -1403040.9, 84286.734, -0.05309014, -0.09703858, -1364342.8, -121762.55, 0.00012352158, 9.997861, 9.999764 
1.7949155e+3, 1.8320596e+2, -1330210.3, -1162371.0, 62879.85, -0.066722386, -0.027796, -1141427.0, 3150.542, 0.000000085167756, 9.9983015, 10.000542 
1.7949559e+3, 1.932073e+2, -1207117.1, -1001952.8, 95775.41, -0.018959986, -0.019582812, -964192.44, 82368.516, 0.0, 9.998267, 10.000975 
1.7949964e+3, 2.0320761e+2, -1186704.8, -1143969.4, 82110.61, 0.010277185, 0.006239677, -1080491.8, -131935.72, 0.0, 9.998586, 9.99919 
1.795037e+3, 2.1320586e+2, -920752.7, -975807.6, 67709.37, 0.06351659, -0.10824801, -875188.94, -24614.168, 0.0, 9.9998045, 9.999077 
1.7950772e+3, 2.2320436e+2, -802101.25, -950597.44, -15333.828, 0.09324085, -0.112996936, -800534.4, -47942.805, 0.0, 10.000299, 9.998345 
1.795116e+3, 2.3320381e+2, -778800.7, -868431.6, -41097.94, 0.08876636, -0.046334244, -762809.4, -108209.17, 0.0, 9.999722, 9.998497 
1.7951551e+3, 2.4320294e+2, -659886.06, -764556.9, -29091.89, 0.06805488, 0.037216634, -652343.8, -95733.234, 0.0, 9.999871, 9.998467 
1.7951952e+3, 2.5320137e+2, -266040.84, -493720.0, 26998.002, 0.054675996, -0.023594778, -262883.25, 195742.25, 0.0, 10.001798, 9.998712 
1.7952356e+3, 2.6319945e+2, -131922.0, -494339.84, 22706.924, 0.0589071, -0.021555828, -130504.86, 230138.33, 0.00000013255313, 10.002485, 9.997737 
1.7952758e+3, 2.7319735e+2, -226470.78, -474269.38, 24615.975, 0.060461506, -0.04903784, -224049.13, 38614.406, 0.0000188634, 10.001123, 9.997838 
1.7953162e+3, 2.8319538e+2, -183644.78, -440845.22, 17929.66, 0.053470697, -0.00017230073, -182400.9, -17718.984, 0.00018772867, 10.000903, 9.997511 
1.7953573e+3, 2.931934e+2, 250014.27, -155015.23, 9472.645, 0.073070064, -0.011491411, 250235.69, 316934.28, 0.00073078944, 10.003125, 9.997709 
1.7953958e+3, 3.0318946e+2, 391719.53, -125076.5, -114837.47, -0.059482176, -0.1254603, 416088.53, 416088.53, 0.0017135283, 10.003999, 9.997193 
1.7954354e+3, 3.131859e+2, 219734.39, 14248.918, 24857.393, 0.12611015, -0.28416023, 222698.61, 222698.61, 0.0029599543, 10.001884, 9.999118 
1.8046802e+3, 1.23160355e+2, -2362116.5, -2179943.3, -33282.6, 0.09836841, -0.19291691, -2174053.3, -441035.1, 0.097200245, 9.996158, 9.998618 
1.8047175e+3, 1.3316299e+2, -1874682.0, -1497118.0, -49145.16, -0.08837969, -0.13698813, -1490826.0, 144171.78, 0.06490086, 9.997138, 10.002222 
1.804759e+3, 1.4316608e+2, -1852409.9, -1584904.0, -75507.086, 0.27127707, 0.016497716, -1565062.8, -28095.582, 0.034457777, 9.997243, 10.0008545 
1.804797e+3, 1.531663e+2, -1750566.8, -1475657.3, -92719.65, 0.26018745, -0.087953456, -1447308.8, -8348.105, 0.0127833225, 9.997263, 10.000901 
1.8048342e+3, 1.6316655e+2, -1706725.0, -1520789.8, 10212.721, 0.08719313, -0.08785288, -1520230.5, -179273.81, 0.0025744103, 9.997378, 9.999879 
1.8048738e+3, 1.7316677e+2, -1494904.4, -1341094.3, 49466.95, -0.027413815, -0.09902781, -1326558.8, -83599.48, 0.00014305822, 9.99808, 10.000074 
1.804914e+3, 1.8316728e+2, -1298333.1, -1192437.6, 56707.574, -0.046006527, -0.0396789, -1167801.8, -22845.234, 0.00000010953618, 9.998707, 10.000145 
1.8049549e+3, 1.9316848e+2, -1065311.8, -991393.2, -12184.766, -0.0011737961, 0.008120781, -989436.44, 57505.99, 0.0, 9.999496, 10.000453 
1.8049955e+3, 2.0316857e+2, -1006238.2, -1081408.4, -16989.06, 0.02920382, 0.05196718, -1002576.9, -53636.355, 0.0, 9.999924, 9.998987 
1.8050367e+3, 2.1316652e+2, -933554.6, -994107.7, -9227.738, 0.06562046, -0.073659435, -932179.6, -81217.84, 0.0, 9.999773, 9.998968 
1.8050773e+3, 2.2316477e+2, -851304.6, -972118.44, -18957.785, 0.10765245, -0.100664295, -848399.6, -95418.945, 0.0, 9.999965, 9.998346 
1.8051167e+3, 2.3316379e+2, -576353.75, -769501.44, -14375.562, 0.13007852, -0.07527525, -575289.6, 79702.77, 0.0, 10.001116, 9.998494 
1.8051563e+3, 2.431627e+2, -388194.8, -645440.3, 55889.52, 0.12436073, -0.010639249, -376576.88, 180427.38, 0.0, 10.001762, 9.998402 
1.8051969e+3, 2.531612e+2, -351495.75, -551638.25, 17448.377, 0.08206523, -0.046906732, -349986.0, 109032.69, 0.0, 10.001256, 9.998605 
1.8052375e+3, 2.6315942e+2, -314533.03, -594892.44, -18064.781, 0.08734809, -0.02132727, -313373.8, 47662.19, 0.00000007008213, 10.001297, 9.99761 
1.8052778e+3, 2.7315733e+2, -32239.412, -408325.25, -49126.73, 0.11084067, -0.021842867, -25928.08, 237129.3, 0.000018211349, 10.002567, 9.997605 
1.8053186e+3, 2.8315514e+2, 120938.984, -281068.38, 26816.303, 0.11903863, 0.01811165, 122719.9, 287798.3, 0.00018396281, 10.002928, 9.997637 
1.80536e+3, 2.9315266e+2, 68998.44, -224963.83, 40357.797, 0.12366217, -0.05701051, 74438.45, 141538.27, 0.0007176876, 10.00179, 9.997879 
1.8053994e+3, 3.0314928e+2, 140655.03, -204153.73, -23150.783, 0.022485036, -0.139157, 142202.45, 142202.45, 0.0016608938, 10.002112, 9.997542 
1.8054391e+3, 3.131469e+2, 656925.1, 240807.5, -66592.99, 0.18023509, -0.20238131, 667322.5, 667322.5, 0.0028186939, 10.004734, 9.99935 
1.8146785e+3, 1.23122364e+2, -2334033.8, -2145498.3, -5557.592, 0.23587391, -0.053753838, -2145334.8, -411943.66, 0.10291468, 9.996242, 9.998823 
1.8147144e+3, 1.331238e+2, -1917263.6, -1573350.3, -22553.063, -0.13031095, -0.07194959, -1571877.6, 63507.563, 0.06887483, 9.997107, 10.00168 
1.8147562e+3, 1.431259e+2, -1863362.4, -1621770.4, -101828.734, 0.21952063, 0.027945273, -1584576.6, -47210.13, 0.036753505, 9.997299, 10.000577 
1.8147938e+3, 1.5312569e+2, -1757735.5, -1502504.3, -81136.04, 0.18248165, -0.09451074, -1478895.5, -39529.523, 0.01378539, 9.997305, 10.000704 
1.814831e+3, 1.63126e+2, -1631772.4, -1384429.5, 10591.139, -0.009101897, -0.11705949, -1383976.8, -42616.242, 0.002842686, 9.99746, 10.000773 
1.814872e+3, 1.7312744e+2, -1426381.8, -1198974.6, 87949.445, -0.02800825, -0.10805371, -1168929.8, 74415.43, 0.00016504708, 9.998069, 10.00106 
1.8149135e+3, 1.8312797e+2, -1370181.9, -1341832.6, 67167.45, -0.0042733927, -0.062248345, -1287360.4, -142020.92, 0.00000012908751, 9.998707, 9.999121 
1.8149546e+3, 1.931268e+2, -1174060.3, -1205344.5, 29548.592, 0.0054237433, -0.11086093, -1156269.0, -108916.41, 0.0, 9.99944, 9.999016 
1.8149956e+3, 2.031261e+2, -1018893.0, -1067421.9, -31247.152, 0.00246647, -0.069030255, -1003595.5, -54234.637, 0.0, 9.999759, 9.999159 
1.8150362e+3, 2.1312644e+2, -930335.1, -935136.94, -466.73285, 0.035130374, -0.007375224, -930290.1, -78931.45, 0.0, 9.999549, 9.99948 
1.8150769e+3, 2.2312602e+2, -844593.06, -887854.75, 1388.3816, 0.06253058, 0.0401459, -844548.56, -91185.99, 0.0, 9.9996605, 9.999072 
1.8151176e+3, 2.3312412e+2, -559056.56, -677276.9, 44744.195, 0.08937865, -0.10403539, -544031.3, 111347.36, 0.0, 10.00087, 9.999248 
1.8151581e+3, 2.4312234e+2, -484027.97, -774870.7, 33987.24, 0.10874607, -0.120356075, -480109.1, 77286.664, 0.0, 10.001466, 9.997649 
1.815199e+3, 2.5312117e+2, -452216.53, -709048.44, 14234.223, 0.1573701, -0.030963557, -451430.03, 7981.554, 0.0, 10.001038, 9.997621 
1.8152398e+3, 2.6311955e+2, -380277.1, -660877.0, 4037.029, 0.16103402, 0.07704897, -380219.03, -18788.408, 0.0000000874347, 10.000991, 9.997307 
1.8152802e+3, 2.7311674e+2, -91601.28, -448134.06, 22667.87, 0.063546926, 0.011981456, -90165.87, 173293.02, 0.00001648955, 10.002221, 9.997489 
1.8153204e+3, 2.8311402e+2, 111036.9, -216098.69, -18671.688, -0.0103521, -0.016342273, 112099.164, 277583.34, 0.00017264257, 10.00255, 9.998266 
1.815361e+3, 2.9311177e+2, 98498.09, -108565.05, 20703.615, 0.01658722, -0.15977436, 100547.9, 168048.73, 0.00068283465, 10.001547, 9.9987955 
1.8154013e+3, 3.0311015e+2, 39911.004, -329101.1, 30462.877, -0.028015349, -0.101907246, 42408.883, 42408.883, 0.0015899244, 10.001763, 9.996848 
1.8154421e+3, 3.1310883e+2, 455988.47, 63564.297, 75326.61, -0.037085585, 0.034049727, 469950.78, 469950.78, 0.002709715, 10.003778, 9.998548 
1.8246754e+3, 1.23082235e+2, -2428058.0, -2134243.8, -6726.236, 0.36577278, -0.02677854, -2134089.8, -400303.53, 0.10907774, 9.995341, 9.999327 
1.8247128e+3, 1.3308446e+2, -1967637.1, -1571091.3, -34700.332, 0.034706037, 0.009108915, -1568077.8, 67694.29, 0.07313931, 9.996598, 10.001957 
1.8247527e+3, 1.4308596e+2, -1895527.1, -1624130.3, -36617.277, 0.16562402, 0.018816687, -1619276.5, -81516.64, 0.039204508, 9.99706, 10.000664 
1.8247914e+3, 1.5308626e+2, -1699395.0, -1489873.1, -47315.445, 0.21031852, -0.037517134, -1479683.6, -39926.5, 0.014855209, 9.997806, 10.000538 
1.8248296e+3, 1.630867e+2, -1507188.0, -1316564.9, 50067.59, 0.07639334, -0.039053775, -1304214.8, 37536.945, 0.0031336718, 9.998277, 10.000843 
1.8248709e+3, 1.7308827e+2, -1361821.6, -1148551.0, 30397.639, 0.034629498, -0.030807044, -1144303.0, 99429.56, 0.00019006866, 9.998442, 10.001222 
1.8249126e+3, 1.8308869e+2, -1382493.3, -1349746.4, 40446.19, 0.051921092, -0.004175907, -1322485.1, -176758.94, 0.00000015151502, 9.9986315, 9.9991 
1.824954e+3, 1.9308668e+2, -1215264.0, -1228435.0, 74255.914, 0.028951442, -0.12772946, -1147302.1, -99556.1, 0.0, 9.999201, 9.998962 
1.8249951e+3, 2.0308548e+2, -1045579.4, -1097122.1, 73782.734, 0.021963436, -0.12671345, -993196.7, -43438.18, 0.0, 9.999654, 9.998986 
1.8250361e+3, 2.1308587e+2, -878061.7, -925712.44, 22079.451, 0.06637685, -0.045952726, -869403.94, -17648.19, 0.0, 9.999991, 9.999309 
1.8250772e+3, 2.2308569e+2, -726907.4, -846656.75, 30271.93, 0.105229504, 0.037930306, -719689.8, 34067.984, 0.0, 10.000509, 9.998961 
1.8251187e+3, 2.3308428e+2, -490905.3, -649931.4, -10574.715, 0.09988965, -0.0502787, -490205.22, 165565.06, 0.0, 10.001358, 9.999207 
1.8251598e+3, 2.4308261e+2, -416926.97, -772236.9, -45449.676, 0.11921715, -0.04275741, -411205.38, 146581.86, 0.0, 10.00205, 9.997378 
1.8252009e+3, 2.5308076e+2, -279970.7, -662721.0, -57051.008, 0.19464843, 0.01372467, -271647.9, 188162.47, 0.0, 10.002372, 9.997286 
1.8252419e+3, 2.6307884e+2, -165665.03, -521523.25, 16200.759, 0.21823561, 0.09830844, -164929.0, 196903.28, 0.00000011582431, 10.002316, 9.997625 
1.8252821e+3, 2.730764e+2, -148648.38, -431473.44, 30688.727, 0.092322774, 0.032131214, -145356.72, 118498.91, 0.000015405387, 10.001627, 9.9979 
1.8253227e+3, 2.830739e+2, -34700.668, -295480.4, 33552.895, 0.014627204, 0.0068723494, -30452.82, 135425.56, 0.00016033727, 10.001604, 9.998173 
1.8253633e+3, 2.9307187e+2, 290976.94, -52140.652, -47707.33, 0.03977793, -0.0846429, 297486.7, 365382.22, 0.0006397898, 10.003019, 9.99848 
1.8254046e+3, 3.0307028e+2, 330562.06, -173563.31, -8890.08, 0.0706171, -0.0062596127, 330718.78, 330718.78, 0.0015189088, 10.003682, 9.997001 
1.8254463e+3, 3.130687e+2, 283330.22, -28852.125, -23757.39, 0.09825447, 0.09620682, 285127.8, 285127.8, 0.002648067, 10.00256, 9.998547 
1.8346687e+3, 1.23039804e+2, -2358847.8, -2020279.8, -55445.97, 0.09149883, -0.12225569, -2011430.9, -277225.3, 0.11569034, 9.995451, 10.000059 
1.8347122e+3, 1.3304502e+2, -1859473.9, -1380690.6, 6814.8154, 0.2870018, 0.10736611, -1380593.6, 255563.89, 0.07769921, 9.996657, 10.003351 
1.8347475e+3, 1.4304648e+2, -1854097.6, -1563852.9, -34644.367, -0.0966183, -0.0000019787137, -1559774.9, -21630.424, 0.04181763, 9.997166, 10.001024 
1.8347895e+3, 1.5304805e+2, -1710563.1, -1527434.4, -4020.4875, 0.20265642, 0.088464536, -1527346.1, -87213.164, 0.015997248, 9.997851, 10.00026 
1.8348296e+3, 1.630486e+2, -1543517.5, -1415124.1, 40444.53, 0.20027545, 0.14666001, -1403446.1, -61316.37, 0.0034491862, 9.998375, 10.00012 
1.8348695e+3, 1.7304903e+2, -1407575.9, -1255843.3, 45719.477, 0.033780824, 0.115462214, -1243132.0, 991.68524, 0.00021871291, 9.99848, 10.000473 
1.8349105e+3, 1.8304907e+2, -1319433.8, -1215135.5, 41237.56, -0.051991157, 0.11044399, -1200801.1, -54681.156, 0.00000018976193, 9.998623, 10.000025 
1.8349525e+3, 1.9304793e+2, -1140693.3, -1053831.0, 106953.68, -0.06362652, -0.051881324, -981826.6, 66298.61, 0.0, 9.999112, 10.000204 
1.8349943e+3, 2.0304653e+2, -1097123.3, -1166517.6, 71873.59, -0.06354259, -0.12954278, -1052010.0, -101874.53, 0.0, 9.99949, 9.9985895 
1.8350358e+3, 2.1304485e+2, -962327.9, -1055187.9, 44804.29, 0.025465107, -0.17837484, -944235.25, -92081.86, 0.0, 9.999791, 9.998518 
1.8350777e+3, 2.230438e+2, -832330.0, -996825.7, 46236.355, 0.0761498, -0.096805155, -820224.75, -66058.29, 0.0, 10.000214, 9.9980755 
1.8351196e+3, 2.3304401e+2, -586480.8, -794236.06, 38879.71, 0.04031211, 0.065008394, -579443.2, 76726.266, 0.0, 10.001123, 9.998334 
1.8351611e+3, 2.4304318e+2, -452492.5, -770320.8, -43439.81, 0.017392203, 0.20204468, -446662.22, 111519.28, 0.0, 10.001722, 9.997554 
1.8352021e+3, 2.5304016e+2, -300103.22, -632970.7, -26164.51, 0.06842712, 0.108627565, -298059.16, 162153.9, 0.0, 10.00207, 9.997638 
1.8352431e+3, 2.6303765e+2, -164818.08, -454061.4, -15661.446, 0.09025434, 0.092536114, -163972.55, 198265.28, 0.000000090536304, 10.002026, 9.998231 
1.8352835e+3, 2.730362e+2, -120131.1, -328550.56, 25183.488, 0.04257089, 0.047710527, -117131.336, 147117.5, 0.00001528185, 10.001436, 9.998697 
1.8353243e+3, 2.830345e+2, -137182.36, -444830.97, 46096.664, 0.0030063407, 0.08400984, -130423.92, 35840.367, 0.00015301339, 10.001326, 9.997282 
1.8353663e+3, 2.9303256e+2, 142173.02, -263012.44, 34518.44, 0.012577255, 0.12136148, 145092.67, 213379.38, 0.00060731446, 10.002603, 9.997225 
1.835409e+3, 3.0302998e+2, 273669.7, -159072.63, -50866.438, 0.09742703, 0.163514, 279568.38, 279568.38, 0.0014671788, 10.00312, 9.997366 
1.8354492e+3, 3.1302726e+2, 224228.23, -19616.242, -38043.008, 0.08435631, 0.054873943, 230025.63, 230025.63, 0.0026243564, 10.002023, 9.998851 
1.8446635e+3, 1.2299819e+2, -2250486.0, -1925929.1, -27319.25, 0.0071109724, -0.1580344, -1923645.6, -189029.11, 0.12272786, 9.996054, 10.000415 
1.8447104e+3, 1.3300434e+2, -1877130.9, -1331879.9, -804.4904, 0.49233773, 0.12736532, -1331878.6, 304676.84, 0.08254445, 9.996331, 10.003865 
1.8447442e+3, 1.4300494e+2, -1830058.6, -1558821.1, -89546.164, -0.12557906, -0.093120895, -1531925.4, 6623.768, 0.04459436, 9.99733, 10.000994 
1.8447873e+3, 1.5300727e+2, -1703219.3, -1541310.3, -90281.32, 0.20714727, 0.08350781, -1501003.3, -60470.78, 0.017215712, 9.9979725, 10.000108 
1.8448284e+3, 1.630083e+2, -1560106.6, -1437662.8, 1310.8013, 0.27083313, 0.20458053, -1437648.8, -95122.945, 0.0037916328, 9.998343, 9.999981 
1.8448684e+3, 1.730081e+2, -1360687.3, -1246163.1, 17676.13, 0.07918035, 0.13026533, -1243497.0, 1028.5132, 0.00025177147, 9.998879, 10.000342 
1.8449095e+3, 1.830079e+2, -1234453.0, -1177985.9, 39817.098, -0.022577645, 0.10713081, -1157408.3, -10883.827, 0.00000025167606, 9.999214, 9.999996 
1.8449517e+3, 1.9300729e+2, -1089227.1, -1030230.3, -15312.259, -0.051838305, -0.0009844841, -1026492.9, 22032.434, 0.0, 9.999457, 10.0002 
1.8449938e+3, 2.0300613e+2, -1056342.8, -1123521.0, -61452.8, -0.039661318, -0.06073952, -1019898.5, -69365.58, 0.0, 9.999678, 9.998799 
1.8450363e+3, 2.130041e+2, -875253.7, -985821.5, -44320.324, 0.07684274, -0.16365804, -859681.4, -7129.756, 0.0, 10.00029, 9.99876 
1.8450788e+3, 2.2300261e+2, -762175.25, -1012363.7, 57432.258, 0.14651842, -0.122340724, -749621.25, 4946.5337, 0.0, 10.000915, 9.99762 
1.8451208e+3, 2.3300207e+2, -549753.2, -848266.0, 44614.38, 0.054833353, 0.02339641, -543228.0, 113352.08, 0.0, 10.001675, 9.9976845 
1.8451627e+3, 2.4300094e+2, -373894.78, -695514.5, -17070.271, -0.0065114945, 0.1522148, -372991.28, 185604.55, 0.0, 10.002117, 9.997865 
1.8452032e+3, 2.5299868e+2, -277099.22, -566026.2, -32920.543, -0.00091857405, 0.08399447, -273395.7, 187223.56, 0.0, 10.001979, 9.998139 
1.8452443e+3, 2.6299655e+2, -169297.39, -473480.6, -3577.5022, 0.037967212, 0.083213285, -169255.31, 193384.61, 0.00000009817215, 10.002083, 9.998067 
1.845286e+3, 2.7299497e+2, 50174.508, -285464.06, -70909.29, 0.10108185, 0.061556965, 64540.402, 329194.3, 0.000013983738, 10.00279, 9.998335 
1.8453275e+3, 2.829931e+2, 68100.67, -360604.66, -50459.637, 0.13265653, 0.11293387, 73959.82, 240631.8, 0.00014297603, 10.0027895, 9.997163 
1.8453689e+3, 2.9299104e+2, -35805.34, -350718.78, -40813.016, 0.087976806, 0.1510621, -30601.922, 38093.48, 0.00057426473, 10.001378, 9.99722 
1.8454117e+3, 3.029878e+2, 64671.727, -240435.47, 16713.945, 0.1648111, 0.115729794, 65584.59, 65584.59, 0.00141219, 10.001584, 9.997558 
1.8454531e+3, 3.1298485e+2, 672275.75, 213433.52, -127377.9, 0.14165202, -0.016221011, 705264.94, 705264.94, 0.0025787924, 10.005008, 9.999025 
1.8546604e+3, 1.22959994e+2, -2235629.8, -1971795.4, -183377.55, 0.013801911, 0.092090994, -1877815.5, -142821.45, 0.13014582, 9.99633, 9.999992 
1.854707e+3, 1.3296227e+2, -1927963.8, -1435614.1, 54542.633, 0.48564073, 0.040792253, -1429644.4, 207323.33, 0.08765755, 9.996342, 10.003102 
1.8547426e+3, 1.4296106e+2, -1839897.8, -1602109.4, -78737.29, -0.0665749, -0.29098916, -1578401.4, -39424.43, 0.04753598, 9.997428, 10.000651 
1.8547843e+3, 1.5296365e+2, -1697296.0, -1542560.4, -57754.813, 0.08214793, -0.07405108, -1523380.9, -82423.414, 0.01851746, 9.998028, 10.000075 
1.8548255e+3, 1.629656e+2, -1519341.1, -1372028.8, -2057.5608, 0.09900472, 0.11808311, -1372000.0, -29058.535, 0.0041650403, 9.998424, 10.000392 
1.8548672e+3, 1.7296538e+2, -1330960.9, -1185928.1, 50257.363, 0.04243209, -0.0034011307, -1170215.1, 74724.09, 0.00029041685, 9.998875, 10.000763 
1.8549092e+3, 1.82965e+2, -1299090.6, -1312628.0, 31767.84, -0.009095707, -0.030186385, -1273378.4, -126437.39, 0.0000003514084, 9.999218, 9.999072 
1.8549512e+3, 1.9296473e+2, -1190724.1, -1218828.4, 2509.3345, -0.063885905, 0.020554125, -1190501.8, -141555.1, 0.0, 9.999358, 9.998955 
1.8549937e+3, 2.029643e+2, -1034794.9, -1037123.44, -58156.848, -0.06304989, 0.08275623, -977790.6, -26839.605, 0.0, 9.9995, 9.999477 
1.8550369e+3, 2.1296357e+2, -824507.0, -831632.1, -8044.2188, 0.10365934, -0.006912824, -819271.8, 33679.79, 0.0, 10.000079, 9.999919 
1.8550801e+3, 2.2296198e+2, -798728.7, -1027319.1, 70277.234, 0.1680538, -0.0474123, -778851.3, -23887.57, 0.0, 10.000643, 9.997653 
1.8551223e+3, 2.3295856e+2, -607196.6, -911424.6, 88592.37, 0.009001594, -0.15931189, -583278.56, 73722.6, 0.0, 10.001427, 9.997376 
1.8551639e+3, 2.429562e+2, -400288.06, -673254.2, -27959.705, -0.1179508, -0.14735869, -397453.6, 161574.17, 0.0, 10.001785, 9.998176 
1.8552041e+3, 2.529562e+2, -275641.78, -501743.4, -22837.666, -0.13621555, -0.04086835, -273358.1, 187671.34, 0.0, 10.001723, 9.998697 
1.8552455e+3, 2.6295543e+2, -274446.22, -625810.75, -1211.8402, -0.08205596, 0.088903554, -274442.03, 88597.72, 0.00000008466028, 10.001801, 9.997156 
1.8552892e+3, 2.7295262e+2, -85225.62, -498172.22, -19115.453, 0.12516332, 0.070786245, -84342.64, 180728.23, 0.000011476472, 10.0025, 9.997012 
1.8553314e+3, 2.829499e+2, 34227.375, -349638.97, -105712.77, 0.2202434, 0.10855198, 61414.11, 228513.44, 0.00012753508, 10.002438, 9.997412 
1.8553706e+3, 2.929476e+2, -6525.998, -234576.7, -71223.83, 0.09483115, 0.04763052, 13890.513, 83010.05, 0.00053210376, 10.001147, 9.998128 
1.8554124e+3, 3.0294397e+2, 2835.93, -290579.4, 87948.91, 0.059629098, -0.08098875, 27178.402, 27178.402, 0.0013364273, 10.00125, 9.997371 
1.8554579e+3, 3.1294322e+2, 554530.8, 172833.0, 19933.947, 0.066637315, 0.049876638, 555569.0, 555569.0, 0.0024723716, 10.004168, 9.99913 
1.8646567e+3, 1.2291989e+2, -2361628.0, -1971745.1, -235169.2, 0.0807404, 0.22762552, -1861225.1, -125835.56, 0.1378835, 9.995241, 10.000491 
1.8647039e+3, 1.3292003e+2, -1873000.0, -1466622.0, 49951.65, 0.5252234, -0.008989901, -1460572.0, 176810.9, 0.09301642, 9.996995, 10.002547 
1.8647411e+3, 1.4291936e+2, -1800989.9, -1579610.8, -43578.984, 0.0373147, -0.25245214, -1571341.1, -31955.133, 0.050644647, 9.997693, 10.000671 
1.8647824e+3, 1.5292159e+2, -1656311.8, -1502270.5, -49291.98, 0.09366461, -0.09288521, -1487847.8, -46478.875, 0.01991141, 9.998221, 10.000261 
1.8648238e+3, 1.6292316e+2, -1504151.1, -1387638.4, 30857.805, 0.11377458, 0.0616565, -1379970.5, -36614.94, 0.0045744055, 9.998617, 10.000186 
1.8648665e+3, 1.729226e+2, -1299895.0, -1197630.8, 1685.9954, 0.084110156, -0.07325358, -1197603.0, 47753.508, 0.0003360051, 9.999213, 10.0005045 
1.8649091e+3, 1.8292193e+2, -1278514.1, -1350443.4, -11418.997, 0.05711481, -0.09471034, -1276744.9, -129383.47, 0.00000050835786, 9.999567, 9.998644 
1.8649513e+3, 1.929217e+2, -1155482.3, -1255143.9, -17982.635, -0.00257816, 0.0029929434, -1152336.9, -102967.06, 0.0, 9.999829, 9.998483 
1.8649939e+3, 2.0292136e+2, -943845.6, -1015754.25, -21891.209, 0.0013685831, 0.108530626, -937705.56, 13669.456, 0.0, 10.000207, 9.999289 
1.8650374e+3, 2.1292065e+2, -685043.3, -779571.2, -87809.1, 0.108081125, 0.036367, -632586.06, 220789.28, 0.0, 10.0010805, 9.9998 
1.8650807e+3, 2.2291917e+2, -645487.9, -870663.9, -44284.434, 0.14910302, -0.016201193, -637091.7, 118293.836, 0.0, 10.001353, 9.998389 
1.8651232e+3, 2.3291612e+2, -679912.9, -840903.7, 18260.906, 0.016540917, -0.1756523, -677867.56, -20451.836, 0.0, 10.00049, 9.998316 
1.8651652e+3, 2.4291413e+2, -601365.56, -748456.44, -2.0964022, -0.0688459, -0.18862338, -601365.56, -41929.434, 0.0, 10.000306, 9.998376 
1.8652062e+3, 2.5291437e+2, -291221.75, -509151.0, -49880.492, -0.07520978, -0.06163953, -280347.53, 181087.98, 0.0, 10.001619, 9.998698 
1.8652482e+3, 2.6291344e+2, -176099.1, -591929.7, -7502.549, -0.01517378, 0.060486693, -175963.77, 187483.61, 0.000000065173005, 10.002531, 9.99704 
1.8652919e+3, 2.7291015e+2, -87864.94, -519088.66, 4920.766, 0.16192926, 0.01521606, -87808.8, 177675.47, 0.000009433609, 10.002565, 9.996838 
1.8653345e+3, 2.8290743e+2, 102976.13, -324332.06, -16493.125, 0.27278593, 0.0647827, 103611.78, 271124.72, 0.00011541226, 10.002954, 9.997324 
1.865374e+3, 2.929055e+2, 425810.78, -35968.008, -86037.164, 0.18702322, 0.05298093, 441320.03, 510848.25, 0.00049646525, 10.004167, 9.998032 
1.8654156e+3, 3.029011e+2, 444301.7, -147726.31, 92432.43, 0.100587025, -0.12331778, 458397.44, 458397.44, 0.0012601693, 10.004568, 9.996752 
1.8654616e+3, 3.1290025e+2, 395043.22, 25331.768, -104951.36, 0.09609386, 0.07473653, 422758.5, 422758.5, 0.0023303956, 10.003322, 9.998527 
1.8746504e+3, 1.228766e+2, -2242570.8, -1748272.9, -210034.38, -0.15326238, 0.057250526, -1671080.9, 64734.64, 0.14588223, 9.995318, 10.002054 
1.874701e+3, 1.3287775e+2, -1904710.5, -1540420.5, 99612.1, 0.5014048, -0.0341683, -1514961.6, 122838.67, 0.0986057, 9.997051, 10.001983 
1.8747386e+3, 1.4288011e+2, -1761086.3, -1525368.3, -37688.457, -0.023064084, 0.04153817, -1519489.0, 20285.234, 0.053927336, 9.997801, 10.001002 
1.874781e+3, 1.5288107e+2, -1618477.3, -1432422.8, -13806.2705, 0.109227575, 0.031248488, -1431403.8, 10362.99, 0.021407956, 9.998246, 10.000736 
1.8748234e+3, 1.628811e+2, -1541708.3, -1481725.1, 37211.547, 0.17117135, 0.030024672, -1463923.5, -120156.42, 0.0050250688, 9.998691, 9.999507 
1.8748659e+3, 1.7287976e+2, -1371182.5, -1347023.1, 37204.547, 0.07042311, -0.08042282, -1319986.4, -74209.164, 0.00038988978, 9.999207, 9.999493 
1.8749084e+3, 1.8287857e+2, -1273341.5, -1338667.4, -19065.332, -0.010265314, -0.098864906, -1268184.5, -120396.89, 0.000000733184, 9.999566, 9.998726 
1.8749514e+3, 1.9287807e+2, -1150084.8, -1218007.8, 2863.4834, 0.0043454203, -0.052833937, -1149964.3, -100169.14, 0.0, 9.999723, 9.99879 
1.8749943e+3, 2.0287718e+2, -1029677.06, -1167025.3, -11920.613, -0.00016416615, 0.018151682, -1028650.1, -76844.52, 0.0, 10.000081, 9.998316 
1.8750371e+3, 2.1287549e+2, -809125.3, -990464.0, -41814.75, -0.039647024, -0.02410912, -799947.75, 53874.08, 0.0, 10.0008745, 9.998453 
1.87508e+3, 2.228743e+2, -604431.7, -716248.6, -79459.055, -0.07337248, -0.010406029, -563183.06, 192648.72, 0.0, 10.001047, 9.9996 
1.8751231e+3, 2.328745e+2, -579262.7, -574742.5, -1455.5009, -0.05253227, -0.037504174, -574314.4, 83511.42, 0.0, 10.000244, 10.000258 
1.8751661e+3, 2.4287431e+2, -638481.0, -757738.44, 16808.254, -0.019747779, 0.008588518, -636157.3, -76332.41, 0.0, 10.000011, 9.99846 
1.8752089e+3, 2.528729e+2, -359110.0, -585562.7, 17581.246, 0.031258978, 0.008083387, -357753.16, 104085.88, 0.0, 10.0013485, 9.998303 
1.8752517e+3, 2.628707e+2, -187867.05, -551725.56, -13705.642, 0.06579575, 0.0074784514, -187351.53, 176510.5, 0.00000004605578, 10.002237, 9.997465 
1.8752939e+3, 2.728676e+2, -76828.9, -437657.3, 23268.031, 0.07501063, -0.08605635, -75334.65, 190559.97, 0.000008319171, 10.002304, 9.99753 
1.875336e+3, 2.8286558e+2, 22909.8, -416332.5, 726.2922, 0.10674487, 0.009143273, 22911.002, 190826.17, 0.00010877432, 10.002631, 9.996851 
1.8753785e+3, 2.9286432e+2, 302182.13, -197202.61, -11669.411, 0.19791245, 0.14445704, 302454.66, 372380.78, 0.00047256332, 10.003761, 9.99712 
1.8754199e+3, 3.028587e+2, 295384.06, -334352.53, 40940.04, 0.05035767, -0.052902028, 298034.47, 298034.47, 0.0011935966, 10.004059, 9.995709 
1.8754655e+3, 3.1285542e+2, 196308.23, -199319.33, -89682.36, 0.09456456, 0.0013510507, 215688.42, 215688.42, 0.0021831873, 10.002555, 9.997338 
1.8846475e+3, 1.2283285e+2, -1994640.3, -1665867.0, -127263.88, -0.035933256, -0.026875513, -1622361.8, 113881.375, 0.15411249, 9.997084, 10.001854 
1.8846965e+3, 1.3283455e+2, -1981368.6, -1581115.1, 32674.658, 0.40722373, -0.06816517, -1578465.3, 59759.563, 0.10442951, 9.996526, 10.001929 
1.8847366e+3, 1.4283846e+2, -1923299.0, -1610361.8, -41529.79, 0.056803428, 0.1712361, -1604944.1, -64759.016, 0.057399224, 9.996761, 10.000888 
1.8847796e+3, 1.528389e+2, -1608162.9, -1420372.8, -86689.66, 0.16106752, 0.107446514, -1386473.5, 55709.156, 0.023018045, 9.998344, 10.000742 
1.8848227e+3, 1.6283855e+2, -1460763.0, -1465636.4, -32541.787, 0.21303932, 0.07631376, -1430566.8, -86380.27, 0.005521801, 9.999328, 9.999315 
1.8848658e+3, 1.7283721e+2, -1325102.8, -1349023.8, -4430.4937, 0.13526922, -0.012824501, -1324308.6, -78111.734, 0.0004532519, 9.999613, 9.999291 
1.8849088e+3, 1.8283595e+2, -1226348.6, -1318920.0, 11329.747, 0.08008878, -0.02610805, -1224982.1, -76774.75, 0.0000010252129, 9.999902, 9.998692 
1.8849519e+3, 1.9283487e+2, -984102.44, -1132601.3, -6375.839, 0.052491453, -0.044663787, -983829.2, 66389.17, 0.0, 10.000837, 9.998827 
1.884995e+3, 2.0283355e+2, -892790.8, -1120885.0, -3256.41, 0.024857322, -0.014521687, -892744.3, 59487.793, 0.0, 10.001118, 9.99813 
1.8850377e+3, 2.1283157e+2, -917695.25, -1069542.6, 7538.9805, -0.02379596, -0.055655673, -917321.9, -63069.277, 0.0, 10.000247, 9.998214 
1.8850806e+3, 2.2283047e+2, -784489.06, -789026.6, 15194.427, -0.03534554, -0.025518604, -771394.94, -15132.194, 0.0, 9.999764, 9.999705 
1.8851237e+3, 2.3283139e+2, -535390.94, -536462.8, -56316.098, -0.007805527, 0.0063247113, -479608.22, 178640.64, 0.0, 10.000474, 10.00041 
1.885167e+3, 2.4283141e+2, -474006.56, -671686.1, -60535.742, 0.034011196, 0.060685657, -456941.75, 103303.414, 0.0, 10.001123, 9.998508 
1.8852107e+3, 2.5282893e+2, -326109.4, -579151.75, -70729.27, 0.06675903, -0.04149565, -307681.5, 154586.86, 0.0, 10.001612, 9.998224 
1.8852541e+3, 2.628261e+2, -199076.13, -534990.44, -81927.29, 0.09267068, -0.10385383, -180159.83, 184136.05, 0.000000017635879, 10.002098, 9.997628 
1.885296e+3, 2.7282357e+2, 9356.063, -361942.97, -114071.19, 0.064957544, -0.16055894, 41600.97, 307922.63, 0.000007223604, 10.00279, 9.99779 
1.8853387e+3, 2.8282195e+2, 107142.92, -367326.97, -94749.555, 0.10498675, -0.041865595, 125364.23, 293702.2, 0.00010058898, 10.0032015, 9.996902 
1.8853824e+3, 2.9282054e+2, 216429.52, -245252.6, -100616.086, 0.2639592, 0.08318555, 237404.25, 307755.56, 0.0004433926, 10.003203, 9.997055 
1.8854232e+3, 3.0281553e+2, 241592.0, -293191.13, 40038.426, 0.046783157, -0.07821599, 244573.0, 244573.0, 0.0011175777, 10.003343, 9.996376 
1.8854696e+3, 3.128124e+2, 304709.38, -127012.38, -59587.355, 0.22458518, -0.081545115, 312782.8, 312782.8, 0.0020294136, 10.003189, 9.997548 
1.8946476e+3, 1.22789375e+2, -2151782.0, -2054766.5, 72738.016, 0.17674519, 0.05725709, -2015845.4, -279181.25, 0.16258536, 9.997377, 9.998942 
1.8946896e+3, 1.3279068e+2, -1929743.6, -1491451.8, 23639.883, 0.02695393, -0.07370071, -1490180.4, 148473.52, 0.110513955, 9.996535, 10.002634 
1.8947342e+3, 1.4279416e+2, -1954807.8, -1673760.6, -8438.439, 0.11109359, 0.10565397, -1673507.5, -132886.23, 0.06108175, 9.996762, 10.000447 
1.8947779e+3, 1.5279478e+2, -1654546.1, -1515943.5, -14454.656, 0.115598954, 0.12503059, -1514452.1, -71832.64, 0.024752133, 9.998343, 10.000079 
1.894821e+3, 1.6279526e+2, -1409536.9, -1391828.3, -33390.203, 0.052322544, 0.1994388, -1366138.4, -21521.69, 0.0060684755, 9.999463, 9.999757 
1.8948658e+3, 1.7279488e+2, -1272687.8, -1241872.1, 13126.908, 0.1500235, 0.13444911, -1237038.5, 9577.775, 0.0005270964, 9.999618, 10.000025 
1.89491e+3, 1.8279397e+2, -1220771.5, -1312384.9, 24454.715, 0.18173821, 0.11158269, -1214652.5, -66030.61, 0.0000013718216, 9.999933, 9.998714 
1.8949525e+3, 1.9279227e+2, -1012465.7, -1167803.0, 38186.473, 0.0021621143, 0.046230596, -1003585.94, 47051.465, 0.0, 10.000743, 9.998627 
1.8949953e+3, 2.0279054e+2, -875145.75, -1057585.1, -36483.754, -0.09942745, 0.029317446, -868120.4, 84532.81, 0.0, 10.000988, 9.998634 
1.8950386e+3, 2.1278888e+2, -892214.6, -975782.9, -12365.594, 0.03342535, -0.054418903, -890423.3, -35755.25, 0.0, 10.000059, 9.998953 
1.8950818e+3, 2.2278751e+2, -896572.5, -953390.3, 12959.556, 0.107147954, -0.05813579, -893756.2, -137076.25, 0.0, 9.999472, 9.998715 
1.8951245e+3, 2.32787e+2, -674024.5, -767792.6, -9588.302, 0.008860052, -0.031558804, -673054.1, -14370.869, 0.0, 10.000233, 9.998934 
1.8951674e+3, 2.427857e+2, -532744.44, -729671.2, -55418.082, -0.07248471, -0.0060936576, -518220.22, 42473.48, 0.0, 10.000832, 9.998258 
1.8952109e+3, 2.5278255e+2, -352644.72, -576850.1, -36501.027, -0.08228259, -0.1883024, -346851.94, 115869.75, 0.0, 10.001362, 9.998362 
1.8952547e+3, 2.6277962e+2, -251508.22, -576495.75, -72798.34, -0.0723195, -0.2600753, -235946.31, 128802.51, 0.0000000071100716, 10.001805, 9.997484 
1.8952982e+3, 2.72778e+2, -52248.47, -410120.06, -68134.69, -0.018106874, -0.2123375, -39715.33, 227050.84, 0.0000064443307, 10.002456, 9.997617 
1.8953419e+3, 2.827766e+2, 80970.78, -332530.25, -110198.34, 0.06776565, -0.08380248, 108505.24, 277286.25, 0.0000894982, 10.002808, 9.9973345 
1.8953854e+3, 2.9277426e+2, 189742.63, -209708.63, -70018.81, 0.2105243, -0.113341026, 201660.47, 272463.8, 0.00040206578, 10.0028, 9.9975 
1.8954249e+3, 3.027715e+2, 311688.84, -30353.488, 20668.781, -0.15180382, -0.1535895, 312933.28, 312933.28, 0.0010247865, 10.002875, 9.998385 
1.8954727e+3, 3.1277084e+2, 244586.03, -50479.746, 42602.6, 0.17440797, -0.14486279, 250613.98, 250613.98, 0.001871534, 10.002401, 9.998423 
1.9046448e+3, 1.2274366e+2, -2319233.3, -2168804.0, 128187.805, 0.22408222, 0.017054688, -2095393.8, -358283.78, 0.1713416, 9.99645, 9.998565 
1.9046855e+3, 1.3274655e+2, -1853805.9, -1417048.8, -59205.773, -0.037440624, -0.024227817, -1409165.3, 229920.48, 0.11689223, 9.996912, 10.003006 
1.9047324e+3, 1.4274937e+2, -1878908.0, -1681371.1, -42189.16, 0.23969656, 0.102915145, -1672737.9, -131677.78, 0.06499328, 9.997428, 10.000102 
1.904776e+3, 1.5274934e+2, -1682648.1, -1542034.6, -35476.355, 0.12810329, 0.067455284, -1533591.0, -90526.71, 0.026617203, 9.998153, 10.000024 
1.9048195e+3, 1.6274998e+2, -1525419.8, -1438479.1, -22461.977, 0.020449726, 0.15993583, -1433018.9, -87958.63, 0.0066676727, 9.998642, 9.999834 
1.9048654e+3, 1.7275026e+2, -1266285.5, -1218417.8, -53703.395, 0.16974285, 0.14884986, -1183556.4, 63498.445, 0.0006122247, 9.999596, 10.000185 
1.9049104e+3, 1.8274972e+2, -1201319.0, -1272989.0, -51078.656, 0.24288654, 0.14305846, -1174758.8, -25700.996, 0.0000017786746, 9.999946, 9.998985 
1.9049528e+3, 1.9274804e+2, -1176814.5, -1213758.8, -36417.836, 0.027181407, 0.05735868, -1154451.9, -103379.74, 0.0, 9.999477, 9.998934 
1.9049953e+3, 2.0274657e+2, -1099988.6, -1127255.5, -69840.164, -0.07831142, 0.03749298, -1042463.6, -89378.836, 0.0, 9.999309, 9.998945 
1.9050391e+3, 2.1274553e+2, -826130.8, -909593.0, -112279.79, 0.07101424, -0.013931056, -748077.75, 107015.78, 0.0, 10.000388, 9.999233 
1.9050825e+3, 2.227442e+2, -678263.8, -891490.6, -53050.367, 0.15813583, -0.014639741, -665794.25, 91310.81, 0.0, 10.001132, 9.998351 
1.9051254e+3, 2.3274237e+2, -581357.75, -789150.1, -35681.277, 0.050737098, -0.06670561, -575401.44, 83719.77, 0.0, 10.001122, 9.998371 
1.9051686e+3, 2.4274044e+2, -512215.53, -749531.75, -7607.2817, -0.029455716, -0.062247038, -511971.94, 49166.734, 0.0, 10.00113, 9.997961 
1.9052124e+3, 2.5273806e+2, -338747.66, -591495.2, -45714.637, -0.066429324, -0.14274395, -330733.34, 132428.14, 0.0, 10.001567, 9.998148 
1.9052564e+3, 2.6273572e+2, -235206.44, -546078.3, -62622.36, -0.062595926, -0.15284277, -223065.86, 142117.94, 0.000000016068412, 10.00179, 9.997711 
1.9053003e+3, 2.727339e+2, -150629.9, -429020.16, -62637.855, 0.013026458, -0.15319282, -137185.64, 130014.95, 0.000006020835, 10.0015955, 9.997927 
1.9053444e+3, 2.8273204e+2, -54612.19, -354638.0, -36882.516, 0.12744428, -0.106083244, -50144.703, 119073.46, 0.00007835106, 10.001668, 9.997741 
1.9053882e+3, 2.9272956e+2, 197022.08, -150937.2, -53204.42, 0.24268213, -0.19145188, 204975.45, 276217.47, 0.00035541714, 10.002618, 9.997983 
1.9054277e+3, 3.0272847e+2, 439225.6, 69484.305, 26572.777, -0.16002099, -0.1109077, 441125.6, 441125.6, 0.0009238466, 10.003596, 9.998729 
1.905477e+3, 3.1272724e+2, 514655.94, 35331.08, -144162.02, 0.30440122, -0.17023505, 554673.25, 554673.25, 0.0017193768, 10.004366, 9.998111 
1.9146384e+3, 1.2269534e+2, -2149522.5, -1817554.5, -68064.96, -0.12242323, -0.18663947, -1804140.9, -66555.67, 0.18042894, 9.996471, 10.000951 
1.9146845e+3, 1.3270164e+2, -1860874.4, -1435762.9, -26120.563, 0.15367566, 0.053679176, -1434163.9, 205361.08, 0.12358676, 9.996933, 10.002857 
1.9147304e+3, 1.4270374e+2, -1856931.9, -1683921.0, -40486.39, 0.23860513, 0.15648772, -1674915.5, -133410.47, 0.069141634, 9.997632, 9.999988 
1.9147737e+3, 1.5270248e+2, -1631254.0, -1437480.5, -2205.1516, 0.045598872, -0.06363303, -1437455.4, 6062.4497, 0.028615344, 9.998161, 10.000737 
1.9148177e+3, 1.6270274e+2, -1533472.8, -1476383.9, -8677.834, -0.04926734, -0.04344714, -1475093.9, -129577.53, 0.0073205116, 9.998729, 9.99953 
1.914864e+3, 1.7270334e+2, -1310766.0, -1305435.4, -8293.385, 0.056119744, 0.031414077, -1299389.6, -51877.242, 0.00070924795, 9.999572, 9.999596 
1.9149092e+3, 1.8270314e+2, -1164498.8, -1208004.9, -78676.414, 0.09479515, 0.0815615, -1104623.5, 44891.484, 0.0000023137907, 9.999986, 9.999417 
1.9149521e+3, 1.9270217e+2, -1136710.5, -1106094.8, -45189.434, 0.003989653, -0.00610767, -1073690.8, -22168.408, 0.0, 9.999368, 9.999728 
1.9149952e+3, 2.027015e+2, -1123863.6, -1143781.5, -56970.047, -0.066958286, 0.00522509, -1075988.6, -122460.56, 0.0, 9.999157, 9.998906 
1.9150385e+3, 2.1270141e+2, -872426.1, -958871.75, -58472.465, -0.042584065, 0.06895837, -842935.5, 12594.488, 0.0, 10.000178, 9.998996 
1.915082e+3, 2.2270049e+2, -705105.3, -876270.0, -56936.66, -0.025326107, 0.11013762, -687896.0, 69642.63, 0.0, 10.000824, 9.998608 
1.9151261e+3, 2.3269764e+2, -593600.9, -748474.5, -21547.371, -0.0032853321, -0.078570664, -590658.9, 68902.664, 0.0, 10.000851, 9.998779 
1.9151701e+3, 2.4269544e+2, -586106.1, -832166.8, -8980.48, -0.0027565644, -0.10624349, -585778.8, -24197.64, 0.0, 10.000819, 9.997547 
1.9152144e+3, 2.5269514e+2, -420998.84, -700187.4, -9519.905, -0.041198604, 0.07978509, -420674.63, 42915.242, 0.0, 10.001301, 9.997529 
1.9152585e+3, 2.6269415e+2, -247609.64, -500271.28, -80140.86, -0.060308997, 0.2238301, -224334.2, 141267.73, 0.000000038925435, 10.001475, 9.998184 
1.915302e+3, 2.7269113e+2, -135712.95, -333004.1, -50824.77, 0.00013905637, 0.025764044, -123389.586, 144236.02, 0.0000054500297, 10.001322, 9.998716 
1.9153461e+3, 2.8268814e+2, -79148.72, -334656.0, -28413.486, 0.09060626, -0.096343644, -76027.16, 93623.336, 0.00006657065, 10.001363, 9.998026 
1.9153903e+3, 2.9268607e+2, 148424.94, -160976.27, 9063.278, 0.17842264, -0.16061153, 148690.2, 220361.0, 0.0003045757, 10.0022335, 9.9981 
1.9154313e+3, 3.026863e+2, 289517.7, -140332.83, 32563.041, -0.20197035, 0.09229668, 291970.47, 291970.47, 0.0008128925, 10.003164, 9.997484 
1.9154793e+3, 3.126835e+2, 308945.25, -177814.8, -6048.475, 0.057259332, 0.006592037, 309020.38, 309020.38, 0.0015555571, 10.003505, 9.997026 
1.9246362e+3, 1.2265211e+2, -2083846.3, -1614226.4, 12733.976, 0.05278158, -0.02108723, -1613881.4, 124127.086, 0.18987963, 9.996031, 10.002776 
1.9246826e+3, 1.326564e+2, -1745265.0, -1504543.6, -1312.6631, 0.21639104, 0.080858216, -1504536.5, 135430.39, 0.13060497, 9.998267, 10.001698 
1.9247285e+3, 1.4265668e+2, -1773211.6, -1654509.4, -29214.346, 0.2834339, 0.08640193, -1647708.9, -105744.04, 0.07352615, 9.998272, 9.9998665 
1.924772e+3, 1.5265627e+2, -1610884.6, -1375403.1, -45546.695, 0.091287054, -0.092217386, -1366900.5, 77067.39, 0.030745408, 9.99809, 10.001197 
1.9248167e+3, 1.6265668e+2, -1610122.9, -1500069.3, -1557.7793, 0.013823165, -0.08701986, -1500047.3, -154083.05, 0.008026891, 9.998157, 9.999635 
1.9248633e+3, 1.7265731e+2, -1358978.3, -1326986.6, 20054.973, 0.05831858, -0.014325648, -1317329.6, -69367.98, 0.0008187495, 9.999234, 9.999613 
1.9249089e+3, 1.8265745e+2, -1171190.0, -1181981.1, -28633.674, 0.09659102, 0.057298653, -1147448.0, 2514.4011, 0.0000031359323, 9.999779, 9.999704 
1.924952e+3, 1.926571e+2, -1050990.1, -1019867.8, -59791.99, 0.06504464, -0.0132583855, -973645.2, 78318.9, 0.0, 9.999724, 10.000151 
1.9249953e+3, 2.0265694e+2, -1020598.56, -1066418.9, -17857.586, 0.036623597, 0.010387719, -1014461.06, -60496.29, 0.0, 9.999743, 9.999161 
1.925039e+3, 2.1265712e+2, -817650.8, -911370.75, -4070.7007, -0.0015882273, 0.08282162, -817474.3, 38489.82, 0.0, 10.0004635, 9.999189 
1.925083e+3, 2.2265637e+2, -691969.6, -866516.5, 13593.378, -0.0030732262, 0.13206494, -690917.3, 67053.67, 0.0, 10.000934, 9.998609 
1.9251274e+3, 2.3265344e+2, -570940.25, -742565.94, -26368.738, 0.04007177, -0.059151694, -566980.3, 93015.375, 0.0, 10.001046, 9.998719 
1.9251716e+3, 2.4265124e+2, -518236.22, -767856.44, 19967.664, 0.070255436, -0.09719392, -516649.06, 45366.547, 0.0, 10.0011215, 9.997851 
1.925216e+3, 2.5265127e+2, -395319.47, -648873.25, 64443.59, 0.022280617, 0.086622, -379880.47, 84139.04, 0.0, 10.001279, 9.99791 
1.9252603e+3, 2.626506e+2, -240663.67, -469510.3, 59330.875, 0.006248352, 0.22723305, -226196.14, 139831.44, 0.000000047147957, 10.001424, 9.998411 
1.9253036e+3, 2.726477e+2, -74572.625, -284836.22, 3864.4146, 0.03348467, 0.024866791, -74501.625, 193548.73, 0.0000044268, 10.001672, 9.998877 
1.9253477e+3, 2.8264484e+2, -1773.8063, -317225.97, 42699.027, 0.11028907, -0.08813856, 3903.6729, 173978.14, 0.000054025306, 10.002005, 9.997821 
1.925393e+3, 2.9264286e+2, 218301.14, -175485.88, 9303.37, 0.2108328, -0.10584515, 218520.81, 290615.63, 0.0002523606, 10.002906, 9.997676 
1.9254357e+3, 3.0264157e+2, 336175.44, -157291.33, 74943.5, -0.07636206, 0.040419396, 347306.16, 347306.16, 0.0006949562, 10.003639, 9.997146 
1.9254833e+3, 3.1263998e+2, 383890.4, -106830.05, 48330.887, 0.1245354, 0.10964932, 388605.2, 388605.2, 0.0013694268, 10.003784, 9.997417 
1.9346343e+3, 1.22608915e+2, -1979495.6, -1457213.1, -60097.273, 0.18085732, -0.00437904, -1450387.1, 288042.03, 0.1997211, 9.996119, 10.004097 
1.9346775e+3, 1.3261054e+2, -1900889.6, -1805141.5, 32778.188, -0.13394754, 0.026643112, -1794995.4, -154581.34, 0.13795441, 9.998263, 9.999496 
1.9347264e+3, 1.4260842e+2, -1757026.9, -1661750.4, -55907.695, 0.18770853, -0.085955665, -1635937.5, -93499.93, 0.07814733, 9.998436, 9.999743 
1.934771e+3, 1.5261073e+2, -1591695.9, -1354999.6, -43965.215, 0.14629877, -0.0025325953, -1347097.1, 97317.055, 0.033007, 9.998151, 10.001325 
1.9348155e+3, 1.6261172e+2, -1555501.6, -1408493.1, 11954.259, 0.033452347, 0.03216579, -1407527.4, -61122.6, 0.008786739, 9.998241, 10.000228 
1.9348627e+3, 1.7261212e+2, -1307742.4, -1223910.1, 71807.22, 0.051842798, 0.012506731, -1182680.4, 65723.05, 0.00094156526, 9.999239, 10.000326 
1.934909e+3, 1.8261264e+2, -1146719.0, -1138722.5, -37822.35, 0.076834686, 0.06486521, -1104687.6, 45712.15, 0.0000044945964, 9.999813, 9.999984 
1.9349521e+3, 1.9261299e+2, -1061394.9, -1020634.56, -50807.26, 0.0811287, 0.053329043, -986272.4, 66123.09, 0.0, 9.999627, 10.000198 
1.9349958e+3, 2.0261304e+2, -1007578.5, -1002718.5, -14934.844, 0.06673948, 0.0766442, -990017.25, -35623.496, 0.0, 9.999584, 9.999675 
1.9350404e+3, 2.126127e+2, -811025.44, -839752.0, 36009.457, 0.06243379, 0.037645083, -786620.4, 69775.05, 0.0, 10.000218, 9.999798 
1.9350848e+3, 2.2261176e+2, -764917.1, -935894.2, 7391.0254, 0.051653817, 0.0415775, -764598.25, -6194.581, 0.0, 10.000585, 9.998299 
1.9351284e+3, 2.3260961e+2, -648897.1, -846222.3, -7223.3555, 0.038276788, -0.014455777, -648633.0, 11792.242, 0.0, 10.000795, 9.998127 
1.9351725e+3, 2.4260774e+2, -497672.7, -655059.8, 8504.713, 0.015068739, -0.018786998, -497214.44, 65228.59, 0.0, 10.000815, 9.998778 
1.9352172e+3, 2.526065e+2, -334315.94, -461721.97, 82993.64, -0.0032492108, -0.095686324, -293395.72, 171055.16, 0.0, 10.001022, 9.99932 
1.9352618e+3, 2.626051e+2, -299429.1, -506255.78, 47203.457, -0.017823076, -0.113551386, -289165.34, 77296.49, 0.00000001782158, 10.001067, 9.998327 
1.9353049e+3, 2.726035e+2, -156926.47, -377455.9, 26061.752, -0.026727611, -0.13812234, -153888.39, 114588.33, 0.0000033385966, 10.001359, 9.99838 
1.935349e+3, 2.8260213e+2, -97543.9, -454473.97, 40991.867, 0.004854914, -0.042675693, -92896.67, 77593.83, 0.00004416703, 10.001726, 9.99702 
1.9353954e+3, 2.9259992e+2, 116403.89, -308652.22, 62820.06, 0.14142905, -0.002049869, 125493.83, 198008.03, 0.00021030588, 10.002579, 9.996916 
1.9354403e+3, 3.0259487e+2, 280943.25, -169521.03, 61752.18, -0.0063356636, -0.19003788, 289255.22, 289255.22, 0.0005915191, 10.003204, 9.997269 
1.9354866e+3, 3.125947e+2, 360862.66, 56539.49, 124951.12, 0.01972635, -0.030748969, 405591.72, 405591.72, 0.0011872258, 10.002948, 9.998909 
1.9446307e+3, 1.2256324e+2, -1687683.5, -1320700.1, -97829.83, 0.1440785, -0.15334806, -1296249.8, 442627.16, 0.20999403, 9.99807, 10.004373 
1.9446744e+3, 1.3256511e+2, -2087740.5, -2035094.5, 38280.992, -0.20763212, 0.030087002, -2014959.6, -374100.56, 0.14565058, 9.997557, 9.998279 
1.9447249e+3, 1.425618e+2, -1706682.0, -1629975.3, 15018.683, 0.21197525, -0.14707084, -1627139.5, -84245.17, 0.083007626, 9.998724, 9.999842 
1.9447698e+3, 1.5256506e+2, -1506873.4, -1306404.0, -29870.922, 0.2063996, 0.021491325, -1302047.8, 142813.56, 0.03539992, 9.998684, 10.001421 
1.9448139e+3, 1.625663e+2, -1560766.6, -1383878.8, 64697.207, 0.08300934, 0.06249482, -1362741.4, -15892.73, 0.009600047, 9.998085, 10.000479 
1.9448613e+3, 1.7256647e+2, -1498157.9, -1286392.3, 69955.46, 0.085791826, -0.0050553624, -1265369.9, -16521.527, 0.0010784023, 9.997806, 10.000588 
1.944908e+3, 1.8256696e+2, -1428172.0, -1265757.9, -39294.168, 0.13260986, 0.025070744, -1256750.6, -105906.29, 0.0000066792873, 9.997869, 10.000043 
1.9449519e+3, 1.9256732e+2, -1122102.8, -1047472.94, -88793.83, 0.120340295, 0.017728271, -988472.0, 64368.664, 0.0, 9.999245, 10.000184 
1.9449958e+3, 2.025674e+2, -915856.4, -941985.5, -47660.156, 0.113957815, 0.041999377, -879502.56, 75336.54, 0.0, 10.000153, 9.999818 
1.945041e+3, 2.1256703e+2, -797075.25, -809948.5, -59318.918, 0.13237095, -0.016186778, -743844.75, 112996.25, 0.0, 10.000221, 10.0 
1.9450858e+3, 2.2256635e+2, -782357.06, -918979.7, -63375.73, 0.13949782, -0.007594109, -757486.2, 1360.8301, 0.0, 10.000333, 9.99854 
1.9451293e+3, 2.3256506e+2, -632707.06, -812941.0, -44572.27, 0.08004279, -0.0009889819, -622286.7, 38574.953, 0.0, 10.000777, 9.998376 
1.9451734e+3, 2.4256372e+2, -462524.03, -600426.2, 14105.226, 0.04752554, 0.021440404, -461096.06, 101778.266, 0.0, 10.000926, 9.999093 
1.9452184e+3, 2.52562e+2, -370450.0, -450773.03, -26185.217, 0.04892587, -0.13373776, -362667.7, 102217.164, 0.0, 10.000659, 9.999567 
1.9452631e+3, 2.6255998e+2, -356855.06, -566610.6, -64858.734, 0.056675076, -0.21078247, -338420.22, 28480.332, 0.000000002142629, 10.00079, 9.998053 
1.945307e+3, 2.725584e+2, -98858.61, -408258.44, -108524.2, 0.026111903, -0.19118288, -64588.77, 204330.2, 0.0000030022966, 10.001971, 9.997893 
1.9453515e+3, 2.8255722e+2, 64449.91, -380441.34, -40639.527, 0.04617885, -0.037833642, 68131.74, 239064.25, 0.00003904193, 10.002843, 9.997002 
1.9453982e+3, 2.925557e+2, 204219.3, -246372.63, -2675.3142, 0.15031086, 0.06375637, 204235.17, 277183.4, 0.00018459432, 10.003073, 9.997121 
1.945444e+3, 3.0254948e+2, 298430.88, -162865.97, 66880.82, 0.070218764, -0.25262526, 307931.84, 307931.84, 0.00051477127, 10.003351, 9.997231 
1.9454898e+3, 3.1254908e+2, 505052.7, 134324.34, -3654.6694, 0.032632697, -0.09014075, 505088.72, 505088.72, 0.0010271312, 10.003842, 9.999039 
1.954628e+3, 1.2251954e+2, -1687492.4, -1408173.8, -149017.4, -0.039879527, -0.038220696, -1343600.6, 395707.6, 0.22070916, 9.998475, 10.003502 
1.9546737e+3, 1.3252033e+2, -2072697.0, -2039809.9, 102404.805, -0.07069254, 0.09942238, -1952536.8, -311237.13, 0.15369554, 9.997687, 9.998196 
1.9547237e+3, 1.4251706e+2, -1656601.3, -1567619.3, 26391.822, 0.16379184, -0.09880407, -1560380.4, -17047.49, 0.08810495, 9.998906, 10.000179 
1.9547679e+3, 1.5251927e+2, -1501486.9, -1308474.1, -23428.047, 0.1194935, -0.035277557, -1305671.1, 139637.52, 0.037922986, 9.998732, 10.0013895 
1.9548112e+3, 1.6252033e+2, -1550052.3, -1392591.3, 30345.559, -0.024802178, -0.008065347, -1386945.6, -39649.42, 0.010466628, 9.998214, 10.000359 
1.9548589e+3, 1.7252035e+2, -1514392.1, -1327770.9, 70093.92, 0.035374824, -0.06726395, -1304376.5, -55080.254, 0.0012294218, 9.997827, 10.0002985 
1.954906e+3, 1.8252034e+2, -1436589.8, -1290589.9, -13718.449, 0.096915215, -0.061709214, -1289312.0, -138015.25, 0.000009908067, 9.997905, 9.999851 
1.9549505e+3, 1.9252001e+2, -1149371.4, -1080837.8, -24065.725, 0.049770657, -0.11801557, -1073231.3, -19930.61, 0.0, 9.999146, 10.000001 
1.9549952e+3, 2.0251976e+2, -959736.06, -991887.4, -50151.64, 0.012902403, -0.106967255, -923146.6, 32157.092, 0.0, 9.999971, 9.999562 
1.9550408e+3, 2.1251997e+2, -846836.8, -861250.6, -44686.754, 0.071369566, -0.082282834, -808779.56, 48522.51, 0.0, 10.0, 9.999751 
1.955086e+3, 2.2252005e+2, -772709.6, -828491.5, -62435.62, 0.092394605, -0.0148654, -732218.44, 27083.46, 0.0, 10.000023, 9.999313 
1.95513e+3, 2.3251978e+2, -592660.5, -668978.56, -13911.217, 0.03107533, -0.013795748, -590203.9, 71100.94, 0.0, 10.000525, 9.99948 
1.955174e+3, 2.4251917e+2, -538489.6, -682006.9, -4616.817, -0.014040597, 0.028608082, -538341.25, 24968.566, 0.0, 10.0006, 9.998688 
1.955219e+3, 2.5251752e+2, -465921.6, -591766.1, -20488.98, 0.036194544, -0.038986452, -462669.78, 2652.5662, 0.0, 10.000421, 9.998705 
1.9552642e+3, 2.6251537e+2, -436378.75, -664990.25, -49857.086, 0.059423245, -0.058698945, -425978.72, -58636.83, 0.00000003752054, 10.000495, 9.997523 
1.955309e+3, 2.7251253e+2, -164078.97, -485100.25, -44516.05, 0.03995722, -0.1255616, -158020.27, 111353.93, 0.0000033251551, 10.001723, 9.997483 
1.9553545e+3, 2.8251055e+2, 39232.137, -338960.1, -43539.42, 0.036453675, -0.042434957, 44179.887, 215575.48, 0.000036409245, 10.002446, 9.997475 
1.9554007e+3, 2.9251048e+2, 210817.86, -131837.8, 30068.133, 0.07428504, 0.118503556, 213436.34, 286830.13, 0.00016708692, 10.002655, 9.998099 
1.9554465e+3, 3.0250543e+2, 203508.33, -252017.69, 54323.902, -0.058809087, -0.13045596, 209897.14, 209897.14, 0.00045041088, 10.002865, 9.996865 
1.9554937e+3, 3.1250277e+2, 355035.1, -17243.814, 42933.473, -0.020714846, -0.12563097, 359922.28, 359922.28, 0.0008724613, 10.0032015, 9.998282 
1.9646262e+3, 1.22473486e+2, -1807896.6, -1597397.0, -106244.516, -0.03179593, 0.029148726, -1553096.1, 186661.7, 0.23177752, 9.998422, 10.001853 
1.9646733e+3, 1.3247418e+2, -1880662.0, -1815255.4, 28191.057, 0.100734755, 0.100394204, -1804781.8, -163030.05, 0.1620495, 9.99854, 9.9992695 
1.9647214e+3, 1.4247222e+2, -1943361.1, -1697215.4, 44399.14, 0.16467305, -0.03864779, -1689451.6, -145679.77, 0.093428105, 9.996927, 10.000218 
1.9647662e+3, 1.5247346e+2, -1609749.8, -1397098.4, -62255.406, 0.12851243, -0.04096728, -1380213.3, 65544.9, 0.04057487, 9.99818, 10.000999 
1.9648106e+3, 1.6247386e+2, -1427369.4, -1342790.5, -16171.15, 0.06388384, -0.058842987, -1339804.0, 7948.9316, 0.011385711, 9.999103, 10.00027 
1.9648577e+3, 1.7247419e+2, -1302666.3, -1222282.8, 8976.9795, 0.078251906, -0.08276717, -1221292.5, 28455.979, 0.0013940044, 9.999279, 10.000317 
1.9649044e+3, 1.8247446e+2, -1251281.1, -1220566.6, -9110.06, 0.11027293, -0.047689263, -1218067.9, -66322.055, 0.000014255441, 9.999255, 9.999684 
1.9649501e+3, 1.9247384e+2, -1130669.1, -1101153.4, -44394.484, 0.08958418, -0.10814837, -1069128.1, -15374.413, 0.0, 9.999395, 9.999743 
1.9649954e+3, 2.024734e+2, -1023069.56, -1010492.25, -56841.22, 0.07298352, -0.103810154, -959592.9, -3833.3462, 0.0, 9.99947, 9.999677 
1.9650401e+3, 2.1247375e+2, -899381.1, -862659.2, -48862.37, 0.06022668, -0.08753995, -828821.9, 28934.084, 0.0, 9.99951, 9.999984 
1.9650853e+3, 2.2247407e+2, -790753.1, -814999.94, -7456.664, 0.06537692, -0.018174523, -788643.5, -28890.549, 0.0, 9.999809, 9.999512 
1.9651306e+3, 2.3247404e+2, -495946.34, -609572.25, -52647.563, 0.049423784, -0.0044062342, -475303.0, 186450.58, 0.0, 10.0011215, 9.999607 
1.9651757e+3, 2.4247338e+2, -356114.84, -626595.9, -94506.08, 0.056108553, 0.035134226, -326366.28, 237393.52, 0.0, 10.0019455, 9.9984455 
1.9652203e+3, 2.5247154e+2, -364610.28, -587351.1, -122100.41, 0.078645594, -0.013777509, -310717.63, 155058.23, 0.0, 10.001285, 9.998342 
1.9652651e+3, 2.6246944e+2, -354669.75, -622077.7, -34461.49, 0.09140684, -0.0012249236, -350300.0, 17495.62, 0.00000006167767, 10.0010605, 9.997543 
1.965311e+3, 2.724669e+2, -96952.23, -442864.06, -22862.14, 0.058632646, -0.0409428, -95447.76, 174376.84, 0.000003603985, 10.00216, 9.997555 
1.9653572e+3, 2.8246474e+2, 104229.67, -269323.94, -7992.1978, 0.075647116, 0.0034768654, 104400.586, 276248.06, 0.00003430298, 10.002732, 9.997814 
1.9654037e+3, 2.9246408e+2, 148875.67, -129290.98, -22017.639, 0.15085544, 0.0809823, 150607.64, 224457.27, 0.00015136057, 10.002084, 9.998406 
1.9654496e+3, 3.024605e+2, 101929.805, -291915.06, 58097.08, 0.03184599, -0.0449376, 110321.07, 110321.07, 0.00039140965, 10.002109, 9.996968 
1.9654965e+3, 3.1245682e+2, 389418.56, 15012.709, -40517.574, -0.021075819, -0.13097067, 393753.13, 393753.13, 0.0007269925, 10.003328, 9.99847 
1.9746247e+3, 1.2242344e+2, -1963394.0, -1956834.3, 252688.06, -0.13744959, -0.13846701, -1707404.8, 32836.027, 0.24301729, 9.998724, 9.998954 
1.974673e+3, 1.3242662e+2, -1701916.4, -1513557.0, -46360.523, 0.18728313, 0.028905971, -1502764.8, 139450.02, 0.17062773, 9.998705, 10.001458 
1.9747172e+3, 1.4242715e+2, -1941623.3, -1714200.1, 33418.34, -0.008911523, 0.0049081747, -1709391.3, -165178.64, 0.09895461, 9.997007, 10.00007 
1.9747643e+3, 1.5242767e+2, -1664533.6, -1515397.6, 480.08, 0.098933525, 0.010090435, -1515396.0, -69186.04, 0.04335473, 9.998208, 10.000162 
1.9748116e+3, 1.6242678e+2, -1403699.4, -1325732.5, -16452.35, 0.20241523, -0.08089052, -1322403.0, 25816.924, 0.012356995, 9.999248, 10.000318 
1.9748573e+3, 1.72428e+2, -1273725.4, -1167430.4, 23423.129, 0.09087761, -0.0466264, -1162497.8, 87707.58, 0.0015709848, 9.999308, 10.00068 
1.974903e+3, 1.8242915e+2, -1254574.0, -1242674.6, -22687.203, 0.009451948, 0.0654934, -1225169.9, -72977.04, 0.000019593592, 9.999312, 9.999512 
1.9749497e+3, 1.9242865e+2, -1164742.0, -1152746.8, -28091.607, 0.09781405, 0.04777024, -1130019.6, -75818.18, 0.0, 9.999313, 9.999431 
1.9749956e+3, 2.0242819e+2, -1018339.9, -956790.7, -66350.37, 0.123302184, 0.051645346, -914425.4, 41782.63, 0.0, 9.999283, 10.000134 
1.9750391e+3, 2.1242847e+2, -879380.3, -769805.9, -35802.93, -0.025413347, -0.013479402, -759144.7, 99057.125, 0.0, 9.999287, 10.000729 
1.9750835e+3, 2.2242858e+2, -873260.44, -911311.5, 14206.485, -0.11382712, 0.0063650357, -868541.6, -108342.875, 0.0, 9.999478, 9.999013 
1.9751316e+3, 2.3242785e+2, -590848.0, -756956.44, 17430.68, 0.012565279, 0.033229686, -589038.6, 73169.45, 0.0, 10.000897, 9.998706 
1.9751783e+3, 2.424265e+2, -416221.75, -679372.56, -116708.61, 0.09404229, 0.066535, -371919.4, 192303.19, 0.0, 10.001629, 9.9982395 
1.9752213e+3, 2.5242415e+2, -384849.34, -587874.7, -134306.67, 0.04272995, -0.037504647, -318007.9, 148235.94, 0.0, 10.001099, 9.998428 
1.9752653e+3, 2.6242223e+2, -379741.22, -603469.44, -25734.557, -0.024199167, -0.026433615, -376819.22, -8557.509, 0.000000055759365, 10.000757, 9.997814 
1.9753122e+3, 2.7242145e+2, -112406.0, -400170.84, 40528.883, -0.054877594, 0.065328136, -106806.84, 163464.55, 0.0000036492006, 10.001843, 9.997991 
1.9753593e+3, 2.8241974e+2, 51258.8, -298485.3, -37495.29, -0.011469197, 0.12508485, 55233.418, 227521.69, 0.00003270768, 10.002372, 9.997796 
1.9754064e+3, 2.9241654e+2, 108965.38, -171144.1, -18543.648, 0.19271557, -0.043813355, 110187.67, 184503.4, 0.00013942833, 10.001899, 9.998211 
1.9754525e+3, 3.0241472e+2, 29996.04, -333516.94, 68743.15, 0.081787266, 0.030699437, 42561.555, 42561.555, 0.00034788318, 10.00168, 9.996874 
1.9755004e+3, 3.1241122e+2, 349477.72, 141768.08, 42566.344, -0.012980671, -0.072986126, 357862.47, 357862.47, 0.0006200003, 10.002486, 9.999717 
1.9846237e+3, 1.2237238e+2, -2360926.3, -2263836.3, 317721.6, 0.044568136, -0.3376123, -1990972.5, -250230.47, 0.25424254, 9.996436, 9.997952 
1.9846709e+3, 1.3237801e+2, -1714299.1, -1332121.3, -108223.336, 0.18918715, -0.0850191, -1303603.1, 339089.16, 0.17932345, 9.997631, 10.003535 
1.984715e+3, 1.4238133e+2, -1727958.0, -1575988.4, 6927.828, 0.045376085, 0.0325533, -1575673.3, -31011.686, 0.104643695, 9.998326, 10.00039 
1.984763e+3, 1.5238227e+2, -1650064.4, -1530893.5, 17817.604, 0.14544594, 0.09080566, -1528286.6, -81629.234, 0.046255346, 9.998402, 9.999974 
1.9848107e+3, 1.623814e+2, -1533312.9, -1408696.5, 44785.83, 0.25323707, 0.019364763, -1394270.8, -45602.07, 0.013380272, 9.998458, 10.000117 
1.9848569e+3, 1.7238179e+2, -1328334.8, -1211991.1, 16933.375, 0.1383243, -0.011630375, -1209576.6, 41085.133, 0.0017591557, 9.99902, 10.000507 
1.9849028e+3, 1.8238252e+2, -1249176.9, -1244676.9, -25298.422, 0.06310704, 0.068472214, -1221528.6, -68875.29, 0.0000256483, 9.999354, 9.999476 
1.9849491e+3, 1.9238256e+2, -1122798.8, -1130331.3, -34387.99, 0.10677395, 0.09807141, -1091971.4, -37314.746, 0.0, 9.999559, 9.999472 
1.9849949e+3, 2.0238237e+2, -973800.6, -947944.75, -40368.996, 0.12568855, 0.13098502, -918484.1, 38176.074, 0.0, 9.999647, 10.000023 
1.9850388e+3, 2.1238224e+2, -791041.5, -748973.2, -108880.74, 0.011050754, 0.04891074, -659113.5, 199544.17, 0.0, 9.999997, 10.000529 
1.9850838e+3, 2.2238192e+2, -752766.25, -849639.44, -46778.098, -0.052769776, 0.036916226, -733865.7, 26792.826, 0.0, 10.000283, 9.999046 
1.985132e+3, 2.3238094e+2, -663595.0, -781607.0, 2239.533, 0.009210205, 0.030396542, -663552.5, -883.233, 0.0, 10.000353, 9.9987955 
1.985179e+3, 2.4237964e+2, -572544.3, -744718.0, -66982.03, 0.07794209, 0.06062714, -549555.3, 15127.529, 0.0, 10.000565, 9.998274 
1.9852228e+3, 2.5237754e+2, -335641.1, -569197.8, -130495.12, 0.07944192, -0.011756933, -277301.88, 189400.66, 0.0, 10.001488, 9.998354 
1.9852673e+3, 2.6237568e+2, -181240.77, -475392.4, 793.0954, 0.06069019, -0.0027489224, -181238.63, 187481.48, 0.00000004684117, 10.0019865, 9.998095 
1.985314e+3, 2.7237454e+2, -149140.58, -379909.4, 25787.324, -0.012736316, 0.024042906, -146294.08, 124436.21, 0.000003631824, 10.001434, 9.99832 
1.9853614e+3, 2.8237277e+2, -49826.734, -324382.16, -2916.637, 0.028115887, 0.050489068, -49795.754, 122950.01, 0.000030883682, 10.001598, 9.997976 
1.9854097e+3, 2.9236954e+2, 337313.2, -56507.164, -19383.875, 0.26759058, -0.12256743, 338264.97, 413038.6, 0.00012822116, 10.003486, 9.998215 
1.9854558e+3, 3.0236772e+2, 414575.47, -128568.336, 88718.55, 0.14354196, -0.057327338, 428699.72, 428699.72, 0.0003141248, 10.004197, 9.997079 
1.9855031e+3, 3.1236568e+2, 269292.63, 95639.93, -35105.63, 0.07294698, -0.028443383, 276121.06, 276121.06, 0.00054965925, 10.00189, 9.999707 
1.9946216e+3, 1.223265e+2, -2268811.3, -2123964.5, -118381.56, 0.113540575, 0.0864747, -2057609.9, -316407.3, 0.26535824, 9.9966545, 9.998803 
1.9946657e+3, 1.32328e+2, -1577443.9, -1097190.9, -41179.535, -0.109890096, -0.25988236, -1093685.5, 549502.3, 0.18805622, 9.997671, 10.005527 
1.9947155e+3, 1.4233457e+2, -1634909.3, -1443502.5, -10307.229, 0.1917553, 0.024773123, -1442949.0, 102172.555, 0.11045076, 9.998534, 10.001287 
1.9947615e+3, 1.5233716e+2, -1605302.6, -1443893.6, 27914.014, 0.14289902, 0.19175813, -1439202.5, 7898.7285, 0.04926506, 9.998436, 10.000554 
1.9948074e+3, 1.6233762e+2, -1548111.6, -1460625.9, 46669.645, 0.03978313, 0.23465678, -1440404.0, -91303.94, 0.014456319, 9.998547, 9.999719 
1.9948556e+3, 1.7233554e+2, -1377193.9, -1311888.1, 46103.387, 0.09460191, 0.021448867, -1288045.6, -36926.906, 0.0019582892, 9.999017, 9.999819 
1.9949031e+3, 1.8233435e+2, -1235025.5, -1222398.8, -29417.59, 0.119388066, -0.048680946, -1198624.8, -45495.566, 0.000032105352, 9.999389, 9.999612 
1.9949478e+3, 1.9233549e+2, -1105195.9, -1068415.5, -17859.809, -0.0034435925, 0.04760541, -1061170.4, -6050.7, 0.0, 9.99946, 9.999939 
1.9949928e+3, 2.0233607e+2, -1049949.9, -1072475.4, -47821.89, -0.078583606, 0.15673447, -1012082.3, -54967.48, 0.0, 9.999494, 9.999244 
1.9950393e+3, 2.1233504e+2, -900927.44, -937185.56, -81864.02, 0.039226755, 0.09555597, -835209.1, 23915.256, 0.0, 9.999818, 9.999325 
1.9950856e+3, 2.2233401e+2, -763743.94, -803915.0, -52805.27, 0.07779595, 0.072265744, -727333.25, 33799.934, 0.0, 9.999986, 9.999504 
1.9951315e+3, 2.3233338e+2, -620685.56, -642977.4, 22051.408, -0.08811527, -0.0014132307, -607123.25, 56013.363, 0.0, 10.000132, 9.999855 
1.9951774e+3, 2.4233261e+2, -617135.3, -758958.06, -55124.02, -0.16127121, 0.012248626, -598229.75, -33087.51, 0.0, 10.000224, 9.998342 
1.9952242e+3, 2.523315e+2, -388077.28, -622474.4, -77423.34, 0.06761039, 0.055860054, -364812.78, 102341.516, 0.0, 10.001245, 9.998105 
1.9952707e+3, 2.6232952e+2, -227883.05, -491126.8, -22485.906, 0.18169823, 0.069065556, -225976.16, 143196.92, 0.000000042002604, 10.001646, 9.998147 
1.995316e+3, 2.7232617e+2, -171009.39, -367459.3, 20567.912, 0.02987109, -0.14786766, -168879.08, 102322.49, 0.0000035134383, 10.001202, 9.99851 
1.995363e+3, 2.8232372e+2, -92351.45, -346862.3, 26912.492, -0.014058149, -0.19786298, -89536.8, 83684.15, 0.00002820436, 10.001311, 9.997963 
1.9954127e+3, 2.923227e+2, 277098.0, -86821.73, 73913.46, 0.20290425, -0.16241387, 291537.2, 366765.2, 0.00011358975, 10.003065, 9.998211 
1.9954589e+3, 3.0231938e+2, 333125.88, -123451.914, 13855.322, 0.010310057, -0.2725154, 333545.97, 333545.97, 0.0002776181, 10.003488, 9.9974375 
1.9955033e+3, 3.1232038e+2, 79069.64, -164766.6, -22194.607, -0.17352985, 0.020471998, 81073.38, 81073.38, 0.00049017585, 10.001366, 9.998142 
2.0046186e+3, 1.222822e+2, -2199346.3, -1943054.6, -14577.522, 0.1827573, 0.31937253, -1942228.1, -200584.77, 0.27641812, 9.996505, 10.000086 
2.0046625e+3, 1.3228239e+2, -1633134.8, -1167735.9, 79053.97, -0.16986178, -0.1629429, -1154674.1, 488965.22, 0.1968332, 9.997415, 10.005079 
2.0047139e+3, 1.422881e+2, -1848935.4, -1533127.4, 388.36063, 0.2780749, 0.06158512, -1533126.9, 12453.3545, 0.11636926, 9.997053, 10.001306 
2.0047602e+3, 1.5229033e+2, -1622502.0, -1432048.1, -8229.319, 0.18469778, 0.17135881, -1431693.3, 15867.856, 0.05238356, 9.998208, 10.000755 
2.004806e+3, 1.62291e+2, -1510161.3, -1461120.8, 21598.465, 0.03913999, 0.22878046, -1452964.8, -103408.12, 0.015589432, 9.998851, 9.999584 
2.0048545e+3, 1.7228924e+2, -1453625.6, -1381719.8, 23225.219, 0.12887332, 0.06516263, -1374870.6, -123296.11, 0.0021699998, 9.998586, 9.999567 
2.0049027e+3, 1.82288e+2, -1375910.1, -1284649.8, 12160.533, 0.20219168, 0.0036788739, -1283057.1, -129470.61, 0.00003871999, 9.998423, 9.99964 
2.0049475e+3, 1.9228867e+2, -1061824.3, -1041465.06, -27110.31, 0.0255301, 0.0497381, -1022686.2, 32893.5, 0.0, 9.999753, 9.999983 
2.0049927e+3, 2.0228888e+2, -910102.6, -1034771.3, -59482.004, -0.072812505, 0.13026796, -886276.2, 71301.4, 0.0, 10.000605, 9.998964 
2.0050395e+3, 2.1228774e+2, -839929.44, -952714.94, -70373.516, 0.06536318, 0.09917786, -806141.4, 53448.617, 0.0, 10.000444, 9.998918 
2.0050862e+3, 2.2228666e+2, -729703.8, -787903.06, 5064.3013, 0.14146118, 0.09927445, -729266.4, 32334.139, 0.0, 10.000245, 9.999481 
2.0051321e+3, 2.3228613e+2, -573609.75, -603632.1, -21593.904, -0.029477991, 0.031779487, -562322.06, 101280.43, 0.0, 10.000424, 9.9999695 
2.0051783e+3, 2.4228555e+2, -519487.72, -680416.4, -94946.25, -0.094140105, 0.0460453, -475496.06, 90109.69, 0.0, 10.000716, 9.998661 
2.0052254e+3, 2.5228462e+2, -380637.7, -572115.0, -98597.3, 0.0972423, 0.0696732, -338945.22, 128669.41, 0.0, 10.0010805, 9.998531 
2.0052724e+3, 2.6228288e+2, -229490.02, -496893.28, 4487.9087, 0.20407294, 0.07726975, -229414.72, 140215.72, 0.000000029896977, 10.00163, 9.998125 
2.0053186e+3, 2.7227938e+2, 44976.17, -293297.63, -7367.1563, 0.087455384, -0.12924507, 45136.543, 316797.63, 0.0000031274246, 10.002769, 9.998285 
2.0053658e+3, 2.8227723e+2, 185769.02, -199374.31, 12718.271, 0.08247851, -0.14848962, 186188.55, 359867.66, 0.000025154262, 10.003153, 9.998097 
2.005415e+3, 2.9227665e+2, 62004.855, -171155.13, 8954.522, 0.2256514, -0.07518051, 62348.25, 138029.97, 0.00009776422, 10.001507, 9.998381 
2.0054612e+3, 3.022729e+2, 93712.35, -178978.16, 34640.14, 0.03339355, -0.26443857, 98043.914, 98043.914, 0.00024035014, 10.001557, 9.998006 
2.0055076e+3, 3.1227446e+2, 652866.25, 2385.1846, -14188.649, -0.06485227, 0.052891158, 653175.56, 653175.56, 0.0004337669, 10.005736, 9.997225 
2.0146148e+3, 1.2223699e+2, -2061966.0, -1695240.8, -51475.3, 0.051973946, 0.01659967, -1688152.4, 53935.758, 0.28771394, 9.996604, 10.001874 
2.0146611e+3, 1.3224192e+2, -1856902.0, -1562325.5, 85730.94, -0.07648484, 0.24942419, -1539191.9, 104847.67, 0.20582092, 9.99748, 10.001721 
2.0147097e+3, 1.422417e+2, -1901988.1, -1667269.5, 462.60437, 0.10775339, 0.13517654, -1667268.6, -121228.586, 0.12247417, 9.99716, 10.000324 
2.014758e+3, 1.5224154e+2, -1626188.9, -1438233.8, 42787.094, 0.1314159, 0.02480962, -1428951.9, 19087.52, 0.055639356, 9.998204, 10.000714 
2.0148057e+3, 1.622415e+2, -1476105.3, -1413265.6, 8185.379, 0.090335116, -0.0005755106, -1412216.9, -62177.742, 0.016791714, 9.99895, 9.999869 
2.0148534e+3, 1.7224295e+2, -1435055.8, -1334827.6, 20398.764, 0.13335474, 0.13184781, -1330835.0, -78806.664, 0.0023981123, 9.998556, 9.999904 
2.0149007e+3, 1.8224369e+2, -1379471.9, -1309219.4, 24623.602, 0.14881462, 0.24693723, -1301448.4, -147424.9, 0.000045425786, 9.998483, 9.99945 
2.0149477e+3, 1.9224212e+2, -1102492.1, -1108212.1, 33424.44, 0.059963014, 0.11123438, -1071805.6, -15768.803, 0.0, 9.999673, 9.999565 
2.014994e+3, 2.022408e+2, -922253.2, -1022507.94, -66798.48, -0.021880815, 0.05870375, -888865.4, 69182.984, 0.0, 10.00044, 9.999129 
2.015039e+3, 2.1224034e+2, -850918.56, -923043.7, -65782.67, -0.030048454, 0.0654715, -811962.0, 48092.56, 0.0, 10.000218, 9.999231 
2.0150849e+3, 2.2223972e+2, -817964.56, -904574.9, -6278.3623, -0.025516866, 0.1163349, -817511.8, -55449.95, 0.0, 9.999944, 9.998831 
2.0151335e+3, 2.3223892e+2, -665088.44, -757624.25, 1275.8772, 0.05782814, 0.11236703, -665070.9, -1001.098, 0.0, 10.000248, 9.999005 
2.0151813e+3, 2.4223806e+2, -533287.44, -632510.75, -92459.14, 0.10029064, 0.14042741, -477970.53, 88106.484, 0.0, 10.0004, 9.999139 
2.015226e+3, 2.522368e+2, -342648.47, -438697.7, -71731.06, 0.036377873, 0.040952764, -304349.8, 163734.4, 0.0, 10.0008545, 9.999555 
2.0152718e+3, 2.6223534e+2, -280457.5, -532800.25, 22870.713, -0.031536005, 0.016327642, -278401.4, 91693.89, 0.0000000091701935, 10.001331, 9.998023 
2.0153208e+3, 2.7223402e+2, -33968.676, -383423.06, 55285.62, 0.021588666, 0.065318644, -25430.783, 246679.6, 0.0000023642951, 10.002458, 9.997816 
2.0153695e+3, 2.82233e+2, 116097.484, -237038.97, -46151.77, 0.10107159, 0.1925476, 122029.46, 296150.56, 0.000021595964, 10.002706, 9.998047 
2.015416e+3, 2.9223096e+2, 40710.65, -174317.23, -37317.61, 0.15674232, 0.102483965, 47002.906, 123140.92, 0.000083873885, 10.0013075, 9.998463 
2.0154622e+3, 3.022275e+2, 56163.383, -153844.19, 113685.62, -0.045898236, -0.07664174, 105918.164, 105918.164, 0.00020823472, 10.001154, 9.998351 
2.0155135e+3, 3.1222984e+2, 477249.3, -81116.19, 254010.95, -0.09776273, 0.26066333, 575511.4, 575511.4, 0.0003833975, 10.004606, 9.997156 
2.0246124e+3, 1.2219233e+2, -1971775.8, -1623554.0, -141185.48, 0.16314845, -0.0037542132, -1573504.4, 169023.73, 0.29983783, 9.997014, 10.002444 
2.02466e+3, 1.3219872e+2, -2007454.1, -1838233.9, 14746.794, 0.07785547, 0.5293182, -1836958.4, -192493.28, 0.21537028, 9.997454, 9.999646 
2.0247081e+3, 1.4219306e+2, -1539733.3, -1582137.0, 8174.7344, 0.1235353, 0.028988888, -1538211.9, 8307.678, 0.12892798, 10.000035, 9.999524 
2.0247565e+3, 1.5219295e+2, -1511270.6, -1429747.0, -25420.383, 0.14725351, -0.031066466, -1422470.1, 26047.967, 0.05909158, 9.999205, 10.000288 
2.0248045e+3, 1.6219318e+2, -1583765.3, -1433683.6, -55901.715, 0.14847006, -0.009471166, -1415150.4, -64635.86, 0.018083457, 9.998115, 10.000108 
2.0248523e+3, 1.7219527e+2, -1377304.6, -1254955.0, -62172.523, 0.17741828, 0.14659265, -1228907.3, 23589.29, 0.0026487417, 9.99878, 10.000319 
2.0248999e+3, 1.8219647e+2, -1254737.3, -1218127.4, -787.1392, 0.19770725, 0.27279913, -1218110.4, -63624.57, 0.000052423693, 9.999202, 9.9997225 
2.0249476e+3, 1.9219454e+2, -1140256.1, -1108866.4, 33941.2, 0.10667177, 0.07925965, -1087167.0, -30665.563, 0.0, 9.999323, 9.999726 
2.0249943e+3, 2.021931e+2, -1063102.1, -1097308.9, -24303.363, 0.04252325, 0.0023932674, -1050487.1, -91973.37, 0.0, 9.999503, 9.999057 
2.0250395e+3, 2.1219316e+2, -848159.56, -946410.44, -95314.43, 0.0103688985, 0.07925598, -790055.6, 70461.3, 0.0, 10.000335, 9.999007 
2.0250855e+3, 2.2219276e+2, -697645.7, -873436.3, -24848.805, 0.020088904, 0.17306231, -694200.7, 68322.96, 0.0, 10.000891, 9.998579 
2.0251343e+3, 2.3219134e+2, -589702.6, -748931.6, 4500.7544, 0.10191698, 0.13431674, -589575.5, 74961.98, 0.0, 10.000897, 9.998738 
2.0251824e+3, 2.4219006e+2, -440957.5, -589538.8, -30834.732, 0.15820374, 0.13644642, -434812.6, 131736.08, 0.0, 10.001061, 9.999098 
2.0252278e+3, 2.521889e+2, -189425.28, -367736.0, -99908.31, 0.07951653, 0.04725636, -144676.39, 323878.9, 0.0, 10.001926, 9.999519 
2.025274e+3, 2.621875e+2, -136192.88, -467124.8, -37958.934, 0.031067222, 0.03259148, -131894.7, 238671.42, 0.000000001074916, 10.002349, 9.99798 
2.0253229e+3, 2.721861e+2, -182341.17, -456272.1, -25743.006, 0.05728991, 0.084736645, -179942.94, 92639.46, 0.0000018159459, 10.00148, 9.997769 
2.025371e+3, 2.8218496e+2, -94903.44, -353353.25, -76011.26, 0.09546445, 0.20917036, -74205.74, 100389.06, 0.000018189116, 10.001285, 9.997942 
2.0254172e+3, 2.921833e+2, 272293.03, -60024.46, -117253.55, 0.08630371, 0.17161855, 309498.8, 386107.28, 0.000072171526, 10.0028925, 9.998476 
2.0254657e+3, 3.0218026e+2, 460386.84, -19646.066, 78802.64, 0.06362157, 0.051005274, 472992.16, 472992.16, 0.00017992329, 10.0041065, 9.997895 
2.0255175e+3, 3.1218046e+2, 240814.27, -151373.6, 48766.906, -0.03141547, 0.24099939, 246787.27, 246787.27, 0.00033564074, 10.002706, 9.997618 
2.03461e+3, 1.2214602e+2, -2022302.6, -1765992.0, -149918.38, 0.125935, 0.032978375, -1696918.3, 46066.293, 0.3135409, 9.997275, 10.001053 
2.0346585e+3, 1.3215216e+2, -2020816.8, -1908319.6, 137676.45, 0.15718721, 0.63139105, -1815844.6, -170922.38, 0.22593072, 9.99762, 9.999093 
2.0347089e+3, 1.421419e+2, -1536706.4, -1645867.1, 19208.398, 0.1261908, -0.28113115, -1533425.0, 13596.461, 0.13594478, 10.000338, 9.998942 
2.0347558e+3, 1.5214452e+2, -1553915.1, -1538075.9, -65532.06, 0.10302085, 0.006658363, -1479986.6, -30989.313, 0.06282382, 9.999294, 9.999485 
2.034802e+3, 1.6214605e+2, -1563561.0, -1413173.9, -76594.05, 0.0348597, 0.20458648, -1381032.9, -30049.934, 0.019494196, 9.998206, 10.000204 
2.0348509e+3, 1.7214605e+2, -1334658.8, -1176817.3, -23009.96, 0.13009627, 0.10793704, -1173531.4, 79448.79, 0.0029308582, 9.998815, 10.00084 
2.0348993e+3, 1.8214619e+2, -1198133.1, -1108352.6, -4167.477, 0.17826563, 0.064200714, -1108159.6, 46815.89, 0.00006041413, 9.999237, 10.000461 
2.0349464e+3, 1.9214593e+2, -1098322.9, -997896.0, 47473.07, 0.040966444, -0.03970054, -979007.5, 77966.24, 0.0, 9.999224, 10.000537 
2.0349932e+3, 2.0214577e+2, -1108900.6, -1150232.1, -15794.167, -0.057989746, -0.031439185, -1103556.3, -144582.19, 0.0, 9.99933, 9.998776 
2.0350406e+3, 2.1214612e+2, -928081.5, -1062500.4, -49718.7, 0.059618987, 0.13963275, -911690.4, -50712.46, 0.0, 10.000121, 9.998316 
2.0350876e+3, 2.2214577e+2, -739078.1, -876472.2, -28447.732, 0.10719206, 0.27674916, -733420.9, 29565.266, 0.0, 10.000551, 9.998714 
2.0351341e+3, 2.3214345e+2, -601679.1, -709275.94, 21491.695, -0.017428812, 0.10928217, -597545.1, 67460.41, 0.0, 10.000631, 9.999134 
2.0351812e+3, 2.4214149e+2, -529166.5, -699524.56, -20345.229, -0.085269526, 0.039653216, -526770.44, 40251.605, 0.0, 10.000747, 9.998495 
2.0352298e+3, 2.5214082e+2, -289732.84, -526039.2, -53022.375, 0.08970789, 0.089321606, -278381.03, 190647.48, 0.0, 10.001705, 9.998543 
2.0352782e+3, 2.6213932e+2, -202342.11, -518047.88, -68261.02, 0.18640064, 0.13279326, -188215.05, 182827.94, 0.000000023664393, 10.001993, 9.997794 
2.0353243e+3, 2.7213553e+2, -198230.44, -449488.56, -42891.316, 0.046072222, -0.069502845, -191110.39, 81968.11, 0.0000019634658, 10.001302, 9.997903 
2.0353706e+3, 2.8213307e+2, -151606.05, -392272.16, -59277.99, -0.10805076, -0.08123571, -137797.67, 37303.363, 0.000016146072, 10.000969, 9.997818 
2.0354182e+3, 2.92134e+2, 212180.63, -106449.82, -28304.459, -0.13710439, 0.15328816, 214675.42, 291767.44, 0.00006227005, 10.002544, 9.998332 
2.0354702e+3, 3.021312e+2, 253040.73, -272035.34, 41643.234, 0.0666869, 0.14047171, 256322.9, 256322.9, 0.00015436458, 10.00338, 9.996488 
2.0355201e+3, 3.121252e+2, 212045.47, -29045.313, 18594.72, -0.07851121, -0.1655561, 213471.2, 213471.2, 0.0002908974, 10.001984, 9.998776 
2.0446074e+3, 1.2209684e+2, -2013489.0, -1821512.1, -127055.85, 0.14054394, 0.04234085, -1758261.9, -14792.732, 0.3294151, 9.997644, 10.000401 
2.0446572e+3, 1.3210186e+2, -1883290.8, -1762721.1, 51888.547, 0.2540456, 0.5106426, -1743465.5, -98049.26, 0.23787552, 9.998263, 9.999784 
2.0447081e+3, 1.4209373e+2, -1924023.8, -1818393.1, 26874.479, 0.18300748, -0.23453484, -1811948.9, -264455.22, 0.14372098, 9.997607, 9.999073 
2.0447543e+3, 1.520968e+2, -1663434.6, -1607716.6, -78306.97, 0.08451374, 0.10681789, -1552460.6, -102992.44, 0.06692591, 9.998621, 9.9993305 
2.0448002e+3, 1.6209826e+2, -1424126.5, -1342367.4, -26547.754, 0.0053814077, 0.3055263, -1334503.5, 16952.232, 0.021061258, 9.999124, 10.000262 
2.0448495e+3, 1.7209738e+2, -1312981.1, -1151497.4, -21084.2, 0.13912791, 0.1047949, -1148789.9, 104668.766, 0.003256253, 9.998889, 10.000988 
2.0448987e+3, 1.8209706e+2, -1276589.3, -1145308.5, -11829.97, 0.24024646, 0.008963592, -1144251.0, 11205.415, 0.00007088071, 9.998704, 10.000464 
2.044946e+3, 1.9209753e+2, -1057965.4, -979401.94, -47962.4, 0.08500492, -0.019155601, -956688.1, 100761.04, 0.0, 9.999526, 10.000509 
2.0449932e+3, 2.0209774e+2, -964099.7, -1072397.3, -107916.16, -0.011366527, 0.030146396, -897509.1, 61937.54, 0.0, 10.000264, 9.998877 
2.0450413e+3, 2.120976e+2, -792036.3, -968718.94, -106313.24, 0.09919067, 0.13303007, -742150.7, 119303.05, 0.0, 10.00094, 9.998564 
2.0450887e+3, 2.2209704e+2, -604891.1, -798313.56, -38670.082, 0.15405525, 0.22884546, -597446.5, 166015.98, 0.0, 10.001385, 9.99887 
2.045135e+3, 2.3209502e+2, -483508.38, -637474.44, -38815.39, -0.003958095, 0.077131964, -474276.44, 191202.34, 0.0, 10.001352, 9.999293 
2.0451821e+3, 2.4209325e+2, -469187.47, -703515.9, -39241.277, -0.07253973, 0.028997647, -462790.66, 104703.086, 0.0, 10.001285, 9.998222 
2.0452315e+3, 2.5209263e+2, -382962.28, -615318.1, -60709.184, 0.12099059, 0.12634437, -368056.6, 101445.914, 0.0, 10.001258, 9.998144 
2.0452805e+3, 2.620911e+2, -258299.14, -552097.75, -18132.045, 0.25956723, 0.19456705, -257184.33, 114334.35, 0.00000011200642, 10.001609, 9.99775 
2.0453274e+3, 2.72087e+2, 72700.695, -315524.34, -30604.979, 0.1441104, -0.03837546, 75098.57, 348653.63, 0.000002326167, 10.003127, 9.997949 
2.0453738e+3, 2.82084e+2, 261887.36, -226910.31, -35550.926, -0.022406463, -0.1033366, 264459.5, 440041.7, 0.000014696717, 10.003936, 9.99753 
2.0454201e+3, 2.9208392e+2, 177132.64, -165507.45, -72218.99, -0.1697969, 0.08823782, 191732.31, 269315.3, 0.00005375532, 10.002505, 9.997936 
2.0454727e+3, 3.020819e+2, 57095.625, -376344.66, 92659.99, 0.101676464, 0.173049, 76073.37, 76073.37, 0.00013253847, 10.002062, 9.996403 
2.0455241e+3, 3.120753e+2, 513173.25, 111685.59, -42043.137, 0.038830508, -0.17670737, 517528.7, 517528.7, 0.0002539401, 10.004015, 9.998777 
2.0546044e+3, 1.2204659e+2, -1953365.5, -1773306.6, 145031.25, 0.0037919516, 0.25257754, -1692633.5, 51330.727, 0.3476065, 9.997937, 10.000733 
2.0546548e+3, 1.3204753e+2, -1708959.0, -1481325.3, 16301.863, 0.15809788, 0.15239684, -1480163.8, 165786.61, 0.2513395, 9.998361, 10.002053 
2.0547053e+3, 1.4204887e+2, -1850853.5, -1685576.5, 29764.77, 0.0765558, 0.17980582, -1680379.6, -132446.02, 0.15236652, 9.997691, 9.999941 
2.0547517e+3, 1.5205003e+2, -1619310.1, -1529172.9, -20449.05, -0.05942884, 0.2798875, -1524750.6, -74823.016, 0.071473114, 9.998672, 9.999847 
2.0547983e+3, 1.6204983e+2, -1408535.1, -1353091.4, -40422.992, -0.12446324, 0.2888794, -1331797.8, 20134.555, 0.022826005, 9.999299, 10.000111 
2.054848e+3, 1.7204922e+2, -1330742.1, -1194396.3, -25279.504, 0.07337104, 0.14352149, -1189860.1, 64071.71, 0.0036400491, 9.998907, 10.000688 
2.0548974e+3, 1.8204893e+2, -1323708.8, -1261217.0, -8823.953, 0.20262702, 0.102545716, -1259994.9, -104064.85, 0.00008593674, 9.998767, 9.999646 
2.0549458e+3, 1.9204907e+2, -1126012.4, -1115787.5, -6384.235, 0.102996476, 0.1309606, -1112721.0, -54790.71, 0.0, 9.999486, 9.999601 
2.054994e+3, 2.020488e+2, -958978.6, -1019474.8, -95415.83, 0.0068314536, 0.17081812, -889131.1, 70803.055, 0.0, 10.000086, 9.999324 
2.0550412e+3, 2.1204744e+2, -755224.75, -837693.3, -69129.15, -0.0035248494, 0.05876621, -715966.1, 145979.89, 0.0, 10.000701, 9.999578 
2.0550886e+3, 2.220463e+2, -643909.8, -795244.7, -48972.008, -0.012215223, 0.022205047, -629445.0, 134510.83, 0.0, 10.001033, 9.999057 
2.0551367e+3, 2.3204586e+2, -526985.0, -669246.5, -27596.611, 0.003173256, 0.036917366, -521819.22, 144139.56, 0.0, 10.001103, 9.999196 
2.0551845e+3, 2.4204522e+2, -519622.03, -725407.3, -55986.867, 0.0124222515, 0.105901815, -505376.2, 62588.86, 0.0, 10.00094, 9.99823 
2.0552322e+3, 2.5204405e+2, -418313.84, -626878.44, -46104.805, 0.04998277, 0.14279671, -408576.63, 61403.453, 0.0, 10.001002, 9.998183 
2.0552808e+3, 2.620426e+2, -308283.34, -571912.6, 8137.7915, 0.09927015, 0.2130049, -308032.4, 63963.652, 0.00000017468948, 10.001259, 9.997777 
2.0553313e+3, 2.7204016e+2, 27471.97, -346068.16, 46507.656, 0.19492973, 0.14518261, 33175.33, 307191.7, 0.0000023499456, 10.002846, 9.997877 
2.0553795e+3, 2.8203708e+2, 135594.25, -364830.63, -73974.266, 0.120200135, 0.111334294, 146300.31, 322343.88, 0.000012296112, 10.003425, 9.996819 
2.0554227e+3, 2.9203308e+2, 74768.336, -309577.4, -104852.29, -0.20938309, -0.029887524, 101511.92, 179594.92, 0.000044415407, 10.002213, 9.997084 
2.0554733e+3, 3.0203137e+2, 33781.547, -292370.84, 114965.414, -0.07427691, 0.096996084, 70232.02, 70232.02, 0.00011238554, 10.001534, 9.997213 
2.055528e+3, 3.120292e+2, 253831.33, -182690.39, -23859.68, -0.01247013, 0.078542314, 255131.6, 255131.6, 0.00022337346, 10.003016, 9.997213 
2.0646037e+3, 1.21994905e+2, -2025047.1, -1863402.0, 238608.31, 0.17279878, 0.29980335, -1692299.5, 52171.977, 0.36771804, 9.997724, 10.000179 
2.0646526e+3, 1.3199522e+2, -1584311.5, -1310327.5, -32565.342, 0.12550624, 0.014285749, -1306510.0, 339953.88, 0.26616043, 9.998622, 10.003542 
2.0647031e+3, 1.4200042e+2, -1829929.8, -1602811.3, -16873.21, 0.12940687, 0.3049623, -1601564.5, -53156.2, 0.1618756, 9.997488, 10.000619 
2.0647508e+3, 1.520009e+2, -1678021.9, -1500261.4, -63232.375, 0.014490419, 0.28274938, -1480063.5, -29655.807, 0.07651462, 9.998007, 10.00037 
2.0647983e+3, 1.6200055e+2, -1507263.9, -1403615.9, -58167.97, -0.023618344, 0.24038075, -1377534.6, -25121.13, 0.024829434, 9.998664, 10.00005 
2.0648469e+3, 1.719999e+2, -1276885.9, -1202727.3, -80164.57, 0.07623662, 0.121842325, -1151482.0, 102932.84, 0.0041003036, 9.999448, 10.000356 
2.064896e+3, 1.8199953e+2, -1192301.6, -1220250.9, -14902.09, 0.15944758, 0.10270862, -1185846.8, -29431.416, 0.000108260756, 9.999777, 9.999427 
2.0649455e+3, 1.9200008e+2, -1089756.1, -1111857.0, 18379.79, 0.11868183, 0.18633889, -1079360.6, -20947.213, 0.0, 9.9998, 9.999471 
2.0649944e+3, 2.0199993e+2, -1015495.06, -1055975.0, -20291.78, 0.08584313, 0.2538567, -1007074.75, -46658.13, 0.0, 9.999741, 9.99923 
2.065042e+3, 2.1199778e+2, -861119.44, -899390.75, -99095.53, 0.03717338, 0.06993778, -779328.94, 83105.79, 0.0, 10.000034, 9.999471 
2.0650893e+3, 2.2199611e+2, -733970.1, -832339.9, -110184.51, 0.0110353585, -0.009198912, -662491.1, 101957.35, 0.0, 10.000383, 9.999114 
2.0651376e+3, 2.3199639e+2, -547612.94, -663999.0, -108831.49, 0.02572064, 0.06514276, -482393.16, 184052.88, 0.0, 10.000909, 9.999316 
2.0651858e+3, 2.4199635e+2, -427299.47, -656852.8, -95771.39, 0.05347179, 0.18013342, -392590.88, 175856.14, 0.0, 10.001468, 9.998447 
2.0652339e+3, 2.5199488e+2, -238182.11, -508114.13, -102240.19, 0.07535283, 0.16278316, -203829.25, 266633.6, 0.0, 10.002104, 9.998465 
2.0652825e+3, 2.6199314e+2, -125994.06, -470509.22, -1743.6576, 0.12573744, 0.17818715, -125985.234, 246495.02, 0.00000012472299, 10.002434, 9.997921 
2.0653337e+3, 2.7199095e+2, -83762.08, -378585.13, 17128.693, 0.21973225, 0.13279925, -82770.266, 191727.75, 0.0000018192295, 10.002004, 9.998056 
2.0653827e+3, 2.819886e+2, -68276.0, -445660.03, -54953.297, 0.21500187, 0.14743908, -60436.742, 116082.32, 0.000008845643, 10.001932, 9.996997 
2.0654263e+3, 2.9198506e+2, 169737.67, -255191.84, -81604.48, -0.055822603, 0.051970668, 184870.28, 263424.66, 0.000033872344, 10.0028305, 9.997164 
2.0654759e+3, 3.0198267e+2, 378345.4, -38816.125, 225293.2, -0.050142314, 0.06396678, 476787.38, 476787.38, 0.00009226449, 10.003438, 9.998086 
2.0655319e+3, 3.119819e+2, 148403.0, -196516.63, -76058.6, 0.14604805, 0.09129802, 164430.06, 164430.06, 0.00019361054, 10.002077, 9.997602 
2.0746028e+3, 1.2194275e+2, -2130378.8, -2150887.0, -165968.23, 0.20024519, 0.2515535, -1974348.3, -229367.33, 0.38886976, 9.998026, 9.997918 
2.07465e+3, 1.3194506e+2, -1548055.9, -1258785.0, -41222.355, -0.030435406, 0.121063076, -1253025.4, 393930.44, 0.28190908, 9.998723, 10.0040655 
2.0747015e+3, 1.419479e+2, -1764434.8, -1510354.3, -58529.586, 0.15452468, 0.12131575, -1497519.8, 51403.22, 0.17213808, 9.997638, 10.001251 
2.0747505e+3, 1.5194905e+2, -1623646.3, -1398785.8, -31121.396, 0.17422138, 0.0998276, -1394558.0, 56353.773, 0.08207624, 9.99804, 10.001081 
2.0747991e+3, 1.619501e+2, -1483589.8, -1383563.9, -43990.19, 0.14079419, 0.14747083, -1366970.3, -14068.849, 0.027111659, 9.998787, 10.000129 
2.0748462e+3, 1.7194934e+2, -1295247.3, -1244893.0, -43320.938, 0.027814267, 0.040890086, -1219964.4, 34943.44, 0.0046569863, 9.999472, 10.000051 
2.074894e+3, 1.8194889e+2, -1156788.6, -1167126.8, -24173.205, -0.052808728, 0.020368066, -1137238.0, 19674.035, 0.00014131474, 9.9998665, 9.999747 
2.0749444e+3, 1.9195044e+2, -1060506.4, -1034527.9, 25206.746, 0.008343295, 0.15294413, -1019160.44, 39738.863, 0.0000000002137382, 9.999727, 10.000037 
2.0749941e+3, 2.0195106e+2, -1083025.6, -1162646.5, -30154.95, 0.056461222, 0.27791375, -1072894.1, -111998.63, 0.0, 9.999588, 9.998573 
2.0750424e+3, 2.1194841e+2, -971291.44, -1084518.9, -73187.92, 0.08365763, 0.15696037, -935376.3, -72454.81, 0.0, 9.99984, 9.998294 
2.0750906e+3, 2.2194631e+2, -794710.9, -878654.44, -101512.64, 0.06029242, 0.11373368, -726835.3, 38106.953, 0.0, 10.000053, 9.998948 
2.075138e+3, 2.3194654e+2, -571167.75, -645017.0, -73085.086, -0.05951603, 0.1625645, -526209.2, 140731.69, 0.0, 10.000633, 9.999573 
2.0751858e+3, 2.4194653e+2, -459574.03, -630792.1, -85247.49, -0.118433505, 0.24927405, -424368.97, 144571.69, 0.0, 10.001075, 9.998813 
2.0752358e+3, 2.51945e+2, -246889.28, -468887.3, -63972.918, 0.05300457, 0.18400352, -229773.84, 241178.55, 0.0, 10.001862, 9.998849 
2.0752855e+3, 2.6194265e+2, -167693.19, -465102.4, -26188.174, 0.14829923, 0.111104816, -165404.81, 207566.84, 0.000000021824269, 10.002052, 9.998137 
2.0753345e+3, 2.719395e+2, -107189.984, -360471.9, 14628.865, 0.08367625, -0.060505636, -106347.87, 168652.5, 0.00000084431264, 10.001729, 9.998312 
2.0753834e+3, 2.8193814e+2, -80321.53, -361318.72, -59197.016, 0.0630646, 0.00864776, -68359.83, 108652.6, 0.000005133315, 10.001483, 9.997781 
2.0754312e+3, 2.9193923e+2, 165588.5, -184292.23, -28109.563, 0.10967749, 0.286008, 167832.44, 246837.05, 0.000023723636, 10.002472, 9.997827 
2.0754792e+3, 3.0193532e+2, 308492.34, 10110.655, 170677.19, -0.07987658, 0.08674624, 385992.06, 385992.06, 0.00007269807, 10.00267, 9.998758 
2.0755339e+3, 3.1193456e+2, 134746.2, 763.1096, -68202.125, 0.06794308, 0.012852708, 163354.84, 163354.84, 0.00016065389, 10.001205, 9.999331 
2.0846014e+3, 1.2189345e+2, -2030948.1, -2070067.6, -18908.65, 0.2574934, 0.19627382, -2023302.8, -277842.9, 0.40993002, 9.99858, 9.9981985 
2.0846485e+3, 1.3189706e+2, -1718929.5, -1429948.1, 33314.06, 0.003917155, 0.2727041, -1426157.4, 221265.53, 0.29801235, 9.99786, 10.002893 
2.0846994e+3, 1.4189602e+2, -1765262.8, -1515137.3, -8330.07, 0.21866862, -0.043547735, -1514860.1, 34568.99, 0.18298064, 9.997692, 10.001163 
2.084749e+3, 1.5189771e+2, -1558782.8, -1361834.5, -33811.844, 0.23440617, -0.01910549, -1356191.5, 95220.805, 0.088167645, 9.998446, 10.001171 
2.0847985e+3, 1.6189985e+2, -1487460.1, -1403902.5, -59965.848, 0.23951384, 0.13663562, -1372596.6, -19204.75, 0.029713616, 9.9988165, 9.999995 
2.0848458e+3, 1.7189929e+2, -1361754.1, -1305542.1, -93096.336, 0.07295696, 0.07332413, -1236401.6, 18997.732, 0.005333032, 9.999114, 9.999826 
2.0848936e+3, 1.8189888e+2, -1247249.0, -1196882.0, -59080.613, -0.032589283, 0.06817864, -1157841.5, -436.21945, 0.00018960002, 9.999188, 9.99988 
2.0849438e+3, 1.9190039e+2, -1054929.4, -1002915.25, -58192.82, 0.019777497, 0.17460045, -965182.44, 94209.555, 0.000000020895914, 9.999656, 10.000286 
2.0849942e+3, 2.0190103e+2, -995591.56, -1095863.0, -72392.25, 0.088784635, 0.28214228, -957669.2, 3717.5635, 0.0, 10.00012, 9.998761 
2.0850435e+3, 2.118986e+2, -765065.44, -968632.7, -49593.332, 0.13490795, 0.16773118, -753626.25, 109784.164, 0.0, 10.001202, 9.998424 
2.0850918e+3, 2.2189659e+2, -558190.25, -793114.94, -16634.67, 0.13263857, 0.13335548, -557018.25, 208412.06, 0.0, 10.00178, 9.998718 
2.0851384e+3, 2.3189658e+2, -556696.56, -679128.44, -66405.19, -0.052511044, 0.19401045, -527596.2, 139836.13, 0.0, 10.000888, 9.999228 
2.0851862e+3, 2.418963e+2, -544526.8, -649240.2, -50123.71, -0.12191566, 0.26784876, -524401.7, 45033.17, 0.0, 10.000386, 9.999017 
2.0852381e+3, 2.5189447e+2, -265320.94, -433328.47, -42808.902, 0.12113657, 0.14137886, -255041.98, 216404.47, 0.0, 10.001538, 9.999249 
2.0852886e+3, 2.6189223e+2, -113608.68, -437377.2, -15816.915, 0.25721636, 0.051662296, -112837.82, 260625.27, 0.0, 10.002416, 9.998154 
2.0853357e+3, 2.7188975e+2, -70865.055, -367808.88, -52821.31, 0.047379944, -0.035200574, -61748.9, 213738.67, 0.000000115745564, 10.002084, 9.998088 
2.0853843e+3, 2.818883e+2, -27477.99, -334747.4, -116427.46, 0.015292094, 0.039503753, 11653.942, 189156.34, 0.0000020138657, 10.001807, 9.997815 
2.0854345e+3, 2.9188845e+2, 62109.086, -199144.83, -167475.55, 0.2759647, 0.21369648, 143876.7, 223379.55, 0.000014504671, 10.001627, 9.998126 
2.0854822e+3, 3.0188623e+2, 243237.17, 39176.82, 60385.355, 0.020554613, 0.1341252, 259767.31, 259767.31, 0.00005340342, 10.001898, 9.999357 
2.0855361e+3, 3.1188625e+2, 464986.94, 138964.13, -242447.4, 0.08207087, 0.10719846, 594128.7, 594128.7, 0.0001257325, 10.003435, 9.99926 
2.0945981e+3, 1.2184456e+2, -1793392.6, -1640836.5, 127077.13, -0.00925286, -0.15950184, -1568902.1, 177029.7, 0.42994058, 9.998696, 10.001793 
2.0946479e+3, 1.3185175e+2, -1916628.0, -1770987.3, 37378.527, 0.1295929, 0.4927432, -1761954.3, -114094.266, 0.31401625, 9.997956, 9.999873 
2.0946963e+3, 1.4184472e+2, -1812373.4, -1644842.1, -7663.4697, 0.08926708, -0.19584377, -1644492.3, -94564.484, 0.19429262, 9.997851, 10.000148 
2.0947458e+3, 1.5184693e+2, -1590225.4, -1435943.0, 826.9791, 0.021243168, -0.06047644, -1435938.6, 15970.98, 0.094824284, 9.998511, 10.000583 
2.0947962e+3, 1.6184981e+2, -1487198.9, -1442626.1, -68454.92, 0.06716801, 0.22466508, -1392921.1, -39035.984, 0.032688897, 9.998983, 9.99965 
2.0948452e+3, 1.7184985e+2, -1367958.3, -1324794.0, -77159.766, 0.07927351, 0.2402918, -1266254.9, -10365.923, 0.0061590113, 9.999138, 9.999682 
2.094894e+3, 1.8184963e+2, -1239739.0, -1202170.8, -60532.984, 0.045147646, 0.26371145, -1157574.4, 320.06168, 0.00026052183, 9.999274, 9.999804 
2.0949438e+3, 1.9185002e+2, -1069159.5, -1020226.94, -32594.473, 0.018492224, 0.2669037, -1003937.9, 55952.83, 0.00000016154512, 9.9996, 10.0001955 
2.0949936e+3, 2.0184997e+2, -961015.8, -983011.75, -53776.617, 0.011079588, 0.2771667, -917124.06, 44766.117, 0.0, 9.999944, 9.999619 
2.095044e+3, 2.1184829e+2, -713970.7, -802076.56, 3277.2673, 0.06718266, 0.117816605, -713848.94, 150053.28, 0.0, 10.00095, 9.999682 
2.0950933e+3, 2.2184685e+2, -625830.5, -855060.25, -41971.836, 0.058713563, 0.06550502, -618387.2, 147526.45, 0.0, 10.001442, 9.998453 
2.0951389e+3, 2.3184642e+2, -658029.9, -833973.44, -88131.37, -0.10164516, 0.16877463, -621477.9, 46443.273, 0.0, 10.000648, 9.998281 
2.0951866e+3, 2.418456e+2, -597006.8, -676406.0, -41924.93, -0.15521063, 0.24847741, -578967.7, -9037.201, 0.0, 10.000037, 9.998997 
2.09524e+3, 2.518434e+2, -269140.5, -389452.2, 19670.162, 0.14507374, 0.046349358, -266006.22, 205938.95, 0.0, 10.001308, 9.999662 
2.0952913e+3, 2.618418e+2, -185497.38, -498956.2, -27867.883, 0.26072913, -0.0057688914, -183039.08, 190916.92, 0.0, 10.00205, 9.997901 
2.0953372e+3, 2.7184132e+2, -155081.66, -487663.13, -51458.25, -0.047893845, 0.16895145, -147301.83, 128662.164, 0.0, 10.001849, 9.9973755 
2.095385e+3, 2.8183886e+2, -140985.31, -469155.63, -142429.88, -0.119588345, 0.22532004, -87791.37, 90199.35, 0.00000039293647, 10.001387, 9.997092 
2.0954363e+3, 2.9183343e+2, 12592.834, -242731.47, -144522.06, 0.2751518, -0.11746279, 77762.875, 157805.8, 0.000007667558, 10.001372, 9.997951 
2.0954837e+3, 3.0183455e+2, 152857.56, 32411.764, 77291.41, -0.05259497, 0.12071407, 190618.13, 190618.13, 0.000037309022, 10.001185, 9.999626 
2.0955385e+3, 3.118364e+2, 229255.2, -78728.586, 40004.246, -0.06093724, 0.2664771, 234366.56, 234366.56, 0.00009614077, 10.002353, 9.998248 
2.1045972e+3, 1.2179411e+2, -1814307.0, -1579963.3, 50717.727, 0.075790495, -0.102848805, -1569457.8, 176966.66, 0.44859928, 9.99785, 10.002858 
2.104647e+3, 1.3179979e+2, -1891308.5, -1742763.0, -199044.39, 0.2588251, 0.3220502, -1604585.5, 43782.035, 0.3298663, 9.99804, 10.00014 
2.1046941e+3, 1.4179549e+2, -1820569.1, -1701281.4, -15584.911, 0.09957639, -0.08357073, -1699278.9, -148869.19, 0.20615475, 9.998029, 9.999668 
2.1047442e+3, 1.5179698e+2, -1612123.8, -1490385.5, -24869.436, 0.021063907, 0.023400435, -1485501.0, -33101.04, 0.10215144, 9.998591, 10.000138 
2.1047947e+3, 1.6179857e+2, -1513183.1, -1452636.3, -52196.12, 0.053471304, 0.20803368, -1422569.6, -68180.625, 0.036114734, 9.998806, 9.999646 
2.1048445e+3, 1.7179906e+2, -1294451.0, -1257600.5, -56282.48, 0.090620935, 0.24049102, -1216804.0, 39583.066, 0.007176738, 9.999503, 9.999956 
2.1048938e+3, 1.8179932e+2, -1168001.0, -1165919.3, -6369.249, 0.11364453, 0.2913986, -1160506.4, -2119.9983, 0.0003661867, 9.999763, 9.999815 
2.1049438e+3, 1.9179891e+2, -1102185.4, -1048097.8, -11758.19, 0.08497752, 0.22593491, -1045652.25, 14737.367, 0.00000091193453, 9.999434, 10.000079 
2.1049939e+3, 2.0179851e+2, -1032606.25, -975161.44, 3144.503, 0.08126369, 0.19647022, -974989.8, -12597.992, 0.0, 9.999226, 10.000042 
2.1050444e+3, 2.1179816e+2, -818747.4, -787920.8, 3131.165, 0.09002317, 0.10913149, -787606.0, 76785.13, 0.0, 9.999902, 10.000315 
2.1050942e+3, 2.2179765e+2, -761233.06, -907372.1, -62709.23, 0.08850249, 0.105009, -738013.44, 28380.135, 0.0, 10.000478, 9.998546 
2.1051408e+3, 2.3179622e+2, -581982.3, -818109.8, -105456.61, 0.007396925, 0.12532613, -541742.06, 126668.21, 0.0, 10.001279, 9.998069 
2.105189e+3, 2.4179456e+2, -350258.1, -593388.4, 2158.8005, 0.017038925, 0.14775848, -350238.9, 220188.86, 0.0, 10.001861, 9.998706 
2.1052417e+3, 2.5179282e+2, -265042.75, -422857.97, -3213.9521, 0.1998478, 0.027835956, -264977.3, 207462.45, 0.0, 10.001482, 9.999359 
2.1052927e+3, 2.6179165e+2, -282449.78, -559952.7, -51802.5, 0.26913553, 0.046286315, -273094.97, 101352.78, 0.0, 10.0014305, 9.997789 
2.10534e+3, 2.7179083e+2, -44469.543, -443134.94, -70383.58, 0.033858005, 0.19872887, -32408.361, 244050.6, 0.0, 10.002641, 9.997305 
2.1053885e+3, 2.81788e+2, 195843.5, -290418.03, -86593.87, -0.0057333787, 0.21398132, 210803.94, 389292.84, 0.00000006547354, 10.003671, 9.997194 
2.1054384e+3, 2.9178208e+2, 347260.16, -81692.4, -120981.0, 0.2535997, -0.17715712, 379028.63, 459573.28, 0.000004738257, 10.003714, 9.997912 
2.1054861e+3, 3.017831e+2, 375077.5, 4137.6973, 87604.97, 0.013813774, 0.10901902, 394726.38, 394726.38, 0.00002905632, 10.003265, 9.998435 
2.1055412e+3, 3.1178305e+2, 159751.45, -76866.69, -82780.89, 0.02077124, 0.20751831, 185836.69, 185836.69, 0.00007991688, 10.001695, 9.998581 
2.1145962e+3, 1.21739075e+2, -2034110.6, -1931591.0, 245506.78, 0.10572484, 0.107408024, -1732049.8, 14917.933, 0.46656317, 9.997953, 9.999501 
2.1146443e+3, 1.3173963e+2, -1609856.6, -1305376.6, -152439.72, 0.153086, -0.35689163, -1242175.5, 406786.28, 0.34608045, 9.998163, 10.004237 
2.1146923e+3, 1.4174853e+2, -1775259.3, -1669051.0, -315.71405, 0.054154072, 0.31527817, -1669050.1, -118177.2, 0.21890919, 9.998284, 9.999769 
2.1147439e+3, 1.5174805e+2, -1613290.0, -1528000.3, 193.31273, 0.10156085, 0.25036946, -1527999.9, -75117.945, 0.110347085, 9.998738, 9.999807 
2.1147937e+3, 1.6174585e+2, -1460742.6, -1381545.5, -49190.258, 0.021863258, 0.061454386, -1357995.6, -3089.3083, 0.040102176, 9.998962, 10.000061 
2.114843e+3, 1.7174675e+2, -1237150.1, -1153089.6, -20496.31, -0.023936905, 0.06960919, -1148358.4, 108536.41, 0.008443992, 9.999548, 10.000662 
2.1148928e+3, 1.8174773e+2, -1153741.0, -1149594.5, -27114.807, -0.013861198, 0.14306194, -1124473.9, 34408.617, 0.00052604213, 9.99982, 9.999897 
2.1149434e+3, 1.9174692e+2, -1130287.6, -1083797.1, -18571.113, 0.08512448, 0.05133104, -1077289.6, -16399.764, 0.0000034897541, 9.999342, 9.999872 
2.1149936e+3, 2.0174655e+2, -1067756.5, -996752.1, 1419.985, 0.12655228, 0.03870689, -996723.75, -33830.62, 0.0, 9.999009, 9.999996 
2.1150441e+3, 2.1174823e+2, -854202.0, -797619.2, 40090.53, 0.06825706, 0.15292384, -776842.75, 88034.195, 0.0, 9.99965, 10.000361 
2.1150942e+3, 2.2174898e+2, -793478.7, -893805.9, -47229.797, 0.033715986, 0.25983042, -774743.5, -7873.4917, 0.0, 10.000126, 9.998809 
2.1151435e+3, 2.317458e+2, -592890.94, -788045.5, -61327.402, 0.14116567, 0.07124932, -575219.0, 93682.23, 0.0, 10.001043, 9.998392 
2.1151929e+3, 2.4174298e+2, -444884.47, -701456.5, -13507.203, 0.19911148, -0.02437948, -444175.34, 126753.22, 0.0, 10.001489, 9.998134 
2.1152426e+3, 2.517425e+2, -366692.3, -584773.44, -7443.3955, 0.15234308, 0.068751104, -366438.53, 106494.2, 0.0, 10.001279, 9.998335 
2.115293e+3, 2.6174167e+2, -346806.8, -603853.7, -35525.53, 0.10753657, 0.19262516, -341987.3, 32953.19, 0.0, 10.0010605, 9.997657 
2.1153438e+3, 2.717386e+2, -45684.08, -387584.16, -927.12164, 0.124864, 0.07951726, -45681.563, 231288.58, 0.0, 10.002393, 9.9978 
2.1153936e+3, 2.8173545e+2, 157883.78, -259999.06, -87594.89, 0.09165736, 0.004783491, 175502.25, 354502.2, 0.00000005479561, 10.003199, 9.997633 
2.1154404e+3, 2.9173332e+2, 292507.28, -126152.09, -94848.41, 0.03117839, -0.037129402, 312993.03, 394011.63, 0.0000044706885, 10.00339, 9.997771 
2.115489e+3, 3.0173123e+2, 44489.22, -449992.88, 10309.205, -0.07844075, 0.08420168, 44704.06, 44704.06, 0.000027145721, 10.002346, 9.995722 
2.1155432e+3, 3.117271e+2, 65436.836, -41329.92, -18995.691, -0.00035336547, 0.017773481, 68715.805, 68715.805, 0.00007500438, 10.000777, 9.999237 
2.1245922e+3, 1.2169475e+2, -1850929.3, -2114179.5, 66798.7, -0.18658242, 0.7139268, -1834949.3, -87547.81, 0.48543465, 10.000248, 9.997109 
2.1246421e+3, 1.3168573e+2, -1602158.3, -1306577.3, -62061.805, 0.15404604, -0.5823557, -1294075.3, 355417.47, 0.3637423, 9.998192, 10.004275 
2.1246907e+3, 1.4169851e+2, -1666701.5, -1616198.5, -29350.41, 0.041238196, 0.47614974, -1602732.0, -51364.895, 0.23315269, 9.999011, 9.999785 
2.1247427e+3, 1.5169722e+2, -1550097.8, -1497457.0, -44289.227, 0.13111119, 0.33122173, -1472257.5, -18875.443, 0.1197026, 9.999133, 9.999851 
2.1247932e+3, 1.6169406e+2, -1450740.1, -1373185.9, -55524.473, 0.101132765, 0.041043513, -1344238.4, 11175.545, 0.044803485, 9.999001, 10.000121 
2.1248426e+3, 1.7169486e+2, -1276598.1, -1169207.8, -96481.07, 0.016468894, 0.04089508, -1112486.6, 144915.4, 0.01004214, 9.999272, 10.0006895 
2.1248923e+3, 1.816958e+2, -1225369.8, -1182724.9, -133021.86, 0.01658792, 0.109232254, -1069327.4, 90061.6, 0.0007722133, 9.99931, 9.999915 
2.1249428e+3, 1.9169462e+2, -1096824.6, -1075030.1, -145053.13, 0.097299345, -0.016185027, -940465.5, 120933.49, 0.000010944595, 9.999577, 9.999833 
2.1249932e+3, 2.0169407e+2, -974622.0, -965356.06, -82087.54, 0.15540786, -0.037176616, -887770.8, 75633.02, 0.0, 9.999725, 9.999854 
2.1250442e+3, 2.1169606e+2, -801829.06, -788376.3, -81920.77, 0.09423266, 0.12527253, -712906.25, 152480.73, 0.0, 10.000107, 10.000181 
2.125095e+3, 2.2169708e+2, -725195.0, -831519.44, -149296.55, 0.10127749, 0.26518452, -619877.94, 147500.98, 0.0, 10.000461, 9.999079 
2.125145e+3, 2.3169453e+2, -598398.5, -733296.0, -176454.42, 0.21886402, 0.096652314, -476941.22, 192462.31, 0.0, 10.000764, 9.998902 
2.1251948e+3, 2.4169227e+2, -486556.22, -705913.0, -90146.984, 0.283222, 0.017813623, -454263.38, 117161.67, 0.0, 10.001158, 9.998254 
2.1252441e+3, 2.5169143e+2, -281013.47, -556256.94, -60687.293, 0.15641025, 0.09127608, -268226.78, 205206.16, 0.0, 10.001942, 9.998211 
2.1252945e+3, 2.616901e+2, -122778.5, -483164.3, -8927.875, 0.10963992, 0.17277575, -122557.47, 252887.98, 0.0, 10.002549, 9.997766 
2.1253464e+3, 2.716868e+2, -44802.984, -364756.63, -24191.035, 0.17942752, 0.027087204, -42984.285, 234492.72, 0.0, 10.002325, 9.997983 
2.1253967e+3, 2.8168437e+2, 36621.586, -312959.38, -109982.27, 0.16496803, 0.006540323, 68344.58, 247844.56, 0.000000117451826, 10.002307, 9.997724 
2.125443e+3, 2.916836e+2, 206199.8, -170535.64, -185691.6, 0.03229044, 0.1119823, 282338.72, 363844.6, 0.0000050467984, 10.002799, 9.99776 
2.1254931e+3, 3.0167952e+2, 199124.03, -436446.94, 20042.107, 0.08914915, 0.061292548, 199755.4, 199755.4, 0.00002697455, 10.003551, 9.995305 
2.1255462e+3, 3.1167567e+2, 508803.5, 183709.86, -3677.1882, 0.10018141, 0.07815836, 508845.1, 508845.1, 0.00007158717, 10.003646, 9.999481 
2.1346407e+3, 1.3164014e+2, -1885472.5, -1764266.6, -60858.28, 0.15229444, -0.121205874, -1738983.3, -89043.01, 0.38411817, 9.998254, 9.999726 
2.1346882e+3, 1.4164466e+2, -1661757.3, -1657380.5, -52715.645, -0.16580108, 0.36457273, -1606807.8, -54908.105, 0.24951555, 9.999227, 9.9993925 
2.1347405e+3, 1.5164414e+2, -1490813.3, -1413158.9, -37690.027, -0.037272632, 0.25596946, -1397874.3, 56029.41, 0.13052814, 9.99927, 10.000409 
2.1347927e+3, 1.6164315e+2, -1442401.1, -1401541.6, -67971.555, 0.094922215, 0.15067726, -1350996.0, 4915.8447, 0.050404422, 9.999196, 9.999828 
2.1348427e+3, 1.7164332e+2, -1326486.3, -1276394.5, -80729.07, 0.08218689, 0.15441062, -1216915.4, 40993.9, 0.012084308, 9.9992895, 9.999938 
2.1348923e+3, 1.8164332e+2, -1225553.6, -1200621.9, -138259.94, 0.032948833, 0.18279026, -1074267.0, 85640.66, 0.001155736, 9.999383, 9.999758 
2.1349414e+3, 1.9164199e+2, -1097490.0, -1065701.9, -125922.12, -0.008390431, 0.035196528, -954674.7, 107242.57, 0.000030850606, 9.999523, 9.999927 
2.1349911e+3, 2.0164098e+2, -1022708.0, -1018168.1, -85015.8, -0.031918686, -0.028828477, -935392.0, 28532.963, 0.0, 9.999527, 9.999587 
2.1350439e+3, 2.1164143e+2, -866716.94, -867205.0, -55044.54, 0.051311832, 0.023041684, -811915.9, 54007.03, 0.0, 9.999869, 9.999754 
2.1350959e+3, 2.2164205e+2, -761090.56, -813116.3, -145260.38, 0.11596918, 0.13562295, -639532.25, 128387.25, 0.0, 10.000076, 9.999382 
2.135145e+3, 2.3164243e+2, -590875.5, -663764.75, -151809.23, 0.11733572, 0.20324631, -471197.56, 198719.34, 0.0, 10.000534, 9.999492 
2.1351944e+3, 2.4164218e+2, -496994.47, -646857.0, -79210.95, 0.08583096, 0.26682052, -462888.72, 109030.555, 0.0, 10.000818, 9.998817 
2.1352454e+3, 2.516395e+2, -272404.06, -486714.94, -17317.848, 0.081494085, 0.09421769, -271013.7, 202927.72, 0.0, 10.001718, 9.998792 
2.1352969e+3, 2.616368e+2, -176806.33, -497188.13, -21732.834, 0.085098945, -0.008843972, -175338.81, 200626.27, 0.0, 10.002143, 9.997858 
2.1353479e+3, 2.7163503e+2, -100616.89, -421439.38, -19013.56, 0.07061151, 0.012190204, -99493.984, 178490.36, 0.00000000014169585, 10.002063, 9.997724 
2.1353975e+3, 2.816339e+2, -73259.42, -410886.28, -115326.836, -0.0087714335, 0.16059688, -37626.637, 142370.55, 0.000000256191, 10.001782, 9.997283 
2.1354465e+3, 2.9163262e+2, 153688.42, -215516.38, -129918.47, 0.0674706, 0.23682693, 194822.28, 276831.06, 0.0000052967753, 10.002515, 9.997584 
2.1354978e+3, 3.01627e+2, 175000.75, -273017.3, 19228.516, 0.14357515, -0.026538813, 175824.5, 175824.5, 0.000025200057, 10.002723, 9.996785 
2.1355474e+3, 3.1162408e+2, 297859.1, 77214.03, 23388.129, -0.21485838, -0.088605545, 300310.97, 300310.97, 0.00006359548, 10.002339, 9.999323 
2.1446393e+3, 1.3159034e+2, -1901973.1, -1832615.8, -105904.92, 0.23071766, 0.16026804, -1755856.3, -105427.17, 0.40760165, 9.998374, 9.999171 
2.1446879e+3, 1.4159112e+2, -1714317.5, -1665448.5, -55858.816, -0.060049277, 0.29942626, -1628913.8, -76489.37, 0.26811564, 9.998801, 9.999536 
2.1447395e+3, 1.5159062e+2, -1535754.4, -1402046.8, -71104.19, -0.016585162, 0.16272219, -1371303.3, 83122.73, 0.14296411, 9.998834, 10.000714 
2.144792e+3, 1.6159044e+2, -1511863.1, -1432460.3, -80140.99, 0.15643752, 0.120940864, -1382725.8, -26300.725, 0.057087187, 9.998731, 9.999835 
2.1448427e+3, 1.7159075e+2, -1333707.4, -1291408.0, -73180.55, 0.16024537, 0.14570561, -1236382.3, 22041.129, 0.014719365, 9.999321, 9.99981 
2.1448925e+3, 1.8159077e+2, -1186575.3, -1194233.0, -75022.695, 0.11915233, 0.18808566, -1115283.8, 45139.77, 0.0017550356, 9.99971, 9.999641 
2.1449414e+3, 1.9158971e+2, -962578.75, -1003574.6, -95400.77, 0.015650714, 0.07425589, -885498.6, 176931.95, 0.00008036648, 10.000482, 9.999877 
2.1449912e+3, 2.0158878e+2, -842935.4, -945609.94, -46087.688, -0.024991307, 0.0250816, -825282.8, 139154.38, 0.000000018813253, 10.000828, 9.999458 
2.1450439e+3, 2.1158837e+2, -812633.2, -863136.7, -30322.775, 0.07528789, 0.00581882, -798424.56, 68017.73, 0.0, 10.000323, 9.999571 
2.1450962e+3, 2.2158822e+2, -781847.6, -835255.5, -78701.89, 0.16972998, 0.06050089, -725442.6, 43002.426, 0.0, 9.999979, 9.999286 
2.1451455e+3, 2.3158877e+2, -564542.8, -656725.1, -150400.1, 0.13104211, 0.1537435, -453329.88, 217112.19, 0.0, 10.000745, 9.999442 
2.1451953e+3, 2.4158879e+2, -411132.5, -588998.9, -105593.05, 0.10745352, 0.24596037, -362011.34, 210431.23, 0.0, 10.001325, 9.998982 
2.145247e+3, 2.5158674e+2, -348614.88, -493866.22, -96291.49, 0.12387237, 0.11533919, -300631.5, 173827.48, 0.0, 10.001057, 9.999068 
2.1452989e+3, 2.6158446e+2, -327774.94, -531229.6, -87637.24, 0.14564332, 0.026477212, -295231.13, 81247.24, 0.0, 10.0009165, 9.998224 
2.1453494e+3, 2.7158263e+2, -184698.45, -413145.56, -85531.92, 0.07710407, 0.005094624, -156223.98, 122272.98, 0.00000000016893417, 10.001283, 9.998155 
2.1453995e+3, 2.8158164e+2, -57491.707, -401899.1, -83420.01, 0.027032146, 0.13394694, -38350.14, 142157.6, 0.0000002738674, 10.001834, 9.997334 
2.1454497e+3, 2.9158056e+2, 242396.8, -159509.55, -111333.25, 0.13351579, 0.24152818, 271176.66, 353695.0, 0.0000047479944, 10.003076, 9.997689 
2.1455017e+3, 3.01576e+2, 487192.06, -6163.2354, 43794.566, 0.22369255, 0.0005437401, 491049.5, 491049.5, 0.000021563434, 10.004258, 9.997921 
2.145552e+3, 3.1157354e+2, 396220.38, 48193.19, -156888.22, 0.016831761, -0.09234269, 456502.84, 456502.84, 0.000054127682, 10.003259, 9.998692 
2.1546374e+3, 1.3153557e+2, -1637294.5, -1452369.3, -44762.516, 0.0990041, 0.23445551, -1442104.0, 208862.31, 0.43279883, 9.998565, 10.002714 
2.154689e+3, 1.4153752e+2, -1606696.6, -1539242.8, -83057.96, 0.04929926, 0.2272917, -1483325.3, 69618.66, 0.28823382, 9.999193, 10.000351 
2.1547395e+3, 1.5153666e+2, -1528970.3, -1418325.1, -67482.15, 0.051904485, 0.04446004, -1386387.0, 68561.914, 0.15688464, 9.998958, 10.000536 
2.1547905e+3, 1.6153586e+2, -1470673.1, -1390954.9, -81223.84, 0.0814063, -0.059802674, -1340337.1, 16617.168, 0.06501248, 9.998928, 10.000027 
2.1548419e+3, 1.71537e+2, -1304472.9, -1230303.9, -46868.23, 0.10520923, 0.013855992, -1207623.1, 51322.33, 0.018139776, 9.999326, 10.000223 
2.1548924e+3, 1.8153793e+2, -1176462.3, -1193621.4, -65257.13, 0.087317385, 0.12305885, -1119223.1, 41715.04, 0.0026903055, 9.999789, 9.999614 
2.1549425e+3, 1.9153777e+2, -980865.3, -1028917.9, -56949.457, 0.028397692, 0.11141081, -943081.4, 119857.63, 0.00019736934, 10.000428, 9.999729 
2.1549927e+3, 2.0153745e+2, -867665.94, -962330.56, -66937.03, -0.012817254, 0.13300924, -833017.06, 131923.9, 0.0000007869328, 10.000673, 9.999419 
2.155044e+3, 2.1153662e+2, -838635.9, -876074.0, -43571.867, 0.029359836, 0.071303636, -809932.25, 57014.91, 0.0, 10.000137, 9.999574 
2.1550952e+3, 2.2153549e+2, -867619.4, -939088.7, -79603.57, 0.065645576, 0.043503676, -816097.56, -47140.215, 0.0, 9.999657, 9.998727 
2.1551463e+3, 2.3153351e+2, -653646.75, -789048.5, -104484.74, 0.116488375, -0.041216563, -596846.75, 74132.64, 0.0, 10.000512, 9.998644 
2.1551973e+3, 2.4153224e+2, -488675.4, -656669.5, -115821.02, 0.15563017, -0.020146696, -429599.0, 143395.23, 0.0, 10.000938, 9.998696 
2.1552485e+3, 2.5153306e+2, -381248.78, -516378.56, -94431.99, 0.15611838, 0.14251171, -332699.88, 142286.97, 0.0, 10.000857, 9.999011 
2.1552996e+3, 2.6153284e+2, -341604.56, -479668.97, -89337.016, 0.09499007, 0.24704604, -297736.16, 79252.03, 0.0, 10.000579, 9.998737 
2.1553503e+3, 2.715294e+2, -153761.5, -304361.8, -55207.27, 0.040488407, -0.01759058, -135691.66, 143325.92, 0.0, 10.001081, 9.999002 
2.1554016e+3, 2.815271e+2, -105601.81, -378511.28, -66198.11, 0.036877535, -0.08780685, -90392.164, 90644.92, 0.000000100631844, 10.001346, 9.99771 
2.1554527e+3, 2.9152727e+2, 181385.69, -182940.5, -32990.652, 0.07219184, 0.12880552, 184348.97, 267385.56, 0.0000031808167, 10.002634, 9.99774 
2.1555036e+3, 3.015249e+2, 371736.47, 4152.357, 12547.005, -0.051367916, 0.07311756, 372164.25, 372164.25, 0.000016664693, 10.003249, 9.998444 
2.1555582e+3, 3.11525e+2, 147091.52, -269055.06, -33635.313, 0.22843029, 0.16962968, 149792.58, 149792.58, 0.000045618737, 10.002422, 9.996905 
2.1646343e+3, 1.3148093e+2, -1561347.5, -1432625.0, 62062.51, -0.07611712, 0.08254841, -1407576.4, 243921.03, 0.45757636, 9.999668, 10.002602 
2.1646887e+3, 1.4148296e+2, -1754248.0, -1568815.4, -117350.695, 0.21567643, 0.116696596, -1511974.0, 41499.918, 0.3088363, 9.997983, 10.000713 
2.1647388e+3, 1.5148303e+2, -1562926.8, -1415933.3, -92256.1, 0.13656124, -0.0101109035, -1371476.8, 83994.53, 0.17204043, 9.99864, 10.000722 
2.164789e+3, 1.6148286e+2, -1496499.8, -1401302.9, -83507.586, 0.10119488, -0.06120002, -1352780.9, 4691.191, 0.07433442, 9.998705, 10.00007 
2.1648405e+3, 1.7148396e+2, -1323395.8, -1228100.5, -77362.58, 0.10842304, -0.0035451874, -1184889.6, 74573.77, 0.022589553, 9.999106, 10.00037 
2.1648918e+3, 1.8148495e+2, -1247098.9, -1223167.5, -78682.805, 0.11628479, 0.10150771, -1155545.8, 5910.154, 0.00413868, 9.999317, 9.999632 
2.1649429e+3, 1.9148496e+2, -1067237.3, -1090975.3, -100838.69, 0.07104514, 0.12359853, -977571.5, 85884.945, 0.00045452762, 9.999936, 9.999548 
2.1649936e+3, 2.0148464e+2, -930759.9, -1012555.25, -117020.31, 0.06171707, 0.16443701, -847696.4, 117763.07, 0.000007502901, 10.000295, 9.999266 
2.1650444e+3, 2.1148367e+2, -807674.9, -875060.94, -139343.75, 0.07463137, 0.10355624, -698008.56, 169458.25, 0.0, 10.000402, 9.999458 
2.1650955e+3, 2.2148246e+2, -767216.7, -900454.75, -125777.58, 0.10607664, 0.080926344, -691504.75, 77972.664, 0.0, 10.000407, 9.998619 
2.1651469e+3, 2.3148021e+2, -649526.94, -805124.44, -122534.14, 0.14623636, -0.016739046, -582180.06, 89321.64, 0.0, 10.000623, 9.998477 
2.1651985e+3, 2.4147853e+2, -504507.63, -682152.75, -89185.26, 0.19845256, -0.017939348, -467459.38, 106061.33, 0.0, 10.00089, 9.998548 
2.1652496e+3, 2.5147906e+2, -323026.88, -486782.4, -102090.984, 0.15831809, 0.1273024, -274036.25, 201481.27, 0.0, 10.001286, 9.998986 
2.1653003e+3, 2.6147914e+2, -170978.81, -387566.06, -77163.49, 0.09491543, 0.25720182, -146299.83, 231217.2, 0.0, 10.001692, 9.998841 
2.1653521e+3, 2.7147642e+2, 1899.5471, -207414.39, -108088.04, 0.0719196, 0.051447716, 47695.58, 327234.56, 0.0, 10.002057, 9.999198 
2.1654041e+3, 2.814738e+2, 41189.844, -297183.8, -123188.62, 0.13306569, -0.069875576, 81286.6, 262847.56, 0.0000000029805467, 10.002282, 9.9978285 
2.165455e+3, 2.9147252e+2, 91121.086, -219704.53, -138979.81, 0.12995009, 0.009195507, 144199.36, 227774.38, 0.000001345268, 10.001997, 9.9977865 
2.1655066e+3, 3.0147249e+2, 270225.13, 13374.782, -56808.605, 0.02805922, 0.15181395, 282228.72, 282228.72, 0.000010778314, 10.002287, 9.998973 
2.165562e+3, 3.1147128e+2, 450173.44, -138138.6, -161022.8, 0.2710243, 0.09083458, 491362.16, 491362.16, 0.00003608632, 10.004601, 9.996744 
2.1746314e+3, 1.3142811e+2, -1771094.4, -1865588.8, -168710.53, -0.41500226, -0.12525333, -1643140.1, 8864.563, 0.48078975, 10.000104, 9.998025 
2.1746877e+3, 1.414281e+2, -1771824.1, -1664900.3, -104250.42, 0.21645552, -0.029391924, -1601202.8, -47194.473, 0.32934, 9.99829, 9.999796 
2.1747376e+3, 1.5142998e+2, -1538958.5, -1385563.9, -64430.516, 0.10272988, 0.023456799, -1362092.5, 93898.96, 0.18832743, 9.998688, 10.000937 
2.1747874e+3, 1.6143137e+2, -1477256.5, -1408456.6, -84278.25, -0.003926547, 0.12923706, -1351828.1, 6151.0713, 0.0852701, 9.998897, 9.999928 
2.1748391e+3, 1.7143181e+2, -1309969.5, -1218670.9, -51750.063, 0.024653975, 0.11350247, -1195313.5, 64662.484, 0.028395085, 9.999178, 10.000397 
2.1748906e+3, 1.814319e+2, -1252520.0, -1251132.3, -75025.625, 0.024088347, 0.13055825, -1176797.3, -14821.105, 0.006367479, 9.999392, 9.999398 
2.1749422e+3, 1.9143106e+2, -1102428.9, -1148563.6, -69577.16, 0.0069001187, 0.10192666, -1052195.0, 11790.163, 0.0009868387, 9.999874, 9.999175 
2.1749936e+3, 2.014301e+2, -975928.9, -1069821.4, -120900.97, -0.0006832415, 0.11457608, -893179.4, 72815.734, 0.000047582707, 10.000128, 9.998958 
2.1750452e+3, 2.1142942e+2, -853660.0, -919295.2, -126662.45, 0.08117995, 0.1028977, -755632.75, 112369.2, 0.00000000032497088, 10.000179, 9.999263 
2.1750964e+3, 2.2142895e+2, -810802.9, -901334.06, -130599.3, 0.12441182, 0.16089438, -717847.1, 52159.938, 0.0, 10.00003, 9.998793 
2.1751472e+3, 2.3142833e+2, -659433.06, -766949.8, -99447.64, 0.0902604, 0.19176179, -600143.7, 71870.41, 0.0, 10.000377, 9.998852 
2.175198e+3, 2.4142706e+2, -572648.06, -718987.4, -88321.35, 0.04019382, 0.2081655, -531124.9, 42902.8, 0.0, 10.000455, 9.998495 
2.1752493e+3, 2.5142455e+2, -375648.6, -535423.94, -71863.55, 0.0077488706, 0.062149126, -348082.03, 127971.2, 0.0, 10.001027, 9.998774 
2.175301e+3, 2.6142326e+2, -261332.48, -462062.7, -73869.086, -0.03363001, 0.07610442, -237078.98, 140987.23, 0.0, 10.001231, 9.99854 
2.1753538e+3, 2.7142355e+2, -73759.95, -287447.66, -72110.64, 0.028800732, 0.20706491, -51702.473, 228359.38, 0.0, 10.001744, 9.99879 
2.1754062e+3, 2.8142133e+2, -53687.23, -368280.44, -137101.2, 0.078710124, 0.16256809, -2323.9116, 179758.7, 0.0, 10.001766, 9.997577 
2.1754567e+3, 2.9141602e+2, 31992.684, -279271.72, -127911.69, 0.08328208, -0.1589113, 77812.164, 161947.0, 0.00000028754212, 10.001728, 9.997501 
2.1755102e+3, 3.0141756e+2, 162184.25, -44290.31, -24621.414, 0.12137616, 0.19046941, 165079.67, 165079.67, 0.0000061263827, 10.001634, 9.998857 
2.1755642e+3, 3.1141558e+2, 357514.4, -54556.21, 64666.176, -0.010963174, -0.018646533, 367424.13, 367424.13, 0.000027574106, 10.003443, 9.997858 
2.1846862e+3, 1.4137669e+2, -1837930.4, -1620098.6, -102954.22, 0.34355593, -0.05130781, -1579140.4, -24628.783, 0.34983045, 9.997429, 10.000505 
2.1847348e+3, 1.5137862e+2, -1496730.6, -1456230.0, 5056.494, -0.034916952, 0.1158207, -1455608.3, 885.54895, 0.2059314, 9.999401, 10.000003 
2.1847874e+3, 1.6137813e+2, -1431323.6, -1438782.3, -48953.656, 0.10571022, 0.09975307, -1385957.5, -27456.771, 0.09816949, 9.999461, 9.999439 
2.1848391e+3, 1.7137842e+2, -1285639.9, -1264326.1, -85241.305, 0.09995325, 0.12527661, -1189078.1, 71422.2, 0.036017943, 9.999661, 9.999828 
2.1848899e+3, 1.8137826e+2, -1209553.0, -1244448.9, -114006.29, 0.017307797, 0.16217305, -1111667.3, 50836.11, 0.009796201, 9.9997015, 9.999313 
2.1849419e+3, 1.913772e+2, -1107300.3, -1124615.1, -88607.53, 0.029243054, 0.08798439, -1026928.25, 37584.87, 0.0020521113, 9.999691, 9.999433 
2.184994e+3, 2.0137617e+2, -1050607.4, -1097083.8, -62359.777, 0.08769723, 0.07275287, -1007296.7, -40774.184, 0.00020967671, 9.999604, 9.999017 
2.1850455e+3, 2.1137543e+2, -845137.06, -928008.25, -89220.234, 0.112434685, 0.064318456, -788200.1, 80330.914, 0.00000086887735, 10.000304, 9.999143 
2.1850964e+3, 2.2137494e+2, -682253.0, -824122.5, -69271.86, 0.12694567, 0.12773187, -654039.75, 116497.06, 0.0, 10.00082, 9.998956 
2.1851474e+3, 2.313751e+2, -557353.6, -669474.2, -65657.17, 0.08433747, 0.20158865, -527079.56, 145455.64, 0.0, 10.000882, 9.999274 
2.1851985e+3, 2.413744e+2, -505377.2, -672382.94, -25704.15, 0.057273127, 0.23991905, -501510.53, 73031.39, 0.0, 10.000836, 9.998641 
2.18525e+3, 2.513714e+2, -443703.06, -574706.5, -26860.754, 0.028528992, 0.04867919, -438409.47, 38162.88, 0.0, 10.000559, 9.998742 
2.1853022e+3, 2.6137e+2, -391682.28, -524463.44, 12722.388, 0.041262466, 0.048580185, -390474.28, -11887.091, 0.0, 10.000303, 9.998575 
2.1853554e+3, 2.7137116e+2, -232549.23, -361602.72, 15857.055, 0.11249695, 0.26802057, -230629.4, 49947.547, 0.0, 10.000629, 9.998831 
2.1854082e+3, 2.8136957e+2, -106323.73, -380361.38, 12680.118, 0.15844761, 0.2714398, -105738.25, 76854.96, 0.0, 10.00131, 9.997735 
2.185459e+3, 2.9136357e+2, 199487.5, -209142.28, -1855.6609, 0.089496456, -0.11665712, 199495.94, 284148.3, 0.000000027227998, 10.002893, 9.997442 
2.1855134e+3, 3.0136505e+2, 424354.38, -43735.96, 108664.72, 0.19656473, 0.27965438, 448350.22, 448350.22, 0.0000044959556, 10.003891, 9.997823 
2.1855672e+3, 3.1136215e+2, 185532.5, -4875.6367, -51924.46, 0.054999847, 0.10985708, 198771.8, 198771.8, 0.000025056477, 10.001557, 9.999182 
2.1946841e+3, 1.4132667e+2, -1565502.3, -1191730.9, -256020.77, 0.26085106, 0.025414811, -1061642.0, 493363.44, 0.371045, 9.997601, 10.004933 
2.1947302e+3, 1.5132852e+2, -1598103.5, -1698374.1, 43056.758, -0.4788953, 0.27902395, -1582152.3, -125169.62, 0.22535217, 9.999543, 9.998275 
2.1947888e+3, 1.6132289e+2, -1464612.3, -1540370.9, -73608.22, 0.2418773, -0.15742052, -1419708.6, -60669.84, 0.113554515, 9.999612, 9.998666 
2.1948403e+3, 1.7132334e+2, -1382583.4, -1464190.9, -71276.65, 0.2172176, 0.01798004, -1341257.3, -80216.836, 0.046104282, 9.999658, 9.998448 
2.1948892e+3, 1.8132357e+2, -1183630.9, -1207357.4, -121153.61, -0.08782725, 0.17774601, -1073761.1, 89281.37, 0.015073848, 9.999773, 9.99954 
2.1949416e+3, 1.9132337e+2, -1037972.1, -970383.8, -85027.11, 0.006012739, 0.100627586, -912681.25, 152358.94, 0.004138987, 9.999649, 10.000516 
2.1949944e+3, 2.0132293e+2, -1053045.1, -1064312.9, -64414.223, 0.1254045, 0.05864592, -994018.8, -26978.088, 0.00072646124, 9.999445, 9.999315 
2.1950449e+3, 2.1132149e+2, -891386.4, -964387.94, -52857.91, 0.024936914, -0.0138688255, -863651.1, 5404.93, 0.000022642807, 10.000053, 9.999006 
2.1950957e+3, 2.2132038e+2, -727901.9, -827442.0, -71336.67, -0.07543678, -0.01214425, -690689.3, 80378.72, 0.000000000011542125, 10.000424, 9.999121 
2.1951474e+3, 2.313205e+2, -561997.44, -628814.5, -52729.69, -0.009179891, 0.02011736, -532983.6, 140081.58, 0.0, 10.000662, 9.99966 
2.1951994e+3, 2.413205e+2, -557568.0, -671875.5, -47010.46, 0.035562087, 0.09622864, -540718.1, 34345.984, 0.0, 10.000388, 9.998852 
2.1952513e+3, 2.5131944e+2, -472173.88, -579437.4, -27074.41, 0.067467764, 0.082474336, -465727.44, 11349.895, 0.0, 10.000329, 9.998818 
2.1953033e+3, 2.613188e+2, -449901.28, -536521.2, 76.18872, 0.09579925, 0.15282044, -449901.2, -70814.96, 0.0, 9.999861, 9.998688 
2.1953566e+3, 2.7131873e+2, -256852.48, -342920.44, 44565.742, 0.15984146, 0.22058457, -237934.64, 43154.652, 0.0, 10.000356, 9.999071 
2.1954097e+3, 2.813177e+2, -151753.97, -364811.4, 37694.957, 0.14087915, 0.2508035, -145281.45, 37819.375, 0.0, 10.000865, 9.998045 
2.1954612e+3, 2.9131466e+2, 145904.86, -229198.31, 82299.07, -0.0022393109, 0.13410623, 163167.19, 248299.69, 0.000000020729713, 10.002509, 9.997485 
2.1955152e+3, 3.013137e+2, 157619.3, -390259.4, 66909.484, -0.070184216, 0.3773894, 165672.23, 165672.23, 0.0000055230016, 10.003054, 9.9958105 
2.1955693e+3, 3.1130877e+2, 5971.6895, -111221.42, -121806.1, 0.08016434, 0.20654123, 82542.74, 82542.74, 0.000029811183, 10.00052, 9.998896 
2.2046816e+3, 1.4127357e+2, -1373863.5, -1116200.1, -143921.38, 0.21062374, -0.11948985, -1051871.4, 503655.75, 0.39437363, 9.999304, 10.0049925 
2.2047293e+3, 1.5127598e+2, -1602846.1, -1778018.4, -24772.383, -0.51875365, 0.3015997, -1599410.3, -141912.19, 0.24751917, 9.999869, 9.997565 
2.2047888e+3, 1.6126949e+2, -1395600.0, -1527415.3, -120990.99, 0.28644362, -0.17469722, -1323730.1, 35832.246, 0.13222682, 10.000181, 9.998512 
2.20484e+3, 1.7126971e+2, -1351406.6, -1471078.1, -53048.453, 0.24830946, -0.006013235, -1331277.0, -69711.67, 0.059555795, 9.999895, 9.998326 
2.2048894e+3, 1.8126996e+2, -1243412.4, -1215663.3, -115.34718, 0.03203809, 0.15501776, -1215662.8, -52096.277, 0.023171267, 9.999264, 9.999735 
2.2049417e+3, 1.9126992e+2, -1012115.3, -929168.75, -34178.895, 0.064948924, 0.06721884, -916899.8, 148662.28, 0.008108057, 9.999698, 10.000802 
2.204994e+3, 2.0126978e+2, -963528.5, -1003519.94, -31865.22, 0.14294851, 0.033015966, -945904.8, 21654.637, 0.0021629941, 9.999977, 9.999487 
2.2050454e+3, 2.1126889e+2, -870058.7, -944144.75, -27588.178, 0.070785984, 0.0051658796, -860914.1, 8655.545, 0.00023583506, 10.000135, 9.999116 
2.2050965e+3, 2.212679e+2, -757666.0, -829991.0, -20281.951, 0.014129959, 0.008937859, -752366.6, 19213.824, 0.0000019906881, 10.000167, 9.999233 
2.2051479e+3, 2.3126735e+2, -632447.0, -660856.3, -61356.695, 0.0057256324, -0.030295556, -583672.2, 89911.17, 0.0, 10.000155, 9.999699 
2.2051995e+3, 2.4126686e+2, -581589.9, -675145.44, -48516.133, 0.04475791, -0.0054048677, -560973.5, 14612.917, 0.0, 10.000171, 9.998941 
2.2052522e+3, 2.5126654e+2, -438769.2, -534030.3, -58023.395, 0.13930458, 0.037856523, -411330.56, 66261.53, 0.0, 10.000485, 9.999033 
2.2053047e+3, 2.6126608e+2, -321551.06, -500671.16, -1589.3848, 0.22287132, 0.121645, -321536.97, 58062.168, 0.0, 10.000839, 9.99847 
2.2053577e+3, 2.7126494e+2, -121648.29, -340190.8, -14988.669, 0.17399879, 0.13304915, -120625.086, 160988.94, 0.0, 10.001514, 9.998551 
2.2054109e+3, 2.8126422e+2, 30715.77, -242755.11, -23331.322, 0.14211234, 0.20940681, 32692.014, 216316.53, 0.0, 10.001969, 9.99835 
2.2054641e+3, 2.912626e+2, 120251.586, -157533.97, -8213.671, 0.09707129, 0.19273041, 120494.234, 206135.56, 0.00000007580395, 10.001983, 9.998228 
2.205518e+3, 3.012607e+2, 14609.904, -452006.8, 78482.0, 0.021936687, 0.28028208, 27456.404, 27456.404, 0.0000083740215, 10.00199, 9.995927 
2.2055723e+3, 3.1125706e+2, 350667.2, 96400.56, -110083.97, 0.23570225, 0.27405113, 391704.5, 391704.5, 0.000042885644, 10.002647, 9.999302 
2.2146814e+3, 1.412231e+2, -1644223.5, -1591707.4, 189734.75, 0.15324202, 0.07836998, -1426422.4, 129598.26, 0.4221777, 9.999246, 10.000176 
2.2147326e+3, 1.5122014e+2, -1607764.9, -1786192.9, 18817.219, -0.18469279, 0.12735131, -1605802.0, -147753.42, 0.27423543, 9.999875, 9.997515 
2.2147866e+3, 1.6121793e+2, -1332927.8, -1431219.9, -131481.38, -0.0063684816, 0.089881435, -1241707.6, 118364.04, 0.15564767, 10.000396, 9.999102 
2.2148378e+3, 1.7121771e+2, -1250739.5, -1263086.0, -63373.563, 0.027802018, 0.07589547, -1193239.3, 68834.07, 0.07778218, 9.999922, 9.99975 
2.2148909e+3, 1.8121748e+2, -1230653.9, -1202964.4, -13953.699, 0.1905555, 0.09480928, -1197152.5, -33077.996, 0.035576556, 9.999319, 9.999798 
2.2149417e+3, 1.912168e+2, -1071355.1, -1022638.56, -5149.5195, 0.08013699, -0.008241329, -1022100.2, 43978.863, 0.0154146915, 9.999577, 10.000211 
2.2149925e+3, 2.0121655e+2, -988485.4, -1016441.44, -30960.611, -0.050977685, -0.013867483, -968493.6, -413.51675, 0.005714695, 9.999803, 9.999482 
2.2150458e+3, 2.1121743e+2, -874468.0, -905957.3, -10860.26, 0.09840956, 0.106359534, -871085.7, -1012.0974, 0.0013616167, 9.999928, 9.9994755 
2.2150986e+3, 2.2121765e+2, -828553.94, -880339.7, -34109.79, 0.17903657, 0.21105824, -811622.5, -39549.566, 0.00013056793, 9.999754, 9.999085 
2.2151479e+3, 2.3121534e+2, -696362.0, -734714.94, -48793.617, -0.0066383067, 0.028792268, -663111.8, 10980.837, 0.0000045921656, 9.999895, 9.999319 
2.2151983e+3, 2.4121328e+2, -661139.94, -721594.5, -60623.094, -0.121617444, -0.07378304, -623626.2, -47515.66, 0.000000030624218, 9.999688, 9.998842 
2.2152524e+3, 2.5121254e+2, -470178.16, -529640.75, -33976.465, 0.113348626, -0.08450637, -454761.38, 23356.592, 0.0, 10.000203, 9.999189 
2.2153059e+3, 2.6121154e+2, -429613.63, -617800.9, 422.62726, 0.23591322, -0.045851823, -429612.7, -49483.67, 0.0, 10.000404, 9.997867 
2.2153577e+3, 2.7120999e+2, -238323.23, -509797.4, 25158.027, 0.023450246, 0.0118034035, -236011.48, 46138.727, 0.0, 10.00122, 9.997518 
2.2154109e+3, 2.8120914e+2, -59429.973, -295228.94, -27926.494, -0.08050428, 0.15744703, -56167.676, 127995.766, 0.0, 10.001419, 9.998239 
2.2154672e+3, 2.912075e+2, 125371.16, -56443.6, 14167.566, 0.1935643, 0.06774111, 126468.516, 212647.17, 0.00000027397763, 10.001614, 9.999087 
2.2155218e+3, 3.0120602e+2, 55017.695, -204155.53, 69009.39, 0.12522551, 0.04821971, 72247.25, 72247.25, 0.000015050563, 10.001336, 9.997914 
2.2155727e+3, 3.1120518e+2, 196443.98, 32094.871, 81301.77, -0.043714944, 0.11775385, 229866.3, 229866.3, 0.00007034586, 10.001608, 9.999334 
2.224677e+3, 1.411653e+2, -1805300.4, -1522012.3, -28749.08, -0.12180586, 0.24555223, -1519124.1, 37466.797, 0.45833316, 9.997217, 10.001402 
2.2247346e+3, 1.5116437e+2, -1383673.0, -1471929.6, -28675.764, 0.0012997343, -0.0033273618, -1375174.3, 83423.61, 0.30885017, 10.000834, 9.999193 
2.2247866e+3, 1.6116546e+2, -1290949.4, -1374401.3, -64705.57, -0.030061547, 0.19608954, -1255682.8, 104903.016, 0.18666483, 10.000537, 9.999415 
2.2248377e+3, 1.7116477e+2, -1197679.8, -1182722.3, -110287.5, 0.010996203, 0.0831219, -1079660.3, 182929.81, 0.103338934, 10.000089, 10.000271 
2.2248909e+3, 1.8116422e+2, -1266307.3, -1251107.5, -83412.32, 0.2997137, 0.04174728, -1174949.5, -10356.205, 0.054786276, 9.999189, 9.99954 
2.2249414e+3, 1.9116344e+2, -1120937.1, -1115980.1, -85291.05, 0.11715121, -0.013138127, -1033131.56, 33470.23, 0.028543482, 9.9995165, 9.999594 
2.2249918e+3, 2.0116311e+2, -1001622.75, -1007392.25, -94160.62, -0.058324784, 0.0074653733, -910302.7, 58303.32, 0.013685946, 9.99965, 9.9996195 
2.2250457e+3, 2.1116433e+2, -934645.06, -873767.6, -98619.11, 0.14310914, 0.1154967, -800996.6, 69598.06, 0.005262215, 9.999264, 10.000022 
2.2250989e+3, 2.2116478e+2, -917320.25, -916340.1, -63378.98, 0.30673647, 0.2076399, -853449.3, -80859.48, 0.001420654, 9.999082, 9.999174 
2.2251484e+3, 2.3116243e+2, -742861.56, -771088.2, -74953.195, 0.0732296, 0.030775338, -680704.5, -6094.0854, 0.0002619265, 9.999612, 9.999215 
2.2251983e+3, 2.4116021e+2, -605719.8, -702912.9, -45149.72, -0.07966429, -0.072957456, -587982.94, -11352.758, 0.000035642544, 10.000092, 9.998787 
2.2252527e+3, 2.5115946e+2, -390088.66, -492431.4, -43309.63, 0.11734738, -0.082221545, -374220.97, 104416.805, 0.0000011567587, 10.000714, 9.999224 
2.2253066e+3, 2.611585e+2, -311284.0, -559660.94, 20054.48, 0.25438872, -0.044328857, -309675.2, 70973.555, 0.0, 10.001197, 9.997893 
2.2253591e+3, 2.7115673e+2, -161719.86, -461359.94, 70934.42, 0.04458933, -0.0042937645, -145775.8, 136895.13, 0.0, 10.001731, 9.9976 
2.2254126e+3, 2.8115562e+2, -8236.591, -276768.28, 74403.06, -0.03266337, 0.10639048, 11000.44, 195686.61, 0.0, 10.001778, 9.998212 
2.2254688e+3, 2.9115346e+2, 79857.6, -84093.66, 29350.879, 0.21702959, -0.00834375, 84953.66, 171660.27, 0.00000073017384, 10.001333, 9.999031 
2.2255239e+3, 3.01153e+2, 124760.89, -117736.305, 61565.598, 0.2393452, 0.0366761, 139495.92, 139495.92, 0.00002755439, 10.001561, 9.998424 
2.2255744e+3, 3.111509e+2, 519248.84, 217372.66, -111963.4, -0.09971963, -0.016745357, 556241.9, 556241.9, 0.000118261974, 10.003645, 9.999671 
2.2347338e+3, 1.5110947e+2, -1255276.3, -1135036.6, -73526.22, -0.19397694, 0.032643467, -1100180.1, 358958.1, 0.35698506, 10.000562, 10.002799 
2.2347885e+3, 1.6111113e+2, -1298270.8, -1387424.6, -80962.74, 0.031721912, 0.050225124, -1250424.4, 110689.73, 0.23053116, 10.000561, 9.999335 
2.2348386e+3, 1.7111048e+2, -1249491.1, -1264829.0, -131951.38, 0.07890248, -0.015436618, -1124986.0, 138133.23, 0.14104874, 10.0, 9.999743 
2.234889e+3, 1.8111001e+2, -1313207.0, -1342177.3, -103518.305, 0.14129898, -0.0058485963, -1223165.3, -58041.098, 0.08532412, 9.9991665, 9.998924 
2.2349402e+3, 1.9110976e+2, -1181325.9, -1215268.3, -63374.89, 0.037562292, 0.05736577, -1132689.1, -65557.99, 0.05187056, 9.999402, 9.998966 
2.2349915e+3, 2.0110956e+2, -1021076.94, -995727.44, -114596.94, -0.07629439, 0.12978327, -893106.44, 76029.61, 0.030293982, 9.999433, 9.999809 
2.2350444e+3, 2.1110934e+2, -914229.94, -781676.9, -105735.39, 0.07705815, 0.031351842, -723163.4, 147971.1, 0.015773455, 9.999043, 10.0007715 
2.2350974e+3, 2.2110917e+2, -956882.0, -894658.6, -66028.35, 0.20727141, -0.0034437615, -852779.3, -79646.85, 0.0069356123, 9.998652, 9.999518 
2.2351483e+3, 2.3110856e+2, -763164.44, -760166.1, -39695.203, 0.08991653, -0.03238287, -721941.75, -46804.72, 0.002541045, 9.999383, 9.9993925 
2.2351989e+3, 2.4110767e+2, -685554.6, -757153.44, -42737.87, -0.0520526, -0.0053786733, -665603.5, -88457.98, 0.00075579167, 9.99963, 9.998626 
2.2352524e+3, 2.5110728e+2, -444238.16, -530718.75, -10259.628, 0.00877919, 0.024491802, -443037.66, 36114.535, 0.00014769337, 10.000398, 9.999107 
2.2353062e+3, 2.6110676e+2, -381365.2, -561538.0, 12983.862, 0.059183814, 0.109899625, -380434.34, 725.78394, 0.000007045108, 10.000609, 9.998145 
2.2353613e+3, 2.7110484e+2, -162875.78, -380455.63, 97105.086, 0.06794048, 0.06486704, -125841.68, 157338.16, 0.00000000065814787, 10.00138, 9.998311 
2.2354156e+3, 2.8110287e+2, -109621.195, -335808.16, 28503.928, 0.033371948, 0.037536792, -106084.45, 79115.42, 0.0, 10.001174, 9.998073 
2.235468e+3, 2.911003e+2, -63307.926, -267368.97, 26363.46, -0.0041728946, -0.064928845, -59956.953, 27271.088, 0.0000012574419, 10.000881, 9.997966 
2.2355239e+3, 3.0110058e+2, -112817.914, -413438.44, 82709.43, 0.057074822, 0.20780703, -91564.7, -91564.7, 0.000044073433, 10.000772, 9.996746 
2.2355781e+3, 3.110973e+2, 315847.4, 132109.0, 68923.805, -0.14688456, 0.15866973, 338827.84, 338827.84, 0.00018419352, 10.002298, 9.999699 
2.2447343e+3, 1.5105708e+2, -1726371.0, -1342421.6, 8736.472, -0.037670225, 0.16459289, -1342222.9, 117427.83, 0.42759266, 9.996574, 10.002549 
2.244789e+3, 1.6105708e+2, -1459046.6, -1400583.1, -35239.09, 0.13978636, -0.073046036, -1384029.6, -22389.037, 0.29616648, 9.99899, 9.999957 
2.244839e+3, 1.7105705e+2, -1178434.4, -1290936.6, -116429.9, 0.1060154, -0.0380161, -1105379.3, 158261.92, 0.19952731, 10.000899, 9.999139 
2.2448888e+3, 1.8105678e+2, -992879.06, -1188839.3, -94429.35, 0.12153989, 0.035727423, -954781.94, 210863.88, 0.13536815, 10.001602, 9.998828 
2.24494e+3, 1.9105674e+2, -1147025.0, -1178736.9, -58341.184, 0.07071168, 0.10679237, -1102423.5, -34773.156, 0.09319166, 9.999535, 9.999168 
2.2449912e+3, 2.0105664e+2, -1277622.3, -1154630.9, -13954.189, 0.047522977, 0.18232226, -1153067.5, -183413.33, 0.06306426, 9.99776, 9.999551 
2.2450443e+3, 2.1105549e+2, -929268.3, -842770.6, -81974.98, 0.1620573, 0.038860146, -793335.25, 78326.32, 0.0400799, 9.999144, 10.00033 
2.2450969e+3, 2.2105436e+2, -695901.6, -805038.7, -100286.195, 0.24356341, -0.04323496, -636299.0, 137369.94, 0.023131557, 10.000584, 9.9992285 
2.2451481e+3, 2.3105396e+2, -643919.75, -723208.25, -156711.98, 0.13238156, -0.03103437, -521915.25, 153758.33, 0.011994159, 10.000298, 9.999216 
2.2451995e+3, 2.4105343e+2, -618709.8, -738340.44, -145126.02, 0.050662022, 0.053600617, -521555.6, 56124.82, 0.0054928027, 10.000085, 9.998565 
2.2452529e+3, 2.5105345e+2, -440572.25, -514698.7, -117606.71, 0.039097473, 0.123611435, -354326.84, 125356.55, 0.002050329, 10.000343, 9.999258 
2.2453062e+3, 2.6105326e+2, -427578.53, -575186.3, -66310.24, 0.06834915, 0.23723479, -402165.2, -20476.664, 0.0004876709, 10.0002365, 9.998246 
2.2453628e+3, 2.7105135e+2, -262431.5, -393429.06, -23003.21, 0.14279956, 0.17590874, -258509.56, 25197.797, 0.000047167257, 10.000539, 9.99864 
2.2454175e+3, 2.8104952e+2, -155761.84, -331429.7, -87213.49, 0.17791173, 0.12201513, -119817.78, 65907.92, 0.00000034188096, 10.000715, 9.998338 
2.24547e+3, 2.9104692e+2, 217970.1, -149533.72, -76075.2, 0.012214921, 0.04020525, 233095.53, 320849.1, 0.0000013302117, 10.002841, 9.997861 
2.2455262e+3, 3.0104655e+2, 284438.03, -278266.56, 67363.76, 0.08535377, 0.2545511, 292390.06, 292390.06, 0.0000584347, 10.003678, 9.996288 
2.245582e+3, 3.1104252e+2, 138741.39, 136501.11, -21653.283, 0.12324143, 0.21977948, 159303.48, 159303.48, 0.00025945, 10.000579, 10.0005665 
2.2547871e+3, 1.6100441e+2, -1523232.5, -1388966.9, 20413.354, -0.05211755, -0.05159863, -1385931.9, -23777.035, 0.39765337, 9.99837, 10.000307 
2.2548388e+3, 1.7100431e+2, -1229596.0, -1390678.9, -70705.23, -0.065406896, 0.011974259, -1202964.0, 61193.67, 0.29298013, 10.000841, 9.998409 
2.2548904e+3, 1.8100415e+2, -1040047.3, -1203985.6, -154617.98, 0.023728004, 0.145706, -947014.56, 219146.94, 0.21888196, 10.001356, 9.998903 
2.2549397e+3, 1.9100392e+2, -1128960.5, -1072321.5, -140598.3, 0.06666045, 0.1047378, -957219.0, 110945.25, 0.16615056, 9.999272, 10.000094 
2.2549897e+3, 2.0100398e+2, -1380984.4, -1289257.5, -25639.23, 0.08897461, 0.14273205, -1282577.4, -312413.47, 0.12546477, 9.997429, 9.998763 
2.2550441e+3, 2.1100245e+2, -1079892.5, -1099308.5, -6725.9863, 0.22462556, 0.10541724, -1077790.1, -205611.69, 0.0914258, 9.99892, 9.998637 
2.2550975e+3, 2.2100039e+2, -846975.6, -1020022.25, -93025.52, 0.20297223, 0.0825632, -806455.5, -32256.258, 0.062582165, 10.000141, 9.99796 
2.2551481e+3, 2.3099855e+2, -729614.75, -846846.8, -160132.7, 0.083015524, 0.028390149, -617707.06, 58513.637, 0.039919913, 10.0000515, 9.998489 
2.2551994e+3, 2.4099745e+2, -733903.56, -805578.06, -162392.06, 0.009132279, 0.11280408, -603441.44, -25206.408, 0.023601582, 9.999377, 9.998426 
2.2552533e+3, 2.509982e+2, -464813.66, -477649.25, -96863.945, 0.043897863, 0.21194533, -374155.13, 106074.664, 0.012405956, 9.999998, 9.999663 
2.2553067e+3, 2.60998e+2, -530071.0, -653239.3, -93252.805, 0.05666804, 0.33077312, -479902.3, -97668.586, 0.005154125, 9.999694, 9.997956 
2.2553627e+3, 2.7099636e+2, -335955.47, -429862.63, -887.9911, 0.097285576, 0.28644934, -335947.06, -51694.34, 0.0013586987, 10.000066, 9.998602 
2.255418e+3, 2.8099537e+2, -276418.03, -383284.0, -72108.586, 0.13360031, 0.3149033, -240102.88, -53837.97, 0.00015517221, 9.999911, 9.998344 
2.2554736e+3, 2.9099366e+2, 163645.61, -112546.78, 30264.947, 0.07000639, 0.3016095, 166923.13, 255203.16, 0.0000026982873, 10.002272, 9.998349 
2.255529e+3, 3.0099118e+2, 179953.5, -293112.25, -28170.605, -0.051438086, 0.24095894, 181625.13, 181625.13, 0.000065484004, 10.002877, 9.996542 
2.2555828e+3, 3.1098372e+2, 68833.59, 218145.34, 60289.855, 0.083756894, -0.13195798, 239449.7, 239449.7, 0.00034262822, 9.999673, 10.001551 
2.2648394e+3, 1.7095026e+2, -1473515.9, -1380461.1, 50938.02, 0.07923272, -0.07021333, -1357999.5, -93319.55, 0.44342524, 9.997701, 10.00015 
2.2648922e+3, 1.8095073e+2, -944293.56, -1272947.9, 65916.375, -0.03769429, -0.19946615, -931565.94, 235112.06, 0.3585124, 10.003086, 9.99756 
2.2649392e+3, 1.90949e+2, -1052887.1, -1286805.1, -224770.63, 0.023191579, -0.12695348, -916466.5, 152230.61, 0.29413474, 10.001196, 9.9976635 
2.2649875e+3, 2.009474e+2, -990023.4, -1167942.5, -146879.94, 0.013988047, -0.08979371, -907263.6, 63450.984, 0.24160613, 10.000371, 9.998274 
2.2650407e+3, 2.1094602e+2, -702221.9, -908180.94, -16973.17, -0.121224456, -0.08919014, -700832.5, 171897.4, 0.1940874, 10.001755, 9.998633 
2.2650954e+3, 2.2094475e+2, -492352.53, -833252.1, -19023.646, -0.13605812, -0.033616748, -491294.22, 283450.3, 0.14888066, 10.002895, 9.997941 
2.2651485e+3, 2.3094395e+2, -442357.2, -715788.75, -95357.414, -0.0010182746, 0.051384643, -412386.94, 264367.84, 0.108788945, 10.002298, 9.998332 
2.2652006e+3, 2.409426e+2, -417375.22, -693884.1, -39814.406, 0.097716205, 0.1413426, -411756.53, 167014.13, 0.07581198, 10.001747, 9.998082 
2.2652547e+3, 2.509416e+2, -265082.63, -448971.2, -53347.46, 0.10882142, 0.11211983, -250726.84, 230055.92, 0.048806984, 10.001618, 9.999162 
2.2653072e+3, 2.6094016e+2, -287046.53, -573882.56, -69442.914, 0.086970836, 0.1569314, -271118.84, 111680.64, 0.026684597, 10.001444, 9.997704 
2.2653633e+3, 2.709389e+2, -96069.42, -329188.75, -19820.47, 0.086395524, 0.16389823, -94396.24, 190419.27, 0.010897145, 10.001691, 9.998559 
2.2654185e+3, 2.8093842e+2, -235796.78, -373149.66, -68534.98, 0.20145105, 0.260601, -207450.05, -20627.03, 0.002788968, 10.000188, 9.998309 
2.2654773e+3, 2.9093748e+2, 122219.67, -106599.984, 73290.14, 0.27174857, 0.3240924, 143681.3, 232512.3, 0.0003034348, 10.001895, 9.998584 
2.2655335e+3, 3.0093408e+2, 225859.73, -263766.47, -61893.254, 0.12095348, 0.10969866, 233562.44, 233562.44, 0.000074942734, 10.003195, 9.996614 
2.2655852e+3, 3.1092754e+2, 528375.06, 247070.31, -113201.21, 0.17563309, 0.017633036, 568270.75, 568270.75, 0.00045627946, 10.003523, 10.000004 
2.2749898e+3, 2.0089152e+2, -1042277.0, -1432735.5, -13240.286, 0.119090155, -0.006290108, -1041828.56, -70567.484, 0.4526298, 10.000953, 9.996084 
2.2750439e+3, 2.1089128e+2, -927228.75, -880681.25, 49198.992, -0.005930998, -0.019854585, -849528.8, 23737.137, 0.38963944, 9.999288, 9.9999895 
2.2751023e+3, 2.2089098e+2, -1290204.4, -1202866.4, -156925.03, 0.21984488, -0.006685462, -1083647.5, -308377.47, 0.32267725, 9.996958, 9.998202 
2.2751528e+3, 2.3088983e+2, -961212.4, -942998.06, -148060.28, 0.20361668, -0.01626401, -803765.1, -126485.45, 0.25840095, 9.998437, 9.998536 
2.2752029e+3, 2.408874e+2, -733024.6, -1038771.25, -52941.477, 0.061475255, 0.026721342, -724117.06, -144814.8, 0.20062341, 10.000326, 9.996362 
2.2752567e+3, 2.5088346e+2, -490554.88, -706108.06, -42615.547, 0.10038659, -0.2223972, -482435.5, -1090.5211, 0.14660953, 10.000666, 9.997789 
2.2753076e+3, 2.6088032e+2, -655434.56, -902028.1, -101562.48, -0.05884965, -0.21330632, -618990.8, -235610.67, 0.09444842, 9.999589, 9.996298 
2.2753642e+3, 2.7088004e+2, -213583.81, -403756.16, -17295.797, -0.03342755, -0.10435879, -212023.6, 73362.06, 0.04983968, 10.0010195, 9.998321 
2.2754182e+3, 2.8087968e+2, -453045.6, -549298.4, -156979.05, 0.13441414, 0.053096376, -336981.34, -149589.45, 0.019500945, 9.999073, 9.997599 
2.27548e+3, 2.908787e+2, -9033.92, -183465.45, 155863.52, 0.35062185, 0.09190339, 82356.086, 171759.34, 0.004786881, 10.001113, 9.998399 
2.2755376e+3, 3.0087525e+2, -51128.92, -484970.0, -114054.5, 0.16992041, -0.1255345, -22972.025, -22972.025, 0.0007184054, 10.001796, 9.995709 
2.2755869e+3, 3.1087455e+2, -83769.05, -552839.5, 19768.273, -0.07016242, 0.5063787, -82937.42, -82937.42, 0.0007782504, 10.001717, 9.995274 
2.2852044e+3, 2.4083081e+2, -187089.69, -77495.805, -93714.8, -0.017761262, -0.1243031, -23733.236, 556126.2, 0.45869297, 10.001206, 10.006056 
2.2852485e+3, 2.5083336e+2, -1226646.3, -1148175.0, -298135.63, -0.50683045, 0.4091937, -886704.3, -404867.4, 0.36361384, 9.995909, 9.997191 
2.28531e+3, 2.6082733e+2, -1065120.3, -1091134.0, -91212.25, 0.316173, 0.17750475, -985992.1, -602090.5, 0.26167566, 9.996466, 9.996603 
2.2853704e+3, 2.708257e+2, -28042.277, -275502.2, 55576.047, 0.47735113, 0.15286985, -16133.748, 269784.4, 0.1640845, 10.002371, 9.998696 
2.2854212e+3, 2.8082284e+2, 44763.496, -286897.25, -149198.77, 0.37704906, 0.060620874, 102002.586, 289949.6, 0.0825175, 10.002429, 9.99788 
2.285479e+3, 2.9082212e+2, 281032.2, -42388.805, 265591.25, 0.08476387, 0.11442394, 430270.25, 520228.3, 0.030766618, 10.0029745, 9.998602 
2.2855388e+3, 3.0082235e+2, 290218.3, -13762.612, -6368.9165, 0.12888671, 0.15944369, 290351.7, 290351.7, 0.009050352, 10.0026245, 9.9986315 
2.2855896e+3, 3.1081995e+2, -140739.44, -48875.74, 92235.34, 0.17611545, 0.29310235, 8231.689, 8231.689, 0.0039668567, 9.998964, 10.000056 
2.2953686e+3, 2.7076656e+2, 179531.66, -23361.064, -203999.11, 0.035727177, -0.006651861, 305916.38, 592420.2, 0.434636, 10.005178, 10.000249 
2.2954263e+3, 2.8076646e+2, -1267476.0, -1236465.3, -436619.25, 0.5310875, 0.068661705, -815076.1, -626573.6, 0.25417715, 9.994739, 9.994931 
2.2954752e+3, 2.907709e+2, 49839.19, -149732.4, 357979.9, -0.70221573, 0.41982067, 321680.66, 412144.0, 0.12177648, 10.001664, 9.998458 
2.2955383e+3, 3.0077824e+2, -535602.56, -303948.22, -155810.11, -0.36434203, 1.1997428, -225629.23, -225629.23, 0.0540786, 9.99668, 9.9993515 
2.2955953e+3, 3.1076318e+2, 145086.0, 1309443.6, -290555.38, 0.65485907, -0.981274, 1377921.9, 1377921.9, 0.031708144, 9.995925, 10.010914 
2.3054837e+3, 2.907202e+2, -857631.8, -279505.2, -457342.94, -0.10212091, 0.563917, -27532.285, 63434.24, 0.36181808, 9.993269, 10.002247 
2.3055632e+3, 3.0071378e+2, 987177.44, 553135.7, 153427.19, 1.1896813, -0.7898931, 1035934.56, 1035934.56, 0.21642867, 10.007788, 10.001158 
2.3055854e+3, 3.1072527e+2, -129502.195, -1484053.9, -65730.14, -0.5756064, 1.1345514, -126320.09, -126320.09, 0.16972841, 10.004393, 9.988375 
2.3446092e+3, 2.7625725e+2, -281959.0, -794659.6, -1060570.4, 0.5213638, -0.12853646, 552802.56, 785465.3, 0.4723667, 10.003948, 9.995226 
2.3441993e+3, 2.8625208e+2, -1957097.4, -417175.9, -389677.88, 0.09677354, -0.17706588, -324183.34, -189471.17, 0.44417378, 9.984303, 10.004861 
2.3585518e+3, 1.7672928e+2, -162013.16, -702781.5, 424952.53, -0.2985423, -0.52324677, 71281.4, 1279301.9, 0.43653706, 10.011923, 9.999636 
2.3581704e+3, 1.8673015e+2, -920813.9, -1152576.5, 336504.9, 0.78813165, 0.5430025, -680796.3, 429216.6, 0.37769973, 10.00265, 9.998174 
2.3577698e+3, 1.967189e+2, -820126.8, -1151604.0, 500145.47, 0.5683657, 0.23982212, -458973.84, 553157.1, 0.3336194, 10.002869, 9.997568 
2.3573618e+3, 2.0669755e+2, -372870.44, -446009.66, 173308.19, -0.51670307, -1.0615993, -232315.61, 682023.6, 0.30109307, 10.003615, 10.001982 
2.3569666e+3, 2.1669306e+2, -690068.1, -657855.9, 291440.8, -0.013638254, -1.0363947, -382076.47, 434300.53, 0.2783361, 9.9998455, 10.001201 
2.3565677e+3, 2.2669324e+2, -46195.582, -411507.1, 210081.8, -0.39957747, -0.27436703, 49532.363, 767908.8, 0.26130953, 10.005532, 9.999553 
2.3561747e+3, 2.3668315e+2, -1043473.5, -916591.3, -46588.656, -0.5850862, -0.6419398, -901322.3, -280841.3, 0.24582325, 9.996432, 9.999191 
2.355791e+3, 2.466777e+2, -673869.94, -804819.6, 226756.14, 0.5576976, -0.2671819, -503325.1, 19210.768, 0.2302053, 9.999217, 9.997749 
2.3553938e+3, 2.5667152e+2, -806168.9, -725273.0, 510994.94, 0.15793474, 0.074011296, -253127.66, 171468.72, 0.2100039, 9.997014, 9.999004 
2.3549871e+3, 2.666679e+2, 342303.28, 576788.4, 162388.95, -0.44746146, 0.126227, 659835.56, 986466.6, 0.17529997, 10.001684, 10.006203 
2.3545918e+3, 2.7665845e+2, -497698.72, -785146.94, 359428.78, -0.6174995, -0.34108126, -254323.8, -25602.506, 0.13172868, 9.999364, 9.995937 
2.3542002e+3, 2.866515e+2, 631302.5, 223576.95, -31565.031, 0.17711858, 0.00854311, 633731.75, 764529.75, 0.121751785, 10.005395, 9.999645 
2.3538223e+3, 2.9665545e+2, -384306.1, 3913.886, 425445.5, 1.246721, 0.6055877, 277438.97, 310211.72, 0.18210542, 9.996401, 10.002183 
2.3534112e+3, 3.066301e+2, 208524.95, 40717.027, -657890.7, -0.9690351, -1.1458879, 787840.44, 787840.44, 0.30787602, 10.003258, 9.999923 
2.369343e+3, 1.5714274e+2, -1478892.6, -1839860.4, 348119.4, 0.66375387, -0.79049164, -1267252.1, 132710.36, 0.4091781, 10.000691, 9.996241 
2.3689404e+3, 1.6713707e+2, -1337944.4, -1483975.6, -106703.15, -0.5277663, -0.33246562, -1281666.4, 20357.947, 0.31914258, 10.000013, 9.998055 
2.3685491e+3, 1.771198e+2, -1255338.0, -1511088.3, -76865.09, -0.23730637, -1.1785101, -1234014.3, -29825.822, 0.25440118, 10.00014, 9.997279 
2.3681504e+3, 1.8711028e+2, -1037256.94, -958334.44, -95980.3, -0.4433705, -1.2527124, -894019.94, 212262.28, 0.20803176, 9.999513, 10.000854 
2.3677488e+3, 1.9710983e+2, -1141888.4, -1058934.4, -148383.39, -0.76860404, -0.65251803, -946340.06, 61949.816, 0.17323133, 9.99829, 10.000013 
2.3673548e+3, 2.071081e+2, -948773.94, -886016.4, -158588.88, -0.4167239, -0.05235476, -755731.75, 154577.9, 0.14628568, 9.998982, 10.000157 
2.3669682e+3, 2.171063e+2, -636773.75, -758719.7, -194839.23, 0.84162104, 0.4784873, -493589.84, 318739.88, 0.12553912, 10.000778, 9.999581 
2.3665735e+3, 2.2709903e+2, -476288.97, -728096.7, 38896.16, 0.8140764, 0.6260251, -470417.66, 243985.98, 0.108313076, 10.001763, 9.998461 
2.3661694e+3, 2.3708598e+2, -377545.97, -645897.44, 17610.348, -0.23574714, 0.24898133, -376395.25, 240139.39, 0.092006706, 10.001696, 9.998447 
2.365772e+3, 2.4707432e+2, -120570.73, 25520.752, -63245.05, -0.4104731, -0.26946962, 49096.008, 567743.1, 0.07587346, 10.0006895, 10.003156 
2.365385e+3, 2.570615e+2, -508032.34, -510393.6, -65950.58, 0.20287889, -0.9521219, -443251.8, -22483.432, 0.059166577, 9.998972, 9.999304 
2.3649885e+3, 2.670562e+2, 117407.4, 181452.13, -282398.8, 0.33571735, -0.8418313, 433638.34, 756457.5, 0.040461063, 10.001289, 10.002333 
2.3645934e+3, 2.770538e+2, -51329.367, -410584.97, 14808.014, 0.14246379, -0.47636274, -50720.035, 174123.48, 0.02269143, 10.002057, 9.99701 
2.3641945e+3, 2.8704676e+2, 11039.85, -378099.2, -147823.64, 0.012769144, -0.097971156, 60824.844, 187747.88, 0.01787726, 10.002135, 9.996432 
2.3638009e+3, 2.9704028e+2, -551938.6, -362489.4, 345510.97, 0.07155223, -0.059098855, -98953.52, -69952.164, 0.038470108, 9.996722, 9.998887 
2.3634216e+3, 3.070385e+2, -269265.28, 91938.055, -56340.023, 0.851684, 0.5381653, 100521.91, 100521.91, 0.08541464, 9.997449, 10.001639 
2.3797329e+3, 1.4754173e+2, -904830.06, -1376626.1, 22126.76, 0.7510194, -0.69336957, -903794.6, 590250.5, 0.38968268, 10.007431, 9.996984 
2.3793297e+3, 1.5754029e+2, -1528772.3, -1861148.3, -86815.17, -0.18397394, 0.06364515, -1507462.8, -111386.6, 0.27836236, 10.000285, 9.996128 
2.378937e+3, 1.675335e+2, -1392231.9, -1189291.6, 42887.95, -0.0980234, 0.23490605, -1180600.3, 117548.695, 0.19862524, 9.998233, 10.001075 
2.3785481e+3, 1.7752676e+2, -1414461.9, -1343212.6, -42015.047, 0.3013056, 0.116123386, -1323752.1, -123535.63, 0.1461588, 9.998196, 9.9993105 
2.3781487e+3, 1.8751882e+2, -1224127.3, -1142851.9, -149601.22, 0.13674684, 0.13545457, -1028467.1, 73825.44, 0.11113541, 9.99874, 9.999696 
2.3777476e+3, 1.975091e+2, -1331543.9, -1285501.3, -168389.17, -0.06531054, -0.10936241, -1138567.0, -134181.73, 0.08556882, 9.997701, 9.998656 
2.3773508e+3, 2.0749958e+2, -1048717.9, -1007565.2, -99166.77, -0.018583821, -0.22132723, -926862.5, -20380.91, 0.065839775, 9.998729, 9.99927 
2.3769529e+3, 2.1748964e+2, -960840.6, -1059290.4, -127576.375, -0.11811209, -0.4301981, -873321.9, -64738.223, 0.050802168, 9.999136, 9.998154 
2.3765579e+3, 2.2748299e+2, -648025.44, -618021.7, 28881.047, -0.24931018, -0.3018066, -600478.7, 110170.33, 0.03888462, 9.99972, 10.000143 
2.3761658e+3, 2.3747678e+2, -807139.3, -894911.94, -19139.031, -0.1770038, -0.15707847, -803147.56, -190439.08, 0.028499532, 9.998921, 9.998044 
2.3757689e+3, 2.4746983e+2, -462798.84, -422115.6, -172041.94, -0.15421927, -0.051215563, -269216.9, 245560.63, 0.019239584, 9.99964, 10.000206 
2.3753746e+3, 2.5746068e+2, -881171.44, -902444.6, -133849.97, -0.08794943, -0.15146314, -757536.1, -340668.0, 0.01143259, 9.997527, 9.997256 
2.37498e+3, 2.6745313e+2, -73927.44, -5711.696, -276870.53, 0.053737827, -0.15909317, 239143.95, 558082.2, 0.005417436, 10.000542, 10.00119 
2.3745872e+3, 2.774451e+2, -87980.03, -268672.66, -135995.03, -0.0015277973, -0.36689952, -15056.3125, 205954.89, 0.0017239751, 10.001137, 9.998449 
2.3741862e+3, 2.8743535e+2, 262648.38, 90677.195, -309315.16, -0.3555416, -0.49023026, 497707.0, 620816.9, 0.0009962119, 10.002335, 9.999605 
2.373791e+3, 2.974317e+2, -388894.84, -279944.75, 144210.98, -0.31835607, -0.36538792, -180262.94, -155110.27, 0.0037776493, 9.997749, 9.999053 
2.3734139e+3, 3.074273e+2, 158782.19, 168550.17, 280650.97, 0.31981403, 0.19567527, 444359.66, 444359.66, 0.011108114, 10.000988, 10.000499 
2.390113e+3, 1.379433e+2, -2070188.1, -1519027.4, -21116.906, -0.33281437, -0.53883886, -1518219.5, 69886.875, 0.42782646, 9.99477, 10.002517 
2.3897202e+3, 1.4794143e+2, -1593461.8, -1506898.5, -30511.459, 0.05487378, -0.092100285, -1497225.0, -7094.44, 0.2998544, 9.998671, 9.999954 
2.3893228e+3, 1.5793163e+2, -1287938.1, -1502250.3, 48582.36, -0.2664392, -0.30096957, -1277439.4, 114792.85, 0.19614406, 10.000943, 9.998385 
2.3889302e+3, 1.6792521e+2, -1203750.8, -1223834.9, 21062.97, -0.046286363, -0.1168048, -1190458.5, 103844.39, 0.12585048, 10.000018, 9.999993 
2.388539e+3, 1.7791986e+2, -1467738.9, -1383503.9, -81024.97, 0.3281172, 0.06578753, -1334303.6, -137940.92, 0.083471425, 9.997752, 9.999322 
2.388142e+3, 1.8791173e+2, -1017472.0, -950434.1, -118474.91, 0.30360073, 0.0009795525, -860827.8, 237614.13, 0.057587944, 9.99968, 10.000639 
2.3877428e+3, 1.9790198e+2, -619233.7, -894377.9, -78634.31, 0.12335577, -0.2791168, -598346.2, 402188.66, 0.03970386, 10.002392, 9.999136 
2.3873435e+3, 2.0789276e+2, -511493.2, -883710.5, -84553.94, -0.15341587, -0.30194056, -493186.1, 409446.9, 0.026570952, 10.002971, 9.998125 
2.3869435e+3, 2.1788324e+2, -435797.84, -811169.6, -105093.664, -0.4715685, -0.32680425, -408377.53, 396358.9, 0.017417854, 10.002733, 9.998142 
2.38655e+3, 2.2787611e+2, -358385.2, -377799.47, -36341.66, -0.3412382, -0.29799855, -330476.6, 376326.06, 0.011141793, 10.001276, 10.001076 
2.3861599e+3, 2.3786907e+2, -637070.8, -702554.25, -34428.2, -0.0038618476, -0.28768536, -622301.25, -13436.985, 0.0065593217, 9.999608, 9.99901 
2.3857626e+3, 2.4786226e+2, -379951.28, -478057.78, -89293.57, -0.043593224, -0.14309113, -327124.4, 183807.33, 0.0032030866, 10.000561, 9.999368 
2.385366e+3, 2.5785515e+2, -362184.88, -643071.4, 78964.43, -0.18481158, 0.043091413, -341508.0, 71497.05, 0.0011282732, 10.001013, 9.997328 
2.384972e+3, 2.6784664e+2, -208810.42, -216275.92, 5277.39, -0.070669554, 0.05935622, -206079.1, 109006.23, 0.00023273825, 10.0002, 9.999913 
2.3845801e+3, 2.7783632e+2, -486042.97, -306876.66, 31733.682, 0.026846215, -0.26068133, -301422.1, -84241.125, 0.000018977813, 9.997647, 9.999862 
2.3841797e+3, 2.8782672e+2, 4601.9736, 214366.75, -173739.36, -0.3361628, -0.5750815, 312426.94, 431700.94, 0.000039610317, 9.999469, 10.001801 
2.3837842e+3, 2.978244e+2, -13308.345, -128832.734, 107422.945, -0.16534744, -0.35341004, 50897.33, 72195.125, 0.00031053094, 10.000373, 9.998795 
2.3834045e+3, 3.078165e+2, -350409.2, -57185.293, 66598.19, 0.20813306, -0.07128213, -42768.11, -42768.11, 0.0010092399, 9.997513, 10.000428 
2.4005055e+3, 1.2833235e+2, -1988504.8, -1475191.1, -60939.89, -0.3966831, -1.0779969, -1468055.6, 214231.22, 0.4904372, 9.995555, 10.003917 
2.4001086e+3, 1.383396e+2, -1902096.9, -1563943.4, -211728.22, 0.27998236, -0.18853308, -1462066.6, 122161.91, 0.36336103, 9.99659, 10.001548 
2.3997134e+3, 1.4833277e+2, -1441880.3, -1241332.4, 91724.86, 0.24950299, -0.33891648, -1205708.1, 280585.78, 0.24041095, 9.998963, 10.00198 
2.3993173e+3, 1.5832181e+2, -1361983.3, -1433516.5, 50623.59, -0.13783601, -0.8949025, -1335766.0, 52631.09, 0.14389461, 10.000046, 9.999157 
2.3989223e+3, 1.6831528e+2, -1345440.8, -1461413.1, -33412.85, -0.055254485, -0.65319586, -1336503.0, -46033.11, 0.08188297, 9.999897, 9.998289 
2.398528e+3, 1.7830895e+2, -1539764.1, -1561657.1, -79924.9, 0.20802748, -0.38842234, -1470039.6, -277495.9, 0.047678713, 9.997963, 9.998009 
2.3981331e+3, 1.8830179e+2, -1015846.4, -835123.06, 305.68277, 0.21755412, -0.39363772, -835122.56, 259492.69, 0.028905774, 9.999297, 10.001555 
2.397737e+3, 1.9829474e+2, -960040.56, -1109117.0, -43176.55, 0.09796048, -0.48488846, -948438.44, 48244.94, 0.017015342, 10.000325, 9.9986 
2.3973379e+3, 2.0828839e+2, -839024.06, -1165076.0, -80151.31, -0.18932736, -0.12784155, -820386.3, 78372.73, 0.00915297, 10.001355, 9.996916 
2.3969394e+3, 2.182815e+2, -824681.6, -1128126.0, -112648.01, -0.37016168, 0.2272156, -787435.0, 13407.679, 0.0045936005, 10.000738, 9.996918 
2.396545e+3, 2.2827266e+2, -469261.1, -378579.16, -83744.23, -0.20398507, 0.07708279, -328689.38, 374231.75, 0.0022051786, 10.000377, 10.00145 
2.3961519e+3, 2.3826212e+2, -815013.9, -768841.94, -75337.15, -0.003380361, -0.31978834, -713132.94, -108122.86, 0.0009056362, 9.998411, 9.999132 
2.3957556e+3, 2.4825424e+2, -398016.22, -336232.9, -63898.063, -0.023365725, -0.3841181, -296150.94, 210934.44, 0.00023937336, 10.000013, 10.00049 
2.3953606e+3, 2.5824663e+2, -547355.3, -736527.94, 35073.074, -0.08373608, -0.38060853, -541062.0, -131899.92, 0.000025130046, 9.999847, 9.997254 
2.3949648e+3, 2.6823923e+2, -314330.63, -393480.1, -63057.36, -0.05329632, -0.17535125, -279458.13, 31778.842, 0.00000030344088, 10.000127, 9.998692 
2.3945701e+3, 2.782321e+2, -647996.75, -413318.2, -29049.361, -0.05885426, -0.1344762, -409775.8, -196467.14, 0.0000000068303647, 9.996723, 9.9995985 
2.3941748e+3, 2.8822508e+2, -28753.668, 277339.22, -28076.457, -0.028569976, -0.2492245, 279893.22, 395269.66, 0.0000039429096, 9.999027, 10.002397 
2.3937824e+3, 2.9822144e+2, -308937.84, -439700.34, 165943.55, 0.07147056, -0.07904412, -195960.0, -178549.14, 0.00006190627, 9.999152, 9.997223 
2.393395e+3, 3.082106e+2, -358977.94, 13869.225, 210306.5, -0.04506273, -0.11663664, 108484.04, 108484.04, 0.0002690841, 9.997034, 10.001126 
2.4104966e+3, 1.287382e+2, -2130515.8, -1713425.4, -203278.84, -0.2526291, -0.40602654, -1630743.1, 47577.992, 0.44510007, 9.9956455, 10.001449 
2.4100997e+3, 1.3873218e+2, -1683576.6, -1614069.0, -97388.47, 0.22535883, -0.46290806, -1545419.0, 34968.04, 0.31930807, 9.998657, 10.000058 
2.4097043e+3, 1.487265e+2, -1259049.1, -1157000.6, 107777.945, 0.030437296, -0.43362987, -1088779.0, 393661.3, 0.20041417, 10.000474, 10.001915 
2.4093091e+3, 1.587191e+2, -1163340.1, -1294051.1, 27435.045, -0.3999178, -0.6097694, -1157815.3, 226693.36, 0.110025235, 10.001281, 9.999602 
2.408915e+3, 1.6871127e+2, -1083487.5, -1289816.0, -95818.336, -0.14596096, -0.5402678, -1045853.94, 240737.03, 0.054970514, 10.00152, 9.998736 
2.408521e+3, 1.7870326e+2, -1101979.3, -1311959.4, -43160.242, 0.2033227, -0.45958734, -1093454.0, 95224.22, 0.027314784, 10.000706, 9.998428 
2.4081242e+3, 1.8869665e+2, -946798.56, -922020.1, 10242.761, 0.08326435, -0.35644707, -918334.3, 172412.1, 0.013986388, 10.000195, 10.00054 
2.4077271e+3, 1.9869019e+2, -1054138.5, -1112123.8, -60367.492, -0.17903072, -0.28417763, -1016162.44, -23350.455, 0.006556314, 9.999377, 9.999064 
2.4073313e+3, 2.0868409e+2, -884454.9, -969885.4, -19244.982, -0.14032947, -0.043899223, -880319.75, 14560.275, 0.002469395, 10.000095, 9.998889 
2.4069363e+3, 2.1867757e+2, -659078.0, -900210.4, 104642.75, -0.07539075, 0.21736762, -619999.9, 176953.28, 0.00078321603, 10.001103, 9.998338 
2.4065396e+3, 2.2866772e+2, -378751.6, -459850.66, 67150.125, -0.08364595, 0.0016047007, -340857.5, 358185.53, 0.00023610769, 10.001335, 10.000491 
2.4061435e+3, 2.3865655e+2, -417392.4, -592387.44, 49819.637, -0.106215395, -0.35650778, -404203.22, 196938.58, 0.000047296035, 10.001018, 9.999127 
2.405748e+3, 2.486491e+2, -344118.3, -329210.47, -5151.123, -0.07293908, -0.34887674, -327603.75, 175611.53, 0.0000020598873, 10.000384, 10.0004015 
2.4053538e+3, 2.586421e+2, -545153.44, -593281.25, 25387.969, -0.028064225, -0.29406792, -534237.06, -128950.03, 0.0, 9.999163, 9.998564 
2.4049583e+3, 2.6863432e+2, -293741.78, -338303.8, -1299.6046, 0.01710471, -0.19821852, -293703.9, 13661.084, 0.0, 10.000042, 9.999129 
2.4045625e+3, 2.7862713e+2, -67019.516, -85386.336, 70154.92, 0.043699976, -0.14775607, -5449.496, 203986.78, 0.0, 10.00036, 10.000129 
2.404168e+3, 2.886212e+2, 80930.414, 275790.3, 20934.836, 0.09484205, -0.14559196, 278014.1, 389507.97, 0.00000028208012, 9.999875, 10.002048 
2.4037766e+3, 2.9861778e+2, -462313.56, -465825.5, 204549.31, 0.30100122, 0.113978766, -259512.69, -245986.75, 0.000017512673, 9.997745, 9.9977665 
2.4033892e+3, 3.08603e+2, -84938.15, 169963.4, 88316.96, 0.26123303, -0.34117225, 197572.58, 197572.58, 0.0001005609, 9.998664, 10.001517 
2.4204883e+3, 1.291357e+2, -2066051.5, -1818925.0, -72659.3, 0.08998954, -0.30784187, -1799145.3, -124708.16, 0.41411307, 9.9967375, 9.999898 
2.420091e+3, 1.3912544e+2, -1508099.1, -1728607.9, -28083.709, 0.20257632, -0.6610987, -1504578.6, 71960.06, 0.28877336, 10.000969, 9.998078 
2.4196956e+3, 1.4912134e+2, -1302726.4, -1222552.5, 153815.84, -0.15318651, -0.39145002, -1103685.8, 374891.44, 0.17287979, 10.000258, 10.001417 
2.4193005e+3, 1.5911758e+2, -1599489.6, -1573859.4, 3768.5203, -0.5602411, -0.14852947, -1573316.8, -192704.83, 0.08747846, 9.998328, 9.99909 
2.418908e+3, 1.6910869e+2, -1277416.3, -1267189.6, -116328.29, -0.17761503, -0.2590247, -1155862.3, 126838.94, 0.038149297, 9.999682, 9.999716 
2.4185151e+3, 1.7909917e+2, -1241778.8, -1398565.9, -77547.305, 0.3301491, -0.4204367, -1209903.9, -25105.521, 0.01570925, 9.999924, 9.998152 
2.4181157e+3, 1.8909267e+2, -1063779.5, -1137785.0, -6541.8237, -0.00800424, -0.22031619, -1063205.8, 23662.322, 0.0064830934, 10.000133, 9.99902 
2.4177162e+3, 1.9908632e+2, -1187245.1, -1216243.9, -55658.887, -0.40258598, -0.014524666, -1144228.1, -155292.53, 0.0021827125, 9.998714, 9.9986515 
2.4173245e+3, 2.0907938e+2, -740226.5, -580871.25, 8541.327, -0.07547083, -0.060844243, -580414.75, 310586.72, 0.00044835047, 9.99974, 10.0017 
2.4169333e+3, 2.1907206e+2, -853981.06, -909815.75, 65512.98, 0.3298767, -0.15829618, -810685.1, -17614.605, 0.000068581576, 9.999538, 9.998996 
2.4165344e+3, 2.2906281e+2, -598004.7, -705021.25, 15328.911, 0.04207509, -0.25033757, -595852.3, 99307.08, 0.0000096515805, 10.000675, 9.999018 
2.4161352e+3, 2.3905288e+2, -736856.1, -931945.75, -13336.936, -0.2778746, -0.3621226, -735948.56, -138693.17, 0.00000040342232, 9.999807, 9.997344 
2.415739e+3, 2.4904744e+2, -481517.72, -497930.03, -51209.473, -0.2289398, -0.051856585, -437861.06, 61453.668, 0.0, 10.0, 9.999375 
2.4153447e+3, 2.5904223e+2, -745287.9, -707781.7, -31340.205, -0.12281239, 0.23405822, -690012.4, -288640.06, 0.0, 9.9979725, 9.998365 
2.4149509e+3, 2.6903236e+2, -274912.3, -128884.19, 31303.719, 0.05539973, -0.026933528, -122456.6, 181006.69, 0.0, 9.99944, 10.000787 
2.4145569e+3, 2.790219e+2, -362201.0, -355775.88, 64165.242, 0.14702915, -0.40316272, -294742.8, -89184.55, 0.0, 9.998983, 9.998935 
2.4141577e+3, 2.8901502e+2, -112857.09, 14167.848, -15147.798, -0.21306446, -0.3328622, 15949.248, 123573.08, 0.0000000009564638, 9.9994335, 10.000389 
2.413763e+3, 2.9901034e+2, -776659.44, -660181.8, 205028.83, -0.35876268, -0.10229654, -505280.8, -495610.8, 0.0000015325257, 9.995937, 9.997279 
2.4133843e+3, 3.0899867e+2, -280921.94, -27430.635, 98537.48, 0.41551554, -0.36882937, 6366.8364, 6366.8364, 0.000021924814, 9.997797, 10.000581 
2.430477e+3, 1.2953238e+2, -1597402.8, -1488920.3, 59855.656, -0.24748693, -0.21526955, -1462385.3, 208171.92, 0.3927152, 9.999349, 10.001761 
2.4300873e+3, 1.3952662e+2, -1076000.3, -1403253.1, 79949.21, 0.1317821, -0.20346552, -1057512.8, 515101.6, 0.26710206, 10.004495, 9.999056 
2.429689e+3, 1.4951876e+2, -1332383.9, -1424979.1, 12556.71, -0.18349832, -0.18343554, -1330711.3, 143980.44, 0.15331793, 10.000863, 9.999517 
2.4292898e+3, 1.5951091e+2, -2034353.0, -1807750.6, -46632.586, -0.5877856, -0.1641064, -1798529.4, -421760.84, 0.07196278, 9.995399, 9.998913 
2.4288979e+3, 1.6950311e+2, -1476269.1, -1278016.8, -37217.906, -0.27531102, -0.21187796, -1271260.1, 7583.1895, 0.027363949, 9.997931, 10.000475 
2.4285063e+3, 1.7949484e+2, -1018957.9, -1202814.1, -35343.44, 0.07193361, -0.30763873, -1012397.7, 168525.52, 0.009079448, 10.001027, 9.998948 
2.4281082e+3, 1.8948732e+2, -847383.8, -1015607.94, -15839.602, -0.12657848, -0.23942451, -845905.4, 237092.98, 0.002868925, 10.001465, 9.999247 
2.4277094e+3, 1.9947982e+2, -835802.2, -1009582.44, 10297.437, -0.40284994, -0.15017335, -835194.1, 149879.25, 0.00059867656, 10.000843, 9.999071 
2.4273166e+3, 2.0947129e+2, -677256.94, -634952.3, -28817.021, -0.124841936, -0.3131557, -620357.75, 266794.06, 0.000045539302, 10.000348, 10.001121 
2.4269249e+3, 2.1946284e+2, -800091.75, -846792.94, -76673.195, 0.2023296, -0.47745472, -743292.3, 45936.605, 0.0000022398012, 9.999627, 9.999395 
2.4265271e+3, 2.2945581e+2, -564038.4, -666586.94, -75786.26, -0.008031298, -0.38078701, -523810.7, 167489.19, 0.000000052409952, 10.000774, 9.999257 
2.4261288e+3, 2.3944856e+2, -386132.78, -666235.3, -67187.555, -0.2945716, -0.24724466, -370850.44, 222523.92, 0.0, 10.001746, 9.99822 
2.4257317e+3, 2.4944142e+2, -424744.56, -506179.38, -122424.33, -0.26112595, -0.10481216, -336444.03, 159005.06, 0.0, 10.000471, 9.999131 
2.4253356e+3, 2.5943446e+2, -573034.06, -551260.06, -42041.2, -0.15736574, 0.03764988, -518719.1, -121197.2, 0.0, 9.998683, 9.999119 
2.4249426e+3, 2.694255e+2, -191445.69, -86250.76, -40576.07, -0.007934816, -0.15893166, -72418.48, 227186.72, 0.0, 9.999837, 10.000951 
2.42455e+3, 2.7941614e+2, -53642.38, -160235.6, -96071.016, 0.15326907, -0.4333013, 2925.335, 204615.8, 0.0, 10.000748, 9.999448 
2.4241504e+3, 2.8940862e+2, 120714.36, 60950.613, -131063.2, -0.22478114, -0.41199002, 225259.02, 329021.0, 0.0, 10.0011215, 9.999987 
2.4237542e+3, 2.9940236e+2, -128084.914, -220187.66, 151798.7, -0.4090576, -0.3240087, -15505.977, -9682.529, 0.000000086511356, 9.999631, 9.998578 
2.4233787e+3, 3.0939558e+2, -346405.13, -68078.836, -196156.45, 0.8002342, -0.14782006, 33265.258, 33265.258, 0.0000026170453, 9.997035, 10.000825 
2.4408677e+3, 1.1993109e+2, -1937553.5, -1884077.1, -193076.58, 0.4468989, -0.3842271, -1715896.1, 48756.195, 0.4945508, 9.998585, 9.999473 
2.4404678e+3, 1.2992883e+2, -1637770.0, -1417535.0, 194616.92, -0.39863086, -0.11001788, -1304042.1, 362635.66, 0.3775347, 9.998827, 10.002817 
2.4400838e+3, 1.3992675e+2, -1667782.0, -1714927.4, 12285.687, 0.18614605, 0.20267211, -1664772.5, -96072.97, 0.25111946, 9.99931, 9.998949 
2.4396823e+3, 1.499156e+2, -1610675.4, -1758058.9, -204120.38, -0.10908246, -0.0011880418, -1467351.9, 3459.2637, 0.13882844, 9.999709, 9.997663 
2.43928e+3, 1.5990338e+2, -1739607.6, -1755315.4, -79491.49, -0.41583738, -0.25983262, -1667583.0, -294650.5, 0.060861234, 9.9979105, 9.998026 
2.4388883e+3, 1.6989668e+2, -1306092.4, -1134956.4, 88573.07, -0.31655446, -0.23993745, -1097369.8, 177623.61, 0.02025213, 9.998898, 10.000982 
2.4384972e+3, 1.7989026e+2, -1233381.0, -1280739.4, -3285.9304, -0.15046778, -0.1962883, -1233154.1, -56103.504, 0.0052852775, 9.999501, 9.999166 
2.438101e+3, 1.8988174e+2, -927062.4, -971622.3, -53439.105, -0.1916778, -0.3043365, -891444.7, 187684.34, 0.0012089658, 10.000643, 9.999933 
2.4377044e+3, 1.9987267e+2, -1007568.9, -1165608.1, -33794.363, -0.21447998, -0.41286445, -1000645.75, -19432.408, 0.00012403581, 10.000146, 9.998299 
2.4373083e+3, 2.0986243e+2, -847119.3, -905418.3, -68041.695, -0.195822, -0.6246339, -802246.06, 81062.29, 0.000001917801, 10.000178, 9.999235 
2.4369134e+3, 2.1985266e+2, -1030526.56, -1092229.8, -72810.28, -0.1271047, -0.75824654, -982301.25, -196901.36, 0.000000018702426, 9.998759, 9.998077 
2.4365188e+3, 2.2984841e+2, -563237.94, -564435.5, -23161.033, -0.1591897, -0.43746656, -540667.94, 146778.55, 0.0, 10.000378, 10.000098 
2.4361238e+3, 2.3984356e+2, -612838.9, -770503.7, -101019.71, -0.20934787, -0.15896103, -563532.56, 25966.674, 0.0, 10.000255, 9.998217 
2.4357246e+3, 2.4983208e+2, -498554.56, -509980.63, -201310.28, -0.21680354, -0.48947307, -302876.28, 188733.25, 0.0, 9.999981, 9.999286 
2.435326e+3, 2.5982055e+2, -831393.5, -836669.4, -58230.83, -0.2326102, -0.7886609, -775740.9, -382020.13, 0.0, 9.9977455, 9.997596 
2.4349324e+3, 2.6981524e+2, -363179.25, -342869.3, 8080.421, -0.25780788, -0.48190865, -340046.72, -44268.39, 0.0, 9.999511, 9.999306 
2.4345405e+3, 2.7981022e+2, -280277.13, -341316.72, -113568.1, -0.1711906, -0.20713659, -193199.4, 4633.279, 0.0, 9.999607, 9.998762 
2.434147e+3, 2.8980154e+2, 58807.55, 117705.45, -142132.0, 0.06869847, -0.38868564, 233407.27, 333322.16, 0.0, 10.00042, 10.000685 
2.4337527e+3, 2.9979345e+2, -434381.1, -310848.47, 76072.2, 0.06283799, -0.52754056, -274624.7, -272633.63, 0.0, 9.997424, 9.999008 
2.433362e+3, 3.097888e+2, -476705.1, 96873.33, 54865.71, -0.034431566, -0.38997352, 102074.35, 102074.35, 0.00000012758136, 9.995481, 10.002558 
2.4508579e+3, 1.2033145e+2, -1682765.0, -1697391.6, -145520.4, 0.06938308, -0.16683792, -1544374.3, 216356.6, 0.4854062, 10.000367, 10.000523 
2.4504648e+3, 1.3032223e+2, -1887491.1, -1809343.1, 188885.27, 0.16396505, -0.32508042, -1655532.6, 7289.0576, 0.3659335, 9.998359, 9.999338 
2.4500686e+3, 1.4031592e+2, -2202743.0, -2031251.9, -36430.395, -0.3192405, -0.15170106, -2023833.8, -458948.94, 0.23856215, 9.995828, 9.99848 
2.4496739e+3, 1.5030871e+2, -1473837.6, -1497985.3, -92890.695, -0.19022256, -0.0867431, -1392239.4, 74718.08, 0.1275105, 9.9997635, 9.999484 
2.4492784e+3, 1.6030028e+2, -979583.5, -1305855.3, 22143.234, -0.040724684, -0.10260833, -978087.56, 390953.78, 0.052560914, 10.002875, 9.998751 
2.4488823e+3, 1.7029117e+2, -1049269.5, -1128610.0, 67853.03, -0.22812282, -0.2542089, -1010341.06, 260784.61, 0.01541553, 10.001066, 10.000035 
2.4484865e+3, 1.8028253e+2, -1348903.8, -1300036.5, 518.2864, -0.42411247, -0.35119638, -1300031.0, -126826.35, 0.0031067657, 9.99846, 9.999559 
2.4480933e+3, 1.9027619e+2, -929883.56, -890266.94, 3021.994, -0.27717298, -0.30229983, -890037.7, 185224.88, 0.00048131414, 10.000202, 10.000746 
2.4476998e+3, 2.0026895e+2, -731354.9, -1011051.3, -6749.357, -0.119323075, -0.27776486, -731192.06, 246137.53, 0.000015932997, 10.001872, 9.998524 
2.4473032e+3, 2.1025778e+2, -664124.44, -934654.56, -78760.71, -0.09986619, -0.49424207, -642865.1, 236571.67, 0.0000000054715246, 10.0019045, 9.998219 
2.4469067e+3, 2.2024703e+2, -610018.1, -848865.9, -42713.492, -0.13418567, -0.64093304, -602609.4, 178931.22, 0.0, 10.001347, 9.998528 
2.4465112e+3, 2.3024195e+2, -571961.0, -541251.4, -20263.885, -0.21151794, -0.4199882, -531181.9, 152411.4, 0.0, 10.000078, 10.000481 
2.4461158e+3, 2.4023685e+2, -703757.8, -687630.9, -117453.64, -0.26780307, -0.19872612, -577964.25, 7681.8745, 0.0, 9.998891, 9.999494 
2.4457176e+3, 2.5022608e+2, -335026.6, -351842.34, -160488.66, -0.17826979, -0.53606725, -182725.72, 305020.9, 0.0, 10.000564, 10.000198 
2.4453196e+3, 2.6021516e+2, -186589.28, -464809.84, 28887.98, -0.14914642, -0.8327211, -183621.47, 206228.6, 0.0, 10.001755, 9.998259 
2.4449249e+3, 2.702094e+2, -278894.5, -448607.56, 113516.14, -0.29826427, -0.47595832, -222024.03, 69891.62, 0.0, 10.000598, 9.998118 
2.4445318e+3, 2.802042e+2, -283086.75, -324880.94, 88.99022, -0.310284, -0.10003623, -283086.56, -89110.55, 0.0, 9.999332, 9.999038 
2.4441402e+3, 2.9019487e+2, -54005.047, 99740.54, -106844.69, 0.1435367, -0.36723197, 154493.02, 250556.9, 0.0, 9.999314, 10.00116 
2.4437481e+3, 3.0018622e+2, -172083.84, -116754.1, 76807.65, 0.3974102, -0.58227533, -62780.99, -62780.99, 0.0, 9.998718, 9.999765 
2.4433504e+3, 3.1018317e+2, 629258.8, 738564.5, -4674.3223, -0.39076355, -0.22921297, 738764.0, 738764.0, 0.000000000000427524, 10.002364, 10.003717 
2.460851e+3, 1.2073186e+2, -1654982.6, -1706989.5, -242997.64, 0.07353141, 0.13190104, -1436601.1, 320207.03, 0.47723377, 10.001099, 10.000322 
2.4604622e+3, 1.3071528e+2, -1722995.1, -2055330.9, 45752.035, 0.74258614, -0.53405064, -1716811.6, -57842.28, 0.3557266, 10.000921, 9.996385 
2.4600545e+3, 1.407051e+2, -1716704.1, -1839087.1, 21482.426, -0.66148376, -0.50029856, -1713042.8, -151973.4, 0.22774403, 9.999395, 9.998072 
2.4596664e+3, 1.5070185e+2, -1331371.0, -1223814.9, 21095.297, -0.13167316, -0.19520216, -1219825.4, 243276.78, 0.11809006, 9.999953, 10.001421 
2.4592783e+3, 1.6069768e+2, -1373711.0, -1510560.3, -26413.59, 0.46758735, 0.07868373, -1368789.8, -3646.8127, 0.04605504, 10.000122, 9.998635 
2.4588767e+3, 1.7068596e+2, -1285140.6, -1372669.6, -65814.74, -0.092632934, -0.2649014, -1249867.8, 17385.68, 0.012013259, 10.000062, 9.9987955 
2.4584758e+3, 1.8067496e+2, -1373513.8, -1362328.9, -31712.89, -0.58873606, -0.5104587, -1335719.0, -166362.11, 0.0018483637, 9.998594, 9.999055 
2.4580853e+3, 1.9067101e+2, -963974.75, -848377.75, 36317.703, -0.31468123, -0.27907416, -837914.7, 233479.39, 0.00018026956, 9.999741, 10.001233 
2.457695e+3, 2.0066643e+2, -1078644.3, -1260232.1, -36346.53, 0.028767377, -0.0122424485, -1071639.4, -98200.97, 0.0000007906511, 9.999954, 9.997735 
2.4572991e+3, 2.1065499e+2, -885998.94, -1132161.0, -106669.984, 0.08382876, -0.1980462, -846207.56, 29345.557, 0.0, 10.000858, 9.997365 
2.4569021e+3, 2.2064331e+2, -893166.4, -1055182.5, -84144.53, 0.070085, -0.36292142, -857372.8, -79703.27, 0.0, 9.999903, 9.997787 
2.4565037e+3, 2.3063609e+2, -667767.9, -559855.25, -78162.29, -0.19653201, -0.36762363, -518834.56, 160904.66, 0.0, 9.999557, 10.0005 
2.4561056e+3, 2.4062979e+2, -865381.8, -737375.8, -114663.516, -0.37708098, -0.27992508, -670062.0, -88262.38, 0.0, 9.997834, 9.999623 
2.4557105e+3, 2.5062382e+2, -323807.88, -208350.55, -103176.42, -0.1543344, -0.26192322, -147850.73, 336004.03, 0.0, 10.00011, 10.001366 
2.4553154e+3, 2.6061708e+2, -435322.56, -632826.4, 2165.7617, 0.013538491, -0.22581927, -435298.8, -49379.277, 0.0, 10.000374, 9.997746 
2.4549192e+3, 2.706075e+2, -432267.84, -596388.7, 52622.414, -0.17246746, -0.21324787, -416844.78, -128823.79, 0.0, 9.99998, 9.997341 
2.4545234e+3, 2.805985e+2, -593137.5, -588384.2, -12637.555, -0.34430602, -0.13455117, -577901.75, -387785.06, 0.0, 9.9978695, 9.997904 
2.4541281e+3, 2.9058963e+2, -235419.89, -43439.215, -90452.28, -0.25457665, -0.32169387, -7536.561, 84661.195, 0.0, 9.998448, 10.000539 
2.4537379e+3, 3.005799e+2, -738823.4, -755612.2, 154376.77, 0.11237854, -0.47681132, -592612.94, -592612.94, 0.0, 9.996605, 9.996362 
2.4533518e+3, 3.105752e+2, 249385.97, 303870.88, 274260.9, -0.023947043, -0.041919753, 552239.0, 552239.0, 0.0, 10.0011835, 10.0011635 
2.4708435e+3, 1.2112494e+2, -1587927.3, -1836490.8, -274970.63, -0.2740043, 0.114021875, -1410456.1, 342503.94, 0.4678509, 10.00294, 9.998214 
2.4704592e+3, 1.3111112e+2, -1357179.5, -1670736.5, 29216.813, 0.83574, -0.3197744, -1354480.4, 300613.8, 0.34520847, 10.003902, 9.997589 
2.4700546e+3, 1.4110193e+2, -1237533.9, -1556741.4, 11060.763, -0.23252131, -0.26756802, -1237151.1, 320031.3, 0.21743059, 10.003206, 9.998175 
2.469661e+3, 1.5109509e+2, -1329786.8, -1305635.3, -65746.91, -0.006575627, -0.24658896, -1250864.4, 208384.81, 0.109704144, 10.0004, 10.000527 
2.469268e+3, 1.6108847e+2, -1678703.3, -1620448.5, -74860.055, 0.27143383, -0.15995713, -1569248.9, -207935.53, 0.040704507, 9.997834, 9.998987 
2.4688691e+3, 1.7107943e+2, -1267887.8, -1319044.9, -42931.086, -0.11159905, -0.26710162, -1243492.9, 19906.17, 0.00953522, 9.999927, 9.999287 
2.4684702e+3, 1.8107042e+2, -993573.3, -1159270.4, -25375.148, -0.5090905, -0.32941526, -989774.4, 175710.08, 0.0011160366, 10.001047, 9.999278 
2.468077e+3, 1.9106373e+2, -1061300.4, -991355.06, -47507.152, -0.3675958, -0.30010056, -967336.06, 100213.086, 0.00006263998, 9.999424, 10.000439 
2.4676847e+3, 2.0105743e+2, -1299493.0, -1217101.9, -97226.65, -0.16957124, -0.17763479, -1152703.4, -183092.45, 0.0000000031066179, 9.997722, 9.9991255 
2.467291e+3, 2.1104944e+2, -948960.9, -964597.75, -36726.08, 0.04679066, -0.17747575, -919230.25, -47538.047, 0.0, 9.999482, 9.999247 
2.4668962e+3, 2.2104064e+2, -657440.1, -821690.25, 46212.523, 0.13080893, -0.18724243, -645330.75, 128449.97, 0.0, 10.000863, 9.998968 
2.4664968e+3, 2.3103186e+2, -468152.25, -515040.72, 12096.849, -0.15046959, -0.31988323, -465215.34, 210648.67, 0.0, 10.001003, 10.000184 
2.4660984e+3, 2.41024e+2, -410138.22, -514893.4, -36282.08, -0.36938938, -0.337231, -398799.25, 179139.38, 0.0, 10.000828, 9.99973 
2.4657033e+3, 2.5101888e+2, -337771.38, -292749.2, -128926.984, -0.1372063, -0.16312936, -184382.78, 295606.34, 0.0, 10.000243, 10.000772 
2.465309e+3, 2.6101312e+2, -435495.22, -555126.56, -97884.34, 0.067181215, 0.0032422799, -380597.06, 1449.7147, 0.0, 9.999845, 9.998574 
2.464914e+3, 2.7100313e+2, -128118.125, -376823.25, 2547.2952, -0.021906305, -0.10830631, -128092.04, 156057.39, 0.0, 10.001594, 9.998137 
2.4645178e+3, 2.8099358e+2, 177797.05, -159634.28, 7831.271, -0.21966396, -0.13305025, 177978.7, 364224.88, 0.0, 10.0027895, 9.998499 
2.4641192e+3, 2.909849e+2, 415165.47, 167476.72, -98535.84, -0.46524128, -0.22498965, 449582.72, 537908.75, 0.0, 10.00321, 9.999786 
2.4637297e+3, 3.009744e+2, 73625.46, -459509.22, 241050.05, 0.0051421933, -0.34670818, 166451.05, 166451.05, 0.0, 10.002375, 9.995681 
2.4633494e+3, 3.1096515e+2, -101673.65, -60910.074, 384756.8, 0.28464273, -0.14645663, 304004.4, 304004.4, 0.0, 9.999225, 9.999754 
2.4808396e+3, 1.2151763e+2, -1755838.5, -2080256.3, -210431.78, -0.20785777, -0.00036194274, -1652353.5, 96760.164, 0.455717, 10.001411, 9.996808 
2.4804556e+3, 1.3150705e+2, -1486934.9, -1675720.3, 68763.52, 0.87198144, -0.17494245, -1464544.0, 186672.19, 0.33319858, 10.002042, 9.998515 
2.4800554e+3, 1.4149946e+2, -1553527.1, -1780399.4, -21118.771, 0.34197313, -0.0138711715, -1551578.0, 1710.002, 0.20679392, 10.000649, 9.997862 
2.4796548e+3, 1.5148872e+2, -1421068.4, -1492341.1, -133271.6, 0.10842776, -0.28523916, -1318751.0, 136642.06, 0.10179194, 10.000392, 9.999188 
2.4792565e+3, 1.6147888e+2, -1546720.4, -1572642.1, -24022.8, 0.06360106, -0.4161952, -1532385.1, -174896.13, 0.036105353, 9.998915, 9.998774 
2.4788618e+3, 1.714733e+2, -1213833.3, -1200931.0, 52808.816, -0.07667304, -0.24788436, -1154180.8, 105361.36, 0.0076701324, 10.000025, 10.0 
2.478466e+3, 1.8146676e+2, -1200609.9, -1358868.4, -25990.44, -0.24198113, -0.07601156, -1196450.9, -34845.92, 0.000687035, 10.000179, 9.99829 
2.4780683e+3, 1.9145602e+2, -1143315.6, -1162515.5, -101091.29, -0.4027915, -0.35388303, -1051369.5, 12339.777, 0.000019881356, 9.999571, 9.99912 
2.4776725e+3, 2.014467e+2, -1219297.6, -1077232.1, -66299.46, -0.38481563, -0.46918842, -1051098.8, -85298.31, 0.0, 9.997941, 9.9999275 
2.477282e+3, 2.1144351e+2, -796142.06, -573885.5, 20416.541, -0.044120833, -0.25696453, -572025.56, 295807.75, 0.0, 9.9992695, 10.001933 
2.4768896e+3, 2.2143906e+2, -851793.75, -902226.3, 28330.213, 0.18852855, -0.03393375, -839082.94, -69205.32, 0.0, 9.999572, 9.998994 
2.4764907e+3, 2.3142883e+2, -594330.3, -661752.1, -23979.922, -0.08920107, -0.28126284, -586671.44, 85302.945, 0.0, 10.00054, 9.9993725 
2.476092e+3, 2.4141891e+2, -746966.1, -906437.8, -86327.35, -0.29503617, -0.3937849, -709185.06, -135115.19, 0.0, 9.999657, 9.997575 
2.4756958e+3, 2.5141153e+2, -568224.06, -628826.56, -164352.7, -0.14647545, -0.2684215, -431402.7, 44744.7, 0.0, 9.999772, 9.998608 
2.475301e+3, 2.6140428e+2, -647300.7, -681174.2, -61383.87, 0.028522732, -0.09699631, -600559.9, -222337.5, 0.0, 9.99867, 9.998249 
2.4749091e+3, 2.713966e+2, -106261.02, -143970.25, 71098.836, 0.075941764, -0.14400008, -51559.26, 228736.86, 0.0, 10.000942, 10.000003 
2.4745151e+3, 2.81389e+2, -52946.99, -349716.9, 14541.723, -0.082198456, -0.08018244, -52236.15, 130132.93, 0.0, 10.001648, 9.997739 
2.4741147e+3, 2.9138005e+2, 266043.13, -15797.266, -83111.98, -0.516732, -0.1314262, 288726.4, 373180.75, 0.0, 10.002817, 9.998647 
2.4737251e+3, 3.0137065e+2, -222589.28, -651704.7, 133874.28, -0.07331187, -0.05463832, -184249.11, -184249.11, 0.0, 10.000721, 9.995128 
2.4733399e+3, 3.113594e+2, -521124.34, -206351.42, 217699.63, 0.056968514, -0.17915021, -95105.0, -95105.0, 0.0, 9.996243, 10.000165 
2.4908371e+3, 1.2191036e+2, -1645738.8, -1703175.6, 26803.344, 0.07737548, -0.33893076, -1635174.0, 110078.86, 0.43991777, 10.000857, 9.999774 
2.4904439e+3, 1.3190185e+2, -1615136.1, -1749651.0, 75358.62, 0.3257212, -0.36995137, -1581386.3, 65951.56, 0.31901658, 10.000726, 9.998628 
2.4900451e+3, 1.4189541e+2, -1818921.5, -1913994.8, 23757.838, 0.048410613, -0.08689543, -1813315.3, -263911.88, 0.19536594, 9.998781, 9.997871 
2.4896465e+3, 1.5188657e+2, -1377805.8, -1501202.3, -7339.64, -0.040160913, -0.11879658, -1377370.8, 74124.875, 0.094030365, 10.000757, 9.998954 
2.4892493e+3, 1.6187748e+2, -1153147.0, -1375090.6, 81584.99, -0.06544406, -0.13907714, -1126384.1, 227203.84, 0.032013185, 10.001594, 9.998838 
2.4888547e+3, 1.7186992e+2, -1094506.0, -1170037.3, 123417.23, -0.11477449, -0.13515468, -1003205.5, 252453.81, 0.0062260167, 10.000924, 9.999779 
2.4884596e+3, 1.8186201e+2, -1157622.8, -1293045.9, 46158.832, -0.22033967, -0.08588708, -1143386.3, 14347.902, 0.00043419475, 10.000197, 9.99874 
2.4880625e+3, 1.9185159e+2, -880049.6, -1032273.8, 19653.875, -0.3088916, -0.32555398, -877553.0, 182281.53, 0.0000058323185, 10.0012665, 9.99924 
2.4876665e+3, 2.0184252e+2, -683965.56, -821594.4, 64410.04, -0.33495563, -0.39463934, -658524.6, 303399.03, 0.000000000090419006, 10.00153, 9.999957 
2.4872744e+3, 2.1183895e+2, -585195.75, -543760.06, 20550.912, -0.09980119, -0.15026148, -535296.25, 328667.44, 0.0, 10.000894, 10.0014 
2.4868813e+3, 2.2183427e+2, -703246.2, -803577.9, -76966.32, 0.035344508, 0.07579363, -661540.2, 104472.39, 0.0, 10.000367, 9.99929 
2.4864843e+3, 2.3182435e+2, -468326.97, -640240.4, -103282.65, -0.09913426, -0.116445616, -419911.56, 248195.56, 0.0, 10.001488, 9.99912 
2.486087e+3, 2.4181432e+2, -319057.22, -665131.75, -161408.92, -0.2047792, -0.22213995, -255462.4, 314741.22, 0.0, 10.0023365, 9.997943 
2.4856897e+3, 2.518055e+2, -220948.45, -522076.78, -168644.69, -0.11198522, -0.20814826, -145436.1, 326856.72, 0.0, 10.00227, 9.998196 
2.4852937e+3, 2.617969e+2, -144773.17, -388595.78, 11044.602, -0.022059832, -0.13863306, -144273.9, 230104.78, 0.0, 10.0017395, 9.998805 
2.4849018e+3, 2.7178907e+2, -88930.69, -125784.33, 40411.297, -0.012327738, -0.21069172, -62943.316, 213506.8, 0.0, 10.000837, 10.000264 
2.484509e+3, 2.817813e+2, -180700.72, -391235.56, -72276.57, -0.09781906, -0.18392308, -158276.58, 20245.672, 0.0, 10.000518, 9.998037 
2.4841116e+3, 2.9177243e+2, 219231.48, -106171.22, -148174.3, -0.3584676, -0.17044424, 276592.28, 357202.16, 0.0, 10.002642, 9.9981785 
2.4837214e+3, 3.0176407e+2, 284119.72, -268397.2, 24171.467, 0.040627144, -0.0021967285, 285175.16, 285175.16, 0.0, 10.003511, 9.996424 
2.4833304e+3, 3.1175345e+2, 159407.2, 162349.92, -63163.51, -0.012376688, -0.09458669, 224059.2, 224059.2, 0.0, 10.000425, 10.000818 
2.5008312e+3, 1.2230331e+2, -1622643.0, -1577969.6, -2797.732, 0.12274546, -0.55568933, -1577795.0, 163597.16, 0.42027465, 10.000222, 10.00158 
2.5004327e+3, 1.3229604e+2, -1628497.8, -1716943.1, -165454.61, -0.060355503, -0.5345347, -1501457.9, 142009.42, 0.30251706, 10.000618, 9.99904 
2.500034e+3, 1.4229108e+2, -1672524.8, -1846579.6, -111928.78, -0.20908119, -0.11995248, -1617771.3, -72248.93, 0.18302314, 9.999777, 9.997864 
2.4996385e+3, 1.5228452e+2, -1416301.4, -1538315.1, -79065.35, -0.14758421, 0.039060876, -1377442.5, 70155.16, 0.08629053, 10.000506, 9.998837 
2.4992432e+3, 1.6227701e+2, -1372743.6, -1540817.3, -21182.832, -0.038964033, 0.19005041, -1370115.0, -20436.975, 0.028287582, 10.000304, 9.998307 
2.4988478e+3, 1.7226681e+2, -1218411.6, -1306004.6, 6232.327, -0.11570875, -0.05747772, -1217970.4, 33803.08, 0.0050760456, 10.000336, 9.999139 
2.4984527e+3, 1.8225692e+2, -1268590.8, -1349537.6, 10398.806, -0.1580583, -0.16615294, -1267276.3, -113410.22, 0.00028139996, 9.999585, 9.998618 
2.4980576e+3, 1.9224861e+2, -934767.56, -984969.3, 5262.6304, -0.13708156, -0.2656507, -934221.8, 121722.79, 0.0000014559199, 10.00072, 9.999784 
2.4976626e+3, 2.022408e+2, -946144.06, -1117216.1, 23138.625, -0.09382511, -0.18901448, -943069.7, 14952.381, 0.0, 10.000589, 9.998372 
2.4972673e+3, 2.1223491e+2, -850457.3, -864893.44, -17644.85, -0.1298813, -0.017963083, -838611.25, 21478.94, 0.0, 10.000097, 9.999523 
2.4968722e+3, 2.2222854e+2, -988259.56, -1070956.0, -57103.68, -0.1327352, 0.21352303, -959106.0, -196945.84, 0.0, 9.999107, 9.99806 
2.4964778e+3, 2.322196e+2, -597148.25, -703904.56, -47018.92, -0.11275862, 0.12382209, -579392.7, 84854.31, 0.0, 10.00071, 9.999021 
2.4960825e+3, 2.4221043e+2, -545401.1, -764872.8, -153785.73, -0.09323782, 0.104482524, -466213.7, 100121.055, 0.0, 10.000834, 9.997971 
2.495684e+3, 2.5220084e+2, -307813.84, -466711.84, -174183.72, -0.10054566, -0.05304693, -195815.44, 272609.03, 0.0, 10.001372, 9.998965 
2.4952866e+3, 2.6219118e+2, -425778.94, -651085.06, -17618.525, -0.16491199, -0.09971547, -424409.5, -53894.992, 0.0, 10.000496, 9.997574 
2.4948923e+3, 2.7218044e+2, -295864.5, -393291.78, 15293.836, -0.32043523, -0.3360607, -293520.16, -20908.836, 0.0, 10.000213, 9.998704 
2.4944997e+3, 2.8217027e+2, -455568.13, -632582.75, -52188.99, -0.35151872, -0.40045044, -441327.03, -266620.38, 0.0, 9.999253, 9.996952 
2.4941091e+3, 2.9216126e+2, 80180.33, -183193.5, -53721.676, -0.14295633, -0.41730246, 90716.695, 167517.3, 0.0, 10.001842, 9.997979 
2.493719e+3, 3.0215347e+2, 138674.11, -237401.69, -57015.668, 0.10570788, -0.21084687, 147128.03, 147128.03, 0.0, 10.00225, 9.997207 
2.4933222e+3, 3.121469e+2, -40068.375, 101258.805, -62122.49, -0.2902722, -0.06845274, 124683.19, 124683.19, 0.0, 9.99924, 10.000858 
2.510825e+3, 1.2269747e+2, -1755869.6, -1691592.5, -294448.4, 0.078241, 0.0847393, -1427533.9, 310004.84, 0.39734322, 9.999582, 10.001042 
2.510427e+3, 1.3268451e+2, -1455437.4, -1481347.0, -194860.05, -0.027693847, -0.6201978, -1273102.0, 366566.7, 0.28406283, 10.001249, 10.000656 
2.5100273e+3, 1.4268245e+2, -1388459.4, -1580024.5, -206290.33, -0.32358363, -0.060431972, -1256799.6, 284892.84, 0.16993596, 10.00147, 9.998969 
2.5096312e+3, 1.5267523e+2, -1342142.6, -1411129.9, -189464.92, -0.18149143, -0.06452209, -1184057.0, 259712.2, 0.078587286, 10.000627, 9.999711 
2.509236e+3, 1.6266769e+2, -1408139.0, -1449228.0, -108499.055, -0.055203095, -0.010859725, -1318256.5, 27590.277, 0.024857625, 9.999546, 9.999314 
2.5088415e+3, 1.7265911e+2, -1204437.4, -1215445.8, -34980.902, -0.045641687, -0.15988764, -1174530.3, 73397.91, 0.0041356636, 10.000042, 9.999937 
2.5084463e+3, 1.8265069e+2, -1112324.3, -1157980.3, -19256.15, -0.10999308, -0.20404269, -1105287.3, 44720.414, 0.00018434241, 10.000103, 9.999689 
2.5080508e+3, 1.9264354e+2, -869511.25, -898390.9, 5105.847, -0.1593088, -0.23070605, -868635.1, 183439.42, 0.00000026313862, 10.000872, 10.000342 
2.5076556e+3, 2.0263642e+2, -860778.6, -1052753.0, -35554.79, -0.17207314, -0.12087975, -854405.25, 99739.85, 0.0, 10.001012, 9.998623 
2.5072604e+3, 2.1262914e+2, -878898.44, -959806.9, -45626.656, -0.06266503, -0.016084248, -858374.5, -2148.3672, 0.0, 10.00017, 9.9988985 
2.506866e+3, 2.2262157e+2, -823652.0, -912758.44, 19173.752, -0.017671121, 0.12604126, -819701.4, -61394.387, 0.0, 9.999727, 9.998899 
2.5064716e+3, 2.3261298e+2, -609237.94, -655448.1, 69075.81, -0.051605098, 0.029281504, -559505.44, 100884.91, 0.0, 10.000223, 9.999663 
2.5060764e+3, 2.426044e+2, -527458.9, -708371.3, -37678.96, -0.06912475, 0.034387194, -519925.13, 42547.836, 0.0, 10.000622, 9.998492 
2.5056785e+3, 2.5259516e+2, -346573.03, -505586.6, -121560.05, -0.038634144, -0.051342018, -280827.72, 183733.11, 0.0, 10.001068, 9.998914 
2.5052813e+3, 2.6258558e+2, -244077.47, -552788.4, 17121.14, -0.088057004, -0.07848121, -243130.83, 123519.34, 0.0, 10.001585, 9.997754 
2.5048864e+3, 2.7257463e+2, -16924.043, -336899.03, 73536.875, -0.28375012, -0.2556273, -832.94574, 267916.13, 0.0, 10.00237, 9.99812 
2.5044933e+3, 2.8256366e+2, -54639.16, -455662.63, 63715.832, -0.3341456, -0.33354235, -44759.203, 126094.1, 0.0, 10.0019045, 9.99693 
2.5041038e+3, 2.9255313e+2, -271460.34, -435818.13, 16943.115, -0.020570144, -0.43677095, -269731.9, -196767.78, 0.0, 9.999517, 9.997476 
2.503714e+3, 3.0254528e+2, -329685.6, -316315.56, 10861.6875, 0.26774922, -0.24284247, -310246.53, -310246.53, 0.0, 9.998215, 9.998648 
2.503317e+3, 3.1254092e+2, 100725.36, 271794.53, -33848.51, -0.007891369, -0.00612737, 278248.47, 278248.47, 0.0, 9.999491, 10.001969 
2.5208178e+3, 1.23085685e+2, -2034552.4, -1926560.3, -309650.66, 0.21375279, -0.06535369, -1666233.1, 67512.63, 0.3720952, 9.997814, 9.999645 
2.5204206e+3, 1.3307452e+2, -1446630.9, -1403590.6, -51387.51, -0.028188555, -0.642458, -1369399.1, 266457.66, 0.26429757, 10.00084, 10.001481 
2.5200224e+3, 1.4307441e+2, -1347131.9, -1466292.5, -160617.11, -0.20033257, 0.04097167, -1235400.6, 302457.75, 0.15642525, 10.001443, 9.999695 
2.519625e+3, 1.530656e+2, -1277763.3, -1304198.9, -220806.9, -0.0986827, -0.20390598, -1069778.9, 370165.88, 0.071005836, 10.000909, 10.000252 
2.5192294e+3, 1.6305755e+2, -1376496.6, -1357726.4, -104199.44, 0.073315285, -0.24720336, -1262490.3, 79533.35, 0.021693112, 9.999581, 9.999898 
2.518835e+3, 1.7305107e+2, -1264276.5, -1113980.6, -69549.76, 0.096137464, -0.28586245, -1086735.3, 157351.08, 0.00335279, 9.999271, 10.00095 
2.51844e+3, 1.8304478e+2, -1275411.5, -1210608.6, -30660.174, 0.04621295, -0.1881174, -1198401.9, -52255.56, 0.00011963712, 9.998912, 9.999882 
2.5180435e+3, 1.9303821e+2, -935609.75, -894595.7, -10461.726, -0.202418, -0.22623609, -892081.3, 156125.86, 0.00000002568285, 10.000264, 10.000628 
2.517648e+3, 2.0303124e+2, -1012682.8, -1192850.0, -78415.62, -0.2357263, -0.103943355, -983334.1, -33059.01, 0.0, 10.000297, 9.997995 
2.5172544e+3, 2.1302257e+2, -974080.3, -1045285.44, -101307.81, 0.094092324, -0.12967765, -902301.25, -49935.26, 0.0, 9.999693, 9.998523 
2.5168604e+3, 2.2301409e+2, -987726.75, -951518.0, 31186.012, 0.26590356, -0.07213248, -933562.2, -179109.66, 0.0, 9.9985895, 9.999125 
2.516465e+3, 2.3300554e+2, -657501.5, -570474.5, 66558.836, 0.027045788, -0.2805242, -534467.56, 122065.57, 0.0, 9.999552, 10.00052 
2.516069e+3, 2.4299726e+2, -775509.75, -943673.56, -62298.523, -0.07519594, -0.24894717, -754945.25, -196331.7, 0.0, 9.999566, 9.997364 
2.515673e+3, 2.5298885e+2, -519986.25, -695654.4, -120661.03, 0.094499536, -0.1798455, -458575.84, 2124.0122, 0.0, 10.0004635, 9.997862 
2.5152776e+3, 2.629806e+2, -460348.5, -719411.56, 34641.383, 0.1504754, 0.025368372, -455796.3, -93014.97, 0.0, 10.000522, 9.99708 
2.5148842e+3, 2.7297193e+2, -121644.336, -365376.1, 103320.48, -0.024086414, 0.030251449, -83740.336, 181120.95, 0.0, 10.001705, 9.998165 
2.51449e+3, 2.8296167e+2, -281916.3, -642449.4, -31337.762, -0.160791, 0.052554682, -279212.7, -112252.29, 0.0, 10.000861, 9.996101 
2.514095e+3, 2.9294917e+2, -477334.22, -593366.44, -57567.58, -0.093689576, -0.20484516, -453619.7, -384529.8, 0.0, 9.998525, 9.996809 
2.5137037e+3, 3.0294067e+2, -465065.97, -243045.38, 46131.664, 0.15179972, -0.07648165, -233841.63, -233841.63, 0.0, 9.996851, 9.999757 
2.5133082e+3, 3.1293213e+2, 6709.0483, 423047.4, 186072.05, -0.23439659, -0.4616807, 494086.44, 494086.44, 0.0, 9.998249, 10.003517 
2.53081e+3, 1.2348056e+2, -2221764.3, -2123763.3, -17757.29, 0.32369938, -0.34305605, -2120645.0, -390760.0, 0.34545994, 9.996923, 9.998577 
2.530413e+3, 1.3347426e+2, -1567591.3, -1606497.0, 156554.1, -0.10538533, -0.25218412, -1429286.1, 202662.23, 0.24384509, 10.000523, 9.999906 
2.530018e+3, 1.434692e+2, -1398954.9, -1591514.9, -86913.84, -0.12924498, 0.09602531, -1365528.0, 168470.61, 0.14280653, 10.001459, 9.998716 
2.5296214e+3, 1.5345994e+2, -1212342.3, -1366770.6, -167794.88, 0.109770946, -0.075716674, -1104848.3, 331243.06, 0.06363834, 10.001778, 9.999369 
2.5292245e+3, 1.634518e+2, -1188965.0, -1288514.8, -141020.13, 0.2128281, -0.060890645, -1089193.3, 248977.9, 0.0187796, 10.000879, 9.99977 
2.5288254e+3, 1.7344527e+2, -1302263.0, -1180415.4, -142797.58, -0.058731753, -0.069567084, -1086088.3, 154145.08, 0.0026956536, 9.999049, 10.000658 
2.528429e+3, 1.8343863e+2, -1328552.4, -1164483.9, -44743.125, -0.21753651, -0.017711746, -1153075.3, -10780.176, 0.00007576087, 9.998217, 10.000517 
2.5280374e+3, 1.9343112e+2, -902388.5, -841513.7, -12795.361, -0.13187075, -0.17293271, -838933.6, 205429.03, 0.00000000011876218, 10.000265, 10.001016 
2.5276434e+3, 2.0342366e+2, -748658.44, -907390.8, -149873.4, -0.08066214, -0.17899333, -658433.9, 287998.16, 0.0, 10.001342, 9.999455 
2.5272465e+3, 2.1341565e+2, -667167.0, -779159.1, -110315.945, -0.014455042, -0.2408602, -599449.0, 249061.9, 0.0, 10.001169, 9.999685 
2.5268507e+3, 2.234078e+2, -655289.4, -790259.9, 50913.867, 0.027675578, -0.181748, -638237.8, 112351.7, 0.0, 10.000746, 9.999209 
2.5264576e+3, 2.3339999e+2, -567279.25, -629638.3, 5316.3154, 0.01572514, -0.21724626, -566829.25, 85839.92, 0.0, 10.000455, 9.999747 
2.526063e+3, 2.4339171e+2, -529017.8, -760540.56, -132390.97, 0.005545959, -0.16686662, -468915.4, 85836.28, 0.0, 10.000858, 9.998008 
2.525667e+3, 2.5338277e+2, -147851.27, -496210.97, -115827.06, 0.07705234, -0.16704333, -112855.28, 343984.4, 0.0, 10.002824, 9.998126 
2.525272e+3, 2.633743e+2, -10589.512, -472009.88, 39979.445, 0.09987757, -0.010973523, -7151.142, 351771.72, 0.0, 10.003329, 9.997461 
2.524879e+3, 2.7336589e+2, -200377.22, -433987.63, 39340.93, 0.054775037, 0.05748339, -193929.98, 67073.88, 0.0, 10.00114, 9.998028 
2.5244847e+3, 2.8335637e+2, -335488.16, -571452.4, -79201.74, 0.0018854833, 0.12844922, -311369.25, -148272.1, 0.0, 10.000013, 9.996984 
2.5240874e+3, 2.933444e+2, -104577.66, -368131.38, -70188.43, -0.06657629, -0.10620375, -87050.945, -21832.693, 0.0, 10.000802, 9.997291 
2.5236946e+3, 3.0333516e+2, 90254.3, 7996.3843, 115452.54, 0.12707868, -0.058580164, 171685.03, 171685.03, 0.0, 10.000653, 9.999681 
2.5233033e+3, 3.1332776e+2, 125040.27, 421231.06, 6332.5444, 0.065599315, -0.23415966, 421366.38, 421366.38, 0.0, 9.999133, 10.003184 
2.5408e+3, 1.23885855e+2, -1755527.0, -1899785.9, 114069.18, 0.22064677, 0.5286262, -1692695.6, 33223.758, 0.31815657, 10.00036, 9.99842 
2.5404072e+3, 1.3387391e+2, -1734311.0, -1804158.1, 130127.086, 0.04701636, 0.10948758, -1634502.6, -6464.384, 0.22319712, 9.99972, 9.998714 
2.5400126e+3, 1.4386427e+2, -1758375.5, -1899823.6, -103731.55, -0.016684974, 0.11665673, -1703552.3, -173417.3, 0.12934339, 9.999376, 9.997593 
2.539618e+3, 1.538552e+2, -1426494.1, -1616258.8, -167352.14, 0.3669786, 0.06878037, -1328998.3, 103230.11, 0.05657354, 10.000824, 9.998132 
2.53922e+3, 1.6384737e+2, -1292510.4, -1405644.3, -152655.95, 0.4187666, 0.22095335, -1186277.9, 148029.02, 0.016116831, 10.000531, 9.999097 
2.5388148e+3, 1.738405e+2, -1268691.5, -1234947.0, -186177.63, -0.23534581, 0.21099426, -1064878.6, 171492.77, 0.0021455006, 9.99961, 9.999992 
2.5384176e+3, 1.8383293e+2, -1297937.1, -1165832.9, 56428.77, -0.43340433, 0.22079378, -1145011.0, -6570.56, 0.000046550977, 9.998536, 10.000359 
2.538032e+3, 1.9382377e+2, -1051504.4, -906938.2, 74570.83, 0.06593335, -0.12534904, -875367.3, 165154.4, 0.0, 9.999244, 10.001066 
2.53764e+3, 2.0381582e+2, -947152.9, -860678.94, -141515.63, 0.21578759, -0.22334923, -755942.56, 186649.84, 0.0, 9.999514, 10.000597 
2.5372374e+3, 2.1380891e+2, -718692.1, -604293.6, -149718.22, -0.25102985, -0.3723556, -501220.28, 343434.16, 0.0, 10.000089, 10.001347 
2.5368398e+3, 2.2380228e+2, -933112.2, -1101609.3, 14335.497, -0.36472943, -0.20945613, -931901.25, -185179.36, 0.0, 9.999736, 9.997534 
2.53645e+3, 2.3379554e+2, -826652.1, -940271.75, -11833.24, -0.01226371, 0.009244538, -825432.8, -176630.81, 0.0, 9.99962, 9.997965 
2.5360572e+3, 2.4378766e+2, -687268.3, -794026.7, -74159.086, 0.12356044, 0.19603296, -649275.1, -98391.586, 0.0, 9.999756, 9.998253 
2.53566e+3, 2.5377697e+2, -206505.48, -404096.7, -32857.35, -0.14026496, -0.10786399, -201184.92, 251793.16, 0.0, 10.002011, 9.999096 
2.5352645e+3, 2.6376665e+2, -242984.39, -652862.2, -30412.566, -0.24176154, -0.15768906, -240740.1, 114334.71, 0.0, 10.002183, 9.996725 
2.5348714e+3, 2.737566e+2, -388027.38, -582634.5, -37737.5, -0.06732605, -0.22586295, -380965.7, -123790.33, 0.0, 10.000221, 9.997411 
2.5344774e+3, 2.837478e+2, -431765.84, -510753.3, -74467.266, 0.005260082, -0.07772026, -386967.66, -227705.52, 0.0, 9.999003, 9.997869 
2.5340804e+3, 2.9373875e+2, -67506.48, -162775.4, 3418.0908, -0.12045335, -0.21122548, -67383.99, -6035.056, 0.0, 10.0003605, 9.998879 
2.5336874e+3, 3.0372894e+2, -244832.33, -515067.9, 69431.87, 0.0008221747, -0.16066194, -228036.98, -228036.98, 0.0, 10.000068, 9.996328 
2.5332972e+3, 3.1372368e+2, -268773.9, -59430.59, -19067.123, 0.19885896, 0.2501841, -57708.117, -57708.117, 0.0, 9.997828, 10.00048 
2.5507924e+3, 1.2427081e+2, -1468694.5, -1780995.5, 363969.78, -0.22275943, -0.17299768, -1228793.3, 493346.6, 0.29081753, 10.003308, 9.998233 
2.5504005e+3, 1.3426746e+2, -1623651.4, -1600577.6, -5268.5474, 0.08155621, 0.12545435, -1599431.6, 24745.387, 0.2027681, 9.999776, 10.00015 
2.5500023e+3, 1.4425962e+2, -1863759.9, -1857723.5, -63537.098, -0.19687593, 0.20479006, -1797133.0, -270875.66, 0.11625642, 9.998202, 9.998461 
2.5496083e+3, 1.5425044e+2, -1471644.8, -1580901.3, -40898.97, 0.12954435, 0.0862165, -1458031.0, -29680.785, 0.04988728, 10.000146, 9.998719 
2.5492114e+3, 1.64242e+2, -1212440.5, -1354088.3, -72237.875, 0.20044842, 0.1526742, -1182099.5, 148334.31, 0.013707004, 10.001022, 9.999222 
2.54881e+3, 1.7423396e+2, -994091.25, -1136931.9, -73915.164, -0.104212955, 0.08711719, -962728.75, 269781.72, 0.0016894786, 10.001632, 9.999711 
2.5484133e+3, 1.842263e+2, -928556.06, -941699.5, 112987.67, -0.19840083, 0.096885905, -821949.2, 312632.7, 0.000027889511, 10.000809, 10.000817 
2.5480238e+3, 1.9421853e+2, -1182554.5, -963323.56, 142590.31, 0.09753759, -0.09677254, -893084.8, 143567.61, 0.0, 9.998253, 10.001195 
2.54763e+3, 2.0421134e+2, -1234144.8, -1030190.1, -32643.355, 0.13390534, -0.100473434, -1025092.94, -86373.23, 0.0, 9.997588, 10.000381 
2.54723e+3, 2.142044e+2, -794592.7, -728909.2, -116999.65, -0.24213812, -0.16040307, -640229.3, 200558.17, 0.0, 9.999814, 10.00067 
2.5468332e+3, 2.2419734e+2, -710338.1, -914329.06, -47210.78, -0.3541898, -0.040877093, -699941.7, 42918.043, 0.0, 10.000864, 9.998291 
2.5464422e+3, 2.3418978e+2, -665276.6, -832936.44, 17657.75, -0.059213962, 0.080446, -663437.06, -18494.271, 0.0, 10.000538, 9.998298 
2.5460497e+3, 2.4418171e+2, -458096.38, -575036.1, 63038.273, 0.049312394, 0.19059606, -430586.3, 116436.93, 0.0, 10.000696, 9.999378 
2.5456542e+3, 2.5417185e+2, -259003.94, -380955.03, 70579.98, -0.16463357, -0.05682322, -226708.11, 222401.17, 0.0, 10.001241, 9.999735 
2.5452587e+3, 2.6416156e+2, -341696.88, -628556.2, -9037.578, -0.24345922, -0.15384959, -341412.44, 9792.809, 0.0, 10.001107, 9.997447 
2.544864e+3, 2.741509e+2, -352207.88, -573286.44, -6801.635, -0.050878942, -0.2534457, -351998.8, -98685.49, 0.0, 10.000394, 9.997463 
2.5444698e+3, 2.8414196e+2, -199173.73, -275996.38, 56949.926, 0.035431996, -0.16098243, -168892.1, -13490.93, 0.0, 9.999919, 9.9991 
2.5440732e+3, 2.9413426e+2, -50393.12, -72521.16, 20604.416, -0.097642, -0.21166536, -38070.08, 19402.012, 0.0, 9.999993, 9.999755 
2.5436813e+3, 3.041255e+2, -200041.95, -484669.53, 118055.2, 0.14963076, -0.11585957, -157449.7, -157449.7, 0.0, 10.00014, 9.996597 
2.543288e+3, 3.14118e+2, -238306.92, -346703.63, 131630.7, 0.14712088, 0.1931936, -150153.22, -150153.22, 0.0, 9.999049, 9.998047 
2.5607893e+3, 1.2466372e+2, -1704087.8, -1646440.0, -203043.5, -0.09150062, -0.20384264, -1470184.6, 248096.7, 0.26403108, 9.999764, 10.000816 
2.5603926e+3, 1.3466057e+2, -1451487.0, -1459863.4, -109232.15, 0.048781667, 0.041169345, -1346362.8, 273955.03, 0.18292536, 10.001006, 10.000725 
2.5599933e+3, 1.4465484e+2, -1456552.5, -1557567.1, -35045.383, -0.23199621, 0.27691293, -1445584.9, 76792.43, 0.1037245, 10.000673, 9.999303 
2.5595987e+3, 1.546455e+2, -1327842.9, -1434076.4, -44344.94, -0.113540284, 0.025804332, -1311765.3, 112704.34, 0.043632858, 10.000853, 9.999371 
2.559203e+3, 1.6463646e+2, -1266962.9, -1385823.4, -65128.598, 0.050648462, -0.0006594897, -1238224.6, 88333.555, 0.011545959, 10.000772, 9.999072 
2.5588065e+3, 1.7462723e+2, -1137103.1, -1250051.8, -78465.914, 0.19368546, -0.17731962, -1096901.4, 131745.77, 0.0013158798, 10.000926, 9.999235 
2.5584102e+3, 1.8461993e+2, -1022681.06, -975412.8, 26584.701, 0.20185326, -0.10672072, -963475.6, 167241.64, 0.000016496271, 10.000251, 10.000821 
2.558014e+3, 1.9461414e+2, -1153658.8, -976690.3, 125.78634, 0.0731884, -0.12186911, -976690.2, 56082.44, 0.0, 9.9986515, 10.000905 
2.557619e+3, 2.0460808e+2, -1321761.0, -1243131.8, 6955.9277, 0.016240232, 0.09139535, -1242521.1, -307685.34, 0.0, 9.997867, 9.998756 
2.5572237e+3, 2.1460122e+2, -1057047.4, -1046689.1, -36086.67, -0.058424134, 0.17848659, -1015411.8, -178498.88, 0.0, 9.998981, 9.99886 
2.5568286e+3, 2.2459325e+2, -818738.7, -857096.75, -31705.348, -0.111273825, 0.27749854, -800862.9, -61869.246, 0.0, 9.999765, 9.999163 
2.556434e+3, 2.345832e+2, -720318.1, -724712.4, 8358.041, -0.15193437, -0.010634039, -713873.25, -72786.18, 0.0, 9.999664, 9.999416 
2.556041e+3, 2.4457486e+2, -623796.9, -631125.94, 83176.57, -0.09333884, 0.00848411, -544204.1, -1039.3175, 0.0, 9.999583, 9.999478 
2.5556493e+3, 2.545675e+2, -436252.13, -464130.2, 90071.07, -0.016832938, -0.03624091, -359047.88, 86184.86, 0.0, 10.000135, 9.999655 
2.5552547e+3, 2.6455918e+2, -496825.6, -658862.5, -53621.316, 0.011614755, 0.066984735, -480688.3, -133375.36, 0.0, 10.000026, 9.997674 
2.5548574e+3, 2.745487e+2, -430343.97, -564833.75, -19059.693, -0.00008220969, -0.10084775, -427695.03, -178276.9, 0.0, 9.999779, 9.997763 
2.5544617e+3, 2.84539e+2, -340919.0, -405141.63, 36201.73, -0.015419031, -0.0718224, -324639.2, -173125.9, 0.0, 9.999326, 9.99845 
2.5540665e+3, 2.9453072e+2, -220856.3, -261570.14, 20194.252, -0.05096759, -0.12953603, -212538.98, -158947.6, 0.0, 9.99936, 9.998715 
2.5536764e+3, 3.045243e+2, -74541.18, -65183.27, 71788.93, 0.3847162, 0.112266175, 2079.0227, 2079.0227, 0.0, 9.999652, 9.99961 
2.5532836e+3, 3.1451166e+2, -99711.914, 34750.355, 290710.3, 0.40102658, -0.49200106, 265902.38, 265902.38, 0.0, 9.9989195, 10.0006075 
2.570781e+3, 1.2505616e+2, -2013414.6, -1749185.1, -25822.559, -0.0382794, -0.38610587, -1746685.3, -32254.053, 0.23823552, 9.997325, 10.000914 
2.5703856e+3, 1.3505103e+2, -1332718.5, -1435526.1, -3882.7207, -0.12999848, -0.29213807, -1332572.0, 283907.4, 0.16394834, 10.002104, 10.000349 
2.5699887e+3, 1.4504421e+2, -1095113.9, -1284365.8, -70088.65, -0.24914071, -0.18993235, -1071983.8, 446562.4, 0.09188186, 10.002928, 10.000259 
2.5695938e+3, 1.550373e+2, -1111231.1, -1238970.9, -58953.188, -0.054332808, -0.2628559, -1088182.5, 332432.6, 0.03784501, 10.0019455, 10.00026 
2.569197e+3, 1.6503009e+2, -1170058.4, -1272136.6, -95760.234, 0.09762624, -0.18339224, -1112584.8, 210103.06, 0.009625426, 10.001126, 9.999688 
2.5688e+3, 1.7502189e+2, -1156943.1, -1234014.5, -56466.13, 0.17684725, -0.2734133, -1127116.4, 97654.74, 0.0010124295, 10.000625, 9.999515 
2.5684032e+3, 1.8501483e+2, -1008320.4, -1062699.8, 17671.027, 0.13171539, -0.14933343, -1003082.56, 123761.14, 0.000009793076, 10.000697, 10.000026 
2.5680065e+3, 1.9500852e+2, -812057.94, -937176.06, -30907.84, 0.0029199305, -0.07994486, -804839.25, 224070.11, 0.0, 10.001424, 9.999883 
2.567611e+3, 2.0500217e+2, -749222.3, -845108.25, -23019.049, -0.041863102, 0.08918636, -743982.56, 186993.33, 0.0, 10.001173, 9.99992 
2.567217e+3, 2.1499547e+2, -797522.1, -845460.3, 59793.336, 0.018581564, 0.13620518, -757072.56, 75974.73, 0.0, 10.000299, 9.999663 
2.5668225e+3, 2.2498758e+2, -640552.9, -644402.25, 125285.805, -0.03659983, 0.15256535, -517176.97, 217946.84, 0.0, 10.000293, 10.00041 
2.5664267e+3, 2.3497784e+2, -461754.4, -517955.0, 144211.22, -0.18968116, -0.15142973, -342931.25, 294279.97, 0.0, 10.00091, 10.0002985 
2.5660333e+3, 2.4496958e+2, -510512.5, -579436.7, 139246.03, -0.1602301, -0.15938061, -401527.4, 137761.64, 0.0, 10.000288, 9.999497 
2.5656417e+3, 2.549626e+2, -685760.75, -627614.5, 99659.88, 0.043413624, -0.096853636, -552873.6, -111514.49, 0.0, 9.998494, 9.999354 
2.5652477e+3, 2.6495516e+2, -579053.7, -595594.06, 28306.43, 0.12120649, 0.061009575, -557834.06, -214401.3, 0.0, 9.998857, 9.998694 
2.564852e+3, 2.7494606e+2, -98511.39, -330340.8, 55860.6, 0.10015738, -0.020953037, -85753.54, 159769.25, 0.0, 10.001557, 9.99854 
2.564456e+3, 2.849362e+2, 75434.68, -286873.25, 72094.945, 0.055590387, -0.019253092, 89253.64, 236873.33, 0.0, 10.002465, 9.99775 
2.5640607e+3, 2.9492626e+2, 51854.77, -269493.56, 7668.5176, 0.04686654, -0.103164785, 52037.664, 101753.52, 0.0, 10.001712, 9.997557 
2.563669e+3, 3.049189e+2, 180365.23, 98119.29, -10652.887, 0.3582118, 0.08504131, 181722.64, 181722.64, 0.0, 10.001096, 10.0000725 
2.5632742e+3, 3.1490916e+2, 225741.94, 372085.2, 47449.223, 0.22050285, -0.24408996, 386123.16, 386123.16, 0.0, 10.00015, 10.002385 
2.5807765e+3, 1.2545106e+2, -1661197.6, -1655634.0, 67317.89, 0.32683456, -0.17776366, -1591040.5, 119517.984, 0.21373183, 10.000086, 10.000317 
2.580379e+3, 1.3544196e+2, -1569245.6, -1540474.9, 37837.832, -0.18746991, -0.5637912, -1514380.1, 98258.08, 0.14603193, 10.000064, 10.000459 
2.5799844e+3, 1.4543407e+2, -1466718.0, -1374805.6, -90699.78, -0.14581232, -0.61725, -1319083.8, 195628.13, 0.080827504, 9.999776, 10.001059 
2.5795895e+3, 1.5542947e+2, -1339736.9, -1299867.4, -133104.31, 0.1427889, -0.5360614, -1185213.3, 231545.1, 0.032553293, 10.0001545, 10.000673 
2.579192e+3, 1.6542415e+2, -1264652.8, -1270779.6, -127444.45, 0.23136304, -0.30793864, -1140234.9, 178580.13, 0.007938516, 10.000311, 10.000043 
2.578792e+3, 1.7541741e+2, -1241555.3, -1259281.6, -111294.99, 0.1175356, -0.32019052, -1138771.1, 82116.945, 0.00076767127, 10.000014, 9.999601 
2.578395e+3, 1.8541035e+2, -1161104.1, -1286095.1, 53531.574, 0.048951376, -0.12355107, -1141311.6, -18346.48, 0.000005913737, 10.000409, 9.998579 
2.578e+3, 1.9540282e+2, -1010580.75, -1185097.0, 9613.846, 0.0072678677, -0.065158844, -1010052.75, 14995.304, 0.0, 10.000866, 9.998385 
2.577605e+3, 2.053959e+2, -734200.1, -670706.06, -20745.576, 0.017112387, 0.05160701, -664528.8, 262588.7, 0.0, 10.00063, 10.001342 
2.57721e+3, 2.1538864e+2, -837111.75, -712091.25, 17405.201, 0.07182226, -0.14514543, -709713.3, 119470.92, 0.0, 9.999428, 10.000976 
2.5768152e+3, 2.2538151e+2, -790459.06, -641206.8, 129574.445, 0.010633514, -0.1446035, -566305.06, 164943.98, 0.0, 9.999168, 10.000901 
2.5764203e+3, 2.3537369e+2, -653047.56, -576575.5, 135271.31, -0.16554292, -0.3337147, -474240.13, 159079.22, 0.0, 9.999642, 10.000453 
2.576026e+3, 2.4536574e+2, -742344.9, -796276.5, 48706.914, -0.17194104, -0.25634295, -713637.4, -178239.52, 0.0, 9.999308, 9.998425 
2.5756317e+3, 2.55357e+2, -896037.8, -856203.44, 35993.984, -0.035588633, -0.30234075, -834983.5, -397493.66, 0.0, 9.997727, 9.9981165 
2.575239e+3, 2.6535013e+2, -632633.56, -522481.13, 119153.72, 0.08844128, -0.068508014, -446290.44, -106731.43, 0.0, 9.998171, 9.99951 
2.574847e+3, 2.7534425e+2, -199996.88, -315079.44, 164615.92, 0.19893412, 0.052366797, -83155.25, 158459.42, 0.0, 10.000713, 9.999022 
2.574452e+3, 2.8533405e+2, -99099.03, -488956.66, 59605.3, 0.14665635, 0.067483686, -90189.586, 53523.938, 0.0, 10.001889, 9.9966 
2.574054e+3, 2.9531953e+2, -110796.17, -500958.56, 41489.63, -0.08346812, -0.38642433, -106432.984, -60577.22, 0.0, 10.001358, 9.996117 
2.573658e+3, 3.0530939e+2, -153390.78, -509733.94, -29864.258, -0.16954125, -0.19138001, -150905.27, -150905.27, 0.0, 10.000842, 9.995985 
2.5732657e+3, 3.1530255e+2, -125077.97, -114237.64, 55999.977, -0.042474993, 0.14992057, -63396.133, -63396.133, 0.0, 9.999283, 9.999427 
2.5907704e+3, 1.2584466e+2, -1287009.4, -1250764.3, -65198.79, 0.15508991, -0.13781148, -1201216.1, 505490.53, 0.19077115, 10.002061, 10.002774 
2.5903714e+3, 1.3583891e+2, -1744177.0, -1504078.6, -25906.8, -0.12680024, -0.28211492, -1501315.1, 107438.07, 0.12932457, 9.998238, 10.001639 
2.589975e+3, 1.4583093e+2, -1856014.6, -1550286.8, -47336.363, -0.14244664, -0.4015191, -1543125.4, -32296.629, 0.07062259, 9.997029, 10.001112 
2.58958e+3, 1.5582475e+2, -1549373.6, -1405768.9, -60999.473, 0.013592976, -0.4452989, -1383356.0, 29535.508, 0.027766839, 9.998673, 10.000654 
2.5891826e+3, 1.6581966e+2, -1284176.0, -1193969.5, -123466.914, 0.043209713, -0.23698866, -1107625.5, 207318.9, 0.0064744665, 9.999734, 10.000879 
2.5887838e+3, 1.7581451e+2, -1161419.6, -1156887.4, -68089.3, 0.014785131, -0.1316551, -1091026.5, 125971.87, 0.0005723583, 10.000161, 10.000282 
2.5883883e+3, 1.858071e+2, -1008622.7, -1101274.8, 116801.02, 0.020547615, -0.06123842, -929296.1, 189778.34, 0.0000035552432, 10.000912, 9.999621 
2.587995e+3, 1.957977e+2, -802794.6, -998730.06, 170975.7, 0.027998691, -0.23698759, -703708.1, 317461.84, 0.0, 10.001797, 9.99926 
2.587599e+3, 2.0579036e+2, -600016.5, -633258.6, 41903.117, -0.007710648, -0.18581118, -571558.44, 351684.53, 0.0, 10.001598, 10.001176 
2.587202e+3, 2.157841e+2, -680562.7, -681959.5, 16334.111, -0.030017706, -0.19730067, -664912.06, 160390.84, 0.0, 10.000565, 10.000703 
2.5868067e+3, 2.2577754e+2, -697369.2, -648944.56, 79529.64, -0.08562227, -0.11190529, -590023.25, 137343.1, 0.0, 9.9999275, 10.0005045 
2.5864127e+3, 2.3577048e+2, -672205.94, -662560.9, 32485.98, -0.17887206, -0.1415058, -634541.44, -5106.629, 0.0, 9.999706, 9.999879 
2.586019e+3, 2.4576196e+2, -503550.4, -637227.44, -59733.695, -0.116280824, -0.13372673, -480747.97, 50770.906, 0.0, 10.000653, 9.9989 
2.5856254e+3, 2.5575188e+2, -192298.58, -483009.1, -25111.39, 0.06848382, -0.3172978, -190145.42, 243474.63, 0.0, 10.002312, 9.998495 
2.5852323e+3, 2.6574475e+2, -22332.39, -169275.44, 72780.16, 0.10989719, -0.1691545, 7612.799, 343301.94, 0.0, 10.002049, 10.000091 
2.5848395e+3, 2.757396e+2, -219383.83, -295455.7, 53949.336, 0.12391663, 0.028333804, -191410.19, 46325.2, 0.0, 10.00035, 9.999392 
2.5844452e+3, 2.8572974e+2, -244208.22, -483968.97, -6439.8276, 0.096274324, -0.0018548983, -244035.36, -104203.28, 0.0, 10.000467, 9.997349 
2.5840482e+3, 2.9571488e+2, -54014.59, -452643.47, 35776.785, -0.07958301, -0.5170831, -50829.094, -8849.315, 0.0, 10.001512, 9.996425 
2.5836498e+3, 3.0570582e+2, 59592.85, -453867.88, 154411.63, -0.40111348, -0.19508432, 102451.25, 102451.25, 0.0, 10.002466, 9.995615 
2.5832668e+3, 3.1569573e+2, 9744.756, -390055.53, 77224.48, 0.7815255, -0.025487429, 24142.736, 24142.736, 0.0, 10.001509, 9.996533 
2.6007646e+3, 1.2624098e+2, -1785115.4, -1553096.8, -37394.96, 0.18887934, -0.054618116, -1547218.6, 155607.64, 0.16949552, 9.998409, 10.001946 
2.600363e+3, 1.3623653e+2, -1813735.6, -1557945.0, -96090.65, 0.025205784, -0.066669375, -1525869.6, 78993.15, 0.11391175, 9.997893, 10.001406 
2.5999656e+3, 1.4622907e+2, -1733969.9, -1497810.3, 61069.168, -0.071960635, -0.1100764, -1482953.0, 23982.027, 0.061296463, 9.998012, 10.000928 
2.5995705e+3, 1.5622094e+2, -1522907.1, -1459221.1, 2907.0227, -0.08518545, -0.33627373, -1459088.8, -50070.3, 0.023481611, 9.999213, 9.999988 
2.5991738e+3, 1.6621578e+2, -1168705.5, -1085516.4, -93768.73, -0.05688139, -0.12084274, -1024530.8, 286539.47, 0.005220199, 10.000341, 10.001346 
2.5987765e+3, 1.7621209e+2, -1079727.8, -1091572.3, -105720.88, 0.017180352, 0.073502064, -979763.4, 233342.89, 0.00041937284, 10.000654, 10.000511 
2.598382e+3, 1.8620409e+2, -993052.75, -951322.5, 89722.29, 0.07506937, 0.0032104112, -880071.1, 235109.77, 0.0000020172258, 10.000468, 10.000825 
2.5979894e+3, 1.9619268e+2, -1087170.6, -1067083.3, 96019.38, 0.108501226, -0.5190559, -980583.7, 36703.71, 0.0, 9.999613, 9.999815 
2.5975925e+3, 2.0618549e+2, -944993.0, -922992.4, -51546.645, 0.0117188115, -0.41802263, -881285.3, 38074.434, 0.0, 9.999901, 9.9999485 
2.5971934e+3, 2.1618067e+2, -969658.25, -991630.5, -53999.97, -0.14611278, -0.19219255, -925538.2, -104124.984, 0.0, 9.999469, 9.99905 
2.5967976e+3, 2.2617494e+2, -859540.94, -876570.2, 60240.434, -0.21769083, 0.13290873, -807216.3, -83739.48, 0.0, 9.999554, 9.999088 
2.5964043e+3, 2.361679e+2, -906405.25, -944826.8, 22971.979, -0.2197256, 0.2141593, -895670.0, -270115.9, 0.0, 9.998922, 9.998288 
2.596013e+3, 2.4615872e+2, -571139.56, -573527.75, 3003.5483, -0.013778783, 0.19089028, -569101.44, -41459.03, 0.0, 9.999893, 9.99967 
2.5956225e+3, 2.5614762e+2, -344207.97, -515219.25, 24691.883, 0.29597518, -0.20368959, -340714.13, 89030.21, 0.0, 10.001176, 9.998813 
2.5952268e+3, 2.6613867e+2, -201032.86, -307917.63, -6785.856, 0.12617607, -0.21601628, -200603.75, 131222.9, 0.0, 10.001177, 9.999514 
2.594828e+3, 2.7613077e+2, -416183.34, -474410.6, -2593.289, -0.2886031, -0.2728301, -416068.06, -182168.02, 0.0, 9.999449, 9.998584 
2.5944352e+3, 2.861226e+2, -252192.84, -317438.16, 5634.883, -0.18679118, -0.1646037, -251709.77, -115727.35, 0.0, 9.999774, 9.998809 
2.594044e+3, 2.961136e+2, -100146.734, -311242.03, 55838.063, 0.08372673, -0.25708187, -86286.7, -48210.082, 0.0, 10.000616, 9.997804 
2.593645e+3, 3.0610767e+2, 318007.53, 177375.92, 163445.44, -0.39815354, 0.06334474, 425620.7, 425620.7, 0.0, 10.002208, 10.000007 
2.5932556e+3, 3.1610048e+2, 202047.88, 71136.85, 133330.55, 0.1240633, 0.06377801, 285123.38, 285123.38, 0.0, 10.001405, 9.999705 
2.6107526e+3, 1.2664004e+2, -2240557.0, -1839486.0, 40257.887, -0.003305721, -0.1301517, -1835485.0, -136578.23, 0.14988421, 9.995646, 10.001126 
2.6103547e+3, 1.3663337e+2, -1902987.5, -1765314.1, 46830.117, 0.09764081, -0.19018468, -1750894.9, -149921.83, 0.09979623, 9.997967, 9.999912 
2.6099586e+3, 1.4662632e+2, -1592880.9, -1463687.1, 164397.9, 0.05747818, -0.10350255, -1351650.4, 151392.53, 0.05285716, 9.999113, 10.00068 
2.609564e+3, 1.566184e+2, -1405285.4, -1482643.5, 128688.58, -0.012694437, -0.23082782, -1309588.8, 95533.26, 0.019694533, 10.000296, 9.999354 
2.6091674e+3, 1.6661082e+2, -1073110.4, -1212212.9, -44076.09, -0.086680695, -0.14058867, -1060320.5, 246877.92, 0.004163879, 10.001721, 9.999801 
2.60877e+3, 1.7660357e+2, -855201.4, -1128668.4, -120823.734, -0.15505582, -0.12879978, -809467.25, 399804.22, 0.00030229846, 10.002798, 9.999222 
2.6083747e+3, 1.8659674e+2, -908279.1, -881371.94, -122935.766, -0.026072117, -0.05813367, -771155.8, 340181.38, 0.0000010444409, 10.000822, 10.001183 
2.607981e+3, 1.9658913e+2, -1439245.5, -1214095.3, -110754.32, 0.16946858, -0.20889255, -1168747.4, -155339.1, 0.0, 9.996949, 10.000144 
2.6075843e+3, 2.0658134e+2, -1188575.4, -1028644.7, -102113.234, 0.03567372, -0.21632658, -978912.06, -63428.016, 0.0, 9.99804, 10.000164 
2.6071855e+3, 2.1657364e+2, -629932.6, -824270.94, -64551.48, -0.27116308, -0.27332512, -610445.3, 207116.13, 0.0, 10.00161, 9.999212 
2.6067913e+3, 2.2656731e+2, -347490.38, -585365.7, 20449.975, -0.2751508, -0.057846904, -345745.13, 373884.06, 0.0, 10.002747, 9.999605 
2.606399e+3, 2.365612e+2, -383532.6, -667417.7, 70770.05, -0.11966329, 0.116226174, -366868.44, 254828.56, 0.0, 10.002229, 9.998661 
2.6060075e+3, 2.4655269e+2, -284497.44, -450956.38, 74077.38, 0.075574026, 0.1509851, -256306.08, 267474.94, 0.0, 10.00186, 9.999576 
2.605617e+3, 2.565424e+2, -251851.63, -502083.38, 9019.879, 0.3039049, -0.09954385, -251526.92, 174350.77, 0.0, 10.001797, 9.998653 
2.60522e+3, 2.6653296e+2, -199678.45, -328957.13, -92565.54, 0.10044534, -0.16206768, -151416.84, 176549.8, 0.0, 10.001172, 9.999414 
2.6048204e+3, 2.7652365e+2, -307313.72, -425986.25, -83298.266, -0.32713825, -0.30476412, -264378.8, -34324.258, 0.0, 10.000088, 9.998641 
2.6044276e+3, 2.8651634e+2, -206386.6, -171006.06, -6971.86, -0.20590882, -0.18662041, -169681.8, -37554.42, 0.0, 9.999506, 9.999946 
2.6040375e+3, 2.965104e+2, -231110.72, -247318.5, 15034.755, 0.18257695, -0.043813504, -222134.89, -187945.16, 0.0, 9.999065, 9.999015 
2.6036397e+3, 3.0650476e+2, 172554.1, 294413.5, -1663.1472, -0.3012204, 0.13160534, 294436.2, 294436.2, 0.0, 10.000198, 10.001836 
2.6032445e+3, 3.1649214e+2, 230762.97, 64299.594, -300773.78, -0.42039713, -0.595631, 459608.8, 459608.8, 0.0, 10.001526, 9.999611 
2.6207414e+3, 1.2703694e+2, -1826284.1, -1740246.9, -49183.83, -0.059315868, -0.31196275, -1717922.9, -22912.545, 0.13183987, 9.999107, 10.00004 
2.6203465e+3, 1.3702998e+2, -1718476.3, -1813437.1, -70530.3, 0.21661834, -0.3156537, -1680933.6, -83847.57, 0.08692974, 9.999926, 9.99859 
2.6199526e+3, 1.4702326e+2, -1426689.6, -1456646.4, 93266.11, 0.24437521, -0.1227473, -1347206.8, 151946.42, 0.045284748, 10.0005245, 10.000065 
2.619559e+3, 1.5701601e+2, -1412921.5, -1595995.8, 55552.08, 0.16501537, -0.14154913, -1397383.5, 3839.5225, 0.01638905, 10.000697, 9.998406 
2.619162e+3, 1.6700578e+2, -1300758.4, -1527442.4, -17219.055, -0.037454356, -0.1754653, -1299457.9, 3868.2122, 0.0032885466, 10.001109, 9.99791 
2.6187637e+3, 1.7699414e+2, -1259453.1, -1525676.1, -74858.75, -0.266063, -0.41814637, -1239847.5, -34402.246, 0.00021471751, 10.000929, 9.997407 
2.618367e+3, 1.8698901e+2, -969510.25, -924587.5, -196879.9, -0.07093379, -0.094702445, -748891.8, 358607.0, 0.00000047553752, 10.000496, 10.001034 
2.6179716e+3, 1.9698657e+2, -1280125.9, -1179280.8, -174555.25, 0.3103536, 0.27521393, -1048011.3, -38486.313, 0.0, 9.998303, 9.999727 
2.6175755e+3, 2.0697743e+2, -1037677.94, -906980.1, 47843.918, 0.104524516, 0.13149011, -891338.2, 20272.332, 0.0, 9.998951, 10.000525 
2.6171786e+3, 2.1696502e+2, -853051.6, -909589.7, 34272.035, -0.36186656, -0.4543544, -836894.2, -23168.68, 0.0, 10.000092, 9.999344 
2.616786e+3, 2.2695771e+2, -474434.75, -488325.28, -1202.6003, -0.26459607, -0.41533864, -474331.4, 241464.83, 0.0, 10.001357, 10.000879 
2.6163954e+3, 2.3695248e+2, -605356.4, -717791.6, 38498.87, 0.08038262, -0.29567856, -593437.5, 24411.74, 0.0, 10.000635, 9.999039 
2.6160023e+3, 2.4694532e+2, -512970.7, -698533.3, 72700.234, 0.11912826, -0.06593045, -487880.47, 32044.842, 0.0, 10.001022, 9.998217 
2.6156083e+3, 2.5693682e+2, -554253.0, -819965.3, -25.127998, 0.04681159, -0.025311546, -554253.0, -132237.22, 0.0, 10.000599, 9.997008 
2.6152125e+3, 2.669283e+2, -313379.66, -397151.63, -135477.17, 0.012218545, 0.0812675, -213461.2, 110640.555, 0.0, 10.00053, 9.999206 
2.6148155e+3, 2.769193e+2, -479263.4, -551762.7, -109329.99, -0.046248812, -0.040996436, -400330.22, -174140.67, 0.0, 9.999189, 9.998175 
2.6144207e+3, 2.8691128e+2, -241631.98, -77577.86, -28271.732, -0.08446783, -0.026079178, -72842.44, 55421.33, 0.0, 9.9989395, 10.000797 
2.614027e+3, 2.9690376e+2, -395481.1, -351343.28, 32463.02, -0.07675585, -0.15165678, -334158.1, -303825.63, 0.0, 9.9981575, 9.998716 
2.6136342e+3, 3.0689636e+2, -213365.6, -255923.97, 1588.6151, -0.10961011, 0.053378586, -213306.39, -213306.39, 0.0, 9.999206, 9.998517 
2.6132402e+3, 3.1688866e+2, 6715.8726, -145843.81, -187559.2, -0.3382869, 0.11353287, 132913.36, 132913.36, 0.0, 10.0005865, 9.998611 
2.6307377e+3, 1.27431e+2, -1548184.4, -1681013.6, -188792.89, 0.073506415, -0.19574736, -1414464.9, 276692.13, 0.11528824, 10.001493, 9.999391 
2.6303387e+3, 1.3742286e+2, -1474095.4, -1731671.0, -144333.28, -0.048216544, -0.2705104, -1409444.9, 183796.78, 0.07524984, 10.001775, 9.998312 
2.629944e+3, 1.4741637e+2, -1208065.5, -1300001.9, -851.4081, -0.052423198, -0.09101453, -1208057.6, 287248.25, 0.038529176, 10.001836, 10.000553 
2.629552e+3, 1.5740986e+2, -1189428.4, -1391177.5, -11037.406, 0.011011934, -0.083420694, -1188826.4, 208541.86, 0.013527696, 10.001785, 9.99931 
2.6291555e+3, 1.6740113e+2, -1203046.1, -1282032.9, -68789.12, -0.025723012, -0.123900376, -1163219.4, 136233.3, 0.0025719018, 10.000834, 9.999774 
2.6287577e+3, 1.7739132e+2, -1405921.8, -1451956.0, 34838.594, -0.13759032, -0.33443728, -1387183.4, -185634.78, 0.00015054179, 9.999179, 9.998797 
2.628361e+3, 1.873845e+2, -900725.2, -1010913.75, -8026.2334, -0.064886756, -0.16712143, -900143.56, 203474.72, 0.0000001940375, 10.001393, 10.00004 
2.6279643e+3, 1.9737898e+2, -418783.28, -835635.2, -13077.108, 0.067984045, 0.019029109, -418373.44, 587302.75, 0.0, 10.004384, 9.999201 
2.6275682e+3, 2.073707e+2, -466360.63, -633118.8, 77905.305, -0.012918503, -0.013509867, -435628.78, 472125.72, 0.0, 10.00285, 10.000542 
2.6271725e+3, 2.1736065e+2, -897118.6, -915897.4, 91534.05, -0.22292009, -0.3284146, -814493.7, -4646.5024, 0.0, 9.99961, 9.99956 
2.626781e+3, 2.2735283e+2, -735850.06, -664302.8, 38942.707, -0.09890771, -0.32739496, -647196.56, 64725.965, 0.0, 9.999678, 10.00051 
2.62639e+3, 2.3734616e+2, -529391.3, -671785.75, -10515.421, 0.17378384, -0.297665, -528619.0, 85369.54, 0.0, 10.000963, 9.999233 
2.6259965e+3, 2.4733885e+2, -423867.22, -597356.9, 36273.777, 0.13675623, -0.14238009, -416588.34, 99476.76, 0.0, 10.001254, 9.998854 
2.625601e+3, 2.5733107e+2, -445627.22, -693324.5, 81406.53, -0.037945498, -0.056760885, -421268.2, -3119.5376, 0.0, 10.000875, 9.997782 
2.6252058e+3, 2.6732296e+2, -209473.75, -395979.66, -17362.648, -0.036306433, 0.08991414, -207871.16, 112361.86, 0.0, 10.001331, 9.998879 
2.62481e+3, 2.7731454e+2, -72265.49, -367141.4, -24319.62, 0.05190554, 0.09922692, -70273.21, 152045.48, 0.0, 10.001868, 9.998204 
2.6244146e+3, 2.8730562e+2, 188436.27, 55075.695, -35431.77, -0.0045775548, 0.05274197, 197265.39, 321666.5, 0.0, 10.002081, 10.000256 
2.624019e+3, 2.9729658e+2, 132162.47, -132642.08, -97296.35, -0.11710979, -0.15172778, 164067.66, 190549.25, 0.0, 10.00183, 9.998495 
2.6236284e+3, 3.0728653e+2, -17028.115, -381347.22, -33896.813, 0.06809948, -0.11522058, -13901.142, -13901.142, 0.0, 10.001429, 9.996628 
2.6232392e+3, 3.1727746e+2, 55383.16, 170110.78, 68933.88, 0.26475286, 0.025242198, 202426.88, 202426.88, 0.0, 9.999464, 10.0014 
2.6407337e+3, 1.278252e+2, -1838692.1, -1819555.3, -122641.61, 0.30116308, -0.05844984, -1706109.4, -18805.875, 0.10017185, 9.999289, 9.999457 
2.6403305e+3, 1.3781641e+2, -1598103.1, -1782195.1, -48884.65, -0.23028575, -0.19702613, -1585927.4, 3462.3293, 0.06469282, 10.000827, 9.998406 
2.639936e+3, 1.4780983e+2, -1337677.1, -1321154.9, 106448.35, -0.25622547, -0.052301694, -1222647.5, 268806.53, 0.032530583, 10.000777, 10.000865 
2.639545e+3, 1.578033e+2, -1431773.4, -1446267.4, 12051.236, -0.06464351, -0.08240182, -1424958.0, -31440.518, 0.011066901, 9.999881, 9.999825 
2.639149e+3, 1.6779687e+2, -1140914.8, -989750.75, -102811.0, 0.057596426, -0.06409688, -937728.9, 357846.34, 0.0019930317, 10.000173, 10.002065 
2.6387516e+3, 1.7779015e+2, -1299290.8, -1296155.1, -34410.33, 0.11620786, -0.18526445, -1263277.0, -65642.39, 0.00010503105, 9.999491, 9.99972 
2.6383546e+3, 1.8778065e+2, -1067414.6, -1193709.3, 66616.91, -0.03226916, -0.26557103, -1038772.0, 60956.598, 0.00000008640195, 10.0008955, 9.998909 
2.637958e+3, 1.9777031e+2, -831950.7, -1178067.4, -10592.163, -0.21405709, -0.46828318, -831626.8, 170206.75, 0.0, 10.002319, 9.997787 
2.6375622e+3, 2.0776395e+2, -597230.94, -730034.56, -68731.69, -0.111536466, -0.2427135, -568064.75, 335830.6, 0.0, 10.002128, 10.000216 
2.637168e+3, 2.1775861e+2, -1025270.75, -1093001.3, -31478.047, 0.09065038, -0.06900345, -1012900.44, -206954.63, 0.0, 9.999286, 9.998511 
2.636775e+3, 2.2775042e+2, -846539.1, -870426.8, 66966.42, 0.15734045, 0.014496179, -790459.75, -82432.25, 0.0, 9.99965, 9.999064 
2.6363835e+3, 2.3774129e+2, -803810.94, -926501.94, 14885.244, 0.1962815, -0.095098205, -802030.8, -191911.1, 0.0, 9.999691, 9.99809 
2.6359895e+3, 2.4773325e+2, -409193.6, -368950.38, 6500.856, 0.12022176, -0.09301768, -367926.28, 144272.06, 0.0, 10.000498, 10.000749 
2.6355946e+3, 2.5772527e+2, -583084.44, -664724.75, 53817.133, -0.01874985, -0.23047765, -556357.8, -142081.81, 0.0, 9.9996195, 9.998577 
2.6351988e+3, 2.6771718e+2, -352330.84, -516413.72, -8434.719, -0.09148579, -0.0822763, -351898.38, -35538.89, 0.0, 10.000708, 9.998299 
2.6348028e+3, 2.7770892e+2, -362514.9, -691647.25, -2758.8833, -0.118652605, -0.0108936755, -362491.78, -144045.45, 0.0, 10.000787, 9.99649 
2.634409e+3, 2.8769916e+2, -91973.09, -385543.2, -49701.133, -0.034794845, 0.09876458, -83787.01, 36754.074, 0.0, 10.001568, 9.997436 
2.6340148e+3, 2.9768866e+2, -126201.18, -496429.13, -121729.11, -0.011859039, -0.0025823193, -89763.445, -67122.9, 0.0, 10.001184, 9.996291 
2.6336217e+3, 3.0767328e+2, 29936.826, -234029.86, -85202.06, -0.028661732, -0.5053246, 55048.977, 55048.977, 0.0, 10.00135, 9.9976 
2.6332298e+3, 3.1766632e+2, -173866.98, -95096.12, 8221.248, 0.058492683, -0.26076505, -94247.23, -94247.23, 0.0, 9.998712, 9.999881 
2.6507235e+3, 1.2822081e+2, -1876356.3, -1456022.6, -14840.129, 0.111818224, 0.012336311, -1455499.4, 227934.13, 0.08643013, 9.997296, 10.003067 
2.6503253e+3, 1.3821456e+2, -1528750.0, -1514798.8, 169584.13, -0.10853104, -0.17795224, -1352046.9, 233436.48, 0.055199515, 10.000247, 10.000608 
2.6499304e+3, 1.4820705e+2, -1550327.8, -1537173.4, 198155.19, -0.12764588, -0.13086249, -1345486.3, 142068.75, 0.027235242, 9.999748, 9.999871 
2.6495367e+3, 1.5819858e+2, -1737075.4, -1683077.6, 123980.3, -0.056767, -0.22985506, -1583190.5, -193552.13, 0.0089680515, 9.9981, 9.999071 
2.6491407e+3, 1.6819158e+2, -1285896.3, -1149976.4, -20773.996, -0.040459555, -0.1807468, -1146872.1, 144831.48, 0.0015322798, 9.999629, 10.001191 
2.6487434e+3, 1.7818476e+2, -1062459.8, -1240519.9, -58405.402, -0.081567906, -0.21756375, -1045011.94, 148754.55, 0.00007382683, 10.001315, 9.99922 
2.6483473e+3, 1.8817598e+2, -1076597.1, -1241358.9, -22926.414, -0.11152036, -0.19335073, -1073466.5, 22388.707, 0.000000036839044, 10.00096, 9.998587 
2.6479518e+3, 1.9816642e+2, -1183978.8, -1367958.5, -44801.05, -0.19488364, -0.26623902, -1173649.3, -175695.98, 0.0, 9.9998865, 9.997679 
2.6475567e+3, 2.0815815e+2, -703920.0, -897387.75, -121725.08, -0.13821618, -0.17980608, -645172.56, 254861.3, 0.0, 10.001819, 9.999235 
2.6471615e+3, 2.181506e+2, -336484.56, -797387.94, -116251.19, -0.04514384, -0.12503542, -308823.25, 493282.9, 0.0, 10.004062, 9.998262 
2.6467684e+3, 2.2814202e+2, -291161.2, -597235.2, -26528.969, 0.00892015, -0.09543115, -288878.8, 415310.75, 0.0, 10.00333, 9.999223 
2.6463756e+3, 2.3813301e+2, -473573.53, -733091.5, -1485.5226, 0.031598166, -0.18251304, -473565.03, 132713.27, 0.0, 10.001635, 9.998536 
2.645982e+3, 2.481254e+2, -413531.13, -408645.06, -85811.766, 0.04298587, -0.14283644, -325241.56, 183112.4, 0.0, 10.000507, 10.000537 
2.6455876e+3, 2.5811803e+2, -552558.9, -623267.56, -157187.95, 0.025511237, -0.18420571, -426798.44, -16371.27, 0.0, 9.99954, 9.998956 
2.645192e+3, 2.6810974e+2, -388794.72, -504705.38, -178788.13, -0.07000267, -0.12144653, -258803.2, 53707.734, 0.0, 10.0002365, 9.998643 
2.6447967e+3, 2.781012e+2, -253028.56, -587121.1, -129565.03, -0.112305485, -0.095064275, -208671.06, 5926.875, 0.0, 10.001178, 9.997049 
2.6444036e+3, 2.880914e+2, -205455.55, -522660.7, -49225.008, 0.04266921, 0.012284687, -197992.23, -81297.81, 0.0, 10.001007, 9.996808 
2.64401e+3, 2.9808086e+2, -241557.84, -544385.25, 30784.814, 0.12447421, 0.013614345, -238460.02, -219663.28, 0.0, 10.000183, 9.996478 
2.643615e+3, 3.0806458e+2, -22748.332, -113388.46, 82109.37, -0.03197452, -0.65985787, 25717.828, 25717.828, 0.0, 10.000207, 9.999036 
2.6432246e+3, 3.180633e+2, 40187.965, 59945.4, 53896.44, 0.320092, 0.06647694, 104860.984, 104860.984, 0.0, 9.999731, 10.000509 
2.6607135e+3, 1.2861705e+2, -1498219.5, -1042435.25, 127086.57, 0.07757018, 0.03951898, -1009394.75, 670158.0, 0.073999934, 9.998884, 10.005286 
2.6603207e+3, 1.3861308e+2, -1457811.9, -1408278.5, 21788.23, 0.16203429, -0.16265081, -1400058.6, 181515.05, 0.04671151, 10.000402, 10.001267 
2.659925e+3, 1.486047e+2, -1468086.8, -1569705.3, 8895.531, 0.10056606, -0.17996708, -1467314.0, 16337.806, 0.022592498, 10.000739, 9.999135 
2.6595291e+3, 1.5859488e+2, -1579261.3, -1747789.8, 9296.471, 0.05498939, -0.34390005, -1578750.0, -193001.42, 0.0071954923, 9.99987, 9.997783 
2.6591322e+3, 1.685864e+2, -1212054.1, -1313185.3, 11766.373, -0.1005991, -0.29044965, -1210703.1, 77127.99, 0.001170623, 10.001031, 9.999388 
2.6587355e+3, 1.7857851e+2, -1165810.5, -1457278.9, -65676.45, -0.24058807, -0.27339152, -1151695.3, 38213.21, 0.00005271245, 10.001433, 9.997662 
2.658341e+3, 1.8857121e+2, -995084.25, -1223280.6, -93241.47, -0.12492889, -0.04434819, -961831.25, 130153.62, 0.000000014947995, 10.001655, 9.998365 
2.6579466e+3, 1.9856386e+2, -1235879.8, -1496498.6, -85293.41, 0.047871172, 0.12501019, -1210447.4, -216384.47, 0.0, 10.000067, 9.996714 
2.657551e+3, 2.0855238e+2, -854052.25, -1082553.5, -41401.29, -0.12702142, -0.020820886, -846782.25, 49392.47, 0.0, 10.001452, 9.998041 
2.6571545e+3, 2.1853997e+2, -750200.9, -1113855.8, -77986.04, -0.34237581, -0.3552502, -734182.3, 64111.082, 0.0, 10.001908, 9.997066 
2.6567605e+3, 2.2853105e+2, -400202.75, -535158.3, -77497.44, -0.31248078, -0.38697228, -364923.03, 335452.66, 0.0, 10.002242, 10.00008 
2.656367e+3, 2.3852314e+2, -722290.44, -902528.75, -69517.87, -0.20810694, -0.45627445, -698593.1, -96144.15, 0.0, 10.000297, 9.997976 
2.6559737e+3, 2.4851656e+2, -637919.2, -718929.2, -132683.19, -0.061939094, -0.18090323, -539696.06, -35175.504, 0.0, 9.999945, 9.99863 
2.6555794e+3, 2.5851e+2, -875984.75, -941661.5, -162582.23, 0.042331044, 0.016957643, -742957.7, -336363.63, 0.0, 9.9981785, 9.997391 
2.6551852e+3, 2.685011e+2, -434750.84, -388442.4, -127814.195, -0.0050155665, -0.0052922233, -281702.13, 26978.67, 0.0, 9.999533, 9.99968 
2.654791e+3, 2.7849153e+2, -368854.34, -533990.3, -88775.67, -0.035015147, -0.20778838, -330184.56, -119412.414, 0.0, 10.000097, 9.997883 
2.654398e+3, 2.884824e+2, -134588.81, -232935.13, -72196.65, 0.13276266, -0.21345985, -96410.06, 16450.053, 0.0, 10.000563, 9.998925 
2.654003e+3, 2.9847375e+2, -331388.84, -448340.06, 50359.38, 0.14556955, -0.2398783, -312692.78, -297748.97, 0.0, 9.999131, 9.997604 
2.653607e+3, 3.0846515e+2, -59201.824, -19253.715, 108212.56, -0.07752962, -0.24896438, 70812.78, 70812.78, 0.0, 9.9995985, 9.999902 
2.6532158e+3, 3.184607e+2, -228390.22, -228995.48, 33991.96, 0.16713667, 0.072252326, -194699.55, -194699.55, 0.0, 9.998726, 9.998965 
2.6707056e+3, 1.2901203e+2, -1765599.1, -1718823.6, 113835.555, -0.09729584, -0.14151761, -1625998.1, 49671.69, 0.062782116, 9.999516, 10.000018 
2.6703146e+3, 1.3900599e+2, -1619979.1, -1746619.3, -79795.49, 0.17237891, -0.06489879, -1581432.9, -3702.174, 0.039146993, 10.000363, 9.998936 
2.6699188e+3, 1.4899832e+2, -1189111.8, -1217567.9, -85896.55, 0.0780152, -0.09504653, -1116272.9, 363528.44, 0.018543638, 10.001775, 10.001081 
2.669523e+3, 1.5898986e+2, -1079058.4, -1396199.9, -3917.8457, -0.08098889, -0.28039363, -1079010.0, 302869.47, 0.005710664, 10.002796, 9.998797 
2.6691273e+3, 1.6898118e+2, -880875.6, -1244968.6, 1387.5807, -0.16488017, -0.239731, -880870.3, 403092.3, 0.0008890518, 10.003604, 9.998638 
2.6687315e+3, 1.7897248e+2, -872813.5, -1397387.8, -47973.28, -0.25074807, -0.21515732, -868462.4, 317585.06, 0.000037964888, 10.003693, 9.99699 
2.6683363e+3, 1.889629e+2, -743478.44, -1220380.1, -138766.39, -0.11906089, -0.12401779, -706039.94, 382106.63, 0.0000000057994387, 10.003835, 9.997357 
2.6679417e+3, 1.9895339e+2, -738720.8, -1234078.5, -154414.38, 0.026100954, -0.08165753, -694528.8, 295717.22, 0.0, 10.003271, 9.996987 
2.6675448e+3, 2.0894422e+2, -688069.1, -880633.75, -58644.836, -0.14750986, -0.08410633, -671615.0, 220720.78, 0.0, 10.002022, 9.999193 
2.667148e+3, 2.1893448e+2, -849035.9, -1047686.25, 3860.0723, -0.3933989, -0.22393373, -848960.9, -54531.53, 0.0, 10.000586, 9.998201 
2.666755e+3, 2.289256e+2, -603397.6, -672002.7, -9663.056, -0.2729148, -0.26209483, -602062.56, 94449.98, 0.0, 10.000913, 9.99984 
2.6663622e+3, 2.3891714e+2, -501936.06, -780588.94, -61137.156, -0.08408648, -0.32607567, -489112.56, 109479.11, 0.0, 10.001591, 9.998232 
2.665967e+3, 2.4890938e+2, -412126.2, -625910.7, -83661.75, -0.031668417, -0.17207521, -383278.84, 117393.67, 0.0, 10.001464, 9.998566 
2.6655713e+3, 2.5890186e+2, -419418.6, -649287.2, -5405.9063, -0.026771681, -0.036098834, -419291.53, -16538.52, 0.0, 10.000868, 9.998119 
2.6651773e+3, 2.688932e+2, -286664.6, -268819.8, 52684.04, -0.03867135, -0.075088486, -224307.98, 80528.414, 0.0, 10.000187, 10.000253 
2.664784e+3, 2.7888402e+2, -363634.56, -401338.4, 32750.83, 0.0067081396, -0.26357993, -344697.44, -137774.1, 0.0, 9.999419, 9.99916 
2.6643905e+3, 2.8887615e+2, -124086.59, -125439.08, -33848.758, 0.1359902, -0.2425264, -90907.33, 18093.63, 0.0, 10.000095, 9.999971 
2.6639956e+3, 2.988689e+2, -20500.346, -161337.77, -12217.371, 0.16203025, -0.20835009, -19448.371, -8375.236, 0.0, 10.000519, 9.998971 
2.6636e+3, 3.088634e+2, 218771.52, 169686.19, 23618.297, -0.05889668, 0.007250847, 228290.06, 228290.06, 0.0, 10.001217, 10.000458 
2.6632088e+3, 3.1885394e+2, 68262.18, -180410.16, -157832.53, 0.21633792, -0.16513382, 144850.36, 144850.36, 0.0, 10.000982, 9.998271 
2.680698e+3, 1.2940626e+2, -2071407.9, -2335063.3, 21089.6, -0.07081033, -0.23877454, -2069731.6, -397933.2, 0.05267765, 9.99944, 9.995825 
2.6803088e+3, 1.393982e+2, -1654584.8, -1972552.9, -1474.2625, 0.30148932, -0.003355796, -1654577.9, -80684.56, 0.03242507, 10.001092, 9.996991 
2.6799133e+3, 1.4939143e+2, -1111475.5, -1023626.1, -38831.24, 0.0853097, -0.0057048765, -1008922.8, 467033.28, 0.015032841, 10.001609, 10.002463 
2.6795173e+3, 1.5938435e+2, -1275234.1, -1444253.0, -95324.1, -0.13408358, -0.19832844, -1232352.4, 145665.44, 0.0044764117, 10.001284, 9.999177 
2.6791227e+3, 1.6937572e+2, -1129363.5, -1387871.6, -70766.586, -0.15067263, -0.15371868, -1111259.1, 168838.88, 0.00066900725, 10.002098, 9.998353 
2.6787284e+3, 1.7936659e+2, -1229625.0, -1672550.9, -101903.555, -0.12138507, -0.13836704, -1207304.9, -25119.822, 0.000027210404, 10.001777, 9.996024 
2.6783326e+3, 1.8935388e+2, -1024245.75, -1473125.0, -130179.02, -0.08469373, -0.26247382, -989224.94, 95089.42, 0.000000001728097, 10.0025, 9.996238 
2.6779366e+3, 1.9934146e+2, -1013495.3, -1389840.4, -137740.97, -0.018779518, -0.42130536, -968469.44, 17972.303, 0.0, 10.001598, 9.996704 
2.6775393e+3, 2.0933631e+2, -645149.94, -662483.94, -96130.16, -0.12916012, -0.15042119, -557296.9, 331196.72, 0.0, 10.001528, 10.000891 
2.6771423e+3, 2.193319e+2, -988075.6, -1095290.9, -45793.38, -0.23921458, 0.09418507, -971179.25, -180642.6, 0.0, 9.999637, 9.99833 
2.6767507e+3, 2.2932309e+2, -725661.8, -839481.4, -138.36165, -0.003787402, 0.10161733, -725661.7, -33038.29, 0.0, 10.000576, 9.998824 
2.6763597e+3, 2.3931347e+2, -801108.94, -1022799.6, -59342.633, 0.26662755, -0.005258987, -786223.5, -191505.94, 0.0, 10.00008, 9.997277 
2.6759616e+3, 2.4930339e+2, -464563.9, -524633.0, -97944.51, 0.054765474, -0.13927417, -392152.38, 104660.23, 0.0, 10.000729, 9.999505 
2.6755625e+3, 2.5929374e+2, -632715.44, -746464.94, -24771.441, -0.22606169, -0.32505655, -627555.0, -228650.92, 0.0, 9.999524, 9.998058 
2.675168e+3, 2.6928636e+2, -381016.0, -322253.47, 10889.884, -0.2163394, -0.24258257, -320300.28, -19324.156, 0.0, 9.99965, 10.000101 
2.6747745e+3, 2.7927932e+2, -607236.6, -620732.3, 15622.565, -0.11893859, -0.20930023, -596966.9, -393920.38, 0.0, 9.998271, 9.998204 
2.6743814e+3, 2.892729e+2, -248413.33, -248954.56, -24331.521, -0.04612751, 0.0180557, -224350.92, -119235.35, 0.0, 9.999583, 9.999332 
2.6739872e+3, 2.9926637e+2, -203639.92, -326922.16, -3214.6274, -0.042875506, 0.16395952, -203556.16, -196370.0, 0.0, 9.999701, 9.998215 
2.6735958e+3, 3.0925584e+2, 182750.98, 132111.14, 15157.126, 0.13745573, -0.10763225, 186941.0, 186941.0, 0.0, 10.00115, 10.000188 
2.6732025e+3, 3.1924778e+2, -67993.5, -262663.28, -159702.4, 0.12051184, -0.124894276, 21698.182, 21698.182, 0.0, 10.000324, 9.997975 
2.6906905e+3, 1.297971e+2, -1695014.1, -1530708.1, -55223.836, -0.17203061, -0.1309165, -1513872.3, 154105.0, 0.043619167, 9.999356, 10.001369 
2.6903042e+3, 1.3978995e+2, -1520443.4, -1758005.0, 108550.29, 0.34754604, -0.2715433, -1478314.1, 91727.695, 0.02648621, 10.001365, 9.998327 
2.689908e+3, 1.4978325e+2, -1440580.8, -1622608.9, -72322.01, 0.17013945, -0.011102188, -1415345.0, 56770.42, 0.012009438, 10.001189, 9.998534 
2.689512e+3, 1.5977609e+2, -1494448.9, -1673493.1, -229079.4, -0.046383448, 0.11809981, -1338020.6, 36171.297, 0.003455713, 10.000213, 9.99814 
2.6891175e+3, 1.6976672e+2, -1222841.1, -1246677.9, -167326.69, -0.058509212, -0.034281112, -1067008.9, 209266.11, 0.00049606664, 10.000538, 10.000121 
2.6887226e+3, 1.7975725e+2, -1257743.1, -1463280.9, -124144.92, -0.110303864, -0.22853276, -1199349.4, -20990.723, 0.00001910138, 10.000501, 9.998107 
2.6883256e+3, 1.8974741e+2, -1064754.0, -1254062.5, -68031.87, -0.18310812, -0.28260112, -1042841.75, 37614.805, 0.0000000002885943, 10.001071, 9.998477 
2.6879284e+3, 1.997378e+2, -998809.8, -1298535.0, 30968.424, -0.24454848, -0.31907955, -995643.5, -13089.298, 0.0, 10.001215, 9.997534 
2.6875332e+3, 2.0973071e+2, -668650.2, -860311.56, -24610.4, -0.17581068, -0.13243112, -665540.56, 219087.0, 0.0, 10.002082, 9.999299 
2.6871383e+3, 2.1972427e+2, -550725.75, -907753.06, -98339.836, -0.10975601, 0.050424162, -525431.06, 261262.58, 0.0, 10.00262, 9.998197 
2.6867452e+3, 2.2971559e+2, -516241.6, -698074.9, -52161.707, 0.048167113, 0.041858513, -502340.88, 186437.78, 0.0, 10.001707, 9.999327 
2.686352e+3, 2.3970665e+2, -638872.0, -809338.1, -35660.07, 0.19964406, -0.030240484, -631712.9, -40847.75, 0.0, 10.000466, 9.998602 
2.685955e+3, 2.4969754e+2, -367981.56, -429162.2, -55091.695, 0.045556374, -0.14237162, -335557.1, 157391.6, 0.0, 10.001034, 10.000108 
2.6855567e+3, 2.596882e+2, -271609.94, -523104.47, -40171.62, -0.172337, -0.3142524, -265349.13, 129685.57, 0.0, 10.001609, 9.998642 
2.6851612e+3, 2.6968014e+2, -289912.4, -354681.7, -82399.47, -0.16182162, -0.27196583, -233762.1, 63352.457, 0.0, 10.000497, 9.999534 
2.6847667e+3, 2.7967286e+2, -493126.44, -578494.1, -71584.664, -0.07629367, -0.18967828, -452465.94, -253276.84, 0.0, 9.998985, 9.998165 
2.684373e+3, 2.8966695e+2, -246578.77, -293228.56, -43005.69, -0.07981711, 0.101046935, -220979.84, -119724.766, 0.0, 9.999665, 9.999009 
2.6839796e+3, 2.9966056e+2, -102819.26, -260811.02, -22650.967, -0.07812462, 0.29845947, -99635.97, -96310.3, 0.0, 10.000202, 9.998423 
2.683591e+3, 3.0964655e+2, 40816.344, 63195.516, -8123.0415, 0.30046716, -0.3341973, 65833.1, 65833.1, 0.0, 10.000074, 10.00026 
2.683194e+3, 3.1964338e+2, -11597.621, -162302.5, -156178.52, -0.05719599, 0.13790946, 86456.164, 86456.164, 0.0, 10.000247, 9.99871 
2.7006844e+3, 1.3018934e+2, -1014568.4, -701760.6, 194732.78, -0.084983096, -0.052086655, -608398.56, 1055740.0, 0.03555016, 10.001968, 10.0060005 
2.7002993e+3, 1.4018263e+2, -1432213.4, -1708111.1, 63036.766, 0.46607485, -0.48662183, -1418493.1, 147687.55, 0.021269776, 10.001928, 9.99843 
2.6999035e+3, 1.5017527e+2, -1554773.4, -2111575.3, -47604.54, 0.32246837, -0.012489757, -1550732.6, -82460.87, 0.009415533, 10.002288, 9.99466 
2.6995072e+3, 1.6016737e+2, -1412231.1, -1761840.8, -100399.33, 0.1746229, 0.38213465, -1385450.3, -15081.174, 0.0026134893, 10.001386, 9.996961 
2.6991117e+3, 1.7015722e+2, -1044816.5, -938302.25, -76995.055, 0.06507981, 0.03467037, -897940.1, 374515.78, 0.0003600524, 10.000874, 10.002019 
2.698716e+3, 1.8014751e+2, -1295862.0, -1256979.9, -88650.3, -0.060843907, -0.37187266, -1185664.0, -11128.117, 0.000012952271, 9.999377, 10.000031 
2.6983178e+3, 1.9014235e+2, -905738.75, -843358.2, -79732.72, -0.26697704, -0.23504439, -788932.25, 287652.4, 0.000000000007316074, 10.000855, 10.001338 
2.6979205e+3, 2.0013691e+2, -1096189.3, -1394108.3, -23518.69, -0.4105474, -0.071618855, -1094344.0, -115704.664, 0.0, 10.0008335, 9.997069 
2.697527e+3, 2.101256e+2, -909700.0, -1300084.1, -36042.26, -0.1966247, -0.10018848, -906400.25, -25643.367, 0.0, 10.001881, 9.996353 
2.6971343e+3, 2.2011422e+2, -869666.4, -1211008.1, -97057.9, 0.033306167, -0.1681803, -843998.8, -61124.605, 0.0, 10.001218, 9.996758 
2.6967382e+3, 2.30106e+2, -559426.0, -564989.1, -97456.22, -0.019752175, -0.20672624, -464711.66, 220239.77, 0.0, 10.000943, 10.000495 
2.6963422e+3, 2.4009867e+2, -851686.1, -898589.3, -50219.78, -0.078663945, -0.22814527, -819712.06, -232693.08, 0.0, 9.999083, 9.998624 
2.695948e+3, 2.5009224e+2, -429507.47, -432549.47, -41004.92, 0.00619208, -0.10508515, -389995.34, 99083.19, 0.0, 10.000595, 10.000244 
2.6955533e+3, 2.600852e+2, -574228.06, -785025.75, -69515.195, 0.08562295, -0.049518008, -553368.1, -162223.56, 0.0, 10.000196, 9.997484 
2.6951563e+3, 2.700746e+2, -478933.7, -564760.1, -145953.89, 0.0767445, -0.16009395, -369715.1, -76465.016, 0.0, 9.99985, 9.998326 
2.6947597e+3, 2.8006452e+2, -739033.9, -791538.8, -69182.58, 0.04922332, -0.27100194, -691290.25, -495938.1, 0.0, 9.997871, 9.997207 
2.6943666e+3, 2.9005817e+2, -316414.1, -297328.75, -6237.0522, 0.03376205, -0.017828874, -295471.28, -198052.36, 0.0, 9.999232, 9.999126 
2.6939732e+3, 3.000511e+2, -286387.88, -383516.8, -5428.6733, -0.0343612, 0.11112422, -286085.38, -286085.38, 0.0, 9.999234, 9.998029 
2.6935807e+3, 3.1003582e+2, -57252.633, 34153.348, -26972.414, 0.040447306, -0.66450316, 41518.938, 41518.938, 0.0, 9.999438, 10.000332 
2.6931882e+3, 3.200366e+2, -89266.41, -112699.82, 86425.83, 0.02307263, 0.16802391, -13766.686, -13766.686, 0.0, 9.999539, 9.999371 
2.7106845e+3, 1.30586e+2, -1122911.6, -1242843.6, 212955.3, 0.20095794, -0.10654716, -961640.44, 698600.3, 0.02841507, 10.003359, 10.001474 
2.7102923e+3, 1.4057794e+2, -1397862.0, -1818164.3, 43668.492, 0.17137478, -0.29500008, -1393372.9, 168935.02, 0.016713178, 10.002695, 9.99731 
2.7098975e+3, 1.5056849e+2, -1198113.9, -1704292.6, 74872.99, 0.11060801, -0.16938595, -1187271.0, 277140.13, 0.0071980846, 10.003706, 9.996788 
2.7095023e+3, 1.6055897e+2, -1017308.4, -1482531.4, 101050.15, 0.04453178, -0.08243694, -996307.44, 370207.75, 0.0019202423, 10.003677, 9.997784 
2.709105e+3, 1.7055033e+2, -994792.44, -1017110.25, 33493.813, -0.006807677, -0.2030189, -970647.56, 297944.84, 0.00025324232, 10.001663, 10.001114 
2.708708e+3, 1.8054219e+2, -1346117.8, -1369763.4, 7810.5347, -0.11378777, -0.32598314, -1343770.8, -173106.61, 0.000008369746, 9.999356, 9.9992695 
2.7083117e+3, 1.9053616e+2, -970036.2, -1018677.7, -57888.664, -0.22692534, -0.15289485, -931566.8, 141160.14, 0.0, 10.00103, 10.000057 
2.707916e+3, 2.0052998e+2, -813031.25, -1223405.5, -144395.33, -0.34765574, 0.029685656, -767316.44, 207475.75, 0.0, 10.002541, 9.99744 
2.7075213e+3, 2.1051891e+2, -689305.06, -1107239.8, -77948.28, -0.2917512, -0.05558317, -675240.4, 201664.55, 0.0, 10.002872, 9.997283 
2.7071267e+3, 2.2050783e+2, -598966.75, -954499.8, -42912.52, -0.21059395, -0.1672819, -593860.56, 185156.02, 0.0, 10.002398, 9.997987 
2.706731e+3, 2.3049998e+2, -510590.53, -548871.0, -95911.195, -0.105851695, -0.18208982, -431928.4, 249161.8, 0.0, 10.001213, 10.000542 
2.706335e+3, 2.404926e+2, -640396.44, -761291.5, -62523.004, -0.04393465, -0.18604302, -613878.3, -30720.195, 0.0, 10.000241, 9.999028 
2.7059412e+3, 2.5048518e+2, -380090.38, -445958.03, -53385.566, 0.0046250545, -0.14366813, -350297.38, 134929.63, 0.0, 10.00102, 9.999984 
2.705547e+3, 2.6047763e+2, -331394.8, -640689.4, -139874.27, 0.070115745, -0.09752176, -277522.1, 109776.03, 0.0, 10.001658, 9.997763 
2.7051494e+3, 2.7046743e+2, -179460.31, -476221.38, -209813.77, 0.06308442, -0.15468565, -70861.086, 218540.88, 0.0, 10.002043, 9.997909 
2.7047527e+3, 2.804571e+2, -114308.32, -453199.38, -90750.42, 0.08524225, -0.24512564, -91536.72, 99970.69, 0.0, 10.001865, 9.99762 
2.7043605e+3, 2.9044977e+2, -46870.31, -153271.22, -12092.504, 0.18951885, -0.10782483, -45513.3, 48068.016, 0.0, 10.0009575, 9.999332 
2.703967e+3, 3.004421e+2, -144503.45, -254540.95, -18926.32, 0.13327767, -0.043966226, -141339.16, -141339.16, 0.0, 9.999817, 9.998672 
2.7035692e+3, 3.1042916e+2, 25306.002, 80063.71, -48850.117, -0.27606723, -0.6017274, 108684.28, 108684.28, 0.0, 9.999876, 10.000502 
2.7031842e+3, 3.2043076e+2, -125418.57, -69579.1, 180830.36, 0.41126817, 0.32223806, 85474.19, 85474.19, 0.0, 9.998893, 10.000018 
2.7206832e+3, 1.309816e+2, -1665425.9, -1955424.9, 54222.883, 0.48541006, -0.18575294, -1655619.1, 736.05634, 0.022191238, 10.001528, 9.997372 
2.7202865e+3, 1.4097285e+2, -1458133.9, -1921244.6, 1174.0907, 0.06170737, -0.12988164, -1458131.0, 100309.84, 0.01278431, 10.002577, 9.996676 
2.719892e+3, 1.5096208e+2, -1074050.5, -1333507.1, 41509.797, -0.032866113, -0.35284677, -1067571.3, 392974.6, 0.00532732, 10.003268, 9.999539 
2.7194977e+3, 1.6095164e+2, -1149679.8, -1519660.4, -40641.625, -0.007879638, -0.5677623, -1145268.0, 217379.88, 0.0013580795, 10.002744, 9.997972 
2.719099e+3, 1.7094482e+2, -1005592.8, -1195147.6, -144763.28, -0.02205009, -0.4166747, -927340.9, 337372.97, 0.00016970174, 10.002412, 9.999507 
2.7187008e+3, 1.8093815e+2, -1344707.3, -1648878.8, -54544.484, -0.05352802, -0.2123283, -1335222.0, -168441.86, 0.0000049540654, 10.00064, 9.99674 
2.7183068e+3, 1.9092946e+2, -1098868.6, -1359250.0, -7893.65, -0.10141639, -0.08321804, -1098629.6, -29753.787, 0.0, 10.001361, 9.997529 
2.7179125e+3, 2.0092082e+2, -1090026.3, -1377781.4, -88572.56, -0.1462886, 0.03530047, -1064948.6, -93979.19, 0.0, 10.000858, 9.9971485 
2.7175152e+3, 2.109123e+2, -750246.1, -836879.94, -62747.14, -0.3881378, 0.001127087, -717316.3, 155736.02, 0.0, 10.001355, 9.999775 
2.7171183e+3, 2.2090387e+2, -930452.0, -1098130.9, -65973.61, -0.5104394, -0.034915633, -907607.0, -132473.27, 0.0, 10.000186, 9.998052 
2.716724e+3, 2.3089592e+2, -647298.56, -698090.6, -135916.27, -0.1140491, -0.018208917, -534426.06, 142784.3, 0.0, 10.000729, 9.999708 
2.7163297e+3, 2.4088767e+2, -897083.4, -1021256.9, -51954.01, 0.19716395, -0.02076897, -878213.44, -298924.72, 0.0, 9.999247, 9.997675 
2.7159342e+3, 2.508768e+2, -512411.56, -572873.25, -10240.828, -0.019187342, -0.26639536, -510724.1, -29335.166, 0.0, 10.000508, 9.99929 
2.715538e+3, 2.6086667e+2, -600605.25, -874944.5, -119397.82, -0.2167598, -0.4157774, -555919.56, -172435.13, 0.0, 10.000363, 9.996792 
2.7151415e+3, 2.7085924e+2, -257701.39, -488057.22, -198324.6, -0.18764828, -0.20036088, -143535.47, 142028.61, 0.0, 10.001522, 9.998045 
2.7147457e+3, 2.808514e+2, -313650.34, -601449.0, -111000.734, -0.06807885, -0.044726018, -275813.1, -88165.24, 0.0, 10.000826, 9.997103 
2.7143547e+3, 2.9084176e+2, -118349.43, -200606.58, -70777.87, 0.2720441, -0.14095742, -77617.97, 12125.4, 0.0, 10.00057, 9.999162 
2.7139607e+3, 3.0083358e+2, -320765.94, -373946.4, -54197.75, 0.23147134, -0.12584388, -286987.0, -286987.0, 0.0, 9.998866, 9.998284 
2.7135578e+3, 3.1082916e+2, -31689.578, 85707.18, -62419.965, -0.6787405, 0.13607758, 112692.82, 112692.82, 0.0, 9.999446, 10.000671 
2.7131745e+3, 3.2081982e+2, -434618.06, -419045.9, 130239.44, 0.23117937, -0.014370748, -296360.03, -296360.03, 0.0, 9.997816, 9.998061 
2.7306727e+3, 1.3137081e+2, -1693074.8, -1683827.6, -51618.598, 0.007847999, -0.23626636, -1636625.9, 15917.369, 0.016854309, 10.000155, 9.999863 
2.730286e+3, 1.4136319e+2, -1338476.6, -1697293.1, -6776.2856, 0.41426018, -0.2966465, -1338348.6, 216266.6, 0.009467287, 10.00267, 9.998169 
2.7298886e+3, 1.5135577e+2, -1102034.1, -1265323.0, -27941.277, 0.07302004, -0.27240446, -1097385.3, 359303.63, 0.0037924994, 10.002729, 10.000257 
2.7294916e+3, 1.6134775e+2, -1208047.0, -1560778.6, -137847.14, -0.17240499, -0.2918344, -1160567.5, 198201.55, 0.0009170214, 10.002366, 9.997859 
2.729095e+3, 1.7133929e+2, -817210.9, -1213143.8, -214463.73, -0.028933235, -0.22654632, -723311.94, 537543.1, 0.0001065257, 10.004131, 9.998568 
2.728698e+3, 1.813311e+2, -700586.4, -1278634.1, -157863.38, 0.022977123, -0.1256587, -660284.2, 502654.3, 0.0000025959862, 10.004721, 9.997331 
2.728301e+3, 1.9132148e+2, -865003.8, -1166039.8, -44964.953, -0.12764686, -0.15750253, -858431.06, 206604.92, 0.0, 10.002491, 9.998398 
2.727905e+3, 2.0131247e+2, -1095779.0, -1162482.4, -15349.731, -0.261223, -0.1668568, -1092416.3, -125289.945, 0.0, 9.999775, 9.999166 
2.7275088e+3, 2.1130581e+2, -964153.6, -762223.8, 21026.98, -0.28293452, -0.1680702, -760057.5, 109129.766, 0.0, 9.999045, 10.001443 
2.7271125e+3, 2.2129898e+2, -1043058.56, -1111242.4, 32007.012, -0.2954874, -0.13572267, -1030388.25, -259136.9, 0.0, 9.999121, 9.998482 
2.726718e+3, 2.312903e+2, -590727.44, -800787.5, -35376.48, -0.09484141, -0.09427022, -584929.7, 88409.98, 0.0, 10.001601, 9.9986 
2.7263233e+3, 2.4128142e+2, -290443.44, -720186.44, -10349.699, 0.07912138, -0.06489474, -290194.34, 285233.9, 0.0, 10.003262, 9.997815 
2.7259272e+3, 2.512706e+2, -279961.1, -489427.53, 39564.176, -0.09667368, -0.2771245, -272737.3, 204792.06, 0.0, 10.002108, 9.999161 
2.7255312e+3, 2.612604e+2, -470642.0, -743943.8, -30616.215, -0.24842979, -0.40949422, -467254.25, -87628.03, 0.0, 10.000817, 9.997493 
2.725135e+3, 2.7125335e+2, -324115.1, -507062.22, -81560.836, -0.17534535, -0.15821373, -293034.25, -11332.199, 0.0, 10.0009, 9.998273 
2.7247396e+3, 2.8124592e+2, -284310.4, -527803.56, -13584.065, -0.021262692, 0.041465063, -283554.9, -99772.96, 0.0, 10.000633, 9.997727 
2.7243465e+3, 2.9123524e+2, -221319.05, -263029.2, -10396.304, 0.17622288, -0.15093277, -218871.39, -132983.64, 0.0, 9.999794, 9.999149 
2.723951e+3, 3.0122676e+2, -280675.75, -305364.75, 34093.34, 0.11219973, -0.15061791, -256760.88, -256760.88, 0.0, 9.9988, 9.9988 
2.72355e+3, 3.112257e+2, -41037.33, 49399.758, 12379.727, -0.6336905, 0.45831996, 51063.773, 51063.773, 0.0, 9.999331, 10.00058 
2.7231658e+3, 3.2120883e+2, -290390.63, -417307.75, 77324.734, 0.2482307, -0.3718798, -253818.67, -253818.67, 0.0, 9.998823, 9.99769 
2.740665e+3, 1.3176033e+2, -1314990.8, -1257000.1, 201020.45, -0.14113979, -0.28132087, -1082894.6, 565832.94, 0.012358647, 10.001747, 10.002023 
2.7402854e+3, 1.4175344e+2, -1300009.3, -1578937.9, -39370.406, 0.82043034, -0.4288911, -1294558.6, 256232.06, 0.0067449408, 10.002548, 9.998995 
2.7398852e+3, 1.5174949e+2, -1128671.9, -1237767.4, -105829.61, 0.19112162, -0.13112976, -1064159.3, 388674.5, 0.0025850076, 10.002352, 10.000602 
2.7394855e+3, 1.6174407e+2, -1376955.9, -1686069.6, -149123.55, -0.22204366, 0.0922255, -1316743.9, 38148.6, 0.0005889778, 10.001414, 9.997446 
2.7390918e+3, 1.7173366e+2, -1045157.5, -1398776.6, -136083.14, 0.042870153, -0.002587578, -998852.2, 258148.98, 0.00006228534, 10.002876, 9.997905 
2.7386963e+3, 1.8172342e+2, -948463.94, -1333214.6, -137163.19, 0.19436002, -0.06507203, -904572.44, 254532.45, 0.0000011486238, 10.002829, 9.997845 
2.7382955e+3, 1.9171382e+2, -837998.0, -936304.44, -109416.3, -0.15381187, -0.2750832, -767201.4, 293990.28, 0.0, 10.001874, 10.000189 
2.737896e+3, 2.017054e+2, -1066990.4, -1031236.0, -55896.75, -0.34940007, -0.3897161, -990427.25, -27160.623, 0.0, 9.999592, 10.000123 
2.7375025e+3, 2.116998e+2, -830980.2, -597036.8, -45391.863, -0.028780496, -0.40597928, -588538.25, 276775.6, 0.0, 9.999541, 10.002318 
2.7371088e+3, 2.216935e+2, -1227887.9, -1333656.8, 25983.66, 0.1724617, -0.34261546, -1221849.4, -454477.8, 0.0, 9.998526, 9.997223 
2.7367118e+3, 2.3168375e+2, -791565.3, -1039277.94, 14073.308, -0.082132295, -0.3076785, -790768.3, -121292.96, 0.0, 10.000944, 9.997226 
2.7363154e+3, 2.4167445e+2, -621047.25, -989662.44, -25882.658, -0.25473422, -0.20291482, -619238.75, -47665.92, 0.0, 10.001563, 9.996773 
2.7359205e+3, 2.516662e+2, -380127.03, -513838.38, -28473.744, -0.18741143, -0.1869119, -374316.1, 99335.43, 0.0, 10.001403, 9.999282 
2.7355257e+3, 2.616581e+2, -696820.7, -897771.9, -57949.07, -0.12070777, -0.11250519, -681307.3, -305577.66, 0.0, 9.999598, 9.996988 
2.7351302e+3, 2.7164948e+2, -391657.3, -517339.47, -77452.164, 0.02801805, -0.06082117, -354759.53, -76940.766, 0.0, 10.000401, 9.998398 
2.7347338e+3, 2.816406e+2, -494406.5, -683916.3, -32723.912, 0.07741827, -0.0027129685, -488914.97, -309004.72, 0.0, 9.999584, 9.997121 
2.734335e+3, 2.916307e+2, -298840.1, -292262.78, -35910.21, -0.21287887, -0.1379629, -259490.97, -177482.66, 0.0, 9.999364, 9.999099 
2.7339375e+3, 3.016217e+2, -481067.56, -499180.44, 39881.086, -0.4166468, -0.15438828, -449227.53, -449227.53, 0.0, 9.997982, 9.997841 
2.7335483e+3, 3.1161514e+2, -163404.9, -71856.09, 41999.375, 0.017442051, -0.06335254, -55507.69, -55507.69, 0.0, 9.998901, 9.999869 
2.7331558e+3, 3.2160544e+2, -287031.13, -227176.23, 88104.586, 0.0006695015, -0.18769541, -164054.92, -164054.92, 0.0, 9.998221, 9.999216 
2.7506632e+3, 1.3215259e+2, -1357334.0, -1622623.3, 234060.14, -0.012976038, -0.37308657, -1220945.6, 423931.0, 0.008685478, 10.002867, 9.99901 
2.7502757e+3, 1.4214566e+2, -1299210.8, -1624522.6, -69865.086, 0.19547184, -0.30692336, -1284841.1, 262108.13, 0.0045926278, 10.002706, 9.998614 
2.749878e+3, 1.5214086e+2, -1152023.8, -1213058.9, -138592.22, 0.0007816172, -0.12390152, -1040628.94, 408373.97, 0.0016782226, 10.001988, 10.000983 
2.749481e+3, 1.6213536e+2, -1324767.1, -1465315.5, -145624.97, -0.11873503, 0.02542992, -1233346.9, 117715.836, 0.0003582281, 10.000912, 9.999197 
2.749086e+3, 1.7212757e+2, -1145292.5, -1217290.9, -37554.2, 0.038721915, -0.00051509374, -1129270.0, 123873.59, 0.000033741435, 10.001188, 9.999967 
2.74869e+3, 1.821195e+2, -1094078.5, -1256080.3, -9471.195, 0.070099354, -0.0033218816, -1093526.6, 61697.605, 0.00000040337267, 10.001148, 9.999172 
2.7482894e+3, 1.9211087e+2, -792442.1, -877578.6, -21503.844, -0.17961985, -0.15054181, -787319.0, 269982.78, 0.0, 10.001968, 10.000563 
2.747891e+3, 2.021026e+2, -716558.4, -1001506.5, -50749.195, -0.306135, -0.21363878, -707789.8, 251586.63, 0.0, 10.002479, 9.998957 
2.747497e+3, 2.1209472e+2, -515380.47, -715487.94, -162765.48, 0.031607706, -0.23261197, -424375.72, 437075.1, 0.0, 10.002739, 10.00003 
2.747103e+3, 2.2208664e+2, -613900.75, -989047.0, -176407.06, 0.2161677, -0.22350311, -543979.94, 219548.5, 0.0, 10.00239, 9.997765 
2.7467054e+3, 2.3207662e+2, -638700.6, -880593.6, -85575.125, -0.10338145, -0.29935884, -611487.94, 54141.926, 0.0, 10.001447, 9.998171 
2.7463084e+3, 2.4206746e+2, -633006.4, -838570.2, -53100.91, -0.32697842, -0.27752063, -620099.8, -52377.89, 0.0, 10.000673, 9.998262 
2.7459148e+3, 2.5206062e+2, -389691.38, -468429.28, -58137.09, -0.12939152, -0.17141736, -358847.53, 110939.68, 0.0, 10.001048, 9.999817 
2.7455202e+3, 2.6205334e+2, -360174.53, -609757.9, -63842.27, 0.027960699, -0.058842584, -344792.03, 27065.418, 0.0, 10.0012455, 9.998194 
2.7451232e+3, 2.7204373e+2, -226298.44, -381062.97, -69754.8, 0.025330797, -0.15464735, -199499.39, 74454.414, 0.0, 10.001183, 9.999003 
2.7447256e+3, 2.8203472e+2, -267700.2, -466587.66, -34333.477, -0.01862464, -0.16398247, -261940.1, -85895.58, 0.0, 10.000565, 9.998159 
2.744326e+3, 2.9202718e+2, -255452.66, -231663.72, -34883.65, -0.29167405, -0.08358303, -206702.42, -128582.56, 0.0, 9.999451, 9.999516 
2.7439287e+3, 3.0201834e+2, -399911.84, -470441.3, 113066.02, -0.396945, -0.08146194, -316738.72, -316738.72, 0.0, 9.998493, 9.997818 
2.7435443e+3, 3.1200597e+2, -107540.01, -146534.55, 97106.016, 0.43050432, -0.47339082, -27993.236, -27993.236, 0.0, 9.999619, 9.999068 
2.7431443e+3, 3.220038e+2, -62220.715, 106358.28, 36654.61, -0.26802063, 0.1614436, 113983.31, 113983.31, 0.0, 9.998645, 10.001319 
2.7606612e+3, 1.3254645e+2, -1236024.4, -1817536.3, 337333.06, 0.14995247, -0.43184882, -1081434.8, 559576.44, 0.005822928, 10.004879, 9.9966345 
2.7602658e+3, 1.4254005e+2, -1445591.5, -1770985.8, 41561.41, -0.27572766, -0.12243056, -1440366.9, 102719.086, 0.0029696852, 10.002098, 9.997882 
2.7598712e+3, 1.5253292e+2, -1213074.0, -1212998.0, -38399.66, -0.10155448, -0.16998659, -1174636.4, 270527.94, 0.0010279784, 10.001552, 10.001145 
2.759476e+3, 1.6252667e+2, -1316306.0, -1306290.9, -50340.95, 0.081105925, -0.13777669, -1260709.0, 86522.44, 0.0002033788, 10.000328, 10.000578 
2.7590793e+3, 1.725222e+2, -1051942.1, -924192.56, -7205.3486, 0.037881162, -0.04925307, -923787.5, 325488.94, 0.000016580547, 10.00077, 10.002177 
2.7586824e+3, 1.8251698e+2, -1182294.5, -1269034.4, -4907.284, -0.018341657, 0.08109246, -1182017.8, -30690.46, 0.00000009587778, 10.00051, 9.999378 
2.7582845e+3, 1.9250928e+2, -831845.9, -916901.8, -36864.97, -0.112455845, 0.027023036, -818091.94, 235307.1, 0.0, 10.001849, 10.00034 
2.7578872e+3, 2.0250078e+2, -1024599.2, -1482233.6, -41645.28, -0.13214332, 0.07260982, -1020840.3, -65359.094, 0.0, 10.001892, 9.995931 
2.757492e+3, 2.1248981e+2, -820925.75, -1233123.4, -122202.195, 0.047859598, 0.05607137, -787420.56, 70173.98, 0.0, 10.00235, 9.9966135 
2.7570966e+3, 2.2247942e+2, -806814.3, -1046781.25, -125262.67, 0.14715815, 0.046099134, -753342.44, 6356.39, 0.0, 10.001112, 9.997929 
2.756699e+3, 2.3246963e+2, -599713.6, -620807.4, -77163.01, -0.09765292, -0.20528772, -532380.06, 129408.586, 0.0, 10.000827, 10.00019 
2.7563024e+3, 2.42461e+2, -813549.2, -872340.3, -37515.477, -0.2284604, -0.26916188, -795284.4, -231416.28, 0.0, 9.999383, 9.998601 
2.7559096e+3, 2.5245413e+2, -470437.72, -452967.38, -31949.467, 0.022320172, -0.24585323, -428580.5, 37351.984, 0.0, 10.000337, 10.000214 
2.7555147e+3, 2.6244637e+2, -562971.7, -699896.06, -59294.734, 0.107082866, -0.21632542, -540863.8, -172857.38, 0.0, 9.999951, 9.998185 
2.755114e+3, 2.724363e+2, -296136.1, -329827.16, -84665.48, -0.22601438, -0.4352304, -226656.58, 43448.93, 0.0, 10.000508, 9.999632 
2.7547154e+3, 2.824283e+2, -435244.84, -518785.34, -92503.72, -0.34156144, -0.38756603, -375517.84, -203332.86, 0.0, 9.999415, 9.99834 
2.7543202e+3, 2.9242498e+2, -305541.06, -190266.16, -87653.93, -0.004313176, 0.03702997, -142997.52, -68777.53, 0.0, 9.998873, 10.000061 
2.7539253e+3, 3.024176e+2, -616188.8, -695020.7, 122974.67, 0.15297312, 0.19222893, -526467.7, -526467.7, 0.0, 9.997641, 9.996671 
2.7535352e+3, 3.123997e+2, -263013.28, -353947.8, 136397.98, 0.27894986, -0.65673935, -164704.05, -164704.05, 0.0, 9.9992075, 9.997818 
2.7531347e+3, 3.223992e+2, -77950.2, 348521.63, -7555.3984, -0.44117275, 0.122775584, 348655.44, 348655.44, 0.0, 9.997696, 10.003367 
2.77066e+3, 1.3294359e+2, -972369.3, -1466488.1, 142611.11, 0.043863975, -0.55970275, -934163.44, 702957.8, 0.0036893368, 10.005766, 9.998582 
2.7702636e+3, 1.4293991e+2, -1545409.5, -1830282.4, 143417.94, -0.029206045, -0.079665914, -1485715.1, 53447.973, 0.001804221, 10.001492, 9.997742 
2.769864e+3, 1.5293054e+2, -1352678.8, -1398050.5, 103058.04, -0.18505293, -0.24103394, -1269839.3, 171426.81, 0.00058557204, 10.001104, 10.000081 
2.769467e+3, 1.6292268e+2, -1312436.0, -1365217.5, 58161.047, -0.2149805, -0.26527765, -1274958.3, 68391.92, 0.00010501939, 10.000554, 10.000073 
2.7690712e+3, 1.7291792e+2, -1090412.9, -1013341.4, 42920.293, -0.10610112, -0.13125642, -994195.6, 251199.94, 0.0000068884756, 10.000725, 10.001637 
2.7686757e+3, 1.8291226e+2, -1139686.6, -1281193.4, 2738.723, -0.05587447, 0.01370562, -1139633.6, 7816.1807, 0.00000000965895, 10.000885, 9.999127 
2.76828e+3, 1.9290349e+2, -785925.06, -964795.4, -2582.326, -0.052001502, -0.08538642, -785887.75, 263647.06, 0.0, 10.002388, 9.999802 
2.767883e+3, 2.028946e+2, -764269.0, -1226796.0, -33076.996, -0.091433294, -0.07871261, -761915.5, 189707.33, 0.0, 10.003053, 9.997133 
2.7674857e+3, 2.1288481e+2, -661583.8, -1055346.8, 56110.88, -0.11755651, -0.05358754, -653744.2, 199979.81, 0.0, 10.00294, 9.997596 
2.767089e+3, 2.2287567e+2, -536377.75, -812337.6, 124462.71, -0.08849378, 0.00894074, -488536.72, 267279.88, 0.0, 10.002408, 9.998945 
2.7666938e+3, 2.3286769e+2, -495152.97, -548362.6, 109350.164, 0.014390137, -0.045389105, -409217.7, 248674.53, 0.0, 10.001353, 10.000498 
2.766298e+3, 2.4285962e+2, -597377.1, -684510.75, 114494.94, 0.043335654, -0.07058158, -518440.22, 41527.617, 0.0, 10.000367, 9.999446 
2.7659026e+3, 2.5285116e+2, -517032.25, -475799.1, 109309.11, 0.039700724, -0.18091702, -385179.3, 76868.16, 0.0, 9.999897, 10.000325 
2.765506e+3, 2.628428e+2, -566629.75, -556436.9, 49384.344, -0.014952753, -0.23754327, -511886.7, -147760.47, 0.0, 9.999209, 9.99953 
2.7651054e+3, 2.7283394e+2, -501133.34, -343206.88, 46755.59, -0.2898763, -0.38915431, -330402.56, -64191.96, 0.0, 9.998624, 10.000509 
2.7647072e+3, 2.8282657e+2, -479085.5, -459772.88, 73679.305, -0.33220616, -0.33260736, -395119.8, -226837.69, 0.0, 9.9986315, 9.99914 
2.7643138e+3, 2.9282275e+2, -61121.84, -94220.01, 12553.745, 0.15005511, 0.050043683, -56899.098, 13422.018, 0.0, 10.000407, 10.000072 
2.7639192e+3, 3.0281493e+2, -145503.34, -445604.4, 230670.66, 0.36278278, 0.17373389, -20373.732, -20373.732, 0.0, 10.000641, 9.996941 
2.7635252e+3, 3.1279668e+2, -256482.28, -366077.13, 303794.84, 0.1178254, -0.6821332, -2582.352, -2582.352, 0.0, 9.999259, 9.997705 
2.7631247e+3, 3.227973e+2, -60988.168, 472746.63, -28979.922, -0.42191112, 0.19759545, 474315.5, 474315.5, 0.0, 9.997205, 10.004443 
2.7806577e+3, 1.3334242e+2, -1309624.3, -1341150.5, -99744.85, 0.10029865, -0.53172773, -1224404.6, 408815.2, 0.0021714193, 10.002237, 10.001112 
2.7802613e+3, 1.4333965e+2, -1654490.9, -1956579.6, 28779.484, 0.40354896, -0.09840013, -1651773.5, -116529.61, 0.0010072395, 10.000975, 9.997177 
2.7798575e+3, 1.5332934e+2, -1222166.8, -1464566.5, 47517.84, -0.22129996, -0.27658433, -1213184.6, 224173.27, 0.00030058212, 10.002453, 9.9990425 
2.779458e+3, 1.6332039e+2, -1157700.4, -1417112.0, 57038.895, -0.45292073, -0.29886502, -1145712.8, 193740.11, 0.000046417692, 10.002206, 9.998924 
2.7790636e+3, 1.7331432e+2, -1011965.3, -1100243.3, 32525.219, -0.1637536, -0.20159605, -1001276.0, 240232.61, 0.0000020738605, 10.001859, 10.000482 
2.7786696e+3, 1.8330719e+2, -1198376.5, -1420753.1, 78495.69, 0.014482428, -0.07822163, -1173460.4, -29883.941, 0.00000000000031198744, 10.0010395, 9.99807 
2.7782753e+3, 1.9329697e+2, -893326.9, -1069235.6, 63167.926, 0.04272666, -0.2906389, -872993.9, 172684.02, 0.0, 10.00197, 9.999231 
2.7778792e+3, 2.0328791e+2, -853375.94, -1110565.3, -1377.9329, -0.021793503, -0.3182867, -853368.56, 94398.85, 0.0, 10.001873, 9.99847 
2.7774787e+3, 2.1328032e+2, -617442.7, -757977.6, 30923.703, -0.32076016, -0.3243471, -610939.1, 238902.89, 0.0, 10.002152, 9.999982 
2.7770814e+3, 2.2327384e+2, -792351.5, -991771.25, 72545.305, -0.3024093, -0.116294414, -768753.3, -16845.398, 0.0, 10.000981, 9.998372 
2.7766895e+3, 2.332685e+2, -658714.25, -704414.3, 51496.01, 0.24276394, 0.1312745, -625226.3, 28740.008, 0.0, 10.000645, 9.999716 
2.7762944e+3, 2.4326152e+2, -832410.9, -870680.56, 90361.89, 0.42619938, 0.28553367, -759180.06, -203142.67, 0.0, 9.999222, 9.998691 
2.7758938e+3, 2.5325087e+2, -641335.6, -555632.75, 85568.125, -0.049820483, -0.033248853, -502785.97, -44647.066, 0.0, 9.999269, 10.000047 
2.7754945e+3, 2.6324221e+2, -741134.1, -586063.25, 21553.979, -0.30081764, -0.111292936, -583123.1, -222902.97, 0.0, 9.997951, 9.999873 
2.7750975e+3, 2.7323663e+2, -538187.9, -238084.92, 27292.814, -0.18212222, -0.06440837, -235622.97, 26647.283, 0.0, 9.997952, 10.001497 
2.7747008e+3, 2.832295e+2, -687825.5, -621252.25, 122161.53, -0.099595174, -0.012783995, -527923.56, -363587.16, 0.0, 9.997614, 9.998487 
2.774305e+3, 2.9321936e+2, -188175.56, -208523.97, 98383.516, -0.011125403, -0.22397129, -99441.58, -33008.457, 0.0, 9.999934, 9.99944 
2.7739084e+3, 3.0321002e+2, -204722.2, -387726.66, 204744.58, -0.09037036, -0.23117639, -71963.42, -71963.42, 0.0, 10.000043, 9.997584 
2.7735138e+3, 3.1320012e+2, -284337.38, -200291.48, 266981.84, -0.19043359, -0.42341045, 27954.373, 27954.373, 0.0, 9.99843, 9.999208 
2.7731153e+3, 3.2319856e+2, -541956.25, -149220.27, -114034.516, -0.33578652, 0.31374925, -118510.61, -118510.61, 0.0, 9.995776, 10.000842 
2.7906492e+3, 1.3374482e+2, -1552180.3, -1242355.5, -196555.45, -0.11751991, 0.09217401, -1147004.3, 482302.44, 0.0011689386, 9.999582, 10.003112 
2.7902576e+3, 1.4373668e+2, -1572329.0, -1823735.0, 58174.17, 0.6022471, -0.1326035, -1559520.4, -28150.51, 0.0005049565, 10.001113, 9.998032 
2.7898535e+3, 1.5373018e+2, -950723.0, -1246664.8, 138880.47, -0.21848683, -0.011807214, -895757.5, 537685.5, 0.00013439951, 10.00393, 9.999834 
2.7894542e+3, 1.6372259e+2, -771922.75, -1242317.4, 52936.438, -0.5293446, 0.06934436, -766039.06, 569482.5, 0.000016423304, 10.004861, 9.998857 
2.7890596e+3, 1.7371349e+2, -759646.6, -1038486.1, 49733.93, -0.16781582, -0.07512164, -751041.56, 486564.1, 0.0000003300107, 10.003802, 9.999988 
2.7886647e+3, 1.8370509e+2, -927617.5, -1236101.6, 118255.54, -0.012278603, -0.06673658, -887501.7, 252183.45, 0.0, 10.002565, 9.998641 
2.788269e+3, 1.9369638e+2, -854053.25, -1031981.9, 160677.64, -0.045795884, -0.121641554, -759354.94, 282416.72, 0.0, 10.002032, 9.999538 
2.7878723e+3, 2.0368804e+2, -852610.8, -987954.8, 68256.46, -0.12606286, -0.11626013, -824166.0, 119686.99, 0.0, 10.001331, 9.999554 
2.787473e+3, 2.1368012e+2, -702502.1, -738341.94, 56832.75, -0.3120888, -0.18833858, -660831.06, 185096.38, 0.0, 10.001287, 10.000546 
2.7870756e+3, 2.2367288e+2, -681054.9, -884610.2, 52685.8, -0.2835475, -0.102084294, -668226.75, 79771.71, 0.0, 10.001387, 9.998936 
2.7866822e+3, 2.3366638e+2, -485095.2, -650439.9, 58644.492, 0.1427053, 0.051405493, -466407.3, 183660.67, 0.0, 10.001786, 9.999614 
2.7862865e+3, 2.436594e+2, -422054.94, -590190.06, 101062.19, 0.28591555, 0.190784, -374665.6, 177474.3, 0.0, 10.001604, 9.999477 
2.7858856e+3, 2.536503e+2, -359058.38, -391968.66, 112613.62, -0.10538572, 0.024558688, -261704.03, 192523.9, 0.0, 10.001012, 10.000371 
2.785487e+3, 2.6364246e+2, -312610.63, -334274.2, 49694.766, -0.27606007, 0.0006010449, -272580.84, 83721.72, 0.0, 10.000557, 10.000384 
2.7850905e+3, 2.7363697e+2, -142325.1, -77701.64, -27617.736, -0.03644581, 0.08766415, -67507.05, 190845.66, 0.0, 10.000634, 10.001384 
2.784694e+3, 2.8362936e+2, -248895.39, -345243.44, 82430.32, 0.083831966, 0.07702356, -201594.31, -41171.406, 0.0, 10.000284, 9.999084 
2.784297e+3, 2.936172e+2, -120183.14, -155159.39, 108212.34, -0.07352054, -0.34095886, -28054.91, 34482.586, 0.0, 10.000266, 9.999647 
2.7838993e+3, 3.0360824e+2, -116776.98, -202718.47, 180789.13, -0.2681522, -0.3776342, 26077.982, 26077.982, 0.0, 9.999873, 9.998979 
2.7835044e+3, 3.1360468e+2, -94527.55, -7110.3696, 169744.81, -0.26709157, -0.022623638, 124462.94, 124462.94, 0.0, 9.999082, 10.000326 
2.7831075e+3, 3.2359767e+2, -278776.0, -309428.84, -182621.1, -0.07305494, 0.2346878, -110839.32, -110839.32, 0.0, 9.998606, 9.99845 
2.8006414e+3, 1.3414606e+2, -1479893.3, -1093661.3, -69134.9, -0.08692482, 0.57879883, -1081659.3, 543740.75, 0.0005684972, 9.999564, 10.004127 
2.800253e+3, 1.4413427e+2, -1368593.1, -1672782.4, 107999.234, 0.760395, -0.09975285, -1334149.3, 193341.2, 0.00022583413, 10.002369, 9.9984045 
2.7998504e+3, 1.5413113e+2, -1128591.9, -1259445.5, 135019.16, -0.144655, 0.2764246, -1043982.5, 385545.38, 0.00005282333, 10.002448, 10.000414 
2.7994516e+3, 1.6412464e+2, -1206972.8, -1464908.1, -38361.594, -0.438505, 0.43677565, -1201388.4, 130204.88, 0.000004777361, 10.002041, 9.998609 
2.7990562e+3, 1.7411308e+2, -1017253.6, -1188129.9, -29606.244, -0.07483026, 0.040727332, -1012269.4, 221431.06, 0.00000002399446, 10.002192, 9.999681 
2.79866e+3, 1.841041e+2, -1068334.3, -1287726.6, 103813.555, 0.05494556, 0.009527397, -1026999.0, 108786.266, 0.0, 10.001652, 9.998681 
2.7982628e+3, 1.9409794e+2, -892465.9, -983223.56, 125008.31, -0.11204125, 0.13937698, -804854.8, 232991.52, 0.0, 10.001586, 10.000043 
2.7978656e+3, 2.0409073e+2, -981457.2, -1102474.0, 71200.71, -0.17437796, 0.25593477, -948526.8, -8611.504, 0.0, 10.000731, 9.999045 
2.7974677e+3, 2.1408138e+2, -798776.94, -818235.9, 57790.52, -0.13711636, 0.045495823, -749902.56, 92099.37, 0.0, 10.000799, 10.000212 
2.7970704e+3, 2.2407222e+2, -876049.0, -980708.56, 91351.26, -0.12339785, -0.032543935, -823100.75, -79011.516, 0.0, 10.000251, 9.998761 
2.7966735e+3, 2.3406266e+2, -600091.0, -665817.0, 75840.75, -0.1321705, -0.23016754, -550299.3, 95885.0, 0.0, 10.000982, 9.999845 
2.7962762e+3, 2.4405529e+2, -613473.9, -678771.5, 86781.91, -0.107572414, -0.12854809, -553402.44, -5144.451, 0.0, 10.000411, 9.999406 
2.7958792e+3, 2.5404987e+2, -461435.25, -388057.2, 88980.39, -0.084898435, 0.004406188, -328498.66, 121813.9, 0.0, 10.000186, 10.000747 
2.7954817e+3, 2.6404333e+2, -608121.1, -625744.1, 40484.727, -0.048012078, 0.15337954, -575500.06, -223123.23, 0.0, 9.999309, 9.998952 
2.7950844e+3, 2.740347e+2, -355385.22, -317503.88, -21946.004, 0.07162273, 0.02884594, -307455.28, -52995.113, 0.0, 9.999881, 10.000055 
2.7946872e+3, 2.8402624e+2, -366977.78, -377341.38, 67861.33, 0.087704636, 0.0060215266, -304100.7, -147559.75, 0.0, 9.999491, 9.999215 
2.79429e+3, 2.9401663e+2, -149017.23, -64708.363, 95130.43, -0.07900298, -0.26336426, -2810.9155, 55821.168, 0.0, 9.999721, 10.000505 
2.793892e+3, 3.0401066e+2, -247572.23, -208767.58, 119176.984, -0.24631645, -0.06822378, -107423.88, -107423.88, 0.0, 9.9988985, 9.999336 
2.7934974e+3, 3.1400996e+2, -203146.0, 11023.801, 135116.81, -0.12953937, 0.495144, 76344.62, 76344.62, 0.0, 9.998188, 10.000795 
2.7930978e+3, 3.2399362e+2, -331765.53, -298503.63, -28681.65, -0.23412786, -0.22642869, -281980.0, -281980.0, 0.0, 9.998402, 9.998483 
2.8106356e+3, 1.345409e+2, -1579120.6, -1370968.5, 200039.86, -0.024431711, 0.3763933, -1249550.0, 371975.2, 0.00025074874, 9.999787, 10.002171 
2.8102434e+3, 1.4453265e+2, -1219907.5, -1589070.6, -20332.695, 0.13937145, 0.16527897, -1218791.0, 304799.97, 0.00009142473, 10.003343, 9.998519 
2.8098446e+3, 1.5452716e+2, -1439035.4, -1426090.6, 12801.99, -0.10323976, 0.3126523, -1418217.9, 7435.9395, 0.000018191195, 10.000352, 10.000321 
2.8094476e+3, 1.6452055e+2, -1511395.5, -1428800.1, -80252.92, -0.15447904, 0.3959978, -1379842.5, -52122.445, 0.000001253609, 9.999117, 10.000272 
2.8090507e+3, 1.7451224e+2, -1172418.1, -1108218.1, 9834.698, -0.0057556727, 0.19118045, -1106745.4, 123048.43, 0.0000000065346386, 10.000407, 10.001117 
2.808654e+3, 1.8450445e+2, -1067896.8, -1155528.1, 125633.55, 0.025542852, 0.16257973, -978657.56, 153207.39, 0.0, 10.00108, 9.9998455 
2.8082576e+3, 1.9449694e+2, -820417.25, -880828.94, 174576.33, -0.06168801, 0.10846362, -673452.9, 360483.7, 0.0, 10.001759, 10.000678 
2.80786e+3, 2.0448963e+2, -738771.6, -886659.6, 86110.21, -0.12405424, 0.14660934, -699213.7, 236791.84, 0.0, 10.001886, 9.999976 
2.8074613e+3, 2.1448165e+2, -641715.75, -704817.25, 122499.414, -0.17407417, 0.048733152, -546769.25, 291311.0, 0.0, 10.001589, 10.000663 
2.8070638e+3, 2.2447316e+2, -653976.4, -827643.94, 177965.28, -0.17646831, 0.007317147, -542790.56, 197370.67, 0.0, 10.001493, 9.999232 
2.806667e+3, 2.344634e+2, -455387.56, -598994.5, 171711.39, -0.1232777, -0.1794045, -341071.34, 301184.97, 0.0, 10.001891, 9.999899 
2.80627e+3, 2.4445546e+2, -402407.94, -595633.94, 117567.234, -0.09665279, -0.1272141, -346849.56, 197486.08, 0.0, 10.001803, 9.99932 
2.8058726e+3, 2.5444973e+2, -337390.2, -406783.63, 56045.66, -0.07100446, 0.056182, -306170.47, 140225.36, 0.0, 10.001224, 10.000174 
2.805475e+3, 2.6444274e+2, -361829.97, -527951.8, 16100.119, 0.019315863, 0.19789274, -360284.0, -11818.046, 0.0, 10.000958, 9.998877 
2.8050783e+3, 2.74433e+2, -196319.66, -317135.72, -6923.355, 0.17843407, 0.038068917, -195924.2, 54636.582, 0.0, 10.001135, 9.999535 
2.8046808e+3, 2.8442422e+2, -147587.6, -195329.27, 87575.555, 0.17382865, -0.020124478, -80687.87, 71957.49, 0.0, 10.000483, 10.000054 
2.804282e+3, 2.9441613e+2, -182030.17, -62511.01, 59861.76, -0.05397853, -0.14728704, -37685.5, 17036.791, 0.0, 9.9992075, 10.000876 
2.803884e+3, 3.0441132e+2, -225159.58, -81236.31, 83673.03, -0.17788059, 0.10223414, -42836.484, -42836.484, 0.0, 9.998494, 10.000397 
2.80349e+3, 3.1441084e+2, -20093.305, 162117.42, 75779.0, 0.030139841, 0.63501185, 189513.72, 189513.72, 0.0, 9.999069, 10.0014515 
2.803089e+3, 3.2439086e+2, -200060.08, -256916.81, -71051.81, -0.23944248, -0.46829998, -151960.47, -151960.47, 0.0, 9.999195, 9.998467 
2.8206298e+3, 1.3493553e+2, -1200345.5, -1408945.3, 527745.56, 0.039900843, 0.09783759, -766692.06, 850955.56, 0.00010744943, 10.003463, 10.000083 
2.820234e+3, 1.4493085e+2, -1460270.1, -1715411.1, -42320.563, -0.3155217, 0.38920224, -1453433.5, 66256.27, 0.00003510944, 10.001836, 9.998337 
2.8198388e+3, 1.5492238e+2, -1354212.1, -1382693.8, -24088.176, 0.042076472, 0.23528376, -1340470.0, 81313.98, 0.0000055355054, 10.001028, 10.000257 
2.8194427e+3, 1.6491616e+2, -1272587.8, -1152290.9, 26313.756, 0.22424044, 0.3050053, -1146786.9, 177059.67, 0.0000002527922, 10.00015, 10.00167 
2.8190446e+3, 1.7491172e+2, -1064647.4, -883162.75, 39457.664, 0.123274125, 0.33316317, -874955.2, 350926.0, 0.0, 10.000494, 10.002628 
2.8186476e+3, 1.8490504e+2, -1124057.9, -1122424.4, 145023.4, 0.069925554, 0.31609166, -978215.44, 149724.23, 0.0, 10.000489, 10.000355 
2.818253e+3, 1.9489507e+2, -909199.44, -872755.1, 166923.92, 0.10453633, -0.055866152, -723061.75, 306970.13, 0.0, 10.000942, 10.001141 
2.8178555e+3, 2.048875e+2, -908771.9, -922790.6, 46474.027, 0.013659349, -0.076942265, -868781.6, 63321.434, 0.0, 10.000681, 10.000239 
2.817454e+3, 2.1488164e+2, -739112.25, -677309.0, 56015.063, -0.24902229, -0.05692213, -644237.25, 189922.08, 0.0, 10.000742, 10.001192 
2.8170568e+3, 2.2487503e+2, -835135.44, -955258.4, 162419.47, -0.2425445, 0.08944653, -722028.0, 14194.762, 0.0, 10.000555, 9.998764 
2.8166637e+3, 2.3486663e+2, -611207.75, -670545.1, 160089.0, 0.09372836, 0.016078582, -478061.47, 160242.3, 0.0, 10.000953, 9.999797 
2.8162664e+3, 2.4485838e+2, -700708.75, -904491.5, 84466.44, 0.12772852, 0.12094012, -670250.5, -129862.96, 0.0, 10.000616, 9.99773 
2.8158656e+3, 2.5484943e+2, -566045.56, -663194.94, 29359.309, -0.118486546, 0.088606484, -557862.25, -115380.43, 0.0, 10.000391, 9.998774 
2.8154674e+3, 2.6484102e+2, -546937.44, -652036.2, 18191.795, -0.07837184, 0.18974148, -543877.6, -199311.3, 0.0, 10.000014, 9.998413 
2.8150722e+3, 2.7483192e+2, -301345.47, -354888.25, 10216.221, 0.24719301, 0.062474005, -299462.4, -52809.254, 0.0, 10.0005045, 9.999511 
2.8146738e+3, 2.8482378e+2, -330130.3, -326449.06, 27075.44, 0.21793713, 0.098569885, -301151.75, -152421.0, 0.0, 9.999603, 9.999509 
2.8142726e+3, 2.9481584e+2, -334525.78, -141898.89, 11614.743, -0.11466497, -0.022506857, -141201.1, -90395.25, 0.0, 9.998354, 10.000668 
2.8138745e+3, 3.0480888e+2, -338244.03, -126780.62, 89549.52, -0.25656313, 0.02911857, -93954.35, -93954.35, 0.0, 9.997775, 10.000416 
2.8134814e+3, 3.1480286e+2, -133034.11, 150836.14, 96311.0, 0.018182045, -0.050851356, 180427.66, 180427.66, 0.0, 9.998186, 10.001777 
2.8130814e+3, 3.24795e+2, -391374.3, -376665.75, -19867.59, -0.25913656, 0.0470709, -362835.0, -362835.0, 0.0, 9.998241, 9.998016 
2.830628e+3, 1.3533254e+2, -1070256.3, -1539767.6, 175174.56, -0.055373263, -0.22418398, -1012101.75, 601636.0, 0.00005064086, 10.0051365, 9.998405 
2.8302288e+3, 1.4532764e+2, -1552552.1, -1664060.3, 55141.56, -0.24983954, 0.1262681, -1529889.9, -14098.352, 0.00001538915, 10.000801, 9.999172 
2.8298315e+3, 1.5531936e+2, -1227480.3, -1298849.4, 116707.97, -0.13686332, -0.022833245, -1141123.3, 276757.56, 0.0000020566958, 10.00179, 10.00047 
2.8294352e+3, 1.6531315e+2, -1065106.0, -1094818.3, 72341.914, 0.023422156, 0.068822466, -1006110.5, 313832.84, 0.00000005936716, 10.001718, 10.001314 
2.829038e+3, 1.7530818e+2, -1039678.56, -966059.1, 59137.195, 0.10814615, 0.12698323, -933211.4, 288775.94, 0.0, 10.001006, 10.001837 
2.8286412e+3, 1.8530163e+2, -1081134.0, -1052423.8, 105663.7, 0.08784588, 0.14156839, -960144.56, 163902.77, 0.0, 10.000506, 10.000861 
2.8282455e+3, 1.9529277e+2, -994053.1, -906646.3, 131577.75, 0.028443329, -0.12625766, -811703.8, 214426.81, 0.0, 10.000258, 10.001277 
2.8278485e+3, 2.0528616e+2, -920867.25, -897556.44, -11299.893, -0.014589377, -0.0779034, -892978.06, 35216.84, 0.0, 10.0003805, 10.000597 
2.827449e+3, 2.1528094e+2, -690531.4, -680140.75, -5446.063, -0.10266618, 0.04054287, -677809.4, 152438.9, 0.0, 10.001104, 10.001036 
2.827052e+3, 2.252746e+2, -611230.44, -705029.94, 61688.684, -0.0789561, 0.14594369, -580637.75, 151671.14, 0.0, 10.00138, 10.000116 
2.826657e+3, 2.3526657e+2, -548960.44, -589565.25, 96191.41, 0.0952151, 0.048870012, -470952.22, 163430.86, 0.0, 10.001005, 10.0004015 
2.826259e+3, 2.4525806e+2, -628776.94, -819560.75, 54666.98, 0.06917843, 0.0724369, -614223.0, -77755.41, 0.0, 10.000814, 9.998249 
2.8258583e+3, 2.552482e+2, -479433.1, -659263.1, 71290.78, -0.15373124, -0.009993133, -454600.2, -16030.314, 0.0, 10.001016, 9.99857 
2.82546e+3, 2.652395e+2, -313419.16, -440156.7, 128234.44, -0.109971896, 0.03490603, -233750.63, 106905.875, 0.0, 10.001109, 9.999352 
2.8250647e+3, 2.752314e+2, -179620.64, -275286.72, 120997.695, 0.16441533, 0.0028224776, -97344.33, 145389.33, 0.0, 10.0012, 9.99974 
2.8246668e+3, 2.852235e+2, -108340.04, -212618.0, 116486.62, 0.21824016, 0.06328031, -32856.117, 111952.52, 0.0, 10.001022, 9.99962 
2.824266e+3, 2.9521522e+2, -29692.785, -80981.35, 58271.01, 0.011260439, -0.014177351, 8327.21, 55215.355, 0.0, 10.00068, 10.00001 
2.8238666e+3, 3.0520666e+2, 5651.1035, 47655.316, 149466.53, -0.15987669, -0.09018369, 177588.08, 177588.08, 0.0, 9.999962, 10.000598 
2.823472e+3, 3.151978e+2, -7865.729, 123644.86, 68057.49, -0.026047513, -0.4001575, 152523.5, 152523.5, 0.0, 9.999243, 10.00114 
2.823074e+3, 3.2519814e+2, -313737.5, -303119.7, -60112.316, -0.07313289, 0.52084666, -248082.3, -248082.3, 0.0, 9.9984045, 9.998531 
2.8406256e+3, 1.3573249e+2, -1231323.6, -1791061.3, -30995.115, 0.0014008551, -0.39059892, -1229612.5, 380191.0, 0.00002671971, 10.004684, 9.996951 
2.840225e+3, 1.4572571e+2, -1383550.6, -1557486.5, 201681.64, 0.040399402, -0.14385758, -1250885.0, 260996.02, 0.000008259606, 10.001835, 9.999404 
2.8398243e+3, 1.5571795e+2, -1162862.4, -1274939.4, 179925.73, -0.27371144, -0.24875757, -1030450.4, 383510.5, 0.0000013335809, 10.002226, 10.000433 
2.839427e+3, 1.6571113e+2, -1169116.0, -1270000.1, 89988.34, -0.16362526, -0.14947551, -1116396.5, 199632.61, 0.000000073245815, 10.001641, 10.000105 
2.8390318e+3, 1.7570418e+2, -1155947.5, -1175990.4, 47123.33, 0.16385287, -0.16751802, -1117791.8, 100304.8, 0.0, 10.000931, 10.000409 
2.8386348e+3, 1.8569767e+2, -1127828.3, -1077552.6, 133667.19, 0.16681369, -0.06623498, -966680.06, 153479.44, 0.0, 10.000297, 10.000728 
2.838237e+3, 1.9569057e+2, -1037651.4, -957646.4, 118054.83, -0.06504604, -0.179164, -873000.75, 149227.69, 0.0, 10.000159, 10.000922 
2.837841e+3, 2.0568499e+2, -982886.94, -962628.0, 33829.45, -0.025160603, 0.011168627, -937444.06, -13157.834, 0.0, 10.000194, 10.000211 
2.8374454e+3, 2.1567982e+2, -840293.5, -802956.7, 20352.088, 0.21153216, 0.14549412, -794007.75, 32334.57, 0.0, 10.000393, 10.000499 
2.8370482e+3, 2.2567327e+2, -721967.5, -643572.6, 54922.24, 0.17903145, 0.21566866, -615294.94, 113109.13, 0.0, 10.000246, 10.001053 
2.8366488e+3, 2.356648e+2, -650056.75, -550755.25, 64898.707, -0.034113068, -0.061766315, -518692.84, 111785.766, 0.0, 10.000031, 10.001115 
2.8362498e+3, 2.4565613e+2, -729885.3, -820431.6, 54690.91, -0.15296891, -0.09123298, -704160.2, -171599.48, 0.0, 10.0000305, 9.998604 
2.835851e+3, 2.5564644e+2, -575909.3, -655955.7, 66739.11, -0.16484523, -0.24244004, -538112.44, -103454.96, 0.0, 10.000261, 9.998935 
2.8354532e+3, 2.656385e+2, -425544.9, -427630.63, 115845.44, -0.15684962, -0.15956123, -310737.63, 25997.17, 0.0, 10.000212, 9.999808 
2.8350553e+3, 2.7563104e+2, -287772.97, -288747.8, 124696.21, -0.11204331, -0.21325266, -163563.23, 75242.07, 0.0, 10.000422, 9.999968 
2.8346586e+3, 2.856231e+2, -281962.16, -389211.84, 106458.81, 0.07045446, -0.11679145, -216385.06, -75503.32, 0.0, 10.0003605, 9.998683 
2.834262e+3, 2.9561383e+2, -189320.8, -268400.3, 67835.45, 0.30936688, -0.23183511, -150342.78, -107371.0, 0.0, 10.000173, 9.998943 
2.8338614e+3, 3.056058e+2, -175106.64, -174914.84, 115039.03, 0.024382671, -0.13044988, -59971.67, -59971.67, 0.0, 9.999483, 9.999238 
2.833461e+3, 3.155983e+2, -274385.38, -171331.9, 41857.9, -0.32981995, -0.19096814, -156472.73, -156472.73, 0.0, 9.9983015, 9.99951 
2.8330654e+3, 3.2559398e+2, -290833.84, 43535.566, -10045.939, -0.041435186, 0.14273252, 43837.12, 43837.12, 0.0, 9.99737, 10.001286 
2.8506204e+3, 1.3614307e+2, -1292394.4, -1852627.9, -155450.69, -0.30704808, 0.1171565, -1252151.5, 353633.72, 0.0000133144695, 10.00431, 9.99677 
2.8502256e+3, 1.4612961e+2, -1285251.6, -1597608.1, 277827.38, 0.523671, -0.22075602, -1122714.1, 385210.97, 0.0000038169696, 10.002836, 9.998664 
2.84982e+3, 1.5612322e+2, -1170639.8, -1431911.0, 272076.2, -0.2307401, -0.063880496, -999462.3, 410525.2, 0.0000005153316, 10.002761, 9.999127 
2.849421e+3, 1.6611485e+2, -1144135.1, -1379314.9, 112660.625, -0.25778246, 0.0065055965, -1098876.0, 213194.5, 0.00000002542409, 10.002295, 9.999042 
2.8490248e+3, 1.7610484e+2, -1156788.3, -1307470.8, 111500.49, 0.08386551, -0.17179625, -1097561.0, 116609.09, 0.0, 10.001444, 9.999273 
2.848628e+3, 1.8609776e+2, -964928.7, -982957.94, 204792.58, 0.088138215, -0.08055609, -768952.44, 347286.44, 0.0, 10.001279, 10.000911 
2.8482306e+3, 1.9609177e+2, -843012.9, -875204.8, 216629.47, -0.10789139, -0.051282793, -641882.25, 376413.6, 0.0, 10.001441, 10.00089 
2.847834e+3, 2.0608492e+2, -833926.9, -894320.0, 95195.52, -0.051502995, 0.020268064, -764253.44, 156109.88, 0.0, 10.0011635, 10.000233 
2.8474382e+3, 2.160771e+2, -821731.6, -825275.5, 104059.24, 0.17568114, -0.053942315, -719429.25, 103012.73, 0.0, 10.000533, 10.000325 
2.847041e+3, 2.2607014e+2, -695605.25, -661381.56, 97740.03, 0.14774382, 0.00018285606, -579266.75, 145243.72, 0.0, 10.000507, 10.000806 
2.8466412e+3, 2.360628e+2, -543724.0, -539210.44, 41115.16, -0.10164875, -0.083580025, -500290.16, 126290.09, 0.0, 10.0008335, 10.000829 
2.8462425e+3, 2.4605508e+2, -460523.84, -561677.6, 3712.303, -0.18941484, -0.08451198, -460387.8, 68265.766, 0.0, 10.001188, 9.999874 
2.8458446e+3, 2.5604656e+2, -333738.22, -441009.13, 39598.78, -0.15758142, -0.18369253, -320704.16, 110031.09, 0.0, 10.001356, 9.99994 
2.8454465e+3, 2.6603878e+2, -321969.7, -361909.47, 39798.063, -0.117433675, -0.1537081, -297412.28, 35398.22, 0.0, 10.000764, 10.000036 
2.8450483e+3, 2.7603114e+2, -316177.63, -294939.1, -11225.673, -0.100553975, -0.19121878, -290105.72, -55221.234, 0.0, 10.000068, 10.000162 
2.8446516e+3, 2.8602323e+2, -178224.55, -232877.56, 53933.176, 0.06982435, -0.17283054, -145090.11, -8131.5376, 0.0, 10.0005, 9.999741 
2.8442556e+3, 2.960144e+2, 48788.813, -81407.234, 108809.87, 0.3564427, -0.28965613, 110487.24, 149528.42, 0.0, 10.001428, 9.99965 
2.843854e+3, 3.0600688e+2, -4575.5566, -127201.2, 196674.95, 0.07161798, -0.15799604, 140122.06, 140122.06, 0.0, 10.000666, 9.99905 
2.8434515e+3, 3.1600028e+2, -214809.61, -197295.75, 167531.31, -0.39111403, -0.031429898, -38292.668, -38292.668, 0.0, 9.998817, 9.999152 
2.843057e+3, 3.259925e+2, 82656.914, 304155.28, 52146.688, 0.044936627, -0.05212818, 315817.94, 315817.94, 0.0, 9.999315, 10.002269 
2.8606164e+3, 1.3655029e+2, -1695246.3, -2009891.3, -359310.78, -0.246943, 0.40531573, -1460325.8, 141475.64, 0.0000059672334, 10.001467, 9.997036 
2.8602245e+3, 1.465336e+2, -1274868.9, -1676434.9, 104096.195, 0.92237884, -0.2281758, -1249488.6, 254480.05, 0.0000015122073, 10.003342, 9.997849 
2.8598163e+3, 1.565287e+2, -1415328.9, -1676949.9, 121300.23, -0.09344907, 0.14995992, -1367743.4, 38270.395, 0.0000000966577, 10.00167, 9.997953 
2.8594154e+3, 1.6651902e+2, -1373432.1, -1592722.9, 54854.18, -0.22184984, 0.18616617, -1360476.1, -52366.38, 0.00000000026919006, 10.001203, 9.998105 
2.859018e+3, 1.7650649e+2, -1284407.8, -1477903.9, 97693.16, 0.056821745, -0.16229832, -1243663.5, -33427.81, 0.0, 10.001071, 9.9982815 
2.8586212e+3, 1.8649927e+2, -1023150.2, -1004137.4, 244484.02, 0.04804127, -0.033031486, -768975.0, 343330.28, 0.0, 10.000982, 10.000883 
2.8582245e+3, 1.9649434e+2, -970782.56, -965836.7, 192769.73, -0.047595292, 0.10025244, -775524.0, 238826.02, 0.0, 10.000817, 10.000544 
2.8578275e+3, 2.0648561e+2, -941631.25, -981558.1, 79694.11, -0.010831195, 0.028861031, -879438.2, 36993.227, 0.0, 10.000636, 9.999873 
2.85743e+3, 2.1647397e+2, -977781.0, -993403.9, 77448.27, 0.081027366, -0.41431448, -907751.25, -89209.555, 0.0, 9.999892, 9.999495 
2.857032e+3, 2.2646652e+2, -926765.4, -934740.6, 130028.63, 0.042017635, -0.27871898, -800663.25, -80043.96, 0.0, 9.999731, 9.999233 
2.8566346e+3, 2.3646078e+2, -804632.7, -820157.8, 60166.754, -0.065900646, -0.0893915, -751729.8, -129045.09, 0.0, 9.999859, 9.999299 
2.8562364e+3, 2.4645497e+2, -532237.5, -443591.97, 26297.332, -0.1274175, 0.1054452, -436377.8, 88364.64, 0.0, 10.000244, 10.001015 
2.855838e+3, 2.5644824e+2, -455579.78, -432118.78, 42162.008, -0.15274386, 0.023337547, -400085.84, 26719.076, 0.0, 10.000379, 10.000381 
2.8554404e+3, 2.664404e+2, -497923.84, -560181.5, 7682.3174, -0.011086074, 0.10007071, -496989.9, -168107.75, 0.0, 10.000134, 9.998935 
2.8550434e+3, 2.7643132e+2, -493657.78, -473999.9, -25573.691, 0.20153067, -0.015582433, -456431.38, -225458.14, 0.0, 9.999298, 9.999292 
2.854645e+3, 2.864241e+2, -129700.94, 76428.625, 82234.07, 0.13172685, -0.023846991, 105215.25, 238252.84, 0.0, 9.999787, 10.002133 
2.854245e+3, 2.9641697e+2, 58072.445, 132428.05, 145856.58, -0.08341564, -0.23693891, 245770.44, 280867.13, 0.0, 10.000725, 10.00141 
2.8538442e+3, 3.0641007e+2, -69610.31, -68776.7, 120691.95, -0.24992087, -0.1485955, 51499.164, 51499.164, 0.0, 10.000005, 9.99969 
2.853444e+3, 3.1640363e+2, -433679.56, -297634.75, 161444.34, -0.26160702, -0.10739872, -190467.77, -190467.77, 0.0, 9.997467, 9.999042 
2.8530473e+3, 3.2639566e+2, -97564.57, 83182.875, 268025.1, -0.19619922, -0.077154614, 275660.47, 275660.47, 0.0, 9.998889, 10.000871 
2.8706118e+3, 1.3694239e+2, -1751883.5, -1754860.4, -103755.195, -0.0440699, -0.017003968, -1649606.0, -51644.81, 0.0000021514043, 9.999773, 9.999653 
2.870215e+3, 1.4693187e+2, -1114392.3, -1455358.4, -148095.31, 0.2855072, -0.21728013, -1059050.9, 441010.66, 0.00000043033984, 10.003771, 9.999179 
2.86981e+3, 1.5692692e+2, -1517800.0, -1609163.6, -38608.234, -0.112665035, 0.04604775, -1503670.3, -101559.484, 0.000000019645139, 10.000401, 9.999057 
2.8694102e+3, 1.669191e+2, -1370570.9, -1357768.3, 33445.438, -0.08165277, 0.09364799, -1330117.0, -25931.06, 0.0, 10.000207, 10.000199 
2.8690118e+3, 1.7690937e+2, -1178878.5, -1274485.3, 184953.45, 0.023518708, -0.13365532, -1035650.7, 170628.83, 0.0, 10.001106, 9.999677 
2.8686148e+3, 1.8690145e+2, -1008887.4, -1117302.4, 278459.94, 0.019232236, -0.07888465, -779407.7, 328949.3, 0.0, 10.001459, 9.999938 
2.868219e+3, 1.9689396e+2, -987336.0, -1088863.8, 237139.05, -0.0023629281, -0.060598727, -795588.2, 214842.05, 0.0, 10.001029, 9.999679 
2.8678212e+3, 2.0688577e+2, -810238.7, -857985.4, 106043.12, -0.016043479, -0.07593224, -725414.9, 187093.94, 0.0, 10.001247, 10.000427 
2.867422e+3, 2.1687631e+2, -699186.7, -819092.2, 141806.31, -0.06322351, -0.30141598, -605180.5, 209418.55, 0.0, 10.001544, 9.999919 
2.8670242e+3, 2.2686884e+2, -689742.25, -791556.25, 219185.94, -0.088545084, -0.20471151, -515629.25, 201046.45, 0.0, 10.001103, 9.999607 
2.866627e+3, 2.3686235e+2, -727548.3, -771002.25, 255785.94, -0.09728878, -0.05561539, -492568.25, 126178.12, 0.0, 10.000187, 9.99954 
2.8662297e+3, 2.4685565e+2, -464222.38, -455505.7, 219646.22, -0.108123235, 0.07329783, -240174.56, 280639.22, 0.0, 10.000784, 10.000707 
2.8658321e+3, 2.5684834e+2, -190596.69, -328274.34, 117903.125, -0.1309771, 0.021193229, -122907.38, 299977.13, 0.0, 10.002174, 10.000267 
2.8654346e+3, 2.668406e+2, -127493.23, -321438.6, 68961.5, 0.022808496, 0.07440323, -105472.67, 219487.77, 0.0, 10.002275, 9.999595 
2.865037e+3, 2.76832e+2, -124664.34, -265232.34, 121185.19, 0.2696667, 0.008447799, -54856.617, 172189.75, 0.0, 10.001532, 9.999701 
2.8646374e+3, 2.8682488e+2, -69634.44, 92187.414, 139052.19, 0.13193315, 0.009390545, 172155.6, 301267.47, 0.0, 10.000196, 10.002056 
2.864236e+3, 2.9681823e+2, -188027.05, 12524.082, -21478.69, -0.24919641, -0.11779283, 14798.617, 45967.81, 0.0, 9.998918, 10.001499 
2.863835e+3, 3.0681187e+2, -123365.266, 2616.5918, -123804.4, -0.3535321, -0.052039336, 78533.5, 78533.5, 0.0, 9.999126, 10.000648 
2.8634357e+3, 3.1680584e+2, -5255.8843, -21141.21, -70064.39, -0.17542608, -0.028529229, 57314.6, 57314.6, 0.0, 9.99996, 9.999803 
2.863039e+3, 3.2679617e+2, 523564.63, 231896.1, 183577.86, -0.34683076, -0.14560804, 612183.9, 612183.9, 0.0, 10.003642, 9.999647 
2.880606e+3, 1.3733555e+2, -1400456.8, -1275651.1, 388956.47, 0.06323546, -0.33886796, -944123.44, 649986.1, 0.00000033823923, 10.000877, 10.0023775 
2.8802043e+3, 1.4733046e+2, -1375886.6, -1446826.5, -187212.45, -0.26675653, -0.14913349, -1220813.6, 275337.9, 0.000000039050374, 10.001442, 10.000333 
2.8798035e+3, 1.5732433e+2, -1557839.8, -1513300.9, -115470.27, 0.009805764, -0.10489932, -1417972.3, -19756.59, 0.0000000006124831, 9.999646, 10.000086 
2.8794044e+3, 1.6731864e+2, -1297322.4, -1085549.8, 46930.36, 0.12021115, -0.010650016, -1075615.6, 224651.38, 0.0, 9.999756, 10.002226 
2.8790054e+3, 1.7731227e+2, -1219193.8, -1176857.5, 112664.164, 0.06634839, -0.13224488, -1083390.1, 118931.86, 0.0, 10.000353, 10.000682 
2.8786087e+3, 1.873033e+2, -1209966.9, -1337268.4, 203478.2, 0.053428918, -0.15568143, -1060416.3, 43994.605, 0.0, 10.000762, 9.998699 
2.8782135e+3, 1.9729288e+2, -1154212.0, -1296474.6, 166864.0, 0.12133356, -0.34171858, -1043950.75, -37433.453, 0.0, 10.000554, 9.998452 
2.8778148e+3, 2.0728669e+2, -888308.3, -847566.5, 104513.68, 0.0072343755, -0.1291815, -761457.0, 147123.84, 0.0, 10.000642, 10.000751 
2.8774145e+3, 2.1728139e+2, -864864.3, -887202.1, 111549.88, -0.16550592, 0.008213007, -763925.6, 46708.94, 0.0, 10.0005, 9.999917 
2.8770164e+3, 2.2727405e+2, -731264.25, -676834.3, 159808.6, -0.1818043, 0.05764275, -541939.94, 170765.63, 0.0, 10.000398, 10.000683 
2.8766188e+3, 2.3726581e+2, -856110.06, -835365.94, 202126.95, -0.1136883, -0.09272133, -643345.06, -28560.26, 0.0, 9.999474, 9.999405 
2.876223e+3, 2.4725698e+2, -684652.6, -759142.06, 258774.23, -0.08720551, -0.05334266, -460456.6, 56416.83, 0.0, 10.000209, 9.998896 
2.875827e+3, 2.5724736e+2, -486587.1, -644356.75, 151873.34, -0.086828694, -0.17946088, -394333.6, 24637.328, 0.0, 10.000994, 9.998669 
2.8754282e+3, 2.672402e+2, -161647.38, -147581.7, 40580.99, -0.044380587, -0.09622233, -113428.65, 207609.56, 0.0, 10.001361, 10.001181 
2.8750286e+3, 2.772333e+2, -318483.75, -352644.4, 99385.44, 0.04226135, -0.16032828, -234721.61, -11619.857, 0.0, 10.000309, 9.999657 
2.8746286e+3, 2.8722563e+2, -427030.16, -470018.22, 76626.945, 0.017786577, 0.0005925729, -368939.75, -243758.38, 0.0, 9.9994955, 9.998498 
2.8742287e+3, 2.972172e+2, -584082.1, -550505.7, -64450.918, -0.096646726, 0.017768428, -500692.34, -473421.63, 0.0, 9.997883, 9.998121 
2.8738278e+3, 3.072106e+2, -212158.1, 17526.125, -136473.6, -0.21483508, 0.1683631, 81048.12, 81048.12, 0.0, 9.998424, 10.001054 
2.8734285e+3, 3.1720448e+2, -247699.56, -220915.73, -8676.143, -0.20146665, 0.13904232, -218350.86, -218350.86, 0.0, 9.998789, 9.998982 
2.8730348e+3, 3.271906e+2, 371240.1, 84100.46, 428460.34, -0.5374483, -0.4083421, 679544.75, 679544.75, 0.0, 10.00324, 9.998684 
2.8906015e+3, 1.3773869e+2, -1296878.1, -1040359.3, 255878.64, 0.12015021, -0.019321622, -882394.44, 707770.3, 0.0000000032251708, 10.000732, 10.004099 
2.890195e+3, 1.4773268e+2, -1731787.4, -1670752.3, -164436.8, -0.4182213, 0.05439201, -1534025.1, -41814.266, 0.0, 9.999199, 9.999883 
2.8897965e+3, 1.5772301e+2, -1698861.5, -1630563.4, -73422.31, 0.13387673, -0.19098161, -1583737.3, -189428.28, 0.0, 9.998808, 9.999719 
2.8893968e+3, 1.6771655e+2, -1346532.4, -1156427.8, 33566.492, 0.14333141, -0.14828901, -1150675.1, 145692.19, 0.0, 9.999543, 10.001872 
2.8889966e+3, 1.7771079e+2, -1234143.0, -1211419.3, 43914.387, -0.12983553, -0.15888652, -1177420.8, 20995.393, 0.0, 10.000258, 10.000529 
2.888601e+3, 1.877024e+2, -1121172.6, -1249304.1, 96824.63, -0.058092747, -0.16300118, -1069137.4, 31362.973, 0.0, 10.001047, 9.999212 
2.888207e+3, 1.9769295e+2, -979542.2, -1144527.6, 114238.914, 0.12201922, -0.27568066, -921125.1, 81473.65, 0.0, 10.001329, 9.999171 
2.8878075e+3, 2.0768733e+2, -794155.0, -759221.6, 31726.879, -0.04212918, -0.07850158, -740471.2, 164185.98, 0.0, 10.000996, 10.001221 
2.887406e+3, 2.1768267e+2, -815366.8, -799316.56, 84572.57, -0.3429985, 0.09603899, -722389.2, 84315.76, 0.0, 10.000429, 10.00059 
2.8870097e+3, 2.2767508e+2, -491416.3, -558775.8, 111277.15, -0.22083952, 0.06827039, -408833.72, 299942.7, 0.0, 10.001883, 10.000839 
2.8866148e+3, 2.3766617e+2, -194181.36, -468133.25, 106435.72, 0.01848975, -0.14085634, -157689.8, 453169.06, 0.0, 10.003611, 10.000007 
2.886218e+3, 2.4765773e+2, -347717.2, -552027.5, 175243.05, 0.06818946, -0.14181001, -247028.08, 265914.22, 0.0, 10.00226, 9.999366 
2.8858212e+3, 2.576487e+2, -615044.1, -677762.4, 192168.19, 0.024508689, -0.20098521, -451693.2, -36659.844, 0.0, 9.9998455, 9.999052 
2.8854218e+3, 2.67641e+2, -306097.84, -277262.5, 53017.64, -0.021936014, -0.15945165, -236737.11, 80370.22, 0.0, 10.000592, 10.000658 
2.8850213e+3, 2.7763373e+2, -1865.8673, -240717.31, -65404.363, -0.08240653, -0.18198353, 14870.9375, 234046.55, 0.0, 10.002574, 9.999349 
2.8846213e+3, 2.8762555e+2, -33637.0, -399285.4, -14933.424, -0.06373796, -0.028359102, -33028.12, 88233.9, 0.0, 10.002516, 9.997593 
2.8842217e+3, 2.9761663e+2, -106158.51, -406962.72, 52175.367, -0.0027693517, 0.06743745, -97365.56, -74005.984, 0.0, 10.001374, 9.997474 
2.8838217e+3, 3.0760786e+2, 191489.19, 74293.55, 31019.168, -0.021144425, 0.10374483, 199192.9, 199192.9, 0.0, 10.001736, 9.999909 
2.8834242e+3, 3.1759912e+2, 246163.11, -37572.926, 42296.19, 0.048833054, -0.01127046, 252333.94, 252333.94, 0.0, 10.002298, 9.99865 
2.8830308e+3, 3.2758933e+2, -144314.0, -87428.6, 436604.1, -0.47784266, -0.11033818, 321658.28, 321658.28, 0.0, 9.999093, 9.999726 
2.9005945e+3, 1.3814257e+2, -1583324.9, -1101267.3, 171442.14, 0.16862194, 0.27065983, -1046513.56, 539696.0, 0.000000008553674, 9.998434, 10.00481 
2.900187e+3, 1.4813416e+2, -1669435.3, -1706254.5, -121722.516, -0.36669013, 0.12879065, -1564738.1, -76460.86, 0.0, 9.999959, 9.999268 
2.8997898e+3, 1.5812227e+2, -1493779.9, -1615665.1, -24501.447, 0.31976286, -0.27991137, -1489038.9, -98642.97, 0.0, 10.000642, 9.99892 
2.8993896e+3, 1.6811493e+2, -1197632.9, -1187101.4, 114106.09, 0.18726538, -0.23199527, -1078139.6, 214324.0, 0.0, 10.001114, 10.000859 
2.8989884e+3, 1.7810862e+2, -1226420.4, -1302219.3, 111087.85, -0.24281673, -0.20979282, -1146944.9, 47574.57, 0.0, 10.00079, 9.9996395 
2.8985938e+3, 1.8810147e+2, -1108898.0, -1150271.4, 166464.48, -0.122208536, -0.09803799, -961839.75, 134752.86, 0.0, 10.000793, 9.999969 
2.8982013e+3, 1.9809388e+2, -1108376.3, -1144299.3, 140026.17, 0.19834664, -0.12604827, -985164.3, 13509.0625, 0.0, 10.000252, 9.999637 
2.8978002e+3, 2.0808803e+2, -861756.25, -750250.94, 36060.066, -0.067306675, 0.0041771107, -739605.6, 161127.69, 0.0, 10.000434, 10.001492 
2.8973973e+3, 2.1808223e+2, -931199.75, -881783.06, 92544.76, -0.45931512, 0.018700792, -810705.0, -7913.8525, 0.0, 9.999852, 10.000258 
2.897004e+3, 2.2807433e+2, -618829.94, -637561.0, 191813.92, -0.19452406, -0.014222419, -436153.06, 268711.9, 0.0, 10.001251, 10.000514 
2.8966132e+3, 2.3806542e+2, -443460.8, -622483.1, 118974.516, 0.26267472, -0.22212216, -384085.5, 222861.47, 0.0, 10.002166, 9.9995985 
2.8962147e+3, 2.4805878e+2, -365066.66, -361552.7, 60931.12, 0.28947234, -0.1296807, -302353.22, 206657.0, 0.0, 10.00145, 10.00096 
2.8958145e+3, 2.58052e+2, -799419.56, -774788.9, 119553.055, 0.18178551, -0.14189717, -666918.56, -255842.17, 0.0, 9.998775, 9.998828 
2.895415e+3, 2.6804253e+2, -585499.25, -715181.44, 129475.516, 0.020726547, -0.08908067, -505536.1, -192363.17, 0.0, 10.000089, 9.997843 
2.8950155e+3, 2.7803227e+2, -259099.94, -571316.9, -9934.456, -0.1540468, -0.1782363, -258784.16, -43506.324, 0.0, 10.00179, 9.99744 
2.8946146e+3, 2.8802416e+2, 57647.402, -77326.0, -69902.26, -0.21258944, -0.099831395, 87324.375, 204681.98, 0.0, 10.002102, 9.999957 
2.8942135e+3, 2.98016e+2, -195603.66, -418518.28, 53829.418, -0.20491357, -0.14504424, -183285.61, -163848.56, 0.0, 10.000774, 9.99764 
2.893815e+3, 3.080047e+2, 66114.22, -324975.9, 83439.48, -0.1510204, -0.18523137, 83172.12, 83172.12, 0.0, 10.002561, 9.996567 
2.893418e+3, 3.1799343e+2, 3326.2458, -619292.0, 64951.24, -0.11254993, -0.2299424, 10029.754, 10029.754, 0.0, 10.00287, 9.994239 
2.8930226e+3, 3.2798922e+2, -776793.06, -185002.48, 153660.33, -0.389723, 0.18170942, -147482.84, -147482.84, 0.0, 9.9943075, 10.001003 
2.910582e+3, 1.3854419e+2, -1884244.8, -1317653.6, 272840.06, -0.13124686, 0.2143999, -1207632.5, 374631.2, 0.00000000038720277, 9.996572, 10.004286 
2.9101825e+3, 1.4853168e+2, -1557422.9, -1642693.6, -5205.49, -0.12364415, -0.3063219, -1557106.3, -72729.41, 0.0, 10.000603, 9.999437 
2.9097822e+3, 1.5852635e+2, -1129164.1, -1450947.4, 93722.82, 0.022695791, -0.057676658, -1103856.8, 282576.88, 0.0, 10.003108, 9.998903 
2.9093832e+3, 1.6851808e+2, -922237.25, -1127006.0, 145798.86, 0.02172135, -0.06381382, -846464.75, 442048.25, 0.0, 10.003271, 10.000253 
2.908984e+3, 1.7850909e+2, -1003780.06, -1206734.6, 173284.8, -0.1520333, -0.23096524, -904445.8, 286152.2, 0.0, 10.002268, 9.999618 
2.908589e+3, 1.8850225e+2, -987147.75, -1019169.6, 198840.95, 0.008774127, -0.1340233, -803674.2, 288992.4, 0.0, 10.001237, 10.000687 
2.908195e+3, 1.9849588e+2, -1143523.9, -1120679.9, 212173.83, 0.24073029, -0.072727785, -919620.8, 75111.57, 0.0, 9.999723, 10.00009 
2.9077944e+3, 2.0848885e+2, -832516.4, -832718.4, 104845.94, -0.0010214592, -0.025227146, -727771.4, 169031.69, 0.0, 10.000899, 10.000756 
2.907392e+3, 2.1848144e+2, -582577.94, -744625.9, 123461.11, -0.39463198, -0.081345364, -515928.16, 282948.4, 0.0, 10.002244, 10.000088 
2.9069984e+3, 2.284735e+2, -511544.34, -622800.6, 177728.22, -0.20456913, -0.09639699, -380941.97, 320009.28, 0.0, 10.002061, 10.000271 
2.9066062e+3, 2.3846507e+2, -534085.56, -676818.7, 106934.4, 0.12725976, -0.19967103, -476890.28, 126139.664, 0.0, 10.001418, 9.999647 
2.9062086e+3, 2.484587e+2, -248307.2, -381794.2, -59049.94, 0.21759535, -0.054969583, -225935.1, 279159.44, 0.0, 10.002415, 10.000416 
2.9058087e+3, 2.5845253e+2, -51156.18, -380328.47, -114477.68, 0.19665638, 0.043022823, -15258.567, 391899.22, 0.0, 10.003576, 9.999263 
2.905409e+3, 2.6844302e+2, -177579.19, -478685.53, 51882.234, 0.020789646, 0.0076532545, -168890.33, 140363.31, 0.0, 10.002505, 9.998392 
2.905009e+3, 2.7843243e+2, -336076.03, -531218.1, 113518.055, -0.1869636, -0.13472237, -283959.22, -72599.03, 0.0, 10.000749, 9.998276 
2.90461e+3, 2.8842446e+2, 38962.805, -51794.875, -158.07008, -0.08349361, -0.08776657, 38963.08, 152400.9, 0.0, 10.001785, 10.000293 
2.9042077e+3, 2.984169e+2, 104878.01, -161152.63, -62771.684, -0.18533303, -0.09159097, 118945.516, 134455.47, 0.0, 10.002144, 9.998772 
2.9205728e+3, 1.3894317e+2, -1693426.3, -1313517.4, 268216.78, -0.050608356, -0.022301158, -1174803.4, 403541.5, 0.0, 9.998345, 10.003395 
2.920178e+3, 1.4893007e+2, -1651517.4, -1648632.4, -11939.844, 0.1765031, -0.61684036, -1638048.3, -157579.3, 0.0, 9.9998455, 9.999708 
2.919775e+3, 1.5893053e+2, -1498335.1, -1644454.0, 53289.215, -0.19445738, 0.17874627, -1480965.5, -98495.336, 0.0, 10.00068, 9.998728 
2.9193774e+3, 1.6892141e+2, -1220204.6, -1327684.0, 87234.805, -0.07471969, 0.115448, -1171485.3, 113075.25, 0.0, 10.001462, 9.999756 
2.9189807e+3, 1.7890997e+2, -1201238.6, -1334047.6, 126176.445, 0.09580162, -0.26395753, -1125059.6, 61612.715, 0.0, 10.001109, 9.999303 
2.9185843e+3, 1.8890366e+2, -987377.5, -943248.2, 139013.95, 0.21172808, -0.16205017, -824558.7, 264174.94, 0.0, 10.001031, 10.001238 
2.9181883e+3, 1.9889794e+2, -1167478.4, -1206124.6, 159698.19, 0.37279922, -0.09098558, -1025938.56, -35149.344, 0.0, 9.999922, 9.99941 
2.917789e+3, 2.0888954e+2, -895118.9, -987690.6, 148586.3, 0.14275606, -0.07709533, -785776.1, 107096.12, 0.0, 10.001141, 9.999533 
2.9173887e+3, 2.1888041e+2, -799485.6, -1001056.2, 128529.19, -0.18608919, -0.20419155, -736938.6, 58023.73, 0.0, 10.0015135, 9.998673 
2.916992e+3, 2.2887246e+2, -614876.9, -705311.44, 141647.31, -0.24777469, -0.15861297, -511404.7, 185633.73, 0.0, 10.001581, 9.999892 
2.9165965e+3, 2.3886454e+2, -808022.56, -968437.25, 90790.234, -0.19447291, -0.1842779, -767085.0, -167970.52, 0.0, 10.000363, 9.998116 
2.9162008e+3, 2.4885757e+2, -507797.3, -720795.5, -3056.1797, -0.0295158, 0.08077421, -507753.47, -6560.6934, 0.0, 10.001683, 9.998376 
2.9158038e+3, 2.588507e+2, -300804.53, -553189.94, -89656.66, 0.112280846, 0.24323866, -272197.63, 131073.36, 0.0, 10.002209, 9.998708 
2.915403e+3, 2.6884308e+2, -58422.39, 971.6687, -20047.824, -0.04910596, 0.16548398, 7105.1963, 312446.94, 0.0, 10.001715, 10.001947 
2.9150015e+3, 2.7883488e+2, -446832.44, -464119.03, 103994.11, -0.24919286, -0.086605415, -351123.06, -143706.89, 0.0, 9.999618, 9.999233 
2.9146075e+3, 2.8882703e+2, -208592.94, -439809.44, 67957.11, 0.27053773, 0.101836234, -190098.86, -80599.56, 0.0, 10.001378, 9.997752 
2.9142022e+3, 2.9881966e+2, -2180.5508, -82296.8, -150872.31, -0.23283584, 0.23767981, 113861.0, 125440.555, 0.0, 10.001012, 9.999824 
2.9305685e+3, 1.393393e+2, -1681940.4, -1463358.9, 39942.625, 0.23116124, -0.03855586, -1456288.6, 118176.44, 0.0, 9.999045, 10.002055 
2.9301718e+3, 1.4932911e+2, -1705917.3, -1547442.9, -151587.61, 0.387473, -0.3969272, -1455632.3, 20929.406, 0.0, 9.998828, 10.000939 
2.9297677e+3, 1.593254e+2, -1769070.9, -1618352.1, -28993.03, -0.11257166, -0.13923159, -1612967.3, -234368.72, 0.0, 9.998046, 10.000216 
2.9293707e+3, 1.6931991e+2, -1396620.1, -1236501.5, 65986.65, 0.0025367322, -0.014225761, -1212812.4, 67842.195, 0.0, 9.999416, 10.001403 
2.9289743e+3, 1.7931308e+2, -1211626.9, -1239966.3, 165898.16, 0.08247679, -0.060930286, -1059294.4, 123429.29, 0.0, 10.000497, 10.000283 
2.9285768e+3, 1.8930574e+2, -917387.8, -989356.44, 118150.14, 0.0767487, -0.048413064, -829863.7, 254930.7, 0.0, 10.001769, 10.000606 
2.92818e+3, 1.992982e+2, -807171.5, -1054578.0, 113927.445, 0.09371571, -0.08181551, -762702.4, 224164.44, 0.0, 10.002394, 9.99928 
2.927783e+3, 2.0928964e+2, -624363.5, -916821.5, 108835.63, 0.060990665, -0.059848454, -588306.7, 300644.94, 0.0, 10.003209, 9.999053 
2.9273853e+3, 2.1928062e+2, -490337.75, -851951.9, 108403.234, -0.0771358, -0.11354615, -460331.0, 330709.78, 0.0, 10.003451, 9.998828 
2.926988e+3, 2.2927193e+2, -328686.94, -569512.25, 112989.7, -0.16043873, -0.15743333, -283975.75, 409145.78, 0.0, 10.003328, 10.000111 
2.9265904e+3, 2.3926343e+2, -394394.34, -718148.8, 109343.484, -0.23898742, -0.22736892, -360925.13, 234276.25, 0.0, 10.002757, 9.9987755 
2.9261938e+3, 2.4925576e+2, -423145.0, -718251.5, 108995.69, -0.1578699, -0.04329791, -387253.38, 110033.516, 0.0, 10.002261, 9.998199 
2.9257965e+3, 2.592482e+2, -317171.0, -523225.28, 67393.76, -0.045216806, 0.11456297, -297086.38, 102286.86, 0.0, 10.001716, 9.999238 
2.925397e+3, 2.692417e+2, -100820.55, -1629.9052, -40089.08, -0.030222012, 0.12218148, 12546.478, 313981.6, 0.0, 10.001207, 10.002236 
2.924996e+3, 2.7923518e+2, -156118.55, -243282.14, -94587.07, -0.070025936, 0.013987673, -95555.8, 107938.836, 0.0, 10.001043, 10.0001335 
2.9246017e+3, 2.892281e+2, -117224.9, -402841.3, 57362.08, 0.29686257, 0.2181632, -106135.11, -563.29, 0.0, 10.001785, 9.997949 
2.9241943e+3, 2.9922065e+2, 273988.94, 79646.74, -164169.44, -0.41903886, 0.37311172, 367589.5, 375245.84, 0.0, 10.0024395, 10.000366 
2.940563e+3, 1.3973708e+2, -1787411.0, -1671530.8, 115146.195, 0.4918484, 0.10113515, -1600568.9, -29999.156, 0.0, 9.99899, 10.000666 
2.9401657e+3, 1.497282e+2, -1533710.4, -1322782.1, -29501.814, 0.6639776, -0.17325439, -1318733.5, 153920.78, 0.0, 9.999486, 10.002137 
2.939761e+3, 1.5971985e+2, -1395301.8, -1293172.0, 40200.742, 0.13851815, -0.4958426, -1279246.6, 95484.914, 0.0, 10.000073, 10.001455 
2.939364e+3, 1.6971828e+2, -1184690.6, -936658.44, 106105.875, 0.13940951, -0.1302147, -897461.6, 379288.34, 0.0, 10.000125, 10.003067 
2.9389673e+3, 1.7971635e+2, -1337332.4, -1280661.9, 138703.55, 0.11325234, 0.16185786, -1167428.9, 11343.458, 0.0, 9.999639, 10.000368 
2.9385692e+3, 1.8970755e+2, -1022397.8, -1151542.6, 120660.555, -0.08383001, 0.09023819, -950117.9, 130739.695, 0.0, 10.001611, 9.999532 
2.9381722e+3, 1.9969767e+2, -885650.06, -1205314.1, 115054.21, -0.15736163, -0.08557266, -848546.2, 134406.53, 0.0, 10.002463, 9.998184 
2.9377776e+3, 2.0968945e+2, -721127.1, -987626.9, 109382.055, -0.020029087, 0.00021473799, -681982.25, 203052.81, 0.0, 10.00275, 9.99873 
2.9373825e+3, 2.19681e+2, -823087.44, -1083218.8, 96983.555, 0.10322423, 0.028539773, -790909.8, -3791.014, 0.0, 10.001571, 9.998135 
2.9369852e+3, 2.296716e+2, -478127.75, -571721.06, 100243.664, 0.02901221, -0.112870455, -414295.66, 274907.2, 0.0, 10.002183, 10.000526 
2.936587e+3, 2.3966205e+2, -621669.9, -825046.5, 87476.18, -0.07588837, -0.3580115, -589221.7, 2066.9128, 0.0, 10.0013685, 9.998633 
2.9361874e+3, 2.4965346e+2, -498037.84, -654439.75, 83391.586, -0.22617854, -0.3189801, -461916.7, 31461.52, 0.0, 10.001519, 9.998897 
2.935788e+3, 2.5964534e+2, -603448.6, -768956.8, 46722.984, -0.2804042, -0.27701017, -591169.7, -195703.9, 0.0, 10.000421, 9.998125 
2.935391e+3, 2.6963913e+2, -362761.06, -419196.78, -55667.566, 0.05948341, -0.033410273, -328567.97, -31033.648, 0.0, 10.000743, 9.99958 
2.934993e+3, 2.796331e+2, -398020.97, -422408.22, -69717.695, 0.278723, 0.10588761, -339438.6, -139839.45, 0.0, 9.9998045, 9.999473 
2.9345903e+3, 2.8962713e+2, 30745.834, 46378.133, 86155.01, -0.26476938, 0.20779817, 125070.81, 226729.58, 0.0, 10.001369, 10.001151 
2.9341897e+3, 2.996179e+2, -6473.669, -206133.4, -66535.76, -0.40744936, -0.033097357, 13667.332, 17422.523, 0.0, 10.001499, 9.99874 
2.95055e+3, 1.4013797e+2, -1927612.3, -1880119.4, -29123.848, -0.023248503, 0.051756877, -1866288.0, -299651.22, 0.0, 9.998557, 9.999494 
2.9501593e+3, 1.5013032e+2, -1439172.3, -1311267.1, 138316.17, 0.7293845, -0.051625, -1222834.3, 245879.11, 0.0, 10.000264, 10.001868 
2.9497555e+3, 1.6012199e+2, -1109175.0, -1244347.4, 105746.4, 0.11830215, -0.30256823, -1051261.4, 319529.16, 0.0, 10.002334, 10.0007515 
2.949357e+3, 1.7011751e+2, -1163398.3, -1109851.1, -4711.3765, 0.08393133, -0.09864625, -1109439.8, 163396.3, 0.0, 10.000939, 10.00155 
2.9489586e+3, 1.801131e+2, -1418820.3, -1358684.9, 49645.04, -0.03410153, 0.083243616, -1330712.1, -155831.16, 0.0, 9.999119, 10.000126 
2.9485646e+3, 1.901039e+2, -881336.7, -1045151.5, 144351.92, -0.015432127, -0.07561763, -797273.3, 279695.72, 0.0, 10.002288, 9.999982 
2.9481715e+3, 2.000942e+2, -483495.6, -953305.7, 93157.26, 0.051535834, -0.26521385, -465697.94, 513364.1, 0.0, 10.004827, 9.998818 
2.9477754e+3, 2.1008722e+2, -636420.4, -910250.3, 12609.255, 0.20443861, -0.09881606, -635841.0, 245291.86, 0.0, 10.003024, 9.999207 
2.947378e+3, 2.200799e+2, -908424.56, -1055543.9, 63074.414, 0.27042946, 0.022278724, -885085.3, -101878.63, 0.0, 10.000515, 9.998881 
2.94698e+3, 2.300704e+2, -660969.3, -698668.06, 87618.68, 0.114546545, -0.13432719, -590195.44, 95100.5, 0.0, 10.001017, 10.0002575 
2.9465815e+3, 2.4006088e+2, -469777.53, -659679.75, 19656.559, -0.0809459, -0.35211548, -467764.25, 119620.305, 0.0, 10.001862, 9.999569 
2.9461813e+3, 2.5005323e+2, -299655.56, -478439.13, 33475.902, -0.2662827, -0.31714705, -293593.03, 195866.83, 0.0, 10.002344, 9.999825 
2.9457814e+3, 2.6004544e+2, -197765.73, -535473.5, 9444.223, -0.37125844, -0.28989735, -197501.83, 194037.08, 0.0, 10.002823, 9.998656 
2.9453844e+3, 2.7003783e+2, -85198.2, -414955.4, -11528.005, -0.03154921, -0.12748356, -84795.69, 208828.23, 0.0, 10.003057, 9.998563 
2.9449862e+3, 2.8003094e+2, 87185.586, -154522.83, 44178.676, 0.19508821, 0.036711168, 95007.305, 290708.56, 0.0, 10.0028305, 9.999903 
2.944583e+3, 2.9002562e+2, 87955.375, 166322.94, 78044.53, -0.36326432, 0.12123346, 214467.94, 312218.4, 0.0, 10.001179, 10.002177 
2.944189e+3, 3.0001622e+2, -34502.21, -353167.9, -42206.066, 0.10019308, -0.13880453, -29006.94, -29006.94, 0.0, 10.001534, 9.997822 
2.960541e+3, 1.4053741e+2, -1826279.3, -1940032.6, -170982.78, -0.060342085, -0.11298538, -1702961.4, -140244.02, 0.00000000001490612, 9.999805, 9.998467 
2.9601523e+3, 1.5053153e+2, -1356830.1, -1327951.1, 149493.25, 0.7621532, 0.011902072, -1192201.6, 272578.7, 0.0, 10.001143, 10.001312 
2.9597506e+3, 1.6052394e+2, -1429424.3, -1556341.9, 32355.309, 0.2056487, -0.08953493, -1421651.9, -54800.145, 0.0, 10.000857, 9.999308 
2.9593498e+3, 1.7051582e+2, -1298588.5, -1377583.5, -82275.766, 0.066054165, -0.08575402, -1246820.8, 22110.059, 0.0, 10.0009365, 9.999686 
2.9589498e+3, 1.8050769e+2, -1333933.1, -1385548.6, 140458.75, -0.06575852, -0.13030577, -1216930.8, -45920.78, 0.0, 10.000075, 9.999467 
2.9585612e+3, 1.9049875e+2, -942367.1, -975223.25, 282983.22, 0.15037961, -0.31889188, -675335.56, 397759.1, 0.0, 10.001572, 10.000746 
2.9581726e+3, 2.0048988e+2, -890145.06, -1141029.3, 82953.41, 0.49664614, -0.48857304, -865197.75, 109981.12, 0.0, 10.002114, 9.998816 
2.9577738e+3, 2.104843e+2, -741155.7, -869288.44, -64964.824, 0.5540983, -0.23675425, -713981.0, 163254.58, 0.0, 10.002075, 9.999865 
2.9573727e+3, 2.2047819e+2, -1013189.9, -1154719.4, 65426.805, 0.49336255, -0.053904254, -987578.7, -208279.95, 0.0, 10.0001955, 9.998292 
2.9569736e+3, 2.304686e+2, -752374.06, -822488.25, 141674.75, 0.16267365, -0.15509316, -641483.44, 39913.613, 0.0, 10.000827, 9.999451 
2.956575e+3, 2.4045959e+2, -718364.56, -798277.6, 55459.418, -0.1278959, -0.28246963, -689967.1, -106479.445, 0.0, 10.000357, 9.999334 
2.9561758e+3, 2.5045416e+2, -321219.03, -342075.63, 55105.664, -0.2749221, -0.12688437, -275563.63, 209973.06, 0.0, 10.001678, 10.0010195 
2.9557765e+3, 2.6044792e+2, -423403.28, -650429.9, 29602.256, -0.37174466, -0.053512502, -419606.9, -32011.504, 0.0, 10.00146, 9.998471 
2.955376e+3, 2.7043793e+2, -201406.9, -450960.03, -9639.441, -0.39159125, -0.13541165, -201035.13, 88667.0, 0.0, 10.002308, 9.9985895 
2.9549754e+3, 2.804288e+2, -191505.77, -400245.16, -2834.6902, -0.38659862, -0.19291268, -191467.28, 332.71536, 0.0, 10.001561, 9.998778 
2.954581e+3, 2.904243e+2, -93332.016, -55450.83, -2414.7485, 0.11840484, 0.06028357, -55297.52, 38543.293, 0.0, 10.000682, 10.000799 
2.954186e+3, 3.004142e+2, -214918.48, -483509.47, 257151.05, 0.31957054, -0.1735999, -59107.195, -59107.195, 0.0, 10.000692, 9.99728 
2.970538e+3, 1.409328e+2, -1654832.0, -1958987.4, -28227.576, 0.2284137, -0.3843159, -1652234.5, -93398.36, 0.00000010737005, 10.001384, 9.997587 
2.9701436e+3, 1.5092751e+2, -1348169.9, -1412803.9, 5721.248, 0.46567035, -0.13341399, -1347667.4, 113228.13, 0.0, 10.001552, 10.000543 
2.969745e+3, 1.609207e+2, -1546193.8, -1565473.1, -48800.51, 0.33603466, -0.105465, -1506090.0, -143128.16, 0.0, 9.999786, 9.999775 
2.969345e+3, 1.7091262e+2, -1089449.6, -1146081.0, -22519.367, 0.18913932, -0.21672474, -1081586.6, 183452.92, 0.0, 10.001753, 10.00091 
2.9689452e+3, 1.8090428e+2, -899915.56, -1188376.3, 190548.34, -0.0779195, -0.34177405, -805166.7, 361954.66, 0.0, 10.00301, 9.999433 
2.9685527e+3, 1.9089678e+2, -1093146.9, -1181136.5, 217354.92, -0.06939487, -0.28710946, -915378.94, 153821.13, 0.0, 10.0009775, 9.999685 
2.9681614e+3, 2.0088924e+2, -1254903.5, -1173654.9, 33601.34, 0.052017897, -0.27298972, -1161559.3, -190282.72, 0.0, 9.998816, 10.000237 
2.9677647e+3, 2.1088307e+2, -646343.25, -606310.8, 2210.1165, 0.23503143, -0.27391624, -606189.2, 267141.97, 0.0, 10.00169, 10.001908 
2.9673666e+3, 2.2087705e+2, -365028.56, -734801.4, 128701.08, 0.29676422, -0.22682343, -324644.13, 450742.56, 0.0, 10.00402, 9.999386 
2.966968e+3, 2.3086956e+2, -501905.6, -792019.0, 178732.72, 0.15203026, -0.07807985, -416773.6, 260695.03, 0.0, 10.00275, 9.998831 
2.9665694e+3, 2.4086182e+2, -555921.4, -674077.8, 113972.625, -0.04441936, -0.008646202, -486625.16, 92925.88, 0.0, 10.001099, 9.99987 
2.9661703e+3, 2.508552e+2, -418630.28, -343987.75, 95175.836, -0.19525675, -0.007387903, -279077.34, 202531.81, 0.0, 10.000691, 10.00153 
2.9657704e+3, 2.6084828e+2, -529866.75, -660614.06, -649.2404, -0.31297255, -0.011329664, -529863.5, -146191.72, 0.0, 10.000367, 9.998959 
2.9653698e+3, 2.7083826e+2, -519994.0, -670999.1, -50368.39, -0.35482964, -0.07553812, -504735.28, -218956.16, 0.0, 10.000213, 9.998192 
2.9649693e+3, 2.8082868e+2, -315979.56, -480206.56, -41385.605, -0.37597308, -0.11664025, -306139.84, -118258.56, 0.0, 10.000563, 9.998791 
2.9645768e+3, 2.908241e+2, 308782.84, 52350.777, -20874.504, 0.27073368, 0.18043664, 310471.0, 400393.9, 0.0, 10.003689, 10.000177 
2.9641792e+3, 3.008139e+2, 64187.14, -139757.02, 190330.28, 0.21795347, -0.018176861, 178140.8, 178140.8, 0.0, 10.001547, 9.9992895 
2.9805318e+3, 1.4132996e+2, -1688872.1, -2012867.4, 46833.03, 0.14227332, -0.37486872, -1682238.4, -127299.195, 0.00000019973128, 10.001321, 9.997276 
2.980135e+3, 1.5132333e+2, -1415369.3, -1486750.3, -85427.51, 0.2339169, -0.22023104, -1358476.4, 98536.2, 0.000000000008976791, 10.001318, 10.000159 
2.9797396e+3, 1.6131693e+2, -1494860.4, -1458719.4, -18013.166, 0.5444656, -0.16120212, -1451274.9, -92198.15, 0.0, 9.999832, 10.000521 
2.9793406e+3, 1.7131017e+2, -1162702.9, -986225.25, 53904.754, 0.37467605, -0.295214, -971062.8, 290078.53, 0.0, 10.000486, 10.002619 
2.9789415e+3, 1.8130279e+2, -1328164.5, -1494440.1, 195229.31, 0.0524638, -0.41450503, -1199108.1, -35892.875, 0.0, 10.000571, 9.998527 
2.978544e+3, 1.9129674e+2, -1172999.9, -1379437.6, 183382.23, -0.2973328, -0.06866733, -1065783.0, -493.61978, 0.0, 10.001205, 9.998205 
2.9781476e+3, 2.0129071e+2, -1007680.5, -954036.2, 121224.63, -0.463899, 0.15171583, -856701.8, 110655.82, 0.0, 10.000188, 10.001073 
2.9777545e+3, 2.1128254e+2, -536308.5, -321184.28, 111228.125, -0.1926178, -0.25425065, -274016.63, 595405.44, 0.0, 10.001434, 10.004003 
2.9773605e+3, 2.21276e+2, -757343.0, -906654.7, 92397.75, 0.12033744, -0.43309712, -713209.8, 58264.63, 0.0, 10.001361, 9.999485 
2.9769632e+3, 2.3127234e+2, -717719.3, -919354.5, 97992.42, 0.19298418, 0.10258394, -677942.8, -4421.2993, 0.0, 10.001546, 9.998474 
2.9765648e+3, 2.412664e+2, -818115.4, -895027.8, 91906.82, 0.16616352, 0.40654644, -756943.56, -181355.2, 0.0, 9.999876, 9.9989195 
2.9761642e+3, 2.5125644e+2, -548764.44, -399520.16, 72163.6, -0.06585141, 0.09249156, -370334.56, 107343.31, 0.0, 9.999964, 10.00144 
2.9757643e+3, 2.61247e+2, -858105.44, -969650.56, -14549.955, -0.18456563, -0.10843316, -856238.75, -476474.2, 0.0, 9.998929, 9.997514 
2.9753664e+3, 2.7123868e+2, -644739.75, -788816.7, -64428.848, 0.06172064, 0.065729044, -620131.4, -338274.7, 0.0, 9.999777, 9.997536 
2.974967e+3, 2.8123027e+2, -589891.2, -729466.94, 34447.87, 0.102230325, 0.19692455, -581852.3, -397904.6, 0.0, 9.999386, 9.997623 
2.9745686e+3, 2.9122394e+2, 166862.4, -63185.82, 88256.91, -0.18085164, 0.37941003, 196820.45, 282828.7, 0.0, 10.003102, 9.999627 
2.9741722e+3, 3.0121455e+2, 109994.555, 428744.5, -346294.97, 0.14300449, 0.13543208, 650578.94, 650578.94, 0.0, 9.999825, 10.003961 
2.9905188e+3, 1.4173004e+2, -1669120.6, -1700366.0, -65115.188, -0.64968383, 0.21648288, -1617780.1, -66759.57, 0.000000019519112, 10.000156, 10.00005 
2.9901248e+3, 1.5171848e+2, -1398505.6, -1267874.9, -140696.13, -0.16086012, -0.34365684, -1178072.5, 275065.53, 0.0, 10.000544, 10.002096 
2.9897282e+3, 1.6171093e+2, -1472264.9, -1342411.0, -24240.04, 0.091393664, -0.54122084, -1338033.6, 17179.174, 0.0, 9.999488, 10.001515 
2.9893324e+3, 1.7171018e+2, -1475159.8, -1083307.3, -10694.43, 0.37340945, -0.11930327, -1083015.6, 174207.08, 0.0, 9.998085, 10.003139 
2.9889366e+3, 1.8170899e+2, -1605644.9, -1400899.8, 251300.56, 0.3429806, 0.2989353, -1231919.9, -72682.5, 0.0, 9.9976635, 10.000577 
2.9885438e+3, 1.9170406e+2, -805171.7, -980197.1, 423998.34, 0.18517762, 0.5693805, -459749.0, 601542.7, 0.0, 10.002779, 10.000219 
2.988152e+3, 2.0169759e+2, -374362.66, -737505.8, 230235.55, 0.27175793, 0.68806386, -262716.47, 700643.7, 0.0, 10.00485, 10.000332 
2.987759e+3, 2.1168676e+2, -733295.5, -674162.2, 460.94443, 0.8655329, 0.24954525, -674158.6, 191303.64, 0.0, 10.001145, 10.001756 
2.987362e+3, 2.2167596e+2, -1078596.3, -946578.9, -45291.29, 1.0070158, -0.21091278, -932534.8, -164970.38, 0.0, 9.998495, 10.000641 
2.9869565e+3, 2.3166882e+2, -568989.25, -593460.7, 105074.414, 0.13884817, -0.23358765, -475440.53, 194198.08, 0.0, 10.001327, 10.000913 
2.9865536e+3, 2.4166231e+2, -256458.3, -637865.7, 102281.375, -0.45856962, -0.13092522, -230761.02, 340945.3, 0.0, 10.003626, 9.998951 
2.9861546e+3, 2.5165123e+2, -369422.2, -608419.75, -54080.836, -0.3952074, -0.33737576, -357754.3, 116058.77, 0.0, 10.002365, 9.998929 
2.9857564e+3, 2.6164043e+2, -433070.34, -687441.25, -142238.45, -0.27886787, -0.5145126, -369447.2, 6469.406, 0.0, 10.00132, 9.998387 
2.985361e+3, 2.716342e+2, 136210.94, -247205.52, -6246.8706, 0.06929573, -0.25235814, 136312.69, 414292.7, 0.0, 10.004353, 9.999173 
2.9849628e+3, 2.8162766e+2, 416005.44, -207802.75, 130316.37, 0.12172729, -0.0055193673, 442134.66, 622183.7, 0.0, 10.005961, 9.99818 
2.984559e+3, 2.9161435e+2, -316266.66, -419435.22, 107349.06, -0.55043423, -0.42789695, -248751.16, -166564.23, 0.0, 10.000161, 9.998824 
2.9841664e+3, 3.0160758e+2, 208565.34, 631097.44, -463766.4, 0.39335018, -0.35104084, 929451.44, 929451.44, 0.0, 9.999508, 10.005783 
3.000521e+3, 1.4211777e+2, -1511315.5, -1615545.9, -37786.574, 0.20753698, -0.62697273, -1499058.1, 48163.625, 0.0, 10.000975, 10.0003 
3.000123e+3, 1.5211713e+2, -1362054.9, -1007021.9, 48573.96, 0.46055245, -0.29098698, -1000496.2, 448733.4, 0.0, 9.999763, 10.004173 
2.9997203e+3, 1.6211617e+2, -1675784.6, -1648270.8, 27784.627, 0.110783175, 0.0901011, -1631023.9, -279783.06, 0.0, 9.998861, 9.999675 
2.9993194e+3, 1.7210765e+2, -1513431.6, -1374965.4, -351048.06, 0.056231406, -0.06656319, -1086388.5, 166944.84, 0.0, 9.998962, 10.000577 
2.9989243e+3, 1.821008e+2, -1399306.5, -1273165.9, -184044.56, 0.024714738, -0.16121584, -1141684.8, 13719.821, 0.0, 9.998848, 10.000866 
2.9985362e+3, 1.9209267e+2, -1156534.1, -888181.2, -38962.316, -0.076176256, -0.5370162, -882638.7, 174837.5, 0.0, 9.99917, 10.002497 
2.9981437e+3, 2.0208432e+2, -1198018.5, -1460396.0, -324531.13, -0.22779562, -0.70933014, -979163.06, -19607.268, 0.0, 10.000525, 9.9974165 
2.9977423e+3, 2.1208072e+2, -1060257.3, -1151262.3, -244505.48, -0.13701212, -0.20260079, -857056.25, 4548.9136, 0.0, 10.000335, 9.998712 
2.9973465e+3, 2.2207591e+2, -940864.9, -916076.8, 37729.31, 0.30975896, 0.14869654, -888758.0, -125097.68, 0.0, 9.999606, 10.000251 
2.9969507e+3, 2.3206916e+2, -232605.56, -114469.71, 42996.53, 0.16934341, -0.09942445, -100477.93, 565240.06, 0.0, 10.002347, 10.003538 
2.996551e+3, 2.4206698e+2, -421621.03, -944353.6, -32185.361, -0.2913924, 0.24560754, -419646.8, 148089.08, 0.0, 10.003517, 9.996805 
2.9961544e+3, 2.5205663e+2, -263331.6, -1002195.75, 197584.1, 0.14132318, 0.4127371, -213813.16, 256033.6, 0.0, 10.005091, 9.994721 
2.9957527e+3, 2.620394e+2, -434609.0, -677609.75, -56072.766, -0.055493098, -0.1691747, -422294.22, -50275.4, 0.0, 10.001329, 9.998346 
2.9953519e+3, 2.720352e+2, 269698.97, 198666.66, -29777.688, -0.46815163, -0.04178331, 280530.5, 554577.2, 0.0, 10.003847, 10.002228 
2.9949567e+3, 2.8202873e+2, -412200.06, -737082.94, 51482.53, -0.3035164, 0.014037115, -404237.06, -228130.13, 0.0, 10.000934, 9.996857 
2.9945502e+3, 2.920219e+2, -715516.25, -808045.9, 22731.72, -0.5468334, 0.37867767, -710233.4, -632033.94, 0.0, 9.998563, 9.996681 
2.9941633e+3, 3.0201104e+2, 28592.361, 77842.51, -181753.77, 0.86972934, 0.28878564, 236631.78, 236631.78, 0.0, 10.00061, 10.001221 
