coord_x,coord_y,stress_xx,stress_yy,tau_xy,velocity_x,velocity_y,stress_1,eps,damage,lx,ly
4.9992925e+0, 1.248829e+2, -1941205.0, -1608363.0, 55566.617, 0.05386947, 0.56698585, -1599331.4, 116861.73, 0.002661235, 9.997456, 10.001955 
4.998839e+0, 1.3488251e+2, -1867140.8, -1632188.9, 39107.785, -0.0071492926, 0.39767525, -1625850.4, -7655.978, 0.0015827751, 9.997795, 10.000947 
4.9988967e+0, 1.4488405e+2, -1768760.6, -1606629.0, 57531.105, -0.017327312, 0.4938524, -1588289.1, -68110.59, 0.0007101352, 9.998116, 10.000291 
4.9995512e+0, 1.548839e+2, -1629712.0, -1490006.1, 99545.234, 0.033634707, 0.4239192, -1438250.4, -16069.288, 0.00020845665, 9.998404, 10.000278 
4.9995404e+0, 1.6488431e+2, -1448482.5, -1211488.3, 90158.086, 0.03442375, 0.37703463, -1181089.3, 143087.92, 0.000030560015, 9.998369, 10.001536 
4.9988526e+0, 1.7488484e+2, -1407238.6, -1143026.4, 33643.14, -0.015422059, 0.25264624, -1138809.8, 87360.88, 0.0000010193884, 9.997991, 10.001514 
4.998901e+0, 1.8488674e+2, -1252754.9, -957145.6, -2762.9656, -0.017403122, 0.2660996, -957119.8, 171028.72, 0.0, 9.998122, 10.002055 
4.999706e+0, 1.9489016e+2, -1065201.4, -823515.06, -70193.01, 0.031061325, 0.3812402, -804608.0, 225501.0, 0.0, 9.998768, 10.00199 
4.9998674e+0, 2.0489118e+2, -1136285.4, -1164574.9, -89222.46, 0.028027488, 0.44697824, -1060093.5, -127993.875, 0.0, 9.99915, 9.99879 
4.9993473e+0, 2.1488962e+2, -1025572.9, -1067213.5, -55016.754, -0.029871795, 0.39317372, -987568.6, -153446.16, 0.0, 9.999268, 9.998727 
4.9994254e+0, 2.2488919e+2, -816390.1, -755695.75, -39808.992, -0.025896978, 0.40993243, -735985.9, 141.37698, 0.0, 9.999343, 10.000155 
5.000141e+0, 2.3488992e+2, -714504.75, -660568.9, -56986.0, 0.043528076, 0.44339567, -624491.8, 13621.367, 0.0, 9.999389, 10.000115 
5.0003904e+0, 2.4488892e+2, -743652.06, -939385.75, -14429.84, 0.04461473, 0.47271153, -742594.0, -202469.94, 0.0, 9.999869, 9.9973 
5.0001824e+0, 2.548859e+2, -513897.4, -791203.3, 40387.37, -0.02428633, 0.4260381, -508135.06, -65972.65, 0.0, 10.000832, 9.997181 
5.0002e+0, 2.6488397e+2, -234421.48, -344702.38, 33915.203, -0.028787663, 0.40467706, -224826.23, 119355.45, 0.000000019594776, 10.000957, 9.999511 
5.000442e+0, 2.7488345e+2, -246920.55, -299052.53, 10058.714, 0.033419743, 0.37450132, -245047.08, 1131.2328, 0.00000061394036, 10.000195, 9.999517 
5.000574e+0, 2.8488326e+2, -270051.88, -445184.38, 22088.139, 0.04786422, 0.4886466, -267309.03, -119131.695, 0.000004739669, 10.000166, 9.997851 
5.000569e+0, 2.948826e+2, -73517.57, -315159.3, 4165.6, 0.010552883, 0.6180991, -73445.79, -23258.459, 0.00003407196, 10.000902, 9.997719 
5.0005823e+0, 3.048753e+2, -143434.8, -548972.2, 27744.49, 0.0042449506, 0.22044241, -141545.48, -141545.48, 0.00018243087, 10.001055, 9.99571 
5.0005776e+0, 3.1486994e+2, 49186.824, -41243.75, 122280.59, 0.026540773, 0.0832906, 134343.94, 134343.94, 0.0005320596, 10.000569, 9.999434 
1.4997834e+1, 1.2488146e+2, -1970764.3, -1646756.9, 54060.46, 0.15719365, 0.2965657, -1637975.0, 78224.02, 0.0025654268, 9.99737, 10.001739 
1.4996509e+1, 1.3488258e+2, -1891506.0, -1671989.9, 53947.992, -0.022466432, 0.31752455, -1659448.3, -41259.63, 0.001528762, 9.997761, 10.000696 
1.4996701e+1, 1.4488514e+2, -1687732.9, -1425361.6, 65768.484, -0.050092142, 0.46418422, -1409798.6, 110364.63, 0.0006838554, 9.998063, 10.001568 
1.499864e+1, 1.548858e+2, -1547150.3, -1305163.0, 115039.875, 0.09983144, 0.35901338, -1259202.8, 162952.13, 0.00019662829, 9.998351, 10.001577 
1.4998645e+1, 1.6488706e+2, -1549330.3, -1406743.8, 72420.75, 0.10582512, 0.3961499, -1376412.8, -52268.42, 0.00002664921, 9.998313, 10.000231 
1.4996575e+1, 1.7488866e+2, -1508796.6, -1343112.8, 23158.504, -0.045473155, 0.52502155, -1339936.6, -113802.29, 0.00000066228677, 9.997948, 10.000169 
1.4996684e+1, 1.8488926e+2, -1379910.1, -1201452.8, 18521.885, -0.053235482, 0.55713844, -1199550.6, -71420.35, 0.0, 9.998049, 10.000415 
1.499911e+1, 1.9488887e+2, -1189603.1, -1066040.8, -40693.48, 0.09295177, 0.46785194, -1053843.0, -23711.453, 0.0, 9.998708, 10.000358 
1.4999592e+1, 2.0488842e+2, -1073849.0, -1017561.6, -87050.36, 0.08321215, 0.41496396, -954218.5, -22083.13, 0.0, 9.9990835, 9.999832 
1.4998029e+1, 2.1488789e+2, -964004.0, -921014.44, -45613.793, -0.09049572, 0.37000588, -892084.56, -57943.07, 0.0, 9.999197, 9.999766 
1.4998265e+1, 2.2488758e+2, -847438.8, -800238.25, -41758.992, -0.078136824, 0.35689467, -775872.0, -39728.64, 0.0, 9.999269, 9.999888 
1.5000404e+1, 2.348875e+2, -745266.5, -705862.6, -51243.73, 0.1299384, 0.35077927, -670663.9, -32523.736, 0.0, 9.999321, 9.999839 
1.5001184e+1, 2.4488692e+2, -642879.0, -719007.2, 17941.77, 0.13470691, 0.36171478, -638862.44, -98717.63, 0.0, 9.999823, 9.998842 
1.5000549e+1, 2.5488576e+2, -409244.63, -559776.2, 80060.39, -0.07273936, 0.34976366, -374625.9, 67532.34, 0.0, 10.000774, 9.998803 
1.5000603e+1, 2.648844e+2, -270876.4, -409356.4, 2264.908, -0.08659407, 0.32197204, -270839.38, 73330.88, 0.0000000045160005, 10.000914, 9.999092 
1.500134e+1, 2.7488306e+2, -289995.2, -375999.9, -15937.323, 0.10088915, 0.2680103, -287136.88, -40957.94, 0.00000044568839, 10.000143, 9.999019 
1.5001701e+1, 2.8488216e+2, -304660.56, -502404.6, 46382.555, 0.14231655, 0.35619423, -294321.72, -146133.69, 0.000003862279, 10.000112, 9.997488 
1.5001708e+1, 2.9488117e+2, -103502.12, -363688.38, 37091.844, 0.031099407, 0.49694827, -98317.65, -48114.277, 0.000030142082, 10.000847, 9.9974165 
1.5001741e+1, 3.048764e+2, 38784.152, -156019.3, 8178.434, 0.012291006, 0.2287789, 39126.902, 39126.902, 0.0001696507, 10.00101, 9.998432 
1.5001714e+1, 3.1487644e+2, 201834.58, 305583.63, 117103.77, 0.07875504, 0.37886488, 381788.22, 381788.22, 0.00050278765, 10.00046, 10.001874 
2.4995922e+1, 1.2488188e+2, -1768467.4, -1571596.4, 8885.063, 0.15694384, 0.27569732, -1571196.1, 144995.88, 0.0024531346, 9.998873, 10.00152 
2.4994473e+1, 1.3488281e+2, -1873980.4, -1691410.5, 3056.818, -0.012297001, 0.29781246, -1691359.4, -73175.016, 0.001461298, 9.99801, 10.0004425 
2.4994655e+1, 1.4488521e+2, -1736541.9, -1430278.1, 6294.1904, -0.038202316, 0.43660003, -1430148.9, 90011.81, 0.0006489441, 9.997654, 10.001722 
2.4996902e+1, 1.5488616e+2, -1611251.4, -1320702.3, -32003.459, 0.11801958, 0.33910358, -1317219.0, 104930.86, 0.0001814002, 9.9978485, 10.001707 
2.4997199e+1, 1.6488762e+2, -1548553.3, -1427564.3, -62495.52, 0.12668875, 0.39949486, -1401080.1, -76942.72, 0.000022322774, 9.998422, 10.000023 
2.4995452e+1, 1.7488934e+2, -1316361.1, -1272279.4, -29312.904, -0.021749036, 0.5595116, -1257645.4, -31519.457, 0.00000035252413, 9.999377, 9.999955 
2.4995601e+1, 1.8488947e+2, -1188419.9, -1190028.5, 50265.348, -0.046968266, 0.591071, -1138952.4, -10824.481, 0.0, 9.999705, 9.999693 
2.4997786e+1, 1.9488801e+2, -1145899.4, -1123457.4, 57781.71, 0.059606157, 0.4609283, -1075817.3, -45674.438, 0.0, 9.999345, 9.999649 
2.4998558e+1, 2.0488746e+2, -1035093.5, -949682.06, 31242.516, 0.070100166, 0.41341135, -939474.0, -7326.4277, 0.0, 9.999136, 10.000274 
2.4997821e+1, 2.1488784e+2, -955057.25, -866751.0, 24044.7, -0.02107285, 0.4113317, -860628.44, -26486.621, 0.0, 9.999042, 10.000215 
2.4998407e+1, 2.2488755e+2, -883321.25, -869932.94, 21993.271, 0.012686916, 0.40054706, -853637.6, -117493.81, 0.0, 9.999233, 9.999428 
2.5000376e+1, 2.3488659e+2, -720028.3, -749823.4, -2281.1243, 0.17648125, 0.34817538, -719854.7, -81701.52, 0.0, 9.9997225, 9.999344 
2.5001186e+1, 2.4488616e+2, -613283.3, -601326.25, 42517.082, 0.16608934, 0.35376614, -564369.44, -24213.518, 0.0, 9.999588, 9.999753 
2.5000772e+1, 2.5488624e+2, -626363.75, -561077.44, 51122.15, -0.030003076, 0.37116665, -533065.44, -90913.29, 0.0, 9.998843, 9.999715 
2.5001013e+1, 2.6488522e+2, -563721.4, -581788.1, -32156.97, -0.041851435, 0.34450436, -539353.06, -195193.08, 0.00000000030772893, 9.9990425, 9.998804 
2.5001925e+1, 2.7488324e+2, -293173.53, -410618.66, -40256.375, 0.14031929, 0.25601518, -280699.78, -34522.008, 0.00000033210142, 10.000271, 9.998713 
2.500249e+1, 2.8488198e+2, -158317.36, -383318.75, 76345.95, 0.17365606, 0.30261585, -134858.1, 13332.292, 0.0000031221457, 10.000898, 9.99793 
2.5002715e+1, 2.9488102e+2, -71051.99, -293372.4, 124154.13, 0.049812607, 0.39640105, -15566.349, 34636.12, 0.000025684236, 10.00084, 9.997902 
2.5002733e+1, 3.0487755e+2, 22285.756, -84929.37, 32618.143, 0.035683367, 0.2004788, 31429.4, 31429.4, 0.0001534223, 10.000557, 9.999142 
2.5002462e+1, 3.148798e+2, 154066.72, 303924.13, -22941.047, 0.13372113, 0.49904877, 307357.4, 307357.4, 0.00046499635, 10.000039, 10.002064 
3.499347e+1, 1.2488412e+2, -1789889.0, -1604941.5, -40236.84, 0.0021160224, 0.48590443, -1596566.8, 119605.79, 0.0023328552, 9.998827, 10.001314 
3.4992626e+1, 1.3488318e+2, -1884307.0, -1710234.8, -27115.81, -0.009031906, 0.3429894, -1706108.8, -87927.4, 0.001385082, 9.998006, 10.000312 
3.4992668e+1, 1.4488427e+2, -1804383.9, -1562311.6, 9017.423, -0.014883502, 0.40071532, -1561976.1, -41804.98, 0.00060841354, 9.997618, 10.0008335 
3.4994206e+1, 1.5488502e+2, -1680383.6, -1452774.0, -20603.027, 0.051318, 0.37440798, -1450924.1, -28758.348, 0.00016439817, 9.997808, 10.000816 
3.499511e+1, 1.6488598e+2, -1484234.4, -1288030.0, -30591.615, 0.06310861, 0.382461, -1283370.9, 40785.492, 0.000017966355, 9.99839, 10.000999 
3.4995377e+1, 1.7488684e+2, -1248061.4, -1128087.3, 10163.709, 0.021615064, 0.35574248, -1127232.4, 98913.82, 0.00000014192928, 9.999366, 10.000953 
3.4995568e+1, 1.848873e+2, -1172739.0, -1147424.9, 33978.703, -0.03162534, 0.3562907, -1123822.4, 4319.698, 0.0, 9.999664, 10.000005 
3.499564e+1, 1.948875e+2, -1132428.9, -1084212.0, 48075.875, -0.10128316, 0.36465147, -1054538.4, -24395.334, 0.0, 9.999296, 9.999943 
3.499665e+1, 2.0488822e+2, -1048798.8, -960866.3, 22503.54, -0.042904604, 0.4325912, -955441.9, -23305.13, 0.0, 9.999067, 10.000229 
3.499862e+1, 2.1488945e+2, -966016.5, -874720.44, 24788.342, 0.14533155, 0.5200103, -868424.2, -34300.508, 0.0, 9.998982, 10.000188 
3.4999743e+1, 2.2488908e+2, -930526.4, -950963.56, 36701.207, 0.21231028, 0.53088415, -902647.75, -166518.84, 0.0, 9.9991665, 9.998902 
3.4999952e+1, 2.3488721e+2, -765507.0, -829022.5, 20552.867, 0.15267244, 0.44380954, -759436.5, -121284.65, 0.0, 9.999663, 9.998828 
3.5000306e+1, 2.4488662e+2, -596133.0, -558398.8, 10578.306, 0.1076629, 0.44589776, -555635.7, -15478.69, 0.0, 9.999557, 10.000065 
3.500077e+1, 2.5488734e+2, -611817.8, -518844.47, 25463.39, 0.07508045, 0.49743813, -512327.4, -70183.305, 0.0, 9.998793, 10.00003 
3.5001358e+1, 2.648864e+2, -571330.0, -592436.06, 9020.515, 0.07799536, 0.46828634, -568000.1, -223849.5, 0.00000000006499392, 9.999022, 9.998741 
3.5002068e+1, 2.74884e+2, -300800.13, -417825.2, 10194.64, 0.11575362, 0.3404172, -299918.66, -53743.47, 0.00000028362408, 10.000235, 9.998681 
3.5002828e+1, 2.8488275e+2, -68143.9, -188995.2, 70132.62, 0.106112495, 0.32143974, -35996.105, 112188.75, 0.0000026203563, 10.0008745, 9.999273 
3.5003483e+1, 2.9488218e+2, 20510.744, -95957.07, 125186.33, 0.03139531, 0.32214257, 100344.95, 150529.56, 0.000020827198, 10.00081, 9.999272 
3.5003442e+1, 3.0487874e+2, -64259.69, -262437.97, 11149.637, 0.04081034, 0.12261546, -63634.38, -63634.38, 0.0001336939, 10.000548, 9.997926 
3.5002658e+1, 3.148801e+2, 11202.009, 9752.673, -31779.604, 0.12587218, 0.45794594, 42265.207, 42265.207, 0.000419702, 10.000024, 10.000051 
4.4991577e+1, 1.24883525e+2, -2003648.1, -1688656.5, -84547.195, 0.016762462, 0.48573488, -1667397.9, 48781.773, 0.0022111118, 9.997282, 10.001486 
4.4991198e+1, 1.3488272e+2, -1858022.4, -1680104.4, -60172.547, 0.048156355, 0.3424011, -1661664.9, -43479.297, 0.0013064536, 9.998113, 10.000472 
4.499128e+1, 1.4488348e+2, -1698121.4, -1564549.0, 16432.178, 0.042178106, 0.38286033, -1562557.3, -42378.395, 0.00056747237, 9.998578, 10.000362 
4.4992572e+1, 1.5488413e+2, -1591142.8, -1467354.1, 7053.1045, 0.07001143, 0.3973672, -1466953.5, -44777.355, 0.00014805637, 9.998659, 10.000318 
4.4993547e+1, 1.6488484e+2, -1463695.1, -1243274.4, -1212.6022, 0.07275403, 0.39086285, -1243267.8, 80901.07, 0.000013959289, 9.9983835, 10.001312 
4.4994214e+1, 1.748853e+2, -1457599.9, -1193436.5, -20369.441, 0.051752295, 0.2935904, -1191875.1, 34284.848, 0.000000037538413, 9.99777, 10.001277 
4.499465e+1, 1.8488592e+2, -1402603.0, -1224700.9, -10647.157, -0.0006265092, 0.27962756, -1224065.9, -95912.92, 0.0, 9.997943, 10.000307 
4.4994745e+1, 1.9488695e+2, -1171628.9, -1069100.9, -2646.836, -0.09563569, 0.340773, -1069032.5, -38886.63, 0.0, 9.998886, 10.000246 
4.4995904e+1, 2.0488793e+2, -1011885.06, -943338.7, -31859.295, -0.032442823, 0.41832593, -930818.0, 1319.166, 0.0, 9.999317, 10.00023 
4.4998223e+1, 2.148888e+2, -936977.44, -862222.0, -34278.094, 0.20197691, 0.4706704, -848884.0, -14756.629, 0.0, 9.999182, 10.000179 
4.49994e+1, 2.2488853e+2, -900766.2, -951516.94, 28913.455, 0.25178578, 0.50018525, -887672.1, -151539.38, 0.0, 9.999443, 9.998763 
4.499935e+1, 2.3488723e+2, -704928.94, -814685.2, 35369.96, 0.105152234, 0.4838647, -694518.2, -56365.273, 0.0, 10.000149, 9.998692 
4.4999763e+1, 2.4488676e+2, -488646.38, -500382.56, -5807.182, 0.06593276, 0.50096995, -486258.7, 53899.242, 0.0, 10.000275, 10.000116 
4.5000634e+1, 2.5488707e+2, -454691.75, -439821.94, -18016.332, 0.13259007, 0.51063097, -427766.7, 14381.367, 0.0, 9.999856, 10.000064 
4.500153e+1, 2.6488617e+2, -430423.3, -514256.4, 25341.76, 0.14973646, 0.47514856, -423358.22, -79203.56, 0.00000000016705606, 9.9999485, 9.998832 
4.5002514e+1, 2.7488416e+2, -237426.98, -378577.75, 30577.582, 0.120685875, 0.3832764, -231087.66, 15088.276, 0.00000025695456, 10.000632, 9.998764 
4.5003432e+1, 2.848831e+2, -76745.3, -159055.45, 17380.89, 0.093028374, 0.36649328, -73225.6, 74957.75, 0.0000021581377, 10.000674, 9.999576 
4.5004126e+1, 2.9488263e+2, -58495.34, -99073.164, -16962.309, 0.053162232, 0.3444353, -52338.836, -2157.5305, 0.000016077325, 10.000119, 9.999586 
4.500404e+1, 3.0487946e+2, -78737.2, -303296.75, -97063.16, 0.048455782, 0.16754113, -42598.64, -42598.64, 0.00011232623, 10.00059, 9.997631 
4.5003137e+1, 3.1488028e+2, 221525.5, -8051.498, -82830.08, 0.08038362, 0.48985535, 248289.89, 248289.89, 0.00037058155, 10.001985, 9.998987 
5.498978e+1, 1.24880284e+2, -1962796.8, -1619580.1, -67656.47, 0.077635795, 0.29277962, -1606724.9, 109486.37, 0.0020867882, 9.997336, 10.001938 
5.4989994e+1, 1.3488154e+2, -1821565.8, -1612325.9, -26433.588, 0.10073566, 0.30631247, -1609038.1, 9158.066, 0.0012253985, 9.998142, 10.000923 
5.4990304e+1, 1.4488293e+2, -1702514.3, -1577752.4, 17013.074, 0.070839755, 0.39115348, -1575474.0, -55291.14, 0.00052635156, 9.998591, 10.000266 
5.4991794e+1, 1.5488353e+2, -1595346.5, -1480214.0, 14950.276, 0.11006498, 0.4104346, -1478304.4, -56123.816, 0.00013276051, 9.998677, 10.000219 
5.499229e+1, 1.6488422e+2, -1491984.3, -1300216.3, -29559.115, 0.094992146, 0.4280064, -1295763.5, 28410.79, 0.0000106646075, 9.998377, 10.000925 
5.499182e+1, 1.7488474e+2, -1487760.5, -1251036.5, -40575.633, 0.02270277, 0.37405503, -1244274.9, -18107.61, 0.000000007551507, 9.997752, 10.00089 
5.499268e+1, 1.8488538e+2, -1385417.9, -1181908.1, 20060.967, -0.0029637723, 0.36582857, -1179949.5, -51789.297, 0.0, 9.997911, 10.000617 
5.4994905e+1, 1.9488634e+2, -1150952.3, -1022742.75, 35954.086, 0.018385332, 0.38938016, -1013348.44, 16803.057, 0.0, 9.998874, 10.000569 
5.499618e+1, 2.0488654e+2, -1012997.06, -937764.5, -40927.883, 0.051647343, 0.36885726, -919792.3, 12356.492, 0.0, 9.999283, 10.000284 
5.4996485e+1, 2.1488589e+2, -939931.94, -859597.5, -36573.77, 0.09791523, 0.2655867, -845441.2, -11288.275, 0.0, 9.999145, 10.000214 
5.4997206e+1, 2.2488591e+2, -885193.25, -914116.1, 50931.055, 0.074840024, 0.30665624, -846710.4, -110554.875, 0.0, 9.999418, 9.999032 
5.4998416e+1, 2.3488669e+2, -691542.8, -779307.06, 64684.887, -0.014761053, 0.47090366, -657259.9, -19104.084, 0.0, 10.000115, 9.99895 
5.499937e+1, 2.4488656e+2, -509084.38, -536288.2, -24522.582, -0.013551607, 0.5220742, -494644.0, 45514.375, 0.0, 10.000249, 9.99988 
5.500011e+1, 2.5488546e+2, -477601.63, -476199.2, -30529.701, 0.08313991, 0.4102551, -446362.66, -4198.7573, 0.0, 9.999812, 9.999831 
5.500134e+1, 2.6488447e+2, -415592.5, -483841.47, 46134.285, 0.123906896, 0.36795363, -392333.6, -48161.855, 0.00000000012003064, 9.999947, 9.999043 
5.500313e+1, 2.7488375e+2, -226133.9, -348943.53, 58708.21, 0.10801417, 0.38303217, -202584.58, 43595.367, 0.00000017731924, 10.000605, 9.998981 
5.5004203e+1, 2.8488314e+2, -132152.47, -272467.16, -7508.1914, 0.090713196, 0.43785828, -131751.86, 16433.986, 0.0000014062957, 10.000668, 9.998801 
5.500451e+1, 2.948823e+2, -115365.45, -209930.05, -32251.658, 0.06611863, 0.45811614, -105413.27, -55219.934, 0.00001153016, 10.000088, 9.998839 
5.500436e+1, 3.0487958e+2, -32590.56, -206362.95, -46920.43, 0.0082837865, 0.32939878, -20730.932, -20730.932, 0.000091940805, 10.0005865, 9.998297 
5.500347e+1, 3.1488037e+2, 215470.36, -20932.277, -18863.008, -0.11133231, 0.5793603, 216966.0, 216966.0, 0.00032222702, 10.001983, 9.998897 
6.4987314e+1, 1.2487878e+2, -2037476.6, -1653354.6, -23360.273, 0.13000362, 0.28309932, -1651939.1, 64288.586, 0.0019618457, 9.9968195, 10.001955 
6.498874e+1, 1.3488059e+2, -1722677.1, -1553738.0, -20989.803, 0.13395071, 0.34635717, -1551169.1, 67037.24, 0.0011414166, 9.998768, 10.001025 
6.4989394e+1, 1.448818e+2, -1595705.9, -1512035.8, -38287.22, 0.09135353, 0.40127575, -1497160.3, 23033.74, 0.0004823892, 9.999266, 10.00039 
6.4990443e+1, 1.5488233e+2, -1633840.8, -1485288.6, -32102.375, 0.12666143, 0.4015337, -1478648.0, -56456.26, 0.00011742101, 9.998356, 10.000339 
6.4990693e+1, 1.6488299e+2, -1516639.4, -1354790.1, -38342.758, 0.10009919, 0.42509615, -1346166.0, -21979.434, 0.000008467286, 9.998387, 10.0005455 
6.4990133e+1, 1.7488343e+2, -1280303.0, -1195885.3, -55142.074, 0.0023960108, 0.4030212, -1168651.9, 57530.113, 0.000000004638606, 9.999365, 10.000492 
6.499119e+1, 1.8488404e+2, -1166467.9, -1055333.4, 379.64676, -0.009995583, 0.40511236, -1055332.0, 72843.21, 0.0, 9.999326, 10.000802 
6.499393e+1, 1.9488505e+2, -1231669.9, -1041367.06, -1178.5984, 0.06807569, 0.41174114, -1041359.75, -11194.824, 0.0, 9.998225, 10.000756 
6.499527e+1, 2.0488513e+2, -1174115.1, -1034040.9, -63936.797, 0.086013734, 0.37985095, -1009246.0, -77082.51, 0.0, 9.998258, 10.000117 
6.499511e+1, 2.1488431e+2, -907095.94, -861893.75, -82759.27, 0.03399718, 0.27622432, -798704.94, 35466.26, 0.0, 9.99945, 10.000051 
6.499594e+1, 2.248844e+2, -827583.75, -825527.06, -13375.64, 0.003065438, 0.30778, -813140.25, -76968.23, 0.0, 9.99955, 9.99958 
6.499781e+1, 2.3488554e+2, -884480.25, -810313.0, 12538.735, -0.003544354, 0.45438194, -808250.5, -170085.52, 0.0, 9.998518, 9.999513 
6.499933e+1, 2.4488547e+2, -736624.25, -669735.9, -29061.959, 0.034849077, 0.49198934, -658873.06, -118706.46, 0.0, 9.998775, 9.999684 
6.500053e+1, 2.5488415e+2, -405655.72, -464157.22, -38310.383, 0.11759037, 0.37963432, -386705.94, 55471.074, 0.0, 10.000395, 9.999642 
6.5001905e+1, 2.6488337e+2, -281286.4, -397756.88, 19112.691, 0.14601421, 0.36062047, -278230.22, 65953.71, 0.00000000000043891748, 10.000776, 9.999234 
6.5003484e+1, 2.748833e+2, -310654.3, -367983.63, 22995.69, 0.12027154, 0.41775995, -302570.28, -56384.418, 0.00000007111923, 9.999931, 9.999171 
6.5004545e+1, 2.848828e+2, -274412.34, -382041.5, -14820.811, 0.10306445, 0.4930576, -272408.78, -124216.48, 0.0000006300397, 9.999865, 9.998437 
6.500506e+1, 2.9488164e+2, -67484.39, -224285.98, -15224.819, 0.09264074, 0.52204955, -66019.8, -15813.484, 0.000007787418, 10.000577, 9.998505 
6.500506e+1, 3.0487972e+2, 20712.072, -82947.04, 7179.448, 0.02620018, 0.44131157, 21206.959, 21206.959, 0.0000752456, 10.000531, 9.9991665 
6.500416e+1, 3.1488052e+2, -100594.24, -142590.19, 34900.316, -0.120456725, 0.60642105, -80862.04, -80862.04, 0.00028007472, 9.999674, 9.999174 
7.498378e+1, 1.2487892e+2, -2056073.3, -1699336.1, 35645.406, 0.06797313, 0.45703706, -1695809.3, 20420.475, 0.001839182, 9.996854, 10.00162 
7.498725e+1, 1.3487987e+2, -1737640.9, -1592041.4, 54036.67, 0.09387609, 0.461334, -1574178.3, 44038.113, 0.0010576415, 9.998799, 10.000749 
7.498835e+1, 1.4488016e+2, -1568240.9, -1456651.5, -74324.125, 0.04638691, 0.4182945, -1419510.1, 100702.1, 0.00043753645, 9.999276, 10.000765 
7.498835e+1, 1.5488057e+2, -1609177.8, -1434774.1, -61444.934, 0.068321854, 0.37194, -1415300.6, 6909.2075, 0.00010224, 9.99836, 10.000685 
7.498855e+1, 1.6488113e+2, -1544383.1, -1409257.3, -4190.1665, 0.033545196, 0.38653186, -1409127.5, -84921.836, 0.000007138289, 9.998373, 10.000179 
7.498901e+1, 1.7488138e+2, -1305041.9, -1249518.0, -14154.847, -0.06045282, 0.38349238, -1246117.8, -19913.832, 0.00000003688298, 9.999375, 10.000119 
7.4990034e+1, 1.8488197e+2, -1162926.4, -1047571.75, -43967.81, -0.07133438, 0.397207, -1032724.3, 95473.62, 0.0, 9.999323, 10.000857 
7.4991655e+1, 1.9488306e+2, -1231505.5, -1036693.4, -38888.99, 0.0064152633, 0.40771064, -1029217.2, 969.0123, 0.0, 9.998208, 10.000797 
7.499295e+1, 2.0488375e+2, -1206929.0, -1095493.5, -22579.29, 0.01742363, 0.45551682, -1091092.3, -158911.58, 0.0, 9.998229, 9.999708 
7.4993926e+1, 2.1488406e+2, -940708.9, -924506.9, -33471.66, -0.041530617, 0.503816, -898169.9, -63987.92, 0.0, 9.999417, 9.999637 
7.49954e+1, 2.2488405e+2, -776783.06, -712960.7, -55029.117, -0.018061852, 0.50543857, -681259.56, 54922.645, 0.0, 9.999519, 10.000366 
7.4997365e+1, 2.3488376e+2, -836008.2, -698967.5, -21622.137, 0.091379315, 0.4279072, -695636.9, -57456.05, 0.0, 9.998471, 10.0002985 
7.499946e+1, 2.448835e+2, -750677.56, -690691.1, 27817.658, 0.1595951, 0.41134146, -679776.94, -139594.66, 0.0, 9.998743, 9.999553 
7.500175e+1, 2.5488323e+2, -422580.44, -491102.56, 26001.096, 0.1909659, 0.41937274, -413831.3, 28355.537, 0.0, 10.000359, 9.999475 
7.500307e+1, 2.6488295e+2, -273112.16, -375507.94, -14268.552, 0.1738732, 0.454028, -271161.06, 73029.75, 0.0, 10.000754, 9.999396 
7.50034e+1, 2.7488285e+2, -305560.28, -347541.75, -2927.3516, 0.105126634, 0.48756924, -305357.16, -59163.914, 0.000000009748358, 9.99989, 9.9993305 
7.500425e+1, 2.8488216e+2, -270820.94, -373941.75, 8427.908, 0.07415956, 0.53307444, -270136.7, -121934.43, 0.00000018216522, 9.999862, 9.998493 
7.500563e+1, 2.948808e+2, -67922.34, -217950.72, 15575.492, 0.07998326, 0.5330968, -66322.41, -16102.452, 0.000005368871, 10.000543, 9.998566 
7.5006074e+1, 3.0487987e+2, 90449.21, 65349.43, -24909.021, 0.06254149, 0.501084, 105791.24, 105791.24, 0.00006268461, 10.000519, 10.000189 
7.5004977e+1, 3.1488064e+2, -65547.73, -53519.996, 14578.1045, -0.028140146, 0.56071347, -43764.023, -43764.023, 0.00024571895, 9.999606, 9.999816 
8.4982026e+1, 1.2487815e+2, -1559631.3, -1512965.4, 68359.04, 0.030672807, 0.48891696, -1464066.9, 252168.84, 0.0017199421, 10.000481, 10.001151 
8.498539e+1, 1.3487855e+2, -1877591.6, -1698150.3, 68370.69, 0.071247526, 0.4715931, -1675068.6, -56838.902, 0.0009794245, 9.998015, 10.00039 
8.498649e+1, 1.4487825e+2, -1870845.0, -1627784.4, -61566.92, 0.03440222, 0.399397, -1613079.3, -92846.33, 0.0003977733, 9.997303, 10.0005455 
8.498679e+1, 1.5487881e+2, -1602258.9, -1453522.5, -96933.19, 0.072622, 0.39010453, -1405715.9, 16514.271, 0.000088897265, 9.998503, 10.000485 
8.498736e+1, 1.6487953e+2, -1443286.6, -1339081.1, -24912.057, 0.050092876, 0.42217243, -1333431.8, -9207.301, 0.000006071428, 9.99898, 10.000367 
8.4988314e+1, 1.7487997e+2, -1394769.5, -1269698.5, 1380.7092, -0.029361608, 0.4169913, -1269683.3, -43463.35, 0.000000076650345, 9.998661, 10.000324 
8.49893e+1, 1.848805e+2, -1289385.1, -1139382.3, -44445.613, -0.038188066, 0.42821965, -1127202.1, 1012.603, 0.0, 9.998591, 10.000583 
8.4990305e+1, 1.9488135e+2, -1169274.4, -1036356.8, -71280.29, 0.026131982, 0.445932, -1005359.7, 24846.836, 0.0, 9.998768, 10.000529 
8.499154e+1, 2.0488206e+2, -1139949.1, -1050417.6, -10596.648, 0.036304086, 0.5007969, -1049180.5, -116979.125, 0.0, 9.998631, 9.999828 
8.4993e+1, 2.1488257e+2, -1119369.3, -997245.8, 9560.535, -0.008640153, 0.5607474, -996501.9, -162302.39, 0.0, 9.998132, 9.999761 
8.4994745e+1, 2.2488245e+2, -927503.2, -770861.25, -21242.209, 0.022235334, 0.53872305, -768031.7, -31832.445, 0.0, 9.998422, 10.000497 
8.499676e+1, 2.3488173e+2, -665029.3, -601626.1, -46872.273, 0.13061869, 0.4050074, -576741.5, 61458.465, 0.0, 9.99958, 10.00043 
8.499891e+1, 2.4488133e+2, -652524.06, -666301.4, -13355.981, 0.19414537, 0.37980217, -644384.9, -104182.03, 0.0, 9.999515, 9.999349 
8.500126e+1, 2.548813e+2, -748265.8, -668793.6, -26339.604, 0.21592925, 0.4320419, -660856.56, -218648.77, 0.0, 9.998217, 9.999283 
8.500271e+1, 2.6488134e+2, -627794.2, -498199.38, -51974.332, 0.19784994, 0.4856984, -479930.34, -135720.84, 0.0, 9.998108, 9.999834 
8.5003275e+1, 2.7488154e+2, -367699.38, -328952.28, -29958.033, 0.13975151, 0.5088936, -312649.25, -66441.87, 0.0, 9.999246, 9.999776 
8.500416e+1, 2.8488114e+2, -259168.05, -315262.16, 20568.006, 0.09111792, 0.5324177, -252434.64, -104222.05, 0.000000023853914, 9.999703, 9.998977 
8.500536e+1, 2.9488003e+2, -180165.55, -215975.66, 54426.363, 0.053871207, 0.51370543, -140774.7, -90548.914, 0.0000039776505, 9.999527, 9.99907 
8.5006636e+1, 3.048795e+2, 94510.39, 33052.785, 10598.795, 0.0625217, 0.5093552, 96286.875, 96286.875, 0.000053629374, 10.000694, 9.999883 
8.500729e+1, 3.1487882e+2, 419405.8, 136683.17, -70161.33, 0.07387101, 0.4507983, 435859.66, 435859.66, 0.00021910039, 10.003125, 9.999423 
9.4981825e+1, 1.2487651e+2, -1599399.6, -1595505.1, -37571.277, -0.06422993, 0.38379362, -1559830.6, 156414.47, 0.0016117445, 10.000482, 10.000583 
9.498297e+1, 1.348765e+2, -1906464.9, -1764484.8, -25140.436, 0.014875841, 0.37580344, -1760164.6, -141917.27, 0.00091292575, 9.998039, 9.999925 
9.498362e+1, 1.4487599e+2, -1922188.6, -1734670.0, -19364.428, 0.0046658264, 0.33884656, -1732691.1, -212434.23, 0.00036647206, 9.997307, 9.999807 
9.49856e+1, 1.5487708e+2, -1654404.0, -1563753.3, -46393.188, 0.089013904, 0.45677006, -1544219.4, -121966.65, 0.00007896108, 9.998513, 9.999722 
9.4986993e+1, 1.648783e+2, -1392066.8, -1232813.0, -39325.33, 0.10409535, 0.5409348, -1223631.5, 100610.836, 0.000005121987, 9.998978, 10.001099 
9.498785e+1, 1.7487916e+2, -1341494.9, -1161046.5, -7190.611, 0.047381878, 0.5039083, -1160760.5, 65469.72, 0.00000007826353, 9.998665, 10.001069 
9.498877e+1, 1.8487965e+2, -1337046.8, -1233424.9, -40724.414, 0.041274533, 0.5030744, -1219335.5, -91110.08, 0.0, 9.998571, 9.999945 
9.4989717e+1, 1.9487992e+2, -1216944.5, -1129533.4, -59488.094, 0.0785495, 0.5256048, -1099421.5, -69195.26, 0.0, 9.998747, 9.999898 
9.499087e+1, 2.0487998e+2, -1101005.0, -961979.1, -33173.24, 0.09483791, 0.51912475, -954469.25, -22243.58, 0.0, 9.998598, 10.00045 
9.499215e+1, 2.148798e+2, -1080548.9, -908037.94, -4776.4487, 0.08367655, 0.44319746, -907905.8, -73681.63, 0.0, 9.998095, 10.000391 
9.4993806e+1, 2.2487956e+2, -971895.7, -854446.1, 18426.111, 0.0746777, 0.40572378, -851623.2, -115399.625, 0.0, 9.998386, 9.99994 
9.499583e+1, 2.3487936e+2, -710369.44, -686543.25, -495.82202, 0.07026622, 0.38088992, -686532.94, -48309.83, 0.0, 9.999539, 9.999868 
9.499754e+1, 2.4487898e+2, -674836.2, -704518.75, -65609.54, 0.09534671, 0.39793086, -622410.3, -82182.0, 0.0, 9.999483, 9.999098 
9.499886e+1, 2.5487843e+2, -771234.56, -708125.5, -71130.19, 0.14567888, 0.41838837, -661864.9, -219625.36, 0.0, 9.998182, 9.999029 
9.5000654e+1, 2.648785e+2, -583034.6, -404059.63, -13231.882, 0.1716292, 0.45550385, -403086.7, -58846.45, 0.0, 9.998101, 10.000484 
9.500301e+1, 2.748793e+2, -325887.5, -234678.52, 16599.607, 0.17707676, 0.47528705, -231751.4, 14477.954, 0.0, 9.999212, 10.00044 
9.500419e+1, 2.8487962e+2, -193430.77, -176593.39, 9809.669, 0.11083742, 0.49196318, -172085.2, -23861.56, 0.000000004406078, 9.999697, 9.999928 
9.5004064e+1, 2.9487944e+2, -119783.24, -81195.26, 54420.793, -0.03972506, 0.46497893, -42749.48, 7473.9536, 0.0000031202694, 9.999488, 10.000013 
9.5006555e+1, 3.0487865e+2, -19986.984, -205657.58, 101606.87, -0.027214397, 0.46999413, 24808.922, 24808.922, 0.00004667503, 10.000694, 9.998244 
9.501075e+1, 3.14875e+2, 306354.5, -86138.43, 32538.152, 0.07845683, 0.28138337, 309033.66, 309033.66, 0.0001974869, 10.003071, 9.997919 
1.0498109e+2, 1.2487444e+2, -2036305.4, -1841382.6, -84720.945, -0.038143504, 0.28786027, -1809707.0, -93443.87, 0.0015258539, 9.997624, 10.000276 
1.049821e+2, 1.3487536e+2, -1726698.9, -1700689.4, -62920.336, 0.061924223, 0.39054108, -1649443.9, -31183.549, 0.00086255383, 9.999357, 9.999734 
1.0498248e+2, 1.4487496e+2, -1517064.9, -1524672.0, 20659.91, 0.027338762, 0.3679393, -1499861.4, 20408.148, 0.00034425873, 10.000024, 9.999939 
1.0498418e+2, 1.5487605e+2, -1493401.3, -1477381.4, 50878.797, 0.046003375, 0.4786555, -1433885.9, -11622.945, 0.00007295785, 9.999578, 9.999806 
1.0498556e+2, 1.648772e+2, -1389716.0, -1251030.5, 34911.934, 0.05988485, 0.5619149, -1242737.8, 81514.9, 0.0000044141693, 9.999085, 10.0009165 
1.0498672e+2, 1.7487797e+2, -1368673.9, -1194517.9, -13065.515, 0.07363138, 0.5321748, -1193543.1, 32699.86, 0.000000050630582, 9.99858, 10.0008745 
1.0498782e+2, 1.8487817e+2, -1350710.0, -1284267.5, -34714.336, 0.0865228, 0.533413, -1269439.5, -141197.3, 0.0, 9.998661, 9.999551 
1.04988866e+2, 1.9487803e+2, -1164954.6, -1151179.6, -42867.926, 0.094835214, 0.5496869, -1114649.4, -84400.89, 0.0, 9.999294, 9.999486 
1.04990095e+2, 2.0487782e+2, -924047.5, -860072.5, -37167.53, 0.103814565, 0.52946144, -843023.0, 89227.18, 0.0, 9.999745, 10.000595 
1.04991496e+2, 2.1487752e+2, -790760.56, -749651.0, -52747.367, 0.11602686, 0.42707837, -713595.0, 120652.62, 0.0, 10.000007, 10.000555 
1.04993284e+2, 2.2487742e+2, -761015.94, -778839.9, -9991.929, 0.10860379, 0.40503758, -756539.06, -20293.04, 0.0, 9.999947, 9.99971 
1.0499552e+2, 2.348776e+2, -721436.56, -716921.5, -9532.838, 0.085967906, 0.4430066, -709382.56, -71138.06, 0.0, 9.9995775, 9.99964 
1.04997076e+2, 2.4487735e+2, -641438.7, -669104.5, -69799.03, 0.0960527, 0.47716615, -584115.0, -43866.523, 0.0, 9.999628, 9.999271 
1.0499791e+2, 2.5487664e+2, -477342.06, -546466.7, -52450.316, 0.13808303, 0.46639305, -449090.44, -6831.8125, 0.0, 10.0001135, 9.999207 
1.0499977e+2, 2.6487646e+2, -307574.3, -284766.56, 26271.043, 0.17808044, 0.47271916, -267531.0, 76729.4, 0.0, 10.000053, 10.00036 
1.05002806e+2, 2.748769e+2, -296796.3, -234387.83, -10402.32, 0.22575074, 0.46487954, -232699.63, 13552.9795, 0.0, 9.999472, 10.000316 
1.0500424e+2, 2.848768e+2, -206665.63, -217733.45, -79148.32, 0.14727233, 0.46449974, -132858.0, 15392.266, 0.0000000012345152, 9.999755, 9.999622 
1.05003946e+2, 2.9487625e+2, 69780.13, -22907.246, -141254.03, -0.068950444, 0.43066904, 172098.61, 222352.16, 0.0000025058646, 10.00093, 9.999722 
1.050075e+2, 3.048755e+2, 73547.01, -164562.47, -50794.97, -0.030521879, 0.45570496, 83930.125, 83930.125, 0.000040625986, 10.001354, 9.998214 
1.050137e+2, 3.1487155e+2, 29293.498, -185583.17, -10538.591, 0.17410979, 0.24469219, 29809.123, 29809.123, 0.00017793833, 10.001018, 9.998232 
1.1497937e+2, 1.2487181e+2, -2040004.4, -1856340.5, -37863.266, -0.00046533343, 0.18561375, -1848841.0, -132549.66, 0.0014675308, 9.997652, 10.000161 
1.14982605e+2, 1.3487503e+2, -1719642.6, -1687854.5, 3408.7922, 0.16387978, 0.51284015, -1687493.1, -69224.06, 0.0008305489, 9.999368, 9.999815 
1.1498299e+2, 1.448752e+2, -1452193.6, -1386421.1, 1362.0328, 0.0647686, 0.49568078, -1386393.0, 133877.19, 0.00033210375, 10.000008, 10.000897 
1.14982285e+2, 1.5487579e+2, -1423439.6, -1333212.4, 39722.824, -0.11286102, 0.45609558, -1318216.6, 104043.76, 0.00007103606, 9.999587, 10.000789 
1.14982866e+2, 1.648763e+2, -1468650.1, -1419497.5, 13023.57, -0.13124982, 0.48432872, -1416260.0, -92004.83, 0.0000041839003, 9.999098, 9.99976 
1.1498478e+2, 1.7487633e+2, -1447252.3, -1360511.6, -28427.895, 0.009171809, 0.49670985, -1352025.1, -125766.086, 0.000000024917117, 9.998591, 9.999732 
1.1498636e+2, 1.8487607e+2, -1365410.1, -1306298.1, -13852.272, 0.06329802, 0.5154831, -1303213.0, -174947.45, 0.0, 9.998627, 9.999418 
1.1498758e+2, 1.9487564e+2, -1176963.8, -1170707.1, -16250.2295, 0.024199648, 0.51964736, -1157286.9, -127013.47, 0.0, 9.999272, 9.999362 
1.1498909e+2, 2.0487553e+2, -952922.0, -912475.94, -31401.379, 0.019165212, 0.533539, -895349.06, 36925.71, 0.0, 9.999713, 10.000253 
1.14990875e+2, 2.1487573e+2, -819095.94, -799089.94, -40144.324, 0.044196352, 0.5142856, -767721.1, 66548.67, 0.0, 9.999968, 10.000235 
1.1499306e+2, 2.2487599e+2, -759335.7, -768131.1, -27321.848, 0.08259299, 0.54056686, -736059.9, 206.71445, 0.0, 9.999913, 9.9998 
1.1499564e+2, 2.348764e+2, -719747.1, -705389.44, -19621.39, 0.13041918, 0.58860093, -691674.9, -53410.42, 0.0, 9.99954, 9.999738 
1.1499741e+2, 2.448764e+2, -606670.8, -587993.3, -56225.746, 0.15583253, 0.6144695, -540336.0, -72.10951, 0.0, 9.99959, 9.999848 
1.1499828e+2, 2.54876e+2, -439772.56, -461223.88, -32550.555, 0.15445414, 0.57501125, -416226.1, 26039.316, 0.0, 10.000082, 9.999808 
1.1499997e+2, 2.6487523e+2, -369516.38, -411661.94, 1183.1193, 0.18223606, 0.53910273, -369483.2, -25213.182, 0.0, 10.000046, 9.999494 
1.1500252e+2, 2.7487424e+2, -363980.7, -369303.75, -27747.787, 0.23869765, 0.4786026, -338767.1, -92489.89, 0.0, 9.999448, 9.999404 
1.1500415e+2, 2.8487265e+2, -321166.8, -450861.8, -39891.61, 0.1526938, 0.4510288, -309879.3, -161586.81, 0.00000000007947066, 9.999738, 9.998029 
1.1500489e+2, 2.9487044e+2, -47034.47, -258824.02, -93233.75, -0.07814228, 0.41503832, -11839.785, 38476.45, 0.000001910546, 10.000903, 9.998115 
1.1500932e+2, 3.0487e+2, 186638.22, 69855.81, -63553.12, 0.00447065, 0.47235948, 214551.89, 214551.89, 0.000034739915, 10.00136, 9.999818 
1.1501573e+2, 3.1486842e+2, 173385.9, 123267.58, -10530.593, 0.25098494, 0.3311305, 175508.64, 175508.64, 0.00015856141, 10.000977, 10.000372 
1.2497834e+2, 1.2487077e+2, -1795593.5, -1734553.1, -25440.096, 0.05084648, 0.2769892, -1725340.8, -9033.617, 0.0014351123, 9.999329, 10.000183 
1.2498212e+2, 1.3487385e+2, -1687461.8, -1654854.0, 15878.49, 0.17560668, 0.57690006, -1648399.5, -30114.896, 0.00081633194, 9.999518, 9.9999695 
1.2498256e+2, 1.4487375e+2, -1526655.1, -1392057.8, -50033.332, 0.056302506, 0.51157814, -1375496.8, 144789.38, 0.00033045214, 9.9993725, 10.00116 
1.2498144e+2, 1.5487428e+2, -1501182.9, -1344256.1, -79540.19, -0.12186123, 0.44231382, -1310991.5, 111282.52, 0.00007352079, 9.99894, 10.001021 
1.2498194e+2, 1.6487466e+2, -1507177.9, -1488875.1, -83242.94, -0.12900892, 0.46697247, -1414282.0, -90011.81, 0.0000047035833, 9.999055, 9.999304 
1.24984145e+2, 1.7487451e+2, -1317065.0, -1353976.4, -79082.21, 0.034165546, 0.50981903, -1254313.5, -28034.36, 0.000000012759114, 9.999718, 9.999239 
1.249857e+2, 1.8487413e+2, -1174563.9, -1187238.9, -18726.688, 0.07889008, 0.5303237, -1161131.4, -32844.164, 0.0, 9.9998255, 9.999655 
1.2498658e+2, 1.9487374e+2, -1156109.5, -1133677.3, 303.6122, -0.0022243108, 0.51483727, -1133673.1, -103380.77, 0.0, 9.999309, 9.9995985 
1.2498825e+2, 2.0487377e+2, -1040338.7, -982267.8, 18118.395, -0.009706596, 0.5414937, -977078.5, -44786.535, 0.0, 9.99923, 10.000004 
1.2499077e+2, 2.1487422e+2, -897288.56, -866798.7, 6989.863, 0.059445586, 0.57312894, -865272.6, -30986.352, 0.0, 9.9995575, 9.999967 
1.2499316e+2, 2.2487436e+2, -788628.8, -783819.44, 8205.38, 0.11405435, 0.6022344, -777673.6, -41388.836, 0.0, 9.999714, 9.999788 
1.24995425e+2, 2.3487423e+2, -698207.06, -696638.0, -155.39919, 0.1497613, 0.5997148, -696622.8, -58335.543, 0.0, 9.999693, 9.999725 
1.2499726e+2, 2.4487393e+2, -551890.5, -568129.8, -27586.076, 0.16440019, 0.59771013, -531253.94, 9034.328, 0.0, 9.999998, 9.999785 
1.2499868e+2, 2.5487345e+2, -356417.75, -430792.53, -58480.426, 0.15758784, 0.5594936, -324302.44, 117985.37, 0.0, 10.000695, 9.999724 
1.2500034e+2, 2.6487228e+2, -304425.1, -482931.63, -84491.53, 0.1716559, 0.5306111, -270776.1, 73520.805, 0.0, 10.000937, 9.998574 
1.2500224e+2, 2.7487049e+2, -245331.8, -413901.72, -124852.914, 0.20443887, 0.48081154, -178977.44, 67337.97, 0.0, 10.000711, 9.998484 
1.2500447e+2, 2.8486842e+2, -184963.34, -382344.78, -29580.52, 0.16796745, 0.45046493, -180625.6, -32289.717, 0.00000000021645001, 10.000662, 9.998053 
1.2500718e+2, 2.948661e+2, -63149.594, -259067.17, 35705.41, 0.07014911, 0.40311468, -56845.254, -6487.68, 0.0000014014497, 10.000766, 9.998176 
1.250118e+2, 3.0486548e+2, 80222.72, -8594.298, 33498.91, 0.14993675, 0.44631243, 91440.58, 91440.58, 0.000028974657, 10.000733, 9.99959 
1.2501602e+2, 3.148643e+2, 117109.98, 110951.66, -67868.734, 0.20956548, 0.37359127, 181969.36, 181969.36, 0.0001384936, 10.000527, 10.000507 
1.349777e+2, 1.248714e+2, -1792401.3, -1721607.3, -33807.598, 0.028471202, 0.57011807, -1708056.4, 8253.335, 0.0014283952, 9.999306, 10.000281 
1.3498048e+2, 1.3487193e+2, -1661954.1, -1605537.1, 26866.209, 0.04819806, 0.58557606, -1594790.4, 23515.59, 0.000819765, 9.999543, 10.00029 
1.34981e+2, 1.4487068e+2, -1561705.9, -1469971.3, -69612.98, -0.049076058, 0.4151077, -1432473.3, 87843.59, 0.00033887546, 9.999389, 10.000618 
1.3498148e+2, 1.548716e+2, -1539813.4, -1422817.1, -92089.06, -0.024118641, 0.43685338, -1372217.0, 50086.492, 0.0000801792, 9.998933, 10.000486 
1.3498263e+2, 1.6487235e+2, -1497560.1, -1462484.3, -62516.242, 0.025100976, 0.51570535, -1415092.5, -90795.03, 0.0000062149566, 9.999028, 9.999498 
1.3498464e+2, 1.7487252e+2, -1301023.1, -1321982.8, -48797.414, 0.09928201, 0.57121384, -1261592.9, -35289.523, 0.000000017143847, 9.999729, 9.99945 
1.3498569e+2, 1.8487242e+2, -1134429.4, -1103569.3, -41575.793, 0.08174856, 0.58259827, -1074652.5, 53654.184, 0.0, 9.999817, 10.0002365 
1.3498567e+2, 1.9487229e+2, -1113621.6, -1044461.7, -15165.382, -0.03552088, 0.53164107, -1041282.4, -10977.006, 0.0, 9.999301, 10.000216 
1.3498744e+2, 2.0487246e+2, -1058228.0, -1011615.9, 26697.63, -0.024799159, 0.55001706, -999482.75, -67180.55, 0.0, 9.999196, 9.999821 
1.3499102e+2, 2.1487293e+2, -917158.7, -897133.94, 23537.45, 0.117302604, 0.60293, -881567.8, -47270.586, 0.0, 9.999512, 9.999779 
1.3499346e+2, 2.248725e+2, -800988.25, -804168.06, 2875.653, 0.16066438, 0.5914162, -799292.25, -62991.6, 0.0, 9.999685, 9.999664 
1.3499466e+2, 2.3487112e+2, -708212.56, -713342.8, 1398.5377, 0.09484945, 0.4736906, -707856.06, -69543.02, 0.0, 9.999672, 9.99962 
1.3499649e+2, 2.4486998e+2, -606526.5, -674242.7, -5089.1577, 0.076290525, 0.42623425, -606146.1, -65824.58, 0.0, 9.999968, 9.999071 
1.3499898e+2, 2.5486907e+2, -411504.72, -537818.5, -28361.92, 0.10817119, 0.41917467, -405428.72, 36896.96, 0.0, 10.000664, 9.999003 
1.3500072e+2, 2.648676e+2, -377902.84, -629917.75, -95106.36, 0.107387714, 0.44700766, -346039.78, -1698.9305, 0.0, 10.000915, 9.997575 
1.3500175e+2, 2.7486554e+2, -319778.6, -560463.5, -128885.195, 0.07518782, 0.47183552, -263787.0, -17419.25, 0.0, 10.000676, 9.997496 
1.3500504e+2, 2.8486404e+2, -67846.34, -134901.98, -29594.057, 0.14798497, 0.46405306, -56653.668, 91727.2, 0.000000004047862, 10.0006485, 9.999757 
1.3501069e+2, 2.9486325e+2, 52631.492, -10830.954, 42770.555, 0.33532208, 0.39055306, 74156.164, 124534.51, 0.0000011638989, 10.000731, 9.999899 
1.3501474e+2, 3.0486184e+2, -68416.234, -305600.25, 24737.74, 0.36383146, 0.37522435, -65863.62, -65863.62, 0.00002372901, 10.000693, 9.997566 
1.3501436e+2, 3.1485924e+2, -20221.434, -164106.28, -59798.97, -0.03121661, 0.36718675, 1386.2833, 1386.2833, 0.000118264084, 10.000491, 9.998635 
1.4497727e+2, 1.2486974e+2, -1854285.3, -1710700.6, -86654.85, 0.092270784, 0.69809866, -1669962.0, 46371.793, 0.0014440229, 9.998702, 10.0006485 
1.4497942e+2, 1.3486992e+2, -1856053.0, -1639473.3, -19858.373, 0.067650594, 0.6221995, -1637667.5, -19338.807, 0.00083842565, 9.997941, 10.000833 
1.4498006e+2, 1.4486836e+2, -1722226.4, -1567958.6, -50553.367, -0.030373303, 0.40168536, -1552868.4, -32527.602, 0.00035495815, 9.998377, 10.000436 
1.4498156e+2, 1.5486908e+2, -1388456.5, -1375154.1, -54900.246, 0.037892133, 0.42799535, -1326503.6, 95827.2, 0.00008912459, 10.00008, 10.000263 
1.4498283e+2, 1.6486992e+2, -1279700.9, -1321349.4, -31890.908, 0.07855951, 0.5100702, -1262437.4, 61886.3, 0.000008328298, 10.000368, 9.999818 
1.4498392e+2, 1.7487045e+2, -1369972.8, -1321369.8, -19845.63, 0.08619291, 0.56953454, -1314296.0, -87972.58, 0.0000000715251, 9.999105, 9.999754 
1.4498505e+2, 1.848706e+2, -1217581.0, -1136641.4, 8887.779, 0.06974845, 0.5862697, -1135676.9, -7354.205, 0.0, 9.999215, 10.000299 
1.4498623e+2, 1.9487055e+2, -897548.6, -937135.3, -13675.112, 0.018630665, 0.5376004, -893284.0, 137035.86, 0.0, 10.000759, 10.000255 
1.449882e+2, 2.0487036e+2, -788529.25, -921484.06, -18571.434, 0.032429673, 0.53603107, -785983.9, 146336.03, 0.0, 10.001223, 9.99946 
1.4499094e+2, 2.1487004e+2, -795806.5, -883062.7, -44477.563, 0.11142121, 0.5477647, -777131.56, 57191.453, 0.0, 10.000534, 9.999384 
1.4499332e+2, 2.2486925e+2, -740143.44, -815927.7, -63052.945, 0.14993608, 0.53892195, -704472.75, 31857.836, 0.0, 10.000292, 9.999289 
1.4499526e+2, 2.3486799e+2, -609600.5, -708939.0, -94370.2, 0.14579067, 0.47343695, -552626.56, 85715.93, 0.0, 10.000542, 9.999232 
1.449972e+2, 2.4486655e+2, -491961.9, -649138.6, -71512.19, 0.10751576, 0.42922992, -464295.25, 76059.21, 0.0, 10.00088, 9.998807 
1.4499913e+2, 2.5486496e+2, -336497.3, -528048.4, -67797.98, 0.028844658, 0.37778994, -314929.25, 127436.4, 0.0, 10.0013, 9.998761 
1.4500098e+2, 2.6486337e+2, -280393.56, -575271.1, -93878.61, 0.012341382, 0.39941055, -253042.8, 91339.58, 0.0, 10.001549, 9.997645 
1.4500277e+2, 2.7486175e+2, -180270.31, -484215.44, -52785.207, 0.064816415, 0.46227223, -171364.23, 75040.586, 0.0, 10.001596, 9.997576 
1.4500616e+2, 2.8486052e+2, 37839.223, -80975.54, 28860.775, 0.16478679, 0.47950482, 44478.652, 192893.31, 0.000000009906891, 10.001352, 9.999794 
1.4501126e+2, 2.9485995e+2, 67124.77, 3326.699, -33715.336, 0.3192167, 0.42260513, 81639.875, 132049.53, 0.0000010384059, 10.000798, 9.999963 
1.4501546e+2, 3.0485797e+2, -77537.91, -367892.1, -32728.389, 0.36269397, 0.3681661, -73894.52, -73894.52, 0.000019000812, 10.0008745, 9.99705 
1.4501572e+2, 3.1485543e+2, 88485.016, -171939.61, -8599.9375, 0.011562586, 0.4185712, 88768.7, 88768.7, 0.0000984148, 10.001487, 9.998103 
1.5497671e+2, 1.2486577e+2, -1807492.9, -1620762.8, -131260.11, 0.14294405, 0.65762943, -1553049.4, 163330.25, 0.0014662774, 9.99873, 10.001255 
1.5497868e+2, 1.3486782e+2, -1799470.4, -1524380.4, -46213.816, 0.19099309, 0.69113743, -1516824.3, 101528.22, 0.0008607167, 9.997944, 10.001626 
1.5497948e+2, 1.4486681e+2, -1711433.6, -1543868.1, 8334.606, 0.0627282, 0.47694156, -1543454.5, -23096.9, 0.00037131715, 9.99837, 10.000605 
1.5498157e+2, 1.5486676e+2, -1376818.9, -1352488.5, 13959.545, 0.018167967, 0.4130015, -1346137.3, 76218.78, 0.00009663115, 10.00009, 10.000412 
1.5498236e+2, 1.648674e+2, -1251373.4, -1259063.8, -81888.14, -0.017071579, 0.44700727, -1173240.1, 151108.3, 0.000009881803, 10.000355, 10.000253 
1.5498178e+2, 1.7486839e+2, -1339631.4, -1255701.0, -63422.1, -0.04844933, 0.5075992, -1221617.3, 4721.338, 0.00000020107916, 9.999095, 10.00021 
1.5498362e+2, 1.8486871e+2, -1255025.4, -1211436.0, 62247.414, -0.0055645946, 0.54250497, -1167278.1, -38943.285, 0.0, 9.999202, 9.999793 
1.5498808e+2, 1.9486852e+2, -938721.2, -1014718.2, 48406.727, 0.117222846, 0.531774, -915180.25, 115155.38, 0.0, 10.000732, 9.999732 
1.5499039e+2, 2.048675e+2, -832114.1, -1007581.9, -47105.2, 0.11905912, 0.50264233, -820268.25, 112076.71, 0.0, 10.001199, 9.998884 
1.5499035e+2, 2.1486557e+2, -838828.4, -964150.4, -67520.03, -0.013513792, 0.41055366, -809373.44, 24990.092, 0.0, 10.0005, 9.998843 
1.5499254e+2, 2.2486466e+2, -793452.06, -919326.4, -58456.445, 0.033307478, 0.44958374, -770492.56, -34118.5, 0.0, 10.0002575, 9.998597 
1.549971e+2, 2.3486482e+2, -661701.6, -813117.9, -80817.17, 0.2666519, 0.59578496, -626670.7, 11705.249, 0.0, 10.000519, 9.99853 
1.5499927e+2, 2.4486363e+2, -482191.13, -624170.25, -59986.785, 0.21671511, 0.6053076, -460240.22, 80147.03, 0.0, 10.000857, 9.99899 
1.5499899e+2, 2.5486103e+2, -326184.4, -501939.97, -48286.21, -0.1255618, 0.4326453, -313792.25, 128616.17, 0.0, 10.001275, 9.998955 
1.550009e+2, 2.6485947e+2, -200960.13, -406005.4, -96068.766, -0.15942118, 0.38980076, -162983.3, 181438.69, 0.0, 10.001535, 9.998811 
1.550051e+2, 2.7485898e+2, -105767.09, -319783.94, -48207.836, 0.12953788, 0.44865584, -95409.43, 151017.97, 0.0, 10.001555, 9.998724 
1.5500773e+2, 2.8485784e+2, -75342.484, -311843.7, 4787.698, 0.17596503, 0.49325565, -75245.6, 73192.305, 0.000000005626964, 10.001333, 9.998217 
1.5500875e+2, 2.948562e+2, -46831.645, -229953.4, -47725.56, -0.025682345, 0.4917902, -35139.805, 15312.289, 0.00000082513446, 10.000777, 9.998372 
1.5501384e+2, 3.0485383e+2, -12739.744, -223533.64, -12222.295, 0.10286731, 0.42568487, -12033.435, -12033.435, 0.000014599608, 10.000845, 9.998046 
1.5501973e+2, 3.14853e+2, 134736.86, -58718.625, 31496.248, 0.24364471, 0.5476407, 139735.56, 139735.56, 0.00007959566, 10.001427, 9.998901 
1.6497605e+2, 1.2486304e+2, -1723487.0, -1604211.3, 231.93068, 0.17143023, 0.5645185, -1604210.9, 112194.55, 0.0014745225, 9.999406, 10.001043 
1.6497794e+2, 1.3486603e+2, -1509020.1, -1383924.8, 18269.93, 0.22370963, 0.6961913, -1381311.0, 237059.27, 0.00086981576, 9.9999485, 10.001618 
1.6497879e+2, 1.4486568e+2, -1522301.9, -1466235.9, 57797.684, 0.09265655, 0.55275196, -1430031.6, 90338.695, 0.00037795518, 9.999735, 10.000476 
1.6498116e+2, 1.5486561e+2, -1580334.9, -1468128.0, 35652.445, 0.03711913, 0.49971193, -1457758.3, -35388.094, 0.000098805474, 9.998763, 10.000259 
1.6498226e+2, 1.648657e+2, -1416945.3, -1337409.3, -81218.8, -0.0027881868, 0.48786968, -1286745.0, 37621.18, 0.000009884257, 9.999199, 10.000276 
1.6498205e+2, 1.7486574e+2, -1044259.8, -1109370.1, -100285.33, -0.029434066, 0.44880474, -971377.9, 254983.05, 0.0000002904704, 10.0011, 10.000251 
1.6498427e+2, 1.8486546e+2, -957364.4, -1144238.0, 6982.0586, 0.021201307, 0.45532784, -957103.9, 171258.03, 0.0, 10.001584, 9.999104 
1.6498907e+2, 1.9486499e+2, -1013404.3, -1129718.3, -29427.395, 0.15474235, 0.48925886, -1006383.0, 23985.021, 0.0, 10.000561, 9.999024 
1.6499133e+2, 2.048638e+2, -962378.44, -1080089.3, -116266.02, 0.13832863, 0.48269647, -890919.8, 41460.69, 0.0, 10.000349, 9.9987955 
1.649908e+2, 2.1486185e+2, -769502.8, -941360.3, -108240.98, -0.04069924, 0.39728808, -717229.3, 117169.97, 0.0, 10.001021, 9.998752 
1.649928e+2, 2.2486076e+2, -652323.3, -854699.44, -48770.574, -0.014411216, 0.42489776, -641183.3, 95227.59, 0.0, 10.001248, 9.998559 
1.6499738e+2, 2.3486069e+2, -595469.0, -783210.7, -29579.844, 0.22200224, 0.5504118, -590918.8, 47494.96, 0.0, 10.000995, 9.998501 
1.6499984e+2, 2.4485967e+2, -521066.9, -631037.25, 16573.125, 0.20721363, 0.57222396, -518623.53, 21800.283, 0.0, 10.000541, 9.999095 
1.6500011e+2, 2.548577e+2, -520007.13, -583265.44, 13146.787, -0.070155844, 0.45255125, -517383.66, -74942.74, 0.0, 9.999889, 9.9990635 
1.6500236e+2, 2.6485646e+2, -418039.3, -496492.9, -45849.258, -0.086889066, 0.43010226, -396926.28, -52474.66, 0.0, 9.999972, 9.998948 
1.6500671e+2, 2.7485597e+2, -195196.48, -346120.9, -82147.48, 0.17426723, 0.47237474, -159111.61, 87344.12, 0.0, 10.00086, 9.998879 
1.650088e+2, 2.8485432e+2, -166668.25, -468427.13, -69339.086, 0.16092186, 0.5078582, -151497.95, -3025.2156, 0.00000000009995645, 10.001195, 9.997206 
1.6500857e+2, 2.9485175e+2, -87198.164, -364163.38, -89998.26, -0.128991, 0.51649696, -60522.914, -10022.028, 0.00000049216277, 10.0009985, 9.997345 
1.6501401e+2, 3.0484918e+2, 42132.71, -94986.74, -7995.2256, 0.044641256, 0.44215935, 42597.33, 42597.33, 0.000010365808, 10.000767, 9.998974 
1.6502169e+2, 3.1484964e+2, 31621.535, -37234.625, 21106.746, 0.35202113, 0.58946466, 37576.465, 37576.465, 0.000061981555, 10.0004015, 9.999543 
1.7497496e+2, 1.24861605e+2, -1793633.6, -1746881.8, 5298.615, 0.1019543, 0.42241764, -1746288.8, -29878.145, 0.0014574766, 9.999397, 10.000066 
1.7497702e+2, 1.3486463e+2, -1568417.0, -1506224.5, 38085.813, 0.12695926, 0.6421726, -1488152.6, 130229.04, 0.00085594517, 9.99995, 10.000774 
1.7497796e+2, 1.448649e+2, -1549913.4, -1526421.3, 16788.63, 0.023938023, 0.6255087, -1517677.6, 2701.8599, 0.0003688444, 9.999743, 10.000061 
1.7498015e+2, 1.5486556e+2, -1611559.1, -1528627.3, 2419.5789, 0.047202524, 0.68726325, -1528556.8, -106183.06, 0.00009401229, 9.998747, 9.99985 
1.7498235e+2, 1.6486491e+2, -1445207.1, -1392045.8, -14450.324, 0.07479886, 0.6380367, -1388371.8, -63995.89, 0.000008393363, 9.99918, 9.99991 
1.7498459e+2, 1.748626e+2, -1071396.5, -1164735.3, -25494.385, 0.1022616, 0.39964008, -1064886.9, 161502.53, 0.00000020811186, 10.001098, 9.999869 
1.7498681e+2, 1.848609e+2, -1019797.0, -1274625.4, -33452.633, 0.10730663, 0.32898572, -1015478.7, 112924.85, 0.0, 10.00158, 9.998214 
1.7498901e+2, 1.9486001e+2, -1078779.8, -1260840.6, -64301.14, 0.08232129, 0.40996668, -1058359.9, -27942.873, 0.0, 10.000538, 9.9981365 
1.7499083e+2, 2.0485933e+2, -940727.4, -1028509.8, -96898.34, 0.044230115, 0.4814928, -878243.2, 54182.92, 0.0, 10.000317, 9.9991665 
1.7499222e+2, 2.1485887e+2, -746182.1, -886791.3, -79101.33, -0.010385906, 0.50524145, -710657.8, 123772.875, 0.0, 10.000994, 9.99914 
1.7499392e+2, 2.2485763e+2, -614199.0, -767394.75, -60266.26, -0.036281288, 0.4689361, -593332.75, 143107.81, 0.0, 10.001214, 9.999175 
1.7499593e+2, 2.3485558e+2, -556473.06, -696608.0, -33719.234, -0.032411054, 0.33304334, -548781.7, 89674.49, 0.0, 10.000967, 9.999109 
1.7499873e+2, 2.4485461e+2, -523589.25, -632349.75, -12205.282, 0.031203566, 0.3292606, -522236.38, 18227.928, 0.0, 10.0005245, 9.999091 
1.7500235e+2, 2.5485492e+2, -527037.2, -589453.0, -8760.16, 0.15608527, 0.43566492, -525831.0, -83367.44, 0.0, 9.999853, 9.999039 
1.750053e+2, 2.648543e+2, -478313.22, -618672.8, -16655.555, 0.2003051, 0.5208387, -476363.88, -131892.4, 0.0, 9.999961, 9.998113 
1.7500752e+2, 2.7485266e+2, -258453.27, -471725.38, -44226.098, 0.1585546, 0.5323562, -249645.84, -3156.0483, 0.0, 10.0008335, 9.998031 
1.7500925e+2, 2.8484994e+2, -201154.38, -540352.0, -82288.92, 0.074331455, 0.52862793, -182245.31, -33726.305, 0.0, 10.001196, 9.996711 
1.7501053e+2, 2.948465e+2, -127821.05, -442824.16, -92765.93, -0.043153226, 0.4999941, -102532.4, -51976.117, 0.00000022526268, 10.000973, 9.996818 
1.7501585e+2, 3.04844e+2, 107386.12, 42292.465, -23008.438, 0.14216498, 0.41248322, 114697.59, 114697.59, 0.0000067412816, 10.000764, 9.999917 
1.7502126e+2, 3.1484526e+2, 58874.03, 33422.02, 28045.191, 0.24504267, 0.54635966, 76945.49, 76945.49, 0.000045960638, 10.000351, 10.00005 
1.8497343e+2, 1.2486079e+2, -1827867.5, -1830655.3, -41631.652, 0.010324475, 0.4260182, -1787606.4, -71191.69, 0.0014119628, 9.999444, 9.999466 
1.849766e+2, 1.3486291e+2, -1672399.9, -1613289.6, 10716.566, 0.11612897, 0.60460806, -1611406.8, 6989.892, 0.0008198644, 9.999466, 10.000276 
1.8497808e+2, 1.4486276e+2, -1533066.6, -1554522.8, 7271.6563, 0.052853335, 0.5865877, -1530834.5, -10435.117, 0.0003462985, 10.000009, 9.999738 
1.8498027e+2, 1.5486293e+2, -1278771.6, -1404090.4, -9378.138, 0.06523098, 0.62985325, -1278073.8, 144324.14, 0.000084445885, 10.001182, 9.999533 
1.8498302e+2, 1.6486213e+2, -1132332.1, -1285697.3, 4739.9014, 0.10830301, 0.6011006, -1132185.8, 192216.05, 0.000006352812, 10.001534, 9.999501 
1.849864e+2, 1.7486003e+2, -1111535.0, -1232440.6, -17452.43, 0.17891838, 0.43033168, -1109066.3, 117347.97, 0.000000056960435, 10.001031, 9.99944 
1.8498863e+2, 1.8485804e+2, -1152331.1, -1342589.0, -37590.668, 0.17697941, 0.3528461, -1145173.4, -16742.365, 0.0, 10.000689, 9.998174 
1.8498957e+2, 1.9485635e+2, -1085221.9, -1268186.5, -11229.241, 0.08885775, 0.35547101, -1084535.4, -54084.41, 0.0, 10.000512, 9.998098 
1.8499129e+2, 2.0485559e+2, -909180.0, -1018498.7, 21186.848, 0.048674863, 0.42498517, -905217.44, 27243.117, 0.0, 10.000559, 9.999114 
1.8499377e+2, 2.1485592e+2, -771277.7, -903630.6, -1706.9717, 0.05500441, 0.5322533, -771255.7, 63203.258, 0.0, 10.000841, 9.999095 
1.8499547e+2, 2.2485475e+2, -653344.7, -769212.06, -38509.184, 0.017474491, 0.49661675, -641713.5, 94754.414, 0.0, 10.000856, 9.999343 
1.8499638e+2, 2.3485205e+2, -600145.4, -699388.7, -52928.133, -0.06245874, 0.28032374, -577215.7, 61272.07, 0.0, 10.000576, 9.999286 
1.849989e+2, 2.448509e+2, -566270.1, -703677.8, -57412.938, 0.0011294589, 0.27217144, -545439.25, -4941.1895, 0.0, 10.000453, 9.998635 
1.8500315e+2, 2.548515e+2, -460095.06, -607738.5, -96408.93, 0.21848486, 0.4530325, -412490.56, 30006.793, 0.0, 10.000533, 9.998582 
1.8500628e+2, 2.6485065e+2, -419863.6, -633525.7, -72406.68, 0.27490646, 0.5571486, -397638.06, -53128.605, 0.0, 10.000553, 9.997723 
1.8500823e+2, 2.7484822e+2, -330180.1, -545717.2, -71443.24, 0.16322432, 0.53088254, -308649.78, -62113.7, 0.0, 10.000521, 9.997668 
1.8501039e+2, 2.8484544e+2, -206821.42, -487602.28, -49416.633, 0.08629555, 0.51033217, -198378.14, -49812.477, 0.0, 10.00091, 9.997212 
1.850129e+2, 2.9484266e+2, 19803.56, -316631.66, 7442.6465, 0.060923908, 0.49654722, 19968.127, 70562.21, 0.000000073239775, 10.001747, 9.997309 
1.8501744e+2, 3.0484068e+2, 135656.06, 16883.625, 17638.273, 0.20933996, 0.45742446, 138220.08, 138220.08, 0.000003933053, 10.00112, 9.999577 
1.8501951e+2, 3.1484124e+2, -193253.1, -159513.78, -34009.277, 0.112379864, 0.5519984, -138420.08, -138420.08, 0.000032239117, 9.998908, 9.999434 
1.9497122e+2, 1.24860555e+2, -1846085.1, -1863301.3, -61055.37, -0.18002428, 0.569799, -1793034.0, -76615.88, 0.0013384911, 9.999428, 9.9992485 
1.9497655e+2, 1.3486086e+2, -1687432.8, -1634170.6, 12431.327, 0.15430948, 0.5801252, -1631412.1, -12996.602, 0.0007672974, 9.999433, 10.000143 
1.9497913e+2, 1.4485928e+2, -1551570.1, -1591008.0, 45800.543, 0.14439067, 0.4386662, -1521424.0, -994.34485, 0.00031672008, 9.999993, 9.999498 
1.949814e+2, 1.5485771e+2, -1296316.0, -1439027.5, 38160.57, 0.04946293, 0.33085233, -1286752.9, 135689.66, 0.000073711046, 10.001175, 9.999296 
1.9498411e+2, 1.6485736e+2, -1166518.4, -1354954.9, -15931.614, 0.054438997, 0.3827275, -1165180.9, 159262.77, 0.0000047225935, 10.001524, 9.999032 
1.9498737e+2, 1.7485811e+2, -1145881.8, -1301385.5, -31082.92, 0.16197617, 0.5407042, -1139898.9, 86535.74, 0.0000000036456946, 10.0010195, 9.998972 
1.9498956e+2, 1.8485695e+2, -1099984.3, -1230371.5, -48627.277, 0.19112252, 0.53319037, -1083846.4, 44597.18, 0.0, 10.000668, 9.998959 
1.9499063e+2, 1.9485396e+2, -1028610.94, -1149790.0, -13801.199, 0.13294457, 0.32456097, -1027059.0, 3410.8787, 0.0, 10.000505, 9.998917 
1.9499253e+2, 2.0485258e+2, -947860.4, -1090469.8, 29096.299, 0.106632404, 0.31373584, -942152.44, -9668.724, 0.0, 10.000524, 9.998637 
1.9499528e+2, 2.1485293e+2, -812199.56, -980160.25, 13770.803, 0.11239974, 0.47222292, -811078.0, 23406.582, 0.0, 10.000806, 9.998586 
1.9499733e+2, 2.2485211e+2, -678798.4, -813343.56, -53410.17, 0.108324125, 0.5112437, -660174.25, 76318.75, 0.0, 10.000821, 9.999057 
1.9499858e+2, 2.3485015e+2, -623946.6, -740626.5, -60120.055, 0.09186207, 0.39676332, -598513.25, 39995.082, 0.0, 10.000542, 9.999018 
1.9500026e+2, 2.4484858e+2, -634429.25, -840398.56, -58379.855, 0.08172679, 0.40357128, -619032.94, -78508.02, 0.0, 10.00043, 9.997707 
1.9500236e+2, 2.5484738e+2, -529727.94, -746849.9, -89867.586, 0.076914035, 0.5021801, -497357.47, -54814.813, 0.0, 10.000508, 9.99764 
1.9500515e+2, 2.648455e+2, -414791.7, -620654.3, -77409.92, 0.09705102, 0.5425083, -388931.88, -44366.563, 0.0, 10.0005455, 9.997814 
1.9500864e+2, 2.7484268e+2, -326241.5, -533489.44, -68459.31, 0.14179057, 0.46770054, -305669.66, -59075.05, 0.0, 10.000501, 9.997765 
1.9501208e+2, 2.8484067e+2, -101429.65, -268066.25, -21160.975, 0.15273614, 0.44862682, -98784.43, 49828.77, 0.0, 10.000908, 9.99872 
1.9501556e+2, 2.948402e+2, 116950.71, -107309.52, 44148.7, 0.13981079, 0.5089222, 125328.98, 175943.58, 0.000000013907536, 10.001713, 9.998764 
1.950186e+2, 3.0483922e+2, 24218.346, -209398.64, -67605.0, 0.20319965, 0.5780171, 42371.55, 42371.55, 0.0000021091166, 10.001106, 9.998025 
1.9501619e+2, 3.148377e+2, -312505.66, -399310.38, -97553.6, -0.13176389, 0.6183088, -249135.03, -249135.03, 0.000021823846, 9.998882, 9.997796 
2.0497093e+2, 1.24858536e+2, -1785753.5, -1795880.9, -136960.47, -0.16030806, 0.63737, -1653763.1, 62678.277, 0.0012408808, 9.999688, 9.999585 
2.0497684e+2, 1.3485858e+2, -1624351.1, -1567563.3, -33981.355, 0.22964081, 0.58787024, -1551674.6, 66763.04, 0.0007023467, 9.999706, 10.000475 
2.0497978e+2, 1.4485703e+2, -1586427.4, -1628524.9, 58019.92, 0.2199484, 0.44170094, -1545756.1, -25306.133, 0.0002832004, 9.999853, 9.999306 
2.0498206e+2, 1.54855e+2, -1444470.1, -1532639.1, 43585.094, 0.046987288, 0.30858642, -1426561.9, -4094.3613, 0.000063005726, 10.000253, 9.999098 
2.0498474e+2, 1.6485444e+2, -1329959.6, -1434975.0, -25991.227, 0.022097437, 0.34811944, -1323878.9, 592.65674, 0.0000035155435, 10.000404, 9.999022 
2.0498787e+2, 1.748553e+2, -1256856.1, -1356467.0, -15194.263, 0.14981699, 0.521229, -1254590.0, -28127.686, 0.0000000004928599, 10.000267, 9.998956 
2.0499016e+2, 1.848544e+2, -1114327.1, -1203159.0, -6778.5405, 0.19887532, 0.5248161, -1113812.9, 14655.538, 0.0, 10.000425, 9.99926 
2.0499156e+2, 1.9485174e+2, -948304.0, -1077550.5, -20275.09, 0.15751366, 0.3192026, -945198.06, 85291.625, 0.0, 10.000911, 9.999216 
2.049935e+2, 2.0485026e+2, -907443.2, -1107616.6, 7213.9536, 0.13161808, 0.29612505, -907183.5, 25320.94, 0.0, 10.000956, 9.998315 
2.04996e+2, 2.1485e+2, -882324.75, -1051950.9, -2177.373, 0.12147803, 0.42878443, -882296.75, -47784.25, 0.0, 10.000485, 9.998251 
2.0499809e+2, 2.2484918e+2, -814878.9, -915539.6, -65956.13, 0.1436525, 0.5020175, -782243.25, -45720.36, 0.0, 10.00005, 9.998722 
2.0499974e+2, 2.3484786e+2, -777327.5, -852207.56, -86853.125, 0.2003544, 0.48390582, -720188.4, -81653.41, 0.0, 9.999657, 9.998676 
2.0500119e+2, 2.4484608e+2, -720674.94, -901021.06, -19266.078, 0.15995634, 0.4983129, -718639.75, -178085.81, 0.0, 9.999917, 9.997541 
2.0500244e+2, 2.5484386e+2, -480974.28, -741580.5, 1661.9656, 0.0149343945, 0.5103009, -480963.7, -38383.867, 0.0, 10.000921, 9.9974785 
2.0500517e+2, 2.6484165e+2, -311020.47, -544361.44, 24493.494, 0.017338483, 0.5135551, -308477.16, 36127.26, 0.0, 10.001135, 9.998061 
2.050095e+2, 2.748392e+2, -307851.22, -495771.94, 35774.555, 0.1815885, 0.45224676, -301271.22, -54642.14, 0.0, 10.000497, 9.998029 
2.0501317e+2, 2.848377e+2, -140456.16, -243115.4, 94849.32, 0.1949057, 0.4492641, -83938.09, 64704.637, 0.0, 10.000463, 9.9991045 
2.0501617e+2, 2.948378e+2, 52176.383, -96143.516, 69909.07, 0.061129272, 0.5317134, 79932.95, 130571.34, 0.0000000026409164, 10.001098, 9.999134 
2.0501897e+2, 3.0483735e+2, 15693.823, -227555.34, -103066.35, 0.13292684, 0.63604, 53490.73, 53490.73, 0.000001406237, 10.001115, 9.997895 
2.050165e+2, 3.1483465e+2, -84702.33, -272573.25, -32078.691, -0.060999256, 0.5703185, -79375.945, -79375.945, 0.000015573223, 10.000397, 9.997923 
2.1497233e+2, 1.248547e+2, -1726572.1, -1668573.9, -153486.7, -0.009864359, 0.62864363, -1541370.9, 175114.13, 0.0011227193, 9.999668, 10.000473 
2.1497737e+2, 1.3485618e+2, -1562210.9, -1438898.5, -31707.02, 0.30375138, 0.6375289, -1431223.4, 187238.83, 0.0006268979, 9.999709, 10.001359 
2.1497986e+2, 1.4485613e+2, -1600612.1, -1658068.9, 69785.62, 0.23165348, 0.60693866, -1553873.0, -33413.902, 0.0002465844, 9.999852, 9.999105 
2.1498212e+2, 1.548548e+2, -1457352.3, -1559036.9, 63467.75, 0.015723353, 0.5635934, -1426873.6, -4400.545, 0.000052325075, 10.000251, 9.998919 
2.1498477e+2, 1.6485332e+2, -1302393.1, -1371812.6, -35504.996, -0.026475633, 0.49927273, -1287450.4, 37035.234, 0.000002586899, 10.000379, 9.999468 
2.1498778e+2, 1.748516e+2, -1226880.0, -1288939.9, -17060.873, 0.10579854, 0.36770195, -1222499.1, 3998.1848, 0.000000000052014764, 10.000247, 9.999427 
2.1499026e+2, 1.8485034e+2, -1133990.3, -1238117.6, 8362.662, 0.15844584, 0.32261705, -1133322.9, -4816.92, 0.0, 10.000398, 9.999036 
2.1499227e+2, 1.9484967e+2, -965844.7, -1111134.1, 3319.0884, 0.12594186, 0.33916497, -965768.9, 64741.914, 0.0, 10.000897, 9.998994 
2.1499407e+2, 2.0484857e+2, -923401.56, -1133903.6, -14113.88, 0.08548465, 0.37577406, -922459.44, 10063.564, 0.0, 10.000927, 9.998147 
2.1499576e+2, 2.1484709e+2, -897324.3, -1075777.8, -16542.65, 0.037276257, 0.40097108, -895803.75, -61261.02, 0.0, 10.000454, 9.998101 
2.1499762e+2, 2.248459e+2, -849009.5, -977465.6, -84830.98, 0.08227185, 0.46468326, -806834.9, -70276.836, 0.0, 10.00001, 9.998317 
2.149997e+2, 2.3484507e+2, -810777.56, -913370.9, -96274.75, 0.22392754, 0.5368759, -752986.25, -114418.055, 0.0, 9.999621, 9.998273 
2.1500158e+2, 2.448434e+2, -681796.44, -816991.0, 13509.861, 0.19689088, 0.5533182, -680459.6, -139874.28, 0.0, 9.999905, 9.998125 
2.1500322e+2, 2.548409e+2, -443318.06, -654606.9, 42617.523, -0.0075886133, 0.47769257, -435045.88, 7563.173, 0.0, 10.000884, 9.998094 
2.1500625e+2, 2.6483908e+2, -284782.53, -485452.72, -1180.746, 0.0017751835, 0.4709233, -284775.56, 59851.21, 0.0, 10.001118, 9.998472 
2.1501069e+2, 2.7483785e+2, -284761.03, -442342.75, 16160.444, 0.23669767, 0.48751333, -283120.8, -36481.234, 0.0, 10.000472, 9.998406 
2.1501349e+2, 2.848365e+2, -190096.2, -342922.22, 112799.1, 0.17064479, 0.51417977, -130264.64, 18389.686, 0.0, 10.000451, 9.998425 
2.150146e+2, 2.948355e+2, -946.1667, -204523.7, 96433.48, -0.21431017, 0.5571591, 37480.5, 88146.51, 0.000000034055795, 10.001087, 9.998397 
2.1501848e+2, 3.0483496e+2, 102912.18, -46587.297, -130403.19, -0.034576528, 0.6332405, 178470.5, 178470.5, 0.0000015569075, 10.001114, 9.99914 
2.1502012e+2, 3.1483218e+2, 32854.59, -23821.666, -36400.805, 0.23934205, 0.4260212, 50647.453, 50647.453, 0.000013189906, 10.000373, 9.999647 
2.2497223e+2, 1.2485104e+2, -1863312.9, -1699307.4, -38469.31, 0.0716073, 0.5467525, -1690732.4, 25787.168, 0.0009915447, 9.99857, 10.000792 
2.2497712e+2, 1.3485269e+2, -1401265.3, -1335592.5, 26570.748, 0.2609101, 0.54544336, -1326188.8, 292305.28, 0.000545711, 10.00071, 10.001582 
2.2497986e+2, 1.4485358e+2, -1404334.9, -1545748.4, 66219.64, 0.18457447, 0.5897919, -1378168.0, 142313.63, 0.00020902291, 10.0011215, 9.999269 
2.2498249e+2, 1.5485317e+2, -1529704.4, -1577220.4, 80464.13, 0.057480738, 0.6230668, -1469564.1, -47075.703, 0.000042237294, 9.999681, 9.999073 
2.2498523e+2, 1.6485174e+2, -1451828.5, -1437202.0, 18256.744, 0.03637207, 0.5546429, -1424848.3, -100347.2, 0.0000020119714, 9.999324, 9.99953 
2.2498806e+2, 1.7484917e+2, -1248641.6, -1294881.5, -1577.1527, 0.11836771, 0.33096373, -1248587.9, -22067.129, 0.0, 10.000075, 9.999473 
2.249904e+2, 1.8484798e+2, -1158059.3, -1265138.5, 9008.67, 0.13936043, 0.29658273, -1157306.6, -28776.455, 0.0, 10.0003, 9.998895 
2.249923e+2, 1.9484837e+2, -1120888.9, -1202661.3, 2558.5322, 0.09122269, 0.43463475, -1120808.9, -90281.32, 0.0, 9.999916, 9.998836 
2.2499423e+2, 2.0484751e+2, -1094862.6, -1180808.5, -2050.2888, 0.07602626, 0.4883957, -1094813.8, -162276.14, 0.0, 9.999595, 9.998469 
2.2499621e+2, 2.1484536e+2, -1036714.4, -1104890.9, 25121.838, 0.096342914, 0.41257694, -1028457.4, -193896.2, 0.0, 9.999334, 9.998441 
2.2499806e+2, 2.2484392e+2, -858510.4, -1004948.6, 28687.137, 0.12578283, 0.44192746, -853091.1, -116513.11, 0.0, 10.000041, 9.998114 
2.2499979e+2, 2.3484318e+2, -514463.72, -794579.9, 24033.992, 0.16391735, 0.5454269, -512416.56, 126171.46, 0.0, 10.001757, 9.998059 
2.2500205e+2, 2.4484147e+2, -380106.84, -659100.6, 98545.54, 0.15408903, 0.56336814, -348809.7, 191795.6, 0.0, 10.00192, 9.998239 
2.2500488e+2, 2.548388e+2, -497655.84, -667804.1, 83326.63, 0.09441046, 0.4554267, -463646.22, -21016.469, 0.0, 10.000451, 9.998212 
2.250079e+2, 2.648371e+2, -427886.5, -562326.0, 26399.451, 0.10552188, 0.45987046, -422888.34, -78242.25, 0.0, 10.000173, 9.998398 
2.2501107e+2, 2.7483645e+2, -185394.98, -402499.88, 1856.897, 0.19484632, 0.54141724, -185379.11, 61275.336, 0.0, 10.001194, 9.998331 
2.2501357e+2, 2.8483516e+2, -121254.76, -313035.47, 85522.12, 0.11304999, 0.58163947, -88657.79, 60011.305, 0.00000000075483947, 10.000924, 9.998406 
2.250154e+2, 2.948337e+2, -283787.63, -348540.94, 109390.6, -0.14504091, 0.57583606, -202082.94, -151396.66, 0.0000002669958, 9.99917, 9.998334 
2.2501944e+2, 3.0483288e+2, -152314.84, -161580.23, -72927.05, 0.043749627, 0.62604463, -83873.49, -83873.49, 0.0000027230408, 9.999314, 9.999217 
2.2502075e+2, 3.1483006e+2, 263548.47, 154241.28, -67491.88, 0.20468867, 0.40255114, 295740.53, 295740.53, 0.000014136897, 10.001644, 10.000268 
2.3497032e+2, 1.2484767e+2, -1887088.8, -1746167.3, 23616.807, 0.0018511055, 0.3941259, -1742314.6, -25770.566, 0.0008595536, 9.998566, 10.00047 
2.3497596e+2, 1.3484801e+2, -1433258.3, -1405482.5, 106405.9, 0.06465725, 0.30938432, -1312062.0, 306471.72, 0.00046458573, 10.000721, 10.001098 
2.3497961e+2, 1.4484923e+2, -1367007.5, -1465129.8, 8680.857, 0.038858652, 0.3834419, -1366245.4, 154274.08, 0.00017252294, 10.001108, 9.999828 
2.3498295e+2, 1.548501e+2, -1486830.0, -1491214.5, 28644.826, 0.12447224, 0.48744053, -1460293.6, -37780.117, 0.000033446406, 9.999693, 9.999657 
2.3498595e+2, 1.6484971e+2, -1480610.0, -1492430.8, 40640.363, 0.16697855, 0.512489, -1445452.5, -120934.734, 0.0000017722703, 9.999304, 9.999162 
2.3498856e+2, 1.7484798e+2, -1272547.8, -1343171.1, 30691.293, 0.15234846, 0.4080867, -1261074.0, -34540.887, 0.0000000001389195, 10.000069, 9.999145 
2.3499043e+2, 1.848473e+2, -1170713.3, -1283333.8, -8570.744, 0.10133844, 0.44564936, -1170064.6, -41523.6, 0.0, 10.000266, 9.998788 
2.349915e+2, 1.948478e+2, -1128609.8, -1216556.5, -9916.87, 0.009997618, 0.6074501, -1127505.4, -96964.96, 0.0, 9.999906, 9.998746 
2.3499374e+2, 2.04847e+2, -1040298.9, -1059023.4, -16036.842, 0.059711695, 0.62796646, -1031091.44, -98542.26, 0.0, 9.9995575, 9.999323 
2.3499724e+2, 2.1484482e+2, -981507.94, -981088.4, 19608.664, 0.25631458, 0.46257827, -961688.4, -127120.63, 0.0, 9.999293, 9.999311 
2.3499928e+2, 2.248432e+2, -867596.6, -1012765.5, 89512.375, 0.23540276, 0.43292257, -824938.0, -88355.2, 0.0, 9.999996, 9.998083 
2.3499982e+2, 2.348422e+2, -522215.5, -802553.0, 92710.71, -0.017112864, 0.5143735, -494329.03, 144265.03, 0.0, 10.001723, 9.998021 
2.3500244e+2, 2.4484026e+2, -405204.03, -707850.06, 41057.758, -0.010202222, 0.5284379, -399732.94, 140881.13, 0.0, 10.0019045, 9.997911 
2.3500727e+2, 2.5483745e+2, -527124.25, -720711.5, 30884.965, 0.2775594, 0.44123873, -522316.28, -79673.68, 0.0, 10.000417, 9.997866 
2.3501004e+2, 2.6483566e+2, -469473.13, -644280.75, 60013.453, 0.29383594, 0.48052412, -450853.16, -106190.516, 0.0, 10.000156, 9.997841 
2.3501056e+2, 2.7483493e+2, -228226.02, -481433.4, 46018.156, 0.013520745, 0.60803914, -220122.0, 26552.182, 0.0, 10.001153, 9.997807 
2.3501326e+2, 2.8483373e+2, -77652.734, -220751.39, 18785.234, -0.020610347, 0.6520224, -75227.8, 73459.31, 0.00000003119879, 10.000916, 9.999046 
2.3501834e+2, 2.9483232e+2, -242206.4, -259374.31, 46133.65, 0.21983255, 0.5899287, -203864.9, -153165.69, 0.00000087505157, 9.999152, 9.998959 
2.3502165e+2, 3.0483106e+2, -227935.95, -313143.5, 9197.715, 0.32308388, 0.6144554, -226954.42, -226954.42, 0.0000050395365, 9.999295, 9.998184 
2.3501804e+2, 3.1482828e+2, 224864.06, 86697.17, 46175.3, -0.2506642, 0.49788994, 238875.03, 238875.03, 0.00001767749, 10.001595, 9.999826 
2.4497e+2, 1.2484603e+2, -1717709.9, -1708284.9, 79084.51, 0.051954, 0.39452583, -1633772.6, 82784.37, 0.0007335385, 9.999916, 10.000086 
2.449755e+2, 1.3484588e+2, -1606287.6, -1556552.4, 148216.22, -0.0058913473, 0.323861, -1431132.1, 187421.97, 0.00038622954, 9.999824, 10.000499 
2.4497934e+2, 1.4484677e+2, -1591979.6, -1573988.8, -39235.83, -0.019240556, 0.39583126, -1542730.4, -22186.06, 0.00013762695, 9.99957, 9.99982 
2.4498291e+2, 1.548471e+2, -1558532.4, -1525289.8, -71816.85, 0.17696911, 0.44524765, -1468195.9, -45652.52, 0.000025817635, 9.999209, 9.999654 
2.4498598e+2, 1.6484676e+2, -1467409.6, -1476191.9, 469.34604, 0.23936042, 0.46883997, -1467384.6, -142837.6, 0.0000016011192, 9.999353, 9.999248 
2.449886e+2, 1.7484565e+2, -1282663.8, -1341445.5, 16199.92, 0.15755618, 0.42158115, -1278494.8, -51938.87, 0.0000000006420841, 9.999969, 9.999206 
2.4499051e+2, 1.8484525e+2, -1182601.4, -1255953.5, -26924.096, 0.096143365, 0.4706997, -1173779.8, -45218.676, 0.0, 10.000044, 9.999081 
2.4499165e+2, 1.9484566e+2, -1163275.5, -1200917.0, -6523.465, 0.05440756, 0.5900067, -1162177.0, -131615.14, 0.0, 9.999527, 9.999034 
2.4499388e+2, 2.0484503e+2, -992141.8, -1042058.6, 10138.107, 0.10094462, 0.61645514, -990161.3, -57592.18, 0.0, 9.999919, 9.999265 
2.4499735e+2, 2.1484338e+2, -708255.7, -857106.75, -32989.945, 0.24546155, 0.51253736, -701271.75, 133311.05, 0.0, 10.001208, 9.999239 
2.4499966e+2, 2.2484173e+2, -663807.7, -889148.0, 6963.685, 0.21141478, 0.47291896, -663592.7, 73004.695, 0.0, 10.001286, 9.998309 
2.4500072e+2, 2.348401e+2, -749735.1, -885535.2, 25054.129, -0.013754054, 0.46635506, -745260.25, -106647.34, 0.0, 10.00005, 9.998257 
2.4500345e+2, 2.4483831e+2, -658168.56, -854115.0, -5514.103, -0.016005795, 0.49371362, -658013.5, -117381.35, 0.0, 10.000275, 9.997694 
2.4500795e+2, 2.5483644e+2, -291898.47, -633015.3, -14510.394, 0.22009645, 0.5247197, -291282.34, 151372.55, 0.0, 10.002141, 9.997641 
2.4501063e+2, 2.648346e+2, -151419.66, -503154.4, 25419.5, 0.22819978, 0.57852995, -149592.11, 195084.25, 0.0, 10.002383, 9.997742 
2.4501131e+2, 2.748329e+2, -276756.53, -516511.3, 37844.625, -0.00743036, 0.61756563, -270924.72, -24228.213, 0.0, 10.000865, 9.997707 
2.4501419e+2, 2.848314e+2, -114505.984, -242931.47, 12416.797, -0.0036831864, 0.6362354, -113316.484, 35395.12, 0.00000009380251, 10.000688, 9.9990015 
2.4501933e+2, 2.9483026e+2, 168286.77, -64579.324, -25525.059, 0.26521707, 0.6053029, 171051.8, 221771.94, 0.0000015673739, 10.001994, 9.998924 
2.4502236e+2, 3.048286e+2, 73505.13, -204663.3, -42830.816, 0.35599804, 0.60928816, 79950.63, 79950.63, 0.000007492646, 10.001526, 9.997857 
2.4501835e+2, 3.1482652e+2, -132035.39, -79791.76, 44919.934, -0.25234497, 0.59342474, -53950.61, -53950.61, 0.000021673697, 9.999133, 9.999862 
2.549711e+2, 1.2484622e+2, -1746838.5, -1771844.5, 54873.32, 0.1481999, 0.5614241, -1703061.8, 13495.377, 0.0006147494, 9.999924, 9.999649 
2.5497562e+2, 1.3484637e+2, -1653090.8, -1655479.4, 144950.94, 0.015956247, 0.5889471, -1509329.1, 109225.234, 0.00031221876, 9.99983, 9.999819 
2.5497898e+2, 1.4484626e+2, -1638152.1, -1667364.3, -55905.04, -0.022891985, 0.62898767, -1594976.6, -74420.88, 0.00010529937, 9.999558, 9.999185 
2.549821e+2, 1.5484414e+2, -1599239.8, -1610675.5, -80726.625, 0.1647532, 0.48945767, -1524028.8, -101450.41, 0.000019009012, 9.999211, 9.999066 
2.549851e+2, 1.6484277e+2, -1436017.8, -1405207.0, 19618.23, 0.20694405, 0.41738918, -1395668.5, -71078.84, 0.0000013062046, 9.99933, 9.999747 
2.5498804e+2, 1.7484227e+2, -1245459.6, -1264150.3, 42479.453, 0.093284406, 0.37834316, -1211309.6, 15278.959, 0.000000000635992, 9.999971, 9.999733 
2.5499052e+2, 1.8484196e+2, -1136569.8, -1157469.6, -48468.316, 0.083771184, 0.3766937, -1097437.6, 31151.773, 0.0, 10.00003, 9.999766 
2.5499254e+2, 1.9484189e+2, -1116242.4, -1099204.3, -21575.484, 0.1820051, 0.3786694, -1084526.9, -53934.934, 0.0, 9.999509, 9.999742 
2.549945e+2, 2.0484154e+2, -1070761.5, -1195240.9, 55101.746, 0.163947, 0.4472855, -1049874.9, -117276.984, 0.0, 9.999874, 9.998236 
2.5499642e+2, 2.1484095e+2, -784869.3, -1012664.5, 20021.186, 0.019833433, 0.55331564, -783123.0, 51484.47, 0.0, 10.001189, 9.998182 
2.54999e+2, 2.248394e+2, -633097.6, -817386.75, -42402.08, 0.009118639, 0.552554, -623809.6, 112813.336, 0.0, 10.001253, 9.998817 
2.5500232e+2, 2.3483683e+2, -716651.06, -808101.7, -18201.545, 0.13613975, 0.4008353, -713161.56, -74516.75, 0.0, 10.000012, 9.998806 
2.5500494e+2, 2.4483559e+2, -668918.7, -872491.1, 59684.71, 0.096146114, 0.4583422, -652710.44, -112050.82, 0.0, 10.000259, 9.997574 
2.5500682e+2, 2.548357e+2, -305736.0, -653871.4, 58824.324, -0.11851813, 0.7007141, -296065.13, 146602.03, 0.0, 10.002106, 9.997515 
2.550096e+2, 2.64834e+2, -130503.41, -454299.38, -32545.844, -0.12516944, 0.7539235, -127264.51, 217423.2, 0.0, 10.002362, 9.99809 
2.5501326e+2, 2.7483037e+2, -257713.42, -467951.56, -14865.122, 0.0861481, 0.5688641, -256667.58, -9945.763, 0.0, 10.000824, 9.998064 
2.5501615e+2, 2.8482816e+2, -169202.45, -352460.6, 54549.7, 0.11089857, 0.5347003, -154194.02, -5451.205, 0.00000013915765, 10.000673, 9.998254 
2.5501826e+2, 2.948274e+2, 109909.53, -176933.06, 25722.988, -0.053979512, 0.6180276, 112198.016, 162948.14, 0.0000020008988, 10.001955, 9.998171 
2.5502145e+2, 3.048254e+2, 98050.805, -147408.92, -132013.73, 0.10241623, 0.60826486, 155571.45, 155571.45, 0.000009108913, 10.001506, 9.998258 
2.5502136e+2, 3.1482452e+2, -102542.7, -12475.913, -20545.098, 0.111167096, 0.6765148, -8010.7456, -8010.7456, 0.000024996654, 9.999111, 10.000335 
2.6497257e+2, 1.2484486e+2, -1314652.1, -1623434.5, -39257.246, 0.14679368, 0.6383243, -1309739.3, 406831.38, 0.0005062773, 10.003155, 9.999098 
2.649766e+2, 1.3484392e+2, -1582094.1, -1713897.3, 32402.217, 0.08898611, 0.6340583, -1574559.3, 44022.625, 0.0002464049, 10.000711, 9.99899 
2.649796e+2, 1.4484331e+2, -1579394.0, -1640572.1, -77186.664, 0.06618858, 0.6678765, -1526956.1, -6366.9976, 0.00007758306, 9.999969, 9.999172 
2.6498204e+2, 1.5484135e+2, -1315183.5, -1472599.1, -64286.2, 0.1445036, 0.54572546, -1292266.3, 130342.79, 0.000013419433, 10.001156, 9.999078 
2.6498482e+2, 1.6484015e+2, -1149147.9, -1226715.3, 33046.008, 0.15621315, 0.46909192, -1136978.5, 187639.0, 0.0000010267595, 10.00112, 10.000114 
2.6498786e+2, 1.7483976e+2, -1251340.0, -1224500.9, 38915.25, 0.09097243, 0.4047489, -1196756.4, 29856.924, 0.0000000012219834, 9.999744, 10.000117 
2.6499054e+2, 1.8483923e+2, -1222631.9, -1233198.5, -63237.633, 0.10793677, 0.3753133, -1164457.3, -35841.793, 0.0, 9.999587, 9.999458 
2.6499295e+2, 1.9483855e+2, -964913.7, -1063839.1, -120757.84, 0.21217947, 0.35065895, -883881.1, 146743.48, 0.0, 10.00071, 9.999407 
2.64995e+2, 2.04838e+2, -903413.44, -1104719.3, -33720.89, 0.17164655, 0.41098955, -897915.0, 34717.926, 0.0, 10.00099, 9.998316 
2.649967e+2, 2.1483757e+2, -903994.25, -1061349.0, 9466.232, -0.022900254, 0.5279304, -903426.8, -68786.32, 0.0, 10.0003395, 9.998255 
2.6499948e+2, 2.2483626e+2, -749449.06, -854984.06, -36950.086, -0.025063258, 0.5379465, -737798.25, -1144.3151, 0.0, 10.000373, 9.998984 
2.650033e+2, 2.3483406e+2, -539752.8, -706089.5, -51402.758, 0.17734665, 0.40628716, -525149.94, 113522.85, 0.0, 10.001151, 9.9989605 
2.6500592e+2, 2.4483302e+2, -512155.06, -752585.9, 65115.664, 0.12525983, 0.45756584, -495652.53, 45032.27, 0.0, 10.001144, 9.997971 
2.6500723e+2, 2.5483316e+2, -539515.3, -718144.4, 101038.36, -0.19422941, 0.6642318, -493974.97, -51285.207, 0.0, 10.0003, 9.997937 
2.650103e+2, 2.6483157e+2, -398117.5, -582150.5, 3838.642, -0.19810383, 0.70576525, -398037.47, -53328.6, 0.0, 10.000526, 9.99809 
2.6501507e+2, 2.7482823e+2, -97964.78, -389096.1, -14231.751, 0.13620315, 0.5464419, -97270.73, 149471.03, 0.0, 10.001924, 9.99807 
2.6501787e+2, 2.848261e+2, 16471.75, -292999.16, 70642.695, 0.14924322, 0.537519, 31834.652, 180597.39, 0.00000017298198, 10.002074, 9.99799 
2.6501846e+2, 2.9482526e+2, -68797.74, -287310.4, 71209.52, -0.16881897, 0.6374488, -47640.34, 3131.7798, 0.0000022405377, 10.00083, 9.997955 
2.6502123e+2, 3.048227e+2, -60683.145, -172541.89, -97136.42, 0.00240138, 0.5586475, -4525.1426, -4525.1426, 0.00001010162, 10.000179, 9.998731 
2.6502255e+2, 3.1482264e+2, 66531.5, 101409.65, 17886.86, 0.2723284, 0.6589972, 108951.79, 108951.79, 0.00002797797, 10.000114, 10.000639 
2.7497414e+2, 1.2484173e+2, -1366304.0, -1725388.0, -145955.3, -0.03702364, 0.6107986, -1314462.5, 402136.8, 0.00041453895, 10.003132, 9.998407 
2.749782e+2, 1.3483843e+2, -1643177.9, -1842210.1, -62337.895, 0.16466883, 0.45781994, -1625265.4, -6628.3423, 0.00019313562, 10.000721, 9.998101 
2.7498108e+2, 1.4483789e+2, -1539862.5, -1556825.1, -41500.652, 0.20763189, 0.5152348, -1505985.4, 14659.41, 0.000056136425, 9.999958, 9.999755 
2.749827e+2, 1.5483877e+2, -1271055.3, -1381814.4, -15967.3, 0.08126719, 0.6182645, -1268799.3, 153836.19, 0.000009372096, 10.00116, 9.999701 
2.7498496e+2, 1.6483888e+2, -1131995.9, -1187456.6, -21594.432, 0.047522575, 0.6271893, -1124579.5, 200050.81, 0.0000008660051, 10.001106, 10.000388 
2.7498782e+2, 1.748381e+2, -1236613.5, -1187941.8, -9453.876, 0.105124705, 0.49449387, -1186170.0, 40460.22, 0.000000004874734, 9.999723, 10.000376 
2.7499038e+2, 1.8483698e+2, -1323182.3, -1432249.6, -25999.455, 0.12431641, 0.46288857, -1317301.5, -188661.53, 0.0, 9.999547, 9.998111 
2.7499264e+2, 1.9483568e+2, -1062807.0, -1262273.8, -74681.07, 0.10164096, 0.5099049, -1037945.06, -7285.561, 0.0, 10.000691, 9.998052 
2.749952e+2, 2.0483448e+2, -826115.75, -937135.0, -60518.805, 0.08638975, 0.5178962, -799504.5, 133168.75, 0.0, 10.000958, 9.999483 
2.7499813e+2, 2.148333e+2, -824671.94, -886624.25, -10206.55, 0.07442805, 0.43693256, -823033.75, 11647.984, 0.0, 10.000296, 9.9994755 
2.7500087e+2, 2.2483231e+2, -773330.9, -893563.1, -12261.325, 0.069143355, 0.42946097, -772093.2, -35402.78, 0.0, 10.000324, 9.998744 
2.750035e+2, 2.3483162e+2, -563706.94, -746375.75, -18497.506, 0.07221517, 0.47490364, -561852.6, 76845.44, 0.0, 10.001111, 9.998703 
2.7500623e+2, 2.448305e+2, -449459.97, -616212.44, 31075.328, 0.03383226, 0.48522937, -443857.13, 96851.484, 0.0, 10.00112, 9.998918 
2.7500907e+2, 2.5482884e+2, -477186.72, -581991.5, 72236.39, -0.050769642, 0.41214168, -440347.25, 2375.7852, 0.0, 10.000268, 9.998889 
2.7501255e+2, 2.648274e+2, -426709.78, -633325.75, 50871.03, -0.033183686, 0.4389682, -414863.94, -70124.33, 0.0, 10.000496, 9.997752 
2.7501673e+2, 2.7482632e+2, -128024.016, -446027.56, 43502.074, 0.095520824, 0.5444044, -122180.43, 124577.055, 0.00000000009324417, 10.0019, 9.99769 
2.7501926e+2, 2.8482518e+2, 33497.06, -256860.38, 22619.352, 0.06821235, 0.63753283, 35248.582, 184021.33, 0.00000023612336, 10.00207, 9.998238 
2.750198e+2, 2.9482377e+2, -51845.336, -248420.97, 28851.664, -0.13227624, 0.6552634, -47698.23, 3089.072, 0.0000024950837, 10.000804, 9.998237 
2.750215e+2, 3.0482054e+2, -22597.248, -80620.734, -102683.32, -0.0021706836, 0.45854953, 55094.08, 55094.08, 0.000010927285, 10.000141, 9.999369 
2.7502155e+2, 3.148208e+2, 64374.28, 115681.15, 36231.977, 0.13358113, 0.5353529, 134422.03, 134422.03, 0.000030095847, 10.000043, 10.000766 
2.8497463e+2, 1.2483745e+2, -2110371.0, -1986048.8, -206688.77, -0.022575555, 0.5682972, -1832376.0, -115732.93, 0.0003410361, 9.9976015, 9.999285 
2.849789e+2, 1.348348e+2, -1694516.4, -1790381.1, -22043.97, 0.20171595, 0.4100366, -1689690.4, -71019.38, 0.00015204525, 10.000042, 9.998783 
2.8498223e+2, 1.4483435e+2, -1370181.4, -1474501.4, 64012.598, 0.27125025, 0.44170654, -1339768.5, 180907.52, 0.000040681283, 10.001123, 9.999754 
2.8498363e+2, 1.5483527e+2, -1318835.9, -1406073.6, 34361.086, 0.08022682, 0.54879725, -1306927.3, 115739.13, 0.0000066741927, 10.0008335, 9.999691 
2.849858e+2, 1.6483551e+2, -1207385.9, -1263926.9, -51418.195, 0.04322147, 0.59041876, -1176978.9, 147682.83, 0.00000074756446, 10.000773, 10.00002 
2.8498873e+2, 1.7483488e+2, -1082124.1, -1158291.8, -98481.04, 0.16326895, 0.5142728, -1014619.6, 212043.66, 0.000000006090155, 10.000976, 9.999978 
2.849912e+2, 1.8483385e+2, -1059802.0, -1285768.3, -25002.146, 0.16766253, 0.500464, -1057068.6, 71604.36, 0.0, 10.001273, 9.998282 
2.8499326e+2, 1.9483249e+2, -908377.56, -1167980.4, 35404.56, 0.04650735, 0.5257214, -903635.7, 127054.66, 0.0, 10.001665, 9.99823 
2.84996e+2, 2.0483126e+2, -739626.1, -885849.3, 19312.047, 0.045666818, 0.51494247, -737118.5, 195584.94, 0.0, 10.001502, 9.999573 
2.8499955e+2, 2.1483007e+2, -758134.1, -843332.1, -24445.193, 0.1682203, 0.4243281, -751618.56, 83093.914, 0.0, 10.000705, 9.999574 
2.850023e+2, 2.2482933e+2, -706376.2, -866146.7, 7835.011, 0.15666467, 0.43985388, -705992.9, 30726.822, 0.0, 10.000808, 9.998698 
2.8500426e+2, 2.3482911e+2, -456532.6, -699878.06, 12057.061, 0.0042184107, 0.5369738, -455936.66, 182787.81, 0.0, 10.001867, 9.998659 
2.8500703e+2, 2.4482788e+2, -328914.25, -516501.72, -16688.152, -0.029609116, 0.520334, -327441.22, 213294.05, 0.0, 10.00177, 9.999289 
2.8501052e+2, 2.548256e+2, -418998.03, -510431.7, -29547.19, 0.06090924, 0.34736374, -410280.8, 32471.371, 0.0, 10.000486, 9.999274 
2.8501388e+2, 2.648243e+2, -474937.9, -622148.1, 30249.453, 0.077778436, 0.35406703, -468964.5, -124198.41, 0.0, 10.000008, 9.998067 
2.8501716e+2, 2.7482423e+2, -333092.9, -506707.94, 67375.19, 0.03114386, 0.5263422, -310014.28, -63238.555, 0.0000000018932573, 10.000325, 9.998033 
2.8501973e+2, 2.8482372e+2, -196331.61, -330932.47, 24423.73, -0.0030362904, 0.6521779, -192036.88, -43251.703, 0.00000028816427, 10.000333, 9.998571 
2.850212e+2, 2.9482278e+2, -140666.2, -244317.19, 28202.318, -0.029841408, 0.68143994, -133489.55, -82694.34, 0.0000027347362, 10.000004, 9.998649 
2.8502283e+2, 3.0481938e+2, 68805.95, -89141.14, -63431.996, 0.08111759, 0.4630798, 91126.234, 91126.234, 0.000011893844, 10.000976, 9.998919 
2.8502265e+2, 3.1481892e+2, 430338.1, 184899.69, -16883.635, 0.09779984, 0.51849955, 431494.06, 431494.06, 0.000031796684, 10.00302, 9.999807 
2.949736e+2, 1.2483225e+2, -1948812.8, -1648948.6, -129259.016, 0.090115145, 0.52170604, -1600922.3, 115777.4, 0.00028049768, 9.997588, 10.001608 
2.9497862e+2, 1.3483302e+2, -1539039.5, -1469940.6, 69926.766, 0.15709843, 0.4874291, -1426493.8, 192189.48, 0.000119661214, 10.00005, 10.000979 
2.9498285e+2, 1.448326e+2, -1411690.0, -1560118.3, 48287.95, 0.20895875, 0.4382263, -1397363.4, 123320.03, 0.000029635712, 10.001117, 9.999172 
2.949847e+2, 1.5483081e+2, -1366193.1, -1499899.5, 26466.186, 0.091587685, 0.33678713, -1361145.0, 61557.098, 0.0000047316526, 10.0008135, 9.999058 
2.9498723e+2, 1.6483e+2, -1285216.4, -1418992.4, -47285.305, 0.097927436, 0.3585551, -1270190.4, 54521.28, 0.00000054097734, 10.000746, 9.998967 
2.9499045e+2, 1.748302e+2, -1156677.4, -1311130.0, -86454.164, 0.22609699, 0.46848232, -1117980.4, 108731.71, 0.0000000012704189, 10.000972, 9.998928 
2.949929e+2, 1.8482983e+2, -943794.0, -1041601.6, -14959.545, 0.19574971, 0.49116668, -941557.1, 187157.14, 0.0, 10.001257, 9.999968 
2.949946e+2, 1.9482891e+2, -790717.2, -919655.75, 53573.34, 0.0023524293, 0.38957545, -771362.94, 259355.0, 0.0, 10.001647, 9.999945 
2.9499722e+2, 2.0482822e+2, -815289.2, -1032509.8, -12621.311, 0.0058816876, 0.39537495, -814558.3, 118166.18, 0.0, 10.001459, 9.998587 
2.950008e+2, 2.1482779e+2, -836956.1, -996230.56, -49638.965, 0.2143496, 0.4830831, -822752.44, 11981.284, 0.0, 10.000659, 9.998546 
2.9500356e+2, 2.2482726e+2, -703404.6, -845348.0, 42269.75, 0.19503865, 0.5615371, -691770.5, 44972.203, 0.0, 10.000748, 9.998869 
2.9500556e+2, 2.3482658e+2, -452311.8, -678231.7, 56602.867, -0.06217939, 0.5961081, -438923.7, 199827.92, 0.0, 10.001814, 9.998833 
2.9500818e+2, 2.4482526e+2, -345854.16, -546972.7, -67222.89, -0.10142882, 0.57202816, -325454.4, 215309.27, 0.0, 10.001748, 9.999091 
2.9501143e+2, 2.548233e+2, -436146.6, -543654.5, -73225.12, 0.09473774, 0.45305833, -399063.28, 43715.492, 0.0, 10.000472, 9.999057 
2.9501414e+2, 2.6482213e+2, -406588.4, -477998.06, 38281.67, 0.09234141, 0.43257338, -389945.16, -45154.816, 0.0, 9.999998, 9.999062 
2.950162e+2, 2.7482182e+2, -266620.38, -362578.84, 82402.984, -0.11095669, 0.4841465, -219246.28, 27551.38, 0.0000000016821552, 10.000294, 9.99904 
2.9501903e+2, 2.8482184e+2, -169505.38, -267033.2, 7744.502, -0.11143169, 0.58721966, -168894.23, -20094.193, 0.00000022409213, 10.000302, 9.999024 
2.9502246e+2, 2.9482222e+2, -110406.48, -181117.14, 24679.81, 0.08317536, 0.7069887, -102644.62, -51847.48, 0.0000026529046, 9.999997, 9.999089 
2.950251e+2, 3.0481905e+2, -35638.883, -300965.06, 10839.352, 0.20135905, 0.56507826, -35196.8, -35196.8, 0.000012290724, 10.000959, 9.997467 
2.950254e+2, 3.148167e+2, 285299.97, -111647.39, 76595.3, 0.046051648, 0.58071375, 299567.1, 299567.1, 0.000033071607, 10.002996, 9.997781 
3.049742e+2, 1.2482848e+2, -1396689.9, -1374296.6, 48785.83, 0.20926265, 0.45314816, -1335439.1, 381293.5, 0.00022859985, 10.001345, 10.001687 
3.0497855e+2, 1.3483004e+2, -1401876.3, -1404762.4, 65341.387, 0.10489724, 0.4986446, -1337962.0, 280746.28, 0.00009393993, 10.000984, 10.000984 
3.049833e+2, 1.4482966e+2, -1490995.1, -1608240.6, -60364.137, 0.16732834, 0.4573438, -1465472.4, 55236.54, 0.000021636553, 10.000625, 9.999076 
3.0498594e+2, 1.5482803e+2, -1434629.6, -1546382.9, -56792.305, 0.15846235, 0.38319173, -1410834.6, 11893.451, 0.0000030875526, 10.000405, 9.998933 
3.0498874e+2, 1.6482674e+2, -1309496.0, -1500291.9, -51783.285, 0.17125928, 0.39222553, -1296347.8, 28396.518, 0.0000002653173, 10.000871, 9.998351 
3.0499163e+2, 1.7482576e+2, -1039281.06, -1320159.8, -61651.418, 0.19551066, 0.4462214, -1026344.7, 200412.73, 0.0, 10.002062, 9.998339 
3.0499402e+2, 1.8482524e+2, -809412.94, -916623.94, -55684.242, 0.15228319, 0.4565614, -785724.94, 343036.03, 0.0, 10.001921, 10.000509 
3.0499595e+2, 1.9482525e+2, -941574.5, -929217.44, -83941.49, 0.040087383, 0.3904524, -851227.4, 179526.5, 0.0, 10.000338, 10.000512 
3.0499834e+2, 2.0482501e+2, -994316.75, -1121630.5, -115683.48, 0.03586636, 0.4158926, -925932.5, 6822.414, 0.0, 10.000244, 9.998561 
3.050013e+2, 2.148246e+2, -681816.06, -927139.0, -85643.32, 0.14533105, 0.5092823, -654876.0, 179888.13, 0.0, 10.001745, 9.998501 
3.0500388e+2, 2.2482379e+2, -601418.7, -797150.56, 12303.738, 0.11927417, 0.56365156, -600648.3, 136127.56, 0.0, 10.00145, 9.998861 
3.0500618e+2, 2.3482259e+2, -832427.25, -859380.7, 2614.5676, -0.049479038, 0.54280144, -832176.0, -193385.6, 0.0, 9.999204, 9.998841 
3.0500883e+2, 2.4482155e+2, -736684.9, -731949.94, -71144.35, -0.07302829, 0.5453099, -663133.7, -122332.88, 0.0, 9.999051, 9.999119 
3.050119e+2, 2.5482076e+2, -325879.3, -484450.06, -63445.426, 0.05760778, 0.540078, -303619.16, 139187.31, 0.0, 10.001206, 9.999106 
3.050143e+2, 2.6481986e+2, -210319.78, -347580.97, -11556.166, 0.053608954, 0.5293615, -209353.66, 135461.5, 0.0, 10.001195, 9.999381 
3.0501604e+2, 2.7481887e+2, -448285.47, -413870.5, -27240.434, -0.08048138, 0.47898477, -398857.8, -152030.83, 0.00000000014964384, 9.998896, 9.99936 
3.0501902e+2, 2.8481868e+2, -357274.8, -312024.53, -46035.773, -0.068079405, 0.52260715, -283354.56, -134524.8, 0.00000013461268, 9.998824, 9.999418 
3.05023e+2, 2.948194e+2, 79698.125, -43010.453, -37560.41, 0.08529089, 0.6426202, 90282.234, 141103.69, 0.0000024042524, 10.001121, 9.999485 
3.050264e+2, 3.0481735e+2, 137417.42, -222063.84, -2413.462, 0.17761672, 0.58504665, 137433.63, 137433.63, 0.000011913728, 10.002162, 9.997435 
3.0502826e+2, 3.1481504e+2, 58256.957, -254947.22, 157301.47, 0.10577553, 0.6111962, 123618.75, 123618.75, 0.0000326923, 10.001572, 9.997492 
3.149762e+2, 1.2482616e+2, -1546430.0, -1684207.1, 34114.715, 0.24867095, 0.3621968, -1538445.6, 178295.95, 0.00018624985, 10.001351, 9.999553 
3.1497863e+2, 1.3482605e+2, -1552617.0, -1716286.4, 53192.164, 0.0044541624, 0.45456177, -1536848.8, 81895.414, 0.00007443096, 10.000988, 9.998842 
3.149833e+2, 1.4482568e+2, -1473398.4, -1568668.4, -74741.06, 0.09705738, 0.5108002, -1432403.1, 88348.16, 0.000015949841, 10.00061, 9.999355 
3.149872e+2, 1.5482688e+2, -1413450.1, -1501468.0, -62350.027, 0.23503283, 0.68553966, -1381141.9, 41603.645, 0.00000170519, 10.0004, 9.999245 
3.1499022e+2, 1.6482557e+2, -1319912.8, -1518237.3, -13870.448, 0.22182773, 0.68502903, -1318947.4, 5813.4614, 0.000000057148895, 10.000854, 9.998237 
3.1499213e+2, 1.7482157e+2, -1050270.1, -1339697.1, -14621.23, 0.0298803, 0.44706118, -1049533.4, 177266.08, 0.0, 10.0020485, 9.998212 
3.1499442e+2, 1.8482012e+2, -853763.8, -1005680.56, -117484.12, -0.009494679, 0.40098357, -789821.56, 338991.2, 0.0, 10.0019045, 9.9999075 
3.1499714e+2, 1.9482145e+2, -987295.1, -1017012.75, -139914.8, 0.11677718, 0.5275414, -861452.4, 169346.11, 0.0, 10.000306, 9.999925 
3.1499928e+2, 2.0482162e+2, -936443.6, -989007.25, -66508.61, 0.09618033, 0.5757438, -891212.3, 41582.793, 0.0, 10.000192, 9.999496 
3.1500083e+2, 2.148205e+2, -621253.94, -791303.06, -25155.295, -0.08414629, 0.5070962, -617610.8, 217192.64, 0.0, 10.001702, 9.999454 
3.15003e+2, 2.2481902e+2, -617312.44, -821340.06, -72993.8, -0.12088813, 0.4515036, -593887.4, 142931.2, 0.0, 10.001412, 9.998714 
3.1500593e+2, 2.3481706e+2, -848770.2, -886711.94, -77359.27, -0.0032183994, 0.37438038, -788089.6, -149248.34, 0.0, 9.999173, 9.998671 
3.1500882e+2, 2.4481665e+2, -716721.8, -688694.7, 1952.6864, 0.008931215, 0.43334103, -688559.3, -147711.81, 0.0, 9.999043, 9.999418 
3.150117e+2, 2.5481802e+2, -309661.75, -440725.44, 19307.777, -0.09157839, 0.61129177, -306876.6, 135958.48, 0.0, 10.0011635, 9.999427 
3.1501433e+2, 2.6481766e+2, -234497.8, -395208.44, -98182.97, -0.073005415, 0.6536868, -187979.67, 156860.17, 0.0, 10.001182, 9.9990635 
3.150166e+2, 2.7481538e+2, -471791.88, -460430.5, -109191.484, 0.07281774, 0.507206, -356772.03, -109908.04, 0.00000000001473293, 9.998882, 9.999048 
3.150194e+2, 2.8481418e+2, -336524.47, -266132.7, 32588.352, 0.07805082, 0.451315, -253362.44, -104487.5, 0.000000108201135, 9.998813, 9.999739 
3.150226e+2, 2.9481435e+2, 97305.59, 519.63324, 53948.28, -0.08221113, 0.4819758, 121385.35, 172254.55, 0.0000022594174, 10.001086, 9.999804 
3.1502652e+2, 3.0481407e+2, 232892.55, -15514.511, -21567.25, -0.03594588, 0.516989, 234751.16, 234751.16, 0.000011524727, 10.002132, 9.998863 
3.1503075e+2, 3.1481382e+2, 161261.63, -35106.953, 143072.0, 0.17367001, 0.60204774, 236598.95, 236598.95, 0.00003194629, 10.001549, 9.999009 
3.2497653e+2, 1.2482202e+2, -1741706.0, -1843304.9, -154328.33, 0.20489018, 0.3508486, -1630031.4, 86746.01, 0.00015560584, 10.000275, 9.998983 
3.2497895e+2, 1.3482079e+2, -1718318.1, -1842322.5, -34284.348, -0.011670374, 0.3743129, -1709470.5, -90677.68, 0.000061447354, 10.000047, 9.99843 
3.2498398e+2, 1.448199e+2, -1519887.9, -1591766.1, -71661.29, 0.12184072, 0.39889213, -1475658.8, 45147.86, 0.000012624197, 10.000287, 9.999353 
3.2498783e+2, 1.5482193e+2, -1297795.0, -1441789.5, -86602.06, 0.22071396, 0.6577607, -1257171.1, 165622.03, 0.0000008198343, 10.001178, 9.999279 
3.24991e+2, 1.648214e+2, -1195543.5, -1362330.6, -7371.1563, 0.19274506, 0.68898314, -1195218.4, 129581.4, 0.000000004124255, 10.001303, 9.999088 
3.2499322e+2, 1.74818e+2, -1200957.4, -1318604.1, 56141.414, 0.008068809, 0.42837507, -1178466.3, 48362.668, 0.0, 10.0006075, 9.999053 
3.249955e+2, 1.8481658e+2, -1124683.3, -1232596.4, -43075.918, -0.018118517, 0.38650736, -1109597.5, 19245.234, 0.0, 10.000466, 9.999036 
3.249978e+2, 1.9481736e+2, -961841.8, -1106210.8, -96566.5, 0.12631358, 0.54726094, -913462.25, 117377.31, 0.0, 10.000923, 9.999012 
3.2499987e+2, 2.0481706e+2, -794270.9, -896678.25, -9201.783, 0.097504616, 0.5838952, -793450.6, 139391.97, 0.0, 10.001065, 9.999709 
3.2500175e+2, 2.1481565e+2, -733023.75, -818296.3, -29504.32, -0.11509345, 0.4584737, -723810.7, 111040.96, 0.0, 10.000822, 9.999693 
3.2500386e+2, 2.248144e+2, -702586.5, -839589.1, -147285.98, -0.1410058, 0.40610117, -608651.4, 128211.86, 0.0, 10.000723, 9.998924 
3.2500625e+2, 2.3481333e+2, -591492.44, -740397.6, -130364.25, 0.032393303, 0.3953293, -515818.3, 123059.55, 0.0, 10.000833, 9.998881 
3.2500887e+2, 2.4481319e+2, -516964.03, -567321.94, 25791.322, 0.050476287, 0.4590823, -506098.97, 34782.254, 0.0, 10.000304, 9.999648 
3.250118e+2, 2.5481412e+2, -586685.2, -547240.56, 32406.025, -0.09674915, 0.5724779, -529027.1, -86155.43, 0.0, 9.999145, 9.999668 
3.2501444e+2, 2.6481378e+2, -537756.06, -581491.2, -115034.305, -0.08347638, 0.62261057, -442529.3, -97652.6, 0.0, 9.999278, 9.998696 
3.2501677e+2, 2.7481195e+2, -216933.58, -380698.1, -138477.58, 0.104179785, 0.559824, -137940.9, 108957.91, 0.00000000010851988, 10.000823, 9.998659 
3.250196e+2, 2.8481045e+2, -32055.906, -121611.88, 24802.506, 0.11642125, 0.49427733, -25645.688, 123267.46, 0.00000014601811, 10.000906, 9.999729 
3.2502294e+2, 2.9480967e+2, -150236.84, -120657.61, 14599.992, -0.06804398, 0.42395687, -114665.2, -63749.668, 0.000002235968, 9.999392, 9.999789 
3.250271e+2, 3.048098e+2, -92464.77, -132889.39, -90231.375, -0.068162896, 0.49170598, -20209.58, -20209.58, 0.000011294619, 9.999733, 9.999212 
3.2503203e+2, 3.1481043e+2, 262322.22, 92751.4, -31653.633, 0.12748674, 0.6244506, 268038.28, 268038.28, 0.000031418378, 10.001917, 9.999705 
3.349749e+2, 1.24815986e+2, -1668773.1, -1688467.9, -160587.61, -0.0101747345, 0.42042893, -1517731.3, 199109.33, 0.00013659472, 10.000266, 10.000047 
3.3497936e+2, 1.3481407e+2, -1626244.1, -1649736.8, -45113.914, 0.015517334, 0.24640119, -1591372.4, 27483.793, 0.000054929977, 10.000044, 9.99975 
3.3498514e+2, 1.4481214e+2, -1539119.3, -1623280.3, -44876.5, 0.19870454, 0.108757585, -1519680.1, 1196.0498, 0.000011796083, 10.000255, 9.999148 
3.3498758e+2, 1.5481336e+2, -1313532.6, -1473557.4, -48989.38, 0.06577169, 0.30829737, -1299726.4, 123143.37, 0.00000057438905, 10.001177, 9.999058 
3.349908e+2, 1.6481432e+2, -1072859.3, -1105991.8, -36249.195, 0.034751717, 0.41214103, -1049570.3, 275289.8, 0.00000000201948, 10.001294, 10.000854 
3.349948e+2, 1.7481507e+2, -1075218.4, -1056024.4, 33361.48, 0.09169506, 0.38835183, -1030907.0, 195938.8, 0.0, 10.000597, 10.000864 
3.3499706e+2, 1.8481468e+2, -1212010.6, -1403395.6, -31002.092, 0.08536037, 0.41107944, -1207114.0, -78262.914, 0.0, 10.000422, 9.997886 
3.3499777e+2, 1.9481301e+2, -1049874.5, -1283832.8, -75145.375, 0.019612946, 0.44886658, -1027817.8, 3059.6829, 0.0, 10.000901, 9.997803 
3.35e+2, 2.0481144e+2, -834821.7, -972763.2, -20913.098, -0.0045302943, 0.444336, -831720.8, 101176.375, 0.0, 10.001032, 9.999203 
3.3500394e+2, 2.1480994e+2, -773873.56, -890977.7, -34773.316, 0.013922085, 0.3588788, -764326.2, 70583.164, 0.0, 10.0007715, 9.999216 
3.3500633e+2, 2.2480987e+2, -668802.2, -759795.0, -147758.97, 0.02104057, 0.4206938, -559693.8, 177216.95, 0.0, 10.00068, 9.999494 
3.35007e+2, 2.3481138e+2, -555814.5, -656906.8, -123474.21, 0.01614604, 0.60985684, -472941.03, 165959.22, 0.0, 10.000791, 9.9994755 
3.350089e+2, 2.4481118e+2, -505107.53, -540854.0, -20567.188, 0.008360015, 0.6268497, -495732.6, 45169.24, 0.0, 10.000295, 9.999834 
3.35012e+2, 2.5480914e+2, -576804.3, -523807.75, -8252.444, -0.0011711706, 0.4238654, -522552.44, -79636.28, 0.0, 9.99913, 9.999835 
3.350145e+2, 2.648083e+2, -571418.4, -649440.9, -62382.938, -0.0154308295, 0.4363944, -536853.06, -191927.11, 0.0, 9.9992695, 9.998234 
3.3501634e+2, 2.748086e+2, -252281.16, -447853.7, -77009.65, -0.033234075, 0.632804, -225598.0, 21334.168, 0.000000000044508567, 10.000795, 9.998211 
3.3501947e+2, 2.848075e+2, -55815.41, -170329.3, -32940.08, 0.00145457, 0.6461426, -47016.266, 101928.41, 0.00000018850986, 10.0009, 9.999397 
3.3502385e+2, 2.9480526e+2, -178243.9, -180286.17, -37287.805, 0.07273517, 0.46846983, -141963.27, -91003.04, 0.0000021997091, 9.999393, 9.999381 
3.3502793e+2, 3.0480453e+2, -149050.19, -245589.84, -13553.366, 0.033079147, 0.50783765, -147183.5, -147183.5, 0.000010789971, 9.999719, 9.998442 
3.3503166e+2, 3.1480464e+2, 239625.33, 65214.19, 52835.063, -0.12042098, 0.65878165, 254382.28, 254382.28, 0.000030295108, 10.001838, 9.999552 
3.4497467e+2, 1.2481009e+2, -1725631.4, -1713272.0, -54418.875, -0.034241375, 0.42669517, -1664683.0, 52218.03, 0.00012625929, 9.999868, 10.000068 
3.4498045e+2, 1.3480929e+2, -1476748.3, -1551722.1, -56195.324, 0.07758902, 0.33989587, -1446683.9, 172222.64, 0.000053424294, 10.000954, 9.99999 
3.4498644e+2, 1.4480717e+2, -1387184.1, -1514852.3, -77458.92, 0.2626668, 0.15785384, -1350645.5, 170280.67, 0.0000131995685, 10.001145, 9.999463 
3.4498754e+2, 1.5480725e+2, -1383860.9, -1474372.0, -52244.496, -0.02159954, 0.20954141, -1359996.6, 62929.813, 0.00000089811203, 10.000549, 9.999354 
3.4499052e+2, 1.6480824e+2, -1242662.0, -1158822.5, -95713.555, -0.05971257, 0.29091603, -1096251.4, 228663.5, 0.0000000015154811, 9.999999, 10.001115 
3.449952e+2, 1.748104e+2, -1219325.8, -1093311.8, -149708.42, 0.13364008, 0.37869126, -993891.9, 232997.34, 0.0, 9.9994755, 10.001144 
3.449977e+2, 1.8481052e+2, -1278785.6, -1414248.8, -160343.44, 0.1366977, 0.4296125, -1172455.1, -43564.86, 0.0, 9.999868, 9.998079 
3.4499815e+2, 1.948084e+2, -988823.94, -1233964.8, -106074.25, -0.049073018, 0.40354043, -949297.9, 81622.84, 0.0, 10.001229, 9.99799 
3.4500042e+2, 2.0480694e+2, -811225.3, -968949.5, -42283.063, -0.07186964, 0.40569654, -800605.06, 132334.83, 0.0, 10.001219, 9.999144 
3.4500477e+2, 2.1480615e+2, -932885.4, -975312.6, -31027.0, 0.07565327, 0.3972453, -916513.2, -81565.97, 0.0, 9.999705, 9.999154 
3.4500697e+2, 2.2480641e+2, -852192.44, -828533.06, -83934.65, 0.08618054, 0.48733488, -755598.56, -18652.848, 0.0, 9.999347, 9.999659 
3.4500682e+2, 2.3480792e+2, -625048.56, -668243.2, -98262.62, -0.048849642, 0.6571777, -546037.8, 92896.11, 0.0, 10.000233, 9.9996605 
3.450085e+2, 2.4480723e+2, -495996.5, -578080.44, -71777.28, -0.06891056, 0.63615143, -454355.8, 86583.32, 0.0, 10.000541, 9.999459 
3.45012e+2, 2.548042e+2, -446347.28, -506389.13, -110365.69, 0.037064742, 0.3748899, -361992.3, 80970.4, 0.0, 10.000218, 9.999435 
3.450146e+2, 2.6480308e+2, -463035.9, -578747.5, -105535.445, 0.037377585, 0.3719218, -400537.97, -55562.945, 0.0, 9.999932, 9.998401 
3.450162e+2, 2.748039e+2, -399760.5, -496899.47, -78302.48, -0.06690089, 0.60523844, -356187.3, -109211.54, 0.0, 9.999696, 9.998402 
3.450194e+2, 2.8480318e+2, -227194.06, -289117.72, -45882.387, -0.03858579, 0.6637274, -202804.03, -53818.98, 0.00000016974016, 9.999887, 9.999066 
3.4502417e+2, 2.9480106e+2, -40527.684, -157147.33, -58402.98, 0.111719735, 0.52896863, -16309.065, 34692.125, 0.0000019719364, 10.000525, 9.998996 
3.4502834e+2, 3.0479932e+2, -67428.16, -243208.63, 33142.395, 0.07285231, 0.5057782, -61386.97, -61386.97, 0.0000096256135, 10.0004225, 9.998123 
3.450321e+2, 3.1479827e+2, -101236.99, -81700.625, 110935.445, -0.1303382, 0.5666652, 19895.865, 19895.865, 0.00002817607, 9.999394, 9.999728 
3.549756e+2, 1.248043e+2, -1796608.1, -1865876.4, -2048.922, 0.04439011, 0.36854577, -1796547.5, -79588.336, 0.00012021515, 9.999887, 9.999013 
3.549819e+2, 1.3480651e+2, -1530002.1, -1666426.5, -15188.712, 0.116598286, 0.6640046, -1528331.5, 90611.58, 0.000054251253, 10.000975, 9.999191 
3.549877e+2, 1.4480515e+2, -1331319.9, -1401919.0, -104493.77, 0.2574164, 0.55730855, -1256324.3, 264631.34, 0.000015580335, 10.001157, 10.000236 
3.5498762e+2, 1.5480354e+2, -1325984.9, -1357078.1, -71934.71, -0.08077892, 0.36544842, -1267936.0, 155027.4, 0.0000017221554, 10.00056, 10.000157 
3.549899e+2, 1.648031e+2, -1331650.8, -1335048.1, -120882.02, -0.13182019, 0.32019496, -1212455.5, 112509.43, 0.000000007086625, 9.999965, 9.99992 
3.5499433e+2, 1.7480393e+2, -1308190.9, -1275468.3, -165748.8, 0.08910817, 0.39841118, -1125275.1, 101684.2, 0.0, 9.999464, 9.999899 
3.5499725e+2, 1.8480407e+2, -1180372.4, -1199528.4, -113592.65, 0.09316792, 0.44094703, -1075954.6, 53006.277, 0.0, 9.999826, 9.999572 
3.5499877e+2, 1.9480349e+2, -884123.25, -1007572.44, -51101.07, -0.11627184, 0.4148818, -865715.1, 165254.39, 0.0, 10.001193, 9.999559 
3.5500106e+2, 2.0480357e+2, -788449.8, -913690.2, -100527.84, -0.13848215, 0.47076067, -732633.8, 200337.13, 0.0, 10.001183, 9.999541 
3.5500413e+2, 2.1480432e+2, -910973.0, -922595.56, -83923.54, 0.031632844, 0.5767534, -832659.8, 2304.999, 0.0, 9.999671, 9.999533 
3.5500568e+2, 2.248041e+2, -875056.44, -867344.3, -54724.71, 0.014666419, 0.61207855, -816340.0, -79372.695, 0.0, 9.99931, 9.999411 
3.5500562e+2, 2.3480292e+2, -646677.9, -708668.7, -60556.207, -0.20288631, 0.53955585, -609645.56, 29333.197, 0.0, 10.000212, 9.999393 
3.550076e+2, 2.4480131e+2, -565586.6, -718064.6, -87018.914, -0.22009125, 0.48657745, -526133.44, 14860.12, 0.0, 10.000524, 9.998507 
3.5501173e+2, 2.5479928e+2, -517241.9, -647697.0, -119452.95, -0.02440947, 0.42014518, -446367.88, -3355.9324, 0.0, 10.000195, 9.998476 
3.5501462e+2, 2.6479813e+2, -412800.9, -469343.63, -116421.14, 0.035895634, 0.42889076, -321267.63, 23756.266, 0.0, 9.999913, 9.999159 
3.5501623e+2, 2.7479798e+2, -348968.2, -388689.25, -81929.055, -0.04331979, 0.48164892, -284526.8, -37497.617, 0.0, 9.999684, 9.999148 
3.5501936e+2, 2.8479752e+2, -251995.94, -339230.66, -26482.25, -0.047322445, 0.5465721, -244586.02, -95551.3, 0.00000011654808, 9.999883, 9.998724 
3.550238e+2, 2.9479688e+2, -66660.914, -209333.0, -29166.273, 0.011378845, 0.59365577, -60928.785, -9889.354, 0.0000016005947, 10.000514, 9.998644 
3.550283e+2, 3.0479413e+2, -57558.023, -215695.0, -2737.36, 0.015214648, 0.47877204, -57510.652, -57510.652, 0.00000802472, 10.000401, 9.998321 
3.5503298e+2, 3.1479156e+2, -68926.84, -281.14145, 77282.055, -0.008393935, 0.36875632, 49957.074, 49957.074, 0.000025457135, 9.999347, 10.000305 
3.6497796e+2, 1.24798745e+2, -1548375.6, -1813473.0, 15219.649, 0.19631712, 0.36666757, -1547504.6, 169508.67, 0.00011678404, 10.001878, 9.998415 
3.6498228e+2, 1.3480105e+2, -1509581.5, -1695950.5, -6131.067, 0.046169326, 0.7054715, -1509380.0, 109620.11, 0.000055597222, 10.001286, 9.998835 
3.6498746e+2, 1.4480016e+2, -1390270.9, -1358533.5, -110091.59, 0.15757845, 0.6343078, -1263172.8, 257834.94, 0.000017763748, 10.000448, 10.000874 
3.64988e+2, 1.5479901e+2, -1448358.6, -1342143.0, -96806.73, -0.036978967, 0.42259604, -1284833.5, 138173.47, 0.000002786188, 9.9994, 10.000822 
3.6499038e+2, 1.6479827e+2, -1450048.6, -1468552.3, -78968.91, -0.050968975, 0.34825486, -1379791.4, -54780.48, 0.00000008230677, 9.999479, 9.99924 
3.649944e+2, 1.7479804e+2, -1167680.3, -1286329.8, -92804.93, 0.087022796, 0.39063486, -1116858.9, 110160.81, 0.0, 10.00077, 9.999194 
3.649972e+2, 1.8479808e+2, -1038410.75, -1066939.1, -72167.984, 0.078025505, 0.4327278, -979110.75, 149911.73, 0.0, 10.000521, 10.00015 
3.6499903e+2, 1.9479841e+2, -1226214.4, -1105231.9, -86804.85, -0.07530285, 0.43693084, -1059920.1, -28900.74, 0.0, 9.998551, 10.000165 
3.6500135e+2, 2.0479894e+2, -1138804.6, -1041730.7, -144494.2, -0.09737543, 0.4883236, -937839.25, -4824.8403, 0.0, 9.998609, 9.9999 
3.6500418e+2, 2.1479966e+2, -717546.6, -790695.6, -140577.67, 0.012872709, 0.5573347, -608863.5, 226144.1, 0.0, 10.000841, 9.999874 
3.650057e+2, 2.2479907e+2, -578133.75, -755818.2, -123594.0, -0.017123621, 0.5522313, -514764.2, 222248.77, 0.0, 10.001479, 9.999133 
3.6500597e+2, 2.3479713e+2, -646343.4, -742514.44, -138780.63, -0.19319914, 0.43465516, -547553.9, 91477.54, 0.0, 10.000357, 9.999093 
3.6500826e+2, 2.4479553e+2, -614703.44, -756208.5, -111646.21, -0.19020107, 0.40392435, -553278.9, -12231.714, 0.0, 10.000245, 9.998381 
3.6501268e+2, 2.5479433e+2, -374473.16, -589920.2, -87142.984, 0.0023492426, 0.4334096, -343638.9, 99420.75, 0.0, 10.001226, 9.998375 
3.6501545e+2, 2.6479325e+2, -251337.06, -403795.25, -119592.63, 0.07169007, 0.4571329, -185744.89, 159326.48, 0.0, 10.001074, 9.999053 
3.650165e+2, 2.747923e+2, -357839.56, -407156.03, -161036.42, 0.015364173, 0.4451973, -219584.44, 27497.854, 0.0, 9.999679, 9.999029 
3.6501932e+2, 2.847916e+2, -316187.66, -399569.66, -62221.133, -0.01638432, 0.5003178, -282981.34, -133891.08, 0.000000055764154, 9.9995575, 9.998471 
3.65024e+2, 2.947911e+2, -44963.94, -224423.72, -68407.29, -0.033101846, 0.5900385, -21862.05, 29232.639, 0.0000011854916, 10.000778, 9.998412 
3.6502877e+2, 3.0478778e+2, 2072.3726, -162694.25, -107415.07, 0.012227959, 0.41697225, 55058.953, 55058.953, 0.0000066145303, 10.000703, 9.998542 
3.6503384e+2, 3.1478605e+2, -80404.516, 11802.633, -53243.707, 0.15648164, 0.3680306, 36129.39, 36129.39, 0.00002317202, 9.99919, 10.000466 
3.7498125e+2, 1.24793485e+2, -1558134.8, -1834812.3, 8835.129, 0.3099055, 0.43205562, -1557853.0, 159209.78, 0.000116595606, 10.001883, 9.998264 
3.749815e+2, 1.3479286e+2, -1498928.8, -1680365.8, -26471.508, -0.17344497, 0.46669182, -1495145.5, 123931.695, 0.000057458026, 10.001312, 9.998928 
3.749857e+2, 1.4479214e+2, -1357185.5, -1284973.4, -154642.64, -0.080080666, 0.381429, -1162277.6, 358805.34, 0.000019792478, 10.000429, 10.001388 
3.749885e+2, 1.5479355e+2, -1408737.8, -1265705.5, -131708.95, 0.0592482, 0.3721905, -1187349.0, 235708.69, 0.000003853391, 9.999421, 10.001337 
3.7499183e+2, 1.6479371e+2, -1467394.3, -1499935.6, -35334.46, 0.13252309, 0.37171778, -1444764.3, -119710.97, 0.00000020238203, 9.999461, 9.999031 
3.7499526e+2, 1.747927e+2, -1182608.9, -1319385.5, -40449.63, 0.0847032, 0.3596171, -1171542.0, 55527.945, 0.0, 10.000773, 9.998967 
3.7499753e+2, 1.8479249e+2, -1062635.9, -1111795.3, -147737.77, 0.045365784, 0.4010487, -937447.06, 191628.78, 0.0, 10.000498, 9.999851 
3.7499875e+2, 1.9479312e+2, -1252101.5, -1151984.5, -156660.23, 0.031160142, 0.46300277, -1037579.3, -6508.7173, 0.0, 9.998522, 9.999856 
3.7500116e+2, 2.04793e+2, -1127594.4, -1009511.3, -66604.97, 0.012518972, 0.45465785, -979546.56, -46475.906, 0.0, 9.9985695, 10.00014 
3.7500474e+2, 2.1479209e+2, -704093.4, -752994.94, -50901.61, -0.022930065, 0.33688515, -672074.56, 163001.45, 0.0, 10.000798, 10.000153 
3.7500697e+2, 2.2479126e+2, -607488.25, -804879.44, -167335.63, -0.04795192, 0.30727208, -511910.75, 225172.36, 0.0, 10.001428, 9.998821 
3.7500775e+2, 2.347905e+2, -672706.6, -789699.1, -177312.16, -0.060168874, 0.33820474, -544490.8, 94601.52, 0.0, 10.000321, 9.998787 
3.750103e+2, 2.4478988e+2, -570463.56, -654857.9, -78495.71, -0.019121783, 0.38553646, -523541.84, 17557.975, 0.0, 10.000207, 9.999095 
3.7501475e+2, 2.5478938e+2, -326778.97, -487531.7, -45208.934, 0.07580633, 0.41363108, -314937.06, 128168.805, 0.0, 10.001209, 9.999086 
3.7501696e+2, 2.6478836e+2, -321586.94, -546551.8, -174598.08, 0.105867594, 0.45602688, -226375.39, 118742.52, 0.0, 10.001062, 9.998076 
3.7501675e+2, 2.7478686e+2, -430509.34, -551673.9, -208444.67, 0.06252691, 0.48631012, -274021.6, -26885.852, 0.0, 9.999652, 9.99805 
3.7501922e+2, 2.8478536e+2, -332069.13, -429275.66, -21154.682, 0.0058222623, 0.52574813, -327664.88, -178513.27, 0.00000003400916, 9.999542, 9.998277 
3.750245e+2, 2.9478374e+2, -58518.73, -252353.25, -18101.646, -0.06995904, 0.52003276, -56842.76, -5675.6455, 0.0000008994765, 10.0007715, 9.998227 
3.7502956e+2, 3.047802e+2, 17119.41, -125821.16, -164027.63, 0.0103408275, 0.32045025, 124571.07, 124571.07, 0.000005653272, 10.000683, 9.998803 
3.750344e+2, 3.1478167e+2, -96994.195, -15064.681, -107422.234, 0.2661492, 0.5676809, 58938.59, 58938.59, 0.000021689997, 9.99916, 10.000297 
3.8498348e+2, 1.2478825e+2, -1423276.0, -1749343.9, 58500.906, 0.30888158, 0.41010392, -1413097.9, 304014.72, 0.00011972094, 10.002732, 9.998437 
3.8498253e+2, 1.3478729e+2, -1632589.6, -1714806.0, -9662.905, -0.14932594, 0.38473, -1631469.1, -12340.474, 0.000060093465, 10.000266, 9.999198 
3.8498592e+2, 1.4478676e+2, -1505151.0, -1416017.3, -97887.55, -0.05741622, 0.33069995, -1353028.6, 168105.16, 0.000021868578, 9.99966, 10.000863 
3.84989e+2, 1.54788e+2, -1209835.0, -1227549.1, -165251.97, 0.0871147, 0.35826832, -1053202.9, 369911.25, 0.000004862859, 10.001042, 10.000814 
3.8499218e+2, 1.6478835e+2, -1203356.4, -1332286.3, -88932.9, 0.14601618, 0.38276145, -1157981.5, 167127.48, 0.00000029520132, 10.00109, 9.999402 
3.8499507e+2, 1.7478782e+2, -1319612.0, -1340172.8, -52240.598, 0.04740182, 0.381044, -1276649.9, -49531.73, 0.0, 9.999636, 9.999374 
3.8499728e+2, 1.8478768e+2, -1222463.5, -1192598.5, -131705.98, 0.02506688, 0.4082061, -1074981.3, 54140.79, 0.0, 9.999417, 9.999818 
3.8499907e+2, 1.9478777e+2, -965090.1, -1019958.0, -132273.7, 0.11118965, 0.42130068, -857435.4, 173686.08, 0.0, 10.000516, 9.999804 
3.850016e+2, 2.0478737e+2, -845347.3, -889155.06, 1124.9303, 0.10144928, 0.39543316, -845318.44, 87805.4, 0.0, 10.00057, 10.000003 
3.8500488e+2, 2.1478647e+2, -906550.5, -867933.56, -20216.643, -0.020981194, 0.29218063, -859286.2, -24156.89, 0.0, 9.9994755, 10.000004 
3.8500753e+2, 2.2478569e+2, -902782.3, -943553.6, -154518.77, -0.03060592, 0.2726749, -767310.25, -30174.127, 0.0, 9.999384, 9.998854 
3.8500953e+2, 2.3478505e+2, -660414.0, -777707.75, -147700.83, 0.08369305, 0.31239215, -560142.7, 79001.555, 0.0, 10.000388, 9.998834 
3.8501188e+2, 2.4478474e+2, -542292.8, -633320.6, -53311.83, 0.112124324, 0.3835601, -517709.16, 23440.398, 0.0, 10.000362, 9.999166 
3.850146e+2, 2.5478473e+2, -616421.5, -623139.94, -75933.14, 0.0429625, 0.4553274, -543773.3, -100621.01, 0.0, 9.999198, 9.999126 
3.850167e+2, 2.6478362e+2, -527557.75, -648227.94, -169750.47, 0.0478214, 0.48601574, -407738.6, -62573.758, 0.0, 9.999653, 9.998058 
3.850182e+2, 2.7478138e+2, -112530.266, -399953.0, -139173.67, 0.13597795, 0.44471696, -56185.973, 191000.97, 0.0, 10.0018425, 9.9980345 
3.8502103e+2, 2.8477958e+2, 28255.568, -279366.84, 68934.69, 0.107321374, 0.46038696, 42996.664, 192202.08, 0.000000026095549, 10.002127, 9.998056 
3.8502517e+2, 2.9477796e+2, -137332.25, -312679.7, 61916.324, -0.05444298, 0.4796554, -117673.25, -66451.02, 0.0000006696504, 10.000337, 9.998015 
3.850293e+2, 3.0477482e+2, -164139.56, -178206.78, -96436.56, -0.009429377, 0.3156128, -74480.45, -74480.45, 0.000004955279, 9.999286, 9.999116 
3.8503322e+2, 3.1477806e+2, -158713.7, -81202.16, -62877.566, 0.25388807, 0.7076872, -46095.906, -46095.906, 0.000021234744, 9.998898, 9.9999695 
3.9498454e+2, 1.2478306e+2, -1397634.5, -1693664.1, -14284.49, 0.11560752, 0.30199838, -1396946.8, 320215.88, 0.0001233599, 10.0027275, 9.998823 
3.9498508e+2, 1.3478422e+2, -1601136.0, -1653526.8, -100401.88, 0.07159869, 0.44854093, -1523568.5, 95587.15, 0.00006261113, 10.000283, 9.999614 
3.94988e+2, 1.4478396e+2, -1621507.6, -1652182.6, -53249.953, 0.17275445, 0.48001763, -1581430.4, -60269.75, 0.000023583854, 9.999637, 9.999253 
3.9498925e+2, 1.5478238e+2, -1321132.0, -1463165.9, -109057.55, -0.002722342, 0.38517126, -1262006.9, 161169.48, 0.000005569423, 10.001058, 9.999191 
3.9499137e+2, 1.6478205e+2, -1134445.0, -1187443.9, -147665.97, -0.05875648, 0.37650433, -1010919.6, 314259.4, 0.00000035120044, 10.001082, 10.000402 
3.9499372e+2, 1.7478335e+2, -1245609.0, -1184982.4, -103997.25, -0.06373662, 0.45118076, -1106970.6, 120194.164, 0.0, 9.999627, 10.000445 
3.9499637e+2, 1.8478352e+2, -1214741.5, -1166206.8, -95868.79, -0.016752483, 0.4477432, -1091581.6, 37579.992, 0.0, 9.9993725, 10.000021 
3.9499974e+2, 1.9478236e+2, -956893.94, -993087.0, -87252.41, 0.11861596, 0.3162425, -885881.2, 145290.45, 0.0, 10.000475, 10.000007 
3.950025e+2, 2.0478202e+2, -887533.56, -965265.1, -43761.215, 0.1265699, 0.31097183, -867870.8, 65303.52, 0.0, 10.000524, 9.999503 
3.9500442e+2, 2.147827e+2, -950564.1, -945095.4, -58016.76, -0.022182813, 0.41635832, -889748.56, -54580.324, 0.0, 9.99942, 9.999498 
3.9500728e+2, 2.247823e+2, -882681.3, -893689.6, -122147.61, -0.0018010115, 0.44298336, -765913.94, -28741.46, 0.0, 9.999345, 9.999218 
3.9501116e+2, 2.347807e+2, -637200.5, -723068.56, -105428.09, 0.19897757, 0.34833807, -566299.5, 72888.58, 0.0, 10.000359, 9.999225 
3.9501286e+2, 2.4478005e+2, -586091.56, -717128.2, -98864.51, 0.16128305, 0.39309388, -533006.1, 8190.891, 0.0, 10.000336, 9.998603 
3.9501205e+2, 2.5478035e+2, -660898.8, -706056.7, -114489.13, -0.13960475, 0.5545302, -566783.4, -123584.266, 0.0, 9.999158, 9.998576 
3.9501458e+2, 2.6477903e+2, -468119.97, -517406.6, -91067.84, -0.14081359, 0.54477644, -398420.06, -53208.063, 0.0, 9.99962, 9.998975 
3.9502072e+2, 2.7477586e+2, -47850.1, -262866.6, -51166.285, 0.192823, 0.31999683, -36295.293, 210940.84, 0.0, 10.001827, 9.998986 
3.9502463e+2, 2.8477412e+2, 12354.423, -308922.8, 1137.6942, 0.24212156, 0.30602846, 12358.451, 161610.16, 0.000000010243951, 10.002115, 9.997859 
3.9502588e+2, 2.947737e+2, -154491.39, -341545.44, 924.9599, -0.03093677, 0.4674766, -154486.81, -103226.58, 0.00000051187845, 10.000306, 9.997833 
3.9502794e+2, 3.047716e+2, -143147.8, -128421.73, -111482.695, -0.08598849, 0.3976299, -24059.186, -24059.186, 0.0000058094397, 9.999264, 9.999466 
3.9503017e+2, 3.1477526e+2, -199638.44, -156926.64, -72828.12, 0.036598425, 0.7994676, -102387.81, -102387.81, 0.000025375839, 9.998867, 9.999459 
4.0498617e+2, 1.2477975e+2, -1603297.0, -1785902.4, 15060.167, 0.08152139, 0.34909967, -1602063.3, 115135.5, 0.00012458346, 10.001277, 9.99889 
4.0498674e+2, 1.3478053e+2, -1369598.8, -1543518.4, -145276.48, 0.13171397, 0.4548494, -1287244.5, 331949.2, 0.00006386204, 10.00188, 9.999597 
4.0498915e+2, 1.4478052e+2, -1315969.0, -1536952.3, -6745.131, 0.21481322, 0.5257623, -1315763.4, 205432.81, 0.000024485202, 10.001874, 9.998964 
4.049906e+2, 1.5477882e+2, -1323493.1, -1496387.6, 30568.863, 0.023908159, 0.450076, -1318247.5, 104967.21, 0.000005781208, 10.001177, 9.998906 
4.0499246e+2, 1.6477825e+2, -1190722.0, -1205067.3, -27296.004, -0.03446262, 0.42742407, -1169672.0, 155547.97, 0.0000003430959, 10.000665, 10.000477 
4.0499392e+2, 1.7477913e+2, -1137466.5, -1124080.5, -70717.48, -0.037799183, 0.450842, -1059740.0, 167468.06, 0.0, 10.000339, 10.000517 
4.0499634e+2, 1.8477932e+2, -1084072.5, -1106333.9, -44491.164, 0.0027927232, 0.44648105, -1049340.9, 79863.04, 0.0, 10.00028, 9.999996 
4.0500024e+2, 1.9477862e+2, -956712.75, -996626.0, -55917.77, 0.124522306, 0.36620477, -917297.1, 113912.54, 0.0, 10.000488, 9.99998 
4.0500295e+2, 2.0477839e+2, -913451.4, -996911.75, -53301.89, 0.13022709, 0.37946156, -887487.4, 45724.766, 0.0, 10.000428, 9.999331 
4.0500432e+2, 2.1477868e+2, -869220.56, -928489.3, -51012.848, -0.0018450735, 0.46545812, -839859.1, -4648.344, 0.0, 10.000072, 9.999302 
4.0500706e+2, 2.2477823e+2, -770249.1, -808432.25, -49469.035, 0.009981728, 0.48505118, -736315.44, 899.7376, 0.0, 9.99999, 9.999487 
4.050112e+2, 2.3477699e+2, -634948.75, -694618.44, -48145.734, 0.17502777, 0.40024632, -608143.2, 31082.725, 0.0, 10.000254, 9.999471 
4.050131e+2, 2.4477614e+2, -557059.6, -723634.56, -61367.797, 0.14580734, 0.42120725, -536892.7, 4343.1025, 0.0, 10.000619, 9.998424 
4.0501258e+2, 2.5477573e+2, -388221.13, -592044.94, -57937.08, -0.09824362, 0.5266705, -372903.6, 70340.62, 0.0, 10.001112, 9.998414 
4.0501532e+2, 2.647742e+2, -231936.17, -397706.84, 4002.5247, -0.10555255, 0.50548565, -231839.58, 113418.96, 0.0, 10.001214, 9.999029 
4.0502164e+2, 2.7477148e+2, -180335.56, -321375.28, -26549.314, 0.14997286, 0.3156064, -175503.47, 71775.89, 0.0, 10.000894, 9.999034 
4.050255e+2, 2.8477004e+2, -192895.52, -381902.1, -56781.777, 0.19960232, 0.32034314, -177148.9, -27857.133, 0.0000000008315615, 10.000592, 9.998091 
4.050267e+2, 2.9476985e+2, -134985.75, -300563.6, -32893.293, 0.025174012, 0.47927883, -128690.586, -77393.34, 0.00000071034475, 10.000305, 9.998113 
4.0502807e+2, 3.0476826e+2, -6283.2915, -22762.025, -91935.164, -0.03172157, 0.42359495, 77780.98, 77780.98, 0.000009258835, 10.00003, 9.999823 
4.050284e+2, 3.147708e+2, -89738.03, -129057.445, -69242.53, -0.063739404, 0.6805315, -37418.35, -37418.35, 0.000036115405, 9.999711, 9.999246 
4.14988e+2, 1.24778256e+2, -1616822.4, -1816733.5, 52166.35, 0.11217589, 0.5425791, -1604028.5, 113193.305, 0.00012201354, 10.001285, 9.9986725 
4.1498724e+2, 1.3477626e+2, -1393043.4, -1603823.1, -120268.68, -0.018508447, 0.4072114, -1338522.1, 280719.94, 0.00006271878, 10.00192, 9.999166 
4.149892e+2, 1.4477642e+2, -1242394.8, -1384397.4, -33808.863, 0.018596271, 0.46684122, -1234756.3, 286483.94, 0.000024127196, 10.00188, 10.000008 
4.1499293e+2, 1.5477745e+2, -1248387.6, -1337176.9, 10065.221, 0.12586363, 0.5559596, -1247260.9, 175967.6, 0.0000053776757, 10.001166, 10.000004 
4.1499537e+2, 1.6477698e+2, -1259681.6, -1342402.4, -44197.867, 0.18011868, 0.5351718, -1240509.9, 84721.66, 0.0000002359893, 10.000637, 9.999549 
4.1499558e+2, 1.7477514e+2, -1205061.8, -1264745.0, -78978.766, 0.081538126, 0.38079375, -1150474.9, 76773.19, 0.0, 10.000338, 9.999552 
4.1499707e+2, 1.8477497e+2, -1103328.0, -1141347.9, -40775.016, 0.035994392, 0.40083668, -1077349.3, 51900.332, 0.0, 10.000261, 9.9997635 
4.150004e+2, 1.9477658e+2, -976165.4, -1028553.2, -43891.29, 0.08232593, 0.5725006, -951246.0, 79989.2, 0.0, 10.000456, 9.999774 
4.1500294e+2, 2.047765e+2, -910044.3, -982066.3, -69653.37, 0.07379161, 0.6048353, -867643.7, 65592.984, 0.0, 10.000391, 9.999454 
4.1500446e+2, 2.1477447e+2, -866811.25, -909535.75, -60314.176, -0.0049868594, 0.4458407, -824188.0, 11067.802, 0.0, 10.000013, 9.999458 
4.150066e+2, 2.2477356e+2, -768237.9, -796420.94, -42910.62, -0.041463464, 0.40451142, -737164.25, 99.41163, 0.0, 9.999953, 9.99959 
4.150095e+2, 2.3477386e+2, -630931.9, -678947.94, -33547.336, -0.033019703, 0.46214685, -613686.94, 25571.725, 0.0, 10.000221, 9.999594 
4.150126e+2, 2.4477299e+2, -546936.2, -697488.6, -45697.05, 0.019506838, 0.46466982, -534151.44, 7114.908, 0.0, 10.000598, 9.9986105 
4.15016e+2, 2.5477076e+2, -377945.47, -566400.75, -35476.22, 0.122050576, 0.36826563, -371488.4, 71799.95, 0.0, 10.001091, 9.9986 
4.1501877e+2, 2.6476917e+2, -286527.75, -506519.8, -10843.069, 0.10806713, 0.3662894, -285994.63, 59310.516, 0.0, 10.0012, 9.998285 
4.1502073e+2, 2.7476826e+2, -238948.75, -435443.97, -33237.254, -0.041170012, 0.4355825, -233478.92, 13837.33, 0.0, 10.000861, 9.998264 
4.1502357e+2, 2.8476736e+2, -148399.34, -288563.94, -70632.51, -0.065877534, 0.5011165, -118980.484, 30345.006, 0.00000000001177225, 10.000585, 9.998736 
4.1502747e+2, 2.947664e+2, -88347.266, -200925.27, -38423.64, 0.058496334, 0.5110998, -76483.29, -25149.26, 0.0000013013552, 10.000289, 9.998806 
4.150296e+2, 3.0476475e+2, 23715.393, 38833.22, -104486.27, 0.102759324, 0.39660865, 136033.64, 136033.64, 0.000013961503, 10.000033, 10.000243 
4.150276e+2, 3.1476483e+2, -87998.05, -114480.664, -71912.99, -0.14143889, 0.36972883, -28117.463, -28117.463, 0.00004972542, 9.999668, 9.999366 
4.2498967e+2, 1.2477587e+2, -1459231.1, -1695051.6, 164472.23, 0.11202477, 0.5548758, -1374770.5, 342478.53, 0.000114420596, 10.002164, 9.999087 
4.249891e+2, 1.3477437e+2, -1316343.9, -1548525.5, 3825.5684, -0.042092122, 0.45209175, -1316280.9, 302981.47, 0.00005866896, 10.002364, 9.999332 
4.249902e+2, 1.447748e+2, -1230525.3, -1379104.1, 29658.123, -0.06858791, 0.53101873, -1224824.0, 296432.84, 0.00002226237, 10.001957, 10.00001 
4.2499372e+2, 1.5477537e+2, -1330767.5, -1376150.9, -21351.713, 0.12021584, 0.5705804, -1322301.4, 100948.766, 0.0000044458184, 10.000597, 10.0000105 
4.2499623e+2, 1.6477469e+2, -1320531.6, -1382512.4, -27868.188, 0.22210664, 0.5343268, -1309844.3, 15410.621, 0.00000009724189, 10.000267, 9.99945 
4.249967e+2, 1.7477284e+2, -1096445.9, -1223297.5, -4280.415, 0.12483396, 0.3919148, -1096301.6, 130968.56, 0.0, 10.001129, 9.999455 
4.2499793e+2, 1.8477249e+2, -1037460.25, -1146960.5, 34707.574, 0.067256115, 0.41363382, -1027386.06, 101887.34, 0.0, 10.000874, 9.99943 
4.2500034e+2, 1.9477369e+2, -1161965.9, -1156586.1, 14501.77, 0.08646702, 0.57667446, -1144526.9, -113262.836, 0.0, 9.999347, 9.999428 
4.2500272e+2, 2.0477325e+2, -1127093.1, -1089016.3, 16414.31, 0.091494136, 0.5944244, -1082917.3, -149648.08, 0.0, 9.998912, 9.99943 
4.2500502e+2, 2.1477105e+2, -917011.7, -936683.3, 5924.1387, 0.06822329, 0.41683933, -915365.4, -80074.98, 0.0, 9.999679, 9.9994335 
4.2500708e+2, 2.2477023e+2, -767130.1, -779028.75, 16488.36, 0.012624021, 0.38031858, -755550.6, -18253.742, 0.0, 9.999891, 9.999739 
4.2500886e+2, 2.34771e+2, -722496.0, -706178.1, 18429.932, -0.081775755, 0.4705024, -694181.94, -54895.26, 0.0, 9.99952, 9.999745 
4.250121e+2, 2.4477018e+2, -673471.1, -729121.94, 39444.523, -0.035027582, 0.45961168, -653025.2, -111733.016, 0.0, 9.9995985, 9.998879 
4.250171e+2, 2.547676e+2, -490515.3, -592214.2, 49877.81, 0.16910371, 0.30231634, -470136.53, -26821.322, 0.0, 10.000192, 9.998859 
4.2501995e+2, 2.6476622e+2, -462074.38, -642899.94, 57514.24, 0.15846463, 0.33071423, -445331.4, -100000.47, 0.0, 10.000216, 9.997827 
4.250205e+2, 2.7476615e+2, -452779.38, -589164.5, 46936.29, -0.08692037, 0.5286787, -438187.63, -190848.94, 0.0, 9.999616, 9.99781 
4.2502272e+2, 2.847651e+2, -315894.66, -331501.78, 28836.441, -0.13680522, 0.5847836, -293824.56, -144474.16, 0.0000000012455732, 9.999272, 9.999074 
4.2502704e+2, 2.9476297e+2, -218798.61, -222252.73, 28298.287, 0.043957967, 0.44690073, -192174.73, -140807.88, 0.0000019618685, 9.999213, 9.999181 
4.2502955e+2, 3.047618e+2, -73120.03, -10035.449, -49228.95, 0.13301644, 0.3630219, 16889.393, 16889.393, 0.000018429422, 9.999374, 10.00023 
4.2502716e+2, 3.147616e+2, -71221.31, -97462.16, -65012.375, -0.15287317, 0.3043452, -18018.63, -18018.63, 0.00006268099, 9.99975, 9.999445 
4.3499094e+2, 1.24772675e+2, -1388419.5, -1546258.8, 179322.61, -0.0030849155, 0.39470226, -1271418.5, 445861.47, 0.00010246441, 10.002164, 10.000105 
4.3499228e+2, 1.3477491e+2, -1263108.6, -1442391.3, 17440.137, 0.02650636, 0.59007996, -1261427.9, 357826.3, 0.000052240124, 10.0023775, 10.000057 
4.349921e+2, 1.4477563e+2, -1310066.0, -1534959.9, -19492.12, -0.087009676, 0.7144089, -1308389.1, 212857.36, 0.000019361623, 10.001922, 9.998955 
4.349928e+2, 1.5477249e+2, -1406102.4, -1534042.1, -68383.28, -0.04331974, 0.49236283, -1376432.5, 46847.676, 0.0000034941986, 10.000603, 9.998924 
4.349948e+2, 1.6477126e+2, -1271462.4, -1277397.0, -1565.6189, 0.040903766, 0.41882756, -1271074.8, 54216.02, 0.000000032016867, 10.000253, 10.000179 
4.3499723e+2, 1.7477226e+2, -1043507.0, -1112025.6, 32671.527, 0.052927844, 0.48464552, -1030425.75, 196848.56, 0.0, 10.001121, 10.000225 
4.3499878e+2, 1.8477188e+2, -1076216.3, -1215096.3, -24765.822, 0.056535143, 0.4857781, -1071932.0, 57343.332, 0.0, 10.000825, 9.998985 
4.3499988e+2, 1.9476987e+2, -1201410.0, -1228019.1, -39440.54, 0.09648638, 0.37602937, -1173090.5, -141794.02, 0.0, 9.999305, 9.998958 
4.3500224e+2, 2.0476866e+2, -1148849.6, -1120846.1, 39573.06, 0.14070123, 0.34899995, -1092870.8, -159561.03, 0.0, 9.9988575, 9.999236 
4.3500584e+2, 2.1476835e+2, -937075.6, -967056.75, 38779.145, 0.17490435, 0.38105702, -910490.5, -75176.16, 0.0, 9.999634, 9.999245 
4.350082e+2, 2.2476828e+2, -763908.9, -761423.0, -908.98737, 0.12737851, 0.41987067, -761126.1, -23811.662, 0.0, 9.999844, 9.999883 
4.3500918e+2, 2.347684e+2, -717587.75, -685479.75, 7194.1714, -0.008564093, 0.429869, -683941.56, -44631.574, 0.0, 9.999476, 9.9999075 
4.350116e+2, 2.4476777e+2, -653634.2, -681434.6, 56390.715, -0.055033095, 0.41196522, -609455.75, -68142.555, 0.0, 9.99957, 9.99922 
4.3501562e+2, 2.547663e+2, -469976.06, -543062.94, 75360.08, -0.0053578294, 0.3307241, -422766.5, 20558.348, 0.0, 10.000163, 9.99921 
4.3501872e+2, 2.6476538e+2, -475330.66, -669662.4, 33363.88, 0.0037562407, 0.39696994, -469762.16, -124426.02, 0.0, 10.00021, 9.997647 
4.3502071e+2, 2.74765e+2, -465464.38, -617422.06, 29188.896, -0.0348577, 0.58675575, -460050.5, -212702.95, 0.0, 9.999617, 9.997618 
4.350229e+2, 2.8476316e+2, -314345.5, -325956.56, 22693.135, -0.059703875, 0.5668639, -296727.06, -147359.83, 0.000000012355592, 9.999268, 9.999112 
4.350253e+2, 2.9475966e+2, -220942.27, -220680.36, 32617.404, -0.06027416, 0.2914463, -188193.64, -136798.39, 0.0000026583295, 9.999189, 9.999203 
4.350279e+2, 3.047595e+2, -105199.16, -78448.695, -38998.57, 0.019759122, 0.32574156, -50595.473, -50595.473, 0.000022356537, 9.999379, 9.99976 
4.3502674e+2, 3.1476068e+2, -76682.836, -100660.625, -35361.26, -0.19091727, 0.45674008, -51333.383, -51333.383, 0.000073377385, 9.999723, 9.999433 
4.4499302e+2, 1.2477169e+2, -1236691.4, -1451188.0, 185442.64, -0.057281222, 0.40604502, -1129717.4, 587571.94, 0.000089493355, 10.003123, 10.000294 
4.4499466e+2, 1.3477382e+2, -1547077.0, -1583403.5, -55948.203, 0.12658553, 0.5968984, -1506417.5, 112846.33, 0.000044922584, 10.000461, 10.000009 
4.4499335e+2, 1.4477415e+2, -1638889.0, -1734485.3, -41072.664, -0.046176333, 0.70257455, -1623666.3, -102406.07, 0.00001621496, 9.999841, 9.99859 
4.4499362e+2, 1.5477052e+2, -1341067.5, -1541241.1, -46908.137, -0.048863895, 0.4672907, -1330620.4, 92679.54, 0.0000027558995, 10.001219, 9.998578 
4.4499537e+2, 1.6476908e+2, -1115356.3, -1211200.4, 19332.365, 0.02263099, 0.39396515, -1111603.8, 213709.03, 0.000000035556127, 10.00135, 10.00011 
4.449977e+2, 1.7477022e+2, -1199538.9, -1192891.6, -14962.096, 0.04595709, 0.47801128, -1180888.4, 46405.793, 0.0, 10.000075, 10.000174 
4.4499922e+2, 1.8476984e+2, -1160683.8, -1247155.9, -66512.305, 0.05064512, 0.47818902, -1124589.9, 4704.7637, 0.0, 10.000201, 9.999067 
4.4500023e+2, 1.9476768e+2, -829111.5, -1038162.4, -48325.44, 0.082540475, 0.34548956, -818480.9, 212835.9, 0.0, 10.001812, 9.999053 
4.4500238e+2, 2.0476659e+2, -724321.06, -934769.5, 42275.996, 0.12359207, 0.33142304, -716146.0, 217183.11, 0.0, 10.001854, 9.999068 
4.4500557e+2, 2.1476662e+2, -876315.4, -958460.56, 34281.582, 0.15958226, 0.41518998, -863888.56, -28557.762, 0.0, 10.00014, 9.99906 
4.45008e+2, 2.2476637e+2, -808823.0, -813922.0, 13805.697, 0.13432479, 0.46146005, -797333.4, -60000.242, 0.0, 9.999667, 9.999607 
4.4500968e+2, 2.347658e+2, -579422.7, -651442.1, -16009.718, 0.043310408, 0.42926273, -576024.1, 63312.49, 0.0, 10.000562, 9.999621 
4.450117e+2, 2.4476504e+2, -552866.44, -636226.44, -17987.555, -0.035400826, 0.414638, -549150.7, -7809.042, 0.0, 10.000277, 9.999187 
4.4501406e+2, 2.547641e+2, -682359.25, -647799.25, -35850.906, -0.10338672, 0.38813105, -625281.2, -181932.97, 0.0, 9.998716, 9.9991865 
4.4501722e+2, 2.647631e+2, -669706.94, -708227.5, -26403.559, -0.08659293, 0.42156836, -656285.3, -310926.8, 0.0, 9.99864, 9.998136 
4.4502118e+2, 2.7476195e+2, -342499.56, -503522.38, 15750.548, 0.021579767, 0.48391634, -340973.38, -93599.79, 0.0, 10.000228, 9.998104 
4.4502327e+2, 2.8476006e+2, -164363.72, -267468.06, -10484.852, -0.0021830776, 0.4458946, -163308.3, -13916.324, 0.00000003060041, 10.000349, 9.998994 
4.4502336e+2, 2.947575e+2, -285719.56, -264934.03, -24042.855, -0.15345836, 0.2681353, -249133.89, -197720.63, 0.000003132682, 9.9988, 9.9990835 
4.450263e+2, 3.0475783e+2, -223349.66, -158128.34, -17277.31, -0.034749433, 0.37397373, -153834.25, -153834.25, 0.000025258936, 9.998671, 9.999552 
4.450279e+2, 3.1475845e+2, 6380.2183, -30577.918, 6186.272, -0.064610645, 0.4699576, 7388.2207, 7388.2207, 0.00008019797, 10.000145, 9.999721 
4.5499554e+2, 1.2477291e+2, -1284972.3, -1541289.3, 71540.414, -0.13930744, 0.5884777, -1266356.8, 450920.94, 0.00007906838, 10.003091, 9.999684 
4.5499605e+2, 1.3477096e+2, -1606904.9, -1711083.1, -150321.53, 0.20941989, 0.45857197, -1499903.4, 119389.75, 0.00003857364, 10.000477, 9.9991255 
4.5499384e+2, 1.4477022e+2, -1613401.8, -1682078.5, 8032.247, 0.0074564884, 0.4839653, -1612474.9, -91175.13, 0.000013268856, 9.999842, 9.99895 
4.54996e+2, 1.5476944e+2, -1314295.3, -1487255.4, 12184.872, 0.056756113, 0.49694943, -1313441.0, 109868.695, 0.0000020825275, 10.001224, 9.998947 
4.5499784e+2, 1.647682e+2, -1175729.6, -1332294.9, -31677.514, 0.121410705, 0.4659463, -1169563.3, 155757.38, 0.00000004449902, 10.001334, 9.999286 
4.549981e+2, 1.7476662e+2, -1259232.3, -1317941.5, -59309.824, 0.06657054, 0.36339614, -1222410.3, 4920.6665, 0.0, 10.000077, 9.999315 
4.549991e+2, 1.8476626e+2, -1123284.3, -1160890.1, -10278.422, 0.008348945, 0.3803261, -1120658.3, 8673.96, 0.0, 10.000166, 9.999676 
4.5500132e+2, 1.9476712e+2, -790031.2, -949046.06, 17399.842, -0.0039447397, 0.48555058, -788149.5, 243175.47, 0.0, 10.001778, 9.99968 
4.5500302e+2, 2.0476699e+2, -742886.7, -959542.25, -25050.06, -0.006588121, 0.5440443, -740028.1, 193299.17, 0.0, 10.001796, 9.998926 
4.55004e+2, 2.1476577e+2, -896697.25, -983399.44, -26383.79, -0.017891428, 0.5187191, -889299.75, -53959.824, 0.0, 10.000068, 9.998923 
4.5500633e+2, 2.2476451e+2, -865983.7, -919277.25, 42631.91, -0.008189605, 0.50290775, -842355.94, -105002.86, 0.0, 9.999608, 9.998913 
4.550102e+2, 2.3476318e+2, -632467.3, -755320.56, 23107.535, 0.02880776, 0.46432585, -628264.8, 11102.042, 0.0, 10.000533, 9.998921 
4.5501223e+2, 2.4476199e+2, -585960.5, -698132.44, -78217.16, -0.020475501, 0.4647691, -545799.1, -4421.504, 0.0, 10.000249, 9.998776 
4.550123e+2, 2.5476098e+2, -715038.3, -707117.9, -90968.14, -0.16227928, 0.4725559, -620023.75, -176638.55, 0.0, 9.99868, 9.998797 
4.5501536e+2, 2.647593e+2, -594137.6, -546286.75, 29197.83, -0.14610933, 0.4047719, -532463.8, -187065.77, 0.0, 9.99862, 9.999256 
4.550217e+2, 2.7475688e+2, -265570.22, -337749.13, 81365.27, 0.039589703, 0.22052632, -212649.8, 34767.086, 0.0, 10.000203, 9.999254 
4.5502368e+2, 2.8475586e+2, -182736.83, -301355.72, -68439.26, -0.0047014, 0.21923468, -151483.9, -2059.2346, 0.000000022691747, 10.000329, 9.998773 
4.55021e+2, 2.947564e+2, -305428.88, -303213.8, -78559.67, -0.27792886, 0.3833898, -225753.86, -174333.66, 0.0000032965943, 9.998786, 9.998831 
4.5502475e+2, 3.0475685e+2, -219637.86, -150737.06, 36168.16, -0.06989926, 0.5063962, -135237.83, -135237.83, 0.000026467469, 9.998676, 9.9995985 
4.5503035e+2, 3.147548e+2, 44884.18, 63251.36, 87977.5, 0.14691655, 0.33632803, 142523.28, 142523.28, 0.00008171888, 10.000095, 10.000386 
4.649977e+2, 1.2477315e+2, -1756485.3, -1771123.0, 72779.12, -0.06568393, 0.63651705, -1690658.0, 26615.824, 0.000072079085, 9.999851, 9.999676 
4.649973e+2, 1.3476974e+2, -1472484.4, -1663474.0, -89681.17, 0.2391959, 0.3728996, -1436975.5, 182327.86, 0.000033639506, 10.001456, 9.998991 
4.6499413e+2, 1.4476863e+2, -1251328.9, -1496117.8, 138311.78, -0.066277154, 0.36311668, -1189032.9, 332280.1, 0.000010536622, 10.002269, 9.999058 
4.6499783e+2, 1.5476948e+2, -1192871.5, -1414579.6, 111847.38, 0.081330575, 0.52512795, -1146250.3, 277055.84, 0.0000014175026, 10.001991, 9.999076 
4.6499985e+2, 1.6476837e+2, -1167486.0, -1391782.4, 30260.676, 0.1746916, 0.5271159, -1163475.1, 161840.97, 0.000000030371112, 10.0016775, 9.998708 
4.649989e+2, 1.7476518e+2, -1111180.9, -1311635.5, 12566.758, 0.07385278, 0.32372367, -1110396.1, 116947.32, 0.0, 10.001381, 9.99873 
4.6499947e+2, 1.8476416e+2, -1037528.06, -1151198.1, 91939.766, -0.00026595, 0.31742883, -986274.5, 143077.69, 0.0, 10.000893, 9.999391 
4.6500236e+2, 1.9476542e+2, -1040879.25, -1103205.6, 46672.95, 0.0027153261, 0.48912022, -1015922.0, 15419.564, 0.0, 10.000197, 9.999385 
4.6500394e+2, 2.047653e+2, -972884.6, -1061228.8, -49044.176, -0.010089641, 0.5602748, -951052.9, -17709.682, 0.0, 10.000171, 9.999012 
4.65004e+2, 2.1476372e+2, -775194.2, -915476.5, -42831.992, -0.059674017, 0.48801947, -763150.44, 72207.836, 0.0, 10.000855, 9.99901 
4.6500617e+2, 2.2476237e+2, -737668.6, -886768.5, 73394.44, -0.033195972, 0.47197628, -707602.9, 29769.512, 0.0, 10.000617, 9.998648 
4.6501067e+2, 2.3476122e+2, -817158.6, -875098.0, 77530.84, 0.082278, 0.48057592, -763361.94, -123975.98, 0.0, 9.9994, 9.998643 
4.6501273e+2, 2.4475992e+2, -713366.5, -775832.2, 13830.981, 0.046535715, 0.4894947, -710441.1, -169042.6, 0.0, 9.999441, 9.998633 
4.6501207e+2, 2.5475842e+2, -401807.88, -571331.9, 14135.04, -0.15717347, 0.46025738, -400637.38, 42772.996, 0.0, 10.000893, 9.998664 
4.650151e+2, 2.6475653e+2, -274706.75, -374907.66, 111019.44, -0.13598417, 0.37152216, -203006.67, 142417.23, 0.0, 10.000725, 9.999425 
4.6502206e+2, 2.7475426e+2, -463557.1, -411774.6, 82365.984, 0.13090926, 0.18433022, -351326.34, -103886.73, 0.0, 9.998746, 9.999449 
4.6502405e+2, 2.8475332e+2, -435409.0, -435355.97, -76603.87, 0.087071545, 0.18701364, -358778.6, -209333.28, 0.00000001636591, 9.998644, 9.998667 
4.6502072e+2, 2.9475388e+2, -40929.906, -185444.19, -83517.5, -0.2760899, 0.36276814, -2750.3328, 48689.74, 0.0000038137496, 10.000644, 9.998745 
4.6502438e+2, 3.0475327e+2, 23450.924, -105094.414, -2125.2473, -0.067666784, 0.4177885, 23486.05, 23486.05, 0.000027236774, 10.000646, 9.998967 
4.6503037e+2, 3.1475028e+2, -233592.2, -117686.88, -2085.707, 0.22770292, 0.21024026, -117649.36, -117649.36, 0.00008037478, 9.9983835, 9.999965 
4.749992e+2, 1.24772325e+2, -1712543.8, -1676257.1, 94919.586, 0.07103578, 0.5478346, -1597762.4, 119516.72, 0.00006757851, 9.999839, 10.000329 
4.7499818e+2, 1.347702e+2, -1428870.9, -1568763.8, -22273.38, 0.17171891, 0.3476964, -1425410.3, 193884.14, 0.000029630666, 10.001441, 9.999646 
4.749941e+2, 1.4476947e+2, -1258177.5, -1510813.1, 130249.05, -0.31406567, 0.34647304, -1203053.9, 318245.5, 0.00000816001, 10.002268, 9.9989605 
4.749989e+2, 1.5477061e+2, -1199334.4, -1430285.1, 105819.945, -0.023339722, 0.5499356, -1158181.4, 265108.25, 0.0000009257674, 10.002, 9.998967 
4.7500128e+2, 1.6476949e+2, -1190076.5, -1437142.8, 14598.794, 0.13792771, 0.5718022, -1189216.9, 136083.14, 0.000000014696447, 10.00167, 9.998401 
4.7499987e+2, 1.7476588e+2, -1135280.0, -1359233.5, 5622.369, 0.024105493, 0.35893887, -1135138.9, 92193.32, 0.0, 10.001371, 9.998406 
4.7500026e+2, 1.8476354e+2, -1120478.0, -1317835.3, 61881.46, -0.021904044, 0.29274082, -1102680.0, 26674.566, 0.0, 10.000867, 9.998261 
4.7500318e+2, 1.9476251e+2, -1123483.0, -1271098.6, 24424.49, 0.05743084, 0.35445735, -1119546.8, -88179.96, 0.0, 10.000178, 9.998244 
4.75005e+2, 2.0476149e+2, -956597.06, -1019050.5, -27357.172, 0.069425166, 0.37612367, -946308.44, -12931.234, 0.0, 10.000134, 9.999321 
4.7500542e+2, 2.1476044e+2, -757714.9, -869758.2, -13176.544, -0.010810526, 0.32625163, -756186.1, 79199.586, 0.0, 10.000814, 9.999346 
4.7500736e+2, 2.2475992e+2, -731072.8, -865656.2, 25965.1, 0.013991216, 0.36783358, -726237.1, 11154.274, 0.0, 10.000582, 9.998812 
4.75011e+2, 2.3475994e+2, -813470.06, -856049.3, 35762.434, 0.16426465, 0.47907746, -793140.0, -153745.83, 0.0, 9.999349, 9.9988 
4.7501302e+2, 2.4475878e+2, -708231.06, -759763.4, 63075.934, 0.1227, 0.4876373, -665861.56, -124456.71, 0.0, 9.999416, 9.998756 
4.7501335e+2, 2.5475627e+2, -398723.47, -560690.0, 73276.05, -0.13208368, 0.34805876, -370492.88, 72931.54, 0.0, 10.000869, 9.998752 
4.7501633e+2, 2.647547e+2, -329951.66, -483925.06, 36941.844, -0.09855898, 0.31965077, -321547.2, 23889.62, 0.0, 10.000704, 9.998683 
4.7502214e+2, 2.7475405e+2, -522133.2, -524767.8, 11523.043, 0.2509162, 0.3746443, -511852.4, -264410.4, 0.0, 9.998712, 9.998688 
4.7502422e+2, 2.8475246e+2, -434045.28, -433896.2, -8320.118, 0.2300415, 0.35010344, -425650.28, -276196.25, 0.0000000367379, 9.998647, 9.998676 
4.7502235e+2, 2.947499e+2, -42922.46, -186097.6, -3870.7744, -0.18992278, 0.20529701, -42817.89, 8655.423, 0.000004802636, 10.00062, 9.9987545 
4.750251e+2, 3.0474716e+2, -69619.55, -291355.06, -85485.73, -0.069606975, 0.110790044, -40489.2, -40489.2, 0.000029242266, 10.000615, 9.997702 
4.7502762e+2, 3.1474474e+2, -335838.84, -329612.5, -53957.87, 0.09051759, 0.095243834, -278678.06, -278678.06, 0.000080926366, 9.998381, 9.998509 
4.849997e+2, 1.2477083e+2, -1643450.1, -1678579.9, 106868.05, 0.11346737, 0.41926402, -1552713.1, 164574.47, 0.00006360682, 10.00047, 10.000001 
4.8499995e+2, 1.3477029e+2, -1369392.9, -1572144.4, -58035.055, 0.1878189, 0.4047748, -1353956.4, 265334.9, 0.000025765483, 10.001979, 9.99936 
4.8499548e+2, 1.4476934e+2, -1297937.1, -1547903.5, -24706.469, -0.38607895, 0.40373024, -1295518.6, 225781.25, 0.000006126259, 10.002081, 9.998792 
4.85e+2, 1.5476905e+2, -1438132.8, -1562255.0, -68320.88, -0.03136031, 0.4779819, -1407893.8, 15409.417, 0.0000005794279, 10.000441, 9.998811 
4.8500243e+2, 1.647678e+2, -1368777.1, -1524120.5, -77233.02, 0.15176216, 0.49820802, -1336914.3, -11599.778, 0.0000000048834687, 10.0004425, 9.998398 
4.850016e+2, 1.7476556e+2, -1000104.4, -1293920.6, -64448.668, 0.015155514, 0.4196721, -986589.25, 240745.7, 0.0, 10.0022955, 9.99841 
4.8500195e+2, 1.8476321e+2, -886938.7, -1239077.4, -23843.232, -0.025354765, 0.3676942, -885331.56, 244026.03, 0.0, 10.002613, 9.99796 
4.8500413e+2, 1.9476072e+2, -993417.94, -1240270.8, -5407.5537, 0.0854331, 0.31114402, -993299.56, 38083.37, 0.0, 10.001212, 9.997955 
4.8500577e+2, 2.0475914e+2, -907485.44, -1014450.3, 18929.568, 0.11388896, 0.30148646, -904234.25, 29164.244, 0.0, 10.000561, 9.999145 
4.8500672e+2, 2.147585e+2, -777119.75, -897493.75, -8537.974, 0.038744308, 0.30852765, -776517.1, 58886.637, 0.0, 10.000765, 9.999178 
4.8500833e+2, 2.2475804e+2, -721211.7, -888106.3, -40870.387, 0.04595881, 0.37618905, -711740.5, 25668.635, 0.0, 10.000766, 9.9985695 
4.8501077e+2, 2.3475774e+2, -654631.1, -805215.0, -68161.8, 0.15251191, 0.4775593, -628360.75, 11054.09, 0.0, 10.000549, 9.998569 
4.8501286e+2, 2.4475631e+2, -625370.4, -711746.5, -14540.828, 0.13944422, 0.46859902, -622988.2, -81560.71, 0.0, 9.99995, 9.998828 
4.850145e+2, 2.5475365e+2, -675837.9, -683429.75, -13789.92, -0.0052714087, 0.3042574, -665330.94, -221882.97, 0.0, 9.998921, 9.998844 
4.8501712e+2, 2.647522e+2, -615639.7, -651507.6, -51144.008, 0.0063991505, 0.29551893, -579376.44, -233916.67, 0.0, 9.998875, 9.998414 
4.8502088e+2, 2.747519e+2, -360621.84, -478761.75, -46036.87, 0.19624774, 0.41542077, -344800.84, -97337.586, 0.0, 9.999952, 9.998409 
4.850232e+2, 2.8475016e+2, -197102.34, -300201.8, 7118.7676, 0.18691355, 0.37938792, -196613.13, -47135.777, 0.00000008825205, 10.000196, 9.998842 
4.8502395e+2, 2.947469e+2, -192581.77, -239739.75, 12246.306, -0.032118414, 0.15610956, -189591.2, -138089.73, 0.0000054540624, 9.999519, 9.998911 
4.850268e+2, 3.047443e+2, -184281.53, -302125.06, -40319.723, 0.09181077, 0.042391215, -171806.83, -171806.83, 0.000030858784, 9.999637, 9.998091 
4.850271e+2, 3.1474334e+2, -1386.21, -151989.83, 121752.09, 0.0928449, 0.13169126, 66469.01, 66469.01, 0.00008250138, 10.00061, 9.998651 
4.949989e+2, 1.2476871e+2, -1733945.3, -1869069.9, 106414.72, -0.04005848, 0.25356215, -1675456.9, 41841.8, 0.00005696404, 10.000482, 9.998689 
4.9500263e+2, 1.3477002e+2, -1456904.3, -1752587.4, 4263.7285, 0.2441541, 0.5468599, -1456842.9, 162451.31, 0.00002106699, 10.001972, 9.998127 
4.9499828e+2, 1.4476824e+2, -1313461.3, -1580740.5, -85397.984, -0.3279359, 0.5352278, -1288505.9, 232808.95, 0.000004231548, 10.002083, 9.998567 
4.95001e+2, 1.5476479e+2, -1453723.9, -1592701.3, -126905.29, 0.011297341, 0.31768388, -1378528.0, 44818.176, 0.00000029436407, 10.000433, 9.998605 
4.9500316e+2, 1.6476339e+2, -1346262.8, -1474459.1, -15226.544, 0.17103976, 0.31475437, -1344479.0, -19119.998, 0.0000000005507737, 10.000429, 9.998746 
4.9500394e+2, 1.747642e+2, -976882.7, -1241658.3, 8894.382, 0.010317142, 0.5069139, -976584.25, 250767.63, 0.0, 10.002277, 9.998777 
4.9500442e+2, 1.8476315e+2, -854014.9, -1161414.5, -77419.414, -0.049229983, 0.5377589, -835617.6, 293744.1, 0.0, 10.002574, 9.998512 
4.9500507e+2, 1.9476001e+2, -958760.2, -1162128.0, -56239.47, 0.047583643, 0.36019328, -944243.9, 87146.62, 0.0, 10.001183, 9.9985075 
4.950061e+2, 2.0475823e+2, -956379.25, -1107475.6, 21377.766, 0.08255457, 0.33251148, -953412.9, -20005.191, 0.0, 10.000522, 9.998527 
4.950076e+2, 2.147579e+2, -828148.4, -996708.6, 3262.8062, 0.0434149, 0.43644676, -828085.25, 7327.2295, 0.0, 10.00073, 9.998517 
4.950089e+2, 2.2475667e+2, -773424.75, -985909.06, -52202.707, 0.015019926, 0.49366492, -761292.4, -23866.36, 0.0, 10.00072, 9.997921 
4.9500996e+2, 2.347545e+2, -705054.25, -901345.06, -72844.15, 0.0032955206, 0.471755, -680975.3, -41526.594, 0.0, 10.000514, 9.997927 
4.9501204e+2, 2.4475244e+2, -622770.44, -704134.06, -55632.81, 0.053710267, 0.4286487, -594531.9, -53064.676, 0.0, 9.999939, 9.998886 
4.9501532e+2, 2.5475046e+2, -675371.7, -676565.7, -49059.47, 0.17431174, 0.3259398, -626905.56, -183423.92, 0.0, 9.998894, 9.998906 
4.950174e+2, 2.647489e+2, -603212.6, -621082.1, -16740.066, 0.136717, 0.29675582, -593172.1, -247678.58, 0.0, 9.998855, 9.998632 
4.9501815e+2, 2.7474776e+2, -349602.16, -447810.8, -232.62302, -0.08073138, 0.3045113, -349601.63, -102098.06, 0.0, 9.999919, 9.998636 
4.9502078e+2, 2.847464e+2, -179374.66, -260385.44, -19305.055, -0.08703542, 0.28356338, -175009.44, -25494.943, 0.00000018947561, 10.000183, 9.999124 
4.9502543e+2, 2.9474494e+2, -173078.1, -197205.73, -7132.127, 0.15081793, 0.21162158, -171127.53, -119602.37, 0.000005346717, 9.999509, 9.999209 
4.950294e+2, 3.0474454e+2, -44404.51, -9111.415, -7245.7334, 0.37643355, 0.20407471, -7681.766, -7681.766, 0.000029419843, 9.999627, 10.000109 
4.9502832e+2, 3.1474593e+2, 108515.72, 86219.68, 187223.36, 0.13095307, 0.32152975, 284922.66, 284922.66, 0.000078988014, 10.000573, 10.000303 
5.049993e+2, 1.24767326e+2, -1613794.8, -1840316.3, -3293.3303, -0.09251853, 0.2567215, -1613747.0, 103560.65, 0.000046012723, 10.001451, 9.998414 
5.0500494e+2, 1.3476777e+2, -1687139.1, -1879318.9, 20543.736, 0.35529637, 0.480987, -1684967.6, -65654.62, 0.000015500982, 10.000458, 9.9979925 
5.0500077e+2, 1.4476569e+2, -1455579.9, -1625453.5, -2764.9639, -0.22722454, 0.43706226, -1455534.9, 65802.21, 0.0000026245805, 10.001009, 9.9987755 
5.050029e+2, 1.5476286e+2, -1053831.4, -1376749.1, -27213.87, 0.0351891, 0.26002014, -1051554.0, 371807.6, 0.00000011750303, 10.003078, 9.998811 
5.050048e+2, 1.6476175e+2, -937411.06, -1251753.5, 90850.95, 0.16447124, 0.26308188, -913042.5, 412328.56, 0.000000000026416515, 10.003122, 9.998976 
5.050058e+2, 1.7476246e+2, -1156003.5, -1302897.8, 96313.586, 0.03436897, 0.42159963, -1108327.5, 119036.98, 0.0, 10.0009365, 9.999003 
5.050062e+2, 1.8476166e+2, -1131568.1, -1302369.9, 6999.6772, -0.034202486, 0.47109342, -1131281.8, -1909.4097, 0.0, 10.000702, 9.998446 
5.050065e+2, 1.9475923e+2, -753604.3, -1068436.0, -25527.695, 0.0037614366, 0.37336373, -751547.8, 279847.9, 0.0, 10.0026245, 9.998451 
5.050073e+2, 2.0475751e+2, -658785.4, -1025191.06, -1228.9706, 0.03986435, 0.38062933, -658781.25, 274632.84, 0.0, 10.002821, 9.997986 
5.0500876e+2, 2.1475652e+2, -816716.94, -1051101.1, -20024.627, 0.06805169, 0.47120294, -815018.44, 20408.889, 0.0, 10.001071, 9.997977 
5.0500983e+2, 2.2475475e+2, -773327.9, -963007.1, 10589.293, 0.045308184, 0.49208185, -772738.5, -35293.2, 0.0, 10.000623, 9.998124 
5.0501066e+2, 2.347521e+2, -532130.7, -795430.5, 48004.688, -0.030457186, 0.40410504, -523651.56, 115817.25, 0.0, 10.0016, 9.998133 
5.050125e+2, 2.4474998e+2, -418394.63, -662139.4, 31394.146, 0.024638401, 0.36772937, -414416.03, 127071.99, 0.0, 10.001592, 9.998379 
5.0501555e+2, 2.547483e+2, -471955.34, -635862.9, -14726.331, 0.22786821, 0.3518965, -470642.75, -27139.59, 0.0, 10.000545, 9.998389 
5.0501746e+2, 2.6474676e+2, -424801.84, -510629.56, 60100.18, 0.20183797, 0.3353028, -393867.0, -48350.684, 0.0, 9.999976, 9.99885 
5.05018e+2, 2.747452e+2, -337536.78, -416463.06, 66209.305, -0.08396109, 0.2797996, -299921.97, -52393.97, 0.00000000061010413, 9.999896, 9.99886 
5.050205e+2, 2.8474385e+2, -291188.34, -344085.3, -6885.9907, -0.09532273, 0.26076064, -290306.66, -140767.34, 0.00000027554938, 9.999542, 9.998858 
5.050252e+2, 2.947429e+2, -284484.34, -281007.28, -46839.46, 0.21372171, 0.2684019, -235874.1, -184325.73, 0.000004532087, 9.99888, 9.998937 
5.050289e+2, 3.0474308e+2, -88513.19, 52719.34, -48026.684, 0.40491372, 0.29838917, 67503.42, 67503.42, 0.0000250645, 9.998965, 10.000858 
5.0502825e+2, 3.1474388e+2, 32466.828, 113526.25, 47670.086, 0.10909182, 0.2775715, 135567.25, 135567.25, 0.0000692816, 9.999764, 10.00089 
5.150005e+2, 1.2476664e+2, -1557309.3, -1725904.0, -110072.82, -0.14125487, 0.43558085, -1502963.0, 214351.38, 0.00003362694, 10.001464, 9.999189 
5.150067e+2, 1.3476369e+2, -1615806.5, -1734900.5, -9557.139, 0.47935656, 0.2165753, -1615044.5, 4302.374, 0.0000102900585, 10.000474, 9.998975 
5.150029e+2, 1.4476182e+2, -1410738.6, -1536101.3, 71156.95, -0.13116115, 0.115328975, -1378592.4, 142773.6, 0.0000014940234, 10.001022, 9.999383 
5.150057e+2, 1.547632e+2, -1013335.9, -1290422.8, 55715.1, -0.00617535, 0.3008683, -1002552.6, 420797.3, 0.00000003629146, 10.003072, 9.999406 
5.150073e+2, 1.6476284e+2, -934223.56, -1239226.0, 9130.162, 0.088823885, 0.34055868, -933950.5, 391400.75, 0.0, 10.003098, 9.999073 
5.150069e+2, 1.7476033e+2, -1150025.0, -1291742.0, 17876.844, 0.043223105, 0.16955975, -1147804.8, 79568.02, 0.0, 10.00094, 9.99908 
5.15007e+2, 1.8475881e+2, -1180589.6, -1400349.8, 71488.375, -0.030666258, 0.17632237, -1159381.1, -29992.3, 0.0, 10.000689, 9.997777 
5.1500833e+2, 1.947584e+2, -807041.6, -1174178.6, 51281.508, -0.09107933, 0.3482878, -800013.2, 231385.66, 0.0, 10.002597, 9.997741 
5.150093e+2, 2.0475693e+2, -700575.1, -1098861.5, -68212.734, -0.056840755, 0.4402248, -689216.56, 244202.0, 0.0, 10.002766, 9.997506 
5.1500994e+2, 2.1475424e+2, -852972.6, -1119995.6, -83097.15, 0.07354784, 0.40741917, -829224.94, 6224.068, 0.0, 10.001039, 9.99752 
5.150111e+2, 2.2475213e+2, -707303.0, -815449.0, 40026.19, 0.09648393, 0.3641665, -694100.56, 43367.61, 0.0, 10.000579, 9.999158 
5.150127e+2, 2.3475057e+2, -462977.5, -642472.0, 87473.375, 0.0052181534, 0.27683023, -427400.53, 212074.67, 0.0, 10.001561, 9.999202 
5.1501405e+2, 2.4474895e+2, -496594.53, -818403.9, -10484.514, 0.006173379, 0.28928396, -496253.3, 45236.53, 0.0, 10.001565, 9.997319 
5.15015e+2, 2.5474724e+2, -551058.0, -795837.2, -48933.125, 0.109000206, 0.37897348, -541638.4, -98125.66, 0.0, 10.000525, 9.997301 
5.150171e+2, 2.6474568e+2, -415042.22, -486373.44, 52937.918, 0.1570166, 0.41083837, -386876.34, -41347.95, 0.0, 9.999964, 9.999022 
5.1502025e+2, 2.7474415e+2, -327659.6, -389696.28, 68271.92, 0.13821387, 0.33801532, -283690.0, -36152.598, 0.0000000018853024, 9.999871, 9.999056 
5.150223e+2, 2.8474241e+2, -348307.56, -462292.16, -36155.836, 0.112966135, 0.30994922, -337806.4, -188253.81, 0.00000034744536, 9.999539, 9.998049 
5.1502305e+2, 2.9474077e+2, -343433.97, -405159.97, -65477.99, 0.095405735, 0.32818276, -301909.84, -250338.36, 0.0000038784074, 9.998885, 9.998082 
5.150252e+2, 3.0473992e+2, -122620.484, -18012.719, -21847.182, 0.12288727, 0.3272209, -13633.311, -13633.311, 0.000021208403, 9.998969, 10.000369 
5.1502657e+2, 3.147373e+2, -9142.183, 45235.363, 100223.9, -0.054698315, 0.012075162, 121892.914, 121892.914, 0.00006028198, 9.9997015, 10.000443 
5.2500176e+2, 1.2476373e+2, -1782477.5, -1802483.6, -118683.11, -0.076201476, 0.3552208, -1673376.6, 43964.117, 0.000024083258, 9.999774, 9.999483 
5.2500767e+2, 1.3476156e+2, -1400518.4, -1581195.1, -13388.715, 0.4707654, 0.16981374, -1399531.6, 219832.58, 0.000006343457, 10.0017185, 9.999438 
5.250044e+2, 1.4476025e+2, -1241782.1, -1472252.4, 29332.4, -0.14328298, 0.110691346, -1238107.6, 283270.25, 0.00000066930806, 10.002262, 9.999223 
5.250083e+2, 1.547618e+2, -1309077.0, -1452801.6, -57127.26, 0.042716254, 0.32901296, -1289136.8, 134225.61, 0.000000004981165, 10.001124, 9.99923 
5.250098e+2, 1.6476129e+2, -1244100.0, -1387513.5, -166343.61, 0.13545047, 0.36475158, -1134665.9, 190699.63, 0.0, 10.00096, 9.99909 
5.2500814e+2, 1.7475843e+2, -999287.6, -1214738.4, -170211.95, 0.023090487, 0.156781, -905576.0, 321813.4, 0.0, 10.001956, 9.999121 
5.2500826e+2, 1.8475676e+2, -997854.25, -1316873.4, -53234.28, -0.04163537, 0.14607608, -989205.56, 140201.38, 0.0, 10.001958, 9.997744 
5.2501076e+2, 1.9475634e+2, -1071067.8, -1302433.1, -30181.055, -0.013075682, 0.3215773, -1067195.5, -35777.953, 0.0, 10.000792, 9.997728 
5.250116e+2, 2.0475493e+2, -1016287.94, -1234154.9, -124099.13, 0.013571228, 0.41268954, -960093.9, -26657.094, 0.0, 10.000526, 9.997658 
5.250107e+2, 2.1475236e+2, -811495.2, -1082690.4, -101922.27, 0.033851653, 0.37903354, -777461.25, 58004.746, 0.0, 10.001251, 9.997674 
5.250114e+2, 2.2475041e+2, -625499.44, -767667.75, 32430.688, 0.050312784, 0.34220302, -618451.0, 119032.04, 0.0, 10.001105, 9.999233 
5.2501404e+2, 2.3474903e+2, -687667.2, -741919.3, -2978.0676, 0.06840861, 0.2659483, -687504.2, -48016.62, 0.0, 9.999987, 9.999275 
5.2501535e+2, 2.4474746e+2, -736357.44, -924013.75, -88696.11, 0.07508535, 0.27504948, -701070.44, -159568.95, 0.0, 9.999878, 9.997405 
5.2501523e+2, 2.547457e+2, -491577.16, -759296.56, -47465.242, 0.06520835, 0.34742826, -483410.9, -39885.26, 0.0, 10.000902, 9.997371 
5.25017e+2, 2.647441e+2, -283685.78, -452449.44, 72556.09, 0.10788184, 0.3876405, -256781.14, 88760.88, 0.0, 10.000988, 9.998762 
5.2502096e+2, 2.747426e+2, -322958.22, -415563.0, 48416.375, 0.21337208, 0.34498513, -302267.63, -54716.13, 0.00000000009174081, 10.000026, 9.998803 
5.250227e+2, 2.847407e+2, -310899.4, -451083.28, -17126.338, 0.18920356, 0.31444287, -308837.4, -159268.9, 0.00000033351301, 9.999833, 9.997982 
5.2502203e+2, 2.947386e+2, -117892.86, -307985.6, -845.79315, 0.025449805, 0.2936792, -117889.1, -66298.016, 0.000003888586, 10.000484, 9.99798 
5.250237e+2, 3.0473778e+2, -33621.027, -92887.83, 43934.41, 0.020982733, 0.348004, -10260.364, -10260.364, 0.000020489533, 10.000083, 9.999322 
5.250267e+2, 3.147342e+2, -245898.78, -159601.72, 107416.53, 0.056000147, 0.045425404, -86991.414, -86991.414, 0.000057556197, 9.998443, 9.999655 
5.350026e+2, 1.2475845e+2, -1796354.0, -1825635.6, -123636.38, -0.001656689, 0.008501992, -1686494.6, 30893.35, 0.000017799504, 9.999766, 9.999321 
5.350077e+2, 1.3476135e+2, -1411824.3, -1596922.4, 63825.39, 0.28882572, 0.3438279, -1391949.9, 227415.27, 0.0000036805177, 10.001695, 9.999341 
5.350051e+2, 1.4476098e+2, -1306122.9, -1608322.5, -12789.064, -0.3124266, 0.42819777, -1305582.5, 215790.39, 0.00000019448485, 10.002266, 9.998288 
5.3501046e+2, 1.547586e+2, -1376530.6, -1593611.0, -97285.15, 0.1367651, 0.34580714, -1339312.9, 84086.28, 0.00000000000050979853, 10.001124, 9.998265 
5.3501207e+2, 1.6475716e+2, -1248818.3, -1395404.0, -136744.42, 0.25703585, 0.34071338, -1166963.3, 158450.39, 0.0, 10.000954, 9.999038 
5.350093e+2, 1.7475674e+2, -1002467.2, -1221793.3, -129060.18, -0.06538322, 0.37825382, -942771.1, 284644.25, 0.0, 10.001957, 9.999072 
5.3500956e+2, 1.847554e+2, -956844.2, -1225664.9, -98638.484, -0.10846958, 0.37499088, -924534.1, 204893.42, 0.0, 10.001935, 9.998379 
5.350137e+2, 1.9475304e+2, -1028979.44, -1211552.9, -70305.05, 0.18952848, 0.28882623, -1005044.4, 26407.443, 0.0, 10.000773, 9.9983635 
5.3501415e+2, 2.047515e+2, -968975.7, -1125696.9, -102151.51, 0.20469199, 0.30051538, -918591.1, 14877.565, 0.0, 10.000484, 9.998419 
5.3501076e+2, 2.1475093e+2, -764180.9, -974916.0, -70103.664, -0.09452642, 0.38733554, -742990.75, 92486.875, 0.0, 10.001208, 9.998434 
5.3501076e+2, 2.2474967e+2, -695135.3, -904096.4, -12238.593, -0.13614361, 0.42485023, -694420.94, 43068.7, 0.0, 10.001067, 9.998317 
5.3501457e+2, 2.3474756e+2, -756556.5, -879384.8, -40911.688, 0.11480117, 0.3679314, -744177.25, -104671.49, 0.0, 9.999962, 9.998344 
5.350165e+2, 2.447455e+2, -657018.7, -754193.5, -55605.855, 0.18512085, 0.3196171, -631763.4, -90239.85, 0.0, 9.999859, 9.998578 
5.350161e+2, 2.5474355e+2, -408818.06, -582819.3, -5557.7827, 0.05298325, 0.252087, -408640.72, 34902.05, 0.0, 10.000882, 9.99859 
5.350172e+2, 2.6474202e+2, -330338.72, -544898.0, 35584.02, 0.01621301, 0.26192683, -324591.2, 20966.621, 0.0, 10.00097, 9.9981365 
5.350198e+2, 2.747407e+2, -371445.72, -511625.56, 17909.596, 0.08952962, 0.30609477, -369193.72, -121623.93, 0.0, 10.000005, 9.998156 
5.3502154e+2, 2.8473878e+2, -265532.78, -359179.78, 1298.635, 0.08100166, 0.27760988, -265514.78, -115927.79, 0.00000019037492, 9.999842, 9.9986105 
5.35022e+2, 2.9473644e+2, -76391.51, -216037.13, 28115.201, -0.029945772, 0.16777293, -70943.55, -19336.383, 0.000003945089, 10.000459, 9.998623 
5.350243e+2, 3.0473652e+2, -153209.72, -333556.28, -16612.26, 0.06727644, 0.36412168, -151692.28, -151692.28, 0.000021599248, 10.000057, 9.997678 
5.350282e+2, 3.1473437e+2, -326530.0, -315752.44, 56220.785, 0.33636913, 0.3675428, -264662.78, -264662.78, 0.000060066017, 9.998413, 9.998586 
5.4500276e+2, 1.2475559e+2, -1771233.4, -1810580.0, -197030.3, 0.038412675, 0.029499931, -1592896.6, 124522.58, 0.000013143151, 9.999931, 9.999351 
5.4500896e+2, 1.3475887e+2, -1388772.5, -1575482.0, 51534.773, 0.24819198, 0.3950899, -1375492.6, 243898.3, 0.000002162896, 10.001808, 9.999435 
5.450074e+2, 1.447586e+2, -1292555.5, -1605839.6, -77136.516, -0.31133246, 0.4847009, -1274593.0, 246804.0, 0.000000029643958, 10.002379, 9.99825 
5.4501206e+2, 1.5475547e+2, -1297538.1, -1556772.1, -107881.484, 0.16683264, 0.33281, -1258516.5, 164913.56, 0.0, 10.001675, 9.998251 
5.450134e+2, 1.6475393e+2, -1186340.5, -1368089.3, -45905.2, 0.27428985, 0.3178092, -1175404.1, 150042.36, 0.0, 10.001406, 9.999004 
5.4501086e+2, 1.7475402e+2, -1062106.3, -1253774.5, -46622.246, -0.0863767, 0.41431296, -1051367.4, 176077.4, 0.0, 10.001568, 9.999039 
5.450111e+2, 1.8475302e+2, -995315.2, -1179622.4, -62265.707, -0.12076204, 0.4171621, -976251.44, 153201.69, 0.0, 10.001381, 9.998967 
5.4501486e+2, 1.9475082e+2, -972291.2, -1115188.3, -46067.04, 0.22984387, 0.2861288, -958727.56, 72744.85, 0.0, 10.000857, 9.998987 
5.450154e+2, 2.0474944e+2, -910842.56, -1101649.6, -44500.688, 0.26049617, 0.28009027, -900974.3, 32512.398, 0.0, 10.000897, 9.998388 
5.450124e+2, 2.147489e+2, -723546.25, -958894.2, -78383.75, -0.0641583, 0.37593132, -699830.06, 135665.98, 0.0, 10.001505, 9.998401 
5.450123e+2, 2.2474761e+2, -618196.5, -865255.4, -63264.33, -0.11590901, 0.41426194, -602938.7, 134570.19, 0.0, 10.001593, 9.998327 
5.450154e+2, 2.3474544e+2, -584959.0, -796527.5, -31655.053, 0.1383789, 0.35033756, -580324.25, 59202.152, 0.0, 10.001139, 9.998345 
5.450169e+2, 2.4474357e+2, -500571.8, -647742.8, 7907.8315, 0.19608329, 0.30524215, -500148.13, 41394.387, 0.0, 10.00079, 9.998865 
5.4501665e+2, 2.5474206e+2, -431164.16, -558990.94, -17678.31, 0.03237121, 0.25321615, -428764.3, 14792.55, 0.0, 10.000581, 9.998899 
5.4501754e+2, 2.647407e+2, -438832.34, -596866.4, -22699.293, -0.010206879, 0.26705527, -435636.53, -90066.58, 0.0, 10.000223, 9.998139 
5.4501957e+2, 2.7473933e+2, -415727.94, -535153.94, -1331.3865, 0.08584508, 0.30405882, -415713.1, -168129.61, 0.0, 9.999707, 9.998141 
5.450213e+2, 2.847373e+2, -295020.06, -361765.63, 38475.535, 0.088793926, 0.2603218, -277460.44, -127858.7, 0.00000011177434, 9.999594, 9.998708 
5.4502237e+2, 2.9473478e+2, -143385.03, -236952.61, 17361.537, -0.017709933, 0.12108085, -140267.45, -88644.52, 0.0000044340386, 9.999956, 9.998717 
5.450242e+2, 3.0473515e+2, -195888.52, -385435.6, -46469.805, 0.06538553, 0.35815093, -185108.9, -185108.9, 0.000024114986, 9.999901, 9.997393 
5.450274e+2, 3.147345e+2, -197309.61, -236831.69, 100984.61, 0.38111928, 0.53991336, -114170.75, -114170.75, 0.00006615612, 9.999226, 9.998735 
5.5500203e+2, 1.2475523e+2, -1749344.3, -1761022.0, -203034.73, -0.055658516, 0.43203115, -1552064.5, 165369.2, 0.000010165176, 9.999926, 9.999687 
5.5501145e+2, 1.3475417e+2, -1368166.1, -1527793.6, 124624.18, 0.30559206, 0.32905483, -1299988.6, 319452.34, 0.0000015959415, 10.001794, 9.999767 
5.5501115e+2, 1.447531e+2, -1232251.8, -1482227.3, -108182.664, -0.18734263, 0.28302455, -1191935.4, 329513.97, 0.000000016896806, 10.002381, 9.9991 
5.550131e+2, 1.5475246e+2, -1236887.3, -1431629.3, -129616.21, 0.08882822, 0.2935117, -1172142.6, 251312.25, 0.0, 10.001676, 9.999111 
5.550136e+2, 1.6475159e+2, -1186728.9, -1369766.0, -44756.707, 0.14253607, 0.3030383, -1176370.9, 149092.86, 0.0, 10.001408, 9.998991 
5.550126e+2, 1.747503e+2, -1067770.4, -1261315.4, -36698.848, -0.08166804, 0.26348284, -1061045.4, 166432.38, 0.0, 10.001551, 9.998995 
5.5501264e+2, 1.8474966e+2, -960296.06, -1099937.4, -85653.12, -0.11647423, 0.27652308, -919611.6, 209871.48, 0.0, 10.001351, 9.99953 
5.550142e+2, 1.947497e+2, -937442.4, -1038166.06, -61649.77, 0.07052779, 0.314235, -908198.94, 123280.44, 0.0, 10.000834, 9.999531 
5.5501515e+2, 2.0474862e+2, -968316.5, -1213859.0, -25925.715, 0.13934417, 0.3478832, -965608.94, -32117.58, 0.0, 10.00087, 9.99763 
5.5501544e+2, 2.1474625e+2, -786468.1, -1080380.9, -51347.89, 0.08059228, 0.34137177, -777755.7, 57765.555, 0.0, 10.001464, 9.997588 
5.5501574e+2, 2.2474426e+2, -564148.06, -739268.4, -83314.82, 0.06731794, 0.30702317, -530844.1, 206696.89, 0.0, 10.001537, 9.999217 
5.550162e+2, 2.3474267e+2, -528393.3, -666181.56, -43841.81, 0.103393674, 0.21013348, -515626.53, 123923.23, 0.0, 10.001084, 9.999267 
5.550165e+2, 2.4474165e+2, -544752.8, -734978.8, -2928.253, 0.06992552, 0.23228747, -544707.75, -3149.1218, 0.0, 10.000769, 9.998278 
5.5501664e+2, 2.5474122e+2, -478747.47, -652340.06, -20231.86, -0.035793073, 0.3509476, -476420.66, -32852.785, 0.0, 10.000557, 9.998272 
5.550178e+2, 2.6474023e+2, -398585.84, -508433.63, -44596.996, -0.0115077095, 0.4007355, -382760.0, -37181.12, 0.0, 10.000207, 9.998752 
5.5502015e+2, 2.7473846e+2, -377587.3, -449025.34, -16188.082, 0.15992546, 0.3356393, -374090.22, -126497.266, 0.0, 9.99968, 9.998744 
5.550219e+2, 2.847362e+2, -324486.3, -425608.8, 48940.676, 0.1749281, 0.25926247, -304679.75, -155066.4, 0.00000024371042, 9.9995985, 9.998272 
5.550227e+2, 2.947335e+2, -171437.06, -302270.5, 36855.254, 0.010778279, 0.14948255, -161769.44, -110130.22, 0.0000057652805, 9.999976, 9.998264 
5.550232e+2, 3.047336e+2, -124436.336, -233643.45, -71329.92, -0.040884443, 0.33080688, -89209.46, -89209.46, 0.000028463612, 9.99989, 9.998436 
5.550241e+2, 3.1473428e+2, -97584.72, -24480.12, 78395.35, 0.105534546, 0.5351315, 25465.568, 25465.568, 0.00007494189, 9.999207, 10.000199 
5.6500304e+2, 1.2475338e+2, -1451022.1, -1584682.9, -157752.89, -0.031062871, 0.58473444, -1346527.5, 370929.03, 0.000007999431, 10.001813, 9.999994 
5.650124e+2, 1.3475077e+2, -1597007.6, -1609976.1, 191943.58, 0.30887455, 0.30029678, -1411438.9, 208036.81, 0.00000128022, 10.000081, 10.000035 
5.650129e+2, 1.4474952e+2, -1596099.4, -1590904.5, -37406.516, -0.10844432, 0.19511645, -1556005.4, -34522.176, 0.000000037787355, 9.9996, 9.999693 
5.650142e+2, 1.5474993e+2, -1345147.3, -1414968.9, -89256.2, 0.07704316, 0.24749681, -1284217.4, 139259.2, 0.0, 10.000637, 9.999727 
5.6501454e+2, 1.6474947e+2, -1281037.9, -1408836.0, -21522.557, 0.12601848, 0.26558328, -1277510.6, 47970.13, 0.0, 10.000736, 9.999046 
5.650142e+2, 1.7474794e+2, -1308458.3, -1371876.3, -17369.998, 0.010110815, 0.19704534, -1304012.4, -76514.0, 0.0, 9.999873, 9.999043 
5.6501424e+2, 1.8474731e+2, -1131865.8, -1190998.9, -42078.57, -0.032168683, 0.21365052, -1110004.8, 19499.818, 0.0, 10.000217, 9.999444 
5.6501496e+2, 1.947477e+2, -787832.7, -971434.7, -72098.34, 0.010856312, 0.2916096, -762904.94, 268593.56, 0.0, 10.001893, 9.999471 
5.6501585e+2, 2.0474678e+2, -765253.06, -1097270.3, -51239.332, 0.062248614, 0.3367514, -757525.3, 175983.47, 0.0, 10.002188, 9.997794 
5.650171e+2, 2.147444e+2, -843928.6, -1086352.4, -12535.618, 0.13174453, 0.31290576, -843282.1, -7744.872, 0.0, 10.000982, 9.997776 
5.6501746e+2, 2.247426e+2, -706920.44, -793426.7, -16090.594, 0.1365264, 0.28070667, -704024.44, 33530.63, 0.0, 10.000488, 9.999351 
5.6501687e+2, 2.347414e+2, -562223.44, -663377.2, -41186.16, 0.076233886, 0.20621929, -547575.2, 91986.25, 0.0, 10.000769, 9.999434 
5.65017e+2, 2.4474065e+2, -533479.5, -729158.7, -2947.377, 0.03267793, 0.24607593, -533435.1, 8133.4727, 0.0, 10.000862, 9.998263 
5.6501776e+2, 2.5474027e+2, -442803.47, -637000.5, 14694.372, 0.010113289, 0.37027067, -441697.88, 1880.0631, 0.0, 10.000818, 9.998246 
5.6501883e+2, 2.6473933e+2, -302595.5, -429764.4, 3472.1902, 0.05014229, 0.41877902, -302500.78, 43087.215, 0.0, 10.000732, 9.999036 
5.650204e+2, 2.7473783e+2, -215251.31, -331088.16, 775.49677, 0.16556332, 0.3478695, -215246.13, 32353.02, 0.0, 10.000639, 9.999083 
5.6502205e+2, 2.8473577e+2, -188951.9, -358421.97, 94714.2, 0.18382531, 0.2748068, -146601.11, 3016.2537, 0.00000046127252, 10.000521, 9.998289 
5.6502366e+2, 2.9473326e+2, -115775.96, -273504.88, 109643.38, 0.08987111, 0.18111862, -59580.152, -7937.9907, 0.000007729108, 10.000355, 9.998281 
5.6502336e+2, 3.0473283e+2, -58193.74, -144543.42, -14342.126, -0.01724402, 0.28113115, -55873.926, -55873.926, 0.000034443015, 10.00008, 9.998965 
5.650224e+2, 3.1473377e+2, -10243.489, 78038.39, 68479.35, 0.00018405574, 0.45993885, 115370.414, 115370.414, 0.00008580813, 9.99953, 10.000758 
5.750055e+2, 1.2475006e+2, -1427366.3, -1539273.9, -274181.16, 0.0063295607, 0.48956963, -1203487.8, 513999.7, 0.0000055281434, 10.00183, 10.000294 
5.750116e+2, 1.3474874e+2, -1584336.8, -1582192.0, 127683.07, 0.210884, 0.31506547, -1455576.9, 163917.64, 0.00000085256136, 10.000075, 10.000226 
5.750125e+2, 1.4474797e+2, -1571231.0, -1541535.0, -7146.131, -0.117486365, 0.22947083, -1539904.8, -18407.314, 0.00000002938157, 9.999608, 10.0000305 
5.75015e+2, 1.5474786e+2, -1324650.3, -1368538.6, -45459.72, 0.09102293, 0.19898416, -1296115.4, 127379.484, 0.0, 10.000623, 10.000053 
5.750159e+2, 1.6474757e+2, -1270753.0, -1388776.0, -57591.613, 0.18129182, 0.20826057, -1247307.5, 78189.73, 0.0, 10.000734, 9.999186 
5.750155e+2, 1.7474692e+2, -1299176.8, -1354390.8, -45797.027, 0.14481932, 0.21442407, -1273309.3, -45802.938, 0.0, 9.999877, 9.999162 
5.750157e+2, 1.8474603e+2, -1180677.4, -1288467.9, 15277.635, 0.08557536, 0.2303944, -1178553.8, -49036.89, 0.0, 10.000205, 9.99878 
5.750169e+2, 1.9474483e+2, -843575.3, -1076149.3, -4547.73, 0.006774634, 0.22257777, -843486.44, 188043.06, 0.0, 10.001847, 9.9987755 
5.7501745e+2, 2.0474394e+2, -694854.44, -940959.3, -98788.61, -0.010543753, 0.25296792, -660106.06, 273432.53, 0.0, 10.002141, 9.99889 
5.7501733e+2, 2.1474333e+2, -771160.7, -925443.6, -54452.84, 0.045744162, 0.2910025, -753878.06, 81666.38, 0.0, 10.0009365, 9.998905 
5.7501715e+2, 2.2474259e+2, -749463.3, -870989.44, -10146.414, 0.05081035, 0.33024237, -748622.0, -11070.142, 0.0, 10.000443, 9.998839 
5.750171e+2, 2.3474166e+2, -609595.56, -751127.4, -25442.662, 0.008811028, 0.34186417, -605160.75, 34400.32, 0.0, 10.000724, 9.998855 
5.750179e+2, 2.4474052e+2, -495283.13, -651553.94, -8731.167, 0.034135442, 0.34609908, -494796.8, 46776.063, 0.0, 10.000862, 9.998798 
5.7501984e+2, 2.5473908e+2, -408625.88, -558385.8, 16567.424, 0.12832431, 0.3110555, -406814.97, 36772.83, 0.0, 10.000784, 9.998804 
5.750206e+2, 2.6473805e+2, -303180.5, -431537.56, -3351.2427, 0.13829258, 0.3209238, -303093.06, 42504.523, 0.0, 10.000728, 9.999028 
5.7502e+2, 2.7473742e+2, -216833.92, -335267.63, 948.034, 0.056096677, 0.33841977, -216826.33, 30776.236, 0.0, 10.000631, 9.999062 
5.750215e+2, 2.8473607e+2, -159100.98, -289086.03, 83578.68, 0.06748663, 0.31090006, -118218.94, 31395.371, 0.0000006054728, 10.000491, 9.998779 
5.7502496e+2, 2.94734e+2, -84152.06, -202167.36, 110696.25, 0.17434861, 0.21536829, -17718.242, 33914.13, 0.000009214798, 10.00033, 9.998782 
5.750247e+2, 3.0473274e+2, -57855.727, -140911.3, -34782.074, 0.09796842, 0.20130062, -45213.87, -45213.87, 0.00003883035, 10.00007, 9.998998 
5.75022e+2, 3.1473276e+2, -28380.191, 44182.152, 48068.254, -0.019958626, 0.29103836, 68124.56, 68124.56, 0.00009398202, 9.9995165, 10.000532 
5.8500624e+2, 1.2474726e+2, -1769818.8, -1709284.0, -200809.14, 0.017173424, 0.31451216, -1536474.0, 181035.55, 0.0000029888902, 9.999498, 10.000249 
5.8501136e+2, 1.3474752e+2, -1490506.5, -1547465.5, 188093.73, 0.14794736, 0.30740315, -1328748.4, 290756.25, 0.00000032572908, 10.000764, 10.000133 
5.8501357e+2, 1.4474724e+2, -1326022.1, -1430273.1, 66474.61, -0.059090756, 0.28270724, -1293673.1, 227831.67, 0.0000000021906112, 10.001332, 9.999957 
5.850161e+2, 1.5474664e+2, -1211991.3, -1320350.1, -10891.992, 0.09896577, 0.20883447, -1210907.3, 212600.55, 0.0, 10.001424, 9.999992 
5.850168e+2, 1.6474645e+2, -1169534.0, -1334964.9, -69685.39, 0.16556756, 0.22767124, -1144092.6, 181417.19, 0.0, 10.001406, 9.999231 
5.8501613e+2, 1.747466e+2, -1090576.8, -1246128.6, -73974.48, 0.15313663, 0.30837527, -1061015.3, 166496.05, 0.0, 10.001278, 9.9992285 
5.8501655e+2, 1.8474576e+2, -1093788.5, -1261276.8, 45663.55, 0.11409446, 0.33222404, -1082148.0, 47373.52, 0.0, 10.00086, 9.998655 
5.850182e+2, 1.9474384e+2, -1108293.8, -1216452.8, 61405.58, 0.042414878, 0.26368114, -1080548.8, -49007.215, 0.0, 10.000085, 9.998663 
5.850187e+2, 2.047427e+2, -970665.25, -1020913.6, -45706.973, 0.011839465, 0.2523819, -943632.44, -10080.756, 0.0, 10.000017, 9.999364 
5.85018e+2, 2.1474238e+2, -755849.44, -859638.0, -57302.59, 0.03045049, 0.26760682, -730435.25, 105116.3, 0.0, 10.0007925, 9.999423 
5.8501786e+2, 2.2474174e+2, -679873.75, -884160.5, -16422.906, 0.04332094, 0.31240863, -678561.9, 58995.563, 0.0, 10.001125, 9.998424 
5.850184e+2, 2.3474069e+2, -604333.44, -799682.1, -30834.13, 0.055619262, 0.3555102, -599582.06, 39988.81, 0.0, 10.000978, 9.998404 
5.8501923e+2, 2.4473941e+2, -507149.34, -603846.56, -18351.182, 0.09193611, 0.34783182, -503783.78, 37800.12, 0.0, 10.000549, 9.999279 
5.8502036e+2, 2.547379e+2, -501438.13, -546039.6, -2931.6467, 0.15069978, 0.25431916, -501246.25, -57649.76, 0.0, 9.999899, 9.999315 
5.85021e+2, 2.6473707e+2, -448382.0, -512586.1, 1438.7831, 0.15606599, 0.2594849, -448349.75, -102745.664, 0.0, 9.999783, 9.998922 
5.85021e+2, 2.7473685e+2, -272795.78, -377678.53, -10394.971, 0.106514096, 0.33268356, -271775.47, -24168.145, 0.0, 10.000317, 9.9989195 
5.850221e+2, 2.847359e+2, -197338.48, -258627.17, 40667.566, 0.10963127, 0.33276686, -177062.05, -27446.492, 0.00000055145284, 10.000019, 9.999213 
5.850244e+2, 2.9473427e+2, -280619.63, -245572.83, 53462.11, 0.16786371, 0.23557608, -206835.53, -155207.86, 0.000008696917, 9.998766, 9.999231 
5.8502394e+2, 3.0473268e+2, -206827.86, -181388.42, -31714.006, 0.07563376, 0.15341526, -159938.42, -159938.42, 0.000037738446, 9.998916, 9.999269 
5.8502215e+2, 3.147318e+2, 112431.37, 103971.62, 41417.348, 0.0006786355, 0.12357316, 149834.27, 149834.27, 0.000093645554, 10.000516, 10.000456 
5.950049e+2, 1.2474498e+2, -1788694.1, -1747628.3, -178983.56, -0.087035656, 0.06669863, -1588003.6, 129519.04, 0.000001124367, 9.999506, 9.999977 
5.9501153e+2, 1.3474709e+2, -1520604.4, -1604682.5, 233976.9, 0.08201321, 0.27990958, -1324919.9, 294585.78, 0.000000025767086, 10.00075, 9.999745 
5.950158e+2, 1.4474738e+2, -1358782.9, -1499885.3, 63905.88, 0.016088212, 0.35547405, -1334142.5, 187362.2, 0.0, 10.001332, 9.99948 
5.9501714e+2, 1.5474628e+2, -1244898.6, -1388780.1, -3506.789, 0.05132958, 0.2785109, -1244813.1, 178702.31, 0.0, 10.001421, 9.999526 
5.95017e+2, 1.6474614e+2, -1175944.8, -1342195.9, -79693.93, 0.037489917, 0.32981935, -1143914.0, 181604.16, 0.0, 10.001381, 9.999195 
5.95016e+2, 1.7474693e+2, -1093467.6, -1251954.1, -74961.54, -0.0009981319, 0.4789915, -1063629.6, 163883.7, 0.0, 10.001275, 9.999193 
5.950164e+2, 1.8474647e+2, -1066106.1, -1196575.9, 12538.972, 0.008212436, 0.5209834, -1064912.0, 64606.63, 0.0, 10.000833, 9.99911 
5.950187e+2, 1.9474462e+2, -1080590.1, -1152312.1, 35455.324, 0.07174486, 0.4111078, -1066022.0, -34486.652, 0.0, 10.000055, 9.999119 
5.950195e+2, 2.0474298e+2, -981208.1, -1034475.2, -22134.375, 0.083055556, 0.32917053, -973211.06, -39662.46, 0.0, 9.999983, 9.999287 
5.9501904e+2, 2.1474156e+2, -771673.9, -880814.9, -23627.451, 0.043384016, 0.24720836, -766778.5, 68779.72, 0.0, 10.000743, 9.999302 
5.9501934e+2, 2.2474012e+2, -707155.2, -934040.9, -25484.4, 0.069403656, 0.23185834, -704327.94, 33243.81, 0.0, 10.001093, 9.998098 
5.950206e+2, 2.3473851e+2, -634174.0, -852845.75, -33025.7, 0.17091009, 0.2537849, -629295.0, 10295.615, 0.0, 10.000938, 9.998059 
5.950206e+2, 2.4473734e+2, -476640.63, -539372.44, -47410.75, 0.1622307, 0.25331277, -451159.38, 90442.52, 0.0, 10.000541, 9.999729 
5.950192e+2, 2.5473672e+2, -469768.28, -475505.06, -24702.455, 0.03314296, 0.20048904, -447768.22, -4164.078, 0.0, 9.999877, 9.999811 
5.9501994e+2, 2.6473635e+2, -464317.88, -543970.56, 17141.219, 0.061661385, 0.23817062, -460785.72, -115178.34, 0.0, 9.999775, 9.998712 
5.9502304e+2, 2.7473608e+2, -291561.78, -413283.0, 14901.209, 0.26397008, 0.32821327, -289764.1, -42150.355, 0.0, 10.000301, 9.998683 
5.950238e+2, 2.8473523e+2, -172607.03, -208996.31, -10488.579, 0.2618999, 0.3340716, -169800.36, -20178.682, 0.0000003359344, 10.000023, 9.999553 
5.9502184e+2, 2.94734e+2, -257786.83, -193748.42, 8452.058, 0.025603177, 0.23897867, -192651.67, -141023.14, 0.00000683328, 9.998743, 9.999599 
5.9502095e+2, 3.047326e+2, -179816.56, -113992.875, 24725.637, -0.12328892, 0.13499698, -105739.85, -105739.85, 0.0000338567, 9.998874, 9.99975 
5.950226e+2, 3.1473106e+2, 114748.95, 120158.84, 97329.53, -0.028215798, -0.015865432, 214821.02, 214821.02, 0.00008915562, 10.000476, 10.000583 
6.0500544e+2, 1.2474491e+2, -1478006.6, -1660183.6, -179339.11, -0.101564914, 0.06731474, -1367949.3, 349572.56, 0.00000033090242, 10.001886, 9.999446 
6.050119e+2, 1.3474666e+2, -1505797.5, -1656160.9, 199703.92, 0.026872514, 0.30052984, -1367592.4, 251917.95, 0.000000000013925105, 10.001102, 9.999221 
6.050174e+2, 1.447467e+2, -1480821.1, -1559723.1, 45412.266, 0.08725731, 0.379073, -1460116.9, 61396.023, 0.0, 10.000503, 9.999469 
6.050181e+2, 1.5474564e+2, -1375555.5, -1450575.5, 5760.0073, 0.049028154, 0.30503458, -1375115.9, 48407.563, 0.0, 10.000523, 9.999535 
6.050178e+2, 1.647453e+2, -1265184.1, -1378220.3, -36955.445, 0.00919371, 0.33284852, -1254174.4, 71352.39, 0.0, 10.000739, 9.999255 
6.050171e+2, 1.7474568e+2, -1113286.1, -1253954.0, -32588.758, 0.0017561519, 0.43469995, -1106103.1, 121420.086, 0.0, 10.001109, 9.999258 
6.0501754e+2, 1.84745e+2, -1035290.4, -1201512.0, 18577.389, 0.02232795, 0.4587554, -1033239.4, 96290.34, 0.0, 10.001122, 9.99894 
6.0501903e+2, 1.9474308e+2, -992595.94, -1125664.9, -14398.945, 0.07140518, 0.36121696, -991055.7, 40492.24, 0.0, 10.000729, 9.998974 
6.050197e+2, 2.0474161e+2, -922295.4, -1022503.8, -59609.223, 0.080606095, 0.30912787, -894529.9, 39031.156, 0.0, 10.000456, 9.9991455 
6.0501957e+2, 2.1474053e+2, -849752.8, -934636.44, -69757.36, 0.053770933, 0.27409548, -810540.5, 25028.838, 0.0, 10.00027, 9.999165 
6.050201e+2, 2.2473913e+2, -806064.8, -922180.9, -46015.477, 0.08403923, 0.24711286, -790040.75, -52459.375, 0.0, 10.000157, 9.99863 
6.050212e+2, 2.3473732e+2, -711383.1, -824960.9, 5974.7563, 0.17902464, 0.19066924, -711069.7, -71471.02, 0.0, 10.000132, 9.998636 
6.05021e+2, 2.4473618e+2, -551290.44, -617371.0, -85.42685, 0.16894844, 0.18114363, -551290.4, -9681.388, 0.0, 10.000219, 9.999342 
6.0501945e+2, 2.547358e+2, -414039.16, -495800.53, -54377.848, 0.04271779, 0.19535963, -386889.1, 56722.28, 0.0, 10.000464, 9.999387 
6.050201e+2, 2.6473537e+2, -360141.78, -488826.78, -20385.418, 0.067540705, 0.24554989, -356989.7, -11373.289, 0.0, 10.00046, 9.998769 
6.050232e+2, 2.7473465e+2, -303950.03, -412821.16, -6541.63, 0.26039708, 0.28783888, -303558.38, -55932.1, 0.0, 10.000175, 9.998756 
6.050237e+2, 2.847338e+2, -208200.47, -227349.72, -59670.71, 0.26317304, 0.28877065, -157341.11, -7706.192, 0.00000016006682, 9.999788, 9.999539 
6.050212e+2, 2.9473308e+2, -177439.19, -159783.23, -80781.05, 0.057724807, 0.2460597, -87349.23, -35710.656, 0.0000051844427, 9.999314, 9.999558 
6.0502034e+2, 3.0473226e+2, -172978.61, -81114.24, -29492.756, -0.06357545, 0.19324882, -72460.82, -72460.82, 0.000029848581, 9.99879, 10.00002 
6.0502255e+2, 3.1473032e+2, -218126.28, -23852.803, -2740.0825, 0.035955478, -0.023970153, -23814.164, -23814.164, 0.00008365637, 9.998117, 10.000739 
6.150075e+2, 1.247471e+2, -1524525.1, -1756943.1, -209600.44, -0.109507404, 0.3242834, -1401074.1, 316431.97, 0.000000091949275, 10.001894, 9.998774 
6.150122e+2, 1.3474634e+2, -1556545.3, -1756252.0, 167796.4, -0.060834803, 0.3769997, -1461139.0, 158378.55, 0.0, 10.001087, 9.998538 
6.1501825e+2, 1.4474525e+2, -1450384.8, -1497967.1, 35254.293, 0.11112569, 0.35457623, -1431645.0, 89884.15, 0.0, 10.0005, 9.999897 
6.1501867e+2, 1.5474465e+2, -1340104.6, -1382668.3, 10091.796, 0.047831528, 0.284176, -1337833.0, 85698.99, 0.0, 10.000538, 9.999996 
6.1501884e+2, 1.6474389e+2, -1255588.6, -1352449.1, -25992.861, 0.031752508, 0.2348938, -1249054.1, 76481.664, 0.0, 10.000718, 9.999441 
6.150196e+2, 1.7474277e+2, -1100568.8, -1229846.0, -14389.316, 0.12305953, 0.17020215, -1098986.5, 128555.1, 0.0, 10.001117, 9.999422 
6.1501974e+2, 1.8474129e+2, -1094393.1, -1313979.5, -165.27518, 0.11803955, 0.14224088, -1094393.0, 35162.383, 0.0, 10.001082, 9.998184 
6.150191e+2, 1.9473937e+2, -1054534.5, -1247060.4, -25243.902, 0.00018175336, 0.12189208, -1051279.6, -19701.201, 0.0, 10.000696, 9.9981575 
6.15019e+2, 2.0473868e+2, -941194.56, -1052254.9, -70406.03, -0.037159234, 0.20036381, -907055.3, 26533.139, 0.0, 10.000416, 9.998959 
6.150197e+2, 2.147393e+2, -867475.6, -962499.5, -72806.33, 0.021820983, 0.3508962, -828049.94, 7534.7617, 0.0, 10.000229, 9.998994 
6.1502e+2, 2.2473885e+2, -712949.2, -717927.7, -50053.25, 0.04831982, 0.3568309, -665323.3, 72263.07, 0.0, 10.000112, 10.000053 
6.1502004e+2, 2.3473713e+2, -613378.56, -613840.5, 9642.4, 0.039740708, 0.16514868, -603964.4, 35630.492, 0.0, 10.000097, 10.000102 
6.1502033e+2, 2.4473587e+2, -642659.7, -803793.25, 3966.9092, 0.067892864, 0.12979297, -642562.1, -100956.65, 0.0, 10.000203, 9.99807 
6.15021e+2, 2.5473508e+2, -513972.6, -698181.1, -41894.69, 0.13915676, 0.2369227, -504892.06, -61273.418, 0.0, 10.00044, 9.998011 
6.150213e+2, 2.6473406e+2, -339679.44, -441786.84, -34476.094, 0.13333596, 0.28349692, -329128.9, 16502.275, 0.0, 10.0004425, 9.999098 
6.150213e+2, 2.7473268e+2, -281537.4, -357262.1, -12668.115, 0.044902343, 0.21510519, -279474.34, -31830.158, 0.0, 10.000142, 9.999149 
6.150216e+2, 2.8473166e+2, -237140.86, -287842.34, -81333.4, 0.06879098, 0.20537704, -177298.98, -27644.928, 0.00000012615395, 9.9997835, 9.999128 
6.150222e+2, 2.9473144e+2, -211514.17, -227008.63, -92849.77, 0.2074706, 0.2537644, -126088.97, -74431.41, 0.000004328694, 9.999298, 9.9991045 
6.150219e+2, 3.047317e+2, -174780.63, -80439.53, -57243.906, 0.20061639, 0.326831, -53435.113, -53435.113, 0.000026339554, 9.998773, 10.000034 
6.1502147e+2, 3.1472975e+2, -213382.55, 2320.549, -23127.46, 0.094652504, 0.10952749, 4772.382, 4772.382, 0.00007734693, 9.998061, 10.00094 
6.2501055e+2, 1.2474806e+2, -1570913.6, -1763297.8, -210053.03, 0.034615904, 0.465863, -1436075.0, 281426.28, 0.000000014013729, 10.001507, 9.998921 
6.25013e+2, 1.3474567e+2, -1612357.6, -1756680.1, 188681.69, -0.06597156, 0.33431095, -1482508.9, 137014.0, 0.0, 10.000594, 9.9987755 
6.2501913e+2, 1.4474398e+2, -1511564.5, -1548982.8, 122159.16, 0.16753216, 0.2507814, -1406690.1, 114847.97, 0.0, 10.000185, 9.999695 
6.250196e+2, 1.5474421e+2, -1325982.9, -1399754.0, 42025.695, 0.07791929, 0.28191608, -1306951.5, 116583.22, 0.0, 10.000752, 9.99977 
6.2501985e+2, 1.6474323e+2, -1212104.0, -1365064.1, -31836.225, 0.03865542, 0.2396415, -1205742.4, 119798.38, 0.0, 10.001153, 9.99915 
6.2502074e+2, 1.7474087e+2, -1099098.6, -1257721.5, -63342.82, 0.124205194, 0.07703652, -1076908.3, 150649.84, 0.0, 10.001256, 9.999161 
6.250209e+2, 1.847392e+2, -1089670.8, -1326135.4, -57849.586, 0.13033362, 0.050904874, -1076276.9, 53297.18, 0.0, 10.001171, 9.99806 
6.2502015e+2, 1.9473825e+2, -1044469.4, -1255985.1, -39699.633, 0.028590014, 0.13944507, -1037263.6, -5674.2593, 0.0, 10.00082, 9.998037 
6.250198e+2, 2.0473771e+2, -944592.0, -1065775.3, -44642.49, -0.006626822, 0.24371126, -929922.06, 3676.5066, 0.0, 10.000443, 9.998852 
6.2502e+2, 2.1473752e+2, -903245.75, -987363.3, -51243.664, 0.045109402, 0.32485074, -879010.9, -43409.04, 0.0, 10.000025, 9.998917 
6.2502e+2, 2.24737e+2, -722456.44, -712956.1, -49640.777, 0.05265726, 0.32324994, -667838.75, 69765.266, 0.0, 10.0, 10.000143 
6.2501997e+2, 2.3473603e+2, -563088.56, -579914.06, -99708.43, 0.0132063525, 0.19676341, -471438.6, 168167.36, 0.0, 10.000398, 10.000194 
6.250203e+2, 2.4473499e+2, -613734.4, -784703.8, -112491.89, 0.044046424, 0.17599034, -557931.94, -16317.242, 0.0, 10.000372, 9.998124 
6.250213e+2, 2.5473383e+2, -587602.94, -725831.2, -61220.19, 0.15522666, 0.23964092, -564387.9, -120756.47, 0.0, 9.999901, 9.99808 
6.250214e+2, 2.647327e+2, -477441.16, -489603.28, -7903.6836, 0.15195635, 0.26314148, -473549.88, -127905.734, 0.0, 9.999414, 9.999265 
6.250206e+2, 2.7473146e+2, -449559.8, -419458.5, -11291.942, 0.026528932, 0.19396086, -415693.47, -168039.53, 0.0, 9.998902, 9.999321 
6.250207e+2, 2.847305e+2, -384577.6, -372999.84, -54441.89, 0.04570031, 0.1838654, -324039.94, -174376.23, 0.000000116905284, 9.998829, 9.999005 
6.2502146e+2, 2.9473e+2, -225765.94, -253205.84, -54339.598, 0.21629761, 0.2208064, -183441.02, -131769.16, 0.000004282829, 9.999273, 9.998941 
6.2502134e+2, 3.0473065e+2, -129010.85, -93470.8, -30502.455, 0.24907157, 0.35927084, -75939.64, -75939.64, 0.000025214384, 9.999237, 9.999719 
6.2502015e+2, 3.1472924e+2, -124787.96, 46548.94, -41728.46, 0.12969033, 0.22345263, 56171.35, 56171.35, 0.00007395699, 9.998635, 10.000975 
6.350145e+2, 1.24747865e+2, -1499419.8, -1614904.8, -219278.27, 0.2516139, 0.4959406, -1330408.8, 387097.5, 0.0000000049225286, 10.00151, 9.99994 
6.3501406e+2, 1.3474466e+2, -1532968.9, -1589972.5, 150823.02, -0.025188645, 0.17162319, -1407978.3, 211548.0, 0.0, 10.0005865, 9.999924 
6.350199e+2, 1.4474294e+2, -1573365.3, -1676534.8, 134100.94, 0.2159903, 0.06897824, -1481269.6, 40269.96, 0.0, 10.000179, 9.998825 
6.350207e+2, 1.5474416e+2, -1389622.5, -1534624.3, 68926.78, 0.0960316, 0.2910882, -1362087.0, 61445.3, 0.0, 10.000759, 9.998844 
6.3502055e+2, 1.6474324e+2, -1269421.4, -1472586.9, -32839.34, -0.015429796, 0.33648583, -1264245.1, 61297.527, 0.0, 10.00111, 9.99843 
6.3502055e+2, 1.747399e+2, -1151457.9, -1364445.0, -56720.22, -0.03150235, 0.15063964, -1137294.6, 90278.37, 0.0, 10.0012455, 9.998434 
6.3502103e+2, 1.8473867e+2, -1056108.8, -1252183.3, -73826.46, 0.01952149, 0.17867985, -1031420.1, 98166.164, 0.0, 10.001153, 9.998576 
6.35022e+2, 1.9473967e+2, -1010096.1, -1177827.9, -49512.805, 0.11658013, 0.40721437, -996571.0, 35010.375, 0.0, 10.00079, 9.998589 
6.3502175e+2, 2.0473862e+2, -954701.44, -1073385.5, -65714.484, 0.13675037, 0.43411255, -925500.44, 8091.6865, 0.0, 10.000388, 9.998825 
6.3502043e+2, 2.147352e+2, -914072.0, -996213.1, -63862.95, 0.07939169, 0.19451775, -879213.2, -43592.367, 0.0, 9.999968, 9.998882 
6.3502014e+2, 2.2473362e+2, -817255.5, -897094.2, -39125.22, 0.053087045, 0.14977244, -801279.06, -63644.75, 0.0, 9.999947, 9.998903 
6.3502085e+2, 2.3473403e+2, -656637.44, -766097.94, -79561.76, 0.05668203, 0.28526855, -614799.2, 24832.627, 0.0, 10.000362, 9.998932 
6.350209e+2, 2.4473357e+2, -520341.47, -585824.6, -132666.33, 0.055006646, 0.32055253, -416436.2, 125200.04, 0.0, 10.00035, 9.999501 
6.350202e+2, 2.547321e+2, -489030.97, -515653.44, -75613.92, 0.04816381, 0.20923468, -425565.56, 18083.502, 0.0, 9.999874, 9.999539 
6.350202e+2, 2.6473126e+2, -480484.3, -490830.47, -30213.352, 0.08217434, 0.18698171, -455004.38, -109348.914, 0.0, 9.999396, 9.999264 
6.35021e+2, 2.7473104e+2, -458850.63, -428294.78, -25501.018, 0.16261011, 0.22561847, -413845.3, -166189.75, 0.0, 9.998861, 9.999279 
6.350206e+2, 2.8473023e+2, -371372.84, -346399.6, -44711.902, 0.14940037, 0.22245885, -312463.5, -162799.45, 0.0000001448745, 9.998829, 9.999192 
6.3501906e+2, 2.9472885e+2, -217224.98, -229321.03, -33532.105, 0.032615364, 0.15494283, -189199.84, -137519.25, 0.0000050785306, 9.999252, 9.999117 
6.3501847e+2, 3.0472934e+2, -175526.94, -191386.2, -52871.84, 0.02602617, 0.3060587, -129993.41, -129993.41, 0.000027373664, 9.999241, 9.999045 
6.350181e+2, 3.1472895e+2, -149401.88, 21380.545, -53341.133, 0.041454636, 0.33580703, 36671.68, 36671.68, 0.00007720963, 9.99854, 10.000841 
6.450153e+2, 1.24746054e+2, -1682560.9, -1687440.5, -158467.92, 0.25943828, 0.39765978, -1526514.0, 191007.94, 0.0000000021351345, 10.000174, 10.000088 
6.4501524e+2, 1.3474382e+2, -1214939.8, -1404960.5, 83700.51, -0.062431827, 0.14210151, -1183329.8, 436203.34, 0.0, 10.0026455, 10.000193 
6.4502174e+2, 1.4474255e+2, -1205886.6, -1540932.3, 9500.202, 0.24754204, 0.090291135, -1205617.4, 315925.1, 0.0, 10.002872, 9.998461 
6.4502174e+2, 1.5474354e+2, -1383113.8, -1572157.6, -20948.568, 0.1168898, 0.32544273, -1380820.1, 42718.5, 0.0, 10.000974, 9.998484 
6.4502126e+2, 1.6474257e+2, -1387877.1, -1545723.5, -30328.338, -0.018037962, 0.39017132, -1382250.5, -56699.504, 0.0, 10.000362, 9.99829 
6.450213e+2, 1.7473938e+2, -1178671.8, -1393937.1, -16942.227, -0.07091093, 0.23445643, -1177346.4, 50235.035, 0.0, 10.0011215, 9.998296 
6.4502186e+2, 1.8473813e+2, -1034963.94, -1238840.0, -54593.066, -0.023622524, 0.26581857, -1021265.6, 108329.81, 0.0, 10.001286, 9.998603 
6.4502263e+2, 1.9473886e+2, -1005581.3, -1170697.0, -78739.23, 0.10887663, 0.46434432, -974052.94, 57539.395, 0.0, 10.000803, 9.998629 
6.450225e+2, 2.0473753e+2, -854860.0, -1004798.3, -73176.04, 0.14932014, 0.4513445, -825067.0, 108536.73, 0.0, 10.000984, 9.999009 
6.4502156e+2, 2.1473384e+2, -622008.94, -839707.9, -63610.383, 0.09765205, 0.16734898, -604785.06, 230846.92, 0.0, 10.001895, 9.999035 
6.45021e+2, 2.2473203e+2, -644573.6, -880568.9, -38731.105, 0.07454949, 0.12067368, -638379.7, 99268.44, 0.0, 10.001416, 9.998312 
6.4502096e+2, 2.3473227e+2, -841062.06, -923019.9, -42290.61, 0.081038974, 0.30174255, -823153.2, -183501.8, 0.0, 9.99939, 9.998323 
6.4502084e+2, 2.447318e+2, -716966.9, -659604.3, -62340.64, 0.0814351, 0.35814884, -619663.6, -78005.98, 0.0, 9.99891, 9.999689 
6.450204e+2, 2.547305e+2, -430002.6, -462808.28, -103150.28, 0.07413679, 0.24103814, -341959.1, 101708.695, 0.0, 10.0001745, 9.999759 
6.4502037e+2, 2.647298e+2, -320745.84, -378367.6, -127299.164, 0.11478086, 0.20633905, -219037.97, 126633.51, 0.0, 10.000337, 9.999584 
6.4502054e+2, 2.747297e+2, -369521.34, -349252.53, -102834.09, 0.21507452, 0.22543448, -256054.66, -8385.948, 0.000000000000000000046744374, 9.999318, 9.999602 
6.4501995e+2, 2.8472918e+2, -351680.03, -336196.47, -61406.965, 0.19148277, 0.23282857, -282045.2, -132371.69, 0.00000034821963, 9.998967, 9.999191 
6.4501834e+2, 2.947281e+2, -205217.98, -225516.4, -72664.11, 0.032481775, 0.19445764, -141997.72, -90310.89, 0.000006846114, 9.999337, 9.999103 
6.4501774e+2, 3.0472785e+2, -262011.47, -273011.3, -127436.29, 0.054020435, 0.28816357, -139956.47, -139956.47, 0.000033104992, 9.998818, 9.998688 
6.450168e+2, 3.1472677e+2, -309263.06, -57991.26, -122722.47, 0.115587875, 0.28362423, -7999.191, -7999.191, 0.000088752815, 9.997441, 10.000827 
6.55013e+2, 1.2474259e+2, -1735315.6, -1791536.4, -32538.271, -0.013858814, 0.15596905, -1720426.8, -2878.063, 0.0000000012982254, 10.000157, 9.999379 
6.550164e+2, 1.3474317e+2, -1262086.4, -1499585.3, 173350.5, -0.22496165, 0.24472944, -1170712.4, 448830.34, 0.0, 10.00264, 9.999542 
6.5502447e+2, 1.4474279e+2, -1194459.3, -1515592.9, -67590.914, 0.22226065, 0.30662152, -1180812.9, 340734.47, 0.0, 10.002864, 9.998641 
6.550226e+2, 1.5474235e+2, -1369722.9, -1543721.8, -88151.44, 0.10093027, 0.38155413, -1332869.3, 90684.62, 0.0, 10.000969, 9.998684 
6.550217e+2, 1.6474126e+2, -1360459.1, -1486170.5, -8126.47, -0.015492535, 0.40356272, -1359935.9, -34370.69, 0.0, 10.00035, 9.998702 
6.550228e+2, 1.7473936e+2, -1150632.5, -1336330.8, 15297.308, -0.041307025, 0.33335868, -1149380.9, 78201.91, 0.0, 10.001122, 9.99869 
6.550231e+2, 1.8473758e+2, -1069051.9, -1303394.3, -78162.37, -0.042268902, 0.313752, -1045374.06, 84227.35, 0.0, 10.00126, 9.998173 
6.550221e+2, 1.9473584e+2, -1043103.9, -1235174.5, -93280.836, -0.03782492, 0.31062463, -1005258.25, 26363.533, 0.0, 10.000752, 9.998209 
6.55022e+2, 2.047345e+2, -837115.1, -958051.5, -44447.066, -0.010476954, 0.30057696, -822537.06, 111095.914, 0.0, 10.000938, 9.999353 
6.550231e+2, 2.1473342e+2, -603571.9, -788662.2, -24362.14, 0.050780848, 0.24295144, -600419.0, 235216.27, 0.0, 10.001842, 9.99941 
6.550225e+2, 2.2473222e+2, -654006.44, -884879.0, -117525.6, 0.07378859, 0.23641421, -604707.1, 132938.13, 0.0, 10.001353, 9.99831 
6.5502006e+2, 2.3473078e+2, -849092.6, -925948.25, -115031.59, 0.04753322, 0.24932146, -766239.9, -126575.25, 0.0, 9.999336, 9.998325 
6.550198e+2, 2.447297e+2, -790427.44, -805812.56, -22145.346, 0.08332513, 0.29144314, -774676.6, -232997.63, 0.0, 9.998881, 9.9987 
6.550219e+2, 2.5472897e+2, -504090.06, -610901.06, -51038.72, 0.19274357, 0.3324578, -483623.38, -39935.234, 0.0, 10.000152, 9.998751 
6.5502185e+2, 2.647283e+2, -271173.03, -276785.34, -167990.31, 0.21342643, 0.31920308, -105965.44, 239726.86, 0.0, 10.0003395, 10.000284 
6.550192e+2, 2.7472764e+2, -320904.06, -243430.95, -136396.63, 0.13549657, 0.20866863, -140376.95, 107314.836, 0.0000000002377775, 9.999294, 10.000343 
6.5501827e+2, 2.8472748e+2, -365435.84, -362073.88, -51750.98, 0.114918716, 0.22504455, -311976.6, -162285.73, 0.0000008000927, 9.998958, 9.999015 
6.550191e+2, 2.947278e+2, -224863.67, -254324.31, -54138.406, 0.16445316, 0.345598, -183487.4, -131797.42, 0.0000102621225, 9.999292, 9.998922 
6.55019e+2, 3.0472615e+2, -261491.48, -275829.16, -181739.92, 0.28168553, 0.31025347, -86779.08, -86779.08, 0.000043104363, 9.998835, 9.998663 
6.5501595e+2, 3.1472272e+2, -305539.4, -39704.063, -152629.69, 0.25935197, 0.074210174, 29771.271, 29771.271, 0.000108066146, 9.997407, 10.000968 
6.65014e+2, 1.24740705e+2, -1457052.6, -1775960.0, 48010.895, -0.0399556, 0.07339017, -1449981.5, 267579.1, 0.00000000035571668, 10.002561, 9.998332 
6.650179e+2, 1.3474159e+2, -1550242.5, -1754677.3, 158379.8, -0.25857612, 0.2947279, -1463959.1, 155600.66, 0.0, 10.001146, 9.99852 
6.6502625e+2, 1.447412e+2, -1460627.5, -1572959.5, -102422.375, 0.22384477, 0.37747043, -1399981.9, 121584.59, 0.0, 10.000746, 9.99926 
6.650239e+2, 1.5474015e+2, -1191848.4, -1384624.8, -97340.26, 0.09146036, 0.32641843, -1151248.3, 272325.97, 0.0, 10.0018835, 9.99933 
6.6502297e+2, 1.6473903e+2, -1101959.8, -1377527.9, 5729.0977, -0.020010097, 0.31786355, -1101840.8, 223743.61, 0.0, 10.002194, 9.998558 
6.650243e+2, 1.7473774e+2, -1102109.0, -1325637.5, -22763.41, -0.023303242, 0.32119116, -1099814.5, 127783.04, 0.0, 10.00152, 9.998564 
6.650246e+2, 1.84736e+2, -1073761.3, -1311710.0, -120022.79, -0.013778146, 0.316083, -1023737.5, 105878.766, 0.0, 10.001258, 9.998117 
6.650233e+2, 1.9473371e+2, -947725.0, -1198402.1, -116399.28, -0.017912906, 0.26286295, -902012.25, 129629.78, 0.0, 10.001436, 9.998137 
6.6502285e+2, 2.0473248e+2, -842272.44, -954954.4, -58636.29, -0.013698102, 0.2662576, -817296.0, 116356.945, 0.0, 10.000879, 9.999403 
6.650233e+2, 2.1473233e+2, -936164.1, -942547.25, -72575.83, 0.0095142145, 0.2944079, -866709.75, -31061.285, 0.0, 9.999535, 9.999462 
6.650226e+2, 2.2473137e+2, -911831.1, -980216.5, -164373.19, 0.046328947, 0.29873046, -778131.94, -40476.023, 0.0, 9.999463, 9.998565 
6.650205e+2, 2.347295e+2, -621700.2, -790311.94, -150650.25, 0.08807809, 0.24337201, -533370.7, 106306.56, 0.0, 10.00078, 9.998564 
6.650201e+2, 2.4472825e+2, -512819.53, -675446.2, 6858.7285, 0.12801492, 0.26080874, -512530.78, 29160.836, 0.0, 10.000803, 9.998669 
6.650214e+2, 2.5472772e+2, -613796.6, -668914.25, 40086.555, 0.16776976, 0.32457027, -592709.56, -149010.9, 0.0, 9.999417, 9.998709 
6.650213e+2, 2.6472703e+2, -476078.2, -406137.97, -71110.15, 0.19033572, 0.32393476, -361864.4, -16160.201, 0.0, 9.999062, 10.000011 
6.650193e+2, 2.7472612e+2, -259481.06, -242237.98, -123935.18, 0.19035204, 0.2193249, -126624.83, 121083.69, 0.0000000023427176, 9.99984, 10.000086 
6.650183e+2, 2.8472584e+2, -200424.33, -250739.7, -50196.234, 0.17945388, 0.22011554, -169434.25, -19725.45, 0.0000014418595, 9.999952, 9.999303 
6.650184e+2, 2.94726e+2, -193078.52, -200228.34, -25490.678, 0.1660354, 0.29190108, -170913.3, -119207.16, 0.000014782389, 9.999342, 9.9992695 
6.6501826e+2, 3.0472416e+2, -167764.05, -228856.33, -126455.08, 0.29716584, 0.21414088, -68218.09, -68218.09, 0.000056755354, 9.999477, 9.998675 
6.650157e+2, 3.1472197e+2, 120549.39, 145659.45, -102949.94, 0.34921387, 0.11409536, 236817.1, 236817.1, 0.00013493579, 10.000422, 10.000792 
6.750183e+2, 1.2474037e+2, -1553764.1, -1975616.6, 34315.73, 0.10554807, 0.14165215, -1550991.0, 166567.03, 0.0000000023126079, 10.002565, 9.996955 
6.750197e+2, 1.3473915e+2, -1647077.5, -1950643.6, 103262.234, -0.21019082, 0.2872869, -1615281.8, 4301.6035, 0.0, 10.001136, 9.997174 
6.7502683e+2, 1.4473794e+2, -1390399.6, -1429051.1, -69809.16, 0.20209095, 0.30871254, -1337290.5, 184307.86, 0.0, 10.000748, 10.000249 
6.7502534e+2, 1.5473707e+2, -1115825.5, -1230284.3, -49795.125, 0.028875427, 0.16892901, -1097194.8, 326404.2, 0.0, 10.001895, 10.000385 
6.750246e+2, 1.6473596e+2, -1145735.3, -1467172.9, -23071.287, -0.08284949, 0.13811514, -1144087.8, 181519.88, 0.0, 10.002189, 9.997947 
6.7502564e+2, 1.7473458e+2, -1148931.6, -1420996.5, -43331.54, -0.054888934, 0.19834968, -1142197.0, 85427.98, 0.0, 10.001513, 9.997914 
6.7502624e+2, 1.8473347e+2, -1055933.0, -1271150.4, -119499.664, 0.016221268, 0.2743801, -1002731.9, 126907.68, 0.0, 10.00124, 9.998405 
6.750262e+2, 1.9473252e+2, -934454.0, -1158592.5, -105841.76, 0.11633402, 0.3262656, -892374.0, 139278.33, 0.0, 10.001386, 9.998435 
6.750249e+2, 2.0473157e+2, -867403.0, -997597.75, -112469.34, 0.09072773, 0.356364, -802550.3, 131112.4, 0.0, 10.000834, 9.999134 
6.750222e+2, 2.1473055e+2, -960518.1, -983962.06, -118814.44, -0.06603056, 0.32482886, -852848.8, -17177.717, 0.0, 9.999495, 9.999198 
6.750212e+2, 2.2472954e+2, -882669.9, -909260.06, -120555.695, -0.04845899, 0.3120731, -774678.4, -36998.914, 0.0, 9.999418, 9.999072 
6.7502207e+2, 2.3472847e+2, -590645.44, -716247.44, -95039.96, 0.16005182, 0.28460827, -539531.75, 100156.9, 0.0, 10.000741, 9.999089 
6.750214e+2, 2.447276e+2, -454763.44, -550506.06, -46441.695, 0.16813876, 0.26861122, -435937.72, 105756.96, 0.0, 10.000785, 9.999534 
6.7501885e+2, 2.5472683e+2, -557654.44, -545962.9, -8899.294, -0.04252338, 0.22402006, -541161.1, -97462.69, 0.0, 9.999388, 9.999566 
6.7501855e+2, 2.6472604e+2, -566264.9, -587828.8, -47175.066, 0.005012204, 0.22881272, -528655.3, -182948.95, 0.0, 9.999039, 9.998774 
6.750207e+2, 2.7472523e+2, -353071.38, -432142.47, -88902.64, 0.33216467, 0.2559371, -295309.75, -47590.543, 0.0000000015372758, 9.999822, 9.998791 
6.7502e+2, 2.8472418e+2, -143594.23, -137168.55, -76245.945, 0.33589885, 0.21338482, -64067.79, 85660.29, 0.0000017821444, 9.9999695, 10.000073 
6.750161e+2, 2.9472277e+2, -138694.06, -82652.17, -44253.754, -0.013525462, 0.04600279, -58294.04, -6559.9224, 0.000018938657, 9.999319, 10.00009 
6.7501533e+2, 3.0472177e+2, -168574.55, -226873.27, -94765.766, 0.04325555, 0.010515365, -98576.37, -98576.37, 0.00007225524, 9.999463, 9.998692 
6.750156e+2, 3.1472442e+2, 81169.34, 71982.59, -44387.94, 0.27735287, 0.3945704, 121200.945, 121200.945, 0.00016863653, 10.000391, 10.000296 
6.850215e+2, 1.2473866e+2, -1388120.6, -1867368.5, -119739.945, 0.12918094, 0.27126738, -1359869.0, 357708.06, 0.0000000036242784, 10.003561, 9.9972315 
6.8502116e+2, 1.3473594e+2, -1521195.3, -1855645.0, 8564.826, -0.19794796, 0.23999204, -1520976.0, 98638.0, 0.0, 10.001859, 9.997475 
6.850274e+2, 1.4473465e+2, -1416725.3, -1479225.9, -63468.664, 0.18432878, 0.25294274, -1377230.6, 144399.38, 0.0, 10.000725, 9.999918 
6.8502617e+2, 1.547346e+2, -1346642.9, -1382005.3, -152982.52, -0.003001853, 0.23077497, -1210323.1, 213302.7, 0.0, 10.000476, 10.000034 
6.8502575e+2, 1.647337e+2, -1365131.3, -1514605.6, -156017.05, -0.09743462, 0.21335025, -1266874.4, 58758.58, 0.0, 10.000435, 9.998469 
6.8502706e+2, 1.7473184e+2, -1238727.9, -1405592.4, -97113.66, -0.019909022, 0.17426936, -1194128.9, 33523.14, 0.0, 10.000638, 9.998447 
6.8502766e+2, 1.847309e+2, -1108127.3, -1255250.4, -106385.52, 0.06496575, 0.22135495, -1052347.5, 77315.71, 0.0, 10.000706, 9.998771 
6.850274e+2, 1.947308e+2, -1020155.5, -1156491.1, -95064.6, 0.13628107, 0.32040974, -971344.1, 60322.57, 0.0, 10.000615, 9.9988165 
6.8502575e+2, 2.0473023e+2, -913383.44, -1040458.6, -110953.62, 0.11218557, 0.37548867, -849062.8, 84611.79, 0.0, 10.000612, 9.998943 
6.850228e+2, 2.1472904e+2, -796578.8, -928216.2, -121392.37, -0.015520191, 0.34791765, -724309.8, 111378.07, 0.0, 10.000717, 9.998992 
6.850218e+2, 2.2472797e+2, -678294.5, -777523.75, -77400.164, 0.0072139306, 0.32586354, -635972.25, 101724.914, 0.0, 10.00067, 9.999379 
6.8502307e+2, 2.34727e+2, -608998.1, -688792.56, -76239.84, 0.19590718, 0.275628, -562847.1, 76855.5, 0.0, 10.00045, 9.999422 
6.85022e+2, 2.4472621e+2, -529563.2, -554410.44, -100901.55, 0.1807686, 0.236757, -440323.3, 101382.34, 0.0, 10.000129, 9.999825 
6.850182e+2, 2.5472555e+2, -486461.25, -478534.28, -114252.5, -0.060980048, 0.17348936, -368176.53, 75530.32, 0.0, 9.999735, 9.999862 
6.850174e+2, 2.6472494e+2, -542402.8, -613969.0, -91510.41, -0.03224338, 0.19771613, -479928.16, -134214.08, 0.0, 9.999367, 9.998434 
6.850198e+2, 2.7472433e+2, -489323.03, -537658.4, -73201.81, 0.30054426, 0.2824833, -436402.56, -188674.03, 0.00000000039754933, 9.999055, 9.998437 
6.8501925e+2, 2.847235e+2, -288146.25, -175720.13, -57696.703, 0.31912687, 0.2641421, -151379.98, -1642.7803, 0.0000019350068, 9.998844, 10.000352 
6.850152e+2, 2.9472226e+2, -193970.64, -72168.52, -73831.4, -0.004119228, 0.08696965, -37361.613, 14379.199, 0.000022513892, 9.998784, 10.000417 
6.850146e+2, 3.047214e+2, -202499.45, -208512.56, -83346.83, 0.048892934, 0.029062072, -122104.97, -122104.97, 0.000087464054, 9.999067, 9.99901 
6.850156e+2, 3.14724e+2, -49524.426, -4371.94, -9703.686, 0.28658378, 0.3744852, -2374.8591, -2374.8591, 0.00020410729, 9.999537, 10.000182 
6.950236e+2, 1.2473562e+2, -1253330.8, -1581287.3, -160664.39, -0.039850324, 0.46080422, -1187740.0, 529877.56, 0.00000000017840025, 10.003547, 9.999193 
6.9502246e+2, 1.3473208e+2, -1389522.9, -1578514.8, -54733.35, -0.26644763, 0.15479268, -1374816.1, 244834.55, 0.0, 10.001852, 9.999373 
6.950277e+2, 1.4473136e+2, -1529800.8, -1716294.1, -80210.3, 0.12766832, 0.2066601, -1500048.9, 21611.752, 0.0, 10.000734, 9.998287 
6.950263e+2, 1.547328e+2, -1463363.6, -1632898.4, -155498.69, -0.051122747, 0.50537974, -1371028.4, 52626.105, 0.0, 10.000509, 9.9983 
6.950261e+2, 1.6473228e+2, -1252992.9, -1283549.8, -152968.4, -0.11389147, 0.5411405, -1114541.8, 211118.06, 0.0, 10.0004425, 10.00005 
6.950283e+2, 1.7472962e+2, -1123637.1, -1163411.4, -85064.31, 0.036482673, 0.25248238, -1056166.3, 171511.92, 0.0, 10.000624, 10.000115 
6.9502866e+2, 1.8472838e+2, -1077147.3, -1185450.3, -112941.16, 0.088010445, 0.16051637, -1006046.7, 123639.66, 0.0, 10.000682, 9.999261 
6.950268e+2, 1.9472861e+2, -993233.56, -1093353.9, -94297.0, 0.0031409182, 0.24611558, -936532.56, 95151.91, 0.0, 10.000585, 9.999264 
6.9502544e+2, 2.0472844e+2, -927163.44, -1061089.6, -111986.52, 0.008125215, 0.32630542, -863646.5, 70041.72, 0.0, 10.000578, 9.998819 
6.950249e+2, 2.1472776e+2, -814437.56, -953411.6, -113748.086, 0.11762643, 0.36388326, -750631.4, 85067.49, 0.0, 10.000667, 9.998843 
6.950242e+2, 2.2472669e+2, -677613.44, -765132.2, -89637.266, 0.1721166, 0.34177792, -621624.56, 116084.32, 0.0, 10.000624, 9.999486 
6.950232e+2, 2.3472506e+2, -608890.7, -676305.5, -80181.15, 0.15834007, 0.21621038, -555619.94, 84099.22, 0.0, 10.0004, 9.999532 
6.950217e+2, 2.4472411e+2, -551855.25, -591559.0, -119653.25, 0.12580355, 0.16733547, -450418.25, 91305.89, 0.0, 10.000091, 9.999588 
6.9501936e+2, 2.5472385e+2, -507186.2, -515271.4, -125205.22, 0.070249036, 0.16972572, -385958.34, 57765.438, 0.0, 9.999708, 9.999622 
6.9501764e+2, 2.647237e+2, -507519.75, -539693.8, -106258.72, 0.04332576, 0.22515935, -416137.22, -70409.9, 0.0, 9.999361, 9.998947 
6.950165e+2, 2.747235e+2, -457726.6, -465526.1, -80142.09, 0.053736698, 0.3026324, -381389.4, -133653.23, 0.0000000054780975, 9.999027, 9.998945 
6.950158e+2, 2.847238e+2, -304091.44, -205549.16, -64413.902, 0.085628666, 0.3772859, -173722.84, -23986.754, 0.000002355568, 9.99883, 10.000153 
6.9501543e+2, 2.9472443e+2, -212136.4, -103979.33, -69371.73, 0.13015594, 0.41016805, -70098.08, -18371.373, 0.000026314181, 9.99876, 10.000209 
6.950159e+2, 3.0472285e+2, -159518.7, -115775.43, -67724.42, 0.26236928, 0.26005682, -66478.49, -66478.49, 0.00010198075, 9.999059, 9.999649 
6.950155e+2, 3.1472072e+2, -39312.73, 24494.773, 26291.258, 0.29198202, 0.07071975, 33932.04, 33932.04, 0.00023747227, 9.999514, 10.00039 
7.0502585e+2, 1.2473126e+2, -1575798.3, -1686273.6, -10871.085, -0.039648484, 0.3287898, -1574738.6, 142921.44, 0.0, 10.001106, 9.999655 
7.050239e+2, 1.347296e+2, -1474156.0, -1579276.4, -70086.32, -0.27312693, 0.17631438, -1439111.0, 180562.75, 0.0, 10.001093, 9.999736 
7.050282e+2, 1.4472944e+2, -1488307.0, -1705371.8, -52708.285, 0.09351586, 0.2694239, -1476185.1, 45492.777, 0.0, 10.0010605, 9.998204 
7.050274e+2, 1.5472962e+2, -1342837.5, -1580661.9, -13287.595, -0.030921035, 0.45181358, -1342097.5, 81586.97, 0.0, 10.001379, 9.998228 
7.0502716e+2, 1.6472916e+2, -1120805.3, -1193452.3, -940.4427, -0.09218248, 0.48363, -1120793.1, 204897.05, 0.0, 10.001238, 10.000282 
7.050285e+2, 1.7472792e+2, -1131087.5, -1137745.8, -48265.082, -0.00027560198, 0.3132158, -1086036.9, 141658.75, 0.0, 10.000452, 10.000371 
7.050286e+2, 1.8472706e+2, -1116858.9, -1165781.5, -109268.76, 0.029158158, 0.22952476, -1029346.94, 100352.805, 0.0, 10.000242, 9.999607 
7.05027e+2, 1.9472647e+2, -952527.44, -1037028.5, -107356.336, -0.03730555, 0.19868678, -879406.9, 152297.06, 0.0, 10.000697, 9.999601 
7.050258e+2, 2.0472614e+2, -912525.4, -1040722.56, -128507.586, -0.011224471, 0.24158874, -833017.44, 100690.48, 0.0, 10.000622, 9.99894 
7.0502526e+2, 2.1472612e+2, -913889.94, -988077.5, -120263.08, 0.12437729, 0.33297625, -825130.0, 10582.071, 0.0, 9.999929, 9.998961 
7.0502424e+2, 2.2472534e+2, -827713.8, -834845.94, -74632.266, 0.1665868, 0.33441117, -756562.5, -18843.139, 0.0, 9.999586, 9.999504 
7.0502263e+2, 2.3472364e+2, -719137.8, -727891.44, -79867.88, 0.101192445, 0.1999611, -643526.94, -3795.8848, 0.0, 9.99964, 9.99954 
7.0502114e+2, 2.4472265e+2, -649344.56, -666718.94, -122856.56, 0.09737793, 0.15880938, -534868.44, 6869.582, 0.0, 9.999543, 9.999333 
7.050197e+2, 2.547224e+2, -586890.0, -582513.8, -137500.47, 0.1608369, 0.18429415, -447184.03, -3443.601, 0.0, 9.999285, 9.999364 
7.050177e+2, 2.647222e+2, -534311.3, -496821.84, -114959.484, 0.13882455, 0.22635187, -399088.9, -53345.41, 0.0, 9.998937, 9.999446 
7.0501494e+2, 2.7472198e+2, -500304.53, -425407.78, -97063.83, 0.032116026, 0.24785933, -358818.8, -111070.56, 0.000000016182126, 9.998475, 9.999485 
7.0501405e+2, 2.8472245e+2, -437354.7, -334008.03, -72590.71, 0.0598772, 0.34160104, -296577.25, -146830.77, 0.0000029996863, 9.99819, 9.99958 
7.050149e+2, 2.947236e+2, -349801.44, -236799.5, -114563.96, 0.23135328, 0.4815567, -165561.44, -113823.625, 0.000030264622, 9.998098, 9.999618 
7.050156e+2, 3.0472225e+2, -171236.14, -87029.766, -87223.66, 0.3441373, 0.3733931, -32279.23, -32279.23, 0.00011479558, 9.998828, 9.999961 
7.050149e+2, 3.147186e+2, 104049.64, 115043.7, -24355.01, 0.24241707, -0.00487294, 134514.33, 134514.33, 0.0002649436, 10.000399, 10.000591 
7.15028e+2, 1.2472554e+2, -1641535.0, -1824843.5, 5980.0083, 0.041337553, -0.12343135, -1641340.1, 76364.695, 0.0, 10.0011215, 9.9986925 
7.150251e+2, 1.3472848e+2, -1550172.4, -1743199.6, -70482.75, -0.26164016, 0.29383463, -1527175.8, 92507.65, 0.0, 10.001121, 9.998597 
7.150289e+2, 1.4472891e+2, -1385901.5, -1496633.8, -48683.73, 0.037727628, 0.43621352, -1367541.6, 154139.92, 0.0, 10.001079, 9.999626 
7.1502936e+2, 1.5472512e+2, -1237747.4, -1364039.3, 4074.5115, 0.014176955, 0.072441824, -1237616.1, 186099.5, 0.0, 10.00138, 9.999717 
7.150287e+2, 1.647243e+2, -1198713.5, -1348757.0, -32462.094, -0.07389184, 0.0434792, -1191991.4, 133732.56, 0.0, 10.001213, 9.9992285 
7.1502733e+2, 1.7472675e+2, -1211002.0, -1304587.9, -72467.1, -0.16770253, 0.35680464, -1171533.4, 56170.832, 0.0, 10.000457, 9.999225 
7.150271e+2, 1.8472691e+2, -1105756.1, -1139161.0, -96604.945, -0.15226811, 0.4241151, -1024420.4, 105282.984, 0.0, 10.000226, 9.999798 
7.150278e+2, 1.9472441e+2, -943305.4, -1005674.4, -84436.45, -0.030121714, 0.1780723, -884478.9, 147245.7, 0.0, 10.000646, 9.999841 
7.1502674e+2, 2.0472345e+2, -896544.06, -993882.56, -157787.44, 0.011665695, 0.12700751, -780090.44, 153642.28, 0.0, 10.0005665, 9.999286 
7.150237e+2, 2.1472412e+2, -900283.94, -943262.4, -143990.45, -0.03601596, 0.25548625, -776188.0, 59539.34, 0.0, 9.999864, 9.999298 
7.150218e+2, 2.2472396e+2, -839741.56, -846474.1, -78085.15, -0.044542637, 0.304296, -764950.2, -27221.611, 0.0, 9.999526, 9.999455 
7.150212e+2, 2.3472281e+2, -727506.5, -737337.5, -73147.92, -0.013878757, 0.22950983, -659109.1, -19371.225, 0.0, 9.999604, 9.999495 
7.1502036e+2, 2.4472187e+2, -673416.75, -709424.5, -136708.17, 0.054699805, 0.21076517, -553532.06, -11784.955, 0.0, 9.999513, 9.999057 
7.1501917e+2, 2.5472113e+2, -612754.0, -628189.4, -144732.16, 0.16854134, 0.2191992, -475533.9, -31776.836, 0.0, 9.999251, 9.999066 
7.1501744e+2, 2.6472047e+2, -498869.22, -418975.16, -136677.39, 0.21207723, 0.20274507, -316526.72, 29236.074, 0.0, 9.998919, 9.9999895 
7.15015e+2, 2.7471974e+2, -465713.8, -344428.44, -109076.32, 0.1774928, 0.116511665, -280270.56, -32505.645, 0.000000020828322, 9.998436, 10.000059 
7.150137e+2, 2.847195e+2, -503662.75, -471919.6, -80553.72, 0.19157559, 0.15462148, -405688.75, -255920.02, 0.0000037479972, 9.998189, 9.998636 
7.150134e+2, 2.9471976e+2, -422352.47, -384813.13, -112045.05, 0.25585058, 0.30764, -289976.5, -238202.48, 0.000034324887, 9.99809, 9.998607 
7.150137e+2, 3.047197e+2, -168187.2, -80746.95, -32964.24, 0.25090295, 0.37669873, -69712.26, -69712.26, 0.00012562028, 9.998829, 10.0 
7.150133e+2, 3.1471777e+2, 111135.32, 143976.78, 51505.26, 0.018807914, 0.16280235, 181615.58, 181615.58, 0.00028501154, 10.000344, 10.00081 
7.250298e+2, 1.24723725e+2, -1338427.0, -1646975.8, -33916.586, 0.016302114, -0.11934331, -1334742.9, 382980.1, 0.0, 10.003035, 9.999009 
7.250267e+2, 1.3472705e+2, -1409789.4, -1653172.8, -50425.16, -0.2565775, 0.32059687, -1399755.8, 219940.88, 0.0, 10.001989, 9.998796 
7.250297e+2, 1.4472757e+2, -1371050.5, -1461404.5, 2457.5679, 0.023187773, 0.44781584, -1370983.8, 150708.89, 0.0, 10.001055, 9.999885 
7.250308e+2, 1.5472336e+2, -1376211.3, -1399646.0, -42557.047, 0.07243326, 0.015706897, -1343787.9, 79940.83, 0.0, 10.000294, 9.999997 
7.250299e+2, 1.6472231e+2, -1404143.6, -1465281.4, -90814.98, -0.005975028, -0.04395905, -1338890.8, -13151.504, 0.0, 9.999872, 9.999077 
7.2502744e+2, 1.747247e+2, -1311191.8, -1369814.3, -68531.57, -0.16836965, 0.27851573, -1265966.3, -38244.418, 0.0, 9.999841, 9.999072 
7.250269e+2, 1.8472531e+2, -1167161.9, -1164525.5, -32834.957, -0.1684846, 0.3966527, -1132982.3, -3264.2341, 0.0, 9.999782, 9.99984 
7.250283e+2, 1.9472383e+2, -1083297.1, -1067500.8, -40350.098, -0.0014786582, 0.2484706, -1034283.06, -2552.3594, 0.0, 9.999659, 9.999892 
7.2502714e+2, 2.0472294e+2, -1015498.06, -1010450.44, -129770.67, 0.045597475, 0.18363523, -883179.06, 50558.363, 0.0, 9.999573, 9.999652 
7.250233e+2, 2.1472257e+2, -925568.1, -916418.44, -121021.0, -0.03764982, 0.1714999, -799885.9, 35853.133, 0.0, 9.999511, 9.999657 
7.250211e+2, 2.2472236e+2, -861546.75, -851593.06, -29123.094, -0.05425024, 0.19294317, -827024.6, -89284.54, 0.0, 9.999352, 9.999502 
7.250207e+2, 2.3472226e+2, -798259.75, -767495.44, -27944.924, 0.0034837576, 0.22064523, -750978.9, -111237.91, 0.0, 9.999104, 9.999527 
7.250195e+2, 2.447218e+2, -773718.44, -759942.3, -77602.516, 0.05584088, 0.2477005, -688922.75, -147175.53, 0.0, 9.998834, 9.999036 
7.250173e+2, 2.5472087e+2, -716127.25, -680903.1, -71531.78, 0.09787826, 0.23963799, -624847.2, -181086.86, 0.0, 9.998551, 9.9990425 
7.250157e+2, 2.647201e+2, -518477.28, -419794.47, -46980.9, 0.15629546, 0.21266645, -401005.28, -55238.773, 0.0, 9.998749, 10.000064 
7.2501457e+2, 2.7471945e+2, -307077.34, -259468.92, -66760.68, 0.23779185, 0.12116553, -212395.56, 35370.87, 0.000000011844985, 9.999491, 10.000135 
7.250133e+2, 2.847187e+2, -304556.72, -390018.38, -33344.26, 0.27089322, 0.11189471, -293086.4, -143313.1, 0.0000046664522, 9.999625, 9.998501 
7.250118e+2, 2.9471785e+2, -284761.4, -336029.38, -9822.422, 0.24705023, 0.16683947, -282943.97, -231156.02, 0.00003902921, 9.999109, 9.998449 
7.2501206e+2, 3.0471796e+2, -281381.8, -181903.08, 110955.164, 0.2408758, 0.2831026, -110048.64, -110048.64, 0.00013569239, 9.998253, 9.999585 
7.2501326e+2, 3.1471676e+2, -388455.34, -106998.016, 145473.7, 0.15095188, 0.18680346, -45323.24, -45323.24, 0.0002996597, 9.996939, 10.000735 
7.350311e+2, 1.24725826e+2, -1223216.1, -1403879.5, -67801.35, -0.17521933, 0.343559, -1200601.6, 517112.38, 0.0, 10.003027, 10.000675 
7.3502845e+2, 1.3472542e+2, -1305278.6, -1435768.6, -88272.875, -0.29464576, 0.2598425, -1260755.6, 358957.1, 0.0, 10.001986, 10.000291 
7.350307e+2, 1.4472543e+2, -1436771.0, -1588601.1, -30045.113, 0.005644332, 0.30017522, -1431041.6, 90669.336, 0.0, 10.001024, 9.99902 
7.350314e+2, 1.5472434e+2, -1443978.5, -1541003.9, -64366.848, 0.0962805, 0.27507412, -1411889.8, 11833.89, 0.0, 10.0003, 9.999021 
7.3503065e+2, 1.6472314e+2, -1350508.3, -1356047.3, -97005.11, 0.06796015, 0.21478719, -1256233.1, 69502.86, 0.0, 9.999879, 9.999823 
7.3502874e+2, 1.7472178e+2, -1256825.0, -1254440.1, -64862.0, -0.03901601, 0.08139905, -1190759.6, 36988.457, 0.0, 9.999829, 9.999872 
7.350279e+2, 1.8472227e+2, -1177973.3, -1179096.8, -40287.31, -0.058157794, 0.15201056, -1138243.8, -8500.014, 0.0, 9.999751, 9.999753 
7.350281e+2, 1.9472477e+2, -1100289.6, -1088385.5, -40175.72, 0.0071762227, 0.4125499, -1053723.3, -22001.225, 0.0, 9.999603, 9.999773 
7.3502684e+2, 2.0472465e+2, -992765.3, -952920.5, -135193.58, 0.049095236, 0.41272786, -836189.3, 97532.375, 0.0, 9.999524, 10.000072 
7.35024e+2, 2.1472156e+2, -897896.6, -851277.94, -118253.66, 0.07024796, 0.08176937, -754058.2, 81687.96, 0.0, 9.999477, 10.000118 
7.35022e+2, 2.2472063e+2, -860505.06, -840497.2, -43170.6, 0.092478335, 0.0033784297, -806186.56, -68433.85, 0.0, 9.999312, 9.999599 
7.35021e+2, 2.3472202e+2, -799750.94, -759807.9, -33164.176, 0.11295605, 0.17015597, -741066.06, -101325.664, 0.0, 9.999056, 9.999604 
7.3501843e+2, 2.4472241e+2, -758925.06, -722302.1, -91692.81, 0.05544925, 0.26704693, -647110.2, -105371.54, 0.0, 9.998805, 9.999308 
7.350141e+2, 2.5472164e+2, -702141.44, -641688.4, -77566.836, -0.09059527, 0.24626613, -588666.75, -144916.95, 0.0, 9.998509, 9.999331 
7.350124e+2, 2.6472124e+2, -552162.94, -482460.44, -22674.428, -0.06265714, 0.26065212, -475733.56, -129979.586, 0.0, 9.998718, 9.999649 
7.350135e+2, 2.7472112e+2, -341620.97, -327167.38, -33174.035, 0.16782455, 0.26890755, -300442.1, -52689.88, 0.000000051096855, 9.999473, 9.9996805 
7.350129e+2, 2.8472e+2, -253483.66, -284303.94, -55456.227, 0.24807124, 0.21337545, -211336.3, -61575.945, 0.0000058850314, 9.999627, 9.999225 
7.3501015e+2, 2.9471788e+2, -238767.89, -230313.89, -22500.314, 0.15119486, 0.062788054, -211646.97, -159867.83, 0.000043358832, 9.999066, 9.999193 
7.350107e+2, 3.047171e+2, -349876.3, -318977.78, 63317.906, 0.26430792, 0.098653294, -269251.63, -269251.63, 0.00014281429, 9.998234, 9.998652 
7.350144e+2, 3.1471565e+2, -428052.7, -175840.34, 110528.47, 0.5474705, 0.07357383, -134258.39, -134258.39, 0.00030710292, 9.996891, 10.000281 
7.450323e+2, 1.2472546e+2, -1459172.6, -1525489.1, 71582.09, -0.28049168, 0.36630222, -1413442.0, 304274.88, 0.0, 10.001436, 10.000606 
7.4503034e+2, 1.3472436e+2, -1421964.9, -1508945.1, -97323.164, -0.26412198, 0.23127587, -1358856.8, 260866.19, 0.0, 10.001267, 10.000129 
7.4503154e+2, 1.4472437e+2, -1464225.0, -1585901.1, -62748.945, 0.001623876, 0.27249494, -1437663.5, 84058.53, 0.0, 10.000763, 9.999166 
7.450309e+2, 1.5472431e+2, -1475095.1, -1538973.5, -24815.48, 0.0298353, 0.335132, -1466587.9, -42862.17, 0.0, 10.000012, 9.999173 
7.450301e+2, 1.6472358e+2, -1316624.1, -1304192.8, 20019.123, 0.024128601, 0.2962389, -1289446.6, 36286.37, 0.0, 9.999957, 10.000143 
7.450297e+2, 1.7472194e+2, -1106678.8, -1143944.3, 11860.936, 0.03223903, 0.10329313, -1103223.9, 124521.3, 0.0, 10.00069, 10.000216 
7.450287e+2, 1.8472207e+2, -1092587.5, -1123866.6, -11306.231, 0.02498923, 0.11107806, -1088928.6, 40814.33, 0.0, 10.000277, 9.999879 
7.4502695e+2, 1.94724e+2, -1237126.3, -1141604.5, -2957.4575, -0.018479036, 0.30498198, -1141513.0, -109787.03, 0.0, 9.998604, 9.999891 
7.450253e+2, 2.0472413e+2, -1151432.8, -1018531.9, -33003.06, -0.00007085904, 0.31916854, -1010787.56, -77064.23, 0.0, 9.998389, 10.000168 
7.4502385e+2, 2.1472223e+2, -843073.5, -813332.6, -48023.656, 0.09589868, 0.098842464, -777929.8, 57807.656, 0.0, 9.999809, 10.000219 
7.450222e+2, 2.2472157e+2, -745122.7, -780713.25, -31614.838, 0.13692735, 0.04091116, -726638.9, 11103.039, 0.0, 10.000088, 9.999637 
7.4502e+2, 2.3472221e+2, -797281.4, -755799.75, -35486.96, 0.10660582, 0.1295158, -735436.94, -95700.164, 0.0, 9.999054, 9.999637 
7.450172e+2, 2.4472246e+2, -745304.25, -684248.5, -56334.434, 0.050233826, 0.1953663, -650702.0, -108966.34, 0.0, 9.998761, 9.999592 
7.450136e+2, 2.5472224e+2, -555699.9, -539126.3, -51505.58, -0.03409701, 0.20103866, -495245.16, -51505.39, 0.0, 9.999374, 9.99962 
7.450118e+2, 2.6472196e+2, -522954.72, -527345.3, -4465.7256, -0.010321039, 0.23767793, -520173.88, -174430.25, 0.0, 9.99917, 9.9991255 
7.45012e+2, 2.7472153e+2, -584074.9, -504239.3, -29738.564, 0.14286876, 0.26998574, -494379.47, -246631.0, 0.00000017449423, 9.99807, 9.999141 
7.4501115e+2, 2.8472042e+2, -479771.97, -378057.03, -53527.926, 0.19779308, 0.23819605, -355078.72, -205321.06, 0.0000070142673, 9.998009, 9.99936 
7.45009e+2, 2.9471862e+2, -218913.55, -203052.25, -76041.35, 0.13836719, 0.10535596, -134529.11, -82757.31, 0.000045203302, 9.999128, 9.99935 
7.450095e+2, 3.0471754e+2, -209407.0, -249159.78, -23177.68, 0.278468, 0.09872064, -198750.2, -198750.2, 0.00014394909, 9.999183, 9.998679 
7.450125e+2, 3.147161e+2, -250175.81, -47090.695, 82362.23, 0.6221882, 0.070323296, -17887.594, -17887.594, 0.00030552503, 9.997925, 10.000668 
7.550329e+2, 1.247227e+2, -1589300.5, -1781718.3, 51783.21, -0.3817899, -0.046020806, -1576249.8, 141481.22, 0.0, 10.001387, 9.998867 
7.550323e+2, 1.3472384e+2, -1553318.8, -1779976.5, -101926.38, -0.20392694, 0.22870743, -1514225.8, 105501.77, 0.0, 10.001265, 9.998269 
7.550321e+2, 1.4472434e+2, -1381875.3, -1416595.0, -95273.75, -0.026637249, 0.35829198, -1302392.6, 219333.39, 0.0, 10.000766, 10.000328 
7.5502896e+2, 1.5472339e+2, -1386988.4, -1355475.9, -46761.797, -0.17159827, 0.2062462, -1321887.1, 101846.484, 0.0, 10.000008, 10.000437 
7.5502807e+2, 1.647236e+2, -1321443.1, -1313328.9, 41679.06, -0.18260305, 0.2026699, -1275510.0, 50219.957, 0.0, 9.999954, 10.000082 
7.550302e+2, 1.7472517e+2, -1119059.1, -1164382.0, 43878.105, 0.008703531, 0.3422284, -1092336.0, 135377.19, 0.0, 10.0006695, 10.000087 
7.5502926e+2, 1.8472464e+2, -1071645.3, -1073235.0, -75880.06, 0.039246686, 0.27427584, -996555.94, 133159.97, 0.0, 10.000246, 10.000241 
7.550246e+2, 1.9472158e+2, -1217790.0, -1091026.1, -61443.85, -0.12140423, -0.0693985, -1066132.3, -34390.38, 0.0, 9.99856, 10.000259 
7.5502235e+2, 2.0472148e+2, -1173330.6, -1055589.9, 12375.406, -0.14226508, -0.08752296, -1054303.1, -120561.56, 0.0, 9.998351, 9.999932 
7.550228e+2, 2.1472463e+2, -870153.1, -854878.94, 9154.944, 0.0025651525, 0.22193016, -850593.9, -14881.191, 0.0, 9.999747, 9.999963 
7.550213e+2, 2.2472523e+2, -758095.1, -789971.75, -71139.17, 0.037268594, 0.30661777, -701130.7, 36576.652, 0.0, 10.000013, 9.999609 
7.5501746e+2, 2.3472293e+2, -805119.8, -760615.3, -69247.92, -0.056487978, 0.10311082, -710132.2, -70402.7, 0.0, 9.999008, 9.999623 
7.550155e+2, 2.4472204e+2, -729831.3, -648253.7, -39425.02, -0.0030632843, 0.043621223, -632314.56, -90577.31, 0.0, 9.998744, 9.999847 
7.550156e+2, 2.5472265e+2, -539799.7, -504190.22, -24840.844, 0.21932623, 0.103315845, -491432.3, -47701.89, 0.0, 9.999363, 9.999867 
7.550138e+2, 2.6472226e+2, -566438.0, -613368.56, -46796.688, 0.26369658, 0.1443394, -537553.0, -191817.5, 0.0, 9.999156, 9.998539 
7.550099e+2, 2.7472067e+2, -633696.4, -597220.6, -64194.992, 0.113865696, 0.12534937, -548723.06, -300968.16, 0.0000002213921, 9.998029, 9.998521 
7.5500804e+2, 2.8471997e+2, -517045.0, -453542.94, -16125.382, 0.07505089, 0.18755172, -449682.78, -299917.7, 0.000006955663, 9.997996, 9.99885 
7.550085e+2, 2.947201e+2, -256901.14, -279535.8, -28971.645, 0.1589424, 0.30321786, -237114.81, -185349.13, 0.000043838252, 9.99911, 9.998837 
7.550083e+2, 3.0471924e+2, -140627.64, -96663.79, -68288.9, 0.2304575, 0.29004163, -46906.055, -46906.055, 0.0001394824, 9.999152, 9.999736 
7.5500727e+2, 3.1471783e+2, -165954.08, 139210.83, 48012.363, 0.276994, 0.15445186, 146586.47, 146586.47, 0.0002957357, 9.997882, 10.001966 
7.6503474e+2, 1.2472422e+2, -1508496.0, -1757013.6, 67721.34, -0.3616277, -0.06443218, -1491240.0, 226471.36, 0.0, 10.001985, 9.99875 
7.6503336e+2, 1.3472457e+2, -1591842.6, -1821325.6, 22561.14, -0.21031938, 0.14976951, -1589645.6, 30069.729, 0.0, 10.00109, 9.998068 
7.650324e+2, 1.4472468e+2, -1365904.3, -1407596.4, 83142.72, -0.07429513, 0.2493251, -1301034.1, 220683.61, 0.0, 10.000869, 10.0003395 
7.6503e+2, 1.5472426e+2, -1149309.6, -1239043.1, 31410.955, -0.14809024, 0.14859475, -1139407.1, 284313.72, 0.0, 10.001627, 10.000458 
7.650289e+2, 1.6472486e+2, -1151062.6, -1227676.6, 63039.83, -0.15665706, 0.17922357, -1115603.5, 210110.78, 0.0, 10.001108, 10.000116 
7.650295e+2, 1.7472659e+2, -1336879.0, -1263551.0, 66294.41, -0.052076668, 0.33036733, -1224457.5, 3239.4246, 0.0, 9.999151, 10.000138 
7.650281e+2, 1.8472624e+2, -1294877.0, -1172244.0, -34253.934, -0.0115242945, 0.27522168, -1163324.9, -33626.766, 0.0, 9.998675, 10.0003195 
7.650245e+2, 1.9472341e+2, -1022827.75, -986671.5, -47847.984, -0.053937927, -0.05226107, -953600.4, 78121.26, 0.0, 9.999853, 10.000353 
7.6502216e+2, 2.0472324e+2, -957664.44, -960644.3, 41096.19, -0.06996528, -0.08051965, -918031.1, 15691.031, 0.0, 9.99987, 9.999852 
7.6502144e+2, 2.1472591e+2, -1045946.75, -950912.3, 42314.516, -0.051127236, 0.19074841, -934802.44, -99104.38, 0.0, 9.998582, 9.999868 
7.650196e+2, 2.247265e+2, -1017843.1, -895656.44, -27993.988, -0.036829095, 0.26985765, -889548.1, -151855.1, 0.0, 9.998151, 9.999779 
7.650165e+2, 2.3472472e+2, -845969.5, -760996.94, -22505.367, -0.03411807, 0.10220383, -755404.4, -115694.18, 0.0, 9.99865, 9.999792 
7.6501495e+2, 2.4472384e+2, -727495.9, -675419.3, 22866.512, 0.062834315, 0.04697793, -666804.06, -125086.055, 0.0, 9.998882, 9.999594 
7.650151e+2, 2.5472394e+2, -638515.0, -579226.0, -8926.22, 0.2635132, 0.08232025, -577911.25, -134195.17, 0.0, 9.998816, 9.999612 
7.6501304e+2, 2.6472336e+2, -590290.4, -621331.56, -45216.727, 0.28684145, 0.11825039, -558004.7, -212281.95, 0.0, 9.99898, 9.998569 
7.650086e+2, 2.7472198e+2, -433134.63, -494209.72, -25019.379, 0.12119826, 0.11335327, -424194.2, -176454.1, 0.00000016204108, 9.999381, 9.998574 
7.6500696e+2, 2.847212e+2, -349236.66, -400653.9, 88983.45, 0.10838709, 0.17756514, -282322.47, -132570.86, 0.0000062859385, 9.999266, 9.998605 
7.650084e+2, 2.9472095e+2, -358658.03, -352624.7, 89022.18, 0.26419505, 0.2781646, -266568.1, -214810.44, 0.000041485197, 9.998524, 9.998615 
7.6500714e+2, 3.0472004e+2, -319229.3, -114894.13, 1713.0267, 0.27916697, 0.24445954, -114879.77, -114879.77, 0.00013263787, 9.99763, 10.000343 
7.650033e+2, 3.147207e+2, -345663.8, 112711.15, 61395.55, 0.17028357, 0.254963, 120792.11, 120792.11, 0.0002807991, 9.996398, 10.002493 
7.7503747e+2, 1.2473018e+2, -1411766.9, -1545099.6, 14743.987, -0.3170158, 0.31155387, -1410155.9, 307500.66, 0.00000000003061157, 10.001942, 10.000223 
7.750334e+2, 1.3472663e+2, -1493927.4, -1616726.5, -10355.437, -0.32929978, -0.005750112, -1493060.3, 126625.44, 0.0, 10.001081, 9.999477 
7.750323e+2, 1.4472541e+2, -1445497.3, -1569651.0, 103524.37, -0.18899767, -0.05776854, -1386864.4, 134832.75, 0.0, 10.000855, 9.999235 
7.750339e+2, 1.54727e+2, -1232867.8, -1414297.8, 65264.14, 0.060585264, 0.16276588, -1211830.3, 211856.7, 0.0, 10.00163, 9.999256 
7.7503216e+2, 1.6472736e+2, -1142599.0, -1206709.4, -12444.609, 0.055091888, 0.22515024, -1140268.1, 185417.48, 0.0, 10.001095, 10.000264 
7.7502733e+2, 1.7472623e+2, -1324870.9, -1237517.4, -2551.4983, -0.19167033, 0.07100827, -1237442.9, -9747.257, 0.0, 9.999143, 10.000321 
7.750253e+2, 1.847269e+2, -1311155.3, -1199269.8, 3063.396, -0.17261928, 0.11655628, -1199185.9, -69496.664, 0.0, 9.998647, 10.000149 
7.750264e+2, 1.947295e+2, -1042123.4, -1016300.06, 1190.364, 0.13886498, 0.3498364, -1016245.3, 15420.105, 0.0, 9.9998045, 10.000174 
7.750245e+2, 2.0472941e+2, -963883.7, -956065.1, -9552.667, 0.17074361, 0.33526415, -949652.8, -15987.381, 0.0, 9.999799, 9.999916 
7.750195e+2, 2.1472615e+2, -1049804.4, -945585.9, -2143.9722, -0.10866635, 0.008311863, -945541.8, -109848.73, 0.0, 9.9985285, 9.999928 
7.7501684e+2, 2.2472547e+2, -1001860.75, -850443.9, -16030.849, -0.1339541, -0.060899653, -848765.25, -111066.95, 0.0, 9.998098, 10.000115 
7.7501684e+2, 2.347275e+2, -827868.5, -713981.5, 869.0745, 0.12976186, 0.12019472, -713974.9, -74295.24, 0.0, 9.998606, 10.000136 
7.750153e+2, 2.447278e+2, -786283.7, -787685.2, 16379.656, 0.20347199, 0.20064689, -770589.8, -228911.48, 0.0, 9.998843, 9.998841 
7.75012e+2, 2.5472605e+2, -697401.8, -695040.8, -6419.038, 0.062601164, 0.13397956, -689694.6, -245997.64, 0.0, 9.998787, 9.998831 
7.750095e+2, 2.6472524e+2, -550921.1, -535700.6, -33208.84, 0.025765726, 0.15472354, -509241.22, -163535.47, 0.0, 9.9989605, 9.999167 
7.750081e+2, 2.7472535e+2, -391301.2, -404692.06, -5124.9277, 0.11454155, 0.2340865, -389564.9, -141860.23, 0.00000014054619, 9.999362, 9.999203 
7.7500767e+2, 2.8472403e+2, -346214.2, -387564.84, 58530.92, 0.24057765, 0.20702977, -304814.25, -155096.28, 0.000005985507, 9.999241, 9.998703 
7.7500844e+2, 2.9472092e+2, -354755.72, -344128.6, 67492.92, 0.40437356, 0.014452135, -281740.4, -229991.19, 0.000039454848, 9.99852, 9.998675 
7.750059e+2, 3.0471978e+2, -313326.63, -99164.6, -44166.41, 0.38064757, -0.047904216, -90413.77, -90413.77, 0.00012495591, 9.997617, 10.000458 
7.7500015e+2, 3.147248e+2, -367139.06, 70550.82, 28610.15, 0.18652034, 0.3820782, 72413.03, 72413.03, 0.00026321306, 9.996382, 10.0022135 
7.850387e+2, 1.2473333e+2, -1607851.9, -1620466.6, 35160.38, -0.31302404, 0.3624812, -1578437.6, 139186.06, 0.0000000009851104, 10.000509, 10.000399 
7.850345e+2, 1.3472895e+2, -1588022.3, -1641344.0, -91671.5, -0.2876587, -0.055157784, -1519213.4, 100445.16, 0.0, 10.000355, 9.999654 
7.8503263e+2, 1.4472724e+2, -1582382.8, -1642254.6, 44419.117, -0.18900757, -0.16431978, -1558753.6, -37080.195, 0.0, 9.999944, 9.999177 
7.850339e+2, 1.5472914e+2, -1585123.9, -1590492.5, 82167.88, 0.023602618, 0.095184974, -1505596.5, -81936.88, 0.0, 9.999248, 9.999192 
7.850319e+2, 1.6472949e+2, -1432124.3, -1336378.8, 24144.697, 0.023687141, 0.1564061, -1330634.6, -4976.5127, 0.0, 9.999067, 10.000347 
7.8502685e+2, 1.7472798e+2, -1274956.3, -1200962.3, 16549.775, -0.17050563, -0.046288945, -1197429.4, 30242.646, 0.0, 9.999441, 10.000421 
7.850247e+2, 1.8472873e+2, -1170855.6, -1139926.9, 80731.17, -0.14421508, 0.004306027, -1073192.3, 56473.137, 0.0, 9.99964, 10.00008 
7.8502584e+2, 1.947319e+2, -1083220.3, -1042348.94, 78966.42, 0.121882506, 0.30109257, -981216.75, 50420.367, 0.0, 9.999553, 10.000115 
7.8502417e+2, 2.0473199e+2, -998317.0, -980682.6, 35933.35, 0.1732679, 0.3123106, -952500.5, -18864.752, 0.0, 9.999596, 9.999845 
7.850196e+2, 2.147285e+2, -884878.4, -873684.3, 23508.428, -0.011135798, -0.030681983, -855115.8, -19450.05, 0.0, 9.999697, 9.999857 
7.8501666e+2, 2.2472762e+2, -809245.56, -800126.25, 12012.041, -0.03927299, -0.09642108, -791837.56, -54163.652, 0.0, 9.999603, 9.999734 
7.850156e+2, 2.3472957e+2, -756411.9, -723086.6, -34775.18, 0.10900622, 0.11376683, -701188.2, -61529.523, 0.0, 9.999287, 9.999744 
7.850137e+2, 2.4472986e+2, -707631.1, -712467.94, -553.5247, 0.13634863, 0.19849682, -707568.56, -165911.53, 0.0, 9.999228, 9.999167 
7.8501076e+2, 2.547282e+2, -574287.75, -598032.1, 51001.07, 0.026423035, 0.10423458, -533795.3, -90123.336, 0.0, 9.999469, 9.999165 
7.850087e+2, 2.647272e+2, -464105.2, -518374.06, 53487.73, 0.016844545, 0.100047186, -431262.84, -85581.38, 0.0, 9.999659, 9.998952 
7.850078e+2, 2.7472687e+2, -340550.78, -403199.9, 9204.279, 0.12599438, 0.1607221, -339226.5, -91540.92, 0.0000001311964, 9.999813, 9.998993 
7.85007e+2, 2.8472567e+2, -291594.72, -325577.6, 15134.926, 0.24132232, 0.1419398, -285831.5, -136133.94, 0.000005888669, 9.999464, 9.9990225 
7.850065e+2, 2.9472336e+2, -336369.72, -296766.66, 31446.691, 0.3684398, -0.006883637, -279406.44, -227686.39, 0.000037310834, 9.998485, 9.999017 
7.8500336e+2, 3.0472207e+2, -248697.83, -126575.69, -60757.84, 0.33807856, -0.078486316, -101497.516, -101497.516, 0.00011684081, 9.998297, 9.999949 
7.8499806e+2, 3.1472597e+2, -70875.53, 99460.98, -54327.54, 0.21390967, 0.292199, 115313.08, 115313.08, 0.00024566453, 9.998884, 10.001221 
7.9503804e+2, 1.247339e+2, -1686510.6, -1779973.8, 6588.206, -0.45279095, 0.09700483, -1686048.5, 31562.225, 0.0000000034592607, 10.000503, 9.999305 
7.950366e+2, 1.3473167e+2, -1656933.5, -1790018.5, -95206.12, -0.1264209, -0.0015449581, -1607320.5, 12312.578, 0.0, 10.000383, 9.998619 
7.9503345e+2, 1.4473023e+2, -1513551.8, -1499889.0, 14118.932, -0.11397817, -0.0760903, -1491035.6, 30610.367, 0.0, 9.999947, 10.000152 
7.9503e+2, 1.5473075e+2, -1510558.8, -1439046.4, 62200.223, -0.3052159, -0.05925041, -1403057.4, 20581.055, 0.0, 9.999257, 10.000228 
7.950279e+2, 1.6473132e+2, -1434560.8, -1336621.0, 33433.5, -0.29530323, -0.031112248, -1326296.3, -664.72754, 0.0, 9.999048, 10.000355 
7.9502785e+2, 1.7473184e+2, -1275183.5, -1204110.0, 34714.438, -0.026865996, -0.025962604, -1189968.3, 37657.727, 0.0, 9.999449, 10.000398 
7.950262e+2, 1.847317e+2, -1172992.3, -1136252.0, 74210.984, 0.03187261, -0.065137275, -1078171.3, 51455.41, 0.0, 9.999606, 10.00012 
7.950227e+2, 1.9473067e+2, -1085516.3, -1040150.5, 80244.445, -0.15502383, -0.19338991, -979444.6, 52191.246, 0.0, 9.999521, 10.000146 
7.9502106e+2, 2.0473106e+2, -1019915.2, -1012627.0, 34115.855, -0.10829912, -0.14383459, -981961.2, -48328.63, 0.0, 9.999541, 9.999652 
7.950215e+2, 2.147329e+2, -906601.0, -906931.25, 31497.621, 0.20323032, 0.06456353, -875268.06, -39651.42, 0.0, 9.999644, 9.999656 
7.9501873e+2, 2.2473294e+2, -896269.44, -964865.3, -4043.3882, 0.20350896, 0.15500827, -896031.94, -158411.45, 0.0, 9.9995365, 9.998634 
7.950125e+2, 2.3473093e+2, -841863.7, -891117.6, -42285.49, -0.14063685, 0.08245664, -817556.5, -177909.67, 0.0, 9.999244, 9.998612 
7.9500985e+2, 2.4473006e+2, -614395.75, -515000.25, 2872.0444, -0.18470106, 0.041343063, -514917.3, 26736.727, 0.0, 9.9992075, 10.000535 
7.9501116e+2, 2.5473028e+2, -479295.13, -393328.6, 63431.234, 0.10926698, -0.006519638, -359688.88, 83952.48, 0.0, 9.999433, 10.000591 
7.9501045e+2, 2.647292e+2, -537002.7, -662805.4, 54056.594, 0.2122477, -0.045958128, -516966.13, -171316.08, 0.0, 9.99963, 9.9979725 
7.9500747e+2, 2.7472654e+2, -418803.47, -560247.6, 20730.73, 0.10682167, -0.11351895, -415827.66, -168144.38, 0.000000103459534, 9.999789, 9.997926 
7.950049e+2, 2.847262e+2, -256811.81, -253071.47, -23150.025, 0.069968276, -0.016261151, -231716.19, -82025.82, 0.000005445095, 9.999459, 9.999523 
7.950025e+2, 2.9472828e+2, -301193.7, -218096.86, 2031.857, 0.10335297, 0.22166437, -218047.2, -166377.53, 0.000034263594, 9.998455, 9.999574 
7.9499936e+2, 3.0472678e+2, -327365.9, -283016.34, -41578.05, 0.100798115, 0.15033098, -258069.42, -258069.42, 0.000108508386, 9.998275, 9.998881 
7.9499656e+2, 3.1472427e+2, -195879.67, -148052.92, -26059.105, 0.15891749, -0.0025091507, -136597.86, -136597.86, 0.00023086925, 9.998841, 9.999537 
8.0503905e+2, 1.247356e+2, -1747442.3, -1835046.0, 16584.768, -0.3751859, -0.04814915, -1744407.6, -26817.85, 0.0000000057252847, 10.000195, 9.999087 
8.0503774e+2, 1.3473505e+2, -1556065.5, -1758512.5, -16730.33, -0.08915186, 0.03806571, -1554692.3, 64907.01, 0.0, 10.001142, 9.998483 
8.050339e+2, 1.4473398e+2, -1305123.1, -1350467.0, 71331.71, -0.12072705, -0.013791729, -1252947.0, 268661.97, 0.0, 10.001169, 10.000586 
8.0502987e+2, 1.5473393e+2, -1323867.9, -1300150.9, 60782.92, -0.29484022, -0.097519875, -1250080.5, 173523.33, 0.0, 10.000336, 10.000658 
8.0502766e+2, 1.6473435e+2, -1306558.0, -1298132.8, 49777.195, -0.2693197, -0.09717736, -1252390.3, 73206.98, 0.0, 10.000023, 10.0001545 
8.0502796e+2, 1.7473522e+2, -1181636.8, -1183112.8, 30394.877, 0.006041873, -0.03480103, -1151971.0, 75618.34, 0.0, 10.000199, 10.000181 
8.050261e+2, 1.8473488e+2, -1095604.4, -1116942.8, 45242.688, 0.03458216, -0.0749292, -1059789.9, 69802.484, 0.0, 10.000224, 9.999949 
8.0502176e+2, 1.9473301e+2, -1021434.2, -1030640.5, 27547.979, -0.22181417, -0.2690307, -998107.44, 33502.02, 0.0, 10.000058, 9.999951 
8.050201e+2, 2.0473315e+2, -977167.0, -990426.2, -11179.481, -0.1719791, -0.23221983, -970799.2, -37190.98, 0.0, 9.999831, 9.999664 
8.050213e+2, 2.1473546e+2, -931432.75, -915672.75, -8692.555, 0.22655961, 0.020581689, -911820.1, -76232.4, 0.0, 9.999463, 9.999681 
8.0501896e+2, 2.2473556e+2, -873723.56, -985341.6, 23107.223, 0.26033807, 0.12875596, -869129.0, -131537.94, 0.0, 9.999821, 9.998359 
8.050128e+2, 2.3473315e+2, -611222.3, -810078.06, 42388.496, -0.1127479, 0.04307287, -602563.7, 37058.082, 0.0, 10.000957, 9.998343 
8.0500996e+2, 2.4473205e+2, -396434.4, -432085.2, 31730.9, -0.16657047, 0.0033712243, -377864.84, 163767.3, 0.0, 10.000799, 10.0003395 
8.0501074e+2, 2.5473228e+2, -524105.94, -435810.13, -41636.6, 0.14003466, -0.025467236, -419273.25, 24348.01, 0.0, 9.999216, 10.000406 
8.0500966e+2, 2.6473132e+2, -677639.1, -685650.0, -21861.758, 0.2315603, -0.062813744, -659418.9, -313790.25, 0.0, 9.998469, 9.998376 
8.0500644e+2, 2.747289e+2, -553377.0, -577952.75, 45881.313, 0.08932211, -0.14879093, -518166.6, -270509.25, 0.00000004701224, 9.998659, 9.99835 
8.050038e+2, 2.8472865e+2, -361071.38, -346431.78, 19087.37, 0.052208092, -0.04518325, -333308.8, -183645.66, 0.0000040934947, 9.99893, 9.999135 
8.050016e+2, 2.9473066e+2, -196915.98, -211096.4, -38720.65, 0.12508273, 0.22438444, -164641.75, -112996.71, 0.000029452855, 9.999361, 9.999182 
8.049985e+2, 3.0472916e+2, -146207.61, -252655.08, -63881.867, 0.11890102, 0.19852784, -116282.93, -116282.93, 0.000100260084, 9.999766, 9.998374 
8.0499583e+2, 3.1472522e+2, -86369.83, -171834.69, -19889.176, 0.14857085, -0.047024775, -81967.984, -81967.984, 0.00022208261, 9.999933, 9.998842 
8.150415e+2, 1.24738574e+2, -1703331.4, -1741835.8, 25646.414, -0.17556293, -0.069917366, -1690515.1, 27044.469, 0.000000004999778, 10.000195, 9.999723 
8.150376e+2, 1.3473915e+2, -1503494.8, -1646070.4, 21299.014, -0.22571716, 0.051285055, -1500381.0, 119176.01, 0.0, 10.001131, 9.999256 
8.1503385e+2, 1.4473858e+2, -1321983.5, -1380616.0, 37613.02, -0.25535375, 0.02015915, -1303611.4, 217950.34, 0.0, 10.001147, 10.000391 
8.150333e+2, 1.5473871e+2, -1334938.0, -1328727.0, 36189.957, 0.0071957065, -0.025724772, -1295509.5, 128046.08, 0.0, 10.000355, 10.000455 
8.1503105e+2, 1.6473858e+2, -1335781.0, -1356619.0, 51008.906, 0.054099593, -0.048372854, -1294137.9, 31417.232, 0.0, 10.000017, 9.999753 
8.1502706e+2, 1.7473812e+2, -1211434.0, -1243523.8, 41026.043, -0.11667797, -0.07994393, -1183426.9, 44134.477, 0.0, 10.000192, 9.99977 
8.150243e+2, 1.8473826e+2, -1130484.3, -1178763.0, 37488.758, -0.17860498, -0.03131791, -1110035.4, 19526.568, 0.0, 10.000179, 9.999547 
8.1502295e+2, 1.9473891e+2, -1054937.9, -1092722.8, 27643.096, -0.12585591, 0.06737126, -1040348.06, -8790.45, 0.0, 10.000023, 9.999544 
8.1502104e+2, 2.0473832e+2, -974772.56, -969105.06, -29161.938, -0.064022556, 0.040945403, -942639.5, -9077.045, 0.0, 9.9997635, 9.999842 
8.150187e+2, 2.1473625e+2, -925320.9, -891740.06, -18704.516, 0.015029666, -0.16182497, -883395.3, -47816.875, 0.0, 9.9994135, 9.999869 
8.1501716e+2, 2.2473556e+2, -841032.9, -903776.7, 59087.242, 0.084901474, -0.17002876, -805505.6, -67920.52, 0.0, 9.999762, 9.998948 
8.150164e+2, 2.3473626e+2, -577738.1, -728616.9, 90261.95, 0.14391083, -0.0036351394, -535541.1, 104041.84, 0.0, 10.000903, 9.99893 
8.1501395e+2, 2.4473588e+2, -523579.75, -689521.3, -30605.953, 0.14033648, 0.08276815, -518114.8, 23476.307, 0.0, 10.000766, 9.99859 
8.150094e+2, 2.547342e+2, -653581.7, -703162.8, -96807.21, 0.074253164, 0.044184163, -578441.25, -134829.64, 0.0, 9.999201, 9.998583 
8.150062e+2, 2.6473355e+2, -554008.2, -423775.34, -19170.459, 0.030771723, 0.045955036, -421012.03, -75394.82, 0.0, 9.998452, 10.00018 
8.150046e+2, 2.74734e+2, -428899.66, -307825.8, 60007.887, 0.02172143, 0.05663345, -283123.84, -35516.523, 0.000000004527389, 9.9986105, 10.000229 
8.1500375e+2, 2.8473303e+2, -451600.7, -533494.06, 29368.201, 0.13670327, 0.055836707, -442157.7, -292541.72, 0.0000024308686, 9.998921, 9.997857 
8.1500375e+2, 2.9473042e+2, -295758.06, -416871.38, -17463.902, 0.3851596, 0.0025395653, -293290.16, -241643.72, 0.000024457544, 9.999355, 9.997777 
8.1500065e+2, 3.047292e+2, -142255.33, -238542.16, -56254.484, 0.34712854, 0.0687483, -116355.81, -116355.81, 0.00009519151, 9.999747, 9.998475 
8.149954e+2, 3.14729e+2, -82259.92, -154151.2, -2336.5723, 0.086146764, 0.18313192, -82184.06, -82184.06, 0.00022313076, 9.999893, 9.998983 
8.250419e+2, 1.247419e+2, -1898286.0, -1753588.0, 72726.945, -0.06913837, -0.065933675, -1723352.5, -5826.503, 0.0000000017683296, 9.99849, 10.000462 
8.250378e+2, 1.347426e+2, -1648883.0, -1621439.8, 70506.836, -0.23916666, -0.01975615, -1563331.8, 56185.516, 0.0, 9.99972, 10.000104 
8.250342e+2, 1.4474213e+2, -1477698.1, -1519852.0, 36793.563, -0.2929869, -0.0574595, -1456372.3, 65148.426, 0.0, 10.000353, 9.999819 
8.250342e+2, 1.5474242e+2, -1372540.6, -1415309.9, -5696.707, 0.058094043, -0.023823, -1371794.9, 51722.45, 0.0, 10.000393, 9.999842 
8.250316e+2, 1.6474223e+2, -1304759.0, -1354834.0, 24140.95, 0.09569565, -0.016425284, -1295016.3, 30503.96, 0.0, 10.000289, 9.99963 
8.2502645e+2, 1.7474145e+2, -1243062.1, -1273329.3, 26863.682, -0.18804397, -0.07009927, -1227362.6, 168.11832, 0.0, 10.000035, 9.9996395 
8.250237e+2, 1.8474172e+2, -1172373.8, -1173835.9, 59118.55, -0.23198342, -0.01180688, -1113981.8, 15547.866, 0.0, 9.999783, 9.999772 
8.250238e+2, 1.9474304e+2, -1120340.5, -1095656.3, 86655.58, -0.0155394375, 0.1320587, -1020468.3, 11048.784, 0.0, 9.999461, 9.999789 
8.250219e+2, 2.0474234e+2, -974014.2, -984399.3, 75169.49, 0.04462248, 0.0887017, -903858.1, 29663.969, 0.0, 9.999832, 9.999704 
8.250181e+2, 2.1473934e+2, -717026.0, -807065.56, 53660.363, -0.058205526, -0.19417103, -692001.4, 143545.64, 0.0, 10.000915, 9.999727 
8.2501644e+2, 2.2473837e+2, -690431.2, -793010.44, 93182.96, -0.0037234393, -0.23905522, -635354.94, 102200.08, 0.0, 10.00063, 9.999292 
8.2501704e+2, 2.3473954e+2, -864348.6, -825452.1, 93929.29, 0.22535868, -0.061207134, -748978.8, -109432.94, 0.0, 9.998763, 9.999294 
8.2501465e+2, 2.4473932e+2, -897186.06, -941512.3, 27541.275, 0.24889821, 0.053637944, -883997.7, -342444.2, 0.0, 9.998518, 9.997939 
8.2500887e+2, 2.5473744e+2, -565663.25, -730653.9, 38854.906, 0.050649565, 0.06300645, -556970.94, -113390.45, 0.0, 10.000124, 9.997939 
8.250054e+2, 2.6473674e+2, -218239.81, -268270.28, 95727.086, -0.010569479, 0.09557491, -144313.47, 201274.92, 0.0, 10.00078, 10.000131 
8.250047e+2, 2.7473724e+2, -178655.05, -188525.16, 22237.229, 0.08946334, 0.11302152, -160811.84, 86764.77, 0.0, 10.000335, 10.0002165 
8.25004e+2, 2.8473595e+2, -274226.2, -434663.22, -6600.1157, 0.21189032, 0.07426951, -273955.13, -124368.18, 0.000001518397, 10.000084, 9.997976 
8.2500315e+2, 2.9473263e+2, -190981.9, -349878.75, 51233.203, 0.36425465, -0.0646598, -175895.19, -124272.34, 0.000022006743, 10.000009, 9.997919 
8.250002e+2, 3.0473185e+2, -144679.02, -244217.06, 62965.34, 0.32890496, 0.042996857, -114188.52, -114188.52, 0.00009542949, 9.999745, 9.998434 
8.249959e+2, 3.1473204e+2, -170866.23, -168156.33, 81332.36, 0.18198429, 0.19820595, -88167.63, -88167.63, 0.0002328845, 9.99916, 9.999236 
8.3503973e+2, 1.2474564e+2, -1839291.4, -1630530.6, 96127.73, -0.15673518, -0.041219953, -1593010.3, 124477.93, 0.000000000051048894, 9.998488, 10.001305 
8.350383e+2, 1.3474548e+2, -1574254.8, -1477566.0, 122042.55, -0.17415452, -0.17689241, -1394641.4, 224837.58, 0.0, 9.999763, 10.001072 
8.350348e+2, 1.4474468e+2, -1547257.4, -1666464.6, 33632.61, -0.28269872, -0.24892464, -1538423.1, -16938.102, 0.0, 10.000364, 9.998806 
8.350322e+2, 1.5474516e+2, -1446964.6, -1567253.3, 392.44098, -0.19081515, -0.093367904, -1446963.4, -23475.238, 0.0, 10.000381, 9.998803 
8.350292e+2, 1.6474535e+2, -1298221.6, -1334791.4, 11972.217, -0.18318978, -0.0025078068, -1294650.9, 30841.148, 0.0, 10.000259, 9.9997835 
8.35026e+2, 1.7474522e+2, -1228877.8, -1246372.3, 24454.38, -0.24632937, -0.0068966863, -1211653.3, 15843.398, 0.0, 10.000044, 9.999822 
8.3502424e+2, 1.8474527e+2, -1118059.6, -1058069.9, 42558.17, -0.16920248, -0.018362215, -1035998.56, 93496.65, 0.0, 9.999768, 10.000575 
8.350241e+2, 1.9474536e+2, -1063269.6, -974491.94, 78619.44, 0.05851555, -0.08194623, -928595.75, 102892.805, 0.0, 9.999442, 10.000632 
8.3502245e+2, 2.0474522e+2, -1010717.94, -1048420.25, 110085.42, 0.106728196, -0.09308617, -917881.3, 15606.115, 0.0, 9.99978, 9.999289 
8.3501935e+2, 2.1474472e+2, -754575.25, -875144.6, 99500.81, -0.038166486, -0.08219326, -698521.4, 136972.06, 0.0, 10.00087, 9.999281 
8.3501667e+2, 2.2474404e+2, -694270.3, -785596.3, 19644.646, -0.047327228, -0.08206852, -690223.94, 47276.652, 0.0, 10.000563, 9.999378 
8.350145e+2, 2.3474303e+2, -860422.1, -812832.25, 27726.418, 0.08697308, -0.13101256, -800090.2, -160580.0, 0.0, 9.998735, 9.999399 
8.350119e+2, 2.4474238e+2, -869176.2, -877575.0, 79984.42, 0.11563229, -0.08486035, -793281.0, -251761.94, 0.0, 9.998492, 9.998391 
8.350088e+2, 2.54742e+2, -538612.75, -670331.06, 104234.45, 0.030091021, 0.027175019, -481174.5, -37645.94, 0.0, 10.0001, 9.998369 
8.35007e+2, 2.6474085e+2, -351436.44, -537518.44, 77895.73, 0.06687305, 0.07993527, -323133.4, 22409.877, 0.0, 10.00075, 9.998295 
8.3500665e+2, 2.7473867e+2, -316077.53, -467412.1, 10736.971, 0.24149765, 0.02295235, -315319.56, -67754.305, 0.0, 10.000304, 9.998318 
8.350043e+2, 2.847375e+2, -169027.11, -209799.77, -13077.623, 0.23054753, 0.012822108, -165193.06, -15617.309, 0.0000012583888, 10.000061, 9.999529 
8.3499974e+2, 2.947372e+2, -81245.664, -116632.82, 54864.094, 0.013449754, 0.016763506, -41292.633, 10282.203, 0.000022643984, 9.999986, 9.999534 
8.34997e+2, 3.047371e+2, -157487.47, -265663.28, 41843.996, 0.018513734, 0.11672709, -143191.0, -143191.0, 0.000101563375, 9.999726, 9.998298 
8.3499676e+2, 3.147343e+2, -154832.14, -133010.05, 74996.62, 0.33157307, -0.004195985, -68134.92, -68134.92, 0.0002494841, 9.999152, 9.999484 
8.450398e+2, 1.2474893e+2, -1404890.0, -1445559.0, 53424.34, -0.14782076, -0.009920633, -1368061.1, 349395.16, 0.0, 10.00158, 10.001087 
8.450389e+2, 1.3474824e+2, -1535148.5, -1472021.5, -7333.8354, -0.10859771, -0.18480702, -1471180.6, 148271.58, 0.0, 10.000102, 10.000943 
8.45035e+2, 1.4474732e+2, -1667588.0, -1669253.9, -68508.21, -0.237804, -0.28410983, -1599907.6, -78449.02, 0.0, 9.99931, 9.99929 
8.450314e+2, 1.5474813e+2, -1553125.0, -1564154.8, 4171.72, -0.26095206, -0.14632952, -1551724.9, -128267.305, 0.0, 9.999423, 9.999285 
8.4502864e+2, 1.6474874e+2, -1407881.5, -1390513.9, 70450.6, -0.22591715, -0.034886543, -1328213.9, -2756.8005, 0.0, 9.999515, 9.9997635 
8.4502715e+2, 1.7474921e+2, -1313735.5, -1290524.8, 57978.09, -0.10244451, 0.023586307, -1243001.9, -15544.637, 0.0, 9.999477, 9.999792 
8.4502554e+2, 1.8474917e+2, -1115179.8, -1032896.1, 60882.875, -0.009043362, -0.0064355982, -1000557.5, 128899.05, 0.0, 9.999686, 10.000788 
8.4502375e+2, 1.9474845e+2, -951050.9, -897923.75, 42003.004, 0.046765365, -0.17209315, -874789.5, 156666.7, 0.0, 10.000118, 10.0008335 
8.4502196e+2, 2.0474845e+2, -949670.1, -1028555.44, 82057.36, 0.05799415, -0.1736743, -898068.1, 35385.633, 0.0, 10.000237, 9.999208 
8.4502035e+2, 2.1474913e+2, -898944.75, -957450.94, 88648.87, 0.027471341, -0.03481869, -834847.06, 603.57715, 0.0, 9.999931, 9.99917 
8.450177e+2, 2.2474866e+2, -761713.2, -834927.8, -9710.442, 0.02077893, 0.0013746528, -760447.2, -22989.963, 0.0, 10.000183, 9.999212 
8.450139e+2, 2.347469e+2, -540257.9, -675908.8, -35368.63, 0.038203385, -0.10730842, -531590.0, 107884.84, 0.0, 10.001025, 9.999228 
8.450111e+2, 2.4474601e+2, -415476.28, -600855.0, 59373.69, 0.046857163, -0.101944216, -398090.4, 143393.31, 0.0, 10.001354, 9.998915 
8.450095e+2, 2.5474593e+2, -361559.84, -522629.84, 81761.65, 0.04699294, -0.013519001, -327330.5, 116153.88, 0.0, 10.001049, 9.998923 
8.4500796e+2, 2.6474458e+2, -437000.0, -646509.2, 65798.81, 0.10137719, 0.018195044, -418049.25, -72549.35, 0.0, 10.000453, 9.997689 
8.450064e+2, 2.7474165e+2, -469644.0, -610050.8, 85336.14, 0.22619352, -0.051636774, -429345.03, -181812.14, 0.0000000050987805, 9.999551, 9.997699 
8.450035e+2, 2.8474033e+2, -246672.53, -228155.23, 104647.16, 0.17381978, -0.048560757, -132357.95, 17187.912, 0.0000017148438, 9.999446, 9.9997 
8.4499896e+2, 2.9474065e+2, -47720.547, -74611.33, 54876.016, -0.06740179, -0.0066859764, -4666.7734, 46871.36, 0.000025402682, 10.000111, 9.999759 
8.449964e+2, 3.0474055e+2, -90377.66, -227649.69, -29397.09, -0.029335583, 0.077132896, -84347.14, -84347.14, 0.00011168263, 10.000152, 9.9983635 
8.449965e+2, 3.1473747e+2, -80281.85, -41861.84, 8159.681, 0.38123116, -0.081346534, -40200.703, -40200.703, 0.00027089723, 9.999415, 9.999992 
8.550417e+2, 1.2475194e+2, -1503673.6, -1642747.1, -24409.21, -0.13871327, 0.034287322, -1499513.9, 217914.66, 0.0, 10.0015545, 9.999743 
8.5503936e+2, 1.3475093e+2, -1629833.8, -1659183.1, -62419.85, -0.07588761, -0.042017523, -1580386.8, 39048.793, 0.0, 10.0000725, 9.99967 
8.550349e+2, 1.4475013e+2, -1528658.5, -1381014.9, -68328.94, -0.19247548, -0.16233605, -1354245.9, 167194.31, 0.0, 9.999302, 10.001276 
8.5503155e+2, 1.5475132e+2, -1405924.3, -1266170.6, 17798.44, -0.20236051, -0.19155748, -1263939.5, 159485.72, 0.0, 9.999449, 10.00132 
8.550297e+2, 1.6475244e+2, -1426018.5, -1427646.3, 65278.746, -0.080799796, -0.11934815, -1361548.5, -36133.15, 0.0, 9.999511, 9.999511 
8.5502976e+2, 1.7475341e+2, -1331623.5, -1329500.5, 60743.703, 0.1988545, 0.016359817, -1269809.0, -42396.605, 0.0, 9.999481, 9.999524 
8.5502744e+2, 1.8475346e+2, -1146200.5, -1092047.8, 74089.375, 0.20524248, 0.025807375, -1040242.1, 89171.09, 0.0, 9.9996605, 10.000395 
8.5502255e+2, 1.9475234e+2, -979932.6, -958270.75, 63802.395, -0.093673445, -0.1405755, -904386.5, 127033.11, 0.0, 10.000112, 10.000424 
8.5502034e+2, 2.0475207e+2, -939980.25, -999970.3, 66584.01, -0.13888429, -0.15735146, -896947.0, 36473.82, 0.0, 10.000198, 9.999426 
8.5502106e+2, 2.1475264e+2, -885157.75, -920832.25, 81937.98, 0.09562297, -0.0546402, -819138.0, 16279.99, 0.0, 9.999891, 9.999443 
8.5501933e+2, 2.2475235e+2, -804757.94, -908262.56, 17118.922, 0.15735064, 0.0076591433, -802000.06, -64575.902, 0.0, 10.0001135, 9.998744 
8.55015e+2, 2.3475112e+2, -578210.25, -748828.4, 2260.8423, 0.032970324, -0.00021738562, -578180.3, 61260.297, 0.0, 10.000996, 9.998743 
8.5501206e+2, 2.4475016e+2, -379722.66, -516551.22, 44412.664, -0.0011459446, -0.006425854, -366571.03, 174877.17, 0.0, 10.001313, 9.999514 
8.5501087e+2, 2.5474933e+2, -322074.66, -431871.03, 73802.76, 0.064312644, -0.05676494, -284991.03, 158456.72, 0.0, 10.001009, 9.999568 
8.550082e+2, 2.6474798e+2, -397841.2, -554974.9, 27701.16, 0.06900095, -0.08480093, -393100.75, -47642.832, 0.0, 10.000411, 9.998339 
8.5500383e+2, 2.747461e+2, -432373.2, -522378.47, 57033.49, 0.0003542311, -0.11589944, -404725.6, -157245.31, 0.0000001292932, 9.999509, 9.9983225 
8.550013e+2, 2.847445e+2, -331430.38, -398424.53, 126802.97, -0.0038757478, -0.116265416, -233774.7, -84276.836, 0.000003149254, 9.999419, 9.998544 
8.550006e+2, 2.9474297e+2, -133235.08, -253137.9, 86532.945, 0.06722909, -0.13444962, -87914.83, -36402.066, 0.000029420804, 10.000104, 9.998541 
8.549983e+2, 3.047422e+2, -78286.375, -187168.55, -57750.98, 0.13768524, -0.07120515, -53361.176, -53361.176, 0.00012215794, 10.000106, 9.998654 
8.5499483e+2, 3.1474093e+2, -43167.42, 61562.523, -6767.5186, 0.24763188, -0.07428607, 61998.02, 61998.02, 0.00029314935, 9.999323, 10.000741 
8.6504143e+2, 1.2475447e+2, -2027482.6, -1871067.3, -20351.043, -0.12885867, 0.015171491, -1868462.8, -151058.83, 0.00000000000000000000885557, 9.997848, 9.999958 
8.6503905e+2, 1.3475454e+2, -1827840.1, -1722974.1, 52826.277, -0.030963674, 0.010969815, -1700977.0, -81574.4, 0.0, 9.998557, 9.999964 
8.650347e+2, 1.447543e+2, -1565950.0, -1374077.6, 72196.47, -0.11941942, -0.080265805, -1349946.9, 171455.5, 0.0, 9.998944, 10.0014925 
8.650315e+2, 1.5475522e+2, -1449303.5, -1262827.6, 9624.711, -0.1291372, -0.1541177, -1262332.3, 161056.36, 0.0, 9.999053, 10.001533 
8.650295e+2, 1.6475612e+2, -1435080.5, -1372037.9, 24233.553, -0.03140405, -0.1426782, -1363799.1, -38420.848, 0.0, 9.999188, 10.000046 
8.650291e+2, 1.747569e+2, -1312447.9, -1261033.9, 72920.06, 0.19451514, -0.08006559, -1209422.1, 17950.688, 0.0, 9.999354, 10.000054 
8.650268e+2, 1.847571e+2, -1210234.6, -1200678.5, 122755.875, 0.18392031, -0.04901486, -1082607.8, 46764.918, 0.0, 9.99956, 9.999694 
8.6502254e+2, 1.9475652e+2, -1085871.6, -1089844.4, 80139.625, -0.0871484, -0.0850952, -1007693.75, 23685.666, 0.0, 9.999743, 9.999692 
8.6502033e+2, 2.047563e+2, -1003259.3, -986162.9, 57065.656, -0.12014511, -0.08046944, -937008.75, -3626.6433, 0.0, 9.9995775, 9.999816 
8.650206e+2, 2.1475634e+2, -993471.7, -926406.94, 73750.69, 0.109526046, -0.071930975, -878923.3, -43541.81, 0.0, 9.998956, 9.999852 
8.650191e+2, 2.2475606e+2, -974246.4, -1031717.2, 78112.39, 0.17642444, -0.011206747, -919751.56, -182364.56, 0.0, 9.999123, 9.998379 
8.650158e+2, 2.3475538e+2, -734240.44, -867374.7, 64195.586, 0.067606464, 0.07465632, -708329.1, -68929.31, 0.0, 10.00011, 9.998355 
8.650133e+2, 2.4475397e+2, -556057.6, -614595.44, 34889.895, 0.049400214, 0.049306177, -539785.6, 1626.1765, 0.0, 10.000163, 9.99939 
8.650116e+2, 2.547516e+2, -592050.8, -575276.0, -2677.806, 0.12882648, -0.14154457, -574858.94, -131434.63, 0.0, 9.999218, 9.999442 
8.650083e+2, 2.647503e+2, -517802.25, -561263.56, -46597.004, 0.09902574, -0.18434049, -488117.9, -142684.92, 0.0000000005766255, 9.99936, 9.998799 
8.6500335e+2, 2.7475005e+2, -230573.03, -374112.34, -38774.703, -0.0486279, -0.09839028, -220768.42, 26670.047, 0.000000514823, 10.000663, 9.998786 
8.650011e+2, 2.8474867e+2, -163513.05, -386438.66, 41867.484, -0.03193145, -0.069864556, -155909.3, -6454.7593, 0.0000053955687, 10.000866, 9.9979315 
8.650016e+2, 2.947459e+2, -207954.66, -356152.6, 35121.51, 0.17613676, -0.15515473, -200052.55, -148568.19, 0.00003455936, 9.999887, 9.997935 
8.649992e+2, 3.0474427e+2, -120528.516, -212736.73, -81772.164, 0.22688715, -0.14102362, -72758.9, -72758.9, 0.000132535, 9.99982, 9.99862 
8.6499375e+2, 3.1474456e+2, 151597.39, 177667.05, -67808.74, 0.15644898, 0.0086733755, 233682.44, 233682.44, 0.00031326473, 10.000553, 10.000943 
8.750386e+2, 1.2475664e+2, -1903563.3, -1609768.9, -8802.232, -0.21634632, -0.07035689, -1609505.4, 107875.945, 0.0000000055054987, 9.99783, 10.001756 
8.7503785e+2, 1.3475907e+2, -1696177.9, -1444492.0, 83355.805, -0.0216197, -0.031447347, -1419389.3, 199963.89, 0.0, 9.99854, 10.001879 
8.750344e+2, 1.4475985e+2, -1679026.0, -1611582.6, 72353.266, -0.06410906, -0.03810022, -1565478.5, -44134.023, 0.0, 9.998953, 9.99986 
8.750311e+2, 1.5475988e+2, -1565983.5, -1503731.5, 18655.385, -0.083054766, -0.032731842, -1498569.1, -75222.21, 0.0, 9.999048, 9.999881 
8.7502795e+2, 1.6475984e+2, -1341313.1, -1177842.1, 26008.719, -0.11649283, -0.09893445, -1173803.9, 151541.06, 0.0, 9.9991865, 10.001383 
8.7502515e+2, 1.7475967e+2, -1214020.6, -1060358.3, 83554.375, -0.15165716, -0.26879847, -1023680.1, 203658.02, 0.0, 9.999367, 10.001429 
8.7502354e+2, 1.8476014e+2, -1287027.8, -1353817.1, 125415.586, -0.1078748, -0.22921681, -1190636.9, -61302.68, 0.0, 9.999533, 9.998657 
8.750234e+2, 1.9476104e+2, -1164178.3, -1246738.4, 91754.586, 0.021896979, -0.012401579, -1104845.5, -73509.95, 0.0, 9.999713, 9.9986315 
8.75022e+2, 2.0476112e+2, -975353.56, -913033.44, 29464.402, 0.07360467, 0.049685586, -901308.75, 32028.912, 0.0, 9.999514, 10.000349 
8.7501884e+2, 2.1476021e+2, -959751.3, -848087.1, 53926.38, 0.03396523, -0.09098009, -826296.56, 9044.916, 0.0, 9.998918, 10.000409 
8.75017e+2, 2.2475979e+2, -999691.75, -1074209.9, 108503.58, 0.042239897, -0.059843324, -922228.25, -184882.36, 0.0, 9.999076, 9.99811 
8.750164e+2, 2.3475976e+2, -759932.44, -909209.9, 104978.74, 0.10530418, 0.11839849, -705763.25, -66411.086, 0.0, 10.000057, 9.998095 
8.7501466e+2, 2.4475753e+2, -623204.4, -743657.5, -3749.0479, 0.15787071, 0.06624528, -623087.8, -81713.71, 0.0, 10.000116, 9.998526 
8.7501156e+2, 2.547528e+2, -660861.06, -708056.06, -33380.367, 0.19446154, -0.27198696, -643579.56, -200165.45, 0.0, 9.999176, 9.998549 
8.750083e+2, 2.647514e+2, -501711.1, -525989.56, -1818.5894, 0.15221958, -0.28995904, -501575.63, -156149.84, 0.0000000691861, 9.999347, 9.999051 
8.7500495e+2, 2.7475357e+2, -214562.55, -333460.8, 16379.966, 0.02815707, 0.0054744226, -212347.23, 35060.156, 0.000001269736, 10.000629, 9.999083 
8.750028e+2, 2.8475302e+2, -167955.6, -393650.97, 1943.607, 0.044572975, 0.10261954, -167938.86, -18523.957, 0.000008177336, 10.000854, 9.99789 
8.75002e+2, 2.947492e+2, -215188.84, -367126.13, 2699.0417, 0.21527514, -0.07452478, -215140.92, -163686.94, 0.000040999803, 9.999862, 9.997877 
8.749987e+2, 3.0474666e+2, -146981.67, -254693.25, -53122.09, 0.19644304, -0.14152798, -125190.9, -125190.9, 0.00014405875, 9.999774, 9.998349 
8.7499315e+2, 3.1474787e+2, 126478.055, 129964.74, -21179.361, 0.0077477666, 0.13241388, 149472.39, 149472.39, 0.00033067827, 10.00054, 10.000621 
8.850367e+2, 1.247596e+2, -1858089.9, -1604665.4, 32023.705, -0.20905931, -0.10250321, -1600681.4, 116668.38, 0.00000006865043, 9.998209, 10.001618 
8.850363e+2, 1.3476159e+2, -1694594.1, -1456462.0, -36996.387, -0.026827572, -0.0949096, -1450846.6, 168480.58, 0.0, 9.998598, 10.001777 
8.8503337e+2, 1.4476267e+2, -1687136.9, -1609101.9, -61591.492, -0.04798352, -0.0667873, -1575209.3, -53892.832, 0.0, 9.99887, 9.999918 
8.8503057e+2, 1.547635e+2, -1528525.6, -1480299.6, 4885.58, -0.05205392, 0.010236561, -1479809.6, -56498.12, 0.0, 9.999277, 9.999931 
8.8502735e+2, 1.647634e+2, -1299092.5, -1207833.9, 23136.115, -0.11736797, -0.039454285, -1202303.5, 123006.96, 0.0, 9.999704, 10.000926 
8.85024e+2, 1.747624e+2, -1139723.5, -1076810.6, -69809.71, -0.23496774, -0.2450182, -1031697.44, 195615.58, 0.0, 10.000111, 10.0009575 
8.8502246e+2, 1.8476255e+2, -1182714.3, -1252881.3, -54059.96, -0.19037312, -0.23240098, -1153351.4, -24039.963, 0.0, 10.000029, 9.99911 
8.85023e+2, 1.9476381e+2, -1179317.1, -1200123.6, 16983.66, 0.02674958, -0.028139409, -1169803.8, -138496.78, 0.0, 9.999381, 9.99911 
8.850218e+2, 2.0476395e+2, -985990.9, -967883.25, 7629.621, 0.1014404, 0.035960708, -965097.2, -31788.922, 0.0, 9.999652, 9.999906 
8.850186e+2, 2.1476279e+2, -708742.6, -778987.1, -52003.15, 0.022166356, -0.083595514, -681112.2, 154204.25, 0.0, 10.000863, 9.999947 
8.850168e+2, 2.2476211e+2, -704857.75, -875298.44, -18320.797, 0.024988582, -0.077955395, -702910.7, 34411.68, 0.0, 10.00086, 9.998611 
8.850163e+2, 2.3476186e+2, -799975.1, -870149.2, 26076.746, 0.11869941, 0.026536353, -791346.06, -152019.14, 0.0, 9.999535, 9.998614 
8.8501436e+2, 2.4475993e+2, -755773.94, -832530.1, -12505.584, 0.15954092, -0.012732654, -753787.8, -212441.84, 0.0, 9.99931, 9.998307 
8.850107e+2, 2.5475597e+2, -506327.88, -661914.0, -2615.6714, 0.1407007, -0.25053167, -506283.9, -62901.2, 0.00000000006372724, 10.000345, 9.998308 
8.8500804e+2, 2.6475456e+2, -335203.6, -490615.66, 53259.54, 0.121715404, -0.23385336, -318703.44, 26693.121, 0.00000025387644, 10.000697, 9.998638 
8.8500625e+2, 2.7475598e+2, -281718.03, -408806.5, 7499.928, 0.10694379, 0.029270075, -281276.97, -33891.19, 0.0000021793016, 10.000371, 9.998682 
8.85004e+2, 2.8475532e+2, -255246.13, -403566.75, -52797.375, 0.113194324, 0.11780274, -238371.75, -88977.49, 0.00001103343, 10.000125, 9.998168 
8.850012e+2, 2.94752e+2, -183106.94, -314656.94, -34420.81, 0.14417607, -0.036854457, -174644.88, -123218.3, 0.00004783983, 9.999931, 9.9981985 
8.849976e+2, 3.047491e+2, -120831.69, -244213.28, -17686.555, 0.103186205, -0.15241584, -118346.41, -118346.41, 0.00015538944, 9.99995, 9.998349 
8.8499385e+2, 3.1475067e+2, 39606.688, 55694.527, 23035.512, 0.051142495, 0.15916069, 72050.19, 72050.19, 0.00034428985, 10.000079, 10.000342 
8.9503515e+2, 1.2476327e+2, -2005406.1, -1901528.0, 27175.74, -0.2121055, -0.083933204, -1894848.1, -177538.8, 0.00000033567557, 9.998188, 9.999585 
8.950345e+2, 1.347623e+2, -1845058.1, -1760328.5, -21810.088, -0.08079281, -0.16344775, -1755044.0, -135721.25, 0.00000000007521531, 9.998578, 9.999697 
8.9503175e+2, 1.4476308e+2, -1561394.1, -1354290.0, -52331.035, -0.111819945, -0.14699405, -1341818.1, 179497.17, 0.0, 9.998886, 10.001663 
8.9502966e+2, 1.5476617e+2, -1401848.0, -1219743.8, 26475.19, -0.08651904, -0.022689914, -1215972.8, 207308.55, 0.0, 9.999283, 10.001721 
8.950275e+2, 1.6476695e+2, -1459330.0, -1541707.3, 34555.15, -0.08712232, 0.037102893, -1446754.8, -121480.72, 0.0, 9.999706, 9.998633 
8.950256e+2, 1.7476512e+2, -1305787.6, -1421183.6, -48550.996, -0.09655467, -0.01565965, -1288078.4, -60781.37, 0.0, 10.000105, 9.998598 
8.9502347e+2, 1.8476444e+2, -1053566.8, -976206.8, -81243.14, -0.1053233, -0.061359078, -924905.75, 204397.83, 0.0, 9.99999, 10.001029 
8.950211e+2, 1.947649e+2, -1043567.0, -911942.94, -2618.7336, -0.117399566, -0.13775168, -911890.8, 119402.69, 0.0, 9.999351, 10.001104 
8.950197e+2, 2.0476483e+2, -1091986.6, -1177094.6, 45976.133, -0.07588561, -0.12523802, -1071893.6, -138599.86, 0.0, 9.999603, 9.998494 
8.950196e+2, 2.1476412e+2, -822632.0, -998521.2, -1749.3179, 0.024753943, -0.05346136, -822614.6, 12691.353, 0.0, 10.0007925, 9.998472 
8.950182e+2, 2.2476315e+2, -628217.3, -703030.5, -71133.766, 0.07661408, -0.06119002, -585254.4, 152061.16, 0.0, 10.000797, 9.999827 
8.9501536e+2, 2.3476179e+2, -715717.7, -687419.4, -19779.322, 0.065759875, -0.19689666, -677249.4, -37926.15, 0.0, 9.999496, 9.999887 
8.950123e+2, 2.4476115e+2, -729999.7, -774655.5, 19310.377, 0.015940804, -0.19016503, -722807.6, -181480.27, 0.0, 9.99929, 9.9987135 
8.9500904e+2, 2.5476116e+2, -487222.56, -610040.94, 40503.805, -0.0758282, -0.07183553, -475067.84, -31738.592, 0.0000000002378373, 10.000294, 9.99869 
8.950072e+2, 2.6475996e+2, -414654.22, -651436.44, 37234.824, -0.038452305, -0.0029295539, -408936.94, -63593.055, 0.00000030747992, 10.000676, 9.997545 
8.95007e+2, 2.7475736e+2, -368195.16, -580408.5, 524.8143, 0.14072001, -0.025834095, -368193.84, -120820.234, 0.0000026197797, 10.000334, 9.997524 
8.950044e+2, 2.847555e+2, -215288.2, -317888.6, -63552.76, 0.1276616, -0.024219548, -184914.27, -35521.37, 0.000013141425, 10.000111, 9.998763 
8.949989e+2, 2.947542e+2, -137370.4, -222636.34, -36330.566, -0.09095951, -0.043336775, -123990.16, -72587.39, 0.00005419451, 9.999935, 9.998831 
8.949956e+2, 3.0475163e+2, -104682.17, -201049.8, -16401.21, -0.10095365, -0.17545572, -101967.266, -101967.266, 0.0001662128, 9.999921, 9.998651 
8.949955e+2, 3.147525e+2, 17725.22, 25971.596, 40706.957, 0.18638985, 0.037193723, 62763.65, 62763.65, 0.0003568497, 10.000021, 10.000158 
9.050341e+2, 1.2476505e+2, -1901099.0, -1796228.0, -77970.03, -0.14689331, -0.077843875, -1754701.8, -37405.26, 0.0000010657902, 9.998658, 10.000089 
9.0503305e+2, 1.3476495e+2, -1746691.4, -1657136.8, 49124.313, -0.091832936, -0.11772286, -1635444.5, -16146.893, 0.000000007369457, 9.99901, 10.000198 
9.050304e+2, 1.4476562e+2, -1534825.4, -1396148.4, 45834.723, -0.14725788, -0.11561122, -1382368.6, 138921.36, 0.0, 9.999313, 10.001164 
9.0502864e+2, 1.5476713e+2, -1388820.3, -1271826.0, -61939.414, -0.1289412, -0.09705788, -1245126.9, 178145.63, 0.0, 9.999629, 10.001195 
9.050272e+2, 1.6476768e+2, -1471821.1, -1525699.8, -55641.54, -0.07565117, -0.041487332, -1436940.5, -111672.766, 0.0, 9.999527, 9.998831 
9.050264e+2, 1.747671e+2, -1453794.4, -1464972.5, 43277.055, 0.02968849, 0.009204339, -1415747.0, -188469.23, 0.0, 9.998979, 9.998834 
9.050242e+2, 1.8476665e+2, -1218444.4, -1082076.3, 41738.13, 0.018504081, -0.015042063, -1070315.8, 58966.168, 0.0, 9.998967, 10.000796 
9.050205e+2, 1.9476621e+2, -1032678.4, -936010.7, -53552.445, -0.121298596, -0.1559942, -912205.56, 119075.17, 0.0, 9.999539, 10.0008545 
9.050188e+2, 2.0476586e+2, -1092895.8, -1181008.3, -17090.018, -0.12726629, -0.15783976, -1089697.1, -156412.98, 0.0, 9.999614, 9.99846 
9.050194e+2, 2.1476549e+2, -1065807.9, -1121578.8, 29748.271, 0.012543823, -0.047454655, -1052918.9, -217625.22, 0.0, 9.999144, 9.998424 
9.050183e+2, 2.2476453e+2, -871667.8, -823656.5, -47515.92, 0.08736531, -0.05071916, -794426.5, -57123.0, 0.0, 9.9991455, 9.999794 
9.050152e+2, 2.347628e+2, -686387.75, -677697.7, -106133.87, 0.085586205, -0.21766052, -575819.94, 63494.99, 0.0, 9.999719, 9.999846 
9.050122e+2, 2.4476245e+2, -607584.44, -702136.56, -85880.03, 0.034538526, -0.18739402, -556827.8, -15510.812, 0.0, 10.000074, 9.998832 
9.0500927e+2, 2.5476348e+2, -492921.5, -597175.0, -93828.87, -0.07156833, 0.021739092, -437712.06, 5597.8857, 0.0, 10.000192, 9.998824 
9.0500754e+2, 2.6476228e+2, -459521.88, -640981.4, -73112.23, -0.045444936, 0.066538885, -433730.03, -88406.15, 0.0000002007212, 10.000231, 9.997832 
9.050072e+2, 2.7475846e+2, -364277.56, -546422.0, -13113.811, 0.13304853, -0.106094845, -363338.25, -115976.43, 0.0000025589381, 10.000216, 9.997817 
9.0500444e+2, 2.847565e+2, -185548.23, -298522.9, -24156.168, 0.120092906, -0.13006212, -180599.92, -31219.13, 0.000014744336, 10.000294, 9.99881 
9.04999e+2, 2.9475647e+2, -56320.61, -172007.77, -53905.082, -0.09522744, -0.030123333, -35096.895, 16283.068, 0.00006127167, 10.000458, 9.998921 
9.0499574e+2, 3.04754e+2, -386.2048, -142035.58, -53996.59, -0.114236854, -0.15726642, 17849.584, 17849.584, 0.00017929857, 10.000591, 9.998737 
9.049957e+2, 3.1475392e+2, 57668.34, 3878.6946, -26620.406, 0.18587145, -0.04986071, 68615.0, 68615.0, 0.00037394426, 10.000465, 9.999797 
9.150333e+2, 1.2476526e+2, -1681781.1, -1347887.6, -73627.82, -0.12536605, -0.06459739, -1332372.6, 384935.16, 0.000002613721, 9.998687, 10.003151 
9.15032e+2, 1.3476963e+2, -1532232.5, -1213316.9, 66091.75, -0.109169945, 0.03602731, -1200162.6, 419088.25, 0.00000007607973, 9.999008, 10.003246 
9.1502935e+2, 1.4477025e+2, -1728700.9, -1798828.8, 53211.07, -0.20614165, 0.013793797, -1700039.6, -178798.88, 0.0, 9.999313, 9.998403 
9.1502744e+2, 1.5476644e+2, -1588089.6, -1688070.6, -43357.457, -0.22329539, -0.21477094, -1571906.8, -148622.31, 0.0, 9.9996395, 9.998333 
9.150263e+2, 1.6476576e+2, -1285814.8, -1139572.9, -81014.66, -0.12573843, -0.2670037, -1103560.6, 221729.27, 0.0, 9.999526, 10.001481 
9.150262e+2, 1.7476846e+2, -1261402.3, -1064073.4, 27132.395, 0.09981541, -0.16599658, -1060410.6, 166843.83, 0.0, 9.998969, 10.001591 
9.150244e+2, 1.8476924e+2, -1384508.5, -1420870.0, 58086.402, 0.13671519, -0.09281269, -1341824.1, -212578.2, 0.0, 9.998941, 9.998485 
9.15021e+2, 1.9476785e+2, -1208889.6, -1293219.9, -25951.92, -0.033740204, -0.085039504, -1201543.1, -170275.4, 0.0, 9.999504, 9.99842 
9.150188e+2, 2.0476717e+2, -1011102.06, -1000810.8, -37642.754, -0.1018984, -0.058419086, -967963.6, -34685.34, 0.0, 9.999566, 9.999721 
9.1501796e+2, 2.1476705e+2, -980950.75, -929304.56, 17074.822, -0.059253503, -0.057020627, -924169.9, -88891.74, 0.0, 9.999076, 9.999774 
9.150168e+2, 2.2476634e+2, -970922.9, -1019489.06, -32980.793, 0.016312405, -0.04000806, -954249.9, -216964.33, 0.0, 9.999096, 9.998475 
9.1501546e+2, 2.3476493e+2, -790252.8, -882413.6, -79678.41, 0.13083339, -0.039510846, -744289.5, -104987.74, 0.0, 9.999671, 9.998465 
9.150137e+2, 2.4476388e+2, -622191.75, -726170.2, -84664.36, 0.16272068, -0.0007772842, -574828.4, -33514.332, 0.0, 10.000044, 9.998684 
9.1501135e+2, 2.5476304e+2, -506669.0, -618770.7, -83697.41, 0.10686206, 0.033610422, -461987.75, -18663.736, 0.0, 10.000158, 9.998695 
9.1500896e+2, 2.6476154e+2, -345584.13, -399854.75, -76940.27, 0.060803737, -0.022612581, -291134.3, 54201.45, 0.00000011562638, 10.000211, 9.999497 
9.150065e+2, 2.7475923e+2, -247746.9, -299985.3, -7731.6445, 0.030281954, -0.21551254, -246626.6, 723.9961, 0.0000025826089, 10.000195, 9.999521 
9.15004e+2, 2.847583e+2, -224026.52, -374195.94, -23194.074, 0.038684893, -0.20123857, -220525.75, -71167.83, 0.000017158924, 10.000275, 9.998301 
9.1500145e+2, 2.947587e+2, -100362.15, -260152.11, -41400.723, 0.08580768, -0.0013300411, -90272.53, -38914.113, 0.000070174305, 10.000435, 9.998331 
9.149978e+2, 3.047562e+2, -16337.763, -159208.1, -60263.918, 0.02650991, -0.09662986, 5686.8096, 5686.8096, 0.00019601652, 10.000534, 9.998641 
9.1499406e+2, 3.147548e+2, 14550.374, -70782.805, -17932.076, -0.043566447, -0.10837857, 18165.5, 18165.5, 0.00039683623, 10.000414, 9.999302 
9.250312e+2, 1.2476824e+2, -1880754.3, -1498602.8, 160803.05, -0.14062537, -0.02437051, -1439943.5, 277334.7, 0.0000053718704, 9.99755, 10.002664 
9.250312e+2, 1.347722e+2, -1573553.5, -1290460.9, 16216.299, -0.09143942, 0.08467769, -1289535.0, 329694.16, 0.00000033393198, 9.998966, 10.002739 
9.250292e+2, 1.4477277e+2, -1689178.8, -1775524.3, -47988.633, -0.15554298, 0.08371753, -1667800.8, -146580.63, 0.0, 9.999573, 9.998437 
9.2502743e+2, 1.5476906e+2, -1619430.8, -1696304.3, 59480.08, -0.17838179, -0.13806544, -1587049.0, -163788.34, 0.0, 9.999403, 9.998387 
9.2502594e+2, 1.6476801e+2, -1277190.0, -1125081.8, 45111.617, -0.114357784, -0.23591834, -1112709.1, 212558.42, 0.0, 9.999542, 10.001569 
9.250251e+2, 1.7476983e+2, -1103489.1, -980421.75, -57010.746, 0.046600956, -0.22899921, -958070.9, 269167.28, 0.0, 10.00002, 10.00166 
9.2502356e+2, 1.8477046e+2, -1215049.6, -1381895.1, -36813.664, 0.0905878, -0.15759197, -1207287.9, -78056.38, 0.0, 10.000293, 9.9981 
9.250212e+2, 1.9476964e+2, -1120322.9, -1291773.9, 18789.832, 0.0023871232, -0.054230224, -1118287.9, -87037.03, 0.0, 10.0003, 9.99804 
9.250192e+2, 2.0476912e+2, -900304.75, -937789.5, 32471.277, -0.048354376, 0.005289374, -881555.0, 51706.15, 0.0, 10.000284, 9.999808 
9.250176e+2, 2.1476875e+2, -799594.5, -831983.2, -14727.928, -0.056214113, -0.029177187, -793898.94, 41364.43, 0.0, 10.000273, 9.999868 
9.2501634e+2, 2.2476812e+2, -797208.7, -930970.3, -32216.713, 0.0019810065, -0.012522302, -789853.6, -52583.434, 0.0, 10.000273, 9.998512 
9.250154e+2, 2.3476714e+2, -697584.44, -834987.3, 16001.591, 0.13021883, 0.029549278, -695745.56, -56463.223, 0.0, 10.000293, 9.998491 
9.2501396e+2, 2.4476601e+2, -605590.4, -722515.7, 66044.9, 0.18954293, 0.062017184, -575849.8, -34554.266, 0.0, 10.000178, 9.998646 
9.250121e+2, 2.5476456e+2, -534115.06, -633710.44, 62659.234, 0.17395867, 0.03925182, -503875.34, -60563.867, 0.0, 9.999981, 9.998676 
9.250096e+2, 2.64763e+2, -386784.75, -392277.63, 28579.793, 0.12306939, -0.03481423, -360819.72, -15496.221, 0.00000007319143, 9.999805, 9.999746 
9.250065e+2, 2.747612e+2, -309455.2, -297987.28, -19214.252, 0.04406493, -0.20311831, -283669.66, -36337.34, 0.0000027897247, 9.999637, 9.9998 
9.2500395e+2, 2.847606e+2, -305786.8, -433593.16, -50901.59, 0.028816588, -0.16195463, -287991.84, -138655.08, 0.000020132902, 9.999797, 9.998122 
9.2500174e+2, 2.947612e+2, -131290.7, -298562.63, -49088.08, 0.08358554, 0.077003844, -117949.28, -66612.18, 0.00008107723, 10.000318, 9.998127 
9.2499816e+2, 3.0475882e+2, -8643.02, -177162.17, -58028.547, 0.0074914508, 0.010864713, 9405.705, 9405.705, 0.00021777536, 10.000667, 9.998458 
9.249944e+2, 3.147562e+2, 16171.1875, -128493.22, -46735.16, -0.06576214, -0.103898644, 29955.898, 29955.898, 0.000428338, 10.000662, 9.998792 
9.350275e+2, 1.2477377e+2, -2163490.8, -2076030.3, 203626.5, -0.29359317, 0.012808986, -1911491.3, -194281.19, 0.000009857008, 9.997521, 9.998713 
9.350304e+2, 1.3477279e+2, -1852366.1, -1875614.9, 73408.766, -0.07999986, 0.03205997, -1789667.0, -170436.58, 0.0000009955157, 9.999, 9.998706 
9.350301e+2, 1.4477342e+2, -1491855.6, -1373717.6, -58449.094, -0.04232697, 0.10750457, -1349687.6, 171537.94, 0.00000000002439963, 9.999599, 10.001184 
9.3502825e+2, 1.5477504e+2, -1419871.9, -1278175.1, 59093.734, -0.044001922, 0.12969606, -1256765.4, 166435.36, 0.0, 9.999382, 10.001269 
9.350259e+2, 1.6477442e+2, -1451350.1, -1480587.6, 56953.47, -0.08985354, 0.046145108, -1407169.3, -81968.53, 0.0, 9.999519, 9.99914 
9.3502307e+2, 1.7477135e+2, -1282233.0, -1351782.1, -33651.13, -0.17173776, -0.18149908, -1268616.8, -41388.816, 0.0, 10.000024, 9.999109 
9.350214e+2, 1.847704e+2, -1114809.8, -1167846.5, -39993.438, -0.16164912, -0.20823027, -1093341.6, 35895.81, 0.0, 10.000267, 9.999584 
9.35021e+2, 1.947716e+2, -1016898.6, -1066259.5, 23691.475, -0.05946661, -0.05876216, -1007367.8, 23861.6, 0.0, 10.000254, 9.999612 
9.3501997e+2, 2.0477174e+2, -977971.75, -1091301.5, 25102.693, -0.011273936, 0.036239687, -972660.4, -39427.79, 0.0, 10.000248, 9.998774 
9.350183e+2, 2.1477062e+2, -884888.1, -997986.06, -10775.708, -0.020416738, 0.036974706, -883870.6, -48621.664, 0.0, 10.000222, 9.998756 
9.350167e+2, 2.2476989e+2, -710176.3, -736390.25, -35933.367, -0.0017549165, 0.0360118, -685034.1, 52222.5, 0.0, 10.000214, 9.999875 
9.35015e+2, 2.3476945e+2, -606865.1, -634274.06, 21401.076, 0.051392667, -0.008806666, -595156.6, 44099.594, 0.0, 10.000239, 9.999896 
9.350132e+2, 2.4476887e+2, -604428.56, -712771.0, 53255.18, 0.07707362, 0.0016726634, -582635.06, -41373.95, 0.0, 10.000146, 9.998728 
9.350112e+2, 2.54768e+2, -536942.1, -633938.56, 59112.77, 0.08302544, 0.03485649, -508978.63, -65705.83, 0.0, 9.999952, 9.9986925 
9.350093e+2, 2.647666e+2, -467776.06, -553936.2, 18496.004, 0.09947031, 0.029108059, -463973.34, -118686.11, 0.00000003612581, 9.999778, 9.998651 
9.350072e+2, 2.7476445e+2, -393856.78, -465768.7, -19822.09, 0.13477893, -0.06534225, -388754.88, -141448.48, 0.0000027028154, 9.999604, 9.998664 
9.350041e+2, 2.847635e+2, -298300.78, -411287.13, -34381.78, 0.053225424, -0.005066628, -288660.84, -139344.52, 0.000022320448, 9.999767, 9.99829 
9.3499976e+2, 2.9476395e+2, -117191.64, -271651.47, -21175.988, -0.15911311, 0.19926219, -114341.086, -63025.105, 0.000092742026, 10.000324, 9.998311 
9.3499666e+2, 3.0476174e+2, -33808.44, -222180.88, -60255.48, -0.22515084, 0.15687358, -16183.359, -16183.359, 0.0002446386, 10.000641, 9.998159 
9.3499607e+2, 3.147582e+2, -31305.865, -205060.56, -38035.09, 0.018945904, -0.022884006, -23344.71, -23344.71, 0.00047061927, 10.00058, 9.998299 
9.450268e+2, 1.2477606e+2, -1789440.9, -1998502.8, 10049.099, -0.2543806, 0.005552251, -1788958.9, -71777.02, 0.000016753027, 10.000523, 9.997807 
9.450293e+2, 1.3477369e+2, -1943672.0, -2028196.6, 84401.945, -0.07944033, -0.015408731, -1891542.6, -272321.72, 0.000002343361, 9.998849, 9.997733 
9.450293e+2, 1.4477405e+2, -1626645.8, -1371371.6, 17668.566, -0.020494334, 0.05513645, -1370154.5, 151065.13, 0.0000000053592455, 9.998388, 10.00178 
9.4502836e+2, 1.5477645e+2, -1377631.4, -1189806.8, -43851.57, 0.03256867, 0.091602124, -1180073.1, 243110.92, 0.0, 9.999373, 10.001881 
9.4502616e+2, 1.6477618e+2, -1436542.9, -1542685.6, -57446.586, -0.028029053, 0.040354323, -1411405.0, -86223.89, 0.0, 9.999913, 9.998527 
9.450227e+2, 1.747729e+2, -1337745.5, -1448511.0, -14648.254, -0.19995594, -0.1421794, -1335841.1, -108626.836, 0.0, 9.999944, 9.998483 
9.4502085e+2, 1.8477163e+2, -1176140.8, -1162271.0, -2029.7113, -0.21061543, -0.18553518, -1161980.1, -32752.473, 0.0, 9.9997015, 9.999887 
9.4502074e+2, 1.9477235e+2, -1150536.4, -1096426.3, -39608.242, -0.05350358, -0.116768196, -1075514.8, -44293.754, 0.0, 9.999187, 9.999917 
9.4501996e+2, 2.047725e+2, -1093300.9, -1147936.1, -7827.183, 0.0053185094, -0.0349491, -1092201.6, -158978.42, 0.0, 9.999467, 9.998758 
9.4501853e+2, 2.14772e+2, -831718.3, -971562.5, 25777.77, -0.037616644, 0.029850014, -827118.0, 8117.2847, 0.0, 10.000592, 9.998754 
9.4501704e+2, 2.2477157e+2, -595098.06, -667025.0, -21679.424, -0.021404764, 0.052011903, -589069.0, 148171.84, 0.0, 10.000943, 10.000003 
9.4501543e+2, 2.3477107e+2, -563878.6, -595042.5, -69545.9, 0.0659105, -0.014613691, -508190.47, 131050.37, 0.0, 10.000459, 10.000055 
9.4501334e+2, 2.4477059e+2, -600683.44, -690561.94, -73167.77, 0.09047571, -0.009919521, -559756.1, -18511.875, 0.0, 10.000081, 9.998912 
9.450107e+2, 2.5477007e+2, -543321.56, -612778.9, -63445.87, 0.050146528, 0.038109038, -505721.4, -62469.234, 0.0, 9.999807, 9.998904 
9.450089e+2, 2.6476902e+2, -460897.16, -558545.56, -38636.883, 0.07744901, 0.057695147, -447458.94, -102194.91, 0.000000027783642, 9.999858, 9.998579 
9.450076e+2, 2.7476716e+2, -301780.6, -429583.78, -6542.936, 0.1894068, 0.00300764, -301446.5, -54164.688, 0.000002328807, 10.000272, 9.998591 
9.45005e+2, 2.8476596e+2, -154928.05, -317692.97, 41024.535, 0.12322087, 0.03159183, -145172.61, 4121.508, 0.000023776485, 10.000647, 9.998511 
9.450005e+2, 2.947656e+2, -23036.668, -198833.4, 47533.484, -0.14117365, 0.12949048, -11007.287, 40292.63, 0.00010394975, 10.000863, 9.998547 
9.4499725e+2, 3.0476406e+2, 5214.752, -160826.13, 19399.723, -0.22425726, 0.12585099, 7451.234, 7451.234, 0.00027361658, 10.000725, 9.998546 
9.449968e+2, 3.1476146e+2, -75443.86, -191847.34, 76380.86, 0.059798907, 0.002782711, -37617.066, -37617.066, 0.00052026927, 10.000106, 9.998637 
9.550287e+2, 1.2477543e+2, -1646924.1, -1701517.8, -56166.11, -0.14292656, -0.024964407, -1611773.0, 105417.25, 0.00002677623, 10.000527, 9.999832 
9.5502764e+2, 1.3477498e+2, -1807915.5, -1739189.9, 23485.906, -0.13433519, -0.05862057, -1731930.8, -112731.5, 0.0000047533053, 9.998819, 9.999724 
9.550267e+2, 1.4477462e+2, -1740324.5, -1599774.6, 48700.023, -0.13465355, -0.088015184, -1584549.5, -63346.637, 0.000000046136613, 9.998354, 10.00023 
9.550275e+2, 1.5477335e+2, -1488366.9, -1426052.9, -241.80919, -0.0037806798, -0.2503305, -1426052.0, -2842.0417, 0.0, 9.9994, 10.000248 
9.550266e+2, 1.6477337e+2, -1348154.9, -1362734.0, -60456.04, 0.016243313, -0.24867645, -1294550.5, 30657.09, 0.0, 9.999928, 9.999754 
9.55024e+2, 1.7477463e+2, -1251079.5, -1265075.0, -9240.46, -0.081653394, -0.108555526, -1246486.0, -19289.984, 0.0, 9.999928, 9.999748 
9.550218e+2, 1.8477425e+2, -1238199.6, -1287773.3, -25334.086, -0.10011882, -0.0854303, -1227543.5, -98342.5, 0.0, 9.999683, 9.999036 
9.5502025e+2, 1.9477196e+2, -1216438.1, -1228826.0, -53499.766, -0.029745273, -0.22695075, -1168775.0, -137550.05, 0.0, 9.999167, 9.999019 
9.5501906e+2, 2.0477152e+2, -1029267.9, -1007702.75, 27950.156, -0.04343627, -0.2083277, -988527.44, -55295.28, 0.0, 9.999433, 9.999739 
9.5501804e+2, 2.1477295e+2, -771555.7, -830883.6, 72289.91, -0.15107964, -0.04998945, -723080.2, 112142.04, 0.0, 10.000522, 9.999756 
9.5501727e+2, 2.247732e+2, -676593.4, -822082.2, -44514.97, -0.10081869, 0.038144216, -664054.0, 73168.78, 0.0, 10.000882, 9.998967 
9.550167e+2, 2.3477194e+2, -650050.56, -762646.7, -82984.31, 0.12829487, 0.008824902, -606069.7, 33166.51, 0.0, 10.000403, 9.998936 
9.5501447e+2, 2.4477117e+2, -584160.0, -644829.6, -87327.78, 0.17798999, 0.02397956, -522048.4, 19196.373, 0.0, 10.000036, 9.999245 
9.5501053e+2, 2.547708e+2, -521437.63, -562923.2, -69133.84, 0.035817962, 0.04743585, -470001.78, -26752.623, 0.0, 9.999786, 9.999256 
9.5500827e+2, 2.6477018e+2, -398421.5, -421118.44, -26249.588, 0.02380393, 0.050611515, -381172.28, -35918.6, 0.000000030362223, 9.999828, 9.9995365 
9.550077e+2, 2.7476925e+2, -239162.11, -294249.16, 15744.255, 0.15617403, -0.007120443, -234979.83, 12279.711, 0.000002140531, 10.000246, 9.9995365 
9.550063e+2, 2.847679e+2, -141130.73, -277944.03, 45785.277, 0.18420373, -0.05866454, -127222.37, 22048.703, 0.000025776937, 10.000603, 9.998802 
9.550039e+2, 2.9476613e+2, -7762.6436, -161931.22, 61483.367, 0.10026172, -0.12972796, 13754.244, 65042.633, 0.00011520068, 10.000839, 9.998811 
9.5500004e+2, 3.0476585e+2, 74626.914, -3018.1365, -1889.0344, -0.02179429, -0.07704812, 74672.85, 74672.85, 0.0003025404, 10.000671, 9.999655 
9.549962e+2, 3.1476617e+2, 6767.8, -9336.921, 64351.09, -0.03165443, -0.023688683, 63568.375, 63568.375, 0.00057311467, 10.000063, 9.9999075 
9.650294e+2, 1.2477569e+2, -1947460.1, -1774158.1, 42154.836, 0.003182618, -0.08665766, -1764448.1, -47263.01, 0.000040530904, 9.998143, 10.000486 
9.6502733e+2, 1.3477531e+2, -1690976.8, -1609076.6, -5790.4365, -0.06874241, -0.17875257, -1608669.3, 10520.064, 0.000008656152, 9.999297, 10.00039 
9.650258e+2, 1.4477506e+2, -1583479.8, -1597718.9, 41173.504, -0.1234896, -0.1959601, -1548814.8, -27622.717, 0.00000019058375, 9.999748, 9.999572 
9.650264e+2, 1.5477389e+2, -1525157.0, -1519307.4, 51107.402, -0.05944116, -0.28341722, -1471041.1, -47837.17, 0.0, 9.999483, 9.999564 
9.650259e+2, 1.6477421e+2, -1375380.9, -1327159.8, 406.0849, -0.03296045, -0.23713298, -1327156.4, -1954.8834, 0.0, 9.9995365, 10.000184 
9.6502423e+2, 1.7477605e+2, -1211079.1, -1197436.0, -18867.191, -0.0469088, -0.08558899, -1184195.0, 42989.457, 0.0, 9.999988, 10.000187 
9.650223e+2, 1.8477607e+2, -1134370.4, -1236919.5, -36276.918, -0.04768725, -0.04469103, -1122834.9, 6350.546, 0.0, 10.000393, 9.999047 
9.650202e+2, 1.9477399e+2, -990263.1, -1119147.9, -8220.844, -0.029949605, -0.16463074, -989740.9, 41466.32, 0.0, 10.000719, 9.999024 
9.650188e+2, 2.0477338e+2, -880686.9, -926273.1, 90643.5, -0.059162024, -0.16557957, -810014.6, 123200.47, 0.0, 10.0004225, 9.999816 
9.6501815e+2, 2.1477428e+2, -916851.7, -891402.9, 55943.84, -0.14260271, -0.07123221, -846754.6, -11545.842, 0.0, 9.99949, 9.999833 
9.6501744e+2, 2.2477452e+2, -879169.75, -907461.3, -38860.984, -0.091865934, 0.009206754, -851960.0, -114751.07, 0.0, 9.999436, 9.999081 
9.6501684e+2, 2.3477396e+2, -648080.4, -744891.0, 3839.57, 0.11404855, 0.034635015, -647928.3, -8711.269, 0.0, 10.000348, 9.999083 
9.650147e+2, 2.4477313e+2, -496785.06, -602284.4, 24218.787, 0.17567265, 0.037955854, -491490.97, 49734.887, 0.0, 10.000633, 9.99925 
9.6501106e+2, 2.5477198e+2, -452078.8, -528128.5, 5846.1963, 0.08781914, -0.014623928, -451632.03, -8395.946, 0.0, 10.000264, 9.999263 
9.650086e+2, 2.6477134e+2, -357154.06, -400186.5, 28262.635, 0.06495227, -0.017557232, -343149.53, 2091.2444, 0.000000012060779, 10.000101, 9.999553 
9.6500736e+2, 2.747711e+2, -259243.22, -301883.0, -9526.788, 0.11218541, -0.006572627, -257211.5, -9970.696, 0.0000023356135, 10.000099, 9.999555 
9.650061e+2, 2.8476998e+2, -222880.02, -264559.16, -14702.124, 0.14433536, -0.05834908, -218215.86, -68965.94, 0.000028836348, 9.999811, 9.999274 
9.6500456e+2, 2.9476798e+2, -213469.19, -210478.45, 4249.768, 0.16820952, -0.19757175, -207468.64, -156200.56, 0.00012695143, 9.99921, 9.999262 
9.650011e+2, 3.0476817e+2, -51466.992, -25736.166, -49886.797, 0.071136676, -0.13702956, 12917.46, 12917.46, 0.00033048782, 9.999637, 9.999996 
9.6499705e+2, 3.1476876e+2, 170012.94, 125526.58, -64874.586, 0.0121237915, -0.09219942, 216351.61, 216351.61, 0.00062489236, 10.000951, 10.000401 
9.7502863e+2, 1.2477673e+2, -1991977.4, -1863665.1, 81045.63, 0.08126925, -0.18989496, -1824455.9, -107287.85, 0.000058506626, 9.998129, 9.999878 
9.750281e+2, 1.347748e+2, -1728840.3, -1694976.0, 40441.305, 0.0650523, -0.37286896, -1668065.3, -48875.313, 0.00001444443, 9.999326, 9.999785 
9.750265e+2, 1.447756e+2, -1566389.1, -1568068.3, 27034.781, -0.037812825, -0.26766866, -1540180.9, -18994.906, 0.0000005546723, 9.999769, 9.99977 
9.750248e+2, 1.5477808e+2, -1511655.0, -1489044.5, 45513.758, -0.17190225, -0.011311108, -1453452.9, -30286.953, 0.0, 9.999472, 9.999781 
9.7502375e+2, 1.647787e+2, -1402618.1, -1378114.3, 11711.24, -0.21206936, 0.07269461, -1373417.4, -48254.742, 0.0, 9.999512, 9.999846 
9.7502345e+2, 1.7477722e+2, -1235292.0, -1248555.3, 2433.053, -0.13518715, -0.06990651, -1234859.8, -7681.297, 0.0, 9.99999, 9.999836 
9.750223e+2, 1.8477714e+2, -1075840.3, -1113100.0, -27777.531, -0.09425673, -0.06367318, -1061023.6, 68156.56, 0.0, 10.0003805, 9.999905 
9.750204e+2, 1.9477847e+2, -933977.1, -994413.44, 8587.259, -0.094822325, 0.06862654, -932780.7, 98386.89, 0.0, 10.000684, 9.9999 
9.7501904e+2, 2.0477816e+2, -941175.75, -1046019.0, 51060.58, -0.08492148, 0.093342036, -920418.1, 12753.556, 0.0, 10.000392, 9.999011 
9.7501856e+2, 2.1477596e+2, -983100.44, -1020256.06, 24822.365, -0.05849782, -0.035409346, -970673.7, -135478.66, 0.0, 9.999447, 9.998973 
9.750175e+2, 2.2477557e+2, -795013.4, -722891.75, -10985.364, -0.041329935, -0.03838165, -721255.6, 15943.674, 0.0, 9.999394, 10.000364 
9.750159e+2, 2.3477705e+2, -565568.94, -558486.9, 42153.777, -0.026856398, 0.05790846, -519725.66, 119458.11, 0.0, 10.000284, 10.000393 
9.750141e+2, 2.447765e+2, -522387.13, -649769.6, 5535.8716, 0.039807033, 0.03705465, -522147.0, 19040.53, 0.0, 10.000606, 9.9989395 
9.750121e+2, 2.5477368e+2, -480593.63, -583046.06, -3621.3606, 0.16196887, -0.14901392, -480465.78, -37252.56, 0.0, 10.000238, 9.998901 
9.750097e+2, 2.647724e+2, -427965.84, -535191.6, 24732.033, 0.1553402, -0.1526486, -422536.25, -77310.35, 0.0000000034767167, 10.000056, 9.998643 
9.7500664e+2, 2.7477264e+2, -328911.63, -437194.97, -3298.3542, 0.014838914, -0.0013699634, -328811.25, -81585.23, 0.0000028342504, 10.000062, 9.998641 
9.7500426e+2, 2.847722e+2, -183634.19, -176719.02, -39233.586, -0.033002026, 0.031322654, -140790.95, 8439.896, 0.000032308424, 9.999784, 9.999892 
9.7500235e+2, 2.947711e+2, -171078.73, -119808.6, -9885.737, 0.009270328, -0.08171359, -117968.51, -66728.64, 0.00013865711, 9.999195, 9.999895 
9.7500014e+2, 3.04771e+2, -96223.4, -102046.42, -3545.0547, 0.001440096, -0.059081428, -94547.5, -94547.5, 0.0003574127, 9.999573, 9.999499 
9.749991e+2, 3.1476927e+2, 140894.77, 82099.305, -3718.7524, 0.09944094, -0.19795841, 141129.05, 141129.05, 0.0006733306, 10.000886, 10.000126 
9.850279e+2, 1.2477824e+2, -1675967.9, -1773596.1, 80089.91, 0.08205077, -0.20958948, -1630988.5, 86164.836, 0.00008108169, 10.000564, 9.999322 
9.8502755e+2, 1.3477683e+2, -1748986.0, -1770033.3, 17916.361, 0.07283135, -0.2865305, -1738731.3, -119557.695, 0.000022462764, 9.999467, 9.999203 
9.850261e+2, 1.4477769e+2, -1650435.3, -1567687.4, 20410.125, -0.01073378, -0.16144413, -1562927.0, -41757.94, 0.0000013019285, 9.999017, 10.000132 
9.850243e+2, 1.5477976e+2, -1494969.3, -1438717.3, 41309.547, -0.16589116, 0.0141971335, -1416867.8, 6282.694, 0.0, 9.999402, 10.000156 
9.850231e+2, 1.6478036e+2, -1393928.4, -1352815.6, 46315.758, -0.22081988, 0.0678689, -1322699.4, 2446.562, 0.0, 9.999481, 10.000035 
9.850229e+2, 1.747793e+2, -1343976.0, -1276972.4, 68471.19, -0.14889646, -0.053374235, -1234246.4, -7088.6475, 0.0, 9.999152, 10.00004 
9.85022e+2, 1.8477933e+2, -1250751.0, -1217192.6, 43293.27, -0.10651954, -0.036625538, -1187540.8, -58381.78, 0.0, 9.999264, 9.999727 
9.850205e+2, 1.947805e+2, -1067360.5, -1079180.4, -8297.074, -0.105273634, 0.0965749, -1063083.8, -31934.346, 0.0, 9.999854, 9.999718 
9.8501927e+2, 2.0478009e+2, -968134.8, -1037709.5, 3897.1572, -0.081896685, 0.1111116, -967917.2, -34763.332, 0.0, 10.000109, 9.999208 
9.8501855e+2, 2.1477786e+2, -891882.3, -950099.5, 47370.754, -0.028131336, -0.04340342, -865391.5, -30216.646, 0.0, 9.999963, 9.999205 
9.850173e+2, 2.2477737e+2, -748650.44, -710838.2, 42824.25, -0.022701353, -0.06326242, -682932.4, 54246.9, 0.0, 9.999755, 10.000278 
9.850154e+2, 2.347787e+2, -689303.75, -626846.5, -16284.272, -0.060783476, 0.02836137, -622855.75, 16310.812, 0.0, 9.999471, 10.000317 
9.8501384e+2, 2.4477836e+2, -617527.44, -670829.7, -74159.63, -0.0056157527, 0.020613905, -565375.44, -24206.533, 0.0, 9.999855, 9.999152 
9.8501265e+2, 2.5477606e+2, -349810.25, -495431.97, -51792.766, 0.14955609, -0.13416453, -333268.38, 109920.64, 0.0, 10.001034, 9.999118 
9.850103e+2, 2.6477483e+2, -263760.16, -473631.63, 3119.6758, 0.15836075, -0.13539907, -263713.8, 81487.11, 0.00000001775074, 10.001252, 9.998494 
9.8500687e+2, 2.747747e+2, -289813.4, -435813.7, 21335.807, 0.021707924, -0.0063957637, -286759.38, -39554.56, 0.000003544514, 10.0004015, 9.99849 
9.8500425e+2, 2.84774e+2, -211771.39, -268527.66, -22406.281, -0.014790692, 0.043580383, -203992.1, -54778.355, 0.000035208486, 9.999927, 9.999197 
9.850023e+2, 2.9477277e+2, -126200.41, -178589.08, -104528.38, 0.04942281, -0.012979127, -44634.24, 6593.5903, 0.00014828902, 9.999851, 9.999177 
9.850005e+2, 3.047725e+2, -14628.019, -90917.74, -74206.586, 0.049834233, 0.041678738, 30663.61, 30663.61, 0.00038101713, 10.000248, 9.999253 
9.850005e+2, 3.1477055e+2, 169930.97, 89119.86, -72425.086, 0.14250042, -0.09314847, 212459.14, 212459.14, 0.0007157471, 10.00109, 10.000092 
9.9502707e+2, 1.2478039e+2, -1717761.4, -1856153.0, 36412.504, -0.08663583, -0.14419942, -1708765.6, 8374.384, 0.000108580556, 10.000554, 9.998758 
9.9502563e+2, 1.3478139e+2, -1789470.8, -1847793.3, -22297.467, -0.072799176, 0.07341993, -1781923.0, -162783.56, 0.000033028722, 9.999446, 9.998678 
9.950246e+2, 1.4478137e+2, -1620084.1, -1498749.9, 27958.686, -0.07888845, 0.11426291, -1492617.4, 28523.523, 0.0000026281716, 9.998984, 10.000625 
9.950246e+2, 1.5477903e+2, -1450782.1, -1356153.3, 61036.938, -0.091179974, -0.20377143, -1326239.6, 96916.99, 0.00000000019976186, 9.999434, 10.0007105 
9.950238e+2, 1.6477928e+2, -1344162.1, -1248325.5, 29410.77, -0.107691556, -0.24981469, -1240019.6, 85131.06, 0.0, 9.999479, 10.000752 
9.9502236e+2, 1.7478225e+2, -1293497.0, -1171482.4, 59022.137, -0.12572272, -0.040703915, -1147604.5, 79517.836, 0.0, 9.999147, 10.000767 
9.950212e+2, 1.8478261e+2, -1338230.4, -1392143.1, 59045.59, -0.12482383, 0.030010242, -1300278.9, -171157.08, 0.0, 9.999236, 9.99854 
9.950205e+2, 1.947801e+2, -1156727.4, -1259730.8, 17432.617, -0.10206043, -0.08166049, -1153857.0, -122704.62, 0.0, 9.99983, 9.998491 
9.9501944e+2, 2.0477922e+2, -891346.06, -865951.44, -6990.6426, -0.09010927, -0.109945916, -864154.25, 69006.984, 0.0, 10.000059, 10.00041 
9.95018e+2, 2.1477999e+2, -814874.75, -771684.3, 44810.883, -0.089545414, -0.08983869, -743536.5, 91611.336, 0.0, 9.999885, 10.000467 
9.950166e+2, 2.2477996e+2, -856414.06, -918011.56, 27180.605, -0.070814416, -0.059236992, -846135.44, -108987.195, 0.0, 9.999685, 9.998889 
9.9501526e+2, 2.34779e+2, -800208.1, -843566.94, -22732.727, -0.030746965, -0.05072151, -790474.56, -151310.13, 0.0, 9.999414, 9.998857 
9.950138e+2, 2.4477874e+2, -571815.6, -569713.2, -35908.527, -0.006277458, -0.011166413, -534840.5, 6329.1133, 0.0, 9.999826, 9.999862 
9.950124e+2, 2.5477907e+2, -301846.25, -387954.22, -2323.6125, 0.0070497887, 0.02357327, -301783.6, 141380.28, 0.0, 10.000997, 9.999876 
9.9501044e+2, 2.6477864e+2, -226771.13, -390452.28, -30580.531, 0.03285646, 0.034616254, -221244.39, 123921.36, 0.000000028595345, 10.001224, 9.999079 
9.9500793e+2, 2.7477732e+2, -257030.55, -358000.63, -4942.295, 0.07497127, -0.017521195, -256789.22, -9612.312, 0.000003781716, 10.000358, 9.999046 
9.950059e+2, 2.8477544e+2, -356205.5, -560413.4, -29412.453, 0.14685209, -0.018525695, -352053.6, -202854.78, 0.000036350866, 9.99989, 9.9972105 
9.9500424e+2, 2.9477292e+2, -267238.9, -470588.63, -99713.99, 0.24956354, 0.0034647787, -226503.58, -175271.23, 0.00015374523, 9.999847, 9.997173 
9.9500215e+2, 3.0477268e+2, -21152.637, -100328.17, -43603.09, 0.18014358, 0.16360222, -1847.1057, -1847.1057, 0.0003968945, 10.000232, 9.999194 
9.950008e+2, 3.147724e+2, 168259.03, 113372.414, -28832.13, 0.042112224, 0.19600128, 180620.58, 180620.58, 0.00074672233, 10.00098, 10.000305 
1.0050271e+3, 1.24782525e+2, -1839828.1, -1842996.3, 6365.5117, -0.08310611, -0.021405308, -1834852.5, -117725.72, 0.00014134821, 9.999419, 9.999391 
1.0050249e+3, 1.3478345e+2, -1678787.1, -1720835.1, 9417.842, -0.10824404, 0.12244429, -1676774.1, -57653.36, 0.000046426092, 9.999898, 9.999329 
1.005024e+3, 1.4478306e+2, -1479435.3, -1444583.6, 111480.92, -0.07730148, 0.10132986, -1349174.8, 171947.73, 0.00000474816, 10.000027, 10.000485 
1.0050247e+3, 1.5478007e+2, -1419857.3, -1361886.1, 76896.92, -0.04050496, -0.2637755, -1308693.3, 114451.4, 0.000000004412824, 9.999749, 10.000516 
1.005024e+3, 1.6478015e+2, -1342907.6, -1280940.1, -20895.035, -0.043330804, -0.30272037, -1274552.8, 50588.527, 0.0, 9.999623, 10.0004635 
1.0050221e+3, 1.7478351e+2, -1239200.4, -1177290.6, -75278.5, -0.09116056, -0.025542978, -1126851.1, 100259.87, 0.0, 9.999658, 10.000483 
1.0050208e+3, 1.8478388e+2, -1250893.9, -1311723.1, -32706.18, -0.10425976, 0.04229206, -1236645.9, -107535.79, 0.0, 9.999667, 9.998886 
1.00502044e+3, 1.9478089e+2, -1171936.1, -1226983.0, 35218.344, -0.076962255, -0.15270583, -1154762.0, -123619.484, 0.0, 9.999556, 9.998848 
1.0050194e+3, 2.0478012e+2, -966340.94, -902786.0, 25024.078, -0.06688083, -0.18750879, -894115.8, 39033.863, 0.0, 9.999545, 10.000403 
1.0050179e+3, 2.1478166e+2, -855050.75, -792901.7, -27939.008, -0.073948935, -0.08956777, -782188.5, 52942.17, 0.0, 9.999613, 10.000451 
1.0050165e+3, 2.2478172e+2, -858219.3, -949417.3, -40893.926, -0.05550046, -0.03613735, -842568.2, -105436.91, 0.0, 9.999807, 9.998611 
1.0050152e+3, 2.3478007e+2, -712935.1, -832891.3, -14398.795, -0.006219684, -0.06951516, -711231.0, -72076.664, 0.0, 10.000148, 9.998574 
1.0050138e+3, 2.4477975e+2, -555309.4, -554726.2, 6794.2637, 0.006956084, -0.023856612, -548217.25, -7056.6836, 0.0, 9.999901, 9.999932 
1.0050122e+3, 2.5478083e+2, -583420.56, -510271.1, -18704.104, -0.009711216, 0.074441046, -505765.97, -62616.88, 0.0, 9.999011, 9.99999 
1.00501046e+3, 2.647807e+2, -533510.7, -510714.75, -80655.016, 0.022918155, 0.09725269, -440656.3, -95508.29, 0.000000017098808, 9.999013, 9.999312 
1.00500844e+3, 2.747791e+2, -294722.2, -348807.97, -90475.79, 0.10997897, -0.0017898834, -227334.22, 19825.775, 0.000003428396, 9.99999, 9.999282 
1.0050064e+3, 2.8477687e+2, -242663.63, -535159.3, -44278.777, 0.1759153, -0.038421404, -236107.53, -86923.8, 0.00003625069, 10.000793, 9.996949 
1.0050045e+3, 2.947739e+2, -66727.19, -406728.1, 6364.2954, 0.22545838, -0.03704291, -66608.1, -15387.965, 0.00015665985, 10.001355, 9.996888 
1.0050028e+3, 3.0477306e+2, 106495.06, -108191.95, 107826.84, 0.1649302, 0.11216872, 151300.36, 151300.36, 0.0004073917, 10.001399, 9.99858 
1.0050021e+3, 3.1477222e+2, 117515.28, 40127.195, 59169.29, 0.094444506, 0.14838907, 149519.42, 149519.42, 0.00076893705, 10.000832, 9.999873 
1.0150275e+3, 1.2478478e+2, -1720978.4, -1590590.0, 23621.537, -0.0065176273, 0.15222289, -1586442.5, 130669.945, 0.0001798155, 9.999387, 10.001142 
1.01502515e+3, 1.3478318e+2, -1541831.0, -1450792.0, 33150.887, -0.08638973, -0.14160867, -1439999.9, 179116.31, 0.000062927356, 9.999948, 10.001161 
1.0150244e+3, 1.4478295e+2, -1541411.0, -1575040.3, 95733.42, -0.058246206, -0.19734779, -1461026.8, 60085.81, 0.000007860604, 10.000033, 9.999588 
1.0150243e+3, 1.5478295e+2, -1490334.3, -1503847.3, 69989.85, -0.056243733, -0.16773172, -1426775.5, -3661.537, 0.000000028517778, 9.999731, 9.99955 
1.01502344e+3, 1.6478303e+2, -1435199.1, -1468433.5, -25510.078, -0.06981492, -0.092764236, -1421371.4, -96254.23, 0.0, 9.999602, 9.999188 
1.0150219e+3, 1.7478319e+2, -1324202.0, -1360872.5, -69478.92, -0.08409739, -0.009305997, -1270679.8, -43557.02, 0.0, 9.999682, 9.999212 
1.0150208e+3, 1.847832e+2, -1124050.9, -1043525.8, -41773.695, -0.08543799, -0.00158813, -1025770.2, 103352.88, 0.0, 9.999646, 10.000737 
1.0150201e+3, 1.9478291e+2, -1043253.25, -950018.6, 34649.926, -0.0753488, -0.1182042, -938551.6, 92567.69, 0.0, 9.99951, 10.000772 
1.0150192e+3, 2.0478284e+2, -1058581.4, -1081325.6, 22525.105, -0.05735801, -0.12466451, -1044720.44, -111601.46, 0.0, 9.999491, 9.999205 
1.015018e+3, 2.1478292e+2, -951031.1, -982365.25, -21748.955, -0.027592428, -0.045049176, -939893.8, -104770.836, 0.0, 9.999571, 9.999172 
1.0150167e+3, 2.2478268e+2, -811376.8, -835853.44, -34235.85, -0.01901172, 0.0024703853, -787257.56, -50129.387, 0.0, 9.99974, 9.999422 
1.0150152e+3, 2.347819e+2, -661846.5, -712274.75, 3211.6924, -0.032406554, -0.029258586, -661642.75, -22506.752, 0.0, 10.000084, 9.9994335 
1.0150136e+3, 2.4478146e+2, -602938.94, -639193.1, -31614.7, -0.009391766, -0.012528902, -584623.2, -43481.98, 0.0, 9.999842, 9.999379 
1.0150119e+3, 2.5478128e+2, -630371.4, -600709.94, -48304.633, 0.05489783, 0.018238537, -565010.56, -121866.086, 0.0, 9.99898, 9.999385 
1.0150101e+3, 2.6478088e+2, -544685.4, -526192.1, -48706.58, 0.08613276, 0.049807005, -485862.22, -140713.95, 0.000000011022683, 9.998979, 9.999224 
1.0150083e+3, 2.747801e+2, -301540.9, -357742.84, -45310.625, 0.08364001, 0.03778452, -276324.75, -29170.705, 0.0000031084232, 9.999966, 9.999233 
1.0150059e+3, 2.847784e+2, -147665.31, -333119.1, -26197.316, 0.031763848, -0.010807169, -144035.7, 5132.2056, 0.000035475463, 10.000774, 9.9983425 
1.015003e+3, 2.9477572e+2, 20700.795, -208326.25, 33985.4, -0.07025734, -0.122934826, 25637.49, 76827.78, 0.000157892, 10.0012865, 9.99828 
1.0150022e+3, 3.047737e+2, 16435.033, -281475.75, 88130.18, -0.04149144, -0.105433896, 40553.723, 40553.723, 0.00041497825, 10.001341, 9.997417 
1.0150044e+3, 3.1477004e+2, 32804.45, -117151.61, 53280.57, 0.20566571, -0.23007378, 49807.527, 49807.527, 0.00078677625, 10.000763, 9.99882 
1.0250269e+3, 1.2478539e+2, -1802459.8, -1575572.9, 37748.25, 0.038269497, 0.19043735, -1569457.4, 147651.73, 0.00022439056, 9.998577, 10.001641 
1.0250245e+3, 1.3478306e+2, -1635992.0, -1438228.9, -70822.01, -0.094685346, -0.2273293, -1415482.6, 203633.34, 0.0000828242, 9.99904, 10.001691 
1.0250242e+3, 1.4478318e+2, -1689119.9, -1653800.3, -49036.176, -0.042403277, -0.27345493, -1619340.9, -98232.68, 0.000012107546, 9.999042, 9.999528 
1.0250235e+3, 1.5478477e+2, -1656046.3, -1592350.6, -16920.078, -0.041346967, -0.07830665, -1588135.0, -165038.72, 0.00000009714164, 9.998622, 9.999478 
1.0250227e+3, 1.647849e+2, -1575651.1, -1551398.6, 2933.4397, -0.060203645, 0.009355075, -1551048.9, -225948.31, 0.0, 9.998708, 9.999048 
1.02502145e+3, 1.7478338e+2, -1384359.6, -1406936.5, 32109.953, -0.08308283, -0.057407193, -1361611.6, -134489.25, 0.0, 9.999344, 9.999061 
1.0250205e+3, 1.8478343e+2, -1092309.4, -957486.2, 44623.477, -0.07506742, -0.0692749, -944054.9, 185066.81, 0.0, 9.999564, 10.001365 
1.0250198e+3, 1.9478503e+2, -1024836.3, -864960.3, 17292.559, -0.04199369, -0.06335922, -863111.25, 167986.28, 0.0, 9.999321, 10.00144 
1.0250189e+3, 2.0478547e+2, -1083812.3, -1124336.4, 16160.401, -0.025640983, -0.039903037, -1078157.0, -145064.44, 0.0, 9.999447, 9.998935 
1.0250178e+3, 2.1478456e+2, -920302.06, -1000715.56, 35161.336, -0.022002827, -0.028254025, -907096.25, -71987.414, 0.0, 9.999924, 9.99888 
1.0250166e+3, 2.2478402e+2, -726602.9, -752395.4, 48137.766, -0.022010922, -0.0144573245, -689663.8, 47452.73, 0.0, 10.000134, 9.999806 
1.0250153e+3, 2.3478374e+2, -649834.2, -661285.6, 40845.223, -0.02381105, -0.03486846, -614315.3, 24800.44, 0.0, 9.999979, 9.999833 
1.0250138e+3, 2.447832e+2, -572708.75, -672867.44, -5225.383, 0.011056389, -0.026830917, -572436.9, -31316.102, 0.0, 10.000267, 9.998939 
1.0250122e+3, 2.5478223e+2, -370249.56, -527331.56, -26133.967, 0.08588994, -0.026573086, -366015.75, 77117.54, 0.0, 10.000995, 9.998916 
1.0250101e+3, 2.6478148e+2, -274413.66, -435285.88, -14788.809, 0.09101653, 0.008227119, -273065.44, 72077.21, 0.00000001218603, 10.000987, 9.998886 
1.0250077e+3, 2.7478075e+2, -302932.16, -393737.03, -40135.41, 0.026482375, 0.03816544, -287735.63, -40586.08, 0.0000027111198, 10.000102, 9.998922 
1.0250059e+3, 2.847793e+2, -217757.39, -291107.3, -31808.672, -0.017538734, -0.0054462655, -205885.02, -56725.03, 0.00003356216, 9.999978, 9.99901 
1.0250044e+3, 2.947769e+2, -21368.178, -151262.67, -40180.664, -0.03445911, -0.15868881, -9943.762, 41231.094, 0.00015613875, 10.000671, 9.998965 
1.0250038e+3, 3.0477488e+2, -65693.83, -357671.78, -5817.4053, 0.0012179456, -0.15933724, -65577.97, -65577.97, 0.0004183757, 10.000943, 9.997084 
1.02500476e+3, 3.1477106e+2, -2908.8694, -166446.77, 2906.565, 0.17736731, -0.26390338, -2857.227, -2857.227, 0.000800343, 10.0006485, 9.99854 
1.03502475e+3, 1.24784455e+2, -1854431.8, -1685954.5, 43640.34, -0.045479793, 0.09691908, -1675321.5, 41794.508, 0.00027553758, 9.998595, 10.000871 
1.0350228e+3, 1.3478325e+2, -1694602.3, -1549585.1, -51654.63, -0.17676975, -0.13344854, -1533067.4, 86051.7, 0.000106410545, 9.999004, 10.00094 
1.03502296e+3, 1.447839e+2, -1635571.8, -1539515.5, -69497.71, -0.07929466, -0.12471906, -1503065.0, 18043.031, 0.000017580353, 9.999024, 10.000323 
1.0350224e+3, 1.5478563e+2, -1589562.4, -1462661.0, -27044.941, -0.03925075, -0.0024917382, -1457137.6, -34046.426, 0.00000023822265, 9.998654, 10.000355 
1.0350215e+3, 1.6478582e+2, -1506879.4, -1411964.8, 20538.373, -0.059120372, -0.00009524031, -1407711.1, -82620.484, 0.0, 9.99872, 9.999999 
1.03502035e+3, 1.7478421e+2, -1320684.1, -1273566.1, 59972.027, -0.12837787, -0.17025855, -1232691.6, -5582.4316, 0.0, 9.999333, 9.999983 
1.03501976e+3, 1.8478467e+2, -1139217.6, -1047283.1, 30629.293, -0.11729059, -0.15888315, -1038013.25, 91091.84, 0.0, 9.999532, 10.000762 
1.0350195e+3, 1.9478726e+2, -1073075.6, -960311.06, 10473.543, -0.018009424, 0.008772232, -959346.56, 71730.4, 0.0, 9.999296, 10.000797 
1.0350186e+3, 2.0478798e+2, -1045911.56, -1033994.75, 26812.654, -0.010052594, 0.06332995, -1012486.44, -79416.07, 0.0, 9.999395, 9.999578 
1.0350171e+3, 2.1478654e+2, -878735.25, -905279.3, 58035.418, -0.10022717, -0.04726857, -832473.6, 2614.7742, 0.0, 9.999878, 9.9995575 
1.03501596e+3, 2.2478575e+2, -741430.1, -766136.75, 36728.723, -0.10775266, -0.090296715, -715032.94, 22063.32, 0.0, 10.000064, 9.999745 
1.03501536e+3, 2.3478559e+2, -661294.44, -676386.56, 39281.035, -0.027266972, -0.093353294, -628841.25, 10252.282, 0.0, 9.999937, 9.99975 
1.0350143e+3, 2.4478494e+2, -607786.94, -731442.75, 17442.611, 0.0219069, -0.07178466, -605373.6, -64274.2, 0.0, 10.000205, 9.998566 
1.035013e+3, 2.547837e+2, -397313.22, -582357.2, 8013.625, 0.044374708, -0.06605039, -396966.8, 46149.023, 0.0, 10.000983, 9.998547 
1.0350104e+3, 2.6478243e+2, -319084.47, -518343.25, -50788.82, 0.0020322923, -0.029674426, -306885.78, 38245.402, 0.00000000560088, 10.000952, 9.99833 
1.0350066e+3, 2.747812e+2, -354649.3, -484188.7, -66847.82, -0.10863097, -0.00033792158, -326339.75, -79193.445, 0.0000022721786, 10.000033, 9.998333 
1.0350058e+3, 2.8477952e+2, -232113.69, -308171.28, -9083.259, -0.02008269, -0.026467592, -231043.95, -81883.4, 0.00003115889, 9.999922, 9.9989195 
1.0350083e+3, 2.9477742e+2, -26128.693, -158600.13, -2940.0737, 0.28332216, -0.1420869, -26063.473, 25109.85, 0.00015172908, 10.000659, 9.998921 
1.03500724e+3, 3.0477664e+2, -37172.645, -294834.53, -16950.125, 0.24817927, -0.04269462, -36062.375, -36062.375, 0.0004166064, 10.000935, 9.997516 
1.0350029e+3, 3.1477538e+2, 16748.32, -95967.8, 6383.5215, -0.09170359, 0.06622626, 17108.691, 17108.691, 0.00080601213, 10.000541, 9.999065 
1.045023e+3, 1.2478351e+2, -1742730.5, -1677782.8, 82447.01, -0.13588369, -0.020916602, -1621644.8, 95477.12, 0.0003338259, 9.999557, 10.000465 
1.0450227e+3, 1.3478412e+2, -1605423.0, -1549542.5, 3427.9976, -0.12106163, -0.031937156, -1549333.0, 69779.98, 0.00013404706, 9.99979, 10.000567 
1.0450234e+3, 1.4478505e+2, -1498996.3, -1408633.6, -18178.05, 0.03523639, -0.0052051432, -1405113.9, 115986.85, 0.000024406929, 9.999684, 10.000903 
1.0450209e+3, 1.5478572e+2, -1460089.8, -1333214.4, -10065.822, -0.08071192, -0.0470534, -1332420.8, 90670.41, 0.0000004785213, 9.999258, 10.000953 
1.0450196e+3, 1.6478601e+2, -1458624.6, -1336304.4, 35627.605, -0.124434255, -0.085925825, -1326683.9, -1596.8943, 0.0, 9.998833, 10.00046 
1.0450198e+3, 1.7478582e+2, -1415395.0, -1264740.6, 32104.424, -0.076984845, -0.161933, -1258184.5, -31094.645, 0.0, 9.99846, 10.000456 
1.04501955e+3, 1.8478647e+2, -1304023.4, -1162915.5, 7165.241, -0.04017028, -0.14012101, -1162552.6, -33468.754, 0.0, 9.998552, 10.0004425 
1.04501866e+3, 1.9478798e+2, -1124986.0, -1024212.3, 343.39572, -0.012962473, -0.046395935, -1024211.2, 6857.4565, 0.0, 9.999104, 10.000456 
1.0450177e+3, 2.0478867e+2, -1010108.9, -979629.06, 32317.832, -0.03604624, 0.0068449695, -959138.06, -26074.906, 0.0, 9.99949, 9.999902 
1.0450167e+3, 2.1478832e+2, -886437.6, -868212.6, 27152.207, -0.10924573, -0.029303426, -848684.56, -13614.728, 0.0, 9.999665, 9.9999075 
1.045016e+3, 2.247878e+2, -783870.4, -798145.75, -13736.055, -0.09847024, -0.05820832, -775528.25, -38453.367, 0.0, 9.999819, 9.999644 
1.0450155e+3, 2.3478702e+2, -671519.2, -694405.2, -26181.768, 0.0020904017, -0.11148091, -654389.0, -15310.447, 0.0, 9.999921, 9.999636 
1.0450144e+3, 2.4478623e+2, -644083.94, -741206.56, -10632.58, 0.034407496, -0.10157138, -642933.56, -101847.95, 0.0, 9.999908, 9.99865 
1.04501285e+3, 2.547854e+2, -574439.0, -655617.5, 6620.606, 0.00011733951, -0.063558355, -573902.6, -130805.56, 0.0, 9.999715, 9.998654 
1.04501046e+3, 2.6478416e+2, -448509.94, -625273.8, -26045.057, -0.036372412, -0.016126806, -444752.25, -99638.91, 0.0000000009945924, 10.000259, 9.997928 
1.0450077e+3, 2.7478227e+2, -162533.33, -438762.2, -41975.24, -0.0715779, -0.0065793344, -156295.7, 90841.15, 0.0000020282196, 10.001554, 9.9979105 
1.0450072e+3, 2.8478065e+2, 24143.191, -169481.03, 25984.965, 0.045929518, -0.0134603195, 27569.813, 176722.33, 0.000028619394, 10.001605, 9.999065 
1.0450093e+3, 2.9477936e+2, -71689.016, -160836.64, 36227.348, 0.33425623, -0.066946164, -58823.773, -7664.793, 0.00014518836, 10.000258, 9.999099 
1.0450081e+3, 3.04779e+2, -181888.47, -336999.63, 45358.074, 0.29358602, 0.056198835, -169598.5, -169598.5, 0.00040815427, 9.999817, 9.997767 
1.0450037e+3, 3.1477788e+2, -3578.051, -74314.69, 36135.297, -0.04648614, 0.15770775, 11617.2295, 11617.2295, 0.00079748995, 10.000238, 9.999376 
1.0550208e+3, 1.24782674e+2, -1749016.9, -1679600.8, 71892.28, -0.3381087, -0.16562778, -1634476.9, 82648.92, 0.00039971265, 9.99952, 10.0004635 
1.0550242e+3, 1.3478579e+2, -1605479.3, -1547085.8, 17563.83, 0.026657604, 0.073141456, -1542210.0, 76886.58, 0.00016604259, 9.999788, 10.000581 
1.0550254e+3, 1.4478682e+2, -1472719.4, -1360896.6, -38930.816, 0.25238368, 0.09202295, -1348678.1, 172406.28, 0.000032768716, 9.999707, 10.001223 
1.05501905e+3, 1.5478522e+2, -1439940.4, -1291619.5, -22590.227, -0.21020429, -0.20637451, -1288255.3, 134839.14, 0.0000008393984, 9.999253, 10.001243 
1.05501674e+3, 1.6478567e+2, -1464119.0, -1341840.8, 17482.555, -0.30561495, -0.24327826, -1339390.3, -14302.485, 0.0, 9.99881, 10.000431 
1.0550194e+3, 1.7478825e+2, -1414132.3, -1267124.1, 22241.105, 0.026207173, -0.03969857, -1263832.9, -36768.9, 0.0, 9.998479, 10.000431 
1.05501965e+3, 1.847889e+2, -1309864.4, -1168597.6, 21493.717, 0.11319324, -0.016875818, -1165399.8, -36342.004, 0.0, 9.998527, 10.000415 
1.0550173e+3, 1.9478731e+2, -1132853.9, -1032223.7, 25998.207, -0.07384881, -0.23022313, -1025903.9, 5167.668, 0.0, 9.999066, 10.000419 
1.0550162e+3, 2.0478763e+2, -1017921.25, -987378.4, 33071.656, -0.14565408, -0.2102742, -966222.5, -33152.53, 0.0, 9.99945, 9.99987 
1.0550166e+3, 2.1478993e+2, -894604.94, -876799.56, 37242.23, -0.08917467, 0.022462467, -847410.75, -12358.138, 0.0, 9.999623, 9.999871 
1.05501644e+3, 2.2479017e+2, -804315.2, -826788.8, -14645.133, -0.033987854, 0.08043742, -797092.7, -60040.67, 0.0, 9.999757, 9.999478 
1.0550158e+3, 2.3478805e+2, -687188.9, -719488.5, -16959.105, 0.020212403, -0.09299973, -679920.1, -40849.348, 0.0, 9.999884, 9.999482 
1.0550141e+3, 2.4478711e+2, -611671.94, -664293.56, -23101.715, 0.004157501, -0.11762542, -602969.25, -61890.19, 0.0, 9.9998665, 9.999198 
1.05501175e+3, 2.5478742e+2, -540461.75, -578552.9, 3778.7566, -0.08768725, -0.018970562, -540090.5, -97013.97, 0.0, 9.999683, 9.9992 
1.0550106e+3, 2.6478648e+2, -474851.1, -666691.6, 19412.652, -0.06246733, 0.04186612, -472906.4, -127816.57, 0.000000000012280949, 10.000205, 9.997667 
1.055011e+3, 2.7478397e+2, -186373.2, -479633.47, 15537.365, 0.087715045, 0.016761865, -185552.31, 61569.063, 0.0000016155456, 10.001516, 9.997648 
1.0550099e+3, 2.8478268e+2, 47950.45, -116232.164, -26467.803, 0.13450253, 0.037355322, 52111.836, 201247.53, 0.00002530106, 10.001587, 9.999441 
1.05500706e+3, 2.9478267e+2, -52173.652, -111693.94, -7286.9233, 0.076985806, 0.07067235, -51294.516, -162.73056, 0.00013660942, 10.00022, 9.999456 
1.055006e+3, 3.0478188e+2, -183196.0, -328359.47, 60387.082, 0.094051644, 0.13350376, -161360.0, -161360.0, 0.00039392404, 9.999767, 9.99785 
1.0550068e+3, 3.1477863e+2, -654.49493, -55675.785, 69034.914, 0.21824706, 0.010552287, 46149.43, 46149.43, 0.00077736063, 10.000191, 9.999528 
1.0650211e+3, 1.24783985e+2, -1695791.6, -1639200.1, 115157.766, -0.25677362, -0.17300393, -1548912.8, 168195.63, 0.00047318285, 9.999813, 10.000603 
1.0650232e+3, 1.3478644e+2, -1761332.3, -1607214.3, 67024.93, 0.012334967, -0.013136222, -1582143.9, 36941.313, 0.00020250746, 9.998646, 10.000719 
1.0650244e+3, 1.4478745e+2, -1686568.1, -1509095.3, 24675.117, 0.2504789, 0.015375799, -1505728.4, 15346.672, 0.000042863663, 9.998444, 10.000809 
1.0650183e+3, 1.5478681e+2, -1446442.3, -1341219.5, -25197.707, -0.20871308, -0.14523353, -1335496.8, 87583.125, 0.0000013547858, 9.999416, 10.000819 
1.065016e+3, 1.6478716e+2, -1321130.4, -1282486.5, -23228.385, -0.30967063, -0.16706324, -1271594.4, 53481.305, 0.0, 9.999828, 10.000353 
1.0650183e+3, 1.7478858e+2, -1257246.6, -1198718.4, -32450.283, 0.013038027, -0.0707904, -1184285.6, 42776.004, 0.0, 9.99959, 10.000368 
1.06501855e+3, 1.8478905e+2, -1147388.3, -1064133.8, 5467.1353, 0.10346911, -0.0724721, -1063776.4, 65279.51, 0.0, 9.999527, 10.000651 
1.0650166e+3, 1.9478835e+2, -1034647.4, -957813.6, 21742.992, -0.07308252, -0.22105199, -952087.44, 78972.695, 0.0, 9.999623, 10.000662 
1.0650159e+3, 2.0478866e+2, -1002397.6, -983270.75, 35551.215, -0.13136375, -0.21289615, -956019.2, -22961.316, 0.0, 9.999574, 9.999838 
1.0650165e+3, 2.1479002e+2, -936866.6, -902197.6, 27759.963, -0.054776605, -0.07043511, -886804.5, -51755.34, 0.0, 9.999357, 9.9998255 
1.0650164e+3, 2.2479038e+2, -820322.75, -824025.44, 10996.475, -0.018052608, -0.0028707003, -811022.9, -73975.03, 0.0, 9.999602, 9.999574 
1.06501535e+3, 2.3478954e+2, -619164.56, -674024.75, 20157.094, -0.022108272, -0.056222107, -612554.75, 26500.738, 0.0, 10.000305, 9.99959 
1.065014e+3, 2.4478886e+2, -519779.5, -623359.9, -14460.584, -0.027940903, -0.06074901, -517798.6, 23263.723, 0.0, 10.000523, 9.999157 
1.0650121e+3, 2.547882e+2, -466595.03, -547806.25, -47154.95, -0.037887372, -0.05407475, -444972.0, -1902.421, 0.0, 10.0002165, 9.999151 
1.06501125e+3, 2.6478726e+2, -460859.34, -577543.2, 20658.072, -0.005039834, -0.021178402, -457309.94, -112229.44, 0.0, 9.999941, 9.998408 
1.0650115e+3, 2.7478606e+2, -407574.78, -498690.8, 84750.36, 0.08060117, 0.0014266308, -356913.5, -109817.75, 0.00000091217555, 9.999624, 9.998427 
1.0650103e+3, 2.8478515e+2, -243281.5, -328733.13, 27866.936, 0.10040453, 0.052658513, -234996.9, -85889.484, 0.00002073869, 9.999905, 9.99879 
1.0650073e+3, 2.947845e+2, -8101.5137, -165940.34, -44668.105, 0.053301513, 0.093068, 3662.6628, 54779.047, 0.00012474366, 10.000845, 9.998784 
1.0650065e+3, 3.0478337e+2, 77124.73, -164913.95, 23384.104, 0.09669957, 0.13790222, 79363.234, 79363.234, 0.00037297295, 10.001379, 9.9981985 
1.06500804e+3, 3.1477997e+2, 206273.33, 92593.23, 35167.77, 0.2645631, -0.04119383, 216273.11, 216273.11, 0.00074707123, 10.001392, 9.999966 
1.0750238e+3, 1.247875e+2, -1671013.6, -1588576.6, 38776.3, 0.003403555, -0.047749218, -1573203.9, 143865.38, 0.00055371417, 9.999826, 10.000939 
1.07501976e+3, 1.3478626e+2, -1744736.3, -1566341.3, 24834.797, -0.20786916, -0.28580943, -1562948.5, 56128.773, 0.00024334127, 9.998625, 10.001007 
1.07502036e+3, 1.4478712e+2, -1767035.4, -1679100.0, 53404.32, -0.015384366, -0.22945338, -1653892.8, -132821.53, 0.00005483326, 9.998449, 9.999643 
1.07501864e+3, 1.5479048e+2, -1526345.8, -1511833.6, 16551.521, -0.122233205, 0.12743516, -1501017.5, -77970.2, 0.000002073113, 9.9994335, 9.999641 
1.0750172e+3, 1.6479053e+2, -1331641.9, -1304052.1, -36120.492, -0.17995237, 0.1433691, -1279181.9, 45867.867, 0.0000000000166348, 9.999827, 10.000204 
1.0750163e+3, 1.7478687e+2, -1264576.0, -1217795.1, -36693.23, -0.15404487, -0.2578501, -1197671.1, 29410.773, 0.0, 9.999601, 10.000233 
1.0750161e+3, 1.8478702e+2, -1118346.3, -995857.75, 3309.26, -0.11004541, -0.30726722, -995768.44, 133308.75, 0.0, 9.9994955, 10.001134 
1.0750165e+3, 1.9479121e+2, -1003121.06, -885311.56, 28658.086, -0.05500136, -0.016760878, -878710.2, 152323.06, 0.0, 9.999595, 10.001172 
1.0750165e+3, 2.0479186e+2, -1012625.75, -996964.6, 21405.193, -0.03394077, 0.0023380143, -982002.6, -48976.7, 0.0, 9.9995365, 9.999764 
1.07501596e+3, 2.147886e+2, -949101.7, -916867.75, 24293.787, -0.049242005, -0.31045708, -903830.9, -68771.805, 0.0, 9.999306, 9.99975 
1.0750153e+3, 2.2478846e+2, -804391.2, -775459.6, 31299.094, -0.091520935, -0.30672094, -755445.1, -18383.514, 0.0, 9.999536, 9.99994 
1.0750144e+3, 2.3479159e+2, -601508.94, -623425.5, 51594.62, -0.16236095, -0.00011709224, -559721.7, 79309.97, 0.0, 10.000245, 9.999967 
1.07501395e+3, 2.4479143e+2, -575704.1, -727740.3, -28564.746, -0.10015229, 0.06299742, -570514.5, -29479.027, 0.0, 10.000468, 9.998469 
1.07501395e+3, 2.547876e+2, -517372.7, -650066.25, -52074.313, 0.10552203, -0.17682786, -499377.13, -56300.4, 0.0, 10.000197, 9.998461 
1.0750123e+3, 2.647866e+2, -342468.5, -324094.8, 4256.6865, 0.099717885, -0.20662397, -323156.56, 21928.895, 0.000000000031670343, 9.999907, 10.000168 
1.075009e+3, 2.7478847e+2, -287150.7, -240573.36, 79122.42, -0.1337529, -0.049563367, -181383.42, 65676.4, 0.00000057346807, 9.999586, 10.000222 
1.0750082e+3, 2.8478804e+2, -363795.9, -571773.9, 58128.35, -0.10118354, 0.03745501, -348652.16, -199584.61, 0.00001665899, 9.999875, 9.997135 
1.07500985e+3, 2.9478496e+2, -131152.23, -417518.25, 311.86826, 0.21559364, 0.010048534, -131151.9, -80040.11, 0.000111651505, 10.000826, 9.997067 
1.0750096e+3, 3.0478355e+2, 118058.28, -74674.7, 25668.064, 0.2560978, 0.07679069, 121418.164, 121418.164, 0.00034802765, 10.00136, 9.998828 
1.0750071e+3, 3.14782e+2, 236730.19, 175296.23, 52712.773, 0.006508077, 0.017570611, 267022.78, 267022.78, 0.0007106943, 10.001311, 10.000576 
1.0850248e+3, 1.2478905e+2, -1647315.0, -1609402.5, -9110.34, 0.10006356, -0.1027177, -1607326.9, 109722.95, 0.00064071716, 10.000134, 10.00065 
1.0850181e+3, 1.3478771e+2, -1591968.6, -1530726.0, -61737.434, -0.28854448, -0.3165268, -1492433.1, 126627.45, 0.00028839763, 9.999842, 10.000667 
1.0850186e+3, 1.4478827e+2, -1605112.9, -1597225.4, 40314.93, -0.09317275, -0.27241543, -1560661.8, -39604.0, 0.00006873226, 9.999561, 9.999663 
1.0850186e+3, 1.5479136e+2, -1542973.0, -1517934.0, 79305.04, -0.074059926, 0.057296596, -1450166.4, -27130.385, 0.0000030594845, 9.99932, 9.999651 
1.08501755e+3, 1.6479164e+2, -1402452.5, -1333609.6, 73060.6, -0.10109024, 0.094388016, -1287267.9, 37768.344, 0.000000000186287, 9.999325, 10.000239 
1.085016e+3, 1.7478883e+2, -1263951.3, -1214730.9, 73839.58, -0.15014347, -0.22555056, -1161508.3, 65552.78, 0.0, 9.9995985, 10.000252 
1.0850154e+3, 1.8478902e+2, -1090999.4, -1012309.0, 107241.07, -0.14241992, -0.2585899, -937423.3, 191633.31, 0.0, 9.999812, 10.000869 
1.085016e+3, 1.947924e+2, -976188.0, -903858.1, 63944.67, -0.080006294, -0.021203596, -866560.0, 164461.27, 0.0, 9.999919, 10.000888 
1.0850161e+3, 2.047929e+2, -940458.75, -951829.06, 33943.418, -0.045278486, -0.0065720007, -911727.7, 21287.398, 0.0, 9.9999895, 9.999851 
1.0850156e+3, 2.147902e+2, -843054.0, -856764.75, 37394.63, -0.043027036, -0.27464578, -811891.56, 23150.08, 0.0, 9.999997, 9.999827 
1.085015e+3, 2.2478986e+2, -766607.94, -760081.7, 55021.203, -0.07493381, -0.2909991, -708226.94, 28818.111, 0.0, 9.999812, 9.999911 
1.0850144e+3, 2.3479204e+2, -725065.94, -687165.7, 31280.293, -0.14164448, -0.07613649, -669543.06, -30518.857, 0.0, 9.999415, 9.999929 
1.08501405e+3, 2.4479187e+2, -689287.75, -775534.7, -21903.254, -0.09282845, -0.015306663, -684044.0, -143015.7, 0.0, 9.999657, 9.998533 
1.08501405e+3, 2.547891e+2, -461004.5, -615746.0, 3993.1711, 0.0821131, -0.15553196, -460901.5, -17841.592, 0.0, 10.000558, 9.998523 
1.0850125e+3, 2.6478812e+2, -178815.1, -222887.45, 19701.563, 0.070342526, -0.19306587, -171292.1, 173775.3, 0.000000020287489, 10.000937, 10.000362 
1.08500905e+3, 2.7478895e+2, -109940.01, -132724.66, -39550.223, -0.14331879, -0.16442665, -80174.04, 166875.9, 0.0000009638229, 10.000711, 10.000417 
1.08500846e+3, 2.8478828e+2, -271482.34, -546373.0, -29173.055, -0.1028621, -0.101501316, -268420.44, -119360.945, 0.000015514439, 10.000594, 9.996962 
1.0850106e+3, 2.9478598e+2, -185037.75, -458060.03, 15962.955, 0.22049123, -0.036890797, -184107.6, -133009.56, 0.000103128805, 10.000535, 9.996921 
1.0850108e+3, 3.0478486e+2, -11133.469, -139523.52, 68012.26, 0.2809897, 0.06875255, 18195.13, 18195.13, 0.00032888475, 10.000494, 9.9987955 
1.0850083e+3, 3.147829e+2, 98287.67, 103562.38, 23318.613, 0.0534985, -0.025783334, 124392.31, 124392.31, 0.0006833059, 10.000401, 10.00051 
1.0950237e+3, 1.24788895e+2, -1711461.3, -1736881.6, -57996.83, -0.047127474, -0.33375543, -1664798.1, 52249.82, 0.000734217, 10.000115, 9.999781 
1.0950182e+3, 1.3479103e+2, -1663357.5, -1675629.5, -68048.42, -0.27979857, -0.1027484, -1601169.0, 17863.217, 0.00033773432, 9.999829, 9.999678 
1.0950188e+3, 1.4479111e+2, -1526138.8, -1434587.0, 28171.346, -0.038144995, -0.11217508, -1426612.9, 94419.766, 0.0000845864, 9.999565, 10.000778 
1.0950177e+3, 1.5478954e+2, -1463673.3, -1352562.3, 76606.14, -0.104327776, -0.3613062, -1313487.4, 109557.69, 0.0000043925156, 9.999319, 10.000786 
1.095017e+3, 1.6479062e+2, -1386588.6, -1304388.3, 78702.47, -0.11148855, -0.31200668, -1256700.4, 68333.73, 0.0000000006358386, 9.999335, 10.000438 
1.095017e+3, 1.7479448e+2, -1245078.5, -1184708.8, 89919.18, -0.017445888, 0.016224084, -1120043.4, 106955.67, 0.0, 9.999629, 10.000447 
1.0950164e+3, 1.8479508e+2, -1166757.4, -1163957.6, 106220.2, -0.036754165, 0.06381467, -1059128.1, 69865.984, 0.0, 9.999793, 9.999835 
1.095015e+3, 1.9479202e+2, -1056632.1, -1061238.1, 73647.1, -0.18513075, -0.2352653, -985252.0, 45771.1, 0.0, 9.999879, 9.999826 
1.09501466e+3, 2.0479189e+2, -932408.0, -925957.5, 28260.346, -0.2046112, -0.24078004, -900738.94, 32285.48, 0.0, 9.999947, 10.0000515 
1.0950154e+3, 2.1479484e+2, -833056.9, -823840.06, 41955.453, -0.07914867, 0.035570513, -786240.7, 48755.51, 0.0, 9.999943, 10.000081 
1.0950156e+3, 2.2479464e+2, -810857.25, -837080.56, 35425.05, -0.012347496, 0.042198993, -786195.25, -49197.473, 0.0, 9.999747, 9.9994135 
1.09501526e+3, 2.3479088e+2, -767598.56, -765890.7, 22442.297, -0.009049766, -0.28687668, -744286.1, -105253.1, 0.0, 9.999371, 9.999412 
1.09501414e+3, 2.4479017e+2, -637217.94, -657650.1, 5768.2993, -0.054650553, -0.29377776, -635701.94, -94661.29, 0.0, 9.999614, 9.999364 
1.09501235e+3, 2.5479272e+2, -404232.44, -490586.03, 44029.848, -0.14811659, 0.00959349, -385741.88, 57276.953, 0.0, 10.000525, 9.999398 
1.09501146e+3, 2.6479197e+2, -286147.75, -432480.94, 9552.175, -0.13097624, 0.018020099, -285526.84, 59499.105, 0.00000010014453, 10.000881, 9.998949 
1.0950114e+3, 2.7478746e+2, -214290.3, -344589.2, -39726.72, -0.0009953211, -0.34134254, -203133.36, 43932.465, 0.0000018004142, 10.000689, 9.998972 
1.09501064e+3, 2.8478578e+2, -181205.72, -357798.75, -36784.24, 0.049246825, -0.36891967, -173849.97, -24766.125, 0.000016749296, 10.000583, 9.998265 
1.0950093e+3, 2.947872e+2, -92139.836, -264319.7, 20456.682, 0.022361543, -0.06605409, -89742.75, -38665.17, 0.00009990713, 10.000522, 9.998263 
1.09500974e+3, 3.0478707e+2, -66139.016, -242422.23, 62607.805, 0.12222987, 0.10564424, -46166.42, -46166.42, 0.00031833493, 10.000453, 9.998104 
1.0950116e+3, 3.1478274e+2, 33755.746, -22911.24, 31844.557, 0.3098803, -0.15400794, 48046.926, 48046.926, 0.00066799513, 10.000365, 9.99966 
1.105022e+3, 1.24790445e+2, -2098748.5, -1914160.8, -77939.984, -0.08745974, -0.335133, -1885653.9, -168619.06, 0.00083503575, 9.997406, 9.999873 
1.105018e+3, 1.3479309e+2, -1653506.3, -1668453.9, 2849.0437, -0.26885703, -0.057286274, -1652981.6, -33967.086, 0.0003918232, 9.99987, 9.999712 
1.10501915e+3, 1.4479314e+2, -1357864.0, -1360766.9, 44336.39, -0.013893523, -0.069610044, -1314955.3, 206059.1, 0.000102570426, 10.000752, 10.000711 
1.1050172e+3, 1.547909e+2, -1388574.9, -1323170.3, -9387.158, -0.11077707, -0.37790886, -1321849.6, 101181.13, 0.0000061708192, 9.999863, 10.000723 
1.1050161e+3, 1.6479163e+2, -1367076.4, -1293018.3, -18995.762, -0.12814659, -0.36141068, -1288430.1, 36591.367, 0.0000000015512864, 9.999464, 10.000454 
1.1050166e+3, 1.7479554e+2, -1234079.6, -1174883.6, -31057.723, -0.017893432, -0.030984737, -1161579.1, 65405.55, 0.0, 9.999694, 10.00048 
1.1050161e+3, 1.8479598e+2, -1178229.6, -1211982.6, 6618.5405, -0.037346467, 0.01806661, -1176978.1, -47996.65, 0.0, 9.999891, 9.99946 
1.1050147e+3, 1.9479255e+2, -1063914.3, -1106693.6, 16234.06, -0.2124595, -0.2806541, -1058451.3, -27435.348, 0.0, 10.000009, 9.999452 
1.1050143e+3, 2.0479226e+2, -932826.0, -925985.6, -7447.214, -0.23109467, -0.2808837, -921210.75, 11808.241, 0.0, 9.9999485, 10.0000515 
1.1050153e+3, 2.147953e+2, -862583.0, -836818.44, -24237.607, -0.07091494, 0.003990429, -822252.3, 12736.469, 0.0, 9.999741, 10.00009 
1.10501565e+3, 2.2479507e+2, -786598.8, -835315.2, -7252.993, 0.007184746, 0.012980973, -785541.9, -48551.848, 0.0, 9.999957, 9.99932 
1.1050151e+3, 2.3479122e+2, -597486.7, -694763.56, 1039.4108, -0.00733509, -0.3179885, -597475.6, 41550.996, 0.0, 10.000589, 9.999309 
1.10501416e+3, 2.4479045e+2, -488644.84, -545181.75, -12637.992, -0.054047942, -0.34246397, -485948.4, 55085.227, 0.0, 10.000463, 9.999726 
1.10501245e+3, 2.54793e+2, -526225.3, -507800.22, -25697.332, -0.13250944, -0.074031405, -489713.97, -46704.824, 0.0, 9.999514, 9.999766 
1.105012e+3, 2.647924e+2, -538172.56, -651111.44, -33351.223, -0.091393076, -0.023446113, -529059.2, -184042.81, 0.00000018749917, 9.999567, 9.998083 
1.1050127e+3, 2.7478835e+2, -285339.38, -481564.34, -51600.04, 0.076646365, -0.24868493, -272597.78, -25538.791, 0.0000025324416, 10.000643, 9.998056 
1.105012e+3, 2.8478646e+2, -75257.95, -236650.33, -66935.625, 0.10570985, -0.2793563, -51110.195, 97969.24, 0.000018771152, 10.001018, 9.998883 
1.10500954e+3, 2.9478702e+2, -35734.344, -164381.05, -76660.48, -0.004737617, -0.12966202, 13.894058, 51089.19, 0.0001004618, 10.000601, 9.998909 
1.1050098e+3, 3.0478695e+2, -56435.273, -251095.97, -16331.569, 0.07558726, 0.021021029, -55074.605, -55074.605, 0.00031494282, 10.000556, 9.998008 
1.1050121e+3, 3.1478354e+2, 73428.31, -19246.715, -20757.33, 0.31861833, -0.13871352, 77865.125, 77865.125, 0.0006609386, 10.000709, 9.999517 
1.1150194e+3, 1.2479378e+2, -2033374.0, -1763854.8, -27493.049, -0.10778682, -0.11855052, -1761078.9, -44069.164, 0.000944546, 9.997361, 10.000919 
1.1150178e+3, 1.3479404e+2, -1588134.4, -1525080.8, 103655.11, -0.28439906, -0.17544208, -1448264.0, 170741.92, 0.00045159098, 9.999849, 10.000702 
1.1150196e+3, 1.447945e+2, -1438187.9, -1534387.0, 8484.153, -0.05764611, -0.13772056, -1437445.4, 83555.98, 0.00012308804, 10.000775, 9.999511 
1.1150169e+3, 1.5479557e+2, -1475475.5, -1504541.4, -39183.19, -0.14304537, 0.008030079, -1448217.0, -25225.047, 0.000008505592, 9.999863, 9.999481 
1.115015e+3, 1.647948e+2, -1381185.6, -1322954.4, -17104.979, -0.20061332, -0.052808784, -1318301.6, 6695.3633, 0.0000000033697685, 9.999465, 10.00025 
1.1150148e+3, 1.7479202e+2, -1246701.6, -1202457.1, -18063.32, -0.18593447, -0.3695744, -1196019.3, 30998.479, 0.0, 9.999697, 10.000292 
1.1150146e+3, 1.8479174e+2, -1158659.0, -1167842.4, 5471.544, -0.18636791, -0.3970238, -1156107.8, -27089.18, 0.0, 9.999877, 9.999768 
1.1150148e+3, 1.947941e+2, -1046420.9, -1063393.8, 23606.346, -0.21192218, -0.15363187, -1029821.9, 1176.8491, 0.0, 9.999977, 9.9997635 
1.1150149e+3, 2.0479412e+2, -955783.44, -966092.6, -23257.121, -0.17307107, -0.124900505, -937116.56, -4118.37, 0.0, 9.999913, 9.999792 
1.11501515e+3, 2.1479157e+2, -889837.6, -881898.4, -27675.45, -0.06204665, -0.3750136, -857909.3, -22889.756, 0.0, 9.999688, 9.999805 
1.115015e+3, 2.2479117e+2, -771894.6, -792948.6, 10734.46, -0.06105308, -0.3837391, -767386.8, -30364.771, 0.0, 9.9999075, 9.999635 
1.1150142e+3, 2.3479308e+2, -579917.3, -648128.3, 29650.982, -0.17475282, -0.16999234, -568830.3, 70174.27, 0.0, 10.000543, 9.999654 
1.1150139e+3, 2.4479274e+2, -508037.1, -573039.44, -50758.633, -0.1320477, -0.16084953, -480265.8, 60740.965, 0.0, 10.000407, 9.999563 
1.11501426e+3, 2.5478992e+2, -541935.5, -538445.2, -54317.652, 0.08070539, -0.4139618, -485844.7, -42813.414, 0.0, 9.9995, 9.999564 
1.115014e+3, 2.647895e+2, -565007.06, -701499.3, 1103.1829, 0.14243901, -0.320007, -564998.2, -219958.95, 0.00000020790911, 9.999543, 9.997749 
1.1150132e+3, 2.7479163e+2, -311884.7, -530392.2, -2753.0557, 0.042834383, 0.10641224, -311850.0, -64820.066, 0.0000030041272, 10.000612, 9.997738 
1.11501224e+3, 2.847904e+2, -90652.71, -256255.61, -82527.69, 0.020860614, 0.16282654, -56548.65, 92497.45, 0.000021469468, 10.000965, 9.998774 
1.1150112e+3, 2.9478553e+2, -43490.242, -181440.58, -81734.766, 0.087748475, -0.22146863, -5516.148, 45574.04, 0.00010445724, 10.000602, 9.998791 
1.1150106e+3, 3.0478454e+2, -23006.89, -180251.31, -11780.976, 0.100717105, -0.17581673, -22129.143, -22129.143, 0.00031704624, 10.000553, 9.998495 
1.1150098e+3, 3.1478506e+2, 95220.93, 36861.785, -1183.6183, -0.017729169, 0.008229992, 95244.93, 95244.93, 0.00065944524, 10.000663, 9.999926 
1.1250173e+3, 1.247957e+2, -1824910.6, -1633389.0, -8553.202, -0.10750507, -0.01903517, -1633007.8, 83987.98, 0.0010643419, 9.99864, 10.001208 
1.1250168e+3, 1.3479568e+2, -1676886.0, -1540081.0, 86876.65, -0.3336451, -0.12835851, -1497910.3, 121081.2, 0.00051804923, 9.999113, 10.000956 
1.1250189e+3, 1.4479597e+2, -1666219.3, -1687780.9, -62449.938, -0.12755853, -0.102946684, -1613626.4, -92638.84, 0.00014661087, 9.999399, 9.999122 
1.12501696e+3, 1.5479673e+2, -1558776.6, -1589765.1, -63505.72, -0.092381254, 0.052362204, -1508902.3, -85919.71, 0.00001150662, 9.999486, 9.999079 
1.1250152e+3, 1.6479559e+2, -1369375.4, -1329802.6, 27618.6, -0.13688026, -0.019736463, -1315614.1, 9376.947, 0.0000000061074554, 9.999602, 10.000136 
1.12501405e+3, 1.7479232e+2, -1242229.5, -1210932.9, 24720.135, -0.22868802, -0.3753919, -1197324.5, 29689.928, 0.0, 9.999775, 10.000195 
1.1250141e+3, 1.8479177e+2, -1189704.6, -1217560.5, 30829.059, -0.22428758, -0.4095395, -1169803.4, -40786.18, 0.0, 9.999809, 9.999464 
1.1250154e+3, 1.9479413e+2, -1104074.3, -1126343.3, -8749.025, -0.12807721, -0.13409463, -1101048.3, -70049.516, 0.0, 9.999725, 9.999458 
1.1250156e+3, 2.0479389e+2, -965246.75, -973552.94, -57202.77, -0.08678551, -0.11543997, -912046.5, 20954.357, 0.0, 9.999866, 9.99976 
1.1250148e+3, 2.1479075e+2, -808374.6, -844148.2, -55000.938, -0.10227481, -0.4219174, -768425.1, 66601.49, 0.0, 10.000256, 9.999787 
1.1250144e+3, 2.2479028e+2, -716550.06, -758585.94, -5942.956, -0.122315645, -0.44067648, -715726.06, 21302.959, 0.0, 10.000255, 9.999707 
1.12501465e+3, 2.347927e+2, -672822.3, -681099.7, -18491.078, -0.14400193, -0.18109499, -658012.44, -19006.25, 0.0, 9.999864, 9.999752 
1.1250149e+3, 2.447923e+2, -545430.44, -629760.06, -103975.31, -0.064471036, -0.1674745, -475395.72, 65613.33, 0.0, 10.000319, 9.999212 
1.12501524e+3, 2.5478873e+2, -254001.5, -440545.75, -128648.58, 0.12534665, -0.45849657, -188370.69, 254670.08, 0.0, 10.001657, 9.999195 
1.1250149e+3, 2.6478803e+2, -219279.36, -505103.47, -57461.81, 0.1628947, -0.38585815, -208159.88, 136890.6, 0.00000016860811, 10.001795, 9.998011 
1.1250137e+3, 2.7479035e+2, -291667.4, -486793.4, -29919.326, 0.037279036, 0.029618204, -287182.84, -40145.414, 0.0000038179373, 10.000614, 9.998029 
1.1250128e+3, 2.847893e+2, -226853.47, -344535.84, -81686.35, 0.035079956, 0.09792124, -185022.19, -35970.543, 0.000026281929, 10.000117, 9.99858 
1.1250125e+3, 2.9478464e+2, -106554.96, -232238.02, -99432.62, 0.17403743, -0.2438453, -51770.375, -675.0822, 0.00011318937, 10.0002575, 9.998609 
1.12501174e+3, 3.047837e+2, -44574.08, -162683.4, -25578.877, 0.16926382, -0.19921367, -39272.45, -39272.45, 0.0003258272, 10.000292, 9.998737 
1.1250095e+3, 3.1478384e+2, 18584.564, 5587.825, -50923.527, -0.06883253, -0.07328274, 63422.676, 63422.676, 0.0006650931, 10.000095, 9.999994 
1.1350156e+3, 1.2479619e+2, -1850684.3, -1680065.1, -29907.896, -0.16492522, -0.045173246, -1674974.5, 42018.723, 0.0011953667, 9.998633, 10.000881 
1.1350147e+3, 1.3479812e+2, -1709829.5, -1597496.1, 107828.07, -0.47122505, 0.080018856, -1532083.3, 86886.75, 0.00059164723, 9.999079, 10.000573 
1.135017e+3, 1.4479767e+2, -1640155.5, -1632252.8, -63299.57, -0.27659127, 0.03140481, -1572781.4, -51809.38, 0.00017336896, 9.999387, 9.999514 
1.1350174e+3, 1.5479456e+2, -1527459.9, -1529645.9, -54001.9, -0.0010677457, -0.24176759, -1474540.0, -51538.418, 0.000015247707, 9.999503, 9.999486 
1.13501646e+3, 1.6479415e+2, -1368690.9, -1332482.8, 28738.354, 0.015618868, -0.25961038, -1316621.4, 8381.019, 0.000000009421829, 9.999617, 10.00011 
1.1350143e+3, 1.747965e+2, -1242978.1, -1215153.1, 35374.574, -0.19443743, -0.050995458, -1191053.5, 35920.17, 0.0, 9.9997835, 10.000162 
1.1350143e+3, 1.8479612e+2, -1254987.6, -1353364.3, 22356.031, -0.19833614, -0.02203731, -1250145.5, -121168.74, 0.0, 9.99981, 9.998531 
1.13501646e+3, 1.947927e+2, -1174214.3, -1266662.6, -7570.1416, -0.0014099804, -0.22770143, -1173598.5, -142583.27, 0.0, 9.9997015, 9.9985075 
1.1350164e+3, 2.0479159e+2, -958925.94, -952498.94, -49270.79, -0.010939435, -0.25630122, -906337.0, 26689.553, 0.0, 9.99983, 9.999923 
1.1350138e+3, 2.1479289e+2, -803527.25, -820353.44, -37986.27, -0.23145773, -0.135709, -773033.56, 61975.62, 0.0, 10.000195, 9.999982 
1.1350138e+3, 2.2479247e+2, -740245.94, -790652.44, -27315.514, -0.22016215, -0.15195422, -728282.8, 8727.305, 0.0, 10.000184, 9.999519 
1.13501646e+3, 2.3479009e+2, -695652.2, -717134.1, -29079.018, 0.04028557, -0.3546847, -675393.8, -36362.363, 0.0, 9.999814, 9.999527 
1.1350171e+3, 2.4478905e+2, -587091.9, -708195.0, -60117.12, 0.1061914, -0.36696574, -562317.25, -21276.316, 0.0, 10.000281, 9.998693 
1.1350154e+3, 2.5478944e+2, -292171.28, -512972.7, -73977.45, -0.035847504, -0.20970348, -269677.38, 173360.31, 0.0, 10.001624, 9.998715 
1.1350144e+3, 2.6478806e+2, -166100.23, -384912.22, -101864.6, -0.06898802, -0.22569197, -126020.21, 219029.92, 0.00000020663475, 10.001752, 9.998858 
1.13501415e+3, 2.7478454e+2, -235527.16, -367275.13, -66106.02, 0.01513488, -0.4763082, -208077.05, 39004.266, 0.0000055002247, 10.000598, 9.998861 
1.1350138e+3, 2.8478315e+2, -250591.4, -387700.1, -82102.1, 0.102488495, -0.47072148, -212185.69, -63089.207, 0.00003348498, 10.000093, 9.998294 
1.1350132e+3, 2.947842e+2, -130257.25, -274974.5, -86943.516, 0.20594147, -0.21128224, -89501.13, -38408.438, 0.00012691141, 10.000227, 9.99833 
1.1350127e+3, 3.047842e+2, -50819.23, -162308.31, -34488.707, 0.23312786, -0.06028995, -41012.84, -41012.84, 0.00034269877, 10.000237, 9.998762 
1.13501124e+3, 3.1478006e+2, -3108.6235, -23896.58, -44686.004, 0.067543074, -0.3688645, 32376.303, 32376.303, 0.00068300014, 10.000038, 9.999811 
1.1450149e+3, 1.2479721e+2, -1586782.5, -1609620.1, -36040.14, -0.19636981, -0.039562512, -1560395.5, 156584.2, 0.0013373722, 10.000666, 10.000402 
1.1450149e+3, 1.3479789e+2, -1762111.3, -1679580.8, 94053.42, -0.34621885, 0.009702623, -1618138.3, 831.53326, 0.000672049, 9.998941, 10.0000925 
1.1450167e+3, 1.4479719e+2, -1705115.1, -1627675.9, -18284.926, -0.20846455, -0.05347332, -1623575.5, -102601.805, 0.0002032588, 9.998794, 9.9998255 
1.14501745e+3, 1.5479456e+2, -1395388.8, -1432271.9, -31642.33, 0.009710761, -0.3097132, -1377206.1, 45790.94, 0.000019742625, 10.000267, 9.9997835 
1.1450167e+3, 1.647943e+2, -1228279.3, -1310174.4, 6470.4395, 0.02876006, -0.3065562, -1227771.3, 97225.766, 0.000000013934886, 10.000778, 9.9997015 
1.145015e+3, 1.7479652e+2, -1202627.0, -1244526.1, -27608.764, -0.117111735, -0.06917319, -1188919.3, 38053.28, 0.0, 10.00027, 9.999726 
1.1450149e+3, 1.8479614e+2, -1196750.3, -1294896.9, 6000.7017, -0.13268675, -0.030606817, -1196384.8, -67408.664, 0.0, 10.000092, 9.998791 
1.14501625e+3, 1.9479288e+2, -1066017.5, -1180276.0, 57319.74, -0.031019947, -0.24844031, -1042218.94, -11208.368, 0.0, 10.000313, 9.998796 
1.1450161e+3, 2.0479178e+2, -885526.5, -959019.44, 60197.516, -0.047649346, -0.2719757, -851746.06, 81275.555, 0.0, 10.000511, 9.999554 
1.1450148e+3, 2.1479298e+2, -760829.2, -841378.94, 19353.96, -0.17920834, -0.12262262, -756420.25, 78587.336, 0.0, 10.00067, 9.99961 
1.1450149e+3, 2.2479244e+2, -668436.3, -773504.2, 1240.3287, -0.1528612, -0.12357403, -668421.7, 68588.94, 0.0, 10.000744, 9.999369 
1.1450167e+3, 2.347899e+2, -578430.4, -678672.1, -5930.514, 0.041884493, -0.32797307, -578080.7, 60952.414, 0.0, 10.000683, 9.999379 
1.1450172e+3, 2.4478859e+2, -544326.2, -723519.4, 19485.887, 0.073778585, -0.34318927, -542231.75, -1186.2094, 0.0, 10.000736, 9.998367 
1.1450163e+3, 2.5478858e+2, -410759.3, -603580.8, 7225.9214, -0.06939391, -0.19228244, -410488.9, 32558.516, 0.0, 10.000968, 9.998403 
1.14501536e+3, 2.6478696e+2, -261927.05, -367312.06, -79380.875, -0.09500311, -0.2441274, -219341.94, 125718.44, 0.00000038376965, 10.000813, 9.999435 
1.14501454e+3, 2.747834e+2, -250289.61, -308826.22, -72403.96, 0.0065218597, -0.55834186, -201462.03, 45624.754, 0.0000075917305, 10.000207, 9.9994545 
1.14501394e+3, 2.8478196e+2, -236794.39, -409455.0, -32344.096, 0.09643641, -0.57585526, -230934.34, -81833.64, 0.00004126663, 10.000313, 9.998036 
1.14501365e+3, 2.9478294e+2, -17477.213, -251633.69, -45744.996, 0.18705876, -0.2975076, -8857.723, 42241.836, 0.00014267156, 10.001136, 9.998052 
1.1450133e+3, 3.0478305e+2, 69590.13, -91503.766, -25935.684, 0.22841623, -0.1274252, 73662.75, 73662.75, 0.00036406744, 10.001, 9.998884 
1.1450115e+3, 3.1477925e+2, -56323.11, -53117.26, -53654.473, 0.10946176, -0.41478768, -1041.775, -1041.775, 0.00071071996, 9.999696, 9.999771 
1.15501486e+3, 1.24798715e+2, -1634894.4, -1695816.5, -113071.45, -0.28732416, -0.013830248, -1548252.8, 168702.97, 0.001489488, 10.000613, 9.999831 
1.1550173e+3, 1.3479525e+2, -1794463.3, -1747962.6, 35822.293, -0.006150195, -0.33261523, -1728506.8, -109518.81, 0.00075867696, 9.998953, 9.999611 
1.15501806e+3, 1.4479479e+2, -1693172.9, -1613364.1, 32065.8, 0.035155077, -0.35063282, -1602077.0, -81086.52, 0.0002361324, 9.998827, 9.999915 
1.1550166e+3, 1.5479681e+2, -1382652.1, -1409839.5, 29182.563, -0.11032015, -0.15477695, -1364052.5, 58916.074, 0.000024990082, 10.0002775, 9.999935 
1.1550159e+3, 1.6479611e+2, -1286520.5, -1428422.0, -17748.244, -0.14895903, -0.16487549, -1284334.3, 40640.074, 0.000000023716384, 10.000768, 9.998896 
1.1550162e+3, 1.7479245e+2, -1262160.0, -1364436.4, -43121.22, -0.03405888, -0.43251875, -1246406.0, -19395.865, 0.0, 10.0002575, 9.998907 
1.15501575e+3, 1.8479195e+2, -1098583.5, -1091625.1, 8590.122, -0.06432896, -0.43344024, -1085836.4, 43177.473, 0.0, 10.000089, 10.00019 
1.15501426e+3, 1.9479473e+2, -967338.2, -971092.25, 69269.4, -0.26342458, -0.19367102, -899920.4, 131063.61, 0.0, 10.000286, 10.000249 
1.1550148e+3, 2.047945e+2, -954280.3, -1091605.6, 57541.95, -0.24591438, -0.1596727, -933357.06, -371.4473, 0.0, 10.000468, 9.998663 
1.1550173e+3, 2.1479098e+2, -834988.06, -983025.4, 29447.436, 0.008945202, -0.38941726, -829345.5, 5676.445, 0.0, 10.000614, 9.998665 
1.1550176e+3, 2.2479016e+2, -686643.7, -795209.25, -6113.14, 0.039475884, -0.36373302, -686300.56, 50730.156, 0.0, 10.000677, 9.999251 
1.1550152e+3, 2.3479219e+2, -591361.94, -693543.6, -3548.521, -0.17782353, -0.10196522, -591238.9, 47771.523, 0.0, 10.000634, 9.999299 
1.1550152e+3, 2.4479099e+2, -564178.2, -753482.3, 21297.9, -0.2018874, -0.095378906, -561811.6, -20789.324, 0.0, 10.000688, 9.998184 
1.1550179e+3, 2.5478622e+2, -431993.8, -637151.4, 19680.137, -0.01619285, -0.40585375, -430123.03, 12946.701, 0.0, 10.00092, 9.998194 
1.1550177e+3, 2.6478475e+2, -247054.69, -326824.44, -105945.44, 0.04691453, -0.4414494, -173735.14, 171346.23, 0.0000005356376, 10.000771, 9.999734 
1.1550144e+3, 2.7478683e+2, -230616.05, -256669.06, -89519.234, -0.030563321, -0.22735392, -153180.5, 93874.734, 0.000008957139, 10.000158, 9.999836 
1.1550131e+3, 2.8478572e+2, -257310.97, -437156.78, -4677.1978, -0.028845372, -0.22658357, -257189.42, -108124.48, 0.000047151985, 10.000252, 9.997875 
1.1550138e+3, 2.9478103e+2, -34779.52, -285297.7, -3502.1365, 0.06963566, -0.49115044, -34730.574, 16383.486, 0.00015594735, 10.001122, 9.997829 
1.1550132e+3, 3.0478036e+2, 69650.12, -81983.414, -73440.74, 0.11245915, -0.3901612, 99387.72, 99387.72, 0.0003853337, 10.000966, 9.998963 
1.15501e+3, 3.1478128e+2, -67780.836, -59911.28, -89230.17, -0.031602323, -0.21879798, 25470.83, 25470.83, 0.00074189703, 9.999626, 9.999755 
1.16501525e+3, 1.24797724e+2, -1891137.5, -1822818.3, -183071.44, -0.224547, -0.11241329, -1670746.8, 46215.34, 0.0016512593, 9.998874, 9.999788 
1.1650177e+3, 1.3479468e+2, -1631397.0, -1667446.5, -28578.34, 0.08623264, -0.39213848, -1615634.0, 3356.9358, 0.0008513687, 10.000063, 9.999627 
1.16501756e+3, 1.4479466e+2, -1446384.3, -1502642.1, 20823.645, 0.014248517, -0.36258832, -1439515.1, 81474.39, 0.00027198074, 10.000565, 9.999832 
1.1650168e+3, 1.5479681e+2, -1393918.5, -1425441.5, -11962.343, -0.11352973, -0.14417048, -1389893.1, 33073.652, 0.00003101119, 10.000249, 9.999841 
1.1650162e+3, 1.6479607e+2, -1428279.3, -1499832.5, -68692.52, -0.13407926, -0.15271267, -1386605.0, -61631.363, 0.00000004774233, 9.999812, 9.998864 
1.1650162e+3, 1.747922e+2, -1404986.0, -1436322.5, -46609.176, -0.008013906, -0.43748263, -1371482.0, -144469.7, 0.0, 9.999293, 9.9988785 
1.1650158e+3, 1.8479152e+2, -1181464.9, -1120841.5, 37194.824, -0.037343737, -0.46055174, -1103171.4, 25845.867, 0.0, 9.999467, 10.000291 
1.1650148e+3, 1.9479415e+2, -943622.4, -947377.2, -10509.641, -0.24782592, -0.24468994, -934823.8, 96162.98, 0.0, 10.000393, 10.000362 
1.1650155e+3, 2.0479396e+2, -937758.56, -1081362.1, -58732.18, -0.22175589, -0.21461843, -916797.44, 16190.008, 0.0, 10.000578, 9.998675 
1.16501816e+3, 2.1479069e+2, -929254.56, -1024572.2, -29218.283, 0.06818195, -0.42312184, -921011.06, -85988.98, 0.0, 9.999957, 9.998692 
1.1650185e+3, 2.2478981e+2, -771339.75, -868420.75, 7107.617, 0.09403674, -0.389966, -770822.2, -33789.75, 0.0, 10.000236, 9.9989605 
1.16501644e+3, 2.3479141e+2, -486709.3, -676069.8, -16852.814, -0.165706, -0.13918774, -485221.13, 153796.45, 0.0, 10.001498, 9.9990015 
1.16501644e+3, 2.4479032e+2, -425986.78, -650389.44, -17427.902, -0.18369554, -0.122427486, -424641.34, 116387.37, 0.0, 10.001476, 9.998513 
1.1650192e+3, 2.5478625e+2, -537647.4, -653151.0, 9181.737, 0.060460895, -0.39463344, -536922.06, -93853.75, 0.0, 10.0000305, 9.998521 
1.1650188e+3, 2.647851e+2, -412064.38, -454228.38, -78944.3, 0.12950718, -0.3925455, -351435.6, -6357.7573, 0.00000056359414, 9.999851, 9.999295 
1.1650154e+3, 2.7478713e+2, -131488.11, -260188.73, -135849.44, 0.004755512, -0.13950624, -45518.652, 201536.97, 0.0000092835935, 10.001068, 9.999372 
1.1650137e+3, 2.8478578e+2, -76288.89, -308468.25, -67565.06, -0.035621077, -0.15594359, -58058.61, 91008.83, 0.000049926817, 10.00131, 9.998253 
1.16501406e+3, 2.947808e+2, -102216.1, -268150.3, -36343.816, 0.025870893, -0.4916801, -94604.984, -43489.063, 0.00016435768, 10.00046, 9.998261 
1.1650132e+3, 3.047802e+2, -24628.875, -129041.77, -86280.98, 0.05173478, -0.40931892, 24010.695, 24010.695, 0.00040264626, 10.000322, 9.998957 
1.16500966e+3, 3.1478176e+2, 77188.9, -18095.762, -126713.73, -0.078134984, -0.16224249, 164920.72, 164920.72, 0.0007699058, 10.000728, 9.999527 
1.1750159e+3, 1.2479432e+2, -1867874.9, -1769187.4, -111851.73, -0.06756414, -0.34950122, -1696278.9, 20718.996, 0.0018234614, 9.998857, 10.000163 
1.175016e+3, 1.3479628e+2, -1597703.3, -1597496.5, 20541.393, -0.10663259, -0.1752522, -1577058.1, 41919.477, 0.0009506097, 10.00006, 10.00011 
1.1750149e+3, 1.4479692e+2, -1470365.6, -1547209.3, 6745.306, -0.32069117, -0.09338808, -1469778.0, 51192.207, 0.00031097958, 10.000539, 9.999539 
1.1750178e+3, 1.547947e+2, -1415547.0, -1471571.3, -16569.15, -0.04772727, -0.2808627, -1411013.6, 11976.874, 0.00003785508, 10.000254, 9.999521 
1.1750178e+3, 1.647943e+2, -1378068.3, -1400194.5, -93169.78, 0.022386739, -0.2702508, -1295307.0, 29686.438, 0.00000010132158, 9.999829, 9.99954 
1.17501505e+3, 1.7479585e+2, -1355981.8, -1332470.8, -62244.27, -0.07601858, -0.084692, -1280881.6, -53903.605, 0.0, 9.999282, 9.999598 
1.17501475e+3, 1.8479492e+2, -1267968.6, -1294748.1, 64780.758, -0.09087722, -0.11059136, -1215208.4, -86222.93, 0.0, 9.999445, 9.999107 
1.1750174e+3, 1.9479118e+2, -1035532.3, -1128550.1, 29417.016, -0.033425, -0.41079387, -1027010.0, 4008.574, 0.0, 10.000353, 9.999138 
1.1750182e+3, 2.0479019e+2, -880105.2, -952571.1, -87681.35, -0.020941567, -0.44118202, -821465.4, 111561.05, 0.0, 10.000537, 9.999581 
1.17501706e+3, 2.1479216e+2, -870047.75, -889288.9, -48660.63, -0.045350075, -0.22143836, -830065.75, 4941.4243, 0.0, 9.999901, 9.999648 
1.1750177e+3, 2.247914e+2, -814027.9, -943994.7, 45926.48, -0.027068267, -0.2016632, -799436.9, -62421.414, 0.0, 10.000177, 9.998471 
1.17502004e+3, 2.3478763e+2, -532261.56, -753711.9, 35534.586, 0.032637782, -0.4390231, -526699.3, 112354.82, 0.0, 10.001426, 9.998503 
1.1750208e+3, 2.4478666e+2, -378123.3, -539366.4, -74540.12, 0.08120667, -0.42030916, -348944.75, 192119.28, 0.0, 10.001421, 9.999307 
1.1750199e+3, 2.547887e+2, -479414.4, -528073.7, -38746.35, 0.120533, -0.16785963, -457992.44, -14949.028, 0.0, 10.000009, 9.999392 
1.1750187e+3, 2.6478806e+2, -504295.72, -636365.9, -39667.047, 0.11633257, -0.10240474, -493297.66, -148247.86, 0.0000005132723, 9.999812, 9.998063 
1.17501706e+3, 2.7478436e+2, -229151.02, -453128.13, -81573.28, 0.061420467, -0.29286897, -202591.25, 44496.086, 0.000009280944, 10.001026, 9.998066 
1.1750157e+3, 2.8478226e+2, -25539.59, -194472.11, -100122.484, 0.023972431, -0.3547863, 20986.75, 170094.16, 0.000050485156, 10.001271, 9.999056 
1.1750145e+3, 2.9478198e+2, -37857.063, -133130.27, -61020.895, 0.009558162, -0.31015754, -8080.516, 43026.707, 0.00016787817, 10.0004425, 9.999201 
1.1750132e+3, 3.0478215e+2, -28622.49, -121629.305, -71386.89, 0.0058328905, -0.20495945, 10071.845, 10071.845, 0.00041124245, 10.000262, 9.999033 
1.1750101e+3, 3.1478104e+2, 49726.96, -57336.383, -95260.01, -0.12917794, -0.2287655, 105466.09, 105466.09, 0.00078260904, 10.000662, 9.999283 
1.18501574e+3, 1.2479472e+2, -1578152.3, -1658178.6, 78839.3, -0.068611465, -0.33313197, -1529753.4, 187240.52, 0.0020081834, 10.000975, 9.999904 
1.1850166e+3, 1.3479666e+2, -1471266.4, -1553834.0, 92150.45, -0.08883375, -0.14566024, -1411574.8, 207399.0, 0.0010574218, 10.001006, 9.999956 
1.185015e+3, 1.4479706e+2, -1447926.1, -1552411.0, 34597.746, -0.3653655, -0.07140105, -1437508.5, 83460.055, 0.00035351914, 10.0007715, 9.999386 
1.18501835e+3, 1.5479444e+2, -1425795.6, -1492182.0, 6177.2515, -0.024489792, -0.28703192, -1425225.8, -2232.5935, 0.00004562391, 10.000257, 9.999373 
1.1850184e+3, 1.647939e+2, -1291088.8, -1371284.1, -57475.184, 0.07762219, -0.27613658, -1261106.3, 63890.973, 0.00000019883093, 10.000482, 9.999426 
1.18501574e+3, 1.7479563e+2, -1031200.75, -1186674.1, -94287.49, -0.036163457, -0.06352923, -986736.25, 240243.2, 0.0, 10.001556, 9.999501 
1.18501574e+3, 1.8479452e+2, -1015754.6, -1212917.6, 20003.26, -0.040753607, -0.08453465, -1013745.7, 115243.56, 0.0, 10.001356, 9.998744 
1.18501835e+3, 1.9479027e+2, -1140909.3, -1218562.0, 34138.363, 0.054072574, -0.39938596, -1128035.4, -97006.06, 0.0, 9.999805, 9.99878 
1.1850192e+3, 2.0478922e+2, -976926.3, -991096.7, -36127.31, 0.059069607, -0.42186642, -947196.0, -14157.118, 0.0, 9.999832, 9.99966 
1.18501805e+3, 2.147915e+2, -617333.5, -758254.5, -70139.65, -0.022380287, -0.17667322, -588374.44, 246642.14, 0.0, 10.001591, 9.999738 
1.1850188e+3, 2.247909e+2, -589340.3, -818778.75, -5347.3096, -0.0016363974, -0.15297566, -589215.75, 147807.72, 0.0, 10.001654, 9.998615 
1.1850215e+3, 2.347871e+2, -745077.8, -840040.44, 20080.361, 0.12262017, -0.40792194, -741006.25, -101943.71, 0.0, 9.999894, 9.998647 
1.185022e+3, 2.4478635e+2, -610329.2, -596813.3, -57257.32, 0.16023055, -0.40129644, -545916.5, -4846.9214, 0.0, 9.9996, 9.999784 
1.1850201e+3, 2.5478882e+2, -305089.38, -388785.2, -61711.14, 0.105316915, -0.1528446, -272375.16, 170667.31, 0.0, 10.000981, 9.999873 
1.1850188e+3, 2.647881e+2, -279647.56, -527575.7, -16802.025, 0.069842465, -0.12087612, -278514.06, 66534.58, 0.0000005059796, 10.001347, 9.998075 
1.1850178e+3, 2.747838e+2, -301544.0, -488292.06, 24644.002, 0.054454014, -0.37031972, -298346.63, -51254.223, 0.000009346627, 10.000529, 9.998065 
1.1850165e+3, 2.8478193e+2, -176352.48, -270424.4, 21644.502, 0.033908386, -0.40628862, -171611.36, -22501.13, 0.000050141156, 10.000256, 9.999018 
1.18501514e+3, 2.9478282e+2, -20127.766, -128663.414, -19910.197, 0.01903174, -0.24202472, -16590.637, 34508.27, 0.0001672216, 10.000585, 9.999161 
1.1850138e+3, 3.0478236e+2, 53012.285, -86514.25, -46383.707, 0.024597209, -0.19394718, 67024.68, 67024.68, 0.00040719565, 10.000827, 9.999007 
1.1850113e+3, 3.1477985e+2, 57614.977, -82750.75, -99681.555, -0.08497059, -0.35402566, 109342.11, 109342.11, 0.0007697525, 10.000819, 9.99904 
1.195015e+3, 1.24798924e+2, -1640291.4, -1776917.1, 143077.4, -0.2647266, -0.07673386, -1550055.3, 166895.06, 0.0022081332, 10.0009365, 9.999102 
1.19501956e+3, 1.3479601e+2, -1523072.8, -1660774.5, 98419.35, 0.087408796, -0.3044782, -1471812.0, 147165.25, 0.0011730703, 10.001003, 9.999221 
1.1950179e+3, 1.4479525e+2, -1453536.1, -1567081.1, 10581.723, -0.16750199, -0.30123767, -1452558.5, 68424.71, 0.00040013902, 10.000779, 9.999286 
1.1950182e+3, 1.5479608e+2, -1430561.5, -1502901.1, -8588.167, -0.08140258, -0.16212651, -1429555.9, -6581.763, 0.00005450229, 10.000257, 9.999304 
1.1950182e+3, 1.6479494e+2, -1350541.9, -1493467.5, -24744.299, -0.012113279, -0.16850846, -1346379.3, -21394.88, 0.00000035173326, 10.000477, 9.9985895 
1.19501844e+3, 1.7479162e+2, -1095332.4, -1314354.9, -49278.887, 0.066067584, -0.37497866, -1084755.6, 142260.06, 0.0, 10.001534, 9.998635 
1.1950182e+3, 1.8479042e+2, -987256.25, -1153502.4, -41467.566, 0.06317464, -0.3810311, -977486.9, 151540.48, 0.0, 10.001351, 9.999155 
1.1950173e+3, 1.947915e+2, -1115171.3, -1158394.4, -19837.092, -0.03009809, -0.20704356, -1107447.4, -76429.305, 0.0, 9.999772, 9.999211 
1.1950182e+3, 2.0479102e+2, -1033123.4, -1099059.8, 19666.885, -0.023667075, -0.15693597, -1027702.94, -94678.36, 0.0, 9.999796, 9.998936 
1.1950209e+3, 2.1478882e+2, -680397.25, -871585.7, -306.05222, 0.09019542, -0.28776836, -680396.8, 154652.48, 0.0, 10.001518, 9.998993 
1.1950219e+3, 2.2478841e+2, -546276.25, -714150.4, -74433.23, 0.121035665, -0.24311721, -518027.16, 219028.44, 0.0, 10.001586, 9.999367 
1.1950209e+3, 2.3478992e+2, -698078.06, -729748.2, -41242.08, 0.06552374, -0.046597227, -669735.5, -30693.307, 0.0, 9.99984, 9.999429 
1.1950202e+3, 2.4478939e+2, -606869.7, -583077.9, -13345.227, 0.011761355, -0.060265373, -577096.2, -36051.53, 0.0, 9.999567, 9.999898 
1.1950198e+3, 2.547866e+2, -306162.56, -378334.25, -3410.1968, -0.03882347, -0.34512252, -306001.78, 137063.16, 0.0, 10.000926, 9.999972 
1.1950189e+3, 2.6478526e+2, -203665.36, -358436.34, -49681.953, -0.06072423, -0.44196957, -189089.92, 155984.13, 0.0000006389743, 10.001294, 9.999265 
1.1950173e+3, 2.7478534e+2, -219319.39, -309137.28, 776.0294, -0.058050282, -0.3771132, -219312.69, 27758.955, 0.000009277396, 10.000491, 9.999314 
1.1950161e+3, 2.8478473e+2, -241871.73, -400723.5, 28340.318, -0.040471196, -0.30832782, -236967.05, -87890.47, 0.000049688064, 10.000228, 9.998138 
1.1950156e+3, 2.9478326e+2, -91377.4, -271256.5, 2287.0334, 0.0019669228, -0.28414065, -91348.33, -40257.938, 0.00016438575, 10.000556, 9.998197 
1.195015e+3, 3.0478084e+2, 24231.828, -129591.53, -45637.22, 0.05549985, -0.36986288, 36752.594, 36752.594, 0.00039412428, 10.000764, 9.998735 
1.19501285e+3, 3.1477812e+2, 22674.5, -130107.9, -84914.88, -0.034720816, -0.53467417, 60503.055, 60503.055, 0.0007360574, 10.00072, 9.998755 
1.2050168e+3, 1.2479904e+2, -1612233.8, -1808823.9, 88334.46, -0.19420604, -0.04945389, -1578374.0, 138573.44, 0.0024257244, 10.001333, 9.9986925 
1.205021e+3, 1.3479556e+2, -1589805.6, -1736975.4, -26386.531, 0.15623009, -0.2916185, -1585217.8, 33763.66, 0.0012988481, 10.000727, 9.9988365 
1.2050194e+3, 1.4479436e+2, -1474057.0, -1585541.1, -71849.0, -0.09249452, -0.31156042, -1438862.5, 82129.97, 0.00045139206, 10.000677, 9.9992075 
1.2050189e+3, 1.5479521e+2, -1280298.4, -1435460.3, -103703.375, -0.07820194, -0.16415471, -1228368.0, 194614.83, 0.00006471426, 10.001313, 9.999256 
1.2050188e+3, 1.647939e+2, -1234003.0, -1428228.8, -71459.27, -0.032360893, -0.18754596, -1210545.0, 114449.164, 0.00000057087306, 10.001236, 9.998672 
1.2050194e+3, 1.7479028e+2, -1247343.5, -1377064.9, -37350.21, 0.0679581, -0.4330408, -1237358.0, -10329.447, 0.0, 10.000445, 9.99873 
1.2050191e+3, 1.8478943e+2, -1137366.5, -1188576.5, -13854.351, 0.08213214, -0.42614073, -1133858.6, -4821.734, 0.0, 10.000156, 9.999492 
1.2050178e+3, 1.9479147e+2, -994470.8, -1060905.0, -6740.443, 0.0015222697, -0.18884248, -993793.8, 37224.168, 0.0, 10.000425, 9.999565 
1.2050185e+3, 2.0479132e+2, -976369.44, -1077017.4, 108085.3, 0.015029512, -0.12458238, -907467.0, 25555.012, 0.0, 10.000209, 9.998885 
1.20502174e+3, 2.147887e+2, -981208.9, -1023246.0, 127074.305, 0.12978217, -0.28930175, -873426.56, -38375.12, 0.0, 9.999478, 9.998936 
1.20502256e+3, 2.2478846e+2, -820931.1, -786791.8, 44525.785, 0.15092617, -0.25164452, -756175.8, -19120.363, 0.0, 9.999439, 9.9999075 
1.205021e+3, 2.3479073e+2, -609211.8, -624014.3, 48351.246, 0.07260453, -0.03331603, -567698.6, 71333.53, 0.0, 10.000179, 9.999994 
1.2050202e+3, 2.4479032e+2, -516626.63, -578352.75, 94381.73, 0.005561568, -0.049090594, -448189.94, 92843.71, 0.0, 10.000354, 9.999547 
1.20502e+3, 2.5478688e+2, -482901.0, -506632.88, 59247.668, -0.056781404, -0.3638077, -434342.72, 8720.458, 0.00000000020898414, 9.999887, 9.999595 
1.2050193e+3, 2.6478562e+2, -414688.63, -419502.4, -51505.38, -0.07232434, -0.4464472, -365533.94, -20461.953, 0.00000074892756, 9.999683, 9.999613 
1.2050176e+3, 2.747867e+2, -288374.56, -299296.25, -79404.234, -0.040332437, -0.31601492, -214243.61, 32814.887, 0.000008958339, 9.99984, 9.999689 
1.2050166e+3, 2.8478622e+2, -218715.16, -376742.94, -6958.4546, -0.01752214, -0.26173317, -218409.34, -69348.336, 0.000049074697, 10.000335, 9.998249 
1.20501645e+3, 2.9478383e+2, -1332.9645, -215579.8, 28602.469, 0.0062488355, -0.3372853, 2419.8005, 53501.934, 0.00016160097, 10.001128, 9.9983015 
1.2050164e+3, 3.047806e+2, 156535.25, -94277.375, 20466.67, 0.065360494, -0.49887308, 158194.39, 158194.39, 0.0003810888, 10.001795, 9.998479 
1.2050147e+3, 3.147786e+2, 205933.53, -61752.64, -45785.65, 0.035038665, -0.5654243, 213548.2, 213548.2, 0.00070004223, 10.002083, 9.998557 
1.2150211e+3, 1.2479523e+2, -1619591.9, -1814739.5, 121583.086, 0.086533315, -0.2516992, -1561271.3, 155712.6, 0.0026624324, 10.001305, 9.998659 
1.2150211e+3, 1.347955e+2, -1598798.6, -1752357.5, -47209.637, 0.08107457, -0.10610465, -1585445.8, 33539.03, 0.0014356553, 10.000717, 9.9987335 
1.2150194e+3, 1.4479445e+2, -1474534.0, -1589043.9, -54158.117, -0.17558147, -0.10567107, -1452977.6, 68018.08, 0.0005075534, 10.000684, 9.999183 
1.2150205e+3, 1.5479186e+2, -1283169.3, -1441743.9, -73044.4, -0.063665465, -0.30031887, -1254651.4, 168367.1, 0.000076397075, 10.001312, 9.999215 
1.2150201e+3, 1.647909e+2, -1165311.4, -1287573.1, -107110.59, -0.034549735, -0.33342215, -1103114.8, 221911.13, 0.0000008702971, 10.001244, 9.999633 
1.2150187e+3, 1.747917e+2, -1179546.8, -1234967.3, -64181.113, -0.065733805, -0.23525028, -1137349.4, 89667.84, 0.0, 10.000436, 9.99971 
1.2150183e+3, 1.8479155e+2, -1114600.6, -1142834.3, -10665.561, -0.020651499, -0.22223485, -1111024.6, 17992.95, 0.0, 10.000159, 9.999805 
1.2150193e+3, 1.947903e+2, -977807.3, -1020604.56, 8259.305, 0.09643181, -0.3457051, -976268.7, 54759.72, 0.0, 10.000398, 9.999857 
1.2150199e+3, 2.0479017e+2, -940845.0, -993579.44, 74308.63, 0.11989207, -0.3211201, -888364.25, 44665.99, 0.0, 10.000168, 9.999477 
1.2150205e+3, 2.1479124e+2, -947971.7, -938985.44, 103560.664, 0.051546194, -0.17892165, -839820.44, -4797.923, 0.0, 9.999413, 9.999544 
1.2150211e+3, 2.247911e+2, -807802.25, -747290.2, 63488.785, 0.046270408, -0.17733854, -707216.6, 29806.21, 0.0, 9.999384, 10.000207 
1.21502146e+3, 2.3478958e+2, -595931.06, -583988.6, 81860.336, 0.10312918, -0.36880863, -507882.03, 131150.27, 0.0, 10.000122, 10.0002985 
1.2150214e+3, 2.4478908e+2, -583979.44, -700500.6, 73387.555, 0.08981035, -0.36925465, -548538.25, -7501.467, 0.0, 10.00028, 9.998741 
1.21502064e+3, 2.547896e+2, -547413.75, -630247.9, 47364.36, 0.009829031, -0.20859112, -525912.2, -82875.21, 0.00000000018849695, 9.999846, 9.998763 
1.2150197e+3, 2.6478925e+2, -452299.63, -494405.7, -50730.38, -0.0045322487, -0.13295178, -418427.25, -73385.14, 0.00000061447383, 9.999665, 9.999108 
1.2150184e+3, 2.7478793e+2, -329691.22, -375862.44, -65358.625, 0.05235569, -0.19243442, -283460.9, -36407.945, 0.00000822272, 9.999795, 9.9991865 
1.2150177e+3, 2.8478637e+2, -158713.33, -235175.6, 19507.625, 0.04377363, -0.2681372, -154023.98, -4960.26, 0.000047693058, 10.000262, 9.999257 
1.21501744e+3, 2.9478443e+2, 68714.734, -63596.184, 69280.45, -0.02280738, -0.40701312, 98352.42, 149427.7, 0.00015870755, 10.0011, 9.999359 
1.2150177e+3, 3.047815e+2, 130235.69, -137468.55, 29192.559, 0.01090829, -0.57925844, 133382.1, 133382.1, 0.00037049488, 10.001751, 9.998202 
1.2150171e+3, 3.1478122e+2, 185235.08, -82984.61, -21713.834, 0.028901964, -0.439901, 186981.56, 186981.56, 0.0006721225, 10.001997, 9.99845 
1.2250237e+3, 1.2479257e+2, -1617762.0, -1757901.6, 115282.055, 0.22367562, -0.29056954, -1552925.5, 164084.66, 0.0029179724, 10.001054, 9.999181 
1.22502096e+3, 1.3479367e+2, -1625529.4, -1713302.5, -66158.87, 0.02690251, -0.1082714, -1590024.3, 28978.615, 0.0015834377, 10.000299, 9.999209 
1.2250199e+3, 1.4479305e+2, -1553759.6, -1575955.6, 18602.621, -0.14607666, -0.11260943, -1543196.1, -22186.81, 0.00056846405, 9.999925, 9.999634 
1.2250211e+3, 1.5479061e+2, -1430292.5, -1463642.6, 21822.398, -0.0693045, -0.33767927, -1419503.5, 3526.397, 0.00008951281, 10.000089, 9.999653 
1.22502066e+3, 1.6479029e+2, -1274397.9, -1289275.0, -25737.646, -0.05587364, -0.35091108, -1255045.4, 69985.71, 0.0000012652538, 10.000273, 10.000091 
1.22501895e+3, 1.747923e+2, -1139519.6, -1161591.5, -28528.498, -0.0784701, -0.17806806, -1119966.9, 107044.41, 0.0, 10.00048, 10.000193 
1.2250188e+3, 1.8479253e+2, -1060038.8, -1141560.1, 12928.328, -0.010208114, -0.14207561, -1058037.6, 70971.53, 0.0, 10.00065, 9.999575 
1.2250204e+3, 1.9479074e+2, -932066.3, -1022247.3, -23517.56, 0.14384776, -0.29469457, -926301.8, 104724.99, 0.0, 10.000828, 9.999634 
1.22502066e+3, 2.047903e+2, -863637.0, -941273.3, -16573.334, 0.14657493, -0.2971612, -860247.06, 72784.51, 0.0, 10.00063, 9.999616 
1.2250196e+3, 2.1479131e+2, -852213.7, -876822.1, -31080.545, -0.005064759, -0.1760582, -831090.44, 3932.1594, 0.0, 10.000001, 9.999688 
1.22502014e+3, 2.2479099e+2, -771628.8, -724195.3, -50321.363, 0.001303898, -0.20028353, -692281.8, 44741.387, 0.0, 9.999611, 10.000252 
1.225022e+3, 2.3478918e+2, -687229.1, -622768.2, -65481.94, 0.17040403, -0.42402163, -582014.5, 57020.22, 0.0, 9.999473, 10.000343 
1.22502245e+3, 2.4478891e+2, -700296.2, -752259.2, -57006.305, 0.20666312, -0.4065728, -663629.8, -122592.49, 0.0, 9.999455, 9.998791 
1.2250213e+3, 2.5479022e+2, -575607.56, -634861.2, -28182.744, 0.10468773, -0.17068234, -564344.06, -121313.18, 0.0, 9.999617, 9.998842 
1.22502014e+3, 2.647899e+2, -437082.97, -478075.38, -54819.824, 0.07476453, -0.09720145, -399053.03, -54017.145, 0.0000003685213, 9.999733, 9.999189 
1.22501895e+3, 2.7478787e+2, -331659.75, -368179.28, -38734.38, 0.121979974, -0.2408328, -307096.97, -60043.13, 0.000007319039, 9.999746, 9.999263 
1.22501805e+3, 2.8478652e+2, -215566.38, -245919.52, 62595.316, 0.084317066, -0.3047146, -166334.08, -17270.834, 0.000046575948, 9.999797, 9.999406 
1.2250178e+3, 2.9478583e+2, -99823.016, -127587.32, 34199.12, -0.038983498, -0.33473864, -76795.9, -25730.95, 0.0001562628, 9.999869, 9.999511 
1.2250184e+3, 3.0478343e+2, -129259.15, -201308.48, -21209.748, 0.007013881, -0.48378855, -123479.16, -123479.16, 0.00036177837, 9.999703, 9.998753 
1.22501865e+3, 3.147839e+2, -179526.47, -165368.83, -33101.42, 0.13557045, -0.32878622, -138597.78, -138597.78, 0.0006523365, 9.9990635, 9.999309 
1.23502366e+3, 1.24791086e+2, -1533509.9, -1582350.4, 82452.67, 0.09968719, -0.16775775, -1471937.1, 245089.14, 0.0031899144, 10.001054, 10.000387 
1.2350206e+3, 1.3479023e+2, -1543495.0, -1544132.0, -92010.71, -0.05036409, -0.29770783, -1451802.3, 167232.23, 0.0017411282, 10.000306, 10.000366 
1.235021e+3, 1.447903e+2, -1490606.5, -1452333.4, 19393.287, -0.050833713, -0.33180037, -1444224.6, 76807.21, 0.0006337289, 9.9999485, 10.000476 
1.2350206e+3, 1.5479149e+2, -1367396.6, -1340574.6, 32083.467, -0.13773972, -0.27515393, -1319212.0, 103804.87, 0.00010392506, 10.000113, 10.000491 
1.2350202e+3, 1.647921e+2, -1270057.1, -1281814.5, -24545.002, -0.13785207, -0.24252567, -1250696.6, 74313.086, 0.0000017603737, 10.000279, 10.000138 
1.23502016e+3, 1.7479217e+2, -1139665.8, -1159508.8, -17695.047, -0.018049642, -0.26612046, -1129300.5, 97709.484, 0.0, 10.000467, 10.000213 
1.2350204e+3, 1.8479241e+2, -1120500.8, -1264409.3, 13675.472, 0.06818902, -0.18782385, -1119212.8, 9798.219, 0.0, 10.000637, 9.998739 
1.2350209e+3, 1.9479278e+2, -995175.6, -1148063.3, -11686.365, 0.10568596, -0.03971796, -994287.5, 36725.832, 0.0, 10.000803, 9.998785 
1.2350204e+3, 2.0479165e+2, -887391.8, -983296.75, -47923.047, 0.056449123, -0.053645257, -867550.06, 65476.227, 0.0, 10.000598, 9.999342 
1.2350189e+3, 2.1478891e+2, -877930.9, -920428.0, -50902.13, -0.08462108, -0.2816506, -844020.3, -8969.124, 0.0, 9.999954, 9.999413 
1.2350194e+3, 2.2478817e+2, -799148.6, -763714.3, -61626.184, -0.03293998, -0.3213084, -717309.06, 19746.863, 0.0, 9.9995365, 10.000015 
1.2350221e+3, 2.3478958e+2, -714785.94, -664932.25, -64342.793, 0.2294482, -0.20152618, -620856.6, 18182.76, 0.0, 9.99941, 10.000084 
1.2350229e+3, 2.4478984e+2, -642124.75, -623349.44, -56898.28, 0.30477935, -0.16056828, -575069.56, -34034.457, 0.0, 9.999418, 9.999694 
1.2350219e+3, 2.5478882e+2, -516308.44, -503102.16, -16164.852, 0.1807019, -0.25139114, -492243.78, -49199.05, 0.0, 9.999571, 9.999772 
1.2350204e+3, 2.6478773e+2, -402980.72, -390891.22, -58234.086, 0.120008625, -0.3394406, -338389.0, 6664.466, 0.00000016286783, 9.999665, 9.99982 
1.2350188e+3, 2.747865e+2, -295516.3, -282610.2, -30510.805, 0.12560233, -0.46043885, -257877.5, -10816.126, 0.0000066111284, 9.999703, 9.999869 
1.2350177e+3, 2.847866e+2, -269188.22, -350590.03, 62216.242, 0.05278111, -0.3728186, -235542.48, -86482.28, 0.000046430763, 9.999765, 9.998703 
1.2350172e+3, 2.94788e+2, -155847.42, -239497.86, 46318.594, -0.09499636, -0.12503529, -135264.63, -84212.89, 0.00015647624, 9.999844, 9.998757 
1.2350181e+3, 3.047864e+2, -41454.184, -9556.758, -43238.74, -0.00015516396, -0.21975154, 20580.86, 20580.86, 0.00036044128, 9.999662, 10.00009 
1.2350192e+3, 3.1478658e+2, -60551.785, 100279.2, -40023.61, 0.24841341, -0.23457128, 109688.766, 109688.766, 0.00064742, 9.998988, 10.001167 
1.24502465e+3, 1.2478988e+2, -1504284.3, -1596063.9, 217069.45, 0.08038178, -0.24395162, -1328307.0, 388727.03, 0.003475539, 10.001389, 10.000123 
1.2450204e+3, 1.3478962e+2, -1539191.6, -1575185.3, -64150.023, -0.10858698, -0.2850142, -1490561.8, 128478.17, 0.0019075654, 10.000479, 10.000069 
1.2450221e+3, 1.4479005e+2, -1447082.8, -1380547.6, 24113.967, 0.06872412, -0.29084384, -1372727.4, 148307.3, 0.0007030745, 10.000034, 10.000926 
1.24502115e+3, 1.5479138e+2, -1332817.0, -1270625.1, 215.94003, -0.099920504, -0.26444408, -1270624.4, 152391.53, 0.00011956255, 10.00013, 10.00096 
1.2450205e+3, 1.6479187e+2, -1290384.5, -1308617.8, -68282.88, -0.13387817, -0.2592283, -1230612.4, 94397.19, 0.0000023468863, 10.000215, 9.999987 
1.2450206e+3, 1.7479156e+2, -1178726.4, -1197715.9, -88297.78, -0.0004630048, -0.3046465, -1099414.4, 127600.945, 0.0, 10.000283, 10.000039 
1.24502085e+3, 1.8479185e+2, -1159406.9, -1249845.6, -19001.19, 0.074780524, -0.22767648, -1155576.9, -26560.887, 0.0, 10.000221, 9.999038 
1.245021e+3, 1.9479269e+2, -1089924.1, -1161430.1, 36274.402, 0.08008505, -0.06402033, -1074744.8, -43732.266, 0.0, 10.000002, 9.999081 
1.2450206e+3, 2.0479186e+2, -996702.94, -1055660.4, 50460.367, 0.048433974, -0.057104114, -967741.56, -34718.855, 0.0, 9.9999275, 9.999172 
1.2450195e+3, 2.147892e+2, -882014.6, -938714.9, 40753.117, -0.018540196, -0.25862828, -860720.56, -25672.686, 0.0, 10.000001, 9.999266 
1.2450198e+3, 2.247884e+2, -770209.06, -799689.3, 40782.33, 0.029871447, -0.27784654, -741584.8, -4529.7285, 0.0, 9.999947, 9.999573 
1.2450214e+3, 2.3478946e+2, -695330.3, -704256.5, 11658.789, 0.20444566, -0.14707796, -687309.56, -48265.613, 0.0, 9.999748, 9.999651 
1.2450218e+3, 2.447894e+2, -620130.94, -568714.2, 3017.3572, 0.26021403, -0.13409273, -568537.75, -27495.547, 0.0, 9.999385, 10.000084 
1.24502115e+3, 2.5478813e+2, -592288.4, -491915.0, -7283.0405, 0.19063157, -0.2922661, -491389.28, -48338.36, 0.0, 9.998852, 10.000193 
1.2450199e+3, 2.647871e+2, -495804.25, -447534.97, -59632.664, 0.13727891, -0.3851349, -407338.16, -62280.66, 0.000000050542315, 9.999072, 9.999716 
1.2450185e+3, 2.7478644e+2, -244939.11, -271773.7, -98813.17, 0.09820645, -0.4420665, -158636.45, 88425.555, 0.000006130949, 10.000098, 9.999758 
1.2450174e+3, 2.847869e+2, -207593.83, -291821.53, -27240.572, 0.03619208, -0.32923058, -199551.67, -50492.637, 0.0000467863, 10.0000725, 9.998957 
1.2450171e+3, 2.9478827e+2, -268895.22, -263258.38, 17517.934, -0.040239774, -0.102857694, -248333.6, -197282.7, 0.00016088788, 9.998943, 9.999023 
1.2450178e+3, 3.047868e+2, -130020.54, -44843.633, -37000.44, 0.03812379, -0.2036527, -31015.695, -31015.695, 0.00037296483, 9.999013, 10.000159 
1.2450181e+3, 3.14787e+2, 164506.13, 265746.72, -154575.08, 0.18800658, -0.22726974, 377779.03, 377779.03, 0.00066910626, 10.00029, 10.0016775 
1.2550254e+3, 1.24789245e+2, -1624996.1, -1854937.8, 110706.42, -0.01316751, -0.4994381, -1580360.6, 136669.78, 0.0037739007, 10.001409, 9.998338 
1.2550202e+3, 1.3479187e+2, -1660931.5, -1832746.1, -93921.24, -0.18086283, -0.076444134, -1619554.6, -535.6924, 0.0020822603, 10.000492, 9.998296 
1.2550233e+3, 1.4479235e+2, -1438931.3, -1368380.3, 23033.229, 0.17248134, 0.0072738845, -1361526.3, 159490.61, 0.0007764397, 10.000052, 10.001 
1.2550223e+3, 1.5479039e+2, -1321110.1, -1250593.0, 9716.468, 0.0005212867, -0.30738646, -1249278.6, 173747.34, 0.00013646827, 10.000144, 10.001092 
1.2550214e+3, 1.6478974e+2, -1321122.6, -1372359.5, -71150.266, -0.08503097, -0.40356535, -1271119.1, 53910.418, 0.0000030208696, 10.000211, 9.999551 
1.2550205e+3, 1.7479056e+2, -1209622.9, -1261701.4, -82143.39, -0.059207454, -0.29187426, -1149490.4, 77535.82, 0.0, 10.00028, 9.999602 
1.2550202e+3, 1.8479088e+2, -1056296.3, -1034945.9, -32717.387, -0.02671226, -0.26271176, -1011206.1, 117817.83, 0.0, 10.0002165, 10.000517 
1.2550205e+3, 1.9479054e+2, -986274.2, -940165.6, 31271.182, 0.0144399395, -0.3685219, -924369.06, 106654.875, 0.0, 9.999974, 10.000612 
1.255021e+3, 2.0479095e+2, -1010065.9, -1071084.5, 45813.406, 0.07732884, -0.31032842, -985532.6, -52512.332, 0.0, 9.999875, 9.999093 
1.2550214e+3, 2.1479216e+2, -898477.25, -960259.0, 47584.742, 0.15431611, -0.11300415, -872635.8, -37623.023, 0.0, 9.999947, 9.9991455 
1.255021e+3, 2.2479154e+2, -822627.3, -894475.4, 27431.344, 0.14667839, -0.07683104, -813351.6, -76330.12, 0.0, 9.9998865, 9.998951 
1.2550198e+3, 2.3478886e+2, -747313.06, -800488.4, 9027.93, 0.053074863, -0.25718847, -745822.1, -106773.836, 0.0, 9.999695, 9.999018 
1.255019e+3, 2.447877e+2, -636354.8, -589238.1, -22189.322, 0.034322035, -0.3190452, -580433.5, -39375.582, 0.0, 9.999328, 9.99997 
1.255019e+3, 2.5478807e+2, -608965.0, -516521.97, -21039.268, 0.09648997, -0.2989541, -511958.84, -68908.88, 0.0, 9.998807, 10.000047 
1.2550186e+3, 2.6478803e+2, -562645.4, -574304.5, -25808.855, 0.08496044, -0.24527995, -542015.9, -196966.48, 0.00000007625481, 9.999021, 9.998869 
1.2550175e+3, 2.7478763e+2, -315758.44, -401327.06, -52079.848, -0.007349403, -0.18920277, -291142.4, -44085.977, 0.0000061180435, 10.000024, 9.998904 
1.255017e+3, 2.847873e+2, -129081.7, -120803.12, -72002.18, -0.0156150395, -0.17087956, -52821.344, 96238.49, 0.00004818149, 10.000033, 10.000152 
1.2550175e+3, 2.9478672e+2, -187975.1, -91177.74, -15399.593, 0.08294687, -0.2655465, -88786.86, -37724.453, 0.00017152917, 9.9989195, 10.000219 
1.2550174e+3, 3.0478463e+2, -220762.08, -225866.31, 8782.453, 0.0739518, -0.4279286, -214168.44, -214168.44, 0.00040416623, 9.99898, 9.998932 
1.2550154e+3, 3.1478485e+2, 86174.11, 125708.88, -94258.78, -0.14120509, -0.32177424, 202250.72, 202250.72, 0.0007265205, 10.00019, 10.000765 
1.2650262e+3, 1.2479013e+2, -1825618.4, -1937146.3, -43864.395, 0.0022491445, -0.4436567, -1810433.8, -93411.2, 0.004085261, 9.999957, 9.998479 
1.2650211e+3, 1.3479154e+2, -1412419.3, -1684394.4, -45482.773, -0.2178412, -0.1624353, -1405014.8, 214004.05, 0.0022650692, 10.002091, 9.998533 
1.2650251e+3, 1.4479175e+2, -1142658.0, -1286265.0, 80497.55, 0.23829077, -0.09219514, -1106593.1, 414425.88, 0.00085386867, 10.002354, 10.000454 
1.2650234e+3, 1.5479048e+2, -1310971.6, -1307120.3, 1263.2983, 0.062476717, -0.2803228, -1306742.9, 116282.42, 0.00015477135, 10.000485, 10.000535 
1.2650217e+3, 1.6478983e+2, -1388380.3, -1412133.5, -35815.156, -0.04284026, -0.3433751, -1362523.9, -37493.676, 0.0000038088367, 9.999785, 9.999479 
1.2650208e+3, 1.7478989e+2, -1185746.3, -1255820.5, -24984.607, -0.058824807, -0.3016896, -1177750.5, 49282.395, 0.0, 10.000473, 9.999548 
1.2650204e+3, 1.8478988e+2, -982252.0, -979880.5, -25399.82, -0.039147303, -0.31087154, -955638.75, 173394.17, 0.0, 10.000645, 10.000689 
1.2650205e+3, 1.9478972e+2, -936642.6, -895746.8, -75069.805, 0.014841645, -0.41590762, -838389.9, 192640.98, 0.0, 10.000236, 10.000791 
1.265021e+3, 2.047904e+2, -952675.0, -989714.2, -67917.14, 0.090420015, -0.36339468, -900797.75, 32225.482, 0.0, 10.000043, 9.999564 
1.2650216e+3, 2.1479192e+2, -850161.7, -885510.56, -32776.207, 0.1835943, -0.1822953, -830598.1, 4412.32, 0.0, 10.000053, 9.999603 
1.2650213e+3, 2.247915e+2, -801821.0, -907286.6, -6108.981, 0.17926975, -0.13927385, -801468.3, -64450.926, 0.0, 10.000128, 9.998746 
1.2650199e+3, 2.3478901e+2, -678065.1, -788208.75, -5078.1235, 0.07417173, -0.27958903, -677831.5, -38786.477, 0.0, 10.000271, 9.99882 
1.2650189e+3, 2.4478784e+2, -517212.06, -595406.1, -33969.555, 0.038020343, -0.30465814, -504516.16, 36540.67, 0.0, 10.000419, 9.999401 
1.2650186e+3, 2.5478795e+2, -394992.9, -477518.53, -78830.484, 0.077133745, -0.25430888, -347278.97, 95773.93, 0.0, 10.000546, 9.9994755 
1.2650181e+3, 2.6478755e+2, -409766.53, -509160.66, -54977.023, 0.074307814, -0.20094875, -385353.75, -40297.74, 0.00000015326442, 10.000105, 9.998798 
1.2650174e+3, 2.7478674e+2, -461942.4, -474731.44, -33506.207, 0.028554358, -0.18057759, -434225.97, -187159.56, 0.000006713193, 9.999034, 9.998876 
1.2650168e+3, 2.8478616e+2, -365883.06, -231330.4, -76496.96, 0.025985122, -0.18737471, -196734.81, -47663.125, 0.000050966704, 9.998391, 10.000181 
1.265016e+3, 2.9478562e+2, -282600.28, -133042.89, -124112.99, 0.081504196, -0.283666, -62922.01, -11848.356, 0.00018813205, 9.998256, 10.000249 
1.2650156e+3, 3.047838e+2, -342181.3, -319736.47, -51044.39, 0.050868705, -0.4056683, -278695.4, -278695.4, 0.00045240793, 9.998298, 9.998617 
1.2650147e+3, 3.1478333e+2, -170778.22, -7223.842, -107731.92, -0.12580875, -0.3362509, 46253.082, 46253.082, 0.0008183063, 9.998458, 10.000688 
1.2750256e+3, 1.24792755e+2, -1679065.8, -1633287.8, -61774.883, -0.07895136, -0.067927785, -1590297.8, 126710.51, 0.0044096503, 9.99996, 10.000564 
1.275023e+3, 1.3478877e+2, -1264668.9, -1372922.6, 40954.973, -0.25074053, -0.53924674, -1250920.6, 368117.13, 0.0024558255, 10.002074, 10.000684 
1.2750274e+3, 1.4478837e+2, -1224338.5, -1457568.6, 9553.092, 0.2137675, -0.58288723, -1223947.9, 297091.75, 0.00093550276, 10.002359, 9.999273 
1.2750237e+3, 1.5479167e+2, -1402165.5, -1499038.5, -64075.75, 0.04457054, -0.1867539, -1370278.9, 52734.473, 0.00017466526, 10.000491, 9.999218 
1.2750214e+3, 1.6479215e+2, -1363857.6, -1365972.1, -18617.797, -0.052865002, -0.08383926, -1346267.1, -21255.703, 0.0000047674703, 9.999801, 9.999791 
1.2750216e+3, 1.7478962e+2, -1158558.1, -1201894.8, 4585.351, -0.045172576, -0.3378186, -1158078.4, 68956.53, 0.0, 10.00048, 9.999916 
1.2750214e+3, 1.8478897e+2, -1064584.1, -1150295.9, -44528.473, -0.012640178, -0.37349525, -1045638.56, 83403.58, 0.0, 10.00064, 9.999521 
1.2750211e+3, 1.9479032e+2, -1022582.44, -1072433.3, -85603.37, 0.035646155, -0.20891237, -958349.5, 72682.76, 0.0, 10.000224, 9.999584 
1.2750207e+3, 2.0479025e+2, -888704.75, -847535.1, -74385.914, 0.04709353, -0.21749021, -790938.3, 142092.69, 0.0, 10.000002, 10.000562 
1.2750202e+3, 2.147886e+2, -786481.7, -735255.2, -28137.053, 0.02743843, -0.46009314, -722819.4, 112220.65, 0.0, 9.999976, 10.000671 
1.2750207e+3, 2.2478844e+2, -798166.6, -881621.75, -6605.142, 0.086199105, -0.45622697, -797647.06, -60605.668, 0.0, 10.000051, 9.99896 
1.2750219e+3, 2.347899e+2, -673742.6, -766480.25, 7099.245, 0.22582044, -0.22189268, -673202.3, -34167.703, 0.0, 10.000214, 9.998999 
1.2750214e+3, 2.4478975e+2, -598693.8, -750102.0, -33956.16, 0.22886825, -0.1012206, -591427.25, -50387.258, 0.0, 10.000358, 9.998367 
1.2750193e+3, 2.547878e+2, -476690.22, -632635.3, -67447.125, 0.088154204, -0.15346652, -451566.56, -8507.278, 0.0, 10.000484, 9.998441 
1.275018e+3, 2.6478586e+2, -367017.78, -410132.75, -98907.9, 0.061929524, -0.23960508, -287345.34, 57730.906, 0.00000020123079, 10.000057, 9.999502 
1.2750179e+3, 2.7478388e+2, -419617.9, -375844.4, -64987.598, 0.15846185, -0.40890053, -329156.97, -82065.45, 0.0000075115454, 9.998986, 9.999579 
1.2750159e+3, 2.847835e+2, -452296.1, -402006.25, -87492.734, 0.10572814, -0.3697143, -336116.88, -187022.17, 0.000055155855, 9.998353, 9.999023 
1.2750126e+3, 2.947848e+2, -376370.0, -312713.78, -120038.625, -0.09596704, -0.16410138, -220355.33, -169269.45, 0.00020861672, 9.998188, 9.999047 
1.2750126e+3, 3.0478412e+2, -310185.63, -241534.9, -46279.574, -0.080151446, -0.13777998, -218240.58, -218240.58, 0.00051069446, 9.998247, 9.999178 
1.275016e+3, 3.147825e+2, -136940.89, 84011.78, -86679.46, 0.13813232, -0.24970543, 113957.484, 113957.484, 0.0009331976, 9.998374, 10.001352 
1.2850264e+3, 1.2479437e+2, -1297238.0, -1440868.9, 87659.81, -0.11830547, -0.04902617, -1255732.1, 461260.3, 0.0047468157, 10.002534, 10.000667 
1.2850247e+3, 1.3478999e+2, -1385004.5, -1416200.3, 92749.445, -0.24014775, -0.5669312, -1306550.5, 312472.25, 0.0026545508, 10.001188, 10.000811 
1.2850288e+3, 1.4478925e+2, -1471400.0, -1626421.1, -11467.283, 0.18140471, -0.63316584, -1470556.3, 50471.65, 0.0010215283, 10.000876, 9.998831 
1.2850244e+3, 1.5479252e+2, -1237781.9, -1467073.5, -35662.773, 0.0066544535, -0.19582842, -1232363.3, 190641.66, 0.00019628371, 10.001829, 9.99879 
1.2850222e+3, 1.6479285e+2, -1110809.9, -1257115.8, 40493.95, -0.05381629, -0.0781364, -1100350.0, 224655.22, 0.0000059623408, 10.001593, 9.999678 
1.2850225e+3, 1.7479011e+2, -1231206.4, -1247940.4, 20166.691, 0.022016412, -0.34218103, -1217739.9, 9290.119, 0.0, 10.000028, 9.99982 
1.2850222e+3, 1.8478957e+2, -1228467.0, -1252756.5, 21176.031, 0.05115124, -0.3515815, -1216200.3, -87163.54, 0.0, 9.9996195, 9.99931 
1.2850213e+3, 1.9479136e+2, -992155.9, -1081349.1, 44847.563, 0.0192533, -0.11833958, -973505.6, 57518.324, 0.0, 10.00054, 9.99937 
1.2850206e+3, 2.0479102e+2, -823224.2, -836625.75, 31174.574, 0.0133775715, -0.13424154, -798038.4, 134987.63, 0.0, 10.000543, 10.000377 
1.28502e+3, 2.1478829e+2, -868558.2, -794107.94, -27822.09, 0.041152228, -0.46758422, -784859.7, 50185.09, 0.0, 9.999498, 10.000498 
1.2850206e+3, 2.2478788e+2, -879730.44, -904213.4, -7593.9243, 0.1136047, -0.48627385, -877566.3, -140518.2, 0.0, 9.99942, 9.999107 
1.285022e+3, 2.3479003e+2, -636917.8, -729780.5, -9303.074, 0.2302545, -0.19835177, -635995.0, 3039.7593, 0.0, 10.000387, 9.999165 
1.2850219e+3, 2.4479003e+2, -570268.8, -737141.6, -32359.05, 0.24571697, -0.06989948, -564213.6, -23175.092, 0.0, 10.000551, 9.998364 
1.2850201e+3, 2.5478774e+2, -570124.6, -676992.25, -16.901552, 0.15692966, -0.15587926, -570124.6, -127063.484, 0.0, 9.999843, 9.998445 
1.2850186e+3, 2.6478574e+2, -441235.63, -463006.44, -17421.033, 0.13356984, -0.24095389, -431578.75, -86499.92, 0.00000014147287, 9.999622, 9.999345 
1.2850174e+3, 2.74784e+2, -293417.72, -331607.78, -65738.58, 0.17986213, -0.37021855, -244057.08, 3034.8965, 0.00000765521, 9.999924, 9.999429 
1.2850152e+3, 2.8478327e+2, -225816.89, -321483.22, -64204.06, 0.097236, -0.34865585, -193586.5, -44487.715, 0.00005963982, 10.000033, 9.998773 
1.2850115e+3, 2.9478356e+2, -143312.97, -226047.89, -42545.133, -0.10816631, -0.21949731, -125339.42, -74239.914, 0.00023270557, 9.999905, 9.998814 
1.2850118e+3, 3.0478355e+2, -96139.42, -124092.28, 66581.01, -0.072069876, -0.118141256, -42083.723, -42083.723, 0.0005779569, 9.999661, 9.999301 
1.2850158e+3, 3.1478295e+2, -2103.525, 155714.16, -36903.383, 0.22537322, -0.14015034, 163917.11, 163917.11, 0.0010646739, 9.999274, 10.00141 
1.2950273e+3, 1.24794975e+2, -1423517.5, -1702571.5, -29643.715, -0.2948343, -0.39836147, -1420403.3, 296572.13, 0.0050962004, 10.002534, 9.998861 
1.2950261e+3, 1.3479523e+2, -1527584.4, -1705057.1, 46415.77, -0.22403371, -0.25833717, -1516178.0, 102795.45, 0.0028611089, 10.001164, 9.998834 
1.2950286e+3, 1.4479429e+2, -1449931.8, -1582691.9, 15323.955, 0.08802292, -0.25398123, -1448186.0, 72798.29, 0.00111182, 10.000877, 9.999131 
1.2950253e+3, 1.5479313e+2, -1209288.8, -1410553.3, 6124.328, -0.09525474, -0.2984286, -1209102.5, 213895.61, 0.000219555, 10.001833, 9.99918 
1.2950234e+3, 1.6479205e+2, -1146188.9, -1331309.0, -22895.14, -0.093750484, -0.31898797, -1143399.3, 181611.06, 0.0000074533, 10.001595, 9.9991665 
1.2950234e+3, 1.7479137e+2, -1272119.0, -1333017.0, -35806.57, 0.10407861, -0.32322156, -1255565.4, -28547.273, 0.0, 10.000027, 9.999235 
1.2950225e+3, 1.847917e+2, -1180040.5, -1150401.6, 48407.336, 0.11311444, -0.24714614, -1114596.1, 14419.923, 0.0, 9.99961, 10.000018 
1.295021e+3, 1.9479297e+2, -941552.56, -972990.6, 85114.12, -0.073925465, -0.14247847, -870718.1, 160287.17, 0.0, 10.000523, 10.000124 
1.2950206e+3, 2.0479274e+2, -925318.2, -1040882.44, -11198.803, -0.05693406, -0.11903271, -924243.0, 8765.219, 0.0, 10.00051, 9.998988 
1.295021e+3, 2.1479093e+2, -978440.75, -1009969.1, -62292.258, 0.180689, -0.21695217, -929948.94, -94923.586, 0.0, 9.999444, 9.9990425 
1.2950212e+3, 2.2478981e+2, -886817.25, -902501.5, 22652.875, 0.21745782, -0.23263665, -870687.5, -133649.84, 0.0, 9.999351, 9.999151 
1.2950207e+3, 2.3478942e+2, -640052.44, -721257.9, 34790.316, 0.040484797, -0.20861793, -627186.0, 11859.28, 0.0, 10.0003195, 9.999256 
1.2950206e+3, 2.4478875e+2, -508579.8, -591517.44, -63317.434, 0.041007705, -0.20322154, -474360.03, 66692.125, 0.0, 10.000479, 9.999397 
1.2950209e+3, 2.5478777e+2, -505797.84, -530249.2, -19217.855, 0.23715807, -0.26365638, -495246.5, -52187.676, 0.0, 9.999786, 9.999478 
1.2950194e+3, 2.6478717e+2, -521538.1, -620571.56, -10502.812, 0.24361981, -0.20853728, -520436.5, -175372.02, 0.000000052184554, 9.9995775, 9.998287 
1.2950161e+3, 2.7478704e+2, -376490.3, -491093.47, -45351.27, 0.042050216, -0.06680785, -360715.16, -113646.61, 0.000006761853, 9.999863, 9.998366 
1.2950137e+3, 2.8478536e+2, -187663.3, -227982.17, -72652.18, -0.049544215, -0.12019782, -132425.52, 16658.725, 0.000062792315, 9.9999695, 9.999447 
1.2950124e+3, 2.9478186e+2, -104756.24, -136639.52, -36815.45, -0.010481805, -0.4404306, -80579.15, -29465.0, 0.00025879944, 9.999859, 9.9994545 
1.2950124e+3, 3.0478197e+2, -129568.28, -180409.39, 49780.355, 0.016265174, -0.3356771, -99093.5, -99093.5, 0.0006519277, 9.999615, 9.998933 
1.2950136e+3, 3.1478453e+2, -70285.93, 48927.445, -36830.953, 0.050311126, -0.011027751, 59388.41, 59388.41, 0.0012067992, 9.999134, 10.000739 
1.3050294e+3, 1.2479674e+2, -1615371.5, -1840829.4, -149887.77, -0.27965912, -0.49181482, -1540552.8, 176402.95, 0.0054552136, 10.001412, 9.998448 
1.3050285e+3, 1.3479808e+2, -1442627.5, -1734949.6, 22145.23, -0.14758556, -0.17778648, -1440959.4, 177987.67, 0.003073975, 10.002068, 9.998185 
1.3050297e+3, 1.4479692e+2, -1308224.0, -1501635.3, 59834.85, 0.05520805, -0.16724265, -1291209.9, 229750.86, 0.0012055306, 10.001793, 9.999248 
1.3050272e+3, 1.5479454e+2, -1375506.4, -1473551.6, 22701.79, -0.035817757, -0.3482769, -1370505.0, 52479.06, 0.000244213, 10.00062, 9.99933 
1.3050252e+3, 1.6479331e+2, -1324913.8, -1412172.6, 2593.3801, -0.0268827, -0.39259243, -1324836.6, 159.44191, 0.000009295233, 10.000355, 9.9992075 
1.3050237e+3, 1.7479365e+2, -1105032.6, -1247262.4, 22011.578, 0.06863451, -0.2990195, -1101704.0, 125289.58, 0.0, 10.001162, 9.999276 
1.3050224e+3, 1.8479376e+2, -991250.7, -1091016.5, 113218.74, 0.07346014, -0.23235258, -917413.0, 211580.08, 0.0, 10.001039, 9.999737 
1.3050218e+3, 1.9479354e+2, -1054704.0, -1057681.9, 61153.863, -0.017982462, -0.25096476, -995020.94, 35975.406, 0.0, 9.999876, 9.999851 
1.3050213e+3, 2.0479313e+2, -1031703.7, -1136257.1, -16369.679, 0.012705815, -0.21200934, -1029200.7, -96198.22, 0.0, 9.999971, 9.998593 
1.3050215e+3, 2.1479261e+2, -711933.06, -921819.2, 1791.6901, 0.17715251, -0.1410826, -711917.75, 123092.92, 0.0, 10.001457, 9.998674 
1.305021e+3, 2.2479169e+2, -618200.44, -779791.0, 105302.52, 0.1954013, -0.11551212, -566268.56, 170753.7, 0.0, 10.001217, 9.999097 
1.3050205e+3, 2.3479028e+2, -826297.94, -815446.6, 95060.555, 0.060828384, -0.18800412, -725657.0, -86618.94, 0.0, 9.999058, 9.999217 
1.3050202e+3, 2.4478942e+2, -726931.25, -661590.8, 18992.307, 0.036958847, -0.21632023, -656471.44, -115425.35, 0.0, 9.998827, 9.999715 
1.3050202e+3, 2.547891e+2, -351306.72, -420033.44, -3126.5986, 0.13741988, -0.2411501, -351164.78, 91881.516, 0.0, 10.000687, 9.999806 
1.305019e+3, 2.6478872e+2, -310602.03, -517218.3, -10663.21, 0.16364124, -0.18038778, -310053.16, 34996.777, 0.000000019202236, 10.001026, 9.998296 
1.3050166e+3, 2.7478826e+2, -385892.47, -495577.78, 20645.002, 0.10637069, -0.073197134, -382135.38, -135077.77, 0.0000058574187, 9.999801, 9.998363 
1.3050146e+3, 2.847866e+2, -233876.64, -241949.73, 58329.094, 0.06890474, -0.12809183, -179444.6, -30371.846, 0.00006594774, 9.999617, 9.999518 
1.3050134e+3, 2.9478368e+2, 2858.1638, -72599.63, 35101.04, 0.06311656, -0.39789355, 16661.32, 67757.19, 0.00028478247, 10.000549, 9.999558 
1.3050123e+3, 3.0478373e+2, -54993.03, -161470.05, 68135.086, 0.016950252, -0.30544695, -21763.463, -21763.463, 0.00072544854, 10.000179, 9.998804 
1.3050117e+3, 3.1478453e+2, -214335.64, -77597.49, -22224.11, 0.0023726802, -0.13581112, -74076.086, -74076.086, 0.0013484193, 9.99837, 10.00025 
1.3150321e+3, 1.2479974e+2, -1545361.6, -1699831.5, -117178.586, -0.18349612, -0.3426751, -1482253.9, 234678.47, 0.005819013, 10.001425, 9.999414 
1.3150316e+3, 1.3479872e+2, -1400455.9, -1649892.9, 50300.098, -0.05115126, -0.3219758, -1390694.6, 228247.14, 0.0032902497, 10.002071, 9.998772 
1.3150313e+3, 1.4479734e+2, -1309733.1, -1502647.1, 9556.049, 0.030974723, -0.3658644, -1309261.0, 211694.64, 0.0013013786, 10.001789, 9.999242 
1.3150297e+3, 1.5479682e+2, -1384516.8, -1489193.3, -17651.049, 0.14139748, -0.3502142, -1381620.5, 41341.47, 0.00026992275, 10.000608, 9.9992285 
1.3150269e+3, 1.647967e+2, -1285868.5, -1333329.6, 24857.232, 0.10590487, -0.30570766, -1275233.0, 49729.406, 0.00001153221, 10.000357, 9.999751 
1.315023e+3, 1.74797e+2, -1060040.8, -1158008.4, 57193.746, -0.11837259, -0.2738659, -1033721.56, 193234.64, 0.0, 10.001171, 9.9998865 
1.3150217e+3, 1.8479581e+2, -1082905.3, -1277993.5, 65673.97, -0.11231107, -0.307897, -1062857.1, 66110.15, 0.0, 10.001026, 9.998459 
1.3150233e+3, 1.9479302e+2, -1153659.5, -1257495.0, 20370.314, 0.14621563, -0.44865113, -1149806.3, -118808.8, 0.0, 9.999849, 9.998495 
1.3150232e+3, 2.0479214e+2, -994899.3, -1048497.9, 31148.74, 0.18350767, -0.41586217, -980607.9, -47598.86, 0.0, 9.999923, 9.999218 
1.315021e+3, 2.1479332e+2, -674174.44, -830440.5, 63747.496, -0.012385047, -0.24247149, -651468.44, 183532.6, 0.0, 10.001397, 9.999332 
1.3150205e+3, 2.2479354e+2, -637453.25, -802581.06, 21737.564, -0.0019859935, -0.13324834, -634639.7, 102362.37, 0.0, 10.001145, 9.998975 
1.3150215e+3, 2.3479263e+2, -846913.9, -845188.5, 21306.355, 0.23784548, -0.13937335, -824727.4, -185714.02, 0.0, 9.999, 9.9990425 
1.3150206e+3, 2.4479204e+2, -766531.56, -728649.9, 81574.47, 0.18321092, -0.11039155, -663846.1, -122825.36, 0.0, 9.998762, 9.999286 
1.3150176e+3, 2.5479183e+2, -390257.94, -484840.16, 74824.484, -0.18615928, -0.08188525, -349032.66, 93990.586, 0.0, 10.000617, 9.999395 
1.3150169e+3, 2.6479048e+2, -246192.28, -369019.44, -59397.734, -0.15421146, -0.15125002, -222167.47, 122867.766, 0.000000054232096, 10.000961, 9.999346 
1.3150185e+3, 2.747877e+2, -321774.94, -347121.84, -16050.164, 0.31844327, -0.38382727, -313997.84, -66938.5, 0.0000056747863, 9.999739, 9.999411 
1.3150178e+3, 2.8478706e+2, -273265.56, -318198.4, 89555.45, 0.40248597, -0.36497816, -203401.5, -54337.27, 0.00007077781, 9.999587, 9.999012 
1.315014e+3, 2.947889e+2, -41829.652, -153141.92, 80684.055, 0.06389401, -0.1015515, 532.1838, 51578.504, 0.0003102898, 10.000491, 9.999039 
1.3150111e+3, 3.0478853e+2, -51668.363, -139101.55, 355.4803, -0.123807915, -0.030770423, -51666.918, -51666.918, 0.0007935088, 10.000121, 9.9989805 
1.31501e+3, 3.1478328e+2, -253798.52, -128895.44, -71694.484, -0.029666448, -0.4873657, -96266.52, -96266.52, 0.00147785, 9.998254, 9.999948 
1.3250345e+3, 1.2480327e+2, -1498010.9, -1627026.5, 6160.323, -0.081880115, -0.2472152, -1497717.4, 219182.11, 0.006183249, 10.001513, 9.999884 
1.3250344e+3, 1.3480113e+2, -1625991.0, -1726269.1, 93811.06, 0.092307664, -0.36455274, -1569760.8, 49155.867, 0.0035072896, 10.00039, 9.999049 
1.3250324e+3, 1.4479971e+2, -1578376.8, -1657234.5, 47537.223, 0.03570804, -0.4140785, -1556044.5, -35114.727, 0.0013982238, 10.000056, 9.999011 
1.32503e+3, 1.5479945e+2, -1352841.0, -1499918.3, -170.30345, 0.10566487, -0.35188413, -1352840.8, 70094.44, 0.00029637254, 10.000938, 9.998996 
1.3250273e+3, 1.6479936e+2, -1174840.0, -1287569.0, 38363.45, 0.0771763, -0.28751996, -1163023.1, 161912.61, 0.000014169166, 10.001157, 9.999674 
1.325024e+3, 1.7479949e+2, -1147309.9, -1209384.3, 9104.621, -0.10809286, -0.2666453, -1146002.0, 80928.805, 0.0, 10.000615, 9.999797 
1.3250229e+3, 1.8479796e+2, -1179121.8, -1368501.1, 15397.688, -0.081442885, -0.31066242, -1177878.0, -48932.766, 0.0, 10.000561, 9.99806 
1.3250242e+3, 1.9479471e+2, -1003345.25, -1228658.8, 29994.715, 0.1847818, -0.45775723, -999420.56, 31559.645, 0.0, 10.001074, 9.9981 
1.3250238e+3, 2.047936e+2, -871196.7, -954689.4, 87951.46, 0.22408454, -0.44132274, -815586.9, 117406.516, 0.0, 10.000622, 9.999528 
1.3250215e+3, 2.1479489e+2, -987054.4, -943905.4, 82278.734, 0.018999811, -0.29117012, -880419.6, -45436.695, 0.0, 9.999085, 9.999668 
1.3250208e+3, 2.247952e+2, -896264.06, -897365.75, 50172.938, 0.009469412, -0.20007129, -846638.94, -109657.5, 0.0, 9.999251, 9.999231 
1.3250214e+3, 2.3479448e+2, -491590.53, -639615.6, 68391.12, 0.21560583, -0.21557625, -464830.06, 174159.86, 0.0, 10.001308, 9.999334 
1.3250205e+3, 2.4479397e+2, -438072.75, -602171.9, 152195.77, 0.17912814, -0.18007992, -347218.66, 193778.81, 0.0, 10.001153, 9.9990015 
1.3250178e+3, 2.5479373e+2, -707354.56, -666994.5, 141909.84, -0.119613744, -0.12602705, -543837.0, -100833.67, 0.0, 9.998574, 9.999124 
1.3250169e+3, 2.6479274e+2, -629286.4, -517634.28, 22394.113, -0.10140624, -0.16035843, -513310.16, -168297.02, 0.00000008813443, 9.998175, 9.999672 
1.325018e+3, 2.747907e+2, -240533.86, -269627.03, -203.0867, 0.26223522, -0.3485746, -240532.45, 6496.8867, 0.000005758402, 10.000124, 9.999765 
1.3250174e+3, 2.8479013e+2, -173390.58, -302057.97, 76290.484, 0.36166626, -0.3277453, -137929.17, 11104.565, 0.000075127005, 10.000419, 9.998721 
1.3250148e+3, 2.947913e+2, -266975.47, -290772.56, 68731.62, 0.16849811, -0.1042667, -209120.08, -158096.67, 0.00033054428, 9.999074, 9.998773 
1.3250121e+3, 3.047905e+2, -131576.38, -185958.3, 24677.967, -0.018705685, -0.06359642, -122047.445, -122047.445, 0.00084821245, 9.99961, 9.998906 
1.32501e+3, 3.1478572e+2, 281278.88, 82670.02, -85407.625, -0.037707612, -0.4595362, 312954.72, 312954.72, 0.0015816313, 10.002116, 9.999551 
1.3350366e+3, 1.24807365e+2, -1500407.1, -1623729.5, 18869.768, -0.041584674, -0.20721814, -1497584.5, 219272.08, 0.0065457188, 10.0014925, 9.99991 
1.3350363e+3, 1.3480535e+2, -1629968.3, -1730962.4, 46086.992, 0.23717971, -0.30848253, -1612098.9, 6772.4136, 0.0037237175, 10.0003805, 9.999019 
1.3350323e+3, 1.4480402e+2, -1605017.1, -1713059.9, 70839.016, 0.025424672, -0.3284849, -1569951.6, -49067.645, 0.0014951822, 10.0000515, 9.998635 
1.3350283e+3, 1.5480247e+2, -1375243.0, -1549024.6, 40656.18, -0.18467431, -0.35853413, -1366201.9, 56701.223, 0.00032323142, 10.000941, 9.998661 
1.3350262e+3, 1.6480143e+2, -1229805.4, -1398267.3, 13075.644, -0.15986247, -0.3365796, -1228796.5, 96118.5, 0.000017128494, 10.001142, 9.998923 
1.3350263e+3, 1.7480116e+2, -1205265.9, -1325223.0, -7957.795, 0.05799389, -0.27661467, -1204740.4, 22176.637, 0.00000000003443261, 10.000597, 9.999011 
1.3350256e+3, 1.8480027e+2, -1145593.8, -1298344.3, 27661.352, 0.12482449, -0.24053237, -1140738.9, -11812.478, 0.0, 10.000554, 9.998547 
1.3350241e+3, 1.9479857e+2, -967025.8, -1150735.0, 54931.152, 0.055335704, -0.284829, -951853.8, 79091.29, 0.0, 10.001058, 9.998644 
1.3350232e+3, 2.0479758e+2, -878076.4, -958942.75, 24771.156, 0.08903142, -0.28795493, -871091.75, 61863.535, 0.0, 10.000578, 9.999518 
1.3350229e+3, 2.1479733e+2, -1001226.6, -958779.44, 28959.14, 0.22949693, -0.2860812, -944099.4, -109143.12, 0.0, 9.999018, 9.999603 
1.3350219e+3, 2.2479671e+2, -860340.8, -806906.9, 120459.875, 0.18491027, -0.31644413, -710236.75, 26724.094, 0.0, 9.99918, 9.999888 
1.3350202e+3, 2.3479575e+2, -453282.3, -546948.94, 153374.86, -0.049152333, -0.42243212, -339749.75, 299218.97, 0.0, 10.001247, 10.000005 
1.3350196e+3, 2.447951e+2, -455253.16, -624232.5, 52759.67, -0.027247412, -0.42816162, -440133.16, 100844.19, 0.0, 10.001093, 9.9988785 
1.3350205e+3, 2.5479475e+2, -725484.2, -696104.2, 50553.133, 0.2803149, -0.3700224, -658150.0, -215162.83, 0.0, 9.998532, 9.998945 
1.3350189e+3, 2.6479548e+2, -663363.1, -580035.3, 88581.77, 0.2649757, -0.2058377, -523808.4, -178823.83, 0.00000008397673, 9.998137, 9.999261 
1.3350146e+3, 2.7479723e+2, -279538.28, -333594.1, 82021.664, -0.10435467, 0.026213417, -220206.14, 26762.701, 0.0000056271715, 10.0000515, 9.999361 
1.3350134e+3, 2.8479582e+2, -185331.52, -317426.6, 22096.309, -0.10178391, -0.013096697, -181733.34, -32751.135, 0.000076498116, 10.000372, 9.998638 
1.3350156e+3, 2.947909e+2, -281747.84, -309096.2, 28079.8, 0.325208, -0.39148852, -264189.7, -213162.7, 0.00034050437, 9.999013, 9.998681 
1.3350147e+3, 3.0478957e+2, -159563.77, -225185.98, 119335.55, 0.2741977, -0.38636488, -68610.82, -68610.82, 0.000882415, 9.999545, 9.998658 
1.3350117e+3, 3.1479165e+2, 222900.98, -1267.8956, 30972.94, -0.103369266, -0.066812776, 227101.73, 227101.73, 0.0016524311, 10.001972, 9.999037 
1.3450392e+3, 1.2480931e+2, -1417375.0, -1645120.9, 5365.1714, 0.022317832, -0.2965187, -1417248.6, 299583.06, 0.0069055543, 10.00234, 9.999351 
1.345037e+3, 1.3480718e+2, -1432965.8, -1685597.5, -78918.37, 0.20949244, -0.36588722, -1410339.4, 208511.53, 0.0039389143, 10.001944, 9.998587 
1.3450326e+3, 1.4480639e+2, -1448347.0, -1624250.4, -12904.055, -0.0024184482, -0.31513503, -1447405.5, 73454.3, 0.0015916337, 10.001076, 9.998748 
1.345029e+3, 1.5480494e+2, -1483259.3, -1585762.5, -19060.65, -0.15463437, -0.34740192, -1479829.6, -56952.31, 0.0003501717, 10.00015, 9.998782 
1.3450274e+3, 1.6480374e+2, -1396810.9, -1487851.4, 12445.212, -0.11283738, -0.34557834, -1395140.3, -70249.44, 0.000020254476, 10.000042, 9.998836 
1.3450272e+3, 1.7480294e+2, -1187288.6, -1327153.0, 32106.627, 0.07379735, -0.32666898, -1180270.5, 46627.55, 0.0000000014653116, 10.000771, 9.998914 
1.3450262e+3, 1.8480223e+2, -1080178.6, -1224097.4, 92989.33, 0.12584506, -0.28489518, -1034557.56, 94348.016, 0.0, 10.000823, 9.998925 
1.3450247e+3, 1.9480154e+2, -1072474.6, -1157203.4, 94939.82, 0.04974114, -0.26744643, -1010876.0, 20038.07, 0.0, 10.000152, 9.999033 
1.3450235e+3, 2.048007e+2, -927808.44, -974938.5, 62553.582, 0.089468546, -0.27817142, -884528.4, 48393.164, 0.0, 10.000203, 9.999589 
1.345023e+3, 2.147997e+2, -702075.4, -800348.56, 63007.6, 0.25162145, -0.36012357, -671309.75, 163617.92, 0.0, 10.001021, 9.999717 
1.345022e+3, 2.2479886e+2, -645987.9, -754273.1, 161072.53, 0.19260561, -0.39679572, -530201.75, 206733.19, 0.0, 10.000861, 9.999443 
1.3450201e+3, 2.3479825e+2, -714190.25, -722110.25, 100685.2, -0.09912039, -0.42505088, -617387.2, 21555.871, 0.0, 9.999662, 9.999566 
1.3450196e+3, 2.4479792e+2, -654989.06, -690616.75, -59552.477, -0.06599092, -0.39034182, -610643.2, -69692.88, 0.0, 9.999602, 9.99914 
1.3450207e+3, 2.5479782e+2, -375985.63, -494581.3, -42115.617, 0.32167253, -0.3333226, -362551.38, 80405.65, 0.0, 10.0008, 9.999236 
1.3450189e+3, 2.647983e+2, -250874.84, -413323.34, 79243.38, 0.3044451, -0.19004418, -218622.7, 126333.555, 0.00000006157407, 10.001113, 9.998969 
1.3450143e+3, 2.747994e+2, -227312.77, -338426.25, 66530.375, -0.15291429, -0.0013258479, -196192.86, 50754.81, 0.0000055913592, 10.000545, 9.999083 
1.345013e+3, 2.8479797e+2, -179324.27, -301879.22, -14562.904, -0.16370249, -0.030521855, -177617.55, -28656.146, 0.00007685254, 10.000355, 9.998757 
1.3450153e+3, 2.9479393e+2, -36997.973, -166223.28, -8833.968, 0.317753, -0.33352232, -36396.87, 14601.5, 0.00034429008, 10.000591, 9.998899 
1.3450147e+3, 3.0479234e+2, -32807.56, -182552.89, 162366.81, 0.28782973, -0.36072037, 71118.26, 71118.26, 0.00089966063, 10.00047, 9.99852 
1.3450132e+3, 3.147944e+2, -88557.43, -164255.52, 73406.92, -0.040985804, -0.031831086, -43816.367, -43816.367, 0.0016932157, 9.999882, 9.998919 
1.3550423e+3, 1.24808945e+2, -1509094.9, -1819524.0, 34488.14, 0.080044135, -0.54798335, -1505309.4, 211517.13, 0.0072628423, 10.002288, 9.998169 
1.3550366e+3, 1.3480675e+2, -1490633.5, -1799525.6, -94490.39, -0.035872273, -0.5472348, -1464021.5, 154832.64, 0.004152666, 10.001926, 9.997808 
1.3550329e+3, 1.4480704e+2, -1415907.8, -1556994.6, -55139.46, -0.096939914, -0.36827844, -1396914.9, 123940.06, 0.0016872559, 10.001071, 9.999214 
1.3550322e+3, 1.5480702e+2, -1444085.5, -1509750.1, -47925.793, 0.1410875, -0.31009993, -1418824.4, 4031.7783, 0.0003769789, 10.000165, 9.999298 
1.3550302e+3, 1.6480625e+2, -1352513.3, -1400571.3, 32772.727, 0.16728072, -0.32033002, -1335904.3, -11041.29, 0.000023370363, 10.000055, 9.999433 
1.3550264e+3, 1.7480476e+2, -1146228.8, -1240885.5, 65088.727, -0.098162256, -0.43106225, -1113080.3, 113794.49, 0.0000000068048798, 10.00076, 9.999516 
1.3550247e+3, 1.848039e+2, -1068726.6, -1198041.8, 62491.99, -0.13103628, -0.44297767, -1043462.8, 85419.65, 0.0, 10.00081, 9.99911 
1.3550255e+3, 1.9480368e+2, -1063291.1, -1135088.0, 73586.21, 0.11286261, -0.39724112, -1017313.9, 13572.646, 0.0, 10.000132, 9.999197 
1.3550247e+3, 2.04803e+2, -916263.6, -945276.5, 85261.98, 0.17847262, -0.40899876, -844282.8, 88609.02, 0.0, 10.000175, 9.999808 
1.355022e+3, 2.1480192e+2, -694194.3, -773694.9, 99316.76, 0.04484461, -0.5199084, -626968.44, 207929.48, 0.0, 10.00097, 9.999929 
1.3550209e+3, 2.2480156e+2, -762613.8, -977414.9, 110039.64, -0.012394432, -0.44659534, -716249.6, 20655.219, 0.0, 10.000783, 9.997947 
1.355021e+3, 2.3480198e+2, -833286.8, -953924.8, 60620.434, 0.02003714, -0.21847823, -808088.44, -169175.64, 0.0, 9.999595, 9.998008 
1.3550201e+3, 2.448024e+2, -617802.8, -599128.1, -21024.125, 0.016326424, -0.060320087, -585461.1, -44545.16, 0.0, 9.999537, 9.999801 
1.3550179e+3, 2.5480282e+2, -335713.9, -397735.97, 10252.203, -0.030998215, -0.021651486, -334063.16, 108850.58, 0.0, 10.00074, 9.999932 
1.3550168e+3, 2.6480114e+2, -270176.84, -443603.4, 53648.797, -0.0215125, -0.12200432, -254922.56, 90007.28, 0.000000036385206, 10.001067, 9.998785 
1.3550171e+3, 2.7479708e+2, -252976.72, -376078.5, 52724.17, 0.06587791, -0.42618695, -233482.25, 13484.33, 0.000005925218, 10.000474, 9.998862 
1.3550162e+3, 2.8479657e+2, -166381.34, -260212.55, -10539.204, 0.110971175, -0.3682509, -165212.14, -16240.428, 0.00007723303, 10.000296, 9.999067 
1.3550138e+3, 2.9480007e+2, -28491.018, -131432.11, 9123.205, 0.09808082, 0.050305963, -27688.723, 23252.598, 0.00034439715, 10.000514, 9.999177 
1.3550122e+3, 3.0479845e+2, -38393.63, -172338.8, 136905.86, -0.019743647, 0.0027801376, 47042.91, 47042.91, 0.0009018357, 10.000391, 9.998619 
1.3550141e+3, 3.1479383e+2, -98825.34, -145819.48, 78950.45, 0.051782265, -0.3481997, -39949.57, -39949.57, 0.0017008643, 9.999726, 9.999114 
1.3650441e+3, 1.24810055e+2, -1733197.6, -1888473.5, 11846.624, 0.12090461, -0.55546665, -1732299.0, -15480.959, 0.0076198755, 10.000537, 9.998551 
1.3650376e+3, 1.3480888e+2, -1510205.5, -1721573.8, -51364.355, -0.10545562, -0.5325366, -1498384.5, 120449.38, 0.004366158, 10.001393, 9.998608 
1.3650347e+3, 1.4480948e+2, -1313363.8, -1482722.3, 31747.498, -0.058187675, -0.37554723, -1307608.1, 213221.77, 0.0017823466, 10.001673, 9.999433 
1.3650334e+3, 1.5480922e+2, -1196934.9, -1370843.3, 9529.948, 0.15670569, -0.3603685, -1196414.1, 226417.1, 0.0004035849, 10.001777, 9.999477 
1.365031e+3, 1.6480838e+2, -1143011.6, -1305578.5, 80138.375, 0.16479367, -0.3825568, -1110149.8, 214688.48, 0.000026350568, 10.001515, 9.999378 
1.365027e+3, 1.748071e+2, -1135981.0, -1239748.0, 49994.363, -0.10904466, -0.46913522, -1115813.6, 111035.73, 0.000000016360648, 10.000848, 9.9994755 
1.3650253e+3, 1.8480636e+2, -1096905.4, -1182493.3, 26002.02, -0.12951401, -0.4809012, -1089625.1, 39230.906, 0.0, 10.000492, 9.99937 
1.3650261e+3, 1.9480613e+2, -986794.3, -1065052.4, 36367.473, 0.14489909, -0.4644578, -972503.56, 58355.066, 0.0, 10.000517, 9.99949 
1.3650255e+3, 2.0480558e+2, -860739.56, -971912.25, 72622.09, 0.2058806, -0.4537956, -824872.06, 107991.336, 0.0, 10.000795, 9.999324 
1.3650231e+3, 2.1480486e+2, -675015.44, -819252.2, 20861.232, 0.027168747, -0.48037538, -672058.9, 162810.78, 0.0, 10.001347, 9.999431 
1.3650219e+3, 2.2480431e+2, -678432.6, -929384.75, 14217.301, -0.016081546, -0.40330526, -677629.75, 59249.434, 0.0, 10.001329, 9.998012 
1.3650219e+3, 2.3480399e+2, -676633.1, -868048.8, 73598.94, 0.096225254, -0.25714982, -651606.56, -12714.393, 0.0, 10.000627, 9.9981 
1.3650206e+3, 2.448042e+2, -532777.5, -581830.3, 90631.52, 0.0885229, -0.11371134, -463412.38, 77484.39, 0.0, 10.000233, 9.999578 
1.3650182e+3, 2.5480497e+2, -426724.56, -463839.84, 40182.684, -0.055195577, -0.020008266, -401021.22, 41871.21, 0.0, 10.00022, 9.999721 
1.3650171e+3, 2.6480338e+2, -372228.28, -444639.2, 47183.4, -0.047743693, -0.121995755, -348960.16, -4052.8713, 0.000000033203506, 10.000164, 9.999212 
1.365018e+3, 2.747992e+2, -280113.25, -335983.4, 82092.38, 0.13538924, -0.4810884, -221333.13, 25609.838, 0.000006027052, 10.000064, 9.999332 
1.3650168e+3, 2.8479886e+2, -265443.53, -346549.5, 42664.008, 0.18217102, -0.41251504, -247134.28, -98187.68, 0.00007556622, 9.999791, 9.998714 
1.3650134e+3, 2.9480276e+2, -212556.23, -254829.52, 171.91707, 0.0718483, 0.08108846, -212555.55, -161640.64, 0.00033622416, 9.99941, 9.998856 
1.3650118e+3, 3.048009e+2, -167603.2, -181657.17, 126597.445, -0.04759754, 0.00016850849, -47837.863, -47837.863, 0.0008816842, 9.999262, 9.999108 
1.365015e+3, 3.147963e+2, -98624.03, -57164.734, 81715.3, 0.18601516, -0.39519098, 6409.2837, 6409.2837, 0.001665559, 9.999305, 9.999948 
1.3750446e+3, 1.2481226e+2, -1608426.5, -1606657.9, 21586.424, 0.083470866, -0.36422396, -1585937.6, 130871.87, 0.0079810945, 10.000469, 10.000512 
1.3750395e+3, 1.3481368e+2, -1346307.4, -1373835.8, -19395.643, -0.056032795, -0.31831926, -1336288.3, 282501.06, 0.0045821774, 10.001369, 10.001011 
1.3750376e+3, 1.4481372e+2, -1316624.9, -1488216.0, 25166.871, 0.06125188, -0.33871746, -1313009.9, 207774.28, 0.0018779465, 10.001665, 9.999401 
1.3750322e+3, 1.5481143e+2, -1208155.4, -1391943.9, 20386.178, -0.14659303, -0.51347756, -1205921.3, 216882.19, 0.00043006244, 10.001766, 9.999339 
1.3750292e+3, 1.6481018e+2, -1195142.3, -1411966.8, 49356.184, -0.16799265, -0.53368115, -1184435.9, 140380.06, 0.000029160963, 10.001503, 9.998656 
1.375029e+3, 1.7481013e+2, -1186540.5, -1344935.3, 29045.037, -0.009315605, -0.4259164, -1181382.5, 45437.766, 0.000000027808229, 10.000842, 9.998761 
1.3750279e+3, 1.8480967e+2, -1065879.9, -1120406.6, 19833.152, 0.079669505, -0.3934824, -1059429.1, 69396.02, 0.0, 10.000502, 9.999793 
1.3750264e+3, 1.948088e+2, -960219.4, -1007361.94, 41128.805, 0.10330866, -0.48263153, -936386.2, 94444.72, 0.0, 10.0005, 9.999899 
1.3750255e+3, 2.0480838e+2, -950732.25, -1150384.8, 86534.43, 0.12286634, -0.42084575, -918446.9, 14389.885, 0.0, 10.000757, 9.998117 
1.3750258e+3, 2.1480851e+2, -771814.0, -1005865.06, 47304.18, 0.14317495, -0.23894148, -762614.9, 72227.77, 0.0, 10.00128, 9.998185 
1.3750246e+3, 2.2480714e+2, -574246.9, -690441.4, -15089.228, 0.12879844, -0.26278198, -572319.3, 164538.19, 0.0, 10.001235, 9.999698 
1.3750225e+3, 2.3480426e+2, -567004.56, -623326.9, 54584.668, 0.0794386, -0.54401433, -533744.75, 105136.78, 0.0, 10.000555, 9.999814 
1.3750212e+3, 2.4480323e+2, -620383.5, -751673.2, 82630.15, 0.10034621, -0.5541418, -580496.44, -39602.746, 0.0, 10.000176, 9.998442 
1.375021e+3, 2.5480422e+2, -516377.44, -640097.9, 45589.56, 0.20364474, -0.32286093, -501393.06, -58499.8, 0.0, 10.000169, 9.99854 
1.3750197e+3, 2.64805e+2, -306383.44, -294921.38, 39095.77, 0.17614742, -0.17803258, -261138.81, 83749.52, 0.000000022673568, 10.000112, 10.000264 
1.375017e+3, 2.7480558e+2, -216499.89, -184838.13, 85232.11, 0.010295985, -0.1704154, -113979.164, 132899.38, 0.0000059199137, 9.9999895, 10.000404 
1.3750151e+3, 2.848047e+2, -336453.78, -484938.06, 24282.014, 0.00798541, -0.16787952, -332583.75, -183695.92, 0.000072404306, 9.999748, 9.997787 
1.3750142e+3, 2.948021e+2, -289947.7, -401883.03, -2131.8147, 0.18490228, -0.22618593, -289907.1, -238988.58, 0.00031917673, 9.999344, 9.997883 
1.375013e+3, 3.0479965e+2, -117722.98, -63158.32, 127533.445, 0.1393022, -0.3537647, 39978.31, 39978.31, 0.0008366534, 9.999206, 9.999943 
1.3750152e+3, 3.1480128e+2, -24999.334, 136312.77, 110450.055, 0.25847504, -0.21196105, 192421.52, 192421.52, 0.0015845374, 9.999148, 10.001346 
1.3850455e+3, 1.24816306e+2, -1396479.0, -1511176.5, 161062.36, 0.0695674, -0.21423592, -1282860.0, 433913.13, 0.008351057, 10.0019455, 10.000471 
1.3850407e+3, 1.3481688e+2, -1416780.6, -1408090.0, -39276.23, -0.051421914, -0.24827226, -1372919.5, 245840.69, 0.004803759, 10.000883, 10.001012 
1.38504e+3, 1.4481603e+2, -1478144.0, -1539257.5, -51265.324, 0.18680446, -0.37198594, -1449019.5, 71743.29, 0.0019753822, 10.000434, 9.999645 
1.3850331e+3, 1.5481436e+2, -1336722.3, -1426701.3, -41673.953, -0.17775993, -0.5094818, -1320386.6, 102388.53, 0.00045665295, 10.000767, 9.999581 
1.3850297e+3, 1.6481344e+2, -1264637.0, -1428162.3, 29665.479, -0.25196978, -0.51516557, -1259421.8, 65362.19, 0.00003186285, 10.000964, 9.9988 
1.3850299e+3, 1.7481342e+2, -1138688.9, -1304003.8, 62663.73, -0.020937061, -0.41902605, -1117620.8, 109167.08, 0.000000039188958, 10.001103, 9.998912 
1.3850291e+3, 1.8481295e+2, -965849.06, -1094822.4, 88347.15, 0.11094412, -0.3874647, -920956.8, 207836.3, 0.0, 10.001284, 9.999595 
1.3850276e+3, 1.9481207e+2, -822829.56, -960098.1, 52468.145, 0.12893575, -0.45611095, -805071.9, 225727.31, 0.0, 10.001533, 9.999724 
1.3850267e+3, 2.0481157e+2, -876546.3, -1098357.9, 125320.23, 0.14101118, -0.40086955, -820104.4, 112701.56, 0.0, 10.001193, 9.998263 
1.3850266e+3, 2.1481147e+2, -909197.9, -1051748.8, 179751.34, 0.15712532, -0.25731024, -787106.5, 47707.11, 0.0, 10.000246, 9.998368 
1.3850254e+3, 2.2481015e+2, -727813.6, -773577.06, 130807.22, 0.13494098, -0.28441566, -617901.9, 118926.27, 0.0, 10.000216, 9.999622 
1.3850231e+3, 2.3480752e+2, -472610.0, -586597.25, 52211.457, 0.07307827, -0.53072786, -452309.97, 186539.92, 0.0, 10.001238, 9.99974 
1.3850221e+3, 2.448062e+2, -422706.1, -651844.6, 54779.234, 0.106675744, -0.5694782, -410283.72, 130579.89, 0.0, 10.001517, 9.998478 
1.385022e+3, 2.548063e+2, -382500.9, -566431.56, 95571.01, 0.2427704, -0.4281538, -341833.5, 101034.6, 0.0, 10.00106, 9.9986105 
1.3850203e+3, 2.6480716e+2, -263988.5, -320936.78, 90859.1, 0.20677584, -0.2613269, -197246.3, 147616.52, 0.0000000049794013, 10.000604, 9.999847 
1.3850169e+3, 2.7480873e+2, -213212.36, -229131.83, 13252.698, -0.007516806, -0.114120744, -205712.75, 41134.645, 0.0000059839426, 10.000204, 9.999996 
1.3850151e+3, 2.8480762e+2, -200854.42, -385200.3, -23897.813, -0.001178253, -0.1274664, -197806.8, -48948.31, 0.00006977907, 10.000537, 9.998091 
1.3850151e+3, 2.9480356e+2, 82774.27, -176768.63, 31446.904, 0.2329933, -0.36688155, 86530.11, 137428.61, 0.0002993371, 10.001727, 9.99827 
1.3850139e+3, 3.0480126e+2, 122900.04, -23435.152, 106808.15, 0.21318054, -0.46755174, 179198.56, 179198.56, 0.00078111177, 10.001192, 9.999256 
1.385015e+3, 3.1480402e+2, -94449.734, 75151.586, -33589.438, 0.35008824, -0.14403938, 81561.68, 81561.68, 0.0014819879, 9.99879, 10.001095 
1.3950467e+3, 1.24821864e+2, -1538496.1, -1784818.6, 34657.254, -0.025445586, -0.14001927, -1533712.8, 182999.58, 0.008733579, 10.001868, 9.998612 
1.3950409e+3, 1.3481854e+2, -1585805.9, -1757481.1, -75935.625, -0.13405211, -0.32853627, -1557038.5, 61707.492, 0.005033633, 10.000874, 9.998612 
1.3950413e+3, 1.4481646e+2, -1441137.8, -1459191.8, -49112.58, 0.27178934, -0.47962445, -1400229.5, 120535.78, 0.002076125, 10.000421, 10.000201 
1.3950358e+3, 1.548181e+2, -1296586.3, -1338439.9, -22607.08, 0.00026206148, -0.34575438, -1286707.1, 136038.25, 0.00048381835, 10.000747, 10.0001955 
1.3950318e+3, 1.6481821e+2, -1194664.8, -1287091.0, 27897.785, -0.15027915, -0.32859415, -1186896.9, 137844.66, 0.000034571214, 10.000974, 9.999768 
1.3950294e+3, 1.7481682e+2, -1072768.9, -1166335.0, 72329.16, -0.18185352, -0.4654698, -1033411.56, 193341.95, 0.00000005013657, 10.001092, 9.999867 
1.3950287e+3, 1.8481609e+2, -1020478.7, -1207085.1, 90313.41, -0.079927675, -0.4697226, -983928.1, 144832.52, 0.0, 10.001278, 9.998826 
1.3950297e+3, 1.9481596e+2, -882632.25, -1079466.4, 65996.414, 0.17284636, -0.38379872, -862552.7, 168210.7, 0.0, 10.001506, 9.99892 
1.3950287e+3, 2.0481516e+2, -774297.4, -875697.9, 84323.125, 0.21173443, -0.3938249, -726606.0, 206164.92, 0.0, 10.001149, 9.999812 
1.3950256e+3, 2.1481375e+2, -808971.44, -829849.06, 148615.53, 0.01925199, -0.53939044, -670428.56, 164354.47, 0.0, 10.000186, 9.999921 
1.3950239e+3, 2.2481327e+2, -863014.5, -1044019.5, 161537.9, -0.04774285, -0.46987683, -768354.4, -31562.455, 0.0, 10.000165, 9.997791 
1.3950242e+3, 2.348138e+2, -612966.06, -864066.0, 97424.34, 0.031453125, -0.21613428, -579600.06, 59197.26, 0.0, 10.001172, 9.997868 
1.3950232e+3, 2.4481314e+2, -345599.34, -478064.3, 33103.324, 0.05614586, -0.15452068, -337787.44, 203018.45, 0.0, 10.001455, 9.9997015 
1.395021e+3, 2.5481123e+2, -308691.1, -393950.28, 84985.875, 0.019359857, -0.34214836, -256242.4, 186575.4, 0.0, 10.000978, 9.999834 
1.395019e+3, 2.6480973e+2, -401625.28, -594303.75, 71836.445, 0.005339154, -0.37832946, -377790.78, -32958.598, 0.0000000011462398, 10.0005455, 9.998 
1.3950175e+3, 2.748087e+2, -356812.75, -511579.0, 7112.463, 0.03231367, -0.3029403, -356486.6, -109637.39, 0.000005942459, 10.0001335, 9.998094 
1.3950168e+3, 2.8480783e+2, -103145.016, -171243.6, 15842.873, 0.09075698, -0.26809123, -99639.67, 49217.566, 0.000067021225, 10.000486, 9.999584 
1.3950162e+3, 2.94807e+2, 178440.28, 33653.387, 85085.3, 0.1645448, -0.34135315, 217762.17, 268619.06, 0.0002811343, 10.00167, 9.999748 
1.3950142e+3, 3.0480537e+2, -27145.174, -321864.56, 16597.271, 0.12117769, -0.34739432, -26213.436, -26213.436, 0.00073367514, 10.001139, 9.997229 
1.3950142e+3, 3.148043e+2, -249003.34, -215978.34, -91743.69, 0.370091, -0.19724971, -139273.0, -139273.0, 0.0013956741, 9.998662, 9.99916 
1.4050479e+3, 1.2482416e+2, -1721463.4, -1838464.1, -101235.06, -0.013472777, -0.28375638, -1663041.4, 53644.625, 0.009133226, 10.000437, 9.998936 
1.4050418e+3, 1.3482188e+2, -1519585.5, -1743069.4, 10742.953, -0.16254973, -0.35636038, -1519070.3, 99642.164, 0.005275387, 10.001403, 9.998455 
1.4050424e+3, 1.4482033e+2, -1285334.8, -1381919.1, 106297.04, 0.27724788, -0.44649276, -1216874.3, 303854.03, 0.0021822979, 10.001486, 10.000216 
1.4050369e+3, 1.548219e+2, -1309203.1, -1342925.0, 73690.45, 0.044367503, -0.3232566, -1250469.3, 172240.58, 0.00051218417, 10.00065, 10.000212 
1.405033e+3, 1.648221e+2, -1271177.8, -1303897.8, 103945.71, -0.100174904, -0.305007, -1182312.5, 142392.5, 0.000037386584, 10.000365, 9.999946 
1.4050306e+3, 1.7482094e+2, -1104575.9, -1160223.5, 76875.55, -0.14923789, -0.43902627, -1050643.9, 176069.98, 0.00000006103049, 10.000781, 10.000059 
1.4050296e+3, 1.8482016e+2, -1093896.6, -1241083.6, 95376.38, -0.07672408, -0.45708796, -1047021.7, 81699.4, 0.0, 10.000777, 9.99883 
1.4050302e+3, 1.948198e+2, -1042153.8, -1152102.0, 118785.234, 0.12629953, -0.39722148, -966238.3, 64488.15, 0.0, 10.000402, 9.998947 
1.405029e+3, 2.0481898e+2, -858202.8, -904345.6, 121418.93, 0.16447888, -0.4170813, -757682.75, 175051.56, 0.0, 10.00052, 9.999922 
1.4050263e+3, 2.1481778e+2, -650675.5, -738747.6, 66188.96, 0.0252141, -0.5522948, -615212.2, 219531.86, 0.0, 10.001213, 10.000051 
1.4050248e+3, 2.248177e+2, -689235.4, -968583.4, 119030.41, -0.04516422, -0.44500983, -645396.25, 91352.92, 0.0, 10.00141, 9.997703 
1.4050245e+3, 2.348188e+2, -627199.75, -875614.4, 176589.77, -0.03730137, -0.12565711, -535510.3, 103239.05, 0.0, 10.001108, 9.997813 
1.4050235e+3, 2.448181e+2, -460608.1, -557384.56, 109626.91, -0.017776277, -0.055648476, -389165.28, 151592.97, 0.0, 10.000767, 9.999491 
1.4050215e+3, 2.5481543e+2, -401277.3, -460839.03, 39477.79, 0.004516632, -0.2971614, -381607.25, 61169.387, 0.0, 10.000433, 9.999639 
1.4050198e+3, 2.6481298e+2, -412341.72, -646574.75, 61463.563, 0.023445455, -0.39846337, -397193.16, -52393.832, 0.0000000047036606, 10.000678, 9.997576 
1.4050186e+3, 2.7481094e+2, -170454.94, -466344.66, 90750.87, 0.049395528, -0.38172913, -144838.84, 101986.266, 0.0000060153247, 10.00161, 9.997691 
1.405018e+3, 2.8480977e+2, 54263.82, -118620.375, 102436.445, 0.11043223, -0.3453545, 101857.02, 250693.05, 0.00006434686, 10.001671, 9.999374 
1.4050178e+3, 2.9480937e+2, 39446.207, -55226.4, 27576.322, 0.19336693, -0.35183564, 46892.92, 97725.484, 0.000270618, 10.000807, 9.999554 
1.405015e+3, 3.0480817e+2, -160792.19, -408847.06, -76746.93, 0.12893052, -0.29802778, -138967.31, -138967.31, 0.000709568, 10.000309, 9.997041 
1.4050132e+3, 3.148058e+2, -20025.232, -112186.16, -52262.297, 0.31916696, -0.25802577, 3570.3892, 3570.3892, 0.0013524415, 10.000273, 9.99909 
1.415049e+3, 1.2482358e+2, -1555446.6, -1472560.0, -162965.11, 0.013833345, -0.6309698, -1345851.1, 370839.44, 0.009556688, 10.000358, 10.001496 
1.4150429e+3, 1.3482694e+2, -1387759.0, -1450523.6, 55312.33, -0.19539893, -0.34313655, -1355546.5, 263112.66, 0.0055341963, 10.001338, 10.000493 
1.4150426e+3, 1.4482762e+2, -1322119.6, -1464439.9, 68275.945, 0.13954642, -0.286506, -1294662.5, 225989.89, 0.0022969088, 10.001497, 9.999651 
1.4150363e+3, 1.5482582e+2, -1350516.4, -1430239.5, 46249.75, -0.090418786, -0.4400503, -1329320.8, 93347.19, 0.0005425403, 10.000651, 9.999615 
1.415033e+3, 1.6482529e+2, -1312673.3, -1390033.3, 110745.48, -0.14424002, -0.43613377, -1234047.3, 90625.46, 0.000040406845, 10.000367, 9.999354 
1.4150333e+3, 1.7482588e+2, -1149489.1, -1245201.9, 98032.26, 0.029410874, -0.33451813, -1088255.8, 138411.89, 0.00000007226826, 10.000748, 9.999492 
1.415032e+3, 1.848253e+2, -1040903.6, -1130964.4, 75187.08, 0.06606153, -0.34280232, -998293.6, 130379.45, 0.0, 10.000772, 9.999589 
1.4150289e+3, 1.9482355e+2, -993040.5, -1045033.2, 109549.28, -0.06081998, -0.49818105, -906445.3, 124243.45, 0.0, 10.000378, 9.999696 
1.4150275e+3, 2.0482296e+2, -950905.5, -1091978.3, 138312.08, -0.04521231, -0.4711706, -866182.06, 66514.63, 0.0, 10.000495, 9.998648 
1.4150287e+3, 2.1482356e+2, -752315.1, -934445.94, 97237.23, 0.138074, -0.2952454, -710158.94, 124537.78, 0.0, 10.001142, 9.998745 
1.4150277e+3, 2.248234e+2, -585502.06, -732967.56, 102052.695, 0.098315865, -0.2111424, -533333.0, 203367.17, 0.0, 10.001323, 9.999361 
1.4150243e+3, 2.348225e+2, -523840.53, -640792.94, 172101.33, -0.18003404, -0.25950137, -400552.25, 238154.28, 0.0, 10.001025, 9.999465 
1.4150228e+3, 2.4482104e+2, -577159.2, -792469.56, 92011.695, -0.17223082, -0.26847005, -543195.94, -2474.9385, 0.0, 10.000728, 9.997897 
1.4150235e+3, 2.5481895e+2, -522275.03, -703031.75, 33788.707, 0.14918517, -0.28981096, -516165.44, -73420.93, 0.0, 10.000386, 9.998001 
1.4150225e+3, 2.64817e+2, -353005.7, -511614.56, 92118.55, 0.21006085, -0.3064794, -310757.56, 34005.94, 0.000000079284355, 10.000627, 9.998526 
1.4150196e+3, 2.7481526e+2, -112106.83, -332848.13, 135583.11, -0.0040348195, -0.3581026, -47650.527, 199126.42, 0.0000071917057, 10.001555, 9.998635 
1.4150187e+3, 2.8481317e+2, -78095.08, -387598.72, 68087.13, 0.008999428, -0.3698127, -63778.914, 85018.56, 0.00006590789, 10.0016365, 9.997546 
1.4150195e+3, 2.9481065e+2, -100869.74, -339515.2, 5349.392, 0.2690189, -0.40247294, -100749.89, -49923.227, 0.00027570056, 10.00076, 9.997631 
1.4150159e+3, 3.0480963e+2, -62318.473, -180787.8, -80540.36, 0.1787817, -0.3065005, -21575.666, -21575.666, 0.00071893854, 10.000225, 9.998634 
1.4150114e+3, 3.1480846e+2, 59620.55, 86287.85, -27441.844, 0.10088151, -0.32316294, 103463.89, 103463.89, 0.0013634532, 10.000143, 10.000509 
1.4250498e+3, 1.24828406e+2, -1690972.9, -1521866.8, -37978.73, 0.10155049, -0.64715236, -1513729.0, 202912.52, 0.010011913, 9.999345, 10.00165 
1.4250433e+3, 1.3483196e+2, -1702576.6, -1585867.3, 81234.97, -0.16470462, -0.3543144, -1544200.0, 74409.07, 0.0058154534, 9.999097, 10.000647 
1.4250423e+3, 1.4483325e+2, -1586820.0, -1605704.6, 57639.645, 0.055210605, -0.23761126, -1537854.4, -17258.088, 0.002423067, 9.999758, 9.99951 
1.4250378e+3, 1.5483049e+2, -1242869.3, -1394021.1, 53332.23, -0.041701812, -0.47548217, -1225946.3, 196673.83, 0.00057589856, 10.001462, 9.999471 
1.425035e+3, 1.6482943e+2, -1133692.6, -1348977.4, 127538.266, -0.046609968, -0.49554282, -1074443.1, 250187.16, 0.00004378684, 10.001788, 9.998947 
1.4250347e+3, 1.7483021e+2, -1175769.4, -1301231.4, 114854.04, 0.0881999, -0.3368183, -1107631.6, 118994.15, 0.00000008454083, 10.000757, 9.999099 
1.4250328e+3, 1.8482968e+2, -1083541.8, -1150173.1, 98310.164, 0.07640655, -0.3218882, -1013055.6, 115576.13, 0.0, 10.000479, 9.999597 
1.425029e+3, 1.9482781e+2, -887257.44, -990444.06, 66269.99, -0.11095791, -0.49142796, -854865.1, 175782.88, 0.0, 10.00109, 9.999724 
1.4250278e+3, 2.0482737e+2, -810841.25, -1050568.8, 134715.58, -0.12265183, -0.43768498, -750384.1, 182270.73, 0.0, 10.001576, 9.998408 
1.4250295e+3, 2.1482845e+2, -647745.1, -907304.7, 159330.9, 0.06401502, -0.19181067, -572027.6, 262624.1, 0.0, 10.001963, 9.998531 
1.4250287e+3, 2.248278e+2, -509398.78, -670365.4, 122321.62, 0.06885323, -0.15945931, -443457.56, 293200.88, 0.0, 10.001723, 9.999601 
1.4250258e+3, 2.3482536e+2, -528688.8, -614191.44, 73496.4, -0.12721424, -0.3865696, -486414.25, 152260.7, 0.0, 10.000854, 9.999734 
1.4250244e+3, 2.4482359e+2, -637150.44, -855946.5, 19682.81, -0.07870978, -0.42424098, -635393.9, -94702.03, 0.0, 10.000484, 9.997576 
1.4250247e+3, 2.5482252e+2, -489031.13, -719531.4, 45230.973, 0.23156573, -0.3112317, -480473.2, -37764.027, 0.00000000006254562, 10.000768, 9.997701 
1.4250238e+3, 2.6482105e+2, -299340.38, -462332.47, 155661.69, 0.27981836, -0.27386087, -205131.67, 139592.2, 0.00000036239143, 10.000895, 9.998735 
1.4250214e+3, 2.7481925e+2, -195830.84, -342972.16, 133017.23, 0.051733, -0.3563376, -117394.17, 129340.77, 0.000010031926, 10.0008545, 9.998898 
1.4250201e+3, 2.8481695e+2, -248456.75, -517970.97, 64706.742, 0.038798433, -0.38051352, -233726.61, -84968.71, 0.000074052536, 10.000678, 9.997114 
1.42502e+3, 2.948142e+2, -181397.02, -422054.88, 90712.09, 0.25554204, -0.39032724, -151035.1, -100241.78, 0.00029689216, 10.000413, 9.997225 
1.4250161e+3, 3.0481353e+2, 107836.15, -54887.004, 87091.78, 0.12825707, -0.26363358, 145657.98, 145657.98, 0.00075968413, 10.001183, 9.999046 
1.4250119e+3, 3.1481203e+2, 478081.38, 295195.8, 40793.62, 0.00006396998, -0.35437146, 486768.0, 486768.0, 0.0014267517, 10.002967, 10.000596 
1.4350495e+3, 1.24838665e+2, -1853737.1, -1849516.9, -89487.02, 0.11562453, -0.33192366, -1762115.1, -45576.473, 0.010506618, 9.999302, 9.999409 
1.4350429e+3, 1.3483724e+2, -1824635.3, -1830173.8, 76922.16, -0.11778419, -0.37474376, -1750432.5, -131872.95, 0.006123269, 9.999065, 9.998979 
1.4350416e+3, 1.4483751e+2, -1562006.5, -1566278.8, 113156.125, -0.023439407, -0.28548032, -1450966.4, 69590.8, 0.002563054, 9.999797, 9.99977 
1.4350413e+3, 1.548359e+2, -1224646.9, -1348172.8, 123170.89, 0.13954481, -0.43864965, -1148621.1, 273945.13, 0.0006133788, 10.001427, 9.999805 
1.4350387e+3, 1.6483465e+2, -1151084.1, -1383633.3, 82474.57, 0.13148656, -0.48272264, -1124804.0, 199772.89, 0.000047750204, 10.001774, 9.998721 
1.4350344e+3, 1.7483398e+2, -1196145.6, -1342446.8, 80307.2, -0.020557607, -0.4451484, -1160667.3, 65920.55, 0.00000010052836, 10.000747, 9.998823 
1.4350317e+3, 1.8483332e+2, -1132609.6, -1252233.9, 112428.78, -0.08464624, -0.39289367, -1065073.0, 63523.844, 0.0, 10.000477, 9.9988985 
1.4350307e+3, 1.948326e+2, -940230.75, -1094891.3, 94315.31, -0.06964883, -0.3768525, -895596.5, 135007.67, 0.0, 10.001063, 9.999023 
1.4350295e+3, 2.048323e+2, -758554.56, -935309.4, 142365.63, -0.12718603, -0.3136451, -679365.5, 253242.77, 0.0, 10.001544, 9.999215 
1.4350285e+3, 2.1483245e+2, -603315.8, -800342.2, 179542.72, -0.2507847, -0.24143293, -497035.38, 337573.6, 0.0, 10.001894, 9.999301 
1.4350282e+3, 2.2483085e+2, -600516.75, -839807.5, 84427.96, -0.18655863, -0.28577316, -573727.5, 162896.66, 0.0, 10.00164, 9.998478 
1.4350286e+3, 2.3482746e+2, -621587.94, -787547.56, 46404.688, 0.07855515, -0.4952445, -609493.9, 29160.244, 0.0, 10.000771, 9.998585 
1.4350279e+3, 2.4482578e+2, -579711.94, -724985.0, 22851.537, 0.21055979, -0.5115371, -576202.1, -35531.688, 0.0, 10.000426, 9.998506 
1.4350253e+3, 2.5482598e+2, -432503.22, -590365.06, 62555.56, 0.2036848, -0.3644934, -410720.25, 31951.617, 0.000000006122379, 10.000713, 9.998616 
1.435024e+3, 2.6482502e+2, -334321.0, -526890.5, 149909.67, 0.18887526, -0.30215737, -252438.23, 92243.38, 0.0000008787704, 10.0008545, 9.998314 
1.4350235e+3, 2.748228e+2, -233959.78, -412957.22, 139778.55, 0.16908334, -0.37515706, -157482.4, 89217.375, 0.000014099222, 10.000807, 9.9984455 
1.4350219e+3, 2.848211e+2, -190403.47, -385669.63, 49937.207, 0.14039442, -0.3685194, -178373.69, -29656.135, 0.0000867421, 10.000626, 9.998045 
1.4350188e+3, 2.948198e+2, -124672.51, -298892.72, 90308.33, 0.09832481, -0.32838565, -86308.45, -35573.0, 0.00032959942, 10.00038, 9.998092 
1.4350154e+3, 3.0481946e+2, 56670.97, -143564.78, 150161.53, -0.07559249, -0.18209477, 137030.44, 137030.44, 0.00082783273, 10.0011215, 9.99846 
1.4350145e+3, 3.1481665e+2, 369825.78, 106448.445, 136119.47, -0.068466425, -0.34088433, 427531.97, 427531.97, 0.0015416822, 10.002818, 9.99937 
1.4450468e+3, 1.24844186e+2, -1848285.5, -1952717.9, -185735.2, -0.09309416, -0.27659884, -1707566.3, 8918.037, 0.011047917, 9.9998, 9.998459 
1.4450449e+3, 1.3484159e+2, -1458267.1, -1698606.1, 45581.145, 0.034739338, -0.39830604, -1449912.9, 168603.95, 0.00646129, 10.00177, 9.998578 
1.4450428e+3, 1.4484142e+2, -1315997.1, -1461167.6, 82748.59, 0.035618085, -0.32565773, -1278509.9, 242009.44, 0.0027186894, 10.001565, 9.999627 
1.445041e+3, 1.5484041e+2, -1549661.4, -1517589.9, 42550.816, 0.090391316, -0.404904, -1488153.5, -65630.28, 0.0006559602, 9.999261, 9.999679 
1.4450385e+3, 1.6483922e+2, -1566950.1, -1591291.1, 32217.424, 0.06180744, -0.43408555, -1544681.0, -220147.22, 0.000052490832, 9.998969, 9.998639 
1.4450352e+3, 1.7483804e+2, -1165829.9, -1335927.0, 30580.97, -0.028071027, -0.43840182, -1160499.0, 66050.7, 0.00000012546444, 10.000998, 9.998744 
1.4450331e+3, 1.848372e+2, -955214.6, -1174812.4, 87375.4, -0.05674253, -0.3954957, -924691.56, 203868.27, 0.0, 10.001722, 9.998833 
1.4450319e+3, 1.9483677e+2, -938831.1, -1098808.3, 105035.46, -0.041008685, -0.34777617, -886794.6, 143768.81, 0.0, 10.001089, 9.998983 
1.4450306e+3, 2.0483623e+2, -902760.75, -988804.94, 159524.45, -0.10948617, -0.31280276, -780558.9, 152009.6, 0.0, 10.000492, 9.9993515 
1.4450292e+3, 2.1483564e+2, -871229.0, -908824.44, 135600.81, -0.25609544, -0.32892072, -753129.2, 81445.49, 0.0, 9.999978, 9.999474 
1.4450291e+3, 2.2483405e+2, -819373.75, -976867.0, 69379.85, -0.18740897, -0.3671385, -793169.94, -56579.754, 0.0, 10.000273, 9.998197 
1.4450301e+3, 2.3483145e+2, -543859.06, -779510.3, 85600.3, 0.10901216, -0.47018883, -516047.16, 122567.76, 0.0, 10.0014305, 9.998321 
1.4450292e+3, 2.4482998e+2, -349981.38, -592612.4, 76569.9, 0.22730151, -0.4621019, -327838.2, 212791.34, 0.0, 10.00191, 9.998697 
1.445026e+3, 2.548297e+2, -267418.34, -489958.44, 49608.293, 0.15010533, -0.38292882, -256860.63, 185772.88, 0.000000012932129, 10.001746, 9.998813 
1.4450246e+3, 2.6482865e+2, -240690.4, -502171.47, 124826.164, 0.12545733, -0.33272818, -190669.61, 153974.38, 0.0000016431604, 10.001582, 9.998133 
1.4450246e+3, 2.7482682e+2, -146091.17, -389801.25, 121920.01, 0.16336535, -0.35078147, -95571.21, 151088.83, 0.000019264668, 10.001492, 9.998272 
1.4450231e+3, 2.8482497e+2, -75911.42, -373634.3, 10680.861, 0.16196163, -0.3286052, -75528.734, 73150.8, 0.000103277154, 10.001598, 9.997657 
1.4450201e+3, 2.94823e+2, 70370.21, -241208.27, -58715.082, 0.114864826, -0.31917092, 81067.45, 131770.75, 0.00037424423, 10.001885, 9.997752 
1.4450169e+3, 3.0482185e+2, 126856.96, -148268.9, -1239.8292, -0.06045062, -0.21997562, 126862.55, 126862.55, 0.0009255103, 10.0017605, 9.998132 
1.4450161e+3, 3.1481874e+2, 78718.33, -121670.91, -8999.604, -0.090163186, -0.3785694, 79121.695, 79121.695, 0.0017119541, 10.001193, 9.998584 
1.4550419e+3, 1.2484507e+2, -1829163.3, -1913016.6, -78481.23, -0.5949578, -0.4977202, -1782111.6, -65634.69, 0.011640448, 9.9998045, 9.998726 
1.4550489e+3, 1.3484524e+2, -1408025.5, -1576279.0, 124875.85, 0.25062817, -0.42460358, -1341582.4, 276896.34, 0.0068325973, 10.001699, 9.999453 
1.4550458e+3, 1.4484514e+2, -1366130.0, -1557309.4, -9495.909, 0.16589484, -0.35802472, -1365659.5, 154821.6, 0.0028915813, 10.001527, 9.998985 
1.4550371e+3, 1.5484424e+2, -1599487.8, -1614642.0, -39878.38, -0.24601966, -0.36514685, -1566473.1, -143984.1, 0.00070428615, 9.999238, 9.999021 
1.4550339e+3, 1.6484329e+2, -1554916.0, -1578526.0, 97873.84, -0.30457324, -0.33998027, -1468137.9, -143638.6, 0.000058062662, 9.99901, 9.998714 
1.4550368e+3, 1.7484237e+2, -1160922.8, -1324429.0, 113423.15, 0.022203177, -0.32427022, -1102860.4, 123650.984, 0.00000016567238, 10.000985, 9.998835 
1.4550366e+3, 1.8484136e+2, -917898.06, -1092694.4, 58800.06, 0.105494216, -0.33196408, -899959.2, 228561.19, 0.0, 10.001702, 9.999406 
1.4550328e+3, 1.9484031e+2, -906361.4, -1023005.94, 85945.08, -0.076410696, -0.40109876, -860818.1, 169707.48, 0.0, 10.001054, 9.999521 
1.4550312e+3, 2.0483916e+2, -944232.1, -1065972.0, 132837.08, -0.11607938, -0.42978185, -858982.8, 73552.63, 0.0, 10.000453, 9.998841 
1.455032e+3, 2.1483794e+2, -915046.4, -986903.06, 120916.48, 0.00034880656, -0.4579917, -824833.4, 9716.192, 0.0, 9.999919, 9.998968 
1.4550315e+3, 2.2483732e+2, -784693.94, -889143.8, 106168.68, 0.0131900245, -0.40662265, -718600.5, 17956.65, 0.0, 10.000206, 9.99883 
1.4550297e+3, 2.3483734e+2, -515137.16, -697421.25, 136343.45, -0.08410216, -0.30673897, -442277.97, 196279.4, 0.0, 10.001339, 9.998928 
1.4550282e+3, 2.4483612e+2, -393074.28, -673034.0, 66167.18, -0.0785878, -0.279395, -378223.72, 162346.16, 0.0, 10.0018635, 9.99817 
1.4550267e+3, 2.5483358e+2, -312221.7, -571930.1, 49487.45, 0.03061559, -0.37366915, -303111.44, 139483.75, 0.000000017460069, 10.001694, 9.998277 
1.4550254e+3, 2.6483184e+2, -245582.64, -497236.34, 118214.01, 0.043525632, -0.36346593, -198762.6, 145848.75, 0.000002726617, 10.001516, 9.9981985 
1.4550245e+3, 2.748311e+2, -151193.92, -385643.44, 126311.61, -0.023595136, -0.28673255, -96092.64, 150524.56, 0.000025068905, 10.001429, 9.998331 
1.4550237e+3, 2.8482842e+2, -195666.31, -609960.1, 18189.615, 0.050716355, -0.26648244, -194869.22, -46223.93, 0.00012317942, 10.001544, 9.996061 
1.4550237e+3, 2.948238e+2, -49301.207, -481973.3, -39280.64, 0.26443094, -0.36081713, -45763.99, 4933.351, 0.0004300027, 10.00184, 9.996127 
1.4550206e+3, 3.0482072e+2, 110302.42, -160842.14, -24219.836, 0.13082142, -0.369946, 112448.86, 112448.86, 0.0010507762, 10.001677, 9.998079 
1.4550169e+3, 3.1481844e+2, 24356.414, -208884.45, -12852.108, -0.16150163, -0.43923244, 25062.459, 25062.459, 0.0019355183, 10.001086, 9.998034 
1.4650425e+3, 1.2484763e+2, -1728906.9, -1766366.3, -22651.838, -0.51871824, -0.5094844, -1718244.3, -1788.8885, 0.012283002, 10.000055, 9.999615 
1.4650492e+3, 1.3484925e+2, -1791591.9, -1670015.0, 90884.89, 0.2605992, -0.3744028, -1621463.3, -3024.4817, 0.00723705, 9.998661, 10.000274 
1.4650452e+3, 1.4484869e+2, -1763086.9, -1762178.5, -16383.4, 0.09749425, -0.3870233, -1746243.0, -225798.31, 0.0030819494, 9.998854, 9.998872 
1.4650379e+3, 1.5484802e+2, -1318606.5, -1494376.6, -17987.004, -0.17405573, -0.35826135, -1316784.8, 105668.31, 0.0007585455, 10.001216, 9.998902 
1.4650351e+3, 1.6484712e+2, -1199309.6, -1405935.3, 149312.16, -0.21016037, -0.32301596, -1121052.5, 203410.69, 0.00006440502, 10.001456, 9.998715 
1.4650367e+3, 1.7484593e+2, -1365260.9, -1422712.0, 143219.61, -0.00616138, -0.33491096, -1247914.5, -21439.03, 0.00000022299002, 9.999589, 9.998827 
1.4650364e+3, 1.8484475e+2, -1262043.1, -1265662.4, 88843.98, 0.03789778, -0.35576016, -1174990.4, -46504.773, 0.0, 9.999386, 9.999328 
1.4650337e+3, 1.9484368e+2, -919649.2, -1035646.4, 56575.133, -0.08630333, -0.42011508, -896625.7, 133866.5, 0.0, 10.000999, 9.999456 
1.4650325e+3, 2.0484237e+2, -797005.7, -1021744.94, 67024.76, -0.07087377, -0.44633177, -778534.75, 153968.94, 0.0, 10.001573, 9.998609 
1.4650333e+3, 2.1484098e+2, -757901.0, -936551.6, 65172.582, 0.09117729, -0.47121367, -736652.9, 97866.58, 0.0, 10.001103, 9.998748 
1.4650327e+3, 2.2484045e+2, -644731.4, -791380.75, 104129.38, 0.07937907, -0.41026935, -590700.5, 145824.84, 0.0, 10.0010395, 9.999102 
1.4650308e+3, 2.3484087e+2, -476208.34, -645831.6, 96750.055, -0.11534101, -0.3011694, -432359.25, 206161.45, 0.0, 10.001462, 9.999224 
1.4650293e+3, 2.4483956e+2, -430283.66, -717494.75, 7820.4375, -0.13741052, -0.28384075, -430070.88, 110462.61, 0.0, 10.001735, 9.997922 
1.4650284e+3, 2.5483653e+2, -291632.22, -585823.94, 225.26732, 0.018682268, -0.40206307, -291632.06, 150931.75, 0.000000044837254, 10.001951, 9.998049 
1.4650273e+3, 2.6483443e+2, -174998.06, -489017.56, 77908.81, 0.06689106, -0.40697026, -156731.33, 187852.94, 0.0000038968087, 10.002113, 9.99797 
1.4650264e+3, 2.7483338e+2, -53620.05, -362737.38, 53691.227, 0.010847093, -0.33352518, -44559.863, 202033.83, 0.000030358568, 10.002199, 9.998121 
1.4650258e+3, 2.8483072e+2, -68732.97, -587844.3, 10817.005, 0.05212988, -0.2878176, -68507.67, 80115.5, 0.00014195647, 10.002583, 9.995717 
1.4650254e+3, 2.9482642e+2, 144002.16, -425543.16, 31759.354, 0.18979077, -0.31233862, 145767.66, 196440.9, 0.00048668167, 10.003337, 9.9957905 
1.4650227e+3, 3.048228e+2, 316377.28, -62557.21, 54021.633, 0.101589255, -0.35663256, 323928.25, 323928.25, 0.0011867037, 10.003097, 9.998064 
1.4650196e+3, 3.14821e+2, 98349.39, -189026.77, 50211.914, -0.029038671, -0.3791672, 106870.055, 106870.055, 0.0021867163, 10.001658, 9.99789 
1.4750485e+3, 1.24851845e+2, -1620039.5, -1529478.1, -3442.4229, 0.039701715, -0.32111233, -1529347.5, 187072.08, 0.012969953, 10.00002, 10.0012665 
1.4750452e+3, 1.348538e+2, -1745627.5, -1567451.9, 39268.83, -0.0043515367, -0.23325938, -1559181.1, 59213.586, 0.0076708426, 9.998631, 10.000992 
1.475041e+3, 1.4485213e+2, -1729300.6, -1697810.8, 57446.273, -0.23156561, -0.41301456, -1653990.8, -133581.4, 0.0032881629, 9.998873, 9.999309 
1.4750436e+3, 1.5485191e+2, -1295616.5, -1432212.5, 75858.125, 0.2587041, -0.3814171, -1261840.6, 160573.38, 0.00081847684, 10.001161, 9.999353 
1.4750417e+3, 1.6485086e+2, -1210134.0, -1432452.9, 74106.49, 0.28704953, -0.3753289, -1187696.4, 136727.72, 0.000071419374, 10.001461, 9.998534 
1.475035e+3, 1.7484878e+2, -1377578.6, -1447159.4, 76943.39, -0.16439496, -0.4621013, -1327925.8, -101484.375, 0.0000002932695, 9.999581, 9.998663 
1.4750324e+3, 1.8484738e+2, -1308227.1, -1365473.0, 141350.88, -0.30339494, -0.46288756, -1192630.4, -64175.457, 0.0, 9.999397, 9.998641 
1.4750345e+3, 1.9484676e+2, -971744.8, -1139445.8, 122871.6, -0.11963731, -0.40892196, -906839.4, 123624.13, 0.0, 10.000977, 9.998758 
1.4750348e+3, 2.0484589e+2, -797511.6, -1015213.06, 42569.77, -0.029516751, -0.36312935, -789483.5, 142989.92, 0.0, 10.001539, 9.99867 
1.4750332e+3, 2.1484478e+2, -767004.75, -936790.25, 51563.504, -0.03254446, -0.36565113, -752571.94, 81912.31, 0.0, 10.001025, 9.998783 
1.4750327e+3, 2.2484347e+2, -662086.94, -810786.5, 113724.3, -0.031368803, -0.37730727, -600565.06, 135929.72, 0.0, 10.000962, 9.999007 
1.475033e+3, 2.3484208e+2, -491836.53, -660860.44, 119155.6, -0.03248307, -0.4437941, -430265.2, 208239.31, 0.0, 10.001385, 9.999159 
1.4750324e+3, 2.4484043e+2, -433413.72, -716140.7, 10881.806, -0.0031606366, -0.4601271, -432995.5, 107523.984, 0.0, 10.001692, 9.997956 
1.475031e+3, 2.5483853e+2, -299956.53, -591009.2, 15562.903, 0.0673564, -0.46493277, -299126.72, 143413.22, 0.000000082863835, 10.001892, 9.998047 
1.4750303e+3, 2.6483628e+2, -220386.9, -565827.56, 78543.84, 0.14068365, -0.4607698, -203366.77, 141196.83, 0.0000048986644, 10.002041, 9.997473 
1.475031e+3, 2.7483368e+2, -99526.35, -440918.28, 65908.24, 0.21780139, -0.4936944, -87244.16, 159345.88, 0.00003468843, 10.002128, 9.997616 
1.4750293e+3, 2.8483176e+2, -23686.322, -479310.63, 35046.086, 0.1185501, -0.3861268, -21006.38, 127607.11, 0.00015714212, 10.002513, 9.996497 
1.4750253e+3, 2.948306e+2, 192824.53, -315313.44, 69657.13, -0.16900901, -0.179131, 202200.36, 252833.81, 0.0005383698, 10.003292, 9.9965725 
1.4750229e+3, 3.0482778e+2, 309418.75, -51649.11, 964.3811, -0.20470712, -0.1896163, 309421.3, 309421.3, 0.0013175347, 10.003003, 9.998175 
1.4750238e+3, 3.1482628e+2, 97393.29, -148917.95, 8085.467, 0.21029863, -0.1948873, 97658.414, 97658.414, 0.0024270895, 10.001495, 9.998235 
1.4850497e+3, 1.2485526e+2, -1671133.8, -1542014.1, 169105.9, 0.18825524, -0.392272, -1425563.5, 290816.0, 0.013700781, 9.999605, 10.001396 
1.485044e+3, 1.3485663e+2, -1745601.5, -1650415.1, 13990.759, -0.0028083744, -0.28978953, -1648401.4, -30038.408, 0.00813248, 9.998973, 10.000267 
1.4850397e+3, 1.4485481e+2, -1761443.0, -1715709.1, 65906.58, -0.22387157, -0.44248083, -1668815.3, -148434.03, 0.0035089266, 9.998677, 9.999272 
1.485044e+3, 1.5485504e+2, -1569632.8, -1560705.8, 41818.945, 0.28832933, -0.37080792, -1523112.8, -100729.41, 0.0008836724, 9.999268, 9.999378 
1.4850427e+3, 1.6485418e+2, -1395368.4, -1474101.4, -10343.879, 0.33066398, -0.36733553, -1394032.0, -69640.91, 0.00007901186, 10.000004, 9.998943 
1.4850357e+3, 1.7485195e+2, -1140208.0, -1286725.6, 21763.906, -0.11843617, -0.50795275, -1137043.5, 89363.1, 0.00000037325287, 10.001017, 9.999072 
1.485033e+3, 1.8485053e+2, -1075307.4, -1300401.1, 161484.97, -0.26926994, -0.5117092, -991018.8, 137401.58, 0.0, 10.001201, 9.9982195 
1.4850353e+3, 1.9485009e+2, -1055869.8, -1226272.5, 152053.77, -0.122275695, -0.3984699, -966773.6, 63656.906, 0.0, 10.000602, 9.998342 
1.4850357e+3, 2.0484915e+2, -930474.25, -1106079.5, 70715.945, -0.051088355, -0.3245106, -905538.0, 26904.223, 0.0, 10.000745, 9.9984255 
1.4850342e+3, 2.1484773e+2, -687993.0, -924000.6, 45664.15, -0.052939765, -0.3328887, -679465.75, 154989.4, 0.0, 10.001676, 9.998553 
1.485034e+3, 2.2484586e+2, -584102.75, -794167.44, 86210.086, -0.02808919, -0.38349578, -553252.9, 183218.05, 0.0, 10.001593, 9.998813 
1.4850344e+3, 2.3484358e+2, -635907.5, -751292.7, 67978.195, 0.012410557, -0.5172346, -604440.3, 34048.36, 0.0, 10.000488, 9.998965 
1.4850341e+3, 2.4484189e+2, -599116.44, -772782.5, 7217.499, 0.049396314, -0.5375509, -598817.0, -58313.43, 0.0, 10.000448, 9.998172 
1.4850329e+3, 2.5484088e+2, -332698.34, -578657.2, 16816.87, 0.086734965, -0.4795811, -331553.84, 110961.164, 0.00000011463164, 10.001545, 9.998301 
1.4850326e+3, 2.648388e+2, -220703.11, -585903.5, 90565.8, 0.15547319, -0.4582599, -199477.4, 145059.8, 0.000005857849, 10.0021305, 9.99729 
1.4850335e+3, 2.7483582e+2, -97254.75, -460498.4, 86366.664, 0.2603269, -0.5111029, -77765.445, 168804.03, 0.000039061, 10.002241, 9.997423 
1.4850317e+3, 2.8483418e+2, -35655.62, -399142.75, 80007.24, 0.14409034, -0.40384728, -18824.559, 129765.195, 0.00017263576, 10.002077, 9.99725 
1.4850274e+3, 2.9483393e+2, 2614.6785, -319083.94, 97476.44, -0.21247494, -0.18169723, 29845.557, 80443.0, 0.000590196, 10.0016165, 9.997349 
1.485025e+3, 3.048309e+2, 163222.38, -130679.32, 21780.371, -0.23055199, -0.24695028, 164827.7, 164827.7, 0.0014390951, 10.002001, 9.998139 
1.485027e+3, 3.148295e+2, 366529.28, 16298.171, -4967.216, 0.3048558, -0.23621166, 366599.72, 366599.72, 0.0026355411, 10.003175, 9.998579 
1.4950463e+3, 1.24858506e+2, -1760062.6, -1719759.9, 179808.77, -0.13949856, -0.6597424, -1558976.8, 157352.38, 0.014485426, 9.999592, 10.000165 
1.4950454e+3, 1.3485798e+2, -1906937.3, -1969243.8, -12863.097, 0.21398541, -0.53216016, -1904386.1, -286045.34, 0.008627366, 9.998919, 9.998099 
1.4950417e+3, 1.4485693e+2, -1793896.3, -1792653.1, 76119.016, 0.068450265, -0.47182295, -1717153.1, -196794.84, 0.0037456865, 9.998698, 9.998743 
1.4950392e+3, 1.548576e+2, -1601291.0, -1623910.9, 70459.7, -0.14132376, -0.3143953, -1541239.4, -118879.914, 0.0009542572, 9.999253, 9.998955 
1.4950383e+3, 1.6485722e+2, -1322262.5, -1331305.9, 19906.994, -0.13236038, -0.2888175, -1306370.1, 17992.62, 0.00008722728, 10.000035, 9.999911 
1.4950389e+3, 1.7485552e+2, -1078570.0, -1149699.3, 63165.895, 0.088896394, -0.47326332, -1041644.9, 184725.9, 0.0000004647829, 10.000981, 10.00003 
1.495038e+3, 1.8485428e+2, -1086969.5, -1327140.6, 133277.13, 0.08515273, -0.4962755, -1027657.94, 100723.195, 0.0, 10.001202, 9.998038 
1.4950356e+3, 1.9485368e+2, -1072906.8, -1258136.5, 133759.77, -0.15182185, -0.3809567, -1002828.06, 27564.623, 0.0, 10.000581, 9.998136 
1.4950351e+3, 2.0485222e+2, -970062.6, -1181217.0, 98240.445, -0.18766159, -0.32522228, -931425.6, 984.1515, 0.0, 10.0007105, 9.997928 
1.4950365e+3, 2.1484989e+2, -733013.7, -1002134.1, 86149.44, -0.013488705, -0.37419155, -707798.5, 126633.69, 0.0, 10.00161, 9.998049 
1.4950363e+3, 2.2484758e+2, -615688.44, -850081.3, 39919.863, 0.04022929, -0.42411205, -609076.1, 127377.55, 0.0, 10.001542, 9.998457 
1.4950347e+3, 2.3484536e+2, -672242.8, -810497.0, 31475.82, -0.03077365, -0.51854277, -665414.1, -26940.432, 0.0, 10.000416, 9.998596 
1.4950338e+3, 2.4484392e+2, -579350.6, -715781.3, 42650.89, -0.033918582, -0.5150759, -567114.56, -26628.371, 0.0, 10.000377, 9.998597 
1.4950338e+3, 2.5484335e+2, -311044.13, -520540.8, 65586.94, 0.029697025, -0.4546679, -292205.0, 150285.39, 0.00000015644366, 10.001485, 9.998731 
1.495034e+3, 2.6484194e+2, -222959.5, -576849.44, 91578.61, 0.0680674, -0.39674494, -200665.5, 143840.52, 0.000006865855, 10.00207, 9.997381 
1.4950341e+3, 2.7483973e+2, -100724.47, -454884.1, 97891.56, 0.08930305, -0.382191, -75467.88, 171064.98, 0.000043953176, 10.002186, 9.997489 
1.4950332e+3, 2.8483778e+2, 2473.4436, -306351.88, 59153.047, 0.07110151, -0.34042978, 13416.015, 161969.36, 0.00018936973, 10.002014, 9.997917 
1.4950313e+3, 2.9483613e+2, 41989.734, -226980.98, 89886.76, 0.003812895, -0.32914716, 69263.27, 119830.664, 0.0006395796, 10.001563, 9.99801 
1.4950292e+3, 3.0483204e+2, 131573.56, -162040.86, 62857.46, -0.030050121, -0.52665746, 144464.23, 144464.23, 0.0015392303, 10.001876, 9.997971 
1.4950287e+3, 3.148305e+2, 371027.6, 58677.492, 55762.508, 0.14987965, -0.51127297, 380684.1, 380684.1, 0.0027906613, 10.003054, 9.998919 
1.5050451e+3, 1.2486038e+2, -1950719.3, -1817611.4, -31401.252, -0.1493213, -0.6872004, -1810575.5, -94268.58, 0.015336173, 9.998315, 10.000093 
1.5050448e+3, 1.3485883e+2, -1722046.9, -1910180.0, -133483.06, 0.20504819, -0.6461504, -1652815.5, -34485.426, 0.0091627855, 10.000312, 9.997834 
1.5050422e+3, 1.4485878e+2, -1475400.0, -1603958.3, 47866.965, 0.16378674, -0.48422787, -1459535.1, 60802.25, 0.0040015904, 10.00075, 9.999041 
1.5050381e+3, 1.5485922e+2, -1463770.3, -1521753.0, 83763.74, -0.20655772, -0.38094816, -1404122.6, 18216.262, 0.001031135, 10.000038, 9.999279 
1.5050375e+3, 1.6485903e+2, -1369291.6, -1372100.0, 60389.055, -0.20051852, -0.3471796, -1310290.4, 14050.98, 0.000096309515, 9.999783, 9.999754 
1.5050404e+3, 1.7485799e+2, -1214899.5, -1233399.6, 8719.54, 0.18785861, -0.4490542, -1211437.6, 14908.618, 0.000000575819, 10.000112, 9.999876 
1.5050402e+3, 1.8485685e+2, -1190539.8, -1356217.8, 34764.28, 0.22788113, -0.46209818, -1183540.9, -55184.445, 0.0, 10.000415, 9.998209 
1.5050368e+3, 1.9485576e+2, -1025364.94, -1212048.6, 51679.527, -0.0971536, -0.41490838, -1012013.44, 18357.197, 0.0, 10.000816, 9.998332 
1.505036e+3, 2.0485416e+2, -921441.6, -1133371.5, 86733.13, -0.18342994, -0.39390543, -890471.56, 41916.473, 0.0, 10.000954, 9.998136 
1.5050375e+3, 2.1485206e+2, -825580.56, -1022614.3, 114382.62, -0.025060678, -0.43946332, -773137.3, 61270.7, 0.0, 10.000876, 9.9982605 
1.5050375e+3, 2.2485012e+2, -719374.3, -939080.6, 75968.766, 0.025050556, -0.44641832, -695664.9, 40762.62, 0.0, 10.001015, 9.998095 
1.5050355e+3, 2.3484838e+2, -556161.44, -794292.06, 55684.35, -0.03642081, -0.45491818, -543783.6, 94662.26, 0.0, 10.001392, 9.998235 
1.5050349e+3, 2.4484678e+2, -369550.88, -623104.7, 105406.82, -0.031831663, -0.444495, -331455.16, 209005.67, 0.0, 10.001872, 9.998503 
1.5050359e+3, 2.5484544e+2, -168746.78, -459973.84, 73311.18, 0.035209622, -0.45439112, -151333.23, 291138.03, 0.00000020302433, 10.002511, 9.998642 
1.505036e+3, 2.64844e+2, -135927.55, -526781.56, 49895.727, 0.04334717, -0.39858678, -129658.5, 214828.27, 0.0000077496, 10.002633, 9.997455 
1.5050353e+3, 2.7484253e+2, -89047.82, -441501.72, 46132.33, -0.0069069415, -0.31447077, -83109.66, 163397.28, 0.0000483451, 10.002222, 9.997567 
1.5050347e+3, 2.848404e+2, 53198.21, -257547.8, 8601.726, 0.0033526844, -0.30380833, 53436.13, 201964.39, 0.00020450291, 10.002255, 9.9981365 
1.5050341e+3, 2.9483774e+2, 236293.1, -104515.83, -13379.371, 0.07414321, -0.41479048, 236817.53, 287367.2, 0.00068072864, 10.002792, 9.99825 
1.505032e+3, 3.0483365e+2, 233485.08, -94573.98, -35073.824, 0.051589675, -0.6361452, 237193.02, 237193.02, 0.0016085604, 10.002466, 9.998166 
1.5050307e+3, 3.1483272e+2, 116658.13, -943.2233, -28833.252, 0.14168133, -0.58089167, 123346.96, 123346.96, 0.0028770326, 10.000996, 9.999518 
1.515046e+3, 1.2486133e+2, -1876925.9, -1675335.0, 17148.121, 0.07038221, -0.45618668, -1673886.8, 42421.344, 0.016257107, 9.998346, 10.001066 
1.5150422e+3, 1.3485932e+2, -1616704.3, -1674367.4, -56553.996, -0.100439146, -0.62698174, -1582056.5, 36271.8, 0.009740974, 10.000245, 9.999482 
1.5150416e+3, 1.448606e+2, -1402704.3, -1460399.3, 10342.854, 0.0025334726, -0.4641863, -1400906.3, 119409.81, 0.0042781597, 10.000769, 10.000025 
1.5150408e+3, 1.5486006e+2, -1397962.9, -1374237.1, 61320.473, 0.038752254, -0.5591914, -1323642.6, 98677.96, 0.0011151112, 9.999999, 10.000307 
1.5150401e+3, 1.6485971e+2, -1451085.1, -1550719.6, 64579.652, 0.06998954, -0.5299291, -1419340.8, -95015.19, 0.000106548556, 9.99981, 9.99852 
1.5150401e+3, 1.748595e+2, -1303715.4, -1415067.0, 25405.38, 0.12896389, -0.42800212, -1298193.0, -71861.086, 0.0000007145684, 10.000098, 9.998635 
1.5150397e+3, 1.8485837e+2, -1151624.1, -1277585.4, 44656.137, 0.1134133, -0.4055636, -1137399.0, -9054.095, 0.0, 10.000422, 9.998747 
1.5150388e+3, 1.9485639e+2, -993202.5, -1136365.1, 71226.46, -0.002964497, -0.50174356, -963803.1, 66560.766, 0.0, 10.00078, 9.998869 
1.515038e+3, 2.0485501e+2, -864398.06, -1009946.3, 77236.836, -0.08839771, -0.52587587, -831051.5, 101324.914, 0.0, 10.000925, 9.998999 
1.5150374e+3, 2.1485431e+2, -773622.75, -901000.4, 115220.12, -0.13374607, -0.52209884, -705660.75, 128721.45, 0.0, 10.000813, 9.999129 
1.5150371e+3, 2.2485347e+2, -756128.25, -993421.7, 84076.35, -0.12243502, -0.44408843, -729358.75, 7033.334, 0.0, 10.000922, 9.9977665 
1.5150367e+3, 2.3485261e+2, -591899.7, -851451.25, 76280.93, -0.053602953, -0.327387, -571141.3, 67264.12, 0.0, 10.001322, 9.997876 
1.5150373e+3, 2.4485049e+2, -423613.1, -723588.94, 124045.3, 0.004805715, -0.32149988, -378963.9, 161463.52, 0.0, 10.001817, 9.997844 
1.5150388e+3, 2.5484702e+2, -223400.8, -561559.44, 102810.836, 0.056414355, -0.47412825, -194596.6, 247861.39, 0.00000026346208, 10.002455, 9.997975 
1.5150386e+3, 2.648448e+2, -142835.94, -523383.38, 31633.34, 0.030835843, -0.46346647, -140224.31, 204256.33, 0.0000083363275, 10.002561, 9.997512 
1.5150368e+3, 2.7484405e+2, -96302.445, -434741.8, 38775.92, -0.07821881, -0.31625614, -91916.62, 154576.75, 0.000050820046, 10.002137, 9.997651 
1.515036e+3, 2.8484204e+2, 24048.7, -304145.0, 24481.873, -0.110232666, -0.28920662, 25864.893, 174379.86, 0.000217125, 10.002185, 9.997855 
1.5150356e+3, 2.948387e+2, 211216.78, -150872.2, 17068.22, -0.058239058, -0.43921608, 212019.56, 262564.8, 0.00071596226, 10.002757, 9.997952 
1.5150337e+3, 3.0483553e+2, 253745.95, -15460.694, -90941.58, -0.03579778, -0.57878864, 281587.78, 281587.78, 0.0016557103, 10.002337, 9.998759 
1.5150324e+3, 3.1483555e+2, 158793.77, 137286.02, -65970.77, 0.18377562, -0.49442062, 214881.4, 214881.4, 0.0029081663, 10.000817, 10.000537 
1.5250461e+3, 1.2486154e+2, -1846184.6, -1633973.1, 86767.875, 0.2535413, -0.37233803, -1603012.9, 113297.375, 0.017244658, 9.99846, 10.00129 
1.5250407e+3, 1.3485973e+2, -1845131.3, -1668276.1, -25682.836, -0.16769405, -0.6330871, -1664622.0, -46296.82, 0.010359608, 9.998157, 10.000535 
1.5250415e+3, 1.4486156e+2, -1723637.0, -1619369.6, -14570.432, 0.036134526, -0.46451506, -1617371.8, -97066.6, 0.0045741852, 9.998601, 9.999969 
1.5250424e+3, 1.5486038e+2, -1391039.8, -1384229.9, -57875.254, 0.19330737, -0.6153235, -1329659.5, 92656.44, 0.0012060112, 10.000093, 10.000196 
1.5250413e+3, 1.6486001e+2, -1319588.0, -1462454.3, -44640.9, 0.17428403, -0.59297806, -1306786.3, 17535.52, 0.000118081814, 10.000631, 9.998724 
1.5250392e+3, 1.7486064e+2, -1239854.5, -1360164.4, 8065.2617, 0.019227263, -0.42492527, -1239316.3, -12995.249, 0.0000008766353, 10.000445, 9.998845 
1.5250386e+3, 1.8485989e+2, -1136370.8, -1228311.6, 90784.37, -0.015967494, -0.39312366, -1080581.3, 47748.996, 0.0, 10.000343, 9.9991255 
1.5250398e+3, 1.948578e+2, -1013162.94, -1106411.5, 95465.125, 0.037296433, -0.53595614, -953545.0, 76803.68, 0.0, 10.000461, 9.999233 
1.5250397e+3, 2.0485675e+2, -907045.9, -1007296.56, 72601.41, 0.010181822, -0.5580079, -868947.0, 63411.043, 0.0, 10.000528, 9.999208 
1.5250386e+3, 2.1485686e+2, -793339.7, -886441.6, 50248.902, -0.09264521, -0.4938748, -771392.9, 62964.055, 0.0, 10.000569, 9.999347 
1.525038e+3, 2.2485626e+2, -730325.5, -975246.8, 45268.824, -0.11621412, -0.40643606, -722226.25, 14138.311, 0.0, 10.001068, 9.997823 
1.5250383e+3, 2.3485504e+2, -484928.5, -793698.25, 57460.02, -0.06080132, -0.33161935, -474582.25, 163798.08, 0.0, 10.0020275, 9.9979315 
1.5250392e+3, 2.4485266e+2, -374708.4, -744283.2, 118739.336, -0.011970965, -0.33372185, -339847.4, 200558.05, 0.0, 10.002345, 9.997446 
1.5250407e+3, 2.5484914e+2, -320486.78, -651983.7, 107871.64, 0.028834969, -0.45509577, -288475.7, 153963.97, 0.0000003530132, 10.001977, 9.997583 
1.5250407e+3, 2.6484683e+2, -241459.36, -544366.94, 49250.426, 0.032442994, -0.4454422, -233652.81, 110810.58, 0.00000861748, 10.001769, 9.997748 
1.5250395e+3, 2.7484596e+2, -140892.33, -427755.34, 56533.566, -0.0006214604, -0.3363131, -130153.016, 116322.055, 0.000051570143, 10.001713, 9.997901 
1.5250386e+3, 2.8484404e+2, -46979.67, -350328.47, 86559.71, -0.023786815, -0.30037412, -24018.143, 124476.7, 0.00022934856, 10.001758, 9.9977455 
1.525038e+3, 2.9484123e+2, 78430.68, -232496.02, 77907.17, -0.045969628, -0.3848546, 96859.195, 147381.66, 0.00074981863, 10.001915, 9.997807 
1.5250358e+3, 3.0483866e+2, 273167.0, -33704.594, -62671.906, -0.06692305, -0.4458765, 285472.9, 285472.9, 0.001694506, 10.002576, 9.998527 
1.5250345e+3, 3.148378e+2, 555662.9, 300215.2, -121926.55, 0.17621876, -0.42106918, 604516.1, 604516.1, 0.002917839, 10.00365, 10.00031 
1.5350452e+3, 1.24861114e+2, -1894908.8, -1732809.3, 1804.3301, 0.27117783, -0.44005135, -1732789.1, -16476.412, 0.018294634, 9.998445, 10.000611 
1.53504e+3, 1.348604e+2, -1817747.4, -1597452.9, -34734.543, -0.0599426, -0.63549554, -1592106.0, 26210.463, 0.011016667, 9.998108, 10.0010395 
1.5350421e+3, 1.4486201e+2, -1792209.5, -1778092.8, 30331.932, 0.21430531, -0.46132383, -1754008.8, -233707.19, 0.0048880493, 9.998658, 9.998862 
1.5350427e+3, 1.5486042e+2, -1481201.8, -1552332.8, 1302.9156, 0.20286061, -0.53626275, -1481177.9, -58855.133, 0.0013030368, 10.000027, 9.999071 
1.535041e+3, 1.6486017e+2, -1211151.5, -1242755.5, -59455.21, 0.060047574, -0.5190256, -1165434.1, 158893.16, 0.00013086536, 10.00064, 10.000235 
1.5350378e+3, 1.7486154e+2, -1136145.1, -1137334.0, 5478.2456, -0.18302895, -0.43120325, -1131229.1, 95083.24, 0.0000010420176, 10.000415, 10.000389 
1.5350372e+3, 1.8486153e+2, -1117932.1, -1197614.5, 88999.125, -0.21029432, -0.41218922, -1060263.5, 68047.67, 0.0, 10.000368, 9.999327 
1.5350397e+3, 1.9486007e+2, -1001094.4, -1077268.3, 103317.48, -0.023647347, -0.51459414, -929067.25, 101257.445, 0.0, 10.00044, 9.999444 
1.5350409e+3, 2.048594e+2, -942806.3, -1071077.4, 68400.66, 0.06331096, -0.48824388, -913176.1, 19156.16, 0.0, 10.000484, 9.998791 
1.5350406e+3, 2.148597e+2, -833480.8, -954861.06, 57232.58, 0.04639954, -0.3615296, -810751.1, 23581.21, 0.0, 10.000506, 9.998905 
1.5350404e+3, 2.2485845e+2, -712383.2, -919660.9, 76043.516, -0.007743297, -0.33692554, -687477.75, 48867.305, 0.0, 10.000985, 9.998246 
1.53504e+3, 2.3485562e+2, -462019.4, -732866.4, 99148.266, -0.09990503, -0.4681701, -429604.0, 208766.86, 0.0, 10.0019655, 9.998381 
1.5350404e+3, 2.4485329e+2, -399738.16, -771492.9, 102021.375, -0.12864113, -0.4805633, -373580.72, 166814.6, 0.0, 10.002244, 9.997305 
1.5350415e+3, 2.5485167e+2, -342796.1, -679178.0, 101790.445, -0.093430035, -0.3983861, -314392.3, 128024.45, 0.0000004707298, 10.001901, 9.997431 
1.5350424e+3, 2.6484993e+2, -221710.38, -489686.94, 41207.188, 0.001332815, -0.34260526, -215517.03, 128918.58, 0.000008627056, 10.001704, 9.998158 
1.5350431e+3, 2.7484813e+2, -117780.99, -368623.34, 59831.76, 0.16653074, -0.36584702, -104240.625, 142211.11, 0.00005249565, 10.001664, 9.998332 
1.5350428e+3, 2.8484643e+2, -60558.08, -363517.6, 89037.83, 0.19882433, -0.33146954, -36328.266, 112140.27, 0.0002422958, 10.001689, 9.99769 
1.5350413e+3, 2.9484513e+2, 68760.234, -240354.3, 94512.29, 0.06336984, -0.26194888, 95367.32, 145850.66, 0.0007832617, 10.00186, 9.997779 
1.5350384e+3, 3.0484286e+2, 180037.92, -197867.5, -26875.01, -0.08191881, -0.24016282, 181939.58, 181939.58, 0.0017341964, 10.002464, 9.997445 
1.5350366e+3, 3.1483945e+2, 435688.5, 101054.055, -55930.93, 0.0070070345, -0.36403018, 444789.28, 444789.28, 0.0029379996, 10.003467, 9.999008 
1.545044e+3, 1.2486045e+2, -2073049.8, -1873343.1, -36848.43, 0.37102288, -0.49058008, -1866761.0, -150441.34, 0.019406972, 9.997474, 10.000111 
1.5450393e+3, 1.3486095e+2, -1546421.5, -1466252.8, -60405.434, -0.02768147, -0.56295305, -1433841.9, 184471.19, 0.0117135905, 9.999967, 10.001056 
1.5450418e+3, 1.4486212e+2, -1517290.8, -1648777.4, 3720.0696, 0.21695577, -0.43360832, -1517185.5, 3118.108, 0.0052204016, 10.0005665, 9.998823 
1.5450414e+3, 1.548606e+2, -1576846.3, -1610965.9, 37910.34, 0.11162428, -0.4948575, -1552334.1, -130008.695, 0.0014059248, 9.999409, 9.998975 
1.54504e+3, 1.6486062e+2, -1392718.8, -1250892.3, 4812.7036, -0.026331702, -0.47936624, -1250729.1, 73597.125, 0.00014487762, 9.999061, 10.000929 
1.5450379e+3, 1.7486247e+2, -1179616.3, -1081581.8, -4058.2573, -0.1631049, -0.4162439, -1081414.1, 144889.63, 0.000001197513, 9.999774, 10.001079 
1.5450379e+3, 1.8486269e+2, -1147087.8, -1221332.5, 45183.676, -0.16434768, -0.40511376, -1125732.5, 2566.9207, 0.0, 10.00022, 9.999233 
1.54504e+3, 1.948613e+2, -997433.56, -1084358.1, 27120.893, -0.042088475, -0.48943222, -989665.9, 40647.57, 0.0, 10.000513, 9.999358 
1.5450412e+3, 2.0486048e+2, -896651.06, -1076929.1, -576.96747, 0.028877547, -0.46070334, -896649.2, 35674.4, 0.0, 10.000935, 9.998532 
1.5450417e+3, 2.1486044e+2, -706767.0, -922963.7, -11345.474, 0.051088493, -0.33930033, -706173.25, 128154.77, 0.0, 10.001518, 9.998634 
1.5450421e+3, 2.2485906e+2, -595735.44, -807565.3, 22606.846, 0.047773533, -0.33884567, -593349.7, 142991.53, 0.0, 10.00155, 9.998741 
1.5450425e+3, 2.3485632e+2, -569731.7, -727529.9, 37716.234, 0.009915107, -0.51176965, -561180.4, 77182.77, 0.0, 10.000987, 9.998887 
1.5450427e+3, 2.4485455e+2, -571086.8, -807862.06, 65109.754, -0.046345696, -0.5134791, -554363.7, -13982.655, 0.000000000009610117, 10.000864, 9.997722 
1.5450425e+3, 2.5485393e+2, -421610.34, -673165.5, 96556.125, -0.12528774, -0.36963707, -388822.22, 53571.3, 0.0000005675007, 10.001168, 9.9978285 
1.5450436e+3, 2.6485234e+2, -193346.08, -491386.75, 71664.68, -0.060215846, -0.31309748, -177009.56, 167401.6, 0.000008574752, 10.001972, 9.9980135 
1.5450454e+3, 2.7484974e+2, 111895.055, -279212.63, 33917.746, 0.15270492, -0.40173838, 114814.68, 361249.2, 0.000054083343, 10.00333, 9.998147 
1.5450452e+3, 2.8484768e+2, 192245.48, -240745.81, 7018.693, 0.19124737, -0.39255658, 192359.23, 340812.78, 0.0002552126, 10.003433, 9.997683 
1.5450427e+3, 2.9484653e+2, 116429.23, -219593.05, -1621.6356, 0.01856692, -0.30697507, 116437.055, 166902.53, 0.0008167423, 10.002203, 9.997749 
1.5450405e+3, 3.0484435e+2, 118727.01, -299849.53, -25557.373, -0.0923237, -0.24265574, 120281.71, 120281.71, 0.0017831527, 10.002339, 9.996812 
1.5450412e+3, 3.148402e+2, 406001.22, -44119.87, -40952.652, 0.10495379, -0.3669604, 409696.8, 409696.8, 0.0029899941, 10.003784, 9.997877 
1.5550426e+3, 1.2486007e+2, -2090207.6, -1916525.9, -28654.037, 0.45965958, -0.48694775, -1911920.6, -195594.53, 0.020587768, 9.997501, 9.9998045 
1.5550384e+3, 1.3486165e+2, -1589478.3, -1530317.4, 36421.88, -0.12516202, -0.40312457, -1512977.1, 105335.16, 0.012455585, 9.999875, 10.000649 
1.55504e+3, 1.4486209e+2, -1447850.1, -1508862.9, -43837.44, -0.028793879, -0.3770697, -1424949.0, 95360.85, 0.0055746003, 10.00057, 9.999789 
1.5550384e+3, 1.5486117e+2, -1513425.6, -1476464.1, 1356.9025, -0.1384701, -0.47423697, -1476414.5, -54093.21, 0.001515748, 9.999399, 9.9999 
1.5550381e+3, 1.6486159e+2, -1394654.0, -1267669.4, 22501.162, -0.14000033, -0.4566176, -1263800.3, 60516.27, 0.00016035176, 9.9991045, 10.000798 
1.5550397e+3, 1.7486352e+2, -1192131.8, -1099715.9, 24304.678, 0.037767414, -0.3739663, -1093713.8, 132580.6, 0.0000013687348, 9.999742, 10.000971 
1.5550406e+3, 1.8486348e+2, -1176332.4, -1280092.9, 50364.09, 0.07215444, -0.36223307, -1155907.0, -27613.434, 0.0, 10.00021, 9.998836 
1.5550403e+3, 1.9486159e+2, -1032921.6, -1147721.8, 43341.234, -0.07137158, -0.45652947, -1018396.5, 11917.352, 0.0, 10.000471, 9.998942 
1.5550405e+3, 2.0486008e+2, -911040.25, -1102050.8, 14262.515, -0.13873976, -0.4679942, -909981.2, 22349.89, 0.0, 10.000902, 9.998382 
1.5550417e+3, 2.1485905e+2, -723194.9, -946151.9, 15115.221, -0.11701917, -0.43028727, -722174.8, 112169.43, 0.0, 10.001462, 9.9985075 
1.5550433e+3, 2.2485802e+2, -569253.7, -733628.75, -1740.5874, 0.00015971718, -0.41653594, -569235.25, 167118.3, 0.0, 10.001467, 9.9992895 
1.5550458e+3, 2.3485707e+2, -539805.5, -650949.94, 23553.406, 0.21529299, -0.46592245, -535020.1, 103337.53, 0.0, 10.000923, 9.999444 
1.555046e+3, 2.4485636e+2, -517182.72, -677436.75, 71662.836, 0.17985027, -0.43655133, -489811.34, 50551.938, 0.0, 10.000782, 9.99866 
1.5550439e+3, 2.5485593e+2, -363400.13, -536117.8, 113375.69, -0.114461824, -0.36861673, -307239.16, 135130.92, 0.0000005355393, 10.0011, 9.998803 
1.5550442e+3, 2.6485404e+2, -257536.8, -607372.8, 121339.234, -0.20485385, -0.35897845, -219570.98, 124819.38, 0.000008556659, 10.001896, 9.997254 
1.5550464e+3, 2.7485064e+2, 45795.42, -399357.84, 94535.12, -0.08116496, -0.44810218, 65039.48, 311463.38, 0.00005618316, 10.00326, 9.997352 
1.555046e+3, 2.8484768e+2, 179091.81, -252713.47, -42720.31, -0.083722994, -0.48534974, 183277.73, 331728.34, 0.0002694524, 10.003361, 9.997641 
1.5550426e+3, 2.9484537e+2, 114096.62, -215059.1, -39698.68, -0.23455916, -0.51665825, 118816.89, 169285.94, 0.0008545011, 10.00216, 9.997804 
1.5550424e+3, 3.048431e+2, 74518.445, -359408.13, 25506.266, -0.15779004, -0.44727796, 76012.56, 76012.56, 0.0018516757, 10.00222, 9.996453 
1.5550478e+3, 3.1484005e+2, 316927.44, -175432.53, 36432.84, 0.3735328, -0.43075404, 319608.72, 319608.72, 0.003092014, 10.003587, 9.997052 
1.5650405e+3, 1.24859385e+2, -1856115.8, -1762368.6, -93091.46, 0.42889127, -0.43806672, -1705015.8, 11322.28, 0.021849003, 9.998913, 10.000195 
1.5650378e+3, 1.3486105e+2, -1819006.5, -1636777.1, 47775.734, -0.08311879, -0.34964275, -1625011.3, -6687.9854, 0.013250772, 9.998256, 10.000708 
1.5650392e+3, 1.448614e+2, -1741288.1, -1575258.6, -52354.105, -0.05276724, -0.3682006, -1560128.5, -39807.867, 0.0059556314, 9.998254, 10.000441 
1.5650374e+3, 1.5486158e+2, -1512244.0, -1404268.8, -46097.594, -0.1692544, -0.41891256, -1387265.9, 35053.047, 0.0016345053, 9.999103, 10.000537 
1.5650372e+3, 1.6486216e+2, -1372606.8, -1304323.6, -15828.081, -0.14723343, -0.39943463, -1300833.1, 23479.459, 0.00017771397, 9.999468, 10.000373 
1.5650399e+3, 1.748632e+2, -1257027.8, -1180236.3, -45134.594, 0.08828928, -0.35689262, -1159375.3, 66925.44, 0.0000016137079, 9.999511, 10.00053 
1.565041e+3, 1.8486312e+2, -1269773.5, -1286554.6, -7405.773, 0.13652605, -0.3482684, -1266972.6, -138671.3, 0.0, 9.999403, 9.999178 
1.5650403e+3, 1.9486192e+2, -1193519.3, -1187931.0, 32517.5, -0.044542693, -0.40609273, -1158087.8, -127773.83, 0.0, 9.999202, 9.999281 
1.5650408e+3, 2.0486052e+2, -1097678.0, -1173805.5, 80296.6, -0.13899694, -0.43141168, -1046880.1, -114551.164, 0.0, 9.999545, 9.998536 
1.5650423e+3, 2.14859e+2, -843828.56, -985231.0, 94332.16, -0.14147817, -0.4626583, -796643.3, 37702.25, 0.0, 10.000551, 9.998671 
1.5650441e+3, 2.2485806e+2, -630205.75, -743524.06, 40940.016, -0.040612824, -0.45565623, -616962.5, 119391.23, 0.0, 10.000968, 9.999459 
1.565046e+3, 2.3485789e+2, -554920.6, -639887.6, 26598.852, 0.16439421, -0.4447301, -547280.8, 91071.05, 0.0, 10.000738, 9.999609 
1.5650468e+3, 2.4485745e+2, -474102.66, -627020.44, 76407.77, 0.16744126, -0.4091517, -442468.5, 97885.61, 0.0, 10.000943, 9.998931 
1.565046e+3, 2.5485685e+2, -264966.56, -457777.0, 55290.902, -0.050193187, -0.38826096, -250236.52, 192123.22, 0.00000039469393, 10.0016365, 9.9990835 
1.5650465e+3, 2.6485482e+2, -307439.34, -664969.9, 55436.984, -0.14938119, -0.3870671, -299040.84, 45339.438, 0.000008163994, 10.001706, 9.996951 
1.5650482e+3, 2.748514e+2, -292516.2, -601137.06, 51687.49, -0.12602031, -0.4438076, -284089.7, -37673.805, 0.000058034057, 10.001103, 9.997008 
1.565048e+3, 2.8484794e+2, -75189.484, -438272.34, -70307.31, -0.15584223, -0.4882118, -62050.64, 86398.44, 0.00028458447, 10.001888, 9.997076 
1.5650456e+3, 2.9484454e+2, 364802.5, -159946.56, -127120.45, -0.25581393, -0.56342566, 393975.56, 444453.56, 0.0008964698, 10.004171, 9.997215 
1.5650456e+3, 3.0484208e+2, 397244.72, -176287.55, -86121.34, -0.15453267, -0.49971864, 409897.53, 409897.53, 0.0019394822, 10.00431, 9.996707 
1.5650505e+3, 3.148407e+2, 97201.02, -295120.1, -46628.01, 0.3678565, -0.3353908, 102666.695, 102666.695, 0.003246145, 10.002096, 9.996962 
1.5750368e+3, 1.2485878e+2, -1785490.1, -1608542.4, -170293.78, 0.14621514, -0.31547838, -1505111.1, 211240.5, 0.023204513, 9.998876, 10.001292 
1.5750375e+3, 1.348597e+2, -1786671.0, -1561267.5, 29038.322, 0.040704668, -0.36435568, -1557586.8, 60754.387, 0.014108494, 9.99823, 10.001237 
1.5750389e+3, 1.4486045e+2, -1711647.5, -1530888.0, -29491.818, 0.08952995, -0.37935627, -1526198.0, -5865.169, 0.0063687824, 9.998312, 10.000726 
1.575038e+3, 1.5486202e+2, -1490501.4, -1354350.1, -10609.302, -0.02520437, -0.32358667, -1353528.4, 68788.98, 0.00176415, 9.999081, 10.000893 
1.5750374e+3, 1.6486244e+2, -1422714.5, -1410284.5, -19148.09, -0.10344253, -0.3013152, -1396368.0, -72054.63, 0.00019721544, 9.999472, 9.999644 
1.5750381e+3, 1.7486176e+2, -1316441.1, -1295577.4, -37336.87, -0.059213307, -0.35674778, -1267242.4, -40921.51, 0.0000019795527, 9.999479, 9.999751 
1.575039e+3, 1.8486167e+2, -1193423.1, -1133015.8, -19521.842, -0.01820374, -0.35823894, -1127256.1, 1065.4105, 0.0, 9.999417, 10.000228 
1.57504e+3, 1.9486235e+2, -1120496.8, -1031155.75, 28489.482, -0.008517238, -0.33804935, -1022844.2, 7469.144, 0.0, 9.99918, 10.000368 
1.5750416e+3, 2.0486188e+2, -1068583.0, -1108098.3, 113698.81, -0.02952439, -0.3492495, -972937.9, -40621.086, 0.0, 9.999517, 9.9990015 
1.5750436e+3, 2.1486028e+2, -824643.6, -926233.1, 137355.83, -0.07430606, -0.4324584, -728991.4, 105340.35, 0.0, 10.00047, 9.999114 
1.5750442e+3, 2.248592e+2, -658697.2, -781802.25, 28441.78, -0.12505181, -0.45303667, -652443.75, 83898.016, 0.0, 10.0008745, 9.999244 
1.5750434e+3, 2.3485872e+2, -582737.1, -678069.9, 22843.732, -0.18511562, -0.4506237, -577545.94, 60800.195, 0.0, 10.000654, 9.999388 
1.5750447e+3, 2.4485785e+2, -518387.28, -697670.0, 97380.3, -0.13595827, -0.42549023, -475671.2, 64681.957, 0.0, 10.000849, 9.99849 
1.5750484e+3, 2.5485668e+2, -305723.72, -528586.7, 87004.36, 0.02571902, -0.41911182, -275780.75, 166581.2, 0.00000029448665, 10.001577, 9.998623 
1.5750504e+3, 2.6485476e+2, -310506.9, -659774.8, 31132.281, 0.06037433, -0.3884289, -307753.6, 36627.258, 0.000007127328, 10.001652, 9.997014 
1.5750504e+3, 2.74852e+2, -291318.25, -584778.94, 37216.203, -0.039484248, -0.38742208, -286672.1, -40261.387, 0.000058357444, 10.001045, 9.997148 
1.5750507e+3, 2.848484e+2, -167411.7, -621533.0, 11597.489, -0.08813234, -0.39683968, -167115.72, -18667.008, 0.0002965317, 10.001841, 9.995846 
1.5750514e+3, 2.9484403e+2, 267094.75, -350702.28, -28537.602, -0.09876133, -0.44410545, 268410.16, 318902.8, 0.0009377398, 10.004113, 9.9959345 
1.5750502e+3, 3.048411e+2, 439761.97, -61846.18, -167098.92, -0.13709928, -0.40227523, 490329.3, 490329.3, 0.0020369852, 10.004212, 9.997531 
1.575049e+3, 3.1484228e+2, 130473.14, -182520.25, -109871.86, -0.018201387, -0.07490013, 165191.1, 165191.1, 0.00343096, 10.001939, 9.997793 
1.5850344e+3, 1.24858126e+2, -1885392.6, -1639288.6, -109209.06, 0.056133077, -0.2886712, -1597815.9, 118545.48, 0.024665277, 9.998132, 10.001424 
1.5850364e+3, 1.3485913e+2, -1844579.0, -1597912.3, 26920.22, 0.13052703, -0.31933662, -1595008.5, 23342.453, 0.0150364665, 9.997875, 10.001153 
1.5850371e+3, 1.4486007e+2, -1791479.6, -1567293.3, -15012.451, 0.10073613, -0.31128544, -1566292.4, -45951.223, 0.0068181083, 9.997766, 10.000732 
1.5850373e+3, 1.5486135e+2, -1619731.1, -1416244.3, -31158.9, 0.040123843, -0.28462112, -1411580.0, 10748.036, 0.0019058621, 9.998193, 10.000892 
1.5850368e+3, 1.6486159e+2, -1536989.5, -1441556.3, -24913.236, -0.055037342, -0.2941232, -1435444.0, -111118.78, 0.0002187055, 9.998589, 9.999851 
1.5850368e+3, 1.7486066e+2, -1377087.9, -1301110.6, 17700.545, -0.11462089, -0.39412773, -1297189.3, -70855.49, 0.000002466339, 9.998961, 9.999961 
1.585038e+3, 1.8486084e+2, -1166413.6, -1117059.1, 53828.527, -0.07790493, -0.37963688, -1082520.9, 45811.406, 0.0, 9.999598, 10.000248 
1.5850402e+3, 1.9486235e+2, -904858.25, -921593.6, 12815.154, 0.024207272, -0.27851963, -897920.8, 132397.73, 0.0, 10.00064, 10.000414 
1.5850422e+3, 2.0486262e+2, -876143.8, -928975.7, 54193.8, 0.036233004, -0.25623724, -842270.7, 90043.71, 0.0, 10.000472, 9.999774 
1.5850438e+3, 2.1486163e+2, -977270.06, -914974.8, 90236.71, -0.03408848, -0.35500672, -850661.25, -16341.194, 0.0, 9.999049, 9.999886 
1.5850446e+3, 2.2486056e+2, -958072.56, -963066.06, 32094.352, -0.095445365, -0.39487198, -928378.0, -192048.9, 0.0, 9.99898, 9.998913 
1.5850441e+3, 2.3485959e+2, -635085.06, -743871.0, 6203.4272, -0.15824519, -0.4060307, -634732.44, 3607.7378, 0.0, 10.0004635, 9.999032 
1.5850458e+3, 2.4485834e+2, -434784.78, -650625.7, 98371.805, -0.14023997, -0.40409127, -396678.4, 143672.52, 0.0, 10.001409, 9.998533 
1.5850495e+3, 2.5485685e+2, -274518.72, -510124.53, 111499.92, -0.047062077, -0.43096635, -230118.8, 212241.6, 0.00000023115544, 10.00178, 9.998647 
1.5850517e+3, 2.648548e+2, -224665.0, -613673.56, 60012.363, 0.013734117, -0.4160119, -215617.33, 128762.59, 0.0000061293663, 10.002223, 9.997048 
1.5850529e+3, 2.7485225e+2, -31380.855, -455573.2, 47974.207, 0.04327011, -0.40234384, -26022.871, 220386.22, 0.00005923624, 10.002815, 9.997178 
1.5850544e+3, 2.8484905e+2, 45688.125, -515425.16, 122099.42, 0.037549775, -0.36546203, 71105.83, 219549.22, 0.00030706255, 10.003301, 9.995865 
1.5850557e+3, 2.9484546e+2, 198311.06, -380855.8, 158446.3, -0.032540906, -0.34355825, 238824.28, 289305.78, 0.0009776513, 10.00363, 9.9959545 
1.5850541e+3, 3.0484158e+2, 384633.84, -111713.586, -41167.47, -0.14360274, -0.384581, 388025.13, 388025.13, 0.0021345343, 10.003905, 9.997356 
1.5850507e+3, 3.1484205e+2, 431969.06, -41061.48, -82738.484, -0.13927945, -0.10948919, 446023.4, 446023.4, 0.0036136475, 10.004014, 9.997786 
1.595033e+3, 1.248576e+2, -1943776.0, -1772971.3, -96006.75, 0.06467058, -0.3519381, -1729879.0, -13513.51, 0.026239868, 9.998182, 10.000466 
1.5950345e+3, 1.3485949e+2, -1897357.8, -1700386.3, 18407.254, 0.1442671, -0.22292055, -1698680.9, -80328.88, 0.016040104, 9.997846, 10.000459 
1.5950333e+3, 1.4486039e+2, -1812958.1, -1619774.9, -7264.115, -0.073150456, -0.16839156, -1619502.1, -99157.21, 0.0073062, 9.997788, 10.000367 
1.5950349e+3, 1.5485981e+2, -1649308.9, -1473949.0, -8309.346, -0.021422941, -0.28846094, -1473556.1, -51207.402, 0.002060233, 9.998177, 10.0005045 
1.5950355e+3, 1.648597e+2, -1455959.4, -1278175.9, -15751.612, -0.051847745, -0.3660683, -1276791.1, 47555.504, 0.00024185247, 9.998605, 10.000966 
1.5950358e+3, 1.7485999e+2, -1299466.5, -1134676.0, 35315.38, -0.11795529, -0.46117657, -1127426.6, 98911.95, 0.0000030340082, 9.9989395, 10.001112 
1.5950376e+3, 1.848607e+2, -1232719.1, -1257120.3, 87301.34, -0.09034509, -0.40605292, -1156770.0, -28436.832, 0.0, 9.999604, 9.999285 
1.5950409e+3, 1.9486204e+2, -984321.0, -1075323.6, 58667.918, 0.011234826, -0.21996596, -955577.44, 74750.95, 0.0, 10.000594, 9.99938 
1.5950426e+3, 2.048628e+2, -809084.4, -784843.0, -2708.3582, 0.0136059765, -0.14469549, -784544.1, 147777.19, 0.0, 10.000445, 10.000777 
1.5950426e+3, 2.1486297e+2, -912314.5, -765008.2, 39425.92, -0.07050304, -0.23292819, -755119.75, 79191.234, 0.0, 9.998985, 10.000944 
1.5950444e+3, 2.2486222e+2, -999551.75, -1034900.06, 82103.43, -0.011590919, -0.27514917, -933241.7, -196926.6, 0.0, 9.998912, 9.998455 
1.5950482e+3, 2.3486055e+2, -679485.9, -821659.75, 69908.06, 0.19206648, -0.3080985, -650870.8, -12537.25, 0.0, 10.000397, 9.998532 
1.5950496e+3, 2.448589e+2, -415677.72, -591985.06, 111172.35, 0.094080634, -0.34105635, -361949.88, 178397.39, 0.0, 10.001328, 9.998975 
1.5950486e+3, 2.548573e+2, -253318.73, -446438.47, 131143.47, -0.31385684, -0.42668003, -187021.56, 255334.27, 0.00000009760233, 10.0016985, 9.999122 
1.5950508e+3, 2.6485494e+2, -239678.31, -629935.44, 77415.055, -0.32786617, -0.46171167, -224882.5, 119494.98, 0.0000054247644, 10.002151, 9.996976 
1.5950562e+3, 2.74852e+2, -46565.777, -473635.47, 78839.55, 0.07423175, -0.47790435, -32476.361, 213934.61, 0.000061938634, 10.002752, 9.997086 
1.595059e+3, 2.8484988e+2, 117951.2, -348731.4, 132433.27, 0.16210727, -0.39502493, 152913.33, 301347.78, 0.0003177167, 10.003228, 9.997046 
1.5950589e+3, 2.9484844e+2, 276106.94, -206724.53, 179621.06, -0.10180558, -0.27372682, 335598.63, 386046.7, 0.0010084098, 10.003572, 9.997185 
1.5950572e+3, 3.048434e+2, 284861.3, -289105.5, -40705.277, -0.2257937, -0.43919325, 287733.72, 287733.72, 0.0022063714, 10.003796, 9.9961815 
1.5950553e+3, 3.1484008e+2, 352878.78, -159841.95, -55368.953, -0.09838606, -0.41966563, 358789.94, 358789.94, 0.0037438306, 10.003846, 9.997037 
1.6050304e+3, 1.2485682e+2, -1958266.5, -1811487.1, -142447.42, 0.008703985, -0.30097628, -1724635.4, -8258.379, 0.027939666, 9.998219, 10.000183 
1.605032e+3, 1.3485874e+2, -1915744.8, -1722689.5, -62990.09, 0.11743879, -0.15206987, -1703955.1, -85590.16, 0.01712635, 9.997777, 10.000336 
1.6050299e+3, 1.4485961e+2, -1791957.1, -1553228.1, 13215.252, -0.18540677, -0.11983945, -1552498.9, -32141.027, 0.007836914, 9.997703, 10.000858 
1.6050327e+3, 1.5485926e+2, -1574699.3, -1385458.4, 64221.72, -0.06279956, -0.2698124, -1365722.1, 56634.605, 0.0022287087, 9.998454, 10.000981 
1.6050345e+3, 1.648595e+2, -1421668.8, -1269265.4, 49154.293, -0.037738733, -0.33270738, -1254787.3, 69562.99, 0.00026665046, 9.998885, 10.00089 
1.605035e+3, 1.7486036e+2, -1262472.8, -1126250.4, -2254.7197, -0.096769154, -0.36059836, -1126213.1, 100125.02, 0.0000036433328, 9.999232, 10.001033 
1.605037e+3, 1.8486096e+2, -1283759.6, -1288551.8, 44730.195, -0.0822895, -0.30952483, -1241361.4, -113027.484, 0.0, 9.999282, 9.999223 
1.6050406e+3, 1.9486143e+2, -1208283.6, -1191842.4, 75179.53, -0.00812614, -0.20711194, -1124435.4, -94098.51, 0.0, 9.999081, 9.999311 
1.6050422e+3, 2.0486188e+2, -962271.94, -843922.0, 2944.2004, 0.0015224515, -0.16323644, -843848.8, 88483.01, 0.0, 9.999342, 10.0009 
1.6050424e+3, 2.148625e+2, -724989.8, -658409.56, -34701.426, -0.05260107, -0.219278, -643612.0, 190704.77, 0.0, 10.000213, 10.001079 
1.6050449e+3, 2.2486185e+2, -673697.1, -858085.0, 57519.008, 0.0372778, -0.26519418, -657225.7, 79093.18, 0.0, 10.00107, 9.998623 
1.6050501e+3, 2.3486002e+2, -443872.2, -683255.25, 82925.14, 0.26882842, -0.33294523, -417952.47, 220384.89, 0.0, 10.001924, 9.998734 
1.605052e+3, 2.448583e+2, -381265.8, -605727.0, 70556.516, 0.18030396, -0.37125176, -360929.72, 179422.92, 0.0, 10.001692, 9.998714 
1.6050503e+3, 2.548568e+2, -471978.72, -580750.2, 28018.332, -0.23718373, -0.4163368, -465185.72, -22822.314, 0.000000007673713, 10.000325, 9.998868 
1.6050524e+3, 2.648548e+2, -435329.38, -658490.75, 43138.5, -0.29027927, -0.43173435, -427280.72, -82898.16, 0.0000049766613, 10.000532, 9.997556 
1.6050583e+3, 2.7485242e+2, -61151.957, -418062.0, 77024.805, 0.036802668, -0.4501222, -45238.734, 201170.56, 0.00006397672, 10.002382, 9.997646 
1.6050619e+3, 2.8485066e+2, 147710.73, -276064.78, 98504.68, 0.12550014, -0.3814663, 169488.53, 317916.6, 0.0003242289, 10.003175, 9.997575 
1.6050626e+3, 2.9484957e+2, 212826.78, -176016.2, 82744.586, -0.05101067, -0.27615544, 229702.19, 280139.75, 0.0010201149, 10.002873, 9.997731 
1.6050616e+3, 3.0484474e+2, 282824.5, -262435.06, -63073.094, -0.17060997, -0.4621187, 290025.4, 290025.4, 0.0022306554, 10.003656, 9.9964285 
1.6050595e+3, 3.1484133e+2, 636071.1, 44629.95, 2580.6116, -0.13975732, -0.4744527, 636082.4, 636082.4, 0.0037873562, 10.00548, 9.997667 
1.6150272e+3, 1.2485568e+2, -1920379.6, -1744886.6, -86660.28, -0.17256977, -0.15883414, -1709306.5, 7090.1294, 0.02978273, 9.998262, 10.000625 
1.6150287e+3, 1.3485734e+2, -1887010.0, -1656728.0, -80278.23, 0.001001562, -0.082206935, -1631505.0, -13118.998, 0.018308382, 9.997747, 10.000806 
1.6150266e+3, 1.4485797e+2, -1697478.3, -1365013.0, 34351.58, -0.29456615, -0.15989406, -1361500.8, 158877.39, 0.008418617, 9.997725, 10.0021515 
1.6150306e+3, 1.5485972e+2, -1487713.4, -1199894.0, 96329.64, -0.12711634, -0.2260129, -1170629.1, 251722.36, 0.0024150687, 9.998436, 10.002266 
1.6150331e+3, 1.64861e+2, -1498876.0, -1445920.6, 55465.168, -0.06337129, -0.19056082, -1410937.3, -86601.33, 0.0002938315, 9.998942, 9.999654 
1.6150345e+3, 1.7486183e+2, -1355929.9, -1318141.8, 15488.289, -0.09517856, -0.09225337, -1312604.9, -86273.27, 0.000004294035, 9.999218, 9.999723 
1.6150363e+3, 1.8486165e+2, -1227214.3, -1173328.8, 33194.46, -0.10249557, -0.09124096, -1157519.0, -29184.592, 0.0, 9.99929, 10.000009 
1.615039e+3, 1.9486047e+2, -1153494.5, -1074040.3, 72500.84, -0.083077826, -0.2343523, -1031095.7, -752.0799, 0.0, 9.9990635, 10.000129 
1.6150412e+3, 2.0485993e+2, -1020716.8, -956071.3, 26938.014, -0.056388542, -0.29659697, -946317.75, -13972.49, 0.0, 9.9993, 10.00015 
1.615043e+3, 2.1486019e+2, -789186.4, -777614.2, 2175.153, -0.01761451, -0.31116855, -777218.8, 57118.473, 0.0, 10.000153, 10.000288 
1.6150458e+3, 2.2485946e+2, -635793.3, -756761.06, 84413.33, 0.011141124, -0.35885653, -592431.6, 143908.4, 0.0, 10.000976, 9.999363 
1.6150497e+3, 2.3485786e+2, -403523.72, -577184.5, 120271.73, 0.02504735, -0.48081452, -342013.94, 296338.75, 0.0, 10.001831, 9.999507 
1.6150527e+3, 2.4485645e+2, -457070.13, -745254.44, 14416.152, 0.06261462, -0.48275417, -456350.78, 84016.56, 0.0, 10.00161, 9.997797 
1.6150545e+3, 2.5485533e+2, -546882.8, -723802.4, -15869.098, 0.1275929, -0.39820406, -545470.7, -103087.82, 0.00000000987263, 10.000268, 9.997912 
1.6150567e+3, 2.6485422e+2, -370916.72, -508184.22, 108460.09, 0.071004584, -0.332166, -311198.66, 33197.613, 0.000004852554, 10.000459, 9.998624 
1.6150594e+3, 2.7485308e+2, 6286.0, -259491.0, 154875.94, -0.11592254, -0.33507982, 77470.79, 323877.8, 0.00006378427, 10.002308, 9.998768 
1.6150628e+3, 2.8485125e+2, 130618.78, -298156.22, 82086.41, -0.120406605, -0.32191917, 145796.48, 294221.8, 0.0003243143, 10.003111, 9.997456 
1.6150667e+3, 2.948489e+2, 194825.7, -201344.72, 81571.01, 0.057791613, -0.3408339, 210963.7, 261413.53, 0.0010147488, 10.002814, 9.997588 
1.6150665e+3, 3.0484542e+2, 374689.3, -39017.62, 827.1186, -0.040943738, -0.4542797, 374690.97, 374690.97, 0.002213579, 10.003543, 9.998005 
1.615063e+3, 3.148455e+2, 746507.8, 334682.16, 83660.055, -0.35462403, -0.2837666, 762854.06, 762854.06, 0.0037511785, 10.005264, 9.999747 
1.6250238e+3, 1.24853425e+2, -2078755.5, -1709435.4, 34790.688, -0.26155278, -0.1899035, -1706186.6, 10234.929, 0.03179242, 9.996699, 10.001613 
1.6250256e+3, 1.3485636e+2, -2014169.5, -1652964.6, -48757.145, -0.028761754, -0.048975065, -1646498.9, -28103.105, 0.019603958, 9.996585, 10.001393 
1.6250245e+3, 1.448569e+2, -1838367.6, -1449075.8, 83405.69, -0.23430355, -0.15583695, -1431958.8, 88429.086, 0.009062119, 9.996841, 10.001991 
1.6250291e+3, 1.5485862e+2, -1517237.3, -1225946.0, 36144.836, -0.11591888, -0.20974754, -1221528.0, 200834.8, 0.002624408, 9.998301, 10.00214 
1.6250323e+3, 1.6485973e+2, -1518012.6, -1501220.3, -56309.297, -0.053751804, -0.16485907, -1452684.5, -128334.32, 0.00032476612, 9.999018, 9.999232 
1.6250339e+3, 1.7486008e+2, -1431970.6, -1400710.8, -42871.047, -0.04143659, -0.07322915, -1370709.4, -144357.4, 0.000005034694, 9.998899, 9.999307 
1.6250359e+3, 1.8485959e+2, -1244333.1, -1123725.6, 7868.46, -0.048918016, -0.10564475, -1123214.4, 5141.2896, 0.0, 9.99893, 10.0005245 
1.6250381e+3, 1.9485842e+2, -1095566.9, -979379.4, 16989.846, -0.08309113, -0.30526927, -976945.94, 53413.8, 0.0, 9.999192, 10.000709 
1.6250408e+3, 2.0485763e+2, -971929.06, -987093.94, 17177.098, -0.052118044, -0.39699897, -960735.3, -28373.264, 0.0, 9.999866, 9.999666 
1.6250442e+3, 2.1485734e+2, -703974.4, -793167.4, 5454.2686, 0.05094719, -0.4157741, -703642.06, 130719.695, 0.0, 10.000974, 9.999792 
1.6250473e+3, 2.2485685e+2, -615948.4, -729680.56, 44038.7, 0.065156296, -0.42452177, -600889.75, 135474.94, 0.0, 10.001029, 9.999526 
1.62505e+3, 2.3485628e+2, -660830.1, -685355.9, 23409.709, -0.026693575, -0.4584526, -646665.9, -8296.2, 0.0, 9.999987, 9.999659 
1.6250533e+3, 2.4485552e+2, -603825.06, -791856.6, -34492.293, 0.018131573, -0.4115998, -597697.5, -57317.84, 0.0, 10.000499, 9.998007 
1.6250566e+3, 2.5485468e+2, -181003.92, -526331.2, 6037.4233, 0.1966156, -0.32388553, -180898.39, 261495.6, 0.000000011745934, 10.002679, 9.998109 
1.6250592e+3, 2.6485348e+2, 2718.0564, -336679.16, 133437.53, 0.15846752, -0.26818177, 48897.17, 393305.53, 0.0000048598445, 10.003061, 9.998551 
1.6250613e+3, 2.748521e+2, -106865.73, -322258.7, 80467.44, -0.10745271, -0.28941178, -80124.34, 166297.22, 0.000062331186, 10.001565, 9.998696 
1.6250648e+3, 2.8485054e+2, -29226.313, -310112.13, 24081.75, -0.15180688, -0.27773508, -27176.62, 121260.734, 0.0003208773, 10.001742, 9.998027 
1.6250695e+3, 2.948489e+2, 360862.7, -57657.074, 52084.7, 0.023841335, -0.27667594, 367247.22, 417701.44, 0.0010017914, 10.003686, 9.998154 
1.6250703e+3, 3.0484605e+2, 478206.7, 5176.098, -58752.457, -0.053613648, -0.35912544, 485394.78, 485394.78, 0.002173294, 10.004258, 9.997982 
1.6250674e+3, 3.148451e+2, 482164.06, 210914.3, -121178.445, -0.32682574, -0.2806332, 528413.6, 528413.6, 0.0036599173, 10.003366, 9.999841 
1.63502e+3, 1.2485049e+2, -1973127.0, -1498938.6, 75530.26, -0.34296268, -0.36960682, -1487198.6, 229248.58, 0.03398967, 9.996709, 10.0031 
1.6350223e+3, 1.3485584e+2, -1975445.5, -1572624.4, -60168.492, -0.015731597, -0.042487264, -1563829.1, 54564.227, 0.02102759, 9.996583, 10.00195 
1.6350232e+3, 1.448564e+2, -1933452.0, -1660428.8, 122060.5, -0.061980393, -0.10386854, -1613817.0, -93430.28, 0.009775217, 9.996896, 10.000511 
1.6350278e+3, 1.5485615e+2, -1626961.1, -1448477.0, 96837.4, -0.08746834, -0.20783874, -1406031.5, 16357.099, 0.002860367, 9.998279, 10.00062 
1.6350314e+3, 1.6485578e+2, -1491922.4, -1447293.9, -64329.316, -0.05993626, -0.25046676, -1401518.5, -77126.555, 0.00036087315, 9.999019, 9.999603 
1.6350336e+3, 1.7485514e+2, -1407639.3, -1344103.8, -45188.945, 0.025238907, -0.2947431, -1320633.6, -94234.95, 0.000005927034, 9.9988785, 9.999704 
1.6350356e+3, 1.8485488e+2, -1216865.5, -1074072.1, 12409.826, 0.029153327, -0.3427261, -1073001.6, 55395.78, 0.0, 9.998954, 10.000857 
1.6350377e+3, 1.9485521e+2, -1074621.4, -933776.5, 32078.469, -0.055195145, -0.42360944, -926814.5, 103570.89, 0.0, 9.99918, 10.001031 
1.635041e+3, 2.0485489e+2, -991339.4, -1019612.6, 52542.523, -0.0332584, -0.47557637, -951064.94, -18681.68, 0.0, 9.999831, 9.999461 
1.6350457e+3, 2.1485391e+2, -730039.7, -830640.5, 52396.074, 0.10425322, -0.54085684, -707707.6, 126683.3, 0.0, 10.000899, 9.999572 
1.6350491e+3, 2.2485396e+2, -662642.94, -802949.1, 2293.9155, 0.13737419, -0.46247825, -662605.44, 73787.87, 0.0, 10.000924, 9.999075 
1.635051e+3, 2.3485519e+2, -703029.6, -755587.56, -9891.191, 0.06475228, -0.2717971, -701229.75, -62840.918, 0.0, 9.999912, 9.999211 
1.6350536e+3, 2.4485543e+2, -529777.3, -614764.3, 41851.86, -0.0009848666, -0.16547103, -512627.9, 27762.512, 0.0, 10.000399, 9.99927 
1.6350566e+3, 2.548547e+2, -100021.8, -341578.94, 94240.98, -0.06818022, -0.19080994, -67604.984, 374792.47, 0.000000006263202, 10.002611, 9.999409 
1.6350602e+3, 2.6485276e+2, -87736.43, -514152.63, 74888.09, -0.071695484, -0.22025754, -74966.83, 269451.1, 0.000005059976, 10.003009, 9.997361 
1.635064e+3, 2.7484953e+2, -202097.58, -506160.94, 34046.895, 0.003053344, -0.30457598, -198331.89, 48120.184, 0.000060572125, 10.0015, 9.997466 
1.6350679e+3, 2.8484833e+2, 37536.457, -153251.31, 92899.414, -0.03300123, -0.24811542, 75297.73, 223762.4, 0.00031406162, 10.001666, 9.999141 
1.6350712e+3, 2.9484946e+2, 427400.2, 101445.195, 134878.6, -0.20195092, -0.08345054, 475973.88, 526426.3, 0.0009813922, 10.0036, 9.9992895 
1.6350727e+3, 3.0484644e+2, 352743.72, -227485.61, -95977.7, -0.2547974, -0.16487294, 368207.6, 368207.6, 0.0021163202, 10.004144, 9.996434 
1.6350728e+3, 3.1484005e+2, 340087.72, -39586.297, -137756.83, -0.16063258, -0.47395512, 384803.53, 384803.53, 0.0035357173, 10.003197, 9.998184 
1.6450171e+3, 1.2484904e+2, -1993870.0, -1514713.3, 83021.54, -0.28742394, -0.34410295, -1500736.1, 215722.97, 0.036383986, 9.99661, 10.003044 
1.645019e+3, 1.3485247e+2, -1807150.4, -1554174.0, -169226.3, -0.07136719, -0.15196534, -1469387.9, 149035.88, 0.022584815, 9.998021, 10.001394 
1.6450217e+3, 1.448533e+2, -1758710.4, -1595546.4, 12769.487, 0.028831443, -0.15011886, -1594553.0, -74137.555, 0.010560797, 9.998178, 10.000342 
1.645026e+3, 1.5485357e+2, -1794159.6, -1549951.4, 76775.22, -0.031439554, -0.18054381, -1527820.1, -105406.06, 0.0031241647, 9.997207, 10.000449 
1.6450298e+3, 1.6485322e+2, -1685658.9, -1497315.9, 1761.8251, -0.03393728, -0.23351888, -1497299.4, -172882.5, 0.0004029895, 9.997496, 9.999999 
1.6450326e+3, 1.7485204e+2, -1317111.8, -1255035.9, 12392.03, 0.013892163, -0.37100795, -1252653.5, -26228.064, 0.0000070009137, 9.999296, 10.00012 
1.645035e+3, 1.8485186e+2, -1101903.3, -1084075.4, 11369.973, 0.021138806, -0.4038203, -1078541.6, 49882.3, 0.0, 10.000043, 10.000252 
1.6450374e+3, 1.9485283e+2, -1032458.8, -987345.8, -53753.33, -0.02301466, -0.35741267, -951608.1, 78802.195, 0.0, 9.999788, 10.000368 
1.645041e+3, 2.0485266e+2, -978539.1, -971141.1, -14281.187, 0.007450785, -0.3767487, -960087.7, -27679.734, 0.0, 9.999728, 9.9998455 
1.6450463e+3, 2.1485147e+2, -849301.9, -840742.56, 22639.639, 0.115789466, -0.5061399, -821981.6, 12434.344, 0.0, 9.999879, 9.999987 
1.6450499e+3, 2.2485152e+2, -759690.8, -860143.0, -9320.504, 0.16098666, -0.44417995, -758833.3, -22415.271, 0.0, 10.00031, 9.998978 
1.6450523e+3, 2.3485294e+2, -544885.9, -693122.7, -7636.51, 0.13636099, -0.22341824, -544493.5, 93919.73, 0.0, 10.001057, 9.999092 
1.6450551e+3, 2.4485321e+2, -385164.56, -531046.0, 67917.16, 0.07242137, -0.11363413, -358440.4, 181975.08, 0.0, 10.001338, 9.999389 
1.6450587e+3, 2.5485244e+2, -302887.0, -426920.03, 23715.02, -0.04814167, -0.15509385, -298507.38, 143916.19, 0.000000005166704, 10.001169, 9.999516 
1.6450626e+3, 2.648507e+2, -234066.45, -528193.7, -9171.067, -0.07506655, -0.1912193, -233780.77, 110660.336, 0.000005473011, 10.001764, 9.99786 
1.6450664e+3, 2.7484795e+2, 86283.35, -312259.56, 59891.207, -0.0013774767, -0.27777928, 95088.98, 341557.78, 0.000058693688, 10.003245, 9.997956 
1.6450703e+3, 2.848467e+2, 205561.66, -114566.85, 139989.67, -0.019511716, -0.23354276, 258141.88, 406624.1, 0.00030246936, 10.00302, 9.998747 
1.645074e+3, 2.948473e+2, 17138.105, -138043.3, 53084.19, -0.14171264, -0.07764128, 33559.363, 84036.3, 0.0009508184, 10.000978, 9.998893 
1.6450761e+3, 3.0484483e+2, 18405.203, -363732.25, -102675.11, -0.18844222, -0.097784005, 44245.297, 44245.297, 0.0020491271, 10.001707, 9.996675 
1.6450773e+3, 3.1483877e+2, 631824.4, 96839.95, -39482.203, -0.11972796, -0.40224645, 634722.5, 634722.5, 0.0034089028, 10.005217, 9.998144 
1.6550148e+3, 1.2484943e+2, -2081480.3, -1706873.6, 94084.03, -0.21543561, -0.07501264, -1684571.8, 31882.096, 0.03897044, 9.99668, 10.001641 
1.6550153e+3, 1.3484646e+2, -1929413.3, -1797196.9, -115468.695, -0.24920146, -0.36357242, -1730251.3, -111766.74, 0.024272982, 9.997977, 9.999731 
1.6550197e+3, 1.4484768e+2, -1686072.0, -1443079.3, -28293.627, -0.00761921, -0.2917004, -1439828.4, 80644.48, 0.0114189135, 9.998168, 10.001398 
1.6550238e+3, 1.5485108e+2, -1721015.6, -1394204.9, 44432.813, 0.0035496056, -0.118504465, -1388271.5, 34166.36, 0.0034161112, 9.997193, 10.001524 
1.6550274e+3, 1.6485219e+2, -1643808.9, -1427237.6, 61446.305, -0.041318085, -0.100943446, -1411018.6, -86594.85, 0.00045137366, 9.997553, 10.000458 
1.6550307e+3, 1.7485093e+2, -1285759.8, -1188768.5, 84848.945, -0.11866258, -0.2979248, -1139534.1, 86896.95, 0.000008273259, 9.999286, 10.000582 
1.655034e+3, 1.8485051e+2, -1215830.4, -1321752.0, -1984.0427, -0.11362151, -0.29487884, -1215793.3, -87357.836, 0.0, 10.000045, 9.998622 
1.6550373e+3, 1.9485117e+2, -1155762.8, -1233052.5, -58545.9, -0.029628696, -0.110403456, -1124257.4, -93822.42, 0.0, 9.999746, 9.998704 
1.655041e+3, 2.0485102e+2, -918430.3, -831660.75, -11417.717, 0.018179862, -0.09399508, -830183.44, 102252.11, 0.0, 9.999667, 10.000833 
1.6550454e+3, 2.1485007e+2, -786975.4, -695514.3, 32746.014, 0.04011326, -0.30233613, -684999.1, 149437.23, 0.0, 9.999813, 10.001016 
1.6550496e+3, 2.2484952e+2, -752730.75, -830362.9, 12207.104, 0.08005621, -0.3645692, -750856.5, -14417.237, 0.0, 10.0002365, 9.999221 
1.6550533e+3, 2.3484948e+2, -538659.25, -664439.7, 27496.66, 0.13786493, -0.31055754, -532910.94, 105532.305, 0.0, 10.000985, 9.999326 
1.6550577e+3, 2.4484889e+2, -469756.8, -687450.44, 59186.453, 0.17756116, -0.24927747, -454705.8, 85748.85, 0.0, 10.001253, 9.998357 
1.6550624e+3, 2.548478e+2, -389033.3, -585058.25, 24481.607, 0.20935133, -0.21955097, -386022.06, 56450.51, 0.00000000856411, 10.001085, 9.998467 
1.6550662e+3, 2.6484722e+2, -99758.055, -235915.56, 42558.195, 0.10095348, -0.18765073, -87550.34, 256928.81, 0.0000057188686, 10.001699, 9.999903 
1.6550681e+3, 2.7484724e+2, 223968.03, -9799.545, 123573.164, -0.16607913, -0.20881467, 277178.75, 523652.13, 0.000057056757, 10.003173, 10.000071 
1.655072e+3, 2.8484556e+2, 66056.95, -391184.6, 60351.8, -0.16283312, -0.22109194, 73888.71, 222379.0, 0.00029092102, 10.002954, 9.996883 
1.655078e+3, 2.9484227e+2, -123294.68, -421113.6, -12883.996, 0.14259839, -0.26101238, -122738.336, -72209.28, 0.00092205656, 10.000932, 9.996975 
1.6550806e+3, 3.0484098e+2, 134418.36, -84431.37, 23776.336, 0.08266625, -0.16453913, 136971.69, 136971.69, 0.0019985014, 10.001571, 9.998647 
1.6550809e+3, 3.1484103e+2, 692257.06, 291140.44, 106699.98, -0.29079115, -0.058932114, 718873.9, 718873.9, 0.003327925, 10.004948, 9.9996 
1.6650124e+3, 1.2484627e+2, -2134993.8, -1782049.4, 9256.552, -0.099158764, -0.045646917, -1781806.9, -65324.285, 0.041736465, 9.996485, 10.001237 
1.6650127e+3, 1.3484263e+2, -1973136.3, -1794771.9, -33127.438, -0.28865656, -0.42006773, -1788817.9, -170299.25, 0.026087236, 9.99756, 9.999954 
1.6650182e+3, 1.4484449e+2, -1665088.6, -1437727.9, 45739.94, 0.029098872, -0.2919879, -1428871.0, 91628.36, 0.012349877, 9.998334, 10.001354 
1.6650221e+3, 1.5484692e+2, -1487487.4, -1281230.3, 23314.145, 0.04356766, -0.21329172, -1278627.8, 143844.98, 0.003737191, 9.998801, 10.001521 
1.665026e+3, 1.6484797e+2, -1444009.0, -1333573.4, 30474.393, -0.012692229, -0.19880086, -1325722.1, -1263.0918, 0.00050616945, 9.998958, 10.000409 
1.6650298e+3, 1.7484766e+2, -1341845.8, -1221475.1, 4719.6533, -0.11369646, -0.29701695, -1221290.4, 5167.697, 0.000009797576, 9.998932, 10.00052 
1.6650337e+3, 1.8484722e+2, -1382271.5, -1436562.5, -71005.695, -0.09113206, -0.27906138, -1333399.4, -204935.42, 0.0, 9.999046, 9.998317 
1.6650374e+3, 1.9484676e+2, -1217951.9, -1292017.4, -34116.234, 0.041254006, -0.17789206, -1204632.5, -174156.97, 0.0, 9.999447, 9.998435 
1.6650413e+3, 2.0484649e+2, -959869.44, -883204.25, 24701.361, 0.0818897, -0.15005495, -875934.9, 56544.813, 0.0, 9.999523, 10.000546 
1.6650449e+3, 2.1484642e+2, -886559.2, -776482.0, -37748.938, 0.032593403, -0.2393066, -764780.56, 69694.34, 0.0, 9.9992695, 10.000726 
1.6650492e+3, 2.2484595e+2, -785922.94, -795360.6, -50493.098, 0.0481528, -0.2991916, -739928.7, -3451.8125, 0.0, 9.999797, 9.999666 
1.6650543e+3, 2.3484518e+2, -480367.9, -585198.56, -31782.256, 0.12210883, -0.36620924, -471484.97, 166999.8, 0.0, 10.001168, 9.999775 
1.665059e+3, 2.448445e+2, -395502.1, -625716.94, 11026.871, 0.17643283, -0.347934, -394975.16, 145520.3, 0.0, 10.001638, 9.998605 
1.6650636e+3, 2.5484398e+2, -355236.8, -543018.25, 61994.473, 0.20859075, -0.2833167, -336616.28, 105892.13, 0.0000000057748837, 10.001193, 9.998712 
1.6650675e+3, 2.648441e+2, -173056.08, -266305.4, 114895.305, 0.09766461, -0.19705272, -95685.62, 248824.31, 0.0000055479773, 10.001185, 9.999937 
1.6650704e+3, 2.7484497e+2, 12649.649, -111713.27, 29760.262, -0.18071742, -0.13125235, 19404.443, 265902.28, 0.000055266635, 10.001715, 10.000075 
1.6650748e+3, 2.8484327e+2, 14489.711, -416092.03, -83784.195, -0.15685686, -0.14689605, 30218.215, 178733.27, 0.00028143296, 10.002589, 9.996891 
1.6650808e+3, 2.9483902e+2, 303006.78, -211607.94, -32169.355, 0.19589756, -0.2862979, 305009.97, 355570.9, 0.00090243336, 10.003847, 9.997009 
1.6650839e+3, 3.0483744e+2, 461873.4, 49675.63, 64925.137, 0.13644813, -0.2080816, 471857.9, 471857.9, 0.00197664, 10.003911, 9.998451 
1.6650851e+3, 3.1483862e+2, 308423.03, 43626.99, -38347.41, -0.24986364, 0.036407903, 313864.63, 313864.63, 0.00331208, 10.002548, 9.999065 
1.6750096e+3, 1.2483924e+2, -2093958.6, -1682343.6, -42959.203, -0.05280648, -0.28432742, -1677907.9, 38640.563, 0.044670317, 9.996428, 10.00195 
1.6750109e+3, 1.3484102e+2, -1837582.6, -1509188.5, 11111.33, -0.239259, -0.31493583, -1508813.0, 109712.516, 0.028026333, 9.997534, 10.001946 
1.6750172e+3, 1.4484377e+2, -1729156.3, -1579918.5, 61628.574, 0.075369276, -0.15133716, -1557758.9, -37264.336, 0.013357116, 9.998369, 10.000356 
1.675021e+3, 1.548412e+2, -1568213.1, -1446465.9, 48798.418, 0.041345663, -0.46367928, -1429321.1, -6803.132, 0.004090086, 9.998784, 10.000397 
1.6750252e+3, 1.6484053e+2, -1484327.3, -1418560.1, 23390.027, 0.0005693861, -0.53530294, -1411090.0, -86566.445, 0.0005678562, 9.998965, 9.999822 
1.6750298e+3, 1.7484233e+2, -1389965.1, -1311182.8, 6119.638, -0.013062438, -0.36140627, -1310710.3, -84204.21, 0.000011659807, 9.998894, 9.999922 
1.675034e+3, 1.8484206e+2, -1304930.4, -1279816.5, -60376.12, 0.033998065, -0.34655997, -1230705.4, -102196.9, 0.0, 9.999054, 9.9993925 
1.675038e+3, 1.9483967e+2, -1145547.8, -1135873.1, -14526.719, 0.13878542, -0.55077124, -1125399.5, -94867.9, 0.0, 9.99942, 9.999521 
1.6750415e+3, 2.0483907e+2, -1067662.9, -1103473.8, 9734.73, 0.14451523, -0.5338054, -1065187.8, -132647.55, 0.0, 9.999506, 9.999042 
1.6750444e+3, 2.148405e+2, -1004354.7, -1009650.44, -41829.32, 0.050096653, -0.31899008, -965089.5, -130557.59, 0.0, 9.999214, 9.999154 
1.6750488e+3, 2.2484078e+2, -760064.0, -720059.5, -2585.8132, 0.014189703, -0.25318345, -719893.06, 16638.42, 0.0, 9.999703, 10.000228 
1.6750549e+3, 2.3483992e+2, -451541.16, -506226.5, 25585.912, 0.04889319, -0.38868615, -441437.06, 197101.22, 0.0, 10.001084, 10.000358 
1.6750592e+3, 2.4483994e+2, -304672.9, -414565.1, -10319.195, 0.015347128, -0.4042782, -303712.3, 236826.4, 0.0, 10.001539, 10.000103 
1.6750619e+3, 2.54841e+2, -260545.78, -327578.47, 50801.234, -0.09190653, -0.33315513, -233200.72, 209330.19, 0.0000000017385277, 10.001113, 10.000229 
1.6750665e+3, 2.6484138e+2, -320842.06, -558919.4, 129195.805, -0.13170354, -0.2025752, -264205.6, 80327.11, 0.0000048816705, 10.001118, 9.997965 
1.675073e+3, 2.7484107e+2, -140576.63, -414145.1, 59109.992, -0.09590087, -0.052595057, -128351.07, 118192.56, 0.00005151775, 10.001643, 9.998036 
1.6750784e+3, 2.8483963e+2, 124495.83, -163958.98, -38599.504, -0.06251031, -0.022290902, 129571.695, 278129.94, 0.00026894332, 10.002487, 9.998672 
1.6750824e+3, 2.9483727e+2, 418998.84, 50187.45, 28506.596, -0.037342016, -0.15566155, 421189.2, 471763.38, 0.0008798074, 10.00375, 9.998859 
1.6750857e+3, 3.048341e+2, 275702.4, -296654.03, 11574.816, -0.086313166, -0.21963868, 275936.38, 275936.38, 0.0019595705, 10.003753, 9.99614 
1.6750892e+3, 3.1483164e+2, 111621.1, -323273.1, -60560.04, -0.111659236, -0.10417916, 119896.76, 119896.76, 0.0033244442, 10.002394, 9.996604 
1.6850062e+3, 1.2483415e+2, -2064857.9, -1705850.1, -48965.195, -0.06942417, -0.32319432, -1699291.6, 17301.135, 0.04776628, 9.996812, 10.001586 
1.6850096e+3, 1.3483594e+2, -1812775.5, -1448565.1, -76087.67, -0.11287413, -0.39315918, -1433308.6, 185259.34, 0.030093629, 9.997511, 10.002373 
1.6850162e+3, 1.4483806e+2, -1840481.5, -1688078.6, -89716.46, 0.15906677, -0.29306322, -1646569.8, -126025.984, 0.0144471, 9.997843, 9.999865 
1.6850188e+3, 1.5483558e+2, -1780345.4, -1605439.0, -77352.445, 0.00070692156, -0.54308915, -1576138.4, -153569.98, 0.004479329, 9.997576, 9.999886 
1.685023e+3, 1.6483496e+2, -1684375.6, -1522393.5, -41538.848, -0.039491083, -0.5812585, -1512362.5, -187787.4, 0.0006375465, 9.997622, 9.9997635 
1.6850291e+3, 1.7483668e+2, -1488269.6, -1357935.5, -21676.713, 0.073723115, -0.41206, -1354424.9, -127866.21, 0.00001399049, 9.998215, 9.999929 
1.6850339e+3, 1.8483655e+2, -1327464.8, -1232369.1, -74937.66, 0.139423, -0.4121129, -1191167.6, -62608.37, 0.0, 9.99866, 9.999902 
1.6850372e+3, 1.948344e+2, -1168106.1, -1092041.5, -80867.625, 0.13667992, -0.642139, -1040709.25, -10131.491, 0.0, 9.999023, 10.000017 
1.6850409e+3, 2.048339e+2, -1031743.3, -1121438.8, -19780.865, 0.1133745, -0.62283915, -1027574.7, -94989.09, 0.0, 9.9999075, 9.998728 
1.6850449e+3, 2.1483542e+2, -716382.5, -900635.9, 9082.94, 0.072590284, -0.36742094, -715935.8, 118643.8, 0.0, 10.001334, 9.998873 
1.6850497e+3, 2.2483595e+2, -553510.06, -614137.44, 54382.824, 0.060386084, -0.26541427, -521562.88, 215015.66, 0.0, 10.001084, 10.0002985 
1.685055e+3, 2.348355e+2, -743572.06, -636058.56, 34782.848, 0.07349808, -0.3660908, -625786.94, 12794.99, 0.0, 9.999034, 10.000459 
1.6850595e+3, 2.4483599e+2, -612381.0, -542465.7, -1457.1466, 0.0030740844, -0.34988096, -542435.3, -1857.4646, 0.0, 9.999337, 10.000281 
1.6850628e+3, 2.5483748e+2, -98016.09, -233000.19, -51483.527, -0.1643145, -0.25456578, -80621.57, 361943.63, 0.0000000018399801, 10.002148, 10.000384 
1.6850682e+3, 2.6483744e+2, -61068.055, -457953.3, -5149.0054, -0.17458375, -0.1610678, -61001.266, 283569.0, 0.0000039092515, 10.003007, 9.997745 
1.6850756e+3, 2.748358e+2, -123725.305, -425843.47, 43113.164, -0.017881822, -0.1227185, -117693.36, 128900.3, 0.000046398793, 10.00186, 9.99784 
1.6850814e+3, 2.8483436e+2, 18421.393, -192339.45, 17836.57, 0.028205512, -0.094783954, 19920.232, 168527.98, 0.000254962, 10.00166, 9.998874 
1.6850853e+3, 2.9483345e+2, 252582.69, -898.0726, -48879.594, -0.056188207, -0.10383105, 261681.7, 312290.13, 0.0008516298, 10.002484, 9.999114 
1.6850892e+3, 3.0482963e+2, 234796.27, -374325.34, -77042.3, -0.11099261, -0.22474311, 244389.56, 244389.56, 0.0019299262, 10.003697, 9.9956455 
1.685094e+3, 3.1482515e+2, 501044.94, -190473.5, -28004.922, -0.009487345, -0.24945726, 502177.22, 502177.22, 0.003321999, 10.005264, 9.996163 
1.695001e+3, 1.2483076e+2, -2152031.3, -1899832.4, -73458.04, -0.28718466, -0.20129858, -1879996.4, -163378.56, 0.051028147, 9.996859, 10.000234 
1.6950087e+3, 1.3482748e+2, -1905848.1, -1621679.4, -41530.49, 0.037270077, -0.6531236, -1615734.1, 2911.465, 0.032295942, 9.997441, 10.001185 
1.6950148e+3, 1.4482725e+2, -1839199.4, -1685631.0, -102788.81, 0.23410824, -0.72978723, -1634113.4, -113465.586, 0.015627254, 9.997838, 9.999887 
1.6950151e+3, 1.5483019e+2, -1782955.1, -1608089.9, -83668.18, -0.1328263, -0.43757495, -1574506.6, -151883.45, 0.004910431, 9.997562, 9.999876 
1.6950193e+3, 1.6483131e+2, -1637809.1, -1433055.6, -26286.197, -0.19650689, -0.32910323, -1429734.9, -105121.79, 0.0007170378, 9.997648, 10.000364 
1.6950278e+3, 1.748308e+2, -1447747.1, -1273967.5, 5104.5107, 0.10242835, -0.44481236, -1273817.8, -47202.1, 0.000016975888, 9.998211, 10.000511 
1.695033e+3, 1.8483059e+2, -1330509.6, -1241725.0, -66959.03, 0.17352714, -0.47684497, -1205779.4, -77162.82, 0.0, 9.998671, 9.999833 
1.695035e+3, 1.9483086e+2, -1180545.9, -1108753.8, -63784.742, -0.011534113, -0.45637056, -1071458.1, -40843.7, 0.0, 9.998985, 9.999921 
1.6950391e+3, 2.0483099e+2, -980570.9, -1000992.3, 27063.145, -0.057412617, -0.41176248, -961856.3, -29240.766, 0.0, 9.999845, 9.999585 
1.6950461e+3, 2.1483116e+2, -666756.6, -782708.2, 67825.85, 0.051470987, -0.37792972, -635504.94, 199113.17, 0.0, 10.001265, 9.999721 
1.6950513e+3, 2.2483143e+2, -589204.4, -669275.4, -26716.928, 0.12049189, -0.3285578, -581108.44, 155510.28, 0.0, 10.001003, 9.999957 
1.6950548e+3, 2.348319e+2, -781806.5, -697990.2, -33769.633, 0.14153208, -0.30348113, -686077.56, -47461.19, 0.0, 9.998956, 10.000073 
1.6950597e+3, 2.4483246e+2, -708520.6, -717010.25, 98846.47, 0.08176326, -0.20160744, -613827.9, -73213.21, 0.0, 9.999231, 9.999135 
1.6950661e+3, 2.5483328e+2, -193914.34, -409283.97, 62164.953, -0.0599053, -0.055806685, -177258.89, 265353.28, 0.0000000033657745, 10.002053, 9.999219 
1.695072e+3, 2.648322e+2, 24486.56, -254351.77, -48820.906, -0.09521999, -0.07850359, 32787.348, 377410.84, 0.0000030031388, 10.002894, 9.999195 
1.6950776e+3, 2.7482912e+2, -33407.32, -217891.13, 7985.1147, -0.005181852, -0.33321837, -33062.344, 213586.34, 0.000041424442, 10.001777, 9.999303 
1.6950835e+3, 2.8482738e+2, -85032.43, -391667.03, 41073.625, 0.060406946, -0.34548718, -79625.95, 69038.03, 0.00024197955, 10.001589, 9.997542 
1.6950893e+3, 2.9482725e+2, 146958.19, -203493.27, -9526.573, 0.085463524, -0.14133136, 147216.97, 197883.31, 0.00082078995, 10.002404, 9.997766 
1.695094e+3, 3.0482352e+2, 296039.5, -200949.2, -23003.03, -0.0015210651, -0.24595675, 297101.94, 297101.94, 0.0018795029, 10.003521, 9.996911 
1.6950989e+3, 3.1481954e+2, 580338.25, 50021.74, 59169.586, -0.06194092, -0.3522522, 586859.9, 586859.9, 0.0032690766, 10.004978, 9.997934 
1.7049988e+3, 1.248239e+2, -2097354.0, -1894303.3, -82547.47, -0.21355045, -0.36121753, -1864979.5, -148301.1, 0.054460447, 9.997298, 10.000072 
1.7050064e+3, 1.3482194e+2, -1883594.8, -1687223.4, -23644.81, 0.032281756, -0.61726606, -1684416.4, -65717.36, 0.034638863, 9.997901, 10.000524 
1.7050117e+3, 1.4482154e+2, -1722412.9, -1601011.5, -60200.71, 0.1092238, -0.68676734, -1576221.3, -55516.336, 0.016903277, 9.998538, 10.000125 
1.705014e+3, 1.5482488e+2, -1505215.0, -1441331.9, -37504.266, -0.10004457, -0.3819146, -1424010.6, -1335.5955, 0.00538814, 9.999336, 10.000161 
1.7050184e+3, 1.6482599e+2, -1364566.4, -1303787.3, 13424.697, -0.13345489, -0.289514, -1300954.1, 23710.299, 0.0008082668, 9.99953, 10.000346 
1.7050259e+3, 1.7482498e+2, -1308676.3, -1208144.1, -9368.356, 0.04563895, -0.4517199, -1207278.5, 19393.234, 0.000020835996, 9.99917, 10.000502 
1.7050312e+3, 1.8482481e+2, -1271393.4, -1228822.6, -87721.07, 0.1011558, -0.47235438, -1159841.4, -31168.219, 0.0, 9.999138, 9.999704 
1.7050344e+3, 1.9482566e+2, -1106491.8, -1085872.4, -96362.88, 0.015458062, -0.37937608, -999269.25, 31397.965, 0.0, 9.999544, 9.999814 
1.7050391e+3, 2.0482598e+2, -994944.4, -947561.9, -3607.7092, -0.01987468, -0.3375497, -947288.75, -14623.137, 0.0, 9.999493, 10.000111 
1.7050457e+3, 2.1482587e+2, -955229.9, -864267.8, 1028.2687, -0.006619702, -0.3857067, -864256.2, -29588.912, 0.0, 9.999039, 10.00023 
1.7050512e+3, 2.2482604e+2, -794066.25, -807723.1, -116529.67, 0.054484043, -0.35422656, -684165.1, 52502.82, 0.0, 9.999773, 9.999596 
1.7050555e+3, 2.3482656e+2, -396487.22, -550831.44, -139018.9, 0.1719196, -0.28514248, -314656.84, 324009.8, 0.0, 10.001772, 9.999719 
1.705061e+3, 2.4482663e+2, -340538.13, -561178.1, 56161.258, 0.16036685, -0.20648831, -327065.63, 213603.89, 0.0, 10.001856, 9.998942 
1.7050676e+3, 2.5482625e+2, -512610.13, -578697.44, 80951.05, 0.0031250522, -0.16236806, -458218.34, -15542.448, 0.0000000026261497, 9.999942, 9.999068 
1.7050737e+3, 2.6482487e+2, -371973.22, -425531.03, -21096.537, -0.071852535, -0.21524537, -364661.44, -19973.377, 0.0000021613648, 10.00009, 9.999371 
1.7050792e+3, 2.748226e+2, 80261.664, -146336.64, -75175.22, -0.05973679, -0.40545782, 102933.14, 349637.8, 0.000036573332, 10.00248, 9.999465 
1.7050856e+3, 2.8482074e+2, 158341.34, -330460.03, -62417.016, 0.019180901, -0.41102406, 166185.73, 314907.94, 0.00022739316, 10.003511, 9.997037 
1.7050928e+3, 2.948193e+2, 213308.03, -230641.75, -69241.53, 0.15387432, -0.28093475, 223856.78, 274597.03, 0.0007810647, 10.003117, 9.997239 
1.7050985e+3, 3.048159e+2, 329813.25, -111128.086, -19524.863, 0.09288094, -0.3588802, 330676.13, 330676.13, 0.0017958801, 10.003431, 9.997564 
1.7051038e+3, 3.1481424e+2, 590737.1, 154192.14, -1790.737, -0.028305978, -0.30397987, 590744.44, 590744.44, 0.0031408016, 10.004598, 9.998833 
1.714999e+3, 1.2481362e+2, -2028954.6, -1737117.8, -31086.44, 0.038937476, -0.8130804, -1733843.1, -17068.693, 0.058051143, 9.997234, 10.001177 
1.715002e+3, 1.3481963e+2, -1904641.4, -1720351.6, 5379.976, -0.19351238, -0.2610235, -1720194.8, -101469.64, 0.037118543, 9.997865, 10.00031 
1.7150065e+3, 1.448211e+2, -1681624.5, -1533384.0, -36597.535, -0.28581437, -0.15020962, -1524841.1, -4127.5137, 0.018276531, 9.998592, 10.000571 
1.7150147e+3, 1.5481958e+2, -1474336.6, -1371974.5, -2495.2559, 0.0436413, -0.38485456, -1371913.8, 50811.01, 0.005915651, 9.999305, 10.000657 
1.7150205e+3, 1.6481893e+2, -1407438.9, -1389874.1, -7331.093, 0.100725904, -0.4653642, -1387216.4, -62486.93, 0.0009130136, 9.99952, 9.999757 
1.7150234e+3, 1.7481929e+2, -1358496.0, -1302732.6, -19588.057, -0.14115745, -0.4268013, -1296539.8, -69813.164, 0.000025810483, 9.999137, 9.999866 
1.7150281e+3, 1.8481925e+2, -1283166.5, -1252639.0, -76949.76, -0.13020177, -0.3953804, -1189453.8, -60724.88, 0.0, 9.99913, 9.999545 
1.7150356e+3, 1.948189e+2, -1119569.8, -1108595.3, -74057.13, 0.16098236, -0.4110434, -1039822.4, -9087.1, 0.0, 9.999524, 9.999668 
1.7150405e+3, 2.048189e+2, -984877.94, -924454.8, -24231.77, 0.15865734, -0.39946544, -915937.6, 16797.883, 0.0, 9.99948, 10.000277 
1.7150433e+3, 2.1481948e+2, -954037.6, -844256.4, -11179.773, -0.15192473, -0.39596328, -843129.44, -8401.845, 0.0, 9.998963, 10.000402 
1.7150487e+3, 2.2481966e+2, -837722.44, -876401.3, -46519.58, -0.17385547, -0.3518777, -806682.44, -69955.37, 0.0, 9.999674, 9.999176 
1.7150567e+3, 2.3481958e+2, -440234.22, -619731.7, -58124.754, 0.11190456, -0.3004995, -423056.22, 215676.42, 0.0, 10.001677, 9.999294 
1.7150632e+3, 2.4481848e+2, -298240.8, -454255.16, -19095.758, 0.16806093, -0.35402134, -295937.53, 244805.13, 0.0, 10.00177, 9.999719 
1.7150673e+3, 2.5481632e+2, -466941.34, -470416.97, 15396.956, -0.021798594, -0.56893206, -453184.44, -10427.27, 0.0000000000058928205, 9.999882, 9.999841 
1.7150731e+3, 2.6481536e+2, -460802.34, -592678.8, 60422.79, -0.15347502, -0.56208694, -437304.78, -92539.75, 0.0000014626683, 10.000017, 9.99826 
1.7150801e+3, 2.74816e+2, -15824.913, -315813.7, 22738.654, -0.22893676, -0.34586874, -14111.15, 232651.92, 0.000032081512, 10.002356, 9.998359 
1.7150876e+3, 2.848142e+2, 155456.4, -307878.38, -80414.86, -0.15362212, -0.30217835, 169016.11, 317800.0, 0.00021176567, 10.003383, 9.997257 
1.7150953e+3, 2.9480967e+2, 213877.75, -205284.64, -72127.84, 0.08161252, -0.5108031, 225942.0, 276771.78, 0.0007336498, 10.003012, 9.997463 
1.715102e+3, 3.0480686e+2, 306429.6, -123456.1, 17481.186, 0.10238476, -0.5372146, 307139.28, 307139.28, 0.0016880672, 10.003284, 9.99755 
1.715109e+3, 3.1480846e+2, 563101.44, 165132.3, 73409.98, -0.0053166994, -0.15543966, 576210.94, 576210.94, 0.0029603657, 10.004331, 9.999028 
1.724996e+3, 1.2480727e+2, -2012715.0, -1661000.8, 3513.2888, 0.030116877, -0.80255485, -1660965.6, 55870.61, 0.06177432, 9.99704, 10.001817 
1.7249995e+3, 1.3481332e+2, -2042583.4, -1780692.4, -27662.21, -0.18266262, -0.25782514, -1777802.5, -159016.05, 0.039721623, 9.996898, 10.000358 
1.725004e+3, 1.4481534e+2, -1884003.0, -1599740.1, -31810.79, -0.3152798, -0.1082028, -1596223.9, -75455.195, 0.019743169, 9.997063, 10.000855 
1.7250133e+3, 1.548129e+2, -1666801.8, -1426174.4, -22836.059, 0.04744363, -0.46905544, -1424026.4, -1239.9436, 0.006494274, 9.997798, 10.00102 
1.7250195e+3, 1.6481201e+2, -1599514.8, -1494349.0, -30813.936, 0.1171762, -0.58537954, -1485985.5, -161192.92, 0.001032908, 9.998258, 9.999648 
1.725022e+3, 1.7481281e+2, -1446757.1, -1356825.4, -18462.53, -0.14714427, -0.4940688, -1353182.6, -126396.4, 0.00003215152, 9.998581, 9.99976 
1.7250273e+3, 1.8481301e+2, -1278459.8, -1236011.1, -11347.911, -0.14043328, -0.438962, -1233167.9, -104381.2, 0.0, 9.999102, 9.999672 
1.7250352e+3, 1.9481276e+2, -1045311.7, -1055609.9, 1822.8507, 0.15164217, -0.457459, -1044998.56, -14206.267, 0.0, 9.999961, 9.999819 
1.7250408e+3, 2.048126e+2, -861783.2, -909990.6, 22188.645, 0.17847277, -0.45202675, -853125.25, 79668.73, 0.0, 10.000515, 9.999886 
1.725044e+3, 2.148126e+2, -708641.75, -771326.1, -16133.597, -0.076158434, -0.46388906, -704733.0, 130057.84, 0.0, 10.000834, 10.00001 
1.7250495e+3, 2.2481218e+2, -725636.6, -870000.06, -34876.65, -0.11431591, -0.4363302, -717652.4, 19143.77, 0.0, 10.000664, 9.998734 
1.725057e+3, 2.3481154e+2, -710541.1, -800414.44, -59531.86, 0.06475551, -0.39672264, -680889.94, -42081.746, 0.0, 10.000047, 9.998834 
1.7250633e+3, 2.4481022e+2, -476599.1, -535005.25, -68158.484, 0.088003315, -0.45025206, -431650.97, 109168.51, 0.0, 10.000529, 9.999756 
1.725068e+3, 2.5480828e+2, -125802.79, -301007.25, -101364.67, -0.06113368, -0.6469144, -79431.336, 363397.63, 0.0000000000049057277, 10.002208, 9.999881 
1.7250744e+3, 2.648073e+2, -133772.94, -482120.4, -24028.502, -0.1452822, -0.62517804, -132123.3, 212713.81, 0.0000011502509, 10.002461, 9.99784 
1.7250824e+3, 2.7480757e+2, -213063.22, -459709.7, -20611.781, -0.16510203, -0.40501004, -211352.6, 35489.055, 0.000029088935, 10.0012, 9.997929 
1.7250901e+3, 2.8480583e+2, -99143.484, -374994.25, -67746.0, -0.11689965, -0.3526706, -83403.87, 65458.09, 0.0002003837, 10.001403, 9.99774 
1.7250976e+3, 2.9480204e+2, 285403.9, -114362.66, -63516.277, -0.011168779, -0.5421198, 295252.94, 346152.1, 0.0006934616, 10.003275, 9.997951 
1.7251053e+3, 3.0479962e+2, 443077.1, -108170.62, 33507.895, 0.05172864, -0.53048736, 445106.4, 445106.4, 0.0015933388, 10.004422, 9.997124 
1.7251143e+3, 3.1480032e+2, 589091.44, 113737.04, 42004.297, 0.0739043, -0.19371605, 592774.56, 592774.56, 0.0027992858, 10.004743, 9.998504 
1.7349894e+3, 1.2480527e+2, -2002704.9, -1641721.0, 61338.81, -0.35421368, -0.29328254, -1631583.0, 85276.81, 0.06561491, 9.997041, 10.001962 
1.7349985e+3, 1.3480304e+2, -2033788.3, -1745365.9, -35500.707, 0.0047383816, -0.61119497, -1741060.6, -122177.64, 0.042436883, 9.996823, 10.000635 
1.735004e+3, 1.4480412e+2, -1878708.3, -1582979.8, -10908.935, -0.03687538, -0.57110274, -1582577.9, -61706.832, 0.021297567, 9.997038, 10.00098 
1.7350093e+3, 1.5480496e+2, -1656548.9, -1395777.6, 9263.364, -0.15256608, -0.6250021, -1395449.0, 27409.76, 0.0071235094, 9.997766, 10.001241 
1.7350152e+3, 1.6480543e+2, -1566925.5, -1438988.8, -24026.406, -0.14789401, -0.63585836, -1434625.5, -109773.5, 0.0011691477, 9.998295, 10.000016 
1.735022e+3, 1.7480554e+2, -1422368.5, -1307195.5, -2468.8606, -0.01714612, -0.6490736, -1307142.6, -80292.02, 0.00004011834, 9.998575, 10.000109 
1.735028e+3, 1.8480606e+2, -1250156.1, -1178837.5, 12709.587, 0.018605055, -0.599088, -1176640.3, -47793.215, 0.0, 9.999108, 10.000061 
1.7350331e+3, 1.948072e+2, -1029590.06, -1006640.2, 36751.695, -0.052924268, -0.5158369, -979613.7, 51225.383, 0.0, 9.999892, 10.000188 
1.7350395e+3, 2.0480695e+2, -932093.44, -1046481.7, 27198.582, -0.008540529, -0.49247205, -925955.7, 6886.5044, 0.0, 10.000469, 9.998972 
1.7350473e+3, 2.1480533e+2, -785984.3, -914400.6, 845.02606, 0.16280119, -0.5758308, -785978.75, 48877.33, 0.0, 10.000759, 9.999062 
1.7350529e+3, 2.2480375e+2, -771453.56, -948766.5, -61936.496, 0.16103603, -0.5934849, -751961.5, -15087.552, 0.0, 10.000591, 9.998228 
1.7350563e+3, 2.3480238e+2, -756583.56, -878010.5, -76757.63, -0.022149084, -0.5768211, -719430.5, -80536.34, 0.0, 9.999969, 9.998338 
1.7350619e+3, 2.4480174e+2, -542857.9, -647037.7, -10083.3125, -0.13019079, -0.5009464, -541890.94, -989.8473, 0.0, 10.000421, 9.999041 
1.7350693e+3, 2.5480202e+2, -189889.4, -408372.13, -28579.482, -0.16485831, -0.4031075, -186212.83, 256679.45, 0.000000000000012544113, 10.002103, 9.999192 
1.7350774e+3, 2.6480055e+2, -133097.4, -453244.78, -72866.98, -0.107694045, -0.41157785, -117292.78, 227612.48, 0.0000010511417, 10.002344, 9.998095 
1.735086e+3, 2.7479732e+2, -210313.02, -428794.7, -59546.348, 0.059561666, -0.56792986, -195137.9, 51801.855, 0.000028849088, 10.001099, 9.998184 
1.7350934e+3, 2.847958e+2, -65870.69, -292336.5, -6429.064, 0.046755776, -0.541108, -65688.32, 83267.445, 0.00019663657, 10.001331, 9.998347 
1.7350993e+3, 2.9479596e+2, 310585.34, -36297.97, 15558.879, -0.18152073, -0.39127547, 311281.8, 362234.25, 0.00067244127, 10.003159, 9.998545 
1.735108e+3, 3.047938e+2, 357589.28, -236591.4, 38572.73, -0.13144173, -0.3475001, 360082.88, 360082.88, 0.0015435342, 10.004225, 9.996325 
1.7351191e+3, 3.14789e+2, 447226.63, -83907.01, 75868.11, 0.0650086, -0.48590556, 457851.25, 457851.25, 0.0027222822, 10.004363, 9.997304 
1.7449866e+3, 1.247992e+2, -1967427.1, -1671103.9, 173834.6, -0.358025, -0.2708347, -1590857.3, 126058.305, 0.06957688, 9.997497, 10.001556 
1.7449956e+3, 1.3479547e+2, -2042352.6, -1756530.0, -35317.695, 0.04204473, -0.73036224, -1752230.6, -133277.48, 0.045260757, 9.996789, 10.000582 
1.7450023e+3, 1.447965e+2, -1876972.0, -1575430.0, 54479.45, 0.09466753, -0.693751, -1565889.1, -44946.734, 0.022935338, 9.99703, 10.001032 
1.7450072e+3, 1.5479884e+2, -1533671.8, -1329985.4, 49603.645, -0.17973861, -0.6060169, -1318547.6, 104369.836, 0.0078018596, 9.998585, 10.001298 
1.7450136e+3, 1.6479973e+2, -1400728.8, -1327235.8, -21025.348, -0.20283394, -0.58988225, -1321645.9, 3260.5952, 0.0013223152, 9.999303, 10.000297 
1.7450216e+3, 1.7479919e+2, -1300840.8, -1217334.8, -16253.212, 0.044735756, -0.6959752, -1214282.8, 12626.81, 0.000049909977, 9.999276, 10.000388 
1.7450279e+3, 1.8479945e+2, -1227367.9, -1217535.4, -3841.2153, 0.064504094, -0.6628106, -1216212.8, -87304.47, 0.0000000000000006446772, 9.999483, 9.99961 
1.7450319e+3, 1.9480076e+2, -1045921.94, -1065624.0, -53093.316, -0.17027956, -0.51813716, -1001773.5, 29126.84, 0.0, 9.999996, 9.99973 
1.7450386e+3, 2.048005e+2, -973164.44, -1084721.0, -72241.555, -0.13285528, -0.46418774, -937673.56, -4768.523, 0.0, 10.000269, 9.9988 
1.7450482e+3, 2.147987e+2, -846851.9, -959265.4, -54741.58, 0.19244109, -0.54981434, -824599.5, 10322.461, 0.0, 10.000408, 9.998919 
1.7450544e+3, 2.2479701e+2, -731014.2, -935911.4, -64445.918, 0.23596087, -0.56732243, -712429.75, 24510.443, 0.0, 10.000889, 9.998181 
1.7450573e+3, 2.3479563e+2, -498238.28, -759873.3, -55552.043, -0.02136852, -0.54635006, -486931.72, 152026.4, 0.0, 10.001763, 9.998291 
1.7450628e+3, 2.4479464e+2, -365860.06, -623656.06, 57246.71, -0.14783476, -0.4783564, -353719.47, 187248.42, 0.0, 10.001905, 9.99848 
1.7450711e+3, 2.5479412e+2, -347645.3, -549473.56, 35298.152, -0.14900805, -0.40223664, -341650.03, 101317.805, 0.0, 10.001299, 9.998608 
1.7450796e+3, 2.64792e+2, -292134.5, -560171.8, -38994.633, -0.059260413, -0.43425214, -286576.72, 58410.81, 0.0000010008785, 10.001381, 9.997827 
1.7450882e+3, 2.7478826e+2, -52104.336, -383170.28, -78617.25, 0.11952175, -0.6114259, -34383.832, 212642.36, 0.00002996529, 10.002311, 9.997919 
1.7450957e+3, 2.847866e+2, 115409.6, -213432.97, -23381.268, 0.07995431, -0.5761196, 117063.73, 266106.44, 0.00019663884, 10.002631, 9.998259 
1.7451017e+3, 2.9478702e+2, 175120.56, -119849.83, -71754.0, -0.2032003, -0.3953252, 191649.14, 242686.52, 0.0006699009, 10.0023, 9.998389 
1.7451115e+3, 3.047846e+2, 137805.67, -285675.84, -25944.03, -0.112903796, -0.3897072, 139389.19, 139389.19, 0.00154873, 10.002452, 9.996848 
1.7451231e+3, 3.1477943e+2, 316399.0, -111939.195, 56999.94, 0.09646324, -0.62679726, 323854.34, 323854.34, 0.0027554093, 10.0032835, 9.997633 
1.7549872e+3, 1.2478874e+2, -2056814.8, -1820544.1, 167050.64, -0.070317686, -0.7728338, -1734077.8, -17071.404, 0.07366958, 9.997382, 10.000524 
1.7549907e+3, 1.3479076e+2, -2080117.4, -1822330.9, -61743.867, -0.13804732, -0.6072435, -1808305.3, -189309.9, 0.048192136, 9.996742, 10.000151 
1.7549987e+3, 1.4479277e+2, -1880216.9, -1581445.5, 101976.58, 0.011532479, -0.451569, -1549957.4, -28977.574, 0.024652572, 9.99702, 10.001 
1.7550069e+3, 1.5479456e+2, -1545081.1, -1346142.5, 113334.2, -0.084023334, -0.4077348, -1294817.9, 128143.86, 0.008527423, 9.998552, 10.0012045 
1.755014e+3, 1.6479488e+2, -1392108.3, -1307213.6, -28857.973, -0.10109623, -0.45096257, -1298333.0, 26623.271, 0.0014925194, 9.999292, 10.000442 
1.7550203e+3, 1.7479372e+2, -1294705.4, -1193241.0, -12930.47, -0.012257523, -0.6359521, -1191619.0, 35344.4, 0.00006156021, 9.999231, 10.000575 
1.7550261e+3, 1.8479323e+2, -1314542.6, -1398131.8, 11072.566, -0.060057133, -0.6284466, -1313100.8, -184130.73, 0.0000000010737394, 9.999476, 9.998374 
1.7550312e+3, 1.9479357e+2, -1142293.6, -1257280.5, -27583.36, -0.26242352, -0.45529172, -1136019.1, -105044.22, 0.0, 9.99996, 9.998431 
1.7550378e+3, 2.047933e+2, -939221.8, -1010236.4, -73411.44, -0.2592672, -0.3603873, -893181.56, 39800.492, 0.0, 10.000245, 9.999325 
1.7550464e+3, 2.1479261e+2, -816848.75, -882156.2, -46809.047, -0.027300783, -0.39332777, -792429.25, 42560.33, 0.0, 10.0003395, 9.999484 
1.7550537e+3, 2.2479185e+2, -712539.5, -882013.6, -36508.637, 0.06862994, -0.3642157, -705009.3, 31987.01, 0.0, 10.000818, 9.998587 
1.7550595e+3, 2.3479125e+2, -482726.16, -708737.6, -14692.762, 0.010157081, -0.3068772, -481775.0, 157225.66, 0.0, 10.001681, 9.998682 
1.7550659e+3, 2.4478883e+2, -413291.6, -699295.9, 30401.627, -0.043122932, -0.3783463, -410095.7, 130924.85, 0.0, 10.001804, 9.998012 
1.7550732e+3, 2.5478458e+2, -392449.47, -623418.44, 16881.246, -0.07254127, -0.63071483, -391222.16, 51833.848, 0.0, 10.00122, 9.9981365 
1.7550811e+3, 2.6478162e+2, -358291.72, -685629.8, -10194.623, -0.060421187, -0.67739743, -357974.53, -12890.309, 0.00000094846536, 10.001324, 9.996995 
1.7550892e+3, 2.7478036e+2, -124597.74, -505668.7, -34453.402, -0.031080686, -0.52787566, -121507.8, 125593.79, 0.000030532858, 10.002196, 9.9971285 
1.7550969e+3, 2.8477833e+2, 43520.98, -340096.4, -39288.043, -0.07339832, -0.45667747, 47503.31, 196627.2, 0.00019885889, 10.002527, 9.997441 
1.7551045e+3, 2.9477522e+2, 91866.3, -261578.1, -72022.04, -0.15630125, -0.5423671, 105978.87, 157132.27, 0.00068665395, 10.00217, 9.997478 
1.7551154e+3, 3.0477232e+2, 225567.84, -62793.668, -2261.5598, 0.006521774, -0.61277556, 225585.58, 225585.58, 0.0016055047, 10.002284, 9.998457 
1.7551264e+3, 3.147721e+2, 359043.53, 56680.61, 78001.56, 0.06854192, -0.5293233, 377979.9, 377979.9, 0.0028769057, 10.002974, 9.99893 
1.764985e+3, 1.24781005e+2, -2404251.3, -1984781.8, 117234.06, 0.08848393, -0.8634095, -1954240.6, -237162.39, 0.07790593, 9.9949665, 10.000561 
1.7649871e+3, 1.3478436e+2, -1801338.6, -1688631.5, -82748.92, -0.2665982, -0.5615492, -1644869.6, -25815.018, 0.05123237, 9.998648, 10.000147 
1.764997e+3, 1.4478533e+2, -1541491.5, -1455656.1, 42464.22, 0.01526572, -0.49998197, -1438198.8, 82851.55, 0.026445003, 9.999503, 10.000677 
1.7650054e+3, 1.5478715e+2, -1698194.5, -1462465.4, 19258.967, -0.025293134, -0.41166788, -1460902.3, -37869.203, 0.009296644, 9.997693, 10.000813 
1.7650127e+3, 1.6478768e+2, -1649848.4, -1447599.8, -95051.51, -0.06750542, -0.40773013, -1409940.4, -84912.95, 0.0016790463, 9.997601, 10.000288 
1.765019e+3, 1.7478669e+2, -1287224.9, -1208550.8, -117640.72, -0.07027809, -0.56226474, -1123844.5, 103190.98, 0.000074904594, 9.999357, 10.000408 
1.7650256e+3, 1.8478604e+2, -1196467.0, -1280632.1, -59650.15, -0.094745465, -0.58680457, -1165549.0, -36507.008, 0.000000009428086, 10.00003, 9.998917 
1.7650318e+3, 1.94786e+2, -1131610.6, -1189109.0, 25453.344, -0.16670969, -0.50552344, -1121962.0, -90917.03, 0.0, 9.999762, 9.999 
1.7650385e+3, 2.0478557e+2, -999141.75, -1087071.9, 41651.97, -0.18976268, -0.43506387, -982544.3, -49491.61, 0.0, 10.000051, 9.998891 
1.7650458e+3, 2.1478492e+2, -756542.3, -902218.06, -17634.352, -0.15280135, -0.41343042, -754438.06, 80625.57, 0.0, 10.0009775, 9.999037 
1.7650533e+3, 2.2478414e+2, -586287.06, -800927.2, -43502.22, -0.08625361, -0.3755503, -577805.4, 159265.52, 0.0, 10.001607, 9.998756 
1.7650612e+3, 2.3478332e+2, -425421.22, -659269.56, -51746.836, -0.0009848344, -0.35646927, -414482.2, 224590.64, 0.0, 10.0019865, 9.99887 
1.7650686e+3, 2.4478061e+2, -364489.4, -742936.9, -33928.5, 0.016696377, -0.43685392, -361471.72, 179623.63, 0.0, 10.002429, 9.9974165 
1.7650756e+3, 2.5477597e+2, -181913.13, -590637.2, -67545.7, -0.032831572, -0.66212726, -171039.8, 272098.78, 0.0, 10.002962, 9.997527 
1.7650835e+3, 2.647729e+2, -121319.36, -565093.75, -52770.367, -0.031760477, -0.6941811, -115130.61, 230038.47, 0.0000007067664, 10.002935, 9.997042 
1.7650916e+3, 2.7477157e+2, -100907.3, -489494.44, -25947.033, -0.008256481, -0.553689, -99182.4, 148001.56, 0.00002910251, 10.002334, 9.997175 
1.7650998e+3, 2.8476942e+2, 24137.291, -368768.34, 42556.285, -0.038574725, -0.48958975, 28693.793, 177900.25, 0.00020251243, 10.002474, 9.997268 
1.7651081e+3, 2.9476628e+2, 286062.38, -192896.11, 34918.05, -0.082438216, -0.5591124, 288594.66, 339831.75, 0.000716697, 10.003606, 9.997255 
1.765119e+3, 3.0476257e+2, 452482.56, 25105.25, 72822.24, 0.07806599, -0.6900676, 464550.25, 464550.25, 0.0016844932, 10.00393, 9.998272 
1.7651291e+3, 3.1476158e+2, 388121.53, 57806.133, -38411.246, 0.046996597, -0.6642069, 392529.44, 392529.44, 0.003009792, 10.003189, 9.998854 
1.7749792e+3, 1.247763e+2, -2323320.0, -1811371.0, 158746.1, -0.0033076, -0.51800716, -1766142.5, -49014.33, 0.08231803, 9.994937, 10.001769 
1.7749844e+3, 1.3477632e+2, -1766473.1, -1615463.3, 55075.82, -0.40576488, -0.5957931, -1597510.5, 21619.875, 0.054393712, 9.998629, 10.00067 
1.774997e+3, 1.4477402e+2, -1586509.3, -1547053.1, -32092.918, 0.045922652, -0.8578765, -1529109.5, -7954.4824, 0.02831169, 9.999496, 10.000041 
1.775003e+3, 1.547767e+2, -1751211.5, -1562800.6, -42104.793, -0.06567213, -0.6178907, -1553819.5, -130688.86, 0.010105246, 9.997653, 10.000141 
1.7750095e+3, 1.6477822e+2, -1689739.4, -1527285.9, -37676.105, -0.16908635, -0.4542721, -1518973.5, -193854.3, 0.0018804772, 9.997586, 9.999749 
1.7750175e+3, 1.7477813e+2, -1331801.6, -1289775.0, -48160.914, -0.17924544, -0.4622481, -1258242.8, -31117.895, 0.00008970714, 9.999315, 9.9998665 
1.7750257e+3, 1.8477799e+2, -1034131.94, -948615.06, -75941.9, -0.09614974, -0.5219808, -904221.56, 224901.6, 0.000000028818846, 10.000043, 10.001191 
1.775034e+3, 1.9477804e+2, -972344.6, -851289.2, 19381.4, 0.061952177, -0.664594, -848261.9, 182848.92, 0.0, 9.99973, 10.001334 
1.7750408e+3, 2.0477729e+2, -1095588.5, -1286785.4, 69823.336, 0.014558567, -0.67954016, -1072804.8, -139687.42, 0.0, 10.000046, 9.99752 
1.775046e+3, 2.1477573e+2, -874211.7, -1124754.4, 21889.818, -0.23903042, -0.60512704, -872313.56, -37169.82, 0.0, 10.000886, 9.99755 
1.7750531e+3, 2.247739e+2, -609642.06, -828569.06, -33260.25, -0.2848367, -0.5884341, -604700.56, 132462.88, 0.0, 10.001509, 9.998618 
1.7750621e+3, 2.3477189e+2, -440618.97, -677245.94, -31412.008, -0.102230914, -0.6810694, -436520.06, 202654.38, 0.0, 10.00192, 9.998782 
1.7750707e+3, 2.4476995e+2, -427998.1, -855132.94, -19266.86, -0.025795905, -0.64516366, -427130.78, 114061.805, 0.0, 10.002345, 9.996684 
1.7750783e+3, 2.547683e+2, -251200.34, -709306.6, -40756.266, -0.07031887, -0.49814567, -247602.66, 195613.38, 0.0, 10.002859, 9.996758 
1.7750867e+3, 2.6476565e+2, -76688.99, -449497.63, -78699.03, -0.021259803, -0.48819044, -60756.695, 284486.38, 0.00000032366296, 10.002834, 9.997887 
1.7750952e+3, 2.7476197e+2, -60962.836, -370280.38, -40568.64, 0.11710334, -0.6744947, -55730.55, 191542.61, 0.00002512301, 10.002193, 9.998057 
1.7751038e+3, 2.8475997e+2, 30595.732, -335058.0, 77272.28, 0.09994467, -0.6478467, 46254.805, 195544.73, 0.00020058491, 10.002373, 9.997556 
1.7751122e+3, 2.9476e+2, 287945.84, -158607.75, 86647.71, -0.049355663, -0.43493727, 304169.25, 355459.75, 0.0007353367, 10.003472, 9.997559 
1.7751226e+3, 3.0475506e+2, 297214.56, -248595.03, 44063.453, 0.020429045, -0.6183032, 300748.94, 300748.94, 0.0017276168, 10.003731, 9.996481 
1.7751315e+3, 3.1474972e+2, 240908.95, -140218.52, -73371.18, -0.060610253, -0.84142375, 254545.77, 254545.77, 0.0030498388, 10.002783, 9.99766 
1.784974e+3, 1.2476661e+2, -2061022.0, -1618410.6, 29399.43, -0.09587511, -0.50998527, -1616466.4, 100758.59, 0.08696164, 9.996441, 10.002419 
1.7849822e+3, 1.347676e+2, -2064728.0, -1729480.4, -18281.344, -0.3847402, -0.51158184, -1728486.4, -109270.34, 0.057701517, 9.996472, 10.000917 
1.7849964e+3, 1.4476463e+2, -1871917.1, -1669257.1, -141235.53, 0.15653835, -0.8598024, -1596761.9, -75515.664, 0.030258754, 9.997479, 10.0001745 
1.7850009e+3, 1.5476666e+2, -1473462.4, -1421444.0, -108349.57, -0.12405331, -0.69414675, -1336025.6, 87201.875, 0.0109521225, 9.999527, 10.000214 
1.7850071e+3, 1.6476819e+2, -1378194.3, -1366819.8, -44293.742, -0.27244723, -0.53739095, -1327849.6, -2633.8242, 0.0020959692, 9.99968, 9.999838 
1.7850164e+3, 1.7476885e+2, -1520852.9, -1372156.8, -21318.852, -0.14908344, -0.4839404, -1369160.6, -141945.47, 0.000105867584, 9.997979, 9.999947 
1.7850254e+3, 1.8476893e+2, -1325626.9, -1079324.1, -65519.46, -0.019650223, -0.5271062, -1062979.8, 66231.56, 0.0000000562377, 9.998012, 10.001273 
1.7850338e+3, 1.9476873e+2, -928378.56, -819318.0, -146930.0, 0.06079864, -0.70497394, -717125.7, 314075.34, 0.0, 9.999987, 10.00143 
1.7850411e+3, 2.0476794e+2, -990400.94, -1223195.3, -145682.78, 0.011380267, -0.7318864, -920326.2, 12880.486, 0.0, 10.000719, 9.997635 
1.7850472e+3, 2.1476668e+2, -964443.6, -1157241.8, -90640.625, -0.16653204, -0.63757455, -928523.0, -93294.31, 0.0, 10.000215, 9.997656 
1.7850548e+3, 2.2476456e+2, -731794.9, -904662.4, -43293.04, -0.21692024, -0.6464025, -721558.6, 15691.66, 0.0, 10.000745, 9.998466 
1.7850639e+3, 2.3476169e+2, -386028.66, -666294.4, -59068.23, -0.1352147, -0.809003, -374088.25, 265181.47, 0.0, 10.00237, 9.99864 
1.7850727e+3, 2.447598e+2, -358620.88, -826395.44, -57731.883, -0.083947375, -0.756812, -351601.06, 189687.28, 0.0, 10.002841, 9.996642 
1.7850809e+3, 2.547592e+2, -369321.22, -776212.4, -40256.14, -0.072546385, -0.5024481, -365376.7, 77927.46, 0.0, 10.002075, 9.996682 
1.7850891e+3, 2.6475692e+2, -174037.86, -472439.7, -53976.47, -0.014080773, -0.45940155, -164574.44, 180753.08, 0.00000018370703, 10.002057, 9.998101 
1.7850974e+3, 2.7475283e+2, 70522.28, -288074.53, -79591.17, 0.073760934, -0.70670205, 87393.89, 334753.1, 0.000020759246, 10.002986, 9.998248 
1.7851062e+3, 2.8475037e+2, 71019.336, -347031.4, -500.09888, 0.0842801, -0.72088575, 71019.93, 220400.05, 0.00019242667, 10.002823, 9.997241 
1.7851156e+3, 2.947501e+2, -4163.0537, -334315.28, -55588.348, 0.04515754, -0.502813, 4945.1826, 56330.574, 0.000732247, 10.001636, 9.997226 
1.7851257e+3, 3.0474555e+2, -3100.4814, -380540.4, -31238.428, 0.07346018, -0.63417506, -532.5366, -532.5366, 0.0017117219, 10.001604, 9.996601 
1.7851341e+3, 3.1474128e+2, 240519.45, -95762.06, -83654.5, -0.060536858, -0.75926155, 260180.16, 260180.16, 0.0029630726, 10.002567, 9.998077 
1.7949685e+3, 1.2475208e+2, -2062587.5, -1621640.0, -110763.18, -0.32059953, -0.8443524, -1595380.9, 121986.484, 0.09190124, 9.996428, 10.002423 
1.79498e+3, 1.3475837e+2, -2076282.0, -1743886.1, -8435.967, -0.26702565, -0.30684343, -1743672.3, -124361.945, 0.06119029, 9.99643, 10.000839 
1.7949954e+3, 1.4475735e+2, -1819317.1, -1555136.1, -72233.03, 0.28138775, -0.4963086, -1536676.0, -15353.982, 0.03230053, 9.997455, 10.000972 
1.7949992e+3, 1.5475714e+2, -1424095.8, -1308867.4, -25619.424, -0.25443846, -0.6331571, -1303428.0, 119894.69, 0.011841973, 9.999481, 10.001012 
1.7950052e+3, 1.6475767e+2, -1326399.4, -1263427.0, -112849.26, -0.43406668, -0.65169215, -1177753.8, 147563.22, 0.0023264778, 9.999684, 10.000555 
1.7950158e+3, 1.7475879e+2, -1469119.1, -1267430.3, -81627.98, -0.028457114, -0.62199426, -1238533.8, -11227.3125, 0.00012352158, 9.997981, 10.000671 
1.7950246e+3, 1.847589e+2, -1472066.3, -1382116.6, 1839.5817, 0.07422083, -0.5990168, -1382079.0, -252773.06, 0.000000085167756, 9.998011, 9.999193 
1.7950311e+3, 1.947581e+2, -1090186.8, -1141513.9, -66560.63, -0.21617551, -0.61868924, -1044513.5, -13198.768, 0.0, 9.99993, 9.999244 
1.7950393e+3, 2.0475766e+2, -888672.94, -1002035.8, -168735.08, -0.25625595, -0.5758631, -767353.5, 165966.02, 0.0, 10.000671, 9.999177 
1.7950493e+3, 2.1475779e+2, -856608.94, -924173.0, -103999.09, 0.011204393, -0.5064, -781042.75, 54275.49, 0.0, 10.000171, 9.999278 
1.7950584e+3, 2.2475605e+2, -757527.44, -940335.1, 12888.255, 0.05974289, -0.5497292, -756623.25, -19291.154, 0.0, 10.000673, 9.998253 
1.7950663e+3, 2.347525e+2, -423515.2, -714534.06, 9398.638, -0.14986128, -0.7525922, -423211.97, 216148.38, 0.0, 10.002247, 9.998364 
1.7950743e+3, 2.4474998e+2, -334934.97, -748568.94, -88958.75, -0.20989475, -0.7787875, -316614.4, 224769.75, 0.0, 10.002715, 9.997238 
1.7950828e+3, 2.547487e+2, -339884.56, -692434.4, -62444.703, -0.09239047, -0.65452933, -329150.97, 114251.13, 0.0, 10.001985, 9.997298 
1.7950909e+3, 2.6474673e+2, -216072.17, -544662.8, -24301.154, -0.07072928, -0.5898526, -214284.69, 131137.28, 0.00000013255313, 10.001983, 9.997645 
1.7950979e+3, 2.7474415e+2, 20632.68, -360564.47, -37103.285, -0.19109918, -0.64407325, 24210.494, 271652.88, 0.0000188634, 10.00286, 9.9978075 
1.7951068e+3, 2.8474072e+2, -14633.571, -501129.22, -51711.844, -0.14902624, -0.6857212, -9197.623, 140278.1, 0.00018750537, 10.002709, 9.996243 
1.7951183e+3, 2.9473668e+2, -88842.95, -480756.6, -84716.31, 0.12731023, -0.74168843, -71314.58, -19794.748, 0.0007238546, 10.001515, 9.996275 
1.795128e+3, 3.0473408e+2, 89832.02, -148957.66, 2722.842, 0.1377465, -0.71361184, 89863.07, 89863.07, 0.0016668775, 10.001435, 9.998275 
1.7951365e+3, 3.147356e+2, 355617.72, 215054.64, -38297.508, -0.100833565, -0.4471588, 365374.88, 365374.88, 0.0028117606, 10.002286, 10.000337 
1.8049666e+3, 1.24741696e+2, -1976931.0, -1614057.0, -105811.98, -0.17402337, -0.85093904, -1585456.9, 132012.38, 0.097200245, 9.997157, 10.002133 
1.8049778e+3, 1.3474731e+2, -1785340.9, -1616055.9, 76955.984, -0.23066196, -0.37148133, -1586301.9, 33115.01, 0.06490086, 9.998467, 10.00075 
1.8049923e+3, 1.4474651e+2, -1682924.8, -1455691.4, -10064.253, 0.1828721, -0.55272275, -1455246.5, 66180.12, 0.034457777, 9.998238, 10.001288 
1.8049976e+3, 1.5474746e+2, -1846197.8, -1476390.0, -16854.074, -0.20231831, -0.6076422, -1475623.5, -52205.16, 0.0127833225, 9.996433, 10.00132 
1.8050045e+3, 1.647485e+2, -1701714.5, -1393298.3, -98066.9, -0.33479822, -0.6101458, -1364757.3, -39350.05, 0.0025744103, 9.996905, 10.000996 
1.805015e+3, 1.7474964e+2, -1146522.5, -1056287.3, -97177.586, 0.002543194, -0.6233797, -994264.44, 233128.94, 0.00014305822, 9.999979, 10.001146 
1.805024e+3, 1.8474965e+2, -1117329.9, -1300555.6, 15024.563, 0.07947337, -0.5985942, -1116106.0, 13288.744, 0.00000010953618, 10.000812, 9.998409 
1.8050309e+3, 1.9474857e+2, -1247632.5, -1305797.0, 36832.82, -0.20328222, -0.5669602, -1229784.8, -198373.55, 0.0, 9.999226, 9.998457 
1.8050393e+3, 2.0474787e+2, -1055020.3, -1044833.06, -20416.508, -0.24644224, -0.5264853, -1028884.3, -95465.64, 0.0, 9.999364, 9.999517 
1.8050501e+3, 2.147477e+2, -646852.44, -779972.6, -58284.902, 0.0061334255, -0.52251685, -624940.06, 210475.53, 0.0, 10.001429, 9.9996605 
1.8050598e+3, 2.2474623e+2, -585444.6, -868205.3, -2502.4414, 0.07121111, -0.55320096, -585422.5, 152003.86, 0.0, 10.001913, 9.998144 
1.8050684e+3, 2.3474355e+2, -657828.1, -846804.94, -7211.75, -0.08931572, -0.65661955, -657553.3, -18102.66, 0.0, 10.000711, 9.998199 
1.8050766e+3, 2.447411e+2, -570270.5, -790951.1, -79768.04, -0.16329743, -0.6972042, -544456.75, -2983.5586, 0.0, 10.000795, 9.997874 
1.8050845e+3, 2.5473905e+2, -241869.14, -573526.4, -66097.29, -0.13491757, -0.7114801, -229181.7, 214311.03, 0.0, 10.002342, 9.997951 
1.8050925e+3, 2.6473692e+2, -137820.6, -560970.3, -31747.098, -0.13073324, -0.67171043, -135452.02, 210061.11, 0.00000007008213, 10.002769, 9.99715 
1.8051003e+3, 2.7473485e+2, -141718.05, -501211.06, -68825.65, -0.18509082, -0.61664927, -128991.76, 118540.914, 0.000018211342, 10.002019, 9.997249 
1.8051097e+3, 2.847314e+2, -68930.27, -484333.53, -28749.791, -0.09554201, -0.6525585, -66949.96, 82617.69, 0.00018362651, 10.002138, 9.996637 
1.8051212e+3, 2.9472676e+2, 208161.3, -290615.47, 23924.31, 0.1764646, -0.8040735, 209306.22, 260921.52, 0.0007096767, 10.003331, 9.996718 
1.80513e+3, 3.0472514e+2, 310526.2, 511.03336, 103509.85, 0.1328566, -0.725178, 341909.72, 341909.72, 0.0016118331, 10.002759, 9.998666 
1.8051396e+3, 3.1472737e+2, 50790.6, 70215.71, -76340.24, 0.10707896, -0.40534848, 137458.77, 137458.77, 0.002668625, 10.000116, 10.000418 
1.8149681e+3, 1.247355e+2, -2028418.5, -1708098.9, -143865.31, 0.21995035, -0.5351201, -1652971.9, 64558.742, 0.10291468, 9.99713, 10.001456 
1.8149753e+3, 1.3473451e+2, -1796664.9, -1628763.3, 132097.19, -0.33697823, -0.70517963, -1556197.6, 63337.76, 0.06887483, 9.998429, 10.0006895 
1.8149868e+3, 1.4473212e+2, -1691423.6, -1476444.1, -82499.695, -0.20664659, -1.0339867, -1448433.9, 73126.06, 0.036753505, 9.99824, 10.001154 
1.814996e+3, 1.5473752e+2, -1854237.4, -1497624.9, -78305.53, -0.025573006, -0.62540287, -1481188.0, -57673.188, 0.01378539, 9.996442, 10.001178 
1.8150045e+3, 1.6474076e+2, -1691343.3, -1371082.4, 7398.1675, -0.046869334, -0.41197282, -1370911.6, -45425.746, 0.002842686, 9.996904, 10.001146 
1.815014e+3, 1.7474142e+2, -1142280.0, -1040366.44, 24268.76, -0.09893033, -0.48639145, -1034882.4, 192593.67, 0.00016504708, 9.999945, 10.001273 
1.8150236e+3, 1.8474114e+2, -1080761.9, -1220624.5, -45027.063, -0.055387836, -0.5231812, -1067519.8, 61958.492, 0.00000012908751, 10.000794, 9.998967 
1.8150327e+3, 1.9474006e+2, -1207002.8, -1221357.3, -18355.813, 0.04050351, -0.5485912, -1194470.9, -162979.95, 0.0, 9.999226, 9.999036 
1.8150412e+3, 2.0473844e+2, -1115189.0, -1169243.9, 49382.08, -0.015354031, -0.58913845, -1085921.9, -152416.19, 0.0, 9.999361, 9.998665 
1.8150494e+3, 2.1473631e+2, -719380.56, -914307.06, 25205.313, -0.2228803, -0.69324106, -716174.06, 119348.04, 0.0, 10.001355, 9.998775 
1.8150589e+3, 2.2473505e+2, -605358.1, -882797.56, -49024.477, -0.22718798, -0.6577649, -596950.1, 140583.94, 0.0, 10.001795, 9.998104 
1.8150699e+3, 2.3473486e+2, -670758.44, -856171.5, -44564.758, -0.010042014, -0.5076757, -660603.3, -21063.332, 0.0, 10.00064, 9.998169 
1.815079e+3, 2.447332e+2, -537864.4, -712449.5, -27749.723, -0.009189776, -0.4964669, -533559.75, 7995.09, 0.0, 10.000738, 9.998443 
1.8150857e+3, 2.547301e+2, -208935.3, -486781.0, -246.08638, -0.24894524, -0.6780079, -208935.08, 234642.22, 0.0, 10.002261, 9.998584 
1.8150942e+3, 2.6472735e+2, -197177.72, -663524.8, -63872.023, -0.25006446, -0.7051643, -188587.88, 157014.61, 0.0000000874347, 10.002672, 9.996496 
1.8151045e+3, 2.747249e+2, -208207.4, -613092.3, -88176.35, 0.019937895, -0.6227863, -189837.67, 57793.06, 0.00001648955, 10.001915, 9.996526 
1.8151145e+3, 2.847223e+2, 29410.168, -263477.78, 10177.406, 0.15278447, -0.6058759, 29763.39, 179419.84, 0.00017232615, 10.002053, 9.998199 
1.815124e+3, 2.9472e+2, 316067.6, -42800.56, 80446.29, 0.11884729, -0.70072997, 333275.8, 384950.34, 0.00067456526, 10.003221, 9.998477 
1.8151313e+3, 3.0471846e+2, 204178.19, -172773.22, -783.4616, -0.03336564, -0.6511352, 204179.81, 204179.81, 0.001540101, 10.002564, 9.997563 
1.8151419e+3, 3.1471434e+2, -115583.625, -200746.47, -120111.4, 0.29519975, -0.8532839, -30729.08, -30729.08, 0.0025581114, 9.999842, 9.998662 
1.8249664e+3, 1.2472631e+2, -1841548.6, -1624614.0, -170061.47, 0.28021792, -0.4716476, -1531373.4, 186248.7, 0.10907774, 9.998413, 10.001492 
1.824974e+3, 1.3472456e+2, -1912854.3, -1654183.8, 132042.61, -0.2512711, -0.7462608, -1598687.0, 20944.336, 0.07313931, 9.997481, 10.000966 
1.824984e+3, 1.4472237e+2, -1807038.0, -1552346.1, -72779.6, -0.27830946, -1.0595438, -1533016.0, -11362.7705, 0.039204508, 9.997554, 10.00094 
1.8249945e+3, 1.5472788e+2, -1468609.3, -1336050.3, -84027.41, 0.04498684, -0.6207765, -1295308.4, 128299.914, 0.014855209, 9.999197, 10.000963 
1.8250036e+3, 1.6473088e+2, -1301812.3, -1214747.0, 37905.82, 0.042944405, -0.40427956, -1200556.6, 125025.72, 0.0031336718, 9.999702, 10.000876 
1.825013e+3, 1.7473112e+2, -1307873.9, -1149596.5, 15974.277, -0.13793634, -0.4954291, -1148000.4, 79577.33, 0.00019006866, 9.99893, 10.001014 
1.825023e+3, 1.8473078e+2, -1271424.9, -1279871.5, -107803.26, -0.119402274, -0.53762424, -1167762.3, -38182.03, 0.00000015151502, 9.999359, 9.999247 
1.825033e+3, 1.9473006e+2, -902516.06, -1041546.1, -114000.94, 0.050732937, -0.55387586, -838507.5, 193080.8, 0.0, 10.001193, 9.999316 
1.8250419e+3, 2.0472836e+2, -795357.75, -1035863.75, -13794.607, 0.016036483, -0.60646933, -794569.1, 139033.83, 0.0, 10.001655, 9.998465 
1.8250501e+3, 2.1472569e+2, -841210.6, -995208.5, 1004.96686, -0.23529568, -0.7452944, -841204.06, -5579.914, 0.0, 10.000625, 9.998564 
1.8250597e+3, 2.247243e+2, -801256.6, -995730.25, -64103.695, -0.24818383, -0.70521516, -782027.6, -44389.48, 0.0, 10.000518, 9.997949 
1.825071e+3, 2.3472442e+2, -568552.3, -822260.94, -81904.15, -0.004250298, -0.5104214, -544408.94, 95234.1, 0.0, 10.001407, 9.998032 
1.8250805e+3, 2.4472284e+2, -372398.0, -629557.9, -45797.723, 0.02605484, -0.48284277, -364485.3, 177172.4, 0.0, 10.001873, 9.998458 
1.8250884e+3, 2.5471961e+2, -262999.0, -511218.8, -73630.07, -0.19134498, -0.6800735, -242801.4, 200879.81, 0.0, 10.001888, 9.998589 
1.8250972e+3, 2.6471677e+2, -253022.4, -661865.94, -149450.47, -0.19159177, -0.7273099, -204217.6, 141488.8, 0.00000011582431, 10.002176, 9.996744 
1.8251072e+3, 2.747143e+2, -57216.23, -517168.47, -123410.62, 0.05472357, -0.66795367, -26195.805, 221537.92, 0.000015405387, 10.002835, 9.996751 
1.825117e+3, 2.847119e+2, 63925.16, -244093.23, -41099.164, 0.19985063, -0.64330065, 69314.75, 219072.02, 0.00016006886, 10.002292, 9.998215 
1.8251264e+3, 2.9471013e+2, -87410.05, -234621.25, -116980.15, 0.18111399, -0.67726344, -22805.162, 28965.758, 0.0006307873, 10.00044, 9.998499 
1.8251331e+3, 3.0470878e+2, -27100.844, -224695.38, -170170.31, -0.013508321, -0.64367265, 70872.914, 70872.914, 0.0014636228, 10.000731, 9.998085 
1.8251446e+3, 3.1470382e+2, 459723.72, 48308.176, -158502.39, 0.3863842, -0.96194905, 513705.56, 513705.56, 0.0024808627, 10.003875, 9.998466 
1.8349615e+3, 1.2471396e+2, -1797069.9, -1528531.9, -182253.28, -0.09047867, -0.68422896, -1436428.5, 281317.03, 0.11569034, 9.998373, 10.002248 
1.8349738e+3, 1.3471769e+2, -1867781.0, -1558476.9, 94403.98, -0.025414497, -0.48718277, -1531940.1, 87762.95, 0.07769921, 9.99746, 10.001663 
1.8349832e+3, 1.447175e+2, -1834814.8, -1607430.4, -21199.086, -0.10251177, -0.6160302, -1605470.9, -83766.84, 0.04181763, 9.99754, 10.00057 
1.8349928e+3, 1.5471855e+2, -1495876.9, -1387870.8, -14266.37, -0.0532649, -0.5885635, -1386018.1, 37680.004, 0.015997248, 9.999174, 10.000613 
1.8350019e+3, 1.6471891e+2, -1348388.4, -1310783.4, 3849.6375, -0.12356291, -0.58685446, -1310393.4, 15303.54, 0.0034491862, 9.9997015, 10.000216 
1.8350118e+3, 1.7471866e+2, -1354146.3, -1247448.9, -10557.47, -0.16354209, -0.6596642, -1246414.3, -18714.842, 0.00021871291, 9.998934, 10.000341 
1.8350218e+3, 1.8471846e+2, -1275572.1, -1287222.0, -45944.27, -0.17711942, -0.6514324, -1235085.0, -105382.734, 0.00000018976193, 9.999353, 9.999198 
1.8350315e+3, 1.9471855e+2, -910948.44, -1048883.3, -38309.523, -0.21996029, -0.5846081, -901022.75, 130680.62, 0.0, 10.001148, 9.999286 
1.8350416e+3, 2.0471767e+2, -771358.56, -978024.6, -54054.17, -0.1978384, -0.5752324, -758074.4, 175635.63, 0.0, 10.001616, 9.998885 
1.8350524e+3, 2.1471584e+2, -819250.9, -936759.9, -33307.73, -0.08678011, -0.67108685, -810466.5, 25255.06, 0.0, 10.00057, 9.998991 
1.8350622e+3, 2.2471392e+2, -833906.6, -1044947.56, -34798.59, -0.054001037, -0.6878268, -828316.75, -90578.055, 0.0, 10.000435, 9.997653 
1.8350713e+3, 2.3471205e+2, -601369.8, -868648.8, -39734.527, -0.11581297, -0.66491294, -595587.8, 44173.188, 0.0, 10.001312, 9.99776 
1.8350813e+3, 2.4470991e+2, -426967.44, -716442.3, -48167.723, -0.104420446, -0.6560911, -419162.9, 122620.164, 0.0, 10.001753, 9.997924 
1.835092e+3, 2.547076e+2, -316928.88, -601685.7, -62987.2, -0.01453091, -0.7031524, -303618.5, 140184.95, 0.0, 10.0018, 9.998012 
1.8351011e+3, 2.6470533e+2, -193957.5, -526230.7, -126238.22, -0.02492797, -0.710642, -151437.78, 194385.34, 0.000000090536304, 10.0021105, 9.99771 
1.8351081e+3, 2.7470303e+2, 3964.5505, -368431.13, -85763.91, -0.13416998, -0.74031836, 22766.914, 270608.66, 0.00001528185, 10.002741, 9.997817 
1.8351173e+3, 2.8470016e+2, -58290.777, -481324.2, -116935.58, -0.017458713, -0.74214697, -28119.156, 121751.0, 0.00015262203, 10.0022135, 9.996626 
1.835128e+3, 2.9469717e+2, -212444.11, -477893.88, -176157.86, 0.29565275, -0.73457736, -124607.24, -72703.086, 0.00059531454, 10.000378, 9.996854 
1.8351352e+3, 3.0469608e+2, 84531.42, 31638.389, -65006.684, 0.10660946, -0.67519754, 128265.3, 128265.3, 0.0013981345, 10.000628, 9.999891 
1.835146e+3, 3.146968e+2, 481159.78, 163799.28, 42191.293, 0.13370158, -0.6342024, 486673.1, 486673.1, 0.0024225295, 10.003588, 9.999388 
1.844958e+3, 1.2470363e+2, -1930964.3, -1590280.8, -134912.44, -0.20133342, -0.67984724, -1543326.3, 174523.72, 0.12272786, 9.997439, 10.002224 
1.8449727e+3, 1.3470726e+2, -1881526.8, -1592026.8, -16734.893, 0.10724761, -0.4678698, -1591062.6, 28748.023, 0.08254445, 9.997518, 10.0013685 
1.8449815e+3, 1.4470835e+2, -1836056.8, -1576797.5, -90418.625, -0.028197417, -0.46407095, -1548378.5, -26580.639, 0.04459436, 9.997395, 10.000853 
1.8449908e+3, 1.5470819e+2, -1724659.6, -1456229.9, -39806.29, -0.07372071, -0.59184206, -1450451.3, -26653.0, 0.017215712, 9.997426, 10.000986 
1.8450005e+3, 1.6470785e+2, -1628860.5, -1520904.0, 679.56696, -0.14321089, -0.64574605, -1520899.8, -195096.61, 0.0037916328, 9.998108, 9.99954 
1.8450114e+3, 1.7470752e+2, -1304502.4, -1302265.9, -29382.072, -0.12801863, -0.6545862, -1273980.8, -46169.86, 0.00025177147, 9.999622, 9.999631 
1.845022e+3, 1.8470754e+2, -1157329.8, -1186467.9, -38019.43, -0.13500026, -0.608248, -1131183.6, -1370.2437, 0.00000025167606, 9.999977, 9.999582 
1.8450317e+3, 1.9470802e+2, -1179941.1, -1133398.5, -9439.653, -0.21613829, -0.54286885, -1131556.9, -99748.29, 0.0, 9.999098, 9.999695 
1.8450423e+3, 2.047075e+2, -1044148.06, -1089013.3, -3294.1533, -0.19160844, -0.5270449, -1043907.5, -110096.49, 0.0, 9.999656, 9.99907 
1.8450539e+3, 2.14706e+2, -614682.0, -823114.1, -12396.838, -0.045705926, -0.6040446, -613947.25, 221872.73, 0.0, 10.0019045, 9.999137 
1.8450642e+3, 2.247039e+2, -540883.2, -884595.9, -29392.188, -0.005827098, -0.6577159, -538387.9, 199450.4, 0.0, 10.002382, 9.997807 
1.8450725e+3, 2.3470119e+2, -645164.3, -873868.2, -17069.688, -0.10090605, -0.73183686, -643897.25, -4031.7625, 0.0, 10.000953, 9.997891 
1.8450823e+3, 2.4469918e+2, -599593.0, -803550.9, 43939.11, -0.10081347, -0.7145192, -590529.8, -48643.21, 0.0, 10.000598, 9.997875 
1.8450938e+3, 2.546981e+2, -367175.03, -630705.2, 50317.1, -0.011129022, -0.63322115, -357894.56, 86004.69, 0.0, 10.001477, 9.997966 
1.8451032e+3, 2.646962e+2, -196789.34, -485794.38, -7098.658, -0.017923648, -0.6196606, -196615.08, 149300.98, 0.00000009817215, 10.001912, 9.998082 
1.8451107e+3, 2.7469343e+2, -95137.76, -373120.13, -25828.734, -0.12335664, -0.73521364, -92758.25, 155178.22, 0.000013983738, 10.0018835, 9.998191 
1.8451197e+3, 2.8469038e+2, -25847.328, -482212.03, -40019.88, -0.009839201, -0.7670104, -22364.455, 127600.68, 0.0001420209, 10.002515, 9.996473 
1.84513e+3, 2.946874e+2, 284738.53, -252824.84, -18426.62, 0.28082293, -0.7412278, 285369.4, 337368.72, 0.0005568976, 10.003848, 9.996736 
1.845137e+3, 3.046855e+2, 473586.22, 193339.78, 114264.83, 0.10170618, -0.74358195, 514269.44, 514269.44, 0.0013248264, 10.0034, 9.999685 
1.8451473e+3, 3.1468707e+2, 151548.13, -39406.543, 85492.39, 0.019207522, -0.586705, 184230.33, 184230.33, 0.0023356052, 10.001471, 9.999021 
1.8549564e+3, 1.2469564e+2, -1985139.3, -1699671.0, -55322.945, -0.15405115, -0.43434036, -1689324.5, 28607.441, 0.13014582, 9.997465, 10.001341 
1.8549702e+3, 1.3469324e+2, -1980899.8, -1790790.0, -14436.81, 0.08596106, -0.70206434, -1789699.9, -169745.34, 0.08765755, 9.997488, 10.000002 
1.8549782e+3, 1.4469478e+2, -1775505.1, -1454379.5, -98096.08, -0.12040577, -0.62021255, -1426784.8, 95150.94, 0.04753598, 9.99739, 10.001728 
1.8549883e+3, 1.546967e+2, -1651047.9, -1308007.6, -35064.965, -0.07427603, -0.6435151, -1304460.0, 119449.76, 0.01851746, 9.997432, 10.002019 
1.8549992e+3, 1.6469769e+2, -1674388.6, -1618077.4, 52302.375, -0.0877603, -0.586651, -1586833.6, -260932.06, 0.0041650403, 9.998118, 9.998866 
1.8550116e+3, 1.7469777e+2, -1358375.5, -1414617.5, 34963.81, -0.08416089, -0.48148885, -1341627.1, -113715.16, 0.00029041685, 9.999618, 9.998863 
1.8550229e+3, 1.8469796e+2, -1103025.4, -1077386.4, -73338.09, -0.04774718, -0.41344255, -1015755.75, 114158.12, 0.0000003514084, 9.999987, 10.000331 
1.855033e+3, 1.9469844e+2, -1123317.0, -1016458.75, -39018.38, 0.0031218347, -0.427893, -1003728.2, 28176.053, 0.0, 9.999093, 10.000503 
1.8550438e+3, 2.046978e+2, -1053879.5, -1104212.1, 72948.3, -0.02741234, -0.460868, -1001878.44, -67971.74, 0.0, 9.999632, 9.99898 
1.855055e+3, 2.146961e+2, -634645.94, -842867.6, 78962.63, -0.14910102, -0.55137026, -608088.6, 227832.13, 0.0, 10.001812, 9.999046 
1.8550652e+3, 2.2469406e+2, -516206.38, -812291.7, -82696.36, -0.15003414, -0.6177976, -494675.13, 243262.48, 0.0, 10.002285, 9.998353 
1.8550745e+3, 2.3469177e+2, -616450.7, -801303.2, -63219.82, -0.0133662205, -0.70272326, -596897.7, 43058.85, 0.0, 10.000892, 9.998423 
1.8550839e+3, 2.4469061e+2, -586686.1, -761737.9, 71200.586, -0.02700367, -0.6434766, -561383.3, -19414.832, 0.0, 10.000528, 9.9981985 
1.8550932e+3, 2.5469086e+2, -356294.97, -584560.56, 90821.63, -0.21752006, -0.46966296, -324568.72, 119402.44, 0.0, 10.001377, 9.99833 
1.8551032e+3, 2.6468906e+2, -223789.27, -520128.03, -13578.465, -0.21092838, -0.45196182, -223168.39, 122819.86, 0.00000008466028, 10.001816, 9.997894 
1.8551141e+3, 2.7468517e+2, -127424.33, -414167.5, -16840.037, 0.033246752, -0.65585786, -126438.73, 121581.39, 0.000011475633, 10.001776, 9.997961 
1.8551241e+3, 2.8468224e+2, 35377.305, -330631.44, 2671.1365, 0.15310508, -0.7175239, 35396.797, 185441.27, 0.00012583715, 10.002401, 9.997573 
1.855132e+3, 2.9468048e+2, 345953.6, -93686.766, 38592.12, 0.081443526, -0.6890587, 349315.53, 401374.72, 0.0005095329, 10.003707, 9.997899 
1.8551387e+3, 3.046768e+2, 293476.97, -144684.5, 28126.455, -0.101817496, -0.8241086, 295275.06, 295275.06, 0.0012346595, 10.003256, 9.997421 
1.8551493e+3, 3.146766e+2, 1226.948, -287103.56, 65114.22, 0.04260997, -0.6054316, 15249.816, 15249.816, 0.0022029516, 10.001219, 9.997428 
1.8649547e+3, 1.2468661e+2, -1811756.9, -1620881.9, 110000.18, -0.125657, -0.39398462, -1570688.5, 147330.92, 0.1378835, 9.998647, 10.001417 
1.8649684e+3, 1.3468271e+2, -1882703.9, -1808179.0, 104373.15, 0.1254256, -0.7616194, -1734616.1, -114557.27, 0.09301642, 9.998435, 9.999428 
1.8649764e+3, 1.4468497e+2, -1622809.3, -1409429.3, 46327.816, -0.083548136, -0.56455153, -1399805.0, 122228.766, 0.050644647, 9.998571, 10.001468 
1.8649869e+3, 1.5468608e+2, -1351632.3, -1189133.3, 8045.135, -0.068815365, -0.64774525, -1188735.9, 235278.47, 0.01991141, 9.999613, 10.001793 
1.8649983e+3, 1.6468668e+2, -1429946.8, -1490351.3, 76788.01, -0.079944335, -0.6217199, -1377634.9, -51626.43, 0.0045744055, 9.999754, 9.998951 
1.865011e+3, 1.7468688e+2, -1463570.9, -1451336.1, 110528.99, -0.06719913, -0.51584995, -1346755.4, -118739.46, 0.0003360051, 9.998849, 9.998972 
1.8650228e+3, 1.8468705e+2, -1218993.0, -1148840.5, 22387.795, -0.034901306, -0.44875205, -1142304.9, -12287.709, 0.00000050835786, 9.999265, 10.000189 
1.865033e+3, 1.9468741e+2, -818050.2, -886095.06, -22718.752, -0.006726277, -0.46066844, -811162.1, 220847.19, 0.0, 10.001272, 10.000349 
1.8650441e+3, 2.0468678e+2, -792722.94, -989141.6, 46716.477, -0.036342915, -0.4785235, -782178.0, 151835.13, 0.0, 10.001483, 9.998868 
1.8650557e+3, 2.1468516e+2, -947768.1, -1005236.1, 39471.7, -0.14033599, -0.55070716, -927679.4, -91650.54, 0.0, 9.999713, 9.998934 
1.8650666e+3, 2.2468355e+2, -831025.56, -884055.25, -101612.91, -0.120536454, -0.6049791, -752525.06, -14483.386, 0.0, 9.999776, 9.999071 
1.8650763e+3, 2.3468214e+2, -411618.6, -618405.3, -76713.83, 0.03477579, -0.6761536, -386267.25, 253782.02, 0.0, 10.001934, 9.999179 
1.8650857e+3, 2.4468124e+2, -323866.9, -642453.3, 35771.047, 0.0209522, -0.62718135, -319899.9, 222157.88, 0.0, 10.002357, 9.998137 
1.8650945e+3, 2.54681e+2, -444219.38, -639941.06, 12754.898, -0.19742054, -0.49264178, -443391.66, 674.65045, 0.0, 10.000821, 9.998218 
1.8651044e+3, 2.6467922e+2, -375886.8, -535057.94, -36477.19, -0.20666353, -0.4913866, -367925.53, -21842.316, 0.000000065173005, 10.000528, 9.998408 
1.8651159e+3, 2.74676e+2, -101972.26, -345317.7, -2056.9355, 0.032632224, -0.68202615, -101954.875, 146152.63, 0.000009431519, 10.001691, 9.998484 
1.865126e+3, 2.8467354e+2, 38343.805, -305455.44, 33078.81, 0.12366567, -0.73378235, 41497.57, 191623.63, 0.00011328213, 10.002323, 9.997778 
1.8651342e+3, 2.9467204e+2, 174347.06, -156377.69, -26064.297, 0.012354688, -0.69810104, 176388.58, 228526.1, 0.00047182312, 10.002455, 9.998057 
1.865142e+3, 3.046679e+2, 195022.89, -254622.84, -44894.07, -0.065984935, -0.8589749, 199461.45, 199461.45, 0.0011563048, 10.002836, 9.996866 
1.8651517e+3, 3.1466717e+2, 371114.06, -91398.59, 94164.25, 0.049968224, -0.6393808, 389550.34, 389550.34, 0.0020674597, 10.003664, 9.997598 
1.8749526e+3, 1.24676615e+2, -1750947.4, -1496203.6, 151260.58, -0.21997282, -0.5601263, -1425829.8, 292282.0, 0.14588223, 9.998609, 10.002436 
1.8749675e+3, 1.346758e+2, -1871424.3, -1780282.8, 92586.21, 0.17704004, -0.64601177, -1722660.0, -102537.516, 0.0986057, 9.998418, 9.999628 
1.8749762e+3, 1.4467897e+2, -1721206.5, -1611239.9, 80911.57, 0.017793212, -0.29738924, -1568397.6, -46306.79, 0.053927336, 9.998583, 10.000034 
1.8749863e+3, 1.546763e+2, -1455997.1, -1404119.1, 57093.42, -0.11465008, -0.609676, -1367348.6, 56763.805, 0.021407956, 9.999605, 10.000297 
1.8749973e+3, 1.6467483e+2, -1373176.3, -1371266.4, 39964.668, -0.17448944, -0.7534961, -1332245.3, -6121.4004, 0.0050250688, 9.999748, 9.999772 
1.8750094e+3, 1.7467482e+2, -1401071.5, -1319030.8, 80540.85, -0.12700021, -0.75824344, -1269665.9, -41543.176, 0.00038988978, 9.998832, 9.999891 
1.8750209e+3, 1.8467474e+2, -1290042.0, -1294081.3, 88841.48, -0.15907201, -0.7155123, -1203197.3, -73073.55, 0.000000733184, 9.999257, 9.999197 
1.8750316e+3, 1.946749e+2, -900682.4, -1046515.44, 58194.24, -0.28950664, -0.64002043, -880306.94, 151817.02, 0.0, 10.001226, 9.99927 
1.8750435e+3, 2.0467436e+2, -806548.4, -1013796.6, -21582.777, -0.2693091, -0.5865041, -804324.6, 129806.59, 0.0, 10.001455, 9.998718 
1.8750562e+3, 2.1467319e+2, -965839.9, -1032673.0, -22534.645, -0.077566445, -0.5960981, -958951.6, -122806.914, 0.0, 9.999661, 9.998776 
1.8750678e+3, 2.2467235e+2, -780732.3, -760849.75, -28187.824, 0.01814888, -0.6072083, -740901.56, -2750.9775, 0.0, 9.999691, 9.999959 
1.875078e+3, 2.346721e+2, -363408.22, -489552.9, 12111.28, -0.00038176402, -0.6585547, -362255.9, 277889.63, 0.0, 10.001814, 10.000119 
1.8750879e+3, 2.4467085e+2, -372190.22, -713110.75, -21363.363, -0.009302226, -0.67164785, -370856.72, 171299.73, 0.0, 10.002227, 9.997718 
1.8750973e+3, 2.546686e+2, -488918.16, -715049.25, -37099.6, -0.011186413, -0.68844956, -482987.06, -38802.695, 0.0, 10.000748, 9.997738 
1.8751064e+3, 2.646668e+2, -304482.3, -377021.75, -1360.6737, -0.06303828, -0.7175423, -304456.78, 41743.01, 0.00000004605578, 10.000476, 9.999526 
1.8751155e+3, 2.7466586e+2, -35791.785, -179709.2, 50424.41, -0.1813598, -0.7997565, -19883.111, 228315.63, 0.000008317367, 10.001571, 9.99968 
1.8751256e+3, 2.8466427e+2, -27093.611, -417588.4, 31243.098, -0.1665527, -0.791722, -24609.684, 125600.18, 0.00010640216, 10.002214, 9.9970665 
1.875137e+3, 2.9466194e+2, 90071.125, -294698.47, -8142.647, 0.0186669, -0.75894016, 90243.37, 142478.8, 0.00044870467, 10.002301, 9.997183 
1.8751468e+3, 3.0465856e+2, 254106.78, -97321.375, -23156.82, 0.12559137, -0.84625906, 255626.1, 255626.1, 0.001099917, 10.002692, 9.9980135 
1.875156e+3, 3.14657e+2, 454618.03, 168456.05, 118035.45, 0.08716916, -0.84122485, 497021.63, 497021.63, 0.001955853, 10.003327, 9.9995365 
1.8849517e+3, 1.2466694e+2, -1734674.1, -1513134.0, 105215.266, -0.17756811, -0.5868658, -1471128.9, 247071.83, 0.15411249, 9.998798, 10.002217 
1.884965e+3, 1.346653e+2, -1962405.1, -1885683.0, -74739.75, 0.109681256, -0.7045017, -1840034.5, -219812.63, 0.10442951, 9.998055, 9.999078 
1.8849745e+3, 1.4466904e+2, -1796751.8, -1691642.6, -6125.9834, 0.012610352, -0.2508429, -1691286.8, -169099.6, 0.057399224, 9.998252, 9.999646 
1.884986e+3, 1.54666e+2, -1502471.4, -1460878.1, 47347.605, -0.08033211, -0.5645378, -1429961.3, -5746.2695, 0.023018045, 9.999446, 9.999973 
1.8849976e+3, 1.6466431e+2, -1308111.3, -1322036.3, 8339.879, -0.122212134, -0.722752, -1304209.6, 22018.406, 0.005521801, 10.000119, 9.999933 
1.885009e+3, 1.7466408e+2, -1166563.6, -1188525.5, -17993.33, -0.1268692, -0.7653165, -1156465.3, 71759.445, 0.0004532519, 10.0003605, 10.000059 
1.8850203e+3, 1.8466352e+2, -1206148.5, -1303603.6, 25300.332, -0.17763561, -0.75775415, -1199971.8, -69742.95, 0.0000010252129, 10.00004, 9.998755 
1.8850319e+3, 1.9466278e+2, -1239731.0, -1262543.6, 33559.145, -0.28767833, -0.72648954, -1215692.8, -183453.39, 0.0, 9.999112, 9.998807 
1.8850441e+3, 2.0466205e+2, -1095245.3, -1114385.3, -16095.351, -0.24058288, -0.6857295, -1086089.8, -151841.02, 0.0, 9.999316, 9.999054 
1.885057e+3, 2.1466148e+2, -750869.1, -884202.3, 8014.9795, -0.02054174, -0.671389, -750389.0, 85866.27, 0.0, 10.00096, 9.999165 
1.8850684e+3, 2.2466113e+2, -581776.2, -686515.4, 6262.9634, 0.057182003, -0.64531827, -581403.06, 156854.42, 0.0, 10.0011635, 9.999752 
1.8850784e+3, 2.3466106e+2, -681579.4, -671036.94, -49938.8, -0.036139496, -0.65516585, -626091.94, 14162.18, 0.0, 9.999748, 9.999867 
1.8850885e+3, 2.4465981e+2, -671183.4, -783708.25, -83467.79, -0.04966594, -0.68605113, -626786.3, -84521.414, 0.0, 9.9998665, 9.998367 
1.8850988e+3, 2.5465742e+2, -289559.16, -547536.4, -27682.486, 0.026264835, -0.7796262, -286622.1, 157667.84, 0.0, 10.001807, 9.998383 
1.8851085e+3, 2.6465592e+2, -12427.248, -240704.03, 20116.229, -0.0036167318, -0.81290317, -10668.12, 335633.7, 0.000000017635879, 10.002508, 9.999479 
1.885117e+3, 2.746557e+2, 2691.6228, -162922.7, -34677.336, -0.19182143, -0.81784743, 9659.422, 257955.5, 0.000007212163, 10.00186, 9.999646 
1.885127e+3, 2.8465435e+2, -99049.875, -384327.75, -42476.426, -0.21074797, -0.81071144, -92859.67, 57444.953, 0.00009812263, 10.00145, 9.997651 
1.8851389e+3, 2.9465175e+2, 13406.779, -276073.53, 470.33847, 0.029603966, -0.86389905, 13407.544, 65737.664, 0.00042172684, 10.001525, 9.997686 
1.8851498e+3, 3.0464897e+2, 178469.94, -138304.56, 41665.094, 0.17583402, -0.9168337, 183858.45, 183858.45, 0.0010390888, 10.002162, 9.998006 
1.8851586e+3, 3.1464675e+2, 423254.38, 170680.53, 9815.559, 0.043902256, -0.9767442, 423635.25, 423635.25, 0.0018470647, 10.002999, 9.999723 
1.8949513e+3, 1.24657355e+2, -1830257.6, -1693813.1, 58084.47, -0.13135153, -0.5131271, -1672435.8, 45852.57, 0.16258536, 9.998816, 10.000754 
1.8949606e+3, 1.3465115e+2, -2070963.3, -2099016.3, -97518.6, -0.14830269, -0.94409883, -1986467.5, -366109.78, 0.110513955, 9.997998, 9.997648 
1.8949711e+3, 1.4465517e+2, -1753411.3, -1586754.3, 31321.35, -0.16243759, -0.4250904, -1581062.1, -58739.3, 0.06108175, 9.998193, 10.000391 
1.8949863e+3, 1.546552e+2, -1452799.1, -1352126.6, 97415.05, -0.014482397, -0.5116437, -1292811.5, 131510.45, 0.024752133, 9.99942, 10.0007515 
1.8949993e+3, 1.6465503e+2, -1337271.1, -1390081.1, 14220.666, 0.01409109, -0.5325538, -1333685.3, -7363.668, 0.0060684755, 10.000145, 9.999456 
1.8950096e+3, 1.7465462e+2, -1205946.9, -1270398.1, -3892.0305, -0.112023875, -0.5396938, -1205712.6, 22609.59, 0.0005270964, 10.000354, 9.999505 
1.8950208e+3, 1.8465327e+2, -1198224.1, -1282106.1, -11410.219, -0.14342645, -0.58807653, -1196699.6, -66366.13, 0.0000013718216, 10.000023, 9.998907 
1.8950333e+3, 1.9465117e+2, -1233379.1, -1240244.3, 2514.0923, -0.061888028, -0.7124313, -1232556.9, -200202.44, 0.0, 9.999078, 9.998973 
1.8950458e+3, 2.0464996e+2, -1040242.25, -1000941.1, 37537.7, -0.014937047, -0.76676214, -978221.6, -43856.684, 0.0, 9.9993105, 9.999841 
1.8950582e+3, 2.1464996e+2, -703834.25, -769717.44, 75045.08, -0.013091458, -0.77565795, -654819.06, 181542.34, 0.0, 10.000882, 9.999992 
1.8950687e+3, 2.2464961e+2, -687624.75, -881722.25, -47989.93, -0.047097597, -0.7303745, -676407.6, 61957.355, 0.0, 10.001054, 9.9984665 
1.8950772e+3, 2.3464899e+2, -790905.0, -876397.7, -95423.914, -0.13029757, -0.65736043, -729090.5, -88715.51, 0.0, 9.9996605, 9.998496 
1.8950874e+3, 2.4464822e+2, -566193.6, -552278.4, -20192.125, -0.16166446, -0.64919794, -537878.8, 4503.0005, 0.0, 9.999796, 9.999995 
1.8950993e+3, 2.546474e+2, -185753.03, -303876.94, 52984.133, -0.12433036, -0.76198006, -165469.97, 278913.97, 0.0, 10.001685, 10.000115 
1.8951105e+3, 2.6464635e+2, -112979.54, -421084.25, -5311.6484, -0.07481424, -0.7797784, -112888.0, 233502.86, 0.0000000071100716, 10.002383, 9.998302 
1.8951203e+3, 2.7464536e+2, -103816.16, -351886.2, -50294.86, -0.06137038, -0.7346624, -94007.016, 154393.52, 0.0000064261117, 10.001732, 9.998406 
1.8951298e+3, 2.846438e+2, 17555.137, -129932.4, -49283.887, -0.082762845, -0.77702737, 32507.73, 182918.3, 0.00008727804, 10.001377, 9.999441 
1.89514e+3, 2.9464135e+2, 115785.445, -30151.8, 19443.238, -0.030644415, -1.0001577, 118331.45, 170754.7, 0.00038336485, 10.00137, 9.999456 
1.8951502e+3, 3.0463904e+2, 69821.06, -313669.22, 73531.695, -0.012331856, -1.0375717, 83436.85, 83436.85, 0.0009603228, 10.001971, 9.996881 
1.8951598e+3, 3.1463644e+2, 203405.34, -171395.9, 35861.535, -0.16081083, -1.0183483, 206805.78, 206805.78, 0.0017271978, 10.00257, 9.997556 
1.9049506e+3, 1.2464482e+2, -1742430.3, -1657343.9, -108513.02, -0.11273768, -0.54919696, -1583332.4, 135077.45, 0.1713416, 9.999463, 10.000774 
1.9049592e+3, 1.3463883e+2, -1796897.8, -1849808.8, -78878.31, -0.14760305, -1.0563977, -1740156.6, -119683.67, 0.11689223, 9.99939, 9.998679 
1.9049704e+3, 1.446438e+2, -1596285.8, -1547782.9, 159059.19, -0.10199306, -0.4817197, -1411137.0, 111290.445, 0.06499328, 9.999432, 10.0000925 
1.9049853e+3, 1.5464343e+2, -1474200.3, -1403994.0, 125860.914, -0.050604735, -0.57385874, -1308432.8, 116000.02, 0.026617203, 9.999441, 10.000385 
1.9049984e+3, 1.6464302e+2, -1468552.1, -1480304.5, 2246.0317, -0.043258157, -0.58900076, -1468137.5, -141700.36, 0.0066676727, 9.999357, 9.999218 
1.9050094e+3, 1.7464274e+2, -1348699.9, -1360791.4, 1193.9221, -0.09760451, -0.5600147, -1348583.1, -120144.46, 0.0006122247, 9.999473, 9.999302 
1.9050217e+3, 1.8464178e+2, -1160011.5, -1226273.6, 22419.066, -0.059720602, -0.57717013, -1153139.1, -22691.91, 0.0000017786746, 10.000131, 9.999235 
1.905035e+3, 1.9464026e+2, -856563.8, -1020837.8, 40064.79, 0.07757428, -0.6775254, -847313.3, 185148.31, 0.0, 10.001507, 9.999308 
1.9050471e+3, 2.0463943e+2, -751353.1, -847306.06, 47008.71, 0.094244234, -0.7141501, -732161.44, 202306.66, 0.0, 10.001249, 9.999951 
1.9050579e+3, 2.1463953e+2, -952387.8, -881894.4, 18378.994, -0.03533261, -0.7239732, -877390.44, -40926.164, 0.0, 9.999146, 10.000054 
1.9050682e+3, 2.2463897e+2, -974165.8, -993208.4, -47138.633, -0.10701888, -0.71395695, -935596.5, -197127.67, 0.0, 9.998967, 9.99871 
1.9050777e+3, 2.3463787e+2, -574484.94, -748616.56, 15050.895, -0.1241427, -0.712585, -573193.6, 67287.016, 0.0, 10.001032, 9.99872 
1.9050884e+3, 2.446371e+2, -338105.56, -459347.63, 96603.76, -0.12710707, -0.7077888, -284677.5, 257809.34, 0.0, 10.001455, 9.999824 
1.9051e+3, 2.5463665e+2, -430991.34, -438321.16, 11476.64, -0.119503826, -0.765886, -422608.63, 21878.387, 0.0, 10.00008, 9.999953 
1.9051115e+3, 2.6463577e+2, -470057.44, -584296.4, -57448.33, -0.06841237, -0.76529646, -446164.9, -99671.12, 0.000000016068412, 9.999897, 9.998372 
1.9051223e+3, 2.746348e+2, -179637.53, -388324.88, -20080.313, -0.0148656955, -0.7221193, -177722.94, 70781.2, 0.000006012962, 10.001184, 9.998429 
1.905132e+3, 2.8463313e+2, 57408.59, -138168.97, -38991.797, -0.020660415, -0.7639553, 64895.668, 215411.86, 0.000076659555, 10.001778, 9.999189 
1.9051419e+3, 2.9463053e+2, 158358.98, -31395.902, -148286.31, 0.004411465, -0.9794886, 239522.89, 292054.3, 0.00034009607, 10.001768, 9.9992485 
1.9051518e+3, 3.046281e+2, 85277.7, -268058.72, -76525.85, -0.042386893, -1.0325767, 101139.65, 101139.65, 0.0008709652, 10.001912, 9.99723 
1.9051625e+3, 3.1462628e+2, 113941.78, -236493.83, -50628.633, -0.09891198, -0.9701676, 121109.664, 121109.664, 0.001601994, 10.0020075, 9.9973955 
1.9149487e+3, 1.2462885e+2, -1658309.4, -1467757.5, -169923.98, -0.2902427, -0.73883075, -1368221.5, 350348.1, 0.18042894, 9.999353, 10.002378 
1.9149607e+3, 1.3462819e+2, -1565255.3, -1379967.5, -61778.555, 0.055099644, -1.0557184, -1361258.5, 259310.16, 0.12358676, 9.999371, 10.002138 
1.9149727e+3, 1.4463487e+2, -1675953.5, -1728809.0, 158892.27, 0.14190349, -0.42994082, -1541306.1, -18804.434, 0.069141634, 9.999484, 9.9987955 
1.914983e+3, 1.5463068e+2, -1585112.9, -1626285.1, 130462.69, -0.24533765, -0.7508198, -1473622.1, -49074.25, 0.028615344, 9.999405, 9.998864 
1.9149949e+3, 1.6462834e+2, -1464147.0, -1471930.9, -1132.2836, -0.3616526, -0.88377655, -1463985.6, -137411.48, 0.0073205116, 9.999361, 9.999271 
1.9150087e+3, 1.7462854e+2, -1343236.1, -1347721.8, 10021.959, -0.13809876, -0.8192563, -1335209.1, -106635.69, 0.00070924795, 9.999466, 9.999393 
1.9150227e+3, 1.8462905e+2, -1122751.9, -1152398.0, 68452.59, 0.018100789, -0.7163812, -1067535.8, 63033.586, 0.0000023137907, 10.000141, 9.999741 
1.9150366e+3, 1.946301e+2, -826219.3, -947617.5, 97658.91, 0.08528597, -0.6101433, -771933.0, 260627.33, 0.0, 10.00146, 9.999836 
1.9150479e+3, 2.0463042e+2, -802479.6, -945511.1, -31435.3, 0.034768, -0.5292567, -795875.7, 138683.08, 0.0, 10.001208, 9.999299 
1.915056e+3, 2.1463011e+2, -1008577.7, -985770.25, -55620.44, -0.14152038, -0.5113184, -940396.5, -103832.52, 0.0, 9.999088, 9.999369 
1.9150664e+3, 2.2462918e+2, -863682.75, -744728.56, 22521.277, -0.17983773, -0.5874215, -740607.44, -2038.684, 0.0, 9.998882, 10.000458 
1.9150794e+3, 2.3462768e+2, -462519.8, -488371.22, 100424.234, -0.06542171, -0.8085114, -374192.84, 266378.47, 0.0, 10.000917, 10.000563 
1.9150911e+3, 2.4462627e+2, -490527.84, -750842.75, 44328.105, -0.012893465, -0.869688, -483186.44, 59395.51, 0.0, 10.001343, 9.997877 
1.9151013e+3, 2.546251e+2, -590204.44, -744300.75, -33473.434, -0.025941858, -0.79100233, -583247.3, -138647.23, 0.0, 9.999983, 9.997895 
1.9151118e+3, 2.6462433e+2, -390484.63, -408491.2, -19584.514, -0.049315628, -0.7367902, -377933.06, -31323.807, 0.000000038925435, 9.999842, 9.999612 
1.9151224e+3, 2.7462402e+2, -102936.85, -203505.92, 34911.207, -0.11605119, -0.76087445, -92005.98, 156601.3, 0.000005437274, 10.001078, 9.999749 
1.9151331e+3, 2.8462234e+2, -116257.5, -478769.4, -46239.77, -0.104837954, -0.7561176, -110452.4, 40169.29, 0.00006527873, 10.001686, 9.996897 
1.9151443e+3, 2.9461905e+2, -31212.703, -390354.44, -133478.78, 0.064341076, -0.7996729, 12962.45, 65618.32, 0.00029241332, 10.001624, 9.996853 
1.9151543e+3, 3.0461624e+2, 199525.58, -6660.7085, -78329.6, -0.004057508, -0.86453426, 225907.23, 225907.23, 0.0007691183, 10.001803, 9.999074 
1.9151641e+3, 3.146189e+2, 194608.31, 18599.799, -1414.0413, -0.15006867, -0.5554636, 194619.67, 194619.67, 0.0014565451, 10.001661, 9.999298 
1.924948e+3, 1.2461641e+2, -1749379.6, -1552678.9, -57794.96, -0.24301712, -0.7545857, -1536954.4, 181739.13, 0.18987963, 9.998806, 10.001953 
1.9249606e+3, 1.346167e+2, -1427919.1, -1272842.0, -121773.41, 0.052653443, -1.0164626, -1206016.5, 414665.38, 0.13060497, 10.000234, 10.002595 
1.9249722e+3, 1.4462337e+2, -1510725.5, -1626729.5, -11378.435, 0.10464853, -0.42404357, -1509620.0, 12993.633, 0.07352615, 10.000541, 9.998985 
1.9249825e+3, 1.5461893e+2, -1557052.3, -1594495.3, 70264.984, -0.22948462, -0.7851971, -1503057.5, -78396.39, 0.030745408, 9.999526, 9.99902 
1.9249944e+3, 1.6461657e+2, -1478991.5, -1447599.3, 51507.234, -0.32263026, -0.9406791, -1409449.6, -82762.945, 0.008026891, 9.999142, 9.999536 
1.9250084e+3, 1.7461711e+2, -1306329.0, -1300266.4, 62882.867, -0.124984406, -0.8688019, -1240341.8, -11659.458, 0.0008187495, 9.999601, 9.999653 
1.9250225e+3, 1.8461795e+2, -1211730.5, -1168041.8, 126664.125, 0.025086863, -0.7603838, -1061352.1, 69322.74, 0.0000031359323, 9.999413, 9.9999895 
1.9250368e+3, 1.9461916e+2, -1226658.8, -1113085.0, 128673.52, 0.09986862, -0.65981704, -1029224.75, 3438.6519, 0.0, 9.998587, 10.000088 
1.9250482e+3, 2.0461957e+2, -1134222.3, -1145783.6, 1349.989, 0.05655379, -0.5678353, -1134066.6, -199404.56, 0.0, 9.9991045, 9.9989395 
1.9250564e+3, 2.1461928e+2, -720307.44, -890749.8, -13615.768, -0.11968931, -0.5103366, -719226.56, 117443.65, 0.0, 10.001261, 9.998975 
1.925067e+3, 2.2461823e+2, -470600.47, -564165.44, 23831.996, -0.14802344, -0.573973, -464879.94, 273797.5, 0.0, 10.001626, 10.000377 
1.9250803e+3, 2.3461631e+2, -614794.2, -569932.4, -52922.61, -0.02128959, -0.8299866, -534883.3, 105800.266, 0.0, 9.999904, 10.000493 
1.9250919e+3, 2.4461477e+2, -721871.2, -849609.75, -96324.125, 0.026491424, -0.90567863, -670165.3, -127470.71, 0.0, 9.999697, 9.997994 
1.9251019e+3, 2.54614e+2, -381771.94, -636945.0, -22679.363, -0.018063271, -0.7968813, -379771.9, 64935.934, 0.0, 10.001364, 9.997981 
1.9251126e+3, 2.6461315e+2, -104766.89, -303079.56, 39411.12, -0.05117052, -0.73496217, -97221.7, 249495.84, 0.000000047147957, 10.001952, 9.999318 
1.9251236e+3, 2.7461228e+2, -82016.805, -222702.75, -45847.855, -0.108826905, -0.7904198, -68394.55, 180328.78, 0.0000043683804, 10.001353, 9.999483 
1.925135e+3, 2.8461066e+2, -180779.4, -521085.94, -95571.78, -0.065433756, -0.7603646, -155776.06, -5037.3594, 0.000052619915, 10.00131, 9.9967785 
1.9251469e+3, 2.9460856e+2, 21507.598, -382293.25, -33960.33, 0.13749838, -0.66990036, 24343.797, 77106.17, 0.00024219825, 10.002056, 9.996698 
1.9251567e+3, 3.0460495e+2, 195944.27, -62639.83, 15823.093, 0.063459985, -0.7813047, 196908.9, 196908.9, 0.0006583253, 10.002004, 9.998598 
1.9251667e+3, 3.146068e+2, 108545.76, -66293.44, -77831.51, -0.033495508, -0.5060822, 138172.86, 138172.86, 0.0012843859, 10.001197, 9.99897 
1.9349486e+3, 1.2460734e+2, -1910428.5, -1863271.0, -66946.63, -0.096145295, -0.61364436, -1815872.3, -97089.445, 0.1997211, 9.998845, 9.999532 
1.934958e+3, 1.3460444e+2, -1597310.5, -1609723.1, -71119.33, -0.23500608, -0.9287382, -1532127.1, 88684.36, 0.13795441, 10.000176, 9.999998 
1.9349688e+3, 1.4460948e+2, -1405215.6, -1392906.6, -45264.7, -0.3035663, -0.44870585, -1353379.9, 169381.56, 0.07814733, 10.000509, 10.000679 
1.9349839e+3, 1.5460828e+2, -1432434.1, -1338856.9, 38653.453, -0.061179835, -0.66792685, -1324955.6, 99815.63, 0.033007, 9.999527, 10.000796 
1.9349971e+3, 1.6460776e+2, -1441423.4, -1375712.5, 60263.766, 0.013270202, -0.75398356, -1339929.8, -13155.387, 0.008786739, 9.999164, 10.000021 
1.9350083e+3, 1.7460844e+2, -1278851.3, -1241251.5, 84318.32, -0.10233036, -0.7078689, -1173662.6, 55103.156, 0.00094156526, 9.99959, 10.000066 
1.9350208e+3, 1.8460836e+2, -1212878.9, -1169614.6, 94138.445, -0.092378035, -0.71277136, -1094654.9, 36109.773, 0.0000044945964, 9.999409, 9.999979 
1.9350351e+3, 1.946075e+2, -1231037.6, -1115894.8, 103452.21, 0.066698596, -0.82164186, -1055073.5, -22302.838, 0.0, 9.998563, 10.000077 
1.9350478e+3, 2.0460692e+2, -1145551.9, -1165992.3, 73638.37, 0.09884987, -0.8198143, -1081427.9, -146650.03, 0.0, 9.999084, 9.998815 
1.9350587e+3, 2.1460697e+2, -741816.06, -917803.9, 73730.55, -0.021673271, -0.71449935, -715009.6, 121773.92, 0.0, 10.00118, 9.998831 
1.9350694e+3, 2.2460586e+2, -621778.9, -850230.1, -39003.676, -0.07422404, -0.6819734, -615303.3, 123493.64, 0.0, 10.001509, 9.9984665 
1.9350798e+3, 2.3460364e+2, -766820.3, -859253.3, -110272.555, -0.048547767, -0.7744742, -693470.94, -52653.195, 0.0, 9.999799, 9.99855 
1.9350909e+3, 2.4460264e+2, -585635.94, -551795.4, -44388.82, -0.069284424, -0.79574984, -521211.3, 21612.395, 0.0, 9.999625, 10.000078 
1.9351022e+3, 2.5460324e+2, -239599.42, -316848.72, 46155.4, -0.14545281, -0.77404904, -218039.48, 226771.4, 0.0, 10.001262, 10.000228 
1.9351138e+3, 2.6460227e+2, -248594.88, -573760.1, 12917.197, -0.1387797, -0.7580343, -248082.55, 98737.07, 0.00000001782158, 10.001834, 9.997515 
1.9351257e+3, 2.7459952e+2, -239291.38, -511669.47, -59846.47, -0.05547427, -0.8008553, -226722.03, 22130.287, 0.0000032439186, 10.00121, 9.997559 
1.9351374e+3, 2.8459826e+2, -55203.027, -251878.05, -82346.95, 0.025465725, -0.731591, -25277.969, 125587.17, 0.000042492127, 10.001254, 9.998662 
1.935149e+3, 2.9459885e+2, 147215.13, -97220.58, -900.3052, 0.13657811, -0.5748454, 147218.44, 200071.77, 0.00020128557, 10.001954, 9.998708 
1.9351591e+3, 3.045943e+2, -17687.281, -474205.75, -24890.1, 0.07065145, -0.7485596, -16334.245, -16334.245, 0.00056116504, 10.001869, 9.995834 
1.9351684e+3, 3.145886e+2, -95667.32, -404702.3, -26689.098, -0.014256235, -0.94468033, -93379.32, -93379.32, 0.0011166048, 10.000881, 9.996773 
1.9449496e+3, 1.2459887e+2, -1630063.6, -1807723.9, 33705.465, -0.009315391, -0.53000003, -1623884.0, 94980.36, 0.20999403, 10.001322, 9.99872 
1.9449583e+3, 1.345939e+2, -1707633.5, -1817453.1, 101060.32, -0.2206635, -0.9150565, -1647529.1, -26612.418, 0.14565058, 10.000036, 9.99859 
1.9449681e+3, 1.445974e+2, -1535072.3, -1465338.4, 109466.71, -0.37195915, -0.513232, -1385319.9, 137563.78, 0.083007626, 9.999607, 10.000604 
1.9449839e+3, 1.5459739e+2, -1344062.6, -1294691.6, 50040.332, -0.03801002, -0.6142578, -1263579.1, 161303.31, 0.03539992, 10.000137, 10.000818 
1.9449973e+3, 1.6459762e+2, -1263888.1, -1258810.1, 20343.713, 0.06586985, -0.64282036, -1240847.6, 86030.0, 0.009600047, 10.000235, 10.0003195 
1.945008e+3, 1.7459835e+2, -1185638.3, -1160444.0, 30558.857, -0.10868983, -0.6207804, -1139987.6, 88878.22, 0.0010784023, 10.000062, 10.000397 
1.9450201e+3, 1.8459783e+2, -1133663.4, -1144093.0, 23007.34, -0.12893756, -0.6809838, -1115287.3, 15579.979, 0.0000066792873, 10.000014, 9.999854 
1.9450341e+3, 1.9459596e+2, -1010550.0, -1027388.0, 9987.242, 0.021908617, -0.8755507, -1005906.7, 26976.115, 0.0, 10.000162, 9.9999075 
1.9450474e+3, 2.0459518e+2, -977346.56, -1036257.8, 45884.613, 0.09782057, -0.9051952, -952276.7, -17385.748, 0.0, 10.000037, 9.999239 
1.94506e+3, 2.1459585e+2, -934921.4, -962198.2, 80397.875, 0.07410072, -0.78062785, -867013.3, -30124.32, 0.0, 9.999646, 9.999261 
1.9450709e+3, 2.2459531e+2, -868202.2, -1010065.1, 17288.146, 0.009767817, -0.69840187, -866125.75, -127227.6, 0.0, 9.999991, 9.9980955 
1.9450799e+3, 2.3459356e+2, -587365.3, -819700.1, 49468.72, -0.10306962, -0.7026059, -577271.0, 63647.3, 0.0, 10.001228, 9.998136 
1.9450906e+3, 2.4459247e+2, -330679.88, -445383.53, 129473.94, -0.14502117, -0.70327145, -246424.03, 296502.03, 0.0, 10.001461, 9.999924 
1.9451033e+3, 2.5459215e+2, -344034.2, -386929.63, 29522.15, -0.12176812, -0.7585108, -328991.34, 115928.164, 0.0, 10.000626, 10.000054 
1.9451158e+3, 2.6459035e+2, -481370.03, -766987.75, -54710.12, -0.05273453, -0.7782161, -471248.94, -124313.36, 0.000000002142629, 10.000583, 9.996789 
1.945128e+3, 2.7458718e+2, -245568.86, -607209.3, -55663.902, 0.050630953, -0.7889334, -237194.94, 11780.293, 0.0000029419668, 10.001542, 9.996754 
1.9451398e+3, 2.8458542e+2, 81013.55, -175329.81, -69224.32, 0.097823545, -0.7298419, 98512.68, 249506.73, 0.000037529444, 10.0021515, 9.998755 
1.945151e+3, 2.9458565e+2, 231786.78, -34569.813, -147915.72, 0.105325826, -0.6210782, 297644.97, 350630.22, 0.00017698373, 10.002434, 9.998912 
1.9451617e+3, 3.045819e+2, 134988.28, -356763.28, -142695.02, 0.10296554, -0.746994, 173395.4, 173395.4, 0.00049046276, 10.002728, 9.996223 
1.9451693e+3, 3.1457618e+2, 277356.5, -170183.98, 84769.336, -0.102111615, -0.9706747, 292874.72, 292874.72, 0.0009707168, 10.003157, 9.997304 
1.9549501e+3, 1.2459149e+2, -1575508.8, -1679906.1, 11755.187, -0.13044225, -0.45777798, -1574201.5, 144731.89, 0.22070916, 10.001351, 9.999651 
1.9549611e+3, 1.3458501e+2, -1719305.3, -1850537.8, 57892.645, 0.048259884, -0.9819822, -1697416.9, -76419.19, 0.15369554, 10.000063, 9.998355 
1.95497e+3, 1.4458703e+2, -1650595.1, -1715336.1, 127651.18, -0.16054605, -0.6284151, -1551274.0, -28292.783, 0.08810495, 9.999647, 9.998813 
1.9549824e+3, 1.5458614e+2, -1468935.5, -1553042.4, 75492.47, -0.21698807, -0.6340725, -1424573.6, 422.19598, 0.037922986, 10.000125, 9.999021 
1.9549948e+3, 1.6458602e+2, -1255193.0, -1240128.1, 9513.643, -0.23454364, -0.6081693, -1235526.1, 91471.016, 0.010466628, 10.000234, 10.000448 
1.9550073e+3, 1.7458683e+2, -1170437.1, -1131298.0, 27675.34, -0.19260113, -0.60431695, -1116972.3, 112010.3, 0.0012294218, 10.00007, 10.000593 
1.9550203e+3, 1.8458632e+2, -1150735.1, -1181705.0, 25050.707, -0.1402056, -0.6618319, -1136769.8, -5786.141, 0.000009908067, 10.000025, 9.99959 
1.9550334e+3, 1.9458449e+2, -1033210.94, -1071907.8, 21996.273, -0.078506865, -0.82139343, -1023264.3, 9736.093, 0.0, 10.000148, 9.999612 
1.9550467e+3, 2.0458417e+2, -922849.3, -907783.25, 26958.154, 0.003630889, -0.83279526, -887325.4, 47677.805, 0.0, 9.999975, 10.00015 
1.9550602e+3, 2.1458581e+2, -877367.25, -820947.2, 71955.555, 0.11643543, -0.7095871, -771869.4, 65118.34, 0.0, 9.999558, 10.000271 
1.9550714e+3, 2.2458638e+2, -803124.4, -853183.94, 58705.26, 0.04655001, -0.62414896, -764335.7, -25353.172, 0.0, 9.999894, 9.999222 
1.9550797e+3, 2.3458597e+2, -527140.2, -664880.9, 101402.94, -0.23881724, -0.60621226, -473431.25, 167555.2, 0.0, 10.00111, 9.999251 
1.9550908e+3, 2.4458413e+2, -514475.94, -800682.7, 95023.875, -0.27293175, -0.62732923, -485800.06, 57203.043, 0.0, 10.001346, 9.997539 
1.955105e+3, 2.545807e+2, -535289.25, -760114.9, 5595.5176, -0.008182705, -0.7384412, -535150.06, -90116.68, 0.0, 10.000535, 9.997529 
1.9551186e+3, 2.6457772e+2, -472267.56, -737196.56, -26941.621, 0.14540106, -0.7600161, -469555.53, -122492.53, 0.00000003752054, 10.000524, 9.997028 
1.9551305e+3, 2.7457517e+2, -232066.7, -561514.8, -10773.213, 0.14203899, -0.74166346, -231714.78, 17377.713, 0.0000033154865, 10.001468, 9.997103 
1.9551417e+3, 2.8457215e+2, -55757.004, -434614.38, -66014.37, 0.072135665, -0.74513096, -44583.785, 106541.5, 0.00003554113, 10.002043, 9.997028 
1.9551522e+3, 2.9456928e+2, 91513.055, -284071.3, -123636.0, -0.01670521, -0.7686242, 128558.07, 181712.45, 0.00016173386, 10.002268, 9.997272 
1.9551644e+3, 3.0456802e+2, 344622.13, 104260.27, -138281.19, 0.07903802, -0.7245264, 407649.13, 407649.13, 0.0004325806, 10.002603, 9.999459 
1.9551711e+3, 3.145684e+2, 437225.16, 238056.13, 92724.695, -0.27635315, -0.6736594, 473710.28, 473710.28, 0.0008294885, 10.002873, 10.000226 
1.9649497e+3, 1.245803e+2, -1992088.1, -1862597.0, -83519.45, -0.13694865, -0.51928514, -1821666.3, -102624.12, 0.23177752, 9.998111, 9.999884 
1.964962e+3, 1.3457534e+2, -1661460.8, -1789089.9, -90756.23, 0.13015185, -0.9194289, -1614329.4, 6763.3896, 0.1620495, 10.000345, 9.998636 
1.9649714e+3, 1.4457735e+2, -1538474.1, -1704253.3, 27979.729, -0.03519566, -0.55667007, -1533879.1, -10802.548, 0.093428105, 10.000621, 9.99841 
1.9649819e+3, 1.5457529e+2, -1634982.6, -1675717.9, 68801.234, -0.22975282, -0.643106, -1583597.6, -158495.0, 0.04057487, 9.999181, 9.998624 
1.9649936e+3, 1.6457455e+2, -1443690.0, -1322619.9, 100620.29, -0.28499493, -0.664385, -1265728.6, 61380.85, 0.011385711, 9.998906, 10.000519 
1.9650076e+3, 1.7457543e+2, -1173758.1, -1120645.3, 101777.195, -0.18052973, -0.66090316, -1042016.94, 187076.47, 0.0013940044, 10.00001, 10.000691 
1.9650206e+3, 1.8457526e+2, -1124999.9, -1193211.3, 79728.71, -0.106819615, -0.68132234, -1072388.4, 58703.363, 0.000014255441, 10.000297, 9.999387 
1.9650333e+3, 1.9457403e+2, -1118427.9, -1138243.9, 71392.18, -0.075695224, -0.75588614, -1056259.5, -23154.688, 0.0, 9.999672, 9.999388 
1.9650461e+3, 2.0457377e+2, -963885.0, -929580.6, 71158.78, -0.021489654, -0.75281185, -873536.0, 61571.355, 0.0, 9.999685, 10.000149 
1.9650596e+3, 2.145747e+2, -748663.3, -758337.06, 32235.51, 0.06029159, -0.70319664, -720903.8, 116192.82, 0.0, 10.000426, 10.00029 
1.9650714e+3, 2.2457509e+2, -674733.5, -768130.9, -32246.418, 0.014976049, -0.6451659, -664681.9, 74409.57, 0.0, 10.000676, 9.999433 
1.9650808e+3, 2.3457491e+2, -608054.9, -686783.56, -68099.17, -0.19949368, -0.61870044, -568761.44, 72330.74, 0.0, 10.000457, 9.999428 
1.9650926e+3, 2.445728e+2, -637839.5, -906203.3, -47128.547, -0.19918825, -0.65769565, -629803.6, -86691.875, 0.0, 10.000684, 9.997133 
1.9651067e+3, 2.5456867e+2, -433785.72, -763019.75, 2966.313, 0.054282736, -0.79794955, -433759.0, 11391.362, 0.0, 10.001445, 9.997074 
1.9651204e+3, 2.6456547e+2, -239852.67, -636393.56, 81219.78, 0.1877271, -0.81155336, -223862.02, 123321.01, 0.00000006167767, 10.00218, 9.996919 
1.9651327e+3, 2.7456322e+2, -26579.64, -475264.9, 48096.605, 0.13635714, -0.7496472, -21481.867, 227727.72, 0.000003603985, 10.002935, 9.996987 
1.9651438e+3, 2.845602e+2, -16427.615, -432269.94, -13838.579, 0.054788955, -0.7371699, -15967.598, 135275.27, 0.00003406456, 10.002388, 9.996877 
1.9651537e+3, 2.9455712e+2, -170009.98, -428324.6, 26660.396, -0.0012555615, -0.7649374, -167287.1, -114011.74, 0.0001486936, 10.000538, 9.997121 
1.9651668e+3, 3.0455592e+2, 79773.15, -5385.7646, 47266.68, 0.17020072, -0.71751565, 100810.9, 100810.9, 0.00038063264, 10.000725, 9.999606 
1.965173e+3, 3.1455687e+2, 378691.0, 168070.17, -82425.94, -0.33407566, -0.60534084, 407112.84, 407112.84, 0.00069814175, 10.002611, 9.999897 
1.9749482e+3, 1.24564864e+2, -2020540.6, -1922349.3, 63031.434, -0.11669194, -0.7587118, -1891549.0, -172354.38, 0.24301729, 9.998121, 9.999467 
1.9749609e+3, 1.3456477e+2, -1614653.1, -1686844.1, -14402.235, -0.029811334, -0.734455, -1611886.0, 9316.776, 0.17062773, 10.000328, 9.99935 
1.9749719e+3, 1.445685e+2, -1474324.4, -1561601.8, -27676.133, -0.06548748, -0.28816983, -1466288.0, 56880.98, 0.09895461, 10.000624, 9.999393 
1.9749822e+3, 1.5456477e+2, -1563612.5, -1534811.1, 19042.12, -0.124784656, -0.6380265, -1525337.5, -100134.36, 0.04335473, 9.999202, 9.999588 
1.9749942e+3, 1.6456306e+2, -1434188.3, -1309069.3, 131964.48, -0.14059816, -0.80933386, -1225586.6, 101628.96, 0.012356995, 9.998933, 10.000603 
1.9750082e+3, 1.7456403e+2, -1170882.4, -1115787.3, 148835.69, -0.11630675, -0.79683435, -991971.25, 237228.06, 0.0015709848, 10.000014, 10.000725 
1.9750214e+3, 1.845645e+2, -1137917.6, -1216978.9, 54930.51, -0.081122875, -0.7464067, -1109772.4, 21420.826, 0.000019593592, 10.000286, 9.999229 
1.9750334e+3, 1.9456449e+2, -1134976.9, -1162981.3, 54962.58, -0.030168535, -0.6846497, -1092260.9, -59063.863, 0.0, 9.999633, 9.999236 
1.9750457e+3, 2.0456381e+2, -1037597.5, -1067784.5, 95230.74, -0.04537926, -0.6701866, -956271.56, -21066.764, 0.0, 9.999625, 9.999227 
1.9750582e+3, 2.1456254e+2, -830967.4, -908098.4, 67498.45, -0.14135034, -0.74306846, -791794.0, 45421.004, 0.0, 10.000338, 9.999304 
1.9750705e+3, 2.245614e+2, -742409.4, -884664.7, -43021.543, -0.1444404, -0.75245434, -730410.7, 8814.568, 0.0, 10.00057, 9.998683 
1.975083e+3, 2.3456049e+2, -671554.56, -798075.8, -68523.37, -0.038252074, -0.7301224, -641555.56, -320.73935, 0.0, 10.000372, 9.998701 
1.9750954e+3, 2.4455863e+2, -548003.56, -702447.44, -23240.021, 0.016912041, -0.7715729, -544582.3, -1331.8175, 0.0, 10.000606, 9.998572 
1.9751078e+3, 2.545559e+2, -336806.25, -540943.56, 38482.09, 0.013898325, -0.9249077, -329792.9, 115478.195, 0.0, 10.00136, 9.998638 
1.9751209e+3, 2.6455337e+2, -293970.88, -719791.3, 102222.54, 0.007975125, -0.92957306, -270702.78, 76594.36, 0.000000055759365, 10.002056, 9.996405 
1.9751343e+3, 2.7455133e+2, -86503.53, -566076.25, 83246.09, -0.020463265, -0.7938149, -72464.336, 176862.11, 0.0000036492006, 10.002807, 9.996416 
1.9751456e+3, 2.8454983e+2, 60700.14, -260230.94, -90827.52, -0.017018687, -0.66063184, 84622.31, 235967.33, 0.00003270161, 10.002323, 9.998096 
1.975155e+3, 2.9454884e+2, -83316.58, -237018.52, -28225.469, 0.0712969, -0.6102438, -78297.23, -24945.295, 0.00013867494, 10.000488, 9.998459 
1.9751687e+3, 3.0454537e+2, -158463.81, -463781.9, 110870.89, 0.26991245, -0.7097613, -122450.82, -122450.82, 0.0003432824, 10.000585, 9.996521 
1.975178e+3, 3.1454203e+2, 108597.4, -316161.66, -101850.82, -0.13272898, -0.70702046, 131756.94, 131756.94, 0.00060457416, 10.002335, 9.996676 
1.9849482e+3, 1.24551274e+2, -1774664.9, -1849832.4, 156237.23, -0.03203443, -0.81996125, -1651554.5, 67775.06, 0.25424254, 10.000103, 9.999074 
1.9849595e+3, 1.3455297e+2, -1643227.1, -1617755.5, 12704.468, -0.17222576, -0.6876208, -1612502.4, 8819.544, 0.17932345, 9.999756, 10.00011 
1.984972e+3, 1.4455673e+2, -1570301.8, -1519776.5, -35870.89, -0.04781188, -0.31754246, -1501165.3, 22121.283, 0.104643695, 9.999529, 10.000223 
1.9849825e+3, 1.5455414e+2, -1382050.0, -1354499.5, -9632.606, -0.06542478, -0.634024, -1351465.8, 73839.41, 0.046255346, 10.00007, 10.0004225 
1.9849944e+3, 1.6455263e+2, -1313216.6, -1319031.5, 105487.65, -0.071480766, -0.80244184, -1210596.4, 116718.625, 0.013380272, 10.000067, 9.999981 
1.9850083e+3, 1.7455268e+2, -1310527.9, -1261741.1, 58518.61, -0.08215903, -0.814538, -1222735.3, 6576.493, 0.0017591557, 9.999394, 10.000018 
1.9850212e+3, 1.8455295e+2, -1266255.9, -1270441.1, -50803.42, -0.07603594, -0.7485769, -1217502.0, -86193.21, 0.0000256483, 9.999362, 9.999307 
1.9850332e+3, 1.9455357e+2, -1047119.25, -1108376.5, -40377.203, -0.057076283, -0.6372053, -1027068.1, 6237.232, 0.0, 10.000174, 9.999351 
1.9850452e+3, 2.0455274e+2, -959136.4, -1064743.4, 41987.406, -0.09378119, -0.62960887, -944477.7, -9163.926, 0.0, 10.000316, 9.998913 
1.9850574e+3, 2.1455035e+2, -940643.44, -999766.75, 50149.555, -0.20189184, -0.78016466, -911991.1, -74656.83, 0.0, 9.999751, 9.998956 
1.9850707e+3, 2.245484e+2, -843814.56, -969712.5, 7926.9355, -0.15854947, -0.8350624, -843317.44, -103965.58, 0.0, 10.000029, 9.998361 
1.9850849e+3, 2.3454714e+2, -558845.44, -775953.9, 3491.0015, 0.062787026, -0.8175195, -558789.3, 82575.54, 0.0, 10.001293, 9.9984045 
1.9850977e+3, 2.4454577e+2, -359854.28, -579918.8, 21422.475, 0.11783655, -0.8079137, -357788.28, 185588.67, 0.0, 10.001782, 9.998838 
1.9851087e+3, 2.5454435e+2, -303968.16, -494795.0, -21714.943, -0.04206687, -0.8578988, -301528.34, 143859.4, 0.0, 10.001458, 9.998909 
1.9851215e+3, 2.6454252e+2, -338302.88, -673148.9, 55145.906, -0.10537535, -0.8357613, -329454.7, 17953.059, 0.00000004684117, 10.001455, 9.997017 
1.985136e+3, 2.745406e+2, -195670.1, -556661.6, 105405.06, -0.06483427, -0.7441763, -167146.84, 82287.43, 0.000003631824, 10.001774, 9.996987 
1.985148e+3, 2.8453922e+2, 63676.08, -259849.3, -86115.805, 0.0062898383, -0.6236722, 85170.31, 236621.31, 0.000030883682, 10.002365, 9.99807 
1.9851573e+3, 2.9453814e+2, 328759.2, -50144.547, -142205.05, 0.10586663, -0.5735127, 376191.88, 429651.4, 0.00012816787, 10.003382, 9.998345 
1.9851695e+3, 3.045349e+2, 255148.52, -287178.47, 81160.914, 0.15329103, -0.632827, 267034.03, 267034.03, 0.00031299857, 10.003502, 9.996334 
1.9851817e+3, 3.1453112e+2, 121851.95, -310345.75, -11620.582, 0.02582239, -0.6545788, 122164.17, 122164.17, 0.0005436533, 10.002378, 9.996715 
1.9949491e+3, 1.24539346e+2, -1791578.6, -1893049.4, 152325.22, 0.013554752, -0.7234641, -1681761.8, 37686.8, 0.26535824, 10.000108, 9.998743 
1.9949576e+3, 1.3453987e+2, -1592435.3, -1524891.4, -6751.4063, -0.35307753, -0.78030336, -1524223.1, 97227.16, 0.18805622, 9.99977, 10.000885 
1.994972e+3, 1.4454195e+2, -1515142.4, -1423137.1, -24186.176, -0.036371216, -0.65368485, -1417166.5, 106263.5, 0.11045076, 9.999563, 10.000942 
1.9949822e+3, 1.5454333e+2, -1336514.0, -1261168.4, 15577.218, -0.10606153, -0.6397508, -1258074.9, 167334.58, 0.04926506, 10.000073, 10.001098 
1.994994e+3, 1.6454308e+2, -1405119.4, -1509981.8, 78219.33, -0.13582139, -0.6534463, -1363384.3, -35974.844, 0.014456319, 10.000064, 9.998667 
1.9950074e+3, 1.745412e+2, -1412273.3, -1473367.4, 35837.246, -0.12270002, -0.71570104, -1395730.8, -166299.1, 0.0019582892, 9.999391, 9.9985695 
1.99502e+3, 1.8454044e+2, -1244789.3, -1225331.0, -26695.246, -0.1425776, -0.69170576, -1206647.3, -75207.25, 0.000032105352, 9.999362, 9.999616 
1.9950318e+3, 1.9454114e+2, -1024166.75, -1050771.0, -5321.5986, -0.1995443, -0.61038405, -1023141.8, 10289.126, 0.0, 10.000137, 9.999762 
1.9950445e+3, 2.0454033e+2, -944478.0, -1025521.94, 17315.004, -0.21324806, -0.63608736, -940933.6, -5497.5845, 0.0, 10.000274, 9.999205 
1.9950576e+3, 2.145379e+2, -930139.2, -963174.75, 34936.387, -0.17448421, -0.8174712, -908012.6, -70556.26, 0.0, 9.999686, 9.999239 
1.9950715e+3, 2.24536e+2, -845596.8, -957989.0, 52131.18, -0.09016978, -0.89057493, -825140.06, -85667.375, 0.0, 9.99996, 9.998473 
1.995086e+3, 2.3453479e+2, -564794.25, -767141.6, 61132.86, 0.05311647, -0.8785433, -547759.06, 93724.24, 0.0, 10.001201, 9.998508 
1.9950987e+3, 2.4453399e+2, -447416.22, -729475.06, 7701.059, 0.039007492, -0.77421194, -447206.13, 96287.27, 0.0, 10.001644, 9.997877 
1.995109e+3, 2.5453386e+2, -386031.66, -642603.2, -26700.904, -0.16490205, -0.59754384, -383282.4, 62218.68, 0.0, 10.001368, 9.997932 
1.995122e+3, 2.6453283e+2, -242240.45, -452104.75, 61892.742, -0.21046558, -0.51910084, -225347.03, 122167.83, 0.000000042002604, 10.001363, 9.998581 
1.995138e+3, 2.7453083e+2, -95357.01, -318642.1, 125185.8, -0.06165641, -0.60359955, -39263.027, 210271.86, 0.0000035134383, 10.0016575, 9.9986725 
1.995151e+3, 2.8452823e+2, -52685.926, -470211.38, -58450.355, 0.040085997, -0.63065195, -44657.69, 106905.02, 0.00002820436, 10.002227, 9.996693 
1.9951601e+3, 2.9452506e+2, 205426.08, -282087.4, -92121.06, 0.036132112, -0.64316875, 222252.6, 275850.4, 0.00011358975, 10.003277, 9.996799 
1.9951692e+3, 3.045247e+2, 384008.5, 29915.256, 34494.676, -0.23441365, -0.44796538, 387337.56, 387337.56, 0.00027749003, 10.003302, 9.998602 
1.9951837e+3, 3.1452402e+2, 289588.06, 101166.26, -27445.402, -0.04974239, -0.4219217, 293504.34, 293504.34, 0.0004881666, 10.00214, 9.999637 
2.0049483e+3, 1.2452872e+2, -2135389.8, -2028609.6, 201450.14, 0.050649505, -0.56292444, -1873594.6, -154034.75, 0.27641812, 9.997547, 9.999016 
2.004956e+3, 1.3452959e+2, -1817674.1, -1540844.3, 32692.617, -0.38713703, -0.6642441, -1537035.8, 84518.07, 0.1968332, 9.997774, 10.001719 
2.0049715e+3, 1.4453024e+2, -1720597.6, -1512592.6, 28763.93, 0.05132476, -0.72915035, -1508688.3, 14857.312, 0.11636926, 9.998152, 10.000932 
2.0049816e+3, 1.5453227e+2, -1515684.1, -1364477.1, 8015.5977, -0.11623545, -0.63598746, -1364053.4, 61465.977, 0.05238356, 9.998882, 10.000936 
2.0049933e+3, 1.6453232e+2, -1460789.5, -1568853.3, 70821.04, -0.19075435, -0.59903413, -1425742.4, -98224.88, 0.015589432, 9.999817, 9.998386 
2.0050073e+3, 1.7453037e+2, -1190734.3, -1396059.6, 105414.15, -0.1536983, -0.6423928, -1146251.5, 83289.63, 0.0021699998, 10.001046, 9.9983 
2.0050201e+3, 1.8452913e+2, -1016256.7, -1120951.5, 62078.703, -0.15201643, -0.64890987, -987400.56, 144152.78, 0.00003871999, 10.000965, 9.999556 
2.0050316e+3, 1.9452885e+2, -1135293.1, -1112602.8, 38680.824, -0.20264193, -0.6595538, -1083637.6, -50086.53, 0.0, 9.999414, 9.999683 
2.0050442e+3, 2.0452803e+2, -1111324.3, -1118370.0, 66431.79, -0.19973862, -0.6780624, -1048321.94, -112765.18, 0.0, 9.999192, 9.999086 
2.0050581e+3, 2.1452671e+2, -792941.94, -908637.06, 45589.863, -0.13941813, -0.7368711, -777136.44, 60433.43, 0.0, 10.000683, 9.999132 
2.0050721e+3, 2.2452532e+2, -636761.7, -805874.2, 59177.965, -0.07356781, -0.7749957, -618110.44, 121471.08, 0.0, 10.001181, 9.998928 
2.0050862e+3, 2.3452388e+2, -623188.56, -740811.56, 80961.84, -0.0057011233, -0.83101517, -581932.0, 59658.594, 0.0, 10.000574, 9.998989 
2.0050994e+3, 2.4452275e+2, -615371.0, -836109.4, 74519.0, -0.010931241, -0.77516747, -592569.5, -48966.51, 0.0, 10.000574, 9.997673 
2.0051107e+3, 2.5452217e+2, -425789.1, -692296.3, 85851.516, -0.11892427, -0.61518157, -400527.7, 45089.617, 0.0, 10.0012045, 9.99768 
2.005124e+3, 2.645214e+2, -222628.45, -416669.44, 162334.1, -0.14388125, -0.5098154, -130531.69, 217098.1, 0.000000029896977, 10.001399, 9.998793 
2.0051394e+3, 2.7452022e+2, -142642.05, -320956.1, 105730.13, -0.05659607, -0.5363407, -93495.66, 156145.84, 0.0000031274246, 10.001236, 9.9988575 
2.0051529e+3, 2.845176e+2, -125978.26, -480606.88, -33935.39, 0.04416726, -0.5852333, -122760.086, 28908.725, 0.000025154262, 10.001617, 9.996916 
2.0051631e+3, 2.9451382e+2, 73401.43, -329904.28, 25077.418, 0.057783637, -0.6756596, 74954.75, 128663.61, 0.00009776422, 10.002314, 9.996933 
2.0051712e+3, 3.045136e+2, 240559.36, -31521.969, 99818.31, -0.3158247, -0.4658233, 273251.5, 273251.5, 0.00024027855, 10.002267, 9.998689 
2.0051867e+3, 3.145122e+2, 307321.4, 123125.32, -83124.97, 0.042098172, -0.522555, 339287.13, 339287.13, 0.00043247704, 10.002172, 9.999795 
2.0149451e+3, 1.245193e+2, -2074777.1, -1898644.5, 133678.28, -0.038581386, -0.3558492, -1826631.0, -106966.27, 0.28771394, 9.997539, 9.999912 
2.0149545e+3, 1.3452211e+2, -1758286.6, -1438726.4, 41562.27, -0.32840103, -0.3424578, -1433409.3, 188223.47, 0.20582092, 9.997752, 10.0026245 
2.014971e+3, 1.4452155e+2, -1774608.6, -1621212.5, 49127.54, 0.1506918, -0.5461633, -1606827.6, -83193.79, 0.12247417, 9.998139, 10.00018 
2.0149802e+3, 1.54521e+2, -1584964.0, -1501294.9, 41068.47, -0.15106334, -0.6186535, -1484505.6, -58870.27, 0.055639356, 9.998864, 9.999982 
2.0149922e+3, 1.645204e+2, -1407287.0, -1455445.1, 113293.65, -0.29488644, -0.63108486, -1315541.8, 12096.85, 0.016791714, 9.999811, 9.999167 
2.0150079e+3, 1.7452012e+2, -1130637.9, -1267181.5, 158182.67, -0.2170005, -0.591993, -1026622.7, 203018.05, 0.0023981123, 10.00103, 9.999192 
2.0150211e+3, 1.8451892e+2, -1046010.5, -1183070.9, 1792.0521, -0.1574474, -0.6232657, -1045987.06, 85662.69, 0.000045425786, 10.000961, 9.999133 
2.0150319e+3, 1.9451672e+2, -1177416.4, -1192916.1, -15545.845, -0.12589283, -0.77379763, -1167795.8, -134129.66, 0.0, 9.999385, 9.999147 
2.0150442e+3, 2.0451584e+2, -1152351.0, -1196342.8, 112987.95, -0.120349765, -0.7453842, -1059237.9, -123562.1, 0.0, 9.999163, 9.998565 
2.0150588e+3, 2.1451665e+2, -847035.94, -996471.1, 108232.11, -0.1409662, -0.5363828, -790235.8, 47439.76, 0.0, 10.000583, 9.998578 
2.0150727e+3, 2.2451612e+2, -604415.5, -712449.75, 35839.098, -0.16028686, -0.48944053, -593607.56, 146072.66, 0.0, 10.001062, 9.999629 
2.0150855e+3, 2.3451416e+2, -576900.56, -633606.56, 64421.434, -0.1621792, -0.6770618, -534868.8, 106820.06, 0.0, 10.000518, 9.999755 
2.0150991e+3, 2.4451189e+2, -592406.44, -764176.75, 93995.836, -0.097350776, -0.80283165, -550967.3, -7259.912, 0.0, 10.00048, 9.998208 
2.0151135e+3, 2.5450933e+2, -404338.4, -623088.06, 115372.25, 0.038324647, -0.89322, -354736.47, 91000.305, 0.0, 10.001111, 9.998193 
2.0151272e+3, 2.6450816e+2, -315450.2, -590822.4, 151308.06, 0.027088258, -0.7982388, -248559.67, 99193.95, 0.0000000091701935, 10.001313, 9.9976425 
2.0151402e+3, 2.745087e+2, -235446.38, -496549.7, 113058.61, -0.10920237, -0.5298467, -193296.03, 56458.453, 0.0000023642951, 10.001164, 9.997686 
2.0151536e+3, 2.8450745e+2, -36719.4, -266073.66, -15233.265, -0.06173117, -0.45794022, -35712.06, 116056.2, 0.000021595964, 10.001501, 9.998441 
2.0151658e+3, 2.9450408e+2, 177507.98, -99695.08, 50263.16, 0.094441004, -0.6726116, 186340.4, 240136.3, 0.0000838711, 10.002251, 9.998543 
2.0151746e+3, 3.0450135e+2, 64681.56, -352952.4, 72140.81, -0.21093619, -0.702995, 76791.78, 76791.78, 0.00020805722, 10.002093, 9.996557 
2.0151892e+3, 3.1449825e+2, 114061.87, -197192.13, 90658.74, 0.06048817, -0.7082923, 138542.53, 138542.53, 0.0003820047, 10.001869, 9.997715 
2.0249431e+3, 1.2450848e+2, -2064284.9, -1823874.3, 135396.83, 0.023103548, -0.32399607, -1763022.6, -43249.977, 0.29983783, 9.99731, 10.000533 
2.0249537e+3, 1.3451144e+2, -1658892.1, -1375044.5, 47100.61, -0.21867949, -0.32639822, -1367432.9, 254301.53, 0.21537028, 9.998299, 10.002928 
2.02497e+3, 1.4451024e+2, -1622961.3, -1640107.1, 50658.293, 0.18581341, -0.57387304, -1580155.6, -56413.836, 0.12892798, 9.999578, 9.999357 
2.0249805e+3, 1.5450928e+2, -1370722.8, -1497612.1, 29495.664, -0.1000901, -0.5942709, -1364201.5, 61551.016, 0.05909158, 10.00081, 9.999063 
2.0249929e+3, 1.6450869e+2, -1247362.6, -1313301.6, 63020.39, -0.24949554, -0.58754355, -1209208.6, 118548.73, 0.018083457, 10.000636, 9.999747 
2.0250078e+3, 1.7450877e+2, -1389597.1, -1318688.8, 82359.89, -0.20895769, -0.5771948, -1264476.1, -34723.68, 0.0026487417, 9.998938, 9.9998455 
2.0250212e+3, 1.8450767e+2, -1326165.9, -1313200.8, -34908.77, -0.14876902, -0.6339452, -1284177.8, -152419.98, 0.000052423693, 9.999009, 9.999181 
2.0250326e+3, 1.9450523e+2, -890038.56, -1053079.9, -20879.508, -0.083321154, -0.81294906, -887407.1, 146368.34, 0.0, 10.001339, 9.9991665 
2.0250453e+3, 2.0450418e+2, -791978.25, -1078548.3, 123751.664, -0.07376455, -0.7785089, -745935.3, 189852.03, 0.0, 10.001877, 9.998061 
2.0250592e+3, 2.145049e+2, -922805.06, -1092795.9, 107502.62, -0.14546493, -0.52840024, -870756.56, -32964.953, 0.0, 10.000313, 9.998043 
2.0250727e+3, 2.245044e+2, -754014.25, -757911.06, 44964.51, -0.18769765, -0.46429178, -710955.94, 28841.96, 0.0, 9.999926, 9.99986 
2.025086e+3, 2.345026e+2, -481875.47, -555598.7, 29895.578, -0.19299194, -0.660771, -471276.3, 170528.61, 0.0, 10.001038, 10.000037 
2.0251001e+3, 2.4450074e+2, -390770.56, -636159.8, 43137.7, -0.109403655, -0.7713871, -383408.16, 160410.78, 0.0, 10.001739, 9.998477 
2.025115e+3, 2.5449884e+2, -262064.86, -526889.56, 36428.543, 0.051454086, -0.8223022, -257145.23, 188695.94, 0.0, 10.001973, 9.998436 
2.025129e+3, 2.6449728e+2, -190750.95, -529822.94, 96482.78, 0.040426183, -0.78055984, -165219.31, 182641.22, 0.000000001074916, 10.002154, 9.997662 
2.0251414e+3, 2.7449635e+2, -90407.29, -429588.9, 128354.96, -0.14471821, -0.6606981, -47310.44, 202563.6, 0.0000018159459, 10.00217, 9.997665 
2.025155e+3, 2.8449526e+2, 124245.97, -202141.02, 33027.766, -0.116181076, -0.5600501, 127554.57, 279440.38, 0.000018189116, 10.00265, 9.998332 
2.0251684e+3, 2.9449394e+2, 366968.38, -17915.682, -50799.324, 0.060537662, -0.55774057, 373560.28, 427456.3, 0.000072167386, 10.0035925, 9.998458 
2.0251785e+3, 3.0448964e+2, 205665.97, -351512.06, -83697.53, -0.08988617, -0.7114761, 217967.17, 217967.17, 0.00017965614, 10.003308, 9.995995 
2.0251903e+3, 3.14487e+2, 68478.336, -239023.67, 100242.64, -0.0013604548, -0.6030351, 98270.125, 98270.125, 0.00033365883, 10.00159, 9.9975815 
2.0349415e+3, 1.244966e+2, -2046081.8, -1786064.0, 69692.805, 0.08885722, -0.44861108, -1768562.1, -48682.375, 0.3135409, 9.997309, 10.000794 
2.034953e+3, 1.3449755e+2, -1685574.6, -1417802.8, 91379.84, -0.13725771, -0.6147306, -1389590.8, 232268.28, 0.22593072, 9.998304, 10.00259 
2.0349689e+3, 1.4449622e+2, -1680109.4, -1767162.5, 90193.336, 0.08598718, -0.8142229, -1623489.1, -99618.7, 0.13594478, 9.999615, 9.998468 
2.0349823e+3, 1.54497e+2, -1432324.3, -1630219.0, 79244.555, -0.013856432, -0.568095, -1404503.0, 21369.416, 0.06282382, 10.000808, 9.998154 
2.034995e+3, 1.6449699e+2, -1215325.8, -1252616.1, -3223.4414, -0.12048285, -0.47499472, -1215049.3, 112825.92, 0.019494196, 10.000658, 10.000161 
2.035007e+3, 1.744962e+2, -1356313.6, -1251862.8, 22404.814, -0.1866837, -0.5984426, -1247259.8, -17382.943, 0.0029308582, 9.9989395, 10.000307 
2.03502e+3, 1.8449526e+2, -1289353.8, -1236312.4, 43975.46, -0.18749431, -0.6917729, -1211479.5, -79600.625, 0.00006041413, 9.999009, 9.999709 
2.0350339e+3, 1.9449423e+2, -858683.94, -978326.7, 72900.91, -0.11805125, -0.7806755, -824201.9, 209678.72, 0.0, 10.001299, 9.999701 
2.0350468e+3, 2.0449293e+2, -828507.56, -1144998.4, 66527.27, -0.12458998, -0.77909017, -815092.06, 120801.31, 0.0, 10.001837, 9.997623 
2.0350589e+3, 2.1449141e+2, -967735.7, -1172185.4, 53611.973, -0.20865084, -0.70220184, -954530.2, -116611.79, 0.0, 10.000249, 9.997533 
2.0350724e+3, 2.2449008e+2, -782994.44, -790621.75, 80072.836, -0.22378603, -0.6860094, -706644.5, 33290.305, 0.0, 9.999814, 9.999686 
2.0350875e+3, 2.3448911e+2, -511771.0, -593534.8, 82536.914, -0.14475735, -0.78089863, -460546.03, 181393.42, 0.0, 10.000938, 9.999824 
2.035102e+3, 2.4448913e+2, -410483.5, -649812.5, 50153.465, -0.108586736, -0.6892993, -400398.4, 143541.0, 0.0, 10.001621, 9.99844 
2.0351155e+3, 2.5449044e+2, -271244.2, -532017.6, 52186.637, -0.12362773, -0.4196536, -261188.25, 184744.52, 0.0, 10.001905, 9.998436 
2.0351292e+3, 2.6448852e+2, -141600.86, -391911.75, 94336.11, -0.17109859, -0.4645064, -110029.83, 237922.67, 0.000000023664393, 10.002014, 9.99867 
2.035143e+3, 2.7448282e+2, -34452.17, -286546.97, 138019.8, -0.22826178, -0.92699206, 26415.947, 276418.25, 0.0000019634658, 10.00206, 9.998697 
2.0351571e+3, 2.8448084e+2, -16387.527, -455630.0, 57892.043, -0.19026625, -0.8920914, -8885.502, 143137.77, 0.000016146072, 10.002491, 9.996666 
2.0351708e+3, 2.9448327e+2, 243642.28, -262219.16, -4509.132, -0.085045986, -0.33942682, 243682.47, 297692.16, 0.000062268045, 10.003528, 9.996817 
2.035182e+3, 3.044784e+2, 212271.66, -270155.53, -151257.97, -0.070404105, -0.50149053, 255773.66, 255773.66, 0.00015400637, 10.00305, 9.99666 
2.0351906e+3, 3.1447598e+2, 164945.75, 33594.36, 109672.695, -0.15383945, -0.45193884, 227103.53, 227103.53, 0.00028777335, 10.001327, 9.999556 
2.0449394e+3, 1.2448241e+2, -1828865.3, -1664202.8, -53107.016, 0.0984664, -0.63649523, -1648560.5, 71449.9, 0.3294151, 9.998583, 10.001247 
2.0449516e+3, 1.3448352e+2, -1627213.4, -1429354.9, 7525.177, -0.102563165, -0.75899947, -1429069.1, 192921.73, 0.23787552, 9.998808, 10.002271 
2.0449677e+3, 1.4448333e+2, -1743700.6, -1739781.3, 58375.34, 0.040239234, -0.84976286, -1683332.8, -159341.11, 0.14372098, 9.99892, 9.998993 
2.0449823e+3, 1.544843e+2, -1624860.9, -1659402.1, 147066.95, -0.0137589, -0.645146, -1494054.0, -68063.62, 0.06692591, 9.999198, 9.99873 
2.0449953e+3, 1.6448455e+2, -1399727.1, -1350138.6, 63968.11, -0.09483017, -0.55373126, -1306327.8, 21663.389, 0.021061258, 9.999431, 10.000065 
2.0450068e+3, 1.7448398e+2, -1247179.5, -1214094.5, 28694.32, -0.15418218, -0.644695, -1197515.8, 32477.982, 0.003256253, 9.99976, 10.000162 
2.0450197e+3, 1.8448323e+2, -1157946.3, -1186944.1, 79496.08, -0.15430531, -0.7038467, -1091637.8, 40358.24, 0.00007088071, 9.999983, 9.9995775 
2.0450345e+3, 1.9448242e+2, -1037603.2, -1074302.5, 54492.355, -0.11272747, -0.75791067, -998453.9, 35542.32, 0.0, 10.000129, 9.999599 
2.0450477e+3, 2.044809e+2, -1053146.4, -1225526.0, -14572.822, -0.12139906, -0.78542185, -1051923.0, -115912.805, 0.0, 10.000173, 9.997879 
2.0450595e+3, 2.1447864e+2, -954978.3, -1128702.1, 15351.72, -0.17757933, -0.8089866, -953632.1, -115592.87, 0.0, 10.000194, 9.997851 
2.045073e+3, 2.2447737e+2, -729212.2, -802547.56, 128246.24, -0.16615252, -0.78778774, -632494.7, 107560.81, 0.0, 10.000332, 9.999357 
2.0450889e+3, 2.344773e+2, -587211.75, -669434.8, 110843.875, -0.08353872, -0.75936866, -510100.97, 131955.39, 0.0, 10.000581, 9.999475 
2.0451035e+3, 2.4447766e+2, -518299.66, -706248.56, 73271.85, -0.06680297, -0.61554307, -493110.53, 50944.9, 0.0, 10.00089, 9.998407 
2.0451169e+3, 2.5447863e+2, -366417.8, -579755.7, 63069.215, -0.14022666, -0.3765056, -349167.47, 96884.08, 0.0, 10.00126, 9.998418 
2.0451307e+3, 2.6447675e+2, -211507.19, -407416.5, 73954.88, -0.18026587, -0.4211319, -186724.56, 161345.58, 0.00000011200642, 10.00145, 9.998838 
2.0451453e+3, 2.7447167e+2, -125529.7, -309091.03, 39110.62, -0.16700542, -0.84122384, -117543.984, 132569.7, 0.000002326167, 10.001353, 9.998876 
2.0451596e+3, 2.844696e+2, -95282.18, -501706.84, 41915.805, -0.15135826, -0.8189321, -91004.3, 61131.082, 0.000014696717, 10.001964, 9.996607 
2.0451732e+3, 2.9447117e+2, 213534.2, -280625.28, 76835.88, -0.17408076, -0.3439612, 225205.61, 279336.97, 0.000053738604, 10.003339, 9.996779 
2.0451859e+3, 3.044671e+2, 441223.75, -74509.37, -57284.637, -0.058001578, -0.46204522, 447509.97, 447509.97, 0.00013193817, 10.004245, 9.997431 
2.0451935e+3, 3.1446576e+2, 615714.44, 245312.75, 101144.54, -0.14602222, -0.3685426, 641533.94, 641533.94, 0.0002497408, 10.004406, 9.999548 
2.0549367e+3, 1.24465846e+2, -1781924.4, -1599344.9, -41693.477, -0.053935826, -0.8932325, -1590274.5, 129890.35, 0.3476065, 9.998587, 10.001921 
2.0549497e+3, 1.3446932e+2, -1641364.1, -1457070.1, 15534.862, -0.19457279, -0.76246125, -1455769.9, 166359.88, 0.2513395, 9.998828, 10.002035 
2.0549661e+3, 1.4447156e+2, -1609949.4, -1470652.5, 57395.832, -0.04083234, -0.68640983, -1450050.3, 74055.516, 0.15236652, 9.9989195, 10.000921 
2.05498e+3, 1.5447125e+2, -1481637.8, -1361625.1, 157776.94, -0.17323904, -0.8190723, -1252828.9, 173276.56, 0.071473114, 9.999193, 10.000839 
2.0549934e+3, 1.6447131e+2, -1444191.6, -1446484.4, 70824.01, -0.23746626, -0.824079, -1374504.8, -46399.508, 0.022826005, 9.999443, 9.999401 
2.0550066e+3, 1.7447202e+2, -1306971.5, -1335244.9, 45470.832, -0.16047542, -0.7058889, -1273490.5, -43386.93, 0.0036400491, 9.999744, 9.999343 
2.0550203e+3, 1.844715e+2, -1206163.5, -1290731.0, 80390.62, -0.11671568, -0.6643693, -1157614.6, -25504.826, 0.00008593674, 9.99999, 9.998864 
2.0550346e+3, 1.9446969e+2, -1091995.4, -1185564.8, 64927.996, -0.12816264, -0.7444464, -1058752.3, -24628.695, 0.0, 10.000115, 9.998846 
2.055048e+3, 2.0446794e+2, -990507.0, -1089085.3, -18097.492, -0.12808314, -0.80013126, -987289.6, -51150.125, 0.0, 10.000148, 9.998824 
2.0550606e+3, 2.1446632e+2, -892607.9, -986410.6, 21581.254, -0.10118121, -0.8612918, -887880.9, -49724.055, 0.0, 10.000134, 9.9988575 
2.0550743e+3, 2.2446586e+2, -776657.75, -873951.3, 133204.66, -0.081257984, -0.79230285, -683494.8, 56669.242, 0.0, 10.000221, 9.998919 
2.0550896e+3, 2.344669e+2, -634430.0, -748924.7, 126165.07, -0.063902065, -0.60224396, -553131.75, 89026.266, 0.0, 10.000498, 9.99897 
2.0551047e+3, 2.4446616e+2, -542366.3, -720098.9, 82372.48, -0.054579612, -0.5421526, -510061.44, 34107.04, 0.0, 10.000746, 9.998378 
2.0551191e+3, 2.5446334e+2, -382172.16, -591901.2, 85170.31, -0.058009673, -0.6801379, -351942.1, 94256.195, 0.0, 10.001178, 9.998373 
2.0551336e+3, 2.644619e+2, -271667.72, -507726.63, 66959.92, -0.058169436, -0.6455342, -253996.84, 94217.61, 0.00000017468948, 10.001346, 9.9981985 
2.0551479e+3, 2.7446246e+2, -176006.33, -408026.34, 45794.79, -0.032933697, -0.43506533, -167294.7, 82916.86, 0.0000023499456, 10.001315, 9.99822 
2.0551623e+3, 2.8446114e+2, -35236.25, -329447.72, 84018.85, -0.097893335, -0.36736438, -12933.41, 139292.83, 0.000012296112, 10.001779, 9.99787 
2.0551756e+3, 2.9445747e+2, 293556.56, -84283.98, 141048.75, -0.28927615, -0.56033367, 340402.3, 394665.0, 0.00004437096, 10.003211, 9.998187 
2.0551892e+3, 3.04455e+2, 434778.3, 2333.7144, -62855.793, -0.14766008, -0.6279999, 443729.13, 443729.13, 0.00011165042, 10.003892, 9.998115 
2.0551987e+3, 3.144555e+2, 419116.72, -86341.85, 16455.994, -0.09941457, -0.41172212, 419651.9, 419651.9, 0.0002193155, 10.004088, 9.9974165 
2.0649338e+3, 1.2445119e+2, -2090511.4, -1700495.3, -19526.055, -0.09977123, -0.95813733, -1699520.1, 20785.014, 0.36771804, 9.996492, 10.001849 
2.0649482e+3, 1.3445546e+2, -1856043.9, -1575313.1, 9748.105, -0.15491411, -0.70646834, -1574975.0, 47292.258, 0.26616043, 9.997602, 10.001537 
2.0649654e+3, 1.4445849e+2, -1651649.3, -1412823.6, 4226.58, 0.03654836, -0.56220376, -1412748.9, 111486.99, 0.1618756, 9.9982395, 10.001713 
2.0649783e+3, 1.544573e+2, -1534485.8, -1291669.8, -520.29333, -0.22327928, -0.87190473, -1291668.6, 134570.0, 0.07651462, 9.998374, 10.001728 
2.0649917e+3, 1.6445714e+2, -1580659.0, -1560464.6, -109085.67, -0.30623406, -0.9286223, -1461009.9, -132770.02, 0.024829434, 9.998696, 9.998985 
2.0650063e+3, 1.7445841e+2, -1399178.0, -1431928.8, -117101.88, -0.11994666, -0.70462084, -1297312.0, -67074.87, 0.0041003036, 9.999327, 9.998884 
2.0650208e+3, 1.8445836e+2, -1241374.3, -1267375.0, -33419.344, -0.033521444, -0.6114687, -1218515.6, -86274.414, 0.000108260756, 9.999583, 9.999216 
2.0650347e+3, 1.9445668e+2, -1142477.6, -1163843.4, 24379.648, -0.097430035, -0.72021157, -1126543.0, -92289.625, 0.0, 9.999571, 9.999255 
2.0650484e+3, 2.0445523e+2, -968190.44, -1024153.1, -1351.718, -0.09912597, -0.7884271, -968157.8, -31892.924, 0.0, 10.000066, 9.9993105 
2.0650618e+3, 2.1445426e+2, -697731.9, -836351.94, -7291.781, -0.03015737, -0.8351812, -697349.4, 140924.64, 0.0, 10.001231, 9.99936 
2.0650756e+3, 2.2445406e+2, -595567.4, -809351.0, 75941.664, -0.017777031, -0.7561354, -571337.1, 168941.06, 0.0, 10.001558, 9.998723 
2.0650904e+3, 2.3445491e+2, -599892.44, -755728.75, 76180.39, -0.07143133, -0.5605954, -568839.5, 73435.445, 0.0, 10.000846, 9.998753 
2.0651053e+3, 2.4445355e+2, -533328.4, -718902.25, 81734.78, -0.08403252, -0.5503824, -502462.6, 41828.273, 0.0, 10.000822, 9.998348 
2.0651203e+3, 2.5444946e+2, -322921.13, -563824.9, 73528.3, -0.06627541, -0.8150681, -302252.25, 144078.08, 0.0, 10.001593, 9.9983635 
2.0651355e+3, 2.644479e+2, -171514.88, -486801.28, 64143.5, -0.02743656, -0.78031677, -158964.75, 189382.8, 0.00000012472299, 10.002142, 9.997963 
2.0651506e+3, 2.744497e+2, -30826.256, -362409.25, 57936.12, 0.049818967, -0.41868082, -20994.82, 229341.08, 0.0000018192295, 10.002419, 9.998001 
2.065165e+3, 2.8444883e+2, 94995.87, -195941.94, 117414.97, -0.023630423, -0.32805386, 136469.4, 288815.97, 0.000008845643, 10.002355, 9.998521 
2.0651776e+3, 2.944445e+2, 101411.97, -110715.83, 95421.98, -0.32410774, -0.65029496, 138018.69, 192404.31, 0.000033808126, 10.00162, 9.998769 
2.0651914e+3, 3.044425e+2, 185265.27, -108016.3, -117133.43, -0.22200935, -0.7050638, 226304.42, 226304.42, 0.00009162271, 10.002072, 9.998268 
2.0652038e+3, 3.1444135e+2, 415114.7, -71562.664, -137738.7, 0.0374026, -0.67304116, 451393.0, 451393.0, 0.0001905405, 10.003952, 9.997606 
2.0749296e+3, 1.2443807e+2, -2154458.8, -1824777.8, -22113.729, -0.2079041, -0.8652015, -1823301.1, -102865.81, 0.38886976, 9.996502, 10.000912 
2.074947e+3, 1.3444185e+2, -1900548.9, -1655885.8, 56021.574, -0.07627472, -0.5946111, -1643668.4, -21264.045, 0.28190908, 9.9976225, 10.000858 
2.0749654e+3, 1.4444405e+2, -1674422.4, -1460636.5, 3119.5842, 0.20031741, -0.47891685, -1460590.9, 63791.668, 0.17213808, 9.99827, 10.00132 
2.0749769e+3, 1.5444233e+2, -1556660.3, -1339349.4, 9494.336, -0.2273019, -0.80619997, -1338935.4, 87456.16, 0.08207624, 9.998389, 10.001372 
2.07499e+3, 1.6444182e+2, -1585181.9, -1569366.5, -93908.96, -0.3769543, -0.8731523, -1483032.9, -154636.03, 0.027111659, 9.998695, 9.998923 
2.075006e+3, 1.7444317e+2, -1406528.5, -1443427.8, -90923.75, -0.09026191, -0.6345421, -1332201.4, -101806.66, 0.0046569863, 9.999312, 9.998812 
2.0750213e+3, 1.8444368e+2, -1138961.1, -1059755.5, -37368.715, 0.036429178, -0.5478264, -1044908.3, 87483.48, 0.00014131474, 9.999603, 10.000632 
2.0750347e+3, 1.9444317e+2, -1041651.25, -947656.44, 28915.607, -0.0669206, -0.688759, -939473.5, 94913.86, 0.0000000002137382, 9.999541, 10.000755 
2.0750485e+3, 2.0444265e+2, -963722.44, -1009901.75, 36629.79, -0.09649347, -0.74815905, -943512.3, -7124.6704, 0.0, 10.000044, 9.999417 
2.0750633e+3, 2.1444237e+2, -710759.94, -842535.94, 43291.777, -0.02016587, -0.7296463, -697810.06, 140581.5, 0.0, 10.00114, 9.999362 
2.0750774e+3, 2.2444192e+2, -610680.6, -810135.56, 50951.676, -0.03321382, -0.6797976, -598418.6, 141979.67, 0.0, 10.001434, 9.998772 
2.0750903e+3, 2.344413e+2, -610894.3, -760675.06, 56774.38, -0.15610284, -0.63298154, -591806.5, 50601.258, 0.0, 10.0007715, 9.998753 
2.0751047e+3, 2.4443959e+2, -550455.6, -732816.4, 103186.0, -0.22020282, -0.6530302, -503936.3, 40488.723, 0.0, 10.00073, 9.998298 
2.0751204e+3, 2.5443667e+2, -335213.16, -573368.2, 109054.98, -0.21829087, -0.79470575, -292821.03, 153629.5, 0.0, 10.001521, 9.998333 
2.0751365e+3, 2.6443452e+2, -189967.22, -484078.9, 68435.78, -0.15074693, -0.8270053, -174822.94, 173648.84, 0.000000021824269, 10.001975, 9.998058 
2.0751531e+3, 2.7443334e+2, -35982.59, -346718.5, 78158.26, 0.024921203, -0.77584195, -17431.27, 233056.47, 0.00000084431264, 10.002314, 9.998158 
2.0751677e+3, 2.8443235e+2, 69255.01, -206603.27, 82599.984, -0.016246714, -0.7073619, 92096.52, 244596.28, 0.000005133315, 10.002179, 9.998527 
2.0751789e+3, 2.944318e+2, 75932.09, -159351.36, 75520.82, -0.3655715, -0.64687485, 98086.54, 152591.33, 0.000023674193, 10.001584, 9.998455 
2.0751919e+3, 3.0442917e+2, 89558.6, -207110.0, -67947.02, -0.39742413, -0.70945007, 104380.25, 104380.25, 0.00007214658, 10.001698, 9.997743 
2.0752083e+3, 3.144256e+2, 496866.06, 215478.5, 5973.3447, 0.045105677, -0.9128795, 496992.8, 496992.8, 0.0001581692, 10.003512, 9.999763 
2.0849273e+3, 1.244239e+2, -1804656.5, -1732310.3, -84355.31, -0.22890861, -0.7323614, -1676699.4, 43876.86, 0.40993002, 9.999208, 10.000393 
2.0849445e+3, 1.3442665e+2, -1655357.1, -1531963.1, 23044.852, -0.13506629, -0.60091406, -1527799.8, 94753.16, 0.29801235, 9.999116, 10.001258 
2.084964e+3, 1.4442845e+2, -1695492.3, -1504731.0, 5639.2373, 0.24805634, -0.53138655, -1504564.5, 19971.254, 0.18298064, 9.998328, 10.000913 
2.0849754e+3, 1.5442768e+2, -1764929.4, -1497625.6, -15060.871, -0.14342943, -0.709759, -1496779.8, -70239.65, 0.088167645, 9.997244, 10.000783 
2.0849885e+3, 1.6442764e+2, -1763383.1, -1529836.8, -32226.893, -0.28594515, -0.7507095, -1525471.4, -196931.05, 0.029713616, 9.996941, 10.00004 
2.0850052e+3, 1.7442884e+2, -1562783.5, -1379377.3, 57681.086, -0.03833085, -0.6515246, -1362745.0, -132212.25, 0.005333032, 9.99765, 10.000048 
2.0850205e+3, 1.8442924e+2, -1281176.0, -1138434.0, 121341.16, 0.05366361, -0.63738227, -1069030.4, 63497.61, 0.00018960002, 9.99866, 10.000554 
2.0850343e+3, 1.9442871e+2, -960133.44, -925907.25, 56270.824, -0.09468669, -0.7661269, -884204.8, 150321.64, 0.000000020895914, 10.000162, 10.000612 
2.0850484e+3, 2.0442855e+2, -904718.94, -977843.3, -22002.51, -0.13325329, -0.78411084, -898609.06, 37916.156, 0.0, 10.000443, 9.999443 
2.0850635e+3, 2.1442896e+2, -962455.5, -959926.25, -27439.566, -0.021945953, -0.6985415, -933722.2, -95198.805, 0.0, 9.999397, 9.9993925 
2.0850779e+3, 2.244284e+2, -879142.0, -963723.25, 4042.7068, -0.03559021, -0.6489126, -878949.2, -138417.89, 0.0, 9.999689, 9.998568 
2.085091e+3, 2.3442674e+2, -495979.53, -730192.4, -16127.11, -0.2109221, -0.6846117, -494874.28, 147676.7, 0.0, 10.001662, 9.998542 
2.0851058e+3, 2.444251e+2, -314441.38, -589976.44, 15678.995, -0.27334598, -0.69892216, -313552.03, 231015.14, 0.0, 10.002221, 9.998558 
2.0851219e+3, 2.544236e+2, -378368.13, -561919.7, 32614.1, -0.20639294, -0.72706497, -372745.38, 73832.96, 0.0, 10.001084, 9.998617 
2.0851381e+3, 2.6442173e+2, -361330.16, -549327.9, 40700.895, -0.11599357, -0.7559891, -352896.84, -4300.637, 0.0, 10.000721, 9.998214 
2.0851545e+3, 2.744193e+2, -176695.86, -401867.22, 38766.8, 0.0011359111, -0.83791566, -170208.45, 80414.48, 0.000000115745564, 10.001287, 9.998276 
2.0851697e+3, 2.8441796e+2, 18901.227, -295902.16, 25924.463, -0.027221777, -0.78247154, 21021.855, 173660.77, 0.0000020138657, 10.002106, 9.997949 
2.085182e+3, 2.9441804e+2, 259098.52, -135863.11, -48104.15, -0.2823087, -0.59679455, 264872.9, 319513.28, 0.000014488007, 10.003133, 9.997868 
2.0851958e+3, 3.0441517e+2, 379444.1, -64924.242, -128836.17, -0.27441695, -0.65819615, 414095.6, 414095.6, 0.000052987816, 10.003639, 9.997801 
2.0852111e+3, 3.1441227e+2, 474110.9, 184805.47, -53834.746, -0.0013928717, -0.78948975, 483803.88, 483803.88, 0.0001235067, 10.003394, 9.999624 
2.0949261e+3, 1.2440886e+2, -1810686.0, -1747099.5, -77515.18, -0.3179786, -0.53257364, -1695110.8, 25615.182, 0.42994058, 9.9992285, 10.000228 
2.0949411e+3, 1.344098e+2, -1568049.3, -1379142.4, 11947.37, -0.40851194, -0.72866803, -1378389.9, 244323.48, 0.31401625, 9.999139, 10.002795 
2.0949613e+3, 1.4441167e+2, -1723652.5, -1565780.9, -42999.785, 0.09110191, -0.7154361, -1554828.8, -30133.242, 0.19429262, 9.998349, 10.000462 
2.0949739e+3, 1.5441337e+2, -1812821.3, -1601805.0, -51950.285, -0.04104527, -0.57392013, -1589708.8, -163024.33, 0.094824284, 9.997265, 10.00006 
2.0949875e+3, 1.6441454e+2, -1596918.9, -1198746.4, -13026.135, -0.102881454, -0.5641452, -1198320.8, 130350.43, 0.032688897, 9.996978, 10.002328 
2.0950031e+3, 1.7441536e+2, -1385182.1, -1015551.8, 87298.91, -0.013880363, -0.7504871, -995970.94, 234680.69, 0.0061590113, 9.99766, 10.002554 
2.0950183e+3, 1.8441501e+2, -1387179.0, -1360176.1, 170684.78, -0.042556915, -0.87154704, -1202459.6, -69809.234, 0.00026052183, 9.99867, 9.999026 
2.0950332e+3, 1.9441332e+2, -1091032.5, -1190057.9, 115323.95, -0.2318145, -0.9395171, -1015041.7, 19629.17, 0.00000016154512, 10.000131, 9.998814 
2.0950475e+3, 2.0441282e+2, -917281.06, -994472.5, -63151.977, -0.2612605, -0.89325243, -881864.6, 54814.445, 0.0, 10.000404, 9.999345 
2.0950624e+3, 2.144139e+2, -972979.8, -963386.5, -62499.42, -0.081339516, -0.73977613, -905499.94, -66829.25, 0.0, 9.999323, 9.999401 
2.0950772e+3, 2.2441342e+2, -922297.2, -1033266.94, 68869.72, -0.07680345, -0.66462624, -889342.2, -148663.45, 0.0, 9.999601, 9.998134 
2.0950918e+3, 2.3441117e+2, -544251.44, -804290.6, 66659.79, -0.29150823, -0.7141466, -528159.4, 114546.04, 0.0, 10.001552, 9.998086 
2.0951074e+3, 2.4440998e+2, -295044.88, -516569.25, -23490.693, -0.3167603, -0.6863904, -292581.28, 252137.02, 0.0, 10.00208, 9.999129 
2.0951243e+3, 2.544101e+2, -343653.22, -477890.13, -3245.7532, -0.09261753, -0.6155905, -343574.8, 103140.03, 0.0, 10.00103, 9.999223 
2.09514e+3, 2.6440918e+2, -363660.88, -531187.06, 53312.957, -0.008370609, -0.58719194, -348133.88, 589.71216, 0.0, 10.000629, 9.99838 
2.095155e+3, 2.7440733e+2, -182477.69, -399250.13, 68855.586, -0.08915995, -0.6279259, -162455.72, 88288.97, 0.0, 10.001227, 9.9983225 
2.0951706e+3, 2.8440547e+2, -96430.086, -482495.25, 54239.04, -0.14070706, -0.56666774, -88954.69, 63811.46, 0.00000039293647, 10.001887, 9.99677 
2.095187e+3, 2.9440325e+2, 179164.4, -275908.3, 5350.9453, -0.13361317, -0.48809895, 179227.31, 234018.75, 0.000007661527, 10.003017, 9.996964 
2.0952022e+3, 3.0439916e+2, 357609.13, -7189.2134, -145128.16, -0.021150474, -0.6652029, 408301.44, 408301.44, 0.000036947218, 10.003241, 9.998372 
2.0952131e+3, 3.1439915e+2, 276678.8, -117798.6, 17349.371, -0.1740647, -0.5308553, 277440.38, 277440.38, 0.00009412645, 10.002979, 9.9977255 
2.1049254e+3, 1.24390684e+2, -2166571.3, -1969975.3, -87494.66, -0.20401599, -0.6023257, -1936676.1, -215774.3, 0.44859928, 9.997015, 9.99967 
2.1049395e+3, 1.343918e+2, -1790661.8, -1391463.6, -41668.777, -0.37918958, -0.88171434, -1387160.6, 235726.55, 0.3298663, 9.996972, 10.003782 
2.104958e+3, 1.443956e+2, -1849639.0, -1582921.6, -124767.766, 0.0014404521, -0.74353087, -1533656.3, -8806.168, 0.20615475, 9.9973, 10.00085 
2.1049717e+3, 1.5439777e+2, -1832129.5, -1572187.1, -73165.31, 0.026464906, -0.5930108, -1553008.5, -126172.94, 0.10215144, 9.996968, 10.000405 
2.1049856e+3, 1.6439879e+2, -1559231.3, -1194351.3, 716.14685, 0.0012599898, -0.61056626, -1194349.9, 134473.55, 0.036114734, 9.997288, 10.002211 
2.1050009e+3, 1.7439906e+2, -1231368.9, -956247.94, -98168.95, -0.04734197, -0.84028554, -924811.3, 305996.38, 0.007176738, 9.99877, 10.00243 
2.1050166e+3, 1.8439905e+2, -1291792.6, -1311693.5, -80335.67, -0.11205833, -0.92181414, -1220793.5, -87989.43, 0.0003661867, 9.999321, 9.999043 
2.1050327e+3, 1.9439858e+2, -1287461.8, -1282603.1, -13605.809, -0.22465643, -0.8652468, -1271211.5, -236394.81, 0.00000091193453, 9.998789, 9.998821 
2.1050481e+3, 2.043984e+2, -1069930.0, -1059573.8, -106321.22, -0.21075773, -0.7905055, -958304.6, -21481.39, 0.0, 9.9993, 9.999437 
2.105063e+3, 2.1439867e+2, -697801.94, -820252.44, -108569.5, -0.039639603, -0.72995454, -634384.25, 204437.16, 0.0, 10.001154, 9.999509 
2.1050781e+3, 2.2439796e+2, -586247.2, -815266.06, 67943.17, -0.033947058, -0.70474184, -567607.5, 173221.69, 0.0, 10.001683, 9.998614 
2.1050933e+3, 2.3439604e+2, -639328.94, -794059.4, 122808.04, -0.25858447, -0.76941824, -571548.75, 71300.484, 0.0, 10.000665, 9.998571 
2.1051091e+3, 2.4439514e+2, -514630.84, -623526.4, 43623.348, -0.2830633, -0.73935175, -499310.72, 45548.08, 0.0, 10.000579, 9.999121 
2.1051258e+3, 2.5439548e+2, -261261.03, -440970.56, 2147.7488, -0.06154797, -0.64093053, -261235.38, 185620.36, 0.0, 10.001623, 9.999189 
2.1051419e+3, 2.643948e+2, -133781.33, -466419.6, 43827.766, 0.019073155, -0.5681993, -128103.586, 220760.98, 0.0, 10.002393, 9.997983 
2.105157e+3, 2.7439314e+2, 7386.2646, -354781.22, 8221.0, -0.09944997, -0.546187, 7572.7803, 258458.4, 0.0, 10.002734, 9.997902 
2.105173e+3, 2.8439108e+2, 36156.773, -396727.25, 34981.344, -0.12673606, -0.48956004, 38965.395, 191874.39, 0.00000006547354, 10.002709, 9.996959 
2.1051905e+3, 2.9438797e+2, 86757.17, -296039.22, 61791.645, -0.028997477, -0.5195712, 96484.5, 151425.78, 0.0000047361223, 10.002294, 9.99717 
2.1052068e+3, 3.0438426e+2, 328859.22, -41099.234, -44150.12, 0.13700816, -0.66819334, 334055.03, 334055.03, 0.00002876755, 10.003077, 9.998238 
2.1052162e+3, 3.1438458e+2, 492196.3, -31540.963, -16634.057, -0.21975733, -0.47185963, 492724.1, 492724.1, 0.00007804994, 10.004488, 9.997614 
2.1149243e+3, 1.2436898e+2, -2233261.0, -2122312.0, -108702.32, -0.039575472, -0.9905052, -2055747.1, -334640.0, 0.46656317, 9.997071, 9.998597 
2.1149392e+3, 1.3437265e+2, -1754604.6, -1355220.6, -20099.047, -0.12583075, -1.055822, -1354211.6, 268862.53, 0.34608045, 9.997012, 10.004197 
2.1149543e+3, 1.4437997e+2, -1761323.8, -1441918.9, -119273.375, -0.10291511, -0.6374556, -1402295.0, 122707.62, 0.21890919, 9.997367, 10.002001 
2.1149684e+3, 1.5438068e+2, -1720540.6, -1366760.5, -84510.38, -0.006392361, -0.7770448, -1347609.5, 79385.445, 0.110347085, 9.997035, 10.001847 
2.1149826e+3, 1.6438036e+2, -1728697.8, -1549506.0, 45507.19, -0.046097465, -0.88761574, -1538611.5, -209614.22, 0.040102176, 9.997327, 9.999719 
2.1149985e+3, 1.7437993e+2, -1424146.5, -1355662.1, -39062.62, -0.18941171, -0.9142115, -1337958.0, -106957.09, 0.008443992, 9.998772, 9.999674 
2.1150151e+3, 1.843812e+2, -1185790.3, -1090456.3, -100937.8, -0.21867047, -0.79346484, -1026496.3, 106494.2, 0.00052604213, 9.999319, 10.00056 
2.1150325e+3, 1.9438437e+2, -1164127.4, -1024792.06, -27323.926, -0.12846571, -0.5500471, -1019625.4, 15339.525, 0.0000034897541, 9.998782, 10.000591 
2.115049e+3, 2.043852e+2, -1055781.6, -1021609.56, -44158.816, -0.04510854, -0.48067996, -991346.56, -54387.96, 0.0, 9.999262, 9.999718 
2.1150652e+3, 2.143833e+2, -699472.0, -802721.2, -33176.895, 0.049805455, -0.6564979, -689730.44, 149244.34, 0.0, 10.001067, 9.999671 
2.1150805e+3, 2.2438195e+2, -512872.47, -634512.5, 32604.115, 0.022772392, -0.76621526, -504684.47, 236299.23, 0.0, 10.001559, 9.999914 
2.115095e+3, 2.3438126e+2, -557399.25, -602064.9, 89717.664, -0.16393201, -0.8439041, -487276.6, 155707.63, 0.0, 10.00057, 9.999935 
2.1151103e+3, 2.4438043e+2, -572354.25, -714249.1, 73566.86, -0.24170437, -0.85287726, -541097.9, 3892.796, 0.0, 10.000455, 9.998555 
2.1151264e+3, 2.543796e+2, -324096.16, -554436.1, 47505.434, -0.16028376, -0.80073124, -314683.25, 132319.69, 0.0, 10.001546, 9.998448 
2.1151431e+3, 2.6437846e+2, -218638.08, -605659.25, 53599.434, -0.104628704, -0.69336146, -211352.13, 137668.3, 0.0, 10.002239, 9.997098 
2.11516e+3, 2.7437678e+2, -60921.176, -481252.0, 29869.6, -0.0931927, -0.5848381, -58809.188, 192236.48, 0.0, 10.002663, 9.99707 
2.1151763e+3, 2.8437445e+2, 101728.2, -217875.53, 16325.617, -0.103287876, -0.5799797, 102559.97, 255631.8, 0.00000005479561, 10.002536, 9.998266 
2.1151929e+3, 2.9437178e+2, 154046.02, -142463.38, 68456.82, -0.052554373, -0.70770085, 169087.95, 224182.39, 0.0000044705935, 10.00222, 9.998264 
2.1152093e+3, 3.043699e+2, 188211.14, -198213.47, 3202.9956, 0.03887664, -0.67299545, 188237.69, 188237.69, 0.0000269908, 10.002547, 9.997387 
2.1152207e+3, 3.143689e+2, 486725.34, 75475.766, -11651.799, -0.26079816, -0.560946, 487055.2, 487055.2, 0.0000736709, 10.004023, 9.998555 
2.1249187e+3, 1.2435686e+2, -2415781.3, -2863354.3, -26710.648, -0.39655933, -0.30354136, -2414192.8, -692962.4, 0.48543465, 9.998623, 9.992769 
2.124937e+3, 1.3435513e+2, -1683020.8, -1236380.3, -53343.52, -0.041896917, -1.0990003, -1230097.6, 393149.0, 0.3637423, 9.996844, 10.005627 
2.1249509e+3, 1.4436364e+2, -2033864.8, -1570450.3, -84427.08, -0.09673611, -0.6193651, -1555548.1, -30386.861, 0.23315269, 9.9955845, 10.001767 
2.1249653e+3, 1.5436406e+2, -1667580.8, -1365614.8, -170670.89, -0.044601206, -0.76440156, -1288728.5, 138428.97, 0.1197026, 9.9975, 10.00168 
2.1249805e+3, 1.6436346e+2, -1593289.1, -1533683.1, -35837.27, -0.068166524, -0.8746679, -1516875.8, -187712.05, 0.044803485, 9.998469, 9.999281 
2.1249971e+3, 1.7436242e+2, -1518224.6, -1459560.1, 38728.688, -0.18020126, -0.9067618, -1440309.5, -209134.67, 0.01004214, 9.998381, 9.99915 
2.1250142e+3, 1.843636e+2, -1264188.9, -1077038.5, 12998.588, -0.20204143, -0.7908619, -1076140.0, 57025.113, 0.0007722133, 9.998539, 10.001033 
2.1250312e+3, 1.9436735e+2, -1076479.5, -920621.2, -16418.842, -0.13015696, -0.54597247, -918910.3, 116220.97, 0.000010944595, 9.999108, 10.001151 
2.1250486e+3, 2.043684e+2, -989525.75, -991277.9, -38854.793, -0.04509491, -0.48613954, -951537.1, -14415.141, 0.0, 9.999742, 9.999684 
2.1250659e+3, 2.1436603e+2, -777961.94, -851993.1, -57539.676, 0.044651326, -0.6958996, -746559.94, 92583.57, 0.0, 10.0005865, 9.9995575 
2.1250817e+3, 2.2436488e+2, -614808.0, -647868.75, -102214.664, 0.052357428, -0.79538316, -527795.7, 213355.33, 0.0, 10.000696, 10.000244 
2.1250962e+3, 2.343653e+2, -635883.3, -596317.25, -132939.89, -0.06595995, -0.79864115, -481696.47, 161444.16, 0.0, 9.999845, 10.000326 
2.125111e+3, 2.4436459e+2, -687594.1, -750815.1, -92128.15, -0.14288677, -0.82413524, -621804.3, -76659.77, 0.0, 9.999585, 9.998721 
2.1251272e+3, 2.5436264e+2, -522229.4, -633107.8, -62005.91, -0.16856873, -0.8964882, -494492.66, -47327.703, 0.0, 10.000115, 9.998595 
2.1251443e+3, 2.6436117e+2, -394616.25, -680512.7, 23849.14, -0.15113035, -0.8317796, -392640.44, -43456.19, 0.0, 10.000997, 9.997177 
2.125162e+3, 2.7436e+2, -120223.82, -495587.94, 49570.72, -0.107615896, -0.6775853, -113787.84, 137417.64, 0.0, 10.002211, 9.99718 
2.125179e+3, 2.8435808e+2, 182611.02, -148060.4, 18852.12, -0.0885487, -0.65115106, 183682.33, 336910.13, 0.000000117451826, 10.002943, 9.998559 
2.1251953e+3, 2.9435596e+2, 295500.3, -37972.78, -28301.277, -0.051721856, -0.7557265, 297885.16, 353129.53, 0.0000050467984, 10.003045, 9.998577 
2.125212e+3, 3.043548e+2, 345045.3, -131263.39, -23797.838, 0.017930415, -0.6645484, 346231.38, 346231.38, 0.000026928557, 10.003609, 9.997363 
2.1252261e+3, 3.143533e+2, 484396.78, 84068.11, -70420.01, -0.108091414, -0.5915137, 496422.78, 496422.78, 0.00007094617, 10.003917, 9.998684 
2.1349326e+3, 1.3433899e+2, -1545322.8, -1017515.9, -143456.73, -0.18178053, -1.0022734, -981044.75, 642362.4, 0.38411817, 9.996864, 10.008189 
2.1349473e+3, 1.4434667e+2, -2147441.0, -1812044.9, -34532.05, -0.054257996, -0.6684869, -1808526.4, -283200.8, 0.24951555, 9.995608, 10.000097 
2.134962e+3, 1.5434793e+2, -1787887.4, -1610840.0, -102262.266, -0.13601486, -0.5422873, -1564108.4, -136785.34, 0.13052814, 9.997518, 9.999881 
2.1349785e+3, 1.6434786e+2, -1476660.4, -1305812.9, -40557.26, -0.12569179, -0.5839169, -1296673.9, 32651.625, 0.050404422, 9.998515, 10.000836 
2.1349968e+3, 1.7434636e+2, -1396455.9, -1215915.4, 37552.82, -0.07404657, -0.8314493, -1208415.8, 22915.611, 0.012084308, 9.998412, 10.000809 
2.1350136e+3, 1.8434614e+2, -1301540.6, -1160096.4, 29374.81, -0.12582813, -0.915432, -1154238.5, -20909.613, 0.001155736, 9.998561, 10.000452 
2.135029e+3, 1.9434752e+2, -1126057.4, -1022529.0, 8873.75, -0.2754403, -0.83878446, -1021773.94, 13542.015, 0.000030850606, 9.9991, 10.000457 
2.1350461e+3, 2.0434779e+2, -1024700.6, -1049641.1, -14420.045, -0.27617717, -0.8027612, -1018106.7, -80791.57, 0.0, 9.9996805, 9.999314 
2.1350652e+3, 2.1434665e+2, -817536.8, -911127.25, -20549.064, -0.094456755, -0.85340214, -813223.75, 26105.92, 0.0, 10.000487, 9.9992 
2.135082e+3, 2.2434667e+2, -675074.94, -739102.44, -130840.46, -0.0029497102, -0.79248035, -572388.6, 168943.17, 0.0, 10.000556, 9.999681 
2.1350966e+3, 2.3434813e+2, -691068.56, -694443.94, -157237.6, -0.0151947215, -0.63204676, -535509.56, 107808.74, 0.0, 9.999772, 9.999688 
2.1351118e+3, 2.4434754e+2, -640641.25, -632392.9, -80261.54, -0.05914953, -0.65123034, -556149.6, -10828.848, 0.0, 9.999499, 9.999574 
2.1351276e+3, 2.5434443e+2, -461040.97, -495689.16, -35388.895, -0.13849814, -0.93594754, -438963.3, 8379.491, 0.0, 10.000069, 9.999561 
2.135145e+3, 2.6434273e+2, -346736.94, -550390.7, 63456.26, -0.18964288, -0.9948891, -328582.94, 20775.584, 0.0, 10.000878, 9.99812 
2.1351635e+3, 2.743426e+2, -75506.28, -381382.53, 102447.69, -0.19698086, -0.8263343, -44363.99, 207003.97, 0.00000000014169585, 10.002118, 9.99801 
2.1351811e+3, 2.8434154e+2, 100317.62, -261137.03, 15577.696, -0.1899812, -0.72188944, 100987.73, 254370.0, 0.000000256191, 10.00271, 9.997883 
2.1351983e+3, 2.9434e+2, 240310.64, -136419.03, -5938.999, -0.08657655, -0.695166, 240404.23, 295800.0, 0.0000052967753, 10.002957, 9.997949 
2.1352144e+3, 3.043377e+2, 332121.4, -35007.97, -8518.222, -0.12445333, -0.7363534, 332318.94, 332318.94, 0.000025183504, 10.003148, 9.998215 
2.1352307e+3, 3.143345e+2, 342299.13, -47287.35, 55243.51, -0.07608704, -0.9080034, 349981.2, 349981.2, 0.0000632292, 10.00328, 9.998059 
2.1449283e+3, 1.3432302e+2, -1852867.8, -1232869.5, -181537.2, -0.20877406, -0.78815573, -1183626.0, 439943.3, 0.40760165, 9.995211, 10.006832 
2.144944e+3, 1.443282e+2, -1870754.3, -1671917.5, -180205.75, -0.00558747, -0.63446593, -1565525.0, -40014.13, 0.26811564, 9.997482, 10.000147 
2.144959e+3, 1.5432946e+2, -1751833.8, -1575868.3, -89884.836, -0.20089373, -0.5261011, -1538072.5, -110565.48, 0.14296411, 9.99768, 10.000045 
2.1449761e+3, 1.6432986e+2, -1524783.1, -1276744.1, -14719.813, -0.184815, -0.5528576, -1275873.6, 53630.246, 0.057087187, 9.997968, 10.001308 
2.1449956e+3, 1.7432925e+2, -1368961.9, -1146991.9, -40390.156, -0.012956655, -0.7595916, -1139870.8, 91629.39, 0.014719365, 9.998378, 10.001304 
2.1450129e+3, 1.8432891e+2, -1315290.4, -1215665.1, -74859.1, -0.037253816, -0.85936195, -1175560.1, -42061.848, 0.0017550356, 9.998701, 9.999997 
2.1450281e+3, 1.9432889e+2, -1168924.8, -1104501.8, -92360.95, -0.2945637, -0.86786497, -1038896.44, -3397.6873, 0.00008036648, 9.999086, 9.999899 
2.145045e+3, 2.0432866e+2, -1140497.4, -1083500.3, -102930.58, -0.32857385, -0.8581888, -1005195.8, -67693.15, 0.000000018813253, 9.998779, 9.999523 
2.1450642e+3, 2.143283e+2, -1198367.1, -1062792.8, -75009.81, -0.104028195, -0.85746706, -1029478.1, -189968.44, 0.0, 9.997733, 9.999488 
2.1450816e+3, 2.2432876e+2, -1027189.7, -912564.56, -104354.07, 0.020166913, -0.76792413, -850820.44, -109312.25, 0.0, 9.998154, 9.999649 
2.145097e+3, 2.3433012e+2, -589417.44, -653001.06, -96762.67, 0.012244525, -0.6081329, -519357.72, 124138.81, 0.0, 10.000504, 9.999622 
2.1451128e+3, 2.4432962e+2, -280874.5, -456983.5, -27887.889, -0.019642502, -0.6183026, -276563.8, 268935.13, 0.0, 10.001964, 9.999591 
2.1451294e+3, 2.5432664e+2, -134005.98, -335168.8, -62859.03, -0.092284895, -0.8885121, -115979.32, 331540.4, 0.0, 10.0023, 9.999589 
2.145147e+3, 2.6432505e+2, -136321.7, -412953.97, -19384.893, -0.14051655, -0.9546565, -134969.92, 214563.61, 0.0, 10.002152, 9.99846 
2.1451655e+3, 2.743251e+2, -154667.33, -375957.0, -35201.695, -0.16789351, -0.8027033, -149202.56, 102336.38, 0.00000000016893417, 10.001394, 9.998392 
2.1451838e+3, 2.8432414e+2, -49152.043, -364889.38, -82735.555, -0.14442751, -0.7032123, -28785.787, 124766.016, 0.0000002738674, 10.001796, 9.997623 
2.1452019e+3, 2.9432184e+2, 311686.5, -119787.7, -90842.76, -0.03297058, -0.7180051, 330032.5, 385605.9, 0.0000047479944, 10.003535, 9.99778 
2.1452194e+3, 3.043197e+2, 506957.16, -5386.688, -139534.45, 0.028056322, -0.7200542, 542493.9, 542493.9, 0.00002151286, 10.0045, 9.997812 
2.1452355e+3, 3.1431562e+2, 474257.06, 12287.267, -191734.11, 0.035006396, -0.93091315, 543465.44, 543465.44, 0.00005359827, 10.0041895, 9.998029 
2.1549235e+3, 1.3430777e+2, -2230942.8, -1761715.8, -71650.5, -0.23170555, -0.4118042, -1751018.8, -127290.93, 0.43279883, 9.995153, 10.0012865 
2.1549414e+3, 1.4430794e+2, -1746576.6, -1466198.5, -168834.19, -0.066251196, -0.5486698, -1386938.4, 138781.9, 0.28823382, 9.997583, 10.001833 
2.1549559e+3, 1.5430859e+2, -1596418.8, -1291314.8, -71844.94, -0.2998982, -0.71939, -1275243.5, 152466.4, 0.15688464, 9.997732, 10.002161 
2.1549729e+3, 1.6430953e+2, -1565174.9, -1365548.9, -3628.4895, -0.31584436, -0.7667983, -1365482.9, -35785.066, 0.06501248, 9.998007, 10.000655 
2.1549939e+3, 1.7431109e+2, -1419026.1, -1249033.6, -22032.951, -0.050572198, -0.6859057, -1246224.3, -14543.228, 0.018139776, 9.998377, 10.00059 
2.1550122e+3, 1.8431176e+2, -1340015.9, -1274564.3, -65282.18, -0.004733294, -0.6259844, -1234264.4, -100589.99, 0.0026903055, 9.998728, 9.999584 
2.1550275e+3, 1.943113e+2, -1196615.0, -1161480.6, -72437.65, -0.24111794, -0.6387329, -1104510.5, -68829.52, 0.00019736934, 9.999085, 9.999507 
2.1550442e+3, 2.0431094e+2, -1092800.1, -980946.6, -140886.64, -0.2743125, -0.6556226, -885292.2, 52392.965, 0.0000007869328, 9.998761, 10.0002365 
2.1550626e+3, 2.1431084e+2, -1147383.5, -949142.6, -109541.586, -0.03887297, -0.71185, -900532.8, -60847.77, 0.0, 9.997691, 10.00029 
2.1550803e+3, 2.2431092e+2, -1007716.44, -850389.9, -26683.063, 0.05476386, -0.72443384, -845987.5, -104305.19, 0.0, 9.998062, 10.000118 
2.1550971e+3, 2.3431116e+2, -572621.3, -594093.06, -1999.5012, -0.035142068, -0.7244371, -572436.75, 71240.18, 0.0, 10.000401, 10.000075 
2.1551143e+3, 2.4431062e+2, -361915.5, -582476.8, -13747.933, -0.089212604, -0.7256589, -361061.88, 184619.19, 0.0, 10.001791, 9.998806 
2.1551318e+3, 2.5430906e+2, -215316.88, -477924.3, -44741.516, -0.08260168, -0.765188, -207903.38, 239794.55, 0.0, 10.002191, 9.998661 
2.1551497e+3, 2.643079e+2, -172518.9, -455213.44, -49728.223, -0.08802772, -0.7266736, -164026.44, 185685.23, 0.0, 10.002015, 9.998232 
2.1551678e+3, 2.743072e+2, -171697.13, -401098.22, -54650.664, -0.08857104, -0.63676614, -159342.92, 92378.67, 0.0, 10.001346, 9.998245 
2.1551865e+3, 2.8430519e+2, -69248.914, -358527.0, -25709.945, -0.055624608, -0.6358018, -66981.68, 86760.164, 0.000000100631844, 10.001618, 9.997738 
2.1552064e+3, 2.9430136e+2, 282056.6, -144194.39, -6850.8677, 0.03294675, -0.81619775, 282166.66, 337943.5, 0.0000031808088, 10.003371, 9.997695 
2.1552263e+3, 3.0429983e+2, 308473.84, -275863.28, -150481.31, 0.2206288, -0.66327536, 344949.6, 344949.6, 0.000016571294, 10.003939, 9.996195 
2.1552393e+3, 3.1429842e+2, 357604.0, -130888.69, -117508.266, -0.041582476, -0.47232988, 384400.97, 384400.97, 0.00004498312, 10.003764, 9.997251 
2.1649207e+3, 1.342903e+2, -1610398.0, -1633521.1, -78324.07, -0.27982196, -0.34831893, -1542786.8, 81113.664, 0.45757636, 10.000359, 9.999862 
2.1649376e+3, 1.442884e+2, -1985325.5, -1519288.9, 31760.701, -0.11007365, -0.630993, -1517134.3, 8776.418, 0.3088363, 9.995786, 10.002039 
2.1649536e+3, 1.5428913e+2, -1572088.4, -1269883.3, -13110.856, -0.27690938, -0.8138028, -1269315.5, 158581.39, 0.17204043, 9.997832, 10.00229 
2.1649714e+3, 1.6429028e+2, -1515622.5, -1398841.1, -43105.684, -0.2815738, -0.8225083, -1384653.8, -54771.12, 0.07433442, 9.99857, 10.000158 
2.1649916e+3, 1.7429216e+2, -1453559.9, -1320892.8, -45920.367, -0.089345396, -0.66114295, -1306549.0, -74682.58, 0.022589553, 9.998359, 10.000111 
2.1650106e+3, 1.8429293e+2, -1365606.6, -1271396.8, -38008.074, -0.044169303, -0.57705754, -1257974.9, -124113.76, 0.00413868, 9.998482, 9.9997225 
2.1650271e+3, 1.9429222e+2, -1166774.1, -1133288.1, -16140.534, -0.20852539, -0.62861013, -1126775.1, -90905.25, 0.00045452762, 9.99922, 9.999638 
2.1650442e+3, 2.0429207e+2, -920738.6, -888982.9, -99823.97, -0.20969123, -0.6361343, -803781.9, 134089.94, 0.000007502901, 9.999906, 10.000312 
2.165062e+3, 2.1429273e+2, -700827.4, -726434.06, -133191.25, -0.014024333, -0.61980677, -579825.5, 260038.58, 0.0, 10.0007305, 10.000353 
2.1650796e+3, 2.242926e+2, -621318.56, -639385.1, -57070.836, 0.049043044, -0.66551346, -572570.5, 169291.33, 0.0, 10.000618, 10.000331 
2.1650967e+3, 2.3429142e+2, -697863.44, -628065.4, -60015.77, -0.069453135, -0.8304553, -593539.4, 50327.426, 0.0, 9.9994335, 10.000303 
2.1651144e+3, 2.4429072e+2, -782117.1, -831617.75, -55021.22, -0.10136646, -0.8395878, -746535.75, -200662.52, 0.0, 9.999087, 9.998408 
2.1651334e+3, 2.542907e+2, -582693.25, -692998.1, -57237.336, -0.036633443, -0.6818616, -558360.44, -110479.02, 0.0, 9.999846, 9.998302 
2.1651518e+3, 2.6428998e+2, -322839.34, -510515.13, -24810.207, -0.021446608, -0.5907277, -319614.9, 30278.256, 0.0, 10.000925, 9.998368 
2.1651699e+3, 2.7428815e+2, 6433.6094, -293670.75, -18455.096, -0.06104289, -0.62715435, 7564.2563, 259475.25, 0.0, 10.002495, 9.998421 
2.1651892e+3, 2.8428602e+2, 187086.9, -205832.33, 41370.37, -0.037678394, -0.66533375, 191395.53, 345325.88, 0.0000000029805467, 10.00324, 9.998012 
2.165209e+3, 2.9428327e+2, 211968.06, -129929.94, 50068.78, 0.0072150417, -0.7612421, 219149.47, 275103.56, 0.0000013452404, 10.002709, 9.998097 
2.1652298e+3, 3.0428174e+2, 131961.95, -356545.78, -5072.839, 0.24732435, -0.6460672, 132014.63, 132014.63, 0.000010696579, 10.002668, 9.996264 
2.1652432e+3, 3.1428045e+2, 290047.1, -215377.77, 55662.39, -0.008192241, -0.4316387, 296104.6, 296104.6, 0.000035608504, 10.003522, 9.996779 
2.1749197e+3, 1.3427046e+2, -1519711.8, -1431069.0, -355756.16, -0.4712819, -0.61737764, -1116884.0, 507204.3, 0.48078975, 10.00084, 10.002595 
2.1749328e+3, 1.4426981e+2, -2084921.0, -1724541.5, 108110.63, -0.19614106, -0.8746797, -1694597.4, -168517.77, 0.32934, 9.99581, 10.0005865 
2.1749526e+3, 1.54271e+2, -1716046.9, -1528668.4, 63578.258, -0.18142861, -0.81627446, -1509132.8, -81064.59, 0.18832743, 9.997804, 10.0002985 
2.1749714e+3, 1.642719e+2, -1530651.0, -1446522.4, -52474.54, -0.1686993, -0.726585, -1421333.5, -91273.195, 0.0852701, 9.998633, 9.999802 
2.1749893e+3, 1.7427246e+2, -1462291.5, -1347306.3, -46876.31, -0.19041522, -0.6845106, -1330618.1, -98561.5, 0.028395085, 9.998396, 9.9999075 
2.1750073e+3, 1.842723e+2, -1321364.3, -1190645.0, -18163.344, -0.22175135, -0.70502263, -1188168.1, -54109.14, 0.006367479, 9.998526, 10.000256 
2.1750261e+3, 1.9427146e+2, -1122877.0, -1043333.56, 13838.339, -0.24430633, -0.83293146, -1040994.8, -4927.7905, 0.0009868387, 9.999221, 10.000256 
2.1750444e+3, 2.0427185e+2, -960752.9, -969608.7, -73474.914, -0.20628583, -0.7946856, -891572.56, 46491.957, 0.000047582707, 9.999888, 9.99977 
2.1750623e+3, 2.1427386e+2, -759053.06, -827148.9, -97137.36, -0.07708179, -0.5838543, -690169.3, 149878.89, 0.00000000032497088, 10.00064, 9.999706 
2.1750793e+3, 2.2427368e+2, -649418.06, -664915.4, -99544.75, -0.050929952, -0.59297276, -557320.8, 184727.02, 0.0, 10.000481, 10.000218 
2.1750955e+3, 2.3427074e+2, -715556.44, -644638.25, -98260.49, -0.14353205, -0.9287206, -575634.56, 68433.23, 0.0, 9.999351, 10.000227 
2.1751133e+3, 2.442698e+2, -797004.06, -829875.56, -36373.16, -0.13936992, -0.96092355, -773525.6, -227448.95, 0.0, 9.998958, 9.998477 
2.1751335e+3, 2.542715e+2, -590853.25, -686132.75, -22795.2, -0.012844291, -0.64224243, -585680.44, -137609.14, 0.0, 9.999751, 9.998392 
2.1751529e+3, 2.6427114e+2, -316468.78, -460365.16, 26211.162, -0.014739538, -0.5398937, -311843.03, 38236.99, 0.0, 10.000773, 9.998782 
2.1751717e+3, 2.742679e+2, 13169.738, -249870.8, 50323.69, -0.14648509, -0.760235, 22468.697, 274576.9, 0.0, 10.002373, 9.998776 
2.1751909e+3, 2.8426626e+2, 175056.6, -164842.63, 22436.932, -0.20342545, -0.78158987, 176531.28, 330652.06, 0.0, 10.0029745, 9.998412 
2.1752097e+3, 2.9426673e+2, 230918.02, -65229.668, 36935.297, -0.20074318, -0.6086929, 235455.05, 291568.25, 0.00000028754212, 10.002592, 9.9986 
2.17523e+3, 3.0426383e+2, 179866.05, -152408.19, 5140.0884, -0.032657072, -0.7312974, 179945.55, 179945.55, 0.0000061160813, 10.002282, 9.997821 
2.1752483e+3, 3.1426218e+2, 172814.1, -327495.63, 60036.62, 0.123508714, -0.6997515, 179917.56, 179917.56, 0.00002746077, 10.002975, 9.99627 
2.184929e+3, 1.4425027e+2, -1992726.0, -1660359.5, -82980.38, -0.1683926, -0.98041254, -1640793.9, -114528.875, 0.34983045, 9.996334, 10.000774 
2.18495e+3, 1.5425237e+2, -1581756.3, -1558475.8, 27912.89, -0.28518853, -0.74331, -1539873.3, -111626.04, 0.2059314, 9.999132, 9.999458 
2.1849725e+3, 1.6425127e+2, -1340147.6, -1318352.8, -103596.56, 0.020348312, -0.8244368, -1225082.1, 105177.57, 0.09816949, 9.999828, 10.000147 
2.1849874e+3, 1.7425214e+2, -1390486.3, -1265162.0, -74620.555, -0.23209862, -0.7865466, -1230383.0, 1867.9073, 0.036017943, 9.998719, 10.00031 
2.1850044e+3, 1.8425241e+2, -1349110.1, -1203739.4, 17469.068, -0.35146466, -0.78565073, -1201669.6, -67420.945, 0.009796201, 9.998334, 10.000258 
2.1850254e+3, 1.9425194e+2, -1156399.9, -1061825.1, -4269.3833, -0.23360398, -0.8726145, -1061632.8, -25378.31, 0.0020521113, 9.999006, 10.000227 
2.1850444e+3, 2.0425224e+2, -1089173.1, -1058374.0, -115500.45, -0.14090064, -0.83002377, -957251.0, -18996.877, 0.00020967671, 9.999127, 9.999532 
2.1850616e+3, 2.1425357e+2, -1061658.9, -997664.8, -127570.96, -0.11164279, -0.6615663, -898139.4, -57893.87, 0.00000086887735, 9.9986725, 9.999484 
2.1850784e+3, 2.2425345e+2, -871701.7, -783702.7, -102113.234, -0.109597765, -0.6485732, -716512.9, 25733.215, 0.0, 9.998988, 10.000133 
2.1850953e+3, 2.3425153e+2, -563827.2, -572481.94, -106835.46, -0.13190898, -0.8751532, -461231.5, 183026.33, 0.0, 10.000406, 10.000211 
2.1851136e+3, 2.4425098e+2, -448336.28, -618912.4, -17143.44, -0.104795024, -0.8862201, -446630.38, 99632.23, 0.0, 10.001163, 9.998864 
2.1851335e+3, 2.542521e+2, -370996.94, -539156.75, 5858.286, -0.034274884, -0.66399044, -370793.1, 77466.85, 0.0, 10.001066, 9.998779 
2.1851534e+3, 2.6425162e+2, -292964.03, -461490.34, 73490.73, -0.041931026, -0.5905581, -265418.6, 84850.016, 0.0, 10.000966, 9.998693 
2.1851733e+3, 2.7424872e+2, -201934.6, -370856.88, 43036.54, -0.14041884, -0.7569269, -191602.13, 60692.39, 0.0, 10.000951, 9.998643 
2.1851929e+3, 2.8424725e+2, -136047.4, -287215.06, -34692.316, -0.17635658, -0.77476114, -128465.9, 25840.625, 0.0, 10.000694, 9.99868 
2.1852115e+3, 2.942475e+2, -70341.836, -177308.77, -50775.363, -0.1864315, -0.6402627, -50078.316, 6222.821, 0.000000027227998, 10.000375, 9.998902 
2.1852317e+3, 3.0424523e+2, 178982.53, -38889.83, -23680.297, -0.043389965, -0.77552646, 181526.61, 181526.61, 0.0000044959556, 10.001733, 9.998898 
2.185252e+3, 3.1424445e+2, 470352.4, -45695.367, -59442.266, 0.12897499, -0.74637544, 477110.9, 477110.9, 0.000025056414, 10.0043545, 9.99757 
2.1949258e+3, 1.4422877e+2, -1843477.5, -1410797.3, -132855.13, -0.17857008, -0.9944407, -1373260.4, 153217.03, 0.371045, 9.996301, 10.003074 
2.1949455e+3, 1.5423302e+2, -1559697.8, -1510289.6, 125701.66, -0.6633881, -0.5829299, -1406887.5, 21548.195, 0.22535217, 9.999137, 9.999814 
2.1949746e+3, 1.6422834e+2, -1269622.8, -1184448.6, -138093.39, 0.22183001, -1.0914716, -1082524.6, 247955.81, 0.113554515, 9.999873, 10.001143 
2.1949859e+3, 1.74231e+2, -1325388.6, -1130164.9, -107462.04, -0.25810346, -0.9712582, -1082600.4, 149850.86, 0.046104282, 9.998709, 10.00128 
2.1950014e+3, 1.8423292e+2, -1383002.8, -1277012.8, 38809.375, -0.49811175, -0.833448, -1264321.8, -129888.75, 0.015073848, 9.998343, 9.999754 
2.1950243e+3, 1.9423357e+2, -1204508.4, -1156846.3, 27952.98, -0.23192626, -0.7456422, -1143944.6, -107511.74, 0.004138987, 9.998991, 9.999579 
2.1950442e+3, 2.0423323e+2, -1092931.8, -1063010.0, -133739.48, -0.09328996, -0.73083514, -943397.2, -4956.482, 0.00072646124, 9.999112, 9.999504 
2.1950595e+3, 2.1423182e+2, -1068172.0, -993966.6, -141301.97, -0.18046996, -0.8424621, -884977.4, -44520.707, 0.000022642807, 9.998602, 9.999538 
2.1950766e+3, 2.242318e+2, -891212.8, -795126.94, -57498.7, -0.19715264, -0.82293665, -768241.75, -25784.316, 0.000000000011542125, 9.99886, 10.000114 
2.1950962e+3, 2.3423353e+2, -575884.44, -580455.7, -47894.438, -0.09385383, -0.68522924, -530221.1, 114218.02, 0.0, 10.000327, 10.000194 
2.1951152e+3, 2.4423392e+2, -432206.78, -543903.8, -24045.605, -0.07478718, -0.6317402, -427250.3, 119183.93, 0.0, 10.000992, 9.999455 
2.1951336e+3, 2.5423244e+2, -339546.8, -453702.03, 6070.4497, -0.15610696, -0.7390088, -339224.9, 109223.266, 0.0, 10.000983, 9.999401 
2.1951531e+3, 2.6423126e+2, -368752.88, -571040.6, 66813.62, -0.18529356, -0.7334624, -348677.34, 1783.2257, 0.0, 10.000778, 9.99802 
2.1951745e+3, 2.7423018e+2, -267867.16, -479528.28, 47900.23, -0.11725119, -0.6469492, -257531.7, -5057.6606, 0.0, 10.000843, 9.997938 
2.1951948e+3, 2.8422832e+2, -150306.98, -284453.4, -55856.836, -0.07512222, -0.67123115, -130094.445, 24398.836, 0.0, 10.000568, 9.9987545 
2.1952134e+3, 2.9422578e+2, -90270.99, -195600.5, -45337.355, -0.039923124, -0.8290839, -73444.36, -16928.404, 0.000000020729713, 10.00028, 9.99882 
2.1952341e+3, 3.0422547e+2, 166220.52, 27062.566, 76028.03, -0.011232269, -0.7765044, 199702.19, 199702.19, 0.0000055230016, 10.001376, 9.999492 
2.1952544e+3, 3.1422454e+2, 485847.47, 126520.4, 131679.16, -0.084050484, -0.8594874, 528935.75, 528935.75, 0.000029811183, 10.003815, 9.998979 
2.2049251e+3, 1.4420728e+2, -1335064.6, -1220139.8, -113568.63, -0.06695049, -0.9796418, -1150324.0, 376369.5, 0.39437363, 10.000579, 10.003116 
2.204942e+3, 1.5421292e+2, -1667060.4, -1490988.4, 86564.97, -0.8603521, -0.4681275, -1455558.4, -26923.33, 0.24751917, 9.998068, 10.000443 
2.2049722e+3, 1.642071e+2, -1667439.5, -1302646.9, -168193.81, 0.15011695, -1.1670084, -1236935.1, 93753.98, 0.13222682, 9.996755, 10.001792 
2.2049852e+3, 1.7421094e+2, -1302754.4, -1088673.5, -163399.44, -0.21253516, -0.9667239, -1000375.7, 232272.34, 0.059555795, 9.9986725, 10.001647 
2.205001e+3, 1.842134e+2, -1190286.3, -1181887.3, -22975.03, -0.42916533, -0.7987201, -1162731.0, -28106.463, 0.023171267, 9.999645, 9.999786 
2.2050235e+3, 1.9421385e+2, -1138048.3, -1124301.9, 1872.9111, -0.24540865, -0.7307959, -1124051.3, -87424.83, 0.008108057, 9.999431, 9.999604 
2.2050433e+3, 2.042135e+2, -1005754.7, -988839.0, -113766.8, -0.1279099, -0.7298279, -883216.06, 55417.492, 0.0021629941, 9.999573, 9.999797 
2.2050591e+3, 2.1421227e+2, -781197.9, -823441.94, -110994.63, -0.18714423, -0.8514507, -689333.4, 151312.73, 0.00023583506, 10.000423, 9.999838 
2.2050764e+3, 2.2421223e+2, -652208.94, -713859.7, -9153.75, -0.18622719, -0.8334539, -650878.56, 91768.734, 0.0000019906881, 10.000645, 9.999815 
2.2050962e+3, 2.3421398e+2, -641601.06, -653842.44, -39688.875, -0.103702165, -0.6597454, -607563.7, 37067.758, 0.0, 10.000038, 9.999842 
2.2051157e+3, 2.4421401e+2, -575824.6, -611888.6, -38527.805, -0.062861115, -0.61774063, -551317.9, -4687.784, 0.0, 9.99999, 9.999476 
2.2051351e+3, 2.54212e+2, -357183.7, -442519.16, -65276.156, -0.101776436, -0.78693986, -321867.38, 126778.73, 0.0, 10.000818, 9.999535 
2.2051546e+3, 2.6421085e+2, -318692.56, -555670.3, -16181.764, -0.11908206, -0.78802925, -317592.72, 33064.703, 0.0, 10.001145, 9.997959 
2.2051756e+3, 2.7421027e+2, -269598.53, -490249.8, 5966.527, -0.10915733, -0.6428791, -269437.3, -16769.59, 0.0, 10.000861, 9.997865 
2.2051959e+3, 2.8420833e+2, -102181.82, -277749.03, -57140.14, -0.059068765, -0.6675807, -85223.09, 69465.75, 0.0, 10.000986, 9.998596 
2.2052151e+3, 2.9420465e+2, 130329.68, -118237.79, -90366.625, 0.028733673, -0.90417975, 159709.78, 216433.31, 0.00000007580395, 10.0019245, 9.998563 
2.2052366e+3, 3.0420506e+2, 289329.6, 20944.484, 40217.85, 0.057703637, -0.7500138, 295226.72, 295226.72, 0.0000083740215, 10.002458, 9.998958 
2.2052573e+3, 3.1420463e+2, 329644.06, 166581.33, -74207.875, -0.08894289, -0.71930057, 358358.66, 358358.66, 0.000042885644, 10.002197, 10.000053 
2.2149287e+3, 1.4418799e+2, -1436380.4, -1419978.5, -94210.97, 0.18068306, -0.697498, -1333612.1, 193279.97, 0.4221777, 10.000566, 10.000905 
2.2149397e+3, 1.5419184e+2, -1608969.0, -1381765.5, -25404.002, -0.90164745, -0.40173826, -1378959.8, 49888.652, 0.27423543, 9.998044, 10.001339 
2.2149646e+3, 1.6418728e+2, -1644806.4, -1254771.5, -127449.65, -0.29326537, -1.050784, -1216818.5, 114070.47, 0.15564767, 9.9967165, 10.002184 
2.2149844e+3, 1.7419198e+2, -1315785.4, -1111894.3, -88304.02, -0.16494231, -0.76208514, -1078967.6, 153873.66, 0.07778218, 9.998641, 10.0015 
2.2150029e+3, 1.8419388e+2, -1147515.8, -1109223.4, -28533.986, -0.21725187, -0.66133153, -1094007.3, 40815.44, 0.035576556, 9.9997, 10.000273 
2.2150221e+3, 1.9419271e+2, -1098079.5, -1035626.9, -4402.157, -0.32532123, -0.81649864, -1035318.1, 1517.7524, 0.0154146915, 9.999406, 10.000224 
2.215041e+3, 2.0419288e+2, -968569.1, -903974.6, -89213.72, -0.314358, -0.8269029, -841391.94, 97442.81, 0.005714695, 9.999537, 10.000398 
2.2150595e+3, 2.1419464e+2, -750245.9, -742467.8, -72961.34, -0.1911599, -0.70697767, -673291.94, 167524.75, 0.0013616167, 10.000351, 10.000427 
2.2150774e+3, 2.2419477e+2, -721956.4, -826512.06, -32447.52, -0.15571393, -0.67044985, -712705.25, 30110.113, 0.00013056793, 10.000507, 9.999108 
2.2150952e+3, 2.3419283e+2, -705898.1, -768177.4, -56178.27, -0.21143177, -0.7899288, -672806.4, -27971.219, 0.0000045921656, 9.999951, 9.999098 
2.215115e+3, 2.4419135e+2, -647224.94, -710437.6, -20291.44, -0.15080392, -0.83269364, -641271.94, -94422.14, 0.000000030624218, 9.999793, 9.998887 
2.2151375e+3, 2.5419062e+2, -410224.25, -524476.0, -28838.273, 0.062291667, -0.82128584, -403357.84, 45498.133, 0.0, 10.0007, 9.999028 
2.2151577e+3, 2.6418993e+2, -309968.44, -491348.0, -35720.895, 0.068726905, -0.7722492, -303187.1, 47676.063, 0.0, 10.000964, 9.998481 
2.2151758e+3, 2.7418897e+2, -250040.94, -416058.2, -1236.9747, -0.1756189, -0.72988445, -250031.73, 2843.1255, 0.0, 10.000728, 9.998432 
2.215195e+3, 2.8418717e+2, -183486.45, -381227.4, -33465.977, -0.23190698, -0.74397105, -177976.17, -23082.012, 0.0, 10.000725, 9.997998 
2.2152163e+3, 2.941838e+2, 60191.195, -239045.3, -40990.125, -0.041217234, -0.88903624, 65704.54, 122632.414, 0.00000027397763, 10.001836, 9.997763 
2.215239e+3, 3.0418345e+2, 151894.63, -197400.14, 32800.293, 0.023249162, -0.69244444, 154948.02, 154948.02, 0.000015050563, 10.002215, 9.99755 
2.2152579e+3, 3.141839e+2, 248778.38, 135091.39, -118036.81, -0.29562512, -0.4472645, 322945.84, 322945.84, 0.00007034586, 10.001671, 10.000069 
2.2249284e+3, 1.4417104e+2, -1239580.1, -1493906.4, -211325.0, -0.0934169, -0.3086935, -1120108.5, 406952.88, 0.45833316, 10.004308, 9.998624 
2.2249402e+3, 1.5416856e+2, -1636534.6, -1438548.9, -57641.61, -0.6696724, -0.6622614, -1422989.9, 6090.5674, 0.30885017, 9.998111, 10.000797 
2.2249627e+3, 1.641683e+2, -1485201.1, -1228610.0, -94649.71, -0.22509424, -0.8302283, -1197474.4, 133605.48, 0.18666483, 9.99801, 10.001792 
2.2249822e+3, 1.7417173e+2, -1400070.5, -1169995.1, -95302.28, -0.2026692, -0.64533454, -1135646.8, 97398.6, 0.103338934, 9.998164, 10.001314 
2.2250015e+3, 1.84173e+2, -1354876.6, -1149827.0, -55357.58, -0.2556485, -0.62107956, -1135836.6, -805.0867, 0.054786276, 9.998024, 10.000799 
2.2250213e+3, 1.9417198e+2, -1180311.4, -1013511.7, -40513.484, -0.3061266, -0.8160978, -1004192.2, 32847.137, 0.028543482, 9.998555, 10.000793 
2.2250408e+3, 2.0417227e+2, -1005123.56, -914636.1, -111585.53, -0.27256596, -0.8513875, -839470.9, 99564.52, 0.013685946, 9.999251, 10.000464 
2.2250596e+3, 2.1417426e+2, -814900.8, -771997.3, -152850.6, -0.18127617, -0.7108536, -639100.44, 201915.95, 0.005262215, 9.999896, 10.000451 
2.2250782e+3, 2.2417447e+2, -718115.44, -812413.6, -123323.2, -0.13873422, -0.6720561, -633235.56, 109778.31, 0.001420654, 10.000467, 9.9992285 
2.2250962e+3, 2.3417255e+2, -549733.94, -674819.3, -91265.23, -0.15712634, -0.8048054, -501637.88, 143392.94, 0.0002619265, 10.00094, 9.999268 
2.2251159e+3, 2.4417078e+2, -486336.78, -686754.75, 9650.334, -0.09965862, -0.8594367, -485873.2, 61174.258, 0.000035642544, 10.001107, 9.998428 
2.225138e+3, 2.541695e+2, -401032.8, -574767.5, 2580.4368, 0.034969028, -0.85979956, -400994.5, 48067.324, 0.0000011567587, 10.000964, 9.998576 
2.2251582e+3, 2.6416868e+2, -297778.8, -418427.56, -9896.833, 0.03501673, -0.82252127, -296972.38, 54098.074, 0.0, 10.000756, 9.99908 
2.2251767e+3, 2.7416855e+2, -166002.14, -288996.2, 11880.232, -0.14856829, -0.76666915, -164865.11, 88206.69, 0.0, 10.000953, 9.999188 
2.2251968e+3, 2.8416753e+2, -51736.777, -331431.34, 56921.24, -0.17926373, -0.7411145, -40596.348, 114485.28, 0.0, 10.001663, 9.997903 
2.2252187e+3, 2.9416412e+2, 239625.23, -184719.05, 72340.22, -0.06939497, -0.85708046, 251618.5, 308733.5, 0.00000073017384, 10.003201, 9.997483 
2.2252415e+3, 3.041622e+2, 330151.16, -208745.4, 146965.17, -0.021025749, -0.78283685, 367624.9, 367624.9, 0.00002755439, 10.003836, 9.996703 
2.2252604e+3, 3.141598e+2, 509322.2, 176438.16, -32371.31, -0.28265136, -0.71133107, 512440.9, 512440.9, 0.000118261974, 10.003768, 9.999358 
2.2349423e+3, 1.5414323e+2, -1783569.9, -1675706.4, -132030.7, -0.2572819, -1.2067876, -1587017.1, -157687.0, 0.35698506, 9.997881, 9.999232 
2.2349663e+3, 1.6414998e+2, -1587600.1, -1403399.0, -86572.3, 0.3010452, -0.5207686, -1369098.4, -37834.902, 0.23053116, 9.997931, 10.0004425 
2.2349788e+3, 1.7414992e+2, -1437045.1, -1228450.3, -97576.21, -0.371087, -0.6339402, -1189922.4, 43340.156, 0.14104874, 9.998087, 10.000928 
2.2349958e+3, 1.8415046e+2, -1324778.4, -1078441.5, -48405.563, -0.6280888, -0.69790995, -1069271.1, 65983.2, 0.08532412, 9.997965, 10.001354 
2.2350205e+3, 1.941515e+2, -1145677.5, -936136.6, -13460.087, -0.2447304, -0.7428566, -935275.5, 101963.36, 0.05187056, 9.99851, 10.001378 
2.2350423e+3, 2.0415181e+2, -1048104.4, -986822.56, -86965.63, -0.07789611, -0.7853468, -925257.8, 13976.64, 0.030293982, 9.999183, 9.999995 
2.2350593e+3, 2.1415113e+2, -868575.44, -859954.75, -121987.664, -0.21093401, -0.8576935, -742201.3, 99043.86, 0.015773455, 9.999797, 9.999898 
2.2350779e+3, 2.2415124e+2, -688974.25, -699297.4, -109395.31, -0.21234854, -0.83599716, -584618.8, 158624.73, 0.0069356123, 10.000254, 10.000103 
2.2350986e+3, 2.3415276e+2, -486305.34, -524865.2, -67417.336, -0.012534569, -0.7321591, -435465.28, 209756.45, 0.002541045, 10.000863, 10.000331 
2.2351182e+3, 2.441521e+2, -538948.1, -751138.94, -3262.9268, 0.0020508997, -0.71650743, -538897.94, 8327.707, 0.00075579167, 10.000928, 9.998066 
2.2351362e+3, 2.541486e+2, -448675.25, -640200.9, 339.63196, -0.23953201, -0.9006283, -448674.63, 588.3863, 0.00014769337, 10.000818, 9.998196 
2.2351557e+3, 2.6414716e+2, -316225.72, -373937.47, -22322.912, -0.31203175, -0.92471224, -308599.1, 42679.2, 0.000007045108, 10.000427, 9.999529 
2.2351785e+3, 2.7414873e+2, -145603.64, -201372.67, 25010.607, -0.09837885, -0.76462317, -136030.48, 117230.59, 0.00000000065814787, 10.000773, 9.999862 
2.2352004e+3, 2.8414893e+2, -69195.96, -300372.75, 89368.69, -0.009817944, -0.6816065, -38676.727, 116580.28, 0.0, 10.001402, 9.998226 
2.2352211e+3, 2.9414573e+2, 197804.55, -199409.0, 129885.09, -0.1456443, -0.80198324, 236505.14, 293790.75, 0.0000012574419, 10.0029125, 9.997508 
2.2352432e+3, 3.0414066e+2, 198050.19, -342129.28, 131337.03, -0.26823077, -1.0103896, 228290.08, 228290.08, 0.000044073433, 10.003278, 9.996032 
2.2352672e+3, 3.141363e+2, 248475.56, -201903.84, 136591.1, -0.04049531, -1.0650204, 286663.03, 286663.03, 0.00018419352, 10.00313, 9.997045 
2.2449355e+3, 1.5412773e+2, -1691851.4, -1369698.8, -172084.58, -0.74123, -0.5502304, -1295066.1, 134419.81, 0.42759266, 9.997196, 10.002164 
2.2449653e+3, 1.641304e+2, -1299904.1, -1281644.6, -9182.312, 0.3395086, -0.43277216, -1277825.8, 53629.617, 0.29616648, 10.000007, 10.000426 
2.2449775e+3, 1.7412809e+2, -1368984.4, -1242337.1, -54409.164, -0.32454178, -0.7283158, -1222172.8, 11302.866, 0.19952731, 9.998779, 10.000469 
2.244995e+3, 1.8412775e+2, -1252930.6, -1061996.6, 26301.33, -0.5458704, -0.8533921, -1058439.9, 77035.73, 0.13536815, 9.998489, 10.001262 
2.2450206e+3, 1.9412997e+2, -971640.9, -864620.6, 8310.356, -0.17033632, -0.7758266, -863979.2, 173469.61, 0.09319166, 9.999749, 10.001371 
2.2450425e+3, 2.0413098e+2, -911329.06, -961752.7, -96610.73, -0.014175078, -0.73821217, -836694.6, 102743.76, 0.06306426, 10.000289, 9.999678 
2.2450596e+3, 2.1412982e+2, -928998.1, -942277.8, -148825.22, -0.15321909, -0.8079957, -786664.7, 54790.68, 0.0400799, 9.999592, 9.999454 
2.2450781e+3, 2.2412956e+2, -738596.56, -692850.5, -101860.445, -0.17168628, -0.810281, -611326.56, 132130.58, 0.023131557, 9.999754, 10.000415 
2.2450994e+3, 2.3413095e+2, -470648.06, -473511.75, -120934.086, -0.013595916, -0.7622656, -351137.34, 294296.56, 0.011994159, 10.000776, 10.000745 
2.2451192e+3, 2.4413024e+2, -532403.2, -777064.75, -117077.19, -0.002040929, -0.75652343, -485406.22, 62030.96, 0.0054928027, 10.001086, 9.997817 
2.245137e+3, 2.541272e+2, -525469.9, -694980.44, -117774.39, -0.23432942, -0.8722586, -465124.28, -15652.682, 0.002050329, 10.000365, 9.99804 
2.245156e+3, 2.6412553e+2, -453971.53, -460077.75, -130479.44, -0.27012086, -0.89876753, -326509.5, 24980.195, 0.0004876709, 9.999544, 9.999376 
2.2451793e+3, 2.7412608e+2, -311286.0, -287931.72, -125268.76, -0.021587325, -0.829784, -173797.03, 79684.72, 0.000047167257, 9.999658, 9.999815 
2.2452015e+3, 2.8412667e+2, -282288.63, -335440.28, -52418.348, 0.04714308, -0.7314237, -250094.06, -94621.47, 0.00000034188096, 9.999656, 9.998821 
2.2452222e+3, 2.9412514e+2, -85723.51, -271962.56, -6042.5884, -0.2134769, -0.72429633, -85527.66, -28044.037, 0.0000013302117, 10.000687, 9.998083 
2.2452459e+3, 3.0411878e+2, 105232.78, -230895.83, 96081.516, -0.22794083, -1.1840906, 130758.945, 130758.945, 0.0000584347, 10.001918, 9.997465 
2.2452703e+3, 3.1411842e+2, 187519.34, -221793.33, 198212.69, 0.0065168734, -0.9491397, 267770.88, 267770.88, 0.00025944764, 10.002617, 9.997155 
2.2549596e+3, 1.641096e+2, -1316889.0, -1255810.4, -35729.11, -0.2782843, -0.55095774, -1239347.4, 92307.84, 0.39765337, 9.999583, 10.001005 
2.2549787e+3, 1.7410602e+2, -1414666.6, -1319501.3, -120984.234, -0.124157995, -0.9449, -1237078.9, -3392.2192, 0.29298013, 9.99869, 9.99997 
2.2549985e+3, 1.8410468e+2, -1353347.3, -1197153.3, 43860.72, -0.07095499, -1.099525, -1185679.6, -49982.477, 0.21888196, 9.998229, 10.00037 
2.2550204e+3, 1.9410706e+2, -1044909.4, -979668.2, 49815.543, -0.14445762, -0.93431866, -952743.06, 84929.234, 0.16615056, 9.999586, 10.00062 
2.2550413e+3, 2.041093e+2, -950930.94, -1008174.75, -113605.9, -0.17974599, -0.73708147, -862396.94, 77254.96, 0.12546477, 10.000152, 9.999426 
2.2550598e+3, 2.1410993e+2, -962107.06, -1000850.6, -169771.94, -0.095303036, -0.59601647, -810605.25, 31045.79, 0.0914258, 9.999549, 9.999067 
2.2550789e+3, 2.2410928e+2, -773402.75, -742604.56, -67625.56, -0.10669993, -0.6038939, -688647.0, 55009.17, 0.062582165, 9.999656, 10.000123 
2.2550987e+3, 2.341072e+2, -505765.44, -520359.6, -74087.234, -0.19842, -0.8812458, -438616.8, 207049.06, 0.039919913, 10.000667, 10.0005045 
2.2551182e+3, 2.4410544e+2, -618294.1, -850461.44, -153951.61, -0.20324163, -0.9433003, -541565.6, 6113.6177, 0.023601582, 10.000653, 9.99751 
2.2551394e+3, 2.5410515e+2, -554970.25, -707581.6, -145182.81, -0.037432976, -0.7871828, -467261.9, -17573.793, 0.012405956, 10.000174, 9.998033 
2.2551589e+3, 2.6410338e+2, -551711.4, -602474.94, -160562.05, 0.05563678, -0.7764914, -414537.3, -62829.26, 0.005154125, 9.999296, 9.998513 
2.2551791e+3, 2.7410072e+2, -401576.72, -411117.66, -119423.05, -0.0009016528, -0.96539366, -286828.9, -33097.035, 0.0013586987, 9.9993925, 9.999089 
2.2551994e+3, 2.8410107e+2, -318908.56, -289721.25, -51730.09, -0.13590972, -0.87607235, -250565.7, -94840.46, 0.00015517221, 9.999173, 9.999347 
2.2552216e+3, 2.9410258e+2, -68577.414, -155910.14, 42561.316, -0.3334319, -0.63268083, -51266.594, 6440.786, 0.0000026982873, 10.000404, 9.998982 
2.2552495e+3, 3.0409622e+2, 281446.34, 220156.81, 123639.12, -0.091720276, -1.3128146, 378181.84, 378181.84, 0.000065484004, 10.001597, 10.000696 
2.2552685e+3, 3.1410253e+2, 237598.98, -16803.084, 291267.66, -0.46403337, -0.6975268, 428229.6, 428229.6, 0.00034262595, 10.00221, 9.998764 
2.2649805e+3, 1.7408489e+2, -1185132.0, -1579393.6, -323867.5, -0.010018532, -0.83820033, -1003118.0, 230783.98, 0.44342524, 10.002574, 9.99673 
2.264994e+3, 1.8409018e+2, -1308298.6, -1179481.3, -136914.11, -0.37449434, -0.26335818, -1092582.4, 43266.977, 0.3585124, 9.998467, 10.000505 
2.2650169e+3, 1.9408718e+2, -1474283.4, -1097660.1, -59944.22, -0.3060553, -0.6706669, -1088349.5, -50480.36, 0.29413474, 9.996305, 10.001265 
2.2650388e+3, 2.0408604e+2, -1306597.3, -1127315.5, -55934.355, -0.29645625, -0.8716649, -1111295.9, -171420.77, 0.24160613, 9.997373, 9.999936 
2.2650586e+3, 2.1408705e+2, -588330.94, -765530.5, -44614.85, -0.31128913, -0.7315224, -577731.9, 264133.9, 0.1940874, 10.002275, 9.999509 
2.2650793e+3, 2.2408636e+2, -256881.34, -623578.06, -41874.53, -0.25356784, -0.7128053, -252160.31, 491711.75, 0.14888066, 10.004387, 9.998802 
2.2651e+3, 2.3408371e+2, -558714.4, -711436.4, -184549.19, -0.12553051, -0.8858485, -435352.03, 210543.61, 0.108788945, 10.001094, 9.999017 
2.2651199e+3, 2.4408235e+2, -733690.4, -801695.94, -207178.8, -0.020919912, -0.87371576, -557742.56, -9833.577, 0.07581198, 9.999322, 9.998519 
2.2651404e+3, 2.540833e+2, -492771.63, -582415.94, -126746.016, 0.05498808, -0.6983606, -403155.75, 46747.34, 0.048806984, 10.000091, 9.998997 
2.2651587e+3, 2.6408115e+2, -448211.7, -635779.0, -107151.0, 0.05449627, -0.7266511, -399599.03, -47674.387, 0.026684597, 10.000304, 9.997816 
2.2651784e+3, 2.7407625e+2, -233187.77, -396332.3, -57049.62, -0.062679574, -1.0822408, -215217.61, 38751.67, 0.010897145, 10.000755, 9.998566 
2.2651985e+3, 2.8407577e+2, -245363.33, -262279.9, 3825.6057, -0.14595918, -1.0440156, -244538.42, -88566.46, 0.002788968, 9.999674, 9.999312 
2.2652234e+3, 2.9407877e+2, 4474.6743, -92034.65, 99295.45, -0.23054217, -0.65483475, 66619.734, 124562.61, 0.0003034348, 10.000786, 9.999237 
2.2652522e+3, 3.0407435e+2, 310631.78, 237355.03, 40813.906, -0.009362926, -1.1989601, 328839.97, 328839.97, 0.000074942734, 10.001837, 10.000687 
2.2652715e+3, 3.1407994e+2, 173725.02, -148512.2, -147475.06, -0.39192772, -0.51396435, 231028.25, 231028.25, 0.00045627917, 10.00212, 9.99795 
2.2750384e+3, 2.0406154e+2, -1256021.1, -1015117.5, 131146.52, -0.13402866, -1.0844164, -957501.75, -17397.137, 0.4526298, 9.997356, 10.000686 
2.2750618e+3, 2.1406107e+2, -664903.25, -710007.56, 151951.14, -0.24566492, -1.2221576, -533839.8, 308261.28, 0.38963944, 10.001531, 10.000681 
2.2750857e+3, 2.2406064e+2, -791544.0, -1192437.9, -6520.7305, -0.08657541, -1.1431603, -791438.0, -47331.117, 0.32267725, 10.001394, 9.996172 
2.2751062e+3, 2.3405917e+2, -1049712.6, -1261440.8, -251816.19, 0.35468847, -0.9292337, -882412.7, -236276.55, 0.25840095, 9.9989605, 9.996185 
2.2751243e+3, 2.4405937e+2, -697983.8, -614693.75, -175976.34, 0.4054112, -0.6904702, -475501.9, 72639.73, 0.20062341, 9.99887, 10.000076 
2.2751398e+3, 2.5406143e+2, -419378.28, -347825.1, -76992.086, -0.025937352, -0.6401496, -298703.25, 151414.95, 0.14660953, 9.999738, 10.000868 
2.275155e+3, 2.6405945e+2, -665278.25, -858198.8, -128381.1, -0.3790799, -0.695507, -601157.4, -249023.72, 0.09444842, 9.999355, 9.996716 
2.2751775e+3, 2.7405334e+2, -303384.22, -460869.2, -53781.836, -0.26260987, -1.1403465, -286770.2, -32581.92, 0.04983968, 10.000439, 9.99824 
2.275199e+3, 2.8405103e+2, -371544.4, -400510.16, -55029.11, -0.09244929, -1.2337097, -329124.22, -172913.38, 0.019500945, 9.99918, 9.998576 
2.2752258e+3, 2.9405427e+2, -88530.31, -197679.34, 137644.8, -0.05592054, -0.7843442, 4964.2944, 63149.64, 0.004786881, 10.000445, 9.998657 
2.2752519e+3, 3.04054e+2, 6723.137, -252667.16, 7729.608, -0.22333133, -0.7666246, 6953.269, 6953.269, 0.0007184054, 10.001308, 9.997535 
2.2752766e+3, 3.140525e+2, -205084.92, -724420.0, -213742.27, -0.11928056, -0.3775614, -128429.73, -128429.73, 0.000778247, 10.001393, 9.994259 
2.2851181e+3, 2.4403661e+2, -453441.38, -1175020.3, 520785.72, -0.44683766, -1.1237981, -180679.92, 367658.94, 0.45869297, 10.004843, 9.994106 
2.2851384e+3, 2.540311e+2, -311572.0, -626835.0, -235586.78, -0.2994178, -1.3962482, -185744.83, 264661.34, 0.36361384, 10.002783, 9.997691 
2.2851574e+3, 2.640358e+2, -461658.78, -710812.3, -202824.42, -0.14596127, -0.6304352, -348208.0, 4159.2617, 0.26167566, 10.000386, 9.997301 
2.2851829e+3, 2.7403226e+2, 372602.16, -124901.375, -46563.51, -0.029953545, -0.8260343, 376922.7, 631324.0, 0.1640845, 10.005894, 9.998196 
2.2852018e+3, 2.8402913e+2, 332804.8, -142815.58, -241237.66, 0.011894999, -0.9382448, 433741.28, 590175.6, 0.0825175, 10.004696, 9.99777 
2.2852258e+3, 2.9402927e+2, 82521.414, -220302.73, 37199.574, -0.1818238, -0.72835165, 87024.13, 145463.0, 0.030766595, 10.002019, 9.997797 
2.2852503e+3, 3.040306e+2, -110146.664, -148711.31, 39378.16, -0.45167205, -0.5543398, -85583.266, -85583.266, 0.009048874, 9.99969, 9.999086 
2.2852787e+3, 3.1402513e+2, -159986.66, -63837.24, 129033.8, 0.076028645, -0.7803449, 25786.627, 25786.627, 0.0039568725, 9.99892, 9.999989 
2.2951926e+3, 2.7400947e+2, -500641.88, -539362.9, 30308.195, 0.3648202, -0.535508, -484038.28, -229396.55, 0.4346357, 9.998834, 9.998542 
2.2952056e+3, 2.8401035e+2, -539749.25, -760180.44, -603195.0, -0.13485909, -0.23017213, -36783.207, 119855.06, 0.25416937, 9.999402, 9.996081 
2.2952232e+3, 2.940062e+2, -189112.03, -438297.78, -48696.59, -0.6594488, -0.46219748, -179933.67, -121254.95, 0.12167999, 10.000628, 9.996866 
2.2952469e+3, 3.0400622e+2, -157172.14, 329641.9, -33648.3, -0.8023114, -0.5473174, 331956.66, 331956.66, 0.053650223, 9.997262, 10.003588 
2.2952795e+3, 3.1399828e+2, 615743.2, 1686712.4, 140313.84, 0.2167608, -1.7713647, 1704790.5, 1704790.5, 0.030634135, 9.9984255, 10.01256 
2.3052199e+3, 2.939776e+2, -544531.56, 158423.19, 793742.25, -1.0879666, -1.598389, 675025.94, 733948.1, 0.3591181, 9.994274, 10.006276 
2.3052852e+3, 3.0399224e+2, 1281497.1, 109926.016, 231986.08, 2.2036479, -0.5181054, 1325761.0, 1325761.0, 0.21070041, 10.013937, 9.994177 
2.3052722e+3, 3.1397706e+2, -514300.44, -1670468.3, -630922.3, -0.64539623, -0.5198139, -236671.78, -236671.78, 0.16035368, 10.002179, 9.9877 
2.3515159e+3, 2.7846402e+2, 372230.25, 387494.84, 40869.29, 0.49339893, 0.3536752, 421438.38, 632516.25, 0.44741577, 10.004226, 10.004932 
2.3511705e+3, 2.8845862e+2, 713917.1, -349600.97, -72153.77, -1.3471973, 0.5183159, 718790.0, 831916.6, 0.34836474, 10.011677, 9.99246 
2.3508956e+3, 2.9844117e+2, 173174.63, 178597.13, 739764.25, 1.5412662, -0.7739878, 915655.1, 930959.5, 0.26888722, 10.001839, 10.001427 
2.3505598e+3, 3.0844522e+2, -51169.934, -94627.64, -647126.94, -0.693469, 0.43915012, 574592.8, 574592.8, 0.21260943, 10.001436, 9.998954 
2.3646648e+3, 1.7884478e+2, -1671620.9, -723010.0, 16600.262, 0.5041884, 0.55167055, -722719.56, 464658.25, 0.43640548, 9.991663, 10.009244 
2.3643537e+3, 1.8883838e+2, -2058650.5, -1559927.3, 178534.1, 0.07408979, 0.117308326, -1502604.0, -413166.97, 0.37759876, 9.993047, 9.999633 
2.3640461e+3, 1.9883956e+2, -656779.7, -953606.2, 80207.164, -0.15789402, 0.67147136, -636493.0, 354935.66, 0.33353576, 10.003847, 9.998073 
2.363736e+3, 2.0882772e+2, -356602.9, -988598.3, 83585.914, -0.20745066, 0.35228813, -345734.97, 547811.8, 0.30097625, 10.006898, 9.995564 
2.3634243e+3, 2.1882315e+2, -12651.605, -660845.0, 26125.723, 0.036144916, 0.76204616, -11600.302, 783992.2, 0.2781388, 10.00838, 9.996854 
2.363103e+3, 2.2881527e+2, 2813.5063, -553511.44, 72220.09, -0.24047117, 0.72619456, 12035.974, 709697.56, 0.2610379, 10.0071335, 9.997498 
2.3627868e+3, 2.3880604e+2, -281102.66, -414726.4, 7598.6074, 0.05350923, 0.4260261, -280671.94, 319070.06, 0.24561279, 10.002238, 10.000199 
2.3624648e+3, 2.4880444e+2, -934269.0, -596699.4, 275522.56, -0.078189604, 0.66735786, -442372.75, 59380.62, 0.23007582, 9.995951, 10.001033 
2.3621482e+3, 2.587976e+2, -1875432.3, -974010.6, 610066.1, 0.022211274, 0.47841015, -666222.3, -262404.84, 0.2098203, 9.98869, 10.001212 
2.3618269e+3, 2.6878867e+2, -697483.94, -211713.81, 46963.184, 0.19037752, -0.16356878, -207215.19, 98679.7, 0.17452829, 9.995313, 10.002787 
2.3615095e+3, 2.787796e+2, -255731.83, -944813.5, 113606.46, -0.015269348, -0.5092747, -237485.1, -29511.908, 0.124586634, 10.002389, 9.993379 
2.3611851e+3, 2.8877714e+2, 379793.34, -663612.06, -244279.88, -0.4291117, 0.49640673, 434151.72, 544161.44, 0.08133324, 10.006705, 9.992621 
2.3608692e+3, 2.9877856e+2, -176646.58, -124495.15, 356152.9, -0.7858867, 1.3653777, 206535.34, 218547.2, 0.054198626, 9.998986, 9.999701 
2.3605596e+3, 3.0875933e+2, 472326.94, 405416.8, -246091.63, -0.46575266, 0.020267162, 687227.1, 687227.1, 0.037912987, 10.002613, 10.0017395 
2.3752978e+3, 1.5916426e+2, -1616765.6, -835004.5, 231135.11, -0.34959185, 0.1238329, -771780.44, 608479.06, 0.40915453, 9.99357, 10.009144 
2.374985e+3, 1.6916993e+2, -722943.25, -988970.25, 335854.97, 0.6445781, 0.96538144, -494721.13, 787471.25, 0.31913978, 10.0051365, 10.000057 
2.3746672e+3, 1.7916508e+2, -385807.66, -849509.9, 86370.98, 0.49400637, 0.9487828, -370242.38, 813992.6, 0.25440004, 10.007237, 9.99921 
2.3743571e+3, 1.8915702e+2, -810677.2, -1204766.4, 85845.78, 0.5792579, 0.8600061, -792789.06, 293525.13, 0.20803122, 10.003273, 9.997219 
2.3740491e+3, 1.9915019e+2, -1272972.0, -1258599.9, -94203.69, 0.73452276, 0.87871146, -1171308.6, -182925.88, 0.17323056, 9.998151, 9.998686 
2.3737371e+3, 2.0914494e+2, -1555509.4, -1143759.8, -105394.984, 0.8602891, 0.8298614, -1118350.1, -227916.23, 0.14628343, 9.994691, 10.000453 
2.3734236e+3, 2.1913886e+2, -1725382.8, -1195133.4, -17217.205, 1.0642304, 0.6555564, -1194575.0, -402082.9, 0.1255341, 9.992952, 10.00026 
2.3731045e+3, 2.2912945e+2, -1558562.6, -1236168.5, 52427.426, 0.8594178, 0.2768598, -1227857.1, -533280.56, 0.10829949, 9.994137, 9.998745 
2.3727834e+3, 2.3911904e+2, -1094838.6, -843213.6, 28537.094, 0.5139685, -0.118845604, -840017.8, -243347.75, 0.09199208, 9.996191, 9.999759 
2.3724605e+3, 2.491177e+2, -360947.03, -215039.3, -72100.125, 0.15157247, 0.106642604, -185422.73, 313254.13, 0.07586676, 9.9995575, 10.001967 
2.3721404e+3, 2.5911722e+2, -127279.95, -451207.84, -90788.8, -0.23659672, 0.53473943, -103569.66, 297107.1, 0.05915913, 10.002486, 9.99804 
2.3718208e+3, 2.6910928e+2, 257876.75, -300222.28, -293960.6, -0.18522622, 0.4556309, 384143.75, 686898.8, 0.040411502, 10.004791, 9.997353 
2.3715079e+3, 2.790983e+2, 36467.57, -625733.4, 14422.623, -0.014465281, 0.20253253, 36781.547, 241645.69, 0.021716034, 10.003885, 9.994727 
2.3711857e+3, 2.8909194e+2, -76817.59, -394537.94, -165623.92, -0.17515348, 0.47012886, -6183.0176, 100743.734, 0.0094802175, 10.001488, 9.996719 
2.3708674e+3, 2.9908824e+2, -421522.66, -170675.22, 419118.25, -0.26257148, 0.61972624, 141383.89, 150348.0, 0.0043089692, 9.997281, 9.999916 
2.3705593e+3, 3.090747e+2, 193949.38, 7994.3545, 117634.266, -0.1398461, 0.037109535, 250913.98, 250913.98, 0.0024640088, 10.002016, 9.998861 
2.385621e+3, 1.4949743e+2, -1647300.5, -1121730.0, -185725.34, 0.3643312, 0.9859781, -1062723.5, 412278.1, 0.3896782, 9.995818, 10.005656 
2.3852998e+3, 1.5949608e+2, -1271222.3, -1244576.3, -344317.1, 0.5522746, 0.8182745, -913324.5, 463664.5, 0.27836218, 10.000396, 10.0009985 
2.3849812e+3, 1.694868e+2, -1320297.8, -1763172.8, -144595.5, 0.3636841, 0.6572584, -1277269.0, 1808.9369, 0.19862524, 10.001466, 9.995547 
2.3846626e+3, 1.7947668e+2, -1156581.8, -1620622.5, -8896.896, 0.014577067, 0.53748137, -1156411.1, 24768.605, 0.1461588, 10.001834, 9.995719 
2.3843475e+3, 1.8946539e+2, -1134243.4, -1459578.6, 214173.06, -0.20298727, 0.26526812, -1027967.06, 55321.277, 0.11113541, 10.000885, 9.996613 
2.3840337e+3, 1.9945438e+2, -1102329.0, -1144247.1, 217402.97, -0.23723987, -0.07311076, -904877.1, 80516.56, 0.08556882, 9.999247, 9.998963 
2.38372e+3, 2.0945393e+2, -892125.2, -620870.06, 94129.2, -0.04350934, 0.23489247, -591406.3, 295991.06, 0.065839775, 9.998364, 10.002385 
2.3834042e+3, 2.1945514e+2, -941985.75, -716762.7, 204.95741, 0.05963682, 0.63126284, -716762.5, 72621.68, 0.050802168, 9.997923, 10.001174 
2.3830855e+3, 2.294507e+2, -824715.0, -735220.94, 33656.17, -0.21573612, 0.62369114, -723976.6, -32553.979, 0.038884565, 9.998619, 9.999996 
2.3827669e+3, 2.3944376e+2, -688056.3, -750869.06, 14189.728, -0.46899924, 0.4884007, -684999.56, -91515.24, 0.028499383, 9.999486, 9.998802 
2.3824543e+3, 2.4943504e+2, -397531.44, -503415.84, -15628.84, -0.014143539, 0.17564832, -395272.75, 100291.05, 0.019239577, 10.000561, 9.999325 
2.3821458e+3, 2.5942555e+2, -481343.7, -832073.6, 19248.916, 0.5623755, -0.069949776, -480290.4, -82637.96, 0.011432521, 10.0008545, 9.996208 
2.3818262e+3, 2.6942208e+2, -40934.92, -470456.9, -155451.05, 0.40897766, 0.38840204, 9421.628, 309115.97, 0.005416997, 10.002774, 9.997082 
2.3815066e+3, 2.7941823e+2, -4485.022, -317042.0, -709.4833, 0.0034214626, 0.7504553, -4483.4116, 197257.0, 0.001679893, 10.002116, 9.997725 
2.3811834e+3, 2.8940734e+2, 397547.0, 259488.34, -315723.7, -0.13206111, 0.20266998, 651699.5, 755537.3, 0.00032890108, 10.002854, 10.000607 
2.3808675e+3, 2.9940113e+2, -36867.34, -67188.18, 106371.85, 0.29160172, -0.16332854, 55419.01, 61305.77, 0.0001013413, 10.000127, 9.99936 
2.3805597e+3, 3.0939415e+2, -210475.72, -474227.1, 326585.3, 0.07239282, 0.15719245, 9854.716, 9854.716, 0.0001385349, 10.000301, 9.996502 
2.3959163e+3, 1.3982e+2, -1813137.1, -2241009.5, 490411.78, -0.8147534, 1.2049211, -1492029.0, 77793.63, 0.4278188, 10.000631, 9.994817 
2.3956093e+3, 1.4980848e+2, -1911160.5, -1674365.1, -181393.44, 0.076010756, 0.62326866, -1576149.0, -104210.37, 0.29985437, 9.996577, 9.999925 
2.3952903e+3, 1.5980373e+2, -1267714.6, -1437037.1, -267639.63, 0.0020142947, 0.6673776, -1071665.3, 302317.84, 0.19614404, 10.0011215, 9.998915 
2.394978e+3, 1.6979666e+2, -1052959.6, -1311414.9, -141093.34, 0.33159205, 0.56749713, -990857.44, 285191.16, 0.12585048, 10.002058, 9.998475 
2.3946661e+3, 1.7978945e+2, -832333.9, -1035234.9, -28124.037, 0.62179804, 0.44248, -828507.75, 349606.78, 0.083471425, 10.002326, 9.999616 
2.3943488e+3, 1.8978427e+2, -757563.4, -806157.44, 156488.6, 0.31448168, 0.3475129, -623496.8, 456656.9, 0.057587944, 10.001441, 10.000963 
2.3940313e+3, 1.9977906e+2, -865805.6, -904514.75, 226075.44, -0.0038219402, 0.2516784, -658257.8, 323936.5, 0.03970386, 10.000337, 10.000093 
2.3937161e+3, 2.0977445e+2, -916972.25, -937721.5, 100196.8, 0.11978944, 0.32310143, -826614.4, 57626.52, 0.026570952, 9.999591, 9.999479 
2.3934007e+3, 2.1976994e+2, -847459.06, -847717.1, 37863.715, 0.27119282, 0.4335493, -809724.1, -23436.51, 0.017417854, 9.999379, 9.999526 
2.3930842e+3, 2.297648e+2, -552043.4, -620082.06, 54808.58, 0.14057429, 0.41859055, -521554.63, 166782.34, 0.011141793, 10.0006, 9.999829 
2.3927681e+3, 2.3975828e+2, -336856.2, -605933.94, 24743.525, -0.01733852, 0.3578991, -334599.78, 255798.77, 0.0065593217, 10.002049, 9.998527 
2.3924515e+3, 2.4975078e+2, -191071.06, -447544.84, -21275.45, 0.007870328, 0.20798782, -189318.17, 303150.4, 0.0032030866, 10.002211, 9.998867 
2.392138e+3, 2.5974292e+2, -358449.34, -661803.75, 71736.2, 0.13399735, 0.12370615, -342340.8, 52202.168, 0.0011282732, 10.001283, 9.997119 
2.3918213e+3, 2.6973823e+2, -187111.81, -405128.75, -2996.2087, 0.24086654, 0.36611608, -187070.64, 109523.79, 0.00023273825, 10.001271, 9.998199 
2.391505e+3, 2.7973312e+2, -228023.19, -373158.94, 102707.76, 0.18869765, 0.508609, -174833.45, 23817.363, 0.000018051116, 10.000437, 9.99808 
2.3911807e+3, 2.897227e+2, 75602.46, -225722.2, -238213.75, -0.17442879, 0.20403966, 206799.89, 307552.6, 0.000004039042, 10.002091, 9.997608 
2.3908626e+3, 2.9971752e+2, 392186.4, 44435.457, -56553.15, 0.046622157, 0.27958512, 401152.25, 403951.03, 0.000013542408, 10.003455, 9.998511 
2.3905544e+3, 3.0970746e+2, 230977.94, 371668.78, 25052.822, 0.040106483, -0.020127974, 375996.78, 375996.78, 0.000052298794, 10.00058, 10.0021715 
2.4062459e+3, 1.3012677e+2, -1610379.9, -1456908.4, 33312.418, 0.21153276, 0.05576813, -1449989.5, 214801.66, 0.49042565, 9.999144, 10.002712 
2.4059226e+3, 1.4012437e+2, -1476785.3, -1482973.6, -72578.164, 0.19731987, 0.07695916, -1407235.4, 159588.36, 0.36336082, 10.000423, 10.000346 
2.4056031e+3, 1.5012036e+2, -1361945.3, -1615001.6, 40018.406, -0.009635597, 0.27951464, -1355767.5, 113103.31, 0.24041095, 10.001664, 9.997821 
2.405285e+3, 1.601157e+2, -1181154.4, -1410919.3, 53387.863, -0.21354607, 0.504148, -1169355.1, 201567.75, 0.14389461, 10.001855, 9.998521 
2.4049738e+3, 1.7011018e+2, -1172720.0, -1232148.9, 98240.42, 0.2722419, 0.4960545, -1099798.5, 173174.16, 0.08188297, 10.0004635, 9.999779 
2.4046639e+3, 1.8010446e+2, -1218964.4, -1120295.8, 83424.94, 0.79549664, 0.41579723, -1072709.5, 102312.5, 0.047678713, 9.9990225, 10.000578 
2.4043469e+3, 1.901012e+2, -855955.44, -751215.1, 21382.975, 0.49612665, 0.41787902, -747017.94, 330025.2, 0.028905774, 10.000292, 10.001827 
2.4040286e+3, 2.0009808e+2, -752814.56, -862081.2, -162379.39, 0.1116838, 0.44101572, -636124.0, 342939.0, 0.017015342, 10.001221, 9.999921 
2.403712e+3, 2.1009137e+2, -916286.3, -1024934.94, -166629.9, 0.21401611, 0.3369437, -795348.94, 85778.266, 0.00915297, 10.000001, 9.998681 
2.4033962e+3, 2.2008389e+2, -1010826.5, -1017960.7, -32376.48, 0.3952031, 0.21761318, -981821.2, -198620.11, 0.0045936005, 9.998676, 9.998703 
2.4030814e+3, 2.3007868e+2, -764379.94, -737167.5, 79212.3, 0.32691208, 0.2220516, -670401.4, 14852.02, 0.0022051786, 9.99922, 9.999681 
2.4027666e+3, 2.400728e+2, -685348.0, -794229.4, 45701.918, 0.20507221, 0.22194283, -668708.06, -81396.15, 0.0009056362, 9.999751, 9.998352 
2.402448e+3, 2.5006714e+2, -471506.94, -572002.0, -37945.938, 0.010827116, 0.25666267, -458788.53, 30577.254, 0.00023937336, 10.0002985, 9.9989 
2.4021311e+3, 2.6006123e+2, -577824.4, -701386.8, 4940.9556, -0.13946462, 0.31640342, -577627.1, -186204.63, 0.000025130046, 9.999505, 9.997711 
2.4018155e+3, 2.700551e+2, -354257.84, -405423.47, -101359.766, 0.05583385, 0.34313393, -275302.22, 18184.969, 0.00000030344088, 9.999793, 9.998915 
2.4015002e+3, 2.8004882e+2, -516100.6, -562002.25, -70453.09, 0.20479064, 0.27969465, -464954.3, -269400.22, 0.000000006555133, 9.998634, 9.997698 
2.4011782e+3, 2.9004034e+2, -217303.47, -630329.44, -128612.87, -0.120606415, 0.31984803, -180528.8, -82884.16, 0.00000087941476, 10.001193, 9.995282 
2.4008588e+3, 3.000347e+2, 147557.6, -193827.3, 64978.027, -0.27779803, 0.6259888, 159507.03, 159507.03, 0.0000071974287, 10.002263, 9.997481 
2.4005494e+3, 3.1002334e+2, 483150.1, 889891.2, -7713.0547, -0.16412121, -0.013214013, 890037.4, 890037.4, 0.00003374468, 10.000533, 10.005777 
2.4162295e+3, 1.304595e+2, -2114516.8, -2268230.0, 21307.9, -0.74907506, 0.9967125, -2111617.5, -450087.66, 0.44509977, 9.998386, 9.996243 
2.4159184e+3, 1.4044064e+2, -1562050.6, -1844817.4, -32525.084, 0.18794699, -0.03474258, -1558357.6, 5361.051, 0.31930807, 10.000927, 9.997343 
2.4156006e+3, 1.5043595e+2, -1261140.6, -1476321.8, 56600.21, 0.035758957, 0.13524766, -1247161.0, 218607.13, 0.20041417, 10.002102, 9.998581 
2.4152824e+3, 1.6043232e+2, -1064560.3, -1306669.4, 36590.973, -0.19874933, 0.40306348, -1059151.0, 308655.1, 0.110025235, 10.002468, 9.998972 
2.4149685e+3, 1.7042732e+2, -1111084.9, -1212559.9, 19358.5, 0.1519745, 0.43857628, -1107517.3, 162333.8, 0.054970514, 10.000927, 9.999668 
2.4146552e+3, 1.8042155e+2, -1285373.0, -1369794.0, 94819.14, 0.50404423, 0.42105386, -1223793.4, -51889.35, 0.027314784, 9.999487, 9.998619 
2.4143405e+3, 1.9041465e+2, -1047424.5, -1261282.3, 66153.266, 0.30353674, 0.39810494, -1028615.4, 45358.465, 0.013986388, 10.000731, 9.998066 
2.4140249e+3, 2.0040783e+2, -680222.06, -868660.5, -203084.81, 0.07366948, 0.35010484, -550564.75, 425476.2, 0.006556314, 10.001853, 9.999569 
2.4137071e+3, 2.1040146e+2, -686146.75, -650323.75, -270721.06, 0.212516, 0.10596465, -396922.28, 481169.53, 0.002469395, 10.0004425, 10.001054 
2.4133898e+3, 2.2039536e+2, -833236.5, -754354.44, -41545.754, 0.3411076, -0.08041834, -736509.8, 43631.4, 0.00078321603, 9.999096, 10.000316 
2.4130735e+3, 2.3039252e+2, -708944.2, -647078.0, 101389.86, 0.11427171, 0.07821667, -572007.5, 110162.4, 0.00023610769, 9.999299, 10.000267 
2.4127586e+3, 2.4038889e+2, -689042.56, -742820.06, 76802.5, -0.078873694, 0.24637885, -634557.9, -50350.44, 0.000047296035, 9.999483, 9.998827 
2.4124444e+3, 2.503824e+2, -622864.94, -678162.7, -25701.377, 0.15790388, 0.21396598, -612764.4, -126494.07, 0.0000020598873, 9.999404, 9.998609 
2.4121301e+3, 2.6037544e+2, -693055.8, -776317.6, -10621.1875, 0.35817382, 0.19438872, -691722.25, -303383.38, 0.0, 9.998804, 9.997518 
2.411811e+3, 2.7036893e+2, -636443.75, -685248.06, -127112.07, 0.21583554, 0.28969142, -531412.75, -241001.61, 0.0, 9.998517, 9.997587 
2.4114925e+3, 2.8036284e+2, -532809.44, -503779.2, -111535.52, 0.07797556, 0.34355685, -405818.25, -213338.83, 0.0, 9.998193, 9.998321 
2.4111766e+3, 2.90356e+2, -155898.72, -331474.44, -80796.68, 0.17035076, 0.34390134, -124376.84, -29827.445, 0.0000001537889, 10.000423, 9.997727 
2.4108623e+3, 3.0035102e+2, 109847.37, -394678.22, 100051.016, 0.32287106, 0.61202693, 128963.87, 128963.87, 0.000003139397, 10.002764, 9.995856 
2.410546e+3, 3.1033877e+2, 204422.77, 94129.08, -185610.34, -0.09290335, 0.33233136, 342905.4, 342905.4, 0.000017109696, 10.001509, 9.99981 
2.4262239e+3, 1.3077345e+2, -1812156.4, -1967197.5, -246601.44, -0.7371074, 0.8038772, -1631178.0, 27273.762, 0.4141129, 9.999793, 9.997673 
2.4259138e+3, 1.4075863e+2, -1626220.5, -1829500.1, -1427.8547, 0.14886548, 0.023325566, -1626210.4, -65614.555, 0.28877336, 10.000326, 9.997687 
2.4255967e+3, 1.5075423e+2, -1439795.9, -1581537.3, 104281.36, -0.010139863, 0.21604115, -1384582.3, 78059.36, 0.17287979, 10.000604, 9.998592 
2.425279e+3, 1.6075025e+2, -1300514.6, -1462709.9, 10416.268, -0.21074003, 0.45304027, -1299848.5, 64833.547, 0.08747846, 10.00075, 9.9987 
2.4249636e+3, 1.7074388e+2, -1063152.4, -1214098.4, -38144.227, 0.05600117, 0.37239674, -1054060.9, 212679.13, 0.038149297, 10.001396, 9.9994 
2.424649e+3, 1.8073718e+2, -1073710.5, -1372054.8, 72088.125, 0.3143537, 0.30265492, -1057205.3, 111597.92, 0.01570925, 10.001453, 9.997635 
2.4243352e+3, 1.9072951e+2, -1239283.5, -1512036.4, 228329.83, 0.19204858, 0.32504085, -1109703.1, -38815.254, 0.0064830934, 10.000112, 9.996636 
2.4240208e+3, 2.0072177e+2, -1115599.9, -1100714.1, 69689.96, 0.08572908, 0.3121326, -1038070.7, -65100.887, 0.0021827125, 9.998981, 9.999349 
2.4237023e+3, 2.1071598e+2, -596418.44, -488724.47, -77800.07, 0.20679694, 0.0652359, -447954.6, 427056.7, 0.00044835047, 10.000563, 10.002092 
2.4233845e+3, 2.2071058e+2, -483912.88, -593108.4, 40190.324, 0.28024977, -0.12766781, -470715.53, 306334.03, 0.000068581576, 10.001579, 10.00022 
2.4230677e+3, 2.3070765e+2, -425917.3, -576209.2, 54786.47, -0.016072644, 0.07665099, -408066.13, 271013.63, 0.0000096515805, 10.001609, 9.99961 
2.4227527e+3, 2.4070401e+2, -477316.7, -670539.94, -91310.23, -0.20699865, 0.2748515, -440994.63, 140122.94, 0.00000040342232, 10.001116, 9.998534 
2.4224405e+3, 2.5069693e+2, -357787.44, -535011.7, -150902.73, 0.25642648, 0.16668683, -271403.16, 211781.77, 0.0, 10.001212, 9.998698 
2.4221277e+3, 2.6068953e+2, -489747.47, -713818.75, -117997.71, 0.64781165, 0.078437716, -439070.34, -53812.65, 0.0, 10.000379, 9.997201 
2.4218065e+3, 2.7068338e+2, -415856.3, -654932.94, -130442.53, 0.33419442, 0.2517759, -358463.4, -71134.13, 0.0, 10.000395, 9.996872 
2.4214861e+3, 2.806775e+2, -331049.6, -459306.66, -39982.594, 0.037883516, 0.4034827, -319606.44, -130209.13, 0.0, 9.999813, 9.997863 
2.421174e+3, 2.9067063e+2, 128765.734, -69874.52, -19586.75, 0.29921296, 0.348617, 130678.65, 222140.98, 0.0000000009564638, 10.001841, 9.998855 
2.4208643e+3, 3.0066478e+2, -11979.884, -614263.8, 41637.383, 0.62269366, 0.4502239, -9115.016, -9115.016, 0.0000004799063, 10.002606, 9.994453 
2.4205403e+3, 3.1065574e+2, -26603.863, -657164.3, -252595.72, -0.43479282, 0.78422225, 62103.805, 62103.805, 0.0000055147566, 10.002541, 9.994222 
2.436222e+3, 1.3108122e+2, -1462070.8, -1303741.4, -134897.34, -0.46033671, 0.33812493, -1226495.3, 428937.94, 0.39271495, 10.000099, 10.003606 
2.435908e+3, 1.4107764e+2, -1427063.5, -1470103.3, 7908.774, 0.000863646, 0.21907328, -1425656.3, 131806.28, 0.26710206, 10.000827, 10.000139 
2.4355914e+3, 1.5107371e+2, -1399337.6, -1587215.5, 86855.2, -0.14418817, 0.43145975, -1365337.8, 94167.875, 0.15331793, 10.00099, 9.998374 
2.4352744e+3, 1.6106866e+2, -1267985.5, -1473295.3, 26062.361, -0.27646208, 0.58805263, -1264728.8, 96829.6, 0.07196278, 10.001077, 9.99848 
2.4349594e+3, 1.7105962e+2, -1035793.06, -1256717.1, -18533.76, -0.022681605, 0.2859758, -1034249.06, 229392.86, 0.027363949, 10.001789, 9.998925 
2.4346448e+3, 1.8105116e+2, -939519.7, -1212288.6, 59217.223, 0.19436614, 0.057610717, -927218.6, 238502.86, 0.009079448, 10.001964, 9.998476 
2.4343303e+3, 1.910464e+2, -1094381.0, -1258956.5, 169088.27, 0.17004868, 0.23069558, -988620.6, 79155.67, 0.002868925, 10.000322, 9.998263 
2.4340154e+3, 2.0104174e+2, -1050608.4, -1016837.44, 122347.5, 0.1393177, 0.40286735, -910215.75, 59612.156, 0.00059867656, 9.999178, 9.99983 
2.4336982e+3, 2.1103759e+2, -606606.9, -590766.7, 32964.68, 0.21385473, 0.38242486, -564784.0, 307075.47, 0.000045539302, 10.000887, 10.001242 
2.4333815e+3, 2.2103229e+2, -526250.3, -874535.56, 103007.62, 0.25473204, 0.33925736, -498065.9, 275837.66, 0.0000022398012, 10.00239, 9.997889 
2.4330667e+3, 2.3102349e+2, -553585.75, -1023805.44, 42220.57, 0.12869553, 0.28783438, -549824.9, 126169.26, 0.000000052409952, 10.002377, 9.996174 
2.4327523e+3, 2.4101499e+2, -364481.34, -644913.0, -132661.33, 0.04241194, 0.24602076, -311669.97, 266410.56, 0.0, 10.002011, 9.998266 
2.4324365e+3, 2.5100863e+2, -213811.88, -334850.03, -183472.17, 0.19802165, 0.12267196, -81135.195, 399000.75, 0.0, 10.001635, 9.99987 
2.432121e+3, 2.610028e+2, -268118.8, -436778.97, -143486.66, 0.34931841, 0.071612574, -186015.77, 196172.94, 0.0, 10.001142, 9.998722 
2.431803e+3, 2.7099875e+2, -211270.55, -424807.78, -138632.84, 0.38107568, 0.3203602, -143057.44, 141180.06, 0.0, 10.001181, 9.9980955 
2.4314857e+3, 2.809936e+2, -87518.11, -382498.3, 37373.07, 0.3490813, 0.49803925, -82856.72, 103438.414, 0.0, 10.001604, 9.997538 
2.4311692e+3, 2.9098317e+2, 282854.56, -174208.81, 66698.44, 0.0076964195, 0.21845332, 292388.88, 380781.16, 0.0, 10.003609, 9.997311 
2.4308567e+3, 3.00974e+2, 420037.84, -167203.02, 42556.234, -0.042811457, 0.041134104, 423105.78, 423105.78, 0.000000008678429, 10.004523, 9.996607 
2.430545e+3, 3.1097084e+2, 255161.73, -164362.38, -340471.44, 0.28270632, 0.61920226, 445300.8, 445300.8, 0.0000009202062, 10.002859, 9.997497 
2.4465346e+3, 1.2139267e+2, -2054458.1, -1829547.4, 178426.06, -0.15175651, -0.1673037, -1731095.0, 19292.186, 0.49454167, 9.997329, 10.000579 
2.4462163e+3, 1.3139553e+2, -1659435.9, -1426907.5, -27399.375, -0.43079358, 0.33018762, -1423722.6, 228629.42, 0.3775347, 9.998229, 10.003054 
2.445904e+3, 1.4139085e+2, -1376942.0, -1432876.4, -108796.016, -0.026447847, 0.11844407, -1292576.0, 261814.16, 0.25111946, 10.001173, 10.000306 
2.4455872e+3, 1.5138714e+2, -1454660.0, -1575518.0, -104252.17, -0.12213179, 0.2955816, -1394589.3, 61840.42, 0.13882844, 10.000369, 9.998761 
2.4452707e+3, 1.6138247e+2, -1510246.9, -1556931.3, -99117.5, -0.15699501, 0.43995386, -1431760.1, -73281.73, 0.060861234, 9.999248, 9.998772 
2.444956e+3, 1.7137475e+2, -1237546.1, -1322270.4, -60721.855, 0.027431473, 0.22398141, -1205869.8, 54680.957, 0.02025213, 10.000278, 9.999172 
2.4446411e+3, 1.8136734e+2, -1074621.4, -1223535.9, -7547.156, 0.18100898, 0.060778264, -1074239.8, 88381.67, 0.0052852775, 10.000821, 9.998943 
2.4443254e+3, 1.9136366e+2, -1050750.1, -1137041.9, 26057.346, 0.15161395, 0.2525172, -1043492.06, 21171.719, 0.0012089658, 10.000223, 9.999133 
2.4440101e+3, 2.0135996e+2, -1059238.0, -1114868.1, -24586.791, 0.15465489, 0.46917927, -1049929.1, -83223.79, 0.00012403581, 9.9995775, 9.998951 
2.443694e+3, 2.1135542e+2, -817970.1, -897517.56, -148207.38, 0.20977552, 0.55408174, -704292.3, 164456.05, 0.000001917801, 10.000389, 9.999339 
2.4433787e+3, 2.2134936e+2, -888295.4, -1212538.9, -139444.66, 0.26321408, 0.586139, -836575.44, -65769.49, 0.000000018702426, 10.000666, 9.99638 
2.4430645e+3, 2.3133834e+2, -946434.94, -1323491.4, 2036.1686, 0.24857084, 0.40048268, -946423.94, -273507.63, 0.0, 10.000177, 9.995161 
2.4427502e+3, 2.4132772e+2, -761209.75, -840766.6, -7812.5454, 0.22232878, 0.21170683, -760449.8, -185428.94, 0.0, 9.999321, 9.998223 
2.4424322e+3, 2.51322e+2, -447368.44, -361951.1, -72769.375, 0.14964694, 0.095676325, -320283.16, 156784.88, 0.0, 9.999686, 10.000608 
2.4421145e+3, 2.6131722e+2, -448268.94, -490024.34, -86636.07, 0.11195825, 0.089978725, -380030.5, -922.4055, 0.0, 9.999754, 9.999045 
2.4417986e+3, 2.7131417e+2, -198246.13, -356241.2, -125743.35, 0.31868032, 0.38982368, -128744.5, 152400.05, 0.0, 10.000978, 9.998675 
2.4414834e+3, 2.813091e+2, -143599.08, -457488.97, 37487.703, 0.42328256, 0.5298701, -139184.05, 44014.73, 0.0, 10.001432, 9.997119 
2.4411657e+3, 2.912963e+2, -35299.184, -423919.06, 157761.3, -0.19194894, 0.070605226, 20680.67, 105997.945, 0.0, 10.00187, 9.99642 
2.4408506e+3, 3.0128545e+2, 23598.377, -152079.53, 68518.64, -0.58055073, -0.26474518, 47161.78, 47161.78, 0.0, 10.000919, 9.99846 
2.4405469e+3, 3.11283e+2, 224896.92, 277824.72, -141200.2, 0.68016684, -0.0009286967, 395019.56, 395019.56, 0.00000009975268, 10.000793, 10.001487 
2.4565339e+3, 1.2172186e+2, -2040465.9, -2032847.5, -345529.0, 0.5000071, 0.95376474, -1691106.6, 56056.03, 0.4853977, 9.99847, 9.998706 
2.4562095e+3, 1.3171133e+2, -1770657.3, -1764398.9, 108486.43, -0.5049958, 0.4502734, -1658996.5, -9738.984, 0.36593348, 9.9992285, 9.99933 
2.4559006e+3, 1.4169945e+2, -1369892.3, -1476634.4, -72445.25, -0.044633772, -0.20356765, -1333281.1, 218084.36, 0.23856215, 10.001493, 9.999714 
2.455584e+3, 1.5169582e+2, -1357039.4, -1415699.8, -132736.97, 0.0025590223, -0.08930845, -1250430.8, 202970.05, 0.1275105, 10.000612, 9.999796 
2.4552678e+3, 1.6169256e+2, -1348076.6, -1341943.6, -69925.73, 0.06686954, 0.09059879, -1275017.1, 80416.32, 0.052560914, 9.999771, 10.000001 
2.4549533e+3, 1.7168936e+2, -1109421.5, -1150100.4, -15789.15, 0.19151181, 0.22257876, -1104012.4, 153453.98, 0.01541553, 10.000667, 10.000181 
2.4546382e+3, 1.816854e+2, -979421.2, -1128818.4, -6495.3477, 0.25238198, 0.33193275, -979139.3, 180367.44, 0.0031067657, 10.001241, 9.999393 
2.4543211e+3, 1.9168055e+2, -1010742.2, -1115066.1, -3485.2644, 0.14609422, 0.40276638, -1010625.9, 50931.97, 0.00048131414, 10.000467, 9.999175 
2.4540044e+3, 2.0167464e+2, -1154794.3, -1405028.4, -25233.287, 0.09010791, 0.47091237, -1152275.1, -188654.3, 0.000015932997, 9.999952, 9.996768 
2.4536897e+3, 2.1166569e+2, -1047941.2, -1404917.9, -162716.28, 0.20797761, 0.44785002, -984903.8, -119187.42, 0.0000000054715246, 10.000503, 9.995803 
2.453375e+3, 2.2165726e+2, -752963.3, -943088.25, -194378.14, 0.30685142, 0.4220091, -631647.1, 136155.42, 0.0, 10.0006895, 9.9982195 
2.4530603e+3, 2.3165081e+2, -724748.6, -747718.4, -36617.133, 0.32273996, 0.31730932, -697857.5, -28001.604, 0.0, 9.99965, 9.999386 
2.4527451e+3, 2.416442e+2, -749848.0, -673083.3, 29400.209, 0.31515118, 0.20960496, -663117.1, -91205.42, 0.0, 9.998662, 9.999697 
2.4524273e+3, 2.5163856e+2, -577469.7, -481358.63, -21340.797, 0.2499858, 0.12265591, -476833.13, -2871.1116, 0.0, 9.999013, 10.000131 
2.4521096e+3, 2.61633e+2, -530006.4, -632084.44, -34361.754, 0.15266861, 0.11157271, -519517.28, -143503.67, 0.0, 9.99958, 9.998168 
2.451792e+3, 2.7162704e+2, -321290.8, -577574.56, -100364.24, 0.053700518, 0.25350896, -286665.0, -8588.409, 0.0, 10.000772, 9.997281 
2.4514768e+3, 2.8162053e+2, -71125.305, -345761.94, -5172.8335, 0.09418992, 0.327678, -71027.91, 109114.81, 0.0, 10.001558, 9.997827 
2.451167e+3, 2.9161182e+2, -94517.96, -292892.75, 97862.164, 0.30922496, 0.13752197, -54367.125, 27854.584, 0.0, 10.0007305, 9.997876 
2.4508555e+3, 3.016035e+2, -131564.1, -247685.14, 11826.444, 0.39645457, -0.020196253, -130371.87, -130371.87, 0.0, 9.999877, 9.998311 
2.4505381e+3, 3.115986e+2, 165516.17, 271309.8, -170627.88, 0.28118077, 0.08956115, 397052.13, 397052.13, 0.000000000000427524, 10.000327, 10.001622 
2.4665259e+3, 1.2203524e+2, -1482915.9, -1721679.1, -388413.5, 0.016096216, 0.6337896, -1195951.5, 548133.3, 0.47722238, 10.004167, 9.999134 
2.4662085e+3, 1.3202754e+2, -1586020.0, -1715350.0, 156857.02, -0.15770452, 0.4307188, -1481021.6, 165133.73, 0.3557266, 10.001106, 9.998964 
2.4658972e+3, 1.4201581e+2, -1712742.6, -1689580.0, 117672.32, 0.100257024, -0.14617598, -1582920.5, -34655.535, 0.22774403, 9.998944, 9.999328 
2.4655797e+3, 1.5201133e+2, -1438623.0, -1464189.3, 22662.941, 0.017367875, -0.08695284, -1425386.6, 24920.127, 0.11809006, 10.000028, 9.999659 
2.465263e+3, 1.6200739e+2, -1230603.5, -1316384.6, 24310.262, 0.03999741, 0.045852285, -1224193.0, 128152.09, 0.04605504, 10.00077, 9.99969 
2.4649492e+3, 1.7200415e+2, -1157423.0, -1207925.8, -8749.405, 0.19899742, 0.20698223, -1155950.1, 98430.305, 0.012013259, 10.000508, 9.999852 
2.4646345e+3, 1.8200046e+2, -1127083.5, -1231170.6, -83395.734, 0.2736929, 0.36645994, -1080824.6, 75595.16, 0.0018483637, 10.000388, 9.999104 
2.4643166e+3, 1.9199505e+2, -874563.6, -1069101.4, -98943.73, 0.09673336, 0.3898599, -833084.2, 225389.69, 0.00018026956, 10.001509, 9.998984 
2.4639997e+3, 2.0198826e+2, -920957.6, -1405593.4, -73437.45, 0.01383795, 0.41124642, -910073.94, 50470.54, 0.0000007906511, 10.002092, 9.995731 
2.4636857e+3, 2.1197794e+2, -850935.75, -1448943.3, -293.70157, 0.17764634, 0.36714226, -850935.6, 11722.384, 0.0, 10.002492, 9.994537 
2.4633716e+3, 2.219689e+2, -478207.03, -681025.5, 18156.592, 0.32502446, 0.33390072, -476594.44, 288158.06, 0.0, 10.002053, 9.999366 
2.4630557e+3, 2.3196504e+2, -438599.56, -315977.66, 3874.1147, 0.36665553, 0.2624706, -315855.38, 350918.94, 0.0, 10.000429, 10.001934 
2.4627398e+3, 2.419609e+2, -659984.44, -634041.8, -9228.576, 0.37045026, 0.222809, -631093.9, -62292.215, 0.0, 9.999346, 9.999631 
2.4624225e+3, 2.5195497e+2, -244345.45, -436177.5, -51574.2, 0.2559807, 0.18636952, -231358.86, 239500.02, 0.0, 10.001793, 9.99911 
2.4621052e+3, 2.6194817e+2, -88093.71, -563167.6, -87624.54, 0.103643656, 0.15406741, -72447.2, 300478.47, 0.0, 10.003256, 9.9968815 
2.4617873e+3, 2.7193958e+2, 33560.77, -518563.88, -81674.164, -0.10089242, 0.12155962, 45389.18, 320401.8, 0.0, 10.003727, 9.996248 
2.4614729e+3, 2.8193226e+2, 186418.72, -197634.02, -3517.6387, -0.059520014, 0.17439951, 186450.94, 363535.97, 0.0, 10.003242, 9.998051 
2.4611665e+3, 2.919273e+2, 113083.88, -93808.82, 22174.254, 0.6176435, 0.26610333, 115433.77, 194561.55, 0.0, 10.001708, 9.998796 
2.4608584e+3, 3.019196e+2, -302974.13, -569025.8, -82925.88, 1.1163589, 0.19811922, -279243.56, -279243.56, 0.0, 9.999744, 9.996183 
2.4605298e+3, 3.1191152e+2, 88695.34, 48063.285, -144057.5, -0.18713297, 0.21257141, 213862.31, 213862.31, 0.0, 10.000658, 9.999907 
2.4765207e+3, 1.2234355e+2, -1415482.9, -1513758.8, -380955.8, -0.40251487, -0.115400195, -1080509.0, 660543.3, 0.46784535, 10.003612, 10.001324 
2.4762101e+3, 1.323449e+2, -1481671.8, -1512716.0, 45280.773, 0.38414663, 0.42791376, -1449326.5, 193713.53, 0.34520847, 10.001224, 10.000548 
2.4758935e+3, 1.4233735e+2, -1657888.8, -1693407.9, 96998.484, 0.29474896, 0.1811297, -1577037.4, -31923.643, 0.21743059, 9.999423, 9.999078 
2.4755737e+3, 1.523318e+2, -1449390.9, -1574951.8, 65556.23, -0.09388946, 0.22203217, -1421402.4, 25763.572, 0.109704144, 10.000409, 9.998713 
2.4752562e+3, 1.6232571e+2, -1265601.8, -1481317.0, 37803.91, -0.26369923, 0.2571016, -1259168.5, 90056.18, 0.040704507, 10.001147, 9.998362 
2.4749435e+3, 1.7231813e+2, -1223974.6, -1420752.9, -20478.299, 0.044686425, 0.14382286, -1221866.1, 29436.398, 0.00953522, 10.0008, 9.998257 
2.4746296e+3, 1.8231128e+2, -1106087.8, -1283163.8, -46512.8, 0.2048356, 0.11339209, -1094613.6, 58758.508, 0.0011160366, 10.000779, 9.998558 
2.4743125e+3, 1.92306e+2, -843349.25, -1094247.9, -55832.848, -0.0038930858, 0.1893781, -831485.6, 223937.02, 0.00006263998, 10.001876, 9.998642 
2.4739963e+3, 2.0230034e+2, -699221.6, -1082919.4, -45483.203, -0.10427251, 0.2864775, -693903.75, 263575.78, 0.0000000031066179, 10.002685, 9.997654 
2.4736834e+3, 2.1229364e+2, -584812.7, -1025916.8, 42670.37, 0.13285565, 0.3565819, -580722.9, 278830.63, 0.0, 10.003021, 9.997209 
2.4733691e+3, 2.2228694e+2, -360110.34, -576204.56, 29915.125, 0.31346762, 0.38085273, -356045.5, 405577.06, 0.0, 10.0026245, 9.999821 
2.4730512e+3, 2.322816e+2, -468378.5, -446438.0, -46689.508, 0.35632682, 0.2495976, -409447.28, 254216.45, 0.0, 10.000691, 10.000935 
2.4727343e+3, 2.4227604e+2, -648133.75, -777967.4, 48730.83, 0.3200834, 0.19399065, -631878.6, -66168.18, 0.0, 10.000033, 9.99832 
2.4724187e+3, 2.5226945e+2, -186069.94, -599388.56, 35677.87, 0.075360976, 0.25937164, -183012.83, 284766.03, 0.0, 10.002997, 9.99742 
2.4721038e+3, 2.622622e+2, 227968.66, -380975.9, -74557.57, -0.043376192, 0.2888291, 236964.39, 606817.2, 0.0, 10.005275, 9.997157 
2.4717905e+3, 2.7225378e+2, 347391.88, -284356.66, -83283.41, 0.19320822, 0.20455648, 358186.7, 630122.06, 0.0, 10.005494, 9.997025 
2.4714763e+3, 2.8224647e+2, 414699.47, -116646.0, -58420.633, 0.3285295, 0.22796093, 421046.9, 595052.6, 0.0, 10.004908, 9.997806 
2.4711598e+3, 2.9224026e+2, 152445.48, -185912.9, -113935.1, 0.21106389, 0.28136575, 187233.95, 263296.03, 0.0, 10.002402, 9.997866 
2.4708489e+3, 3.0223092e+2, -169317.78, -603387.44, -81258.3, 0.60116637, 0.14766882, -154604.84, -154604.84, 0.0, 10.001026, 9.995359 
2.4705291e+3, 3.122196e+2, 373836.94, 65550.0, -124926.086, 0.01561656, -0.03647138, 418104.0, 418104.0, 0.0, 10.003019, 9.998957 
2.4865173e+3, 1.2265757e+2, -2146700.8, -1879195.9, -390064.2, -0.19616233, -0.367695, -1600589.5, 137378.55, 0.45571485, 9.996816, 10.0008955 
2.4862058e+3, 1.3266104e+2, -1612985.5, -1686126.5, -42472.05, 0.35245827, 0.48973656, -1593508.9, 46434.973, 0.33319858, 10.000464, 9.999296 
2.4858882e+3, 1.4265472e+2, -1383561.3, -1603866.9, -112889.47, 0.16248198, 0.44164327, -1335987.5, 206023.19, 0.20679392, 10.001877, 9.998575 
2.48557e+3, 1.5264747e+2, -1394423.3, -1581399.5, -129543.87, -0.050580535, 0.3199768, -1328156.4, 115919.95, 0.10179194, 10.000988, 9.998419 
2.4852532e+3, 1.6264018e+2, -1443757.3, -1609643.1, -111091.05, -0.13171646, 0.2537218, -1388061.3, -41916.918, 0.036105353, 10.000088, 9.997995 
2.484939e+3, 1.726328e+2, -1318224.0, -1508404.4, -75458.58, 0.020026963, 0.18193257, -1291921.8, -43702.29, 0.0076701324, 10.000337, 9.997882 
2.4846245e+3, 1.8262523e+2, -1187941.3, -1376955.6, -10101.093, 0.11268172, 0.12365902, -1187402.9, -37108.715, 0.000687035, 10.000474, 9.998058 
2.4843086e+3, 1.9261822e+2, -1021813.1, -1212927.6, -5365.442, -0.032893203, 0.0502848, -1021662.56, 30695.223, 0.000019881356, 10.000841, 9.998298 
2.4839935e+3, 2.0261209e+2, -951856.3, -1106420.4, -53250.52, -0.07516445, 0.088003136, -935286.7, 19129.322, 0.0, 10.000571, 9.998491 
2.4836802e+3, 2.126079e+2, -959214.5, -1032051.9, -58642.598, 0.13320112, 0.26098433, -926602.2, -70139.63, 0.0, 9.999763, 9.9986925 
2.4833655e+3, 2.2260287e+2, -893794.7, -958438.3, -176409.2, 0.29744366, 0.3772079, -746770.75, 11744.407, 0.0, 9.999533, 9.9986725 
2.483047e+3, 2.3259597e+2, -507065.88, -679090.56, -310177.88, 0.30659655, 0.24917153, -271195.6, 389382.97, 0.0, 10.001366, 9.999007 
2.4827297e+3, 2.4258898e+2, -444553.9, -827730.3, -157802.22, 0.24983084, 0.19857806, -387933.34, 174711.72, 0.0, 10.002095, 9.996989 
2.4824157e+3, 2.5258186e+2, -418037.16, -811406.3, -47476.793, -0.0018205062, 0.27902997, -412388.16, 52332.543, 0.0, 10.001838, 9.996524 
2.4821028e+3, 2.625747e+2, -324302.28, -599412.7, -140897.53, -0.057804927, 0.3467891, -264947.5, 101846.64, 0.0, 10.0013075, 9.997568 
2.4817915e+3, 2.7256772e+2, -184966.75, -422013.34, -129018.625, 0.36704862, 0.2987307, -128294.23, 140564.86, 0.0, 10.001359, 9.998055 
2.4814768e+3, 2.8256053e+2, -146603.69, -457853.03, -117887.03, 0.46856776, 0.28665927, -106994.16, 63932.758, 0.0, 10.00137, 9.997167 
2.4811538e+3, 2.925521e+2, 122993.51, -280248.28, -132614.98, -0.16682123, 0.19405459, 162697.53, 235705.31, 0.0, 10.002581, 9.997108 
2.4808417e+3, 3.0254307e+2, 11848.99, -527503.94, 5548.757, 0.17622942, 0.13918355, 11906.068, 11906.068, 0.0, 10.002347, 9.995242 
2.4805307e+3, 3.1253266e+2, 196174.67, -4898.8755, -10430.268, 0.3399705, 0.0103494385, 196714.27, 196714.27, 0.0, 10.001713, 9.999123 
2.4965115e+3, 1.2297407e+2, -1984160.9, -1913926.5, -98969.484, -0.04439084, -0.37131858, -1844028.5, -109165.46, 0.43991756, 9.99837, 9.999398 
2.496198e+3, 1.3297611e+2, -1698462.9, -2045338.3, 61346.105, -0.036657184, 0.61323225, -1687933.3, -51069.957, 0.31901658, 10.001051, 9.996555 
2.4958816e+3, 1.4296883e+2, -1379686.8, -1640067.3, -108164.93, -0.24242385, 0.65259665, -1340616.4, 198327.97, 0.19536594, 10.002039, 9.998229 
2.4955684e+3, 1.5295875e+2, -1357331.3, -1535341.8, -150264.16, 0.14758168, 0.2368568, -1271690.4, 169342.23, 0.094030365, 10.001116, 9.99869 
2.4952534e+3, 1.6295101e+2, -1331825.8, -1459050.0, -96034.16, 0.34053773, 0.07774285, -1280246.5, 62855.293, 0.032013185, 10.000447, 9.998853 
2.4949355e+3, 1.7294815e+2, -1207073.8, -1344355.6, -51451.965, 0.10425238, 0.3661839, -1189930.8, 55200.465, 0.0062260167, 10.000612, 9.998874 
2.4946189e+3, 1.8294244e+2, -1123760.6, -1317404.6, 19354.39, -0.035919137, 0.42479536, -1121845.1, 25339.768, 0.00043419475, 10.000777, 9.998315 
2.4943057e+3, 1.9293132e+2, -1000033.0, -1225624.0, 17758.27, 0.05390507, -0.035443746, -998643.7, 50638.98, 0.0000058323185, 10.00106, 9.998118 
2.4939914e+3, 2.0292254e+2, -932229.7, -1117224.6, -82046.0, 0.12687148, -0.23630655, -901085.25, 50277.805, 0.000000000090419006, 10.000768, 9.998319 
2.4936754e+3, 2.1291895e+2, -1027140.4, -1105566.1, -115736.78, 0.20711516, 0.032743324, -944154.06, -90750.26, 0.0, 9.999443, 9.998343 
2.4933594e+3, 2.2291371e+2, -1098284.5, -1339138.0, -149297.02, 0.24323963, 0.2529584, -1026898.3, -271436.8, 0.0, 9.999323, 9.996147 
2.4930425e+3, 2.3290507e+2, -672717.56, -1135716.3, -279509.38, 0.20517889, 0.27734193, -541287.94, 116265.14, 0.0, 10.001835, 9.99565 
2.4927275e+3, 2.4289681e+2, -257306.75, -670231.8, -243148.95, 0.21115087, 0.2807858, -144789.36, 414849.63, 0.0, 10.003073, 9.997585 
2.4924155e+3, 2.5288945e+2, -365490.84, -625121.94, -158827.27, 0.30795875, 0.19368751, -290176.72, 171536.11, 0.0, 10.001457, 9.997994 
2.4921015e+3, 2.6288316e+2, -359189.94, -406019.13, -197446.39, 0.28268775, 0.182415, -183774.66, 179998.36, 0.0, 10.000116, 9.999472 
2.4917835e+3, 2.7287927e+2, -302978.72, -284062.28, -158995.75, 0.055595327, 0.2683704, -134243.67, 131557.94, 0.0, 9.999676, 9.999828 
2.4914676e+3, 2.8287375e+2, -236895.56, -390632.06, -38669.83, -0.0004440626, 0.28778544, -227716.83, -59865.754, 0.0, 10.000212, 9.998195 
2.491156e+3, 2.9286483e+2, 228656.64, -153861.47, -11402.455, 0.27052557, 0.0800466, 228996.23, 298940.97, 0.0, 10.002929, 9.997831 
2.4908471e+3, 3.0285802e+2, 367717.75, -172175.83, 20527.762, 0.8522851, 0.14413013, 368497.13, 368497.13, 0.0, 10.003999, 9.996866 
2.4905251e+3, 3.128536e+2, 158339.72, 119141.414, -71034.336, 0.18251926, 0.49162045, 212429.13, 212429.13, 0.0, 10.00085, 10.000359 
2.506508e+3, 1.2329074e+2, -1606565.8, -1788561.9, -115550.555, 0.008203557, 0.0031016946, -1550483.8, 181283.47, 0.42027465, 10.002052, 9.998677 
2.5061923e+3, 1.332894e+2, -1605495.0, -1955387.3, 9121.451, -0.25453708, 0.6092489, -1605257.4, 28536.209, 0.30251706, 10.00165, 9.996879 
2.505879e+3, 1.432807e+2, -1534635.3, -1727625.1, -87715.414, -0.123532444, 0.49695596, -1500726.0, 35158.19, 0.18302314, 10.000721, 9.998231 
2.505565e+3, 1.5327115e+2, -1430450.5, -1579975.5, -127736.42, 0.21514711, 0.12836981, -1357206.1, 80761.46, 0.08629053, 10.000575, 9.99863 
2.5052497e+3, 1.6326387e+2, -1312551.8, -1479404.0, -63336.348, 0.4006649, 0.031445935, -1291233.4, 48799.85, 0.028287582, 10.000729, 9.998567 
2.504932e+3, 1.7326148e+2, -1039710.5, -1288967.1, -97427.73, 0.11792276, 0.37990823, -1006147.8, 235912.3, 0.0050760456, 10.001924, 9.998602 
2.5046155e+3, 1.832561e+2, -947949.44, -1247944.4, -107205.87, -0.04548278, 0.4858556, -913576.8, 230533.73, 0.00028139996, 10.002091, 9.99815 
2.5043023e+3, 1.9324458e+2, -1001423.3, -1220827.3, -92045.62, 0.07868679, -0.030042011, -967922.94, 78287.25, 0.0000014559199, 10.001094, 9.998112 
2.503988e+3, 2.0323518e+2, -944728.1, -1213179.1, -171681.03, 0.19342999, -0.26831996, -861029.6, 87265.94, 0.0, 10.001082, 9.997524 
2.503672e+3, 2.1323076e+2, -547582.8, -956991.94, -222812.58, 0.23188977, -0.020923076, -449716.1, 400629.16, 0.0, 10.003114, 9.997601 
2.503355e+3, 2.2322479e+2, -617436.6, -1228467.4, -183715.53, 0.22065277, 0.20631032, -566453.7, 185957.3, 0.0, 10.003177, 9.995062 
2.5030383e+3, 2.3321536e+2, -874941.4, -1352629.8, -75246.08, 0.11888048, 0.24880078, -863368.9, -208856.22, 0.0, 10.00096, 9.994587 
2.502724e+3, 2.4320662e+2, -787249.56, -902998.4, 15805.209, 0.16143969, 0.27861264, -785130.2, -228524.47, 0.0, 9.999344, 9.997795 
2.5024134e+3, 2.531996e+2, -621984.56, -666285.7, -7375.012, 0.48484692, 0.17724751, -620789.06, -162111.89, 0.0, 9.999387, 9.998693 
2.502099e+3, 2.631938e+2, -386016.78, -302279.66, -111357.414, 0.48054764, 0.13971719, -225179.94, 135550.08, 0.0, 9.999453, 10.000507 
2.5017762e+3, 2.7319056e+2, -128590.55, -65535.62, -123264.1, -0.16001819, 0.17141141, 30169.064, 292914.7, 0.0, 10.000301, 10.001033 
2.5014603e+3, 2.8318593e+2, -214819.84, -345306.72, -24913.432, -0.2697619, 0.19806252, -210225.0, -45439.44, 0.0, 10.000238, 9.998504 
2.5011575e+3, 2.9317826e+2, -198868.5, -322393.34, -20431.947, 0.6840111, 0.068701595, -195576.63, -128700.79, 0.0, 9.99986, 9.998148 
2.5008485e+3, 3.03173e+2, -108193.6, -244592.08, -148428.97, 1.1415347, 0.20448475, -13045.681, -13045.681, 0.0, 10.000076, 9.998257 
2.5005186e+3, 3.131726e+2, 217801.84, 189137.53, -184267.28, -0.14906283, 0.75765187, 388293.5, 388293.5, 0.0, 10.001086, 10.000725 
2.5165e+3, 1.23607196e+2, -1578150.6, -1694309.9, -60501.61, -0.5211122, 0.62143767, -1552363.1, 176314.77, 0.3973432, 10.001846, 9.999396 
2.5161886e+3, 1.336004e+2, -1481877.6, -1607614.5, -15924.5625, -0.3293655, 0.4618689, -1479892.1, 150848.47, 0.28406283, 10.001641, 9.999325 
2.5158793e+3, 1.4359045e+2, -1476448.3, -1650018.1, -100039.52, 0.28599402, 0.06810595, -1430796.3, 102037.25, 0.16993596, 10.000984, 9.9986515 
2.5155598e+3, 1.535842e+2, -1389855.1, -1566008.0, -126106.72, 0.11913583, 0.037280228, -1324112.3, 110775.68, 0.078587286, 10.000886, 9.998574 
2.5152427e+3, 1.6357782e+2, -1324910.3, -1609800.9, -14471.164, 0.0531946, 0.083491884, -1324177.0, 12771.986, 0.024857625, 10.001151, 9.997469 
2.514929e+3, 1.7357163e+2, -1080720.3, -1464291.8, -43999.57, 0.08918888, 0.1990337, -1075737.8, 163279.77, 0.0041356636, 10.002282, 9.99724 
2.514614e+3, 1.8356505e+2, -866081.9, -1183711.9, -135086.56, 0.055437874, 0.2598963, -816400.9, 324682.38, 0.00018434241, 10.002529, 9.998378 
2.514298e+3, 1.9355771e+2, -938842.5, -1151044.8, -133448.9, -0.006828838, 0.13103884, -874455.94, 168689.13, 0.00000026313862, 10.00133, 9.9984865 
2.5139832e+3, 2.0355022e+2, -938340.2, -1301066.9, -99294.2, 0.023977144, 0.10216313, -912937.94, 32277.525, 0.0, 10.001512, 9.996709 
2.5136703e+3, 2.1354319e+2, -504512.34, -1073346.9, -142050.88, 0.20532599, 0.21449314, -471011.97, 376281.94, 0.0, 10.003986, 9.996396 
2.513355e+3, 2.2353597e+2, -220267.48, -671711.2, -274988.88, 0.25719103, 0.25463313, -90223.63, 659144.5, 0.0, 10.004286, 9.998362 
2.513034e+3, 2.3352815e+2, -622309.3, -791661.25, -152603.92, 0.113294475, 0.07665639, -532463.2, 118975.13, 0.0, 10.000767, 9.998542 
2.5127167e+3, 2.4352139e+2, -918701.06, -1019300.3, 102633.86, 0.08480732, 0.10243025, -854703.9, -301197.47, 0.0, 9.998639, 9.997337 
2.5124052e+3, 2.5351655e+2, -782410.94, -922287.0, 72079.055, 0.2712294, 0.37855935, -751916.3, -296347.84, 0.0, 9.99901, 9.997138 
2.512093e+3, 2.635101e+2, -402551.97, -375956.0, -37923.91, 0.4081517, 0.39619693, -349066.2, 8565.77, 0.0, 9.999595, 9.99994 
2.511778e+3, 2.7350128e+2, -123366.63, -135281.25, -79849.74, 0.41884637, -0.057644088, -49252.28, 210442.66, 0.0, 10.000623, 10.000418 
2.5114623e+3, 2.8349462e+2, -256518.86, -500101.25, -99376.125, 0.3366753, -0.1424786, -221120.02, -59364.94, 0.0, 10.000504, 9.997321 
2.5111464e+3, 2.9349133e+2, -548733.75, -658263.5, -160828.25, 0.1951956, 0.30622566, -433601.84, -369788.4, 0.0, 9.998126, 9.996696 
2.510833e+3, 3.034869e+2, -316356.5, -199109.95, -141869.13, 0.28572822, 0.5472948, -104229.03, -104229.03, 0.0, 9.997982, 9.999588 
2.51052e+3, 3.1348044e+2, 476813.34, 441285.13, -132209.1, 0.31804234, 0.33746052, 592446.44, 592446.44, 0.0, 10.002258, 10.001919 
2.526497e+3, 1.23914994e+2, -1783008.6, -1744545.5, -36417.098, -0.42192972, 0.36892506, -1722593.9, 3062.6572, 0.37209463, 9.99946, 10.00002 
2.5261864e+3, 1.339098e+2, -1619415.6, -1630390.3, -121245.95, -0.13153158, 0.280684, -1503532.9, 124169.34, 0.26429734, 10.000146, 9.99995 
2.5258765e+3, 1.4390168e+2, -1546695.0, -1692996.9, -256222.86, 0.4064554, 0.019666823, -1353385.4, 176392.08, 0.15642525, 10.000596, 9.998572 
2.525556e+3, 1.538959e+2, -1316244.1, -1551754.0, -287673.25, 0.1395942, 0.03132289, -1123158.0, 308673.3, 0.071005836, 10.001616, 9.998323 
2.525239e+3, 1.6388968e+2, -1209133.3, -1571343.6, -139495.1, 0.017633488, 0.10141111, -1161638.4, 172254.81, 0.021693112, 10.002085, 9.997285 
2.524926e+3, 1.7388266e+2, -1139874.1, -1499549.3, -79554.6, 0.048179477, 0.12946454, -1123063.5, 112905.484, 0.00335279, 10.001955, 9.9971485 
2.5246117e+3, 1.8387589e+2, -950704.94, -1250898.3, -144268.5, 0.06051162, 0.1834516, -892613.2, 245423.66, 0.00011963712, 10.002064, 9.998151 
2.5242952e+3, 1.938698e+2, -721710.56, -1073064.9, -178735.11, -0.0005253102, 0.1897501, -646771.06, 393318.1, 0.00000002568285, 10.002917, 9.998268 
2.5239798e+3, 2.0386317e+2, -837675.2, -1251313.4, -97761.39, 0.02576755, 0.25077522, -815733.7, 126419.4, 0.0, 10.002204, 9.9967165 
2.5236678e+3, 2.1385548e+2, -1094736.3, -1350180.5, -7670.461, 0.18728238, 0.27523515, -1094506.1, -250268.47, 0.0, 9.999895, 9.996464 
2.523352e+3, 2.2384821e+2, -843356.44, -780504.44, -207229.98, 0.23076765, 0.24263744, -602331.1, 143978.4, 0.0, 9.999201, 10.00006 
2.5230294e+3, 2.3384188e+2, -469494.7, -477317.94, -268431.78, 0.058342487, -0.0005104543, -204946.03, 443412.22, 0.0, 10.000806, 10.000675 
2.522711e+3, 2.4383637e+2, -611134.3, -959947.5, -39394.42, 0.0028716857, 0.0559817, -606740.5, -56328.992, 0.0, 10.001174, 9.996514 
2.5223988e+3, 2.5383225e+2, -650031.2, -984039.2, 8145.7173, 0.11853133, 0.4902021, -649832.7, -197361.05, 0.0, 10.000491, 9.995987 
2.5220874e+3, 2.6382503e+2, -402645.94, -483343.97, -45052.61, 0.36306456, 0.5309086, -382515.34, -27970.602, 0.0, 10.000075, 9.998969 
2.5217775e+3, 2.738129e+2, -213985.06, -274668.22, -72281.3, 0.81729263, -0.17843741, -165935.33, 90702.81, 0.0, 10.000431, 9.999537 
2.5214615e+3, 2.838049e+2, -363145.75, -661524.2, -156223.97, 0.69459844, -0.30645332, -296317.94, -137605.05, 0.0, 10.000279, 9.996312 
2.5211346e+3, 2.9380396e+2, -430968.78, -703433.4, -135474.55, -0.35235906, 0.46232617, -375074.6, -314321.16, 0.0, 9.999399, 9.995765 
2.5208202e+3, 3.0380005e+2, -163638.25, -21976.404, 80959.39, -0.35850635, 0.7711776, 14763.31, 14763.31, 0.0, 9.998616, 10.000497 
2.520518e+3, 3.137858e+2, 45917.285, 349245.38, 167346.31, 0.4010272, -0.32802278, 423428.13, 423428.13, 0.0, 9.9988985, 10.002872 
2.536498e+3, 1.2421817e+2, -1683090.9, -1696412.8, 26282.504, 0.14806944, -0.34900796, -1662638.4, 60033.313, 0.34545884, 10.000212, 10.0000925 
2.5361848e+3, 1.342184e+2, -1567343.9, -1634739.8, -77020.016, 0.14976187, 0.14647155, -1516972.6, 107699.26, 0.24384478, 10.000643, 9.99962 
2.535871e+3, 1.4421341e+2, -1508433.5, -1689073.4, -196438.42, 0.2640893, 0.2295855, -1382545.8, 144177.6, 0.14280652, 10.000921, 9.998397 
2.5355545e+3, 1.5420584e+2, -1274802.8, -1541783.3, -223217.89, 0.26853088, 0.08723298, -1148204.9, 280595.53, 0.06363834, 10.001945, 9.998212 
2.5352383e+3, 1.6419937e+2, -1073919.8, -1378066.4, -120522.9, 0.17890733, 0.09561424, -1031951.7, 298913.9, 0.0187796, 10.002465, 9.998425 
2.534922e+3, 1.7419434e+2, -1009037.25, -1299026.6, -75500.81, -0.05906514, 0.20387624, -990557.7, 242358.73, 0.0026956536, 10.002229, 9.998401 
2.5346076e+3, 1.8418783e+2, -923636.44, -1277354.1, -111828.766, -0.09380842, 0.23461205, -891247.3, 243731.58, 0.00007576087, 10.002421, 9.997784 
2.534295e+3, 1.9417958e+2, -706945.5, -1140339.0, -142710.48, 0.14491071, 0.096814044, -664174.06, 372880.7, 0.00000000011876218, 10.003324, 9.997611 
2.53398e+3, 2.0417264e+2, -621715.56, -882445.4, -186640.02, 0.24570644, 0.060422406, -524419.5, 414700.84, 0.0, 10.002523, 9.999088 
2.5336623e+3, 2.1416745e+2, -976584.3, -1002642.4, -94260.08, 0.19163921, 0.08648225, -894457.06, -53284.063, 0.0, 9.99943, 9.999069 
2.533344e+3, 2.2416212e+2, -985292.8, -961887.2, -108967.336, 0.088761404, 0.14877239, -863996.06, -120770.06, 0.0, 9.998682, 9.999065 
2.5330243e+3, 2.3415682e+2, -523006.7, -687710.0, -189479.2, -0.06925462, 0.18034588, -398756.9, 246519.38, 0.0, 10.00119, 9.999064 
2.532708e+3, 2.441506e+2, -428779.9, -825015.06, -90369.17, -0.023564748, 0.2392947, -409142.66, 138196.2, 0.0, 10.002177, 9.996969 
2.5323966e+3, 2.5414345e+2, -510412.16, -844082.06, -47547.12, 0.29496828, 0.31643024, -503769.06, -54352.65, 0.0, 10.001115, 9.996657 
2.5320834e+3, 2.6413608e+2, -363401.97, -522732.1, -42680.098, 0.42264757, 0.32486248, -352689.4, -1199.9805, 0.0, 10.000572, 9.998463 
2.5317687e+3, 2.7412793e+2, -249630.72, -404121.56, -74233.86, 0.36370507, 0.11200743, -219742.94, 33815.63, 0.0, 10.000619, 9.998577 
2.5314528e+3, 2.8412092e+2, -200683.11, -372432.1, -148608.36, 0.26957583, 0.056823228, -114921.74, 40704.477, 0.0, 10.000497, 9.998173 
2.531133e+3, 2.9411602e+2, -148758.48, -331518.78, -78938.76, -0.0034842794, 0.23297572, -119384.09, -61696.727, 0.0, 10.000325, 9.997869 
2.5308198e+3, 3.0411163e+2, -48702.203, 77284.48, 123243.06, 0.15278485, 0.36843172, 152700.0, 152700.0, 0.0, 9.999228, 10.000882 
2.5305098e+3, 3.141059e+2, -274087.78, 201320.95, 153717.2, 0.36612996, 0.15238121, 246693.16, 246693.16, 0.0, 9.9966345, 10.002985 
2.5464958e+3, 1.2453101e+2, -1536966.0, -1600273.4, 74152.62, 0.2817054, -0.2307222, -1487993.6, 231616.34, 0.31815624, 10.001595, 10.000342 
2.5461826e+3, 1.3453048e+2, -1308580.6, -1459881.5, 6637.194, 0.23699069, 0.13236143, -1308290.1, 313324.2, 0.22319707, 10.0026865, 10.000058 
2.5458664e+3, 1.4452569e+2, -1234611.1, -1515077.6, -57274.125, 0.105399504, 0.2146112, -1223366.1, 300297.34, 0.12934339, 10.00286, 9.998641 
2.5455526e+3, 1.5451919e+2, -1209214.5, -1486741.0, -51276.703, 0.3458232, 0.16300341, -1200043.6, 225688.58, 0.05657354, 10.002273, 9.998441 
2.545237e+3, 1.64513e+2, -1160350.4, -1414475.8, 50036.33, 0.32515782, 0.20365766, -1150853.4, 176941.64, 0.016116831, 10.00184, 9.998466 
2.5449196e+3, 1.7450762e+2, -1011005.0, -1297385.5, 10434.898, -0.07767199, 0.2687967, -1010625.3, 219221.55, 0.0021455006, 10.002211, 9.998409 
2.5446042e+3, 1.8450068e+2, -1062347.5, -1347876.9, -55095.887, -0.13927184, 0.26242268, -1052085.0, 79827.25, 0.000046550977, 10.001508, 9.997737 
2.5442925e+3, 1.944917e+2, -1212578.6, -1379674.1, -25691.525, 0.21039882, 0.045989964, -1208717.6, -174721.52, 0.0, 9.999866, 9.997621 
2.543977e+3, 2.0448479e+2, -1040530.25, -991270.1, -143665.16, 0.3190071, -0.015780471, -870139.0, 65921.83, 0.0, 9.999274, 9.999905 
2.5436562e+3, 2.1448058e+2, -857145.7, -841445.8, -196507.47, 0.10665562, 0.010312878, -652631.56, 185469.19, 0.0, 9.999826, 9.999985 
2.5433373e+3, 2.2447573e+2, -823355.25, -1007995.6, -144767.22, -0.020644458, 0.11961211, -743976.4, -3826.8608, 0.0, 10.000389, 9.997915 
2.5430205e+3, 2.3447025e+2, -578391.25, -854361.1, -151111.86, -0.07295617, 0.24196097, -511743.25, 130464.6, 0.0, 10.001475, 9.997765 
2.5427055e+3, 2.4446347e+2, -408409.25, -739451.6, -104884.34, 0.024920603, 0.2888583, -377976.38, 166299.02, 0.0, 10.002037, 9.997616 
2.5423932e+3, 2.5445497e+2, -328707.97, -650127.06, -38918.6, 0.30790588, 0.12693879, -324062.7, 122293.125, 0.0, 10.001932, 9.997588 
2.5420785e+3, 2.6444784e+2, -349285.0, -603376.06, -16093.89, 0.3107608, 0.15129593, -348269.7, 156.3485, 0.0, 10.001063, 9.997674 
2.5417602e+3, 2.7444258e+2, -457765.66, -608310.4, -34530.45, -0.028128022, 0.31021658, -450223.28, -199742.08, 0.0, 9.999661, 9.997633 
2.541445e+3, 2.844365e+2, -352276.28, -271063.56, -134529.2, -0.012247921, 0.33181128, -171145.95, -18605.064, 0.0, 9.998711, 9.999737 
2.5411317e+3, 2.944289e+2, -273446.22, -176056.75, -92765.23, 0.36150292, 0.035676528, -119982.38, -65371.047, 0.0, 9.998557, 9.9997835 
2.540818e+3, 3.04423e+2, -246996.8, -97110.305, -3186.718, 0.5424356, -0.04989573, -97042.586, -97042.586, 0.0, 9.998199, 10.000196 
2.5405005e+3, 3.1442457e+2, -118597.68, 347342.13, -43578.06, 0.20192142, 0.52599394, 351382.8, 351382.8, 0.0, 9.997382, 10.003649 
2.5564957e+3, 1.2484972e+2, -1448255.3, -1504691.8, 87716.734, 0.49757427, 0.4090896, -1384329.6, 332170.03, 0.2908175, 10.002062, 10.000987 
2.55618e+3, 1.3484395e+2, -1216637.8, -1319255.0, 61409.117, 0.16804044, 0.15844466, -1187923.5, 430623.63, 0.2027681, 10.002863, 10.001155 
2.5558624e+3, 1.4483826e+2, -1158464.6, -1398097.0, -77964.836, -0.13965523, 0.058971222, -1135331.8, 385268.72, 0.11625642, 10.003023, 9.9994545 
2.55555e+3, 1.548352e+2, -1118346.6, -1350252.1, -62955.47, 0.357453, 0.27229077, -1102358.3, 320276.3, 0.04988728, 10.002504, 9.999281 
2.5552353e+3, 1.6482972e+2, -1168630.6, -1526081.4, 79787.81, 0.42072284, 0.38979757, -1151629.5, 173060.81, 0.013707004, 10.002221, 9.997529 
2.554918e+3, 1.7482185e+2, -1024843.8, -1413821.1, 44597.008, 0.0059191813, 0.32111406, -1019796.2, 206970.94, 0.0016894786, 10.00256, 9.9974575 
2.5546014e+3, 1.848142e+2, -937394.9, -1161575.9, -108928.87, -0.09707901, 0.239157, -893185.1, 235654.33, 0.000027889511, 10.001816, 9.998862 
2.5542867e+3, 1.9480672e+2, -1129778.1, -1214755.3, -70314.7, 0.15876368, 0.074048005, -1090111.8, -59204.527, 0.0, 9.9998865, 9.998747 
2.5539696e+3, 2.0480028e+2, -1122354.5, -1172480.9, -92802.3, 0.17272359, 0.063282326, -1051290.6, -118321.77, 0.0, 9.999302, 9.998651 
2.5536495e+3, 2.1479505e+2, -903685.4, -1027289.75, -154525.53, -0.07823664, 0.14666073, -799061.44, 35960.742, 0.0, 10.000177, 9.998551 
2.553333e+3, 2.247885e+2, -734820.5, -974974.4, -106788.72, -0.058202136, 0.16580622, -694204.25, 42883.395, 0.0, 10.001026, 9.997837 
2.5530204e+3, 2.3478071e+2, -528458.9, -840851.1, -109765.25, 0.24672239, 0.077051364, -493747.56, 145416.66, 0.0, 10.001859, 9.997674 
2.552705e+3, 2.4477376e+2, -229941.6, -464733.44, -75197.21, 0.21214633, 0.028700665, -207922.94, 333305.8, 0.0, 10.002418, 9.999325 
2.5523862e+3, 2.5476754e+2, -133546.66, -378999.75, -15065.426, -0.14733203, -0.056617923, -132625.42, 310656.22, 0.0, 10.002479, 9.9992 
2.5520703e+3, 2.6476145e+2, -315719.75, -642842.56, -59105.438, -0.13496724, 0.017070796, -305368.0, 39974.51, 0.0, 10.001499, 9.997203 
2.5517577e+3, 2.7475572e+2, -543112.3, -723146.94, -82205.75, 0.25106803, 0.20213112, -511224.3, -263814.56, 0.0, 9.999362, 9.9970045 
2.5514418e+3, 2.8474957e+2, -391011.66, -225867.02, -117003.2, 0.35879844, 0.22399318, -165233.4, -15762.938, 0.0, 9.998128, 10.000339 
2.5511226e+3, 2.9474276e+2, -355079.2, -170098.5, -108553.414, 0.17276984, -0.029941672, -119976.4, -68449.21, 0.0, 9.997755, 10.000231 
2.5508088e+3, 3.0473554e+2, -387938.7, -381772.03, -15433.363, 0.34271073, -0.18109137, -369117.03, -369117.03, 0.0, 9.998119, 9.998298 
2.5504923e+3, 3.1473166e+2, -189035.72, -90689.3, -134027.33, 0.0407687, 0.07430962, 2900.6787, 2900.6787, 0.0, 9.998595, 10.000061 
2.566491e+3, 1.2516508e+2, -1382104.6, -1568568.4, 108000.734, 0.2755264, 0.4442661, -1332660.9, 380749.44, 0.26403108, 10.003164, 9.999801 
2.5661772e+3, 1.3515851e+2, -1445040.0, -1522929.4, 38297.69, 0.16749561, 0.21964979, -1429364.1, 186104.39, 0.18292536, 10.001373, 10.000111 
2.5658605e+3, 1.4515232e+2, -1383681.6, -1552553.9, -126339.73, -0.06986235, 0.14233057, -1316159.9, 201368.03, 0.1037245, 10.001454, 9.999067 
2.5655472e+3, 1.5514901e+2, -988613.5, -1337965.6, -187819.2, 0.27139622, 0.3442032, -906798.25, 512765.47, 0.043632858, 10.003644, 9.998809 
2.5652328e+3, 1.6514343e+2, -931519.3, -1333618.3, -75230.875, 0.35723498, 0.4291507, -917904.94, 403713.3, 0.011545959, 10.003581, 9.998168 
2.564916e+3, 1.7513539e+2, -1137392.1, -1409041.8, 2240.968, 0.092682414, 0.26299214, -1137373.8, 86320.086, 0.0013158798, 10.001575, 9.997943 
2.5645992e+3, 1.8512814e+2, -1078758.0, -1178959.9, -116639.09, 0.02954949, 0.1788776, -1001915.0, 123846.23, 0.000016496271, 10.000669, 9.99928 
2.5642824e+3, 1.9512184e+2, -1008600.25, -1117315.5, -126152.6, 0.18401052, 0.07676528, -925592.56, 102225.74, 0.0, 10.00057, 9.999084 
2.5639647e+3, 2.0511566e+2, -901951.06, -1168201.6, -62489.293, 0.12616701, 0.12641668, -888014.25, 41864.41, 0.0, 10.001284, 9.997725 
2.563645e+3, 2.1510966e+2, -603367.94, -986640.6, -72474.04, -0.16189592, 0.21428445, -590121.44, 241820.47, 0.0, 10.002722, 9.997602 
2.56333e+3, 2.2510238e+2, -535982.9, -871821.7, -44753.47, -0.05686984, 0.21402122, -530121.4, 203892.52, 0.0, 10.002373, 9.997892 
2.5630185e+3, 2.3509379e+2, -739453.9, -932085.5, -15162.813, 0.39365852, 0.02710006, -738267.6, -102172.15, 0.0, 10.000373, 9.99776 
2.562702e+3, 2.4508655e+2, -664996.6, -631907.75, -25391.732, 0.28792325, -0.062611155, -618146.1, -79985.37, 0.0, 9.999289, 9.99967 
2.5623798e+3, 2.5508088e+2, -626808.2, -570152.06, -76169.805, -0.39958605, -0.14294194, -517213.2, -77005.73, 0.0, 9.998916, 9.999593 
2.5620642e+3, 2.6507536e+2, -705960.0, -835182.0, -178319.3, -0.31609637, -0.038801722, -580907.2, -238644.03, 0.0, 9.99887, 9.997136 
2.5617546e+3, 2.7506968e+2, -566364.94, -731544.0, -112887.96, 0.51557887, 0.1381057, -509080.5, -264749.84, 0.0, 9.999221, 9.9970045 
2.5614375e+3, 2.8506306e+2, -309188.22, -212035.63, -121775.266, 0.5790931, 0.12586363, -129505.586, 16890.455, 0.0, 9.998829, 10.000088 
2.561113e+3, 2.9505613e+2, -336955.75, -196261.47, -156921.3, -0.124007046, -0.1248036, -94640.56, -46187.875, 0.0, 9.998059, 9.99989 
2.560801e+3, 3.0504987e+2, -497757.34, -616376.75, -2967.766, 0.2035046, -0.07555709, -497683.13, -497683.13, 0.0, 9.9982, 9.996618 
2.5604874e+3, 3.150413e+2, -285861.03, -235267.58, 39013.723, 0.12357581, -0.14822266, -214067.05, -214067.05, 0.0, 9.998434, 9.99911 
2.576484e+3, 1.2547992e+2, -1467083.8, -1849451.6, 68454.17, -0.32995412, 0.34318691, -1455198.1, 255121.42, 0.23823525, 10.003403, 9.99742 
2.5761747e+3, 1.3547345e+2, -1511584.4, -1755517.0, 614.3004, 0.23628245, 0.32272965, -1511582.9, 100803.586, 0.16394834, 10.001688, 9.998209 
2.5758594e+3, 1.4546676e+2, -1412761.3, -1694387.0, -17385.893, 0.14372832, 0.3507117, -1411692.0, 102763.375, 0.09188186, 10.001748, 9.997924 
2.575544e+3, 1.5546039e+2, -1021337.5, -1462571.4, -75246.07, 0.07241456, 0.37322912, -1008858.25, 407662.94, 0.03784501, 10.003837, 9.997854 
2.575229e+3, 1.6545421e+2, -740352.44, -974343.06, -126123.516, 0.11858066, 0.32362032, -685315.6, 633262.25, 0.009625426, 10.003754, 10.000561 
2.5749138e+3, 1.7544802e+2, -937531.8, -1055250.3, -52876.004, 0.18227303, 0.12001857, -917269.1, 303359.6, 0.0010124295, 10.001834, 10.000239 
2.5745973e+3, 1.854422e+2, -1049742.4, -1178559.0, -104101.64, 0.23255897, 0.07652166, -991735.1, 130945.5, 0.000009793076, 10.000918, 9.99916 
2.57428e+3, 1.9543675e+2, -970400.3, -1122085.9, -102712.09, 0.32335296, 0.09438221, -918564.2, 106168.3, 0.0, 10.000904, 9.998898 
2.5739625e+3, 2.0543055e+2, -809852.6, -1116490.4, 15867.737, 0.23217137, 0.14658184, -809033.75, 117760.71, 0.0, 10.001834, 9.997833 
2.573645e+3, 2.1542393e+2, -476618.53, -921517.9, 6410.284, -0.019289093, 0.18028595, -476526.2, 352337.13, 0.0, 10.003523, 9.997685 
2.573328e+3, 2.254178e+2, -393565.0, -699169.3, -109105.74, -0.055329777, 0.24272361, -358610.5, 372313.3, 0.0, 10.002883, 9.998818 
2.5730112e+3, 2.3541193e+2, -700292.9, -831829.94, -71005.84, 0.126193, 0.25876638, -669276.44, -36297.78, 0.0, 10.000255, 9.998505 
2.572695e+3, 2.4540448e+2, -903249.6, -986552.4, -25305.154, 0.20727219, 0.22231439, -896165.1, -361113.06, 0.0, 9.998663, 9.99754 
2.5723785e+3, 2.55396e+2, -912561.1, -946211.8, -117264.42, 0.15086283, 0.093875185, -810921.1, -373783.97, 0.0, 9.99794, 9.997499 
2.5720626e+3, 2.6538965e+2, -626207.5, -523416.28, -146713.69, 0.19516753, 0.09279453, -419356.38, -80157.76, 0.0, 9.998228, 9.999584 
2.571748e+3, 2.7538487e+2, -387754.78, -395969.75, -56956.277, 0.40175796, 0.14205389, -334758.06, -93515.305, 0.0, 9.999359, 9.999248 
2.5714293e+3, 2.8537852e+2, -353920.38, -457050.38, -128445.336, 0.35245997, 0.14600785, -267076.0, -123769.41, 0.0, 9.9994545, 9.998103 
2.5711077e+3, 2.9537126e+2, -397870.4, -453655.72, -195169.39, 0.03678234, 0.080070496, -228610.61, -183230.47, 0.0, 9.998589, 9.997878 
2.570796e+3, 3.05368e+2, -310435.25, -226061.34, 42666.848, 0.40012443, 0.3840693, -208246.64, -208246.64, 0.0, 9.998157, 9.999332 
2.57048e+3, 3.153594e+2, -64558.156, 268964.34, 11517.434, 0.0639775, 0.06468269, 269361.6, 269361.6, 0.0, 9.99819, 10.002713 
2.5864848e+3, 1.2579264e+2, -1472599.6, -1745915.8, -13751.728, -0.08995175, 0.110619165, -1471909.4, 235342.63, 0.21372975, 10.002773, 9.99842 
2.5861734e+3, 1.3578914e+2, -1285535.5, -1609188.3, 33591.82, 0.3308188, 0.32859415, -1282085.8, 327205.06, 0.14603175, 10.003365, 9.998426 
2.5858578e+3, 1.457827e+2, -1223202.9, -1562792.4, 172155.47, 0.21004313, 0.3665519, -1151196.5, 360158.94, 0.080827504, 10.003043, 9.998223 
2.585542e+3, 1.5577433e+2, -1229913.6, -1544859.9, 206191.73, 0.0242154, 0.17322491, -1127939.6, 285497.47, 0.032553293, 10.002295, 9.998022 
2.5852263e+3, 1.6576819e+2, -1126065.8, -1207703.1, 40198.75, 0.076396465, 0.1652579, -1109594.8, 205900.92, 0.007938516, 10.001305, 10.000109 
2.5849107e+3, 1.7576365e+2, -1241361.5, -1251115.6, -74217.39, 0.26923093, 0.16819738, -1171861.1, 45675.406, 0.00076767127, 9.999979, 9.999785 
2.584594e+3, 1.8575816e+2, -1147624.3, -1243480.4, -117876.414, 0.32909048, 0.18709671, -1068304.8, 51283.23, 0.000005913737, 10.000342, 9.998986 
2.5842756e+3, 1.9575201e+2, -893915.3, -1101464.9, -111104.17, 0.30097064, 0.13443722, -845659.4, 175987.73, 0.0, 10.001542, 9.998717 
2.583959e+3, 2.0574586e+2, -906538.7, -1075593.9, 33625.7, 0.23908544, 0.16040407, -900095.94, 23610.734, 0.0, 10.000853, 9.998556 
2.583643e+3, 2.1573956e+2, -1107675.6, -1150044.8, 89716.086, 0.09793239, 0.14239539, -1036676.9, -210908.66, 0.0, 9.99891, 9.998314 
2.5833246e+3, 2.2573388e+2, -992641.06, -1005774.94, -85189.6, -0.0029039115, 0.23733947, -913765.6, -185941.19, 0.0, 9.99888, 9.998647 
2.5830045e+3, 2.3572879e+2, -785372.4, -896298.75, -126408.44, -0.05075423, 0.33946252, -702794.75, -72920.15, 0.0, 9.999806, 9.998282 
2.582689e+3, 2.4572147e+2, -802028.9, -1051280.1, -24011.27, 0.17276746, 0.38277328, -799736.9, -267785.7, 0.0, 9.999873, 9.996502 
2.5823763e+3, 2.5571233e+2, -792933.9, -995907.75, 19139.176, 0.5606487, 0.288002, -791144.94, -357095.2, 0.0, 9.999256, 9.996512 
2.5820598e+3, 2.6570547e+2, -425809.22, -291179.25, 13052.91, 0.5372854, 0.23910378, -289925.4, 46188.977, 0.0, 9.999043, 10.000781 
2.5817406e+3, 2.7570066e+2, -350240.8, -265115.66, -19302.838, 0.2092238, 0.14723298, -260943.11, -22792.482, 0.0, 9.999154, 10.000236 
2.581422e+3, 2.8569466e+2, -448258.13, -670671.25, -140965.95, 0.15514055, 0.22616048, -379914.44, -239701.98, 0.0, 9.999553, 9.996587 
2.5811043e+3, 2.9568768e+2, -294554.03, -546173.1, -119065.734, 0.26854458, 0.33445486, -247144.97, -204850.36, 0.0, 9.9999275, 9.996597 
2.58079e+3, 3.0568564e+2, -81355.23, 164666.52, 65740.1, 0.4358605, 0.6914929, 181131.2, 181131.2, 0.0, 9.998555, 10.00181 
2.580473e+3, 3.156805e+2, -494875.47, -215131.84, -40145.535, 0.07834501, 0.4808218, -209484.63, -209484.63, 0.0, 9.996453, 10.0002165 
2.5964907e+3, 1.261047e+2, -1342783.6, -1488191.1, 2430.1865, 0.6663511, -0.17528641, -1342743.0, 361449.0, 0.19076674, 10.002816, 10.000522 
2.5961727e+3, 1.3610539e+2, -1166488.5, -1379585.6, 68746.03, 0.39643162, 0.3043519, -1146235.6, 459949.63, 0.12932399, 10.003372, 10.000245 
2.5958556e+3, 1.4609951e+2, -1120339.8, -1347565.4, 153312.61, 0.15468504, 0.23506033, -1043131.7, 465105.94, 0.07062259, 10.003029, 9.999762 
2.5955403e+3, 1.5608998e+2, -1136062.3, -1376261.3, 186911.14, 0.09369457, -0.20209028, -1033991.4, 376331.06, 0.027766839, 10.002401, 9.999133 
2.5952238e+3, 1.6608468e+2, -1287432.5, -1597461.0, 785.6334, 0.1635575, -0.025930617, -1287430.5, 24950.334, 0.0064744665, 10.001509, 9.997336 
2.5949067e+3, 1.76082e+2, -1364084.9, -1590941.0, -92012.05, 0.32873732, 0.45475543, -1331457.6, -117035.75, 0.0005723583, 10.000305, 9.997312 
2.5945887e+3, 1.8607569e+2, -1091249.9, -1200813.1, -51916.137, 0.26350045, 0.4961581, -1070557.6, 45929.793, 0.0000035552432, 10.000632, 9.999152 
2.5942704e+3, 1.9606717e+2, -803064.3, -1023369.44, -53229.164, 0.055200767, 0.20730726, -790877.44, 227690.1, 0.0, 10.001975, 9.999063 
2.5939533e+3, 2.0606132e+2, -730897.94, -752738.2, -40890.164, 0.055151008, 0.13121825, -699494.9, 221122.84, 0.0, 10.001018, 10.0007 
2.593637e+3, 2.1605706e+2, -1049168.9, -943365.9, 32832.895, 0.18138795, 0.13273263, -934005.25, -111355.07, 0.0, 9.998503, 9.999951 
2.5933197e+3, 2.2605027e+2, -1155375.9, -1253435.0, -1719.7876, 0.17291929, 0.13117902, -1155345.8, -430627.66, 0.0, 9.99849, 9.997127 
2.5930008e+3, 2.3604204e+2, -816976.6, -1051962.6, -58103.805, 0.08140176, 0.084289245, -803394.6, -176588.36, 0.0, 10.000169, 9.997041 
2.592685e+3, 2.46036e+2, -543466.56, -683351.9, -12743.894, 0.19592193, 0.19172874, -542315.06, -13445.251, 0.0, 10.000569, 9.998695 
2.5923705e+3, 2.5603116e+2, -550788.94, -677191.25, 72957.12, 0.46280915, 0.33048543, -517464.84, -86544.95, 0.0, 10.000019, 9.998337 
2.592053e+3, 2.66025e+2, -483956.13, -555293.7, 73332.055, 0.41833773, 0.3818329, -438078.28, -105097.21, 0.0, 9.999657, 9.99866 
2.5917342e+3, 2.7601823e+2, -443272.4, -522378.6, -22037.521, 0.18116382, 0.32048976, -437547.47, -202501.13, 0.0, 9.999408, 9.998344 
2.591417e+3, 2.860113e+2, -326538.7, -499626.25, -101202.6, 0.18825409, 0.3432132, -279921.7, -142804.48, 0.0, 9.999919, 9.997579 
2.5911003e+3, 2.9600427e+2, -93542.625, -346053.75, -58739.266, 0.3197637, 0.36697528, -80547.45, -41354.242, 0.0, 10.000871, 9.997515 
2.5907823e+3, 3.0599904e+2, -103875.5, -32924.79, -63694.19, 0.25567713, 0.45460123, 4506.9946, 4506.9946, 0.0, 9.999209, 10.000129 
2.5904658e+3, 3.1599075e+2, -522337.66, -58715.51, 85289.07, 0.25009522, 0.09533848, -43523.348, -43523.348, 0.0, 9.995509, 10.001747 
2.6064873e+3, 1.2642264e+2, -1408762.1, -1564273.1, 80507.555, 0.5335355, -0.051553104, -1374591.9, 326484.38, 0.16949081, 10.002468, 9.999997 
2.6061702e+3, 1.3642204e+2, -1238446.5, -1422604.9, 49283.617, 0.3412171, 0.29317543, -1226087.0, 376993.84, 0.11391108, 10.002852, 10.000098 
2.6058534e+3, 1.4641649e+2, -1221976.5, -1397552.4, 19639.588, 0.18409641, 0.2554968, -1219806.5, 285322.84, 0.061296463, 10.002253, 9.999748 
2.6055375e+3, 1.564079e+2, -1322255.5, -1486747.0, -45669.28, 0.12951359, -0.1112333, -1310426.6, 96777.875, 0.023481611, 10.001144, 9.998976 
2.60522e+3, 1.664021e+2, -1408562.9, -1657068.5, -131738.95, 0.19230522, 0.007750905, -1351724.9, -42458.063, 0.005220199, 10.0006695, 9.997349 
2.604902e+3, 1.7639817e+2, -1374953.8, -1617080.5, -19861.791, 0.33573115, 0.36454624, -1373335.4, -162015.36, 0.00041937284, 10.000323, 9.997136 
2.604584e+3, 1.8639195e+2, -1148079.3, -1210585.6, 151322.52, 0.2551015, 0.4248663, -1024816.2, 88569.81, 0.0000020172258, 10.000175, 9.999302 
2.604266e+3, 1.9638413e+2, -1078209.4, -1147977.8, 139056.13, 0.019533684, 0.19467269, -969728.6, 45732.516, 0.0, 10.000064, 9.999127 
2.603949e+3, 2.0637852e+2, -770831.5, -754997.4, 280.52066, 0.035527978, 0.14673486, -754992.44, 162517.38, 0.0, 10.000708, 10.000821 
2.6036325e+3, 2.1637438e+2, -662373.7, -759617.2, -70339.79, 0.22274342, 0.13720168, -625486.56, 194054.39, 0.0, 10.001211, 9.9999 
2.603315e+3, 2.2636703e+2, -786964.0, -1139092.8, -25888.56, 0.24895455, 0.10930781, -785070.9, -63456.07, 0.0, 10.001305, 9.996554 
2.6029974e+3, 2.3635757e+2, -726852.25, -1055424.4, 13533.062, 0.16745034, -0.012944717, -726295.8, -102579.82, 0.0, 10.001014, 9.996602 
2.6026806e+3, 2.4635197e+2, -494148.78, -546362.7, -36149.184, 0.2169485, 0.10586087, -475664.97, 50108.39, 0.0, 10.0004635, 9.99968 
2.602364e+3, 2.563489e+2, -578438.6, -605926.1, -55271.69, 0.34062403, 0.31008372, -535227.56, -107425.72, 0.0, 9.999493, 9.999079 
2.6020467e+3, 2.663432e+2, -645788.94, -775359.1, -4485.0034, 0.2979885, 0.43359774, -645633.9, -315773.2, 0.0, 9.999189, 9.997375 
2.6017287e+3, 2.7633563e+2, -595094.8, -730411.25, 38153.082, 0.17025311, 0.42010602, -585078.75, -353138.47, 0.0, 9.998977, 9.997127 
2.6014122e+3, 2.8632817e+2, -375634.97, -401943.47, 33931.94, 0.2113363, 0.38829714, -352396.75, -218380.86, 0.0, 9.999053, 9.998673 
2.601095e+3, 2.9632095e+2, -294316.06, -370495.16, 73959.484, 0.25794914, 0.29062968, -249214.16, -213127.33, 0.0, 9.999175, 9.998172 
2.6007748e+3, 3.0631298e+2, -255558.2, -312972.25, -4162.404, 0.057153374, 0.18422975, -255258.0, -255258.0, 0.0, 9.99906, 9.998277 
2.60046e+3, 3.16308e+2, -267859.38, 26118.584, 58927.246, 0.5275854, 0.3263094, 37490.523, 37490.523, 0.0, 9.9974575, 10.001372 
2.6164788e+3, 1.2674326e+2, -1397715.6, -1599921.8, 105887.35, -0.14037496, 0.24089943, -1352415.3, 345520.1, 0.1498811, 10.002657, 9.999604 
2.6161674e+3, 1.3673846e+2, -1309779.8, -1575230.4, 70237.58, 0.22031765, 0.28962985, -1292340.6, 307641.63, 0.09979579, 10.002795, 9.998951 
2.6158515e+3, 1.4673321e+2, -1279178.4, -1514632.3, 4416.732, 0.22577031, 0.38778627, -1279095.5, 222936.83, 0.05285716, 10.002232, 9.998902 
2.6155338e+3, 1.5672739e+2, -1305681.8, -1519552.0, -54277.168, 0.095870465, 0.39329615, -1292695.5, 111391.29, 0.019694533, 10.001413, 9.99863 
2.6152155e+3, 1.6671972e+2, -1178063.0, -1237792.3, -120181.945, 0.12894993, 0.18470268, -1084090.6, 222067.39, 0.004163879, 10.000918, 10.000103 
2.614897e+3, 1.7671145e+2, -1159181.5, -1244722.5, -728.9592, 0.2520753, -0.15665318, -1159175.3, 49060.742, 0.00030229846, 10.000643, 9.999526 
2.61458e+3, 1.8670669e+2, -1073414.3, -1132411.6, 168714.56, 0.29517156, -0.07387736, -931638.94, 178645.25, 0.0000010444409, 10.00048, 9.999695 
2.6142642e+3, 1.9670342e+2, -1038184.6, -1143701.1, 171704.58, 0.28187552, 0.13226277, -911315.75, 101004.11, 0.0, 10.000348, 9.999033 
2.6139468e+3, 2.0669754e+2, -903134.94, -1104033.5, 60063.824, 0.21218756, 0.2083027, -886546.94, 27835.404, 0.0, 10.001, 9.998287 
2.6136288e+3, 2.1669061e+2, -671639.25, -980638.9, -41043.35, 0.13945103, 0.17833021, -666280.56, 150174.77, 0.0, 10.002055, 9.997971 
2.6133114e+3, 2.2668421e+2, -536040.7, -826324.06, -40530.01, 0.15551557, 0.23110165, -530488.0, 188030.2, 0.0, 10.002164, 9.998301 
2.6129946e+3, 2.3667793e+2, -549527.3, -835311.4, 16830.129, 0.22015862, 0.27100486, -548539.56, 72038.78, 0.0, 10.001599, 9.997848 
2.6126766e+3, 2.4667034e+2, -572425.6, -771169.9, -60036.96, 0.27117077, 0.23259744, -555697.56, -33044.37, 0.0, 10.000715, 9.998019 
2.6123583e+3, 2.5666246e+2, -618994.7, -750409.1, -111620.18, 0.30866173, 0.1316564, -555177.75, -130446.21, 0.0, 9.999723, 9.997988 
2.612041e+3, 2.6665685e+2, -452241.13, -408082.6, -13805.845, 0.3071538, 0.17316027, -404121.6, -77336.125, 0.0, 9.99932, 9.999836 
2.6117244e+3, 2.7665234e+2, -411891.84, -386159.53, 80684.01, 0.31239817, 0.24000676, -317322.28, -88493.57, 0.0, 9.999101, 9.99944 
2.611406e+3, 2.8664663e+2, -305953.78, -197709.14, 119244.53, 0.21261151, 0.20093215, -120879.25, 10004.489, 0.0, 9.998794, 10.000196 
2.611086e+3, 2.9664043e+2, -289216.97, -196920.56, 176822.97, -0.0030916734, 0.07282599, -60322.992, -27379.133, 0.0, 9.998467, 9.999706 
2.6107696e+3, 3.066351e+2, -117748.66, -19989.129, 213428.98, 0.1510457, 0.059852693, 150085.81, 150085.81, 0.0, 9.998999, 10.000322 
2.610458e+3, 3.1663463e+2, 157463.67, 325510.1, 35585.508, 0.92567986, 0.495258, 332735.06, 332735.06, 0.0, 9.9999485, 10.002222 
2.626475e+3, 1.2706022e+2, -1476363.9, -1643703.9, 12251.739, -0.2582563, 0.27112287, -1475471.6, 219352.61, 0.13183834, 10.002079, 9.999486 
2.6261646e+3, 1.3705377e+2, -1661550.0, -1766263.4, 19360.09, 0.29401362, 0.15443367, -1658085.1, -61197.973, 0.08692956, 10.00025, 9.9988365 
2.625849e+3, 1.4704825e+2, -1445567.4, -1559957.5, 83525.72, 0.3270628, 0.20744938, -1401530.9, 97409.555, 0.045284744, 10.000842, 9.999288 
2.6255313e+3, 1.5704301e+2, -1149850.5, -1411886.6, 85577.4, 0.16142164, 0.24277037, -1124378.3, 276612.2, 0.01638905, 10.002387, 9.998905 
2.6252118e+3, 1.6703649e+2, -1023862.0, -1125150.5, -84652.266, 0.13593377, 0.12753643, -975861.2, 327190.75, 0.0032885466, 10.001846, 10.000423 
2.6248917e+3, 1.7702903e+2, -1211770.8, -1236729.0, -119982.33, 0.18259688, -0.17706567, -1103620.4, 101500.74, 0.00021471751, 10.000156, 9.999822 
2.6245752e+3, 1.870244e+2, -1141938.0, -1154687.6, 13193.884, 0.28354567, -0.11145134, -1133659.6, -26491.902, 0.00000047553752, 9.999994, 9.999766 
2.6242608e+3, 1.9702144e+2, -1095901.6, -1200766.3, 3502.9443, 0.40549234, 0.10328563, -1095784.8, -86583.62, 0.0, 10.000124, 9.99874 
2.6239428e+3, 2.070159e+2, -1076135.0, -1288163.0, 15938.511, 0.26857787, 0.26747054, -1074943.6, -163678.56, 0.0, 10.000245, 9.997393 
2.623624e+3, 2.1700886e+2, -1024999.2, -1240783.6, 57832.37, 0.017203227, 0.31131092, -1010476.9, -197130.98, 0.0, 10.000033, 9.997162 
2.6233074e+3, 2.2700256e+2, -673365.4, -801520.8, 32383.502, 0.083630905, 0.36791703, -665647.2, 49759.04, 0.0, 10.000871, 9.999073 
2.6229918e+3, 2.3699686e+2, -539537.5, -790942.2, -6593.3228, 0.28974718, 0.3824126, -539364.75, 78089.945, 0.0, 10.0015335, 9.998178 
2.622673e+3, 2.469884e+2, -596182.5, -889410.5, -80104.305, 0.3017843, 0.29947624, -575726.56, -56189.68, 0.0, 10.001035, 9.997038 
2.6223522e+3, 2.569784e+2, -694037.5, -862713.7, -32535.436, 0.22118236, 0.07750505, -687979.44, -266341.75, 0.0, 9.99955, 9.997298 
2.6220348e+3, 2.6697263e+2, -413422.53, -226635.27, 26853.666, 0.2743369, 0.051405624, -222851.28, 100839.28, 0.0, 9.998893, 10.001289 
2.6217192e+3, 2.769694e+2, -435999.44, -250165.45, 6077.228, 0.39183852, 0.08651493, -249966.92, -24250.84, 0.0, 9.998314, 10.000752 
2.6213992e+3, 2.8696525e+2, -355510.0, -88694.69, -25861.885, 0.16700564, 0.07109193, -86211.07, 41542.9, 0.0, 9.997901, 10.001371 
2.621077e+3, 2.9696018e+2, -384211.25, -110951.336, 15943.499, -0.22926809, -0.08479306, -110024.25, -80222.3, 0.0, 9.997254, 10.000885 
2.6207656e+3, 3.0695844e+2, -176944.77, 199716.4, 31852.176, 0.3925442, 0.07487557, 202390.98, 202390.98, 0.0, 9.997552, 10.002525 
2.6204455e+3, 3.1695622e+2, -272090.6, -318190.03, 125166.914, 0.16250513, 0.12862341, -167868.77, -167868.77, 0.0, 9.998875, 9.998342 
2.6364744e+3, 1.2737527e+2, -1379823.3, -1563604.9, -21573.111, -0.09986111, 0.17209394, -1377324.9, 314403.56, 0.11528623, 10.002614, 9.999839 
2.6361614e+3, 1.3736807e+2, -1546795.4, -1631353.8, 12557.32, 0.42553863, -0.053691182, -1544970.0, 48827.08, 0.07524957, 10.000684, 9.999566 
2.635846e+3, 1.4736156e+2, -1307446.8, -1324137.9, 157335.3, 0.43452647, -0.22148056, -1158235.9, 337620.72, 0.038529173, 10.001061, 10.000846 
2.6355302e+3, 1.5735528e+2, -1064122.9, -1269331.8, 130127.88, 0.27535844, -0.43411058, -1001013.9, 396899.63, 0.013527696, 10.002529, 9.999824 
2.6352093e+3, 1.6735262e+2, -1118821.8, -1373798.9, -131738.14, 0.17324552, -0.08846094, -1062984.8, 236962.98, 0.0025719018, 10.002041, 9.998633 
2.6348862e+3, 1.7735107e+2, -1251343.4, -1408771.8, -138711.81, 0.096688345, 0.38382995, -1170568.1, 31406.814, 0.00015054179, 10.0005045, 9.998484 
2.6345694e+3, 1.8734479e+2, -1122512.5, -1163295.6, 31831.47, 0.17223707, 0.34601873, -1105101.1, -1059.7859, 0.0000001940375, 10.000206, 9.999603 
2.634255e+3, 1.9733699e+2, -1013064.0, -1121387.1, 14501.612, 0.3000256, 0.09717848, -1011156.25, -5036.4756, 0.0, 10.000496, 9.999109 
2.6339373e+3, 2.0733325e+2, -920294.2, -997641.4, 16472.012, 0.14755379, 0.30888414, -916932.44, -8770.599, 0.0, 10.000378, 9.999319 
2.6336178e+3, 2.1733075e+2, -913233.8, -1032692.0, 95384.18, -0.10953441, 0.6305695, -860420.9, -50227.773, 0.0, 10.000102, 9.99856 
2.633303e+3, 2.2732222e+2, -726237.5, -941605.6, 111354.945, 0.055045772, 0.47284776, -679015.9, 33258.742, 0.0, 10.000963, 9.998082 
2.63299e+3, 2.3731175e+2, -473454.0, -804537.94, 21907.998, 0.38971907, 0.11596054, -472010.63, 142360.64, 0.0, 10.002143, 9.997794 
2.6326695e+3, 2.4730581e+2, -452359.06, -677284.25, -114699.99, 0.31845987, 0.22371536, -404185.66, 112243.28, 0.0, 10.0013895, 9.998323 
2.6323456e+3, 2.573014e+2, -602923.94, -725809.7, -26935.15, 0.098652065, 0.4505153, -597279.4, -178805.27, 0.0, 9.999756, 9.99813 
2.6320273e+3, 2.6729408e+2, -537237.75, -489556.75, 35913.355, 0.11585386, 0.3445475, -470291.13, -149746.94, 0.0, 9.998888, 9.999501 
2.631711e+3, 2.7728626e+2, -528848.44, -431674.78, -45665.11, 0.2453562, 0.10572568, -413583.4, -190965.81, 0.0, 9.998237, 9.999551 
2.6313928e+3, 2.8728226e+2, -418976.72, -130099.805, -116084.58, 0.2878169, 0.15020524, -89232.85, 35423.797, 0.0, 9.99747, 10.001309 
2.631074e+3, 2.972797e+2, -475510.1, -141807.44, -103094.21, 0.26394898, 0.25100416, -112526.72, -85843.96, 0.0, 9.996538, 10.00103 
2.6307592e+3, 3.0727834e+2, -277430.1, 111782.55, -92644.914, 0.52973664, 0.4467732, 132709.75, 132709.75, 0.0, 9.997, 10.002207 
2.6304397e+3, 3.172762e+2, -360019.5, -264837.63, 11836.186, 0.26543325, 0.5549243, -263387.84, -263387.84, 0.0, 9.997847, 9.999195 
2.6464754e+3, 1.2769242e+2, -1197490.8, -1631601.4, 52288.348, 0.12104733, -0.076776676, -1191281.4, 497328.3, 0.1001686, 10.004749, 9.998265 
2.6461583e+3, 1.3768618e+2, -1387355.0, -1681087.5, 13002.883, 0.43395787, -0.057322305, -1386780.5, 203897.05, 0.06469221, 10.002475, 9.998336 
2.6458415e+3, 1.4768006e+2, -1349010.0, -1370393.3, 119276.664, 0.3571974, -0.12713186, -1239946.8, 252790.75, 0.03253055, 10.000914, 10.000559 
2.645525e+3, 1.5767388e+2, -1539131.3, -1523350.3, -25137.428, 0.16404872, -0.32110825, -1504894.0, -110098.27, 0.011066901, 9.9993725, 9.999575 
2.6452047e+3, 1.6767097e+2, -1402415.4, -1491878.9, -204227.14, 0.1437253, -0.014403905, -1238078.5, 58753.355, 0.0019930317, 10.000025, 9.998787 
2.6448825e+3, 1.7766954e+2, -1210181.6, -1415969.8, -76823.875, 0.15490094, 0.46235755, -1184665.9, 14192.098, 0.00010503105, 10.000933, 9.998226 
2.6445648e+3, 1.8766303e+2, -1047096.25, -1173584.0, 123391.32, 0.15328081, 0.44339925, -971685.2, 129242.11, 0.00000008640195, 10.000935, 9.999171 
2.6442495e+3, 1.9765452e+2, -1079556.5, -1186027.1, 73788.3, 0.16669537, 0.15967445, -1041804.44, -38790.92, 0.0, 10.000213, 9.998799 
2.6439315e+3, 2.0765088e+2, -942248.5, -911331.44, 636.5298, 0.08953345, 0.34447238, -911318.3, -6266.9966, 0.0, 9.999848, 10.000156 
2.6436132e+3, 2.1764918e+2, -1016669.0, -1030110.75, 8700.535, -0.02888298, 0.65391016, -1012395.8, -205325.58, 0.0, 9.999204, 9.999012 
2.643299e+3, 2.2764029e+2, -990486.5, -1087560.4, 94634.69, 0.12628385, 0.4453398, -932667.6, -223512.92, 0.0, 9.999251, 9.997894 
2.6429862e+3, 2.3762874e+2, -944480.5, -1057947.5, 68211.04, 0.38529456, -0.007955032, -912492.9, -301229.25, 0.0, 9.999059, 9.9975395 
2.642665e+3, 2.4762397e+2, -566875.25, -675590.6, -137249.6, 0.30013716, 0.19487922, -473611.1, 39699.48, 0.0, 10.000378, 9.998824 
2.642341e+3, 2.5762185e+2, -390888.03, -624806.1, -124857.51, 0.06924272, 0.5956441, -336765.75, 78567.37, 0.0, 10.00124, 9.9981165 
2.642021e+3, 2.6761392e+2, -430068.3, -577589.9, -38821.535, 0.033321086, 0.49677804, -420475.84, -103064.16, 0.0, 10.0002575, 9.998213 
2.641703e+3, 2.7760372e+2, -609156.5, -618124.8, -28600.021, 0.0917123, 0.14189519, -584691.25, -365179.2, 0.0, 9.998332, 9.998225 
2.6413867e+3, 2.875997e+2, -342443.28, -137956.39, -99606.43, 0.37787825, 0.26411203, -97458.24, 24096.063, 0.0, 9.998244, 10.000853 
2.6410702e+3, 2.975986e+2, -249418.0, -94711.16, -93864.516, 0.6514468, 0.55291563, -50433.586, -26865.32, 0.0, 9.998403, 10.000441 
2.6407504e+3, 3.075963e+2, -140575.27, 77237.01, -74325.34, 0.42322564, 0.72219193, 100182.32, 100182.32, 0.0, 9.998398, 10.001279 
2.6404327e+3, 3.1758505e+2, -431894.22, -343390.2, 194776.6, 0.24376264, -0.0006324703, -187901.95, -187901.95, 0.0, 9.997565, 9.998787 
2.656477e+3, 1.2801105e+2, -1410612.6, -2032920.8, -34313.52, 0.2888717, -0.39116833, -1408726.3, 276749.9, 0.08642819, 10.004328, 9.995682 
2.656155e+3, 1.3800682e+2, -1497979.4, -1984200.1, -16210.434, 0.32457843, 0.09796378, -1497439.5, 90099.34, 0.055199094, 10.002681, 9.996171 
2.6558352e+3, 1.4800216e+2, -1427358.1, -1577976.6, 104221.34, 0.10454521, 0.35393238, -1374084.5, 115509.98, 0.027235193, 10.001118, 9.999007 
2.6555166e+3, 1.5799728e+2, -1510572.8, -1552171.5, -20113.994, -0.1597297, 0.44182682, -1502438.0, -110790.125, 0.0089680515, 9.999735, 9.999202 
2.655199e+3, 1.679906e+2, -1221542.4, -1167567.8, -131777.66, 0.05015435, 0.2527219, -1060042.4, 233668.88, 0.0015322798, 10.000266, 10.000892 
2.654881e+3, 1.7798376e+2, -1041650.9, -1177383.6, -13722.682, 0.35626096, 0.00033208018, -1040277.4, 155497.77, 0.00007382683, 10.001387, 9.999651 
2.654562e+3, 1.87979e+2, -1046934.8, -1246970.0, 125931.68, 0.22601663, 0.14986531, -986134.75, 111691.125, 0.000000036839044, 10.001229, 9.998539 
2.654243e+3, 1.9797462e+2, -1053414.3, -1226574.3, 76128.305, -0.014096223, 0.35379505, -1024705.06, -24830.307, 0.0, 10.000591, 9.998341 
2.6539272e+3, 2.079679e+2, -968108.7, -1012477.9, -575.44763, 0.14600946, 0.29660413, -968101.25, -66160.95, 0.0, 10.000045, 9.999369 
2.6536122e+3, 2.1796092e+2, -966186.5, -1008742.6, -1928.9435, 0.3994959, 0.15649115, -966099.25, -162092.72, 0.0, 9.999531, 9.999007 
2.6532954e+3, 2.2795562e+2, -897284.56, -859918.44, 92123.1, 0.34255746, 0.20224705, -784602.94, -78548.01, 0.0, 9.999091, 9.999539 
2.6529783e+3, 2.379503e+2, -911452.25, -948633.25, 102001.875, 0.22343637, 0.23098408, -826360.56, -218257.1, 0.0, 9.998834, 9.998411 
2.65266e+3, 2.4794225e+2, -653450.0, -862205.44, -37976.76, 0.277567, 0.16285919, -646755.9, -136572.39, 0.0, 10.000386, 9.997554 
2.6523405e+3, 2.5793403e+2, -274270.6, -624102.0, -96349.51, 0.3597849, 0.08011462, -249489.69, 162777.34, 0.0, 10.002252, 9.997638 
2.652019e+3, 2.6792896e+2, -265122.03, -400634.0, -115217.055, 0.25992364, 0.22295204, -199214.83, 115105.39, 0.0, 10.0009575, 9.999087 
2.651697e+3, 2.7792448e+2, -518550.44, -528618.8, -46928.62, 0.16589224, 0.3690301, -476386.75, -260019.16, 0.0, 9.998723, 9.998658 
2.6513788e+3, 2.8791866e+2, -300783.3, -271415.56, -16929.563, 0.20965816, 0.38701823, -263689.03, -145261.34, 0.0, 9.999154, 9.999517 
2.6510605e+3, 2.9791328e+2, -58483.418, -134167.48, -66127.71, 0.23014355, 0.3877299, -20135.596, 347.98022, 0.0, 10.00026, 9.999269 
2.6507437e+3, 3.079094e+2, -131181.4, -74579.69, -130059.65, 0.3432633, 0.5327838, 30222.607, 30222.607, 0.0, 9.999153, 9.9998665 
2.6504284e+3, 3.179016e+2, -360798.9, -161840.02, 176987.08, 0.53607374, 0.2754071, -58290.926, -58290.926, 0.0, 9.997395, 10.000132 
2.6664746e+3, 1.2833206e+2, -1607974.3, -1939427.9, -175072.06, 0.2686157, -0.21378036, -1532629.3, 149708.36, 0.07399792, 10.00201, 9.99744 
2.6661512e+3, 1.383281e+2, -1393938.6, -1864809.4, 39317.645, 0.18339747, 0.13669564, -1390678.3, 193711.42, 0.046710946, 10.003123, 9.996786 
2.6658309e+3, 1.4832242e+2, -1258906.9, -1602573.3, 227533.52, -0.028152758, 0.33783552, -1145611.8, 340842.5, 0.022592422, 10.002779, 9.998039 
2.665512e+3, 1.5831655e+2, -1269689.0, -1520154.6, 144195.42, -0.21316068, 0.43504706, -1203936.0, 184582.66, 0.0071954923, 10.001778, 9.9984455 
2.665195e+3, 1.6830987e+2, -1085746.4, -1093379.1, -13165.044, 0.09339883, 0.27486, -1075855.8, 214726.03, 0.001170623, 10.001166, 10.000959 
2.664878e+3, 1.7830274e+2, -1236581.1, -1304125.6, -21257.592, 0.5049066, -0.014992111, -1230447.9, -37801.754, 0.00005271245, 10.000223, 9.999334 
2.6645583e+3, 1.8829735e+2, -1176595.8, -1389866.4, 69100.43, 0.26730016, 0.12803745, -1156164.4, -61460.61, 0.000000014947995, 10.00073, 9.997793 
2.6642382e+3, 1.9829272e+2, -1072063.1, -1331305.0, 3527.9385, -0.10915761, 0.38037488, -1072015.1, -75258.85, 0.0, 10.000931, 9.997451 
2.663923e+3, 2.0828447e+2, -889952.75, -1061194.6, -68356.93, 0.16255207, 0.23933968, -866012.7, 32823.402, 0.0, 10.000984, 9.998559 
2.6636088e+3, 2.1827544e+2, -887129.5, -1010720.6, -72107.305, 0.58923155, -0.042812396, -853961.06, -53040.56, 0.0, 10.000297, 9.998609 
2.6632902e+3, 2.2827181e+2, -799957.9, -688234.1, -16586.217, 0.41880322, 0.10239124, -685823.75, 17127.557, 0.0, 9.999257, 10.000619 
2.6629707e+3, 2.3826954e+2, -1049999.6, -963346.3, -20864.662, 0.09668977, 0.32111865, -958584.2, -353615.13, 0.0, 9.997712, 9.998842 
2.6626545e+3, 2.4826008e+2, -964151.7, -1063803.0, -30437.672, 0.24974647, 0.121026784, -955590.3, -448527.5, 0.0, 9.9985, 9.9970665 
2.6623386e+3, 2.5824884e+2, -731459.06, -899614.56, -50279.523, 0.509818, -0.22725312, -717572.06, -308395.66, 0.0, 9.999376, 9.99713 
2.6620156e+3, 2.6824525e+2, -520541.78, -515206.5, -216741.1, 0.39062876, 0.07666064, -301116.63, 10100.503, 0.0, 9.999184, 9.999158 
2.661691e+3, 2.7824393e+2, -641115.44, -614826.75, -177645.75, 0.183271, 0.5231778, -449839.72, -236604.0, 0.0, 9.998037, 9.998394 
2.661371e+3, 2.8823647e+2, -495067.28, -463271.8, -50179.04, 0.024613423, 0.42897013, -426532.34, -311220.88, 0.0, 9.998248, 9.998635 
2.6610512e+3, 2.9822752e+2, -427338.88, -445075.28, -55016.895, -0.18847443, 0.15701391, -380480.03, -363078.44, 0.0, 9.998308, 9.998085 
2.660738e+3, 3.0822283e+2, -321338.66, -284745.22, -114364.96, 0.36765498, 0.33446297, -187222.63, -187222.63, 0.0, 9.998365, 9.998797 
2.6604226e+3, 3.182183e+2, -184421.53, 158123.13, 212350.58, 0.6460109, 0.45181972, 259663.88, 259663.88, 0.0, 9.997612, 10.002228 
2.67647e+3, 1.2865385e+2, -1334944.8, -1330655.1, -98875.08, 0.08084619, 0.16771914, -1233901.6, 445298.75, 0.06277671, 10.001871, 10.001822 
2.6761475e+3, 1.3864918e+2, -1235350.8, -1485365.3, 72884.7, -0.015432645, 0.05162342, -1215654.9, 365583.6, 0.039144803, 10.0029125, 9.999525 
2.675828e+3, 1.4864077e+2, -1294555.8, -1666197.8, 210019.16, -0.08309707, -0.07985386, -1199953.0, 283368.03, 0.01854302, 10.002728, 9.997622 
2.6755106e+3, 1.5863204e+2, -1267630.5, -1599614.3, 133465.22, -0.07845336, -0.21182197, -1220628.9, 164780.06, 0.005710628, 10.002117, 9.997738 
2.6751924e+3, 1.6862892e+2, -1173608.0, -1323547.0, -24176.596, 0.22153844, 0.12209391, -1169806.1, 117637.53, 0.0008890518, 10.001368, 9.999277 
2.674874e+3, 1.7862654e+2, -1262540.9, -1463084.8, -6960.751, 0.5384278, 0.47725177, -1262299.6, -72828.42, 0.000037964888, 10.000659, 9.998024 
2.6745546e+3, 1.8861763e+2, -1189240.3, -1483890.0, 104158.15, 0.28018618, 0.3692957, -1156139.1, -64573.855, 0.0000000057994387, 10.001008, 9.99702 
2.6742348e+3, 1.9860768e+2, -1032146.6, -1378927.3, 29230.717, -0.09787255, 0.17026238, -1029700.0, -36030.29, 0.0, 10.001459, 9.996873 
2.6739186e+3, 2.0860073e+2, -886724.3, -1136871.9, -68251.26, 0.0834434, 0.22685573, -869314.1, 26424.748, 0.0, 10.001321, 9.997886 
2.6736027e+3, 2.1859445e+2, -799992.56, -987278.5, -87767.33, 0.3806776, 0.2876432, -765291.8, 32507.053, 0.0, 10.000922, 9.998476 
2.6732838e+3, 2.285884e+2, -751244.6, -654950.7, -81343.89, 0.2901706, 0.18604173, -608572.75, 91278.85, 0.0, 9.999508, 10.000746 
2.6729637e+3, 2.385828e+2, -968014.4, -842448.6, -63689.414, 0.11156821, 0.061582536, -815799.8, -213900.47, 0.0, 9.997879, 9.999601 
2.6726472e+3, 2.4857719e+2, -890276.5, -842751.75, -709.46466, 0.20291339, 0.10557336, -842741.2, -338786.9, 0.0, 9.9981785, 9.99875 
2.6723307e+3, 2.5857115e+2, -768564.9, -871635.7, -21541.738, 0.35549873, 0.14646265, -764243.8, -358228.0, 0.0, 9.998874, 9.997581 
2.6720077e+3, 2.6856387e+2, -744375.2, -882235.9, -235239.14, 0.25272724, 0.22668728, -568175.25, -260081.92, 0.0, 9.998723, 9.996881 
2.6716834e+3, 2.7855685e+2, -667627.75, -710838.3, -230335.52, 0.12816219, 0.3040372, -457886.47, -247717.03, 0.0, 9.998187, 9.997661 
2.6713648e+3, 2.885499e+2, -473990.4, -302718.44, -73010.29, 0.12617429, 0.18801896, -275819.88, -163581.27, 0.0, 9.997746, 9.999992 
2.6710463e+3, 2.9854307e+2, -458759.3, -298183.4, -26823.406, 0.08156434, 0.01211588, -293821.2, -279516.34, 0.0, 9.9973545, 9.99957 
2.670731e+3, 3.0853978e+2, -242263.9, -82051.43, 3587.3696, 0.3600737, 0.18667248, -81971.14, -81971.14, 0.0, 9.998203, 10.00026 
2.6704133e+3, 3.1853667e+2, -13953.584, 378298.78, 182440.17, 0.39165074, 0.32180542, 450034.3, 450034.3, 0.0, 9.998164, 10.003464 
2.6864633e+3, 1.2897408e+2, -1530224.3, -1412031.6, 5948.6787, -0.19381939, 0.17074294, -1411733.0, 264331.16, 0.052667625, 10.000375, 10.001923 
2.686146e+3, 1.3896985e+2, -1603073.0, -1632011.4, -18738.46, 0.21430816, 0.064831525, -1593867.6, -15771.954, 0.032421984, 10.000184, 9.999786 
2.6858273e+3, 1.4896114e+2, -1403232.4, -1657327.9, 134503.6, 0.12615053, -0.1599295, -1345260.3, 134915.33, 0.015032093, 10.001657, 9.998201 
2.6855093e+3, 1.5895171e+2, -1169973.8, -1597408.8, 82246.14, 0.036931586, -0.41443938, -1154694.4, 227570.38, 0.0044763535, 10.002991, 9.997336 
2.6851895e+3, 1.6894725e+2, -1001238.9, -1442609.4, -76311.0, 0.21143082, -0.08329563, -988417.5, 295895.97, 0.00066900725, 10.003419, 9.997486 
2.6848698e+3, 1.7894393e+2, -1017141.56, -1487139.1, -52820.203, 0.40695372, 0.34346408, -1011278.56, 175074.77, 0.000027210404, 10.002979, 9.996749 
2.6845503e+3, 1.8893513e+2, -1098028.9, -1445604.1, 97808.26, 0.23257923, 0.2866863, -1072395.9, 16052.094, 0.000000001728097, 10.001711, 9.99692 
2.6842314e+3, 1.9892506e+2, -1292982.1, -1546799.6, 80901.95, -0.014206373, 0.091646, -1269388.5, -278833.75, 0.0, 9.999877, 9.996485 
2.683914e+3, 2.089185e+2, -988655.25, -1233204.5, 36550.91, 0.045185897, 0.23084472, -983309.1, -90687.01, 0.0, 10.000845, 9.997444 
2.683597e+3, 2.1891282e+2, -792685.06, -1074946.9, -7260.521, 0.17498496, 0.40621904, -792498.44, 2180.5376, 0.0, 10.001403, 9.9976425 
2.683277e+3, 2.2890508e+2, -768492.6, -783005.9, -142092.17, 0.16415462, 0.23740451, -633471.94, 63279.72, 0.0, 9.9999485, 9.9996395 
2.6829568e+3, 2.3889741e+2, -1025380.44, -889860.3, -176715.14, 0.123769216, -0.012080457, -768359.5, -169537.69, 0.0, 9.997619, 9.999395 
2.6826403e+3, 2.4889435e+2, -792179.0, -592561.0, -55574.766, 0.18872425, 0.15714222, -578131.7, -77282.9, 0.0, 9.998017, 10.000521 
2.6823238e+3, 2.588919e+2, -807076.06, -833077.94, -76740.5, 0.25167695, 0.38980377, -742243.0, -339371.7, 0.0, 9.998411, 9.998053 
2.682e+3, 2.688824e+2, -856512.06, -1046047.7, -180133.02, 0.1636398, 0.29349998, -747739.1, -442769.1, 0.0, 9.998464, 9.995855 
2.6816761e+3, 2.788715e+2, -748209.6, -802697.25, -38972.773, 0.083760664, 0.08622954, -727902.4, -520818.8, 0.0, 9.997888, 9.997175 
2.6813582e+3, 2.8886548e+2, -468600.88, -201003.52, 54846.086, 0.2153972, 0.02606818, -190198.67, -81054.77, 0.0, 9.997372, 10.000855 
2.681041e+3, 2.98861e+2, -538082.8, -240356.05, 44998.625, 0.30640176, -0.0037629306, -233703.58, -222516.45, 0.0, 9.996429, 10.000406 
2.6807228e+3, 3.0885822e+2, -315630.66, 12915.594, 46706.438, 0.26181248, 0.11914346, 19426.398, 19426.398, 0.0, 9.997142, 10.001422 
2.6804048e+3, 3.1885612e+2, -262267.97, 278023.53, -25592.104, 0.23750731, 0.24689336, 279233.06, 279233.06, 0.0, 9.9964075, 10.003618 
2.6964557e+3, 1.2929307e+2, -1704818.8, -1752458.8, -19387.479, -0.51981336, -0.06897089, -1697926.0, -24993.398, 0.043607675, 10.000259, 9.999532 
2.6961464e+3, 1.3928993e+2, -1581095.6, -1697459.0, 28011.559, 0.6877258, 0.14193836, -1574703.6, 258.20297, 0.026483882, 10.000663, 9.999097 
2.6958278e+3, 1.4928286e+2, -1277924.5, -1438487.0, 208835.64, 0.48664942, 0.0051938896, -1134470.6, 342551.8, 0.012009026, 10.001845, 9.999618 
2.695508e+3, 1.592745e+2, -1129217.1, -1562709.9, 120317.875, 0.08320846, -0.24912022, -1098061.6, 281033.88, 0.0034556554, 10.003192, 9.997471 
2.695186e+3, 1.6926408e+2, -1095399.9, -1679987.8, -56934.977, 0.047878295, -0.39771003, -1089906.4, 191292.06, 0.00049606664, 10.0035715, 9.995786 
2.694865e+3, 1.7925441e+2, -989514.06, -1539216.0, -51814.844, 0.078762226, -0.45506588, -984672.6, 198624.47, 0.00001910138, 10.003424, 9.996175 
2.6945463e+3, 1.8924974e+2, -1018188.94, -1325208.4, 51133.34, 0.12720801, -0.13197228, -1009896.75, 75455.58, 0.0000000002885943, 10.001886, 9.997665 
2.6942286e+3, 1.9924547e+2, -1180028.1, -1426394.8, 87613.93, 0.151863, 0.19088641, -1152048.3, -164644.27, 0.0, 10.00032, 9.997101 
2.6939103e+3, 2.0923777e+2, -940753.2, -1206991.8, 120870.0, 0.060952015, 0.19676858, -894066.2, -4582.5684, 0.0, 10.001103, 9.997526 
2.693592e+3, 2.1922973e+2, -780437.2, -1196353.6, 19714.99, -0.020577466, 0.16154198, -779504.8, 12061.259, 0.0, 10.002001, 9.996519 
2.693271e+3, 2.2922182e+2, -964259.3, -1259611.1, -212304.34, 0.04660458, 0.25293776, -853321.0, -159668.84, 0.0, 10.000227, 9.996245 
2.69295e+3, 2.3921448e+2, -1010578.9, -970293.25, -217660.98, 0.15546124, 0.3298779, -771845.06, -176113.89, 0.0, 9.998071, 9.998623 
2.6926348e+3, 2.4921043e+2, -603533.2, -267714.1, -34697.02, 0.32164213, 0.27094677, -264166.66, 233594.77, 0.0, 9.998269, 10.002645 
2.6923195e+3, 2.59207e+2, -559061.8, -414925.0, -78343.57, 0.4647622, 0.19326863, -380543.56, 19240.496, 0.0, 9.998788, 10.000743 
2.6919955e+3, 2.6920053e+2, -589644.25, -542122.1, -136742.92, 0.3349853, 0.09207585, -427091.2, -125244.766, 0.0, 9.998658, 9.999228 
2.69167e+3, 2.7919355e+2, -597793.75, -576337.56, 68327.54, 0.19379443, -0.0038334015, -517901.03, -313983.4, 0.0, 9.998223, 9.998566 
2.6913503e+3, 2.8918946e+2, -604473.44, -467128.84, 113468.57, 0.20990753, 0.22350973, -403170.06, -297202.34, 0.0, 9.997282, 9.999068 
2.6910314e+3, 2.991859e+2, -638333.3, -415532.63, 73299.17, 0.21862872, 0.4600384, -393580.78, -385568.88, 0.0, 9.996272, 9.9992695 
2.6907134e+3, 3.0917943e+2, -471351.1, -143989.13, 72810.13, 0.16351864, 0.2979552, -128525.53, -128525.53, 0.0, 9.996396, 10.0007305 
2.6903948e+3, 3.1917456e+2, -459422.3, 79039.34, -273642.5, 0.19794747, 0.2339221, 193690.6, 193690.6, 0.0, 9.995467, 10.002726 
2.706454e+3, 1.2961403e+2, -1855997.8, -1911810.3, 23190.166, -0.17664488, -0.0053698863, -1847619.9, -177838.02, 0.035537954, 9.99958, 9.998779 
2.7061433e+3, 1.396077e+2, -1194371.1, -1617521.0, 76804.984, 0.6455252, -0.036349952, -1180861.8, 390981.66, 0.021267708, 10.003833, 9.998141 
2.7058256e+3, 1.4960209e+2, -1178790.3, -1476959.0, 85126.49, 0.49794543, 0.05163965, -1156198.5, 317698.03, 0.009415013, 10.00293, 9.998823 
2.7055064e+3, 1.595957e+2, -1466038.9, -1764002.3, -106773.52, 0.20350383, 0.053574275, -1431728.1, -55772.18, 0.0026133023, 10.001061, 9.997119 
2.7051845e+3, 1.6958399e+2, -1321774.4, -1737041.1, -159539.97, 0.10762689, -0.26903838, -1267559.3, 10508.185, 0.00036005196, 10.00183, 9.99621 
2.7048624e+3, 1.7957221e+2, -1137357.9, -1625697.9, -52252.195, 0.05211692, -0.5694171, -1131829.5, 48351.895, 0.000012952271, 10.002504, 9.996019 
2.7045435e+3, 1.8956754e+2, -971837.25, -1349345.0, -37389.777, 0.13869809, -0.21828642, -968169.6, 114065.695, 0.000000000007316074, 10.002394, 9.997259 
2.7042252e+3, 1.9956405e+2, -1037176.9, -1378101.6, -44011.69, 0.22729878, 0.20625955, -1031586.9, -47307.9, 0.0, 10.001419, 9.996908 
2.703906e+3, 2.095563e+2, -1021463.3, -1205489.6, 25083.43, 0.041175973, 0.16914499, -1018105.6, -131746.9, 0.0, 10.0004015, 9.997865 
2.7035865e+3, 2.195478e+2, -1233608.8, -1478705.4, -51351.836, -0.15623331, 0.06388776, -1223284.6, -434838.7, 0.0, 9.9992, 9.995933 
2.7032655e+3, 2.2953986e+2, -1040113.9, -1432905.6, -124004.1, 0.0028077008, 0.25188228, -1004241.94, -313704.97, 0.0, 10.000326, 9.994991 
2.702945e+3, 2.3953259e+2, -671332.75, -850501.44, 50997.992, 0.21056676, 0.45210484, -657833.9, -65213.375, 0.0, 10.000617, 9.998215 
2.702629e+3, 2.4952799e+2, -480790.47, -98982.47, 148778.56, 0.37762213, 0.29197803, -47854.66, 446799.38, 0.0, 9.998678, 10.003587 
2.702313e+3, 2.59524e+2, -827344.2, -391745.88, -5456.4194, 0.51762545, 0.06253261, -391677.53, 5000.249, 0.0, 9.996337, 10.002077 
2.701989e+3, 2.6951995e+2, -581215.1, -246718.2, -151723.61, 0.39249155, -0.01352321, -188152.36, 110560.305, 0.0, 9.997489, 10.001812 
2.7016637e+3, 2.795162e+2, -532303.25, -453884.94, -46665.008, 0.21970421, -0.021300618, -432143.47, -231393.97, 0.0, 9.998321, 9.999357 
2.7013424e+3, 2.8951335e+2, -580812.1, -617083.2, 29110.047, 0.15910439, 0.39798284, -564650.56, -461857.4, 0.0, 9.99815, 9.997619 
2.7010214e+3, 2.9951012e+2, -592732.44, -515951.72, 95288.805, 0.06650957, 0.80503595, -451610.5, -446769.16, 0.0, 9.997126, 9.998175 
2.700704e+3, 3.095013e+2, -539398.3, -219920.98, 167205.03, 0.081818424, 0.46593887, -148415.27, -148415.27, 0.0, 9.996153, 10.000313 
2.7003837e+3, 3.1949434e+2, -566163.56, -84556.73, -304415.13, 0.043966383, 0.24852438, 62782.684, 62782.684, 0.0, 9.995238, 10.0017185 
2.7164555e+3, 1.299357e+2, -1683363.9, -1791852.6, 176537.53, 0.42855734, 0.1904006, -1552924.9, 113698.484, 0.028401846, 10.000618, 9.999116 
2.7161378e+3, 1.399237e+2, -1239108.8, -1746698.3, 129933.74, 0.17499278, -0.39902166, -1207781.5, 360956.28, 0.016710758, 10.003962, 9.997191 
2.715821e+3, 1.4991947e+2, -1338946.9, -1822917.8, 22063.361, 0.25183803, 0.032841556, -1337943.1, 132848.66, 0.0071977535, 10.002969, 9.996433 
2.7155045e+3, 1.5991576e+2, -1415028.8, -1740300.4, -102537.25, 0.36782396, 0.49111897, -1385403.5, -12563.937, 0.0019202116, 10.0014, 9.99712 
2.715184e+3, 1.6990708e+2, -1119121.1, -1373074.3, -92073.77, 0.3675061, 0.30110377, -1089251.9, 185666.34, 0.00025324232, 10.002068, 9.998599 
2.7148628e+3, 1.7989744e+2, -1032839.56, -1512655.9, -17166.977, 0.31422246, 0.029549524, -1032226.2, 144779.31, 0.000008369746, 10.002914, 9.996606 
2.714542e+3, 1.8988825e+2, -1059586.6, -1571169.4, -40837.777, 0.2510154, 0.036515627, -1056347.3, 22754.594, 0.0, 10.002549, 9.99567 
2.7142215e+3, 1.9987999e+2, -986686.94, -1377780.5, -67313.27, 0.17800839, 0.112223975, -975425.5, 5765.1094, 0.0, 10.001853, 9.996702 
2.713901e+3, 2.0987384e+2, -961298.9, -1092376.3, -22308.555, -0.0012289466, 0.19450393, -957606.1, -74353.02, 0.0, 10.00045, 9.998627 
2.7135807e+3, 2.1986775e+2, -1073459.3, -1172261.0, -48025.285, -0.1496285, 0.23365262, -1053962.6, -268648.06, 0.0, 9.999278, 9.998002 
2.7132618e+3, 2.2985995e+2, -767593.44, -950616.06, -3949.715, 0.09657877, 0.15849428, -767508.25, -80113.836, 0.0, 10.000664, 9.998154 
2.712943e+3, 2.3985264e+2, -411132.03, -599623.9, 124953.85, 0.34873405, 0.0980194, -348866.75, 240602.75, 0.0, 10.001823, 9.999357 
2.7126217e+3, 2.4984899e+2, -574033.0, -355615.28, 100400.21, 0.251436, 0.1529483, -316477.3, 175022.67, 0.0, 9.998923, 10.0017185 
2.7123e+3, 2.598459e+2, -952700.94, -552863.5, 4676.527, 0.13884632, 0.19575861, -552808.8, -159284.95, 0.0, 9.995887, 10.00118 
2.7119786e+3, 2.6984167e+2, -638388.5, -319441.25, -70988.47, 0.12749027, 0.14893955, -304354.84, -8789.396, 0.0, 9.997263, 10.001434 
2.7116567e+3, 2.798373e+2, -396260.4, -324143.2, -53656.2, 0.13546497, 0.107811116, -295554.97, -97945.0, 0.0, 9.998966, 9.999926 
2.711335e+3, 2.8983283e+2, -369566.25, -355257.44, 5672.1504, 0.07422322, 0.24584122, -353281.75, -253619.66, 0.0, 9.998918, 9.999039 
2.7110136e+3, 2.9982874e+2, -319755.56, -204198.27, 100546.46, -0.0072296094, 0.42786857, -146011.55, -144300.53, 0.0, 9.998195, 9.999796 
2.710697e+3, 3.098262e+2, -444898.94, -7904.5146, 175803.1, 0.27305272, 0.57041067, 54040.35, 54040.35, 0.0, 9.996072, 10.001805 
2.7103722e+3, 3.1981993e+2, -551156.56, -156253.97, -27908.111, -0.098356456, 0.34022364, -154291.44, -154291.44, 0.0, 9.99569, 10.000985 
2.726455e+3, 1.3025098e+2, -1072423.6, -1576490.3, -8587.591, 0.54381806, 0.14116742, -1072277.4, 591257.06, 0.022176573, 10.00527, 9.998355 
2.7261358e+3, 1.4023931e+2, -1291500.3, -1805811.3, -145239.38, 0.082706295, -0.36840272, -1253319.6, 312329.66, 0.0127810165, 10.0037155, 9.996914 
2.7258182e+3, 1.5023515e+2, -1253782.8, -1724019.6, -133651.77, 0.13864048, 0.009918371, -1218450.6, 249251.84, 0.0053271013, 10.003308, 9.996943 
2.7255014e+3, 1.6023189e+2, -1149199.9, -1529005.1, -85186.73, 0.32476163, 0.4532966, -1130968.4, 238777.84, 0.0013580795, 10.002886, 9.997859 
2.725182e+3, 1.7022578e+2, -868197.0, -1106776.3, -82741.9, 0.40601796, 0.4034269, -842310.06, 429489.63, 0.00016970174, 10.003193, 9.999886 
2.724862e+3, 1.8021868e+2, -1003896.6, -1442174.1, -87499.555, 0.42470735, 0.27292773, -987073.6, 186788.58, 0.0000049540654, 10.002922, 9.99708 
2.72454e+3, 1.9020838e+2, -1146001.6, -1619033.8, -38068.934, 0.2962993, 0.15155917, -1142957.4, -66988.23, 0.0, 10.00202, 9.995585 
2.7242175e+3, 2.0019844e+2, -1174360.5, -1445541.9, 35531.4, 0.15520933, 0.07123024, -1169782.3, -191708.89, 0.0, 10.000509, 9.996872 
2.7238962e+3, 2.1019313e+2, -964565.1, -1015786.8, 81687.54, -0.018444886, 0.18222097, -904567.75, -24441.9, 0.0, 10.00014, 9.999271 
2.7235752e+3, 2.2018829e+2, -1008722.75, -1046817.0, 65043.465, -0.13283965, 0.2884094, -959994.94, -177821.98, 0.0, 9.999362, 9.998814 
2.7232575e+3, 2.3018119e+2, -819779.8, -807072.06, 12436.1, 0.15606326, 0.14749002, -799460.7, -115217.73, 0.0, 9.999601, 9.999634 
2.7229393e+3, 2.4017431e+2, -803016.75, -782312.7, -51983.0, 0.4172746, 0.0036081022, -739660.94, -153350.81, 0.0, 9.99915, 9.999385 
2.722614e+3, 2.501704e+2, -790367.6, -607217.0, -103603.44, 0.15439221, 0.1065265, -560518.25, -72170.99, 0.0, 9.998104, 10.000369 
2.7222887e+3, 2.6016715e+2, -934676.1, -683171.3, -49315.266, -0.13846546, 0.2545593, -673847.25, -283468.53, 0.0, 9.996641, 9.999929 
2.721969e+3, 2.7016306e+2, -630269.06, -379761.75, -33199.082, -0.06591288, 0.2901409, -375436.63, -83014.48, 0.0, 9.99764, 10.000818 
2.7216497e+3, 2.8015855e+2, -512275.4, -370227.97, -62847.145, 0.049284086, 0.27020764, -346414.28, -151944.56, 0.0, 9.998157, 10.000005 
2.7213278e+3, 2.901522e+2, -487385.44, -253264.06, -70566.805, -0.0024611237, 0.106804125, -233639.42, -137107.4, 0.0, 9.997439, 10.000448 
2.7210057e+3, 3.001473e+2, -543828.1, -179016.11, -27304.229, -0.09204054, 0.06101988, -176983.86, -176983.86, 0.0, 9.996107, 10.000976 
2.72069e+3, 3.1015056e+2, -408877.78, 132656.2, -42596.117, 0.48412186, 0.6531669, 135986.27, 135986.27, 0.0, 9.995785, 10.002905 
2.7203602e+3, 3.2014358e+2, -563226.8, -294325.53, 45012.07, -0.42493823, 0.28562468, -286990.9, -286990.9, 0.0, 9.996203, 9.9997835 
2.7364537e+3, 1.305631e+2, -1162526.0, -1786532.9, -28233.01, 0.34701964, 0.0012910145, -1161251.3, 499230.2, 0.016836483, 10.005335, 9.996866 
2.7361357e+3, 1.4055492e+2, -1243898.4, -1683678.1, -129534.6, 0.18723115, -0.066918984, -1208580.9, 353988.5, 0.0094631035, 10.003604, 9.997805 
2.7358156e+3, 1.5054926e+2, -1066759.5, -1335822.4, -98467.836, 0.060696233, -0.058587495, -1034573.7, 430053.22, 0.0037922803, 10.003307, 9.999608 
2.7354965e+3, 1.6054429e+2, -995885.8, -1270625.3, -57078.883, 0.03928077, -0.019610405, -984499.25, 382177.25, 0.0009170214, 10.003144, 9.999494 
2.7351785e+3, 1.7054032e+2, -821968.25, -1030766.7, -46286.88, 0.21891285, 0.07835403, -812167.3, 456544.3, 0.0001065257, 10.003302, 10.000342 
2.7348593e+3, 1.8053587e+2, -853217.75, -1229504.0, -86838.625, 0.3518177, 0.15699507, -834144.1, 336608.1, 0.0000025959862, 10.003335, 9.998338 
2.7345365e+3, 1.90528e+2, -991698.7, -1344102.8, -59967.23, 0.2739863, 0.12194388, -981773.8, 91061.78, 0.0, 10.002175, 9.99742 
2.7342135e+3, 2.0052016e+2, -1012800.56, -1206081.6, 44523.23, 0.15170664, 0.0826307, -1003037.6, -28119.406, 0.0, 10.000886, 9.998329 
2.7338913e+3, 2.1051437e+2, -894155.75, -924883.1, 110559.15, -0.022848133, 0.073617876, -797897.94, 79074.06, 0.0, 10.00034, 9.999811 
2.73357e+3, 2.2050913e+2, -953190.4, -1079986.9, 93809.53, -0.13184027, 0.12536824, -903365.06, -124343.305, 0.0, 9.999966, 9.998295 
2.733252e+3, 2.3050418e+2, -940100.06, -1054866.6, 11483.144, 0.13733634, 0.3503843, -938962.4, -257882.44, 0.0, 9.999579, 9.997945 
2.732933e+3, 2.4049887e+2, -844392.9, -838285.8, -103222.66, 0.38232258, 0.4983282, -738071.5, -154931.22, 0.0, 9.998998, 9.999067 
2.7326077e+3, 2.5049156e+2, -752258.9, -550160.4, -148794.27, 0.21734442, 0.24326709, -471346.7, 13862.024, 0.0, 9.998173, 10.00074 
2.7322826e+3, 2.6048517e+2, -805048.44, -614241.44, -39399.523, 0.03245095, 0.055501606, -606426.0, -219157.77, 0.0, 9.997475, 9.999997 
2.7319628e+3, 2.704828e+2, -617887.3, -448559.38, 1364.3057, 0.037492815, 0.32029614, -448548.38, -159253.33, 0.0, 9.998026, 10.000171 
2.7316433e+3, 2.8047994e+2, -470088.03, -327333.8, -88825.52, 0.10534447, 0.5159115, -284760.63, -93434.5, 0.0, 9.998292, 10.000251 
2.7313206e+3, 2.9047263e+2, -541218.9, -209017.81, -153333.8, 0.0869719, 0.20427124, -149063.84, -55670.984, 0.0, 9.996731, 10.001124 
2.7309972e+3, 3.0046642e+2, -696198.44, -279230.25, -84024.6, 0.055018317, -0.008235352, -262935.0, -262935.0, 0.0, 9.995176, 10.00073 
2.7306816e+3, 3.104673e+2, -518329.88, -79191.37, -113868.12, 0.5903315, 0.45478415, -51421.574, -51421.574, 0.0, 9.995728, 10.001468 
2.730353e+3, 3.2046118e+2, -491432.56, -300991.56, -4153.305, -0.28944707, 0.29478106, -300901.03, -300901.03, 0.0, 9.996867, 9.999414 
2.746453e+3, 1.3088171e+2, -1117776.3, -1882316.8, 117760.375, 0.16256627, -0.010791747, -1100048.9, 557314.25, 0.012341044, 10.006135, 9.995814 
2.7461344e+3, 1.4087512e+2, -1358054.4, -1693654.1, 87814.09, 0.26896283, 0.15681574, -1336465.5, 222974.31, 0.0067413137, 10.00263, 9.998192 
2.7458143e+3, 1.5086886e+2, -1052169.1, -1168779.0, 130062.46, 0.14959322, -0.000947433, -967940.9, 493555.5, 0.002584837, 10.002705, 10.001048 
2.7454948e+3, 1.6086298e+2, -1065674.3, -1291306.5, 88049.67, 0.0852155, -0.1460821, -1035381.2, 328167.56, 0.0005889778, 10.00262, 9.9995985 
2.745175e+3, 1.7085804e+2, -1105778.5, -1264323.3, 10700.42, 0.1500827, -0.08023203, -1105059.6, 160537.38, 0.00006228534, 10.001748, 9.999491 
2.744855e+3, 1.8085341e+2, -1239896.5, -1393644.3, -107031.86, 0.21427263, 0.04003602, -1184992.5, -17349.05, 0.0000011486238, 10.0006, 9.998527 
2.744532e+3, 1.9084814e+2, -1078744.4, -1213758.4, -113542.13, 0.17695461, 0.1310167, -1014156.7, 55543.43, 0.0, 10.000875, 9.998901 
2.744209e+3, 2.0084257e+2, -994991.0, -1135110.5, -17465.67, 0.104942225, 0.18636088, -992846.75, -21088.479, 0.0, 10.000774, 9.998869 
2.7438873e+3, 2.1083593e+2, -753087.1, -851488.7, 10877.177, 0.00882678, 0.06506158, -751899.1, 121919.34, 0.0, 10.001303, 9.99985 
2.7435663e+3, 2.2082984e+2, -837010.1, -1050026.3, -29871.658, -0.04237265, 0.025994962, -832900.44, -57025.004, 0.0, 10.000917, 9.99804 
2.7432463e+3, 2.3082595e+2, -1001056.9, -1108811.5, 994.64966, 0.14131173, 0.36676478, -1001047.7, -323121.5, 0.0, 9.999314, 9.997687 
2.7429256e+3, 2.408217e+2, -1060813.5, -959231.1, 14313.956, 0.30641195, 0.6534653, -957252.7, -377273.28, 0.0, 9.997625, 9.998898 
2.742601e+3, 2.5081363e+2, -696675.56, -493715.97, -22195.898, 0.2534063, 0.30509603, -491316.94, -9260.715, 0.0, 9.998452, 10.000982 
2.7422768e+3, 2.6080623e+2, -634392.8, -552185.56, 90833.26, 0.16176987, 0.014314823, -493588.7, -109463.43, 0.0, 9.99876, 9.999802 
2.7419567e+3, 2.7080423e+2, -594386.9, -461285.9, 182451.38, 0.11364778, 0.33370245, -333626.5, -47479.67, 0.0, 9.998286, 9.999956 
2.7416363e+3, 2.8080168e+2, -613033.5, -435776.28, 83807.24, 0.095829904, 0.6069219, -402426.66, -214253.9, 0.0, 9.997522, 9.999866 
2.7413127e+3, 2.9079357e+2, -437812.3, -156578.11, -71024.61, 0.12922786, 0.2321345, -139658.98, -49412.92, 0.0, 9.99747, 10.001106 
2.7409887e+3, 3.007863e+2, -493081.5, -275872.25, -4603.793, 0.12346328, -0.060105633, -275774.72, -275774.72, 0.0, 9.997011, 9.999864 
2.7406725e+3, 3.1078473e+2, -380074.8, -162818.44, 34302.69, 0.55405617, 0.28217477, -157531.06, -157531.06, 0.0, 9.997339, 10.00011 
2.7403477e+3, 3.2078004e+2, -515330.0, -340202.75, 206492.98, -0.079611726, 0.37873745, -203474.75, -203474.75, 0.0, 9.996793, 9.999202 
2.7564517e+3, 1.3120364e+2, -1176735.8, -1988372.1, -27888.68, -0.09232405, -0.0039643603, -1175778.5, 478433.03, 0.008671136, 10.006038, 9.995138 
2.7561325e+3, 1.4119801e+2, -1309784.3, -1624205.3, 68567.33, 0.27787268, 0.29586145, -1295482.0, 260798.7, 0.004589541, 10.002751, 9.99861 
2.7558145e+3, 1.5119277e+2, -1003526.8, -1068168.1, 169539.66, 0.3630424, 0.18073487, -863254.5, 595068.56, 0.001677919, 10.002713, 10.001738 
2.7554956e+3, 1.6118687e+2, -1101280.3, -1407204.6, 86912.07, 0.3749877, 0.0219647, -1078313.0, 282060.06, 0.00035822205, 10.00278, 9.998729 
2.7551723e+3, 1.7117836e+2, -1226500.8, -1546670.0, -9904.991, 0.15933806, -0.08603961, -1226194.6, 36267.19, 0.000033741435, 10.001857, 9.997511 
2.7548483e+3, 1.8117121e+2, -1178770.4, -1350698.3, -102452.836, -0.030641435, -0.08194845, -1130994.4, 33542.996, 0.00000040337267, 10.00093, 9.99866 
2.7545255e+3, 1.9116876e+2, -979452.56, -1040549.4, -84313.66, -0.034886654, 0.20477203, -920323.8, 146239.88, 0.0, 10.000996, 10.000039 
2.754204e+3, 2.0116559e+2, -899923.1, -1066893.1, 11432.771, -0.00041569798, 0.42044953, -899143.94, 69451.766, 0.0, 10.001289, 9.9991045 
2.753885e+3, 2.1115765e+2, -733002.56, -911963.9, 38059.91, 0.12248019, 0.219815, -725244.6, 145424.63, 0.0, 10.001688, 9.999283 
2.7535653e+3, 2.2115001e+2, -637195.7, -768201.0, -71992.0, 0.21757512, 0.021030573, -605366.7, 167373.81, 0.0, 10.001489, 9.999686 
2.753241e+3, 2.311447e+2, -791856.5, -705512.8, -49142.426, 0.2050334, -0.021353064, -683272.25, -8477.449, 0.0, 9.999436, 10.000404 
2.752917e+3, 2.4114037e+2, -933034.44, -752657.44, 71883.51, 0.20265275, 0.036857452, -727515.06, -150674.23, 0.0, 9.997825, 10.00023 
2.7525944e+3, 2.511381e+2, -640291.56, -480106.25, 90081.08, 0.23006186, 0.26255584, -439660.8, 39206.594, 0.0, 9.99886, 10.000893 
2.752272e+3, 2.611351e+2, -429411.94, -339686.9, 160105.4, 0.22935537, 0.39918068, -218277.39, 162620.69, 0.0, 9.999642, 10.000837 
2.7519503e+3, 2.7112967e+2, -446491.7, -225975.02, 236214.88, 0.1262937, 0.25055936, -75552.77, 207390.97, 0.0, 9.998588, 10.001428 
2.7516285e+3, 2.8112376e+2, -641719.25, -511054.7, 193478.08, 0.04765986, 0.11431458, -372176.1, -187179.9, 0.0, 9.997591, 9.999308 
2.751304e+3, 2.9111567e+2, -497893.75, -425149.47, 39345.777, -0.017413873, -0.052371856, -407939.7, -320859.28, 0.0, 9.998122, 9.998937 
2.7509797e+3, 3.0110934e+2, -270975.53, -201687.03, 79516.11, -0.09512868, -0.078154035, -149595.84, -149595.84, 0.0, 9.998654, 9.999594 
2.750663e+3, 3.1111038e+2, -74900.42, 57496.016, 150209.48, 0.24979778, 0.48519254, 155447.4, 155447.4, 0.0, 9.999065, 10.000831 
2.7503392e+3, 3.2110357e+2, -554405.5, -356184.1, 110620.95, -0.09740571, 0.3411769, -306768.94, -306768.94, 0.0, 9.996462, 9.999257 
2.7664527e+3, 1.3152993e+2, -1031036.44, -1786742.5, -93992.7, -0.10032136, 0.28170133, -1019521.3, 631501.0, 0.0058093364, 10.006465, 9.996331 
2.7661318e+3, 1.4152102e+2, -1216344.9, -1636520.4, 133109.53, 0.39253017, 0.20497634, -1177725.9, 375389.5, 0.0029660612, 10.003658, 9.998093 
2.7658126e+3, 1.5151596e+2, -1090242.3, -1273360.0, 167805.19, 0.39382678, 0.23210078, -990642.5, 464516.88, 0.0010274181, 10.002825, 10.000272 
2.7654928e+3, 1.6151044e+2, -1273777.9, -1575050.3, -3447.4873, 0.35703543, 0.2334186, -1273738.4, 83471.03, 0.00020335741, 10.001983, 9.997965 
2.7651685e+3, 1.7150193e+2, -1240344.8, -1564661.1, 7524.3506, 0.12489986, 0.14093071, -1240170.3, 19129.08, 0.000016580547, 10.001841, 9.997386 
2.764844e+3, 1.814942e+2, -1117115.3, -1319608.5, 22009.752, -0.091117576, 0.10661341, -1114750.5, 46629.906, 0.00000009587778, 10.001386, 9.998654 
2.764521e+3, 1.9149032e+2, -948537.2, -1009219.1, -18238.19, -0.084657446, 0.23708123, -943477.5, 119939.2, 0.0, 10.001149, 10.000191 
2.7641994e+3, 2.0148632e+2, -1052201.9, -1147241.3, 26703.068, -0.023455404, 0.36918205, -1045213.1, -79759.32, 0.0, 10.000312, 9.99902 
2.7638808e+3, 2.1147908e+2, -1140347.6, -1095891.6, 87639.055, 0.16552904, 0.22721115, -1027705.6, -160183.89, 0.0, 9.998889, 9.999342 
2.763561e+3, 2.2147195e+2, -1136900.4, -911558.7, -21925.764, 0.30533046, 0.054062262, -909445.1, -139856.89, 0.0, 9.997665, 10.000544 
2.763235e+3, 2.3146626e+2, -824256.75, -538950.06, -93122.1, 0.21551435, -0.18011647, -511245.84, 160394.2, 0.0, 9.998448, 10.002014 
2.7629095e+3, 2.4146199e+2, -798065.25, -667378.1, -9662.0625, 0.12900844, -0.23822773, -666667.6, -92987.445, 0.0, 9.998707, 10.000381 
2.7625877e+3, 2.5146198e+2, -644487.25, -527203.2, 9098.494, 0.17065945, 0.2242517, -526501.56, -50814.46, 0.0, 9.999051, 10.000469 
2.7622658e+3, 2.6146087e+2, -550871.7, -362588.78, -1958.9336, 0.19682628, 0.55485344, -362568.4, 15132.532, 0.0, 9.998714, 10.00112 
2.7619433e+3, 2.7145362e+2, -568533.5, -176996.56, -13394.3545, 0.124384515, 0.12703802, -176538.88, 103219.78, 0.0, 9.997348, 10.002345 
2.7616203e+3, 2.8144592e+2, -904477.0, -720591.6, -25560.637, 0.03678564, -0.2397178, -717104.75, -535279.8, 0.0, 9.996174, 9.99855 
2.7612957e+3, 2.9143858e+2, -674108.5, -686430.4, -29047.543, -0.13474226, -0.22135697, -650575.75, -566665.75, 0.0, 9.997668, 9.997363 
2.7609712e+3, 3.014335e+2, -297937.1, -216726.95, 91709.08, -0.30969185, -0.014513453, -157035.83, -157035.83, 0.0, 9.998508, 9.999553 
2.7606544e+3, 3.1143603e+2, -95405.29, 155052.38, 163146.3, -0.00550486, 0.6109047, 235490.69, 235490.69, 0.0, 9.998485, 10.001765 
2.7603298e+3, 3.214264e+2, -427591.13, -299541.72, -110286.51, -0.18990973, 0.12055897, -236042.8, -236042.8, 0.0, 9.997454, 9.999124 
2.776455e+3, 1.3185816e+2, -1014291.44, -1534453.9, -233846.81, -0.012276063, 0.65716517, -924620.5, 723195.0, 0.003676174, 10.005518, 9.998518 
2.776132e+3, 1.4184377e+2, -1235966.5, -1765823.6, 90426.01, 0.50687975, -0.07524143, -1220959.4, 328990.1, 0.001799881, 10.004038, 9.997017 
2.775809e+3, 1.518385e+2, -1272942.4, -1700535.3, 161630.56, 0.23677114, 0.20078985, -1218721.4, 233283.31, 0.0005848719, 10.003024, 9.99724 
2.7754867e+3, 1.6183385e+2, -1219196.5, -1529009.1, -232.90475, 0.04428422, 0.48949814, -1219196.4, 134857.92, 0.00010500734, 10.002246, 9.998156 
2.7751645e+3, 1.7182893e+2, -1092589.3, -1298014.1, 30387.127, 0.05090647, 0.6125542, -1088188.5, 167918.6, 0.0000068884756, 10.001992, 9.99915 
2.7748418e+3, 1.8182258e+2, -1057484.3, -1278209.4, 31644.0, 0.040025156, 0.5981456, -1053037.3, 105133.555, 0.00000000965895, 10.001735, 9.998768 
2.7745184e+3, 1.9181234e+2, -993770.3, -1144029.1, -1867.9958, 0.041671958, 0.1811901, -993747.1, 66516.516, 0.0, 10.001307, 9.999203 
2.7741957e+3, 2.0180382e+2, -979908.94, -1046698.2, 2549.3872, 0.048513934, -0.08630817, -979811.75, -17470.912, 0.0, 10.000508, 9.99961 
2.7738738e+3, 2.1180001e+2, -1097893.0, -962927.44, 51825.293, 0.07910584, 0.028413456, -945323.3, -80945.76, 0.0, 9.998691, 10.000352 
2.7735516e+3, 2.2179654e+2, -1130848.4, -873347.7, 15089.322, 0.117886774, 0.14812794, -872466.5, -106055.51, 0.0, 9.997517, 10.000893 
2.7732277e+3, 2.3179327e+2, -831196.75, -583095.4, -27921.678, 0.16118726, 0.19394328, -579991.9, 88449.98, 0.0, 9.998539, 10.001697 
2.7729037e+3, 2.4178916e+2, -738368.2, -699798.75, 9737.071, 0.15885258, 0.19803329, -697480.0, -126998.99, 0.0, 9.999375, 9.999827 
2.7725807e+3, 2.5178248e+2, -660195.06, -650344.5, -6239.1387, 0.049358185, 0.093606845, -647320.9, -174774.45, 0.0, 9.999436, 9.999447 
2.772258e+3, 2.6177672e+2, -561249.2, -432209.53, -80015.89, 0.014108433, 0.04851752, -393941.47, -19339.26, 0.0, 9.998902, 10.000551 
2.7719355e+3, 2.7177277e+2, -649870.4, -298202.34, -144120.69, 0.16240363, 0.022295684, -246685.6, 29950.47, 0.0, 9.997114, 10.00164 
2.7716133e+3, 2.8176862e+2, -845227.94, -565049.5, -70028.15, 0.2513801, 0.020146003, -548521.56, -369847.88, 0.0, 9.996006, 9.999693 
2.7712896e+3, 2.91764e+2, -512434.6, -395235.4, 13576.3, 0.03414022, 0.1278768, -393683.28, -312958.16, 0.0, 9.997808, 9.999304 
2.7709666e+3, 3.017594e+2, -108172.21, 51513.3, 122366.56, -0.14948693, 0.19820124, 117781.6, 117781.6, 0.0, 9.999019, 10.001143 
2.7706495e+3, 3.117553e+2, -91997.47, 276795.0, 162166.95, 0.19461703, 0.043357108, 337959.53, 337959.53, 0.0, 9.997974, 10.002845 
2.770325e+3, 3.2174915e+2, -110639.305, -188928.73, 56774.746, -0.06166846, -0.1396761, -80822.58, -80822.58, 0.0, 9.999784, 9.998758 
2.786455e+3, 1.3217965e+2, -1550073.4, -1746527.3, -122558.22, 0.1857893, 0.48130473, -1491236.4, 153425.31, 0.0021622053, 10.001662, 9.998886 
2.7861312e+3, 1.421677e+2, -745116.56, -1597913.6, -38409.816, 0.34513965, -0.032461643, -743390.1, 803382.06, 0.0010041753, 10.007706, 9.996398 
2.7858058e+3, 1.5216072e+2, -1073293.4, -1707674.9, 58403.066, 0.04031051, 0.14701611, -1067961.5, 380884.13, 0.00030006425, 10.00485, 9.996304 
2.785482e+3, 1.6215515e+2, -1220274.5, -1471907.1, 34035.395, -0.11521732, 0.39011833, -1215752.3, 135153.39, 0.00004641634, 10.002013, 9.998654 
2.7851608e+3, 1.721517e+2, -1113274.4, -1185484.9, 48145.47, 0.027962098, 0.55683184, -1089200.0, 163743.22, 0.0000020738605, 10.001341, 10.0002365 
2.784839e+3, 1.8214668e+2, -1175369.8, -1338393.5, 51516.777, 0.13014063, 0.6098262, -1160454.8, -5460.7017, 0.00000000000031198744, 10.000952, 9.998729 
2.784516e+3, 1.9213618e+2, -910456.5, -1138542.6, 70235.51, 0.13523895, 0.18703948, -890563.6, 166527.42, 0.0, 10.002047, 9.998863 
2.7841923e+3, 2.021273e+2, -730961.94, -896700.56, 58352.383, 0.11039631, -0.099697135, -712478.75, 246694.16, 0.0, 10.002131, 9.999843 
2.7838674e+3, 2.1212432e+2, -751785.8, -726507.0, 55692.492, -0.0044354736, 0.040640574, -682037.7, 179163.9, 0.0, 10.000802, 10.000944 
2.7835432e+3, 2.2212186e+2, -864833.94, -780444.1, 57995.965, -0.0494511, 0.24164446, -750917.75, 12307.755, 0.0, 9.999532, 10.000545 
2.783221e+3, 2.3211932e+2, -642620.2, -552417.4, 34834.72, 0.09154586, 0.4010576, -540531.06, 124719.55, 0.0, 10.000118, 10.001128 
2.7828985e+3, 2.4211486e+2, -658709.4, -751529.8, 51378.63, 0.14366475, 0.4380977, -635883.25, -68589.586, 0.0, 10.000349, 9.9990015 
2.7825746e+3, 2.521043e+2, -529640.5, -653614.44, 62269.43, -0.049562883, 0.013942818, -503764.7, -34371.766, 0.0, 10.000669, 9.998815 
2.7822506e+3, 2.6209575e+2, -454493.03, -494341.4, -43569.1, -0.13386293, -0.22476126, -426508.56, -55034.266, 0.0, 10.000155, 9.999517 
2.7819276e+3, 2.7209356e+2, -511758.4, -349496.13, -155108.75, 0.13270965, 0.029243259, -255581.6, 17917.14, 0.0, 9.998591, 10.000571 
2.7816054e+3, 2.8209165e+2, -614370.4, -366610.4, -25723.367, 0.31644216, 0.29318842, -363967.9, -188448.38, 0.0, 9.99725, 10.000451 
2.781284e+3, 2.9208863e+2, -324487.34, -112554.73, 42024.082, 0.15124673, 0.40260458, -104525.94, -26978.723, 0.0, 9.998303, 10.000994 
2.780962e+3, 3.0208385e+2, -120486.04, 138198.42, -88.306435, -0.010549197, 0.31267923, 138198.45, 138198.45, 0.0, 9.998573, 10.001951 
2.7806437e+3, 3.1207383e+2, -225999.6, 279328.1, -67809.41, 0.3537569, -0.5179717, 288269.2, 288269.2, 0.0, 9.996815, 10.003412 
2.780321e+3, 3.2207346e+2, -352064.3, -377431.9, 134281.64, 0.05270969, -0.13607739, -229868.78, -229868.78, 0.0, 9.998435, 9.998141 
2.7964535e+3, 1.3249783e+2, -1424706.1, -1757589.4, 235331.9, 0.33799332, 0.020152854, -1302904.9, 338629.03, 0.0011624077, 10.002809, 9.998268 
2.79613e+3, 1.4249265e+2, -807998.5, -1597531.1, -15000.656, -0.039524514, 0.22976457, -807713.6, 735871.5, 0.00050341507, 10.007126, 9.996681 
2.7958032e+3, 1.5248275e+2, -1065713.8, -1622257.9, -33095.258, -0.18371774, 0.055884723, -1063752.6, 381929.63, 0.00013421717, 10.004548, 9.997036 
2.7954787e+3, 1.6247445e+2, -1146142.0, -1362089.0, 9999.272, -0.17633438, -0.04044693, -1145680.0, 202084.6, 0.00001642319, 10.00218, 9.999338 
2.7951568e+3, 1.7247006e+2, -1063784.1, -1113995.6, 47843.797, 0.015068976, -0.006731796, -1034859.06, 214951.8, 0.0000003300107, 10.001456, 10.000683 
2.7948353e+3, 1.8246633e+2, -1069794.6, -1213645.0, 96556.01, 0.14419994, 0.12472325, -1021319.25, 130531.95, 0.0, 10.001307, 9.99943 
2.7945134e+3, 1.9246274e+2, -822310.8, -1029218.75, 139404.95, 0.17602521, 0.3422962, -752166.2, 301724.56, 0.0, 10.00233, 9.999497 
2.79419e+3, 2.0245855e+2, -612903.3, -775359.4, 52824.81, 0.13528477, 0.46688566, -597237.3, 358696.34, 0.0, 10.002664, 10.000412 
2.7938625e+3, 2.124532e+2, -673105.56, -667087.06, 35466.414, -0.08082713, 0.35698822, -634502.44, 223480.06, 0.0, 10.00125, 10.001143 
2.7935368e+3, 2.2244789e+2, -772166.2, -786613.1, 98161.76, -0.19143477, 0.28324896, -680962.5, 79068.83, 0.0, 10.000341, 10.000112 
2.7932152e+3, 2.3244247e+2, -604584.6, -635251.2, 82171.39, -0.029730003, 0.24386077, -536328.1, 125754.516, 0.0, 10.000782, 10.000236 
2.7928936e+3, 2.4243706e+2, -516799.47, -654823.9, 93928.09, 0.06807162, 0.2373379, -469256.25, 94878.19, 0.0, 10.001172, 9.9992695 
2.792571e+3, 2.5243056e+2, -378739.34, -534784.8, 118889.13, -0.032211926, 0.1857032, -314557.38, 151640.44, 0.0, 10.001445, 9.999288 
2.7922466e+3, 2.624242e+2, -387332.7, -578430.8, -31245.408, -0.10551459, 0.17686881, -382353.66, -14092.555, 0.0, 10.001077, 9.9985 
2.7919197e+3, 2.724187e+2, -496423.63, -550697.1, -170334.52, -0.08729369, 0.2845721, -351077.78, -80759.125, 0.0, 9.999563, 9.998729 
2.7915952e+3, 2.8241345e+2, -471258.88, -349661.88, 16194.597, -0.017473968, 0.35599798, -347542.0, -175171.11, 0.0, 9.998465, 9.999962 
2.7912766e+3, 2.9240793e+2, -242874.4, -93025.9, 60168.32, 0.06083835, 0.24305183, -71857.12, 2560.4944, 0.0, 9.998944, 10.000809 
2.7909562e+3, 3.024019e+2, -206498.94, -78123.086, -104901.02, 0.060554136, 0.08659411, -19330.06, -19330.06, 0.0, 9.998706, 10.000404 
2.790634e+3, 3.1239405e+2, -391251.72, -54155.137, -281400.0, 0.25696903, -0.30464008, 105312.57, 105312.57, 0.0, 9.996743, 10.001173 
2.7903143e+3, 3.223924e+2, -487335.5, -461696.78, 253582.08, 0.11841568, 0.096741766, -220610.23, -220610.23, 0.0, 9.997554, 9.9979925 
2.806453e+3, 1.3282013e+2, -830405.6, -1549261.4, 257703.06, 0.23657598, -0.15435821, -747567.44, 890805.44, 0.0005624611, 10.007208, 9.9976 
2.8061286e+3, 1.4281818e+2, -1398665.1, -1809668.5, 12244.986, -0.13990477, 0.39186734, -1398300.8, 142094.17, 0.00022483901, 10.002766, 9.997331 
2.805801e+3, 1.5280733e+2, -1204232.1, -1566785.3, 20777.063, -0.24346884, 0.014753577, -1203045.3, 239451.31, 0.00005269784, 10.003051, 9.998152 
2.8054762e+3, 1.627982e+2, -1078516.6, -1401110.6, 82024.43, -0.17428516, -0.20089656, -1058858.6, 285727.2, 0.0000047753, 10.002994, 9.998657 
2.805154e+3, 1.727935e+2, -1008830.0, -1217265.3, 13078.303, 0.04860805, -0.09599833, -1008012.6, 238628.2, 0.00000002399446, 10.002404, 9.999498 
2.8048322e+3, 1.8278977e+2, -1004549.1, -1132890.6, 27476.451, 0.18198383, 0.088087834, -998914.2, 149769.33, 0.0, 10.001613, 9.999815 
2.80451e+3, 1.9278783e+2, -930722.0, -974948.3, 94068.5, 0.16234112, 0.36929494, -856202.5, 194502.44, 0.0, 10.001188, 10.000397 
2.8041863e+3, 2.0278493e+2, -910761.6, -956164.75, -20823.668, 0.09808379, 0.5798623, -902657.56, 50077.1, 0.0, 10.000795, 10.000072 
2.8038585e+3, 2.1277894e+2, -742107.9, -744671.4, -94743.24, -0.08694894, 0.43210718, -648637.75, 206152.73, 0.0, 10.00099, 10.000722 
2.8035322e+3, 2.2277263e+2, -789211.7, -873372.75, -22464.842, -0.19005562, 0.29817837, -783590.6, -26741.3, 0.0, 10.000627, 9.999375 
2.8032106e+3, 2.3276544e+2, -755200.6, -783676.94, -14816.879, -0.04899151, 0.13998455, -748889.7, -89972.73, 0.0, 10.000118, 9.999539 
2.802889e+3, 2.427594e+2, -787320.2, -792765.0, 4633.1694, 0.03763881, 0.11415791, -784668.8, -223693.86, 0.0, 9.999386, 9.999177 
2.8025663e+3, 2.5275564e+2, -750209.5, -670491.6, 11048.267, -0.02280497, 0.2894512, -668988.8, -205974.64, 0.0, 9.998765, 9.9996195 
2.8022414e+3, 2.6275086e+2, -806525.25, -862127.7, -132418.7, -0.118498445, 0.4433643, -699020.8, -333957.53, 0.0, 9.998595, 9.997735 
2.8019127e+3, 2.7274305e+2, -435394.75, -626533.7, -156950.16, -0.26109672, 0.3940452, -347206.56, -80064.555, 0.0, 10.000464, 9.997761 
2.8015873e+3, 2.8273532e+2, -213899.23, -340180.72, 94180.65, -0.26906243, 0.32574645, -163652.38, 5564.5967, 0.0, 10.00075, 9.998933 
2.8012702e+3, 2.9272753e+2, -318163.47, -218490.69, 83962.414, 0.018806363, 0.07229365, -170688.19, -99403.59, 0.0, 9.998843, 9.999997 
2.8009498e+3, 3.0272064e+2, -493606.56, -435981.13, -141490.81, 0.09618516, -0.04683541, -320399.2, -320399.2, 0.0, 9.997713, 9.998415 
2.8006244e+3, 3.1271532e+2, -268323.53, -252915.92, -258220.36, 0.05858912, 0.043875445, -2284.4812, -2284.4812, 0.0, 9.998723, 9.99884 
2.8003076e+3, 3.2271066e+2, -542045.75, -415042.56, 593081.1, 0.13032313, 0.26775774, 117926.88, 117926.88, 0.0, 9.996953, 9.998571 
2.8164527e+3, 1.3314503e+2, -996693.1, -1697727.6, 37040.402, -0.019023629, -0.1692825, -994741.44, 640449.1, 0.00024570385, 10.006342, 9.997005 
2.8161263e+3, 1.4314409e+2, -1275228.5, -1604841.9, -624.40375, -0.104770444, 0.47273365, -1275227.3, 261975.05, 0.000090571455, 10.002978, 9.998639 
2.8157994e+3, 1.5313411e+2, -1077301.6, -1329544.0, 68060.5, -0.21678735, 0.03342797, -1060109.3, 379182.28, 0.000018083496, 10.00315, 9.9997425 
2.8154743e+3, 1.6312593e+2, -1165458.3, -1615977.3, 81253.63, -0.15721457, -0.118612684, -1151251.8, 190121.45, 0.000001252134, 10.003129, 9.997125 
2.8151518e+3, 1.7312187e+2, -1164038.6, -1572494.1, 18817.24, 0.09855018, 0.30446455, -1163173.5, 80260.69, 0.0000000065346386, 10.002535, 9.997005 
2.8148288e+3, 1.83117e+2, -916300.9, -1003945.8, 24051.111, 0.19677284, 0.494917, -910134.7, 235356.47, 0.0, 10.001871, 10.000556 
2.814505e+3, 1.9311024e+2, -828392.56, -788766.5, 96813.35, 0.050720166, 0.18486461, -709759.56, 337784.0, 0.0, 10.001292, 10.001629 
2.8141809e+3, 2.0310448e+2, -920710.2, -1029605.4, -8587.663, -0.014536125, 0.062273722, -920037.1, 29555.28, 0.0, 10.000994, 9.999478 
2.8138554e+3, 2.1310006e+2, -798914.25, -919102.5, -77009.25, 0.029828768, 0.20417492, -761326.56, 90312.234, 0.0, 10.001197, 9.999438 
2.813531e+3, 2.2309493e+2, -736434.0, -875548.94, -44599.91, 0.072130136, 0.27857885, -723363.44, 30327.361, 0.0, 10.001088, 9.999142 
2.8132075e+3, 2.3308805e+2, -725861.4, -791278.7, -39528.02, 0.13115524, 0.17527835, -707263.9, -51507.184, 0.0, 10.00038, 9.999375 
2.812884e+3, 2.4308167e+2, -776754.25, -794859.75, -28702.111, 0.11778414, 0.13273287, -755711.1, -197892.78, 0.0, 9.999469, 9.999118 
2.8125587e+3, 2.5307646e+2, -844366.2, -737207.8, -43994.625, -0.061901957, 0.18598972, -721459.9, -261588.9, 0.0, 9.9982, 9.999435 
2.8122342e+3, 2.6307097e+2, -716105.0, -625214.4, -62247.082, -0.16509265, 0.20939243, -593588.44, -231665.02, 0.0, 9.998335, 9.999504 
2.8119096e+3, 2.7306426e+2, -151424.83, -270665.28, -11126.351, -0.13421576, 0.07977364, -150395.52, 113587.484, 0.0, 10.001409, 9.999783 
2.8115866e+3, 2.8305742e+2, -65738.27, -423192.4, 101604.41, 0.003110395, 0.04028128, -38876.383, 127171.4, 0.0, 10.002381, 9.997598 
2.811267e+3, 2.930502e+2, -435341.3, -548369.9, 5595.5425, 0.30737695, 0.085335515, -435064.97, -366941.0, 0.0, 9.999178, 9.997597 
2.8109437e+3, 3.0304387e+2, -503653.6, -489145.16, -48950.477, 0.25877076, 0.19559096, -446914.28, -446914.28, 0.0, 9.997841, 9.997983 
2.8106168e+3, 3.130394e+2, 33850.516, -125061.35, -73688.76, -0.20097685, 0.3890986, 62760.992, 62760.992, 0.0, 10.000844, 9.998704 
2.810304e+3, 3.230344e+2, -314977.94, 133799.84, 264661.22, 0.5686741, 0.4358108, 256392.13, 256392.13, 0.0, 9.99658, 10.002525 
2.8264517e+3, 1.3347495e+2, -1288090.4, -1628815.9, 101314.34, -0.068689376, 0.13802563, -1260240.9, 371721.2, 0.00010330268, 10.003527, 9.998785 
2.8261268e+3, 1.4346991e+2, -980118.2, -1450296.5, 119388.92, 0.053716812, 0.27912527, -951539.7, 582467.56, 0.00003434471, 10.004998, 9.998701 
2.8257993e+3, 1.5346141e+2, -962721.06, -1293668.0, 83197.09, -0.041659776, 0.009458767, -942983.2, 493101.3, 0.0000055031255, 10.00408, 9.999512 
2.8254738e+3, 1.6345443e+2, -1184497.6, -1692179.4, 76958.06, -0.0144968005, 0.018041145, -1173088.3, 165068.72, 0.0000002527922, 10.003323, 9.996497 
2.8251496e+3, 1.7345017e+2, -1127490.6, -1626016.1, 134195.52, 0.0946423, 0.47958598, -1093662.6, 146558.53, 0.0, 10.003147, 9.996331 
2.824825e+3, 1.834443e+2, -800863.44, -995480.06, 195461.98, 0.106881976, 0.643237, -679827.3, 462459.88, 0.0, 10.002867, 10.000139 
2.824501e+3, 1.9343506e+2, -664627.4, -741277.25, 144882.72, -0.01793959, 0.112628564, -553086.4, 491273.4, 0.0, 10.002562, 10.001339 
2.824177e+3, 2.0342766e+2, -808050.06, -1037718.94, -3768.467, -0.03598981, -0.12630942, -807988.2, 138433.16, 0.0, 10.002099, 9.998871 
2.8238526e+3, 2.1342345e+2, -751172.56, -960539.75, -5895.717, 0.11963526, 0.08233783, -751006.7, 97460.125, 0.0, 10.001851, 9.998824 
2.823528e+3, 2.2341855e+2, -716089.75, -933712.0, 46515.06, 0.19904463, 0.25581345, -706564.44, 43954.016, 0.0, 10.001562, 9.998498 
2.8232035e+3, 2.3341176e+2, -626919.1, -793685.75, 16056.951, 0.16548508, 0.2062044, -625387.1, 27199.596, 0.0, 10.00132, 9.998886 
2.822878e+3, 2.4340525e+2, -641097.25, -722197.4, -9288.232, 0.0761633, 0.18257, -640047.1, -85396.52, 0.0, 10.000407, 9.999165 
2.8225517e+3, 2.533991e+2, -761332.25, -678518.5, 12541.395, -0.09937427, 0.123371914, -676660.94, -219951.72, 0.0, 9.998711, 9.999594 
2.8222272e+3, 2.633931e+2, -732369.94, -545025.94, 95592.93, -0.18051738, 0.06840862, -504860.5, -146097.0, 0.0, 9.9978895, 10.000257 
2.821906e+3, 2.7338687e+2, -393155.25, -259493.7, 58045.367, -0.051664114, -0.1250269, -237805.45, 23008.455, 0.0, 9.99924, 10.000889 
2.8215846e+3, 2.833807e+2, -549664.0, -792844.8, -25910.2, 0.14952363, -0.11481515, -546933.94, -384061.44, 0.0, 9.999683, 9.9963455 
2.8212628e+3, 2.9337406e+2, -604926.2, -805435.7, -27240.879, 0.47932747, 0.12454512, -601291.2, -536339.44, 0.0, 9.998782, 9.996016 
2.8209376e+3, 3.0336827e+2, -513452.2, -507639.66, 140028.08, 0.3378435, 0.39779016, -370487.7, -370487.7, 0.0, 9.99786, 9.997843 
2.8206098e+3, 3.1336394e+2, -361266.28, -285756.53, 154556.95, -0.38734716, 0.5882981, -164409.92, -164409.92, 0.0, 9.998016, 9.998958 
2.8203e+3, 3.233591e+2, -131424.75, 606688.2, -152014.11, 0.99666816, 0.49386346, 636769.5, 636769.5, 0.0, 9.99622, 10.005932 
2.8364506e+3, 1.3380693e+2, -1057909.6, -1176587.8, 205141.97, -0.044229813, 0.51363134, -903696.94, 725016.9, 0.000047303398, 10.003591, 10.001881 
2.8361288e+3, 1.4379576e+2, -1053459.8, -1562987.0, 96667.08, 0.26725215, -0.09332283, -1035736.6, 495073.13, 0.000014347894, 10.00482, 9.9980135 
2.8358006e+3, 1.5378924e+2, -1071449.8, -1511736.6, 64436.5, 0.21610625, -0.021163965, -1062213.1, 370662.2, 0.0000019516297, 10.004045, 9.998033 
2.835474e+3, 1.6378325e+2, -1115638.3, -1579146.1, 81667.42, 0.16756114, 0.14692569, -1101669.9, 233269.9, 0.00000005936716, 10.0034275, 9.997227 
2.8351468e+3, 1.7377794e+2, -1035151.44, -1474686.8, 148885.73, -0.0053917603, 0.41223913, -989467.0, 247538.36, 0.0, 10.003273, 9.997332 
2.8348213e+3, 1.8377152e+2, -846095.6, -1160484.4, 202218.84, -0.09552898, 0.5110971, -747160.06, 391913.38, 0.0, 10.003125, 9.998899 
2.834499e+3, 1.9376294e+2, -758232.25, -1002130.06, 154532.02, -0.033988353, 0.24255058, -683326.7, 357821.7, 0.0, 10.002808, 9.999445 
2.834175e+3, 2.0375554e+2, -719578.1, -950720.1, -676.8667, 0.04934152, 0.09577609, -719576.2, 223637.56, 0.0, 10.0025015, 9.999276 
2.8338495e+3, 2.1374987e+2, -644696.2, -841311.4, 17334.56, 0.12788466, 0.11161543, -643179.6, 202087.13, 0.0, 10.002264, 9.999455 
2.833524e+3, 2.2374396e+2, -695856.44, -1002728.2, 77407.914, 0.10458744, 0.1819488, -677436.1, 69890.98, 0.0, 10.002012, 9.997816 
2.8331974e+3, 2.3373725e+2, -621462.0, -907129.94, 42597.195, -0.07763451, 0.2517218, -615245.44, 34156.35, 0.0, 10.001823, 9.99788 
2.8328717e+3, 2.437314e+2, -455000.25, -489953.6, -27403.027, -0.14194609, 0.2947364, -439975.25, 111485.34, 0.0, 10.001041, 10.000462 
2.8325462e+3, 2.5372666e+2, -578490.5, -439275.66, 8130.051, -0.050028764, 0.2534544, -438802.47, 14695.152, 0.0, 9.999269, 10.000983 
2.8322214e+3, 2.6372087e+2, -788973.56, -755805.7, 172777.33, -0.04255953, 0.2142079, -598818.25, -243268.89, 0.0, 9.99826, 9.998636 
2.8318983e+3, 2.7371326e+2, -642520.75, -634580.75, 75055.58, -0.15646951, 0.11797995, -563390.25, -305766.2, 0.0, 9.998617, 9.998618 
2.831576e+3, 2.837065e+2, -533364.0, -568989.3, -30074.1, -0.0765738, 0.11241709, -516223.25, -356532.53, 0.0, 9.998838, 9.998298 
2.831254e+3, 2.937005e+2, -407833.72, -448461.66, 31640.025, 0.25284794, 0.19372234, -390547.84, -328797.53, 0.0, 9.998981, 9.998379 
2.8309304e+3, 3.036942e+2, -405185.6, -375823.28, 217311.61, 0.31702098, 0.25550842, -172697.5, -172697.5, 0.0, 9.998227, 9.998581 
2.830607e+3, 3.1368744e+2, -628719.3, -407518.6, 209755.83, 0.18656017, 0.19588283, -280990.4, -280990.4, 0.0, 9.996108, 9.999059 
2.830287e+3, 3.2368323e+2, -335414.6, -7303.3945, -28704.646, 0.5686589, 0.3643456, -4811.114, -4811.114, 0.0, 9.997023, 10.001336 
2.8464496e+3, 1.3413064e+2, -1081507.3, -1320747.3, 188380.72, -0.002176914, 0.090351515, -977976.5, 647555.8, 0.000024810672, 10.003976, 10.000724 
2.846128e+3, 1.4412485e+2, -1251982.5, -1703368.3, -35387.13, 0.2860139, 0.08887728, -1249225.1, 278362.66, 0.0000075134353, 10.003666, 9.997599 
2.8457993e+3, 1.541185e+2, -982306.3, -1511817.9, -7172.305, 0.14770982, 0.19892289, -982209.1, 447447.44, 0.0000012508747, 10.004851, 9.997638 
2.8454718e+3, 1.6411181e+2, -874115.75, -1407071.4, 12855.389, 0.09054167, 0.29192546, -873805.8, 457921.7, 0.000000073245815, 10.004873, 9.997694 
2.845145e+3, 1.741044e+2, -996952.3, -1387294.4, 45287.61, 0.0014401869, 0.27203938, -991766.9, 242036.84, 0.0, 10.003266, 9.997917 
2.8448188e+3, 1.8409757e+2, -1067528.4, -1336645.0, 136030.25, -0.0896689, 0.3189928, -1010748.9, 125123.07, 0.0, 10.001949, 9.998248 
2.844495e+3, 1.9409089e+2, -1066277.4, -1261413.4, 157069.52, -0.095211126, 0.31757003, -978939.1, 58995.465, 0.0, 10.0012045, 9.998435 
2.8441712e+3, 2.0408396e+2, -960055.4, -1071788.4, 52675.77, -0.013535711, 0.28476802, -939137.75, 860.78894, 0.0, 10.000886, 9.999209 
2.843846e+3, 2.140767e+2, -815677.3, -930002.0, 21106.398, 0.12107491, 0.122667, -811905.1, 30160.02, 0.0, 10.001123, 9.999392 
2.84352e+3, 2.2407001e+2, -840806.25, -1083788.1, 92712.86, 0.08781743, 0.12942088, -809471.4, -65339.76, 0.0, 10.001095, 9.997691 
2.8431928e+3, 2.3406385e+2, -757871.56, -993921.4, 144402.78, -0.17426527, 0.25756156, -689397.0, -43195.188, 0.0, 10.000994, 9.997682 
2.8428665e+3, 2.4405837e+2, -449428.0, -475409.16, 33974.734, -0.24302097, 0.35305122, -426045.0, 122212.27, 0.0, 10.00108, 10.000518 
2.8425413e+3, 2.5405362e+2, -278352.4, -288473.3, -69113.234, -0.011015632, 0.2922143, -214114.61, 236178.27, 0.0, 10.001351, 10.000994 
2.8422162e+3, 2.6404777e+2, -507778.25, -757078.9, 106097.734, 0.028381864, 0.30200362, -468738.53, -116392.13, 0.0, 10.00084, 9.99736 
2.8418916e+3, 2.7403978e+2, -593320.06, -776683.06, 136370.94, -0.22099885, 0.28896686, -520677.13, -266245.56, 0.0, 9.999701, 9.997107 
2.841568e+3, 2.840328e+2, -406639.53, -339143.13, 61341.137, -0.24972555, 0.29721087, -302879.34, -146379.22, 0.0, 9.999027, 9.999764 
2.8412458e+3, 2.94027e+2, -245029.23, -160121.72, 29048.9, 0.038710777, 0.20326479, -151134.63, -92587.4, 0.0, 9.999221, 10.000236 
2.840923e+3, 3.0402014e+2, -316421.22, -292760.38, 79566.375, 0.2606403, 0.08837017, -224149.72, -224149.72, 0.0, 9.998705, 9.998902 
2.8406033e+3, 3.1401134e+2, -467793.88, -320786.44, 74900.99, 0.6859208, -0.20664328, -289347.53, -289347.53, 0.0, 9.997209, 9.9991045 
2.8402713e+3, 3.2400814e+2, -632519.0, -706797.06, 200819.52, -0.21145058, 0.26125357, -465433.22, -465433.22, 0.0, 9.997422, 9.996312 
2.8564486e+3, 1.3445108e+2, -1349630.9, -1845907.9, 114780.38, -0.035308775, -0.64806944, -1324370.0, 298007.53, 0.000013007372, 10.0038, 9.997227 
2.8561246e+3, 1.4445598e+2, -1268808.1, -1683346.0, 5997.2236, 0.12299806, 0.6107199, -1268721.4, 255629.36, 0.0000037394736, 10.003394, 9.997881 
2.8557953e+3, 1.5444869e+2, -973454.3, -1456628.1, 61543.766, -0.2090693, 0.5807729, -965738.44, 460693.8, 0.00000051506584, 10.00466, 9.998124 
2.855469e+3, 1.6444004e+2, -840211.6, -1329905.6, -26819.76, -0.19193156, 0.42992282, -838747.1, 489772.47, 0.00000002542409, 10.004838, 9.998245 
2.855144e+3, 1.7442964e+2, -948289.06, -1310757.5, 8883.444, 0.117831215, 0.07422875, -948071.5, 282543.72, 0.0, 10.0033655, 9.998395 
2.8548175e+3, 1.8442257e+2, -1007681.94, -1251503.1, 125412.31, 0.0968396, 0.046884928, -954691.3, 177990.22, 0.0, 10.002117, 9.998748 
2.8544894e+3, 1.9441903e+2, -1020488.56, -1196555.8, 159214.64, -0.26394752, 0.33902478, -926590.25, 108125.87, 0.0, 10.001311, 9.998838 
2.854164e+3, 2.0441304e+2, -980479.75, -1149803.8, 81937.61, -0.27314475, 0.40431333, -947322.25, -10547.686, 0.0, 10.000993, 9.998641 
2.8538418e+3, 2.1440397e+2, -845928.7, -1021583.2, 52830.14, 0.107481904, 0.14874649, -831263.75, 7598.831, 0.0, 10.001203, 9.998738 
2.8535175e+3, 2.2439714e+2, -691743.9, -821576.3, 122942.25, 0.23316938, 0.09306016, -617631.6, 123296.76, 0.0, 10.001274, 9.999407 
2.853191e+3, 2.343926e+2, -594897.06, -716687.2, 194019.64, 0.038889013, 0.21638958, -452440.63, 190531.08, 0.0, 10.00121, 9.99949 
2.8528646e+3, 2.4438629e+2, -559089.6, -818884.25, 108723.88, -0.051396567, 0.25528848, -519593.3, 25440.656, 0.0, 10.001536, 9.997955 
2.8525382e+3, 2.543779e+2, -313328.7, -633237.4, -24220.398, -0.00058358646, 0.14241314, -311505.34, 135611.92, 0.0, 10.002477, 9.998099 
2.852213e+3, 2.6437128e+2, -193721.4, -410209.03, 65063.633, 0.022911714, 0.14547966, -175671.92, 173509.78, 0.0, 10.002142, 9.999122 
2.8518885e+3, 2.7436617e+2, -329402.3, -415045.47, 133363.23, -0.029684838, 0.23739226, -232154.48, 19074.936, 0.0, 10.0004835, 9.999222 
2.8515646e+3, 2.8435978e+2, -382466.97, -435289.0, 135342.75, -0.009525743, 0.23281035, -270982.38, -117693.42, 0.0, 9.999601, 9.998848 
2.851241e+3, 2.9435188e+2, -242884.06, -303329.9, 44897.355, 0.10127478, 0.069596864, -218984.92, -163624.1, 0.0, 9.999833, 9.998968 
2.8509164e+3, 3.0434507e+2, -180790.36, -205880.13, 27359.352, 0.15826973, 0.016269237, -163236.94, -163236.94, 0.0, 9.999534, 9.999105 
2.8505936e+3, 3.14339e+2, -227832.89, -176563.17, 13618.795, 0.4201701, -0.017739592, -173170.14, -173170.14, 0.0, 9.998739, 9.999361 
2.8502634e+3, 3.243342e+2, -322336.72, -277477.78, 227979.38, -0.2914695, 0.15134504, -70827.18, -70827.18, 0.0, 9.998279, 9.998882 
2.866447e+3, 1.3477996e+2, -1423421.8, -1937882.8, -61429.176, -0.035562135, -0.33054173, -1416188.5, 202974.75, 0.0000059629547, 10.003587, 9.996676 
2.8661224e+3, 1.4478223e+2, -1344517.8, -1605877.1, 16690.195, 0.15726823, 0.6339721, -1343456.3, 177703.95, 0.0000015122073, 10.002418, 9.998873 
2.865793e+3, 1.5477489e+2, -1246910.1, -1490438.3, 105036.836, -0.26967123, 0.49686122, -1207866.1, 215369.81, 0.0000000966577, 10.002373, 9.998998 
2.8654668e+3, 1.6476695e+2, -1161175.9, -1461756.4, -7394.245, -0.2248865, 0.36839762, -1160994.1, 164320.14, 0.00000000026919006, 10.002558, 9.998442 
2.865143e+3, 1.7475808e+2, -1011098.9, -1333828.3, -6317.0625, 0.2355707, 0.14485909, -1010975.25, 216421.8, 0.0, 10.002914, 9.998464 
2.8648165e+3, 1.847509e+2, -874893.75, -1191793.5, 94917.516, 0.23994538, 0.109758765, -848639.3, 280825.13, 0.0, 10.003068, 9.998685 
2.864487e+3, 1.9474596e+2, -812678.56, -1105679.8, 93981.164, -0.21380909, 0.250083, -785124.94, 246387.42, 0.0, 10.002818, 9.9987135 
2.8641605e+3, 2.0474005e+2, -814024.06, -1107863.6, 35839.14, -0.2965417, 0.34584698, -809716.0, 123855.45, 0.0, 10.002358, 9.998256 
2.8638375e+3, 2.1473226e+2, -813979.94, -1051759.1, 36333.375, 0.051651284, 0.24310496, -808552.0, 27098.78, 0.0, 10.001673, 9.998292 
2.8635135e+3, 2.2472562e+2, -651083.0, -715073.1, 87775.3, 0.21077783, 0.19475985, -589653.25, 148059.83, 0.0, 10.001212, 10.000153 
2.863188e+3, 2.3472045e+2, -607264.7, -630490.2, 66731.92, 0.13430803, 0.15611286, -551142.6, 88612.414, 0.0, 10.000796, 10.000254 
2.8628618e+3, 2.4471377e+2, -741218.75, -1034219.56, 69234.64, 0.071501404, 0.1665008, -725682.75, -183863.34, 0.0, 10.000878, 9.99678 
2.8625357e+3, 2.5470465e+2, -583196.8, -931803.1, 115220.95, 0.035180688, 0.0947889, -548556.3, -104639.914, 0.0, 10.001378, 9.996576 
2.86221e+3, 2.646976e+2, -301995.56, -374443.5, 143497.84, 0.04141107, 0.11911657, -190220.19, 155766.11, 0.0, 10.001054, 9.999874 
2.861885e+3, 2.7469304e+2, -373172.1, -335677.7, 74514.64, 0.09871349, 0.16555786, -277588.13, -29564.54, 0.0, 9.99978, 10.000096 
2.8615606e+3, 2.846867e+2, -536527.7, -574737.44, 105584.59, 0.14663014, 0.14616917, -448333.44, -298253.25, 0.0, 9.998864, 9.998238 
2.8612357e+3, 2.9467773e+2, -508820.56, -525240.06, 129285.93, 0.15876687, -0.057676803, -387483.97, -335319.44, 0.0, 9.998429, 9.998123 
2.860909e+3, 3.0467135e+2, -384682.3, -291160.2, 119361.305, 0.051301036, -0.014511508, -209727.2, -209727.2, 0.0, 9.998109, 9.999195 
2.8605834e+3, 3.1466815e+2, -393888.47, -253412.61, 95472.75, 0.04762854, 0.21973304, -205124.53, -205124.53, 0.0, 9.997607, 9.999378 
2.860257e+3, 3.2466006e+2, -430711.1, 67231.945, 260287.3, -0.2053545, -0.08961189, 178449.67, 178449.67, 0.0, 9.995835, 10.0024395 
2.8764454e+3, 1.3511235e+2, -1388645.3, -1786661.4, -128762.98, -0.043588344, 0.4237051, -1350621.4, 265304.8, 0.0000021473002, 10.00321, 9.997906 
2.876121e+3, 1.4510529e+2, -1224848.8, -1370047.0, 49317.82, 0.29395682, 0.31889942, -1209681.9, 308317.25, 0.00000043033984, 10.00245, 10.00048 
2.8757915e+3, 1.5509821e+2, -1135779.8, -1271742.3, 135759.1, -0.14393295, 0.06638581, -1051932.1, 368126.44, 0.000000019645139, 10.002402, 10.000489 
2.8754655e+3, 1.6509323e+2, -1156952.5, -1475746.5, 17148.813, -0.0942296, 0.1682136, -1156032.8, 166074.63, 0.0, 10.0026245, 9.998323 
2.8751415e+3, 1.7508996e+2, -1001729.8, -1348454.5, 30535.256, 0.29691184, 0.5327249, -999061.1, 225086.55, 0.0, 10.003022, 9.998321 
2.8748158e+3, 1.8508224e+2, -875026.4, -1236495.8, 101518.984, 0.35727197, 0.46822977, -848466.25, 277758.16, 0.0, 10.003215, 9.998324 
2.874488e+3, 1.9507064e+2, -794780.6, -1145356.0, 105530.9, 0.11758386, -0.005409836, -765464.94, 262868.47, 0.0, 10.00311, 9.998315 
2.8741604e+3, 2.0506418e+2, -734184.25, -1024084.5, 21480.33, -0.043272927, 0.03804699, -732601.25, 197796.08, 0.0, 10.002712, 9.99865 
2.8738326e+3, 2.1506199e+2, -735582.6, -979638.7, 35656.695, -0.12582807, 0.47807658, -730479.9, 101944.73, 0.0, 10.002035, 9.998614 
2.8735065e+3, 2.2505577e+2, -654124.25, -800339.6, 87288.195, -0.09924807, 0.49044752, -613372.56, 121111.81, 0.0, 10.00152, 9.999427 
2.8731823e+3, 2.3504601e+2, -610815.56, -719159.7, 47151.227, -0.0063018077, 0.08477819, -593169.44, 43402.383, 0.0, 10.001109, 9.999506 
2.872858e+3, 2.4504027e+2, -491878.97, -583196.44, 90755.805, 0.094331354, 0.07580328, -435943.72, 102680.0, 0.0, 10.001115, 9.999793 
2.8725332e+3, 2.550376e+2, -352825.97, -486341.2, 192866.38, 0.19144294, 0.3695764, -215490.42, 225158.77, 0.0, 10.00146, 9.999625 
2.8722066e+3, 2.6503074e+2, -477953.0, -741587.5, 178148.45, 0.14189106, 0.38471472, -388156.5, -45438.938, 0.0, 10.001034, 9.997368 
2.8718784e+3, 2.750202e+2, -526486.9, -701969.2, 48581.434, -0.037261568, 0.11465331, -513935.1, -269112.84, 0.0, 9.999957, 9.9975 
2.871553e+3, 2.8501287e+2, -352347.75, -191456.47, 97788.29, 0.02846835, -0.0033025555, -145276.47, 1611.2258, 0.0, 9.998858, 10.000875 
2.8712296e+3, 2.9500797e+2, -377043.66, -166856.14, 185321.89, 0.28068537, -0.048800495, -58903.188, -9980.629, 0.0, 9.998054, 10.00077 
2.8709027e+3, 3.0500296e+2, -469963.9, -376686.5, 238469.52, 0.17233631, 0.025493512, -180337.8, -180337.8, 0.0, 9.997693, 9.998809 
2.8705746e+3, 3.1499848e+2, -382993.2, -298257.7, 188867.69, -0.054239236, 0.19819874, -147064.0, -147064.0, 0.0, 9.997872, 9.998946 
2.870249e+3, 3.249898e+2, -702160.2, -71401.98, 76362.26, 0.047281172, -0.14602211, -62288.902, -62288.902, 0.0, 9.994008, 10.002347 
2.886443e+3, 1.3544153e+2, -1314319.9, -1547809.1, 25420.492, -0.023528319, 0.547525, -1311584.4, 301122.84, 0.0000003382392, 10.002834, 9.999719 
2.8861204e+3, 1.4543243e+2, -1056627.0, -1277514.8, 188352.55, 0.43970954, 0.16009244, -948725.94, 566062.2, 0.000000039050374, 10.003553, 10.000575 
2.8857893e+3, 1.5542553e+2, -948153.6, -1195451.4, 173822.55, -0.16360085, -0.07741388, -858487.44, 558356.44, 0.0000000006124831, 10.003755, 10.000363 
2.885463e+3, 1.6542101e+2, -1019384.06, -1436905.3, 27887.643, -0.15132597, 0.09411689, -1017529.56, 301360.72, 0.0, 10.003725, 9.998038 
2.885139e+3, 1.7541842e+2, -986366.56, -1378720.5, 37381.977, 0.24331938, 0.5479847, -982836.7, 238092.86, 0.0, 10.003323, 9.997954 
2.8848127e+3, 1.8541135e+2, -983549.5, -1249761.5, 108435.125, 0.3256397, 0.54638654, -944971.56, 178030.98, 0.0, 10.002354, 9.998629 
2.8844857e+3, 1.953997e+2, -1128497.6, -1285513.1, 158371.75, 0.19790263, 0.037667263, -1030242.56, -5131.5454, 0.0, 10.000762, 9.99848 
2.8841576e+3, 2.053932e+2, -985366.4, -1132278.6, 139714.6, 0.04149615, 0.068250656, -900974.56, 26200.684, 0.0, 10.000961, 9.998742 
2.8838292e+3, 2.1539143e+2, -681249.56, -959176.06, 132619.39, -0.1532482, 0.54308236, -628122.5, 201075.58, 0.0, 10.002474, 9.998536 
2.8835022e+3, 2.253848e+2, -591848.94, -851040.56, 137848.63, -0.21201514, 0.56242144, -532242.94, 199019.8, 0.0, 10.00234, 9.998668 
2.883177e+3, 2.3537341e+2, -731401.4, -875353.94, 100333.195, -0.12743841, 0.07202493, -679897.56, -46529.203, 0.0, 10.000739, 9.998609 
2.8828532e+3, 2.4536821e+2, -526106.94, -405864.2, 111806.8, 0.06341251, 0.08174879, -339039.34, 196373.73, 0.0, 10.000093, 10.001475 
2.8825304e+3, 2.553684e+2, -466084.47, -372259.34, 84789.16, 0.31790146, 0.47310868, -322269.94, 115134.62, 0.0, 10.000014, 10.001079 
2.882203e+3, 2.6536182e+2, -693179.94, -981526.7, 71902.94, 0.21773139, 0.49709216, -676244.7, -336774.94, 0.0, 10.000193, 9.996109 
2.881872e+3, 2.7534857e+2, -583368.5, -878502.44, 115150.984, -0.14570971, 0.07987272, -543757.06, -302151.3, 0.0, 10.000255, 9.996133 
2.881546e+3, 2.8534093e+2, -119759.27, 71868.24, 127906.625, -0.083448194, -0.062968746, 135868.06, 279542.4, 0.0, 9.999845, 10.002194 
2.8812233e+3, 2.9533815e+2, -194674.06, 51885.4, 52117.543, 0.33360663, -0.042263962, 62449.344, 108133.03, 0.0, 9.998778, 10.001915 
2.8808966e+3, 3.0533376e+2, -335008.9, -362116.16, 64675.734, 0.24075472, 0.048769742, -282481.9, -282481.9, 0.0, 9.998868, 9.998343 
2.8805673e+3, 3.15328e+2, -172286.17, -268377.2, 43341.715, -0.1018343, 0.13126886, -155625.61, -155625.61, 0.0, 9.999657, 9.998294 
2.8802407e+3, 3.2531962e+2, -212784.88, 17359.756, -290178.3, 0.25479084, -0.1371036, 214449.39, 214449.39, 0.0, 9.998102, 10.0009365 
2.8964412e+3, 1.3576949e+2, -1186074.5, -1280074.6, 56026.313, -0.0032302248, 0.3416544, -1159944.9, 449546.13, 0.0000000028010363, 10.002788, 10.001595 
2.8961197e+3, 1.4576219e+2, -1158739.9, -1433975.0, 202091.23, 0.53495044, 0.09925884, -1051859.1, 459686.97, 0.0, 10.003294, 9.999632 
2.8957862e+3, 1.5575585e+2, -1039054.4, -1347406.0, 194881.42, -0.34351802, 0.019893328, -944736.8, 468864.97, 0.0, 10.003565, 9.999421 
2.895459e+3, 1.6574946e+2, -1037835.7, -1467904.9, 30137.994, -0.39469576, 0.062320992, -1035734.0, 279935.6, 0.0, 10.003666, 9.997858 
2.8951353e+3, 1.7574322e+2, -961224.1, -1371483.0, 43197.668, 0.0469012, 0.17851202, -956725.06, 261019.83, 0.0, 10.003493, 9.997921 
2.8948078e+3, 1.8573871e+2, -876414.2, -1068369.5, 59806.65, 0.105706066, 0.37254876, -859305.4, 260488.55, 0.0, 10.002495, 9.999813 
2.8944784e+3, 1.9573483e+2, -1038764.44, -1117795.6, 122062.56, -0.07849073, 0.53767526, -949980.56, 71848.984, 0.0, 10.000793, 9.99963 
2.8941527e+3, 2.0572798e+2, -964636.5, -1131796.8, 225222.92, -0.041797996, 0.48395538, -807985.5, 115910.37, 0.0, 10.001091, 9.99871 
2.8938293e+3, 2.1571927e+2, -618204.3, -929101.75, 222728.8, 0.108866885, 0.2801132, -502042.25, 323939.25, 0.0, 10.0028515, 9.998584 
2.8935018e+3, 2.2571178e+2, -588913.8, -923637.75, 102856.71, 0.013736513, 0.24624804, -559833.6, 168220.67, 0.0, 10.002643, 9.998034 
2.8931713e+3, 2.3570459e+2, -734483.0, -934422.25, 74849.74, -0.23926654, 0.2508068, -709567.06, -79444.305, 0.0, 10.000912, 9.998131 
2.8928465e+3, 2.4569789e+2, -617437.75, -598338.56, 128165.02, -0.07525319, 0.20049268, -479367.88, 52816.457, 0.0, 10.000072, 10.000168 
2.8925255e+3, 2.5569192e+2, -541345.75, -516782.84, 58689.355, 0.35921356, 0.1105258, -469103.7, -34866.26, 0.0, 9.999928, 10.000127 
2.8921992e+3, 2.656869e+2, -433808.53, -469193.9, 100977.4, 0.35522124, 0.1546382, -348985.53, -12703.231, 0.0, 10.000282, 9.999594 
2.8918692e+3, 2.7568164e+2, -240032.69, -360920.94, 212263.02, 0.015636474, 0.21134238, -79775.48, 158555.1, 0.0, 10.001076, 9.999289 
2.8915414e+3, 2.856739e+2, -281156.8, -475234.03, 149211.5, -0.029548803, 0.13568395, -200205.06, -59799.996, 0.0, 10.000728, 9.9980135 
2.8912157e+3, 2.9566476e+2, -333976.03, -453044.66, -21699.184, 0.14594193, -0.056196515, -330144.84, -287651.38, 0.0, 9.99969, 9.998003 
2.89089e+3, 3.0565792e+2, -132915.23, -243052.97, 40068.477, 0.13427466, -0.039846852, -119880.77, -119880.77, 0.0, 10.000173, 9.998555 
2.8905657e+3, 3.1565252e+2, 133801.97, -137683.05, -10908.598, 0.14043348, 0.084438816, 134239.6, 134239.6, 0.0, 10.00183, 9.998185 
2.8902385e+3, 3.2564288e+2, 311668.28, -127196.445, -461865.63, 0.40913573, -0.09480806, 603577.7, 603577.7, 0.0, 10.003356, 9.997493 
2.9064405e+3, 1.3609657e+2, -1070567.1, -1164229.9, 13519.848, 0.13835894, 0.13244818, -1068654.6, 537629.94, 0.00000000011876347, 10.003353, 10.002131 
2.906114e+3, 1.4609334e+2, -1187002.4, -1431763.3, 131345.2, 0.14861934, 0.25923488, -1129859.8, 378437.88, 0.0, 10.00307, 9.999757 
2.9057845e+3, 1.560867e+2, -1293330.1, -1461892.9, 185050.34, -0.26353592, 0.1349311, -1174271.9, 236087.1, 0.0, 10.00183, 9.99946 
2.9054576e+3, 1.6607949e+2, -1303203.9, -1562248.4, 102615.74, -0.2498115, 0.07984026, -1267480.9, 44953.137, 0.0, 10.001728, 9.998132 
2.9051325e+3, 1.760718e+2, -1163303.9, -1448136.3, 142870.58, 0.0056844577, 0.020743934, -1103991.6, 110527.77, 0.0, 10.002041, 9.998094 
2.9048038e+3, 1.8606761e+2, -907727.3, -1085970.6, 98149.05, -0.029097129, 0.24980754, -864274.8, 252290.2, 0.0, 10.002327, 9.999763 
2.9044732e+3, 1.9606584e+2, -835338.5, -1030111.25, 78841.39, -0.21456532, 0.6197826, -807424.94, 211158.06, 0.0, 10.002275, 9.999501 
2.9041487e+3, 2.0605902e+2, -966232.0, -1157978.8, 174396.52, -0.051083475, 0.58340657, -863093.2, 57557.33, 0.0, 10.001239, 9.998429 
2.903828e+3, 2.1604823e+2, -1118554.0, -1209077.6, 153922.19, 0.33728206, 0.18052445, -1003376.9, -180620.33, 0.0, 9.999627, 9.998195 
2.9035002e+3, 2.2604078e+2, -977781.75, -1111493.6, 41897.363, 0.21517715, 0.16345766, -965738.4, -240909.58, 0.0, 10.00003, 9.99798 
2.9031673e+3, 2.3603565e+2, -728040.7, -966334.6, 65466.54, -0.23309563, 0.37252948, -711239.6, -84361.31, 0.0, 10.001159, 9.997782 
2.9028413e+3, 2.4602768e+2, -572709.25, -717737.1, 142145.94, -0.1312479, 0.2803946, -485649.6, 43304.73, 0.0, 10.001033, 9.998856 
2.90252e+3, 2.5601766e+2, -643570.25, -691265.25, 81911.625, 0.34034142, -0.09222141, -582105.25, -151055.7, 0.0, 9.999814, 9.998972 
2.9021943e+3, 2.6601377e+2, -393373.25, -153693.4, 94097.586, 0.39143658, -0.02428488, -121165.48, 211913.81, 0.0, 9.9993, 10.002224 
2.9018658e+3, 2.7601376e+2, -449940.16, -258966.16, 96105.375, 0.13517843, 0.2806359, -218976.19, 16091.121, 0.0, 9.998764, 10.00111 
2.9015365e+3, 2.8600594e+2, -694572.2, -1002682.9, 60857.816, -0.013869555, 0.2654691, -682987.2, -545839.7, 0.0, 9.999345, 9.995039 
2.901208e+3, 2.9599264e+2, -476276.97, -866381.75, 101826.99, -0.07801488, -0.031965673, -451297.16, -412005.5, 0.0, 10.000258, 9.994866 
2.9008827e+3, 3.0598548e+2, 19140.531, -179238.13, 235052.19, -0.118864775, 0.10242994, 175074.8, 175074.8, 0.0, 10.001327, 9.998383 
2.9005602e+3, 3.159824e+2, 19708.104, -325446.22, 130070.734, -0.05330208, 0.5004659, 63235.72, 63235.72, 0.0, 10.0017, 9.996915 
2.9002276e+3, 3.2597286e+2, 52214.785, -365035.4, -73423.09, -0.47278744, 0.46840844, 64757.91, 64757.91, 0.0, 10.002108, 9.996405 
2.9164386e+3, 1.3642351e+2, -1117842.4, -1166697.1, 20206.883, 0.13700737, -0.017507164, -1110567.8, 492513.1, 0.0000000000007792345, 10.00294, 10.002315 
2.916105e+3, 1.4642516e+2, -1168577.0, -1307459.9, 88779.516, -0.5070577, 0.5423488, -1125306.9, 379740.56, 0.0, 10.002688, 10.000801 
2.9157838e+3, 1.5641779e+2, -1242315.1, -1336391.6, 145690.64, 0.015659584, 0.2532887, -1136257.5, 270860.0, 0.0, 10.001722, 10.000381 
2.9154584e+3, 1.6641088e+2, -1251235.6, -1448828.1, 115982.69, 0.17647421, 0.14314015, -1197674.8, 111510.4, 0.0, 10.001682, 9.998938 
2.91513e+3, 1.7640397e+2, -1095899.3, -1346020.8, 158611.1, 0.0562034, 0.096417956, -1018975.75, 192278.73, 0.0, 10.002156, 9.998756 
2.9148003e+3, 1.8639737e+2, -967815.56, -1238300.9, 105160.6, -0.08437352, 0.11096036, -931741.8, 181580.1, 0.0, 10.002419, 9.998678 
2.9144704e+3, 1.9639115e+2, -869871.9, -1162081.0, 81639.93, -0.2206328, 0.1534953, -848609.7, 166776.03, 0.0, 10.002497, 9.998496 
2.914146e+3, 2.0638537e+2, -981924.56, -1233276.4, 97680.484, 0.031553667, 0.30235055, -948427.94, -30979.617, 0.0, 10.001356, 9.997881 
2.9138237e+3, 2.1637934e+2, -1157374.1, -1251435.8, 87564.78, 0.47848976, 0.43572286, -1105009.4, -285494.2, 0.0, 9.999404, 9.998031 
2.9134965e+3, 2.2637254e+2, -932368.8, -964200.56, 103358.79, 0.42196286, 0.42697972, -843707.7, -122126.33, 0.0, 9.999774, 9.999133 
2.9131663e+3, 2.363654e+2, -594821.75, -789539.6, 134988.27, 0.059231494, 0.33657598, -525745.75, 97900.766, 0.0, 10.001531, 9.9988365 
2.9128388e+3, 2.4635787e+2, -589178.5, -848188.94, 113066.53, 0.01492769, 0.302904, -546766.2, -21046.428, 0.0, 10.001399, 9.9978 
2.9125133e+3, 2.5634998e+2, -640963.3, -766727.25, 60695.723, 0.17641644, 0.2533141, -616449.0, -188649.47, 0.0, 10.0001, 9.998332 
2.9121864e+3, 2.6634422e+2, -466990.72, -211699.64, 69061.88, 0.20606907, 0.17291804, -194214.45, 135633.16, 0.0, 9.998854, 10.002051 
2.9118583e+3, 2.7634016e+2, -576644.3, -292507.2, 39174.613, 0.119553745, 0.08529703, -287205.03, -55331.625, 0.0, 9.997745, 10.001371 
2.9115304e+3, 2.8633475e+2, -549989.5, -623318.6, 174964.27, -0.007067173, 0.15046474, -407889.44, -273959.63, 0.0, 9.998988, 9.997823 
2.9112035e+3, 2.963282e+2, -199672.92, -429303.3, 314877.6, -0.07931499, 0.2636668, 20669.205, 56677.266, 0.0, 10.000802, 9.997605 
2.926436e+3, 1.3675427e+2, -1275785.3, -1216885.0, 24799.615, 0.16355814, 0.11166625, -1207834.1, 392001.72, 0.0, 10.001773, 10.0025215 
2.9261014e+3, 1.46754e+2, -1498543.9, -1548388.8, 94013.16, -0.5142944, 0.5168567, -1426205.9, 75619.375, 0.0, 10.000796, 10.000048 
2.9257816e+3, 1.5674536e+2, -1356084.9, -1460751.3, 44436.277, 0.18069774, 0.16373622, -1339764.3, 64144.836, 0.0, 10.001248, 9.999754 
2.9254562e+3, 1.667391e+2, -1279495.5, -1395099.5, -21894.559, 0.34003475, 0.10305955, -1275487.8, 30481.053, 0.0, 10.001222, 9.999521 
2.9251269e+3, 1.7673384e+2, -1289642.6, -1390962.9, 4440.0464, 0.12419144, 0.14047693, -1289448.4, -81430.02, 0.0, 10.000659, 9.999164 
2.9247972e+3, 1.8672664e+2, -1177819.3, -1374956.1, 2185.3977, -0.052805334, 0.079584695, -1177795.1, -67705.35, 0.0, 10.001135, 9.998361 
2.9244682e+3, 1.9671836e+2, -1028585.0, -1292387.6, 39621.05, -0.13269462, -0.06200665, -1022762.7, -10589.675, 0.0, 10.0016575, 9.998006 
2.924143e+3, 2.0671281e+2, -755134.7, -1137207.8, 85033.695, 0.07959439, 0.13126591, -737064.4, 177170.75, 0.0, 10.003027, 9.997712 
2.9238197e+3, 2.1670862e+2, -492422.88, -943383.4, 101556.99, 0.4350646, 0.45781207, -470607.4, 345679.1, 0.0, 10.004068, 9.997894 
2.9234928e+3, 2.2670254e+2, -380382.13, -604099.3, 141990.56, 0.42711127, 0.4769362, -311482.13, 406864.13, 0.0, 10.003164, 9.999972 
2.9231644e+3, 2.366953e+2, -608322.2, -725055.3, 152252.66, 0.21934967, 0.28179738, -503631.9, 116779.984, 0.0, 10.001173, 9.999443 
2.922836e+3, 2.4668889e+2, -633626.2, -843921.7, 170099.75, 0.10405916, 0.32324132, -538799.0, -16324.007, 0.0, 10.001048, 9.997976 
2.9225072e+3, 2.5668284e+2, -476748.28, -678473.0, 221932.2, 0.060275927, 0.44046026, -333833.84, 90704.06, 0.0, 10.001254, 9.998365 
2.922179e+3, 2.6667562e+2, -270810.7, -199683.23, 205280.14, 0.071112856, 0.27057227, -26908.982, 299693.16, 0.0, 10.000602, 10.001281 
2.9218507e+3, 2.766681e+2, -405963.34, -222959.66, 148588.25, 0.07393289, -0.09443228, -139959.19, 88705.016, 0.0, 9.999001, 10.001248 
2.921524e+3, 2.866654e+2, -357590.66, -196583.25, 329021.66, -0.04739358, 0.08282435, 61640.227, 192333.2, 0.0, 9.9989395, 10.000749 
2.9211986e+3, 2.9666504e+2, -339318.6, -141482.75, 363390.16, -0.098925374, 0.4759434, 136212.08, 168919.56, 0.0, 9.998342, 10.000777 
2.9364336e+3, 1.370865e+2, -1347101.6, -1260076.3, -109298.29, 0.282967, 0.30920884, -1185947.6, 410626.97, 0.0, 10.001279, 10.002474 
2.9361004e+3, 1.4708072e+2, -1639118.5, -1822580.0, 111713.56, -0.16977043, 0.28132477, -1586300.1, -87676.99, 0.0, 10.000688, 9.998232 
2.935778e+3, 1.5707026e+2, -1432037.9, -1642982.0, 62316.13, 0.162844, -0.068717316, -1415004.3, -14277.895, 0.0, 10.001313, 9.998485 
2.935452e+3, 1.6706477e+2, -1240399.9, -1330237.5, -34974.3, 0.29283568, -0.029915217, -1228389.8, 74389.6, 0.0, 10.001239, 9.999981 
2.9351228e+3, 1.7706142e+2, -1220829.3, -1301062.9, 900.2118, 0.18266259, 0.15789458, -1220819.3, -16008.272, 0.0, 10.000831, 9.999719 
2.9347944e+3, 1.8705553e+2, -1112267.5, -1266840.6, 22542.703, 0.07942704, 0.16992918, -1109047.0, -2179.355, 0.0, 10.001221, 9.999077 
2.9344666e+3, 1.9704829e+2, -930670.9, -1160689.8, 74736.36, 0.01747572, 0.070298016, -908520.94, 100417.39, 0.0, 10.001924, 9.998794 
2.9341406e+3, 2.0704116e+2, -670494.5, -1045337.4, 148478.2, 0.038325638, 0.04887401, -618808.06, 292203.6, 0.0, 10.003381, 9.998175 
2.9338157e+3, 2.170342e+2, -301222.25, -783812.56, 136822.33, 0.07983242, 0.06323312, -265130.13, 547954.9, 0.0, 10.005032, 9.998542 
2.933488e+3, 2.270297e+2, -240596.3, -491936.2, 48974.734, 0.110677436, 0.1837741, -231390.53, 483741.13, 0.0, 10.003853, 10.000447 
2.9331592e+3, 2.3702602e+2, -497003.4, -550028.75, 77310.195, 0.100228466, 0.29819536, -441786.1, 175381.84, 0.0, 10.0013275, 10.000603 
2.9328316e+3, 2.4702115e+2, -416760.38, -418368.1, 218910.8, 0.12430655, 0.27779788, -198651.97, 320559.78, 0.0, 10.001107, 10.000894 
2.932505e+3, 2.5701568e+2, -210941.67, -308742.03, 287655.03, 0.16959225, 0.18252097, 31939.986, 453200.34, 0.0, 10.001976, 10.000575 
2.9321757e+3, 2.6700878e+2, -316789.75, -470316.0, 207159.2, 0.14352624, 0.083954245, -172628.66, 150698.45, 0.0, 10.001286, 9.999121 
2.931845e+3, 2.7700144e+2, -351418.4, -338846.7, 129029.61, 0.051691625, -0.049045112, -215949.92, 9449.56, 0.0, 9.999895, 10.000051 
2.9315177e+3, 2.8699902e+2, -285566.94, -22184.516, 305791.94, -0.04162727, 0.122140944, 179067.64, 306489.1, 0.0, 9.998727, 10.002104 
2.9311904e+3, 2.9699638e+2, -260322.78, 53910.535, 222766.86, -0.15813403, 0.16319206, 169393.8, 198839.25, 0.0, 9.998043, 10.002329 
2.946427e+3, 1.374162e+2, -1698317.5, -1699060.6, -106932.26, 0.105688356, 0.2566616, -1591756.3, 1579.5717, 0.0, 10.000059, 10.000047 
2.9461002e+3, 1.4740859e+2, -1539905.6, -1818627.6, 162620.88, 0.2429302, 0.16208605, -1465100.8, 30310.596, 0.0, 10.001585, 9.99782 
2.945774e+3, 1.5739901e+2, -1316604.5, -1635549.6, 159407.92, 0.106539324, -0.057136294, -1250594.5, 146911.78, 0.0, 10.002339, 9.998044 
2.945447e+3, 1.6739337e+2, -1194371.5, -1330279.9, 15147.864, 0.19731227, 0.00017346487, -1192703.6, 106857.07, 0.0, 10.001675, 9.999764 
2.9451188e+3, 1.7738949e+2, -1314693.1, -1367639.0, 31992.363, 0.25063598, 0.15542033, -1299641.0, -98044.2, 0.0, 10.000308, 9.999497 
2.9447916e+3, 1.8738408e+2, -1072811.9, -1207331.9, 93979.37, 0.18006665, 0.20108044, -1024503.56, 79145.42, 0.0, 10.001367, 9.999389 
2.944465e+3, 1.9737768e+2, -768267.06, -1040817.9, 102042.66, 0.12551141, 0.14497986, -734296.5, 271414.47, 0.0, 10.002893, 9.999145 
2.944138e+3, 2.0737052e+2, -893161.9, -1041353.94, 155250.75, 0.04436307, 0.03694375, -795231.7, 112549.06, 0.0, 10.00138, 9.999162 
2.9438114e+3, 2.1736299e+2, -1228420.0, -1170695.5, 185869.69, -0.046958998, -0.09595048, -1011460.5, -201605.9, 0.0, 9.998447, 9.999052 
2.9434833e+3, 2.2735885e+2, -890156.2, -805620.94, 75165.29, -0.02315386, 0.043904345, -761654.1, -49755.258, 0.0, 9.999475, 10.000354 
2.9431546e+3, 2.3735613e+2, -522647.8, -536297.75, 52708.11, 0.04553328, 0.2495604, -476324.63, 137605.38, 0.0, 10.001108, 10.000778 
2.9428273e+3, 2.4735224e+2, -378001.44, -188266.06, 129572.02, 0.11939499, 0.20091005, -122544.87, 393417.2, 0.0, 10.00051, 10.002744 
2.9425013e+3, 2.573478e+2, -578264.7, -354163.47, 101949.945, 0.21163659, 0.0054178205, -314724.38, 103271.72, 0.0, 9.998934, 10.001728 
2.9421714e+3, 2.67342e+2, -632972.6, -712879.7, 88951.48, 0.16129301, 0.008737531, -575413.8, -255358.14, 0.0, 9.99955, 9.998268 
2.9418394e+3, 2.773357e+2, -352333.3, -424614.16, 162797.4, 0.01432347, 0.055522583, -221713.05, 413.00574, 0.0, 10.000309, 9.999246 
2.9415113e+3, 2.8733268e+2, -179354.72, 73054.125, 278401.6, -0.057653833, 0.17887935, 252521.1, 376671.66, 0.0, 9.9993, 10.002473 
2.9411817e+3, 2.973252e+2, -345943.2, 76013.03, 150048.47, -0.30417973, -0.28608683, 123929.31, 150141.89, 0.0, 9.99728, 10.002818 
2.9564193e+3, 1.3774423e+2, -1893309.6, -2159362.3, -79077.69, -0.15811597, 0.056145683, -1871580.4, -281466.9, 0.0, 10.000255, 9.996812 
2.9561007e+3, 1.4773758e+2, -1506592.4, -1754670.5, 174366.38, 0.6519555, 0.14816482, -1416647.0, 75542.51, 0.0, 10.001559, 9.998295 
2.9557696e+3, 1.5773061e+2, -1325609.5, -1615723.4, 143503.9, -0.043996856, 0.15078187, -1266620.1, 127638.805, 0.0, 10.002129, 9.998301 
2.9554418e+3, 1.67724e+2, -1244781.6, -1428435.0, -50248.81, 0.056217954, 0.1431733, -1231932.3, 64389.156, 0.0, 10.001617, 9.999129 
2.9551145e+3, 1.7771792e+2, -1302898.4, -1398174.5, 12671.113, 0.27495646, 0.14538956, -1301242.0, -102864.35, 0.0, 10.000495, 9.999209 
2.9547882e+3, 1.8771201e+2, -1048358.06, -1202043.0, 155323.67, 0.22878511, 0.15125628, -951908.25, 148528.0, 0.0, 10.001521, 9.999363 
2.9544628e+3, 1.977061e+2, -671935.5, -935591.8, 112303.734, 0.1315477, 0.14774816, -630585.1, 371910.9, 0.0, 10.003242, 9.999717 
2.9541352e+3, 2.0770155e+2, -761720.25, -769879.25, 16437.973, 0.1553492, 0.1614534, -748863.1, 155673.75, 0.0, 10.001287, 10.001112 
2.9538065e+3, 2.176972e+2, -1201950.3, -1006865.8, 107624.52, 0.17913352, 0.16554643, -959158.2, -152583.66, 0.0, 9.99791, 10.000456 
2.9534787e+3, 2.2769104e+2, -1046827.1, -1003622.3, 172720.27, 0.15338677, 0.1234007, -851158.75, -142520.1, 0.0, 9.998929, 9.999256 
2.9531515e+3, 2.3768444e+2, -499250.72, -602445.94, 83897.336, 0.115976565, 0.05138614, -452354.28, 158355.34, 0.0, 10.001537, 10.000127 
2.9528224e+3, 2.4768083e+2, -412836.22, -274578.13, 1040.4828, 0.10284785, 0.08263885, -274570.28, 238173.27, 0.0, 10.000499, 10.002195 
2.952493e+3, 2.5767824e+2, -625354.06, -332364.25, -19052.586, 0.115447044, 0.12745008, -331130.47, 83633.56, 0.0, 9.998343, 10.002195 
2.9521644e+3, 2.6767558e+2, -442185.63, -271412.0, 105328.64, 0.102022246, 0.21801493, -221207.4, 95585.29, 0.0, 9.999302, 10.001449 
2.9518354e+3, 2.7767253e+2, -64743.656, -84417.195, 193653.6, 0.04409136, 0.30718738, 119322.836, 338150.16, 0.0, 10.001339, 10.001117 
2.9515058e+3, 2.8766719e+2, -235295.66, -239115.58, 163615.89, -0.038540088, 0.2834853, -73578.586, 47300.504, 0.0, 10.000055, 10.000003 
2.9511756e+3, 2.9765874e+2, -353250.4, -73644.43, 14431.046, -0.13570131, -0.029869827, -72901.59, -49944.15, 0.0, 9.997722, 10.001609 
2.9664162e+3, 1.3807142e+2, -1695755.1, -2008008.6, -145346.08, -0.028026586, 0.12881099, -1638572.1, -51660.84, 0.0, 10.001437, 9.997246 
2.966096e+3, 1.4806554e+2, -1455095.1, -1663390.0, 46453.19, 0.553413, 0.22920299, -1445204.9, 43774.06, 0.0, 10.001676, 9.998836 
2.9657662e+3, 1.580599e+2, -1607697.6, -1706775.5, 32664.55, 0.031788316, 0.29967785, -1597897.9, -206862.39, 0.0, 10.0000305, 9.9986725 
2.965439e+3, 1.6805284e+2, -1276614.8, -1435875.1, -83429.46, 0.13992396, 0.21854463, -1240913.1, 52188.105, 0.0, 10.001398, 9.999169 
2.9651117e+3, 1.7804553e+2, -898081.0, -1219015.4, 17463.56, 0.3446698, 0.08298395, -897133.5, 298034.78, 0.0, 10.003378, 9.999051 
2.9647848e+3, 1.8803987e+2, -1002793.56, -1200876.0, 122772.445, 0.23733996, 0.13191476, -944093.75, 153133.06, 0.0, 10.001969, 9.9991455 
2.9644594e+3, 1.9803455e+2, -1239623.5, -1196277.4, 66871.4, 0.14594764, 0.20006903, -1147654.5, -148370.97, 0.0, 9.999331, 9.999805 
2.9641318e+3, 2.0803131e+2, -822902.44, -640431.4, -88350.21, 0.2574845, 0.24485584, -604664.25, 296644.38, 0.0, 10.00026, 10.002469 
2.9638025e+3, 2.1802841e+2, -662385.44, -674699.2, -25754.61, 0.38383192, 0.25188908, -642062.0, 161265.39, 0.0, 10.00135, 10.001075 
2.963475e+3, 2.2802149e+2, -750794.4, -903319.5, 161507.3, 0.2843421, 0.12926222, -648449.56, 56948.83, 0.0, 10.001144, 9.998886 
2.9631478e+3, 2.3801355e+2, -694803.06, -738802.7, 110623.11, 0.16005863, -0.04923899, -604013.44, 3469.664, 0.0, 10.000411, 9.999739 
2.9628173e+3, 2.480103e+2, -485736.9, -346221.22, -19329.191, 0.0877516, 0.045713205, -343592.78, 165923.47, 0.0, 10.00018, 10.001843 
2.9624858e+3, 2.5800866e+2, -477369.28, -274458.63, 15155.947, 0.043315895, 0.21758479, -273332.84, 138198.69, 0.0, 9.999454, 10.002048 
2.962158e+3, 2.6800752e+2, -378711.22, -61540.984, 78580.57, 0.05107288, 0.36527303, -43139.816, 270404.72, 0.0, 9.998987, 10.00303 
2.9618305e+3, 2.780061e+2, -463682.6, -220251.13, -15618.996, 0.046603534, 0.45178595, -219253.08, -3692.2422, 0.0, 9.998419, 10.001572 
2.9615006e+3, 2.8799915e+2, -434336.1, -518977.66, -56323.67, -0.0051431474, 0.33288506, -406205.44, -288573.63, 0.0, 9.99954, 9.998291 
2.961171e+3, 2.979928e+2, -40416.645, -34608.67, -43979.38, 0.052310698, 0.3617936, 6562.4907, 26258.52, 0.0, 10.0004425, 10.000531 
2.9764137e+3, 1.3839884e+2, -1544387.8, -1700271.0, -46530.723, 0.03571097, 0.40219563, -1531555.0, 52157.06, 0.0, 10.001439, 9.999364 
2.9760885e+3, 1.4839253e+2, -1450260.4, -1583101.3, -20270.605, 0.16180493, 0.35219955, -1447236.1, 38542.418, 0.0, 10.001354, 9.999551 
2.9757634e+3, 1.5838772e+2, -1550773.5, -1581529.9, -10278.787, 0.256328, 0.43353367, -1547654.6, -159827.31, 0.0, 9.999971, 9.999567 
2.9754376e+3, 1.6838054e+2, -1235192.5, -1350018.4, -2226.2585, 0.37274957, 0.26365787, -1235149.4, 54743.945, 0.0, 10.001359, 9.9998 
2.9751107e+3, 1.783725e+2, -833523.9, -1158069.0, 27980.697, 0.37586972, 0.013327878, -831129.2, 360837.5, 0.0, 10.003639, 9.999363 
2.9747817e+3, 1.883676e+2, -997715.4, -1238992.1, -8245.532, 0.23497654, 0.15217166, -997433.9, 96587.34, 0.0, 10.002109, 9.998853 
2.9744533e+3, 1.9836345e+2, -1189342.3, -1144667.3, -14334.336, 0.12155722, 0.35489792, -1140463.5, -144392.98, 0.0, 9.99948, 10.000118 
2.9741272e+3, 2.083588e+2, -780675.3, -591211.56, -41330.273, 0.3125398, 0.23223811, -582588.2, 315518.75, 0.0, 10.000383, 10.002778 
2.973801e+3, 2.183543e+2, -480795.25, -503290.75, -25623.748, 0.52997655, 0.041325096, -464059.28, 336078.53, 0.0, 10.002148, 10.001902 
2.9734722e+3, 2.2834975e+2, -569704.7, -687266.25, 97096.43, 0.39091873, 0.048337344, -514982.63, 187201.27, 0.0, 10.001711, 10.0001545 
2.9731432e+3, 2.383451e+2, -573099.2, -564079.6, 67348.31, 0.16597202, 0.08238952, -501090.25, 103144.74, 0.0, 10.000665, 10.000848 
2.9728124e+3, 2.4834199e+2, -424799.25, -296821.66, -19054.72, 0.11190364, 0.14098518, -294044.84, 212220.7, 0.0, 10.000436, 10.002088 
2.9724815e+3, 2.5833917e+2, -377707.16, -322719.03, -2450.2427, 0.11733853, 0.1970874, -322610.06, 85681.86, 0.0, 10.000437, 10.001273 
2.9721522e+3, 2.683346e+2, -573581.3, -514927.63, -35024.984, 0.10977799, 0.24402525, -498572.8, -188231.72, 0.0, 9.999126, 9.999895 
2.9718232e+3, 2.783296e+2, -655684.5, -462389.22, -144945.72, 0.07655874, 0.27000833, -384824.25, -172429.56, 0.0, 9.997659, 10.000314 
2.9714972e+3, 2.8832468e+2, -226331.38, -142839.6, -36851.137, 0.2169121, 0.2224214, -128901.32, -14459.209, 0.0, 9.999734, 10.000816 
2.9711652e+3, 2.983219e+2, 372371.03, 244246.25, 7304.9263, -0.22017203, 0.4016884, 372786.2, 389251.25, 0.0, 10.0029335, 10.001266 
2.9864118e+3, 1.3872297e+2, -1581243.9, -1549836.8, 29649.354, 0.24938096, 0.28552666, -1531989.1, 48548.984, 0.0, 10.000452, 10.000892 
2.9860836e+3, 1.4871728e+2, -1610343.3, -1692742.4, -77035.22, 0.07820375, 0.26428702, -1564182.5, -81586.21, 0.0, 10.000388, 9.999282 
2.9857603e+3, 1.587125e+2, -1598257.5, -1582593.4, -83413.805, 0.49046737, 0.35283256, -1506644.8, -121996.49, 0.0, 9.999564, 9.999773 
2.985434e+3, 1.6870742e+2, -1461150.5, -1314295.0, -6834.885, 0.5354179, 0.29200524, -1313977.5, -27283.521, 0.0, 9.999231, 10.001054 
2.985107e+3, 1.7870142e+2, -1474838.3, -1381679.9, 56675.67, 0.4247377, 0.13725841, -1354898.6, -166151.6, 0.0, 9.998897, 10.000114 
2.9847774e+3, 1.8869728e+2, -1345352.9, -1297449.0, 43168.434, 0.24997954, 0.26417026, -1272032.9, -181240.0, 0.0, 9.99925, 9.99983 
2.9844472e+3, 1.9869387e+2, -1191569.9, -1066180.3, 156227.05, 0.10738533, 0.440572, -960537.56, 32295.992, 0.0, 9.999165, 10.000797 
2.984122e+3, 2.0868793e+2, -894202.25, -708081.94, 173783.94, 0.2993783, 0.20732605, -604010.0, 290873.44, 0.0, 9.9998665, 10.002223 
2.9837975e+3, 2.186824e+2, -775516.9, -643077.9, 113430.266, 0.5933285, -0.04746568, -577952.6, 218973.33, 0.0, 10.000163, 10.001885 
2.9834685e+3, 2.2867973e+2, -773250.06, -655275.56, 128386.875, 0.43536946, 0.07547033, -572973.44, 125979.13, 0.0, 9.999838, 10.001245 
2.983138e+3, 2.3867698e+2, -793548.25, -634227.94, 83315.234, 0.15687363, 0.21601264, -598618.1, 2365.4192, 0.0, 9.999056, 10.001128 
2.9828075e+3, 2.4867347e+2, -489590.63, -351866.38, -8862.337, 0.09194284, 0.23812288, -351298.44, 151718.97, 0.0, 10.000169, 10.001813 
2.9824772e+3, 2.5866958e+2, -374065.72, -464341.63, -51450.176, 0.14569137, 0.24102765, -350759.88, 54294.29, 0.0, 10.001166, 9.999929 
2.9821464e+3, 2.6866218e+2, -471776.4, -668009.6, -17461.508, 0.078588426, 0.17228165, -470234.75, -163103.44, 0.0, 10.000743, 9.99804 
2.981815e+3, 2.786544e+2, -456208.72, -433931.16, 74670.61, -0.040690143, 0.077945605, -369573.1, -160359.75, 0.0, 9.999374, 9.999671 
2.9814935e+3, 2.8865132e+2, -90003.65, 162081.06, 212761.02, 0.36386445, 0.105915286, 283331.9, 394571.1, 0.0, 9.999708, 10.002909 
2.9811582e+3, 2.9864976e+2, 60362.223, 176688.55, 207852.44, -0.6637545, 0.23689185, 334362.34, 347606.25, 0.0, 10.000535, 10.001925 
2.9964092e+3, 1.3904394e+2, -1476266.6, -1338114.0, 53728.547, 0.43591586, -0.1654411, -1319678.6, 257712.44, 0.0, 10.000473, 10.002349 
2.996079e+3, 1.4903967e+2, -1682809.8, -1809374.6, -134552.28, 0.13356788, -0.029789878, -1597401.3, -117966.2, 0.0, 10.000228, 9.998577 
2.995756e+3, 1.5903436e+2, -1559973.5, -1537825.1, -84811.24, 0.6428215, 0.063257165, -1463368.1, -81870.71, 0.0, 9.999694, 10.000027 
2.9954293e+3, 1.6903253e+2, -1355093.4, -1080489.4, -31237.832, 0.6871724, 0.2121471, -1076980.6, 206531.78, 0.0, 9.999151, 10.002711 
2.9951012e+3, 1.7903154e+2, -1273906.9, -1006841.06, 39537.3, 0.46017525, 0.36892143, -1001110.8, 184405.8, 0.0, 9.999076, 10.002595 
2.9947704e+3, 1.8902862e+2, -1117443.3, -885987.6, 64612.035, 0.16883188, 0.3623687, -869172.44, 218370.98, 0.0, 9.999531, 10.002517 
2.9944408e+3, 1.9902517e+2, -1090343.5, -894243.25, 166974.89, 0.040781718, 0.32194138, -798658.56, 190918.28, 0.0, 9.9993105, 10.001905 
2.9941168e+3, 2.0902027e+2, -959959.56, -842407.94, 208846.27, 0.30520877, 0.23442823, -684224.44, 207397.11, 0.0, 9.99985, 10.00131 
2.9937917e+3, 2.1901448e+2, -767315.56, -696024.4, 119388.2, 0.509439, 0.05874807, -607074.0, 186600.38, 0.0, 10.00042, 10.001399 
2.9934615e+3, 2.2901082e+2, -799813.9, -651978.6, 87250.4, 0.30313215, 0.093619734, -611544.0, 84166.81, 0.0, 9.999533, 10.001445 
2.993131e+3, 2.3900846e+2, -775962.06, -636065.0, 89488.52, 0.10315676, 0.25172362, -592431.0, 5304.5693, 0.0, 9.999174, 10.001072 
2.9928023e+3, 2.4900445e+2, -496697.3, -531357.4, 33218.902, 0.0838856, 0.3347566, -476559.7, 23215.3, 0.0, 10.000823, 10.000305 
2.9924732e+3, 2.5899956e+2, -222003.05, -372236.38, -52050.434, 0.07263475, 0.3615668, -205731.73, 196091.03, 0.0, 10.002058, 10.00018 
2.9921395e+3, 2.6899296e+2, -183912.22, -245937.05, -15380.763, -0.20736791, 0.20064281, -180307.63, 123579.3, 0.0, 10.001458, 10.000641 
2.9918057e+3, 2.789862e+2, -169572.45, -140710.23, 150648.39, -0.48502448, -0.010979256, -3803.3389, 202149.66, 0.0, 10.000621, 10.001128 
2.9914877e+3, 2.8898096e+2, -126268.54, 39863.137, 268680.53, 0.34276435, -0.16881672, 238025.27, 346024.84, 0.0, 9.999858, 10.002084 
2.9911575e+3, 2.9897535e+2, -67255.51, 192241.48, 289473.4, -0.14634398, -0.35445976, 379714.56, 389760.38, 0.0, 9.999163, 10.002849 
3.0064037e+3, 1.3937421e+2, -1515136.0, -1065806.8, -202208.92, 0.37060994, 0.676439, -988208.8, 585967.94, 0.0, 9.998956, 10.004914 
3.006073e+3, 1.4936984e+2, -1266687.8, -1280159.9, -78431.81, -0.0056038615, 0.48639414, -1194703.3, 281508.22, 0.0, 10.00167, 10.001475 
3.005748e+3, 1.5936744e+2, -927161.8, -1052357.4, 62145.11, 0.20384957, 0.6247396, -901552.5, 476685.9, 0.0, 10.003202, 10.001664 
3.0054203e+3, 1.693632e+2, -907200.7, -832771.6, 35751.47, 0.26755902, 0.46042627, -818381.0, 461893.38, 0.0, 10.001997, 10.003043 
3.0050954e+3, 1.7935923e+2, -1085285.9, -905920.94, 84917.03, 0.44969746, 0.2587898, -872096.94, 310209.78, 0.0, 10.000277, 10.002713 
3.0047667e+3, 1.8935774e+2, -1145614.3, -917756.2, -115231.77, 0.36491364, 0.3699832, -869641.44, 214677.78, 0.0, 9.999358, 10.002374 
3.0044374e+3, 1.993524e+2, -1126573.1, -1031797.75, -131095.11, 0.2934426, 0.17374717, -939788.44, 46581.87, 0.0, 9.999548, 10.000847 
3.0041122e+3, 2.0934935e+2, -967559.4, -839512.0, -45033.695, 0.4235266, 0.26103875, -825260.06, 63141.35, 0.0, 9.999791, 10.001311 
3.003787e+3, 2.1934617e+2, -787396.56, -761331.94, -77089.1, 0.5125379, 0.355613, -696181.3, 94252.36, 0.0, 10.000542, 10.000861 
3.0034578e+3, 2.2934173e+2, -208295.3, -349165.56, -70288.67, 0.37297127, 0.29359892, -179223.61, 513250.56, 0.0, 10.003526, 10.001547 
3.003129e+3, 2.3933896e+2, -59711.844, -265772.0, -37642.35, 0.2877842, 0.33683082, -53050.793, 541447.56, 0.0, 10.00402, 10.001243 
3.0027992e+3, 2.493327e+2, -378412.4, -490920.53, 34187.367, 0.15909106, 0.16907214, -368838.7, 127719.5, 0.0, 10.001755, 10.000057 
3.002468e+3, 2.593258e+2, -666825.5, -557965.0, 67442.12, 0.027135992, -0.017674254, -525728.7, -127103.914, 0.0, 9.998915, 10.0003805 
3.002141e+3, 2.6932293e+2, -439239.16, -246712.75, -24335.477, 0.43417045, 0.10579338, -243684.36, 56966.918, 0.0, 9.999228, 10.001654 
3.0018118e+3, 2.7932075e+2, -350127.2, -346331.34, -23927.115, 0.6077918, 0.27223384, -324226.97, -121556.016, 0.0, 9.999924, 10.000022 
3.001484e+3, 2.8931704e+2, -364056.72, -470825.22, -152702.84, 0.5321524, 0.5225069, -255675.61, -150968.45, 0.0, 10.00003, 9.998419 
3.0011478e+3, 2.993075e+2, 14535.094, 52265.17, -299761.5, -0.53458124, 0.18165854, 333754.66, 340551.88, 0.0, 10.000672, 10.001063 
