coord_x,coord_y,stress_xx,stress_yy,tau_xy,velocity_x,velocity_y,stress_1,eps,damage,lx,ly
4.99935e+0, 1.2480413e+2, -1763092.9, -1654175.0, 17513.791, -0.029786007, -0.2443011, -1651428.1, 65469.543, 0.002661235, 9.999225, 10.000786 
4.9996415e+0, 1.3480589e+2, -1685000.3, -1675362.3, -5864.013, -0.017473595, -0.09659153, -1672591.1, -53711.813, 0.0015827751, 9.999593, 9.999782 
4.999818e+0, 1.4480647e+2, -1620644.9, -1719043.8, 10673.531, -0.01581034, 0.0427465, -1619500.5, -98626.24, 0.0007101352, 9.999915, 9.998648 
4.9999055e+0, 1.5480156e+2, -1495694.0, -1614855.8, 51989.25, -0.017635552, -0.34391367, -1476200.5, -53275.98, 0.00020845665, 10.000128, 9.998589 
4.999904e+0, 1.6480133e+2, -1236918.1, -1109499.5, 31310.713, -0.0017012407, -0.36837408, -1102221.3, 222703.0, 0.000030560015, 9.99981, 10.001539 
4.9997902e+0, 1.7480557e+2, -1272071.9, -1078658.0, -39301.09, 0.03198346, -0.1311587, -1070977.1, 155897.75, 0.0000010193884, 9.998908, 10.0015135 
4.9998417e+0, 1.8480624e+2, -1403566.1, -1472530.5, -7142.7935, 0.032959845, -0.04529938, -1402834.1, -273964.34, 0.0, 9.998986, 9.9980955 
5.0000423e+0, 1.9480304e+2, -1155745.8, -1323135.5, 36376.336, -0.0024482436, -0.19490336, -1148182.4, -117269.91, 0.0, 10.0001, 9.997915 
4.9999738e+0, 2.0480168e+2, -860514.25, -901024.1, 21781.164, -0.02799042, -0.21808591, -851025.56, 81902.27, 0.0, 10.000473, 9.999956 
4.9995822e+0, 2.148022e+2, -828010.9, -838615.8, -20069.406, -0.04548162, -0.19452038, -812555.3, 22359.871, 0.0, 10.000038, 9.999924 
4.9996814e+0, 2.2480182e+2, -858184.0, -985485.2, -5970.2485, -0.030989394, -0.14025472, -857904.6, -120987.02, 0.0, 9.99995, 9.998283 
5.000314e+0, 2.3480037e+2, -726063.44, -886020.7, 16238.521, 0.017347677, -0.13923468, -724431.56, -85493.97, 0.0, 10.000246, 9.998153 
5.000544e+0, 2.4479872e+2, -553714.94, -656598.1, 19200.105, 0.035922196, -0.15888342, -550248.6, -9293.521, 0.0, 10.000341, 9.999009 
5.0003624e+0, 2.5479662e+2, -477098.5, -581455.4, -6300.6714, 0.022170497, -0.2951755, -476719.47, -33747.613, 0.0, 10.000246, 9.998899 
5.000043e+0, 2.6479548e+2, -403136.63, -476952.47, -20292.262, 0.0023075351, -0.3041516, -397926.0, -52943.484, 0.000000019594776, 10.000009, 9.999053 
4.9995643e+0, 2.747955e+2, -367440.6, -413898.47, -36812.867, -0.02558069, -0.2357427, -347140.56, -100155.83, 0.00000068486895, 9.9996, 9.999011 
4.999539e+0, 2.8479567e+2, -166845.28, -89343.63, -47958.484, -0.025078228, -0.19517969, -66437.0, 82543.375, 0.0000056407102, 9.999545, 10.000588 
4.9999666e+0, 2.9479495e+2, -17417.123, 30930.508, -97223.48, -0.00068284146, -0.35730916, 106940.414, 157919.86, 0.00003698917, 9.999899, 10.000574 
5.00038e+0, 3.047931e+2, -88685.95, -374010.94, -85502.8, -0.0027234496, -0.43133876, -65025.52, -65025.52, 0.00018828975, 10.000776, 9.997038 
5.0008523e+0, 3.147967e+2, 243770.58, 10962.283, -59541.402, -0.021861129, 0.20707233, 258114.69, 258114.69, 0.00054298295, 10.002053, 9.999078 
1.4998007e+1, 1.2480499e+2, -1807386.0, -1711888.9, 13097.568, -0.09187104, -0.1827271, -1710125.1, 6757.701, 0.0025654268, 9.9991, 10.000457 
1.499894e+1, 1.3480227e+2, -1713732.3, -1721308.6, 12782.813, -0.051491555, -0.42747223, -1704188.1, -85280.195, 0.001528762, 9.999548, 9.999498 
1.4999457e+1, 1.4480281e+2, -1541702.4, -1535062.3, 14382.679, -0.045328535, -0.33989868, -1523621.4, -2719.5933, 0.0006838554, 9.999839, 9.999954 
1.4999714e+1, 1.5480307e+2, -1412775.1, -1424332.1, 66997.31, -0.05280646, -0.3259125, -1351307.6, 71591.76, 0.00019662829, 10.000059, 9.999935 
1.4999728e+1, 1.6480315e+2, -1361657.1, -1348062.6, -6608.8105, -0.0025248597, -0.31142995, -1345379.4, -20481.97, 0.00002664921, 9.999731, 9.999948 
1.4999403e+1, 1.748026e+2, -1394397.9, -1318861.3, -67318.59, 0.098338306, -0.37201598, -1279439.9, -52540.11, 0.00000066228677, 9.998853, 9.999901 
1.4999492e+1, 1.8480226e+2, -1328589.0, -1291564.0, 29381.504, 0.09717784, -0.36945853, -1275349.3, -146444.89, 0.0, 9.998892, 9.999386 
1.5000135e+1, 1.9480214e+2, -1072165.1, -1129043.1, 85260.29, -0.0066257743, -0.3316589, -1010725.9, 20185.246, 0.0, 10.000018, 9.999293 
1.4999898e+1, 2.048018e+2, -936144.4, -1030647.44, 2472.719, -0.08467992, -0.28320035, -936079.7, -3163.0942, 0.0, 10.000372, 9.999118 
1.4998734e+1, 2.1480119e+2, -906752.44, -973701.06, -29240.174, -0.1365426, -0.26679745, -895779.94, -60859.11, 0.0, 9.99993, 9.999051 
1.4999028e+1, 2.2480024e+2, -820382.1, -879752.25, -1094.9081, -0.093317114, -0.2643006, -820361.94, -83431.73, 0.0, 9.999848, 9.999061 
1.5000917e+1, 2.3479898e+2, -683578.6, -770034.8, 33948.586, 0.051092666, -0.31016135, -671841.5, -32896.91, 0.0, 10.000142, 9.999002 
1.5001643e+1, 2.447985e+2, -599436.94, -733262.4, 10611.922, 0.10813072, -0.2336835, -598600.7, -57648.676, 0.0, 10.000269, 9.998524 
1.5001087e+1, 2.547987e+2, -523566.88, -650611.9, -4286.466, 0.06610598, -0.07912153, -523422.44, -80469.445, 0.0, 10.000135, 9.998484 
1.5000126e+1, 2.647974e+2, -431720.47, -514167.0, -41311.207, 0.0067311926, -0.07604156, -414583.03, -69615.68, 0.0000000045160005, 9.999927, 9.99884 
1.4998704e+1, 2.7479455e+2, -400647.9, -457030.56, -48208.25, -0.0757769, -0.25621396, -372993.13, -125998.39, 0.0000004592844, 9.999497, 9.99877 
1.4998591e+1, 2.8479388e+2, -261465.97, -263943.7, -40284.77, -0.07717997, -0.2281143, -222401.02, -73400.99, 0.00000436483, 9.999464, 9.9994335 
1.4999895e+1, 2.947949e+2, -114346.234, -138768.48, -73822.02, -0.0034629619, -0.09065352, -51732.215, -743.6988, 0.000032381515, 9.999768, 9.999477 
1.5001158e+1, 3.047922e+2, -40460.594, -243762.88, -40063.523, -0.0053310264, -0.23462893, -32850.395, -32850.395, 0.00017490126, 10.00068, 9.997984 
1.5002552e+1, 3.1479034e+2, 295836.25, 174749.22, 8405.502, -0.06423422, -0.21527307, 296416.97, 296416.97, 0.0005127624, 10.001843, 10.000313 
2.4997403e+1, 1.24804005e+2, -1792697.5, -1708022.3, -3843.2651, -0.06312533, -0.23591018, -1707848.1, 9040.13, 0.0024531346, 9.999224, 10.000412 
2.499885e+1, 1.3480061e+2, -1720828.5, -1734246.3, 6358.251, -0.011292192, -0.5457374, -1718294.3, -99373.95, 0.001461298, 9.999553, 9.999404 
2.4999462e+1, 1.4480138e+2, -1567691.6, -1506752.3, -15239.268, -0.0071371607, -0.4504399, -1503153.8, 17758.459, 0.0006489441, 9.999494, 10.000302 
2.4999611e+1, 1.5480311e+2, -1536912.8, -1448591.8, -43789.387, -0.015351159, -0.32923514, -1430561.8, -7666.6157, 0.0001814002, 9.99906, 10.000242 
2.4999402e+1, 1.6480304e+2, -1454631.0, -1481166.3, -94999.61, 0.008047902, -0.3054081, -1371977.0, -47081.152, 0.000022322774, 9.999485, 9.99914 
2.499882e+1, 1.7480066e+2, -1174811.1, -1303167.1, -98776.25, 0.06203479, -0.47199175, -1121194.6, 105723.984, 0.00000035252413, 10.00077, 9.999068 
2.4998772e+1, 1.848e+2, -1038875.7, -1119200.4, -6712.084, 0.046925746, -0.47332612, -1038318.7, 90607.37, 0.0, 10.000732, 9.99968 
2.49994e+1, 1.9480126e+2, -1170704.0, -1137547.8, -32698.89, -0.03689918, -0.33604103, -1117464.5, -86548.04, 0.0, 9.99918, 9.999629 
2.4999624e+1, 2.0480119e+2, -1157471.4, -1166162.0, -93523.76, -0.07647226, -0.2644688, -1068192.0, -135273.58, 0.0, 9.998967, 9.998864 
2.499942e+1, 2.1479964e+2, -900332.4, -1002916.8, -82547.65, -0.066601716, -0.32256413, -854439.1, -19505.418, 0.0, 10.000106, 9.998764 
2.4999896e+1, 2.2479843e+2, -721505.4, -825541.6, -53545.566, -0.021004368, -0.33416593, -698870.9, 38075.504, 0.0, 10.000486, 9.999123 
2.5001127e+1, 2.3479767e+2, -699366.5, -773787.1, -79653.55, 0.06723569, -0.34260067, -648660.44, -9704.536, 0.0, 10.000006, 9.999038 
2.5001556e+1, 2.4479744e+2, -638147.06, -747350.25, -85309.9, 0.08876216, -0.24191919, -591461.4, -50500.348, 0.0, 9.999991, 9.998552 
2.5001106e+1, 2.5479767e+2, -472036.2, -623772.44, -69237.79, 0.04031199, -0.09182524, -445191.88, -2229.1511, 0.0, 10.000485, 9.998491 
2.5000486e+1, 2.6479647e+2, -300384.3, -439114.3, -72136.94, 0.009934566, -0.07945426, -269673.13, 75302.28, 0.00000000030772893, 10.000783, 9.998939 
2.4999715e+1, 2.7479392e+2, -192427.72, -345659.8, -61399.355, 0.009347452, -0.24660812, -170860.77, 76137.7, 0.000000332103, 10.000888, 9.9988575 
2.4999505e+1, 2.8479272e+2, -104219.81, -305347.75, -3110.5532, -0.0074961153, -0.22638647, -104171.72, 44838.188, 0.000003312623, 10.001045, 9.998385 
2.4999951e+1, 2.9479247e+2, 15835.156, -195014.84, -38020.383, -0.040545855, -0.110824965, 22481.473, 73495.734, 0.000027299557, 10.001182, 9.998406 
2.5001583e+1, 3.0478993e+2, 54520.2, -167974.66, 8310.472, -0.051794123, -0.1984293, 54830.176, 54830.176, 0.00015832737, 10.001216, 9.998248 
2.500455e+1, 3.1478658e+2, 232804.52, 219579.97, -17983.459, -0.0012887218, -0.36353534, 245352.8, 245352.8, 0.0004751241, 10.001109, 10.000963 
3.4997448e+1, 1.248011e+2, -1783257.0, -1670125.6, -15531.929, -0.012726055, -0.4371139, -1668032.0, 48882.727, 0.0023328552, 9.99916, 10.000703 
3.4999192e+1, 1.3480097e+2, -1699342.0, -1683179.9, 23167.955, 0.050568342, -0.4449649, -1666724.0, -47807.79, 0.001385082, 9.999543, 9.999753 
3.4999666e+1, 1.448021e+2, -1608993.9, -1585640.0, -37177.457, 0.044747364, -0.30451795, -1558348.9, -37442.668, 0.00060841354, 9.999463, 9.999778 
3.499942e+1, 1.5480165e+2, -1574985.0, -1522531.5, -53661.32, 0.04052288, -0.34621724, -1489030.6, -66118.34, 0.00016439817, 9.999042, 9.999741 
3.499884e+1, 1.6480099e+2, -1451097.6, -1469262.5, -53839.484, -0.013942559, -0.36184043, -1405579.9, -80660.09, 0.000017966355, 9.99946, 9.999238 
3.4997913e+1, 1.747996e+2, -1169445.6, -1290306.1, -44468.51, -0.122347504, -0.43420336, -1154847.5, 72085.22, 0.00000014192928, 10.000758, 9.9991665 
3.4997523e+1, 1.8479933e+2, -1086850.9, -1202950.1, -67610.22, -0.1656637, -0.37441862, -1055788.8, 73147.62, 0.0, 10.000671, 9.999132 
3.4997684e+1, 1.9480027e+2, -1217434.6, -1223296.8, -84538.25, -0.14270225, -0.20747273, -1135776.6, -104847.1, 0.0, 9.99913, 9.999066 
3.4998992e+1, 2.0479976e+2, -1136177.1, -1100161.4, -59083.164, -0.04873969, -0.17841513, -1056402.8, -123468.15, 0.0, 9.998882, 9.999356 
3.5001504e+1, 2.147975e+2, -875159.4, -930637.25, -33360.31, 0.11641574, -0.35405406, -859512.2, -24558.197, 0.0, 10.000025, 9.999298 
3.500216e+1, 2.2479634e+2, -772874.44, -908236.3, -75632.445, 0.14278087, -0.36267138, -739061.7, -2095.1155, 0.0, 10.000391, 9.9986 
3.5000777e+1, 2.3479646e+2, -749821.56, -854566.0, -92177.984, 0.016876156, -0.22353618, -696176.7, -57205.785, 0.0, 9.999909, 9.9985285 
3.5000148e+1, 2.4479559e+2, -607572.4, -668464.75, -73704.125, -0.064036645, -0.18878894, -558273.56, -17291.713, 0.0, 9.999925, 9.999128 
3.5000286e+1, 2.5479355e+2, -443115.47, -541384.4, -44964.082, -0.1054444, -0.32198697, -425646.9, 17354.01, 0.0, 10.000393, 9.9991 
3.5001034e+1, 2.6479286e+2, -270208.6, -368344.06, -74044.44, -0.027599959, -0.31907803, -230449.4, 114556.805, 0.00000000006499392, 10.000744, 9.999446 
3.5002404e+1, 2.7479365e+2, -165938.45, -273116.06, -50966.055, 0.17258886, -0.1988776, -145572.55, 101422.93, 0.0000002836276, 10.00081, 9.999395 
3.5002136e+1, 2.8479216e+2, -173642.94, -431553.88, -4094.4885, 0.13668086, -0.19404136, -173577.95, -24567.957, 0.000002745044, 10.000977, 9.99755 
3.4999985e+1, 2.9478768e+2, -58443.953, -330623.75, -26777.404, -0.17248762, -0.409181, -55834.574, -4777.7715, 0.000022379118, 10.001106, 9.997512 
3.5001442e+1, 3.047861e+2, 31786.887, -214838.75, -23.053608, -0.20101549, -0.3409658, 31786.889, 31786.889, 0.00013928866, 10.001199, 9.997937 
3.5006553e+1, 3.1478542e+2, 234388.28, 227368.05, -11842.813, 0.056132365, -0.20850238, 243230.22, 243230.22, 0.00043208257, 10.001067, 10.001044 
4.4996837e+1, 1.2480043e+2, -1760365.6, -1665369.3, 42807.84, 0.015077105, -0.44207123, -1648925.4, 67996.18, 0.0022111118, 9.999364, 10.000629 
4.4999215e+1, 1.3480096e+2, -1671378.1, -1684415.0, 21040.807, 0.09524331, -0.3701739, -1655869.1, -36951.617, 0.0013064536, 9.999804, 9.999622 
4.4999775e+1, 1.4480188e+2, -1557931.6, -1587635.1, -56396.355, 0.09449377, -0.23116979, -1514464.3, 6446.5166, 0.00056747237, 9.999922, 9.999553 
4.4999158e+1, 1.5480109e+2, -1492838.4, -1510973.1, -64954.758, 0.08319422, -0.28162068, -1436321.1, -13399.402, 0.00014805637, 9.99972, 9.999506 
4.49986e+1, 1.6480045e+2, -1404720.5, -1426194.9, 1294.5353, 0.010190123, -0.29101357, -1404642.8, -79713.67, 0.000013959289, 9.999694, 9.999422 
4.499817e+1, 1.7479952e+2, -1280655.6, -1322983.6, 4782.1523, -0.12483577, -0.3386108, -1280122.1, -53185.625, 0.000000037538413, 9.999901, 9.99936 
4.4998118e+1, 1.8479894e+2, -1121348.3, -1236321.5, -25788.09, -0.1591234, -0.31056878, -1115829.0, 13112.415, 0.0, 10.0005, 9.998994 
4.4998452e+1, 1.9479892e+2, -894083.9, -1083314.0, -21135.084, -0.08789381, -0.22487223, -891752.0, 139190.06, 0.0, 10.001419, 9.998927 
4.4999477e+1, 2.0479792e+2, -793634.75, -941178.44, 20524.393, -0.0017074995, -0.23249999, -790832.9, 142118.0, 0.0, 10.001258, 9.999305 
4.5001325e+1, 2.1479574e+2, -900586.0, -948404.8, -7087.651, 0.10940646, -0.39638263, -899557.6, -64587.805, 0.0, 9.999873, 9.99925 
4.5001906e+1, 2.2479483e+2, -874703.06, -955134.75, -21992.813, 0.119845696, -0.37819317, -869082.25, -132102.22, 0.0, 9.999685, 9.99862 
4.500111e+1, 2.3479536e+2, -622427.1, -792722.5, -6603.3965, 0.020955494, -0.1985661, -622171.44, 16809.059, 0.0, 10.000783, 9.998536 
4.500083e+1, 2.4479438e+2, -437903.03, -586842.0, 11353.102, -0.0416094, -0.1746524, -437042.6, 103949.59, 0.0, 10.001099, 9.999118 
4.5001084e+1, 2.5479162e+2, -419074.5, -536930.4, -17714.994, -0.069792725, -0.37914857, -416469.34, 26548.578, 0.0, 10.000583, 9.999042 
4.5001766e+1, 2.6479077e+2, -321792.97, -395980.9, -73663.96, -0.007828458, -0.3845641, -276410.63, 68614.03, 0.00000000016705606, 10.000411, 9.999414 
4.5002955e+1, 2.747921e+2, -191305.14, -291318.03, -103383.305, 0.15963759, -0.2030983, -126469.29, 120540.266, 0.00000025698242, 10.000663, 9.999346 
4.5002973e+1, 2.8479072e+2, -167701.11, -402401.47, -24296.574, 0.13134423, -0.19870158, -165212.28, -16189.375, 0.0000023157831, 10.000911, 9.997784 
4.500161e+1, 2.9478598e+2, -32122.883, -295790.78, 22141.535, -0.1202267, -0.46289778, -30276.475, 20793.994, 0.000017842196, 10.001201, 9.997707 
4.500299e+1, 3.04785e+2, -60414.668, -310178.97, 66614.055, -0.13995363, -0.31671602, -43758.9, -43758.9, 0.0001190779, 10.000778, 9.997485 
4.5006952e+1, 3.1478336e+2, -10446.568, 89301.63, 23604.523, 0.07675031, -0.24529435, 94605.42, 94605.42, 0.00038609168, 9.999475, 10.000859 
5.499482e+1, 1.2480227e+2, -1782899.0, -1747918.9, 39502.46, -0.17122222, -0.23411414, -1722207.6, -5301.613, 0.0020867882, 9.9994955, 10.000006 
5.499866e+1, 1.3480067e+2, -1704187.8, -1774007.8, 43425.29, 0.033580083, -0.31441835, -1683380.0, -64456.54, 0.0012253985, 9.999885, 9.998971 
5.4999644e+1, 1.448008e+2, -1546559.3, -1577450.6, -70079.82, 0.06442218, -0.22453666, -1490243.1, 30682.148, 0.00052635156, 9.999976, 9.999598 
5.4998547e+1, 1.5480147e+2, -1485307.8, -1501230.8, -66153.64, 0.02822496, -0.13444032, -1426638.3, -3715.103, 0.00013276051, 9.999745, 9.999559 
5.499836e+1, 1.6480146e+2, -1389778.5, -1393903.9, 2311.016, -0.0017558561, -0.092801586, -1388743.5, -63820.176, 0.0000106646075, 9.999688, 9.999646 
5.499933e+1, 1.7480028e+2, -1263739.1, -1288355.8, 18331.822, -0.018025571, -0.18942553, -1253967.0, -27036.37, 0.000000007551507, 9.999904, 9.999596 
5.500039e+1, 1.847988e+2, -1103156.0, -1193171.3, 2355.0195, 0.0014231362, -0.27866742, -1103094.4, 25846.768, 0.0, 10.000477, 9.999301 
5.500147e+1, 1.9479714e+2, -876031.5, -1040418.56, 18234.08, 0.052955884, -0.38800928, -874033.25, 156921.25, 0.0, 10.001397, 9.999231 
5.50009e+1, 2.047957e+2, -840594.25, -1027686.3, -34999.477, -0.00038928815, -0.43011487, -834261.25, 98706.26, 0.0, 10.001212, 9.998732 
5.499862e+1, 2.1479434e+2, -949636.4, -1038611.0, -53915.586, -0.16601719, -0.4502657, -924223.6, -89242.26, 0.0, 9.9998255, 9.998652 
5.499888e+1, 2.2479391e+2, -840646.75, -875233.44, 12164.501, -0.16789949, -0.38323885, -836796.9, -99809.87, 0.0, 9.999644, 9.999187 
5.5001944e+1, 2.3479447e+2, -588105.6, -709082.2, 40455.89, 0.009354383, -0.26117817, -575823.6, 63160.055, 0.0, 10.00073, 9.999134 
5.5003387e+1, 2.4479386e+2, -488394.56, -683286.9, -11523.36, 0.08780612, -0.19963603, -487715.6, 53276.12, 0.0, 10.0010605, 9.998475 
5.500317e+1, 2.547919e+2, -478323.97, -637320.3, -32055.543, 0.062079627, -0.25959277, -472104.5, -29091.133, 0.0, 10.000489, 9.998395 
5.5002415e+1, 2.6479036e+2, -370213.3, -487049.5, -70712.6, 0.00007629396, -0.2708008, -336909.28, 8120.8755, 0.00000000012003064, 10.000369, 9.998809 
5.500118e+1, 2.7478933e+2, -242201.81, -383095.38, -88066.84, -0.100127466, -0.26497984, -199872.19, 47168.91, 0.00000017731924, 10.0006, 9.998747 
5.5001837e+1, 2.847884e+2, -84636.695, -222437.77, -20471.66, -0.08879633, -0.24638832, -81659.75, 67389.44, 0.0000014956321, 10.000879, 9.999035 
5.500459e+1, 2.947873e+2, 48372.914, -112907.82, 40016.777, 0.03834917, -0.27711484, 57755.94, 108812.04, 0.000012909044, 10.00113, 9.998999 
5.5006003e+1, 3.0478668e+2, -105554.13, -389915.8, 15426.622, 0.06689747, -0.13367742, -104719.69, -104719.69, 0.00009809619, 10.000726, 9.9969635 
5.500523e+1, 3.1478018e+2, -52139.934, 19224.066, -4878.262, -0.07773834, -0.48924595, 19555.988, 19555.988, 0.00033776127, 9.999406, 10.000408 
6.499544e+1, 1.2480204e+2, -1675703.9, -1719240.4, -28086.973, -0.092092104, -0.14736544, -1661937.1, 54974.414, 0.0019618457, 10.000322, 9.999812 
6.49984e+1, 1.3479927e+2, -1750289.1, -1807919.6, -4860.447, 0.038829338, -0.32965204, -1749882.1, -130943.46, 0.0011414166, 9.99961, 9.998874 
6.4999056e+1, 1.4479873e+2, -1643890.5, -1621075.1, -71469.875, 0.04678433, -0.3052975, -1560108.3, -39162.273, 0.0004823892, 9.999306, 9.999617 
6.499833e+1, 1.5480006e+2, -1488037.1, -1500244.4, -82473.11, 0.039204966, -0.1495106, -1411442.1, 11494.539, 0.00011742101, 9.999719, 9.999576 
6.4998627e+1, 1.6480029e+2, -1344576.5, -1370005.6, -10110.241, 0.045032557, -0.087106116, -1341046.9, -16112.704, 0.000008467286, 9.999988, 9.999666 
6.500013e+1, 1.747989e+2, -1246153.6, -1277538.4, -19234.184, 0.070174925, -0.20582819, -1237022.5, -10079.625, 0.000000004638606, 10.000019, 9.999613 
6.500127e+1, 1.8479742e+2, -1237544.9, -1261115.8, -50250.11, 0.091284506, -0.29521838, -1197716.6, -68762.414, 0.0, 9.999576, 9.999263 
6.500197e+1, 1.947959e+2, -1282475.5, -1239265.3, -71527.86, 0.10661049, -0.38632265, -1186150.8, -155183.2, 0.0, 9.998621, 9.999203 
6.500124e+1, 2.0479469e+2, -1153720.4, -1183243.0, -98333.6, 0.022465777, -0.40190196, -1069046.4, -136067.2, 0.0, 9.99908, 9.9986925 
6.499897e+1, 2.1479373e+2, -781160.94, -961509.0, -84553.69, -0.16767588, -0.37791386, -747719.94, 87269.26, 0.0, 10.0009985, 9.998617 
6.499934e+1, 2.2479306e+2, -568563.1, -725036.25, -14628.288, -0.17101933, -0.34060657, -567207.3, 169788.72, 0.0, 10.00143, 9.999362 
6.5002584e+1, 2.3479268e+2, -648956.8, -719200.94, -30507.465, 0.030416703, -0.32846442, -637557.25, 1442.2664, 0.0, 10.000223, 9.999314 
6.500433e+1, 2.4479206e+2, -613273.6, -746599.7, -50125.69, 0.123436764, -0.27725777, -596530.75, -55523.496, 0.0, 10.000204, 9.998466 
6.5004486e+1, 2.5479114e+2, -334935.88, -568803.8, -33374.992, 0.1007914, -0.22906062, -330266.22, 112753.53, 0.0, 10.0014715, 9.998402 
6.5003514e+1, 2.6478982e+2, -208542.67, -428399.03, -49930.4, 0.018603927, -0.20926693, -197734.56, 147300.97, 0.00000000000043891748, 10.001556, 9.998645 
6.500144e+1, 2.7478808e+2, -286814.13, -420102.9, -45598.605, -0.11746538, -0.26103106, -272707.63, -25652.936, 0.00000007111923, 10.000368, 9.998598 
6.5002286e+1, 2.8478703e+2, -121183.3, -202435.3, 66810.54, -0.10514465, -0.26326346, -83616.46, 65447.168, 0.00000065443334, 10.000458, 9.999377 
6.500641e+1, 2.947866e+2, 180966.42, -6338.615, 46098.09, 0.07778811, -0.26197988, 191697.0, 242759.13, 0.000008482825, 10.001854, 9.999381 
6.5007704e+1, 3.0478653e+2, 25751.87, -326845.4, -72386.51, 0.1257905, -0.08646696, 40033.965, 40033.965, 0.00007932554, 10.00163, 9.996961 
6.500519e+1, 3.147803e+2, -31009.586, -5691.918, -73625.79, -0.027849674, -0.40884432, 56355.36, 56355.36, 0.00029245962, 9.999696, 10.000108 
7.499825e+1, 1.24799564e+2, -1634617.0, -1653716.4, -77483.41, 0.11611133, -0.1817103, -1566097.0, 150842.66, 0.001839182, 10.000406, 10.000222 
7.4998146e+1, 1.3479674e+2, -1710907.5, -1738927.6, -31535.578, 0.031211248, -0.4168567, -1690409.9, -71446.625, 0.0010576415, 9.999665, 9.999322 
7.499768e+1, 1.4479566e+2, -1637203.0, -1617470.8, -62911.055, -0.042904004, -0.46895844, -1563656.9, -42684.293, 0.00043753645, 9.999349, 9.999621 
7.4998266e+1, 1.5479684e+2, -1486919.4, -1504968.3, -60231.285, 0.040702112, -0.32618836, -1435040.3, -12077.745, 0.00010224, 9.999747, 9.999532 
7.4999136e+1, 1.6479695e+2, -1356452.9, -1393855.8, -12829.4795, 0.07936614, -0.26446056, -1352475.3, -27514.336, 0.000007138289, 9.999984, 9.999504 
7.5000334e+1, 1.747954e+2, -1256133.5, -1301751.4, -13439.566, 0.07044615, -0.38477474, -1252468.5, -25495.143, 0.00000003688298, 10.000033, 9.99944 
7.5000566e+1, 1.8479475e+2, -1263992.8, -1317261.8, -90368.83, 0.045965407, -0.3642364, -1196415.1, -67434.375, 0.0, 9.999578, 9.998879 
7.499974e+1, 1.9479513e+2, -1312513.8, -1298939.0, -101746.875, 0.0033408205, -0.22528902, -1203753.4, -172771.4, 0.0, 9.998608, 9.998801 
7.500025e+1, 2.0479493e+2, -1125120.6, -1113624.3, -32457.48, 0.00096429815, -0.14379625, -1086409.9, -153424.36, 0.0, 9.999039, 9.999187 
7.500219e+1, 2.1479395e+2, -753034.9, -891269.94, -6563.951, 0.037416548, -0.17632608, -752723.9, 82268.89, 0.0, 10.000946, 9.999125 
7.500306e+1, 2.2479232e+2, -593660.44, -766321.3, -62069.555, 0.042917434, -0.2473848, -573663.2, 163343.47, 0.0, 10.001381, 9.999101 
7.50028e+1, 2.3478997e+2, -677549.8, -766144.9, -69214.15, 0.01459276, -0.4070194, -639671.5, -643.2377, 0.0, 10.000165, 9.999022 
7.5003356e+1, 2.4478896e+2, -578327.94, -661923.6, -8572.409, -0.008716872, -0.40888485, -577457.94, -36419.426, 0.0, 10.0001545, 9.999067 
7.500484e+1, 2.5478938e+2, -300512.06, -484593.4, 19662.514, -0.025790991, -0.28997996, -298435.25, 144601.77, 0.0, 10.001412, 9.999009 
7.5004876e+1, 2.6478922e+2, -194790.13, -387702.97, -96785.79, -0.014033957, -0.20074894, -154603.47, 190437.03, 0.0, 10.001507, 9.998948 
7.500344e+1, 2.7478838e+2, -278040.16, -386145.9, -81828.61, 0.0281635, -0.19203182, -234023.48, 13026.399, 0.000000009748358, 10.000298, 9.998867 
7.500403e+1, 2.8478664e+2, -161589.78, -277509.94, 113328.08, 0.0073063783, -0.24944592, -92260.336, 56805.336, 0.00000018808618, 10.00042, 9.998879 
7.500682e+1, 2.9478398e+2, 134830.42, -87684.336, 104284.76, -0.08237844, -0.42346853, 176064.06, 227152.34, 0.000005696117, 10.001785, 9.998859 
7.500792e+1, 3.047845e+2, 50721.67, -267200.06, -142982.39, -0.030243672, -0.1798723, 105565.68, 105565.68, 0.00006525944, 10.001596, 9.997383 
7.500643e+1, 3.1478348e+2, -60935.37, -37995.043, -128810.1, 0.09951819, -0.030961193, 79854.586, 79854.586, 0.00025509726, 9.999566, 9.999946 
8.499908e+1, 1.2479794e+2, -1721145.3, -1671429.1, -7899.788, 0.20001824, -0.22061993, -1670204.1, 46753.582, 0.0017199421, 9.999715, 10.000426 
8.4998494e+1, 1.3479684e+2, -1629825.0, -1667915.8, 4595.5063, 0.084326625, -0.30984047, -1629278.4, -10314.451, 0.0009794245, 10.000094, 9.999598 
8.499764e+1, 1.4479531e+2, -1518388.9, -1588515.4, -16031.277, -0.023505619, -0.4075087, -1514897.8, 6078.2544, 0.0003977733, 10.0002775, 9.999377 
8.499823e+1, 1.547946e+2, -1429125.3, -1503302.5, -40390.902, 0.04062124, -0.43143436, -1411377.9, 11604.14, 0.000088897265, 10.00026, 9.999294 
8.499905e+1, 1.6479434e+2, -1328636.1, -1374680.4, 8137.4233, 0.06757147, -0.39802778, -1327240.4, -2256.7742, 0.000006071428, 10.000154, 9.999554 
8.5000145e+1, 1.7479403e+2, -1263729.1, -1297722.0, 14074.67, 0.056147695, -0.39777282, -1258658.1, -31672.701, 0.000000076650345, 9.999947, 9.999511 
8.500029e+1, 1.8479382e+2, -1170428.6, -1289061.3, -35245.586, 0.02892267, -0.33118713, -1160747.3, -31757.402, 0.0, 10.000295, 9.998731 
8.4999484e+1, 1.947938e+2, -944920.56, -1137557.6, -37293.453, -0.008432046, -0.21430191, -937952.8, 93042.7, 0.0, 10.001204, 9.998658 
8.500049e+1, 2.0479347e+2, -795192.4, -920159.5, 58776.727, 0.019146562, -0.15240514, -771891.9, 161108.22, 0.0, 10.001145, 9.999509 
8.500342e+1, 2.1479271e+2, -872334.5, -912061.4, 58898.59, 0.1190748, -0.19383119, -830040.06, 4964.1123, 0.0, 9.999966, 9.99946 
8.5004395e+1, 2.247914e+2, -836480.5, -880605.6, -7240.567, 0.12605184, -0.25177357, -835322.75, -98307.56, 0.0, 9.999705, 9.999121 
8.50033e+1, 2.3478952e+2, -638195.1, -744985.44, -5458.7007, 0.03812408, -0.3646283, -637916.8, 1116.6655, 0.0, 10.000432, 9.999033 
8.500345e+1, 2.4478859e+2, -495320.22, -572180.7, 91728.21, -0.029313121, -0.38045025, -434297.2, 106745.23, 0.0, 10.00051, 9.999511 
8.500503e+1, 2.547887e+2, -492102.34, -523692.44, 98339.625, -0.0674752, -0.33535326, -408297.38, 34743.715, 0.0, 9.999878, 9.9994755 
8.5005724e+1, 2.647886e+2, -372233.94, -475929.2, -32709.445, -0.015559102, -0.26271054, -362778.34, -17735.852, 0.0, 10.000288, 9.998935 
8.5005563e+1, 2.747882e+2, -63887.293, -286265.34, -53621.094, 0.14135289, -0.20894347, -51633.13, 195414.66, 0.0, 10.001771, 9.998851 
8.500605e+1, 2.8478643e+2, -3712.4773, -224157.7, 137388.66, 0.113795936, -0.26137373, 62203.12, 211267.83, 0.000000024133003, 10.0015955, 9.998684 
8.500725e+1, 2.9478323e+2, -187049.03, -260985.9, 140597.97, -0.10696272, -0.46533507, -78640.52, -27547.209, 0.0000041706858, 9.999655, 9.998693 
8.500808e+1, 3.0478358e+2, -215776.9, -322967.16, -68621.15, -0.06147334, -0.26878083, -182301.38, -182301.38, 0.00005536609, 9.999446, 9.998037 
8.500793e+1, 3.1478423e+2, 133352.08, 36130.492, -57502.004, 0.22994563, -0.018148694, 160037.3, 160037.3, 0.00022562832, 10.0009775, 9.999765 
9.499758e+1, 1.2479728e+2, -1721230.6, -1677409.0, -12549.824, 0.04148342, -0.25318092, -1674069.5, 42894.977, 0.0016117445, 9.999743, 10.000368 
9.4999105e+1, 1.3479957e+2, -1620028.4, -1661292.9, 22371.908, 0.11725742, -0.008218522, -1610227.1, 8713.798, 0.00091292575, 10.000151, 9.999615 
9.499866e+1, 1.4479771e+2, -1544655.0, -1648795.4, -20756.145, 0.031635907, -0.12037671, -1540670.5, -19713.81, 0.00036647206, 10.000304, 9.998948 
9.4998026e+1, 1.5479334e+2, -1457631.8, -1567892.6, -35001.938, -0.026289115, -0.46627593, -1447459.1, -24463.863, 0.00007896108, 10.000285, 9.9988365 
9.499822e+1, 1.6479245e+2, -1311330.3, -1340641.3, -5149.0103, -0.047195446, -0.48268342, -1310452.1, 14549.707, 0.000005121987, 10.000158, 9.999785 
9.4999295e+1, 1.7479478e+2, -1243834.0, -1259347.3, 11031.01, -0.040533036, -0.24451974, -1238105.5, -11126.452, 0.00000007826353, 9.999956, 9.999769 
9.500022e+1, 1.847946e+2, -1168301.8, -1280459.8, -6059.692, -0.020341309, -0.18992317, -1167975.3, -38993.977, 0.0, 10.000277, 9.998798 
9.500097e+1, 1.9479184e+2, -943154.3, -1128354.6, 3405.9314, 0.0023999775, -0.35880616, -943091.7, 87917.16, 0.0, 10.001181, 9.998731 
9.500172e+1, 2.0479031e+2, -792380.8, -903832.1, 11136.245, 0.014110843, -0.42661142, -791279.0, 141744.03, 0.0, 10.001101, 9.999641 
9.5002425e+1, 2.1478996e+2, -868276.0, -895894.9, 21926.54, 0.0075611947, -0.44064227, -856172.6, -21148.39, 0.0, 9.999928, 9.99959 
9.5003146e+1, 2.2479023e+2, -827317.2, -849649.75, 14306.92, 0.015236712, -0.35827908, -820334.8, -83312.56, 0.0, 9.999655, 9.999356 
9.500386e+1, 2.347912e+2, -628952.56, -713435.56, 26758.373, 0.035860058, -0.2118943, -621190.5, 17826.078, 0.0, 10.000376, 9.999278 
9.5004416e+1, 2.447909e+2, -482997.28, -531265.56, 63143.43, 0.0042514266, -0.19436833, -439532.97, 101486.445, 0.0, 10.000449, 9.999819 
9.500481e+1, 2.547891e+2, -479871.5, -485311.47, 81415.67, -0.09127581, -0.37101582, -401130.38, 41901.797, 0.0, 9.999821, 9.999766 
9.500582e+1, 2.6478797e+2, -403579.4, -531873.3, 17643.76, -0.04712009, -0.40045977, -401197.16, -56154.957, 0.0, 10.000249, 9.998569 
9.5007604e+1, 2.7478746e+2, -99150.93, -343794.0, 9217.896, 0.15330787, -0.32155368, -98804.1, 148245.61, 0.0, 10.0017, 9.998489 
9.50082e+1, 2.8478628e+2, 71.65463, -207500.8, 61485.383, 0.15379801, -0.30084026, 16917.236, 165978.44, 0.000000004406078, 10.001561, 9.998811 
9.5007414e+1, 2.9478443e+2, -190151.17, -248061.08, 76604.375, -0.073362544, -0.38841316, -137212.17, -86134.96, 0.0000031909003, 9.99957, 9.998823 
9.50079e+1, 3.0478373e+2, -156280.64, -190633.33, -14793.937, -0.03798692, -0.34837955, -150787.9, -150787.9, 0.000047523536, 9.999409, 9.998962 
9.500914e+1, 3.1478262e+2, 98666.0, -7217.9995, 24438.877, 0.21959311, -0.3605371, 104034.5, 104034.5, 0.00020078661, 10.000855, 9.999527 
1.04997374e+2, 1.24795645e+2, -1833428.6, -1756871.6, -67806.805, 0.08956849, -0.266132, -1717284.8, -305.0068, 0.0015258539, 9.999058, 10.00016 
1.0499889e+2, 1.3479832e+2, -1639628.8, -1684105.8, -60871.453, 0.090895705, 0.028871458, -1597060.8, 21894.447, 0.00086255383, 10.000056, 9.999511 
1.0499861e+2, 1.4479662e+2, -1522004.1, -1602620.9, -102554.54, 0.00007332023, -0.0780847, -1452120.9, 68849.22, 0.00034425873, 10.000317, 9.999257 
1.0499844e+2, 1.5479292e+2, -1501605.5, -1561417.8, -76147.26, 0.012808284, -0.38094267, -1449702.3, -26701.293, 0.00007295785, 9.999864, 9.999089 
1.0499852e+2, 1.6479215e+2, -1369908.0, -1358110.9, -2865.5095, -0.0071725645, -0.40373322, -1357451.8, -32445.936, 0.0000044141693, 9.999721, 9.999869 
1.04999036e+2, 1.7479399e+2, -1248264.4, -1254236.4, -12867.285, -0.05515481, -0.22348209, -1238041.3, -11053.711, 0.000000050630582, 9.9999075, 9.999821 
1.0500014e+2, 1.8479364e+2, -1185934.9, -1237573.4, -80.96556, -0.036386162, -0.21154468, -1185934.8, -56944.965, 0.0, 9.999929, 9.999256 
1.0500179e+2, 1.9479105e+2, -1131747.9, -1168504.3, 27569.139, 0.046755195, -0.41033545, -1116992.8, -85980.125, 0.0, 9.999661, 9.999186 
1.050024e+2, 2.0478952e+2, -1020374.1, -1029119.25, 20009.637, 0.05044203, -0.49444744, -1004264.9, -71238.66, 0.0, 9.999609, 9.9994955 
1.05001934e+2, 2.1478902e+2, -907498.3, -930137.8, -3443.4478, -0.02079246, -0.5096848, -906986.2, -71955.3, 0.0, 9.999735, 9.999443 
1.0500254e+2, 2.2478954e+2, -746716.6, -778184.4, 31917.08, -0.027185956, -0.4080624, -726866.06, 10160.978, 0.0, 10.000065, 9.999656 
1.0500436e+2, 2.3479126e+2, -575557.1, -651729.8, 41222.215, 0.042506166, -0.21553649, -557520.06, 81493.36, 0.0, 10.000592, 9.9995985 
1.05005376e+2, 2.4479112e+2, -454357.06, -533412.1, 31976.16, 0.045749135, -0.18985116, -443042.7, 97971.59, 0.0, 10.000712, 9.999676 
1.0500557e+2, 2.547889e+2, -412152.1, -469636.56, 2558.9438, -0.020545678, -0.39729136, -412038.4, 30993.35, 0.0, 10.000361, 9.999611 
1.0500661e+2, 2.6478738e+2, -350514.63, -499447.75, 8391.449, -0.006237872, -0.45750424, -350043.3, -4998.291, 0.0, 10.000591, 9.998621 
1.0500873e+2, 2.7478668e+2, -127321.516, -350461.66, 21566.576, 0.10972282, -0.40394774, -125256.21, 121797.34, 0.0, 10.001482, 9.998546 
1.0500932e+2, 2.847859e+2, -29880.389, -212083.78, -4612.258, 0.12655081, -0.35307, -29763.709, 119297.59, 0.0000000012345152, 10.001305, 9.998911 
1.050082e+2, 2.9478496e+2, -122435.97, -196626.17, -8171.1733, 0.034554146, -0.35753644, -121546.67, -70478.266, 0.0000025074758, 9.999948, 9.998997 
1.0500854e+2, 3.0478394e+2, -65991.18, -87400.17, 12082.038, 0.07365122, -0.38901427, -60553.746, -60553.746, 0.000040782536, 9.999772, 9.999501 
1.05010256e+2, 3.1478176e+2, 74505.93, -60140.27, 10325.175, 0.25191703, -0.555322, 75293.1, 75293.1, 0.0001788825, 10.000865, 9.9991665 
1.1499792e+2, 1.2479285e+2, -1846239.9, -1805202.1, -57364.86, 0.19525348, -0.26936835, -1764796.9, -47791.258, 0.0014675308, 9.999147, 9.999788 
1.14997685e+2, 1.3479301e+2, -1646987.1, -1707469.0, -22417.521, -0.053302933, -0.206355, -1639584.1, -20576.793, 0.0008305489, 10.000094, 9.99933 
1.1499743e+2, 1.4479207e+2, -1454270.3, -1462252.3, -124507.37, -0.16757166, -0.2751327, -1333690.0, 187326.3, 0.00033210375, 10.000314, 10.000223 
1.1499907e+2, 1.5479344e+2, -1425506.1, -1410592.9, -84654.234, 0.07160986, -0.17396308, -1333067.5, 89931.24, 0.00007103606, 9.999898, 10.000104 
1.14999704e+2, 1.6479348e+2, -1374414.4, -1376982.9, -1102.6216, 0.12053667, -0.15934177, -1374005.9, -49010.832, 0.0000041839003, 9.999749, 9.999734 
1.1499924e+2, 1.7479157e+2, -1253056.9, -1271858.4, -492.1676, -0.044228934, -0.33858177, -1253044.0, -26032.89, 0.000000024917117, 9.999935, 9.99969 
1.149999e+2, 1.8479085e+2, -1131615.1, -1116457.9, -13168.381, -0.06868871, -0.3995835, -1108843.0, 20172.672, 0.0, 9.999893, 10.000107 
1.1500169e+2, 1.9479139e+2, -1072034.4, -1041398.7, 22113.125, 0.051689856, -0.3705929, -1029816.25, 1190.9824, 0.0, 9.999649, 10.000064 
1.15002334e+2, 2.0479113e+2, -1057093.0, -1097657.0, 18708.174, 0.06973144, -0.35240042, -1049782.4, -116772.87, 0.0, 9.999574, 9.999045 
1.150017e+2, 2.1478982e+2, -947318.3, -1001008.25, 5930.437, -0.0318254, -0.40089828, -946671.06, -111646.5, 0.0, 9.999682, 9.998983 
1.15002416e+2, 2.2478929e+2, -728980.4, -729460.1, 46498.46, -0.05739524, -0.39845324, -682721.2, 54308.67, 0.0, 10.000012, 10.000016 
1.1500458e+2, 2.3478962e+2, -557514.9, -600051.56, 67417.01, -0.009644745, -0.38325816, -508090.94, 130933.58, 0.0, 10.000528, 9.999986 
1.1500617e+2, 2.4478923e+2, -508080.9, -629223.5, 14155.05, 0.039345607, -0.37295327, -506448.9, 34578.676, 0.0, 10.000645, 9.999051 
1.1500711e+2, 2.5478795e+2, -466164.72, -566757.1, -7047.004, 0.08379127, -0.41976267, -465673.44, -22632.799, 0.0, 10.000296, 9.998977 
1.1500796e+2, 2.6478684e+2, -320831.0, -431059.34, 35755.668, 0.05537632, -0.43403518, -310248.63, 34802.793, 0.0, 10.000563, 9.999106 
1.15008704e+2, 2.7478585e+2, -103668.43, -287312.34, 61523.02, -0.055852145, -0.45506787, -84962.766, 162097.02, 0.0, 10.001417, 9.999016 
1.1500919e+2, 2.847852e+2, -31314.863, -201623.98, -59100.438, -0.029473435, -0.41762224, -12815.382, 136249.77, 0.00000000007947066, 10.001254, 9.999004 
1.1500939e+2, 2.947849e+2, -130709.55, -187296.72, -52918.29, 0.14269046, -0.36642057, -98995.87, -47928.8, 0.000001910546, 9.99984, 9.999112 
1.1500978e+2, 3.0478418e+2, -58792.426, -61055.934, 48781.836, 0.20617841, -0.38423035, -11129.217, -11129.217, 0.000034748213, 9.999732, 9.999697 
1.15010776e+2, 3.1478158e+2, 22570.559, -138242.13, 74507.516, 0.18469709, -0.6117218, 51784.242, 51784.242, 0.00015878698, 10.000744, 9.998685 
1.2499766e+2, 1.2479132e+2, -1600666.9, -1666867.1, 39509.78, 0.17733897, -0.29128286, -1582224.4, 134793.13, 0.0014351123, 10.000772, 9.999946 
1.249972e+2, 1.3479081e+2, -1805574.9, -1753041.6, 94604.625, -0.04465947, -0.31925339, -1681124.9, -62100.586, 0.00081633194, 9.9988785, 9.999603 
1.2499693e+2, 1.4478993e+2, -1683366.9, -1555994.4, 38988.746, -0.16023707, -0.40330124, -1545007.6, -23974.746, 0.00033045214, 9.998671, 10.000369 
1.2499897e+2, 1.5479256e+2, -1342051.3, -1358915.5, -2705.6116, 0.04916071, -0.18916802, -1341627.8, 81377.43, 0.00007352079, 10.000415, 10.00021 
1.24999925e+2, 1.6479272e+2, -1236941.3, -1335620.5, 10465.691, 0.11774452, -0.1569431, -1235843.5, 89158.02, 0.0000047035833, 10.000802, 9.999512 
1.2499967e+2, 1.7478979e+2, -1306996.5, -1326315.5, -6793.162, 0.021952294, -0.4157164, -1304847.0, -77818.87, 0.000000012759114, 9.999679, 9.999446 
1.2500004e+2, 1.847892e+2, -1183698.3, -1092615.3, -8715.587, -0.010216122, -0.46891758, -1091788.8, 37242.844, 0.0, 9.9993305, 10.000541 
1.2500112e+2, 1.9479132e+2, -1026060.2, -970969.2, -14672.218, 0.026673125, -0.3251156, -967305.3, 63703.03, 0.0, 9.999762, 10.000496 
1.2500186e+2, 2.0479172e+2, -961672.3, -1039691.94, -1021.7269, 0.038550775, -0.2663645, -961658.94, -28654.809, 0.0, 10.000174, 9.999151 
1.250023e+2, 2.1479017e+2, -821709.94, -931555.6, 17875.732, 0.022352079, -0.34940934, -818874.1, 16147.3, 0.0, 10.000502, 9.999065 
1.2500323e+2, 2.2478911e+2, -678709.3, -734297.6, 61599.977, 0.0033738425, -0.39272907, -638923.3, 98108.16, 0.0, 10.000482, 9.999754 
1.2500472e+2, 2.347886e+2, -645515.7, -674065.25, 20364.846, -0.020374104, -0.43526718, -634920.9, 4112.726, 0.0, 10.000062, 9.9997 
1.2500638e+2, 2.4478802e+2, -599728.9, -667011.7, -24168.71, 0.032614935, -0.42995864, -591947.2, -50908.715, 0.0, 9.9999895, 9.999108 
1.2500829e+2, 2.5478736e+2, -456054.25, -557717.9, -1415.1335, 0.17341813, -0.42024714, -456034.53, -12987.685, 0.0, 10.0003395, 9.9990225 
1.2500939e+2, 2.6478678e+2, -302038.03, -375225.06, 89070.914, 0.14882256, -0.4044836, -242336.63, 102715.75, 0.0, 10.000495, 9.99952 
1.2500966e+2, 2.747862e+2, -212952.98, -289461.94, 97816.66, -0.050105862, -0.42769757, -146176.5, 100878.49, 0.0, 10.0004635, 9.999453 
1.2501007e+2, 2.847852e+2, -156776.69, -316068.84, -67323.766, -0.030306414, -0.4209391, -132134.77, 16928.512, 0.00000000021645001, 10.000626, 9.998518 
1.250107e+2, 2.9478395e+2, 3846.751, -173302.83, -114146.55, 0.23694648, -0.42131945, 59753.543, 110829.984, 0.0000014014497, 10.00099, 9.998651 
1.250108e+2, 3.0478346e+2, 151382.5, 21796.895, 3252.517, 0.26572847, -0.3827392, 151464.1, 151464.1, 0.000028996776, 10.00123, 9.999559 
1.250111e+2, 3.147817e+2, 61065.133, -155079.83, -11664.688, 0.1310856, -0.51261634, 61692.82, 61692.82, 0.00013884061, 10.001145, 9.998385 
1.3499618e+2, 1.2479097e+2, -1557470.9, -1577075.6, -53602.36, -0.08414892, -0.33340293, -1512782.0, 204233.81, 0.0014283952, 10.000781, 10.000556 
1.3499713e+2, 1.3479184e+2, -1742926.9, -1627709.6, 28442.105, 0.041519467, -0.30485907, -1621071.0, -2066.2444, 0.000819765, 9.998915, 10.000437 
1.3499692e+2, 1.4479037e+2, -1730358.3, -1667306.3, 95002.055, -0.04935542, -0.45470846, -1598736.0, -77717.484, 0.00033887546, 9.99872, 9.999583 
1.3499795e+2, 1.5479034e+2, -1397942.0, -1476936.1, 68643.586, -0.11092022, -0.42298612, -1358243.4, 64776.234, 0.0000801792, 10.000423, 9.999395 
1.3499898e+2, 1.6478993e+2, -1266665.6, -1390708.3, -34478.758, -0.072033376, -0.3887421, -1257726.1, 67298.516, 0.0000062149566, 10.000777, 9.999145 
1.3500005e+2, 1.7478858e+2, -1330518.0, -1376426.0, -41479.938, 0.07379731, -0.45537233, -1306064.5, -79025.68, 0.000000017143847, 9.999692, 9.99909 
1.3500033e+2, 1.8478876e+2, -1184037.3, -1095628.0, 1226.0801, 0.06904813, -0.41226953, -1095611.0, 33425.895, 0.0, 9.999331, 10.000523 
1.3499977e+2, 1.9479078e+2, -1026172.7, -969891.75, 7809.6987, -0.100999616, -0.2793838, -968828.1, 62187.96, 0.0, 9.999752, 10.000508 
1.350008e+2, 2.0479129e+2, -924509.56, -951963.3, 7521.552, -0.10095117, -0.2414166, -922583.94, 10426.436, 0.0, 10.000129, 9.999777 
1.3500349e+2, 2.1479005e+2, -785181.06, -840970.7, 37467.32, 0.0769159, -0.35779455, -766364.8, 68657.01, 0.0, 10.000442, 9.999715 
1.350048e+2, 2.2478901e+2, -749825.5, -873299.8, 40451.566, 0.09647643, -0.38745505, -737753.4, -721.5797, 0.0, 10.000438, 9.998822 
1.3500452e+2, 2.3478812e+2, -718502.5, -815169.3, 8850.324, -0.06095892, -0.3722903, -717698.94, -78658.016, 0.0, 10.000014, 9.998753 
1.3500583e+2, 2.4478747e+2, -555160.0, -564366.0, -16882.709, -0.035299964, -0.36158118, -542264.06, -1216.9263, 0.0, 9.999945, 9.999835 
1.3500892e+2, 2.5478712e+2, -412246.7, -451211.4, 17786.063, 0.18777888, -0.3983308, -405349.0, 37701.26, 0.0, 10.000271, 9.999787 
1.3501073e+2, 2.647872e+2, -287594.44, -332575.22, 84025.14, 0.22082296, -0.3674168, -223101.83, 121945.766, 0.0, 10.000444, 9.999835 
1.350113e+2, 2.7478766e+2, -203950.86, -249310.4, 103190.49, 0.053863924, -0.32103157, -120977.195, 126062.65, 0.0, 10.000375, 9.99977 
1.3501178e+2, 2.847859e+2, -229966.14, -458294.84, -59425.293, 0.06228095, -0.3628332, -215425.92, -66369.445, 0.000000004047862, 10.0005865, 9.9975605 
1.35012e+2, 2.947819e+2, -77069.125, -326877.34, -93301.586, 0.25180635, -0.53168344, -46068.703, 5029.19, 0.0000011638989, 10.000923, 9.997633 
1.3501139e+2, 3.047817e+2, 111776.57, -40998.645, -826.4501, 0.19061631, -0.3927695, 111781.04, 111781.04, 0.00002379093, 10.001159, 9.999157 
1.3501082e+2, 3.147823e+2, 35068.82, -180839.38, 4088.9873, -0.041478686, -0.24835384, 35146.23, 35146.23, 0.00011909773, 10.00103, 9.998263 
1.4499466e+2, 1.2479036e+2, -2031456.0, -1795014.6, -99459.46, -0.13746151, -0.3358715, -1758741.6, -41720.254, 0.0014440229, 9.997471, 10.00066 
1.4499693e+2, 1.3479158e+2, -1719972.9, -1587450.1, -78600.62, 0.13506761, -0.3009435, -1550907.6, 68097.79, 0.00083842565, 9.998929, 10.000711 
1.4499722e+2, 1.4479004e+2, -1612645.9, -1624258.0, 43082.28, 0.068636484, -0.46602467, -1574980.1, -53960.574, 0.00035495815, 9.999589, 9.999463 
1.4499786e+2, 1.5478969e+2, -1554297.5, -1567562.1, 54824.566, -0.10736613, -0.4524329, -1505705.5, -82680.484, 0.00008912459, 9.999415, 9.999262 
1.4499865e+2, 1.6478948e+2, -1426108.9, -1439382.6, -26075.83, -0.11669238, -0.40351874, -1405838.6, -80810.37, 0.000008328298, 9.999564, 9.9993925 
1.4499968e+2, 1.7478892e+2, -1271985.4, -1322825.8, -2546.382, 0.055548042, -0.4135396, -1271858.1, -44824.414, 0.0000000715251, 9.999978, 9.999323 
1.4500012e+2, 1.8478891e+2, -1111102.5, -1124517.6, 69086.21, 0.078829065, -0.37567115, -1048399.0, 80635.484, 0.0, 10.000107, 9.999952 
1.4499989e+2, 1.9478956e+2, -1044570.8, -1047698.0, 18983.951, -0.06784201, -0.3198121, -1027086.2, 3942.931, 0.0, 9.999912, 9.999903 
1.4500105e+2, 2.0478971e+2, -959123.7, -963914.5, -12412.466, -0.07104391, -0.2875846, -948877.6, -15849.68, 0.0, 9.999876, 9.999813 
1.4500369e+2, 2.1478926e+2, -852094.44, -870765.5, -40275.777, 0.079154864, -0.32875943, -820086.4, 14945.462, 0.0, 9.999972, 9.999736 
1.4500502e+2, 2.2478856e+2, -758171.8, -835911.0, -9569.898, 0.08964858, -0.3419879, -757011.06, -19973.219, 0.0, 10.00021, 9.999188 
1.4500496e+2, 2.3478758e+2, -604543.5, -720193.9, 46212.527, -0.04562598, -0.37292665, -588346.06, 50700.37, 0.0, 10.000626, 9.999114 
1.4500622e+2, 2.4478704e+2, -449544.03, -507738.38, 55209.48, -0.021427184, -0.37384003, -416233.4, 124817.64, 0.0, 10.00065, 9.999883 
1.4500898e+2, 2.5478703e+2, -411742.66, -441171.94, 22983.006, 0.17300543, -0.38199416, -399167.38, 43883.543, 0.0, 10.00025, 9.999858 
1.4501077e+2, 2.6478714e+2, -360140.16, -381244.38, 54842.813, 0.2070873, -0.34575492, -314843.53, 30204.514, 0.0, 9.999995, 9.9997225 
1.450117e+2, 2.7478734e+2, -283418.25, -300341.06, 33924.7, 0.08440461, -0.31606492, -256915.66, -9872.282, 0.0, 9.999873, 9.999667 
1.4501268e+2, 2.8478536e+2, -221062.6, -451462.22, -53710.984, 0.09784186, -0.37384787, -209156.67, -60094.574, 0.000000009906891, 10.000625, 9.997597 
1.4501357e+2, 2.9478142e+2, 134458.19, -217699.4, -19628.18, 0.2497954, -0.544561, 135548.81, 186652.14, 0.0000010398929, 10.002345, 9.997696 
1.4501247e+2, 3.0478132e+2, 206072.14, -7229.8496, 39965.69, 0.15402104, -0.39432618, 213314.48, 213314.48, 0.000019274365, 10.00186, 9.999046 
1.4501062e+2, 3.1478173e+2, -258959.23, -259420.05, 47029.082, -0.04282325, -0.25249904, -212159.98, -212159.98, 0.00010043125, 9.998753, 9.998812 
1.5499264e+2, 1.24789655e+2, -2049691.6, -1855149.5, -68665.4, -0.12588021, -0.28636524, -1833355.0, -116322.66, 0.0014662774, 9.997565, 10.000203 
1.5499642e+2, 1.3479006e+2, -1735771.6, -1626742.4, -21227.055, 0.17253542, -0.30181056, -1622755.4, -3729.0728, 0.0008607167, 9.998952, 10.000434 
1.5499753e+2, 1.4478898e+2, -1572552.1, -1542255.0, 31024.947, 0.12519875, -0.43557233, -1522877.9, -1841.5273, 0.00037131715, 9.999594, 10.000024 
1.5499845e+2, 1.547906e+2, -1511127.0, -1483075.5, 55433.957, -0.007814494, -0.2809077, -1439920.4, -16899.13, 0.00009663115, 9.999439, 9.999828 
1.5499873e+2, 1.6479144e+2, -1369464.1, -1318182.4, -16508.232, -0.07935504, -0.1977542, -1313327.8, 11683.864, 0.000009881803, 9.999552, 10.000231 
1.5499835e+2, 1.7479095e+2, -1214634.8, -1199074.4, 19759.822, -0.08996273, -0.28274435, -1185618.3, 41393.74, 0.00000020107916, 9.999961, 10.00018 
1.5499918e+2, 1.8478969e+2, -1194921.4, -1296829.8, 57191.105, -0.042449746, -0.35548368, -1169278.3, -40254.324, 0.0, 10.000098, 9.998775 
1.550013e+2, 1.9478764e+2, -1135501.0, -1228106.1, 17759.857, 0.06577037, -0.44863102, -1132211.9, -101164.46, 0.0, 9.999883, 9.998677 
1.5500249e+2, 2.04787e+2, -1005943.2, -1053661.5, -13683.537, 0.07059838, -0.4022912, -1002297.8, -69241.03, 0.0, 9.999841, 9.999217 
1.550026e+2, 2.1478783e+2, -898730.9, -954323.9, -31398.002, -0.04254633, -0.25915724, -884593.1, -49541.51, 0.0, 9.999916, 9.999188 
1.550037e+2, 2.2478785e+2, -653051.4, -605077.9, 373.3791, -0.07658889, -0.2522675, -605075.0, 131974.23, 0.0, 10.0001545, 10.000801 
1.5500589e+2, 2.3478696e+2, -496710.38, -485511.47, 69118.54, -0.027648933, -0.43855035, -421765.94, 217284.39, 0.0, 10.000575, 10.000752 
1.5500739e+2, 2.4478665e+2, -499908.16, -603793.5, 35704.254, 0.0153339915, -0.4668906, -488820.4, 52229.977, 0.0, 10.000612, 9.999241 
1.5500824e+2, 2.5478697e+2, -470429.6, -548422.0, 14023.667, 0.059851263, -0.37386602, -467984.66, -24934.955, 0.0, 10.000182, 9.999157 
1.5500931e+2, 2.647865e+2, -399186.34, -452441.3, 44810.14, 0.048032373, -0.33866817, -373689.25, -28634.709, 0.0, 9.999957, 9.9992485 
1.5501064e+2, 2.7478507e+2, -330939.47, -380985.72, 35319.86, -0.022034993, -0.420714, -312676.94, -65610.34, 0.0, 9.999795, 9.999151 
1.5501262e+2, 2.8478357e+2, -153612.06, -299948.88, 5652.1963, 0.015446862, -0.45562527, -153394.08, -4313.543, 0.000000005626964, 10.000578, 9.998655 
1.5501514e+2, 2.9478234e+2, 200094.97, -66256.38, 56271.79, 0.15421768, -0.46512082, 211495.48, 262589.03, 0.00000084127635, 10.002274, 9.998772 
1.5501384e+2, 3.047822e+2, 210772.39, 20849.08, -76292.055, 0.093388274, -0.38186327, 237622.86, 237622.86, 0.000015268795, 10.001797, 9.999258 
1.5501012e+2, 3.147802e+2, -194721.73, -98833.06, -53192.523, 0.0036633941, -0.50944895, -75166.62, -75166.62, 0.00008386637, 9.998645, 9.999959 
1.6499205e+2, 1.24789186e+2, -1940830.1, -1839372.1, -662.1199, 0.018271467, -0.23924124, -1839367.9, -122329.61, 0.0014745225, 9.998463, 9.99988 
1.649958e+2, 1.3478915e+2, -1689200.9, -1616503.6, 46363.777, 0.20107372, -0.28442508, -1593938.5, 25099.107, 0.00086981576, 9.9993305, 10.0003195 
1.6499709e+2, 1.4478816e+2, -1537915.8, -1487040.6, 64143.7, 0.12072154, -0.42044184, -1443474.6, 77571.64, 0.00037795518, 9.999687, 10.000347 
1.6499847e+2, 1.5479013e+2, -1466636.9, -1429001.5, 56313.977, 0.04520006, -0.26046884, -1388444.4, 34581.3, 0.000098805474, 9.999611, 10.000113 
1.6499884e+2, 1.64791e+2, -1357414.1, -1318184.1, -31471.814, -0.025385011, -0.18498057, -1300715.1, 24300.041, 0.000009884257, 9.999644, 10.000185 
1.6499813e+2, 1.7479034e+2, -1253380.6, -1220819.0, -72857.56, -0.09303338, -0.28921497, -1162445.3, 64573.563, 0.0000002904704, 9.999702, 10.000153 
1.6499911e+2, 1.8478905e+2, -1224505.9, -1332875.4, -23951.873, -0.0492161, -0.35356468, -1219448.1, -90415.914, 0.0, 10.000008, 9.998562 
1.6500202e+2, 1.9478714e+2, -1053117.5, -1212404.0, -514.1665, 0.11988574, -0.41100317, -1053115.9, -22060.74, 0.0, 10.000558, 9.998454 
1.6500318e+2, 2.047864e+2, -879882.7, -975617.4, 33755.35, 0.11881671, -0.37063184, -869177.8, 63887.1, 0.0, 10.000633, 9.999371 
1.6500239e+2, 2.1478695e+2, -846773.75, -910651.4, 59407.332, -0.06421201, -0.27123183, -811263.94, 23796.484, 0.0, 10.0001955, 9.999354 
1.6500333e+2, 2.2478709e+2, -717066.75, -623128.56, 75999.96, -0.10161428, -0.26721463, -580755.1, 156301.1, 0.0, 9.999667, 10.000906 
1.6500607e+2, 2.3478682e+2, -719258.9, -577137.56, 14930.706, 0.016128728, -0.40103075, -575585.94, 63465.965, 0.0, 9.998996, 10.000874 
1.6500777e+2, 2.4478656e+2, -695351.6, -703938.6, -22249.363, 0.061077856, -0.42889255, -676985.25, -135933.77, 0.0, 9.999293, 9.999192 
1.6500838e+2, 2.547863e+2, -405862.1, -522346.56, -6242.5415, 0.035215013, -0.38645768, -405528.5, 37526.72, 0.0, 10.000643, 9.999116 
1.6500936e+2, 2.647854e+2, -251026.67, -409690.25, 41357.734, 0.0053025284, -0.3801446, -240893.4, 104170.81, 0.0, 10.00109, 9.999001 
1.6501085e+2, 2.7478367e+2, -232671.25, -357643.6, 36381.586, -0.014705278, -0.46961135, -222851.55, 24228.764, 0.0, 10.000571, 9.998933 
1.6501299e+2, 2.847827e+2, -193275.77, -239512.11, 48641.617, 0.03020623, -0.47424778, -162538.05, -13449.0, 0.00000000009995645, 9.9999695, 9.999361 
1.6501579e+2, 2.9478303e+2, -182856.4, -169189.38, 57731.688, 0.14624298, -0.40290752, -117888.18, -66802.01, 0.00000051342266, 9.999298, 9.999497 
1.6501461e+2, 3.0478254e+2, -39690.49, -140827.88, -123306.05, 0.075180426, -0.3745019, 43013.375, 43013.375, 0.000011747977, 10.00023, 9.998914 
1.6501148e+2, 3.1477982e+2, 434268.1, 242934.94, -165393.31, 0.07445868, -0.5387108, 529669.7, 529669.7, 0.00007014343, 10.002786, 10.000318 
1.7499247e+2, 1.2478886e+2, -1940463.8, -1846212.9, 10166.023, 0.17972524, -0.20003018, -1845128.8, -128088.98, 0.0014574766, 9.998499, 9.999812 
1.7499484e+2, 1.3478895e+2, -1680692.4, -1603125.5, 80565.15, 0.15661544, -0.2436973, -1552494.8, 66543.61, 0.00085594517, 9.999353, 10.000397 
1.7499575e+2, 1.4478761e+2, -1530906.8, -1479037.1, 55981.13, 0.0010823784, -0.41867256, -1443275.0, 77774.11, 0.0003688444, 9.99971, 10.000396 
1.749977e+2, 1.5478829e+2, -1461514.5, -1419786.0, 61654.48, -0.012471664, -0.39323023, -1375561.1, 47477.56, 0.00009401229, 9.999619, 10.000173 
1.7499875e+2, 1.6478826e+2, -1418916.8, -1444578.6, -33777.953, -0.016687395, -0.36833036, -1395614.9, -70575.96, 0.000008393363, 9.999637, 9.999324 
1.7499875e+2, 1.7478713e+2, -1315351.9, -1351028.4, -65329.45, -0.018554868, -0.42819855, -1265469.1, -38415.176, 0.00000020811186, 9.999712, 9.999254 
1.7499974e+2, 1.8478703e+2, -1171130.5, -1225125.9, -7974.2954, -0.0022234872, -0.36341056, -1169977.5, -40918.727, 0.0, 10.0000105, 9.999304 
1.7500181e+2, 1.9478807e+2, -1000159.8, -1098901.5, 26905.0, 0.027357327, -0.20434141, -993304.7, 37747.42, 0.0, 10.000537, 9.999245 
1.7500289e+2, 2.0478797e+2, -822321.75, -848677.56, 11908.884, 0.014025816, -0.18662153, -817737.94, 115313.84, 0.0, 10.000598, 10.000259 
1.7500292e+2, 2.1478654e+2, -791174.1, -788384.3, 49478.887, -0.04632845, -0.37185454, -740280.7, 94778.24, 0.0, 10.000162, 10.000212 
1.7500368e+2, 2.2478625e+2, -822046.3, -829863.44, 46251.42, -0.04589867, -0.38461718, -779538.6, -42479.76, 0.0, 9.9996195, 9.999508 
1.7500532e+2, 2.3478712e+2, -828213.94, -793011.25, -3803.28, 0.02497498, -0.26292354, -792605.0, -153553.31, 0.0, 9.998945, 9.999417 
1.7500713e+2, 2.4478671e+2, -665021.3, -629549.94, 20826.957, 0.05690358, -0.25751552, -619930.25, -78875.56, 0.0, 9.999248, 9.999721 
1.750092e+2, 2.5478497e+2, -377458.16, -447726.9, 48563.336, 0.040405832, -0.42223594, -352652.38, 90415.875, 0.0, 10.000575, 9.99966 
1.7501083e+2, 2.647838e+2, -254111.67, -407370.88, 18055.104, 0.032128338, -0.47010818, -252013.38, 93064.305, 0.0, 10.001055, 9.999031 
1.7501211e+2, 2.747831e+2, -239427.64, -359731.38, 23003.486, 0.04036827, -0.45901182, -235179.14, 11905.459, 0.0, 10.000519, 9.998944 
1.7501362e+2, 2.8478277e+2, -172031.83, -191777.28, 14885.703, 0.08201971, -0.41982993, -164042.45, -14954.727, 0.0, 9.999952, 9.999699 
1.7501524e+2, 2.9478326e+2, -169832.6, -128555.42, 39020.383, 0.14566329, -0.36294034, -105051.72, -53969.074, 0.00000027417164, 9.999239, 9.999805 
1.7501459e+2, 3.0478203e+2, -101441.516, -261477.81, -32736.916, 0.03875607, -0.3815892, -95003.84, -95003.84, 0.000009335192, 10.0002, 9.998099 
1.7501417e+2, 3.147805e+2, 386118.66, 171621.14, -51722.316, 0.036214206, -0.34449926, 397939.2, 397939.2, 0.000059812894, 10.002674, 9.999875 
1.849922e+2, 1.2478686e+2, -1728934.6, -1750186.3, -24501.0, 0.23116082, -0.275562, -1712854.5, 4202.7295, 0.0014119628, 9.999965, 9.999764 
1.8499398e+2, 1.347879e+2, -1719243.0, -1612435.8, 31262.18, 0.15419917, -0.23177268, -1603958.4, 15088.966, 0.0008198644, 9.999042, 10.000483 
1.8499465e+2, 1.4478686e+2, -1671931.0, -1547563.6, 29674.586, -0.025263563, -0.3820569, -1540846.0, -19790.234, 0.0003462985, 9.998733, 10.000395 
1.8499674e+2, 1.5478656e+2, -1515206.0, -1444902.1, 20183.484, -0.047246486, -0.45543268, -1439519.8, -16464.93, 0.000084445885, 9.999237, 10.000187 
1.8499827e+2, 1.6478652e+2, -1442627.3, -1468609.0, -43275.844, -0.020786708, -0.42773652, -1410434.5, -85377.83, 0.000006352812, 9.99955, 9.999195 
1.8499921e+2, 1.7478642e+2, -1327373.0, -1373117.3, -28577.35, 0.059126277, -0.3695554, -1313641.9, -86577.27, 0.000000056960435, 9.999706, 9.999107 
1.8500029e+2, 1.8478684e+2, -1167738.9, -1182516.1, 61192.496, 0.062066533, -0.2637748, -1113490.5, 15574.31, 0.0, 9.999856, 9.999671 
1.8500145e+2, 1.947879e+2, -1060252.3, -1084716.5, 54900.26, -0.028748369, -0.13963835, -1016237.94, 14817.77, 0.0, 9.99994, 9.99963 
1.8500264e+2, 2.047876e+2, -906176.06, -892301.9, -16714.328, -0.039011024, -0.15912572, -881142.2, 51913.387, 0.0, 10.000034, 10.000231 
1.8500389e+2, 2.1478581e+2, -796723.06, -793799.5, -59173.742, 0.03882716, -0.37946376, -736069.5, 98995.805, 0.0, 10.000132, 10.000189 
1.850048e+2, 2.2478504e+2, -725909.25, -847269.9, -48043.01, 0.061340265, -0.41025332, -709192.94, 27876.791, 0.0, 10.00054, 9.998956 
1.8500547e+2, 2.3478544e+2, -530003.7, -711886.0, -41409.914, 0.036138274, -0.28009054, -521019.5, 118049.11, 0.0, 10.001251, 9.998871 
1.8500704e+2, 2.4478485e+2, -407981.47, -517031.44, 8038.3184, 0.032959215, -0.25856605, -407392.13, 133682.11, 0.0, 10.001056, 9.999624 
1.8500952e+2, 2.5478327e+2, -486609.22, -507004.13, -24853.607, 0.05484272, -0.3985497, -469942.38, -26855.553, 0.0, 9.999858, 9.999596 
1.8501152e+2, 2.6478228e+2, -432085.06, -458448.25, -55829.98, 0.066387706, -0.44268724, -387901.66, -42807.055, 0.0, 9.999681, 9.999342 
1.8501309e+2, 2.7478173e+2, -203238.61, -305114.63, -36889.215, 0.08555015, -0.44608605, -191283.89, 55815.035, 0.0, 10.000608, 9.999277 
1.850143e+2, 2.8478163e+2, -28249.18, -97543.78, -56454.53, 0.1145645, -0.41170785, 3342.0994, 152440.72, 0.0, 10.000824, 9.999928 
1.8501489e+2, 2.947824e+2, -11650.684, -33133.824, -55927.402, 0.14156437, -0.34996355, 34557.332, 85647.06, 0.00000021710767, 10.000238, 9.999981 
1.8501458e+2, 3.0478042e+2, -82945.86, -296993.78, -12081.801, 0.006361206, -0.43207434, -82266.07, -82266.07, 0.0000079127085, 10.000509, 9.99771 
1.8501668e+2, 3.1477922e+2, 208703.25, 30289.328, -16104.078, 0.074801974, -0.32517248, 210145.19, 210145.19, 0.00005116492, 10.001661, 9.999412 
1.9499083e+2, 1.2478313e+2, -1729097.1, -1751543.3, -86226.88, 0.06417437, -0.47016117, -1653366.0, 63725.055, 0.0013384911, 9.999982, 9.999745 
1.949931e+2, 1.3478595e+2, -1719277.5, -1601832.0, -2230.0898, 0.14548331, -0.25469565, -1601789.6, 17275.578, 0.0007672974, 9.999011, 10.000565 
1.9499375e+2, 1.447859e+2, -1671304.1, -1548447.1, 40611.18, -0.009034359, -0.3114728, -1536236.5, -15170.195, 0.00031672008, 9.9987335, 10.000391 
1.9499537e+2, 1.5478507e+2, -1516272.5, -1446654.4, 44889.047, -0.12269698, -0.4380329, -1424659.5, -1586.1422, 0.000073711046, 9.999235, 10.0001745 
1.949972e+2, 1.647859e+2, -1400748.4, -1383485.5, -40865.54, -0.094770044, -0.3497176, -1350349.8, -25282.473, 0.0000047225935, 9.999551, 9.999782 
1.9499937e+2, 1.7478825e+2, -1284741.9, -1285312.8, -14376.42, 0.08881578, -0.1089069, -1270648.1, -43597.9, 0.0000000036456946, 9.999704, 9.999712 
1.9500059e+2, 1.8478848e+2, -1172826.9, -1188889.8, 58859.957, 0.0926861, -0.049706057, -1121452.9, 7597.0186, 0.0, 9.999833, 9.999642 
1.9500074e+2, 1.9478653e+2, -1066674.6, -1094037.5, 64447.633, -0.108458206, -0.22340451, -1014472.25, 16594.75, 0.0, 9.999919, 9.999579 
1.950022e+2, 2.0478526e+2, -976840.2, -1027865.9, -17498.344, -0.10168669, -0.29205093, -971416.0, -38339.05, 0.0, 9.999988, 9.99932 
1.9500507e+2, 2.1478465e+2, -869846.1, -933213.1, -48961.88, 0.13075347, -0.30012682, -843210.56, -8130.3457, 0.0, 10.000078, 9.999256 
1.9500652e+2, 2.247835e+2, -712999.8, -807623.6, -27679.164, 0.16703376, -0.33993262, -705497.94, 31590.934, 0.0, 10.000489, 9.99925 
1.9500639e+2, 2.3478174e+2, -515569.56, -668055.9, -8591.223, -0.010797454, -0.4545218, -515087.06, 124015.875, 0.0, 10.001193, 9.999198 
1.9500726e+2, 2.4478094e+2, -466884.38, -627158.9, -40910.258, -0.06146845, -0.43521968, -457045.9, 84064.664, 0.0, 10.001004, 9.998892 
1.9500917e+2, 2.547812e+2, -548422.7, -621060.9, -64264.402, 0.020135842, -0.31978524, -510924.5, -67813.04, 0.0, 9.999796, 9.998841 
1.9501124e+2, 2.647808e+2, -392936.16, -368929.44, -27867.33, 0.05915504, -0.29484862, -350590.28, -5475.3135, 0.0, 9.999648, 9.999972 
1.950136e+2, 2.7477956e+2, -165882.58, -214366.45, 5496.226, 0.059108052, -0.4321506, -165267.33, 81855.734, 0.0, 10.000549, 9.999931 
1.9501483e+2, 2.847793e+2, -27758.416, -87445.195, -81148.555, 0.07164276, -0.45433414, 28860.418, 177982.5, 0.0, 10.000788, 10.000013 
1.9501461e+2, 2.947805e+2, -23548.057, -38051.402, -70660.95, 0.07453289, -0.35406116, 40232.355, 91339.25, 0.0000002787285, 10.000156, 9.999985 
1.950144e+2, 3.0477774e+2, -82961.945, -285188.63, 25828.053, -0.07413137, -0.5183198, -79715.35, -79715.35, 0.000006930128, 10.000467, 9.997807 
1.9501857e+2, 3.1477618e+2, 171764.66, -17067.414, 35227.406, 0.070894524, -0.46047235, 178122.4, 178122.4, 0.00004299831, 10.001554, 9.999129 
2.0499063e+2, 1.2478168e+2, -1670875.6, -1726342.0, -54380.066, 0.030360326, -0.49667978, -1637565.1, 79540.82, 0.0012408808, 10.000415, 9.999705 
2.0499258e+2, 1.3478458e+2, -1537239.6, -1517168.5, 7053.826, 0.13696854, -0.27385733, -1514937.5, 104142.32, 0.0007023467, 10.000269, 10.000546 
2.0499322e+2, 1.4478505e+2, -1523033.3, -1474144.1, 78107.414, 0.018794427, -0.2760993, -1416745.5, 104330.836, 0.0002832004, 9.99975, 10.000411 
2.0499505e+2, 1.5478452e+2, -1550967.3, -1460398.9, 68182.28, -0.06256241, -0.3742705, -1423832.8, -751.15375, 0.000063005726, 9.998987, 10.000199 
2.0499699e+2, 1.647853e+2, -1435371.9, -1361692.0, 15966.759, -0.0484643, -0.30975798, -1358380.8, -33305.67, 0.0000035155435, 9.999143, 10.000127 
2.0499915e+2, 1.7478731e+2, -1176790.0, -1194227.3, 12780.097, 0.07099849, -0.1374079, -1170037.9, 57020.08, 0.0000000004928599, 10.0002775, 10.000061 
2.0500055e+2, 1.8478724e+2, -1080165.8, -1168218.6, 48214.72, 0.07115386, -0.11474559, -1058900.6, 70158.19, 0.0, 10.000575, 9.999424 
2.050011e+2, 1.9478498e+2, -1075084.4, -1124217.5, 26271.06, -0.06293821, -0.29700333, -1063683.1, -32603.994, 0.0, 9.99997, 9.999346 
2.0500275e+2, 2.0478362e+2, -1002920.1, -1083692.9, -7804.936, -0.040430665, -0.3457245, -1002172.8, -69081.445, 0.0, 9.999994, 9.998938 
2.0500569e+2, 2.1478316e+2, -815112.25, -949749.75, -7866.855, 0.15847161, -0.2991332, -814654.2, 20441.357, 0.0, 10.000641, 9.998873 
2.0500715e+2, 2.2478205e+2, -656240.25, -764665.4, 33042.363, 0.1682105, -0.32008904, -646964.25, 90140.02, 0.0, 10.000814, 9.999384 
2.0500708e+2, 2.3478022e+2, -610045.75, -697896.6, 26786.254, -0.022763351, -0.4579078, -602522.7, 36595.32, 0.0, 10.000481, 9.999333 
2.0500788e+2, 2.447793e+2, -570723.44, -709223.7, -9487.551, -0.068563595, -0.44479343, -570076.5, -28949.61, 0.0, 10.000429, 9.998604 
2.0500961e+2, 2.5477934e+2, -435269.16, -602267.25, -8481.244, 0.04122559, -0.31979564, -434839.53, 8291.481, 0.0, 10.000723, 9.998525 
2.0501119e+2, 2.6477897e+2, -284664.13, -305187.22, 49023.367, 0.05595718, -0.28011322, -244839.86, 100294.586, 0.0, 10.000346, 10.000073 
2.050127e+2, 2.7477807e+2, -349350.88, -288938.2, 25859.232, -0.016066056, -0.3975155, -279381.2, -32242.428, 0.0, 9.999237, 10.000048 
2.0501432e+2, 2.8477746e+2, -287582.03, -276905.25, -76796.29, 0.020888709, -0.42909864, -205262.03, -56120.69, 0.0, 9.999286, 9.999435 
2.0501578e+2, 2.9477763e+2, 2922.949, -91267.83, -121536.445, 0.1557341, -0.37463784, 86169.734, 137307.5, 0.00000036340376, 10.000628, 9.99939 
2.0501584e+2, 3.0477488e+2, 71346.6, -130222.71, -12740.322, -0.00942143, -0.5419168, 72148.67, 72148.67, 0.000006339283, 10.001189, 9.998524 
2.0501949e+2, 3.147744e+2, 70823.7, -25295.102, 5829.221, 0.05628919, -0.45649135, 71175.93, 71175.93, 0.00003635789, 10.000706, 9.999471 
2.1499114e+2, 1.2478258e+2, -1671557.0, -1732663.3, -81999.19, 0.0064247935, -0.34938717, -1614603.8, 102498.016, 0.0011227193, 10.000434, 9.999653 
2.1499231e+2, 1.347839e+2, -1536241.9, -1525780.6, 6288.623, 0.066403955, -0.27740273, -1522831.6, 96258.34, 0.0006268979, 10.000313, 10.000468 
2.1499287e+2, 1.4478445e+2, -1519743.6, -1475489.9, 42773.992, -0.009691279, -0.26395297, -1449458.5, 71626.2, 0.0002465844, 9.999783, 10.000388 
2.1499556e+2, 1.547849e+2, -1546075.9, -1456516.9, 45134.93, 0.07145446, -0.26363346, -1437716.8, -14636.832, 0.000052325075, 9.99901, 10.000217 
2.1499744e+2, 1.6478465e+2, -1429667.0, -1345107.3, 51468.453, 0.06454961, -0.30994958, -1320779.4, 4301.1855, 0.000002586899, 9.999124, 10.000251 
2.1499836e+2, 1.7478354e+2, -1170696.3, -1176785.8, 61542.64, -0.049693014, -0.46150386, -1112123.0, 114965.11, 0.000000000052014764, 10.000261, 10.000186 
2.1499997e+2, 1.8478307e+2, -1113831.1, -1233984.6, 22228.342, -0.057768714, -0.4655399, -1109850.8, 19241.377, 0.0, 10.000552, 9.998987 
2.1500239e+2, 1.9478326e+2, -1106187.0, -1186724.4, 9807.71, 0.05154319, -0.35904637, -1105009.8, -73917.266, 0.0, 9.999959, 9.998924 
2.1500422e+2, 2.0478268e+2, -996606.7, -1063468.4, 10076.882, 0.0932862, -0.31362787, -995121.0, -62022.234, 0.0, 9.999965, 9.999089 
2.1500549e+2, 2.1478128e+2, -811190.0, -927982.56, 21127.54, 0.059809312, -0.37781084, -807485.56, 27625.861, 0.0, 10.000582, 9.99905 
2.1500652e+2, 2.2478065e+2, -667292.06, -772430.0, 15522.847, 0.011563783, -0.35784268, -665048.06, 72068.55, 0.0, 10.000751, 9.999361 
2.1500736e+2, 2.3478083e+2, -623291.2, -706793.6, 21968.113, -0.05418896, -0.2933634, -617864.44, 21249.807, 0.0, 10.0004015, 9.9993105 
2.1500872e+2, 2.4477988e+2, -565995.44, -690340.06, -3969.671, -0.04075033, -0.2888319, -565868.8, -24745.354, 0.0, 10.000393, 9.998752 
2.1501066e+2, 2.5477773e+2, -436470.4, -585092.8, 7733.9995, 0.058673732, -0.39440575, -436069.03, 7076.203, 0.0, 10.00064, 9.998684 
2.1501115e+2, 2.6477683e+2, -324018.34, -376291.22, 3660.4678, 0.006581143, -0.39513656, -323763.28, 21389.568, 0.0, 10.000302, 9.999602 
2.1501023e+2, 2.747772e+2, -395775.4, -370224.47, -8607.8545, -0.20214923, -0.33938307, -367595.13, -120448.59, 0.0, 9.999171, 9.99952 
2.1501258e+2, 2.847761e+2, -372233.8, -443258.63, -35305.785, -0.09679494, -0.33576795, -357670.0, -208513.06, 0.0, 9.9992485, 9.998309 
2.1501821e+2, 2.947738e+2, -85837.52, -265884.34, -65278.67, 0.32239392, -0.41500863, -64660.58, -13478.204, 0.0000004878426, 10.000585, 9.998214 
2.150187e+2, 3.047718e+2, 156979.16, 52338.094, -30433.08, 0.1483252, -0.5016492, 165186.39, 165186.39, 0.0000063211505, 10.001168, 9.999789 
2.150192e+2, 3.147739e+2, 116810.625, 88103.414, -12027.513, -0.072941534, -0.29740837, 121183.66, 121183.66, 0.0000317033, 10.000626, 10.000292 
2.249917e+2, 1.2478414e+2, -1751653.4, -1781174.3, -40290.15, 0.053601656, -0.1996436, -1723505.0, -6416.8267, 0.0009915447, 9.999905, 9.999584 
2.2499172e+2, 1.347835e+2, -1703282.1, -1617968.9, 26236.307, 0.036667798, -0.31336325, -1610546.3, 8547.564, 0.000545711, 9.999226, 10.000353 
2.2499202e+2, 1.4478387e+2, -1580513.4, -1514840.1, 97378.33, -0.050847773, -0.30933192, -1444911.1, 76178.65, 0.00020902291, 9.999405, 10.000306 
2.2499518e+2, 1.5478505e+2, -1321634.5, -1357298.6, 85370.945, 0.056585547, -0.22797073, -1252253.3, 170824.77, 0.000042237294, 10.000587, 10.000144 
2.2499731e+2, 1.6478474e+2, -1244412.3, -1308236.1, 67168.836, 0.06855289, -0.25344312, -1201960.0, 123119.72, 0.0000020119714, 10.000615, 9.999788 
2.2499825e+2, 1.747827e+2, -1343867.0, -1316871.1, 18850.44, -0.03619433, -0.45005202, -1307184.4, -80086.8, 0.0, 9.999309, 9.999689 
2.2500014e+2, 1.8478167e+2, -1293316.5, -1329574.5, -341.14734, -0.03352717, -0.4802679, -1293313.3, -164206.22, 0.0, 9.999364, 9.9989 
2.250031e+2, 1.9478175e+2, -984900.25, -1137112.6, 4483.3794, 0.086474426, -0.37714452, -984768.3, 46339.098, 0.0, 10.000843, 9.998836 
2.25005e+2, 2.0478131e+2, -779604.3, -935961.8, 14812.896, 0.10725479, -0.32330555, -778213.4, 154898.47, 0.0, 10.001352, 9.9993 
2.2500575e+2, 2.1478026e+2, -766386.56, -880937.8, 20735.549, 0.022504399, -0.3747331, -762748.6, 72372.52, 0.0, 10.000778, 9.99928 
2.2500667e+2, 2.247799e+2, -738892.06, -834176.2, 7600.213, -0.026262049, -0.32867754, -738289.6, -1164.7341, 0.0, 10.000373, 9.999121 
2.2500783e+2, 2.3478022e+2, -686516.1, -764114.1, -16429.352, -0.02776174, -0.22555551, -683181.0, -44057.69, 0.0, 10.000083, 9.999069 
2.2500935e+2, 2.4477923e+2, -615073.4, -689494.1, -18844.031, 0.00851763, -0.22439305, -610573.94, -69441.22, 0.0, 9.999947, 9.998977 
2.2501126e+2, 2.547768e+2, -511402.94, -593199.1, -11091.158, 0.09137122, -0.38221452, -509925.72, -66771.445, 0.0, 10.000002, 9.998939 
2.2501168e+2, 2.6477545e+2, -377866.44, -477576.34, -23752.758, 0.032662682, -0.40677813, -372497.22, -27331.314, 0.0, 10.000254, 9.998932 
2.2501059e+2, 2.7477524e+2, -211322.95, -356940.38, -62119.78, -0.15853804, -0.33849078, -188423.89, 58743.68, 0.0, 10.000761, 9.998847 
2.2501318e+2, 2.8477392e+2, -111719.125, -344395.22, -9605.982, -0.04988237, -0.3122684, -111323.22, 37858.688, 0.00000000075483947, 10.001139, 9.998085 
2.2501953e+2, 2.947717e+2, 3394.2954, -251482.02, 17203.807, 0.36192986, -0.36037484, 4550.286, 55757.727, 0.00000073344995, 10.001313, 9.997967 
2.2501999e+2, 3.0477026e+2, 160539.27, 20269.389, 4937.6265, 0.15669529, -0.3689296, 160712.86, 160712.86, 0.000007274646, 10.001328, 9.999491 
2.2502e+2, 3.147712e+2, 174479.14, 78109.11, -137017.6, -0.076322384, -0.2497189, 271537.44, 271537.44, 0.000030117351, 10.001165, 9.999971 
2.3499206e+2, 1.2478629e+2, -1748503.1, -1786476.1, -94592.15, 0.06127673, -0.054733504, -1671010.9, 46054.977, 0.0008595536, 9.999963, 9.99952 
2.3499064e+2, 1.3478327e+2, -1709771.5, -1644294.9, -3710.1165, -0.010336669, -0.38368753, -1644085.3, -24992.375, 0.00046458573, 9.999271, 10.000156 
2.3499042e+2, 1.4478308e+2, -1588950.0, -1525272.9, 133005.27, -0.16472192, -0.42264098, -1420348.5, 100745.03, 0.00017252294, 9.999381, 10.000244 
2.349937e+2, 1.547849e+2, -1321765.9, -1363944.6, 136328.42, -0.16836414, -0.27167094, -1204905.3, 218170.92, 0.000033446406, 10.000614, 10.000086 
2.3499645e+2, 1.647855e+2, -1324097.9, -1470592.4, 13394.202, -0.09162934, -0.14644414, -1322883.4, 2189.7734, 0.0000017722703, 10.000605, 9.998681 
2.3499867e+2, 1.7478473e+2, -1418810.5, -1472381.8, -25186.629, 0.06044625, -0.106476314, -1408828.9, -181742.1, 0.0000000001389195, 9.999308, 9.998624 
2.3500086e+2, 1.8478304e+2, -1283211.9, -1299434.8, 48362.19, 0.08899438, -0.15990302, -1242285.6, -113181.7, 0.0, 9.999325, 9.999126 
2.3500304e+2, 1.947804e+2, -969920.9, -1102265.6, 64179.375, -0.01834937, -0.35211363, -943909.9, 87214.79, 0.0, 10.000825, 9.999085 
2.3500484e+2, 2.047794e+2, -764043.4, -891082.75, -9982.008, -0.05588356, -0.3829524, -763263.8, 169867.78, 0.0, 10.0013, 9.999632 
2.350063e+2, 2.147801e+2, -749896.06, -835964.3, 5811.0405, -0.015817942, -0.29357222, -749505.5, 85619.12, 0.0, 10.000729, 9.999614 
2.3500745e+2, 2.2477981e+2, -782931.94, -910390.5, -6906.8145, 0.0020624811, -0.2339048, -782558.75, -45430.063, 0.0, 10.000313, 9.998626 
2.3500828e+2, 2.3477839e+2, -733298.8, -844596.4, -21460.031, -0.0056139287, -0.24956721, -729304.3, -90159.234, 0.0, 10.0000105, 9.998553 
2.350095e+2, 2.4477726e+2, -598915.94, -642676.94, -22576.748, 0.015334834, -0.2529982, -589356.56, -48201.258, 0.0, 9.999893, 9.999321 
2.3501122e+2, 2.5477642e+2, -498076.28, -548025.4, -2616.544, 0.07159172, -0.28735945, -497939.6, -54780.586, 0.0, 9.9999275, 9.999283 
2.3501255e+2, 2.647748e+2, -442115.34, -601975.94, -10365.984, 0.08243948, -0.31653315, -441445.97, -96272.01, 0.0, 10.0002165, 9.9980955 
2.3501356e+2, 2.7477223e+2, -279741.2, -483896.7, -35555.766, 0.04756911, -0.39761207, -273726.03, -26523.684, 0.0, 10.000693, 9.99801 
2.3501591e+2, 2.84771e+2, -71342.13, -248987.27, -7158.923, 0.095503494, -0.35619983, -71054.1, 78162.28, 0.00000003119879, 10.001094, 9.99876 
2.3501952e+2, 2.9477134e+2, 38935.957, -160926.75, 30313.611, 0.21213302, -0.215017, 43432.523, 94646.06, 0.0000012360658, 10.001237, 9.998628 
2.3501948e+2, 3.0477008e+2, 26211.43, -244755.25, -3712.001, -0.04049556, -0.14846656, 26262.271, 26262.271, 0.000009095323, 10.001274, 9.997696 
2.3502141e+2, 3.1476644e+2, 59998.49, -136446.64, -145534.63, -0.08084619, -0.30421758, 137354.97, 137354.97, 0.00003154515, 10.00107, 9.998541 
2.4499132e+2, 1.24784306e+2, -2007942.6, -1887381.9, -182124.39, 0.09265171, -0.1580042, -1755821.1, -38738.363, 0.0007335385, 9.998088, 9.999729 
2.4498977e+2, 1.3478205e+2, -1564357.5, -1573966.3, -86196.26, -0.071840964, -0.4108712, -1482831.8, 136271.08, 0.00038622954, 10.0002775, 10.000154 
2.4499e+2, 1.44782e+2, -1417660.6, -1461308.1, 32835.098, -0.20208733, -0.4272806, -1400058.3, 121044.016, 0.00013762695, 10.000631, 10.000077 
2.4499415e+2, 1.547829e+2, -1568491.0, -1501452.6, 14433.209, -0.09957798, -0.3516901, -1498477.3, -75383.875, 0.000025817635, 9.999011, 9.999908 
2.4499707e+2, 1.6478363e+2, -1525100.6, -1567064.8, -38963.08, -0.020469524, -0.20802179, -1501829.3, -176738.7, 0.0000016011192, 9.999224, 9.998684 
2.4499875e+2, 1.7478399e+2, -1123323.1, -1329884.4, -3897.5276, 0.039910782, -0.05259835, -1123249.6, 103845.75, 0.0000000006420841, 10.001338, 9.998622 
2.4500081e+2, 1.8478273e+2, -938768.1, -1112652.0, 100388.58, 0.040666107, -0.072917685, -892906.56, 236202.2, 0.0, 10.001601, 9.9993105 
2.4500327e+2, 1.9477965e+2, -1106546.6, -1146970.6, 100821.805, -0.023952506, -0.32848758, -1023930.8, 7200.8076, 0.0, 9.999797, 9.9992695 
2.4500528e+2, 2.0477846e+2, -1101203.9, -1090123.9, 13004.519, -0.03120495, -0.37371543, -1081528.5, -148387.52, 0.0, 9.999145, 9.999305 
2.4500698e+2, 2.147793e+2, -935398.44, -961291.9, -34398.01, 0.036658667, -0.23645616, -911591.4, -76455.76, 0.0, 9.999622, 9.999285 
2.4500817e+2, 2.2477877e+2, -797967.4, -890377.5, -32391.438, 0.05624126, -0.19293375, -787744.5, -50602.727, 0.0, 10.000085, 9.998875 
2.4500883e+2, 2.3477678e+2, -643589.4, -769871.0, 4415.2993, 0.027824499, -0.29613176, -643435.2, -4274.41, 0.0, 10.000494, 9.998833 
2.4500999e+2, 2.4477555e+2, -476381.63, -610852.06, 29684.48, 0.029918546, -0.31213725, -470120.28, 71051.19, 0.0, 10.000851, 9.999082 
2.4501175e+2, 2.5477514e+2, -335431.2, -497912.2, -8065.3247, 0.07493986, -0.27812812, -335031.84, 108141.51, 0.0, 10.001165, 9.999033 
2.450133e+2, 2.6477373e+2, -338496.13, -555136.3, -10869.455, 0.10222057, -0.2730526, -337952.16, 7235.346, 0.0, 10.000935, 9.998076 
2.450147e+2, 2.7477118e+2, -367229.03, -525320.75, 16042.63, 0.12530912, -0.34979153, -365617.5, -118402.06, 0.0, 10.000095, 9.998011 
2.4501671e+2, 2.8476995e+2, -237105.89, -299735.06, 92283.734, 0.13271742, -0.31840765, -170968.48, -21740.352, 0.00000009388162, 9.999833, 9.999017 
2.4501917e+2, 2.9477027e+2, -92353.87, -191202.73, 83615.3, 0.110212184, -0.21093775, -44648.016, 6575.616, 0.0000018075962, 10.000203, 9.998912 
2.4501948e+2, 3.0476892e+2, -115194.89, -382917.5, 89706.82, -0.1265361, -0.1355956, -87916.0, -87916.0, 0.000010445255, 10.000605, 9.997071 
2.450231e+2, 3.147647e+2, 42863.766, -149385.5, -4038.5461, -0.005623067, -0.28545207, 42948.566, 42948.566, 0.00003251449, 10.000986, 9.998488 
2.5498912e+2, 1.247783e+2, -1967460.0, -1815309.3, -127464.86, 0.03046617, -0.505398, -1742943.5, -25805.537, 0.0006147494, 9.998134, 10.000205 
2.5498894e+2, 1.3477981e+2, -1540953.4, -1533925.3, -208.39516, -0.19770008, -0.40580034, -1533919.1, 85204.805, 0.00031221876, 10.000315, 10.00041 
2.5499076e+2, 1.4478062e+2, -1438910.4, -1509292.4, -30997.127, -0.20666848, -0.33199847, -1427205.5, 93910.43, 0.00010529937, 10.000647, 9.999741 
2.5499624e+2, 1.5477903e+2, -1587410.8, -1545342.0, -41313.375, 0.19122061, -0.47685203, -1520016.5, -96886.03, 0.000019009012, 9.999027, 9.999599 
2.5499883e+2, 1.6477899e+2, -1451282.8, -1407240.5, 32981.797, 0.21944402, -0.44614238, -1389604.0, -64471.004, 0.0000013062046, 9.999199, 9.999791 
2.5499827e+2, 1.747806e+2, -1043238.6, -1162616.3, 81866.31, -0.1574352, -0.28104064, -1001611.8, 225511.03, 0.000000000635992, 10.001339, 9.999766 
2.5499982e+2, 1.8478082e+2, -932568.4, -1095910.9, 30447.355, -0.23480497, -0.21689427, -927077.5, 202043.63, 0.0, 10.001582, 9.999436 
2.5500357e+2, 1.9477946e+2, -1099790.9, -1129689.0, 37781.88, 0.010548224, -0.3147937, -1074108.1, -42978.945, 0.0, 9.999778, 9.999399 
2.550062e+2, 2.0477839e+2, -1183426.4, -1246082.4, 24573.494, 0.13254449, -0.30252466, -1174938.5, -241797.94, 0.0, 9.9990835, 9.998262 
2.550075e+2, 2.1477765e+2, -1015937.2, -1120826.8, -10803.357, 0.11376568, -0.21503858, -1014836.0, -179680.38, 0.0, 9.999586, 9.998207 
2.5500855e+2, 2.2477666e+2, -731725.3, -739957.9, -22882.559, 0.07491911, -0.21688165, -712591.75, 24573.938, 0.0, 10.0000305, 9.999933 
2.5500926e+2, 2.3477526e+2, -573436.6, -612934.06, 25669.254, 0.010860663, -0.3710559, -560798.3, 78373.01, 0.0, 10.0004425, 9.999936 
2.5501066e+2, 2.4477403e+2, -540502.94, -734149.4, 36929.92, -0.0022969113, -0.40331218, -533699.1, 7482.3364, 0.0, 10.000811, 9.998252 
2.5501266e+2, 2.547729e+2, -406848.63, -629545.1, 7868.423, 0.03666257, -0.3552866, -406570.94, 36626.594, 0.0, 10.001091, 9.998166 
2.550137e+2, 2.6477215e+2, -289157.84, -441682.9, -46697.234, 0.03974033, -0.27476862, -275996.66, 69210.125, 0.0, 10.000888, 9.998879 
2.550138e+2, 2.747719e+2, -318222.53, -408417.5, -8711.407, 0.011061797, -0.2049655, -317388.84, -70180.32, 0.0, 10.000025, 9.998852 
2.5501534e+2, 2.8477073e+2, -254607.08, -321700.97, 97583.59, -0.00012737476, -0.20696251, -184965.1, -35746.645, 0.00000013919723, 9.999779, 9.998889 
2.5501823e+2, 2.9476836e+2, -112136.92, -213391.36, 101888.53, -0.0171121, -0.34934488, -48990.734, 2247.8845, 0.0000021199414, 10.000125, 9.9987955 
2.5501984e+2, 3.0476668e+2, -81290.16, -304065.4, 101336.984, -0.16527264, -0.33291548, -42090.977, -42090.977, 0.000010666905, 10.000572, 9.997626 
2.5502473e+2, 3.1476578e+2, 116956.81, 26282.002, 12051.34, 0.026111227, -0.20197168, 118531.19, 118531.19, 0.00003213242, 10.000896, 9.999739 
2.649876e+2, 1.2477594e+2, -1782763.1, -1718068.5, -42960.793, 0.008043374, -0.52752656, -1696638.6, 20523.3, 0.0005062773, 9.999363, 10.000272 
2.649891e+2, 1.3477805e+2, -1656805.5, -1613299.4, 35599.727, -0.17075343, -0.35455677, -1593332.8, 25811.305, 0.0002464049, 9.999604, 10.000213 
2.6499158e+2, 1.4477904e+2, -1539598.0, -1545050.3, -43408.406, -0.14852935, -0.25721607, -1498830.3, 22304.074, 0.00007758306, 9.99991, 9.999849 
2.6499605e+2, 1.5477708e+2, -1356247.4, -1419037.8, -34391.176, 0.1972256, -0.4490861, -1341076.4, 82074.03, 0.000013419433, 10.000554, 9.99973 
2.6499838e+2, 1.647767e+2, -1290072.1, -1317754.0, 64100.688, 0.20715386, -0.46559715, -1238335.1, 86819.95, 0.0000010267595, 10.00025, 9.999904 
2.6499838e+2, 1.7477797e+2, -1398841.6, -1322439.4, 24684.498, -0.15374295, -0.34503543, -1315158.0, -88010.4, 0.0000000012219834, 9.998841, 9.999877 
2.6500013e+2, 1.8477836e+2, -1318559.5, -1263176.3, -73329.93, -0.22169915, -0.2762654, -1212483.5, -83339.09, 0.0, 9.998852, 9.999603 
2.6500386e+2, 1.9477782e+2, -1005195.8, -1066363.8, -74779.28, 0.03608858, -0.30729973, -954987.94, 76157.99, 0.0, 10.000354, 9.9995575 
2.6500642e+2, 2.0477694e+2, -895673.56, -1100177.1, -24772.713, 0.15333183, -0.28649303, -892715.5, 40440.11, 0.0, 10.001036, 9.998321 
2.6500767e+2, 2.1477571e+2, -842467.2, -1033890.2, 12454.767, 0.11594758, -0.25396425, -841660.25, -6485.4673, 0.0, 10.000766, 9.998236 
2.6500872e+2, 2.2477478e+2, -665199.4, -690501.3, 13663.719, 0.07425313, -0.25818485, -659229.3, 77954.56, 0.0, 10.000413, 10.000091 
2.6500967e+2, 2.3477419e+2, -635817.9, -626965.6, -24532.719, 0.03436669, -0.34600908, -606462.94, 32718.85, 0.0, 9.999945, 10.000083 
2.650112e+2, 2.4477328e+2, -693717.44, -813630.1, -1989.8549, 0.027368492, -0.3489497, -693684.4, -152495.0, 0.0, 9.9997835, 9.998201 
2.6501337e+2, 2.5477198e+2, -574138.0, -712155.56, 25038.598, 0.05824595, -0.3130168, -569736.0, -126527.766, 0.0, 9.999961, 9.998137 
2.6501438e+2, 2.647711e+2, -364329.38, -456941.16, -25107.494, 0.048426922, -0.25550795, -357960.6, -12742.076, 0.0, 10.00028, 9.999064 
2.6501417e+2, 2.747709e+2, -195741.66, -327023.34, -48379.504, 0.012599232, -0.2058161, -179839.28, 67379.1, 0.0, 10.000773, 9.999047 
2.6501578e+2, 2.8476954e+2, -117933.875, -305677.38, 41239.37, 0.011467316, -0.21171972, -109274.7, 39954.586, 0.00000017298198, 10.000925, 9.998448 
2.6501906e+2, 2.9476675e+2, -64294.957, -234336.4, 11046.918, 0.033171408, -0.35234612, -63580.29, -12325.589, 0.0000022646286, 10.000637, 9.998405 
2.6502118e+2, 3.0476427e+2, -79073.29, -281635.47, 6847.0527, -0.07762836, -0.40667805, -78842.1, -78842.1, 0.000010678338, 10.000479, 9.997835 
2.6502582e+2, 3.1476456e+2, 78733.71, 66196.65, -136182.75, 0.0804771, -0.17532584, 208792.13, 208792.13, 0.000032089163, 10.000361, 10.000278 
2.749864e+2, 1.24777146e+2, -1803275.1, -1769992.3, -56695.44, -0.088061936, -0.23250103, -1727546.4, -10390.82, 0.00041453895, 9.999398, 9.9999 
2.7498993e+2, 1.3477679e+2, -1691479.1, -1695651.9, 43016.266, -0.06565751, -0.2502398, -1650498.6, -31335.83, 0.00019313562, 9.999648, 9.999624 
2.7499226e+2, 1.4477733e+2, -1499232.9, -1466686.3, -28626.656, -0.09302955, -0.19208491, -1450030.8, 71125.89, 0.000056136425, 9.999933, 10.000375 
2.7499345e+2, 1.5477718e+2, -1314983.6, -1335920.6, -3306.053, -0.13658749, -0.25836316, -1314474.0, 108678.31, 0.000009372096, 10.000569, 10.000292 
2.749956e+2, 1.6477679e+2, -1350306.8, -1444493.8, 5998.3564, -0.11171613, -0.2616511, -1349926.3, -24769.994, 0.0000008660051, 10.0002575, 9.999026 
2.7499875e+2, 1.7477605e+2, -1464518.6, -1456801.1, -23410.219, -0.017602686, -0.2540389, -1436933.8, -209763.4, 0.000000004874734, 9.998837, 9.998952 
2.7500153e+2, 1.8477538e+2, -1312262.4, -1240823.3, -24418.893, 0.020043885, -0.25245902, -1233274.3, -104095.25, 0.0, 9.998815, 9.999774 
2.7500388e+2, 1.9477485e+2, -994305.94, -1036099.06, -11567.91, -0.011735483, -0.3009289, -991317.75, 39863.242, 0.0, 10.000326, 9.999775 
2.7500582e+2, 2.0477429e+2, -822843.8, -941196.0, -38722.313, -0.020299349, -0.31510818, -811300.56, 121884.45, 0.0, 10.000998, 9.999434 
2.7500728e+2, 2.1477348e+2, -768967.2, -868422.5, 8723.941, -0.013976028, -0.3550695, -768207.75, 66985.26, 0.0, 10.000708, 9.9994 
2.7500862e+2, 2.2477317e+2, -734509.0, -817295.0, -8675.417, 0.0066057364, -0.31709668, -733609.6, 3586.624, 0.0, 10.0003395, 9.999257 
2.750098e+2, 2.3477343e+2, -707376.7, -759158.5, -36877.35, 0.040065832, -0.23133464, -688209.0, -49015.145, 0.0, 9.999872, 9.999211 
2.750115e+2, 2.447732e+2, -648165.25, -704001.75, -1191.8016, 0.06628435, -0.16096061, -648139.8, -106943.18, 0.0, 9.999724, 9.99898 
2.750137e+2, 2.547723e+2, -528705.9, -602102.25, 37417.57, 0.07671837, -0.16302738, -512993.84, -69787.44, 0.0, 9.99989, 9.998928 
2.7501506e+2, 2.6477054e+2, -403269.2, -522982.75, -13589.356, 0.07461045, -0.21514648, -401745.97, -56523.074, 0.0, 10.000221, 9.998638 
2.750156e+2, 2.747679e+2, -237406.1, -399747.7, -22867.957, 0.06345643, -0.35786384, -234246.33, 12999.67, 0.00000000009324417, 10.000715, 9.998576 
2.7501783e+2, 2.847662e+2, -172010.4, -412236.16, 26399.816, 0.108531915, -0.33880907, -169143.4, -19881.621, 0.00000023612336, 10.000899, 9.997728 
2.7502146e+2, 2.9476526e+2, -121028.53, -339762.84, 6612.1206, 0.1868351, -0.2252609, -120828.836, -69555.96, 0.0000024951785, 10.000574, 9.997715 
2.7502322e+2, 3.0476168e+2, -90192.48, -284432.63, -649.84186, 0.06457722, -0.3568249, -90190.3, -90190.3, 0.000011113361, 10.000411, 9.997836 
2.75026e+2, 3.1476098e+2, 43994.223, 30872.584, -135849.33, 0.03294408, -0.22266504, 173441.08, 173441.08, 0.000032683794, 10.000216, 10.000098 
2.8498584e+2, 1.2477609e+2, -1735512.1, -1746008.8, -61747.563, -0.09963153, -0.12439253, -1678790.3, 38377.79, 0.0003410361, 9.9999075, 9.999814 
2.8499004e+2, 1.3477468e+2, -1654761.1, -1707447.8, 33789.63, -0.031825613, -0.21588218, -1638259.3, -19074.354, 0.00015204525, 10.000039, 9.999347 
2.8499272e+2, 1.4477466e+2, -1486807.8, -1457041.5, -25896.496, -0.035113275, -0.20468347, -1442056.0, 79128.2, 0.000040681283, 9.999999, 10.000413 
2.849932e+2, 1.5477479e+2, -1415410.9, -1379916.5, -52857.973, -0.17953713, -0.2478623, -1341905.9, 81271.32, 0.0000066741927, 9.999849, 10.000344 
2.849952e+2, 1.6477475e+2, -1371416.0, -1429913.8, -37337.723, -0.16174845, -0.22826423, -1353234.9, -28057.432, 0.00000074756446, 10.000019, 9.999242 
2.8499892e+2, 1.7477438e+2, -1195239.9, -1305018.0, 3217.6306, 0.03444864, -0.1999044, -1195145.6, 32041.332, 0.000000006090155, 10.000591, 9.999154 
2.850019e+2, 1.8477374e+2, -1076132.4, -1147433.4, 74545.62, 0.093701564, -0.19697717, -1029151.1, 100045.05, 0.0, 10.00053, 9.999584 
2.8500396e+2, 1.9477282e+2, -1093194.4, -1108299.0, 44182.492, -0.0027964287, -0.26324165, -1055923.4, -24718.707, 0.0, 9.999751, 9.999558 
2.850059e+2, 2.047724e+2, -1006063.1, -968512.6, -26285.938, -0.033859827, -0.2802169, -954985.25, -21777.96, 0.0, 9.999479, 9.99997 
2.850076e+2, 2.1477236e+2, -876679.06, -858269.06, -36481.824, 0.0027385375, -0.29833734, -829848.9, 5355.896, 0.0, 9.999709, 9.999945 
2.85009e+2, 2.2477214e+2, -813398.94, -892472.1, -48915.063, 0.03581088, -0.2609609, -790040.2, -52833.824, 0.0, 9.999962, 9.998919 
2.8501007e+2, 2.3477176e+2, -683934.8, -786305.56, -48183.22, 0.06943202, -0.20453857, -664823.94, -25611.627, 0.0, 10.000203, 9.998862 
2.850117e+2, 2.4477121e+2, -558194.7, -626638.1, 6282.99, 0.097763926, -0.16276854, -557622.7, -16405.004, 0.0, 10.000184, 9.999292 
2.8501397e+2, 2.547705e+2, -504374.0, -553497.6, -3797.287, 0.123934925, -0.18234731, -504082.2, -60859.563, 0.0, 9.999896, 9.999261 
2.850156e+2, 2.6476866e+2, -452050.8, -592630.4, -37567.945, 0.12055832, -0.24113467, -442641.13, -97401.36, 0.0, 10.000084, 9.998226 
2.8501672e+2, 2.7476555e+2, -262826.6, -456628.03, -55894.28, 0.10713218, -0.3856883, -247861.69, -591.6405, 0.0000000018932573, 10.000733, 9.998176 
2.8501892e+2, 2.8476405e+2, -174356.8, -394056.84, 4924.8477, 0.13668771, -0.33969367, -174246.45, -24961.258, 0.00000028816427, 10.000801, 9.997905 
2.8502193e+2, 2.94764e+2, -145496.95, -320475.7, 44844.047, 0.19814834, -0.1497302, -134673.67, -83387.94, 0.0000027347362, 10.000281, 9.997987 
2.850235e+2, 3.0476004e+2, -97716.74, -267825.03, 108499.59, 0.06673623, -0.34873775, -44907.297, -44907.297, 0.000011990512, 10.000255, 9.998033 
2.8502584e+2, 3.1475943e+2, 42265.574, -15982.293, -41209.758, -0.0069880434, -0.21914136, 63603.98, 63603.98, 0.000033758955, 10.0004, 9.999686 
2.9498544e+2, 1.24772996e+2, -1715277.4, -1728946.4, -80468.98, -0.1766709, -0.19092564, -1641353.3, 75843.984, 0.00028049768, 10.000001, 9.999891 
2.9498926e+2, 1.3477185e+2, -1654345.3, -1720613.9, 39412.21, -0.13636272, -0.2506939, -1635989.6, -16780.115, 0.000119661214, 10.000094, 9.999231 
2.949929e+2, 1.4477095e+2, -1512865.6, -1519474.9, -42626.758, -0.04037594, -0.29873815, -1473415.5, 47802.152, 0.000029635712, 10.00003, 9.999972 
2.9499495e+2, 1.5476985e+2, -1448075.6, -1447328.5, -55046.008, -0.0037526707, -0.4188786, -1392654.8, 30570.68, 0.0000047316526, 9.999847, 9.999882 
2.9499695e+2, 1.6477056e+2, -1284175.0, -1246020.6, -20952.576, -0.003383413, -0.36261657, -1236761.4, 88457.0, 0.00000054097734, 10.000009, 10.000506 
2.9499876e+2, 1.7477311e+2, -1100871.9, -1110282.6, 33428.645, -0.05661488, -0.17487526, -1071819.1, 155377.13, 0.0000000012704189, 10.000603, 10.000481 
2.9500106e+2, 1.8477356e+2, -1117940.0, -1233604.9, 40587.656, -0.058822263, -0.10358068, -1105118.8, 24076.418, 0.0, 10.000524, 9.998999 
2.9500392e+2, 1.9477166e+2, -1141669.6, -1204600.1, 20655.375, -0.0026147985, -0.20378128, -1135495.8, -104278.18, 0.0, 9.999731, 9.998907 
2.9500636e+2, 2.0477118e+2, -1018767.2, -982886.5, -22392.875, 0.05250774, -0.18821763, -972133.7, -38910.414, 0.0, 9.999429, 9.999894 
2.9500842e+2, 2.1477224e+2, -890075.75, -870192.9, -20933.84, 0.09810433, -0.09162618, -856959.8, -21748.777, 0.0, 9.999641, 9.999893 
2.9500976e+2, 2.2477163e+2, -811688.9, -870771.0, -45407.508, 0.10354468, -0.0995991, -787058.75, -49843.746, 0.0, 9.999885, 9.999105 
2.9501042e+2, 2.347692e+2, -681964.06, -764192.8, -32184.412, 0.06744116, -0.2664135, -670865.1, -31627.877, 0.0, 10.000128, 9.99905 
2.9501182e+2, 2.4476746e+2, -573243.06, -647894.2, -9515.42, 0.07491563, -0.3480953, -572049.25, -30797.572, 0.0, 10.000139, 9.999172 
2.950141e+2, 2.5476643e+2, -522686.9, -578770.2, -8673.409, 0.13065965, -0.3794883, -521376.2, -78118.4, 0.0, 9.999837, 9.999122 
2.950159e+2, 2.6476523e+2, -483601.0, -650049.94, -18608.63, 0.12662193, -0.34975454, -481545.97, -136275.11, 0.0, 10.000048, 9.99785 
2.9501724e+2, 2.7476373e+2, -299953.56, -518787.97, -27509.99, 0.06818207, -0.2978482, -296548.25, -49256.555, 0.0000000016821552, 10.000665, 9.997784 
2.950188e+2, 2.8476298e+2, -105339.914, -235869.84, -20644.982, 0.03266132, -0.20866649, -102152.48, 47147.17, 0.00000022409213, 10.000741, 9.99902 
2.9502034e+2, 2.947629e+2, -71475.03, -155632.52, 36738.695, -0.007275438, -0.13539794, -57693.656, -6399.1567, 0.0000026529046, 10.000229, 9.999149 
2.9502192e+2, 3.0475923e+2, -76001.586, -209143.28, 110971.09, -0.13358027, -0.3869726, -13165.083, -13165.083, 0.000012335517, 10.000203, 9.998456 
2.950247e+2, 3.1475955e+2, -16478.771, -115909.04, -15918.958, -0.1941328, -0.20094988, -13992.299, -13992.299, 0.000034800534, 10.000305, 9.999042 
3.0498677e+2, 1.2476944e+2, -1527085.4, -1626177.0, -74448.3, -0.09699549, -0.30457976, -1487203.4, 230025.69, 0.00022859985, 10.00125, 9.999999 
3.0498934e+2, 1.3476914e+2, -1599800.5, -1694612.5, 27449.85, -0.14929672, -0.2784907, -1592426.6, 26806.54, 0.00009393993, 10.000461, 9.999242 
3.0499306e+2, 1.4476824e+2, -1510703.0, -1507674.0, -3177.0996, -0.018842457, -0.33157513, -1505668.9, 15573.02, 0.000021636553, 10.000021, 10.000045 
3.0499595e+2, 1.5476719e+2, -1400466.1, -1418871.1, 3876.8115, 0.09887987, -0.4533319, -1399682.9, 23567.615, 0.0000030875526, 10.000162, 9.999917 
3.0499783e+2, 1.6476792e+2, -1278405.3, -1225481.0, 29563.11, 0.09050805, -0.40552744, -1212266.6, 112976.875, 0.0000002653173, 9.999964, 10.000668 
3.049986e+2, 1.7477044e+2, -1270718.6, -1169769.0, -12709.7705, -0.0694074, -0.23837307, -1168193.4, 59027.53, 0.0, 9.999341, 10.000676 
3.0500054e+2, 1.8477131e+2, -1275638.5, -1255407.9, -5685.247, -0.09133347, -0.15765359, -1253919.8, -124704.984, 0.0, 9.999208, 9.999485 
3.0500397e+2, 1.9477035e+2, -1128154.3, -1144303.5, 48250.184, 0.041423637, -0.21438262, -1087307.8, -56080.727, 0.0, 9.999587, 9.999395 
3.050066e+2, 2.047699e+2, -976969.8, -1004265.94, 65514.105, 0.10912809, -0.20177226, -923697.25, 9535.183, 0.0, 9.999894, 9.999531 
3.0500835e+2, 2.1477002e+2, -848681.7, -895487.3, 30720.799, 0.108881876, -0.15756685, -833465.06, 1765.3855, 0.0, 10.000114, 9.999499 
3.050098e+2, 2.2476913e+2, -740888.06, -827789.2, 606.1088, 0.10456497, -0.1780912, -740883.8, -3646.1008, 0.0, 10.000331, 9.9991865 
3.0501097e+2, 2.3476711e+2, -617746.25, -722205.2, -5342.9014, 0.09764946, -0.3138211, -617473.7, 21781.883, 0.0, 10.0005245, 9.999145 
3.0501243e+2, 2.4476552e+2, -501380.16, -634624.56, 15477.03, 0.09440068, -0.3759407, -499606.06, 41662.754, 0.0, 10.000736, 9.99897 
3.0501413e+2, 2.547644e+2, -363335.34, -520376.56, 2876.6519, 0.09584798, -0.3996762, -363282.66, 79994.41, 0.0, 10.001027, 9.9989395 
3.0501586e+2, 2.6476336e+2, -336698.06, -570018.94, 26522.313, 0.07481706, -0.3471699, -333721.16, 11567.58, 0.0, 10.001016, 9.997935 
3.0501768e+2, 2.7476236e+2, -289136.3, -504985.4, 42861.59, 0.046544835, -0.25522926, -280936.7, -33632.082, 0.00000000014964384, 10.000698, 9.997866 
3.050192e+2, 2.8476155e+2, -145360.22, -222029.89, 28374.916, 0.024094326, -0.19137183, -136001.28, 13311.533, 0.00000013461268, 10.000326, 9.99931 
3.0502033e+2, 2.94761e+2, -105314.17, -136891.7, 8791.22, -0.009455358, -0.1932205, -103031.67, -51720.066, 0.0000024042524, 9.999862, 9.999444 
3.05022e+2, 3.0475825e+2, -139055.94, -152622.45, 79475.93, -0.0968722, -0.40975067, -66074.32, -66074.32, 0.000011969342, 9.999383, 9.999248 
3.0502462e+2, 3.1475937e+2, -261376.72, -235204.33, -30297.248, -0.14062805, -0.22030552, -215287.92, -215287.92, 0.00003458678, 9.998609, 9.999053 
3.1498963e+2, 1.2476558e+2, -1502066.8, -1591260.4, -117186.15, 0.025418242, -0.44754222, -1421278.3, 295983.7, 0.00018624985, 10.00133, 10.000198 
3.1499007e+2, 1.3476676e+2, -1585646.9, -1662671.9, -631.53827, -0.13787673, -0.29217502, -1585641.8, 33612.16, 0.00007443096, 10.000465, 9.9994545 
3.1499308e+2, 1.4476666e+2, -1476427.8, -1442019.3, -5829.0747, -0.041260485, -0.29542813, -1441058.6, 80196.87, 0.000015949841, 10.000034, 10.000492 
3.1499588e+2, 1.5476674e+2, -1363428.6, -1351741.5, 15799.466, 0.058489278, -0.3515539, -1340739.6, 82512.93, 0.00000170519, 10.0002, 10.0003605 
3.1499767e+2, 1.647667e+2, -1339427.3, -1355100.5, -2905.1697, 0.06292768, -0.3596447, -1338906.0, -13652.281, 0.000000057148895, 9.999973, 9.999776 
3.1499818e+2, 1.7476633e+2, -1337157.1, -1305175.6, -33294.54, -0.06256147, -0.38934222, -1284230.9, -56969.64, 0.0, 9.999331, 9.999752 
3.1500015e+2, 1.8476704e+2, -1167908.6, -1030200.5, 1636.5132, -0.06666001, -0.353736, -1030181.06, 99073.664, 0.0, 9.999196, 10.001039 
3.150039e+2, 1.9476889e+2, -1018358.44, -907257.5, 68246.11, 0.06308528, -0.2922906, -874811.44, 156421.52, 0.0, 9.999548, 10.001041 
3.1500632e+2, 2.0476857e+2, -1034433.25, -1107385.3, 67259.6, 0.0808393, -0.31784862, -994395.56, -61161.004, 0.0, 9.999827, 9.998854 
3.1500727e+2, 2.147658e+2, -910595.1, -1008225.94, 44777.19, -0.027284542, -0.4886588, -893169.0, -57906.6, 0.0, 10.000049, 9.998756 
3.15009e+2, 2.2476473e+2, -748617.5, -831180.44, 2913.2327, -0.025535619, -0.48887634, -748514.8, -11241.139, 0.0, 10.000277, 9.99919 
3.1501162e+2, 2.3476547e+2, -625696.4, -723983.1, 8429.5, 0.09515318, -0.3491817, -624978.6, 14288.879, 0.0, 10.000461, 9.999166 
3.150133e+2, 2.4476536e+2, -523138.0, -672836.4, 19403.89, 0.0922188, -0.25388917, -520663.75, 20605.992, 0.0, 10.000705, 9.998722 
3.150139e+2, 2.5476432e+2, -390236.44, -559984.2, 16592.104, -0.045339234, -0.24409135, -388629.84, 54650.813, 0.0, 10.000955, 9.998703 
3.1501538e+2, 2.647631e+2, -301957.47, -486830.16, 10041.1875, -0.08749206, -0.22751945, -301413.7, 43879.355, 0.0, 10.000969, 9.998531 
3.150178e+2, 2.747614e+2, -253419.61, -417500.84, 38178.242, -0.024487285, -0.261996, -244971.33, 2337.6768, 0.00000000001473293, 10.00064, 9.998496 
3.1501988e+2, 2.847597e+2, -192406.33, -309696.25, 4227.7256, 0.044665355, -0.29201797, -192254.14, -42929.113, 0.000000108201135, 10.000283, 9.998728 
3.150215e+2, 2.9475823e+2, -162447.55, -239150.08, -2276.9595, 0.107243225, -0.330086, -162380.02, -111041.87, 0.0000022594174, 9.999783, 9.998783 
3.150236e+2, 3.0475694e+2, -61307.254, 25587.941, 49806.445, 0.11014676, -0.42367378, 48234.03, 48234.03, 0.00001165084, 9.99932, 10.000497 
3.1502515e+2, 3.1475887e+2, -217005.05, -119714.98, -39192.586, 0.019213272, -0.28714642, -105890.836, -105890.836, 0.000033846463, 9.998516, 9.9998865 
3.249913e+2, 1.24763496e+2, -1568398.4, -1624687.9, -51260.914, 0.08466007, -0.51625556, -1538064.0, 179214.4, 0.00015560584, 10.000874, 10.000187 
3.2499006e+2, 1.3476504e+2, -1686031.0, -1703233.0, 20975.832, -0.14284313, -0.33082056, -1671961.3, -52694.32, 0.000061447354, 9.999729, 9.9995365 
3.2499287e+2, 1.4476505e+2, -1558979.0, -1494811.4, 67921.09, -0.035806946, -0.32517153, -1451777.6, 69491.31, 0.000012624197, 9.999513, 10.000386 
3.2499614e+2, 1.547656e+2, -1309999.3, -1335569.0, 38379.047, 0.04691173, -0.32300207, -1282331.6, 140931.64, 0.0000008198343, 10.000603, 10.000281 
3.2499814e+2, 1.6476554e+2, -1206265.1, -1305613.4, -1827.659, 0.06274062, -0.3237895, -1206231.5, 119034.15, 0.000000004124255, 10.000961, 9.999635 
3.2499847e+2, 1.7476462e+2, -1178300.9, -1249007.8, 12467.482, -0.019715007, -0.3911839, -1176167.0, 51111.004, 0.0, 10.000507, 9.999574 
3.250004e+2, 1.8476509e+2, -1021505.2, -967279.56, 51179.67, -0.0100761335, -0.3663507, -936474.6, 192799.19, 0.0, 10.000246, 10.000957 
3.2500416e+2, 1.9476701e+2, -933724.56, -874995.6, -24794.967, 0.10456929, -0.2899565, -865927.5, 165324.66, 0.0, 10.000176, 10.000953 
3.2500625e+2, 2.0476681e+2, -991992.44, -1056423.1, -53658.082, 0.08925625, -0.31303468, -961621.7, -28369.389, 0.0, 9.99998, 9.999132 
3.2500663e+2, 2.1476431e+2, -961358.0, -999347.06, -8789.349, -0.06673489, -0.4881709, -959423.0, -124146.68, 0.0, 9.9995575, 9.999054 
3.2500848e+2, 2.2476336e+2, -858948.1, -888380.06, 14350.579, -0.06552387, -0.49028417, -853109.3, -115823.484, 0.0, 9.999535, 9.999156 
3.2501197e+2, 2.3476405e+2, -698866.56, -764363.6, 5001.164, 0.11194731, -0.35224253, -698486.9, -59206.668, 0.0, 9.999975, 9.999124 
3.250139e+2, 2.4476394e+2, -620239.6, -726594.06, 21204.078, 0.11963405, -0.24950123, -616168.0, -74885.305, 0.0, 10.000059, 9.99867 
3.2501414e+2, 2.5476304e+2, -558562.44, -646956.75, 24350.758, -0.055750597, -0.22346637, -552298.25, -109004.75, 0.0, 9.999815, 9.998659 
3.250155e+2, 2.6476175e+2, -469324.4, -516952.7, 20503.03, -0.102639176, -0.22936936, -461714.22, -116409.36, 0.0, 9.999612, 9.998973 
3.2501802e+2, 2.7475986e+2, -396653.7, -434186.6, 23068.166, -0.0027151387, -0.331963, -385682.63, -138363.17, 0.00000000010851988, 9.999446, 9.998949 
3.2501987e+2, 2.8475788e+2, -343300.4, -442931.63, 2469.0396, 0.061308086, -0.38612518, -343239.25, -193901.27, 0.00000014601811, 9.999499, 9.998196 
3.2502106e+2, 2.9475623e+2, -205983.94, -323022.66, -9261.11, 0.08883096, -0.38780075, -205255.66, -153899.27, 0.000002235968, 9.999755, 9.99822 
3.2502344e+2, 3.0475572e+2, 44668.86, 81517.64, 8244.129, 0.13178796, -0.3754479, 83277.99, 83277.99, 0.000011376777, 10.000033, 10.000536 
3.250252e+2, 3.1475654e+2, 45777.945, 23065.107, -192019.0, 0.09222099, -0.3602753, 226776.06, 226776.06, 0.000032649332, 10.000263, 10.00002 
3.3499122e+2, 1.2476315e+2, -1578043.8, -1656835.6, -98673.05, -0.04813442, -0.5101817, -1511192.8, 206086.06, 0.00013659472, 10.000925, 9.999942 
3.3498916e+2, 1.3476405e+2, -1683318.0, -1704680.9, -23617.73, -0.22317627, -0.38667917, -1668078.6, -48806.305, 0.000054929977, 9.999769, 9.9995 
3.3499232e+2, 1.4476332e+2, -1597925.9, -1578771.3, 95883.98, -0.061924893, -0.42118314, -1491987.5, 29295.172, 0.000011796083, 9.999529, 9.9998 
3.349964e+2, 1.5476388e+2, -1349328.4, -1416008.3, 84842.4, -0.0030805885, -0.3618717, -1291510.3, 131771.39, 0.00000057438905, 10.000604, 9.999725 
3.3499888e+2, 1.6476452e+2, -1166986.4, -1225168.0, -22732.324, 0.025687702, -0.2904889, -1159157.9, 166120.06, 0.00000000201948, 10.000962, 10.000191 
3.3499935e+2, 1.7476535e+2, -1136070.0, -1163918.6, 1292.7192, -0.0003414947, -0.24299556, -1136010.1, 91260.35, 0.0, 10.000515, 10.000156 
3.3500114e+2, 1.8476544e+2, -1150966.8, -1226490.4, 41729.2, 0.020960938, -0.19948845, -1132450.0, -3177.6614, 0.0, 10.000205, 9.999198 
3.3500445e+2, 1.9476461e+2, -1066038.0, -1142121.0, -21709.43, 0.1012789, -0.21349165, -1060279.4, -28993.912, 0.0, 10.000145, 9.999134 
3.3500624e+2, 2.0476462e+2, -909955.3, -874399.2, -75171.41, 0.0775198, -0.18602565, -814932.2, 118353.73, 0.0, 9.999932, 10.000403 
3.350063e+2, 2.1476546e+2, -876986.2, -804695.7, -19224.834, -0.068003446, -0.16272305, -799901.06, 35371.832, 0.0, 9.999476, 10.000427 
3.3500808e+2, 2.2476491e+2, -874634.44, -906311.25, 24059.713, -0.06976112, -0.19114257, -861667.94, -124392.945, 0.0, 9.99947, 9.999066 
3.350118e+2, 2.347628e+2, -716812.2, -785401.56, 25569.064, 0.086031586, -0.32068288, -708329.5, -69035.66, 0.0, 9.999903, 9.999016 
3.3501408e+2, 2.4476133e+2, -612467.75, -701717.1, 7035.134, 0.115827136, -0.35845193, -611916.56, -70609.19, 0.0, 10.000022, 9.9988575 
3.3501467e+2, 2.5476056e+2, -552715.6, -624043.7, 20164.91, 0.0035774389, -0.338312, -547409.56, -104094.38, 0.0, 9.999768, 9.998838 
3.35016e+2, 2.647594e+2, -457204.3, -485678.0, 8156.711, -0.021616438, -0.35302016, -455033.25, -109709.04, 0.0, 9.999584, 9.999202 
3.3501807e+2, 2.7475762e+2, -387909.13, -401823.9, 21396.998, 0.043654073, -0.46831277, -372366.8, -125030.11, 0.000000000044508567, 9.999382, 9.999203 
3.3501902e+2, 2.84756e+2, -375737.06, -504119.53, 6426.395, 0.010020137, -0.47731873, -375416.2, -226064.33, 0.00000018850986, 9.99947, 9.99779 
3.350187e+2, 2.9475507e+2, -247113.88, -400382.88, 6753.446, -0.1393011, -0.3659863, -246816.88, -195451.17, 0.0000021997091, 9.999713, 9.997714 
3.3502126e+2, 3.0475447e+2, -49664.785, -102267.14, 11849.518, -0.098010726, -0.26980045, -47118.73, -47118.73, 0.000010801098, 9.999987, 9.999292 
3.350243e+2, 3.1475237e+2, -22405.414, -80645.77, -154159.83, -0.05534829, -0.43108544, 105360.47, 105360.47, 0.000030818417, 10.000108, 9.99938 
3.449908e+2, 1.2476173e+2, -1908496.6, -1798527.5, -184412.25, -0.05845735, -0.42045084, -1661077.1, 56221.586, 0.00012625929, 9.998594, 10.000092 
3.4498966e+2, 1.3476251e+2, -1493005.8, -1576873.8, -127272.2, -0.2033259, -0.34357885, -1400937.3, 218353.31, 0.000053424294, 10.00091, 9.999839 
3.4499308e+2, 1.447615e+2, -1391987.1, -1487455.0, 4576.3706, -0.006400472, -0.41965327, -1391768.3, 129534.016, 0.0000131995685, 10.000983, 9.999723 
3.4499633e+2, 1.5476215e+2, -1609190.8, -1554677.9, 13520.801, 0.02300703, -0.34035236, -1551508.5, -128207.65, 0.00000089811203, 9.998876, 9.999606 
3.4499878e+2, 1.6476296e+2, -1478807.6, -1323394.9, -26053.184, 0.042340152, -0.26848266, -1319143.6, 6150.943, 0.0000000015154811, 9.998599, 10.000651 
3.449999e+2, 1.74764e+2, -1128601.6, -1103855.6, -22089.28, 0.017573629, -0.2481154, -1090910.1, 136372.16, 0.0, 10.000332, 10.000651 
3.4500182e+2, 1.8476413e+2, -1067655.5, -1223121.0, 41550.414, 0.038808703, -0.21058951, -1057247.4, 72035.8, 0.0, 10.000923, 9.99888 
3.4500486e+2, 1.947632e+2, -1082929.8, -1189342.5, 80903.62, 0.12753555, -0.20312044, -1039304.75, -8005.4917, 0.0, 10.000185, 9.998796 
3.4500638e+2, 2.0476326e+2, -915606.4, -867397.94, 58147.11, 0.10783947, -0.15779892, -828556.94, 104743.17, 0.0, 9.999844, 10.000498 
3.4500626e+2, 2.1476422e+2, -809434.8, -763680.4, 7965.7383, -0.035010237, -0.13002172, -762333.25, 72952.586, 0.0, 9.999887, 10.000517 
3.45008e+2, 2.2476369e+2, -770296.25, -822811.7, 48982.38, -0.050489996, -0.17512332, -740977.56, -3690.7466, 0.0, 10.000049, 9.999358 
3.4501177e+2, 2.3476155e+2, -632991.2, -711987.25, 69998.836, 0.07575373, -0.33702448, -592115.5, 47188.793, 0.0, 10.00034, 9.999309 
3.450141e+2, 2.4475996e+2, -562481.8, -682791.2, 45436.273, 0.101489194, -0.39923534, -547250.5, -5932.3594, 0.0, 10.000394, 9.998808 
3.450148e+2, 2.5475892e+2, -500769.72, -608019.0, 27438.127, 0.020610258, -0.39630914, -494157.72, -50829.16, 0.0, 10.000163, 9.998762 
3.4501612e+2, 2.6475778e+2, -395077.3, -497185.47, 5859.8643, 0.0024643908, -0.38847733, -394742.13, -49402.855, 0.0, 10.000188, 9.998832 
3.4501815e+2, 2.7475634e+2, -245330.73, -374713.7, -36125.734, 0.060575362, -0.429251, -235927.3, 11424.223, 0.0, 10.000544, 9.99883 
3.45019e+2, 2.8475496e+2, -177860.39, -367800.03, -40637.21, 0.009812796, -0.4145794, -169531.38, -20166.51, 0.00000016974016, 10.000669, 9.998144 
3.4501857e+2, 2.9475388e+2, -108931.18, -294816.5, 4083.5833, -0.16128676, -0.35290274, -108841.516, -57464.434, 0.0000019719364, 10.0005045, 9.9980545 
3.450212e+2, 3.04753e+2, -113609.82, -206973.77, 61596.367, -0.093768366, -0.26994509, -83004.55, -83004.55, 0.000009630792, 9.999849, 9.998645 
3.4502426e+2, 3.1474978e+2, -245273.88, -199739.4, -60404.273, 0.012443084, -0.48287147, -157954.16, -157954.16, 0.000028581368, 9.998602, 9.999294 
3.5498965e+2, 1.2475938e+2, -1856649.1, -1720623.0, -95910.21, -0.07766165, -0.23128735, -1671058.3, 46278.684, 0.00012021515, 9.998707, 10.000577 
3.549911e+2, 1.3476048e+2, -1433430.3, -1459671.5, -39514.36, -0.16388609, -0.19716601, -1404915.1, 214406.03, 0.000054251253, 10.000941, 10.000627 
3.5499486e+2, 1.447597e+2, -1360464.5, -1433747.3, -78528.984, 0.05444297, -0.3098153, -1310449.1, 210877.67, 0.000015580335, 10.001027, 10.000075 
3.5499588e+2, 1.5476052e+2, -1581094.5, -1507279.0, -60346.234, 0.06625921, -0.24365506, -1473448.9, -50128.906, 0.0000017221554, 9.99892, 9.999913 
3.5499766e+2, 1.6476083e+2, -1451011.0, -1266239.1, 27531.639, 0.05266861, -0.25706124, -1262224.1, 63091.38, 0.000000007086625, 9.998599, 10.001043 
3.549999e+2, 1.7476049e+2, -1098403.4, -1045137.75, 49331.5, -0.031875, -0.41360003, -1015708.94, 211605.11, 0.0, 10.000344, 10.00105 
3.5500228e+2, 1.8476114e+2, -994508.2, -1060400.8, 11323.746, -0.019794261, -0.40206468, -992616.5, 136690.2, 0.0, 10.000881, 10.000015 
3.550051e+2, 1.9476281e+2, -1007227.8, -1021655.1, 58542.25, 0.12093493, -0.25091192, -955456.44, 75836.55, 0.0, 10.000143, 9.999967 
3.5500658e+2, 2.0476274e+2, -1000271.2, -1032850.06, 53554.617, 0.1278024, -0.22354656, -960583.44, -27288.682, 0.0, 9.999796, 9.999388 
3.5500637e+2, 2.1476065e+2, -898606.4, -936683.56, 15001.821, -0.025577303, -0.38566175, -893406.06, -58091.688, 0.0, 9.999834, 9.999354 
3.5500804e+2, 2.2475983e+2, -733251.7, -733346.25, 55157.402, -0.063703194, -0.43274483, -678141.56, 59178.594, 0.0, 9.999994, 9.999998 
3.550117e+2, 2.3476034e+2, -593296.8, -618070.56, 86916.86, 0.020409126, -0.3972651, -517888.63, 121422.46, 0.0, 10.00029, 9.999978 
3.5501382e+2, 2.4475983e+2, -591849.5, -732719.1, 31335.182, 0.022769988, -0.37076467, -585193.75, -43878.652, 0.0, 10.000347, 9.998487 
3.5501423e+2, 2.547581e+2, -533988.8, -661564.25, 22610.984, -0.06675105, -0.40320507, -530099.9, -86765.78, 0.0, 10.000098, 9.998425 
3.550156e+2, 2.647569e+2, -469272.9, -641438.0, 15249.785, -0.08295392, -0.336715, -467932.56, -122582.61, 0.0, 10.000146, 9.99786 
3.550181e+2, 2.7475616e+2, -324654.4, -527110.3, -14483.723, -0.016293095, -0.21056747, -323623.5, -76260.47, 0.0, 10.000491, 9.997807 
3.5501975e+2, 2.847547e+2, -107003.83, -216990.36, -51987.75, 0.00067188364, -0.20034645, -86320.24, 63056.887, 0.00000011654808, 10.000648, 9.999191 
3.5502037e+2, 2.9475257e+2, -36762.473, -136135.56, 2842.1208, -0.0438206, -0.3585971, -36681.254, 14710.184, 0.0000016005947, 10.000458, 9.999169 
3.5502297e+2, 3.0475122e+2, -116274.51, -195906.11, 14773.513, 0.08693247, -0.38126716, -113622.02, -113622.02, 0.000008029012, 9.999789, 9.998746 
3.5502464e+2, 3.1474915e+2, -223336.58, -125984.11, -69893.484, 0.15631983, -0.48823333, -89487.14, -89487.14, 0.00002594716, 9.998496, 9.9998455 
3.6498997e+2, 1.2475786e+2, -1626301.0, -1640112.3, 108462.73, 0.0021289038, -0.14920147, -1524524.3, 192830.39, 0.00011678404, 10.000425, 10.0003 
3.6499152e+2, 1.3475834e+2, -1657923.4, -1567693.9, 56959.855, -0.13419972, -0.1770299, -1540146.6, 79198.05, 0.000055597222, 9.999403, 10.000618 
3.6499554e+2, 1.4475746e+2, -1540679.4, -1509354.5, -30237.707, 0.08801588, -0.30399618, -1490963.6, 30386.37, 0.000017763748, 9.999752, 10.000167 
3.6499658e+2, 1.5475836e+2, -1166589.4, -1294632.6, -42884.457, 0.10931445, -0.2393061, -1153553.6, 269786.72, 0.000002786188, 10.001714, 10.000027 
3.649981e+2, 1.6475853e+2, -1059040.1, -1118778.8, 9533.576, 0.09740003, -0.25328696, -1057555.6, 267781.5, 0.00000008230677, 10.001464, 10.000681 
3.649998e+2, 1.7475793e+2, -1352669.4, -1208146.0, -40669.75, 0.003024326, -0.3984753, -1197487.4, 29853.0, 0.0, 9.998774, 10.0006895 
3.6500204e+2, 1.8475851e+2, -1334226.4, -1144502.1, -78518.336, 0.00409636, -0.40888804, -1116222.3, 13110.242, 0.0, 9.998207, 10.000729 
3.650052e+2, 1.9476022e+2, -988028.7, -930229.9, -71335.56, 0.12953354, -0.3265454, -882162.1, 149151.73, 0.0, 9.999921, 10.000705 
3.6500674e+2, 2.0476016e+2, -904556.9, -1009810.3, -77753.31, 0.13205306, -0.3244961, -863294.56, 70019.734, 0.0, 10.000564, 9.999171 
3.6500645e+2, 2.1475813e+2, -892965.0, -962280.94, -61722.992, -0.008254947, -0.4556436, -856835.25, -21499.26, 0.0, 10.000006, 9.999096 
3.6500806e+2, 2.2475755e+2, -778707.44, -770027.0, 10148.348, -0.043698236, -0.4588211, -763329.75, -25987.82, 0.0, 9.999743, 9.999868 
3.650119e+2, 2.3475848e+2, -679899.56, -674315.75, -28445.223, 0.042267483, -0.36679322, -648525.75, -9194.747, 0.0, 9.999758, 9.999847 
3.6501402e+2, 2.4475822e+2, -656925.8, -732933.25, -92950.625, 0.03940127, -0.322195, -594509.9, -53176.777, 0.0, 9.99976, 9.998772 
3.6501414e+2, 2.547566e+2, -567819.9, -641515.9, -64155.523, -0.060673334, -0.37569863, -530683.4, -87333.6, 0.0, 9.999712, 9.998747 
3.6501557e+2, 2.6475558e+2, -532358.44, -654473.4, 12785.677, -0.07242774, -0.31358016, -531034.06, -185670.84, 0.0, 9.999639, 9.998017 
3.6501843e+2, 2.7475515e+2, -456317.75, -575335.56, 57909.52, 0.021642512, -0.17087437, -432791.6, -185417.23, 0.0, 9.9995165, 9.997949 
3.650203e+2, 2.8475386e+2, -277829.84, -266339.4, 36803.25, 0.061164334, -0.16985293, -234835.64, -85448.24, 0.000000055764154, 9.999329, 9.999489 
3.6502096e+2, 2.947516e+2, -220855.6, -186836.03, 15342.715, 0.041476753, -0.3640992, -180938.8, -129537.12, 0.0000011854916, 9.99904, 9.999502 
3.650231e+2, 3.047504e+2, -147821.78, -180851.25, 22420.617, 0.14354834, -0.4067168, -136490.14, -136490.14, 0.000006614604, 9.999433, 9.99903 
3.650244e+2, 3.147495e+2, 94086.68, 71213.99, -51367.22, 0.18913516, -0.42012298, 135275.25, 135275.25, 0.000023524617, 10.000481, 10.000255 
3.74991e+2, 1.2475735e+2, -1690647.3, -1788417.8, 78575.87, 0.027773669, -0.15442777, -1646991.0, 70359.44, 0.000116595606, 10.000487, 9.999248 
3.7499073e+2, 1.3475622e+2, -1706021.5, -1681312.5, 22747.94, -0.1770327, -0.2652026, -1667780.6, -48421.445, 0.000057458026, 9.999462, 9.999806 
3.7499493e+2, 1.447548e+2, -1551299.0, -1531509.0, 31279.97, 0.029022016, -0.39955956, -1508596.3, 12775.348, 0.000019792478, 9.999756, 10.0000105 
3.7499818e+2, 1.5475552e+2, -1170057.6, -1308662.4, 37468.742, 0.08056428, -0.33925954, -1160577.3, 262785.97, 0.000003853391, 10.001744, 9.999914 
3.7499985e+2, 1.6475603e+2, -1138376.9, -1284090.6, -92992.9, 0.10951693, -0.25923952, -1093099.0, 232260.69, 0.00000020238203, 10.001467, 9.999542 
3.7499928e+2, 1.7475638e+2, -1434461.8, -1380233.0, -136250.86, 0.06257685, -0.19364211, -1268424.8, -41064.492, 0.0, 9.998782, 9.999505 
3.7500086e+2, 1.8475623e+2, -1315949.0, -1100749.9, -23111.104, 0.051826183, -0.2312792, -1098295.9, 31064.78, 0.0, 9.998183, 10.001039 
3.750049e+2, 1.9475542e+2, -969177.56, -881347.6, -144.73157, 0.09246629, -0.43705958, -881347.4, 150014.6, 0.0, 9.999881, 10.001057 
3.7500677e+2, 2.0475553e+2, -869102.44, -927183.1, -101555.56, 0.06791048, -0.46539685, -792516.7, 140842.14, 0.0, 10.000521, 9.999763 
3.750062e+2, 2.1475664e+2, -856594.56, -874892.4, -75941.71, -0.0441577, -0.3423678, -789252.6, 46098.227, 0.0, 9.999953, 9.999722 
3.7500793e+2, 2.2475682e+2, -851297.3, -906864.44, 4508.9814, -0.042934567, -0.25469977, -850933.8, -113581.6, 0.0, 9.99968, 9.9989605 
3.7501222e+2, 2.3475593e+2, -752403.6, -812965.1, -22793.697, 0.082699165, -0.2550495, -744783.5, -105418.82, 0.0, 9.999701, 9.998923 
3.7501442e+2, 2.4475518e+2, -603680.9, -605643.94, -98183.67, 0.09603122, -0.2582062, -506473.84, 34898.31, 0.0, 9.999693, 9.999677 
3.7501436e+2, 2.5475445e+2, -510758.13, -510859.38, -58886.313, -0.021487867, -0.31242484, -451922.4, -8547.366, 0.0, 9.999657, 9.999673 
3.7501583e+2, 2.6475385e+2, -450360.78, -474163.78, 2736.625, -0.019328285, -0.31834245, -450050.22, -104670.83, 0.0, 9.9996, 9.999271 
3.7501898e+2, 2.747533e+2, -375961.47, -392831.66, 59364.465, 0.11012025, -0.3170744, -324435.84, -77049.89, 0.0, 9.99945, 9.999233 
3.7502044e+2, 2.8475237e+2, -317325.56, -337606.94, 21299.105, 0.1285091, -0.31898722, -303876.28, -154480.89, 0.00000003400916, 9.99928, 9.999025 
3.7502e+2, 2.9475105e+2, -263726.2, -264183.5, 11142.725, 0.025747843, -0.37116805, -252809.77, -201401.47, 0.0000008994765, 9.998981, 9.999003 
3.750213e+2, 3.0475047e+2, -126850.0, -116890.53, 55894.61, 0.0104331635, -0.34947228, -65754.266, -65754.266, 0.000005653841, 9.999361, 9.999499 
3.7502304e+2, 3.1475073e+2, 93839.695, 105955.52, 15788.771, -0.021074705, -0.28992134, 116808.664, 116808.664, 0.000021891798, 10.000344, 10.000553 
3.849918e+2, 1.2475476e+2, -1596693.5, -1811809.1, -8507.805, 0.015368609, -0.22910097, -1596357.5, 121012.734, 0.00011972094, 10.001433, 9.998633 
3.8499188e+2, 1.3475332e+2, -1499932.3, -1637944.8, -95070.516, -0.08373678, -0.31999967, -1451464.0, 167920.81, 0.000060093465, 10.001116, 9.999314 
3.8499582e+2, 1.4475195e+2, -1470155.8, -1485081.5, -15425.465, 0.12066549, -0.4249859, -1460482.8, 60914.75, 0.000021868578, 10.000265, 10.000092 
3.8499826e+2, 1.5475237e+2, -1586332.8, -1498047.1, -9952.213, 0.06547829, -0.4069924, -1496939.1, -73547.7, 0.000004862859, 9.998835, 10.00002 
3.8499993e+2, 1.6475293e+2, -1487102.1, -1468665.0, -102980.32, 0.09020202, -0.31992096, -1374491.4, -49104.17, 0.00000029520132, 9.999133, 9.999408 
3.850001e+2, 1.7475368e+2, -1073907.6, -1222797.8, -77367.76, 0.14060779, -0.20202158, -1040984.9, 186400.14, 0.0, 10.001316, 9.99937 
3.8500142e+2, 1.8475343e+2, -868174.8, -930917.1, 62489.703, 0.13160773, -0.22127642, -829623.75, 299764.0, 0.0, 10.001453, 10.000629 
3.850043e+2, 1.94752e+2, -1084314.6, -987244.5, 13140.636, 0.07912919, -0.44760492, -985497.06, 45900.492, 0.0, 9.999299, 10.000613 
3.8500607e+2, 2.0475234e+2, -1090822.8, -977796.56, -88036.48, 0.03588218, -0.45400536, -929695.4, 3697.4243, 0.0, 9.998748, 10.000272 
3.850065e+2, 2.1475461e+2, -820119.44, -799985.06, -78011.01, -0.0055966917, -0.26867265, -731394.3, 103978.3, 0.0, 9.999943, 10.000246 
3.8500848e+2, 2.2475503e+2, -784607.0, -899436.9, 11874.103, 0.017756248, -0.1738341, -783392.0, -46019.992, 0.0, 10.000244, 9.998739 
3.8501215e+2, 2.347534e+2, -790835.4, -857527.25, 23262.28, 0.11700584, -0.22345328, -783523.2, -144129.88, 0.0, 9.9995575, 9.998684 
3.8501418e+2, 2.4475239e+2, -641747.06, -586124.0, -23004.637, 0.12571616, -0.25586674, -577842.6, -36439.453, 0.0, 9.999268, 10.0000105 
3.850144e+2, 2.54752e+2, -526262.8, -483305.34, -39481.813, 0.03169656, -0.31222147, -459838.0, -16436.768, 0.0, 9.999396, 9.999986 
3.8501582e+2, 2.6475167e+2, -432107.97, -409272.44, -22475.086, 0.026939891, -0.33018684, -395481.2, -50080.047, 0.0, 9.999472, 9.999782 
3.850186e+2, 2.7475142e+2, -342166.22, -315803.9, -35394.055, 0.12949644, -0.35153073, -291216.25, -43813.258, 0.0, 9.999424, 9.999772 
3.8501966e+2, 2.8475082e+2, -306389.5, -331065.0, -73665.305, 0.12258579, -0.34912568, -244035.9, -94626.5, 0.000000026095549, 9.999349, 9.999037 
3.8501877e+2, 2.947499e+2, -227118.13, -245265.52, -55472.785, -0.0016671927, -0.3653715, -179981.84, -128560.89, 0.0000006696504, 9.999233, 9.999007 
3.850202e+2, 3.047498e+2, -94692.89, -89952.2, 46017.418, -0.038235977, -0.30041897, -46244.12, -46244.12, 0.0000049598348, 9.999526, 9.999603 
3.8502356e+2, 3.1475028e+2, 51711.523, 80489.96, -38052.094, 0.0172178, -0.2296844, 106782.58, 106782.58, 0.000021460863, 10.000071, 10.000514 
3.949919e+2, 1.24750055e+2, -1612611.4, -1846391.9, -8964.704, -0.15281047, -0.37216374, -1612268.0, 105146.375, 0.0001233599, 10.001456, 9.998382 
3.9499483e+2, 1.3474947e+2, -1509074.8, -1660864.4, -103634.914, 0.08020445, -0.35878494, -1456516.4, 162906.42, 0.00006261113, 10.001143, 9.999141 
3.9499798e+2, 1.447489e+2, -1449942.3, -1449744.6, -74632.8, 0.2912408, -0.385625, -1375210.6, 146217.6, 0.000023583854, 10.000285, 10.000328 
3.9499658e+2, 1.5474899e+2, -1560708.9, -1456298.4, -57564.58, -0.0065592453, -0.42871776, -1430792.1, -7368.061, 0.000005569423, 9.998877, 10.000288 
3.9499807e+2, 1.647492e+2, -1422611.6, -1334048.9, -33090.527, -0.025127979, -0.43460333, -1323050.8, 2369.5842, 0.00000035120044, 9.999132, 10.000332 
3.95002e+2, 1.7474978e+2, -1006167.0, -1080962.1, 10314.372, 0.18345928, -0.42781958, -1004770.7, 222643.97, 0.0, 10.001313, 10.000343 
3.950037e+2, 1.8475011e+2, -956629.1, -1106098.1, -19641.018, 0.19850005, -0.38237223, -954091.25, 175322.58, 0.0, 10.001414, 9.999448 
3.9500323e+2, 1.9475003e+2, -1177180.0, -1166804.1, -63015.348, 0.028036186, -0.3487824, -1108763.5, -77343.62, 0.0, 9.999246, 9.999405 
3.9500436e+2, 2.0475063e+2, -1070299.8, -918090.4, -52490.637, -0.019236028, -0.2892862, -901744.06, 31672.236, 0.0, 9.998678, 10.000713 
3.950071e+2, 2.1475202e+2, -800101.7, -732747.9, -26650.646, 0.04873933, -0.241334, -723478.44, 111923.25, 0.0, 9.999843, 10.000751 
3.9500958e+2, 2.2475217e+2, -763554.6, -842419.06, -17591.09, 0.09004586, -0.2210347, -759808.8, -22407.547, 0.0, 10.000181, 9.999166 
3.9501157e+2, 2.3475085e+2, -768614.7, -798056.06, 3718.4778, 0.091403596, -0.28137937, -768152.3, -128734.69, 0.0, 9.999496, 9.999125 
3.9501306e+2, 2.4474984e+2, -667759.0, -627355.6, -23872.426, 0.073221706, -0.3223103, -616284.3, -74857.28, 0.0, 9.999215, 9.999753 
3.95014e+2, 2.5474915e+2, -554143.4, -526590.44, -27999.074, 0.033229936, -0.38472348, -509162.1, -65732.73, 0.0, 9.99933, 9.9997225 
3.9501527e+2, 2.6474905e+2, -458422.16, -445898.22, -27921.953, 0.011133906, -0.3540325, -423544.7, -78116.04, 0.0, 9.999398, 9.999564 
3.95017e+2, 2.7474955e+2, -365643.22, -350662.66, -29618.223, 0.01341253, -0.2776903, -327602.28, -80176.49, 0.0, 9.999363, 9.999563 
3.950177e+2, 2.847492e+2, -275993.13, -257037.5, -83520.125, -0.020643, -0.26505622, -182459.14, -33029.574, 0.000000010243951, 9.999306, 9.999566 
3.9501712e+2, 2.947481e+2, -200736.34, -171656.3, -50606.457, -0.10791723, -0.34673017, -133542.48, -82103.18, 0.00000051187845, 9.999154, 9.999553 
3.9501962e+2, 3.047484e+2, -118044.83, -127043.03, 64442.4, -0.060784966, -0.26272857, -57944.668, -57944.668, 0.0000058228006, 9.999479, 9.999368 
3.9502546e+2, 3.1474814e+2, 12120.256, 27584.967, -3573.3276, 0.17213331, -0.23994581, 28370.709, 28370.709, 0.00002601799, 9.999959, 10.000196 
4.0499464e+2, 1.2474686e+2, -1489533.0, -1738287.5, 78172.38, -0.048403855, -0.44092667, -1467006.9, 250439.56, 0.00012458346, 10.00207, 9.998832 
4.049967e+2, 1.347473e+2, -1444086.3, -1586706.0, -25046.547, 0.14880233, -0.36980575, -1439815.5, 179627.9, 0.00006386204, 10.00139, 9.999535 
4.0499866e+2, 1.4474761e+2, -1317990.8, -1391671.9, 34272.22, 0.28780317, -0.32627767, -1304514.1, 216925.38, 0.000024485202, 10.001222, 10.000273 
4.0499675e+2, 1.547473e+2, -1156837.6, -1269551.9, 12824.576, -0.01010057, -0.40349454, -1155396.9, 268042.44, 0.000005781208, 10.001682, 10.0002165 
4.0499806e+2, 1.6474715e+2, -1137668.0, -1178867.3, 33375.797, -0.027480686, -0.4503404, -1119046.6, 206392.47, 0.0000003430959, 10.001019, 10.000483 
4.0500203e+2, 1.747474e+2, -1325332.9, -1219006.3, 337.78845, 0.1685238, -0.4904068, -1219005.3, 8430.956, 0.0, 9.999058, 10.00048 
4.050035e+2, 1.8474804e+2, -1365629.5, -1302788.5, -29317.07, 0.18078843, -0.42454633, -1291235.4, -161802.25, 0.0, 9.998602, 9.999454 
4.0500265e+2, 1.9474879e+2, -1101031.0, -1130195.4, 12332.048, 0.023006963, -0.30586526, -1096515.6, -65083.324, 0.0, 9.999765, 9.999409 
4.0500388e+2, 2.0474938e+2, -873719.3, -850308.4, 84779.7, -0.006385798, -0.23714364, -776429.9, 156999.97, 0.0, 10.000151, 10.000468 
4.050073e+2, 2.1474971e+2, -849877.4, -789528.06, 41859.8, 0.09785393, -0.26701796, -768100.8, 67325.16, 0.0, 9.9996395, 10.000463 
4.0500987e+2, 2.2474983e+2, -847857.06, -832441.94, 9356.098, 0.14511178, -0.2555521, -828027.5, -90602.05, 0.0, 9.999398, 9.999604 
4.0501133e+2, 2.3474966e+2, -739655.5, -736346.44, 19087.785, 0.1214237, -0.24539496, -718841.6, -79412.35, 0.0, 9.999493, 9.999547 
4.0501258e+2, 2.447489e+2, -632962.94, -645526.6, 16605.49, 0.087808445, -0.2678112, -621490.8, -80054.43, 0.0, 9.999599, 9.999447 
4.050136e+2, 2.547476e+2, -519328.97, -539450.9, -3049.103, 0.047276676, -0.35912478, -518877.1, -75431.016, 0.0, 9.999711, 9.999445 
4.050148e+2, 2.6474726e+2, -440137.1, -465768.63, -3293.4097, 0.017677002, -0.32964626, -439720.7, -94271.414, 0.0, 9.99964, 9.999313 
4.0501627e+2, 2.7474773e+2, -386875.25, -392429.03, -17751.016, 0.009695652, -0.22841512, -371685.22, -124237.7, 0.0, 9.999343, 9.999289 
4.0501714e+2, 2.8474727e+2, -237375.11, -219604.44, -58480.3, -0.010366661, -0.22116141, -169338.31, -19886.268, 0.0000000008315615, 9.999492, 9.99973 
4.0501738e+2, 2.9474595e+2, -39643.58, -71779.76, -65656.59, -0.04428898, -0.34896842, 11882.501, 63344.703, 0.00000071034475, 10.000166, 9.999746 
4.0501964e+2, 3.0474636e+2, -40963.414, -120881.19, 31676.016, -0.033706058, -0.24666208, -29931.295, -29931.295, 0.0000094188645, 10.000132, 9.9991 
4.0502474e+2, 3.1474558e+2, -86315.375, -20466.23, -60537.78, 0.14903499, -0.25183338, 15521.1, 15521.1, 0.00003801625, 9.99925, 10.0002165 
4.1499963e+2, 1.2474505e+2, -1394557.8, -1560204.1, 62059.375, 0.20292778, -0.4519731, -1373886.8, 343580.47, 0.00012201354, 10.002148, 10.000015 
4.1499728e+2, 1.3474701e+2, -1360214.5, -1430640.1, -48096.727, 0.05064439, -0.33887878, -1335818.3, 283626.78, 0.00006271878, 10.001456, 10.000576 
4.1499755e+2, 1.4474818e+2, -1340171.0, -1439603.8, 45652.32, 0.038187064, -0.2451225, -1322390.4, 199040.56, 0.000024127196, 10.00124, 9.999932 
4.1499874e+2, 1.547474e+2, -1181247.8, -1318376.8, 38273.434, -0.00076465646, -0.33211672, -1171288.8, 252147.92, 0.0000053776757, 10.001682, 9.999879 
4.149998e+2, 1.6474678e+2, -1190086.3, -1282674.9, -43830.863, 0.028621675, -0.37218943, -1172628.6, 152814.69, 0.0000002359893, 10.000997, 9.999781 
4.1499987e+2, 1.747466e+2, -1373154.0, -1321049.0, -66733.836, 0.03209071, -0.387137, -1275462.6, -48013.445, 0.0, 9.999069, 9.999774 
4.1500056e+2, 1.8474713e+2, -1282062.3, -1126777.5, 6130.743, 0.011853021, -0.35190624, -1126535.9, 2910.0518, 0.0, 9.99859, 10.000667 
4.150023e+2, 1.9474836e+2, -1016869.3, -945499.2, 60973.72, -0.005133711, -0.31518194, -910535.7, 120898.164, 0.0, 9.999726, 10.000693 
4.1500443e+2, 2.0474863e+2, -949117.7, -999229.9, 61398.277, 0.020644, -0.29406482, -907859.7, 25573.094, 0.0, 10.000107, 9.999473 
4.1500688e+2, 2.1474777e+2, -930553.56, -942489.6, 27358.879, 0.07666779, -0.3399605, -908519.4, -73074.695, 0.0, 9.999574, 9.999444 
4.150091e+2, 2.247481e+2, -831303.94, -784180.1, 7683.7324, 0.119077295, -0.2724866, -782958.94, -45515.063, 0.0, 9.999337, 9.999967 
4.1501114e+2, 2.3474972e+2, -719739.75, -680201.2, 28963.682, 0.14011618, -0.1247572, -664903.1, -25473.58, 0.0, 9.999428, 9.999965 
4.1501245e+2, 2.4474955e+2, -664740.3, -697108.4, 15784.927, 0.103371836, -0.09658363, -658317.1, -116885.516, 0.0, 9.999541, 9.999117 
4.1501305e+2, 2.547473e+2, -552833.5, -594834.1, 7645.649, 0.0045517194, -0.24552517, -551485.0, -108032.69, 0.0, 9.999648, 9.999095 
4.1501424e+2, 2.647462e+2, -463211.9, -502111.78, -19398.256, -0.013114184, -0.26509094, -455192.0, -109727.95, 0.0, 9.9995985, 9.99908 
4.1501617e+2, 2.7474612e+2, -416559.03, -433874.16, -21937.777, 0.05013961, -0.19424304, -401632.28, -154165.0, 0.0, 9.999263, 9.99904 
4.1501778e+2, 2.847452e+2, -254955.36, -252794.58, -39389.387, 0.08919152, -0.21412922, -214470.77, -64994.73, 0.00000000001177225, 9.999471, 9.999515 
4.1501918e+2, 2.9474336e+2, -66287.766, -110209.66, -33461.566, 0.10511445, -0.36948597, -48224.227, 3265.3774, 0.0000013022876, 10.00009, 9.999519 
4.1502002e+2, 3.0474374e+2, -61029.445, -154345.97, -2203.7559, -0.024524877, -0.24338166, -60977.43, -60977.43, 0.000014524035, 10.000101, 9.998883 
4.1502112e+2, 3.1474283e+2, -72690.36, 38311.613, -91081.78, -0.1726125, -0.24609977, 89470.13, 89470.13, 0.000053920798, 9.999129, 10.000676 
4.2500246e+2, 1.2474596e+2, -1531695.8, -1622489.8, 159936.13, 0.32376465, -0.301441, -1410838.6, 306623.2, 0.000114420596, 10.001181, 10.000058 
4.2499828e+2, 1.3474604e+2, -1468501.5, -1502642.5, -84252.516, 0.04159292, -0.3581666, -1399607.5, 219848.63, 0.00005866896, 10.000796, 10.0004 
4.2499763e+2, 1.4474681e+2, -1426143.3, -1467686.4, 17787.156, -0.04495369, -0.30414784, -1419568.1, 101876.92, 0.00002226237, 10.000583, 10.000059 
4.250004e+2, 1.5474652e+2, -1368705.6, -1394604.5, 31086.924, 0.06901232, -0.35519567, -1347978.9, 75466.38, 0.0000044458184, 10.000329, 10.0000105 
4.2500123e+2, 1.6474627e+2, -1338915.9, -1400980.1, -45737.652, 0.114003845, -0.34346837, -1314676.6, 10773.001, 0.00000009724189, 10.000173, 9.999366 
4.2499897e+2, 1.747462e+2, -1244342.4, -1305238.0, -59359.21, -0.017511861, -0.30525118, -1208077.5, 19380.176, 0.0, 10.000152, 9.999362 
4.2499924e+2, 1.8474652e+2, -1051235.8, -1024864.75, 45221.973, -0.056840144, -0.2671965, -990945.2, 138512.08, 0.0, 10.000224, 10.000577 
4.250027e+2, 1.9474712e+2, -933540.9, -917636.44, -9879.769, 0.03414749, -0.28264406, -912906.1, 118543.09, 0.0, 10.000353, 10.000581 
4.2500526e+2, 2.0474713e+2, -937404.94, -1002383.3, -59172.164, 0.09013772, -0.27824053, -902389.4, 31060.34, 0.0, 10.000234, 9.999381 
4.250067e+2, 2.1474643e+2, -904062.3, -941006.3, -35993.566, 0.09438819, -0.29948866, -882077.5, -46617.09, 0.0, 9.99981, 9.999335 
4.2500848e+2, 2.2474661e+2, -746232.44, -725462.2, 10981.093, 0.10015969, -0.2508526, -720733.25, 16727.197, 0.0, 9.99984, 10.00013 
4.2501065e+2, 2.3474778e+2, -575846.06, -590460.3, 3139.7527, 0.10647965, -0.16351989, -575200.06, 64248.24, 0.0, 10.000328, 10.000147 
4.250121e+2, 2.4474788e+2, -556254.5, -628594.75, -14357.149, 0.08401738, -0.12370923, -553509.25, -12061.844, 0.0, 10.00021, 9.99927 
4.2501286e+2, 2.5474668e+2, -574378.7, -590127.44, 4355.6714, 0.03715172, -0.18438323, -573254.3, -129794.48, 0.0, 9.999425, 9.999239 
4.2501414e+2, 2.6474565e+2, -541447.75, -563865.8, 20722.422, 0.039440654, -0.19084719, -529097.06, -183625.75, 0.0, 9.999161, 9.998874 
4.2501602e+2, 2.7474466e+2, -395770.88, -444519.13, 8310.269, 0.10064118, -0.19141091, -394393.16, -146910.17, 0.0, 9.999495, 9.998858 
4.2501754e+2, 2.847435e+2, -263820.6, -273860.8, 11487.847, 0.118921965, -0.21671328, -256303.88, -106810.01, 0.0000000012455732, 9.999488, 9.999358 
4.2501873e+2, 2.9474214e+2, -222317.52, -205779.4, 8103.943, 0.104647145, -0.30913344, -202470.42, -150966.66, 0.0000019825331, 9.9991, 9.999345 
4.2501923e+2, 3.04742e+2, -280227.4, -281820.2, 29586.426, -0.035528943, -0.21709983, -251426.66, -251426.66, 0.000019596095, 9.998697, 9.998685 
4.250199e+2, 3.1474066e+2, -162594.36, 32220.963, -100765.68, -0.16107847, -0.24240701, 74963.13, 74963.13, 0.00006922057, 9.998369, 10.0009985 
4.350026e+2, 1.2474967e+2, -1603015.5, -1773132.3, 150181.69, 0.18308055, 0.018000988, -1515477.6, 201951.6, 0.00010246441, 10.00121, 9.999004 
4.3499961e+2, 1.3474448e+2, -1560546.3, -1699419.0, -90914.33, 0.07289536, -0.42870545, -1515585.0, 103891.36, 0.000052240124, 10.000827, 9.999035 
4.3499866e+2, 1.4474341e+2, -1386375.6, -1388205.1, 7417.7666, -0.017119769, -0.5128876, -1379816.4, 141666.06, 0.000019361623, 10.000593, 10.000601 
4.3500143e+2, 1.5474463e+2, -1320409.4, -1304711.9, 28891.766, 0.12145111, -0.47483462, -1282621.8, 140843.84, 0.0000034941986, 10.000368, 10.000611 
4.3500203e+2, 1.6474555e+2, -1345573.1, -1413877.5, -53731.15, 0.15829316, -0.372899, -1316059.0, 9399.546, 0.000000032016867, 10.000172, 9.999277 
4.3499905e+2, 1.7474627e+2, -1251530.1, -1319875.8, -54121.49, -0.03863303, -0.24423686, -1221695.8, 5765.3955, 0.0, 10.000149, 9.999264 
4.3499932e+2, 1.847462e+2, -1158185.6, -1235070.8, 45259.69, -0.08399861, -0.1715307, -1137245.8, -7778.6855, 0.0, 10.000176, 9.999156 
4.3500364e+2, 1.9474512e+2, -1041194.8, -1130713.6, 970.07776, 0.07819619, -0.21096662, -1041184.3, -9706.355, 0.0, 10.000313, 9.999136 
4.350062e+2, 2.0474492e+2, -894012.8, -897310.5, -80578.92, 0.14722024, -0.18989398, -815065.9, 118414.41, 0.0, 10.000169, 10.0001335 
4.3500662e+2, 2.1474566e+2, -856563.06, -827115.94, -47332.42, 0.091470934, -0.14942968, -792269.94, 43203.723, 0.0, 9.999746, 10.000147 
4.3500775e+2, 2.2474536e+2, -764227.2, -739707.6, 21797.748, 0.031377453, -0.18574415, -726958.56, 10516.256, 0.0, 9.999744, 10.000076 
4.350097e+2, 2.3474388e+2, -592576.4, -605283.5, 25696.201, -0.03750638, -0.35736936, -572459.94, 67025.38, 0.0, 10.000246, 10.000083 
4.350114e+2, 2.4474399e+2, -520428.2, -542416.94, -49224.37, -0.022142813, -0.3425059, -480985.34, 60498.0, 0.0, 10.000157, 9.999888 
4.3501282e+2, 2.547458e+2, -540206.2, -502303.0, -21087.127, 0.07763618, -0.16684864, -492902.7, -49434.54, 0.0, 9.999352, 9.999878 
4.350142e+2, 2.6474568e+2, -556752.6, -588582.2, 26788.145, 0.11756175, -0.10635928, -541508.4, -196037.39, 0.0, 9.999129, 9.998719 
4.3501553e+2, 2.7474335e+2, -414374.9, -473029.97, 26942.56, 0.088467374, -0.22405684, -403877.75, -156382.89, 0.0, 9.999446, 9.998688 
4.3501613e+2, 2.8474224e+2, -275261.56, -288400.28, -7809.3726, 0.013771264, -0.23157613, -271625.88, -122119.84, 0.000000012355592, 9.999452, 9.999274 
4.3501586e+2, 2.9474238e+2, -241297.7, -230003.08, -392.4074, -0.10868417, -0.1650231, -229989.47, -178485.31, 0.0000027659546, 9.999036, 9.999209 
4.3501714e+2, 3.0474114e+2, -299616.94, -318547.75, 12552.226, -0.12616095, -0.1625104, -293361.28, -293361.28, 0.000024042205, 9.998676, 9.9984455 
4.3502063e+2, 3.1473884e+2, -168253.81, 41750.34, -110363.64, 0.047463395, -0.26237062, 89082.01, 89082.01, 0.00008111006, 9.998281, 10.001104 
4.450039e+2, 1.2475068e+2, -1510053.0, -1762622.8, 263410.2, 0.16203114, -0.057949882, -1344220.1, 373195.94, 0.000089493355, 10.002015, 9.998684 
4.45002e+2, 1.3474575e+2, -1439122.1, -1707246.1, 46158.25, 0.1790639, -0.42121622, -1431398.4, 188065.67, 0.000044922584, 10.001955, 9.998438 
4.4500002e+2, 1.447446e+2, -1260144.8, -1351148.9, 149916.22, 0.016117275, -0.4706006, -1148977.4, 372495.72, 0.00001621496, 10.001569, 10.000383 
4.450018e+2, 1.5474544e+2, -1289030.8, -1309245.3, 94468.53, 0.11023369, -0.4505994, -1204130.3, 219330.45, 0.0000027558995, 10.000676, 10.000429 
4.4500232e+2, 1.647462e+2, -1278549.9, -1410401.1, 31202.777, 0.1465795, -0.3454225, -1271538.6, 53917.03, 0.000000035556127, 10.000751, 9.999024 
4.4500026e+2, 1.7474696e+2, -1018395.7, -1235405.9, 9117.833, -0.0147226965, -0.18532461, -1018013.25, 209444.05, 0.0, 10.001876, 9.999008 
4.4500062e+2, 1.8474649e+2, -940802.5, -1169598.3, 110948.98, -0.051707778, -0.122330755, -895837.44, 233629.05, 0.0, 10.001826, 9.998815 
4.4500417e+2, 1.947445e+2, -1055017.6, -1175240.5, 136582.95, 0.100521244, -0.21897735, -965903.44, 65581.82, 0.0, 10.000372, 9.998805 
4.4500622e+2, 2.0474398e+2, -964205.3, -931552.9, 100218.34, 0.16190009, -0.21280955, -846339.6, 87150.16, 0.0, 9.999695, 10.000125 
4.450065e+2, 2.1474503e+2, -843083.9, -822684.6, 61390.656, 0.1043268, -0.13803773, -770652.06, 64827.246, 0.0, 9.999848, 10.00013 
4.450076e+2, 2.247446e+2, -781793.44, -762473.75, 111514.914, 0.04933149, -0.18307757, -660201.1, 77279.91, 0.0, 9.999681, 9.999948 
4.4500968e+2, 2.3474243e+2, -765753.1, -708123.2, 100293.99, -0.0021678277, -0.40831578, -632586.9, 6910.1416, 0.0, 9.999132, 9.999917 
4.4501114e+2, 2.4474232e+2, -701136.75, -651433.06, -4324.529, -0.00039708093, -0.397429, -651059.6, -109561.94, 0.0, 9.999013, 9.999686 
4.450119e+2, 2.5474444e+2, -548430.6, -528675.75, -51126.766, 0.053929802, -0.17322522, -486481.03, -42999.105, 0.0, 9.999394, 9.999673 
4.4501317e+2, 2.6474437e+2, -463816.1, -507077.28, 6657.279, 0.07905879, -0.11309566, -462814.8, -117330.64, 0.0, 9.999613, 9.999042 
4.4501498e+2, 2.7474192e+2, -358430.2, -409678.28, 35946.387, 0.07981404, -0.276336, -339909.78, -92403.02, 0.0, 9.999678, 9.999007 
4.4501546e+2, 2.8474122e+2, -284146.88, -298984.97, 4089.2231, 0.010154163, -0.25656113, -283094.56, -133580.48, 0.00000003062236, 9.9994135, 9.999222 
4.4501454e+2, 2.9474223e+2, -290751.63, -254519.4, -2296.8264, -0.12509869, -0.095916174, -254374.38, -202868.0, 0.0000032981313, 9.998709, 9.999193 
4.4501594e+2, 3.0474052e+2, -315128.22, -306341.16, 64318.95, -0.101785906, -0.15267436, -246265.86, -246265.86, 0.000027025699, 9.99848, 9.998621 
4.4501987e+2, 3.1473836e+2, -95306.65, 81431.375, -57861.297, 0.12522422, -0.2513058, 98689.12, 98689.12, 0.00008860118, 9.998737, 10.001163 
4.5500612e+2, 1.2474904e+2, -1474754.4, -1702068.5, 244895.88, 0.1398709, -0.52906936, -1318426.5, 398995.38, 0.00007906838, 10.00207, 9.999072 
4.5500508e+2, 1.3474973e+2, -1423353.5, -1687689.9, 51642.336, 0.27367347, -0.34394833, -1413622.5, 205798.08, 0.00003857364, 10.002008, 9.998548 
4.5500144e+2, 1.4475025e+2, -1321577.1, -1485043.1, 114765.01, -0.019879898, -0.18557501, -1262415.5, 259002.6, 0.000013268856, 10.001597, 9.99945 
4.550013e+2, 1.5474899e+2, -1353464.3, -1446658.9, 69948.93, -0.030984918, -0.27864942, -1316013.0, 107417.19, 0.0000020825275, 10.000697, 9.999474 
4.5500198e+2, 1.6474825e+2, -1304835.1, -1469558.8, 64237.383, 0.018806059, -0.25447196, -1282746.4, 42693.875, 0.00000004449902, 10.000764, 9.998614 
4.5500243e+2, 1.7474821e+2, -1041840.8, -1292265.4, 57366.758, -0.005455645, -0.13645883, -1029324.9, 198121.98, 0.0, 10.001904, 9.998607 
4.5500293e+2, 1.8474732e+2, -894223.9, -1063931.3, 53833.25, -0.016807254, -0.12973055, -878587.94, 250868.28, 0.0, 10.001791, 9.999555 
4.55004e+2, 1.9474532e+2, -1009097.25, -1067577.0, 87349.13, 0.031435166, -0.30486405, -946223.94, 85246.7, 0.0, 10.000323, 9.999563 
4.550051e+2, 2.0474435e+2, -1029789.1, -1050932.3, 96969.836, 0.067956574, -0.34235555, -942816.3, -9338.37, 0.0, 9.99962, 9.999342 
4.5500612e+2, 2.1474457e+2, -911404.44, -943220.7, 73733.12, 0.0694972, -0.27050802, -851882.9, -16405.447, 0.0, 9.999758, 9.999344 
4.5500788e+2, 2.2474432e+2, -809282.06, -801560.56, 86978.41, 0.09627714, -0.24500154, -718357.25, 19121.572, 0.0, 9.999602, 9.999719 
4.5501044e+2, 2.347435e+2, -788497.25, -740771.25, 85904.9, 0.14863415, -0.31693986, -675476.56, -35993.37, 0.0, 9.999069, 9.999722 
4.550112e+2, 2.4474293e+2, -781208.1, -804449.5, 3388.829, 0.09022341, -0.29099247, -780724.06, -239233.81, 0.0, 9.998958, 9.998664 
4.5500994e+2, 2.547426e+2, -631246.44, -681846.06, -31162.846, -0.09441895, -0.20653014, -616406.44, -172905.36, 0.0, 9.999314, 9.998661 
4.5501086e+2, 2.6474175e+2, -417225.0, -398560.56, 5812.13, -0.123284206, -0.20957987, -396898.63, -51388.23, 0.0, 9.999563, 9.99981 
4.5501414e+2, 2.747404e+2, -312028.97, -298141.6, 45927.176, 0.012856416, -0.34992266, -258636.17, -11117.659, 0.0, 9.999612, 9.9998045 
4.5501545e+2, 2.8474042e+2, -292663.2, -303976.3, -26871.057, 0.050770037, -0.29477093, -270859.78, -121342.0, 0.000000022691747, 9.999357, 9.999218 
4.5501456e+2, 2.9474175e+2, -295437.7, -252306.23, -21483.164, -0.009610619, -0.09858386, -243431.75, -191921.72, 0.0000033719941, 9.99865, 9.999242 
4.550154e+2, 3.0474004e+2, -279230.3, -219437.3, 72601.35, -0.019094633, -0.1919561, -170817.83, -170817.83, 0.000028147611, 9.998437, 9.999234 
4.550173e+2, 3.1473923e+2, -106430.12, 85624.586, -43814.844, -0.03155023, -0.21343048, 95148.13, 95148.13, 0.00009108323, 9.9986315, 10.001239 
4.6500754e+2, 1.2474948e+2, -1731445.5, -1778518.8, 115183.055, 0.18067656, -0.5856484, -1637418.9, 79999.19, 0.000072079085, 10.000089, 9.999504 
4.6500707e+2, 1.3475156e+2, -1471692.1, -1680583.0, -73004.83, 0.3052921, -0.2924889, -1448707.0, 170696.48, 0.000033639506, 10.00153, 9.998833 
4.6500257e+2, 1.4475226e+2, -1311056.9, -1561916.4, -33479.926, -0.085181735, -0.096957184, -1306665.5, 214735.61, 0.000010536622, 10.002017, 9.99872 
4.6500224e+2, 1.5475045e+2, -1324321.6, -1517628.5, -81840.6, -0.028343175, -0.16940555, -1294326.8, 129094.75, 0.0000014175026, 10.001256, 9.998719 
4.6500322e+2, 1.6474901e+2, -1277941.5, -1448674.3, 9509.508, 0.06440613, -0.18179798, -1277413.5, 48024.76, 0.000000030371112, 10.000928, 9.998675 
4.6500462e+2, 1.7474797e+2, -1152151.6, -1336376.0, 26923.79, 0.06510279, -0.17084225, -1148297.4, 79152.89, 0.0, 10.001111, 9.998688 
4.6500495e+2, 1.8474694e+2, -998149.1, -1103816.1, -29183.701, 0.045484744, -0.18848555, -990624.8, 138834.11, 0.0, 10.001039, 9.99964 
4.650045e+2, 1.9474572e+2, -957725.06, -1036633.4, -58494.76, 0.040507536, -0.29151803, -926622.4, 104843.234, 0.0, 10.000648, 9.999623 
4.65005e+2, 2.0474482e+2, -897370.6, -1008802.06, 2308.6538, 0.04948919, -0.31803963, -897322.8, 36149.16, 0.0, 10.000615, 9.999153 
4.6500632e+2, 2.1474424e+2, -752783.6, -891962.3, 12031.719, 0.05727477, -0.3040238, -751751.1, 83727.13, 0.0, 10.000948, 9.9991255 
4.6500814e+2, 2.247437e+2, -663576.25, -790679.44, 19893.943, 0.10235097, -0.27071175, -660535.25, 76948.17, 0.0, 10.000866, 9.999181 
4.6501055e+2, 2.3474309e+2, -636465.6, -728433.44, -19106.656, 0.19251446, -0.2666723, -632654.1, 6834.117, 0.0, 10.000381, 9.999171 
4.6501115e+2, 2.4474223e+2, -635453.0, -744332.2, -48514.785, 0.14053665, -0.23751473, -616972.4, -75473.53, 0.0, 9.999999, 9.998577 
4.6500966e+2, 2.5474104e+2, -577382.6, -665598.9, -21319.516, -0.06912195, -0.23082097, -572500.5, -128983.836, 0.0, 9.999722, 9.998578 
4.6501034e+2, 2.647402e+2, -427628.63, -366364.56, 34757.863, -0.116063155, -0.24729405, -350667.0, -5141.8423, 0.0, 9.999321, 10.000154 
4.6501327e+2, 2.7473974e+2, -413407.9, -307078.72, 27507.213, 0.014754365, -0.32935077, -300384.16, -52860.27, 0.0, 9.998739, 10.000168 
4.6501425e+2, 2.8473997e+2, -425137.25, -365577.3, -49600.16, 0.04981842, -0.27408224, -337503.84, -187983.03, 0.00000001636591, 9.998434, 9.999239 
4.6501315e+2, 2.947408e+2, -313806.53, -253516.53, -55739.42, -0.00048752327, -0.13341974, -220292.73, -168774.94, 0.0000038591365, 9.998489, 9.999309 
4.6501455e+2, 3.0473894e+2, -206841.16, -152509.36, 62075.35, 0.042073175, -0.2575462, -111915.87, -111915.87, 0.00002953643, 9.998787, 9.9995365 
4.650166e+2, 3.1473863e+2, -45730.87, 90752.66, -103478.46, 0.016653776, -0.257078, 146465.44, 146465.44, 0.00009247593, 9.999154, 10.001028 
4.7500756e+2, 1.2475192e+2, -1693177.1, -1695975.3, 129087.28, 0.1356954, -0.2310233, -1565481.4, 151924.34, 0.00006757851, 10.00009, 10.000062 
4.7500786e+2, 1.3475133e+2, -1433204.4, -1600884.6, -9995.286, 0.21396263, -0.25789613, -1432610.6, 186801.39, 0.000029630666, 10.001542, 9.999367 
4.7500324e+2, 1.4475067e+2, -1343256.1, -1635894.3, -61339.39, -0.24197224, -0.19931398, -1330919.0, 190502.33, 0.00000816001, 10.002039, 9.998208 
4.7500437e+2, 1.5474984e+2, -1354121.4, -1590901.5, -103396.484, 0.04103767, -0.122114316, -1315326.6, 108108.22, 0.0000009257674, 10.001301, 9.998198 
4.7500587e+2, 1.647484e+2, -1239248.4, -1369990.8, 9021.532, 0.21802084, -0.13140227, -1238628.8, 86821.37, 0.000000014696447, 10.000935, 9.999213 
4.7500658e+2, 1.7474622e+2, -1111248.0, -1252948.4, 40515.086, 0.1374578, -0.29106724, -1100481.9, 126986.08, 0.0, 10.00112, 9.999254 
4.7500637e+2, 1.847453e+2, -1040449.25, -1186304.4, -48137.16, 0.0708145, -0.29776007, -1025994.8, 103479.82, 0.0, 10.001013, 9.99909 
4.7500557e+2, 1.9474569e+2, -1000278.56, -1120656.3, -67085.266, 0.06362603, -0.1801846, -970339.0, 61131.066, 0.0, 10.000626, 9.99906 
4.7500575e+2, 2.0474535e+2, -879505.8, -959486.7, 8921.291, 0.048802663, -0.14139864, -878522.8, 54949.082, 0.0, 10.000565, 9.999517 
4.7500685e+2, 2.1474409e+2, -736227.75, -841021.6, 29074.535, 0.0041595087, -0.23318124, -728701.7, 106779.8, 0.0, 10.000879, 9.999508 
4.750082e+2, 2.2474273e+2, -730146.1, -918376.75, -3114.1868, 0.006626677, -0.260787, -730094.6, 7400.076, 0.0, 10.0008135, 9.998334 
4.7500986e+2, 2.3474121e+2, -710347.1, -861977.75, -31753.244, 0.07026151, -0.25783536, -703966.1, -64454.01, 0.0, 10.000294, 9.9983 
4.750108e+2, 2.4474023e+2, -585165.06, -628201.06, -63972.32, 0.09310024, -0.23717949, -539188.75, 2334.7039, 0.0, 9.999946, 9.999401 
4.750109e+2, 2.5473973e+2, -528746.44, -550931.25, -25477.695, 0.06546066, -0.24896091, -512051.22, -68522.09, 0.0, 9.999657, 9.999399 
4.7501138e+2, 2.6473966e+2, -440969.16, -380832.97, 9511.186, 0.04242143, -0.22615127, -379364.53, -33835.77, 0.0, 9.999267, 10.000077 
4.750122e+2, 2.7473995e+2, -427781.75, -322523.28, 12494.49, 0.017297117, -0.22010124, -321060.47, -73537.4, 0.0, 9.998678, 10.000089 
4.750118e+2, 2.8473988e+2, -425509.38, -362970.94, -53352.992, -0.053877626, -0.19697778, -332399.2, -182876.02, 0.0000000367379, 9.998414, 9.999268 
4.750102e+2, 2.9473922e+2, -321959.88, -259483.94, -45896.582, -0.16359311, -0.20747623, -235203.39, -183672.69, 0.000004901276, 9.998427, 9.999305 
4.750132e+2, 3.0473718e+2, -217463.52, -155540.86, 73331.164, 0.01869707, -0.3538094, -106902.79, -106902.79, 0.000032485186, 9.998708, 9.99955 
4.7501734e+2, 3.1473637e+2, -90105.234, 13032.51, -66690.67, 0.14435695, -0.3988234, 45766.633, 45766.633, 0.000096372605, 9.999086, 10.000525 
4.8500726e+2, 1.2475195e+2, -1561643.6, -1590277.5, 96431.79, 0.067397185, -0.07634451, -1478471.8, 238942.39, 0.00006360682, 10.000801, 10.000445 
4.8500925e+2, 1.3475072e+2, -1638413.6, -1659920.8, -47206.484, 0.28201953, -0.20404977, -1600751.4, 18671.824, 0.000025765483, 9.999943, 9.99974 
4.8500466e+2, 1.4474963e+2, -1579924.6, -1698808.9, -51250.375, -0.20388633, -0.23178868, -1560881.4, -39447.12, 0.000006126259, 10.000205, 9.998654 
4.8500642e+2, 1.5474927e+2, -1286173.6, -1510195.4, -39058.277, 0.106577985, -0.15157376, -1279559.1, 143882.56, 0.0000005794279, 10.001566, 9.998623 
4.8500788e+2, 1.647482e+2, -1095011.4, -1312802.8, 79757.2, 0.2778862, -0.14022753, -1068927.5, 256525.23, 0.0000000048834687, 10.001978, 9.999103 
4.85008e+2, 1.7474623e+2, -1088220.3, -1256376.8, 50337.227, 0.15779355, -0.26507255, -1074303.6, 153165.39, 0.0, 10.001342, 9.999122 
4.8500744e+2, 1.8474522e+2, -1046479.44, -1201477.8, -37326.586, 0.08118959, -0.27066585, -1037958.9, 91518.02, 0.0, 10.001021, 9.998979 
4.850067e+2, 1.9474518e+2, -954366.6, -1109374.6, -30512.979, 0.098598346, -0.1889845, -948576.5, 82899.56, 0.0, 10.00099, 9.998957 
4.8500678e+2, 2.0474453e+2, -885626.2, -993864.5, 51354.234, 0.093445465, -0.15955822, -865138.75, 68342.03, 0.0, 10.00066, 9.999237 
4.8500773e+2, 2.1474314e+2, -884921.44, -943221.1, 15159.564, 0.051033217, -0.23802476, -881215.1, -45722.516, 0.0, 9.999991, 9.999234 
4.8500845e+2, 2.2474185e+2, -889870.4, -956090.9, 4511.1772, 0.01742505, -0.26105276, -889564.5, -152059.6, 0.0, 9.999547, 9.998685 
4.8500896e+2, 2.3474061e+2, -819704.06, -874639.7, 59176.387, 0.001229289, -0.2670145, -781931.4, -142412.94, 0.0, 9.999361, 9.998663 
4.850099e+2, 2.4473979e+2, -656421.1, -635437.0, 75445.68, 0.045301564, -0.26047483, -569757.3, -28230.885, 0.0, 9.999342, 9.9996395 
4.8501137e+2, 2.547394e+2, -531909.4, -523348.1, 53795.598, 0.15803786, -0.2837992, -473663.1, -30134.365, 0.0, 9.9995165, 9.999652 
4.8501176e+2, 2.6473942e+2, -450063.16, -434843.78, 46500.01, 0.14603242, -0.24479821, -395334.9, -49806.684, 0.0, 9.99942, 9.999632 
4.850109e+2, 2.7473968e+2, -409180.47, -366135.16, 10930.99, 0.0042561493, -0.1952804, -363518.4, -115991.875, 0.0, 9.999027, 9.999624 
4.8500982e+2, 2.847392e+2, -343388.38, -286363.66, -29475.451, -0.11228039, -0.20168605, -273866.78, -124336.01, 0.00000008825205, 9.998823, 9.999597 
4.850086e+2, 2.9473808e+2, -241853.73, -181298.5, -13406.371, -0.18033357, -0.29000628, -178463.2, -126923.53, 0.0000056074396, 9.998823, 9.999643 
4.8501232e+2, 3.0473685e+2, -241820.61, -147470.95, 129094.01, 0.07861672, -0.38196766, -57202.24, -57202.24, 0.000034672463, 9.998452, 9.999718 
4.8501614e+2, 3.14737e+2, -299973.5, -73997.45, -2956.696, 0.19643548, -0.35162014, -73958.77, -73958.77, 0.000099448036, 9.997588, 10.000634 
4.950062e+2, 1.24749534e+2, -1543888.0, -1563691.4, 3932.709, -0.1626958, -0.12905991, -1543135.6, 174308.25, 0.00005696404, 10.000851, 10.000603 
4.9501085e+2, 1.3474979e+2, -1619001.8, -1623162.8, -72244.92, 0.43406743, -0.13404575, -1548807.4, 70629.266, 0.00002106699, 9.999964, 9.999979 
4.9500668e+2, 1.4474915e+2, -1483394.1, -1503530.4, -5601.678, -0.044812217, -0.19361164, -1481940.6, 39498.977, 0.000004231548, 10.000224, 9.999986 
4.950081e+2, 1.547488e+2, -1188679.6, -1309249.0, 17948.752, 0.10205723, -0.24987741, -1186064.5, 237376.73, 0.00000029436407, 10.001575, 9.999994 
4.950091e+2, 1.6474846e+2, -1148331.9, -1421661.1, 51182.66, 0.18556067, -0.1987163, -1139062.0, 186383.3, 0.0000000005507737, 10.001967, 9.998363 
4.9500865e+2, 1.7474806e+2, -1142103.9, -1369755.3, 32127.352, 0.070166565, -0.089692116, -1137656.8, 89796.484, 0.0, 10.0013485, 9.99834 
4.9500802e+2, 1.8474665e+2, -1027415.94, -1155448.0, -44618.72, 0.020935567, -0.10922962, -1013400.7, 116065.055, 0.0, 10.000994, 9.999309 
4.9500766e+2, 1.9474407e+2, -932451.25, -1057320.9, -28226.277, 0.083974615, -0.3189298, -926367.25, 105117.08, 0.0, 10.00096, 9.99933 
4.950079e+2, 2.0474233e+2, -953528.2, -1122851.1, 20525.771, 0.12856166, -0.3766342, -951075.5, -17576.3, 0.0, 10.000604, 9.998383 
4.9500874e+2, 2.1474147e+2, -955562.06, -1077419.3, -4231.8, 0.13989703, -0.31184056, -955415.3, -119904.586, 0.0, 9.999931, 9.998347 
4.9500868e+2, 2.2474109e+2, -794700.2, -741216.06, -6821.4683, 0.07346166, -0.27214926, -740359.75, -2845.9575, 0.0, 9.9994755, 10.000193 
4.9500766e+2, 2.347412e+2, -722074.56, -651766.4, 57759.94, -0.078379296, -0.30056563, -619303.75, 20204.176, 0.0, 9.999279, 10.000232 
4.9500832e+2, 2.4474089e+2, -685379.75, -687500.44, 76655.445, -0.064725935, -0.307704, -609777.3, -68269.24, 0.0, 9.999304, 9.999302 
4.950108e+2, 2.5474e+2, -566769.7, -584209.1, 66055.28, 0.13377835, -0.34023926, -508861.1, -65344.953, 0.0, 9.999462, 9.999262 
4.9501118e+2, 2.647394e+2, -515386.63, -556680.8, 25947.287, 0.13513465, -0.30599365, -502874.03, -157349.7, 0.0, 9.999365, 9.998819 
4.950091e+2, 2.747388e+2, -480379.2, -493542.44, 3691.657, -0.09453294, -0.2619944, -479414.56, -231879.63, 0.0, 9.998942, 9.998788 
4.95008e+2, 2.8473806e+2, -311555.4, -207133.5, -34996.934, -0.19088429, -0.2778423, -196489.3, -46946.69, 0.00000018947561, 9.998767, 10.000168 
4.950082e+2, 2.9473734e+2, -203744.7, -95249.016, -3820.7407, -0.11991966, -0.38663048, -95114.63, -43569.26, 0.000005616016, 9.998789, 10.000253 
4.950118e+2, 3.047379e+2, -223622.17, -101383.336, 94216.836, 0.16865826, -0.34827957, -50197.836, -50197.836, 0.000033520122, 9.998418, 10.000048 
4.9501246e+2, 3.1474042e+2, -269324.63, 15658.745, 4553.2383, 0.036408916, -0.11901096, 15731.475, 15731.475, 0.000095768366, 9.997481, 10.001298 
5.050063e+2, 1.2474824e+2, -1787225.9, -1636059.9, 40739.883, -0.14093363, -0.14386389, -1625779.5, 91680.03, 0.000046012723, 9.999015, 10.000984 
5.050115e+2, 1.3474917e+2, -1462355.9, -1495430.9, 10567.1, 0.46292853, -0.1256782, -1459268.0, 160174.63, 0.000015500982, 10.000806, 10.000461 
5.050071e+2, 1.4474869e+2, -1316193.1, -1428493.5, 46335.414, -0.07918801, -0.19054592, -1299543.5, 221899.58, 0.0000026245805, 10.001406, 9.999928 
5.050089e+2, 1.547483e+2, -1338861.0, -1392753.4, -61755.64, 0.07138461, -0.24005298, -1298428.8, 125017.23, 0.00000011750303, 10.000596, 9.999893 
5.0500983e+2, 1.6474812e+2, -1412418.1, -1521929.6, -62618.91, 0.16507305, -0.18030746, -1383991.4, -58541.977, 0.000000000026416515, 10.000036, 9.998602 
5.0500923e+2, 1.7474808e+2, -1359834.5, -1450497.5, -18068.031, 0.0804039, -0.05809642, -1356366.5, -128912.01, 0.0, 9.9997425, 9.998563 
5.050087e+2, 1.8474686e+2, -1184859.0, -1217627.4, -24572.762, 0.049001537, -0.07636263, -1171709.1, -42243.535, 0.0, 9.99986, 9.999427 
5.050086e+2, 1.9474429e+2, -1005280.1, -1078143.5, -37429.625, 0.111211136, -0.29228824, -989479.25, 42004.78, 0.0, 10.000413, 9.999445 
5.050087e+2, 2.047426e+2, -938178.5, -1110579.1, 19352.305, 0.14714181, -0.35359168, -936032.9, -2534.6135, 0.0, 10.0006895, 9.998419 
5.05009e+2, 2.1474181e+2, -858621.4, -1026656.6, 49553.805, 0.14417028, -0.28627408, -845096.5, -9587.761, 0.0, 10.0005865, 9.998373 
5.050088e+2, 2.247415e+2, -677372.75, -666608.8, 41098.543, 0.105800755, -0.24868312, -630541.4, 106969.26, 0.0, 10.000199, 10.00036 
5.050081e+2, 2.3474169e+2, -682157.6, -612754.94, -10218.794, 0.03281147, -0.28742987, -611281.56, 28221.77, 0.0, 9.999468, 10.000409 
5.050084e+2, 2.4474132e+2, -681260.5, -687978.06, 9162.937, 0.018252948, -0.30789483, -674860.1, -133356.69, 0.0, 9.999349, 9.999277 
5.0500995e+2, 2.547402e+2, -496533.5, -553393.1, 15919.297, 0.07951924, -0.35582003, -492379.9, -48866.992, 0.0, 9.999962, 9.999234 
5.0501e+2, 2.6473945e+2, -433380.16, -506608.16, -3519.3518, 0.058235332, -0.34160087, -433211.4, -87688.695, 0.0, 9.999879, 9.998919 
5.050083e+2, 2.7473882e+2, -471656.7, -478843.78, 24507.51, -0.06420789, -0.309857, -450480.66, -202946.38, 0.00000000061010413, 9.998961, 9.998877 
5.0500745e+2, 2.8473836e+2, -290366.2, -181289.67, 57691.93, -0.12280603, -0.30971456, -156437.88, -6898.302, 0.00000027597625, 9.998848, 10.000303 
5.0500774e+2, 2.947383e+2, -84089.53, -23609.793, 39803.535, -0.08133764, -0.37017974, -3861.9514, 47674.133, 0.0000049400037, 9.999559, 10.000372 
5.0501084e+2, 3.0473915e+2, -122016.12, -115717.96, 48287.242, 0.18564472, -0.2759812, -70477.22, -70477.22, 0.000029285811, 9.999388, 9.999493 
5.050096e+2, 3.1474194e+2, -186266.3, 14811.016, -104687.16, -0.027738387, 0.03878885, 59418.57, 59418.57, 0.000085814645, 9.99821, 10.00096 
5.1500696e+2, 1.2474809e+2, -1740939.5, -1550001.5, 35404.293, -0.014750316, -0.1133821, -1543648.1, 173812.48, 0.00003362694, 9.999062, 10.001547 
5.1501095e+2, 1.3474907e+2, -1403822.8, -1381853.9, 90145.43, 0.31178093, -0.17119183, -1302026.1, 317413.38, 0.0000102900585, 10.000843, 10.00122 
5.150058e+2, 1.4474842e+2, -1417581.3, -1650796.4, 13808.884, -0.37152964, -0.2152493, -1416766.5, 104676.7, 0.0000014940234, 10.001451, 9.998384 
5.150084e+2, 1.5474781e+2, -1447628.0, -1623458.4, -84174.47, -0.05165068, -0.12633088, -1413828.6, 9627.388, 0.00000003629146, 10.000618, 9.9983 
5.1500994e+2, 1.6474718e+2, -1333312.1, -1353698.8, -78014.56, 0.15308031, -0.08842284, -1264827.8, 60637.645, 0.0, 10.000021, 9.999762 
5.150096e+2, 1.7474632e+2, -1272425.3, -1272137.6, -21795.547, 0.12532952, -0.17121065, -1250485.4, -23012.855, 0.0, 9.999757, 9.999779 
5.150092e+2, 1.8474592e+2, -1194447.5, -1234466.4, -10921.779, 0.09937253, -0.16495663, -1191660.8, -62185.305, 0.0, 9.999847, 9.999313 
5.150092e+2, 1.9474593e+2, -1017759.06, -1101417.5, -9643.068, 0.1170393, -0.11155528, -1016661.94, 14812.582, 0.0, 10.000396, 9.999293 
5.15009e+2, 2.0474534e+2, -889016.4, -993267.8, 11131.224, 0.09120372, -0.095922984, -887841.06, 45637.277, 0.0, 10.000624, 9.999255 
5.1500833e+2, 2.1474402e+2, -803788.0, -902877.06, 50590.79, 0.0065293307, -0.17045903, -782522.3, 52965.895, 0.0, 10.000539, 9.999247 
5.150087e+2, 2.2474293e+2, -766536.5, -838022.9, 7090.243, 0.05889948, -0.19863346, -765840.0, -28343.242, 0.0, 10.000139, 9.999211 
5.1501e+2, 2.3474206e+2, -775451.4, -791512.25, -33797.836, 0.26522285, -0.22307764, -748743.06, -109238.47, 0.0, 9.999404, 9.999212 
5.1501e+2, 2.447411e+2, -667385.06, -648622.8, 25364.43, 0.23023978, -0.2549616, -630960.25, -89448.27, 0.0, 9.999304, 9.99957 
5.1500857e+2, 2.5474e+2, -482383.47, -508585.0, 47853.8, -0.07470114, -0.34055755, -445869.56, -2349.945, 0.0, 9.999894, 9.999576 
5.150079e+2, 2.6473957e+2, -373959.63, -370924.0, -42020.1, -0.14791416, -0.35337558, -330394.3, 15129.143, 0.0, 9.99983, 9.999873 
5.150084e+2, 2.7473968e+2, -411879.63, -340715.56, -2768.7686, 0.026860086, -0.3434552, -340608.0, -93082.77, 0.0000000018853024, 9.9989, 9.999856 
5.150079e+2, 2.8474003e+2, -318043.47, -228021.23, 77189.68, 0.025630202, -0.29875758, -183677.73, -34155.484, 0.00000034894228, 9.998803, 10.000004 
5.150068e+2, 2.9474083e+2, -116431.24, -83436.445, 74845.74, -0.1492841, -0.24253796, -23291.502, 28221.098, 0.0000043002137, 9.999524, 9.99998 
5.150091e+2, 3.0474055e+2, -228458.55, -325277.22, 1309.2711, 0.054948904, -0.16765267, -228440.84, -228440.84, 0.00002546161, 9.99935, 9.99807 
5.150072e+2, 3.1474155e+2, -299378.44, -180862.52, -95584.03, -0.11336326, 0.109747216, -127657.99, -127657.99, 0.00007750593, 9.998058, 9.999683 
5.25007e+2, 1.2474797e+2, -1708462.0, -1584657.9, 8732.579, 0.07210832, -0.06422801, -1584045.0, 133415.5, 0.000024083258, 9.999487, 10.001108 
5.250109e+2, 1.3474807e+2, -1631134.0, -1522103.5, 20546.713, 0.2969283, -0.18244167, -1518360.0, 101089.88, 0.000006343457, 9.999401, 10.000956 
5.25006e+2, 1.447472e+2, -1664905.4, -1758116.3, -49055.227, -0.40998733, -0.24145822, -1643846.3, -122390.06, 0.00000066930806, 9.99971, 9.998483 
5.2500933e+2, 1.5474692e+2, -1469378.5, -1621259.3, -37142.563, -0.0052454737, -0.13218172, -1460781.9, -37317.25, 0.000000004981165, 10.000414, 9.99841 
5.250109e+2, 1.6474636e+2, -1238732.8, -1294608.9, 2189.776, 0.22059406, -0.097455844, -1238647.0, 86825.4, 0.0, 10.000606, 9.999894 
5.250098e+2, 1.7474538e+2, -1186942.5, -1214589.9, -36950.68, 0.150603, -0.20535779, -1161314.4, 66166.47, 0.0, 10.000272, 9.99993 
5.2500933e+2, 1.847453e+2, -1123784.9, -1192002.0, -22167.203, 0.10851849, -0.17792793, -1117214.5, 12267.275, 0.0, 10.0002985, 9.999392 
5.250099e+2, 1.947461e+2, -975834.0, -1070785.6, -17625.91, 0.13520925, -0.050412115, -972667.7, 58807.363, 0.0, 10.000647, 9.999382 
5.250096e+2, 2.047459e+2, -867729.56, -926518.9, -19560.742, 0.10021188, -0.02418197, -861816.06, 71658.84, 0.0, 10.0005245, 9.999764 
5.250083e+2, 2.1474454e+2, -867656.44, -874744.9, -18458.002, -0.010399258, -0.15395865, -852405.44, -16922.807, 0.0, 9.999848, 9.999773 
5.250084e+2, 2.2474332e+2, -849328.44, -927660.1, -27233.115, 0.038315002, -0.2010482, -840791.0, -103298.266, 0.0, 9.999794, 9.998758 
5.2500993e+2, 2.3474213e+2, -661774.6, -790852.94, -25596.07, 0.26881507, -0.20691887, -656884.25, -17377.459, 0.0, 10.000426, 9.998722 
5.2500975e+2, 2.4474138e+2, -536035.7, -526997.4, 59371.07, 0.24478994, -0.2197675, -471973.75, 69539.6, 0.0, 9.999952, 10.000092 
5.250076e+2, 2.5474104e+2, -686707.4, -545185.6, 83411.01, -0.06266142, -0.2830216, -506564.16, -63052.207, 0.0, 9.998229, 10.000125 
5.2500695e+2, 2.6474097e+2, -630876.9, -471600.1, 15791.839, -0.1306118, -0.29828924, -470049.47, -124538.17, 0.0, 9.997962, 10.000085 
5.2500784e+2, 2.7474102e+2, -337435.78, -279522.56, -9492.572, 0.07332798, -0.31534055, -278006.3, -30493.307, 0.00000000009174081, 9.999306, 10.00008 
5.250075e+2, 2.847415e+2, -205475.81, -189143.8, 51335.445, 0.0674474, -0.26542175, -145328.92, 4180.1455, 0.00000033351301, 9.999642, 9.9998665 
5.250059e+2, 2.9474247e+2, -233525.02, -160300.1, 43611.2, -0.15300281, -0.1751971, -139970.39, -88471.91, 0.0000041079616, 9.998804, 9.999799 
5.250074e+2, 3.047414e+2, -369664.25, -383199.56, 25711.049, 0.016738314, -0.17145152, -349845.06, -349845.06, 0.000024461535, 9.998328, 9.998168 
5.250052e+2, 3.147415e+2, -281102.3, -185021.56, 49894.184, -0.116980314, 0.0030087722, -163799.34, -163799.34, 0.000075222786, 9.998222, 9.999581 
5.3500605e+2, 1.247477e+2, -1795449.6, -1776782.8, -79709.37, -0.018570418, -0.010557775, -1705862.3, 11598.449, 0.000017799504, 9.999552, 9.999753 
5.35011e+2, 1.3474621e+2, -1722902.0, -1708207.0, 21321.418, 0.35838017, -0.1544393, -1693002.6, -73529.016, 0.0000036805177, 9.99939, 9.999684 
5.3500724e+2, 1.4474502e+2, -1537850.1, -1501956.3, -26827.572, -0.26616016, -0.2651832, -1487626.1, 33856.066, 0.00000019448485, 9.999733, 10.000232 
5.350115e+2, 1.547456e+2, -1338573.8, -1356835.9, -4392.377, 0.14891018, -0.2557137, -1337572.3, 85899.62, 0.00000000000050979853, 10.000438, 10.0002165 
5.350125e+2, 1.6474572e+2, -1300970.0, -1423255.5, -16959.709, 0.3065521, -0.20219406, -1298661.5, 26808.877, 0.0, 10.000607, 9.99901 
5.3500974e+2, 1.7474528e+2, -1252041.3, -1352222.9, -42491.56, 0.099580124, -0.16025229, -1236446.3, -8966.968, 0.0, 10.000283, 9.998981 
5.3500885e+2, 1.8474497e+2, -1108008.0, -1157677.4, -14482.103, 0.015964784, -0.11709835, -1104093.9, 25390.52, 0.0, 10.00029, 9.99963 
5.350104e+2, 1.9474475e+2, -962682.2, -1039050.75, 2355.0657, 0.10253657, -0.11842973, -962609.6, 68876.59, 0.0, 10.000622, 9.999615 
5.350104e+2, 2.047443e+2, -862743.6, -902250.0, -49317.32, 0.11040227, -0.13986416, -829370.7, 104117.484, 0.0, 10.000468, 9.999954 
5.350087e+2, 2.147435e+2, -863114.9, -851591.5, -38506.285, 0.032891724, -0.23239794, -818418.25, 17072.572, 0.0, 9.999788, 9.99996 
5.3500783e+2, 2.2474273e+2, -844113.06, -905699.06, -10299.592, -0.013066507, -0.25279745, -842436.2, -104938.555, 0.0, 9.999742, 9.998938 
5.3500766e+2, 2.347419e+2, -655915.1, -765903.6, 4340.02, -0.018367704, -0.24530362, -655744.1, -16234.046, 0.0, 10.000368, 9.998921 
5.350074e+2, 2.4474207e+2, -494112.47, -426973.6, -8391.542, 0.004102751, -0.20928878, -425940.66, 115567.42, 0.0, 9.999901, 10.000803 
5.350072e+2, 2.5474328e+2, -644868.8, -445122.06, 24409.377, 0.053693853, -0.18925041, -442182.44, 1308.4116, 0.0, 9.998171, 10.000839 
5.350069e+2, 2.6474363e+2, -668979.5, -540927.8, 59562.023, 0.054014996, -0.17835297, -517506.84, -172020.19, 0.0, 9.99792, 9.999628 
5.350066e+2, 2.7474287e+2, -378184.5, -353639.28, 50901.6, -0.0021351955, -0.23078436, -313551.72, -66053.7, 0.0, 9.999257, 9.999597 
5.35006e+2, 2.847427e+2, -210874.11, -194287.19, 15763.413, -0.067853294, -0.21474247, -184768.67, -35268.133, 0.00000019037492, 9.999617, 9.999844 
5.3500485e+2, 2.9474318e+2, -245694.69, -166271.48, 18583.066, -0.14526175, -0.16784704, -162138.56, -110644.66, 0.0000040138116, 9.99872, 9.999799 
5.350059e+2, 3.047418e+2, -270629.9, -159811.97, 19146.547, 0.021021655, -0.2825894, -156597.19, -156597.19, 0.000024849203, 9.998259, 9.999729 
5.350032e+2, 3.1474173e+2, -215032.05, -27780.594, 90657.17, -0.18210916, -0.2826449, 8918.27, 8918.27, 0.00007616266, 9.998149, 10.000688 
5.4500574e+2, 1.2474644e+2, -1781318.4, -1839995.8, -107340.51, -0.01858871, -0.07100426, -1699379.3, 18089.863, 0.000013143151, 9.999956, 9.999136 
5.4501134e+2, 1.3474533e+2, -1588368.0, -1702389.4, 90670.56, 0.3998426, -0.122821696, -1538274.3, 81208.58, 0.000002162896, 10.000566, 9.999163 
5.4500836e+2, 1.447442e+2, -1384410.4, -1397153.1, 35992.918, -0.17401154, -0.21222858, -1354229.3, 167262.4, 0.000000029643958, 10.000656, 10.0005045 
5.450124e+2, 1.5474413e+2, -1317375.8, -1311128.0, -73914.57, 0.20300597, -0.29645538, -1240271.3, 183213.44, 0.0, 10.000435, 10.000528 
5.45013e+2, 1.6474415e+2, -1327629.8, -1445911.6, -112355.836, 0.3091415, -0.26558754, -1259800.3, 65682.85, 0.0, 10.000474, 9.998913 
5.450098e+2, 1.7474419e+2, -1198419.0, -1337037.0, -85863.76, 0.057186034, -0.16567045, -1157381.6, 70106.62, 0.0, 10.000705, 9.998878 
5.4500866e+2, 1.8474394e+2, -1084392.0, -1116320.6, -22797.086, -0.029413499, -0.12538949, -1072525.4, 56967.17, 0.0, 10.000309, 9.999914 
5.450102e+2, 1.9474337e+2, -1137017.4, -1088037.1, -14878.501, 0.095940664, -0.19357924, -1083871.8, -52375.71, 0.0, 9.999263, 9.999937 
5.450102e+2, 2.0474291e+2, -1075327.9, -1017596.8, -49575.47, 0.12189283, -0.22705711, -989095.56, -55597.23, 0.0, 9.999062, 9.9998455 
5.4500854e+2, 2.1474244e+2, -876454.8, -869139.6, -69985.98, 0.040255774, -0.27415252, -802715.75, 32784.645, 0.0, 9.999745, 9.999861 
5.450074e+2, 2.2474222e+2, -813830.25, -826034.5, -34011.668, -0.020276383, -0.26287833, -785377.6, -47874.97, 0.0, 9.999666, 9.999521 
5.450068e+2, 2.3474215e+2, -848652.25, -794121.7, -2777.0486, -0.05279322, -0.23639493, -793980.6, -154474.17, 0.0, 9.998761, 9.999506 
5.4500645e+2, 2.4474257e+2, -664792.75, -524764.44, -28642.08, -0.022096876, -0.20002231, -519132.38, 22369.967, 0.0, 9.998788, 10.000669 
5.4500633e+2, 2.5474346e+2, -410731.06, -346941.53, -73489.65, 0.07507799, -0.19797643, -298723.84, 144766.14, 0.0, 9.999846, 10.000704 
5.45006e+2, 2.6474392e+2, -376575.9, -372753.0, -19087.574, 0.077325016, -0.17786817, -355481.4, -9996.456, 0.0, 9.999811, 9.999873 
5.450053e+2, 2.7474377e+2, -461350.44, -365329.2, 15083.29, -0.018239915, -0.19474286, -363015.6, -115525.945, 0.0, 9.998561, 9.999856 
5.450047e+2, 2.8474388e+2, -431643.16, -297021.78, 10391.756, -0.07703824, -0.17151375, -296224.34, -146734.06, 0.00000011177434, 9.998094, 9.999869 
5.45004e+2, 2.9474413e+2, -265771.4, -168521.66, 2912.1782, -0.08873521, -0.14760073, -168434.52, -116947.61, 0.0000045059896, 9.998567, 9.999849 
5.4500496e+2, 3.0474266e+2, -118682.7, -37853.395, -6672.0215, 0.057392947, -0.29265642, -37306.355, -37306.355, 0.00002638034, 9.999085, 10.000168 
5.450026e+2, 3.1474167e+2, -26618.098, 74515.11, -30129.78, -0.11402649, -0.4287202, 82810.93, 82810.93, 0.00007851539, 9.999385, 10.000797 
5.5500555e+2, 1.2474433e+2, -1758205.6, -1795547.6, -171027.08, -0.06152026, -0.22363244, -1604833.4, 112651.2, 0.000010165176, 9.999987, 9.999418 
5.5501163e+2, 1.3474543e+2, -1567924.1, -1659537.6, 116124.086, 0.36218703, -0.08101251, -1488898.8, 130578.48, 0.0000015959415, 10.000573, 9.999451 
5.55009e+2, 1.4474475e+2, -1463267.4, -1569794.4, 19939.465, -0.19484952, -0.08347836, -1459657.5, 61826.965, 0.000000016896806, 10.000689, 9.999307 
5.550119e+2, 1.5474257e+2, -1399944.6, -1488789.9, -74635.32, 0.09296828, -0.25424352, -1357512.3, 65990.66, 0.0, 10.000457, 9.999301 
5.550122e+2, 1.6474171e+2, -1277666.4, -1342826.0, -109980.01, 0.16609825, -0.28321382, -1195542.0, 129968.445, 0.0, 10.000478, 9.999616 
5.550098e+2, 1.7474213e+2, -1147359.4, -1228780.0, -72110.62, -0.0332217, -0.2199165, -1105261.0, 122246.695, 0.0, 10.000697, 9.999622 
5.5500865e+2, 1.8474226e+2, -1061611.3, -1062866.3, -66642.266, -0.07834784, -0.1993396, -995593.56, 133911.78, 0.0, 10.000281, 10.000295 
5.5500925e+2, 1.9474196e+2, -1117241.8, -1041868.75, -48188.336, 0.058586467, -0.27382722, -1018380.2, 13124.141, 0.0, 9.999235, 10.000274 
5.550089e+2, 2.0474169e+2, -1104586.8, -1068995.0, -30057.887, 0.07284346, -0.2890593, -1051860.0, -118353.93, 0.0, 9.999023, 9.999508 
5.550076e+2, 2.1474132e+2, -912667.94, -929931.56, -38009.926, -0.04837224, -0.28849164, -882322.06, -46810.473, 0.0, 9.99968, 9.999477 
5.55007e+2, 2.2474174e+2, -759760.8, -695191.5, -71627.805, -0.04026078, -0.24027297, -648908.75, 88599.58, 0.0, 9.999592, 10.000453 
5.550074e+2, 2.3474291e+2, -793885.5, -660974.6, -30029.313, 0.11111458, -0.18664366, -654504.9, -15008.653, 0.0, 9.998677, 10.00046 
5.550068e+2, 2.447429e+2, -742325.6, -671754.94, 5137.328, 0.109713025, -0.19139187, -671382.9, -129886.84, 0.0, 9.998728, 9.999689 
5.55005e+2, 2.5474158e+2, -492874.9, -502087.44, -26208.426, -0.061275285, -0.3082188, -470871.03, -27361.414, 0.0, 9.99978, 9.999672 
5.5500394e+2, 2.6474184e+2, -316858.25, -236890.86, -69442.984, -0.113753445, -0.30214602, -196743.27, 148763.84, 0.0, 9.999764, 10.000825 
5.550038e+2, 2.747438e+2, -404419.06, -229701.52, -25857.729, -0.0340583, -0.20834315, -225954.98, 21533.154, 0.0, 9.99849, 10.000819 
5.550036e+2, 2.8474492e+2, -430252.2, -291895.4, 21905.805, -0.011583984, -0.1333851, -288509.94, -139031.4, 0.00000024371042, 9.998074, 9.99992 
5.550031e+2, 2.947451e+2, -262670.47, -164073.33, 30137.338, -0.056586277, -0.12270745, -155591.22, -104112.016, 0.0000058589785, 9.998561, 9.999891 
5.5500406e+2, 3.0474392e+2, -171798.7, -135417.34, 3092.2876, 0.05152898, -0.20584223, -135156.39, -135156.39, 0.000029983938, 9.999043, 9.999509 
5.55003e+2, 3.147412e+2, -97764.94, -47241.043, 6995.024, -0.038446657, -0.4510903, -46290.47, -46290.47, 0.00008393316, 9.999281, 10.000006 
5.6500554e+2, 1.2474233e+2, -1858314.0, -1779663.1, -251753.02, -0.004107677, -0.2566161, -1564182.6, 153320.86, 0.000007999431, 9.999003, 10.000005 
5.6501216e+2, 1.3474348e+2, -1585375.1, -1606782.1, 80291.37, 0.38170642, -0.1691294, -1515077.0, 104416.16, 0.00000128022, 10.00017, 10.00001 
5.6501025e+2, 1.4474334e+2, -1504197.1, -1611187.3, 2600.0115, -0.12349197, -0.13386446, -1504134.0, 17361.03, 0.000000037787355, 10.000502, 9.999117 
5.65012e+2, 1.5474199e+2, -1472177.3, -1544708.9, -29020.994, 0.08043334, -0.20046893, -1461994.9, -38486.57, 0.0, 10.000054, 9.999114 
5.650119e+2, 1.6474114e+2, -1359507.8, -1355616.4, -10817.495, 0.12420803, -0.22924797, -1346571.0, -21054.418, 0.0, 9.999806, 9.999853 
5.6501013e+2, 1.7474066e+2, -1252772.1, -1252560.1, -25026.043, -0.019057149, -0.28014642, -1227639.9, -118.86738, 0.0, 9.999855, 9.999867 
5.6500924e+2, 1.8474074e+2, -1087429.4, -1071149.5, -56687.145, -0.0378092, -0.2790993, -1022020.9, 107497.2, 0.0, 10.000091, 10.000326 
5.650093e+2, 1.9474137e+2, -933713.6, -945017.06, -70803.71, 0.08486331, -0.26682582, -868336.44, 163171.27, 0.0, 10.000468, 10.000336 
5.650085e+2, 2.0474137e+2, -945447.94, -992312.25, -37157.29, 0.0834941, -0.25474653, -924951.44, 8555.453, 0.0, 10.000126, 9.9995 
5.650069e+2, 2.1474066e+2, -1012907.2, -975381.5, -30673.48, -0.042229436, -0.28952372, -958187.3, -122670.21, 0.0, 9.998993, 9.999489 
5.650064e+2, 2.247409e+2, -859525.9, -743511.44, -60068.813, -0.02476062, -0.2601447, -718013.56, 19502.375, 0.0, 9.998905, 10.000452 
5.6500715e+2, 2.347421e+2, -609161.8, -566179.5, -98476.586, 0.16429666, -0.2037444, -486876.25, 152626.44, 0.0, 9.999928, 10.000502 
5.6500655e+2, 2.4474218e+2, -561110.7, -576136.6, -51105.508, 0.1567065, -0.20756096, -516968.88, 24533.15, 0.0, 9.999955, 9.999743 
5.650043e+2, 2.5474083e+2, -613443.6, -555944.0, -15034.081, -0.06672489, -0.33242416, -552250.4, -108733.4, 0.0, 9.9989395, 9.999703 
5.650029e+2, 2.6474124e+2, -481870.06, -291325.5, -49930.297, -0.1319203, -0.3228323, -279034.56, 66478.54, 0.0, 9.998529, 10.00104 
5.650026e+2, 2.7474356e+2, -340482.47, -167283.44, -74986.59, -0.015501817, -0.21640295, -139329.63, 108159.64, 0.0, 9.998809, 10.001082 
5.650022e+2, 2.8474468e+2, -328060.0, -258261.66, -26486.26, 0.008148958, -0.14469643, -249349.03, -99869.34, 0.00000046127252, 9.998843, 9.999779 
5.6500155e+2, 2.9474467e+2, -265030.47, -180598.05, -41897.016, -0.071561545, -0.14362329, -163336.8, -111851.95, 0.000007820285, 9.998615, 9.999751 
5.6500304e+2, 3.0474424e+2, -157225.16, -154925.72, -20068.797, 0.038578954, -0.13467118, -135973.73, -135973.73, 0.000035959114, 9.999237, 9.999295 
5.6500435e+2, 3.1474155e+2, 99277.85, 55517.406, 2391.779, 0.10951161, -0.35117555, 99408.19, 99408.19, 0.000094359246, 10.000589, 10.000088 
5.750051e+2, 1.24740385e+2, -1786353.5, -1643724.1, -274309.84, 0.016704848, -0.1788542, -1431610.4, 285915.8, 0.0000055281434, 9.9990635, 10.000903 
5.750126e+2, 1.3473947e+2, -1525667.1, -1487546.4, 125528.18, 0.3935194, -0.3805138, -1379639.8, 239890.45, 0.00000085256136, 10.000187, 10.000817 
5.75012e+2, 1.4474006e+2, -1446771.3, -1491440.9, -22780.977, -0.017672673, -0.35217503, -1437202.9, 84319.586, 0.00000002938157, 10.000504, 9.999936 
5.7501245e+2, 1.5474243e+2, -1415116.4, -1423996.6, -40669.285, 0.10599094, -0.13016824, -1378645.5, 44855.33, 0.0, 10.000051, 9.999944 
5.750119e+2, 1.6474244e+2, -1374285.8, -1388608.5, -16260.786, 0.1246155, -0.10429831, -1363679.3, -38177.688, 0.0, 9.999808, 9.999627 
5.7501066e+2, 1.7473975e+2, -1269726.3, -1292254.5, -15967.865, 0.037709545, -0.3517601, -1261449.3, -33921.164, 0.0, 9.999869, 9.999589 
5.750101e+2, 1.8473944e+2, -1107468.6, -1107646.3, -46770.668, 0.03156486, -0.36258423, -1060786.8, 68743.25, 0.0, 10.000074, 10.000082 
5.750102e+2, 1.9474165e+2, -957328.9, -983192.2, -50283.813, 0.11143085, -0.16519327, -918340.5, 113165.055, 0.0, 10.000424, 10.000095 
5.75009e+2, 2.0474206e+2, -930694.75, -950388.44, -85116.1, 0.101335175, -0.11658658, -854857.8, 78642.625, 0.0, 10.000074, 9.999813 
5.750064e+2, 2.147404e+2, -1000421.2, -935523.2, -68125.85, -0.005841957, -0.27886716, -892513.1, -56995.508, 0.0, 9.998928, 9.999796 
5.750053e+2, 2.2473964e+2, -926934.6, -865946.06, -28648.725, -0.0315413, -0.3256397, -854599.56, -117073.445, 0.0, 9.998834, 9.999643 
5.75006e+2, 2.3473981e+2, -681262.5, -697161.5, -52510.95, 0.038743857, -0.2872171, -636102.75, 3422.8694, 0.0, 9.999847, 9.999641 
5.750056e+2, 2.4474032e+2, -490499.2, -424345.22, -94056.98, 0.053699777, -0.25381193, -357718.63, 183802.33, 0.0, 9.999924, 10.000806 
5.7500404e+2, 2.5474113e+2, -544148.3, -399185.56, -48166.68, 0.00004637545, -0.27121496, -384640.63, 58872.145, 0.0, 9.998878, 10.000813 
5.750026e+2, 2.647421e+2, -521433.44, -364777.78, -45456.844, -0.027435847, -0.24315561, -352543.06, -7039.797, 0.0, 9.998489, 10.000557 
5.750014e+2, 2.7474302e+2, -383926.9, -247460.47, -59594.22, -0.029359585, -0.22231698, -225099.86, 22393.963, 0.0, 9.998757, 10.000562 
5.750002e+2, 2.8474325e+2, -356958.16, -302976.0, -41396.31, -0.083644316, -0.20282724, -280548.72, -131054.49, 0.0000006054728, 9.998781, 9.999502 
5.7499903e+2, 2.947428e+2, -295698.8, -230189.5, -41630.992, -0.19668777, -0.21081945, -209972.4, -158468.03, 0.000009307056, 9.998553, 9.999441 
5.750017e+2, 3.0474353e+2, -143669.84, -115397.79, 28772.37, -0.030799197, -0.085285716, -97476.42, -97476.42, 0.00004067109, 9.999192, 9.999589 
5.750063e+2, 3.1474265e+2, 154796.72, 192527.0, 62963.24, 0.2142577, -0.15167992, 239390.56, 239390.56, 0.00010363106, 10.0005, 10.001074 
5.8500516e+2, 1.2473879e+2, -1736046.0, -1590671.8, -135509.44, 0.111077994, -0.22037505, -1509585.5, 207956.86, 0.0000029888902, 9.999275, 10.001164 
5.850125e+2, 1.3473876e+2, -1472993.0, -1438051.8, 229623.64, 0.35404104, -0.3524098, -1225235.0, 394301.75, 0.00000032572908, 10.000444, 10.001034 
5.8501303e+2, 1.447396e+2, -1401901.6, -1437967.8, -2832.7725, 0.03438275, -0.32537532, -1401680.5, 119845.67, 0.0000000021906112, 10.000682, 10.000211 
5.850128e+2, 1.547415e+2, -1367830.6, -1369821.4, -78242.97, 0.13590428, -0.17748977, -1290576.6, 132932.0, 0.0, 10.000239, 10.00022 
5.8501196e+2, 1.6474171e+2, -1339381.1, -1395243.4, -38642.887, 0.14088918, -0.13813114, -1319631.9, 5876.164, 0.0, 10.000141, 9.999422 
5.850111e+2, 1.7473993e+2, -1205500.9, -1284298.9, -45861.477, 0.06667047, -0.2725403, -1184438.6, 43088.47, 0.0, 10.000406, 9.999383 
5.850104e+2, 1.8473946e+2, -1086573.1, -1101594.3, -67302.46, 0.051603403, -0.28821653, -1026363.44, 103167.12, 0.0, 10.000236, 10.000047 
5.8501e+2, 1.9474033e+2, -1089284.1, -1050431.9, -67716.73, 0.09592361, -0.2220821, -999409.94, 32107.652, 0.0, 9.999533, 10.000065 
5.850086e+2, 2.0474046e+2, -1023550.9, -989975.9, -94455.26, 0.09135309, -0.20309152, -910827.9, 22686.49, 0.0, 9.999408, 9.999866 
5.850063e+2, 2.1473968e+2, -848139.06, -853026.06, -107561.19, 0.04036047, -0.28295016, -742993.6, 92529.19, 0.0, 9.999934, 9.999879 
5.8500487e+2, 2.2473924e+2, -792186.94, -793710.1, -23333.738, 0.00091232656, -0.3055416, -769602.4, -32074.088, 0.0, 9.999731, 9.999712 
5.850046e+2, 2.34739e+2, -846059.44, -772034.7, 9041.662, -0.018156482, -0.31336334, -770946.3, -131414.5, 0.0, 9.998692, 9.999693 
5.8500403e+2, 2.4473953e+2, -749139.75, -560242.4, -42709.063, -0.002895571, -0.27645913, -551034.8, -9506.939, 0.0, 9.998192, 10.00071 
5.8500314e+2, 2.547409e+2, -622195.25, -446491.88, -98244.7, 0.05136286, -0.2298845, -402548.47, 40967.3, 0.0, 9.9983835, 10.000725 
5.85002e+2, 2.647417e+2, -514624.94, -398698.13, -95162.55, 0.051831067, -0.19428092, -345235.9, 272.39926, 0.0, 9.998699, 10.000221 
5.8500063e+2, 2.7474177e+2, -347112.8, -269342.47, -106503.164, -0.004149504, -0.22633888, -194847.83, 52659.656, 0.0, 9.999182, 10.000205 
5.8499944e+2, 2.847415e+2, -231750.47, -227389.02, -67553.7, -0.076723516, -0.24515891, -161980.84, -12468.722, 0.00000055145284, 9.999567, 9.999643 
5.8499855e+2, 2.94741e+2, -107420.2, -123721.06, -47310.887, -0.15927681, -0.27252316, -67562.82, -16041.709, 0.000008783807, 9.999782, 9.9995775 
5.850012e+2, 3.0474207e+2, -81561.85, -105223.25, 51608.77, -0.025319986, -0.11192779, -40445.117, -40445.117, 0.000039664603, 9.999701, 9.999407 
5.850059e+2, 3.147428e+2, -5094.32, 151503.23, 24417.637, 0.1868976, -0.0041683307, 155222.27, 155222.27, 0.00010367087, 9.999235, 10.001395 
5.9500533e+2, 1.2473751e+2, -1745131.8, -1620776.6, -133558.97, 0.15577978, -0.37827483, -1535631.3, 181921.23, 0.000001124367, 9.999336, 10.000924 
5.950116e+2, 1.3474135e+2, -1495680.5, -1487067.8, 272448.34, 0.20305204, -0.090456165, -1218891.8, 400621.2, 0.000000025767086, 10.000459, 10.0006895 
5.9501326e+2, 1.447419e+2, -1419612.3, -1476563.8, -27134.426, -0.03825354, -0.060523488, -1408754.3, 112752.02, 0.0, 10.000687, 9.999945 
5.9501296e+2, 1.5473926e+2, -1385618.5, -1410521.1, -88027.58, 0.10529423, -0.34156495, -1309166.0, 114365.46, 0.0, 10.000253, 9.999936 
5.9501207e+2, 1.6473901e+2, -1354984.6, -1420828.3, -36305.5, 0.11802699, -0.3227363, -1338896.9, -13361.609, 0.0, 10.000116, 9.999259 
5.950111e+2, 1.7474125e+2, -1213419.4, -1302998.6, -30349.92, 0.01162345, -0.038668994, -1204105.1, 23412.582, 0.0, 10.000416, 9.999252 
5.9500986e+2, 1.8474078e+2, -1076431.4, -1076958.0, -98370.836, -0.041008405, -0.05454227, -978323.5, 151196.47, 0.0, 10.000221, 10.000223 
5.950084e+2, 1.9473729e+2, -1082958.9, -1028801.44, -88142.805, -0.031894617, -0.4439294, -963671.6, 67873.18, 0.0, 9.9994955, 10.000233 
5.950071e+2, 2.0473649e+2, -1042185.44, -1014133.2, -81673.625, -0.0073355767, -0.5205578, -945290.06, -11740.732, 0.0, 9.999349, 9.999726 
5.950063e+2, 2.1473859e+2, -867920.06, -880268.9, -80906.17, 0.03573208, -0.29645255, -792953.06, 42579.027, 0.0, 9.999876, 9.99972 
5.9500486e+2, 2.2473975e+2, -733963.3, -662586.8, -67423.07, 0.015985217, -0.19613105, -621989.25, 115532.734, 0.0, 9.999682, 10.000638 
5.950029e+2, 2.3473966e+2, -790090.44, -640266.3, -24927.457, -0.07610037, -0.28353545, -636227.8, 3293.794, 0.0, 9.998622, 10.000633 
5.9500164e+2, 2.4473974e+2, -842104.06, -744422.44, -42732.08, -0.07833256, -0.27924624, -728367.5, -186844.4, 0.0, 9.99815, 9.999468 
5.9500134e+2, 2.5474003e+2, -721115.7, -636263.5, -86194.57, 0.019286044, -0.21277776, -582619.44, -139092.86, 0.0, 9.998314, 9.999456 
5.950008e+2, 2.647401e+2, -535331.44, -429104.28, -82527.305, 0.05013152, -0.17532295, -384076.1, -38547.81, 0.0, 9.998649, 10.000037 
5.949999e+2, 2.7473977e+2, -367818.97, -298788.25, -80414.1, -0.007426811, -0.23179804, -245795.13, 1735.5306, 0.0, 9.9991255, 10.0000305 
5.9499955e+2, 2.847394e+2, -198196.64, -149860.55, -66256.83, -0.034448333, -0.2763475, -103501.57, 46032.156, 0.0000003359344, 9.999534, 10.000191 
5.949998e+2, 2.947392e+2, -77457.57, -45838.32, -35239.45, -0.025890306, -0.33676538, -23024.598, 28511.297, 0.000006914508, 9.999713, 10.000144 
5.950013e+2, 3.0473974e+2, -138560.58, -205805.03, 31439.436, 0.0037183356, -0.22015372, -126151.375, -126151.375, 0.000035630153, 9.999631, 9.998749 
5.950026e+2, 3.1474194e+2, -41989.7, 103158.836, 21274.164, -0.097478695, 0.09800982, 106212.7, 106212.7, 0.0000986736, 9.999125, 10.001112 
6.050052e+2, 1.24738775e+2, -1601650.9, -1622736.3, -98673.06, 0.1470142, -0.31420863, -1512958.9, 204580.11, 0.00000033090242, 10.000608, 10.000315 
6.050108e+2, 1.3474135e+2, -1661261.8, -1634413.6, 267101.1, 0.123506375, -0.089936495, -1380399.5, 239114.97, 0.000000000013925105, 9.999623, 10.000078 
6.0501343e+2, 1.4474139e+2, -1635322.9, -1562432.0, -14576.133, -0.004984161, -0.08730558, -1559625.3, -38112.22, 0.0, 9.999129, 10.00011 
6.0501254e+2, 1.5473917e+2, -1475851.1, -1433131.4, -54635.473, 0.07607443, -0.3414029, -1395828.9, 27702.924, 0.0, 9.999545, 10.000123 
6.050117e+2, 1.64739e+2, -1373994.0, -1423420.4, 50306.023, 0.08611855, -0.32942376, -1342658.6, -17125.078, 0.0, 9.999952, 9.99932 
6.050118e+2, 1.7474096e+2, -1228479.0, -1303852.9, 61681.527, 0.049908426, -0.08058559, -1193882.4, 33635.61, 0.0, 10.000287, 9.999309 
6.0501057e+2, 1.847403e+2, -1097989.9, -1135370.6, -43051.285, 0.005133195, -0.09640295, -1069746.9, 59775.926, 0.0, 10.000276, 9.999797 
6.050079e+2, 1.9473669e+2, -1061892.0, -1064456.5, -91113.984, -0.048148237, -0.4553734, -972051.25, 59499.934, 0.0, 9.999841, 9.999818 
6.050062e+2, 2.0473585e+2, -993034.75, -974169.94, -55629.58, -0.04514988, -0.5238434, -927178.75, 6377.7583, 0.0, 9.999611, 9.999879 
6.0500586e+2, 2.1473792e+2, -910502.5, -884057.8, -40219.324, 0.026612539, -0.3183303, -854943.1, -19405.615, 0.0, 9.999502, 9.999879 
6.0500455e+2, 2.2473897e+2, -803353.06, -722958.75, -77287.47, 0.0407216, -0.22322845, -676040.06, 61488.215, 0.0, 9.999325, 10.000392 
6.050024e+2, 2.3473874e+2, -740142.5, -640540.44, -137828.73, -0.007697917, -0.3015033, -543791.44, 95740.04, 0.0, 9.999078, 10.000405 
6.050009e+2, 2.4473895e+2, -657079.94, -644728.3, -96842.44, -0.023867538, -0.27645338, -553865.0, -12332.511, 0.0, 9.999392, 9.999546 
6.050004e+2, 2.547396e+2, -422192.6, -484002.97, -48466.33, -0.002269531, -0.17851385, -395616.34, 47915.074, 0.0, 10.000337, 9.999526 
6.049998e+2, 2.6473957e+2, -308755.53, -347992.97, -16881.219, -0.0010323786, -0.1470606, -302492.4, 43041.96, 0.0, 10.000313, 9.999799 
6.049989e+2, 2.7473855e+2, -372084.53, -330778.53, -34353.5, -0.02307675, -0.24133581, -311347.75, -63804.297, 0.0, 9.999208, 9.999781 
6.049989e+2, 2.8473824e+2, -269937.63, -187127.08, 1842.9652, -0.028850468, -0.2677875, -187086.08, -37540.45, 0.00000016006682, 9.999058, 10.000162 
6.0499984e+2, 2.947388e+2, -42863.227, -33131.355, -25771.73, -0.0026244975, -0.2485711, -11770.217, 39768.46, 0.0000052467194, 9.999967, 10.00011 
6.050012e+2, 3.0473813e+2, -75607.484, -206918.27, 6219.795, 0.009993122, -0.23831907, -75313.52, -75313.52, 0.000031327, 10.000201, 9.99847 
6.050016e+2, 3.147392e+2, 2940.6062, 76767.74, -10402.1045, -0.119312815, -0.0008142087, 78205.38, 78205.38, 0.00009198692, 9.999647, 10.0006895 
6.150043e+2, 1.2474273e+2, -1655962.3, -1744267.1, -152556.84, -0.036126863, -0.016683862, -1541297.1, 176203.66, 0.000000091949275, 10.000654, 9.9994545 
6.150099e+2, 1.347389e+2, -1721519.6, -1762117.1, 230456.31, 0.05346626, -0.33935326, -1510469.8, 109070.0, 0.0, 9.999643, 9.999188 
6.150135e+2, 1.4473805e+2, -1592097.1, -1480376.9, -12896.597, 0.07235234, -0.40532556, -1478907.5, 42638.97, 0.0, 9.999151, 10.000666 
6.150113e+2, 1.5474117e+2, -1423546.3, -1338800.9, -33421.57, -0.019119088, -0.190518, -1327206.5, 96304.31, 0.0, 9.999594, 10.000752 
6.1501074e+2, 1.647416e+2, -1355212.4, -1379516.3, 58093.37, -0.02379833, -0.16487402, -1308013.5, 17489.793, 0.0, 9.999938, 9.999627 
6.1501306e+2, 1.7473897e+2, -1208014.0, -1265862.9, 80467.75, 0.12675901, -0.40158877, -1151430.1, 76098.664, 0.0, 10.000303, 9.999563 
6.150123e+2, 1.8473795e+2, -1174684.3, -1283696.5, -64493.594, 0.13568288, -0.420339, -1144749.0, -15209.246, 0.0, 10.000233, 9.9987955 
6.150081e+2, 1.947386e+2, -1139710.5, -1219740.8, -101257.11, -0.019024324, -0.24975297, -1070848.6, -39312.563, 0.0, 9.999812, 9.998766 
6.1500555e+2, 2.0473857e+2, -968297.8, -909991.56, -66234.125, -0.08422146, -0.20403244, -866778.5, 66756.78, 0.0, 9.9995575, 10.000344 
6.150048e+2, 2.1473767e+2, -885691.1, -816234.2, -40153.95, -0.04610643, -0.3480768, -797874.0, 37665.08, 0.0, 9.999431, 10.000379 
6.150038e+2, 2.2473694e+2, -911787.6, -931566.8, -91057.77, 0.023867087, -0.38946992, -830084.0, -92536.805, 0.0, 9.999251, 9.998997 
6.1500293e+2, 2.3473628e+2, -850857.94, -854289.0, -139846.6, 0.12780955, -0.36588606, -712716.4, -73155.24, 0.0, 9.999007, 9.998973 
6.1500174e+2, 2.4473715e+2, -570515.25, -453613.38, -69121.46, 0.099584974, -0.2677253, -421542.0, 120014.05, 0.0, 9.99934, 10.000883 
6.150001e+2, 2.5473958e+2, -333504.22, -287350.03, -7915.5874, -0.07587584, -0.13450608, -286030.22, 157500.95, 0.0, 10.00028, 10.000904 
6.149986e+2, 2.6474002e+2, -336322.3, -393758.16, -61809.824, -0.15643363, -0.1099872, -296884.72, 48642.008, 0.0, 10.000265, 9.999506 
6.149972e+2, 2.747382e+2, -406133.72, -382845.5, -67997.49, -0.12721476, -0.25645784, -325502.34, -77956.695, 0.0, 9.999132, 9.999456 
6.1499715e+2, 2.8473806e+2, -321076.66, -282879.6, 28361.902, -0.12652312, -0.21431585, -267785.28, -118238.25, 0.00000012615395, 9.999011, 9.999527 
6.1499834e+2, 2.9473984e+2, -98373.85, -130157.38, 14878.971, -0.16300498, -0.012918857, -92495.64, -40966.473, 0.000004351736, 9.99989, 9.999477 
6.150007e+2, 3.0473727e+2, -81263.97, -207783.45, -16903.885, -0.07139292, -0.16103669, -79044.43, -79044.43, 0.000027327762, 10.0001545, 9.998493 
6.150027e+2, 3.147346e+2, -51007.234, -8718.106, -20742.006, -0.011614243, -0.29600662, -243.0247, -243.0247, 0.00008366508, 9.99954, 10.0001545 
6.2500525e+2, 1.24743946e+2, -1557708.0, -1762457.8, -147789.39, -0.04241284, -0.0056050224, -1480298.8, 237188.75, 0.000000014013729, 10.001613, 9.998871 
6.2500966e+2, 1.3473964e+2, -1638842.0, -1785031.6, 212505.45, 0.03211263, -0.3202428, -1487211.6, 132322.22, 0.0, 10.000476, 9.998635 
6.250139e+2, 1.4473844e+2, -1478843.3, -1419506.8, 40487.29, 0.16410214, -0.39613357, -1398981.1, 122563.26, 0.0, 9.9999075, 10.000714 
6.250113e+2, 1.5474162e+2, -1278268.8, -1259755.0, -27425.986, -0.017612385, -0.18051203, -1240065.8, 183440.23, 0.0, 10.000569, 10.000815 
6.2501055e+2, 1.6474187e+2, -1287065.0, -1376004.9, 2254.818, -0.065060616, -0.16481607, -1287007.9, 38492.25, 0.0, 10.000529, 9.99937 
6.2501276e+2, 1.7473872e+2, -1340970.8, -1354227.5, -32179.701, 0.112986304, -0.42712942, -1314743.9, -87212.33, 0.0, 9.999509, 9.999334 
6.2501234e+2, 1.8473794e+2, -1294440.5, -1321414.4, -124009.46, 0.16616325, -0.4193816, -1183186.8, -53645.61, 0.0, 9.999312, 9.998986 
6.2500876e+2, 1.9473965e+2, -1101277.6, -1179462.0, -76494.81, 0.061013006, -0.16238037, -1054464.9, -22937.268, 0.0, 9.999973, 9.99897 
6.25006e+2, 2.0473966e+2, -921536.6, -936200.75, -31523.91, -0.01136165, -0.102487855, -896503.3, 37024.36, 0.0, 10.000089, 9.999908 
6.2500435e+2, 2.147376e+2, -898073.3, -870160.5, -90433.62, -0.03524121, -0.31662, -792612.7, 42931.547, 0.0, 9.999559, 9.999945 
6.25003e+2, 2.2473653e+2, -874503.0, -896433.0, -98154.06, 0.0057664923, -0.37715796, -786703.4, -49147.95, 0.0, 9.99943, 9.999153 
6.250022e+2, 2.3473643e+2, -737266.1, -783334.25, -36934.297, 0.12190035, -0.31340855, -716771.94, -77210.07, 0.0, 9.99971, 9.999124 
6.25001e+2, 2.4473716e+2, -542986.4, -449702.22, 60885.684, 0.09039009, -0.23192652, -419646.53, 121909.78, 0.0, 9.9995575, 10.000812 
6.2499946e+2, 2.5473872e+2, -530948.56, -388085.88, -1317.0554, -0.10313584, -0.17860082, -388073.75, 55464.74, 0.0, 9.998949, 10.000853 
6.249984e+2, 2.6473895e+2, -479807.13, -494172.34, -98372.59, -0.15587808, -0.16083248, -388355.28, -42819.492, 0.0, 9.999406, 9.999234 
6.2499803e+2, 2.7473757e+2, -155159.11, -291650.2, -113247.086, -0.047148827, -0.23466378, -91183.79, 156367.1, 0.0, 10.000978, 9.999195 
6.249978e+2, 2.847373e+2, -72566.87, -202238.16, -17266.656, -0.052816983, -0.18007264, -70307.07, 79246.83, 0.000000116905284, 10.000881, 9.999186 
6.2499756e+2, 2.94738e+2, -255442.77, -248251.66, -24702.08, -0.18487337, -0.045105882, -226884.83, -175339.66, 0.000004287332, 9.998976, 9.999118 
6.249998e+2, 3.047352e+2, -301392.47, -290294.88, 8150.523, -0.089483045, -0.21238546, -285983.66, -285983.66, 0.000025839543, 9.998546, 9.998695 
6.2500316e+2, 3.14733e+2, -38159.523, -31523.809, -6419.4434, 0.07769952, -0.3237275, -27615.504, -27615.504, 0.00007841617, 9.999736, 9.999902 
6.3500774e+2, 1.2474241e+2, -1569554.1, -1807663.3, -179987.0, 0.00581813, -0.28859544, -1472809.4, 244689.88, 0.0000000049225286, 10.001697, 9.998525 
6.3501e+2, 1.3474344e+2, -1651655.5, -1819616.6, 164797.66, 0.0008598952, -0.043866258, -1550673.9, 68823.64, 0.0, 10.000505, 9.998387 
6.3501453e+2, 1.4474243e+2, -1511826.0, -1486396.9, 52295.734, 0.21333726, -0.06308922, -1445292.3, 76215.37, 0.0, 9.999903, 10.0002575 
6.350125e+2, 1.547405e+2, -1306795.0, -1326658.5, 7089.414, 0.020813443, -0.31296366, -1304524.4, 118993.59, 0.0, 10.000599, 10.000344 
6.3501084e+2, 1.647397e+2, -1345190.1, -1490550.0, -41559.23, -0.10114699, -0.34015802, -1334147.0, -8622.706, 0.0, 10.000506, 9.998592 
6.350108e+2, 1.7474009e+2, -1394856.4, -1469535.1, -65589.6, -0.051108778, -0.1688774, -1356722.4, -129195.125, 0.0, 9.99952, 9.99854 
6.350105e+2, 1.8474017e+2, -1200214.8, -1120576.8, -105825.36, 0.036292806, -0.10127176, -1047326.94, 82200.77, 0.0, 9.999293, 10.000371 
6.3500965e+2, 1.9473979e+2, -1005341.06, -971241.9, -46397.824, 0.13264988, -0.19929978, -938860.25, 92666.2, 0.0, 9.999935, 10.000415 
6.3500756e+2, 2.0473903e+2, -1027701.6, -1137894.0, -56836.094, 0.12179699, -0.22353898, -1003640.2, -70106.2, 0.0, 10.00001, 9.998562 
6.3500434e+2, 2.1473768e+2, -1008755.9, -1080714.3, -103951.984, -0.003747587, -0.22569081, -934732.75, -99179.875, 0.0, 9.999477, 9.998537 
6.350018e+2, 2.2473773e+2, -768596.44, -658592.94, -93464.05, -0.073676914, -0.18480837, -605147.8, 132405.25, 0.0, 9.999351, 10.000824 
6.349999e+2, 2.3473915e+2, -623848.2, -532719.25, -19209.137, -0.08868575, -0.14674017, -528835.7, 110698.34, 0.0, 9.99964, 10.000879 
6.349987e+2, 2.4473903e+2, -654365.6, -668975.0, 34331.91, -0.11277963, -0.16985016, -626569.9, -85036.94, 0.0, 9.999508, 9.99933 
6.349981e+2, 2.5473708e+2, -650114.3, -621400.94, -18355.928, -0.14521511, -0.310811, -612454.06, -168900.97, 0.0, 9.998885, 9.999284 
6.34999e+2, 2.647363e+2, -507323.16, -533092.5, -46562.17, -0.05660651, -0.3002608, -471895.8, -126334.016, 0.0, 9.999336, 9.998996 
6.3500124e+2, 2.7473676e+2, -184382.23, -329668.2, -46457.51, 0.1586419, -0.17159152, -170797.02, 76761.9, 0.0, 10.000887, 9.998976 
6.3500065e+2, 2.8473586e+2, -79123.625, -208273.4, -94725.25, 0.13564987, -0.16338375, -29056.504, 120509.75, 0.0000001448745, 10.000847, 9.999164 
6.3499707e+2, 2.947334e+2, -269519.56, -256176.84, -90960.664, -0.14438984, -0.34016433, -171643.22, -120057.43, 0.000005079309, 9.998894, 9.999103 
6.349982e+2, 3.04732e+2, -284002.6, -246882.81, 47125.246, -0.12465838, -0.38110927, -214794.33, -214794.33, 0.000027818513, 9.99851, 9.999008 
6.3500243e+2, 3.1473458e+2, -66334.61, -46333.305, 57245.676, 0.0029147405, -0.049553793, 1778.6959, 1778.6959, 0.00008105603, 9.999563, 9.999876 
6.450099e+2, 1.2474219e+2, -1629242.8, -1804977.1, -183765.67, 0.08394884, -0.39666677, -1513417.9, 204082.47, 0.0000000021351345, 10.001147, 9.998806 
6.4501005e+2, 1.347445e+2, -1550291.3, -1721500.9, 146696.36, -0.06262746, -0.06679947, -1466049.1, 153434.17, 0.0, 10.001011, 9.998802 
6.450148e+2, 1.4474371e+2, -1470281.1, -1571083.6, 90480.7, 0.22679298, -0.04061558, -1417110.9, 104381.41, 0.0, 10.000635, 9.999328 
6.450138e+2, 1.5474078e+2, -1429187.5, -1492847.0, -3424.577, 0.11508054, -0.29213807, -1429003.9, -5486.1504, 0.0, 10.0002165, 9.999389 
6.4501196e+2, 1.6473962e+2, -1404393.8, -1496849.6, -46048.918, -0.010341309, -0.31745875, -1385372.0, -59842.473, 0.0, 9.999996, 9.998799 
6.450105e+2, 1.7474036e+2, -1307467.8, -1403208.5, -4213.8975, -0.05632692, -0.13424523, -1307282.6, -79755.695, 0.0, 10.000004, 9.998769 
6.4500964e+2, 1.8474045e+2, -1086588.1, -1061820.6, -12109.618, -0.014459961, -0.079162665, -1056883.9, 72642.336, 0.0, 10.000052, 10.000411 
6.450092e+2, 1.9473965e+2, -983428.7, -956304.7, -71279.195, 0.09450679, -0.22103103, -897308.75, 134220.42, 0.0, 10.000071, 10.000451 
6.450075e+2, 2.0473902e+2, -1000641.75, -1120155.1, -91138.36, 0.1073558, -0.24004354, -951416.5, -17880.271, 0.0, 10.000172, 9.998603 
6.4500445e+2, 2.1473837e+2, -885679.44, -1021813.75, -44344.63, 0.025772786, -0.17416102, -872508.8, -36959.684, 0.0, 10.000316, 9.99854 
6.450019e+2, 2.2473857e+2, -607936.94, -583519.44, -14848.207, -0.042634692, -0.11634626, -576505.25, 161042.17, 0.0, 10.000458, 10.00081 
6.4499986e+2, 2.3473957e+2, -488670.2, -466380.28, -89460.375, -0.09959116, -0.119668804, -387373.3, 252157.19, 0.0, 10.000567, 10.000888 
6.4499855e+2, 2.4473901e+2, -525846.4, -679135.06, -77641.69, -0.13092229, -0.15556177, -493391.75, 48141.82, 0.0, 10.000703, 9.998687 
6.4499813e+2, 2.547366e+2, -407249.9, -576250.9, -70685.164, -0.12652925, -0.27570066, -381583.6, 61976.074, 0.0, 10.000865, 9.998642 
6.4499897e+2, 2.6473534e+2, -362504.3, -468314.9, -27105.68, -0.031714216, -0.27749106, -355964.78, -10392.029, 0.0, 10.000349, 9.998955 
6.450013e+2, 2.747353e+2, -442388.34, -456787.7, -24440.885, 0.17292672, -0.19608432, -424108.75, -176536.38, 0.000000000000000000046744374, 9.9991255, 9.998953 
6.4500105e+2, 2.8473398e+2, -326804.66, -340359.0, -69227.84, 0.17464909, -0.22486109, -264023.03, -114440.3, 0.00000034821963, 9.999202, 9.999046 
6.4499784e+2, 2.9473105e+2, -20316.758, -149464.47, -87433.75, -0.039716095, -0.43864924, 23803.654, 75410.55, 0.0000068469953, 10.000655, 9.998988 
6.4499825e+2, 3.0473033e+2, -4667.0034, -92319.445, 47981.63, -0.057643287, -0.41578084, 16491.191, 16491.191, 0.00003363737, 10.000338, 9.999189 
6.450002e+2, 3.147334e+2, -250036.13, -112783.02, 28432.807, -0.09929615, -0.05604368, -107126.14, -107126.14, 0.000093360155, 9.998186, 10.000087 
6.5501136e+2, 1.2474323e+2, -1555237.9, -1662016.1, -169545.6, 0.08512921, -0.34176403, -1430874.0, 286617.03, 0.0000000012982254, 10.001191, 9.999767 
6.5500957e+2, 1.3474286e+2, -1468042.3, -1559098.4, 140349.47, -0.22635457, -0.38705546, -1366021.0, 253469.36, 0.0, 10.00105, 9.999895 
6.550148e+2, 1.4474222e+2, -1565773.3, -1774128.8, 63841.594, 0.14381254, -0.3346883, -1547767.8, -26268.945, 0.0, 10.000653, 9.99793 
6.5501505e+2, 1.5474243e+2, -1529654.1, -1707993.0, -13995.896, 0.200335, -0.12399698, -1528562.4, -105056.53, 0.0, 10.00024, 9.997906 
6.550137e+2, 1.647416e+2, -1321709.5, -1324668.4, -53028.266, 0.14090441, -0.09530819, -1270140.0, 55375.844, 0.0, 9.999994, 9.999979 
6.5501153e+2, 1.7473958e+2, -1217541.3, -1221104.6, 2657.23, 0.036189273, -0.31696895, -1216123.6, 11406.278, 0.0, 10.000021, 10.00001 
6.550095e+2, 1.8473877e+2, -1180670.9, -1249609.8, -18723.248, -0.043386422, -0.351881, -1175914.0, -46377.48, 0.0, 10.000023, 9.999136 
6.550073e+2, 1.9473924e+2, -1082816.3, -1150015.8, -63912.098, -0.11758307, -0.23375414, -1044210.06, -12674.2705, 0.0, 10.000024, 9.999143 
6.5500563e+2, 2.047396e+2, -915003.94, -927246.06, -91734.42, -0.11225274, -0.15044622, -829186.56, 104347.484, 0.0, 10.000106, 9.999962 
6.550045e+2, 2.1473965e+2, -794113.9, -814657.2, -32374.723, -0.014299435, -0.15983048, -770420.44, 65112.492, 0.0, 10.000244, 9.999996 
6.550033e+2, 2.2473907e+2, -743262.4, -844388.7, -17450.79, 0.037384663, -0.16928932, -740335.7, -2797.6042, 0.0, 10.000377, 9.999054 
6.550018e+2, 2.3473766e+2, -631760.25, -739965.6, -79576.31, 0.027003903, -0.23001118, -589636.7, 49914.863, 0.0, 10.000473, 9.99905 
6.550005e+2, 2.4473706e+2, -521160.56, -651014.25, -78223.07, -0.020917619, -0.18691377, -484429.44, 57128.945, 0.0, 10.000627, 9.998914 
6.5499926e+2, 2.5473723e+2, -397132.56, -538245.94, -57816.73, -0.11222437, -0.0784361, -376469.63, 67089.164, 0.0, 10.000798, 9.99893 
6.549985e+2, 2.647361e+2, -350937.1, -441074.22, -79166.9, -0.13461517, -0.09499786, -304909.16, 40659.5, 0.0, 10.000329, 9.999155 
6.549981e+2, 2.747334e+2, -437660.06, -433065.78, -63334.668, -0.07890334, -0.29541817, -371986.63, -124396.77, 0.0000000002377775, 9.999061, 9.99915 
6.5499854e+2, 2.8473175e+2, -349219.0, -372707.16, -22494.746, -0.014543717, -0.35651886, -335587.16, -185984.83, 0.0000008000927, 9.9991455, 9.998848 
6.549996e+2, 2.9473105e+2, -47753.4, -184458.75, -25980.914, 0.056361645, -0.33166075, -42982.234, 8625.367, 0.000010270006, 10.00057, 9.998783 
6.549998e+2, 3.047302e+2, -1541.0808, -82870.57, -34951.25, 0.047171347, -0.31066155, 11415.173, 11415.173, 0.00004390313, 10.000323, 9.999265 
6.549962e+2, 3.1472954e+2, -231813.48, -52277.508, -20500.623, -0.3552564, -0.32640418, -49966.36, -49966.36, 0.000113456364, 9.998096, 10.000547 
6.650124e+2, 1.2474468e+2, -1553361.8, -1658763.9, -109232.3, 0.07719472, -0.24316469, -1484781.8, 232698.25, 0.00000000035571668, 10.001183, 9.999795 
6.650108e+2, 1.3474329e+2, -1436310.4, -1537015.5, 55122.78, -0.21738185, -0.40159443, -1412004.4, 207482.28, 0.0, 10.001224, 9.999971 
6.6501606e+2, 1.4474234e+2, -1528925.5, -1763762.4, -5673.5728, 0.1889683, -0.38051057, -1528788.5, -7291.171, 0.0, 10.000956, 9.997846 
6.650152e+2, 1.5474284e+2, -1449478.6, -1680556.5, 8535.239, 0.16335802, -0.12971908, -1449163.8, -25660.959, 0.0, 10.000852, 9.997795 
6.6501343e+2, 1.6474229e+2, -1225999.4, -1253482.8, 1868.944, 0.09341206, -0.07983713, -1225872.9, 99637.49, 0.0, 10.000546, 10.000199 
6.650117e+2, 1.7474043e+2, -1217995.8, -1191826.5, -33355.258, 0.056871448, -0.30794156, -1169081.3, 58439.914, 0.0, 9.999899, 10.000262 
6.6501e+2, 1.8473954e+2, -1238497.1, -1322766.5, -26521.084, 0.008047619, -0.34560788, -1230845.3, -101316.66, 0.0, 9.999828, 9.998725 
6.650079e+2, 1.947396e+2, -1058726.1, -1190610.0, -16652.277, -0.078052714, -0.22530276, -1056656.0, -25122.281, 0.0, 10.000403, 9.998685 
6.6500616e+2, 2.0473978e+2, -850954.94, -883048.06, -60882.465, -0.08277427, -0.14159092, -804039.9, 129493.945, 0.0, 10.000488, 10.000082 
6.650049e+2, 2.1473996e+2, -821846.7, -813283.9, -113677.84, 0.011739518, -0.15082483, -703806.9, 131723.1, 0.0, 9.999996, 10.000124 
6.650037e+2, 2.2473907e+2, -833938.4, -947871.44, -74976.79, 0.066230595, -0.17152056, -796741.75, -59203.555, 0.0, 10.000014, 9.998518 
6.6500276e+2, 2.3473692e+2, -660284.5, -819188.44, -52041.734, 0.069439895, -0.2501621, -644757.75, -5197.0156, 0.0, 10.000551, 9.998472 
6.650015e+2, 2.4473621e+2, -554723.75, -640128.1, -16925.629, 0.040837944, -0.20085308, -551491.75, -9922.733, 0.0, 10.000267, 9.999167 
6.650001e+2, 2.5473693e+2, -630635.5, -624559.25, -15225.205, -0.022439357, -0.062162545, -612072.0, -168509.3, 0.0, 9.999062, 9.999185 
6.6499877e+2, 2.6473594e+2, -523508.72, -527015.4, -10905.606, -0.07101029, -0.07592081, -514216.4, -168645.95, 0.0, 9.99915, 9.999134 
6.649977e+2, 2.7473295e+2, -199707.39, -319649.34, -23610.887, -0.10201674, -0.3059102, -195226.89, 52367.664, 0.0000000023427176, 10.000697, 9.999139 
6.6499794e+2, 2.8473136e+2, -123869.57, -294896.66, 17459.705, -0.06581298, -0.34598058, -122105.35, 27502.094, 0.0000014418595, 10.000829, 9.998569 
6.6499954e+2, 2.947311e+2, -231419.75, -300108.97, -7587.129, 0.05174439, -0.2463153, -230591.69, -178981.08, 0.000014823799, 9.999428, 9.998535 
6.6499937e+2, 3.0472994e+2, -251451.36, -164147.75, -48943.477, 0.07196231, -0.26220196, -142217.97, -142217.97, 0.000057815294, 9.998445, 9.999615 
6.649945e+2, 3.147287e+2, -221889.48, 30684.691, -22718.832, -0.31456408, -0.37092295, 32711.959, 32711.959, 0.0001407211, 9.997837, 10.001243 
6.750127e+2, 1.2474655e+2, -1615240.6, -1795581.5, -76022.85, -0.04980279, -0.11216924, -1587469.6, 129997.61, 0.0000000023126079, 10.001226, 9.998831 
6.750133e+2, 1.3474579e+2, -1498860.1, -1668250.4, 54651.555, -0.10398669, -0.11749617, -1482758.1, 136713.7, 0.0, 10.00124, 9.999058 
6.750182e+2, 1.4474414e+2, -1443502.1, -1591135.1, -19596.697, 0.29074863, -0.17445682, -1440945.1, 80541.78, 0.0, 10.000971, 9.999024 
6.7501384e+2, 1.5474215e+2, -1355043.5, -1493941.5, 12927.223, -0.07224706, -0.29808205, -1353850.6, 69656.86, 0.0, 10.000887, 9.999061 
6.7501104e+2, 1.6474171e+2, -1273340.4, -1353867.9, -28586.572, -0.21813166, -0.2692333, -1264224.4, 61288.133, 0.0, 10.000554, 9.999508 
6.750107e+2, 1.7474295e+2, -1269295.6, -1299078.4, -51702.25, -0.048635937, -0.112924255, -1230383.0, -2882.4717, 0.0, 9.999903, 9.999525 
6.750106e+2, 1.8474275e+2, -1209396.4, -1261202.3, -13240.852, 0.07860288, -0.06474289, -1206208.5, -76705.74, 0.0, 9.999818, 9.999155 
6.750106e+2, 1.947408e+2, -1033270.25, -1126009.4, 11333.142, 0.14062725, -0.19092023, -1031905.4, -383.2654, 0.0, 10.000355, 9.999151 
6.750089e+2, 2.0473967e+2, -942251.44, -1058366.1, -84431.234, 0.13098142, -0.20459275, -897842.75, 35691.67, 0.0, 10.000423, 9.998912 
6.750054e+2, 2.1473934e+2, -916189.1, -992050.56, -125911.99, 0.046770755, -0.14441216, -822618.6, 12921.327, 0.0, 9.999923, 9.998932 
6.750031e+2, 2.2473864e+2, -797691.06, -851998.94, -60392.867, -0.007823751, -0.11854524, -758628.44, -21081.34, 0.0, 9.9999275, 9.999217 
6.7500234e+2, 2.3473744e+2, -620779.44, -714842.1, -22734.27, -0.035319224, -0.17780423, -615572.94, 23984.217, 0.0, 10.000463, 9.999229 
6.750014e+2, 2.4473655e+2, -549664.56, -615059.4, -66369.96, -0.008712296, -0.19385801, -508374.84, 33189.445, 0.0, 10.000206, 9.999367 
6.7500025e+2, 2.5473586e+2, -630012.4, -605132.06, -55976.89, 0.07921479, -0.21699727, -560229.6, -116659.65, 0.0, 9.998983, 9.999354 
6.7499983e+2, 2.64735e+2, -549478.8, -566342.25, 38855.16, 0.10026272, -0.21189684, -518151.03, -172573.98, 0.0, 9.99909, 9.998892 
6.7499995e+2, 2.7473393e+2, -226450.72, -359406.56, 42040.61, 0.036344595, -0.22694334, -214272.89, 33313.547, 0.0000000015372758, 10.000635, 9.998893 
6.749992e+2, 2.847328e+2, -147130.34, -346391.34, -39372.44, -0.03862637, -0.19439048, -139632.77, 9965.506, 0.0000017821444, 10.0008335, 9.998217 
6.7499745e+2, 2.9473138e+2, -264444.63, -356057.28, -54471.387, -0.1236914, -0.17339276, -239079.67, -187464.83, 0.000019076204, 9.999368, 9.998182 
6.749966e+2, 3.0472964e+2, -220067.95, -81823.43, -77046.96, -0.05850379, -0.25944513, -47436.652, -47436.652, 0.000073988194, 9.998379, 10.000204 
6.749946e+2, 3.1473047e+2, -180881.25, 145978.63, -17505.223, -0.12520264, -0.22261535, 146913.45, 146913.45, 0.00017623325, 9.997718, 10.002084 
6.850152e+2, 1.2474694e+2, -1459235.4, -1771128.4, -40212.61, 0.025862062, -0.11431396, -1454134.3, 263330.84, 0.0000000036242784, 10.002506, 9.998389 
6.85015e+2, 1.3474658e+2, -1417129.1, -1672512.5, 59043.508, -0.090021044, -0.035604976, -1404139.3, 215329.53, 0.0, 10.002001, 9.998658 
6.850191e+2, 1.4474522e+2, -1404864.3, -1515943.8, -18003.014, 0.29142594, -0.07092288, -1402019.3, 119461.64, 0.0, 10.000982, 9.999538 
6.850144e+2, 1.5474272e+2, -1490521.5, -1499738.9, -49277.26, -0.046214867, -0.30015618, -1445637.9, -22135.271, 0.0, 9.999692, 9.9996 
6.8501145e+2, 1.6474213e+2, -1420669.8, -1471450.8, -55462.88, -0.18467845, -0.29425994, -1385061.9, -59553.2, 0.0, 9.999744, 9.999095 
6.8501145e+2, 1.7474362e+2, -1101861.9, -1269725.1, -67695.59, -0.027658697, -0.06664986, -1077964.0, 149533.22, 0.0, 10.00127, 9.999071 
6.850114e+2, 1.8474355e+2, -978895.75, -1114461.9, -46644.945, 0.11109215, 0.0037096129, -964397.0, 165101.52, 0.0, 10.001251, 9.999469 
6.8501115e+2, 1.9474153e+2, -1137153.4, -1136364.3, -44093.227, 0.20516445, -0.16374718, -1092663.8, -61147.645, 0.0, 9.999476, 9.999498 
6.8500936e+2, 2.0474018e+2, -1131493.4, -1181203.3, -59739.023, 0.19137692, -0.20521314, -1091645.0, -158115.3, 0.0, 9.999265, 9.99862 
6.850058e+2, 2.1473947e+2, -813160.94, -977790.06, -44543.664, 0.060633127, -0.1533633, -801881.56, 33658.207, 0.0, 10.000777, 9.998618 
6.850036e+2, 2.2473882e+2, -606158.9, -734009.94, 24397.7, -0.010716108, -0.118850045, -601661.3, 135885.4, 0.0, 10.0011215, 9.999458 
6.850028e+2, 2.3473813e+2, -647935.56, -700617.25, 10547.328, -0.017276416, -0.15250014, -645902.4, -6350.838, 0.0, 10.000143, 9.999486 
6.850018e+2, 2.4473727e+2, -548239.06, -612198.44, -37470.395, 0.012693574, -0.1793203, -530956.9, 10600.87, 0.0, 10.000204, 9.999386 
6.850005e+2, 2.5473616e+2, -269068.75, -427579.4, -48794.797, 0.0826607, -0.24825336, -255252.38, 188314.3, 0.0, 10.001453, 9.999379 
6.85e+2, 2.647353e+2, -218710.94, -420415.03, 58380.863, 0.10043752, -0.23501171, -203032.03, 142542.31, 0.0, 10.001423, 9.998768 
6.850005e+2, 2.7473477e+2, -332707.53, -425950.34, 55244.875, 0.06314513, -0.18335915, -307040.97, -59459.324, 0.00000000039754933, 9.999968, 9.99876 
6.849996e+2, 2.8473416e+2, -310090.4, -367506.03, 3233.1763, -0.01623122, -0.11773046, -309908.94, -160319.63, 0.000001935021, 9.999469, 9.998729 
6.849969e+2, 2.9473323e+2, -120611.016, -227046.42, 42099.65, -0.14364448, -0.10228246, -105972.22, -54372.39, 0.000022833043, 10.000096, 9.998719 
6.849953e+2, 3.047311e+2, -41090.363, -30570.918, 9684.092, -0.09138765, -0.2372571, -24810.373, -24810.373, 0.00009092674, 9.999747, 9.999896 
6.8499315e+2, 3.1473237e+2, -165763.5, 89866.46, -11266.812, -0.04925424, -0.124671906, 90362.086, 90362.086, 0.00021661, 9.998071, 10.001534 
6.950197e+2, 1.24745876e+2, -1442345.9, -1747545.6, -42919.54, 0.18265067, -0.2516374, -1436425.1, 281048.13, 0.00000000017840025, 10.002568, 9.998512 
6.950157e+2, 1.3474579e+2, -1409545.6, -1656888.8, 41243.08, -0.23252712, -0.15572569, -1402849.9, 216626.47, 0.0, 10.002009, 9.998755 
6.950187e+2, 1.4474554e+2, -1413500.6, -1536455.4, -72724.336, 0.13737266, -0.0781152, -1379750.4, 141729.1, 0.0, 10.000993, 9.999393 
6.950165e+2, 1.5474449e+2, -1496169.5, -1523494.4, -89209.2, 0.17562096, -0.14554918, -1419582.6, 3906.1563, 0.0, 9.999739, 9.999419 
6.950145e+2, 1.6474353e+2, -1429639.0, -1493337.9, -7182.6445, 0.12338307, -0.15832797, -1428839.1, -103340.4, 0.0, 9.999761, 9.998935 
6.9501376e+2, 1.7474261e+2, -1113005.3, -1291860.0, -3405.502, 0.058414802, -0.15801087, -1112940.4, 114569.44, 0.0, 10.0012665, 9.99892 
6.9501215e+2, 1.847421e+2, -967008.8, -1084977.1, -114687.4, 0.043879915, -0.13617262, -897026.56, 232488.52, 0.0, 10.00123, 9.999682 
6.9500935e+2, 1.9474186e+2, -1127063.3, -1107660.3, -104309.82, 0.05743863, -0.144857, -1012601.75, 18913.676, 0.0, 9.999445, 9.999711 
6.950072e+2, 2.0474131e+2, -1097311.9, -1098815.5, -12176.445, 0.039739348, -0.14458126, -1085864.1, -152344.25, 0.0, 9.999214, 9.999212 
6.95006e+2, 2.1474034e+2, -780984.8, -895832.75, 18183.65, -0.0077922917, -0.17879517, -778174.6, 57354.906, 0.0, 10.000712, 9.999213 
6.9500494e+2, 2.247396e+2, -632388.5, -770982.1, -15656.425, 0.0011921272, -0.17340977, -630641.9, 106895.27, 0.0, 10.001049, 9.999237 
6.950039e+2, 2.3473898e+2, -678026.6, -741761.6, -19796.59, 0.065335646, -0.17484803, -672378.25, -32834.223, 0.0, 10.000057, 9.999243 
6.9500244e+2, 2.4473843e+2, -564682.8, -631800.3, 1936.3706, 0.04568217, -0.15293728, -564627.0, -23078.334, 0.0, 10.000141, 9.999283 
6.950005e+2, 2.5473785e+2, -283909.3, -445301.16, 4902.9644, -0.07074838, -0.15703763, -283760.5, 159791.69, 0.0, 10.001395, 9.999287 
6.949994e+2, 2.6473695e+2, -227816.67, -430054.34, 1790.0985, -0.11959551, -0.14695683, -227800.83, 117761.07, 0.0, 10.001383, 9.998721 
6.949991e+2, 2.747356e+2, -346119.8, -440193.03, 7612.6436, -0.0853298, -0.16907194, -345507.75, -97928.305, 0.0000000054780975, 9.9999075, 9.998693 
6.949987e+2, 2.847355e+2, -221665.3, -171997.28, 19875.93, -0.06797707, -0.112089045, -165022.78, -15442.419, 0.000002364329, 9.999419, 10.000093 
6.9499767e+2, 2.9473656e+2, -30986.709, -25104.668, 76591.99, -0.09206016, -0.035610005, 48602.746, 100168.21, 0.000027093956, 10.0000305, 10.000136 
6.949952e+2, 3.0473435e+2, -130929.83, -208786.67, -52378.875, -0.09188719, -0.19912328, -104597.48, -104597.48, 0.00010798756, 9.999715, 9.998687 
6.949901e+2, 3.147343e+2, -315150.16, -197815.13, -43204.914, -0.19416137, -0.08352042, -183622.89, -183622.89, 0.00025660693, 9.99798, 9.999602 
7.0502245e+2, 1.247469e+2, -1451377.1, -1734353.4, -4398.2534, 0.21748506, -0.22231704, -1451308.8, 266155.84, 0.0, 10.00241, 9.998694 
7.050171e+2, 1.3474604e+2, -1547937.1, -1707999.0, 25514.322, -0.23843893, -0.21588206, -1543968.5, 75505.99, 0.0, 10.000982, 9.998902 
7.0501924e+2, 1.44746e+2, -1501232.3, -1606679.0, -41679.99, 0.11537411, -0.11305118, -1486747.1, 34728.74, 0.0, 10.000508, 9.999146 
7.0501757e+2, 1.5474574e+2, -1260761.8, -1434106.6, -75093.66, 0.2286679, -0.07701547, -1232755.6, 190723.39, 0.0, 10.001471, 9.99919 
7.0501566e+2, 1.647448e+2, -1207789.5, -1363700.1, 32020.463, 0.19835524, -0.086396284, -1201469.4, 124019.336, 0.0, 10.001191, 9.999131 
7.050144e+2, 1.7474295e+2, -1363367.3, -1387814.4, 50431.066, 0.09259122, -0.19945584, -1323699.5, -96192.21, 0.0, 9.999446, 9.999136 
7.0501226e+2, 1.8474236e+2, -1270943.3, -1238019.9, -48380.527, 0.039592814, -0.19400556, -1203377.1, -73864.12, 0.0, 9.999173, 9.999622 
7.050089e+2, 1.9474295e+2, -974093.25, -1043874.8, -71753.805, 0.02180183, -0.11222262, -929197.0, 102309.484, 0.0, 10.000529, 9.999631 
7.050068e+2, 2.0474267e+2, -850315.2, -941544.2, 28266.756, -0.0018353186, -0.09686063, -842266.94, 91241.0, 0.0, 10.000749, 9.999554 
7.05006e+2, 2.1474135e+2, -909877.44, -917533.06, 29014.22, -0.024968244, -0.20005423, -884439.6, -48920.668, 0.0, 9.999658, 9.999572 
7.050051e+2, 2.2474073e+2, -854126.2, -861823.75, -2139.669, -0.0040972265, -0.2091139, -853571.44, -116046.75, 0.0, 9.99946, 9.999374 
7.05004e+2, 2.3474072e+2, -639945.75, -708097.9, 11215.634, 0.05926783, -0.16207714, -638147.5, 1378.4207, 0.0, 10.0002575, 9.999374 
7.050025e+2, 2.4474043e+2, -528314.5, -624387.7, 77643.8, 0.021574033, -0.11679206, -485049.0, 56479.895, 0.0, 10.000439, 9.999187 
7.0500064e+2, 2.547397e+2, -502342.6, -560691.4, 70296.805, -0.1289234, -0.1268732, -455406.63, -11871.441, 0.0, 9.999942, 9.999191 
7.0499927e+2, 2.647388e+2, -493774.47, -529087.5, 39008.547, -0.16974732, -0.12417328, -468612.53, -123067.08, 0.0, 9.999436, 9.99898 
7.0499855e+2, 2.747376e+2, -473343.8, -467562.2, 53781.605, -0.07537989, -0.15602958, -416593.75, -169032.66, 0.000000016182126, 9.998896, 9.998988 
7.0499796e+2, 2.8473762e+2, -298938.9, -187464.9, 105274.58, -0.037088383, -0.11738989, -124082.85, 25478.135, 0.0000030357212, 9.998787, 10.000296 
7.0499736e+2, 2.947387e+2, -143732.22, -53785.68, 62936.64, -0.078492075, -0.060281865, -21405.117, 30140.129, 0.000031540207, 9.999143, 10.000368 
7.0499456e+2, 3.0473697e+2, -148790.05, -225084.23, -96166.64, -0.11789121, -0.18311852, -83480.766, -83480.766, 0.00012311795, 9.999623, 9.998623 
7.0498943e+2, 3.1473726e+2, -53474.656, -138608.48, -20090.092, -0.15878148, -0.025035236, -48971.9, -48971.9, 0.00029058926, 10.000069, 9.999001 
7.150232e+2, 1.2474993e+2, -1417037.5, -1678142.5, -42365.063, 0.015512812, -0.02544376, -1410335.6, 307104.1, 0.0, 10.002475, 9.999046 
7.150189e+2, 1.3474725e+2, -1521678.6, -1673247.3, -27821.559, -0.17137003, -0.22604263, -1516733.1, 102731.07, 0.0, 10.001058, 9.999108 
7.150203e+2, 1.4474657e+2, -1518552.8, -1649562.3, -18487.389, 0.15649484, -0.1827632, -1515993.9, 5476.7905, 0.0, 10.000546, 9.998829 
7.1501744e+2, 1.5474652e+2, -1283439.9, -1483394.3, -32272.404, 0.05371156, -0.093094744, -1278360.3, 145112.67, 0.0, 10.001477, 9.998849 
7.150148e+2, 1.647459e+2, -1171641.8, -1282962.9, -35410.35, -0.015751509, -0.07969739, -1161332.8, 164146.2, 0.0, 10.001171, 9.999694 
7.150133e+2, 1.7474462e+2, -1321447.1, -1304857.5, -8392.333, 0.019599574, -0.19355121, -1301352.5, -73862.766, 0.0, 9.999465, 9.999698 
7.150116e+2, 1.8474428e+2, -1295562.4, -1286500.1, -5113.577, 0.041373506, -0.17471302, -1284199.0, -154706.17, 0.0, 9.999163, 9.999293 
7.150097e+2, 1.9474484e+2, -1006829.75, -1098046.9, -13213.625, 0.03425941, -0.06255102, -1004954.2, 26534.508, 0.0, 10.000473, 9.999284 
7.1500766e+2, 2.0474434e+2, -856292.6, -936504.7, -15944.643, 0.005764876, -0.056216985, -853239.3, 80253.664, 0.0, 10.000678, 9.9996195 
7.150056e+2, 2.147425e+2, -918902.7, -914402.3, -8346.772, -0.046583552, -0.21887368, -908007.7, -72499.63, 0.0, 9.99957, 9.999632 
7.150039e+2, 2.2474216e+2, -827857.2, -790308.9, 20139.074, -0.07887966, -0.22631057, -781550.3, -44040.875, 0.0, 9.999383, 9.999906 
7.1500283e+2, 2.3474337e+2, -611446.1, -634014.8, 47516.67, -0.09604357, -0.110979185, -573892.25, 65604.6, 0.0, 10.000192, 9.999915 
7.1500164e+2, 2.4474332e+2, -543210.06, -641682.06, 53650.617, -0.11975189, -0.067217596, -519627.3, 21870.676, 0.0, 10.00038, 9.999099 
7.1500045e+2, 2.5474167e+2, -519640.7, -580597.25, 56317.0, -0.15369439, -0.15544955, -486083.6, -42567.82, 0.0, 9.999874, 9.999088 
7.149994e+2, 2.6474088e+2, -457505.56, -445653.1, 12892.151, -0.1107754, -0.16709355, -437390.3, -91865.09, 0.0, 9.9994, 9.999571 
7.149986e+2, 2.7474082e+2, -442827.22, -386488.88, 41719.887, 0.021363422, -0.14822719, -364318.7, -116791.56, 0.000000020828322, 9.998818, 9.999583 
7.149975e+2, 2.847404e+2, -369785.22, -324884.97, 112122.87, 0.015555964, -0.13407592, -232986.73, -83455.195, 0.0000037854625, 9.998748, 9.999371 
7.149958e+2, 2.9473957e+2, -224563.4, -205275.0, 85431.17, -0.16576643, -0.17308925, -128945.4, -77405.99, 0.000035842306, 9.999075, 9.99936 
7.149932e+2, 3.0473894e+2, -76007.93, -65979.7, -82325.82, -0.23449558, -0.18655695, 11484.558, 11484.558, 0.00013552581, 9.999588, 9.999731 
7.1499044e+2, 3.1474134e+2, -21434.373, -44424.137, 4802.3267, -0.10103284, 0.06369127, -20471.541, -20471.541, 0.00031572883, 9.99995, 9.999703 
7.250249e+2, 1.2475179e+2, -1534842.5, -1744320.4, 7561.1465, -0.014661783, 0.003463581, -1534570.0, 182852.83, 0.0, 10.00168, 9.998997 
7.250211e+2, 1.3474934e+2, -1407629.1, -1631238.0, -54753.74, -0.09551277, -0.156141, -1394941.8, 224503.84, 0.0, 10.001913, 9.998981 
7.2502166e+2, 1.447485e+2, -1372866.9, -1582511.8, -10778.427, 0.1859347, -0.122099, -1372314.1, 149139.5, 0.0, 10.001555, 9.998807 
7.250177e+2, 1.547475e+2, -1406927.9, -1541099.1, -10851.837, -0.022069648, -0.124762066, -1406055.9, 17408.193, 0.0, 10.000626, 9.998861 
7.250147e+2, 1.647469e+2, -1320504.9, -1360108.9, -41051.902, -0.09319538, -0.10773869, -1294728.6, 30741.338, 0.0, 10.000158, 9.999659 
7.250134e+2, 1.7474666e+2, -1219920.6, -1256977.3, -73465.51, 0.04861988, -0.11460061, -1162683.0, 64788.875, 0.0, 10.000163, 9.999688 
7.2501177e+2, 1.8474643e+2, -1168607.3, -1215918.8, -19468.705, 0.10682691, -0.09082014, -1161626.0, -32152.342, 0.0, 9.999981, 9.999389 
7.2501e+2, 1.9474602e+2, -1133237.9, -1147253.5, -2270.5044, 0.06091403, -0.08580654, -1132879.3, -101402.27, 0.0, 9.999548, 9.999395 
7.25008e+2, 2.0474517e+2, -1023222.7, -1059133.1, -12939.364, 0.019731777, -0.100688584, -1019046.1, -85561.48, 0.0, 9.999707, 9.999251 
7.2500587e+2, 2.1474366e+2, -809960.8, -907185.5, -50342.95, -0.012476797, -0.19119442, -788590.5, 46908.473, 0.0, 10.0005, 9.999242 
7.2500384e+2, 2.2474343e+2, -678883.0, -680162.3, -38307.02, -0.06622136, -0.18533787, -641210.3, 96289.34, 0.0, 10.000243, 10.000247 
7.250018e+2, 2.3474452e+2, -783030.7, -678570.06, -39047.21, -0.14234066, -0.117213994, -665587.75, -26101.75, 0.0, 9.998847, 10.000261 
7.250006e+2, 2.4474448e+2, -810373.44, -723630.44, 1827.7261, -0.15655458, -0.109309696, -723591.94, -182106.4, 0.0, 9.998345, 9.999515 
7.250002e+2, 2.5474307e+2, -636668.44, -590587.4, 33262.027, -0.11168576, -0.2179177, -573165.25, -129664.4, 0.0, 9.998868, 9.999504 
7.249993e+2, 2.647429e+2, -451508.6, -408726.88, 5463.801, -0.04855811, -0.19910783, -408040.13, -62536.24, 0.0, 9.999303, 9.999866 
7.2499806e+2, 2.7474397e+2, -298424.34, -282749.3, -4449.4673, 0.050949413, -0.09552325, -281574.38, -34079.215, 0.000000011844985, 9.999668, 9.999884 
7.2499675e+2, 2.8474358e+2, -267177.66, -301856.5, 94663.89, 0.029251538, -0.0840351, -188278.27, -38778.01, 0.000004675658, 9.999577, 9.999126 
7.24995e+2, 2.9474148e+2, -255610.58, -250349.44, 107383.945, -0.1436736, -0.2208968, -145563.86, -94042.53, 0.000040333267, 9.998996, 9.999087 
7.2499263e+2, 3.0474132e+2, -113463.375, -28569.936, -16183.769, -0.2198595, -0.19722427, -25589.367, -25589.367, 0.00014552723, 9.999094, 10.000224 
7.2499096e+2, 3.1474388e+2, -1222.235, 25571.5, -13440.973, -0.024215398, 0.011405015, 31151.875, 31151.875, 0.0003309744, 9.999812, 10.000257 
7.350274e+2, 1.247525e+2, -1556594.4, -1792083.9, 17339.207, 0.028270354, -0.12519209, -1555324.5, 162089.08, 0.0, 10.001705, 9.998649 
7.350235e+2, 1.3475229e+2, -1444269.1, -1711378.3, -45278.324, -0.06611278, -0.0063686124, -1436802.6, 182616.25, 0.0, 10.001928, 9.998425 
7.3502296e+2, 1.4475165e+2, -1353896.4, -1537311.5, -50338.445, 0.14141971, 0.059628945, -1340989.3, 180436.33, 0.0, 10.001538, 9.999119 
7.3501813e+2, 1.5474862e+2, -1381646.1, -1498441.1, -36703.67, -0.06387256, -0.17911372, -1371069.5, 52383.37, 0.0, 10.000666, 9.999134 
7.3501503e+2, 1.6474773e+2, -1359237.5, -1443790.9, -49334.14, -0.094234794, -0.1764477, -1336543.5, -11081.091, 0.0, 10.0001745, 9.999073 
7.3501444e+2, 1.747491e+2, -1263593.5, -1345597.4, -67340.07, 0.12647165, 0.038629584, -1225754.8, 1698.6913, 0.0, 10.000155, 9.999085 
7.350127e+2, 1.847488e+2, -1136150.0, -1141133.1, -40103.832, 0.18226404, 0.060245942, -1098460.4, 30995.188, 0.0, 9.999951, 9.999916 
7.3500943e+2, 1.9474651e+2, -1102470.9, -1070232.8, -12606.641, 0.04243805, -0.17818478, -1065888.4, -34417.383, 0.0, 9.999497, 9.999946 
7.3500746e+2, 2.0474523e+2, -1084539.8, -1175456.5, 10100.516, -0.016566439, -0.22489914, -1083431.1, -149948.84, 0.0, 9.999657, 9.998478 
7.3500675e+2, 2.1474496e+2, -873796.7, -1024649.1, -13851.121, 0.012363526, -0.11385741, -872535.44, -37044.89, 0.0, 10.000437, 9.998463 
7.3500466e+2, 2.2474465e+2, -681166.94, -670254.4, -95508.16, -0.022341542, -0.080493346, -580046.75, 157447.1, 0.0, 10.000177, 10.000349 
7.3500085e+2, 2.3474415e+2, -786021.2, -665461.75, -85426.1, -0.1344352, -0.18658991, -621188.8, 18304.65, 0.0, 9.998762, 10.000393 
7.349991e+2, 2.4474393e+2, -754091.3, -591529.94, 14887.404, -0.14941499, -0.24764502, -590177.8, -48686.08, 0.0, 9.998281, 10.000453 
7.349997e+2, 2.547439e+2, -582042.44, -457893.6, 59141.65, -0.059833214, -0.3133083, -434230.22, 9259.874, 0.0, 9.998788, 10.000453 
7.3499894e+2, 2.6474503e+2, -461093.66, -415319.3, 14827.753, -0.02961488, -0.21420637, -410935.88, -65455.145, 0.0, 9.999247, 9.999848 
7.3499686e+2, 2.747472e+2, -310167.78, -294569.34, 18601.818, -0.05487318, 0.0054369397, -282197.9, -34732.824, 0.000000051096855, 9.999613, 9.999831 
7.349955e+2, 2.8474712e+2, -236853.61, -234212.48, 67627.33, -0.067207634, 0.029506607, -167892.83, -18425.176, 0.0000058850314, 9.999556, 9.9995985 
7.3499477e+2, 2.947446e+2, -235839.92, -191285.61, 95573.35, -0.0894864, -0.20180486, -115427.47, -63936.91, 0.000044056193, 9.9989195, 9.999528 
7.349927e+2, 3.0474424e+2, -134102.11, -64112.832, 10146.756, -0.14161725, -0.20916909, -62671.48, -62671.48, 0.00015023218, 9.999059, 9.999998 
7.349908e+2, 3.147449e+2, 1778.5145, 55188.184, 24733.324, -0.06067808, -0.16530208, 64882.324, 64882.324, 0.0003328002, 9.999712, 10.000506 
7.450298e+2, 1.24753356e+2, -1579520.8, -1765084.9, -23247.945, 0.13060048, -0.15246445, -1576652.5, 140752.25, 0.0, 10.00139, 9.998976 
7.450251e+2, 1.3475312e+2, -1566117.4, -1745406.3, -65689.13, -0.04646801, -0.05518168, -1544625.9, 74784.26, 0.0, 10.001001, 9.998629 
7.4502355e+2, 1.4475287e+2, -1466568.9, -1568132.8, -48902.684, 0.10120381, 0.029335238, -1446850.6, 74562.66, 0.0, 10.000659, 9.999331 
7.450194e+2, 1.5475081e+2, -1386406.6, -1473999.1, -57170.465, 0.005154081, -0.13596965, -1358185.0, 65246.47, 0.0, 10.000523, 9.999367 
7.450161e+2, 1.6474992e+2, -1367629.5, -1482234.8, -35934.992, -0.0022073884, -0.12948442, -1357294.0, -31852.76, 0.0, 10.000261, 9.998775 
7.4501467e+2, 1.7475021e+2, -1326305.1, -1409174.6, -42308.4, 0.14746694, 0.0083169965, -1308521.4, -81078.27, 0.0, 9.999864, 9.998793 
7.450124e+2, 1.8474966e+2, -1158199.0, -1153413.1, -6117.1567, 0.17024031, 0.022297194, -1149237.5, -19789.64, 0.0, 9.999813, 9.999896 
7.450092e+2, 1.94748e+2, -1008398.2, -1028015.8, -33007.65, 0.034859452, -0.15245423, -983772.75, 47685.043, 0.0, 10.000153, 9.999921 
7.4500716e+2, 2.0474707e+2, -1044340.4, -1126645.9, 13372.794, -0.017211046, -0.17782675, -1042222.06, -108756.35, 0.0, 9.99981, 9.9987335 
7.4500644e+2, 2.1474685e+2, -1106857.6, -1110092.0, 56492.664, 0.028354175, -0.084724426, -1051959.0, -216486.45, 0.0, 9.998721, 9.998703 
7.450045e+2, 2.2474636e+2, -912967.25, -819611.75, 12553.128, 0.017485622, -0.06459442, -817953.25, -80475.234, 0.0, 9.998754, 10.000007 
7.4500084e+2, 2.3474546e+2, -627737.7, -628415.1, -27605.723, -0.06717091, -0.17614585, -600468.6, 39014.766, 0.0, 10.000016, 10.000043 
7.4499875e+2, 2.4474528e+2, -475406.56, -412193.34, 34561.457, -0.09613358, -0.23477198, -396965.44, 144515.66, 0.0, 9.999997, 10.000861 
7.4499834e+2, 2.5474584e+2, -574382.5, -407591.4, 25239.51, -0.05910593, -0.28407097, -403855.72, 39615.86, 0.0, 9.998634, 10.000877 
7.449973e+2, 2.6474687e+2, -605646.6, -497821.56, 7338.422, -0.06685122, -0.20758753, -497324.4, -151862.28, 0.0, 9.9983, 9.999742 
7.449956e+2, 2.7474838e+2, -389737.53, -344170.4, -4857.1636, -0.11177559, -0.046849098, -343658.44, -96204.17, 0.00000017449423, 9.999115, 9.999729 
7.449945e+2, 2.847486e+2, -265126.9, -205048.23, 2514.7415, -0.09745782, -0.006642242, -204943.16, -55489.266, 0.0000070145306, 9.999183, 9.999975 
7.44994e+2, 2.947474e+2, -273227.8, -163406.11, 9849.501, -0.029727196, -0.14377184, -162529.73, -111067.48, 0.00004543542, 9.99847, 9.999932 
7.449925e+2, 3.0474693e+2, -180922.11, -147078.73, -2083.9392, -0.053818367, -0.15900403, -146950.9, -146950.9, 0.00014809403, 9.998994, 9.999467 
7.4499154e+2, 3.147456e+2, 139170.67, 114276.875, -42482.336, -0.002121914, -0.2570491, 170991.98, 170991.98, 0.00032277982, 10.0006895, 10.000445 
7.55032e+2, 1.2475442e+2, -1508824.5, -1620105.5, -51404.168, 0.16966416, -0.07906565, -1488713.8, 228681.83, 0.0, 10.001404, 9.999961 
7.5502574e+2, 1.3475177e+2, -1500268.4, -1616236.0, -77469.89, -0.097777024, -0.31464246, -1461486.0, 157934.38, 0.0, 10.001035, 9.999497 
7.550235e+2, 1.447521e+2, -1454765.1, -1547577.6, -62520.832, 0.012040432, -0.22129151, -1423310.0, 98107.36, 0.0, 10.000675, 9.999465 
7.5502115e+2, 1.5475413e+2, -1374933.8, -1452347.0, -54665.043, 0.11826704, 0.0116381105, -1346659.3, 76739.945, 0.0, 10.000529, 9.999515 
7.5501776e+2, 1.6475356e+2, -1366285.1, -1479656.0, -57132.445, 0.11819142, 0.038419496, -1342488.5, -17082.816, 0.0, 10.000263, 9.998791 
7.550137e+2, 1.7475009e+2, -1327441.0, -1413232.9, -50829.023, 0.05301187, -0.19876955, -1303826.5, -76386.76, 0.0, 9.999872, 9.998761 
7.550107e+2, 1.8474907e+2, -1198193.8, -1233019.9, -345.48508, 0.009413056, -0.2022282, -1198190.4, -68740.15, 0.0, 9.999798, 9.999357 
7.550089e+2, 1.9475053e+2, -1054795.0, -1110583.4, -13276.467, -0.026418196, -0.008112752, -1051796.6, -20359.611, 0.0, 10.000097, 9.99938 
7.5500685e+2, 2.0475072e+2, -965737.1, -952863.75, -32896.664, -0.038134024, 0.044905547, -925780.0, 7654.5425, 0.0, 9.999759, 9.999954 
7.550048e+2, 2.1474935e+2, -1029732.8, -928712.5, 21048.89, -0.019109929, -0.10451055, -924502.2, -89057.25, 0.0, 9.998633, 9.9999895 
7.550031e+2, 2.2474863e+2, -981063.56, -940533.8, 53121.535, -0.0028688174, -0.13481474, -903943.06, -166491.53, 0.0, 9.998666, 9.999221 
7.5500166e+2, 2.347485e+2, -698175.25, -756315.3, 28116.805, 0.0004581225, -0.081987046, -686802.5, -47347.13, 0.0, 9.999942, 9.9992 
7.5499934e+2, 2.4474864e+2, -491893.38, -436242.16, -20697.275, -0.056802657, -0.061202776, -429388.63, 112064.27, 0.0, 9.999952, 10.000716 
7.5499594e+2, 2.5474882e+2, -590318.56, -429808.88, -20700.473, -0.17754923, -0.13439594, -427182.16, 16263.584, 0.0, 9.998585, 10.000751 
7.5499415e+2, 2.6474854e+2, -623433.0, -522626.53, 31898.83, -0.2264912, -0.18030673, -513380.63, -167932.53, 0.0, 9.998253, 9.999592 
7.549941e+2, 2.7474755e+2, -414658.03, -375792.7, 35069.563, -0.18914166, -0.24850327, -355131.7, -107669.23, 0.0000002213921, 9.999031, 9.999553 
7.549937e+2, 2.8474805e+2, -252284.4, -168952.34, -28226.664, -0.12108306, -0.18694586, -160291.42, -10832.753, 0.000006961638, 9.999139, 10.000248 
7.549926e+2, 2.9474995e+2, -260935.34, -125480.586, -9012.628, -0.030749757, -0.040241737, -124883.555, -73446.95, 0.00004401986, 9.998407, 10.00023 
7.549919e+2, 3.0474934e+2, -248863.31, -266789.38, 58543.723, -0.028454646, -0.045188934, -198600.47, -198600.47, 0.0001416952, 9.998919, 9.998673 
7.549927e+2, 3.147458e+2, 95031.07, 50183.336, 32015.303, 0.015930358, -0.2825419, 111694.41, 111694.41, 0.00030697437, 10.000579, 10.000054 
7.6503414e+2, 1.2475667e+2, -1376739.3, -1573609.9, 113392.25, 0.20722131, -0.12939487, -1325016.9, 392354.6, 0.0, 10.002347, 9.999835 
7.650272e+2, 1.3475439e+2, -1505202.1, -1646644.3, -23001.828, -0.05523533, -0.30494916, -1501555.5, 117838.26, 0.0, 10.0011, 9.999263 
7.650241e+2, 1.4475459e+2, -1478695.1, -1582486.0, -3242.0923, 0.0132226385, -0.20508999, -1478593.9, 42799.176, 0.0, 10.000608, 9.99926 
7.6502234e+2, 1.5475617e+2, -1285940.0, -1435336.6, -34694.95, 0.14543423, 0.0060481117, -1278275.9, 145104.33, 0.0, 10.0012455, 9.999291 
7.650187e+2, 1.6475534e+2, -1205085.1, -1383936.0, -59368.984, 0.13846359, 0.01124157, -1187171.9, 138216.31, 0.0, 10.001291, 9.998953 
7.6501364e+2, 1.7475179e+2, -1201528.6, -1330925.3, -53251.41, 0.022042662, -0.25354838, -1182432.0, 44987.93, 0.0, 10.000645, 9.998953 
7.650105e+2, 1.8475075e+2, -1148594.1, -1248117.4, 49951.652, -0.016238797, -0.25371635, -1127847.6, 1582.8632, 0.0, 10.000303, 9.999012 
7.6500946e+2, 1.9475229e+2, -1052995.6, -1150930.8, 40883.33, 0.01891067, -0.016507002, -1038172.44, -6752.5835, 0.0, 10.000281, 9.999018 
7.650073e+2, 2.0475252e+2, -885835.5, -902330.1, -26114.707, 0.012199662, 0.05633238, -866696.75, 66721.195, 0.0, 10.00026, 10.00006 
7.6500404e+2, 2.1475112e+2, -786942.7, -800356.7, -73573.164, -0.037487898, -0.1066236, -719771.44, 115656.32, 0.0, 10.000245, 10.000097 
7.650021e+2, 2.2475046e+2, -808950.2, -847996.0, -15460.776, -0.028790258, -0.14207761, -803569.7, -66136.17, 0.0, 9.999812, 9.999301 
7.650014e+2, 2.3475052e+2, -843141.9, -818376.5, 15734.013, 0.037066013, -0.07821176, -810736.94, -171301.28, 0.0, 9.998917, 9.999267 
7.649991e+2, 2.447507e+2, -730008.5, -605083.5, -25947.996, -0.004136904, -0.03248613, -599908.25, -58474.39, 0.0, 9.998554, 10.00023 
7.6499474e+2, 2.5475088e+2, -597447.9, -485376.63, -65835.5, -0.16214706, -0.055692025, -454958.2, -11529.442, 0.0, 9.998776, 10.00027 
7.6499283e+2, 2.6475027e+2, -527858.4, -481160.06, 23250.584, -0.21384579, -0.10563379, -471558.13, -126123.57, 0.0, 9.998933, 9.999549 
7.649936e+2, 2.7474862e+2, -420930.53, -380335.5, 23158.352, -0.13532248, -0.2385639, -369838.56, -122384.49, 0.00000016204108, 9.998999, 9.9995365 
7.6499325e+2, 2.8474888e+2, -240502.7, -179620.16, -53073.5, -0.075950906, -0.19416162, -148877.55, 574.0697, 0.000006290961, 9.999283, 10.000109 
7.649915e+2, 2.94751e+2, -70898.56, -43730.965, -77978.086, -0.044450175, -0.014639887, 21837.633, 73264.375, 0.000041719115, 9.999761, 10.000134 
7.6499104e+2, 3.0474985e+2, -153399.06, -229651.44, 32442.357, -0.03497646, -0.062090997, -141464.16, -141464.16, 0.00013461517, 9.999611, 9.998593 
7.6499295e+2, 3.1474662e+2, -206022.84, -99666.53, 31707.186, 0.0943682, -0.2608805, -90931.34, -90931.34, 0.00029000925, 9.998546, 9.999993 
7.750359e+2, 1.2476007e+2, -1459541.1, -1742182.6, 43100.953, 0.10832713, -0.30572316, -1453114.6, 264218.06, 0.00000000003061157, 10.002339, 9.998679 
7.750292e+2, 1.3476099e+2, -1590441.6, -1831040.5, -69428.83, 0.013936178, -0.03170283, -1571844.4, 47485.977, 0.0, 10.001131, 9.997982 
7.750251e+2, 1.4476031e+2, -1515007.8, -1663189.0, 10092.278, 0.035708558, 0.07346733, -1514323.5, 7017.0884, 0.0, 10.000629, 9.998698 
7.750225e+2, 1.54757e+2, -1319736.4, -1515321.6, -3423.2727, 0.025467021, -0.14842185, -1319676.5, 103697.484, 0.0, 10.001282, 9.998729 
7.7501875e+2, 1.6475534e+2, -1182541.3, -1334603.8, -88963.91, 0.00060524663, -0.21308641, -1141545.5, 183842.97, 0.0, 10.001284, 9.999291 
7.7501416e+2, 1.7475532e+2, -1175782.5, -1275943.6, -69595.36, -0.0031693017, -0.16070843, -1140121.8, 87261.96, 0.0, 10.000639, 9.999332 
7.750115e+2, 1.8475471e+2, -1163509.8, -1272867.4, 43615.633, 0.033451118, -0.12937482, -1148245.1, -18856.574, 0.0, 10.000274, 9.9988575 
7.750108e+2, 1.9475332e+2, -1070492.5, -1176932.4, 46324.87, 0.10842944, -0.17018919, -1053154.9, -21749.64, 0.0, 10.000235, 9.998862 
7.750084e+2, 2.0475253e+2, -969495.5, -1059390.0, -33675.42, 0.07421054, -0.14119376, -958279.7, -24864.023, 0.0, 10.000189, 9.999018 
7.7500397e+2, 2.1475224e+2, -873050.94, -960248.94, -68140.05, -0.08427018, -0.087368555, -835755.4, -334.6473, 0.0, 10.000167, 9.999037 
7.7500105e+2, 2.2475192e+2, -756925.4, -720104.7, -54928.1, -0.121949755, -0.07886941, -680583.7, 56839.67, 0.0, 9.999726, 10.000221 
7.7499986e+2, 2.3475137e+2, -785881.44, -681337.2, -11456.407, -0.022302696, -0.17255607, -680096.44, -40671.082, 0.0, 9.998836, 10.000247 
7.749978e+2, 2.4475141e+2, -797351.94, -727808.94, -25172.396, -0.0014744321, -0.1521491, -719653.7, -178229.33, 0.0, 9.998484, 9.999421 
7.7499455e+2, 2.5475198e+2, -667352.06, -615767.4, -50215.832, -0.06955995, -0.049531724, -585107.3, -141686.55, 0.0, 9.998713, 9.999407 
7.7499324e+2, 2.647521e+2, -531747.2, -478949.38, 21585.746, -0.07956982, 0.0139141735, -471247.75, -125825.86, 0.0, 9.998887, 9.999588 
7.7499396e+2, 2.7475145e+2, -423783.84, -374733.47, 32657.922, -0.016947765, -0.021056207, -358417.2, -110987.0, 0.00000014054619, 9.998942, 9.999606 
7.749931e+2, 2.8475097e+2, -282349.8, -251644.98, -40667.383, -0.03292924, -0.032498144, -223528.64, -74094.99, 0.0000059856334, 9.999224, 9.999639 
7.749905e+2, 2.9475033e+2, -111205.33, -119957.78, -52244.4, -0.14250118, -0.079260066, -63154.19, -11719.922, 0.0000396548, 9.999724, 9.99963 
7.749897e+2, 3.047484e+2, -113846.04, -137050.06, -7059.223, -0.13431048, -0.21540403, -111867.21, -111867.21, 0.00012692052, 9.999568, 9.999248 
7.749919e+2, 3.14748e+2, -204004.38, -75497.91, 5460.541, 0.095250264, -0.19596936, -75266.3, -75266.3, 0.00027213217, 9.99845, 10.000212 
7.8503805e+2, 1.2476471e+2, -1624337.1, -1850821.3, -30484.354, 0.1424398, -0.23949869, -1620305.8, 96984.15, 0.0000000009851104, 10.001343, 9.998411 
7.850319e+2, 1.3476491e+2, -1420548.4, -1788452.5, -95276.34, 0.112518184, -0.0013876664, -1397338.8, 221954.84, 0.0, 10.002482, 9.997617 
7.85027e+2, 1.4476356e+2, -1301992.4, -1606209.5, 24561.555, 0.08450677, 0.07433032, -1300022.1, 221288.23, 0.0, 10.002286, 9.998291 
7.850232e+2, 1.5475999e+2, -1434964.8, -1617065.9, 9371.251, -0.0037587557, -0.13166502, -1434483.8, -11137.224, 0.0, 10.000698, 9.998308 
7.850192e+2, 1.6475831e+2, -1327543.3, -1407024.8, -49455.707, -0.028075196, -0.17473224, -1303839.5, 21521.826, 0.0, 10.000304, 9.99926 
7.8501564e+2, 1.7475854e+2, -1101387.1, -1241718.0, -74892.03, 0.055825386, -0.09686324, -1068927.0, 158427.48, 0.0, 10.001164, 9.999306 
7.8501296e+2, 1.8475768e+2, -1031189.44, -1210525.3, 19015.602, 0.11076295, -0.0897701, -1029195.3, 100165.78, 0.0, 10.001191, 9.998843 
7.850112e+2, 1.9475542e+2, -1073355.6, -1178321.5, 19496.166, 0.12884028, -0.21505496, -1069851.5, -38466.906, 0.0, 10.000223, 9.998855 
7.8500855e+2, 2.0475438e+2, -1007859.44, -1108189.5, 15582.643, 0.08385299, -0.19681612, -1005494.94, -72097.914, 0.0, 10.00006, 9.99874 
7.8500485e+2, 2.1475457e+2, -822942.4, -969058.0, 27119.166, -0.030412778, -0.065979, -818071.44, 17327.38, 0.0, 10.000658, 9.998735 
7.850017e+2, 2.2475418e+2, -620259.94, -693312.44, 3484.1763, -0.081786305, -0.031747915, -620094.1, 117309.26, 0.0, 10.000824, 9.999879 
7.849991e+2, 2.3475303e+2, -569459.3, -614716.1, -65335.81, -0.06118147, -0.15325613, -522944.3, 116468.27, 0.0, 10.000484, 9.999909 
7.849968e+2, 2.4475268e+2, -539582.06, -619783.5, -66745.35, -0.03193552, -0.14528254, -501817.47, 39598.094, 0.0, 10.000325, 9.999271 
7.8499484e+2, 2.547531e+2, -436950.03, -522513.0, -51340.027, 0.00497847, -0.04268287, -412902.97, 30509.96, 0.0, 10.000365, 9.999249 
7.8499347e+2, 2.6475307e+2, -426077.97, -459947.97, 20303.564, 0.01644752, 0.028184732, -416573.8, -71159.12, 0.0, 9.999746, 9.999308 
7.849928e+2, 2.7475235e+2, -518722.94, -450692.94, -7658.608, 0.007558248, 0.010748824, -449841.44, -202418.77, 0.0000001311964, 9.998421, 9.999335 
7.849918e+2, 2.8475147e+2, -416521.22, -320729.6, -11838.364, -0.03157757, -0.02460118, -319288.25, -169858.75, 0.0000058891046, 9.998319, 9.999603 
7.849905e+2, 2.947502e+2, -147895.86, -138226.25, 316.20163, -0.10004191, -0.12505093, -138215.92, -86779.64, 0.000037489564, 9.999482, 9.99962 
7.8498954e+2, 3.0474883e+2, -94102.41, -85214.555, -5981.763, -0.10323041, -0.22408362, -82206.63, -82206.63, 0.00011865352, 9.999496, 9.999647 
7.849899e+2, 3.1475002e+2, -254074.19, -99327.695, -41390.047, 0.071867906, -0.09172917, -88952.69, -88952.69, 0.0002544846, 9.998082, 10.000232 
7.9504e+2, 1.2477075e+2, -1579184.5, -1770227.1, -13919.046, 0.17104135, 0.069591366, -1578175.6, 139065.55, 0.0000000034592607, 10.001405, 9.998936 
7.9503524e+2, 1.3476627e+2, -1373927.4, -1701366.9, -49794.35, 0.17578073, -0.21405463, -1366522.5, 252760.13, 0.0, 10.002529, 9.998189 
7.9502964e+2, 1.4476441e+2, -1319782.1, -1645581.3, -40988.523, 0.09915566, -0.2059885, -1314704.5, 206596.97, 0.0, 10.002297, 9.998014 
7.9502404e+2, 1.5476516e+2, -1448941.3, -1653728.3, -41476.563, -0.01030884, 0.04392578, -1440859.8, -17561.693, 0.0, 10.000728, 9.998041 
7.950199e+2, 1.6476427e+2, -1361237.1, -1473644.0, -24856.23, -0.010658214, 0.116698876, -1355986.0, -30678.715, 0.0, 10.000288, 9.998814 
7.9501784e+2, 1.7476149e+2, -1129078.9, -1306038.8, -36469.656, 0.14211635, -0.05991343, -1121857.5, 105474.195, 0.0, 10.001187, 9.998857 
7.9501474e+2, 1.8475963e+2, -1028378.75, -1196762.6, -21858.275, 0.15708046, -0.13572091, -1025587.56, 103760.61, 0.0, 10.001157, 9.998953 
7.950104e+2, 1.9475855e+2, -1068057.6, -1160596.0, -10058.413, 0.007902245, -0.15717605, -1066976.9, -35619.156, 0.0, 10.000193, 9.99899 
7.9500765e+2, 2.0475806e+2, -986888.25, -1045600.8, 29532.791, -0.024107633, -0.11399925, -974603.44, -41241.242, 0.0, 9.99998, 9.999208 
7.9500663e+2, 2.1475802e+2, -799295.06, -904036.44, 55672.47, 0.07019818, -0.052348197, -775232.0, 60130.9, 0.0, 10.000589, 9.999216 
7.950038e+2, 2.2475724e+2, -746471.6, -933289.94, -13878.298, 0.035520084, -0.0049780593, -745446.25, -8072.537, 0.0, 10.0007305, 9.998276 
7.949989e+2, 2.3475549e+2, -696723.44, -862232.06, -70735.195, -0.14201276, -0.018192107, -670612.0, -31215.277, 0.0, 10.000408, 9.998248 
7.94996e+2, 2.4475454e+2, -515154.7, -553465.2, -72126.086, -0.15992837, -0.01161523, -459683.56, 81723.734, 0.0, 10.000259, 9.999759 
7.949953e+2, 2.5475422e+2, -410587.9, -450188.1, -44657.53, -0.0012213247, -0.036743224, -381537.84, 61868.18, 0.0, 10.000289, 9.9997835 
7.949933e+2, 2.6475316e+2, -472931.6, -546471.6, -34983.82, 0.011954121, -0.065798126, -458948.28, -113534.71, 0.0, 9.999698, 9.998736 
7.9499e+2, 2.747512e+2, -570397.56, -547187.7, -49227.563, -0.13161764, -0.1513195, -508215.7, -260783.34, 0.000000103459534, 9.998371, 9.998698 
7.9498935e+2, 2.847503e+2, -395260.72, -267057.75, 26172.893, -0.1325463, -0.16787548, -261920.36, -112481.31, 0.0000054454867, 9.99828, 9.9999895 
7.949912e+2, 2.9475063e+2, -128242.31, -82942.305, 55919.063, 0.009656576, -0.15455124, -45260.19, 6172.686, 0.00003447301, 9.999415, 10.000035 
7.949902e+2, 3.0475116e+2, -88869.92, -60780.188, -59222.207, -0.0082188705, -0.09658406, -13960.219, -13960.219, 0.0001104858, 9.999444, 9.999837 
7.949864e+2, 3.147526e+2, -288308.56, -146799.92, -77686.38, -0.116606176, 0.04425261, -112476.42, -112476.42, 0.000240168, 9.997982, 9.999953 
8.0504197e+2, 1.24775365e+2, -1560143.1, -1725835.1, 37317.176, 0.23905154, 0.20192848, -1552126.5, 165075.27, 0.0000000057252847, 10.001391, 9.999254 
8.050373e+2, 1.347701e+2, -1533102.3, -1745067.1, -25349.707, 0.20005025, -0.19167855, -1530112.8, 89135.625, 0.0, 10.001284, 9.998506 
8.050316e+2, 1.4476775e+2, -1420000.3, -1654938.1, -25984.273, 0.10632382, -0.26379955, -1417160.6, 104108.52, 0.0, 10.001451, 9.998356 
8.0502623e+2, 1.547689e+2, -1232754.0, -1516160.1, -3645.401, 0.075972006, -0.0023438556, -1232707.1, 190551.8, 0.0, 10.002074, 9.998337 
8.050218e+2, 1.6476817e+2, -1135210.8, -1427929.0, 67242.71, 0.0692139, 0.09726164, -1120502.9, 204764.3, 0.0, 10.002109, 9.998257 
8.0501884e+2, 1.7476527e+2, -1136980.1, -1375219.9, 34459.09, 0.11558485, -0.031939104, -1132096.1, 95200.55, 0.0, 10.001422, 9.998272 
8.0501527e+2, 1.847633e+2, -1028156.56, -1232904.4, 24548.88, 0.093623996, -0.07261343, -1025254.4, 104061.86, 0.0, 10.001322, 9.998621 
8.050111e+2, 1.9476213e+2, -863731.56, -1103077.8, -12307.465, -0.015113107, -0.06677395, -863100.3, 168226.25, 0.0, 10.001776, 9.998624 
8.050083e+2, 2.0476139e+2, -742286.4, -895774.6, 13432.389, -0.028071873, -0.044463016, -741119.75, 192212.83, 0.0, 10.00152, 9.999497 
8.050071e+2, 2.1476088e+2, -808671.25, -873764.56, 12031.507, 0.069066346, -0.060998037, -806518.6, 28816.928, 0.0, 10.000379, 9.999525 
8.0500424e+2, 2.2476014e+2, -878153.2, -1011271.1, 7254.241, 0.047718942, -0.018193725, -877759.06, -140413.89, 0.0, 9.999891, 9.998141 
8.049995e+2, 2.3475903e+2, -758306.4, -907054.7, 53181.863, -0.107182965, 0.045876384, -741248.44, -101885.375, 0.0, 10.000057, 9.998106 
8.0499643e+2, 2.4475792e+2, -556965.5, -636620.8, 92056.24, -0.1363081, 0.071218885, -496490.66, 44885.785, 0.0, 10.0002365, 9.999205 
8.0499536e+2, 2.5475657e+2, -429900.4, -522944.56, 23218.299, -0.021166224, -0.00089468097, -424428.3, 18958.477, 0.0, 10.0004225, 9.999226 
8.049931e+2, 2.6475504e+2, -314776.4, -456690.13, 9120.261, -0.022269893, -0.05763442, -314192.7, 31205.531, 0.0, 10.000722, 9.998858 
8.0498964e+2, 2.747531e+2, -154925.8, -328666.72, 37751.53, -0.14330187, -0.15428002, -147077.44, 100335.32, 0.00000004701224, 10.001142, 9.998862 
8.049885e+2, 2.8475213e+2, -148632.83, -179950.81, 123348.7, -0.12574078, -0.1740955, -39953.145, 109466.99, 0.000004093495, 10.000114, 9.9997015 
8.0499e+2, 2.9475224e+2, -413848.28, -251977.14, 83470.76, 0.03823273, -0.15441197, -216646.06, -165226.02, 0.000029631305, 9.997596, 9.999745 
8.049883e+2, 3.0475363e+2, -461688.22, -187483.94, -25802.486, 0.01418213, -0.013911575, -185077.06, -185077.06, 0.00010221737, 9.996661, 10.000317 
8.049839e+2, 3.1475523e+2, -354842.25, -113023.02, -38489.883, -0.12828828, 0.09457558, -107044.47, -107044.47, 0.00023173615, 9.997258, 10.000539 
8.1504345e+2, 1.247787e+2, -1551707.5, -1717818.8, 3722.548, 0.20698187, 0.16287687, -1551624.1, 165545.98, 0.000000004999778, 10.00144, 9.999282 
8.150379e+2, 1.3477638e+2, -1519659.0, -1721393.6, -24781.629, 0.115723036, 0.050209183, -1516659.3, 102531.38, 0.0, 10.001311, 9.998648 
8.150326e+2, 1.4477366e+2, -1363651.1, -1540037.5, -9810.484, 0.040397666, -0.10381619, -1363107.1, 158105.6, 0.0, 10.001456, 9.999146 
8.150297e+2, 1.5477134e+2, -1168402.4, -1392768.6, 28711.768, 0.190041, -0.27046573, -1164786.5, 258442.02, 0.0, 10.002112, 9.999168 
8.1502485e+2, 1.6477007e+2, -1184184.0, -1529401.3, 34633.754, 0.14639245, -0.23332697, -1180743.8, 144496.84, 0.0, 10.00211, 9.997558 
8.1501836e+2, 1.7476983e+2, -1185825.5, -1478093.4, 15051.219, -0.08708812, -0.025036816, -1185052.5, 42197.168, 0.0, 10.001427, 9.997561 
8.150144e+2, 1.8476866e+2, -1092227.0, -1356679.0, 36474.617, -0.13873968, 0.09089489, -1087288.4, 41976.934, 0.0, 10.00128, 9.997794 
8.150131e+2, 1.9476624e+2, -925447.56, -1226811.3, 12811.591, -0.00436439, 0.053432517, -924903.9, 106386.664, 0.0, 10.001752, 9.997787 
8.150103e+2, 2.0476443e+2, -751417.06, -893411.44, -34492.98, 0.012662769, 0.009541559, -743481.6, 189825.84, 0.0, 10.0014305, 9.999557 
8.150059e+2, 2.1476312e+2, -813741.8, -865592.0, -24307.941, -0.095498435, -0.09444315, -804128.4, 31188.178, 0.0, 10.000297, 9.99962 
8.150026e+2, 2.2476287e+2, -799083.7, -822544.25, 5907.1147, -0.108283095, -0.073290884, -797680.3, -60362.52, 0.0, 9.999786, 9.999488 
8.150005e+2, 2.3476356e+2, -673454.25, -712018.1, 66126.4, -0.022661045, 0.032941453, -623855.9, 15456.236, 0.0, 9.999975, 9.999485 
8.149979e+2, 2.4476276e+2, -677278.44, -873068.44, 92256.8, -0.024248442, 0.0967399, -640656.7, -99333.07, 0.0, 10.0001745, 9.997614 
8.14995e+2, 2.5476018e+2, -554952.5, -772354.2, 36778.863, -0.11650973, 0.06633327, -548899.0, -105543.86, 0.0, 10.000371, 9.997543 
8.149927e+2, 2.6475862e+2, -261552.0, -331541.3, 19873.059, -0.14394969, 0.052991573, -256302.84, 89065.625, 0.0, 10.000668, 9.999742 
8.1499135e+2, 2.7475807e+2, -105318.03, -200138.2, 62418.668, -0.09831371, 0.0024526007, -74345.68, 173018.02, 0.000000004527389, 10.00104, 9.999792 
8.1498927e+2, 2.8475684e+2, -221258.03, -326016.7, 23466.914, -0.078869775, -0.04429094, -216241.45, -66868.24, 0.0000024308686, 10.000084, 9.998717 
8.1498647e+2, 2.9475492e+2, -498205.53, -418148.75, -5097.078, -0.088192545, -0.122185364, -417825.53, -366427.1, 0.00002455122, 9.997548, 9.998632 
8.14984e+2, 3.0475625e+2, -412956.78, -71424.266, -6205.2, -0.09855073, 0.030631743, -71311.56, -71311.56, 0.00009685274, 9.996609, 10.001129 
8.149817e+2, 3.1475782e+2, -284533.75, 68583.26, 1945.1311, -0.10295444, 0.045074966, 68593.97, 68593.97, 0.00023258898, 9.997111, 10.001853 
8.25045e+2, 1.2478021e+2, -1600588.6, -1700559.5, -49610.727, 0.25226048, 0.010640734, -1580148.4, 137007.53, 0.0000000017683296, 10.000905, 9.999658 
8.2503873e+2, 1.347808e+2, -1577429.1, -1701490.9, -67914.25, 0.105708756, 0.14079691, -1547480.9, 71669.13, 0.0, 10.000696, 9.999081 
8.250333e+2, 1.4477892e+2, -1465748.1, -1578798.6, -21203.863, 0.01571239, 0.04368125, -1461902.0, 59262.332, 0.0, 10.000713, 9.999234 
8.2503146e+2, 1.5477549e+2, -1312912.9, -1453732.1, -51190.863, 0.2115582, -0.24096225, -1296270.8, 126919.12, 0.0, 10.001091, 9.999236 
8.250269e+2, 1.647736e+2, -1273669.3, -1591194.5, -61663.496, 0.16888353, -0.26023433, -1262114.6, 63092.516, 0.0, 10.001581, 9.99738 
8.2501996e+2, 1.7477334e+2, -1092480.5, -1458496.4, -56665.24, -0.108980335, -0.037418395, -1083908.5, 143307.89, 0.0, 10.002173, 9.997335 
8.250158e+2, 1.8477198e+2, -977356.7, -1316170.8, 18918.85, -0.16560516, 0.07994179, -976303.56, 152929.77, 0.0, 10.002141, 9.997654 
8.2501477e+2, 1.9476925e+2, -994408.56, -1274506.5, 31639.287, 0.008743024, 0.025279291, -990879.1, 40381.848, 0.0, 10.001355, 9.997645 
8.2501155e+2, 2.0476723e+2, -881815.5, -1013123.5, -19383.844, 0.026462384, -0.006868617, -879013.8, 54267.04, 0.0, 10.000777, 9.999046 
8.25006e+2, 2.1476594e+2, -844415.8, -939484.1, -68676.41, -0.11837806, -0.058725927, -808427.8, 26865.146, 0.0, 10.000341, 9.99909 
8.250025e+2, 2.2476564e+2, -704141.9, -724843.94, -45190.387, -0.120976664, -0.037307017, -668132.2, 69161.664, 0.0, 10.00021, 9.999959 
8.250011e+2, 2.3476623e+2, -588370.56, -616106.8, -65911.26, 0.029901939, 0.010692737, -534884.25, 104400.36, 0.0, 10.000323, 9.999978 
8.2499886e+2, 2.447655e+2, -661824.7, -849536.75, -5032.9287, 0.046542205, 0.05020299, -661689.8, -120396.55, 0.0, 10.000222, 9.997746 
8.2499546e+2, 2.547632e+2, -608474.8, -778236.06, 62031.164, -0.07826093, 0.03423704, -588224.1, -144901.5, 0.0, 9.99994, 9.997701 
8.249931e+2, 2.6476192e+2, -443876.47, -429843.13, 86764.32, -0.11407807, 0.043048345, -349812.22, -4477.628, 0.0, 9.999454, 9.999656 
8.249917e+2, 2.7476153e+2, -450304.4, -375663.47, 39148.215, -0.045897376, 0.018792273, -358896.97, -111567.18, 0.0, 9.998705, 9.999713 
8.249889e+2, 2.8476036e+2, -475009.97, -463466.3, -29300.918, -0.034688067, -0.015314309, -439374.16, -290034.13, 0.000001518397, 9.998409, 9.998581 
8.249846e+2, 2.9475817e+2, -360855.03, -367704.6, -3384.5657, -0.074485615, -0.102793396, -359464.8, -308097.3, 0.000022026383, 9.998559, 9.998491 
8.249816e+2, 3.0475897e+2, -148187.88, 13490.977, 56622.586, -0.09860355, 0.02191245, 31348.715, 31348.715, 0.00009707927, 9.998603, 10.000744 
8.2497925e+2, 3.147594e+2, -65111.363, 199456.39, -58300.508, -0.120788954, -0.047153056, 211733.83, 211733.83, 0.00024342752, 9.998501, 10.00207 
8.3504605e+2, 1.2477992e+2, -1546841.3, -1592199.0, -85583.63, 0.23512217, -0.26026577, -1480982.6, 236176.33, 0.000000000051048894, 10.000923, 10.00039 
8.350397e+2, 1.3478343e+2, -1508987.6, -1573787.1, -69225.45, 0.10775056, 0.08045353, -1464955.0, 154170.02, 0.0, 10.000756, 9.9999275 
8.350337e+2, 1.4478359e+2, -1508128.3, -1675418.1, -14695.34, -0.038806707, 0.17589441, -1506847.1, 14275.737, 0.0, 10.0007515, 9.998551 
8.350313e+2, 1.5478134e+2, -1356464.6, -1549321.4, -29797.21, 0.06705539, 0.07680333, -1351965.8, 71177.08, 0.0, 10.001113, 9.998568 
8.350277e+2, 1.647788e+2, -1254169.8, -1545126.1, -44678.46, 0.075534165, 0.0075297304, -1247463.6, 77703.29, 0.0, 10.001557, 9.99771 
8.3502334e+2, 1.7477588e+2, -1063976.8, -1404736.6, -25078.014, -0.0060603493, -0.06554202, -1062141.0, 165054.86, 0.0, 10.002197, 9.997693 
8.3501935e+2, 1.8477336e+2, -944721.8, -1248206.0, -15905.094, -0.044392005, -0.104862615, -943890.5, 185328.8, 0.0, 10.002135, 9.998127 
8.350158e+2, 1.9477105e+2, -961221.4, -1200939.5, 9276.7295, -0.044927094, -0.16555466, -960862.94, 70375.94, 0.0, 10.0013275, 9.998167 
8.3501166e+2, 2.0476973e+2, -970386.75, -1177756.1, -42349.28, -0.051988374, -0.1039367, -962071.56, -28817.906, 0.0, 10.000695, 9.997954 
8.35007e+2, 2.147693e+2, -933338.75, -1108102.4, -77615.945, -0.063620925, 0.04187845, -903845.4, -68580.61, 0.0, 10.000274, 9.997962 
8.3500355e+2, 2.2476849e+2, -745737.4, -792718.25, -49584.89, -0.047209952, 0.0906026, -714360.1, 22912.9, 0.0, 10.000126, 9.9995365 
8.350012e+2, 2.3476712e+2, -625150.8, -679350.3, -54746.773, -0.012385176, -0.018881438, -591163.7, 48116.05, 0.0, 10.000258, 9.999578 
8.3499885e+2, 2.447662e+2, -541296.56, -584425.4, -21341.762, 0.015462623, -0.06807335, -532521.3, 8763.62, 0.0, 10.000157, 9.9995985 
8.3499664e+2, 2.547656e+2, -486802.66, -509595.34, 59530.84, 0.03435836, -0.10541667, -437587.16, 5703.0366, 0.0, 9.9998665, 9.999583 
8.349939e+2, 2.6476476e+2, -522688.1, -579986.25, 54611.18, 0.010531295, -0.09694505, -489667.47, -144369.44, 0.0, 9.999396, 9.9986515 
8.349905e+2, 2.7476355e+2, -538192.56, -541302.5, 19594.594, -0.05505892, -0.09649585, -520091.3, -272780.6, 0.0, 9.998631, 9.998612 
8.349872e+2, 2.8476265e+2, -431079.25, -357539.2, -29326.662, -0.05682407, -0.079070896, -347276.38, -197956.28, 0.0000012583888, 9.998351, 9.999334 
8.349842e+2, 2.9476196e+2, -319207.94, -261770.92, 10992.869, 0.013339759, -0.10269202, -259738.89, -208410.97, 0.000022671806, 9.998478, 9.999259 
8.3498085e+2, 3.047617e+2, -264907.7, -215388.02, 52587.6, -0.0472067, -0.041849516, -182022.94, -182022.94, 0.0001036696, 9.998549, 9.999198 
8.349761e+2, 3.1476006e+2, -145430.23, 52008.934, -37386.56, -0.32505235, -0.15544803, 58851.234, 58851.234, 0.00026236358, 9.998423, 10.001097 
8.450463e+2, 1.24784365e+2, -1644121.5, -1670050.8, 32825.35, 0.19220094, -0.18281506, -1621793.3, 95323.82, 0.0, 10.000393, 10.000114 
8.4504056e+2, 1.3478665e+2, -1404953.5, -1547122.8, -42921.4, 0.08779187, 0.058826663, -1393000.4, 226094.66, 0.0, 10.001585, 9.999711 
8.45035e+2, 1.447865e+2, -1367552.5, -1639767.0, -22400.445, -0.034662407, 0.15110825, -1365721.5, 155375.14, 0.0, 10.00186, 9.99826 
8.4503275e+2, 1.5478513e+2, -1343887.4, -1579675.4, -23528.197, 0.10375655, 0.16783644, -1341562.6, 81548.12, 0.0, 10.001355, 9.998245 
8.4502953e+2, 1.6478282e+2, -1281042.9, -1528967.3, 5188.3984, 0.12282451, 0.12730664, -1280934.3, 44198.777, 0.0, 10.001242, 9.997979 
8.450255e+2, 1.7477952e+2, -1160445.9, -1420515.9, 7063.936, 0.031503696, -0.012560939, -1160254.1, 66910.62, 0.0, 10.001405, 9.997969 
8.4502125e+2, 1.847771e+2, -1049802.0, -1245618.0, -17985.676, -0.016690282, -0.08072187, -1048163.75, 81022.19, 0.0, 10.0011835, 9.998599 
8.450168e+2, 1.9477545e+2, -1053139.5, -1194850.6, -8199.069, -0.02813515, -0.12245585, -1052666.6, -21469.43, 0.0, 10.000481, 9.998615 
8.4501237e+2, 2.0477422e+2, -1025392.2, -1239388.0, 11015.247, -0.029530292, -0.05814054, -1024826.7, -91616.69, 0.0, 10.0004635, 9.997649 
8.450082e+2, 2.1477321e+2, -843845.56, -1105328.1, 22884.031, -0.011747024, 0.06494964, -841857.94, -6631.2603, 0.0, 10.001055, 9.997612 
8.4500444e+2, 2.2477162e+2, -664988.4, -804096.1, 74538.85, -0.004041264, 0.07594373, -632592.4, 104650.164, 0.0, 10.000914, 9.999068 
8.450012e+2, 2.347693e+2, -702433.7, -768729.94, 43854.34, -0.01354987, -0.08199984, -680609.06, -41350.652, 0.0, 9.9999695, 9.999097 
8.4499854e+2, 2.4476829e+2, -631861.2, -572812.6, 38203.887, 0.014026872, -0.13720512, -554054.2, -12790.617, 0.0, 9.999291, 10.000096 
8.4499645e+2, 2.5476858e+2, -595810.75, -500036.34, 302.30624, 0.080836594, -0.14026618, -500035.38, -56776.367, 0.0, 9.998852, 10.000131 
8.449935e+2, 2.6476827e+2, -589970.6, -598308.44, 8266.543, 0.05862787, -0.11271277, -584881.25, -239619.2, 0.0, 9.998879, 9.998772 
8.4498954e+2, 2.747673e+2, -409065.66, -462542.5, 52754.61, -0.04717088, -0.10056109, -376660.25, -129385.59, 0.0000000050987805, 9.999455, 9.998753 
8.449861e+2, 2.8476664e+2, -244330.5, -264099.66, 37105.504, -0.06411208, -0.069210485, -215815.56, -66533.47, 0.0000017149706, 9.999616, 9.999367 
8.4498316e+2, 2.94766e+2, -207446.36, -196703.64, 4257.7964, 0.025978751, -0.08851991, -195220.78, -143933.8, 0.0000255943, 9.999202, 9.9993515 
8.449797e+2, 3.047648e+2, -273313.63, -284365.56, 66372.47, -0.020715933, -0.10643149, -212237.48, -212237.48, 0.000114907256, 9.998755, 9.99864 
8.449746e+2, 3.14763e+2, -189295.23, -346.2329, 34686.727, -0.30719426, -0.17443635, 5820.214, 5820.214, 0.00028673265, 9.9982395, 10.000838 
8.55045e+2, 1.2479364e+2, -1737338.6, -1872478.5, 47322.13, -0.004373218, 0.24327098, -1722415.6, -5386.246, 0.0, 10.000435, 9.998707 
8.550413e+2, 1.347905e+2, -1498223.8, -1738960.8, 2202.025, -0.0108555285, 0.07610413, -1498203.6, 120855.57, 0.0, 10.001593, 9.998384 
8.5503715e+2, 1.447878e+2, -1355430.8, -1623789.5, -46220.977, -0.024771309, -0.026504803, -1347693.0, 173391.86, 0.0, 10.001885, 9.9983635 
8.5503584e+2, 1.5478688e+2, -1327162.1, -1558758.8, -30862.236, 0.25349668, 0.027593188, -1323120.1, 99973.0, 0.0, 10.001407, 9.998367 
8.5503215e+2, 1.6478579e+2, -1273076.1, -1510781.0, 5135.7793, 0.24800603, 0.09596782, -1272965.1, 52139.9, 0.0, 10.001236, 9.998106 
8.550261e+2, 1.7478424e+2, -1147188.8, -1394085.1, 19593.252, -0.05524022, 0.11356662, -1145643.6, 81479.76, 0.0, 10.001409, 9.998148 
8.550213e+2, 1.8478316e+2, -1024347.44, -1185207.5, -48470.867, -0.14297514, 0.14867683, -1010871.0, 118262.305, 0.0, 10.001148, 9.999033 
8.550177e+2, 1.9478242e+2, -1021944.75, -1131732.0, -27917.496, -0.005049561, 0.15597479, -1015253.5, 15882.35, 0.0, 10.000481, 9.999051 
8.5501367e+2, 2.0478073e+2, -1000499.2, -1176940.9, 25071.123, 0.03759161, 0.12968634, -997005.9, -63856.17, 0.0, 10.000415, 9.998104 
8.550092e+2, 2.1477775e+2, -820155.75, -1037894.0, 52534.54, -0.025804354, 0.007967189, -808143.3, 27034.771, 0.0, 10.000974, 9.998114 
8.55005e+2, 2.2477506e+2, -724168.44, -902408.6, 34481.758, -0.05175814, -0.08777416, -717730.25, 19471.81, 0.0, 10.000807, 9.998446 
8.5500103e+2, 2.347726e+2, -757371.9, -867061.7, 17063.201, -0.0376144, -0.19249691, -754778.8, -115556.84, 0.0, 9.9999, 9.998456 
8.5499763e+2, 2.447717e+2, -701508.75, -702055.06, 14415.658, -0.0192825, -0.16504003, -687363.7, -146133.42, 0.0, 9.999226, 9.999242 
8.549947e+2, 2.5477216e+2, -667593.56, -631600.8, -10644.738, 0.0072409203, -0.060014635, -628688.4, -185459.72, 0.0, 9.998774, 9.999268 
8.5499173e+2, 2.647725e+2, -508341.9, -414266.56, 22444.516, -0.009467444, 0.006608607, -409186.13, -63959.895, 0.0, 9.9988165, 10.000068 
8.5498875e+2, 2.747726e+2, -327702.3, -275949.47, 83493.62, -0.08340565, -0.0025511663, -214414.38, 32808.5, 0.0000001292932, 9.99938, 10.000073 
8.5498524e+2, 2.8477213e+2, -295748.6, -358374.4, 19064.693, -0.122806616, 0.0071042054, -290401.44, -141174.39, 0.0000031613251, 9.99956, 9.998745 
8.549811e+2, 2.9477042e+2, -261889.05, -299793.06, -4072.6345, -0.11486623, -0.053042226, -261456.39, -210211.67, 0.000030116835, 9.999151, 9.9986725 
8.549779e+2, 3.047681e+2, -253708.92, -221165.17, 43026.875, -0.08839711, -0.16583148, -191436.13, -191436.13, 0.0001273879, 9.99868, 9.999102 
8.549743e+2, 3.147679e+2, -189669.11, 46700.285, 36434.766, -0.18540654, -0.11883419, 52189.008, 52189.008, 0.00031292182, 9.998058, 10.001241 
8.650448e+2, 1.2479726e+2, -1586481.1, -1775730.0, -93798.35, -0.109298885, 0.32817128, -1547869.3, 169127.86, 0.00000000000000000000885557, 10.001374, 9.998908 
8.6504334e+2, 1.3479389e+2, -1556894.0, -1740743.8, -33426.46, 0.06422019, 0.10840731, -1551005.3, 68020.445, 0.0, 10.001051, 9.998641 
8.6503977e+2, 1.4479078e+2, -1461273.3, -1671243.8, -18122.127, 0.089252055, -0.050693844, -1459720.6, 61333.23, 0.0, 10.001156, 9.9983835 
8.650373e+2, 1.5478921e+2, -1257257.6, -1525899.3, -28479.508, 0.23742908, -0.06252292, -1254271.6, 168797.45, 0.0, 10.001898, 9.998354 
8.650332e+2, 1.6478844e+2, -1161639.6, -1419480.8, 5872.153, 0.19977558, 0.022942932, -1161506.0, 163572.58, 0.0, 10.001835, 9.998441 
8.650275e+2, 1.7478836e+2, -1202399.0, -1385438.9, 20081.738, -0.03175079, 0.1539322, -1200221.6, 26861.676, 0.0, 10.00087, 9.998467 
8.650225e+2, 1.8478784e+2, -1121625.9, -1225104.9, -38512.844, -0.09942392, 0.22457741, -1108865.6, 20222.975, 0.0, 10.000452, 9.999092 
8.650183e+2, 1.9478668e+2, -1006357.6, -1118836.3, -57358.063, 0.008630304, 0.18593909, -982267.56, 48828.152, 0.0, 10.000572, 9.999092 
8.6501414e+2, 2.0478483e+2, -953465.56, -1098362.3, 7385.5, 0.04725194, 0.11680531, -953090.1, -19980.285, 0.0, 10.000506, 9.99859 
8.650101e+2, 2.1478195e+2, -903961.1, -1024206.6, 19832.639, 0.008222952, -0.043021757, -900774.44, -65640.99, 0.0, 10.0001745, 9.998588 
8.650058e+2, 2.2477958e+2, -839474.1, -979948.9, 13381.672, -0.011589642, -0.12168981, -838210.75, -101056.67, 0.0, 10.000105, 9.998254 
8.650014e+2, 2.3477761e+2, -716144.56, -869872.56, 17144.81, -0.008109412, -0.1584599, -714255.7, -75083.37, 0.0, 10.000279, 9.998251 
8.649975e+2, 2.4477655e+2, -608378.2, -726446.44, 49867.34, 0.0025202027, -0.10512491, -590135.0, -48950.8, 0.0, 10.000172, 9.998613 
8.649941e+2, 2.5477624e+2, -564076.0, -653231.44, 26243.014, 0.01998965, -0.01495418, -556924.9, -113733.375, 0.0, 9.999798, 9.998625 
8.649907e+2, 2.647761e+2, -431296.5, -354726.63, 52916.727, -0.013789352, 0.0319979, -327697.6, 17495.783, 0.0000000005766255, 9.999241, 10.000271 
8.649875e+2, 2.7477616e+2, -442992.8, -305462.78, 15832.16, -0.10124018, -0.008534454, -303663.75, -56474.21, 0.000000514823, 9.998466, 10.000309 
8.6498404e+2, 2.8477603e+2, -451798.6, -430620.03, -40271.973, -0.14540395, 0.022832153, -399568.4, -250378.23, 0.0000054394536, 9.998471, 9.998778 
8.649803e+2, 2.9477516e+2, -222052.56, -270132.16, -20667.387, -0.12384772, 0.04354431, -214389.8, -163189.2, 0.000035908153, 9.999381, 9.998767 
8.64977e+2, 3.0477273e+2, -176409.63, -127667.94, 14581.757, -0.054776017, -0.11349219, -123638.69, -123638.69, 0.00014004746, 9.998953, 9.999611 
8.649727e+2, 3.1477296e+2, -357200.94, -19900.928, -9394.583, -0.07862962, -0.077162854, -19639.469, -19639.469, 0.0003371157, 9.996832, 10.001367 
8.7504506e+2, 1.2479549e+2, -1453321.5, -1516000.1, -127465.27, -0.26150417, 0.08348767, -1353399.5, 363618.28, 0.0000000055054987, 10.001434, 10.000664 
8.750464e+2, 1.3479698e+2, -1418075.3, -1453296.9, -40967.707, 0.24566245, 0.15186131, -1391093.5, 227899.89, 0.0, 10.001056, 10.000607 
8.750427e+2, 1.4479558e+2, -1473525.5, -1702998.3, 2108.595, 0.2455461, 0.07757562, -1473506.1, 47496.84, 0.0, 10.001179, 9.9981575 
8.75037e+2, 1.5479212e+2, -1269479.6, -1552452.0, 6790.941, -0.0013223714, -0.10289742, -1269316.8, 153721.94, 0.0, 10.001908, 9.998163 
8.750324e+2, 1.6479084e+2, -1121537.4, -1339592.8, -35943.76, -0.076863274, -0.08619613, -1115765.3, 209287.84, 0.0, 10.001843, 9.998988 
8.750293e+2, 1.7479193e+2, -1160544.1, -1304899.5, -10048.164, 0.043685496, 0.10728723, -1159848.1, 67196.56, 0.0, 10.000893, 9.99901 
8.750247e+2, 1.8479122e+2, -1149204.6, -1276671.0, -40852.004, 0.056665774, 0.15135679, -1137235.6, -8184.671, 0.0, 10.000429, 9.99875 
8.750184e+2, 1.9478826e+2, -1033481.4, -1167994.4, -45956.05, -0.049871888, -0.036630552, -1019279.94, 11796.519, 0.0, 10.000539, 9.99877 
8.750137e+2, 2.0478646e+2, -933669.94, -1038125.44, -11175.173, -0.05768498, -0.10586136, -932487.7, 602.765, 0.0, 10.000424, 9.999044 
8.750106e+2, 2.1478586e+2, -881362.56, -961663.56, 13015.683, 0.035624318, -0.087149076, -879305.6, -44212.766, 0.0, 10.000107, 9.99905 
8.750068e+2, 2.2478524e+2, -831409.94, -947970.44, 12956.499, 0.064243436, -0.024361541, -829987.1, -92889.03, 0.0, 10.000036, 9.998508 
8.7500215e+2, 2.3478441e+2, -710092.7, -837922.1, 30684.969, 0.021812353, 0.02604646, -703108.44, -63999.89, 0.0, 10.000193, 9.998514 
8.74998e+2, 2.4478294e+2, -650986.06, -797260.06, 30238.273, 0.018738907, 0.04735609, -644981.56, -103856.97, 0.0, 10.0000925, 9.998166 
8.7499434e+2, 2.5478068e+2, -609328.94, -727623.75, 20005.432, 0.052029915, -0.010848983, -606037.3, -162889.22, 0.0, 9.999714, 9.998153 
8.7499017e+2, 2.6477906e+2, -500468.4, -489585.84, 19066.316, -0.00875475, -0.046363104, -475199.56, -130035.05, 0.0000000691861, 9.999199, 9.999368 
8.749854e+2, 2.7477798e+2, -518409.53, -442906.4, -6315.1016, -0.17272706, -0.10977655, -442381.88, -195207.17, 0.000001269736, 9.998383, 9.999407 
8.749821e+2, 2.8477848e+2, -404858.3, -323455.7, -14840.479, -0.19473845, -0.006084929, -320834.53, -171664.0, 0.000008255043, 9.998427, 9.999537 
8.749804e+2, 2.9478022e+2, -175241.1, -157448.17, 21940.115, -0.060144152, 0.19787158, -142669.42, -91514.1, 0.000042714033, 9.999311, 9.999578 
8.749769e+2, 3.0477858e+2, -144118.84, -42617.344, -61736.066, 0.025548441, 0.04295816, -13449.508, -13449.508, 0.00015286829, 9.998882, 10.000224 
8.749695e+2, 3.147779e+2, -386726.5, -57622.695, -66221.71, -0.12741716, -0.05862268, -44797.477, -44797.477, 0.0003572186, 9.9967375, 10.001151 
8.850481e+2, 1.24797486e+2, -1406695.0, -1537928.4, 29794.99, -0.12406381, -0.021372093, -1400247.1, 316744.88, 0.00000006865043, 10.001946, 10.000271 
8.8504803e+2, 1.3479872e+2, -1441366.8, -1503036.5, -68952.0, 0.31326836, 0.056051824, -1396669.1, 222304.06, 0.0, 10.001058, 10.000269 
8.8504386e+2, 1.4479795e+2, -1518961.6, -1674448.6, -26815.898, 0.27816126, 0.040520433, -1514466.8, 6511.25, 0.0, 10.000656, 9.998602 
8.850383e+2, 1.5479589e+2, -1367892.8, -1552758.5, 13455.86, -0.006763232, -0.045466043, -1366918.5, 56081.766, 0.0, 10.001022, 9.99859 
8.8503367e+2, 1.6479473e+2, -1237279.4, -1394963.9, -55892.29, -0.08891551, -0.03690591, -1219477.6, 105535.805, 0.0, 10.0010605, 9.998983 
8.850302e+2, 1.7479469e+2, -1186133.5, -1319118.0, -88894.57, 0.05867337, 0.047630586, -1141614.6, 85401.14, 0.0, 10.000736, 9.998988 
8.8502556e+2, 1.847937e+2, -1070108.4, -1224374.8, -73780.49, 0.08822764, 0.05824032, -1040503.2, 88521.85, 0.0, 10.000909, 9.9988785 
8.850198e+2, 1.9479139e+2, -875167.1, -1077237.5, -58808.887, -0.016409192, -0.07673941, -859298.1, 171746.33, 0.0, 10.001568, 9.998897 
8.8501495e+2, 2.0478994e+2, -794413.25, -983467.1, -53260.56, -0.02759968, -0.11352459, -780441.2, 152615.11, 0.0, 10.001429, 9.9989395 
8.850112e+2, 2.1478932e+2, -849815.5, -958546.56, -83621.266, 0.066892006, -0.08316615, -804440.75, 30619.756, 0.0, 10.00037, 9.998949 
8.850071e+2, 2.2478895e+2, -835324.75, -935670.5, -65186.477, 0.09946761, 0.004255378, -803238.3, -66173.695, 0.0, 9.999953, 9.998629 
8.850027e+2, 2.3478867e+2, -694121.2, -816895.5, -74559.96, 0.062276635, 0.09677096, -658929.0, -19858.41, 0.0, 10.000248, 9.998631 
8.849984e+2, 2.4478738e+2, -625027.56, -741500.1, -63337.063, 0.050457045, 0.112438485, -597222.9, -56138.9, 0.0, 10.000084, 9.998553 
8.8499403e+2, 2.5478485e+2, -617840.5, -687786.25, -22154.084, 0.066276036, -0.011169171, -611414.06, -168306.89, 0.00000000006372724, 9.999457, 9.998552 
8.849895e+2, 2.6478297e+2, -518652.13, -547916.75, 50637.957, 0.0006047579, -0.072285384, -480574.8, -135449.1, 0.00000025387644, 9.999294, 9.998916 
8.849846e+2, 2.747816e+2, -359998.88, -417682.78, 43773.93, -0.15033428, -0.11556546, -336419.3, -89279.01, 0.0000021793016, 9.999699, 9.998941 
8.8498116e+2, 2.8478196e+2, -258122.22, -189144.63, 53669.094, -0.17073002, -0.029885199, -159838.06, -10700.468, 0.000011106664, 9.999175, 10.000092 
8.8497907e+2, 2.9478377e+2, -375862.84, -184882.28, 59494.156, -0.039141867, 0.12607959, -167865.02, -116745.47, 0.000049522223, 9.997645, 10.000184 
8.849754e+2, 3.047831e+2, -325522.53, -121349.82, -40580.547, 0.062398907, 0.03123431, -113579.89, -113579.89, 0.00016466355, 9.997592, 10.000318 
8.849681e+2, 3.1478372e+2, -100670.234, 25790.232, -100309.305, -0.045072887, 0.053182174, 81134.945, 81134.945, 0.00037254568, 9.998934, 10.000684 
8.9505327e+2, 1.2480314e+2, -1587171.0, -1908134.9, -29871.068, 0.16606338, 0.008620738, -1584414.6, 132506.86, 0.00000033567557, 10.001941, 9.997729 
8.9504826e+2, 1.3479936e+2, -1618349.5, -1869988.0, -100969.69, 0.21774487, -0.15917589, -1582844.9, 36117.867, 0.00000000007521531, 10.001075, 9.997737 
8.950432e+2, 1.4479822e+2, -1437222.1, -1517509.9, -22538.703, 0.12777388, -0.13670982, -1431327.8, 89648.516, 0.0, 10.0007, 9.999664 
8.950411e+2, 1.548006e+2, -1286091.3, -1389927.3, 35617.85, 0.1536971, 0.11243228, -1275048.0, 147905.13, 0.0, 10.001047, 9.999699 
8.9503676e+2, 1.6480018e+2, -1280042.5, -1487144.9, -73818.35, 0.09284324, 0.1721428, -1256424.6, 68534.23, 0.0, 10.001071, 9.998345 
8.950301e+2, 1.7479666e+2, -1229286.3, -1411304.5, -92998.055, -0.041689996, -0.03050522, -1190175.0, 36821.598, 0.0, 10.000746, 9.99835 
8.9502513e+2, 1.8479529e+2, -1035028.0, -1146171.9, -55883.633, -0.058731537, -0.055024203, -1011788.6, 117221.81, 0.0, 10.000883, 9.999429 
8.950221e+2, 1.9479606e+2, -841140.7, -998601.2, -27715.553, 0.04434291, 0.061471295, -836404.75, 194595.1, 0.0, 10.001529, 9.999456 
8.9501756e+2, 2.047952e+2, -849285.4, -1081773.8, -98354.05, 0.07854696, 0.08900306, -813259.3, 119748.04, 0.0, 10.001361, 9.998297 
8.9501137e+2, 2.147924e+2, -908827.5, -1059162.0, -116190.19, 0.039430782, -0.035177525, -845610.25, -10574.182, 0.0, 10.000279, 9.998299 
8.9500654e+2, 2.2479081e+2, -853802.75, -955647.8, -61644.25, 0.03375691, -0.032546125, -824768.3, -87715.37, 0.0, 9.9998665, 9.998536 
8.950029e+2, 2.347904e+2, -710381.6, -833326.56, -56430.676, 0.049763132, 0.055962775, -688407.75, -49349.527, 0.0, 10.000171, 9.998556 
8.949985e+2, 2.4478984e+2, -546296.0, -566782.7, -93135.66, 0.039441228, 0.08605758, -462842.1, 78220.44, 0.0, 10.000034, 9.999779 
8.9499295e+2, 2.5478888e+2, -544274.06, -512933.9, -38767.96, -0.0004552995, -0.008049339, -486788.84, -43720.813, 0.0000000002378373, 9.999365, 9.999799 
8.949885e+2, 2.6478803e+2, -526747.1, -550639.9, 59175.152, -0.046553794, -0.02791605, -478324.5, -133249.33, 0.00000030747992, 9.999234, 9.998925 
8.9498496e+2, 2.7478713e+2, -374533.7, -429363.56, 67532.65, -0.10214415, -0.02063554, -329063.53, -81977.7, 0.0000026197797, 9.999622, 9.9988985 
8.949808e+2, 2.8478646e+2, -242311.56, -149901.19, -7839.809, -0.1365243, -0.048021883, -149240.8, -149.18896, 0.000013171274, 9.99914, 10.00038 
8.949759e+2, 2.9478586e+2, -358147.28, -141137.13, 9633.266, -0.13890652, -0.17011362, -140710.34, -89616.41, 0.000055655084, 9.997605, 10.000506 
8.949724e+2, 3.0478635e+2, -363795.53, -182114.3, 3908.3794, -0.011337836, -0.14664443, -182030.25, -182030.25, 0.00017577781, 9.997524, 9.999925 
8.9496815e+2, 3.147897e+2, -168791.8, -87433.38, -27147.203, 0.041624267, 0.18874142, -79206.88, -79206.88, 0.0003866523, 9.998821, 9.999952 
9.050558e+2, 1.24805406e+2, -1681150.5, -1950829.0, -223640.27, 0.2714772, -0.0074103842, -1554844.9, 162053.08, 0.0000010657902, 10.001282, 9.997759 
9.0504926e+2, 1.3480176e+2, -1410338.8, -1765476.6, -124094.36, 0.14003019, -0.16631395, -1371274.1, 247664.36, 0.000000007369457, 10.002479, 9.997782 
9.050438e+2, 1.4480075e+2, -1193046.4, -1397329.1, 3818.3428, 0.031226711, -0.13268304, -1192975.1, 327975.8, 0.0, 10.00237, 9.999677 
9.0504223e+2, 1.5480302e+2, -1294259.8, -1392345.8, -38190.703, 0.16655289, 0.10273069, -1281143.8, 141785.72, 0.0, 10.000991, 9.999705 
9.0503806e+2, 1.6480276e+2, -1334760.6, -1457445.3, -111495.94, 0.15239939, 0.15206747, -1268846.5, 56086.62, 0.0, 10.000457, 9.998845 
9.050312e+2, 1.7479956e+2, -1183284.6, -1330734.3, -59213.133, -0.007505812, -0.06850493, -1162449.8, 64516.203, 0.0, 10.000815, 9.998866 
9.050263e+2, 1.8479861e+2, -1051327.0, -1141829.3, 18423.865, -0.024097895, -0.081589386, -1047720.2, 81255.086, 0.0, 10.000716, 9.999537 
9.050236e+2, 1.9479999e+2, -1035246.3, -1082768.9, 1539.8281, 0.10762947, 0.08628038, -1035196.5, -4236.1743, 0.0, 10.000144, 9.99955 
9.0501875e+2, 2.0479938e+2, -1036894.5, -1196284.3, -67898.68, 0.12326589, 0.14329545, -1011892.2, -78924.76, 0.0, 10.000175, 9.99808 
9.0501165e+2, 2.1479635e+2, -843430.4, -1056297.3, -71310.82, 0.014805221, 0.020996267, -821749.4, 13251.211, 0.0, 10.000844, 9.99805 
9.0500635e+2, 2.247944e+2, -694039.6, -831529.4, 28715.752, -0.0102131395, -0.020322135, -688283.1, 48737.227, 0.0, 10.000765, 9.998953 
9.0500295e+2, 2.3479347e+2, -714833.56, -788889.4, 58423.246, 0.046780918, -0.025656056, -682692.56, -43665.477, 0.0, 9.999939, 9.998972 
9.0499836e+2, 2.4479301e+2, -622108.94, -612717.6, 4844.2056, 0.051693797, -0.0018233368, -610666.75, -69636.98, 0.0, 9.999556, 9.999689 
9.0499246e+2, 2.547929e+2, -503969.4, -503829.94, -58180.684, -0.0017228966, -0.00005592507, -445718.94, -2689.316, 0.0, 9.999684, 9.999704 
9.0498775e+2, 2.647928e+2, -504004.2, -496288.9, 13706.269, -0.0381618, 0.03773026, -485907.75, -140876.92, 0.0000002007212, 9.999208, 9.999312 
9.049843e+2, 2.747924e+2, -565921.0, -477239.38, 38778.56, -0.049177606, 0.055567194, -462674.47, -215638.8, 0.0000025589381, 9.998114, 9.999299 
9.0497977e+2, 2.8479147e+2, -454980.8, -281252.25, -30669.982, -0.08689205, -0.0038115862, -275996.78, -126953.41, 0.000014749117, 9.997805, 10.000124 
9.049738e+2, 2.9478997e+2, -272806.44, -128034.4, -71901.59, -0.14128518, -0.18459395, -98393.086, -47338.977, 0.00006245814, 9.9983225, 10.00025 
9.049704e+2, 3.0479065e+2, -180059.95, -108716.8, -27707.402, -0.022861993, -0.12481282, -99220.23, -99220.23, 0.00018870574, 9.998845, 9.999797 
9.0496725e+2, 3.1479344e+2, -132316.31, -83734.66, -54685.586, 0.059428934, 0.16962646, -48187.723, -48187.723, 0.00040376265, 9.999126, 9.999831 
9.150552e+2, 1.2480474e+2, -1492181.6, -1576833.5, -195715.25, 0.049840447, -0.041727427, -1334267.8, 382649.16, 0.000002613721, 10.001359, 10.000288 
9.150507e+2, 1.3480592e+2, -1225764.9, -1385744.9, -74402.586, 0.02055625, 0.023092823, -1196511.4, 422388.44, 0.00000007607973, 10.00249, 10.000381 
9.150452e+2, 1.4480548e+2, -1268311.3, -1552970.5, -53582.348, -0.081070974, 0.03224135, -1258559.4, 262343.7, 0.0, 10.002367, 9.9986105 
9.150415e+2, 1.5480326e+2, -1367806.8, -1550765.0, -80851.086, -0.029435743, -0.06976812, -1337198.5, 85729.68, 0.0, 10.001016, 9.998606 
9.1503745e+2, 1.648026e+2, -1220178.1, -1223617.9, -106897.74, 0.027982846, -0.0847472, -1114986.4, 209948.38, 0.0, 10.000474, 10.000442 
9.150332e+2, 1.7480345e+2, -1069303.5, -1093719.8, -39543.688, 0.100145385, -0.062093347, -1040126.3, 186796.47, 0.0, 10.000812, 10.000496 
9.150287e+2, 1.8480374e+2, -1076451.1, -1187961.1, -8582.5625, 0.13059385, -0.020287521, -1075794.4, 53124.613, 0.0, 10.000689, 9.999237 
9.150239e+2, 1.9480325e+2, -1066138.0, -1136168.3, -11606.251, 0.113027185, -0.0039681965, -1064264.6, -33339.21, 0.0, 10.000099, 9.999207 
9.1501826e+2, 2.0480254e+2, -1037237.1, -1181219.9, -49093.28, 0.04569958, 0.054037638, -1022091.2, -89155.5, 0.0, 10.000107, 9.998217 
9.150117e+2, 2.1480133e+2, -847070.94, -1041251.2, -39056.895, -0.071543716, 0.097283475, -839509.56, -4556.998, 0.0, 10.00075, 9.998197 
9.150064e+2, 2.2479983e+2, -641151.06, -706879.5, -8455.182, -0.09518171, 0.04830879, -640080.9, 96885.234, 0.0, 10.000696, 9.9998455 
9.150024e+2, 2.3479787e+2, -662990.3, -662065.75, 34561.125, -0.011083876, -0.14954336, -627963.8, 11013.221, 0.0, 9.999858, 9.999882 
9.149977e+2, 2.4479699e+2, -727690.9, -819503.2, 3993.7139, 0.018238632, -0.14621462, -727517.5, -186532.67, 0.0, 9.999498, 9.9983 
9.149922e+2, 2.5479707e+2, -616097.5, -720867.4, -44933.402, -0.0073376824, 0.020125723, -599466.56, -156475.4, 0.0, 9.999614, 9.998252 
9.149871e+2, 2.6479727e+2, -456814.66, -389447.97, -31957.139, -0.03584337, 0.12698385, -376700.44, -31708.037, 0.00000011562638, 9.99917, 10.000065 
9.1498244e+2, 2.7479732e+2, -517786.78, -364650.38, 5205.387, -0.063946806, 0.10840451, -364473.63, -117483.195, 0.0000025826089, 9.998056, 10.0001 
9.149776e+2, 2.8479695e+2, -518791.34, -403303.88, -19260.416, -0.09155154, 0.1033486, -400176.4, -251183.42, 0.000017159802, 9.997757, 9.99931 
9.149726e+2, 2.9479617e+2, -343889.56, -263561.9, -42856.406, -0.112160474, 0.07771031, -244990.7, -193990.38, 0.00007135739, 9.998264, 9.999351 
9.149693e+2, 3.0479598e+2, -185127.61, -97437.82, -18582.658, -0.029219437, 0.09796302, -93662.445, -93662.445, 0.00020552066, 9.99876, 9.99991 
9.149649e+2, 3.1479445e+2, -118596.66, -22007.762, -15161.436, -0.1242774, -0.061480183, -19683.807, -19683.807, 0.00042645857, 9.998994, 10.000314 
9.2505646e+2, 1.24807596e+2, -1573287.8, -1607092.0, 113427.75, 0.068164036, -0.07203156, -1475509.8, 241378.7, 0.0000053718704, 10.000749, 10.000374 
9.2505306e+2, 1.3480948e+2, -1382144.1, -1449351.4, 27129.64, 0.071947575, 0.04771285, -1372559.5, 246305.02, 0.00000033393198, 10.001357, 10.000495 
9.250475e+2, 1.4480908e+2, -1416537.5, -1641694.3, -58034.156, -0.029750789, 0.06488254, -1402459.4, 118408.09, 0.0, 10.001427, 9.998459 
9.2504215e+2, 1.5480593e+2, -1368780.8, -1568564.8, -34696.883, -0.058965422, -0.113786474, -1362926.5, 59975.984, 0.0, 10.001086, 9.998449 
9.2503774e+2, 1.648052e+2, -1145764.3, -1180330.5, -26387.078, -0.009712559, -0.12946975, -1131504.0, 193405.89, 0.0, 10.000951, 10.000508 
9.2503434e+2, 1.7480704e+2, -1026031.25, -1065878.5, -87862.984, 0.12661159, -0.016343875, -955861.3, 271026.8, 0.0, 10.001078, 10.00056 
9.2502993e+2, 1.848075e+2, -1032454.3, -1153560.8, -115889.875, 0.17329758, 0.034346256, -962251.44, 166631.17, 0.0, 10.000939, 9.999349 
9.250242e+2, 1.9480628e+2, -1002469.1, -1089502.5, -103693.805, 0.118994415, -0.035777006, -933530.9, 97365.48, 0.0, 10.00048, 9.999336 
9.2501837e+2, 2.0480561e+2, -959684.9, -1075166.9, -56544.26, 0.03863528, -0.0087917475, -936609.56, -3704.049, 0.0, 10.000339, 9.9988365 
9.2501247e+2, 2.1480536e+2, -829006.4, -960909.3, -19191.408, -0.06478526, 0.06656154, -826270.8, 8640.747, 0.0, 10.00056, 9.998843 
9.250071e+2, 2.2480471e+2, -703756.8, -734063.5, -34613.215, -0.07410373, 0.070529476, -681125.25, 55791.465, 0.0, 10.000255, 9.99987 
9.2500234e+2, 2.3480354e+2, -728269.94, -692738.7, -74957.19, 0.018213596, -0.05226681, -633470.56, 5451.668, 0.0, 9.9994, 9.999894 
9.2499715e+2, 2.448025e+2, -780402.06, -833501.75, -32118.977, 0.037706573, -0.070078656, -765280.3, -224348.89, 0.0, 9.999088, 9.9984045 
9.2499155e+2, 2.5480148e+2, -632184.94, -712804.94, 23575.555, -0.0181512, -0.028127836, -625796.94, -182850.75, 0.0, 9.99944, 9.998389 
9.2498636e+2, 2.6480117e+2, -427838.0, -430169.38, 34445.207, -0.037558895, 0.049225952, -394538.75, -49586.766, 0.00000007319143, 9.999598, 9.999584 
9.249818e+2, 2.748015e+2, -337018.63, -330608.94, -36861.465, -0.009594519, 0.102946654, -296813.25, -49862.742, 0.0000027897247, 9.999523, 9.999628 
9.249768e+2, 2.8480121e+2, -303103.03, -325048.4, -47439.77, -0.022690602, 0.14087301, -265383.5, -116429.555, 0.000020180585, 9.9993515, 9.999076 
9.2497164e+2, 2.9480034e+2, -241062.02, -241857.03, -38442.664, -0.06983185, 0.13318948, -203014.81, -152052.66, 0.00008284934, 9.999089, 9.999102 
9.249681e+2, 3.0479977e+2, -184223.75, -100680.29, 11226.865, -0.01822678, 0.12785788, -99197.89, -99197.89, 0.00022869528, 9.99876, 9.999893 
9.249632e+2, 3.1479716e+2, -199804.89, -19208.8, -15673.628, -0.14793366, -0.14306968, -17858.607, -17858.607, 0.0004606453, 9.998241, 10.000699 
9.350587e+2, 1.24813624e+2, -1733365.3, -1934144.0, 116156.96, 0.18516976, -0.13526699, -1680227.9, 36588.41, 0.000009857008, 10.000741, 9.99813 
9.350561e+2, 1.3481255e+2, -1533056.1, -1772590.6, 53921.574, 0.22531435, -0.08583288, -1521477.5, 97353.56, 0.0000009955157, 10.00141, 9.998246 
9.350506e+2, 1.4481182e+2, -1363166.3, -1545166.9, -78318.516, 0.11310235, -0.018090833, -1334104.8, 186736.88, 0.00000000002439963, 10.00148, 9.999101 
9.3504417e+2, 1.5481104e+2, -1320555.5, -1468005.9, -40335.895, 0.012438513, -0.028904106, -1310242.6, 112609.35, 0.0, 10.0010805, 9.9991455 
9.3503875e+2, 1.6481055e+2, -1244709.4, -1383363.9, -30810.783, -0.023197763, 0.010964447, -1238171.1, 86687.51, 0.0, 10.000941, 9.999119 
9.350345e+2, 1.7481034e+2, -1124564.0, -1272652.9, -76003.805, 0.015000552, 0.06357931, -1092499.3, 134362.2, 0.0, 10.001089, 9.999134 
9.350297e+2, 1.8480995e+2, -1003497.44, -1087718.0, -137550.06, 0.04282459, 0.08137869, -901756.06, 227109.16, 0.0, 10.000916, 9.999815 
9.350242e+2, 1.948091e+2, -974923.8, -1021257.75, -114007.67, 0.05593487, -0.0027113727, -881753.1, 149119.84, 0.0, 10.000432, 9.999829 
9.3501884e+2, 2.0480862e+2, -882535.4, -906566.44, -57200.266, 0.03718701, -0.03996229, -836102.25, 96774.52, 0.0, 10.000299, 10.000015 
9.3501353e+2, 2.1480845e+2, -758286.94, -797479.7, -4565.254, -0.018246941, -0.07210588, -757762.2, 77115.33, 0.0, 10.0004835, 10.000007 
9.350081e+2, 2.2480915e+2, -776085.56, -862652.9, -71570.46, -0.0058382116, 0.046914473, -735728.25, 1143.8049, 0.0, 10.000164, 9.999028 
9.3500245e+2, 2.3481055e+2, -806142.9, -832373.75, -99550.15, 0.08358214, 0.27033377, -718847.9, -79985.65, 0.0, 9.999305, 9.998982 
9.3499655e+2, 2.448096e+2, -676707.9, -602992.56, -26368.58, 0.050731815, 0.22877914, -594531.44, -53662.246, 0.0, 9.999024, 10.000016 
9.3499035e+2, 2.5480598e+2, -525797.75, -479592.1, 43101.234, -0.096097164, -0.15194808, -453792.4, -10896.717, 0.0, 9.999383, 10.000022 
9.3498546e+2, 2.648045e+2, -548085.44, -669352.1, 27641.063, -0.0996376, -0.19941813, -542082.25, -197172.03, 0.00000003612581, 9.999553, 9.997962 
9.3498206e+2, 2.74805e+2, -469656.1, -587254.3, -30424.424, 0.055711385, 0.048197333, -462251.1, -215336.5, 0.0000027030533, 9.999444, 9.997904 
9.349771e+2, 2.8480434e+2, -288096.66, -279959.44, -60841.496, 0.058989692, 0.11881094, -223050.66, -74125.89, 0.000022488803, 9.999294, 9.999412 
9.349707e+2, 2.9480246e+2, -222925.84, -196934.81, -37602.203, -0.08879126, -0.031615432, -170145.8, -119205.57, 0.000095232324, 9.999057, 9.999426 
9.349666e+2, 3.0480188e+2, -201643.4, -129601.02, -11307.131, -0.06285822, -0.043622743, -127868.04, -127868.04, 0.0002574787, 9.99873, 9.999709 
9.349617e+2, 3.148011e+2, -194403.05, 20617.549, -3789.588, -0.15404333, -0.11624373, 20684.318, 20684.318, 0.0005076133, 9.998122, 10.001029 
9.450615e+2, 1.2481905e+2, -1342570.1, -1799439.9, -21630.303, 0.25182337, -0.06903904, -1341548.3, 375214.63, 0.000016753027, 10.003645, 9.9976635 
9.4505805e+2, 1.3481641e+2, -1499144.0, -1815331.6, 15452.181, 0.2558642, -0.12273179, -1498390.6, 120403.31, 0.000002343361, 10.001895, 9.9977255 
9.450524e+2, 1.4481539e+2, -1390705.1, -1564570.8, -32895.598, 0.1515957, -0.05491473, -1384689.4, 136118.83, 0.0000000053592455, 10.001325, 9.999033 
9.450462e+2, 1.5481545e+2, -1160687.0, -1402497.9, -66104.38, 0.057217464, 0.023096647, -1143795.8, 279015.25, 0.0, 10.002222, 9.999045 
9.450405e+2, 1.6481507e+2, -1058846.5, -1297703.5, -42888.34, 0.003621865, 0.08137103, -1051379.1, 273437.56, 0.0, 10.0022335, 9.999084 
9.450355e+2, 1.7481418e+2, -1097332.4, -1261852.9, -139.51024, 0.003973049, 0.069351494, -1097332.3, 129493.45, 0.0, 10.0012865, 9.999111 
9.4503015e+2, 1.8481366e+2, -1045268.56, -1101954.3, -12457.5205, 0.016928263, 0.07050423, -1042651.6, 86179.11, 0.0, 10.000606, 9.999861 
9.450244e+2, 1.9481327e+2, -998316.2, -1028869.1, -32174.402, 0.03760672, 0.028589033, -977975.75, 52858.273, 0.0, 10.000253, 9.999863 
9.450192e+2, 2.0481293e+2, -929913.7, -915694.44, -3754.907, 0.061288245, -0.0016723779, -914763.8, 18072.42, 0.0, 9.999924, 10.000127 
9.450147e+2, 2.148126e+2, -876118.44, -836351.8, -46931.82, 0.09471108, -0.064364254, -805265.1, 29572.596, 0.0, 9.999609, 10.00015 
9.45009e+2, 2.2481304e+2, -830569.75, -887216.44, -108696.625, 0.08439032, 0.022242958, -746566.94, -9732.584, 0.0, 9.999783, 9.999045 
9.4500184e+2, 2.3481418e+2, -628335.94, -739805.94, -81139.57, 0.03451607, 0.21544257, -585633.06, 53194.42, 0.0, 10.000501, 9.999037 
9.4499564e+2, 2.448135e+2, -422710.3, -450055.84, -6654.645, -0.010086276, 0.18686935, -421176.88, 119654.55, 0.0, 10.000629, 10.000297 
9.4499063e+2, 2.548108e+2, -396693.8, -379295.16, -49513.23, -0.036862876, -0.13136256, -337722.84, 105125.22, 0.0, 10.000107, 10.000359 
9.4498575e+2, 2.6480964e+2, -530641.06, -642103.3, -47981.164, -0.028845016, -0.17547269, -512832.03, -167973.4, 0.000000027783642, 9.99959, 9.998132 
9.4498104e+2, 2.7480978e+2, -507157.66, -583611.5, 21803.809, 0.026235823, 0.016205393, -501376.6, -254511.22, 0.000002329391, 9.999093, 9.998098 
9.449759e+2, 2.8480887e+2, -349958.5, -330120.84, 69365.086, 0.029308185, 0.06287793, -269969.0, -121091.29, 0.000023981273, 9.998951, 9.999239 
9.4497055e+2, 2.948069e+2, -231360.13, -218199.48, 38429.46, -0.010334879, -0.07975313, -185791.03, -134895.55, 0.000106754764, 9.999078, 9.9992695 
9.4496596e+2, 3.048063e+2, -212289.05, -145067.1, 38882.36, 0.0011763052, -0.07842106, -127282.2, -127282.2, 0.00028782972, 9.998708, 9.99962 
9.4495904e+2, 3.1480667e+2, -225527.22, 27076.08, 43237.64, -0.20689619, -0.024878113, 34271.996, 34271.996, 0.00056174357, 9.997808, 10.001239 
9.5506406e+2, 1.2482419e+2, -1260296.9, -1632681.6, -99000.0, 0.1102309, 0.14217246, -1235613.5, 481111.56, 0.00002677623, 10.0036745, 9.998784 
9.550586e+2, 1.3482116e+2, -1423238.6, -1650829.1, -47110.164, 0.11012379, -0.06603601, -1413872.5, 204879.61, 0.0000047533053, 10.001874, 9.998857 
9.550527e+2, 1.4481969e+2, -1448056.6, -1681614.1, -8729.522, 0.029718729, -0.06325785, -1447730.9, 73037.34, 0.000000046136613, 10.001311, 9.9982395 
9.55048e+2, 1.5481915e+2, -1211628.9, -1517840.0, -24639.04, -0.0026621127, 0.039988555, -1209659.0, 213120.45, 0.0, 10.002263, 9.998235 
9.550429e+2, 1.6481887e+2, -964373.8, -1107365.6, -84127.08, -0.0032412705, 0.08521624, -925465.75, 399317.13, 0.0, 10.002256, 10.0003805 
9.550373e+2, 1.7481865e+2, -1005553.94, -1070054.4, -29177.08, 0.034116358, 0.0059843874, -994314.1, 232465.8, 0.0, 10.00128, 10.000432 
9.5503116e+2, 1.8481867e+2, -1069062.9, -1150997.9, -32984.96, 0.034020185, 0.010099139, -1057434.4, 71344.125, 0.0, 10.000602, 9.999528 
9.550243e+2, 1.9481876e+2, -1028400.8, -1083319.6, -39206.492, -0.0051787077, 0.056820214, -1007994.06, 22785.701, 0.0, 10.000219, 9.999504 
9.550192e+2, 2.0481855e+2, -1002303.44, -1056085.9, -23295.611, 0.05369904, 0.10063714, -993616.25, -60832.5, 0.0, 9.999878, 9.999188 
9.550156e+2, 2.1481775e+2, -958015.1, -985345.2, -51891.914, 0.21531205, 0.088201284, -918019.1, -83226.65, 0.0, 9.9995165, 9.999175 
9.550094e+2, 2.2481643e+2, -777209.75, -756760.94, -88991.85, 0.13876398, -0.00019643585, -677408.06, 59395.484, 0.0, 9.999699, 9.999981 
9.550002e+2, 2.3481429e+2, -574718.25, -611255.4, -47086.094, -0.1883191, -0.22619738, -542481.0, 96338.2, 0.0, 10.00042, 9.999964 
9.5499444e+2, 2.4481417e+2, -499872.75, -592526.4, -30992.832, -0.2107939, -0.20128796, -490461.53, 50357.254, 0.0, 10.000561, 9.999347 
9.549923e+2, 2.5481606e+2, -479139.06, -535327.0, -62717.176, 0.101997204, 0.03751917, -438511.03, 4291.852, 0.0, 10.000039, 9.99932 
9.54987e+2, 2.6481658e+2, -403558.34, -359093.16, -71225.22, 0.124727145, 0.12467777, -306711.28, 38086.027, 0.000000030362223, 9.999515, 10.000108 
9.549783e+2, 2.748156e+2, -377865.7, -296737.63, 12425.084, -0.1670087, -0.00509882, -294877.34, -48072.83, 0.000002140531, 9.999017, 10.000105 
9.5497286e+2, 2.848146e+2, -402233.6, -422697.4, 68366.125, -0.18262511, -0.035459753, -343337.94, -194523.7, 0.000025889522, 9.998885, 9.998632 
9.5497096e+2, 2.9481372e+2, -289892.22, -324317.75, 50378.863, 0.109119244, -0.003144739, -253866.75, -203039.77, 0.000117742304, 9.999008, 9.998574 
9.5496595e+2, 3.048132e+2, -221362.89, -143358.83, 5608.806, 0.12539552, 0.03929056, -142957.6, -142957.6, 0.00031737162, 9.998627, 9.999669 
9.549549e+2, 3.1481403e+2, -230686.58, 43208.434, 40488.5, -0.43302107, 0.13074711, 49068.273, 49068.273, 0.0006187058, 9.997701, 10.001399 
9.650668e+2, 1.24828584e+2, -1453526.1, -1689615.8, -33533.89, 0.09034315, 0.18285832, -1448855.5, 267833.03, 0.000040530904, 10.002185, 9.999114 
9.650606e+2, 1.3482654e+2, -1279444.3, -1539781.9, -68781.48, 0.08876165, 0.035752084, -1262389.4, 356316.38, 0.000008656152, 10.002679, 9.999232 
9.650546e+2, 1.4482549e+2, -1287542.5, -1544568.5, 27649.617, 0.05252496, 0.036378592, -1284601.6, 236113.94, 0.00000019058375, 10.002161, 9.998769 
9.6505e+2, 1.5482467e+2, -1391350.3, -1543106.0, 95081.42, 0.04276714, 0.059464864, -1345581.4, 77143.99, 0.0, 10.000778, 9.998774 
9.650445e+2, 1.648242e+2, -1283216.9, -1274587.3, 40253.992, 0.038900428, 0.063893326, -1238417.5, 86311.84, 0.0, 10.000127, 10.000257 
9.6503806e+2, 1.7482387e+2, -1160019.5, -1162799.6, -26766.453, 0.038602535, -0.0132019995, -1134607.0, 92122.086, 0.0, 10.000291, 10.000274 
9.650315e+2, 1.848239e+2, -1081919.9, -1163900.3, -47811.707, 0.019153107, 0.003037632, -1059932.6, 68795.7, 0.0, 10.00054, 9.999475 
9.650247e+2, 1.9482414e+2, -933078.44, -1043886.06, -43951.953, -0.01666218, 0.067000136, -917762.0, 112966.66, 0.0, 10.0008955, 9.9994545 
9.6501935e+2, 2.0482409e+2, -855693.44, -982959.9, 20327.787, 0.036788404, 0.1320101, -852525.44, 80205.25, 0.0, 10.000893, 9.999192 
9.6501535e+2, 2.1482359e+2, -803835.44, -909216.7, 48259.79, 0.18469988, 0.14823236, -785074.6, 49661.477, 0.0, 10.000577, 9.99918 
9.650092e+2, 2.2482197e+2, -687160.0, -716355.06, 50112.785, 0.12330964, 0.03391533, -649561.94, 87186.82, 0.0, 10.000326, 9.99996 
9.6500087e+2, 2.3481904e+2, -612215.2, -624458.4, 8571.474, -0.15365179, -0.27299303, -607803.8, 30966.598, 0.0, 10.000148, 10.000001 
9.64995e+2, 2.4481882e+2, -599457.25, -677107.0, 3787.5103, -0.17307691, -0.24488941, -599272.94, -58501.168, 0.0, 10.000034, 9.999022 
9.649922e+2, 2.5482142e+2, -506794.6, -582630.56, 9545.379, 0.101523936, 0.09976596, -505611.6, -62859.01, 0.0, 10.000009, 9.999006 
9.649866e+2, 2.6482195e+2, -324131.0, -312338.44, -27425.512, 0.119324006, 0.19781253, -290182.53, 54565.594, 0.000000012060779, 10.00001, 10.0001955 
9.6497804e+2, 2.748201e+2, -230362.97, -213234.55, -100960.086, -0.14109376, -0.023848064, -120476.08, 126285.21, 0.0000023356135, 9.9999695, 10.00022 
9.6497226e+2, 2.8481936e+2, -271082.84, -319539.75, -70446.31, -0.16877156, -0.0566153, -220814.98, -72047.2, 0.000028869204, 9.999613, 9.998988 
9.6496946e+2, 2.948198e+2, -277836.88, -278835.4, -27342.371, 0.071261056, 0.07215267, -250989.22, -200221.64, 0.00012890252, 9.998923, 9.998928 
9.6496415e+2, 3.048193e+2, -244814.63, -159075.83, -33448.887, 0.09585626, 0.09559886, -147570.47, -147570.47, 0.00034520676, 9.998476, 9.999634 
9.649537e+2, 3.1481963e+2, -187757.97, 44933.727, -26074.318, -0.32925612, 0.14894463, 47819.695, 47819.695, 0.0006746552, 9.998084, 10.001219 
9.75069e+2, 1.2483203e+2, -1469563.8, -1731857.5, -31637.596, 0.051042985, 0.040756356, -1465801.6, 250853.83, 0.000058506626, 10.002222, 9.998803 
9.7506374e+2, 1.3483256e+2, -1293175.0, -1575411.3, -48301.26, 0.11732517, 0.17991269, -1285137.8, 333517.03, 0.00001444443, 10.00271, 9.998969 
9.7505784e+2, 1.4483288e+2, -1157917.5, -1285147.9, -30377.809, 0.14310461, 0.24221651, -1151036.5, 369613.1, 0.0000005546723, 10.002198, 10.000536 
9.750519e+2, 1.5483202e+2, -1263603.1, -1282640.3, 49946.652, 0.14075024, 0.08155609, -1222276.1, 200372.86, 0.0, 10.000795, 10.000556 
9.7504514e+2, 1.6483104e+2, -1388318.9, -1493531.6, 35814.805, 0.07668816, 0.020566307, -1377284.6, -52628.336, 0.0, 10.000129, 9.9987545 
9.750377e+2, 1.7482986e+2, -1266464.1, -1388041.6, -16754.145, -0.039098114, 0.013903807, -1264197.5, -37524.535, 0.0, 10.000308, 9.99872 
9.7503114e+2, 1.8482935e+2, -1064453.0, -1128328.0, -39701.758, -0.08573959, 0.04453589, -1045437.25, 83243.19, 0.0, 10.000542, 9.999719 
9.750254e+2, 1.9482939e+2, -921315.7, -1009066.5, -23546.031, -0.056513287, 0.06034573, -915396.9, 115283.266, 0.0, 10.000852, 9.999714 
9.750195e+2, 2.0482968e+2, -797405.75, -854252.3, 1028.512, -0.046364203, 0.101209186, -797387.1, 135288.8, 0.0, 10.000852, 10.000099 
9.750136e+2, 2.1483006e+2, -750318.06, -783276.2, 41764.51, -0.0582345, 0.1151775, -721899.06, 112770.21, 0.0, 10.000507, 10.000083 
9.750082e+2, 2.248297e+2, -759678.9, -849681.4, 36028.535, -0.023874026, 0.12302533, -747033.2, -10362.728, 0.0, 10.000254, 9.999077 
9.750033e+2, 2.348284e+2, -694361.8, -770518.06, 7667.5283, 0.06745303, 0.0722363, -693597.5, -54915.957, 0.0, 10.000043, 9.999048 
9.7499746e+2, 2.4482748e+2, -585803.7, -634872.1, -4466.8545, 0.04325036, 0.0641209, -585400.4, -44710.055, 0.0, 9.99997, 9.999343 
9.7499037e+2, 2.548268e+2, -490238.53, -538185.7, 15542.304, -0.1050826, 0.046673466, -485641.22, -42942.824, 0.0, 9.999957, 9.999339 
9.749845e+2, 2.648255e+2, -457015.88, -570640.8, -34479.17, -0.10755095, 0.029328048, -447371.8, -102658.89, 0.0000000034767167, 9.999943, 9.998449 
9.7498e+2, 2.748234e+2, -367690.4, -479801.34, -94875.05, 0.044529337, -0.040950764, -313548.38, -66812.41, 0.0000028342504, 9.999894, 9.998424 
9.749738e+2, 2.8482318e+2, -186655.48, -130920.195, -101200.47, 0.018886626, 0.0066336007, -53820.508, 94917.63, 0.000032313746, 9.999558, 10.00031 
9.749658e+2, 2.94825e+2, -191160.25, -83055.76, -42933.652, -0.20334418, 0.13494822, -68079.43, -17360.629, 0.00013997531, 9.9988575, 10.000304 
9.749602e+2, 3.0482417e+2, -273217.63, -195228.44, -51930.137, -0.15934415, 0.0743253, -169282.14, -169282.14, 0.00037147623, 9.998383, 9.99943 
9.7495514e+2, 3.1482348e+2, -243863.61, -41554.703, -15641.499, -0.025815062, 0.03928418, -40352.523, -40352.523, 0.00072747667, 9.997962, 10.000677 
9.8507124e+2, 1.2483756e+2, -1429847.8, -1742384.6, 77823.695, 0.042863186, -0.020189662, -1411541.4, 305057.03, 0.00008108169, 10.002624, 9.998538 
9.850663e+2, 1.3483843e+2, -1447703.3, -1681377.0, 32740.063, 0.15941332, 0.17817153, -1443202.8, 175395.86, 0.000022462764, 10.001778, 9.998695 
9.8506016e+2, 1.4483899e+2, -1259181.6, -1275764.3, 1175.1945, 0.20515661, 0.25420266, -1259098.8, 261493.08, 0.0000013019285, 10.001248, 10.001056 
9.8505247e+2, 1.5483843e+2, -1158189.6, -1170406.6, -26894.88, 0.10664422, 0.06657905, -1136718.4, 285867.34, 0.0, 10.001254, 10.0011 
9.850454e+2, 1.6483766e+2, -1231915.9, -1461256.1, 5655.285, 0.023667008, 0.018411957, -1231776.5, 92814.34, 0.0, 10.001395, 9.998362 
9.850389e+2, 1.7483659e+2, -1094588.6, -1347737.9, 26063.063, -0.025343046, 0.06418528, -1091933.1, 134675.88, 0.0, 10.001684, 9.998328 
9.850323e+2, 1.848359e+2, -977028.06, -1099240.6, 16096.347, -0.045890674, 0.10152801, -974943.6, 153675.39, 0.0, 10.001198, 9.999601 
9.8502576e+2, 1.9483544e+2, -1074391.4, -1094897.3, -9748.021, -0.046174962, 0.078435026, -1070497.0, -39874.984, 0.0, 9.999853, 9.999607 
9.8501974e+2, 2.0483524e+2, -952964.4, -929722.8, 18147.488, -0.056665882, 0.07601237, -919794.25, 12827.046, 0.0, 9.999774, 10.000108 
9.8501414e+2, 2.1483514e+2, -675547.5, -743385.3, -19968.443, -0.07538747, 0.038817205, -670106.1, 164512.13, 0.0, 10.001002, 10.000119 
9.8500896e+2, 2.2483502e+2, -604187.75, -784510.6, -47858.695, -0.01978478, 0.07217928, -592273.0, 144344.16, 0.0, 10.00136, 9.998994 
9.8500425e+2, 2.3483475e+2, -593784.5, -730430.3, -24691.96, 0.12708269, 0.13395801, -589459.5, 49159.895, 0.0, 10.000767, 9.998976 
9.8499787e+2, 2.4483387e+2, -554275.8, -616194.3, 5026.042, 0.08808082, 0.13187747, -553870.5, -13242.214, 0.0, 10.000181, 9.999367 
9.849897e+2, 2.5483215e+2, -529985.1, -554699.56, -14272.487, -0.15130253, 0.0062492886, -523463.66, -80817.36, 0.0, 9.999674, 9.999362 
9.849838e+2, 2.6483068e+2, -512585.1, -600608.94, 12760.517, -0.14649647, -0.028033389, -510772.56, -166110.28, 0.00000001775074, 9.999569, 9.998431 
9.849807e+2, 2.748294e+2, -375537.94, -486549.6, 72384.35, 0.13343218, -0.011041604, -339827.6, -93150.37, 0.000003544514, 9.9998455, 9.998408 
9.8497415e+2, 2.8482923e+2, -224851.9, -154559.97, 52606.973, 0.107931696, 0.04213011, -126438.79, 22240.293, 0.00003520851, 9.999316, 10.000269 
9.849638e+2, 2.9483008e+2, -328282.9, -155239.38, -10827.411, -0.24656166, 0.0830035, -154564.53, -103895.94, 0.00014919741, 9.997937, 10.000255 
9.849577e+2, 3.04829e+2, -353012.38, -195282.42, 11377.608, -0.20501584, -0.01877468, -194465.94, -194465.94, 0.00039500848, 9.997662, 9.999776 
9.849549e+2, 3.148292e+2, -163081.67, 5484.0635, 72664.84, 0.1295969, 0.001176298, 32483.635, 32483.635, 0.00077431643, 9.998451, 10.000778 
9.950732e+2, 1.2484525e+2, -1444043.5, -1782160.4, 30253.691, -0.06508675, 0.0030186311, -1441357.8, 275159.13, 0.000108580556, 10.002671, 9.998243 
9.950684e+2, 1.3484417e+2, -1465013.5, -1720121.6, 3405.2869, 0.17153294, 0.034281407, -1464968.0, 153568.84, 0.000033028722, 10.001793, 9.998423 
9.950614e+2, 1.448439e+2, -1305855.9, -1374889.0, -9426.55, 0.1840308, 0.077496044, -1304591.9, 215949.28, 0.0000026281716, 10.001253, 10.000376 
9.950516e+2, 1.5484394e+2, -1198731.0, -1263193.0, -20115.182, -0.124952786, 0.016552832, -1192969.1, 229565.63, 0.00000000019976186, 10.001286, 10.000449 
9.950448e+2, 1.6484405e+2, -1182321.4, -1358855.8, 9799.402, -0.18427226, 0.05347267, -1181779.0, 142753.69, 0.0, 10.001401, 9.999061 
9.9504125e+2, 1.7484403e+2, -1042849.9, -1243645.4, 42993.133, 0.029143479, 0.13268216, -1034031.75, 192505.77, 0.0, 10.001695, 9.999039 
9.95035e+2, 1.8484348e+2, -1012685.25, -1170081.0, -41589.01, 0.07845442, 0.17095208, -1002371.9, 126172.59, 0.0, 10.001185, 9.999121 
9.9502575e+2, 1.9484222e+2, -1110810.1, -1166209.1, -55726.6, -0.046706416, 0.11888902, -1076278.5, -45723.582, 0.0, 9.999834, 9.999126 
9.950197e+2, 2.0484076e+2, -1019928.3, -1055790.9, 54320.31, -0.05152924, 0.054839548, -980656.2, -48089.24, 0.0, 9.999721, 9.999269 
9.950168e+2, 2.1483885e+2, -749783.56, -873729.1, 32119.164, 0.07451792, -0.076379076, -741954.75, 92627.97, 0.0, 10.0009, 9.999274 
9.9501145e+2, 2.2483802e+2, -568410.7, -681850.44, -75451.12, 0.08192802, -0.10919112, -530737.7, 205850.3, 0.0, 10.001242, 9.999752 
9.950035e+2, 2.3483813e+2, -552943.1, -621828.94, -41111.39, -0.037494127, -0.08820753, -533753.4, 104830.32, 0.0, 10.00067, 9.999765 
9.949963e+2, 2.44838e+2, -582487.94, -663309.3, -21752.215, -0.0989412, -0.042943247, -577005.44, -36419.62, 0.0, 10.000126, 9.999072 
9.9499e+2, 2.548374e+2, -562408.6, -605742.5, -26588.686, -0.09721113, -0.023160543, -549776.7, -107180.33, 0.0, 9.9995985, 9.99905 
9.949845e+2, 2.648375e+2, -405112.44, -358397.44, 17657.494, -0.050356388, 0.030486932, -352474.25, -7878.6035, 0.000000028595345, 9.999491, 10.00013 
9.9497974e+2, 2.7483818e+2, -269112.94, -242066.83, 91266.266, 0.04221098, 0.06876705, -163327.17, 83257.36, 0.000003781716, 9.999751, 10.00013 
9.949727e+2, 2.8483742e+2, -331996.06, -364274.13, -4307.646, 0.0259903, 0.050651304, -331431.1, -182840.31, 0.000036350866, 9.999253, 9.998862 
9.9496317e+2, 2.9483512e+2, -433266.53, -363936.06, -53907.684, -0.109552756, -0.08191261, -334509.8, -283893.2, 0.00015454051, 9.997894, 9.998842 
9.949567e+2, 3.0483386e+2, -299631.75, -71064.77, 38764.758, -0.08587676, -0.17915238, -64669.26, -64669.26, 0.00041140616, 9.99761, 10.000651 
9.949522e+2, 3.148369e+2, -143402.39, 97782.19, 121575.375, -0.010825288, 0.034250766, 148429.7, 148429.7, 0.00080724823, 9.998246, 10.001506 
1.00507595e+3, 1.24852315e+2, -1416874.6, -1731363.3, -6447.618, -0.051836826, -0.007919741, -1416742.5, 299705.53, 0.00014134821, 10.002707, 9.998569 
1.0050695e+3, 1.348516e+2, -1447946.9, -1671296.6, -10970.995, 0.11093274, 0.02451673, -1447409.3, 171052.72, 0.000046426092, 10.001745, 9.998773 
1.0050622e+3, 1.4485133e+2, -1401898.9, -1481037.6, 47133.92, 0.15843004, 0.07518611, -1379926.9, 140540.27, 0.00000474816, 10.000874, 9.999821 
1.00505255e+3, 1.5485114e+2, -1401116.3, -1427898.5, 21735.043, -0.10160125, 0.0517335, -1388978.3, 33488.78, 0.000000004412824, 10.0001955, 9.999845 
1.00504585e+3, 1.6485113e+2, -1365403.1, -1389415.5, 79509.45, -0.14429224, 0.082697004, -1296998.5, 27467.902, 0.0, 9.999886, 9.999592 
1.0050422e+3, 1.748512e+2, -1256389.8, -1282671.1, 88423.49, 0.045357887, 0.114659965, -1180135.9, 46330.367, 0.0, 9.999955, 9.999613 
1.00503616e+3, 1.8485057e+2, -1121915.3, -1270220.3, 8320.677, 0.11091887, 0.13925828, -1121449.9, 7022.5957, 0.0, 10.000642, 9.998694 
1.0050276e+3, 1.9484907e+2, -833015.06, -1082201.4, -15093.283, 0.048092663, 0.1070298, -832104.2, 198382.72, 0.0, 10.001961, 9.998676 
1.0050213e+3, 2.0484743e+2, -763911.06, -962982.5, 112182.25, 0.05654738, 0.060375076, -713472.75, 219029.66, 0.0, 10.001608, 9.998992 
1.0050176e+3, 2.1484543e+2, -981737.2, -1016991.44, 117797.125, 0.14070813, -0.05415088, -880255.6, -45735.15, 0.0, 9.99944, 9.998993 
1.0050116e+3, 2.2484455e+2, -904204.6, -799627.06, 56887.023, 0.09992119, -0.09586527, -774648.44, -38122.324, 0.0, 9.998748, 10.000148 
1.0050033e+3, 2.3484464e+2, -678261.8, -638508.1, 48183.098, -0.072189264, -0.11731587, -606263.0, 32257.484, 0.0, 9.999617, 10.000161 
1.00499615e+3, 2.4484451e+2, -603545.6, -698550.9, 52412.863, -0.121288866, -0.07873067, -580312.06, -39790.145, 0.0, 10.000083, 9.998852 
1.0049905e+3, 2.5484404e+2, -502270.3, -599844.9, 40376.03, -0.0334775, -0.023807567, -487729.7, -45197.582, 0.0, 10.000116, 9.998839 
1.00498475e+3, 2.648443e+2, -328892.97, -254894.8, 57555.28, 0.01767769, 0.0290738, -223472.08, 121056.67, 0.000000017098808, 9.999739, 10.000714 
1.0049789e+3, 2.7484515e+2, -350344.1, -215043.63, 30959.807, 0.026900638, 0.02698435, -208295.86, 38217.164, 0.000003428396, 9.998911, 10.000717 
1.0049717e+3, 2.8484467e+2, -398892.78, -443575.47, -49887.05, 0.021102643, 0.021866577, -366572.88, -218055.81, 0.00003625069, 9.998992, 9.998443 
1.0049633e+3, 2.9484263e+2, -156216.66, -281023.28, -37102.95, 0.010175218, -0.040103745, -146019.67, -95476.32, 0.00015742959, 10.000002, 9.998401 
1.004956e+3, 3.0484134e+2, -51276.164, 72962.67, 45142.805, 0.012919831, -0.12720203, 87633.195, 87633.195, 0.00042159262, 9.999207, 10.000874 
1.00494914e+3, 3.148433e+2, -412034.44, -34280.73, 45925.605, -0.040990736, -0.04282731, -28777.475, -28777.475, 0.0008274677, 9.996403, 10.001487 
1.01507895e+3, 1.2485891e+2, -1346765.0, -1594485.6, -63421.723, -0.058629174, -0.05325126, -1331471.9, 384918.28, 0.0001798155, 10.002731, 9.999499 
1.0150693e+3, 1.3486078e+2, -1371638.8, -1526374.9, -42660.37, -0.09174262, 0.1393474, -1360656.8, 257716.66, 0.000062927356, 10.001791, 9.999747 
1.01506226e+3, 1.4486124e+2, -1436679.4, -1562012.0, 13169.502, 0.060446996, 0.23999222, -1435310.6, 85059.4, 0.000007860604, 10.000907, 9.999251 
1.0150551e+3, 1.5485999e+2, -1441490.3, -1517193.1, 1979.8264, 0.11648331, 0.17288159, -1441438.5, -19055.81, 0.000000028517778, 10.000218, 9.999221 
1.0150482e+3, 1.6485898e+2, -1331869.0, -1327696.4, 73172.766, 0.08031896, 0.11527005, -1256580.3, 67810.53, 0.0, 9.999915, 10.000002 
1.0150415e+3, 1.7485811e+2, -1218971.5, -1216707.0, 96865.41, -0.0330966, 0.009440746, -1120967.3, 105427.61, 0.0, 9.999998, 10.000048 
1.0150357e+3, 1.848572e+2, -1149271.1, -1325788.3, 49931.8, -0.0033358987, 0.0019486995, -1136125.8, -7722.7246, 0.0, 10.000635, 9.998317 
1.01503104e+3, 1.9485602e+2, -868115.9, -1143631.4, 40653.266, 0.1769925, 0.0404837, -862242.56, 168175.42, 0.0, 10.001907, 9.998282 
1.01502456e+3, 2.0485525e+2, -757953.0, -929742.3, 26063.766, 0.2008105, 0.09004331, -754085.7, 178341.63, 0.0, 10.001523, 9.999259 
1.01501636e+3, 2.148548e+2, -970896.6, -980016.25, 41194.15, 0.06037712, 0.10156027, -934010.7, -99578.664, 0.0, 9.999381, 9.999273 
1.0150092e+3, 2.2485456e+2, -916086.8, -803376.56, 79888.07, -0.02164767, 0.10719047, -761966.6, -25534.53, 0.0, 9.998659, 10.000164 
1.0150033e+3, 2.3485431e+2, -690921.75, -642445.8, 87896.15, -0.0418087, 0.049857944, -575506.94, 62922.152, 0.0, 9.999519, 10.00018 
1.0149972e+3, 2.4485353e+2, -631666.75, -730400.56, 47120.203, -0.04296638, 0.031177353, -612788.5, -72352.89, 0.0, 9.999975, 9.998682 
1.0149908e+3, 2.5485203e+2, -525320.7, -629904.25, 48868.934, -0.024752516, 0.00006473692, -506040.1, -63586.35, 0.0, 10.000043, 9.998666 
1.0149844e+3, 2.6485103e+2, -373259.84, -334584.6, 22033.22, 0.00039313795, -0.03887382, -324606.6, 19855.893, 0.000000011022683, 9.9996805, 10.000198 
1.014978e+3, 2.7485043e+2, -393014.25, -289323.1, 10281.837, 0.030550076, -0.13646796, -288313.4, -41850.98, 0.0000031084232, 9.998847, 10.000238 
1.01497106e+3, 2.84851e+2, -371727.1, -370634.22, -18280.813, 0.04068114, -0.037720874, -352891.7, -204434.6, 0.000035475467, 9.998927, 9.99897 
1.01496376e+3, 2.9485273e+2, -138911.6, -211999.27, 11347.2705, 0.036199655, 0.22158755, -137190.39, -86742.96, 0.00015859005, 9.999873, 9.998928 
1.0149554e+3, 3.0485153e+2, -97686.34, -4756.5903, -59740.074, 0.017028235, 0.14295316, 24461.168, 24461.168, 0.00042792628, 9.999123, 10.000383 
1.01494536e+3, 3.1484863e+2, -490930.44, -158841.8, -41193.21, -0.08802977, -0.2096052, -153808.38, -153808.38, 0.0008405054, 9.996244, 10.000705 
1.0250807e+3, 1.2486766e+2, -1661160.9, -1699526.6, -17866.42, -0.028223917, 0.060565483, -1654129.4, 62180.99, 0.00022439056, 10.000378, 9.999911 
1.0250703e+3, 1.3486907e+2, -1430121.1, -1512068.9, -56232.367, -0.13651747, 0.1693074, -1401518.3, 216775.77, 0.0000828242, 10.0012045, 10.0001335 
1.0250636e+3, 1.4486913e+2, -1331778.1, -1514059.4, 6470.5903, 0.07116962, 0.21270804, -1331548.8, 188743.2, 0.000012107546, 10.001631, 9.999233 
1.0250569e+3, 1.548679e+2, -1209215.9, -1405789.3, 27107.703, 0.19513373, 0.14660358, -1205546.3, 216757.7, 0.00000009714164, 10.00181, 9.999216 
1.0250497e+3, 1.6486679e+2, -1097659.9, -1261725.3, 113825.65, 0.16335995, 0.099931784, -1039387.0, 284926.7, 0.0, 10.001733, 9.999574 
1.02504246e+3, 1.7486575e+2, -1038898.5, -1177184.0, 56994.3, -0.0069543906, 0.020761093, -1018436.2, 207885.38, 0.0, 10.001442, 9.9996195 
1.02503665e+3, 1.8486483e+2, -1052972.3, -1224897.8, 38544.293, 0.003221625, 0.00949006, -1044726.44, 83603.85, 0.0, 10.001058, 9.998807 
1.0250323e+3, 1.9486387e+2, -1028364.8, -1161337.0, 84419.555, 0.19375202, 0.018011147, -987393.7, 42948.043, 0.0, 10.000556, 9.998809 
1.02502555e+3, 2.0486367e+2, -862902.6, -950333.5, 76728.18, 0.1996106, 0.08326071, -818310.4, 114034.625, 0.0, 10.00067, 9.999535 
1.0250162e+3, 2.1486413e+2, -659443.3, -800930.44, 76642.164, 0.018213095, 0.16332582, -625886.0, 208454.9, 0.0, 10.001396, 9.999537 
1.025009e+3, 2.2486408e+2, -552683.9, -671768.0, 137346.39, -0.04104659, 0.1951588, -462528.6, 273811.63, 0.0, 10.00134, 9.999774 
1.02500394e+3, 2.3486333e+2, -593724.2, -640462.0, 99705.38, 0.027935097, 0.12887594, -514685.72, 123658.72, 0.0, 10.000388, 9.999775 
1.0249979e+3, 2.4486227e+2, -648463.56, -702880.94, 66817.9, 0.04953958, 0.0873254, -603526.94, -63173.89, 0.0, 9.999712, 9.998997 
1.0249908e+3, 2.5486073e+2, -621488.94, -641327.0, 88355.34, 0.018816598, 0.018513916, -542497.56, -100129.45, 0.0, 9.999232, 9.998978 
1.024984e+3, 2.6485938e+2, -495321.13, -496119.63, 84039.56, 0.01581999, -0.025868509, -411679.88, -67299.37, 0.00000001218603, 9.999268, 9.999293 
1.0249774e+3, 2.748581e+2, -318759.84, -354059.1, 28174.992, 0.04711873, -0.099115156, -303162.8, -56771.504, 0.0000027111198, 9.999786, 9.999342 
1.0249705e+3, 2.848582e+2, -281503.88, -301533.34, -18154.164, 0.06694643, -0.016287584, -270785.34, -122393.46, 0.00003356273, 9.999452, 9.9991865 
1.0249631e+3, 2.948595e+2, -373621.94, -299806.94, -30978.93, 0.07907859, 0.18093283, -288528.78, -238145.16, 0.00015687123, 9.998157, 9.999151 
1.0249543e+3, 3.0485898e+2, -214530.75, -100546.945, -97831.48, 0.042263884, 0.17707217, -44317.496, -44317.496, 0.0004299211, 9.998498, 10.000025 
1.0249438e+3, 3.1485698e+2, 95442.23, 68908.484, -97435.18, -0.07029376, -0.049676344, 180509.61, 180509.61, 0.000848036, 10.000495, 10.000227 
1.0350808e+3, 1.24878556e+2, -1665715.5, -1721608.8, -19336.31, -0.09253719, 0.3310943, -1659678.3, 56530.63, 0.00027553758, 10.000437, 9.99973 
1.0350723e+3, 1.348766e+2, -1449547.1, -1546254.0, -22195.26, -0.08230658, 0.1232939, -1444696.5, 173525.89, 0.000106410545, 10.00119, 9.999903 
1.03506595e+3, 1.4487523e+2, -1287075.3, -1427553.6, 4373.962, 0.118426435, 0.008947826, -1286939.3, 233291.88, 0.000017580353, 10.001654, 9.999818 
1.0350576e+3, 1.5487489e+2, -1160815.6, -1311068.8, 39678.29, 0.07559959, -0.029231105, -1150981.1, 271249.72, 0.00000023822265, 10.001832, 9.999859 
1.0350505e+3, 1.648746e+2, -1184440.8, -1444036.0, 93451.73, 0.049294375, 0.0345082, -1154298.9, 169936.3, 0.0, 10.001742, 9.998317 
1.0350448e+3, 1.7487417e+2, -1132888.4, -1370776.0, 52094.58, 0.065697476, 0.14665802, -1121980.4, 104265.64, 0.0, 10.001435, 9.998296 
1.03503846e+3, 1.8487355e+2, -961744.1, -1030253.25, 11867.152, 0.06441449, 0.1673207, -959746.75, 168506.6, 0.0, 10.001038, 10.000152 
1.0350315e+3, 1.948726e+2, -935340.0, -962026.75, 69473.03, 0.04099887, 0.037468713, -877940.56, 152317.78, 0.0, 10.000529, 10.00019 
1.03502445e+3, 2.048726e+2, -852647.94, -915200.44, 94634.71, 0.0035937491, 0.039010607, -784255.06, 148000.78, 0.0, 10.000608, 9.999805 
1.0350172e+3, 2.1487337e+2, -650026.6, -766565.0, 111134.27, -0.04438473, 0.122602396, -582812.25, 251435.23, 0.0, 10.001327, 9.999807 
1.0350106e+3, 2.248731e+2, -628383.25, -802646.94, 94853.78, -0.020497898, 0.16085176, -586716.0, 149534.73, 0.0, 10.00123, 9.998927 
1.03500485e+3, 2.3487161e+2, -664208.8, -770295.56, 70439.44, 0.0737861, 0.10649631, -629074.44, 9192.841, 0.0, 10.000316, 9.998918 
1.03499815e+3, 2.4487065e+2, -609247.44, -599042.75, 42679.055, 0.09339418, 0.07968826, -561162.1, -20886.982, 0.0, 9.999618, 9.999756 
1.0349903e+3, 2.5487003e+2, -573284.9, -530696.8, 78973.305, 0.03903416, 0.026144776, -470197.1, -27921.41, 0.0, 9.999181, 9.999766 
1.03498325e+3, 2.648693e+2, -596030.0, -684509.5, 96762.625, 0.0060870657, 0.06481346, -533873.5, -189590.53, 0.00000000560088, 9.999188, 9.998033 
1.0349769e+3, 2.7486825e+2, -428449.28, -554688.9, 57095.613, 0.0020212317, 0.14289458, -406457.28, -160158.02, 0.0000022721786, 9.999679, 9.998012 
1.0349696e+3, 2.8486615e+2, -302652.1, -327554.06, -70782.516, 0.025076546, 0.084599935, -243233.8, -94911.83, 0.000031159278, 9.9993725, 9.999045 
1.0349614e+3, 2.94863e+2, -391315.16, -320023.22, -67150.06, 0.074518666, -0.15904002, -279644.4, -229292.92, 0.00015252481, 9.998085, 9.999046 
1.03495285e+3, 3.0486375e+2, -238731.13, -142005.69, -26722.377, 0.026184369, -0.016652586, -135114.1, -135114.1, 0.00042681675, 9.998464, 9.999753 
1.034944e+3, 3.148686e+2, 51990.438, 23936.117, -1017.2102, -0.14117564, 0.4702972, 52027.27, 52027.27, 0.0008482349, 10.00032, 9.999992 
1.0450823e+3, 1.248873e+2, -1636935.3, -1673640.1, 15314.239, 0.016648559, 0.34611955, -1631385.0, 84737.87, 0.0003338259, 10.000467, 10.000052 
1.0450739e+3, 1.3488503e+2, -1568950.9, -1573311.4, 48013.97, 0.019285426, 0.079242125, -1523067.6, 95069.85, 0.00013404706, 10.000214, 10.000196 
1.0450676e+3, 1.4488366e+2, -1488816.9, -1516918.8, 101611.484, 0.20434368, -0.0552666, -1400289.4, 119856.5, 0.000024406929, 10.000239, 9.999886 
1.0450586e+3, 1.54884e+2, -1316827.0, -1377238.5, 76761.38, 0.050435252, -0.032058667, -1264542.3, 157598.2, 0.0000004785213, 10.00073, 9.999933 
1.0450515e+3, 1.6488388e+2, -1300192.6, -1514862.1, 148220.61, 0.017492926, 0.052521512, -1224524.4, 99619.8, 0.0, 10.001015, 9.998179 
1.0450466e+3, 1.7488311e+2, -1184127.8, -1409044.8, 180739.36, 0.12585656, 0.14491513, -1083716.3, 142443.02, 0.0, 10.001143, 9.998169 
1.0450402e+3, 1.8488269e+2, -924377.5, -989165.44, 150721.13, 0.12583303, 0.17984387, -802608.44, 325556.7, 0.0, 10.001199, 10.000355 
1.0450321e+3, 1.948825e+2, -827703.06, -887861.8, 107144.43, 0.0130526675, 0.106190935, -746495.9, 283666.38, 0.0, 10.001173, 10.000391 
1.0450247e+3, 2.0488244e+2, -834734.4, -879762.94, 101797.85, -0.03315201, 0.08369317, -752990.8, 179168.05, 0.0, 10.0006275, 10.000035 
1.0450179e+3, 2.1488234e+2, -896307.3, -857547.3, 100374.17, -0.0060208333, 0.056072205, -774699.4, 59457.742, 0.0, 9.999531, 10.000042 
1.0450116e+3, 2.2488177e+2, -913521.6, -962408.94, 123242.81, 0.042622548, 0.06264688, -812321.8, -76158.734, 0.0, 9.99936, 9.998735 
1.0450054e+3, 2.3488061e+2, -707022.8, -815656.06, 133656.44, 0.10990444, 0.061487343, -617067.7, 21110.473, 0.0, 10.000117, 9.998708 
1.0449984e+3, 2.4487975e+2, -474547.75, -553066.8, 110115.29, 0.111926176, 0.06255622, -396902.7, 143283.45, 0.0, 10.000614, 9.999595 
1.0449905e+3, 2.5487906e+2, -343887.4, -434119.28, 61940.24, 0.0534854, 0.0144786695, -312374.1, 129813.586, 0.0, 10.000823, 9.999634 
1.0449833e+3, 2.6487854e+2, -406170.88, -610420.3, 92510.91, 0.02569116, 0.089099936, -370499.63, -26305.611, 0.0000000009945924, 10.000569, 9.997878 
1.0449769e+3, 2.7487794e+2, -435941.56, -577510.2, 123835.305, 0.037907455, 0.23029768, -364087.84, -117879.734, 0.0000020282196, 9.9997, 9.997849 
1.0449696e+3, 2.848756e+2, -252321.27, -337150.72, 58280.07, 0.06826062, 0.17059347, -222655.64, -74422.21, 0.00002862002, 9.999845, 9.998761 
1.0449613e+3, 2.9487142e+2, 22035.928, -149248.69, 31797.934, 0.12132909, -0.1438305, 27748.496, 78019.02, 0.00014590684, 10.001036, 9.998802 
1.04495265e+3, 3.048718e+2, 60952.848, -79081.02, 68738.305, 0.042735614, 0.0038305656, 89054.84, 89054.84, 0.0004167961, 10.000879, 9.999017 
1.0449433e+3, 3.1487587e+2, -164072.52, -158019.64, 29069.998, -0.16417715, 0.49513975, -131818.97, -131818.97, 0.0008355391, 9.999153, 9.999312 
1.0550845e+3, 1.2489408e+2, -1567169.6, -1531732.8, -38814.883, 0.14444336, 0.11707182, -1506783.4, 209267.81, 0.00039971265, 10.000493, 10.001005 
1.0550751e+3, 1.3489449e+2, -1509231.0, -1448717.5, 43423.65, 0.100902885, 0.03503031, -1426049.0, 191989.89, 0.00016604259, 10.00022, 10.001044 
1.0550686e+3, 1.4489456e+2, -1514627.9, -1582640.4, 109950.49, 0.25842243, 0.025083994, -1433544.9, 86490.59, 0.000032768716, 10.000287, 9.999414 
1.0550596e+3, 1.548953e+2, -1351178.4, -1454224.0, 100339.39, 0.05799078, 0.13956445, -1289906.6, 132124.83, 0.0000008393984, 10.000748, 9.9994 
1.0550525e+3, 1.6489473e+2, -1231694.5, -1370669.4, 145821.97, -0.0020331284, 0.15567353, -1139650.1, 184389.45, 0.0, 10.001008, 9.999169 
1.0550479e+3, 1.7489262e+2, -1109681.5, -1260294.4, 190523.44, 0.11283598, 0.010974805, -980121.56, 245939.83, 0.0, 10.001167, 9.999179 
1.0550416e+3, 1.8489227e+2, -992044.2, -1124294.1, 141003.61, 0.1301383, 0.049128957, -902430.5, 225635.1, 0.0, 10.001179, 9.999435 
1.0550337e+3, 1.9489361e+2, -900363.7, -1029866.75, 112283.82, 0.042683575, 0.22310959, -835498.8, 194554.0, 0.0, 10.001135, 9.999434 
1.0550259e+3, 2.0489329e+2, -834504.2, -864519.25, 52209.83, 0.024857141, 0.2155753, -795187.8, 136865.58, 0.0, 10.000562, 10.000173 
1.05501845e+3, 2.148911e+2, -894941.8, -840386.2, 64736.996, 0.080760166, -0.035786863, -797414.75, 36654.418, 0.0, 9.999465, 10.000192 
1.0550116e+3, 2.2489019e+2, -895525.06, -905435.06, 145063.33, 0.096873954, -0.09521238, -755332.1, -19255.635, 0.0, 9.999273, 9.999169 
1.0550053e+3, 2.3489036e+2, -684496.7, -753738.25, 169275.94, 0.072113104, -0.009574102, -546337.44, 91739.47, 0.0, 10.000049, 9.999166 
1.0549984e+3, 2.448896e+2, -561665.94, -716099.06, 110946.74, 0.038500074, 0.034685694, -503710.1, 36375.395, 0.0, 10.000537, 9.998512 
1.05499096e+3, 2.5488776e+2, -430142.94, -601761.8, 76272.87, -0.0015037375, -0.018363336, -401144.66, 40959.34, 0.0, 10.000769, 9.99851 
1.0549839e+3, 2.64887e+2, -352407.38, -476956.2, 55882.793, 0.017143928, 0.040551864, -331009.88, 13104.556, 0.000000000012280949, 10.0004835, 9.998832 
1.0549773e+3, 2.7488714e+2, -378037.66, -438590.5, 101794.6, 0.09277981, 0.15936345, -302112.38, -55994.36, 0.0000016155456, 9.999623, 9.998839 
1.0549703e+3, 2.8488657e+2, -289203.5, -402254.0, 97306.305, 0.13429137, 0.24432278, -233196.0, -85070.15, 0.000025303238, 9.999795, 9.998339 
1.0549629e+3, 2.9488504e+2, -21591.686, -224997.52, 88777.734, 0.14908111, 0.2378973, 11705.285, 61844.816, 0.000137169, 10.000971, 9.998317 
1.0549533e+3, 3.048831e+2, -33957.07, -261068.45, 4142.986, 0.015628992, 0.24344948, -33881.52, -33881.52, 0.00040068463, 10.0008135, 9.997797 
1.0549418e+3, 3.148789e+2, -264814.63, -335229.56, -17446.24, -0.27149838, 0.026728485, -260729.14, -260729.14, 0.00081052736, 9.999021, 9.998159 
1.0650851e+3, 1.249025e+2, -1606769.5, -1584759.5, 56936.68, 0.17557447, -0.0797455, -1537774.0, 178186.48, 0.00047318285, 10.000356, 10.000714 
1.0650752e+3, 1.3490428e+2, -1395302.0, -1431717.5, 57401.445, 0.046452373, 0.010592294, -1353289.8, 264649.8, 0.00020250746, 10.001168, 10.000699 
1.0650692e+3, 1.4490475e+2, -1391852.1, -1548083.6, 93083.21, 0.23603117, 0.068536945, -1348450.1, 171484.89, 0.000042863663, 10.001241, 9.99919 
1.0650613e+3, 1.5490499e+2, -1376179.9, -1489041.5, 86142.45, 0.15593456, 0.15549022, -1329630.4, 92306.62, 0.0000013547858, 10.000678, 9.999192 
1.06505446e+3, 1.6490419e+2, -1262791.0, -1369424.4, 146590.92, 0.10170835, 0.15302587, -1160121.9, 163824.88, 0.0, 10.000725, 9.999319 
1.0650491e+3, 1.7490223e+2, -1067574.8, -1220731.5, 112847.1, 0.11477902, 0.0108786225, -1007776.06, 218189.42, 0.0, 10.001383, 9.999347 
1.0650425e+3, 1.8490176e+2, -992432.2, -1134046.6, 39665.734, 0.10086085, 0.030258942, -982078.9, 145891.4, 0.0, 10.001208, 9.999358 
1.0650343e+3, 1.949026e+2, -1046448.44, -1109628.0, 61755.49, 0.044816457, 0.16393487, -1008672.1, 21290.45, 0.0, 10.000166, 9.999356 
1.0650266e+3, 2.0490223e+2, -903429.5, -912997.1, 57260.453, 0.056337163, 0.16069657, -850753.4, 81211.17, 0.0, 10.000151, 10.000039 
1.0650193e+3, 2.149005e+2, -657185.1, -742200.2, 32708.281, 0.14196397, -0.03165838, -646057.56, 187920.06, 0.0, 10.001167, 10.000048 
1.0650122e+3, 2.2489987e+2, -563340.1, -714535.1, 114398.77, 0.12587905, -0.065953635, -501817.03, 234165.02, 0.0, 10.001423, 9.999444 
1.065005e+3, 2.3490024e+2, -545745.56, -653091.94, 113503.55, 0.006001499, 0.010205789, -473864.53, 164114.66, 0.0, 10.000866, 9.999459 
1.0649981e+3, 2.4489948e+2, -577396.94, -743315.25, 91409.95, -0.039102536, 0.04679399, -536913.8, 3074.3499, 0.0, 10.000514, 9.998338 
1.06499135e+3, 2.548974e+2, -504677.94, -659313.44, 110374.96, -0.007758543, -0.010868783, -447234.2, -5222.9165, 0.0, 10.000346, 9.998323 
1.0649845e+3, 2.6489648e+2, -359567.53, -433417.94, 100880.234, 0.041505437, 0.023455927, -289067.0, 54955.53, 0.0, 10.000225, 9.999257 
1.0649774e+3, 2.748967e+2, -279037.44, -338197.6, 89417.66, 0.11690577, 0.101953365, -214434.2, 31588.066, 0.00000091217555, 10.000079, 9.999305 
1.06497034e+3, 2.8489652e+2, -240844.05, -396927.47, 135634.92, 0.14718361, 0.20924018, -162401.45, -14376.007, 0.000020741376, 10.000218, 9.998165 
1.0649635e+3, 2.9489565e+2, -80512.62, -270875.16, 132265.02, 0.13735, 0.2911426, -12741.406, 37292.523, 0.0001251533, 10.000648, 9.998151 
1.0649546e+3, 3.0489329e+2, 12754.853, -295945.75, 58972.816, 0.031439662, 0.28540954, 23637.14, 23637.14, 0.0003777452, 10.001363, 9.997301 
1.0649436e+3, 3.1488693e+2, 185250.03, -155932.73, 62714.473, -0.15369722, -0.10025273, 196412.67, 196412.67, 0.00077367935, 10.00226, 9.997834 
1.07508376e+3, 1.2491252e+2, -1699839.0, -1781925.1, 32723.658, -0.03214786, -0.24690308, -1688390.4, 27461.123, 0.00055371417, 10.000389, 9.999336 
1.075074e+3, 1.3491447e+2, -1503531.6, -1650448.6, 89357.555, -0.20186113, 0.010266309, -1461314.3, 156524.52, 0.00024334127, 10.001155, 9.999198 
1.0750689e+3, 1.4491434e+2, -1385751.6, -1543770.3, 61686.445, 0.075967304, 0.08071118, -1364522.8, 155320.88, 0.00005483326, 10.0012665, 9.999212 
1.07506335e+3, 1.5491308e+2, -1365644.0, -1478766.0, 71160.37, 0.27828985, 0.012937077, -1331304.3, 90552.13, 0.000002073113, 10.000723, 9.999243 
1.0750569e+3, 1.6491239e+2, -1307777.1, -1468520.3, 162502.73, 0.26682007, 0.052296102, -1206856.9, 117007.99, 0.0000000000166348, 10.000749, 9.998626 
1.0750503e+3, 1.7491204e+2, -1113338.1, -1322460.3, 143686.81, 0.07519261, 0.13741045, -1040194.6, 185676.44, 0.0, 10.001405, 9.998639 
1.0750426e+3, 1.8491115e+2, -944107.75, -1024555.5, -7090.163, -0.022719229, 0.11490462, -943487.7, 184391.53, 0.0, 10.001174, 10.000124 
1.07503384e+3, 1.9490957e+2, -995740.8, -995974.5, 28519.143, -0.035755754, -0.072421044, -967338.3, 62552.406, 0.0, 10.000133, 10.000151 
1.0750264e+3, 2.049094e+2, -944407.75, -984531.4, 86376.64, 0.0092881, -0.074299656, -875793.75, 56097.71, 0.0, 10.000091, 9.999578 
1.07502036e+3, 2.1491048e+2, -701388.8, -815285.94, 77495.82, 0.11742891, 0.06154963, -662167.0, 171715.75, 0.0, 10.001084, 9.999586 
1.0750132e+3, 2.2491084e+2, -568923.9, -703320.25, 87495.55, 0.068810195, 0.14369372, -525799.5, 210080.45, 0.0, 10.001325, 9.999569 
1.0750046e+3, 2.3491032e+2, -548148.0, -638508.8, 99926.78, -0.14030947, 0.11818588, -483662.4, 154222.06, 0.0, 10.000783, 9.9995985 
1.0749974e+3, 2.449094e+2, -542010.8, -650646.5, 80532.68, -0.17337836, 0.09813702, -499189.9, 40703.87, 0.0, 10.000432, 9.999013 
1.0749917e+3, 2.5490788e+2, -462582.34, -560568.1, 112665.64, -0.025991539, 0.027323645, -388718.22, 53191.7, 0.0, 10.000295, 9.999026 
1.0749849e+3, 2.6490697e+2, -378108.94, -452794.56, 89361.35, 0.049133565, 0.031963527, -318601.7, 25316.81, 0.000000000031670343, 10.000144, 9.999165 
1.0749769e+3, 2.7490658e+2, -299374.94, -362182.84, 92931.695, 0.048968162, 0.059048135, -232684.5, 13236.262, 0.00000057346807, 10.0, 9.999182 
1.0749697e+3, 2.8490543e+2, -244065.67, -387980.0, 144751.5, 0.041618433, 0.07562253, -154372.5, -6440.6504, 0.000016659129, 10.0001545, 9.998257 
1.07496314e+3, 2.949033e+2, -80262.73, -258161.47, 159711.61, 0.022970013, 0.01957864, 13598.702, 63552.227, 0.00011189467, 10.000593, 9.998268 
1.07495606e+3, 3.0490234e+2, 23016.574, -262096.73, 92237.67, 0.027767656, 0.13426676, 50254.465, 50254.465, 0.00035149738, 10.001313, 9.997557 
1.0749482e+3, 3.1489995e+2, 191676.5, -116804.72, 118981.98, 0.058338135, 0.11986685, 232235.47, 232235.47, 0.00073250505, 10.002149, 9.99816 
1.0850836e+3, 1.2492322e+2, -1726258.6, -1813736.3, -95401.13, -0.07905248, -0.17139229, -1665047.6, 50699.633, 0.00064071716, 10.000288, 9.999178 
1.0850749e+3, 1.349246e+2, -1679035.4, -1760863.1, 60597.82, -0.16175744, 0.053984568, -1646832.6, -29092.5, 0.00028839763, 10.000057, 9.99898 
1.0850701e+3, 1.4492388e+2, -1481451.9, -1630087.9, 97728.99, 0.08817662, 0.09591594, -1432993.1, 86757.86, 0.00006873226, 10.0008, 9.9988365 
1.08506456e+3, 1.549218e+2, -1123200.9, -1405499.1, 53409.957, 0.24770564, -0.015907673, -1113433.9, 308338.4, 0.0000030594845, 10.0025835, 9.998846 
1.085058e+3, 1.6492085e+2, -1072009.8, -1341025.3, 115040.875, 0.22051004, 0.012895968, -1029523.9, 294258.84, 0.000000000186287, 10.00231, 9.998747 
1.0850504e+3, 1.7492092e+2, -1313097.3, -1406081.5, 141879.34, 0.030200126, 0.12794724, -1210286.8, 15496.98, 0.0, 9.999982, 9.998752 
1.08504236e+3, 1.849203e+2, -1219927.1, -1134726.9, 41971.03, -0.050257668, 0.11756121, -1117524.5, 10264.239, 0.0, 9.99918, 10.000329 
1.08503394e+3, 1.9491892e+2, -1013379.06, -981891.2, 19862.879, -0.025337903, -0.07073532, -972289.4, 57509.54, 0.0, 9.999919, 10.000348 
1.0850265e+3, 2.0491882e+2, -957583.25, -1001344.5, 97587.33, 0.02210232, -0.06970363, -879453.6, 52345.613, 0.0, 10.000046, 9.99948 
1.0850204e+3, 2.1491984e+2, -933867.9, -940272.4, 99753.836, 0.0913784, 0.0668333, -837264.9, -3473.2668, 0.0, 9.999541, 9.999472 
1.0850133e+3, 2.249201e+2, -847820.6, -842505.44, 116575.48, 0.057964694, 0.14817652, -728557.25, 7232.865, 0.0, 9.999439, 9.999522 
1.0850054e+3, 2.3491947e+2, -701782.1, -719728.25, 97545.74, -0.07967943, 0.12013548, -612797.56, 24998.617, 0.0, 9.999761, 9.9995365 
1.0849982e+3, 2.4491881e+2, -601857.5, -642365.0, 68194.37, -0.11138474, 0.112194434, -550972.75, -11169.905, 0.0, 9.999861, 9.999348 
1.08499154e+3, 2.5491798e+2, -528274.25, -554655.06, 60575.41, -0.033999525, 0.07815086, -479469.78, -37658.566, 0.0, 9.99969, 9.999359 
1.0849848e+3, 2.6491696e+2, -370847.16, -480224.53, 59537.84, 0.014411249, 0.068644814, -344692.75, -872.865, 0.000000020287489, 10.00032, 9.998888 
1.08497754e+3, 2.749156e+2, -69345.305, -284274.44, 33992.89, 0.03320455, 0.028240327, -64097.188, 181733.34, 0.0000009638229, 10.001716, 9.998888 
1.0849703e+3, 2.849139e+2, 25098.115, -261509.27, 60794.14, 0.010574721, 0.0050820536, 37460.332, 185307.23, 0.000015514439, 10.002011, 9.998234 
1.0849632e+3, 2.9491174e+2, -7690.325, -221084.02, 45982.023, -0.045826793, -0.054571282, 1796.1466, 51665.844, 0.00010321646, 10.00109, 9.998281 
1.0849569e+3, 3.0491132e+2, 44518.16, -197675.7, 43648.313, -0.006891114, 0.09093898, 52144.348, 52144.348, 0.0003319706, 10.001243, 9.998029 
1.0849513e+3, 3.1490996e+2, 263195.66, -18864.969, 56504.234, 0.13932376, 0.13167438, 274093.88, 274093.88, 0.0007041168, 10.002394, 9.9987 
1.09508425e+3, 1.2493469e+2, -1650810.6, -1661776.4, -147412.33, -0.07750005, 0.13475153, -1508779.3, 206867.36, 0.000734217, 10.000308, 10.00021 
1.0950776e+3, 1.3493489e+2, -1606832.8, -1614095.1, 56384.984, 0.091078565, 0.13874209, -1553962.1, 63679.48, 0.00033773432, 10.000071, 9.99998 
1.0950722e+3, 1.4493357e+2, -1540067.8, -1755555.1, 157465.6, 0.19372599, 0.11434939, -1457012.8, 62642.758, 0.0000845864, 10.000818, 9.997967 
1.09506495e+3, 1.5493116e+2, -1188617.0, -1537663.6, 128355.1, 0.01046976, 0.059494343, -1146499.1, 275185.3, 0.0000043925156, 10.002572, 9.997944 
1.09505735e+3, 1.6492964e+2, -1005450.4, -1207671.3, 20514.81, -0.09012138, 0.03332358, -1003390.2, 320309.66, 0.0000000006358386, 10.002323, 9.999659 
1.0950495e+3, 1.7492887e+2, -1241520.8, -1269237.1, 62500.047, -0.074084885, -0.026978875, -1191360.9, 34342.574, 0.0, 10.000022, 9.999676 
1.09504186e+3, 1.8492928e+2, -1246903.0, -1189192.4, 61364.26, -0.04085897, 0.034823526, -1150237.6, -22538.963, 0.0, 9.999178, 9.999953 
1.0950343e+3, 1.9493067e+2, -1047575.75, -1041441.75, 55126.55, 0.017918145, 0.16423453, -989297.0, 40389.84, 0.0, 9.999872, 9.99996 
1.0950269e+3, 2.0493051e+2, -948716.25, -971272.1, 69719.984, 0.035457663, 0.16543683, -889367.94, 42320.11, 0.0, 9.99999, 9.999718 
1.0950193e+3, 2.149286e+2, -926150.56, -907988.8, 86306.945, 0.011005295, -0.012478998, -830286.4, 3417.2039, 0.0, 9.999467, 9.999732 
1.0950127e+3, 2.2492772e+2, -883576.25, -894920.94, 121580.29, 0.037686486, -0.045035966, -767536.06, -31824.326, 0.0, 9.999349, 9.999204 
1.09500736e+3, 2.3492762e+2, -737708.75, -774608.2, 117734.11, 0.12249651, 0.009857201, -636987.5, 727.26746, 0.0, 9.999675, 9.9992 
1.095e+3, 2.4492761e+2, -615513.2, -649342.3, 54684.625, 0.079137, 0.08570043, -575186.94, -35471.09, 0.0, 9.99977, 9.999342 
1.0949908e+3, 2.5492764e+2, -537237.6, -557620.56, 62735.625, -0.09042423, 0.13468298, -483871.06, -42155.7, 0.0, 9.999621, 9.999371 
1.0949839e+3, 2.6492646e+2, -418529.9, -559171.3, 108161.79, -0.115651034, 0.13197485, -359839.1, -16112.694, 0.00000010014453, 10.0002365, 9.998386 
1.0949791e+3, 2.7492377e+2, -109048.69, -356379.25, 98368.54, -0.0008689422, 0.00790097, -74696.66, 171055.0, 0.0000018004142, 10.001671, 9.998415 
1.0949724e+3, 2.8492185e+2, 8784.0625, -287656.63, 18918.938, -0.01047891, -0.0061673047, 9986.597, 157757.83, 0.000016749296, 10.001974, 9.998074 
1.0949636e+3, 2.9492068e+2, -27369.361, -252373.38, 20796.217, -0.14193527, 0.04723858, -25463.395, 24321.545, 0.000099959936, 10.001039, 9.998095 
1.0949569e+3, 3.0492002e+2, 75514.555, -110823.016, 82499.945, -0.14155298, 0.14804402, 106791.195, 106791.195, 0.00032156563, 10.001155, 9.998665 
1.09495215e+3, 3.1491676e+2, 294020.63, 63863.43, 114429.42, -0.042648368, -0.06757005, 341229.34, 341229.34, 0.0006902331, 10.002308, 9.999315 
1.1050846e+3, 1.2494355e+2, -1751435.9, -1673810.1, -186292.83, -0.018672688, 0.25588763, -1522330.0, 193235.83, 0.00083503575, 9.999456, 10.000527 
1.1050786e+3, 1.3494255e+2, -1551309.5, -1548776.0, -39497.418, 0.16656245, 0.09950068, -1510525.0, 107043.47, 0.0003918232, 10.000267, 10.000334 
1.1050725e+3, 1.4494139e+2, -1606137.8, -1761901.9, 103158.945, 0.18068066, 0.06181146, -1554762.8, -35183.586, 0.000102570426, 10.000257, 9.998192 
1.1050658e+3, 1.5494017e+2, -1619320.8, -1716097.3, 141746.52, -0.0025790264, 0.10373825, -1517930.9, -96333.52, 0.0000061708192, 9.999494, 9.998198 
1.1050581e+3, 1.6493918e+2, -1395817.5, -1358503.1, 25476.555, -0.10427302, 0.0971698, -1345582.8, -21974.816, 0.0000000015512864, 9.999486, 9.999988 
1.10504955e+3, 1.7493826e+2, -1171887.9, -1194219.9, 6763.534, -0.08815685, -0.011464979, -1169999.3, 55612.785, 0.0, 10.000332, 10.000032 
1.1050419e+3, 1.8493861e+2, -1097961.3, -1170112.1, 21878.215, -0.01304547, 0.05028311, -1091845.5, 35762.51, 0.0, 10.000423, 9.999491 
1.105035e+3, 1.9494003e+2, -1099260.1, -1116851.8, -2830.1895, 0.11550728, 0.22607358, -1098816.0, -69218.16, 0.0, 9.999734, 9.999512 
1.1050276e+3, 2.0493965e+2, -1003343.25, -993938.8, 18159.623, 0.13892747, 0.22944866, -979882.5, -48281.45, 0.0, 9.999603, 9.999747 
1.1050194e+3, 2.1493736e+2, -830092.3, -857027.75, 2211.4253, 0.058966707, 0.0096840905, -829912.0, 3706.8484, 0.0, 10.00011, 9.999769 
1.1050127e+3, 2.2493611e+2, -714381.5, -825975.56, 62626.43, 0.05200392, -0.055159852, -686301.4, 49327.836, 0.0, 10.000565, 9.999087 
1.1050076e+3, 2.3493573e+2, -561877.06, -701509.56, 60058.438, 0.123170495, -0.017160447, -539599.2, 98034.94, 0.0, 10.000938, 9.999089 
1.1050006e+3, 2.449355e+2, -403849.03, -575838.6, 3252.4146, 0.08489414, 0.053709798, -403787.53, 135849.89, 0.0, 10.001348, 9.999085 
1.1049917e+3, 2.549353e+2, -240033.75, -443044.34, -27368.617, -0.06265825, 0.1074318, -236408.81, 205231.34, 0.0, 10.001787, 9.999111 
1.1049847e+3, 2.6493418e+2, -241990.86, -467664.97, 39975.33, -0.10968205, 0.12213198, -235118.98, 108532.07, 0.00000018749917, 10.001426, 9.998443 
1.1049795e+3, 2.7493194e+2, -323157.38, -455073.94, 53846.703, -0.053372394, 0.03875384, -303968.94, -58296.66, 0.0000025324416, 10.000191, 9.998452 
1.1049728e+3, 2.849302e+2, -239268.78, -372391.16, 25896.203, -0.06513095, 0.028387928, -234408.66, -86719.28, 0.000018771152, 10.000134, 9.99837 
1.1049647e+3, 2.9492903e+2, 18249.44, -197826.28, 43141.67, -0.13549025, 0.050654452, 26544.65, 76246.73, 0.00010053436, 10.001225, 9.998372 
1.10495865e+3, 3.0492833e+2, 165066.61, -81865.5, 131088.56, -0.116345756, 0.14271149, 221678.53, 221678.53, 0.00031863083, 10.001805, 9.99856 
1.1049543e+3, 3.1492513e+2, 187943.66, 13277.768, 73934.484, -0.019330041, -0.058645938, 215036.89, 215036.89, 0.00068517454, 10.001582, 9.9993105 
1.1150844e+3, 1.24949835e+2, -1777588.0, -1725742.5, -173973.45, -0.022714743, 0.16961466, -1575771.1, 139733.6, 0.000944546, 9.999467, 10.000159 
1.11507766e+3, 1.3494784e+2, -1577622.1, -1595173.3, -1550.3287, 0.025421105, -0.05102721, -1577486.1, 40032.242, 0.00045159098, 10.000247, 10.000021 
1.1150712e+3, 1.4494757e+2, -1502543.3, -1559767.3, 65017.71, -0.0070748953, -0.050693166, -1460120.4, 59399.47, 0.00012308804, 10.000302, 9.999561 
1.1150669e+3, 1.5494902e+2, -1518174.1, -1515568.1, 118895.11, 0.13717085, 0.1191432, -1397968.9, 23540.857, 0.000008505592, 9.999526, 9.999563 
1.1150598e+3, 1.6494952e+2, -1410159.6, -1393467.4, 46345.28, 0.10260148, 0.20746085, -1354722.8, -31216.6, 0.0000000033697685, 9.999507, 9.99974 
1.1150503e+3, 1.7494904e+2, -1189622.8, -1234392.9, 43551.996, -0.06782099, 0.16901854, -1163039.8, 62469.867, 0.0, 10.000341, 9.999758 
1.1150423e+3, 1.8494825e+2, -1131952.5, -1242005.8, -12742.049, -0.03118851, 0.15848435, -1130496.5, -2979.0862, 0.0, 10.000428, 9.998993 
1.11503586e+3, 1.9494705e+2, -1139523.4, -1193469.6, -24066.223, 0.20570649, 0.12044419, -1130347.8, -100816.8, 0.0, 9.999702, 9.9990015 
1.1150287e+3, 2.0494635e+2, -1023268.56, -1025744.4, 26903.738, 0.27225104, 0.12714636, -997574.25, -66036.9, 0.0, 9.99956, 9.999547 
1.1150209e+3, 2.14946e+2, -858524.5, -896227.0, 28512.191, 0.17304641, 0.11975002, -843195.1, -9656.835, 0.0, 10.000022, 9.999543 
1.1150133e+3, 2.249452e+2, -719669.8, -817493.8, 70132.125, 0.036237653, 0.10706162, -683078.0, 52465.445, 0.0, 10.000483, 9.999185 
1.1150061e+3, 2.3494384e+2, -564401.2, -690416.06, 81587.086, -0.13014178, 0.036143318, -524324.25, 113229.69, 0.0, 10.000866, 9.999203 
1.1149997e+3, 2.4494246e+2, -456854.84, -664696.44, 14627.894, -0.150449, 0.015229407, -455830.38, 83737.15, 0.0, 10.001257, 9.998518 
1.11499414e+3, 2.549409e+2, -289080.53, -533209.2, -1662.6322, -0.01703976, -0.011456824, -289069.22, 152516.9, 0.0, 10.001736, 9.998517 
1.11498706e+3, 2.6494008e+2, -208680.02, -387867.47, -14285.243, -0.033353116, 0.03895017, -207548.3, 136046.14, 0.00000020790911, 10.001377, 9.999014 
1.1149784e+3, 2.7494004e+2, -292144.53, -373120.44, 17323.947, -0.19615546, 0.1097764, -288593.94, -43000.508, 0.0000030041272, 10.000113, 9.999052 
1.1149716e+3, 2.84939e+2, -206539.34, -279989.2, 62838.246, -0.21572675, 0.1040166, -170481.27, -22879.691, 0.000021469468, 10.0000305, 9.999055 
1.1149666e+3, 2.9493678e+2, 63080.375, -96916.57, 99065.305, -0.09493714, -0.045354526, 110414.89, 160035.6, 0.00010455908, 10.001193, 9.999081 
1.1149618e+3, 3.0493635e+2, 98061.9, -212995.52, 119806.2, 0.010158325, 0.08041463, 138856.16, 138856.16, 0.00032151054, 10.001772, 9.997676 
1.114957e+3, 3.1493482e+2, 114813.83, -115912.99, 85404.73, 0.059803918, 0.13253188, 142986.77, 142986.77, 0.0006861148, 10.001479, 9.998474 
1.1250839e+3, 1.2495659e+2, -1723788.5, -1736920.6, -115283.83, -0.039050344, 0.120409586, -1614883.9, 100553.945, 0.0010643419, 9.99998, 9.999846 
1.1250783e+3, 1.3495538e+2, -1597297.8, -1630110.5, 28252.104, 0.07795988, 0.0021435658, -1581033.8, 36413.094, 0.00051804923, 10.000217, 9.999796 
1.12507105e+3, 1.4495553e+2, -1485812.6, -1474983.4, 55000.125, -0.028373713, 0.019386379, -1425132.0, 94312.6, 0.00014661087, 10.000092, 10.000242 
1.12506665e+3, 1.5495692e+2, -1443928.0, -1403995.5, 37279.9, 0.15598543, 0.114525035, -1381671.9, 39760.273, 0.00001150662, 9.999707, 10.000243 
1.1250597e+3, 1.6495766e+2, -1431266.0, -1407563.5, -1563.5159, 0.15008162, 0.19387214, -1407460.8, -84035.16, 0.0000000061074554, 9.99938, 9.999705 
1.12505056e+3, 1.7495765e+2, -1356683.3, -1314959.1, 772.9798, -0.013579003, 0.20442589, -1314944.9, -89518.93, 0.0, 9.999198, 9.999754 
1.1250425e+3, 1.8495661e+2, -1270091.5, -1307055.9, -22675.268, 0.0028536203, 0.16608667, -1259320.3, -131884.8, 0.0, 9.999481, 9.998999 
1.12503566e+3, 1.9495434e+2, -1045741.06, -1148384.5, -11047.361, 0.19032273, 0.021788936, -1044565.56, -15108.945, 0.0, 10.000341, 9.999003 
1.12502865e+3, 2.0495337e+2, -865418.44, -1011821.8, 72559.32, 0.24726771, 0.029749362, -835550.5, 95915.195, 0.0, 10.00092, 9.998986 
1.1250215e+3, 2.1495357e+2, -718243.9, -886352.56, 29472.617, 0.17782794, 0.1331378, -713226.5, 120237.85, 0.0, 10.001245, 9.999016 
1.1250143e+3, 2.2495276e+2, -621747.94, -802158.0, 47337.42, 0.04902138, 0.16066249, -610081.56, 125389.28, 0.0, 10.001285, 9.998909 
1.125007e+3, 2.3495089e+2, -548923.2, -709348.56, 16550.527, -0.13520868, 0.064798325, -547233.56, 90252.4, 0.0, 10.001087, 9.998963 
1.1250005e+3, 2.4494927e+2, -567372.1, -723621.3, -43595.168, -0.16008367, 0.032539368, -556031.7, -16529.727, 0.0, 10.0005245, 9.9984665 
1.12499475e+3, 2.5494772e+2, -609099.9, -693204.1, -31739.617, -0.020867089, 0.014285122, -598466.3, -156945.58, 0.0, 9.999567, 9.998465 
1.1249878e+3, 2.64947e+2, -399462.53, -441818.47, -1862.1522, -0.018989554, 0.055200186, -399380.8, -55853.38, 0.00000016860811, 9.999909, 9.999348 
1.1249796e+3, 2.7494687e+2, -53182.023, -219899.19, -9113.302, -0.15362412, 0.091223374, -52685.344, 192838.47, 0.0000038179373, 10.001592, 9.999388 
1.124973e+3, 2.8494564e+2, 69661.45, -175387.94, 5394.8047, -0.17136063, 0.06003321, 69780.164, 217313.05, 0.000026281929, 10.002043, 9.998809 
1.1249679e+3, 2.949431e+2, 38442.113, -136685.84, -49633.43, -0.07159051, -0.09659724, 51530.645, 101086.75, 0.00011344339, 10.001142, 9.998833 
1.1249635e+3, 3.049427e+2, 54657.332, -241826.81, 1076.6481, 0.021823153, 0.04702717, 54661.24, 54661.24, 0.00033238306, 10.001523, 9.997591 
1.1249594e+3, 3.1494167e+2, 339505.34, -25459.252, -1614.6115, 0.06911852, 0.16766764, 339512.47, 339512.47, 0.0006975335, 10.003092, 9.99833 
1.135083e+3, 1.2496377e+2, -1722927.1, -1740910.8, -93738.28, -0.16505685, 0.09488376, -1637750.4, 77615.195, 0.0011953667, 10.000028, 9.999787 
1.1350803e+3, 1.3496526e+2, -1602909.8, -1636861.6, 41096.09, 0.24675667, 0.2528898, -1575421.4, 41931.82, 0.00059164723, 10.000206, 9.999754 
1.13507204e+3, 1.4496534e+2, -1483553.4, -1473006.6, 32492.398, 0.03897747, 0.26375446, -1445362.5, 73990.16, 0.00017336896, 10.0001, 10.000256 
1.13506496e+3, 1.5496403e+2, -1440908.1, -1402985.8, 30824.258, -0.0017527961, 0.092411704, -1385757.6, 35605.523, 0.000015247707, 9.999726, 10.000244 
1.1350575e+3, 1.6496374e+2, -1413410.0, -1374282.3, -17003.898, -0.02675896, 0.057579663, -1367925.5, -44560.723, 0.000000009421829, 9.999398, 9.999921 
1.13505006e+3, 1.7496425e+2, -1340301.0, -1284492.0, -194.8958, 0.008682586, 0.099641204, -1284491.4, -59132.305, 0.0, 9.999215, 9.999953 
1.13504246e+3, 1.849637e+2, -1229634.0, -1230989.4, -379.29803, 0.026202573, 0.07342506, -1229535.1, -102173.29, 0.0, 9.999511, 9.999508 
1.1350344e+3, 1.9496188e+2, -1016338.3, -1078405.6, 26598.143, 0.013267061, -0.07635398, -1006499.6, 22875.049, 0.0, 10.0002985, 9.999507 
1.1350273e+3, 2.0496072e+2, -939966.1, -1155793.6, 76342.055, 0.006368986, -0.064425625, -915692.56, 15693.271, 0.0, 10.000873, 9.998021 
1.1350212e+3, 2.149601e+2, -798001.8, -1033626.9, 45815.31, 0.019283224, 0.053695876, -789406.94, 43989.7, 0.0, 10.001161, 9.998049 
1.1350155e+3, 2.2495887e+2, -677974.44, -894441.06, 29936.895, 0.032507364, 0.114654265, -673910.5, 61500.496, 0.0, 10.001183, 9.998321 
1.13501e+3, 2.3495686e+2, -606963.3, -807896.25, 16083.124, 0.04961395, 0.0660036, -605684.1, 31746.191, 0.0, 10.000993, 9.998333 
1.1350027e+3, 2.4495587e+2, -543413.1, -657736.7, -87349.78, -0.00871691, 0.10715126, -496184.03, 43256.867, 0.0, 10.000454, 9.998953 
1.1349933e+3, 2.549558e+2, -581596.75, -620986.8, -61340.477, -0.13213402, 0.18675026, -536867.06, -95423.49, 0.0, 9.9995, 9.998994 
1.1349867e+3, 2.6495478e+2, -404199.06, -436240.47, 57754.824, -0.124838956, 0.16555017, -360284.13, -16833.94, 0.00000020663475, 9.999842, 9.999421 
1.134983e+3, 2.749525e+2, -58706.008, -219703.5, 67081.71, 0.010123224, -0.019376019, -34419.242, 211044.02, 0.0000055002247, 10.00154, 9.999417 
1.1349768e+3, 2.8495017e+2, -26879.938, -361134.03, -36794.637, -0.0030379388, -0.09975529, -22877.516, 124606.04, 0.00003348711, 10.001985, 9.997557 
1.1349685e+3, 2.9494774e+2, -61098.23, -321698.13, -75182.73, -0.14486545, -0.11898151, -40963.746, 8546.957, 0.00012779766, 10.001049, 9.997604 
1.1349634e+3, 3.0494717e+2, 88294.375, -145631.36, 55999.266, -0.15313923, 0.030605406, 101008.914, 101008.914, 0.00035402225, 10.001411, 9.998305 
1.1349608e+3, 3.1494558e+2, 368715.7, 60234.336, 77804.55, -0.12354784, 0.024299055, 387228.4, 387228.4, 0.0007264602, 10.00299, 9.998964 
1.14508316e+3, 1.24970734e+2, -1714994.4, -1762995.3, -38857.61, -0.14773956, 0.049271468, -1693322.8, 21970.857, 0.0013373722, 10.00017, 9.999587 
1.1450808e+3, 1.349722e+2, -1732314.3, -1722879.4, 13909.343, 0.31554294, 0.22586204, -1712909.3, -95625.57, 0.000672049, 9.999392, 9.999576 
1.1450715e+3, 1.4497212e+2, -1642985.4, -1573935.1, 22268.654, 0.035485633, 0.24116647, -1567376.5, -48090.22, 0.0002032588, 9.999112, 10.000037 
1.1450641e+3, 1.549709e+2, -1500134.1, -1454987.5, -17313.158, -0.03863276, 0.09966692, -1449112.6, -27815.332, 0.000019742625, 9.999429, 10.000025 
1.1450568e+3, 1.6497053e+2, -1343167.0, -1326120.1, -53954.355, -0.054286588, 0.062245715, -1280020.1, 43279.57, 0.000000013934886, 9.999814, 10.000054 
1.1450499e+3, 1.7497084e+2, -1174002.5, -1189956.1, -55963.613, 0.025836034, 0.06793812, -1125450.0, 99845.33, 0.0, 10.000287, 10.000089 
1.1450427e+3, 1.849706e+2, -1071036.5, -1122935.6, -42438.88, 0.05560356, 0.053334247, -1047242.4, 80051.81, 0.0, 10.000473, 9.999783 
1.1450348e+3, 1.9496965e+2, -972472.56, -1020367.56, -49294.074, 0.017741077, -0.037847683, -941616.9, 87680.6, 0.0, 10.000456, 9.99982 
1.14502795e+3, 2.0496832e+2, -970268.3, -1206951.6, 36438.27, -0.014480443, -0.043043494, -964785.5, -33475.86, 0.0, 10.00082, 9.9977 
1.1450222e+3, 2.1496649e+2, -757913.25, -1047501.6, 42207.684, -0.024025023, -0.011956035, -751886.9, 81445.01, 0.0, 10.001587, 9.997748 
1.1450167e+3, 2.2496498e+2, -626531.25, -880186.44, 44840.14, 0.01711599, 0.041403364, -618837.94, 116511.15, 0.0, 10.001572, 9.998236 
1.1450115e+3, 2.3496361e+2, -648259.9, -836760.5, 55192.684, 0.10956471, 0.06295665, -633288.6, 4074.2598, 0.0, 10.000733, 9.998264 
1.145004e+3, 2.4496254e+2, -495849.75, -680716.9, -19345.406, 0.061304122, 0.118618496, -493847.06, 45527.28, 0.0, 10.000988, 9.998532 
1.14499435e+3, 2.549616e+2, -181642.44, -470315.1, -78984.1, -0.1195339, 0.15496643, -161444.69, 279940.0, 0.0, 10.002446, 9.998599 
1.144988e+3, 2.6496002e+2, -35728.813, -320605.97, -5737.3506, -0.117452346, 0.123731524, -35613.313, 307784.34, 0.00000038376965, 10.002628, 9.9988785 
1.14498496e+3, 2.749575e+2, -103428.484, -301581.53, -53683.28, 0.064003766, -0.033870168, -89819.375, 155596.1, 0.0000075917305, 10.001483, 9.998885 
1.144979e+3, 2.8495508e+2, -105905.3, -399499.38, -119813.414, 0.049000356, -0.09491949, -63217.18, 84220.04, 0.0000412879, 10.001439, 9.997558 
1.1449702e+3, 2.9495278e+2, 141145.1, -223496.83, -80030.78, -0.13924618, -0.10097077, 157936.81, 207399.13, 0.00014478626, 10.002434, 9.997614 
1.1449651e+3, 3.0495217e+2, 248107.16, -52201.855, 100403.43, -0.16889025, 0.03573885, 278582.72, 278582.72, 0.00038253577, 10.0024185, 9.998467 
1.14496276e+3, 3.1495047e+2, 117915.17, -47647.945, 45743.76, -0.13141376, -0.0031046444, 129713.09, 129713.09, 0.00077112904, 10.001209, 9.999075 
1.1550842e+3, 1.24977306e+2, -1730696.1, -1790824.9, -20423.3, -0.0882825, -0.035465386, -1724415.3, -9191.255, 0.001489488, 10.000162, 9.99939 
1.1550794e+3, 1.3497648e+2, -1743222.6, -1753127.9, -9651.626, 0.21986951, -0.06637914, -1737327.1, -120091.16, 0.00075867696, 9.999426, 9.999346 
1.1550695e+3, 1.4497614e+2, -1673367.9, -1649761.1, 26205.623, -0.09967142, -0.03903494, -1632823.4, -113579.8, 0.0002361324, 9.999159, 9.9995 
1.1550638e+3, 1.5497757e+2, -1529521.0, -1526849.0, 1809.4108, -0.027579563, 0.13498476, -1525935.9, -104701.71, 0.000024990082, 9.999468, 9.9995165 
1.15505725e+3, 1.6497803e+2, -1331326.4, -1305390.4, -45080.723, -0.009709333, 0.19833408, -1271449.5, 51781.313, 0.000000023716384, 9.999835, 10.000184 
1.15504995e+3, 1.7497742e+2, -1167391.0, -1172156.0, -32659.064, -0.017500617, 0.10187399, -1137027.6, 88206.95, 0.0, 10.000275, 10.000214 
1.1550431e+3, 1.8497738e+2, -1072956.5, -1126783.0, -51012.25, 0.0322821, 0.10350268, -1042193.3, 85038.48, 0.0, 10.000469, 9.99976 
1.1550366e+3, 1.9497772e+2, -977974.7, -1025958.44, -44925.758, 0.13220687, 0.14042027, -951035.94, 78188.34, 0.0, 10.000425, 9.9998 
1.1550301e+3, 2.0497622e+2, -949348.94, -1154477.1, 51882.92, 0.11377871, 0.098937854, -936972.94, -5736.179, 0.0, 10.000779, 9.998078 
1.15502395e+3, 2.1497272e+2, -744950.6, -1001894.6, 77134.4, -0.015379637, -0.075085945, -723573.44, 109697.2, 0.0, 10.001498, 9.998107 
1.1550176e+3, 2.2497109e+2, -612299.1, -825499.44, 5500.0093, -0.05816543, -0.07223125, -612157.4, 123128.375, 0.0, 10.001469, 9.998657 
1.1550111e+3, 2.349712e+2, -631259.44, -780539.5, 30058.705, -0.014837031, 0.05272839, -625434.2, 11849.008, 0.0, 10.000648, 9.99869 
1.1550044e+3, 2.4496923e+2, -601488.1, -882170.25, 25058.563, -0.008679918, 0.06737526, -599268.5, -59966.184, 0.0, 10.000908, 9.997189 
1.15499765e+3, 2.5496513e+2, -288395.47, -676236.9, -18070.371, -0.04078229, -0.08196427, -287555.34, 153788.89, 0.0, 10.002372, 9.997221 
1.1549913e+3, 2.6496267e+2, -126186.24, -491494.66, -55368.766, -0.056173254, -0.07056185, -117978.57, 225391.67, 0.0000005356376, 10.002558, 9.997737 
1.1549855e+3, 2.7496174e+2, -191874.23, -463172.63, -88983.086, -0.058881868, 0.039194386, -165293.06, 80088.984, 0.000008957139, 10.00139, 9.997818 
1.15497924e+3, 2.8496036e+2, -24664.736, -207506.86, -87490.75, -0.08240344, 0.06713709, 10454.478, 157849.06, 0.00004724257, 10.00134, 9.998924 
1.154973e+3, 2.9495844e+2, 229266.19, -34972.387, -27592.203, -0.12662092, -0.03841038, 232116.66, 281526.03, 0.0001595295, 10.002401, 9.998929 
1.1549684e+3, 3.0495787e+2, 195036.44, -137794.52, 52747.117, -0.09864977, 0.06754525, 203195.8, 203195.8, 0.000411773, 10.002329, 9.997913 
1.1549647e+3, 3.149561e+2, 52571.016, -142377.27, 20580.613, -0.09772117, 0.07299022, 54720.016, 54720.016, 0.0008237991, 10.0010395, 9.9985 
1.16508566e+3, 1.24984875e+2, -1626049.4, -1737329.8, 45772.113, 0.010036435, -0.028914178, -1609641.6, 105510.12, 0.0016512593, 10.00087, 9.999404 
1.1650783e+3, 1.3498408e+2, -1610616.1, -1701050.8, -22156.121, 0.12462834, -0.049203597, -1605479.6, 11683.264, 0.0008513687, 10.00039, 9.999234 
1.16506845e+3, 1.4498349e+2, -1543582.9, -1588414.9, 80287.086, -0.15782323, -0.039142907, -1482641.3, 36530.82, 0.00027198074, 10.000061, 9.999482 
1.16506435e+3, 1.5498495e+2, -1466344.9, -1497822.4, 76887.82, 0.056901805, 0.14127597, -1403601.5, 17559.744, 0.00003101119, 9.999909, 9.999502 
1.165058e+3, 1.6498533e+2, -1375782.3, -1337337.8, 51012.76, 0.101976365, 0.20203906, -1302045.9, 21112.371, 0.00000004774233, 9.999581, 10.000086 
1.1650498e+3, 1.749845e+2, -1339930.4, -1266225.1, 30233.975, 0.0020782545, 0.09433299, -1255410.0, -30246.156, 0.0, 9.99914, 10.000116 
1.1650431e+3, 1.8498434e+2, -1233326.9, -1261168.9, 26558.836, 0.035487685, 0.11384195, -1217261.8, -90098.1, 0.0, 9.999599, 9.999261 
1.1650378e+3, 1.9498472e+2, -932285.94, -1058665.8, -14089.088, 0.19058797, 0.20576826, -930734.3, 98424.734, 0.0, 10.000967, 9.999316 
1.1650317e+3, 2.049831e+2, -869323.3, -1097187.0, 46020.766, 0.17763029, 0.16773309, -860379.7, 70793.59, 0.0, 10.001253, 9.998239 
1.16502516e+3, 2.1497932e+2, -884097.4, -1045567.0, 35539.58, 0.0049837986, -0.053970218, -876621.2, -43413.695, 0.0, 10.000449, 9.998305 
1.1650185e+3, 2.2497757e+2, -708384.6, -882234.3, -29992.326, -0.079180256, -0.06994893, -703355.8, 31866.678, 0.0, 10.000857, 9.998562 
1.1650121e+3, 2.3497762e+2, -369483.16, -663051.2, -59048.582, -0.06687346, 0.060243342, -358051.25, 279169.16, 0.0, 10.00249, 9.998607 
1.165006e+3, 2.4497533e+2, -309375.2, -760989.2, -25040.506, -0.043195568, 0.05341786, -307991.0, 231251.06, 0.0, 10.002989, 9.997021 
1.1650003e+3, 2.549706e+2, -309063.97, -706538.5, 6097.029, -0.015801333, -0.1405231, -308970.44, 132318.23, 0.0, 10.002303, 9.997053 
1.1649938e+3, 2.6496813e+2, -215713.42, -561644.75, 29414.348, -0.040225137, -0.10994415, -213230.16, 130085.64, 0.00000056359414, 10.002069, 9.997485 
1.1649867e+3, 2.7496776e+2, -81458.22, -440345.13, 41507.26, -0.110493615, 0.08617416, -76720.23, 168605.02, 0.00000928475, 10.002287, 9.997544 
1.1649806e+3, 2.849667e+2, 113041.9, -119291.5, 72411.29, -0.121007696, 0.1494834, 133762.36, 281098.3, 0.000050363375, 10.00218, 9.999131 
1.1649756e+3, 2.9496494e+2, 149251.63, -44263.11, 26335.102, -0.071505524, 0.03890694, 152771.52, 202119.6, 0.00017032117, 10.001733, 9.999184 
1.1649709e+3, 3.0496395e+2, 98655.47, -182274.27, 72395.84, -0.032945972, 0.09054578, 116214.445, 116214.445, 0.0004381968, 10.001652, 9.997946 
1.1649659e+3, 3.149615e+2, 129954.85, -116148.25, 60422.586, -0.09001054, 0.02871119, 143989.31, 143989.31, 0.0008746987, 10.001614, 9.99842 
1.17508724e+3, 1.2499353e+2, -1614892.4, -1707951.1, 62932.906, 0.050324414, 0.059900578, -1583156.0, 131920.08, 0.0018234614, 10.000854, 9.999611 
1.17507726e+3, 1.349949e+2, -1610688.6, -1705317.1, -36511.844, -0.029451476, 0.26146176, -1598238.8, 18826.361, 0.0009506097, 10.000405, 9.9992 
1.17506824e+3, 1.449941e+2, -1508652.1, -1515135.3, 67096.19, -0.20548919, 0.22562775, -1444719.3, 74353.055, 0.00031097958, 10.000058, 9.999984 
1.1750654e+3, 1.549931e+2, -1430110.1, -1426705.8, 78990.836, 0.1506229, 0.110213086, -1349398.8, 71679.92, 0.00003785508, 9.9999275, 9.99998 
1.17505886e+3, 1.6499251e+2, -1400526.6, -1394843.3, 26162.984, 0.21110518, 0.071116626, -1371368.0, -48286.43, 0.00000010132158, 9.999606, 9.999678 
1.1750495e+3, 1.7499214e+2, -1365237.3, -1321217.6, 19512.184, 0.027183568, 0.046522357, -1313813.9, -88731.266, 0.0, 9.999147, 9.999735 
1.1750426e+3, 1.849916e+2, -1298994.8, -1394558.6, 68674.555, 0.002794072, 0.090661764, -1263114.9, -136025.94, 0.0, 9.999592, 9.998346 
1.1750383e+3, 1.9499071e+2, -1003203.9, -1196231.9, 44648.41, 0.13050336, 0.1470358, -993376.75, 35724.992, 0.0, 10.000926, 9.998392 
1.17503256e+3, 2.0498903e+2, -883444.06, -1112400.1, 6665.2866, 0.11618655, 0.15486018, -883250.25, 47868.64, 0.0, 10.001192, 9.998165 
1.17502525e+3, 2.1498638e+2, -900698.3, -1063471.9, 10788.623, -0.028595932, 0.05387334, -899986.3, -66844.695, 0.0, 10.000373, 9.998223 
1.1750193e+3, 2.2498438e+2, -762849.4, -973336.3, 21662.965, -0.10374096, 0.0458274, -760643.0, -25483.121, 0.0, 10.000762, 9.997984 
1.1750143e+3, 2.3498291e+2, -423818.1, -751223.7, 10080.865, -0.11072344, 0.081914596, -423508.0, 213666.22, 0.0, 10.002385, 9.998052 
1.1750084e+3, 2.4498086e+2, -255262.39, -625764.6, -57993.97, -0.112502016, 0.07702729, -246396.86, 292796.25, 0.0, 10.002887, 9.998001 
1.17500186e+3, 2.54978e+2, -245473.9, -561106.25, -12521.78, -0.10677108, -0.028616086, -244977.92, 196240.31, 0.0, 10.002243, 9.99808 
1.1749952e+3, 2.6497635e+2, -187705.6, -485896.53, 29952.852, -0.12090151, -0.000040529052, -184726.63, 158508.27, 0.0000005132723, 10.001993, 9.998043 
1.1749887e+3, 2.749756e+2, -53707.01, -366168.88, 59750.3, -0.1641812, 0.10163011, -42671.082, 202574.08, 0.000009286575, 10.002217, 9.998086 
1.1749828e+3, 2.849742e+2, 28760.78, -278814.88, 49311.21, -0.13871993, 0.15864645, 36473.08, 183733.48, 0.00005131962, 10.002111, 9.998069 
1.1749778e+3, 2.9497215e+2, 75349.53, -190636.58, 19150.455, -0.041320954, 0.120051324, 76721.25, 126001.78, 0.00017691198, 10.00169, 9.998202 
1.1749728e+3, 3.0497026e+2, 136085.42, -74930.36, 70087.01, -0.032385416, 0.08811987, 157242.84, 157242.84, 0.00045575172, 10.001539, 9.9987335 
1.1749663e+3, 3.149669e+2, 149949.88, -44594.293, 81600.09, -0.25561285, -0.1388542, 179644.05, 179644.05, 0.00090608484, 10.001497, 9.998961 
1.1850882e+3, 1.2500173e+2, -1803867.0, -1709286.3, 15638.874, 0.14415795, 0.22981921, -1706767.4, 8236.414, 0.0020081834, 9.999173, 10.00041 
1.18507706e+3, 1.3500285e+2, -1662921.0, -1665524.9, -83532.95, -0.052899368, 0.34703404, -1580679.9, 36310.516, 0.0010574218, 9.999763, 9.999788 
1.1850692e+3, 1.450019e+2, -1486125.9, -1509477.1, 43194.07, -0.121543705, 0.26893878, -1453057.3, 65939.31, 0.00035351914, 10.000238, 9.999933 
1.1850656e+3, 1.550005e+2, -1335632.5, -1383265.5, -6271.561, 0.14814445, 0.11481903, -1334820.5, 86186.17, 0.00004562391, 10.00059, 9.999955 
1.1850588e+3, 1.6499947e+2, -1282025.6, -1385650.0, -79456.586, 0.19977446, 0.055557676, -1238980.8, 84032.25, 0.00000019883093, 10.000618, 9.999261 
1.1850496e+3, 1.7499869e+2, -1213471.0, -1289964.4, -99474.95, 0.07575156, 0.027974855, -1145143.4, 79873.49, 0.0, 10.00037, 9.99936 
1.1850429e+3, 1.8499766e+2, -1205104.0, -1381699.0, 31755.352, 0.04900782, 0.05809474, -1199567.4, -72539.35, 0.0, 10.000384, 9.998052 
1.1850388e+3, 1.9499628e+2, -1054859.3, -1249800.9, 34313.133, 0.10720185, 0.092607714, -1048995.9, -19948.412, 0.0, 10.000708, 9.998125 
1.1850333e+3, 2.049948e+2, -877856.0, -1117174.1, 5028.202, 0.07510432, 0.13756302, -877750.4, 53313.03, 0.0, 10.001258, 9.998102 
1.1850264e+3, 2.14993e+2, -664394.3, -955932.56, -936.7686, -0.035819795, 0.1277722, -664391.3, 168686.8, 0.0, 10.002022, 9.998166 
1.1850207e+3, 2.2499081e+2, -602720.94, -930866.44, 52905.844, -0.088230036, 0.12057902, -594402.0, 140696.52, 0.0, 10.002013, 9.997668 
1.18501626e+3, 2.3498814e+2, -614655.8, -877693.6, 42266.367, -0.08949392, 0.066329874, -608031.06, 29094.393, 0.0, 10.001222, 9.997742 
1.1850104e+3, 2.4498639e+2, -495458.53, -676298.44, -38002.47, -0.11141287, 0.0773838, -487797.13, 51344.51, 0.0, 10.000965, 9.998578 
1.1850031e+3, 2.5498533e+2, -347521.44, -548734.06, -40603.574, -0.14931466, 0.0951731, -339636.8, 101512.28, 0.0, 10.001283, 9.99863 
1.18499674e+3, 2.649838e+2, -260814.4, -503807.28, -10145.387, -0.13810663, 0.104236394, -260391.55, 82771.08, 0.0000005059796, 10.001413, 9.9982 
1.1849911e+3, 2.7498162e+2, -175262.64, -409163.06, -30116.209, -0.089829594, 0.04821664, -171447.22, 73736.77, 0.000009353779, 10.001314, 9.998226 
1.1849855e+3, 2.8497976e+2, -83156.71, -396427.75, -18018.375, -0.053196304, 0.08302292, -82123.76, 65080.36, 0.000051335024, 10.001637, 9.997478 
1.1849801e+3, 2.949783e+2, 127049.92, -232272.34, -33391.21, -0.009961391, 0.1642174, 130126.57, 179349.44, 0.00017968877, 10.002351, 9.997589 
1.1849748e+3, 3.049763e+2, 305035.1, 72902.625, 16348.221, -0.010243515, 0.12058529, 306180.78, 306180.78, 0.00045955076, 10.002392, 9.999342 
1.18496835e+3, 3.1497315e+2, 191661.97, 21281.754, -18362.45, -0.19314548, -0.14610678, 193618.48, 193618.48, 0.0009064869, 10.001557, 9.999391 
1.1950875e+3, 1.2500949e+2, -1705014.5, -1502352.9, 1677.8717, 0.12868702, 0.4687364, -1502339.0, 212596.0, 0.0022081332, 9.999166, 10.001834 
1.1950773e+3, 1.3500807e+2, -1571760.5, -1478867.8, -54030.56, -0.019522408, 0.20170632, -1454064.1, 162873.61, 0.0011730703, 9.999772, 10.001064 
1.19507104e+3, 1.4500704e+2, -1529563.3, -1604525.6, 49763.773, 0.017739492, 0.085460305, -1504744.6, 14198.87, 0.00040013902, 10.000259, 9.999273 
1.1950648e+3, 1.5500724e+2, -1377896.0, -1479064.3, 14636.657, -0.0021285326, 0.1580438, -1375821.0, 45123.28, 0.00005450229, 10.000616, 9.99929 
1.1950577e+3, 1.650063e+2, -1302241.5, -1432584.8, -99225.555, 0.009618986, 0.15784404, -1248699.0, 74252.625, 0.00000035173326, 10.000639, 9.998929 
1.1950503e+3, 1.7500417e+2, -1238409.5, -1342587.8, -102463.53, 0.093710534, 0.029764995, -1175554.9, 49411.37, 0.0, 10.000371, 9.9990015 
1.1950441e+3, 1.850026e+2, -1184701.4, -1341499.6, 36293.434, 0.108277015, 0.009410461, -1176708.1, -49727.516, 0.0, 10.000394, 9.998322 
1.19503915e+3, 1.9500145e+2, -1040741.3, -1215181.8, 53524.79, 0.054906435, 0.04174715, -1025627.44, 3368.5076, 0.0, 10.000679, 9.99838 
1.1950338e+3, 2.0500037e+2, -886558.6, -1120033.3, 23644.213, -0.009282213, 0.112885274, -884188.25, 46819.17, 0.0, 10.001197, 9.998111 
1.19502805e+3, 2.1499921e+2, -677312.6, -960072.1, 33252.625, -0.07895006, 0.16447692, -673454.75, 159561.7, 0.0, 10.001928, 9.998181 
1.1950228e+3, 2.2499692e+2, -622647.1, -949263.3, 14946.522, -0.09761177, 0.15064126, -621964.56, 113073.5, 0.0, 10.001912, 9.997591 
1.19501784e+3, 2.3499338e+2, -631952.9, -894448.9, 18901.09, -0.06271955, 0.016512128, -630598.9, 6474.566, 0.0, 10.00114, 9.997665 
1.1950115e+3, 2.4499197e+2, -497023.8, -662776.75, -34123.883, -0.10423023, 0.060957827, -490273.56, 48813.63, 0.0, 10.00089, 9.99871 
1.1950038e+3, 2.5499257e+2, -349167.94, -532955.2, -20503.627, -0.21853709, 0.23199067, -346908.3, 94172.33, 0.0, 10.001201, 9.998776 
1.19499795e+3, 2.649906e+2, -297573.34, -561013.06, -20394.098, -0.16409516, 0.20498678, -296003.88, 47094.426, 0.0000006389743, 10.001326, 9.997852 
1.1949939e+3, 2.7498585e+2, -206430.2, -457282.6, -24190.098, 0.05016391, -0.07745696, -204118.8, 41022.973, 0.000009301616, 10.001245, 9.997928 
1.1949885e+3, 2.849835e+2, -105487.54, -428925.22, 2435.0518, 0.081306286, -0.07010168, -105469.21, 41697.59, 0.000051838055, 10.001572, 9.99729 
1.19498216e+3, 2.9498336e+2, 106897.81, -265609.8, 6402.0986, -0.059706483, 0.16276498, 107007.81, 156183.05, 0.00018142357, 10.002305, 9.997386 
1.194977e+3, 3.0498204e+2, 304297.0, 101966.26, -17263.08, -0.044793203, 0.18521807, 305759.34, 305759.34, 0.00045547623, 10.002274, 9.999592 
1.19497195e+3, 3.1498024e+2, 181741.84, 47827.81, -29299.875, -0.029281085, 0.018609645, 187871.92, 187871.92, 0.0008857679, 10.001369, 9.999655 
1.20508656e+3, 1.2501453e+2, -1796057.9, -1535446.1, 39903.094, 0.15247701, 0.37168264, -1529473.3, 185407.92, 0.0024257244, 9.998484, 10.001948 
1.2050772e+3, 1.3501304e+2, -1611460.9, -1469952.0, -62919.516, 0.014089879, 0.078198135, -1446022.5, 170863.44, 0.0012988481, 9.999384, 10.001311 
1.2050728e+3, 1.45013e+2, -1578005.4, -1633784.3, 27467.7, 0.18058757, 0.047247153, -1566750.3, -47866.688, 0.00045139206, 9.999948, 9.999226 
1.20506555e+3, 1.5501402e+2, -1458838.5, -1517746.0, 18091.246, 0.03992037, 0.20557293, -1453726.1, -32848.418, 0.00006471426, 10.000067, 9.999288 
1.2050583e+3, 1.6501309e+2, -1284911.6, -1441181.0, -34015.508, 0.004835572, 0.21378067, -1277828.5, 45057.24, 0.00000057087306, 10.000838, 9.998767 
1.2050519e+3, 1.750101e+2, -957321.75, -1220935.3, -40066.234, 0.11793519, 0.016371507, -951366.7, 273541.8, 0.0, 10.002371, 9.998864 
1.2050459e+3, 1.850083e+2, -877994.6, -1229604.6, 64866.258, 0.139139, -0.0048876284, -866409.56, 260515.47, 0.0, 10.002651, 9.998 
1.20504044e+3, 1.9500744e+2, -913982.6, -1187013.5, 26694.28, 0.062427092, 0.08695466, -911397.25, 117540.29, 0.0, 10.001691, 9.99808 
1.20503515e+3, 2.0500612e+2, -885570.56, -1125068.1, 17087.797, 0.0034070343, 0.1511431, -884357.5, 46593.53, 0.0, 10.001223, 9.998064 
1.20503016e+3, 2.150042e+2, -777628.75, -1013201.5, 4872.5513, -0.031938888, 0.13229424, -777528.0, 55439.047, 0.0, 10.001251, 9.998147 
1.2050248e+3, 2.2500183e+2, -708985.94, -960418.75, -19817.846, -0.048745137, 0.09766567, -707433.5, 27555.236, 0.0, 10.001187, 9.997867 
1.20501906e+3, 2.3499884e+2, -627969.44, -862838.2, -4436.4854, -0.04583331, -0.008128789, -627885.7, 9132.021, 0.0, 10.0010395, 9.997934 
1.2050126e+3, 2.449975e+2, -497734.47, -690266.4, -21208.63, -0.08303742, 0.041245423, -495425.88, 43604.996, 0.0, 10.000997, 9.9984665 
1.20500535e+3, 2.5499767e+2, -386595.75, -578517.06, -51603.4, -0.17160477, 0.19049734, -373600.63, 67429.234, 0.00000000020898414, 10.001052, 9.998536 
1.2049999e+3, 2.6499557e+2, -306092.63, -577660.6, -40300.348, -0.09942749, 0.17161074, -300238.3, 42811.125, 0.00000074892756, 10.001333, 9.997725 
1.2049962e+3, 2.749911e+2, -126242.07, -433321.8, -47202.24, 0.13249241, -0.06965805, -119150.24, 125940.82, 0.000009032264, 10.001862, 9.997789 
1.2049906e+3, 2.8498885e+2, -68314.08, -378560.88, 5954.218, 0.12511724, -0.05719223, -68199.84, 78914.234, 0.000052112464, 10.001684, 9.997584 
1.204983e+3, 2.9498875e+2, -103120.336, -333669.16, 23248.867, -0.11909617, 0.14871472, -100799.25, -51678.914, 0.00018285186, 10.000724, 9.99768 
1.204978e+3, 3.04987e+2, 58721.28, -90746.72, 9146.605, -0.09244665, 0.1466845, 59278.92, 59278.92, 0.00045304873, 10.000902, 9.998925 
1.2049746e+3, 3.1498572e+2, 214257.92, -7146.889, -109609.94, 0.09198492, 0.10668604, 259341.78, 259341.78, 0.00086639443, 10.001907, 9.999013 
1.2150836e+3, 1.2501642e+2, -1876661.1, -1698744.9, -38305.895, -0.016857944, -0.11329419, -1690848.0, 23999.256, 0.0026624324, 9.998483, 10.000819 
1.2150767e+3, 1.3501795e+2, -1672539.4, -1595878.9, -23498.723, 0.007822831, -0.019021202, -1589249.1, 27584.52, 0.0014356553, 9.99939, 10.000442 
1.2150742e+3, 1.4501978e+2, -1525166.4, -1530254.5, 26085.715, 0.31316426, 0.14695595, -1501501.0, 17315.523, 0.0005075534, 9.999975, 9.999923 
1.2150675e+3, 1.5502082e+2, -1411104.6, -1425860.1, 32000.219, 0.20536795, 0.2414945, -1385642.6, 35164.64, 0.000076397075, 10.000092, 9.999911 
1.2150604e+3, 1.6501977e+2, -1284431.6, -1441608.8, 14716.829, 0.111435145, 0.20835662, -1283065.5, 39750.31, 0.0000008702971, 10.000848, 9.998756 
1.2150542e+3, 1.7501654e+2, -960547.6, -1226686.8, 23534.418, 0.09490658, -0.01171164, -958482.5, 266360.7, 0.0, 10.002362, 9.998831 
1.2150482e+3, 1.8501477e+2, -934183.25, -1345142.0, 19615.328, 0.08435646, 0.012041526, -933249.1, 193612.17, 0.0, 10.002648, 9.997209 
1.2150423e+3, 1.9501428e+2, -976328.56, -1310035.5, -1900.5856, 0.063146874, 0.22242047, -976317.75, 52554.105, 0.0, 10.00166, 9.997253 
1.2150369e+3, 2.050121e+2, -903401.2, -1146846.4, 9186.407, 0.042685978, 0.24788524, -903055.0, 27839.105, 0.0, 10.001161, 9.997941 
1.2150322e+3, 2.1500812e+2, -800479.8, -1037237.4, 12231.212, 0.038559716, 0.033140518, -799849.6, 33079.508, 0.0, 10.001151, 9.998028 
1.21502645e+3, 2.2500561e+2, -682832.44, -882662.7, -35398.684, -0.0067560156, -0.036541097, -676747.06, 58203.07, 0.0, 10.001085, 9.998451 
1.21501975e+3, 2.3500453e+2, -598138.25, -781227.7, -2745.7598, -0.09379405, -0.011031997, -598097.06, 38861.0, 0.0, 10.000954, 9.998536 
1.2150134e+3, 2.4500294e+2, -555117.2, -785641.4, -25281.385, -0.115436025, 0.012653155, -552377.1, -13404.476, 0.0, 10.000897, 9.997856 
1.2150076e+3, 2.5500062e+2, -439965.28, -673087.9, -41861.863, -0.066376284, -0.027245235, -432676.06, 8320.021, 0.00000000018849695, 10.000985, 9.997916 
1.2150023e+3, 2.649988e+2, -311963.44, -576106.75, -26513.09, -0.002876637, 0.0082521085, -309328.5, 33687.023, 0.00000061447383, 10.00127, 9.997769 
1.2149978e+3, 2.7499732e+2, -130394.79, -429303.28, -17018.67, 0.08215604, 0.063621834, -129428.93, 115603.24, 0.000008322687, 10.001801, 9.9978485 
1.2149911e+3, 2.8499588e+2, -38527.914, -290359.0, -37063.75, -0.003939069, 0.11866591, -33186.28, 113859.84, 0.000050693892, 10.001575, 9.998241 
1.2149826e+3, 2.9499435e+2, -65701.88, -238974.45, 1167.0354, -0.26062468, 0.117080085, -65694.02, -16635.27, 0.00018217303, 10.000651, 9.9983635 
1.2149779e+3, 3.0499104e+2, -74434.36, -341828.22, 43489.15, -0.21472777, 0.00656543, -67539.06, -67539.06, 0.00045205725, 10.000801, 9.997246 
1.2149763e+3, 3.149895e+2, 85477.95, -233655.7, -52925.004, 0.03038078, 0.1067985, 94026.05, 94026.05, 0.00085648143, 10.001745, 9.997527 
1.22508176e+3, 1.2502183e+2, -1913784.9, -1797770.5, -84482.08, -0.05179365, -0.17894469, -1753298.1, -38508.17, 0.0029179724, 9.998543, 10.000124 
1.2250768e+3, 1.3502406e+2, -1495396.0, -1558998.6, 17633.791, 0.019530198, 0.03229045, -1490834.3, 125938.39, 0.0015834377, 10.000807, 10.000013 
1.2250746e+3, 1.4502572e+2, -1297994.0, -1397973.5, 2805.6533, 0.28255752, 0.18880698, -1297915.3, 220842.2, 0.00056846405, 10.00144, 10.000122 
1.225068e+3, 1.5502547e+2, -1341921.9, -1366608.3, -45676.03, 0.2371045, 0.13333002, -1306950.6, 113806.73, 0.00008951281, 10.00046, 10.0001335 
1.2250614e+3, 1.650244e+2, -1379801.5, -1522827.9, -12140.517, 0.15415157, 0.10070374, -1378778.3, -56011.773, 0.0000012652538, 10.000325, 9.998464 
1.22505575e+3, 1.7502241e+2, -1172562.1, -1359098.3, -31981.076, 0.0892541, 0.0321515, -1167231.4, 57554.293, 0.0, 10.001026, 9.998573 
1.22505e+3, 1.8502074e+2, -1107422.6, -1428292.9, -56584.598, 0.07432055, 0.079092376, -1097736.5, 29066.941, 0.0, 10.001456, 9.997217 
1.2250442e+3, 1.9501925e+2, -971643.56, -1301611.3, -35251.48, 0.09423766, 0.1846608, -967919.56, 60901.887, 0.0, 10.001675, 9.997304 
1.2250387e+3, 2.0501673e+2, -824490.5, -1102198.8, 39436.45, 0.08173625, 0.17313406, -818998.9, 111846.664, 0.0, 10.00167, 9.998006 
1.22503355e+3, 2.1501313e+2, -760239.8, -1009798.2, 44202.813, 0.049966987, -0.009499947, -752641.75, 80235.26, 0.0, 10.001395, 9.998097 
1.2250278e+3, 2.2501099e+2, -632180.56, -866876.75, 6563.425, 0.0028541668, -0.044478137, -631997.1, 102897.89, 0.0, 10.001464, 9.998377 
1.2250213e+3, 2.3501016e+2, -467599.6, -726575.56, -30425.887, -0.06961188, 0.01318111, -464073.03, 172827.92, 0.0, 10.001877, 9.998468 
1.2250152e+3, 2.4500823e+2, -414665.28, -733858.7, -55085.418, -0.071521185, 0.012208026, -405426.22, 133492.3, 0.0, 10.00193, 9.997719 
1.2250095e+3, 2.55005e+2, -350056.7, -641935.9, -50353.125, 0.0000933526, -0.10217895, -341614.28, 99335.07, 0.0, 10.001665, 9.997801 
1.22500405e+3, 2.6500314e+2, -295978.38, -560649.1, 2561.1099, 0.03526018, -0.0664921, -295953.6, 47015.598, 0.0000003685213, 10.001345, 9.997842 
1.2249985e+3, 2.7500254e+2, -257748.66, -482661.97, -4068.0056, 0.03171204, 0.06722365, -257675.1, -12695.775, 0.0000073761885, 10.0009, 9.997914 
1.224992e+3, 2.850014e+2, -104833.164, -291155.5, -32358.053, -0.04046289, 0.13527134, -99373.61, 47616.008, 0.00004908337, 10.000975, 9.998523 
1.2249844e+3, 2.9499957e+2, 74631.98, -141872.67, -40017.7, -0.17721356, 0.07702279, 81791.875, 130793.73, 0.00018062291, 10.001484, 9.998631 
1.22498035e+3, 3.0499575e+2, 46416.71, -313390.56, 82953.92, -0.090918936, -0.08445119, 64620.8, 64620.8, 0.00044944658, 10.001752, 9.996992 
1.2249788e+3, 3.1499428e+2, 58776.105, -245665.42, 59418.453, 0.12988973, 0.046409834, 69961.93, 69961.93, 0.0008490022, 10.001527, 9.997564 
1.2350804e+3, 1.2503037e+2, -1901925.6, -1792482.9, -59552.242, -0.07272293, 0.13117929, -1766328.4, -51615.703, 0.0031899144, 9.998625, 10.000119 
1.2350774e+3, 1.3503143e+2, -1488091.6, -1547978.5, 106498.17, -0.014225212, 0.21784647, -1407407.5, 209295.39, 0.0017411282, 10.00082, 10.000083 
1.2350735e+3, 1.4503083e+2, -1318998.5, -1445575.8, -39579.168, 0.016856954, 0.16134882, -1307641.6, 211064.69, 0.0006337289, 10.0014515, 9.999792 
1.2350672e+3, 1.5502803e+2, -1356578.0, -1413118.0, -76222.63, 0.081699595, -0.114326745, -1303551.8, 117176.086, 0.00010392506, 10.000513, 9.999798 
1.23506114e+3, 1.6502701e+2, -1403487.5, -1575985.4, 3585.4124, 0.0781334, -0.106617786, -1403413.1, -80675.47, 0.0000017603737, 10.00035, 9.998082 
1.2350564e+3, 1.7502776e+2, -1202063.1, -1420886.4, 103.09305, 0.037943125, 0.13925706, -1202063.0, 22672.504, 0.0, 10.001027, 9.998149 
1.2350514e+3, 1.8502623e+2, -1054873.4, -1317355.3, -56179.043, 0.044638585, 0.18266256, -1043354.75, 83396.65, 0.0, 10.001451, 9.997981 
1.235046e+3, 1.950223e+2, -921416.0, -1191936.8, -19541.943, 0.09523817, -0.028856449, -920011.6, 108774.71, 0.0, 10.001648, 9.998072 
1.2350403e+3, 2.0502004e+2, -810348.6, -1058938.4, 17993.008, 0.0610728, -0.07172166, -809053.0, 121752.5, 0.0, 10.001612, 9.998328 
1.2350341e+3, 2.1501935e+2, -750830.56, -973128.6, 39437.773, -0.053914458, 0.00470603, -744041.3, 88768.945, 0.0, 10.001318, 9.998387 
1.2350286e+3, 2.2501796e+2, -699204.94, -982402.25, 13674.272, -0.085186176, 0.07002393, -698546.2, 36277.055, 0.0, 10.001364, 9.997632 
1.23502366e+3, 2.3501575e+2, -536484.3, -846137.7, -6940.925, -0.03482187, 0.06408238, -536328.8, 100517.16, 0.0, 10.001779, 9.997694 
1.23501785e+3, 2.4501339e+2, -403394.9, -692811.9, -73324.82, -0.020791702, 0.045334406, -385878.03, 152989.84, 0.0, 10.001854, 9.998037 
1.235011e+3, 2.5501078e+2, -334558.0, -597817.5, -52763.953, -0.03680423, -0.042982843, -324376.5, 116513.414, 0.0, 10.001606, 9.9981365 
1.2350045e+3, 2.6500857e+2, -307766.2, -560135.94, -20536.723, -0.05350507, -0.06227126, -306105.94, 36805.273, 0.00000016286783, 10.001242, 9.997893 
1.23499855e+3, 2.7500665e+2, -266075.44, -482192.06, -10352.915, -0.07949175, -0.06383862, -265580.63, -20647.648, 0.000006622681, 10.000825, 9.997952 
1.23499304e+3, 2.850053e+2, -124999.8, -311640.38, -17534.762, -0.04816595, -0.0138208745, -123366.7, 23578.586, 0.0000487502, 10.000887, 9.998424 
1.2349884e+3, 2.950043e+2, 55645.902, -165573.13, -8090.1685, 0.058820076, 0.016958084, 55941.37, 104892.195, 0.00018150224, 10.001412, 9.998506 
1.23498514e+3, 3.0500102e+2, 111205.28, -154849.1, 73492.664, 0.19778156, -0.13733748, 130156.4, 130156.4, 0.00045012333, 10.001653, 9.998128 
1.23498194e+3, 3.150001e+2, 151583.36, -18823.059, 74855.14, 0.24983929, -0.06761678, 179794.78, 179794.78, 0.0008459935, 10.001385, 9.999189 
1.24508105e+3, 1.2503707e+2, -1363013.5, -1564160.6, -7920.45, -0.062189203, 0.21127836, -1362702.1, 351942.97, 0.003475539, 10.002496, 9.999812 
1.2450785e+3, 1.3503651e+2, -1774331.6, -1729857.1, 78181.42, 0.10520996, 0.17434298, -1670812.0, -54162.492, 0.0019075654, 9.999049, 9.999689 
1.2450728e+3, 1.4503485e+2, -1759986.0, -1716674.4, -15751.381, -0.06758775, 0.06133935, -1711551.8, -192888.56, 0.0007030745, 9.998674, 9.999273 
1.24506764e+3, 1.5503268e+2, -1238771.3, -1409341.8, -79241.75, 0.03650483, -0.10286306, -1207639.9, 213040.89, 0.00011956255, 10.001562, 9.999316 
1.24506235e+3, 1.650317e+2, -1106037.1, -1444239.9, -24718.664, 0.061742242, -0.06063081, -1104240.0, 218451.31, 0.0000023468863, 10.002442, 9.997977 
1.24505736e+3, 1.7503192e+2, -1163274.4, -1410533.0, -23061.514, 0.018137278, 0.14121985, -1161141.9, 63553.066, 0.0, 10.001338, 9.998063 
1.2450525e+3, 1.8503027e+2, -1041736.9, -1256458.9, -31670.82, 0.02163102, 0.15201008, -1037162.94, 89547.53, 0.0, 10.001297, 9.998472 
1.2450478e+3, 1.9502656e+2, -792166.1, -1075928.5, -25508.715, 0.07621915, -0.0881372, -789891.25, 238848.72, 0.0, 10.002294, 9.99856 
1.2450422e+3, 2.0502448e+2, -712937.0, -1056932.9, -47247.844, 0.061578017, -0.11970838, -706565.5, 224192.02, 0.0, 10.002466, 9.997934 
1.245036e+3, 2.1502386e+2, -705799.44, -991421.6, -95266.3, -0.015851775, 0.0030599479, -676940.3, 155823.95, 0.0, 10.001797, 9.998032 
1.2450304e+3, 2.2502239e+2, -695534.94, -976603.56, -80692.984, -0.03534974, 0.0729183, -674016.0, 60763.363, 0.0, 10.001378, 9.997663 
1.24502555e+3, 2.350198e+2, -615486.3, -878643.06, -57958.707, 0.0032536706, 0.02671085, -603286.8, 33518.242, 0.0, 10.001214, 9.997741 
1.2450194e+3, 2.4501745e+2, -521823.6, -744447.44, -102272.92, -0.0044740667, 0.004438931, -481973.03, 56853.27, 0.0, 10.001017, 9.998086 
1.245012e+3, 2.5501528e+2, -452702.47, -648719.44, -119364.75, -0.056053128, -0.04521682, -396264.84, 44579.043, 0.0, 10.0007715, 9.998186 
1.2450055e+3, 2.650131e+2, -372030.22, -591724.25, -80188.17, -0.064502925, -0.063124835, -345875.38, -3011.1943, 0.000000050542315, 10.000798, 9.9978895 
1.24499984e+3, 2.7501085e+2, -229982.33, -467687.88, -91962.66, -0.034585916, -0.097169556, -198558.31, 46330.027, 0.0000061370592, 10.001075, 9.997937 
1.2449948e+3, 2.8500906e+2, -101526.69, -342149.13, -82453.23, 0.02461014, -0.072300464, -75984.13, 70921.445, 0.000049450737, 10.001235, 9.998048 
1.2449904e+3, 2.9500738e+2, 8108.107, -228743.45, -113947.48, 0.12648422, -0.06655234, 54025.543, 102944.7, 0.00018681613, 10.00127, 9.998136 
1.244987e+3, 3.0500442e+2, 73978.84, -108112.03, -66167.11, 0.2562309, -0.19973244, 95482.766, 95482.766, 0.00046226173, 10.001098, 9.998723 
1.2449835e+3, 3.1500468e+2, 117715.16, 82179.97, -135562.81, 0.3201516, -0.076332495, 236669.78, 236669.78, 0.0008624877, 10.00064, 10.000247 
1.2550841e+3, 1.2504269e+2, -1401427.4, -1653530.9, -74191.195, -0.043138575, 0.12469148, -1381214.4, 333365.94, 0.0037739007, 10.002531, 9.999182 
1.25508e+3, 1.3503937e+2, -1828483.9, -1863375.5, -48954.367, 0.32820994, -0.09687911, -1793959.6, -177347.75, 0.0020822603, 9.999123, 9.998746 
1.255072e+3, 1.450379e+2, -1795988.4, -1802140.1, 82869.21, -0.027080534, -0.112001136, -1716138.0, -197510.3, 0.0007764397, 9.998724, 9.99866 
1.2550694e+3, 1.550394e+2, -1276564.8, -1495460.5, 36755.05, 0.036914077, 0.14964446, -1270558.0, 150058.8, 0.00013646827, 10.001589, 9.9987135 
1.2550648e+3, 1.6503839e+2, -1099187.5, -1429078.6, -74639.73, 0.044981904, 0.21418431, -1083085.8, 239543.05, 0.0000030208696, 10.00244, 9.99808 
1.2550585e+3, 1.7503496e+2, -1153635.9, -1395076.0, -59516.86, -0.018570352, 0.04043358, -1139761.8, 84901.555, 0.0, 10.001352, 9.998164 
1.2550533e+3, 1.8503292e+2, -1015861.56, -1204869.4, -3216.1433, -0.048703842, -0.010371856, -1015806.8, 110873.76, 0.0, 10.001306, 9.998822 
1.2550493e+3, 1.9503208e+2, -771482.0, -1028338.25, 17661.81, -0.030117037, 0.0008272478, -770273.25, 258409.22, 0.0, 10.00227, 9.9988985 
1.2550445e+3, 2.0503004e+2, -800997.56, -1220148.5, -81021.29, 0.024198225, 0.013535598, -785881.44, 144820.25, 0.0, 10.002386, 9.996855 
1.2550391e+3, 2.1502677e+2, -794959.0, -1155966.6, -113389.945, 0.10439802, -0.02153506, -762298.8, 70439.88, 0.0, 10.00171, 9.996947 
1.255033e+3, 2.2502425e+2, -652562.25, -865726.9, -95119.61, 0.086562395, -0.040441643, -616289.6, 118474.01, 0.0, 10.001283, 9.99847 
1.2550266e+3, 2.3502235e+2, -568645.6, -765570.94, -57297.426, -0.017944885, -0.09834309, -553187.75, 83590.12, 0.0, 10.001142, 9.998555 
1.2550196e+3, 2.450205e+2, -549952.06, -782275.1, -119246.516, -0.083235756, -0.104361646, -499640.66, 39152.58, 0.0, 10.000925, 9.997871 
1.2550122e+3, 2.5501847e+2, -481540.9, -692046.6, -119845.76, -0.11381822, -0.11539463, -427290.88, 13520.534, 0.0, 10.000695, 9.997927 
1.2550065e+3, 2.6501665e+2, -396318.53, -616998.6, -76914.01, -0.05218052, -0.0784658, -372156.94, -29327.838, 0.00000007625481, 10.000693, 9.997766 
1.2550025e+3, 2.7501503e+2, -253119.22, -489916.25, -72298.38, 0.099985525, -0.038883887, -232790.42, 12056.005, 0.0000061507535, 10.000967, 9.997836 
1.254997e+3, 2.8501257e+2, -159956.06, -447905.2, -87537.67, 0.10047544, -0.04067974, -135432.8, 11438.212, 0.000051587293, 10.001161, 9.997357 
1.2549901e+3, 2.950089e+2, -48681.29, -337414.13, -100582.586, -0.04431513, -0.16918556, -17097.375, 31809.18, 0.0001993085, 10.001222, 9.997415 
1.2549858e+3, 3.0500597e+2, 66798.734, -107248.02, -88701.84, 0.018859187, -0.26427743, 104037.52, 104037.52, 0.00049473415, 10.001034, 9.998756 
1.2549832e+3, 3.1500757e+2, 117229.33, 126255.51, -135478.22, 0.19713855, -0.013648293, 257295.78, 257295.78, 0.0009169739, 10.000449, 10.000641 
1.2650849e+3, 1.250454e+2, -1837490.5, -1888144.0, -126803.4, -0.07718917, -0.029546821, -1733509.3, -18961.617, 0.004085261, 9.9996395, 9.9989605 
1.2650816e+3, 1.3504256e+2, -1391378.5, -1698608.9, -203504.45, 0.4256135, -0.15673031, -1290019.9, 326557.38, 0.0022650692, 10.002341, 9.998314 
1.2650734e+3, 1.4504124e+2, -1241901.8, -1546901.4, 15442.047, 0.054484066, -0.130101, -1241121.9, 277471.3, 0.00085386867, 10.002581, 9.998554 
1.265071e+3, 1.550426e+2, -1403213.3, -1561026.9, -6442.0024, 0.09741671, 0.12772273, -1402950.8, 17633.684, 0.00015477135, 10.000752, 9.998661 
1.2650667e+3, 1.6504167e+2, -1325563.4, -1483952.8, -73889.664, 0.085995145, 0.17684029, -1296446.0, 26148.367, 0.0000038088367, 10.000646, 9.9985695 
1.2650603e+3, 1.7503843e+2, -979870.2, -1254909.8, -41737.5, -0.020287963, -0.029000036, -973675.94, 250947.66, 0.0, 10.002304, 9.998668 
1.2650551e+3, 1.8503653e+2, -853339.4, -1163590.1, 4294.309, -0.059583366, -0.07422779, -853279.94, 273359.8, 0.0, 10.0025835, 9.99849 
1.2650512e+3, 1.950358e+2, -908173.5, -1129205.5, -41874.465, -0.016278803, -0.017226854, -900506.3, 128138.14, 0.0, 10.001493, 9.998576 
1.2650464e+3, 2.0503406e+2, -937822.3, -1241192.1, -94932.94, 0.042317335, 0.020057786, -910564.3, 20097.787, 0.0, 10.001255, 9.99725 
1.2650408e+3, 2.1503115e+2, -753448.56, -1092864.0, -31610.213, 0.10522157, -0.017500954, -750529.75, 82164.164, 0.0, 10.00181, 9.997328 
1.2650345e+3, 2.2502856e+2, -595219.06, -889417.94, 2644.556, 0.08455673, -0.038809527, -595195.3, 139524.48, 0.0, 10.001893, 9.998016 
1.265028e+3, 2.3502626e+2, -553283.2, -806918.75, -69282.95, -0.010096793, -0.093102686, -535591.9, 101148.36, 0.0, 10.00146, 9.998117 
1.265021e+3, 2.4502426e+2, -466226.72, -717910.25, -137795.64, -0.070511684, -0.101461545, -405457.16, 133300.53, 0.0, 10.001401, 9.99808 
1.2650135e+3, 2.5502235e+2, -317925.84, -590005.2, -122073.28, -0.098498076, -0.12236266, -271185.1, 169589.2, 0.0, 10.001719, 9.998132 
1.265008e+3, 2.650206e+2, -225932.63, -534486.06, -40073.707, -0.01861376, -0.085997924, -220812.97, 121977.336, 0.00000015326442, 10.001854, 9.997779 
1.2650044e+3, 2.7501902e+2, -140317.47, -432410.94, -42968.918, 0.16710894, -0.043679886, -134127.61, 110678.68, 0.0000068361555, 10.001721, 9.997869 
1.2649986e+3, 2.850165e+2, -88191.164, -416372.13, -12669.56, 0.13802227, -0.05108322, -87702.77, 59128.348, 0.00005543398, 10.001672, 9.997322 
1.264991e+3, 2.9501277e+2, 34052.44, -302326.06, 4184.3696, -0.095556065, -0.18181764, 34104.484, 82972.305, 0.00021874357, 10.001817, 9.997362 
1.2649864e+3, 3.050101e+2, 143951.33, -146900.38, 13191.772, -0.07002456, -0.21516772, 144548.42, 144548.42, 0.0005474256, 10.001905, 9.998059 
1.264984e+3, 3.1501105e+2, 279633.47, 150986.23, -127892.516, 0.1664771, 0.0426314, 358467.2, 358467.2, 0.0010137463, 10.001801, 10.000159 
1.2750831e+3, 1.2504569e+2, -1814235.3, -1852578.4, 76326.3, -0.24234816, -0.21519057, -1754709.6, -40167.344, 0.0044096503, 9.999703, 9.999168 
1.2750831e+3, 1.3504605e+2, -1389517.9, -1702594.8, -103568.1, 0.3307568, -0.018530646, -1358358.1, 258187.25, 0.0024558255, 10.00236, 9.998284 
1.2750767e+3, 1.4504486e+2, -1212239.6, -1483562.8, -63790.402, 0.10491379, -0.0014688502, -1197990.3, 320569.5, 0.00093550276, 10.00258, 9.998984 
1.2750727e+3, 1.5504241e+2, -1373046.8, -1505419.6, -67432.445, 0.16154774, -0.16544066, -1344746.3, 75836.53, 0.00017466526, 10.000778, 9.999032 
1.2750679e+3, 1.6504157e+2, -1250087.8, -1339601.0, -20485.316, 0.11926019, -0.17374973, -1245622.4, 76965.66, 0.0000047674703, 10.000694, 9.999537 
1.2750626e+3, 1.7504232e+2, -908527.94, -1113444.9, 24495.686, -0.0520138, -0.07657527, -905640.44, 318935.44, 0.0, 10.002326, 9.99963 
1.2750576e+3, 1.8504107e+2, -927480.1, -1315419.6, -43654.938, -0.07651295, -0.051418584, -922628.3, 203959.88, 0.0, 10.002575, 9.997451 
1.2750536e+3, 1.9503781e+2, -982389.94, -1281324.4, -75244.15, 0.05491805, -0.14527045, -964518.75, 64106.53, 0.0, 10.00148, 9.99754 
1.275048e+3, 2.0503654e+2, -817853.25, -978335.94, -83213.5, 0.05518809, -0.10123444, -782495.44, 148143.13, 0.0, 10.001196, 9.9990835 
1.275041e+3, 2.1503706e+2, -637766.7, -830215.0, -5746.4565, -0.07294389, 0.019772101, -637595.25, 195034.56, 0.0, 10.001714, 9.999177 
1.2750348e+3, 2.250354e+2, -728444.8, -1139075.1, -21770.537, -0.10014426, 0.08024446, -727293.8, 7353.77, 0.0, 10.00178, 9.996356 
1.2750295e+3, 2.3503149e+2, -684423.5, -1058328.6, -76369.73, -0.029344294, 0.030886957, -669426.56, -32734.102, 0.0, 10.001369, 9.996435 
1.2750229e+3, 2.4502867e+2, -443252.97, -645865.7, -133501.6, -0.021876054, 0.0016914454, -376971.56, 161748.86, 0.0, 10.001298, 9.998624 
1.2750156e+3, 2.5502688e+2, -289317.8, -508891.2, -102710.93, -0.076266706, -0.06580868, -248762.7, 191969.77, 0.0, 10.001628, 9.998731 
1.27501e+3, 2.6502505e+2, -226362.39, -516470.06, -52016.01, -0.03297349, -0.07943437, -217317.95, 125429.29, 0.00000020123079, 10.001768, 9.997944 
1.2750056e+3, 2.7502298e+2, -143481.77, -418675.25, -37265.465, 0.09900503, -0.10311873, -138524.73, 106242.12, 0.0000077157165, 10.0016365, 9.998003 
1.2749998e+3, 2.85021e+2, -61265.426, -343114.53, -16618.723, 0.07347756, -0.091275096, -60288.914, 86496.41, 0.000060402712, 10.001597, 9.997859 
1.274993e+3, 2.9501894e+2, 56224.227, -227622.08, 20691.979, -0.10060913, -0.11160167, 57724.71, 106528.49, 0.00024154171, 10.001699, 9.99793 
1.2749884e+3, 3.0501673e+2, 23710.857, -379351.47, 5320.7993, -0.08037459, -0.049400516, 23781.084, 23781.084, 0.0006104457, 10.001824, 9.996504 
1.2749852e+3, 3.150153e+2, 154399.22, -69887.29, -113467.36, 0.084177986, 0.11928066, 201789.5, 201789.5, 0.0011368401, 10.001647, 9.998706 
1.2850855e+3, 1.2504825e+2, -1503199.1, -1716999.3, 265443.16, -0.08168644, -0.26927143, -1323938.9, 390574.88, 0.0047468157, 10.001899, 9.999052 
1.2850834e+3, 1.3504925e+2, -1631489.8, -1820357.5, -22460.607, 0.21323214, -0.0010414575, -1628855.4, -12341.775, 0.0026545508, 10.000712, 9.998262 
1.2850785e+3, 1.4504868e+2, -1484404.4, -1595047.1, -7086.6997, 0.13574107, 0.06608826, -1483952.4, 34570.32, 0.0010215283, 10.000616, 9.999169 
1.2850744e+3, 1.5504582e+2, -1186377.5, -1390517.9, -37219.89, 0.19411518, -0.15700825, -1179803.1, 240744.75, 0.00019628371, 10.001954, 9.999249 
1.2850696e+3, 1.6504471e+2, -1047890.94, -1257572.4, 481.6994, 0.14258003, -0.19765514, -1047889.8, 274665.78, 0.0000059623408, 10.002152, 9.999404 
1.2850642e+3, 1.7504527e+2, -1082283.8, -1211236.4, -51468.2, -0.05365069, -0.10191436, -1064260.6, 160285.73, 0.0, 10.001199, 9.999506 
1.2850592e+3, 1.8504424e+2, -1144525.3, -1382216.6, -120492.33, -0.093266465, -0.06585123, -1094129.4, 32427.602, 0.0, 10.000924, 9.9977865 
1.2850547e+3, 1.9504151e+2, -971513.4, -1237365.8, -64078.65, 0.02953686, -0.14179017, -956874.5, 71714.1, 0.0, 10.001395, 9.99788 
1.2850493e+3, 2.0504041e+2, -736822.06, -947299.4, -51289.21, 0.04217681, -0.0927575, -724989.1, 205611.42, 0.0, 10.001783, 9.999015 
1.2850429e+3, 2.1504079e+2, -596687.1, -817197.2, -131184.9, -0.051750682, 0.020664806, -535578.06, 297016.34, 0.0, 10.002023, 9.999119 
1.2850367e+3, 2.2503926e+2, -697499.9, -1071508.0, -162557.03, -0.08168235, 0.07268287, -636723.2, 97887.28, 0.0, 10.001768, 9.996823 
1.2850302e+3, 2.3503572e+2, -699288.0, -1012236.2, -75462.86, -0.05010354, 0.016018545, -682041.6, -45392.1, 0.0, 10.001042, 9.996905 
1.285024e+3, 2.4503323e+2, -486678.63, -685483.56, -20033.521, -0.029602686, 0.002548519, -484679.94, 53994.527, 0.0, 10.001066, 9.99847 
1.2850179e+3, 2.5503168e+2, -278654.34, -523046.2, -58275.28, -0.017813632, -0.02483142, -265469.88, 175216.61, 0.0, 10.001775, 9.99857 
1.285012e+3, 2.650298e+2, -181345.42, -476978.8, -49471.965, -0.001126785, -0.04390668, -173286.36, 169416.31, 0.00000014147287, 10.0020075, 9.998093 
1.2850064e+3, 2.750274e+2, -103691.5, -382792.4, -57237.438, 0.017797444, -0.1137298, -92409.42, 152315.47, 0.000007879153, 10.00184, 9.998148 
1.2850009e+3, 2.8502575e+2, -29641.953, -260987.1, -17949.93, 0.017126812, -0.10233535, -28257.514, 118480.94, 0.00006525831, 10.001526, 9.998463 
1.2849952e+3, 2.9502475e+2, -6961.928, -194253.11, -391.5077, 0.005476755, -0.07968383, -6961.11, 41783.895, 0.00026775803, 10.00098, 9.998511 
1.2849902e+3, 3.0502298e+2, -181756.56, -488073.5, 57582.703, 0.00033233495, 0.0068655666, -171289.6, -171289.6, 0.0006827303, 10.0004635, 9.996409 
1.2849851e+3, 3.1502005e+2, -94079.836, -217832.14, 11243.358, -0.008403775, 0.036484145, -93066.63, -93066.63, 0.0012767545, 10.000038, 9.998474 
1.29509e+3, 1.2505256e+2, -1535458.0, -1781624.0, 206008.5, 0.14095272, -0.25025284, -1418564.1, 295903.56, 0.0050962004, 10.001894, 9.998608 
1.2950824e+3, 1.3505211e+2, -1639742.5, -1839788.3, -67326.234, 0.016748808, -0.11230235, -1619194.3, -2711.7517, 0.0028611089, 10.000724, 9.998125 
1.2950788e+3, 1.4505255e+2, -1475539.3, -1584463.3, 31669.127, 0.08766448, 0.061191298, -1467000.9, 51482.195, 0.00111182, 10.00065, 9.999225 
1.2950759e+3, 1.5505287e+2, -1179128.1, -1383538.4, 19706.38, 0.13193987, 0.14995578, -1177245.6, 243233.83, 0.000219555, 10.001981, 9.999288 
1.2950712e+3, 1.6505106e+2, -1130784.1, -1432113.1, -44952.2, 0.08691586, 0.09858458, -1124221.1, 198276.17, 0.0000074533, 10.002164, 9.9981985 
1.2950651e+3, 1.7504738e+2, -1165799.8, -1388182.4, -81505.055, -0.07930868, -0.112281844, -1139126.8, 85407.516, 0.0, 10.001212, 9.998283 
1.2950596e+3, 1.8504609e+2, -1027116.6, -1139845.0, -109986.836, -0.16421683, -0.12378729, -959892.6, 166652.77, 0.0, 10.000927, 9.999452 
1.2950544e+3, 1.9504692e+2, -857032.5, -997007.06, -39417.777, -0.14937043, -0.009147001, -846695.56, 181838.48, 0.0, 10.001379, 9.999539 
1.2950502e+3, 2.0504566e+2, -882967.44, -1234517.5, -49954.633, -0.056474764, 0.038024534, -876006.75, 54541.395, 0.0, 10.001717, 9.997074 
1.2950468e+3, 2.1504232e+2, -747088.25, -1106536.0, -115573.38, 0.1083163, -0.025621159, -713135.06, 119452.5, 0.0, 10.001925, 9.997178 
1.2950401e+3, 2.2504017e+2, -538085.9, -714352.44, -196695.55, 0.07841685, -0.0647141, -410681.22, 323926.88, 0.0, 10.001656, 9.9993305 
1.2950307e+3, 2.35039e+2, -536091.1, -651263.25, -93434.914, -0.14026819, -0.1368354, -483921.8, 152689.38, 0.0, 10.000946, 9.999431 
1.2950239e+3, 2.4503793e+2, -561921.1, -813466.2, -1119.0867, -0.16208543, -0.0947592, -561916.1, -23296.234, 0.0, 10.000949, 9.997645 
1.2950201e+3, 2.5503677e+2, -352597.63, -651283.9, -22693.902, 0.012585617, 0.0013936376, -350883.2, 89752.46, 0.0, 10.001674, 9.997734 
1.2950145e+3, 2.6503488e+2, -189779.5, -481112.34, -63022.48, 0.017590426, 0.023787234, -176730.64, 165925.22, 0.000000052302592, 10.001937, 9.998105 
1.2950067e+3, 2.7503225e+2, -110833.77, -378080.97, -53421.46, -0.14884043, -0.07407543, -100550.74, 144129.66, 0.000007172051, 10.00175, 9.998227 
1.2950012e+3, 2.8503084e+2, 1482.2654, -175281.53, -45385.29, -0.10821035, -0.079214245, 12454.201, 159144.84, 0.000069658236, 10.001428, 9.999101 
1.2949978e+3, 2.950303e+2, 21289.371, -114714.47, -9098.277, 0.14355439, -0.06990238, 21895.32, 70585.17, 0.0002984911, 10.000889, 9.999101 
1.294992e+3, 3.0502903e+2, -108596.055, -313768.28, 34453.32, 0.099869795, -0.0242048, -102965.06, -102965.06, 0.0007671863, 10.000377, 9.997644 
1.2949833e+3, 3.1502536e+2, -58197.35, -83280.195, 16950.264, -0.23071352, -0.2003649, -49653.266, -49653.266, 0.001436353, 9.999805, 9.999498 
1.3050926e+3, 1.2505646e+2, -1756501.5, -1808150.9, 81749.28, 0.3098726, -0.12460907, -1696594.9, 17838.734, 0.0054552136, 10.000011, 9.999334 
1.3050827e+3, 1.3505545e+2, -1397651.0, -1607652.5, -83607.13, -0.07248646, -0.14357513, -1368430.6, 248016.94, 0.003073975, 10.001899, 9.999147 
1.3050812e+3, 1.4505577e+2, -1236310.5, -1504627.6, 62307.688, 0.17057826, -0.01899134, -1222547.6, 295899.56, 0.0012055306, 10.002443, 9.998912 
1.3050777e+3, 1.550561e+2, -1236415.3, -1447298.0, 8016.457, 0.13330968, 0.10614047, -1236111.0, 184334.28, 0.000244213, 10.001748, 9.998963 
1.3050729e+3, 1.6505459e+2, -1260369.9, -1509516.4, -48384.715, 0.07047974, 0.107806385, -1251303.4, 71159.39, 0.000009295233, 10.001347, 9.998059 
1.3050668e+3, 1.7505139e+2, -1161278.0, -1399729.5, -20350.867, -0.044138305, -0.04186954, -1159553.5, 64944.504, 0.0, 10.001311, 9.998153 
1.3050611e+3, 1.850503e+2, -965855.6, -1064899.1, -21267.695, -0.104606204, -0.04903381, -961481.94, 165025.28, 0.0, 10.001147, 9.999861 
1.3050559e+3, 1.9505106e+2, -912652.1, -979975.3, -60566.355, -0.11027413, 0.019683495, -877021.7, 151471.42, 0.0, 10.000806, 9.999934 
1.3050514e+3, 2.050497e+2, -1030553.2, -1301385.6, -25027.861, -0.047229607, 0.03627088, -1028259.75, -97752.445, 0.0, 10.00069, 9.997108 
1.3050479e+3, 2.1504626e+2, -906964.06, -1177547.9, 41754.188, 0.0818762, -0.043151677, -900667.44, -68117.93, 0.0, 10.000814, 9.997223 
1.3050413e+3, 2.250443e+2, -565002.4, -680616.75, -35686.34, 0.057161342, -0.08295686, -554874.44, 179693.38, 0.0, 10.001263, 9.999751 
1.3050322e+3, 2.3504369e+2, -357570.75, -519019.13, -104977.86, -0.11920745, -0.14425752, -305868.56, 330695.47, 0.0, 10.001968, 9.9998455 
1.3050255e+3, 2.4504274e+2, -421832.7, -755894.56, -48425.688, -0.13747258, -0.10550355, -414954.5, 123616.664, 0.0, 10.001956, 9.997553 
1.3050215e+3, 2.5504133e+2, -417819.8, -694423.1, -32127.994, 0.0034509401, -0.024441281, -414137.13, 26453.3, 0.0, 10.001269, 9.997635 
1.3050157e+3, 2.6503962e+2, -337386.25, -559627.94, -35257.066, 0.012024622, 0.02540645, -331927.06, 10682.931, 0.000000026393016, 10.000964, 9.998034 
1.3050084e+3, 2.750375e+2, -216614.75, -441202.47, -53649.56, -0.121061094, -0.013504762, -204457.06, 40174.027, 0.0000066700077, 10.00107, 9.998126 
1.3050026e+3, 2.8503576e+2, -99418.484, -225633.77, -80360.086, -0.073226824, -0.044500712, -60348.25, 86297.375, 0.00007501981, 10.000746, 9.999082 
1.3049984e+3, 2.950343e+2, -99583.7, -173981.34, -114312.29, 0.160597, -0.12569708, -16569.996, 32084.877, 0.00033195864, 10.000061, 9.999093 
1.304992e+3, 3.0503377e+2, -100263.8, -174269.95, -57674.336, 0.103526115, -0.06536028, -68742.74, -68742.74, 0.00085839094, 9.999822, 9.998883 
1.3049835e+3, 3.1503186e+2, 21462.588, 44600.703, -110352.65, -0.18195209, -0.18665622, 143989.06, 143989.06, 0.0016111253, 9.9999275, 10.0003395 
1.3150907e+3, 1.2505981e+2, -1610317.0, -1521550.8, 19421.627, 0.092107266, 0.06851148, -1517487.4, 196925.52, 0.005819013, 10.000065, 10.00129 
1.3150845e+3, 1.3505937e+2, -1248911.9, -1304148.3, -6636.166, -0.106911555, -0.09870722, -1248125.9, 368282.0, 0.0032902497, 10.001917, 10.00123 
1.3150851e+3, 1.4505845e+2, -1280054.9, -1595698.0, 25107.805, 0.30726823, -0.17440905, -1278070.1, 240343.75, 0.0013013786, 10.00245, 9.998282 
1.3150796e+3, 1.5505576e+2, -1284915.9, -1549935.3, -12641.895, 0.14147931, -0.28159055, -1284314.3, 136129.27, 0.00026992275, 10.001756, 9.998257 
1.3150741e+3, 1.6505541e+2, -1196905.9, -1382429.8, -57883.71, 0.03975473, -0.17149691, -1180327.5, 142123.8, 0.00001153221, 10.001358, 9.998928 
1.3150688e+3, 1.7505729e+2, -1094087.3, -1268493.6, -15046.655, 0.00005594347, 0.10060931, -1092798.8, 131639.47, 0.0, 10.001336, 9.999044 
1.3150637e+3, 1.8505684e+2, -1029351.9, -1191305.5, -41935.06, 0.016930796, 0.15361811, -1019137.75, 107305.01, 0.0, 10.001128, 9.999 
1.3150588e+3, 1.9505392e+2, -975574.44, -1105359.4, -67670.04, 0.08344687, -0.0593757, -946710.44, 81755.34, 0.0, 10.000783, 9.9990835 
1.3150528e+3, 2.0505254e+2, -900352.06, -1018057.9, -28652.84, 0.010445108, -0.10326375, -893747.7, 36730.33, 0.0, 10.000633, 9.999082 
1.315046e+3, 2.150525e+2, -780786.7, -899992.3, 53419.06, -0.1878733, -0.03643877, -760351.44, 72129.32, 0.0, 10.000739, 9.999167 
1.31504e+3, 2.2505164e+2, -695666.3, -924454.4, -16396.3, -0.20989257, 0.014399583, -694497.2, 39993.074, 0.0, 10.001148, 9.998131 
1.315035e+3, 2.3504977e+2, -486436.56, -763158.9, -69275.88, -0.056348346, -0.007472798, -470062.6, 166445.22, 0.0, 10.00187, 9.998217 
1.3150288e+3, 2.4504772e+2, -395993.3, -677561.1, -81454.33, -0.025922751, -0.027322011, -374127.56, 164400.11, 0.0, 10.001848, 9.998144 
1.3150217e+3, 2.5504547e+2, -390546.63, -612648.4, -49586.57, -0.10770453, -0.09113182, -379978.72, 60570.895, 0.0, 10.00116, 9.998249 
1.3150159e+3, 2.6504406e+2, -367070.1, -597030.44, -39376.242, -0.08547727, -0.032642845, -360514.53, -17949.658, 0.000000066602475, 10.000858, 9.997828 
1.3150111e+3, 2.7504322e+2, -249125.89, -479453.78, -37766.68, 0.03179321, 0.075471, -243091.4, 1484.8308, 0.0000067822207, 10.000958, 9.9979105 
1.3150048e+3, 2.8504068e+2, -158544.86, -339607.2, -112224.945, 0.05670853, 0.016808985, -104887.5, 41714.258, 0.00008157081, 10.000692, 9.998332 
1.314997e+3, 2.950366e+2, -163967.84, -283648.9, -126376.414, -0.01008262, -0.25500798, -83980.31, -35339.695, 0.0003645955, 9.999949, 9.9984 
1.3149902e+3, 3.050372e+2, -31745.377, -1061.3225, -57530.285, -0.06346162, -0.11659605, 43137.49, 43137.49, 0.0009459137, 9.999702, 10.000124 
1.3149855e+3, 3.1503984e+2, 36099.547, 137460.69, -81026.47, -0.0062443456, 0.10300332, 182351.08, 182351.08, 0.0017802492, 9.99969, 10.0010805 
1.3250911e+3, 1.2506315e+2, -1336687.6, -1460223.0, 121837.69, 0.034385793, 0.032292224, -1261854.9, 452524.78, 0.006183249, 10.00224, 10.00068 
1.3250862e+3, 1.3506284e+2, -1382690.1, -1428800.3, -18736.17, -0.0906328, -0.060695652, -1376036.9, 240339.44, 0.0035072896, 10.0012865, 10.000662 
1.3250874e+3, 1.4506206e+2, -1460124.8, -1619102.3, -53842.61, 0.3634549, -0.12389703, -1443605.8, 74775.695, 0.0013982238, 10.000937, 9.998851 
1.3250813e+3, 1.5505953e+2, -1329246.4, -1509911.5, -13258.09, 0.1683106, -0.27282292, -1328278.6, 92128.484, 0.00029637254, 10.001184, 9.998808 
1.3250756e+3, 1.650593e+2, -1200808.4, -1364956.9, -17521.074, 0.06589085, -0.18493319, -1198959.0, 123453.48, 0.000014169166, 10.001253, 9.999092 
1.3250704e+3, 1.7506133e+2, -1111104.8, -1260551.1, -44988.594, 0.048610494, 0.08474671, -1098606.9, 125791.57, 0.0, 10.001155, 9.999183 
1.3250652e+3, 1.8506075e+2, -1040047.8, -1200416.6, -59602.418, 0.06182341, 0.123304866, -1020322.3, 106082.01, 0.0, 10.001072, 9.998964 
1.3250598e+3, 1.9505753e+2, -939639.7, -1091840.0, -38819.63, 0.099068895, -0.11747512, -930310.3, 98120.73, 0.0, 10.001051, 9.999045 
1.3250537e+3, 2.050565e+2, -811712.6, -904483.7, -2186.461, 0.016258053, -0.1549137, -811661.1, 118777.71, 0.0, 10.000931, 9.999719 
1.3250467e+3, 2.1505752e+2, -746259.3, -813321.1, -34569.49, -0.18116355, -0.047421172, -731630.4, 100798.63, 0.0, 10.00067, 9.999798 
1.3250412e+3, 2.2505707e+2, -767696.3, -988917.75, -62420.555, -0.17829342, 0.029091666, -751298.94, -16864.19, 0.0, 10.000795, 9.997853 
1.3250373e+3, 2.3505507e+2, -579845.75, -833876.25, -31284.176, 0.021655265, 0.019364456, -576049.75, 60407.066, 0.0, 10.001356, 9.9979725 
1.325031e+3, 2.4505293e+2, -407108.22, -650553.8, -25003.42, 0.03723031, -0.0106487665, -404566.75, 133911.47, 0.0, 10.001626, 9.998441 
1.3250229e+3, 2.5505063e+2, -309733.44, -539170.56, -31995.773, -0.1292175, -0.10898381, -305355.06, 135144.14, 0.0, 10.001568, 9.998558 
1.3250169e+3, 2.6504943e+2, -279058.72, -508477.8, 10080.909, -0.092043206, -0.065679066, -278616.6, 63894.41, 0.0000000978673, 10.001266, 9.9982395 
1.3250129e+3, 2.75049e+2, -251803.58, -436435.44, 38904.582, 0.13672657, 0.046591114, -243940.69, 576.0416, 0.000006920427, 10.000739, 9.998318 
1.3250062e+3, 2.850469e+2, -170790.97, -403211.88, 25160.348, 0.11869721, 0.032871027, -168098.47, -21558.232, 0.00008668865, 10.000873, 9.997801 
1.3249964e+3, 2.9504314e+2, 72033.05, -226839.78, 1975.4288, -0.1486875, -0.15152657, 72046.1, 120626.86, 0.00038909205, 10.001819, 9.997885 
1.3249896e+3, 3.0504322e+2, 198212.73, 102561.98, 12535.487, -0.17649585, -0.0356087, 199828.28, 199828.28, 0.0010147934, 10.001326, 10.000052 
1.3249868e+3, 3.150453e+2, -34836.1, 55985.945, -141322.22, 0.18123564, 0.13190514, 159013.89, 159013.89, 0.0019149169, 9.999385, 10.000676 
1.335093e+3, 1.2506673e+2, -1543945.0, -1900641.9, 3872.447, -0.060670685, -0.22029388, -1543903.0, 170429.14, 0.0065457188, 10.002278, 9.997631 
1.3350877e+3, 1.3506596e+2, -1607730.6, -1898813.6, -50825.56, -0.06752793, -0.033667456, -1599111.3, 17240.89, 0.0037237175, 10.001297, 9.997426 
1.3350877e+3, 1.450665e+2, -1332622.3, -1357181.9, -49595.52, 0.27576187, 0.10745377, -1293808.9, 224541.4, 0.0014951822, 10.000945, 10.000649 
1.3350825e+3, 1.5506734e+2, -1198046.1, -1244543.0, 6165.2075, 0.15627258, 0.11351346, -1197242.5, 223093.92, 0.00032323142, 10.001206, 10.000622 
1.3350773e+3, 1.6506629e+2, -1246396.5, -1457664.4, -29133.45, 0.086640894, 0.059989046, -1242452.6, 79893.64, 0.000017128494, 10.001245, 9.998462 
1.3350716e+3, 1.750635e+2, -1153683.8, -1349802.3, -41260.72, 0.04688134, -0.08917224, -1145356.6, 79021.56, 0.00000000003443261, 10.001156, 9.99857 
1.3350655e+3, 1.8506213e+2, -986697.9, -1091020.4, -68150.36, -0.027257781, -0.14005946, -953038.0, 173353.47, 0.0, 10.001075, 9.999716 
1.335059e+3, 1.9506188e+2, -888998.6, -983662.25, -32550.559, -0.11444593, -0.15810587, -878886.2, 149502.63, 0.0, 10.001031, 9.999799 
1.3350537e+3, 2.0506166e+2, -870680.75, -1009076.0, -20774.604, -0.09000048, -0.11925411, -867629.5, 62759.734, 0.0, 10.000855, 9.999037 
1.3350499e+3, 2.1506135e+2, -808409.06, -921003.25, -37160.355, 0.04037766, -0.075608924, -797250.56, 35143.008, 0.0, 10.000575, 9.999108 
1.3350448e+3, 2.2506063e+2, -706659.94, -842567.7, -46132.168, 0.082882605, -0.04340355, -692480.4, 41920.72, 0.0, 10.000704, 9.998905 
1.335039e+3, 2.350595e+2, -518100.56, -688561.8, -693.8352, 0.05137932, -0.07134041, -518097.75, 118314.09, 0.0, 10.001275, 9.999013 
1.3350323e+3, 2.4505828e+2, -419717.75, -654817.94, -35250.023, -0.02283252, -0.061963707, -414546.25, 123877.695, 0.0, 10.001533, 9.998455 
1.3350244e+3, 2.5505686e+2, -321775.94, -545088.3, -26912.58, -0.13655649, -0.07390871, -318578.34, 121860.44, 0.0, 10.001486, 9.998554 
1.3350183e+3, 2.6505578e+2, -220633.98, -372720.7, -16477.277, -0.08180117, -0.06684985, -218869.3, 123578.71, 0.00000008871969, 10.001198, 9.999207 
1.3350138e+3, 2.7505487e+2, -199487.84, -301453.1, 30235.377, 0.13211694, -0.10213688, -191196.48, 53256.633, 0.000006673535, 10.0006275, 9.999298 
1.3350065e+3, 2.8505433e+2, -206980.47, -462409.3, 49897.195, 0.04124896, 0.0093419785, -197579.23, -51117.46, 0.00008850924, 10.000797, 9.997433 
1.3349965e+3, 2.9505402e+2, 27059.219, -289560.72, 49827.617, -0.33158743, 0.20580363, 34715.625, 83189.95, 0.00040084837, 10.001687, 9.9975195 
1.3349897e+3, 3.0505213e+2, 92951.68, -93169.2, -61661.883, -0.32059026, 0.207074, 111526.51, 111526.51, 0.0010550291, 10.001233, 9.998746 
1.3349871e+3, 3.15048e+2, -180525.5, -184882.52, -184468.2, 0.25309932, -0.107429795, 1777.0621, 1777.0621, 0.0019990124, 9.999139, 9.999134 
1.345095e+3, 1.250719e+2, -1636451.0, -1940184.8, -108376.68, -0.022595262, -0.18269631, -1601746.0, 112536.41, 0.0069055543, 10.001626, 9.997666 
1.3450897e+3, 1.350702e+2, -1588729.4, -1908443.5, 63279.145, -0.019116165, -0.077417865, -1576660.5, 39649.555, 0.0039389143, 10.001513, 9.997255 
1.3450874e+3, 1.4507067e+2, -1317384.8, -1321329.8, 142236.98, 0.16655605, 0.057809338, -1177106.6, 341201.94, 0.0015916337, 10.00094, 10.00089 
1.345083e+3, 1.5507273e+2, -1320857.4, -1271676.3, 64127.01, 0.1299632, 0.15977162, -1227586.6, 192697.6, 0.0003501717, 10.000246, 10.000887 
1.345078e+3, 1.6507208e+2, -1420697.0, -1512051.1, 29077.264, 0.11822355, 0.11919152, -1412227.3, -89936.84, 0.000020254476, 9.999921, 9.998729 
1.3450727e+3, 1.7506881e+2, -1316819.0, -1397098.0, 67108.234, 0.0914566, -0.103438474, -1278762.0, -54436.113, 0.0000000014653116, 9.99991, 9.998846 
1.3450661e+3, 1.8506774e+2, -1135518.5, -1140263.9, 67568.82, -0.0068106484, -0.14665987, -1070280.8, 56055.754, 0.0, 9.999958, 9.999915 
1.345059e+3, 1.9506858e+2, -1010889.75, -1021300.4, 46817.594, -0.16096108, -0.07568513, -968989.0, 59335.79, 0.0, 10.000106, 9.999988 
1.3450542e+3, 2.0506833e+2, -916690.56, -1051805.5, 82530.67, -0.10487723, -0.037655473, -877592.9, 52733.145, 0.0, 10.000632, 9.998849 
1.3450518e+3, 2.1506694e+2, -679260.1, -871368.9, 85573.836, 0.14867096, -0.08772191, -646670.3, 185670.13, 0.0, 10.001533, 9.998976 
1.345047e+3, 2.2506596e+2, -585535.75, -754406.6, 58752.387, 0.20412485, -0.08925291, -567106.3, 167243.28, 0.0, 10.001398, 9.999182 
1.34504e+3, 2.3506534e+2, -645238.3, -719133.7, 35620.027, 0.07335984, -0.094072774, -630864.3, 5489.845, 0.0, 10.000262, 9.999295 
1.345033e+3, 2.450645e+2, -652787.0, -783853.56, 3254.3457, -0.021643316, -0.052651074, -652706.25, -114343.24, 0.0, 10.000023, 9.99829 
1.345026e+3, 2.5506333e+2, -448520.5, -621477.9, -17503.635, -0.08568974, -0.022781795, -446766.88, -6389.516, 0.0, 10.000698, 9.998406 
1.3450196e+3, 2.6506197e+2, -255147.03, -370948.94, -54602.535, -0.051881652, -0.042240202, -233461.83, 108927.32, 0.000000062099474, 10.000892, 9.999361 
1.3450138e+3, 2.7506027e+2, -176414.69, -271524.66, -89307.39, 0.074202366, -0.17473261, -122790.2, 121609.97, 0.0000065347235, 10.000706, 9.99946 
1.3450067e+3, 2.8506023e+2, -223978.98, -389160.7, -17980.9, 0.01591979, -0.05550504, -222044.33, -75642.555, 0.00008965579, 10.000327, 9.998164 
1.3449985e+3, 2.950619e+2, -190037.27, -302682.6, 40846.184, -0.21953683, 0.26108393, -176785.13, -128391.805, 0.0004062936, 9.999801, 9.998337 
1.3449913e+3, 3.050594e+2, -91681.11, -212877.78, 3469.2903, -0.21245007, 0.17454268, -91581.88, -91581.88, 0.0010727071, 10.000071, 9.998502 
1.3449876e+3, 3.150537e+2, 91282.586, -78070.11, -60359.184, 0.28749454, -0.2750728, 110593.33, 110593.33, 0.0020364497, 10.0011015, 9.998923 
1.355099e+3, 1.2507837e+2, -1429914.4, -1509469.0, -77725.58, 0.17005828, 0.08947994, -1382379.0, 331854.03, 0.0072628423, 10.001637, 10.000623 
1.3550915e+3, 1.3507555e+2, -1388779.8, -1493485.4, 59894.66, -0.0030198304, -0.20455973, -1361582.6, 254667.4, 0.004152666, 10.001526, 10.000098 
1.3550867e+3, 1.4507477e+2, -1412997.1, -1525828.0, 107557.87, -0.027759206, -0.26079896, -1347957.3, 170297.81, 0.0016872559, 10.000959, 9.999479 
1.3550824e+3, 1.5507588e+2, -1408240.4, -1462609.9, 46397.13, 0.025277462, -0.12104635, -1381650.6, 38598.555, 0.0003769789, 10.0002775, 9.999565 
1.355078e+3, 1.6507667e+2, -1335140.3, -1342100.3, 19484.855, 0.09582503, -0.009419082, -1318827.1, 3417.822, 0.000023370363, 9.999948, 9.999886 
1.3550732e+3, 1.7507711e+2, -1235597.8, -1233758.0, 72930.37, 0.12942663, 0.023473592, -1161741.8, 62501.42, 0.0000000068048798, 9.999924, 9.999966 
1.3550669e+3, 1.8507749e+2, -1161679.3, -1194917.5, 65243.855, 0.050791014, 0.08955387, -1110971.1, 15269.647, 0.0, 9.999959, 9.999537 
1.3550597e+3, 1.9507764e+2, -1037742.06, -1075478.1, 59839.133, -0.1114324, 0.12670292, -993866.75, 34372.344, 0.0, 10.0000925, 9.999623 
1.3550551e+3, 2.0507655e+2, -902859.56, -1011817.8, 108183.19, -0.09635741, 0.08386062, -836212.4, 94036.65, 0.0, 10.000582, 9.999148 
1.355053e+3, 2.150742e+2, -671656.25, -836251.0, 124447.766, 0.089127555, -0.08921531, -604755.44, 227515.23, 0.0, 10.001444, 9.999263 
1.3550478e+3, 2.2507295e+2, -634399.2, -826437.8, 4902.099, 0.12983587, -0.11157298, -634274.1, 100007.56, 0.0, 10.001276, 9.998744 
1.3550399e+3, 2.3507263e+2, -691571.4, -791392.1, -570.4256, 0.030399593, -0.04172578, -691568.06, -55284.723, 0.0, 10.000162, 9.998846 
1.3550332e+3, 2.4507166e+2, -688442.6, -838683.0, 21632.383, -0.021335118, 0.02640628, -685389.94, -147095.47, 0.0, 9.999934, 9.99796 
1.3550274e+3, 2.5507e+2, -485966.94, -677415.6, 16444.047, -0.03188085, 0.03904497, -484564.78, -44249.32, 0.0, 10.000605, 9.998071 
1.3550207e+3, 2.650679e+2, -313180.94, -475751.28, -70264.25, -0.06305398, -0.0047779423, -287021.5, 55314.676, 0.000000036385206, 10.00082, 9.998677 
1.355013e+3, 2.7506518e+2, -241480.58, -377806.34, -86991.305, -0.10350646, -0.165353, -199128.0, 45229.957, 0.0000068750182, 10.000585, 9.99879 
1.3550067e+3, 2.8506476e+2, -109190.96, -132006.19, -44774.64, -0.03979767, -0.14584517, -74393.58, 71965.69, 0.000091050126, 10.000245, 9.9999695 
1.3550018e+3, 2.9506648e+2, -83119.73, -56919.414, 32933.406, 0.113884985, -0.0011811262, -34576.33, 13764.293, 0.0004082825, 9.999696, 10.000077 
1.3549943e+3, 3.050648e+2, -44211.316, -84263.09, 33033.258, 0.07562058, -0.13725258, -25607.781, -25607.781, 0.001072397, 9.99996, 9.99943 
1.3549875e+3, 3.1506225e+2, 124893.49, 58540.617, 13669.142, 0.13768204, -0.36459252, 127599.1, 127599.1, 0.0020302255, 10.000838, 9.99998 
1.3651012e+3, 1.2508473e+2, -1319758.8, -1375973.0, 124217.51, 0.21606909, 0.14303842, -1220508.1, 493667.88, 0.0076198755, 10.002028, 10.001365 
1.3650928e+3, 1.3508247e+2, -1347076.0, -1405882.3, 21652.795, -0.00046849498, -0.1631384, -1339963.5, 276218.4, 0.004366158, 10.001487, 10.000733 
1.365087e+3, 1.4508137e+2, -1506535.0, -1608634.4, 35809.406, -0.059530277, -0.26431745, -1495227.9, 22960.482, 0.0017823466, 10.000483, 9.999136 
1.3650827e+3, 1.550814e+2, -1522530.0, -1554320.8, 39642.3, 0.05839604, -0.19915193, -1495715.0, -75520.164, 0.0004035849, 9.999655, 9.999233 
1.3650781e+3, 1.6508229e+2, -1326562.4, -1288135.8, 87214.83, 0.12402536, -0.08561668, -1218043.0, 104147.05, 0.000026350568, 9.999793, 10.000325 
1.3650729e+3, 1.7508402e+2, -1064603.4, -1099533.4, 71232.8, 0.0756272, 0.031219998, -1008725.8, 215447.98, 0.000000016360648, 10.000879, 10.00042 
1.3650672e+3, 1.8508472e+2, -1026525.8, -1157537.4, 29134.49, 0.036247715, 0.12033349, -1020339.0, 105829.37, 0.0, 10.001009, 9.99929 
1.3650613e+3, 1.9508429e+2, -1028255.7, -1091911.9, 19384.889, 0.028127918, 0.12121211, -1022817.1, 5357.5015, 0.0, 10.000262, 9.999423 
1.3650566e+3, 2.0508327e+2, -1003013.5, -1063402.9, 102012.92, 0.030113135, 0.09596111, -926820.44, 3365.3452, 0.0, 9.9999075, 9.999122 
1.365053e+3, 2.1508165e+2, -890979.0, -946110.7, 83417.09, 0.03533187, -0.0019073031, -830691.06, 1511.0886, 0.0, 9.999954, 9.999228 
1.3650477e+3, 2.2508058e+2, -756647.2, -865087.94, -33599.324, 0.040528208, -0.011659629, -747080.7, -12869.17, 0.0, 10.000356, 9.998915 
1.3650407e+3, 2.3507999e+2, -549730.7, -704445.44, -12388.827, 0.046541072, 0.012856198, -548744.94, 87469.805, 0.0, 10.001057, 9.99901 
1.3650343e+3, 2.4507888e+2, -519465.16, -730247.0, 73138.52, 0.045592476, 0.045783844, -496573.22, 41652.73, 0.0, 10.000979, 9.9982 
1.3650283e+3, 2.5507712e+2, -528165.7, -672187.8, 94473.83, 0.029553145, 0.027185865, -481387.47, -41141.355, 0.0, 10.0001955, 9.998304 
1.3650215e+3, 2.650752e+2, -431974.53, -552936.9, 73788.664, -0.015042852, -0.0023384888, -397047.44, -54782.223, 0.000000033203506, 10.000094, 9.998499 
1.3650137e+3, 2.7507296e+2, -237498.19, -390980.72, 76875.74, -0.0813493, -0.09987123, -205615.78, 38668.227, 0.0000069323874, 10.00068, 9.998653 
1.3650073e+3, 2.8507194e+2, -80059.48, -119787.15, 53600.957, -0.0061983303, -0.13080974, -42760.086, 103530.33, 0.00008927096, 10.000476, 9.999934 
1.3650022e+3, 2.95072e+2, -91854.31, -58747.73, -21373.863, 0.201013, -0.14769065, -48266.72, 18.371021, 0.00039892914, 9.999644, 10.000081 
1.3649948e+3, 3.050705e+2, -28589.184, -88409.02, -30391.521, 0.113412045, -0.26365137, -15858.186, -15858.186, 0.0010452198, 10.000101, 9.999339 
1.3649881e+3, 3.150708e+2, 266550.75, 149320.69, -151768.47, 0.0891517, -0.1945987, 370629.9, 370629.9, 0.0019747745, 10.00167, 10.000226 
1.3751028e+3, 1.250909e+2, -1426316.0, -1583861.3, 120701.57, 0.1403416, -0.024251308, -1360956.8, 353155.4, 0.0079810945, 10.002, 9.999928 
1.3750936e+3, 1.3509096e+2, -1446425.0, -1611163.1, -3414.207, -0.09194621, 0.046140697, -1446354.3, 169751.25, 0.0045821774, 10.001487, 9.999316 
1.3750884e+3, 1.4509048e+2, -1455135.0, -1507973.8, -9363.064, 0.008524186, 0.04047459, -1453524.9, 64583.31, 0.0018779465, 10.0005045, 9.999819 
1.3750835e+3, 1.5508915e+2, -1473395.1, -1458790.3, 18261.209, 0.16562875, -0.093831934, -1446425.5, -26302.555, 0.00043006244, 9.999681, 9.999876 
1.3750781e+3, 1.6508889e+2, -1337860.8, -1321678.6, 118562.375, 0.13208787, -0.11302706, -1210931.6, 111194.13, 0.000029160963, 9.999828, 10.000083 
1.3750719e+3, 1.7508969e+2, -1079380.5, -1133392.1, 117103.88, -0.13091107, -0.0678589, -986208.8, 237907.63, 0.000000027808229, 10.000881, 10.000194 
1.375067e+3, 1.8508959e+2, -1030674.44, -1168325.9, -8879.445, -0.11268761, -0.04428049, -1030104.0, 96014.2, 0.0, 10.001018, 9.999213 
1.3750635e+3, 1.9508849e+2, -1039970.2, -1110779.6, -4522.071, 0.20296049, -0.09786106, -1039682.56, -11550.642, 0.0, 10.000236, 9.999311 
1.3750584e+3, 2.0508844e+2, -1028656.2, -1105862.1, 95955.55, 0.20832023, -0.0054266118, -963829.7, -33692.91, 0.0, 9.999862, 9.998852 
1.375052e+3, 2.1508932e+2, -923282.56, -993167.5, 93741.336, -0.08207378, 0.17460944, -858182.94, -26048.832, 0.0, 9.999867, 9.998948 
1.3750465e+3, 2.2508897e+2, -722685.25, -766882.0, -12170.314, -0.13238387, 0.21412107, -719555.6, 14582.308, 0.0, 10.0002365, 9.999646 
1.375042e+3, 2.3508738e+2, -513816.22, -604417.3, 22214.932, 0.054425653, 0.066004105, -508662.4, 127485.914, 0.0, 10.000951, 9.999745 
1.375036e+3, 2.4508603e+2, -480158.6, -627746.06, 33186.652, 0.11012672, 0.0007588632, -473039.6, 65118.66, 0.0, 10.000885, 9.998952 
1.3750288e+3, 2.5508478e+2, -488541.78, -566877.0, 71683.6, 0.041067325, -0.045977615, -446023.16, -5854.421, 0.0, 10.000093, 9.999079 
1.3750221e+3, 2.65084e+2, -421917.75, -509707.2, 88277.53, 0.028598504, -0.016551424, -367224.1, -25048.9, 0.000000022673568, 10.0, 9.998839 
1.375016e+3, 2.7508348e+2, -234297.45, -355174.1, 106218.65, 0.07424335, 0.025822613, -172526.14, 71652.9, 0.000006624494, 10.0005665, 9.998948 
1.3750085e+3, 2.8508168e+2, -214430.39, -386521.7, 12432.257, 0.052717924, -0.0051763514, -213536.9, -67340.87, 0.00008435929, 10.000415, 9.998136 
1.3749996e+3, 2.9507855e+2, -238384.19, -328167.06, -39372.266, -0.03151939, -0.16335846, -223564.52, -175338.48, 0.00037578115, 9.999494, 9.998307 
1.3749921e+3, 3.0507648e+2, -125530.85, -260381.34, 26921.963, -0.18116367, -0.19168979, -120354.75, -120354.75, 0.0009853418, 9.99998, 9.998211 
1.3749892e+3, 3.1507888e+2, 188279.38, 47219.336, -61487.008, -0.008671469, 0.20252766, 211318.23, 211318.23, 0.0018645666, 10.001439, 9.9996195 
1.3851044e+3, 1.250985e+2, -1521769.9, -1682917.8, 86431.8, 0.11744425, -0.015743447, -1484180.4, 229856.88, 0.008351057, 10.001566, 9.9994545 
1.3850947e+3, 1.3509847e+2, -1494235.4, -1664855.1, 26727.686, -0.13018058, 0.077148825, -1490146.5, 125890.0, 0.004803759, 10.001288, 9.999047 
1.3850899e+3, 1.4509852e+2, -1373181.1, -1440521.3, 71199.17, 0.10516275, 0.12533212, -1328092.1, 189943.05, 0.0019753822, 10.000947, 10.000072 
1.385084e+3, 1.550977e+2, -1260707.5, -1331424.5, 52499.49, 0.18144333, 0.015713213, -1232769.8, 187273.17, 0.00045665295, 10.001034, 10.000103 
1.3850783e+3, 1.6509703e+2, -1240167.4, -1288243.9, 176454.61, 0.119576275, -0.04644417, -1086121.3, 235926.5, 0.00003186285, 10.000572, 9.9999485 
1.3850723e+3, 1.7509668e+2, -1269030.3, -1236615.5, 165482.19, -0.11527089, -0.1037198, -1086549.0, 137499.66, 0.000000039188958, 9.999645, 10.000073 
1.3850676e+3, 1.8509617e+2, -1179521.5, -1244604.1, 76918.08, -0.10511814, -0.11276066, -1128544.4, -2490.496, 0.0, 10.000016, 9.999172 
1.3850638e+3, 1.9509546e+2, -814517.6, -1001723.06, 72658.71, 0.14784546, -0.12558725, -789626.6, 238437.42, 0.0, 10.001786, 9.999309 
1.3850588e+3, 2.050958e+2, -717670.1, -923837.8, 166577.6, 0.15727702, -0.010884108, -624860.2, 305204.94, 0.0, 10.001858, 9.999139 
1.385052e+3, 2.1509703e+2, -833252.4, -914302.94, 190110.67, -0.06578372, 0.17447215, -679395.6, 152662.72, 0.0, 10.000331, 9.999268 
1.3850468e+3, 2.250968e+2, -773181.06, -804537.44, 146246.33, -0.09385685, 0.2147428, -641774.94, 92286.81, 0.0, 9.999928, 9.999551 
1.3850428e+3, 2.3509508e+2, -554940.94, -636166.1, 104907.03, 0.06826692, 0.06309396, -483059.66, 153016.06, 0.0, 10.000702, 9.999659 
1.3850369e+3, 2.450939e+2, -464080.72, -581567.7, 39360.313, 0.11209759, 0.0049749976, -452113.28, 85970.625, 0.0, 10.000845, 9.999278 
1.385029e+3, 2.5509328e+2, -410290.47, -487879.22, 25248.766, 0.035535872, -0.015206395, -402797.66, 37289.016, 0.0, 10.00047, 9.999427 
1.3850221e+3, 2.650927e+2, -380012.94, -490026.22, 58942.855, 0.022143459, 0.02048517, -354397.06, -12306.698, 0.0000000049794013, 10.000291, 9.998832 
1.3850164e+3, 2.750921e+2, -262024.05, -372325.5, 38135.6, 0.07433308, 0.049751114, -250123.11, -6026.507, 0.0000064646365, 10.000376, 9.998928 
1.3850091e+3, 2.8509027e+2, -164435.17, -427669.47, -9592.918, 0.050219398, 0.05083139, -164086.05, -17970.836, 0.00007935542, 10.00104, 9.997554 
1.3850002e+3, 2.9508728e+2, 138359.95, -204080.83, 7096.372, -0.059274983, -0.038367905, 138506.95, 186653.3, 0.00034767005, 10.002329, 9.997789 
1.3849925e+3, 3.050849e+2, 139333.95, -198673.81, 146254.81, -0.23895909, -0.04357698, 193831.25, 193831.25, 0.0009104193, 10.002095, 9.997612 
1.3849893e+3, 3.1508586e+2, 36770.84, -46855.355, 85451.8, -0.07379631, 0.26341206, 90091.04, 90091.04, 0.0017264709, 10.000475, 9.999439 
1.395105e+3, 1.2510706e+2, -1496192.0, -1611767.9, -29450.941, -0.010312907, 0.12316739, -1489120.0, 224835.34, 0.008733579, 10.001497, 9.999976 
1.3950954e+3, 1.3510503e+2, -1433752.0, -1536965.1, 16336.926, -0.18784225, -0.07083928, -1431227.9, 184746.83, 0.005033633, 10.001282, 9.9999275 
1.3950919e+3, 1.451057e+2, -1377111.4, -1458269.4, 58154.598, 0.16445506, -0.0006586843, -1346777.6, 171190.06, 0.002076125, 10.000981, 9.999937 
1.3950837e+3, 1.5510711e+2, -1273647.1, -1357394.1, 64246.582, 0.03345076, 0.13231792, -1238832.9, 181120.72, 0.00048381835, 10.001027, 9.999929 
1.3950779e+3, 1.6510676e+2, -1240575.4, -1296837.8, 131986.11, 0.0076555735, 0.11260506, -1133755.9, 188199.69, 0.000034571214, 10.000599, 9.999882 
1.3950738e+3, 1.7510486e+2, -1277342.9, -1251686.9, 136375.31, 0.06568437, -0.08991899, -1127537.5, 96434.19, 0.00000005013657, 9.999633, 9.99998 
1.3950686e+3, 1.8510443e+2, -1167890.9, -1227287.9, 132440.95, -0.009165924, -0.09110182, -1061859.5, 64116.61, 0.0, 10.00004, 9.999281 
1.3950624e+3, 1.9510522e+2, -813143.2, -991918.5, 143911.31, -0.19654538, 0.037253655, -733118.25, 294852.63, 0.0, 10.001748, 9.999399 
1.3950574e+3, 2.051053e+2, -668128.2, -803197.6, 100699.23, -0.18403636, 0.07917772, -614414.1, 315556.72, 0.0, 10.001784, 10.000001 
1.3950534e+3, 2.1510471e+2, -791653.44, -803112.6, 138195.25, 0.019541638, -0.0018250303, -659069.06, 172906.45, 0.0, 10.000227, 10.00008 
1.3950486e+3, 2.2510403e+2, -844351.44, -935122.75, 166008.11, 0.08373875, -0.0034588769, -717636.6, 16346.955, 0.0, 9.9998455, 9.998695 
1.3950433e+3, 2.3510312e+2, -627812.94, -766413.75, 141314.97, 0.02806152, 0.009895745, -539720.6, 96275.55, 0.0, 10.0006075, 9.998811 
1.3950366e+3, 2.4510266e+2, -485665.34, -605390.1, 17848.588, -0.01629445, 0.068647295, -483061.1, 54940.223, 0.0, 10.0007515, 9.99916 
1.3950287e+3, 2.5510252e+2, -438486.66, -519835.94, 19341.926, -0.050622456, 0.11432893, -434122.03, 5878.1846, 0.0, 10.000361, 9.999258 
1.3950214e+3, 2.6510125e+2, -414986.2, -546319.5, 54968.82, -0.09708083, 0.10600126, -395015.94, -53004.367, 0.0000000011462398, 10.000216, 9.998484 
1.3950148e+3, 2.7509886e+2, -303933.16, -427703.22, 52286.953, -0.14366615, -0.013849551, -284801.66, -40766.258, 0.000006299897, 10.00024, 9.998614 
1.3950089e+3, 2.8509793e+2, -139345.9, -351388.78, 31950.945, -0.09112727, 0.062139314, -134636.11, 11409.63, 0.00007482128, 10.000935, 9.998129 
1.3950038e+3, 2.9509816e+2, 156740.05, -141018.0, 65733.79, 0.044372287, 0.24228257, 170605.9, 218651.86, 0.00032370954, 10.002225, 9.998273 
1.3949956e+3, 3.0509564e+2, 133360.52, -195423.52, 77015.66, -0.13891126, 0.20008966, 150506.78, 150506.78, 0.00084908167, 10.002027, 9.997665 
1.3949886e+3, 3.1509155e+2, 13400.333, -29471.8, 62291.375, -0.23010269, -0.006696746, 57840.82, 57840.82, 0.0016133434, 10.000201, 9.99969 
1.4051059e+3, 1.2511528e+2, -1772780.6, -1752646.1, 33370.918, 0.028039232, 0.091367826, -1727857.0, -13983.889, 0.009133226, 9.999607, 9.999912 
1.4050971e+3, 1.3511397e+2, -1496549.8, -1533101.5, 88920.81, -0.11963711, -0.06275875, -1424046.1, 191841.47, 0.005275387, 10.000697, 10.0002365 
1.405093e+3, 1.451149e+2, -1382102.9, -1463058.6, 108051.84, 0.20913629, 0.017495094, -1307196.0, 210682.84, 0.0021822979, 10.000962, 9.999907 
1.4050838e+3, 1.5511602e+2, -1352202.5, -1402665.4, 103217.51, -0.026556151, 0.12738703, -1271177.3, 148689.58, 0.00051218417, 10.000522, 9.999858 
1.4050777e+3, 1.6511564e+2, -1310099.4, -1366923.5, 176930.8, -0.040075567, 0.12491228, -1159313.9, 162555.89, 0.000037386584, 10.00029, 9.999543 
1.4050749e+3, 1.7511386e+2, -1172627.0, -1236157.4, 146931.89, 0.16230583, -0.03589931, -1054065.9, 169820.86, 0.00000006103049, 10.000501, 9.999666 
1.4050697e+3, 1.8511353e+2, -1094273.6, -1128889.8, 205941.53, 0.08464519, -0.038399532, -904914.1, 220974.81, 0.0, 10.00028, 9.999839 
1.4050624e+3, 1.9511457e+2, -1066601.6, -1049633.5, 234722.23, -0.2646245, 0.055072863, -823242.0, 204635.95, 0.0, 9.999732, 9.999972 
1.4050573e+3, 2.0511442e+2, -982405.4, -989378.9, 142147.6, -0.26954335, 0.060698923, -843701.75, 86177.336, 0.0, 9.999773, 9.999695 
1.405054e+3, 2.1511316e+2, -775133.8, -825799.0, 83015.09, 0.053503007, -0.05855602, -713672.1, 118219.67, 0.0, 10.000473, 9.9998045 
1.4050496e+3, 2.2511257e+2, -743793.8, -877511.44, 141631.19, 0.14532468, -0.038092475, -654033.7, 79866.09, 0.0, 10.000525, 9.99875 
1.4050435e+3, 2.3511256e+2, -707400.4, -792234.94, 166348.56, 0.016674569, 0.056869857, -578146.25, 57758.03, 0.0, 10.000028, 9.998901 
1.4050366e+3, 2.45112e+2, -610893.4, -709451.1, 78919.266, -0.04454735, 0.120635316, -567131.1, -29220.008, 0.0, 10.000075, 9.998776 
1.4050291e+3, 2.5511083e+2, -414641.0, -550226.9, 48751.9, -0.051752254, 0.10010821, -398931.66, 40989.51, 0.0, 10.000696, 9.998894 
1.4050215e+3, 2.6510915e+2, -343734.47, -505670.22, 93862.37, -0.11078894, 0.06762949, -300742.9, 41193.39, 0.0000000047036606, 10.000676, 9.998541 
1.4050142e+3, 2.751071e+2, -313240.47, -422538.16, 98041.9, -0.21395884, -0.020183502, -255645.33, -11689.748, 0.000006310048, 10.000135, 9.998698 
1.4050087e+3, 2.851062e+2, -279916.44, -429267.94, 124412.195, -0.14394641, 0.057905495, -209489.25, -63523.313, 0.00007120588, 10.000023, 9.998026 
1.4050053e+3, 2.951061e+2, -121663.14, -285697.28, 90501.6, 0.08119501, 0.21756732, -81543.66, -33573.035, 0.00031037428, 10.000364, 9.998173 
1.4049973e+3, 3.051042e+2, -76614.45, -273408.72, 39396.82, -0.09284483, 0.22847438, -69020.52, -69020.52, 0.0008184522, 10.00047, 9.99789 
1.4049885e+3, 3.151e+2, 59676.3, 26625.824, 16219.435, -0.25675914, -0.013226728, 66306.055, 66306.055, 0.0015564455, 10.000361, 10.000001 
1.4151053e+3, 1.2512305e+2, -1815664.6, -1846463.9, -38968.895, -0.021701094, -0.14864992, -1789162.9, -75371.55, 0.009556688, 9.999622, 9.999269 
1.4150992e+3, 1.351254e+2, -1523381.0, -1574926.4, 138383.55, 0.011696101, 0.09441694, -1408390.6, 207383.36, 0.0055341963, 10.000654, 9.999965 
1.4150937e+3, 1.4512612e+2, -1373213.0, -1456507.9, 80330.83, 0.14492832, 0.16251712, -1324375.4, 193393.39, 0.0022969088, 10.001, 9.999939 
1.4150842e+3, 1.5512459e+2, -1349759.6, -1400920.1, 91382.91, -0.06519499, 0.00840891, -1280444.3, 139337.3, 0.0005425403, 10.000534, 9.999865 
1.4150777e+3, 1.6512391e+2, -1342478.8, -1443308.1, 171802.88, -0.090045236, 0.004732732, -1213846.4, 107942.09, 0.000040406845, 10.000326, 9.999004 
1.415075e+3, 1.7512381e+2, -1212012.8, -1311219.5, 160935.13, 0.11575811, 0.067019604, -1093210.1, 130582.086, 0.00000007226826, 10.000471, 9.9991665 
1.4150704e+3, 1.8512367e+2, -1023799.0, -984140.5, 176582.64, 0.10688358, 0.05524037, -826277.25, 299513.84, 0.0, 10.000284, 10.000832 
1.4150636e+3, 1.9512351e+2, -1005150.2, -915456.44, 219807.47, -0.12493111, -0.06768312, -735967.5, 291817.88, 0.0, 9.999704, 10.000908 
1.4150581e+3, 2.0512314e+2, -1082199.4, -1188665.8, 155717.5, -0.1681082, -0.062340755, -970867.4, -41077.105, 0.0, 9.999735, 9.998347 
1.415054e+3, 2.151224e+2, -883896.75, -1027878.3, 114536.44, -0.0141307255, 0.006337884, -820605.4, 11201.388, 0.0, 10.000364, 9.998474 
1.4150491e+3, 2.2512248e+2, -694797.44, -747303.25, 114192.73, 0.031214261, 0.10892197, -603878.7, 129931.26, 0.0, 10.000404, 9.999701 
1.415043e+3, 2.3512337e+2, -663951.3, -672604.44, 155926.9, -0.026002642, 0.2030803, -512290.97, 123509.336, 0.0, 9.999909, 9.999777 
1.4150369e+3, 2.4512194e+2, -662871.1, -803091.7, 94581.7, -0.04719972, 0.17108352, -615248.0, -77434.89, 0.0, 10.000005, 9.998168 
1.4150302e+3, 2.551182e+2, -467362.3, -641262.94, 80207.04, -0.02918764, -0.0502041, -436018.4, 3830.5474, 0.0, 10.000611, 9.998311 
1.4150228e+3, 2.651165e+2, -330504.7, -455222.3, 67247.96, -0.083874665, -0.077371515, -301152.5, 40711.027, 0.000000079284355, 10.00058, 9.99893 
1.4150147e+3, 2.7511677e+2, -305288.94, -382413.16, 88779.664, -0.20265672, 0.028141659, -247058.14, -3200.008, 0.000007370017, 10.000041, 9.999016 
1.4150086e+3, 2.8511497e+2, -334045.7, -535544.94, 130703.85, -0.18368077, 0.039583463, -269768.1, -123890.97, 0.00007169882, 9.999982, 9.997322 
1.4150049e+3, 2.9511106e+2, -186595.58, -399345.72, 116739.29, -0.023927694, -0.11684091, -135034.84, -87113.68, 0.00031191297, 10.000253, 9.997457 
1.414997e+3, 3.051105e+2, -80219.445, -235957.39, 30920.512, -0.18505374, 0.049540237, -74305.04, -74305.04, 0.00082090637, 10.000301, 9.998212 
1.4149888e+3, 3.151112e+2, 24460.62, 16606.898, 44341.16, -0.29114613, 0.2573531, 65048.46, 65048.46, 0.001557211, 10.000121, 10.00003 
1.4251053e+3, 1.2513146e+2, -1729738.4, -1768760.9, -131344.27, 0.003713713, -0.17018893, -1616464.1, 97247.75, 0.010011913, 10.000058, 9.999599 
1.4251009e+3, 1.3513489e+2, -1586300.9, -1587227.0, 79320.23, 0.1393849, 0.1634255, -1507442.4, 108239.336, 0.0058154534, 10.000146, 10.000127 
1.4250939e+3, 1.4513488e+2, -1500333.0, -1556207.1, 18181.05, 0.092669666, 0.17172888, -1494937.9, 22745.613, 0.002423067, 10.000318, 9.999574 
1.4250854e+3, 1.5513271e+2, -1353991.5, -1443039.3, -19565.736, 0.0016304168, -0.0149636995, -1349882.1, 69822.83, 0.00057589856, 10.000682, 9.999504 
1.4250788e+3, 1.6513225e+2, -1247614.1, -1336219.5, 107484.74, -0.027115008, -0.0069059115, -1175659.8, 146050.08, 0.00004378684, 10.000704, 9.9995575 
1.425075e+3, 1.751333e+2, -1163525.3, -1225123.3, 160185.2, 0.05699186, 0.114349954, -1031205.06, 192495.3, 0.00000008454083, 10.000531, 9.999728 
1.4250702e+3, 1.8513323e+2, -1056303.8, -1044443.2, 163823.78, 0.05966744, 0.103158005, -886442.44, 239255.92, 0.0, 10.000265, 10.000421 
1.4250644e+3, 1.9513212e+2, -984710.75, -949163.56, 89316.78, -0.04109233, -0.075150006, -875869.1, 151834.25, 0.0, 10.000041, 10.000508 
1.4250588e+3, 2.0513172e+2, -1049507.3, -1155955.1, 76218.12, -0.08251399, -0.058999855, -1009768.9, -80059.695, 0.0, 9.999887, 9.998497 
1.4250538e+3, 2.1513188e+2, -942654.75, -1035137.2, 129252.08, -0.055546537, 0.081981465, -851621.25, -19904.13, 0.0, 9.999871, 9.998658 
1.4250484e+3, 2.25132e+2, -751882.75, -781672.94, 145365.77, -0.039661713, 0.17992325, -620650.94, 113068.695, 0.0, 10.000029, 9.999652 
1.425043e+3, 2.3513208e+2, -595277.94, -644777.56, 100934.63, -0.042187426, 0.19928601, -516103.03, 119613.83, 0.0, 10.000386, 9.999747 
1.4250374e+3, 2.451306e+2, -553321.5, -734128.1, 72024.09, -0.036821414, 0.15539972, -528138.4, 9591.657, 0.0, 10.000699, 9.998305 
1.425031e+3, 2.551275e+2, -383531.56, -581258.44, 90523.25, -0.02552336, -0.015317539, -348348.6, 91411.09, 0.00000000006254562, 10.001109, 9.998481 
1.4250235e+3, 2.65126e+2, -257035.19, -488086.47, 55572.645, -0.090463415, -0.004889636, -244363.73, 97410.586, 0.00000036239143, 10.001376, 9.998325 
1.4250152e+3, 2.7512592e+2, -131388.36, -361674.63, -7947.628, -0.2222877, 0.13043472, -131114.39, 112660.35, 0.000010082052, 10.001502, 9.998456 
1.4250088e+3, 2.8512374e+2, -137780.39, -413023.75, 56077.414, -0.221809, 0.11930759, -126793.85, 19003.865, 0.000078412035, 10.001208, 9.997578 
1.4250045e+3, 2.9511946e+2, -109407.75, -327290.44, 85885.28, -0.09350752, -0.098150134, -79624.555, -31781.418, 0.00032778483, 10.00064, 9.997763 
1.4249972e+3, 3.0511945e+2, -21164.404, -199624.22, 62323.777, -0.20775196, 0.09816467, -1553.9268, -1553.9268, 0.00085219153, 10.000649, 9.998305 
1.4249901e+3, 3.1512043e+2, 146710.39, 42800.406, 42711.08, -0.20922503, 0.33053982, 162012.8, 162012.8, 0.001610581, 10.001079, 9.999763 
1.4351055e+3, 1.251408e+2, -1628996.8, -1560934.4, -74831.86, -0.02700638, 0.03267657, -1512758.9, 200872.13, 0.010506618, 10.000054, 10.001033 
1.4351018e+3, 1.3514286e+2, -1553088.6, -1507193.8, 91931.41, 0.20666873, 0.16177644, -1435389.0, 180217.48, 0.006123269, 10.000105, 10.0006895 
1.4350933e+3, 1.4514159e+2, -1547194.4, -1667624.0, 22335.492, -0.023082381, 0.05744864, -1543185.4, -25565.684, 0.002563054, 10.000363, 9.998797 
1.4350873e+3, 1.5514043e+2, -1402033.1, -1541436.3, 2380.6726, 0.10912354, 0.047436357, -1401992.5, 17643.846, 0.0006133788, 10.000671, 9.998838 
1.4350808e+3, 1.6514075e+2, -1135545.6, -1105597.5, 92718.305, 0.06985106, 0.08506791, -1026651.8, 294980.84, 0.000047750204, 10.000709, 10.001142 
1.4350742e+3, 1.7514236e+2, -1056355.9, -1004682.1, 159581.84, -0.07964329, 0.10341063, -868859.1, 354751.8, 0.00000010052836, 10.000535, 10.001242 
1.4350688e+3, 1.8514226e+2, -1177750.6, -1298295.1, 143639.28, -0.12058373, 0.103179805, -1082250.6, 43360.074, 0.0, 10.000272, 9.998676 
1.4350642e+3, 1.9514044e+2, -1109912.6, -1199642.0, 87392.14, -0.07383654, 0.030097518, -1056541.8, -28910.197, 0.0, 9.999999, 9.998812 
1.4350589e+3, 2.0514031e+2, -942699.9, -922517.25, 66874.71, -0.08744547, 0.07190747, -864976.75, 64658.14, 0.0, 9.999833, 10.000126 
1.4350529e+3, 2.1514167e+2, -850378.8, -818793.75, 135697.3, -0.14029396, 0.17120257, -697973.06, 133649.4, 0.0, 9.999763, 10.000196 
1.4350475e+3, 2.2514111e+2, -838683.06, -933904.75, 150095.28, -0.13964954, 0.1799565, -728828.4, 4800.6294, 0.0, 9.999911, 9.998664 
1.435043e+3, 2.3513876e+2, -679782.6, -791531.3, 120818.36, -0.089418195, 0.052614152, -602544.2, 33109.395, 0.0, 10.000266, 9.998798 
1.4350377e+3, 2.4513797e+2, -509937.6, -619057.06, 77837.734, -0.08182982, 0.08043517, -469442.2, 68219.45, 0.0, 10.000585, 9.999154 
1.4350314e+3, 2.551386e+2, -346663.8, -479072.66, 112994.164, -0.10570635, 0.20173356, -281907.53, 157747.13, 0.000000006122379, 10.000999, 9.999237 
1.435024e+3, 2.651375e+2, -370187.56, -707409.75, 53014.492, -0.19287685, 0.29097673, -362049.6, -20380.26, 0.0000008787704, 10.001303, 9.996859 
1.4350156e+3, 2.751346e+2, -245421.17, -578528.3, 7708.7217, -0.33981705, 0.29196113, -245242.88, -1537.7701, 0.000014138208, 10.001409, 9.99702 
1.4350091e+3, 2.8513256e+2, -73131.94, -255470.33, 26717.57, -0.340738, 0.30673793, -69297.71, 76429.73, 0.00009033198, 10.001107, 9.998705 
1.4350042e+3, 2.9513118e+2, -53002.613, -187943.83, 76054.22, -0.20470548, 0.26496828, -18804.506, 28934.217, 0.00035666508, 10.000543, 9.998766 
1.4349976e+3, 3.0513078e+2, -31443.379, -197876.89, 71580.96, -0.23604041, 0.3767181, -4892.822, -4892.822, 0.00091448583, 10.00056, 9.998356 
1.4349921e+3, 3.151279e+2, 76942.94, -47184.395, 92629.57, -0.14285164, 0.21713626, 126378.766, 126378.766, 0.0017228713, 10.000847, 9.999257 
1.4451043e+3, 1.251499e+2, -1832770.1, -1622173.9, 106903.16, -0.056230456, 0.13348359, -1577418.8, 136126.92, 0.011047917, 9.998491, 10.001364 
1.4451012e+3, 1.3515042e+2, -1812421.8, -1673894.3, 78071.23, 0.21478006, 0.13695309, -1638790.5, -23255.268, 0.00646129, 9.9984865, 10.000326 
1.4450921e+3, 1.45149e+2, -1754246.9, -1708029.9, 55702.965, -0.08786917, 0.015276975, -1670832.3, -153283.97, 0.0027186894, 9.998701, 9.99931 
1.4450875e+3, 1.551491e+2, -1560119.9, -1554118.1, 108661.68, 0.1392705, 0.07437134, -1448415.9, -28865.096, 0.0006559602, 9.999324, 9.999393 
1.4450815e+3, 1.6514958e+2, -1310072.0, -1239093.6, 170134.88, 0.12654711, 0.12346271, -1100786.0, 220760.61, 0.000052490832, 9.999744, 10.000679 
1.4450745e+3, 1.751504e+2, -1138618.4, -1093193.8, 71185.945, -0.079016864, 0.10722617, -1041184.7, 182351.53, 0.00000012546444, 10.000194, 10.000792 
1.4450687e+3, 1.8515036e+2, -1161926.1, -1249451.5, 62923.28, -0.14651628, 0.11831335, -1129043.5, -3507.542, 0.0, 10.000192, 9.999054 
1.4450637e+3, 1.9514954e+2, -1112041.0, -1154861.4, 148048.38, -0.10688438, 0.10367848, -983862.75, 43682.625, 0.0, 9.999788, 9.999218 
1.4450583e+3, 2.0514949e+2, -993787.56, -962220.56, 159373.61, -0.0982168, 0.14255698, -817850.8, 111695.7, 0.0, 9.999555, 9.999984 
1.4450528e+3, 2.151501e+2, -894951.5, -854187.2, 83023.19, -0.10605774, 0.18111044, -789080.9, 42459.973, 0.0, 9.99952, 10.000068 
1.4450477e+3, 2.2514911e+2, -915931.5, -989017.2, 94596.96, -0.09907177, 0.15982448, -851064.44, -117512.88, 0.0, 9.999453, 9.998507 
1.445043e+3, 2.3514658e+2, -816987.94, -871263.56, 112102.234, -0.08415859, 0.028109666, -728785.5, -93207.36, 0.0, 9.999378, 9.998674 
1.4450377e+3, 2.4514604e+2, -652474.75, -684670.56, 95343.06, -0.08908598, 0.08583798, -571880.1, -34295.563, 0.0, 9.999598, 9.999175 
1.4450319e+3, 2.5514728e+2, -464853.34, -537539.8, 57610.77, -0.11524731, 0.2673639, -433080.28, 6492.8394, 0.000000012932129, 10.000178, 9.999238 
1.4450252e+3, 2.6514614e+2, -439725.9, -747452.5, 39391.957, -0.19517547, 0.35964972, -434763.38, -93174.305, 0.0000016431604, 10.000855, 9.996794 
1.4450173e+3, 2.751428e+2, -200196.14, -557970.4, 77336.82, -0.32433262, 0.3136144, -184194.61, 59436.113, 0.00001933506, 10.001732, 9.996994 
1.4450108e+3, 2.8514108e+2, 38171.953, -211959.33, 80320.09, -0.31625232, 0.3649286, 61742.55, 207393.16, 0.000106984284, 10.001918, 9.998609 
1.4450054e+3, 2.9514074e+2, 68344.08, -137284.61, 29422.154, -0.1761166, 0.43947196, 72471.086, 120122.75, 0.00040085675, 10.001408, 9.9986925 
1.4449988e+3, 3.0513972e+2, 71883.11, -120103.87, 42512.582, -0.20841959, 0.47823015, 80875.67, 80875.67, 0.0010133042, 10.001146, 9.998616 
1.444993e+3, 3.1513536e+2, 113281.5, -49142.906, 47806.027, -0.1469238, 0.14113125, 126307.5, 126307.5, 0.0019009939, 10.001187, 9.999078 
1.4551033e+3, 1.251596e+2, -1885727.9, -1737882.4, 233274.61, -0.061462563, 0.20193113, -1567098.0, 146349.63, 0.011640448, 9.998531, 10.0005455 
1.4550987e+3, 1.3515763e+2, -1901552.5, -1851470.3, 81475.74, 0.10653025, 0.08292921, -1791274.4, -175807.45, 0.0068325973, 9.998456, 9.999125 
1.45509e+3, 1.451573e+2, -1638650.4, -1465875.4, 70863.484, -0.17891473, 0.046433292, -1440529.1, 76938.45, 0.0028915813, 9.998688, 10.0009775 
1.4550859e+3, 1.5515879e+2, -1447591.5, -1316225.9, 136278.86, 0.020932566, 0.0694511, -1230627.0, 188821.19, 0.00070428615, 9.999309, 10.001031 
1.455081e+3, 1.651588e+2, -1472310.5, -1586725.9, 174536.67, 0.07010031, 0.113213606, -1345845.1, -24393.908, 0.000058062662, 9.9997835, 9.998278 
1.4550757e+3, 1.7515741e+2, -1302765.1, -1434152.9, 96074.766, 0.00056259683, 0.11979777, -1252071.6, -28595.934, 0.00000016567238, 10.000191, 9.998455 
1.4550696e+3, 1.8515764e+2, -990112.0, -893539.94, 39815.523, -0.09070046, 0.1472956, -879241.5, 246231.39, 0.0, 10.0001955, 10.001494 
1.4550626e+3, 1.9515938e+2, -952689.7, -818326.75, 138158.42, -0.20696263, 0.14703271, -731881.7, 295563.2, 0.0, 9.999761, 10.001545 
1.4550571e+3, 2.0515916e+2, -1134371.1, -1237984.1, 148519.36, -0.18457773, 0.1518127, -1028882.0, -99436.58, 0.0, 9.999489, 9.99812 
1.4550534e+3, 2.151571e+2, -1035473.75, -1122925.5, 87489.414, -0.01797191, 0.106782906, -981391.94, -149918.89, 0.0, 9.999423, 9.998269 
1.4550483e+3, 2.2515596e+2, -878143.44, -885547.1, 83761.93, 0.009124398, 0.11888243, -798001.6, -64514.313, 0.0, 9.999348, 9.999265 
1.4550424e+3, 2.3515566e+2, -789643.25, -781579.1, 117879.61, -0.0925731, 0.1363809, -667662.6, -32173.137, 0.0, 9.999245, 9.9993515 
1.455037e+3, 2.4515484e+2, -718282.75, -805271.94, 109530.26, -0.13177225, 0.17537352, -643927.2, -106428.38, 0.0, 9.9995165, 9.99839 
1.4550322e+3, 2.5515357e+2, -528429.5, -649456.9, 87303.78, -0.11573952, 0.18146296, -482717.72, -43202.72, 0.000000017460069, 10.00009, 9.998513 
1.4550264e+3, 2.6515207e+2, -362931.1, -565602.5, 65282.53, -0.16378851, 0.20646559, -343723.3, -2190.237, 0.000002726617, 10.000755, 9.998093 
1.4550199e+3, 2.7515036e+2, -132202.31, -385003.78, 117852.305, -0.25408065, 0.19468006, -85784.33, 157768.77, 0.0000251694, 10.001604, 9.99824 
1.4550138e+3, 2.8514916e+2, -58379.805, -390745.44, 54324.637, -0.21564043, 0.29733843, -49725.855, 95842.664, 0.00012713004, 10.001818, 9.997435 
1.4550081e+3, 2.951483e+2, -24528.494, -307403.13, 21514.672, -0.07325173, 0.43476316, -22901.506, 24679.756, 0.00045719108, 10.001302, 9.9975815 
1.4550002e+3, 3.0514637e+2, 78989.65, -69313.76, 36376.24, -0.19148321, 0.4174035, 87431.56, 87431.56, 0.0011417216, 10.000999, 9.99903 
1.4549923e+3, 3.1514278e+2, 68905.125, -81496.805, 71660.51, -0.35836244, 0.121858835, 97581.07, 97581.07, 0.0021348668, 10.000947, 9.998963 
1.4651027e+3, 1.2516628e+2, -1924480.3, -1744589.6, 155494.19, 0.047950126, 0.21714412, -1654900.3, 58482.594, 0.012283002, 9.998204, 10.000654 
1.4650966e+3, 1.3516462e+2, -1861029.5, -1786832.3, 7571.971, 0.049927797, 0.08937721, -1786067.4, -170667.88, 0.00723705, 9.998538, 9.999528 
1.4650892e+3, 1.4516518e+2, -1645660.6, -1480086.3, 34292.555, -0.13013595, 0.12634142, -1473264.9, 44126.816, 0.0030819494, 9.998673, 10.000895 
1.4650847e+3, 1.551657e+2, -1480544.4, -1341154.4, -49087.043, -0.0040402934, 0.06058081, -1325603.1, 93778.43, 0.0007585455, 9.999102, 10.000968 
1.46508e+3, 1.651656e+2, -1544187.5, -1610285.8, 25944.063, 0.026154514, 0.091025226, -1535220.6, -213834.73, 0.00006440502, 9.999238, 9.9983835 
1.4650752e+3, 1.7516491e+2, -1423422.4, -1480635.3, 114782.41, -0.028951759, 0.15575095, -1333735.4, -110331.2, 0.00000022299002, 9.999308, 9.998566 
1.4650694e+3, 1.8516533e+2, -1080041.1, -939856.94, 64466.664, -0.11401548, 0.2001669, -914718.5, 210681.55, 0.0, 9.999606, 10.001452 
1.4650624e+3, 1.951668e+2, -882688.5, -785021.8, -34689.332, -0.23128524, 0.17413147, -773954.8, 253420.36, 0.0, 10.00025, 10.00153 
1.4650568e+3, 2.0516635e+2, -1045117.1, -1195347.4, -43531.414, -0.19707231, 0.15385152, -1033414.8, -104037.25, 0.0, 10.000094, 9.998128 
1.4650527e+3, 2.1516412e+2, -1055780.3, -1128103.9, 21625.738, -0.01627072, 0.091867164, -1049807.1, -218401.92, 0.0, 9.999263, 9.998315 
1.4650476e+3, 2.2516325e+2, -888910.75, -873372.7, 100999.0, 0.015339067, 0.12178316, -779844.4, -46427.758, 0.0, 9.999211, 9.999414 
1.465042e+3, 2.3516352e+2, -673950.94, -709391.1, 75394.94, -0.09167616, 0.18381108, -614221.7, 21192.18, 0.0, 9.999967, 9.999503 
1.4650367e+3, 2.4516273e+2, -651971.1, -780136.7, 79743.51, -0.12540658, 0.21914394, -613752.25, -76328.234, 0.0, 10.000018, 9.998314 
1.4650321e+3, 2.5516093e+2, -610453.4, -691387.5, 93350.75, -0.09949516, 0.18058793, -549175.94, -109729.96, 0.000000044837254, 9.999552, 9.998474 
1.4650269e+3, 2.6515955e+2, -483489.9, -549531.06, 108168.9, -0.13131623, 0.18776625, -403413.75, -61952.355, 0.0000038968087, 9.999617, 9.99875 
1.465021e+3, 2.7515858e+2, -299103.56, -396972.0, 100542.83, -0.21257545, 0.1864994, -236219.08, 7251.977, 0.000030512307, 10.000152, 9.998864 
1.4650156e+3, 2.8515738e+2, -228992.45, -495674.22, 48014.016, -0.16056927, 0.27004132, -220611.3, -75125.664, 0.00014596309, 10.000748, 9.997228 
1.4650102e+3, 2.9515597e+2, -9196.868, -321549.9, 57062.543, -0.0010653402, 0.37682077, 901.20154, 48406.125, 0.0005129789, 10.001511, 9.997378 
1.4650023e+3, 3.0515382e+2, 187262.42, -41509.566, 90345.07, -0.10544057, 0.3554761, 218637.83, 218637.83, 0.0012767037, 10.001848, 9.998805 
1.4649944e+3, 3.151521e+2, 144420.11, -91988.5, 53386.895, -0.27488846, 0.27210858, 155917.08, 155917.08, 0.002388808, 10.001631, 9.998573 
1.4751026e+3, 1.2516929e+2, -1861471.1, -1609669.6, 154206.45, 0.17850511, 0.11543474, -1536496.0, 176861.89, 0.012969953, 9.998198, 10.001582 
1.4750943e+3, 1.3517143e+2, -1723305.5, -1496786.5, 17978.973, -0.060253896, 0.16439024, -1495368.4, 119964.4, 0.0076708426, 9.99852, 10.001529 
1.4750892e+3, 1.4517266e+2, -1752737.5, -1718951.4, 34082.332, -0.025121624, 0.25048476, -1697805.3, -180484.9, 0.0032881629, 9.998737, 9.999229 
1.4750841e+3, 1.5517011e+2, -1603776.0, -1588323.6, -26125.15, 0.0070984648, 0.056683164, -1568806.1, -149458.08, 0.00081847684, 9.999068, 9.999288 
1.4750785e+3, 1.6517027e+2, -1365171.4, -1247653.1, 18979.668, -0.076188706, 0.06951174, -1244663.9, 76683.92, 0.000071419374, 9.999266, 10.000861 
1.4750727e+3, 1.7517295e+2, -1257096.5, -1131967.3, 123486.77, -0.23296657, 0.22266188, -1056100.3, 167221.02, 0.0000002932695, 9.999291, 10.000966 
1.4750674e+3, 1.8517347e+2, -1246131.4, -1291596.9, 79314.25, -0.28365988, 0.27911234, -1186356.4, -61038.887, 0.0, 9.999629, 9.999031 
1.4750627e+3, 1.9517182e+2, -1053141.0, -1131222.3, -4596.75, -0.24334258, 0.1854785, -1052871.3, -25535.375, 0.0, 10.000213, 9.999175 
1.475057e+3, 2.051711e+2, -919084.5, -921421.9, -85449.63, -0.20809275, 0.15671134, -834795.56, 94546.4, 0.0, 10.000042, 10.000032 
1.4750506e+3, 2.1517123e+2, -945218.3, -872972.5, -3734.3857, -0.16611752, 0.14267856, -872780.0, -41443.16, 0.0, 9.999158, 10.000114 
1.4750454e+3, 2.2517097e+2, -937721.94, -952503.8, 120817.63, -0.14258161, 0.17177545, -824069.4, -90729.71, 0.0, 9.999108, 9.998924 
1.4750415e+3, 2.3517027e+2, -718014.0, -779054.5, 111170.734, -0.14374241, 0.18149766, -633250.2, 2100.383, 0.0, 9.999871, 9.999072 
1.4750367e+3, 2.4516974e+2, -618836.1, -696614.25, 53362.816, -0.14390473, 0.23188926, -591695.25, -54336.047, 0.0, 9.999948, 9.998924 
1.4750315e+3, 2.5516927e+2, -584926.7, -616207.2, 83851.48, -0.1297956, 0.2684338, -515269.3, -75902.836, 0.000000082863835, 9.999455, 9.999039 
1.4750263e+3, 2.6516855e+2, -494781.2, -550440.3, 123188.15, -0.17177704, 0.3089637, -396318.2, -54943.63, 0.0000048986644, 9.999517, 9.99879 
1.475021e+3, 2.751675e+2, -310137.47, -393045.28, 131870.11, -0.2686336, 0.29050252, -213359.14, 30025.004, 0.00003489618, 10.000039, 9.99894 
1.4750159e+3, 2.8516582e+2, -204022.34, -422910.53, 67549.58, -0.22457671, 0.29403183, -184854.8, -39453.723, 0.0001611451, 10.000648, 9.99778 
1.4750114e+3, 2.951636e+2, 9600.682, -254149.73, 95241.41, -0.044557385, 0.2612109, 40396.91, 87821.74, 0.0005625148, 10.00139, 9.997898 
1.4750051e+3, 3.0516177e+2, 110891.766, -166477.48, 78101.66, -0.034627292, 0.29191118, 131371.5, 131371.5, 0.0014021061, 10.001708, 9.99801 
1.4749987e+3, 3.1516337e+2, 70486.53, -176323.0, 65130.246, -0.032482672, 0.6088643, 86619.164, 86619.164, 0.0026234915, 10.001354, 9.998115 
1.4851e+3, 1.2517396e+2, -2055170.4, -1707693.6, 202555.95, 0.16700983, 0.117393896, -1614572.6, 98741.805, 0.013700781, 9.996881, 10.001554 
1.4850925e+3, 1.3517678e+2, -1675991.9, -1412251.3, -17090.994, -0.07625631, 0.18431105, -1411148.3, 204134.06, 0.00813248, 9.99856, 10.002107 
1.4850897e+3, 1.451782e+2, -1689679.6, -1679864.4, -1880.8876, 0.13640507, 0.257493, -1679516.4, -162247.8, 0.0035089266, 9.999157, 9.999283 
1.4850828e+3, 1.5517604e+2, -1570987.4, -1562183.0, 51785.457, -0.037571978, 0.09397438, -1514612.9, -95319.19, 0.0008836724, 9.99926, 9.999367 
1.4850762e+3, 1.6517657e+2, -1364446.0, -1175978.6, 95009.19, -0.19441873, 0.10829281, -1136396.3, 184892.02, 0.00007901186, 9.998987, 10.001475 
1.4850707e+3, 1.7517953e+2, -1325531.0, -1094565.9, 44140.902, -0.30269226, 0.22609587, -1086417.4, 136837.48, 0.00000037325287, 9.998532, 10.00158 
1.4850664e+3, 1.8517984e+2, -1470211.5, -1455882.6, 47683.082, -0.2756918, 0.25972536, -1414828.8, -289575.84, 0.0, 9.998332, 9.998533 
1.485063e+3, 1.9517772e+2, -1321945.8, -1311249.9, 91815.04, -0.1458339, 0.16582333, -1224627.3, -197347.03, 0.0, 9.998585, 9.998727 
1.4850573e+3, 2.0517711e+2, -1011222.0, -921759.1, 24428.746, -0.12489218, 0.1513659, -915523.25, 13762.752, 0.0, 9.9992285, 10.000416 
1.4850499e+3, 2.151779e+2, -754229.4, -736403.25, -19648.668, -0.19508782, 0.16287686, -723740.56, 107531.86, 0.0, 10.0002775, 10.000508 
1.4850445e+3, 2.2517778e+2, -786468.1, -892897.56, 75592.65, -0.18345688, 0.19260214, -747238.0, -13964.406, 0.0, 10.000202, 9.9988 
1.4850412e+3, 2.3517686e+2, -826964.2, -842750.6, 73687.1, -0.11088907, 0.1924199, -760748.75, -125460.63, 0.0, 9.999172, 9.998966 
1.4850368e+3, 2.4517652e+2, -699955.8, -713403.2, 42099.73, -0.1064637, 0.25766173, -664046.25, -126751.14, 0.0, 9.999282, 9.999141 
1.4850311e+3, 2.5517666e+2, -424979.9, -514322.53, 30973.887, -0.16102481, 0.33232513, -415292.16, 24003.367, 0.00000011463164, 10.000437, 9.999273 
1.4850262e+3, 2.6517582e+2, -323034.25, -495871.28, 53307.797, -0.19341111, 0.36122707, -307915.16, 33389.395, 0.000005857849, 10.000827, 9.99853 
1.4850217e+3, 2.7517396e+2, -241813.25, -390373.78, 16402.385, -0.2115227, 0.29619607, -240023.84, 3297.9802, 0.0000392753, 10.000641, 9.998671 
1.4850168e+3, 2.8517228e+2, -136260.11, -336849.78, -28849.438, -0.1952905, 0.28673223, -132193.34, 13144.428, 0.0001765315, 10.000902, 9.998239 
1.4850117e+3, 2.9517066e+2, 64779.773, -180685.7, -26780.518, -0.15013573, 0.2719332, 67667.58, 115020.31, 0.00061170605, 10.001567, 9.998318 
1.4850065e+3, 3.0516806e+2, 164778.72, -205740.1, -35498.035, -0.09105658, 0.23257206, 168149.0, 168149.0, 0.0015158497, 10.002344, 9.997447 
1.4850026e+3, 3.1516892e+2, 330539.9, -66854.695, -75426.5, 0.14122665, 0.53384143, 344374.44, 344374.44, 0.0028185756, 10.003206, 9.997981 
1.4950936e+3, 1.2518027e+2, -2084371.6, -1791529.3, 109132.8, -0.19967504, 0.2172734, -1755333.0, -42080.242, 0.014485426, 9.996975, 10.000927 
1.4950913e+3, 1.351812e+2, -1742559.8, -1534640.9, 46509.29, -0.06519317, 0.1805938, -1524711.4, 90531.516, 0.008627366, 9.998508, 10.001279 
1.4950906e+3, 1.4518195e+2, -1563990.9, -1434405.0, -13262.792, 0.28115946, 0.14593227, -1433061.5, 84172.984, 0.0037456865, 9.9992, 10.000959 
1.4950804e+3, 1.5518352e+2, -1453681.1, -1317193.8, 61400.387, -0.21818462, 0.17789373, -1293637.6, 125580.84, 0.0009542572, 9.99925, 10.001057 
1.4950734e+3, 1.6518457e+2, -1434828.1, -1338398.6, 65450.863, -0.41261712, 0.21856199, -1305320.9, 15886.07, 0.00008722728, 9.999053, 10.00033 
1.4950694e+3, 1.7518467e+2, -1410560.9, -1263728.8, 30735.396, -0.2969008, 0.17149496, -1257554.8, -34350.34, 0.0000004647829, 9.998507, 10.000431 
1.495066e+3, 1.8518463e+2, -1365100.9, -1248591.6, 45807.598, -0.16314517, 0.15432978, -1232738.6, -107533.66, 0.0, 9.998369, 9.999942 
1.495063e+3, 1.9518454e+2, -1231751.6, -1118963.8, 105910.77, -0.016496586, 0.12376277, -1055368.6, -28160.805, 0.0, 9.998559, 10.000061 
1.4950578e+3, 2.0518439e+2, -1091028.9, -1077783.1, 54551.38, -0.02241568, 0.14215732, -1029454.06, -100244.164, 0.0, 9.999182, 9.999368 
1.4950506e+3, 2.1518409e+2, -840302.4, -890785.7, 24266.76, -0.16272987, 0.14914422, -830529.5, 682.47595, 0.0, 10.000176, 9.9994955 
1.495045e+3, 2.2518373e+2, -784816.56, -873795.0, 26925.432, -0.17208232, 0.1942309, -777303.2, -44085.547, 0.0, 10.000124, 9.998975 
1.4950411e+3, 2.3518325e+2, -829677.06, -826253.25, 41922.934, -0.060789403, 0.22033577, -786007.3, -150780.31, 0.0, 9.999075, 9.999128 
1.4950362e+3, 2.4518308e+2, -726282.75, -742768.3, 78779.04, -0.09100102, 0.3011625, -655316.44, -118084.65, 0.0, 9.999171, 9.998992 
1.4950308e+3, 2.5518304e+2, -451417.16, -544814.25, 82046.96, -0.25608292, 0.36949775, -403709.88, 35523.625, 0.00000015644366, 10.000334, 9.999113 
1.4950265e+3, 2.6518133e+2, -383651.22, -600283.9, 38378.86, -0.26188388, 0.35622653, -377052.97, -35801.72, 0.000006865855, 10.000729, 9.997863 
1.4950234e+3, 2.7517805e+2, -303146.8, -494153.94, 18443.19, -0.11136465, 0.21258236, -301382.28, -58098.152, 0.00004412312, 10.00054, 9.998007 
1.4950183e+3, 2.8517672e+2, -129373.93, -298988.78, -9724.627, -0.15793225, 0.25823513, -128818.2, 16477.645, 0.0001927378, 10.000795, 9.998552 
1.495011e+3, 2.9517716e+2, 67917.87, -145139.84, 12069.909, -0.3964527, 0.40944657, 68599.46, 115888.27, 0.00065815035, 10.001441, 9.998623 
1.4950062e+3, 3.0517268e+2, 109868.88, -279237.56, -9219.408, -0.36314815, 0.19125296, 110087.2, 110087.2, 0.0016072446, 10.002181, 9.997013 
1.4950058e+3, 3.1516853e+2, 304988.5, -68781.516, -18540.283, 0.093571596, 0.030909669, 305905.9, 305905.9, 0.0029540178, 10.002998, 9.99806 
1.5050928e+3, 1.251863e+2, -1785035.4, -1681424.0, 107765.836, -0.081471436, 0.22497748, -1613658.4, 99534.82, 0.015336173, 9.999199, 10.000602 
1.5050897e+3, 1.3518652e+2, -1792173.1, -1633234.8, 123221.18, -0.06913026, 0.17449905, -1566079.1, 49113.043, 0.0091627855, 9.998484, 10.000615 
1.5050884e+3, 1.4518693e+2, -1703005.1, -1461588.6, 30462.08, 0.20376341, 0.123626836, -1457804.1, 59383.887, 0.0040015904, 9.998098, 10.001289 
1.5050794e+3, 1.5518953e+2, -1520708.0, -1305863.8, -12337.795, -0.2108138, 0.21992064, -1305157.6, 114003.45, 0.001031135, 9.998602, 10.001444 
1.5050727e+3, 1.6519059e+2, -1511838.3, -1403377.6, -26290.291, -0.36016926, 0.2551028, -1397341.0, -76191.914, 0.000096309515, 9.998636, 10.000092 
1.5050685e+3, 1.7518975e+2, -1431297.9, -1298734.1, -7105.206, -0.24739023, 0.13513203, -1298354.4, -75198.65, 0.000000575819, 9.998456, 10.000221 
1.5050648e+3, 1.8518974e+2, -1307111.1, -1171043.9, 48177.18, -0.12657923, 0.11062626, -1155713.1, -30557.992, 0.0, 9.99857, 10.000363 
1.5050618e+3, 1.951907e+2, -1120294.5, -1014196.3, 21697.572, -0.008607103, 0.14079118, -1009930.56, 17215.783, 0.0, 9.999118, 10.000498 
1.5050572e+3, 2.0519067e+2, -1097484.4, -1112154.3, -16548.947, -0.00035404568, 0.16381103, -1086717.8, -157570.44, 0.0, 9.99928, 9.999087 
1.505051e+3, 2.1518965e+2, -1005197.75, -1002344.0, -7572.649, -0.09660959, 0.12723945, -996065.0, -164906.86, 0.0, 9.999178, 9.999218 
1.5050454e+3, 2.2518922e+2, -832632.9, -885794.8, 21169.76, -0.13119395, 0.17568867, -825232.9, -92068.33, 0.0, 9.999767, 9.999059 
1.5050405e+3, 2.3518932e+2, -537036.75, -678568.8, 11923.707, -0.11547056, 0.25286052, -536039.2, 99127.77, 0.0, 10.001058, 9.999188 
1.5050362e+3, 2.4518877e+2, -472056.7, -664420.0, 47696.223, -0.12486198, 0.31506282, -460879.88, 76295.25, 0.0, 10.001128, 9.998572 
1.5050317e+3, 2.551876e+2, -508728.66, -616662.9, 8935.947, -0.16844605, 0.3121189, -507993.84, -68805.38, 0.00000020302433, 10.000143, 9.998699 
1.505028e+3, 2.6518565e+2, -419293.06, -590931.7, 23620.787, -0.1613879, 0.28508848, -416101.72, -74894.055, 0.0000077496, 10.000372, 9.998097 
1.5050247e+3, 2.7518302e+2, -108341.73, -375701.94, 57479.92, -0.1044364, 0.18333322, -96507.87, 146724.53, 0.0000484326, 10.001763, 9.998237 
1.50502e+3, 2.851817e+2, 59431.613, -241900.72, 37001.586, -0.14927831, 0.23369442, 63908.645, 209153.31, 0.00020691432, 10.002246, 9.998242 
1.5050137e+3, 2.9518163e+2, 124181.44, -147278.17, -16833.48, -0.2972639, 0.36804414, 125221.32, 172466.42, 0.0006962151, 10.00197, 9.998344 
1.5050091e+3, 3.051774e+2, 150768.52, -211541.56, 15628.236, -0.30515033, 0.15975115, 151441.39, 151441.39, 0.001668208, 10.002226, 9.997477 
1.5050077e+3, 3.1517357e+2, 336857.75, 38428.613, 51220.55, 0.02227766, -0.009113706, 345404.2, 345404.2, 0.0030196507, 10.002792, 9.998921 
1.5150964e+3, 1.2519334e+2, -1778519.9, -1690398.9, 15324.851, 0.30607808, 0.2344589, -1687809.8, 25312.945, 0.016257107, 9.999277, 10.000509 
1.5150873e+3, 1.3519298e+2, -1841047.8, -1719912.9, 102218.07, -0.16236219, 0.1676702, -1661665.5, -46537.23, 0.009740974, 9.998437, 10.000035 
1.5150829e+3, 1.4519346e+2, -1766998.0, -1617097.4, 34363.535, -0.185644, 0.21463723, -1609595.3, -92469.51, 0.0042781597, 9.99818, 10.000187 
1.5150793e+3, 1.5519431e+2, -1589919.9, -1440778.8, 12408.939, -0.09081931, 0.23597445, -1439753.4, -20633.916, 0.0011151112, 9.998574, 10.0005245 
1.515074e+3, 1.6519491e+2, -1452260.9, -1297459.8, -44236.78, -0.1166009, 0.23419036, -1285710.3, 35401.84, 0.000106548556, 9.998698, 10.000793 
1.5150672e+3, 1.7519489e+2, -1381350.9, -1196960.5, -7798.7817, -0.22391321, 0.12189125, -1196631.3, 26476.484, 0.0000007145684, 9.998461, 10.000917 
1.5150626e+3, 1.8519534e+2, -1338391.5, -1246507.0, 60433.613, -0.23699094, 0.13480543, -1216535.4, -91433.266, 0.0, 9.99861, 9.999831 
1.5150595e+3, 1.951963e+2, -1161428.8, -1091285.9, 46966.938, -0.18032533, 0.2190689, -1067740.9, -40646.03, 0.0, 9.999086, 9.999984 
1.5150554e+3, 2.051961e+2, -1072391.9, -1052686.1, -32178.355, -0.12178368, 0.2268776, -1028886.0, -99788.805, 0.0, 9.999242, 9.999517 
1.5150505e+3, 2.1519467e+2, -988290.44, -944955.8, -6095.24, -0.055920556, 0.107135944, -944114.8, -113005.17, 0.0, 9.999081, 9.99966 
1.5150453e+3, 2.251944e+2, -852296.44, -896934.8, 61245.945, -0.13093849, 0.14966924, -809429.6, -76316.836, 0.0, 9.999639, 9.999046 
1.5150395e+3, 2.3519512e+2, -556174.4, -692265.25, 67133.81, -0.33648065, 0.29105994, -528631.44, 106476.32, 0.0, 10.000949, 9.9991455 
1.515036e+3, 2.451937e+2, -539189.0, -784529.2, 1832.8538, -0.27490675, 0.31043896, -539175.3, -2051.086, 0.0, 10.001035, 9.9978 
1.5150341e+3, 2.5519037e+2, -571767.94, -728602.56, -19223.791, 0.03815525, 0.16656896, -569446.0, -130285.55, 0.00000026346208, 10.000056, 9.997977 
1.5150306e+3, 2.6518878e+2, -356535.28, -434201.53, 70124.21, 0.034585107, 0.15241754, -315209.72, 25964.656, 0.0000083363275, 10.000259, 9.999228 
1.515025e+3, 2.7518883e+2, -50881.31, -224237.94, 119349.266, -0.26227665, 0.20428988, 9944.2, 253111.77, 0.000050839903, 10.001636, 9.999333 
1.5150213e+3, 2.8518718e+2, -29072.682, -405236.47, 18644.404, -0.2478537, 0.2246124, -28150.84, 117033.414, 0.00021853887, 10.002143, 9.997175 
1.5150194e+3, 2.9518408e+2, 39202.605, -302117.22, -13979.122, 0.06636507, 0.15412329, 39774.176, 86996.5, 0.0007285583, 10.001869, 9.997331 
1.5150145e+3, 3.0518204e+2, 219378.72, -18580.182, 29568.982, 0.0014234962, 0.14875047, 222997.94, 222997.94, 0.0017078614, 10.00204, 9.998878 
1.5150085e+3, 3.1518355e+2, 410838.88, 275905.13, 96786.195, -0.21656223, 0.36949092, 461352.28, 461352.28, 0.0030333768, 10.002482, 10.000684 
1.5250961e+3, 1.2519893e+2, -1894431.1, -1737419.3, -44775.15, 0.40843344, 0.21437597, -1725548.3, -12477.855, 0.017244658, 9.998463, 10.000568 
1.5250865e+3, 1.3519914e+2, -1787182.8, -1685248.1, 36304.457, -0.11917582, 0.1882681, -1673640.0, -58570.883, 0.010359608, 9.998751, 10.000127 
1.5250802e+3, 1.4519979e+2, -1738860.6, -1635468.3, 69728.71, -0.28442404, 0.26534915, -1600362.5, -83297.8, 0.0045741852, 9.998529, 9.999888 
1.5250787e+3, 1.5520002e+2, -1617820.5, -1488757.6, 82440.164, 0.002645282, 0.24905325, -1448595.8, -29530.502, 0.0012060112, 9.998515, 10.000234 
1.5250741e+3, 1.6520017e+2, -1473636.0, -1314604.8, 32544.377, 0.027904753, 0.2247377, -1308202.5, 12859.952, 0.000118081814, 9.998616, 10.000705 
1.5250665e+3, 1.7520025e+2, -1289693.6, -1161728.1, -11193.074, -0.17929372, 0.13444355, -1160756.5, 62300.973, 0.0000008766353, 9.99915, 10.000824 
1.5250616e+3, 1.8520068e+2, -1215800.0, -1208040.5, 65129.36, -0.24576697, 0.16031477, -1146675.4, -21623.006, 0.0, 9.999542, 9.999646 
1.5250586e+3, 1.9520149e+2, -1045484.8, -1063841.6, 60093.867, -0.21241526, 0.2504586, -993872.5, 33174.625, 0.0, 9.999985, 9.99975 
1.5250549e+3, 2.0520116e+2, -916539.06, -985334.6, -23949.47, -0.15787031, 0.26230538, -909022.8, 20027.805, 0.0, 10.00034, 9.999445 
1.5250501e+3, 2.1519978e+2, -761200.1, -844047.1, -51166.566, -0.08984995, 0.15091968, -736791.06, 94270.96, 0.0, 10.0006695, 9.999583 
1.5250455e+3, 2.2519907e+2, -703416.94, -846007.2, 23198.527, -0.1288803, 0.16254465, -699737.6, 33330.71, 0.0, 10.000745, 9.998862 
1.5250409e+3, 2.3519894e+2, -623304.8, -743741.44, 1519.5215, -0.27288884, 0.23784697, -623285.6, 11784.342, 0.0, 10.000568, 9.998973 
1.5250376e+3, 2.4519746e+2, -534889.9, -774218.9, -41267.164, -0.1975342, 0.2539454, -527974.06, 9112.191, 0.0, 10.001037, 9.997865 
1.5250355e+3, 2.5519472e+2, -263012.0, -573817.44, -15206.742, 0.076054566, 0.16560313, -262269.75, 176846.33, 0.0000003530132, 10.002146, 9.998034 
1.5250319e+3, 2.6519322e+2, -63331.37, -330759.25, 74930.63, 0.057871647, 0.17218247, -43767.727, 297361.78, 0.00000861748, 10.002437, 9.998889 
1.525027e+3, 2.7519283e+2, -24034.766, -246578.23, -5132.9204, -0.2352603, 0.2147415, -23916.438, 219211.38, 0.000051572304, 10.001974, 9.999013 
1.5250237e+3, 2.8519106e+2, -86382.625, -421169.78, -120512.414, -0.19660044, 0.23065934, -47514.598, 97631.65, 0.00023012148, 10.0017, 9.997282 
1.525022e+3, 2.9518807e+2, 17495.316, -305178.28, -85171.19, 0.14923564, 0.16982143, 38596.707, 85779.68, 0.0007602401, 10.001673, 9.997417 
1.5250172e+3, 3.0518666e+2, 289140.88, 14322.069, 8663.009, 0.06734276, 0.21867988, 289413.7, 289413.7, 0.0017408301, 10.002508, 9.998886 
1.5250118e+3, 3.151877e+2, 630870.56, 374634.34, -62037.176, -0.19039671, 0.39350644, 645100.1, 645100.1, 0.003031587, 10.0039835, 10.000662 
1.5350924e+3, 1.2520294e+2, -1897668.8, -1752271.0, 38032.145, 0.14123324, 0.14329161, -1742923.8, -29886.646, 0.018294634, 9.998494, 10.00045 
1.5350863e+3, 1.3520542e+2, -1733016.9, -1560900.4, 42269.41, -0.021383742, 0.26195735, -1551079.9, 63931.21, 0.011016667, 9.998713, 10.000996 
1.5350801e+3, 1.4520642e+2, -1693353.8, -1567060.8, 53890.14, -0.17691557, 0.31067076, -1547191.5, -30191.072, 0.0048880493, 9.998626, 10.000322 
1.5350774e+3, 1.5520687e+2, -1596594.1, -1432115.1, 86619.8, 0.0016517764, 0.2781233, -1394912.9, 24083.314, 0.0013030368, 9.998476, 10.000639 
1.5350728e+3, 1.6520669e+2, -1533540.3, -1457278.6, 41094.707, 0.002446416, 0.24868177, -1439349.4, -118351.71, 0.00013086536, 9.998678, 9.999703 
1.5350659e+3, 1.7520596e+2, -1359109.4, -1303295.6, 15348.048, -0.17165557, 0.17913009, -1299353.5, -76349.88, 0.0000010420176, 9.999142, 9.999855 
1.5350614e+3, 1.852059e+2, -1201850.8, -1192808.9, 73262.87, -0.22974558, 0.19840625, -1123927.5, 1077.3143, 0.0, 9.999593, 9.99973 
1.5350592e+3, 1.9520633e+2, -1041068.94, -1050029.9, 82439.53, -0.17289595, 0.2398348, -962988.25, 64014.504, 0.0, 9.999963, 9.999857 
1.535055e+3, 2.0520599e+2, -966446.56, -1072727.3, -19128.316, -0.18540344, 0.27472082, -963108.7, -34102.305, 0.0, 10.000273, 9.998877 
1.5350492e+3, 2.1520497e+2, -816872.56, -935179.6, -32171.564, -0.26289964, 0.255821, -808690.0, 22325.059, 0.0, 10.000567, 9.999003 
1.5350457e+3, 2.2520325e+2, -746167.3, -908886.7, 9241.096, -0.19399947, 0.21528342, -745644.2, -12613.436, 0.0, 10.000626, 9.998492 
1.5350445e+3, 2.3520084e+2, -656067.9, -794528.1, 4122.0254, 0.014730296, 0.094514, -655945.25, -20891.846, 0.0, 10.000488, 9.998666 
1.5350412e+3, 2.452e+2, -495189.53, -657824.1, -6925.2183, 0.032626767, 0.14541487, -494895.2, 42166.38, 0.0, 10.000897, 9.998728 
1.5350358e+3, 2.5520065e+2, -225446.45, -465498.5, 34597.6, -0.11983019, 0.30957374, -220559.55, 218496.28, 0.0000004707298, 10.002026, 9.99883 
1.5350324e+3, 2.65199e+2, -203246.16, -601780.3, 48170.582, -0.16329801, 0.35362634, -197506.47, 143566.63, 0.000008627056, 10.002343, 9.997079 
1.5350305e+3, 2.7519506e+2, -158506.06, -505813.03, -14469.097, -0.10043975, 0.2237385, -157904.31, 85208.19, 0.00005249674, 10.001887, 9.997278 
1.5350267e+3, 2.8519326e+2, -20963.86, -259563.7, -129031.35, -0.08456338, 0.25835884, 35467.723, 180598.86, 0.00024287593, 10.001583, 9.998453 
1.535021e+3, 2.9519355e+2, 79803.21, -148892.03, -71391.734, -0.12264259, 0.40442526, 100259.734, 147388.47, 0.0007925894, 10.001557, 9.998546 
1.5350173e+3, 3.0519116e+2, 165879.17, -199880.55, 55980.543, -0.1825108, 0.37538767, 174255.33, 174255.33, 0.0017781113, 10.002341, 9.997488 
1.5350176e+3, 3.15186e+2, 467841.03, 119851.14, 26515.898, -0.04707714, 0.066390105, 469849.88, 469849.88, 0.003049598, 10.003659, 9.999043 
1.5450893e+3, 1.252087e+2, -1762639.3, -1671757.5, 159125.22, -0.04857938, 0.17982812, -1551712.1, 161270.72, 0.019406972, 9.999371, 10.000585 
1.5450855e+3, 1.352115e+2, -1668416.4, -1507172.1, 28917.994, 0.011207991, 0.3117163, -1502142.8, 112808.96, 0.0117135905, 9.99904, 10.001214 
1.5450804e+3, 1.452116e+2, -1657055.4, -1575586.5, 34383.344, -0.028776933, 0.26695943, -1563015.1, -46066.0, 0.0052204016, 9.998995, 10.000082 
1.5450765e+3, 1.5521179e+2, -1406171.4, -1377616.9, -964.2664, -0.0011444694, 0.23907775, -1377584.4, 41363.387, 0.0014059248, 9.999923, 10.000326 
1.5450718e+3, 1.652117e+2, -1325282.3, -1393453.6, -33502.434, -0.03024466, 0.25075027, -1311574.1, 9375.448, 0.00014487762, 10.000272, 9.999363 
1.5450661e+3, 1.752114e+2, -1216773.3, -1275926.6, -29151.857, -0.1198809, 0.25323552, -1204821.5, 18132.262, 0.000001197513, 10.000277, 9.999498 
1.5450619e+3, 1.8521124e+2, -1199762.0, -1192495.8, 42120.836, -0.14240885, 0.28281963, -1153851.6, -28895.63, 0.0, 9.999623, 9.999714 
1.5450591e+3, 1.9521129e+2, -1241862.5, -1143716.1, 31451.342, -0.113523446, 0.2866125, -1134502.4, -107546.42, 0.0, 9.998587, 9.999871 
1.5450552e+3, 2.0521072e+2, -1136983.9, -1162731.8, 13240.567, -0.1437283, 0.3005495, -1131390.3, -202428.98, 0.0, 9.999149, 9.9988 
1.5450504e+3, 2.1520959e+2, -734090.9, -905071.94, 19534.232, -0.227915, 0.28377262, -731887.5, 99083.516, 0.0, 10.00119, 9.998912 
1.5450475e+3, 2.2520766e+2, -576860.5, -839160.2, 46039.793, -0.13061093, 0.23352249, -569014.1, 163974.11, 0.0, 10.001853, 9.998375 
1.5450464e+3, 2.3520496e+2, -552471.25, -757304.8, 38669.715, 0.12252333, 0.098998696, -545414.06, 89598.28, 0.0, 10.001272, 9.99854 
1.5450428e+3, 2.4520394e+2, -431543.16, -644968.75, 57191.82, 0.10144213, 0.1451774, -417183.56, 119837.9, 0.000000000009610117, 10.0014, 9.998581 
1.5450373e+3, 2.552045e+2, -222680.27, -482205.66, 8766.797, -0.17385721, 0.31322563, -222384.47, 216631.92, 0.0000005675007, 10.00212, 9.998676 
1.5450345e+3, 2.6520252e+2, -229483.03, -645478.6, 12953.175, -0.19189522, 0.34790137, -229080.08, 111956.63, 0.000008574752, 10.00231, 9.99679 
1.5450336e+3, 2.7519804e+2, -152721.92, -540511.5, 43294.72, 0.016736884, 0.19418064, -147947.08, 95134.89, 0.000054083346, 10.002084, 9.99695 
1.5450296e+3, 2.8519565e+2, 84443.72, -236854.56, -31119.355, 0.006388041, 0.2039525, 87430.03, 232534.95, 0.00025576144, 10.002445, 9.99818 
1.5450224e+3, 2.9519537e+2, 319084.2, -68303.32, -103788.64, -0.23031138, 0.32467982, 345138.8, 392244.63, 0.0008265112, 10.003359, 9.998227 
1.5450191e+3, 3.0519286e+2, 274177.88, -184705.72, 21187.732, -0.28212556, 0.31280467, 275154.1, 275154.1, 0.0018294866, 10.003227, 9.997174 
1.5450214e+3, 3.1518734e+2, 179295.86, -110452.17, 38906.527, 0.060323622, 0.0071352045, 184429.17, 184429.17, 0.0031096644, 10.002019, 9.998267 
1.5550876e+3, 1.2521647e+2, -1723076.1, -1599218.1, 145932.22, -0.21313815, 0.35131338, -1502618.3, 210287.06, 0.020587768, 9.999412, 10.001071 
1.5550835e+3, 1.3521765e+2, -1700986.4, -1555376.1, 9612.556, -0.1053556, 0.36105374, -1554744.3, 60144.586, 0.012455585, 9.998976, 10.000906 
1.5550806e+3, 1.452154e+2, -1710004.8, -1700931.4, 54585.992, 0.072717495, 0.13712585, -1650693.9, -133783.64, 0.0055746003, 9.999044, 9.999204 
1.5550758e+3, 1.5521505e+2, -1474509.5, -1516269.4, 42715.742, -0.08211127, 0.1493801, -1447843.6, -28926.592, 0.001515748, 9.999918, 9.999372 
1.5550712e+3, 1.6521554e+2, -1295435.5, -1350861.3, -43098.89, -0.15059012, 0.2535812, -1271908.6, 49006.59, 0.00016035176, 10.000342, 9.999627 
1.5550669e+3, 1.752166e+2, -1197858.0, -1233523.1, -26969.832, -0.07557927, 0.36642542, -1183358.3, 39548.555, 0.0000013687348, 10.000265, 9.999795 
1.5550627e+3, 1.8521686e+2, -1202054.1, -1204521.5, -5703.6733, -0.052415382, 0.42572206, -1197452.3, -72548.086, 0.0, 9.999653, 9.999616 
1.5550579e+3, 1.952164e+2, -1254301.8, -1162777.8, 1398.5001, -0.099204086, 0.3906093, -1162756.4, -135850.05, 0.0, 9.998562, 9.99975 
1.555055e+3, 2.0521532e+2, -1115679.1, -1113893.1, 82162.84, -0.10171928, 0.34284818, -1032618.44, -103703.35, 0.0, 9.999118, 9.999157 
1.5550534e+3, 2.1521366e+2, -717987.7, -855881.9, 100430.24, -0.048743453, 0.23357943, -665115.56, 165814.4, 0.0, 10.001112, 9.999292 
1.5550506e+3, 2.2521229e+2, -589644.8, -840983.06, 15942.458, -0.019396914, 0.21872994, -588637.56, 144303.28, 0.0, 10.001743, 9.998417 
1.5550464e+3, 2.3521124e+2, -563792.06, -762607.2, 26046.467, -0.012854105, 0.2435946, -560436.4, 74511.56, 0.0, 10.00119, 9.998544 
1.5550429e+3, 2.4520923e+2, -528200.1, -820291.2, 78381.79, -0.06260682, 0.24919395, -508495.84, 28471.018, 0.0, 10.001288, 9.997433 
1.5550397e+3, 2.5520626e+2, -312579.66, -645888.44, 43314.23, -0.15314762, 0.18097818, -307042.84, 131954.22, 0.0000005355393, 10.002022, 9.9976015 
1.5550376e+3, 2.6520374e+2, -167144.66, -490909.6, 184.35056, -0.11344254, 0.1552573, -167144.56, 173875.75, 0.000008556659, 10.002199, 9.997904 
1.5550362e+3, 2.752016e+2, -94968.03, -396430.25, 47437.895, 0.05448052, 0.12164252, -87679.45, 155357.36, 0.00005618316, 10.001982, 9.997984 
1.5550323e+3, 2.851982e+2, -57772.79, -506111.13, -2301.8613, 0.006930927, 0.069949195, -57760.973, 87307.375, 0.0002701419, 10.00233, 9.996389 
1.5550257e+3, 2.9519364e+2, 185354.44, -317729.44, -57842.598, -0.2514079, -0.0660906, 191919.28, 239033.2, 0.0008663048, 10.00324, 9.996569 
1.555022e+3, 3.0519179e+2, 284753.5, -110736.63, -28725.316, -0.32642505, 0.03921436, 286829.0, 286829.0, 0.0019044692, 10.003029, 9.997768 
1.5550229e+3, 3.1519166e+2, 141775.3, -109420.06, 26181.006, -0.014479292, 0.20972084, 144475.02, 144475.02, 0.003225979, 10.0017185, 9.998399 
1.5650864e+3, 1.252195e+2, -2065436.4, -1729129.5, -47411.23, -0.12969784, 0.33717597, -1722573.5, -9696.556, 0.021849003, 9.996897, 10.001385 
1.5650822e+3, 1.3522069e+2, -1692750.5, -1559951.6, -153525.86, -0.11939418, 0.3541175, -1459081.6, 155779.69, 0.013250772, 9.999036, 10.000873 
1.5650809e+3, 1.4521886e+2, -1565299.0, -1595259.5, -60377.438, 0.16241877, 0.15488881, -1518071.1, -1192.7223, 0.0059556314, 9.9999075, 9.999504 
1.565075e+3, 1.552188e+2, -1500886.1, -1502130.1, -3213.714, -0.12541926, 0.16953446, -1498234.8, -79353.49, 0.0016345053, 9.999626, 9.999606 
1.5650705e+3, 1.6521935e+2, -1369507.1, -1381439.8, -31554.068, -0.21755922, 0.26744556, -1343360.3, -22482.232, 0.00017771397, 9.99982, 9.999673 
1.5650678e+3, 1.7522037e+2, -1122900.8, -1191232.9, -44879.57, -0.035261046, 0.37230152, -1100662.1, 122207.95, 0.0000016137079, 10.000752, 9.999852 
1.5650634e+3, 1.8522018e+2, -998789.3, -1125280.8, -58606.74, 0.005578496, 0.39378858, -975809.94, 149060.52, 0.0, 10.001125, 9.999452 
1.5650573e+3, 1.9521897e+2, -896527.7, -1012235.25, -68356.04, -0.13120563, 0.2985462, -864829.2, 162049.08, 0.0, 10.001099, 9.999568 
1.5650547e+3, 2.0521778e+2, -908343.94, -1036682.25, 44237.77, -0.10050574, 0.26060754, -894573.0, 34315.363, 0.0, 10.000643, 9.998946 
1.5650553e+3, 2.1521668e+2, -901434.56, -964455.44, 5822.5156, 0.09035776, 0.22669108, -900901.1, -70000.88, 0.0, 9.9999485, 9.999099 
1.5650524e+3, 2.2521552e+2, -777902.56, -922346.2, -90540.81, 0.070022985, 0.23921193, -734307.1, -1397.5166, 0.0, 10.00041, 9.998498 
1.5650465e+3, 2.3521437e+2, -453267.66, -701182.4, -90123.88, -0.15199193, 0.24320737, -423967.94, 210948.8, 0.0, 10.0019045, 9.99862 
1.5650435e+3, 2.4521202e+2, -364266.28, -768169.4, 4294.745, -0.18342948, 0.22401865, -364220.63, 172717.89, 0.0, 10.002528, 9.997193 
1.565043e+3, 2.5520858e+2, -270972.88, -648935.44, 19120.188, -0.04958902, 0.13136779, -270008.1, 168965.66, 0.00000039469393, 10.002408, 9.99739 
1.5650411e+3, 2.652061e+2, -139943.66, -451124.25, -32740.139, 0.024205081, 0.10886188, -136536.3, 204459.9, 0.000008163994, 10.0022745, 9.998142 
1.5650381e+3, 2.7520445e+2, -61811.23, -354625.84, -67401.234, 0.042471215, 0.102633305, -47041.535, 195965.45, 0.00005803459, 10.002099, 9.998215 
1.5650342e+3, 2.85201e+2, -50586.41, -502958.72, -24422.188, -0.018913168, 0.037397284, -49271.75, 95766.086, 0.00028587523, 10.002378, 9.996394 
1.5650298e+3, 2.9519597e+2, 171052.28, -324969.78, 26030.887, -0.16816467, -0.14288239, 172414.63, 219501.61, 0.0009117836, 10.0031395, 9.996573 
1.5650257e+3, 3.0519408e+2, 279696.78, -101848.13, 41858.406, -0.24738038, -0.047249403, 284234.97, 284234.97, 0.0020009489, 10.00293, 9.997879 
1.5650241e+3, 3.151954e+2, 132089.19, -142639.86, 32521.844, -0.06686291, 0.26465768, 135886.56, 135886.56, 0.0033957218, 10.00174, 9.998177 
1.5750849e+3, 1.252185e+2, -2044226.4, -1699598.5, -98703.484, -0.009934011, 0.19579831, -1673331.3, 39559.51, 0.023204513, 9.996945, 10.0015745 
1.5750815e+3, 1.3522112e+2, -1676982.9, -1517263.3, -65762.664, -0.11381308, 0.32549256, -1493671.1, 121192.586, 0.014108494, 9.999008, 10.001169 
1.5750812e+3, 1.4522237e+2, -1455834.3, -1393721.1, -78523.55, 0.16912362, 0.3504078, -1340335.8, 176513.78, 0.0063687824, 9.999999, 10.00086 
1.5750743e+3, 1.5522301e+2, -1406457.9, -1305329.1, -9899.916, -0.18509743, 0.30227423, -1304369.1, 114471.19, 0.00176415, 9.999621, 10.000964 
1.5750696e+3, 1.652232e+2, -1371729.0, -1395302.6, -7483.2266, -0.3056894, 0.3002723, -1369554.3, -48716.594, 0.00019721544, 9.999854, 9.999563 
1.5750685e+3, 1.7522283e+2, -1140907.8, -1217727.0, -3715.45, -0.06135951, 0.27996147, -1140728.4, 82113.54, 0.0000019795527, 10.000711, 9.999687 
1.5750645e+3, 1.8522142e+2, -1010107.1, -1157716.3, -66443.586, -0.03993115, 0.19923452, -984604.75, 140248.5, 0.0, 10.001158, 9.999216 
1.5750572e+3, 1.952191e+2, -918212.5, -1050503.1, -64592.22, -0.27047986, 0.01954917, -891905.94, 134964.61, 0.0, 10.00107, 9.99932 
1.5750544e+3, 2.0521826e+2, -969306.9, -1155623.1, 10982.813, -0.21243839, 0.06691502, -968661.75, -39782.2, 0.0, 10.000605, 9.998149 
1.5750557e+3, 2.1521871e+2, -970573.7, -1087357.4, -12160.513, 0.13030556, 0.2691331, -969320.9, -138439.6, 0.0, 9.999862, 9.998296 
1.575053e+3, 2.2521736e+2, -782159.94, -908502.9, -38744.688, 0.070993595, 0.29282668, -771224.8, -38330.39, 0.0, 10.000309, 9.998641 
1.5750465e+3, 2.3521435e+2, -462004.5, -689578.25, -28080.941, -0.3587541, 0.09897709, -458590.75, 176327.63, 0.0, 10.001779, 9.998761 
1.5750445e+3, 2.4521242e+2, -342590.13, -689997.2, -6997.0864, -0.34394804, 0.082737066, -342449.28, 194486.16, 0.0, 10.002381, 9.9978 
1.575047e+3, 2.5521144e+2, -244792.4, -574214.8, 21638.48, 0.08361592, 0.17297758, -243377.14, 195569.08, 0.00000029448665, 10.002316, 9.997946 
1.575045e+3, 2.652095e+2, -201655.36, -557184.94, -44090.484, 0.16101038, 0.21326397, -196269.14, 144695.88, 0.000007127328, 10.002177, 9.997461 
1.5750389e+3, 2.7520654e+2, -118872.72, -447464.13, -62947.992, -0.088249065, 0.13963109, -107226.586, 135765.98, 0.000058416226, 10.001992, 9.997627 
1.5750355e+3, 2.8520408e+2, 49743.863, -273681.06, -2318.3843, -0.15855473, 0.1135046, 49760.48, 194774.03, 0.00029913065, 10.002278, 9.99802 
1.5750341e+3, 2.952022e+2, 263187.2, -109200.79, 68210.05, -0.05488329, 0.09065613, 275287.94, 322314.4, 0.0009576331, 10.003027, 9.998115 
1.5750298e+3, 3.0519953e+2, 226575.95, -165043.45, -6847.041, -0.14429389, 0.049946453, 226695.63, 226695.63, 0.0021078228, 10.002748, 9.997519 
1.5750243e+3, 3.1519866e+2, 62739.223, -217990.77, 19318.15, -0.2546438, 0.16854979, 64062.348, 64062.348, 0.0035946025, 10.001467, 9.997774 
1.5850839e+3, 1.2522048e+2, -1643997.6, -1520094.3, -19195.967, 0.045905627, 0.20889992, -1517188.4, 195684.6, 0.024665277, 9.999771, 10.001461 
1.5850806e+3, 1.3522309e+2, -1653284.0, -1510504.1, 44205.59, -0.09829916, 0.33961728, -1497925.9, 116921.37, 0.0150364665, 9.999202, 10.001117 
1.58508e+3, 1.4522478e+2, -1578473.8, -1420750.1, -42648.227, 0.117852785, 0.398165, -1409956.8, 106871.41, 0.0068181083, 9.999026, 10.001137 
1.5850738e+3, 1.5522535e+2, -1458171.9, -1301677.3, -73283.3, -0.17176092, 0.31753266, -1272718.9, 146099.23, 0.0019058621, 9.999137, 10.001224 
1.5850693e+3, 1.6522542e+2, -1470180.5, -1411402.3, -64714.523, -0.2776538, 0.27713588, -1369716.1, -48901.387, 0.0002187055, 9.999046, 9.999837 
1.5850681e+3, 1.7522487e+2, -1378494.0, -1302036.9, -44899.574, -0.07303866, 0.20897807, -1281296.0, -58477.0, 0.000002466339, 9.998944, 9.99996 
1.5850648e+3, 1.8522362e+2, -1266995.3, -1301583.8, -64746.254, -0.029132063, 0.13976634, -1217273.3, -92443.984, 0.0, 9.999492, 9.999029 
1.5850589e+3, 1.9522181e+2, -960138.2, -1087523.9, -74171.21, -0.19698499, 0.029968169, -926065.25, 100778.95, 0.0, 10.00086, 9.999163 
1.5850557e+3, 2.0522101e+2, -841836.2, -1105046.5, 9098.126, -0.17924817, 0.09353893, -841522.1, 87331.5, 0.0, 10.001529, 9.998054 
1.5850556e+3, 2.1522102e+2, -720656.4, -981105.8, 24873.666, 0.033308245, 0.2641542, -718302.1, 112556.695, 0.0, 10.00162, 9.99819 
1.5850534e+3, 2.2521956e+2, -618985.3, -840162.75, 64120.535, 0.005961674, 0.2856239, -601740.9, 131133.06, 0.0, 10.001483, 9.998548 
1.585049e+3, 2.3521681e+2, -535668.3, -733502.4, 40871.387, -0.25404757, 0.12966351, -527557.06, 107340.14, 0.0, 10.001313, 9.998689 
1.5850472e+3, 2.4521504e+2, -496154.88, -725278.6, 28515.973, -0.25065103, 0.11772747, -492659.2, 44253.848, 0.0, 10.001173, 9.998133 
1.5850475e+3, 2.5521418e+2, -402456.6, -616508.25, 19840.313, -0.008909718, 0.18833089, -400633.13, 38288.742, 0.00000023115544, 10.001084, 9.998248 
1.5850458e+3, 2.6521245e+2, -269605.84, -577018.9, 9423.529, 0.04940253, 0.22971505, -269317.25, 71621.31, 0.0000061293663, 10.001661, 9.997566 
1.5850416e+3, 2.7520987e+2, 27535.678, -362051.97, 29331.79, -0.06806217, 0.185931, 29731.67, 272694.34, 0.000059467606, 10.002946, 9.997747 
1.5850383e+3, 2.8520805e+2, 94137.94, -220031.23, 31448.355, -0.09432181, 0.20571761, 97254.99, 242232.95, 0.00031124914, 10.002455, 9.998297 
1.5850359e+3, 2.9520702e+2, -123291.91, -260943.02, -24083.918, -0.04613816, 0.23968627, -119199.75, -72216.13, 0.001001838, 10.000233, 9.998405 
1.5850316e+3, 3.0520362e+2, -92923.336, -322341.3, -59596.086, -0.12045203, 0.10811473, -78365.76, -78365.76, 0.00221268, 10.000517, 9.9975395 
1.5850271e+3, 3.1520227e+2, 304132.53, -71922.055, -40093.723, -0.1795887, 0.18015188, 308359.66, 308359.66, 0.0037863106, 10.002988, 9.998057 
1.5950818e+3, 1.2522516e+2, -1669025.0, -1601516.6, -102599.83, -0.15532994, 0.32497108, -1527261.3, 185565.45, 0.026239868, 9.999876, 10.000852 
1.5950799e+3, 1.3522664e+2, -1686891.3, -1576762.5, 38004.03, -0.107334755, 0.3936073, -1564921.1, 49889.85, 0.016040104, 9.999192, 10.000657 
1.5950775e+3, 1.4522614e+2, -1621267.0, -1534868.3, -46599.38, -0.07127175, 0.29454437, -1514524.9, 2289.1646, 0.0073062, 9.99912, 10.000311 
1.5950732e+3, 1.5522604e+2, -1514946.9, -1421920.5, -62674.785, -0.15269051, 0.22997408, -1390384.9, 28427.357, 0.002060233, 9.999143, 10.000397 
1.5950692e+3, 1.6522628e+2, -1418814.3, -1314788.5, -77839.01, -0.2087787, 0.21654001, -1273183.8, 47623.125, 0.00024185247, 9.999087, 10.000481 
1.5950668e+3, 1.7522664e+2, -1336119.0, -1209765.5, -41930.06, -0.12132392, 0.17178372, -1197117.3, 25682.814, 0.0000030340082, 9.99893, 10.000598 
1.5950644e+3, 1.8522689e+2, -1267900.1, -1313182.1, -23059.564, -0.028259456, 0.22500691, -1258224.5, -133426.81, 0.0, 9.999528, 9.998932 
1.5950622e+3, 1.9522713e+2, -975808.4, -1107785.4, -16337.016, 0.027013896, 0.32922426, -973816.2, 52982.67, 0.0, 10.000813, 9.999044 
1.5950586e+3, 2.0522602e+2, -810859.44, -1029239.94, 5115.814, -0.066340305, 0.3423941, -810739.7, 118071.15, 0.0, 10.001475, 9.9986 
1.5950543e+3, 2.1522366e+2, -700754.7, -908887.3, 33172.25, -0.26260695, 0.21597333, -695595.56, 135237.4, 0.0, 10.001494, 9.998742 
1.595053e+3, 2.2522226e+2, -660699.2, -900587.2, 50426.195, -0.20089579, 0.23590222, -650530.3, 82316.49, 0.0, 10.001361, 9.998194 
1.595054e+3, 2.3522176e+2, -575743.5, -794344.5, 43397.383, 0.09269258, 0.337381, -567443.3, 67409.77, 0.0, 10.001212, 9.998322 
1.5950511e+3, 2.4521989e+2, -513019.75, -735023.44, 21371.674, 0.014467886, 0.33354712, -510981.1, 25890.346, 0.0, 10.001063, 9.9981165 
1.595045e+3, 2.5521672e+2, -417916.22, -621570.25, 25629.021, -0.39299157, 0.17443839, -414740.44, 24160.902, 0.00000009760233, 10.000974, 9.998262 
1.5950434e+3, 2.6521495e+2, -226982.4, -468165.38, 50821.215, -0.3734701, 0.16778271, -216710.98, 124205.516, 0.0000054247644, 10.001562, 9.998365 
1.5950458e+3, 2.752144e+2, 67445.97, -261233.92, 86974.81, 0.03470328, 0.24629837, 89042.13, 331959.9, 0.00006233866, 10.002854, 9.998489 
1.5950428e+3, 2.8521279e+2, -5041.2813, -392290.1, -58605.457, 0.0803384, 0.30792677, 3633.6213, 148566.69, 0.00032281963, 10.002315, 9.997182 
1.5950346e+3, 2.952101e+2, -215381.47, -426453.5, -91401.41, -0.21629156, 0.28140295, -181303.48, -134341.45, 0.0010343667, 10.000117, 9.99733 
1.5950309e+3, 3.05206e+2, -97732.55, -280607.72, 26143.627, -0.25835142, 0.123087816, -94068.5, -94068.5, 0.0022871916, 10.000321, 9.99791 
1.5950325e+3, 3.1520602e+2, 320244.38, 31730.918, 84336.43, 0.02226751, 0.28931683, 343088.3, 343088.3, 0.0039191097, 10.002709, 9.998899 
1.6050814e+3, 1.2522927e+2, -1623932.1, -1657923.9, -71599.52, -0.22738469, 0.36934045, -1567338.9, 145446.64, 0.027939666, 10.000544, 10.000127 
1.60508e+3, 1.3522886e+2, -1673636.6, -1699325.3, -28723.791, -0.048799828, 0.36708114, -1655016.1, -40225.52, 0.01712635, 9.999848, 9.999488 
1.605076e+3, 1.452278e+2, -1584991.3, -1507834.0, -66972.86, -0.13359755, 0.26993462, -1469123.1, 47676.914, 0.007836914, 9.999349, 10.000375 
1.6050734e+3, 1.5522845e+2, -1467965.8, -1389561.3, -35691.055, -0.0666182, 0.26804218, -1375747.9, 43042.836, 0.0022287087, 9.999423, 10.000481 
1.60507e+3, 1.6522865e+2, -1390603.6, -1326160.6, -34921.83, -0.06471685, 0.2574333, -1310866.3, 9919.465, 0.00026665046, 9.999401, 10.000247 
1.6050665e+3, 1.7522828e+2, -1249654.4, -1190809.5, -79104.54, -0.06498361, 0.16612086, -1135832.9, 86953.37, 0.0000036433328, 9.999627, 10.000391 
1.6050643e+3, 1.8522869e+2, -1240623.0, -1291501.6, -50426.84, -0.017431611, 0.241006, -1209582.0, -84798.74, 0.0, 9.99967, 9.999014 
1.6050625e+3, 1.9522977e+2, -1132787.5, -1175578.9, -44448.29, 0.04043243, 0.41980624, -1104853.5, -78076.01, 0.0, 9.999678, 9.999132 
1.6050595e+3, 2.0522876e+2, -1037349.2, -1113203.3, -29308.127, -0.04324554, 0.42720348, -1027344.75, -98556.54, 0.0, 9.999818, 9.998821 
1.6050552e+3, 2.1522592e+2, -871046.8, -962966.2, -43263.266, -0.25170714, 0.23068018, -853887.56, -23074.232, 0.0, 10.000213, 9.998983 
1.6050541e+3, 2.2522466e+2, -770632.6, -928810.3, -9603.171, -0.16631112, 0.24036391, -770051.75, -37226.266, 0.0, 10.000502, 9.998407 
1.6050556e+3, 2.352249e+2, -627069.1, -791099.4, 11663.588, 0.1753901, 0.39451724, -626243.94, 8581.438, 0.0, 10.000744, 9.998557 
1.6050528e+3, 2.4522342e+2, -453156.56, -685864.94, 46201.76, 0.06873287, 0.4095643, -444319.28, 92520.72, 0.0, 10.00139, 9.998303 
1.6050461e+3, 2.5522044e+2, -193288.53, -490158.06, 52338.016, -0.44039437, 0.2532325, -184331.6, 254536.13, 0.000000007673713, 10.002426, 9.998471 
1.6050443e+3, 2.6521856e+2, -123953.76, -364974.9, 59922.582, -0.44794974, 0.20479056, -109877.875, 231004.36, 0.0000049768487, 10.002046, 9.998841 
1.6050468e+3, 2.7521774e+2, -267372.63, -373999.28, 48000.74, 0.0011910411, 0.20804103, -248947.66, -6063.228, 0.00006447964, 10.000343, 9.998927 
1.6050443e+3, 2.8521606e+2, -220925.05, -540444.94, -41862.652, 0.08186775, 0.2625925, -215531.36, -70630.29, 0.00032949253, 10.001004, 9.9967985 
1.6050369e+3, 2.9521364e+2, 308006.8, -211915.53, -39964.164, -0.18436144, 0.30461982, 311060.75, 357991.16, 0.0010457553, 10.003877, 9.996991 
1.6050331e+3, 3.0520982e+2, 352868.28, -79758.83, 77399.984, -0.20877263, 0.1886753, 366298.75, 366298.75, 0.0023104926, 10.003493, 9.997757 
1.6050343e+3, 3.152096e+2, -51487.824, -117160.69, 53813.273, 0.07870823, 0.3479652, -21283.797, -21283.797, 0.0039605508, 10.000001, 9.999178 
1.6150823e+3, 1.2523332e+2, -1648880.9, -1744258.3, 4153.56, -0.23572792, 0.3794883, -1648700.4, 64043.86, 0.02978273, 10.000683, 9.999459 
1.6150807e+3, 1.352302e+2, -1805472.6, -1974152.6, -54283.47, 0.012067836, 0.29005307, -1789513.4, -174731.94, 0.018308382, 9.999849, 9.997606 
1.6150755e+3, 1.4523004e+2, -1515074.9, -1378637.8, -69560.76, -0.15965642, 0.33702898, -1349427.0, 167356.38, 0.008418617, 9.999407, 10.001244 
1.6150738e+3, 1.5523258e+2, -1403943.1, -1257791.0, -26632.291, 0.028373638, 0.43191737, -1253089.3, 165663.84, 0.0024150687, 9.999433, 10.00138 
1.615071e+3, 1.6523246e+2, -1448359.4, -1474914.1, -37485.473, 0.08451022, 0.40028352, -1421869.3, -101117.84, 0.0002938315, 9.999509, 9.999179 
1.6150673e+3, 1.7522985e+2, -1322253.8, -1346722.8, -64720.086, 0.034159433, 0.18952316, -1268622.0, -45844.766, 0.000004294035, 9.999639, 9.99932 
1.6150635e+3, 1.8522903e+2, -1218282.8, -1252761.0, -56644.95, -0.067062296, 0.18402912, -1176311.8, -51525.926, 0.0, 9.999706, 9.99926 
1.6150598e+3, 1.9522989e+2, -1118850.5, -1142446.0, -36349.45, -0.21103211, 0.3141924, -1092432.1, -65653.23, 0.0, 9.999662, 9.999366 
1.615058e+3, 2.0522943e+2, -1054043.0, -1134498.5, -25177.45, -0.18500048, 0.37143153, -1046813.7, -118029.516, 0.0, 9.999761, 9.998703 
1.615058e+3, 2.1522783e+2, -890346.0, -984683.6, -23119.697, 0.007897136, 0.31034026, -884984.7, -54184.863, 0.0, 10.0001335, 9.998872 
1.6150567e+3, 2.2522675e+2, -739502.1, -829354.94, -8696.464, 0.0433588, 0.30550462, -738668.2, -5858.2153, 0.0, 10.00036, 9.999156 
1.6150542e+3, 2.352262e+2, -593287.6, -690667.7, 29056.016, -0.065171726, 0.30405462, -585276.94, 49537.69, 0.0, 10.000622, 9.999302 
1.615052e+3, 2.4522571e+2, -444358.16, -639732.4, 77992.96, -0.1567621, 0.3617716, -417042.56, 119775.97, 0.0, 10.001266, 9.998683 
1.6150509e+3, 2.5522536e+2, -184052.66, -443370.7, 99151.82, -0.22546205, 0.42538714, -150486.23, 288334.75, 0.00000000987263, 10.002307, 9.998849 
1.6150485e+3, 2.652233e+2, -145862.28, -373177.03, -11255.89, -0.25360975, 0.33823115, -145306.28, 195530.48, 0.000004852571, 10.001888, 9.998859 
1.615045e+3, 2.7521956e+2, -285597.28, -377988.34, -1756.1099, -0.23881976, 0.052583136, -285563.9, -42698.355, 0.000064250504, 10.000213, 9.998957 
1.6150431e+3, 2.8521773e+2, -215720.95, -499698.1, 57855.723, -0.16494198, 0.07303766, -204386.22, -59502.973, 0.00032939267, 10.000872, 9.997143 
1.6150424e+3, 2.9521778e+2, 312204.47, -173149.33, 77365.04, -0.04313273, 0.31613767, 324238.06, 371127.25, 0.0010398368, 10.003742, 9.997325 
1.6150382e+3, 3.0521473e+2, 273641.56, -192085.98, -63644.68, -0.072250776, 0.3010644, 282182.4, 282182.4, 0.0022907362, 10.003298, 9.997064 
1.6150321e+3, 3.1521282e+2, -121601.29, -175634.55, -55089.137, -0.16231665, 0.36165938, -87260.67, -87260.67, 0.0039168783, 9.99968, 9.998906 
1.625083e+3, 1.252359e+2, -1726777.8, -1756371.9, -26255.404, -0.19626173, 0.41702387, -1711436.8, 1285.1519, 0.03179242, 10.0000305, 9.999684 
1.625081e+3, 1.3523239e+2, -1758796.8, -1903573.3, -49236.754, 0.05755171, 0.24108805, -1743638.9, -128878.24, 0.019603958, 9.9999485, 9.998046 
1.6250753e+3, 1.452333e+2, -1560916.6, -1445861.4, 12744.71, -0.090833545, 0.39646488, -1444466.5, 72285.766, 0.009062119, 9.999302, 10.000823 
1.6250734e+3, 1.5523525e+2, -1452029.8, -1318934.1, -48433.34, 0.047134757, 0.4689206, -1303175.3, 115555.07, 0.002624408, 9.999282, 10.001023 
1.6250707e+3, 1.6523498e+2, -1452271.1, -1504187.5, -46118.996, 0.09041502, 0.4531875, -1425306.9, -104574.89, 0.00032476612, 9.999611, 9.998923 
1.6250671e+3, 1.7523266e+2, -1251088.3, -1339280.4, -29193.896, 0.024291953, 0.29775694, -1242300.1, -19544.172, 0.000005034694, 10.000249, 9.999072 
1.6250634e+3, 1.8523157e+2, -1071467.3, -1168644.3, 10147.636, -0.08193682, 0.2710987, -1070418.9, 54347.62, 0.0, 10.000661, 9.999379 
1.62506e+3, 1.952317e+2, -913387.0, -1020770.25, 9010.695, -0.22120766, 0.31413057, -912636.1, 114127.77, 0.0, 10.000998, 9.999548 
1.6250587e+3, 2.0523128e+2, -865599.75, -1038094.8, 36900.977, -0.1635826, 0.36251527, -858037.25, 70730.4, 0.0, 10.00103, 9.998754 
1.6250592e+3, 2.1523035e+2, -785736.5, -929026.44, 38962.637, 0.07273853, 0.36486667, -775827.25, 54949.98, 0.0, 10.000827, 9.998926 
1.6250578e+3, 2.2522917e+2, -682754.7, -778333.9, 47573.21, 0.09543662, 0.33650377, -663112.44, 69675.445, 0.0, 10.000633, 9.999379 
1.6250543e+3, 2.3522778e+2, -603550.44, -673185.3, 29369.41, -0.09148179, 0.23246923, -592817.75, 41981.53, 0.0, 10.000442, 9.9995165 
1.625053e+3, 2.4522758e+2, -532132.3, -620729.6, 98536.26, -0.15768646, 0.2787277, -468395.0, 68404.22, 0.0, 10.000391, 9.99923 
1.6250533e+3, 2.5522843e+2, -407840.97, -496566.88, 111576.52, -0.1286911, 0.40844887, -332131.47, 106657.25, 0.000000011745934, 10.000513, 9.999351 
1.6250508e+3, 2.6522675e+2, -306434.9, -487776.8, -29224.072, -0.15906471, 0.35088226, -301841.66, 38960.273, 0.0000048598445, 10.000943, 9.9985285 
1.6250458e+3, 2.7522272e+2, -94994.16, -320257.34, -62692.055, -0.24457775, 0.06788558, -78722.03, 164114.77, 0.00006262461, 10.001658, 9.998658 
1.625044e+3, 2.852209e+2, -60362.184, -312760.44, 80052.516, -0.1715514, 0.053327892, -37113.574, 107739.66, 0.00032550952, 10.001459, 9.998146 
1.6250452e+3, 2.952212e+2, -94126.08, -261906.11, 114797.195, 0.033816725, 0.23029599, -35833.355, 11018.223, 0.0010260531, 10.000476, 9.998295 
1.6250409e+3, 3.0521914e+2, -22420.59, -345228.78, -10801.519, -0.027309915, 0.26590115, -22059.564, -22059.564, 0.0022458762, 10.001283, 9.997002 
1.6250326e+3, 3.152175e+2, 467022.38, 98347.33, 5729.4595, -0.27160206, 0.3699104, 467111.38, 467111.38, 0.0038119992, 10.003712, 9.998894 
1.6350836e+3, 1.2523718e+2, -1665980.5, -1631726.4, 29554.531, -0.18125182, 0.48502833, -1614694.9, 98021.88, 0.03398967, 10.000053, 10.000539 
1.6350807e+3, 1.3523534e+2, -1572349.5, -1523115.3, -65150.383, 0.025203751, 0.21577196, -1478086.3, 136642.98, 0.02102759, 9.999982, 10.000651 
1.6350758e+3, 1.4523757e+2, -1653086.4, -1666048.0, -10746.245, -0.0013427698, 0.45317948, -1647018.0, -130310.95, 0.009775217, 9.999416, 9.999256 
1.6350715e+3, 1.552366e+2, -1558729.5, -1541301.0, -41860.914, -0.08161512, 0.3919138, -1507256.9, -88536.125, 0.002860367, 9.999287, 9.999493 
1.6350684e+3, 1.6523631e+2, -1410333.3, -1429899.0, -28104.111, -0.11661819, 0.4205923, -1390358.0, -69631.94, 0.00036087315, 9.9996605, 9.999414 
1.6350658e+3, 1.7523669e+2, -1218837.5, -1274653.1, -2295.4968, -0.14419378, 0.49348375, -1218743.3, 3979.697, 0.000005927034, 10.00026, 9.999512 
1.635064e+3, 1.8523623e+2, -1056353.1, -1151386.1, 13291.733, -0.12755275, 0.5042728, -1054529.0, 70196.88, 0.0, 10.000715, 9.999475 
1.6350627e+3, 1.9523506e+2, -909682.5, -1007484.8, 26823.72, -0.054469917, 0.40573448, -902808.8, 123925.08, 0.0, 10.000972, 9.999655 
1.6350609e+3, 2.0523411e+2, -857856.4, -1005958.3, 21136.32, -0.05335731, 0.38399994, -854898.94, 73841.84, 0.0, 10.000962, 9.999006 
1.6350584e+3, 2.1523337e+2, -783027.1, -905219.56, 39506.086, -0.11323601, 0.38058493, -771367.06, 59379.86, 0.0, 10.000744, 9.999131 
1.6350567e+3, 2.2523183e+2, -731864.94, -844772.06, 34802.64, -0.088780135, 0.32816532, -721999.4, 10760.902, 0.0, 10.000482, 9.998996 
1.6350561e+3, 2.3522966e+2, -642953.1, -730149.56, 30378.055, 0.029150713, 0.17821679, -633413.5, 1366.0717, 0.0, 10.000334, 9.999177 
1.635055e+3, 2.4522896e+2, -510147.22, -537245.5, 95540.28, -0.015226947, 0.15883291, -427200.1, 109582.72, 0.0, 10.000234, 9.999878 
1.635053e+3, 2.5522965e+2, -379917.3, -411453.7, 124114.766, -0.21138637, 0.20909418, -270573.13, 168197.94, 0.000000006263202, 10.000406, 9.999982 
1.6350512e+3, 2.6522905e+2, -369010.03, -594507.75, -9055.998, -0.236903, 0.26301098, -368646.9, -27870.654, 0.000005059976, 10.000834, 9.997853 
1.6350491e+3, 2.7522716e+2, -154366.06, -419178.75, -23410.71, -0.10118154, 0.2570466, -152312.38, 90485.24, 0.00006071332, 10.001548, 9.998035 
1.635047e+3, 2.8522542e+2, 22557.375, -105675.74, 35151.3, -0.035454355, 0.2043269, 31560.902, 176372.78, 0.00031809925, 10.001318, 9.999634 
1.6350451e+3, 2.9522395e+2, -12970.03, -58564.695, 93254.484, -0.032313943, 0.052911207, 60233.246, 107051.695, 0.0010037773, 10.000338, 9.999756 
1.6350411e+3, 3.05223e+2, -15521.224, -279341.88, 69147.82, -0.16266279, 0.10370002, 1503.8555, 1503.8555, 0.00218191, 10.001071, 9.997548 
1.6350353e+3, 3.1522334e+2, 456065.2, 146374.63, 123379.61, -0.40998724, 0.34094334, 499208.78, 499208.78, 0.003670205, 10.003426, 9.999348 
1.6450843e+3, 1.2523888e+2, -1869641.1, -1714222.8, 147436.08, -0.02384842, 0.47914973, -1625270.3, 87431.42, 0.036383986, 9.998599, 10.000671 
1.6450796e+3, 1.3523877e+2, -1526779.4, -1375942.5, -86151.74, -0.07448317, 0.27451426, -1336861.8, 277833.28, 0.022584815, 9.999751, 10.0018 
1.6450761e+3, 1.4524071e+2, -1571277.5, -1686001.8, -36024.566, 0.0538303, 0.44988188, -1560903.5, -44227.656, 0.010560797, 10.000236, 9.998728 
1.6450715e+3, 1.5523893e+2, -1377263.6, -1520790.4, -4567.4336, -0.082763754, 0.3657247, -1377118.5, 41581.14, 0.0031241647, 10.000806, 9.998908 
1.6450687e+3, 1.652385e+2, -1226479.3, -1349926.1, 38002.313, -0.10987632, 0.41123047, -1215718.5, 104988.83, 0.0004029895, 10.000961, 9.999337 
1.645067e+3, 1.752393e+2, -1135072.9, -1243476.1, 9541.622, -0.080768414, 0.5339496, -1134239.5, 88460.7, 0.0000070009137, 10.0008745, 9.9994335 
1.6450654e+3, 1.8523885e+2, -1082323.6, -1177331.0, 1218.6965, -0.041549437, 0.55843556, -1082308.0, 42395.152, 0.0, 10.000609, 9.999337 
1.6450639e+3, 1.9523734e+2, -1009956.56, -1071286.3, -21816.6, 0.005938651, 0.44006464, -1002987.7, 23727.236, 0.0, 10.000351, 9.999513 
1.6450618e+3, 2.0523627e+2, -904707.75, -1000744.2, -14473.259, -0.027219055, 0.39888173, -902573.94, 26148.553, 0.0, 10.000509, 9.999264 
1.645059e+3, 2.1523565e+2, -713617.5, -838009.06, -8471.702, -0.13935213, 0.38193205, -713043.2, 117682.43, 0.0, 10.001083, 9.99942 
1.6450575e+3, 2.2523454e+2, -626644.06, -803826.1, 1798.0105, -0.09151537, 0.36098197, -626625.8, 106109.04, 0.0, 10.0012455, 9.998914 
1.6450575e+3, 2.3523293e+2, -544569.4, -691809.4, 4322.1733, 0.10396497, 0.2793558, -544442.56, 90307.53, 0.0, 10.001052, 9.999099 
1.645056e+3, 2.4523191e+2, -412646.13, -483168.0, 77646.88, 0.0431056, 0.22858539, -362628.88, 174127.63, 0.0, 10.00088, 9.999936 
1.645053e+3, 2.552314e+2, -329316.94, -385461.8, 45783.266, -0.2684462, 0.15815666, -303684.9, 135069.89, 0.000000005166704, 10.000747, 10.000003 
1.6450517e+3, 2.6523086e+2, -333976.3, -547612.7, -37229.87, -0.27042994, 0.20374946, -327674.25, 13084.695, 0.000005473011, 10.000948, 9.998114 
1.6450517e+3, 2.752302e+2, -134694.73, -380778.6, -10378.368, 0.0039686565, 0.29050684, -134257.81, 108511.19, 0.00005878461, 10.001567, 9.998282 
1.6450496e+3, 2.8522873e+2, 85068.1, -83029.72, -4968.3545, 0.06493341, 0.25749856, 85214.81, 229995.17, 0.0003059286, 10.001796, 9.999553 
1.6450457e+3, 2.9522678e+2, 160483.48, 18063.604, -82989.414, -0.066624716, 0.07360067, 198626.64, 245417.14, 0.0009705867, 10.001586, 9.999668 
1.645042e+3, 3.0522558e+2, 93189.27, -221722.63, -83537.84, -0.19029887, 0.098894276, 113977.39, 113977.39, 0.002106459, 10.00175, 9.997626 
1.645039e+3, 3.1522468e+2, 248312.9, 24245.412, -118736.51, -0.292123, 0.20025982, 299527.2, 299527.2, 0.0035252424, 10.002074, 9.999147 
1.6550848e+3, 1.2523995e+2, -1867286.9, -1739083.8, 80432.89, 0.12622963, 0.31309006, -1700333.6, 12353.303, 0.03897044, 9.998726, 10.000422 
1.655077e+3, 1.3524304e+2, -1541006.3, -1400608.6, -50553.895, -0.31941685, 0.4434847, -1384299.9, 230355.0, 0.024272982, 9.9997225, 10.001645 
1.6550761e+3, 1.4524281e+2, -1541296.4, -1625616.0, -30092.19, 0.009208678, 0.38185585, -1531658.6, -15000.728, 0.0114189135, 10.000242, 9.999139 
1.6550732e+3, 1.5524234e+2, -1361100.0, -1485192.0, 21252.95, -0.018539924, 0.4024256, -1357561.0, 61104.598, 0.0034161112, 10.000803, 9.999153 
1.6550712e+3, 1.6524166e+2, -1252181.9, -1428024.5, 25625.4, 0.017139953, 0.44324228, -1248523.6, 72150.77, 0.00045137366, 10.001054, 9.998761 
1.6550703e+3, 1.7524055e+2, -1171697.8, -1317760.5, 11222.282, 0.1462283, 0.42532426, -1170840.6, 51845.96, 0.000008273259, 10.000867, 9.998925 
1.6550678e+3, 1.8523945e+2, -1106890.0, -1240452.4, -14767.443, 0.10759124, 0.430987, -1105276.8, 19421.09, 0.0, 10.000652, 9.998889 
1.6550635e+3, 1.9523852e+2, -1044373.6, -1141454.5, -25179.52, -0.09504016, 0.4187027, -1038231.5, -11524.426, 0.0, 10.000339, 9.9990425 
1.6550611e+3, 2.0523779e+2, -890974.75, -960711.56, 1323.4325, -0.15717308, 0.42133358, -890949.6, 37762.316, 0.0, 10.000461, 9.999561 
1.6550608e+3, 2.1523724e+2, -703944.0, -799477.9, 18390.32, -0.071269274, 0.37805206, -700526.1, 130186.89, 0.0, 10.001, 9.999725 
1.6550598e+3, 2.2523716e+2, -626087.8, -777759.6, -14130.851, 0.003535755, 0.4322201, -624782.56, 107930.56, 0.0, 10.001135, 9.999148 
1.6550584e+3, 2.3523754e+2, -545438.0, -671453.25, 6290.6475, 0.06992627, 0.5260913, -545124.75, 89587.25, 0.0, 10.000953, 9.9992895 
1.655056e+3, 2.452363e+2, -474429.5, -578677.4, 68782.586, -0.064350784, 0.47657847, -440251.94, 96469.65, 0.0, 10.000741, 9.999346 
1.6550529e+3, 2.5523365e+2, -384464.3, -470460.3, 50348.12, -0.3639038, 0.24441911, -361252.3, 77488.32, 0.00000000856411, 10.000632, 9.999466 
1.6550522e+3, 2.6523212e+2, -278080.22, -409149.66, -21379.4, -0.32810968, 0.16923906, -274681.06, 66069.45, 0.0000057188686, 10.000843, 9.999122 
1.6550533e+3, 2.7523163e+2, -81341.71, -243424.06, 22299.25, 0.00708868, 0.17110184, -78329.75, 164422.45, 0.00005715205, 10.00145, 9.999286 
1.6550514e+3, 2.8523073e+2, -49249.23, -326910.63, -21041.568, 0.049707074, 0.2244768, -47663.727, 97095.32, 0.00029385844, 10.001638, 9.997955 
1.6550465e+3, 2.952295e+2, 34516.266, -219028.97, -73867.055, -0.15987383, 0.26921207, 54466.65, 101236.74, 0.00093917665, 10.0014715, 9.9980955 
1.6550438e+3, 3.052266e+2, 22376.652, -309076.22, -79090.25, -0.20854403, 0.22633183, 40281.69, 40281.69, 0.0020481069, 10.001517, 9.997131 
1.655044e+3, 3.1522146e+2, 128216.55, -147093.61, -77804.02, -0.04154066, -0.04545213, 148682.9, 148682.9, 0.003428113, 10.001745, 9.998124 
1.6650836e+3, 1.2524249e+2, -1959119.1, -1780211.4, 53284.816, 0.16689964, 0.25795877, -1765543.8, -52882.586, 0.041736465, 9.998047, 10.000486 
1.6650757e+3, 1.3524628e+2, -1722065.1, -1564900.4, -41632.04, -0.36657566, 0.5288578, -1554553.5, 60072.25, 0.026087236, 9.9988, 10.000941 
1.6650763e+3, 1.4524509e+2, -1603181.9, -1618283.5, -39160.68, 0.03694143, 0.39212307, -1570850.8, -54212.47, 0.012349877, 9.999664, 9.999461 
1.665074e+3, 1.5524502e+2, -1378790.9, -1449883.6, 5436.2344, -0.0007258419, 0.41448587, -1378377.6, 40261.453, 0.003737191, 10.000502, 9.999532 
1.665072e+3, 1.6524449e+2, -1316514.5, -1460088.1, 14603.643, 0.016886318, 0.4531478, -1315044.1, 5601.031, 0.00050616945, 10.000633, 9.998732 
1.6650708e+3, 1.752431e+2, -1250402.1, -1362122.3, 21669.277, 0.13852845, 0.40684196, -1246346.4, -23686.064, 0.000009797576, 10.000341, 9.998875 
1.6650683e+3, 1.8524182e+2, -1130576.4, -1277636.4, 59284.645, 0.10464091, 0.40876028, -1109653.6, 15020.186, 0.0, 10.000612, 9.998645 
1.6650644e+3, 1.9524089e+2, -868403.1, -1076591.8, 52519.953, -0.10920903, 0.41946954, -855904.25, 170779.61, 0.0, 10.001653, 9.998837 
1.6650623e+3, 2.0524e+2, -715339.5, -877599.56, 69883.47, -0.15722151, 0.41264406, -689391.1, 239299.28, 0.0, 10.001681, 9.999539 
1.665062e+3, 2.152391e+2, -727862.4, -813163.1, 51157.656, -0.03964334, 0.33820006, -703908.25, 126785.77, 0.0, 10.000849, 9.999703 
1.665061e+3, 2.2523916e+2, -706570.7, -828249.6, 15961.877, 0.034545638, 0.4134039, -704511.6, 28182.027, 0.0, 10.00064, 9.999032 
1.6650592e+3, 2.3524009e+2, -543532.2, -680377.3, -7874.269, 0.05766309, 0.5742598, -543080.6, 91608.95, 0.0, 10.001012, 9.999188 
1.665057e+3, 2.4523902e+2, -459875.6, -625449.4, 50060.305, -0.052300215, 0.56760764, -445916.9, 90782.84, 0.0, 10.00105, 9.998892 
1.6650544e+3, 2.5523606e+2, -385797.34, -518844.9, 30365.01, -0.28095257, 0.35518265, -379194.88, 59528.445, 0.0000000057748837, 10.000815, 9.999055 
1.6650535e+3, 2.6523435e+2, -265796.78, -335765.5, -20901.863, -0.25974134, 0.24930497, -260028.31, 80705.67, 0.0000055479773, 10.000644, 9.999719 
1.665054e+3, 2.7523375e+2, -169914.75, -233379.31, -30035.86, -0.031000158, 0.18506609, -157953.89, 84778.84, 0.000055344583, 10.00059, 9.99978 
1.6650523e+3, 2.8523257e+2, -168324.53, -470144.34, -32966.766, 0.016291587, 0.22958185, -164765.64, -20023.273, 0.0002837419, 10.001183, 9.9971895 
1.6650489e+3, 2.9523107e+2, 114470.53, -262232.63, -54953.887, -0.101312526, 0.3254938, 122323.555, 169083.9, 0.0009166585, 10.002384, 9.997354 
1.6650467e+3, 3.0522797e+2, 225397.94, -174646.98, 1294.9808, -0.1288895, 0.28132918, 225402.14, 225402.14, 0.0020189087, 10.002757, 9.997458 
1.6650465e+3, 3.1522334e+2, 182494.16, -121968.08, 17627.81, 0.032059398, 0.03479733, 183511.38, 183511.38, 0.003398234, 10.002139, 9.998107 
1.6750793e+3, 1.2524742e+2, -1911651.1, -1683095.0, -64219.484, -0.1006023, 0.39938596, -1666286.8, 46328.36, 0.044670317, 9.998047, 10.0011635 
1.6750757e+3, 1.3524863e+2, -1822880.4, -1768687.5, -3209.3184, -0.27178657, 0.5386076, -1768498.0, -153891.86, 0.028026333, 9.9987955, 9.999532 
1.6750765e+3, 1.4524768e+2, -1563666.1, -1555632.6, -9796.085, 0.053938374, 0.4806254, -1549061.8, -32446.063, 0.013357116, 9.99974, 9.999858 
1.6750738e+3, 1.5524706e+2, -1344906.8, -1382800.4, 44999.61, -0.09120605, 0.39959204, -1315027.9, 103591.65, 0.004090086, 10.000505, 9.999999 
1.675071e+3, 1.6524689e+2, -1277234.9, -1388118.4, -6356.8413, -0.18219645, 0.42717436, -1276871.6, 43749.082, 0.0005678562, 10.000674, 9.999207 
1.6750683e+3, 1.75247e+2, -1225852.6, -1302252.5, 15016.468, -0.15153429, 0.4907643, -1223007.1, -386.58044, 0.000011659807, 10.000313, 9.999298 
1.675067e+3, 1.8524611e+2, -1122209.9, -1273446.5, 89890.64, -0.120576315, 0.50965333, -1080361.4, 44268.176, 0.0, 10.000657, 9.998659 
1.6750662e+3, 1.952444e+2, -874453.7, -1081880.0, 94967.484, -0.10490544, 0.44332445, -837542.4, 189103.58, 0.0, 10.001617, 9.998823 
1.6750647e+3, 2.0524275e+2, -739984.94, -920354.4, 29485.383, -0.1019773, 0.37621185, -735287.25, 193371.8, 0.0, 10.001642, 9.999266 
1.6750623e+3, 2.1524112e+2, -762947.4, -867500.06, 26332.635, -0.10163597, 0.25860822, -756689.75, 73979.555, 0.0, 10.000764, 9.999373 
1.6750608e+3, 2.2524042e+2, -762566.7, -911915.1, 24046.578, -0.06795451, 0.30014277, -758790.44, -26113.076, 0.0, 10.0005, 9.998524 
1.6750598e+3, 2.3524058e+2, -595005.1, -762972.56, 11910.849, 0.0054069255, 0.43349236, -594164.75, 40518.35, 0.0, 10.000906, 9.998672 
1.6750586e+3, 2.4524e+2, -498756.1, -676846.3, 31895.97, -0.001951442, 0.51543665, -493215.88, 43475.742, 0.0, 10.00092, 9.9986 
1.6750573e+3, 2.5523874e+2, -422429.2, -566528.4, 29265.105, -0.08581711, 0.49915528, -416712.53, 21989.906, 0.0000000017385277, 10.000695, 9.998783 
1.6750555e+3, 2.6523754e+2, -278114.13, -331017.16, -29782.332, -0.14777124, 0.45129552, -264732.63, 75976.46, 0.0000048816705, 10.000506, 9.99982 
1.6750532e+3, 2.7523634e+2, -178137.0, -228232.34, -18137.451, -0.18320364, 0.31609523, -172259.72, 70452.69, 0.000051549086, 10.000492, 9.999863 
1.6750523e+3, 2.8523418e+2, -199932.27, -501124.3, 5334.9414, -0.123517334, 0.26743641, -199837.81, -55106.54, 0.00027036015, 10.001031, 9.997052 
1.6750528e+3, 2.9523143e+2, 96130.984, -274970.34, 5830.0713, 0.022389837, 0.24562716, 96222.555, 142984.73, 0.00089050346, 10.002261, 9.997332 
1.6750503e+3, 3.052295e+2, 258278.3, -40796.734, -29994.088, -0.059501007, 0.2649663, 261256.72, 261256.72, 0.001993897, 10.002493, 9.998497 
1.6750461e+3, 3.152299e+2, 214923.08, 3307.9255, 33399.008, -0.25966245, 0.41091374, 220069.27, 220069.27, 0.0033966575, 10.001911, 9.9990635 
1.6850777e+3, 1.2525114e+2, -1661110.6, -1555386.9, -89709.39, -0.1518691, 0.46053377, -1504123.1, 208454.22, 0.04776628, 9.999746, 10.001247 
1.6850767e+3, 1.3525008e+2, -1659561.0, -1721861.0, 63157.145, -0.1080435, 0.3974702, -1620289.8, -5702.1406, 0.030093629, 10.0000725, 9.999223 
1.685077e+3, 1.4524966e+2, -1459743.5, -1540655.5, 88308.81, 0.09099288, 0.42418402, -1403064.9, 113526.42, 0.0144471, 10.00061, 9.999544 
1.6850744e+3, 1.5524903e+2, -1288731.6, -1385269.6, 61817.98, -0.0895462, 0.36816716, -1258570.1, 160027.06, 0.004479329, 10.001024, 9.99973 
1.6850714e+3, 1.6524874e+2, -1245848.3, -1383798.3, -53652.42, -0.2131309, 0.40455708, -1227438.4, 93162.125, 0.0006375465, 10.000948, 9.999104 
1.6850682e+3, 1.7524888e+2, -1162265.8, -1272144.5, -78942.39, -0.229053, 0.4753905, -1121027.0, 101573.73, 0.00001399049, 10.000765, 9.999278 
1.685067e+3, 1.8524815e+2, -1143409.6, -1223416.5, 24399.607, -0.15636869, 0.4846034, -1136555.6, -11948.688, 0.0, 10.0002575, 9.99919 
1.6850676e+3, 1.9524667e+2, -1134388.0, -1154594.0, 57804.117, -0.03497555, 0.3881872, -1085810.6, -59191.73, 0.0, 9.999587, 9.999311 
1.6850662e+3, 2.0524514e+2, -994033.5, -1074852.9, 28153.18, -0.028397806, 0.326079, -985193.4, -56562.27, 0.0, 10.000036, 9.998983 
1.6850632e+3, 2.152437e+2, -670911.1, -849377.7, 10048.02, -0.12299547, 0.25585172, -670347.2, 160294.95, 0.0, 10.001518, 9.999133 
1.6850613e+3, 2.2524263e+2, -631023.7, -897797.3, 2576.0356, -0.117441796, 0.29316565, -630998.9, 101656.305, 0.0, 10.001604, 9.998098 
1.6850601e+3, 2.3524186e+2, -694158.9, -857462.9, -14437.475, -0.029164048, 0.37867546, -692892.3, -58222.27, 0.0, 10.0004225, 9.998265 
1.6850592e+3, 2.4524112e+2, -593772.1, -697944.6, 61390.355, 0.0078443885, 0.45403743, -565349.06, -28669.268, 0.0, 10.000169, 9.998809 
1.6850588e+3, 2.5524035e+2, -399641.1, -541540.1, 74867.79, -0.01466592, 0.4658774, -367445.0, 71240.07, 0.0000000018399801, 10.000773, 9.998923 
1.6850568e+3, 2.652392e+2, -281621.47, -408849.1, 3546.5955, -0.072526105, 0.4531499, -281522.7, 59170.605, 0.0000039092515, 10.000812, 9.999136 
1.6850539e+3, 2.752377e+2, -231588.11, -319262.44, -62963.125, -0.16659813, 0.3555837, -198704.67, 43999.695, 0.00004640097, 10.000431, 9.999253 
1.6850533e+3, 2.8523582e+2, -197287.94, -405491.56, 31497.025, -0.1161918, 0.31982803, -192627.39, -47906.258, 0.00025559173, 10.000638, 9.997904 
1.6850549e+3, 2.952339e+2, 23028.982, -215577.05, 79673.57, 0.057482153, 0.30088672, 47187.066, 93927.336, 0.0008589189, 10.001351, 9.998179 
1.6850527e+3, 3.052321e+2, 124821.01, -125228.5, 3839.8276, -0.027597342, 0.29590723, 124879.96, 124879.96, 0.0019565516, 10.001632, 9.998347 
1.6850477e+3, 3.152327e+2, 139002.05, -56551.793, -53580.03, -0.25078717, 0.49584654, 152720.17, 152720.17, 0.003380258, 10.001426, 9.998928 
1.6950779e+3, 1.2525323e+2, -1696049.1, -1650958.8, -53481.4, -0.15041453, 0.38220212, -1615464.8, 97087.4, 0.051028147, 9.999838, 10.000527 
1.6950786e+3, 1.3525054e+2, -1615697.9, -1618165.5, 83180.15, 0.060524564, 0.09228128, -1533742.4, 80828.86, 0.032295942, 10.000017, 9.999973 
1.6950776e+3, 1.45251e+2, -1522841.8, -1681604.0, 102750.836, 0.07322823, 0.21594045, -1472380.3, 44185.637, 0.015627254, 10.000644, 9.998563 
1.695076e+3, 1.5525113e+2, -1364363.5, -1543812.9, 81856.04, -0.06634129, 0.34666508, -1332634.8, 85934.98, 0.004910431, 10.001028, 9.998643 
1.695073e+3, 1.6525018e+2, -1274563.9, -1457505.9, -71113.83, -0.1619833, 0.3974343, -1250172.4, 70410.79, 0.0007170378, 10.001001, 9.998573 
1.6950697e+3, 1.7524876e+2, -1196488.4, -1345317.6, -80444.625, -0.15717052, 0.36653763, -1161318.0, 61282.047, 0.000016975888, 10.000769, 9.998777 
1.6950682e+3, 1.8524797e+2, -1064699.4, -1071715.0, -9547.943, -0.08436152, 0.3389998, -1058035.3, 66570.766, 0.0, 10.000302, 10.000211 
1.6950679e+3, 1.9524768e+2, -1071708.9, -1014047.44, 37310.605, 0.029589703, 0.25861287, -995726.4, 30876.49, 0.0, 9.999546, 10.000294 
1.6950665e+3, 2.0524725e+2, -1027900.94, -1124497.8, 74390.375, -0.008283206, 0.27508155, -987505.1, -58899.664, 0.0, 9.999946, 9.998687 
1.6950645e+3, 2.1524684e+2, -706812.7, -901805.8, 69816.95, -0.1682252, 0.33479005, -684392.7, 146219.72, 0.0, 10.00142, 9.998821 
1.6950622e+3, 2.2524573e+2, -667869.9, -946310.0, -50301.215, -0.19864108, 0.39685953, -659061.44, 73566.02, 0.0, 10.001485, 9.997822 
1.6950598e+3, 2.3524392e+2, -731673.2, -906426.1, -47028.344, -0.11577054, 0.4044964, -719821.06, -85170.48, 0.0, 10.0002985, 9.997989 
1.6950586e+3, 2.4524225e+2, -575860.0, -621112.75, 78149.51, -0.098401286, 0.3706518, -517127.28, 19538.191, 0.0, 9.999998, 9.99942 
1.6950585e+3, 2.5524083e+2, -376292.94, -465796.47, 105535.766, -0.12448426, 0.2545882, -306412.63, 132259.39, 0.0000000033657745, 10.000662, 9.9994955 
1.6950573e+3, 2.6523933e+2, -407759.63, -640661.75, -17533.225, -0.112846054, 0.25921637, -406447.1, -65760.38, 0.0000030031388, 10.000681, 9.997608 
1.6950554e+3, 2.752378e+2, -348994.94, -537344.3, -65249.71, -0.058255278, 0.3078653, -328599.13, -85890.05, 0.000041424442, 10.000323, 9.997807 
1.6950546e+3, 2.8523737e+2, -95272.055, -157928.38, 48183.875, -0.049429588, 0.39447555, -69127.27, 75585.85, 0.00024223694, 10.000484, 9.99968 
1.695055e+3, 2.9523817e+2, 122865.52, 23452.896, 116376.45, -0.07785223, 0.4672414, 199706.42, 246405.05, 0.0008256541, 10.001213, 9.999891 
1.6950533e+3, 3.0523524e+2, -17140.275, -352721.6, -13955.117, -0.13214993, 0.34266207, -16560.953, -16560.953, 0.0018998468, 10.001359, 9.996907 
1.6950509e+3, 3.1523237e+2, 27125.416, -201151.28, -20234.516, -0.1023657, 0.3322572, 28905.135, 28905.135, 0.0033156949, 10.001081, 9.998079 
1.7050782e+3, 1.2525377e+2, -1917761.9, -1780336.3, -148400.89, -0.036780197, 0.4096851, -1685512.3, 27035.809, 0.054460447, 9.998397, 10.000329 
1.7050785e+3, 1.3525139e+2, -1549796.1, -1536735.3, -89616.0, 0.049410477, 0.1101295, -1453412.1, 161150.08, 0.034638863, 10.000244, 10.000443 
1.7050776e+3, 1.4525172e+2, -1521918.0, -1667057.3, -73375.445, 0.020182459, 0.19175683, -1491287.3, 25269.166, 0.016903277, 10.000615, 9.998669 
1.7050768e+3, 1.5525155e+2, -1526955.8, -1611284.0, -31440.92, -0.013222698, 0.28256625, -1516523.9, -97961.625, 0.00538814, 9.999871, 9.998733 
1.7050742e+3, 1.6525063e+2, -1410359.9, -1480866.1, -73841.94, -0.09339722, 0.31256938, -1363787.4, -43212.895, 0.0008082668, 9.999868, 9.998971 
1.7050703e+3, 1.7524965e+2, -1183450.6, -1295633.3, -25369.557, -0.17018406, 0.28594962, -1177980.3, 44606.69, 0.000020835996, 10.000656, 9.999186 
1.7050685e+3, 1.8524916e+2, -999869.6, -1071111.0, 15598.377, -0.1115744, 0.28453287, -996604.06, 127987.016, 0.0, 10.00088, 9.999945 
1.705068e+3, 1.9524899e+2, -909597.94, -963774.7, -44675.07, 0.041963145, 0.24621372, -884440.3, 142148.47, 0.0, 10.000775, 10.000055 
1.7050669e+3, 2.0524888e+2, -988008.94, -1079768.1, 2922.828, 0.03128086, 0.29082912, -987915.94, -59325.777, 0.0, 10.000115, 9.9989 
1.705065e+3, 2.152489e+2, -1037409.4, -1042109.4, 20425.71, -0.12928845, 0.3751756, -1019198.94, -188605.48, 0.0, 9.999064, 9.998991 
1.705063e+3, 2.2524786e+2, -902163.06, -1036121.94, -38197.39, -0.17542136, 0.42737028, -892036.8, -159430.0, 0.0, 9.999776, 9.998028 
1.7050608e+3, 2.3524581e+2, -457105.03, -750103.9, -18591.21, -0.123503834, 0.38922393, -455930.1, 178699.66, 0.0, 10.002081, 9.9982 
1.7050596e+3, 2.452439e+2, -239430.17, -500396.44, 69236.59, -0.11410806, 0.3410183, -222198.88, 314447.72, 0.0, 10.002491, 9.999051 
1.7050591e+3, 2.552422e+2, -316576.3, -473476.75, 7175.0264, -0.15116124, 0.23480617, -316248.88, 122408.63, 0.0000000026261497, 10.001238, 9.999161 
1.7050584e+3, 2.6524076e+2, -323389.34, -595335.56, -49184.58, -0.115923084, 0.25993794, -314767.13, 25905.893, 0.0000021613648, 10.001243, 9.99765 
1.7050572e+3, 2.7523968e+2, -43723.832, -389328.28, -606.3432, -0.023738746, 0.3555029, -43722.77, 198969.31, 0.000036573332, 10.002417, 9.99782 
1.7050563e+3, 2.852394e+2, 128238.77, -54594.37, 81977.5, -0.016824706, 0.45872465, 159611.86, 304307.63, 0.00022753773, 10.002044, 9.999637 
1.7050555e+3, 2.952398e+2, -25121.967, -57462.992, -10515.574, -0.0951662, 0.50213975, -22003.55, 24682.158, 0.0007845109, 10.000231, 9.999813 
1.7050539e+3, 3.0523705e+2, -179982.42, -370076.1, -72118.03, -0.12828353, 0.37143365, -155719.11, -155719.11, 0.001811542, 9.999967, 9.997452 
1.7050529e+3, 3.1523505e+2, 87163.87, -92532.21, 27702.69, -0.006604571, 0.39100093, 91337.68, 91337.68, 0.0031792617, 10.001128, 9.998796 
1.7150784e+3, 1.2525234e+2, -1886471.0, -1713914.6, -49216.137, 0.10514374, 0.48621562, -1700864.4, 11704.845, 0.058051143, 9.998399, 10.000772 
1.7150763e+3, 1.3525315e+2, -1544463.3, -1517875.3, -19520.543, -0.21884811, 0.48990452, -1507551.8, 107003.13, 0.037118543, 10.000221, 10.000584 
1.7150769e+3, 1.45252e+2, -1428051.1, -1496271.5, -107426.7, -0.15046632, 0.35874322, -1349449.3, 167111.8, 0.018276531, 10.000705, 9.999814 
1.715077e+3, 1.5525007e+2, -1446443.9, -1445568.0, -51200.35, -0.0030333875, 0.16067627, -1394803.8, 23772.379, 0.005915651, 9.999867, 9.999876 
1.7150743e+3, 1.6525003e+2, -1312029.6, -1280416.4, -54720.223, -0.08125376, 0.15136042, -1239265.6, 81309.516, 0.0009130136, 9.999888, 10.000333 
1.7150694e+3, 1.7525163e+2, -1100244.9, -1113255.9, 7814.446, -0.32671088, 0.24613707, -1096582.5, 125977.79, 0.000025810483, 10.000622, 10.000449 
1.7150675e+3, 1.8525179e+2, -1105017.8, -1293458.5, 3780.797, -0.3112792, 0.32605863, -1104941.9, 19619.438, 0.0, 10.00089, 9.998416 
1.7150679e+3, 1.9525069e+2, -1014399.2, -1178821.6, -41970.875, -0.06186982, 0.34449393, -1004305.25, 22270.963, 0.0, 10.000762, 9.998586 
1.715067e+3, 2.0525002e+2, -946487.94, -989256.9, -43065.984, 0.008642758, 0.37503836, -919789.4, 8794.978, 0.0, 10.0000925, 9.999536 
1.7150648e+3, 2.1524984e+2, -1005997.75, -953512.3, -9814.7705, -0.07129445, 0.37143067, -951737.0, -121151.234, 0.0, 9.998963, 9.999648 
1.7150636e+3, 2.2524898e+2, -880342.6, -954953.8, 42275.336, -0.114375144, 0.3771555, -861266.4, -128672.62, 0.0, 9.9996195, 9.998663 
1.7150632e+3, 2.3524758e+2, -431613.22, -671783.6, 72542.37, -0.12039673, 0.34216058, -411402.84, 223204.31, 0.0, 10.00197, 9.998793 
1.715062e+3, 2.4524607e+2, -353833.8, -706457.4, 14958.21, -0.1372868, 0.3697273, -353200.44, 183422.98, 0.0, 10.002353, 9.997702 
1.7150603e+3, 2.5524434e+2, -423314.8, -670703.4, -28177.564, -0.16153641, 0.39602068, -420146.0, 18496.775, 0.0000000000058928205, 10.001128, 9.997861 
1.7150591e+3, 2.6524335e+2, -239850.9, -385153.34, -14314.39, -0.16092724, 0.451018, -238454.16, 102199.555, 0.0000014626683, 10.001092, 9.999165 
1.7150585e+3, 2.7524322e+2, 36866.633, -184617.67, 50089.945, -0.13343723, 0.49083486, 47668.0, 290323.16, 0.000032081512, 10.002263, 9.999296 
1.7150576e+3, 2.8524178e+2, -32936.805, -349516.28, 6404.809, -0.1074516, 0.5029618, -32807.28, 111863.52, 0.00021186807, 10.001865, 9.997701 
1.7150562e+3, 2.95239e+2, -169139.39, -328014.34, -58766.438, -0.085116, 0.4154541, -149764.89, -103064.484, 0.00073607016, 10.000105, 9.998014 
1.7150542e+3, 3.0523765e+2, -61935.566, -62451.992, -38903.59, -0.11672987, 0.39512634, -23289.332, -23289.332, 0.0016998283, 9.999718, 9.99968 
1.7150535e+3, 3.1523985e+2, 198664.95, 238342.3, 110014.414, -0.10433095, 0.609006, 330292.47, 330292.47, 0.0029923418, 10.000741, 10.001247 
1.725078e+3, 1.252503e+2, -1523520.8, -1544870.9, 48262.625, 0.0861315, 0.38443145, -1484766.8, 227820.95, 0.06177432, 10.000985, 10.000755 
1.7250757e+3, 1.3525277e+2, -1561133.0, -1529324.3, 62156.61, -0.28800133, 0.5550637, -1481069.5, 133491.64, 0.039721623, 10.000125, 10.000541 
1.7250773e+3, 1.4525244e+2, -1525118.6, -1439904.1, -58587.227, -0.11649789, 0.45869118, -1410069.4, 106490.1, 0.019743169, 9.999567, 10.000756 
1.7250763e+3, 1.5525045e+2, -1470886.9, -1349127.9, -30817.813, -0.023270708, 0.15360193, -1341772.1, 76799.64, 0.006494274, 9.999208, 10.00087 
1.7250736e+3, 1.6525073e+2, -1427889.4, -1338886.1, -35043.52, -0.10039791, 0.13021766, -1326744.6, -6177.93, 0.001032908, 9.999117, 10.000298 
1.7250699e+3, 1.7525278e+2, -1267169.8, -1196496.4, -92888.52, -0.29921502, 0.27338853, -1132450.1, 90098.99, 0.00003215152, 9.9994955, 10.000413 
1.7250681e+3, 1.8525298e+2, -1247718.5, -1359863.4, -81695.7, -0.27774316, 0.35883576, -1204703.5, -80153.07, 0.0, 9.999901, 9.998434 
1.7250684e+3, 1.9525172e+2, -1043845.1, -1188353.8, -28788.959, -0.08204646, 0.35826764, -1038321.0, -11754.123, 0.0, 10.000543, 9.99862 
1.7250672e+3, 2.0525087e+2, -827965.5, -941905.44, -17464.582, -0.015489086, 0.37178543, -825348.7, 103227.945, 0.0, 10.000949, 9.9994545 
1.725065e+3, 2.1525031e+2, -684593.5, -808417.44, -50410.74, -0.061909314, 0.34450978, -666666.06, 163914.81, 0.0, 10.001208, 9.999569 
1.7250642e+3, 2.2524941e+2, -646801.8, -839787.1, 21020.332, -0.08067369, 0.34814054, -644538.75, 88050.41, 0.0, 10.001231, 9.998665 
1.725065e+3, 2.352483e+2, -558402.4, -733605.9, -16601.574, -0.08874736, 0.34114632, -556843.1, 77756.77, 0.0, 10.001119, 9.99877 
1.7250639e+3, 2.4524677e+2, -540415.56, -805215.4, -96081.71, -0.10560752, 0.37559706, -509226.25, 27390.262, 0.0, 10.001112, 9.997618 
1.7250617e+3, 2.5524485e+2, -420013.7, -675648.9, -57631.82, -0.14200516, 0.3932739, -407621.56, 31016.918, 0.0000000000049057277, 10.001192, 9.9977865 
1.7250605e+3, 2.6524398e+2, -210609.25, -362062.2, 4420.3228, -0.14957313, 0.45872706, -210480.34, 130168.16, 0.0000011502509, 10.00125, 9.999244 
1.7250603e+3, 2.7524418e+2, -106118.78, -249036.72, -59271.504, -0.13259266, 0.51949793, -84736.516, 157910.14, 0.000029088935, 10.0012455, 9.999347 
1.725059e+3, 2.8524244e+2, -130171.32, -406864.66, -119850.91, -0.1176125, 0.50551385, -85476.9, 59188.113, 0.00020043374, 10.001248, 9.997596 
1.7250563e+3, 2.9523882e+2, 1774.949, -258758.3, -81279.15, -0.12863107, 0.3491806, 25052.107, 71754.75, 0.00069488265, 10.001349, 9.997881 
1.7250547e+3, 3.0523795e+2, 222331.2, 61388.492, -7853.5313, -0.13638589, 0.3874937, 222713.52, 222713.52, 0.0016016935, 10.001703, 9.9996 
1.7250542e+3, 3.152408e+2, 378455.13, 291099.47, -67631.12, -0.15014954, 0.6870119, 415286.44, 415286.44, 0.0028259312, 10.002079, 10.001007 
1.7350757e+3, 1.2524854e+2, -1539862.4, -1593343.3, -105898.47, -0.27123448, 0.19257697, -1457380.4, 255214.7, 0.06561491, 10.001048, 10.000375 
1.7350765e+3, 1.3525017e+2, -1590221.1, -1576345.1, 38640.914, -0.24257332, 0.29488775, -1544024.3, 70558.05, 0.042436883, 10.000065, 10.0002365 
1.7350785e+3, 1.4525287e+2, -1469261.3, -1327590.9, -78098.77, 0.032107275, 0.48291314, -1292988.6, 223565.14, 0.021297567, 9.999581, 10.001532 
1.7350744e+3, 1.552527e+2, -1410684.9, -1222323.5, -38566.605, -0.15056816, 0.2691379, -1214732.9, 203815.66, 0.0071235094, 9.999205, 10.001741 
1.7350717e+3, 1.6525282e+2, -1513594.8, -1538419.5, -29475.564, -0.23320955, 0.25693524, -1494024.8, -173476.56, 0.0011691477, 9.999194, 9.9988985 
1.735071e+3, 1.7525306e+2, -1358957.5, -1395920.1, -72284.42, -0.14961118, 0.36220723, -1302829.1, -80275.67, 0.00004011834, 9.999522, 9.999037 
1.7350702e+3, 1.8525274e+2, -1137254.9, -1139851.1, -68619.95, -0.09073655, 0.38541797, -1069920.8, 54637.47, 0.0, 9.99994, 9.999923 
1.7350692e+3, 1.9525206e+2, -954736.5, -985728.44, -1587.0448, -0.08141752, 0.29340923, -954655.5, 71905.7, 0.0, 10.00047, 10.000043 
1.7350674e+3, 2.052513e+2, -892247.7, -1061772.0, -17846.77, -0.113146655, 0.28912264, -890389.25, 38178.313, 0.0, 10.000883, 9.998666 
1.7350651e+3, 2.1525046e+2, -752544.4, -929732.94, -35078.445, -0.16974607, 0.306842, -745852.5, 84725.195, 0.0, 10.001121, 9.998777 
1.7350648e+3, 2.252492e+2, -715328.75, -953028.9, 8994.561, -0.16506875, 0.35237995, -714988.9, 17603.305, 0.0, 10.001103, 9.99795 
1.735066e+3, 2.3524775e+2, -619354.4, -836215.25, -12816.769, -0.09803439, 0.3773499, -618599.56, 16009.714, 0.0, 10.001011, 9.998117 
1.7350653e+3, 2.4524586e+2, -485072.16, -649165.0, -99854.49, -0.09943979, 0.35054964, -437880.28, 98746.945, 0.0, 10.000939, 9.998773 
1.7350627e+3, 2.5524372e+2, -359660.0, -519286.25, -43833.266, -0.16367353, 0.22659415, -348415.5, 90229.83, 0.000000000000012544113, 10.001064, 9.99892 
1.7350617e+3, 2.652426e+2, -329445.47, -572445.7, -112.84536, -0.16732126, 0.28117153, -329445.4, 11212.917, 0.0000010511417, 10.001093, 9.997875 
1.735062e+3, 2.7524254e+2, -217737.28, -448218.47, -46944.64, -0.10420121, 0.45030668, -208542.38, 34123.527, 0.000028849088, 10.001108, 9.998041 
1.7350602e+3, 2.852413e+2, -51201.883, -204894.19, -127631.94, -0.14700423, 0.47611278, 20932.643, 165611.05, 0.00019664556, 10.001081, 9.999065 
1.7350562e+3, 2.9523888e+2, 73108.836, -69310.07, -64060.633, -0.30254412, 0.28605705, 97683.26, 144379.88, 0.0006730319, 10.001174, 9.999266 
1.735055e+3, 3.052376e+2, 12318.735, -305796.97, -4145.601, -0.3034965, 0.33942813, 12372.75, 12372.75, 0.0015496872, 10.00142, 9.997204 
1.735055e+3, 3.152371e+2, 125751.45, -133142.83, -18518.3, -0.3252122, 0.53306925, 127069.33, 127069.33, 0.002746368, 10.00167, 9.998267 
1.7450757e+3, 1.2525046e+2, -1615369.1, -1669668.4, -59288.527, -0.34251785, 0.19887322, -1577309.6, 135261.1, 0.06957688, 10.000688, 9.999993 
1.7450774e+3, 1.3525021e+2, -1676011.4, -1618249.8, 131170.48, -0.12537248, 0.11599747, -1512818.3, 101757.92, 0.045260757, 9.999476, 10.000242 
1.7450783e+3, 1.4525315e+2, -1536774.6, -1422764.5, 46170.953, 0.04845416, 0.35828477, -1406412.0, 110135.21, 0.022935338, 9.999393, 10.000955 
1.745074e+3, 1.5525408e+2, -1275128.0, -1214200.8, -41596.62, -0.1708307, 0.3056189, -1193105.5, 225429.75, 0.0078018596, 10.000397, 10.00122 
1.7450717e+3, 1.6525416e+2, -1295626.5, -1457909.6, -29419.24, -0.23299791, 0.32613355, -1290457.9, 30078.967, 0.0013223152, 10.0007925, 9.998684 
1.7450716e+3, 1.752535e+2, -1168217.1, -1330244.3, 3369.1328, -0.10802341, 0.36369622, -1168147.1, 54403.86, 0.000049909977, 10.000937, 9.998815 
1.7450711e+3, 1.8525293e+2, -1018045.1, -1070730.9, 1923.8176, -0.021456605, 0.3700445, -1017975.0, 106582.56, 0.0000000000000006446772, 10.000715, 10.000022 
1.7450702e+3, 1.9525251e+2, -990027.5, -994392.2, -48445.98, -0.0005076675, 0.29342377, -943714.75, 82842.3, 0.0, 10.000186, 10.000121 
1.7450684e+3, 2.0525175e+2, -1036116.8, -1163027.5, -68903.43, -0.0497, 0.30050182, -1005901.1, -77337.44, 0.0, 10.000038, 9.99837 
1.745066e+3, 2.1525076e+2, -875876.0, -1018288.25, -68798.63, -0.1647877, 0.3333629, -848069.1, -17492.826, 0.0, 10.0004015, 9.998512 
1.7450656e+3, 2.252494e+2, -783370.75, -963626.9, 28966.28, -0.16517656, 0.3675692, -778830.4, -46238.41, 0.0, 10.000533, 9.998159 
1.7450671e+3, 2.3524775e+2, -686799.94, -845809.1, 60226.234, -0.06630289, 0.35782155, -666564.0, -31954.55, 0.0, 10.000447, 9.998328 
1.7450666e+3, 2.4524628e+2, -504114.47, -614442.6, 395.39996, -0.03963647, 0.34164387, -504113.06, 32509.605, 0.0, 10.000622, 9.999158 
1.7450644e+3, 2.55245e+2, -336211.06, -470045.28, -23335.81, -0.092492335, 0.26745284, -332258.88, 106372.94, 0.0, 10.001055, 9.999266 
1.7450632e+3, 2.6524356e+2, -342545.22, -620125.8, 33375.37, -0.12445513, 0.28812233, -338588.7, 2059.5254, 0.0000010008785, 10.001175, 9.997514 
1.7450626e+3, 2.7524197e+2, -238358.33, -498567.38, 42583.477, -0.14684507, 0.34857562, -231566.77, 11103.73, 0.00002996529, 10.001136, 9.997685 
1.7450608e+3, 2.8524095e+2, 16215.285, -138057.11, -17441.43, -0.1965201, 0.39613193, 18162.564, 162843.28, 0.00019663884, 10.0014105, 9.99936 
1.7450577e+3, 2.9524016e+2, 184034.17, 3514.5376, -71429.875, -0.27939057, 0.34657633, 208878.92, 255560.73, 0.00067006296, 10.001845, 9.99945 
1.7450573e+3, 3.0523852e+2, 36830.613, -315303.16, 36640.6, -0.21237177, 0.36787412, 40602.773, 40602.773, 0.0015536589, 10.001655, 9.997029 
1.7450565e+3, 3.1523615e+2, 21153.85, -223137.7, 115202.7, -0.29474622, 0.38218403, 66910.586, 66910.586, 0.0027788058, 10.001103, 9.997908 
1.7550771e+3, 1.2525523e+2, -1664713.4, -1754506.8, -130646.64, -0.33208665, 0.3151164, -1571464.3, 141058.38, 0.07366958, 10.000624, 9.99944 
1.7550783e+3, 1.3525306e+2, -1663728.1, -1586704.8, 92767.57, -0.003853298, 0.023701731, -1524772.6, 89768.95, 0.048192136, 9.999454, 10.000467 
1.7550758e+3, 1.4525372e+2, -1661201.3, -1691266.3, 74670.625, -0.15364812, 0.12256496, -1600065.0, -83529.06, 0.024652572, 9.99944, 9.999078 
1.7550747e+3, 1.5525465e+2, -1409529.5, -1492326.8, 856.37616, -0.15099828, 0.26993075, -1409520.6, 9010.2, 0.008527423, 10.000387, 9.999307 
1.755073e+3, 1.6525468e+2, -1232939.4, -1329440.1, -36790.93, -0.17908083, 0.332643, -1220513.0, 100020.68, 0.0014925194, 10.000799, 9.999564 
1.7550714e+3, 1.7525403e+2, -1111828.0, -1204413.8, 14002.558, -0.23638561, 0.28051066, -1109756.6, 112785.43, 0.00006156021, 10.000904, 9.999692 
1.755071e+3, 1.8525356e+2, -1102415.1, -1248616.4, -23949.447, -0.1434275, 0.31542134, -1098592.0, 25956.3, 0.0000000010737394, 10.000724, 9.998796 
1.7550714e+3, 1.9525318e+2, -1079426.3, -1174139.4, -60641.4, 0.08919141, 0.36443657, -1049841.1, -23287.81, 0.0, 10.000161, 9.9988985 
1.7550701e+3, 2.0525227e+2, -1032730.9, -1147624.6, -64539.285, 0.089119025, 0.41142815, -1003774.8, -75210.836, 0.0, 9.999997, 9.998498 
1.755067e+3, 2.1525113e+2, -875752.9, -999054.4, -49955.336, -0.11001998, 0.41257405, -858054.06, -27476.24, 0.0, 10.000315, 9.998689 
1.7550664e+3, 2.2524978e+2, -724089.1, -813469.44, 18879.006, -0.15350865, 0.3862641, -720265.1, 12324.917, 0.0, 10.000416, 9.999248 
1.7550676e+3, 2.3524831e+2, -629320.44, -701932.44, 66991.11, -0.062371545, 0.28442156, -589429.75, 45170.676, 0.0, 10.00034, 9.999369 
1.7550676e+3, 2.4524793e+2, -559241.44, -694262.75, 10207.818, -0.021869935, 0.3490505, -558474.06, -21870.566, 0.0, 10.00047, 9.998685 
1.7550665e+3, 2.552486e+2, -383108.2, -541282.94, -743.1543, -0.0030923137, 0.51518446, -383104.7, 55494.492, 0.0, 10.000945, 9.998829 
1.7550649e+3, 2.6524663e+2, -321845.28, -552414.06, 22169.703, -0.10265062, 0.48172152, -319732.97, 20886.857, 0.00000094846536, 10.001064, 9.998034 
1.755062e+3, 2.7524245e+2, -220704.5, -425884.78, 51769.77, -0.33341745, 0.22282909, -208382.3, 34278.914, 0.000030532858, 10.000991, 9.998248 
1.7550609e+3, 2.8524125e+2, -71461.71, -286711.22, -7920.395, -0.3583874, 0.2706324, -71170.664, 73502.23, 0.00019885889, 10.001258, 9.998417 
1.755061e+3, 2.9524255e+2, 90743.664, -150976.55, -41373.96, -0.16291401, 0.521144, 97629.28, 144288.98, 0.0006867094, 10.001674, 9.998471 
1.7550613e+3, 3.0524078e+2, 116693.016, -82133.63, 835.62067, 0.0012889786, 0.49541506, 116696.53, 116696.53, 0.0016096956, 10.001379, 9.998757 
1.7550588e+3, 3.152385e+2, 59344.457, -43107.418, 94869.625, -0.21557935, 0.32457867, 115934.766, 115934.766, 0.002898753, 10.0007, 9.999327 
1.7650786e+3, 1.2525801e+2, -1751639.1, -1853553.4, -120826.62, -0.19359848, 0.36311594, -1671463.9, 41036.688, 0.07790593, 10.000218, 9.9989395 
1.7650793e+3, 1.3525584e+2, -1448848.3, -1570095.6, -86648.625, 0.074483015, 0.15769936, -1403721.3, 210798.44, 0.05123237, 10.001349, 9.999672 
1.7650744e+3, 1.452553e+2, -1490813.9, -1625810.9, -59792.297, -0.2936527, 0.18066776, -1468139.4, 48385.863, 0.026445003, 10.000698, 9.9989195 
1.7650753e+3, 1.552555e+2, -1497001.4, -1553539.0, -14760.962, -0.098773666, 0.27248618, -1493379.6, -74853.875, 0.009296644, 9.999884, 9.9991255 
1.7650746e+3, 1.6525528e+2, -1375408.9, -1405537.0, 1805.9232, -0.06913983, 0.3239942, -1375301.0, -54771.418, 0.0016790463, 9.999865, 9.999485 
1.765072e+3, 1.7525469e+2, -1192664.1, -1250990.9, -40094.258, -0.23396552, 0.2856832, -1172248.8, 50287.668, 0.000074904594, 10.000386, 9.999616 
1.7650715e+3, 1.8525414e+2, -1130893.6, -1297386.5, -79508.35, -0.157385, 0.33192587, -1099024.8, 25518.977, 0.000000009428086, 10.000676, 9.99849 
1.7650725e+3, 1.9525361e+2, -968745.25, -1152710.3, -62938.703, 0.14053583, 0.4000508, -949273.44, 77277.95, 0.0, 10.001055, 9.998623 
1.7650716e+3, 2.0525268e+2, -845101.06, -1047182.94, -9844.77, 0.1791712, 0.450227, -844622.56, 83940.48, 0.0, 10.001248, 9.998582 
1.7650688e+3, 2.1525145e+2, -728270.44, -918107.4, -13966.945, -0.020934004, 0.43931958, -727248.3, 103328.56, 0.0, 10.001294, 9.998769 
1.7650676e+3, 2.2525015e+2, -605515.0, -733147.94, 16414.914, -0.10767286, 0.40275407, -603437.7, 129150.19, 0.0, 10.001133, 9.999449 
1.7650677e+3, 2.352488e+2, -537481.44, -633993.4, -18119.809, -0.104560554, 0.29282513, -534191.6, 100404.35, 0.0, 10.00087, 9.999576 
1.7650676e+3, 2.4524844e+2, -528558.94, -687649.06, -62335.063, -0.08029527, 0.35211155, -507044.25, 29554.746, 0.0, 10.000719, 9.998614 
1.7650671e+3, 2.5524905e+2, -423441.94, -566976.94, -57446.426, -0.030911384, 0.5190119, -403281.94, 35314.7, 0.0, 10.000702, 9.998769 
1.7650661e+3, 2.6524743e+2, -274183.16, -473537.94, -724.26385, -0.084716916, 0.5025596, -274180.53, 66432.04, 0.0000007067664, 10.001166, 9.998518 
1.7650642e+3, 2.7524397e+2, -35603.91, -290505.22, 2970.978, -0.26330325, 0.26893276, -35569.285, 207075.13, 0.00002910251, 10.002057, 9.998671 
1.765063e+3, 2.852426e+2, -13179.019, -303288.2, -54022.71, -0.2854772, 0.29968134, -3445.73, 141212.4, 0.00020251243, 10.001851, 9.998014 
1.7650625e+3, 2.9524308e+2, -56811.836, -270952.47, -78959.27, -0.12933017, 0.5149313, -30845.994, 15809.583, 0.0007167565, 10.00087, 9.998031 
1.7650628e+3, 3.0524075e+2, 45313.656, -93424.266, -37260.973, 0.06940803, 0.44382483, 54687.523, 54687.523, 0.0016880381, 10.000785, 9.99897 
1.7650609e+3, 3.1523895e+2, 155210.64, 33852.723, -132393.02, -0.07816227, 0.3110474, 240167.7, 240167.7, 0.0030287413, 10.0012045, 9.999634 
1.7750812e+3, 1.2525938e+2, -1753657.9, -1875985.3, 83102.01, -0.012285643, 0.39219594, -1711637.5, 860.98505, 0.08231803, 10.000286, 9.998743 
1.7750804e+3, 1.352587e+2, -1563656.1, -1816159.4, -69218.49, 0.03384283, 0.5153826, -1545926.3, 68582.97, 0.054393712, 10.001335, 9.997979 
1.7750737e+3, 1.4525762e+2, -1388502.6, -1411858.5, -110427.53, -0.45462582, 0.49346277, -1289137.3, 227380.25, 0.02831169, 10.000695, 10.000411 
1.7750755e+3, 1.552566e+2, -1395827.8, -1340054.3, -33533.605, -0.0926168, 0.3073601, -1324327.1, 94192.61, 0.010105246, 9.99987, 10.000601 
1.7750755e+3, 1.6525604e+2, -1444977.1, -1558787.3, 15974.751, 0.014708235, 0.3077359, -1442777.4, -122253.56, 0.0018804772, 9.999902, 9.998415 
1.7750733e+3, 1.7525552e+2, -1269835.8, -1405867.6, -16427.658, -0.16312285, 0.3849038, -1267880.0, -45346.453, 0.00008970714, 10.000369, 9.998559 
1.7750725e+3, 1.852547e+2, -1085849.8, -1211911.1, -74567.95, -0.140642, 0.42677778, -1051242.1, 73301.43, 0.000000028818846, 10.000705, 9.999064 
1.7750733e+3, 1.9525382e+2, -931742.4, -1070401.6, -42072.324, 0.08765607, 0.39969292, -919975.3, 106576.49, 0.0, 10.001027, 9.999204 
1.7750727e+3, 2.0525284e+2, -850180.06, -1045460.3, -15162.311, 0.13847217, 0.41636565, -849009.8, 79552.016, 0.0, 10.001202, 9.998611 
1.7750707e+3, 2.1525173e+2, -751289.2, -932143.9, -6762.375, 0.03568307, 0.4133723, -751036.7, 79537.16, 0.0, 10.001159, 9.99873 
1.775069e+3, 2.2525048e+2, -676374.75, -850585.6, 62.366547, -0.09995691, 0.423248, -676374.75, 56210.906, 0.0, 10.000995, 9.998714 
1.7750673e+3, 2.3524924e+2, -595075.4, -736382.8, -18672.691, -0.25378573, 0.38912067, -592649.56, 41946.727, 0.0, 10.000788, 9.998917 
1.7750663e+3, 2.4524777e+2, -526034.9, -652639.56, -70923.555, -0.29294005, 0.3559706, -494272.3, 42337.3, 0.0, 10.000592, 9.998915 
1.775066e+3, 2.552463e+2, -422112.1, -532915.44, -49117.348, -0.2304552, 0.28735843, -403474.2, 35149.496, 0.0, 10.000574, 9.999062 
1.7750667e+3, 2.652459e+2, -270548.78, -431422.7, 26991.992, -0.14007057, 0.35384914, -266140.75, 74486.24, 0.00000032366296, 10.001015, 9.998883 
1.7750688e+3, 2.7524647e+2, -39250.684, -250934.36, 45008.26, -0.02547761, 0.48765254, -30078.441, 212542.11, 0.00002512301, 10.001871, 9.999024 
1.7750672e+3, 2.8524497e+2, -45545.734, -335258.78, -102062.6, -0.082733825, 0.5009175, -13201.278, 131434.53, 0.00020058491, 10.001683, 9.997886 
1.7750621e+3, 2.9524177e+2, -83777.51, -292591.47, -102197.56, -0.26941484, 0.3463972, -42084.656, 4584.874, 0.0007353983, 10.000717, 9.997958 
1.7750621e+3, 3.0523828e+2, -79349.05, -291994.9, -26478.707, -0.12095482, 0.22531672, -76101.51, -76101.51, 0.001730267, 10.000538, 9.99772 
1.775063e+3, 3.152392e+2, 39522.906, -82068.28, -114985.3, -0.028263642, 0.49122927, 108795.46, 108795.46, 0.0030651416, 10.000728, 9.999039 
1.7850836e+3, 1.2526125e+2, -1497535.3, -1659379.6, 158650.86, 0.11923532, 0.51327765, -1400360.5, 312126.97, 0.08696164, 10.00185, 9.999506 
1.7850809e+3, 1.3526037e+2, -1823325.4, -1925475.9, -12643.97, 0.04173138, 0.6054898, -1821783.5, -207285.73, 0.057701517, 9.999466, 9.998123 
1.7850746e+3, 1.4525914e+2, -1647862.1, -1553528.6, 28402.67, -0.3524133, 0.5671885, -1545637.1, -29130.18, 0.030258754, 9.998972, 10.000249 
1.7850761e+3, 1.5525773e+2, -1219353.0, -1280859.8, -28044.172, -0.07010366, 0.3655621, -1208486.1, 210027.28, 0.0109521225, 10.001196, 10.000378 
1.7850763e+3, 1.6525695e+2, -1200990.3, -1448317.4, -22237.652, 0.03109028, 0.3557667, -1199006.8, 121512.28, 0.0020959692, 10.001606, 9.998349 
1.7850748e+3, 1.7525628e+2, -1256374.6, -1408825.4, 976.178, -0.045073044, 0.4232023, -1256368.4, -33839.984, 0.000105867584, 10.000497, 9.998477 
1.785074e+3, 1.8525526e+2, -1171843.6, -1243543.5, -619.3383, -0.024944756, 0.446119, -1171838.3, -47298.65, 0.0000000562377, 10.000086, 9.999144 
1.7850739e+3, 1.9525424e+2, -1008403.94, -1093518.5, -17928.318, 0.07431594, 0.39556685, -1004781.75, 21767.479, 0.0, 10.000449, 9.999317 
1.785073e+3, 2.0525335e+2, -973040.25, -1079030.3, -15092.263, 0.11318737, 0.40090808, -970933.1, -42375.887, 0.0, 10.000247, 9.998849 
1.7850716e+3, 2.1525249e+2, -953897.2, -1006034.4, -4483.4116, 0.09744152, 0.40235576, -953514.44, -122950.39, 0.0, 9.99966, 9.998956 
1.78507e+3, 2.2525124e+2, -843442.6, -981477.9, 69360.25, -0.033701472, 0.42552528, -814612.0, -82035.42, 0.0, 10.000072, 9.998263 
1.785068e+3, 2.3524974e+2, -540368.1, -759209.7, 47579.957, -0.27372274, 0.4157043, -530471.0, 104122.15, 0.0, 10.001386, 9.998472 
1.7850672e+3, 2.4524803e+2, -335772.34, -552260.0, -18880.66, -0.3313755, 0.37424448, -334138.03, 202471.9, 0.0, 10.001855, 9.998997 
1.7850669e+3, 2.552462e+2, -268325.34, -455640.13, -28467.477, -0.24007228, 0.26257557, -264094.5, 174531.45, 0.0, 10.0015955, 9.999107 
1.785068e+3, 2.6524588e+2, -239895.94, -379692.88, 62187.59, -0.11281843, 0.31833506, -216236.44, 124391.0, 0.00000018370703, 10.001058, 9.99922 
1.7850704e+3, 2.7524683e+2, -232184.89, -314182.75, 57367.688, 0.030063199, 0.45925176, -202671.67, 39945.11, 0.000020759246, 10.000382, 9.99932 
1.7850687e+3, 2.8524557e+2, -242421.95, -406407.47, -69629.16, -0.007183422, 0.47329718, -216845.98, -72216.02, 0.00019242667, 10.000265, 9.998062 
1.7850637e+3, 2.9524267e+2, -66023.15, -267717.03, -75987.74, -0.188149, 0.3397939, -40599.58, 6061.974, 0.00073228433, 10.000786, 9.998089 
1.785063e+3, 3.0523944e+2, 53277.813, -255618.33, 97587.96, -0.121552445, 0.2469309, 81525.164, 81525.164, 0.0017135036, 10.001566, 9.99747 
1.7850643e+3, 3.1524017e+2, 278125.78, 25899.168, -11524.298, -0.036980443, 0.5302314, 278651.22, 278651.22, 0.0029749514, 10.002365, 9.999005 
1.7950857e+3, 1.2526357e+2, -1391642.6, -1447182.6, 93987.19, 0.109711096, 0.7097232, -1321408.8, 391059.28, 0.09190124, 10.001883, 10.001083 
1.79508e+3, 1.3526095e+2, -1688645.0, -1652049.4, -109223.63, -0.0063937665, 0.43635917, -1559601.5, 54883.707, 0.06119029, 9.999488, 10.000005 
1.7950767e+3, 1.4526008e+2, -1772021.1, -1822168.4, 89423.195, -0.0676266, 0.43276778, -1704222.8, -187731.17, 0.03230053, 9.999017, 9.998386 
1.7950773e+3, 1.5525901e+2, -1355637.4, -1553190.6, 58477.195, -0.09497121, 0.46005067, -1339625.5, 78880.35, 0.011841973, 10.001156, 9.998513 
1.7950769e+3, 1.6525805e+2, -1131149.4, -1312490.6, -73208.125, -0.0944195, 0.47703326, -1105284.3, 215230.6, 0.0023264778, 10.001631, 9.999278 
1.7950766e+3, 1.7525694e+2, -1189409.5, -1273809.6, -35536.99, 0.05636996, 0.40541458, -1176439.6, 46082.086, 0.00012352158, 10.000506, 9.999403 
1.7950755e+3, 1.8525586e+2, -1196691.9, -1299346.1, 5044.891, 0.106486, 0.39541975, -1196444.5, -71912.766, 0.000000085167756, 10.000108, 9.998749 
1.795074e+3, 1.952549e+2, -1045965.06, -1159173.3, 369.2029, 0.034385353, 0.39530823, -1045963.9, -19420.035, 0.0, 10.000399, 9.998891 
1.7950727e+3, 2.052542e+2, -947017.0, -1016262.4, -46124.023, 0.025668336, 0.4187172, -923966.9, 4582.099, 0.0, 10.000203, 9.999303 
1.7950715e+3, 2.1525377e+2, -930299.1, -944938.0, -18028.344, 0.10217595, 0.4142703, -918161.06, -87613.86, 0.0, 9.999601, 9.999407 
1.7950706e+3, 2.2525232e+2, -881141.5, -1034959.8, 112111.53, 0.014183535, 0.4110652, -822094.75, -89533.26, 0.0, 9.999968, 9.997946 
1.79507e+3, 2.352501e+2, -584897.0, -816445.8, 103004.03, -0.22950676, 0.35962218, -545708.3, 88880.71, 0.0, 10.00124, 9.998146 
1.7950697e+3, 2.4524893e+2, -370351.2, -586735.2, -34977.73, -0.27583438, 0.3962981, -364837.63, 171764.83, 0.0, 10.001691, 9.998841 
1.7950696e+3, 2.5524873e+2, -296868.13, -484238.1, -29864.48, -0.1316853, 0.4581311, -292223.22, 146380.03, 0.0, 10.0014715, 9.998968 
1.7950694e+3, 2.6524737e+2, -240465.42, -354355.78, 29498.098, -0.09054921, 0.410048, -233278.77, 107334.85, 0.00000013255313, 10.000935, 9.999457 
1.795069e+3, 2.7524516e+2, -233317.72, -280871.13, 41769.66, -0.16954285, 0.20172785, -209031.6, 33600.313, 0.0000188634, 10.000239, 9.999613 
1.795068e+3, 2.8524455e+2, -240840.94, -372034.13, -61867.813, -0.15087494, 0.24985453, -216268.03, -71629.43, 0.00018750537, 10.000117, 9.998376 
1.7950666e+3, 2.9524583e+2, -65031.957, -222607.19, -39124.555, 0.013847256, 0.49755305, -55852.42, -9220.562, 0.00072388566, 10.000608, 9.998478 
1.7950654e+3, 3.052441e+2, 42219.52, -223631.0, 119891.87, -0.05881786, 0.5193403, 88300.36, 88300.36, 0.0016682546, 10.001317, 9.997816 
1.7950645e+3, 3.1524155e+2, 288704.16, 132621.42, 36883.3, -0.29669234, 0.42125013, 296981.0, 296981.0, 0.00282097, 10.002027, 9.999886 
1.8050866e+3, 1.2526305e+2, -1728648.4, -1587137.1, 87588.99, 0.13933598, 0.59120506, -1545295.3, 167173.92, 0.097200245, 9.999285, 10.001287 
1.8050806e+3, 1.35261e+2, -1352279.9, -1463778.9, -208379.92, -0.023983704, 0.350705, -1192320.8, 422160.8, 0.06490086, 10.001795, 10.000254 
1.8050794e+3, 1.452606e+2, -1340237.5, -1655864.9, 1902.5853, 0.16066273, 0.39826953, -1340226.0, 176259.6, 0.034457777, 10.002221, 9.997975 
1.8050784e+3, 1.5525983e+2, -1474761.8, -1666501.6, 60799.027, -0.07257581, 0.50181085, -1457108.3, -38607.68, 0.0127833225, 10.000568, 9.998015 
1.805077e+3, 1.652588e+2, -1356882.6, -1390960.5, -48905.93, -0.16120213, 0.523092, -1322132.5, -1621.288, 0.0025744103, 9.999973, 9.999533 
1.8050772e+3, 1.7525749e+2, -1156145.8, -1221876.9, -76845.32, 0.06712763, 0.40661812, -1105433.0, 117084.91, 0.00014305822, 10.000608, 9.9997015 
1.8050766e+3, 1.852565e+2, -1094007.8, -1265003.4, -21200.242, 0.16076794, 0.3953528, -1091418.5, 33108.156, 0.00000010953618, 10.000856, 9.998631 
1.8050747e+3, 1.9525583e+2, -993126.2, -1146310.0, -18103.15, 0.052419394, 0.4341948, -991015.9, 35521.04, 0.0, 10.00081, 9.998782 
1.8050733e+3, 2.0525487e+2, -769526.1, -927268.7, -45039.41, 0.028530175, 0.43536243, -757572.1, 170971.5, 0.0, 10.001397, 9.999346 
1.8050726e+3, 2.1525367e+2, -484768.5, -724519.56, -62172.492, 0.1130486, 0.3502471, -469604.9, 360942.03, 0.0, 10.002633, 9.999458 
1.805072e+3, 2.2525227e+2, -563331.7, -880226.0, 51122.805, 0.0394005, 0.34919652, -555288.44, 177271.84, 0.0, 10.002157, 9.997942 
1.8050711e+3, 2.3525083e+2, -738446.0, -896822.2, 50333.008, -0.19534533, 0.37882406, -723803.6, -89221.53, 0.0, 10.000207, 9.998092 
1.8050711e+3, 2.4524993e+2, -609887.25, -683009.3, -18407.959, -0.21493286, 0.43692288, -605514.6, -68920.84, 0.0, 9.999968, 9.999012 
1.8050718e+3, 2.5524956e+2, -308002.94, -474515.9, -11598.03, -0.03630374, 0.47348702, -307199.0, 131397.06, 0.0, 10.001316, 9.999122 
1.8050712e+3, 2.652485e+2, -142615.02, -281907.0, 22965.123, -0.03065005, 0.43367645, -138926.42, 201677.86, 0.00000007008213, 10.001512, 9.999673 
1.8050689e+3, 2.7524686e+2, -149033.44, -221355.72, 10239.783, -0.21994607, 0.2718865, -147611.6, 95005.53, 0.000018211342, 10.00074, 9.999784 
1.805068e+3, 2.8524622e+2, -72037.63, -259370.88, -17629.629, -0.18947862, 0.29009232, -70392.98, 74230.97, 0.00018362651, 10.001128, 9.99867 
1.8050689e+3, 2.9524678e+2, 261742.56, -33959.637, -25856.117, 0.07226277, 0.4466148, 263986.38, 310608.34, 0.0007097157, 10.002698, 9.998784 
1.8050668e+3, 3.0524608e+2, 230863.06, -77469.875, 96374.484, -0.088133015, 0.5314952, 258507.88, 258507.88, 0.0016129982, 10.002375, 9.998312 
1.8050653e+3, 3.1524456e+2, 27242.037, 10203.773, -29775.082, -0.30245182, 0.50881606, 49692.75, 49692.75, 0.0026760024, 10.000139, 9.999993 
1.8150848e+3, 1.2525964e+2, -1807783.4, -1756660.9, -4607.025, -0.00040277222, 0.15064356, -1756249.1, -43757.004, 0.10291468, 9.999321, 10.000018 
1.8150818e+3, 1.3526057e+2, -1442275.6, -1637974.4, -109711.32, -0.0917491, 0.350592, -1393117.9, 221368.48, 0.06887483, 10.001744, 9.999021 
1.8150829e+3, 1.4526075e+2, -1264905.0, -1501670.8, -64549.285, 0.24839634, 0.45490542, -1248450.5, 268037.9, 0.036753505, 10.002244, 9.999036 
1.8150792e+3, 1.5526015e+2, -1408830.9, -1536810.1, 8032.1226, -0.077226505, 0.48535055, -1408328.8, 10169.138, 0.01378539, 10.000592, 9.998899 
1.8150762e+3, 1.6525923e+2, -1382845.5, -1455583.8, -36036.37, -0.26726955, 0.5012326, -1368015.8, -47508.62, 0.002842686, 10.000015, 9.999069 
1.8150765e+3, 1.7525795e+2, -1186918.1, -1287173.3, -46380.55, -0.061613247, 0.42925167, -1168752.8, 53763.887, 0.00016504708, 10.000605, 9.999259 
1.8150768e+3, 1.8525715e+2, -1079358.6, -1234398.1, -29052.268, 0.0729357, 0.44911903, -1074093.5, 50430.72, 0.00000012908751, 10.000857, 9.99884 
1.8150759e+3, 1.9525695e+2, -980924.1, -1117980.8, -12180.733, 0.05909344, 0.51273566, -979850.0, 46678.9, 0.0, 10.000798, 9.998982 
1.8150751e+3, 2.0525518e+2, -802499.44, -985406.75, -5725.89, 0.044554338, 0.44487828, -802320.4, 126222.086, 0.0, 10.001353, 9.998967 
1.8150751e+3, 2.1525207e+2, -527191.7, -786116.7, -11261.064, 0.07141914, 0.20467982, -526702.9, 303861.22, 0.0, 10.002519, 9.999089 
1.8150736e+3, 2.2525108e+2, -565287.8, -852914.6, -29300.166, -0.023764292, 0.24628128, -562333.4, 170239.75, 0.0, 10.002015, 9.998202 
1.815071e+3, 2.3525201e+2, -734707.1, -868542.75, -9718.725, -0.2391815, 0.49030387, -734005.06, -99434.08, 0.0, 10.000117, 9.998331 
1.8150711e+3, 2.452511e+2, -603120.8, -643551.25, 26581.184, -0.23499516, 0.5194777, -589941.2, -53358.516, 0.0, 9.999851, 9.99934 
1.8150736e+3, 2.552487e+2, -297595.38, -425251.97, 46454.7, -0.017059097, 0.308931, -282480.06, 156125.03, 0.0, 10.001197, 9.999515 
1.8150732e+3, 2.6524907e+2, -159950.61, -283778.97, -13791.412, -0.010495668, 0.3884157, -158433.19, 182167.73, 0.0000000874347, 10.001358, 9.999736 
1.8150699e+3, 2.7525187e+2, -167268.83, -225935.45, -5063.302, -0.19857039, 0.6604786, -166835.05, 75738.62, 0.00001648955, 10.000607, 9.999812 
1.8150689e+3, 2.8525046e+2, -89902.77, -264898.84, 32571.332, -0.23237085, 0.6034226, -84037.016, 60549.125, 0.00017232615, 10.00098, 9.998706 
1.8150699e+3, 2.9524556e+2, 255119.89, -16109.978, 44762.875, -0.110981286, 0.19157359, 262316.47, 308948.0, 0.0006746177, 10.002555, 9.998974 
1.8150671e+3, 3.0524552e+2, 214241.83, -49478.254, 1416.7329, -0.3350382, 0.31053776, 214249.44, 214249.44, 0.0015412994, 10.002115, 9.998627 
1.8150654e+3, 3.1524682e+2, -63294.434, -60912.84, -43916.8, -0.34123048, 0.5382241, -18170.695, -18170.695, 0.0025647236, 9.999689, 9.999694 
1.8250848e+3, 1.2526104e+2, -1680907.8, -1697478.9, -87093.63, 0.029756451, 0.21634212, -1601706.5, 110774.67, 0.10907774, 10.0002165, 10.000038 
1.8250819e+3, 1.3526173e+2, -1861581.3, -1885227.0, -25338.346, -0.11316007, 0.42228, -1845443.3, -230963.64, 0.07313931, 9.99893, 9.998669 
1.8250832e+3, 1.4526156e+2, -1657890.6, -1636042.6, 14702.243, 0.21659872, 0.48172054, -1628650.3, -112166.5, 0.039204508, 9.999243, 9.99955 
1.8250802e+3, 1.5526101e+2, -1372384.8, -1466365.4, 33807.3, -0.018808618, 0.4673077, -1361487.0, 57001.64, 0.014855209, 10.000626, 9.999368 
1.8250772e+3, 1.6526006e+2, -1239379.5, -1437495.6, 7121.927, -0.21467672, 0.48130643, -1239123.9, 81374.12, 0.0031336718, 10.001212, 9.998615 
1.8250772e+3, 1.7525877e+2, -1121349.8, -1301456.9, -14069.312, -0.08843576, 0.45163766, -1120257.4, 102253.31, 0.00019006866, 10.00125, 9.998845 
1.8250774e+3, 1.8525796e+2, -1038491.94, -1203537.6, -5839.8535, 0.039485674, 0.48403585, -1038285.56, 86233.945, 0.00000015151502, 10.001099, 9.99893 
1.8250765e+3, 1.9525766e+2, -961130.3, -1096726.5, -11576.568, 0.05159512, 0.5324064, -960149.06, 66374.945, 0.0, 10.000903, 9.999068 
1.8250762e+3, 2.0525613e+2, -850308.5, -999476.06, 53411.992, 0.041872952, 0.47844577, -833155.75, 95379.82, 0.0, 10.000999, 9.999028 
1.8250766e+3, 2.152534e+2, -688424.56, -856892.56, 64130.617, 0.040886592, 0.27016452, -666790.25, 163764.23, 0.0, 10.001387, 9.999144 
1.8250754e+3, 2.2525226e+2, -591873.2, -849240.9, 15498.082, -0.03041928, 0.28509697, -590943.3, 141620.88, 0.0, 10.001751, 9.998361 
1.8250725e+3, 2.352526e+2, -431689.1, -701273.4, 12339.05, -0.1904312, 0.45368293, -431125.53, 203439.33, 0.0, 10.002108, 9.99852 
1.825072e+3, 2.4525169e+2, -373113.2, -534781.1, 72814.45, -0.18778868, 0.4728541, -345153.44, 191422.08, 0.0, 10.001441, 9.999318 
1.8250738e+3, 2.552497e+2, -493983.84, -524032.22, 48146.02, -0.0352335, 0.30848044, -458572.28, -19978.174, 0.0, 9.9998665, 9.999472 
1.8250738e+3, 2.6524985e+2, -383674.94, -441047.75, -11771.067, -0.0056631863, 0.38968655, -381353.8, -40760.59, 0.00000011582431, 10.00005, 9.999282 
1.8250722e+3, 2.7525184e+2, -11057.107, -205682.8, -66492.05, -0.09786154, 0.6310301, 9490.057, 252065.64, 0.000015405387, 10.001904, 9.999334 
1.8250713e+3, 2.852503e+2, 60764.22, -185375.8, -44758.484, -0.14146581, 0.58361524, 68650.49, 213239.89, 0.0001600689, 10.001996, 9.998759 
1.8250708e+3, 2.9524598e+2, -37729.16, -153997.88, -65978.06, -0.17240599, 0.23512354, -7927.6987, 38700.27, 0.0006309656, 10.000527, 9.999003 
1.8250677e+3, 3.052459e+2, 23173.975, -103324.13, -103836.89, -0.40110713, 0.3332893, 81508.4, 81508.4, 0.0014656942, 10.000652, 9.998951 
1.8250687e+3, 3.1524643e+2, 330862.66, 80492.52, -164111.86, -0.10656983, 0.46179876, 412084.97, 412084.97, 0.002489003, 10.002569, 9.999308 
1.8350857e+3, 1.2526691e+2, -1602553.5, -1535368.3, -200506.39, 0.050774373, 0.7344665, -1365660.0, 346779.25, 0.11569034, 10.000224, 10.001291 
1.8350807e+3, 1.3526464e+2, -1821096.1, -1800626.0, -54268.258, -0.14026593, 0.5698794, -1755636.0, -141176.7, 0.07769921, 9.998939, 9.999236 
1.8350802e+3, 1.452632e+2, -1659055.1, -1650650.3, 63957.203, -0.033082306, 0.48943898, -1590757.5, -74287.61, 0.04181763, 9.999293, 9.999428 
1.8350814e+3, 1.5526244e+2, -1370216.9, -1464506.5, 92203.695, 0.026725892, 0.45074394, -1313804.1, 104668.49, 0.015997248, 10.000633, 9.999382 
1.8350801e+3, 1.6526122e+2, -1264814.5, -1495599.8, -2384.1611, -0.078867905, 0.46049717, -1264789.9, 55694.063, 0.0034491862, 10.001234, 9.998207 
1.8350787e+3, 1.7525981e+2, -1149628.3, -1361963.6, -8000.275, -0.07730413, 0.45982954, -1149327.3, 73174.13, 0.00021871291, 10.001253, 9.998432 
1.835078e+3, 1.852587e+2, -1042225.5, -1211144.9, -19789.07, -0.03168112, 0.48568463, -1039938.2, 84576.21, 0.00000018976193, 10.0011, 9.998876 
1.8350768e+3, 1.9525795e+2, -968949.6, -1107219.5, -10914.524, -0.033604316, 0.49422002, -968093.4, 58429.25, 0.0, 10.000876, 9.999009 
1.8350764e+3, 2.052576e+2, -820967.7, -929352.25, 61247.305, -0.05110781, 0.5344642, -793379.56, 135144.22, 0.0, 10.000957, 9.999533 
1.8350773e+3, 2.152576e+2, -669435.6, -794198.7, 83743.51, -0.04573672, 0.55142343, -627392.9, 203125.64, 0.0, 10.001289, 9.99962 
1.835077e+3, 2.252558e+2, -609313.94, -851963.56, 23104.316, -0.06443117, 0.47727144, -607133.6, 125399.6, 0.0, 10.001603, 9.998414 
1.8350756e+3, 2.3525243e+2, -444897.6, -698079.5, 33043.734, -0.11122125, 0.2649131, -440656.0, 193909.42, 0.0, 10.001978, 9.998605 
1.8350741e+3, 2.4525145e+2, -418929.06, -596929.1, 6457.6406, -0.1408996, 0.29060712, -418695.1, 117879.46, 0.0, 10.001294, 9.998966 
1.8350726e+3, 2.552526e+2, -539995.3, -595332.1, 2572.024, -0.15036896, 0.4819861, -539876.0, -101313.12, 0.0, 9.999769, 9.99903 
1.8350731e+3, 2.6525098e+2, -476696.3, -617212.75, 52468.426, -0.10633758, 0.47014487, -459266.72, -118687.234, 0.000000090536304, 9.999962, 9.998119 
1.8350752e+3, 2.752468e+2, -100636.34, -366008.63, 13783.248, -0.002340497, 0.20339778, -99922.375, 142699.64, 0.00001528185, 10.00179, 9.998288 
1.8350747e+3, 2.8524575e+2, 31702.436, -211315.28, -113438.516, -0.019390898, 0.2559739, 76424.44, 221057.75, 0.00015262204, 10.001841, 9.99866 
1.8350711e+3, 2.952479e+2, -68433.5, -174673.52, -105925.61, -0.19574869, 0.56210065, -3054.6855, 43557.953, 0.000595642, 10.000358, 9.998934 
1.8350685e+3, 3.0524737e+2, -10245.238, -123081.11, -47811.85, -0.4015859, 0.6180067, 7289.2197, 7289.2197, 0.0014012378, 10.000428, 9.998926 
1.8350734e+3, 3.1524444e+2, 217492.36, -71067.305, 1475.0104, 0.07165414, 0.3849403, 217499.9, 217499.9, 0.0024329247, 10.002215, 9.998428 
1.8450855e+3, 1.252682e+2, -1774778.9, -1590240.1, -188341.84, 0.081609406, 0.831101, -1472780.4, 239653.02, 0.12272786, 9.998862, 10.001554 
1.8450812e+3, 1.352662e+2, -1523467.4, -1658852.5, -112143.56, -0.08476113, 0.6939938, -1460169.6, 154279.86, 0.08254445, 10.0011, 9.999179 
1.8450795e+3, 1.4526345e+2, -1291361.5, -1460766.4, -2603.6125, -0.1529108, 0.4837207, -1291321.5, 225149.53, 0.04459436, 10.001831, 9.99953 
1.8450817e+3, 1.5526308e+2, -1268003.6, -1386419.0, 19026.998, -0.029516554, 0.46163708, -1265021.5, 153445.53, 0.017215712, 10.001221, 9.999637 
1.8450813e+3, 1.6526227e+2, -1351158.1, -1493746.4, -47188.242, -0.039059013, 0.47747555, -1336956.1, -16482.877, 0.0037916328, 10.000465, 9.9985895 
1.8450801e+3, 1.7526096e+2, -1333606.4, -1409949.0, -8162.609, 0.0032287887, 0.45221344, -1332743.4, -110253.79, 0.00025177147, 9.999823, 9.998793 
1.8450789e+3, 1.8525985e+2, -1144726.1, -1268224.0, 63019.74, -0.00022459248, 0.46464333, -1118245.8, 6256.367, 0.00000025167606, 10.00043, 9.998806 
1.8450776e+3, 1.9525902e+2, -763342.25, -1017445.9, 56155.477, -0.11851165, 0.47055697, -751485.5, 275024.75, 0.0, 10.002317, 9.998939 
1.8450773e+3, 2.0525862e+2, -642758.3, -905690.94, 50210.445, -0.13193993, 0.5389261, -633496.2, 295017.56, 0.0, 10.002442, 9.998985 
1.8450785e+3, 2.152587e+2, -732369.2, -882660.5, -16673.297, -0.036066435, 0.618167, -730541.6, 99970.72, 0.0, 10.001107, 9.9991045 
1.8450785e+3, 2.2525708e+2, -712373.0, -836985.94, -45036.285, -0.017720176, 0.5578735, -697800.56, 34725.25, 0.0, 10.000632, 9.998975 
1.8450773e+3, 2.352539e+2, -549489.0, -689187.2, -14934.558, -0.089701466, 0.30864945, -547910.25, 86642.77, 0.0, 10.001009, 9.999126 
1.845076e+3, 2.4525274e+2, -355801.0, -606294.9, -28696.258, -0.120322414, 0.3097176, -352555.63, 184006.86, 0.0, 10.001919, 9.998592 
1.8450744e+3, 2.552535e+2, -44984.582, -397007.2, -52245.723, -0.13005081, 0.4958764, -37394.16, 401161.06, 0.0, 10.003347, 9.998666 
1.8450746e+3, 2.6525134e+2, -57285.758, -453274.9, 50427.406, -0.095793515, 0.46520397, -50964.95, 289611.63, 0.00000009817215, 10.003012, 9.997774 
1.8450764e+3, 2.752466e+2, -225040.75, -468164.1, 53639.65, -0.017702948, 0.17927827, -213732.36, 28891.342, 0.000013983738, 10.001122, 9.997903 
1.8450765e+3, 2.8524524e+2, -108698.836, -354398.8, -47720.117, 0.015152167, 0.25834292, -99756.08, 44882.484, 0.0001420209, 10.001217, 9.997972 
1.8450743e+3, 2.9524732e+2, 283806.56, -81625.3, -124128.055, -0.054447316, 0.63095915, 321981.72, 368602.56, 0.0005571277, 10.003097, 9.998269 
1.8450715e+3, 3.052453e+2, 284633.3, 7173.7266, -85414.18, -0.23263215, 0.57452077, 308819.25, 308819.25, 0.0013278592, 10.002507, 9.998829 
1.8450741e+3, 3.1524178e+2, -86842.83, -244573.0, -51802.902, 0.03634447, 0.30555454, -71350.92, -71350.92, 0.0023466824, 10.000219, 9.998198 
1.8550843e+3, 1.2526485e+2, -1808337.1, -1687754.8, -53394.008, 0.024892755, 0.4859107, -1667510.5, 44954.17, 0.13014582, 9.998969, 10.000711 
1.8550833e+3, 1.3526651e+2, -1572192.5, -1768652.8, -34922.527, -0.010255622, 0.7862449, -1566169.4, 48280.316, 0.08765755, 10.00109, 9.998409 
1.8550809e+3, 1.4526217e+2, -1268080.3, -1413592.8, -28595.623, -0.23476851, 0.4429463, -1262662.5, 253825.81, 0.04753598, 10.001841, 9.999868 
1.8550809e+3, 1.5526287e+2, -1235271.0, -1323228.6, 956.60175, -0.25727436, 0.4884687, -1235260.5, 183211.86, 0.01851746, 10.001237, 10.000073 
1.8550806e+3, 1.6526312e+2, -1262492.0, -1319441.9, -79877.82, -0.18278863, 0.5257413, -1206165.4, 114300.586, 0.0041650403, 10.000505, 9.999767 
1.8550809e+3, 1.7526224e+2, -1254624.9, -1252523.8, -23311.541, 0.089238144, 0.42956892, -1230239.1, -7764.1255, 0.00029041685, 9.999843, 9.999866 
1.8550801e+3, 1.8526134e+2, -1144715.1, -1278081.1, 125166.89, 0.058371685, 0.4165208, -1069576.5, 54906.81, 0.0000003514084, 10.000469, 9.998723 
1.8550783e+3, 1.952608e+2, -775329.56, -1036527.8, 128405.54, -0.27326757, 0.45998877, -722778.2, 303709.34, 0.0, 10.002288, 9.998825 
1.8550785e+3, 2.052592e+2, -761985.06, -1137970.5, -7003.6753, -0.2821407, 0.49619642, -761854.7, 166650.92, 0.0, 10.002375, 9.997425 
1.8550803e+3, 2.1525668e+2, -850303.75, -1106103.8, -57817.727, 0.016958877, 0.47247085, -837842.4, -7306.2373, 0.0, 10.001015, 9.997617 
1.8550798e+3, 2.2525601e+2, -651470.8, -687091.0, -35348.48, 0.040497582, 0.52247393, -629699.2, 102843.59, 0.0, 10.000525, 10.00006 
1.8550774e+3, 2.3525703e+2, -493513.97, -552746.8, 9405.35, -0.1894139, 0.5898175, -492056.4, 142471.02, 0.0, 10.0009165, 10.000112 
1.855077e+3, 2.4525571e+2, -408800.56, -684510.44, 18037.322, -0.2098005, 0.5517398, -407625.56, 128912.36, 0.0, 10.001777, 9.998126 
1.8550788e+3, 2.5525233e+2, -93733.555, -461733.22, 6669.6323, -0.03680228, 0.3665541, -93612.71, 344958.34, 0.0, 10.003196, 9.998291 
1.8550783e+3, 2.652508e+2, -44756.004, -396158.7, -30090.357, -0.04091805, 0.39072222, -42198.01, 298387.4, 0.00000008466028, 10.002873, 9.998237 
1.8550758e+3, 2.752509e+2, -220007.86, -422730.63, -926.1764, -0.201647, 0.54892164, -220003.63, 22579.14, 0.000011475633, 10.000981, 9.99828 
1.8550766e+3, 2.8524864e+2, -237736.89, -587515.56, 12591.91, -0.12144709, 0.5912059, -237284.17, -92677.73, 0.00012583715, 10.001053, 9.996459 
1.8550795e+3, 2.9524428e+2, 157089.77, -297109.84, -46064.22, 0.15471248, 0.46312842, 161714.44, 208366.66, 0.0005096421, 10.002894, 9.996886 
1.8550764e+3, 3.0523974e+2, 219274.34, -76186.05, -194700.1, -0.024968678, 0.24777469, 315946.16, 315946.16, 0.0012369246, 10.00228, 9.998365 
1.8550718e+3, 3.152403e+2, -126245.35, -221712.13, -74942.38, -0.25482854, 0.43170655, -85125.85, -85125.85, 0.0022135882, 9.999801, 9.998546 
1.8650834e+3, 1.2526369e+2, -1657604.0, -1683183.1, -13834.262, -0.0013748201, 0.42727557, -1651553.1, 60922.92, 0.1378835, 10.000381, 10.000051 
1.8650843e+3, 1.3526686e+2, -1615973.9, -1770605.6, 18382.205, 0.020838723, 0.8567318, -1613818.6, 628.856, 0.09301642, 10.000656, 9.998609 
1.8650818e+3, 1.4526165e+2, -1472228.8, -1474677.3, 10552.121, -0.22446735, 0.40066022, -1462830.0, 53665.355, 0.050644647, 10.00023, 10.000191 
1.8650821e+3, 1.5526305e+2, -1465781.9, -1398158.1, 17614.195, -0.17568785, 0.48169735, -1393845.3, 24628.02, 0.01991141, 9.999497, 10.00038 
1.8650816e+3, 1.6526371e+2, -1354427.3, -1378123.3, -61382.313, -0.08946535, 0.5551946, -1303759.9, 16702.953, 0.0045744055, 9.999937, 9.999633 
1.8650815e+3, 1.7526284e+2, -1025484.25, -1153499.1, -111929.35, 0.07652366, 0.47144827, -960553.2, 261919.0, 0.0003360051, 10.001479, 9.999745 
1.865081e+3, 1.8526183e+2, -970517.3, -1188056.5, 11451.648, 0.04188263, 0.44928822, -969916.1, 154565.53, 0.00000050835786, 10.001646, 9.998769 
1.8650806e+3, 1.9526118e+2, -999053.56, -1136957.1, 12852.801, -0.20498951, 0.47648218, -997865.9, 28620.576, 0.0, 10.000731, 9.998879 
1.8650806e+3, 2.052595e+2, -980652.44, -1204583.4, -54799.94, -0.21613008, 0.4820993, -967961.1, -39457.41, 0.0, 10.000722, 9.997756 
1.8650812e+3, 2.1525675e+2, -736846.6, -1016217.9, 20901.535, -0.022993222, 0.40008914, -735291.5, 95242.16, 0.0, 10.001643, 9.997929 
1.8650804e+3, 2.2525606e+2, -496865.2, -674290.7, 65001.797, -0.012034231, 0.46189374, -475599.84, 256941.17, 0.0, 10.001857, 9.999509 
1.8650787e+3, 2.3525742e+2, -449980.44, -590059.1, -21368.588, -0.18050818, 0.6180629, -446793.25, 187732.95, 0.0, 10.00147, 9.999593 
1.8650788e+3, 2.4525619e+2, -491863.03, -707969.9, -8201.044, -0.17557652, 0.60755366, -491552.28, 44984.754, 0.0, 10.001126, 9.998278 
1.8650807e+3, 2.5525254e+2, -428884.78, -611338.1, 11191.003, -0.026242118, 0.38427278, -428200.94, 10370.468, 0.0, 10.000832, 9.998404 
1.8650807e+3, 2.6525095e+2, -207909.28, -469232.03, -23402.09, -0.032245375, 0.39604852, -205830.11, 134755.52, 0.000000065173005, 10.00174, 9.998274 
1.8650784e+3, 2.7525127e+2, 195276.36, -222896.05, -51781.695, -0.18531334, 0.5691807, 201593.0, 444173.94, 0.000009431519, 10.0038185, 9.998297 
1.865079e+3, 2.8524897e+2, 138373.48, -399907.88, 20923.586, -0.098820895, 0.6062563, 139185.58, 283789.44, 0.00011328213, 10.003615, 9.996504 
1.865082e+3, 2.952444e+2, -52424.35, -400062.63, 42524.34, 0.17584297, 0.45303315, -47298.21, -647.624, 0.00047190647, 10.001461, 9.996856 
1.8650791e+3, 3.052394e+2, 72013.4, -251151.42, -38289.97, 0.059447117, 0.24227329, 76488.195, 76488.195, 0.0011580472, 10.001716, 9.997424 
1.865073e+3, 3.1524e+2, 518766.28, 59315.03, -3938.6028, -0.33232358, 0.51776177, 518800.03, 518800.03, 0.0020773846, 10.004324, 9.998309 
1.8750829e+3, 1.2526539e+2, -1690397.3, -1767077.6, -56711.04, -0.14836667, 0.71418387, -1660282.3, 52178.895, 0.14588223, 10.000441, 9.99943 
1.8750845e+3, 1.3526724e+2, -1540942.4, -1599786.8, 25213.488, -0.060415566, 0.8974335, -1531616.9, 82826.2, 0.0986057, 10.000656, 9.999791 
1.8750826e+3, 1.45262e+2, -1447452.0, -1434541.4, -21074.313, -0.20736562, 0.36333287, -1418955.9, 97535.22, 0.053927336, 10.000273, 10.000464 
1.8750848e+3, 1.5526353e+2, -1449363.1, -1375809.9, 4036.4368, 0.1372261, 0.43792656, -1375589.1, 42880.703, 0.021407956, 9.999534, 10.000523 
1.8750842e+3, 1.6526404e+2, -1443125.0, -1574053.9, -9474.579, 0.15579863, 0.5564741, -1442442.9, -121978.75, 0.0050250688, 9.999987, 9.998265 
1.8750814e+3, 1.7526278e+2, -1118577.4, -1348095.4, -49035.824, -0.099081874, 0.572123, -1108540.0, 113941.02, 0.00038988978, 10.001476, 9.998415 
1.8750812e+3, 1.8526131e+2, -953981.2, -1155543.4, -30227.383, -0.13821135, 0.5597638, -949545.7, 174951.13, 0.000000733184, 10.001657, 9.998989 
1.8750836e+3, 1.9526023e+2, -986480.44, -1102530.6, -14342.366, 0.020681167, 0.5233774, -984734.2, 41772.3, 0.0, 10.000698, 9.999133 
1.8750834e+3, 2.052594e+2, -828705.3, -885793.06, -30052.344, -0.014590635, 0.48993915, -815801.6, 112707.49, 0.0, 10.000697, 9.999962 
1.8750809e+3, 2.1525879e+2, -606684.94, -725132.94, 59374.15, -0.22265267, 0.405809, -582047.3, 248458.52, 0.0, 10.001545, 9.999978 
1.87508e+3, 2.2525723e+2, -668296.75, -997748.75, 43741.86, -0.25627312, 0.39227635, -662588.0, 69932.57, 0.0, 10.00171, 9.997361 
1.8750806e+3, 2.3525497e+2, -609276.94, -893992.3, -26521.994, -0.12772247, 0.39807257, -606827.4, 27722.654, 0.0, 10.001356, 9.997557 
1.8750809e+3, 2.4525397e+2, -456874.66, -604696.6, -23785.168, -0.09845205, 0.46831098, -453141.78, 83419.984, 0.0, 10.000993, 9.999055 
1.8750805e+3, 2.552541e+2, -396121.97, -514558.6, 12978.763, -0.16394185, 0.5473084, -394716.4, 43840.645, 0.0, 10.000713, 9.999125 
1.8750814e+3, 2.6525193e+2, -262417.56, -552733.75, 47625.58, -0.14758937, 0.49114493, -254804.38, 85772.2, 0.00000004605578, 10.001601, 9.997775 
1.8750836e+3, 2.752478e+2, 140018.5, -293572.75, 34853.957, -0.053963244, 0.26783487, 142802.34, 385418.84, 0.000008317367, 10.00363, 9.997903 
1.8750834e+3, 2.8524646e+2, 219262.22, -192696.84, -71244.055, -0.033595745, 0.34381714, 231235.17, 375864.03, 0.00010640216, 10.00344, 9.998017 
1.8750812e+3, 2.9524752e+2, 8405.595, -222156.33, -17901.564, -0.059097815, 0.60888267, 9787.249, 56405.0, 0.00044874792, 10.001253, 9.998177 
1.8750796e+3, 3.052441e+2, -54764.555, -467162.16, 46225.9, -0.10063865, 0.56121624, -49646.582, -49646.582, 0.001101345, 10.001506, 9.996045 
1.8750787e+3, 3.1523916e+2, 395361.22, -70802.49, 102384.41, -0.21712023, 0.42185807, 416856.9, 416856.9, 0.001964711, 10.003813, 9.997652 
1.885084e+3, 1.2526439e+2, -1561523.0, -1734963.9, -43710.83, -0.12312859, 0.6963919, -1551129.8, 161340.2, 0.15411249, 10.001637, 9.999068 
1.885086e+3, 1.3526674e+2, -1595388.6, -1515244.9, 13811.751, 0.07616004, 0.81455076, -1512931.4, 101515.1, 0.10442951, 9.999711, 10.000892 
1.8850826e+3, 1.4526366e+2, -1594962.5, -1538667.9, -8141.376, -0.18524657, 0.45658836, -1537514.1, -21038.463, 0.057399224, 9.99939, 10.000142 
1.8850853e+3, 1.5526499e+2, -1291388.6, -1326079.9, -28625.139, 0.16775624, 0.5408028, -1275263.9, 143196.75, 0.023018045, 10.000768, 10.000269 
1.8850853e+3, 1.6526516e+2, -1269838.5, -1491044.6, 15868.512, 0.1932694, 0.6379211, -1268705.9, 51753.215, 0.005521801, 10.0011835, 9.998258 
1.8850821e+3, 1.7526357e+2, -1216703.1, -1399467.5, 61376.63, -0.12834981, 0.6230399, -1198004.5, 24472.363, 0.0004532519, 10.000818, 9.998384 
1.8850821e+3, 1.8526201e+2, -1137310.5, -1293460.6, 82687.85, -0.15070997, 0.6247743, -1101662.3, 22831.951, 0.0000010252129, 10.000603, 9.998553 
1.8850853e+3, 1.9526085e+2, -1012922.7, -1160027.0, 44323.96, 0.10457761, 0.6225586, -1000599.75, 25907.846, 0.0, 10.0007, 9.998738 
1.8850851e+3, 2.052601e+2, -830674.4, -816994.0, -20839.568, 0.086708054, 0.5837726, -801900.75, 126607.98, 0.0, 10.000391, 10.000577 
1.885082e+3, 2.1525973e+2, -805650.44, -750023.0, -61690.938, -0.19391163, 0.4615616, -710165.6, 120333.12, 0.0, 9.99989, 10.000596 
1.885081e+3, 2.2525796e+2, -854118.8, -1117228.4, -27395.52, -0.27121025, 0.40936992, -851296.56, -118782.71, 0.0, 10.000573, 9.997079 
1.885082e+3, 2.3525485e+2, -483249.22, -869929.7, 23589.742, -0.17260863, 0.3620174, -481815.4, 152736.9, 0.0, 10.002371, 9.997234 
1.8850826e+3, 2.4525371e+2, -191980.89, -513565.47, 20536.12, -0.124816835, 0.45193902, -190674.78, 345891.9, 0.0, 10.002976, 9.998723 
1.8850823e+3, 2.5525442e+2, -150013.63, -434103.78, -43554.67, -0.13634358, 0.6211862, -143486.11, 295072.22, 0.0, 10.002563, 9.99879 
1.8850835e+3, 2.6525238e+2, -263617.47, -521522.4, 18805.146, -0.08573606, 0.5807934, -262253.53, 78323.43, 0.000000017635879, 10.001463, 9.998052 
1.8850857e+3, 2.7524802e+2, -389732.0, -511395.88, 45797.305, -0.007803986, 0.30374214, -374419.88, -131801.47, 0.000007212163, 9.999845, 9.998218 
1.8850854e+3, 2.852467e+2, -184702.11, -343873.56, -49139.76, -0.03338612, 0.34879705, -170753.88, -26124.438, 0.00009812263, 10.000505, 9.99838 
1.8850832e+3, 2.95248e+2, 347131.97, -27817.861, -105985.055, -0.102871805, 0.6030182, 375016.47, 421631.13, 0.00042173456, 10.003444, 9.998462 
1.8850823e+3, 3.0524567e+2, 239950.77, -282777.2, -15612.326, -0.063258, 0.6310139, 240416.64, 240416.64, 0.0010400804, 10.003331, 9.996449 
1.8850818e+3, 3.1524062e+2, -105432.7, -245975.84, 65029.73, -0.09833581, 0.4350378, -79960.03, -79960.03, 0.0018543331, 10.000057, 9.998261 
1.8950863e+3, 1.2526074e+2, -1559804.5, -1748436.8, -109808.555, -0.11255778, 0.35329786, -1509367.5, 203134.81, 0.16258536, 10.001722, 9.998978 
1.8950886e+3, 1.3526541e+2, -1542302.5, -1404104.1, -42316.64, 0.34358126, 0.6081583, -1392176.1, 222281.16, 0.110513955, 9.999694, 10.001772 
1.8950815e+3, 1.4526658e+2, -1652704.3, -1653852.0, 32961.09, -0.24029902, 0.6776424, -1620312.0, -103863.086, 0.06108175, 9.999378, 9.999354 
1.8950832e+3, 1.5526743e+2, -1342951.0, -1429005.4, 29634.494, -0.13356115, 0.78908783, -1333733.3, 84712.21, 0.024752133, 10.000753, 9.999556 
1.8950842e+3, 1.6526705e+2, -1167468.5, -1294250.3, -2103.59, -0.051994663, 0.798448, -1167433.6, 153014.63, 0.0060684755, 10.001248, 9.999581 
1.8950836e+3, 1.7526513e+2, -1127089.1, -1217245.3, 52655.266, -0.07365079, 0.6219417, -1102851.9, 119608.78, 0.0005270964, 10.000828, 9.999635 
1.8950838e+3, 1.8526377e+2, -1204894.3, -1434733.6, 79621.35, -0.07340863, 0.6311932, -1180006.6, -55531.19, 0.0000013718216, 10.000615, 9.997571 
1.8950848e+3, 1.9526316e+2, -1088962.3, -1305796.5, 52714.75, -0.020814458, 0.7815561, -1076826.0, -50336.945, 0.0, 10.000656, 9.997752 
1.8950848e+3, 2.052617e+2, -900067.6, -961385.75, -45920.91, 0.005489255, 0.76980084, -875511.56, 52990.02, 0.0, 10.000377, 9.9996 
1.895084e+3, 2.1525955e+2, -875249.8, -882600.06, -71789.39, -0.0009428386, 0.56359327, -807041.56, 23470.994, 0.0, 9.999827, 9.999722 
1.8950832e+3, 2.2525795e+2, -768741.56, -910245.94, 34458.617, -0.1319384, 0.4956821, -760796.44, -28272.832, 0.0, 10.000443, 9.998564 
1.8950826e+3, 2.3525697e+2, -406055.38, -675312.3, 98060.35, -0.38272792, 0.5116451, -374128.56, 260405.38, 0.0, 10.00223, 9.998634 
1.8950836e+3, 2.4525549e+2, -317573.9, -740326.7, -3089.5632, -0.33586356, 0.57282317, -317551.34, 219000.03, 0.0, 10.002818, 9.997247 
1.8950863e+3, 2.5525352e+2, -270392.25, -649006.9, -51165.41, -0.0056727678, 0.6204343, -263599.7, 174975.34, 0.0, 10.002413, 9.997387 
1.8950868e+3, 2.652522e+2, -209169.16, -380175.22, -47898.918, 0.07156789, 0.6716343, -196666.7, 143921.05, 0.0000000071100716, 10.001338, 9.9990835 
1.8950845e+3, 2.7525166e+2, -340652.3, -374162.97, 9.443167, -0.11851112, 0.67019284, -340652.3, -98063.16, 0.0000064261117, 9.999703, 9.999224 
1.8950845e+3, 2.8524953e+2, -259476.47, -470578.44, 48856.17, -0.1963649, 0.62420416, -248717.8, -104110.84, 0.00008727804, 10.000365, 9.997583 
1.8950872e+3, 2.9524583e+2, 251981.66, -166404.14, 20909.855, -0.059892766, 0.4521592, 253024.08, 299665.84, 0.00038336558, 10.003185, 9.997637 
1.8950866e+3, 3.052442e+2, 340339.94, -4266.639, -139032.73, 0.0072640073, 0.49548042, 389437.94, 389437.94, 0.00096103176, 10.00305, 9.998488 
1.8950818e+3, 3.1524405e+2, -112850.375, -129331.305, -50352.773, -0.121135585, 0.58097285, -70068.23, -70068.23, 0.0017327515, 9.999547, 9.999293 
1.9050863e+3, 1.2526111e+2, -2032131.3, -1885809.3, 12822.815, -0.09139988, 0.35662717, -1884694.0, -172195.14, 0.1713416, 9.997845, 9.999853 
1.9050887e+3, 1.3526422e+2, -1389415.1, -1326361.9, -46725.098, 0.34364906, 0.42937624, -1301522.1, 312945.88, 0.11689223, 10.0008745, 10.001812 
1.9050816e+3, 1.4526848e+2, -1353372.4, -1522651.8, 23923.318, -0.28388909, 0.8245082, -1350056.4, 166372.9, 0.06499328, 10.001584, 9.999193 
1.9050834e+3, 1.5526818e+2, -1354846.0, -1430521.8, 63001.766, -0.18396312, 0.8145288, -1319192.9, 99245.23, 0.026617203, 10.00064, 9.999607 
1.9050847e+3, 1.652672e+2, -1313064.9, -1368777.0, 20106.537, -0.06767391, 0.7621306, -1306566.5, 13881.092, 0.0066676727, 10.000259, 9.999547 
1.9050847e+3, 1.7526561e+2, -1136013.3, -1219549.6, -34987.035, -0.037879005, 0.62071073, -1123295.9, 99161.32, 0.0006122247, 10.000771, 9.999639 
1.9050848e+3, 1.8526441e+2, -1148274.3, -1386482.0, -293.35886, -0.027970241, 0.6359681, -1148273.9, -23804.205, 0.0000017786746, 10.000919, 9.997753 
1.9050856e+3, 1.9526361e+2, -1050565.1, -1274356.3, 43664.414, -0.017603818, 0.75291157, -1042347.4, -15863.635, 0.0, 10.00086, 9.997875 
1.9050856e+3, 2.0526208e+2, -863866.3, -1009586.1, 6596.223, 0.017170662, 0.761407, -863568.3, 64930.613, 0.0, 10.000936, 9.998985 
1.905085e+3, 2.1525994e+2, -710531.5, -872107.06, -10297.811, 0.05455866, 0.61786145, -709877.8, 120636.93, 0.0, 10.001265, 9.999094 
1.9050846e+3, 2.2525865e+2, -592561.7, -769823.5, 118095.086, -0.06396495, 0.58628845, -533538.0, 198985.5, 0.0, 10.001405, 9.999068 
1.9050847e+3, 2.3525836e+2, -493994.94, -666445.1, 93485.62, -0.3361598, 0.62079406, -453041.7, 181482.08, 0.0, 10.001393, 9.9991045 
1.9050859e+3, 2.452567e+2, -555884.94, -857706.44, -13734.028, -0.30086368, 0.6473733, -555261.3, -18720.486, 0.0, 10.001214, 9.9972 
1.9050881e+3, 2.552537e+2, -472209.22, -746905.94, 24819.34, 0.0066371015, 0.5930962, -469984.75, -31410.572, 0.0, 10.001038, 9.997367 
1.9050881e+3, 2.6525226e+2, -184454.28, -371783.25, 56825.27, 0.06931965, 0.6290579, -168564.45, 172024.0, 0.000000016068412, 10.00153, 9.9990425 
1.9050857e+3, 2.7525243e+2, 94196.375, -175934.3, 2967.3906, -0.13285744, 0.71274257, 94228.97, 336811.88, 0.000006012962, 10.002716, 9.999145 
1.9050862e+3, 2.8525054e+2, 65095.336, -284017.84, 108145.05, -0.17027996, 0.67662233, 95880.79, 240479.67, 0.000076659555, 10.0024605, 9.99786 
1.90509e+3, 2.9524657e+2, -32929.18, -265359.13, 128741.32, 0.028810464, 0.45522445, 24292.428, 70927.83, 0.00034009657, 10.001058, 9.997979 
1.9050892e+3, 3.052446e+2, 69334.086, -61693.9, -81149.266, 0.08209724, 0.40968928, 108114.32, 108114.32, 0.00087139563, 10.00088, 9.999139 
1.9050843e+3, 3.1524456e+2, 209565.95, 33152.926, -162306.44, 0.0550557, 0.4484776, 306085.63, 306085.63, 0.0016054219, 10.00169, 9.999401 
1.9150834e+3, 1.2526548e+2, -1898616.6, -1604550.3, 193839.89, -0.19855912, 0.6996734, -1508288.0, 204171.67, 0.18042894, 9.997779, 10.002044 
1.9150864e+3, 1.3526303e+2, -1448161.3, -1438892.0, 46069.3, 0.0033780613, 0.26263875, -1397224.8, 217255.31, 0.12358676, 10.000848, 10.000952 
1.9150823e+3, 1.4526922e+2, -1313676.9, -1451933.3, -17499.639, -0.39057884, 0.8817321, -1311496.3, 204922.25, 0.069141634, 10.001644, 9.999683 
1.9150855e+3, 1.552672e+2, -1302862.0, -1319458.4, 32169.986, -0.06194383, 0.6217745, -1277937.1, 140502.4, 0.028615344, 10.000623, 10.000397 
1.9150864e+3, 1.6526574e+2, -1396514.1, -1550324.1, 28249.578, 0.04994201, 0.5444851, -1391489.9, -71033.78, 0.0073205116, 10.000296, 9.9982815 
1.9150852e+3, 1.752651e+2, -1225155.8, -1403316.6, -9816.627, -0.08494611, 0.62913215, -1224616.5, -2151.704, 0.00070924795, 10.000765, 9.998379 
1.9150855e+3, 1.8526398e+2, -1052847.9, -1194854.8, -7620.413, -0.08904915, 0.64735126, -1052440.1, 72036.26, 0.0000023137907, 10.000943, 9.999062 
1.9150873e+3, 1.9526237e+2, -970795.0, -1096589.6, 48195.805, 0.053048182, 0.5557867, -954452.8, 72037.63, 0.0, 10.000807, 9.999124 
1.9150871e+3, 2.0526129e+2, -899134.6, -1071726.9, 12688.392, 0.046590433, 0.5672983, -898206.75, 30293.957, 0.0, 10.00088, 9.998588 
1.9150849e+3, 2.1526083e+2, -751646.1, -936333.2, 8285.913, -0.08984069, 0.63269573, -751275.1, 79231.016, 0.0, 10.001172, 9.998697 
1.9150855e+3, 2.2526006e+2, -644079.7, -840936.8, 114504.79, -0.13895005, 0.69376016, -591513.1, 141000.05, 0.0, 10.001248, 9.998659 
1.9150884e+3, 2.3525913e+2, -543508.75, -730669.6, 102861.76, -0.10098011, 0.70519394, -498028.63, 136492.33, 0.0, 10.001236, 9.998739 
1.915089e+3, 2.4525733e+2, -487255.84, -680134.5, -26371.34, -0.11687471, 0.67053866, -483715.22, 52820.953, 0.0, 10.001058, 9.998496 
1.9150874e+3, 2.5525486e+2, -402532.34, -572464.2, 28095.078, -0.17501561, 0.5396921, -398007.8, 40549.65, 0.0, 10.0009165, 9.99862 
1.9150874e+3, 2.6525262e+2, -279477.9, -545058.06, 91598.445, -0.17369317, 0.49161422, -250950.03, 89628.2, 0.000000038925435, 10.001416, 9.997913 
1.9150884e+3, 2.7525052e+2, -5605.087, -347856.3, 55080.734, -0.13676016, 0.45988706, 3040.996, 245639.8, 0.000005437274, 10.002566, 9.998035 
1.9150898e+3, 2.8524977e+2, 127349.08, -121086.91, 44283.137, -0.076791786, 0.5317883, 135006.44, 279611.38, 0.00006527873, 10.002313, 9.999051 
1.9150917e+3, 2.952501e+2, 18189.123, -111465.266, 93431.43, 0.06929604, 0.61692744, 67080.87, 113679.3, 0.00029241332, 10.00086, 9.999129 
1.9150898e+3, 3.0524686e+2, -3259.9521, -175556.27, -65210.54, 0.03310109, 0.42564043, 18637.803, 18637.803, 0.0007692978, 10.000707, 9.998437 
1.9150856e+3, 3.1524494e+2, 99784.38, -94611.09, -73848.62, -0.0032733234, 0.32699704, 124656.37, 124656.37, 0.0014580134, 10.00128, 9.998701 
1.925083e+3, 1.2526609e+2, -1703203.6, -1542546.3, 115657.95, -0.094398074, 0.8708688, -1482057.9, 230398.2, 0.18987963, 9.999229, 10.001828 
1.9250847e+3, 1.3526198e+2, -1758787.0, -1546946.6, -13883.633, -0.11756062, 0.23264463, -1546040.5, 68451.984, 0.13060497, 9.998375, 10.001311 
1.9250832e+3, 1.4526935e+2, -1739256.6, -1620670.6, -48072.6, -0.299559, 0.9321023, -1603631.3, -87213.84, 0.07352615, 9.998457, 10.000029 
1.9250856e+3, 1.5526621e+2, -1459887.9, -1355663.0, -48045.67, -0.025052289, 0.52545553, -1336894.6, 81551.28, 0.030745408, 9.999362, 10.000747 
1.9250867e+3, 1.6526471e+2, -1459609.1, -1585238.8, 4476.0522, 0.0656981, 0.43037775, -1459449.8, -138987.0, 0.008026891, 9.999897, 9.998225 
1.9250862e+3, 1.7526534e+2, -1285589.9, -1438840.5, 43820.797, -0.03532553, 0.6445318, -1273944.5, -51482.008, 0.0008187495, 10.000381, 9.998318 
1.9250867e+3, 1.8526462e+2, -1122812.4, -1193492.4, 39147.73, -0.024306655, 0.68882644, -1105412.9, 19057.83, 0.0000031359323, 10.000307, 9.99938 
1.9250877e+3, 1.9526245e+2, -1077924.9, -1110249.1, 15966.983, 0.08022882, 0.50822484, -1071367.9, -44879.254, 0.0, 9.999902, 9.999466 
1.9250876e+3, 2.0526151e+2, -986253.7, -1116519.8, 14158.364, 0.046004232, 0.51727533, -984732.6, -56234.785, 0.0, 10.000294, 9.998565 
1.9250858e+3, 2.1526194e+2, -697705.5, -911886.44, 21171.44, -0.12125418, 0.6713804, -695632.75, 134864.34, 0.0, 10.0015545, 9.99868 
1.925087e+3, 2.2526124e+2, -646894.75, -836648.5, 109273.05, -0.109916225, 0.7368777, -597057.4, 135446.39, 0.0, 10.001222, 9.998695 
1.9250904e+3, 2.3525943e+2, -796191.1, -847283.3, 115589.34, 0.048348513, 0.6610443, -703358.56, -68840.3, 0.0, 9.999478, 9.998786 
1.9250907e+3, 2.4525756e+2, -641872.0, -705031.1, 56084.33, -0.002172219, 0.59153235, -609087.6, -72554.85, 0.0, 9.99978, 9.998941 
1.9250882e+3, 2.552559e+2, -207347.2, -436186.78, 32058.955, -0.25227466, 0.50330484, -202940.8, 235603.45, 0.0, 10.00206, 9.999015 
1.9250885e+3, 2.652537e+2, -163587.22, -521431.78, 69271.1, -0.24349418, 0.45533383, -150645.83, 189918.36, 0.000000047147957, 10.0023575, 9.9976225 
1.9250911e+3, 2.7525082e+2, -265454.06, -496935.84, 73316.4, -0.03470806, 0.37307432, -244186.73, -1593.7577, 0.0000043683804, 10.000893, 9.997814 
1.9250923e+3, 2.8525025e+2, -97199.07, -192221.28, 76537.53, 0.0358944, 0.45769054, -54625.22, 89973.04, 0.000052619915, 10.000642, 9.9993515 
1.9250923e+3, 2.9525197e+2, 155216.69, -22036.512, 33051.754, 0.022463802, 0.65579516, 161179.16, 207759.06, 0.00024219825, 10.001697, 9.999343 
1.9250907e+3, 3.052486e+2, 234108.0, -66915.92, -77330.31, -0.026480708, 0.4498412, 252811.36, 252811.36, 0.0006583745, 10.0023575, 9.998396 
1.9250889e+3, 3.152474e+2, 328313.4, 26133.86, -52423.66, 0.13530976, 0.43223846, 337149.75, 337149.75, 0.001285051, 10.002762, 9.998843 
1.9350842e+3, 1.2526156e+2, -1887647.5, -1929681.5, -6394.7715, 0.069203444, 0.7429585, -1886696.3, -174194.84, 0.1997211, 9.999317, 9.998843 
1.9350831e+3, 1.3526097e+2, -1644732.5, -1338878.5, -36704.13, -0.12544805, 0.33396482, -1334535.5, 279970.6, 0.13795441, 9.998356, 10.002983 
1.9350839e+3, 1.4526923e+2, -1713385.0, -1576205.5, -14913.149, -0.117308415, 1.0027316, -1574603.0, -58180.586, 0.07814733, 9.998494, 10.000315 
1.9350842e+3, 1.5526533e+2, -1464331.0, -1372048.8, -5999.146, -0.14187926, 0.5323325, -1371660.4, 46795.36, 0.033007, 9.999386, 10.000622 
1.935085e+3, 1.6526403e+2, -1374575.5, -1416926.5, 13810.993, -0.103879206, 0.40516645, -1370469.8, -50001.09, 0.008786739, 9.99993, 9.999367 
1.9350876e+3, 1.7526619e+2, -1212319.4, -1283884.9, 66305.95, 0.05163327, 0.66247904, -1172757.0, 49694.535, 0.00094156526, 10.000364, 9.999395 
1.9350882e+3, 1.8526615e+2, -1160755.0, -1272783.1, 19162.406, 0.0834883, 0.75318027, -1157568.0, -33113.668, 0.0000044945964, 10.000311, 9.998831 
1.935087e+3, 1.9526383e+2, -1120032.1, -1189204.9, 10384.304, -0.0028683858, 0.60897535, -1118506.9, -92028.63, 0.0, 9.999868, 9.998938 
1.9350868e+3, 2.0526275e+2, -966857.3, -1070223.9, 55000.99, -0.06937819, 0.61259574, -943066.94, -14576.567, 0.0, 10.000259, 9.998903 
1.9350876e+3, 2.1526311e+2, -692874.44, -876109.3, 72978.12, -0.105060786, 0.7309911, -667361.4, 163127.39, 0.0, 10.001439, 9.998986 
1.9350888e+3, 2.2526187e+2, -641393.3, -785400.9, 38229.6, -0.06509459, 0.7059603, -631873.8, 100624.16, 0.0, 10.001056, 9.999123 
1.9350898e+3, 2.3525919e+2, -783478.44, -792067.56, 60648.01, 0.041142434, 0.49657714, -726973.1, -92456.07, 0.0, 9.999364, 9.999213 
1.9350903e+3, 2.452575e+2, -685546.2, -771571.25, 132394.44, -0.045505453, 0.44445482, -589352.5, -52822.918, 0.0, 9.999669, 9.998544 
1.9350898e+3, 2.5525683e+2, -253921.84, -500186.9, 121317.53, -0.29702684, 0.49441978, -204197.31, 234337.4, 0.0, 10.001925, 9.998639 
1.9350912e+3, 2.652554e+2, -154933.98, -464077.25, 4171.8237, -0.23111269, 0.5182087, -154877.69, 185669.67, 0.00000001782158, 10.002194, 9.998092 
1.9350936e+3, 2.7525318e+2, -257481.14, -436764.75, 28754.129, 0.09689505, 0.45189825, -252982.34, -10415.21, 0.0000032439186, 10.000728, 9.998296 
1.9350937e+3, 2.8525206e+2, -157370.97, -300640.22, 98253.42, 0.074732125, 0.49365, -107410.96, 37167.285, 0.000042492127, 10.000547, 9.998663 
1.9350919e+3, 2.9525205e+2, 87910.65, -125860.84, 82950.23, -0.21934721, 0.585449, 116321.99, 162902.4, 0.00020128557, 10.001545, 9.998702 
1.9350913e+3, 3.0524996e+2, 227680.08, -29751.021, -79070.83, -0.22372888, 0.515291, 250027.06, 250027.06, 0.00056117197, 10.002139, 9.998758 
1.9350922e+3, 3.1525016e+2, 337944.47, 154579.67, 49109.504, 0.17349535, 0.59284073, 350268.8, 350268.8, 0.0011168965, 10.002342, 9.999907 
1.9450863e+3, 1.2526035e+2, -1888085.6, -2115139.0, 109223.625, 0.31606227, 0.69836426, -1844074.6, -131561.86, 0.20999403, 10.00012, 9.997175 
1.9450827e+3, 1.3526121e+2, -1452310.6, -1218822.8, 25531.37, -0.07969061, 0.4228314, -1216063.6, 398440.75, 0.14565058, 9.999689, 10.003325 
1.9450836e+3, 1.452677e+2, -1550506.8, -1487268.6, 47484.31, -0.03454236, 0.881533, -1461839.3, 54598.99, 0.083007626, 9.999541, 10.000458 
1.9450837e+3, 1.5526533e+2, -1431236.8, -1362629.3, 41163.895, -0.11820111, 0.566481, -1343349.3, 75107.586, 0.03539992, 9.999635, 10.000574 
1.9450848e+3, 1.6526441e+2, -1423778.1, -1397962.5, 36204.55, -0.10089894, 0.46231523, -1372433.6, -51968.25, 0.009600047, 9.999398, 9.999761 
1.9450875e+3, 1.7526586e+2, -1365001.9, -1307136.6, 26844.336, 0.07602133, 0.6062495, -1296601.4, -74146.945, 0.0010784023, 9.999099, 9.999842 
1.9450882e+3, 1.8526629e+2, -1267396.8, -1277508.4, 11349.666, 0.101854324, 0.69736385, -1260027.8, -135574.64, 0.0000066792873, 9.99938, 9.999245 
1.9450867e+3, 1.9526547e+2, -1024664.3, -1096086.9, 60944.496, -0.049021203, 0.6628498, -989739.0, 36724.5, 0.0, 10.000329, 9.9993515 
1.9450869e+3, 2.0526499e+2, -919290.06, -999276.5, 154727.42, -0.09539158, 0.6830088, -799470.8, 128998.17, 0.0, 10.000388, 9.999322 
1.9450888e+3, 2.1526493e+2, -908629.7, -936921.7, 165617.6, -0.046003684, 0.72151, -756555.06, 73913.586, 0.0, 9.999768, 9.999372 
1.9450898e+3, 2.2526343e+2, -772534.3, -885169.25, 111476.47, -0.009031696, 0.66581815, -703957.2, 28522.816, 0.0, 10.000297, 9.998808 
1.9450901e+3, 2.3526064e+2, -431202.22, -658327.94, 69466.3, 0.0055977376, 0.4771846, -411640.75, 222860.6, 0.0, 10.001925, 9.998905 
1.9450909e+3, 2.4525885e+2, -407784.0, -699492.9, 136596.9, -0.043921918, 0.45968553, -353807.94, 182708.69, 0.0, 10.001856, 9.997985 
1.9450922e+3, 2.552579e+2, -519455.03, -693692.25, 94235.21, -0.1635589, 0.5406944, -478238.44, -39711.402, 0.0, 10.000371, 9.998067 
1.9450936e+3, 2.6525643e+2, -372769.5, -516704.4, -25746.482, -0.109264486, 0.56548804, -368302.7, -27763.154, 0.000000002142629, 10.000465, 9.998563 
1.9450946e+3, 2.7525464e+2, -28556.484, -289720.88, -23241.438, 0.07577676, 0.4956734, -26504.316, 216048.22, 0.0000029419668, 10.002102, 9.998665 
1.9450942e+3, 2.8525278e+2, 31551.969, -283762.28, 56790.496, -0.0023600755, 0.4852486, 41468.496, 186038.56, 0.000037529444, 10.002165, 9.998005 
1.9450922e+3, 2.9525128e+2, -47389.414, -254523.86, 12665.433, -0.2947768, 0.4931106, -46617.85, -29.505247, 0.00017698373, 10.000878, 9.998142 
1.9450933e+3, 3.052497e+2, 47668.2, -118153.27, -103718.93, -0.17160401, 0.49609292, 97542.27, 97542.27, 0.00049046375, 10.00092, 9.998724 
1.945094e+3, 3.1525025e+2, 341089.34, 157576.34, -31655.432, 0.11798431, 0.6318672, 346396.3, 346396.3, 0.000970849, 10.002317, 9.9999485 
1.955088e+3, 1.2526277e+2, -1869235.1, -2117917.0, 29115.586, 0.4077977, 0.7616025, -1865871.9, -153384.2, 0.22070916, 10.000265, 9.9971 
1.955083e+3, 1.352628e+2, -1507775.0, -1346582.5, 25767.387, -0.029887578, 0.51269144, -1342563.6, 271922.5, 0.15369554, 9.999733, 10.002303 
1.9550823e+3, 1.4526461e+2, -1539167.8, -1477829.0, 40295.35, -0.14577581, 0.5520607, -1457859.1, 58607.504, 0.08810495, 9.999599, 10.000498 
1.9550845e+3, 1.5526599e+2, -1435778.6, -1370091.5, 48288.633, -0.030044997, 0.61707914, -1344535.6, 73915.44, 0.037922986, 9.999623, 10.00053 
1.9550852e+3, 1.6526586e+2, -1434546.6, -1433140.5, 19108.035, -0.021441007, 0.6060495, -1414722.6, -94269.35, 0.010466628, 9.999449, 9.9994955 
1.9550858e+3, 1.752644e+2, -1374758.5, -1339443.3, 22868.92, -0.026244743, 0.48185232, -1328208.4, -105737.336, 0.0012294218, 9.999141, 9.999602 
1.9550863e+3, 1.8526492e+2, -1163848.8, -1074821.4, 41368.195, -0.051311575, 0.52351445, -1058566.8, 65901.18, 0.000009908067, 9.999438, 10.000607 
1.9550864e+3, 1.952673e+2, -935195.75, -903791.8, 99769.23, -0.11767555, 0.6763104, -818496.5, 207948.3, 0.0, 10.000301, 10.000687 
1.9550873e+3, 2.0526801e+2, -899466.75, -938175.5, 122510.47, -0.109532446, 0.72835976, -794791.25, 133644.44, 0.0, 10.000304, 9.999781 
1.9550891e+3, 2.1526727e+2, -893102.44, -877226.25, 149756.2, -0.011513253, 0.64897346, -735197.9, 95240.46, 0.0, 9.999656, 9.999832 
1.9550902e+3, 2.2526576e+2, -859308.75, -1034242.06, 167403.55, -0.021303084, 0.61964077, -757898.8, -25447.594, 0.0, 10.000158, 9.997853 
1.9550908e+3, 2.3526372e+2, -520711.13, -809222.56, 134337.88, -0.12686789, 0.6029713, -467846.63, 166625.02, 0.0, 10.001786, 9.9979315 
1.9550924e+3, 2.4526149e+2, -488006.2, -830663.3, 73191.72, -0.09394975, 0.6304446, -473027.2, 63468.043, 0.0, 10.001702, 9.997158 
1.9550952e+3, 2.552591e+2, -591164.0, -812659.6, 49760.82, 0.073534496, 0.6455888, -580498.44, -141976.98, 0.0, 10.0002575, 9.997295 
1.9550958e+3, 2.652571e+2, -360930.9, -469354.28, 28277.352, 0.04383483, 0.6311782, -353999.22, -13460.802, 0.00000003752054, 10.000355, 9.998948 
1.9550945e+3, 2.7525526e+2, -23426.85, -247087.38, 47248.055, -0.17319047, 0.5208972, -13855.356, 228693.05, 0.0000033154865, 10.001967, 9.999022 
1.9550934e+3, 2.852526e+2, -53232.94, -413703.7, -4749.4834, -0.29727942, 0.4522374, -53170.375, 91401.62, 0.00003554113, 10.001966, 9.997208 
1.9550934e+3, 2.952498e+2, -116599.85, -356291.13, -18972.299, -0.28473935, 0.4072036, -115107.42, -68505.24, 0.00016173386, 10.000712, 9.997517 
1.9550963e+3, 3.0524802e+2, -12353.434, -205604.58, -68181.67, 0.0073693255, 0.4401517, 9280.206, 9280.206, 0.0004325806, 10.000744, 9.998217 
1.955095e+3, 3.15247e+2, 214766.75, -17698.71, 27185.266, -0.05328214, 0.4785506, 217903.56, 217903.56, 0.00082958135, 10.001974, 9.998896 
1.9650869e+3, 1.2526356e+2, -1774365.8, -1963258.5, 56630.285, 0.280535, 0.72071457, -1758689.0, -46208.883, 0.23177752, 10.000484, 9.998037 
1.9650835e+3, 1.3526382e+2, -1611378.0, -1475352.9, -20087.113, 0.07485003, 0.56584764, -1472448.6, 142028.34, 0.1620495, 9.99932, 10.001459 
1.9650812e+3, 1.4526479e+2, -1776329.4, -1582545.3, 18588.021, -0.123411134, 0.57057863, -1580778.4, -64311.953, 0.093428105, 9.997963, 10.0005245 
1.965084e+3, 1.5526618e+2, -1727407.0, -1483626.5, 33313.656, 0.053213798, 0.6157194, -1479156.0, -60704.297, 0.04057487, 9.99753, 10.000729 
1.9650848e+3, 1.6526654e+2, -1542849.4, -1432738.5, 96357.89, 0.049241357, 0.6185032, -1376816.8, -56368.125, 0.011385711, 9.998483, 9.999963 
1.9650848e+3, 1.7526583e+2, -1124987.8, -1169021.5, 138749.64, -0.11493851, 0.5241437, -1006519.0, 215938.02, 0.0013940044, 10.00065, 10.000045 
1.9650854e+3, 1.8526644e+2, -936356.7, -1005860.7, 94025.55, -0.16570094, 0.5713194, -870866.5, 253586.94, 0.000014255441, 10.001166, 10.000253 
1.9650866e+3, 1.9526838e+2, -950800.8, -949284.3, 14887.546, -0.13017862, 0.7123784, -935135.75, 91301.41, 0.0, 10.000352, 10.000352 
1.965088e+3, 2.0526882e+2, -888080.4, -888122.3, -14118.329, -0.072224654, 0.73220295, -873983.0, 54446.43, 0.0, 10.0001745, 10.000196 
1.9650893e+3, 2.1526791e+2, -724665.94, -751935.8, -3522.2559, 0.0037242228, 0.5942808, -724218.4, 106210.91, 0.0, 10.000606, 10.000243 
1.965091e+3, 2.2526644e+2, -756369.06, -1041243.94, 85015.58, -0.0101419315, 0.57493764, -732926.8, -484.764, 0.0, 10.001115, 9.997345 
1.9650926e+3, 2.3526445e+2, -552237.06, -885693.25, 68293.21, -0.1258967, 0.61906195, -538792.4, 95674.31, 0.0, 10.001813, 9.997405 
1.9650944e+3, 2.452622e+2, -403849.63, -746131.1, 13624.089, -0.08923049, 0.652023, -403308.22, 133183.11, 0.0, 10.002078, 9.99756 
1.9650963e+3, 2.5525996e+2, -313651.06, -640081.6, 63002.203, 0.07583369, 0.64212394, -301913.47, 136600.36, 0.0, 10.0019865, 9.997651 
1.9650967e+3, 2.6525792e+2, -203702.73, -413570.03, 119830.29, 0.05336429, 0.6227482, -149355.6, 191174.92, 0.00000006167767, 10.0015335, 9.998759 
1.9650958e+3, 2.75256e+2, -208502.02, -356717.6, 72578.01, -0.16921335, 0.52194303, -178881.64, 63661.5, 0.000003603985, 10.000798, 9.998823 
1.9650954e+3, 2.8525338e+2, -182732.31, -479273.34, 37948.91, -0.26472393, 0.47034183, -177952.94, -33386.945, 0.00003406456, 10.001097, 9.997172 
1.9650957e+3, 2.952509e+2, 134415.17, -244979.56, 53704.03, -0.20958942, 0.46191996, 141870.58, 188462.22, 0.0001486936, 10.002471, 9.997442 
1.9650993e+3, 3.0524823e+2, 305156.75, -131557.64, 56084.3, 0.11596889, 0.44921973, 312244.25, 312244.25, 0.00038063264, 10.003265, 9.997518 
1.9650961e+3, 3.1524566e+2, 284181.4, -114815.23, -5950.188, -0.16336548, 0.41728497, 284270.13, 284270.13, 0.0006981761, 10.0029745, 9.99777 
1.9750835e+3, 1.2526394e+2, -1656565.0, -1692422.6, 181227.64, -0.16611503, 0.6667194, -1492381.5, 220096.84, 0.24301729, 10.000581, 10.000071 
1.9750841e+3, 1.3526407e+2, -1671679.4, -1586749.4, -73763.69, 0.18038547, 0.5559655, -1544100.5, 70377.64, 0.17062773, 9.999344, 10.000584 
1.97508e+3, 1.4526829e+2, -1764115.6, -1571697.0, -11520.267, -0.0689714, 0.9411591, -1571009.8, -54573.277, 0.09895461, 9.998016, 10.000576 
1.9750817e+3, 1.5526585e+2, -1690781.8, -1423984.4, 26991.342, 0.06661771, 0.5671463, -1421281.1, -2822.1384, 0.04335473, 9.997592, 10.001115 
1.9750835e+3, 1.6526634e+2, -1445576.1, -1248174.3, 171448.8, 0.03530199, 0.5015037, -1149045.5, 171406.78, 0.012356995, 9.99856, 10.001202 
1.9750844e+3, 1.7526998e+2, -1047073.56, -1003970.0, 221722.72, -0.24709436, 0.7224204, -802754.1, 419660.4, 0.0015709848, 10.000641, 10.0011835 
1.9750853e+3, 1.8527065e+2, -1078910.8, -1298321.4, 56312.52, -0.31797922, 0.8250759, -1065302.0, 59109.74, 0.000019593592, 10.001151, 9.998254 
1.9750868e+3, 1.9526859e+2, -1093028.3, -1233701.9, -6376.7124, -0.16249967, 0.7664742, -1092739.9, -66298.65, 0.0, 10.000308, 9.99842 
1.9750881e+3, 2.0526734e+2, -873002.94, -840365.0, -1240.6945, -0.07693683, 0.69270396, -840317.9, 88132.54, 0.0, 10.000107, 10.000554 
1.9750893e+3, 2.1526699e+2, -716974.06, -711732.5, 18930.473, -0.063282475, 0.5751566, -695242.25, 135197.6, 0.0, 10.000503, 10.000568 
1.9750917e+3, 2.2526547e+2, -789626.0, -1074832.5, 103558.516, -0.059958667, 0.54311633, -755990.6, -23538.426, 0.0, 10.000959, 9.9971895 
1.9750953e+3, 2.3526286e+2, -578221.3, -909293.94, 102550.445, -0.05341768, 0.5378096, -549029.94, 85455.914, 0.0, 10.001682, 9.997304 
1.9750965e+3, 2.4526115e+2, -321916.13, -540763.7, 4674.1167, -0.10775606, 0.5502602, -321816.34, 214687.19, 0.0, 10.001922, 9.999049 
1.9750954e+3, 2.552604e+2, -228069.73, -434854.84, 66575.625, -0.21261697, 0.54223365, -208489.39, 230015.7, 0.0, 10.001872, 9.999116 
1.9750963e+3, 2.652589e+2, -285831.47, -545719.94, 81960.3, -0.17043963, 0.5456034, -262143.05, 78374.04, 0.000000055759365, 10.00137, 9.997928 
1.9750986e+3, 2.7525687e+2, -282292.72, -476777.06, 54576.477, 0.0074719195, 0.5118907, -268024.22, -25487.146, 0.0000036492006, 10.000668, 9.998053 
1.9750993e+3, 2.8525537e+2, -161927.83, -407219.97, 76446.67, -0.0059837843, 0.5759242, -140053.47, 4496.9937, 0.00003270161, 10.000964, 9.997736 
1.9750988e+3, 2.9525426e+2, 153864.5, -173018.75, 122935.91, -0.1594536, 0.65401477, 194937.92, 241497.02, 0.00013867494, 10.002338, 9.998 
1.9751018e+3, 3.052502e+2, 172468.94, -332523.13, 38774.285, 0.02232873, 0.5319351, 175428.75, 175428.75, 0.0003432849, 10.002962, 9.996281 
1.9751e+3, 3.1524616e+2, 146653.17, -306389.3, -95357.36, -0.11484972, 0.46935394, 165906.02, 165906.02, 0.0006047334, 10.0026045, 9.996618 
1.9850819e+3, 1.2526426e+2, -1889817.9, -1663668.9, 236674.75, -0.25262016, 0.6556334, -1514444.4, 198029.3, 0.25424254, 9.998139, 10.001559 
1.985083e+3, 1.3526392e+2, -1843463.6, -1657660.4, -117595.555, 0.2187433, 0.482632, -1600697.4, 13781.449, 0.17932345, 9.998135, 10.000619 
1.985079e+3, 1.4527003e+2, -1707966.5, -1566908.3, 58387.695, 0.012097335, 1.0697875, -1545876.1, -29456.805, 0.104643695, 9.998498, 10.000382 
1.9850804e+3, 1.552664e+2, -1339130.3, -1268476.8, 51804.41, 0.052053664, 0.58870304, -1241100.4, 177353.86, 0.046255346, 10.000075, 10.001034 
1.9850826e+3, 1.652664e+2, -1256965.1, -1180800.3, 128469.66, 0.032450743, 0.48480514, -1084887.5, 235565.67, 0.013380272, 9.999964, 10.000985 
1.9850844e+3, 1.7527038e+2, -1373232.0, -1184741.1, 61835.582, -0.19620001, 0.7631629, -1166266.4, 56145.81, 0.0017591557, 9.9985, 10.000974 
1.9850858e+3, 1.8527114e+2, -1451476.0, -1441717.9, -51872.18, -0.2406911, 0.86923516, -1394495.8, -270088.66, 0.0000256483, 9.998433, 9.998578 
1.9850875e+3, 1.9526878e+2, -1147966.5, -1229675.5, 43147.285, -0.0854611, 0.74612725, -1129400.6, -102963.7, 0.0, 9.999785, 9.998702 
1.9850892e+3, 2.0526718e+2, -863509.0, -925993.94, 101898.33, -0.013594824, 0.6644792, -788171.2, 140279.45, 0.0, 10.000567, 9.999742 
1.9850904e+3, 2.1526645e+2, -706972.5, -794683.0, 22641.537, -0.04106092, 0.59186894, -701472.7, 128975.125, 0.0, 10.000958, 9.999775 
1.9850926e+3, 2.2526504e+2, -781058.25, -984393.6, 97295.35, -0.040400814, 0.56942505, -742003.8, -9544.162, 0.0, 10.000645, 9.99796 
1.9850962e+3, 2.35263e+2, -812723.56, -933063.25, 149827.3, -0.013594685, 0.5415736, -711435.56, -76950.57, 0.0, 9.999698, 9.998086 
1.985098e+3, 2.4526191e+2, -578365.0, -636574.7, 80924.68, -0.056040913, 0.5654727, -521470.44, 15025.587, 0.0, 10.000062, 9.999275 
1.9850975e+3, 2.5526166e+2, -239374.86, -417369.66, 32487.941, -0.1804355, 0.5847161, -233630.48, 204863.84, 0.0, 10.001699, 9.999317 
1.9850986e+3, 2.6526016e+2, -152950.61, -492098.28, -2666.9058, -0.13522688, 0.5826968, -152929.64, 187577.58, 0.00000004684117, 10.002325, 9.997838 
1.9851004e+3, 2.752578e+2, -91567.39, -401771.44, 2048.153, 0.058266964, 0.5312752, -91553.87, 150976.84, 0.000003631824, 10.002031, 9.997922 
1.9851017e+3, 2.852564e+2, 34864.277, -303196.66, 106707.56, 0.08395174, 0.61070114, 65728.29, 210272.05, 0.000030883682, 10.00228, 9.997816 
1.9851026e+3, 2.9525554e+2, 263677.72, -113721.266, 91781.06, -0.04905421, 0.7100341, 284814.5, 331365.03, 0.00012816787, 10.003075, 9.99805 
1.9851041e+3, 3.0525193e+2, 197364.3, -282740.38, 3862.4417, -0.036274735, 0.6136141, 197395.38, 197395.38, 0.00031301912, 10.002954, 9.996624 
1.9851033e+3, 3.1524748e+2, 82716.24, -275101.34, -132073.27, 0.017903019, 0.47703257, 126184.836, 126184.836, 0.0005440033, 10.001867, 9.997194 
1.9950818e+3, 1.2526356e+2, -1827046.1, -1562955.6, 182729.45, -0.11723468, 0.6056284, -1469554.6, 242920.75, 0.26535824, 9.998166, 10.002377 
1.9950803e+3, 1.3526328e+2, -1769157.5, -1535498.8, -130769.87, 0.09819916, 0.350698, -1476971.8, 137507.73, 0.18805622, 9.998199, 10.001594 
1.9950782e+3, 1.4526989e+2, -1720415.4, -1615539.4, 106534.36, 0.04915603, 0.9485567, -1549236.9, -32820.508, 0.11045076, 9.998594, 10.000004 
1.9950795e+3, 1.5526769e+2, -1376432.4, -1345572.5, 110938.05, -0.0582993, 0.6671319, -1248996.5, 169442.81, 0.04926506, 10.000083, 10.000486 
1.9950822e+3, 1.6526651e+2, -1362636.9, -1407658.3, 65895.29, -0.04158754, 0.55592173, -1315513.4, 4939.2935, 0.014456319, 9.999991, 9.999403 
1.9950847e+3, 1.7526707e+2, -1473648.6, -1399158.6, 13041.916, -0.02509409, 0.6497472, -1396941.3, -174491.81, 0.0019582892, 9.99852, 9.999493 
1.9950867e+3, 1.8526796e+2, -1267509.4, -1066631.5, -5431.911, -0.013272365, 0.70613915, -1066484.8, 57954.668, 0.000032105352, 9.9984665, 10.001135 
1.9950888e+3, 1.9526884e+2, -980987.3, -873463.94, 97701.44, 0.04154526, 0.6554561, -815709.3, 210716.66, 0.0, 9.999754, 10.001159 
1.9950904e+3, 2.0526814e+2, -1010622.3, -1214580.8, 107499.52, 0.04674643, 0.6431502, -964426.25, -35994.105, 0.0, 10.000493, 9.997797 
1.9950917e+3, 2.1526615e+2, -851492.7, -1072018.3, 43038.355, 0.0036332163, 0.63928014, -843390.8, -12936.24, 0.0, 10.00086, 9.997918 
1.9950935e+3, 2.2526506e+2, -682265.25, -751726.1, 59562.754, -0.039479226, 0.6522334, -648046.94, 84418.21, 0.0, 10.000522, 9.999618 
1.9950956e+3, 2.3526476e+2, -713737.94, -708654.44, 126505.44, -0.06832332, 0.6330858, -584665.2, 49799.684, 0.0, 9.99961, 9.999671 
1.9950984e+3, 2.4526422e+2, -678356.0, -806936.25, 134125.19, -0.026206467, 0.6882539, -593908.8, -57437.59, 0.0, 9.999903, 9.998182 
1.9951022e+3, 2.5526354e+2, -329581.56, -573967.75, 98369.94, 0.09397231, 0.770677, -294905.94, 143576.45, 0.0, 10.001571, 9.998301 
1.995103e+3, 2.652616e+2, -141131.64, -428988.03, -20870.703, 0.06836777, 0.7450776, -139626.31, 200874.7, 0.000000042002604, 10.002161, 9.99835 
1.9951011e+3, 2.7525857e+2, -77408.31, -339146.75, 2167.2705, -0.08482622, 0.57755584, -77390.37, 165135.25, 0.0000035134383, 10.0019, 9.998409 
1.9951023e+3, 2.852563e+2, -27503.049, -393996.72, 125653.69, -0.09552414, 0.5715711, 11439.791, 155987.2, 0.00002820436, 10.002113, 9.997272 
1.9951066e+3, 2.9525468e+2, 204562.03, -199642.11, 134209.36, 0.023526423, 0.63643926, 245065.4, 291631.97, 0.00011358975, 10.002912, 9.997537 
1.9951059e+3, 3.0525348e+2, 260884.42, -73325.1, -49234.258, -0.18685317, 0.72667456, 267986.47, 267986.47, 0.00027751442, 10.002637, 9.998205 
1.9951054e+3, 3.1524953e+2, 169340.05, -11557.915, -130873.086, -0.007635701, 0.46112123, 237978.4, 237978.4, 0.0004885508, 10.001543, 9.999141 
2.0050792e+3, 1.2526219e+2, -2239692.8, -1675164.3, 73897.71, -0.032889772, 0.57725585, -1665651.3, 46836.273, 0.27641812, 9.995007, 10.002776 
2.0050769e+3, 1.352626e+2, -1758546.8, -1458033.8, -155820.44, -0.035184074, 0.31779784, -1391825.5, 222658.45, 0.1968332, 9.997892, 10.002403 
2.0050767e+3, 1.4526959e+2, -1631179.4, -1618905.1, 49538.734, 0.0051871, 0.9277441, -1575124.8, -58707.027, 0.11636926, 9.999409, 9.99958 
2.0050791e+3, 1.5526752e+2, -1578505.5, -1512997.1, 36951.83, -0.043093972, 0.71892333, -1496372.4, -77929.734, 0.05238356, 9.998979, 9.999838 
2.0050818e+3, 1.6526574e+2, -1534253.3, -1473825.9, 20169.223, -0.0076634595, 0.57342905, -1467712.4, -147250.8, 0.015589432, 9.998745, 9.999552 
2.005084e+3, 1.7526527e+2, -1388209.4, -1339378.8, 85491.78, 0.025663184, 0.54548573, -1274884.3, -52419.555, 0.0021699998, 9.99903, 9.999656 
2.0050862e+3, 1.8526612e+2, -1129125.5, -989548.3, 99712.91, 0.047274336, 0.5871183, -937627.75, 186825.33, 0.00003871999, 9.999377, 10.001223 
2.0050889e+3, 1.952679e+2, -946744.2, -850764.8, 8531.829, 0.0693342, 0.61703146, -850012.3, 176418.5, 0.0, 9.9999695, 10.001206 
2.0050909e+3, 2.0526738e+2, -1041791.8, -1250421.4, -11543.742, 0.048614744, 0.6295024, -1041155.0, -112718.195, 0.0, 10.000365, 9.997616 
2.0050924e+3, 2.1526493e+2, -887267.0, -1105770.0, 42017.777, -0.025704408, 0.597907, -879465.6, -48998.84, 0.0, 10.000679, 9.997778 
2.0050943e+3, 2.2526419e+2, -571608.56, -654090.8, 60421.84, -0.045263764, 0.6323925, -539694.8, 192779.98, 0.0, 10.001104, 10.000005 
2.0050965e+3, 2.352649e+2, -380957.47, -505435.56, 17246.357, -0.02380935, 0.6785116, -378612.2, 255851.42, 0.0, 10.001729, 10.000043 
2.0050998e+3, 2.4526441e+2, -441426.06, -704459.94, 50480.46, 0.041426603, 0.7261158, -432070.78, 104398.36, 0.0, 10.001547, 9.99811 
2.0051035e+3, 2.552629e+2, -479000.28, -655650.6, 75563.24, 0.13652425, 0.7383842, -451088.03, -12599.191, 0.0, 10.000563, 9.998236 
2.0051046e+3, 2.6526123e+2, -287826.56, -463971.97, 13590.699, 0.07521846, 0.72475713, -286784.13, 53721.316, 0.000000029896977, 10.001007, 9.998656 
2.0051031e+3, 2.7525917e+2, 84286.734, -231031.03, 3273.712, -0.12682009, 0.62228006, 84320.72, 326841.8, 0.0000031274246, 10.002879, 9.998676 
2.005105e+3, 2.852567e+2, 161673.7, -298541.56, 126686.29, -0.09562289, 0.58385766, 194242.56, 338787.78, 0.000025154262, 10.003388, 9.997319 
2.00511e+3, 2.9525423e+2, 134140.4, -235470.06, 136969.84, 0.093724996, 0.56491965, 179364.97, 225939.03, 0.00009776422, 10.002435, 9.997522 
2.0051078e+3, 3.052542e+2, 318937.3, 35774.266, -19074.018, -0.22585484, 0.7398324, 320216.38, 320216.38, 0.00024033496, 10.002667, 9.998959 
2.0051089e+3, 3.152514e+2, 678506.6, 324892.16, -121189.92, 0.036367804, 0.5164029, 716053.75, 716053.75, 0.00043298, 10.004612, 10.000004 
2.0150732e+3, 1.2525974e+2, -2227246.0, -1677606.6, -124757.445, -0.19068094, 0.5252128, -1650614.6, 61899.39, 0.28771394, 9.9951, 10.0027685 
2.0150729e+3, 1.3526177e+2, -1704234.8, -1373556.0, -41917.69, -0.25522205, 0.3788733, -1368325.3, 246167.05, 0.20582092, 9.997881, 10.003105 
2.0150743e+3, 1.4526905e+2, -1661490.9, -1687874.4, 31990.354, -0.20023036, 0.99589163, -1640079.1, -123654.37, 0.12247417, 9.999428, 9.9991 
2.015079e+3, 1.5526591e+2, -1623758.6, -1609655.6, 25691.414, 0.02742772, 0.7500089, -1590065.5, -171601.45, 0.055639356, 9.99899, 9.999168 
2.0150813e+3, 1.6526419e+2, -1398326.5, -1206937.9, 22128.143, 0.046398085, 0.54752237, -1204412.8, 116065.805, 0.016791714, 9.998802, 10.00137 
2.015082e+3, 1.7526478e+2, -1268115.1, -1087402.1, 100558.54, -0.09513936, 0.44642064, -1042568.75, 179891.27, 0.0023981123, 9.999021, 10.001391 
2.0150842e+3, 1.8526547e+2, -1286152.1, -1323655.0, 110850.85, -0.12959841, 0.50459486, -1192477.9, -68027.84, 0.000045425786, 9.999406, 9.998919 
2.0150876e+3, 1.9526595e+2, -1108092.0, -1179059.3, 34530.457, -0.0686013, 0.63805354, -1094063.5, -67612.34, 0.0, 9.999941, 9.998968 
2.01509e+3, 2.0526499e+2, -943468.8, -1028146.44, -5721.553, -0.09502181, 0.63433725, -943084.0, -14620.638, 0.0, 10.00029, 9.999175 
2.0150915e+3, 2.1526285e+2, -806779.4, -903967.94, 59875.53, -0.18491645, 0.48135436, -778260.2, 52223.77, 0.0, 10.000538, 9.9992285 
2.0150945e+3, 2.2526231e+2, -661220.0, -803948.06, 77566.625, -0.13670638, 0.5171617, -627182.9, 105307.0, 0.0, 10.000938, 9.99906 
2.0150992e+3, 2.3526324e+2, -453564.0, -641653.25, 47476.62, 0.05123167, 0.6765652, -442259.56, 192222.86, 0.0, 10.001649, 9.999153 
2.0151016e+3, 2.4526232e+2, -399981.47, -580042.7, 10977.106, 0.053511027, 0.67845273, -399314.72, 137176.31, 0.0, 10.001393, 9.999032 
2.0151018e+3, 2.5525984e+2, -436242.22, -535343.2, 49100.684, -0.10910045, 0.498716, -416035.06, 22478.455, 0.0, 10.000444, 9.999112 
2.0151031e+3, 2.6525894e+2, -306049.22, -471311.78, 76506.11, -0.18966237, 0.5214855, -276070.03, 64452.04, 0.0000000091701935, 10.000874, 9.998673 
2.0151058e+3, 2.7525946e+2, 69060.64, -229834.1, 84239.93, -0.14887932, 0.67232126, 91167.586, 333685.47, 0.0000023642951, 10.002741, 9.998751 
2.015109e+3, 2.8525773e+2, 158959.28, -254199.16, 79436.53, -0.041083224, 0.6784734, 173705.92, 318242.38, 0.000021595964, 10.003182, 9.997715 
2.0151123e+3, 2.9525393e+2, 138747.33, -200918.78, 107884.05, 0.0708849, 0.48855224, 170116.25, 216691.9, 0.000083873885, 10.002316, 9.997818 
2.01511e+3, 3.0525362e+2, 265979.22, -9606.251, 28621.762, -0.30741107, 0.63125604, 268920.4, 268920.4, 0.00020822513, 10.002413, 9.998756 
2.015112e+3, 3.1525543e+2, 604094.94, 299237.2, 140369.55, -0.1363073, 0.869467, 658881.4, 658881.4, 0.00038286584, 10.004107, 10.000047 
2.0250699e+3, 1.2525946e+2, -1923007.6, -1689418.6, -81922.055, -0.15599309, 0.592994, -1663552.1, 48965.42, 0.29983783, 9.997905, 10.001297 
2.0250718e+3, 1.3526092e+2, -1810489.3, -1449703.9, -5251.9214, -0.12143807, 0.44636792, -1449627.5, 164874.4, 0.21537028, 9.997352, 10.002706 
2.0250715e+3, 1.452661e+2, -1839461.5, -1723520.4, 42873.87, -0.3460819, 0.8429013, -1709388.5, -192933.97, 0.12892798, 9.997991, 9.99955 
2.025078e+3, 1.5526463e+2, -1567779.6, -1555983.1, 85438.38, 0.022416882, 0.73619056, -1476239.6, -57763.176, 0.05909158, 9.999257, 9.999408 
2.0250809e+3, 1.6526365e+2, -1273010.1, -1156302.6, 41094.668, 0.08774975, 0.6046825, -1143284.5, 177198.16, 0.018083457, 9.999708, 10.0012865 
2.025081e+3, 1.7526409e+2, -1179241.4, -1055473.4, -27571.363, -0.11195287, 0.49564677, -1049609.3, 172856.27, 0.0026487417, 9.999689, 10.001286 
2.0250832e+3, 1.852641e+2, -1272076.8, -1382496.4, 6337.3403, -0.17904049, 0.5214202, -1271714.1, -147250.86, 0.000052423693, 9.999783, 9.998332 
2.0250867e+3, 1.9526345e+2, -1110272.0, -1242412.0, 44824.063, -0.15039848, 0.5968721, -1096502.0, -70024.27, 0.0, 10.000178, 9.998423 
2.0250899e+3, 2.0526288e+2, -935243.56, -910131.7, 29259.25, -0.113570005, 0.6084201, -890848.06, 37637.03, 0.0, 9.999861, 10.000187 
2.0250921e+3, 2.152625e+2, -956890.9, -870046.2, 43323.984, -0.08491753, 0.52861184, -852129.6, -21643.926, 0.0, 9.999044, 10.000178 
2.0250955e+3, 2.2526202e+2, -905500.56, -954955.7, 134428.22, -0.04409672, 0.53821313, -793544.56, -61054.24, 0.0, 9.99941, 9.998754 
2.0251e+3, 2.3526154e+2, -579460.0, -730223.25, 137665.84, 0.0010500207, 0.58852285, -497888.56, 136609.2, 0.0, 10.000916, 9.99889 
2.0251022e+3, 2.4526067e+2, -311564.8, -491195.34, 60680.457, -0.028245613, 0.58476233, -292987.72, 243518.1, 0.0, 10.001811, 9.999435 
2.0251027e+3, 2.5525934e+2, -155636.53, -360863.5, 50988.29, -0.14717424, 0.48263556, -143666.72, 294848.66, 0.0, 10.002204, 9.999459 
2.0251048e+3, 2.6525855e+2, -162939.47, -477317.4, 84413.21, -0.17525546, 0.53378546, -141707.69, 198817.0, 0.000000001074916, 10.002165, 9.998017 
2.0251083e+3, 2.7525836e+2, -132574.36, -397958.3, 19825.004, -0.105246104, 0.68156713, -131101.55, 111431.164, 0.0000018159459, 10.001655, 9.998122 
2.0251118e+3, 2.85257e+2, -6535.232, -272918.78, -16402.404, -0.012307993, 0.72916645, -5529.0645, 139018.83, 0.000018189116, 10.001767, 9.998273 
2.0251143e+3, 2.9525456e+2, 192852.14, -105231.79, -2515.233, 0.027166, 0.6142542, 192873.36, 239443.67, 0.000072171526, 10.002404, 9.998422 
2.0251137e+3, 3.0525202e+2, 280635.1, -131308.75, -34491.496, -0.21258059, 0.56050617, 283503.03, 283503.03, 0.00017992141, 10.003008, 9.99766 
2.0251152e+3, 3.15254e+2, 468469.66, 175265.5, 31543.438, -0.17532355, 0.9408191, 471824.75, 471824.75, 0.00033497292, 10.003391, 9.999547 
2.0350687e+3, 1.2526111e+2, -2129264.8, -2129864.5, -39046.36, -0.11393943, 0.73193604, -2090517.1, -378016.78, 0.3135409, 9.998008, 9.998101 
2.0350733e+3, 1.3526003e+2, -1912013.5, -1627009.5, -1278.0935, 0.28080344, 0.5203892, -1627003.8, -12491.351, 0.22593072, 9.997393, 10.001161 
2.0350678e+3, 1.4526063e+2, -1733023.3, -1528899.4, 81365.805, -0.5409099, 0.46666807, -1500435.3, 16072.635, 0.13594478, 9.998093, 10.000854 
2.035076e+3, 1.552635e+2, -1490687.5, -1397001.1, 128222.375, -0.119588524, 0.6735273, -1307333.3, 111148.05, 0.06282382, 9.999264, 10.000528 
2.0350805e+3, 1.6526408e+2, -1399555.6, -1429780.0, 29889.08, 0.031114912, 0.74089956, -1381175.5, -60700.54, 0.019494196, 9.999754, 9.999367 
2.0350811e+3, 1.7526324e+2, -1302836.5, -1317802.0, -22324.902, -0.09550858, 0.69225574, -1286773.8, -64293.086, 0.0029308582, 9.999707, 9.999474 
2.035083e+3, 1.8526202e+2, -1194448.4, -1228624.8, 18850.887, -0.19224414, 0.6289701, -1186093.3, -61601.047, 0.00006041413, 9.999816, 9.9993725 
2.0350863e+3, 1.9526033e+2, -1044894.3, -1092941.3, 65041.387, -0.23850372, 0.49807712, -999581.56, 26928.895, 0.0, 10.000125, 9.999475 
2.03509e+3, 2.0526095e+2, -907959.7, -842560.8, -9700.688, -0.10660683, 0.5490496, -841152.25, 87351.43, 0.0, 9.999811, 10.000675 
2.0350942e+3, 2.1526372e+2, -931953.0, -802343.8, 19555.066, 0.19770569, 0.7360011, -799457.7, 31015.563, 0.0, 9.998971, 10.000682 
2.0350969e+3, 2.2526321e+2, -905245.44, -915770.0, 186650.63, 0.13738243, 0.6994877, -723782.9, 8693.73, 0.0, 9.999251, 9.999096 
2.0350987e+3, 2.3525973e+2, -581003.75, -700760.75, 203354.72, -0.22883762, 0.41612256, -428895.06, 205615.6, 0.0, 10.00078, 9.999157 
2.0351018e+3, 2.4525914e+2, -346099.1, -521589.72, 69478.85, -0.28456816, 0.4359135, -321922.3, 214594.11, 0.0, 10.001632, 9.999314 
2.035106e+3, 2.552612e+2, -179504.5, -388544.5, 71469.61, -0.05187292, 0.6827371, -157405.64, 281090.9, 0.0, 10.002101, 9.999325 
2.035109e+3, 2.6525992e+2, -288737.72, -692970.25, 59733.355, 0.0015743212, 0.76305676, -280095.7, 60419.195, 0.000000023664393, 10.001983, 9.996617 
2.0351104e+3, 2.7525565e+2, -247012.44, -606772.25, 13928.927, -0.07812021, 0.6385904, -246473.95, -3906.3647, 0.0000019634658, 10.001531, 9.996748 
2.035113e+3, 2.8525433e+2, 14179.747, -184107.33, -2387.2537, -0.09903265, 0.7226782, 14208.484, 158790.22, 0.000016146072, 10.001579, 9.998971 
2.0351155e+3, 2.9525587e+2, 231082.45, -2534.9492, 35647.734, -0.10512959, 0.9336696, 236400.88, 282960.25, 0.00006227005, 10.002289, 9.999191 
2.0351177e+3, 3.0524924e+2, 67819.81, -473989.66, -30358.111, -0.116682336, 0.53836805, 69515.5, 69515.5, 0.0001542965, 10.002618, 9.995473 
2.0351194e+3, 3.152448e+2, 340467.5, 4194.016, 129328.78, -0.14680858, 0.48804724, 384453.13, 384453.13, 0.0002896245, 10.003013, 9.998538 
2.045066e+3, 1.2525856e+2, -2262518.5, -2149357.3, -65689.88, -0.12204093, 0.73500764, -2119240.0, -406710.88, 0.3294151, 9.996905, 9.998501 
2.0450729e+3, 1.3525818e+2, -1871290.1, -1675414.0, -112117.266, 0.47104114, 0.6502131, -1624482.5, -9948.636, 0.23787552, 9.997962, 10.000563 
2.0450656e+3, 1.4525701e+2, -1776180.3, -1527200.8, -15970.982, -0.5450891, 0.44248745, -1526180.5, -9634.954, 0.14372098, 9.997706, 10.001035 
2.0450744e+3, 1.5526012e+2, -1696004.8, -1461270.6, -45007.734, -0.13682424, 0.6450859, -1452936.8, -34422.46, 0.06692591, 9.997704, 10.000805 
2.0450798e+3, 1.652611e+2, -1594148.0, -1547322.4, -90055.97, 0.05367617, 0.7501261, -1477685.5, -157180.6, 0.021061258, 9.9985285, 9.999146 
2.0450816e+3, 1.7526045e+2, -1256496.9, -1317746.3, -40939.69, -0.042457838, 0.7405641, -1235994.9, -13482.091, 0.003256253, 10.000123, 9.9992695 
2.0450836e+3, 1.8525958e+2, -1128064.8, -1112331.1, 2737.712, -0.11904043, 0.68391687, -1111868.4, 12652.801, 0.00007088071, 9.999914, 10.000124 
2.0450862e+3, 1.9525848e+2, -1270295.6, -1118947.6, 17038.543, -0.16236874, 0.5381652, -1117053.1, -90522.625, 0.0, 9.99823, 10.000207 
2.0450896e+3, 2.0525923e+2, -1114189.8, -951351.56, -30234.357, -0.048477605, 0.5728593, -945919.1, -17398.11, 0.0, 9.998432, 10.000599 
2.0450939e+3, 2.152618e+2, -712025.8, -695846.06, -57733.99, 0.19879681, 0.74339604, -645637.9, 184855.03, 0.0, 10.000495, 10.000673 
2.045097e+3, 2.2526142e+2, -636794.6, -748282.0, 86485.09, 0.14131807, 0.70240444, -589645.06, 142849.14, 0.0, 10.00091, 9.999453 
2.0450993e+3, 2.3525825e+2, -695850.4, -717890.4, 95221.53, -0.20079224, 0.41602066, -611013.3, 23510.078, 0.0, 9.999815, 9.999502 
2.0451027e+3, 2.4525797e+2, -666731.9, -705442.56, -14968.193, -0.24976309, 0.46188074, -661619.4, -125092.195, 0.0, 9.999553, 9.999053 
2.045107e+3, 2.5526038e+2, -496951.25, -565607.5, -37106.586, -0.049633406, 0.76994985, -480729.22, -42221.875, 0.0, 10.000034, 9.999096 
2.0451103e+3, 2.6525888e+2, -419396.72, -723104.25, 22900.832, 0.011667492, 0.82247305, -417679.63, -77151.98, 0.00000011200642, 10.000938, 9.996916 
2.0451128e+3, 2.7525383e+2, -129274.84, -517168.13, 82903.54, -0.032170013, 0.59348655, -112299.0, 130285.12, 0.000002326167, 10.002211, 9.997029 
2.0451157e+3, 2.8525236e+2, 204695.69, -163573.73, 102270.38, -0.05066475, 0.6776888, 231190.56, 375789.97, 0.000014696717, 10.003181, 9.998344 
2.0451185e+3, 2.9525417e+2, 400896.78, 16347.735, 8775.763, -0.093875565, 0.98730356, 401096.94, 447673.3, 0.00005375532, 10.003734, 9.998622 
2.0451225e+3, 3.0524772e+2, 323768.7, -358361.78, -1595.0974, 0.017553382, 0.6344713, 323772.4, 323772.4, 0.00013235425, 10.004403, 9.995403 
2.045124e+3, 3.152417e+2, 607108.4, 36248.266, 195330.84, -0.08549447, 0.45450914, 667546.0, 667546.0, 0.00025227523, 10.005228, 9.997698 
2.0550625e+3, 1.2525322e+2, -1968201.4, -1607894.6, 166478.05, -0.22072206, 0.72691137, -1542751.9, 169838.17, 0.3476065, 9.996983, 10.002713 
2.0550701e+3, 1.3525553e+2, -1844927.0, -1635041.3, -94316.48, 0.36497998, 0.8391815, -1598886.3, 15678.449, 0.2513395, 9.998007, 10.000851 
2.0550644e+3, 1.4525512e+2, -1835415.6, -1654107.1, -34416.44, -0.4697327, 0.75722754, -1647794.0, -131226.11, 0.15236652, 9.997724, 10.000156 
2.0550725e+3, 1.5525466e+2, -1722654.1, -1521707.8, -33895.1, -0.118776724, 0.6558746, -1516144.4, -97571.22, 0.071473114, 9.9977255, 10.0003805 
2.0550786e+3, 1.6525494e+2, -1492390.9, -1354927.0, -33282.74, 0.06703053, 0.63980705, -1347292.5, -26721.973, 0.022826005, 9.998598, 10.000441 
2.055082e+3, 1.7525569e+2, -1171397.3, -1142079.5, 20295.023, -0.01430682, 0.65043265, -1131703.0, 90859.29, 0.0036400491, 10.000121, 10.0004835 
2.0550844e+3, 1.8525659e+2, -1088074.1, -1037003.0, -67877.04, -0.05222245, 0.68659747, -990017.1, 134535.14, 0.00008593674, 9.99994, 10.00063 
2.0550862e+3, 1.9525771e+2, -1236266.8, -1051367.0, -38579.824, 0.00091311353, 0.7104905, -1043640.1, -17100.293, 0.0, 9.998236, 10.000671 
2.0550886e+3, 2.0525765e+2, -1164748.9, -1049659.9, 41151.38, -0.027871957, 0.6757995, -1036459.75, -107921.59, 0.0, 9.998405, 9.999935 
2.0550913e+3, 2.1525657e+2, -772234.3, -798143.0, 23993.299, -0.1327622, 0.54766864, -757921.56, 72624.14, 0.0, 10.000391, 10.000022 
2.0550954e+3, 2.252564e+2, -634210.6, -699151.94, 39842.78, -0.12182928, 0.5346482, -615282.94, 117262.22, 0.0, 10.0007305, 9.999872 
2.0551012e+3, 2.35257e+2, -684501.9, -665764.5, 61778.633, 0.0066719516, 0.58330613, -612648.25, 21889.096, 0.0, 9.999694, 9.999919 
2.0551045e+3, 2.4525711e+2, -722196.94, -773840.8, -3447.6194, -0.02618659, 0.6659584, -721967.8, -185428.86, 0.0, 9.999364, 9.99867 
2.0551057e+3, 2.5525683e+2, -539393.9, -625411.3, -9615.376, -0.20250303, 0.7419516, -538332.2, -99783.59, 0.0, 9.999921, 9.998737 
2.0551091e+3, 2.6525527e+2, -308245.13, -455170.0, 63096.926, -0.21673626, 0.71151024, -284867.72, 55696.625, 0.00000017468948, 10.00078, 9.99883 
2.055115e+3, 2.7525273e+2, -15634.442, -262499.4, 139202.53, -0.05059071, 0.5382353, 46978.566, 289563.66, 0.0000023499456, 10.00212, 9.998826 
2.0551196e+3, 2.8525072e+2, 18122.0, -487519.75, 112234.42, 0.005610865, 0.5949318, 41914.504, 186519.0, 0.000012296112, 10.002927, 9.996233 
2.055123e+3, 2.9524922e+2, 243013.55, -279100.94, 42368.863, -0.051451623, 0.76898766, 246429.38, 293053.0, 0.000044415407, 10.003596, 9.996655 
2.0551276e+3, 3.052464e+2, 389951.53, -130933.58, 7578.275, 0.053433876, 0.7852134, 390061.75, 390061.75, 0.00011223961, 10.0040455, 9.997127 
2.055129e+3, 3.1524366e+2, 456915.6, -163258.84, 144666.53, -0.16314566, 0.76064056, 489001.56, 489001.56, 0.00022214535, 10.00475, 9.996556 
2.0650595e+3, 1.2524758e+2, -1939335.1, -1408538.4, 199246.23, -0.1644613, 0.7182117, -1342070.3, 370576.9, 0.36771804, 9.995975, 10.005346 
2.0650668e+3, 1.3525026e+2, -2068286.9, -1718294.5, -141516.08, 0.3412911, 0.82470095, -1668234.1, -53617.656, 0.26616043, 9.996375, 10.001028 
2.0650637e+3, 1.4525074e+2, -1860707.9, -1656024.8, 1750.12, -0.30826068, 0.82068396, -1656009.8, -139399.52, 0.1618756, 9.9975, 10.000253 
2.0650715e+3, 1.5524967e+2, -1472352.5, -1378756.1, 41270.188, -0.06832802, 0.6355986, -1363158.0, 55464.086, 0.07651462, 9.999339, 10.000608 
2.0650774e+3, 1.6525029e+2, -1319033.4, -1210604.5, 26290.14, 0.041276198, 0.61258924, -1204566.4, 116050.17, 0.024829434, 9.999515, 10.001005 
2.0650806e+3, 1.7525205e+2, -1394517.6, -1187453.9, 17655.893, -0.08034684, 0.6655191, -1185959.1, 36640.055, 0.0041003036, 9.998323, 10.001033 
2.0650832e+3, 1.8525364e+2, -1335939.5, -1134681.0, -111365.66, -0.0740783, 0.73281944, -1085215.1, 39367.69, 0.000108260756, 9.998155, 10.000815 
2.0650856e+3, 1.9525525e+2, -1096400.9, -958782.0, -117690.48, 0.07205381, 0.78796375, -891261.75, 135303.73, 0.0, 9.999098, 10.000886 
2.0650882e+3, 2.0525482e+2, -1030057.5, -1002357.9, 28382.854, 0.03721578, 0.7138065, -984626.0, -56059.152, 0.0, 9.999408, 9.999775 
2.0650904e+3, 2.1525255e+2, -951434.1, -903673.94, 34254.984, -0.18466377, 0.48387462, -885796.9, -55211.676, 0.0, 9.999248, 9.999849 
2.0650952e+3, 2.2525227e+2, -833867.94, -795430.94, 19393.607, -0.15477706, 0.4720716, -787346.25, -54760.863, 0.0, 9.999361, 9.999876 
2.0651019e+3, 2.3525387e+2, -681340.25, -663029.8, -3124.3938, 0.11012515, 0.6207205, -662511.3, -27942.67, 0.0, 9.999719, 9.999926 
2.0651054e+3, 2.452539e+2, -585839.0, -722672.6, -22787.238, 0.07638067, 0.7012023, -582143.94, -45573.094, 0.0, 10.000351, 9.99855 
2.0651057e+3, 2.5525245e+2, -358798.66, -549021.7, -24969.584, -0.24861282, 0.67200536, -355575.66, 83014.97, 0.0, 10.001204, 9.998645 
2.0651099e+3, 2.652509e+2, -129541.79, -355369.22, 14492.213, -0.28636703, 0.6371902, -128615.56, 211989.94, 0.00000012472299, 10.001938, 9.998962 
2.0651172e+3, 2.7524933e+2, 60772.355, -207705.56, -56119.44, -0.054887205, 0.55418324, 72030.78, 314646.3, 0.0000018192295, 10.002567, 9.998985 
2.065123e+3, 2.852474e+2, 49884.367, -460489.7, -55297.594, 0.057533402, 0.5972951, 55806.977, 200441.4, 0.000008845643, 10.003084, 9.996349 
2.0651269e+3, 2.9524484e+2, 204548.8, -297513.0, -870.2987, 0.0171688, 0.6641146, 204550.3, 251213.9, 0.000033872344, 10.003342, 9.996651 
2.0651321e+3, 3.052429e+2, 382553.9, -136196.66, 5240.0894, 0.11631024, 0.77125317, 382606.8, 382606.8, 0.00009224371, 10.003948, 9.99717 
2.0651355e+3, 3.1523976e+2, 480135.9, -146191.72, -57218.15, 0.022845093, 0.69959027, 485320.2, 485320.2, 0.00019314763, 10.004845, 9.9966545 
2.0750557e+3, 1.2524098e+2, -1848417.8, -1326709.3, 55046.375, -0.20417835, 0.6460516, -1320964.5, 391742.9, 0.38886976, 9.996021, 10.006253 
2.075063e+3, 1.3524225e+2, -2040430.6, -1676451.6, -122669.414, 0.27632552, 0.59784544, -1638969.1, -24278.736, 0.28190908, 9.996441, 10.001286 
2.075063e+3, 1.4524399e+2, -1778311.3, -1511406.3, 61892.5, -0.14891101, 0.6487794, -1497752.4, 18919.037, 0.17213808, 9.997588, 10.001236 
2.075071e+3, 1.5524499e+2, -1413556.0, -1268758.1, 107652.14, -0.060567852, 0.5866247, -1211424.4, 207237.89, 0.08207624, 9.99937, 10.001423 
2.0750757e+3, 1.6524693e+2, -1319944.6, -1215241.5, -29432.072, -0.119897686, 0.6601505, -1207535.4, 113109.98, 0.027111659, 9.999525, 10.00097 
2.0750768e+3, 1.7524943e+2, -1394171.4, -1187708.3, -22055.662, -0.3045015, 0.7869071, -1185378.4, 37246.05, 0.0046569863, 9.99833, 10.001029 
2.0750798e+3, 1.8525068e+2, -1335880.1, -1150066.0, -81049.15, -0.2594741, 0.8278074, -1119682.0, 4930.9434, 0.00014131474, 9.9982195, 10.000679 
2.075084e+3, 1.95251e+2, -1109487.0, -984412.75, -78574.94, -0.0034321547, 0.76880723, -946526.2, 80082.26, 0.0000000002137382, 9.999087, 10.000717 
2.0750879e+3, 2.0525058e+2, -1013726.7, -959296.3, 14310.113, 0.061480433, 0.68644047, -955763.4, -27154.656, 0.0, 9.999365, 10.00009 
2.0750913e+3, 2.1524946e+2, -943549.94, -867878.4, 34396.504, -0.035099503, 0.5407726, -854580.3, -23966.832, 0.0, 9.999159, 10.000137 
2.0750958e+3, 2.252489e+2, -887631.5, -867662.56, 29228.764, -0.039757684, 0.5056666, -846760.0, -114143.5, 0.0, 9.999204, 9.999448 
2.0751011e+3, 2.3524882e+2, -728651.94, -734872.06, 19016.688, 0.049843587, 0.528709, -712492.6, -77874.77, 0.0, 9.999613, 9.99948 
2.075105e+3, 2.452482e+2, -600411.9, -716443.4, 3517.709, -0.031655, 0.56048304, -600305.3, -63680.813, 0.0, 10.000199, 9.998663 
2.075107e+3, 2.5524715e+2, -366817.5, -542360.2, 12907.793, -0.26577464, 0.558641, -365873.47, 72761.78, 0.0, 10.001105, 9.998735 
2.0751119e+3, 2.652456e+2, -271420.53, -603939.44, 28484.791, -0.29692966, 0.6012276, -268998.06, 71654.586, 0.000000021824269, 10.001748, 9.997344 
2.0751193e+3, 2.7524355e+2, -61282.734, -428300.4, -21593.11, -0.122000754, 0.6290111, -60016.695, 182660.1, 0.00000084431264, 10.002435, 9.997532 
2.0751257e+3, 2.852419e+2, 167427.19, -161952.5, -57255.04, -0.012785171, 0.6593529, 177095.83, 321788.34, 0.000005133315, 10.002856, 9.998506 
2.0751306e+3, 2.9524076e+2, 313146.63, -50440.973, 19360.076, 0.0114001455, 0.6531907, 314174.6, 360874.0, 0.000023723636, 10.003231, 9.9984045 
2.0751357e+3, 3.0523705e+2, 186848.08, -422419.16, 20727.264, 0.06328649, 0.6061206, 187552.4, 187552.4, 0.00007269625, 10.003483, 9.995405 
2.0751423e+3, 3.1523243e+2, 460608.2, -40214.15, 62289.273, 0.1832921, 0.5084862, 468239.1, 468239.1, 0.00016039563, 10.004289, 9.99762 
2.0850524e+3, 1.2523559e+2, -1974598.1, -1367217.3, -40497.49, -0.06807893, 0.6844931, -1364529.0, 348230.75, 0.40993002, 9.995091, 10.006376 
2.0850605e+3, 1.3523513e+2, -1846007.8, -1639778.9, -93487.164, 0.31651106, 0.50761694, -1603708.4, 11053.006, 0.29801235, 9.998016, 10.000799 
2.085062e+3, 1.4523806e+2, -1543926.8, -1365446.3, -6743.25, -0.077890165, 0.6670616, -1365191.9, 151539.11, 0.18298064, 9.998949, 10.001774 
2.0850691e+3, 1.5523954e+2, -1677941.5, -1340534.1, -3597.649, -0.089704, 0.6044766, -1340495.8, 78219.53, 0.088167645, 9.997317, 10.001872 
2.0850733e+3, 1.6524166e+2, -1671983.6, -1359114.8, -141052.67, -0.160173, 0.66731125, -1304913.0, 15782.697, 0.029713616, 9.9970045, 10.001186 
2.0850757e+3, 1.7524426e+2, -1410648.1, -1171129.3, -129435.195, -0.25053203, 0.78387433, -1114548.8, 108124.56, 0.005333032, 9.998103, 10.001259 
2.0850788e+3, 1.8524522e+2, -1257529.8, -1144739.3, -144836.67, -0.18731594, 0.7949608, -1045705.8, 78959.27, 0.00018960002, 9.998887, 10.0004015 
2.0850833e+3, 1.9524471e+2, -1048039.94, -985693.6, -163012.89, -0.022694627, 0.6818273, -850900.0, 175769.1, 0.000000020895914, 9.999634, 10.000449 
2.0850876e+3, 2.0524476e+2, -893625.56, -881049.4, -94132.44, 0.058475964, 0.65134966, -792995.25, 135670.69, 0.0, 10.000121, 10.00026 
2.0850922e+3, 2.1524529e+2, -736970.9, -748479.94, -99977.14, 0.073422134, 0.65424305, -642582.8, 188073.33, 0.0, 10.0005045, 10.000302 
2.0850967e+3, 2.2524472e+2, -697005.75, -827678.5, -95546.57, 0.057251696, 0.63335204, -646592.44, 86067.73, 0.0, 10.000713, 9.999012 
2.0851009e+3, 2.3524314e+2, -583605.25, -710230.7, -115744.49, 0.006500476, 0.55064386, -514988.88, 119687.91, 0.0, 10.000786, 9.999096 
2.0851052e+3, 2.4524194e+2, -431158.13, -603159.3, -85623.92, -0.07104017, 0.526947, -395801.56, 140885.52, 0.0, 10.001222, 9.99895 
2.0851092e+3, 2.5524104e+2, -212760.75, -441495.1, -78053.75, -0.18518777, 0.51656973, -188664.06, 250027.98, 0.0, 10.002041, 9.998983 
2.085115e+3, 2.6523957e+2, -227599.98, -610832.7, -19889.146, -0.17570554, 0.56884265, -226570.53, 114137.31, 0.0, 10.002182, 9.997082 
2.0851219e+3, 2.7523756e+2, -181606.89, -517378.9, 6512.6377, -0.06467813, 0.6271267, -181480.61, 61253.473, 0.000000115745564, 10.001752, 9.997245 
2.0851281e+3, 2.852358e+2, 70007.766, -205824.69, -29957.22, -0.02286231, 0.6595468, 73223.81, 217975.73, 0.0000020138657, 10.002162, 9.998541 
2.0851327e+3, 2.952344e+2, 314435.6, -38374.41, -133287.63, -0.078905426, 0.63040787, 359128.56, 405889.38, 0.000014504671, 10.003207, 9.998495 
2.0851395e+3, 3.0523065e+2, 337068.84, -311724.25, -67573.07, 0.044827312, 0.55014527, 344032.0, 344032.0, 0.000053401804, 10.004309, 9.995783 
2.0851476e+3, 3.152279e+2, 633646.25, 50039.81, 69499.49, 0.24745855, 0.6199102, 641808.56, 641808.56, 0.00012544217, 10.005381, 9.997735 
2.095049e+3, 1.2523164e+2, -2031531.6, -1453660.3, -191443.84, 0.020599062, 0.85321796, -1395991.6, 316810.28, 0.42994058, 9.995206, 10.005589 
2.0950593e+3, 1.3522895e+2, -1928864.5, -1810802.8, 33026.547, 0.37200835, 0.5530423, -1802191.9, -187362.88, 0.31401625, 9.998037, 9.999584 
2.09506e+3, 1.4523287e+2, -1534853.1, -1361263.8, -60565.168, -0.20498809, 0.8794631, -1342221.5, 174567.48, 0.19429262, 9.999009, 10.001814 
2.0950651e+3, 1.552332e+2, -1656285.0, -1317843.8, -54591.406, -0.23628251, 0.68891096, -1309255.9, 109525.9, 0.094824284, 9.997388, 10.002026 
2.0950706e+3, 1.6523442e+2, -1628454.0, -1294442.8, -106892.59, -0.17938493, 0.6307619, -1263163.5, 57604.25, 0.032688897, 9.997105, 10.001592 
2.0950764e+3, 1.7523663e+2, -1378684.4, -1112235.8, -86673.555, 0.009488672, 0.66718644, -1086522.9, 136222.4, 0.0061590113, 9.998129, 10.001653 
2.0950806e+3, 1.8523727e+2, -1279461.4, -1199516.1, -125970.26, 0.049692437, 0.64889336, -1107328.5, 17410.285, 0.00026052183, 9.998926, 10.000006 
2.0950827e+3, 1.9523644e+2, -1074548.4, -1039889.06, -130886.73, -0.053916637, 0.5409812, -925189.75, 101557.234, 0.00000016154512, 9.999629, 10.000079 
2.0950869e+3, 2.0523734e+2, -903882.8, -889940.8, -88447.48, -0.045493174, 0.6156668, -808190.06, 120548.29, 0.0, 10.00007, 10.000221 
2.095093e+3, 2.1523988e+2, -758863.1, -766970.44, -80678.18, 0.082172535, 0.82257, -682136.8, 148577.22, 0.0, 10.00039, 10.000228 
2.0950975e+3, 2.2523956e+2, -749186.5, -897934.56, -98921.67, 0.059289027, 0.8517376, -699798.7, 32919.016, 0.0, 10.000549, 9.998608 
2.0951009e+3, 2.3523676e+2, -629451.94, -774096.2, -103690.07, -0.09264593, 0.68653494, -575353.6, 59392.137, 0.0, 10.000654, 9.99872 
2.095106e+3, 2.4523501e+2, -427696.84, -551597.0, -60325.824, -0.14178006, 0.6028256, -403177.2, 133582.31, 0.0, 10.001031, 9.999395 
2.0951125e+3, 2.552341e+2, -198421.48, -386961.88, -40953.152, -0.0790044, 0.54689354, -189910.2, 248850.98, 0.0, 10.001932, 9.999412 
2.0951186e+3, 2.6523274e+2, -187816.7, -487685.16, -44148.254, -0.028988687, 0.53805304, -181452.05, 159320.13, 0.0, 10.002015, 9.998005 
2.0951247e+3, 2.752311e+2, -142673.6, -411161.03, 1073.0144, 0.029255314, 0.54221255, -142669.31, 100120.81, 0.0, 10.001645, 9.998024 
2.09513e+3, 2.8522885e+2, -118477.02, -527517.6, -1103.3208, -0.080334656, 0.5998112, -118474.05, 26340.361, 0.00000039293647, 10.001869, 9.996471 
2.0951338e+3, 2.952259e+2, 174861.11, -286608.38, -77619.71, -0.324662, 0.6104443, 187567.0, 234413.7, 0.000007667558, 10.00303, 9.996876 
2.0951422e+3, 3.052224e+2, 418857.28, -13544.2705, -39989.59, -0.13210051, 0.50144994, 422524.5, 422524.5, 0.000037309004, 10.003805, 9.998053 
2.0951521e+3, 3.152239e+2, 514954.25, -31948.51, 196526.75, 0.105743326, 0.816545, 578249.7, 578249.7, 0.000096027696, 10.004746, 9.997449 
2.1050455e+3, 1.2522466e+2, -1765673.3, -1472429.8, -175372.42, 0.010466649, 0.8136642, -1390461.5, 322408.75, 0.44859928, 9.997899, 10.004143 
2.1050563e+3, 1.352223e+2, -1925054.9, -1816278.4, 93935.45, 0.27670375, 0.543139, -1762122.0, -147225.55, 0.3298663, 9.998075, 9.999546 
2.1050581e+3, 1.4522843e+2, -1754458.6, -1450125.4, -55090.74, -0.21328278, 1.0986623, -1440459.8, 76375.516, 0.20615475, 9.997495, 10.001795 
2.105063e+3, 1.5522702e+2, -1741063.4, -1344582.6, -61590.676, -0.15405601, 0.7220705, -1335235.4, 83608.38, 0.10215144, 9.996768, 10.002114 
2.1050686e+3, 1.6522677e+2, -1670761.1, -1359704.5, -45732.234, -0.08242955, 0.53520775, -1353120.1, -32278.014, 0.036114734, 9.99702, 10.001167 
2.1050751e+3, 1.752286e+2, -1366258.5, -1150811.9, -95734.87, 0.051318996, 0.5698741, -1114419.0, 108402.8, 0.007176738, 9.99841, 10.00125 
2.10508e+3, 1.8522935e+2, -1224764.1, -1191821.1, -163056.42, 0.09450852, 0.593054, -1044406.4, 80407.7, 0.0003661867, 9.999399, 9.999825 
2.1050833e+3, 1.9522877e+2, -1008552.6, -1027161.2, -168526.34, 0.010962043, 0.5325361, -849073.9, 177747.19, 0.00000091193453, 10.000188, 9.999889 
2.1050873e+3, 2.0522955e+2, -893065.9, -921805.9, -148814.9, -0.009587172, 0.6180458, -757928.75, 170887.02, 0.0, 10.000266, 9.99992 
2.1050923e+3, 2.1523157e+2, -866210.56, -850016.7, -168637.1, 0.026530087, 0.8027661, -689282.25, 141516.36, 0.0, 9.999767, 9.999969 
2.1050975e+3, 2.2523145e+2, -777882.94, -863719.4, -122504.836, 0.019305704, 0.84308976, -690995.9, 41804.324, 0.0, 10.000165, 9.999013 
2.1051022e+3, 2.3522924e+2, -483812.9, -659855.25, -85667.445, -0.049614117, 0.6942144, -449006.4, 185813.89, 0.0, 10.001472, 9.999098 
2.1051079e+3, 2.4522772e+2, -347103.78, -529381.06, -51324.59, -0.05169298, 0.6242347, -333645.72, 203185.9, 0.0, 10.00166, 9.999244 
2.1051145e+3, 2.5522682e+2, -369228.66, -480894.06, -87964.46, -0.00565534, 0.58434147, -320873.84, 117961.53, 0.0, 10.000828, 9.999289 
2.1051212e+3, 2.652254e+2, -281517.2, -505667.44, -100632.33, 0.03567733, 0.5663055, -242967.95, 97877.78, 0.0, 10.001223, 9.998279 
2.1051271e+3, 2.7522364e+2, 25642.373, -303694.56, -118208.516, 0.057970747, 0.53470093, 63678.016, 306539.3, 0.0, 10.002667, 9.998281 
2.1051323e+3, 2.852211e+2, 51357.984, -489311.75, -60064.86, -0.07850998, 0.5674695, 57950.414, 202838.39, 0.00000006547354, 10.003237, 9.996063 
2.1051362e+3, 2.9521742e+2, 156635.1, -342272.78, -54233.79, -0.37562582, 0.5560657, 162462.52, 209391.48, 0.000004738257, 10.003115, 9.996448 
2.1051455e+3, 3.0521443e+2, 433855.06, 56230.64, -5539.269, -0.14549392, 0.4891504, 433936.3, 433936.3, 0.00002905632, 10.003589, 9.998654 
2.1051556e+3, 3.152164e+2, 454446.63, 9206.196, 16905.451, 0.020862091, 0.7922595, 455087.6, 455087.6, 0.00007989996, 10.003973, 9.998121 
2.115042e+3, 1.2521358e+2, -1872133.8, -1652444.0, -26711.184, -0.16666321, 0.44327125, -1649242.9, 63732.33, 0.46656317, 9.998011, 10.001741 
2.1150513e+3, 1.3521524e+2, -1835109.8, -1647203.5, 88564.29, -0.062170666, 0.47581425, -1612041.1, 2922.384, 0.34608045, 9.998147, 10.000676 
2.1150559e+3, 1.4522447e+2, -1759769.1, -1483012.1, -82909.414, -0.20947899, 1.3029996, -1460075.5, 56796.89, 0.21890919, 9.9976015, 10.00149 
2.1150623e+3, 1.552209e+2, -1724148.0, -1336855.6, -87522.29, 0.06960859, 0.7077536, -1317995.3, 100906.64, 0.110347085, 9.99687, 10.002135 
2.115067e+3, 1.6521885e+2, -1738621.4, -1521191.8, -1159.7335, 0.033041168, 0.393387, -1521185.6, -200267.45, 0.040102176, 9.9971075, 10.000018 
2.1150713e+3, 1.7522012e+2, -1442188.3, -1317328.3, -38057.29, -0.18173914, 0.49402827, -1306642.9, -83740.05, 0.008443992, 9.998442, 10.000091 
2.1150774e+3, 1.8522125e+2, -1224759.9, -1197714.9, -139985.3, -0.13793707, 0.6128592, -1070600.5, 54291.867, 0.00052604213, 9.999428, 9.999767 
2.1150845e+3, 1.9522154e+2, -1018252.8, -1043297.6, -134377.81, 0.101611085, 0.644765, -895815.2, 131078.1, 0.0000034897541, 10.000172, 9.999784 
2.1150886e+3, 2.0522118e+2, -938506.1, -998962.25, -172231.73, 0.07395222, 0.6489943, -793869.94, 135029.9, 0.0, 10.000194, 9.999427 
2.1150903e+3, 2.152205e+2, -912877.56, -923182.9, -179822.33, -0.15836056, 0.6120233, -738134.1, 92774.62, 0.0, 9.999672, 9.999511 
2.115096e+3, 2.2522032e+2, -724013.2, -711494.9, -75967.73, -0.15414126, 0.6106633, -641528.9, 91379.43, 0.0, 9.99999, 10.00014 
2.115105e+3, 2.3522043e+2, -427127.63, -514090.7, -30269.73, 0.06822383, 0.5835605, -417628.97, 217272.48, 0.0, 10.001351, 10.000157 
2.1151114e+3, 2.452199e+2, -424188.94, -647694.7, -87764.97, 0.09494497, 0.597751, -393845.38, 143059.55, 0.0, 10.001485, 9.99851 
2.1151152e+3, 2.552189e+2, -433762.28, -596608.75, -109002.51, -0.029829072, 0.6194069, -379129.3, 59787.6, 0.0, 10.00075, 9.998529 
2.1151213e+3, 2.652174e+2, -330726.88, -564559.75, -49807.664, -0.07723522, 0.64746696, -320559.63, 20370.633, 0.0, 10.001043, 9.997956 
2.115129e+3, 2.7521527e+2, -4683.371, -344865.22, -54126.45, -0.052528717, 0.60793215, 3721.069, 246668.05, 0.0, 10.002569, 9.998046 
2.115135e+3, 2.8521213e+2, 82223.91, -370755.38, -73158.6, -0.17209901, 0.54212594, 93746.33, 238722.45, 0.00000005479561, 10.003013, 9.996981 
2.11514e+3, 2.9520848e+2, 176105.11, -273298.84, -33215.402, -0.34575886, 0.43583304, 178546.78, 225559.66, 0.0000044706885, 10.002979, 9.996989 
2.1151489e+3, 3.0520657e+2, 267431.9, -137062.94, 3871.6235, -0.2099204, 0.5182168, 267468.94, 267468.94, 0.000027145721, 10.002988, 9.997587 
2.115158e+3, 3.1520596e+2, 412952.1, 87737.73, -4422.608, -0.17585033, 0.6219777, 413012.22, 413012.22, 0.00007497601, 10.003318, 9.998958 
2.1250412e+3, 1.252087e+2, -1559318.8, -1551068.8, 4683.453, -0.21002601, 0.8707129, -1548952.8, 164065.8, 0.48543465, 10.001204, 10.00156 
2.1250483e+3, 1.3520725e+2, -2037324.5, -1694274.8, -121303.91, -0.08241535, 0.45581755, -1655715.3, -40676.32, 0.3637423, 9.996581, 10.001072 
2.1250533e+3, 1.4521523e+2, -1957077.5, -1627915.3, -170834.92, -0.1847548, 1.1702455, -1555280.3, -38316.902, 0.23315269, 9.996506, 10.000929 
2.125061e+3, 1.5521313e+2, -1358578.5, -1226950.6, -216071.66, 0.11206028, 0.7782672, -1066891.9, 352091.22, 0.1197026, 9.999714, 10.001667 
2.1250662e+3, 1.6521169e+2, -1288732.0, -1285429.9, -158760.78, 0.09076016, 0.53588605, -1128311.5, 192682.8, 0.044803485, 10.000128, 10.000216 
2.1250696e+3, 1.752125e+2, -1428738.6, -1296204.0, -110404.5, -0.19580004, 0.5793561, -1233706.0, -10725.275, 0.01004214, 9.998468, 10.000221 
2.1250758e+3, 1.8521333e+2, -1418123.9, -1294784.3, -118396.46, -0.17959803, 0.6622477, -1222959.1, -97987.086, 0.0007722133, 9.998097, 9.999744 
2.1250838e+3, 1.9521348e+2, -1186142.0, -1124783.0, -118519.8, 0.078175895, 0.6800228, -1033036.25, -6061.7593, 0.000010944595, 9.999011, 9.999784 
2.1250889e+3, 2.0521319e+2, -988344.75, -989547.9, -140888.36, 0.09821047, 0.67607826, -848056.7, 80923.08, 0.0, 9.999733, 9.999701 
2.1250908e+3, 2.1521266e+2, -786833.25, -833213.0, -108568.02, -0.1099163, 0.6276132, -699006.06, 131980.0, 0.0, 10.000427, 9.999756 
2.1250966e+3, 2.2521237e+2, -608736.25, -655662.6, 16652.05, -0.120374314, 0.6029963, -603427.75, 129558.53, 0.0, 10.000769, 10.000155 
2.1251057e+3, 2.3521225e+2, -508736.3, -547647.1, -29944.754, 0.021823013, 0.5513042, -492481.75, 142500.02, 0.0, 10.0007715, 10.000204 
2.1251123e+3, 2.45212e+2, -484171.0, -699511.25, -119023.39, 0.06728255, 0.59988517, -431343.7, 105640.18, 0.0, 10.00117, 9.998311 
2.1251172e+3, 2.5521165e+2, -274027.5, -543362.4, -115982.195, 0.021014383, 0.7124253, -230967.1, 208024.69, 0.0, 10.001945, 9.998327 
2.1251236e+3, 2.6520985e+2, -142297.14, -494532.88, 10432.177, -0.021767462, 0.7276094, -141988.45, 199020.3, 0.0, 10.002443, 9.997757 
2.125131e+3, 2.7520633e+2, -7270.3823, -360784.53, -10503.251, -0.09215042, 0.57362527, -6958.5957, 236079.1, 0.0, 10.002646, 9.997889 
2.1251379e+3, 2.852033e+2, 114714.08, -307097.1, -48906.355, -0.16681854, 0.5030835, 120310.22, 265374.34, 0.000000117451826, 10.003009, 9.9974375 
2.1251446e+3, 2.9520127e+2, 285375.5, -166462.73, -65273.336, -0.20679833, 0.51746887, 294616.03, 341699.06, 0.0000050467984, 10.003508, 9.997462 
2.1251531e+3, 3.0519965e+2, 294998.66, -214141.47, -8008.518, -0.10553549, 0.6387947, 295124.6, 295124.6, 0.00002697455, 10.003496, 9.99686 
2.1251614e+3, 3.151969e+2, 223591.06, -72528.75, -109498.28, -0.08991923, 0.61709094, 259682.2, 259682.2, 0.00007155191, 10.002241, 9.998415 
2.1350476e+3, 1.3519822e+2, -2055656.4, -1738013.0, -280867.34, 0.14725682, 0.5197558, -1574172.6, 40951.13, 0.38411817, 9.996594, 10.000885 
2.1350496e+3, 1.4520083e+2, -2001681.6, -1739868.5, -47748.18, -0.2450611, 0.73111004, -1731432.3, -214325.55, 0.24951555, 9.996589, 10.000115 
2.1350588e+3, 1.5520369e+2, -1408143.5, -1340914.0, -110324.92, -0.09046002, 0.9308485, -1259196.4, 159891.2, 0.13052814, 9.999752, 10.000757 
2.1350656e+3, 1.6520503e+2, -1181361.8, -1082963.4, -224677.56, 0.0018490081, 0.93798983, -902161.3, 418911.9, 0.050404422, 10.000207, 10.001632 
2.1350695e+3, 1.7520553e+2, -1329058.0, -1102337.4, -167284.72, -0.0660944, 0.8108232, -1013621.56, 209435.86, 0.012084308, 9.998517, 10.001544 
2.1350747e+3, 1.852055e+2, -1405662.4, -1284771.0, -88179.055, -0.124723956, 0.74072844, -1238309.1, -113255.25, 0.001155736, 9.998162, 9.999783 
2.135081e+3, 1.9520462e+2, -1179845.6, -1114379.9, -79871.61, -0.11896378, 0.65028495, -1060794.1, -33729.324, 0.000030850606, 9.999015, 9.999857 
2.1350874e+3, 2.0520538e+2, -931226.7, -850880.75, -124259.09, -0.03491646, 0.6951453, -760462.06, 168595.94, 0.0, 9.99965, 10.000692 
2.1350938e+3, 2.1520767e+2, -737635.0, -704974.94, -78309.76, 0.10785123, 0.83433294, -641310.7, 189723.75, 0.0, 10.000315, 10.000691 
2.1350992e+3, 2.2520742e+2, -707302.2, -814144.9, 14308.305, 0.025402991, 0.8145174, -705419.25, 27616.709, 0.0, 10.000578, 9.999155 
2.1351038e+3, 2.3520462e+2, -597742.0, -707357.06, -20663.777, -0.24608462, 0.59829974, -593976.0, 41085.97, 0.0, 10.000661, 9.999162 
2.1351108e+3, 2.4520381e+2, -491924.4, -677342.4, -97551.17, -0.22492947, 0.63130915, -450055.6, 87014.82, 0.0, 10.001009, 9.998538 
2.1351196e+3, 2.552049e+2, -271067.1, -514147.34, -81429.34, 0.079504415, 0.8582657, -246310.45, 192751.55, 0.0, 10.001842, 9.998576 
2.1351272e+3, 2.6520243e+2, -181753.52, -532665.1, 11317.178, 0.09944042, 0.80213153, -181388.9, 159695.33, 0.0, 10.002268, 9.997575 
2.1351336e+3, 2.751964e+2, -44100.074, -409310.13, 8550.571, -0.13523553, 0.41976967, -43899.992, 199237.2, 0.00000000014169585, 10.002524, 9.997617 
2.1351409e+3, 2.8519398e+2, 70323.47, -330031.88, -38757.242, -0.20594443, 0.4236976, 74040.93, 219199.05, 0.000000256191, 10.002729, 9.9974 
2.1351497e+3, 2.9519534e+2, 271275.66, -165508.42, -24410.521, -0.047347892, 0.7711056, 272635.66, 319779.53, 0.0000052967753, 10.003362, 9.997543 
2.1351573e+3, 3.051924e+2, 180179.9, -311993.2, -51602.39, -0.074875675, 0.7786164, 185532.02, 185532.02, 0.000025200057, 10.002959, 9.996413 
2.135164e+3, 3.151856e+2, -29841.58, -408051.94, -25575.402, -0.08033428, 0.40738973, -28119.951, -28119.951, 0.00006359445, 10.0014925, 9.996441 
2.1450447e+3, 1.3518912e+2, -1813591.9, -1662856.8, -304637.53, 0.12726203, 0.6133508, -1424402.3, 190813.92, 0.40760165, 9.998531, 10.000891 
2.1450469e+3, 1.4519025e+2, -1848747.1, -1608141.0, 23940.982, -0.19434868, 0.64266753, -1605781.9, -88568.74, 0.26811564, 9.997386, 10.00063 
2.1450573e+3, 1.5519442e+2, -1723342.3, -1436060.6, 52679.582, -0.09302276, 0.929352, -1426705.4, -7526.9595, 0.14296411, 9.997324, 10.001168 
2.1450649e+3, 1.6519655e+2, -1490066.1, -1246911.0, -120946.22, 0.023168912, 1.0031102, -1196997.8, 124159.38, 0.057087187, 9.998126, 10.00146 
2.1450691e+3, 1.7519692e+2, -1196983.3, -1054539.1, -183353.78, -0.021491893, 0.8783436, -929060.44, 294086.9, 0.014719365, 9.999514, 10.001397 
2.145074e+3, 1.8519676e+2, -1130496.1, -1090103.6, -117240.72, -0.07764493, 0.7771098, -991332.3, 133812.69, 0.0017550356, 9.999795, 10.000335 
2.1450803e+3, 1.9519603e+2, -1089239.9, -1012420.2, -83738.0, -0.09613594, 0.6487904, -958703.1, 68447.39, 0.00008036648, 9.9993925, 10.000379 
2.1450871e+3, 2.0519707e+2, -996800.1, -869366.4, -130086.6, 0.0005688255, 0.6929763, -788230.3, 140909.17, 0.000000018813253, 9.999133, 10.000819 
2.145094e+3, 2.1519984e+2, -894314.06, -766865.75, -159307.73, 0.16141374, 0.8651478, -659009.8, 172102.5, 0.0, 9.999171, 10.000819 
2.1450993e+3, 2.2519988e+2, -887518.0, -920592.25, -60547.6, 0.07146637, 0.87793314, -841289.8, -108178.08, 0.0, 9.999424, 9.998982 
2.145104e+3, 2.3519719e+2, -721576.25, -787917.06, -44534.574, -0.25460625, 0.69236666, -699216.44, -64078.79, 0.0, 9.999903, 9.998979 
2.1451113e+3, 2.4519594e+2, -541977.0, -692144.2, -60524.863, -0.23497146, 0.68773025, -520619.9, 16530.346, 0.0, 10.000627, 9.998622 
2.1451215e+3, 2.5519603e+2, -299368.47, -516574.6, -70205.64, 0.088881485, 0.8117915, -278652.34, 160498.2, 0.0, 10.001601, 9.998673 
2.1451299e+3, 2.65194e+2, -208104.58, -521639.6, 12405.571, 0.15053454, 0.78041786, -207614.5, 133554.22, 0.0, 10.001967, 9.9978 
2.1451364e+3, 2.751898e+2, -136382.81, -427538.22, 20323.928, -0.042455938, 0.5531677, -134970.95, 108234.07, 0.00000000016893417, 10.001772, 9.997849 
2.145144e+3, 2.8518748e+2, -29880.57, -411409.3, 24747.613, -0.110434316, 0.5683283, -28282.03, 116943.07, 0.0000002738674, 10.002153, 9.99713 
2.1451528e+3, 2.9518685e+2, 202212.94, -214484.19, -6280.165, -0.044817142, 0.752266, 202307.58, 249537.9, 0.0000047479944, 10.002959, 9.997397 
2.1451616e+3, 3.0518386e+2, 345945.7, -212688.52, -27849.734, 0.02756076, 0.7377829, 347330.63, 347330.63, 0.000021563434, 10.003934, 9.996661 
2.1451686e+3, 3.1517664e+2, 484501.2, -91709.12, 8246.772, 0.0844879, 0.30877614, 484619.2, 484619.2, 0.000054127435, 10.004716, 9.99705 
2.1550396e+3, 1.351801e+2, -1807466.0, -1656733.0, -324853.44, -0.29948393, 0.76002455, -1398618.0, 216696.11, 0.43279883, 9.998609, 10.001026 
2.1550447e+3, 1.4518309e+2, -1694366.8, -1385432.1, -18177.686, -0.19330399, 0.86802876, -1384366.3, 132920.02, 0.28823382, 9.997555, 10.002455 
2.1550561e+3, 1.5518531e+2, -1595919.0, -1225644.3, 53305.527, 0.024551686, 0.7811203, -1218123.1, 201132.34, 0.15688464, 9.997397, 10.0028305 
2.1550637e+3, 1.6518648e+2, -1599948.5, -1489384.5, -73471.555, 0.048610948, 0.7675229, -1452720.0, -131476.1, 0.06501248, 9.998213, 9.999706 
2.1550676e+3, 1.7518662e+2, -1311601.0, -1291248.9, -133814.75, -0.13140026, 0.7896861, -1167223.9, 56026.715, 0.018139776, 9.9995165, 9.999747 
2.1550734e+3, 1.8518698e+2, -1055726.3, -945342.9, -141191.34, -0.12874562, 0.7713437, -848939.3, 276307.44, 0.0026903055, 9.999832, 10.001316 
2.1550815e+3, 1.9518761e+2, -1018457.5, -864913.8, -93511.586, 0.06760636, 0.6745471, -820696.7, 206536.06, 0.00019736934, 9.999392, 10.001389 
2.1550874e+3, 2.0518833e+2, -1056564.9, -985031.75, -133632.17, 0.1026654, 0.67497206, -882462.5, 46761.305, 0.0000007869328, 9.999091, 10.000046 
2.1550916e+3, 2.1518913e+2, -956415.06, -883307.94, -151991.28, -0.011381654, 0.7268691, -763536.5, 67683.43, 0.0, 9.999106, 10.000053 
2.1550977e+3, 2.2518964e+2, -867375.06, -845384.7, -47557.008, -0.07733086, 0.7923927, -807568.4, -74353.24, 0.0, 9.999284, 9.999563 
2.1551058e+3, 2.3518978e+2, -694422.2, -709586.44, -19581.725, -0.08515387, 0.829032, -681005.94, -45795.465, 0.0, 9.999806, 9.999561 
2.155114e+3, 2.4518824e+2, -575919.1, -714743.56, -28786.201, -0.06642235, 0.7666287, -570186.8, -32961.684, 0.0, 10.000431, 9.998555 
2.1551223e+3, 2.551851e+2, -320060.22, -536788.3, -27111.281, -0.012020046, 0.57628185, -316720.25, 122537.945, 0.0, 10.001504, 9.998581 
2.1551308e+3, 2.6518437e+2, -192581.56, -449951.06, -1590.5964, 0.035368275, 0.65594786, -192571.73, 148692.77, 0.0, 10.0018015, 9.99837 
2.1551399e+3, 2.7518594e+2, -109961.89, -350211.3, 20699.008, 0.104704514, 0.944531, -108191.586, 135054.53, 0.0, 10.001674, 9.99843 
2.1551475e+3, 2.8518307e+2, -105915.625, -503554.94, 46784.38, -0.0008297275, 0.90443707, -100485.35, 44787.02, 0.000000100631844, 10.001901, 9.996607 
2.1551538e+3, 2.951758e+2, 125782.836, -327493.38, 43315.074, -0.27374095, 0.47326082, 129884.9, 177227.94, 0.0000031808167, 10.002758, 9.996721 
2.1551648e+3, 3.0517286e+2, 299173.5, -148367.84, -9739.455, -0.06743788, 0.47347173, 299385.34, 299385.34, 0.000016664693, 10.003289, 9.997385 
2.1551739e+3, 3.1517163e+2, 527446.9, 120732.13, 127986.08, 0.074382424, 0.5244564, 564369.9, 564369.9, 0.00004561872, 10.004195, 9.998756 
2.1650371e+3, 1.3517134e+2, -2162122.8, -1783359.3, -110526.305, -0.24494079, 0.81114453, -1753466.0, -138067.8, 0.45757636, 9.995877, 10.000769 
2.1650444e+3, 1.4517334e+2, -1356002.9, -1234260.3, -42746.195, -0.1247699, 0.82398176, -1220750.5, 296630.34, 0.3088363, 10.000281, 10.002667 
2.1650535e+3, 1.5517552e+2, -1524529.3, -1193008.6, -99330.36, 0.001527815, 0.72030336, -1165525.5, 253823.39, 0.17204043, 9.997893, 10.002885 
2.1650611e+3, 1.6517681e+2, -1822394.1, -1603101.6, -149203.1, 0.048164964, 0.71636844, -1527588.9, -206252.47, 0.07433442, 9.996693, 9.999662 
2.1650672e+3, 1.7517701e+2, -1635660.1, -1453190.8, -91411.19, -0.011272599, 0.7480017, -1415275.3, -191930.97, 0.022589553, 9.997291, 9.999714 
2.1650738e+3, 1.851779e+2, -1335103.0, -1030612.6, -86937.625, 0.014201382, 0.76213866, -1007538.8, 117797.336, 0.00413868, 9.997711, 10.001747 
2.1650808e+3, 1.9517957e+2, -1166287.6, -897464.7, -102590.82, 0.10112623, 0.73116803, -862786.44, 164525.78, 0.00045452762, 9.998212, 10.001736 
2.1650867e+3, 2.0518021e+2, -1063336.9, -1041499.8, -112712.27, 0.10106591, 0.72951674, -939178.44, -9873.806, 0.000007502901, 9.999271, 9.99957 
2.1650915e+3, 2.1517982e+2, -710356.5, -816905.7, -122148.07, -0.0035672116, 0.714373, -630370.7, 200942.2, 0.0, 10.001035, 9.999576 
2.1650982e+3, 2.2517972e+2, -541652.3, -657593.1, -47986.652, -0.038603146, 0.7325705, -524367.94, 208945.0, 0.0, 10.001398, 9.999827 
2.1651064e+3, 2.3517987e+2, -565945.94, -616314.25, -58248.824, -0.01727695, 0.7407529, -527670.1, 107635.51, 0.0, 10.000558, 9.999835 
2.165115e+3, 2.4517877e+2, -572884.56, -738850.7, -29868.146, 0.009474136, 0.7217806, -567672.94, -30356.678, 0.0, 10.000548, 9.998338 
2.165124e+3, 2.551764e+2, -352366.47, -567742.44, -46655.117, 0.015734619, 0.6277708, -342694.3, 96650.55, 0.0, 10.001363, 9.998426 
2.165133e+3, 2.6517576e+2, -164136.17, -423286.13, -61682.984, 0.062372312, 0.7115797, -150203.42, 191148.42, 0.0, 10.001956, 9.998471 
2.1651423e+3, 2.7517658e+2, 2019.7891, -282900.2, -88484.734, 0.15536577, 0.9226425, 27263.102, 270603.22, 0.0, 10.002405, 9.99853 
2.165151e+3, 2.851741e+2, 12613.034, -390925.94, -25906.098, 0.112958476, 0.8878858, 14269.337, 159631.73, 0.0000000029805467, 10.002465, 9.99711 
2.1651575e+3, 2.9516825e+2, 52710.207, -293167.78, 18313.42, -0.13155223, 0.55823076, 53677.156, 101096.45, 0.000001345268, 10.001985, 9.997315 
2.165169e+3, 3.0516583e+2, 242847.73, -154043.64, 68828.445, 0.06125786, 0.5569922, 254445.02, 254445.02, 0.000010778314, 10.002777, 9.997601 
2.1651778e+3, 3.1516546e+2, 611632.56, 118930.22, 52663.95, 0.00080542493, 0.69832325, 617198.8, 617198.8, 0.00003608632, 10.004942, 9.998386 
2.1750376e+3, 1.3516329e+2, -2173786.0, -1891310.1, 212462.13, 0.13527606, 0.79020596, -1777424.0, -161960.28, 0.48078975, 9.996327, 9.999756 
2.1750455e+3, 1.4516151e+2, -1431859.9, -1405335.9, -87986.13, -0.09123005, 0.54036945, -1329617.9, 187873.88, 0.32934, 10.000391, 10.000945 
2.1750493e+3, 1.55165e+2, -1643905.6, -1411530.9, -189890.17, -0.223886, 0.7392523, -1305102.5, 114356.625, 0.18832743, 9.997914, 10.001175 
2.1750566e+3, 1.6516723e+2, -1687656.4, -1360243.3, -133532.58, -0.09290291, 0.834058, -1312689.9, 8747.775, 0.0852701, 9.996839, 10.001265 
2.1750674e+3, 1.7516808e+2, -1505995.8, -1203971.5, -61054.008, 0.2560912, 0.7575743, -1192096.4, 31331.99, 0.028395085, 9.997373, 10.001387 
2.1750739e+3, 1.8516958e+2, -1347665.8, -1075121.6, -75900.46, 0.25414854, 0.7615422, -1055409.9, 70002.98, 0.006367479, 9.997788, 10.001404 
2.1750773e+3, 1.951717e+2, -1189551.1, -951992.25, -80047.68, -0.055118978, 0.8154095, -927536.94, 99853.914, 0.0009868387, 9.998236, 10.0013485 
2.175084e+3, 2.051724e+2, -1082528.6, -1074924.0, -53377.504, -0.10262144, 0.85010076, -1025213.56, -95829.29, 0.000047582707, 9.999239, 9.999359 
2.175094e+3, 2.151717e+2, -740340.56, -853588.6, -52314.887, 0.11538591, 0.82095754, -719872.94, 111520.28, 0.00000000032497088, 10.000921, 9.999381 
2.1751013e+3, 2.2516999e+2, -577516.7, -683206.44, -82915.77, 0.10223886, 0.6910864, -532037.56, 201369.17, 0.0, 10.001195, 9.999745 
2.1751063e+3, 2.3516738e+2, -590568.4, -637494.94, -81790.57, -0.11228196, 0.4337762, -528942.1, 106482.09, 0.0, 10.000438, 9.9997425 
2.1751148e+3, 2.4516739e+2, -623058.75, -797265.06, -6754.8755, -0.11120835, 0.54336333, -622797.25, -85371.71, 0.0, 10.0003605, 9.998023 
2.1751262e+3, 2.5516972e+2, -394410.28, -622292.6, -11659.284, 0.09761646, 0.9467025, -393815.3, 45597.723, 0.0, 10.001228, 9.998114 
2.1751358e+3, 2.651678e+2, -223895.98, -496857.53, -52121.535, 0.12931693, 0.9438488, -214282.08, 127150.91, 0.0, 10.001747, 9.998062 
2.1751438e+3, 2.7516183e+2, -46103.996, -353462.22, -60680.066, 0.033665866, 0.5140229, -34557.99, 208927.36, 0.0, 10.002285, 9.998099 
2.1751533e+3, 2.851604e+2, 68671.055, -204615.63, -50609.723, 0.08511339, 0.5358703, 77742.32, 223238.7, 0.0, 10.002183, 9.998517 
2.1751633e+3, 2.9516342e+2, 141960.58, -84916.03, 8861.288, 0.23619856, 0.9393584, 142306.16, 189773.05, 0.00000028754212, 10.001883, 9.998795 
2.1751736e+3, 3.051611e+2, 137152.77, -256544.44, 127988.83, 0.21100284, 0.9058127, 175103.03, 175103.03, 0.0000061263827, 10.002336, 9.997082 
2.1751812e+3, 3.1515867e+2, 326331.88, -299421.53, 119780.875, -0.19223318, 0.89635265, 348476.5, 348476.5, 0.000027574106, 10.004221, 9.995851 
2.1850441e+3, 1.4515498e+2, -2318567.0, -1970162.0, -130330.73, 0.03748048, 0.60788065, -1926803.9, -409247.5, 0.34983045, 9.994733, 9.999416 
2.185049e+3, 1.5515746e+2, -1363341.3, -1355750.9, 10656.684, -0.1448608, 0.8041842, -1348233.8, 71302.96, 0.2059314, 10.000255, 10.000417 
2.1850556e+3, 1.6515878e+2, -1065151.8, -1070181.1, -10511.924, -0.10668101, 0.8473667, -1056858.0, 264664.6, 0.09816949, 10.001316, 10.001283 
2.1850666e+3, 1.7515874e+2, -1211970.1, -1058867.9, -69263.42, 0.3419502, 0.6816218, -1032183.8, 191332.75, 0.036017943, 9.999413, 10.001427 
2.185073e+3, 1.8516001e+2, -1215654.5, -1091414.5, -95090.77, 0.31229767, 0.6966105, -1039951.25, 85552.01, 0.009796201, 9.9990225, 10.000703 
2.1850762e+3, 1.9516249e+2, -966781.75, -925948.3, -133260.61, -0.09729467, 0.857046, -811549.5, 215933.9, 0.0020521113, 10.00011, 10.00062 
2.1850835e+3, 2.051631e+2, -921052.44, -973928.56, -99286.695, -0.13371247, 0.90851885, -844744.1, 84735.06, 0.00020967671, 10.000258, 9.999565 
2.1850945e+3, 2.1516187e+2, -905246.1, -906949.2, -85937.26, 0.1374986, 0.8064339, -820156.2, 11334.158, 0.00000086887735, 9.999675, 9.999621 
2.1851023e+3, 2.2516023e+2, -754075.56, -810395.1, -103020.35, 0.14724827, 0.69059026, -675435.7, 58067.84, 0.0, 10.000142, 9.999394 
2.1851076e+3, 2.351582e+2, -430417.44, -591734.06, -129656.31, -0.08188948, 0.5263033, -358378.25, 277140.06, 0.0, 10.001685, 9.999454 
2.1851163e+3, 2.4515812e+2, -359937.72, -676614.8, -48707.184, -0.083127856, 0.64468354, -352615.5, 184904.83, 0.0, 10.002186, 9.997977 
2.1851277e+3, 2.551597e+2, -327365.8, -600182.5, -52106.344, 0.10345041, 0.98076296, -317752.56, 121759.625, 0.0, 10.001711, 9.998046 
2.1851377e+3, 2.6515737e+2, -239395.95, -507451.8, -47318.24, 0.14476232, 0.9357684, -231288.38, 110246.8, 0.0, 10.001627, 9.998062 
2.185146e+3, 2.751511e+2, -84730.75, -374969.03, -44141.043, 0.05496358, 0.48396513, -78166.02, 165424.28, 0.0, 10.002012, 9.998098 
2.1851557e+3, 2.851496e+2, 103908.28, -193283.4, -70137.24, 0.120390385, 0.49775487, 119629.08, 265231.72, 0.0, 10.002422, 9.998492 
2.185166e+3, 2.951526e+2, 303503.47, -15726.42, -141652.22, 0.26982918, 0.91676617, 357294.9, 404869.9, 0.000000027227998, 10.0030155, 9.998734 
2.1851768e+3, 3.0515116e+2, 353107.44, -51044.027, 12107.528, 0.24530497, 0.913669, 353469.84, 353469.84, 0.0000044959556, 10.003328, 9.998047 
2.1851853e+3, 3.1514984e+2, 176964.72, -261736.83, 28109.375, -0.11537562, 0.9502186, 178758.47, 178758.47, 0.000025056477, 10.002636, 9.996914 
2.1950391e+3, 1.4515276e+2, -2354158.3, -2057566.0, -277924.3, -0.008681847, 1.0142798, -1890848.4, -373264.4, 0.371045, 9.994804, 9.99878 
2.1950525e+3, 1.5515256e+2, -1353271.8, -1327756.9, 169108.1, 0.14400737, 0.92585874, -1170925.8, 248659.4, 0.22535217, 10.000303, 10.000743 
2.1950574e+3, 1.6515154e+2, -1159026.6, -1272593.3, -94860.25, -0.092060655, 0.7880084, -1105253.1, 216337.84, 0.113554515, 10.00137, 9.999727 
2.1950647e+3, 1.751487e+2, -1330493.8, -1297192.1, -132729.63, 0.19296467, 0.5126195, -1180072.9, 43538.633, 0.046104282, 9.999407, 9.999756 
2.1950704e+3, 1.851489e+2, -1275198.9, -1225240.6, -54318.85, 0.107244186, 0.5500789, -1190432.8, -64822.023, 0.015073848, 9.999067, 9.999761 
2.1950766e+3, 1.9515193e+2, -1035535.9, -1066769.6, -87268.016, -0.094593264, 0.8652846, -962498.44, 65091.44, 0.004138987, 10.000107, 9.999655 
2.1950842e+3, 2.0515232e+2, -893921.4, -906062.4, -126432.914, -0.10245954, 0.91838735, -773413.3, 156175.52, 0.00072646124, 10.000211, 10.000051 
2.1950927e+3, 2.151503e+2, -881355.0, -833828.0, -103036.75, -0.010452059, 0.6810341, -751849.94, 79755.086, 0.000022642807, 9.999577, 10.000165 
2.1951011e+3, 2.251503e+2, -818650.94, -903734.6, -50155.52, 0.005616444, 0.7295401, -795425.1, -61820.445, 0.000000000011542125, 9.999964, 9.998838 
2.1951102e+3, 2.351521e+2, -483255.13, -679341.5, -65940.63, -0.0033101637, 0.99831784, -463143.2, 172446.72, 0.0, 10.001584, 9.998899 
2.1951191e+3, 2.451508e+2, -386743.9, -674017.4, -74154.086, -0.020058054, 1.0153617, -368731.84, 168870.39, 0.0, 10.001948, 9.998102 
2.1951282e+3, 2.5514647e+2, -336850.34, -590901.25, -62860.17, -0.03835584, 0.748424, -322147.66, 117493.734, 0.0, 10.001594, 9.998161 
2.1951379e+3, 2.6514426e+2, -260086.48, -487353.28, -40054.03, 0.00057377724, 0.6953837, -253233.89, 88425.836, 0.0, 10.001375, 9.998309 
2.1951489e+3, 2.7514374e+2, -87401.625, -342377.75, -23054.02, 0.12720653, 0.7881329, -85333.93, 158326.86, 0.0, 10.001865, 9.998382 
2.1951582e+3, 2.8514096e+2, -37750.19, -429368.9, -57181.168, 0.08163859, 0.7331427, -29571.826, 116116.64, 0.0, 10.002185, 9.996981 
2.1951658e+3, 2.9513618e+2, 157106.53, -270777.78, -96158.93, -0.099374235, 0.5264946, 177723.08, 225463.08, 0.000000020729713, 10.002808, 9.997082 
2.1951772e+3, 3.051357e+2, 431770.28, 235018.95, -6655.77, -0.06675341, 0.6056934, 431995.16, 431995.16, 0.0000055230016, 10.002837, 10.000221 
2.1951899e+3, 3.1513637e+2, 281641.6, 123781.08, 110526.09, 0.062344324, 0.5859949, 338527.4, 338527.4, 0.000029811183, 10.001993, 9.99983 
2.2050376e+3, 1.4514558e+2, -1394924.0, -1533656.6, -78942.97, 0.022746101, 0.99774075, -1359201.4, 158453.55, 0.39437363, 10.001819, 9.999108 
2.2050534e+3, 1.5514417e+2, -1592012.4, -1480446.0, 68041.875, 0.30098167, 0.86782014, -1448243.6, -28578.443, 0.24751917, 9.998684, 10.000212 
2.2050571e+3, 1.6514286e+2, -1809424.3, -1611936.0, -226310.05, -0.0069589126, 0.7274041, -1463765.9, -142092.45, 0.13222682, 9.99684, 9.999546 
2.2050633e+3, 1.7514081e+2, -1301782.8, -1342326.1, -133427.56, 0.10065733, 0.57101434, -1187095.8, 36593.234, 0.059555795, 9.999802, 9.999284 
2.2050694e+3, 1.8514028e+2, -1075478.1, -1209019.6, -12170.544, 0.02564614, 0.60096157, -1074378.0, 51318.094, 0.023171267, 10.0007925, 9.999045 
2.2050771e+3, 1.9514152e+2, -1150605.5, -1194288.9, -44318.54, -0.019554537, 0.80110073, -1123038.8, -95345.875, 0.008108057, 9.999619, 9.999027 
2.205085e+3, 2.0514168e+2, -993097.7, -943459.06, -59977.1, -0.001706149, 0.8587305, -903368.8, 26324.79, 0.0021629941, 9.999476, 10.000155 
2.2050925e+3, 2.1514083e+2, -722018.25, -747976.5, -77452.59, -0.0276202, 0.73050505, -656464.8, 175233.17, 0.00023583506, 10.000622, 10.000255 
2.2051013e+3, 2.2514099e+2, -696325.06, -907881.25, -16687.064, -0.013154874, 0.82002467, -695016.94, 38680.297, 0.0000019906881, 10.00108, 9.998271 
2.2051118e+3, 2.351422e+2, -625235.94, -814240.7, -53126.758, 0.048528634, 1.0889505, -611326.4, 24363.797, 0.0, 10.0008745, 9.99833 
2.2051214e+3, 2.4513985e+2, -518190.84, -720631.94, -70622.9, 0.07421345, 1.0238937, -495988.56, 41723.3, 0.0, 10.00096, 9.998264 
2.2051303e+3, 2.551342e+2, -346164.5, -562534.5, -72164.52, 0.029972086, 0.6030076, -324304.47, 115455.266, 0.0, 10.001431, 9.998409 
2.2051398e+3, 2.6513246e+2, -186554.06, -459198.8, -31211.787, 0.03525906, 0.5859982, -183026.64, 158746.22, 0.0, 10.001898, 9.99826 
2.2051506e+3, 2.751339e+2, -6483.654, -312531.66, -48289.78, 0.09000711, 0.88517326, 954.95044, 244712.67, 0.0, 10.002446, 9.998314 
2.20516e+3, 2.8513148e+2, -40370.203, -414714.63, -48983.703, 0.05480899, 0.8535167, -34066.73, 111716.82, 0.0, 10.002112, 9.997111 
2.2051677e+3, 2.951251e+2, -81465.016, -380279.03, 1448.156, -0.09064637, 0.49067518, -81458.0, -33608.12, 0.00000007580395, 10.001147, 9.997132 
2.2051796e+3, 3.0512476e+2, 180362.81, 82614.56, 105257.72, 0.0017534753, 0.5832176, 247539.83, 247539.83, 0.0000083740215, 10.001211, 9.999976 
2.2051936e+3, 3.1512487e+2, 385750.22, 313966.88, -61356.832, 0.21795264, 0.5539832, 420942.1, 420942.1, 0.000042885644, 10.002058, 10.001119 
2.2150427e+3, 1.451353e+2, -1358303.3, -1404412.6, 261266.64, 0.29068226, 0.76007396, -1119076.1, 398675.7, 0.4221777, 10.001802, 10.000774 
2.2150522e+3, 1.5513194e+2, -1699309.6, -1691373.4, -103828.43, 0.28970185, 0.6211065, -1591437.3, -171657.27, 0.27423543, 9.998643, 9.99879 
2.2150546e+3, 1.6513243e+2, -1711349.9, -1418005.6, -157007.31, 0.027687287, 0.6614548, -1349819.6, -28046.182, 0.15564767, 9.9968815, 10.000852 
2.2150622e+3, 1.7513503e+2, -1242202.6, -1218394.9, -20093.057, -0.017288482, 0.86237127, -1206944.3, 16804.842, 0.07778218, 9.999793, 10.000135 
2.2150698e+3, 1.851342e+2, -1109406.3, -1293721.9, -54893.16, -0.026342813, 0.8580366, -1094296.5, 31463.035, 0.035576556, 10.000842, 9.9984455 
2.2150776e+3, 1.9513114e+2, -1182403.8, -1252961.6, -85658.61, 0.05933144, 0.6731871, -1125043.6, -97249.914, 0.0154146915, 9.99959, 9.998637 
2.2150855e+3, 2.0513101e+2, -1013613.7, -977553.44, -23846.75, 0.07047724, 0.728461, -965687.9, -35892.15, 0.005714695, 9.999436, 9.99994 
2.2150938e+3, 2.1513326e+2, -755607.44, -800377.6, -28250.29, 0.0066078105, 0.9393277, -741948.5, 89823.11, 0.0013616167, 10.000544, 9.999932 
2.2151026e+3, 2.2513233e+2, -778128.3, -1030176.4, -30512.613, -0.019550417, 0.9754754, -774487.1, -40706.24, 0.00013056793, 10.000875, 9.997529 
2.2151126e+3, 2.3512852e+2, -687259.6, -915874.56, -53584.902, 0.010540326, 0.8090642, -675323.1, -39503.504, 0.0000045921656, 10.000753, 9.997691 
2.2151227e+3, 2.4512525e+2, -547799.94, -717256.25, -63005.69, 0.09168265, 0.67731625, -526941.25, 10908.367, 0.000000030624218, 10.000699, 9.9984045 
2.2151338e+3, 2.5512254e+2, -355576.4, -544426.2, -49177.176, 0.22751172, 0.52818745, -343537.88, 96332.64, 0.0, 10.001277, 9.998606 
2.215143e+3, 2.6512146e+2, -246753.53, -525337.94, -23176.922, 0.13855696, 0.5875914, -244838.48, 97041.01, 0.0, 10.001661, 9.997911 
2.2151512e+3, 2.7512172e+2, -55259.023, -373904.97, -22596.152, -0.13136028, 0.79174733, -53664.64, 190215.42, 0.0, 10.002284, 9.997963 
2.2151606e+3, 2.851209e+2, 10169.902, -233262.34, -97164.87, -0.112074025, 0.8767529, 44196.598, 190085.77, 0.0, 10.001804, 9.998492 
2.2151716e+3, 2.9511866e+2, -13734.376, -205393.11, -22909.422, 0.17775972, 0.77393657, -11034.005, 36877.71, 0.00000027397763, 10.001021, 9.998378 
2.2151838e+3, 3.0511746e+2, -35559.535, -289492.06, 131807.52, 0.24282254, 0.8454403, 20486.912, 20486.912, 0.000015050563, 10.000924, 9.997534 
2.2151926e+3, 3.151145e+2, 215168.34, 132010.44, -54057.586, -0.10040035, 0.72588426, 241787.88, 241787.88, 0.00007034586, 10.001382, 10.000165 
2.2250438e+3, 1.451237e+2, -1119969.6, -1103511.3, 348822.47, 0.13837309, 0.74366695, -762820.94, 755035.7, 0.45833316, 10.003216, 10.003643 
2.2250515e+3, 1.5512058e+2, -1587240.4, -1598778.3, -190062.27, 0.3364341, 0.43725452, -1402859.5, 17029.025, 0.30885017, 9.999243, 9.999158 
2.2250539e+3, 1.6512422e+2, -1219867.5, -1242802.4, -65195.066, 0.062248044, 0.80368423, -1165139.0, 156716.25, 0.18666483, 10.000651, 10.000356 
2.2250627e+3, 1.7512567e+2, -1225655.6, -1248936.5, -88499.44, 0.061600983, 0.9307907, -1148034.4, 75810.6, 0.103338934, 10.000122, 9.999781 
2.225071e+3, 1.851245e+2, -1251829.5, -1316052.5, -160859.14, 0.07092795, 0.8865269, -1119908.0, 5949.587, 0.054786276, 9.999643, 9.998882 
2.2250776e+3, 1.9512174e+2, -990013.06, -1112409.6, -128492.02, 0.036432274, 0.6868894, -908889.8, 118993.875, 0.028543482, 10.000692, 9.999081 
2.2250855e+3, 2.0512123e+2, -828601.25, -1009637.8, -36926.758, 0.043424435, 0.7334965, -821358.9, 108530.24, 0.013685946, 10.001248, 9.998838 
2.2250952e+3, 2.1512264e+2, -761656.4, -928953.9, -125498.45, 0.085742354, 0.9744588, -694484.1, 137393.47, 0.005262215, 10.001058, 9.998801 
2.2251044e+3, 2.2512066e+2, -761024.2, -1023977.5, -132928.61, 0.07719048, 0.9649255, -705535.3, 28361.94, 0.001420654, 10.0009775, 9.997533 
2.2251132e+3, 2.3511572e+2, -651969.8, -893253.44, -115253.414, 0.00613938, 0.6815334, -605765.0, 30179.3, 0.0002619265, 10.000962, 9.997754 
2.2251235e+3, 2.4511302e+2, -497913.28, -690872.8, -76592.38, 0.090629645, 0.6041842, -471207.25, 66761.57, 0.000035642544, 10.001012, 9.9984455 
2.2251357e+3, 2.551126e+2, -344079.72, -534069.06, -75562.03, 0.30362558, 0.67799824, -317692.3, 122278.3, 0.0000011567587, 10.001293, 9.998692 
2.2251453e+3, 2.6511157e+2, -242187.75, -475069.1, -14839.393, 0.21399032, 0.7185051, -241245.97, 100733.375, 0.0, 10.00149, 9.998337 
2.2251526e+3, 2.751099e+2, -72016.68, -326823.06, 17425.809, -0.17270721, 0.6920946, -70830.48, 173165.47, 0.0, 10.00196, 9.998438 
2.2251624e+3, 2.8510955e+2, 118617.22, -162023.53, -84696.055, -0.13918795, 0.78433883, 142196.9, 288196.4, 0.0, 10.002446, 9.998691 
2.2251743e+3, 2.9510933e+2, 310160.72, -41897.086, -119548.305, 0.23641965, 0.88801175, 346918.03, 394919.88, 0.00000073017384, 10.003214, 9.998447 
2.2251862e+3, 3.051075e+2, 210490.36, -257486.97, 62535.355, 0.30086517, 0.91641957, 218702.78, 218702.78, 0.00002755439, 10.002959, 9.996796 
2.2251938e+3, 3.151018e+2, 247461.7, 76056.57, -87011.195, -0.15584716, 0.63116175, 283889.72, 283889.72, 0.000118261974, 10.001844, 9.999597 
2.2350511e+3, 1.5511055e+2, -1473302.1, -1318809.3, -148531.55, 0.3338423, 0.39746594, -1228638.3, 191347.61, 0.35698506, 9.999026, 10.001651 
2.2350547e+3, 1.6511804e+2, -1382921.4, -1595176.8, -58469.96, 0.02124663, 1.1330979, -1367880.5, -45959.58, 0.23053116, 10.000577, 9.997848 
2.2350653e+3, 1.7511253e+2, -1350880.3, -1498202.0, -124975.49, 0.26930675, 0.7613568, -1279472.9, -55494.49, 0.14104874, 10.000041, 9.998083 
2.2350723e+3, 1.8511099e+2, -1156449.8, -1108195.1, -134960.5, 0.20116855, 0.675624, -995222.2, 130769.734, 0.08532412, 9.999616, 10.000367 
2.2350764e+3, 1.9511317e+2, -908116.6, -924946.3, -78308.54, -0.15435314, 0.832213, -837772.1, 190192.13, 0.05187056, 10.000635, 10.000426 
2.2350848e+3, 2.0511247e+2, -984073.06, -1312044.1, -45737.543, -0.17857328, 0.8954067, -977814.1, -47841.74, 0.030293982, 10.001152, 9.996808 
2.2350971e+3, 2.151089e+2, -914123.5, -1221210.8, -127472.7, 0.1385857, 0.83851177, -868105.25, -36089.355, 0.015773455, 10.000947, 9.996849 
2.2351067e+3, 2.2510588e+2, -749474.56, -938648.0, -137418.78, 0.17128696, 0.78575224, -677236.3, 56811.234, 0.0069356123, 10.000728, 9.998232 
2.2351138e+3, 2.351035e+2, -614103.75, -792385.5, -107426.77, -0.04531759, 0.68097055, -563650.2, 72416.375, 0.002541045, 10.000865, 9.998487 
2.2351235e+3, 2.4510293e+2, -545374.4, -727170.7, -77615.445, -0.039080154, 0.7895478, -516745.8, 21325.56, 0.00075579167, 10.000756, 9.998313 
2.235136e+3, 2.5510433e+2, -367409.88, -545122.06, -58709.016, 0.18402192, 1.0415264, -349766.4, 90293.555, 0.00014769337, 10.001131, 9.998691 
2.2351463e+3, 2.6510274e+2, -236602.7, -370375.94, -15689.274, 0.1316778, 0.983875, -234787.25, 107284.96, 0.000007045108, 10.001117, 9.99922 
2.2351553e+3, 2.7509832e+2, -34947.47, -197868.83, 43001.477, -0.12588543, 0.5835572, -24294.254, 219812.89, 0.00000000065814787, 10.001749, 9.999412 
2.2351648e+3, 2.8509697e+2, -7907.7407, -338383.53, -78091.234, -0.1601081, 0.56963277, 9615.964, 155734.36, 0.0, 10.002104, 9.997626 
2.2351752e+3, 2.950975e+2, 173921.23, -245290.06, -84327.766, -0.007989286, 0.84860265, 190248.53, 238366.03, 0.0000012574419, 10.002902, 9.997181 
2.2351862e+3, 3.0509448e+2, 139820.73, -258820.77, 4072.2747, -0.026105504, 0.81412923, 139862.33, 139862.33, 0.000044073433, 10.002382, 9.99704 
2.2351977e+3, 3.1509066e+2, 48515.16, -140815.92, 50713.25, 0.020995261, 0.6758903, 61243.28, 61243.28, 0.00018419352, 10.001093, 9.998435 
2.245047e+3, 1.5510754e+2, -1429705.4, -1870492.0, -288835.5, -0.19705342, 1.0266389, -1286781.8, 133235.72, 0.42759266, 10.002538, 9.995695 
2.2450544e+3, 1.6510548e+2, -1615773.4, -1608610.4, -198627.67, 0.07960419, 1.070424, -1413531.9, -91486.234, 0.29616648, 9.998545, 9.998744 
2.2450665e+3, 1.7510127e+2, -1279543.3, -1346606.4, -83773.18, 0.38893613, 0.7260577, -1222840.0, 1247.8107, 0.19952731, 10.000042, 9.999114 
2.2450738e+3, 1.8510039e+2, -1078835.4, -1112760.5, -64413.426, 0.3572216, 0.6685624, -1029188.56, 96906.08, 0.13536815, 10.000368, 9.999962 
2.2450776e+3, 1.9510242e+2, -1068754.3, -1055818.4, -158498.72, -0.047511503, 0.8565406, -903655.7, 124414.4, 0.09319166, 9.999747, 9.999976 
2.2450861e+3, 2.0510128e+2, -1157516.8, -1417228.1, -97837.05, -0.09495594, 0.90533304, -1124785.3, -194702.4, 0.06306426, 10.0, 9.996681 
2.2450987e+3, 2.150967e+2, -909893.1, -1239729.6, -61637.336, 0.20610386, 0.7694879, -898751.2, -66615.2, 0.0400799, 10.001026, 9.996713 
2.2451082e+3, 2.2509395e+2, -632658.4, -844558.4, -24280.541, 0.2362283, 0.73616487, -629911.8, 104253.23, 0.023131557, 10.001365, 9.998583 
2.2451152e+3, 2.3509328e+2, -601227.5, -748321.6, -44497.13, 0.0048273373, 0.7645696, -588814.3, 47353.754, 0.011994159, 10.000789, 9.99883 
2.245124e+3, 2.4509284e+2, -559300.1, -752665.3, 3755.7827, -0.038076535, 0.8827868, -559227.2, -21056.498, 0.0054928027, 10.000723, 9.998157 
2.245136e+3, 2.5509307e+2, -365628.97, -547216.7, 1843.3818, 0.06499007, 1.0283142, -365610.25, 74558.52, 0.002050329, 10.001166, 9.998654 
2.2451468e+3, 2.6509103e+2, -322184.28, -466053.34, -19331.865, 0.109787345, 0.95164824, -319631.9, 22554.229, 0.0004876709, 10.000734, 9.998763 
2.2451584e+3, 2.750868e+2, -273774.78, -354281.38, -54606.38, 0.1020016, 0.61202055, -246188.67, -1966.805, 0.000047167257, 10.000272, 9.999058 
2.245168e+3, 2.8508562e+2, -238148.03, -420499.75, -140251.92, 0.043105382, 0.6188405, -162040.78, -15809.684, 0.00000034188096, 10.000399, 9.997884 
2.2451763e+3, 2.9508594e+2, 64666.92, -278660.06, -81995.25, -0.14217249, 0.87469876, 83244.266, 131473.94, 0.0000013302117, 10.002046, 9.997383 
2.2451887e+3, 3.0508083e+2, 364499.75, -40853.0, 83161.16, -0.054600243, 0.55087316, 380897.56, 380897.56, 0.0000584347, 10.003412, 9.99805 
2.2452019e+3, 3.150813e+2, 444683.56, -6555.718, 98287.72, 0.184117, 0.7785727, 465162.88, 465162.88, 0.00025945, 10.003966, 9.997979 
2.2550532e+3, 1.650867e+2, -1415326.3, -1200665.9, -120672.91, 0.024052378, 0.6378304, -1146497.6, 175730.67, 0.39765337, 9.998318, 10.00231 
2.2550663e+3, 1.7509164e+2, -1080069.9, -932652.06, -30980.898, 0.3463488, 0.8109255, -926405.9, 297770.03, 0.29298013, 10.000028, 10.002796 
2.2550757e+3, 1.8509236e+2, -1272885.1, -1479287.4, -122420.14, 0.44231647, 0.84981084, -1215970.1, -89801.22, 0.21888196, 10.00016, 9.997496 
2.2550808e+3, 1.9508906e+2, -1248694.4, -1401164.6, -191691.3, 0.26476985, 0.73929954, -1118635.3, -90430.21, 0.16615056, 9.999602, 9.997621 
2.2550888e+3, 2.0508724e+2, -1057389.8, -1179150.4, -61443.39, 0.15323326, 0.7386886, -1031773.25, -101548.305, 0.12546477, 9.999869, 9.998364 
2.2550996e+3, 2.1508572e+2, -814563.1, -1013898.7, -16113.7, 0.18804875, 0.7382602, -813268.94, 18972.063, 0.0914258, 10.000922, 9.998302 
2.2551091e+3, 2.2508477e+2, -681495.25, -886670.8, -46945.867, 0.15796016, 0.815509, -671263.9, 62986.98, 0.062582165, 10.001122, 9.998413 
2.255117e+3, 2.350849e+2, -625287.94, -769854.6, -59911.39, 0.09553863, 0.9283359, -603687.0, 32562.879, 0.039919913, 10.00065, 9.998757 
2.2551252e+3, 2.4508275e+2, -655830.8, -836198.75, 3004.724, -0.031241735, 0.9006425, -655780.8, -117513.7, 0.023601582, 10.000242, 9.997804 
2.2551353e+3, 2.550789e+2, -405454.3, -579524.44, 18922.002, -0.14275013, 0.64991754, -403421.16, 36875.53, 0.012405956, 10.000968, 9.998517 
2.2551468e+3, 2.6507616e+2, -499166.6, -760747.5, -71125.29, 0.020217462, 0.6149573, -481078.06, -138754.67, 0.005154125, 10.000438, 9.996878 
2.2551619e+3, 2.7507526e+2, -432170.53, -611265.3, -69176.93, 0.396989, 0.75843424, -408562.34, -164222.2, 0.0013586987, 9.999976, 9.997428 
2.2551711e+3, 2.8507534e+2, -247799.31, -299212.4, -112648.22, 0.296016, 0.9147446, -157961.73, -11622.637, 0.00015517221, 9.999836, 9.998965 
2.2551775e+3, 2.9507464e+2, 106919.76, -93514.14, -9376.425, -0.25505602, 0.9624591, 107357.44, 155695.84, 0.0000026982873, 10.001703, 9.998778 
2.2551931e+3, 3.0506647e+2, 400460.4, 147955.03, 95074.34, -0.020216925, 0.15763316, 432254.78, 432254.78, 0.000065484004, 10.002961, 9.999547 
2.2552039e+3, 3.150706e+2, 335377.06, -92028.92, 209301.23, -0.06470695, 0.6513198, 420799.4, 420799.4, 0.00034262822, 10.003405, 9.997655 
2.2650582e+3, 1.7507555e+2, -1210726.9, -1896512.0, 59045.273, -0.60724396, -0.009448216, -1205680.4, 18637.863, 0.44342524, 10.002681, 9.994216 
2.2650716e+3, 1.8508457e+2, -1102349.9, -1381600.1, -128463.086, -0.041958142, 1.1442131, -1052243.8, 74001.11, 0.3585124, 10.001431, 9.997626 
2.2650819e+3, 1.950791e+2, -747684.6, -1063688.6, -48024.273, 0.20428856, 0.82164305, -740547.4, 287756.22, 0.29413474, 10.003679, 9.997956 
2.2650911e+3, 2.0507635e+2, -630988.7, -913393.9, 36404.3, 0.2094865, 0.69436634, -626371.4, 303961.2, 0.24160613, 10.0033, 9.998585 
2.2650984e+3, 2.1507598e+2, -956211.4, -1087674.0, -50189.91, 0.021014733, 0.80940455, -939240.6, -106905.84, 0.1940874, 9.999898, 9.998307 
2.2651072e+3, 2.2507487e+2, -1003294.94, -1165438.4, -86897.04, -0.034926247, 0.9151357, -965523.4, -231176.73, 0.14888066, 9.999354, 9.997368 
2.2651172e+3, 2.3507322e+2, -651329.4, -898887.0, -196953.75, 0.037959192, 0.97253245, -542488.4, 93877.48, 0.108788945, 10.0010195, 9.997725 
2.265127e+3, 2.4506986e+2, -403997.25, -719356.0, -141857.6, 0.03656352, 0.8821072, -349576.75, 188819.23, 0.07581198, 10.002002, 9.997813 
2.2651377e+3, 2.550654e+2, -227755.7, -520381.97, -133927.16, -0.05141936, 0.57537323, -175715.58, 264715.44, 0.048806984, 10.002273, 9.998378 
2.2651482e+3, 2.6506272e+2, -294016.0, -667864.9, -196759.2, 0.051463477, 0.56992847, -209546.02, 132910.52, 0.026684597, 10.001828, 9.996871 
2.2651619e+3, 2.750628e+2, -168624.17, -455729.16, -70864.74, 0.33492103, 0.7931801, -152085.67, 92377.48, 0.010897145, 10.001594, 9.997748 
2.2651714e+3, 2.850631e+2, -181173.86, -255314.6, -34183.68, 0.31463808, 0.94826907, -167818.69, -21358.088, 0.002788968, 10.000213, 9.9991 
2.2651806e+3, 2.950619e+2, 71208.13, -93116.07, 32595.89, -0.078985624, 0.94045055, 77437.79, 125903.87, 0.0003034348, 10.00139, 9.998933 
2.265197e+3, 3.050547e+2, 328881.97, 145049.14, 23723.654, 0.12560676, 0.17267974, 331894.13, 331894.13, 0.000074942734, 10.002388, 9.999798 
2.2652078e+3, 3.150583e+2, 162910.56, -249851.9, -89030.72, 0.031041695, 0.7428049, 181295.17, 181295.17, 0.00045627946, 10.00245, 9.997104 
2.275095e+3, 2.0506923e+2, -741186.25, -1164267.5, -56354.977, 0.21819934, 0.8615386, -733808.3, 196591.31, 0.4526298, 10.003994, 9.996477 
2.2750999e+3, 2.1506679e+2, -841994.7, -1210400.0, -108181.49, 0.16335982, 0.91514224, -812576.56, 19848.172, 0.38963944, 10.00155, 9.996642 
2.2751087e+3, 2.2506309e+2, -1084775.6, -1462939.6, 48103.727, 0.106853016, 0.93148106, -1078752.6, -344288.66, 0.32267725, 9.999926, 9.995018 
2.2751175e+3, 2.3505671e+2, -834506.0, -1220639.4, -90627.42, -0.043974623, 0.7149123, -814293.4, -177762.3, 0.25840095, 10.00072, 9.995598 
2.2751291e+3, 2.450529e+2, -533975.9, -837557.56, -125960.195, -0.008924858, 0.71183664, -488519.56, 50049.957, 0.20062341, 10.00135, 9.997287 
2.2751433e+3, 2.550523e+2, -331935.78, -576655.06, -107076.46, 0.24746807, 0.75557905, -291700.1, 148872.73, 0.14660953, 10.0017, 9.998239 
2.2751506e+3, 2.6505113e+2, -407879.6, -605903.7, -236629.64, 0.08346525, 0.8519271, -250382.44, 92197.9, 0.09444842, 10.000607, 9.997865 
2.2751592e+3, 2.7505016e+2, -95746.97, -179271.67, -86718.49, -0.1240433, 0.76736087, -41258.652, 203325.38, 0.04983968, 10.0011425, 9.999848 
2.2751684e+3, 2.8504923e+2, -362756.44, -452444.44, -95008.15, -0.034174018, 0.73695934, -302540.78, -155948.02, 0.019500945, 9.999477, 9.9980755 
2.2751848e+3, 2.950481e+2, -74656.37, -282489.4, 81928.15, 0.2002303, 0.808529, -46244.266, 2363.4856, 0.004786881, 10.000944, 9.997821 
2.2751997e+3, 3.0504605e+2, 107064.375, -110224.69, -18996.588, 0.11225366, 0.6493217, 108712.66, 108712.66, 0.0007184054, 10.001584, 9.998394 
2.2752112e+3, 3.1504586e+2, -84186.62, -514452.28, -152050.2, 0.093900025, 1.0489285, -35877.996, -35877.996, 0.0007782504, 10.001583, 9.995608 
2.2851348e+3, 2.4504551e+2, -208423.06, -453670.3, -153766.06, 0.19409885, 0.88828397, -134372.95, 404271.75, 0.45869297, 10.00409, 9.9995 
2.2851431e+3, 2.5504938e+2, -1128519.3, -1145479.0, -58413.484, 0.29757416, 1.6052094, -1077973.4, -637366.3, 0.36361384, 9.996811, 9.996774 
2.2851513e+3, 2.650357e+2, -923313.3, -825699.94, 35997.39, 0.2463979, 0.5316756, -813860.9, -471123.16, 0.26167566, 9.996697, 9.998297 
2.285164e+3, 2.7503714e+2, 280063.38, -36737.92, 68339.53, 0.10656207, 0.6945217, 294176.66, 538892.1, 0.1640845, 10.00443, 9.99961 
2.2851719e+3, 2.8503695e+2, 181672.78, -293574.3, -256131.67, 0.15254124, 0.84521914, 293432.1, 440148.75, 0.0825175, 10.003833, 9.997163 
2.2851884e+3, 2.9503593e+2, 34273.066, -254540.05, 77660.89, 0.42889175, 0.95204645, 53831.344, 102564.06, 0.030766618, 10.001714, 9.997703 
2.2852017e+3, 3.050359e+2, 141229.11, -27190.078, 110660.75, 0.15920378, 0.9728447, 196077.27, 196077.27, 0.009050205, 10.001418, 9.999082 
2.285212e+3, 3.1502923e+2, 232401.05, 88410.51, -647.55066, -0.011467657, 0.64968926, 232403.95, 232403.95, 0.003962611, 10.001754, 9.999668 
2.2951646e+3, 2.7502373e+2, 83548.875, -264749.13, 77996.66, -0.3043434, 0.56670314, 100217.47, 345074.13, 0.434636, 10.005115, 9.997442 
2.2951788e+3, 2.8502733e+2, -888329.0, -1105815.6, -704153.2, 0.38402763, 1.2723562, -284571.9, -137750.11, 0.25417677, 9.997586, 9.994489 
2.2951914e+3, 2.9502767e+2, -111075.32, -218584.81, -3165.3628, 0.5030762, 1.4122094, -110982.2, -62163.863, 0.12174407, 10.000403, 9.998455 
2.2952025e+3, 3.0502576e+2, -445104.13, -183173.64, 75208.164, -0.017114244, 1.1228621, -163115.17, -163115.17, 0.05385714, 9.996984, 10.000046 
2.2952119e+3, 3.1500843e+2, 611404.06, 1170301.1, 74654.33, -0.30657765, -0.60198146, 1180101.3, 1180101.3, 0.031032002, 10.000729, 10.007726 
2.3051988e+3, 2.9500952e+2, -817322.1, 428953.3, 220053.44, 1.3578528, 1.3200512, 466666.66, 515660.84, 0.36029765, 9.9895935, 10.010552 
2.3051973e+3, 3.0499956e+2, 1600830.8, 581970.06, -298751.66, -1.5774937, -0.49342194, 1681969.5, 1681969.5, 0.21281749, 10.014817, 9.997938 
2.3052219e+3, 3.1501338e+2, -592526.8, -1249382.6, -311081.72, 0.62021065, 2.0646963, -468586.8, -468586.8, 0.16348417, 9.999615, 9.99199 
2.3522027e+3, 2.7423152e+2, -699888.94, -1145149.5, 494551.78, 0.60687447, 1.3619844, -380167.22, -127589.49, 0.4484821, 9.999126, 9.993447 
2.3517707e+3, 2.8420073e+2, 240526.05, -304605.53, -272518.84, 0.14513794, -0.39272496, 353393.28, 508277.5, 0.350615, 10.004944, 9.996351 
2.3513445e+3, 2.9421067e+2, 182354.08, 470659.56, 553106.0, -1.2193266, 0.8457269, 898089.06, 954878.6, 0.27259472, 10.000097, 10.004638 
2.350969e+3, 3.0420253e+2, -112806.8, -411400.2, -73017.164, 1.1098388, 1.2714276, -95907.8, -95907.8, 0.21750472, 10.001968, 9.996282 
2.3663457e+3, 1.7472716e+2, -2438087.3, -1844921.3, 223512.61, -0.33320192, 0.57556015, -1770129.3, -542426.3, 0.4364069, 9.991164, 9.999292 
2.3659402e+3, 1.8470895e+2, -1147520.9, -1319976.3, -8476.1045, 0.31825063, -0.1700163, -1147105.3, -17223.049, 0.3775988, 10.000235, 9.997744 
2.3655143e+3, 1.9470118e+2, -1088470.4, -1227707.3, -22091.852, -0.19724841, 0.0043294323, -1085049.3, -53096.125, 0.33353588, 9.9998045, 9.997952 
2.3650916e+3, 2.0469582e+2, -271508.66, -817614.44, -161043.98, -0.7599135, 0.58389896, -227555.17, 706449.8, 0.30097756, 10.007214, 9.996855 
2.3646878e+3, 2.1467906e+2, -1548557.4, -1493091.5, -74058.14, 0.6118271, 0.012596947, -1441744.0, -605570.25, 0.27814138, 9.9957285, 9.996862 
2.3642558e+3, 2.2467336e+2, -38273.035, -576941.56, -18101.863, -0.8243208, 0.5698412, -37665.414, 700562.0, 0.26103863, 10.006888, 9.997443 
2.3638406e+3, 2.3465987e+2, -950781.6, -903421.56, -359850.63, -0.6805581, 0.19156955, -566472.7, 73876.56, 0.24561448, 9.997688, 9.998707 
2.3634411e+3, 2.4464795e+2, -1969398.4, -1127413.1, -54728.027, 1.0756307, -0.14862624, -1123870.9, -581404.6, 0.23007871, 9.989045, 10.000573 
2.3630181e+3, 2.5464132e+2, -1335951.4, -541775.94, 267736.53, -0.049332075, -0.02190809, -459946.7, -15402.572, 0.20982315, 9.991714, 10.002651 
2.3625909e+3, 2.6464322e+2, 306152.16, 730973.5, -168368.98, -0.87945944, 0.34347293, 789609.7, 1136140.3, 0.17454451, 10.000504, 10.008205 
2.3621848e+3, 2.7463973e+2, -327539.38, -340821.13, 20947.867, -0.2902732, 0.33408237, -312204.94, -63646.105, 0.12467133, 9.999133, 9.999083 
2.36177e+3, 2.8462738e+2, 281590.34, -672306.5, -542183.6, 0.37426603, 0.34908968, 526751.94, 677431.1, 0.08156805, 10.00574, 9.993124 
2.3613584e+3, 2.9461575e+2, 141710.16, -144150.8, 118380.34, 0.8271596, 0.19961283, 184368.0, 237166.39, 0.054696333, 10.002046, 9.998041 
2.3609468e+3, 3.0460188e+2, 395849.1, 796272.94, 381302.06, -0.4157216, -0.3303024, 1026730.3, 1026730.3, 0.038730446, 10.000417, 10.005589 
2.3771739e+3, 1.5514444e+2, -1318765.4, -1149253.6, 85588.71, -0.25022608, 0.07255467, -1113556.3, 306065.16, 0.40915996, 9.998825, 10.003004 
2.3767503e+3, 1.6514051e+2, -230572.42, -663621.75, -62737.37, -0.62796444, 0.2946683, -221666.6, 1099998.3, 0.31914032, 10.009652, 10.00125 
2.3763438e+3, 1.7513734e+2, -1019939.4, -1009264.75, -113648.35, 0.20949167, 0.6369793, -900828.44, 322864.78, 0.25440004, 10.0005665, 10.001051 
2.37593e+3, 1.8512905e+2, -1372502.4, -1096925.9, -154953.9, 0.48959804, 0.5619373, -1027358.56, 98413.25, 0.20803122, 9.99708, 10.001063 
2.3755105e+3, 1.9512217e+2, -970166.6, -915579.7, -54011.176, 0.3167167, 0.60386544, -882357.56, 145478.78, 0.17323056, 9.999356, 10.000621 
2.3750913e+3, 2.0511107e+2, -915264.0, -1185587.6, -34779.527, 0.023208184, 0.46580532, -910861.06, 19081.672, 0.14628343, 10.000584, 9.997312 
2.374673e+3, 2.1509638e+2, -790565.5, -1023711.2, -64287.53, -0.028319256, 0.09022222, -774013.9, 58071.508, 0.1255341, 10.000589, 9.997757 
2.3742583e+3, 2.2508572e+2, -479379.4, -730979.9, 162469.73, 0.06690247, 0.06844329, -399699.44, 334488.03, 0.10829949, 10.001878, 9.998514 
2.3738438e+3, 2.35077e+2, 107801.836, -334597.22, 112220.41, 0.0016370222, 0.23196785, 134639.9, 770908.2, 0.09199208, 10.005268, 9.99908 
2.3734236e+3, 2.450717e+2, 519661.66, 336614.38, -33431.992, -0.20412742, 0.41319433, 525576.56, 1063895.8, 0.07586676, 10.0055, 10.003224 
2.3730053e+3, 2.5506666e+2, -121100.76, -171387.56, 17766.926, -0.44739822, 0.59356415, -115456.92, 324915.2, 0.059159193, 10.001261, 10.000656 
2.3725887e+3, 2.650583e+2, 51226.617, -45730.082, -163343.47, -0.3254448, 0.5091229, 173133.83, 515590.97, 0.040411934, 10.001655, 10.000691 
2.3721817e+3, 2.75047e+2, -50138.426, -426386.13, 24519.48, 0.1065399, 0.25624788, -48547.258, 196023.06, 0.021717504, 10.002227, 9.996886 
2.3717643e+3, 2.85035e+2, 151322.08, -594480.7, -407559.6, 0.16807404, 0.36512068, 330833.8, 477522.06, 0.009485443, 10.004358, 9.993983 
2.3713474e+3, 2.9502442e+2, 477874.8, 45052.92, 76222.66, 0.09541544, 0.39427957, 490905.78, 539697.8, 0.0043268506, 10.004449, 9.99791 
2.3709412e+3, 3.0500978e+2, -441387.44, -219431.11, -148036.11, 0.019284911, 0.07110794, -145393.48, -145393.48, 0.0025188548, 9.997317, 9.999524 
2.3875764e+3, 1.4558013e+2, -1465133.6, -1820609.1, -10529.816, -0.56153524, 0.36829516, -1464821.9, 48512.695, 0.38967866, 10.001609, 9.996376 
2.3871683e+3, 1.5557238e+2, -1978743.5, -2151355.0, 62908.836, 0.13464269, 0.7709957, -1958249.4, -542826.7, 0.2783623, 9.99757, 9.995518 
2.3867518e+3, 1.655597e+2, -1647409.8, -1324914.6, 129762.26, 0.09876157, 0.5519238, -1279186.3, 38366.113, 0.19862524, 9.996624, 10.000921 
2.3863284e+3, 1.7554848e+2, -1256532.5, -1139655.0, 28223.463, -0.48947492, 0.17100166, -1133196.5, 86464.6, 0.1461588, 9.998752, 10.000595 
2.385909e+3, 1.8554215e+2, -1003757.44, -919055.7, 55674.27, -0.66289395, 0.320115, -891455.0, 230266.98, 0.11113541, 9.999718, 10.001022 
2.3854941e+3, 1.9553734e+2, -1003202.56, -908763.5, 27296.064, -0.4502148, 0.5647239, -901441.7, 122326.164, 0.08556882, 9.999053, 10.000709 
2.3850814e+3, 2.0552756e+2, -1048454.56, -1166430.3, 39517.9, -0.1716069, 0.50136954, -1036440.8, -110579.05, 0.065839775, 9.999387, 9.997982 
2.3846655e+3, 2.1551324e+2, -731370.8, -978007.9, 1059.5914, -0.05816307, 0.11358991, -731366.25, 96633.13, 0.050802168, 10.000966, 9.997876 
2.3842497e+3, 2.255027e+2, -614448.1, -633745.06, 190979.47, -0.14196277, -0.010669694, -432873.56, 297226.47, 0.038884565, 10.000118, 9.99998 
2.3838359e+3, 2.354944e+2, -954948.75, -873838.9, 147978.72, -0.23446573, 0.08324774, -760958.5, -128779.69, 0.028499383, 9.997611, 9.998857 
2.3834178e+3, 2.4548663e+2, -466067.25, -351874.03, -95786.98, -0.25294715, 0.1374722, -297457.56, 236795.44, 0.019239577, 9.999252, 10.0009985 
2.3830014e+3, 2.5547856e+2, -308215.25, -520051.13, -48529.938, -0.13348018, 0.20832121, -297626.7, 138703.66, 0.011432521, 10.001064, 9.998235 
2.3825872e+3, 2.654699e+2, 22476.324, -363927.13, -84949.875, 0.12989512, 0.35859954, 40327.645, 378746.7, 0.005416997, 10.002875, 9.997752 
2.3821773e+3, 2.7545792e+2, -317588.88, -659499.4, 60369.137, 0.29354745, 0.22706316, -307242.9, -66697.46, 0.001679893, 10.000807, 9.995984 
2.3817562e+3, 2.854451e+2, 61493.57, -348468.25, -157226.8, -0.2056048, 0.18822752, 114848.56, 257520.95, 0.00032890253, 10.002439, 9.996622 
2.3813367e+3, 2.954395e+2, 26908.428, -256922.11, 209052.66, -0.63009894, 0.58638763, 137664.8, 182387.56, 0.00010157676, 10.001545, 9.997346 
2.3809387e+3, 3.0542412e+2, -742057.1, -1034387.6, -106108.375, 0.7005852, 0.570769, -707603.25, -707603.25, 0.00014255464, 9.998017, 9.993697 
2.3979968e+3, 1.3599405e+2, -1392083.3, -2099378.8, -276099.78, 0.5381896, -0.3928579, -1297068.8, 310211.9, 0.42782024, 10.005288, 9.993528 
2.397575e+3, 1.4599378e+2, -1266729.8, -1177153.1, -170982.14, -0.036933046, 0.51323223, -1045190.5, 464094.66, 0.2998544, 10.000527, 10.002385 
2.3971543e+3, 1.5598257e+2, -1487190.6, -1310927.1, -68240.01, -0.21110415, 0.043007214, -1287596.3, 123795.05, 0.19614406, 9.998185, 10.001212 
2.396737e+3, 1.6597496e+2, -1537107.8, -1384477.1, 123445.984, -0.22412129, 0.08295044, -1315661.6, -2194.402, 0.12585048, 9.997756, 9.999988 
2.396322e+3, 1.7596903e+2, -1257390.5, -1249398.1, 73816.63, -0.1794541, 0.34814575, -1179469.6, 36060.094, 0.083471425, 9.999206, 9.99957 
2.3959056e+3, 1.8596083e+2, -963583.25, -957846.4, 20768.15, -0.14742419, 0.38490224, -939749.5, 177861.98, 0.057587944, 10.000207, 10.00044 
2.395489e+3, 1.9595148e+2, -903789.44, -913597.44, 22176.438, -0.09810449, 0.25356057, -885981.25, 133721.52, 0.03970386, 10.000009, 10.000162 
2.3950739e+3, 2.059427e+2, -893249.94, -1035023.06, 83343.41, -0.044438347, 0.29486248, -854724.3, 67064.05, 0.026570952, 10.000238, 9.998465 
2.3946589e+3, 2.159336e+2, -599908.7, -844032.7, 82361.65, -0.008232838, 0.409939, -574720.7, 249156.31, 0.017417854, 10.001582, 9.998483 
2.3942429e+3, 2.2592442e+2, -493381.34, -551551.75, 80985.43, -0.019775296, 0.38684237, -436416.63, 289546.38, 0.011141793, 10.000831, 10.000178 
2.3938271e+3, 2.3591384e+2, -815056.06, -792347.2, 84646.375, -0.06899984, 0.24677122, -718297.06, -90236.695, 0.0065593217, 9.998528, 9.9989395 
2.3934096e+3, 2.4590267e+2, -514476.72, -579136.2, 34766.293, -0.14357187, 0.067548424, -499331.13, 30837.143, 0.0032030866, 9.999844, 9.99909 
2.392995e+3, 2.558914e+2, -174872.72, -583281.56, 97659.09, -0.16371435, -0.019580444, -152721.8, 279558.16, 0.0011282732, 10.002568, 9.9970255 
2.3925792e+3, 2.6588252e+2, -55784.78, -477016.47, -49618.85, -0.118673086, 0.2351041, -50018.867, 284353.2, 0.00023273825, 10.002734, 9.996996 
2.3921643e+3, 2.758734e+2, -384117.66, -509466.6, 60747.375, -0.19909881, 0.43365794, -359509.06, -123039.93, 0.000018051116, 9.999623, 9.99752 
2.391748e+3, 2.85862e+2, -6751.0327, 91621.98, 58156.03, -0.24936908, 0.23405662, 118602.63, 257184.53, 0.000004039042, 9.999976, 10.000782 
2.3913394e+3, 2.9585668e+2, 201949.44, 82055.805, 357920.78, 0.35576263, 0.39388907, 504908.8, 545539.2, 0.00001362104, 10.001589, 9.999652 
2.390923e+3, 3.058432e+2, 119052.13, -80631.625, -32521.506, 0.040450957, 0.33486703, 124215.25, 124215.25, 0.000054133918, 10.001519, 9.9986105 
2.4083984e+3, 1.2642185e+2, -1409408.8, -1339217.9, 137078.56, -0.4899087, 0.70414644, -1232813.5, 468279.22, 0.49043, 10.001853, 10.003155 
2.4079834e+3, 1.3641597e+2, -1699639.4, -1404177.6, 45654.902, -0.03870801, 0.6266378, -1397283.9, 205865.06, 0.36336082, 9.9973345, 10.002812 
2.4075662e+3, 1.4640705e+2, -1662743.5, -1328879.3, -33730.418, 0.076359175, 0.30788913, -1325505.6, 179727.36, 0.24041095, 9.997232, 10.002253 
2.4071448e+3, 1.563973e+2, -1351440.9, -1202098.4, -134121.55, -0.17330313, -0.04331044, -1123262.6, 284061.44, 0.14389461, 9.999091, 10.001503 
2.4067275e+3, 1.6639039e+2, -1276002.0, -1244726.6, -22961.125, -0.2200342, 0.03151699, -1232583.9, 76807.21, 0.08188297, 9.999561, 10.000101 
2.4063134e+3, 1.7638399e+2, -1341954.8, -1297103.9, -41444.74, -0.082071654, 0.23683438, -1272406.5, -60950.32, 0.047678713, 9.998658, 9.9995165 
2.4058981e+3, 1.8637583e+2, -1192963.0, -1087630.3, -60994.97, 0.023945851, 0.27220792, -1059710.5, 53827.984, 0.028905774, 9.998739, 10.000173 
2.405482e+3, 1.963671e+2, -1114003.0, -1081441.6, -76309.85, 0.0979701, 0.23126234, -1019695.06, -4069.1467, 0.017015342, 9.998881, 9.999523 
2.4050657e+3, 2.063585e+2, -975876.44, -993885.3, 34627.957, -0.012037053, 0.27156752, -949101.3, -31392.781, 0.00915297, 9.999356, 9.999172 
2.4046504e+3, 2.1635011e+2, -856939.7, -949308.9, 27499.248, -0.101875566, 0.3892682, -849372.8, -29584.88, 0.0045936005, 9.999761, 9.998636 
2.4042349e+3, 2.2634104e+2, -672630.8, -726605.0, -74068.84, -0.018911682, 0.39671883, -620785.9, 101087.89, 0.0022051786, 9.999993, 9.99936 
2.4038191e+3, 2.3632976e+2, -765204.4, -855072.25, -111275.625, 0.08697553, 0.23413794, -690132.75, -66152.56, 0.0009056362, 9.99928, 9.998157 
2.4034023e+3, 2.4631864e+2, -518507.1, -613048.1, -5641.6733, -0.020929346, 0.08306341, -518171.63, 7916.523, 0.00023937336, 10.0000515, 9.998708 
2.4029881e+3, 2.56307e+2, -615645.4, -862599.44, 89510.62, -0.19112095, -0.036317557, -586614.25, -158410.75, 0.000025130046, 9.999844, 9.996432 
2.4025708e+3, 2.662972e+2, -238101.08, -586260.6, -56311.69, -0.34266436, 0.17387977, -229219.73, 101083.516, 0.00000030344088, 10.001608, 9.996781 
2.4021526e+3, 2.7628896e+2, -67819.58, -244236.66, 13901.966, -0.5736651, 0.42543453, -66730.8, 165657.42, 0.000000006555133, 10.001284, 9.998587 
2.401741e+3, 2.8627998e+2, 168609.44, 473585.78, 22448.463, -0.13221611, 0.22808917, 475229.3, 609707.7, 0.00000087941476, 9.999919, 10.00344 
2.401338e+3, 2.96274e+2, -646160.06, -268870.66, 135187.06, 0.9833666, 0.16565098, -225432.67, -188896.39, 0.0000072209577, 9.995529, 10.000173 
2.4009077e+3, 3.062645e+2, 342699.72, 434109.53, -100395.8, -0.8988123, 0.2290019, 498714.44, 498714.44, 0.00003484927, 10.001331, 10.002191 
2.4183941e+3, 1.2683879e+2, -1755303.5, -1664523.6, -40951.09, -0.18702517, -0.0030364383, -1648780.6, 48216.613, 0.44509992, 9.998903, 10.000323 
2.4179724e+3, 1.3683008e+2, -1771245.1, -1704609.5, -64836.94, -0.080030546, -0.016323317, -1665030.8, -65947.766, 0.31930807, 9.998431, 9.999485 
2.4175547e+3, 1.4682297e+2, -1662519.4, -1584301.4, 21607.84, 0.010195037, 0.15858097, -1578729.1, -77575.75, 0.20041417, 9.998554, 9.999491 
2.4171376e+3, 1.5681548e+2, -1446277.0, -1450559.8, -51577.66, 0.0009927932, 0.32088178, -1396796.3, 6431.093, 0.110025235, 9.999376, 9.999404 
2.4167198e+3, 1.6680561e+2, -1203134.9, -1132024.6, -33301.082, -0.12582877, 0.14231557, -1118865.0, 186457.02, 0.054970514, 9.999735, 10.000804 
2.4163023e+3, 1.767945e+2, -1212968.4, -1157641.6, -39056.652, -0.2809555, -0.18711428, -1137443.9, 69983.82, 0.027314784, 9.999195, 10.000222 
2.4158867e+3, 1.8678801e+2, -1143188.9, -1106573.0, -45116.664, -0.1751075, 0.0047732815, -1076191.1, 33303.0, 0.013986388, 9.999231, 9.999818 
2.415472e+3, 1.9678323e+2, -1039250.56, -1060232.5, -44062.15, 0.014870052, 0.4087425, -1004447.7, 7098.612, 0.006556314, 9.999423, 9.9994135 
2.415056e+3, 2.0677319e+2, -851101.2, -849819.5, 45385.734, -0.10175792, 0.267357, -805070.06, 108569.195, 0.002469395, 9.999831, 9.99995 
2.4146396e+3, 2.1676062e+2, -713705.06, -830782.44, 58197.85, -0.35537252, -0.09822169, -689698.25, 126054.06, 0.00078321603, 10.000479, 9.999117 
2.4142253e+3, 2.2675082e+2, -723396.7, -937231.44, -93056.94, -0.1413506, -0.08177652, -688571.6, 29277.89, 0.00023610769, 10.000406, 9.997721 
2.4138123e+3, 2.3674153e+2, -727892.3, -923051.9, -100565.016, 0.25004992, 0.10215663, -685346.7, -65399.91, 0.000047296035, 9.999883, 9.99739 
2.413396e+3, 2.4673292e+2, -465853.97, -461651.72, -8828.861, 0.17244317, 0.18184274, -454677.4, 67353.48, 0.0000020598873, 9.999863, 9.99985 
2.41298e+3, 2.5672406e+2, -545845.06, -610946.5, 94786.64, -0.12576973, 0.20709427, -478175.75, -54061.19, 0.0, 9.99937, 9.99837 
2.4125655e+3, 2.6671168e+2, -287150.75, -513477.38, 66504.91, -0.15699887, 0.04262221, -269055.4, 57176.832, 0.0, 10.000907, 9.997589 
2.4121514e+3, 2.7669853e+2, 191824.1, -80227.23, 55990.977, -0.13059485, -0.25257862, 202896.94, 431254.75, 0.0, 10.00283, 9.998984 
2.4117322e+3, 2.866912e+2, -79906.28, -6562.415, -290017.6, -0.13095579, -0.11816289, 249092.6, 379528.34, 0.0000001537889, 9.999664, 10.000324 
2.4113151e+3, 2.96689e+2, -1020306.75, -749182.9, -137484.97, 0.084624544, 0.5221777, -691666.75, -659199.2, 0.000003139397, 9.994147, 9.997561 
2.4109106e+3, 3.06673e+2, 512949.25, 296827.47, 222893.13, 0.009185529, 0.11859599, 652594.9, 652594.9, 0.000017281642, 10.003357, 10.000298 
2.4283855e+3, 1.2725797e+2, -2160288.3, -1976565.5, -97088.695, 0.13141567, 0.10409021, -1934767.9, -241874.36, 0.4141129, 9.996575, 9.999103 
2.4279647e+3, 1.3724768e+2, -1556689.5, -1720622.0, -135150.63, 0.02706334, 0.010042049, -1480592.0, 114402.93, 0.28877336, 10.000667, 9.998362 
2.427546e+3, 1.472397e+2, -1376631.3, -1408711.5, -18390.896, 0.0076581934, 0.10958516, -1368268.3, 128802.305, 0.17287979, 10.000449, 9.999938 
2.4271277e+3, 1.572325e+2, -1574214.9, -1516535.3, 55468.215, -0.01018962, 0.27106997, -1482857.4, -83719.32, 0.08747846, 9.998421, 9.99946 
2.4267109e+3, 1.6722295e+2, -1408158.9, -1291698.3, 116756.055, -0.06417638, 0.1697356, -1219457.4, 81774.09, 0.038149297, 9.998545, 10.000239 
2.4262947e+3, 1.7721242e+2, -1221988.8, -1204233.6, 46800.293, -0.11310404, -0.040982865, -1165476.4, 37858.44, 0.01570925, 9.999337, 9.999818 
2.4258779e+3, 1.8720458e+2, -1055462.9, -1058380.1, 37884.047, -0.13788693, 0.026350887, -1019009.4, 86401.67, 0.0064830934, 9.9998045, 9.999874 
2.4254619e+3, 1.9719805e+2, -1047116.5, -1082014.1, 65894.06, -0.091506414, 0.26263604, -996400.1, 11075.174, 0.0021827125, 9.999485, 9.9992285 
2.4250466e+3, 2.0718794e+2, -848450.1, -855167.6, 154262.64, -0.1849009, 0.12816745, -697509.7, 212058.83, 0.00044835047, 9.999905, 9.999865 
2.4246314e+3, 2.171756e+2, -830740.3, -926135.4, 86921.555, -0.35726127, -0.20845382, -779289.4, 32390.637, 0.000068581576, 9.999898, 9.998738 
2.4242166e+3, 2.2716527e+2, -817963.4, -1031956.25, -44607.81, -0.18085149, -0.1982786, -809037.0, -95253.305, 0.0000096515805, 10.000083, 9.997185 
2.4238032e+3, 2.3715562e+2, -826449.7, -1031464.2, 19106.365, 0.22059894, 0.0037051544, -824684.25, -208797.73, 0.00000040342232, 9.999529, 9.996815 
2.4233878e+3, 2.4714784e+2, -364242.97, -379611.75, 102811.12, 0.18345979, 0.17875426, -268829.44, 249133.88, 0.0, 10.00048, 10.000094 
2.4229722e+3, 2.5714058e+2, -362347.56, -463320.4, 90639.04, -0.075026035, 0.3142784, -309082.75, 110948.42, 0.0, 10.000427, 9.998888 
2.4225593e+3, 2.6712728e+2, -328674.47, -413812.0, 110231.27, 0.027669672, -0.04756799, -253077.95, 69075.91, 0.0, 10.0001545, 9.998605 
2.4221481e+3, 2.7711147e+2, -540373.75, -575653.4, 49218.375, 0.26017973, -0.65470386, -505729.6, -281429.66, 0.0, 9.998437, 9.997714 
2.4217227e+3, 2.8710383e+2, -93505.57, -457228.2, -336386.78, -0.24041189, -0.24914193, 107032.92, 233416.45, 0.0000000009564638, 10.001537, 9.996307 
2.4212964e+3, 2.9710144e+2, 68844.86, -504115.44, -12424.578, -0.75281715, 0.71136415, 69114.164, 97537.375, 0.0000004799063, 10.002884, 9.995049 
2.4209133e+3, 3.0708212e+2, -365017.34, -333687.06, 636357.1, 0.72457004, 0.036059212, 287197.72, 287197.72, 0.0000055147566, 9.998177, 9.998506 
2.4383745e+3, 1.2768084e+2, -1948302.3, -1977268.8, 14944.652, 0.12477383, 0.74142784, -1941974.3, -253216.53, 0.39271495, 9.998488, 9.998169 
2.4379578e+3, 1.376655e+2, -1528315.5, -1683694.5, -18260.623, 0.078505315, 0.24096937, -1526198.3, 64709.695, 0.26710206, 10.000723, 9.998507 
2.4375373e+3, 1.4765574e+2, -1208391.4, -1136171.8, -80781.28, -0.036942262, 0.031645477, -1083796.9, 409198.8, 0.15331793, 10.000798, 10.001971 
2.4371162e+3, 1.5764822e+2, -1359291.9, -1285673.3, -5666.6035, -0.19007339, -0.027626926, -1285239.6, 109819.93, 0.07196278, 9.999334, 10.000668 
2.436702e+3, 1.6764171e+2, -1394410.6, -1430002.1, 129515.85, -0.0061138202, 0.21267119, -1281473.6, 15653.607, 0.027363949, 9.999244, 9.998957 
2.4362895e+3, 1.7763503e+2, -1239760.8, -1293680.6, 77190.305, 0.24310035, 0.5080336, -1184957.8, 14243.433, 0.009079448, 9.999581, 9.999066 
2.4358714e+3, 1.8762375e+2, -1003823.5, -984615.0, 29672.895, 0.050480414, 0.23874938, -963030.75, 138273.97, 0.002868925, 9.999962, 10.000296 
2.4354514e+3, 1.976111e+2, -944840.2, -992204.44, 81139.98, -0.27941376, -0.17357722, -883996.94, 119420.44, 0.00059867656, 9.999994, 9.999599 
2.4350376e+3, 2.0760322e+2, -860923.5, -947795.4, 167418.61, -0.23857349, -0.047563232, -731397.94, 174094.73, 0.000045539302, 10.000162, 9.999117 
2.4346259e+3, 2.1759622e+2, -792348.06, -942213.56, 103235.82, -0.10870652, 0.2281327, -739716.94, 67844.734, 0.0000022398012, 10.000284, 9.998432 
2.4342087e+3, 2.2758466e+2, -727703.0, -898031.0, -31264.516, -0.1437783, 0.092381306, -722145.56, -12472.262, 0.000000052409952, 10.000307, 9.997996 
2.4337907e+3, 2.3757157e+2, -674429.44, -855229.25, 67496.29, -0.19015244, -0.13399495, -652011.4, -40211.195, 0.0, 10.000113, 9.997735 
2.4333772e+3, 2.4756242e+2, -433392.13, -558400.5, 162077.06, -0.09775685, -0.038549487, -322184.66, 191708.17, 0.0, 10.000603, 9.998824 
2.4329653e+3, 2.575548e+2, -268447.38, -424493.6, 105138.54, -0.021187121, 0.17691016, -215544.1, 200427.19, 0.0, 10.001054, 9.998848 
2.4325518e+3, 2.6754564e+2, -284220.28, -268644.66, 23508.396, 0.106931984, 0.16220964, -251667.67, 66391.3, 0.0, 9.9998455, 9.999789 
2.4321379e+3, 2.7753538e+2, -550230.9, -535132.9, 65678.41, 0.27403748, 0.029794594, -476571.03, -256415.89, 0.0, 9.998083, 9.998178 
2.4317187e+3, 2.87523e+2, 163651.9, -524336.0, 42401.4, -0.07222476, 0.067356825, 166255.3, 288534.3, 0.0, 10.004041, 9.994676 
2.431301e+3, 2.97511e+2, 1335433.3, 177558.58, 153809.88, -0.42126802, 0.20827806, 1355516.8, 1379918.6, 0.000000008678429, 10.011229, 9.995723 
2.4309002e+3, 3.0749777e+2, -831000.8, -326475.0, -232548.19, 0.7315377, -0.03419566, -235641.36, -235641.36, 0.0000009202062, 9.993758, 10.000782 
2.448784e+3, 1.1809853e+2, -1715494.9, -1955808.9, -147359.84, 0.23216878, 0.09223512, -1645513.4, 137143.02, 0.4945417, 10.001798, 9.997573 
2.4483645e+3, 1.2809704e+2, -1520220.3, -1528821.1, -15184.7, -0.04991193, 0.79873854, -1508738.8, 175941.23, 0.3775347, 10.000968, 10.000716 
2.4479496e+3, 1.3808313e+2, -1523596.0, -1515120.1, 56344.875, 0.10463186, 0.20297563, -1462854.0, 123955.59, 0.25111946, 9.999917, 10.000229 
2.4475305e+3, 1.4807372e+2, -1274626.3, -1317289.6, -52805.07, 0.05004625, 0.06856271, -1239006.9, 249891.48, 0.13882844, 10.000978, 10.0004 
2.4471104e+3, 1.5806569e+2, -1062657.8, -1232969.9, -127922.89, 0.0068115992, 0.09930167, -994139.4, 396834.44, 0.060861234, 10.001969, 9.999752 
2.4466944e+3, 1.6805919e+2, -1159221.4, -1256817.5, -17920.03, 0.0798715, 0.3196244, -1156035.0, 137005.52, 0.02025213, 10.000715, 9.999392 
2.4462795e+3, 1.780527e+2, -1400001.5, -1372371.6, 22215.15, 0.20005511, 0.5961236, -1360026.3, -164916.72, 0.0052852775, 9.998507, 9.999041 
2.4458615e+3, 1.8804075e+2, -1185519.6, -1135579.8, 7740.428, 0.004060995, 0.2834199, -1134407.5, -37189.363, 0.0012089658, 9.999013, 9.999703 
2.4454431e+3, 1.9802701e+2, -988982.9, -1071381.9, -20044.604, -0.26914296, -0.19263798, -984365.5, 14974.312, 0.00012403581, 9.999987, 9.999052 
2.445029e+3, 2.080193e+2, -1037708.3, -1057363.5, 33414.438, -0.2157363, -0.039093204, -1012706.25, -111291.5, 0.000001917801, 9.99911, 9.998836 
2.4446172e+3, 2.1801333e+2, -1242287.3, -1177318.6, 21875.057, -0.018944247, 0.35072878, -1170639.8, -367163.4, 0.000000018702426, 9.997324, 9.998227 
2.4442002e+3, 2.2800188e+2, -780488.3, -801547.5, -11828.733, -0.106707856, 0.14833507, -775181.5, -69598.836, 0.0, 9.999433, 9.999069 
2.4437822e+3, 2.3798822e+2, -463328.28, -717935.25, 83833.19, -0.2742635, -0.2456052, -438204.16, 169504.08, 0.0, 10.001445, 9.998039 
2.4433684e+3, 2.4797843e+2, -539834.7, -710842.1, 163898.52, -0.18306836, -0.1778019, -440477.34, 69331.664, 0.0, 10.000381, 9.997851 
2.442957e+3, 2.5797024e+2, -813667.94, -795292.94, 124413.82, -0.012669391, 0.07496649, -679727.9, -267829.63, 0.0, 9.997805, 9.997875 
2.4425422e+3, 2.6796347e+2, -403872.75, -302078.06, -1860.5479, 0.050566323, 0.31532204, -302044.06, 11922.317, 0.0, 9.998935, 9.999993 
2.4421272e+3, 2.779567e+2, -310756.06, -416850.8, 36502.48, 0.14986256, 0.49488407, -299410.47, -83378.34, 0.0, 9.999747, 9.998208 
2.4417156e+3, 2.8794137e+2, -209913.34, -653591.1, 333708.47, 0.10420294, 0.18163095, -31035.59, 87143.66, 0.0, 10.001318, 9.995082 
2.4413045e+3, 2.9792374e+2, -141429.02, -451684.7, 267204.8, -0.10372609, -0.27243432, 12414.125, 32762.115, 0.0, 10.000753, 9.996461 
2.4408819e+3, 3.079137e+2, -213404.63, 260815.25, -599350.06, 0.2616083, -0.4144329, 668252.94, 668252.94, 0.00000009984614, 9.997018, 10.003135 
2.4587768e+3, 1.1851101e+2, -1792369.6, -2081760.6, -138931.72, 0.1326826, 0.088499285, -1736469.0, 42147.53, 0.48539782, 10.001068, 9.996944 
2.4583554e+3, 1.2850976e+2, -1328561.8, -1149967.0, -32156.758, -0.20288275, 0.56857777, -1144353.5, 536279.5, 0.36593348, 10.001061, 10.004729 
2.4579407e+3, 1.3850081e+2, -1386288.8, -1306490.1, 12649.977, 0.026634736, 0.11065612, -1304532.8, 278173.88, 0.23856215, 10.000373, 10.001849 
2.4575242e+3, 1.4849244e+2, -1440111.8, -1695212.8, -33971.86, 0.16157807, 0.20982623, -1435665.3, 49128.117, 0.1275105, 10.00101, 9.997589 
2.4571072e+3, 1.5848394e+2, -1180750.6, -1429318.1, -87284.125, 0.29200318, 0.44743592, -1153162.9, 233722.53, 0.052560914, 10.001727, 9.998441 
2.4566868e+3, 1.6847524e+2, -1040039.7, -1055716.9, -85628.27, 0.09711813, 0.41036746, -961892.0, 327077.28, 0.01541553, 10.000899, 10.000703 
2.4562661e+3, 1.7846633e+2, -1262844.6, -1243193.4, -23000.914, -0.18235253, 0.33459908, -1228007.3, -36954.598, 0.0031067657, 9.999165, 9.99961 
2.4558505e+3, 1.884561e+2, -1210367.6, -1277510.5, 56026.406, -0.19360596, 0.25774938, -1178624.5, -85477.13, 0.00048131414, 9.9993925, 9.998552 
2.4554363e+3, 1.9844505e+2, -989522.3, -1133104.6, 4844.3057, -0.15519835, 0.15988624, -989359.06, 5889.8584, 0.000015932997, 10.000236, 9.998493 
2.4550202e+3, 2.084349e+2, -1004780.5, -1018843.0, -35967.754, -0.17261589, 0.08320956, -975163.2, -77816.49, 0.0000000054715246, 9.999225, 9.999048 
2.454605e+3, 2.1842517e+2, -1105769.8, -983783.3, 10527.272, -0.18269123, 0.06407636, -982881.5, -183440.61, 0.0, 9.997676, 9.999393 
2.4541923e+3, 2.2841583e+2, -635422.7, -542542.8, 97432.87, -0.0031336541, -0.067647494, -481048.34, 220474.05, 0.0, 9.999572, 10.000812 
2.4537803e+3, 2.3840603e+2, -292691.9, -493866.6, 123116.1, 0.18125018, -0.22950162, -234296.9, 369310.44, 0.0, 10.001954, 9.999342 
2.4533628e+3, 2.483962e+2, -574719.44, -774892.8, 53804.52, 0.041238572, -0.16627839, -561173.94, -55465.355, 0.0, 10.000306, 9.997475 
2.4529445e+3, 2.5838658e+2, -869782.25, -870833.1, 80522.11, -0.1818604, -0.008906914, -789783.9, -381971.78, 0.0, 9.997551, 9.9974985 
2.4525306e+3, 2.6837677e+2, -549593.1, -580247.25, 67310.805, -0.16581325, 0.05751563, -495886.44, -185976.63, 0.0, 9.998744, 9.9982195 
2.4521181e+3, 2.7836716e+2, -47627.47, -203656.81, 40008.797, -0.030038549, 0.09576553, -37966.645, 174035.84, 0.0, 10.0011, 9.999039 
2.4517073e+3, 2.883566e+2, -42002.863, -2198.9475, 245032.5, 0.08690828, -0.10988302, 223738.5, 337839.44, 0.0, 9.999917, 10.000264 
2.4512969e+3, 2.9834536e+2, -382077.9, -243079.48, 257665.95, 0.14802293, -0.37207124, -45704.406, -29499.7, 0.0, 9.997548, 9.999462 
2.4508733e+3, 3.0834e+2, 602333.44, 575535.7, -313910.1, 0.18815471, 0.008432726, 903130.5, 903130.5, 0.000000000000427524, 10.002853, 10.002491 
2.4687654e+3, 1.1892972e+2, -2149129.8, -2464862.5, 85455.05, -0.16145924, 0.11367722, -2127484.5, -352988.78, 0.47722325, 9.999197, 9.99522 
2.4683493e+3, 1.2892136e+2, -1470529.9, -1357920.4, -4881.338, -0.023930013, 0.07857728, -1357709.3, 318880.03, 0.3557266, 10.0004015, 10.002755 
2.4679331e+3, 1.389144e+2, -1414943.9, -1391618.6, -123211.51, 0.07975034, 0.0006304477, -1279519.0, 299129.8, 0.22774403, 10.000473, 10.001018 
2.4675156e+3, 1.489078e+2, -1473297.3, -1545643.6, -111686.51, 0.120767474, 0.17827204, -1392072.1, 88645.95, 0.11809006, 10.000084, 9.999072 
2.4670981e+3, 1.5890062e+2, -1460293.3, -1540480.1, -10549.641, 0.2162049, 0.42734665, -1458928.6, -76132.84, 0.04605504, 9.999601, 9.9987 
2.4666785e+3, 1.6889003e+2, -1186149.0, -1291923.9, -72014.82, 0.05935205, 0.29978785, -1149687.6, 135211.31, 0.012013259, 10.000615, 9.999204 
2.4662583e+3, 1.7887896e+2, -968666.3, -1169903.6, -141706.0, -0.15057108, 0.12924142, -895489.94, 291514.1, 0.0018483637, 10.0015, 9.998991 
2.4658425e+3, 1.8887012e+2, -1020856.94, -1120875.5, -23680.266, -0.13975553, 0.14811447, -1015533.7, 73551.87, 0.00018026956, 10.000401, 9.999153 
2.4654283e+3, 1.9886136e+2, -1242853.9, -1249770.4, 36108.727, -0.03880792, 0.23197551, -1210038.3, -218871.75, 0.0000007906511, 9.998514, 9.998523 
2.4650119e+3, 2.0885012e+2, -999517.44, -1055487.6, 7442.088, -0.093178295, 0.06785593, -998544.8, -105269.78, 0.0, 9.999462, 9.998679 
2.4645957e+3, 2.1883848e+2, -761897.44, -855421.3, 16095.173, -0.14905062, -0.109495044, -759205.06, 36182.5, 0.0, 10.000245, 9.999035 
2.464184e+3, 2.2883053e+2, -659369.2, -532566.5, 27910.441, 0.06568957, -0.124179766, -526695.06, 170763.11, 0.0, 9.999392, 10.000921 
2.4637736e+3, 2.3882318e+2, -897835.0, -817743.25, -80320.555, 0.34587297, -0.07232261, -768039.1, -168517.45, 0.0, 9.997992, 9.999018 
2.4633545e+3, 2.48813e+2, -632273.06, -832163.0, -169877.03, 0.07720321, -0.05260922, -535121.06, -33495.844, 0.0, 10.000033, 9.997218 
2.4629338e+3, 2.5880188e+2, -394205.88, -729820.7, -90831.78, -0.3017565, -0.03347715, -371199.94, 32541.074, 0.0, 10.001211, 9.996717 
2.462521e+3, 2.687897e+2, -351833.72, -587041.06, 47070.773, -0.2112355, -0.1473227, -342763.47, -36904.855, 0.0, 10.000569, 9.9972725 
2.4621104e+3, 2.7877846e+2, -336079.5, -304074.56, 81022.31, -0.01889117, -0.20601398, -237489.55, -29524.295, 0.0, 9.999014, 9.999347 
2.4616975e+3, 2.887717e+2, 40079.79, 377799.84, 35656.24, -0.038144737, -0.27493665, 381523.34, 491549.03, 0.0, 9.9990425, 10.003289 
2.4612875e+3, 2.9876408e+2, -474107.6, -319911.03, -103484.836, 0.24133651, -0.40597302, -267961.8, -255867.84, 0.0, 9.997158, 9.999119 
2.460867e+3, 3.0876136e+2, 77303.69, 124217.49, -341759.8, 0.13191244, 0.3507324, 443324.44, 443324.44, 0.0, 10.000335, 10.000507 
2.4787547e+3, 1.1934889e+2, -2154645.5, -2635060.3, 55235.51, -0.381977, 0.097130604, -2148376.8, -378008.53, 0.4678463, 9.999977, 9.993619 
2.4783432e+3, 1.2933344e+2, -1634945.8, -1716628.3, 14468.219, 0.15172218, -0.35454604, -1632458.8, 40080.832, 0.34520847, 10.000471, 9.999002 
2.4779256e+3, 1.3932648e+2, -1466580.8, -1509515.9, -70842.94, 0.1002371, -0.10825855, -1414024.1, 160583.94, 0.21743059, 10.000524, 9.999921 
2.4775057e+3, 1.4932154e+2, -1197136.1, -1095796.0, -101210.92, -0.037573397, 0.06609992, -1033279.94, 443376.5, 0.109704144, 10.0007, 10.002141 
2.4770865e+3, 1.5931612e+2, -1287182.8, -1379734.4, -34269.03, -0.10812867, 0.232284, -1275875.4, 102834.875, 0.040704507, 10.0005, 9.999366 
2.4766701e+3, 1.6930363e+2, -1332316.1, -1681746.6, -40798.734, -0.00359342, 0.09677198, -1327615.9, -46780.67, 0.00953522, 10.000962, 9.996369 
2.476254e+3, 1.7929038e+2, -1013011.44, -1261733.8, -116808.39, 0.078778334, -0.04883294, -966756.3, 216210.0, 0.0011160366, 10.001486, 9.998368 
2.4758364e+3, 1.8928276e+2, -856867.7, -812781.8, -84493.54, 0.04884019, -0.027039135, -747503.2, 337530.88, 0.00006263998, 10.000527, 10.001211 
2.4754192e+3, 1.992758e+2, -1107575.9, -1062974.8, 21335.38, 0.0039876285, 0.05451714, -1054412.5, -67317.89, 0.0000000031066179, 9.998924, 9.9996 
2.4750043e+3, 2.0926481e+2, -1006985.6, -1143301.8, 64021.516, 0.04542119, -0.0475882, -981632.8, -92430.89, 0.0, 9.999756, 9.997957 
2.4745904e+3, 2.192532e+2, -737867.0, -941559.75, 33717.3, 0.06745852, -0.14212926, -732430.9, 58886.492, 0.0, 10.000797, 9.998186 
2.4741748e+3, 2.2924529e+2, -777130.25, -803447.75, -50236.24, 0.010233875, 0.017324049, -738357.94, -44959.348, 0.0, 9.99947, 9.999049 
2.4737595e+3, 2.3923784e+2, -930916.75, -912005.8, -102861.04, -0.054466445, 0.23101728, -818166.56, -222692.08, 0.0, 9.998046, 9.998359 
2.473344e+3, 2.4922717e+2, -543507.06, -736121.44, -90202.9, -0.151468, 0.19836326, -507861.1, -10280.848, 0.0, 10.000374, 9.997735 
2.4729292e+3, 2.5921562e+2, -40575.63, -418531.6, -78646.664, -0.22028959, 0.1163241, -24863.66, 374829.97, 0.0, 10.002976, 9.998008 
2.4725173e+3, 2.6920465e+2, -98838.49, -293709.38, -48946.145, 0.11806492, -0.02317537, -87235.45, 214558.66, 0.0, 10.001519, 9.998856 
2.4721052e+3, 2.7919477e+2, -292064.56, -305639.13, 42166.25, 0.3556785, -0.06091999, -256142.83, -52259.6, 0.0, 9.999365, 9.999165 
2.4716872e+3, 2.8918532e+2, -197631.27, -192079.33, -58468.043, -0.13839887, -0.10999893, -136321.39, -30346.74, 0.0, 9.999253, 9.999331 
2.4712756e+3, 2.9917374e+2, -238791.95, -456926.03, -260267.03, -0.025391493, -0.2777234, -65663.055, -57575.77, 0.0, 9.999717, 9.996994 
2.4708594e+3, 3.091639e+2, 338643.0, 253150.5, -458301.47, 0.11374007, -0.1463207, 756187.44, 756187.44, 0.0, 10.001871, 10.00077 
2.4887449e+3, 1.197625e+2, -1967235.8, -2258370.5, -176917.03, -0.5323961, -0.09277298, -1883697.3, -117384.125, 0.45571515, 9.9999485, 9.996242 
2.4883349e+3, 1.2975135e+2, -1606181.8, -1603427.4, 33370.33, 0.15446983, -0.2985298, -1571405.8, 97030.164, 0.33319858, 10.000156, 10.000167 
2.4879168e+3, 1.3974538e+2, -1460878.8, -1565683.9, 82668.84, 0.011382019, -0.013857977, -1415403.0, 155093.2, 0.20679392, 10.000874, 9.999319 
2.4874973e+3, 1.4973758e+2, -1179557.4, -1374546.8, -80736.82, -0.15772425, 0.11112986, -1150467.5, 322109.66, 0.10179194, 10.002187, 9.999302 
2.4870789e+3, 1.597291e+2, -1034445.4, -1367504.9, -251258.31, -0.18591435, 0.20065372, -899540.44, 475123.22, 0.036105353, 10.002784, 9.998378 
2.486663e+3, 1.6971682e+2, -1258877.9, -1535319.6, -181561.78, 0.037447188, 0.016201755, -1168911.0, 107871.305, 0.0076701324, 10.000992, 9.997359 
2.4862473e+3, 1.7970431e+2, -1351367.1, -1389434.0, -57427.293, 0.2624457, -0.1340237, -1309901.3, -130998.6, 0.000687035, 9.999027, 9.998665 
2.4858288e+3, 1.89697e+2, -898967.2, -863175.25, -90125.055, 0.123820975, -0.08205327, -789186.56, 291783.0, 0.000019881356, 10.000401, 10.0009 
2.4854106e+3, 1.9968998e+2, -744985.5, -929847.75, -111749.96, -0.01579833, 0.016053258, -692394.0, 290639.16, 0.0, 10.001636, 9.999188 
2.4849963e+3, 2.0967898e+2, -873529.4, -1108131.3, -59709.766, 0.05491973, -0.08231535, -859206.75, 25934.498, 0.0, 10.000847, 9.997635 
2.4845828e+3, 2.1966748e+2, -983282.3, -1140011.4, -55352.867, 0.15242745, -0.13638002, -965704.44, -178448.52, 0.0, 9.999484, 9.997451 
2.4841657e+3, 2.2965926e+2, -691792.5, -880069.9, -70762.26, -0.021838052, 0.06969555, -668162.8, 21181.313, 0.0, 10.00057, 9.997996 
2.4837485e+3, 2.3965128e+2, -547073.4, -789883.94, -26076.791, -0.23018345, 0.33097205, -544304.4, 47125.56, 0.0, 10.000994, 9.997777 
2.4833347e+3, 2.4964042e+2, -528380.94, -662912.25, 48752.91, -0.2739042, 0.2474208, -512571.25, -19035.768, 0.0, 10.00022, 9.998295 
2.4829228e+3, 2.5962907e+2, -603773.8, -648497.3, 14389.23, -0.15646993, 0.13559143, -599544.25, -203900.48, 0.0, 9.998993, 9.998347 
2.4825117e+3, 2.696192e+2, -253239.0, -296130.1, -94494.72, 0.30688292, 0.047807418, -177786.86, 119944.336, 0.0, 10.0002, 9.999455 
2.4820983e+3, 2.7960974e+2, -223286.0, -416241.94, -44948.695, 0.5392678, 0.034004062, -213329.1, -13514.203, 0.0, 10.000498, 9.997864 
2.4816783e+3, 2.8959787e+2, -206743.39, -497520.16, 28142.188, -0.20123278, -0.035872813, -204044.75, -102109.64, 0.0, 10.000608, 9.996526 
2.4812661e+3, 2.9958498e+2, -379786.03, -663379.7, -12529.673, -0.16378751, -0.079370685, -379233.53, -375167.94, 0.0, 9.999445, 9.995689 
2.480853e+3, 3.095709e+2, 145718.7, 251492.44, -223820.03, 0.10856209, -0.41813344, 428589.13, 428589.13, 0.0, 10.000196, 10.001573 
2.4987353e+3, 1.2017641e+2, -1823854.6, -1794091.4, -146042.31, -0.66409665, -0.12887986, -1662174.4, 100083.26, 0.43991756, 9.9994335, 9.999948 
2.4983265e+3, 1.3017067e+2, -1498004.6, -1353762.8, 26963.875, 0.11105663, -0.09540295, -1348887.1, 315433.03, 0.31901658, 9.999981, 10.0027485 
2.4979073e+3, 1.4016591e+2, -1565676.4, -1762838.5, 33841.285, -0.20699981, 0.14283279, -1560029.5, 6338.6147, 0.19536594, 10.000579, 9.998037 
2.49749e+3, 1.5015355e+2, -1527377.0, -2100875.5, -55904.254, -0.26767263, 0.21330012, -1521978.4, -53477.52, 0.094030365, 10.001954, 9.994355 
2.4970733e+3, 1.6014045e+2, -1104607.9, -1504259.6, -216527.95, -0.21486862, 0.24351472, -1009790.3, 360848.75, 0.032013185, 10.002735, 9.997435 
2.496656e+3, 1.7012976e+2, -1005509.56, -1062752.6, -233667.97, 0.09637094, 0.00908208, -798716.75, 474018.2, 0.0062260167, 10.00123, 10.000481 
2.496239e+3, 1.801196e+2, -1227672.9, -1230759.4, -59194.43, 0.3263082, -0.16602942, -1170001.6, 4823.2163, 0.00043419475, 9.999449, 9.999538 
2.4958208e+3, 1.901117e+2, -975468.25, -1105970.4, -17345.953, 0.0854441, -0.052331522, -973202.06, 103701.08, 0.0000058323185, 10.000748, 9.999068 
2.4954028e+3, 2.0010352e+2, -741734.6, -1020244.44, -99308.96, -0.17985773, 0.09763516, -709950.94, 269034.16, 0.000000000090419006, 10.002028, 9.998374 
2.4949875e+3, 2.1009217e+2, -816247.06, -1050468.1, -106517.875, -0.096388936, -0.024558607, -775051.1, 106045.42, 0.0, 10.001072, 9.997922 
2.4945727e+3, 2.2008066e+2, -875976.2, -1023916.25, -58384.5, 0.0036341187, -0.11908191, -855710.75, -72500.77, 0.0, 9.999912, 9.998028 
2.4941584e+3, 2.3007172e+2, -596704.94, -796541.06, -11987.079, 0.0022295285, -0.01979569, -595988.44, 89311.016, 0.0, 10.001029, 9.998359 
2.4937436e+3, 2.4006285e+2, -335876.97, -595164.1, -16256.574, -0.070657946, 0.11146379, -334861.72, 252526.23, 0.0, 10.002006, 9.998613 
2.4933274e+3, 2.5005236e+2, -458787.72, -550757.06, -10587.964, -0.20963888, -0.008342254, -457584.53, 31903.215, 0.0, 10.000289, 9.99905 
2.4929121e+3, 2.600415e+2, -653636.8, -687680.8, 25401.926, -0.25771305, -0.113836445, -640080.94, -248490.31, 0.0, 9.998657, 9.998239 
2.4925013e+3, 2.7003115e+2, -337066.88, -506382.53, -15716.694, 0.088877335, -0.12576231, -335620.34, -41931.863, 0.0, 10.000312, 9.997972 
2.4920899e+3, 2.8002113e+2, 61325.082, -216882.77, -22462.893, 0.32903084, -0.09530292, 63127.094, 258911.25, 0.0, 10.002089, 9.998485 
2.4916746e+3, 2.90012e+2, 122312.71, -69898.13, 62445.426, 0.12741268, -0.0642141, 140818.3, 238697.52, 0.0, 10.001631, 9.999011 
2.4912643e+3, 3.0000314e+2, -40973.34, -320264.4, 116715.44, 0.44284627, 0.071679935, 1379.392, 1379.392, 0.0, 10.000946, 9.997318 
2.4908417e+3, 3.0999115e+2, 121571.02, 131554.5, -132847.22, -0.17527603, 0.00022117488, 259503.73, 259503.73, 0.0, 10.000367, 10.000696 
2.5087264e+3, 1.20591104e+2, -1990874.1, -1958350.6, -166891.67, -0.5954863, -0.2426601, -1806930.4, -48741.27, 0.42027465, 9.998419, 9.999094 
2.5083178e+3, 1.305848e+2, -1752538.3, -1689367.3, -111185.77, 0.19406497, -0.03451748, -1605367.6, 54894.39, 0.30251706, 9.999067, 10.000044 
2.5078973e+3, 1.405768e+2, -1729740.6, -1861757.9, -230919.97, -0.34768093, 0.066806324, -1555580.3, 6764.9717, 0.18302314, 9.999454, 9.997934 
2.5074828e+3, 1.5056555e+2, -1524227.1, -1864357.3, -76512.375, -0.25845638, 0.04866415, -1507808.1, -43349.383, 0.08629053, 10.000908, 9.996488 
2.5070682e+3, 1.605539e+2, -1175045.5, -1486288.1, -56383.742, -0.064141944, 0.062082935, -1165146.0, 201430.14, 0.028287582, 10.001984, 9.9979105 
2.506649e+3, 1.705441e+2, -980432.75, -1157888.6, -242842.72, 0.09118535, -0.020009445, -810616.25, 458053.03, 0.0050760456, 10.001841, 9.999544 
2.5062296e+3, 1.8053453e+2, -1044375.1, -1233303.5, -189393.25, 0.20657049, -0.05214082, -927195.06, 243564.17, 0.00028139996, 10.001146, 9.998707 
2.5058123e+3, 1.9052568e+2, -1068123.1, -1234542.3, -99549.83, 0.006330362, 0.02982255, -1021586.8, 51262.543, 0.0000014559199, 10.000568, 9.998255 
2.5053954e+3, 2.0051643e+2, -1078787.5, -1252045.5, -137502.36, -0.17487706, 0.15112624, -1002900.44, -27956.537, 0.0, 10.000031, 9.99776 
2.50498e+3, 2.105056e+2, -868723.1, -1068735.6, -168767.88, -0.07610531, 0.0768894, -772556.4, 104495.77, 0.0, 10.00074, 9.997951 
2.504565e+3, 2.2049472e+2, -723816.9, -911895.94, -118119.875, 0.055100642, 0.033273812, -666873.8, 112285.28, 0.0, 10.000828, 9.998363 
2.5041515e+3, 2.3048504e+2, -734062.2, -766721.06, -18257.531, 0.0867481, -0.033552967, -725896.94, -44647.434, 0.0, 9.999691, 9.999196 
2.5037372e+3, 2.4047543e+2, -852663.25, -827990.44, -18721.242, 0.080398984, -0.043142665, -817906.5, -234567.2, 0.0, 9.9984, 9.998765 
2.5033197e+3, 2.5046536e+2, -607950.4, -612701.1, -80960.76, -0.09763596, -0.13839573, -529330.1, -43895.49, 0.0, 9.999268, 9.999098 
2.5029027e+3, 2.6045504e+2, -549120.9, -688597.25, -36424.234, -0.25572172, -0.1907478, -540181.6, -152648.67, 0.0, 9.999638, 9.997763 
2.502491e+3, 2.704439e+2, -459288.28, -646751.7, 44242.414, -0.12460882, -0.23415378, -449371.4, -159730.03, 0.0, 9.999848, 9.997241 
2.5020802e+3, 2.804334e+2, -330732.25, -369802.0, 31214.693, 0.091642626, -0.19148184, -313443.66, -121698.695, 0.0, 9.999304, 9.99877 
2.5016695e+3, 2.9042703e+2, -269711.38, -79681.11, -17581.598, 0.3920558, -0.03184108, -78068.15, 15746.9795, 0.0, 9.998203, 10.000578 
2.5012583e+3, 3.0042058e+2, -548414.06, -451497.7, -36350.816, 0.67782867, 0.19238569, -439378.8, -439378.8, 0.0, 9.997037, 9.998291 
2.5008297e+3, 3.1041077e+2, -231712.69, -143290.48, -75274.984, -0.57029593, 0.24059314, -100203.56, -100203.56, 0.0, 9.9985075, 9.999659 
2.5187203e+3, 1.2100602e+2, -2078641.8, -2200932.3, -149397.13, -0.24824592, -0.25302652, -1978361.4, -224243.05, 0.39734322, 9.998763, 9.997228 
2.518309e+3, 1.3099629e+2, -1854894.4, -2161060.0, -50834.098, 0.2102346, -0.045084707, -1846674.9, -190442.64, 0.28406283, 10.000224, 9.996116 
2.517887e+3, 1.4098395e+2, -1517815.8, -1625382.3, -91748.5, -0.5176363, -0.115035385, -1465248.5, 93112.984, 0.16993596, 10.000469, 9.999066 
2.5174758e+3, 1.5097609e+2, -1184635.8, -1148337.6, 10349.1455, -0.22145778, -0.21268277, -1145594.3, 314833.53, 0.078587286, 10.00098, 10.001525 
2.5170636e+3, 1.609681e+2, -1210585.0, -1457815.1, -77817.26, 0.08324945, -0.20361713, -1188130.9, 174367.6, 0.024857625, 10.001522, 9.998324 
2.5166413e+3, 1.7095867e+2, -1169471.5, -1571663.0, -253507.3, 0.0032249873, -0.022071661, -1046985.0, 217615.36, 0.0041356636, 10.001922, 9.996664 
2.5162196e+3, 1.8094881e+2, -1052308.9, -1364994.1, -192066.75, -0.10247891, 0.15784074, -960997.25, 205708.95, 0.00018434241, 10.001633, 9.9975605 
2.5158033e+3, 1.9093858e+2, -1021991.6, -1215341.5, -100716.42, -0.10766521, 0.1358678, -979060.56, 89749.195, 0.00000026313862, 10.000867, 9.998254 
2.5153878e+3, 2.0092838e+2, -1025353.9, -1212520.4, -121702.98, -0.094993226, 0.16068603, -965413.7, 5499.371, 0.0, 10.000338, 9.997876 
2.5149745e+3, 2.1091886e+2, -836021.3, -1073690.9, -130781.125, 0.10504391, 0.24395701, -778148.94, 94862.875, 0.0, 10.001036, 9.997795 
2.5145602e+3, 2.2090921e+2, -552871.4, -702224.2, -133854.64, 0.2659473, 0.30491608, -474271.47, 300837.3, 0.0, 10.001394, 9.999549 
2.5141442e+3, 2.3089926e+2, -609249.75, -523006.16, -85151.836, 0.23367009, 0.06587849, -470679.94, 206515.45, 0.0, 9.999708, 10.000886 
2.513728e+3, 2.4088947e+2, -832839.1, -795739.8, -13352.577, 0.17435825, -0.08166318, -791433.8, -212151.89, 0.0, 9.998402, 9.998985 
2.5133127e+3, 2.5088003e+2, -648355.9, -770832.44, -35855.945, 0.11050984, -0.016364336, -638630.94, -157255.38, 0.0, 9.999527, 9.997916 
2.5128976e+3, 2.6087028e+2, -377997.97, -541734.3, -49338.113, 0.018426022, 0.055966616, -364280.34, 19191.291, 0.0, 10.000476, 9.998384 
2.5124824e+3, 2.7085912e+2, -359489.75, -438306.72, 19282.037, -0.11570663, -0.10221798, -355025.4, -69449.516, 0.0, 9.999779, 9.998743 
2.512068e+3, 2.808484e+2, -417345.16, -451242.38, 3489.12, -0.20091425, -0.17324953, -416989.75, -229310.44, 0.0, 9.998811, 9.998462 
2.5116533e+3, 2.9084098e+2, -583703.6, -487635.88, -125769.125, -0.07838969, 0.05736479, -401040.16, -311274.34, 0.0, 9.997035, 9.998381 
2.511241e+3, 3.0083415e+2, -553451.3, -208877.36, -94673.63, 0.20796312, 0.3196615, -184578.73, -184578.73, 0.0, 9.995867, 10.000538 
2.510828e+3, 3.1082577e+2, 140676.48, 508006.72, 57448.04, 0.24560587, 0.10790714, 516781.6, 516781.6, 0.0, 9.998915, 10.003978 
2.5287142e+3, 1.21420324e+2, -1843442.8, -2080444.3, -83606.39, 0.058212265, -0.27271014, -1816917.9, -66860.5, 0.3720952, 10.000258, 9.997346 
2.5283e+3, 1.3141184e+2, -1541533.6, -1979965.4, 73471.04, -0.0024653526, 0.037024997, -1529549.1, 122607.734, 0.26429757, 10.002556, 9.996266 
2.527882e+3, 1.4139947e+2, -1215635.4, -1460735.8, 57896.313, -0.38854846, -0.03642573, -1202647.6, 351638.2, 0.15642525, 10.002859, 9.999111 
2.527469e+3, 1.513903e+2, -1290298.8, -1248181.8, -44200.55, -0.10800847, -0.22033216, -1220279.5, 236086.2, 0.071005836, 10.000458, 10.001004 
2.5270557e+3, 1.613814e+2, -1618917.1, -1683194.0, -221964.86, 0.17737763, -0.2632365, -1426776.1, -68330.66, 0.021693112, 9.998848, 9.998069 
2.526634e+3, 1.713721e+2, -1282239.4, -1625969.5, -256152.2, -0.008205602, -0.06972408, -1145638.0, 114908.16, 0.00335279, 10.001239, 9.996606 
2.5262123e+3, 1.8136252e+2, -873143.4, -1282017.3, -126824.17, -0.1598599, 0.14786567, -837000.1, 325649.56, 0.00011963712, 10.002859, 9.99755 
2.525796e+3, 1.9135198e+2, -938113.75, -1167573.3, -56180.895, -0.1007674, 0.079781175, -925096.9, 139658.7, 0.00000002568285, 10.001378, 9.9983425 
2.5253806e+3, 2.0134163e+2, -1082598.9, -1263297.9, 3683.6104, 0.006530172, 0.09623686, -1082523.9, -115663.57, 0.0, 10.000016, 9.997691 
2.5249672e+3, 2.1133229e+2, -889858.2, -1126834.3, 34066.313, 0.17584252, 0.21165214, -885058.25, -16098.022, 0.0, 10.000731, 9.997586 
2.5245535e+3, 2.2132306e+2, -624959.6, -741039.94, -33656.223, 0.32185712, 0.34103206, -615907.3, 155148.27, 0.0, 10.000972, 9.999469 
2.5241357e+3, 2.3131359e+2, -523987.9, -469146.28, -138013.25, 0.24620295, 0.13015307, -355856.2, 317282.5, 0.0, 10.000269, 10.000978 
2.5237188e+3, 2.4130403e+2, -699403.44, -733250.7, -71402.65, 0.18426585, -0.000114860064, -642946.2, -67723.3, 0.0, 9.99939, 9.998926 
2.5233054e+3, 2.5129497e+2, -557130.56, -717164.8, 48820.33, 0.23441839, 0.08356389, -543413.2, -66101.09, 0.0, 10.000185, 9.997948 
2.5228915e+3, 2.612856e+2, -403242.47, -567015.2, 46602.69, 0.21790193, 0.21214066, -390910.0, -11505.295, 0.0, 10.000413, 9.998228 
2.522474e+3, 2.712744e+2, -415172.53, -431423.16, -25028.65, -0.10388939, 0.01762283, -396983.34, -115473.11, 0.0, 9.999308, 9.998982 
2.5220558e+3, 2.8126326e+2, -562699.5, -587004.56, -116802.05, -0.42066434, -0.103448704, -457419.47, -273801.53, 0.0, 9.998169, 9.997827 
2.5216383e+3, 2.9125446e+2, -496344.84, -561402.0, -101914.88, -0.5054316, 0.07186012, -421893.28, -336174.97, 0.0, 9.998203, 9.997292 
2.5212267e+3, 3.0124766e+2, -195532.53, 128499.17, 76211.266, -0.08772668, 0.37858513, 145528.83, 145528.83, 0.0, 9.997693, 10.001959 
2.5208226e+3, 3.1123748e+2, 103379.46, 838329.06, 148092.61, 0.6136694, -0.31280574, 867047.6, 867047.6, 0.0, 9.997336, 10.006948 
2.5387064e+3, 1.218343e+2, -1735805.3, -1962686.5, 42347.598, -0.03638672, -0.28629357, -1728158.8, 17841.568, 0.34545994, 10.000813, 9.997873 
2.538292e+3, 1.3182846e+2, -1599406.0, -1841000.1, 110729.93, -0.2326204, 0.14110702, -1556334.1, 91734.445, 0.24384509, 10.001276, 9.997842 
2.5378776e+3, 1.4181744e+2, -1524083.3, -1728453.0, 11516.017, -0.23618974, 0.12173807, -1523436.4, 26746.656, 0.14280653, 10.00087, 9.998084 
2.537462e+3, 1.5180533e+2, -1458822.0, -1599458.4, -107589.43, -0.023172107, -0.1208933, -1400609.5, 51688.855, 0.06363834, 10.000478, 9.998463 
2.537046e+3, 1.6179387e+2, -1454559.3, -1607309.8, -160218.53, 0.1525404, -0.23644125, -1353443.3, 964.7277, 0.0187796, 9.999996, 9.998027 
2.5366268e+3, 1.7178445e+2, -1126066.3, -1398481.6, -127227.44, -0.012326755, -0.16260706, -1075889.0, 180614.58, 0.0026956536, 10.001621, 9.99799 
2.536207e+3, 1.8177512e+2, -816808.3, -1146026.9, -127281.39, -0.14946283, -0.044117, -773338.8, 385259.47, 0.00007576087, 10.002791, 9.998499 
2.5357896e+3, 1.917653e+2, -895058.44, -1098535.6, -120266.6, -0.047206327, -0.082285166, -839269.94, 221425.11, 0.00000000011876218, 10.001451, 9.998781 
2.535373e+3, 2.0175537e+2, -1010559.25, -1182331.5, 11213.378, 0.05137508, -0.059854917, -1009830.3, -47035.76, 0.0, 10.000296, 9.9981 
2.5349593e+3, 2.1174562e+2, -817946.94, -1065299.6, 79313.18, 0.10981103, -0.0024699366, -794700.1, 70199.29, 0.0, 10.001081, 9.997838 
2.5345445e+3, 2.2173621e+2, -609284.9, -833148.75, -41544.21, 0.12602437, 0.11623839, -601823.9, 165175.28, 0.0, 10.001474, 9.998594 
2.5341257e+3, 2.3172767e+2, -597663.0, -721404.8, -166659.81, 0.05115535, 0.18909222, -481760.16, 187322.69, 0.0, 10.00064, 9.999091 
2.5337085e+3, 2.4171901e+2, -515394.0, -510213.78, -66381.3, 0.0273589, 0.23525535, -446372.1, 124792.48, 0.0, 10.000011, 10.000172 
2.5332972e+3, 2.517104e+2, -304569.8, -301582.75, 96027.375, 0.20733725, 0.14073935, -207037.3, 266202.66, 0.0, 10.00062, 10.000607 
2.5328845e+3, 2.6170096e+2, -375463.75, -638342.9, 54655.97, 0.26212257, 0.11698753, -364552.94, 10774.816, 0.0, 10.000927, 9.9974985 
2.5324655e+3, 2.716886e+2, -566130.06, -817934.8, -78090.64, -0.04850184, 0.06358483, -543878.6, -266422.78, 0.0, 9.999558, 9.996231 
2.532047e+3, 2.816771e+2, -386761.5, -305602.1, -137268.56, -0.29467005, 0.028545955, -203040.7, -23467.887, 0.0, 9.998519, 9.999577 
2.5316316e+3, 2.9166928e+2, -96584.086, 26846.758, -29046.063, -0.19554493, -0.0040279147, 33340.332, 114986.56, 0.0, 9.999214, 10.000862 
2.5312203e+3, 3.0166206e+2, -68021.01, -21840.72, 126235.07, 0.23342854, 0.09325384, 83398.586, 83398.586, 0.0, 9.999437, 10.000112 
2.5308105e+3, 3.1165272e+2, -225972.3, 125585.89, -7129.573, 0.520029, -0.027885891, 125730.42, 125730.42, 0.0, 9.997331, 10.002133 
2.5487012e+3, 1.222459e+2, -1569304.8, -1638795.6, 10495.547, 0.15555422, -0.26971236, -1567754.1, 174215.53, 0.31815657, 10.001438, 10.000056 
2.548283e+3, 1.3223939e+2, -1894921.1, -1759358.1, -93533.4, -0.19843754, -0.13871762, -1711628.5, -67593.44, 0.22319712, 9.998103, 9.999872 
2.5478688e+3, 1.4222997e+2, -2094003.6, -1972623.0, -22854.305, -0.09671727, -0.14683485, -1968462.4, -422333.4, 0.12934339, 9.996738, 9.998438 
2.5474542e+3, 1.5221989e+2, -1447850.6, -1663946.0, -13987.194, -0.04166779, -0.15247329, -1446949.1, 1281.8585, 0.05657354, 10.000778, 9.99793 
2.5470382e+3, 1.622096e+2, -976001.3, -1354192.3, -61878.035, 0.036154464, -0.11152783, -966134.5, 384199.53, 0.016116831, 10.003229, 9.998206 
2.5466198e+3, 1.7219943e+2, -1082649.4, -1341280.4, -92369.72, -0.039373122, -0.15880427, -1053047.8, 199387.66, 0.0021455006, 10.001726, 9.998334 
2.5462008e+3, 1.8218938e+2, -1197487.8, -1354673.9, -132740.39, -0.0837471, -0.12635736, -1121818.5, 32716.873, 0.000046550977, 10.000296, 9.998275 
2.5457823e+3, 1.921794e+2, -1096943.0, -1241981.9, -186269.69, -0.0060710027, -0.15091565, -969573.8, 87059.83, 0.0, 10.000277, 9.998369 
2.545365e+3, 2.0216964e+2, -993691.75, -1118970.0, -27960.64, 0.07421593, -0.10637118, -987734.56, -29003.92, 0.0, 10.000229, 9.998551 
2.544951e+3, 2.121602e+2, -857510.9, -992905.8, 78406.36, 0.06769034, -0.11210998, -821620.2, 39207.81, 0.0, 10.000475, 9.99861 
2.544536e+3, 2.221509e+2, -755577.6, -928997.56, -11506.407, 0.036257125, -0.015748357, -754817.5, 8106.629, 0.0, 10.000628, 9.9983425 
2.5441167e+3, 2.3214246e+2, -634210.75, -809839.3, -34445.223, -0.072909854, 0.12038036, -627696.75, 37313.84, 0.0, 10.000773, 9.998396 
2.5436994e+3, 2.4213402e+2, -486243.63, -517965.72, 101137.695, -0.06857013, 0.26618138, -399730.8, 167362.95, 0.0, 10.000372, 9.999928 
2.5432885e+3, 2.5212482e+2, -494193.53, -356990.06, 63421.33, 0.1700449, 0.08241519, -332165.56, 137008.63, 0.0, 9.999184, 10.000907 
2.5428763e+3, 2.621147e+2, -784358.44, -930724.4, -90694.27, 0.27042487, -0.005210929, -741003.0, -369734.3, 0.0, 9.99857, 9.996624 
2.542457e+3, 2.7210218e+2, -622842.3, -978960.56, -62027.113, -0.013134634, 0.012822875, -612348.0, -338943.34, 0.0, 9.999785, 9.995012 
2.5420395e+3, 2.820915e+2, -106718.33, -71692.53, -41300.42, -0.15344249, 0.120343044, -44345.355, 131170.94, 0.0, 10.000057, 10.000441 
2.5416252e+3, 2.920849e+2, 42255.297, 324179.84, -98054.805, 0.09023282, 0.0062142904, 354929.88, 432496.44, 0.0, 9.999243, 10.002867 
2.541213e+3, 3.020754e+2, -390474.2, -496784.3, -77609.24, 0.4068953, -0.15636998, -349561.94, -349561.94, 0.0, 9.998666, 9.997208 
2.5407973e+3, 3.1206578e+2, -328194.75, -281791.0, -83023.71, 0.24374716, 0.09348414, -218788.11, -218788.11, 0.0, 9.998243, 9.998883 
2.5586915e+3, 1.2265584e+2, -1635356.8, -1646593.9, -77200.766, -0.16795926, -0.38814935, -1563570.4, 174384.9, 0.29081753, 10.000621, 10.00033 
2.558274e+3, 1.3264863e+2, -1501210.6, -1385210.4, -85823.29, -0.12735055, -0.50028783, -1339626.5, 300391.25, 0.2027681, 10.000063, 10.0019455 
2.5578582e+3, 1.4264059e+2, -1645316.5, -1651707.8, 72876.45, -0.08394741, -0.5227255, -1575565.6, -33472.0, 0.11625642, 9.999397, 9.999336 
2.5574452e+3, 1.5263437e+2, -1395533.0, -1564897.8, 145028.39, -0.1551391, -0.2109701, -1312273.9, 131889.2, 0.04988728, 10.000876, 9.998551 
2.557031e+3, 1.626266e+2, -1108979.0, -1405226.8, -78665.914, -0.16984518, 0.042079266, -1089385.9, 256860.28, 0.013707004, 10.002232, 9.998343 
2.5566122e+3, 1.7261533e+2, -1088394.8, -1340886.3, -143645.63, -0.08880296, -0.1015459, -1023402.3, 224956.28, 0.0016894786, 10.001667, 9.998375 
2.5561932e+3, 1.8260428e+2, -1145726.8, -1381828.5, -144690.34, -0.03916155, -0.15464537, -1077039.0, 73430.49, 0.000027889511, 10.000875, 9.997798 
2.555774e+3, 1.9259384e+2, -1085892.9, -1327821.6, -164992.78, -0.00785688, -0.14130245, -1002272.3, 50302.188, 0.0, 10.000749, 9.997546 
2.5553566e+3, 2.0258412e+2, -858062.7, -940588.7, -2559.1375, 0.022793757, -0.07969493, -857983.44, 96686.92, 0.0, 10.000647, 9.999582 
2.5549433e+3, 2.1257581e+2, -702809.8, -756692.6, 104878.88, 0.043408427, -0.10146077, -621467.25, 235280.44, 0.0, 10.000797, 10.000092 
2.5545284e+3, 2.225673e+2, -597919.94, -687239.75, 5536.589, 0.018703293, -0.07541868, -597578.06, 161249.45, 0.0, 10.000977, 9.999838 
2.5541088e+3, 2.3255856e+2, -489679.7, -605805.25, 6875.641, -0.097543515, -0.07965795, -489274.0, 171636.83, 0.0, 10.001172, 9.99961 
2.5536913e+3, 2.4254881e+2, -558346.56, -811003.44, 99383.44, -0.11689068, -0.054317955, -523939.38, 39066.895, 0.0, 10.000938, 9.997657 
2.5532785e+3, 2.5253642e+2, -760975.4, -916127.25, -4227.9985, 0.09502921, -0.1818483, -760860.25, -295728.78, 0.0, 9.999146, 9.997109 
2.552865e+3, 2.6252502e+2, -699644.75, -723652.75, -79465.805, 0.19618703, -0.21233809, -631281.44, -264034.6, 0.0, 9.998387, 9.998153 
2.552449e+3, 2.7251607e+2, -319301.47, -482235.56, 37608.938, 0.0404456, -0.11526421, -311039.4, -41698.43, 0.0, 10.00031, 9.9981985 
2.5520328e+3, 2.8250757e+2, -32410.889, -227563.06, -11190.245, -0.059909318, 0.06916814, -31771.324, 139657.56, 0.0, 10.001327, 9.998778 
2.5516152e+3, 2.9249915e+2, -149255.25, -207173.4, -199128.78, -0.01709603, 0.14928481, 23009.176, 96517.75, 0.0, 9.999742, 9.999011 
2.5512013e+3, 3.0248716e+2, -261695.6, -353101.84, -147484.56, 0.23951294, -0.059979215, -152995.11, -152995.11, 0.0, 9.999121, 9.998006 
2.5507852e+3, 3.1247443e+2, -3621.6519, -48994.355, -71741.52, -0.09324461, -0.28500512, 48935.05, 48935.05, 0.0, 10.000018, 9.999662 
2.5686872e+3, 1.23077944e+2, -1713276.0, -1680878.1, 150948.3, 0.2580114, -0.1428332, -1545262.1, 188560.69, 0.26403108, 9.999945, 10.000467 
2.5682682e+3, 1.3306798e+2, -1167115.5, -1456137.5, 82461.016, -0.08822346, -0.25961247, -1145243.8, 490670.28, 0.18292536, 10.004094, 9.999383 
2.5678524e+3, 1.430574e+2, -919056.0, -1381521.8, 17065.998, -0.12525363, -0.33692557, -918427.06, 619587.4, 0.1037245, 10.005246, 9.998507 
2.5674367e+3, 1.5304841e+2, -1520823.1, -1695896.5, -7957.6914, -0.21549992, -0.26937264, -1520462.3, -80354.62, 0.043632858, 10.000198, 9.997996 
2.5670213e+3, 1.6303958e+2, -1799899.3, -1741821.5, -122447.02, -0.2165938, -0.09772742, -1645017.0, -302817.47, 0.011545959, 9.997519, 9.998269 
2.5666043e+3, 1.7303026e+2, -1262054.3, -1437831.1, -173682.16, -0.1279885, -0.05963996, -1155289.5, 89005.75, 0.0013158798, 10.000578, 9.998201 
2.5661862e+3, 1.830202e+2, -887156.3, -1260546.8, -206830.34, -0.053286236, -0.0060340227, -795222.94, 351174.25, 0.000016496271, 10.002698, 9.997753 
2.565767e+3, 1.9300915e+2, -849012.1, -1236160.5, -198172.63, -0.024068521, -0.06255566, -765560.4, 282947.2, 0.0, 10.002467, 9.997372 
2.5653493e+3, 2.0299894e+2, -697287.8, -818068.4, -21994.48, 0.02200591, -0.051003307, -693407.25, 257198.6, 0.0, 10.001601, 9.999966 
2.5649354e+3, 2.1299043e+2, -844204.56, -780626.94, -9256.194, 0.049880747, -0.14228518, -779306.75, 73371.91, 0.0, 9.999678, 10.00047 
2.5645202e+3, 2.229818e+2, -914381.75, -843450.9, -149482.25, 0.07028136, -0.16073102, -725284.44, 29470.684, 0.0, 9.998839, 9.999783 
2.5641015e+3, 2.3297241e+2, -703796.94, -718157.94, -218873.95, -0.01106121, -0.2619739, -491985.75, 164857.39, 0.0, 9.999744, 9.999526 
2.563684e+3, 2.4296197e+2, -751213.4, -1039243.6, -149847.44, -0.040091217, -0.2751595, -687395.4, -128449.62, 0.0, 10.000265, 9.996388 
2.563269e+3, 2.5294894e+2, -769229.5, -1112755.8, -70598.43, 0.03352014, -0.3404552, -755286.6, -294203.1, 0.0, 9.999977, 9.995342 
2.562855e+3, 2.6293793e+2, -482555.47, -482258.16, 32112.74, 0.12679222, -0.26420516, -450293.75, -87094.69, 0.0, 9.999354, 9.999307 
2.5624415e+3, 2.729313e+2, -377654.22, -279462.78, 60524.266, 0.121254064, -0.14506954, -250625.36, 14640.141, 0.0, 9.998963, 10.000217 
2.5620255e+3, 2.8292325e+2, -463926.66, -608498.44, -78380.82, 0.03004305, 0.01902529, -429587.97, -262240.84, 0.0, 9.999146, 9.997201 
2.5616053e+3, 2.929124e+2, -269054.72, -577127.25, -78711.805, -0.15769626, 0.09270614, -250109.13, -180650.2, 0.0, 10.00031, 9.99617 
2.5611916e+3, 3.0290067e+2, 4287.402, -151892.81, 81106.2, 0.1389107, 0.08904822, 38786.285, 38786.285, 0.0, 10.000721, 9.998565 
2.5607806e+3, 3.128915e+2, -13521.142, 211733.23, 110783.7, 0.26711932, 0.044427924, 257086.77, 257086.77, 0.0, 9.99897, 10.001886 
2.5786793e+3, 1.2350227e+2, -1707361.3, -2018848.0, 66879.125, 0.23048812, 0.2554767, -1693608.8, 36060.688, 0.23823552, 10.001419, 9.9971695 
2.5782636e+3, 1.3348906e+2, -1427128.6, -1951033.5, 153447.39, -0.120499074, 0.11903427, -1385493.9, 246302.94, 0.16394834, 10.003527, 9.995977 
2.577848e+3, 1.4347562e+2, -1166800.4, -1625644.6, -110687.1, -0.21589155, -0.0022244058, -1141494.9, 392431.63, 0.09188186, 10.003878, 9.997371 
2.5774282e+3, 1.5346164e+2, -1475559.5, -1742029.8, -172513.17, -0.26594326, -0.35512128, -1390821.3, 45242.043, 0.03784501, 10.000824, 9.997383 
2.5770104e+3, 1.6345066e+2, -1591240.3, -1647861.8, -45039.902, -0.26277623, -0.35632098, -1566352.4, -228179.0, 0.009625426, 9.999009, 9.998178 
2.5765958e+3, 1.7344457e+2, -1187785.5, -1411525.5, -24876.664, -0.20953104, 0.02450834, -1185052.9, 55187.055, 0.0010124295, 10.001131, 9.998106 
2.5761795e+3, 1.8343651e+2, -848487.94, -1172454.0, -189319.03, -0.15368035, 0.26305422, -761312.0, 381011.25, 0.000009793076, 10.002673, 9.998358 
2.5757605e+3, 1.9342496e+2, -793812.06, -1125621.5, -183984.03, -0.06766269, 0.101363175, -711978.0, 332458.13, 0.0, 10.002478, 9.998122 
2.5753427e+3, 2.0341378e+2, -686590.6, -840464.44, -65595.21, 0.01178713, -0.0251571, -662423.56, 284116.78, 0.0, 10.001748, 9.999751 
2.5749272e+3, 2.1340355e+2, -843278.1, -860358.94, -59529.227, 0.088049866, -0.21575941, -791679.8, 56947.047, 0.0, 9.999984, 9.999792 
2.5745118e+3, 2.2339319e+2, -947628.75, -995530.5, -134413.38, 0.15104355, -0.3144732, -835049.06, -84328.65, 0.0, 9.999161, 9.998573 
2.574095e+3, 2.333824e+2, -749856.3, -902142.44, -192541.13, 0.20487139, -0.41012818, -618949.0, 33879.53, 0.0, 10.000064, 9.998116 
2.5736785e+3, 2.4337262e+2, -550566.06, -715334.0, -161429.14, 0.18353918, -0.36092448, -451714.03, 103213.05, 0.0, 10.0006275, 9.998445 
2.5732613e+3, 2.533643e+2, -474578.22, -667822.8, -52408.555, 0.049752615, -0.20314236, -461279.97, -4267.151, 0.0, 10.000637, 9.998104 
2.5728455e+3, 2.633557e+2, -354096.4, -404982.72, 35581.34, 0.025048058, -0.057448275, -335797.3, 23304.39, 0.0, 10.000134, 9.999461 
2.5724325e+3, 2.7334693e+2, -459794.06, -406039.28, 12139.682, 0.18445568, -0.07029123, -403424.88, -142232.81, 0.0, 9.998726, 9.9994755 
2.572018e+3, 2.833376e+2, -348591.6, -280188.03, -17745.045, 0.24072665, -0.08959222, -275858.66, -112574.4, 0.0, 9.998717, 9.999665 
2.5716007e+3, 2.9332748e+2, 88807.664, -76498.06, 104807.45, 0.14756644, -0.22068885, 139631.75, 205010.75, 0.0, 10.001291, 9.999153 
2.5711855e+3, 3.0331767e+2, 80394.62, -228207.73, 183845.1, 0.20879282, -0.1540058, 166109.84, 166109.84, 0.0, 10.0016775, 9.997596 
2.570772e+3, 3.133084e+2, -131108.13, 56024.625, 86504.336, 0.4079479, 0.008599482, 89885.35, 89885.35, 0.0, 9.998474, 10.001093 
2.5886694e+3, 1.23909645e+2, -1366262.5, -1711087.3, -102053.62, -0.24152727, 0.019907353, -1338322.8, 387356.1, 0.2137318, 10.003823, 9.998167 
2.588258e+3, 1.3389987e+2, -1491140.0, -1793990.4, -72075.305, -0.10611495, -0.0140763745, -1474861.8, 152910.19, 0.14603192, 10.002031, 9.997786 
2.5878432e+3, 1.4388928e+2, -1474920.8, -1722937.1, -183771.33, -0.062284335, 0.008836189, -1377231.1, 152644.94, 0.080827504, 10.001323, 9.997926 
2.5874227e+3, 1.5387833e+2, -1092823.0, -1525659.0, -209767.61, -0.16782619, -0.08068834, -1007845.56, 424141.9, 0.032553293, 10.003451, 9.997586 
2.5870043e+3, 1.638677e+2, -848005.06, -1255344.0, -41731.27, -0.2098826, -0.07896739, -843773.7, 490319.72, 0.007938516, 10.004009, 9.998456 
2.5865895e+3, 1.7385857e+2, -1060632.1, -1344307.8, -10923.586, -0.18072401, -0.02888473, -1060212.0, 175970.19, 0.00076767127, 10.001983, 9.998165 
2.5861728e+3, 1.838494e+2, -1127681.9, -1304220.9, -173131.27, -0.110062264, 0.09963738, -1021616.75, 116656.55, 0.000005913737, 10.000748, 9.998367 
2.5857538e+3, 1.9383916e+2, -1125049.5, -1284653.4, -210505.98, 0.010126841, 0.052525897, -979726.7, 60649.273, 0.0, 10.000226, 9.998093 
2.5853357e+3, 2.0382863e+2, -930270.3, -975048.5, -90889.9, 0.09498923, -0.0065763723, -859052.56, 83421.77, 0.0, 10.000178, 9.999572 
2.5849193e+3, 2.138177e+2, -775765.9, -867568.8, -65413.664, 0.10753257, -0.25611195, -741755.56, 102810.37, 0.0, 10.000619, 9.999435 
2.584503e+3, 2.238068e+2, -781774.44, -964495.44, -47214.83, 0.1614847, -0.35911196, -770295.3, -23629.81, 0.0, 10.000601, 9.998076 
2.5840876e+3, 2.337958e+2, -798769.06, -987372.9, -32010.488, 0.27582908, -0.41672263, -793484.2, -144705.69, 0.0, 10.000084, 9.997505 
2.5836712e+3, 2.4378648e+2, -551446.3, -579330.25, -1459.2385, 0.26996216, -0.31966144, -551370.1, -496.83173, 0.0, 10.000077, 9.999624 
2.5832528e+3, 2.5377986e+2, -420319.0, -474743.7, -8158.6934, 0.019461246, -0.15033385, -419122.25, 33816.21, 0.0, 10.00034, 9.999555 
2.5828364e+3, 2.6377207e+2, -394874.78, -470653.9, -26548.611, -0.05804062, 0.011338629, -386499.38, -31481.48, 0.0, 10.000073, 9.99904 
2.5824225e+3, 2.7376217e+2, -494793.94, -514572.0, -28444.83, 0.16167203, -0.05939702, -474568.16, -217446.52, 0.0, 9.998934, 9.998609 
2.582009e+3, 2.8375277e+2, -213986.33, -10354.8545, 25634.389, 0.3442031, -0.11610346, -7177.4194, 152036.34, 0.0, 9.998801, 10.001465 
2.5815955e+3, 2.937436e+2, 49400.063, 154283.86, 40103.613, 0.36831966, -0.400707, 167860.53, 229152.77, 0.0, 9.999985, 10.001361 
2.5811774e+3, 3.037346e+2, -234798.23, -480122.3, -88336.25, 0.1276771, -0.36249724, -206300.52, -206300.52, 0.0, 9.999963, 9.996688 
2.5807562e+3, 3.1372926e+2, -323371.84, -207986.14, -64749.56, -0.20928124, 0.31277856, -178955.47, -178955.47, 0.0, 9.997935, 9.999543 
2.5986624e+3, 1.24315046e+2, -1335465.5, -1480190.0, -19735.826, -0.5740715, -0.2363885, -1332822.5, 388882.38, 0.19077101, 10.00288, 10.000553 
2.598252e+3, 1.3430814e+2, -1330229.9, -1381541.5, -66098.47, -0.080294445, -0.2715164, -1284982.8, 338786.03, 0.12932456, 10.001737, 10.001005 
2.5978377e+3, 1.4430156e+2, -1404784.3, -1574257.0, -102638.75, 0.10839874, -0.061552458, -1356423.0, 169413.8, 0.07062259, 10.001331, 9.998935 
2.597419e+3, 1.5429646e+2, -1113073.8, -1448336.9, -89430.66, -0.06486482, 0.3726174, -1090710.1, 337188.56, 0.027766839, 10.00292, 9.998361 
2.5970006e+3, 1.6428675e+2, -894912.3, -1202062.8, -70914.84, -0.16978505, 0.39506692, -879330.0, 450664.72, 0.0064744665, 10.0033455, 9.999143 
2.5965837e+3, 1.7427152e+2, -1041291.6, -1267447.4, -46179.867, -0.13382356, -0.20935695, -1032225.4, 199905.22, 0.0005723583, 10.001799, 9.998791 
2.596166e+3, 1.8425982e+2, -1127056.3, -1327816.5, -181631.89, -0.032222014, -0.35710874, -1019912.2, 114329.6, 0.0000035552432, 10.00085, 9.998158 
2.5957468e+3, 1.9425203e+2, -1083851.9, -1301680.5, -198876.6, 0.13951619, -0.11214927, -966019.1, 70306.836, 0.0, 10.000645, 9.997783 
2.5953284e+3, 2.0424312e+2, -831389.8, -874095.4, -53558.105, 0.17758496, -0.017159235, -795084.9, 143326.34, 0.0, 10.000615, 10.000062 
2.5949112e+3, 2.1423283e+2, -674230.7, -777044.7, -26481.17, 0.051623814, -0.2230343, -667810.94, 172686.19, 0.0, 10.001095, 9.999853 
2.5944942e+3, 2.2422321e+2, -646580.44, -804959.44, -50834.832, 0.03090147, -0.25837138, -631668.06, 110916.38, 0.0, 10.001104, 9.998927 
2.5940782e+3, 2.3421428e+2, -660250.94, -824626.9, -11995.871, 0.14177538, -0.1830601, -659380.1, -14704.539, 0.0, 10.000578, 9.998391 
2.5936615e+3, 2.4420439e+2, -517940.3, -605462.3, 40495.32, 0.120756134, -0.17376441, -502078.38, 44695.938, 0.0, 10.000438, 9.999286 
2.593244e+3, 2.541936e+2, -402096.7, -528171.5, 21185.826, -0.07536238, -0.3438532, -398631.8, 50247.14, 0.0, 10.000675, 9.999043 
2.5928274e+3, 2.6418462e+2, -347169.28, -444956.94, -54742.195, -0.13433026, -0.27557787, -322664.78, 28305.428, 0.0, 10.000384, 9.99906 
2.5924122e+3, 2.7417755e+2, -406685.88, -464793.6, -52609.16, 0.04560141, -0.04734163, -375641.06, -122592.625, 0.0, 9.999468, 9.998703 
2.5919974e+3, 2.8416893e+2, -248025.3, -176628.67, 30009.355, 0.09871952, 0.022801073, -165690.83, -10554.199, 0.0, 9.999206, 10.000128 
2.5915822e+3, 2.9415825e+2, -104523.555, -90353.58, -46542.41, -0.069016956, -0.23772155, -50359.98, 6877.159, 0.0, 9.999627, 9.9998665 
2.5911683e+3, 3.0414978e+2, -201440.45, -335302.63, -274960.9, 0.13475755, -0.12528042, 14618.33, 14618.33, 0.0, 9.999591, 9.997877 
2.5907505e+3, 3.141411e+2, -43096.17, 203291.36, 178923.83, 0.23468512, 0.058857113, 297331.22, 297331.22, 0.0, 9.998639, 10.002024 
2.6086587e+3, 1.24729976e+2, -1495823.0, -1611076.5, 35960.887, -0.28084916, -0.24988854, -1485523.1, 232106.6, 0.16949522, 10.001737, 9.99998 
2.608245e+3, 1.3472204e+2, -1358394.9, -1465289.5, -25411.494, -0.091187954, -0.2990718, -1352661.5, 267046.1, 0.11391173, 10.001829, 10.000275 
2.607829e+3, 1.4471513e+2, -1339460.6, -1457887.9, -76200.63, -0.04071216, -0.12118865, -1302171.5, 219608.45, 0.061296463, 10.001408, 9.999698 
2.6074114e+3, 1.5470989e+2, -1362105.0, -1486768.6, -57936.613, -0.13215126, 0.20456277, -1339337.4, 84503.9, 0.023481611, 10.0007715, 9.999133 
2.6069933e+3, 1.6470098e+2, -1287078.9, -1336553.4, -60710.57, -0.1482501, 0.24665886, -1246259.3, 79669.06, 0.005220199, 10.000349, 9.999708 
2.6065767e+3, 1.7468743e+2, -1317308.1, -1359578.0, -53637.863, -0.03357911, -0.23918842, -1280791.5, -52742.902, 0.00041937284, 9.999699, 9.999212 
2.6061586e+3, 1.8467614e+2, -1198273.9, -1387146.8, -87899.805, 0.050648093, -0.34833205, -1163696.4, -33540.4, 0.0000020172258, 10.000455, 9.997953 
2.6057395e+3, 1.946679e+2, -833708.75, -1220889.0, -100515.04, 0.11245049, -0.1300408, -809169.5, 223075.7, 0.0, 10.002527, 9.997441 
2.605321e+3, 2.0465846e+2, -593736.4, -841911.3, -37381.957, 0.13339195, -0.02788762, -588227.94, 346109.78, 0.0, 10.002667, 9.999256 
2.6049033e+3, 2.1464756e+2, -894983.9, -984141.75, -109809.2, 0.075018734, -0.22002877, -821049.75, 15384.338, 0.0, 10.0000925, 9.998878 
2.6044858e+3, 2.2463803e+2, -866865.56, -891737.1, -150105.33, 0.013636675, -0.21061611, -728681.75, 9840.319, 0.0, 9.999503, 9.999111 
2.6040685e+3, 2.3462982e+2, -692173.9, -815837.1, -149124.33, 0.001279379, -0.12104313, -592570.6, 48032.777, 0.0, 10.000265, 9.998604 
2.6036522e+3, 2.4461995e+2, -571764.6, -651362.06, -99045.73, -0.013117579, -0.12981124, -504820.7, 37880.035, 0.0, 10.000205, 9.999072 
2.6032355e+3, 2.546079e+2, -678327.75, -708845.9, -78860.48, -0.081014, -0.42419317, -613263.6, -168445.28, 0.0, 9.999028, 9.998589 
2.6028192e+3, 2.645986e+2, -497382.66, -521581.66, -117818.125, -0.11822154, -0.36611155, -391044.38, -44132.027, 0.0, 9.9994135, 9.999 
2.6024023e+3, 2.7459255e+2, -239297.67, -408020.7, -98911.57, -0.062265508, -0.048916273, -193657.78, 55321.656, 0.0, 10.000757, 9.998476 
2.6019865e+3, 2.845838e+2, -144226.2, -269551.8, 13243.449, -0.12787767, 0.078353785, -142842.03, 8229.189, 0.0, 10.0005455, 9.998847 
2.60157e+3, 2.9457226e+2, -383502.88, -413069.13, 5824.9893, -0.4181804, -0.1361402, -382396.66, -329209.16, 0.0, 9.998558, 9.998164 
2.6011598e+3, 3.0456465e+2, -291999.16, -251360.42, -197157.55, 0.22167036, 0.11647629, -73477.94, -73477.94, 0.0, 9.998478, 9.998962 
2.6007438e+3, 3.1455758e+2, -196325.11, -8613.717, 29503.783, 0.5109012, 0.3269906, -4085.6494, -4085.6494, 0.0, 9.9982815, 10.000704 
2.6186565e+3, 1.2514731e+2, -1447877.8, -1671751.0, 81246.11, 0.09924856, -0.20347156, -1421500.5, 292028.94, 0.14988379, 10.002536, 9.9990635 
2.6182377e+3, 1.3513757e+2, -1449440.0, -1702311.1, 33053.004, -0.19035578, -0.24270216, -1445191.0, 170438.8, 0.09979615, 10.001996, 9.998432 
2.6178193e+3, 1.4512879e+2, -1285116.1, -1318687.9, -53780.02, -0.3389004, -0.20528714, -1245563.3, 272156.7, 0.05285716, 10.001307, 10.000737 
2.617402e+3, 1.5512092e+2, -1282101.1, -1352183.6, -48656.816, -0.310235, -0.22937112, -1257181.0, 162619.94, 0.019694533, 10.000909, 10.000004 
2.616985e+3, 1.6511317e+2, -1192882.1, -1224689.9, -83793.37, -0.17730793, -0.14358598, -1123496.8, 198379.28, 0.004163879, 10.000722, 10.000277 
2.6165685e+3, 1.7510511e+2, -1186591.1, -1235544.0, -72455.484, 0.03684854, -0.13266662, -1134589.5, 89359.55, 0.00030229846, 10.000351, 9.999724 
2.616151e+3, 1.8509585e+2, -1104697.1, -1336981.3, -15287.182, 0.064913236, -0.06815408, -1103695.4, 22343.936, 0.0000010444409, 10.001053, 9.998012 
2.615732e+3, 1.9508567e+2, -776576.8, -1191750.5, -4333.8945, -0.08273875, -0.035844885, -776531.56, 251612.83, 0.0, 10.002861, 9.997492 
2.6153138e+3, 2.0507413e+2, -703652.94, -1112825.9, -121593.38, -0.039893266, -0.054644205, -670246.56, 260012.88, 0.0, 10.002815, 9.997332 
2.614896e+3, 2.1506125e+2, -977366.1, -1245688.6, -190673.83, 0.1516273, -0.23436531, -878384.1, -46000.383, 0.0, 10.000444, 9.996914 
2.614478e+3, 2.2505006e+2, -818222.7, -873075.44, -109264.89, 0.0987232, -0.29046878, -732994.6, 1496.0645, 0.0, 9.999824, 9.999099 
2.6140594e+3, 2.3504055e+2, -611181.8, -777807.1, -108062.73, -0.14962682, -0.31107688, -558044.7, 78536.93, 0.0, 10.00076, 9.99865 
2.6136428e+3, 2.4503186e+2, -490155.47, -548427.1, -158110.23, -0.12500189, -0.23495689, -358518.97, 180148.4, 0.0, 10.000474, 9.999654 
2.613228e+3, 2.5502366e+2, -625573.9, -629897.6, -129603.34, 0.11950272, -0.1762846, -498114.34, -57363.254, 0.0, 9.999124, 9.9991 
2.6128122e+3, 2.6501477e+2, -419213.97, -430127.0, -36917.035, 0.11563948, -0.13087119, -387352.38, -44512.203, 0.0, 9.999676, 9.9995165 
2.6123956e+3, 2.750056e+2, -34326.777, -249433.45, -15367.262, -0.07431973, -0.1493744, -33234.484, 211696.34, 0.0, 10.0018425, 9.9990635 
2.6119792e+3, 2.8499648e+2, 43666.098, -87406.32, -56232.4, -0.13326064, -0.13597752, 64484.258, 211507.33, 0.0, 10.001412, 9.999685 
2.6115626e+3, 2.9498747e+2, -325734.94, -292473.7, -17822.621, -0.14593866, -0.1569856, -284727.63, -235611.58, 0.0, 9.998524, 9.999015 
2.61115e+3, 3.049808e+2, -267152.38, -94075.11, -29504.89, 0.33026332, 0.08859459, -89183.586, -89183.586, 0.0, 9.997982, 10.000288 
2.6107314e+3, 3.149711e+2, 115390.12, 352510.53, -285383.8, 0.26992977, -0.062166214, 542981.8, 542981.8, 0.0, 9.999405, 10.002667 
2.6286525e+3, 1.255646e+2, -1289746.9, -1713935.4, 90670.16, 0.15382595, -0.4009909, -1271179.0, 438250.4, 0.13183959, 10.004306, 9.997883 
2.6282316e+3, 1.355541e+2, -1484986.8, -1848291.1, 46302.668, -0.1528436, -0.3923692, -1479178.4, 132362.6, 0.08692967, 10.002253, 9.997311 
2.6278126e+3, 1.4554478e+2, -1332948.8, -1439535.4, 10581.303, -0.2726991, -0.3032193, -1331908.5, 181729.13, 0.045284744, 10.00133, 9.999895 
2.627396e+3, 1.5553617e+2, -1289867.9, -1447467.1, -54867.09, -0.16722146, -0.31171778, -1272647.9, 143076.5, 0.01638905, 10.001221, 9.999231 
2.6269794e+3, 1.6552745e+2, -1102870.1, -1274311.1, -110369.69, -0.033514522, -0.24804729, -1048842.8, 268966.7, 0.0032885466, 10.001775, 9.999413 
2.6265627e+3, 1.755187e+2, -904382.94, -1206385.4, -174874.4, 0.12878098, -0.23120205, -824337.75, 395554.38, 0.00021471751, 10.00274, 9.998785 
2.626145e+3, 1.855097e+2, -858746.9, -1170044.4, -164269.23, 0.11615832, -0.1380265, -788097.3, 333884.5, 0.00000047553752, 10.002569, 9.998412 
2.6257256e+3, 1.9550017e+2, -1053999.9, -1306041.6, -150575.28, -0.052471545, -0.0995906, -983668.6, 40411.105, 0.0, 10.00092, 9.997634 
2.6253065e+3, 2.054891e+2, -938003.7, -1214727.1, -182358.2, -0.049398378, -0.09335907, -847458.3, 78731.73, 0.0, 10.001151, 9.997449 
2.6248884e+3, 2.1547672e+2, -718245.2, -1127767.8, -101120.03, 0.13070773, -0.232864, -694637.4, 133674.1, 0.0, 10.00228, 9.996843 
2.62447e+3, 2.254654e+2, -465668.2, -682183.25, 77458.32, 0.086167924, -0.29328212, -440811.16, 289609.3, 0.0, 10.00221, 9.999233 
2.6240513e+3, 2.354551e+2, -653534.06, -805771.3, 81596.89, -0.17238069, -0.39614838, -618063.7, 14454.534, 0.0, 10.000559, 9.99854 
2.623635e+3, 2.4544665e+2, -525649.2, -608857.7, -16368.818, -0.10267421, -0.25101328, -522544.94, 12058.407, 0.0, 10.000449, 9.999237 
2.6232207e+3, 2.5543976e+2, -460464.34, -609201.3, -62462.707, 0.26633248, -0.017769298, -437713.0, -1035.0958, 0.0, 10.000527, 9.9985695 
2.6228052e+3, 2.6543063e+2, -404439.6, -371142.06, 39124.645, 0.2709223, 0.010321631, -345271.2, -6502.5386, 0.0, 9.999589, 9.999946 
2.6223877e+3, 2.7541965e+2, -628553.5, -510969.8, 53835.688, -0.051565792, -0.24541044, -490044.9, -249171.7, 0.0, 9.997699, 9.999249 
2.6219708e+3, 2.8541082e+2, -465034.84, -219659.52, -82374.086, -0.13027571, -0.25603187, -194571.16, -51611.39, 0.0, 9.997486, 10.000648 
2.6215538e+3, 2.9540363e+2, -424643.44, -251327.05, -32967.297, 0.027672287, -0.20103396, -245268.0, -200234.55, 0.0, 9.9974985, 9.999788 
2.6211405e+3, 3.0539775e+2, -174512.89, 41321.87, 15472.42, 0.3984717, 0.044582948, 42425.395, 42425.395, 0.0, 9.998278, 10.001068 
2.6207194e+3, 3.1538466e+2, -170128.92, -291220.16, 97962.52, -0.07197563, -0.5272596, -115511.93, -115511.93, 0.0, 9.999707, 9.998094 
2.6386476e+3, 1.25982e+2, -1659083.8, -1984797.8, -94759.81, 0.07028335, -0.5552824, -1633521.4, 71809.98, 0.115287155, 10.001706, 9.997254 
2.638226e+3, 1.3597073e+2, -1613639.3, -2000977.8, -40582.457, -0.119648606, -0.5754583, -1609433.0, -1980.5789, 0.07524967, 10.0016365, 9.99656 
2.6378068e+3, 1.4596146e+2, -1372773.3, -1596367.4, 9640.698, -0.12695242, -0.3807907, -1372358.3, 137191.28, 0.038529176, 10.001663, 9.998621 
2.6373908e+3, 1.5595323e+2, -1289681.5, -1577083.4, -34382.027, 0.04088405, -0.22437775, -1285625.6, 126007.47, 0.013527696, 10.001808, 9.998039 
2.6369745e+3, 1.659423e+2, -1158714.1, -1458900.5, -46304.555, 0.13988085, -0.24894574, -1151733.9, 162006.73, 0.0025719018, 10.00206, 9.998022 
2.6365575e+3, 1.7592965e+2, -1033731.6, -1404788.5, -89124.61, 0.17369387, -0.46981132, -1013434.9, 202428.02, 0.00015054179, 10.002414, 9.997587 
2.6361394e+3, 1.8591991e+2, -856084.7, -1105880.0, -182882.27, 0.16307302, -0.41661528, -759520.5, 358440.7, 0.0000001940375, 10.002329, 9.998962 
2.6357195e+3, 1.9591196e+2, -944963.5, -1165039.1, -164863.84, 0.087600164, -0.26488274, -856788.25, 163256.47, 0.0, 10.001265, 9.998439 
2.6353002e+3, 2.0590346e+2, -734005.44, -858199.3, -111129.02, 0.015050483, -0.16339225, -668800.8, 253326.7, 0.0, 10.00144, 9.999748 
2.6348808e+3, 2.1589448e+2, -472716.78, -753671.4, -21445.37, -0.052597336, -0.18225777, -471089.28, 353121.88, 0.0, 10.0028305, 9.999148 
2.6344627e+3, 2.2588481e+2, -371580.8, -592339.4, 49519.07, -0.046224315, -0.2069191, -360981.9, 365321.16, 0.0, 10.002629, 9.999661 
2.6340455e+3, 2.358749e+2, -530418.44, -703476.9, 66947.805, -0.026273126, -0.2952901, -507543.28, 120854.984, 0.0, 10.00117, 9.998956 
2.633629e+3, 2.4586515e+2, -580854.25, -820195.94, 37319.484, 0.09610323, -0.20694947, -575170.2, -44671.625, 0.0, 10.000841, 9.9976 
2.633214e+3, 2.5585574e+2, -434661.13, -731796.7, -14951.618, 0.3084492, -0.055372514, -433910.66, -1310.2745, 0.0, 10.001255, 9.997371 
2.6327965e+3, 2.6584604e+2, -367046.22, -325464.25, -45096.805, 0.27940392, -0.04372971, -296596.53, 38101.85, 0.0, 9.999683, 10.000232 
2.632377e+3, 2.758361e+2, -747904.44, -509975.97, -23363.594, 0.070476286, -0.19907406, -507703.47, -270909.53, 0.0, 9.996568, 9.999818 
2.6319596e+3, 2.858283e+2, -568377.2, -145207.86, -8120.948, -0.01805203, -0.20131181, -145052.08, -6183.5244, 0.0, 9.996172, 10.001818 
2.6315424e+3, 2.9582193e+2, -329694.38, -78496.875, 42830.75, -0.007333409, -0.15806368, -71394.76, -30466.271, 0.0, 9.997532, 10.000982 
2.6311284e+3, 3.0581418e+2, -190032.64, -199958.13, 57113.008, 0.17460313, -0.044248898, -137667.17, -137667.17, 0.0, 9.999123, 9.999035 
2.630712e+3, 3.1580636e+2, -43271.664, -89378.0, 51464.902, 0.050134145, 0.13208072, -9932.594, -9932.594, 0.0, 9.999878, 9.999428 
2.648636e+3, 1.263988e+2, -2000624.6, -1810310.0, -235163.03, -0.106371254, -0.1560844, -1651781.4, 49489.906, 0.1001696, 9.997857, 10.000331 
2.6482195e+3, 1.3638888e+2, -1572241.9, -1687719.9, -94949.93, 0.035725683, -0.34736162, -1518853.5, 84510.81, 0.06469248, 10.000734, 9.999136 
2.647802e+3, 1.4637937e+2, -1292887.6, -1630775.1, -5980.396, 0.02425035, -0.26801723, -1292781.9, 212676.64, 0.032530583, 10.002579, 9.997918 
2.6473844e+3, 1.5636992e+2, -1104691.0, -1559568.1, -50265.973, -0.020083852, -0.16814148, -1099202.6, 308351.44, 0.011066901, 10.003409, 9.997376 
2.6469672e+3, 1.6635872e+2, -1096656.0, -1363924.8, -54352.363, 0.054418586, -0.22965582, -1086025.6, 223636.16, 0.0019930317, 10.002171, 9.998629 
2.6465496e+3, 1.7634639e+2, -1497930.5, -1596238.9, 4045.4436, 0.16475897, -0.4624866, -1497764.4, -285986.22, 0.00010503105, 9.999081, 9.997894 
2.6461315e+3, 1.8633646e+2, -1219791.9, -1268987.0, 49356.527, 0.17046595, -0.4317541, -1189243.3, -75366.234, 0.00000008640195, 9.999819, 9.999032 
2.645713e+3, 1.9632809e+2, -799667.5, -1098445.5, 19956.85, 0.12890941, -0.3116379, -798340.4, 217623.61, 0.0, 10.00231, 9.998388 
2.6452935e+3, 2.0631954e+2, -600778.6, -754165.1, -44282.926, 0.030933876, -0.22506866, -588912.1, 329134.03, 0.0, 10.002211, 10.000085 
2.6448733e+3, 2.1631098e+2, -896279.06, -948312.7, -91441.19, -0.09446991, -0.23792925, -827225.56, -7101.535, 0.0, 9.999879, 9.999258 
2.644455e+3, 2.2630186e+2, -786025.94, -832787.56, -104408.055, -0.072120994, -0.20707545, -702412.8, 19799.87, 0.0, 9.999964, 9.999293 
2.6440382e+3, 2.362925e+2, -706532.94, -849385.75, -136609.55, 0.049898837, -0.23242198, -623803.94, 502.95212, 0.0, 10.00026, 9.998395 
2.6436222e+3, 2.4628247e+2, -595102.3, -835454.06, -63335.332, 0.17187572, -0.16825853, -579434.2, -53024.73, 0.0, 10.0008, 9.997503 
2.643206e+3, 2.562719e+2, -574618.1, -845143.0, 5814.173, 0.28263637, -0.12627438, -574493.25, -145974.1, 0.0, 10.000522, 9.996947 
2.6427868e+3, 2.6626202e+2, -376131.66, -372508.8, -99268.125, 0.23329473, -0.09477856, -275035.56, 55584.645, 0.0, 9.999849, 9.999799 
2.642366e+3, 2.7625254e+2, -591717.94, -493290.84, -111922.25, 0.1022883, -0.18164775, -420240.06, -187524.88, 0.0, 9.997938, 9.999259 
2.6419488e+3, 2.8624508e+2, -263300.47, 49443.906, -44417.625, 0.068705626, -0.14985651, 55629.977, 190414.78, 0.0, 9.998147, 10.002168 
2.641532e+3, 2.9623917e+2, -125065.14, 10433.348, -60304.508, -0.008265126, -0.12044547, 33384.676, 70220.74, 0.0, 9.999058, 10.00084 
2.6411158e+3, 3.0622956e+2, -321928.88, -457121.25, -33875.707, -0.15902771, -0.11449295, -313915.47, -313915.47, 0.0, 9.999097, 9.997251 
2.6407042e+3, 3.1621525e+2, -259796.1, 125537.94, 71915.92, 0.16230059, -0.4569367, 138522.27, 138522.27, 0.0, 9.997075, 10.002233 
2.658624e+3, 1.2681583e+2, -1471930.5, -1207562.6, -2370.3345, -0.3341204, 0.33330217, -1207541.4, 489671.3, 0.08642924, 10.000025, 10.003696 
2.6582137e+3, 1.3680755e+2, -1320493.1, -1267288.9, 24569.28, 0.18210098, -0.024676567, -1257678.9, 341595.7, 0.055199467, 10.0012045, 10.001921 
2.6577967e+3, 1.467974e+2, -1348553.1, -1690091.8, 32091.578, 0.09987456, -0.1041853, -1345563.9, 155805.48, 0.027235242, 10.002331, 9.997624 
2.6573774e+3, 1.5678631e+2, -1141495.5, -1568698.8, 8453.943, -0.2553253, -0.13337871, -1141328.3, 262153.1, 0.0089680515, 10.003111, 9.997452 
2.656958e+3, 1.6677624e+2, -965980.5, -1114496.8, -138525.36, -0.18030164, -0.17685941, -883065.0, 422509.5, 0.0015322798, 10.002315, 10.00025 
2.6565397e+3, 1.7676659e+2, -1267383.1, -1321482.8, -56566.01, 0.071116336, -0.29606894, -1231732.0, -24072.07, 0.00007382683, 9.999956, 9.9993515 
2.6561224e+3, 1.8675686e+2, -1129085.0, -1250496.0, 153468.28, 0.11536986, -0.29323128, -1024752.06, 85001.79, 0.000000036839044, 10.000526, 9.99883 
2.6557064e+3, 1.9674721e+2, -759539.06, -1106996.0, 104531.336, 0.029441535, -0.27368832, -730515.5, 281335.94, 0.0, 10.002672, 9.998158 
2.6552865e+3, 2.0673642e+2, -688463.3, -959633.8, -111842.31, -0.0066488287, -0.31575862, -648287.2, 265667.88, 0.0, 10.002319, 9.9986105 
2.6548654e+3, 2.1672527e+2, -919695.1, -1106802.4, -130756.42, -0.03753821, -0.4332948, -852470.9, -36411.367, 0.0, 10.000322, 9.997954 
2.654447e+3, 2.2671561e+2, -839806.9, -982471.3, -73180.94, -0.035996087, -0.33977982, -808944.5, -90784.07, 0.0, 10.000105, 9.998207 
2.65403e+3, 2.3670669e+2, -645743.5, -866115.6, -107520.9, -0.0078638345, -0.20648377, -601975.94, 18282.824, 0.0, 10.000818, 9.998024 
2.6536134e+3, 2.4669768e+2, -363548.13, -427314.03, -54587.438, 0.061977904, -0.17316699, -332214.72, 190131.77, 0.0, 10.001085, 10.000186 
2.653197e+3, 2.5668862e+2, -350675.94, -487567.28, 27016.031, 0.14268044, -0.22755627, -345537.13, 78892.484, 0.0, 10.000947, 9.999199 
2.6527768e+3, 2.6667893e+2, -449620.44, -601563.94, -115217.305, 0.07448669, -0.16957109, -387582.28, -61053.086, 0.0, 10.000159, 9.998081 
2.6523548e+3, 2.7666897e+2, -524329.56, -613954.5, -133811.52, -0.016251791, -0.123676434, -428026.22, -199390.27, 0.0, 9.999011, 9.997922 
2.6519394e+3, 2.8665948e+2, -205132.83, -151558.88, -21730.94, 0.07998398, -0.123254195, -143852.73, -13124.041, 0.0, 9.999507, 10.000152 
2.6515254e+3, 2.9665092e+2, 23424.244, -65988.445, -117725.375, 0.13075727, -0.15332161, 104646.14, 137454.16, 0.0, 10.000679, 9.999533 
2.6511073e+3, 3.0664405e+2, -251854.77, -266157.3, -213514.48, -0.048738554, 0.09349982, -45371.836, -45371.836, 0.0, 9.9988575, 9.998694 
2.650691e+3, 3.1663445e+2, -603678.56, -237240.4, -72186.19, 0.058430746, 0.117179655, -223532.9, -223532.9, 0.0, 9.995479, 10.000536 
2.668619e+3, 1.2723234e+2, -1121975.0, -1438591.3, 142996.83, -0.27582625, 0.09327562, -1066953.5, 626164.25, 0.07399909, 10.004427, 9.999796 
2.6682055e+3, 1.3722251e+2, -1371139.9, -1590518.5, -52724.582, 0.041025773, -0.04637018, -1359126.1, 236084.67, 0.04671132, 10.002134, 9.999135 
2.6677904e+3, 1.4721341e+2, -1294205.5, -1443591.3, -2915.4749, 0.109329954, -0.04098079, -1294148.6, 203149.28, 0.022592485, 10.001738, 9.999625 
2.6673743e+3, 1.5720439e+2, -1209973.1, -1460571.5, 35267.406, 0.06495208, -0.05109307, -1205104.4, 194280.95, 0.0071954923, 10.002, 9.998756 
2.6669535e+3, 1.6719413e+2, -922546.25, -1185735.3, -160720.5, -0.03957372, -0.11589074, -846419.3, 455062.34, 0.001170623, 10.003028, 9.99941 
2.666531e+3, 1.7718367e+2, -768010.6, -1146304.8, -189820.88, -0.09940794, -0.24990451, -689186.5, 514391.38, 0.00005271245, 10.003706, 9.998735 
2.666115e+3, 1.8717477e+2, -752265.8, -1024343.0, 9506.127, 0.022899736, -0.18375465, -751934.06, 353729.66, 0.000000014947995, 10.002955, 9.9992075 
2.6657015e+3, 1.9716635e+2, -1021243.7, -1221717.8, -26870.352, 0.20815675, -0.087113865, -1017704.6, -9957.581, 0.0, 10.000882, 9.998227 
2.665281e+3, 2.0715418e+2, -891743.2, -1086368.9, -178599.98, 0.1340333, -0.2686123, -785665.44, 124196.64, 0.0, 10.001085, 9.998309 
2.6648578e+3, 2.1714084e+2, -821109.06, -1110061.6, -114777.91, -0.011291843, -0.57991654, -781066.06, 30921.152, 0.0, 10.001295, 9.997437 
2.6644388e+3, 2.2713186e+2, -730412.1, -930591.06, 51889.92, -0.041695427, -0.39294565, -717760.94, -3677.8208, 0.0, 10.000923, 9.998131 
2.6640218e+3, 2.371245e+2, -854222.0, -976382.6, 78397.73, -0.012593642, -0.085514694, -815919.2, -199750.36, 0.0, 9.999486, 9.997901 
2.6636046e+3, 2.4711512e+2, -595360.5, -450243.13, 34752.59, 0.027986601, -0.11428029, -442349.94, 75907.26, 0.0, 9.999143, 10.000966 
2.6631874e+3, 2.5710517e+2, -709287.06, -642018.44, -47809.957, 0.05741814, -0.33963257, -617197.1, -196853.42, 0.0, 9.99844, 9.999354 
2.6627675e+3, 2.6709569e+2, -608736.94, -791494.3, -173789.19, 0.0035130447, -0.22052912, -503767.1, -181324.5, 0.0, 9.999593, 9.997032 
2.6623458e+3, 2.7708617e+2, -417600.7, -709328.1, -101964.31, -0.055569664, -0.028484605, -385495.44, -160946.45, 0.0, 10.000429, 9.996583 
2.6619303e+3, 2.870749e+2, -262905.7, -342587.63, 85855.67, 0.050100617, -0.07409082, -208097.31, -81435.89, 0.0, 9.999838, 9.998668 
2.6615167e+3, 2.9706335e+2, -486959.78, -464725.94, 43978.805, 0.105695546, -0.2409773, -430480.75, -401709.5, 0.0, 9.99786, 9.99816 
2.661099e+3, 3.0705938e+2, -298601.22, -134539.66, -146681.78, 0.1541989, 0.28839675, -48509.16, -48509.16, 0.0, 9.997923, 10.000026 
2.6606753e+3, 3.1705177e+2, -542180.7, -625587.06, -118638.96, -0.28153116, 0.41417217, -458128.72, -458128.72, 0.0, 9.997771, 9.99676 
2.6786152e+3, 1.2764823e+2, -1588552.6, -2233585.3, -16461.404, -0.26215115, -0.28794345, -1588132.9, 100888.336, 0.06277869, 10.003468, 9.994648 
2.6781964e+3, 1.3763599e+2, -1481173.3, -2017673.6, -64876.543, -0.26227567, -0.1756186, -1473439.5, 117720.516, 0.03914591, 10.00294, 9.995817 
2.6777837e+3, 1.476287e+2, -1049559.6, -1026712.2, 48327.04, 0.09860317, -0.026533207, -988477.0, 504754.66, 0.01854353, 10.002162, 10.002324 
2.677373e+3, 1.5762296e+2, -1151174.1, -1249218.5, 52988.86, 0.5605468, 0.044254698, -1128009.1, 267272.47, 0.005710664, 10.001614, 10.000395 
2.67695e+3, 1.6761167e+2, -1107541.4, -1478681.0, -104744.64, 0.19988534, -0.07331838, -1080020.6, 217370.86, 0.0008890518, 10.002625, 9.997587 
2.6765233e+3, 1.7759867e+2, -841034.25, -1303403.8, -117093.11, -0.42932615, -0.28324586, -813072.0, 386448.13, 0.000037964888, 10.003724, 9.997635 
2.6761085e+3, 1.8759114e+2, -686986.25, -899133.75, -19904.03, -0.088841125, -0.081328, -685135.0, 416458.97, 0.0000000057994387, 10.002994, 10.000054 
2.6756978e+3, 1.9758545e+2, -891774.94, -1049238.5, -45196.82, 0.5488884, 0.2122086, -879724.3, 123925.195, 0.0, 10.001269, 9.999225 
2.6752758e+3, 2.075728e+2, -787235.7, -928021.7, -129852.89, 0.38185683, -0.11127553, -709923.06, 195843.8, 0.0, 10.001328, 9.999285 
2.6748502e+3, 2.175579e+2, -630597.2, -883764.7, -74100.23, -0.08060536, -0.6645423, -610503.44, 197401.17, 0.0, 10.001969, 9.998673 
2.6744306e+3, 2.2755125e+2, -599040.8, -734154.4, 30207.537, -0.10202858, -0.3623309, -592594.75, 117378.09, 0.0, 10.001219, 9.999353 
2.6740134e+3, 2.3754731e+2, -748873.56, -863373.2, 78153.695, 0.0398934, 0.18914774, -709244.4, -97224.97, 0.0, 9.999891, 9.998492 
2.6735958e+3, 2.475352e+2, -755249.1, -786717.8, 36215.36, 0.11395909, 0.009582341, -731497.75, -217361.64, 0.0, 9.999125, 9.998678 
2.6731783e+3, 2.5752056e+2, -783799.8, -834609.5, -47109.51, 0.14426126, -0.45331028, -755681.7, -339407.7, 0.0, 9.99854, 9.998001 
2.67276e+3, 2.675117e+2, -507857.75, -665837.7, -94297.15, 0.14811842, -0.2608132, -463838.13, -145469.75, 0.0, 9.999897, 9.997775 
2.672341e+3, 2.775047e+2, -142129.33, -448770.53, -41209.23, 0.17050007, 0.11699648, -136687.81, 83761.18, 0.0, 10.001723, 9.99775 
2.6719213e+3, 2.8749347e+2, -166575.0, -185564.08, 42384.89, -0.010475285, -0.02487579, -132634.23, -10076.681, 0.0, 9.999998, 9.999691 
2.671501e+3, 2.9748094e+2, -551176.9, -394486.3, 87190.13, -0.30423966, -0.36209404, -355613.4, -330939.44, 0.0, 9.996905, 9.999132 
2.67109e+3, 3.0747616e+2, -275888.7, -109103.28, 71355.54, 0.3337233, 0.065507054, -82741.92, -82741.92, 0.0, 9.997999, 10.000177 
2.6706713e+3, 3.1746566e+2, 105548.63, 37361.71, 86916.664, 0.1836544, -0.11284893, 164819.36, 164819.36, 0.0, 10.000615, 9.999963 
2.6886111e+3, 1.2806389e+2, -1591290.1, -2075508.4, -85553.18, -0.11705508, -0.25884366, -1576618.9, 108326.32, 0.05267026, 10.00267, 9.996171 
2.688193e+3, 1.3805094e+2, -1071544.4, -1696134.0, 9582.764, -0.1827892, -0.35670125, -1071397.4, 515689.72, 0.032423213, 10.00533, 9.996867 
2.6877773e+3, 1.4804421e+2, -920456.56, -1032354.5, 170.62465, 0.035734225, -0.15595764, -920456.3, 568698.6, 0.015032757, 10.003325, 10.001705 
2.6873636e+3, 1.5803923e+2, -1449636.9, -1394245.6, -87258.09, 0.41020614, 0.031364143, -1330393.4, 60807.133, 0.0044764117, 9.999579, 10.000373 
2.6869425e+3, 1.6802897e+2, -1352149.9, -1427374.8, -47470.414, 0.19411942, -0.08582979, -1329197.1, -35898.313, 0.00066900725, 10.000228, 9.999105 
2.6865193e+3, 1.7801686e+2, -1066542.4, -1326170.6, 60669.66, -0.23504041, -0.32772857, -1053064.8, 142351.58, 0.000027210404, 10.0018015, 9.998426 
2.686103e+3, 1.8800849e+2, -880778.25, -1045354.6, 83730.92, 0.0085377265, -0.1954355, -845668.8, 251831.27, 0.000000001728097, 10.001899, 9.999578 
2.6856896e+3, 1.9800177e+2, -1014924.5, -1157964.4, -1667.9836, 0.5184281, 0.050844673, -1014905.06, -15337.26, 0.0, 10.000644, 9.998792 
2.685268e+3, 2.0799093e+2, -853360.94, -956846.44, -92930.49, 0.36699945, -0.07458041, -798739.25, 102933.29, 0.0, 10.000861, 9.999318 
2.6848438e+3, 2.1797854e+2, -840491.56, -1000893.94, -107053.484, -0.021399818, -0.3850377, -786929.25, 16861.729, 0.0, 10.000629, 9.998523 
2.684424e+3, 2.2797064e+2, -574352.25, -724621.94, -113807.375, -0.051200546, -0.21310563, -513114.94, 192752.94, 0.0, 10.00142, 9.999313 
2.6840058e+3, 2.3796484e+2, -583867.44, -845341.25, -148091.75, 0.0797002, 0.13751027, -517061.2, 90864.84, 0.0, 10.001341, 9.99791 
2.6835874e+3, 2.4795221e+2, -554860.44, -818287.5, -121103.03, 0.1366729, -0.034493115, -507648.28, 2400.6284, 0.0, 10.001105, 9.997462 
2.683169e+3, 2.5793725e+2, -675286.0, -894185.56, -90718.61, 0.15955888, -0.4289681, -642577.0, -230382.98, 0.0, 9.999829, 9.996952 
2.682751e+3, 2.6792884e+2, -609405.2, -609221.6, -53942.59, 0.22286808, -0.21850687, -555370.75, -241088.14, 0.0, 9.998806, 9.998659 
2.682334e+3, 2.7792257e+2, -731887.8, -669193.75, -9977.67, 0.29848084, 0.14444943, -667644.06, -451292.03, 0.0, 9.997444, 9.998297 
2.6819113e+3, 2.879116e+2, -320967.56, -204488.42, -52861.457, -0.07295235, -0.036124457, -184075.72, -65619.125, 0.0, 9.998706, 10.000168 
2.6814872e+3, 2.9789928e+2, -212253.22, -223434.17, -41327.043, -0.5881983, -0.4147034, -176140.25, -155570.42, 0.0, 9.999255, 9.999156 
2.681081e+3, 3.0789316e+2, -223630.28, -121645.99, 3476.116, 0.46532744, -0.11740484, -121527.64, -121527.64, 0.0, 9.998568, 9.999784 
2.6806653e+3, 3.1787962e+2, -146310.61, 354353.1, 57756.97, 0.4409561, -0.6526962, 360929.6, 360929.6, 0.0, 9.997105, 10.0037985 
2.6986066e+3, 1.2847938e+2, -1372509.5, -1615091.8, 86955.555, -0.008020361, -0.1819505, -1344559.9, 336314.44, 0.043610502, 10.002778, 9.999248 
2.698191e+3, 1.3846655e+2, -1147376.6, -1527435.8, 63048.63, -0.060353976, -0.56411755, -1137190.4, 445815.16, 0.026484706, 10.003911, 9.998696 
2.6977706e+3, 1.4845985e+2, -1078309.8, -1289630.8, -99740.86, -0.10810478, -0.31729227, -1038669.2, 446405.44, 0.012009418, 10.003026, 10.000043 
2.69735e+3, 1.5845466e+2, -1266278.4, -1326849.6, -106106.6, -0.07688451, -0.0020636888, -1186219.9, 200907.9, 0.003455713, 10.000929, 10.000175 
2.6969334e+3, 1.6844624e+2, -1034402.75, -937109.6, 39587.883, 0.09907956, -0.12597425, -923037.06, 366166.13, 0.00049606664, 10.000926, 10.002137 
2.6965177e+3, 1.784368e+2, -950286.9, -1080065.3, 87328.57, 0.22613247, -0.38293898, -906378.6, 284908.8, 0.00001910138, 10.001762, 10.00013 
2.696098e+3, 1.8842584e+2, -976941.0, -1229207.5, 47061.875, 0.16598353, -0.4871276, -968447.3, 124949.234, 0.0000000002885943, 10.001816, 9.998351 
2.695678e+3, 1.984153e+2, -1008795.9, -1267628.8, -1113.3163, 0.096031524, -0.49697146, -1008791.06, -13285.978, 0.0, 10.001133, 9.9978 
2.695258e+3, 2.0840885e+2, -853921.94, -1039438.5, -63636.46, 0.12232173, -0.10242214, -834191.56, 63386.516, 0.0, 10.001153, 9.998633 
2.6948377e+3, 2.1840264e+2, -799924.3, -1071148.8, -71000.73, 0.12889363, 0.28929642, -782462.1, 17186.16, 0.0, 10.001249, 9.997741 
2.694418e+3, 2.283886e+2, -628118.06, -924303.75, -83065.78, 0.085622154, -0.024629902, -606412.75, 95370.79, 0.0, 10.0017605, 9.997791 
2.693999e+3, 2.383737e+2, -478145.72, -833983.3, -147295.58, 0.052713513, -0.44134986, -425086.0, 178838.55, 0.0, 10.002199, 9.99757 
2.6935798e+3, 2.4836473e+2, -393590.94, -631592.4, -152906.56, 0.06252557, -0.30150187, -318835.16, 187176.7, 0.0, 10.001712, 9.998467 
2.6931602e+3, 2.583567e+2, -432506.06, -623111.75, -122858.16, 0.07239062, -0.09130022, -372320.13, 35770.594, 0.0, 10.000773, 9.998364 
2.6927406e+3, 2.6834735e+2, -509381.4, -404896.16, -112159.77, 0.1307658, -0.108928554, -333408.8, -23227.66, 0.0, 9.998776, 10.000095 
2.692321e+3, 2.7833802e+2, -800725.44, -635575.4, 7613.7563, 0.20572674, -0.1701688, -635225.1, -422952.8, 0.0, 9.996624, 9.998926 
2.6919022e+3, 2.8832796e+2, -437510.97, -439734.34, 63068.15, 0.024806507, -0.16713433, -375544.72, -261173.98, 0.0, 9.998621, 9.998597 
2.6914832e+3, 2.983179e+2, 26111.656, -242331.14, -52814.758, -0.2407249, -0.17087065, 36128.887, 52598.074, 0.0, 10.001417, 9.997977 
2.6910692e+3, 3.0830923e+2, -252615.16, -272225.44, -201203.06, 0.2745274, -0.017525677, -60978.477, -60978.477, 0.0, 9.998898, 9.998626 
2.6906493e+3, 3.182951e+2, -476838.13, 35488.848, 23110.848, 0.12871353, -0.4825368, 36529.258, 36529.258, 0.0, 9.995423, 10.002446 
2.708602e+3, 1.2889802e+2, -1323734.5, -1679183.5, 176576.63, 0.026458373, -0.27785435, -1250929.0, 425836.8, 0.035541937, 10.003466, 9.998484 
2.708186e+3, 1.3888644e+2, -1548303.8, -1779739.0, 60556.14, 0.097253926, -0.44693297, -1533416.5, 45472.35, 0.02126865, 10.00127, 9.998271 
2.7077654e+3, 1.4887851e+2, -1082431.8, -1305922.9, -24703.287, -0.036180828, -0.30765483, -1079733.8, 401234.94, 0.0094155, 10.003048, 9.999928 
2.7073443e+3, 1.5887147e+2, -702196.56, -1133452.0, -29164.174, -0.1262453, -0.13816574, -700233.25, 682805.0, 0.0026134893, 10.005149, 9.999476 
2.7069268e+3, 1.6886275e+2, -856625.8, -1002222.4, -95799.82, 0.08606138, -0.17780893, -809102.9, 476019.56, 0.0003600524, 10.002797, 10.000775 
2.70651e+3, 1.7885378e+2, -1342676.0, -1273201.1, -195033.69, 0.3358659, -0.30120352, -1109835.5, 77372.01, 0.000012952271, 9.999115, 10.000069 
2.7060908e+3, 1.888444e+2, -1101511.4, -1053914.0, -79937.54, 0.24255939, -0.42505845, -994307.75, 94989.0, 0.000000000007316074, 9.999959, 10.00044 
2.7056703e+3, 1.9883478e+2, -956661.1, -1171206.9, 38987.57, 0.06362817, -0.52344257, -949795.9, 41594.516, 0.0, 10.0012045, 9.998434 
2.70525e+3, 2.0882769e+2, -834961.75, -1128872.8, -3527.992, 0.045973, -0.1530213, -834919.44, 58552.125, 0.0, 10.001719, 9.9977455 
2.7048302e+3, 2.1882124e+2, -856941.2, -1192179.3, 2121.371, 0.09543394, 0.30561456, -856927.75, -61379.684, 0.0, 10.001296, 9.996889 
2.7044114e+3, 2.2880681e+2, -604517.9, -924423.0, 87794.484, 0.07348389, -0.012737896, -582007.56, 115680.56, 0.0, 10.002023, 9.997638 
2.7039924e+3, 2.3879062e+2, -530777.44, -897508.6, 94832.45, 0.025040047, -0.52381974, -507706.28, 92135.43, 0.0, 10.002033, 9.997216 
2.7035722e+3, 2.4878229e+2, -365551.75, -575687.9, 16143.388, 0.01840776, -0.31729168, -364318.8, 137604.78, 0.0, 10.001738, 9.998825 
2.703152e+3, 2.587762e+2, -479265.25, -606402.0, -27958.242, 0.035681788, 0.055819202, -473388.66, -69404.4, 0.0, 10.000354, 9.998664 
2.7027306e+3, 2.6876634e+2, -266426.9, -189645.81, -94819.08, 0.08814567, -0.07423916, -125740.266, 180333.78, 0.0, 10.000075, 10.000924 
2.7023095e+3, 2.7875552e+2, -467867.72, -493633.84, 31606.36, 0.15243882, -0.34794098, -446619.63, -238446.94, 0.0, 9.999057, 9.998719 
2.701894e+3, 2.8874558e+2, -435016.44, -596255.06, 194461.05, 0.14537758, -0.23850152, -305125.47, -194852.36, 0.0, 9.999373, 9.99714 
2.7014786e+3, 2.987361e+2, -384795.97, -609666.1, 44256.113, 0.055603303, -0.028668627, -376399.56, -364028.53, 0.0, 9.999378, 9.996438 
2.7010566e+3, 3.0872518e+2, -276945.06, -402560.4, -221984.03, -0.0067876563, 0.023503326, -109054.42, -109054.42, 0.0, 9.999293, 9.997526 
2.7006376e+3, 3.1871313e+2, -297406.63, -93512.31, 236923.16, 0.09867146, -0.10892179, 62466.492, 62466.492, 0.0, 9.997666, 10.000481 
2.7185974e+3, 1.2931773e+2, -1328159.5, -1871629.6, 38201.31, 0.012543452, -0.35169074, -1325487.5, 347159.2, 0.028406786, 10.004256, 9.996759 
2.7181798e+3, 1.3930757e+2, -1448929.0, -1820309.9, 29225.455, 0.1726167, -0.23373596, -1446643.1, 128120.0, 0.016711906, 10.002376, 9.997439 
2.717761e+3, 1.4929807e+2, -1068077.4, -1249766.0, 68649.43, 0.06429051, -0.25975573, -1045055.8, 431799.4, 0.0071980716, 10.002957, 10.00034 
2.7173418e+3, 1.5928882e+2, -940930.75, -1368669.0, -19704.73, -0.05391743, -0.3178924, -940024.94, 438917.9, 0.0019202423, 10.004029, 9.99839 
2.7169207e+3, 1.6927876e+2, -1155562.1, -1520541.0, -189893.25, 0.053832803, -0.2206177, -1074685.1, 206366.11, 0.00025324232, 10.002374, 9.9974165 
2.7165e+3, 1.7926916e+2, -1259970.8, -1239204.8, -182769.33, 0.1787792, -0.12733403, -1066523.8, 116631.24, 0.000008369746, 9.999683, 10.000033 
2.7160826e+3, 1.8926418e+2, -757246.0, -402372.7, 17887.012, 0.27577105, -0.10978462, -401473.4, 683720.7, 0.0, 10.000227, 10.004792 
2.7156657e+3, 1.9925915e+2, -759748.5, -828843.56, 82840.0, 0.29772148, -0.13172494, -704540.8, 282691.2, 0.0, 10.001478, 10.000655 
2.7152434e+3, 2.0924646e+2, -874723.7, -1261126.3, 11278.289, 0.06473139, -0.30053982, -874394.75, 14966.914, 0.0, 10.001927, 9.996749 
2.7148205e+3, 2.1923362e+2, -726655.4, -1076350.8, 29819.336, -0.18400003, -0.404882, -724130.8, 67365.59, 0.0, 10.00193, 9.997383 
2.714403e+3, 2.2922665e+2, -425923.1, -639660.4, 142162.88, -0.11522784, -0.1058433, -354940.16, 338627.34, 0.0, 10.002363, 9.9994545 
2.713986e+3, 2.3921962e+2, -352270.84, -699656.3, 138544.45, -0.011544327, 0.153576, -303784.06, 291853.53, 0.0, 10.002724, 9.998246 
2.7135655e+3, 2.49207e+2, -378327.9, -663482.1, 32638.875, 0.031182464, -0.036468506, -374639.75, 123122.19, 0.0, 10.001967, 9.998129 
2.7131444e+3, 2.5919443e+2, -408070.4, -593074.25, -5394.551, 0.06921766, -0.23462962, -407913.25, -8028.397, 0.0, 10.000894, 9.99849 
2.712723e+3, 2.691862e+2, -200261.36, -224542.03, -58172.563, 0.17744313, -0.15455161, -152975.83, 148981.44, 0.0, 10.000776, 10.000367 
2.7123028e+3, 2.791781e+2, -244620.3, -406472.2, 51829.418, 0.3045318, -0.09190002, -229445.78, -25418.123, 0.0, 10.000657, 9.998533 
2.7118868e+3, 2.8916508e+2, -355818.6, -567254.3, 203214.55, 0.26955172, -0.26400554, -232467.88, -126313.28, 0.0, 9.999958, 9.997056 
2.7114698e+3, 2.9915172e+2, -421945.1, -641481.3, 92856.87, 0.124146596, -0.4148814, -387937.56, -379650.47, 0.0, 9.999127, 9.996344 
2.7110475e+3, 3.0914214e+2, -206050.16, -442751.16, -113101.05, -0.009184099, -0.17011951, -160697.61, -160697.61, 0.0, 10.000048, 9.996912 
2.7106267e+3, 3.1913027e+2, 72454.34, 166920.95, 204686.28, -0.050499156, -0.22971876, 329753.0, 329753.0, 0.0, 9.999789, 10.001259 
2.7285954e+3, 1.2973535e+2, -1100869.8, -1912535.6, -93455.78, 0.1249889, -0.41546947, -1090248.1, 578307.94, 0.02218214, 10.006421, 9.995473 
2.7281737e+3, 1.3972643e+2, -1093278.8, -1680202.8, -117409.516, 0.0052729812, -0.0703234, -1070663.4, 500002.44, 0.012782479, 10.004919, 9.997216 
2.7277547e+3, 1.4971712e+2, -1077908.3, -1181155.0, -40496.598, 0.02408306, -0.14020859, -1063919.5, 408835.03, 0.005327255, 10.002524, 10.0010605 
2.7273363e+3, 1.597077e+2, -1478409.5, -1564139.5, -84908.88, 0.09165853, -0.2778076, -1426159.1, -51317.625, 0.0013580795, 10.000057, 9.998985 
2.7269134e+3, 1.6969769e+2, -1326781.5, -1522766.1, -84614.625, 0.076498, -0.24552852, -1295305.3, -18359.604, 0.00016970174, 10.000898, 9.998111 
2.726491e+3, 1.796883e+2, -1004140.2, -1157923.4, 81098.02, 0.08917025, -0.14722423, -969276.6, 209768.52, 0.0000049540654, 10.001668, 9.999636 
2.7260748e+3, 1.8968335e+2, -732619.06, -560511.2, 51208.934, 0.27831185, 0.010317545, -546427.0, 534664.25, 0.0, 10.001137, 10.003266 
2.7256593e+3, 1.996784e+2, -1051451.3, -1044815.2, -168476.14, 0.45518234, 0.11327658, -879624.44, 103510.13, 0.0, 9.99984, 9.9999485 
2.7252367e+3, 2.0966475e+2, -982292.75, -1227538.8, -187031.08, 0.16503459, -0.2225842, -881270.9, 3997.19, 0.0, 10.000888, 9.99744 
2.7248138e+3, 2.1965055e+2, -775528.0, -1028645.75, -77152.98, -0.16609122, -0.5454656, -753864.94, 33543.656, 0.0, 10.001341, 9.997986 
2.724396e+3, 2.2964595e+2, -633962.4, -617360.8, -16656.002, -0.089202315, -0.12711748, -607051.75, 82403.85, 0.0, 10.000463, 10.000498 
2.7239794e+3, 2.3964238e+2, -908366.9, -933537.6, -49796.395, 0.062092885, 0.371983, -869590.06, -278097.22, 0.0, 9.998844, 9.99849 
2.7235585e+3, 2.4962875e+2, -645056.2, -797495.25, -93479.85, 0.089397006, 0.052061845, -600661.06, -107033.89, 0.0, 10.000221, 9.998017 
2.7231368e+3, 2.5961402e+2, -439632.9, -693819.44, -75646.055, 0.10382756, -0.35040933, -418824.1, -23053.266, 0.0, 10.001092, 9.99771 
2.7227154e+3, 2.69606e+2, -139135.8, -300276.44, -135624.02, 0.18519539, -0.18411186, -61954.89, 235886.1, 0.0, 10.001678, 9.999403 
2.7222952e+3, 2.7959856e+2, -241368.22, -523385.47, -49264.89, 0.30141944, 0.03162151, -233009.97, -33105.523, 0.0, 10.00122, 9.997475 
2.7218786e+3, 2.895835e+2, -233355.27, -524345.06, 63491.797, 0.28716555, -0.32940575, -220105.17, -118055.49, 0.0, 10.000884, 9.996902 
2.7214608e+3, 2.9956803e+2, -385739.2, -661624.94, -34018.39, 0.11311289, -0.6886302, -381606.44, -377405.88, 0.0, 9.999583, 9.995982 
2.7210397e+3, 3.0956036e+2, -364511.88, -518863.72, -127969.03, 0.077354595, -0.26362157, -292248.2, -292248.2, 0.0, 9.999003, 9.996852 
2.720614e+3, 3.195468e+2, -155704.38, 179756.42, 101229.445, -0.43949765, -0.5291637, 207936.42, 207936.42, 0.0, 9.99781, 10.002247 
2.7385932e+3, 1.3015255e+2, -1396333.0, -2150177.8, -137131.0, 0.1270863, -0.4476546, -1372162.6, 292309.9, 0.01684409, 10.004782, 9.9946 
2.7381667e+3, 1.4014482e+2, -1314732.1, -1763140.9, -82556.78, -0.29362753, 0.06641828, -1300015.5, 266558.16, 0.009465062, 10.003293, 9.997413 
2.7377474e+3, 1.5013628e+2, -1062278.3, -1078489.8, -49356.305, -0.080990255, 0.00801251, -1020366.56, 448288.72, 0.0037924144, 10.002251, 10.001877 
2.737329e+3, 1.6012739e+2, -1234234.3, -1256776.8, -68094.836, 0.18765543, -0.16930626, -1176484.1, 194251.64, 0.0009170214, 10.00094, 10.000648 
2.7369058e+3, 1.7011829e+2, -1036576.56, -1081136.9, -14829.584, 0.07383145, -0.27294084, -1032092.5, 240726.7, 0.0001065257, 10.001617, 10.000782 
2.736483e+3, 1.8010958e+2, -985719.56, -1260304.8, 93916.836, -0.04567345, -0.2798398, -956670.25, 218232.78, 0.0000025959862, 10.002268, 9.998635 
2.736067e+3, 1.9010156e+2, -1062502.0, -1314455.8, 32169.813, 0.23294188, -0.0059054317, -1058459.4, 18536.484, 0.0, 10.001413, 9.997971 
2.7356514e+3, 2.0009366e+2, -1079157.4, -1226147.9, -136821.73, 0.48671436, 0.24988966, -997340.9, -18255.117, 0.0, 10.000343, 9.998456 
2.735231e+3, 2.1008308e+2, -773205.94, -868450.9, -109157.44, 0.31755212, 0.0963058, -701735.0, 179449.23, 0.0, 10.001177, 9.999777 
2.7348098e+3, 2.2007221e+2, -565701.4, -755185.6, -59770.133, 0.098861955, -0.10073766, -548423.25, 234860.52, 0.0, 10.002002, 9.999542 
2.7343905e+3, 2.3006319e+2, -610252.2, -601845.06, -72359.08, 0.16223817, -0.16478689, -533567.56, 151799.94, 0.0, 10.000575, 10.000561 
2.7339715e+3, 2.4005505e+2, -815352.8, -801006.44, -62247.92, 0.254538, -0.13411811, -745519.8, -158075.88, 0.0, 9.9990635, 9.9992895 
2.7335513e+3, 2.500461e+2, -538338.2, -622220.06, -30075.176, 0.21821131, -0.08238093, -528669.44, -39137.355, 0.0, 10.000383, 9.999157 
2.7331305e+3, 2.600363e+2, -301499.4, -602888.94, -36853.125, 0.14705956, -0.077027276, -297058.53, 94569.62, 0.0, 10.001895, 9.997941 
2.732707e+3, 2.700243e+2, -152615.88, -475457.97, -136784.36, -0.008149077, -0.19447175, -102455.45, 191283.9, 0.0, 10.002279, 9.997922 
2.732285e+3, 2.8001222e+2, -136781.45, -562622.5, -67917.52, -0.07392322, -0.30237132, -126211.625, 69640.03, 0.0, 10.002236, 9.9967375 
2.7318695e+3, 2.8999937e+2, -137773.23, -516423.75, 7648.2676, 0.08737058, -0.38863456, -137618.81, -39638.96, 0.0, 10.001624, 9.996648 
2.731453e+3, 2.9998747e+2, -145433.84, -393812.97, -123955.65, 0.16870302, -0.40137634, -94158.164, -94058.47, 0.0, 10.000539, 9.99736 
2.7310324e+3, 3.0998203e+2, -273336.3, -210348.36, -187426.72, 0.3917228, 0.036155127, -51788.02, -51788.02, 0.0, 9.998454, 9.999246 
2.7306035e+3, 3.1996918e+2, -103551.19, 354221.34, 220827.45, -0.34839082, -0.3591181, 443381.75, 443381.75, 0.0, 9.997437, 10.003647 
2.748588e+3, 1.3057251e+2, -1381626.3, -1651474.6, -160693.63, 0.14461198, -0.3821348, -1306724.4, 353638.44, 0.012348908, 10.002716, 9.999021 
2.748161e+3, 1.4056586e+2, -1586509.5, -1733173.1, 84591.18, -0.16507837, -0.097241774, -1547889.5, 14548.199, 0.0067429785, 10.000713, 9.998839 
2.7477416e+3, 1.5055764e+2, -1154188.5, -1270792.3, 118706.89, 0.029806469, -0.044995423, -1080239.0, 384281.4, 0.0025849491, 10.002227, 10.000553 
2.7473235e+3, 1.6054888e+2, -893813.0, -1174263.5, 11389.265, 0.27294323, -0.08336685, -893351.25, 473253.47, 0.0005889778, 10.003616, 9.999918 
2.7468997e+3, 1.7053843e+2, -664227.8, -929389.06, -50546.6, 0.055755433, -0.3008341, -654919.1, 613778.56, 0.00006228534, 10.004236, 10.00058 
2.7464768e+3, 1.8052843e+2, -800505.7, -1262230.8, -56146.35, -0.12301952, -0.41020662, -793776.3, 377013.84, 0.0000011486238, 10.003922, 9.99783 
2.74606e+3, 1.9052012e+2, -978039.1, -1386473.9, 29999.873, 0.19794558, -0.09172899, -975847.4, 97042.21, 0.0, 10.002498, 9.996923 
2.7456436e+3, 2.0051178e+2, -1054590.5, -1248011.0, 122523.71, 0.5006816, 0.22542554, -995208.0, -20219.51, 0.0, 10.000701, 9.998125 
2.7452242e+3, 2.1050169e+2, -744997.3, -776500.1, 123282.65, 0.40485168, 0.09492254, -636463.94, 240618.38, 0.0, 10.001051, 10.000466 
2.7448043e+3, 2.2049147e+2, -723971.4, -845400.8, 39893.71, 0.26424193, -0.068208374, -712037.75, 67136.586, 0.0, 10.001023, 9.999387 
2.744383e+3, 2.3048078e+2, -492962.25, -613652.75, -68703.75, 0.15042649, -0.25264892, -461864.88, 219409.0, 0.0, 10.001723, 9.999904 
2.7439615e+3, 2.4047069e+2, -509952.25, -694998.1, -80039.91, 0.09666168, -0.35561392, -480135.97, 103232.27, 0.0, 10.001385, 9.998895 
2.7435428e+3, 2.5046366e+2, -481445.22, -529919.44, -70921.6, 0.16732594, -0.16502926, -430733.6, 54703.344, 0.0, 10.000524, 9.999709 
2.7431232e+3, 2.6045614e+2, -683041.25, -837873.9, -109277.08, 0.16355245, 0.02994121, -626536.9, -239026.5, 0.0, 9.999545, 9.997451 
2.742699e+3, 2.7044222e+2, -468091.13, -718752.0, -149305.4, -0.10467192, -0.22852108, -398486.16, -108842.72, 0.0, 10.000538, 9.99707 
2.742276e+3, 2.8042787e+2, -384593.03, -737656.1, -22406.129, -0.29782888, -0.48295078, -383176.78, -191395.81, 0.0, 10.00085, 9.9961815 
2.741861e+3, 2.9041708e+2, -320797.5, -548411.5, 98087.05, -0.023911394, -0.38870293, -284361.03, -190470.45, 0.0, 10.000216, 9.997063 
2.7414447e+3, 3.004079e+2, -339023.6, -392539.4, -24753.824, 0.20331448, -0.16296059, -329329.66, -329329.66, 0.0, 9.998886, 9.998149 
2.7410233e+3, 3.104034e+2, -148016.48, 32342.271, -206363.16, 0.53075767, 0.22091752, 167369.63, 167369.63, 0.0, 9.998584, 10.000824 
2.740594e+3, 3.2039163e+2, -48626.656, 441795.1, 285244.06, -0.24424516, -0.22045073, 572739.2, 572739.2, 0.0, 9.9976015, 10.004164 
2.7585816e+3, 1.3099322e+2, -1019212.6, -898896.5, -201429.64, 0.07773466, -0.3522696, -748833.5, 907409.9, 0.008678351, 10.002763, 10.004198 
2.7581552e+3, 1.4098755e+2, -1341989.0, -1491075.6, 29433.871, 0.013209248, -0.36947718, -1336388.3, 221901.81, 0.004591224, 10.001886, 9.999929 
2.7577367e+3, 1.5097988e+2, -1264788.0, -1536883.5, 150069.05, 0.17063475, -0.14030434, -1198277.9, 262094.9, 0.0016781249, 10.002407, 9.998634 
2.757319e+3, 1.6097105e+2, -1082553.4, -1438423.4, 41527.758, 0.2876725, -0.002164115, -1077771.6, 284692.7, 0.0003582228, 10.003069, 9.998363 
2.7568948e+3, 1.7095797e+2, -854214.94, -1185694.0, -13470.148, 0.008685849, -0.3303982, -853668.44, 410913.94, 0.000033741435, 10.003644, 9.999098 
2.7564713e+3, 1.8094598e+2, -799446.06, -1198369.0, -57356.97, -0.2142867, -0.54121655, -791363.06, 375329.75, 0.00000040337267, 10.003641, 9.998395 
2.7560532e+3, 1.9093932e+2, -849107.75, -1108576.1, -8773.398, 0.122923374, -0.21716172, -848811.44, 219959.52, 0.0, 10.002442, 9.998857 
2.7556354e+3, 2.0093219e+2, -934872.3, -1122789.1, 114630.77, 0.43448687, 0.06975081, -880613.3, 90239.44, 0.0, 10.001195, 9.998759 
2.755217e+3, 2.1091998e+2, -752762.7, -866318.94, 157953.89, 0.4182885, -0.21862012, -641692.1, 231277.72, 0.0, 10.001319, 9.999752 
2.754797e+3, 2.2090821e+2, -708943.4, -936512.56, 72451.516, 0.26661193, -0.45349932, -687834.8, 87246.96, 0.0, 10.001544, 9.998498 
2.754372e+3, 2.3089942e+2, -533924.4, -790349.8, -20903.926, -0.23924688, -0.30314508, -532231.44, 144936.61, 0.0, 10.002107, 9.998515 
2.7539483e+3, 2.408906e+2, -406979.9, -698489.75, -85692.61, -0.5796588, -0.16155878, -383655.8, 195598.63, 0.0, 10.00226, 9.998463 
2.7535316e+3, 2.5088042e+2, -467887.7, -571095.56, -119047.55, -0.15477693, -0.22973962, -389740.78, 91611.84, 0.0, 10.000777, 9.999331 
2.7531144e+3, 2.6087043e+2, -633068.44, -744033.2, -112338.805, 0.2156918, -0.2600441, -563257.94, -179808.55, 0.0, 9.999534, 9.998109 
2.752693e+3, 2.7086005e+2, -407872.94, -577202.44, -91552.78, 0.11952515, -0.24244797, -367837.94, -82285.77, 0.0, 10.000434, 9.998107 
2.7522716e+3, 2.8084946e+2, -208683.06, -405829.66, 11661.116, 0.027109152, -0.24833468, -207995.7, -20340.164, 0.0, 10.000985, 9.9983835 
2.7518535e+3, 2.9083923e+2, -208466.05, -213171.81, 118929.29, 0.12587307, -0.32031527, -91866.36, -2115.885, 0.0, 9.9998, 9.999557 
2.7514338e+3, 3.0082932e+2, -363260.7, -414871.22, 49332.445, 0.11929039, -0.32848388, -333391.88, -333391.88, 0.0, 9.998711, 9.998101 
2.7510086e+3, 3.1081998e+2, -186763.42, -264020.97, -159081.11, 0.026682101, -0.21396632, -61688.242, -61688.242, 0.0, 9.999419, 9.998447 
2.7505866e+3, 3.208121e+2, -74131.31, 282383.44, 125296.79, 0.04791848, -0.058290455, 322013.6, 322013.6, 0.0, 9.99795, 10.002924 
2.7685735e+3, 1.3141574e+2, -1160149.8, -1455432.1, -94957.305, -0.18290105, -0.42506835, -1132249.5, 519846.4, 0.0058170552, 10.003864, 9.9998455 
2.7681503e+3, 1.4140837e+2, -1020796.7, -1518002.6, -166885.13, 0.05064594, -0.25183, -969976.75, 584194.0, 0.0029684089, 10.004884, 9.998313 
2.7677304e+3, 1.5139936e+2, -1187622.4, -1495967.8, -49285.207, 0.13004135, -0.15323105, -1179936.3, 276326.3, 0.0010278063, 10.002934, 9.998657 
2.7673113e+3, 1.6138974e+2, -1367866.3, -1540254.1, -50726.35, 0.2249256, -0.114077486, -1354047.4, 4310.4717, 0.00020336722, 10.000949, 9.998705 
2.76689e+3, 1.7137747e+2, -1231325.4, -1306821.8, -1738.9806, 0.1857774, -0.42336467, -1231285.4, 29182.195, 0.000016580547, 10.000786, 9.999659 
2.766468e+3, 1.8136604e+2, -1239295.5, -1402819.8, 17539.178, 0.117125496, -0.6064985, -1237435.5, -74862.78, 0.00000009587778, 10.0006275, 9.998443 
2.7660465e+3, 1.9135842e+2, -974472.9, -1172110.5, -43915.316, 0.15679425, -0.37474933, -965154.2, 99504.28, 0.0, 10.001621, 9.998822 
2.7656263e+3, 2.0135073e+2, -864351.44, -1156013.6, 953.9025, 0.23869248, -0.1247206, -864348.3, 102396.305, 0.0, 10.001994, 9.998153 
2.7652085e+3, 2.1134016e+2, -775391.94, -954113.2, 19652.72, 0.2898592, -0.20765315, -773256.4, 95596.22, 0.0, 10.001519, 9.9990425 
2.7647892e+3, 2.2132953e+2, -862151.0, -1027000.0, -19763.316, 0.21800587, -0.28731263, -859814.75, -88856.5, 0.0, 10.000595, 9.998338 
2.764364e+3, 2.3132062e+2, -688194.8, -825264.56, 39431.816, -0.31084722, -0.20030229, -677660.75, -4617.921, 0.0, 10.00089, 9.998857 
2.7639398e+3, 2.4131146e+2, -672142.4, -856247.7, 56368.242, -0.6943546, -0.0900404, -656254.94, -81125.0, 0.0, 10.000627, 9.998154 
2.7635223e+3, 2.512995e+2, -516853.34, -620289.1, 23289.537, -0.27852783, -0.3053498, -511851.38, -34607.89, 0.0, 10.000595, 9.999063 
2.763105e+3, 2.6128814e+2, -565001.9, -732104.9, 75210.91, 0.15060078, -0.425265, -536136.6, -156783.11, 0.0, 10.000168, 9.997878 
2.7626857e+3, 2.7127993e+2, -330889.97, -494972.88, 51959.754, 0.2211337, -0.20917077, -315820.06, -34379.51, 0.0, 10.000852, 9.998456 
2.7622658e+3, 2.812717e+2, -196246.55, -280836.66, 23395.242, 0.25531253, -0.027462965, -190207.25, -6683.284, 0.0, 10.000595, 9.999434 
2.7618456e+3, 2.9126185e+2, -212408.33, -24978.41, 22231.047, 0.23180163, -0.2399905, -22377.676, 63230.664, 0.0, 9.998949, 10.001266 
2.7614227e+3, 3.0125126e+2, -620205.6, -606568.44, -26489.813, 0.032054443, -0.41620132, -586033.75, -586033.75, 0.0, 9.997295, 9.99745 
2.7609947e+3, 3.112374e+2, -398031.1, -566834.3, -66540.86, -0.39647755, -0.61901855, -374955.66, -374955.66, 0.0, 9.99889, 9.996586 
2.7605796e+3, 3.212342e+2, -329452.47, 24926.379, 85604.87, 0.40810663, 0.16516213, 44521.824, 44521.824, 0.0, 9.996936, 10.001577 
2.7785656e+3, 1.318386e+2, -1702136.5, -2413389.8, -75402.46, -0.49027678, -0.4545861, -1694230.8, -46285.227, 0.0036844402, 10.003173, 9.993565 
2.778146e+3, 1.4182878e+2, -1175836.0, -1776464.8, -75536.445, -0.0026293588, -0.057611298, -1166482.1, 383578.75, 0.0018030988, 10.004631, 9.99664 
2.777723e+3, 1.5181783e+2, -1109660.5, -1387158.5, -29912.277, -0.021676516, -0.17214586, -1106472.8, 345692.34, 0.00058549154, 10.003172, 9.999278 
2.7773026e+3, 1.6180716e+2, -1170680.5, -1289819.3, -20627.164, 0.08149257, -0.31824508, -1167210.3, 187053.42, 0.00010501676, 10.001618, 10.000101 
2.7768847e+3, 1.7179747e+2, -1049376.4, -1029447.0, 32008.99, 0.45706445, -0.5270058, -1005887.56, 250460.56, 0.0000068884756, 10.001204, 10.001368 
2.776465e+3, 1.8178765e+2, -1203556.3, -1422910.5, 49291.563, 0.6108558, -0.64211065, -1192989.0, -34550.254, 0.00000000965895, 10.001038, 9.9981 
2.77604e+3, 1.9177713e+2, -1033323.44, -1360092.6, 27502.42, 0.19400515, -0.5695021, -1031024.9, 29528.95, 0.0, 10.001893, 9.997411 
2.7756163e+3, 2.0176809e+2, -862079.5, -1221364.3, 29744.092, -0.11416633, -0.3360358, -859633.7, 103022.67, 0.0, 10.0023, 9.99754 
2.7751985e+3, 2.1176256e+2, -800731.06, -1036463.75, 26876.47, -0.0025547594, 0.15833265, -797705.7, 67021.01, 0.0, 10.001661, 9.998401 
2.7747804e+3, 2.2175565e+2, -646044.06, -713861.25, -10705.943, 0.09067853, 0.43937704, -644394.1, 122407.99, 0.0, 10.001142, 10.000236 
2.7743605e+3, 2.317445e+2, -459724.44, -408839.3, 74112.36, 0.0723605, 0.056854077, -355923.94, 312972.75, 0.0, 10.001097, 10.001649 
2.773939e+3, 2.4173355e+2, -518210.8, -621993.94, 96615.54, -0.019784745, -0.23563907, -460433.34, 110557.266, 0.0, 10.000984, 9.999579 
2.7735153e+3, 2.5172305e+2, -446134.6, -569020.3, 80070.695, -0.14968798, -0.32911715, -406649.06, 66438.83, 0.0, 10.000994, 9.999236 
2.773094e+3, 2.6171273e+2, -468564.4, -737026.7, 153070.86, -0.17132282, -0.3236319, -399206.03, -24017.91, 0.0, 10.001016, 9.997444 
2.772676e+3, 2.7170315e+2, -314119.8, -614875.06, 128268.945, -0.008885536, -0.12176571, -266845.34, 10448.839, 0.0, 10.001471, 9.997363 
2.7722573e+3, 2.8169397e+2, -109990.51, -251359.19, 21948.441, 0.16362734, 0.046685908, -106661.27, 72731.03, 0.0, 10.001186, 9.9993515 
2.771836e+3, 2.916852e+2, -213133.14, -57049.52, -52499.594, 0.26209188, -0.029866053, -41034.26, 40435.926, 0.0, 9.998989, 10.001054 
2.7714127e+3, 3.0167547e+2, -483854.78, -362649.94, -12714.805, 0.18488218, -0.15471372, -361330.47, -361330.47, 0.0, 9.997407, 9.999063 
2.7709877e+3, 3.1166187e+2, -241623.6, -223203.38, 75203.0, -0.08197794, -0.5530033, -156648.61, -156648.61, 0.0, 9.998776, 9.998991 
2.7705652e+3, 3.2165608e+2, -313510.22, -54818.83, -121630.8, 0.13387866, -0.13784951, -6613.5146, -6613.5146, 0.0, 9.997346, 10.000831 
2.7885625e+3, 1.3226229e+2, -1521337.3, -1973816.3, 27132.033, -0.22337049, -0.33038425, -1519716.3, 124078.31, 0.002168582, 10.002875, 9.996709 
2.788144e+3, 1.4225185e+2, -1106574.3, -1676383.0, 137965.58, 0.21437712, -0.2073236, -1074926.9, 470978.47, 0.0010068414, 10.004764, 9.997285 
2.787719e+3, 1.5223986e+2, -983214.1, -1384883.1, 125732.19, 0.06705293, -0.3746638, -947103.3, 500918.78, 0.00030057668, 10.004239, 9.998811 
2.7872965e+3, 1.6222912e+2, -986437.5, -1287690.4, 101669.3, 0.08977795, -0.44770044, -955336.2, 394789.78, 0.000046417692, 10.003287, 9.999306 
2.7868772e+3, 1.7222176e+2, -945813.0, -1082996.1, 30152.871, 0.4093426, -0.3222887, -939477.94, 312719.88, 0.0000020738605, 10.002401, 10.000412 
2.7864572e+3, 1.8221307e+2, -1124710.8, -1421162.6, 28707.291, 0.5564874, -0.24849978, -1121956.5, 32326.586, 0.00000000000031198744, 10.001739, 9.997771 
2.7860332e+3, 1.9220033e+2, -890678.5, -1267160.6, 93956.914, 0.16554867, -0.4214615, -868532.8, 187879.06, 0.0, 10.002783, 9.997599 
2.78561e+3, 2.0218962e+2, -809563.1, -1189122.5, 130798.21, -0.12353458, -0.3614464, -768855.25, 189669.33, 0.0, 10.002689, 9.997557 
2.785191e+3, 2.1218422e+2, -929972.94, -1089846.4, 154126.16, -0.022913763, 0.14813566, -836287.25, 24305.848, 0.0, 10.000794, 9.998431 
2.784772e+3, 2.2217774e+2, -950359.3, -860548.25, 161366.6, 0.115626834, 0.49372894, -737955.44, 24709.734, 0.0, 9.999088, 10.000201 
2.784354e+3, 2.3216633e+2, -618688.4, -446933.25, 66586.19, 0.26088026, 0.06376132, -424143.06, 240619.77, 0.0, 9.999885, 10.001942 
2.783934e+3, 2.4215525e+2, -660420.75, -705767.4, -61931.16, 0.28149658, -0.26795077, -617142.94, -50285.145, 0.0, 10.000117, 9.99942 
2.783508e+3, 2.5214565e+2, -528957.75, -602968.2, -95693.664, -0.081893064, -0.29511023, -463363.47, 5582.686, 0.0, 10.00045, 9.99925 
2.7830842e+3, 2.621361e+2, -653865.44, -850514.7, 9232.189, -0.32238883, -0.21959099, -653432.94, -282393.9, 0.0, 9.999906, 9.997177 
2.7826664e+3, 2.721258e+2, -681793.0, -800876.25, 88515.29, -0.1457499, -0.10357804, -634656.8, -361503.75, 0.0, 9.999026, 9.997237 
2.7822477e+3, 2.8211632e+2, -603064.8, -502074.13, 15681.696, 0.06252027, 0.045140613, -499695.13, -324439.13, 0.0, 9.997929, 9.999186 
2.7818254e+3, 2.921086e+2, -421504.75, -173425.69, -48978.92, 0.24333653, 0.082426414, -164105.78, -86777.375, 0.0, 9.997699, 10.000848 
2.7814022e+3, 3.0209994e+2, -400162.06, -157063.58, 77426.33, 0.2586057, 0.047133528, -134498.1, -134498.1, 0.0, 9.997347, 10.0005 
2.7809808e+3, 3.120877e+2, -114837.234, 132156.16, 160007.3, 0.20721237, -0.46366468, 210782.63, 210782.63, 0.0, 9.998455, 10.001582 
2.7805495e+3, 3.2207832e+2, -89764.25, -83014.23, -362871.56, -0.3343798, -0.52408904, 276498.0, 276498.0, 0.0, 9.999519, 9.999617 
2.79856e+3, 1.3268575e+2, -1292003.4, -1253426.0, 66748.83, 0.098187655, -0.25164905, -1203234.8, 436410.8, 0.0011658049, 10.001843, 10.002151 
2.7981418e+3, 1.42676e+2, -1305931.0, -1687212.9, 56536.87, 0.42222035, -0.42539358, -1297724.3, 244009.52, 0.0005045759, 10.003047, 9.998025 
2.797716e+3, 1.5266363e+2, -1135030.1, -1522683.4, 59030.42, 0.19812308, -0.5933164, -1126240.5, 317618.78, 0.0001343589, 10.003505, 9.998204 
2.7972913e+3, 1.6265343e+2, -1106169.5, -1554186.9, 42372.105, 0.0959198, -0.5079014, -1102197.3, 243769.77, 0.00001642319, 10.003357, 9.997447 
2.796868e+3, 1.7264813e+2, -1095713.0, -1423107.1, 5677.0215, 0.13362922, 0.05932353, -1095614.5, 152419.17, 0.0000003300107, 10.002519, 9.998028 
2.7964467e+3, 1.8264052e+2, -1037782.06, -1319575.6, 69883.27, 0.14024292, 0.373324, -1021403.4, 128712.29, 0.0, 10.002042, 9.998335 
2.7960268e+3, 1.926265e+2, -782652.6, -1060018.6, 156962.25, 0.09344458, -0.04307718, -711883.7, 340360.78, 0.0, 10.002836, 9.999014 
2.7956066e+3, 2.0261393e+2, -690292.5, -992823.3, 84046.53, 0.07476434, -0.2958445, -668511.56, 285850.9, 0.0, 10.002908, 9.998789 
2.795185e+3, 2.1260451e+2, -846881.9, -954075.44, 99752.445, 0.1710656, -0.2705507, -787239.25, 69218.586, 0.0, 10.000951, 9.999291 
2.794764e+3, 2.2259538e+2, -988726.56, -1069104.0, 190922.5, 0.20338465, -0.17775597, -833808.8, -75258.2, 0.0, 9.999596, 9.998525 
2.7943438e+3, 2.3258568e+2, -768265.1, -846769.9, 111247.984, 0.093898125, -0.15665746, -689547.75, -28901.514, 0.0, 10.000222, 9.999034 
2.7939227e+3, 2.4257599e+2, -614293.4, -758075.56, -59553.824, 0.011349753, -0.14088888, -592830.4, -30090.213, 0.0, 10.000715, 9.9987755 
2.7935e+3, 2.52566e+2, -476781.25, -590972.1, -95920.45, -0.05260278, -0.17719218, -422249.53, 42586.35, 0.0, 10.000801, 9.999196 
2.7930778e+3, 2.6255637e+2, -460641.47, -534598.2, -37369.727, -0.09734184, -0.18276992, -445047.06, -78117.49, 0.0, 10.000216, 9.9992 
2.7926573e+3, 2.725469e+2, -566893.9, -481908.0, 46063.574, -0.043753363, -0.21149248, -461731.16, -192705.95, 0.0, 9.99863, 9.99963 
2.7922362e+3, 2.825382e+2, -589444.56, -358812.75, 41465.813, 0.032672632, -0.17144927, -351584.1, -180471.47, 0.0, 9.997428, 10.000389 
2.7918124e+3, 2.9253116e+2, -400297.38, -126246.164, 8220.769, 0.07783275, -0.096635014, -125999.78, -52818.566, 0.0, 9.997666, 10.00118 
2.7913892e+3, 3.025238e+2, -180257.63, 94768.55, 175075.8, 0.055332284, -0.071633354, 179879.33, 179879.33, 0.0, 9.998161, 10.001851 
2.7909705e+3, 3.1251535e+2, 114306.89, 386428.88, 227371.63, 0.17305689, -0.31471217, 515340.44, 515340.44, 0.0, 9.99933, 10.002953 
2.790544e+3, 3.2250583e+2, 310095.97, -3679.53, -110050.945, -0.16061977, -0.41423196, 344845.84, 344845.84, 0.0, 10.002669, 9.998664 
2.8085515e+3, 1.331026e+2, -1452864.6, -1212022.6, -91833.55, 0.0384621, -0.5032589, -1181001.9, 454561.97, 0.00056472304, 10.00018, 10.003266 
2.8081325e+3, 1.430979e+2, -1712023.5, -1820140.9, -125828.164, 0.26448298, -0.2799765, -1629133.1, -91533.445, 0.00022531899, 9.999982, 9.998599 
2.8077093e+3, 1.5308711e+2, -1261761.0, -1529909.4, -84245.84, 0.16899258, -0.37016472, -1237489.8, 202225.52, 0.000052747473, 10.002377, 9.998715 
2.807286e+3, 1.6307731e+2, -1077482.8, -1552350.8, -110108.1, 0.12355097, -0.28734854, -1053194.3, 288627.8, 0.0000047753, 10.003629, 9.997303 
2.806861e+3, 1.7307007e+2, -1039024.44, -1437643.4, -87859.68, 0.028755309, 0.0887274, -1020518.4, 223386.78, 0.00000002399446, 10.003073, 9.997641 
2.8064388e+3, 1.8306151e+2, -986282.75, -1240843.6, 74977.24, 0.0025129868, 0.30727062, -965840.9, 180153.53, 0.0, 10.002229, 9.998763 
2.806021e+3, 1.930489e+2, -908761.25, -1041170.3, 115237.195, 0.14676954, -0.044037074, -842064.9, 206042.5, 0.0, 10.001665, 9.999697 
2.8056014e+3, 2.0303687e+2, -955620.25, -1173821.4, -19635.795, 0.2229978, -0.2650021, -953867.3, -3650.072, 0.0, 10.001312, 9.998325 
2.8051776e+3, 2.1302626e+2, -702054.75, -931228.94, -111542.37, 0.16383941, -0.3391035, -656729.7, 195591.17, 0.0, 10.002144, 9.998871 
2.804755e+3, 2.2301592e+2, -762326.25, -1065564.5, -12759.611, 0.1133484, -0.3311402, -761790.3, -7367.0566, 0.0, 10.001681, 9.997538 
2.8043345e+3, 2.330058e+2, -923366.8, -1057669.4, 35668.81, 0.031052267, -0.25667626, -914481.56, -257954.83, 0.0, 9.999781, 9.997813 
2.803914e+3, 2.4299648e+2, -937980.25, -894449.4, 11144.853, -0.016877418, -0.12451457, -891762.0, -333140.3, 0.0, 9.998476, 9.998902 
2.8034925e+3, 2.529877e+2, -685247.4, -613601.7, 34222.74, 0.03814963, -0.10759213, -599881.9, -139173.83, 0.0, 9.99911, 9.999822 
2.8030705e+3, 2.6297876e+2, -594558.4, -471468.4, 57028.863, 0.06674021, -0.10469145, -449108.22, -86313.62, 0.0, 9.998802, 10.000303 
2.8026477e+3, 2.7296934e+2, -539011.44, -292513.75, 38621.813, 0.033729978, -0.282956, -286604.1, -21721.451, 0.0, 9.9980955, 10.001179 
2.8022248e+3, 2.8296086e+2, -555572.6, -311749.22, 19606.363, -0.004175412, -0.32554844, -310182.7, -143219.89, 0.0, 9.997568, 10.000651 
2.8018004e+3, 2.9295376e+2, -263234.38, -37738.094, -12278.953, -0.0745737, -0.28639564, -37071.44, 31961.633, 0.0, 9.998564, 10.001353 
2.801377e+3, 3.0294746e+2, -130052.09, 149789.42, 112953.16, -0.14935388, -0.1852085, 189691.45, 189691.45, 0.0, 9.998447, 10.002061 
2.80096e+3, 3.129423e+2, -163332.98, 301718.78, 92269.055, 0.08772954, -0.15661423, 319356.56, 319356.56, 0.0, 9.997278, 10.003317 
2.800538e+3, 3.2293248e+2, -336312.63, -371697.03, 31899.545, -0.0432434, -0.30271557, -317527.53, -317527.53, 0.0, 9.998651, 9.998002 
2.818541e+3, 1.335194e+2, -1285727.4, -1152581.4, -46835.047, -0.19416009, -0.70981425, -1137757.4, 493725.66, 0.00024801813, 10.001462, 10.003038 
2.8181207e+3, 1.435193e+2, -1584895.5, -1674413.0, 10897.799, -0.04652943, -0.03264715, -1583588.0, -50112.62, 0.00009111463, 10.000518, 9.9993305 
2.817702e+3, 1.5351075e+2, -1225318.9, -1401375.9, 72268.01, 0.051082056, 0.009425828, -1199454.1, 236121.42, 0.000018145423, 10.002164, 9.999697 
2.817281e+3, 1.6350096e+2, -1060238.6, -1443017.1, -80500.484, 0.10067708, 0.009248753, -1043997.94, 293684.16, 0.000001252134, 10.003303, 9.998219 
2.816855e+3, 1.7348969e+2, -975596.0, -1313357.3, -60194.227, -0.032217816, -0.08866298, -965189.1, 274604.9, 0.0000000065346386, 10.00311, 9.99848 
2.816432e+3, 1.8347912e+2, -911530.7, -1140907.8, 74339.63, -0.037381705, -0.13406034, -889545.0, 252351.38, 0.0, 10.002495, 9.999299 
2.816015e+3, 1.9346884e+2, -879133.94, -1002656.1, 117793.33, 0.22889492, -0.26721346, -807892.44, 236097.69, 0.0, 10.001766, 9.99991 
2.8155947e+3, 2.0345902e+2, -980522.9, -1305641.3, 6682.457, 0.26943234, -0.23091188, -980385.6, -34301.996, 0.0, 10.001637, 9.997264 
2.8151685e+3, 2.1344985e+2, -763239.1, -1130384.4, -53965.094, -0.087295674, -0.004778497, -755471.4, 92707.56, 0.0, 10.002422, 9.997379 
2.8147453e+3, 2.2343941e+2, -624932.4, -896364.4, -58814.36, -0.19035795, 0.048675835, -612736.4, 137546.73, 0.0, 10.002164, 9.9984665 
2.8143266e+3, 2.3342654e+2, -782221.0, -861596.0, -12076.731, 0.1158071, -0.2572527, -780424.25, -128018.04, 0.0, 10.00016, 9.99899 
2.8139064e+3, 2.434168e+2, -733455.8, -580590.94, 46371.65, 0.26026186, -0.31510615, -567624.0, -13124.135, 0.0, 9.99892, 10.000843 
2.813484e+3, 2.5341198e+2, -536603.94, -349227.06, 100392.41, 0.15843807, -0.06296805, -305597.78, 150948.98, 0.0, 9.999271, 10.001571 
2.8130612e+3, 2.6340508e+2, -517272.94, -414603.56, 82759.24, 0.0960392, 0.040520802, -368550.7, -9937.796, 0.0, 9.99919, 10.000529 
2.8126377e+3, 2.733944e+2, -516957.94, -339578.88, 39342.063, 0.08471738, -0.20506182, -331244.53, -70530.03, 0.0, 9.99842, 10.000743 
2.8122145e+3, 2.833846e+2, -435751.6, -257008.67, 71688.81, 0.056891833, -0.35540715, -231809.02, -69001.78, 0.0, 9.99833, 10.000686 
2.811791e+3, 2.93376e+2, -104026.97, 11717.86, 44849.656, -0.04112227, -0.43144226, 27062.303, 91950.05, 0.0, 9.999709, 10.001175 
2.8113675e+3, 3.033689e+2, -101785.52, -28993.285, 27995.38, -0.13477863, -0.32591292, -19471.88, -19471.88, 0.0, 9.99944, 10.00035 
2.8109473e+3, 3.1336412e+2, -434894.44, -90778.72, -83602.52, 0.055411346, -0.03284855, -71542.85, -71542.85, 0.0, 9.996479, 10.001025 
2.810526e+3, 3.2335335e+2, -447675.66, -176734.66, 101193.12, -0.08764867, -0.23805313, -143112.56, -143112.56, 0.0, 9.996695, 10.0003195 
2.8285372e+3, 1.3394637e+2, -926504.94, -1157822.1, 3696.9104, -0.04881557, -0.48056024, -926445.9, 700850.3, 0.000104967556, 10.004738, 10.001399 
2.8281146e+3, 1.4394058e+2, -1382725.8, -1619648.8, 160522.55, 0.051696923, -0.21602854, -1301686.4, 227658.22, 0.000034652854, 10.002112, 9.998917 
2.827694e+3, 1.5393233e+2, -1289603.6, -1451619.3, 184501.8, -0.038194235, -0.11173052, -1169109.1, 262331.5, 0.000005523166, 10.001837, 9.999492 
2.8272733e+3, 1.6392308e+2, -1221573.5, -1473053.9, 14695.529, -0.01443633, -0.053439178, -1220717.6, 112822.93, 0.0000002527922, 10.002038, 9.9986105 
2.8268495e+3, 1.7391187e+2, -947989.56, -1238712.4, 12743.749, 0.008091454, -0.19060041, -947432.0, 288217.84, 0.0, 10.003096, 9.998998 
2.826427e+3, 1.8390134e+2, -875557.2, -1207918.3, 93035.72, 0.034220595, -0.22123124, -851286.6, 286466.66, 0.0, 10.003091, 9.998563 
2.826007e+3, 1.9389163e+2, -952373.7, -1137041.0, 58220.113, 0.15578325, -0.22209358, -935551.1, 104298.34, 0.0, 10.001677, 9.999035 
2.8255862e+3, 2.0388211e+2, -1013385.4, -1270567.9, 49615.156, 0.15410812, -0.12675828, -1004145.7, -62203.18, 0.0, 10.00125, 9.997667 
2.8251618e+3, 2.1387252e+2, -676413.1, -1028285.44, 138412.47, -0.1337075, -0.00596196, -628493.2, 215543.19, 0.0, 10.002793, 9.99789 
2.8247386e+3, 2.2386213e+2, -557756.5, -840977.3, 93086.74, -0.20387487, 0.040973064, -529901.1, 216237.13, 0.0, 10.002585, 9.998616 
2.824318e+3, 2.3384939e+2, -781213.2, -823098.5, 40625.555, 0.14439617, -0.2709142, -756449.94, -108189.33, 0.0, 10.000078, 9.999254 
2.823897e+3, 2.4383983e+2, -819071.44, -569132.44, 87634.875, 0.32095808, -0.33633682, -541467.56, 8884.517, 0.0, 9.998174, 10.00127 
2.8234744e+3, 2.538354e+2, -734484.6, -380074.03, 49218.57, 0.21295679, -0.1109293, -373365.8, 79028.37, 0.0, 9.99768, 10.002118 
2.8230512e+3, 2.6382923e+2, -804207.2, -568687.0, -21849.049, 0.13226172, 0.03745636, -566677.25, -212224.4, 0.0, 9.997349, 10.000336 
2.822627e+3, 2.7381897e+2, -647150.9, -409142.2, -15714.772, 0.11584993, -0.18384068, -408109.1, -151558.27, 0.0, 9.99761, 10.0006275 
2.8222042e+3, 2.8380883e+2, -534011.7, -358284.84, 98756.19, 0.0687411, -0.33218285, -313963.66, -155317.38, 0.0, 9.997969, 10.000135 
2.8217822e+3, 2.9379883e+2, -182551.14, -67822.37, 67412.516, -0.0059125214, -0.5318997, -36670.543, 24067.986, 0.0, 9.999394, 10.000766 
2.8213584e+3, 3.037907e+2, -194384.53, -293685.38, -61901.766, -0.116614714, -0.41873744, -164681.36, -164681.36, 0.0, 9.999805, 9.998348 
2.820935e+3, 3.137853e+2, -247042.02, -229111.81, -133168.97, -0.02094918, 0.008327863, -104606.51, -104606.51, 0.0, 9.998803, 9.99894 
2.8205144e+3, 3.237735e+2, -260187.6, 208800.95, 273061.16, -0.13272117, -0.2942983, 334237.16, 334237.16, 0.0, 9.996841, 10.0028515 
2.8385353e+3, 1.3437462e+2, -1244218.6, -1518788.5, -235819.83, 0.17189008, -0.22572319, -1108633.4, 514462.84, 0.00004788907, 10.003435, 9.9995575 
2.8381097e+3, 1.443619e+2, -1373434.1, -1676575.8, 125207.67, 0.21006337, -0.52745426, -1328407.1, 196804.11, 0.000014416294, 10.0024605, 9.998347 
2.837686e+3, 1.5435332e+2, -1290796.3, -1517836.4, 177445.23, -0.18137844, -0.4057156, -1193665.9, 233640.1, 0.000001952137, 10.002132, 9.998885 
2.8372645e+3, 1.6434468e+2, -1181140.9, -1414716.9, 31949.283, -0.21175182, -0.2655623, -1176849.6, 152547.56, 0.00000005936716, 10.002143, 9.998955 
2.8368446e+3, 1.743354e+2, -986676.75, -1232326.8, 61529.69, 0.066297606, -0.23872149, -972126.8, 259362.23, 0.0, 10.002693, 9.999246 
2.836422e+3, 1.8432604e+2, -982928.9, -1381852.5, 53589.035, 0.1063207, -0.11808057, -975855.5, 157731.14, 0.0, 10.002838, 9.99751 
2.835998e+3, 1.9431616e+2, -1022710.2, -1326377.3, 34065.6, -0.08707088, 0.005963621, -1018935.6, 16759.354, 0.0, 10.001836, 9.997673 
2.8355765e+3, 2.0430575e+2, -782410.44, -878872.1, 119195.984, -0.10083177, -0.026349243, -702057.06, 235738.97, 0.0, 10.001625, 10.000177 
2.8351578e+3, 2.1429425e+2, -445254.8, -629074.25, 229910.47, 0.01263105, -0.3435018, -289563.63, 550329.75, 0.0, 10.003122, 10.000488 
2.8347352e+3, 2.2428416e+2, -527279.1, -869006.7, 24113.604, 0.037684076, -0.3831676, -525585.94, 216401.23, 0.0, 10.002951, 9.998258 
2.8343084e+3, 2.3427527e+2, -806675.1, -941472.4, -26117.041, 0.017039595, -0.21156523, -801791.9, -157710.45, 0.0, 10.0003195, 9.998348 
2.8338844e+3, 2.4426596e+2, -822372.7, -661788.6, 82009.67, 0.071494654, -0.16911285, -627309.56, -81134.42, 0.0, 9.998511, 10.000478 
2.8334633e+3, 2.542564e+2, -788552.3, -549611.56, 43477.383, 0.19018993, -0.3218976, -541946.4, -93679.99, 0.0, 9.99787, 10.000883 
2.8330407e+3, 2.6424864e+2, -699389.25, -408184.78, -1695.716, 0.20529342, -0.3132763, -408174.94, -57835.46, 0.0, 9.997563, 10.001331 
2.832616e+3, 2.7424216e+2, -543555.1, -262466.4, 4247.5786, 0.09216967, -0.2340021, -262402.22, -10003.368, 0.0, 9.997878, 10.0015135 
2.8321937e+3, 2.84234e+2, -467897.7, -357063.78, 168322.69, 0.068979084, -0.22361526, -235270.22, -80793.9, 0.0, 9.998521, 9.999888 
2.8317744e+3, 2.942235e+2, -166704.56, -151610.86, 128556.445, 0.11161484, -0.3851701, -30379.94, 26197.885, 0.0, 9.999856, 9.999983 
2.8313512e+3, 3.042137e+2, -57195.78, -256980.06, -26263.988, -0.018600168, -0.377993, -53800.766, -53800.766, 0.0, 10.00082, 9.998124 
2.830926e+3, 3.1420514e+2, 94249.3, -133843.06, -84451.92, -0.09607621, -0.2191736, 122113.86, 122113.86, 0.0, 10.001371, 9.998383 
2.8305075e+3, 3.241939e+2, -309414.06, -66274.76, 26265.959, 0.31880867, -0.32696667, -63469.65, -63469.65, 0.0, 9.997504, 10.000678 
2.848533e+3, 1.3479604e+2, -1317163.1, -1431064.4, -313968.75, 0.5774831, -0.25392562, -1055021.6, 563952.06, 0.000025215255, 10.002327, 10.000738 
2.8481042e+3, 1.4478528e+2, -1178757.0, -1572701.4, 60305.0, 0.20490909, -0.4249996, -1169732.3, 351333.8, 0.000007550391, 10.00375, 9.998443 
2.8476802e+3, 1.5477529e+2, -1084880.1, -1433275.1, 94305.14, -0.18900155, -0.44084895, -1060991.3, 362178.16, 0.0000012508747, 10.003592, 9.998768 
2.8472582e+3, 1.647663e+2, -1101533.6, -1327413.1, -62990.67, -0.20853448, -0.35941395, -1085155.1, 240105.97, 0.000000073245815, 10.002514, 9.999353 
2.8468373e+3, 1.747578e+2, -1277873.5, -1338581.0, -37973.41, 0.09512327, -0.30111685, -1259613.1, -32268.457, 0.0, 10.000554, 9.9995365 
2.8464153e+3, 1.847491e+2, -1317845.9, -1507318.8, 65068.563, 0.14748594, -0.14571719, -1297652.3, -168216.11, 0.0, 10.000431, 9.997797 
2.8459916e+3, 1.9473974e+2, -918496.9, -1259869.6, 111946.16, -0.06319288, -0.0038673684, -885061.25, 146479.6, 0.0, 10.0025, 9.997811 
2.8455698e+3, 2.0472974e+2, -668834.1, -745867.5, 155551.95, -0.08638102, -0.026694212, -547101.2, 386538.03, 0.0, 10.002109, 10.000838 
2.8451508e+3, 2.1471849e+2, -1011347.06, -833446.4, 118198.97, 0.090623185, -0.39462107, -774467.1, 61267.082, 0.0, 9.998986, 10.001055 
2.8447273e+3, 2.2470896e+2, -1195202.1, -1138884.4, -95796.7, 0.10473496, -0.4412647, -1067193.6, -329372.03, 0.0, 9.998154, 9.998723 
2.8442985e+3, 2.3470135e+2, -869809.7, -928666.25, -27551.775, -0.07726878, -0.20848481, -858925.1, -219023.33, 0.0, 9.999714, 9.998734 
2.843873e+3, 2.4469194e+2, -648329.56, -705620.3, 164834.64, -0.08868522, -0.13309138, -509669.8, 32327.371, 0.0, 10.000284, 9.99932 
2.8434524e+3, 2.546798e+2, -589274.94, -601081.9, 104378.41, 0.13692859, -0.42644155, -490633.16, -46518.08, 0.0, 9.999927, 9.999519 
2.84303e+3, 2.6467073e+2, -456116.88, -328127.88, 26968.217, 0.18577987, -0.44798243, -322677.56, 23523.71, 0.0, 9.99946, 10.000945 
2.842605e+3, 2.7466494e+2, -379591.88, -213128.48, -75252.69, 0.042508185, -0.29392362, -184152.86, 64100.4, 0.0, 9.999194, 10.001195 
2.8421834e+3, 2.8465766e+2, -480363.7, -424002.03, 80490.9, 0.044956535, -0.15976177, -366901.3, -216577.83, 0.0, 9.998741, 9.999299 
2.841766e+3, 2.9464763e+2, -440186.94, -353137.5, 76860.8, 0.19557244, -0.25537357, -308333.38, -255909.23, 0.0, 9.998308, 9.999331 
2.841343e+3, 3.0463693e+2, -369188.84, -377420.84, -38261.785, 0.03874106, -0.3189481, -334822.3, -334822.3, 0.0, 9.99862, 9.998333 
2.8409174e+3, 3.1462532e+2, -165729.48, -244026.38, -11019.399, -0.16530125, -0.5003728, -164208.19, -164208.19, 0.0, 9.999592, 9.998457 
2.8405002e+3, 3.2461601e+2, -413385.13, -389986.38, -109354.3, 0.69204473, -0.33161172, -291707.4, -291707.4, 0.0, 9.9980755, 9.99812 
2.858529e+3, 1.3521701e+2, -1172725.0, -1162749.3, -104815.52, 0.8163935, -0.2891957, -1062803.0, 552053.4, 0.000013079658, 10.002453, 10.002529 
2.8580981e+3, 1.4520948e+2, -1168354.5, -1552849.5, 111905.875, 0.08651018, -0.20921522, -1138156.4, 378758.5, 0.0000037431412, 10.0037565, 9.99857 
2.8576753e+3, 1.5519795e+2, -1136545.5, -1459644.0, 141939.84, -0.17639576, -0.38470486, -1083048.0, 335981.4, 0.00000051506584, 10.0032425, 9.998755 
2.8572524e+3, 1.6518825e+2, -1061025.0, -1248138.9, -111157.734, -0.16055694, -0.39569277, -1009292.8, 311832.1, 0.00000002542409, 10.002519, 9.999901 
2.8568286e+3, 1.7517994e+2, -1181999.4, -1247768.3, -75148.47, 0.047786955, -0.35630667, -1132855.3, 90350.02, 0.0, 10.001021, 9.999933 
2.8564072e+3, 1.851716e+2, -1143233.4, -1263009.4, 154938.8, 0.14065081, -0.2489086, -1037011.1, 88279.63, 0.0, 10.000947, 9.999213 
2.855987e+3, 1.9516292e+2, -826200.94, -1060142.8, 214300.86, 0.114099905, -0.16609219, -699026.3, 328357.66, 0.0, 10.002458, 9.999202 
2.8555647e+3, 2.0515433e+2, -743974.75, -891467.75, 50648.855, 0.06967435, -0.07503492, -728257.0, 201215.34, 0.0, 10.002017, 9.999894 
2.8551406e+3, 2.1514526e+2, -1065199.6, -985072.6, 23686.74, 0.023609605, -0.10309996, -978594.25, -147033.89, 0.0, 9.999104, 9.999972 
2.8547156e+3, 2.2513632e+2, -961571.5, -738603.2, -21073.729, -0.033895615, -0.16160102, -736628.94, -2985.7646, 0.0, 9.998502, 10.001301 
2.8542888e+3, 2.3512737e+2, -614989.8, -530552.25, 73658.266, -0.13552834, -0.29795045, -487871.28, 147852.53, 0.0, 10.000232, 10.001228 
2.8538647e+3, 2.4511808e+2, -617374.1, -816088.3, 190925.89, -0.12612842, -0.2783965, -501499.88, 36314.332, 0.0, 10.000991, 9.998235 
2.8534427e+3, 2.551081e+2, -537181.06, -704462.5, 138267.31, -0.0073079304, -0.21948287, -459224.7, -19308.27, 0.0, 10.000782, 9.998414 
2.8530198e+3, 2.650973e+2, -494258.66, -634991.9, 38409.766, 0.0274315, -0.23216969, -484458.13, -142435.11, 0.0, 10.0004, 9.998405 
2.852595e+3, 2.7508593e+2, -423859.2, -524116.53, -90783.83, -0.04994069, -0.34359497, -370283.53, -126151.52, 0.0, 10.000094, 9.998647 
2.8521734e+3, 2.8507686e+2, -359866.0, -321001.72, 22149.502, 0.011817554, -0.2879685, -310968.5, -164747.25, 0.0, 9.999309, 9.99976 
2.851755e+3, 2.9506928e+2, -434331.0, -300036.44, 16224.984, 0.19580324, -0.1615589, -298104.0, -249805.61, 0.0, 9.998094, 9.99982 
2.8513333e+3, 3.0506024e+2, -233870.31, 5871.5776, 22662.148, 0.12762408, -0.22572966, 7994.9624, 7994.9624, 0.0, 9.998127, 10.001229 
2.85091e+3, 3.1504968e+2, 20061.416, 152711.55, 107041.5, 0.051460255, -0.5628528, 212310.66, 212310.66, 0.0, 9.999508, 10.001247 
2.850488e+3, 3.2504296e+2, -88606.836, -188832.69, -92305.84, 0.4378183, -0.27678868, -33687.984, -33687.984, 0.0, 9.99996, 9.998669 
2.8685203e+3, 1.3564289e+2, -1244401.3, -1509757.3, 240323.42, 0.5448286, -0.37345582, -1102563.8, 508105.34, 0.0000059629547, 10.0033, 9.999741 
2.8680912e+3, 1.4563449e+2, -1066798.6, -1551335.6, 162302.33, -0.13535948, -0.20808709, -1017457.6, 495292.1, 0.0000015122073, 10.004666, 9.998146 
2.8676707e+3, 1.5562305e+2, -1229275.9, -1557105.9, 164590.56, -0.052095704, -0.32488218, -1160901.9, 253963.83, 0.0000000966577, 10.002822, 9.998297 
2.8672475e+3, 1.6561261e+2, -1113142.4, -1355840.3, -52208.387, 0.0051327636, -0.34155774, -1102388.0, 214580.31, 0.00000000026919006, 10.002512, 9.999184 
2.8668216e+3, 1.7560306e+2, -906885.94, -1198813.3, -79021.07, -0.0047899256, -0.3562064, -886868.5, 332191.25, 0.0, 10.003236, 9.999231 
2.8663993e+3, 1.8559423e+2, -918921.9, -1090398.1, 87513.61, 0.0454016, -0.29164803, -882146.06, 239002.2, 0.0, 10.002255, 9.999745 
2.86598e+3, 1.9558568e+2, -1171263.8, -1164915.1, 84688.984, 0.16645105, -0.26815015, -1083341.0, -60103.305, 0.0, 9.999875, 9.999703 
2.8655568e+3, 2.0557788e+2, -1199463.4, -1074724.9, -57866.668, 0.14102806, -0.14778759, -1052014.9, -126697.15, 0.0, 9.998761, 10.000195 
2.8651303e+3, 2.1557033e+2, -1128657.8, -988649.7, 1941.4257, 0.0064937235, -0.06412903, -988622.75, -161228.22, 0.0, 9.998578, 10.0001955 
2.864705e+3, 2.2556198e+2, -765121.56, -601066.7, 56191.36, -0.08540366, -0.087520175, -583665.9, 145807.33, 0.0, 9.999714, 10.001629 
2.864281e+3, 2.3555262e+2, -392975.97, -394699.63, -19778.756, -0.13742338, -0.3323912, -374040.25, 257515.97, 0.0, 10.001697, 10.00142 
2.8638572e+3, 2.4554375e+2, -515881.06, -815032.94, -8178.572, -0.13241552, -0.272967, -515657.63, 17984.287, 0.0, 10.00197, 9.997728 
2.8634343e+3, 2.555349e+2, -594694.4, -826891.0, -1655.3586, -0.06888194, -0.0775484, -594682.56, -158948.66, 0.0, 10.000831, 9.997538 
2.8630108e+3, 2.6552305e+2, -566249.1, -807089.3, 27965.396, -0.048703026, -0.08938982, -563044.5, -225193.33, 0.0, 10.000569, 9.99711 
2.8625864e+3, 2.7550837e+2, -424054.9, -682109.8, 53952.43, -0.07037191, -0.41337478, -413229.06, -173235.6, 0.0, 10.000824, 9.997193 
2.8621647e+3, 2.8549823e+2, -234789.5, -235080.39, 163298.5, 0.006800812, -0.37840426, -71636.39, 70457.03, 0.0, 10.0001135, 9.999947 
2.8617445e+3, 2.9549173e+2, -368280.44, -244896.44, 129467.09, 0.17123814, -0.15856561, -163174.23, -119014.16, 0.0, 9.998489, 10.000001 
2.861323e+3, 3.0548403e+2, -193377.28, 232568.14, 112130.76, 0.18116842, -0.17949311, 260283.38, 260283.38, 0.0, 9.997579, 10.00302 
2.860902e+3, 3.154753e+2, -249752.56, 191004.16, 64926.15, 0.24403854, -0.5351372, 200369.19, 200369.19, 0.0, 9.996991, 10.002704 
2.8604746e+3, 3.2546985e+2, -266302.06, -151068.56, -207318.75, 0.01828065, -0.26315036, 6490.7827, 6490.7827, 0.0, 9.998298, 9.999703 
2.8785107e+3, 1.360695e+2, -1511143.4, -2017544.8, 252990.27, 0.09688664, -0.45519012, -1406413.0, 200059.44, 0.0000021473002, 10.003092, 9.996362 
2.8780848e+3, 1.4605975e+2, -1295054.3, -1700634.6, 51696.83, -0.36321974, -0.25390854, -1288568.5, 220012.48, 0.00000043033984, 10.00326, 9.997801 
2.877666e+3, 1.560491e+2, -1306109.1, -1650602.9, 84073.62, 0.06462694, -0.24764353, -1286686.1, 124007.086, 0.000000019645139, 10.002528, 9.997804 
2.8772426e+3, 1.6603796e+2, -1202172.8, -1518285.8, -31417.438, 0.14946096, -0.25776806, -1199080.5, 113722.875, 0.0, 10.002416, 9.998111 
2.8768146e+3, 1.7602672e+2, -1046262.8, -1381981.5, -10279.562, -0.124310434, -0.3147241, -1045948.4, 168962.0, 0.0, 10.002774, 9.998192 
2.876391e+3, 1.8601695e+2, -945806.6, -1090620.3, 30249.502, -0.12622845, -0.30609417, -939741.94, 177265.77, 0.0, 10.001969, 9.9999 
2.8759706e+3, 1.9600786e+2, -1153106.3, -1130571.8, 40250.082, 0.08425138, -0.3294946, -1100041.6, -80940.02, 0.0, 9.999852, 9.999969 
2.8755465e+3, 2.0600039e+2, -1028080.06, -779702.3, -39595.684, 0.11367326, -0.29049584, -773542.8, 147631.42, 0.0, 9.999035, 10.002073 
2.87512e+3, 2.1599367e+2, -968748.56, -746128.9, 41682.85, -0.015701264, -0.28182912, -738580.25, 84655.87, 0.0, 9.998944, 10.001685 
2.8746966e+3, 2.2598587e+2, -823211.0, -835158.94, 153563.9, -0.08334165, -0.21828137, -675504.94, 49808.14, 0.0, 10.000183, 9.999797 
2.8742746e+3, 2.3597716e+2, -414989.4, -598207.44, 59753.4, -0.118815385, -0.19757055, -397224.4, 230176.61, 0.0, 10.002338, 9.999722 
2.8738514e+3, 2.4596807e+2, -375021.88, -664123.06, -53448.88, -0.077528335, -0.12056646, -365456.75, 164034.03, 0.0, 10.002525, 9.998531 
2.8734273e+3, 2.5595844e+2, -447951.75, -662509.06, -30762.05, 0.00024379775, -0.05070268, -443628.38, -12043.092, 0.0, 10.001363, 9.998446 
2.8730038e+3, 2.659475e+2, -306626.28, -425995.28, 83872.38, 0.0359752, -0.14414568, -263369.94, 70319.0, 0.0, 10.001202, 9.999433 
2.87258e+3, 2.7593526e+2, -124990.53, -300934.63, 151393.88, 0.03961694, -0.41879958, -37864.93, 197937.53, 0.0, 10.001804, 9.999348 
2.872157e+3, 2.8592518e+2, -126466.0, -206338.92, 208045.38, 0.0797414, -0.4646223, 45441.344, 183340.22, 0.0, 10.000941, 9.99975 
2.8717345e+3, 2.959166e+2, -259260.7, -225512.56, 182634.39, 0.12747556, -0.40330246, -58974.375, -18990.854, 0.0, 9.999337, 9.999736 
2.871312e+3, 3.059091e+2, -308541.66, -98583.84, 136581.45, 0.1551315, -0.25742674, -31298.234, -31298.234, 0.0, 9.997918, 10.000597 
2.8708905e+3, 3.159025e+2, -440589.3, -162685.64, -6364.0796, 0.32395926, -0.13270368, -162539.98, -162539.98, 0.0, 9.99673, 10.000424 
2.8704628e+3, 3.258935e+2, -328115.38, -299830.94, -182516.94, -0.052504778, -0.052775037, -130909.15, -130909.15, 0.0, 9.998302, 9.998692 
2.8885046e+3, 1.3649233e+2, -1470129.0, -1906080.5, -152678.39, 0.043263618, -0.33363298, -1421976.8, 180358.05, 0.0000003382392, 10.00294, 9.997189 
2.8880814e+3, 1.4648113e+2, -1627696.5, -1840506.4, -33871.16, 0.020870611, -0.3404149, -1622435.6, -117978.1, 0.000000039050374, 10.00086, 9.997992 
2.8876588e+3, 1.5647222e+2, -1246825.8, -1594189.1, -27346.986, -0.031245198, -0.18437363, -1244686.0, 161868.9, 0.0000000006124831, 10.002791, 9.9980755 
2.8872347e+3, 1.6646273e+2, -1066720.5, -1257858.5, -90498.17, -0.001278087, -0.15199919, -1030671.25, 277975.0, 0.0, 10.002525, 9.999819 
2.886808e+3, 1.7645267e+2, -1231083.1, -1325104.4, 50402.902, -0.08440827, -0.26463246, -1209170.3, 1567.0886, 0.0, 10.000881, 9.999485 
2.8863832e+3, 1.8644308e+2, -1262086.6, -1250362.4, 132062.48, -0.090733536, -0.2738757, -1124032.0, -11200.542, 0.0, 9.999884, 9.999801 
2.8859606e+3, 1.964336e+2, -1262070.1, -1182674.3, 128918.84, 0.040931977, -0.3214823, -1087479.6, -72550.99, 0.0, 9.999127, 9.999968 
2.8855368e+3, 2.0642565e+2, -901893.7, -677357.8, 89532.22, 0.08405356, -0.3374289, -646028.75, 270973.8, 0.0, 9.999777, 10.002418 
2.8851122e+3, 2.1641847e+2, -652250.25, -599501.2, 75581.734, 0.05528244, -0.41309476, -545824.44, 273239.94, 0.0, 10.001204, 10.001598 
2.8846893e+3, 2.2641033e+2, -736817.3, -943698.7, 183597.98, -0.01458573, -0.29887933, -629525.5, 91622.31, 0.0, 10.001457, 9.998438 
2.884268e+3, 2.364015e+2, -729374.75, -901941.1, 112981.26, -0.0780519, -0.15705778, -673497.6, -50253.176, 0.0, 10.00088, 9.998343 
2.8838447e+3, 2.4639185e+2, -479366.78, -622435.2, -7858.577, -0.05154363, -0.11214899, -478936.4, 46403.188, 0.0, 10.001438, 9.999327 
2.8834203e+3, 2.5638145e+2, -320600.28, -520733.63, 25199.863, 0.025703235, -0.2071265, -317476.0, 109960.55, 0.0, 10.00195, 9.999117 
2.8829965e+3, 2.6637188e+2, -273879.56, -288030.28, 70463.08, 0.08287605, -0.24187684, -210137.52, 119387.69, 0.0, 10.000979, 10.000466 
2.8825733e+3, 2.7636227e+2, -478570.75, -377803.4, 28064.3, 0.15598123, -0.3842001, -370514.56, -138900.89, 0.0, 9.999046, 10.0001335 
2.8821492e+3, 2.8635225e+2, -359587.78, -323207.16, 47776.53, 0.11719359, -0.47320908, -290275.22, -156568.03, 0.0, 9.999406, 9.999666 
2.8817242e+3, 2.9634172e+2, -191411.64, -267497.53, 59356.773, 0.031055495, -0.6138117, -158952.86, -123146.195, 0.0, 10.0001745, 9.999035 
2.8813013e+3, 3.063339e+2, -148839.0, -293514.3, 37312.492, 0.09737694, -0.33759108, -139782.81, -139782.81, 0.0, 10.000275, 9.998105 
2.8808802e+3, 3.16328e+2, -230571.03, -374780.28, -20104.795, 0.38638654, 0.10588877, -227820.61, -227820.61, 0.0, 9.999602, 9.997578 
2.8804523e+3, 3.2631558e+2, -92123.21, -284191.25, 48987.223, -0.18668875, -0.019291768, -80350.55, -80350.55, 0.0, 10.000544, 9.997629 
2.8985006e+3, 1.3691412e+2, -1366854.0, -1661810.5, -328587.4, 0.21295646, -0.21836619, -1154166.3, 444046.38, 0.0000000028010363, 10.002815, 9.99893 
2.898078e+3, 1.4690176e+2, -1556542.4, -1759151.0, 129844.69, 0.4531349, -0.42496118, -1493158.5, 7184.725, 0.0, 10.001155, 9.998399 
2.89765e+3, 1.5689462e+2, -1367873.9, -1546556.3, 127952.195, -0.2924841, -0.12227054, -1301158.6, 101266.12, 0.0, 10.001494, 9.999028 
2.8972253e+3, 1.6688752e+2, -994594.06, -889541.8, -80168.64, -0.27934375, -0.06620938, -846224.3, 458264.88, 0.0, 10.001572, 10.002807 
2.896801e+3, 1.7688012e+2, -1061774.4, -968355.8, 27760.469, -0.0054354863, -0.19041067, -960729.06, 245819.36, 0.0, 10.000853, 10.0019455 
2.8963754e+3, 1.8687135e+2, -1222450.0, -1246565.6, 108173.99, 0.0041987924, -0.2127784, -1125663.9, -17030.936, 0.0, 10.000187, 9.999688 
2.89595e+3, 1.9686188e+2, -1224222.9, -1177165.8, 128003.91, -0.0675815, -0.23195015, -1070545.9, -59816.08, 0.0, 9.999398, 9.999888 
2.8955275e+3, 2.0685288e+2, -901518.1, -763691.6, 150159.92, 0.0431062, -0.31182143, -667386.75, 245424.53, 0.0, 10.000101, 10.001686 
2.895106e+3, 2.1684399e+2, -651092.8, -690105.06, 146465.92, 0.18391575, -0.47022852, -522839.84, 292046.8, 0.0, 10.001547, 10.000828 
2.8946835e+3, 2.2683465e+2, -741387.6, -1029743.4, 168794.22, 0.10461577, -0.39631805, -663577.3, 53406.145, 0.0, 10.001747, 9.997718 
2.8942603e+3, 2.3682497e+2, -692091.0, -912749.75, 116927.88, -0.088641405, -0.25480312, -641657.5, -22566.232, 0.0, 10.001189, 9.998138 
2.8938368e+3, 2.4681449e+2, -354042.44, -429740.66, 56320.355, -0.11833155, -0.36296445, -324034.8, 197156.1, 0.0, 10.0016775, 10.000541 
2.8934127e+3, 2.5680345e+2, -148271.14, -331988.56, 75430.42, -0.084646255, -0.62571514, -121269.55, 302018.56, 0.0, 10.002618, 10.000098 
2.8929886e+3, 2.667954e+2, -321061.5, -462137.97, 1425.4465, 0.077421084, -0.474316, -321047.1, 4321.0435, 0.0, 10.001285, 9.999132 
2.8925645e+3, 2.7678832e+2, -552071.4, -514669.75, -36337.492, 0.2745394, -0.20872386, -492503.28, -265059.88, 0.0, 9.998945, 9.999241 
2.8921396e+3, 2.8677863e+2, -306173.6, -231834.25, 101383.37, 0.12751454, -0.26303783, -161021.64, -31487.73, 0.0, 9.999437, 10.000289 
2.8917146e+3, 2.967675e+2, 27210.0, -112511.44, 108019.06, -0.17204742, -0.5119795, 85990.79, 117624.87, 0.0, 10.001424, 9.999496 
2.891293e+3, 3.0675566e+2, 94446.57, -268300.97, 67644.59, -0.037690338, -0.6125448, 106650.266, 106650.266, 0.0, 10.002355, 9.9972925 
2.890874e+3, 3.167438e+2, 208354.02, -220826.95, 35132.207, 0.44061464, -0.6440421, 211210.88, 211210.88, 0.0, 10.002834, 9.997131 
2.8904453e+3, 3.2673323e+2, 531107.56, 179899.98, 142598.67, -0.29145095, -0.5894344, 581714.0, 581714.0, 0.0, 10.004014, 9.999266 
2.9084972e+3, 1.3734065e+2, -1115543.0, -1474658.5, -139471.03, 0.39619, -0.18433289, -1067739.4, 526306.3, 0.00000000011876347, 10.00425, 9.999548 
2.9080704e+3, 1.4733125e+2, -1269247.8, -1441479.9, 233946.0, 0.3763886, -0.19886681, -1106071.4, 390066.9, 0.0, 10.002385, 9.999992 
2.9076424e+3, 1.5732266e+2, -1779788.9, -1619190.3, 305478.06, -0.14886001, -0.17087844, -1383633.9, 14589.912, 0.0, 9.99815, 10.000138 
2.907217e+3, 1.6731475e+2, -1489165.1, -1232638.0, 134425.2, -0.19173378, -0.15730941, -1175101.5, 125194.85, 0.0, 9.998655, 10.00185 
2.9067922e+3, 1.77307e+2, -1131924.0, -1080246.3, 56642.367, -0.049129378, -0.23254739, -1043827.56, 158536.56, 0.0, 10.000736, 10.001235 
2.906367e+3, 1.8729828e+2, -1079033.5, -1135197.6, 59285.156, -0.037519623, -0.24146932, -1041515.8, 62931.67, 0.0, 10.001021, 10.000035 
2.9059413e+3, 1.9728902e+2, -1079804.9, -1095689.9, 123119.34, -0.051087573, -0.28654838, -964372.06, 42167.223, 0.0, 10.000373, 9.999949 
2.9055187e+3, 2.0727982e+2, -866961.0, -837786.1, 204855.31, 0.0075672944, -0.348163, -646999.5, 261623.83, 0.0, 10.000739, 10.000845 
2.905098e+3, 2.1727031e+2, -777072.06, -853074.25, 185554.23, 0.122860484, -0.49429947, -625667.6, 185039.45, 0.0, 10.001132, 9.999901 
2.9046765e+3, 2.2726077e+2, -890883.25, -1059371.1, 213090.3, 0.15148732, -0.4155978, -745988.56, -33183.574, 0.0, 10.000616, 9.998017 
2.904254e+3, 2.3725106e+2, -956075.9, -1021613.9, 239599.61, 0.10798959, -0.30830485, -747014.8, -132103.58, 0.0, 9.999372, 9.998241 
2.9038298e+3, 2.4724008e+2, -596550.75, -498277.44, 202438.31, -0.014133331, -0.47283176, -339097.78, 177916.31, 0.0, 9.999915, 10.000864 
2.9034054e+3, 2.5722852e+2, -448558.9, -481297.78, 117590.14, -0.12284554, -0.82475686, -346204.3, 72911.48, 0.0, 10.000669, 9.999978 
2.9029807e+3, 2.6722124e+2, -254316.83, -503797.9, 25275.383, 0.013165841, -0.54527193, -251781.89, 69410.08, 0.0, 10.002083, 9.998444 
2.9025558e+3, 2.7721548e+2, -78378.84, -394048.28, 66801.83, 0.24313456, -0.08295298, -64824.293, 158436.64, 0.0, 10.002677, 9.9982815 
2.9021305e+3, 2.8720513e+2, -9226.701, -91905.32, 191666.42, 0.076807335, -0.14392568, 145507.84, 270866.3, 0.0, 10.001588, 10.000185 
2.9017058e+3, 2.971929e+2, -246899.17, -285812.3, 136083.39, -0.2777749, -0.48505083, -128888.49, -101421.27, 0.0, 9.999829, 9.999038 
2.901282e+3, 3.0718312e+2, 43379.758, -288737.66, 130328.4, -0.44311047, -0.37496445, 88415.78, 88415.78, 0.0, 10.002082, 9.997198 
2.9008603e+3, 3.1717306e+2, 333817.88, -318793.3, 158811.19, -0.3579315, -0.18904383, 370412.2, 370412.2, 0.0, 10.004514, 9.995573 
2.9004362e+3, 3.2716563e+2, -229419.8, -178423.72, 71287.84, -0.61616504, 0.23717636, -128211.08, -128211.08, 0.0, 9.998914, 9.9991255 
2.9184917e+3, 1.3776954e+2, -1279386.4, -1474459.1, -85708.94, 0.3359833, -0.06300735, -1247079.1, 342775.6, 0.0000000000007792345, 10.002808, 10.000245 
2.9180616e+3, 1.4776327e+2, -1201199.0, -1192142.5, 65193.516, 0.17076908, 0.09032618, -1131320.1, 360585.88, 0.0, 10.001924, 10.001928 
2.9176342e+3, 1.5775253e+2, -1551136.9, -1430036.1, 178471.48, 0.09625572, -0.26876464, -1302123.1, 91875.59, 0.0, 9.999367, 10.000856 
2.9172084e+3, 1.6774279e+2, -1527373.6, -1531438.3, 185872.25, -0.030558446, -0.31929055, -1343522.5, -47430.723, 0.0, 9.999591, 9.999345 
2.9167828e+3, 1.777333e+2, -1235045.9, -1323088.5, 108710.375, -0.23851342, -0.3167411, -1161781.9, 36403.176, 0.0, 10.000818, 9.999543 
2.9163575e+3, 1.8772423e+2, -1015568.8, -1010906.9, 36314.58, -0.16667548, -0.35317954, -976848.56, 123422.6, 0.0, 10.001036, 10.000881 
2.9159337e+3, 1.9771524e+2, -1018891.75, -1010584.9, 125627.695, -0.011459946, -0.44105563, -889042.0, 113313.625, 0.0, 10.000519, 10.000469 
2.9155102e+3, 2.077065e+2, -889103.1, -935355.9, 224140.73, -0.07159192, -0.43023485, -686898.9, 217540.02, 0.0, 10.000908, 10.000117 
2.9150873e+3, 2.1769765e+2, -731167.5, -838555.3, 195213.9, -0.2022202, -0.4310316, -582397.8, 224125.28, 0.0, 10.00143, 9.999875 
2.9146683e+3, 2.276892e+2, -763750.75, -823924.9, 175495.66, 0.14421372, -0.33925837, -615781.75, 92825.35, 0.0, 10.000705, 9.999614 
2.9142493e+3, 2.3768057e+2, -839097.0, -838406.5, 241913.78, 0.57802993, -0.2556558, -596837.7, 13857.074, 0.0, 9.999561, 9.99943 
2.9138246e+3, 2.4766995e+2, -663379.25, -655508.8, 257987.66, 0.35332453, -0.3678932, -401426.38, 111371.375, 0.0, 9.999936, 9.999789 
2.9133978e+3, 2.5765866e+2, -431456.06, -518140.7, 173964.98, -0.08489606, -0.57930344, -295515.44, 119389.73, 0.0, 10.000891, 9.99964 
2.9129723e+3, 2.6765108e+2, -106857.6, -304476.0, 130580.05, -0.18379618, -0.3860817, -41915.75, 275066.97, 0.0, 10.002488, 9.9996395 
2.912547e+3, 2.7764472e+2, 190293.61, -199286.23, 163471.9, -0.15510564, -0.08038214, 249799.16, 468851.0, 0.0, 10.00419, 9.9989 
2.9121235e+3, 2.876313e+2, -39.387985, -341176.8, 168338.06, -0.0039525703, -0.32241094, 69040.37, 190221.5, 0.0, 10.002706, 9.997951 
2.9117006e+3, 2.9761705e+2, -340297.78, -385325.38, 143916.66, 0.13754752, -0.65573436, -217144.6, -193828.69, 0.0, 9.999335, 9.998601 
2.9284808e+3, 1.3819784e+2, -1573193.1, -1684671.5, -80272.97, -0.0094607165, -0.07389195, -1531205.1, 54447.906, 0.0, 10.001079, 9.999633 
2.9280546e+3, 1.4819124e+2, -1179024.0, -1208992.1, 50803.203, 0.19808449, 0.07695298, -1141041.1, 346670.84, 0.0, 10.0021715, 10.001699 
2.9276273e+3, 1.5818037e+2, -937664.1, -1181246.6, 60451.453, 0.059866358, -0.2837595, -923486.7, 466318.88, 0.0, 10.003777, 10.000438 
2.9272017e+3, 1.681697e+2, -1122963.1, -1408300.9, 79409.58, 0.019974668, -0.37636828, -1102352.3, 189554.86, 0.0, 10.0027, 9.998683 
2.926776e+3, 1.7815924e+2, -1288973.8, -1397968.5, 84155.01, -0.06965492, -0.4155523, -1243211.4, -49200.973, 0.0, 10.000685, 9.999088 
2.9263505e+3, 1.8815103e+2, -1038723.5, -1021588.75, 30870.129, -0.06814437, -0.35920787, -998119.2, 97969.8, 0.0, 10.000882, 10.000869 
2.925926e+3, 1.9814311e+2, -939926.3, -1022491.4, 70540.1, 0.05010427, -0.34632212, -899476.6, 98687.055, 0.0, 10.001272, 10.000035 
2.9255036e+3, 2.081336e+2, -920210.75, -1034738.94, 152996.33, 0.026197998, -0.35321352, -814113.1, 86143.414, 0.0, 10.001129, 9.999306 
2.925081e+3, 2.1812375e+2, -925812.56, -982406.6, 110217.32, -0.06821962, -0.39879948, -840317.75, -37964.52, 0.0, 10.000361, 9.999393 
2.9246607e+3, 2.2811565e+2, -528868.75, -618502.5, 69338.85, 0.1638792, -0.3204784, -491123.97, 213307.67, 0.0, 10.001934, 10.000427 
2.9242414e+3, 2.3810789e+2, -273602.25, -513766.2, 71517.805, 0.5452531, -0.25908864, -253918.42, 352588.0, 0.0, 10.003262, 9.999874 
2.9238164e+3, 2.4809833e+2, -530306.06, -592954.4, 120269.5, 0.351955, -0.29368973, -437348.47, 71250.86, 0.0, 10.000912, 9.999736 
2.923389e+3, 2.5808817e+2, -929750.06, -754634.0, 164542.06, -0.04511437, -0.4117945, -655804.0, -245105.03, 0.0, 9.997527, 9.999624 
2.922964e+3, 2.6808038e+2, -482174.56, -383548.3, 198156.2, -0.24341698, -0.29403785, -228661.39, 84116.08, 0.0, 9.999559, 10.000468 
2.9225394e+3, 2.780732e+2, -69038.48, -285340.94, 153609.05, -0.36005527, -0.1662856, 10673.082, 225523.92, 0.0, 10.002306, 9.999203 
2.9221168e+3, 2.8805915e+2, -111257.11, -504906.1, 123441.664, -0.041952696, -0.43114996, -75750.53, 41238.992, 0.0, 10.002503, 9.996873 
2.9216945e+3, 2.980458e+2, -168966.66, -218882.67, 243614.97, 0.43978179, -0.62206507, 50965.42, 70085.87, 0.0, 10.000203, 9.999329 
2.9384705e+3, 1.3862562e+2, -1717133.4, -1869080.1, -141363.98, -0.25045392, -0.1412897, -1632620.8, -51167.87, 0.0, 10.000601, 9.998593 
2.938048e+3, 1.4861771e+2, -1332340.1, -1378609.5, 102072.1, 0.1886538, -0.039209776, -1250813.9, 232718.94, 0.0, 10.001512, 10.000859 
2.93762e+3, 1.5860748e+2, -1156172.5, -1355091.5, 66445.08, -0.16015685, -0.24994008, -1136019.6, 249604.75, 0.0, 10.002547, 9.999846 
2.9371956e+3, 1.6859624e+2, -1191569.0, -1422652.4, -2509.3154, 0.036240693, -0.3964456, -1191541.8, 96188.35, 0.0, 10.002117, 9.9988785 
2.936771e+3, 1.7858505e+2, -1257115.6, -1368857.9, 47140.117, 0.21681903, -0.5199451, -1239885.6, -50048.848, 0.0, 10.000804, 9.999248 
2.9363447e+3, 1.8857844e+2, -1036508.6, -1070035.1, 45388.086, 0.12105052, -0.28503108, -1004887.1, 87015.6, 0.0, 10.001078, 10.000461 
2.935919e+3, 1.9857232e+2, -945156.2, -1082837.8, 80143.25, 0.026724532, -0.038160708, -908346.6, 85617.82, 0.0, 10.00145, 9.999546 
2.9354984e+3, 2.0856078e+2, -961880.56, -1146011.6, 124550.234, 0.2577462, -0.17615022, -899062.9, -2984.9446, 0.0, 10.001239, 9.9984865 
2.935078e+3, 2.1854816e+2, -896074.8, -1016416.5, 119847.08, 0.44785762, -0.41268826, -822141.75, -23940.377, 0.0, 10.000714, 9.999005 
2.9346538e+3, 2.2853965e+2, -464242.25, -594535.8, 138130.23, 0.113724664, -0.36552006, -376666.88, 323617.56, 0.0, 10.002309, 10.000457 
2.9342285e+3, 2.3853216e+2, -94393.766, -338384.3, 43733.0, -0.2827331, -0.28605658, -86791.88, 515564.97, 0.0, 10.003994, 10.00077 
2.9338035e+3, 2.4852426e+2, -388941.3, -345617.88, -60762.375, -0.16175842, -0.29802042, -302771.47, 201657.42, 0.0, 10.0010395, 10.001411 
2.9333785e+3, 2.5851598e+2, -872627.8, -590846.06, 93898.38, 0.03786101, -0.37090528, -562423.2, -155918.45, 0.0, 9.997239, 10.000917 
2.9329574e+3, 2.685073e+2, -564974.8, -454594.2, 303306.16, 0.038984653, -0.38015252, -201497.94, 107095.055, 0.0, 9.99904, 10.000264 
2.932536e+3, 2.7849877e+2, 4302.3896, -165733.48, 171943.42, -0.041239925, -0.3793709, 111098.41, 321780.3, 0.0, 10.0023155, 10.000061 
2.9321116e+3, 2.8849015e+2, 50231.11, -197025.25, 71708.766, 0.07657926, -0.28162134, 69522.75, 182294.53, 0.0, 10.002458, 9.999096 
2.9316866e+3, 2.984833e+2, 284191.94, 164620.47, 275880.34, 0.33804786, -0.016882118, 506690.28, 521532.97, 0.0, 10.002357, 10.001021 
2.9484677e+3, 1.3905236e+2, -1736486.6, -1966919.0, -142409.33, 0.3274223, -0.25017092, -1668522.0, -91262.375, 0.0, 10.000811, 9.997848 
2.9480362e+3, 1.4904319e+2, -1558589.6, -1606261.4, 85867.125, -0.1699265, -0.18074733, -1493311.5, -13950.315, 0.0, 10.000482, 9.999803 
2.9476133e+3, 1.5903555e+2, -1593220.9, -1626609.8, 30030.129, -0.011589855, -0.038435858, -1575556.6, -194120.5, 0.0, 9.999813, 9.999316 
2.9471886e+3, 1.690243e+2, -1385891.4, -1477224.1, -25892.074, 0.1328497, -0.19496231, -1379061.9, -95520.56, 0.0, 10.000621, 9.99923 
2.946763e+3, 1.790125e+2, -1169707.8, -1342877.1, 20102.057, 0.20640717, -0.41715637, -1167404.9, 18246.717, 0.0, 10.001481, 9.999093 
2.9463372e+3, 1.8900484e+2, -1013784.56, -1141012.1, 16428.297, 0.134515, -0.2383374, -1011697.5, 76029.74, 0.0, 10.001616, 9.999704 
2.9459122e+3, 1.9899778e+2, -993917.7, -1136837.1, 38791.8, 0.11571116, -0.028587004, -984067.5, 5730.4727, 0.0, 10.001275, 9.999258 
2.9454914e+3, 2.0898649e+2, -842740.3, -1002927.8, 157549.0, 0.31163296, -0.19726881, -746095.0, 145811.25, 0.0, 10.001693, 9.999242 
2.9450712e+3, 2.1897423e+2, -779566.9, -953246.2, 260433.03, 0.51703745, -0.44882396, -591876.94, 202147.11, 0.0, 10.001515, 9.999056 
2.944646e+3, 2.289659e+2, -712156.6, -720065.3, 311233.88, 0.055663526, -0.36342293, -404851.97, 291255.53, 0.0, 10.000729, 10.000302 
2.944219e+3, 2.3895842e+2, -758630.06, -668320.3, 147398.02, -0.524171, -0.26744193, -559315.75, 38866.6, 0.0, 9.99957, 10.000595 
2.9437938e+3, 2.4895056e+2, -386716.44, -292617.44, -94682.805, -0.30425802, -0.29316258, -233938.56, 266314.06, 0.0, 10.000912, 10.0018 
2.9433697e+3, 2.589427e+2, -251772.7, -297559.28, 15616.247, 0.12848999, -0.37375915, -246953.72, 155368.66, 0.0, 10.00161, 10.00082 
2.9429498e+3, 2.6893336e+2, -362443.84, -412642.78, 267563.56, 0.19365948, -0.41822422, -118805.07, 185613.66, 0.0, 10.000705, 9.999746 
2.9425305e+3, 2.7892408e+2, -421424.38, -347261.25, 99257.99, 0.14683384, -0.47812045, -278384.38, -71866.69, 0.0, 9.99936, 10.000223 
2.9421046e+3, 2.889195e+2, -138700.89, -54408.414, -75411.23, 0.12507698, -0.12859173, -10165.08, 98404.59, 0.0, 10.0002575, 10.0011015 
2.941678e+3, 2.9891607e+2, 29483.758, 118511.3, 205559.47, 0.13167676, 0.30243585, 284321.5, 294929.38, 0.0, 10.000481, 10.001542 
2.9584622e+3, 1.3947777e+2, -1912672.1, -2079016.6, -186925.5, 0.5777351, -0.42871553, -1791250.3, -218169.97, 0.0, 9.999699, 9.997627 
2.9580235e+3, 1.4946887e+2, -1634264.1, -1767963.6, 38084.23, -0.58783484, -0.2627319, -1624176.9, -148989.6, 0.0, 10.000495, 9.998686 
2.9576066e+3, 1.5946385e+2, -1552707.1, -1666808.3, 25862.37, 0.21239312, 0.24815188, -1547118.9, -169872.6, 0.0, 10.0003195, 9.998809 
2.957181e+3, 1.6945276e+2, -1290561.6, -1382560.1, 7580.4233, 0.19886957, 0.08611616, -1289941.1, -10591.161, 0.0, 10.001024, 9.999698 
2.9567534e+3, 1.7944065e+2, -1146849.0, -1333194.8, 37956.98, -0.0565512, -0.19976614, -1139414.1, 42047.473, 0.0, 10.001606, 9.999106 
2.956329e+3, 1.8943013e+2, -1058759.1, -1266106.5, 3202.73, 0.035313457, -0.24647602, -1058709.6, 24852.877, 0.0, 10.001715, 9.998806 
2.9559058e+3, 1.9942026e+2, -916878.2, -1048622.3, 46823.895, 0.19351101, -0.24860118, -901931.9, 83725.586, 0.0, 10.001525, 9.99976 
2.9554832e+3, 2.0941134e+2, -648604.0, -673886.1, 158497.06, 0.15952435, -0.3506174, -502244.7, 385492.28, 0.0, 10.001902, 10.001449 
2.95506e+3, 2.194024e+2, -604630.7, -716842.7, 233699.25, 0.070495546, -0.4648065, -420396.88, 369420.03, 0.0, 10.0019865, 10.000474 
2.9546383e+3, 2.2939484e+2, -729452.75, -776393.1, 251601.33, 0.057092197, -0.3173872, -500229.3, 191666.66, 0.0, 10.000806, 9.999885 
2.9542157e+3, 2.3938715e+2, -769297.7, -749634.75, 130495.69, 0.0153579675, -0.18453553, -628600.7, -34623.832, 0.0, 9.999744, 9.999967 
2.9537895e+3, 2.4937722e+2, -428815.25, -502825.4, -28219.264, 0.060088824, -0.28744245, -419283.22, 76786.484, 0.0, 10.001341, 10.000202 
2.9533637e+3, 2.5936714e+2, -94804.95, -358374.34, 5316.387, 0.14453016, -0.42186195, -94697.766, 303465.9, 0.0, 10.003164, 9.999701 
2.9529417e+3, 2.693582e+2, -300308.9, -475195.28, 125181.234, 0.095025845, -0.34794563, -235054.19, 65205.984, 0.0, 10.001448, 9.998999 
2.9525197e+3, 2.793497e+2, -411765.84, -349694.75, -4665.0117, -0.00242529, -0.25759843, -349346.1, -146992.16, 0.0, 9.999346, 10.000253 
2.9520953e+3, 2.893434e+2, -107647.8, 12196.997, -113328.8, 0.07650031, -0.13145429, 80470.195, 184887.83, 0.0, 10.000117, 10.001683 
2.951666e+3, 2.9933652e+2, 64353.973, 81210.86, 16811.531, -0.20816447, -0.07282612, 91588.43, 98072.25, 0.0, 10.000741, 10.001214 
2.9684484e+3, 1.3990073e+2, -1932059.6, -1769904.9, -105671.51, 0.24764445, -0.57366997, -1717790.6, -148848.08, 0.0, 9.998252, 10.000417 
2.9680163e+3, 1.4989518e+2, -1495037.5, -1647449.8, 51433.273, -0.50666606, -0.19041765, -1479304.8, -8299.15, 0.0, 10.001267, 9.999126 
2.9676002e+3, 1.5988569e+2, -1227350.1, -1479071.9, 73949.2, 0.31463116, -0.16210808, -1207233.4, 165870.7, 0.0, 10.002421, 9.999085 
2.967174e+3, 1.6987678e+2, -1089517.5, -1261802.0, 45273.004, 0.2017754, -0.12577294, -1078345.1, 196845.05, 0.0, 10.00231, 9.999908 
2.9667458e+3, 1.7986734e+2, -1112584.6, -1318115.1, 75319.16, -0.1139195, -0.1633446, -1087938.4, 89341.21, 0.0, 10.001871, 9.999084 
2.9663214e+3, 1.898559e+2, -1022552.8, -1272881.0, 58852.547, -0.010580385, -0.28276193, -1009406.8, 69981.805, 0.0, 10.002107, 9.998561 
2.965899e+3, 1.9984433e+2, -923971.4, -1135746.4, 123442.71, 0.2340809, -0.41235957, -867223.5, 114275.29, 0.0, 10.00189, 9.998973 
2.965476e+3, 2.0983574e+2, -731834.7, -799690.6, 64928.133, 0.12006081, -0.3968583, -692504.44, 191072.94, 0.0, 10.001776, 10.000612 
2.9650518e+3, 2.1982767e+2, -783483.2, -858657.94, -71924.89, -0.049707733, -0.3879667, -739916.44, 45734.66, 0.0, 10.001043, 9.999949 
2.9646307e+3, 2.2982007e+2, -705568.0, -755590.2, -46722.383, 0.10781805, -0.26770803, -677583.44, 10145.708, 0.0, 10.0009365, 9.99997 
2.9642096e+3, 2.3981236e+2, -707569.5, -754116.8, -80842.92, 0.32458565, -0.17262815, -646716.8, -56907.594, 0.0, 10.000353, 9.999656 
2.9637828e+3, 2.498021e+2, -539334.4, -598307.5, -87095.38, 0.17176805, -0.2968441, -476869.53, 15036.847, 0.0, 10.000816, 9.999769 
2.9633558e+3, 2.5979146e+2, -506394.03, -643544.94, 2922.2036, 0.0034348075, -0.4453232, -506331.8, -112324.28, 0.0, 10.000782, 9.998857 
2.9629323e+3, 2.6978308e+2, -554388.94, -637545.7, 90012.12, -0.03876761, -0.26934597, -496816.22, -200716.06, 0.0, 9.999902, 9.998601 
2.962509e+3, 2.79775e+2, -595035.1, -502444.0, 40321.707, -0.090869635, -0.09904541, -487346.4, -289155.78, 0.0, 9.998454, 9.999605 
2.9620862e+3, 2.8976694e+2, -159249.14, -44022.656, -52595.793, 0.063306145, -0.11343607, -23625.623, 76643.445, 0.0, 9.999989, 10.001303 
2.9616553e+3, 2.9975545e+2, 9177.097, -33307.195, -91976.55, -0.52305573, -0.4960284, 82332.586, 84709.96, 0.0, 10.00086, 10.000327 
2.978435e+3, 1.4032637e+2, -1684999.6, -1332687.3, 90424.86, -0.11193284, -0.39527687, -1310834.3, 253946.81, 0.0, 9.998611, 10.00323 
2.9780108e+3, 1.5032086e+2, -1531550.3, -1554867.5, 88807.17, -0.31425062, -0.14026113, -1453639.8, 13189.116, 0.0, 10.000548, 10.000106 
2.9775938e+3, 1.6030525e+2, -1360208.6, -1473341.8, 54801.914, 0.28536376, -0.8126725, -1338015.9, 30962.717, 0.0, 10.001203, 9.999714 
2.977167e+3, 1.7029949e+2, -1178299.9, -1293398.3, 8718.527, 0.15536423, -0.4909473, -1177643.3, 93395.52, 0.0, 10.001647, 10.000021 
2.9767388e+3, 1.8029355e+2, -1090703.1, -1300038.1, 33693.62, -0.14482729, -0.17345262, -1085413.6, 87686.164, 0.0, 10.00195, 9.999186 
2.9763147e+3, 1.9028194e+2, -950722.06, -1224051.0, 19179.271, -0.03337302, -0.32696238, -949382.8, 125826.7, 0.0, 10.0024605, 9.998765 
2.9758918e+3, 2.0026973e+2, -939263.0, -1308143.9, 77962.33, 0.15470392, -0.5017024, -923462.56, 53863.285, 0.0, 10.002414, 9.99757 
2.975469e+3, 2.1025924e+2, -955196.0, -1308556.9, 22418.115, 0.14524613, -0.3705163, -953779.44, -74347.0, 0.0, 10.001934, 9.997072 
2.9750457e+3, 2.202496e+2, -789067.06, -977415.25, -111485.46, 0.07785275, -0.22728384, -737303.6, 44226.875, 0.0, 10.001406, 9.998998 
2.9746237e+3, 2.3024134e+2, -598087.44, -624833.56, -75961.53, 0.17874588, -0.21375392, -534330.75, 149279.36, 0.0, 10.001198, 10.000809 
2.9742008e+3, 2.4023326e+2, -506272.38, -522490.66, -115724.17, 0.23502871, -0.2423051, -398373.56, 187314.31, 0.0, 10.001062, 10.000939 
2.9737723e+3, 2.5022465e+2, -389545.0, -381509.47, -106959.36, -0.10899803, -0.33489344, -278492.44, 209276.05, 0.0, 10.001122, 10.00115 
2.9733437e+3, 2.6021588e+2, -369989.7, -449280.06, -41898.746, -0.3956628, -0.41926706, -351952.6, 37899.445, 0.0, 10.001034, 10.000104 
2.972922e+3, 2.7020824e+2, -495653.56, -530373.06, 33963.484, -0.14622092, -0.24691154, -474870.44, -182936.0, 0.0, 9.999885, 9.999407 
2.9725006e+3, 2.8020054e+2, -531939.6, -534430.44, 57816.27, 0.08200637, -0.058349587, -475355.3, -281336.44, 0.0, 9.999025, 9.999169 
2.9720792e+3, 2.9019192e+2, -230805.75, -324745.2, 10323.869, 0.25836924, 0.04406677, -229684.55, -133575.61, 0.0, 10.00047, 9.999207 
2.9716516e+3, 3.0018035e+2, 134648.84, -22981.12, -120871.914, -0.16137028, -0.1545592, 200131.53, 200131.53, 0.0, 10.001894, 9.999935 
2.9884264e+3, 1.4075303e+2, -1566079.3, -1346720.0, 186382.95, -0.050731104, -0.14088742, -1240140.0, 320463.4, 0.0, 9.999655, 10.00267 
2.988003e+3, 1.5074842e+2, -1675741.1, -1586232.6, 19066.436, -0.1778996, 0.18808587, -1582340.4, -119698.22, 0.0, 9.999328, 10.000513 
2.9875827e+3, 1.6073209e+2, -1796470.8, -1697625.1, 7250.2666, 0.14539634, -0.5984345, -1697096.3, -332298.22, 0.0, 9.998253, 9.999617 
2.9871583e+3, 1.7072552e+2, -1456278.9, -1469808.9, -30153.277, 0.11171492, -0.332643, -1432141.0, -165274.84, 0.0, 9.999932, 9.999644 
2.986733e+3, 1.8071876e+2, -1188461.9, -1442539.4, -19189.68, -0.018142968, -0.052955277, -1187020.8, -18084.518, 0.0, 10.0016985, 9.998347 
2.9863086e+3, 1.907076e+2, -863042.56, -1237792.9, -92108.24, -0.039157536, -0.112254515, -841627.44, 229415.64, 0.0, 10.003307, 9.998275 
2.985885e+3, 2.0069607e+2, -734116.8, -1247946.0, -77864.13, 0.015285489, -0.20964153, -722576.7, 250577.33, 0.0, 10.004008, 9.997218 
2.9854625e+3, 2.106836e+2, -788497.0, -1320858.0, 6610.5503, 0.12446535, -0.23476869, -788414.9, 86865.87, 0.0, 10.003447, 9.996276 
2.98504e+3, 2.2067252e+2, -749645.94, -946040.4, 31527.83, 0.2339456, -0.1816625, -744708.8, 32684.496, 0.0, 10.001683, 9.999071 
2.984615e+3, 2.3066445e+2, -867612.06, -656407.8, 45689.977, 0.17004883, -0.2037053, -646947.4, 32519.734, 0.0, 9.999021, 10.001604 
2.9841897e+3, 2.4065597e+2, -1128620.8, -811456.0, 25701.457, 0.07433556, -0.30241615, -809386.75, -227841.55, 0.0, 9.996805, 10.000993 
2.9837626e+3, 2.5064802e+2, -737137.06, -507392.97, -22292.387, -0.16913979, -0.34414852, -505249.9, -21626.58, 0.0, 9.998645, 10.0014515 
2.9833364e+3, 2.6064038e+2, -512617.88, -509756.34, -57790.176, -0.32468703, -0.33398363, -453379.22, -67680.51, 0.0, 10.000106, 10.000128 
2.9829144e+3, 2.706328e+2, -244524.13, -304844.78, -12388.898, -0.06750269, -0.22802544, -242078.77, 45696.36, 0.0, 10.001212, 10.000295 
2.9824927e+3, 2.8062513e+2, -274221.78, -467406.47, 78458.945, 0.15743154, -0.11094806, -246371.83, -56516.46, 0.0, 10.001143, 9.99859 
2.9820713e+3, 2.9061604e+2, -221594.28, -465999.2, 127797.61, 0.24420741, 0.05898852, -166975.72, -75020.49, 0.0, 10.001264, 9.9978285 
2.981647e+3, 3.0060568e+2, 14387.781, -43661.527, 53393.984, 0.06377491, 0.08855059, 46136.05, 46136.05, 0.0, 10.001075, 10.00014 
2.9984197e+3, 1.4117758e+2, -1613815.9, -1472181.0, 219777.39, 0.09508326, -0.021494562, -1312093.3, 244351.3, 0.0, 9.999828, 10.00173 
2.9979935e+3, 1.5117517e+2, -1592083.0, -1502954.5, -130149.984, -0.16006395, 0.5206437, -1409950.6, 48515.516, 0.0, 9.999742, 10.000893 
2.9975697e+3, 1.6116054e+2, -1681371.5, -1668279.8, -44175.71, -0.12845042, -0.12276811, -1630167.5, -269559.44, 0.0, 9.999147, 9.999396 
2.9971495e+3, 1.7115115e+2, -1466999.5, -1543397.3, -11766.059, 0.122878216, -0.08920649, -1465228.5, -202525.95, 0.0, 10.0001335, 9.999061 
2.9967278e+3, 1.8114251e+2, -1235654.3, -1500764.1, 24668.377, 0.13658838, 0.054586142, -1233378.4, -68588.09, 0.0, 10.001545, 9.998011 
2.9963022e+3, 1.9113259e+2, -918833.75, -1335266.0, -24605.262, -0.15795438, 0.18303011, -917384.94, 149503.86, 0.0, 10.003263, 9.997615 
2.995878e+3, 2.01122e+2, -728678.7, -1155669.8, -84069.79, -0.23469186, 0.2296648, -712722.56, 256270.45, 0.0, 10.003644, 9.998019 
2.9954576e+3, 2.1110943e+2, -675822.3, -1017916.56, -17356.258, 0.16476405, 0.013611932, -674944.0, 196170.56, 0.0, 10.003154, 9.998489 
2.9950342e+3, 2.210969e+2, -581524.4, -720646.94, -60386.703, 0.33424208, -0.25563365, -558969.8, 214264.69, 0.0, 10.002168, 10.000386 
2.994603e+3, 2.3108815e+2, -854376.5, -629341.44, -84318.99, -0.049064536, -0.38625965, -601253.5, 74057.67, 0.0, 9.998941, 10.001872 
2.994175e+3, 2.410807e+2, -1115611.0, -849062.06, 35273.684, -0.20494343, -0.39113992, -844473.1, -267094.53, 0.0, 9.997024, 10.000644 
2.993757e+3, 2.5107282e+2, -780166.0, -713609.3, 46935.723, 0.2762428, -0.2891177, -689351.5, -209885.8, 0.0, 9.99908, 9.999875 
2.9933372e+3, 2.6106456e+2, -391985.3, -419376.0, -15819.76, 0.57856965, -0.22666638, -384756.34, -3202.1648, 0.0, 10.000704, 10.000513 
2.9929107e+3, 2.7105635e+2, -75227.4, -86395.01, 25333.857, 0.2991336, -0.27843386, -54869.28, 228758.05, 0.0, 10.001736, 10.001596 
2.992484e+3, 2.8104764e+2, 23218.07, -190986.02, 80608.57, -0.049278717, -0.3720149, 50162.996, 235871.78, 0.0, 10.002539, 9.999867 
2.9920587e+3, 2.910358e+2, -66135.0, -305363.75, 132279.19, -0.31792936, -0.56593376, -7408.741, 80425.89, 0.0, 10.001879, 9.998739 
2.9916343e+3, 3.0103016e+2, 126255.3, 109186.414, 144506.11, -0.44560242, -0.11096074, 262478.75, 262478.75, 0.0, 10.001209, 10.001291 
3.0084127e+3, 1.415912e+2, -1727883.4, -1819115.4, 62052.207, 0.2053636, -0.69514734, -1696484.5, -144103.25, 0.0, 10.000191, 9.9992075 
3.007983e+3, 1.5158905e+2, -1266051.6, -1484495.9, -228299.16, -0.4634485, -0.015462245, -1122192.8, 332221.1, 0.0, 10.002583, 9.999617 
3.0075592e+3, 1.6157643e+2, -1081082.6, -1315113.0, -260995.14, -0.4790667, -0.40719587, -912071.5, 444471.78, 0.0, 10.002914, 9.999995 
3.0071405e+3, 1.7157115e+2, -1068019.3, -1149421.5, -160281.72, 0.018359615, -0.16022839, -943351.7, 315238.53, 0.0, 10.001911, 10.000896 
3.006724e+3, 1.8156369e+2, -1268579.4, -1469269.8, 33898.227, 0.53341067, -0.07714946, -1263008.3, -102348.305, 0.0, 10.0010195, 9.998497 
3.0063018e+3, 1.9155034e+2, -1293791.8, -1535366.9, -14096.08, 0.4868911, -0.33403784, -1292972.0, -230180.3, 0.0, 10.000649, 9.997502 
3.0058768e+3, 2.0153607e+2, -1024222.2, -1141594.9, -9878.619, 0.30306938, -0.67675227, -1023396.56, -58464.652, 0.0, 10.000873, 9.999445 
3.0054483e+3, 2.1153346e+2, -892755.44, -667741.9, 154962.72, -0.034038562, -0.24325062, -588751.4, 278202.34, 0.0, 9.9997225, 10.00248 
3.0050215e+3, 2.2152816e+2, -961684.4, -1049569.8, 189455.0, -0.16589293, 0.017128306, -811142.7, -42140.684, 0.0, 10.000175, 9.999055 
3.0045983e+3, 2.3151468e+2, -23001.816, -588658.75, -37800.664, 0.2173269, -0.29104474, -20486.926, 650643.6, 0.0, 10.0061865, 9.998602 
3.0041742e+3, 2.4150467e+2, 300187.13, -376254.03, -156824.66, 0.37802574, -0.3346542, 334776.3, 908005.0, 0.0, 10.007671, 9.998717 
3.0037454e+3, 2.514983e+2, -317843.8, -633060.8, -131372.31, -0.0890977, 0.0112717245, -270271.6, 205034.42, 0.0, 10.002924, 9.998475 
3.0033192e+3, 2.6149115e+2, -550122.8, -410398.88, -59546.063, -0.32897022, 0.20230938, -388465.25, -11079.939, 0.0, 9.999308, 10.0011835 
3.0029005e+3, 2.7148366e+2, -22005.326, 146924.56, 88812.734, -0.00978409, 0.02859538, 185024.0, 464465.75, 0.0, 10.0012865, 10.003323 
3.0024776e+3, 2.8147548e+2, 42028.844, -127552.2, 103570.41, -0.057718605, -0.14936225, 91089.96, 272599.66, 0.0, 10.002476, 10.000289 
3.0020505e+3, 2.914627e+2, -314386.44, -365436.84, 89114.25, -0.31859815, -0.4985172, -247213.83, -163570.08, 0.0, 10.000046, 9.999102 
3.001628e+3, 3.0146092e+2, -338305.44, -141136.4, 118138.87, -0.18956809, 0.28354892, -85851.82, -85851.82, 0.0, 9.998345, 10.000823 
