coord_x,coord_y,stress_xx,stress_yy,tau_xy,velocity_x,velocity_y,stress_1,eps,damage,lx,ly
4.999773e+0, 1.24821976e+2, -1842343.9, -1831951.1, 34428.074, 0.010045536, -0.25226653, -1802329.5, -85612.24, 0.0026923823, 9.999213, 9.999571 
4.9995217e+0, 1.3482104e+2, -1739649.9, -1628567.5, 11129.162, 0.0056076427, -0.47437045, -1627463.5, -8733.257, 0.0015911749, 9.998858, 10.000453 
4.999516e+0, 1.4482425e+2, -1612807.4, -1471698.5, 23292.584, 0.003778146, -0.20931225, -1467953.1, 52744.727, 0.0007108368, 9.99888, 10.000834 
4.9996048e+0, 1.5482466e+2, -1449236.9, -1339523.3, -5829.105, -0.009120839, -0.31420258, -1339214.4, 83473.23, 0.00020845741, 9.999325, 10.000855 
4.9997082e+0, 1.648247e+2, -1422342.8, -1430626.4, -9028.107, -0.007510564, -0.3244881, -1416551.8, -91868.5, 0.000030560106, 9.999508, 9.999473 
4.999798e+0, 1.748234e+2, -1351357.3, -1359325.8, -4539.2407, 0.007714221, -0.4451722, -1349301.8, -122608.0, 0.0000010193884, 9.99938, 9.999351 
4.9999627e+0, 1.8482329e+2, -1265100.3, -1283234.6, -1426.7339, 0.023887962, -0.38048843, -1264988.6, -136292.69, 0.0, 9.999381, 9.999195 
5.000196e+0, 1.9482428e+2, -1155083.8, -1191294.3, -48753.11, 0.041048802, -0.24718592, -1121182.6, -90491.84, 0.0, 9.999512, 9.999095 
5.000179e+0, 2.0482351e+2, -1087670.3, -1189355.5, -50805.69, 0.03177632, -0.19281216, -1066636.6, -133936.64, 0.0, 9.9996605, 9.998358 
4.9998364e+0, 2.1482047e+2, -973589.7, -1095046.3, -46029.04, -0.010310528, -0.37727723, -958116.94, -123388.7, 0.0, 9.999817, 9.9982605 
4.9996704e+0, 2.248186e+2, -872644.6, -999130.75, -19350.66, -0.028503396, -0.3829382, -869750.5, -133003.17, 0.0, 9.999854, 9.998227 
4.9997106e+0, 2.3481776e+2, -790124.3, -915857.3, -6541.9526, -0.020879444, -0.34173223, -789784.8, -151026.36, 0.0, 9.999777, 9.998166 
4.9996695e+0, 2.4481784e+2, -667627.6, -673846.06, 1471.6063, -0.0042238017, -0.20349188, -667297.0, -126536.84, 0.0, 9.999372, 9.999349 
4.9995583e+0, 2.548185e+2, -685852.56, -644570.75, -9189.196, 0.021413269, -0.12083602, -642617.6, -199862.03, 0.000000000017365094, 9.998625, 9.999239 
4.9995333e+0, 2.648175e+2, -573942.3, -514259.8, 38261.348, 0.020014836, -0.147242, -495578.6, -150815.48, 0.000000288742, 9.998612, 9.999463 
4.9995893e+0, 2.748149e+2, -368883.38, -366860.2, 44723.047, -0.012076625, -0.40241015, -323137.3, -76355.484, 0.0000032414011, 9.999353, 9.999445 
4.999803e+0, 2.848143e+2, -246798.25, -266720.72, 15833.106, -0.0012571069, -0.401106, -238053.52, -89270.31, 0.00001724438, 9.999568, 9.999346 
5.0001216e+0, 2.948142e+2, -180395.47, -172278.45, -39887.867, 0.043724135, -0.4003412, -136243.14, -85461.09, 0.00007523581, 9.999283, 9.999464 
5.000152e+0, 3.048113e+2, -135917.8, -156105.34, -46001.984, 0.04261705, -0.6345174, -98915.22, -98915.22, 0.0002887192, 9.999382, 9.999191 
4.9997735e+0, 3.1481346e+2, -79010.97, -96674.57, -47539.81, -0.008872237, -0.37105274, -39489.547, -39489.547, 0.00075781514, 9.999563, 9.999528 
1.4999306e+1, 1.2482388e+2, -1881981.3, -1845587.0, -12570.075, 0.031233102, -0.16023318, -1841667.5, -124966.37, 0.0025889925, 9.998962, 9.999615 
1.4998612e+1, 1.3482311e+2, -1761645.1, -1635808.0, 7449.13, 0.024114955, -0.31370783, -1635368.6, -16657.895, 0.0015350278, 9.998731, 10.0004835 
1.499855e+1, 1.4482565e+2, -1662469.0, -1529738.6, 27610.813, 0.01308568, -0.10284758, -1524224.0, -3539.146, 0.00068435894, 9.998706, 10.000533 
1.4998803e+1, 1.5482454e+2, -1497445.6, -1401956.3, 21856.4, -0.027241755, -0.2958633, -1397191.4, 25500.314, 0.00019662973, 9.999186, 10.000504 
1.499915e+1, 1.6482405e+2, -1413255.5, -1373030.5, -22867.28, -0.01884464, -0.36310026, -1362689.3, -37997.28, 0.000026649353, 9.99936, 9.999949 
1.4999439e+1, 1.7482364e+2, -1331407.8, -1287942.6, 847.52747, 0.026683344, -0.4196484, -1287926.0, -61234.902, 0.00000066228677, 9.999261, 9.999911 
1.4999862e+1, 1.8482293e+2, -1353500.4, -1419987.9, -5479.879, 0.071332745, -0.40268263, -1353051.8, -224352.8, 0.0, 9.999206, 9.998348 
1.5000597e+1, 1.948219e+2, -1240289.8, -1329096.4, -32286.893, 0.12484477, -0.3585533, -1229792.3, -199076.1, 0.0, 9.99936, 9.998233 
1.5000515e+1, 2.0482114e+2, -1083362.4, -1132203.3, -52463.137, 0.09565309, -0.28363183, -1049914.5, -117187.46, 0.0, 9.999479, 9.998845 
1.4999497e+1, 2.1482049e+2, -963545.0, -1027894.56, -26923.809, -0.030611642, -0.2548104, -953766.1, -119033.41, 0.0, 9.9996395, 9.998815 
1.4999e+1, 2.2481956e+2, -846602.4, -901234.7, -32622.873, -0.08443205, -0.2364015, -831369.5, -94628.336, 0.0, 9.99969, 9.998984 
1.4999108e+1, 2.3481826e+2, -765098.1, -817551.25, 2431.9182, -0.06323201, -0.28437868, -764985.6, -126233.234, 0.0, 9.9996, 9.998931 
1.4999023e+1, 2.4481736e+2, -685646.5, -676487.9, -36141.996, -0.011431244, -0.2857913, -644636.25, -103875.58, 0.0, 9.999238, 9.999404 
1.499867e+1, 2.5481668e+2, -703286.94, -633696.44, -27958.713, 0.06445864, -0.32188827, -623855.4, -181087.53, 0.0, 9.998441, 9.999411 
1.4998609e+1, 2.648159e+2, -557828.3, -444065.66, 55808.063, 0.06194986, -0.36985427, -421259.94, -76487.02, 0.00000013049092, 9.998477, 10.00002 
1.4998803e+1, 2.748151e+2, -361232.03, -308044.0, 80593.08, -0.03250932, -0.4686199, -249770.55, -2996.285, 0.0000023602508, 9.999183, 9.999945 
1.4999364e+1, 2.848155e+2, -348902.25, -440827.34, -1862.3038, -0.0067625684, -0.3372935, -348864.53, -200093.83, 0.000014211254, 9.999432, 9.998225 
1.5000357e+1, 2.9481602e+2, -291255.16, -350290.28, -32083.928, 0.12923631, -0.13271196, -277176.1, -226403.84, 0.00006483318, 9.99907, 9.998356 
1.5000491e+1, 3.0481306e+2, -134648.78, -97722.42, -43870.78, 0.13647152, -0.33385476, -68587.98, -68587.98, 0.00025577057, 9.999206, 9.99969 
1.49993e+1, 3.148111e+2, -70968.83, 15314.953, -10061.496, -0.025058614, -0.49874493, 16472.684, 16472.684, 0.0006795775, 9.999212, 10.000481 
2.4998921e+1, 1.2482433e+2, -1709897.0, -1721846.4, -33734.902, 0.056848377, -0.14876515, -1681611.8, 35087.664, 0.002469872, 10.000003, 9.999932 
2.4997249e+1, 1.348242e+2, -1690561.8, -1589009.9, -27302.67, 0.0020218827, -0.26466095, -1582134.9, 36564.74, 0.001465867, 9.999196, 10.000565 
2.4997307e+1, 1.4482637e+2, -1703992.8, -1615664.0, 58589.926, 0.025805714, -0.06582631, -1586457.6, -65780.68, 0.0006493342, 9.998727, 9.999916 
2.4998617e+1, 1.548241e+2, -1617668.3, -1535320.8, 18027.611, 0.067543715, -0.3217308, -1531547.1, -108849.8, 0.00018140074, 9.998692, 9.999818 
2.4999283e+1, 1.6482334e+2, -1465900.9, -1403488.0, -15145.124, 0.08139226, -0.3763349, -1400007.0, -75305.51, 0.000022322774, 9.999038, 9.999879 
2.4999307e+1, 1.7482373e+2, -1259180.8, -1254291.1, -45093.95, 0.06764921, -0.35670787, -1211575.8, 15117.265, 0.00000035252413, 9.999792, 9.9998665 
2.4999733e+1, 1.8482292e+2, -1223127.1, -1395265.1, -33398.805, 0.09148529, -0.32987127, -1216874.1, -88172.625, 0.0, 10.0002575, 9.998004 
2.5000736e+1, 1.9482091e+2, -1131561.4, -1311996.8, -28204.977, 0.16402715, -0.3586202, -1127255.3, -96527.68, 0.0, 10.000264, 9.9979 
2.500068e+1, 2.0481998e+2, -978178.7, -1067682.9, -13343.768, 0.13743931, -0.29072827, -976231.7, -43491.496, 0.0, 10.000132, 9.998968 
2.4999464e+1, 2.1482e+2, -937059.75, -1002511.6, -25428.975, 0.002057427, -0.21777476, -928341.5, -93601.305, 0.0, 9.999764, 9.998921 
2.4998781e+1, 2.2481938e+2, -837856.0, -845678.25, -24654.156, -0.0620226, -0.19236608, -816804.6, -80060.65, 0.0, 9.999519, 9.99944 
2.4998735e+1, 2.3481804e+2, -769868.75, -772881.3, -19099.568, -0.0428724, -0.30252576, -752216.2, -113463.68, 0.0, 9.999351, 9.9993515 
2.4998625e+1, 2.4481688e+2, -678831.25, -711720.4, -53536.37, 0.018537022, -0.33348835, -639270.75, -98508.516, 0.0, 9.999466, 9.999038 
2.4998415e+1, 2.548157e+2, -520920.3, -591833.44, -91024.15, 0.12892404, -0.3876754, -458690.84, -15915.186, 0.0, 9.999893, 9.998988 
2.4998304e+1, 2.6481494e+2, -385344.8, -372160.9, -16238.412, 0.12715204, -0.400439, -361227.44, -16445.783, 0.00000003137998, 9.999727, 9.999896 
2.4998261e+1, 2.7481487e+2, -406999.56, -338905.56, -52832.777, 0.013972265, -0.42686728, -310099.56, -63321.523, 0.0000016165861, 9.99893, 9.999836 
2.4998735e+1, 2.8481522e+2, -420567.56, -482139.6, -74005.2, 0.017137595, -0.28922585, -371200.28, -222424.72, 0.000011342512, 9.998966, 9.998162 
2.4999966e+1, 2.9481527e+2, -195562.45, -314635.13, -33010.188, 0.15562831, -0.13577652, -187023.48, -136241.55, 0.000053962976, 9.999793, 9.998241 
2.5000575e+1, 3.0481327e+2, -12637.754, -56800.66, -806.4232, 0.1900145, -0.22527029, -12623.033, -12623.033, 0.00022089553, 10.000125, 9.999535 
2.4999864e+1, 3.1481016e+2, 48295.074, 121496.76, -49517.438, 0.09661016, -0.50750977, 146471.88, 146471.88, 0.000598242, 9.9998455, 10.000895 
3.4998372e+1, 1.2482336e+2, -1677476.5, -1629659.3, -99491.34, -0.056300446, -0.2634585, -1551244.1, 165467.66, 0.0023442989, 9.999901, 10.000619 
3.4995052e+1, 1.3482441e+2, -1657785.1, -1507181.5, -50173.004, -0.16672662, -0.2993497, -1491997.4, 126698.59, 0.0013882996, 9.999155, 10.001142 
3.499547e+1, 1.4482641e+2, -1766167.1, -1724693.0, 44684.832, -0.06436181, -0.11235609, -1696168.0, -175494.08, 0.0006086515, 9.998643, 9.9992075 
3.499872e+1, 1.5482336e+2, -1673795.6, -1632929.6, 29046.506, 0.17795785, -0.3699068, -1617849.3, -195145.08, 0.00016439817, 9.998626, 9.999173 
3.4999943e+1, 1.6482255e+2, -1504797.4, -1469700.4, 73.56005, 0.21493313, -0.37945515, -1469700.3, -144988.66, 0.000017966355, 9.998963, 9.999472 
3.4999138e+1, 1.748235e+2, -1294828.0, -1322110.0, -4803.221, 0.043181617, -0.2571167, -1294007.0, -67305.97, 0.00000014192928, 9.999758, 9.999425 
3.4999293e+1, 1.8482305e+2, -1211218.6, -1342661.3, -41257.598, -0.0043790746, -0.19012126, -1199341.8, -70636.0, 0.0, 10.000146, 9.998415 
3.500034e+1, 1.9482115e+2, -1112640.0, -1252156.6, -16462.307, 0.07053562, -0.24493144, -1110723.9, -79997.414, 0.0, 10.000178, 9.998351 
3.5000423e+1, 2.0481987e+2, -997535.6, -1074980.1, -39425.234, 0.07535071, -0.23663667, -980997.06, -48256.29, 0.0, 9.999998, 9.998982 
3.499949e+1, 2.1481898e+2, -955016.1, -1008406.9, -29157.498, 0.0036323424, -0.24893421, -942179.2, -107428.56, 0.0, 9.999635, 9.998942 
3.4998783e+1, 2.2481808e+2, -831850.0, -796499.06, -38600.055, -0.036624867, -0.2722535, -771720.0, -34963.62, 0.0, 9.999369, 9.99985 
3.4998313e+1, 2.3481716e+2, -758977.25, -715096.25, -14493.162, -0.044956394, -0.3759389, -710741.56, -71983.54, 0.0, 9.999207, 9.999816 
3.4998244e+1, 2.4481641e+2, -740814.0, -815549.75, -47342.867, 0.01235737, -0.35951242, -717868.5, -177103.89, 0.0, 9.999357, 9.998382 
3.499857e+1, 2.548156e+2, -587678.4, -699780.1, -63097.523, 0.130515, -0.30047318, -559331.4, -116553.02, 0.0, 9.999765, 9.998309 
3.4998405e+1, 2.6481485e+2, -438067.2, -467419.97, -53579.566, 0.14224215, -0.250743, -397190.28, -52402.05, 0.0000000045955626, 9.999662, 9.999276 
3.4997618e+1, 2.7481425e+2, -465204.1, -433283.4, -69974.19, 0.03018573, -0.26437238, -377472.44, -130679.73, 0.0000011861115, 9.998814, 9.999247 
3.4997684e+1, 2.8481346e+2, -347198.34, -310727.7, -54482.773, -0.009506771, -0.2671497, -271509.56, -122711.22, 0.000009324045, 9.998892, 9.999373 
3.4998646e+1, 2.9481184e+2, -134555.73, -162124.38, 6848.7817, 0.014503361, -0.39835352, -132948.06, -82135.79, 0.00004426637, 9.999687, 9.999341 
3.5000035e+1, 3.048116e+2, -53028.668, -136113.34, -19164.19, 0.10092494, -0.33820176, -48821.34, -48821.34, 0.00018827697, 10.00009, 9.999004 
3.5000905e+1, 3.1481072e+2, 39389.656, 112949.24, -33095.734, 0.16208184, -0.34744483, 125647.53, 125647.53, 0.00052441156, 9.999782, 10.000869 
4.4996476e+1, 1.248231e+2, -2162996.5, -1818569.4, -43619.418, -0.037502643, -0.25237212, -1813131.1, -96415.96, 0.0022184679, 9.9964075, 10.000992 
4.4995394e+1, 1.3482383e+2, -1509283.0, -1431271.8, -79166.62, -0.08170381, -0.32848364, -1382023.3, 236677.72, 0.0013082918, 10.0001545, 10.0011835 
4.49966e+1, 1.4482537e+2, -1346290.8, -1564342.5, -29746.117, 0.04479599, -0.1680369, -1342305.8, 178377.44, 0.00056754425, 10.001711, 9.998838 
4.4998607e+1, 1.5482289e+2, -1359821.6, -1530928.1, -52847.61, 0.19840042, -0.32201642, -1344815.3, 77894.52, 0.00014805637, 10.000989, 9.99875 
4.4999695e+1, 1.6482203e+2, -1303447.8, -1411956.8, -19305.408, 0.22695085, -0.29754934, -1300115.4, 24604.166, 0.000013959289, 10.000519, 9.999115 
4.4999978e+1, 1.7482227e+2, -1232935.5, -1333218.0, -41512.406, 0.13056831, -0.20792028, -1217981.3, 8735.705, 0.000000037538413, 10.000352, 9.999064 
4.5000118e+1, 1.8482156e+2, -1171632.0, -1267407.6, -65078.37, 0.07168103, -0.17233267, -1138721.1, -9997.756, 0.0, 10.000174, 9.99893 
4.499995e+1, 1.9481999e+2, -1126475.1, -1199666.4, -51648.656, 0.04015766, -0.24623343, -1099771.3, -69033.75, 0.0, 9.999832, 9.998884 
4.4999638e+1, 2.0481895e+2, -1066116.0, -1104618.6, -57318.023, 0.031007245, -0.24131878, -1024902.7, -92154.46, 0.0, 9.999505, 9.999022 
4.4999233e+1, 2.1481827e+2, -1030472.5, -1042525.9, -66218.3, 0.05143059, -0.2356692, -970007.2, -135250.23, 0.0, 9.999101, 9.998969 
4.4998893e+1, 2.248173e+2, -848823.1, -806811.8, -41901.605, 0.052771144, -0.26726562, -780945.5, -44181.35, 0.0, 9.999261, 9.999833 
4.4998604e+1, 2.3481597e+2, -647370.2, -664747.2, -69575.81, 0.032878272, -0.4096148, -585942.44, 52827.84, 0.0, 9.999995, 9.999786 
4.4998446e+1, 2.4481538e+2, -596964.8, -725632.3, -74518.375, 0.060399957, -0.379974, -562851.5, -22076.896, 0.0, 10.000264, 9.998556 
4.499842e+1, 2.5481534e+2, -534910.94, -657042.5, -44780.695, 0.1318309, -0.26221696, -520251.3, -77471.44, 0.0, 10.000052, 9.998461 
4.499814e+1, 2.648147e+2, -444303.78, -522273.7, 88.48412, 0.14725304, -0.1878366, -444303.7, -99514.125, 0.000000013083459, 9.999852, 9.998804 
4.4997624e+1, 2.748135e+2, -365964.63, -445052.63, -24565.596, 0.11185086, -0.21019405, -358955.47, -112152.7, 0.0000010541644, 9.999744, 9.998726 
4.4997635e+1, 2.848121e+2, -206409.13, -185929.55, 20945.14, 0.068855666, -0.2732126, -172855.14, -24041.6, 0.000008050424, 9.99962, 9.999886 
4.4998088e+1, 2.948099e+2, -131458.83, -108816.44, 6831.4634, 0.008933874, -0.5116336, -106914.99, -56087.137, 0.00003666787, 9.999489, 9.99981 
4.4999555e+1, 3.0480996e+2, -176850.58, -238412.52, -27597.527, 0.086313814, -0.42239535, -166290.39, -166290.39, 0.0001603948, 9.999418, 9.998621 
4.5000786e+1, 3.148107e+2, -41627.89, 38624.863, -62249.277, 0.204793, -0.24223515, 72559.94, 72559.94, 0.00046251278, 9.999376, 10.000549 
5.499199e+1, 1.2482393e+2, -2168532.0, -1852506.6, 54938.18, -0.20228978, -0.09985423, -1843228.5, -126522.63, 0.0020911084, 9.996486, 10.000726 
5.4997915e+1, 1.3482249e+2, -1536451.4, -1503985.3, 74265.05, 0.11335594, -0.3444971, -1444199.9, 174513.78, 0.0012261746, 10.000218, 10.000651 
5.500045e+1, 1.448233e+2, -1350979.0, -1582254.3, -68936.766, 0.21642312, -0.22587469, -1331989.9, 188714.34, 0.0005263589, 10.001736, 9.998709 
5.4997885e+1, 1.5482272e+2, -1365370.5, -1552142.1, -68400.39, -0.00839659, -0.17641068, -1343000.0, 79713.97, 0.00013276051, 10.001022, 9.998591 
5.4997975e+1, 1.648218e+2, -1335960.8, -1468616.1, -36925.7, -0.029626215, -0.12863265, -1326374.9, -1650.2836, 0.0000106646075, 10.000477, 9.998742 
5.500135e+1, 1.7482e+2, -1259829.4, -1383686.1, -38171.246, 0.19875613, -0.21177591, -1249010.5, -22268.74, 0.000000007551507, 10.000334, 9.998724 
5.500186e+1, 1.848185e+2, -1136366.1, -1179199.3, -90396.336, 0.2008611, -0.2709039, -1064884.0, 63870.125, 0.0, 10.000108, 9.999567 
5.4999185e+1, 1.948174e+2, -1086729.6, -1107794.6, -55623.367, -0.049532473, -0.36286905, -1040650.3, -9889.057, 0.0, 9.999793, 9.999534 
5.499795e+1, 2.0481722e+2, -1075060.5, -1100433.5, -81111.055, -0.11435505, -0.309552, -1005649.8, -72887.195, 0.0, 9.999411, 9.999092 
5.49983e+1, 2.1481784e+2, -1038148.3, -1038739.8, -70821.984, 0.020149862, -0.17953905, -967621.5, -132862.02, 0.0, 9.999018, 9.999033 
5.499873e+1, 2.2481701e+2, -890981.3, -874865.8, -24193.055, 0.08377825, -0.1827042, -857423.94, -120656.375, 0.0, 9.999177, 9.999407 
5.4999286e+1, 2.3481451e+2, -691052.94, -735238.9, -31320.012, 0.07559837, -0.39630532, -674817.8, -36029.426, 0.0, 9.999907, 9.999345 
5.499884e+1, 2.4481384e+2, -538692.9, -589083.0, -89176.0, 0.046864778, -0.40035012, -471221.06, 69571.29, 0.0, 10.0002, 9.999522 
5.499748e+1, 2.5481492e+2, -482548.3, -515662.84, -43660.16, 0.0031910453, -0.27391413, -452411.3, -9630.771, 0.0, 9.999921, 9.99949 
5.499711e+1, 2.6481453e+2, -475071.4, -578077.2, -14432.316, 0.032656927, -0.20908466, -473087.5, -128301.64, 0.000000016276152, 9.999811, 9.998443 
5.499795e+1, 2.7481258e+2, -404442.78, -508241.7, -18882.555, 0.1421474, -0.2663031, -401114.47, -154305.66, 0.00000094951764, 9.999666, 9.998332 
5.499823e+1, 2.8481108e+2, -222992.1, -212524.03, 6035.385, 0.14048105, -0.31329587, -209769.27, -60947.816, 0.0000068870954, 9.999591, 9.999714 
5.4997915e+1, 2.948094e+2, -155685.0, -139453.64, 13050.83, 0.010445325, -0.481083, -132200.9, -81371.93, 0.000030486934, 9.999397, 9.999645 
5.499878e+1, 3.0480835e+2, -194780.89, -256545.47, -32749.184, 0.041278645, -0.4875273, -180649.58, -180649.58, 0.00013676572, 9.999349, 9.99853 
5.4998773e+1, 3.1480992e+2, -95403.54, -50485.813, -25372.188, 0.010199295, -0.21300955, -39060.336, -39060.336, 0.00040932593, 9.999289, 9.999975 
6.499155e+1, 1.2482222e+2, -1580631.0, -1631305.5, 24893.492, -0.08942893, -0.09433759, -1570448.4, 146271.08, 0.0019647046, 10.000743, 10.000215 
6.4998275e+1, 1.3482013e+2, -1754152.9, -1685462.6, -7973.693, 0.19956075, -0.32831785, -1684549.1, -65813.05, 0.0011417874, 9.99903, 9.999992 
6.500124e+1, 1.4482026e+2, -1776540.0, -1752366.3, -131141.02, 0.28597805, -0.2613016, -1632756.3, -112021.54, 0.0004823996, 9.998669, 9.999014 
6.499832e+1, 1.5482037e+2, -1478397.9, -1564881.5, -122624.11, -0.00917617, -0.17560546, -1391614.6, 31122.502, 0.00011742101, 10.00008, 9.998944 
6.499824e+1, 1.6481976e+2, -1304739.0, -1433936.9, -54878.03, -0.048602775, -0.12709346, -1284575.8, 40168.71, 0.000008467286, 10.000606, 9.998925 
6.5001506e+1, 1.748178e+2, -1293309.0, -1380951.6, -36061.53, 0.2043626, -0.24059251, -1280378.8, -53616.24, 0.000000004638606, 10.000029, 9.998893 
6.500203e+1, 1.8481648e+2, -1162329.3, -1175696.0, -55917.914, 0.22825173, -0.2962651, -1112696.8, 16076.744, 0.0, 9.9998665, 9.9997015 
6.49995e+1, 1.9481586e+2, -1032368.25, -1067219.4, -83098.49, -0.00427991, -0.3533204, -964887.94, 65889.086, 0.0, 10.000102, 9.999663 
6.499806e+1, 2.048158e+2, -933128.56, -984920.9, -108413.63, -0.07543525, -0.31250137, -847561.1, 85214.945, 0.0, 10.000178, 9.999521 
6.4997816e+1, 2.1481626e+2, -874356.75, -910416.4, -88500.664, 0.03081686, -0.24296127, -802068.0, 32703.533, 0.0, 9.999932, 9.999474 
6.499824e+1, 2.2481571e+2, -832674.44, -861484.0, 18075.822, 0.09994619, -0.23181786, -823965.75, -87189.03, 0.0, 9.99964, 9.999278 
6.499933e+1, 2.3481406e+2, -791727.1, -798057.75, 13454.423, 0.12764418, -0.3478989, -781070.7, -142278.14, 0.0, 9.999274, 9.999221 
6.499915e+1, 2.4481331e+2, -640917.1, -639409.5, -45980.723, 0.10142429, -0.35401043, -594176.44, -53378.465, 0.0, 9.999484, 9.999543 
6.4997673e+1, 2.548134e+2, -427960.25, -486967.38, -94504.61, 0.021071602, -0.32467157, -358460.88, 84332.63, 0.0, 10.000276, 9.999535 
6.4997274e+1, 2.6481247e+2, -403202.3, -564575.44, -99691.41, 0.04581299, -0.30437338, -355636.4, -10832.776, 0.00000000394634, 10.000386, 9.998268 
6.4998156e+1, 2.7481055e+2, -389055.44, -514479.66, -106770.63, 0.19472802, -0.3443881, -327941.94, -81113.805, 0.0000007712445, 9.9998455, 9.998197 
6.499847e+1, 2.848098e+2, -212268.05, -216430.64, -36492.383, 0.20910735, -0.307766, -177797.66, -28962.748, 0.000006042053, 9.999701, 9.999634 
6.499832e+1, 2.948096e+2, -94414.14, -108423.555, -46809.566, 0.09999865, -0.31863958, -54088.082, -3259.3342, 0.000026514312, 9.999826, 9.999642 
6.499873e+1, 3.048072e+2, -119920.016, -162192.88, -52169.164, 0.098626584, -0.49269262, -84768.164, -84768.164, 0.000119780976, 9.999606, 9.999056 
6.4997536e+1, 3.148084e+2, -173620.02, -131875.1, -33376.13, -0.010275491, -0.2946322, -113382.27, -113382.27, 0.00036687037, 9.998927, 9.999605 
7.49945e+1, 1.24817625e+2, -1608121.5, -1698058.1, -71035.56, 0.06214567, -0.24238767, -1569017.1, 147742.02, 0.0018421272, 10.000795, 9.999723 
7.4995947e+1, 1.3481662e+2, -1802347.6, -1797034.4, -69501.484, 0.027122993, -0.2932526, -1730138.8, -111368.92, 0.0010580781, 9.999083, 9.999202 
7.499828e+1, 1.4481623e+2, -1721435.1, -1638770.6, -93344.375, 0.08559016, -0.2741803, -1578017.0, -57242.582, 0.0004375462, 9.998672, 9.999793 
7.499956e+1, 1.5481582e+2, -1419815.3, -1453199.4, -56507.92, 0.07165295, -0.32345352, -1377585.5, 45194.15, 0.00010224, 10.0001135, 9.9997015 
7.500011e+1, 1.6481584e+2, -1259046.0, -1329763.9, -85649.78, 0.048838038, -0.2853941, -1201743.5, 123035.734, 0.000007138289, 10.000568, 9.999654 
7.500012e+1, 1.7481567e+2, -1243918.1, -1278007.6, -48211.297, 0.033077676, -0.29409796, -1209827.3, 16951.65, 0.00000003688298, 10.000025, 9.9996 
7.500028e+1, 1.8481547e+2, -1197195.4, -1241966.4, -57313.723, 0.039290674, -0.25312534, -1158050.6, -29269.418, 0.0, 9.999833, 9.999268 
7.5000536e+1, 1.9481528e+2, -1066216.1, -1132004.1, -64228.996, 0.05833631, -0.22380427, -1026948.0, 3837.6274, 0.0, 10.000075, 9.999233 
7.499964e+1, 2.0481472e+2, -890027.94, -879328.1, -125966.69, 0.039843947, -0.2516318, -758597.75, 174191.25, 0.0, 10.000108, 10.000279 
7.499745e+1, 2.1481349e+2, -830339.06, -801791.44, -88273.16, -0.025533887, -0.4296351, -726645.5, 108148.055, 0.0, 9.999849, 10.000263 
7.499702e+1, 2.248134e+2, -837454.5, -848770.7, -4303.1934, -0.009489478, -0.41910815, -836004.06, -99212.234, 0.0, 9.999545, 9.99941 
7.4998415e+1, 2.3481447e+2, -800762.9, -791796.7, 11538.012, 0.085243985, -0.2769548, -783901.44, -145117.36, 0.0, 9.999163, 9.999319 
7.499897e+1, 2.4481376e+2, -717503.2, -780258.7, -25354.59, 0.1122342, -0.24049559, -708539.6, -167747.98, 0.0, 9.999411, 9.998606 
7.499869e+1, 2.5481087e+2, -510448.84, -638432.25, -55428.01, 0.06959299, -0.4146097, -489781.22, -46962.883, 0.0, 10.000183, 9.99854 
7.4998266e+1, 2.6480868e+2, -413123.88, -564660.5, -126914.98, 0.08401216, -0.46818462, -341080.66, 3761.1062, 0.00000000015133415, 10.000311, 9.9983 
7.499781e+1, 2.7480742e+2, -401783.97, -515125.38, -111967.04, 0.14718774, -0.44719455, -332962.9, -86102.68, 0.00000065427645, 9.99974, 9.998241 
7.4998015e+1, 2.8480822e+2, -215442.69, -213382.22, -40872.113, 0.16619024, -0.25843975, -173527.36, -24673.635, 0.0000058927376, 9.999658, 9.999676 
7.4998903e+1, 2.9481044e+2, -99226.05, -101046.55, -31755.87, 0.14384884, -0.034366146, -68367.38, -17539.488, 0.000025865007, 9.999738, 9.9997425 
7.499902e+1, 3.0480623e+2, -54021.79, -10945.358, -79506.875, 0.140953, -0.44803035, 49888.984, 49888.984, 0.000112007656, 9.999554, 10.000113 
7.499635e+1, 3.148058e+2, -202910.14, -159579.77, -27381.43, -0.07340001, -0.51920485, -146329.0, -146329.0, 0.00034011903, 9.998789, 9.999474 
8.4995633e+1, 1.24814294e+2, -1644220.6, -1740399.0, 7512.563, 0.11578067, -0.36948073, -1643637.4, 73148.26, 0.0017237901, 10.000672, 9.99948 
8.4995824e+1, 1.3481408e+2, -1576065.4, -1720993.3, -4234.128, 0.033330854, -0.30648607, -1575941.8, 42849.5, 0.0009802121, 10.0008, 9.99888 
8.499815e+1, 1.4481342e+2, -1457903.0, -1498556.3, 31974.93, 0.1280449, -0.30812258, -1440340.8, 80459.48, 0.00039778455, 10.000408, 9.999927 
8.500047e+1, 1.5481317e+2, -1496412.4, -1474123.6, -4525.933, 0.18837202, -0.3533006, -1473239.6, -50435.99, 0.000088897265, 9.999515, 9.999846 
8.500075e+1, 1.6481346e+2, -1429530.6, -1369539.0, -63981.867, 0.13088739, -0.31363818, -1328870.6, -4070.3254, 0.000006071428, 9.999215, 10.000034 
8.499913e+1, 1.7481366e+2, -1299507.3, -1258715.6, -72687.484, -0.032286514, -0.32313177, -1203616.6, 23179.344, 0.000000076650345, 9.999448, 10.00001 
8.4999055e+1, 1.8481386e+2, -1251483.8, -1254647.6, -51914.504, -0.03848975, -0.2685622, -1201127.1, -72332.34, 0.0, 9.999407, 9.999385 
8.5000664e+1, 1.9481418e+2, -1215870.3, -1192817.0, -36155.438, 0.12466989, -0.19842704, -1166395.3, -135599.75, 0.0, 9.999002, 9.999332 
8.5000384e+1, 2.0481357e+2, -1036392.5, -951883.1, -79395.57, 0.1594641, -0.23273525, -904198.3, 28601.236, 0.0, 9.99912, 10.000253 
8.499796e+1, 2.1481179e+2, -849026.94, -815443.1, -126368.32, 0.0518541, -0.46114597, -704755.94, 130053.18, 0.0, 9.999747, 10.000217 
8.499718e+1, 2.2481145e+2, -758991.2, -827594.75, -80410.53, 0.028085014, -0.46544808, -705871.75, 30938.248, 0.0, 10.000168, 9.9992485 
8.499825e+1, 2.3481266e+2, -642709.25, -731583.06, -107493.86, 0.10164331, -0.29000953, -570829.5, 67971.95, 0.0, 10.000331, 9.999161 
8.499887e+1, 2.4481216e+2, -614465.2, -716105.94, -90272.39, 0.13485362, -0.23014525, -561691.06, -20883.078, 0.0, 10.000054, 9.998729 
8.499906e+1, 2.5480965e+2, -618403.75, -672122.06, -57001.418, 0.13673733, -0.37917107, -582250.4, -139418.19, 0.0, 9.999377, 9.998685 
8.4998655e+1, 2.648078e+2, -493323.3, -555716.6, -47379.563, 0.13813177, -0.4317922, -467792.06, -122940.07, 0.0000000019213902, 9.999528, 9.998749 
8.4997785e+1, 2.748067e+2, -276998.53, -406027.97, -22387.54, 0.14731754, -0.44070375, -273224.53, -26358.045, 0.0000006294421, 10.000362, 9.9987 
8.499763e+1, 2.8480768e+2, -187977.4, -222883.4, 45248.367, 0.1553518, -0.24805452, -156932.77, -8073.783, 0.0000062489003, 9.999936, 9.999479 
8.4998274e+1, 2.9481027e+2, -307086.88, -215508.84, 16825.2, 0.18550658, 0.031518143, -212515.47, -161681.67, 0.000027811611, 9.998376, 9.99961 
8.499849e+1, 3.0480605e+2, -187621.03, -41440.69, -5646.852, 0.1965508, -0.39076746, -41222.883, -41222.883, 0.00011221668, 9.998468, 10.0004425 
8.499678e+1, 3.1480634e+2, -76454.77, -128938.22, -44948.203, 0.05526516, -0.42119336, -50648.74, -50648.74, 0.00032879677, 9.999769, 9.999215 
9.499428e+1, 1.2481244e+2, -1641807.9, -1738415.9, -27342.748, -0.15043874, -0.4576979, -1634606.0, 82190.875, 0.0016162735, 10.0006895, 9.999481 
9.499743e+1, 1.3481256e+2, -1561185.3, -1708739.4, 9595.723, 0.07881838, -0.37077996, -1560563.9, 58236.26, 0.000914127, 10.000875, 9.998927 
9.500051e+1, 1.4481176e+2, -1491239.9, -1568866.5, -11728.594, 0.2905966, -0.3641122, -1489506.5, 31305.512, 0.00036652523, 10.000415, 9.999438 
9.5000684e+1, 1.5481244e+2, -1532953.1, -1552576.6, -26557.945, 0.22631948, -0.26522636, -1514452.4, -91643.52, 0.00007896126, 9.999525, 9.999302 
9.499988e+1, 1.6481268e+2, -1431962.9, -1366320.5, -66465.984, 0.09620296, -0.20276634, -1325013.8, -206.56793, 0.000005121987, 9.999178, 10.000075 
9.4998115e+1, 1.7481181e+2, -1294085.4, -1246742.9, -53260.523, -0.1084971, -0.32694444, -1212130.3, 14683.081, 0.00000007826353, 9.999446, 10.000092 
9.4998e+1, 1.848117e+2, -1215159.0, -1169029.5, -75224.664, -0.108931236, -0.33888027, -1113413.0, 15400.73, 0.0, 9.999358, 9.999998 
9.499959e+1, 1.9481252e+2, -1178573.9, -1104952.8, -39668.496, 0.08941713, -0.2831575, -1087646.8, -56839.887, 0.0, 9.998957, 9.999957 
9.499997e+1, 2.0481242e+2, -1110698.0, -1088545.9, -65489.176, 0.18204352, -0.25424874, -1033202.8, -100395.29, 0.0, 9.99904, 9.999354 
9.4998926e+1, 2.1481107e+2, -926840.4, -956892.5, -90880.66, 0.14759375, -0.3483816, -849752.0, -14932.916, 0.0, 9.999658, 9.9992895 
9.4998384e+1, 2.2480977e+2, -807018.3, -909358.9, -81705.94, 0.105840035, -0.37569982, -761781.9, -24949.943, 0.0, 10.000084, 9.998728 
9.499846e+1, 2.3480846e+2, -689021.6, -811688.3, -92458.1, 0.062698536, -0.40542194, -639403.25, -556.5535, 0.0, 10.00025, 9.998653 
9.4998497e+1, 2.4480844e+2, -541450.3, -545773.9, -125673.66, 0.06830697, -0.33136305, -417919.84, 122928.24, 0.0, 9.999975, 9.999936 
9.499844e+1, 2.5480965e+2, -541235.4, -499953.9, -69545.35, 0.10912171, -0.23615605, -448050.88, -5214.2617, 0.0, 9.999314, 9.999902 
9.499812e+1, 2.6480958e+2, -443428.25, -432902.3, -25798.63, 0.10958954, -0.21337374, -411835.28, -66998.68, 0.0000000017799018, 9.999455, 9.9996195 
9.4997674e+1, 2.748082e+2, -231777.45, -285773.75, 17677.547, 0.07331784, -0.34031114, -226504.94, 20343.732, 0.0000005677249, 10.000254, 9.999574 
9.4996977e+1, 2.8480813e+2, -226143.0, -290643.06, -22806.834, 0.07160425, -0.27348444, -218893.47, -70042.9, 0.0000064583187, 9.9998865, 9.999036 
9.4996023e+1, 2.94809e+2, -352761.75, -289653.3, -22660.104, 0.091770105, -0.12094451, -282359.75, -231513.48, 0.000029725905, 9.998282, 9.9991455 
9.4996756e+1, 3.048067e+2, -216012.86, -92390.375, 38014.383, 0.15324482, -0.31748468, -81636.32, -81636.32, 0.00011359456, 9.998431, 10.000107 
9.4998014e+1, 3.1481013e+2, -124811.586, -199446.55, 38693.766, 0.14647654, 0.0054275156, -108372.195, -108372.195, 0.0003216318, 9.999639, 9.998795 
1.0499587e+2, 1.2481101e+2, -1694979.1, -1780171.4, 28309.117, -0.029988553, -0.53065366, -1686430.0, 30376.217, 0.0015309328, 10.0003605, 9.99937 
1.04998104e+2, 1.3481155e+2, -1527826.5, -1698779.1, 17565.041, 0.057873346, -0.3956566, -1526040.5, 92765.85, 0.0008642909, 10.001105, 9.998899 
1.0500063e+2, 1.4481041e+2, -1393930.8, -1531052.9, -9725.34, 0.23302916, -0.4201987, -1393244.5, 127577.56, 0.00034447288, 10.001147, 9.999335 
1.05000414e+2, 1.548112e+2, -1397897.0, -1509136.8, -19688.404, 0.20500244, -0.28937507, -1394515.3, 28302.621, 0.00007296801, 10.000551, 9.999109 
1.0499968e+2, 1.6481146e+2, -1314324.5, -1306424.9, 1130.0732, 0.1256909, -0.21703987, -1306266.4, 18549.83, 0.000004414203, 9.999982, 10.00009 
1.0499867e+2, 1.7481057e+2, -1298718.6, -1251570.8, -12043.558, 0.010755205, -0.3441053, -1248672.5, -21849.31, 0.000000050630582, 9.9994335, 10.000059 
1.0499841e+2, 1.8481022e+2, -1200812.4, -1140724.5, -31151.393, 0.0008662237, -0.38628644, -1127489.8, 1335.4939, 0.0, 9.999367, 10.000183 
1.0499878e+2, 1.9481058e+2, -1068837.9, -1032535.1, -53084.387, 0.08693885, -0.3970452, -994584.56, 36236.645, 0.0, 9.999624, 10.000129 
1.0499919e+2, 2.0481072e+2, -972119.9, -1064944.0, -27382.508, 0.15049326, -0.33379477, -964644.25, -31823.322, 0.0, 10.000183, 9.998964 
1.04999684e+2, 2.1481048e+2, -764318.0, -921371.06, -34483.043, 0.19953719, -0.2790107, -757080.4, 77746.06, 0.0, 10.000965, 9.998901 
1.0499932e+2, 2.2480932e+2, -702763.75, -854302.25, -11100.329, 0.16278556, -0.27356905, -701954.94, 34884.273, 0.0, 10.000776, 9.99878 
1.0499813e+2, 2.3480716e+2, -787166.25, -852733.0, -1306.6154, 0.04573221, -0.39066496, -787140.2, -148279.64, 0.0, 9.999552, 9.998713 
1.0499758e+2, 2.448068e+2, -691951.94, -621230.0, -31947.74, 0.035041016, -0.35238135, -608935.4, -68070.41, 0.0, 9.998954, 9.99991 
1.0499784e+2, 2.5480825e+2, -593381.56, -526263.06, -90376.01, 0.14064255, -0.22720383, -463416.7, -20564.533, 0.0, 9.998976, 9.999879 
1.0499769e+2, 2.648087e+2, -488437.97, -382427.3, -63220.574, 0.15756704, -0.1825341, -352931.7, -8085.1396, 0.00000000014537505, 9.998847, 10.000255 
1.0499729e+2, 2.7480808e+2, -429791.16, -311289.78, -59309.855, 0.100308664, -0.2971742, -286705.5, -39856.656, 0.00000042821608, 9.998599, 10.0001955 
1.04996346e+2, 2.8480786e+2, -424975.38, -401295.16, -114173.47, 0.09238744, -0.27176747, -298349.5, -149497.8, 0.0000059800022, 9.998565, 9.998924 
1.0499478e+2, 2.948078e+2, -301930.1, -285953.1, -112398.4, 0.12600213, -0.20320913, -181259.66, -130401.44, 0.000029321069, 9.998702, 9.9989805 
1.049955e+2, 3.0480647e+2, -171624.4, -87008.195, 37011.523, 0.1737699, -0.28482994, -73103.945, -73103.945, 0.00010998001, 9.998827, 9.999943 
1.04997836e+2, 3.1480965e+2, -215814.39, -184894.13, 13258.696, 0.2189206, 0.03134837, -179987.4, -179987.4, 0.0003078072, 9.99878, 9.999297 
1.1499959e+2, 1.24809854e+2, -1705204.1, -1817677.1, 22440.746, 0.24017443, -0.5930695, -1700892.0, 15923.424, 0.001474528, 10.0004225, 9.999084 
1.1499753e+2, 1.34811e+2, -1527926.0, -1707837.0, 51388.098, -0.14196163, -0.38385665, -1514282.6, 104527.58, 0.00083337264, 10.001145, 9.998815 
1.1499829e+2, 1.448093e+2, -1381520.6, -1499801.5, -42636.9, -0.14704615, -0.47022554, -1367753.6, 153076.89, 0.00033260565, 10.001119, 9.999566 
1.1499912e+2, 1.5480946e+2, -1376377.0, -1468948.1, -26431.951, -0.011506376, -0.43044117, -1369361.5, 53468.664, 0.0000710648, 10.000579, 9.999366 
1.14999786e+2, 1.6480982e+2, -1321100.0, -1321147.0, -28748.547, 0.10846862, -0.3557611, -1292375.0, 32452.008, 0.0000041843605, 9.999975, 9.999998 
1.15000576e+2, 1.7480993e+2, -1301348.9, -1260246.0, -22318.855, 0.22793761, -0.3768752, -1250457.9, -23632.326, 0.000000024917117, 9.999446, 9.999995 
1.1500003e+2, 1.8480948e+2, -1233429.0, -1189353.0, -30155.832, 0.20140573, -0.41214874, -1174040.6, -45211.43, 0.0, 9.999284, 9.999893 
1.14997834e+2, 1.9480835e+2, -1093441.8, -1074399.3, -33137.383, -0.00095299777, -0.5401793, -1049442.4, -18603.387, 0.0, 9.999585, 9.999862 
1.1499774e+2, 2.0480852e+2, -977454.0, -1058563.4, -8700.488, -0.037275434, -0.46445042, -976531.2, -43691.65, 0.0, 10.000103, 9.99905 
1.1499989e+2, 2.1480992e+2, -771470.56, -913388.9, 3650.6853, 0.100851834, -0.2558772, -771376.7, 63454.99, 0.0, 10.000863, 9.999007 
1.1499968e+2, 2.2481005e+2, -677351.06, -778079.0, -65999.54, 0.10031721, -0.1551642, -644694.1, 92138.27, 0.0, 10.000677, 9.999351 
1.14996865e+2, 2.3480867e+2, -760386.5, -773154.1, -36694.047, -0.060236316, -0.25396726, -729525.1, -90681.43, 0.0, 9.999444, 9.999311 
1.1499585e+2, 2.4480718e+2, -795567.1, -812802.06, -41412.355, -0.05710655, -0.29570186, -761885.1, -221026.34, 0.0, 9.998858, 9.99864 
1.14996865e+2, 2.5480545e+2, -697878.4, -720989.8, -81851.06, 0.121130005, -0.35982642, -626771.4, -183891.95, 0.0, 9.99888, 9.998588 
1.14997044e+2, 2.6480514e+2, -469773.75, -332220.0, -81168.586, 0.18594354, -0.34355715, -294607.97, 50274.46, 0.0, 9.998798, 10.000627 
1.1499634e+2, 2.7480632e+2, -415811.53, -261365.77, -56555.55, 0.11933306, -0.3144463, -242870.81, 3996.565, 0.0000002594802, 9.998504, 10.000589 
1.14995375e+2, 2.8480685e+2, -420673.7, -375877.75, -116938.45, 0.114724085, -0.24512419, -279211.56, -130349.01, 0.000005001763, 9.998502, 9.999127 
1.1499419e+2, 2.948066e+2, -316753.16, -283479.5, -94218.18, 0.16752774, -0.21173202, -204440.56, -153571.13, 0.000026475647, 9.998564, 9.999064 
1.14994384e+2, 3.048053e+2, -183962.42, -94466.21, 34519.52, 0.1555624, -0.28596443, -82698.914, -82698.914, 0.000100772006, 9.998764, 9.999917 
1.149955e+2, 3.1480485e+2, -133814.36, 12823.5625, 38026.332, 0.04915709, -0.35044587, 22098.014, 22098.014, 0.00028477277, 9.998672, 10.000706 
1.250018e+2, 1.24809735e+2, -1421509.6, -1664805.9, 16623.795, 0.33375746, -0.53255415, -1420379.0, 296442.3, 0.0014451224, 10.002329, 9.999202 
1.2499787e+2, 1.3481128e+2, -1605532.8, -1718370.1, 28827.91, -0.17904271, -0.30981466, -1598594.4, 20216.547, 0.000820366, 10.000499, 9.999055 
1.24998e+2, 1.448094e+2, -1597249.8, -1560182.4, -5429.929, -0.19252048, -0.44670686, -1559403.3, -38572.67, 0.00033115427, 9.999445, 9.999956 
1.24999285e+2, 1.5480913e+2, -1505660.5, -1489462.4, -6961.5415, 0.007184302, -0.48832193, -1486881.6, -64050.426, 0.00007354598, 9.999507, 9.999737 
1.2500013e+2, 1.648093e+2, -1363276.0, -1399456.1, 11623.391, 0.15272216, -0.42881593, -1359863.8, -35033.914, 0.0000047036624, 9.999926, 9.999493 
1.2500073e+2, 1.7480953e+2, -1178380.4, -1263628.0, -33674.72, 0.2517213, -0.38106295, -1166683.1, 60146.633, 0.000000012759114, 10.00054, 9.999457 
1.2500007e+2, 1.8480903e+2, -1074736.4, -1153868.5, -49057.848, 0.22237718, -0.37317726, -1051277.5, 77558.26, 0.0, 10.000553, 9.99952 
1.2499794e+2, 1.9480783e+2, -1078981.9, -1111129.0, -79874.24, 0.043205343, -0.4718832, -1013580.0, 17267.523, 0.0, 9.999876, 9.999468 
1.24997765e+2, 2.048078e+2, -1028670.2, -1036166.8, -9559.564, -0.010730271, -0.4174333, -1022150.4, -89301.22, 0.0, 9.999549, 9.999467 
1.24999754e+2, 2.148089e+2, -941329.56, -947193.0, 7918.418, 0.0760662, -0.27979448, -935817.56, -100976.48, 0.0, 9.99949, 9.999434 
1.24999605e+2, 2.2480908e+2, -825110.8, -851850.7, -78092.61, 0.08180035, -0.19579771, -759251.9, -22411.307, 0.0, 9.999668, 9.999325 
1.24997124e+2, 2.3480819e+2, -666485.6, -729240.5, -117296.234, -0.0032999078, -0.24389601, -576442.5, 62406.293, 0.0, 10.000108, 9.999283 
1.2499607e+2, 2.4480684e+2, -596898.25, -702802.06, -66206.195, 0.021133497, -0.2783913, -565073.0, -24210.473, 0.0, 10.00016, 9.998769 
1.249967e+2, 2.5480485e+2, -552267.0, -640152.6, -16622.145, 0.17599854, -0.37887338, -549228.25, -106344.57, 0.0, 9.999822, 9.998696 
1.2499621e+2, 2.6480436e+2, -443359.53, -353341.6, 11756.72, 0.21164303, -0.3731635, -351831.44, -6942.868, 0.0, 9.999127, 10.0003195 
1.24994576e+2, 2.748054e+2, -504169.0, -336507.13, -36833.0, 0.12322183, -0.3311206, -328772.28, -81895.18, 0.00000012209664, 9.998051, 10.000281 
1.249937e+2, 2.8480572e+2, -431457.06, -350546.44, -43165.92, 0.11378813, -0.2755598, -331841.56, -182967.66, 0.000003888246, 9.998311, 9.999386 
1.2499379e+2, 2.9480544e+2, -95552.52, -149529.28, -35530.918, 0.21044281, -0.27032375, -77922.31, -27043.59, 0.00002250982, 9.999982, 9.999291 
1.2499413e+2, 3.0480444e+2, -68085.63, -86557.445, 35518.707, 0.21652332, -0.30449226, -40621.668, -40621.668, 0.000088219014, 9.999719, 9.999542 
1.2499421e+2, 3.148027e+2, -307633.7, 4091.1548, -39713.96, 0.14317141, -0.466248, 9071.182, 9071.182, 0.00025421128, 9.997136, 10.001403 
1.3500185e+2, 1.2481049e+2, -1393553.4, -1598187.0, -84314.95, 0.045110993, -0.36611685, -1363289.1, 353536.5, 0.0014399097, 10.002301, 9.999672 
1.3499868e+2, 1.348124e+2, -1550536.6, -1608941.8, -31582.414, -0.17952776, -0.17604585, -1536724.8, 82082.98, 0.0008240123, 10.000536, 9.999781 
1.3499941e+2, 1.4481077e+2, -1560092.9, -1497545.8, -19064.96, -0.03282554, -0.3459347, -1492192.8, 28628.703, 0.00033951883, 9.999489, 10.000372 
1.350006e+2, 1.5481018e+2, -1474158.4, -1424693.4, 5923.2935, 0.15684958, -0.46209168, -1423994.0, -1172.7567, 0.00008018549, 9.9995, 10.000191 
1.3500029e+2, 1.6480984e+2, -1442301.8, -1537564.3, 24471.531, 0.15332285, -0.4291412, -1436383.1, -111558.63, 0.0000062149566, 9.999826, 9.998587 
1.3499868e+2, 1.7480937e+2, -1247803.0, -1401194.1, 3003.6533, -0.036222238, -0.35956088, -1247744.3, -20908.453, 0.000000017143847, 10.0005245, 9.998512 
1.3499813e+2, 1.8480907e+2, -1115293.9, -1232466.8, -83442.2, -0.056574088, -0.2604157, -1071924.6, 56918.805, 0.0, 10.000516, 9.999004 
1.3499865e+2, 1.94809e+2, -1121117.3, -1187884.0, -93847.03, 0.09674369, -0.19466409, -1054892.9, -24046.195, 0.0, 9.999825, 9.998968 
1.3499892e+2, 2.048085e+2, -990457.25, -937437.7, -21920.887, 0.12562159, -0.19537266, -929548.44, 3301.5225, 0.0, 9.999464, 10.000188 
1.3499886e+2, 2.1480738e+2, -905238.94, -844386.75, 17992.777, 0.011142989, -0.35710946, -839464.75, -4609.778, 0.0, 9.9993725, 10.0001955 
1.3499875e+2, 2.2480646e+2, -882839.94, -952499.3, -72653.516, 0.0035016635, -0.39104658, -837098.94, -100235.55, 0.0, 9.9995775, 9.998681 
1.349985e+2, 2.3480563e+2, -727334.5, -832931.0, -91433.99, 0.09890716, -0.36531153, -674549.44, -35672.914, 0.0, 10.000006, 9.998621 
1.3499792e+2, 2.4480563e+2, -499610.84, -486163.84, -87925.875, 0.16558398, -0.3052619, -404704.78, 136172.34, 0.0, 10.000094, 10.000288 
1.3499701e+2, 2.548064e+2, -457473.22, -420286.66, -18613.697, 0.19908363, -0.287044, -412570.63, 30294.615, 0.0, 9.999721, 10.000255 
1.349949e+2, 2.6480633e+2, -523882.03, -504659.5, -37193.29, 0.14394626, -0.2697155, -475855.72, -130990.92, 0.0, 9.9990635, 9.999308 
1.3499157e+2, 2.7480513e+2, -593329.6, -493739.44, -66903.49, -0.009207451, -0.34631005, -460134.13, -213255.63, 0.000000046518082, 9.997936, 9.999253 
1.3499096e+2, 2.8480434e+2, -412315.34, -302832.53, 8565.118, -0.01592343, -0.36720973, -302166.53, -153279.92, 0.0000029362805, 9.998275, 9.999732 
1.3499327e+2, 2.9480413e+2, -83625.914, -109685.0, 39134.844, 0.12851602, -0.39538357, -55408.58, -4520.415, 0.000019015239, 9.999909, 9.999603 
1.349943e+2, 3.0480376e+2, -121314.71, -184367.83, -64864.895, 0.24215744, -0.34620008, -80720.69, -80720.69, 0.000075927965, 9.999668, 9.998891 
1.349933e+2, 3.148032e+2, -320465.13, -4477.9917, -110754.15, 0.28217173, -0.3264719, 30475.193, 30475.193, 0.0002226974, 9.997052, 10.001387 
1.4500275e+2, 1.2481214e+2, -1608395.6, -1713641.8, 53641.58, -0.0054501533, -0.2930418, -1585874.8, 130939.03, 0.0014542761, 10.000877, 9.99957 
1.450005e+2, 1.3481371e+2, -1507297.5, -1572357.4, 12207.58, -0.052918587, -0.15224488, -1505082.4, 113716.09, 0.0008417685, 10.000763, 9.999922 
1.4500116e+2, 1.4481221e+2, -1403923.8, -1448247.9, 44677.09, 0.14139014, -0.3035367, -1376214.0, 144596.39, 0.0003553583, 10.000671, 10.000145 
1.450008e+2, 1.5481171e+2, -1319513.9, -1377359.1, -2701.3955, 0.17744058, -0.38791516, -1319388.0, 103421.99, 0.00008912462, 10.00067, 9.999959 
1.4499982e+2, 1.648112e+2, -1348936.8, -1492054.4, 52479.33, 0.10114574, -0.3641218, -1331755.8, -6941.2954, 0.000008328298, 10.00047, 9.998584 
1.4499854e+2, 1.7481032e+2, -1325873.5, -1440583.6, 76418.234, -0.069829985, -0.33417484, -1287680.9, -60853.195, 0.0000000715251, 9.999997, 9.998495 
1.449983e+2, 1.848098e+2, -1209535.5, -1296256.8, 46978.746, -0.056929793, -0.24624015, -1188965.4, -60128.953, 0.0, 9.999949, 9.998843 
1.4499901e+2, 1.9480965e+2, -1064431.6, -1180924.8, 41302.016, 0.13531053, -0.17093256, -1051274.4, -20433.998, 0.0, 10.000291, 9.998801 
1.4499927e+2, 2.0480885e+2, -884311.3, -907938.25, 109624.04, 0.17900498, -0.18452436, -785866.06, 146980.23, 0.0, 10.000293, 9.999988 
1.4499897e+2, 2.1480721e+2, -847776.44, -842324.25, 53804.44, 0.06650357, -0.37745288, -791176.9, 43678.777, 0.0, 9.999881, 9.999963 
1.4499883e+2, 2.2480607e+2, -887724.8, -934076.7, -13593.843, 0.06689457, -0.4270643, -884032.25, -147166.56, 0.0, 9.999462, 9.998864 
1.4499885e+2, 2.3480545e+2, -855440.25, -876670.06, 10560.334, 0.18875888, -0.4001034, -851081.94, -212204.77, 0.0, 9.9990425, 9.998794 
1.4499797e+2, 2.4480577e+2, -664380.3, -539113.0, 14076.631, 0.22887333, -0.32707217, -537550.6, 3323.874, 0.0, 9.998851, 10.000526 
1.4499612e+2, 2.5480705e+2, -552689.5, -435631.5, -38990.49, 0.18505971, -0.28010517, -423833.4, 19023.793, 0.0, 9.998946, 10.000519 
1.4499368e+2, 2.6480702e+2, -507515.0, -534823.7, -65982.09, 0.11032746, -0.2588846, -453789.25, -108932.25, 0.0, 9.999329, 9.998979 
1.449907e+2, 2.7480534e+2, -311245.72, -402071.3, -62251.434, 0.0116845425, -0.34635448, -279602.94, -32726.146, 0.00000002138944, 10.000044, 9.998883 
1.4499015e+2, 2.8480443e+2, -209507.36, -191963.63, 57570.914, 0.015638199, -0.3653042, -142500.14, 6386.2285, 0.0000023054517, 9.999596, 9.999863 
1.4499214e+2, 2.9480463e+2, -373238.25, -231985.77, 45634.91, 0.1347049, -0.36919436, -218525.08, -167641.61, 0.000016570593, 9.997843, 9.999757 
1.4499304e+2, 3.048042e+2, -394515.84, -324364.78, -27132.434, 0.249692, -0.3274168, -315095.5, -315095.5, 0.0000664134, 9.997859, 9.998781 
1.4499253e+2, 3.1480396e+2, 57724.094, 164170.63, -85080.414, 0.37831435, -0.26418054, 211303.69, 211303.69, 0.0001967113, 9.999738, 10.001238 
1.5500396e+2, 1.2481505e+2, -1642520.4, -1813833.1, 17777.457, -0.03591039, -0.28512207, -1640695.0, 76087.555, 0.0014746141, 10.000991, 9.9988365 
1.55003e+2, 1.3481534e+2, -1538059.8, -1639982.1, 11897.828, 0.09051592, -0.22079504, -1536689.4, 82092.09, 0.00086313457, 10.0007715, 9.99946 
1.5500282e+2, 1.4481379e+2, -1465857.3, -1566945.0, 32406.463, 0.21123989, -0.31553882, -1456360.6, 64436.54, 0.00037152023, 10.000634, 9.999347 
1.5499945e+2, 1.5481375e+2, -1379845.1, -1497914.5, 10050.245, -0.056278404, -0.27030987, -1378995.8, 43801.387, 0.00009663115, 10.000659, 9.99913 
1.5499839e+2, 1.648134e+2, -1295517.1, -1370994.9, 23746.486, -0.11530846, -0.22912006, -1288667.6, 36131.1, 0.000009881803, 10.000425, 9.999439 
1.5500005e+2, 1.7481247e+2, -1268592.9, -1311053.6, 70156.445, 0.05521696, -0.2924552, -1216524.9, 10279.723, 0.00000020107916, 9.999953, 9.999406 
1.5500021e+2, 1.8481128e+2, -1204537.9, -1275185.1, 49292.266, 0.11537095, -0.32675397, -1179219.3, -50404.93, 0.0, 9.9999, 9.999014 
1.5499866e+2, 1.9480975e+2, -1065203.9, -1164870.5, 65869.34, 0.04583099, -0.40541676, -1032441.0, -1612.2046, 0.0, 10.000224, 9.998941 
1.5499851e+2, 2.0480879e+2, -974996.94, -1081772.8, 84712.66, 0.050624814, -0.38284442, -928252.44, 4585.798, 0.0, 10.000221, 9.998835 
1.5499972e+2, 2.1480837e+2, -944257.8, -1017667.2, 48137.49, 0.12983744, -0.33567804, -920427.75, -85584.56, 0.0, 9.999773, 9.998813 
1.5499957e+2, 2.2480801e+2, -833888.0, -802965.8, -38314.066, 0.17071207, -0.2975411, -777110.9, -40263.88, 0.0, 9.999374, 9.999808 
1.549979e+2, 2.348076e+2, -801851.7, -744766.3, 6536.5977, 0.16347829, -0.34731337, -744027.4, -105176.516, 0.0, 9.998947, 9.999746 
1.5499586e+2, 2.4480723e+2, -746656.7, -695693.9, 7088.0527, 0.11082933, -0.34265, -694726.44, -153871.64, 0.0, 9.998787, 9.999481 
1.5499367e+2, 2.548067e+2, -644214.7, -604367.0, -22966.826, 0.019702941, -0.370349, -593886.3, -151025.67, 0.0, 9.998845, 9.999413 
1.5499224e+2, 2.648063e+2, -493787.13, -492071.1, -48924.34, 0.007913854, -0.34292674, -443997.25, -99131.1, 0.0, 9.999273, 9.999294 
1.5499163e+2, 2.7480584e+2, -305492.38, -367463.66, -21965.564, 0.07789684, -0.34273157, -298496.5, -51623.367, 0.000000019825112, 9.999947, 9.999166 
1.5499091e+2, 2.8480598e+2, -220692.75, -206056.53, -14428.722, 0.10834921, -0.27170765, -197196.17, -48322.78, 0.0000019865888, 9.999557, 9.9997835 
1.5499002e+2, 2.9480678e+2, -386077.9, -238779.33, -8560.653, 0.10510911, -0.20189345, -238283.47, -187417.95, 0.000014949104, 9.99775, 9.999757 
1.5499003e+2, 3.0480576e+2, -376052.9, -272040.78, 36301.69, 0.13995874, -0.24455103, -260624.11, -260624.11, 0.000059797247, 9.997809, 9.999155 
1.5499118e+2, 3.1480485e+2, 20399.162, 110156.52, 3405.7727, 0.2184594, -0.2844285, 110285.56, 110285.56, 0.00017773658, 9.999643, 10.000905 
1.6500637e+2, 1.248172e+2, -1589402.9, -1820634.9, 32679.174, 0.08864352, -0.34557116, -1584873.1, 131884.16, 0.0014821975, 10.001493, 9.998538 
1.6500385e+2, 1.3481721e+2, -1495012.0, -1645473.0, 8332.141, 0.08762619, -0.28963292, -1494551.9, 124207.65, 0.0008719991, 10.00117, 9.99923 
1.6500324e+2, 1.448159e+2, -1487168.4, -1649107.4, 75832.85, 0.1879759, -0.3170343, -1457202.4, 63572.543, 0.0003781117, 10.00083, 9.9986725 
1.6500044e+2, 1.5481551e+2, -1415431.1, -1594605.1, 37811.188, -0.019857267, -0.23605381, -1407778.6, 15003.112, 0.000098805474, 10.000774, 9.9984045 
1.6499956e+2, 1.6481473e+2, -1242327.6, -1324886.4, 44010.152, -0.048017684, -0.20919968, -1223267.3, 101520.42, 0.000009884257, 10.000689, 9.99963 
1.6500089e+2, 1.7481337e+2, -1179466.4, -1243048.9, 18554.834, 0.12511954, -0.33913967, -1174447.8, 52346.188, 0.0000002904704, 10.000443, 9.999639 
1.650009e+2, 1.8481195e+2, -1124863.5, -1249246.5, 9787.076, 0.16916575, -0.40398553, -1124098.1, 4705.758, 0.0, 10.000516, 9.998881 
1.6499946e+2, 1.9481032e+2, -967007.44, -1132796.9, -16490.766, 0.07293115, -0.47927815, -965383.06, 65435.875, 0.0, 10.000963, 9.998795 
1.6499917e+2, 2.048092e+2, -921437.25, -1111781.4, 2989.6287, 0.07077574, -0.44112062, -921390.3, 11440.939, 0.0, 10.000844, 9.998324 
1.6500002e+2, 2.1480863e+2, -927552.44, -1066069.8, -5680.8438, 0.17142795, -0.3576351, -927319.8, -92478.914, 0.0, 10.0001335, 9.998306 
1.6499929e+2, 2.2480844e+2, -768346.94, -730995.7, -61831.918, 0.19774497, -0.29298034, -685080.56, 51763.21, 0.0, 9.999663, 10.000157 
1.6499677e+2, 2.3480871e+2, -703059.06, -650394.44, -85679.7, 0.14050688, -0.31113636, -587091.94, 51747.344, 0.0, 9.999448, 10.000142 
1.6499451e+2, 2.4480829e+2, -699279.06, -696459.8, -46935.39, 0.0804227, -0.31879085, -650912.9, -110069.52, 0.0, 9.999217, 9.9992695 
1.6499262e+2, 2.5480705e+2, -638908.25, -622239.3, -34681.855, 0.030142074, -0.39427823, -594904.56, -152047.11, 0.0, 9.998977, 9.999222 
1.6499159e+2, 2.6480666e+2, -554393.7, -489426.7, 5414.4087, 0.051854894, -0.36834964, -488978.53, -144115.78, 0.0, 9.99871, 9.999587 
1.649916e+2, 2.74807e+2, -497823.03, -416783.75, 9218.773, 0.1630515, -0.32275474, -415748.28, -168887.7, 0.000000024295247, 9.998448, 9.999536 
1.649906e+2, 2.8480726e+2, -399451.88, -307082.0, 4764.74, 0.18696134, -0.25281826, -306836.88, -157977.64, 0.0000019697127, 9.99841, 9.999638 
1.6498864e+2, 2.9480746e+2, -247375.7, -175765.0, -20430.99, 0.15103927, -0.22494961, -170345.98, -119488.64, 0.000013995548, 9.998732, 9.999717 
1.6498832e+2, 3.048062e+2, -164005.1, -151948.13, 109528.51, 0.13203745, -0.3035285, -48282.32, -48282.32, 0.000055183133, 9.99916, 9.999343 
1.6498993e+2, 3.148064e+2, -24271.287, 65985.06, 1118.4412, 0.15379085, -0.24365498, 65998.914, 65998.914, 0.00016346597, 9.999411, 10.000718 
1.7500916e+2, 1.24818586e+2, -1581817.0, -1799979.3, -6261.1646, 0.16121379, -0.48644486, -1581637.4, 135100.72, 0.001464911, 10.001478, 9.99868 
1.7500262e+2, 1.3481945e+2, -1496234.0, -1639360.8, 1506.4988, -0.17785381, -0.35499263, -1496218.1, 122513.5, 0.0008580161, 10.001154, 9.999267 
1.7500216e+2, 1.4481862e+2, -1530984.9, -1746586.9, 60273.867, -0.033600695, -0.3005762, -1515278.8, 5464.147, 0.00036898247, 10.000839, 9.998009 
1.7500348e+2, 1.5481696e+2, -1456876.9, -1683584.0, 48703.86, 0.1760968, -0.2835347, -1446856.6, -24092.656, 0.00009401229, 10.000781, 9.997794 
1.7500295e+2, 1.6481519e+2, -1273523.6, -1383423.0, 24843.996, 0.19512193, -0.30622318, -1268168.3, 56612.633, 0.000008393363, 10.000657, 9.999246 
1.7500061e+2, 1.748131e+2, -1212592.1, -1303967.8, 19774.332, 0.026693683, -0.46861508, -1208496.4, 18298.605, 0.00000020811186, 10.000415, 9.999231 
1.7499998e+2, 1.8481189e+2, -1160001.3, -1318138.1, 17467.695, 0.0009012658, -0.46908945, -1158094.8, -29290.396, 0.0, 10.000485, 9.998429 
1.7500104e+2, 1.9481148e+2, -1005824.0, -1197899.0, 10422.861, 0.10862134, -0.38055432, -1005260.06, 25549.73, 0.0, 10.0008955, 9.998383 
1.7500092e+2, 2.048102e+2, -924081.56, -1101011.4, -35514.96, 0.13890627, -0.3439051, -917218.9, 15605.298, 0.0, 10.000768, 9.998436 
1.7499949e+2, 2.148079e+2, -936914.06, -1061913.5, -21823.37, 0.08241332, -0.44494894, -933213.56, -98364.28, 0.0, 10.000031, 9.998384 
1.7499766e+2, 2.2480737e+2, -796187.6, -771871.94, -81371.15, 0.045662865, -0.40544522, -701755.4, 35100.332, 0.0, 9.999584, 9.999916 
1.7499524e+2, 2.3480867e+2, -732202.0, -692216.3, -83685.04, 0.019199632, -0.29839844, -626169.06, 12674.241, 0.0, 9.999359, 9.999901 
1.7499356e+2, 2.4480896e+2, -667636.3, -615198.56, -65701.49, 0.042345986, -0.25316313, -570677.7, -29837.424, 0.0, 9.999153, 9.999855 
1.7499265e+2, 2.548081e+2, -616252.06, -549555.8, -34444.348, 0.11239853, -0.34979826, -534961.2, -92113.15, 0.0, 9.998868, 9.999774 
1.7499158e+2, 2.6480815e+2, -532997.44, -440462.47, -15141.631, 0.1569215, -0.32874122, -438047.84, -93200.73, 0.0, 9.998684, 9.999936 
1.749903e+2, 2.7480882e+2, -484922.7, -371334.13, 8919.117, 0.16170576, -0.28199515, -370638.03, -123798.805, 0.000000035492793, 9.998363, 9.999891 
1.749889e+2, 2.848083e+2, -416102.5, -337636.13, 4760.0127, 0.14884478, -0.29589328, -337348.4, -188504.9, 0.0000021240596, 9.998394, 9.999433 
1.7498747e+2, 2.948066e+2, -268552.9, -204363.72, 6314.227, 0.13310122, -0.4426635, -203748.48, -152888.89, 0.000013429294, 9.9986725, 9.999544 
1.7498761e+2, 3.048054e+2, -160498.2, -148111.05, 114077.94, 0.11998376, -0.51126575, -40058.676, -40058.676, 0.000050919698, 9.999166, 9.9993725 
1.7498803e+2, 3.1480873e+2, -36653.707, 60977.234, 23471.14, -0.03152305, -0.12851128, 66326.74, 66326.74, 0.0001490851, 9.999331, 10.000718 
1.8501033e+2, 1.2482047e+2, -1681871.4, -1855418.8, -62882.61, 0.17448747, -0.4483913, -1661482.1, 55236.664, 0.0014182838, 10.0008135, 9.998625 
1.8500403e+2, 1.3482034e+2, -1420282.3, -1634039.3, -127927.34, -0.17722586, -0.38783106, -1360462.3, 258260.56, 0.00082149997, 10.001804, 9.998993 
1.8500376e+2, 1.4481951e+2, -1375411.3, -1657152.6, -46144.164, -0.0003573639, -0.32526493, -1368046.3, 152687.25, 0.00034638878, 10.001835, 9.998137 
1.8500479e+2, 1.5481786e+2, -1396347.6, -1635350.0, -21469.832, 0.21938738, -0.3261407, -1394434.4, 28318.305, 0.000084445885, 10.001104, 9.99797 
1.850038e+2, 1.6481623e+2, -1316512.9, -1441647.8, 10035.056, 0.22604546, -0.32830825, -1315713.3, 9055.513, 0.000006352812, 10.00055, 9.998887 
1.8500097e+2, 1.7481434e+2, -1266377.6, -1373718.8, -13590.667, 0.035637856, -0.43234926, -1264683.6, -37899.49, 0.000000056960435, 10.000241, 9.998834 
1.850004e+2, 1.8481311e+2, -1189632.8, -1316338.0, 49517.66, 0.0131934, -0.42151412, -1172576.8, -43781.88, 0.0, 10.000225, 9.998563 
1.8500201e+2, 1.9481252e+2, -1058636.1, -1206391.3, 66103.94, 0.14416742, -0.36418664, -1033379.3, -2578.5996, 0.0, 10.000466, 9.998531 
1.850016e+2, 2.0481142e+2, -959605.56, -1068644.1, 36357.73, 0.15998428, -0.3402849, -948594.44, -15782.405, 0.0, 10.000303, 9.998881 
1.8499899e+2, 2.1480969e+2, -956660.06, -1022334.06, 55242.188, 0.052906305, -0.42881942, -925232.25, -90402.23, 0.0, 9.999672, 9.998833 
1.8499674e+2, 2.2480898e+2, -872511.0, -885490.1, 35251.996, 0.009611564, -0.39905936, -843156.2, -106317.414, 0.0, 9.999389, 9.999233 
1.849948e+2, 2.3480925e+2, -761113.4, -787289.5, -21670.396, 0.036480527, -0.3218065, -748885.4, -110046.7, 0.0, 9.999499, 9.999184 
1.8499322e+2, 2.4480923e+2, -636480.1, -593758.7, -34114.95, 0.08910253, -0.2745811, -574868.8, -34029.383, 0.0, 9.999331, 9.999918 
1.8499207e+2, 2.5480884e+2, -612749.75, -536250.3, -60338.016, 0.17753224, -0.33361697, -503059.72, -60218.316, 0.0, 9.998841, 9.999877 
1.8499076e+2, 2.648088e+2, -514809.66, -448157.66, -37980.266, 0.20169583, -0.3154845, -430955.22, -86114.97, 0.0, 9.998886, 9.999784 
1.8498923e+2, 2.748089e+2, -317623.75, -308884.94, -73844.45, 0.1640162, -0.31171843, -239280.72, 7557.186, 0.000000044067633, 9.999584, 9.999739 
1.8498762e+2, 2.8480804e+2, -269076.5, -312145.78, -100780.31, 0.12953405, -0.33228362, -187555.77, -38710.133, 0.000002141611, 9.999578, 9.999048 
1.8498608e+2, 2.948064e+2, -270257.94, -248966.14, -135557.19, 0.12663212, -0.43258244, -123637.45, -72775.484, 0.000012353572, 9.998829, 9.999174 
1.8498689e+2, 3.0480444e+2, -241300.63, -185900.4, 3098.4666, 0.16752425, -0.5595229, -185727.64, -185727.64, 0.00004451732, 9.998608, 9.999375 
1.8498746e+2, 3.1480804e+2, -99402.83, 46114.285, -132390.39, 0.014201971, -0.14243104, 124422.01, 124422.01, 0.00012891147, 9.998794, 10.000898 
1.9500925e+2, 1.24822915e+2, -1705228.1, -1893761.6, -48697.723, -0.07306111, -0.2157197, -1693392.6, 23306.111, 0.0013429979, 10.000784, 9.998371 
1.9500774e+2, 1.3481991e+2, -1466465.6, -1716369.5, -87507.17, -0.011202431, -0.38619506, -1438870.9, 179861.86, 0.0007683095, 10.001766, 9.998439 
1.9500768e+2, 1.4481865e+2, -1308879.8, -1517473.3, -87084.164, 0.17537592, -0.3887967, -1277303.5, 243442.84, 0.00031677555, 10.001817, 9.99911 
1.9500399e+2, 1.5481839e+2, -1328251.4, -1491044.3, -39772.09, 0.00033028348, -0.34981394, -1319054.3, 103691.9, 0.000073711046, 10.001091, 9.998967 
1.9500181e+2, 1.6481799e+2, -1344187.1, -1496228.0, -9877.455, -0.0518492, -0.26033396, -1343548.1, -18798.137, 0.0000047225935, 10.000526, 9.998529 
1.9500169e+2, 1.7481719e+2, -1295421.9, -1427969.1, -12655.418, 0.057190742, -0.22113277, -1294224.4, -67463.766, 0.0000000036456946, 10.000215, 9.998477 
1.9500186e+2, 1.8481566e+2, -1146922.5, -1218427.6, 47087.477, 0.11065138, -0.2541557, -1123552.5, 5222.222, 0.0, 10.000177, 9.999263 
1.9500205e+2, 1.9481337e+2, -1018744.7, -1109056.6, 85572.4, 0.07686489, -0.43723586, -967144.75, 63647.703, 0.0, 10.0004015, 9.999233 
1.9500089e+2, 2.0481285e+2, -917850.9, -958688.3, 4735.5317, 0.036906585, -0.42991132, -917308.94, 15486.06, 0.0, 10.000205, 9.9996805 
1.9499822e+2, 2.1481404e+2, -914957.0, -908847.75, 40676.8, -0.016331688, -0.30909505, -871111.0, -36328.0, 0.0, 9.999558, 9.999662 
1.9499625e+2, 2.248133e+2, -971373.94, -1066073.9, 27494.875, 0.0024511388, -0.26610464, -963970.0, -227177.5, 0.0, 9.999285, 9.998044 
1.9499503e+2, 2.3481044e+2, -862812.44, -970581.94, -8226.172, 0.08818081, -0.37971503, -862188.1, -223362.48, 0.0, 9.999384, 9.997979 
1.9499318e+2, 2.4480909e+2, -681081.6, -663939.4, -62685.44, 0.13106278, -0.38127288, -609241.8, -68401.05, 0.0, 9.999237, 9.999481 
1.9499056e+2, 2.548093e+2, -657413.6, -601435.56, -68659.82, 0.11784539, -0.3438215, -555279.06, -112441.71, 0.0, 9.998725, 9.999481 
1.9498886e+2, 2.6480877e+2, -565670.5, -546556.7, -22579.965, 0.09857695, -0.32046404, -531594.44, -186753.02, 0.0, 9.99885, 9.999133 
1.9498807e+2, 2.748072e+2, -375781.8, -416948.34, -35658.703, 0.064215176, -0.4115491, -355192.1, -108335.63, 0.000000036761158, 9.999521, 9.999035 
1.9498648e+2, 2.8480643e+2, -317826.78, -403035.47, -136564.47, 0.03523361, -0.35935584, -217375.25, -68509.55, 0.0000018181237, 9.999538, 9.998441 
1.949842e+2, 2.9480696e+2, -328703.22, -342062.06, -147518.42, 0.028251795, -0.18465398, -187713.08, -136849.3, 0.000010151812, 9.998716, 9.998586 
1.9498591e+2, 3.0480337e+2, -246752.31, -185372.78, 5158.2544, 0.18473355, -0.44065392, -184942.31, -184942.31, 0.00003534469, 9.998567, 9.999393 
1.9498752e+2, 3.1480473e+2, -69813.87, 135233.25, -102384.055, 0.089243546, -0.26017034, 177601.28, 177601.28, 0.00010294475, 9.998697, 10.001543 
2.0500967e+2, 1.24822825e+2, -1701353.3, -1862204.6, 43724.914, -0.092570394, -0.28543344, -1690235.6, 26462.678, 0.0012444656, 10.000684, 9.998643 
2.0501e+2, 1.3482068e+2, -1589892.8, -1785039.1, -4098.096, 0.089593954, -0.36424303, -1589806.8, 28919.496, 0.00070293987, 10.0009365, 9.998386 
2.0501003e+2, 1.448197e+2, -1408276.1, -1499747.9, -9310.985, 0.28232592, -0.3607763, -1407337.9, 113398.625, 0.00028321997, 10.000871, 9.999685 
2.0500444e+2, 1.5481927e+2, -1332584.3, -1428211.0, -23011.584, -0.04032348, -0.3978252, -1327334.9, 95400.09, 0.000063005726, 10.000786, 9.999545 
2.0500183e+2, 1.6481887e+2, -1272905.8, -1482980.5, 40839.508, -0.1268665, -0.32914305, -1265245.6, 59492.574, 0.0000035155435, 10.00111, 9.998337 
2.0500275e+2, 1.7481826e+2, -1077805.6, -1347638.0, 30811.639, 0.06872323, -0.24607515, -1074332.1, 152416.75, 0.0000000004928599, 10.001813, 9.99826 
2.0500289e+2, 1.84817e+2, -949118.94, -1096131.0, 67314.44, 0.13921767, -0.25539213, -922953.6, 205807.7, 0.0, 10.001425, 9.999499 
2.050019e+2, 1.9481497e+2, -1082635.3, -1115672.0, 47217.664, 0.056002583, -0.4366566, -1049130.0, -18353.682, 0.0, 9.999852, 9.999452 
2.0500039e+2, 2.0481455e+2, -1044192.44, -1016579.7, -35182.563, 0.015413414, -0.4302967, -992591.5, -59813.688, 0.0, 9.999326, 9.999708 
2.0499831e+2, 2.1481575e+2, -868423.75, -885411.25, -77010.03, 0.02827865, -0.30814558, -799440.5, 35325.74, 0.0, 9.999875, 9.999674 
2.0499651e+2, 2.2481504e+2, -820114.25, -974817.7, -45264.56, 0.05702813, -0.2705481, -807843.6, -71068.73, 0.0, 10.000238, 9.998208 
2.0499498e+2, 2.3481221e+2, -710285.2, -883302.8, 2518.4915, 0.101785384, -0.39850652, -710248.56, -71442.43, 0.0, 10.000363, 9.998111 
2.0499271e+2, 2.4481076e+2, -567496.4, -664422.4, -2961.3918, 0.11482828, -0.39250204, -567406.0, -26583.902, 0.0, 10.000252, 9.998985 
2.0498958e+2, 2.5481072e+2, -515928.4, -594193.6, -36600.36, 0.091590114, -0.32678974, -501479.78, -58657.08, 0.0, 9.99995, 9.998942 
2.0498797e+2, 2.648097e+2, -465386.94, -550948.0, 57029.363, 0.084983185, -0.3052581, -436875.66, -92042.52, 0.0, 9.999777, 9.998649 
2.0498791e+2, 2.7480733e+2, -375352.97, -467981.53, 34460.492, 0.09053227, -0.43194962, -363939.1, -117082.16, 0.00000002096579, 9.9997635, 9.998555 
2.0498617e+2, 2.8480658e+2, -300841.78, -418157.25, -46366.625, 0.046740897, -0.34101903, -284729.22, -135862.95, 0.0000012828043, 9.999758, 9.998229 
2.0498286e+2, 2.948081e+2, -186649.55, -295216.7, -43273.06, -0.020724125, -0.0485187, -171512.2, -120657.69, 0.000007381431, 9.999785, 9.998388 
2.0498464e+2, 3.0480334e+2, -206479.3, -196293.31, 117159.6, 0.18855794, -0.39771676, -84116.055, -84116.055, 0.000026183836, 9.9989805, 9.999128 
2.0498587e+2, 3.1480354e+2, -293384.7, 37708.316, -54463.305, 0.14266934, -0.30749282, 46437.156, 46437.156, 0.000078692225, 9.997151, 10.00161 
2.1501085e+2, 1.2482014e+2, -1652552.1, -1744050.5, 27498.332, -0.09841385, -0.65782624, -1644924.0, 71794.36, 0.0011273269, 10.000622, 9.999478 
2.150105e+2, 1.3482276e+2, -1551099.9, -1708787.9, 13759.036, 0.020602128, -0.31702182, -1549908.4, 68793.734, 0.0006276391, 10.000959, 9.998895 
2.150104e+2, 1.4482287e+2, -1406518.3, -1493087.8, -25965.414, 0.2035522, -0.23132206, -1399327.6, 121375.07, 0.0002466057, 10.000856, 9.999737 
2.1500586e+2, 1.5482056e+2, -1324301.6, -1413377.1, -15105.32, -0.008434031, -0.4637512, -1321809.8, 100908.86, 0.000052325075, 10.000795, 9.999641 
2.1500349e+2, 1.6481885e+2, -1281763.8, -1490327.5, 56274.42, -0.0957004, -0.52996415, -1267548.8, 57184.785, 0.000002586899, 10.001061, 9.99831 
2.1500386e+2, 1.748176e+2, -1086224.3, -1353100.8, 67351.81, -0.026927255, -0.50970495, -1070190.0, 156558.77, 0.000000000052014764, 10.001768, 9.998238 
2.1500319e+2, 1.848171e+2, -980275.8, -1145830.9, 1035.4264, 0.00521277, -0.4256877, -980269.3, 148485.58, 0.0, 10.001354, 9.999195 
2.1500129e+2, 1.9481726e+2, -1108049.4, -1155103.1, -902.35706, -0.01762653, -0.36102197, -1108032.1, -77279.62, 0.0, 9.999796, 9.999207 
2.1499985e+2, 2.0481655e+2, -1106158.9, -1130443.5, -26967.77, 0.006316042, -0.33709317, -1088725.9, -155965.5, 0.0, 9.999257, 9.998961 
2.1499895e+2, 2.1481481e+2, -935178.5, -1000757.0, -46946.695, 0.08064442, -0.43122897, -910704.1, -75924.07, 0.0, 9.999773, 9.99893 
2.1499714e+2, 2.2481418e+2, -734407.8, -767150.7, -50143.047, 0.0770926, -0.42105603, -698031.25, 38755.113, 0.0, 10.000115, 9.999691 
2.1499431e+2, 2.3481457e+2, -621879.9, -668059.7, 18584.475, -0.022853004, -0.3811125, -615329.8, 23450.248, 0.0, 10.000231, 9.999649 
2.149915e+2, 2.4481429e+2, -617759.56, -754404.75, -23702.2, -0.05470141, -0.3088751, -613765.0, -72981.82, 0.0, 10.000191, 9.998399 
2.1498881e+2, 2.5481325e+2, -575759.25, -691895.06, -38522.766, -0.0043988256, -0.27525222, -564142.94, -121346.34, 0.0, 9.99984, 9.998325 
2.1498781e+2, 2.6481164e+2, -499473.3, -608084.0, 47326.758, 0.06830985, -0.26350906, -481744.7, -136930.11, 0.0, 9.999719, 9.998282 
2.1498841e+2, 2.7480912e+2, -417533.28, -529619.44, 45555.91, 0.13866045, -0.3732229, -401353.3, -154512.89, 0.00000000626477, 9.999654, 9.998183 
2.1498638e+2, 2.8480834e+2, -284476.97, -371482.4, -56328.89, 0.06845995, -0.27919644, -256807.84, -107959.516, 0.00000075455597, 9.99971, 9.998571 
2.1498191e+2, 2.9480988e+2, -178821.64, -265464.75, -31211.22, -0.122624055, -0.018280515, -168749.39, -117915.84, 0.0000049684672, 9.99973, 9.99862 
2.1498284e+2, 3.0480435e+2, -249581.42, -292806.25, 42719.164, 0.08897021, -0.42039344, -223318.75, -223318.75, 0.000019574018, 9.999002, 9.998461 
2.1498208e+2, 3.148045e+2, -360461.06, -86583.86, -83212.24, -0.003020367, -0.2701722, -63283.707, -63283.707, 0.000061826526, 9.997077, 10.000801 
2.2501273e+2, 1.2482129e+2, -1668985.0, -1707164.5, 101217.12, 0.058085423, -0.6811346, -1585073.1, 131632.67, 0.0009979393, 10.000292, 9.999896 
2.2501047e+2, 1.3482423e+2, -1595203.8, -1693540.0, 10578.232, -0.047544315, -0.34191, -1594078.8, 24605.547, 0.0005469221, 10.000511, 9.999205 
2.250101e+2, 1.4482436e+2, -1437932.6, -1540500.8, -19776.902, 0.09787022, -0.25670326, -1434251.4, 86433.9, 0.00020906674, 10.000774, 9.999463 
2.2500743e+2, 1.5482254e+2, -1271545.0, -1418718.0, -53925.473, 0.052535724, -0.4105942, -1253901.5, 168798.45, 0.000042237294, 10.001287, 9.999375 
2.2500572e+2, 1.6482085e+2, -1223738.1, -1434132.0, 29118.871, 0.012458121, -0.47464842, -1219782.4, 104932.86, 0.0000020119714, 10.00133, 9.998567 
2.2500528e+2, 1.7481905e+2, -1214749.5, -1391827.8, 37209.81, -0.007269053, -0.5355018, -1207248.3, 19485.37, 0.0, 10.000775, 9.998454 
2.2500387e+2, 1.8481845e+2, -1119294.6, -1223294.3, -25657.523, -0.009909001, -0.46740022, -1113309.1, 15431.27, 0.0, 10.000446, 9.999096 
2.2500135e+2, 1.9481906e+2, -1050189.0, -1142880.4, -35985.695, -0.010505413, -0.3453307, -1037858.5, -7123.163, 0.0, 10.000265, 9.999066 
2.2499977e+2, 2.0481831e+2, -981413.3, -1089110.6, 26070.82, 0.030746043, -0.30823496, -975434.1, -42689.598, 0.0, 10.000199, 9.998796 
2.249993e+2, 2.1481597e+2, -883560.6, -994645.1, 32127.37, 0.12233183, -0.44698784, -874938.1, -40167.777, 0.0, 10.000207, 9.998768 
2.2499748e+2, 2.2481535e+2, -716902.9, -722815.7, 14367.8955, 0.10656831, -0.44313368, -705190.4, 31585.436, 0.0, 10.000077, 10.000018 
2.249942e+2, 2.3481648e+2, -666247.9, -648209.44, -27703.297, -0.026126957, -0.36397043, -628094.2, 10666.377, 0.0, 9.999754, 10.000013 
2.2499146e+2, 2.4481621e+2, -662093.6, -818135.56, -71256.586, -0.067419566, -0.28991827, -634451.1, -93688.06, 0.0, 10.000069, 9.998023 
2.2498932e+2, 2.5481436e+2, -412840.53, -658825.3, -87948.586, 0.0039490745, -0.29928413, -384630.8, 58154.816, 0.0, 10.001146, 9.9979315 
2.2498822e+2, 2.648126e+2, -301759.34, -485734.6, 7915.038, 0.08021306, -0.2942408, -301419.47, 43385.273, 0.0, 10.000959, 9.998526 
2.2498806e+2, 2.7481076e+2, -423230.94, -504457.0, 32032.252, 0.15403447, -0.360634, -412118.9, -165296.9, 0.00000000006385136, 9.999488, 9.998439 
2.2498605e+2, 2.8480992e+2, -346782.66, -401203.3, 12212.954, 0.091646194, -0.28872412, -344167.5, -195337.94, 0.00000032397858, 9.999278, 9.998574 
2.2498232e+2, 2.948104e+2, -93559.56, -232765.48, -11686.928, -0.07975989, -0.12881675, -92585.21, -41760.883, 0.000003287384, 10.000359, 9.998536 
2.24983e+2, 3.0480522e+2, -132122.48, -257175.9, 2501.9897, 0.16839615, -0.48342648, -132072.44, -132072.44, 0.000016014252, 9.999898, 9.998266 
2.249796e+2, 3.1480548e+2, -267164.1, -76692.58, -99406.43, 0.015597121, -0.31877798, -34263.926, -34263.926, 0.000053501928, 9.997866, 10.0004835 
2.3501477e+2, 1.2482625e+2, -1669109.1, -1709031.1, 83695.19, 0.1741673, -0.35918555, -1603027.5, 113633.27, 0.0008671324, 10.000308, 9.999876 
2.350095e+2, 1.3482504e+2, -1587548.0, -1688279.1, 16508.754, -0.22062224, -0.43300042, -1584911.4, 33762.383, 0.0004662031, 10.000546, 9.99923 
2.3500872e+2, 1.4482397e+2, -1481459.3, -1614905.8, -14912.388, -0.14293467, -0.44610158, -1479813.1, 40873.637, 0.00017258529, 10.00071, 9.998984 
2.350089e+2, 1.5482515e+2, -1307683.9, -1493095.6, -21945.305, 0.040164556, -0.24727583, -1305121.8, 117557.57, 0.000033446406, 10.001286, 9.998868 
2.3500817e+2, 1.6482478e+2, -1202050.4, -1375396.6, -2041.0455, 0.097383775, -0.17261547, -1202026.3, 122657.81, 0.0000017722703, 10.001274, 9.998999 
2.3500675e+2, 1.7482248e+2, -1181286.9, -1315904.5, 26815.309, 0.03624072, -0.33203465, -1176142.0, 50562.55, 0.0000000001389195, 10.000746, 9.998992 
2.3500465e+2, 1.8482102e+2, -1129381.3, -1223362.1, -42606.2, 0.0004692658, -0.38006192, -1112941.5, 15776.425, 0.0, 10.00036, 9.999141 
2.350017e+2, 1.948204e+2, -1056203.8, -1142289.3, -34218.508, -0.025470152, -0.3831458, -1044259.3, -13534.649, 0.0, 10.000211, 9.999097 
2.3499976e+2, 2.0481986e+2, -967426.56, -1034902.8, 15981.454, -0.00872533, -0.34794378, -963832.8, -31102.223, 0.0, 10.000092, 9.999221 
2.3499903e+2, 2.1481921e+2, -870703.8, -939039.0, 43679.016, 0.05096325, -0.36108273, -849416.2, -14678.773, 0.0, 10.000081, 9.999211 
2.3499726e+2, 2.2481863e+2, -794180.0, -853129.94, -5649.4653, 0.054687623, -0.33554596, -793643.5, -56901.004, 0.0, 9.999952, 9.999184 
2.3499437e+2, 2.3481798e+2, -743106.0, -783145.44, -28619.29, -0.008869482, -0.3426618, -728199.3, -89452.3, 0.0, 9.999646, 9.999142 
2.3499215e+2, 2.4481648e+2, -682966.7, -845336.75, -41568.023, -0.029286832, -0.3399801, -672943.6, -132181.22, 0.0, 10.0, 9.997868 
2.3499072e+2, 2.5481394e+2, -438540.13, -686307.8, -37301.684, 0.0051390375, -0.40625378, -433046.13, 9744.586, 0.0, 10.001035, 9.997795 
2.3498888e+2, 2.6481256e+2, -251542.28, -364855.0, -55055.44, 0.028859723, -0.39693546, -229198.36, 115605.2, 0.0, 10.000893, 9.999387 
2.3498656e+2, 2.7481225e+2, -373914.16, -383326.13, -10755.276, 0.030027535, -0.39558005, -366880.38, -120078.49, 0.0, 9.999402, 9.999314 
2.3498474e+2, 2.8481132e+2, -374765.8, -448695.9, 42966.004, 0.0077916826, -0.36571994, -355052.0, -206242.36, 0.00000009734078, 9.999236, 9.998268 
2.3498371e+2, 2.9480967e+2, -136774.97, -300724.0, 39041.152, -0.00658067, -0.38287887, -127952.83, -77125.34, 0.0000024854203, 10.000258, 9.998122 
2.3498473e+2, 3.0480587e+2, -106995.09, -199410.97, -80111.92, 0.3260177, -0.59265846, -60720.094, -60720.094, 0.000014818683, 9.999873, 9.998676 
2.3497777e+2, 3.148065e+2, -262891.1, -55816.883, -117290.016, -0.006044586, -0.43786442, -2903.0977, -2903.0977, 0.000051300616, 9.997807, 10.000659 
2.4501653e+2, 1.2482827e+2, -1428017.9, -1618544.1, 26729.58, 0.24075265, -0.23243293, -1424338.9, 292307.38, 0.0007416808, 10.0020895, 9.999638 
2.4501058e+2, 1.3482586e+2, -1577285.4, -1698394.9, -99655.83, -0.16443536, -0.41285738, -1521229.0, 97439.195, 0.00038814702, 10.000685, 9.999101 
2.4500948e+2, 1.4482397e+2, -1559271.1, -1627195.9, -43335.477, -0.09867125, -0.511274, -1538175.3, -17487.184, 0.00013769997, 10.000065, 9.9992 
2.4501017e+2, 1.5482591e+2, -1416103.5, -1525185.8, -21633.03, 0.08836952, -0.2614386, -1411969.9, 10704.319, 0.000025817635, 10.0004635, 9.999035 
2.450093e+2, 1.6482621e+2, -1277596.0, -1361686.1, 12759.428, 0.12811927, -0.14748572, -1275702.6, 48969.594, 0.0000016011192, 10.000539, 9.999452 
2.4500725e+2, 1.7482455e+2, -1237655.8, -1292498.1, 18997.457, 0.049992688, -0.28826815, -1231717.9, -5032.6216, 0.0000000006420841, 10.000142, 9.999447 
2.45005e+2, 1.8482327e+2, -1165083.0, -1237540.1, -13474.131, 0.016367491, -0.34321773, -1162658.5, -33961.82, 0.0, 10.000112, 9.999154 
2.4500233e+2, 1.9482231e+2, -1028628.5, -1128563.3, -27613.361, 0.013993197, -0.38049027, -1021506.1, 9200.964, 0.0, 10.000412, 9.999085 
2.450002e+2, 2.0482183e+2, -896149.7, -975007.8, 23460.08, 0.012616817, -0.35067204, -889698.2, 43013.574, 0.0, 10.00047, 9.999446 
2.449988e+2, 2.1482173e+2, -851874.8, -903676.3, 13342.458, 0.026517, -0.33194304, -848640.2, -13929.214, 0.0, 10.000104, 9.999437 
2.449972e+2, 2.24821e+2, -778538.94, -898799.6, 3303.74, 0.04462125, -0.3092071, -778448.25, -41731.082, 0.0, 10.000289, 9.998705 
2.4499542e+2, 2.348195e+2, -573456.1, -753107.06, -8370.625, 0.06818814, -0.3547722, -573066.94, 65664.85, 0.0, 10.001043, 9.998671 
2.4499354e+2, 2.4481769e+2, -503414.56, -722386.7, 30363.568, 0.061185203, -0.3759109, -499282.2, 41467.99, 0.0, 10.001066, 9.998208 
2.4499163e+2, 2.5481546e+2, -522065.25, -684296.1, 52370.242, 0.03650741, -0.44545323, -506628.34, -63855.02, 0.0, 10.000283, 9.998173 
2.449894e+2, 2.6481426e+2, -367400.78, -433849.03, 15332.912, 0.033408303, -0.43253407, -364033.38, -19249.459, 0.0, 10.000141, 9.99928 
2.4498682e+2, 2.748141e+2, -190858.97, -303540.78, -34629.33, 0.057644043, -0.40752903, -181067.52, 65714.375, 0.0, 10.000702, 9.999234 
2.4498467e+2, 2.8481314e+2, -207958.55, -340931.28, 35218.09, 0.03274493, -0.38616824, -199206.95, -50416.656, 0.00000009803459, 10.000253, 9.998527 
2.4498315e+2, 2.948112e+2, -344021.06, -370243.38, 53502.754, -0.0037800998, -0.46411395, -302046.38, -251234.97, 0.0000023443192, 9.9987, 9.998399 
2.4498421e+2, 3.0480906e+2, -273188.56, -248684.47, -16794.54, 0.35912132, -0.53139585, -240147.83, -240147.83, 0.000014153015, 9.998614, 9.998941 
2.4497737e+2, 3.1480896e+2, 118270.46, 195129.23, -72097.16, 0.06746027, -0.47728565, 238399.4, 238399.4, 0.000049336963, 10.000161, 10.001239 
2.5501734e+2, 1.2482749e+2, -1461728.0, -1685392.3, -47520.195, 0.05804551, -0.29233384, -1452050.5, 264610.16, 0.000622871, 10.00208, 9.999183 
2.5501344e+2, 1.3482666e+2, -1587875.9, -1716159.6, -145886.84, 0.0281412, -0.29465047, -1492652.9, 126014.836, 0.00031436078, 10.00068, 9.998976 
2.5501218e+2, 1.4482439e+2, -1507825.9, -1515420.0, -41817.0, 0.1353364, -0.46430424, -1469633.9, 51055.266, 0.00010539114, 10.000039, 9.99998 
2.5501078e+2, 1.5482478e+2, -1359184.9, -1404181.1, 3974.474, 0.07546231, -0.45080325, -1358836.5, 63848.137, 0.000019009012, 10.00045, 9.999868 
2.550088e+2, 1.6482519e+2, -1253326.6, -1295356.5, -11271.355, -0.0026649265, -0.39689353, -1250494.8, 74184.58, 0.0000013062046, 10.000474, 9.999936 
2.5500646e+2, 1.7482537e+2, -1207557.3, -1223247.0, 16530.564, -0.07117707, -0.39917833, -1197104.5, 29570.31, 0.000000000635992, 10.00012, 9.9999275 
2.5500455e+2, 1.8482526e+2, -1177066.5, -1251953.0, -11358.116, -0.063689046, -0.3563287, -1175381.6, -46705.98, 0.0, 10.000058, 9.999084 
2.5500292e+2, 1.9482471e+2, -1037514.8, -1136956.3, -5358.95, 0.003550616, -0.34946987, -1037226.8, -6543.341, 0.0, 10.000361, 9.999053 
2.5500083e+2, 2.0482412e+2, -918261.44, -990254.5, 1018.8727, 0.007822385, -0.3251951, -918247.0, 14441.69, 0.0, 10.0003395, 9.999404 
2.549983e+2, 2.1482338e+2, -867727.3, -915404.44, 9540.694, -0.057811826, -0.36890385, -865889.0, -31196.6, 0.0, 10.000012, 9.999401 
2.54997e+2, 2.2482236e+2, -796961.1, -914986.75, 20095.38, -0.026477078, -0.3689334, -793633.44, -56932.516, 0.0, 10.000193, 9.998642 
2.54997e+2, 2.3482089e+2, -593586.44, -770116.1, 30661.203, 0.098935895, -0.40689343, -588412.56, 50303.57, 0.0, 10.000932, 9.998609 
2.5499532e+2, 2.4481976e+2, -455598.8, -604825.94, -8229.161, 0.11117463, -0.39902538, -455146.38, 85580.52, 0.0, 10.00099, 9.999051 
2.5499174e+2, 2.5481883e+2, -477794.75, -569142.7, 31931.889, -0.003575928, -0.42466784, -467739.4, -25004.873, 0.0, 10.000177, 9.999017 
2.5498945e+2, 2.6481763e+2, -450435.75, -588418.1, 26829.637, 0.0011568308, -0.4025666, -445402.53, -100656.11, 0.0, 10.000071, 9.998251 
2.5498852e+2, 2.748161e+2, -278781.9, -465732.9, -740.68805, 0.13123477, -0.40717718, -278778.97, -32015.162, 0.0, 10.0006075, 9.998171 
2.5498548e+2, 2.8481525e+2, -159103.77, -220475.94, -33356.918, 0.06572209, -0.36285433, -144465.25, 4308.0566, 0.00000013920514, 10.000184, 9.999378 
2.549802e+2, 2.948149e+2, -302879.47, -250489.52, 1316.4589, -0.19499862, -0.36827785, -250456.47, -199679.97, 0.0000022917138, 9.998565, 9.999279 
2.5498113e+2, 3.0481467e+2, -265127.34, -228664.3, 32094.875, 0.16678238, -0.30088788, -209984.17, -209984.17, 0.0000129202135, 9.998599, 9.999086 
2.549778e+2, 3.1481257e+2, 169424.92, 312947.97, 56303.258, 0.03882615, -0.45416883, 332399.25, 332399.25, 0.00004582413, 10.000108, 10.002081 
2.650187e+2, 1.2482911e+2, -1704961.8, -1835071.3, 136403.88, 0.075942025, -0.32510498, -1618893.6, 97753.82, 0.0005136847, 10.000521, 9.998911 
2.6501563e+2, 1.3482927e+2, -1450471.4, -1645622.4, 11621.847, 0.14738414, -0.24020283, -1449781.6, 168863.86, 0.0002486243, 10.001566, 9.999044 
2.6501372e+2, 1.4482717e+2, -1336423.4, -1439294.8, 112628.984, 0.23246744, -0.3928408, -1264040.9, 256624.06, 0.00007773356, 10.001258, 9.999912 
2.650112e+2, 1.5482691e+2, -1426970.1, -1446576.9, 66182.66, 0.10008623, -0.43712676, -1369868.8, 52797.3, 0.000013419433, 10.000027, 9.999787 
2.6500884e+2, 1.6482702e+2, -1357626.4, -1330276.3, 45180.645, 0.004822528, -0.41181648, -1296746.4, 27915.879, 0.0000010267595, 9.999689, 10.000078 
2.650069e+2, 1.7482743e+2, -1187676.8, -1198251.3, 26270.393, -0.035834506, -0.4082113, -1166166.8, 60488.12, 0.0000000012219834, 10.000184, 10.00007 
2.6500517e+2, 1.8482731e+2, -1115881.8, -1236059.5, 8760.656, -0.029078674, -0.36822036, -1115246.5, 13408.878, 0.0, 10.000542, 9.9989605 
2.6500353e+2, 1.9482654e+2, -1004164.75, -1139217.5, -14277.179, 0.021254651, -0.36685637, -1002671.94, 27993.14, 0.0, 10.000666, 9.998896 
2.6500145e+2, 2.0482574e+2, -865504.5, -975009.25, -6885.2637, 0.019783566, -0.35226658, -865073.25, 67599.02, 0.0, 10.000748, 9.9993105 
2.649988e+2, 2.1482481e+2, -780692.2, -887574.5, -25566.389, -0.03766211, -0.40185347, -774891.5, 59786.203, 0.0, 10.000672, 9.999276 
2.6499745e+2, 2.2482371e+2, -766859.75, -881264.2, 17113.43, -0.0005354495, -0.41186246, -764354.6, -27667.91, 0.0, 10.000309, 9.998821 
2.649976e+2, 2.3482238e+2, -780154.44, -842895.7, 22869.93, 0.14036027, -0.4546905, -772703.06, -134002.84, 0.0, 9.999572, 9.99877 
2.649959e+2, 2.4482161e+2, -671333.75, -686148.94, -15128.643, 0.156988, -0.4264166, -661896.5, -121189.28, 0.0, 9.999434, 9.999229 
2.6499224e+2, 2.548213e+2, -485809.06, -548533.2, -45093.477, 0.04239266, -0.40687883, -462243.9, -19535.115, 0.0, 10.000039, 9.99921 
2.6498973e+2, 2.6482025e+2, -451031.34, -588883.0, -16027.778, 0.031283762, -0.3814752, -449192.34, -104472.484, 0.0, 10.000057, 9.9982605 
2.6498863e+2, 2.7481845e+2, -444353.56, -537077.9, 17536.137, 0.14589833, -0.41305742, -441147.9, -194407.44, 0.0, 9.99945, 9.998233 
2.6498526e+2, 2.8481767e+2, -266513.56, -257118.98, 2466.0156, 0.07181664, -0.37459156, -256511.02, -107761.58, 0.00000017298198, 9.9993725, 9.99952 
2.6497945e+2, 2.9481757e+2, -102355.875, -132050.44, -39301.027, -0.1811319, -0.3733099, -75191.11, -24441.535, 0.000002277503, 9.999829, 9.999492 
2.6498026e+2, 3.0481756e+2, -172489.11, -245200.8, -3480.2612, 0.18563399, -0.26770872, -172322.92, -172322.92, 0.000011809922, 9.999476, 9.998568 
2.6497766e+2, 3.1481478e+2, -125903.266, 166971.86, -22405.469, 0.1292272, -0.42980078, 168676.02, 168676.02, 0.000042458643, 9.998072, 10.002067 
2.750201e+2, 1.2483299e+2, -1705709.3, -1842245.1, 141135.89, 0.09973355, -0.34711924, -1617197.6, 99410.484, 0.00042107303, 10.000537, 9.998856 
2.7501667e+2, 1.348338e+2, -1421549.6, -1590397.3, 53069.727, 0.062891245, -0.23278305, -1406255.0, 212345.27, 0.00019522583, 10.001586, 9.999411 
2.7501372e+2, 1.4483246e+2, -1406259.0, -1582750.9, 50004.285, 0.07064093, -0.28111792, -1393076.3, 127538.195, 0.000056360343, 10.00125, 9.998934 
2.7501118e+2, 1.5483232e+2, -1498067.6, -1591054.6, 31741.516, 0.06684965, -0.21080661, -1488265.8, -65647.94, 0.000009372096, 10.00002, 9.998799 
2.750093e+2, 1.6483182e+2, -1373781.0, -1356511.9, 53329.086, 0.055356592, -0.19114988, -1311122.9, 13498.18, 0.0000008660051, 9.99966, 9.999908 
2.7500817e+2, 1.7483072e+2, -1205456.0, -1227327.1, 55342.43, 0.044201367, -0.32173148, -1159979.1, 66646.85, 0.000000004874734, 10.000156, 9.999879 
2.750064e+2, 1.8482937e+2, -1145756.3, -1279528.9, 3573.5793, 0.018547349, -0.37873697, -1145660.9, -17024.746, 0.0, 10.000463, 9.9987 
2.7500385e+2, 1.948278e+2, -1027824.94, -1174531.3, 2478.4224, -0.039886452, -0.43628058, -1027783.06, 2868.9038, 0.0, 10.000614, 9.998674 
2.7500167e+2, 2.0482676e+2, -892883.75, -1011503.94, -19442.938, -0.050346207, -0.42323, -889778.2, 42883.402, 0.0, 10.00066, 9.9991045 
2.749999e+2, 2.1482605e+2, -812055.75, -921502.5, -17462.324, -0.018045893, -0.4324107, -809337.2, 25329.742, 0.0, 10.00054, 9.9991045 
2.749983e+2, 2.2482511e+2, -763792.9, -840230.5, -19781.672, 0.032177847, -0.43619296, -758976.94, -22302.465, 0.0, 10.000163, 9.999174 
2.7499685e+2, 2.3482382e+2, -773367.44, -797658.2, 3846.8386, 0.08943339, -0.5080068, -772772.75, -134087.61, 0.0, 9.999439, 9.999144 
2.7499503e+2, 2.4482308e+2, -717155.2, -763797.25, -3805.6663, 0.10191007, -0.47108573, -716846.7, -176154.36, 0.0, 9.999359, 9.998733 
2.7499273e+2, 2.5482273e+2, -536534.8, -633819.0, -12309.237, 0.06184159, -0.40770763, -535001.5, -92303.56, 0.0, 9.999943, 9.998675 
2.7499002e+2, 2.6482204e+2, -386164.25, -436621.56, -51741.387, 0.029303363, -0.37432164, -353828.53, -9123.144, 0.0, 9.999988, 9.999338 
2.7498677e+2, 2.7482095e+2, -384464.9, -389204.16, 3741.6733, -0.0060845064, -0.43944073, -382405.63, -135691.27, 0.00000000009324417, 9.999348, 9.999299 
2.7498373e+2, 2.848201e+2, -307710.0, -328996.66, 7845.9414, -0.043990113, -0.43862897, -305130.63, -156408.69, 0.00000023612336, 9.999318, 9.999049 
2.749806e+2, 2.9481897e+2, -143964.05, -201346.38, -10356.814, -0.08453144, -0.48884878, -142151.98, -91419.83, 0.0000024951785, 9.999754, 9.999052 
2.749811e+2, 3.048179e+2, -250774.11, -398751.03, -62891.85, 0.30248487, -0.42395812, -227656.05, -227656.05, 0.0000116764495, 9.999449, 9.997518 
2.7497622e+2, 3.148158e+2, -213899.14, 16642.346, -10754.764, 0.12159379, -0.40346205, 17142.969, 17142.969, 0.00004063622, 9.997935, 10.001097 
2.8502145e+2, 1.2483632e+2, -1741495.1, -1820860.6, 58487.883, 0.21432143, -0.25261465, -1710498.6, 6081.307, 0.00034660724, 10.000143, 9.999183 
2.850179e+2, 1.3483708e+2, -1545989.5, -1584593.6, -54197.25, 0.09735081, -0.19820851, -1507759.8, 110811.03, 0.00015383559, 10.000472, 9.999977 
2.8501433e+2, 1.4483616e+2, -1487465.8, -1649506.0, -31093.816, 0.040557545, -0.22211367, -1481704.0, 38875.832, 0.00004093297, 10.000816, 9.998684 
2.85012e+2, 1.5483557e+2, -1317581.9, -1533306.3, -17731.25, 0.08866926, -0.16795884, -1316134.1, 106453.32, 0.0000066741927, 10.001375, 9.998545 
2.850102e+2, 1.6483472e+2, -1155492.4, -1280397.3, 57107.95, 0.10251481, -0.15709217, -1133318.4, 191275.88, 0.00000074756446, 10.001296, 9.999643 
2.85009e+2, 1.7483337e+2, -1163422.5, -1242091.6, 28539.041, 0.09697622, -0.2802328, -1154159.9, 72442.36, 0.000000006090155, 10.000592, 9.999577 
2.8500718e+2, 1.8483192e+2, -1146598.5, -1254949.3, 23898.1, 0.06026831, -0.34521192, -1141561.6, -12948.699, 0.0, 10.000351, 9.998922 
2.8500456e+2, 1.9483031e+2, -1024872.9, -1150103.8, 36562.9, -0.022394335, -0.42565614, -1014979.44, 15647.453, 0.0, 10.000529, 9.998886 
2.850024e+2, 2.0482932e+2, -969648.75, -1057672.4, 25828.35, -0.012515888, -0.41604412, -962629.75, -29993.547, 0.0, 10.000182, 9.999009 
2.8500083e+2, 2.1482877e+2, -1020834.8, -1035501.06, 12112.914, 0.09694966, -0.3976234, -1014008.25, -179365.86, 0.0, 9.999169, 9.99898 
2.8499892e+2, 2.2482795e+2, -873067.94, -874918.94, 61899.777, 0.12533702, -0.3908773, -812086.75, -75437.27, 0.0, 9.999344, 9.999325 
2.8499663e+2, 2.3482674e+2, -565306.56, -681012.1, 48424.188, 0.06343627, -0.47013718, -547715.06, 90942.984, 0.0, 10.000799, 9.999289 
2.849946e+2, 2.4482578e+2, -494270.28, -679224.4, 42448.625, 0.04777741, -0.45256564, -484993.28, 55673.766, 0.0, 10.000973, 9.99854 
2.849928e+2, 2.548251e+2, -569723.0, -669285.25, 36631.85, 0.092276104, -0.4058102, -557697.56, -115020.84, 0.0, 9.999808, 9.998493 
2.8498995e+2, 2.648244e+2, -479864.22, -454577.22, -401.57672, 0.06748171, -0.37097266, -454570.84, -109887.25, 0.0, 9.999233, 9.999574 
2.8498587e+2, 2.7482367e+2, -384741.97, -362050.9, -30484.168, -0.018819368, -0.4306585, -340869.44, -94180.88, 0.0000000018932573, 9.999218, 9.999549 
2.849831e+2, 2.848227e+2, -317653.3, -372626.97, 2671.6218, -0.034416668, -0.43597108, -317523.78, -168826.94, 0.00000028816427, 9.999408, 9.998715 
2.8498155e+2, 2.9482135e+2, -132979.06, -225522.86, -23786.672, 0.033027504, -0.47465727, -127223.13, -76512.836, 0.0000027347362, 9.999965, 9.998782 
2.849812e+2, 3.0481976e+2, -159691.06, -354226.8, -71730.96, 0.34703323, -0.4466339, -136102.13, -136102.13, 0.000012525966, 10.00006, 9.997522 
2.849745e+2, 3.1481853e+2, -80354.66, 36625.184, 49418.645, 0.11390009, -0.33918878, 54707.277, 54707.277, 0.000040586296, 9.999042, 10.000691 
2.9502198e+2, 1.2483926e+2, -1690828.0, -1727427.6, 25536.78, 0.18577076, -0.027666789, -1677711.1, 38850.65, 0.00028487924, 10.000184, 9.999808 
2.9501912e+2, 1.3483915e+2, -1497307.8, -1487334.9, -37331.15, 0.14090988, -0.13379253, -1454658.6, 163898.05, 0.000121053716, 10.000496, 10.000629 
2.950154e+2, 1.448382e+2, -1448850.3, -1579078.9, -27526.975, 0.026833814, -0.21481994, -1443270.9, 77290.945, 0.000029834508, 10.000839, 9.999164 
2.9501325e+2, 1.5483662e+2, -1286309.9, -1467051.3, 10827.044, 0.04423821, -0.31122673, -1285663.6, 136911.63, 0.000004731658, 10.001366, 9.999004 
2.9501113e+2, 1.6483577e+2, -1191890.3, -1342765.3, 21758.14, 0.042737957, -0.30152506, -1188815.1, 135766.8, 0.00000054097734, 10.001247, 9.999234 
2.9500908e+2, 1.748356e+2, -1193459.8, -1295574.3, 16411.04, 0.017313797, -0.27137655, -1190887.1, 35695.055, 0.0000000012704189, 10.000568, 9.999212 
2.950071e+2, 1.8483508e+2, -1108539.5, -1165353.0, 19606.982, -0.0064672786, -0.2570149, -1102429.9, 26154.54, 0.0, 10.000298, 9.999567 
2.950052e+2, 1.9483404e+2, -987853.44, -1059680.0, 54080.074, -0.036482077, -0.34521794, -958848.2, 71742.16, 0.0, 10.000471, 9.999534 
2.9500327e+2, 2.0483334e+2, -986770.7, -1068029.4, -20274.969, 0.03269091, -0.3372675, -981992.8, -49396.004, 0.0, 10.000073, 9.99899 
2.9500118e+2, 2.148329e+2, -1041047.94, -1046563.4, -13683.639, 0.19397157, -0.30688074, -1029846.9, -195242.02, 0.0, 9.99904, 9.998963 
2.94999e+2, 2.2483218e+2, -899302.3, -896668.75, 105038.11, 0.17575347, -0.28329986, -792939.1, -56327.207, 0.0, 9.999206, 9.999241 
2.9499668e+2, 2.348311e+2, -589528.9, -700920.6, 115667.53, -0.037583318, -0.34277564, -516846.38, 121772.5, 0.0, 10.000672, 9.99921 
2.949944e+2, 2.4482982e+2, -494492.47, -662820.0, -10619.044, -0.09280939, -0.3609152, -493825.22, 46804.605, 0.0, 10.000896, 9.9986925 
2.9499218e+2, 2.5482827e+2, -572348.44, -655025.1, 2873.2874, 0.022254478, -0.40955868, -572248.7, -129603.0, 0.0, 9.999717, 9.998641 
2.9498923e+2, 2.6482725e+2, -527283.3, -541736.44, -10235.483, 0.04656979, -0.39127856, -521980.4, -177324.08, 0.0, 9.999183, 9.999 
2.949854e+2, 2.748265e+2, -438568.06, -452660.34, -23019.805, -0.01552786, -0.3921822, -421540.16, -174876.77, 0.0000000016821552, 9.999125, 9.998972 
2.9498306e+2, 2.848256e+2, -334822.2, -400180.97, 10928.969, -0.006514078, -0.35365888, -333043.13, -184370.06, 0.00000022409213, 9.99937, 9.998548 
2.9498196e+2, 2.9482457e+2, -151591.3, -256302.5, 15904.948, 0.04573856, -0.3403895, -149228.75, -98543.914, 0.0000026534976, 9.999918, 9.998602 
2.949802e+2, 3.0482316e+2, -85349.45, -189802.1, -110550.445, 0.21284524, -0.34521544, -15309.714, -15309.714, 0.00001292508, 10.000022, 9.998667 
2.9497167e+2, 3.1482264e+2, -74453.664, 61849.68, 60895.957, -0.13340195, -0.28325158, 85092.58, 85092.58, 0.000040883584, 9.998981, 10.000892 
3.0502298e+2, 1.2484112e+2, -1557915.5, -1690486.9, 137903.92, 0.22906828, -0.03990955, -1471193.8, 245348.6, 0.00023189351, 10.001226, 9.999562 
3.0502036e+2, 1.3484037e+2, -1452282.3, -1514039.5, -37395.383, 0.19753964, -0.16608001, -1434664.4, 183881.2, 0.000094942065, 10.000994, 10.000218 
3.0501628e+2, 1.4483975e+2, -1441891.6, -1518921.0, -34632.62, 0.04724734, -0.21820916, -1428610.6, 91936.92, 0.000021738364, 10.000676, 9.999638 
3.0501425e+2, 1.5483828e+2, -1367057.6, -1454438.6, -28046.816, 0.05607169, -0.35075596, -1358830.1, 63727.875, 0.0000030875526, 10.000604, 9.99945 
3.0501217e+2, 1.6483748e+2, -1262770.1, -1387387.6, 4374.254, 0.05260288, -0.3536023, -1262616.8, 61946.895, 0.0000002653173, 10.000783, 9.999155 
3.0500987e+2, 1.748374e+2, -1118722.4, -1267455.1, -44.972626, 0.020729957, -0.30534524, -1118722.4, 107842.22, 0.0, 10.001103, 9.99915 
3.0500793e+2, 1.8483725e+2, -1018486.94, -1083258.1, 12462.426, 0.029892469, -0.2690282, -1016171.9, 112391.93, 0.0, 10.000753, 9.999913 
3.0500636e+2, 1.948368e+2, -1086335.6, -1075086.9, 310.7839, 0.0774864, -0.33088884, -1075078.4, -44514.867, 0.0, 9.999641, 9.999841 
3.0500403e+2, 2.0483623e+2, -1071144.4, -1125769.5, -52088.105, 0.13081725, -0.31773704, -1039642.44, -107073.31, 0.0, 9.999562, 9.998849 
3.0500084e+2, 2.1483546e+2, -832109.6, -967045.8, -78642.36, 0.18839835, -0.3014478, -795960.4, 38621.33, 0.0, 10.000553, 9.99879 
3.049986e+2, 2.2483481e+2, -697312.94, -794791.7, 67974.93, 0.15425043, -0.26551393, -662409.56, 74179.66, 0.0, 10.000568, 9.999288 
3.0499735e+2, 2.348342e+2, -754809.94, -774418.44, 67395.945, 0.027261632, -0.28351313, -696508.8, -57916.703, 0.0, 9.999516, 9.999262 
3.049951e+2, 2.4483316e+2, -725526.1, -729158.56, -45019.41, -0.017671857, -0.29934227, -682286.3, -141686.17, 0.0, 9.999125, 9.99909 
3.0499175e+2, 2.5483158e+2, -569948.7, -605311.44, -30251.95, 0.02271271, -0.39116204, -552589.94, -109975.47, 0.0, 9.99953, 9.99907 
3.0498868e+2, 2.648305e+2, -459028.84, -549370.3, 15441.647, 0.04846833, -0.382855, -456462.38, -111837.19, 0.0, 9.999826, 9.998636 
3.049859e+2, 2.7482972e+2, -321667.7, -438883.8, -2682.71, 0.07919755, -0.35221353, -321606.34, -74972.34, 0.00000000014964384, 10.000114, 9.998589 
3.0498353e+2, 2.8482866e+2, -282945.06, -359133.1, 56577.4, 0.09706506, -0.31494382, -252832.38, -104187.11, 0.00000013461268, 9.9996805, 9.998666 
3.0498135e+2, 2.948276e+2, -365764.06, -343398.84, 61973.91, 0.07597437, -0.31781927, -291606.72, -240950.17, 0.0000024184974, 9.998406, 9.998714 
3.0497876e+2, 3.0482635e+2, -270978.16, -261841.3, -44120.957, 0.14329155, -0.31670812, -222052.88, -222052.88, 0.00001259153, 9.998663, 9.998843 
3.0497134e+2, 3.148265e+2, 61437.53, 78934.086, 18569.506, -0.10798228, -0.20581536, 90712.836, 90712.836, 0.00003964243, 10.000121, 10.000478 
3.1502393e+2, 1.2484211e+2, -1628638.9, -1839959.9, 72619.87, 0.14292146, -0.25872368, -1606089.4, 110430.02, 0.00018871382, 10.001251, 9.998519 
3.1502113e+2, 1.34841e+2, -1561016.4, -1719126.9, -40119.77, 0.15343075, -0.28076908, -1551418.8, 67116.33, 0.00007509751, 10.000935, 9.99883 
3.150166e+2, 1.44841e+2, -1419823.0, -1476321.8, -51159.527, -0.021597529, -0.21358187, -1389631.6, 130903.44, 0.00001598166, 10.000674, 9.999934 
3.1501472e+2, 1.548405e+2, -1341005.0, -1404367.4, -18683.781, 0.012462752, -0.28617248, -1335906.0, 86629.695, 0.00000170519, 10.00062, 9.999784 
3.1501302e+2, 1.6483982e+2, -1249132.4, -1354393.1, 1498.172, 0.034630302, -0.3073859, -1249111.0, 75428.87, 0.000000057148895, 10.000755, 9.9994 
3.1501108e+2, 1.7483881e+2, -1106820.0, -1233934.4, 19315.816, 0.005811713, -0.3768639, -1103949.6, 122599.41, 0.0, 10.001065, 9.999399 
3.150092e+2, 1.8483847e+2, -1027675.56, -1088728.4, -39728.47, 0.060621336, -0.37121385, -1008099.94, 120450.56, 0.0, 10.0006895, 9.9999075 
3.1500754e+2, 1.9483863e+2, -1093541.5, -1073867.0, -30704.684, 0.20904578, -0.3757941, -1051462.3, -20916.477, 0.0, 9.999574, 9.99988 
3.1500432e+2, 2.0483802e+2, -1113370.3, -1183670.3, -27347.455, 0.18570372, -0.34860715, -1103984.8, -171432.53, 0.0, 9.99944, 9.9985075 
3.1499946e+2, 2.1483654e+2, -875316.4, -1025521.4, -30109.078, -0.029914826, -0.372392, -869505.7, -34933.51, 0.0, 10.000424, 9.998447 
3.1499738e+2, 2.2483589e+2, -697873.0, -772544.1, 18954.742, -0.04556258, -0.32872567, -693337.0, 43243.5, 0.0, 10.0004635, 9.9994955 
3.149983e+2, 2.34836e+2, -755627.25, -751063.3, 37808.89, 0.15129153, -0.29223916, -715467.56, -76889.67, 0.0, 9.999404, 9.999481 
3.149963e+2, 2.448357e+2, -687901.1, -637237.56, -41875.92, 0.16714448, -0.27769676, -613627.6, -73048.805, 0.0, 9.999065, 9.999747 
3.1499112e+2, 2.5483495e+2, -539772.7, -514297.13, -8021.975, -0.01618265, -0.35424432, -511981.56, -69397.95, 0.0, 9.999409, 9.999753 
3.1498805e+2, 2.6483425e+2, -472999.75, -569448.56, 16380.397, -0.023922112, -0.33646956, -470293.72, -125704.055, 0.0, 9.9997835, 9.998523 
3.1498706e+2, 2.7483326e+2, -338277.75, -460693.25, 19447.42, 0.15566039, -0.315257, -335262.5, -88661.91, 0.00000000001473293, 10.00005, 9.998475 
3.149842e+2, 2.8483182e+2, -266123.4, -310863.75, -1687.1171, 0.1693095, -0.3279949, -266059.88, -117445.89, 0.000000108201135, 9.999627, 9.99902 
3.1497923e+2, 2.9483023e+2, -357600.38, -305652.13, 27662.334, -0.0115936175, -0.4208913, -293680.78, -243053.45, 0.0000023186144, 9.998312, 9.999022 
3.149765e+2, 3.048293e+2, -328067.0, -374682.7, 6495.416, 0.027544774, -0.3654721, -327178.84, -327178.84, 0.000012381474, 9.998634, 9.998083 
3.1497294e+2, 3.1482992e+2, -8538.772, -64172.438, 99386.38, -0.021609051, -0.13343109, 66850.16, 66850.16, 0.000038038284, 10.000099, 9.99951 
3.2502466e+2, 1.2484335e+2, -1762877.6, -1892251.1, 24883.625, 0.1524425, -0.3751353, -1758256.6, -41756.74, 0.00015750076, 10.000237, 9.998659 
3.250224e+2, 1.3484222e+2, -1533708.5, -1729921.5, -10373.841, 0.18813948, -0.38403067, -1533161.6, 85355.625, 0.00006189271, 10.001182, 9.998652 
3.2501787e+2, 1.4484261e+2, -1320511.0, -1447366.9, 24243.254, 0.01046794, -0.26286685, -1316035.8, 204479.97, 0.000012633238, 10.001424, 9.999781 
3.2501608e+2, 1.5484256e+2, -1254774.6, -1377003.5, -2774.629, 0.060413975, -0.2749283, -1254711.8, 167802.39, 0.0000008198343, 10.001256, 9.999673 
3.2501444e+2, 1.6484214e+2, -1232510.1, -1315455.1, 20136.387, 0.105983086, -0.27657312, -1227880.0, 96636.65, 0.000000004124255, 10.000766, 9.999649 
3.2501245e+2, 1.7484127e+2, -1251247.6, -1280022.6, 13183.399, 0.09642702, -0.356572, -1246121.0, -19596.256, 0.0, 9.999976, 9.999607 
3.250101e+2, 1.8484077e+2, -1160356.3, -1190762.9, -38206.703, 0.12424227, -0.35770607, -1134439.1, -5910.2563, 0.0, 9.999945, 9.9995575 
3.2500753e+2, 1.9484064e+2, -962141.25, -1047545.7, -81775.13, 0.20459427, -0.35720944, -912590.25, 117939.4, 0.0, 10.000647, 9.999532 
3.2500425e+2, 2.0484008e+2, -889530.44, -1039129.0, -30910.68, 0.17135149, -0.32894057, -883395.1, 49140.85, 0.0, 10.000805, 9.998845 
3.2500017e+2, 2.1483895e+2, -871777.9, -984380.25, 300.66434, 0.012703783, -0.3504587, -871777.06, -37227.832, 0.0, 10.000274, 9.998805 
3.2499808e+2, 2.2483847e+2, -794457.44, -806614.0, 56824.203, 0.02068106, -0.31397688, -743387.4, -6832.2827, 0.0, 9.999743, 9.999609 
3.2499814e+2, 2.3483852e+2, -770880.6, -748134.94, 47918.973, 0.20893052, -0.29799864, -710257.7, -71703.11, 0.0, 9.999244, 9.99958 
3.2499585e+2, 2.4483828e+2, -686455.6, -643231.25, 902.68097, 0.21675746, -0.27800074, -643212.44, -102657.016, 0.0, 9.999099, 9.999694 
3.24991e+2, 2.548378e+2, -532285.94, -517515.38, -36349.54, 0.03369509, -0.3234328, -487808.44, -45250.895, 0.0, 9.999476, 9.999702 
3.249881e+2, 2.6483712e+2, -478840.2, -564583.56, -20887.803, 0.014030376, -0.30423594, -474022.44, -129459.016, 0.0, 9.999718, 9.998589 
3.2498717e+2, 2.7483588e+2, -362777.88, -463524.5, -25490.467, 0.17936563, -0.31076902, -356695.6, -110119.016, 0.00000000010851988, 9.999857, 9.998545 
3.2498392e+2, 2.8483438e+2, -209355.0, -304081.97, -64453.95, 0.16466142, -0.32292154, -176733.42, -28143.002, 0.00000014604628, 10.000087, 9.998858 
3.2497826e+2, 2.9483297e+2, -74835.516, -185679.61, -96184.99, -0.02822766, -0.38601455, -19247.852, 31353.975, 0.0000023415487, 10.000321, 9.998881 
3.2497555e+2, 3.0483162e+2, -114026.34, -237310.19, -45744.26, 0.01413165, -0.37513494, -98907.18, -98907.18, 0.000012312151, 9.999986, 9.998358 
3.2497334e+2, 3.1483173e+2, -185936.31, -133884.63, 68081.18, 0.08419986, -0.2298447, -87024.32, -87024.32, 0.000036624067, 9.998844, 9.999617 
3.3502436e+2, 1.2484483e+2, -1676127.6, -1704636.3, -14567.792, 0.03942696, -0.3874567, -1670000.4, 46483.176, 0.00013853858, 10.000221, 9.999946 
3.350239e+2, 1.3484417e+2, -1466179.0, -1575979.6, 26271.568, 0.18866085, -0.45613602, -1460216.9, 158274.3, 0.000055370125, 10.001151, 9.999706 
3.3501983e+2, 1.4484462e+2, -1363347.0, -1528043.6, 2148.6934, 0.029678306, -0.35377753, -1363319.0, 157169.75, 0.000011804474, 10.001388, 9.999246 
3.3501792e+2, 1.5484466e+2, -1291613.9, -1448861.0, 1922.231, 0.09116004, -0.3044056, -1291590.4, 130900.836, 0.00000057438905, 10.001241, 9.999186 
3.3501598e+2, 1.6484465e+2, -1225120.3, -1294239.1, -20110.633, 0.15731896, -0.2503709, -1219694.8, 104797.74, 0.00000000201948, 10.000737, 9.999811 
3.3501363e+2, 1.7484471e+2, -1241011.8, -1256558.4, -4502.203, 0.18977983, -0.2528973, -1239802.1, -13310.203, 0.0, 9.999966, 9.999775 
3.3501026e+2, 1.8484415e+2, -1225554.3, -1304687.9, -24264.69, 0.119381, -0.23340957, -1218706.5, -90207.54, 0.0, 9.999854, 9.99882 
3.3500594e+2, 1.9484274e+2, -1024651.5, -1160893.9, -45807.926, -0.044058576, -0.28368235, -1010682.1, 19834.02, 0.0, 10.000581, 9.998784 
3.350034e+2, 2.0484228e+2, -829229.8, -891617.0, -62164.44, -0.010219794, -0.2588667, -790871.56, 141649.16, 0.0, 10.0007105, 9.999906 
3.350027e+2, 2.1484268e+2, -813466.8, -831330.1, -9562.912, 0.21703915, -0.23878251, -809313.25, 25200.016, 0.0, 10.000139, 9.99992 
3.350004e+2, 2.2484253e+2, -812541.94, -816328.8, 26687.893, 0.25792697, -0.22516218, -787680.4, -51167.02, 0.0, 9.999626, 9.999597 
3.3499646e+2, 2.3484172e+2, -791973.25, -755664.06, 36826.883, 0.09665311, -0.29357708, -732760.06, -94237.89, 0.0, 9.999098, 9.999594 
3.349934e+2, 2.44841e+2, -741813.5, -751729.9, 4784.159, 0.03596192, -0.29230845, -739881.75, -199352.48, 0.0, 9.999062, 9.998969 
3.3499113e+2, 2.548402e+2, -597161.1, -632098.44, -12814.125, 0.07297118, -0.29653883, -592965.2, -150429.48, 0.0, 9.999388, 9.998958 
3.3498865e+2, 2.6483914e+2, -472806.88, -544021.2, -25539.781, 0.07609027, -0.28312954, -464594.53, -120048.63, 0.0, 9.999681, 9.998746 
3.3498585e+2, 2.7483755e+2, -363415.78, -443707.8, -8674.055, 0.032657932, -0.34380507, -362489.4, -115926.68, 0.000000000044508567, 9.999764, 9.998724 
3.349824e+2, 2.8483635e+2, -254457.3, -394917.56, -65821.29, -0.021478802, -0.30624172, -228434.05, -79859.31, 0.00000018851506, 10.000063, 9.998251 
3.349782e+2, 2.9483587e+2, -126631.29, -284037.84, -74752.05, -0.101472154, -0.21208167, -96789.305, -46209.977, 0.0000023038672, 10.000269, 9.998238 
3.3497554e+2, 3.0483332e+2, -33472.19, -64560.22, -95173.74, -0.010005062, -0.35063335, 47418.53, 47418.53, 0.000011796056, 9.999965, 9.999554 
3.3497187e+2, 3.148317e+2, -126419.625, 17119.95, 39769.035, -0.0021260122, -0.49933442, 27401.844, 27401.844, 0.000034748333, 9.99872, 10.000719 
3.4502554e+2, 1.2484654e+2, -1389256.8, -1529152.6, -9071.757, 0.058630515, -0.3999392, -1388671.0, 327796.94, 0.00012841672, 10.002042, 10.000273 
3.450252e+2, 1.3484666e+2, -1487148.4, -1580370.1, -48067.996, 0.22738332, -0.39903513, -1466803.3, 151663.77, 0.00005393956, 10.000961, 9.999785 
3.450212e+2, 1.4484684e+2, -1504023.9, -1559434.5, -44421.52, 0.090504594, -0.3436853, -1479376.0, 41090.43, 0.00001321429, 10.000273, 9.999561 
3.450186e+2, 1.5484661e+2, -1437967.3, -1490173.1, -17247.492, 0.097983696, -0.3514001, -1432783.9, -10313.038, 0.00000089811203, 10.00011, 9.999449 
3.4501645e+2, 1.6484666e+2, -1309913.0, -1339667.4, 713.2989, 0.16625068, -0.30187517, -1309895.9, 14575.462, 0.0000000015154811, 10.000157, 9.999786 
3.4501436e+2, 1.7484714e+2, -1176580.4, -1225559.9, -18638.643, 0.25135776, -0.2608583, -1170294.4, 56172.645, 0.0, 10.00041, 9.999774 
3.45011e+2, 1.8484682e+2, -1130149.1, -1278037.4, 20800.773, 0.1761439, -0.21035427, -1127279.1, 1193.7689, 0.0, 10.00059, 9.998654 
3.4500644e+2, 1.9484536e+2, -1031446.7, -1186165.1, 27122.668, -0.05028147, -0.2451501, -1026829.75, 3662.6145, 0.0, 10.000622, 9.9986 
3.4500378e+2, 2.0484483e+2, -879259.44, -888752.06, -21198.994, -0.015400764, -0.22951028, -862281.94, 70215.695, 0.0, 10.00025, 10.000144 
3.4500304e+2, 2.1484506e+2, -910788.75, -856848.0, -57105.414, 0.28609458, -0.24923244, -820664.4, 13825.439, 0.0, 9.999368, 10.00012 
3.4500057e+2, 2.2484486e+2, -863424.4, -855764.3, -6061.899, 0.3329637, -0.2434492, -852423.9, -115934.1, 0.0, 9.999348, 9.999458 
3.449962e+2, 2.3484415e+2, -633878.0, -697993.5, -26917.143, 0.111794315, -0.287351, -624076.06, 14422.745, 0.0, 10.0002575, 9.999434 
3.4499308e+2, 2.4484342e+2, -519849.38, -623964.44, -24139.938, 0.032303967, -0.28359842, -514524.63, 25980.768, 0.0, 10.000514, 9.999142 
3.4499112e+2, 2.5484252e+2, -478886.2, -560195.7, 4332.273, 0.10223724, -0.31302494, -478656.03, -36144.504, 0.0, 10.000135, 9.999096 
3.449888e+2, 2.6484147e+2, -444139.9, -537331.1, 38750.26, 0.11739488, -0.30376896, -430132.44, -85610.49, 0.0, 9.999913, 9.998678 
3.4498605e+2, 2.7484e+2, -347565.1, -442653.34, 17485.855, 0.079816036, -0.340949, -344451.56, -97912.54, 0.0, 9.9999075, 9.998661 
3.4498265e+2, 2.8483906e+2, -290079.7, -393496.7, -3882.0398, 0.023224428, -0.28580794, -289934.2, -141384.73, 0.00000016974016, 9.999765, 9.998391 
3.4497848e+2, 2.9483873e+2, -222989.14, -316246.44, 20323.916, -0.052150734, -0.1886277, -218752.36, -168200.42, 0.0000020169734, 9.999553, 9.998362 
3.4497577e+2, 3.0483586e+2, -61713.09, -75807.16, 4148.0186, 0.034215327, -0.36461416, -60582.914, -60582.914, 0.0000103175025, 9.999742, 9.999594 
3.4497193e+2, 3.1483406e+2, 57479.305, 73471.78, 7961.038, 0.07500512, -0.537698, 76759.07, 76759.07, 0.000031962787, 10.0001135, 10.000432 
3.550275e+2, 1.24848545e+2, -1434686.6, -1622874.8, -119621.59, -0.017645461, -0.40145922, -1376586.8, 339865.8, 0.00012227354, 10.002037, 9.999631 
3.5502598e+2, 1.3484973e+2, -1536132.0, -1682437.8, -78199.35, 0.17958622, -0.21521927, -1502203.3, 116241.34, 0.00005490219, 10.000982, 9.999065 
3.5502154e+2, 1.4484943e+2, -1428460.1, -1413695.9, -63408.375, 0.065383404, -0.22193338, -1357241.4, 163205.81, 0.000015641235, 10.000309, 10.000553 
3.5501775e+2, 1.5484838e+2, -1364328.3, -1349089.3, -13269.327, -0.026367094, -0.40699005, -1341407.4, 81045.766, 0.0000017221555, 10.000153, 10.0004015 
3.550155e+2, 1.6484812e+2, -1326375.5, -1363534.1, -4780.854, 0.024973173, -0.43093237, -1325770.3, -1316.4906, 0.000000007086625, 10.000113, 9.999641 
3.5501426e+2, 1.7484856e+2, -1188400.1, -1246554.0, 1282.3744, 0.17112231, -0.37980163, -1188371.9, 38078.176, 0.0, 10.000393, 9.999638 
3.550119e+2, 1.8484877e+2, -1113848.0, -1224993.8, 13974.123, 0.18453799, -0.28878957, -1112118.0, 16332.696, 0.0, 10.000509, 9.999058 
3.5500863e+2, 1.9484866e+2, -1010519.94, -1129045.4, 39812.145, 0.084455185, -0.23231186, -998388.8, 32068.113, 0.0, 10.000563, 9.999021 
3.5500506e+2, 2.0484784e+2, -941364.94, -993934.94, -63633.887, 0.06663145, -0.23246247, -898801.0, 33664.57, 0.0, 10.000144, 9.999476 
3.55001e+2, 2.1484616e+2, -974448.1, -960688.75, -78833.0, 0.122198984, -0.37726226, -888435.8, -53957.605, 0.0, 9.999247, 9.999465 
3.5499835e+2, 2.2484553e+2, -901349.8, -911720.0, 19382.281, 0.15530248, -0.36431602, -886471.06, -149987.36, 0.0, 9.999247, 9.999124 
3.5499716e+2, 2.348459e+2, -675682.06, -756761.0, 16788.111, 0.15770286, -0.26627675, -672343.4, -33860.207, 0.0, 10.000137, 9.999089 
3.5499457e+2, 2.4484572e+2, -465580.1, -489226.03, -47832.152, 0.109515764, -0.23885123, -428131.4, 112351.7, 0.0, 10.000425, 10.000108 
3.5499057e+2, 2.5484475e+2, -426001.78, -423459.7, -1000.24304, 0.013084569, -0.37218648, -423113.3, 19371.963, 0.0, 10.000029, 10.000083 
3.5498822e+2, 2.6484406e+2, -470060.16, -581847.06, 29658.861, 0.04607599, -0.36371556, -462678.6, -118187.03, 0.0, 9.99987, 9.998393 
3.5498756e+2, 2.748434e+2, -382856.25, -495611.38, 29071.033, 0.2133929, -0.29520983, -375802.3, -129297.98, 0.0, 9.999822, 9.998338 
3.5498446e+2, 2.8484243e+2, -238057.61, -276739.22, -21658.38, 0.20063221, -0.26050165, -228361.34, -79846.93, 0.00000011654808, 9.999731, 9.999208 
3.549789e+2, 2.9484132e+2, -174317.4, -196762.95, 26817.03, -0.0007560265, -0.32953936, -156469.52, -105948.79, 0.0000016052002, 9.99948, 9.999215 
3.5497585e+2, 3.0483916e+2, -130084.07, -223195.08, 12246.983, 0.04324398, -0.42450452, -128500.16, -128500.16, 0.000008325357, 9.999751, 9.998585 
3.549727e+2, 3.1483948e+2, -73509.29, -185126.16, 57657.926, 0.080845825, -0.28510526, -49074.234, -49074.234, 0.000028551576, 10.000047, 9.998693 
3.6502856e+2, 1.2485235e+2, -1745159.0, -1787805.3, 6083.2173, 0.003960386, -0.39698476, -1744308.3, -27892.736, 0.000118926524, 9.999964, 9.999504 
3.650267e+2, 1.3485335e+2, -1545243.5, -1685143.9, 93147.93, 0.17055191, -0.23074579, -1498705.3, 119702.41, 0.000056465244, 10.000905, 9.999083 
3.6502284e+2, 1.4485262e+2, -1327402.3, -1418363.9, 104593.75, 0.12286509, -0.25799623, -1258828.9, 261585.5, 0.00001794202, 10.001249, 10.000062 
3.6501843e+2, 1.5485169e+2, -1278392.8, -1360275.0, 17575.441, -0.009434091, -0.38074437, -1274779.8, 147640.97, 0.000002788093, 10.00098, 9.999923 
3.6501572e+2, 1.6485108e+2, -1242878.9, -1339526.3, 6990.176, 0.014467839, -0.40458, -1242376.0, 82049.08, 0.00000008230677, 10.000761, 9.999494 
3.6501423e+2, 1.7485076e+2, -1183268.5, -1259414.5, -12925.089, 0.13256688, -0.4142431, -1181134.4, 45293.582, 0.0, 10.000498, 9.999498 
3.6501205e+2, 1.8485092e+2, -1137700.3, -1192620.1, 9966.194, 0.1753042, -0.34228656, -1135947.6, -7519.5293, 0.0, 10.000157, 9.999448 
3.650095e+2, 1.9485141e+2, -1111448.8, -1133792.3, 15275.891, 0.16150986, -0.26369295, -1103695.4, -73268.336, 0.0, 9.9996805, 9.9994135 
3.650057e+2, 2.0485085e+2, -981234.06, -1042663.6, -40847.13, 0.13042298, -0.24590413, -960842.2, -28408.738, 0.0, 10.000002, 9.999209 
3.6500064e+2, 2.1484901e+2, -720137.44, -868416.6, -49916.453, 0.073697165, -0.3771252, -704899.56, 129549.79, 0.0, 10.001129, 9.99919 
3.6499783e+2, 2.2484812e+2, -642439.25, -808620.9, 76760.25, 0.08841725, -0.3686273, -612409.7, 124048.25, 0.0, 10.001113, 9.998939 
3.649974e+2, 2.3484808e+2, -727817.5, -801754.9, 67064.77, 0.18633309, -0.29050258, -688207.06, -49746.99, 0.0, 9.999862, 9.998916 
3.6499497e+2, 2.4484757e+2, -642104.75, -596761.6, -11038.311, 0.16985814, -0.2797664, -594217.25, -53753.723, 0.0, 9.999284, 9.999933 
3.6499044e+2, 2.5484642e+2, -529449.9, -487864.06, -70816.88, 0.039413687, -0.4146179, -434850.63, 7618.632, 0.0, 9.999374, 9.999959 
3.64988e+2, 2.64846e+2, -497288.53, -553930.44, -33251.195, 0.06140929, -0.39013976, -481932.06, -137459.05, 0.0, 9.999511, 9.998756 
3.6498764e+2, 2.7484605e+2, -368526.53, -447834.5, -4042.429, 0.2513509, -0.28612784, -368321.0, -121843.47, 0.0, 9.999741, 9.998706 
3.6498475e+2, 2.8484523e+2, -211211.08, -253019.3, -39441.457, 0.25551102, -0.2627337, -187476.52, -38990.63, 0.000000055764154, 9.999853, 9.999319 
3.6497918e+2, 2.9484373e+2, -118647.38, -156634.1, -67932.8, 0.0754081, -0.38391954, -67102.71, -16606.033, 0.0000011855267, 9.999807, 9.99933 
3.6497617e+2, 3.048425e+2, -122745.49, -204632.13, -39634.586, 0.10811871, -0.40087518, -106704.11, -106704.11, 0.0000067298934, 9.999765, 9.998694 
3.649728e+2, 3.1484324e+2, -155484.05, -229465.78, 62873.086, 0.12538984, -0.22399978, -119527.34, -119527.34, 0.00002565761, 9.999527, 9.998639 
3.7502798e+2, 1.24858186e+2, -1707495.6, -1720104.4, -12202.051, -0.110613056, -0.34757262, -1700065.5, 16289.029, 0.0001191897, 10.000002, 9.999946 
3.7502703e+2, 1.3485765e+2, -1483142.3, -1558910.6, 136633.0, 0.080711044, -0.42621017, -1379238.6, 239116.31, 0.00005856906, 10.0009165, 9.999939 
3.7502456e+2, 1.4485644e+2, -1471292.0, -1705620.9, 80831.03, 0.1374108, -0.44978696, -1446114.6, 74252.78, 0.000020069963, 10.001202, 9.998114 
3.7502018e+2, 1.5485641e+2, -1410490.9, -1642923.1, 19821.031, 0.036755, -0.28307837, -1408812.8, 13561.799, 0.0000038584762, 10.001014, 9.997969 
3.750169e+2, 1.6485555e+2, -1261651.4, -1370431.3, -13140.013, 0.028482597, -0.22541176, -1260086.8, 64298.67, 0.00000020238203, 10.000728, 9.999296 
3.7501404e+2, 1.7485383e+2, -1200911.8, -1292164.0, -10651.112, 0.037534792, -0.3572396, -1199685.1, 26714.984, 0.0, 10.000477, 9.999285 
3.7501118e+2, 1.8485323e+2, -1120484.1, -1139311.8, -17901.498, 0.04631655, -0.37008673, -1109672.1, 18733.385, 0.0, 10.000084, 9.999846 
3.7500858e+2, 1.948536e+2, -1095183.9, -1078217.4, 8712.926, 0.07856205, -0.34517583, -1074540.0, -44137.043, 0.0, 9.999593, 9.999832 
3.7500542e+2, 2.048538e+2, -991296.3, -1042572.6, -9216.442, 0.08227782, -0.27472168, -989690.06, -57288.473, 0.0, 9.999907, 9.999259 
3.750016e+2, 2.1485369e+2, -734576.1, -868179.5, 1872.3365, 0.03600685, -0.23959656, -734549.9, 99853.09, 0.0, 10.001002, 9.999251 
3.7499866e+2, 2.2485267e+2, -657563.94, -818340.94, 17769.088, 0.040781163, -0.24557531, -655623.5, 80788.61, 0.0, 10.001008, 9.998927 
3.749965e+2, 2.3485059e+2, -742372.9, -809190.4, 29336.37, 0.09426136, -0.37272885, -731320.75, -92890.11, 0.0, 9.999756, 9.998919 
3.749939e+2, 2.4484897e+2, -742632.06, -786414.1, -17179.883, 0.1139422, -0.40987357, -736695.7, -196248.77, 0.0, 9.999204, 9.998669 
3.749905e+2, 2.5484762e+2, -636228.7, -686712.0, -56001.71, 0.07805313, -0.4368712, -600042.94, -157580.1, 0.0, 9.999271, 9.998645 
3.7498778e+2, 2.648473e+2, -435646.25, -412799.25, -33781.816, 0.06659543, -0.37982944, -388561.75, -44095.38, 0.0, 9.999456, 9.99975 
3.7498593e+2, 2.7484792e+2, -307183.44, -300996.16, 16332.717, 0.0791969, -0.321875, -287466.66, -41007.492, 0.0, 9.999657, 9.999755 
3.7498304e+2, 2.848475e+2, -252969.13, -332627.53, -49561.86, 0.07616823, -0.28920746, -229215.77, -80752.35, 0.00000003400916, 9.99982, 9.998792 
3.749791e+2, 2.9484606e+2, -172237.5, -251471.25, -56634.473, 0.05467918, -0.34255314, -142738.81, -92259.97, 0.000000899484, 9.999728, 9.998722 
3.7497622e+2, 3.0484575e+2, -48029.656, -37625.08, -52997.336, 0.11771865, -0.2914644, 10424.6875, 10424.6875, 0.000005766145, 9.999719, 9.999865 
3.7497154e+2, 3.1484494e+2, -60893.008, -16088.268, 99329.22, -0.009681239, -0.39026535, 63333.527, 63333.527, 0.000023929499, 9.999452, 10.000144 
3.8502875e+2, 1.2486225e+2, -1634758.8, -1701299.4, -105825.22, -0.05149694, -0.28317028, -1557097.1, 159218.86, 0.00012316402, 10.000586, 9.99979 
3.8502738e+2, 1.3486105e+2, -1484621.4, -1554492.0, -55980.625, 0.03243065, -0.43457225, -1453569.5, 164752.31, 0.000061385945, 10.000872, 10.000001 
3.8502598e+2, 1.4485957e+2, -1546178.8, -1755393.5, -85105.234, 0.18798916, -0.48083153, -1515932.1, 4404.426, 0.000022093489, 10.000746, 9.997991 
3.8502142e+2, 1.5485968e+2, -1545130.9, -1720666.5, -42049.42, 0.11238273, -0.28944176, -1535577.9, -113235.47, 0.000004863891, 10.000156, 9.997843 
3.8501793e+2, 1.6485876e+2, -1344498.3, -1432910.4, 39316.93, 0.09175889, -0.22365077, -1329543.6, -5189.8613, 0.00000029520132, 10.000233, 9.999117 
3.8501477e+2, 1.7485681e+2, -1143650.0, -1284822.9, 25557.455, 0.046550028, -0.36199197, -1139165.6, 87204.83, 0.0, 10.000937, 9.999118 
3.8501143e+2, 1.8485604e+2, -1005531.44, -1095330.0, -9303.995, 0.029164016, -0.37664312, -1004577.6, 123799.46, 0.0, 10.000916, 9.999752 
3.850083e+2, 1.9485626e+2, -1027096.2, -1061042.4, -45065.72, 0.074692294, -0.35976532, -995913.2, 34462.87, 0.0, 10.000109, 9.999711 
3.850053e+2, 2.0485637e+2, -987110.8, -1029666.2, -5571.825, 0.0855797, -0.29713202, -986393.4, -54018.098, 0.0, 9.999894, 9.999352 
3.850023e+2, 2.1485625e+2, -831146.9, -908785.6, -8380.24, 0.043820325, -0.2689481, -830252.6, 4123.3438, 0.0, 10.000301, 9.999319 
3.8499933e+2, 2.2485542e+2, -747514.4, -835748.0, -18419.941, 0.048799556, -0.27023628, -743823.4, -7440.277, 0.0, 10.000295, 9.999138 
3.8499635e+2, 2.3485376e+2, -708096.0, -768377.4, -16240.552, 0.10178356, -0.37918878, -703999.0, -65601.03, 0.0, 9.999898, 9.999122 
3.8499355e+2, 2.448524e+2, -669365.2, -778121.56, 40127.004, 0.13490777, -0.3894309, -656162.56, -115749.55, 0.0, 9.99984, 9.9984045 
3.8499072e+2, 2.5485116e+2, -519050.97, -664238.56, 57891.06, 0.13489169, -0.37904638, -498794.2, -56364.06, 0.0, 10.000223, 9.998336 
3.849878e+2, 2.6485068e+2, -338995.7, -360813.78, 87202.04, 0.09388413, -0.32782143, -262022.97, 82412.91, 0.0, 10.000092, 9.999806 
3.8498482e+2, 2.7485088e+2, -338431.0, -305153.03, 42571.824, 0.025512017, -0.31844902, -276084.06, -29653.234, 0.0, 9.999402, 9.999847 
3.8498202e+2, 2.848503e+2, -341840.9, -401624.9, -8802.2, 0.025712276, -0.29182327, -340571.88, -192135.13, 0.000000026095549, 9.999326, 9.998555 
3.8497925e+2, 2.9484898e+2, -173321.42, -280108.8, -11156.455, 0.09988509, -0.30861536, -172168.33, -121714.62, 0.00000066980994, 9.999851, 9.998464 
3.8497624e+2, 3.048488e+2, -13243.243, -35595.05, -35592.617, 0.14204279, -0.224863, 12886.821, 12886.821, 0.000005131084, 10.000013, 9.99973 
3.8497108e+2, 3.1484756e+2, -7588.483, 63244.65, -3538.08, 0.0058886013, -0.3609922, 63420.938, 63420.938, 0.000023471404, 9.999591, 10.000612 
3.9503032e+2, 1.248647e+2, -1708570.9, -1835877.5, -117308.195, -0.012211007, -0.20136273, -1638759.0, 77539.12, 0.0001272644, 10.000535, 9.998886 
3.9502737e+2, 1.3486357e+2, -1542557.8, -1664740.1, -34194.902, -0.080598965, -0.2662172, -1533638.8, 84669.43, 0.00006380605, 10.0008545, 9.999246 
3.950267e+2, 1.4486212e+2, -1440157.6, -1533760.4, -119740.016, 0.1575032, -0.34786806, -1358397.6, 161923.05, 0.000023677207, 10.00072, 9.999531 
3.950218e+2, 1.5486145e+2, -1428859.1, -1486533.0, -53610.832, 0.09982293, -0.39539325, -1396821.6, 25502.834, 0.000005569423, 10.000177, 9.999441 
3.950185e+2, 1.6486059e+2, -1356542.3, -1442819.3, 50414.61, 0.09847903, -0.40128294, -1333328.9, -8997.795, 0.00000035120044, 10.000178, 9.999073 
3.9501616e+2, 1.7485966e+2, -1156105.1, -1294623.5, 62313.445, 0.0649809, -0.42835835, -1132198.9, 94140.375, 0.0, 10.000878, 9.999079 
3.950127e+2, 1.8485937e+2, -1061958.1, -1193410.9, -49077.66, 0.037719633, -0.36465818, -1045656.6, 82686.65, 0.0, 10.000828, 9.9991255 
3.950084e+2, 1.9485947e+2, -1084239.3, -1155165.9, -65352.465, 0.04890075, -0.29130143, -1045348.06, -15002.778, 0.0, 10.000009, 9.999111 
3.9500502e+2, 2.0485865e+2, -990900.1, -1010681.3, -1937.3153, 0.045633126, -0.30189764, -990712.1, -58358.832, 0.0, 9.999777, 9.99954 
3.950023e+2, 2.1485674e+2, -839397.3, -887703.7, 19980.64, -0.0033249578, -0.47241598, -832204.0, 2164.1338, 0.0, 10.000144, 9.999535 
3.9499953e+2, 2.2485644e+2, -737855.4, -788513.0, -41780.61, 0.02056109, -0.45261046, -714325.5, 22045.137, 0.0, 10.000175, 9.999522 
3.949966e+2, 2.3485756e+2, -701299.25, -721633.6, -19769.08, 0.11410754, -0.31689918, -689236.06, -50873.68, 0.0, 9.999762, 9.999508 
3.9499372e+2, 2.4485782e+2, -626222.6, -674587.44, 44004.93, 0.14195, -0.22095017, -600193.25, -59831.09, 0.0, 9.999776, 9.999152 
3.9499086e+2, 2.5485697e+2, -478007.7, -559402.3, 82841.52, 0.10113549, -0.24412204, -426406.63, 15965.23, 0.0, 10.0001335, 9.9991045 
3.9498767e+2, 2.6485604e+2, -408347.28, -492103.13, 53064.2, 0.05049923, -0.23500182, -382626.63, -38245.15, 0.0, 10.000033, 9.998936 
3.949841e+2, 2.7485478e+2, -414241.1, -445115.34, 28456.473, -0.013816868, -0.28029478, -397304.22, -150911.03, 0.0, 9.999319, 9.998932 
3.9498138e+2, 2.8485358e+2, -344685.97, -387220.34, 882.5817, 0.00457895, -0.2771843, -344667.7, -196261.16, 0.000000010243951, 9.999254, 9.998683 
3.9497927e+2, 2.9485244e+2, -184239.0, -271834.4, 23958.97, 0.091792196, -0.2834348, -178114.06, -127692.64, 0.0000005130985, 9.999729, 9.998576 
3.949759e+2, 3.0485162e+2, -111904.08, -236801.48, -54602.492, 0.079894364, -0.20139548, -91399.34, -91399.34, 0.0000059963604, 9.999991, 9.99836 
3.9497077e+2, 3.148508e+2, -58083.117, -23513.135, 26787.49, -0.03362148, -0.15969005, -8918.029, -8918.029, 0.000027747768, 9.999514, 10.000054 
4.0503243e+2, 1.2486686e+2, -1672157.8, -1834752.5, -24914.98, 0.14787899, -0.21438543, -1668425.5, 47853.8, 0.0001282802, 10.000825, 9.998767 
4.0502724e+2, 1.348662e+2, -1704390.6, -1757459.0, 35295.02, -0.11157366, -0.22358361, -1686768.3, -68481.25, 0.00006493345, 9.999792, 9.99913 
4.0502706e+2, 1.448653e+2, -1549862.3, -1531322.6, -7468.3125, 0.17760219, -0.26734877, -1528688.4, -8394.454, 0.00002457309, 9.999737, 10.000016 
4.0502247e+2, 1.5486436e+2, -1306169.0, -1374426.0, -50387.62, 0.1262906, -0.3937198, -1279439.8, 142858.55, 0.000005781208, 10.000783, 9.999921 
4.0501916e+2, 1.6486362e+2, -1261587.3, -1365991.3, 30915.197, 0.12746163, -0.4247727, -1253119.6, 71182.4, 0.0000003430959, 10.000703, 9.999343 
4.0501636e+2, 1.7486331e+2, -1349573.3, -1358959.3, 39973.496, 0.07624707, -0.41710028, -1314018.3, -87715.29, 0.0, 9.999428, 9.999333 
4.0501282e+2, 1.84863e+2, -1302457.0, -1345627.6, -12859.138, 0.049099676, -0.3505496, -1298917.0, -170610.4, 0.0, 9.999345, 9.998789 
4.0500885e+2, 1.948624e+2, -1049217.1, -1178198.5, -24302.805, 0.0812489, -0.31239694, -1044789.94, -14473.895, 0.0, 10.000427, 9.998751 
4.0500537e+2, 2.0486127e+2, -866643.6, -950507.94, 48924.78, 0.06970419, -0.3348917, -844140.25, 88186.89, 0.0, 10.000628, 9.999539 
4.0500224e+2, 2.1485944e+2, -880753.56, -911440.2, 30744.318, -0.00475982, -0.4990213, -861736.56, -27395.48, 0.0, 9.999866, 9.999508 
4.0499938e+2, 2.248592e+2, -826544.06, -849645.6, -32096.99, 0.01998489, -0.46271205, -803982.7, -67638.6, 0.0, 9.999648, 9.999357 
4.0499675e+2, 2.3486044e+2, -672828.56, -730283.75, -70160.81, 0.14610355, -0.2995699, -625741.8, 12595.533, 0.0, 10.000045, 9.999315 
4.0499386e+2, 2.448609e+2, -561462.06, -598888.1, -19554.494, 0.17316176, -0.18981308, -553109.3, -12774.555, 0.0, 10.000025, 9.999554 
4.0499064e+2, 2.5486058e+2, -526287.7, -528330.3, -24697.506, 0.10031911, -0.20672753, -502590.4, -60253.547, 0.0, 9.999586, 9.999575 
4.0498737e+2, 2.648596e+2, -516363.6, -579318.9, -31825.646, 0.053537183, -0.21120678, -503078.38, -158732.11, 0.0, 9.999439, 9.99862 
4.0498403e+2, 2.748577e+2, -395362.1, -472922.34, -31180.29, 0.040619038, -0.2896781, -384381.7, -138015.73, 0.0, 9.999601, 9.9986 
4.049812e+2, 2.8485647e+2, -292292.34, -348315.2, 2268.2522, 0.058410794, -0.2788014, -292200.66, -143820.78, 0.0000000008315615, 9.999541, 9.998813 
4.049789e+2, 2.9485583e+2, -236073.03, -276602.94, 5957.2207, 0.11093504, -0.25499445, -235215.56, -184826.52, 0.0000007104038, 9.999273, 9.998758 
4.0497503e+2, 3.0485442e+2, -168613.89, -295740.63, 2402.0642, 0.016650816, -0.2258855, -168568.52, -168568.52, 0.000009515816, 9.9997425, 9.99808 
4.0497148e+2, 3.1485382e+2, 103106.7, 36662.938, 123981.07, 0.038983874, -0.12935315, 198239.8, 198239.8, 0.000039448827, 10.00068, 9.999915 
4.1503444e+2, 1.2486857e+2, -1609663.8, -1720590.9, -50843.152, 0.20130561, -0.32712176, -1589886.1, 126375.305, 0.0001259659, 10.000879, 9.999522 
4.1502663e+2, 1.3486905e+2, -1647175.3, -1658922.4, 2692.1067, -0.18475553, -0.29372653, -1646587.6, -28330.34, 0.00006410072, 9.999859, 9.999775 
4.150266e+2, 1.448692e+2, -1593244.4, -1614911.0, 19228.168, 0.12457455, -0.23833951, -1582007.8, -61751.563, 0.00002430965, 9.999722, 9.999448 
4.150232e+2, 1.5486844e+2, -1349424.8, -1454000.1, 2413.686, 0.09272713, -0.28520688, -1349369.1, 72894.15, 0.0000053776803, 10.0007515, 9.999387 
4.1501963e+2, 1.648679e+2, -1235663.0, -1296795.9, -27138.207, 0.07695184, -0.29555935, -1225354.1, 98911.555, 0.0000002359893, 10.000634, 9.999849 
4.1501498e+2, 1.7486781e+2, -1316233.8, -1283471.1, 4375.578, -0.03126207, -0.31884435, -1282896.9, -56636.293, 0.0, 9.9994, 9.999864 
4.150114e+2, 1.8486696e+2, -1313570.5, -1354408.9, 16283.866, -0.050196648, -0.3316515, -1307872.5, -179605.56, 0.0, 9.999285, 9.9987545 
4.1500932e+2, 1.9486506e+2, -1062997.0, -1186791.0, 25615.797, 0.058041606, -0.4225153, -1057905.9, -27618.016, 0.0, 10.000349, 9.998722 
4.1500613e+2, 2.0486423e+2, -900809.25, -999326.7, 10825.351, 0.06093446, -0.39849982, -899633.75, 32662.896, 0.0, 10.000524, 9.999261 
4.1500172e+2, 2.1486436e+2, -919508.56, -956234.1, 10077.041, -0.06387071, -0.33980057, -916925.25, -82630.82, 0.0, 9.999714, 9.999272 
4.149985e+2, 2.2486378e+2, -896383.8, -965767.94, -28440.379, -0.05283789, -0.2883195, -886216.1, -149913.61, 0.0, 9.999521, 9.998623 
4.1499645e+2, 2.3486231e+2, -740465.5, -845353.1, -44387.88, 0.09042656, -0.3228968, -724202.44, -85879.586, 0.0, 9.999935, 9.99858 
4.1499352e+2, 2.4486169e+2, -562514.75, -586036.2, -44655.605, 0.1142839, -0.29296377, -528097.2, 12233.312, 0.0, 9.999958, 9.999671 
4.1498962e+2, 2.548618e+2, -530300.0, -516114.13, -31257.61, 0.01607702, -0.27994218, -491154.78, -48828.4, 0.0, 9.999494, 9.9997015 
4.1498658e+2, 2.648612e+2, -501218.22, -536613.94, -34538.0, 0.0058446797, -0.2690047, -480107.72, -135776.02, 0.0, 9.999396, 9.998931 
4.149843e+2, 2.748597e+2, -387820.03, -435255.34, -14960.433, 0.07628692, -0.33564186, -383495.9, -137147.58, 0.0, 9.999514, 9.9988985 
4.149813e+2, 2.8485906e+2, -276824.25, -322859.03, -19513.055, 0.08428915, -0.288816, -269666.16, -121310.11, 0.00000000001177225, 9.999553, 9.99899 
4.1497758e+2, 2.948591e+2, -232028.95, -254491.7, 7179.094, 0.016761843, -0.21765819, -229930.55, -179573.86, 0.0000013022876, 9.999202, 9.998952 
4.1497323e+2, 3.048572e+2, -110324.6, -166987.36, 35628.64, -0.16273567, -0.29380798, -93136.016, -93136.016, 0.000014575742, 9.999717, 9.998972 
4.1497257e+2, 3.1485695e+2, 113995.2, 81692.18, 163169.53, 0.024347926, -0.25252917, 261810.66, 261810.66, 0.000055427667, 10.000588, 10.000267 
4.250353e+2, 1.2487202e+2, -1608888.0, -1665798.9, 11779.758, 0.21930154, -0.28925177, -1606546.1, 109683.555, 0.000120138786, 10.000639, 10.000011 
4.250267e+2, 1.3487238e+2, -1696284.1, -1650300.8, -57166.17, -0.13034141, -0.30525708, -1611676.0, 6549.0854, 0.00006079175, 9.99937, 10.000069 
4.2502698e+2, 1.4487296e+2, -1676211.0, -1670411.4, 68053.61, 0.22353686, -0.21301688, -1605195.9, -84976.16, 0.00002257458, 9.999214, 9.999313 
4.250235e+2, 1.548727e+2, -1453622.0, -1518907.0, 52283.832, 0.089994095, -0.1997091, -1424627.4, -2403.475, 0.0000044461326, 10.000101, 9.999255 
4.250199e+2, 1.6487207e+2, -1297466.9, -1353360.6, -32451.033, 0.06266362, -0.19801208, -1282587.4, 41641.06, 0.00000009724189, 10.00033, 9.999604 
4.2501536e+2, 1.7487116e+2, -1271182.8, -1289970.5, -79904.41, 0.050104942, -0.27937743, -1200122.0, 26110.348, 0.0, 9.999828, 9.999615 
4.250118e+2, 1.8486999e+2, -1234479.8, -1283690.4, -9239.354, 0.04869929, -0.32583663, -1232802.3, -104561.58, 0.0, 9.999684, 9.999053 
4.2500964e+2, 1.948683e+2, -1109924.4, -1179116.5, 5858.5176, 0.08739645, -0.4255234, -1109431.9, -79175.2, 0.0, 9.999884, 9.999006 
4.2500642e+2, 2.0486777e+2, -1013311.44, -1060761.8, -15585.636, 0.077903256, -0.38452992, -1008650.06, -76388.08, 0.0, 9.999788, 9.999189 
4.2500183e+2, 2.1486828e+2, -983347.5, -999132.25, -24135.97, 0.0029304344, -0.27619112, -965846.3, -131588.52, 0.0, 9.9993305, 9.999164 
4.249985e+2, 2.2486758e+2, -912869.44, -973680.8, 31959.75, 0.007299505, -0.22909446, -899162.44, -162895.5, 0.0, 9.999419, 9.99861 
4.2499638e+2, 2.3486559e+2, -722623.6, -834915.44, 46323.594, 0.085835546, -0.31572717, -705980.56, -67689.945, 0.0, 10.000063, 9.998583 
4.2499322e+2, 2.448645e+2, -566207.1, -620050.5, 36585.105, 0.08868396, -0.31966394, -547705.9, -7403.2705, 0.0, 10.000073, 9.999386 
4.2498907e+2, 2.548641e+2, -554968.8, -563535.4, -2510.1438, 0.019696705, -0.3253697, -554287.5, -111983.12, 0.0, 9.999469, 9.999394 
4.2498606e+2, 2.6486355e+2, -499901.16, -515659.47, 19773.424, 0.024616, -0.29927373, -486494.88, -142185.3, 0.0, 9.999317, 9.999121 
4.2498416e+2, 2.7486277e+2, -356757.6, -396960.75, 12426.9375, 0.114572205, -0.31361923, -353226.53, -106907.03, 0.0, 9.999626, 9.999114 
4.2498142e+2, 2.8486243e+2, -226653.19, -295428.66, 10199.94, 0.12881713, -0.25018507, -225172.34, -76847.93, 0.0000000012455732, 9.999908, 9.998995 
4.2497778e+2, 2.948622e+2, -82232.016, -180732.69, -933.98346, 0.075310834, -0.19844706, -82223.16, -31896.055, 0.0000019825331, 10.000234, 9.99896 
4.2497298e+2, 3.0486032e+2, -35209.83, -86595.19, 28211.52, -0.16377538, -0.29887146, -22744.89, -22744.89, 0.000019679212, 10.000042, 9.999366 
4.2497262e+2, 3.148599e+2, -110251.2, -23045.793, 32522.785, 0.06219313, -0.31411695, -12252.474, -12252.474, 0.00007104561, 9.999029, 10.000292 
4.350344e+2, 1.2487728e+2, -1605513.5, -1635014.0, 7305.555, 0.0086928625, -0.11112752, -1603803.4, 112380.11, 0.000112459136, 10.000574, 10.000244 
4.3502724e+2, 1.3487627e+2, -1697937.9, -1649592.0, -91408.94, -0.042951833, -0.26168457, -1579213.8, 38975.83, 0.000055857796, 9.9993725, 10.00007 
4.3502784e+2, 1.4487658e+2, -1664549.4, -1642623.0, 92434.44, 0.35532898, -0.20306301, -1560503.9, -40319.01, 0.000019900395, 9.999188, 9.999522 
4.3502295e+2, 1.5487711e+2, -1429217.9, -1480170.8, 99383.55, -0.0048630587, -0.13585712, -1352097.4, 70083.336, 0.0000034951138, 10.000136, 9.999511 
4.3501955e+2, 1.6487607e+2, -1374901.0, -1497147.5, -61096.8, -0.028164973, -0.14187297, -1349601.6, -25410.236, 0.000000032016867, 10.000268, 9.998645 
4.3501708e+2, 1.748734e+2, -1348386.1, -1436081.9, -87650.984, 0.21287107, -0.29992014, -1294227.3, -68009.58, 0.0, 9.999776, 9.998634 
4.3501365e+2, 1.8487214e+2, -1205049.0, -1202737.9, -11413.6, 0.23827541, -0.3366516, -1192421.5, -64193.895, 0.0, 9.999599, 9.999651 
4.3500954e+2, 1.9487216e+2, -1078122.8, -1091962.5, 25911.963, 0.06630473, -0.32441178, -1058222.6, -28000.484, 0.0, 9.999798, 9.999646 
4.3500584e+2, 2.0487192e+2, -1024807.1, -1058343.4, -42777.574, 0.020031586, -0.29013655, -995628.6, -63406.14, 0.0, 9.999675, 9.999259 
4.3500224e+2, 2.1487123e+2, -997076.1, -999685.2, -31258.91, 0.08576926, -0.31164107, -967094.5, -132863.89, 0.0, 9.999211, 9.999215 
4.34999e+2, 2.2487074e+2, -887923.75, -890798.56, 45868.09, 0.09315549, -0.27836034, -843470.56, -107234.51, 0.0, 9.999285, 9.999244 
4.3499613e+2, 2.3487027e+2, -693985.44, -747645.44, 80416.77, 0.032563638, -0.27668148, -636041.0, 2199.4883, 0.0, 9.999941, 9.999242 
4.349927e+2, 2.4486926e+2, -629617.6, -735594.9, 3723.6345, 0.0066632787, -0.2662366, -629486.94, -89235.81, 0.0, 10.000004, 9.998625 
4.3498865e+2, 2.5486755e+2, -623280.5, -683730.56, -14785.206, 0.005731961, -0.32925949, -619858.0, -177588.27, 0.0, 9.999378, 9.9986105 
4.3498546e+2, 2.648668e+2, -496201.97, -502733.06, 22884.938, 0.0143090505, -0.2902214, -476350.78, -132072.14, 0.0, 9.999291, 9.999224 
4.349832e+2, 2.7486688e+2, -358557.25, -385225.7, 36318.3, 0.028505657, -0.2302161, -333202.7, -86923.555, 0.0, 9.999552, 9.999232 
4.3498105e+2, 2.8486645e+2, -252454.0, -333007.4, 14150.023, 0.077453025, -0.1696127, -250040.7, -101755.53, 0.000000012355592, 9.999853, 9.9987545 
4.3497935e+2, 2.9486525e+2, -114291.62, -227172.39, 27378.266, 0.1758874, -0.19377255, -108001.734, -57702.426, 0.0000027662056, 10.000157, 9.998672 
4.34974e+2, 3.0486375e+2, -41326.418, -106960.46, -14439.602, -0.08880357, -0.23455702, -38290.14, -38290.14, 0.000024180765, 10.00006, 9.999224 
4.349709e+2, 3.1486252e+2, -157419.17, -100362.12, -25462.977, -0.07172557, -0.3119352, -90651.4, -90651.4, 0.00008333817, 9.998934, 9.999812 
4.4503555e+2, 1.2488063e+2, -1672832.4, -1661591.1, 85410.83, 0.10555326, -0.11962298, -1581616.1, 134536.61, 0.00010599228, 10.0001, 10.000293 
4.4502774e+2, 1.3487995e+2, -1547031.5, -1592541.8, -139601.66, 0.022677131, -0.22053072, -1428342.6, 189812.73, 0.00005101591, 10.000497, 9.999921 
4.450276e+2, 1.4488006e+2, -1496098.5, -1524670.0, 89049.74, 0.37079236, -0.19094713, -1420195.9, 99955.77, 0.000017295639, 10.000182, 9.999849 
4.4502282e+2, 1.548802e+2, -1563002.6, -1502252.5, 76576.31, 0.02960212, -0.20095786, -1450246.9, -28097.686, 0.0000027656245, 9.999039, 9.999882 
4.450198e+2, 1.6487932e+2, -1544023.1, -1597310.1, -1591.203, 0.032060407, -0.20341179, -1543975.6, -219817.08, 0.000000035556127, 9.999162, 9.998506 
4.4501793e+2, 1.7487732e+2, -1244764.9, -1401454.3, 16049.757, 0.29183018, -0.2806406, -1243137.8, -16956.81, 0.0, 10.000545, 9.998506 
4.4501442e+2, 1.8487634e+2, -1009072.6, -1111445.4, 98025.77, 0.29494697, -0.2793372, -949673.8, 178515.11, 0.0, 10.000963, 9.999614 
4.4500953e+2, 1.9487621e+2, -1010071.44, -1063927.3, 62161.184, 0.06637486, -0.28178734, -969256.25, 60927.98, 0.0, 10.000284, 9.999599 
4.4500569e+2, 2.0487551e+2, -985974.94, -1072622.8, -19703.979, 0.023379264, -0.2724601, -981704.7, -49515.94, 0.0, 10.000109, 9.998941 
4.4500276e+2, 2.1487413e+2, -841010.3, -958723.1, -59273.484, 0.16243578, -0.33014783, -816335.75, 17868.594, 0.0, 10.000446, 9.998895 
4.4499937e+2, 2.2487338e+2, -730371.6, -798132.75, 7944.1665, 0.1570868, -0.31491923, -729452.7, 6758.68, 0.0, 10.000278, 9.999406 
4.4499552e+2, 2.3487315e+2, -741426.3, -755928.9, -13975.02, 0.0035709513, -0.307292, -732933.3, -94721.99, 0.0, 9.9995365, 9.999386 
4.449922e+2, 2.4487236e+2, -670906.44, -774413.25, -54757.92, -0.026228495, -0.27503645, -647315.0, -107095.43, 0.0, 9.999801, 9.998451 
4.4498947e+2, 2.5487086e+2, -385071.56, -589100.8, -49142.297, 0.06993441, -0.30024743, -373852.13, 68386.1, 0.0, 10.001101, 9.998427 
4.4498628e+2, 2.6487005e+2, -262645.6, -387471.97, -12714.246, 0.0928563, -0.25926846, -261363.73, 82884.42, 0.0, 10.000891, 9.999238 
4.449826e+2, 2.748698e+2, -414622.63, -410343.0, -29788.965, 0.03696595, -0.22981918, -382617.1, -136366.6, 0.0, 9.999168, 9.999239 
4.449801e+2, 2.8486928e+2, -404456.1, -407707.66, 24338.72, 0.054363884, -0.18038596, -381688.9, -233431.36, 0.00000003062236, 9.998795, 9.998761 
4.4497937e+2, 2.9486817e+2, -179885.48, -249362.38, 34003.055, 0.19784752, -0.19941284, -166013.56, -115741.94, 0.0000032986038, 9.999665, 9.998755 
4.4497475e+2, 3.0486718e+2, -33376.477, -135685.56, -7042.99, -0.022362802, -0.17476107, -32893.91, -32893.91, 0.000027227657, 10.000267, 9.998916 
4.449709e+2, 3.1486535e+2, 91782.125, 18753.059, -120541.836, -0.035789892, -0.28208974, 181218.56, 181218.56, 0.000091368296, 10.00066, 9.999791 
4.5503798e+2, 1.2488196e+2, -1683481.4, -1682427.0, 139461.19, 0.27866015, -0.32792017, -1543492.0, 172646.53, 0.00010140695, 10.000103, 10.000144 
4.5502764e+2, 1.3488328e+2, -1562739.3, -1638518.5, -114651.586, -0.06501795, -0.19461639, -1479878.8, 138245.05, 0.00004730018, 10.000543, 9.999587 
4.550259e+2, 1.4488314e+2, -1466636.6, -1452487.4, 40257.188, 0.15043618, -0.19839953, -1418687.9, 101434.3, 0.000015080613, 10.000146, 10.000359 
4.5502272e+2, 1.548819e+2, -1531130.8, -1431286.6, 46815.652, 0.086789496, -0.39501888, -1412769.6, 9360.629, 0.0000021144335, 9.999026, 10.000374 
4.5502025e+2, 1.648818e+2, -1494886.8, -1489406.9, 36637.176, 0.13294318, -0.3819036, -1455407.4, -131276.77, 0.00000004449902, 9.99913, 9.999261 
4.550177e+2, 1.7488289e+2, -1189948.6, -1291293.3, 79323.945, 0.18401128, -0.22552793, -1146493.5, 79629.31, 0.0, 10.000553, 9.99926 
4.5501387e+2, 1.8488258e+2, -1069173.0, -1217859.6, 63591.902, 0.12052446, -0.1610439, -1045685.56, 82439.86, 0.0, 10.000889, 9.998915 
4.550092e+2, 1.9488052e+2, -1077753.5, -1177574.9, 45545.73, -0.023401204, -0.28683037, -1060095.8, -29953.412, 0.0, 10.000177, 9.998864 
4.550056e+2, 2.0487864e+2, -1053742.3, -1186861.6, -19033.867, -0.018741513, -0.32107812, -1051074.1, -118914.195, 0.0, 9.9999895, 9.998218 
4.5500308e+2, 2.1487696e+2, -910219.25, -1067158.3, -34519.79, 0.12775865, -0.3371596, -902962.0, -68782.94, 0.0, 10.000296, 9.998221 
4.5499933e+2, 2.2487555e+2, -771536.6, -855221.94, -27650.799, 0.10389846, -0.33940673, -763225.75, -27032.95, 0.0, 10.000152, 9.999081 
4.5499417e+2, 2.3487422e+2, -777624.06, -807948.56, -29319.623, -0.10723576, -0.40813902, -759778.25, -121575.38, 0.0, 9.999433, 9.99908 
4.549914e+2, 2.4487375e+2, -657888.94, -721072.6, -16310.164, -0.110411204, -0.34916538, -653927.06, -113719.02, 0.0, 9.999696, 9.998869 
4.5499122e+2, 2.5487393e+2, -369395.8, -530394.0, 10453.289, 0.11114785, -0.24472147, -368719.94, 73490.36, 0.0, 10.000989, 9.998887 
4.5498818e+2, 2.648732e+2, -282654.22, -413968.84, -84684.27, 0.17145023, -0.21170393, -241155.98, 103062.93, 0.0, 10.000827, 9.999084 
4.5498195e+2, 2.748715e+2, -441664.84, -445054.2, -80677.81, 0.034317154, -0.3202085, -362663.9, -116429.09, 0.0, 9.999078, 9.999041 
4.5497817e+2, 2.8487092e+2, -386115.4, -360207.22, 47171.18, -0.03989043, -0.28072968, -324243.75, -176002.27, 0.000000022691747, 9.99875, 9.999112 
4.5497754e+2, 2.9487106e+2, -157266.39, -193012.92, 80127.445, 0.0144247, -0.20809284, -93043.0, -42800.082, 0.0000033720132, 9.99961, 9.999178 
4.5497474e+2, 3.0487072e+2, -67821.57, -204468.44, 5002.8047, -0.08115602, -0.121162854, -67638.66, -67638.66, 0.000028360193, 10.000261, 9.998443 
4.549723e+2, 3.1486812e+2, 107157.695, 64321.996, -127437.01, -0.020475477, -0.25363085, 214964.13, 214964.13, 0.00009465621, 10.000597, 10.000137 
4.650387e+2, 1.2488657e+2, -1600475.8, -1648384.9, 291458.6, 0.3192449, -0.32278737, -1331988.9, 384103.06, 0.000096649455, 10.0006695, 10.000103 
4.650284e+2, 1.3488778e+2, -1644255.1, -1687616.8, -25770.316, -0.004641549, -0.20056874, -1632258.5, -14180.262, 0.00004344866, 9.999994, 9.999521 
4.6502528e+2, 1.4488724e+2, -1556725.3, -1526513.9, 127993.27, 0.104710475, -0.22839907, -1412738.0, 107343.09, 0.000012657647, 9.999654, 10.000091 
4.650224e+2, 1.5488599e+2, -1453959.1, -1424319.9, 49199.332, 0.12694353, -0.40057102, -1387756.6, 34333.645, 0.0000014631825, 9.999683, 10.000108 
4.6502003e+2, 1.6488597e+2, -1362251.6, -1397038.6, 72575.625, 0.16254154, -0.37723732, -1305014.4, 19075.113, 0.000000030371112, 9.999943, 9.999493 
4.6501747e+2, 1.7488714e+2, -1191353.8, -1265855.4, 52917.063, 0.11444536, -0.2386745, -1163891.1, 62188.23, 0.0, 10.0004425, 9.999485 
4.65014e+2, 1.8488671e+2, -1131146.9, -1289043.9, -1731.0214, 0.06441727, -0.18045548, -1131127.9, -3044.3271, 0.0, 10.000629, 9.998559 
4.6501005e+2, 1.9488437e+2, -1066356.4, -1214624.9, -10641.228, 0.040538095, -0.29479465, -1065596.5, -35490.93, 0.0, 10.00042, 9.998506 
4.650066e+2, 2.048825e+2, -954883.75, -1160483.5, 21374.15, 0.05255498, -0.3039551, -952685.2, -20560.55, 0.0, 10.000741, 9.998043 
4.6500358e+2, 2.1488105e+2, -733776.0, -1006698.94, 21753.969, 0.090876244, -0.27894124, -732052.94, 102088.94, 0.0, 10.0015955, 9.998017 
4.649996e+2, 2.2487947e+2, -602249.75, -813329.0, 10116.922, 0.053950116, -0.26827255, -601765.94, 134391.81, 0.0, 10.001506, 9.998702 
4.649945e+2, 2.3487757e+2, -656148.25, -790905.3, -19566.025, -0.06615196, -0.35608467, -653364.9, -15190.64, 0.0, 10.000466, 9.99869 
4.649916e+2, 2.4487682e+2, -640029.44, -687413.1, 54756.8, -0.053565953, -0.3163076, -604058.8, -63877.41, 0.0, 9.9997015, 9.999099 
4.6499124e+2, 2.5487706e+2, -609832.25, -618714.6, 48712.957, 0.10881359, -0.22853164, -565358.44, -123177.85, 0.0, 9.999218, 9.99913 
4.6498838e+2, 2.6487634e+2, -483935.44, -550790.5, -68846.58, 0.17380187, -0.19297127, -440830.28, -96641.53, 0.0, 9.999595, 9.998748 
4.649826e+2, 2.7487445e+2, -217419.84, -377459.47, -97449.46, 0.11304447, -0.2862151, -171346.17, 74861.414, 0.0, 10.0007715, 9.9987 
4.6497837e+2, 2.8487363e+2, -122965.445, -239607.55, 32515.416, 0.016827729, -0.25046703, -114513.77, 33702.77, 0.00000001636591, 10.000583, 9.99906 
4.649764e+2, 2.948735e+2, -234740.44, -221594.31, 4007.28, -0.024907565, -0.20143652, -220469.11, -170249.81, 0.0000038591365, 9.999048, 9.999246 
4.6497452e+2, 3.0487284e+2, -283767.5, -264240.1, -145.04823, -0.0340237, -0.17425688, -264239.0, -264239.0, 0.000029778155, 9.998568, 9.998869 
4.649731e+2, 3.148714e+2, -55230.68, 72336.4, -124965.21, 0.08486597, -0.22689702, 148854.83, 148854.83, 0.00009717631, 9.999115, 10.000913 
4.7503695e+2, 1.2489422e+2, -1602259.8, -1620501.9, 267073.53, 0.015025606, -0.11812611, -1344151.6, 371864.13, 0.0000915649, 10.000566, 10.000329 
4.7502968e+2, 1.3489342e+2, -1620317.8, -1630990.8, -39647.082, 0.09252932, -0.2349949, -1585649.6, 32369.469, 0.000038474074, 9.999988, 9.999899 
4.7502536e+2, 1.4489235e+2, -1626122.9, -1674818.1, 118218.625, 0.1092601, -0.282972, -1529770.6, -9742.3, 0.000009911169, 9.999655, 9.999081 
4.7502142e+2, 1.5489243e+2, -1514347.5, -1565099.5, 61173.9, 0.026817173, -0.22091734, -1473495.3, -51465.53, 0.0000009593812, 9.999734, 9.9991255 
4.750188e+2, 1.6489176e+2, -1390308.3, -1443535.1, 80694.164, 0.018629933, -0.19766065, -1331952.1, -7916.1006, 0.000000014696447, 9.999897, 9.999198 
4.7501686e+2, 1.7488998e+2, -1217403.4, -1311207.4, 84315.98, -0.011945315, -0.31900454, -1167822.3, 58228.84, 0.0, 10.00041, 9.999191 
4.7501442e+2, 1.8488869e+2, -1137067.5, -1285710.4, -17278.367, 0.017445456, -0.33636126, -1135085.5, -7022.0386, 0.0, 10.000558, 9.998619 
4.750118e+2, 1.9488774e+2, -1069779.9, -1209821.6, -6447.91, 0.15260185, -0.31516987, -1069483.6, -39409.27, 0.0, 10.000362, 9.998571 
4.750084e+2, 2.0488706e+2, -948478.3, -1120148.3, 43842.723, 0.1370987, -0.2254096, -937929.5, -5846.351, 0.0, 10.000631, 9.998369 
4.7500396e+2, 2.1488647e+2, -731132.44, -968911.6, 65095.516, -0.052086834, -0.14629312, -714478.1, 119613.76, 0.0, 10.001461, 9.998339 
4.7499982e+2, 2.2488518e+2, -646558.94, -887643.8, -37413.465, -0.095572546, -0.101619385, -640886.25, 95219.78, 0.0, 10.001415, 9.998244 
4.7499603e+2, 2.3488304e+2, -705665.94, -867362.0, -47645.6, 0.02208021, -0.16382384, -692671.0, -54544.254, 0.0, 10.000344, 9.998229 
4.7499245e+2, 2.4488145e+2, -648616.94, -684935.5, 27857.074, 0.03898815, -0.18731298, -633523.0, -93382.17, 0.0, 9.999614, 9.999158 
4.7498918e+2, 2.5488022e+2, -623229.8, -626504.9, 42089.45, -0.046662334, -0.25622493, -582746.06, -140595.95, 0.0, 9.999122, 9.999127 
4.749865e+2, 2.6487938e+2, -528200.6, -622774.06, -33044.246, 0.0032308663, -0.20919852, -517798.88, -173640.19, 0.0, 9.9995165, 9.998288 
4.7498414e+2, 2.7487868e+2, -260813.47, -448054.53, -40291.668, 0.16033904, -0.12934032, -252511.36, -6342.566, 0.0, 10.000697, 9.998248 
4.7498026e+2, 2.8487742e+2, -159909.7, -315358.94, -36618.863, 0.1236304, -0.09229263, -151715.42, -3532.4487, 0.0000000367379, 10.000572, 9.998547 
4.749756e+2, 2.948753e+2, -284447.7, -305013.97, -43744.31, -0.03921215, -0.19349387, -249794.13, -199590.92, 0.000004901276, 9.998948, 9.998729 
4.7497383e+2, 3.0487332e+2, -198025.16, -67700.09, 8307.978, 0.018021302, -0.34046188, -67172.61, -67172.61, 0.000032907166, 9.998495, 10.00025 
4.7497252e+2, 3.1487492e+2, 21160.24, 242060.28, -71733.945, 0.06046223, -0.22414185, 263310.56, 263310.56, 0.00010232853, 9.999071, 10.002097 
4.8503703e+2, 1.2489835e+2, -1721326.1, -1710015.5, 181881.1, 0.013352959, -0.105836906, -1533701.9, 182272.63, 0.00008664265, 9.999873, 10.000061 
4.8503125e+2, 1.3489728e+2, -1552475.4, -1617213.0, -218064.36, 0.23855466, -0.2312113, -1364390.5, 253590.97, 0.000032757685, 10.000519, 9.999754 
4.8502532e+2, 1.4489605e+2, -1462034.5, -1646231.6, -17410.74, 0.0820633, -0.2660119, -1460403.3, 59590.61, 0.000007215262, 10.001012, 9.998615 
4.850214e+2, 1.5489621e+2, -1305178.5, -1520355.5, -65502.72, -0.023579119, -0.14611496, -1286807.1, 135189.52, 0.00000059770906, 10.001422, 9.998613 
4.8501894e+2, 1.648954e+2, -1203269.0, -1359474.9, -10652.247, -0.012632453, -0.110056005, -1202545.9, 121459.0, 0.0000000048834687, 10.001201, 9.999149 
4.8501748e+2, 1.7489325e+2, -1239103.3, -1323662.5, -4621.9897, 0.021228215, -0.26620963, -1238851.4, -12829.218, 0.0, 10.0002775, 9.999163 
4.8501518e+2, 1.8489183e+2, -1191053.5, -1298885.5, -58301.965, 0.06833606, -0.3002186, -1165558.8, -37523.434, 0.0, 10.000139, 9.998722 
4.8501247e+2, 1.9489107e+2, -1005380.94, -1161436.8, -62848.867, 0.16761708, -0.27787045, -983217.4, 46828.08, 0.0, 10.000748, 9.998704 
4.850091e+2, 2.0489065e+2, -901524.9, -1062889.8, 7099.2456, 0.14160977, -0.18399379, -901213.2, 30838.314, 0.0, 10.000799, 9.998689 
4.850051e+2, 2.1489036e+2, -892543.9, -1006460.56, 15969.853, -0.014676779, -0.10783701, -890347.44, -56291.715, 0.0, 10.00018, 9.9987 
4.8500136e+2, 2.248893e+2, -829545.1, -982346.44, -64908.45, -0.01792144, -0.05580409, -805695.25, -69628.086, 0.0, 10.00019, 9.998185 
4.849978e+2, 2.3488726e+2, -634351.06, -841963.25, -64987.6, 0.14378045, -0.10307696, -615686.3, 22401.578, 0.0, 10.000865, 9.998154 
4.8499376e+2, 2.4488531e+2, -436647.38, -600145.75, 35082.11, 0.13775815, -0.14933133, -429437.7, 110667.19, 0.0, 10.001139, 9.999007 
4.849893e+2, 2.5488338e+2, -366783.75, -516065.47, 12382.647, -0.030681616, -0.27128994, -365763.6, 76355.49, 0.0, 10.000948, 9.999002 
4.849864e+2, 2.648823e+2, -351548.1, -538323.44, -457.55444, -0.013220937, -0.24317612, -351546.97, -7417.755, 0.0, 10.000732, 9.998279 
4.849849e+2, 2.7488172e+2, -287489.5, -461666.0, 7918.7017, 0.18233672, -0.15159452, -287130.22, -40992.035, 0.0, 10.000515, 9.998242 
4.8498094e+2, 2.848803e+2, -209112.56, -358037.75, 13390.807, 0.15023354, -0.119452305, -207918.1, -59764.906, 0.00000008825205, 10.000317, 9.998373 
4.849751e+2, 2.948781e+2, -132933.73, -252395.11, 2063.8613, -0.03264934, -0.21389222, -132898.08, -82724.73, 0.0000056092463, 10.000078, 9.998542 
4.8497325e+2, 3.0487564e+2, -78745.86, -14780.12, 64899.836, 0.08487559, -0.3949531, 25589.566, 25589.566, 0.000035389916, 9.999336, 10.000197 
4.849712e+2, 3.1487763e+2, -135402.06, 116222.04, -143784.97, 0.07560869, -0.2359532, 181467.02, 181467.02, 0.00010599746, 9.998209, 10.001642 
4.95038e+2, 1.24899045e+2, -1770539.5, -1823076.4, 146524.52, 0.05886043, -0.27687216, -1647947.4, 68020.26, 0.000079155536, 9.99992, 9.999261 
4.9503273e+2, 1.348994e+2, -1592157.5, -1708726.9, -184772.9, 0.30517185, -0.19468021, -1456694.6, 161270.34, 0.000026309019, 10.000551, 9.999109 
4.9502483e+2, 1.4489837e+2, -1470612.4, -1653897.3, -13009.68, -0.10042186, -0.17799169, -1469693.5, 50283.78, 0.0000047383246, 10.00097, 9.998582 
4.9502203e+2, 1.5489736e+2, -1309095.0, -1528739.6, -39181.45, -0.13431689, -0.16985144, -1302314.9, 119676.02, 0.0000002991547, 10.001424, 9.998554 
4.9502018e+2, 1.6489689e+2, -1188630.8, -1322749.3, -56316.297, -0.036139987, -0.10852379, -1168120.1, 155875.64, 0.0000000005507737, 10.001166, 9.999421 
4.9501902e+2, 1.7489687e+2, -1219736.6, -1282774.1, -30177.691, 0.11870997, -0.082247965, -1207619.0, 18373.967, 0.0, 10.000268, 9.999451 
4.9501613e+2, 1.8489607e+2, -1189213.4, -1277652.4, -45712.453, 0.119632185, -0.07756656, -1169832.6, -41832.56, 0.0, 10.000068, 9.998901 
4.9501163e+2, 1.9489421e+2, -1002755.4, -1142002.0, -31820.46, -0.016930358, -0.17975788, -995828.4, 34191.47, 0.0, 10.000681, 9.998873 
4.950084e+2, 2.0489316e+2, -885015.44, -1004400.7, -26836.604, -0.024757747, -0.181913, -879260.25, 52770.12, 0.0, 10.00069, 9.9991455 
4.9500665e+2, 2.1489276e+2, -877342.94, -952082.2, 2584.2793, 0.10144511, -0.16081029, -877253.7, -43220.836, 0.0, 10.00007, 9.999135 
4.950037e+2, 2.2489175e+2, -828878.44, -949561.2, -47964.438, 0.17791861, -0.13782828, -812137.6, -76095.61, 0.0, 10.000062, 9.998467 
4.9499938e+2, 2.3489001e+2, -634491.8, -808331.06, -27809.744, 0.19270167, -0.18462914, -630151.4, 7907.959, 0.0, 10.000724, 9.99845 
4.949952e+2, 2.4488834e+2, -471861.16, -651941.4, 19530.873, 0.14449437, -0.20632303, -469767.25, 70306.9, 0.0, 10.001052, 9.9986925 
4.949912e+2, 2.5488648e+2, -401608.44, -569426.1, 16353.134, 0.039573085, -0.28441712, -400029.72, 42058.832, 0.0, 10.000866, 9.998676 
4.9498776e+2, 2.6488498e+2, -328904.03, -474689.84, -20248.414, 0.024908163, -0.30405065, -326143.97, 17957.703, 0.0, 10.000667, 9.998746 
4.9498448e+2, 2.7488348e+2, -274112.72, -401988.4, 11516.198, 0.06478665, -0.3544098, -273083.88, -26967.754, 0.0, 10.000386, 9.998711 
4.9497986e+2, 2.8488246e+2, -205988.53, -333597.63, -2308.6113, -0.01301696, -0.31840876, -205946.77, -57821.22, 0.00000018947561, 10.000244, 9.998573 
4.9497458e+2, 2.948819e+2, -128550.09, -233075.55, 6929.414, -0.12517644, -0.25816616, -128092.71, -77963.49, 0.000005650319, 10.000039, 9.99869 
4.9497277e+2, 3.0487978e+2, -176828.16, -229565.5, 13940.19, 0.07391784, -0.34348834, -173370.08, -173370.08, 0.00003451672, 9.999367, 9.998715 
4.9496818e+2, 3.148797e+2, -293891.8, -199813.1, -135613.3, -0.10418053, -0.24651675, -103312.67, -103312.67, 0.00010176044, 9.998141, 9.999507 
5.0503844e+2, 1.2490177e+2, -1690400.1, -1785632.4, 178320.1, 0.091180116, -0.28429222, -1553448.3, 162494.19, 0.00006651573, 10.000506, 9.999227 
5.050341e+2, 1.3490228e+2, -1448350.1, -1641510.6, -93239.04, 0.35207537, -0.18088725, -1410687.0, 207251.55, 0.00001955312, 10.001551, 9.999094 
5.0502497e+2, 1.4490123e+2, -1390850.4, -1603524.5, 91493.45, -0.20026223, -0.16890936, -1356907.0, 163043.42, 0.0000028130235, 10.001486, 9.9986725 
5.0502336e+2, 1.548997e+2, -1462074.6, -1591633.4, 43583.44, -0.08429337, -0.21855775, -1448777.9, -26810.771, 0.00000011765629, 10.00035, 9.998632 
5.050218e+2, 1.6489916e+2, -1321373.0, -1376919.8, 59166.293, 0.06516363, -0.17480393, -1283785.8, 40186.402, 0.000000000026416515, 10.000206, 9.99951 
5.050202e+2, 1.7489946e+2, -1105157.3, -1220900.5, 49961.277, 0.17750756, -0.12312025, -1086574.6, 139392.28, 0.0, 10.001014, 9.999518 
5.0501686e+2, 1.8489905e+2, -1057777.0, -1199875.0, 39487.055, 0.15003748, -0.087842844, -1047541.4, 80429.28, 0.0, 10.00091, 9.99903 
5.0501204e+2, 1.9489773e+2, -1113662.6, -1178491.3, 32886.723, 0.0016910766, -0.14841074, -1099901.0, -69915.24, 0.0, 9.99986, 9.999013 
5.0500864e+2, 2.048967e+2, -1015911.0, -1029114.8, 53929.574, -0.00854882, -0.17073108, -968180.75, -36185.465, 0.0, 9.999636, 9.999477 
5.0500697e+2, 2.1489584e+2, -848794.9, -899383.06, 50058.344, 0.13274752, -0.22844402, -818003.06, 15997.514, 0.0, 10.000118, 9.999463 
5.050042e+2, 2.248948e+2, -740630.56, -892285.6, 33688.168, 0.20675349, -0.23130174, -733484.0, 2525.1533, 0.0, 10.000594, 9.99861 
5.050004e+2, 2.3489346e+2, -586404.0, -767292.0, 23122.418, 0.21440595, -0.2531605, -583495.1, 54527.16, 0.0, 10.000981, 9.998607 
5.049963e+2, 2.4489214e+2, -538203.75, -715541.4, 48015.465, 0.17186883, -0.23342419, -526037.8, 13997.101, 0.0, 10.000732, 9.99841 
5.0499207e+2, 2.5489062e+2, -563491.8, -678996.75, 28844.066, 0.0949139, -0.25216052, -556689.44, -114640.0, 0.0, 9.999891, 9.998393 
5.0498825e+2, 2.6488906e+2, -451066.2, -500288.7, 31257.62, 0.066178486, -0.27326864, -435893.63, -91830.46, 0.0, 9.999681, 9.999052 
5.049845e+2, 2.7488732e+2, -303861.5, -384465.78, 22339.896, 0.056979507, -0.3815918, -298083.97, -52005.637, 0.00000000061010413, 10.000036, 9.999004 
5.049799e+2, 2.848864e+2, -190907.14, -324294.44, 18084.52, -0.028259989, -0.34931117, -188498.73, -40413.004, 0.00000027597625, 10.0003395, 9.998594 
5.04975e+2, 2.9488647e+2, -53514.215, -201417.56, -12105.496, -0.102960244, -0.22937228, -52529.96, -2445.955, 0.0000049916057, 10.000577, 9.998653 
5.04973e+2, 3.0488437e+2, -121234.29, -255450.27, -496.23495, 0.13676901, -0.28035748, -121232.45, -121232.45, 0.000030276777, 9.9999895, 9.998235 
5.049664e+2, 3.1488317e+2, -279439.3, -253540.33, -81607.77, -0.10844872, -0.25403562, -183861.03, -183861.03, 0.000090633286, 9.998516, 9.998956 
5.1503736e+2, 1.2490646e+2, -1644925.6, -1690025.8, 105495.04, -0.12709256, -0.13058417, -1559597.5, 156301.97, 0.00005196835, 10.000501, 9.999881 
5.150352e+2, 1.3490596e+2, -1398372.0, -1551241.3, -38442.133, 0.2787181, -0.19431686, -1389249.3, 228652.66, 0.000013925394, 10.001605, 9.999687 
5.150255e+2, 1.4490467e+2, -1379171.8, -1582075.0, 37057.633, -0.3322357, -0.24057809, -1372615.5, 147297.08, 0.000001645238, 10.001493, 9.99882 
5.1502496e+2, 1.5490319e+2, -1451871.8, -1570744.5, 13691.63, 0.017855417, -0.3031131, -1450315.3, -28389.514, 0.00000003629146, 10.000349, 9.998779 
5.150234e+2, 1.6490206e+2, -1342059.1, -1401567.8, 81770.73, 0.18293895, -0.3175435, -1284797.5, 39137.613, 0.0, 10.0001335, 9.99937 
5.1502055e+2, 1.7490105e+2, -1122003.9, -1245418.5, 91164.19, 0.089180216, -0.3854658, -1073626.3, 152317.39, 0.0, 10.000976, 9.999363 
5.1501703e+2, 1.8490095e+2, -1057950.1, -1189462.0, -10528.048, 0.054579556, -0.31773922, -1057112.6, 70832.99, 0.0, 10.000859, 9.9991255 
5.150133e+2, 1.9490162e+2, -1110770.0, -1168272.8, 4713.086, 0.11371546, -0.19107692, -1110386.3, -80443.49, 0.0, 9.999827, 9.999104 
5.150095e+2, 2.0490117e+2, -1027534.8, -1023534.94, 62004.28, 0.09025339, -0.16434506, -963498.4, -31551.127, 0.0, 9.999509, 9.999576 
5.150058e+2, 2.1489944e+2, -856284.0, -889319.5, 77842.805, -0.021704964, -0.32436836, -793225.75, 40735.156, 0.0, 10.000002, 9.999589 
5.150027e+2, 2.2489826e+2, -754830.6, -895361.6, 36478.707, -0.019257559, -0.3484914, -745925.9, -9955.431, 0.0, 10.000477, 9.998649 
5.150004e+2, 2.3489758e+2, -600631.6, -770980.9, 47993.277, 0.09631827, -0.3072404, -588040.9, 49935.973, 0.0, 10.000869, 9.998637 
5.1499665e+2, 2.4489678e+2, -562402.75, -750528.8, 6622.745, 0.11003031, -0.223819, -562169.9, -22183.258, 0.0, 10.000666, 9.998201 
5.1499146e+2, 2.5489575e+2, -593761.8, -715596.2, 10093.887, 0.015137521, -0.17669195, -592931.2, -150929.6, 0.0, 9.999776, 9.998198 
5.149875e+2, 2.6489466e+2, -455332.13, -492669.84, 35165.277, 0.0057482957, -0.150549, -434187.38, -90173.82, 0.0, 9.999614, 9.999139 
5.1498485e+2, 2.7489313e+2, -307048.1, -374850.78, 51624.88, 0.057677213, -0.23877777, -279188.38, -33162.76, 0.0000000018853024, 9.999966, 9.999108 
5.1498085e+2, 2.848921e+2, -207540.05, -353236.03, 17126.797, 0.0025581806, -0.20925435, -205553.84, -57519.91, 0.00000034894228, 10.000316, 9.998407 
5.1497597e+2, 2.9489166e+2, -81874.0, -246108.75, 9651.554, -0.10420034, -0.13031489, -81308.75, -31270.15, 0.000004315403, 10.000509, 9.99838 
5.1497346e+2, 3.048894e+2, -88332.766, -175902.63, -61690.973, 0.15628804, -0.209155, -56467.87, -56467.87, 0.000026122347, 9.999954, 9.998796 
5.1496524e+2, 3.1488758e+2, -232623.56, -124126.65, -60829.14, -0.12708093, -0.30040988, -96870.016, -96870.016, 0.000081293096, 9.998393, 9.999902 
5.2503693e+2, 1.2490998e+2, -1969282.5, -1801276.3, 114686.21, -0.08863361, -0.11392274, -1743119.4, -27253.55, 0.000041741798, 9.998066, 10.00029 
5.25037e+2, 1.3491006e+2, -1490647.4, -1546119.0, 13245.83, 0.34433255, -0.16450532, -1487646.9, 130215.65, 0.000010470756, 10.000755, 10.000126 
5.250273e+2, 1.4490907e+2, -1326054.1, -1537229.9, 11452.992, -0.3152745, -0.21253623, -1325434.8, 194434.48, 0.0000009776196, 10.001767, 9.998998 
5.2502656e+2, 1.5490751e+2, -1331843.8, -1493481.3, -36729.902, 0.11306765, -0.29958582, -1323888.9, 97992.55, 0.000000005050013, 10.001077, 9.99896 
5.250246e+2, 1.6490628e+2, -1288379.1, -1372596.5, 102965.2, 0.27450043, -0.33635324, -1219245.0, 104646.445, 0.0, 10.000488, 9.999406 
5.250211e+2, 1.749051e+2, -1254471.9, -1306047.4, 101981.625, 0.09174779, -0.42069283, -1175068.0, 50833.613, 0.0, 10.000049, 9.999401 
5.250174e+2, 1.8490501e+2, -1148433.0, -1188533.1, 16655.834, 0.050942864, -0.3719369, -1142417.3, -14514.301, 0.0, 10.000048, 9.999529 
5.2501404e+2, 1.9490588e+2, -1003684.3, -1065787.3, 30798.82, 0.18706317, -0.26175898, -991000.6, 38895.8, 0.0, 10.000367, 9.999542 
5.2501017e+2, 2.0490575e+2, -896255.56, -995337.44, 129386.73, 0.1600816, -0.21181555, -807249.6, 124648.84, 0.0, 10.000551, 9.999269 
5.250058e+2, 2.1490435e+2, -802660.5, -898245.6, 95438.46, -0.0384745, -0.30426964, -743716.8, 90194.44, 0.0, 10.000518, 9.999277 
5.2500284e+2, 2.2490324e+2, -761851.2, -883404.8, 54207.313, -0.05494418, -0.3162795, -741189.4, -5268.2407, 0.0, 10.000377, 9.99877 
5.250011e+2, 2.3490211e+2, -703771.5, -810140.7, 48996.34, 0.11971124, -0.32920536, -684642.56, -46711.793, 0.0, 10.000118, 9.998731 
5.2499735e+2, 2.4490128e+2, -632427.25, -775935.8, 24758.475, 0.14781046, -0.25836375, -628275.94, -88334.95, 0.0, 10.000146, 9.9982815 
5.249916e+2, 2.5490066e+2, -491714.75, -658700.25, 26527.135, 0.02718585, -0.17694096, -487601.97, -45648.895, 0.0, 10.000442, 9.998272 
5.2498764e+2, 2.6489976e+2, -342749.6, -453875.06, 89848.19, 0.014783675, -0.12450372, -292671.84, 51291.977, 0.0, 10.000462, 9.998987 
5.249854e+2, 2.7489838e+2, -277874.66, -372080.84, 66308.695, 0.10646386, -0.18614313, -243641.73, 2333.6672, 0.00000000009174081, 10.0002365, 9.998982 
5.2498156e+2, 2.848973e+2, -220485.47, -358687.34, 58145.824, 0.05865279, -0.16074985, -199276.52, -51291.113, 0.00000033351301, 10.000225, 9.998408 
5.2497643e+2, 2.948964e+2, -103246.58, -258278.31, 35269.85, -0.08707888, -0.12446891, -95599.82, -45604.773, 0.0000041082662, 10.000368, 9.998362 
5.249738e+2, 3.0489406e+2, -5450.1465, -105840.53, -46407.55, 0.18775241, -0.22297591, 12715.6, 12715.6, 0.000024723933, 10.000389, 9.999073 
5.2496547e+2, 3.14893e+2, 36578.367, 38125.234, -87104.74, -0.009870254, -0.2624011, 124459.98, 124459.98, 0.00007789345, 10.000099, 10.000195 
5.350362e+2, 1.2491212e+2, -1935607.5, -1746938.4, 56113.145, -0.040737547, -0.24899313, -1731511.0, -15667.177, 0.000035627574, 9.998143, 10.000622 
5.3503895e+2, 1.3491453e+2, -1473439.0, -1507077.4, 121840.01, 0.44142216, -0.09165543, -1367262.8, 250557.75, 0.000008273398, 10.000736, 10.00041 
5.3502965e+2, 1.449144e+2, -1319217.8, -1509038.3, -22082.408, -0.28408328, -0.08038167, -1316682.6, 203138.03, 0.00000061502607, 10.001711, 9.999213 
5.3502774e+2, 1.5491275e+2, -1319617.5, -1466347.9, -51369.832, 0.09710768, -0.20223692, -1303421.0, 118413.11, 0.00000000036285042, 10.001069, 9.999148 
5.35025e+2, 1.6491182e+2, -1282044.9, -1352358.0, 72508.266, 0.2414552, -0.22451289, -1236619.6, 87221.23, 0.0, 10.000456, 9.999562 
5.3502136e+2, 1.7491154e+2, -1243457.4, -1284700.8, 96080.664, 0.08909395, -0.23300548, -1165810.4, 60031.33, 0.0, 10.000049, 9.999553 
5.350175e+2, 1.8491115e+2, -1107993.8, -1091798.1, 19373.62, 0.034489457, -0.25695422, -1078898.0, 48945.453, 0.0, 9.999994, 10.0002165 
5.350139e+2, 1.949104e+2, -967775.5, -978574.5, 54704.01, 0.11572359, -0.37919337, -918205.1, 111643.25, 0.0, 10.000303, 10.000175 
5.3501034e+2, 2.0491034e+2, -960518.6, -1097268.4, 118338.35, 0.098107, -0.32163703, -892222.06, 39627.938, 0.0, 10.000423, 9.998626 
5.3500676e+2, 2.1491084e+2, -867037.1, -1004405.25, 104034.125, -0.019827122, -0.16035695, -811059.25, 22790.424, 0.0, 10.000398, 9.998606 
5.3500396e+2, 2.2490983e+2, -770428.1, -875841.2, 34495.94, 0.0038682837, -0.13255797, -760143.0, -24282.656, 0.0, 10.000262, 9.998879 
5.3500193e+2, 2.3490705e+2, -712060.5, -797437.56, 50359.094, 0.17414609, -0.32446742, -688731.25, -50847.01, 0.0, 9.999989, 9.998879 
5.349982e+2, 2.4490552e+2, -622163.3, -735470.8, 27103.871, 0.18869294, -0.34754986, -616013.6, -76114.66, 0.0, 10.000066, 9.998598 
5.3499234e+2, 2.549051e+2, -482346.4, -620616.56, 50834.445, 0.029550575, -0.2742661, -465668.9, -23763.049, 0.0, 10.000361, 9.998572 
5.3498816e+2, 2.6490435e+2, -373751.9, -509764.03, 71952.58, -0.005031116, -0.20464529, -342752.94, 1162.0222, 0.0, 10.00042, 9.998625 
5.349856e+2, 2.74903e+2, -314148.44, -431886.88, 72038.23, 0.075885415, -0.23061128, -279984.9, -34056.184, 0.0, 10.000158, 9.998615 
5.349817e+2, 2.849018e+2, -211236.81, -332022.4, 55027.816, 0.02370753, -0.20815647, -189926.8, -41985.5, 0.00000019037492, 10.000195, 9.998605 
5.349765e+2, 2.9490054e+2, -100171.69, -232405.5, 55805.973, -0.15374257, -0.22515225, -79768.35, -29813.404, 0.0000040138116, 10.000283, 9.998581 
5.3497386e+2, 3.048983e+2, -15285.462, -127451.78, -60930.42, 0.13041228, -0.31970105, 11443.438, 11443.438, 0.000024880646, 10.000383, 9.998929 
5.349662e+2, 3.1489924e+2, 9958.862, -24889.818, -35329.23, -0.010845594, -0.14578582, 31926.936, 31926.936, 0.00007745561, 10.0001135, 9.999761 
5.450366e+2, 1.2491606e+2, -1618958.3, -1635296.0, 82186.26, 0.08446755, -0.2977454, -1544535.9, 171266.1, 0.000030309948, 10.000487, 10.00029 
5.450398e+2, 1.3491836e+2, -1559303.3, -1578633.4, 171557.86, 0.4847564, -0.11718399, -1397138.4, 220644.44, 0.000006366235, 10.000286, 10.000144 
5.450312e+2, 1.4491834e+2, -1493651.9, -1567490.0, -4036.6465, -0.22694403, -0.09013212, -1493431.9, 26351.807, 0.00000037085837, 10.000392, 9.999459 
5.4502875e+2, 1.5491733e+2, -1294812.6, -1422229.0, -57924.277, 0.09457383, -0.1747488, -1272416.5, 149374.89, 0.00000000007720086, 10.0011, 9.999438 
5.450255e+2, 1.6491684e+2, -1169652.0, -1262531.3, 76127.81, 0.21871825, -0.18381938, -1126917.3, 196876.58, 0.0, 10.001094, 9.999861 
5.450216e+2, 1.7491679e+2, -1193714.5, -1224155.4, 86879.9, 0.10495257, -0.1980078, -1120731.9, 105059.48, 0.0, 10.000256, 9.99986 
5.450178e+2, 1.8491644e+2, -1116763.3, -1120835.1, 39040.4, 0.06360512, -0.2219609, -1079705.8, 48086.957, 0.0, 10.000017, 10.000017 
5.4501426e+2, 1.9491562e+2, -962817.0, -996892.0, -11384.441, 0.1252279, -0.3332852, -959363.5, 70436.016, 0.0, 10.000411, 10.000003 
5.4501086e+2, 2.049154e+2, -947125.2, -1065893.4, 52388.715, 0.118266724, -0.2929168, -927319.3, 4482.4897, 0.0, 10.000408, 9.998854 
5.450075e+2, 2.149156e+2, -926207.7, -1004320.3, 87110.19, 0.049719322, -0.18334688, -869798.94, -35997.18, 0.0, 9.999874, 9.998859 
5.450047e+2, 2.2491476e+2, -790808.2, -869575.4, 93124.734, 0.06598256, -0.15952691, -729081.56, 6728.504, 0.0, 10.000046, 9.999029 
5.450024e+2, 2.349126e+2, -562822.9, -713089.0, 87617.18, 0.17268322, -0.30349165, -522536.1, 115293.19, 0.0, 10.000954, 9.999 
5.4499847e+2, 2.4491104e+2, -458832.7, -661966.44, 58158.605, 0.16473292, -0.33126193, -443360.03, 96484.25, 0.0, 10.001217, 9.998542 
5.449929e+2, 2.5490996e+2, -414617.25, -593715.75, 27570.627, 0.033898707, -0.3196328, -410469.06, 31387.479, 0.0, 10.000861, 9.998509 
5.4498863e+2, 2.6490912e+2, -370268.38, -509915.25, 59050.594, 0.008531129, -0.25552738, -348646.28, -4779.8965, 0.0, 10.000455, 9.998605 
5.449858e+2, 2.7490824e+2, -332595.25, -440977.6, 64073.016, 0.09689517, -0.23359065, -302869.6, -56993.414, 0.0, 10.0000305, 9.998615 
5.449816e+2, 2.849072e+2, -295983.88, -363052.03, 83523.1, 0.028577622, -0.19970481, -239514.38, -91626.29, 0.00000011177434, 9.999589, 9.998682 
5.449759e+2, 2.9490584e+2, -249543.78, -285049.66, 52479.24, -0.17908867, -0.2322324, -211896.02, -161992.63, 0.0000045059896, 9.999207, 9.998726 
5.449735e+2, 3.049041e+2, -109515.45, -129695.19, -5808.1157, 0.10396085, -0.30422494, -107963.17, -107963.17, 0.000026381855, 9.999547, 9.999314 
5.449671e+2, 3.1490558e+2, 15053.575, -24497.63, 40123.527, 0.0749988, -0.11488177, 40010.195, 40010.195, 0.00007890932, 10.000167, 9.99973 
5.5503726e+2, 1.2492196e+2, -1678815.0, -1756173.6, -71095.625, 0.045539238, -0.2316919, -1636558.0, 79181.195, 0.000026661139, 10.000488, 9.999453 
5.550392e+2, 1.3492152e+2, -1621139.3, -1707156.0, 169802.84, 0.37855327, -0.23527704, -1488982.8, 128766.9, 0.0000052899522, 10.000289, 9.999264 
5.5503166e+2, 1.4492084e+2, -1470776.9, -1515133.5, 8889.8125, -0.24736115, -0.24821123, -1469061.5, 50697.3, 0.00000021782215, 10.000373, 9.999826 
5.5502915e+2, 1.5492126e+2, -1267041.4, -1370139.6, -16798.773, 0.0009496566, -0.22312559, -1264373.3, 157380.2, 0.00000000000011946363, 10.001112, 9.999798 
5.5502564e+2, 1.6492133e+2, -1144530.3, -1203617.1, 35106.15, 0.09470934, -0.2159522, -1128190.5, 195559.67, 0.0, 10.001068, 10.000275 
5.550214e+2, 1.7492075e+2, -1170783.3, -1170033.5, 66007.055, 0.039810102, -0.3251413, -1104400.3, 121351.516, 0.0, 10.000225, 10.000248 
5.550178e+2, 1.8492088e+2, -1199418.6, -1273446.6, 43164.45, 0.04522552, -0.2699372, -1179571.3, -51820.27, 0.0, 9.999937, 9.99901 
5.550149e+2, 1.9492158e+2, -1044817.6, -1154708.6, 14544.329, 0.11640689, -0.12335935, -1042925.25, -13175.651, 0.0, 10.000348, 9.998958 
5.5501145e+2, 2.0492093e+2, -881785.44, -902839.75, 23715.4, 0.11957152, -0.13123356, -866365.7, 65388.688, 0.0, 10.000298, 10.000022 
5.5500776e+2, 2.1491867e+2, -864077.1, -844478.5, 78880.96, 0.060157944, -0.38621283, -774790.5, 58977.31, 0.0, 9.999739, 10.000022 
5.550046e+2, 2.2491796e+2, -802413.75, -860534.2, 116866.836, 0.028335486, -0.41184944, -711048.25, 24723.117, 0.0, 9.9999075, 9.999156 
5.55002e+2, 2.3491877e+2, -575800.5, -704615.1, 134422.63, 0.016706094, -0.27144653, -491151.66, 146614.16, 0.0, 10.000805, 9.9991255 
5.549981e+2, 2.4491797e+2, -504775.6, -739718.0, 36414.316, -0.01953415, -0.20641994, -499261.06, 40515.086, 0.0, 10.001131, 9.998056 
5.5499285e+2, 2.549153e+2, -461150.97, -668084.94, 26629.238, -0.078861475, -0.30764917, -457779.13, -15974.034, 0.0, 10.000762, 9.99805 
5.549888e+2, 2.6491407e+2, -351647.97, -460770.7, 33333.906, -0.045175217, -0.27834558, -342271.16, 1547.3021, 0.0, 10.000412, 9.998962 
5.5498576e+2, 2.7491403e+2, -322403.06, -402298.1, 58848.035, 0.06848166, -0.20102638, -291224.66, -45406.113, 0.0, 9.999956, 9.998918 
5.54981e+2, 2.849134e+2, -305107.3, -376209.94, 57690.08, -0.014862242, -0.13400796, -272894.0, -125067.55, 0.00000024371042, 9.999559, 9.9986105 
5.5497426e+2, 2.9491213e+2, -258283.05, -294283.16, 53194.508, -0.2976086, -0.1530714, -220125.66, -170283.28, 0.0000058589785, 9.999158, 9.998693 
5.549721e+2, 3.0491138e+2, -47351.523, 9374.171, 12807.284, -0.009357321, -0.17739235, 12131.697, 12131.697, 0.000029984647, 9.999509, 10.000283 
5.5496746e+2, 3.1491193e+2, 30543.275, 23965.969, 106562.39, 0.045823142, -0.17306218, 133867.75, 133867.75, 0.00008416486, 10.00009, 10.000103 
5.6503844e+2, 1.24927334e+2, -1625465.8, -1766187.8, -125599.75, 0.10405329, -0.22276182, -1551861.6, 163822.8, 0.000022362967, 10.0009985, 9.9991255 
5.650388e+2, 1.3492657e+2, -1620216.8, -1733634.4, 192300.2, 0.31586593, -0.24057417, -1476438.0, 141261.31, 0.000004259607, 10.000408, 9.999009 
5.650326e+2, 1.4492582e+2, -1514620.8, -1513795.4, 105424.91, -0.16536307, -0.25826335, -1408782.4, 110927.484, 0.00000013010742, 9.999969, 10.000036 
5.6502974e+2, 1.5492657e+2, -1427629.4, -1415738.3, 46511.168, 0.011601575, -0.22172472, -1374794.1, 46906.703, 0.0, 9.999884, 10.000074 
5.6502575e+2, 1.6492678e+2, -1325879.8, -1303518.5, 75467.26, 0.06876144, -0.20788641, -1238408.1, 85288.22, 0.0, 9.999858, 10.000182 
5.650214e+2, 1.749261e+2, -1218183.9, -1199561.9, 49337.594, 0.0408753, -0.32118946, -1158664.4, 67035.45, 0.0, 9.999921, 10.00019 
5.650181e+2, 1.8492621e+2, -1146424.9, -1256119.4, 101233.84, 0.06800013, -0.26384515, -1086135.1, 41564.32, 0.0, 10.000346, 9.998923 
5.6501585e+2, 1.9492696e+2, -949780.2, -1111497.4, 126606.32, 0.1490001, -0.107480206, -880414.75, 149282.08, 0.0, 10.001029, 9.998912 
5.650125e+2, 2.04926e+2, -722194.7, -827954.0, 119136.73, 0.14368564, -0.14406742, -644729.4, 286974.2, 0.0, 10.001399, 10.000008 
5.6500834e+2, 2.1492311e+2, -625634.4, -727081.5, 63811.215, 0.07238624, -0.45986012, -594842.6, 238879.05, 0.0, 10.001373, 10.000036 
5.6500494e+2, 2.249224e+2, -657496.4, -811810.8, 81192.984, 0.02911538, -0.4779148, -622646.75, 113079.06, 0.0, 10.000995, 9.998966 
5.6500244e+2, 2.3492375e+2, -672868.75, -769271.5, 55158.176, 0.018404769, -0.26557198, -647818.5, -10101.037, 0.0, 10.0002165, 9.9989605 
5.6499875e+2, 2.449233e+2, -636482.94, -776725.56, -2738.118, -0.015199138, -0.16817912, -636429.5, -96704.33, 0.0, 10.000139, 9.998267 
5.649938e+2, 2.549207e+2, -430282.47, -632187.7, 15224.339, -0.0667074, -0.27888933, -429140.94, 12611.238, 0.0, 10.000892, 9.998232 
5.649895e+2, 2.6491928e+2, -275158.6, -443074.75, 24142.469, -0.04339094, -0.26852027, -271756.38, 72010.59, 0.0, 10.00102, 9.99879 
5.6498575e+2, 2.7491888e+2, -255417.22, -383406.1, -10996.211, 0.049086586, -0.2156284, -254479.36, -8708.57, 0.0, 10.000486, 9.998783 
5.649809e+2, 2.8491804e+2, -208228.69, -306938.0, 15056.09, -0.0036354866, -0.1746265, -205983.27, -58203.484, 0.00000046127252, 10.000105, 9.998829 
5.6497484e+2, 2.949169e+2, -131969.9, -213351.69, 14572.337, -0.18501525, -0.2050472, -129439.26, -79646.58, 0.000007820285, 9.999922, 9.998887 
5.649729e+2, 3.0491674e+2, 48278.44, -5591.6377, -7724.1943, 0.07897983, -0.1486032, 49364.1, 49364.1, 0.00003595913, 10.00043, 9.999734 
5.6496775e+2, 3.1491628e+2, 190612.9, 63885.54, -53279.445, 0.015540865, -0.19526076, 210036.03, 210036.03, 0.000094486146, 10.001358, 9.999758 
5.7503945e+2, 1.2493206e+2, -1610488.1, -1733136.0, -238798.4, 0.04271093, -0.2911582, -1425265.3, 290373.63, 0.000015098279, 10.000992, 9.99935 
5.750381e+2, 1.3493334e+2, -1594211.0, -1686292.3, 172771.08, 0.1729976, -0.1399751, -1461451.3, 156182.28, 0.0000026568694, 10.000426, 9.999325 
5.7503355e+2, 1.4493313e+2, -1509452.3, -1495339.9, 84142.49, -0.09328103, -0.122854896, -1417958.3, 101679.43, 0.000000050157187, 9.999942, 10.000174 
5.7502997e+2, 1.5493315e+2, -1422206.4, -1399146.1, 54945.316, 0.025242146, -0.17475215, -1354534.1, 67100.75, 0.0, 9.999862, 10.000201 
5.750256e+2, 1.6493315e+2, -1365787.5, -1374952.8, 64725.297, 0.04364963, -0.1670252, -1305482.9, 18150.55, 0.0, 9.999806, 9.999715 
5.7502127e+2, 1.7493288e+2, -1257077.1, -1277136.8, 62161.008, 0.00090002845, -0.1902257, -1204142.0, 21493.57, 0.0, 9.999902, 9.999669 
5.750183e+2, 1.8493249e+2, -1089350.9, -1125385.3, 118657.26, 0.027086532, -0.20050637, -987350.75, 140286.7, 0.0, 10.0002985, 9.999841 
5.750168e+2, 1.9493172e+2, -897172.8, -982900.75, 163670.16, 0.11176974, -0.2857006, -770846.8, 258794.66, 0.0, 10.000948, 9.999833 
5.750137e+2, 2.049306e+2, -821715.94, -1006156.9, 106142.29, 0.098066136, -0.32752517, -773327.7, 158321.7, 0.0, 10.001274, 9.998844 
5.7500905e+2, 2.1492897e+2, -730946.56, -913141.7, 72410.28, -0.018850043, -0.39925787, -705673.94, 127988.92, 0.0, 10.001231, 9.99883 
5.7500553e+2, 2.2492804e+2, -704787.2, -882299.75, 42225.703, -0.030613558, -0.35767272, -695254.7, 40418.906, 0.0, 10.000871, 9.998544 
5.7500327e+2, 2.3492761e+2, -720646.94, -839347.6, 37849.797, 0.06249771, -0.27999765, -709605.0, -71921.5, 0.0, 10.00009, 9.998542 
5.749999e+2, 2.4492705e+2, -584565.5, -662003.44, 13515.282, 0.06583689, -0.21323752, -582274.44, -42583.15, 0.0, 10.000094, 9.9990835 
5.749952e+2, 2.5492617e+2, -385631.53, -520312.25, 55852.414, -0.030429775, -0.23500161, -365483.5, 76215.23, 0.0, 10.000802, 9.999048 
5.7499045e+2, 2.6492476e+2, -324351.8, -542241.1, -5660.1953, -0.07355944, -0.22825676, -324204.88, 19507.352, 0.0, 10.000996, 9.998126 
5.749852e+2, 2.749226e+2, -307126.56, -481651.9, -22652.047, -0.08136079, -0.28428522, -304234.44, -58500.137, 0.0, 10.000432, 9.998141 
5.749808e+2, 2.8492102e+2, -171244.53, -219271.61, -4510.603, -0.050168473, -0.32019582, -170824.58, -23075.865, 0.0000006054728, 10.00006, 9.999454 
5.749773e+2, 2.9492003e+2, -104076.82, -137967.95, 23434.197, 0.035831727, -0.39741552, -92103.3, -42348.29, 0.000009307056, 9.99985, 9.999437 
5.7497555e+2, 3.0492023e+2, -102398.19, -316927.72, 22422.861, 0.2767286, -0.22305477, -100079.586, -100079.586, 0.000040671366, 10.000421, 9.997607 
5.7496756e+2, 3.1491816e+2, 94145.9, -121993.69, 32440.637, -0.19818416, -0.22520219, 98909.94, 98909.94, 0.000103750725, 10.001288, 9.998524 
5.8503985e+2, 1.2493706e+2, -1817305.1, -1801325.8, -229289.4, 0.08089902, -0.32782596, -1579886.9, 135703.88, 0.000008007214, 9.999407, 9.99966 
5.8503765e+2, 1.349388e+2, -1597006.5, -1639676.6, 162201.16, 0.10373467, -0.16795278, -1454743.3, 162834.45, 0.0000012151539, 10.000197, 9.999762 
5.850352e+2, 1.4493884e+2, -1465067.8, -1511608.3, 87788.67, 0.057701524, -0.13032663, -1397517.5, 122061.37, 0.000000012980553, 10.000426, 9.999813 
5.850305e+2, 1.5493852e+2, -1343044.8, -1398052.0, -6121.7773, 0.062616445, -0.18340307, -1342371.6, 79209.43, 0.0, 10.000577, 9.999847 
5.8502567e+2, 1.6493815e+2, -1287875.9, -1390787.3, 6404.845, 0.03974773, -0.17192255, -1287478.8, 36105.63, 0.0, 10.000566, 9.999242 
5.850218e+2, 1.7493755e+2, -1218951.4, -1308010.1, -14168.076, 0.049061045, -0.18271461, -1216751.8, 8839.209, 0.0, 10.000371, 9.99923 
5.8501905e+2, 1.8493679e+2, -1068871.5, -1103591.0, 52523.07, 0.07302514, -0.21271874, -1030913.7, 96682.35, 0.0, 10.000384, 9.999957 
5.850174e+2, 1.9493563e+2, -946014.0, -995190.6, 15473.208, 0.10488452, -0.34688678, -941550.56, 88051.734, 0.0, 10.000557, 9.999947 
5.850144e+2, 2.049349e+2, -956315.4, -1084858.5, -36525.316, 0.09299801, -0.35240394, -946661.75, -15054.309, 0.0, 10.000408, 9.998718 
5.850102e+2, 2.1493438e+2, -928084.75, -1023410.8, -9844.003, 0.043302115, -0.3005618, -927078.8, -93465.69, 0.0, 9.999935, 9.9987 
5.8500654e+2, 2.2493349e+2, -843049.75, -932217.5, 45371.832, 0.03667879, -0.25456285, -824022.9, -88399.26, 0.0, 9.999866, 9.998685 
5.850035e+2, 2.3493196e+2, -687835.6, -812370.9, 58324.484, 0.06731304, -0.29890567, -664786.2, -27144.418, 0.0, 10.000265, 9.9986515 
5.85e+2, 2.4493119e+2, -549868.3, -631195.1, 66762.016, 0.06101533, -0.26255152, -512360.88, 27289.564, 0.0, 10.000265, 9.99921 
5.8499604e+2, 2.5493112e+2, -491416.75, -553039.3, 36530.195, 0.016325783, -0.22038405, -474439.03, -32788.25, 0.0, 9.999993, 9.999205 
5.849914e+2, 2.649299e+2, -463686.13, -582010.25, -7422.8486, -0.020769149, -0.21571557, -463222.28, -119560.61, 0.0, 9.999943, 9.998352 
5.849858e+2, 2.7492732e+2, -322049.88, -464651.53, 21471.182, -0.051417723, -0.33653897, -318887.16, -73201.33, 0.0, 10.000242, 9.998346 
5.849813e+2, 2.8492555e+2, -98175.7, -244398.1, 64682.117, -0.02983841, -0.3703732, -73670.19, 74031.42, 0.00000055145284, 10.000823, 9.998909 
5.8497834e+2, 2.9492465e+2, 104057.28, -104169.61, -21632.982, 0.078967616, -0.3814255, 106281.016, 155990.08, 0.000008783807, 10.001562, 9.998845 
5.849765e+2, 3.04924e+2, -30029.854, -313387.94, 5408.234, 0.30726752, -0.24548435, -29926.668, -29926.668, 0.000039667964, 10.001049, 9.997325 
5.849681e+2, 3.1492102e+2, -178310.86, -212514.98, 138878.4, -0.16701536, -0.31896666, -55485.477, -55485.477, 0.00010388018, 9.999243, 9.998875 
5.9503925e+2, 1.2494214e+2, -1767749.6, -1704260.4, -211012.06, 0.016616667, -0.33960745, -1522618.5, 192923.3, 0.0000033727015, 9.999452, 10.000296 
5.9503716e+2, 1.3494301e+2, -1558557.0, -1555134.8, 192679.45, 0.00804289, -0.32691804, -1364158.9, 253373.17, 0.00000044999516, 10.000189, 10.000343 
5.950371e+2, 1.4494295e+2, -1529571.1, -1638602.5, 74768.625, 0.17493108, -0.28738362, -1491554.1, 27979.52, 0.000000014541682, 10.000394, 9.998956 
5.9503084e+2, 1.5494269e+2, -1407736.6, -1530857.0, 9115.672, 0.009131219, -0.2466166, -1407065.4, 14474.1045, 0.0, 10.0005665, 9.998944 
5.950257e+2, 1.6494189e+2, -1322173.5, -1452826.4, -12189.6455, -0.043492727, -0.21126118, -1321046.0, 2502.9585, 0.0, 10.000531, 9.998832 
5.950228e+2, 1.7494018e+2, -1249274.6, -1364704.4, -11135.127, 0.08682076, -0.29032362, -1248210.4, -22644.945, 0.0, 10.000348, 9.998852 
5.9502e+2, 1.8493915e+2, -1125194.5, -1208800.0, 46816.84, 0.10966718, -0.29635847, -1104233.5, 23341.846, 0.0, 10.000332, 9.999261 
5.950172e+2, 1.9493863e+2, -1009092.6, -1104720.1, 31884.78, 0.009296805, -0.29803297, -999436.44, 30143.572, 0.0, 10.000467, 9.999237 
5.9501433e+2, 2.0493881e+2, -902868.3, -949977.94, -64515.574, 0.02310819, -0.22286072, -857742.06, 73835.84, 0.0, 10.000302, 9.999698 
5.950115e+2, 2.1493945e+2, -877448.25, -888410.3, -15368.016, 0.16069785, -0.1551384, -866613.1, -33041.746, 0.0, 9.999807, 9.999689 
5.9500754e+2, 2.2493884e+2, -810073.25, -845884.3, 48999.55, 0.13239138, -0.16159426, -775810.2, -40234.84, 0.0, 9.999777, 9.999326 
5.950026e+2, 2.3493677e+2, -661909.44, -731416.9, 84113.52, -0.07269656, -0.3239807, -605652.7, 31939.738, 0.0, 10.000142, 9.99927 
5.949986e+2, 2.449357e+2, -596183.5, -713644.94, 47075.957, -0.13203037, -0.32334232, -579645.06, -40042.02, 0.0, 10.000197, 9.998681 
5.9499574e+2, 2.5493556e+2, -539874.75, -633284.56, 35330.15, -0.042156704, -0.23397286, -528017.2, -86409.016, 0.0, 9.999903, 9.998698 
5.949919e+2, 2.6493472e+2, -392763.44, -425510.0, -7867.9443, 0.01689641, -0.22216515, -390971.13, -47356.5, 0.0, 9.999903, 9.999449 
5.9498703e+2, 2.7493292e+2, -256903.63, -313761.2, 46557.063, 0.027095664, -0.37353873, -230781.9, 14843.288, 0.0, 10.0001745, 9.999417 
5.949823e+2, 2.849316e+2, -227998.27, -503068.97, 83047.52, -0.042603135, -0.32862896, -204869.8, -57231.35, 0.0000003359344, 10.000778, 9.997151 
5.949776e+2, 2.9493073e+2, -32345.15, -363628.75, 16015.1875, -0.1813653, -0.16401486, -31572.732, 18082.703, 0.000006914508, 10.001468, 9.997103 
5.949755e+2, 3.049281e+2, 75797.03, -88288.38, -71401.234, 0.0708985, -0.21734504, 102516.18, 102516.18, 0.000035638073, 10.001019, 9.998891 
5.9496826e+2, 3.149248e+2, -44437.453, 84351.914, 136996.52, -0.13173452, -0.47646204, 171333.31, 171333.31, 0.00009897654, 9.9991665, 10.000951 
6.050403e+2, 1.2494761e+2, -1600438.0, -1642150.3, -113292.77, 0.12548788, -0.3225042, -1506097.6, 209391.66, 0.0000011596172, 10.000668, 10.000152 
6.0503626e+2, 1.34948e+2, -1529359.5, -1554985.8, 133506.86, -0.10303371, -0.33825025, -1408052.3, 209430.22, 0.00000014603442, 10.000466, 10.000203 
6.050378e+2, 1.4494783e+2, -1546883.4, -1677324.9, 44465.863, 0.21185854, -0.28752115, -1533167.6, -13682.56, 0.0000000031309833, 10.0004, 9.998697 
6.050319e+2, 1.5494743e+2, -1350745.0, -1532023.5, -767.56726, 0.045956112, -0.23222046, -1350741.8, 70752.14, 0.0, 10.001076, 9.998698 
6.0502696e+2, 1.649464e+2, -1205366.4, -1424563.3, 12954.265, -0.009562892, -0.19501854, -1204603.5, 118902.65, 0.0, 10.0014515, 9.998586 
6.050239e+2, 1.7494445e+2, -1108892.1, -1327249.6, 2972.7292, 0.11539745, -0.27480435, -1108851.6, 116673.36, 0.0, 10.001442, 9.998586 
6.050208e+2, 1.8494342e+2, -1058376.4, -1198547.1, 89790.164, 0.13588838, -0.25602415, -1014557.25, 112978.26, 0.0, 10.000892, 9.999058 
6.0501754e+2, 1.9494317e+2, -1121696.6, -1180799.4, 91387.02, 0.030771509, -0.21063574, -1055201.8, -25662.797, 0.0, 9.999788, 9.9990425 
6.0501444e+2, 2.0494318e+2, -981002.44, -986826.94, 28857.418, 0.038329728, -0.14329982, -954910.7, -23371.115, 0.0, 9.999769, 9.999703 
6.050118e+2, 2.1494313e+2, -731034.5, -817270.44, -18917.168, 0.17067543, -0.14314556, -727067.25, 106472.875, 0.0, 10.000811, 9.999694 
6.0500807e+2, 2.249426e+2, -631931.7, -720996.3, -4069.163, 0.15085863, -0.16017659, -631746.1, 103796.555, 0.0, 10.000844, 9.999661 
6.0500294e+2, 2.3494138e+2, -675330.75, -691865.8, -12453.878, -0.02650148, -0.27193204, -668650.0, -31100.719, 0.0, 9.999876, 9.999655 
6.0499877e+2, 2.4494039e+2, -686619.56, -755444.44, -3437.7837, -0.09462472, -0.283633, -686448.25, -146890.31, 0.0, 9.9995985, 9.998672 
6.049956e+2, 2.5493944e+2, -518483.03, -626326.5, 840.08136, -0.048599422, -0.27032217, -518476.5, -76906.11, 0.0, 10.000081, 9.99866 
6.049922e+2, 2.649386e+2, -258437.61, -345908.7, -23381.684, 0.012886089, -0.26238534, -252579.8, 90996.94, 0.0, 10.000739, 9.999602 
6.0498846e+2, 2.7493766e+2, -45533.227, -195012.53, -60982.953, 0.0889771, -0.34076867, -23810.781, 221768.17, 0.0, 10.001531, 9.999587 
6.0498387e+2, 2.8493664e+2, -145470.78, -484722.13, -244.2334, 0.0117393145, -0.2667128, -145470.6, 2119.5088, 0.00000016006682, 10.001439, 9.996962 
6.049783e+2, 2.949354e+2, -186203.23, -457770.1, 25954.34, -0.19854976, -0.118752904, -183744.97, -134133.22, 0.0000052467194, 10.000491, 9.996931 
6.049754e+2, 3.0493224e+2, 19011.395, -32929.703, -29884.014, 0.010582354, -0.25498724, 32632.81, 32632.81, 0.000031333126, 10.000285, 9.99962 
6.049691e+2, 3.1493017e+2, 202187.78, 252540.08, 97302.61, -0.034684185, -0.4543624, 327870.8, 327870.8, 0.00009226463, 10.00064, 10.001411 
6.1504257e+2, 1.24953605e+2, -1655081.0, -1752010.9, -76972.69, 0.22363582, -0.26558852, -1612586.4, 102845.4, 0.000000319301, 10.000666, 9.999391 
6.150346e+2, 1.3495387e+2, -1596917.3, -1693513.5, 130674.586, -0.34118333, -0.19838993, -1505900.8, 111527.6, 0.000000018009526, 10.000469, 9.999248 
6.150369e+2, 1.4495353e+2, -1524826.1, -1635857.8, 48317.902, 0.050282307, -0.13015434, -1506744.3, 12688.908, 0.0, 10.000409, 9.998978 
6.150335e+2, 1.5495276e+2, -1323828.0, -1486546.3, 33959.89, 0.068365045, -0.14579009, -1317024.9, 104419.37, 0.0, 10.001104, 9.9990015 
6.150291e+2, 1.6495173e+2, -1219323.8, -1441549.1, 1381.5819, 0.036307063, -0.12140684, -1219315.1, 104141.08, 0.0, 10.001406, 9.998491 
6.1502486e+2, 1.7495023e+2, -1121412.9, -1348991.5, 14035.811, 0.037440788, -0.14259645, -1120550.5, 104920.266, 0.0, 10.00142, 9.998449 
6.150211e+2, 1.8494952e+2, -1047156.94, -1158351.1, 38544.234, 0.052059654, -0.098904036, -1035102.75, 92374.66, 0.0, 10.000817, 9.999369 
6.150179e+2, 1.949494e+2, -1109636.3, -1142711.9, 62158.996, 0.070240274, -0.073226735, -1061852.6, -32374.645, 0.0, 9.999727, 9.999336 
6.150145e+2, 2.0494817e+2, -1063203.0, -1133901.9, 57748.53, 0.039721563, -0.0974292, -1030843.75, -99352.766, 0.0, 9.999668, 9.998742 
6.1501086e+2, 2.1494552e+2, -821122.2, -973279.4, 30454.23, -0.028906822, -0.25893626, -815253.1, 18265.629, 0.0, 10.000673, 9.9986925 
6.150075e+2, 2.249448e+2, -647403.9, -724121.94, -48469.41, -0.007593947, -0.24653915, -623951.1, 111574.24, 0.0, 10.000717, 9.999701 
6.1500436e+2, 2.3494586e+2, -691596.4, -693080.4, -36651.164, 0.102307834, -0.13565315, -655679.7, -18168.041, 0.0, 9.999736, 9.999713 
6.150003e+2, 2.449452e+2, -665967.0, -696068.8, 1715.6024, 0.07090214, -0.1392664, -665869.56, -126354.23, 0.0, 9.999523, 9.999118 
6.149953e+2, 2.5494263e+2, -501151.28, -572266.75, 28568.162, -0.112400554, -0.3356352, -491096.63, -49558.16, 0.0, 9.999999, 9.999072 
6.149917e+2, 2.6494145e+2, -320742.44, -461876.44, -3416.9543, -0.13105077, -0.34070325, -320659.78, 22888.635, 0.0, 10.000683, 9.998832 
6.149895e+2, 2.749416e+2, -115731.62, -313948.47, -18105.65, 0.014368235, -0.23862712, -114091.37, 131455.5, 0.0, 10.001422, 9.998817 
6.1498576e+2, 2.8494075e+2, -54437.445, -288950.56, -47749.53, 0.028245693, -0.17873104, -45087.85, 102468.21, 0.00000012615395, 10.001404, 9.9983225 
6.149801e+2, 2.949388e+2, -98801.516, -254596.3, 2867.255, -0.10473625, -0.23833756, -98748.766, -49172.29, 0.000004351736, 10.000404, 9.998363 
6.14976e+2, 3.0493647e+2, 1081.1135, -70225.586, -24042.357, 0.016905513, -0.35646275, 8430.047, 8430.047, 0.000027327982, 10.000275, 9.999379 
6.149694e+2, 3.1493756e+2, 110242.68, 83345.79, 170082.86, -0.123312294, -0.20674567, 267407.94, 267407.94, 0.00008384043, 10.000553, 10.00029 
6.2504435e+2, 1.2495871e+2, -1634549.4, -1764934.1, -89045.91, 0.34833118, -0.16195491, -1589382.3, 126002.664, 0.00000004128188, 10.000887, 9.999208 
6.2503517e+2, 1.3495801e+2, -1652908.9, -1751197.6, 32991.21, -0.3104612, -0.16311876, -1642862.1, -25471.75, 0.000000000001578113, 10.000204, 9.998989 
6.2503767e+2, 1.4495693e+2, -1614831.1, -1684470.1, 39835.992, 0.12039093, -0.15312602, -1596742.3, -77340.7, 0.0, 9.999806, 9.998941 
6.2503445e+2, 1.5495595e+2, -1428178.5, -1532359.6, -13068.389, 0.089262955, -0.18637277, -1426564.3, -5150.679, 0.0, 10.000391, 9.999021 
6.2503016e+2, 1.6495527e+2, -1288481.3, -1411710.1, -35963.063, 0.04165756, -0.15355411, -1278753.8, 44666.79, 0.0, 10.000668, 9.999044 
6.25026e+2, 1.749547e+2, -1218372.3, -1327786.6, -2654.1616, 0.0647016, -0.14105006, -1218307.9, 7116.613, 0.0, 10.000484, 9.999034 
6.250222e+2, 1.8495409e+2, -1105406.1, -1232616.0, 33110.547, 0.09023646, -0.0988693, -1097304.1, 30126.215, 0.0, 10.0006, 9.998968 
6.250184e+2, 1.9495313e+2, -960489.7, -1112164.3, -16040.534, 0.096617505, -0.118015334, -958811.8, 70628.84, 0.0, 10.000927, 9.998964 
6.2501466e+2, 2.0495169e+2, -941679.7, -1099494.9, 16649.336, 0.051841296, -0.13278653, -939942.3, -8485.836, 0.0, 10.000598, 9.998535 
6.2501097e+2, 2.1494947e+2, -993337.75, -1071319.6, 29342.004, -0.024964083, -0.23193365, -983530.6, -150050.31, 0.0, 9.999564, 9.99855 
6.2500745e+2, 2.2494881e+2, -836033.2, -857628.94, -10958.678, -0.019255366, -0.18904722, -831446.44, -95958.49, 0.0, 9.9995985, 9.999326 
6.2500423e+2, 2.3494947e+2, -576298.2, -684790.06, -50985.26, 0.07684388, -0.07950584, -556098.7, 81382.62, 0.0, 10.000711, 9.999311 
6.250004e+2, 2.449487e+2, -449841.2, -561534.3, -19987.814, 0.06984505, -0.08914506, -446372.06, 93113.99, 0.0, 10.000856, 9.99941 
6.249959e+2, 2.549463e+2, -462559.13, -519283.16, -25752.201, -0.04634339, -0.29641363, -452612.16, -11108.101, 0.0, 10.000105, 9.999388 
6.249923e+2, 2.6494515e+2, -478834.44, -568598.5, -7006.6924, -0.08676532, -0.30301574, -478290.8, -134777.22, 0.0, 9.999727, 9.998555 
6.249894e+2, 2.7494502e+2, -388388.53, -478443.66, -9259.53, -0.04688434, -0.19966377, -387446.3, -141928.83, 0.0, 9.9996805, 9.998527 
6.249862e+2, 2.84944e+2, -202761.6, -294834.2, -37356.863, -0.0016398059, -0.16769534, -189511.5, -41983.883, 0.000000116905284, 10.000112, 9.998908 
6.2498224e+2, 2.9494208e+2, 42528.246, -129446.41, -72556.26, 0.041074693, -0.28407237, 69049.72, 118594.15, 0.000004287332, 10.00111, 9.9988985 
6.2497735e+2, 3.049403e+2, 113164.72, -38494.95, -120827.484, 0.093850434, -0.35926008, 179986.36, 179986.36, 0.000025852014, 10.001163, 9.99916 
6.249695e+2, 3.1494185e+2, -4799.021, -33103.74, 38699.703, -0.13161941, -0.1452764, 22254.885, 22254.885, 0.00007870898, 10.0000305, 9.999737 
6.3504565e+2, 1.2496277e+2, -1591966.5, -1692695.8, -64231.168, 0.3210266, -0.01726191, -1560708.6, 154641.38, 0.000000010756334, 10.000955, 9.999673 
6.350375e+2, 1.349602e+2, -1627689.0, -1703044.4, 2468.4138, -0.12333213, -0.23963004, -1627608.3, -10238.029, 0.0, 10.000215, 9.999321 
6.350397e+2, 1.4495797e+2, -1633292.4, -1712576.4, 41764.465, 0.30836505, -0.3501308, -1615351.8, -95961.375, 0.0, 9.999769, 9.998763 
6.350344e+2, 1.5495704e+2, -1440488.0, -1564044.9, 23983.25, 0.013660595, -0.35838738, -1435996.0, -14594.549, 0.0, 10.000411, 9.998797 
6.3502973e+2, 1.6495706e+2, -1210546.3, -1243856.0, -54247.934, -0.09442347, -0.30608884, -1170454.1, 152945.58, 0.0, 10.000639, 10.000212 
6.350271e+2, 1.7495781e+2, -1136283.1, -1160562.4, 796.7257, 0.100144535, -0.27624634, -1136257.0, 89129.95, 0.0, 10.000485, 10.000189 
6.3502353e+2, 1.8495695e+2, -1187647.6, -1389661.8, 34386.465, 0.14550981, -0.26310748, -1181954.9, -54559.3, 0.0, 10.000546, 9.997913 
6.350187e+2, 1.9495422e+2, -1047445.56, -1276016.8, 4870.1533, 0.003989262, -0.35199916, -1047341.9, -17913.693, 0.0, 10.000854, 9.997874 
6.350147e+2, 2.0495364e+2, -917829.5, -1020156.8, -33556.93, -0.022866972, -0.25579315, -907806.6, 23630.803, 0.0, 10.00047, 9.99914 
6.3501173e+2, 2.1495497e+2, -971561.2, -990190.5, 1925.3431, 0.07480361, -0.06378675, -971364.3, -137939.1, 0.0, 9.99941, 9.999181 
6.350076e+2, 2.2495459e+2, -909128.6, -980410.56, 20457.11, 0.016339086, 0.013325791, -903674.94, -168243.67, 0.0, 9.999471, 9.998546 
6.3500226e+2, 2.3495218e+2, -652155.0, -810802.3, 3181.7507, -0.21069509, -0.106149904, -652091.2, -14632.73, 0.0, 10.000574, 9.998513 
6.349988e+2, 2.4495088e+2, -453745.38, -549688.7, -57260.754, -0.20420475, -0.13448274, -427017.13, 112452.64, 0.0, 10.000772, 9.999531 
6.349972e+2, 2.5495052e+2, -468336.9, -507724.75, -43877.8, 0.045550518, -0.15042461, -439936.0, 1530.6708, 0.0, 10.000003, 9.999517 
6.349937e+2, 2.649497e+2, -475297.03, -543800.3, -20603.158, 0.053382535, -0.14161684, -469577.88, -126105.875, 0.0, 9.999659, 9.998755 
6.3498783e+2, 2.749481e+2, -393083.84, -457485.6, 720.4181, -0.19952406, -0.20682144, -393075.78, -147586.44, 0.0, 9.9995575, 9.998727 
6.3498473e+2, 2.8494656e+2, -221003.75, -324228.44, -12848.844, -0.1811219, -0.22594391, -219428.44, -71924.484, 0.0000001448745, 10.000073, 9.998728 
6.349844e+2, 2.9494524e+2, 9713.762, -172176.56, -17702.438, 0.11043824, -0.2574733, 11420.631, 60935.22, 0.000005079309, 10.001017, 9.998646 
6.3497907e+2, 3.0494398e+2, 91655.914, -91403.414, -166055.84, 0.12000447, -0.24831076, 189736.97, 189736.97, 0.000027855136, 10.001178, 9.998799 
6.3496846e+2, 3.1494316e+2, -44599.508, -83996.26, 24744.014, -0.29631558, -0.24573041, -32670.486, -32670.486, 0.00008149468, 9.999889, 9.999458 
6.450471e+2, 1.24965236e+2, -1560134.3, -1726903.5, 62882.957, 0.36687756, -0.07059452, -1539081.0, 176243.64, 0.0000000047013002, 10.0013895, 9.999226 
6.450393e+2, 1.3496315e+2, -1487842.4, -1675540.4, -55430.195, -0.007927601, -0.20376717, -1472695.4, 144648.84, 0.0, 10.00138, 9.998924 
6.4504045e+2, 1.4496116e+2, -1446365.0, -1565690.9, 24215.97, 0.36780217, -0.29589307, -1441637.9, 77724.54, 0.0, 10.000818, 9.999262 
6.450345e+2, 1.5496068e+2, -1459537.3, -1513899.3, 32311.193, 0.0122972615, -0.31207564, -1444494.8, -23128.629, 0.0, 10.000031, 9.99932 
6.4502984e+2, 1.649606e+2, -1315232.9, -1322654.4, -33570.785, -0.108684994, -0.2809926, -1285168.4, 38196.22, 0.0, 10.000037, 9.999964 
6.450279e+2, 1.7496079e+2, -1103474.5, -1169549.6, -102067.83, 0.11769357, -0.2822764, -1029230.5, 196128.63, 0.0, 10.000821, 9.999965 
6.450246e+2, 1.8495984e+2, -1097840.1, -1333642.6, -66167.01, 0.17541112, -0.27218693, -1080542.3, 46827.14, 0.0, 10.001113, 9.998024 
6.4501977e+2, 1.9495746e+2, -1042189.5, -1257647.5, -29829.559, 0.03653694, -0.33831757, -1038136.0, -8737.6045, 0.0, 10.000835, 9.998005 
6.450155e+2, 2.0495702e+2, -833298.0, -944410.94, -25222.12, -0.0036055273, -0.2504387, -827840.75, 103563.98, 0.0, 10.000903, 9.999447 
6.4501196e+2, 2.149583e+2, -683580.25, -822061.44, -38824.207, 0.07153955, -0.09467566, -673438.4, 159952.22, 0.0, 10.001255, 9.999447 
6.4500767e+2, 2.2495778e+2, -722776.0, -910430.7, 22586.924, 0.014617551, -0.03329636, -720095.6, 15301.2705, 0.0, 10.000824, 9.998378 
6.450026e+2, 2.3495525e+2, -800252.1, -897704.8, 27076.854, -0.17796926, -0.15148325, -793234.3, -155808.13, 0.0, 9.999621, 9.998371 
6.449993e+2, 2.4495392e+2, -659744.2, -693075.4, 3364.7903, -0.16029675, -0.15581474, -659407.94, -119968.25, 0.0, 9.9995575, 9.999134 
6.4499784e+2, 2.5495362e+2, -399451.84, -516006.4, -39500.023, 0.08432876, -0.121470094, -387326.75, 54111.863, 0.0, 10.000663, 9.999145 
6.449939e+2, 2.6495278e+2, -328874.2, -466982.78, -46461.914, 0.0704686, -0.09962757, -314698.66, 28746.715, 0.0, 10.000639, 9.998813 
6.4498734e+2, 2.7495104e+2, -391617.75, -451886.03, -63307.402, -0.1922401, -0.18150197, -351638.44, -106175.15, 0.000000000000000000046744374, 9.999546, 9.998777 
6.449843e+2, 2.8494975e+2, -350978.84, -363611.4, -1804.5643, -0.1706041, -0.19446972, -350726.13, -203251.05, 0.00000034821963, 9.999078, 9.998934 
6.4498454e+2, 2.9494876e+2, -252992.1, -281676.06, -3489.9294, 0.13101187, -0.21371168, -252573.6, -203092.19, 0.0000068469953, 9.999126, 9.998802 
6.4497936e+2, 3.0494732e+2, -138532.0, -251180.48, -125169.16, 0.11127485, -0.20188501, -57598.316, -57598.316, 0.00003364889, 9.9998255, 9.998334 
6.4496946e+2, 3.1494573e+2, 114440.086, -39777.066, -10649.792, -0.22763859, -0.24012972, 115172.055, 115172.055, 0.000093661416, 10.001135, 9.999144 
6.5504855e+2, 1.249662e+2, -1643988.9, -1897225.1, 97991.98, 0.31044313, -0.32039526, -1610499.0, 104809.18, 0.000000001405694, 10.001381, 9.998055 
6.5504026e+2, 1.3496694e+2, -1561626.8, -1834547.8, -53125.39, -0.080043375, -0.059011105, -1551650.4, 65661.086, 0.0, 10.0014105, 9.997813 
6.550399e+2, 1.4496648e+2, -1367462.0, -1402605.5, -22764.873, 0.1979104, -0.0013172927, -1356276.1, 163041.7, 0.0, 10.000818, 10.000385 
6.550345e+2, 1.5496676e+2, -1384408.4, -1357226.0, 14412.088, -0.02224597, -0.05012584, -1351007.4, 70301.09, 0.0, 10.00002, 10.000409 
6.550301e+2, 1.6496584e+2, -1430364.8, -1551305.4, -16972.26, -0.1147383, -0.07780484, -1428028.0, -104712.22, 0.0, 9.999995, 9.998409 
6.550278e+2, 1.7496365e+2, -1216548.6, -1400805.5, -61359.72, 0.006102133, -0.16135058, -1197985.3, 27355.633, 0.0, 10.000807, 9.998381 
6.55025e+2, 1.8496275e+2, -1015672.25, -1148796.8, -87564.26, 0.08208601, -0.13171338, -972243.44, 155108.31, 0.0, 10.001051, 9.999324 
6.550214e+2, 1.9496287e+2, -959452.56, -1067877.8, -27484.533, 0.0892421, -0.081076235, -952883.56, 76467.164, 0.0, 10.00076, 9.999344 
6.550168e+2, 2.0496184e+2, -852575.4, -962463.9, -22977.014, 0.014372856, -0.11494882, -847964.44, 83393.76, 0.0, 10.000806, 9.999375 
6.550113e+2, 2.149594e+2, -708972.6, -840120.7, -14938.744, -0.14391968, -0.3236807, -707292.5, 126084.375, 0.0, 10.00111, 9.9993925 
6.5500736e+2, 2.2495842e+2, -714650.9, -858926.0, -33601.664, -0.12126874, -0.32749492, -707208.94, 28175.9, 0.0, 10.000678, 9.998798 
6.55005e+2, 2.3495866e+2, -792031.75, -845583.94, -7793.994, 0.07274599, -0.21090087, -790920.5, -153535.78, 0.0, 9.9994755, 9.998796 
6.550017e+2, 2.449578e+2, -735534.7, -825907.25, 32576.834, 0.10215472, -0.14592394, -725015.94, -185620.13, 0.0, 9.999455, 9.998268 
6.5499747e+2, 2.5495562e+2, -476926.7, -649661.3, 14096.814, -0.043701556, -0.21669954, -475783.8, -34363.5, 0.0, 10.000552, 9.998276 
6.5499276e+2, 2.6495442e+2, -340901.7, -487582.72, -98776.586, -0.13507867, -0.1822819, -291215.2, 52218.707, 0.0, 10.0006075, 9.998692 
6.5498763e+2, 2.7495402e+2, -407433.97, -474506.9, -89701.86, -0.15187198, -0.117787965, -345204.47, -99766.055, 0.0000000002377775, 9.999488, 9.998656 
6.5498435e+2, 2.849536e+2, -318176.94, -276580.22, -11064.52, -0.103297696, -0.06660918, -273820.25, -126379.984, 0.0000008000927, 9.999007, 9.999558 
6.549825e+2, 2.949527e+2, -230510.69, -201807.63, 11875.829, -0.025635105, -0.14331664, -197531.17, -148087.2, 0.000010270006, 9.998995, 9.999409 
6.5497786e+2, 3.0495057e+2, -181905.42, -343373.2, -81787.26, -0.05704051, -0.19887225, -147717.1, -147717.1, 0.00004390313, 9.99982, 9.997713 
6.549722e+2, 3.149488e+2, 83916.58, -99024.29, 63120.56, -0.1376901, -0.18942454, 103581.41, 103581.41, 0.00011355634, 10.001107, 9.998759 
6.6504943e+2, 1.249681e+2, -1731780.6, -1909908.1, 71840.07, 0.31550732, -0.3366538, -1706418.1, 8870.503, 0.00000000035571668, 10.000643, 9.998328 
6.6504186e+2, 1.3496919e+2, -1625036.1, -1825604.4, -56213.406, -0.022496557, -0.08064447, -1610355.8, 6931.577, 0.0, 10.00078, 9.9981985 
6.6504025e+2, 1.4496882e+2, -1408698.3, -1444785.5, -9150.591, 0.173645, -0.023429606, -1406510.6, 112782.61, 0.0, 10.000634, 10.000183 
6.6503537e+2, 1.549693e+2, -1304874.4, -1341707.8, -94598.41, 0.0367265, -0.033429842, -1226916.6, 194367.03, 0.0, 10.00067, 10.000196 
6.650311e+2, 1.6496843e+2, -1361010.4, -1522806.6, -68379.125, -0.03646612, -0.043296892, -1335983.0, -12691.081, 0.0, 10.000496, 9.998367 
6.650285e+2, 1.7496604e+2, -1331589.9, -1458101.5, -22768.479, 0.03827926, -0.14529611, -1327617.0, -102297.016, 0.0, 10.000022, 9.998365 
6.650256e+2, 1.8496539e+2, -1128905.8, -1163139.5, -2957.4045, 0.08462108, -0.106599554, -1128652.1, -1323.8689, 0.0, 10.000114, 9.999671 
6.6502196e+2, 1.9496627e+2, -933565.06, -1021021.44, -40628.535, 0.07835756, -0.0123888645, -917603.8, 111715.52, 0.0, 10.000784, 9.999657 
6.6501755e+2, 2.049654e+2, -856620.3, -966359.6, -65084.973, 0.014282824, -0.04658918, -826362.2, 104963.3, 0.0, 10.000785, 9.999362 
6.650122e+2, 2.149625e+2, -862550.75, -918192.4, -76851.16, -0.1012622, -0.29649562, -808639.7, 24709.658, 0.0, 10.000069, 9.999363 
6.650083e+2, 2.2496131e+2, -765945.25, -845614.9, -74255.58, -0.063058056, -0.33709165, -721514.4, 13843.708, 0.0, 10.00017, 9.999136 
6.6500574e+2, 2.3496167e+2, -537069.5, -687797.1, -77205.414, 0.12466676, -0.23800583, -504542.75, 132810.6, 0.0, 10.00108, 9.999112 
6.65002e+2, 2.4496098e+2, -556059.6, -763290.44, 3851.1523, 0.12919737, -0.16178665, -555988.06, -16625.494, 0.0, 10.000769, 9.998074 
6.649972e+2, 2.54959e+2, -690792.3, -778532.06, 8151.6855, -0.05213725, -0.194999, -690041.4, -248653.03, 0.0, 9.99917, 9.998066 
6.649926e+2, 2.649577e+2, -554149.0, -580356.1, -32149.018, -0.13589795, -0.16296609, -532535.7, -189132.38, 0.0, 9.999095, 9.998788 
6.649881e+2, 2.7495703e+2, -240149.66, -377549.16, -29772.813, -0.099922724, -0.13373475, -233975.67, 11432.395, 0.0000000023427176, 10.000577, 9.998792 
6.649847e+2, 2.8495649e+2, -72388.29, -198351.7, 25984.014, -0.05516566, -0.08507535, -67238.77, 80172.3, 0.0000014418595, 10.000856, 9.99921 
6.649819e+2, 2.9495543e+2, -123230.1, -179964.56, -48929.426, -0.020791516, -0.14522862, -95039.5, -45621.46, 0.000014823799, 9.999859, 9.999141 
6.649775e+2, 3.0495346e+2, -127014.8, -249858.83, -44069.535, -0.07016337, -0.2057433, -112840.59, -112840.59, 0.000057815294, 9.999916, 9.998306 
6.6497386e+2, 3.1495214e+2, 55112.78, -71791.32, 133188.36, -0.045474607, -0.20344171, 139191.4, 139191.4, 0.00014076945, 10.0007305, 9.999129 
6.750495e+2, 1.249708e+2, -1614729.9, -1670206.1, 67775.48, 0.20100693, -0.14389238, -1569236.0, 146031.17, 0.0000000023126079, 10.000666, 9.999957 
6.750437e+2, 1.3496989e+2, -1496211.4, -1556988.0, -46520.137, 0.058855336, -0.27562645, -1471033.8, 146238.3, 0.0, 10.00078, 10.00004 
6.7504126e+2, 1.4496836e+2, -1516172.4, -1662280.5, -24284.77, 0.17345203, -0.35260186, -1512241.8, 7045.578, 0.0, 10.000611, 9.9987 
6.750365e+2, 1.5496856e+2, -1405267.4, -1552742.0, -80219.64, 0.056800026, -0.23696461, -1370044.3, 51245.313, 0.0, 10.000684, 9.998741 
6.750324e+2, 1.6496852e+2, -1256570.6, -1306912.0, -97705.12, 0.017679479, -0.16771205, -1180846.1, 142445.34, 0.0, 10.000491, 9.999855 
6.750296e+2, 1.74968e+2, -1229986.3, -1240873.0, -28910.922, 0.1155016, -0.23255047, -1206010.8, 19284.654, 0.0, 9.999993, 9.99987 
6.750259e+2, 1.849678e+2, -1180228.8, -1259790.0, 8648.83, 0.080373615, -0.19312075, -1179299.4, -52000.625, 0.0, 10.000067, 9.999034 
6.750211e+2, 1.9496776e+2, -992266.9, -1119381.3, -4681.3135, -0.10942471, -0.1252984, -992094.75, 37208.54, 0.0, 10.000686, 9.999028 
6.7501736e+2, 2.0496777e+2, -874627.3, -980858.7, -102119.55, -0.10488882, -0.03600546, -812635.75, 118669.73, 0.0, 10.000673, 9.999322 
6.7501444e+2, 2.149676e+2, -882311.25, -929891.1, -93121.08, 0.096404, -0.013118446, -809989.3, 23318.623, 0.0, 9.999937, 9.999348 
6.7501026e+2, 2.2496653e+2, -770081.8, -820222.5, -50596.516, 0.093675174, -0.052693035, -738685.1, -3369.2979, 0.0, 10.000026, 9.999379 
6.750045e+2, 2.3496436e+2, -541454.3, -661184.25, -29602.535, -0.12873246, -0.2328596, -534535.1, 102796.22, 0.0, 10.000931, 9.999364 
6.7499995e+2, 2.4496356e+2, -542969.4, -710587.1, -65009.96, -0.17539902, -0.19978577, -520711.2, 18627.625, 0.0, 10.000661, 9.998486 
6.749966e+2, 2.5496387e+2, -679255.9, -729791.44, -41288.992, -0.04964566, -0.04392644, -656116.6, -214775.31, 0.0, 9.99906, 9.998454 
6.7499286e+2, 2.649628e+2, -542447.75, -536233.06, 11744.704, -0.034316365, -0.027532324, -527191.56, -183839.55, 0.0, 9.999014, 9.999128 
6.749885e+2, 2.7496013e+2, -230004.22, -336342.06, 39826.527, -0.13963838, -0.22942685, -216742.08, 28630.316, 0.0000000015372758, 10.000491, 9.999118 
6.7498523e+2, 2.8495842e+2, -159311.17, -377678.75, -21420.895, -0.11401019, -0.25339186, -157229.72, -9842.0, 0.0000017821444, 10.000849, 9.997983 
6.749824e+2, 2.949572e+2, -220009.66, -357424.0, -69355.414, 0.015059099, -0.20783044, -191090.75, -141688.73, 0.000019076204, 9.999757, 9.9979725 
6.749778e+2, 3.0495593e+2, -15553.733, -3111.3071, -20415.398, -0.05640762, -0.2282439, 12009.738, 12009.738, 0.000073988194, 9.999858, 10.000022 
6.749737e+2, 3.1495592e+2, 121871.21, 98104.414, 186225.38, -0.1892925, -0.2604756, 296591.97, 296591.97, 0.00017626988, 10.000609, 10.000346 
6.8504983e+2, 1.2497264e+2, -1640598.8, -1640576.8, 154060.27, 0.19513491, -0.11306175, -1486527.5, 228723.1, 0.0000000036242784, 10.000281, 10.000357 
6.850452e+2, 1.3497177e+2, -1496057.3, -1482046.6, -97423.05, 0.15780838, -0.30199626, -1391377.4, 225874.02, 0.0, 10.000479, 10.000684 
6.8504155e+2, 1.4497028e+2, -1562711.0, -1702523.8, -45572.71, 0.1658144, -0.40005007, -1549168.1, -29903.086, 0.0, 10.000356, 9.998552 
6.850371e+2, 1.5496996e+2, -1500166.0, -1617384.9, -25122.355, 0.07889502, -0.32274422, -1495008.6, -73734.18, 0.0, 10.000098, 9.99859 
6.8503296e+2, 1.6497019e+2, -1288584.5, -1263257.5, -11150.014, 0.05997244, -0.2466955, -1259048.4, 64225.703, 0.0, 10.00001, 10.000392 
6.850299e+2, 1.7497075e+2, -1179747.6, -1161961.3, -38006.6, 0.15163472, -0.25517976, -1131821.3, 93444.54, 0.0, 10.000091, 10.000375 
6.8502605e+2, 1.8497074e+2, -1183448.1, -1270522.1, 25278.174, 0.09693082, -0.21685864, -1176641.8, -49375.383, 0.0, 10.000085, 9.998949 
6.850212e+2, 1.9496988e+2, -1109020.3, -1182601.6, 32914.555, -0.124298215, -0.2240793, -1096445.8, -67167.13, 0.0, 9.999915, 9.99896 
6.850176e+2, 2.0496994e+2, -1004700.94, -1066125.4, -49536.36, -0.09979116, -0.116147175, -977128.56, -45846.383, 0.0, 9.999902, 9.999088 
6.8501526e+2, 2.1497072e+2, -880608.5, -955975.75, -79210.14, 0.17633408, 0.02641526, -830574.94, 2704.5715, 0.0, 10.000075, 9.999092 
6.8501097e+2, 2.2496991e+2, -729039.4, -791582.8, 924.0659, 0.16336456, 0.021708993, -729025.75, 6260.769, 0.0, 10.000256, 9.999468 
6.850049e+2, 2.3496734e+2, -611967.0, -686905.7, -11792.363, -0.14402145, -0.20937116, -610155.2, 27150.086, 0.0, 10.000391, 9.999452 
6.850003e+2, 2.4496648e+2, -552437.25, -682090.44, -84602.61, -0.18773243, -0.20218092, -510680.13, 28631.393, 0.0, 10.000458, 9.998771 
6.849972e+2, 2.5496718e+2, -445483.84, -583421.6, -90518.81, 0.031274024, -0.033694573, -400653.06, 40654.13, 0.0, 10.000534, 9.99874 
6.849933e+2, 2.6496607e+2, -397358.2, -508341.47, -3894.5444, 0.061107118, -0.01713947, -397221.7, -53903.69, 0.0, 10.000189, 9.998749 
6.84989e+2, 2.7496284e+2, -422422.0, -470914.78, -55088.137, -0.08275578, -0.24402688, -386480.44, -141134.08, 0.00000000039754933, 9.999342, 9.998744 
6.849854e+2, 2.849609e+2, -410985.22, -477639.94, -92058.31, -0.08522714, -0.2780832, -346407.28, -199042.9, 0.000001935021, 9.999037, 9.998165 
6.8498224e+2, 2.9496e+2, -243074.94, -344741.75, -56977.727, 0.044239942, -0.21449399, -217550.66, -168175.5, 0.000022833043, 9.999491, 9.998189 
6.8497753e+2, 3.0495957e+2, -77248.08, -6238.2734, 19873.344, -0.025906999, -0.17440563, -1054.7511, -1054.7511, 0.00009092674, 9.999321, 10.000259 
6.849736e+2, 3.1495884e+2, -252605.73, -61435.91, 67092.82, -0.12246444, -0.29786155, -40239.31, -40239.31, 0.00021663251, 9.997914, 10.000566 
6.9504976e+2, 1.24973685e+2, -1681760.0, -1731324.4, 111560.19, 0.09984618, -0.23535642, -1592262.5, 122975.6, 0.00000000017840025, 10.000322, 9.999701 
6.95046e+2, 1.349749e+2, -1532100.1, -1559505.8, -83342.68, 0.16427629, -0.15753669, -1461341.3, 155882.9, 0.0, 10.0005, 10.000136 
6.95041e+2, 1.4497446e+2, -1474130.8, -1523943.3, -68794.69, 0.04370579, -0.18681765, -1425872.6, 93355.13, 0.0, 10.000372, 9.999775 
6.950367e+2, 1.5497331e+2, -1415448.8, -1448998.5, -21909.654, 0.0067321034, -0.31010038, -1404629.6, 16610.314, 0.0, 10.000119, 9.999743 
6.9503254e+2, 1.6497335e+2, -1323653.5, -1328369.0, -19364.238, -0.012228172, -0.28832108, -1306504.0, 16736.11, 0.0, 9.999983, 9.999953 
6.950292e+2, 1.7497443e+2, -1216076.0, -1227670.3, -21973.914, 0.045635782, -0.19998921, -1199147.4, 26082.063, 0.0, 10.000051, 9.999942 
6.9502574e+2, 1.8497431e+2, -1159027.3, -1204479.4, 10603.939, 0.031648863, -0.1751896, -1156675.0, -29445.26, 0.0, 10.000018, 9.999433 
6.950219e+2, 1.9497271e+2, -1088185.6, -1120197.0, 38085.652, -0.070776574, -0.30664086, -1062879.0, -33634.7, 0.0, 9.999839, 9.999421 
6.95018e+2, 2.0497194e+2, -1050730.8, -1140542.3, -55615.117, -0.07116555, -0.2823046, -1024155.25, -92899.92, 0.0, 9.999804, 9.998629 
6.950141e+2, 2.1497183e+2, -933016.8, -1033413.3, -62332.37, 0.033984333, -0.18078646, -903182.7, -69918.16, 0.0, 9.999939, 9.998628 
6.9501036e+2, 2.2497147e+2, -752406.94, -810119.8, -3870.3088, 0.05379252, -0.11569333, -752148.56, -16878.305, 0.0, 10.000125, 9.999403 
6.950067e+2, 2.3497057e+2, -635457.56, -705060.4, 4094.925, -0.020557709, -0.17247497, -635217.44, 2057.8672, 0.0, 10.000261, 9.999387 
6.950028e+2, 2.4496979e+2, -552220.0, -659969.0, -91971.984, -0.0077538304, -0.16308177, -499505.06, 39774.88, 0.0, 10.000363, 9.99897 
6.9499856e+2, 2.5496897e+2, -442153.9, -557715.4, -75374.89, 0.086719856, -0.17061901, -404961.03, 36325.02, 0.0, 10.00045, 9.998959 
6.9499385e+2, 2.649675e+2, -485311.38, -676405.2, -43980.516, 0.068491675, -0.14274324, -475675.13, -132373.56, 0.0, 10.000128, 9.997624 
6.949889e+2, 2.7496505e+2, -517160.0, -645799.06, -75935.125, -0.052026715, -0.17416327, -481965.0, -236635.19, 0.0000000054780975, 9.999248, 9.99759 
6.949847e+2, 2.849639e+2, -310158.5, -253294.98, -87810.88, -0.08741161, -0.1522022, -189427.67, -42086.426, 0.000002364329, 9.998975, 9.99973 
6.9498086e+2, 2.9496393e+2, -145910.11, -122423.7, -19879.896, -0.077047616, -0.15704276, -111077.67, -61740.805, 0.000027093956, 9.99941, 9.999749 
6.949765e+2, 3.0496442e+2, -162775.6, -184164.56, -35130.8, -0.08910992, -0.043001942, -136747.53, -136747.53, 0.00010798756, 9.999315, 9.999042 
6.949731e+2, 3.1496146e+2, -331992.7, -206599.2, 37791.086, -0.021300858, -0.26533714, -196090.42, -196090.42, 0.00025661878, 9.997828, 9.999612 
7.05051e+2, 1.24976195e+2, -1519476.5, -1719123.8, 124579.03, 0.13929981, -0.26184925, -1459660.9, 255551.31, 0.0, 10.001702, 9.999139 
7.050473e+2, 1.3497718e+2, -1497235.0, -1608062.0, -71846.47, 0.22995529, -0.14783101, -1461915.0, 155289.58, 0.0, 10.000995, 9.999579 
7.050411e+2, 1.4497732e+2, -1421589.0, -1439127.4, -47864.254, 0.021162814, -0.117932804, -1381697.3, 137506.56, 0.0, 10.000491, 10.000288 
7.0503706e+2, 1.5497676e+2, -1301177.0, -1329926.1, -76024.06, 0.0084222965, -0.23498087, -1238180.5, 183028.14, 0.0, 10.000654, 10.000282 
7.050328e+2, 1.6497692e+2, -1223120.8, -1322284.4, -63207.457, -0.014575202, -0.20675132, -1192368.6, 130839.07, 0.0, 10.000866, 9.999563 
7.0502937e+2, 1.749776e+2, -1108017.1, -1214650.5, -86236.81, 0.015690131, -0.12068189, -1059946.1, 165256.94, 0.0, 10.000972, 9.999578 
7.050261e+2, 1.849773e+2, -1050485.0, -1117679.9, -59743.355, 0.03864598, -0.11453993, -1015540.06, 111665.15, 0.0, 10.000612, 9.999743 
7.050228e+2, 1.9497563e+2, -1068062.5, -1078966.8, -66756.24, 0.040757537, -0.2793538, -1006536.1, 22681.41, 0.0, 9.999827, 9.999719 
7.050186e+2, 2.0497483e+2, -1064416.0, -1129793.3, -92186.85, 0.018419532, -0.2807687, -999293.75, -68066.586, 0.0, 9.999628, 9.998795 
7.050134e+2, 2.1497473e+2, -919139.9, -1008348.25, -71877.71, -0.027310342, -0.19457246, -879151.25, -45915.586, 0.0, 9.999947, 9.998802 
7.0500964e+2, 2.2497457e+2, -785577.75, -841496.75, 16286.906, -0.016257912, -0.10983111, -781179.94, -45939.96, 0.0, 9.999981, 9.9992485 
7.050073e+2, 2.349741e+2, -718331.75, -760221.1, -5078.371, 0.043546777, -0.10668364, -717724.9, -80482.414, 0.0, 9.999776, 9.999235 
7.0500386e+2, 2.4497296e+2, -609748.9, -690137.94, -77822.586, 0.08607569, -0.12667762, -562353.7, -23103.111, 0.0, 9.999981, 9.99895 
7.049992e+2, 2.5497094e+2, -425922.66, -550455.9, -97443.99, 0.11287526, -0.25443423, -372549.9, 68716.516, 0.0, 10.0005665, 9.998954 
7.049942e+2, 2.649696e+2, -383670.44, -607802.06, -38438.047, 0.0662754, -0.2246404, -377261.66, -33981.168, 0.0, 10.00075, 9.997797 
7.049888e+2, 2.749686e+2, -319837.53, -525666.2, 1931.2021, -0.040389065, -0.124733396, -319819.4, -74523.9, 0.000000016182126, 10.000513, 9.997799 
7.049843e+2, 2.8496772e+2, -152683.22, -187835.86, 18374.656, -0.069594204, -0.083998665, -144832.1, 2473.417, 0.0000030357212, 10.0000725, 9.999669 
7.049805e+2, 2.9496682e+2, -176764.02, -145777.25, -58175.707, -0.0416364, -0.17264764, -101067.164, -51756.613, 0.000031540207, 9.999214, 9.999697 
7.0497584e+2, 3.0496743e+2, -272229.13, -247963.88, -92540.234, -0.043855682, -0.040276796, -166764.33, -166764.33, 0.00012311795, 9.998611, 9.998938 
7.0497155e+2, 3.149657e+2, -246437.88, -103258.99, 22232.021, 0.03677261, -0.13542785, -99886.37, -99886.37, 0.0002906225, 9.998158, 10.000147 
7.1505266e+2, 1.24980085e+2, -1536624.6, -1759062.3, 17057.832, 0.073070705, -0.18542238, -1535324.1, 179849.45, 0.0, 10.001729, 9.998843 
7.1504885e+2, 1.3497855e+2, -1527233.6, -1678470.9, -93027.34, 0.24992286, -0.28104135, -1482967.9, 134225.14, 0.0, 10.001026, 9.999081 
7.1504164e+2, 1.4497893e+2, -1433984.5, -1466679.3, -56362.785, -0.015230424, -0.19127403, -1391646.3, 127545.99, 0.0, 10.000501, 10.000092 
7.1503764e+2, 1.549804e+2, -1314514.6, -1357211.3, -56925.28, -0.024465807, -0.0884033, -1275066.3, 146113.17, 0.0, 10.000648, 10.0001 
7.1503365e+2, 1.6498092e+2, -1251658.3, -1370134.3, -69631.47, -0.050351985, -0.0024589084, -1219475.9, 103701.1, 0.0, 10.000821, 9.999255 
7.1503e+2, 1.7498022e+2, -1135547.3, -1267248.6, -71450.03, -0.03755926, -0.020169718, -1104231.0, 120956.234, 0.0, 10.000956, 9.999226 
7.1502674e+2, 1.849796e+2, -1045657.5, -1099441.0, -99446.49, 0.016952846, -0.035325296, -969530.94, 157662.14, 0.0, 10.000573, 9.999889 
7.150236e+2, 1.9497874e+2, -1069664.1, -1061749.6, -83933.016, 0.1054604, -0.13669823, -981680.6, 47516.473, 0.0, 9.999738, 9.999881 
7.1501887e+2, 2.0497878e+2, -1027789.0, -1024048.8, -89923.42, 0.06681548, -0.10201224, -935976.0, -4779.842, 0.0, 9.999506, 9.999576 
7.150127e+2, 2.1497947e+2, -890004.44, -907237.44, -51282.586, -0.103147, -0.014006833, -846619.5, -13426.964, 0.0, 9.999782, 9.999571 
7.150086e+2, 2.2497931e+2, -821735.1, -887171.25, -3364.603, -0.14287767, 0.044300545, -821562.56, -86367.445, 0.0, 9.999849, 9.999002 
7.1500635e+2, 2.3497805e+2, -755618.0, -807001.75, -1587.7413, -0.056787364, -0.0068439813, -755569.0, -118363.01, 0.0, 9.99964, 9.998982 
7.150032e+2, 2.4497604e+2, -642762.25, -732465.56, -67324.64, -0.005009721, -0.08743328, -606717.2, -67494.234, 0.0, 9.999868, 9.998715 
7.149989e+2, 2.5497302e+2, -457153.34, -591175.5, -65547.37, 0.003086574, -0.2848451, -430425.75, 10822.85, 0.0, 10.000467, 9.998722 
7.14994e+2, 2.6497227e+2, -284740.53, -395960.47, -60144.105, -0.050980248, -0.25803012, -258437.23, 84817.39, 0.0, 10.000716, 9.999271 
7.1498835e+2, 2.7497345e+2, -228167.64, -318603.7, 6852.0225, -0.16433834, -0.09444963, -227651.44, 17592.324, 0.000000020828322, 10.000435, 9.999261 
7.1498406e+2, 2.8497225e+2, -274344.97, -425794.25, -24164.547, -0.12493864, -0.07467078, -270582.8, -123325.09, 0.0000037854625, 10.000018, 9.99806 
7.149807e+2, 2.9496866e+2, -310211.6, -399327.97, -74715.74, 0.03125711, -0.26834095, -267776.25, -218479.27, 0.000035842306, 9.9991255, 9.997995 
7.149751e+2, 3.049687e+2, -198395.63, -101072.695, -116939.26, -0.007842744, -0.1521937, -23074.268, -23074.268, 0.000135526, 9.998625, 9.9999485 
7.1496814e+2, 3.1497067e+2, -129341.11, 156297.39, 52382.58, -0.18373881, 0.011915751, 165600.69, 165600.69, 0.00031586387, 9.998071, 10.001986 
7.250546e+2, 1.24984324e+2, -1527110.0, -1727326.0, 33582.465, 0.112290554, -0.17216997, -1521627.3, 193507.58, 0.0, 10.001637, 9.999134 
7.2504956e+2, 1.3498278e+2, -1529041.0, -1654199.8, -24525.176, 0.23823585, -0.2819254, -1524406.9, 92746.4, 0.0, 10.000921, 9.999293 
7.2504187e+2, 1.4498323e+2, -1435326.4, -1532467.0, 91791.3, -0.04386238, -0.16645688, -1380047.1, 139104.44, 0.0, 10.00076, 9.999528 
7.250389e+2, 1.5498413e+2, -1266778.8, -1392611.9, 39634.195, 0.0141371, -0.06314339, -1255335.6, 165809.53, 0.0, 10.001222, 9.999585 
7.2503495e+2, 1.6498423e+2, -1244254.4, -1376053.8, 16259.287, 0.00891295, 0.010990159, -1242278.3, 80868.98, 0.0, 10.000893, 9.999188 
7.250306e+2, 1.749833e+2, -1312239.8, -1356837.6, 12083.852, -0.015579395, -0.026074624, -1309176.1, -84016.19, 0.0, 9.999756, 9.99919 
7.2502685e+2, 1.8498282e+2, -1178298.1, -1146108.1, 33168.523, 0.027857268, -0.03276592, -1125335.8, 1828.4781, 0.0, 9.999588, 10.000046 
7.2502375e+2, 1.9498248e+2, -970037.2, -995147.8, 26593.69, 0.12710026, -0.09513349, -953184.0, 75978.984, 0.0, 10.000345, 10.000046 
7.2501916e+2, 2.0498256e+2, -850136.0, -943729.7, 18437.805, 0.09161715, -0.06283285, -846634.75, 84525.95, 0.0, 10.000746, 9.9995365 
7.250132e+2, 2.1498272e+2, -751544.3, -847639.44, -23364.193, -0.079393424, -0.023171542, -746164.75, 86995.67, 0.0, 10.0007515, 9.99952 
7.250089e+2, 2.2498223e+2, -707915.44, -843451.25, 11413.703, -0.13122645, 0.011013347, -706961.0, 28204.537, 0.0, 10.000675, 9.998907 
7.2500634e+2, 2.3498091e+2, -630993.8, -759418.7, 1119.7948, -0.05372836, -0.035506513, -630984.06, 6193.7705, 0.0, 10.000542, 9.998879 
7.250032e+2, 2.4497919e+2, -580133.2, -682436.1, -10374.113, -0.0014898302, -0.09336915, -579091.8, -39898.855, 0.0, 10.0002165, 9.998885 
7.24999e+2, 2.549768e+2, -545288.25, -617957.2, 1797.866, 0.009856467, -0.24560352, -545243.8, -104030.39, 0.0, 9.999785, 9.998867 
7.2499406e+2, 2.6497635e+2, -461329.28, -437330.25, -14213.383, -0.04180452, -0.2146161, -430728.47, -87512.086, 0.0, 9.999326, 9.999647 
7.249883e+2, 2.749775e+2, -423977.06, -371407.47, -54359.633, -0.13295382, -0.08955933, -337311.28, -92106.766, 0.000000011844985, 9.998907, 9.999634 
7.249839e+2, 2.8497657e+2, -440517.3, -512167.6, -35261.523, -0.08514073, -0.060339604, -426075.0, -278858.8, 0.000004675658, 9.998938, 9.997968 
7.2498035e+2, 2.949733e+2, -270135.84, -389908.6, 1834.5885, 0.074696824, -0.2109763, -270107.75, -220854.55, 0.000040333267, 9.999462, 9.997884 
7.2497374e+2, 3.0497256e+2, -131432.11, -50279.633, -15882.628, -0.011936668, -0.17526671, -47281.92, -47281.92, 0.00014552829, 9.999018, 10.000111 
7.249662e+2, 3.1497508e+2, -212830.1, 139630.34, 46498.266, -0.13476712, 0.027318321, 145661.42, 145661.42, 0.00033116215, 9.997415, 10.002181 
7.350562e+2, 1.2498894e+2, -1459022.4, -1579263.8, -77456.414, 0.055981323, -0.2039387, -1421092.0, 294003.47, 0.0, 10.001622, 10.000145 
7.3504925e+2, 1.3498977e+2, -1474499.9, -1547206.0, -46768.313, 0.089148015, -0.15459687, -1451617.6, 165468.39, 0.0, 10.0009365, 10.000023 
7.350415e+2, 1.4499001e+2, -1504412.9, -1663627.1, 95596.836, -0.18804991, -0.055768277, -1459617.3, 59466.547, 0.0, 10.000719, 9.998638 
7.350404e+2, 1.5498784e+2, -1334887.8, -1534654.8, 71433.18, 0.015487091, -0.1692064, -1311973.0, 109133.836, 0.0, 10.001225, 9.998609 
7.350367e+2, 1.6498686e+2, -1224744.8, -1337524.9, -39264.348, 0.060431764, -0.1642037, -1212421.5, 110696.875, 0.0, 10.000898, 9.999448 
7.350306e+2, 1.7498691e+2, -1297594.3, -1320955.0, -19570.16, -0.017279506, -0.13269809, -1286483.8, -61363.51, 0.0, 9.999726, 9.999454 
7.3502606e+2, 1.84987e+2, -1183591.6, -1136736.8, 51265.28, -0.030665481, -0.098882936, -1103799.5, 23318.742, 0.0, 9.999506, 10.000147 
7.350231e+2, 1.9498691e+2, -977479.56, -986712.8, 65207.266, 0.006630703, -0.14789025, -916725.7, 112389.11, 0.0, 10.000251, 10.000145 
7.3501915e+2, 2.049862e+2, -921512.2, -1069060.1, 7394.267, -0.0015813938, -0.15778346, -921142.56, 9977.867, 0.0, 10.000642, 9.998727 
7.3501426e+2, 2.149846e+2, -827201.06, -971067.6, -10842.159, -0.066337064, -0.21789996, -826388.56, 6749.33, 0.0, 10.000607, 9.998739 
7.350103e+2, 2.2498351e+2, -727967.4, -852687.1, -5151.579, -0.07832129, -0.20367745, -727755.0, 7394.575, 0.0, 10.000532, 9.998915 
7.350072e+2, 2.3498273e+2, -651288.9, -766058.1, 7264.6563, -0.04366424, -0.20115352, -650830.9, -13672.817, 0.0, 10.00039, 9.998907 
7.350036e+2, 2.4498242e+2, -549285.56, -599243.2, -35403.36, -0.0054896194, -0.14681666, -530936.06, 8224.321, 0.0, 10.000132, 9.999496 
7.349993e+2, 2.5498235e+2, -521387.63, -539804.2, -2643.486, 0.03389833, -0.13009833, -521015.72, -79856.2, 0.0, 9.999664, 9.999462 
7.349941e+2, 2.6498196e+2, -525229.0, -551052.06, -38108.188, 0.012009456, -0.08265445, -497904.44, -154740.64, 0.0, 9.999245, 9.998905 
7.3498815e+2, 2.7498093e+2, -490885.44, -488091.94, -53535.883, -0.059482213, -0.10181259, -435934.6, -190757.92, 0.000000051096855, 9.998815, 9.998878 
7.3498327e+2, 2.8498068e+2, -335627.16, -299923.3, -26229.154, -0.06902031, -0.040841173, -286047.34, -138866.67, 0.0000058850314, 9.998949, 9.999422 
7.3497903e+2, 2.949809e+2, -177832.9, -185473.63, 36873.914, -0.045062434, 0.0093500465, -144581.97, -95403.734, 0.000044056193, 9.999402, 9.999318 
7.349716e+2, 3.0497912e+2, -187777.05, -168879.67, -81943.66, -0.16286431, -0.093014546, -95841.75, -95841.75, 0.00015023243, 9.999018, 9.999297 
7.349648e+2, 3.1497842e+2, -332369.78, -83198.9, 18426.746, -0.0774091, -0.12753259, -81843.57, -81843.57, 0.0003329124, 9.997303, 10.000704 
7.450567e+2, 1.24995135e+2, -1686191.1, -1716394.0, -2795.749, 0.029388983, -0.14856221, -1685934.5, 29103.275, 0.0, 10.000204, 9.999871 
7.4505085e+2, 1.3499571e+2, -1251941.9, -1493011.9, -66409.61, 0.074125685, -0.07236053, -1234858.1, 382173.53, 0.0, 10.002716, 9.999525 
7.450435e+2, 1.4499538e+2, -1168272.6, -1523586.3, 24135.498, -0.16896442, 0.0031683552, -1166640.8, 352394.16, 0.0, 10.003122, 9.998437 
7.450418e+2, 1.5499258e+2, -1298150.4, -1535597.0, 24810.389, 0.018301867, -0.15489794, -1295585.8, 125476.51, 0.0, 10.001565, 9.99843 
7.450376e+2, 1.6499129e+2, -1238249.6, -1362320.8, -44663.445, 0.07260378, -0.16633551, -1223844.1, 99231.93, 0.0, 10.000886, 9.999292 
7.450315e+2, 1.749912e+2, -1104860.6, -1243361.5, -78542.234, 0.03805152, -0.12772635, -1069399.5, 155679.19, 0.0, 10.001112, 9.999325 
7.4502647e+2, 1.8499132e+2, -1000709.6, -1064771.5, 7046.465, 0.0018083996, -0.08043616, -999943.7, 127133.5, 0.0, 10.000819, 10.000012 
7.450226e+2, 1.949913e+2, -1027774.4, -1028602.25, -16873.074, -0.049977366, -0.10846634, -1011310.2, 17764.113, 0.0, 9.999969, 9.999997 
7.4501884e+2, 2.0499052e+2, -1024407.4, -1103120.1, -13444.465, -0.051480956, -0.12602618, -1022174.4, -91093.625, 0.0, 9.999878, 9.998847 
7.4501544e+2, 2.149887e+2, -828135.6, -960391.94, 10757.248, -0.0021542385, -0.21728064, -827266.4, 5832.7603, 0.0, 10.000558, 9.998831 
7.4501157e+2, 2.2498767e+2, -733383.3, -840856.3, 43966.086, 0.008950098, -0.210231, -717689.06, 17420.924, 0.0, 10.000435, 9.9990425 
7.450072e+2, 2.3498715e+2, -774310.0, -812045.0, 40407.52, -0.029834922, -0.19226234, -748582.06, -111466.17, 0.0, 9.999476, 9.999036 
7.4500304e+2, 2.4498719e+2, -696781.3, -643015.2, 25358.86, -0.0060456833, -0.124157906, -632941.94, -93826.74, 0.0, 9.998997, 9.999752 
7.449992e+2, 2.5498754e+2, -584025.56, -538011.75, 6544.771, 0.09001919, -0.09056493, -537098.94, -95988.914, 0.0, 9.999098, 9.999749 
7.449941e+2, 2.6498705e+2, -505404.38, -539887.7, 17994.252, 0.08256169, -0.06730798, -497724.8, -154610.0, 0.0, 9.999372, 9.998925 
7.4498785e+2, 2.749855e+2, -340121.5, -408268.16, 38280.055, -0.015168468, -0.14247307, -322946.84, -77814.77, 0.00000017449423, 9.999827, 9.998936 
7.4498254e+2, 2.8498545e+2, -246715.81, -200384.67, 64704.13, -0.048520964, -0.087995775, -154824.2, -7691.6177, 0.0000070145306, 9.999313, 9.999939 
7.449777e+2, 2.9498664e+2, -349758.75, -205598.08, 31961.125, -0.02840725, 0.0064723114, -198829.9, -149711.25, 0.00004543542, 9.997946, 9.999889 
7.449701e+2, 3.0498505e+2, -313876.78, -236849.34, -47517.83, -0.16411288, -0.09958642, -214197.3, -214197.3, 0.00014809403, 9.998188, 9.999225 
7.449645e+2, 3.1498253e+2, -26709.514, 1960.8206, 55845.777, 0.053542685, -0.30358073, 45281.945, 45281.945, 0.00032280377, 9.999676, 10.000141 
7.550554e+2, 1.2500304e+2, -1793132.6, -1932095.8, 24626.758, -0.17612797, 0.0066681895, -1788897.5, -73937.2, 0.0, 10.000191, 9.998394 
7.5505406e+2, 1.3500057e+2, -1378745.4, -1751980.9, 35064.855, 0.09788258, -0.047062315, -1375479.6, 241511.1, 0.0, 10.002707, 9.99775 
7.550478e+2, 1.4499928e+2, -1135569.4, -1454173.6, -49228.395, -0.0870745, 0.001281416, -1128136.4, 390868.7, 0.0, 10.003111, 9.998921 
7.550425e+2, 1.5499845e+2, -1265549.0, -1462311.0, -24066.68, -0.09908022, -0.008425167, -1262648.1, 158362.22, 0.0, 10.001539, 9.998948 
7.550374e+2, 1.6499749e+2, -1280340.4, -1442728.0, -49462.703, -0.061872944, 0.011515335, -1266460.5, 56559.5, 0.0, 10.0008545, 9.998757 
7.55033e+2, 1.749962e+2, -1148836.9, -1328736.5, -57554.234, 0.053303152, -0.0143744955, -1131999.8, 93035.766, 0.0, 10.00109, 9.998751 
7.550278e+2, 1.8499573e+2, -1027511.25, -1109747.5, -36347.65, 0.026706459, 0.019220661, -1013749.06, 113292.2, 0.0, 10.000771, 9.99973 
7.550218e+2, 1.9499573e+2, -1060197.8, -1074620.5, -36650.145, -0.15178744, 0.02093652, -1030056.25, -1015.5284, 0.0, 9.999878, 9.999725 
7.5501794e+2, 2.0499554e+2, -977412.5, -979420.8, 165.96317, -0.15493402, 0.0334934, -977398.9, -46357.73, 0.0, 9.99976, 9.999759 
7.5501645e+2, 2.1499503e+2, -786556.94, -831761.56, 45760.316, 0.016035233, -0.02149515, -758121.3, 74922.95, 0.0, 10.000385, 9.999796 
7.5501245e+2, 2.249947e+2, -736248.44, -812421.9, -2384.525, 0.033229224, -0.0044806986, -736173.9, -1127.4984, 0.0, 10.000287, 9.9993105 
7.55006e+2, 2.3499432e+2, -779632.0, -786482.9, 17416.56, -0.11507998, 0.0026107766, -765307.2, -128256.836, 0.0, 9.999325, 9.999285 
7.550013e+2, 2.4499363e+2, -719333.2, -669166.25, 17056.455, -0.10532648, -0.008854258, -663916.5, -124860.69, 0.0, 9.998903, 9.999619 
7.549982e+2, 2.5499225e+2, -606378.25, -563827.75, 21256.18, 0.06299987, -0.13392535, -555028.7, -113962.69, 0.0, 9.999006, 9.999618 
7.549935e+2, 2.6499155e+2, -453474.47, -419507.78, 24889.57, 0.058523994, -0.17092407, -406359.34, -63289.266, 0.0, 9.999322, 9.999773 
7.54987e+2, 2.7499124e+2, -299731.13, -297184.56, 68666.45, -0.11100444, -0.20230031, -229779.6, 15290.597, 0.0000002213921, 9.999714, 9.999752 
7.549814e+2, 2.84991e+2, -282606.66, -268177.44, 3084.0332, -0.119384155, -0.1846279, -267545.94, -120475.305, 0.000006961638, 9.999275, 9.999497 
7.5497633e+2, 2.949905e+2, -388531.44, -271260.53, -1551.1871, 0.00032038783, -0.21407734, -271240.03, -222165.66, 0.00004401986, 9.99787, 9.999483 
7.5496876e+2, 3.0499014e+2, -276070.7, -139118.14, 5377.333, -0.13863517, -0.21430972, -138907.33, -138907.33, 0.0001416952, 9.9981165, 9.999923 
7.549644e+2, 3.1498888e+2, -15442.721, 45136.35, 129074.96, 0.015612548, -0.36308765, 147428.11, 147428.11, 0.0003069929, 9.999597, 10.000469 
7.650567e+2, 1.2500815e+2, -1456206.9, -1797146.8, -20307.537, -0.17433892, -0.00016548553, -1455001.6, 259908.83, 0.00000000032551553, 10.002559, 9.998195 
7.650564e+2, 1.3500547e+2, -1474994.6, -1838862.4, 75790.69, 0.101081535, -0.045811977, -1459839.3, 157104.92, 0.0, 10.002175, 9.997423 
7.650509e+2, 1.4500408e+2, -1320863.8, -1504393.8, 7290.178, -0.007726335, -0.011668579, -1320574.6, 198385.6, 0.0, 10.001663, 9.999281 
7.650443e+2, 1.5500398e+2, -1246232.0, -1413281.0, -4463.966, -0.06726223, 0.016808102, -1246112.8, 174845.13, 0.0, 10.00149, 9.999318 
7.650385e+2, 1.6500328e+2, -1203995.5, -1392193.5, 50311.04, -0.051718567, 0.040233485, -1191390.1, 131573.81, 0.0, 10.001332, 9.998862 
7.6503414e+2, 1.7500177e+2, -1127679.3, -1304667.8, 67316.79, 0.059593145, -0.02164065, -1104985.4, 119994.55, 0.0, 10.001184, 9.998859 
7.6502883e+2, 1.8500105e+2, -1038690.25, -1163189.1, 104995.75, 0.048911653, 0.0023440807, -978877.8, 148110.89, 0.0, 10.00091, 9.999291 
7.6502246e+2, 1.950008e+2, -998839.25, -1095833.3, 71897.34, -0.09333143, 0.023605688, -960611.44, 68381.984, 0.0, 10.000515, 9.999274 
7.650186e+2, 2.0500082e+2, -885142.94, -898175.0, 137165.58, -0.08642994, 0.062350214, -754338.7, 176654.14, 0.0, 10.000239, 10.00009 
7.6501703e+2, 2.1500084e+2, -811226.9, -812368.8, 115848.88, 0.06540117, 0.03107851, -695947.56, 137042.2, 0.0, 10.000064, 10.000094 
7.6501286e+2, 2.2500084e+2, -749382.1, -791467.9, 41400.895, 0.060934473, 0.051342588, -723983.25, 11005.168, 0.0, 10.000091, 9.999544 
7.650059e+2, 2.3500058e+2, -613032.75, -677958.3, 35326.313, -0.10834168, 0.048255917, -597518.6, 39472.332, 0.0, 10.00036, 9.999522 
7.6500106e+2, 2.4499974e+2, -516546.63, -573555.0, 67643.52, -0.088757955, 0.013658217, -471646.9, 67350.39, 0.0, 10.000314, 9.999589 
7.649982e+2, 2.549981e+2, -474995.5, -503219.1, 58910.223, 0.11570838, -0.1369734, -428530.44, 12479.326, 0.0, 9.99993, 9.999584 
7.6499337e+2, 2.6499733e+2, -385530.6, -382244.0, 70273.26, 0.09814527, -0.17590353, -313594.8, 29418.752, 0.0, 9.999764, 9.999821 
7.649866e+2, 2.7499732e+2, -283224.47, -282274.1, 29805.102, -0.124369815, -0.18912306, -252940.39, -7929.4946, 0.00000016204108, 9.999794, 9.999818 
7.649808e+2, 2.8499678e+2, -217304.3, -245532.34, -61406.117, -0.12477109, -0.200836, -168411.05, -21397.33, 0.000006290961, 9.999766, 9.999409 
7.649757e+2, 2.9499552e+2, -141473.17, -154953.31, -62477.773, 0.07495784, -0.29862654, -85372.96, -36348.94, 0.000041719115, 9.9996, 9.999431 
7.6496804e+2, 3.0499575e+2, -88582.984, -113556.37, -5453.6543, -0.08813168, -0.20745023, -87443.97, -87443.97, 0.00013461517, 9.999673, 9.999355 
7.649638e+2, 3.1499514e+2, -27005.996, 30935.232, -38765.64, 0.008958, -0.23507397, 50359.57, 50359.57, 0.00029005748, 9.999544, 10.000406 
7.750596e+2, 1.2501046e+2, -1377000.3, -1621415.0, -93718.58, -0.2091939, -0.17172205, -1345201.8, 369686.53, 0.0000000023621072, 10.002518, 9.999417 
7.7505744e+2, 1.3501053e+2, -1395118.9, -1668763.1, 63107.793, -0.04490315, -0.056618553, -1381266.3, 235624.92, 0.0, 10.002165, 9.998592 
7.7505237e+2, 1.450098e+2, -1296684.1, -1459215.0, -17900.137, -0.057977214, -0.029864548, -1294736.0, 224163.53, 0.0, 10.001676, 9.999588 
7.750468e+2, 1.5500925e+2, -1225197.8, -1371789.4, 1907.744, 0.011477561, -0.07448439, -1225172.9, 195731.06, 0.0, 10.001496, 9.999601 
7.750406e+2, 1.6500875e+2, -1153892.9, -1282438.8, 31789.541, 0.002917817, -0.081558056, -1146460.9, 176445.97, 0.0, 10.0013075, 9.999628 
7.7503455e+2, 1.75008e+2, -1077980.9, -1193387.8, 74201.28, -0.04749254, -0.14681317, -1041686.8, 183224.77, 0.0, 10.001151, 9.9996395 
7.750291e+2, 1.8500735e+2, -1089162.3, -1256201.5, 79499.58, -0.037261847, -0.12222026, -1057374.9, 69544.125, 0.0, 10.000851, 9.998688 
7.750244e+2, 1.9500664e+2, -1052923.8, -1188499.8, 68059.445, 0.019949896, -0.08603249, -1024652.9, 4278.284, 0.0, 10.000426, 9.998684 
7.750203e+2, 2.0500638e+2, -923020.56, -945861.06, 117881.26, 0.044921156, -0.034335397, -816007.6, 114927.74, 0.0, 10.000107, 9.9998255 
7.750171e+2, 2.1500628e+2, -854422.4, -864217.8, 119254.516, 0.041690543, -0.05076858, -739965.06, 92969.5, 0.0, 9.999907, 9.999811 
7.7501243e+2, 2.250062e+2, -758849.7, -777238.6, 38782.684, -0.01130118, -0.03149449, -728186.5, 6748.146, 0.0, 9.999942, 9.999717 
7.7500635e+2, 2.3500583e+2, -619706.25, -660800.8, 56445.465, -0.1182688, -0.0641888, -580184.56, 56753.95, 0.0, 10.00022, 9.999711 
7.7500176e+2, 2.450055e+2, -528062.75, -569709.5, 41536.69, -0.06458129, -0.06019501, -502422.06, 36518.066, 0.0, 10.000196, 9.999672 
7.7499866e+2, 2.550051e+2, -485383.44, -500158.5, 57075.113, 0.14903632, -0.09433234, -435219.75, 5721.2324, 0.0, 9.999825, 9.999657 
7.749935e+2, 2.6500458e+2, -446290.97, -496464.13, 62162.87, 0.11161061, -0.07823702, -404343.53, -61398.62, 0.0, 9.999709, 9.999065 
7.749861e+2, 2.7500352e+2, -346527.38, -397482.1, 43128.953, -0.17591296, -0.114032365, -321912.78, -76956.88, 0.00000014054619, 9.999717, 9.999069 
7.7498025e+2, 2.8500253e+2, -207582.47, -205300.27, -77762.49, -0.18200342, -0.14841571, -128670.51, 18293.139, 0.0000059856334, 9.999687, 9.999718 
7.7497566e+2, 2.9500157e+2, -130199.6, -120039.99, -52727.145, 0.07749621, -0.2535679, -72148.516, -23179.44, 0.0000396548, 9.999551, 9.999693 
7.7496773e+2, 3.050019e+2, -218123.06, -375353.9, -14963.252, -0.10974794, -0.071811, -216711.72, -216711.72, 0.00012692052, 9.999645, 9.997575 
7.7496207e+2, 3.1500107e+2, -100252.625, -95943.56, -33273.727, -0.17688932, 0.05852767, -64754.688, -64754.688, 0.00027215088, 9.999425, 9.999602 
7.85062e+2, 1.250152e+2, -1457050.6, -1567648.6, -26505.063, -0.15823618, -0.1796161, -1451026.8, 263817.9, 0.0000000040597263, 10.001597, 10.000218 
7.850585e+2, 1.3501628e+2, -1557877.0, -1640947.8, 67795.62, -0.06830573, -0.055036098, -1519904.9, 96928.32, 0.0, 10.000615, 9.999517 
7.850538e+2, 1.4501579e+2, -1486163.6, -1536054.9, 32354.836, -0.011995626, -0.057611134, -1470254.4, 48583.66, 0.0, 10.0003195, 9.999709 
7.8504854e+2, 1.5501544e+2, -1303227.9, -1398195.9, 13157.815, 0.07053676, -0.09331543, -1301438.5, 119404.21, 0.0, 10.0009165, 9.999696 
7.850422e+2, 1.650152e+2, -1180708.3, -1267964.3, 23291.875, 0.051469505, -0.09098958, -1174880.1, 147963.9, 0.0, 10.001006, 9.999867 
7.850354e+2, 1.7501478e+2, -1153429.5, -1202182.1, -711.844, -0.035360217, -0.14418046, -1153419.1, 71425.664, 0.0, 10.000518, 9.999878 
7.850299e+2, 1.8501437e+2, -1123880.4, -1247379.8, 50131.582, -0.019276276, -0.12177217, -1106092.6, 20756.324, 0.0, 10.00051, 9.998905 
7.8502566e+2, 1.9501372e+2, -971606.9, -1121928.0, 76897.35, 0.08415742, -0.10254876, -939239.25, 89619.75, 0.0, 10.000885, 9.998911 
7.8502136e+2, 2.0501326e+2, -847874.1, -955291.3, 162350.53, 0.10687481, -0.060985237, -730578.9, 200286.28, 0.0, 10.000817, 9.999418 
7.850172e+2, 2.1501274e+2, -842731.5, -903462.0, 131610.4, 0.05768846, -0.076553956, -738028.8, 94841.36, 0.0, 10.000182, 9.999409 
7.850123e+2, 2.2501242e+2, -795695.2, -786339.6, 77657.69, 0.0071431855, -0.06446729, -713218.94, 21654.178, 0.0, 9.999642, 9.999799 
7.8500664e+2, 2.3501202e+2, -764480.4, -722442.4, 64701.668, -0.04907257, -0.10856736, -675431.2, -38554.316, 0.0, 9.9991865, 9.999788 
7.850021e+2, 2.4501199e+2, -615964.56, -601210.7, 88838.31, -0.008820604, -0.087198585, -519443.53, 19432.502, 0.0, 9.999551, 9.999761 
7.849987e+2, 2.5501207e+2, -339061.47, -419722.16, 79951.42, 0.12798971, -0.082060866, -289844.25, 151028.53, 0.0, 10.000782, 9.999744 
7.8499335e+2, 2.6501182e+2, -308279.84, -424934.44, 93074.85, 0.08708193, -0.044195965, -256766.33, 86108.28, 0.0, 10.0006485, 9.999101 
7.8498596e+2, 2.7501085e+2, -427504.03, -431783.8, 110387.24, -0.12340324, -0.070400245, -319235.94, -74350.84, 0.0000001311964, 9.999152, 9.999101 
7.849803e+2, 2.8500977e+2, -308337.7, -303737.06, 68544.37, -0.111335374, -0.096149385, -237454.42, -90559.68, 0.0000058891046, 9.999202, 9.999281 
7.849762e+2, 2.9500854e+2, -2053.476, -111580.1, 13166.1455, 0.126869, -0.17849702, -493.01224, 48410.277, 0.000037489564, 10.000652, 9.999226 
7.849682e+2, 3.0500758e+2, -42165.777, -350978.13, 58205.082, -0.08751487, -0.07930679, -31559.533, -31559.533, 0.00011865352, 10.001106, 9.997034 
7.849616e+2, 3.1500715e+2, 18557.412, -55205.043, 66467.414, -0.19830939, 0.13929619, 57690.273, 57690.273, 0.00025448482, 10.000308, 9.999448 
7.9506326e+2, 1.2502268e+2, -1419255.3, -1511335.8, -92958.64, -0.26255912, -0.010484809, -1361560.3, 353216.47, 0.0000000034592607, 10.001689, 10.000566 
7.9505926e+2, 1.3502282e+2, -1502617.4, -1536345.6, 36588.848, -0.08452214, -0.04556465, -1479193.3, 137576.2, 0.0, 10.000663, 10.000209 
7.9505473e+2, 1.4502206e+2, -1493498.6, -1552877.6, 37309.2, 0.020380603, -0.103561, -1475507.5, 43268.168, 0.0, 10.000324, 9.999593 
7.95049e+2, 1.5502255e+2, -1308878.9, -1411044.8, 48566.723, -0.0053343736, -0.04867475, -1289476.5, 131297.67, 0.0, 10.000921, 9.999602 
7.950429e+2, 1.650227e+2, -1204838.9, -1314340.3, -6661.4907, -0.021313023, 0.012044081, -1204435.1, 118339.24, 0.0, 10.000986, 9.999561 
7.950365e+2, 1.7502226e+2, -1173649.3, -1246153.4, -8095.2607, -0.008709185, -0.013138111, -1172756.4, 52022.316, 0.0, 10.000521, 9.9995775 
7.9503083e+2, 1.8502212e+2, -1065801.3, -1107673.3, 53328.504, -0.0009386973, 0.00037247885, -1029446.4, 97332.37, 0.0, 10.000431, 9.999901 
7.950258e+2, 1.9502194e+2, -911498.4, -978909.8, 102912.086, -0.014308296, -0.03299133, -836912.94, 191864.5, 0.0, 10.00081, 9.999924 
7.9502124e+2, 2.0502144e+2, -902515.56, -1039381.7, 125986.89, -0.0067242095, -0.022252036, -827575.75, 103206.63, 0.0, 10.000693, 9.9988985 
7.950171e+2, 2.1502022e+2, -901839.4, -990769.4, 118277.11, 0.01358613, -0.0578553, -819945.3, 12851.688, 0.0, 10.0000305, 9.998882 
7.950123e+2, 2.2501956e+2, -820615.5, -800795.6, 51509.484, 0.01549246, -0.05209516, -758251.44, -23447.53, 0.0, 9.999482, 9.999778 
7.950065e+2, 2.3501925e+2, -783739.56, -736397.75, 61733.94, -0.0027347116, -0.081993096, -693952.2, -57146.938, 0.0, 9.999069, 9.999751 
7.950017e+2, 2.4501915e+2, -625081.5, -596739.9, 123990.21, -0.028739747, -0.069322206, -486113.3, 52691.5, 0.0, 9.999452, 9.99984 
7.949978e+2, 2.550189e+2, -351177.6, -418754.03, 138121.97, -0.06408795, -0.1042288, -242771.14, 198034.66, 0.0, 10.000669, 9.999808 
7.949925e+2, 2.65019e+2, -256229.7, -306113.2, 26579.896, -0.08311795, -0.07438236, -244721.73, 98081.3, 0.0, 10.000594, 9.999944 
7.9498583e+2, 2.7501935e+2, -380357.28, -319935.6, 69193.05, -0.07852326, -0.057900857, -274645.63, -29847.139, 0.000000103459534, 9.999086, 9.999902 
7.9498076e+2, 2.850185e+2, -396571.53, -477184.0, 114350.664, -0.011180162, -0.03710399, -315631.47, -168825.2, 0.0000054454867, 9.99916, 9.998112 
7.949768e+2, 2.9501635e+2, -97386.54, -288918.2, 86868.41, 0.08578366, -0.09343285, -63857.305, -15029.624, 0.00003447301, 10.000564, 9.998054 
7.94969e+2, 3.050128e+2, 360.57153, -256305.83, 26354.098, -0.15111382, -0.23318298, 3038.6255, 3038.6255, 0.0001104858, 10.00107, 9.997702 
7.9496175e+2, 3.1501138e+2, 34494.14, -6887.3467, 62863.832, -0.28193823, -0.1783706, 79984.73, 79984.73, 0.000240168, 10.000231, 9.999822 
8.0506545e+2, 1.2502982e+2, -1506476.1, -1561383.8, -8815.833, -0.1693199, 0.03480154, -1505095.4, 209613.16, 0.0000000057252847, 10.001144, 10.000495 
8.0506027e+2, 1.3502969e+2, -1460564.8, -1509204.1, 24117.262, -0.058148164, -0.031484727, -1450634.0, 166069.86, 0.0, 10.000912, 10.000299 
8.050556e+2, 1.4502898e+2, -1434157.8, -1474505.9, 82760.47, 0.06784379, -0.11057853, -1369148.0, 149560.94, 0.0, 10.000535, 10.000025 
8.050497e+2, 1.5503004e+2, -1370409.5, -1399605.0, 97373.266, 0.014506399, -0.034352966, -1286545.9, 134154.13, 0.0, 10.000325, 9.999973 
8.050436e+2, 1.6503029e+2, -1310118.9, -1378775.9, 80430.89, 0.00013264157, 0.0247245, -1256997.0, 65702.055, 0.0, 10.000333, 9.999439 
8.050375e+2, 1.7502952e+2, -1177053.9, -1264334.3, 66974.41, 0.04382573, -0.017921494, -1140756.4, 83951.67, 0.0, 10.00058, 9.999431 
8.050318e+2, 1.8502921e+2, -1005492.75, -1070370.0, 131901.98, 0.043066062, -0.014834034, -902099.1, 224610.7, 0.0, 10.0008135, 9.999971 
8.0502653e+2, 1.9502912e+2, -890664.5, -968339.94, 84631.305, -0.015926352, -0.042629637, -836384.94, 192322.0, 0.0, 10.000942, 9.999944 
8.0502176e+2, 2.0502874e+2, -898998.44, -1021907.06, 80631.055, -0.008829273, -0.025058372, -859072.3, 71638.04, 0.0, 10.000646, 9.99905 
8.0501753e+2, 2.1502775e+2, -917342.2, -978577.75, 97907.05, 0.06460253, -0.05245237, -845377.1, -12654.284, 0.0, 9.9998455, 9.999054 
8.0501246e+2, 2.2502714e+2, -741055.0, -772713.94, 116636.766, 0.064771265, -0.04772908, -639178.44, 95550.62, 0.0, 10.000085, 9.99967 
8.0500656e+2, 2.3502669e+2, -467307.4, -592628.2, 98495.91, -0.009733376, -0.083151184, -413229.75, 223501.23, 0.0, 10.001301, 9.999651 
8.0500174e+2, 2.4502635e+2, -413475.6, -521049.16, 142942.16, -0.048975185, -0.076856054, -314535.56, 224197.56, 0.0, 10.001001, 9.999622 
8.0499786e+2, 2.5502574e+2, -585955.8, -556253.6, 113272.62, -0.045204874, -0.12471736, -456862.72, -16123.608, 0.0, 9.999146, 9.999606 
8.049926e+2, 2.650257e+2, -487266.56, -410494.78, -671.4121, -0.0424393, -0.105682805, -410488.9, -67750.84, 0.0, 9.99897, 10.000015 
8.0498606e+2, 2.7502596e+2, -166770.86, -205838.11, -34803.254, -0.026311772, -0.10366719, -146394.22, 98338.125, 0.00000004701224, 10.000491, 10.000016 
8.04981e+2, 2.8502557e+2, -145947.17, -370781.5, 64312.035, 0.015585497, -0.040677276, -128851.19, 17885.078, 0.000004093495, 10.000952, 9.997973 
8.04977e+2, 2.9502416e+2, -117969.56, -310028.3, 86513.84, 0.063204005, -0.011320544, -84746.13, -35993.473, 0.000029631305, 10.000475, 9.997947 
8.0496967e+2, 3.0502012e+2, -89329.24, -229693.6, 48765.316, -0.13392891, -0.2243963, -74050.35, -74050.35, 0.00010221737, 10.000163, 9.998328 
8.049633e+2, 3.150182e+2, -41833.258, -45507.574, 24866.412, -0.110633396, -0.2801073, -18736.229, -18736.229, 0.00023173698, 9.9997425, 9.999787 
8.150679e+2, 1.2503682e+2, -1540122.5, -1650661.0, -33706.227, -0.099395946, -0.033821233, -1530655.4, 183983.16, 0.000000004999778, 10.0012245, 9.999844 
8.150608e+2, 1.3503708e+2, -1489978.4, -1576195.3, 23162.48, -0.118881404, -0.014149558, -1484149.8, 132484.94, 0.0, 10.000946, 9.999815 
8.150558e+2, 1.4503671e+2, -1376045.5, -1361560.4, 60421.133, 0.00017697495, -0.07129604, -1307949.3, 210686.48, 0.0, 10.00056, 10.000793 
8.1505036e+2, 1.5503801e+2, -1311705.8, -1279319.6, 101967.664, 0.014311249, -0.051701427, -1192267.3, 228352.23, 0.0, 10.000332, 10.000795 
8.150443e+2, 1.6503803e+2, -1316923.4, -1386574.3, 75658.805, 0.008881986, -0.053628035, -1268459.9, 54157.8, 0.0, 10.000309, 9.999394 
8.15038e+2, 1.7503653e+2, -1182803.6, -1267825.3, 87889.27, 0.010567507, -0.16775078, -1127684.1, 96948.68, 0.0, 10.000549, 9.999415 
8.1503254e+2, 1.8503575e+2, -1081734.0, -1214204.3, 126593.81, 0.0041946825, -0.16528727, -1005094.8, 121546.67, 0.0, 10.000746, 9.99902 
8.150276e+2, 1.9503537e+2, -967837.56, -1112454.0, 101194.67, -0.03437752, -0.12875426, -915772.0, 112874.61, 0.0, 10.000868, 9.99899 
8.1502277e+2, 2.0503536e+2, -867423.9, -923369.6, 37414.547, 0.000809146, -0.063708946, -848681.4, 81966.336, 0.0, 10.000504, 9.999795 
8.1501806e+2, 2.1503547e+2, -887150.7, -879202.25, 79659.31, 0.110434674, -0.0574067, -803418.1, 29228.951, 0.0, 9.999688, 9.999811 
8.1501263e+2, 2.250352e+2, -776365.3, -808943.3, 150028.55, 0.05069632, -0.045286894, -641744.06, 92904.26, 0.0, 9.999925, 9.9995 
8.1500643e+2, 2.3503424e+2, -502221.5, -629715.44, 154781.38, -0.1846284, -0.11501685, -398573.88, 238080.88, 0.0, 10.001146, 9.999473 
8.150017e+2, 2.4503349e+2, -467762.5, -602057.94, 60672.09, -0.17304341, -0.11571678, -444412.06, 94249.89, 0.0, 10.000868, 9.99913 
8.149985e+2, 2.5503272e+2, -639113.44, -639563.75, 54324.598, 0.08498978, -0.132314, -585013.5, -144341.28, 0.0, 9.999032, 9.999089 
8.149933e+2, 2.650319e+2, -537396.75, -498461.94, 45705.523, 0.11263271, -0.13601862, -468250.63, -125570.99, 0.0, 9.998906, 9.999438 
8.149862e+2, 2.750308e+2, -230124.39, -303358.0, 36937.156, -0.089104734, -0.2119445, -214730.2, 29956.49, 0.000000004527389, 10.000356, 9.999408 
8.1498057e+2, 2.850309e+2, -88901.78, -249312.34, 34991.707, -0.14725044, -0.10660046, -81601.02, 65084.01, 0.0000024308686, 10.000925, 9.998825 
8.1497645e+2, 2.9503208e+2, -76157.75, -202027.45, 84503.8, -0.07117086, 0.093079865, -33728.06, 14949.032, 0.00002455122, 10.000382, 9.998734 
8.1496996e+2, 3.050295e+2, -49028.57, -145274.38, 25703.734, -0.143541, -0.03597828, -42594.203, -42594.203, 0.00009685274, 10.000163, 9.998904 
8.149652e+2, 3.1502745e+2, -89053.43, -106061.63, 25930.21, 0.04940051, -0.16773202, -70268.42, -70268.42, 0.00023260372, 9.99959, 9.999445 
8.250709e+2, 1.2504534e+2, -1547977.9, -1714838.0, 80181.03, 0.08508516, -0.071465515, -1515694.6, 198857.48, 0.0000000017683296, 10.001409, 9.999311 
8.2506156e+2, 1.3504532e+2, -1560499.8, -1661005.9, 82882.39, -0.110680334, -0.04175773, -1513825.6, 102727.76, 0.0, 10.000659, 9.999373 
8.2505596e+2, 1.4504491e+2, -1427365.0, -1390427.6, 146083.63, -0.009587542, -0.08081835, -1261649.9, 256905.95, 0.0, 10.000234, 10.000746 
8.25051e+2, 1.5504606e+2, -1307565.4, -1285094.9, 96203.16, 0.05570773, -0.06765128, -1199473.1, 221066.52, 0.0, 10.000397, 10.000718 
8.250451e+2, 1.6504602e+2, -1298999.1, -1373057.0, 67649.55, 0.06467191, -0.077477686, -1258907.4, 63630.453, 0.0, 10.000397, 9.999443 
8.250387e+2, 1.7504457e+2, -1232818.9, -1293485.8, 60604.137, 0.050494332, -0.19169371, -1195380.8, 29171.055, 0.0, 10.000185, 9.999424 
8.250331e+2, 1.8504381e+2, -1200794.0, -1274511.4, 157562.17, 0.04462285, -0.18446846, -1075836.8, 50723.297, 0.0, 9.999947, 9.998989 
8.2502836e+2, 1.9504344e+2, -1145509.8, -1201259.4, 174468.19, 0.021918563, -0.14293358, -996703.6, 31861.723, 0.0, 9.999673, 9.998951 
8.250233e+2, 2.0504324e+2, -963681.0, -994000.94, 133839.36, 0.04505554, -0.084030956, -844145.75, 86423.055, 0.0, 9.999952, 9.999564 
8.250183e+2, 2.1504302e+2, -753949.75, -842996.75, 76775.73, 0.12166809, -0.08573963, -709721.6, 122850.55, 0.0, 10.000718, 9.999563 
8.2501274e+2, 2.2504278e+2, -691611.7, -755950.75, 145751.72, 0.04994239, -0.066714115, -574521.56, 160052.16, 0.0, 10.000444, 9.999628 
8.250066e+2, 2.3504211e+2, -783880.44, -753753.94, 148132.97, -0.17015763, -0.117442146, -619920.3, 16656.828, 0.0, 9.999149, 9.999597 
8.250019e+2, 2.450415e+2, -732852.56, -766293.25, 88993.75, -0.1505098, -0.092514016, -659022.06, -120438.516, 0.0, 9.999217, 9.9987955 
8.2499856e+2, 2.5504076e+2, -422142.25, -567519.4, 69242.74, 0.108654246, -0.06977293, -394440.66, 46153.93, 0.0, 10.000683, 9.998784 
8.249936e+2, 2.6503938e+2, -243155.69, -410297.6, 117230.195, 0.13642673, -0.0917355, -182757.81, 159849.97, 0.0, 10.001157, 9.9989605 
8.2498693e+2, 2.7503702e+2, -224994.73, -353166.03, 92231.46, -0.054546166, -0.24946705, -176770.05, 67856.43, 0.0, 10.000611, 9.99894 
8.249813e+2, 2.850367e+2, -184996.2, -270142.28, 64007.59, -0.13170038, -0.17602783, -150696.39, -4067.4656, 0.000001518397, 10.000167, 9.999048 
8.249763e+2, 2.950381e+2, -138404.34, -203491.19, 40483.953, -0.08706235, 0.031053789, -119005.26, -70386.945, 0.000022026383, 9.999829, 9.998993 
8.249703e+2, 3.0503708e+2, -63195.906, -114548.734, -1605.3771, -0.10702212, 0.024591133, -63145.77, -63145.77, 0.00009707927, 9.999915, 9.999224 
8.249662e+2, 3.1503484e+2, 24106.07, -39890.074, -77150.05, 0.16201454, -0.1650038, 75630.49, 75630.49, 0.00024343748, 10.000298, 9.999553 
8.350736e+2, 1.2505549e+2, -1579162.1, -1770451.5, 33928.84, 0.15175268, -0.06848247, -1573322.5, 141125.73, 0.000000000051048894, 10.001378, 9.998944 
8.350623e+2, 1.3505453e+2, -1567907.1, -1680450.8, 64563.527, -0.13709897, -0.11043316, -1538534.6, 77924.6, 0.0, 10.000689, 9.999222 
8.350559e+2, 1.4505363e+2, -1496598.0, -1538528.9, 135210.8, -0.079536565, -0.14069922, -1380736.9, 137731.33, 0.0, 10.000251, 9.999722 
8.3505136e+2, 1.5505424e+2, -1376236.4, -1425832.3, 112503.016, 0.012283809, -0.08349233, -1285830.8, 134629.66, 0.0, 10.00039, 9.999753 
8.3504564e+2, 1.650543e+2, -1296426.6, -1351123.1, 46841.13, 0.05355238, -0.044366427, -1269534.5, 52924.285, 0.0, 10.000328, 9.999629 
8.350393e+2, 1.7505378e+2, -1222949.6, -1266217.8, 66905.8, 0.06260505, -0.08209536, -1174267.1, 50196.305, 0.0, 10.000166, 9.999617 
8.350336e+2, 1.8505354e+2, -1148284.8, -1163166.1, 133787.97, 0.06438596, -0.069580086, -1021730.7, 104733.41, 0.0, 9.999927, 9.999769 
8.350285e+2, 1.9505325e+2, -1099044.1, -1086194.0, 175768.3, 0.04387237, -0.102150485, -916733.4, 111730.89, 0.0, 9.99959, 9.999782 
8.350233e+2, 2.0505233e+2, -1071745.5, -1183656.0, 150273.08, 0.018380078, -0.095322095, -967348.0, -36873.414, 0.0, 9.999803, 9.998333 
8.3501786e+2, 2.1505052e+2, -862173.2, -1030595.25, 116630.305, -0.015698543, -0.13723561, -802529.7, 29967.977, 0.0, 10.000562, 9.998345 
8.3501244e+2, 2.2504996e+2, -684175.06, -709006.3, 83371.16, -0.040909503, -0.10808043, -612300.1, 122204.13, 0.0, 10.000299, 10.000024 
8.3500695e+2, 2.3505035e+2, -773835.25, -707284.7, 113206.69, -0.06947416, -0.093500465, -622564.2, 13933.265, 0.0, 9.999027, 9.999978 
8.3500195e+2, 2.4505045e+2, -760646.7, -801244.0, 132917.47, -0.08433846, -0.007922063, -646486.9, -107989.75, 0.0, 9.999116, 9.998604 
8.349975e+2, 2.5504997e+2, -451649.06, -608358.9, 138073.47, -0.084361, 0.059383146, -371247.0, 69258.87, 0.0, 10.000587, 9.998552 
8.349929e+2, 2.6504818e+2, -279238.6, -467811.2, 86891.97, -0.070198946, 0.027930731, -245305.84, 97216.81, 0.0, 10.001081, 9.998603 
8.3498806e+2, 2.750448e+2, -266350.0, -415291.25, 86421.33, -0.03780844, -0.19547647, -226739.42, 17810.914, 0.0, 10.000509, 9.998565 
8.349825e+2, 2.85043e+2, -216377.19, -324049.75, 39999.434, -0.04604776, -0.23321477, -203144.11, -56577.273, 0.0000012583888, 10.000119, 9.9987 
8.3497626e+2, 2.9504248e+2, -182065.13, -267264.8, 43750.555, -0.103680655, -0.1863447, -163600.6, -115025.21, 0.000022671806, 9.999717, 9.998611 
8.349702e+2, 3.050428e+2, -56458.953, -96961.375, 9714.889, -0.13847533, -0.041706763, -54249.297, -54249.297, 0.0001036696, 9.999895, 9.999357 
8.3496547e+2, 3.1504285e+2, 31716.797, 3847.054, -28827.098, -0.000041239753, -0.014837859, 49800.39, 49800.39, 0.00026239955, 10.000188, 9.999907 
8.450746e+2, 1.2506433e+2, -1709921.9, -1826482.9, -57792.305, 0.17244397, -0.00888093, -1686125.8, 28237.564, 0.0, 10.000457, 9.999004 
8.450639e+2, 1.3506323e+2, -1514004.3, -1653690.6, -75700.75, -0.051658485, -0.06683137, -1480849.0, 135526.88, 0.0, 10.0010605, 9.99923 
8.450572e+2, 1.450621e+2, -1431660.1, -1551787.6, 51159.16, 0.0027347999, -0.097849414, -1412825.8, 105561.36, 0.0, 10.00089, 9.99932 
8.4505177e+2, 1.5506187e+2, -1410714.5, -1490440.9, 44546.637, 0.025062075, -0.08590138, -1390799.1, 29588.736, 0.0, 10.0003605, 9.999326 
8.450459e+2, 1.650617e+2, -1294576.4, -1355158.6, 29127.242, 0.04975473, -0.047773555, -1282844.4, 39543.836, 0.0, 10.0003605, 9.999589 
8.450399e+2, 1.7506145e+2, -1148349.8, -1236034.1, 6816.9854, 0.087108016, -0.0515893, -1147823.0, 76566.2, 0.0, 10.000704, 9.999567 
8.450343e+2, 1.850611e+2, -1025791.5, -1118007.0, 39717.664, 0.10350746, -0.04222049, -1011043.56, 115346.92, 0.0, 10.000835, 9.999634 
8.4502906e+2, 1.9506031e+2, -942044.7, -1032520.8, -14652.929, 0.088128544, -0.10862426, -939730.75, 88664.695, 0.0, 10.000753, 9.999594 
8.4502345e+2, 2.0505944e+2, -956489.56, -1097983.1, 14433.394, 0.029943725, -0.1032156, -955032.25, -24627.1, 0.0, 10.00046, 9.998612 
8.450175e+2, 2.1505815e+2, -947795.9, -1047059.5, 66719.1, -0.06631378, -0.1146156, -914272.7, -81850.305, 0.0, 9.999862, 9.998578 
8.4501237e+2, 2.2505763e+2, -755834.3, -775360.2, 72715.48, -0.05341711, -0.076470725, -692229.3, 42199.863, 0.0, 9.999963, 9.999712 
8.450081e+2, 2.3505773e+2, -550081.2, -628261.25, 19221.268, 0.061968096, -0.06448507, -545611.06, 90816.125, 0.0, 10.000718, 9.999686 
8.450032e+2, 2.4505758e+2, -506267.75, -674163.75, 72936.7, 0.047318507, 0.0097147385, -479008.63, 59420.617, 0.0, 10.000835, 9.99865 
8.449978e+2, 2.550569e+2, -492665.75, -617537.56, 74142.234, -0.0904654, 0.050306596, -458172.25, -17733.754, 0.0, 10.000266, 9.998634 
8.44993e+2, 2.6505527e+2, -439696.6, -570866.75, 40570.688, -0.10861072, 0.040144514, -428162.4, -85708.13, 0.0, 10.000093, 9.998364 
8.449888e+2, 2.750524e+2, -304320.2, -455768.53, 26351.41, 0.005290911, -0.10721604, -299866.13, -55387.04, 0.0000000050987805, 10.000346, 9.998362 
8.4498346e+2, 2.8505045e+2, -158446.6, -281537.6, 26861.63, 0.027756901, -0.1594393, -152840.06, -6343.576, 0.0000017149706, 10.000443, 9.998836 
8.4497684e+2, 2.9504898e+2, -85819.5, -198341.98, 41958.73, -0.03871297, -0.22461626, -71896.26, -23385.902, 0.0000255943, 10.000273, 9.998812 
8.4497106e+2, 3.05049e+2, 46447.72, -116545.375, 71474.12, -0.072885886, -0.09284068, 73349.68, 73349.68, 0.000114914044, 10.0008955, 9.998751 
8.449661e+2, 3.1504866e+2, 312073.25, 137975.3, -61541.527, -0.039587706, -0.034931652, 331630.5, 331630.5, 0.00028702893, 10.002087, 9.999929 
8.5507333e+2, 1.2507202e+2, -1698459.9, -1795568.1, -55586.484, -0.060618665, 0.10268169, -1673207.8, 41087.543, 0.0, 10.000436, 9.999224 
8.5506594e+2, 1.3507153e+2, -1509860.5, -1631143.4, -47860.844, 0.017591646, 0.09100473, -1493248.9, 123053.37, 0.0, 10.001029, 9.999385 
8.550595e+2, 1.4507055e+2, -1410003.1, -1519248.3, 15691.414, 0.110137016, 0.05590981, -1407794.0, 110516.625, 0.0, 10.000922, 9.999538 
8.55052e+2, 1.5506908e+2, -1389981.0, -1455191.4, 41250.727, -0.021291522, -0.07855457, -1370005.5, 50315.164, 0.0, 10.000389, 9.999555 
8.5504556e+2, 1.6506824e+2, -1324419.3, -1412801.3, 28384.973, -0.049481288, -0.09578835, -1316088.4, 6237.063, 0.0, 10.0003395, 9.999205 
8.5504013e+2, 1.7506763e+2, -1173639.5, -1283372.6, 29400.54, 0.020191252, -0.10432681, -1166258.8, 58069.715, 0.0, 10.000686, 9.999247 
8.550348e+2, 1.8506657e+2, -1112553.5, -1285699.5, 24457.355, 0.051968873, -0.096330054, -1109165.1, 17173.28, 0.0, 10.0007715, 9.99852 
8.550295e+2, 1.9506477e+2, -1024288.2, -1192306.0, -7038.4683, 0.036401223, -0.15174615, -1023993.8, 4363.712, 0.0, 10.0007, 9.998524 
8.5502356e+2, 2.0506473e+2, -852725.1, -860652.1, -20633.434, -0.020770622, -0.0940942, -835677.94, 94680.67, 0.0, 10.000356, 10.000299 
8.550169e+2, 2.1506597e+2, -846798.5, -805818.44, 57676.305, -0.12820242, -0.024760894, -765100.6, 67245.3, 0.0, 9.99972, 10.000306 
8.550123e+2, 2.250658e+2, -857864.25, -946073.3, 90071.19, -0.08226752, 0.01641095, -801679.06, -67330.58, 0.0, 9.999786, 9.998627 
8.550095e+2, 2.3506413e+2, -644048.1, -793007.1, 60886.258, 0.11469827, -0.038594436, -622328.2, 14038.997, 0.0, 10.000585, 9.998621 
8.550052e+2, 2.4506289e+2, -500142.84, -634487.5, 39460.008, 0.13962263, -0.039580084, -489410.0, 48970.215, 0.0, 10.000721, 9.998978 
8.549992e+2, 2.550616e+2, -488154.03, -580838.4, 64387.27, -0.0023980513, -0.094048195, -455165.78, -14773.524, 0.0, 10.000145, 9.998948 
8.549938e+2, 2.6506057e+2, -456753.03, -586488.7, 38029.105, -0.056140725, -0.052865375, -446427.47, -104024.43, 0.0, 10.000008, 9.998301 
8.54989e+2, 2.7505973e+2, -325754.44, -476374.25, 50693.17, -0.032891147, 0.00868632, -310282.3, -65868.49, 0.0000001292932, 10.000246, 9.998271 
8.549836e+2, 2.85059e+2, -119087.85, -182897.25, 12115.443, -0.02323576, 0.04726728, -116864.945, 29553.252, 0.0000031613251, 10.000374, 9.999543 
8.549776e+2, 2.950577e+2, -50555.438, -106018.29, 49840.625, -0.027627397, -0.06687666, -21250.736, 27171.842, 0.000030116835, 10.000191, 9.999486 
8.5497266e+2, 3.0505565e+2, -52284.184, -306647.2, 109029.98, -0.023269081, -0.11487706, -11946.523, -11946.523, 0.00012742863, 10.000843, 9.997468 
8.549678e+2, 3.1505215e+2, 241179.61, 25153.33, 27428.617, -0.14087081, -0.2369669, 244607.78, 244607.78, 0.00031382052, 10.001954, 9.999217 
8.6507326e+2, 1.250776e+2, -1835590.5, -1827883.3, -30959.691, -0.037023965, 0.048332535, -1800538.3, -86297.18, 0.00000000000000000000885557, 9.99933, 9.999535 
8.6506677e+2, 1.350781e+2, -1642660.5, -1680074.5, -65973.44, 0.06055858, 0.11203399, -1592793.1, 23445.451, 0.0, 10.000005, 9.999558 
8.6506045e+2, 1.4507774e+2, -1518434.0, -1571960.4, -10699.215, 0.15513413, 0.1277465, -1516374.6, 1867.0668, 0.0, 10.000197, 9.999519 
8.6505264e+2, 1.5507622e+2, -1420193.0, -1480729.8, -34156.11, 0.016840473, -0.0025037217, -1404823.5, 15429.635, 0.0, 10.00022, 9.999472 
8.650464e+2, 1.6507497e+2, -1303740.3, -1415250.4, 8343.694, -0.001955837, -0.048651736, -1303119.4, 19142.47, 0.0, 10.0005455, 9.999077 
8.650418e+2, 1.7507376e+2, -1108474.8, -1273953.4, -3596.2886, 0.09456894, -0.103750594, -1108396.6, 115873.91, 0.0, 10.001221, 9.999054 
8.6503625e+2, 1.8507256e+2, -1091932.4, -1241853.9, 24245.865, 0.119001605, -0.11427735, -1088108.8, 38172.188, 0.0, 10.000787, 9.998801 
8.650297e+2, 1.9507116e+2, -1218480.5, -1254315.6, 74733.49, 0.05812439, -0.15623152, -1159546.8, -131251.61, 0.0, 9.999255, 9.998781 
8.650233e+2, 2.050712e+2, -1055156.0, -955162.25, 102297.79, -0.0076596155, -0.10376803, -891297.25, 38997.668, 0.0, 9.998975, 10.000298 
8.6501706e+2, 2.1507224e+2, -836806.8, -802883.2, 22728.133, -0.08839144, -0.054267827, -791485.4, 40798.805, 0.0, 9.999814, 10.000267 
8.6501247e+2, 2.2507203e+2, -782220.5, -917166.06, 67034.99, -0.058982596, -0.0142793255, -754581.44, -20294.037, 0.0, 10.000331, 9.99857 
8.650097e+2, 2.350704e+2, -664446.0, -810415.06, 93319.82, 0.083199285, -0.05754644, -618959.75, 17345.814, 0.0, 10.000471, 9.998562 
8.650056e+2, 2.4506909e+2, -544888.56, -676926.9, 83999.68, 0.12677047, -0.05171465, -504069.16, 34250.43, 0.0, 10.000514, 9.99878 
8.6500025e+2, 2.5506768e+2, -445383.2, -579712.94, 42930.87, 0.07353806, -0.0963628, -432834.97, 7498.448, 0.0, 10.000534, 9.998765 
8.649949e+2, 2.6506674e+2, -364684.44, -533350.06, 45454.008, 0.02530035, -0.044543333, -353214.88, -10870.769, 0.0000000005766255, 10.000598, 9.99838 
8.649897e+2, 2.7506605e+2, -249963.97, -431095.16, 42367.297, -0.011439294, 0.024538005, -240544.0, 3809.5366, 0.000000514823, 10.000722, 9.998352 
8.649843e+2, 2.850652e+2, -46583.004, -199381.08, -7793.254, -0.02451759, 0.072374426, -46186.55, 100172.67, 0.0000054394536, 10.001087, 9.999097 
8.6497873e+2, 2.950637e+2, 135995.42, -60178.992, -79328.53, 0.0028441662, -0.02224113, 164059.38, 212425.83, 0.000035908153, 10.00166, 9.999101 
8.6497414e+2, 3.050609e+2, 11223.824, -284842.5, 888.41956, 0.021482764, -0.12165672, 11226.49, 11226.49, 0.00014009468, 10.0013075, 9.997386 
8.649687e+2, 3.1505844e+2, -85942.64, -122954.61, -12332.699, -0.12373202, -0.13695279, -82209.76, -82209.76, 0.00033844914, 9.999682, 9.999272 
8.7507343e+2, 1.2508157e+2, -1795263.8, -1756331.1, -33156.797, -0.013089783, -0.124659546, -1737348.6, -23152.676, 0.0000000055054987, 9.999374, 10.000001 
8.7506616e+2, 1.3508318e+2, -1616857.9, -1617493.3, -32145.117, -0.028209768, 0.0014307736, -1585028.9, 31154.053, 0.0, 9.999976, 9.999992 
8.750597e+2, 1.4508384e+2, -1549969.6, -1639280.4, -25970.107, 0.032426905, 0.12436667, -1542967.0, -24788.541, 0.0, 10.000203, 9.999057 
8.7505317e+2, 1.5508343e+2, -1450298.6, -1536207.8, -20524.18, 0.027369699, 0.1437507, -1445647.1, -25463.4, 0.0, 10.000206, 9.99909 
8.75048e+2, 1.6508217e+2, -1300067.4, -1408734.6, 21822.799, 0.076668516, 0.108171456, -1295848.6, 26346.697, 0.0, 10.000538, 9.999132 
8.7504435e+2, 1.7508e+2, -1106079.4, -1266102.5, 32862.074, 0.20205455, -0.043832935, -1099593.8, 124619.914, 0.0, 10.001206, 9.999115 
8.750381e+2, 1.8507928e+2, -985096.7, -1011029.9, -45023.016, 0.19840059, -0.08848738, -951210.25, 175006.06, 0.0, 10.000744, 10.00041 
8.7502915e+2, 1.950795e+2, -1113849.1, -1020820.8, 30492.326, 0.055509854, -0.13429178, -1011717.1, 16491.09, 0.0, 9.999185, 10.000418 
8.750223e+2, 2.0507881e+2, -1199007.6, -1224533.3, 122626.79, -0.026609568, -0.145435, -1088481.3, -158266.77, 0.0, 9.998846, 9.998514 
8.750174e+2, 2.1507706e+2, -979812.6, -1067853.8, 64080.594, -0.05372079, -0.19785115, -946089.2, -113852.52, 0.0, 9.999675, 9.998516 
8.7501276e+2, 2.2507642e+2, -736575.1, -787442.25, 59285.234, -0.08348728, -0.15960832, -697498.2, 36746.598, 0.0, 10.000179, 9.999535 
8.750082e+2, 2.3507658e+2, -621787.5, -681133.9, 110514.86, -0.12514208, -0.12255705, -537031.56, 99210.54, 0.0, 10.000298, 9.999532 
8.7500423e+2, 2.4507625e+2, -615809.25, -796940.1, 72393.78, -0.0839214, -0.029085672, -590430.94, -52183.723, 0.0, 10.000391, 9.998019 
8.750005e+2, 2.5507522e+2, -517774.8, -699406.75, 57257.42, 0.026678504, 0.04076199, -501231.78, -60969.727, 0.0, 10.000404, 9.998005 
8.749958e+2, 2.650737e+2, -358590.56, -509851.0, 39347.203, 0.0387432, 0.06544873, -348967.44, -6689.482, 0.0000000691861, 10.000545, 9.998569 
8.7499034e+2, 2.7507138e+2, -252485.53, -411759.53, 60561.715, -0.0446195, -0.051381167, -232073.67, 12224.776, 0.000001269736, 10.000616, 9.998536 
8.749851e+2, 2.8506926e+2, -158623.11, -422812.84, 1344.7386, -0.07482403, -0.068595715, -158616.27, -12297.568, 0.000008255043, 10.001042, 9.997588 
8.749801e+2, 2.9506677e+2, 22252.3, -281957.5, -42388.973, -0.06052971, -0.10137103, 28048.4, 76391.54, 0.000042714033, 10.001594, 9.997613 
8.749751e+2, 3.050647e+2, 81487.09, -122635.0, -64465.42, -0.036203407, -0.115240626, 100141.61, 100141.61, 0.00015288098, 10.001242, 9.998529 
8.7496805e+2, 3.150656e+2, -54320.086, -38072.125, -12768.574, -0.2166387, 0.092214584, -31062.184, -31062.184, 0.00035815634, 9.999597, 9.9999 
8.8507366e+2, 1.2508631e+2, -1732017.3, -1695279.0, -48077.176, 0.0677359, -0.15240386, -1662181.3, 51965.734, 0.00000006865043, 9.999683, 10.000282 
8.8506633e+2, 1.3508753e+2, -1617029.6, -1597364.0, -108888.74, 0.008725077, -0.07695852, -1497865.0, 118271.914, 0.0, 9.9998865, 10.000184 
8.8505995e+2, 1.4508821e+2, -1572591.0, -1607554.6, -62828.66, 0.05696031, 0.020607485, -1524857.4, -6725.594, 0.0, 9.999875, 9.999425 
8.850538e+2, 1.5508844e+2, -1456767.4, -1501515.4, -29181.574, 0.091928475, 0.06730133, -1442369.6, -22238.969, 0.0, 9.999997, 9.999423 
8.850487e+2, 1.6508773e+2, -1416439.5, -1425537.0, 69980.836, 0.14673671, 0.053786363, -1350859.8, -28722.338, 0.0, 9.999582, 9.999475 
8.850445e+2, 1.7508611e+2, -1449173.5, -1392011.0, 80374.164, 0.22704275, -0.076167434, -1335287.5, -111135.86, 0.0, 9.99869, 9.999464 
8.8503796e+2, 1.8508594e+2, -1243904.1, -1119555.1, -21774.717, 0.20806521, -0.08953385, -1115852.4, 10297.968, 0.0, 9.998899, 10.000554 
8.85029e+2, 1.9508673e+2, -963049.4, -936426.0, -85340.484, 0.079129115, -0.09033841, -863365.25, 164773.02, 0.0, 10.000166, 10.000529 
8.850224e+2, 2.0508608e+2, -947124.75, -1138774.0, 48931.57, 0.014002877, -0.08880656, -935354.5, -5209.487, 0.0, 10.000717, 9.99821 
8.850181e+2, 2.1508385e+2, -873249.3, -1053608.3, 83163.43, 0.013704898, -0.15532474, -840756.5, -8584.849, 0.0, 10.000554, 9.998204 
8.850135e+2, 2.250829e+2, -730827.25, -798389.0, 95638.836, -0.021426793, -0.12616688, -663178.7, 71004.46, 0.0, 10.000287, 9.999396 
8.8500863e+2, 2.3508285e+2, -685143.0, -730340.3, 32068.77, -0.09842141, -0.09483247, -668510.25, -32327.129, 0.0, 9.999943, 9.99936 
8.8500464e+2, 2.4508247e+2, -631444.3, -789588.94, 32789.973, -0.06710334, -0.0047306423, -624915.1, -86726.79, 0.0, 10.000219, 9.998146 
8.8500154e+2, 2.5508144e+2, -398938.03, -630394.94, 58872.53, 0.06229638, 0.049618874, -384824.1, 55377.55, 0.00000000006372724, 10.001148, 9.998122 
8.84997e+2, 2.6507974e+2, -263528.78, -490595.97, 57179.207, 0.06348883, 0.063770294, -249942.98, 92275.47, 0.00000025387644, 10.001318, 9.998326 
8.8499093e+2, 2.7507713e+2, -235242.5, -428687.47, 19196.277, -0.052028745, -0.054918773, -233355.98, 10885.719, 0.0000021793016, 10.000844, 9.998308 
8.8498574e+2, 2.850748e+2, -222650.94, -484832.94, 41036.82, -0.09707576, -0.06742956, -216377.94, -70112.61, 0.000011106664, 10.000759, 9.997284 
8.8498133e+2, 2.950723e+2, -73770.63, -362115.97, 59587.637, -0.0663798, -0.07168562, -61941.875, -13649.047, 0.000049522223, 10.001088, 9.9973 
8.849763e+2, 3.050705e+2, 149313.92, -60365.78, 34983.64, -0.043770146, -0.0539442, 154996.69, 154996.69, 0.00016467013, 10.001575, 9.998808 
8.849694e+2, 3.1507206e+2, 259553.63, 93214.555, -302.3095, -0.14759992, 0.20159206, 259554.17, 259554.17, 0.00037312726, 10.0018425, 9.999736 
8.950733e+2, 1.2509158e+2, -1737820.9, -1684718.9, -78726.984, 0.004303632, -0.04966523, -1628186.3, 85909.836, 0.00000033567557, 9.999617, 10.000374 
8.950671e+2, 1.3509141e+2, -1622708.6, -1599429.8, -95458.47, 0.06716107, -0.106103264, -1514903.8, 101193.98, 0.00000000007521531, 9.999868, 10.000169 
8.9506054e+2, 1.4509128e+2, -1490463.3, -1442758.4, -72612.734, 0.096664466, -0.14920431, -1390180.8, 127916.414, 0.0, 9.999887, 10.000554 
8.950543e+2, 1.550915e+2, -1382417.1, -1345757.6, -10123.881, 0.104604766, -0.21367483, -1343147.6, 76943.79, 0.0, 9.999987, 10.0005 
8.950481e+2, 1.6509183e+2, -1376009.9, -1340257.5, 23019.057, 0.097653076, -0.20243251, -1328988.6, -6901.932, 0.0, 9.999574, 10.000064 
8.95042e+2, 1.750921e+2, -1411126.1, -1304998.1, 59424.703, 0.08150022, -0.20566808, -1278393.5, -54309.152, 0.0, 9.998659, 10.000075 
8.950355e+2, 1.850926e+2, -1349049.0, -1324520.4, 14402.728, 0.0537904, -0.11453804, -1317867.8, -191785.16, 0.0, 9.998835, 9.99918 
8.9502877e+2, 1.95093e+2, -1075228.1, -1144696.9, -26995.742, 0.014497716, -0.016721157, -1065971.1, -37886.9, 0.0, 10.000059, 9.99915 
8.9502317e+2, 2.0509313e+2, -880367.2, -972897.25, 31507.95, 0.0013947263, 0.071995944, -870657.2, 59428.07, 0.0, 10.000598, 9.999407 
8.950189e+2, 2.1509272e+2, -814235.94, -890630.1, 91250.805, 0.011404055, 0.065573804, -753510.2, 78578.13, 0.0, 10.000385, 9.9994 
8.950146e+2, 2.2509155e+2, -849371.25, -1010042.8, 72041.23, 0.031713136, 0.08260422, -821800.7, -87699.12, 0.0, 10.00013, 9.998023 
8.9501023e+2, 2.350894e+2, -800031.8, -934066.1, 31348.18, 0.04967303, 0.03750611, -793062.44, -156935.36, 0.0, 9.999793, 9.998032 
8.950064e+2, 2.4508785e+2, -575311.56, -649216.2, 55633.31, 0.06625595, 0.024658196, -545476.56, -7334.5264, 0.0, 10.0001135, 9.999164 
8.9500314e+2, 2.5508648e+2, -351018.16, -494800.9, 105939.625, 0.07625717, -0.055012867, -294879.94, 145270.61, 0.0000000002378373, 10.000998, 9.999127 
8.9499795e+2, 2.6508513e+2, -321478.56, -593123.1, 28971.154, 0.0044520954, -0.023906479, -318423.16, 23739.643, 0.00000030747992, 10.001241, 9.997659 
8.949911e+2, 2.7508345e+2, -299880.13, -537846.9, 17559.75, -0.14912306, 0.021514753, -298591.38, -54409.39, 0.0000026197797, 10.00074, 9.997607 
8.9498574e+2, 2.850819e+2, -171531.84, -371154.97, 41556.703, -0.20201308, 0.079167165, -163226.31, -17027.027, 0.000013171274, 10.000714, 9.998088 
8.9498186e+2, 2.950801e+2, -24303.17, -245786.17, 85739.336, -0.15305467, 0.06255148, 5008.5825, 53225.184, 0.000055655084, 10.0010195, 9.998133 
8.9497745e+2, 3.0507824e+2, 93508.78, -151547.55, 37492.566, -0.107197486, 0.059404455, 99116.66, 99116.66, 0.00017580122, 10.001485, 9.998219 
8.9497167e+2, 3.150768e+2, 179504.56, -31899.271, 60563.27, -0.1552053, 0.07448306, 195625.48, 195625.48, 0.00038747952, 10.001687, 9.998938 
9.050725e+2, 1.2509595e+2, -1981695.6, -1757178.3, 25077.582, 0.077748306, -0.09728154, -1754411.3, -40358.824, 0.0000010657902, 9.997708, 10.000806 
9.050668e+2, 1.350968e+2, -1722738.9, -1608329.5, -495.13702, 0.11038846, -0.09414609, -1608327.4, 7715.843, 0.000000007369457, 9.998991, 10.000531 
9.0506035e+2, 1.4509685e+2, -1577916.1, -1467942.1, -4825.819, 0.1285374, -0.1453717, -1467730.8, 50309.68, 0.0, 9.999215, 10.000702 
9.0505385e+2, 1.5509658e+2, -1559145.1, -1411067.4, -43189.426, 0.13173115, -0.27735978, -1399391.1, 20648.418, 0.0, 9.998685, 10.000679 
9.050471e+2, 1.6509716e+2, -1453061.6, -1334202.0, -14849.827, 0.08770822, -0.26723695, -1332374.8, -10342.618, 0.0, 9.998856, 10.000458 
9.050403e+2, 1.7509836e+2, -1233056.0, -1175768.4, -21092.207, 0.006910739, -0.2185869, -1168840.5, 55180.82, 0.0, 9.999687, 10.000466 
9.0503436e+2, 1.8509904e+2, -1177661.0, -1295455.1, 13737.434, -0.011852157, -0.106798775, -1176080.1, -50061.0, 0.0, 10.000235, 9.998703 
9.050291e+2, 1.9509894e+2, -1028420.25, -1176606.6, 21439.514, 0.024367146, -0.010282322, -1025380.75, 2647.1848, 0.0, 10.000591, 9.998681 
9.050241e+2, 2.0509893e+2, -879995.9, -951322.5, 54656.484, 0.042333182, 0.07888775, -850396.6, 79634.555, 0.0, 10.000514, 9.999586 
9.050193e+2, 2.1509868e+2, -855525.3, -891595.7, 6414.3696, 0.04112913, 0.069947295, -854418.6, -22386.48, 0.0, 10.000017, 9.999566 
9.050149e+2, 2.2509778e+2, -829275.75, -965050.5, 57819.445, 0.054250795, 0.09077072, -807990.4, -73948.95, 0.0, 10.000128, 9.998332 
9.050108e+2, 2.3509601e+2, -616130.56, -813630.5, 120949.07, 0.07552806, 0.056800127, -558738.8, 77322.52, 0.0, 10.000921, 9.998318 
9.0500724e+2, 2.450943e+2, -428410.88, -598830.94, 187943.86, 0.0882894, 0.024251107, -307262.84, 230814.3, 0.0, 10.001216, 9.998974 
9.0500414e+2, 2.5509238e+2, -354613.22, -516724.1, 119720.21, 0.088142596, -0.09385713, -291090.25, 149001.2, 0.0, 10.001062, 9.99894 
9.0499914e+2, 2.6509082e+2, -351886.78, -629483.8, 22797.857, 0.013799119, -0.0635397, -350026.94, -7920.8315, 0.0000002007212, 10.001135, 9.99746 
9.049923e+2, 2.750893e+2, -213478.7, -516173.3, 20625.031, -0.12444814, 0.015511326, -212079.83, 32044.62, 0.0000025589381, 10.001425, 9.997425 
9.049869e+2, 2.8508773e+2, -60262.305, -296338.1, 72539.6, -0.17673375, 0.07894475, -39754.402, 106386.55, 0.000014749117, 10.001383, 9.998288 
9.049829e+2, 2.9508612e+2, -22920.154, -217379.23, 42253.535, -0.13516624, 0.056883104, -14135.807, 34020.2, 0.00006245814, 10.000926, 9.998372 
9.049786e+2, 3.050843e+2, 18035.52, -213303.55, 28067.742, -0.10939509, 0.055484656, 21392.2, 21392.2, 0.00018874744, 10.001068, 9.998 
9.049739e+2, 3.150815e+2, 133821.63, -77488.35, 34871.277, -0.072149366, -0.037480365, 139427.52, 139427.52, 0.0004049675, 10.001445, 9.998758 
9.150703e+2, 1.2509999e+2, -1917430.1, -1627595.6, 31381.975, 0.026688902, -0.25386763, -1624236.6, 89774.14, 0.000002613721, 9.997741, 10.001674 
9.150653e+2, 1.3510373e+2, -1669427.6, -1488120.0, 53842.203, 0.029579213, -0.047414187, -1473336.3, 142637.11, 0.00000007607973, 9.998958, 10.0013685 
9.1505903e+2, 1.4510469e+2, -1639667.8, -1587839.9, -41813.957, 0.038984574, -0.0053193797, -1564561.0, -46597.0, 0.0, 9.999178, 9.9999 
9.1505206e+2, 1.551037e+2, -1613699.5, -1522361.4, -48346.836, 0.061908375, -0.12704471, -1501524.3, -81549.664, 0.0, 9.998681, 9.999917 
9.150453e+2, 1.6510396e+2, -1438824.0, -1306785.1, 1969.3107, 0.0029963544, -0.123839766, -1306755.9, 15216.207, 0.0, 9.998861, 10.000642 
9.150391e+2, 1.7510508e+2, -1225137.8, -1154231.9, 20720.234, -0.108693175, -0.100972034, -1148620.9, 75339.305, 0.0, 9.999663, 10.000626 
9.15034e+2, 1.8510537e+2, -1152221.6, -1229909.6, 15594.59, -0.100019895, -0.059630472, -1149208.3, -23249.578, 0.0, 10.000178, 9.999182 
9.150298e+2, 1.9510463e+2, -1013969.94, -1118912.9, 48047.23, 0.011442722, -0.072535, -995295.1, 32673.764, 0.0, 10.000478, 9.999132 
9.150248e+2, 2.0510359e+2, -964256.75, -1096122.8, 24990.4, 0.03779043, -0.06089607, -959679.6, -29697.646, 0.0, 10.000383, 9.998653 
9.15019e+2, 2.1510191e+2, -945066.75, -1037396.6, -1485.2166, -0.008715006, -0.119950965, -945042.8, -113041.766, 0.0, 9.999849, 9.998642 
9.15014e+2, 2.2510171e+2, -706806.7, -686417.1, 73954.18, -0.0635593, -0.084762745, -621958.3, 112043.12, 0.0, 10.000011, 10.000305 
9.150099e+2, 2.3510271e+2, -503196.44, -542958.0, 163760.31, -0.122571714, -0.0404442, -358114.56, 277871.28, 0.0, 10.000766, 10.000251 
9.1500676e+2, 2.4510197e+2, -543681.3, -813927.7, 172007.36, -0.10536688, 0.00019022232, -460069.94, 77922.27, 0.0, 10.001104, 9.997555 
9.1500443e+2, 2.550992e+2, -468619.66, -731311.0, 127387.17, -0.016053112, -0.056858018, -416992.16, 23031.045, 0.0, 10.000961, 9.99752 
9.1500026e+2, 2.6509687e+2, -342528.2, -592931.7, 23102.537, -0.014605706, -0.0513832, -340414.56, 1633.345, 0.00000011562638, 10.001066, 9.997743 
9.149943e+2, 2.7509457e+2, -207405.53, -480368.7, 46519.453, -0.09245299, -0.07786596, -199695.3, 44374.37, 0.0000025826089, 10.0013275, 9.997718 
9.1498905e+2, 2.8509244e+2, -100076.22, -360378.03, 43305.848, -0.1271316, -0.06600596, -93060.6, 53029.42, 0.000017159802, 10.001307, 9.997884 
9.149842e+2, 2.9509038e+2, -66216.266, -291931.2, 42414.004, -0.13065319, -0.09138085, -58509.414, -10399.072, 0.00007135739, 10.000859, 9.997894 
9.149794e+2, 3.0508852e+2, 10946.948, -207103.0, 36761.234, -0.16292638, -0.06826638, 16977.758, 16977.758, 0.00020564985, 10.000984, 9.998076 
9.1497517e+2, 3.1508622e+2, 154814.27, 1891.0927, 84788.516, -0.15263724, -0.13474788, 192525.66, 192525.66, 0.00042848263, 10.001307, 9.999358 
9.250687e+2, 1.2510608e+2, -1795935.8, -1591406.4, 43352.58, 0.04779318, -0.17808129, -1582596.6, 131356.25, 0.0000053718704, 9.998666, 10.001484 
9.2506325e+2, 1.3510954e+2, -1861656.8, -1592779.0, -43367.652, 0.004785226, 0.009746425, -1585957.3, 29962.754, 0.00000033393198, 9.997685, 10.001279 
9.2505723e+2, 1.4511044e+2, -1807066.9, -1633534.4, -81243.14, 0.018791359, 0.035681494, -1601435.9, -83524.35, 0.0, 9.99788, 10.000213 
9.2505115e+2, 1.5510988e+2, -1476277.6, -1425928.9, -37659.516, 0.069544084, -0.07597524, -1405804.4, 14112.706, 0.0, 9.999488, 10.00019 
9.250449e+2, 1.6511023e+2, -1299479.9, -1277395.6, 44548.848, 0.0212138, -0.061266612, -1242540.8, 79373.31, 0.0, 9.999975, 10.000307 
9.2503864e+2, 1.7511122e+2, -1279247.5, -1217243.4, 239.12114, -0.10552756, -0.01693838, -1217242.5, 6662.9014, 0.0, 9.999447, 10.000301 
9.250336e+2, 1.8511142e+2, -1227839.0, -1212446.1, 8373.897, -0.10987617, 0.007528834, -1208769.1, -82865.25, 0.0, 9.99943, 9.999666 
9.250297e+2, 1.9511057e+2, -1069288.8, -1089034.6, 13549.702, -0.009072343, -0.06605419, -1062396.6, -34485.07, 0.0, 9.999858, 9.999633 
9.250248e+2, 2.0510943e+2, -1001728.56, -1112068.8, 31672.365, 0.013483583, -0.09100871, -993283.56, -63359.875, 0.0, 10.000117, 9.998679 
9.2501885e+2, 2.1510771e+2, -875902.44, -1000445.56, 60448.906, -0.025151363, -0.15668817, -851387.94, -19445.008, 0.0, 10.000301, 9.998688 
9.2501426e+2, 2.2510736e+2, -632656.8, -663098.7, 142891.0, -0.058953334, -0.1316726, -504178.34, 229765.83, 0.0, 10.000572, 10.000194 
9.25011e+2, 2.3510812e+2, -486779.4, -549318.7, 47208.883, -0.09165603, -0.099395625, -461423.34, 174506.94, 0.0, 10.000927, 10.000132 
9.2500806e+2, 2.4510747e+2, -577516.25, -868249.4, 19282.816, -0.07789988, -0.02708497, -576242.9, -38305.758, 0.0, 10.00104, 9.997217 
9.250054e+2, 2.5510517e+2, -481124.7, -771303.5, 32170.52, -0.019332891, -0.004061131, -477600.9, -37634.258, 0.0, 10.001033, 9.997213 
9.250013e+2, 2.6510283e+2, -318723.9, -553014.3, 1505.8088, -0.0098601, 0.0063549313, -318714.22, 23277.15, 0.00000007319143, 10.00109, 9.998012 
9.249961e+2, 2.7510014e+2, -212330.63, -452818.1, 3164.6294, -0.03184737, -0.0911506, -212288.98, 31725.916, 0.0000027897247, 10.001149, 9.997997 
9.249911e+2, 2.850977e+2, -103698.36, -394867.7, 27644.879, -0.053751845, -0.1094007, -101096.875, 44940.914, 0.000020180585, 10.001426, 9.997584 
9.249861e+2, 2.950954e+2, 71897.984, -260650.69, 6015.8477, -0.07287339, -0.12277414, 72006.77, 120067.8, 0.00008285034, 10.001953, 9.997581 
9.249808e+2, 3.050935e+2, 156384.06, -142854.39, 20760.234, -0.15157545, -0.09143624, 157817.48, 157817.48, 0.0002292469, 10.001978, 9.998046 
9.2497677e+2, 3.1509197e+2, 160268.78, 32700.754, 5975.749, -0.11193386, -0.078144126, 160548.1, 160548.1, 0.0004645645, 10.001199, 9.999629 
9.350666e+2, 1.2511374e+2, -1889363.0, -1757311.6, -34105.184, -0.081158414, 0.07083713, -1749023.4, -35139.688, 0.000009857008, 9.998572, 10.000383 
9.350603e+2, 1.3511449e+2, -1917216.1, -1715683.1, -70428.51, -0.082549125, 0.078228824, -1693510.4, -77629.516, 0.0000009955157, 9.997737, 10.0004015 
9.350547e+2, 1.4511448e+2, -1709743.9, -1445289.8, -35600.14, -0.05842488, -0.0057256003, -1440581.3, 77298.38, 0.00000000002439963, 9.997934, 10.001483 
9.350507e+2, 1.5511517e+2, -1392139.5, -1241120.1, 33726.258, 0.04376955, -0.11885222, -1233930.5, 185935.75, 0.0, 9.999446, 10.001479 
9.3504536e+2, 1.65116e+2, -1360733.3, -1394192.6, 8461.081, 0.036559142, -0.0826062, -1358715.4, -36857.08, 0.0, 9.999926, 9.999533 
9.3503857e+2, 1.7511685e+2, -1335140.9, -1330268.6, -6951.3833, -0.08518498, 0.027970888, -1325338.9, -101482.55, 0.0, 9.9994335, 9.999534 
9.350329e+2, 1.8511729e+2, -1206419.8, -1154772.3, 15020.994, -0.14966789, 0.09488207, -1150721.3, -24867.566, 0.0, 9.999374, 10.000091 
9.350284e+2, 1.9511689e+2, -1054676.9, -1034828.0, 41222.26, -0.15458176, 0.021509016, -1002352.4, 25502.537, 0.0, 9.999758, 10.000056 
9.3502355e+2, 2.0511654e+2, -940220.8, -960655.0, 24677.975, -0.13718896, 0.00024122026, -923728.5, 6127.018, 0.0, 10.000011, 9.999771 
9.350186e+2, 2.1511604e+2, -827167.8, -864557.56, 80009.586, -0.09913746, -0.04624273, -763698.0, 68159.52, 0.0, 10.000147, 9.999701 
9.350154e+2, 2.2511475e+2, -814074.25, -1000159.9, 146284.63, -0.030973596, -0.054167382, -733749.94, 119.51738, 0.0, 10.000403, 9.997959 
9.350137e+2, 2.3511235e+2, -665646.06, -884022.06, 72027.61, 0.06750876, -0.11513685, -644028.9, -8134.9326, 0.0, 10.000769, 9.997911 
9.3501073e+2, 2.4511088e+2, -540620.94, -768503.6, 6009.065, 0.0630421, -0.050108224, -540462.6, -2551.613, 0.0, 10.000937, 9.9979515 
9.3500656e+2, 2.5511009e+2, -444935.6, -675940.75, 44468.926, -0.028080478, 0.051021583, -436670.94, 3252.1902, 0.0, 10.000936, 9.99792 
9.35002e+2, 2.6510864e+2, -310372.44, -508612.16, -3665.1292, -0.06558165, 0.09601951, -310304.7, 31633.008, 0.00000003612581, 10.000982, 9.9983635 
9.349973e+2, 2.7510613e+2, -208473.42, -415612.56, 21567.98, -0.054188963, -0.0142239155, -206251.53, 37707.22, 0.0000027030533, 10.001034, 9.998303 
9.349927e+2, 2.851037e+2, -125099.875, -428657.97, 37888.3, -0.064875536, -0.037001297, -120442.34, 25539.807, 0.000022488803, 10.001369, 9.997382 
9.349882e+2, 2.951013e+2, 50985.97, -298567.66, 43241.492, -0.09389358, -0.04628407, 56255.707, 104263.766, 0.00009525127, 10.001919, 9.99734 
9.349827e+2, 3.050992e+2, 137712.47, -170904.95, -12196.052, -0.19248971, -0.012958135, 138193.69, 138193.69, 0.00025879213, 10.001938, 9.997871 
9.349779e+2, 3.1509876e+2, 143328.11, 20217.342, 5481.5903, -0.16793717, 0.12529969, 143571.7, 143571.7, 0.0005142612, 10.001104, 9.999587 
9.450648e+2, 1.2511964e+2, -2189763.0, -1917079.6, 70726.69, -0.00481216, 0.067820944, -1899826.6, -185999.86, 0.000016753027, 9.996553, 10.000273 
9.4505876e+2, 1.3511994e+2, -1814233.3, -1682444.4, 54422.164, -0.03540162, 0.04387986, -1662876.3, -47047.996, 0.000002343361, 9.9985, 10.000271 
9.450534e+2, 1.4512e+2, -1591115.8, -1401436.3, 84402.0, -0.019624958, -0.022925574, -1369318.3, 148509.4, 0.0000000053592455, 9.998802, 10.001367 
9.4504946e+2, 1.5512118e+2, -1642775.0, -1382521.8, 19148.334, 0.06223082, -0.0740453, -1381120.4, 38691.008, 0.0, 9.997799, 10.001312 
9.450444e+2, 1.6512209e+2, -1625734.1, -1507251.6, 13642.456, 0.051310014, -0.02595576, -1505701.1, -183898.63, 0.0, 9.998058, 9.999645 
9.4503814e+2, 1.7512263e+2, -1312015.9, -1305800.0, 36772.652, -0.067649074, 0.04173404, -1272004.1, -48202.523, 0.0, 9.999547, 9.999635 
9.4503284e+2, 1.8512288e+2, -1112825.0, -1117293.6, 76149.17, -0.122980654, 0.087336436, -1038877.4, 86922.71, 0.0, 10.000061, 10.000005 
9.450284e+2, 1.9512245e+2, -1072465.1, -1051973.6, 43321.734, -0.11006058, 0.01814536, -1017702.56, 10099.106, 0.0, 9.9996805, 9.999966 
9.450241e+2, 2.0512228e+2, -932933.4, -975947.4, 10507.575, -0.09395986, 0.026896687, -930503.75, -702.8787, 0.0, 10.000134, 9.999606 
9.4501954e+2, 2.1512224e+2, -667968.8, -800308.0, -51795.848, -0.07079969, 0.036738165, -650107.3, 181691.9, 0.0, 10.001297, 9.999577 
9.4501686e+2, 2.2512066e+2, -680607.7, -978348.25, 38755.082, 0.027575005, 0.027204365, -675645.9, 58168.43, 0.0, 10.00151, 9.997575 
9.4501585e+2, 2.3511736e+2, -673912.75, -926484.9, 83578.65, 0.20478506, -0.08643058, -648760.56, -12912.286, 0.0, 10.000884, 9.997561 
9.4501275e+2, 2.4511553e+2, -497007.25, -691689.3, 120536.76, 0.17606093, -0.06373286, -439414.8, 98452.72, 0.0, 10.000999, 9.998444 
9.4500774e+2, 2.5511494e+2, -284747.84, -539520.8, 117177.53, -0.0358808, 0.006625063, -239050.84, 200823.94, 0.0, 10.001786, 9.998438 
9.4500315e+2, 2.651138e+2, -168055.69, -457027.6, 41824.313, -0.09476257, 0.06276233, -162124.02, 179762.28, 0.000000027783642, 10.00202, 9.998225 
9.4499916e+2, 2.7511176e+2, -120761.45, -387665.94, 6513.163, -0.0005265136, 0.014073019, -120602.61, 123302.86, 0.000002329391, 10.001691, 9.998186 
9.4499457e+2, 2.851097e+2, -41278.285, -368888.4, 72163.73, -0.030230189, 0.029093781, -26086.977, 119838.69, 0.000023981273, 10.001868, 9.997556 
9.4498956e+2, 2.9510757e+2, 136279.45, -236412.06, 80927.34, -0.16891985, 0.029864918, 153093.67, 201041.42, 0.00010679835, 10.002426, 9.997522 
9.449844e+2, 3.0510485e+2, 241138.1, -158862.58, 28243.293, -0.25517476, 0.010601601, 243122.45, 243122.45, 0.00028981623, 10.002829, 9.997527 
9.44981e+2, 3.1510416e+2, 363657.13, 67614.125, -26873.992, -0.054094296, 0.16003004, 366076.88, 366076.88, 0.00057081727, 10.002887, 9.999058 
9.5506227e+2, 1.2512413e+2, -2143780.8, -1819096.9, 106036.12, 0.029809834, -0.16030057, -1787535.3, -73756.41, 0.00002677623, 9.996558, 10.000928 
9.550582e+2, 1.3512608e+2, -1778526.4, -1590984.4, 133662.95, 0.036564257, -0.08894905, -1521480.3, 94280.77, 0.0000047533053, 9.998444, 10.00091 
9.55053e+2, 1.4512694e+2, -1702898.0, -1627827.6, 28513.014, 0.022158409, -0.029193206, -1618225.9, -100469.73, 0.000000046136613, 9.998766, 9.999839 
9.5504695e+2, 1.5512802e+2, -1737633.9, -1592849.6, -6502.947, 0.001944099, 0.06202405, -1592558.1, -172806.89, 0.0, 9.997856, 9.999844 
9.550417e+2, 1.6512872e+2, -1555415.9, -1369052.3, 58104.504, -0.053992163, 0.11535349, -1352420.6, -30675.922, 0.0, 9.998088, 10.000582 
9.550372e+2, 1.7512873e+2, -1250189.4, -1172037.0, 103440.63, -0.14913607, 0.031450395, -1100537.8, 123202.46, 0.0, 9.999522, 10.0005665 
9.550331e+2, 1.8512829e+2, -1157940.5, -1203035.9, 49213.38, -0.12680098, -0.008878627, -1126355.5, -613.2223, 0.0, 10.000018, 9.999442 
9.550296e+2, 1.951272e+2, -1122993.6, -1140771.6, 40451.75, 0.007844778, -0.08494337, -1090465.8, -62713.13, 0.0, 9.999606, 9.999395 
9.550257e+2, 2.0512666e+2, -1043424.56, -1180139.3, 40620.152, 0.038076922, -0.017193163, -1032266.4, -102506.36, 0.0, 10.000024, 9.9982605 
9.550214e+2, 2.1512632e+2, -786078.1, -1006597.44, 1676.4929, -0.036355466, 0.099929586, -786065.4, 45702.043, 0.0, 10.001127, 9.998246 
9.550185e+2, 2.251252e+2, -596151.94, -764302.1, 3489.5933, 0.024234764, 0.123607576, -596079.5, 137698.4, 0.0, 10.001346, 9.999122 
9.550171e+2, 2.3512308e+2, -592709.75, -720593.5, 74335.18, 0.21750511, -0.022784188, -558599.2, 77194.83, 0.0, 10.000722, 9.999056 
9.550138e+2, 2.4512134e+2, -498940.2, -661615.0, 139825.11, 0.15442082, -0.08059067, -418515.94, 119291.78, 0.0, 10.00086, 9.998713 
9.550086e+2, 2.5511968e+2, -285734.78, -516711.97, 158854.83, -0.15240149, -0.14371648, -204824.63, 234997.45, 0.0, 10.001679, 9.998643 
9.5500445e+2, 2.6511833e+2, -229299.4, -557853.3, 18533.164, -0.19213545, -0.08692283, -228257.3, 113579.9, 0.000000030362223, 10.001912, 9.997582 
9.5500124e+2, 2.751169e+2, -178020.61, -485673.03, 10206.302, 0.014031205, -0.011714541, -177682.39, 66173.75, 0.000002140531, 10.001604, 9.997555 
9.5499635e+2, 2.8511557e+2, -12993.389, -290104.38, 82648.164, -0.061606374, 0.07750367, 9784.139, 155654.3, 0.000025889522, 10.001785, 9.998134 
9.549899e+2, 2.9511422e+2, 164167.03, -160139.22, 117675.625, -0.407496, 0.0979047, 202366.56, 250247.25, 0.00011778403, 10.002348, 9.998081 
9.549856e+2, 3.0511057e+2, 191469.39, -244123.6, 29706.81, -0.43210775, -0.011775575, 193486.02, 193486.02, 0.00031950467, 10.002751, 9.996981 
9.54985e+2, 3.151079e+2, 285096.63, -82378.58, -670.67175, 0.0126277665, -0.007701366, 285097.84, 285097.84, 0.00062882464, 10.002822, 9.998062 
9.650604e+2, 1.2513049e+2, -1979405.5, -1722238.8, 97021.195, 0.15432088, -0.10956347, -1689742.0, 23976.21, 0.000040530904, 9.9975815, 10.001102 
9.6505594e+2, 1.3513233e+2, -1877346.5, -1616157.0, 56613.76, 0.013402776, -0.07597933, -1604413.8, 11285.47, 0.000008656152, 9.997643, 10.001129 
9.650512e+2, 1.4513306e+2, -1840175.0, -1766547.3, -23358.666, -0.0018193324, -0.0055011227, -1759761.9, -242065.27, 0.00000019058375, 9.9981785, 9.9991455 
9.650457e+2, 1.5513395e+2, -1549808.8, -1578680.8, -32546.541, 0.017659362, 0.13894391, -1528640.4, -108942.57, 0.0, 9.999512, 9.9991255 
9.650409e+2, 1.6513425e+2, -1302907.3, -1232057.1, 56381.758, -0.023333315, 0.18136624, -1200895.1, 120800.19, 0.0, 9.999764, 10.0007105 
9.650367e+2, 1.7513368e+2, -1317372.1, -1195598.1, 17639.533, -0.11744799, 0.029280135, -1193094.4, 30598.271, 0.0, 9.999019, 10.00065 
9.650333e+2, 1.8513294e+2, -1280730.1, -1329783.8, -36596.344, -0.08004239, -0.016375436, -1261201.8, -135504.47, 0.0, 9.999457, 9.998851 
9.650305e+2, 1.9513178e+2, -959776.4, -1129102.9, -70505.76, 0.07838005, -0.0390139, -934262.8, 93448.23, 0.0, 10.001007, 9.998808 
9.6502703e+2, 2.0513089e+2, -843915.7, -1106744.0, -13551.852, 0.098468564, 0.03476733, -843218.75, 86504.64, 0.0, 10.001524, 9.998028 
9.650227e+2, 2.1512997e+2, -806296.94, -1039721.7, 3252.633, -0.007799323, 0.1151059, -806251.6, 25485.55, 0.0, 10.001109, 9.998016 
9.6501964e+2, 2.2512907e+2, -614527.2, -714453.2, 8891.047, 0.02804032, 0.1453043, -613742.25, 120002.96, 0.0, 10.000955, 9.999661 
9.650178e+2, 2.3512797e+2, -508969.7, -614146.4, -15824.881, 0.20949134, 0.04622897, -506640.28, 129109.64, 0.0, 10.001011, 9.999647 
9.650146e+2, 2.4512659e+2, -437402.5, -609748.8, 66720.0, 0.14275227, -0.017567005, -414592.3, 123166.49, 0.0, 10.001173, 9.998929 
9.650101e+2, 2.5512475e+2, -304703.3, -501974.34, 59456.36, -0.15076002, -0.1177495, -288169.28, 151604.19, 0.0, 10.001447, 9.998863 
9.6500635e+2, 2.6512328e+2, -229159.39, -566263.25, -46964.457, -0.18655737, -0.075990945, -222738.72, 119050.58, 0.000000012060779, 10.001946, 9.997505 
9.650033e+2, 2.751218e+2, -40337.836, -429258.8, -40638.305, 0.018377949, 0.0013607449, -36136.92, 207672.97, 0.0000023356135, 10.002588, 9.997466 
9.649988e+2, 2.8512043e+2, 89596.195, -224531.02, 47608.55, -0.025151882, 0.08091138, 96653.125, 242477.48, 0.000028869204, 10.002425, 9.998268 
9.649929e+2, 2.9511905e+2, 46674.617, -203748.56, 16157.731, -0.29478952, 0.08848395, 47712.836, 95546.56, 0.00012892728, 10.001492, 9.998189 
9.649887e+2, 3.0511555e+2, 61385.188, -298133.88, -6906.382, -0.34284347, -0.017585015, 61517.81, 61517.81, 0.00034703137, 10.001804, 9.997065 
9.649875e+2, 3.151125e+2, 275161.75, -113958.805, -46965.22, -0.017345306, -0.06317619, 280750.0, 280750.0, 0.0006841425, 10.002877, 9.9978075 
9.7505856e+2, 1.2513848e+2, -1989815.1, -1737134.5, 57436.688, 0.14072454, 0.18764192, -1724691.4, -11043.973, 0.000058506626, 9.997559, 10.001009 
9.7505164e+2, 1.3513887e+2, -1872086.5, -1610083.5, 64945.74, -0.21041688, 0.0805134, -1594868.3, 20772.627, 0.00001444443, 9.997675, 10.001151 
9.7504747e+2, 1.4513868e+2, -1839790.4, -1775659.1, 13792.915, -0.21499445, 0.059172872, -1772818.5, -255172.95, 0.0000005546723, 9.998217, 9.999069 
9.750454e+2, 1.5513903e+2, -1558874.3, -1593730.9, 31216.625, 0.011352187, 0.15767235, -1540550.4, -120900.13, 0.0, 9.999496, 9.999029 
9.7504157e+2, 1.651387e+2, -1352941.9, -1332007.9, 12622.582, 0.043657836, 0.1752963, -1326077.1, -4423.138, 0.0, 9.999742, 10.000039 
9.750364e+2, 1.7513755e+2, -1364638.3, -1294369.4, -1687.902, -0.079090536, 0.032391254, -1294328.9, -70670.25, 0.0, 9.999019, 9.999973 
9.750329e+2, 1.8513687e+2, -1330238.5, -1422336.3, 11351.902, -0.0892643, 0.05905025, -1328859.9, -203195.11, 0.0, 9.999413, 9.998237 
9.75031e+2, 1.9513632e+2, -1014895.3, -1221555.4, -277.46637, -0.0012125052, 0.15605201, -1014894.94, 12780.604, 0.0, 10.000914, 9.998216 
9.750277e+2, 2.0513515e+2, -805323.7, -1000339.75, -42710.2, -0.0047990726, 0.19034564, -796379.94, 133309.63, 0.0, 10.001404, 9.998821 
9.750232e+2, 2.1513307e+2, -773386.06, -938972.44, -1239.031, -0.095111065, 0.078494936, -773376.8, 58332.773, 0.0, 10.000962, 9.998784 
9.7501975e+2, 2.2513214e+2, -665475.8, -780491.7, -2505.9717, -0.070204936, 0.086452134, -665421.25, 68296.02, 0.0, 10.000787, 9.999284 
9.7501767e+2, 2.3513202e+2, -564616.44, -684149.06, -3141.386, 0.067775354, 0.120794654, -564533.94, 71182.125, 0.0, 10.000821, 9.999254 
9.7501504e+2, 2.451314e+2, -441261.84, -592345.44, 65055.633, 0.0424811, 0.14592165, -417110.13, 120609.26, 0.0, 10.001059, 9.999108 
9.750119e+2, 2.5513005e+2, -305166.25, -480507.97, 83815.8, -0.13950226, 0.07714067, -271547.1, 168182.58, 0.0, 10.001346, 9.999062 
9.750086e+2, 2.6512852e+2, -208027.53, -500021.16, -34846.168, -0.18327096, 0.073268205, -203926.63, 137818.14, 0.0000000034767167, 10.001852, 9.998002 
9.7500503e+2, 2.7512646e+2, -20273.924, -365255.94, -2344.457, -0.0964916, 0.04555038, -20257.992, 223509.11, 0.0000028342504, 10.002495, 9.997947 
9.7500145e+2, 2.851244e+2, 54654.266, -283886.34, 2725.971, -0.022847716, 0.050611634, 54676.215, 200463.42, 0.000032313746, 10.002368, 9.9978895 
9.74998e+2, 2.9512203e+2, 10635.948, -264089.34, 2258.9272, 0.03105755, -0.0024969864, 10654.521, 58462.035, 0.0001399921, 10.001429, 9.997806 
9.7499305e+2, 3.0511948e+2, 89986.234, -214613.63, 26209.328, -0.11056751, -0.025796985, 92224.96, 92224.96, 0.00037284024, 10.001706, 9.997686 
9.749874e+2, 3.151176e+2, 281338.4, -67071.43, 26374.906, -0.37768325, -0.018675745, 283323.7, 283323.7, 0.00073526404, 10.002736, 9.998194 
9.85055e+2, 1.251419e+2, -2169433.3, -1819108.8, 27799.342, 0.11564416, 0.14904544, -1816916.6, -103301.05, 0.00008108169, 9.996314, 10.001055 
9.8505014e+2, 1.3514307e+2, -1787977.4, -1568914.4, -1876.3507, -0.14002973, 0.12152556, -1568898.4, 46704.62, 0.000022462764, 9.998244, 10.001168 
9.8504704e+2, 1.4514305e+2, -1707488.5, -1680662.6, -28371.89, -0.11216245, 0.10126485, -1662692.9, -145087.89, 0.0000013019285, 9.998963, 9.999368 
9.850445e+2, 1.5514296e+2, -1639824.5, -1599590.9, -10043.143, 0.009125627, 0.120799504, -1597223.3, -177612.75, 0.0, 9.998781, 9.999334 
9.8504096e+2, 1.6514248e+2, -1493829.0, -1466760.5, 2562.0046, 0.049210787, 0.13920446, -1466520.1, -144904.22, 0.0, 9.999063, 9.999443 
9.850368e+2, 1.7514147e+2, -1282508.3, -1318392.9, -29323.422, 0.026051147, 0.07195803, -1266073.4, -42450.52, 0.0, 9.999862, 9.999402 
9.850336e+2, 1.8514079e+2, -1201562.8, -1335916.8, 61234.273, 0.008415748, 0.11650672, -1177842.1, -52212.23, 0.0, 10.000202, 9.998445 
9.8503125e+2, 1.9514015e+2, -1130927.5, -1256000.4, 82789.336, -0.017754048, 0.18512537, -1089710.0, -62070.516, 0.0, 10.000034, 9.998402 
9.8502815e+2, 2.0513892e+2, -975745.75, -1084735.3, 40145.258, -0.03536552, 0.20394103, -962555.06, -32901.715, 0.0, 10.000221, 9.99882 
9.850244e+2, 2.151368e+2, -819091.44, -960879.3, -365.02774, -0.044679727, 0.086714275, -819090.5, 12583.549, 0.0, 10.000642, 9.998791 
9.850211e+2, 2.2513568e+2, -625116.4, -809546.7, 7677.691, -0.033220302, 0.09645102, -624797.3, 108887.26, 0.0, 10.001265, 9.998857 
9.850184e+2, 2.3513526e+2, -415368.75, -658951.9, -18218.305, 0.0077952864, 0.14482167, -414013.7, 221674.14, 0.0, 10.002043, 9.99884 
9.8501587e+2, 2.4513476e+2, -325853.44, -531437.25, 38028.383, -0.009398593, 0.19798523, -319044.53, 218646.92, 0.0, 10.001846, 9.999138 
9.850134e+2, 2.5513375e+2, -387445.16, -519697.94, 18133.691, -0.08850885, 0.16209167, -385003.84, 54695.363, 0.0, 10.000775, 9.999067 
9.8501045e+2, 2.651323e+2, -348498.4, -528393.9, -47749.043, -0.11719345, 0.15077724, -336610.16, 5102.561, 0.00000001775074, 10.000719, 9.998363 
9.8500717e+2, 2.751302e+2, -120012.73, -375118.6, -54960.617, -0.081800304, 0.08649256, -108675.7, 135057.75, 0.000003544514, 10.001638, 9.998303 
9.8500395e+2, 2.8512812e+2, 49048.26, -303605.2, -58435.484, -0.0062466906, 0.078858405, 58478.957, 204232.58, 0.00003520851, 10.002384, 9.997764 
9.850008e+2, 2.951257e+2, 219212.95, -178172.81, -63585.137, 0.1051996, 0.03281316, 229139.17, 276915.2, 0.00014922032, 10.002909, 9.997696 
9.849964e+2, 3.0512375e+2, 369686.75, -61227.04, 25010.09, -0.027275711, 0.06729752, 371133.47, 371133.47, 0.00039592202, 10.003555, 9.997846 
9.8499095e+2, 3.151216e+2, 483684.3, 43438.45, -59836.19, -0.3437005, 0.035973273, 491672.03, 491672.03, 0.0007798097, 10.00406, 9.998324 
9.950493e+2, 1.2514096e+2, -2159754.0, -1806017.3, 59585.81, -0.15140569, -0.20367958, -1796249.9, -82629.17, 0.000108580556, 9.996351, 10.001121 
9.950514e+2, 1.3514502e+2, -1788240.5, -1565234.9, 76708.445, 0.12905897, 0.05112328, -1541397.3, 74187.4, 0.000033028722, 9.998233, 10.001194 
9.950494e+2, 1.4514625e+2, -1656832.5, -1578788.4, -52882.563, 0.19365524, 0.12139363, -1552089.1, -34515.21, 0.0000026281716, 9.998969, 10.000069 
9.950425e+2, 1.5514582e+2, -1583467.1, -1491447.5, -6408.568, -0.097560264, 0.03750087, -1491003.3, -71425.74, 0.00000000019976186, 9.998813, 10.000066 
9.950386e+2, 1.6514568e+2, -1529617.0, -1541133.4, 19622.47, -0.1216523, 0.07685364, -1514925.3, -193345.06, 0.0, 9.999066, 9.998927 
9.9503773e+2, 1.7514548e+2, -1317530.1, -1391072.5, 11260.539, 0.1065494, 0.14211683, -1315844.6, -92259.57, 0.0, 9.999859, 9.998905 
9.950351e+2, 1.851447e+2, -1143034.8, -1203279.4, 41891.813, 0.11394143, 0.15260656, -1121559.8, 4032.613, 0.0, 10.0001545, 9.999379 
9.950309e+2, 1.9514315e+2, -1074610.6, -1123921.3, 87688.234, -0.080648966, 0.035421327, -1008177.5, 19426.842, 0.0, 9.999968, 9.99934 
9.9502796e+2, 2.0514207e+2, -1049980.4, -1205156.9, 41204.895, -0.09951007, 0.06337133, -1039717.75, -110101.64, 0.0, 10.000082, 9.99806 
9.950261e+2, 2.1514115e+2, -894655.6, -1078823.6, 25779.875, 0.041371644, 0.14114547, -891115.0, -59484.473, 0.0, 10.000476, 9.998059 
9.9502337e+2, 2.2513978e+2, -682748.2, -885113.06, 25093.283, 0.045974772, 0.1850266, -679683.0, 53962.938, 0.0, 10.00108, 9.998426 
9.950198e+2, 2.3513776e+2, -470584.34, -732867.1, 22853.262, -0.07708795, 0.11550351, -468607.97, 167056.78, 0.0, 10.00187, 9.998415 
9.950168e+2, 2.4513654e+2, -357102.97, -565601.7, -15195.806, -0.12459355, 0.12973233, -356001.3, 181674.3, 0.0, 10.00171, 9.998968 
9.950143e+2, 2.5513583e+2, -417051.84, -551126.44, -8630.651, -0.10241816, 0.13764961, -416498.53, 23183.354, 0.0, 10.000642, 9.998917 
9.9501175e+2, 2.6513478e+2, -356634.63, -519921.47, -23684.373, -0.082663655, 0.16751617, -353268.66, -11576.742, 0.000000028595345, 10.000613, 9.998471 
9.9500924e+2, 2.7513307e+2, -128259.04, -367230.53, -4658.6323, -0.063774, 0.12913671, -128168.25, 115540.31, 0.000003781716, 10.001535, 9.998407 
9.9500567e+2, 2.851315e+2, 48513.57, -283183.8, -49474.82, -0.09663092, 0.16178015, 55735.81, 201460.08, 0.000036350866, 10.002293, 9.997946 
9.9500114e+2, 2.9513004e+2, 224984.64, -149242.16, -25447.422, -0.18352427, 0.18722825, 226707.14, 274446.6, 0.00015456251, 10.00284, 9.997923 
9.949986e+2, 3.0512846e+2, 334592.0, -124307.016, 40112.53, -0.1883874, 0.2681754, 338071.88, 338071.88, 0.00041193186, 10.003512, 9.997436 
9.9499744e+2, 3.151247e+2, 445996.6, 6670.7393, -5164.885, -0.16079699, 0.11907546, 446057.3, 446057.3, 0.0008105773, 10.003888, 9.998154 
1.00504704e+3, 1.2514408e+2, -1856998.5, -1691004.5, 101395.11, -0.11024163, -0.15867446, -1642969.1, 70622.234, 0.00014134821, 9.998564, 10.000834 
1.00504965e+3, 1.3514747e+2, -1897013.1, -1647342.8, 62725.61, 0.17839837, 0.055410787, -1632469.9, -16906.787, 0.000046426092, 9.997622, 10.000914 
1.00504845e+3, 1.4514858e+2, -1782936.3, -1588428.0, -40745.254, 0.25789994, 0.105439246, -1580237.6, -62685.133, 0.00000474816, 9.997917, 10.000497 
1.0050416e+3, 1.5514861e+2, -1425997.9, -1371226.9, -51919.26, -0.10254624, 0.029653592, -1339913.4, 79634.8, 0.000000004412824, 9.999716, 10.000456 
1.0050381e+3, 1.6514839e+2, -1374029.6, -1515564.6, -36571.234, -0.1385729, 0.06626275, -1365138.5, -43586.84, 0.0, 10.000338, 9.9985 
1.0050377e+3, 1.7514768e+2, -1352314.3, -1451123.9, -60655.766, 0.12908916, 0.121451035, -1323489.0, -99924.13, 0.0, 9.999807, 9.998522 
1.0050355e+3, 1.8514688e+2, -1170569.6, -1182619.6, -23417.158, 0.15995458, 0.13438992, -1152414.8, -26841.79, 0.0, 9.999824, 9.999677 
1.0050316e+3, 1.9514573e+2, -989408.25, -1051006.4, -48496.715, -0.025427256, 0.027745523, -962757.2, 64821.63, 0.0, 10.000423, 9.999617 
1.00502886e+3, 2.0514484e+2, -913925.06, -1164520.3, -60373.645, -0.057236347, 0.07110789, -900138.25, 29450.215, 0.0, 10.001117, 9.997836 
1.0050273e+3, 2.1514393e+2, -717565.9, -1021374.3, -61892.52, 0.048643585, 0.17290157, -705440.94, 126163.1, 0.0, 10.001804, 9.997818 
1.0050247e+3, 2.2514243e+2, -560502.3, -829044.0, -17468.656, 0.037383154, 0.21735004, -559370.75, 174250.75, 0.0, 10.001933, 9.998403 
1.0050213e+3, 2.351401e+2, -521277.88, -762555.56, -19092.975, -0.083993465, 0.12040289, -519776.3, 115867.34, 0.0, 10.001541, 9.998373 
1.00501835e+3, 2.451388e+2, -384593.63, -596126.4, -35856.938, -0.122338966, 0.13332003, -378680.78, 158975.53, 0.0, 10.00159, 9.998819 
1.0050159e+3, 2.5513822e+2, -222373.4, -463899.66, -51793.87, -0.07027025, 0.17012717, -211735.1, 227926.7, 0.0, 10.002031, 9.998834 
1.0050136e+3, 2.6513717e+2, -126896.59, -408616.34, -20093.736, -0.027873121, 0.20227446, -125470.62, 216200.63, 0.000000017098808, 10.00219, 9.99847 
1.0050115e+3, 2.751352e+2, -63083.594, -333167.56, -33314.125, 0.0016047299, 0.13357079, -59035.074, 184653.45, 0.000003428396, 10.001972, 9.998423 
1.00500815e+3, 2.851335e+2, 542.5355, -317171.6, -61773.285, -0.057370737, 0.157451, 12130.494, 157835.92, 0.00003625069, 10.002016, 9.997838 
1.0050036e+3, 2.9513198e+2, 128445.72, -210577.33, -91090.41, -0.18371764, 0.19096899, 151370.2, 199093.14, 0.00015744341, 10.002229, 9.997797 
1.00500174e+3, 3.0513075e+2, 171264.17, -189172.86, -2481.1572, -0.15371262, 0.30489838, 171281.25, 171281.25, 0.00042211023, 10.002318, 9.997571 
1.00500174e+3, 3.151271e+2, 213000.36, -65099.863, -48195.09, -0.01909339, 0.15450689, 221115.8, 221115.8, 0.0008305699, 10.002088, 9.998538 
1.0150475e+3, 1.2515125e+2, -1892717.1, -1766701.8, 12500.668, 0.013219542, 0.27115813, -1765473.8, -51946.754, 0.0001798155, 9.998572, 10.000307 
1.01504475e+3, 1.3515043e+2, -1933523.5, -1730205.4, 36369.707, -0.108090036, 0.1233041, -1723895.4, -108357.516, 0.000062927356, 9.997647, 10.000332 
1.0150437e+3, 1.4515004e+2, -1780309.4, -1585782.9, 8595.779, -0.046461735, 0.0491719, -1585403.8, -67863.63, 0.000007860604, 9.997927, 10.00051 
1.0150416e+3, 1.5515134e+2, -1428448.1, -1373382.6, 25916.605, -0.10362055, 0.09807673, -1363103.8, 56418.027, 0.000000028517778, 9.999707, 10.000443 
1.0150391e+3, 1.6515073e+2, -1394716.0, -1558500.8, -69518.64, -0.09852698, 0.11200467, -1369187.8, -47658.98, 0.0, 10.000335, 9.998207 
1.0150364e+3, 1.7514813e+2, -1370435.0, -1495085.1, -69558.8, -0.005293184, 0.007568344, -1339364.0, -115802.33, 0.0, 9.999827, 9.998214 
1.0150344e+3, 1.8514739e+2, -1200579.1, -1235553.5, -13329.675, 0.043499514, 0.05877403, -1196078.1, -70506.96, 0.0, 9.9997835, 9.999332 
1.01503305e+3, 1.9514802e+2, -1025195.8, -1104118.4, -14799.298, 0.046596646, 0.16547464, -1022512.0, 5049.9424, 0.0, 10.00033, 9.999296 
1.0150307e+3, 2.0514734e+2, -912653.9, -1130822.5, -46967.566, -0.012675387, 0.2288341, -902972.3, 26597.06, 0.0, 10.000986, 9.99813 
1.0150275e+3, 2.1514516e+2, -717294.5, -987412.3, -26443.986, -0.12968068, 0.17320411, -714730.0, 116864.59, 0.0, 10.001663, 9.9981165 
1.01502486e+3, 2.2514363e+2, -565619.8, -797911.7, -45794.926, -0.16307457, 0.18440962, -556917.6, 176693.9, 0.0, 10.001755, 9.998699 
1.0150227e+3, 2.3514244e+2, -522651.97, -728708.7, -21851.926, -0.1237183, 0.16893142, -520360.1, 115263.33, 0.0, 10.001382, 9.998679 
1.0150204e+3, 2.4514161e+2, -416205.6, -624362.9, -33324.91, -0.10399709, 0.22271897, -411000.6, 126631.18, 0.0, 10.001432, 9.9987 
1.01501785e+3, 2.5514087e+2, -248092.03, -491626.88, -23122.5, -0.10299978, 0.25276774, -245916.1, 193723.27, 0.0, 10.001919, 9.998699 
1.0150157e+3, 2.6513928e+2, -141469.88, -416979.6, -37264.83, -0.0615404, 0.24022807, -136518.5, 205133.89, 0.000000011022683, 10.002094, 9.998459 
1.0150138e+3, 2.7513662e+2, -76329.836, -337908.06, -23982.938, 0.007557039, 0.10247343, -74149.125, 169523.95, 0.0000031084232, 10.001873, 9.998437 
1.01501115e+3, 2.8513417e+2, -45558.92, -394234.6, -64341.688, 0.017901048, 0.07137982, -34064.754, 111632.18, 0.000035475467, 10.001939, 9.997343 
1.0150077e+3, 2.9513165e+2, 73668.89, -290748.66, -65786.38, -0.029754221, 0.05568909, 85181.27, 132907.25, 0.00015874387, 10.002097, 9.997304 
1.0150053e+3, 3.051306e+2, 211172.16, -93663.34, -17824.861, -0.048089314, 0.18307513, 212210.9, 212210.9, 0.00042931808, 10.002255, 9.998261 
1.015003e+3, 3.1512868e+2, 252783.23, 61221.777, -10832.062, -0.15153427, 0.1310867, 253393.8, 253393.8, 0.00084597495, 10.00191, 9.999488 
1.0250465e+3, 1.2515338e+2, -2147931.3, -1881349.1, -88929.43, 0.1655973, 0.36319038, -1854406.1, -140896.48, 0.00022439056, 9.996783, 10.000395 
1.02504246e+3, 1.3515183e+2, -1795774.9, -1663623.9, -48593.816, -0.13829803, 0.14685845, -1647679.0, -32152.89, 0.0000828242, 9.998591, 10.000346 
1.0250417e+3, 1.4515115e+2, -1610110.3, -1507550.3, -16763.572, -0.08733185, 0.043862447, -1504879.8, 12650.777, 0.000012107546, 9.999098, 10.000485 
1.0250413e+3, 1.5515257e+2, -1590584.6, -1453387.5, -26046.088, -0.042070158, 0.10412597, -1448609.3, -29098.55, 0.00000009714164, 9.998591, 10.000428 
1.0250394e+3, 1.6515213e+2, -1574754.3, -1624066.5, -82458.66, -0.026850045, 0.12703812, -1513344.4, -191828.58, 0.0, 9.999032, 9.998371 
1.0250365e+3, 1.7514983e+2, -1256151.5, -1416028.6, -74165.24, -0.010523173, 0.035309445, -1227045.8, -3500.1052, 0.0, 10.000539, 9.998397 
1.0250346e+3, 1.8514903e+2, -999621.25, -1195756.1, 10562.184, 0.014486845, 0.09773144, -999054.1, 126502.51, 0.0, 10.0013895, 9.99884 
1.0250337e+3, 1.9514936e+2, -885241.06, -1091391.9, -22287.863, 0.02921438, 0.22180842, -882859.0, 144693.67, 0.0, 10.001514, 9.998823 
1.0250317e+3, 2.0514844e+2, -849033.44, -1070096.9, -49410.71, -0.0186416, 0.2730303, -838492.1, 91070.4, 0.0, 10.001306, 9.998395 
1.0250288e+3, 2.1514608e+2, -825413.44, -1012444.6, -58533.98, -0.11581699, 0.17703186, -808605.0, 22982.92, 0.0, 10.000815, 9.998356 
1.02502614e+3, 2.2514486e+2, -729066.9, -835414.06, -68392.07, -0.1348175, 0.1902464, -695609.56, 37991.348, 0.0, 10.000459, 9.9990635 
1.0250238e+3, 2.3514451e+2, -680661.75, -764426.5, -63923.375, -0.08710301, 0.2241872, -646122.06, -10517.412, 0.0, 10.000136, 9.999032 
1.02502175e+3, 2.4514382e+2, -511668.8, -641196.0, 7038.572, -0.0700731, 0.2592653, -511287.47, 26323.436, 0.0, 10.000665, 9.998944 
1.0250199e+3, 2.5514248e+2, -232184.38, -461274.88, 14661.584, -0.083155416, 0.2065468, -231249.86, 208372.7, 0.0, 10.001929, 9.998904 
1.0250182e+3, 2.6514086e+2, -60507.74, -382346.34, 5335.362, -0.047377493, 0.18680438, -60419.316, 281215.94, 0.00000001218603, 10.002672, 9.99842 
1.02501646e+3, 2.7513877e+2, 71535.23, -266621.03, -10397.219, 0.042828765, 0.10888147, 71854.6, 315505.94, 0.0000027111198, 10.002905, 9.9984255 
1.02501415e+3, 2.8513628e+2, 102393.41, -357790.1, -14051.963, 0.07568218, 0.09387805, 102822.09, 248497.77, 0.00003356842, 10.003114, 9.9970255 
1.0250111e+3, 2.9513314e+2, 216309.6, -258380.03, -31977.4, 0.055907812, 0.047568787, 218454.06, 266165.06, 0.00015737157, 10.003234, 9.996981 
1.0250088e+3, 3.0513155e+2, 328331.5, -31606.57, 5333.1475, 0.032150295, 0.13359027, 328410.5, 328410.5, 0.00043278775, 10.003068, 9.9982815 
1.02500595e+3, 3.151295e+2, 343646.75, 133925.44, -81950.7, -0.061569277, 0.0648918, 371871.3, 371871.3, 0.00085734465, 10.002413, 9.99974 
1.03504345e+3, 1.2515053e+2, -2091187.1, -1779980.1, -80461.07, 0.11259483, 0.122566454, -1760408.1, -46869.06, 0.00027553758, 9.996851, 10.001058 
1.0350425e+3, 1.351518e+2, -1759969.5, -1589017.5, 24874.936, -0.01632845, 0.13376187, -1585471.6, 30055.002, 0.000106410545, 9.99859, 10.00086 
1.03504226e+3, 1.45152e+2, -1606476.1, -1505110.1, -51677.242, 0.014644969, 0.0961509, -1483410.1, 34112.27, 0.000017580353, 9.99912, 10.000491 
1.0350403e+3, 1.5515234e+2, -1584536.1, -1446863.8, -34584.8, -0.03192064, 0.04316627, -1438664.0, -19149.295, 0.00000023822265, 9.998611, 10.000466 
1.0350387e+3, 1.6515264e+2, -1534696.8, -1538574.6, -42242.08, -0.039187256, 0.10801567, -1494349.1, -172836.7, 0.0, 9.999024, 9.99896 
1.03503756e+3, 1.7515273e+2, -1221369.3, -1337354.1, -7200.25, 0.01943729, 0.19822378, -1220923.9, 2593.1548, 0.0, 10.000509, 9.998952 
1.0350359e+3, 1.8515185e+2, -1051890.4, -1287902.1, 1178.6663, -0.027327523, 0.25461766, -1051884.5, 73644.64, 0.0, 10.001322, 9.99824 
1.0350333e+3, 1.9514973e+2, -939458.25, -1185059.8, -10027.802, -0.1804813, 0.19375235, -939049.5, 88501.414, 0.0, 10.0014305, 9.998221 
1.0350316e+3, 2.0514815e+2, -858459.4, -1057439.8, -80984.94, -0.17416333, 0.20077619, -829665.3, 99902.73, 0.0, 10.001165, 9.998549 
1.03503086e+3, 2.1514672e+2, -829187.94, -993569.9, -64432.734, -0.00660132, 0.17927895, -806942.6, 24641.357, 0.0, 10.000693, 9.998545 
1.0350283e+3, 2.2514613e+2, -724605.6, -788588.9, -92777.8, 0.022474742, 0.22563723, -658458.7, 75131.41, 0.0, 10.000299, 9.999462 
1.03502415e+3, 2.3514621e+2, -672520.06, -714280.6, -63097.176, -0.08394895, 0.26137093, -626938.0, 8650.587, 0.0, 9.999992, 9.999446 
1.035022e+3, 2.4514523e+2, -500303.13, -579293.1, 45607.04, -0.13046464, 0.2245485, -479466.9, 58128.023, 0.0, 10.000504, 9.999447 
1.0350217e+3, 2.5514305e+2, -214123.81, -395049.66, 76507.586, -0.11781019, 0.035104983, -186109.1, 253501.8, 0.0, 10.001808, 9.999416 
1.0350207e+3, 2.6514202e+2, -79343.336, -398224.97, 2767.5164, -0.079044014, 0.0498943, -79319.32, 262299.44, 0.00000000560088, 10.002575, 9.998355 
1.035019e+3, 2.7514172e+2, 44823.113, -289186.9, 13272.396, -0.014806449, 0.15795755, 45349.68, 288972.28, 0.0000022721786, 10.002774, 9.998329 
1.03501685e+3, 2.8513992e+2, 80680.54, -384991.44, -21197.453, 0.000043175674, 0.22282597, 81643.46, 227285.52, 0.000031172072, 10.003035, 9.996877 
1.03501365e+3, 2.9513666e+2, 188310.97, -286346.13, -9355.422, -0.04930983, 0.17769943, 188495.3, 236171.73, 0.00015322318, 10.003111, 9.996843 
1.03501156e+3, 3.0513364e+2, 260312.44, -156642.28, -26489.148, -0.012982067, 0.16876048, 261988.56, 261988.56, 0.00043103905, 10.002998, 9.997457 
1.03500955e+3, 3.1512958e+2, 271369.06, 42368.52, -63319.08, -0.004948058, -0.016479705, 287710.75, 287710.75, 0.0008619147, 10.002192, 9.999204 
1.0450412e+3, 1.2514938e+2, -1957303.1, -1683553.4, -15408.552, 0.17793153, 0.029348515, -1682688.8, 30861.424, 0.0003338259, 9.997616, 10.00135 
1.04504116e+3, 1.35152e+2, -1808824.8, -1587966.1, 47356.03, 0.013916295, 0.14845408, -1578240.5, 37283.574, 0.00013404706, 9.998134, 10.001083 
1.04504116e+3, 1.451525e+2, -1689372.1, -1580303.4, -49719.39, 0.021455262, 0.14521688, -1561040.6, -43522.914, 0.000024406929, 9.998709, 10.000177 
1.0450399e+3, 1.5515198e+2, -1456774.9, -1413226.5, -89334.05, 0.02787501, 0.042799108, -1343051.3, 76469.37, 0.0000004785213, 9.999627, 10.000206 
1.04503885e+3, 1.6515228e+2, -1354899.0, -1406654.1, -70774.95, 0.026098728, 0.097956516, -1305419.1, 16099.284, 0.0, 10.000051, 9.999379 
1.04503796e+3, 1.7515309e+2, -1260123.5, -1312044.9, -69118.76, 0.030413479, 0.21603718, -1212250.9, 11262.919, 0.0, 10.000039, 9.999359 
1.0450364e+3, 1.8515249e+2, -1220660.1, -1328403.1, -31473.744, -0.0345694, 0.26313436, -1212139.9, -86617.97, 0.0, 10.000002, 9.998591 
1.0450341e+3, 1.9515033e+2, -1121477.5, -1230608.5, 1793.3696, -0.1685356, 0.16404662, -1121448.1, -93904.14, 0.0, 10.000014, 9.998584 
1.0450326e+3, 2.0514898e+2, -971511.3, -1075228.5, -9617.553, -0.14336957, 0.16199605, -970627.0, -41068.855, 0.0, 10.000221, 9.998884 
1.04503185e+3, 2.1514812e+2, -830427.06, -956091.25, -2026.2201, 0.039035145, 0.16314779, -830394.4, 1173.7186, 0.0, 10.000523, 9.998883 
1.0450294e+3, 2.2514771e+2, -638997.6, -772151.06, -19796.197, 0.068225354, 0.21906476, -636116.8, 97456.11, 0.0, 10.000985, 9.9992485 
1.04502514e+3, 2.3514746e+2, -451693.88, -635259.7, -62913.207, -0.052379034, 0.2473257, -432201.6, 203373.88, 0.0, 10.001609, 9.999218 
1.04502335e+3, 2.4514632e+2, -378508.28, -508206.88, 28407.639, -0.08167728, 0.19827689, -372559.1, 165024.06, 0.0, 10.001271, 9.999576 
1.0450236e+3, 2.551441e+2, -463908.1, -500059.2, 6119.966, -0.018870674, -0.008397961, -462900.16, -23302.203, 0.0, 10.000018, 9.99956 
1.0450227e+3, 2.651434e+2, -411947.28, -535807.94, -20807.242, -0.008886245, 0.02145558, -408545.34, -66942.42, 0.0000000009945924, 10.000185, 9.99857 
1.0450209e+3, 2.751437e+2, -105817.86, -345199.22, -13976.748, -0.043365344, 0.17121615, -105004.56, 138598.6, 0.0000020282196, 10.001628, 9.998514 
1.0450188e+3, 2.8514215e+2, 33415.594, -364469.53, -10268.8955, -0.068292916, 0.23469801, 33680.445, 179299.8, 0.00002862313, 10.002516, 9.997273 
1.0450162e+3, 2.9513887e+2, 179104.44, -245437.6, 9413.791, -0.082746886, 0.14557813, 179313.08, 226963.95, 0.00014660136, 10.002843, 9.997258 
1.04501486e+3, 3.051356e+2, 259193.06, -231160.89, 32600.512, 0.011974787, 0.12388876, 261350.97, 261350.97, 0.00042212423, 10.00331, 9.996788 
1.0450138e+3, 3.151315e+2, 454727.5, 61261.164, -35502.098, 0.13711607, 0.005034481, 457905.16, 457905.16, 0.0008537748, 10.003703, 9.998627 
1.0550391e+3, 1.251498e+2, -1952815.6, -1676439.6, -49912.86, 0.13865925, 0.053970296, -1667701.8, 45842.65, 0.00039971265, 9.997634, 10.001385 
1.05503775e+3, 1.3515244e+2, -1814200.6, -1598707.5, 77062.984, -0.16385499, 0.18410316, -1573985.1, 41532.707, 0.00016604259, 9.998136, 10.001008 
1.05503805e+3, 1.4515278e+2, -1731497.9, -1675075.5, -33083.76, -0.19136947, 0.20109224, -1659807.9, -142292.95, 0.000032768716, 9.998735, 9.999515 
1.0550399e+3, 1.5515162e+2, -1505019.4, -1514625.4, -44175.844, 0.037206493, 0.10102042, -1465386.1, -45858.88, 0.0000008393984, 9.999624, 9.999516 
1.0550395e+3, 1.6515112e+2, -1339574.4, -1366446.0, -84333.55, 0.060660493, 0.09657113, -1267613.0, 53919.832, 0.0, 10.00002, 9.999665 
1.0550371e+3, 1.7515098e+2, -1240640.0, -1268216.8, -60888.367, -0.082913734, 0.08792981, -1191998.4, 31536.348, 0.0, 10.000029, 9.999662 
1.0550359e+3, 1.8515106e+2, -1141240.3, -1150804.1, -45600.64, -0.11272709, 0.12757492, -1100171.5, 25361.82, 0.0, 9.999946, 9.999838 
1.0550357e+3, 1.9515115e+2, -1046528.9, -1057462.9, 13502.357, -0.04217747, 0.12502237, -1037428.7, -9897.112, 0.0, 9.999932, 9.999813 
1.0550342e+3, 2.0515104e+2, -954192.6, -1010400.3, -13211.898, -0.027398149, 0.15781139, -951241.94, -21709.31, 0.0, 10.000095, 9.999391 
1.0550315e+3, 2.1515039e+2, -817116.56, -898524.75, 19265.451, -0.06746973, 0.13095759, -812787.56, 18751.906, 0.0, 10.000387, 9.999346 
1.055029e+3, 2.2514962e+2, -726605.06, -914791.1, -7208.7607, -0.0913154, 0.17467266, -726329.3, 7219.764, 0.0, 10.000816, 9.998346 
1.0550266e+3, 2.351484e+2, -533185.44, -769934.9, -27881.357, -0.0968051, 0.19114888, -529946.2, 105617.84, 0.0, 10.001462, 9.99836 
1.0550252e+3, 2.451472e+2, -416714.94, -557346.44, -32366.357, -0.029581238, 0.19029331, -409623.4, 127950.89, 0.0, 10.00114, 9.999302 
1.055025e+3, 2.551457e+2, -500461.63, -547908.56, -29844.236, 0.10570193, 0.08256749, -486060.53, -46477.785, 0.0, 9.999896, 9.9992895 
1.0550238e+3, 2.6514503e+2, -398156.13, -478085.06, 23504.117, 0.06451962, 0.103631474, -391756.78, -50169.11, 0.000000000012280949, 10.000065, 9.999019 
1.0550217e+3, 2.7514485e+2, -88458.74, -282081.38, 57143.313, -0.1483306, 0.15666938, -72852.14, 170739.42, 0.0000016155456, 10.001518, 9.998996 
1.05502e+3, 2.8514323e+2, 86100.03, -238822.03, -9593.574, -0.22701181, 0.14169133, 86383.05, 231988.89, 0.000025306648, 10.002443, 9.998174 
1.05501845e+3, 2.9513988e+2, 221573.2, -130314.805, 39927.39, -0.16906732, -0.038180675, 226046.73, 273679.7, 0.00013793015, 10.002732, 9.998104 
1.05501816e+3, 3.0513746e+2, 211929.5, -314213.72, 42401.79, -0.018097559, 0.008229341, 215324.75, 215324.75, 0.00040720604, 10.003236, 9.996255 
1.0550179e+3, 3.151354e+2, 391573.44, -27044.871, 22776.494, 0.12824214, 0.14113395, 392809.03, 392809.03, 0.00083313056, 10.003525, 9.998103 
1.0650375e+3, 1.2515025e+2, -1758239.9, -1630572.0, -62735.35, 0.1456506, 0.12837873, -1604904.6, 108635.32, 0.00047318285, 9.9991865, 10.000956 
1.0650365e+3, 1.3515152e+2, -1769411.0, -1621089.1, -2316.912, -0.114522874, 0.16596466, -1621052.9, -5525.1226, 0.00020250746, 9.99865, 10.000607 
1.06503665e+3, 1.4515182e+2, -1732906.1, -1649597.9, -30460.695, -0.19173792, 0.18880512, -1639648.6, -122123.08, 0.000042863663, 9.998608, 9.999758 
1.0650397e+3, 1.5515147e+2, -1540871.9, -1501568.0, -2596.2554, 0.077842474, 0.14233279, -1501397.3, -81867.33, 0.0000013547858, 9.999249, 9.999784 
1.0650394e+3, 1.65151e+2, -1407509.5, -1401059.8, -17102.121, 0.08500987, 0.12840474, -1386881.1, -65346.383, 0.0, 9.99955, 9.999662 
1.0650365e+3, 1.7515028e+2, -1312708.9, -1301563.5, -41220.152, -0.11950786, 0.06456208, -1265541.0, -41999.27, 0.0, 9.999522, 9.999686 
1.0650353e+3, 1.8515043e+2, -1168846.0, -1106946.8, -38695.516, -0.1382745, 0.08361454, -1088346.1, 37192.37, 0.0, 9.999498, 10.000358 
1.06503576e+3, 1.9515118e+2, -1072344.6, -1014943.1, -57274.83, 0.0075578615, 0.096880786, -979580.3, 47948.117, 0.0, 9.999503, 10.000318 
1.06503464e+3, 2.0515147e+2, -975724.94, -1008196.0, -83788.15, 0.027224625, 0.14013295, -906613.8, 22911.344, 0.0, 9.999906, 9.999491 
1.0650321e+3, 2.1515112e+2, -761238.8, -857693.44, -111383.85, -0.06571838, 0.13142459, -688089.7, 143440.75, 0.0, 10.000728, 9.9994545 
1.0650299e+3, 2.2515032e+2, -685460.8, -911214.25, -107202.55, -0.09004077, 0.17326671, -642666.25, 90874.81, 0.0, 10.001161, 9.998212 
1.0650283e+3, 2.351488e+2, -583490.3, -807879.6, -94078.6, -0.042435672, 0.17448248, -549266.3, 86293.1, 0.0, 10.001176, 9.998239 
1.065027e+3, 2.4514763e+2, -407670.84, -555079.5, -74920.77, 0.03035452, 0.18551129, -376277.8, 161291.73, 0.0, 10.00122, 9.999276 
1.0650256e+3, 2.551465e+2, -299502.13, -457219.28, -80339.29, 0.11915047, 0.11970061, -265785.94, 173788.84, 0.0, 10.001304, 9.99924 
1.0650244e+3, 2.6514557e+2, -240532.47, -405590.06, 26380.793, 0.0701905, 0.120836556, -236418.61, 105163.34, 0.0, 10.001152, 9.998994 
1.0650232e+3, 2.7514467e+2, -217256.23, -339068.6, -8393.846, -0.10242894, 0.099969685, -216680.55, 26911.887, 0.00000091217555, 10.000623, 9.999027 
1.06502235e+3, 2.8514317e+2, -82216.48, -263000.56, -68236.555, -0.15692021, 0.07094564, -59352.4, 86252.22, 0.000020761427, 10.001043, 9.998681 
1.06502175e+3, 2.951407e+2, 207807.67, -83761.29, -74506.1, -0.089915484, -0.06976949, 225743.3, 273365.84, 0.00012637535, 10.002392, 9.998592 
1.06502146e+3, 3.0513874e+2, 223346.19, -317267.22, -53249.49, 0.0009989922, 0.0009263822, 228541.23, 228541.23, 0.00038601994, 10.003344, 9.996177 
1.065021e+3, 3.1513706e+2, 417335.6, -8106.907, -85035.62, 0.080820404, 0.17793162, 433702.53, 433702.53, 0.0008001297, 10.003668, 9.998151 
1.0750358e+3, 1.2515049e+2, -1821904.9, -1761068.8, -104848.57, -0.0043699206, 0.22425514, -1682315.0, 31224.412, 0.00055371417, 9.9992, 10.000044 
1.075037e+3, 1.351493e+2, -1830282.8, -1740452.0, -18420.717, 0.048156224, 0.10122141, -1736821.4, -121268.125, 0.00024334127, 9.998631, 9.999791 
1.0750366e+3, 1.451497e+2, -1647360.9, -1477551.1, -25870.502, -0.09582648, 0.11098927, -1473697.3, 43851.855, 0.00005483326, 9.998617, 10.00094 
1.0750388e+3, 1.5515144e+2, -1455547.4, -1331024.6, 31299.85, 0.036306597, 0.1562206, -1323599.9, 95929.08, 0.000002073113, 9.9992695, 10.000949 
1.0750383e+3, 1.6515197e+2, -1430577.3, -1442911.0, -33045.41, -0.002169101, 0.19809638, -1403128.3, -81604.81, 0.0000000000166348, 9.999529, 9.999382 
1.0750356e+3, 1.7515104e+2, -1335187.0, -1342615.0, -31045.93, -0.17115241, 0.1397318, -1307633.8, -84099.414, 0.0, 9.999498, 9.999413 
1.0750343e+3, 1.8515068e+2, -1194198.4, -1141852.1, -51827.375, -0.20657182, 0.1313687, -1109964.0, 15572.433, 0.0, 9.999429, 10.00015 
1.0750342e+3, 1.9515057e+2, -1101145.5, -1048331.4, -46036.305, -0.12343927, 0.07837712, -1021666.06, 5867.2046, 0.0, 9.9994, 10.0001335 
1.07503384e+3, 2.051505e+2, -1022328.7, -1076387.5, -68223.39, -0.073933594, 0.115800425, -975975.44, -46441.08, 0.0, 9.999779, 9.999087 
1.0750331e+3, 2.1515025e+2, -809100.2, -920262.2, -69052.695, -0.05776615, 0.15504006, -776038.56, 55502.855, 0.0, 10.000567, 9.999103 
1.075032e+3, 2.2514975e+2, -665023.3, -828109.7, -117962.79, -0.025678588, 0.21180084, -603163.2, 130386.1, 0.0, 10.000988, 9.998866 
1.0750304e+3, 2.3514873e+2, -562964.75, -725633.6, -79438.7, 0.018875804, 0.19547984, -530607.5, 104953.19, 0.0, 10.001008, 9.998884 
1.0750282e+3, 2.451477e+2, -423040.2, -549505.56, -80777.6, 0.0024138556, 0.1834119, -383689.28, 153878.98, 0.0, 10.001061, 9.999388 
1.0750253e+3, 2.5514638e+2, -304427.72, -443575.1, -61697.605, -0.07565504, 0.08645265, -281011.66, 158563.16, 0.0, 10.0012, 9.99938 
1.0750243e+3, 2.65145e+2, -299204.8, -495047.7, -4751.016, -0.08000527, 0.05950705, -299089.63, 42496.734, 0.000000000031670343, 10.001019, 9.998445 
1.07502505e+3, 2.7514312e+2, -273197.03, -430708.16, -11092.341, -0.015599773, 0.0014145179, -272419.7, -28814.0, 0.00000057346807, 10.000517, 9.998453 
1.0750255e+3, 2.8514206e+2, -82354.95, -243671.84, -30057.06, 0.024895221, 0.036470413, -76936.625, 68678.66, 0.000016841232, 10.000961, 9.99885 
1.0750257e+3, 2.9514155e+2, 207147.94, -59448.31, -2766.3916, 0.037047066, 0.064319685, 207176.64, 254794.17, 0.000114238224, 10.002284, 9.998809 
1.07502475e+3, 3.051396e+2, 234453.73, -282296.13, -43088.652, -0.044129673, 0.11375009, 238022.0, 238022.0, 0.0003625103, 10.00329, 9.996447 
1.0750221e+3, 3.1513646e+2, 412443.72, 15868.381, -25276.09, -0.23524982, 0.11790089, 414048.25, 414048.25, 0.00076317973, 10.003514, 9.998399 
1.08503506e+3, 1.2514988e+2, -1747459.3, -1746578.9, -38753.38, -0.014930859, 0.20263961, -1708263.3, 5282.042, 0.00064071716, 9.999783, 9.999875 
1.08503714e+3, 1.3514876e+2, -1784564.9, -1731382.9, 29528.293, 0.1871783, 0.095846884, -1718237.3, -102678.61, 0.00028839763, 9.9989805, 9.999695 
1.0850358e+3, 1.4514919e+2, -1648968.0, -1468360.3, 82804.94, -0.031655297, 0.11465197, -1436142.9, 81411.11, 0.00006873226, 9.998602, 10.000987 
1.0850378e+3, 1.5515094e+2, -1502493.3, -1350441.9, 16789.217, 0.028174514, 0.15608463, -1348610.0, 70924.1, 0.0000030594845, 9.99895, 10.000959 
1.08503744e+3, 1.651516e+2, -1481139.5, -1455491.4, -70189.945, -0.016830418, 0.2055034, -1396963.6, -75436.82, 0.000000000186287, 9.999133, 9.999481 
1.0850351e+3, 1.75151e+2, -1376772.5, -1354821.3, -67420.48, -0.146345, 0.17103711, -1297488.9, -73955.29, 0.0, 9.99918, 9.999478 
1.08503394e+3, 1.8515025e+2, -1211230.6, -1188959.3, -46235.848, -0.18002917, 0.1375169, -1152537.0, -26997.785, 0.0, 9.999478, 9.999807 
1.0850338e+3, 1.9514912e+2, -1043802.1, -1058294.4, -78144.086, -0.1269372, 0.018865623, -972568.94, 54976.953, 0.0, 9.999965, 9.999795 
1.0850336e+3, 2.0514889e+2, -961530.9, -1047537.3, -59282.895, -0.08055194, 0.05838304, -931296.56, -1747.7997, 0.0, 10.000204, 9.999074 
1.0850336e+3, 2.151492e+2, -861648.06, -952518.25, -61398.5, -0.044820935, 0.15447007, -830701.75, 849.6506, 0.0, 10.00023, 9.999046 
1.0850326e+3, 2.2514895e+2, -744821.75, -808414.2, -94555.01, -0.008900202, 0.21405664, -676860.0, 56696.516, 0.0, 10.000206, 9.999374 
1.085031e+3, 2.3514795e+2, -645810.8, -709722.8, -98872.64, 0.026003586, 0.1527755, -573858.3, 61707.742, 0.0, 10.000209, 9.999377 
1.08502895e+3, 2.4514712e+2, -493221.16, -590442.56, -74186.4, 0.00075293623, 0.13935733, -453137.88, 84433.74, 0.0, 10.000593, 9.999347 
1.08502634e+3, 2.5514624e+2, -305925.2, -450000.97, -91360.01, -0.078555316, 0.089352965, -261618.28, 177957.52, 0.0, 10.001212, 9.999339 
1.0850257e+3, 2.651447e+2, -201313.06, -472985.16, -16056.794, -0.08322317, 0.068163045, -200367.34, 141221.06, 0.000000020287489, 10.00181, 9.998205 
1.08502634e+3, 2.751423e+2, -19593.176, -337038.38, -29819.742, -0.016711546, -0.022215804, -16816.299, 226795.9, 0.0000009682407, 10.002386, 9.99819 
1.0850271e+3, 2.851411e+2, 106116.11, -192600.11, -16162.198, 0.023208942, 0.029818362, 106988.03, 252612.34, 0.000016002106, 10.002422, 9.998496 
1.0850278e+3, 2.9514086e+2, 111551.14, -139133.89, -64459.78, 0.049419623, 0.12058536, 127154.75, 174781.81, 0.00010691048, 10.001774, 9.998504 
1.08502746e+3, 3.0513877e+2, 144186.81, -288448.3, -63213.48, -0.04744449, 0.15539347, 153233.92, 153233.92, 0.00034615427, 10.002536, 9.996773 
1.0850261e+3, 3.1513557e+2, 572760.9, 131506.67, -93202.41, -0.21908627, 0.12570587, 591639.5, 591639.5, 0.0007399488, 10.004494, 9.998718 
1.0950353e+3, 1.2514833e+2, -1700971.4, -1652091.4, -43629.742, -0.02670717, 0.046111315, -1626522.8, 87035.555, 0.000734217, 9.999782, 10.000526 
1.09503634e+3, 1.351501e+2, -1726886.1, -1623908.0, 4756.814, 0.19041309, 0.14881542, -1623688.8, -8147.2705, 0.00033773432, 9.99902, 10.000417 
1.0950338e+3, 1.451505e+2, -1736156.1, -1648085.6, 80600.625, -0.11674297, 0.19078933, -1600275.6, -82736.87, 0.0000845864, 9.998601, 9.999752 
1.0950363e+3, 1.5514998e+2, -1591987.3, -1526829.9, 43593.207, -0.04731795, 0.13140194, -1504986.8, -85441.65, 0.0000043925156, 9.99892, 9.99976 
1.0950365e+3, 1.6515002e+2, -1449279.3, -1392041.6, -83751.63, -0.062485736, 0.15502162, -1332154.1, -10610.088, 0.0000000006358386, 9.999138, 9.999919 
1.0950347e+3, 1.7515019e+2, -1342704.0, -1290274.0, -53807.145, -0.14619039, 0.1533101, -1256635.6, -33096.184, 0.0, 9.999196, 9.999916 
1.09503396e+3, 1.8514924e+2, -1253005.0, -1265187.6, -42674.086, -0.16253974, 0.10371377, -1215989.8, -90443.93, 0.0, 9.999435, 9.999303 
1.0950342e+3, 1.9514698e+2, -1091935.8, -1135014.5, -46537.402, -0.106373295, -0.07896373, -1062194.8, -34629.97, 0.0, 9.999867, 9.999312 
1.09503396e+3, 2.0514667e+2, -955544.6, -1013060.4, -72486.16, -0.093892634, -0.038926635, -906320.06, 23248.55, 0.0, 10.000101, 9.999365 
1.0950332e+3, 2.1514796e+2, -862335.1, -918062.0, -49802.98, -0.122957766, 0.12888587, -833131.0, -1570.6664, 0.0, 10.0000725, 9.999361 
1.0950317e+3, 2.2514793e+2, -754759.06, -788285.25, -107508.03, -0.1367229, 0.18324006, -662715.06, 70847.16, 0.0, 10.0000305, 9.999596 
1.0950298e+3, 2.3514633e+2, -655130.06, -690591.0, -86134.664, -0.13135633, 0.035749197, -584919.94, 50656.906, 0.0, 10.000042, 9.999588 
1.0950288e+3, 2.451458e+2, -527778.1, -625347.06, -62735.566, -0.08422102, 0.04951662, -497091.38, 40489.484, 0.0, 10.000435, 9.999183 
1.0950287e+3, 2.5514606e+2, -334382.63, -481129.5, -53745.223, 0.0046969615, 0.12725118, -316804.38, 122772.74, 0.0, 10.001089, 9.999186 
1.0950281e+3, 2.6514488e+2, -219859.25, -480627.5, -2661.8745, -0.04034398, 0.15134345, -219832.08, 121754.56, 0.00000010014453, 10.001677, 9.998219 
1.09502696e+3, 2.7514216e+2, -30920.531, -341560.56, 12319.428, -0.21934755, 0.02716708, -30432.732, 213179.06, 0.0000018117424, 10.002296, 9.998208 
1.0950269e+3, 2.8514007e+2, 25968.547, -336697.28, -52393.48, -0.26968107, 0.036919586, 33386.004, 179019.6, 0.000017402066, 10.00233, 9.997549 
1.09502755e+3, 2.951384e+2, 30535.125, -286692.84, -70791.984, -0.18343052, 0.07660824, 45615.99, 93270.11, 0.00010435712, 10.001684, 9.997535 
1.0950294e+3, 3.0513617e+2, 158107.69, -244608.83, 2122.9814, -0.13655473, 0.12838152, 158118.88, 158118.88, 0.00033796718, 10.002466, 9.997109 
1.0950323e+3, 3.1513423e+2, 573501.44, 153173.9, 20795.344, -0.10867728, 0.19607201, 574527.8, 574527.8, 0.00073106954, 10.004383, 9.998934 
1.1050344e+3, 1.2514788e+2, -1851888.1, -1729121.1, 20465.94, -0.03144594, 0.038538028, -1725799.3, -12237.576, 0.00083503575, 9.998782, 10.000454 
1.10503554e+3, 1.3514985e+2, -1728092.9, -1630047.0, -106880.734, 0.20665044, 0.16081676, -1561482.8, 54060.8, 0.0003918232, 9.999029, 10.000364 
1.1050331e+3, 1.4514999e+2, -1654170.9, -1635728.9, 33523.953, -0.0828728, 0.18859364, -1610180.9, -92637.39, 0.000102570426, 9.999258, 9.999534 
1.1050354e+3, 1.5514922e+2, -1499339.3, -1509558.5, 48766.438, -0.05302376, 0.12601249, -1455415.5, -35863.14, 0.0000061708192, 9.999652, 9.999535 
1.1050359e+3, 1.6514894e+2, -1347260.9, -1349062.5, -40361.0, -0.062255464, 0.13441248, -1307790.6, 13763.044, 0.0000000015512864, 9.99988, 9.999849 
1.1050348e+3, 1.7514889e+2, -1221406.9, -1237155.6, -78972.49, -0.08913761, 0.11542759, -1149917.1, 73633.35, 0.0, 10.000072, 9.999851 
1.1050343e+3, 1.8514797e+2, -1163799.3, -1269420.6, -54205.438, -0.09319788, 0.09287268, -1140931.6, -15373.875, 0.0, 10.000265, 9.998865 
1.1050346e+3, 1.951459e+2, -1036986.7, -1153920.8, -79759.09, -0.07742217, -0.027921554, -996560.3, 31017.494, 0.0, 10.000453, 9.998891 
1.1050342e+3, 2.0514548e+2, -923487.4, -975724.4, -100736.76, -0.07651894, 0.010856984, -845538.25, 84044.85, 0.0, 10.00023, 9.999562 
1.1050333e+3, 2.1514636e+2, -904749.8, -914388.8, -113006.86, -0.08989019, 0.119431056, -796459.75, 35116.863, 0.0, 9.999679, 9.999576 
1.10503174e+3, 2.2514631e+2, -771907.2, -783726.94, -127310.08, -0.11985268, 0.15396112, -650369.9, 83207.414, 0.0, 9.999852, 9.999713 
1.1050298e+3, 2.3514506e+2, -552076.56, -629177.44, -136452.83, -0.16141595, 0.031975586, -448833.1, 186754.56, 0.0, 10.000696, 9.999696 
1.1050294e+3, 2.4514455e+2, -428231.63, -609945.6, -94826.83, -0.108342044, 0.058031395, -387760.3, 149831.98, 0.0, 10.001278, 9.998866 
1.10503025e+3, 2.5514448e+2, -276627.56, -485486.7, -131218.39, 0.035481077, 0.13582121, -213355.6, 226238.23, 0.0, 10.001644, 9.998871 
1.10503e+3, 2.6514333e+2, -245954.23, -479996.66, -81270.34, 0.013514619, 0.16929555, -220501.47, 121102.34, 0.00000018749917, 10.001424, 9.998352 
1.1050289e+3, 2.75141e+2, -275977.94, -444450.22, -84418.8, -0.16236481, 0.06910672, -240956.95, 2667.4595, 0.0000025365616, 10.000546, 9.998345 
1.1050287e+3, 2.851387e+2, -196871.34, -486717.53, -68437.19, -0.24390814, 0.073225096, -181524.81, -35876.848, 0.000019295574, 10.000995, 9.997162 
1.1050294e+3, 2.9513633e+2, 139162.67, -275119.63, -76632.83, -0.21144962, 0.08323036, 152883.56, 200559.73, 0.00010487227, 10.002625, 9.997155 
1.1050316e+3, 3.0513364e+2, 251064.33, -156541.42, 45258.504, -0.16594854, 0.09055365, 256029.13, 256029.13, 0.00033641586, 10.002889, 9.997512 
1.10503614e+3, 3.1513157e+2, 184659.22, 27191.936, 24050.535, -0.007978401, 0.09133588, 188250.63, 188250.63, 0.00073074934, 10.001459, 9.999451 
1.1150322e+3, 1.2514876e+2, -1915292.4, -1853324.3, 61005.867, -0.19097403, 0.16049747, -1815885.3, -102331.72, 0.000944546, 9.998769, 9.99961 
1.11503415e+3, 1.3514821e+2, -1797723.6, -1772005.9, -86521.6, 0.14775543, 0.1384455, -1697392.8, -81829.84, 0.00045159098, 9.999022, 9.999399 
1.1150331e+3, 1.4514783e+2, -1592120.4, -1506559.3, 29999.986, -0.045195624, 0.11727476, -1497088.8, 20478.344, 0.00012308804, 9.999257, 10.00042 
1.1150349e+3, 1.5514885e+2, -1439193.4, -1386833.5, 74850.07, -0.10033963, 0.1457174, -1333717.0, 85836.836, 0.000008505592, 9.999661, 10.000373 
1.1150354e+3, 1.6514863e+2, -1390819.1, -1440038.9, -50536.9, -0.12730344, 0.15055642, -1359218.5, -37664.836, 0.0000000033697685, 9.999874, 9.999234 
1.1150353e+3, 1.7514718e+2, -1263815.8, -1326561.8, -60690.523, -0.07847363, 0.055717237, -1226868.9, -3302.5322, 0.0, 10.000066, 9.999249 
1.11503504e+3, 1.8514639e+2, -1195679.0, -1326106.5, -61800.82, -0.0814786, 0.09632797, -1171047.5, -45471.92, 0.0, 10.000227, 9.998495 
1.1150345e+3, 1.9514596e+2, -1080489.9, -1216512.8, -62909.99, -0.14461009, 0.17830645, -1055855.6, -28271.547, 0.0, 10.00034, 9.998515 
1.1150341e+3, 2.0514539e+2, -929531.7, -968036.7, -139118.6, -0.13561957, 0.21580106, -808339.75, 121251.63, 0.0, 10.000134, 9.9996605 
1.11503355e+3, 2.151443e+2, -923645.2, -916583.2, -120387.23, -0.05527815, 0.114185944, -799675.2, 31925.627, 0.0, 9.999514, 9.999642 
1.11503236e+3, 2.2514401e+2, -792044.0, -786774.9, -106818.58, -0.06971839, 0.120880425, -682558.4, 51043.637, 0.0, 9.999691, 9.999767 
1.11503065e+3, 2.3514427e+2, -571777.94, -632455.8, -90968.29, -0.1629429, 0.14426889, -506222.78, 129374.52, 0.0, 10.000537, 9.999751 
1.1150303e+3, 2.4514344e+2, -490288.44, -704082.1, -91653.96, -0.17329305, 0.16565736, -456375.56, 81229.625, 0.0, 10.001128, 9.998292 
1.1150308e+3, 2.5514135e+2, -335801.28, -579631.0, -103251.055, -0.100594014, 0.09739326, -297953.75, 141673.67, 0.0, 10.00152, 9.998283 
1.11503124e+3, 2.6513985e+2, -244216.22, -451003.34, -126960.51, -0.032413974, 0.11127547, -183874.63, 157766.98, 0.00000020790911, 10.001315, 9.998601 
1.1150316e+3, 2.7513868e+2, -271489.6, -412573.25, -100227.03, 0.028913945, 0.10004668, -219468.77, 24182.219, 0.0000030041283, 10.000446, 9.998611 
1.1150322e+3, 2.851371e+2, -201934.44, -469566.38, -17773.045, -0.015469656, 0.14936748, -200759.31, -55092.594, 0.000021785861, 10.000881, 9.997333 
1.1150328e+3, 2.9513472e+2, 137966.23, -256963.58, 6817.8813, -0.16247529, 0.14752193, 138083.89, 185775.75, 0.00010887074, 10.002537, 9.997324 
1.1150341e+3, 3.0513123e+2, 269412.78, -101939.41, -14703.454, -0.2430466, 0.042297017, 269994.06, 269994.06, 0.00034133886, 10.002821, 9.997919 
1.11503676e+3, 3.151271e+2, 195848.05, 81071.984, 14729.052, -0.15746446, -0.20123091, 197708.06, 197708.06, 0.0007374856, 10.00132, 9.999892 
1.1250321e+3, 1.2514792e+2, -1777499.8, -1795875.0, 80334.75, -0.11568174, 0.18707141, -1705828.9, 7733.5176, 0.0010643419, 9.999758, 9.999534 
1.12503245e+3, 1.3514693e+2, -1711084.0, -1752039.3, -91592.83, 0.043383297, 0.14353131, -1637707.6, -22131.734, 0.00051804923, 9.99973, 9.99919 
1.1250326e+3, 1.4514634e+2, -1556538.6, -1501841.1, 58177.605, -0.027005069, 0.117565095, -1464904.6, 52677.344, 0.00014661087, 9.999556, 10.000305 
1.1250349e+3, 1.5514743e+2, -1480768.8, -1418273.5, -5887.851, -0.038266387, 0.15972672, -1417723.6, 1845.1351, 0.00001150662, 9.999432, 10.000263 
1.12503566e+3, 1.6514716e+2, -1441136.5, -1458500.8, -103683.51, -0.061514348, 0.1615177, -1345772.3, -24203.129, 0.0000000061074554, 9.999494, 9.999293 
1.1250353e+3, 1.7514548e+2, -1291963.8, -1327859.3, -86609.33, -0.06152838, 0.036130253, -1221462.1, 2121.223, 0.0, 9.999822, 9.999353 
1.12503506e+3, 1.8514504e+2, -1202856.6, -1283376.9, -11594.679, -0.08163609, 0.08266702, -1201220.3, -75631.49, 0.0, 9.999967, 9.998918 
1.1250348e+3, 1.951454e+2, -1096394.1, -1185211.6, 22489.102, -0.13432543, 0.19898367, -1091024.4, -63434.895, 0.0, 10.000022, 9.998901 
1.1250343e+3, 2.0514491e+2, -929573.44, -972657.1, -12523.059, -0.12139788, 0.23119558, -926197.8, 3397.3933, 0.0, 10.000179, 9.999598 
1.1250337e+3, 2.1514332e+2, -773674.0, -843871.1, -36887.88, -0.03876144, 0.08547594, -757854.75, 73753.91, 0.0, 10.000567, 9.999619 
1.1250328e+3, 2.2514278e+2, -647670.44, -761153.8, 4790.609, -0.045662373, 0.08542209, -647468.6, 86143.95, 0.0, 10.000859, 9.999386 
1.12503186e+3, 2.3514305e+2, -510259.8, -642156.06, -36917.332, -0.12884551, 0.147522, -500629.88, 134979.03, 0.0, 10.001121, 9.9994 
1.1250317e+3, 2.4514201e+2, -502252.72, -726612.75, -29434.658, -0.12973176, 0.17140256, -498455.34, 39163.99, 0.0, 10.001123, 9.998143 
1.12503245e+3, 2.551395e+2, -436720.84, -646918.4, -31911.258, -0.04842405, 0.081435435, -431983.0, 7662.256, 0.0, 10.000912, 9.998123 
1.12503305e+3, 2.651377e+2, -274581.44, -515918.5, -40940.543, 0.025443861, 0.09551431, -267825.4, 73838.32, 0.00000016860811, 10.001341, 9.998138 
1.1250336e+3, 2.7513623e+2, -19469.33, -342472.88, -102018.63, 0.08986298, 0.10551333, 10054.089, 253732.39, 0.0000038179373, 10.002412, 9.99814 
1.12503454e+3, 2.8513473e+2, 69106.95, -307186.94, -1711.7437, 0.059928402, 0.17438824, 69114.74, 214807.86, 0.000026510976, 10.0025835, 9.997637 
1.125036e+3, 2.9513296e+2, 49477.656, -261410.86, 347.10617, -0.056097656, 0.19648318, 49478.043, 97188.65, 0.00011807009, 10.00176, 9.997666 
1.1250368e+3, 3.0512983e+2, 51536.914, -209029.06, -48089.473, -0.16827513, 0.111832365, 60128.887, 60128.887, 0.0003550206, 10.001362, 9.99788 
1.12503834e+3, 3.1512573e+2, 155933.69, 50676.12, -101508.5, -0.10299401, -0.116515115, 217645.47, 217645.47, 0.0007557831, 10.001095, 9.999803 
1.13503285e+3, 1.251457e+2, -1726146.0, -1691141.8, 46516.77, -0.07423931, 0.14305362, -1658943.5, 54641.953, 0.0011953667, 9.999774, 10.000241 
1.13502964e+3, 1.3514607e+2, -1666452.3, -1655729.4, -84259.625, -0.23800269, 0.16802195, -1576660.8, 38921.047, 0.00059164723, 9.999718, 9.999856 
1.1350313e+3, 1.4514574e+2, -1631434.5, -1657858.5, 37243.73, -0.15306513, 0.18573236, -1605128.8, -87542.06, 0.00017336896, 9.9995575, 9.999237 
1.1350354e+3, 1.5514514e+2, -1553135.9, -1569847.8, 3620.081, 0.028994005, 0.17312427, -1552385.4, -132790.16, 0.000015247707, 9.999435, 9.999224 
1.1350363e+3, 1.6514467e+2, -1385800.4, -1346597.9, -106367.65, 0.013726906, 0.16640611, -1258040.5, 63557.945, 0.000000009421829, 9.999503, 10.000056 
1.13503456e+3, 1.7514402e+2, -1239351.1, -1218876.1, -65049.563, -0.14943643, 0.06556581, -1163263.5, 60336.08, 0.0, 9.999823, 10.0001 
1.13503404e+3, 1.8514399e+2, -1115671.1, -1100841.6, -26870.56, -0.20079874, 0.054608233, -1080381.6, 45215.066, 0.0, 9.999952, 10.000181 
1.1350348e+3, 1.951443e+2, -1025592.5, -1012403.5, 32994.805, -0.15841447, 0.0396043, -985350.6, 42242.246, 0.0, 9.999907, 10.000146 
1.13503456e+3, 2.051442e+2, -967684.8, -1027721.7, -14688.976, -0.13955866, 0.065321065, -964283.56, -34690.426, 0.0, 10.000071, 9.999276 
1.13503344e+3, 2.1514347e+2, -822077.9, -904051.44, -13577.334, -0.13368832, 0.03909494, -819887.56, 11712.019, 0.0, 10.000392, 9.999294 
1.13503285e+3, 2.251426e+2, -724186.75, -880988.2, -1811.9467, -0.14495946, 0.059626292, -724165.8, 9442.984, 0.0, 10.000688, 9.998646 
1.1350327e+3, 2.351413e+2, -590040.56, -767253.0, -15098.322, -0.16978103, 0.038636737, -588763.4, 46859.754, 0.0, 10.000944, 9.998629 
1.13503344e+3, 2.4514017e+2, -504246.72, -698476.8, -50937.242, -0.09541055, 0.07886824, -491698.94, 45936.242, 0.0, 10.000982, 9.998404 
1.1350349e+3, 2.55139e+2, -434928.44, -615398.25, -26656.57, 0.08630147, 0.09211901, -431073.44, 8573.24, 0.0, 10.00079, 9.998398 
1.1350353e+3, 2.6513693e+2, -373029.44, -702704.8, -9323.556, 0.0862753, 0.12708241, -372765.97, -31096.59, 0.00000020663475, 10.001258, 9.996901 
1.13503456e+3, 2.7513364e+2, -121326.54, -534986.94, -43932.203, -0.088822074, 0.080815114, -116712.26, 126994.36, 0.0000055002247, 10.002324, 9.996866 
1.1350355e+3, 2.851316e+2, 82046.36, -253649.33, -46620.598, -0.13031119, 0.13854198, 88400.64, 234128.98, 0.000033703815, 10.0024805, 9.998046 
1.13503836e+3, 2.951307e+2, 59441.668, -211223.02, -13551.617, -0.031530418, 0.20661752, 60118.477, 107854.25, 0.00013271971, 10.001635, 9.998069 
1.1350394e+3, 3.051292e+2, -919.179, -286784.13, -65710.78, -0.0644981, 0.2904466, 13462.042, 13462.042, 0.00037893685, 10.001232, 9.997408 
1.13504015e+3, 3.151273e+2, 95537.17, -36273.766, -72688.55, -0.08854107, 0.33045608, 127749.77, 127749.77, 0.0007912106, 10.000937, 9.999277 
1.1450322e+3, 1.2514344e+2, -2033172.6, -1791419.0, 60289.48, 0.018525317, 0.1407485, -1777217.9, -63609.91, 0.0013373722, 9.997431, 10.000696 
1.14502914e+3, 1.3514395e+2, -1591844.4, -1563481.3, -90389.89, -0.2503498, 0.12163644, -1486167.1, 129433.8, 0.000672049, 9.999943, 10.0004 
1.14503235e+3, 1.4514408e+2, -1476820.5, -1603511.5, 31936.678, -0.045421105, 0.16731839, -1469225.1, 48376.082, 0.0002032588, 10.000719, 9.999044 
1.1450349e+3, 1.5514338e+2, -1489082.9, -1560259.9, 27419.725, 0.015625913, 0.16869427, -1479744.9, -60132.395, 0.000019742625, 9.999979, 9.999025 
1.1450356e+3, 1.6514304e+2, -1315609.9, -1292881.9, -11845.829, -0.011319583, 0.17692575, -1287830.5, 33784.938, 0.000000013934886, 9.999913, 10.000222 
1.1450354e+3, 1.7514274e+2, -1116821.9, -1142751.3, -38327.266, -0.08136274, 0.09379182, -1089325.9, 134287.16, 0.0, 10.000592, 10.00025 
1.1450352e+3, 1.851427e+2, -1040983.9, -1069457.6, -79021.125, -0.106922954, 0.07888985, -974927.4, 150683.05, 0.0, 10.0005, 10.000127 
1.145035e+3, 1.9514276e+2, -1057646.8, -1023588.2, -146607.13, -0.11166061, 0.04432824, -893024.6, 134584.78, 0.0, 9.999706, 10.000147 
1.1450346e+3, 2.0514272e+2, -1015469.25, -1039990.8, -164600.11, -0.113403805, 0.06863691, -862673.9, 66934.97, 0.0, 9.9996805, 9.999387 
1.1450342e+3, 2.1514231e+2, -815963.7, -891808.06, -153821.72, -0.09923405, 0.06124473, -695458.56, 136152.7, 0.0, 10.000372, 9.999399 
1.1450338e+3, 2.2514135e+2, -749215.0, -913663.8, -97534.37, -0.10684963, 0.07889519, -703870.56, 29750.598, 0.0, 10.000617, 9.998451 
1.1450337e+3, 2.3513961e+2, -669876.9, -822313.94, -98116.57, -0.139251, 0.032999687, -621853.25, 13787.351, 0.0, 10.000476, 9.998472 
1.14503466e+3, 2.4513844e+2, -508977.28, -688579.2, -82046.97, -0.052080464, 0.072876826, -477139.75, 60513.27, 0.0, 10.00089, 9.998519 
1.1450369e+3, 2.5513762e+2, -268029.56, -517000.13, -95266.305, 0.15720186, 0.11026512, -235759.45, 203901.33, 0.0, 10.0018635, 9.99855 
1.14503734e+3, 2.651358e+2, -255311.13, -643003.7, -15358.55, 0.13360123, 0.15804996, -254703.64, 86977.37, 0.00000038376965, 10.00204, 9.99694 
1.14503615e+3, 2.7513266e+2, -240990.14, -585929.25, 22464.545, -0.11074091, 0.121263355, -239533.27, 4183.08, 0.0000075917305, 10.001466, 9.996932 
1.1450373e+3, 2.851302e+2, -83637.88, -366488.2, 60638.207, -0.14797783, 0.14829259, -71186.25, 74555.9, 0.000041535674, 10.001487, 9.99775 
1.1450408e+3, 2.9512835e+2, 87273.32, -230839.44, 7963.779, 0.040448826, 0.15506259, 87472.56, 135231.55, 0.00014998692, 10.001971, 9.997772 
1.1450415e+3, 3.0512705e+2, 94198.8, -279827.1, -44465.49, -0.00016585726, 0.28782845, 99412.336, 99412.336, 0.00040887797, 10.002012, 9.997091 
1.14504136e+3, 3.151261e+2, 124497.54, -61617.816, -90051.516, -0.0713488, 0.44545075, 160935.06, 160935.06, 0.0008407425, 10.001299, 9.998924 
1.155028e+3, 1.2514085e+2, -2020750.8, -1766064.3, 33563.496, -0.21325794, 0.13542177, -1761715.4, -48082.19, 0.001489488, 9.997428, 10.000872 
1.1550309e+3, 1.3514079e+2, -1556152.3, -1489667.3, 14963.397, -0.11048959, 0.01182746, -1486454.8, 129176.06, 0.00075867696, 9.999949, 10.000896 
1.1550355e+3, 1.4514148e+2, -1434289.0, -1525789.5, -12518.441, 0.16507147, 0.062565714, -1432607.3, 85017.01, 0.0002361324, 10.000747, 9.999574 
1.15503296e+3, 1.5514222e+2, -1444502.5, -1477223.5, 9927.261, -0.19893742, 0.14664984, -1441726.3, -22105.88, 0.000024990082, 10.000008, 9.999585 
1.1550335e+3, 1.6514231e+2, -1338828.1, -1343966.8, -2326.681, -0.2565974, 0.18943532, -1337931.1, -16311.577, 0.000000023716384, 9.999927, 9.999864 
1.1550375e+3, 1.7514169e+2, -1147397.0, -1198588.8, -2331.4421, 0.03746133, 0.11207143, -1147291.0, 76332.38, 0.0, 10.0005665, 9.999873 
1.15503795e+3, 1.8514134e+2, -1149457.1, -1287152.8, -124197.69, 0.08907013, 0.15723574, -1076301.1, 49327.31, 0.0, 10.000464, 9.998651 
1.15503505e+3, 1.951409e+2, -1168627.0, -1237467.1, -166654.42, -0.111754104, 0.21592802, -1032875.25, -5237.2593, 0.0, 9.99963, 9.998716 
1.1550341e+3, 2.0514049e+2, -986938.06, -955662.06, -157100.63, -0.15567912, 0.24229221, -813423.06, 116218.86, 0.0, 9.999566, 10.000023 
1.1550353e+3, 2.1513984e+2, -796368.2, -814523.1, -116703.77, -0.042518053, 0.14626399, -688389.4, 143253.84, 0.0, 10.000204, 10.000014 
1.1550354e+3, 2.2513905e+2, -754042.9, -884099.9, -115118.09, -0.035958115, 0.13860449, -686856.06, 46792.8, 0.0, 10.000448, 9.998735 
1.15503445e+3, 2.3513795e+2, -672580.6, -793016.5, -90621.336, -0.13518538, 0.1262886, -623994.0, 11666.851, 0.0, 10.000327, 9.998746 
1.1550354e+3, 2.4513681e+2, -531682.6, -699697.56, -61565.492, -0.09613572, 0.15457287, -511538.44, 26134.807, 0.0, 10.000733, 9.998517 
1.1550381e+3, 2.5513542e+2, -291433.7, -531511.94, -48574.3, 0.06619712, 0.13449273, -281978.22, 157709.56, 0.0, 10.001712, 9.998524 
1.1550389e+3, 2.6513427e+2, -181253.23, -458052.9, -49797.93, 0.06510612, 0.18720448, -172566.88, 169132.13, 0.0000005356376, 10.001907, 9.998271 
1.15503795e+3, 2.751331e+2, -160596.05, -391738.28, 16339.742, -0.0984551, 0.21156383, -159446.69, 84262.836, 0.000008957139, 10.0013485, 9.99832 
1.15503944e+3, 2.8513053e+2, -164255.61, -509156.22, 68618.4, -0.10580582, 0.19895925, -151105.3, -5370.3447, 0.000047577858, 10.001379, 9.996824 
1.15504295e+3, 2.9512614e+2, 8677.196, -383699.47, 49314.848, 0.031426083, 0.04720227, 14780.277, 62558.816, 0.00016516355, 10.001914, 9.996758 
1.1550427e+3, 3.0512342e+2, 51527.973, -335311.34, -78166.86, -0.101760626, 0.110017486, 66725.72, 66725.72, 0.00043857994, 10.001881, 9.996764 
1.15504086e+3, 3.1512165e+2, 74256.45, -133276.95, -70757.92, -0.31021976, 0.2130376, 96085.19, 96085.19, 0.0008950193, 10.001153, 9.998501 
1.1650271e+3, 1.2513885e+2, -1755162.0, -1679468.3, 62789.48, -0.13095991, 0.14799495, -1644001.4, 69650.44, 0.0016512593, 9.999444, 10.000485 
1.1650309e+3, 1.3513875e+2, -1645160.5, -1552137.1, 26037.867, -0.072002254, 0.045998704, -1545344.9, 70307.805, 0.0008513687, 9.999458, 10.000695 
1.1650361e+3, 1.4513947e+2, -1567502.0, -1534819.3, -53094.844, 0.21212408, 0.08542763, -1495607.9, 22037.809, 0.00027198074, 9.999598, 10.000061 
1.1650332e+3, 1.5514034e+2, -1439079.3, -1424584.8, -67311.875, -0.16848652, 0.13434872, -1364131.1, 55506.363, 0.00003101119, 9.9998255, 10.000033 
1.1650334e+3, 1.6514055e+2, -1370801.8, -1388862.1, -36097.12, -0.2345082, 0.17988518, -1342622.5, -20986.475, 0.00000004774233, 9.999837, 9.9996 
1.1650376e+3, 1.7513998e+2, -1287036.9, -1299873.0, -59320.46, 0.05166203, 0.1390151, -1233788.3, -10145.677, 0.0, 9.999743, 9.999588 
1.1650384e+3, 1.8513952e+2, -1203628.5, -1320752.5, -107369.53, 0.114208095, 0.19199607, -1139888.8, -14239.251, 0.0, 10.000119, 9.998587 
1.1650357e+3, 1.9513895e+2, -974575.7, -1154295.0, -70235.66, -0.06986903, 0.24421935, -950383.56, 77275.516, 0.0, 10.000999, 9.9986315 
1.1650349e+3, 2.0513828e+2, -791346.75, -902164.0, -23653.836, -0.096738346, 0.26921028, -786509.06, 143157.06, 0.0, 10.001098, 9.99964 
1.16503626e+3, 2.1513735e+2, -784201.94, -843239.3, -92668.375, 0.029967949, 0.17953967, -716464.4, 115208.22, 0.0, 10.000459, 9.999679 
1.1650366e+3, 2.2513661e+2, -722019.06, -833584.8, -88337.19, 0.042510133, 0.17592996, -673326.1, 60351.633, 0.0, 10.000518, 9.999047 
1.16503604e+3, 2.3513576e+2, -521303.1, -685914.2, -83746.75, -0.049910583, 0.15827596, -486187.5, 149497.55, 0.0, 10.001219, 9.999054 
1.1650366e+3, 2.4513474e+2, -471070.97, -670782.3, -34595.152, -0.0522862, 0.18399464, -465247.97, 72447.34, 0.0, 10.001144, 9.998517 
1.1650386e+3, 2.5513342e+2, -493645.56, -630793.56, -47914.453, 0.024093982, 0.1688103, -478564.38, -38854.434, 0.0, 10.000317, 9.998518 
1.1650398e+3, 2.651324e+2, -364587.13, -497797.16, -52992.06, 0.039814804, 0.2130709, -346078.2, -4358.534, 0.00000056359414, 10.000448, 9.9986925 
1.1650403e+3, 2.7513146e+2, -116222.04, -324611.34, -89093.2, 0.0023163748, 0.22293669, -83325.02, 160401.72, 0.00000928475, 10.0014715, 9.998718 
1.16504215e+3, 2.851292e+2, -64484.69, -433675.7, -5089.306, 0.0025107376, 0.21022947, -64414.55, 81333.93, 0.000050789153, 10.001937, 9.997074 
1.1650449e+3, 2.951253e+2, 10908.11, -348660.72, 32704.348, 0.040762965, 0.08036005, 13858.504, 61645.5, 0.00017624088, 10.001796, 9.997046 
1.1650443e+3, 3.0512258e+2, 80530.04, -300444.34, -7032.792, -0.12472496, 0.11686703, 80659.82, 80659.82, 0.0004642717, 10.001987, 9.996961 
1.165043e+3, 3.1511986e+2, 207245.33, -61494.7, 1383.8198, -0.24149038, 0.11426357, 207252.45, 207252.45, 0.0009430786, 10.002037, 9.998579 
1.1750276e+3, 1.251369e+2, -1825318.3, -1817919.1, -35616.668, -0.08960842, 0.10447839, -1785810.5, -72140.99, 0.0018234614, 9.999426, 9.999544 
1.17502905e+3, 1.3513793e+2, -1710215.8, -1694640.8, 38783.605, -0.22542945, 0.21881668, -1662870.5, -47204.934, 0.0009506097, 9.999492, 9.999703 
1.1750337e+3, 1.4513814e+2, -1536314.6, -1469447.9, -57169.78, -0.030344041, 0.23237073, -1436653.1, 81011.31, 0.00031097958, 9.999595, 10.000509 
1.17503494e+3, 1.5513791e+2, -1410539.6, -1368586.5, -45576.47, -0.0009988779, 0.13091129, -1339391.0, 80271.48, 0.00003785508, 9.999835, 10.000413 
1.1750354e+3, 1.6513777e+2, -1395321.3, -1436256.9, -54747.24, -0.06285517, 0.1412205, -1357340.9, -35676.74, 0.00000010132158, 9.999823, 9.999278 
1.17503576e+3, 1.7513765e+2, -1309589.5, -1338388.3, -49684.566, -0.14213009, 0.16710897, -1272259.8, -48589.73, 0.0, 9.999708, 9.999337 
1.1750363e+3, 1.8513745e+2, -1117114.6, -1131139.0, -89327.85, -0.14163603, 0.19090262, -1034524.1, 91147.695, 0.0, 10.000073, 9.999911 
1.1750367e+3, 1.9513693e+2, -896166.06, -975166.56, -23208.947, -0.08749633, 0.11655743, -889852.3, 137820.27, 0.0, 10.000923, 9.999902 
1.1750369e+3, 2.0513614e+2, -908861.25, -1121334.3, -62679.754, -0.044645958, 0.14145394, -891748.9, 37932.063, 0.0, 10.000991, 9.998187 
1.1750367e+3, 2.151349e+2, -906315.7, -1063310.6, -105475.05, 0.008674358, 0.16574432, -853333.75, -21634.973, 0.0, 10.000308, 9.998244 
1.1750371e+3, 2.2513393e+2, -720886.4, -786895.8, -77349.516, 0.026030002, 0.18762496, -669794.4, 63914.484, 0.0, 10.000332, 9.999456 
1.17503785e+3, 2.3513304e+2, -519656.16, -634770.2, -44735.277, -0.00052910217, 0.12322498, -504315.6, 131397.55, 0.0, 10.001024, 9.999493 
1.1750382e+3, 2.4513231e+2, -499017.06, -691890.2, -78951.516, -0.035045408, 0.16107216, -470820.75, 66897.945, 0.0, 10.0009775, 9.998458 
1.1750381e+3, 2.5513154e+2, -506232.22, -633094.0, -65607.914, -0.077320226, 0.20169587, -478405.9, -38678.195, 0.0, 10.000212, 9.998552 
1.1750398e+3, 2.651301e+2, -421235.97, -592820.75, -27868.65, -0.029587626, 0.23007387, -416823.06, -75079.81, 0.0000005132723, 10.000344, 9.998097 
1.17504284e+3, 2.7512768e+2, -170924.86, -419580.6, -34208.49, 0.07746267, 0.15192452, -166304.53, 77463.625, 0.000009286575, 10.001386, 9.998112 
1.1750448e+3, 2.851262e+2, 13597.245, -245376.84, -21535.896, 0.06250106, 0.18537095, 15375.922, 161158.47, 0.000051726838, 10.001824, 9.998422 
1.17504604e+3, 2.9512548e+2, 108331.336, -138358.34, 44173.074, -0.058157586, 0.22994718, 116002.57, 163790.6, 0.00018255804, 10.001748, 9.998518 
1.17504604e+3, 3.051241e+2, 121059.97, -185295.98, -10666.257, -0.17281616, 0.2794024, 121430.88, 121430.88, 0.00047999644, 10.001872, 9.997803 
1.1750472e+3, 3.1512085e+2, 227165.3, 27641.848, 42233.58, -0.07896158, 0.14150676, 235736.75, 235736.75, 0.0009686636, 10.001846, 9.999278 
1.1850278e+3, 1.2513481e+2, -1832742.4, -1842221.9, -79974.0, 0.009768874, 0.14245985, -1757367.9, -43675.152, 0.0020081834, 9.999442, 9.99937 
1.1850291e+3, 1.351355e+2, -1729236.8, -1749113.3, 14155.5205, -0.16545156, 0.25339293, -1721879.1, -106186.516, 0.0010574218, 9.999529, 9.999316 
1.1850325e+3, 1.4513542e+2, -1547119.6, -1469485.6, -36937.598, -0.09320743, 0.2543442, -1454719.5, 62975.31, 0.00035351914, 9.999504, 10.000549 
1.1850354e+3, 1.5513554e+2, -1437352.5, -1368817.9, -88481.016, 0.08431289, 0.18285881, -1308200.3, 111489.73, 0.00004562391, 9.999616, 10.000512 
1.185036e+3, 1.6513562e+2, -1414226.0, -1429078.4, -69202.56, 0.041703608, 0.20167089, -1352052.3, -30362.49, 0.00000019883093, 9.99962, 9.999431 
1.185035e+3, 1.7513548e+2, -1316190.5, -1319135.1, -57051.32, -0.16990246, 0.2106129, -1260592.5, -36897.0, 0.0, 9.99957, 9.999533 
1.18503556e+3, 1.851355e+2, -1148323.3, -1059930.9, -58109.17, -0.18326712, 0.20605, -1031120.4, 94572.91, 0.0, 9.99949, 10.00068 
1.1850375e+3, 1.9513535e+2, -1056614.0, -963940.2, -64696.406, -0.028197614, 0.09281439, -930698.6, 96987.71, 0.0, 9.999442, 10.00069 
1.1850381e+3, 2.0513485e+2, -1062858.6, -1217198.3, -51334.93, 0.043665588, 0.1165424, -1047343.7, -117652.8, 0.0, 10.0000305, 9.998 
1.18503794e+3, 2.1513373e+2, -781996.9, -1021084.75, -21107.664, 0.055978954, 0.17362542, -780147.7, 51561.45, 0.0, 10.001249, 9.998082 
1.1850383e+3, 2.2513267e+2, -580950.3, -768582.5, 36176.03, 0.05735168, 0.2183045, -574217.06, 159504.39, 0.0, 10.001498, 9.999021 
1.18503906e+3, 2.3513147e+2, -578957.44, -714489.75, -26069.422, 0.035426866, 0.1656574, -574115.94, 61614.4, 0.0, 10.000819, 9.999049 
1.1850396e+3, 2.4513032e+2, -510482.9, -688197.4, -60884.543, 0.010298702, 0.17615002, -491625.06, 46114.734, 0.0, 10.000868, 9.998533 
1.1850396e+3, 2.5512892e+2, -293684.88, -532404.25, -68562.48, -0.017565789, 0.15602338, -275394.47, 164358.06, 0.0, 10.001675, 9.998548 
1.1850413e+3, 2.651274e+2, -231282.88, -510988.06, 15459.246, 0.023736957, 0.17906328, -230431.03, 111337.98, 0.0000005059796, 10.00171, 9.9979925 
1.1850442e+3, 2.7512535e+2, -236486.53, -466551.88, 11541.953, 0.105588354, 0.15057285, -235908.94, 7882.9644, 0.000009353779, 10.00101, 9.997968 
1.1850461e+3, 2.8512415e+2, -120177.09, -264355.1, 29660.572, 0.07254488, 0.19726487, -114313.71, 31490.873, 0.000051580555, 10.000724, 9.998813 
1.1850473e+3, 2.951237e+2, -3176.7576, -149952.38, -6548.921, -0.04356465, 0.23432809, -2885.1333, 44922.426, 0.00018437536, 10.000814, 9.998882 
1.185048e+3, 3.051229e+2, 72044.13, -161143.95, -82374.1, -0.13174589, 0.306216, 98207.45, 98207.45, 0.0004810056, 10.00131, 9.998245 
1.1850503e+3, 3.1512034e+2, 248944.55, 53065.734, -103499.77, 0.053196006, 0.1896425, 293498.4, 293498.4, 0.0009623852, 10.001904, 9.999431 
1.1950276e+3, 1.2513286e+2, -1769694.5, -1719632.5, -68702.26, -0.023054343, 0.26980415, -1671543.4, 42175.52, 0.0022081332, 9.999474, 10.000192 
1.19503036e+3, 1.3513151e+2, -1701292.6, -1696762.9, 25452.39, -0.013467602, 0.13587914, -1673474.8, -57741.156, 0.0011730703, 9.999542, 9.99967 
1.1950322e+3, 1.4513135e+2, -1575763.5, -1529606.1, -49521.59, -0.111691244, 0.13459095, -1498049.6, 19687.225, 0.00040013902, 9.999508, 10.000134 
1.19503446e+3, 1.5513337e+2, -1457843.1, -1422159.4, -70780.28, -0.013702432, 0.2909845, -1367006.9, 52711.695, 0.00005450229, 9.999653, 10.000131 
1.1950353e+3, 1.6513418e+2, -1361963.3, -1327327.9, -88093.305, -0.032143433, 0.36558944, -1254866.1, 66845.6, 0.00000035173326, 9.999644, 10.000121 
1.1950353e+3, 1.7513362e+2, -1274756.6, -1227757.5, -47834.117, -0.13044137, 0.26681456, -1197962.4, 25755.53, 0.0, 9.999543, 10.000175 
1.195036e+3, 1.8513373e+2, -1141471.5, -1038438.8, -74309.9, -0.11886459, 0.23293537, -999534.5, 126178.75, 0.0, 9.99946, 10.000843 
1.19503744e+3, 1.9513431e+2, -1057967.6, -944770.5, -53961.39, 0.0010558566, 0.17375456, -923169.1, 104530.836, 0.0, 9.999346, 10.000872 
1.19503856e+3, 2.0513444e+2, -1000961.75, -1061527.4, -22044.082, 0.058841992, 0.19514741, -993788.06, -64092.18, 0.0, 9.999916, 9.999122 
1.19503945e+3, 2.1513388e+2, -730384.8, -875617.0, 35137.684, 0.06519358, 0.1961452, -722330.25, 109372.96, 0.0, 10.001086, 9.999157 
1.1950397e+3, 2.2513284e+2, -697863.8, -974756.94, -3622.612, 0.029022407, 0.2581214, -697816.44, 35899.555, 0.0, 10.001337, 9.997684 
1.1950393e+3, 2.3513116e+2, -692634.2, -911404.6, -40470.016, -0.045970526, 0.28934523, -685387.75, -49652.15, 0.0, 10.000657, 9.997772 
1.1950403e+3, 2.4512888e+2, -524492.9, -684667.75, -45303.4, -0.024177365, 0.24484757, -512567.3, 25189.793, 0.0, 10.000719, 9.998637 
1.1950425e+3, 2.551258e+2, -306276.72, -521844.06, -25899.197, 0.084968664, 0.04106472, -303208.75, 136573.95, 0.0, 10.001521, 9.998692 
1.19504385e+3, 2.6512438e+2, -236350.52, -492632.97, -22618.346, 0.08717322, 0.063130595, -234369.64, 107425.99, 0.0000006389743, 10.001578, 9.998189 
1.1950442e+3, 2.7512437e+2, -231603.55, -432604.5, -372.90225, -0.01631741, 0.21272825, -231602.86, 12195.954, 0.000009301616, 10.000912, 9.998248 
1.1950458e+3, 2.8512296e+2, -173804.53, -360094.25, 20802.816, -0.05983485, 0.2538885, -171509.77, -25695.025, 0.00005191434, 10.000647, 9.998198 
1.1950485e+3, 2.951199e+2, -60738.887, -251922.72, 15703.841, -0.046016317, 0.09094088, -59457.563, -11612.087, 0.00018470343, 10.000726, 9.998229 
1.1950496e+3, 3.0511907e+2, 40623.668, -188717.25, -64831.953, -0.12277819, 0.19905989, 57682.082, 57682.082, 0.0004730737, 10.00116, 9.998122 
1.1950515e+3, 3.1511825e+2, 187266.28, -23553.924, -30256.336, -0.06958443, 0.26369658, 191522.66, 191522.66, 0.0009339275, 10.001694, 9.998999 
1.2050262e+3, 1.2513061e+2, -1815725.4, -1644595.5, 43468.984, -0.06302895, 0.323512, -1634187.0, 79559.984, 0.0024257244, 9.998772, 10.001054 
1.2050303e+3, 1.3512965e+2, -1888809.4, -1696592.9, 54987.996, 0.11153425, 0.15793292, -1681974.1, -66220.62, 0.0012988481, 9.997897, 10.000461 
1.2050319e+3, 1.4512996e+2, -1772198.0, -1616178.5, 95431.984, -0.017543873, 0.16258307, -1570929.3, -53179.14, 0.00045139206, 9.998114, 10.000218 
1.2050338e+3, 1.5513165e+2, -1450034.6, -1405668.6, 77769.49, -0.033070892, 0.2754455, -1346980.3, 72755.47, 0.00006471426, 9.999647, 10.00025 
1.205035e+3, 1.651326e+2, -1293450.4, -1283708.0, 42277.906, -0.032070722, 0.35254037, -1246021.6, 75705.95, 0.00000057087306, 10.000077, 10.000201 
1.20503604e+3, 1.7513254e+2, -1261596.6, -1208482.5, 11601.462, 0.0008950875, 0.29380202, -1206059.0, 17668.777, 0.0, 9.999593, 10.000273 
1.2050367e+3, 1.8513253e+2, -1177962.8, -1106947.0, -17501.994, 0.022719879, 0.26727542, -1102867.9, 22856.793, 0.0, 9.999438, 10.000376 
1.2050371e+3, 1.9513237e+2, -1043333.8, -982454.8, -68244.94, 0.031182822, 0.17711727, -938168.56, 89552.0, 0.0, 9.999651, 10.000452 
1.20503835e+3, 2.0513228e+2, -944338.8, -998183.94, -27381.96, 0.046302345, 0.17905077, -932860.9, -3142.8093, 0.0, 10.000135, 9.999449 
1.20504044e+3, 2.1513197e+2, -731460.9, -841828.94, -57935.42, 0.07275112, 0.17191227, -706633.75, 125086.4, 0.0, 10.000909, 9.999479 
1.20504126e+3, 2.2513093e+2, -715881.6, -1004112.0, -102831.33, 0.0615467, 0.22732717, -682955.94, 50776.313, 0.0, 10.001307, 9.997499 
1.2050409e+3, 2.3512898e+2, -604446.06, -890588.9, -78531.22, 0.017016783, 0.25242406, -584310.25, 51445.684, 0.0, 10.00136, 9.99758 
1.2050418e+3, 2.4512678e+2, -425713.78, -643101.75, 1192.596, 0.028789839, 0.22969227, -425707.22, 112070.64, 0.0, 10.001437, 9.998559 
1.2050438e+3, 2.5512406e+2, -309269.66, -534330.94, -23229.357, 0.07234329, 0.07169835, -306897.06, 132903.81, 0.00000000020898414, 10.001548, 9.998586 
1.2050451e+3, 2.6512274e+2, -223310.75, -482265.63, -35304.363, 0.06343844, 0.102976725, -218583.84, 123229.47, 0.00000074892756, 10.00165, 9.998221 
1.20504566e+3, 2.7512252e+2, -106929.73, -371880.75, -53924.926, 0.005030518, 0.22968467, -96374.97, 147442.56, 0.000009032264, 10.001752, 9.998259 
1.2050472e+3, 2.8512087e+2, -31971.418, -311646.56, 6969.9414, -0.024212047, 0.25621662, -31797.824, 114037.58, 0.000052136886, 10.001719, 9.99801 
1.2050497e+3, 2.9511762e+2, 34513.07, -224223.03, -4148.1133, -0.029632153, 0.09279083, 34579.555, 82448.33, 0.0001849306, 10.001479, 9.998049 
1.2050508e+3, 3.051168e+2, 137347.58, -114049.734, -2059.303, -0.12929377, 0.19886802, 137364.44, 137364.44, 0.0004665325, 10.001713, 9.998362 
1.20505325e+3, 3.1511664e+2, 221138.22, -11158.66, 19221.574, -0.070626, 0.31020027, 222717.98, 222717.98, 0.00090606173, 10.001979, 9.998933 
1.21502444e+3, 1.2512809e+2, -1759806.0, -1519498.0, 62032.105, -0.17826118, 0.29977244, -1504430.1, 209346.16, 0.0026624324, 9.998759, 10.00191 
1.2150283e+3, 1.3512996e+2, -1812191.6, -1545009.3, 28296.414, 0.11087744, 0.31733555, -1542045.4, 73705.945, 0.0014356553, 9.997925, 10.001494 
1.2150312e+3, 1.4513132e+2, -1722960.1, -1510041.1, 134972.95, 0.079687044, 0.33586976, -1444595.6, 73138.586, 0.0005075534, 9.998106, 10.000945 
1.2150332e+3, 1.5513046e+2, -1408393.5, -1315905.3, 149314.02, -0.07735442, 0.12434345, -1205838.1, 213903.4, 0.000076397075, 9.999634, 10.000874 
1.215035e+3, 1.6513085e+2, -1331343.3, -1360078.4, 10878.3125, -0.07443186, 0.14601682, -1327689.6, -5951.9863, 0.0000008702971, 10.000074, 9.999672 
1.2150371e+3, 1.7513232e+2, -1304178.6, -1288670.8, 4973.194, 0.1238907, 0.29207876, -1287212.9, -63488.477, 0.0, 9.99956, 9.999737 
1.2150376e+3, 1.8513197e+2, -1248895.5, -1252651.5, -24822.6, 0.13098341, 0.3061906, -1225879.9, -100152.8, 0.0, 9.999428, 9.999382 
1.2150363e+3, 1.9512962e+2, -1125120.4, -1136792.8, -48266.19, -0.048115302, 0.09926119, -1082338.9, -54591.367, 0.0, 9.99958, 9.99943 
1.21503726e+3, 2.0512843e+2, -994652.9, -1076377.4, -13860.561, -0.10081189, 0.06806026, -992366.1, -62609.047, 0.0, 10.000023, 9.998964 
1.2150407e+3, 2.1512817e+2, -790032.5, -918011.2, -18758.102, -0.026765633, 0.1101756, -787339.75, 44418.574, 0.0, 10.000714, 9.999046 
1.2150427e+3, 2.2512709e+2, -675251.3, -881433.56, -115780.68, 0.051810224, 0.13371864, -623316.8, 110452.01, 0.0, 10.001134, 9.998429 
1.2150436e+3, 2.35125e+2, -560815.1, -765223.2, -63540.71, 0.13162982, 0.051990878, -542673.44, 93116.836, 0.0, 10.001207, 9.998514 
1.2150438e+3, 2.4512404e+2, -476026.75, -704613.25, -5044.5986, 0.060540903, 0.12229487, -475915.47, 61886.3, 0.0, 10.001253, 9.998223 
1.2150434e+3, 2.5512385e+2, -350541.5, -591656.94, -6512.9175, -0.15016258, 0.24820685, -350365.72, 89440.83, 0.00000000018849695, 10.001425, 9.99825 
1.2150449e+3, 2.6512253e+2, -252029.36, -513718.72, -43765.445, -0.1514335, 0.30595186, -244903.95, 96917.08, 0.00000061447383, 10.001526, 9.998068 
1.2150482e+3, 2.751198e+2, -131947.25, -398554.88, -35237.04, 0.050726302, 0.19836971, -127368.67, 116478.98, 0.000008322687, 10.001639, 9.998132 
1.2150501e+3, 2.8511792e+2, -52060.203, -312670.97, -12248.717, 0.060296338, 0.20351404, -51485.78, 94380.38, 0.000050710027, 10.0015545, 9.998079 
1.2150507e+3, 2.9511675e+2, 28495.254, -212085.33, 7093.871, -0.113217495, 0.23824385, 28704.244, 76581.945, 0.00018357177, 10.001377, 9.998178 
1.2150515e+3, 3.051159e+2, 150479.45, -56216.367, -1516.9203, -0.25469363, 0.3128556, 150490.6, 150490.6, 0.00046227945, 10.001585, 9.998822 
1.21505454e+3, 3.1511524e+2, 210111.7, 17750.965, 75527.01, -0.18443942, 0.3271118, 236221.94, 236221.94, 0.00088881893, 10.001768, 9.9992285 
1.2250238e+3, 1.2512699e+2, -1846795.9, -1611692.5, 205126.95, -0.067129105, 0.29628193, -1492822.0, 220960.75, 0.0029179724, 9.99833, 10.001498 
1.2250265e+3, 1.3512853e+2, -1636655.3, -1449338.0, 32447.838, 0.083656654, 0.27295154, -1443876.5, 171885.66, 0.0015834377, 9.999079, 10.001595 
1.22503065e+3, 1.451302e+2, -1584628.5, -1459508.5, 127349.234, 0.16256107, 0.32288072, -1380182.6, 137560.39, 0.00056846405, 9.999124, 10.000802 
1.2250332e+3, 1.5512972e+2, -1550189.6, -1390280.5, 48375.13, 0.008486203, 0.15902176, -1376785.3, 42962.26, 0.00008951281, 9.998701, 10.000799 
1.22503504e+3, 1.6512981e+2, -1497865.1, -1452529.1, -78675.836, -0.0152068585, 0.15453953, -1393320.9, -71574.86, 0.0000012652538, 9.998952, 9.999603 
1.22503676e+3, 1.7513022e+2, -1254760.5, -1272650.5, -70733.45, 0.120467514, 0.20276612, -1192408.8, 31332.205, 0.0, 9.9999075, 9.999699 
1.2250376e+3, 1.8512967e+2, -1103925.0, -1247684.5, -33456.703, 0.13074806, 0.22811864, -1096520.1, 29226.594, 0.0, 10.000694, 9.998813 
1.22503735e+3, 1.9512792e+2, -896081.6, -1089501.6, -53590.164, 0.010229871, 0.13831589, -882226.1, 145539.73, 0.0, 10.00142, 9.998875 
1.22503854e+3, 2.0512661e+2, -794832.06, -1000644.8, 21794.785, -0.03811094, 0.1331647, -792549.4, 137228.97, 0.0, 10.001487, 9.99878 
1.2250414e+3, 2.1512558e+2, -777853.0, -931142.9, 12793.837, -0.01797328, 0.117420174, -776792.5, 54994.027, 0.0, 10.000888, 9.998871 
1.22504346e+3, 2.2512434e+2, -693056.75, -847434.9, -61893.72, 0.043862045, 0.116090044, -671306.5, 62490.953, 0.0, 10.000829, 9.998806 
1.2250448e+3, 2.3512268e+2, -524279.8, -709780.1, -85432.07, 0.13641, 0.039601855, -490929.88, 144883.69, 0.0, 10.001287, 9.998859 
1.2250452e+3, 2.4512203e+2, -477345.97, -738199.25, -31191.12, 0.0717952, 0.139477, -473668.2, 64154.375, 0.0, 10.001371, 9.997948 
1.22504465e+3, 2.5512215e+2, -410587.84, -646974.44, -50172.836, -0.14217259, 0.32463542, -400379.53, 39447.02, 0.0, 10.00113, 9.9980135 
1.2250464e+3, 2.6512063e+2, -300394.7, -544601.7, -48587.5, -0.13150607, 0.37779173, -291082.78, 50760.793, 0.0000003685213, 10.001239, 9.997986 
1.2250502e+3, 2.7511722e+2, -147125.34, -411441.63, -66976.01, 0.08913592, 0.20738569, -131122.89, 112753.17, 0.0000073761885, 10.001589, 9.998052 
1.2250519e+3, 2.8511527e+2, -12531.715, -290018.56, -31061.172, 0.09158009, 0.20591871, -9097.313, 136796.42, 0.000049087277, 10.001778, 9.998135 
1.2250521e+3, 2.951146e+2, 74767.3, -190916.4, -38936.777, -0.107742846, 0.2915412, 80356.04, 128254.08, 0.00018153466, 10.001675, 9.998194 
1.2250532e+3, 3.051129e+2, 102619.49, -111804.88, -50102.605, -0.22927792, 0.28782284, 113748.86, 113748.86, 0.00045750884, 10.001393, 9.998525 
1.2250565e+3, 3.1511143e+2, 16373.303, -129022.83, -78027.2, -0.0991425, 0.25478834, 50320.69, 50320.69, 0.0008771935, 10.0006075, 9.998793 
1.2350246e+3, 1.25126e+2, -1942003.9, -1830442.1, 127603.94, 0.11817615, 0.1873054, -1746959.6, -33180.613, 0.0031899144, 9.998401, 9.999964 
1.23502396e+3, 1.3512531e+2, -1679418.0, -1558505.5, 64352.96, -0.105403945, 0.014339121, -1530665.4, 85120.984, 0.0017411282, 9.99914, 10.00082 
1.23502955e+3, 1.4512642e+2, -1646982.3, -1600723.1, 95798.414, 0.09746082, 0.09416747, -1525301.6, -7523.4136, 0.0006337289, 9.99917, 9.999814 
1.23503335e+3, 1.5512934e+2, -1615494.4, -1534500.5, 41665.254, 0.12653892, 0.375332, -1516894.1, -97139.67, 0.00010392506, 9.998723, 9.999809 
1.2350348e+3, 1.6512932e+2, -1453005.0, -1364129.0, -62273.586, 0.040615175, 0.3777154, -1332063.8, -10310.212, 0.0000017603737, 9.998971, 10.000198 
1.23503454e+3, 1.7512628e+2, -1215306.3, -1192610.0, -25877.615, -0.11450745, 0.021012612, -1175701.5, 48074.95, 0.0, 9.999907, 10.000251 
1.2350364e+3, 1.8512568e+2, -1124674.9, -1281831.8, -19270.316, -0.0877197, 0.025214886, -1122346.4, 3436.6353, 0.0, 10.000658, 9.998596 
1.2350399e+3, 1.9512722e+2, -923482.0, -1125781.0, -14135.085, 0.10151189, 0.28741062, -922499.1, 105276.64, 0.0, 10.001328, 9.998672 
1.235042e+3, 2.0512678e+2, -806053.25, -990097.3, -17679.693, 0.12839001, 0.36946136, -804370.25, 125412.08, 0.0, 10.001344, 9.998921 
1.2350427e+3, 2.1512422e+2, -792644.75, -926032.5, 2351.143, 0.0019262861, 0.18979679, -792603.3, 39201.004, 0.0, 10.000731, 9.998982 
1.2350435e+3, 2.2512272e+2, -732934.8, -896404.44, -56697.695, -0.06411112, 0.17029938, -715194.94, 18623.012, 0.0, 10.000676, 9.998548 
1.2350442e+3, 2.3512201e+2, -566772.9, -761915.94, -53031.7, -0.07087707, 0.21461533, -553292.3, 82533.43, 0.0, 10.001126, 9.998583 
1.2350454e+3, 2.4512082e+2, -512514.3, -773965.44, -53253.438, -0.05822837, 0.2843936, -502083.56, 35756.023, 0.0, 10.001211, 9.99778 
1.2350472e+3, 2.5511897e+2, -436214.06, -676468.94, -45453.867, -0.01649984, 0.28743783, -427902.2, 11958.922, 0.0, 10.00102, 9.997869 
1.2350493e+3, 2.6511696e+2, -333520.75, -573277.1, -45028.7, 0.012572597, 0.30450597, -325342.84, 16538.883, 0.00000016286783, 10.001072, 9.997868 
1.2350513e+3, 2.751146e+2, -175564.89, -439121.72, -36648.293, 0.020207461, 0.25016108, -170563.75, 73339.91, 0.000006622681, 10.001459, 9.997921 
1.2350527e+3, 2.8511274e+2, -27227.736, -287734.7, -44131.28, -0.03836801, 0.2626651, -19954.713, 125964.25, 0.000048750662, 10.00164, 9.998218 
1.2350537e+3, 2.9511112e+2, 65484.844, -186745.31, -21304.693, -0.15180711, 0.24114257, 67271.695, 115202.234, 0.00018217463, 10.00157, 9.998276 
1.2350552e+3, 3.051075e+2, 1339.5892, -290767.2, -81285.34, -0.18967044, 0.106251314, 22435.533, 22435.533, 0.00045752534, 10.001261, 9.997359 
1.2350584e+3, 3.1510508e+2, -89143.97, -297064.72, -65560.53, -0.04093569, 0.08618315, -70198.11, -70198.11, 0.000874485, 10.0004015, 9.997732 
1.2450244e+3, 1.251243e+2, -1909853.6, -1918014.8, 50672.37, 0.22811186, 0.10700643, -1863097.8, -149309.05, 0.003475539, 9.999101, 9.9990015 
1.2450237e+3, 1.3512352e+2, -1592917.5, -1624024.6, 1060.1104, -0.082560964, 0.021308184, -1592881.4, 22920.844, 0.0019075654, 10.000205, 9.999851 
1.2450296e+3, 1.4512347e+2, -1463547.9, -1532811.5, 32821.227, 0.118384644, 0.0429032, -1450466.0, 67341.65, 0.0007030745, 10.000518, 9.999632 
1.2450326e+3, 1.5512641e+2, -1414633.3, -1460998.1, 12090.989, 0.109328546, 0.34519225, -1411669.6, 8113.1367, 0.00011956255, 10.000196, 9.999607 
1.24503404e+3, 1.651265e+2, -1297696.6, -1259817.3, -18493.885, 0.020426271, 0.3569481, -1252285.5, 69494.99, 0.0000023468863, 9.999925, 10.000446 
1.24503456e+3, 1.7512369e+2, -1211487.6, -1160288.1, -35419.902, -0.10267281, -0.001557936, -1142185.3, 81616.12, 0.0, 9.999821, 10.000503 
1.2450367e+3, 1.851234e+2, -1204630.9, -1308622.4, 1625.2513, -0.073822655, 0.015654074, -1204605.4, -78800.164, 0.0, 10.000052, 9.998703 
1.2450407e+3, 1.951253e+2, -1024142.2, -1165155.1, 8335.294, 0.08597309, 0.3018921, -1023651.2, 4143.934, 0.0, 10.0005865, 9.998762 
1.24504305e+3, 2.051252e+2, -862854.5, -1009559.2, 11207.156, 0.13618334, 0.410158, -862003.3, 67795.96, 0.0, 10.000911, 9.998997 
1.2450445e+3, 2.15123e+2, -746761.44, -891920.56, -624.4555, 0.08999677, 0.2547884, -746758.75, 85060.25, 0.0, 10.000991, 9.99909 
1.2450451e+3, 2.2512162e+2, -652355.56, -873122.75, -3824.4883, 0.0009698311, 0.24772665, -652289.3, 81542.75, 0.0, 10.001313, 9.998391 
1.2450451e+3, 2.3512073e+2, -466503.47, -725995.3, -19281.266, -0.12881418, 0.288068, -465078.63, 170762.98, 0.0, 10.001885, 9.998452 
1.2450468e+3, 2.4511915e+2, -353363.6, -714402.1, -1403.3295, -0.1031022, 0.33322015, -353358.16, 184500.64, 0.0, 10.002383, 9.9976225 
1.24505006e+3, 2.5511673e+2, -191189.89, -573521.06, -20414.168, 0.073146634, 0.29736224, -190102.98, 249781.97, 0.0, 10.002781, 9.99772 
1.245052e+3, 2.651144e+2, -120744.49, -473501.7, -7846.224, 0.107512176, 0.28847924, -120570.055, 221337.78, 0.000000050542315, 10.002526, 9.997857 
1.2450525e+3, 2.751119e+2, -155440.52, -438933.44, -17836.457, 0.00052293035, 0.22471632, -154322.72, 89607.07, 0.0000061370592, 10.001607, 9.99787 
1.2450539e+3, 2.8511024e+2, -101283.95, -333841.72, 9055.877, -0.047438107, 0.26586193, -100931.84, 45011.668, 0.000049451548, 10.001197, 9.998107 
1.2450562e+3, 2.9510903e+2, 9416.745, -220243.14, -19211.2, -0.034733515, 0.29898518, 11012.684, 58965.305, 0.00018750013, 10.001241, 9.998191 
1.2450579e+3, 3.0510482e+2, 13338.89, -283594.38, -22414.227, -0.045097213, 0.10328586, 15021.312, 15021.312, 0.000470274, 10.001311, 9.997405 
1.2450598e+3, 3.1510216e+2, 70849.31, -172045.67, 42971.47, 0.02757215, 0.063222006, 78227.44, 78227.44, 0.00089436676, 10.001288, 9.9981785 
1.2550211e+3, 1.2512237e+2, -1910472.6, -1951448.6, -34279.934, -0.079369426, 0.07994913, -1891024.8, -177217.95, 0.0037739007, 9.9992075, 9.998736 
1.2550257e+3, 1.3512336e+2, -1673919.8, -1804673.9, 53586.625, 0.07568225, 0.29528743, -1654764.6, -38956.477, 0.0020822603, 10.000251, 9.998596 
1.2550303e+3, 1.4512153e+2, -1414564.9, -1438185.5, 4939.74, 0.11841372, 0.17192456, -1413573.5, 104256.23, 0.0007764397, 10.000544, 10.000269 
1.2550303e+3, 1.5512109e+2, -1363016.5, -1362263.8, 11769.976, -0.15701073, 0.06728009, -1350864.1, 68966.8, 0.00013646827, 10.000228, 10.00027 
1.2550323e+3, 1.6512147e+2, -1310566.5, -1291903.1, -38938.266, -0.17800786, 0.08634179, -1261194.0, 60631.625, 0.0000030208696, 9.999943, 10.00022 
1.2550363e+3, 1.7512248e+2, -1226190.4, -1189823.4, -28748.027, 0.06599719, 0.13156733, -1173990.9, 49824.242, 0.0, 9.999811, 10.000305 
1.2550385e+3, 1.8512282e+2, -1172879.9, -1236069.8, 7139.591, 0.07627245, 0.1936565, -1172083.3, -46269.566, 0.0, 10.000021, 9.999219 
1.2550391e+3, 1.951222e+2, -996921.0, -1095354.6, 39844.688, -0.13809462, 0.17643304, -982814.06, 45009.62, 0.0, 10.000524, 9.999271 
1.2550418e+3, 2.0512196e+2, -882491.44, -1016406.2, 216.15857, -0.11287997, 0.24531287, -882491.1, 47337.47, 0.0, 10.000768, 9.999021 
1.255046e+3, 2.1512195e+2, -773308.5, -905457.94, 14665.943, 0.13917893, 0.30986744, -771700.44, 60129.715, 0.0, 10.000813, 9.999087 
1.2550478e+3, 2.2512095e+2, -682977.56, -891763.7, 3512.8542, 0.11990424, 0.3427535, -682918.44, 50922.21, 0.0, 10.00112, 9.998355 
1.255047e+3, 2.3511876e+2, -491326.28, -743383.9, 13753.841, -0.14449233, 0.25719896, -490578.0, 145283.77, 0.0, 10.001734, 9.998408 
1.2550487e+3, 2.4511701e+2, -386234.28, -745366.6, 785.8801, -0.16937684, 0.29117474, -386232.56, 151647.73, 0.0, 10.002222, 9.997487 
1.2550527e+3, 2.551154e+2, -227728.83, -612509.5, 7238.166, 0.02749765, 0.34939268, -227592.72, 212305.98, 0.0, 10.002617, 9.997531 
1.255054e+3, 2.6511276e+2, -142072.3, -477551.2, -54763.938, 0.048042096, 0.3211266, -133358.89, 208564.48, 0.00000007625481, 10.002354, 9.997912 
1.2550534e+3, 2.7510905e+2, -167225.05, -434095.4, -34984.203, -0.09090749, 0.12693177, -162715.16, 81240.19, 0.0000061507535, 10.00148, 9.997965 
1.2550554e+3, 2.8510776e+2, -143728.47, -400452.25, 652.4556, -0.061574645, 0.21851401, -143726.81, 2240.6426, 0.000051588533, 10.001098, 9.997699 
1.2550594e+3, 2.9510835e+2, -31326.557, -286719.13, 398.41046, 0.12990174, 0.4669436, -31325.936, 16638.611, 0.00020006, 10.001156, 9.997777 
1.2550607e+3, 3.051046e+2, 82421.42, -117161.4, -33284.5, 0.086833954, 0.28131866, 87825.94, 87825.94, 0.00050364056, 10.001215, 9.998589 
1.2550598e+3, 3.151023e+2, 166876.38, 76359.01, 87957.96, -0.14809832, 0.1484536, 220536.6, 220536.6, 0.00095293473, 10.001078, 9.999986 
1.2650208e+3, 1.2511908e+2, -1943217.6, -1852469.8, -61986.598, 0.016980078, 0.03180216, -1821024.9, -107181.65, 0.004085261, 9.998532, 9.999744 
1.2650257e+3, 1.3512091e+2, -1836324.0, -1843392.1, 96678.09, 0.12457234, 0.30961934, -1743115.4, -127282.37, 0.0022650692, 9.999011, 9.998918 
1.2650289e+3, 1.4511932e+2, -1633711.4, -1524314.3, 80774.23, 0.0034641458, 0.18465821, -1481460.8, 36389.758, 0.00085386867, 9.998954, 10.000445 
1.2650298e+3, 1.5511833e+2, -1567022.5, -1435782.9, 20357.273, -0.15556201, 0.0075325193, -1432697.6, -12841.395, 0.00015477135, 9.998736, 10.00048 
1.2650323e+3, 1.6511904e+2, -1462591.8, -1402476.4, 4262.381, -0.12134707, 0.06671079, -1402175.6, -80326.26, 0.0000038088367, 9.999068, 9.999875 
1.2650363e+3, 1.7512114e+2, -1205998.5, -1219433.1, -23002.434, 0.07434801, 0.25530794, -1188752.6, 35079.793, 0.0, 10.00012, 9.999954 
1.2650387e+3, 1.8512142e+2, -1095883.5, -1148479.6, 12573.615, 0.07707022, 0.30652183, -1093032.3, 32798.953, 0.0, 10.000331, 9.99967 
1.2650397e+3, 1.9511972e+2, -1076470.5, -1080556.0, 11512.554, -0.10443311, 0.13848215, -1066820.9, -38973.664, 0.0, 9.999765, 9.999733 
1.2650424e+3, 2.0511931e+2, -971475.25, -1053035.6, 22696.22, -0.08657925, 0.16278131, -965584.9, -35732.594, 0.0, 10.000129, 9.999073 
1.2650467e+3, 2.1511988e+2, -692654.94, -860646.3, 12401.256, 0.11274034, 0.27938908, -691744.44, 140104.88, 0.0, 10.001338, 9.999138 
1.2650491e+3, 2.2511911e+2, -571695.56, -837074.75, 17900.64, 0.12480124, 0.33127382, -570493.56, 163364.66, 0.0, 10.001859, 9.998387 
1.2650499e+3, 2.3511691e+2, -499093.66, -740904.6, 10909.262, -0.029018782, 0.24125463, -498602.47, 137277.02, 0.0, 10.001641, 9.998476 
1.2650515e+3, 2.4511522e+2, -470135.2, -762979.1, 35174.383, -0.07079561, 0.26719514, -465969.53, 71927.31, 0.0, 10.001535, 9.997702 
1.2650542e+3, 2.5511372e+2, -368026.78, -659258.25, 42244.363, -0.008552177, 0.31780073, -362022.8, 77890.32, 0.0, 10.001545, 9.997736 
1.2650557e+3, 2.6511124e+2, -214536.31, -530950.2, 3740.0984, 0.00050190295, 0.30199078, -214492.11, 127444.516, 0.00000015326442, 10.00194, 9.997746 
1.265056e+3, 2.7510762e+2, -4963.8027, -371032.44, -26855.47, -0.037955128, 0.1370975, -3004.1265, 240964.42, 0.0000068361555, 10.0026655, 9.997823 
1.2650579e+3, 2.8510606e+2, 35989.195, -337470.3, 16436.85, 0.023191873, 0.21836463, 36711.227, 182695.3, 0.000055437977, 10.002422, 9.997498 
1.2650612e+3, 2.9510608e+2, -8553.699, -302813.22, 1666.9276, 0.18605298, 0.43105194, -8544.257, 39443.18, 0.00021969865, 10.001414, 9.997548 
1.2650625e+3, 3.0510247e+2, 72098.9, -132588.67, -23707.879, 0.15225469, 0.2798004, 74808.97, 74808.97, 0.00055760087, 10.001208, 9.998471 
1.2650621e+3, 3.1510082e+2, 255395.5, 171468.69, -49094.188, -0.035906874, 0.22547887, 278016.66, 278016.66, 0.0010537416, 10.001482, 10.00043 
1.2750228e+3, 1.2511612e+2, -1769746.1, -1523188.3, 24377.096, 0.28609192, 0.1180682, -1520801.3, 193080.02, 0.0044096503, 9.998649, 10.001953 
1.2750234e+3, 1.3511631e+2, -1710050.3, -1593410.5, 117539.16, -0.048486892, 0.055573072, -1520518.1, 95357.75, 0.0024558255, 9.999042, 10.000627 
1.2750246e+3, 1.4511694e+2, -1645240.9, -1562774.5, 57463.934, -0.36793295, 0.08353341, -1533280.9, -15412.112, 0.00093550276, 9.999013, 10.000153 
1.2750305e+3, 1.5511827e+2, -1583764.8, -1479288.1, 23814.244, 0.014394381, 0.16440743, -1474116.0, -54258.48, 0.00017466526, 9.998768, 10.000166 
1.2750337e+3, 1.6511917e+2, -1486350.6, -1467886.1, 28105.553, 0.083033234, 0.28378138, -1447535.4, -125682.97, 0.0000047674703, 9.9991255, 9.999404 
1.2750342e+3, 1.7511961e+2, -1232887.9, -1283935.6, 27153.455, -0.17647858, 0.35190085, -1221145.4, 2708.229, 0.0, 10.000146, 9.999503 
1.2750368e+3, 1.8511926e+2, -1078970.9, -1104724.6, -21318.463, -0.18091734, 0.34629872, -1066942.1, 58915.203, 0.0, 10.000298, 9.999983 
1.2750414e+3, 1.9511792e+2, -1064572.1, -1041069.44, 3883.7979, 0.07343844, 0.1795839, -1040444.25, -12578.858, 0.0, 9.9997, 10.000033 
1.2750445e+3, 2.051172e+2, -981852.8, -1049868.5, 52353.684, 0.10052125, 0.15440416, -953431.2, -23560.266, 0.0, 10.000018, 9.999151 
1.2750463e+3, 2.1511686e+2, -711344.0, -860476.06, 67053.17, -0.088962615, 0.16972022, -685629.4, 146246.81, 0.0, 10.0011635, 9.999226 
1.2750491e+3, 2.2511624e+2, -588888.7, -824427.44, -2860.0757, -0.082126044, 0.22552006, -588853.94, 145029.44, 0.0, 10.001659, 9.998566 
1.275053e+3, 2.3511517e+2, -514465.25, -731746.6, 17165.154, 0.11075296, 0.23025115, -513117.56, 122777.15, 0.0, 10.001467, 9.998621 
1.2750548e+3, 2.4511373e+2, -462500.34, -704605.8, 23430.658, 0.083953686, 0.2519646, -460253.63, 77655.59, 0.0, 10.001353, 9.998191 
1.2750545e+3, 2.5511178e+2, -351638.28, -590519.5, 58415.02, -0.14927301, 0.20247501, -338118.84, 101809.12, 0.0, 10.001395, 9.998281 
1.2750563e+3, 2.651099e+2, -266904.34, -605505.25, 19446.598, -0.15489733, 0.2381354, -265791.13, 76155.73, 0.00000020123079, 10.001796, 9.997301 
1.2750597e+3, 2.7510768e+2, -61551.96, -451524.13, 15001.156, 0.047950625, 0.25590387, -60975.758, 182993.44, 0.0000077157165, 10.002512, 9.99734 
1.2750612e+3, 2.8510517e+2, 13893.53, -355931.4, -36554.902, 0.09621918, 0.27229887, 17472.127, 163465.81, 0.000060411407, 10.002302, 9.997428 
1.275061e+3, 2.951022e+2, -33270.617, -321604.94, -16835.293, 0.007037277, 0.18883622, -32290.967, 15730.683, 0.00024271311, 10.001279, 9.997482 
1.2750629e+3, 3.0509847e+2, -53047.438, -373770.28, -18942.092, 0.03494844, 0.1116942, -51932.58, -51932.58, 0.0006224366, 10.001119, 9.996861 
1.275066e+3, 3.1509817e+2, 141640.5, -6694.0684, 2441.8518, 0.14231773, 0.34133983, 141680.69, 141680.69, 0.0011818967, 10.00125, 9.999307 
1.2850223e+3, 1.2511405e+2, -1606829.6, -1445819.6, 193842.56, 0.3395761, 0.21177961, -1316429.5, 397475.16, 0.0047468157, 9.999731, 10.001967 
1.2850219e+3, 1.35114e+2, -1713442.6, -1562058.3, 48514.707, -0.07547658, 0.091084294, -1547845.0, 68056.67, 0.0026545508, 9.99885, 10.000925 
1.2850232e+3, 1.4511552e+2, -1709940.8, -1575182.0, 3003.1704, -0.3594377, 0.1820436, -1575115.0, -57229.668, 0.0010215283, 9.998509, 10.000308 
1.2850301e+3, 1.5511651e+2, -1490001.0, -1413104.0, -23644.734, 0.068690486, 0.216769, -1406415.4, 13460.954, 0.00019628371, 9.999327, 10.000353 
1.2850337e+3, 1.6511708e+2, -1397393.4, -1412785.5, 57325.695, 0.14062451, 0.28705633, -1347249.4, -25375.898, 0.0000059623408, 9.999675, 9.999523 
1.285034e+3, 1.7511731e+2, -1297822.4, -1300311.1, 72152.26, -0.18198805, 0.32228756, -1226903.8, -3027.7332, 0.0, 9.999639, 9.999635 
1.2850367e+3, 1.8511698e+2, -1159315.3, -1165739.4, 29175.236, -0.1900365, 0.3244033, -1133175.9, -7296.5474, 0.0, 9.999856, 9.999775 
1.2850419e+3, 1.9511585e+2, -971763.94, -1018439.2, -10754.042, 0.10946254, 0.20064619, -969405.4, 58480.516, 0.0, 10.000444, 9.999831 
1.2850451e+3, 2.0511511e+2, -890269.5, -976189.44, 64937.355, 0.14213996, 0.17336142, -855367.94, 74523.01, 0.0, 10.000525, 9.9994135 
1.285047e+3, 2.151146e+2, -847354.2, -892302.4, 69170.38, -0.08019823, 0.14541152, -797098.44, 34797.754, 0.0, 10.000099, 9.9995165 
1.2850504e+3, 2.2511418e+2, -750325.0, -864386.8, 34111.785, -0.063638315, 0.18900931, -740901.9, -7001.006, 0.0, 10.000393, 9.9988985 
1.285055e+3, 2.3511367e+2, -506907.47, -689555.7, 36461.61, 0.18303545, 0.2159007, -499897.75, 136009.34, 0.0, 10.001366, 9.998956 
1.2850572e+3, 2.4511245e+2, -363427.38, -660643.44, 48536.227, 0.16828933, 0.24553649, -355702.06, 182217.78, 0.0, 10.002051, 9.998154 
1.285057e+3, 2.5511044e+2, -210575.58, -525713.2, 12237.072, -0.09398226, 0.19419524, -210101.11, 229838.95, 0.0, 10.002389, 9.998241 
1.2850587e+3, 2.6510862e+2, -194760.02, -569657.1, -10093.023, -0.11071206, 0.24012786, -194488.48, 147470.44, 0.00000014147287, 10.002268, 9.997329 
1.2850624e+3, 2.7510673e+2, -167466.1, -498332.16, -4697.1553, 0.10428436, 0.28513622, -167399.42, 76579.91, 0.000007879153, 10.001755, 9.997389 
1.2850638e+3, 2.851041e+2, 1430.948, -355272.2, -2112.7805, 0.13201253, 0.28559124, 1443.4618, 147448.4, 0.00006527563, 10.0022, 9.9974785 
1.2850632e+3, 2.9510042e+2, 289527.13, -162136.94, -12199.876, -0.011419308, 0.13315609, 289856.4, 337894.84, 0.000269289, 10.003479, 9.997518 
1.2850651e+3, 3.0509707e+2, 240026.14, -291428.9, 33042.78, 0.03833435, 0.11507333, 242072.67, 242072.67, 0.00069755525, 10.003376, 9.996351 
1.2850681e+3, 3.1509608e+2, 216661.64, -23416.037, 80228.72, 0.2095482, 0.3289634, 241004.14, 241004.14, 0.0013291562, 10.001935, 9.998892 
1.2950198e+3, 1.2511207e+2, -1767022.1, -1769562.4, 175880.53, 0.055531424, 0.21650836, -1592407.1, 121514.2, 0.0050962004, 9.999719, 9.999739 
1.2950212e+3, 1.3511407e+2, -1799183.8, -1725795.9, 17903.18, -0.054840956, 0.41646382, -1721661.4, -105751.88, 0.0028611089, 9.998806, 9.99982 
1.295025e+3, 1.4511508e+2, -1664101.5, -1484751.9, 13084.024, -0.08079319, 0.48085183, -1483802.4, 34097.477, 0.00111182, 9.998527, 10.000922 
1.295028e+3, 1.551132e+2, -1447010.8, -1326157.4, 21178.02, -0.093809344, 0.16944596, -1322553.6, 97357.66, 0.000219555, 9.999333, 10.000951 
1.2950315e+3, 1.6511293e+2, -1343611.5, -1305650.0, 39577.113, -0.06933309, 0.08831944, -1280737.5, 41173.52, 0.0000074533, 9.999691, 10.000249 
1.2950353e+3, 1.7511429e+2, -1251888.3, -1205364.5, 81601.77, -0.04520072, 0.16471256, -1143773.8, 80125.0, 0.0, 9.999638, 10.000286 
1.295038e+3, 1.851146e+2, -1215152.3, -1280963.8, 36444.113, -0.0591618, 0.23896284, -1198956.5, -73059.734, 0.0, 9.999846, 9.998992 
1.2950405e+3, 1.9511355e+2, -1031189.56, -1132385.5, 21497.67, -0.08915593, 0.20108481, -1026812.06, 1096.0275, 0.0, 10.000393, 9.999079 
1.295044e+3, 2.0511308e+2, -880776.4, -920755.2, 34920.13, -0.060439013, 0.2137629, -860529.06, 69383.04, 0.0, 10.000381, 9.999858 
1.2950483e+3, 2.1511306e+2, -844580.56, -840580.3, 64116.004, 0.025067836, 0.18847154, -778433.25, 53477.164, 0.0, 9.999909, 9.999958 
1.2950523e+3, 2.2511284e+2, -748806.3, -816222.3, 57008.566, 0.069417074, 0.20980038, -716285.9, 17625.666, 0.0, 10.0001955, 9.999328 
1.2950556e+3, 2.3511231e+2, -500414.5, -637280.44, 88577.22, 0.07853358, 0.19188021, -456914.47, 179002.56, 0.0, 10.001191, 9.999402 
1.2950584e+3, 2.451113e+2, -441718.94, -766977.0, 47745.176, 0.06945031, 0.2502948, -434855.2, 103074.086, 0.0, 10.001822, 9.997529 
1.295061e+3, 2.5510958e+2, -284890.56, -629732.4, 38477.793, 0.04694445, 0.2902133, -280649.34, 159300.9, 0.0, 10.002188, 9.997618 
1.2950626e+3, 2.6510742e+2, -178967.98, -508064.8, -42343.125, 0.029724048, 0.31112844, -173607.25, 168365.77, 0.000000052302592, 10.002133, 9.997821 
1.2950635e+3, 2.7510485e+2, -152603.56, -431565.47, -7029.587, 0.015101074, 0.23597896, -152426.53, 91571.23, 0.000007172051, 10.001601, 9.997922 
1.295065e+3, 2.8510287e+2, -15311.879, -356470.72, 35127.805, 0.005791396, 0.26789573, -11732.46, 134284.89, 0.00006969282, 10.0020485, 9.997544 
1.295067e+3, 2.9510096e+2, 267369.0, -169850.13, 53337.633, 0.0005941673, 0.27987185, 273781.75, 321818.2, 0.00030090337, 10.003317, 9.99754 
1.2950687e+3, 3.0509833e+2, 256972.17, -234063.28, -33098.746, 0.04662927, 0.31563103, 259193.19, 259193.19, 0.00078645255, 10.003279, 9.996796 
1.2950681e+3, 3.1509486e+2, 203895.73, 7010.061, 64236.57, -0.03512246, 0.22791927, 223000.03, 223000.03, 0.0014985187, 10.001703, 9.9992075 
1.3050191e+3, 1.2510924e+2, -1815044.9, -1836276.3, 36893.285, 0.0435957, 0.25140637, -1787270.4, -73319.81, 0.0054552136, 9.9995985, 9.999332 
1.3050197e+3, 1.3511156e+2, -1889083.0, -1746168.6, -37880.574, -0.05343657, 0.47077444, -1736749.0, -120812.14, 0.003073975, 9.998106, 10.000014 
1.305025e+3, 1.451123e+2, -1778177.8, -1492958.4, 112881.23, 0.12225, 0.47763336, -1453689.9, 64238.926, 0.0012055306, 9.997534, 10.001339 
1.305027e+3, 1.551106e+2, -1553153.8, -1329029.9, 80853.81, -0.08148841, 0.13851395, -1302906.4, 117029.336, 0.000244213, 9.998399, 10.00137 
1.3050306e+3, 1.6511041e+2, -1461133.9, -1366990.3, 63672.926, -0.08382889, 0.04772655, -1334878.8, -12945.262, 0.000009295233, 9.998932, 10.00019 
1.3050357e+3, 1.7511167e+2, -1303359.3, -1233425.4, 19557.867, 0.051249783, 0.122608945, -1228327.4, -4404.9673, 0.0, 9.99932, 10.000241 
1.3050388e+3, 1.8511212e+2, -1221704.3, -1259756.4, 23977.07, 0.037972834, 0.201353, -1210121.6, -84202.7, 0.0, 9.999678, 9.9992285 
1.3050404e+3, 1.9511154e+2, -1075571.8, -1125824.4, 58656.4, -0.109119184, 0.18651965, -1036886.6, -8961.416, 0.0, 9.999963, 9.999333 
1.305044e+3, 2.0511113e+2, -933201.8, -959368.06, 88533.24, -0.07529057, 0.19780785, -856790.25, 73138.336, 0.0, 10.000075, 9.9997425 
1.3050494e+3, 2.1511072e+2, -835356.25, -850560.25, 50925.918, 0.12559976, 0.14902322, -791468.06, 40462.484, 0.0, 10.000035, 9.999833 
1.3050534e+3, 2.2511037e+2, -728939.94, -827542.7, 65956.945, 0.15977922, 0.17173225, -695894.8, 38038.836, 0.0, 10.000419, 9.999135 
1.3050562e+3, 2.3510988e+2, -521076.4, -665990.25, 21148.83, 0.037485976, 0.1745571, -518053.03, 117886.73, 0.0, 10.001132, 9.999224 
1.3050595e+3, 2.4510898e+2, -503288.56, -753806.8, -13007.003, 0.014668654, 0.23144679, -502615.03, 35335.59, 0.0, 10.001197, 9.997925 
1.3050628e+3, 2.551074e+2, -476306.66, -680380.75, 30767.781, 0.09037056, 0.2467457, -471768.75, -31800.082, 0.0, 10.000666, 9.9980135 
1.305065e+3, 2.6510555e+2, -304981.88, -536140.1, 23685.229, 0.10289327, 0.2633253, -302579.97, 39408.086, 0.000000026393016, 10.001138, 9.998105 
1.3050658e+3, 2.7510327e+2, 11780.108, -328910.06, 7030.406, 0.044306006, 0.19134325, 11925.125, 255935.92, 0.0000066700077, 10.002611, 9.998151 
1.3050674e+3, 2.8510147e+2, 82662.35, -355870.1, 43273.844, 0.011302488, 0.25278258, 86891.77, 232922.23, 0.00007506801, 10.002924, 9.997124 
1.3050698e+3, 2.9509985e+2, 82660.18, -306723.94, -7200.6133, 0.0029120406, 0.3397222, 82793.3, 130842.93, 0.00033560226, 10.002246, 9.997116 
1.3050719e+3, 3.0509755e+2, 182166.0, -226375.72, -94023.734, 0.084290326, 0.4060123, 202766.31, 202766.31, 0.0008831013, 10.002582, 9.997178 
1.3050713e+3, 3.1509277e+2, 516331.44, 156843.73, -63920.957, 0.018263008, 0.15610364, 527359.0, 527359.0, 0.001684596, 10.003846, 9.999213 
1.3150178e+3, 1.2510486e+2, -1700887.6, -1617267.0, -216708.69, -0.109455064, 0.23047306, -1438372.1, 275626.66, 0.005819013, 9.999658, 10.000824 
1.3150167e+3, 1.351066e+2, -1785993.3, -1542141.4, -82374.33, -0.18292533, 0.25499588, -1516923.0, 99058.914, 0.0032902497, 9.998137, 10.001408 
1.3150229e+3, 1.4510731e+2, -1754212.1, -1448682.1, 121963.49, 0.111054346, 0.1721614, -1405967.6, 112003.29, 0.0013013786, 9.997566, 10.001625 
1.3150264e+3, 1.5510881e+2, -1540443.3, -1300237.6, 122030.89, 0.009140123, 0.12943874, -1249120.6, 170827.84, 0.00026992275, 9.998389, 10.001575 
1.3150306e+3, 1.6510953e+2, -1517018.5, -1495183.4, 61361.965, -0.008362323, 0.16516323, -1443775.3, -121834.72, 0.00001153221, 9.998969, 9.999297 
1.3150348e+3, 1.7510936e+2, -1356978.9, -1354168.5, 43870.063, 0.013309837, 0.18385129, -1311681.1, -87733.46, 0.0, 9.999347, 9.999403 
1.3150384e+3, 1.8510951e+2, -1138769.8, -1075418.5, 20053.533, -0.007717422, 0.20759712, -1069604.3, 56341.695, 0.0, 9.999631, 10.000511 
1.3150412e+3, 1.9510977e+2, -1000084.25, -949874.0, 79071.22, -0.058478698, 0.14719823, -892018.1, 135919.5, 0.0, 9.999881, 10.000579 
1.3150448e+3, 2.0510925e+2, -999338.7, -1067045.3, 74625.86, -0.012871606, 0.12051816, -951246.44, -21306.342, 0.0, 9.999949, 9.999063 
1.3150495e+3, 2.1510772e+2, -903963.44, -964329.9, 62904.066, 0.1243863, 0.030248322, -864376.0, -32420.602, 0.0, 9.999902, 9.999121 
1.3150534e+3, 2.2510682e+2, -813313.6, -957047.8, 82001.61, 0.1023552, 0.07403394, -776143.4, -42176.844, 0.0, 10.000232, 9.998334 
1.3150568e+3, 2.3510636e+2, -604277.4, -796766.5, 62997.22, -0.052268326, 0.15843171, -585493.0, 50482.367, 0.0, 10.000955, 9.998412 
1.3150595e+3, 2.4510548e+2, -429469.72, -557410.8, -45878.938, -0.10987548, 0.1869645, -414718.53, 123265.664, 0.0, 10.001009, 9.999366 
1.315062e+3, 2.5510415e+2, -402056.1, -484042.38, 24749.32, -0.07243459, 0.08126784, -395164.3, 44829.16, 0.0, 10.0004835, 9.999451 
1.3150652e+3, 2.6510313e+2, -331467.66, -553611.4, 66687.24, -0.006565149, 0.10878749, -312985.88, 29017.666, 0.000000066602475, 10.000977, 9.99806 
1.3150689e+3, 2.7510202e+2, -18489.156, -347766.44, 79018.78, 0.07817484, 0.16058247, -508.3843, 243509.39, 0.0000067822207, 10.002439, 9.998096 
1.315071e+3, 2.851001e+2, 5315.921, -500065.94, 5413.714, 0.03808454, 0.26256737, 5373.9067, 151416.02, 0.000081610815, 10.002836, 9.996186 
1.3150711e+3, 2.9509726e+2, -4639.472, -450701.47, -11419.797, -0.11769036, 0.31296718, -4347.301, 43729.97, 0.0003693932, 10.002081, 9.996213 
1.3150743e+3, 3.0509472e+2, 173266.19, -211505.78, -52865.805, 0.028348407, 0.39433324, 180397.52, 180397.52, 0.00097588636, 10.002442, 9.99734 
1.3150768e+3, 3.1509015e+2, 449123.9, 93246.69, 15867.583, 0.12956855, 0.14610204, 449830.0, 449830.0, 0.0018645462, 10.003544, 9.998907 
1.3250177e+3, 1.251038e+2, -2005060.0, -1737515.1, -26148.398, 0.037551574, 0.23600318, -1734983.5, -20975.354, 0.006183249, 9.997412, 10.001085 
1.3250166e+3, 1.3510436e+2, -1551490.9, -1435007.8, 37720.58, -0.07265855, 0.14909363, -1423859.8, 192139.56, 0.0035072896, 9.999792, 10.001329 
1.3250215e+3, 1.4510445e+2, -1448063.1, -1368321.8, 153751.47, 0.11086877, 0.038371325, -1249355.4, 268639.06, 0.0013982238, 9.999957, 10.001029 
1.3250257e+3, 1.5510702e+2, -1556490.6, -1371664.0, 70827.17, 0.09551917, 0.16165476, -1347644.0, 72321.18, 0.00029637254, 9.998553, 10.001009 
1.3250302e+3, 1.6510792e+2, -1616703.0, -1512658.1, 83610.055, 0.10029145, 0.23135255, -1466207.4, -144251.42, 0.000014169166, 9.998161, 9.9995575 
1.325034e+3, 1.7510705e+2, -1417237.0, -1358137.4, 122321.76, 0.041959804, 0.15457888, -1261846.8, -37879.035, 0.0, 9.998827, 9.999625 
1.3250378e+3, 1.851069e+2, -1217915.8, -1119619.6, 95997.86, 0.012199898, 0.14209133, -1060920.0, 65048.31, 0.0, 9.999123, 10.00045 
1.3250414e+3, 1.9510728e+2, -1115956.9, -1013526.44, 26404.145, 0.026130619, 0.10102315, -1007120.7, 20838.896, 0.0, 9.999125, 10.0005045 
1.3250454e+3, 2.0510682e+2, -1051344.1, -1126377.4, 26000.152, 0.0628361, 0.09915221, -1043215.3, -113252.73, 0.0, 9.999735, 9.998759 
1.3250498e+3, 2.151054e+2, -772806.3, -930967.44, 20630.23, 0.1140308, 0.04520465, -770159.6, 61818.832, 0.0, 10.0009365, 9.998846 
1.325054e+3, 2.2510436e+2, -662490.9, -899238.6, 88197.42, 0.09199347, 0.09609897, -633246.44, 100744.99, 0.0, 10.001336, 9.998202 
1.3250583e+3, 2.3510355e+2, -607708.5, -805344.06, 95418.58, 0.01761149, 0.15994371, -569159.4, 66843.81, 0.0, 10.000975, 9.998342 
1.3250612e+3, 2.451025e+2, -449930.1, -549739.75, -24832.71, -0.03396077, 0.16887587, -444093.06, 93920.12, 0.0, 10.0008, 9.999518 
1.3250627e+3, 2.551011e+2, -347409.6, -439130.34, -78194.49, -0.0725055, 0.041799568, -302619.25, 137403.48, 0.0, 10.00079, 9.999609 
1.3250661e+3, 2.651003e+2, -325417.84, -571124.75, -14278.05, -0.020157676, 0.09613604, -324590.94, 17440.535, 0.0000000978673, 10.001117, 9.997867 
1.3250713e+3, 2.7509978e+2, -119267.125, -416146.4, -41525.406, 0.11090656, 0.22523865, -113568.234, 130474.41, 0.000006920427, 10.001833, 9.997917 
1.325074e+3, 2.8509796e+2, -44626.56, -455733.78, -86115.266, 0.094214864, 0.31535363, -27316.697, 118748.86, 0.000086783395, 10.002225, 9.996774 
1.3250738e+3, 2.950948e+2, 91606.65, -338658.06, -31023.658, -0.063190795, 0.27761078, 93832.055, 141932.72, 0.00039493892, 10.002467, 9.99679 
1.3250774e+3, 3.0509228e+2, 231919.64, -231013.75, 42909.176, 0.08756886, 0.35130596, 235863.28, 235863.28, 0.0010490068, 10.003058, 9.99691 
1.3250807e+3, 3.1508866e+2, 425369.5, -16327.099, -1267.802, 0.16739058, 0.24741448, 425373.13, 425373.13, 0.00200862, 10.003784, 9.998047 
1.3350153e+3, 1.2510644e+2, -2052514.9, -1842965.1, 37747.508, -0.009201912, 0.2921757, -1836372.8, -122398.3, 0.0065457188, 9.997437, 10.000353 
1.3350193e+3, 1.3510479e+2, -1665625.9, -1675054.8, 125245.75, 0.18288738, 0.14363976, -1545005.9, 70982.875, 0.0037237175, 9.999799, 9.999676 
1.3350207e+3, 1.4510354e+2, -1539018.4, -1565202.4, 80605.77, -0.0081407325, 0.05194276, -1470448.4, 47552.457, 0.0014951822, 9.999981, 9.999672 
1.3350244e+3, 1.5510534e+2, -1641285.9, -1556871.1, 31047.295, 0.07390083, 0.22960265, -1546682.0, -126697.46, 0.00032323142, 9.998581, 9.999731 
1.3350289e+3, 1.6510576e+2, -1526825.8, -1325787.4, 93964.0, 0.12771648, 0.25107005, -1288708.1, 33269.938, 0.000017128494, 9.998161, 10.000838 
1.3350332e+3, 1.7510483e+2, -1330171.4, -1175136.5, 159040.13, 0.041918486, 0.036135346, -1075728.1, 148253.63, 0.00000000003443261, 9.998818, 10.000883 
1.335037e+3, 1.8510437e+2, -1320623.1, -1335675.4, 80862.12, -0.0045879497, 0.0041966154, -1246937.6, -120952.42, 0.0, 9.9991255, 9.998973 
1.3350411e+3, 1.9510409e+2, -1224881.8, -1229998.1, 36839.45, 0.045865424, 0.04684064, -1190511.8, -162521.08, 0.0, 9.999071, 9.99905 
1.3350451e+3, 2.0510389e+2, -1061661.6, -1120042.5, 56852.875, 0.04793672, 0.13537812, -1026943.25, -96947.79, 0.0, 9.999615, 9.998861 
1.3350497e+3, 2.1510355e+2, -789879.75, -931916.1, 75475.6, -0.005046332, 0.18145566, -757263.25, 74737.63, 0.0, 10.000779, 9.998922 
1.3350548e+3, 2.2510275e+2, -648587.8, -828460.3, 64440.168, 0.01874734, 0.22382803, -627884.7, 106125.234, 0.0, 10.001154, 9.998775 
1.3350606e+3, 2.3510142e+2, -593975.1, -740308.25, 95949.76, 0.13581342, 0.17619018, -546478.1, 89545.25, 0.0, 10.000811, 9.998869 
1.3350637e+3, 2.4509999e+2, -552787.7, -723139.8, -37798.25, 0.117125444, 0.17729945, -544777.56, -6739.542, 0.0, 10.000632, 9.9984045 
1.335064e+3, 2.5509825e+2, -447804.4, -614670.6, -64702.703, -0.030171836, 0.12671757, -425655.7, 14400.768, 0.0, 10.00065, 9.9984665 
1.3350672e+3, 2.6509717e+2, -367911.2, -635444.1, 924.74243, -0.052655157, 0.22787893, -367908.0, -25836.219, 0.00000008871969, 10.001009, 9.9974785 
1.3350727e+3, 2.750965e+2, -167487.42, -475684.28, 2638.0928, 0.037152015, 0.3744591, -167464.84, 76621.1, 0.000006673535, 10.00166, 9.997591 
1.3350761e+3, 2.8509498e+2, 69564.086, -183759.02, -91106.86, 0.056986548, 0.41380748, 98926.914, 245028.44, 0.00008871381, 10.002074, 9.9987135 
1.3350776e+3, 2.950925e+2, 201728.34, -70925.85, -1420.5216, 0.035667107, 0.25141352, 201735.75, 249855.4, 0.0004076121, 10.0023, 9.998711 
1.3350812e+3, 3.0509034e+2, 146868.02, -373164.0, 67291.69, 0.12777464, 0.31104758, 155434.39, 155434.39, 0.0010927352, 10.002919, 9.995996 
1.3350827e+3, 3.150879e+2, 284582.4, -235978.31, 58297.504, -0.06937181, 0.42027828, 291031.25, 291031.25, 0.0021020344, 10.003477, 9.996686 
1.3450134e+3, 1.2510459e+2, -1907284.0, -1815383.5, -47909.766, 0.0073178755, 0.2508776, -1794950.3, -80961.66, 0.0069055543, 9.998628, 9.999964 
1.3450201e+3, 1.3510263e+2, -1812012.9, -1840997.4, -43452.406, 0.3219313, 0.15549392, -1780699.8, -164691.17, 0.0039389143, 9.999212, 9.998827 
1.3450196e+3, 1.451012e+2, -1669004.5, -1645556.6, -57897.95, -0.054062374, 0.09976309, -1598207.5, -80183.71, 0.0015916337, 9.999169, 9.99951 
1.3450232e+3, 1.551022e+2, -1515863.4, -1510474.1, -44442.484, 0.056747288, 0.21007332, -1468644.6, -48628.637, 0.0003501717, 9.999513, 9.999595 
1.3450281e+3, 1.6510251e+2, -1313356.4, -1214857.9, 73343.96, 0.15839687, 0.2230357, -1175762.1, 146248.39, 0.000020254476, 9.999594, 10.00091 
1.345033e+3, 1.7510208e+2, -1247363.9, -1125191.8, 18474.521, 0.12702118, 0.053950846, -1122459.3, 101549.45, 0.0000000014653116, 9.9993515, 10.000966 
1.3450372e+3, 1.8510175e+2, -1264981.5, -1324763.0, -24693.262, 0.08606413, 0.038348872, -1256100.9, -130089.67, 0.0, 9.999588, 9.9988165 
1.345041e+3, 1.9510126e+2, -1041106.44, -1155346.8, 6351.049, 0.07654153, 0.07320949, -1040754.44, -12734.167, 0.0, 10.000408, 9.998908 
1.3450456e+3, 2.0510092e+2, -879896.1, -1046430.8, 102981.85, 0.056723736, 0.16432467, -830729.6, 99297.57, 0.0, 10.000919, 9.998743 
1.3450508e+3, 2.1510063e+2, -753005.0, -917787.8, 77373.53, 0.013907784, 0.2238131, -722369.8, 109663.12, 0.0, 10.001061, 9.998874 
1.3450558e+3, 2.2509994e+2, -694665.2, -804624.75, 28113.852, 0.040827423, 0.25813574, -687894.2, 46146.293, 0.0, 10.000642, 9.999183 
1.345061e+3, 2.350987e+2, -724382.1, -756335.2, 24913.545, 0.14835475, 0.18220621, -710762.44, -74711.27, 0.0, 9.9997225, 9.999279 
1.3450643e+3, 2.4509755e+2, -632196.5, -794492.7, -191.31613, 0.1379869, 0.20430474, -632196.3, -94132.65, 0.0, 10.0002365, 9.998107 
1.3450658e+3, 2.5509626e+2, -253437.08, -550033.6, 8156.9756, 0.015207399, 0.22840957, -253212.92, 186866.8, 0.0, 10.002124, 9.998201 
1.3450691e+3, 2.65095e+2, -154162.08, -488238.3, 109288.516, -0.016135849, 0.30682316, -121586.29, 220509.5, 0.000000062099474, 10.002293, 9.997872 
1.3450739e+3, 2.750935e+2, -253514.48, -472956.4, 134638.47, 0.0382497, 0.33298635, -189551.22, 54563.16, 0.0000065347235, 10.0008745, 9.997987 
1.3450776e+3, 2.8509185e+2, -79065.805, -258235.42, 76904.44, 0.06724072, 0.34068564, -50583.977, 95545.836, 0.00008986311, 10.001054, 9.9987 
1.3450807e+3, 2.9509017e+2, 272804.1, -25606.686, -15302.688, 0.09168092, 0.25494406, 273586.78, 321727.97, 0.00041355038, 10.00275, 9.998801 
1.3450848e+3, 3.05088e+2, 222122.08, -294811.56, 23444.084, 0.18143393, 0.2876755, 223183.14, 223183.14, 0.0011132387, 10.003222, 9.996406 
1.3450858e+3, 3.1508654e+2, 147956.36, -249692.3, 39011.47, -0.024009466, 0.45123905, 151747.45, 151747.45, 0.0021484285, 10.002313, 9.997144 
1.3550133e+3, 1.2509811e+2, -1918440.6, -1829404.9, 161766.23, 0.064165734, 0.078974865, -1706142.6, 7908.794, 0.0072628423, 9.998614, 9.999869 
1.3550188e+3, 1.3509797e+2, -1812922.0, -1847154.4, -26810.832, 0.24103364, 0.17205164, -1798229.6, -182172.19, 0.004152666, 9.999236, 9.998775 
1.3550182e+3, 1.4509761e+2, -1606137.4, -1512205.4, -66206.63, -0.14957108, 0.18437375, -1477997.9, 40063.89, 0.0016872559, 9.999156, 10.000429 
1.3550219e+3, 1.5509759e+2, -1448053.5, -1374189.5, -17820.307, -0.065905586, 0.09861014, -1370115.0, 49944.473, 0.0003769789, 9.999526, 10.0005245 
1.3550273e+3, 1.6509804e+2, -1388617.1, -1376092.6, 48650.26, 0.08626665, 0.13265894, -1333303.3, -11248.721, 0.000023370363, 9.999612, 9.999798 
1.3550335e+3, 1.7509876e+2, -1329084.5, -1289338.1, 19724.533, 0.20903653, 0.1896601, -1281211.3, -57162.305, 0.0000000068048798, 9.999322, 9.999857 
1.355038e+3, 1.8509905e+2, -1192676.9, -1160821.6, -8938.359, 0.16987531, 0.23562872, -1158485.0, -32438.73, 0.0, 9.999532, 9.999966 
1.355041e+3, 1.9509876e+2, -971578.7, -996377.9, 50017.34, 0.013830896, 0.17304285, -932446.9, 95601.44, 0.0, 10.000341, 10.000032 
1.3550459e+3, 2.0509797e+2, -923512.7, -1105032.8, 93547.5, -0.015512692, 0.18218677, -883932.7, 46124.797, 0.0, 10.000788, 9.998401 
1.3550526e+3, 2.1509664e+2, -805314.9, -982626.8, 93346.45, 0.074168146, 0.17109008, -765233.0, 66841.51, 0.0, 10.000872, 9.998522 
1.3550569e+3, 2.2509582e+2, -707933.06, -782707.06, -21418.076, 0.060495384, 0.19986741, -702232.7, 31851.031, 0.0, 10.00043, 9.999435 
1.3550591e+3, 2.3509541e+2, -730177.6, -730549.7, 3145.041, -0.044016004, 0.17824969, -727213.1, -91126.35, 0.0, 9.999561, 9.999533 
1.3550626e+3, 2.450952e+2, -619800.06, -731081.0, 57947.383, -0.07206904, 0.25731635, -595105.25, -57015.74, 0.0, 10.000072, 9.998625 
1.3550676e+3, 2.5509503e+2, -241587.86, -484575.53, 92113.664, -0.035979662, 0.3401525, -210616.36, 229477.03, 0.0, 10.001948, 9.998737 
1.3550715e+3, 2.6509365e+2, -99629.43, -339820.4, 42004.242, -0.015071092, 0.3248988, -92495.664, 249609.89, 0.000000036385206, 10.002139, 9.998968 
1.3550746e+3, 2.750908e+2, -204104.52, -334216.94, 98250.15, 0.0019599881, 0.10914152, -151324.39, 92804.25, 0.0000068750182, 10.000722, 9.999016 
1.3550782e+3, 2.8508872e+2, -231546.4, -547127.6, 128995.41, -0.0036092969, 0.118883975, -185529.05, -39379.24, 0.00009120505, 10.000933, 9.996775 
1.3550825e+3, 2.9508737e+2, 115831.52, -317203.16, 68985.43, -0.025371967, 0.25993493, 126555.79, 174724.94, 0.00041555686, 10.002593, 9.996881 
1.3550875e+3, 3.0508482e+2, 313376.4, -59133.902, -22015.758, 0.124327764, 0.26709962, 314673.03, 314673.03, 0.0011140582, 10.003042, 9.998103 
1.3550895e+3, 3.150838e+2, 249087.39, 31086.82, 27588.424, 0.049761124, 0.30339807, 252524.56, 252524.56, 0.0021475272, 10.002025, 9.9992075 
1.3650115e+3, 1.2509218e+2, -1975429.0, -1766607.0, 219081.28, 0.08450798, 0.07488719, -1628328.4, 85782.984, 0.0076198755, 9.997825, 10.000683 
1.3650158e+3, 1.350932e+2, -1882712.6, -1758707.0, -27794.633, 0.081989765, 0.17046589, -1752762.1, -136658.58, 0.004366158, 9.998206, 9.999886 
1.3650177e+3, 1.4509371e+2, -1709486.0, -1551032.5, -16957.352, -0.07635404, 0.20748055, -1549238.1, -31139.367, 0.0017823466, 9.998401, 10.000524 
1.3650218e+3, 1.5509334e+2, -1522951.4, -1402157.0, -55387.934, 0.011196481, 0.07902256, -1380605.3, 39495.516, 0.0004035849, 9.998983, 10.000589 
1.3650271e+3, 1.6509378e+2, -1458234.3, -1426805.3, 19262.414, 0.13322932, 0.11647485, -1417660.4, -95563.21, 0.000026350568, 9.999191, 9.9996605 
1.3650326e+3, 1.7509496e+2, -1369740.8, -1321627.4, 35491.188, 0.20567758, 0.23160683, -1302808.1, -78719.35, 0.000000016360648, 9.999093, 9.999748 
1.3650371e+3, 1.8509544e+2, -1239496.9, -1186905.1, 59119.844, 0.15776242, 0.30310094, -1148496.9, -22411.395, 0.0, 9.999217, 9.999943 
1.3650408e+3, 1.9509509e+2, -1084633.5, -1048542.56, 3517.2212, 0.02041584, 0.23708843, -1048203.0, -20114.203, 0.0, 9.999559, 10.000051 
1.3650462e+3, 2.0509449e+2, -1061819.6, -1104732.1, 36465.277, 0.0006405986, 0.23010647, -1040966.44, -110870.664, 0.0, 9.999545, 9.9990015 
1.3650526e+3, 2.1509348e+2, -1004629.44, -1012038.3, 82413.05, 0.0842085, 0.1929451, -925837.6, -93729.93, 0.0, 9.999212, 9.999118 
1.365057e+3, 2.2509299e+2, -800454.9, -819303.2, 38258.875, 0.06017302, 0.21938469, -770476.56, -36363.445, 0.0, 9.999756, 9.999513 
1.365059e+3, 2.3509286e+2, -501589.47, -616007.8, 20252.219, -0.0714894, 0.22057633, -498110.6, 138003.08, 0.0, 10.001097, 9.999591 
1.365063e+3, 2.4509253e+2, -418951.34, -594905.2, 97009.625, -0.09293523, 0.2668882, -375967.2, 162149.23, 0.0, 10.001288, 9.998969 
1.3650689e+3, 2.5509185e+2, -434080.0, -538812.06, 87501.05, -0.020379122, 0.2636571, -384472.34, 55650.33, 0.0, 10.000462, 9.999078 
1.3650735e+3, 2.6509053e+2, -265792.88, -425423.56, 7467.567, 0.030989034, 0.23754019, -265444.3, 76688.75, 0.000000033203506, 10.001023, 9.998916 
1.365077e+3, 2.7508834e+2, 120456.6, -176872.47, -49827.52, 0.063627794, 0.09212473, 128584.69, 372734.1, 0.0000069323874, 10.002953, 9.999016 
1.3650806e+3, 2.850864e+2, 117455.97, -394600.1, 44957.254, 0.015273914, 0.120020404, 121373.14, 267543.1, 0.000089487476, 10.0034275, 9.996609 
1.3650844e+3, 2.9508457e+2, 116887.94, -328514.8, 88310.484, -0.09752878, 0.23333205, 133758.36, 181953.22, 0.00040599646, 10.002667, 9.996758 
1.3650897e+3, 3.050817e+2, 281413.03, -55537.78, 18798.545, 0.06775474, 0.2016907, 282458.56, 282458.56, 0.0010861106, 10.002742, 9.9982815 
1.3650936e+3, 3.1508094e+2, 482822.06, 212029.77, -113008.99, 0.20321207, 0.25607762, 523786.78, 523786.78, 0.0020927999, 10.003315, 9.999855 
1.3750106e+3, 1.2508656e+2, -1860656.6, -1539927.0, 127288.26, 0.1510614, 0.20991005, -1495550.0, 218620.98, 0.0079810945, 9.997876, 10.002215 
1.3750103e+3, 1.350883e+2, -1715836.9, -1421384.8, -11555.83, -0.30447233, 0.14592862, -1420931.9, 195215.81, 0.0045821774, 9.998228, 10.002198 
1.3750178e+3, 1.4508948e+2, -1755611.0, -1653782.6, -20308.174, 0.054528605, 0.16714787, -1649881.9, -131746.81, 0.0018779465, 9.998427, 9.999808 
1.3750228e+3, 1.5508935e+2, -1579228.0, -1519602.5, -22468.47, 0.18609218, 0.14161666, -1512083.9, -91943.28, 0.00043006244, 9.998982, 9.999785 
1.375027e+3, 1.6508977e+2, -1395570.9, -1299520.3, -2219.5715, 0.17792903, 0.17588757, -1299469.0, 22669.105, 0.000029160963, 9.999198, 10.000534 
1.37503e+3, 1.7509076e+2, -1305610.6, -1191731.9, 43287.633, 0.009540597, 0.18264748, -1177145.6, 46981.977, 0.000000027808229, 9.999095, 10.000646 
1.3750345e+3, 1.85091e+2, -1324251.6, -1357266.9, 56601.797, -0.058931023, 0.24292867, -1281799.4, -155671.27, 0.0, 9.999198, 9.998782 
1.3750406e+3, 1.9509023e+2, -1181719.5, -1228576.1, 25575.705, -0.0044405637, 0.25581655, -1170463.5, -142321.22, 0.0, 9.999465, 9.998864 
1.3750459e+3, 2.0509036e+2, -969541.0, -882628.06, 10353.797, -0.010159659, 0.30204406, -881411.7, 48731.36, 0.0, 9.9994135, 10.00059 
1.3750505e+3, 2.1509121e+2, -920793.44, -798086.5, 83214.15, -0.06749783, 0.29156116, -756053.1, 76078.91, 0.0, 9.999039, 10.000672 
1.3750556e+3, 2.250915e+2, -839793.44, -852899.6, 75131.14, -0.07814075, 0.3266951, -770930.2, -36802.445, 0.0, 9.999552, 9.999376 
1.3750605e+3, 2.3509108e+2, -541361.1, -647894.25, 83612.76, -0.04743424, 0.30963603, -495489.28, 140642.34, 0.0, 10.000887, 9.999467 
1.3750651e+3, 2.450895e+2, -437393.44, -595286.75, 48695.316, -0.03715685, 0.23412473, -423583.38, 114561.234, 0.0, 10.001116, 9.999054 
1.3750693e+3, 2.5508672e+2, -447575.03, -535100.8, 68498.81, -0.03717643, 0.008753327, -410052.75, 30114.445, 0.0, 10.0003195, 9.999175 
1.3750745e+3, 2.6508567e+2, -363120.9, -596698.25, 68334.82, 0.013986868, 0.062078446, -344597.94, -2420.849, 0.000000022673568, 10.000891, 9.997802 
1.3750805e+3, 2.7508596e+2, 16947.443, -349198.22, 37630.555, 0.11157269, 0.2740158, 20774.906, 264952.72, 0.0000066245593, 10.002777, 9.997913 
1.3750842e+3, 2.850847e+2, 214804.61, -168094.2, 607.65045, 0.01238969, 0.3449253, 214805.56, 360997.03, 0.000084736, 10.003314, 9.998222 
1.3750859e+3, 2.9508185e+2, 201552.06, -111639.38, 80353.46, -0.2488653, 0.19240989, 220964.56, 269182.3, 0.00038240643, 10.002484, 9.998342 
1.375091e+3, 3.0507854e+2, 160498.95, -264446.44, 36894.082, -0.11653405, 0.104625404, 163678.34, 163678.34, 0.0010237873, 10.002572, 9.996918 
1.3750973e+3, 3.1507713e+2, 363403.88, 56859.914, -55196.24, 0.19403581, 0.23713452, 373039.63, 373039.63, 0.0019802407, 10.00295, 9.998945 
1.3850091e+3, 1.2508173e+2, -1916816.1, -1575785.4, 147968.08, 0.25112978, 0.2891336, -1520535.3, 193684.25, 0.008351057, 9.997557, 10.002111 
1.3850078e+3, 1.350829e+2, -1749134.4, -1401586.5, -64380.063, -0.35172597, 0.14517373, -1390044.0, 226157.58, 0.004803759, 9.9978695, 10.002499 
1.3850176e+3, 1.4508402e+2, -1773333.0, -1623663.9, -66993.3, 0.21541691, 0.12558194, -1598057.9, -79868.79, 0.0019753822, 9.998133, 10.000164 
1.385022e+3, 1.5508465e+2, -1586438.6, -1483821.1, -15251.178, 0.2272738, 0.14213178, -1481602.4, -61416.426, 0.00045665295, 9.998763, 10.000139 
1.3850258e+3, 1.6508545e+2, -1414237.5, -1301356.8, 25810.846, 0.14400578, 0.19337504, -1295735.0, 26445.053, 0.00003186285, 9.999067, 10.000572 
1.3850287e+3, 1.750864e+2, -1292725.5, -1179337.4, -24580.742, -0.035265055, 0.19260272, -1174238.0, 49932.957, 0.000000039188958, 9.999176, 10.000687 
1.3850336e+3, 1.8508658e+2, -1313426.4, -1338477.9, 38641.227, -0.05435336, 0.23875162, -1285331.5, -159159.31, 0.0, 9.9992075, 9.998909 
1.3850406e+3, 1.9508588e+2, -1182607.5, -1206909.9, 84485.46, 0.07424741, 0.23879746, -1109403.9, -81218.79, 0.0, 9.999369, 9.999051 
1.3850461e+3, 2.0508617e+2, -947849.2, -858438.8, 82405.055, 0.063185155, 0.28501976, -809393.56, 120790.22, 0.0, 9.999505, 10.0007105 
1.3850498e+3, 2.1508731e+2, -818784.6, -734863.0, 19279.82, -0.07453848, 0.29118612, -730645.6, 101524.27, 0.0, 9.999674, 10.000807 
1.3850552e+3, 2.2508784e+2, -771070.1, -810016.3, 31910.3, -0.07368464, 0.33593407, -753160.5, -18996.879, 0.0, 9.999966, 9.99948 
1.3850622e+3, 2.3508751e+2, -585552.5, -658845.3, 31158.273, 0.055892415, 0.32170197, -574097.0, 62069.707, 0.0, 10.000524, 9.999574 
1.3850674e+3, 2.4508597e+2, -447715.75, -623959.25, -11493.001, 0.077519864, 0.2550548, -446969.44, 91210.266, 0.0, 10.001161, 9.998822 
1.3850708e+3, 2.5508314e+2, -223032.34, -450416.3, -49812.203, -0.010347272, 0.049429283, -212598.89, 227604.1, 0.0, 10.001967, 9.998953 
1.3850759e+3, 2.6508182e+2, -171102.47, -513533.47, 32244.643, -0.0034565616, 0.08966251, -168092.66, 174123.22, 0.0000000049794013, 10.002252, 9.997716 
1.3850828e+3, 2.750817e+2, -81373.5, -406208.97, 52448.88, 0.09027075, 0.2664444, -73114.914, 171106.16, 0.0000064670485, 10.00213, 9.997839 
1.3850872e+3, 2.8508043e+2, 65472.156, -207086.23, -12869.518, 0.037258815, 0.33014265, 66078.48, 212312.45, 0.00007993784, 10.00213, 9.998537 
1.3850892e+3, 2.9507804e+2, 210548.95, -59536.73, -63375.992, -0.14089707, 0.18813449, 224680.8, 272935.78, 0.00035406946, 10.002339, 9.998765 
1.385094e+3, 3.0507526e+2, 210068.58, -277336.1, -44376.625, -0.079517365, 0.14766186, 214075.98, 214075.98, 0.00094641367, 10.003044, 9.996613 
1.3851e+3, 3.150729e+2, 515086.28, 122189.625, -102016.97, 0.1324685, 0.21155238, 539996.06, 539996.06, 0.0018394237, 10.003988, 9.998902 
1.3950051e+3, 1.2507677e+2, -2037958.9, -1820557.8, -99976.445, 0.032674234, 0.21136093, -1781572.5, -67306.734, 0.008733579, 9.99754, 10.000426 
1.395008e+3, 1.350771e+2, -1871914.4, -1656029.6, -44572.203, -0.15728202, 0.15683055, -1647189.1, -30924.271, 0.005033633, 9.997872, 10.000742 
1.3950168e+3, 1.4507759e+2, -1665410.1, -1407769.0, -65179.984, 0.28092968, 0.08599009, -1392218.0, 126040.75, 0.002076125, 9.998165, 10.001631 
1.3950188e+3, 1.5507941e+2, -1486632.0, -1272994.8, 22159.129, 0.007574712, 0.074759945, -1270720.5, 149515.2, 0.00048381835, 9.998745, 10.0015955 
1.3950227e+3, 1.6508082e+2, -1475518.5, -1432650.9, 11644.425, -0.09625258, 0.16011408, -1429692.0, -107469.25, 0.000034571214, 9.999081, 9.999668 
1.3950282e+3, 1.7508171e+2, -1364230.8, -1317672.9, -12157.58, -0.020016914, 0.24766006, -1314689.4, -90469.15, 0.00000005013657, 9.999131, 9.999761 
1.3950343e+3, 1.8508217e+2, -1203118.3, -1106911.3, 26546.7, 0.057529442, 0.28798473, -1100072.4, 26145.375, 0.0, 9.999196, 10.000504 
1.395041e+3, 1.9508205e+2, -1085925.9, -988020.9, 99493.52, 0.14771336, 0.18982139, -926089.2, 102127.34, 0.0, 9.999286, 10.000598 
1.3950463e+3, 2.0508195e+2, -1055582.5, -1054638.3, 73889.766, 0.11045596, 0.18681848, -981219.06, -51001.805, 0.0, 9.999387, 9.99942 
1.39505e+3, 2.1508178e+2, -937707.06, -937840.1, 36617.094, -0.04801479, 0.19308193, -901156.44, -68935.45, 0.0, 9.999489, 9.999501 
1.3950558e+3, 2.2508198e+2, -766390.3, -767826.3, 39711.258, -0.042249776, 0.25221372, -727390.56, 6829.688, 0.0, 9.999811, 9.999849 
1.3950637e+3, 2.3508239e+2, -582802.0, -618365.4, 66548.49, 0.1360087, 0.2684139, -531700.56, 104516.03, 0.0, 10.000365, 9.999931 
1.3950694e+3, 2.4508214e+2, -513007.38, -721834.94, 5293.8467, 0.1361056, 0.3431836, -512873.25, 25346.127, 0.0, 10.0009985, 9.998229 
1.3950726e+3, 2.5508103e+2, -298073.66, -556624.7, -5358.968, -0.037770953, 0.3711352, -297962.63, 142268.25, 0.0, 10.001761, 9.998321 
1.3950773e+3, 2.6507884e+2, -130380.89, -393240.34, 14386.326, -0.1173239, 0.31579757, -129595.87, 212654.4, 0.0000000011462398, 10.002095, 9.998618 
1.3950832e+3, 2.750756e+2, -46618.793, -291550.53, 64533.707, -0.09708693, 0.08795981, -30656.02, 213621.94, 0.0000063015364, 10.001943, 9.99872 
1.3950889e+3, 2.8507382e+2, -27539.545, -363508.88, -16774.893, -0.031230943, 0.10491111, -26704.057, 119591.46, 0.00007549819, 10.001971, 9.997537 
1.3950941e+3, 2.9507306e+2, 113591.016, -226018.64, -35448.668, 0.08936433, 0.22703137, 117251.71, 165558.94, 0.0003302392, 10.002186, 9.997698 
1.3950986e+3, 3.0507177e+2, 252874.56, -152524.95, -21095.186, 0.04594703, 0.3448938, 253969.31, 253969.31, 0.00088409375, 10.002897, 9.997535 
1.3951012e+3, 3.1506866e+2, 517946.1, 215885.55, -29909.334, -0.19246559, 0.23518394, 520879.16, 520879.16, 0.0017247383, 10.003628, 9.999716 
1.4050029e+3, 1.2507275e+2, -1997805.8, -1845405.9, -102245.43, 0.048351705, 0.18336245, -1794088.9, -79783.16, 0.009133226, 9.997953, 10.000078 
1.4050078e+3, 1.3507342e+2, -1871187.3, -1724646.6, 72915.24, 0.04282146, 0.22219609, -1694547.9, -78244.64, 0.005275387, 9.998152, 10.000146 
1.405015e+3, 1.4507353e+2, -1664551.8, -1403318.8, 81842.28, 0.30203035, 0.14066276, -1379796.3, 138504.56, 0.0021822979, 9.99816, 10.001659 
1.4050168e+3, 1.5507503e+2, -1555353.5, -1305164.4, 21689.953, -0.03342022, 0.0926892, -1303297.9, 116981.68, 0.00051218417, 9.998272, 10.001603 
1.4050213e+3, 1.650761e+2, -1587646.8, -1507294.4, 14776.127, -0.107988164, 0.1583717, -1504663.4, -182394.52, 0.000037386584, 9.9984, 9.999481 
1.4050283e+3, 1.7507675e+2, -1408632.6, -1351161.3, 21775.807, 0.09605059, 0.22917083, -1343842.5, -119573.266, 0.00000006103049, 9.998882, 9.999642 
1.4050345e+3, 1.8507712e+2, -1199923.3, -1104513.5, 57807.086, 0.1776365, 0.26574787, -1077268.9, 48998.37, 0.0, 9.999221, 10.000508 
1.4050402e+3, 1.9507717e+2, -1050132.1, -968520.06, -13995.558, 0.13182722, 0.18150264, -966186.7, 62077.402, 0.0, 9.999518, 10.000625 
1.4050454e+3, 2.0507707e+2, -1020173.4, -1045569.3, -27704.908, 0.07889631, 0.18026571, -1002395.1, -72130.85, 0.0, 9.999667, 9.999348 
1.4050502e+3, 2.1507671e+2, -887888.25, -914105.1, 1650.0529, 0.014811734, 0.17270349, -887784.8, -55515.62, 0.0, 9.999843, 9.999484 
1.4050564e+3, 2.2507656e+2, -762347.5, -802928.3, 61027.22, 0.037102353, 0.21569261, -718326.0, 15945.965, 0.0, 10.00003, 9.99949 
1.405064e+3, 2.3507643e+2, -620693.6, -668848.9, 4714.8413, 0.14520535, 0.21519424, -620236.4, 16037.714, 0.0, 10.000262, 9.999624 
1.4050701e+3, 2.4507627e+2, -562073.2, -710570.9, -16719.057, 0.14312437, 0.2967893, -560214.06, -21937.705, 0.0, 10.000507, 9.998548 
1.4050744e+3, 2.5507584e+2, -406271.13, -569336.0, 17861.885, 0.020134235, 0.3638212, -404337.5, 35943.06, 0.0, 10.000849, 9.998674 
1.4050797e+3, 2.6507407e+2, -236975.47, -422338.38, 61065.848, -0.04996491, 0.3171983, -218666.42, 123629.87, 0.0000000047036606, 10.001264, 9.998823 
1.4050855e+3, 2.75071e+2, -46461.484, -262254.9, 21895.367, -0.058826834, 0.086306095, -44262.293, 200060.11, 0.000006310061, 10.001827, 9.998975 
1.4050911e+3, 2.8506905e+2, 63728.586, -328924.53, -1820.3381, -0.01394185, 0.081636, 63737.027, 210077.55, 0.00007173929, 10.00265, 9.99744 
1.4050971e+3, 2.950678e+2, 327402.1, -133541.19, 22577.754, 0.091717675, 0.1681106, 328505.34, 376860.8, 0.0003165935, 10.003716, 9.997591 
1.4051019e+3, 3.0506688e+2, 440878.16, -78872.6, 55369.34, 0.03273026, 0.3382658, 446711.22, 446711.22, 0.00085306884, 10.004266, 9.997379 
1.4051057e+3, 3.1506336e+2, 579456.9, 194617.81, -88602.66, -0.13356195, 0.20088308, 598876.2, 598876.2, 0.0016671325, 10.004263, 9.999268 
1.4150004e+3, 1.2506995e+2, -1907388.4, -1666723.1, -75472.18, -0.063071, 0.20733272, -1645013.5, 69323.16, 0.009556688, 9.997986, 10.001297 
1.4150073e+3, 1.3507205e+2, -1833620.6, -1644432.9, 88046.61, 0.14206186, 0.33561972, -1609797.5, 6517.6323, 0.0055341963, 9.998142, 10.000706 
1.4150119e+3, 1.4507182e+2, -1760913.1, -1612149.1, 68694.55, 0.1296405, 0.26349834, -1585280.8, -66964.78, 0.0022969088, 9.9982, 10.000206 
1.4150158e+3, 1.5507153e+2, -1663081.6, -1525713.1, 37435.797, 0.001236098, 0.1928992, -1516173.6, -95856.664, 0.0005425403, 9.998262, 10.000094 
1.4150211e+3, 1.6507158e+2, -1534395.0, -1404670.3, 13167.68, -0.002265276, 0.19334902, -1403347.1, -81030.984, 0.000040406845, 9.998429, 10.000176 
1.4150286e+3, 1.7507175e+2, -1369183.5, -1256087.8, 51415.066, 0.20647457, 0.15266375, -1236208.1, -11892.724, 0.00000007226826, 9.998824, 10.000327 
1.4150342e+3, 1.8507169e+2, -1314010.9, -1333151.5, 53958.81, 0.18863814, 0.18837039, -1268780.3, -142461.5, 0.0, 9.9991865, 9.998953 
1.4150378e+3, 1.9507127e+2, -1172697.1, -1203017.0, 8196.266, -0.073278524, 0.214817, -1170623.4, -142296.13, 0.0, 9.999435, 9.999053 
1.415043e+3, 2.0507148e+2, -949041.4, -878462.94, -39292.84, -0.13446854, 0.26199615, -860938.75, 69386.33, 0.0, 9.999573, 10.000544 
1.4150502e+3, 2.1507213e+2, -832349.4, -759344.5, 19095.586, 0.018845301, 0.23556739, -754651.44, 77662.71, 0.0, 9.999664, 10.000639 
1.4150569e+3, 2.2507153e+2, -863279.0, -968943.6, 54448.633, 0.058167942, 0.22912456, -840243.6, -105924.695, 0.0, 9.999843, 9.998438 
1.4150628e+3, 2.3506962e+2, -729283.06, -842261.0, 27424.605, -0.016463228, 0.15754275, -722977.8, -86637.984, 0.0, 10.000048, 9.998532 
1.4150693e+3, 2.4506845e+2, -494114.3, -538043.25, -14690.057, -0.020158991, 0.13210407, -489654.63, 48695.04, 0.0, 10.000361, 9.999804 
1.4150758e+3, 2.5506783e+2, -338168.84, -396741.8, 45341.438, 0.04971425, 0.045834858, -313478.06, 126872.52, 0.0, 10.00071, 9.9999275 
1.4150824e+3, 2.6506755e+2, -298813.6, -514256.63, 69270.01, 0.0869758, 0.11683326, -278463.78, 63888.74, 0.000000079284355, 10.00111, 9.998263 
1.4150889e+3, 2.750675e+2, -115519.45, -362859.25, 60928.83, 0.084437855, 0.24712032, -101325.05, 143031.56, 0.000007370644, 10.001648, 9.998368 
1.4150938e+3, 2.850658e+2, 110365.055, -204791.45, 24974.014, -0.037387855, 0.2511838, 112331.805, 258703.4, 0.00007202747, 10.002526, 9.998354 
1.4150977e+3, 2.9506215e+2, 361209.3, -23834.277, 83330.69, -0.24415348, 0.005155416, 378469.88, 426870.6, 0.0003176136, 10.0035305, 9.998443 
1.4151037e+3, 3.0506048e+2, 309502.16, -292805.5, 48579.875, -0.23892188, 0.12477524, 313395.25, 313395.25, 0.0008555456, 10.004038, 9.996002 
1.4151126e+3, 3.1505722e+2, 392456.13, -114844.766, -39323.824, 0.07740487, 0.14566424, 395486.22, 395486.22, 0.0016671653, 10.003957, 9.997267 
1.4249977e+3, 1.250663e+2, -2011405.3, -1699269.9, -45925.848, -0.073813654, 0.2473077, -1692652.9, 21720.982, 0.010011913, 9.997228, 10.001428 
1.4250056e+3, 1.350675e+2, -1886963.9, -1671471.8, -31707.25, 0.19082856, 0.29379377, -1666903.3, -50544.09, 0.0058154534, 9.997827, 10.000655 
1.42501e+3, 1.4506705e+2, -1775837.1, -1670296.4, -8355.594, 0.1256397, 0.22602496, -1669639.0, -151276.56, 0.002423067, 9.998331, 9.999736 
1.4250153e+3, 1.5506689e+2, -1665041.6, -1576812.5, 1231.3326, 0.1338205, 0.21433909, -1576795.3, -156430.72, 0.00057589856, 9.998479, 9.999626 
1.4250207e+3, 1.6506685e+2, -1504443.3, -1384060.1, 31766.615, 0.11639564, 0.22620146, -1376191.9, -53826.69, 0.00004378684, 9.998597, 10.000237 
1.4250271e+3, 1.7506683e+2, -1345116.4, -1237030.3, -3320.2676, 0.17699629, 0.15591884, -1236928.4, -12563.245, 0.00000008454083, 9.998942, 10.000405 
1.4250328e+3, 1.8506673e+2, -1302361.5, -1315007.9, 65127.93, 0.1358737, 0.17867501, -1243250.5, -116883.125, 0.0, 9.999215, 9.999062 
1.4250375e+3, 1.9506647e+2, -1146106.4, -1175390.4, 118192.59, -0.047383912, 0.20996378, -1041652.3, -13279.564, 0.0, 9.99956, 9.999178 
1.4250433e+3, 2.0506658e+2, -925099.0, -944002.7, 94694.086, -0.08462939, 0.2764032, -839386.25, 90986.29, 0.0, 10.000067, 9.999857 
1.4250505e+3, 2.1506684e+2, -709334.5, -777894.9, -15550.97, 0.03462789, 0.27852818, -705972.06, 126397.08, 0.0, 10.000825, 9.999959 
1.4250572e+3, 2.2506589e+2, -678618.06, -872162.94, 4205.3438, 0.06146041, 0.2665767, -678526.7, 55850.89, 0.0, 10.001066, 9.99852 
1.4250632e+3, 2.3506372e+2, -592846.9, -765802.44, 36406.57, -0.017825441, 0.1618639, -585495.9, 50902.145, 0.0, 10.000922, 9.998644 
1.4250699e+3, 2.450624e+2, -425264.44, -498813.78, 25447.594, -0.012990668, 0.11175656, -417318.22, 121089.78, 0.0, 10.000819, 9.999853 
1.4250767e+3, 2.5506172e+2, -304557.0, -372960.4, -37013.12, 0.075360134, 0.01608438, -288363.0, 152046.36, 0.00000000006254562, 10.000905, 9.999999 
1.425084e+3, 2.650615e+2, -287133.6, -511339.84, 2411.143, 0.13825254, 0.089030586, -287107.66, 55302.855, 0.00000036239143, 10.001194, 9.998242 
1.4250913e+3, 2.7506164e+2, -109908.39, -359029.38, 12517.412, 0.1708678, 0.24002303, -109281.016, 135130.9, 0.000010087366, 10.001671, 9.998381 
1.425097e+3, 2.8505993e+2, 57997.508, -226971.95, 8219.655, 0.03771704, 0.24037729, 58234.4, 204660.86, 0.00007869426, 10.002155, 9.998385 
1.4251009e+3, 2.950562e+2, 264639.28, -60835.844, -45738.66, -0.23106617, -0.020256704, 270944.72, 319400.8, 0.00033370158, 10.002831, 9.998524 
1.4251074e+3, 3.0505395e+2, 281269.16, -368679.66, -45057.81, -0.2539413, 0.06562688, 284377.9, 284377.9, 0.00088820356, 10.004069, 9.99549 
1.4251177e+3, 3.1505066e+2, 566141.06, -139870.7, -97491.28, 0.12870185, 0.13545045, 579356.0, 579356.0, 0.0017210031, 10.005589, 9.99633 
1.4349958e+3, 1.250626e+2, -2071581.3, -1835205.8, 14236.041, -0.053980358, 0.36101025, -1834351.5, -119942.164, 0.010506618, 9.997259, 10.00048 
1.4350025e+3, 1.3506003e+2, -1947390.9, -1789149.6, 10893.679, 0.08226031, 0.11009333, -1788403.3, -171970.67, 0.006123269, 9.997798, 9.999853 
1.4350091e+3, 1.4505947e+2, -1719647.5, -1572562.1, -17490.736, 0.16846678, 0.034452144, -1570510.8, -52073.258, 0.002563054, 9.998399, 10.000382 
1.4350154e+3, 1.5506123e+2, -1626101.5, -1494847.5, 18159.477, 0.25820082, 0.15808734, -1492381.4, -71960.37, 0.0006133788, 9.998465, 10.000204 
1.4350198e+3, 1.6506201e+2, -1542435.8, -1466262.4, 26122.004, 0.12364221, 0.25267583, -1458165.1, -135749.94, 0.000047750204, 9.99861, 9.99967 
1.4350235e+3, 1.7506179e+2, -1385356.0, -1322898.5, 19886.781, -0.08990688, 0.2226656, -1317104.1, -92684.02, 0.00000010052836, 9.998945, 9.99982 
1.4350301e+3, 1.8506214e+2, -1178415.6, -1053054.3, 60274.625, -0.08643809, 0.22869974, -1028775.75, 97638.65, 0.0, 9.999195, 10.000869 
1.4350387e+3, 1.9506283e+2, -1037727.6, -927460.7, 141773.55, 0.095997155, 0.17460954, -830477.6, 197922.7, 0.0, 9.99946, 10.00093 
1.4350456e+3, 2.0506246e+2, -1118531.3, -1320536.8, 106263.74, 0.09842668, 0.23229884, -1072927.3, -142521.06, 0.0, 9.999953, 9.997327 
1.4350508e+3, 2.1506092e+2, -917857.2, -1165439.6, 25104.496, -0.04312235, 0.3063962, -915337.3, -82903.96, 0.0, 10.000628, 9.997393 
1.4350572e+3, 2.2505972e+2, -625703.5, -712429.06, -14918.241, -0.060665503, 0.34036046, -623209.06, 111237.87, 0.0, 10.000858, 9.999713 
1.435065e+3, 2.3505884e+2, -541074.4, -605719.75, 43449.91, 0.0362986, 0.24210931, -519243.13, 117204.74, 0.0, 10.00071, 9.999841 
1.4350715e+3, 2.4505807e+2, -531041.56, -681377.6, 12013.327, 0.050580263, 0.24685098, -530087.6, 8363.955, 0.0, 10.00065, 9.998685 
1.435077e+3, 2.5505728e+2, -415362.63, -560997.75, -20861.55, -0.010580269, 0.25830156, -412433.25, 28025.959, 0.000000006122379, 10.000726, 9.998794 
1.435084e+3, 2.650558e+2, -256956.92, -422462.06, 7779.487, 0.0022004568, 0.23428564, -256592.05, 85878.625, 0.0000008787704, 10.001073, 9.998917 
1.4350925e+3, 2.7505356e+2, -83509.6, -274044.53, 47614.11, 0.09167795, 0.07815683, -72273.58, 172213.63, 0.000014147242, 10.001534, 9.999039 
1.4350998e+3, 2.8505158e+2, -29635.992, -377885.3, 19990.127, 0.086850844, 0.06574678, -28492.281, 118011.61, 0.000090676054, 10.002016, 9.997414 
1.4351062e+3, 2.9504952e+2, 164470.45, -232909.63, 144.26602, -0.012010188, 0.07359415, 164470.52, 212994.56, 0.00036367134, 10.002664, 9.997427 
1.4351127e+3, 3.0504704e+2, 290481.44, -297602.3, 24.691097, -0.15096423, 0.16265003, 290481.44, 290481.44, 0.00095405756, 10.003876, 9.996059 
1.4351207e+3, 3.1504393e+2, 525220.94, -126761.41, 16414.563, -0.17625257, 0.19066955, 525633.94, 525633.94, 0.0018380493, 10.005182, 9.9966135 
1.4449936e+3, 1.2505656e+2, -2000530.3, -1761338.1, -9779.879, 0.0023721263, 0.35580608, -1760939.0, -46469.0, 0.011047917, 9.997566, 10.000835 
1.4450003e+3, 1.3505462e+2, -1942783.4, -1740602.6, 42799.875, 0.096098125, 0.11344439, -1731915.5, -115429.77, 0.00646129, 9.997606, 10.000281 
1.4450079e+3, 1.4505449e+2, -1770808.3, -1614940.8, 54436.887, 0.22231124, 0.07285492, -1597811.1, -79324.38, 0.0027186894, 9.998147, 10.000199 
1.4450145e+3, 1.5505597e+2, -1554855.5, -1474646.4, -5910.4863, 0.29999045, 0.18012473, -1474213.1, -53737.785, 0.0006559602, 9.999021, 10.0000725 
1.4450188e+3, 1.6505677e+2, -1437157.9, -1410372.5, 18748.904, 0.14487728, 0.28144747, -1400724.3, -78254.32, 0.000052490832, 9.999324, 9.999701 
1.4450225e+3, 1.750569e+2, -1309829.6, -1276178.9, 33141.566, -0.121209316, 0.28047708, -1255836.3, -31365.96, 0.00000012546444, 9.999442, 9.999885 
1.4450294e+3, 1.850572e+2, -1110540.5, -1034741.6, 58239.66, -0.09203898, 0.2839218, -1003155.6, 123308.72, 0.0, 9.999711, 10.000751 
1.4450394e+3, 1.9505748e+2, -940259.2, -887367.06, -28289.145, 0.17954527, 0.19867833, -875087.56, 153366.2, 0.0, 10.000157, 10.000865 
1.4450467e+3, 2.0505685e+2, -1086800.3, -1301248.9, -20120.47, 0.19993916, 0.23049928, -1084928.9, -154467.17, 0.0, 10.0001745, 9.997349 
1.4450514e+3, 2.150551e+2, -1025637.5, -1208004.8, 60614.082, 0.00045398134, 0.28577408, -1007329.06, -174839.7, 0.0, 9.999867, 9.997462 
1.4450581e+3, 2.2505395e+2, -719883.5, -760038.7, 110762.84, -0.02862394, 0.32056785, -627393.25, 107108.68, 0.0, 10.000211, 9.999703 
1.4450663e+3, 2.3505326e+2, -464257.53, -570980.4, 54320.805, 0.09580842, 0.2391677, -441473.1, 195028.06, 0.0, 10.001227, 9.999836 
1.4450733e+3, 2.4505232e+2, -380406.06, -683340.25, 22161.68, 0.109718196, 0.26227593, -378793.38, 159713.6, 0.0, 10.002012, 9.998009 
1.4450788e+3, 2.5505105e+2, -171517.33, -521640.6, 1910.2941, 0.00875177, 0.2930989, -171506.9, 269013.9, 0.000000012932129, 10.002723, 9.998109 
1.445086e+3, 2.6504886e+2, -4571.771, -325458.38, 32101.896, -0.0062655457, 0.24320836, -1391.7709, 341147.53, 0.0000016431604, 10.002929, 9.99868 
1.4450942e+3, 2.7504572e+2, 79226.82, -217576.56, -31968.025, 0.061665595, 0.021623999, 82630.984, 327194.03, 0.000019343763, 10.002763, 9.998823 
1.4451024e+3, 2.8504357e+2, 90550.86, -377398.0, -24324.033, 0.09408462, 0.02970691, 91811.83, 238393.97, 0.00010742276, 10.003081, 9.996904 
1.4451103e+3, 2.9504228e+2, 292254.75, -222966.3, -28998.541, 0.09753254, 0.15755944, 293881.75, 342480.34, 0.00040939418, 10.003763, 9.996958 
1.4451176e+3, 3.0503938e+2, 365352.0, -184701.48, 36614.555, -0.054589517, 0.1975289, 367778.53, 367778.53, 0.0010586398, 10.004042, 9.99677 
1.4451252e+3, 3.1503665e+2, 401663.7, -87809.805, 5684.8555, -0.1682584, 0.1916703, 401729.7, 401729.7, 0.0020276, 10.003907, 9.997493 
1.4549921e+3, 1.250483e+2, -1878045.4, -1538243.1, -111446.95, 0.024113812, 0.19859144, -1504952.8, 209602.02, 0.011640448, 9.997679, 10.002335 
1.4549987e+3, 1.3505149e+2, -1836266.3, -1510146.0, 66109.375, 0.13653469, 0.3010014, -1497254.3, 119262.33, 0.0068325973, 9.997558, 10.001896 
1.4550057e+3, 1.4505236e+2, -1847261.5, -1774524.4, 75367.92, 0.14552172, 0.34253624, -1727209.0, -208700.88, 0.0028915813, 9.998154, 9.999099 
1.4550123e+3, 1.5505111e+2, -1627549.4, -1615260.0, 36381.516, 0.14126575, 0.27363062, -1584508.0, -163980.58, 0.00070428615, 9.998985, 9.999121 
1.4550176e+3, 1.650512e+2, -1378380.9, -1302603.5, 3296.1165, 0.06487317, 0.31474438, -1302460.5, 20067.814, 0.000058062662, 9.999375, 10.00042 
1.4550231e+3, 1.7505226e+2, -1266382.9, -1181442.4, 50135.195, -0.01900079, 0.33741555, -1158206.8, 66307.67, 0.00000016567238, 9.999416, 10.000551 
1.4550304e+3, 1.85052e+2, -1250006.8, -1320694.1, 60134.47, 0.00092531595, 0.3499581, -1215598.6, -89082.586, 0.0, 9.999694, 9.998798 
1.455039e+3, 1.9505048e+2, -1091872.1, -1182189.3, -238.22289, 0.102700226, 0.28284696, -1091871.5, -63339.2, 0.0, 10.000068, 9.998891 
1.4550461e+3, 2.0504963e+2, -931050.94, -945310.1, -47489.188, 0.11197028, 0.26993182, -890159.1, 40380.08, 0.0, 10.00004, 9.999853 
1.455052e+3, 2.1504931e+2, -878236.9, -856802.25, 59658.46, 0.05496624, 0.2130731, -806906.1, 25632.29, 0.0, 9.9996805, 9.999959 
1.4550592e+3, 2.2504847e+2, -820946.4, -929537.9, 132733.11, 0.03726902, 0.20567685, -731833.25, 2711.0146, 0.0, 10.000033, 9.998627 
1.4550674e+3, 2.35047e+2, -578201.6, -749610.44, 105356.664, 0.05260475, 0.16011079, -528092.7, 108464.63, 0.0, 10.000988, 9.998722 
1.4550751e+3, 2.4504529e+2, -418465.28, -724075.3, 35992.113, 0.05001708, 0.16996339, -414283.66, 124289.33, 0.0, 10.001832, 9.997824 
1.455082e+3, 2.550432e+2, -207158.94, -558825.94, 42686.348, 0.032013375, 0.13852593, -202051.72, 238540.67, 0.000000017460069, 10.002559, 9.997936 
1.4550892e+3, 2.650408e+2, -114561.61, -517773.1, 13933.748, -0.0025116245, 0.13686982, -114080.67, 228534.1, 0.000002726617, 10.002769, 9.997436 
1.4550962e+3, 2.750379e+2, -36352.62, -412176.84, -24030.297, -0.04490791, 0.061957452, -34822.348, 209819.17, 0.000025176965, 10.002575, 9.997571 
1.4551042e+3, 2.8503582e+2, 73528.64, -368949.03, -11872.839, -0.04895337, 0.13065544, 73846.99, 220509.53, 0.00012772917, 10.002897, 9.997052 
1.4551133e+3, 2.9503438e+2, 275766.0, -211116.78, 16210.972, -0.016056823, 0.23284227, 276305.16, 324984.38, 0.00046719576, 10.003563, 9.99714 
1.4551216e+3, 3.050311e+2, 388141.13, -92889.27, 20758.248, -0.08138539, 0.18554586, 389035.25, 389035.25, 0.0011939944, 10.003846, 9.997497 
1.4551304e+3, 3.150283e+2, 432158.72, 46436.836, 45928.043, -0.08638174, 0.0995194, 437551.97, 437551.97, 0.0022784446, 10.003601, 9.998568 
1.4649904e+3, 1.2504189e+2, -2014713.8, -1631824.5, -56735.074, 0.11905015, 0.22436829, -1623594.5, 91024.59, 0.012283002, 9.996867, 10.00208 
1.4649975e+3, 1.3504507e+2, -1756413.8, -1501709.8, -81542.97, 0.24451008, 0.35172525, -1477840.8, 138742.45, 0.00723705, 9.998239, 10.001626 
1.4650038e+3, 1.4504601e+2, -1809640.0, -1741118.8, -54805.25, 0.14632614, 0.4115987, -1710746.5, -192172.36, 0.0030819494, 9.998314, 9.999271 
1.4650103e+3, 1.5504472e+2, -1662806.1, -1594662.0, -23615.451, 0.091038875, 0.3060473, -1587278.1, -166686.6, 0.0007585455, 9.998553, 9.999484 
1.4650169e+3, 1.6504464e+2, -1462202.0, -1354174.4, -17496.393, 0.07659961, 0.31415707, -1351411.4, -28818.516, 0.00006440502, 9.998859, 10.00031 
1.4650236e+3, 1.7504525e+2, -1273273.5, -1199921.4, -63100.805, 0.0811938, 0.30762488, -1163612.3, 60970.52, 0.00000022299002, 9.99943, 10.00042 
1.4650308e+3, 1.850448e+2, -1271895.1, -1362761.4, 4159.5005, 0.07365868, 0.32497802, -1271705.1, -145118.08, 0.0, 9.999707, 9.998491 
1.4650385e+3, 1.950434e+2, -1128888.4, -1225907.9, 40859.164, 0.053009953, 0.2961863, -1113973.6, -85369.47, 0.0, 9.999945, 9.998637 
1.4650458e+3, 2.0504257e+2, -868891.2, -878866.2, -2809.827, 0.06535178, 0.27914432, -868154.1, 62456.05, 0.0, 10.000294, 10.000196 
1.4650528e+3, 2.1504216e+2, -681233.56, -722111.2, -76766.61, 0.11301071, 0.17993131, -622231.5, 210375.25, 0.0, 10.000851, 10.000329 
1.4650604e+3, 2.2504126e+2, -713555.2, -947599.1, -26625.752, 0.11025408, 0.18161495, -710564.4, 24049.03, 0.0, 10.001093, 9.997984 
1.4650683e+3, 2.3503965e+2, -594809.1, -828209.75, -51560.76, 0.05087892, 0.18617943, -583926.25, 52705.48, 0.0, 10.001179, 9.998089 
1.4650764e+3, 2.4503763e+2, -498394.97, -743386.25, -69895.28, 0.046902787, 0.18826479, -479856.8, 58794.395, 0.0, 10.00121, 9.997989 
1.4650844e+3, 2.5503516e+2, -378033.47, -618441.0, -67502.61, 0.087876, 0.10307713, -360376.63, 80295.37, 0.000000044837254, 10.001296, 9.998129 
1.4650919e+3, 2.6503265e+2, -275573.22, -678286.2, -32362.355, 0.047256477, 0.118916705, -272989.13, 69706.484, 0.0000038968087, 10.002005, 9.996712 
1.4650987e+3, 2.7503e+2, 27545.432, -467631.1, -50778.027, -0.072018884, 0.14225742, 32698.848, 277422.06, 0.000030518888, 10.003353, 9.996835 
1.465107e+3, 2.8502753e+2, 160547.42, -316292.7, -22613.37, -0.08181614, 0.20670757, 161617.42, 308366.4, 0.00014669269, 10.003451, 9.997146 
1.4651164e+3, 2.950253e+2, 106734.03, -278914.66, -48917.906, 0.010388192, 0.22425383, 112842.31, 161614.55, 0.00052426284, 10.002355, 9.997248 
1.465125e+3, 3.0502206e+2, 185654.08, -168138.34, -11295.811, -0.031359624, 0.16363955, 186014.36, 186014.36, 0.0013359481, 10.002379, 9.997662 
1.4651345e+3, 3.1502005e+2, 451210.84, 121717.25, -57381.43, -0.0095785735, 0.14414616, 460917.84, 460917.84, 0.0025513412, 10.003435, 9.999157 
1.4749864e+3, 1.2503646e+2, -2142278.0, -1898972.0, 32913.23, -0.04115779, 0.3619295, -1894598.3, -179926.53, 0.012969953, 9.996905, 10.000198 
1.4749962e+3, 1.3503537e+2, -1916627.1, -1824979.0, -48821.54, 0.26725447, 0.2742864, -1803845.0, -187159.27, 0.0076708426, 9.99821, 9.999405 
1.475002e+3, 1.4503543e+2, -1680966.0, -1496715.9, -75855.61, 0.090121, 0.27818114, -1469504.9, 49180.01, 0.0032881629, 9.998394, 10.000918 
1.4750087e+3, 1.55037e+2, -1549030.3, -1351483.0, -3017.046, 0.043543365, 0.28893903, -1351436.9, 69228.71, 0.00081847684, 9.998521, 10.001172 
1.4750159e+3, 1.6503726e+2, -1521495.0, -1491180.6, -12260.547, 0.05249184, 0.29537115, -1486842.6, -164181.3, 0.000071419374, 9.99891, 9.999345 
1.475023e+3, 1.7503603e+2, -1349039.3, -1346438.3, -32380.8, 0.06552197, 0.19945431, -1315331.8, -90658.2, 0.0000002932695, 9.999389, 9.999428 
1.4750302e+3, 1.850357e+2, -1176308.9, -1173081.3, -3873.816, 0.015017443, 0.2163894, -1170498.5, -43822.47, 0.0, 9.999727, 9.999791 
1.4750373e+3, 1.9503619e+2, -1046616.6, -1040992.94, 59964.313, -0.0758671, 0.24405943, -983774.56, 44895.207, 0.0, 9.999875, 9.999947 
1.4750451e+3, 2.0503558e+2, -1000327.6, -1126504.5, -188.09491, -0.05813796, 0.26566985, -1000327.3, -69652.234, 0.0, 10.000184, 9.998548 
1.4750533e+3, 2.1503383e+2, -828297.0, -979978.5, -46071.47, 0.068297766, 0.196474, -815399.94, 17292.557, 0.0, 10.000653, 9.998651 
1.4750613e+3, 2.2503246e+2, -759402.3, -1004293.4, -37324.33, 0.08236079, 0.25302172, -753840.0, -19132.018, 0.0, 10.000916, 9.997686 
1.4750691e+3, 2.350313e+2, -638780.56, -880922.75, -34729.76, -0.0143173635, 0.32932588, -633897.9, 2825.1846, 0.0, 10.001012, 9.99781 
1.4750771e+3, 2.450294e+2, -484920.03, -686867.4, -81273.85, -0.023368428, 0.33413842, -456274.56, 82466.05, 0.0, 10.001077, 9.998445 
1.4750858e+3, 2.5502667e+2, -372992.7, -567427.0, -51901.914, 0.064286076, 0.17527837, -360005.56, 80755.945, 0.000000082863835, 10.001119, 9.998567 
1.475094e+3, 2.650243e+2, -311034.6, -710908.1, 8398.778, 0.025751468, 0.18880449, -310858.28, 31924.652, 0.0000048986644, 10.001826, 9.996572 
1.4751019e+3, 2.7502203e+2, -7990.5557, -497677.9, 21125.365, -0.1351514, 0.2601634, -7080.886, 237726.23, 0.00003489947, 10.003169, 9.99671 
1.4751102e+3, 2.8501886e+2, 120279.76, -365239.28, -76958.74, -0.13331969, 0.27179983, 132186.36, 279025.9, 0.00016199038, 10.003288, 9.996894 
1.4751194e+3, 2.950149e+2, 64434.73, -329162.7, -73035.234, 0.027430823, 0.13489541, 77550.0, 126428.97, 0.00057622173, 10.002187, 9.996986 
1.4751276e+3, 3.0501205e+2, 141551.63, -217182.23, 18502.326, -0.040616795, 0.14395405, 142503.39, 142503.39, 0.0014704282, 10.002199, 9.997407 
1.4751369e+3, 3.1501165e+2, 408038.2, 128782.055, 39024.39, -0.16902538, 0.29995131, 413389.1, 413389.1, 0.0028072435, 10.0030365, 9.99939 
1.4849846e+3, 1.250287e+2, -2071937.3, -1882429.8, 52568.17, 0.08559508, 0.38402233, -1868824.5, -154075.47, 0.013700781, 9.997454, 10.000057 
1.4849943e+3, 1.3502693e+2, -1874174.1, -1799923.6, 31343.809, 0.24067694, 0.23303074, -1788461.6, -171692.48, 0.00813248, 9.998454, 9.9994755 
1.4850007e+3, 1.4502715e+2, -1631672.6, -1455544.9, 54208.156, 0.11046429, 0.24100564, -1440198.1, 78568.28, 0.0035089266, 9.998696, 10.001035 
1.485008e+3, 1.5502916e+2, -1417345.6, -1272971.8, -21949.803, 0.09498269, 0.2832786, -1269708.4, 151033.94, 0.0008836724, 9.999378, 10.001282 
1.4850155e+3, 1.6502947e+2, -1412932.1, -1453682.1, -30314.46, 0.09311269, 0.29710513, -1396781.8, -74043.85, 0.00007901186, 9.999745, 9.999194 
1.4850226e+3, 1.7502789e+2, -1259657.6, -1316474.3, -16932.014, 0.048112478, 0.18371809, -1254994.5, -30240.299, 0.00000037325287, 10.00007, 9.999309 
1.4850299e+3, 1.8502766e+2, -1115085.1, -1094484.0, 24382.096, 0.009946786, 0.19306324, -1078315.9, 48439.313, 0.0, 9.999941, 10.000226 
1.4850375e+3, 1.950287e+2, -1050896.5, -993911.1, -6420.941, -0.023610411, 0.23226477, -993196.6, 35545.06, 0.0, 9.999632, 10.000387 
1.4850456e+3, 2.0502818e+2, -1071526.5, -1229061.5, -3859.181, -0.018272344, 0.27251673, -1071432.0, -140684.89, 0.0, 10.00001, 9.997915 
1.4850537e+3, 2.1502608e+2, -798272.0, -1030929.5, -1833.9916, 0.022496857, 0.23085675, -798257.5, 34514.125, 0.0, 10.00115, 9.998051 
1.4850624e+3, 2.2502446e+2, -644060.94, -929288.06, 61108.16, 0.06661946, 0.28148872, -631520.3, 103269.984, 0.0, 10.001613, 9.997868 
1.4850715e+3, 2.3502328e+2, -553315.3, -819665.0, 73476.83, 0.10074538, 0.3370247, -534390.2, 102413.25, 0.0, 10.001498, 9.998001 
1.4850798e+3, 2.4502139e+2, -399345.84, -695607.94, 55070.668, 0.094641335, 0.35808304, -389440.22, 149380.98, 0.0, 10.00189, 9.9979925 
1.4850876e+3, 2.5501877e+2, -151168.8, -509004.78, -10788.465, 0.048318055, 0.25931033, -150843.84, 290000.16, 0.00000011463164, 10.00286, 9.998128 
1.485096e+3, 2.6501635e+2, -112914.01, -577380.94, 49995.26, -0.00029755512, 0.27524936, -107593.46, 235272.75, 0.000005857849, 10.003046, 9.996893 
1.4851053e+3, 2.7501398e+2, -86181.48, -499417.97, 55347.36, -0.0565903, 0.30581895, -78896.87, 165992.58, 0.000039275426, 10.002498, 9.997016 
1.485114e+3, 2.8501058e+2, 17828.25, -442732.94, -13126.156, -0.054601587, 0.29531103, 18202.047, 165125.1, 0.00017769578, 10.002721, 9.996627 
1.485122e+3, 2.9500633e+2, 272251.38, -261023.11, -41165.57, 0.0023188689, 0.16025524, 275410.4, 324376.34, 0.0006295016, 10.00375, 9.99671 
1.4851302e+3, 3.050039e+2, 359469.13, -117376.71, 85878.77, -0.07389036, 0.2252493, 374464.16, 374464.16, 0.0015966488, 10.0036955, 9.997393 
1.4851399e+3, 3.150028e+2, 332622.28, 108842.25, 61452.5, -0.12504692, 0.3177809, 348387.22, 348387.22, 0.0030274095, 10.002427, 9.999553 
1.4949837e+3, 1.2501907e+2, -1920095.8, -1584817.0, 43570.79, 0.19009615, 0.3525409, -1579247.3, 135599.0, 0.014485426, 9.997525, 10.002074 
1.494991e+3, 1.3502017e+2, -1714264.5, -1455105.1, 64497.125, 0.03779556, 0.25338036, -1439941.0, 176888.48, 0.008627366, 9.998404, 10.001873 
1.4949995e+3, 1.4502144e+2, -1714236.8, -1658449.9, 52812.816, 0.084077224, 0.31158176, -1626617.0, -107801.14, 0.0037456865, 9.998809, 9.999596 
1.495008e+3, 1.5502144e+2, -1532821.0, -1512627.8, 14449.115, 0.1267532, 0.31231833, -1505097.1, -84277.68, 0.0009542572, 9.99937, 9.999647 
1.4950153e+3, 1.6502139e+2, -1350403.9, -1341776.8, -35193.37, 0.05999503, 0.3374067, -1310633.6, 12187.257, 0.00008722728, 9.999814, 9.9999275 
1.4950217e+3, 1.7502092e+2, -1214394.4, -1215433.4, 4804.038, -0.07175389, 0.25877097, -1210081.9, 14742.067, 0.0000004647829, 10.000041, 10.000012 
1.4950295e+3, 1.850208e+2, -1142040.9, -1158433.3, -5411.3306, -0.063952945, 0.2658668, -1140415.6, -13592.599, 0.0, 9.999966, 9.999779 
1.4950384e+3, 1.9502106e+2, -1099331.9, -1072489.9, -9163.572, 0.08731336, 0.2730249, -1069659.9, -40841.465, 0.0, 9.999536, 9.999895 
1.4950466e+3, 2.0502044e+2, -1059355.8, -1182686.0, 22754.924, 0.06502709, 0.3116482, -1055291.3, -124466.25, 0.0, 9.999906, 9.998288 
1.4950538e+3, 2.1501888e+2, -796414.56, -988694.3, 50214.9, -0.11688629, 0.28452685, -784090.56, 48753.477, 0.0, 10.000984, 9.998421 
1.4950633e+3, 2.2501728e+2, -622540.1, -846679.25, 40081.344, -0.0421543, 0.28379425, -615588.25, 119271.625, 0.0, 10.00144, 9.998523 
1.495075e+3, 2.3501551e+2, -534506.3, -737446.0, 79856.47, 0.28622043, 0.215091, -506851.47, 130021.73, 0.0, 10.00131, 9.998658 
1.4950837e+3, 2.4501365e+2, -524204.63, -910215.5, 78855.26, 0.2760577, 0.27401006, -508717.25, 30175.268, 0.0, 10.001694, 9.996614 
1.4950895e+3, 2.550115e+2, -275468.53, -725460.2, 41865.195, -0.06506549, 0.3557768, -271606.72, 169312.72, 0.00000015644366, 10.002676, 9.996733 
1.4950979e+3, 2.6500887e+2, -100014.66, -506734.75, 16545.707, -0.14337784, 0.3918697, -99342.67, 243602.75, 0.000006865855, 10.002855, 9.997469 
1.495109e+3, 2.7500567e+2, -73801.02, -430835.94, 49868.91, 0.04427712, 0.2844115, -66966.41, 178005.13, 0.00004412461, 10.0023155, 9.997574 
1.4951178e+3, 2.8500253e+2, -25395.607, -495896.13, 12293.169, 0.022460816, 0.2820524, -25074.63, 121926.89, 0.00019465707, 10.002554, 9.9963455 
1.495124e+3, 2.9499945e+2, 229756.97, -309740.84, 20397.21, -0.19430533, 0.28960013, 230527.03, 279561.88, 0.00068026903, 10.003571, 9.996467 
1.4951321e+3, 3.0499747e+2, 328649.2, -125173.016, 28924.71, -0.2695604, 0.40812162, 330485.3, 330485.3, 0.0016998705, 10.0034685, 9.997441 
1.4951429e+3, 3.149934e+2, 265993.75, 42356.223, 57696.914, -0.13775803, 0.19961196, 280001.75, 280001.75, 0.0031848669, 10.002124, 9.999241 
1.5049809e+3, 1.2500921e+2, -2083257.1, -1616050.0, 72411.99, 0.23568945, 0.3147091, -1605084.4, 109859.11, 0.015336173, 9.996211, 10.002489 
1.5049888e+3, 1.3501193e+2, -1818513.1, -1404869.9, -24508.947, 0.065517396, 0.2796158, -1403422.8, 213486.44, 0.0091627855, 9.997236, 10.0027895 
1.5049987e+3, 1.4501359e+2, -1843547.8, -1724678.0, -35825.125, 0.16949588, 0.33139095, -1714715.9, -195824.52, 0.0040015904, 9.99797, 9.9995365 
1.5050071e+3, 1.550131e+2, -1692333.8, -1593199.3, 5570.981, 0.15917787, 0.2925733, -1592887.1, -171986.88, 0.001031135, 9.998312, 9.9995985 
1.5050146e+3, 1.6501309e+2, -1531679.8, -1424390.0, 16278.904, 0.07558709, 0.3225017, -1421974.4, -99072.64, 0.000096309515, 9.9985285, 9.999992 
1.5050218e+3, 1.750132e+2, -1354393.1, -1269703.1, -19033.29, -0.009405951, 0.29246637, -1265622.3, -40722.695, 0.000000575819, 9.999009, 10.000141 
1.5050298e+3, 1.8501301e+2, -1234796.6, -1262951.1, -31331.186, 0.012580516, 0.31208304, -1214525.5, -87625.016, 0.0, 9.99959, 9.999235 
1.5050386e+3, 1.9501252e+2, -998951.75, -1080995.8, -65040.477, 0.10502717, 0.2990704, -963077.3, 65827.414, 0.0, 10.00047, 9.999379 
1.5050471e+3, 2.0501174e+2, -906587.44, -1077139.6, 1433.5734, 0.08866254, 0.32928565, -906575.44, 24338.191, 0.0, 10.00083, 9.998567 
1.5050554e+3, 2.150105e+2, -803420.0, -964444.94, -8505.108, -0.034005474, 0.31140578, -802972.0, 29956.512, 0.0, 10.000813, 9.998676 
1.5050651e+3, 2.2500905e+2, -642428.3, -851431.6, -22218.166, 0.015727485, 0.31548724, -640092.5, 94849.75, 0.0, 10.001317, 9.998532 
1.5050761e+3, 2.3500735e+2, -371842.66, -655977.94, -64095.395, 0.22180037, 0.25081626, -358053.2, 278901.94, 0.0, 10.002436, 9.998662 
1.5050852e+3, 2.4500535e+2, -383662.44, -864094.6, -31915.39, 0.21618514, 0.3072186, -381551.56, 157424.77, 0.0, 10.002755, 9.996413 
1.5050924e+3, 2.5500304e+2, -346426.94, -780449.44, -13671.467, -0.0043191398, 0.39091486, -345996.72, 95009.68, 0.00000020302433, 10.002281, 9.996536 
1.5051012e+3, 2.650003e+2, -168588.63, -526556.06, 8586.189, -0.061090495, 0.42093274, -168382.8, 174650.6, 0.0000077496, 10.002328, 9.997584 
1.5051116e+3, 2.7499703e+2, 30772.13, -367561.25, -15586.763, 0.044139773, 0.29621875, 31381.11, 276439.78, 0.000048509926, 10.002962, 9.997703 
1.5051205e+3, 2.849938e+2, 85474.94, -453646.3, -9907.92, 0.01558779, 0.28650162, 85656.96, 232745.8, 0.00020995413, 10.003376, 9.996235 
1.5051281e+3, 2.9499075e+2, 239141.67, -304624.34, -36873.402, -0.13647425, 0.3058157, 241630.7, 290753.0, 0.0007218459, 10.003672, 9.996426 
1.5051362e+3, 3.0498892e+2, 361524.94, -169263.17, -55944.223, -0.21805127, 0.4624751, 367357.28, 367357.28, 0.0017672527, 10.003929, 9.996932 
1.5051453e+3, 3.1498387e+2, 425840.78, -1089.4875, -112384.37, -0.17181712, 0.22004032, 453617.47, 453617.47, 0.003260397, 10.003736, 9.99818 
1.5149762e+3, 1.2500003e+2, -2139273.8, -1772594.0, -13804.913, 0.06551581, 0.30721113, -1772075.0, -57043.21, 0.016257107, 9.996371, 10.001337 
1.514988e+3, 1.3500263e+2, -1886042.8, -1522827.4, 47545.457, 0.21561359, 0.32615918, -1516706.8, 100297.41, 0.009740974, 9.997163, 10.002003 
1.5149976e+3, 1.450039e+2, -1735137.0, -1533899.3, -41614.875, 0.2047616, 0.3238999, -1525633.0, -6643.619, 0.0042781597, 9.998094, 10.000793 
1.515005e+3, 1.5500413e+2, -1595123.8, -1398805.0, 28484.494, 0.07428964, 0.22524165, -1394755.6, 26229.232, 0.0011151112, 9.998332, 10.000927 
1.5150128e+3, 1.6500461e+2, -1554399.8, -1491324.1, 14081.673, 0.011562781, 0.25846145, -1488323.1, -165342.88, 0.000106548556, 9.998606, 9.9994955 
1.5150225e+3, 1.750049e+2, -1393509.0, -1346496.5, 9577.795, 0.13238287, 0.29294735, -1344620.1, -119640.49, 0.0000007145684, 9.998985, 9.999628 
1.5150309e+3, 1.8500446e+2, -1271284.9, -1343153.9, -12230.066, 0.11727576, 0.34004346, -1269260.6, -142274.75, 0.0, 9.999606, 9.998679 
1.5150376e+3, 1.9500323e+2, -1052325.5, -1171185.8, -21318.3, -0.07010434, 0.31062865, -1048617.6, -19618.096, 0.0, 10.000383, 9.998803 
1.5150467e+3, 2.0500216e+2, -914055.56, -1066818.6, -15250.935, -0.063022755, 0.3354379, -912547.9, 18463.662, 0.0, 10.000712, 9.998698 
1.5150583e+3, 2.1500114e+2, -818831.0, -955087.7, 2607.5796, 0.1626836, 0.32484236, -818781.1, 14241.8, 0.0, 10.000632, 9.998829 
1.5150677e+3, 2.2500001e+2, -719762.25, -967911.44, 6419.359, 0.11977612, 0.38886806, -719596.25, 15438.925, 0.0, 10.0011215, 9.99783 
1.5150745e+3, 2.3499872e+2, -449520.13, -775291.5, -7361.8965, -0.19028358, 0.43937674, -449353.84, 187695.25, 0.0, 10.002253, 9.997934 
1.515084e+3, 2.449965e+2, -348493.97, -748769.8, -63333.184, -0.19742008, 0.46450734, -338712.2, 200360.1, 0.0, 10.002563, 9.997304 
1.5150961e+3, 2.549933e+2, -305818.5, -660597.1, -17050.508, 0.11254209, 0.37120482, -305000.94, 136104.38, 0.00000026346208, 10.002118, 9.997444 
1.5151057e+3, 2.649905e+2, -214848.88, -578356.2, 21448.584, 0.12176493, 0.36164603, -213587.69, 129543.7, 0.000008336701, 10.002141, 9.997319 
1.5151127e+3, 2.7498803e+2, -16020.506, -418478.78, 27814.895, -0.16835772, 0.3430144, -14107.245, 231043.58, 0.00005112129, 10.002775, 9.997442 
1.5151219e+3, 2.849846e+2, 53617.63, -481965.88, -13050.324, -0.20701654, 0.32835346, 53935.434, 201119.02, 0.00022272031, 10.003204, 9.996123 
1.5151338e+3, 2.9498017e+2, 203092.11, -336879.66, -4528.7744, 0.027833372, 0.21736555, 203130.1, 252359.1, 0.0007568992, 10.003482, 9.996296 
1.515142e+3, 3.0497795e+2, 255602.92, -323853.63, -71890.31, -0.062461067, 0.39365035, 264388.78, 264388.78, 0.0018093592, 10.003673, 9.995982 
1.5151466e+3, 3.149744e+2, 256351.69, -262927.9, -70845.22, -0.4562575, 0.3864874, 265843.6, 265843.6, 0.0032749877, 10.003385, 9.9965315 
1.5249723e+3, 1.2499038e+2, -2107520.3, -1781176.5, -17925.775, 0.02821011, 0.318085, -1780194.8, -65068.96, 0.017244658, 9.996722, 10.001104 
1.5249854e+3, 1.3499254e+2, -2037740.1, -1648849.1, 11644.966, 0.31443596, 0.33836386, -1648500.8, -31395.537, 0.010359608, 9.996372, 10.001506 
1.524995e+3, 1.4499329e+2, -1899457.0, -1548775.0, -23392.639, 0.2200635, 0.28540012, -1547221.4, -28125.777, 0.0045741852, 9.996699, 10.001357 
1.5250036e+3, 1.5499447e+2, -1479853.8, -1264026.1, -36522.117, 0.09121422, 0.21051309, -1258013.4, 163065.56, 0.0012060112, 9.998774, 10.001637 
1.5250123e+3, 1.6499527e+2, -1420051.3, -1454183.3, -71435.92, 0.04880862, 0.25517154, -1363671.1, -40600.0, 0.000118081814, 9.999685, 9.999222 
1.5250218e+3, 1.7499545e+2, -1290191.1, -1321064.3, -88621.18, 0.14102554, 0.30893135, -1215672.1, 9401.812, 0.0000008766353, 9.999829, 9.999387 
1.5250304e+3, 1.849949e+2, -1219618.4, -1273986.1, -38542.86, 0.114233375, 0.3389535, -1199637.5, -72556.04, 0.0, 9.999772, 9.999082 
1.5250377e+3, 1.9499359e+2, -1115001.4, -1158564.4, -3156.7104, -0.06375204, 0.26331577, -1114773.8, -85679.875, 0.0, 9.99976, 9.9992 
1.5250474e+3, 2.049927e+2, -920383.25, -1071881.4, 79120.62, -0.055468448, 0.28742975, -886596.94, 44506.047, 0.0, 10.000658, 9.9986925 
1.5250596e+3, 2.1499215e+2, -546665.75, -824256.75, 61355.574, 0.14058954, 0.32275274, -533709.2, 299399.94, 0.0, 10.002487, 9.998835 
1.5250692e+3, 2.2499102e+2, -507266.9, -917807.0, 61668.844, 0.09195182, 0.40680975, -498203.47, 236919.36, 0.0, 10.002791, 9.997375 
1.5250763e+3, 2.3498923e+2, -578023.1, -886022.25, 43830.926, -0.20788977, 0.4506135, -571907.06, 65237.547, 0.0, 10.0015745, 9.997499 
1.525086e+3, 2.4498706e+2, -506568.78, -770779.56, 15582.065, -0.19308412, 0.47781622, -505653.0, 33514.805, 0.0, 10.001275, 9.997756 
1.5250984e+3, 2.5498444e+2, -292866.7, -599300.9, -461.2452, 0.13721612, 0.39938954, -292866.0, 148326.77, 0.0000003530132, 10.001996, 9.997909 
1.5251084e+3, 2.6498172e+2, -159961.98, -609978.56, 57431.56, 0.16582079, 0.39771864, -152748.16, 190470.7, 0.000008619123, 10.002753, 9.996815 
1.5251163e+3, 2.7497882e+2, 54901.145, -434963.5, 15683.1045, -0.11130999, 0.38156846, 55402.727, 300649.28, 0.000051931653, 10.003482, 9.996984 
1.5251258e+3, 2.8497556e+2, 149876.36, -393801.47, -11935.6, -0.16913567, 0.3909657, 150138.25, 297416.78, 0.00023518385, 10.003685, 9.996508 
1.5251368e+3, 2.949719e+2, 219203.98, -289199.22, 2721.5535, 0.0013057236, 0.32671952, 219218.55, 268533.75, 0.0007914771, 10.003402, 9.996683 
1.5251455e+3, 3.0496958e+2, 294839.22, -264124.0, 45172.96, -0.06550594, 0.4519233, 298466.38, 298466.38, 0.0018456099, 10.003748, 9.996369 
1.5251517e+3, 3.1496683e+2, 394603.3, -220203.94, 79980.35, -0.32354972, 0.490105, 404837.6, 404837.6, 0.0032732806, 10.004398, 9.996359 
1.5349697e+3, 1.2498059e+2, -2055594.4, -1689470.3, 50599.043, 0.026886202, 0.36161613, -1682606.0, 32616.672, 0.018294634, 9.996788, 10.001703 
1.5349816e+3, 1.3498195e+2, -2055487.9, -1686856.6, -6310.1997, 0.25243643, 0.32647768, -1686748.6, -69539.22, 0.011016667, 9.996384, 10.001239 
1.5349907e+3, 1.4498205e+2, -1889561.5, -1556832.0, 29396.527, 0.072813846, 0.2361563, -1554254.8, -35048.324, 0.0048880493, 9.996813, 10.001255 
1.5350027e+3, 1.5498435e+2, -1485753.9, -1257257.5, 50006.92, 0.09669067, 0.2679612, -1246792.6, 174387.6, 0.0013030368, 9.998703, 10.001719 
1.5350126e+3, 1.6498537e+2, -1416903.5, -1464316.4, -84346.12, 0.074229315, 0.33424044, -1352995.6, -29824.125, 0.00013086536, 9.999746, 9.999128 
1.5350197e+3, 1.7498499e+2, -1303665.1, -1342646.1, -73786.305, -0.07778496, 0.3457432, -1246838.5, -21657.262, 0.0000010420176, 9.9998045, 9.999251 
1.5350282e+3, 1.8498445e+2, -1123128.8, -1085106.4, -55801.965, -0.11204535, 0.3215076, -1045166.06, 82020.28, 0.0, 9.999813, 10.0003605 
1.5350385e+3, 1.9498366e+2, -1028612.0, -968363.1, 4731.009, 0.0134401275, 0.16401115, -967993.9, 61193.746, 0.0, 9.999707, 10.000533 
1.5350486e+3, 2.0498338e+2, -948572.6, -1095105.8, 133729.97, -0.013094295, 0.18668027, -869354.1, 61833.668, 0.0, 10.000511, 9.998601 
1.5350588e+3, 2.1498355e+2, -588135.06, -859096.8, 141728.89, -0.20054093, 0.3047561, -527549.25, 305638.3, 0.0, 10.002272, 9.998697 
1.5350695e+3, 2.2498208e+2, -552136.0, -958435.8, 2680.4167, -0.18502104, 0.37262976, -552118.3, 183086.89, 0.0, 10.002561, 9.997208 
1.5350807e+3, 2.3497891e+2, -612849.75, -916872.75, 11975.213, 0.054408476, 0.29018593, -612378.8, 24862.76, 0.0, 10.001394, 9.997376 
1.5350905e+3, 2.4497698e+2, -540907.56, -791188.0, 29571.746, 0.099951416, 0.34944567, -537460.94, 1802.378, 0.0, 10.001062, 9.997716 
1.5350989e+3, 2.5497633e+2, -324197.13, -623876.75, 40643.555, -0.036979508, 0.47029176, -318782.72, 122487.55, 0.0000004707298, 10.001829, 9.997818 
1.5351094e+3, 2.649738e+2, -232420.67, -723741.1, 69575.586, -0.047911335, 0.5287631, -222758.14, 120539.336, 0.0000086272985, 10.002589, 9.996115 
1.5351218e+3, 2.7496928e+2, -16619.535, -548686.75, 54972.46, 0.07519054, 0.4202898, -10999.224, 234347.02, 0.000052741245, 10.003331, 9.996278 
1.5351312e+3, 2.8496656e+2, 180586.75, -290324.16, -34105.895, -0.01480972, 0.47916728, 183044.06, 330419.25, 0.00024875673, 10.003505, 9.997311 
1.5351371e+3, 2.9496577e+2, 248758.7, -186009.05, 17054.246, -0.3328296, 0.6145818, 249426.64, 298809.84, 0.00082809955, 10.003218, 9.99748 
1.5351465e+3, 3.0496356e+2, 366944.7, -57440.19, 57976.3, -0.34969172, 0.6392559, 374722.44, 374722.44, 0.0018913797, 10.003522, 9.99789 
1.5351593e+3, 3.1496117e+2, 428903.0, -43771.266, 144460.48, -0.039362106, 0.5505068, 469556.97, 469556.97, 0.003299545, 10.003982, 9.997756 
1.5449676e+3, 1.2496988e+2, -2059823.0, -1718670.8, 108710.04, 0.14330366, 0.34677288, -1686974.6, 28352.191, 0.019406972, 9.996875, 10.001451 
1.5449782e+3, 1.3497108e+2, -1790488.1, -1575936.3, -44362.11, 0.18788888, 0.3063568, -1567125.4, 50190.66, 0.0117135905, 9.998243, 10.001108 
1.5449883e+3, 1.4497155e+2, -1745495.0, -1507664.9, 62942.85, 0.11295892, 0.26523423, -1492034.0, 27277.107, 0.0052204016, 9.997896, 10.001072 
1.5450011e+3, 1.5497386e+2, -1641932.6, -1354872.9, 46809.496, 0.13824022, 0.31716245, -1347432.8, 73853.75, 0.0014059248, 9.997701, 10.001547 
1.5450117e+3, 1.649749e+2, -1645949.0, -1501427.4, -55504.016, 0.115021504, 0.3626528, -1482571.1, -159293.98, 0.00014487762, 9.9978695, 9.9997635 
1.5450189e+3, 1.7497472e+2, -1437579.0, -1339239.9, -17453.662, -0.06790409, 0.32763624, -1336234.0, -110951.69, 0.000001197513, 9.998576, 9.999865 
1.5450278e+3, 1.8497452e+2, -1186792.9, -1137992.1, 12552.976, -0.11023997, 0.31687453, -1134952.5, -7668.692, 0.0, 9.999493, 10.000142 
1.5450387e+3, 1.9497433e+2, -868960.5, -911023.6, -63900.668, 0.018106135, 0.24025278, -822719.3, 206561.27, 0.0, 10.000908, 10.000343 
1.5450494e+3, 2.0497392e+2, -842487.06, -1042797.1, 29050.875, -0.021523472, 0.25946727, -838358.9, 92923.47, 0.0, 10.001246, 9.998608 
1.5450598e+3, 2.1497329e+2, -835704.3, -975446.1, 18306.232, -0.24512133, 0.29634786, -833346.0, -56.745552, 0.0, 10.000568, 9.998719 
1.5450709e+3, 2.2497173e+2, -787945.6, -1012370.8, -87627.91, -0.19677854, 0.32821852, -757784.4, -22477.799, 0.0, 10.000705, 9.997727 
1.545083e+3, 2.3496918e+2, -528524.2, -815143.7, -63151.78, 0.12337106, 0.2604518, -515226.7, 122108.05, 0.0, 10.001732, 9.997908 
1.5450928e+3, 2.4496748e+2, -342794.72, -711125.9, 24397.547, 0.1583165, 0.32064953, -341185.72, 198168.08, 0.000000000009610117, 10.002462, 9.997608 
1.5451007e+3, 2.5496656e+2, -176205.08, -566789.8, 11306.86, -0.09261897, 0.42871743, -175878.05, 265485.72, 0.0000005675007, 10.002883, 9.997723 
1.5451115e+3, 2.64964e+2, -134635.6, -650079.94, 95550.195, -0.10170011, 0.48145938, -117493.15, 225898.22, 0.000008574752, 10.003163, 9.996343 
1.5451255e+3, 2.7495968e+2, 2841.54, -521750.06, 116912.086, 0.11607646, 0.37636057, 27717.328, 273155.75, 0.00005426492, 10.00338, 9.996448 
1.5451352e+3, 2.849575e+2, 193510.1, -259018.14, 39420.69, 0.04343323, 0.4693518, 196918.44, 344381.16, 0.00026286932, 10.003514, 9.997494 
1.5451404e+3, 2.9495755e+2, 310202.97, -140548.22, 7984.1025, -0.34104425, 0.67082846, 310344.34, 359808.06, 0.00086847367, 10.003587, 9.9976 
1.5451501e+3, 3.0495456e+2, 408798.88, -8911.276, 25271.473, -0.3380689, 0.5974956, 410322.22, 410322.22, 0.0019581832, 10.003676, 9.99816 
1.5451644e+3, 3.149523e+2, 406690.7, -6168.738, -38216.08, 0.093406476, 0.5083377, 410198.34, 410198.34, 0.003383361, 10.003605, 9.998205 
1.554964e+3, 1.2495799e+2, -2113114.5, -1852770.4, 71189.31, 0.033274207, 0.27152365, -1834575.8, -119135.26, 0.020587768, 9.99699, 10.000467 
1.5549743e+3, 1.349599e+2, -1782294.5, -1543662.4, -24658.215, -0.038586996, 0.29379413, -1541141.0, 76284.49, 0.012455585, 9.998184, 10.001364 
1.5549877e+3, 1.449617e+2, -1744245.9, -1522924.5, 25978.855, 0.21699949, 0.37084863, -1519915.9, -505.98373, 0.0055746003, 9.997961, 10.000939 
1.5549988e+3, 1.5496315e+2, -1669356.3, -1409378.3, 53377.387, 0.10013558, 0.369685, -1398845.9, 22550.072, 0.001515748, 9.997701, 10.001168 
1.5550093e+3, 1.6496412e+2, -1531329.6, -1289800.5, -43256.203, 0.042979665, 0.3601044, -1282287.4, 41097.9, 0.00016035176, 9.997968, 10.001177 
1.5550192e+3, 1.7496476e+2, -1341273.9, -1131428.9, 15747.707, 0.068604656, 0.26435897, -1130253.8, 95122.875, 0.0000013687348, 9.998541, 10.001311 
1.5550289e+3, 1.8496527e+2, -1305591.4, -1381783.4, 49805.344, 0.004895501, 0.3356402, -1280982.8, -153610.6, 0.0, 9.999481, 9.998475 
1.5550381e+3, 1.9496562e+2, -1006586.1, -1170803.8, 1549.2224, -0.15537944, 0.484362, -1006571.5, 22801.059, 0.0, 10.000802, 9.99861 
1.5550491e+3, 2.0496434e+2, -850177.7, -1039423.0, -9861.888, -0.1969935, 0.50158745, -849665.2, 81721.1, 0.0, 10.001148, 9.998686 
1.5550621e+3, 2.1496144e+2, -850151.75, -971180.7, 5761.8916, -0.09998422, 0.30337724, -849878.06, -16464.977, 0.0, 10.000407, 9.998835 
1.5550731e+3, 2.2495998e+2, -741600.06, -869472.75, -61609.527, -0.070096776, 0.28398177, -716746.8, 18679.072, 0.0, 10.000501, 9.998806 
1.5550825e+3, 2.3495992e+2, -479392.56, -678921.9, -11217.894, -0.10325011, 0.35601807, -478763.84, 158661.39, 0.0, 10.001578, 9.9989195 
1.5550923e+3, 2.4495834e+2, -379865.56, -740900.6, 28754.043, -0.13644232, 0.38773805, -377589.84, 161850.52, 0.0, 10.002259, 9.997501 
1.5551032e+3, 2.5495523e+2, -208319.16, -589855.1, 39372.555, -0.1421173, 0.28338838, -204298.47, 237173.38, 0.0000005355393, 10.002698, 9.997652 
1.5551147e+3, 2.6495245e+2, -91512.46, -518716.88, 94086.43, -0.12197811, 0.26391944, -71709.1, 271790.63, 0.000008556659, 10.00298, 9.997332 
1.5551272e+3, 2.7495006e+2, 44108.26, -393146.78, 143025.13, -0.079687096, 0.24598669, 86735.75, 332259.4, 0.000056489618, 10.003199, 9.997413 
1.5551376e+3, 2.8494832e+2, 124750.84, -356066.5, 30867.258, -0.09734049, 0.3667328, 126724.34, 274266.84, 0.00027893353, 10.003317, 9.996923 
1.555146e+3, 2.9494718e+2, 243647.34, -230755.48, 28751.775, -0.17141862, 0.50021946, 245383.53, 294941.34, 0.0009152954, 10.003388, 9.997071 
1.5551555e+3, 3.049426e+2, 297582.5, -183676.58, 8809.159, -0.1862701, 0.35071746, 297743.7, 297743.7, 0.0020518438, 10.003451, 9.997057 
1.5551661e+3, 3.1493983e+2, 318446.84, -85366.44, 5730.9204, -0.1364449, 0.30849692, 318528.16, 318528.16, 0.0035353212, 10.003195, 9.997839 
1.5649623e+3, 1.2494727e+2, -2026783.8, -1839337.9, 65219.3, 0.13916223, 0.2634091, -1818878.8, -103332.805, 0.021849003, 9.997709, 10.000224 
1.5649721e+3, 1.3494946e+2, -1854578.4, -1553100.9, 13326.237, -0.044669352, 0.3042008, -1552513.0, 65014.637, 0.013250772, 9.997568, 10.00161 
1.5649858e+3, 1.4495148e+2, -1767471.8, -1563221.4, 75597.45, 0.2566302, 0.39536017, -1538285.5, -18775.316, 0.0059556314, 9.997937, 10.000671 
1.5649964e+3, 1.5495233e+2, -1604332.9, -1424979.5, 68319.52, 0.084543966, 0.37398583, -1401919.9, 19583.127, 0.0016345053, 9.998354, 10.000741 
1.565007e+3, 1.6495311e+2, -1474241.5, -1277692.0, -47337.625, 0.0003227112, 0.3725312, -1266885.3, 56609.824, 0.00017771397, 9.998422, 10.001051 
1.565018e+3, 1.7495401e+2, -1335807.4, -1141290.8, -122673.83, 0.107678644, 0.3170876, -1081998.6, 143485.64, 0.0000016137079, 9.998617, 10.001217 
1.5650287e+3, 1.8495451e+2, -1357051.3, -1391899.0, -27855.162, 0.078763306, 0.38219678, -1341619.4, -214139.7, 0.0, 9.999064, 9.998603 
1.5650386e+3, 1.9495447e+2, -1121019.5, -1213477.4, 36403.586, -0.14066112, 0.47843063, -1108406.8, -78924.38, 0.0, 9.999949, 9.998727 
1.5650499e+3, 2.049531e+2, -991977.06, -1097478.9, 56703.953, -0.1764517, 0.478272, -967281.25, -35784.55, 0.0, 10.000164, 9.99874 
1.565063e+3, 2.1495052e+2, -906185.3, -984642.06, 42517.98, -0.015046455, 0.3025596, -887563.5, -54041.84, 0.0, 9.999999, 9.998918 
1.5650742e+3, 2.249493e+2, -703558.7, -822037.44, 33353.188, -0.009775505, 0.28924775, -694814.7, 40717.137, 0.0, 10.000616, 9.99908 
1.5650836e+3, 2.349494e+2, -391821.3, -602271.44, 7255.055, -0.16798618, 0.34946483, -391571.5, 245956.1, 0.0, 10.002014, 9.999233 
1.5650943e+3, 2.4494796e+2, -346252.94, -737807.4, -1675.6904, -0.18422489, 0.38099372, -346245.75, 193296.28, 0.0, 10.002536, 9.997394 
1.5651064e+3, 2.5494486e+2, -289188.7, -637915.8, -17576.236, -0.05990766, 0.29175743, -288305.06, 153270.75, 0.00000039469393, 10.002179, 9.997569 
1.5651181e+3, 2.6494247e+2, -156667.7, -462089.94, 55396.152, -0.027947705, 0.2740693, -146930.61, 196668.9, 0.000008163994, 10.002168, 9.998105 
1.5651298e+3, 2.7494064e+2, -4850.486, -329888.9, 57353.44, -0.09850124, 0.24298541, 4972.7275, 250586.31, 0.000058543963, 10.002495, 9.998181 
1.5651405e+3, 2.8493872e+2, 56363.906, -414342.63, -18695.957, -0.10616208, 0.3178638, 57105.324, 204738.14, 0.00029613846, 10.002944, 9.996722 
1.5651506e+3, 2.9493666e+2, 249920.69, -255540.34, -33739.47, -0.052769206, 0.38680795, 252162.86, 301820.97, 0.00096598663, 10.003536, 9.996848 
1.5651605e+3, 3.0493185e+2, 379646.84, -202557.95, 13775.056, -0.08136296, 0.25039095, 379972.6, 379972.6, 0.0021639543, 10.00424, 9.996546 
1.5651698e+3, 3.1492952e+2, 589189.4, 41668.066, 7154.1304, -0.17016467, 0.3014917, 589282.8, 589282.8, 0.0037393565, 10.005, 9.997863 
1.5749604e+3, 1.24937765e+2, -1961252.6, -1735975.8, -137099.75, 0.10936935, 0.32075232, -1671177.6, 44464.97, 0.023204513, 9.997816, 10.000903 
1.5749708e+3, 1.349404e+2, -1840096.3, -1525247.4, 35823.945, 0.048486635, 0.38943586, -1521222.8, 96393.44, 0.014108494, 9.997578, 10.001798 
1.5749829e+3, 1.449412e+2, -1773673.5, -1610881.5, 77819.2, 0.108994946, 0.36226556, -1579667.0, -60058.242, 0.0063687824, 9.998078, 10.00028 
1.5749943e+3, 1.5494144e+2, -1646562.1, -1505497.0, 89519.92, -0.004593208, 0.33480465, -1462061.8, -40454.258, 0.00176415, 9.998327, 10.0002 
1.5750045e+3, 1.6494189e+2, -1577054.6, -1502135.4, -58410.9, -0.13168311, 0.4048938, -1470204.4, -146598.14, 0.00019721544, 9.998463, 9.999493 
1.5750152e+3, 1.7494264e+2, -1450104.4, -1372785.0, -103291.3, -0.057457156, 0.48911947, -1301155.8, -75551.625, 0.0000019795527, 9.998595, 9.999638 
1.5750273e+3, 1.8494241e+2, -1212090.8, -1106385.5, -7868.9824, -0.008216937, 0.46527883, -1105802.9, 21801.541, 0.0, 9.999118, 10.000541 
1.5750396e+3, 1.949411e+2, -1000066.3, -940534.94, 78354.67, -0.044370048, 0.24253142, -886482.7, 143125.27, 0.0, 9.999854, 10.0006485 
1.5750512e+3, 2.0494041e+2, -1008387.8, -1108118.6, 35921.613, -0.08486457, 0.21141087, -996796.56, -65184.613, 0.0, 10.000052, 9.998723 
1.5750623e+3, 2.1494032e+2, -934420.94, -1007597.9, 45883.465, -0.097406015, 0.29187506, -912323.7, -78707.07, 0.0, 9.999843, 9.998837 
1.5750739e+3, 2.2493945e+2, -755372.4, -887931.0, 75745.695, -0.13180953, 0.3359474, -721002.06, 14624.131, 0.0, 10.000436, 9.998712 
1.5750857e+3, 2.3493771e+2, -448459.06, -671302.56, 70220.11, -0.1795837, 0.24688455, -428177.84, 209463.53, 0.0, 10.001808, 9.9988575 
1.5750977e+3, 2.4493639e+2, -388403.47, -774720.44, -26801.125, -0.11622646, 0.3157979, -386552.97, 153104.75, 0.0, 10.002313, 9.997247 
1.5751098e+3, 2.5493544e+2, -326306.72, -678136.5, -18258.064, 0.059882004, 0.4527614, -325361.78, 116313.74, 0.00000029448665, 10.002017, 9.997369 
1.5751216e+3, 2.6493388e+2, -149748.06, -412341.78, 57093.273, 0.07960855, 0.51086354, -137871.92, 205819.78, 0.000007127328, 10.002007, 9.998529 
1.5751328e+3, 2.7493146e+2, 9186.717, -267279.6, 86920.016, -0.06480784, 0.36986464, 34243.168, 279951.44, 0.000059012113, 10.002351, 9.998683 
1.5751435e+3, 2.8492874e+2, 35417.504, -425459.03, -9776.856, -0.1258878, 0.336416, 35624.813, 183357.97, 0.00030982727, 10.002801, 9.996714 
1.5751539e+3, 2.94926e+2, 212116.23, -280237.94, 10248.887, -0.098900236, 0.33677813, 212329.48, 262093.28, 0.0010139171, 10.003309, 9.996784 
1.5751642e+3, 3.0492222e+2, 346770.22, -208878.22, 33289.207, -0.14741372, 0.30377236, 348757.5, 348757.5, 0.0022793359, 10.003996, 9.996605 
1.5751745e+3, 3.1492087e+2, 550741.8, 81126.58, 90001.6, -0.2641031, 0.43853503, 567399.75, 567399.75, 0.003959815, 10.004533, 9.998333 
1.5849574e+3, 1.24926984e+2, -1896716.5, -1734288.0, -166475.89, 0.02061094, 0.35689288, -1630272.8, 85476.72, 0.024665277, 9.9984045, 10.000622 
1.5849693e+3, 1.349291e+2, -1763938.5, -1527811.9, -78607.664, 0.11128352, 0.40987, -1504036.9, 113691.54, 0.0150364665, 9.998276, 10.001437 
1.5849799e+3, 1.449295e+2, -1719761.1, -1583466.4, -14043.333, 0.005548794, 0.36181745, -1582034.4, -62310.145, 0.0068181083, 9.998448, 10.000288 
1.5849926e+3, 1.5492925e+2, -1561760.1, -1466740.4, 27.55355, -0.02617048, 0.28856274, -1466740.4, -45013.406, 0.0019058621, 9.998914, 10.000186 
1.5850033e+3, 1.6492973e+2, -1486106.6, -1473767.0, -54874.215, -0.12140048, 0.3707818, -1424716.9, -100991.555, 0.0002187055, 9.999164, 9.999342 
1.585014e+3, 1.7493096e+2, -1319997.0, -1320775.8, -19263.389, -0.08382519, 0.5128607, -1301119.1, -75399.29, 0.000002466339, 9.999551, 9.999525 
1.5850265e+3, 1.8493076e+2, -1147239.1, -1044570.75, 88699.08, -0.00786304, 0.48508322, -993422.1, 134297.84, 0.0, 9.999446, 10.000802 
1.5850398e+3, 1.949291e+2, -1080678.9, -945904.94, 25073.418, 0.02103935, 0.20031574, -941391.44, 88334.96, 0.0, 9.999165, 10.000938 
1.5850517e+3, 2.0492865e+2, -1069154.8, -1105725.6, -33951.363, -0.010096605, 0.1648829, -1048877.9, -117150.47, 0.0, 9.999475, 9.999035 
1.5850626e+3, 2.149294e+2, -818682.94, -919043.6, -17764.23, -0.071958825, 0.2971978, -815631.4, 18092.387, 0.0, 10.000457, 9.9991665 
1.5850745e+3, 2.2492892e+2, -713113.6, -857955.9, 71180.26, -0.107203595, 0.35899287, -683989.44, 51740.54, 0.0, 10.000708, 9.998793 
1.5850873e+3, 2.3492716e+2, -641673.25, -758488.4, 72851.63, -0.12794714, 0.2706867, -606706.3, 31039.838, 0.0, 10.000459, 9.998925 
1.5850998e+3, 2.4492596e+2, -576281.8, -824565.06, 24254.602, -0.060275435, 0.33306912, -573934.6, -34173.367, 0.0, 10.000881, 9.997577 
1.5851122e+3, 2.5492528e+2, -297515.4, -631086.3, 35668.41, 0.08603743, 0.46695006, -293744.06, 148031.11, 0.00000023115544, 10.002085, 9.997653 
1.585124e+3, 2.6492387e+2, -77602.01, -410881.72, 118547.266, 0.09415141, 0.54270643, -39736.867, 304053.6, 0.0000061293663, 10.002649, 9.998221 
1.5851353e+3, 2.7492157e+2, 40855.5, -281790.75, 61229.887, -0.049015082, 0.44519153, 52084.54, 297892.9, 0.000060026516, 10.002712, 9.998395 
1.5851466e+3, 2.849189e+2, 83902.11, -384722.75, -22817.816, -0.10817979, 0.4225744, 85010.51, 232843.55, 0.0003212461, 10.003063, 9.99686 
1.5851575e+3, 2.9491597e+2, 270465.6, -232779.8, -28346.844, -0.081731096, 0.39263973, 272057.28, 321920.38, 0.0010569163, 10.00361, 9.996962 
1.5851684e+3, 3.049125e+2, 356093.38, -203459.98, 35072.902, -0.1099905, 0.376957, 358283.2, 358283.2, 0.0023843483, 10.004036, 9.996653 
1.5851791e+3, 3.1491032e+2, 521448.7, 73200.72, 33093.938, -0.21975529, 0.44004422, 523878.8, 523878.8, 0.0041541527, 10.004281, 9.998435 
1.5949547e+3, 1.2491579e+2, -1967014.0, -1937655.8, 432.9388, -0.16842161, 0.41470495, -1937649.4, -221791.25, 0.026239868, 9.998608, 9.999133 
1.5949675e+3, 1.3491562e+2, -1841491.8, -1692670.4, -66567.234, 0.08091325, 0.34364235, -1667240.4, -49376.51, 0.016040104, 9.998292, 10.000285 
1.5949766e+3, 1.4491643e+2, -1676158.6, -1531656.3, -12021.069, -0.19909574, 0.3849721, -1530663.0, -10806.076, 0.0073062, 9.998591, 10.000584 
1.5949911e+3, 1.5491603e+2, -1522749.1, -1399282.0, 27545.0, -0.08996157, 0.25046378, -1393415.5, 28443.174, 0.002060233, 9.998959, 10.000633 
1.5950032e+3, 1.6491696e+2, -1386555.9, -1289568.4, -57958.883, -0.084785566, 0.29416558, -1262491.8, 61357.53, 0.00024185247, 9.999256, 10.000563 
1.595014e+3, 1.749191e+2, -1239111.8, -1146635.9, 3827.635, -0.060431313, 0.40648898, -1146477.8, 79352.12, 0.0000030340082, 9.999527, 10.00073 
1.5950258e+3, 1.8491958e+2, -1237607.1, -1242038.0, 62766.676, -0.036906764, 0.4529132, -1177016.9, -49190.92, 0.0, 9.99948, 9.999433 
1.5950385e+3, 1.9491841e+2, -1190688.6, -1155116.4, 26710.498, -0.04719941, 0.35368878, -1140812.1, -110974.516, 0.0, 9.9990835, 9.999541 
1.5950508e+3, 2.0491788e+2, -1036723.56, -1014901.06, -8805.999, -0.061386783, 0.34662747, -1011790.9, -79948.44, 0.0, 9.9993725, 9.999706 
1.5950637e+3, 2.149179e+2, -800800.5, -830643.1, 28667.078, -0.044389244, 0.3346191, -783403.94, 50437.258, 0.0, 10.000246, 9.999871 
1.5950759e+3, 2.2491789e+2, -708579.3, -805700.9, 48881.17, -0.06037776, 0.38543707, -688237.9, 47602.85, 0.0, 10.000512, 9.999249 
1.595088e+3, 2.3491788e+2, -639321.8, -712432.56, 79388.3, -0.11648246, 0.42194256, -588477.0, 49363.938, 0.0, 10.000276, 9.999331 
1.5951002e+3, 2.4491674e+2, -562480.6, -748777.9, 60983.82, -0.13144243, 0.44084048, -544293.3, -4441.1816, 0.0, 10.00068, 9.998191 
1.5951127e+3, 2.5491437e+2, -282304.44, -546189.6, 93402.21, -0.08347021, 0.33983552, -252590.53, 189284.66, 0.00000009760233, 10.001871, 9.99833 
1.595125e+3, 2.649125e+2, -180972.13, -587298.0, 107580.53, -0.086771615, 0.38733208, -154246.5, 189648.95, 0.0000054247644, 10.002478, 9.997095 
1.5951373e+3, 2.7491105e+2, -69075.72, -467025.0, 79571.04, -0.1525019, 0.48562032, -53755.1, 192158.08, 0.0000627863, 10.002522, 9.997215 
1.5951492e+3, 2.8490904e+2, 72297.08, -359017.88, -15369.364, -0.172358, 0.5766146, 72844.055, 220778.16, 0.0003316825, 10.00285, 9.99714 
1.5951608e+3, 2.9490632e+2, 262177.16, -197010.64, 11896.713, -0.1385814, 0.53328234, 262485.2, 312444.53, 0.0010853008, 10.003384, 9.99732 
1.5951726e+3, 3.0490252e+2, 306509.8, -238900.16, 28915.95, -0.117331, 0.476332, 308038.56, 308038.56, 0.0024493216, 10.003769, 9.996528 
1.5951833e+3, 3.1489807e+2, 418628.47, -25145.951, 89410.23, -0.26074103, 0.3251389, 435965.25, 435965.25, 0.0042664437, 10.003822, 9.997968 
1.6049522e+3, 1.2490261e+2, -2217590.8, -2028861.6, 35215.332, -0.17716907, 0.39424616, -2022504.8, -306519.6, 0.027939666, 9.99681, 9.999365 
1.6049646e+3, 1.3490246e+2, -1987820.9, -1742797.4, -77174.02, 0.020596746, 0.3154077, -1720516.3, -102524.05, 0.01712635, 9.997233, 10.000441 
1.6049752e+3, 1.4490356e+2, -1875568.6, -1587636.9, 70352.14, -0.13183345, 0.36230046, -1571366.8, -51383.168, 0.007836914, 9.997086, 10.000902 
1.6049896e+3, 1.549043e+2, -1724704.6, -1445755.9, 71656.234, -0.05122558, 0.30024806, -1428425.6, -6451.8237, 0.0022287087, 9.997374, 10.00106 
1.6050021e+3, 1.6490546e+2, -1595999.1, -1349436.3, -14663.232, -0.02535562, 0.32461873, -1348567.3, -24606.07, 0.00026665046, 9.99765, 10.000924 
1.6050133e+3, 1.7490686e+2, -1394008.8, -1181270.9, -43616.848, -0.018706864, 0.33040136, -1172675.5, 53271.492, 0.0000036433328, 9.998288, 10.001095 
1.6050252e+3, 1.8490764e+2, -1328196.6, -1310283.4, 40682.402, -0.021058993, 0.39942348, -1277583.4, -149641.78, 0.0, 9.998955, 9.999218 
1.6050377e+3, 1.949077e+2, -1077074.0, -1124849.3, 66874.99, -0.06415943, 0.44254386, -1029948.4, -2.4547472, 0.0, 9.999946, 9.999337 
1.6050507e+3, 2.049074e+2, -903232.2, -937436.75, 78717.055, -0.06516455, 0.46695885, -839780.94, 92168.805, 0.0, 10.000258, 9.9998045 
1.6050638e+3, 2.1490681e+2, -822918.4, -826957.9, 44091.824, -0.021463146, 0.38621753, -780800.06, 53152.68, 0.0, 10.000056, 9.999982 
1.6050766e+3, 2.2490647e+2, -749009.2, -854569.94, 37051.977, -0.019404702, 0.41153842, -737302.2, -1346.6428, 0.0, 10.000361, 9.998976 
1.6050892e+3, 2.3490644e+2, -510380.03, -671089.3, -12789.4375, -0.074199304, 0.4692988, -509368.6, 128589.03, 0.0, 10.001264, 9.999115 
1.6051018e+3, 2.4490513e+2, -372392.22, -627696.25, -28881.686, -0.09722093, 0.46843308, -369165.72, 170803.17, 0.0, 10.001848, 9.998474 
1.6051148e+3, 2.5490245e+2, -218404.77, -485913.1, -42809.195, -0.06883342, 0.31539124, -211721.03, 230269.22, 0.000000007673713, 10.002163, 9.998619 
1.6051278e+3, 2.649002e+2, -188821.98, -633736.06, -8814.022, -0.0713179, 0.3299761, -188647.44, 155365.63, 0.0000049768487, 10.002609, 9.99672 
1.6051404e+3, 2.748984e+2, -3713.3086, -484849.03, -21302.139, -0.12161636, 0.43774822, -2772.0044, 243264.97, 0.00006482946, 10.003167, 9.996803 
1.6051526e+3, 2.8489614e+2, 176108.8, -305737.1, -59372.27, -0.12956156, 0.5259692, 183316.72, 331377.47, 0.00033743004, 10.003519, 9.997194 
1.6051649e+3, 2.948935e+2, 328251.84, -151537.34, -88065.695, -0.09076527, 0.4834259, 343905.66, 393989.72, 0.0010901192, 10.003778, 9.997442 
1.6051771e+3, 3.048904e+2, 349956.13, -185997.31, -40238.625, -0.046770904, 0.46737444, 352960.34, 352960.34, 0.0024527032, 10.003916, 9.996815 
1.6051874e+3, 3.14886e+2, 398076.4, -49121.027, -15323.02, -0.22149426, 0.29932544, 398600.8, 398600.8, 0.004266694, 10.0037, 9.997859 
1.6149503e+3, 1.2488674e+2, -2046135.9, -1732238.3, -4352.85, -0.11380231, 0.22100422, -1732177.9, -16040.227, 0.02978273, 9.997035, 10.001307 
1.61496e+3, 1.3489021e+2, -1884463.3, -1537437.6, -73125.89, -0.19643979, 0.36339, -1522657.9, 95450.34, 0.018308382, 9.997256, 10.001862 
1.6149747e+3, 1.4489129e+2, -1835524.5, -1528618.0, 63808.14, 0.073510244, 0.32318816, -1515880.4, 4219.3584, 0.008418617, 9.997178, 10.0012665 
1.6149877e+3, 1.5489408e+2, -1701977.5, -1401873.0, 93524.48, -0.011886128, 0.43602607, -1375113.1, 46958.797, 0.0024150687, 9.99739, 10.001355 
1.6149998e+3, 1.6489518e+2, -1605600.6, -1407888.9, -9900.708, -0.067096815, 0.4603865, -1407394.4, -83332.9, 0.0002938315, 9.997798, 10.000458 
1.6150115e+3, 1.7489427e+2, -1426724.8, -1256441.4, -11094.845, -0.050909426, 0.2854918, -1255721.5, -29650.834, 0.000004294035, 9.998302, 10.000579 
1.6150239e+3, 1.8489486e+2, -1263338.0, -1180310.1, 63351.074, -0.07582398, 0.31958184, -1146082.6, -18015.371, 0.0, 9.998979, 10.000094 
1.6150372e+3, 1.9489694e+2, -1027208.6, -1003023.5, 113937.43, -0.13332659, 0.4742418, -900538.75, 129512.47, 0.0, 9.999871, 10.000208 
1.6150503e+3, 2.0489737e+2, -958465.3, -1020819.6, 54614.85, -0.14734246, 0.5499043, -926755.3, 5293.106, 0.0, 10.000123, 9.999295 
1.6150634e+3, 2.1489613e+2, -883971.2, -918200.94, 46538.156, -0.09651178, 0.455308, -851500.56, -17441.78, 0.0, 9.999907, 9.999425 
1.6150767e+3, 2.2489463e+2, -853268.7, -1018687.6, 58141.867, -0.08599322, 0.4425016, -834877.56, -98802.805, 0.0, 10.000141, 9.997952 
1.6150902e+3, 2.3489277e+2, -611762.7, -831813.25, 35054.953, -0.11267419, 0.4191183, -606313.25, 31783.46, 0.0, 10.001057, 9.99811 
1.615104e+3, 2.4489108e+2, -400599.9, -645911.9, -30393.072, -0.08444885, 0.43173924, -396890.44, 143221.6, 0.0, 10.001664, 9.998441 
1.615118e+3, 2.548896e+2, -248423.58, -505250.3, -14624.6045, 0.013398375, 0.39368424, -247593.48, 194526.3, 0.00000000987263, 10.001976, 9.998576 
1.6151313e+3, 2.6488715e+2, -210040.5, -625403.4, 138.08311, 0.012330753, 0.38090712, -210040.45, 134101.81, 0.000004852571, 10.002389, 9.996879 
1.615144e+3, 2.7488348e+2, -19726.49, -470238.78, 20088.217, -0.08753811, 0.28369075, -18832.537, 227348.94, 0.00006465758, 10.002977, 9.9969845 
1.6151567e+3, 2.8488034e+2, 130374.305, -357759.34, -64955.17, -0.11646159, 0.2867845, 138869.92, 287082.66, 0.0003366383, 10.003331, 9.996929 
1.615169e+3, 2.9487786e+2, 281362.75, -200777.6, -55541.97, -0.07117586, 0.28157866, 287678.38, 337912.72, 0.0010767062, 10.003567, 9.997209 
1.6151813e+3, 3.0487588e+2, 359086.16, -97821.07, -62995.87, -0.042330634, 0.3575254, 367612.6, 367612.6, 0.0024075864, 10.003646, 9.99753 
1.61519e+3, 3.148746e+2, 338063.44, -40218.176, 21883.172, -0.36540663, 0.41875693, 339325.13, 339325.13, 0.0041729147, 10.003184, 9.9981365 
1.6249485e+3, 1.2487338e+2, -2160363.5, -1735312.1, 77079.28, 0.06823964, 0.14846437, -1721766.3, -5500.337, 0.03179242, 9.996033, 10.001739 
1.6249573e+3, 1.3487734e+2, -1850782.3, -1536282.9, -57559.98, -0.18656261, 0.3422336, -1526079.3, 92152.805, 0.019603958, 9.997531, 10.001728 
1.6249731e+3, 1.4487861e+2, -1769485.0, -1482839.6, 2190.4922, 0.1841329, 0.32091177, -1482822.9, 37399.36, 0.009062119, 9.997593, 10.001377 
1.624985e+3, 1.5488145e+2, -1784486.3, -1423868.3, -1503.1206, 0.033456735, 0.42522374, -1423862.0, -1667.4988, 0.002624408, 9.996758, 10.001503 
1.6249973e+3, 1.6488251e+2, -1727788.1, -1482597.1, -21562.44, -0.04477178, 0.44825873, -1480715.3, -156530.5, 0.00032476612, 9.997043, 10.000299 
1.6250102e+3, 1.7488153e+2, -1368978.0, -1238577.0, -24035.516, -0.02370967, 0.27623668, -1234287.9, -8092.468, 0.000005034694, 9.998758, 10.000465 
1.6250233e+3, 1.848821e+2, -1211074.4, -1144938.6, 30293.594, -0.040729046, 0.3106776, -1133160.3, -4967.1455, 0.0, 9.9993, 10.000188 
1.6250367e+3, 1.9488436e+2, -1167145.0, -1048357.9, -1406.365, -0.11257938, 0.47101015, -1048341.25, -18164.76, 0.0, 9.99884, 10.000386 
1.62505e+3, 2.0488514e+2, -1067132.9, -1048288.94, -24243.26, -0.13344456, 0.5606103, -1031701.1, -99530.836, 0.0, 9.999254, 9.999531 
1.6250634e+3, 2.1488433e+2, -757721.8, -831511.25, 2679.6584, -0.09611519, 0.48619112, -757624.6, 76550.96, 0.0, 10.000645, 9.999671 
1.6250774e+3, 2.2488277e+2, -682907.4, -942945.75, 94141.63, -0.06943545, 0.46031907, -652403.56, 83787.39, 0.0, 10.0013275, 9.997903 
1.6250917e+3, 2.3488037e+2, -581886.25, -827125.9, 113673.875, -0.07008325, 0.3887901, -537301.5, 100915.89, 0.0, 10.001288, 9.998037 
1.625106e+3, 2.4487853e+2, -403868.7, -660113.3, 110151.4, -0.037356175, 0.39575547, -363027.5, 177206.81, 0.0, 10.001699, 9.998319 
1.62512e+3, 2.5487727e+2, -157595.4, -477307.9, 86186.35, 0.012369097, 0.3931632, -135841.89, 306399.3, 0.000000011745934, 10.002659, 9.998437 
1.6251343e+3, 2.6487482e+2, -87779.6, -569476.8, 109225.36, 0.035014104, 0.39181226, -64169.836, 280093.8, 0.0000048598445, 10.003244, 9.996847 
1.6251485e+3, 2.7487105e+2, 47723.617, -443037.28, 82719.55, 0.034853026, 0.29039624, 61291.207, 307594.22, 0.00006306325, 10.003456, 9.996937 
1.6251613e+3, 2.848678e+2, 177980.8, -352101.97, 23532.25, 0.007917546, 0.2903188, 179023.42, 327358.6, 0.00033149842, 10.003759, 9.99675 
1.625173e+3, 2.94865e+2, 367757.94, -183915.75, -10498.363, -0.063506536, 0.27890086, 367957.66, 418317.38, 0.001055369, 10.004272, 9.996983 
1.625185e+3, 3.0486253e+2, 427943.3, -64162.613, -45518.082, -0.04033313, 0.31007084, 432118.16, 432118.16, 0.002338704, 10.004105, 9.997555 
1.625194e+3, 3.14862e+2, 317614.13, -69431.65, -88532.35, -0.27075788, 0.45889354, 336903.56, 336903.56, 0.0040210946, 10.003072, 9.998023 
1.6349441e+3, 1.2486362e+2, -2216386.8, -1884288.5, -108687.32, -0.05308265, 0.25528094, -1851880.5, -135521.55, 0.03398967, 9.996158, 10.000661 
1.6349564e+3, 1.3486384e+2, -1974248.3, -1794878.3, 9635.394, -0.054424252, 0.2507669, -1794362.1, -175998.22, 0.02102759, 9.997548, 9.999933 
1.6349702e+3, 1.4486547e+2, -1745747.4, -1475798.1, -55549.816, 0.07275974, 0.3578879, -1464814.1, 55537.363, 0.009775217, 9.997757, 10.001355 
1.6349815e+3, 1.5486662e+2, -1780957.5, -1418448.3, -25147.936, -0.038550008, 0.28870097, -1416712.0, 5627.2505, 0.002860367, 9.996766, 10.001539 
1.6349943e+3, 1.6486767e+2, -1706370.8, -1454539.1, 25860.488, -0.08908446, 0.30276763, -1451910.9, -127581.875, 0.00036087315, 9.997104, 10.000469 
1.6350092e+3, 1.748686e+2, -1361905.8, -1221378.5, 46277.195, -0.037143473, 0.30761024, -1207508.0, 18813.65, 0.000005927034, 9.998746, 10.000592 
1.635023e+3, 1.8486929e+2, -1239018.8, -1220066.5, -2704.7136, -0.035336066, 0.37407795, -1219688.0, -91368.49, 0.0, 9.999364, 9.999647 
1.635036e+3, 1.9486985e+2, -1214224.5, -1136104.3, -9908.748, -0.09892863, 0.4217847, -1134867.1, -104544.555, 0.0, 9.998789, 9.999816 
1.6350496e+3, 2.0487052e+2, -1016749.4, -913326.06, 14667.72, -0.13321297, 0.4829719, -911286.1, 21031.188, 0.0, 9.999123, 10.000523 
1.635064e+3, 2.1487132e+2, -711429.1, -698614.2, 68858.46, -0.12040275, 0.4670212, -635865.7, 198438.25, 0.0, 10.000479, 10.000669 
1.6350788e+3, 2.2487089e+2, -661930.3, -844670.25, 83067.66, -0.10130084, 0.4666952, -629814.6, 106489.93, 0.0, 10.001095, 9.998687 
1.6350934e+3, 2.3486923e+2, -554456.5, -724381.9, 124078.03, -0.05122339, 0.38614473, -489039.6, 149280.2, 0.0, 10.001097, 9.998831 
1.6351077e+3, 2.4486741e+2, -458620.9, -717992.0, 132391.78, -0.07281266, 0.3678305, -402979.9, 137356.55, 0.0, 10.001464, 9.998033 
1.6351213e+3, 2.548654e+2, -202636.19, -527330.7, 136546.3, -0.17599949, 0.31991443, -152847.83, 289507.25, 0.000000006263202, 10.002483, 9.998173 
1.6351363e+3, 2.6486334e+2, -129915.91, -620511.4, 103729.23, -0.11384676, 0.38305652, -108885.4, 235491.17, 0.000005059976, 10.003073, 9.996589 
1.6351531e+3, 2.7486122e+2, 5790.3916, -491067.4, 112174.94, 0.1299656, 0.4625722, 29942.002, 276343.3, 0.000060994436, 10.003278, 9.996699 
1.6351664e+3, 2.8485838e+2, 122637.336, -408179.1, 30164.36, 0.09795016, 0.5314212, 124345.97, 272775.6, 0.0003219481, 10.003523, 9.996471 
1.6351761e+3, 2.9485473e+2, 304935.3, -248849.34, 36292.977, -0.20870371, 0.46341497, 307303.72, 357766.34, 0.0010251402, 10.004011, 9.9966545 
1.635188e+3, 3.0485004e+2, 330303.25, -196585.95, -96908.19, -0.18573557, 0.3357503, 347561.8, 347561.8, 0.002254671, 10.003808, 9.996786 
1.6351987e+3, 3.148482e+2, 240796.75, -137523.11, -91209.02, -0.1587085, 0.41442224, 261638.17, 261638.17, 0.0038411994, 10.002695, 9.997728 
1.6449404e+3, 1.2485206e+2, -1960293.5, -1685387.9, -197165.63, -0.09971244, 0.33205712, -1582491.9, 133981.81, 0.036383986, 9.997627, 10.001342 
1.6449551e+3, 1.3485093e+2, -2048704.4, -1866638.8, 2250.2651, 0.086785756, 0.22931115, -1866611.0, -248122.06, 0.022584815, 9.997223, 9.999593 
1.6449665e+3, 1.4485194e+2, -1858827.6, -1587868.8, 1186.5648, -0.027834859, 0.32105574, -1587863.5, -67381.234, 0.010560797, 9.997215, 10.000852 
1.6449785e+3, 1.5485257e+2, -1495480.5, -1333344.4, -30661.002, -0.09677484, 0.24076854, -1327739.9, 94738.266, 0.0031241647, 9.998922, 10.001094 
1.6449927e+3, 1.648538e+2, -1369069.0, -1262931.0, 34279.883, -0.061489027, 0.27760202, -1252822.3, 71645.195, 0.0004029895, 9.999295, 10.000729 
1.6450085e+3, 1.7485563e+2, -1387969.9, -1209529.6, 40409.996, 0.04461892, 0.35441306, -1200804.9, 25644.963, 0.0000070009137, 9.998454, 10.000824 
1.6450226e+3, 1.848566e+2, -1379074.9, -1278592.8, 34608.75, 0.054399244, 0.43202063, -1267826.1, -139381.52, 0.0, 9.9983835, 9.999701 
1.6450356e+3, 1.9485663e+2, -1119952.3, -1082970.4, 45020.816, -0.0504688, 0.41887808, -1052791.1, -22338.93, 0.0, 9.999417, 9.999865 
1.6450495e+3, 2.0485708e+2, -884989.75, -845012.44, 102747.8, -0.10014625, 0.454194, -760327.06, 172121.92, 0.0, 10.0000105, 10.000556 
1.6450645e+3, 2.1485804e+2, -748124.44, -704447.4, 58821.813, -0.100228556, 0.4480561, -663540.94, 170893.08, 0.0, 10.000193, 10.00075 
1.6450797e+3, 2.2485782e+2, -689345.3, -821291.7, 34593.52, -0.07825274, 0.44500527, -680825.75, 55606.094, 0.0, 10.00075, 9.999026 
1.6450949e+3, 2.3485622e+2, -437585.4, -632181.9, 18170.922, -0.027241701, 0.3427654, -435903.2, 202540.89, 0.0, 10.001742, 9.9991665 
1.6451095e+3, 2.4485472e+2, -373650.34, -699960.75, 33234.16, -0.052895665, 0.35108727, -370299.9, 170158.53, 0.0, 10.002148, 9.9978285 
1.6451232e+3, 2.5485328e+2, -295938.47, -602794.4, 13257.274, -0.18609142, 0.38711458, -295366.78, 147108.84, 0.000000005166704, 10.001971, 9.9979105 
1.6451389e+3, 2.6485136e+2, -205267.42, -612827.44, 38190.36, -0.12925264, 0.45996806, -201719.69, 142777.19, 0.000005473011, 10.002377, 9.996964 
1.6451563e+3, 2.7484888e+2, 73578.625, -409974.75, 50702.992, 0.11007685, 0.46591854, 78837.88, 325360.44, 0.000058881178, 10.003559, 9.997103 
1.6451699e+3, 2.8484625e+2, 215920.83, -319268.38, 21891.572, 0.08982089, 0.5165371, 216814.8, 365361.75, 0.0003079229, 10.003966, 9.9968815 
1.64518e+3, 2.948435e+2, 230094.16, -241309.06, 41677.848, -0.18017788, 0.5024967, 233750.63, 284320.78, 0.0009851714, 10.003315, 9.997042 
1.6451924e+3, 3.048382e+2, 324038.53, -278325.88, 3213.724, -0.11395034, 0.32785395, 324055.66, 324055.66, 0.0021641257, 10.004054, 9.996125 
1.6452043e+3, 3.148351e+2, 710287.1, 73059.48, -73920.15, -0.02965248, 0.3427025, 718749.7, 718749.7, 0.003669247, 10.005998, 9.997584 
1.6549379e+3, 1.24837875e+2, -1753741.0, -1315155.6, -71995.875, -0.18433914, 0.29172388, -1303639.6, 412978.8, 0.03897044, 9.99781, 10.00388 
1.654953e+3, 1.3483897e+2, -1973068.8, -1715094.6, -26919.893, 0.13155665, 0.30257735, -1712315.5, -93711.96, 0.024272982, 9.997236, 10.000632 
1.6549617e+3, 1.4483824e+2, -1914757.1, -1718139.1, 40303.305, -0.26559737, 0.21579029, -1710198.4, -189585.5, 0.0114189135, 9.997275, 9.9999275 
1.6549763e+3, 1.5483941e+2, -1560520.9, -1473004.8, 43899.33, -0.24976335, 0.28807107, -1454779.6, -32169.447, 0.0034161112, 9.998947, 10.000121 
1.6549921e+3, 1.6484094e+2, -1321569.6, -1198978.1, -11947.551, -0.09215771, 0.38762638, -1197824.6, 126774.24, 0.00045137366, 9.999431, 10.001107 
1.6550079e+3, 1.7484288e+2, -1355693.4, -1141023.8, 16911.152, 0.124010906, 0.42470318, -1139699.8, 86878.4, 0.000008273259, 9.998449, 10.001293 
1.655022e+3, 1.848441e+2, -1334031.0, -1196461.6, 60433.51, 0.12143214, 0.47822362, -1173684.6, -45117.46, 0.0, 9.998419, 10.000254 
1.6550349e+3, 1.9484462e+2, -1089297.8, -1008176.1, 92245.53, -0.06983597, 0.4597236, -947967.8, 82598.31, 0.0, 9.999357, 10.000413 
1.655049e+3, 2.0484479e+2, -967191.25, -985221.1, 97416.71, -0.15949458, 0.4813537, -878373.25, 54192.273, 0.0, 9.999883, 9.999654 
1.6550645e+3, 2.1484451e+2, -837577.4, -848592.4, 75572.914, -0.13347363, 0.44263774, -767311.56, 67254.195, 0.0, 10.000016, 9.999845 
1.6550803e+3, 2.2484335e+2, -724453.3, -848908.25, 56572.99, -0.11805439, 0.39574215, -702581.06, 33993.035, 0.0, 10.000552, 9.998933 
1.6550961e+3, 2.348412e+2, -471596.66, -659161.56, 70217.54, -0.10328311, 0.24726495, -448222.6, 190368.63, 0.0, 10.001552, 9.999076 
1.6551113e+3, 2.4484038e+2, -423442.63, -749963.2, 19928.742, -0.11348068, 0.33929586, -422230.8, 118369.86, 0.0, 10.001922, 9.99759 
1.6551259e+3, 2.5484088e+2, -340637.56, -648582.0, 21192.594, -0.12478397, 0.58808875, -339185.94, 103416.836, 0.00000000856411, 10.001783, 9.997677 
1.6551414e+3, 2.6483878e+2, -177144.69, -513461.88, 68437.21, -0.12491067, 0.6165144, -163751.73, 180873.3, 0.0000057188686, 10.00219, 9.997742 
1.6551577e+3, 2.7483392e+2, 106843.98, -299653.8, 112560.33, -0.129205, 0.30451375, 135930.92, 382599.0, 0.00005720022, 10.003372, 9.997953 
1.6551718e+3, 2.848314e+2, 252901.78, -181381.73, -18806.896, -0.13912587, 0.26405597, 253714.7, 402402.75, 0.0002952708, 10.0037, 9.997958 
1.655184e+3, 2.9483113e+2, 277143.8, -102887.2, 38991.57, -0.1227005, 0.3843523, 281103.13, 331788.56, 0.0009504649, 10.003129, 9.998087 
1.6551979e+3, 3.048266e+2, 224899.44, -404935.22, 57991.953, 0.0025544076, 0.27442983, 230194.53, 230194.53, 0.002096841, 10.0037365, 9.995399 
1.65521e+3, 3.1482187e+2, 632197.1, 10735.84, 51512.41, -0.10995544, 0.19711973, 636438.0, 636438.0, 0.0035553123, 10.005561, 9.997368 
1.664935e+3, 1.2482188e+2, -2052996.6, -1412873.5, -21961.385, -0.12914051, 0.18948561, -1412120.9, 304658.0, 0.041736465, 9.99555, 10.004288 
1.6649497e+3, 1.3482487e+2, -1914108.3, -1648472.8, -176560.33, 0.067881025, 0.3513677, -1560351.4, 58393.477, 0.026087236, 9.997443, 10.001009 
1.664959e+3, 1.4482471e+2, -1830947.5, -1638706.4, -42793.207, -0.25849557, 0.2877371, -1629610.9, -108862.63, 0.012349877, 9.997708, 10.000249 
1.6649751e+3, 1.5482652e+2, -1722744.1, -1503831.4, 43359.99, -0.18574059, 0.3864794, -1495555.9, -72817.19, 0.003737191, 9.997656, 10.000517 
1.6649914e+3, 1.64828e+2, -1526727.4, -1306969.1, 20931.914, -0.028900266, 0.4683353, -1304993.1, 19734.186, 0.00050616945, 9.998087, 10.001001 
1.6650064e+3, 1.7482895e+2, -1254420.5, -1106942.6, -22654.297, 0.102471896, 0.4172085, -1103541.1, 123174.88, 0.000009797576, 9.9992075, 10.001161 
1.6650209e+3, 1.8482983e+2, -1147396.5, -1107483.9, 21778.361, 0.0932768, 0.44543162, -1097901.1, 30806.52, 0.0, 9.999714, 10.000234 
1.6650347e+3, 1.9483083e+2, -999449.56, -961717.6, -11214.056, -0.05265142, 0.4758316, -958636.4, 72064.164, 0.0, 9.999975, 10.000422 
1.6650495e+3, 2.0483091e+2, -944213.5, -1011574.3, 1128.7256, -0.11585338, 0.5033567, -944194.56, -11494.0, 0.0, 10.000202, 9.999321 
1.6650651e+3, 2.1482995e+2, -794213.44, -865849.0, -1381.4059, -0.09934379, 0.43115205, -794186.8, 40521.78, 0.0, 10.000476, 9.999507 
1.6650812e+3, 2.2482869e+2, -674674.7, -811884.0, 51706.684, -0.084697835, 0.38833252, -657371.4, 79347.18, 0.0, 10.000846, 9.999031 
1.6650978e+3, 2.3482716e+2, -485251.8, -646761.25, 50380.285, -0.08039045, 0.2858216, -470825.13, 167904.94, 0.0, 10.001384, 9.999223 
1.6651134e+3, 2.4482626e+2, -434040.56, -753548.4, 14730.875, -0.087451175, 0.36065584, -433362.84, 107376.79, 0.0, 10.001814, 9.997641 
1.665128e+3, 2.5482595e+2, -284367.03, -614843.06, 15129.431, -0.1018639, 0.5263261, -283675.84, 159072.31, 0.0000000057748837, 10.002124, 9.997758 
1.6651438e+3, 2.6482388e+2, -150391.58, -452489.03, 104067.72, -0.098924324, 0.5347317, -118012.37, 226756.64, 0.0000055479773, 10.002163, 9.998175 
1.6651604e+3, 2.7482e+2, -73253.94, -354396.38, 87608.87, -0.107371464, 0.28065708, -48188.26, 198614.3, 0.000055377644, 10.001959, 9.998281 
1.6651751e+3, 2.8481787e+2, 67606.44, -239986.17, -72165.695, -0.09322011, 0.25330165, 83695.95, 232515.42, 0.00028510438, 10.002296, 9.998213 
1.6651879e+3, 2.948177e+2, 299178.6, -62649.824, -123347.734, -0.049355946, 0.35907018, 337226.97, 388044.8, 0.0009269267, 10.003182, 9.998315 
1.6652025e+3, 3.0481398e+2, 308945.7, -350753.28, -15195.29, 0.071197696, 0.31118482, 309295.5, 309295.5, 0.0020627275, 10.004255, 9.995512 
1.6652158e+3, 3.1480938e+2, 609591.44, 48152.637, -27456.453, -0.041680723, 0.23702395, 610931.0, 610931.0, 0.0035148193, 10.005216, 9.997772 
1.6749309e+3, 1.2480539e+2, -2163179.8, -1651309.4, 2397.7905, -0.16595367, 0.15897533, -1651298.3, 65644.125, 0.044670317, 9.995631, 10.0025425 
1.6749443e+3, 1.348088e+2, -1926149.3, -1689424.6, -123164.93, -0.23663846, 0.39003095, -1636967.6, -18055.691, 0.028026333, 9.997503, 10.000696 
1.6749586e+3, 1.4481133e+2, -1698513.5, -1388028.3, -67858.125, -0.12466482, 0.5261176, -1373845.4, 147043.39, 0.013357116, 9.997802, 10.001938 
1.6749749e+3, 1.5481398e+2, -1603688.3, -1259470.0, 53619.977, -0.0073200325, 0.53953856, -1251310.9, 171551.7, 0.004090086, 9.997661, 10.002199 
1.67499e+3, 1.6481493e+2, -1557009.9, -1391251.6, 48147.035, -0.00062134635, 0.51262134, -1378281.5, -53428.535, 0.0005678562, 9.998174, 10.000386 
1.6750038e+3, 1.748139e+2, -1307886.6, -1209668.8, 26481.836, -0.11678748, 0.33523408, -1202983.6, 23879.463, 0.000011659807, 9.999176, 10.000472 
1.6750184e+3, 1.8481396e+2, -1182657.6, -1192420.5, 17623.295, -0.1575876, 0.34572935, -1169252.3, -40387.867, 0.0, 9.999754, 9.999639 
1.6750345e+3, 1.9481531e+2, -1052619.6, -1056405.9, 6659.488, -0.10255388, 0.47090098, -1047589.4, -16734.264, 0.0, 9.999904, 9.99981 
1.6750501e+3, 2.0481546e+2, -937649.5, -979524.25, -2354.3545, -0.083414696, 0.52387446, -937517.56, -4663.162, 0.0, 10.000114, 9.999586 
1.6750658e+3, 2.1481429e+2, -801744.75, -845157.9, 20502.627, -0.10149202, 0.4062244, -793592.8, 41270.39, 0.0, 10.000309, 9.999735 
1.6750821e+3, 2.248138e+2, -692874.5, -793023.1, 61829.926, -0.10427499, 0.41650325, -663385.1, 73480.43, 0.0, 10.000604, 9.999274 
1.6750994e+3, 2.3481403e+2, -497307.88, -628881.44, 80495.375, -0.0660368, 0.46642697, -459135.97, 179725.27, 0.0, 10.001199, 9.999434 
1.6751152e+3, 2.4481235e+2, -438799.25, -712379.5, 11322.013, -0.101041034, 0.43291366, -438331.5, 102544.42, 0.0, 10.001594, 9.998029 
1.6751291e+3, 2.5480866e+2, -284614.0, -570446.4, 41484.203, -0.21825852, 0.21937501, -278714.94, 164195.75, 0.0000000017385277, 10.001928, 9.998157 
1.6751455e+3, 2.6480684e+2, -184595.73, -468659.72, 85133.13, -0.17788555, 0.22853273, -161035.66, 183892.44, 0.0000048816705, 10.001926, 9.99818 
1.6751643e+3, 2.7480686e+2, -98369.44, -370230.44, 101848.91, 0.04791788, 0.37004822, -64446.18, 182482.19, 0.000051551386, 10.001798, 9.998254 
1.6751793e+3, 2.848055e+2, -19413.441, -366037.3, -49202.266, 0.07226017, 0.46077496, -12564.644, 136378.17, 0.0002714196, 10.002059, 9.997466 
1.675191e+3, 2.9480305e+2, 230766.95, -169568.52, -64502.29, -0.09852365, 0.4061136, 240902.97, 291871.66, 0.0008993855, 10.003009, 9.997674 
1.6752057e+3, 3.0480012e+2, 312341.28, -250106.16, 8789.899, -0.056596003, 0.4214471, 312478.6, 312478.6, 0.0020323566, 10.003883, 9.996371 
1.6752209e+3, 3.147968e+2, 605932.8, 142452.13, 56798.76, -0.10205824, 0.39064327, 612791.9, 612791.9, 0.0035035983, 10.004804, 9.998609 
1.6849288e+3, 1.24791846e+2, -1971282.4, -1605669.0, 60297.117, 0.0025302728, 0.38068676, -1595981.5, 121098.02, 0.04776628, 9.997159, 10.002124 
1.6849412e+3, 1.3479362e+2, -2021525.8, -1711219.4, -37070.79, -0.25819895, 0.42827952, -1706852.3, -87788.74, 0.030093629, 9.99677, 10.000888 
1.6849568e+3, 1.4479572e+2, -1778126.4, -1394243.1, -8377.4, -0.040198993, 0.49167818, -1394060.4, 126982.37, 0.0144471, 9.997104, 10.002238 
1.6849732e+3, 1.5479845e+2, -1587290.9, -1225075.5, -24050.67, 0.07891734, 0.48802552, -1223485.5, 199528.1, 0.004479329, 9.997649, 10.00245 
1.6849886e+3, 1.6479951e+2, -1609056.9, -1446142.3, -22232.313, 0.04149857, 0.47390765, -1443162.8, -118159.914, 0.0006375465, 9.99795, 10.000117 
1.6850024e+3, 1.7479874e+2, -1413410.5, -1284457.5, -31005.307, -0.12880708, 0.34517843, -1277390.0, -50377.836, 0.00001399049, 9.998561, 10.000247 
1.6850178e+3, 1.8479866e+2, -1271839.4, -1267977.5, -1348.226, -0.16424794, 0.3664631, -1267553.4, -138537.86, 0.0, 9.999294, 9.999336 
1.6850346e+3, 1.9479941e+2, -1015811.6, -1077641.5, -11163.237, -0.08685733, 0.46462476, -1013857.9, 17154.535, 0.0, 10.00032, 9.999468 
1.6850509e+3, 2.0479938e+2, -824623.1, -899468.5, -10773.181, -0.050709896, 0.5085189, -823103.3, 109909.58, 0.0, 10.00079, 9.999808 
1.6850667e+3, 2.147987e+2, -729657.44, -776890.8, -18871.275, -0.059515286, 0.41452882, -723043.8, 111971.72, 0.0, 10.000675, 10.00002 
1.685083e+3, 2.2479843e+2, -668082.4, -806250.75, 52436.434, -0.070680134, 0.44199252, -650435.94, 86580.11, 0.0, 10.000857, 9.999084 
1.6851003e+3, 2.3479852e+2, -492740.8, -651070.8, 23472.668, -0.091120556, 0.50239265, -489334.25, 149680.9, 0.0, 10.001319, 9.999245 
1.6851167e+3, 2.447969e+2, -364528.88, -606379.06, -33335.42, -0.11691904, 0.4544157, -360018.22, 181010.7, 0.0, 10.001807, 9.998638 
1.6851318e+3, 2.5479344e+2, -176763.61, -454923.66, -21316.357, -0.16670847, 0.20154874, -175139.55, 267918.63, 0.0000000018399801, 10.002381, 9.998731 
1.6851485e+3, 2.647919e+2, -91508.21, -399133.66, 37933.84, -0.09192123, 0.20050527, -86899.56, 258171.67, 0.0000039092515, 10.002462, 9.998399 
1.6851668e+3, 2.7479228e+2, -38145.68, -302713.5, 39286.88, 0.11735506, 0.3562035, -32435.053, 214633.02, 0.000046409757, 10.002097, 9.998549 
1.685182e+3, 2.8479102e+2, 53961.03, -382636.88, -1510.5981, 0.10693088, 0.45805162, 53966.254, 203049.98, 0.00025645504, 10.002763, 9.997036 
1.6851942e+3, 2.947883e+2, 411814.28, -130467.016, -33437.26, -0.12730847, 0.4268611, 413868.25, 464983.66, 0.000866263, 10.004443, 9.997271 
1.68521e+3, 3.04786e+2, 477894.16, -137156.83, 16560.854, -0.038012553, 0.5088355, 478339.75, 478339.75, 0.0019892203, 10.004827, 9.996728 
1.6852269e+3, 3.1478217e+2, 413292.34, 28588.402, -32664.75, 0.08003243, 0.40999037, 416046.16, 416046.16, 0.0034767652, 10.00348, 9.998521 
1.6949268e+3, 1.2477935e+2, -1880545.1, -1465236.4, -71253.23, 0.011705382, 0.64346665, -1453351.9, 263857.47, 0.051028147, 9.997312, 10.00308 
1.6949397e+3, 1.347793e+2, -1982166.9, -1619516.1, -22798.729, -0.111808315, 0.44686818, -1618088.4, 1111.8121, 0.032295942, 9.996725, 10.001541 
1.6949534e+3, 1.447779e+2, -1840756.3, -1546910.9, 4384.975, -0.13840094, 0.17768236, -1546845.5, -25635.389, 0.015627254, 9.997199, 10.001137 
1.6949701e+3, 1.5478012e+2, -1671505.4, -1407657.1, 4513.537, -0.035247166, 0.24884363, -1407580.0, 15610.278, 0.004910431, 9.997684, 10.001178 
1.6949861e+3, 1.6478184e+2, -1583443.8, -1413071.5, -17934.426, -0.034041733, 0.35759452, -1411204.0, -86028.234, 0.0007170378, 9.998031, 10.000304 
1.6950022e+3, 1.7478356e+2, -1401052.6, -1255202.6, 2869.7847, -0.03557304, 0.45549306, -1255146.3, -27984.01, 0.000016975888, 9.998545, 10.000454 
1.6950186e+3, 1.8478404e+2, -1265865.8, -1271220.9, 22475.754, -0.050592512, 0.5233342, -1245908.6, -116748.18, 0.0, 9.9993515, 9.9992895 
1.695035e+3, 1.9478308e+2, -1030536.75, -1090526.3, 34700.453, -0.1155506, 0.45702404, -1014664.2, 16508.53, 0.0, 10.000241, 9.999417 
1.695051e+3, 2.0478274e+2, -839970.94, -890788.0, -28407.684, -0.13715898, 0.4646916, -827266.6, 105908.51, 0.0, 10.000614, 9.999955 
1.6950673e+3, 2.1478316e+2, -743004.2, -770423.7, -12461.911, -0.08287873, 0.46685404, -738186.75, 96979.266, 0.0, 10.000518, 10.000146 
1.6950837e+3, 2.2478254e+2, -732121.2, -885995.1, 56573.707, -0.118443735, 0.47373003, -713560.1, 23610.604, 0.0, 10.000636, 9.998639 
1.6951002e+3, 2.3478073e+2, -562964.8, -738871.4, 57926.62, -0.2568123, 0.3900562, -545603.0, 93588.06, 0.0, 10.001074, 9.998756 
1.6951175e+3, 2.4477984e+2, -359747.0, -526070.94, -21049.21, -0.2499182, 0.4064366, -357124.47, 184074.75, 0.0, 10.001508, 9.999335 
1.6951355e+3, 2.5478005e+2, -154681.5, -362619.72, 16172.808, -0.05431961, 0.44902566, -153431.14, 289761.94, 0.0000000033657745, 10.002183, 9.999461 
1.6951522e+3, 2.647789e+2, -104064.36, -363701.1, 13451.268, 0.023985902, 0.43208724, -103369.336, 241831.22, 0.0000030031388, 10.002205, 9.998762 
1.6951677e+3, 2.7477625e+2, -38023.156, -260176.36, 41370.188, -0.0065925135, 0.24008395, -30569.154, 216653.78, 0.000041455987, 10.00192, 9.998924 
1.6951829e+3, 2.8477418e+2, 5775.738, -424696.56, 44106.816, -0.1132841, 0.25228578, 10248.513, 159492.97, 0.00024337543, 10.002516, 9.996866 
1.6951975e+3, 2.9477298e+2, 368828.9, -168930.89, 48098.063, -0.26981902, 0.3957012, 373097.0, 424359.84, 0.00083297, 10.004212, 9.997123 
1.6952153e+3, 3.047712e+2, 406262.28, -188879.61, -43406.344, -0.031726975, 0.5435047, 409411.44, 409411.44, 0.0019296512, 10.0044365, 9.996548 
1.6952322e+3, 3.1476623e+2, 307566.2, -88383.52, -28506.242, 0.23471528, 0.3413285, 309607.97, 309607.97, 0.003404536, 10.003066, 9.997896 
1.7049235e+3, 1.2476348e+2, -1918779.1, -1485100.0, -29077.879, -0.011834637, 0.5854022, -1483159.1, 234205.75, 0.054460447, 9.997053, 10.003069 
1.7049378e+3, 1.347633e+2, -1867200.6, -1547275.1, -81264.29, 0.0072150873, 0.36788273, -1527816.8, 91538.26, 0.034638863, 9.997433, 10.001716 
1.7049512e+3, 1.4476262e+2, -1837985.8, -1614638.5, -14973.3955, -0.080779426, 0.19082528, -1613639.1, -92281.38, 0.016903277, 9.997549, 10.000497 
1.7049682e+3, 1.5476389e+2, -1671410.6, -1482643.6, -4619.4155, -0.009741164, 0.23407683, -1482530.6, -59180.855, 0.00538814, 9.998028, 10.000486 
1.7049846e+3, 1.6476515e+2, -1499935.4, -1389275.4, 17606.516, -0.011914115, 0.33917356, -1386541.6, -61200.605, 0.0008082668, 9.998663, 10.000162 
1.7050014e+3, 1.7476726e+2, -1251258.1, -1195099.5, -6747.737, -0.009933531, 0.48828155, -1194300.1, 33023.3, 0.000020835996, 9.999613, 10.000359 
1.7050186e+3, 1.8476777e+2, -1189182.3, -1228437.3, 14548.046, 0.000078449055, 0.56093496, -1184378.5, -55057.816, 0.0, 9.99985, 9.999353 
1.7050357e+3, 1.947663e+2, -1117659.1, -1126919.8, 11229.314, -0.03072822, 0.43804657, -1110143.0, -78806.52, 0.0, 9.999605, 9.999488 
1.705052e+3, 2.0476581e+2, -980709.06, -950444.7, -31907.795, -0.04949654, 0.42357078, -930262.7, 3076.7588, 0.0, 9.999613, 10.000018 
1.7050678e+3, 2.1476659e+2, -811134.3, -797109.06, -45201.688, -0.054646865, 0.45511764, -758379.25, 76947.3, 0.0, 10.000031, 10.000189 
1.7050843e+3, 2.2476594e+2, -757096.06, -884378.44, 68323.984, -0.10753957, 0.45264754, -727365.06, 9966.096, 0.0, 10.000413, 9.998751 
1.7051013e+3, 2.347637e+2, -606419.56, -742459.1, 82178.47, -0.21867019, 0.31160218, -567762.3, 71593.0, 0.0, 10.00071, 9.998897 
1.705119e+3, 2.4476312e+2, -438785.06, -551521.25, 31658.748, -0.1969633, 0.34586522, -430503.03, 110858.125, 0.0, 10.000915, 9.99945 
1.7051372e+3, 2.5476438e+2, -310970.53, -416742.5, -1225.1293, -0.034521077, 0.48259526, -310956.34, 132390.27, 0.0000000026261497, 10.001041, 9.99963 
1.7051542e+3, 2.6476347e+2, -197688.55, -421120.13, -16201.51, 0.032198355, 0.486671, -196519.84, 148832.34, 0.0000021613648, 10.001588, 9.998675 
1.7051698e+3, 2.7476025e+2, 48346.313, -232658.5, -50404.152, -0.02232717, 0.24839863, 57113.813, 304493.34, 0.000036656253, 10.002548, 9.998821 
1.7051855e+3, 2.8475797e+2, 102402.31, -342904.2, 3025.652, -0.124827765, 0.22902054, 102422.875, 251825.1, 0.00022921336, 10.003042, 9.997164 
1.7052011e+3, 2.9475668e+2, 219815.22, -206727.64, 7311.155, -0.26817864, 0.33835974, 219940.5, 271360.44, 0.0007930789, 10.00306, 9.997409 
1.7052197e+3, 3.0475503e+2, 381383.94, -177780.34, -38108.15, 0.006954821, 0.47342804, 383969.16, 383969.16, 0.0018420495, 10.004162, 9.996742 
1.7052373e+3, 3.1475082e+2, 733611.44, 87525.21, -76372.28, 0.29066744, 0.33153674, 742516.44, 742516.44, 0.0032650912, 10.006158, 9.997586 
1.7149201e+3, 1.247456e+2, -1983404.5, -1623776.3, 110037.586, -0.1426805, 0.31838688, -1592779.0, 124753.734, 0.058051143, 9.997101, 10.002051 
1.7149356e+3, 1.3474612e+2, -1898254.8, -1608324.9, -61872.75, 0.0056085717, 0.22632778, -1595673.0, 23849.969, 0.037118543, 9.997432, 10.001282 
1.7149498e+3, 1.4475009e+2, -1830135.4, -1628784.6, -14513.576, -0.018028872, 0.54416525, -1627743.9, -106259.7, 0.018276531, 9.997665, 10.000348 
1.7149669e+3, 1.547496e+2, -1684198.4, -1509582.0, 26560.229, 0.03965523, 0.4306212, -1505631.5, -82137.766, 0.005915651, 9.998026, 10.000303 
1.7149836e+3, 1.6474944e+2, -1520970.6, -1442841.9, 38216.55, -0.0072642216, 0.4218297, -1427257.1, -101758.77, 0.0009130136, 9.998711, 9.999765 
1.7149998e+3, 1.7475003e+2, -1284312.8, -1253961.0, 37154.996, -0.14992236, 0.45388338, -1229002.0, -1507.9285, 0.000025810483, 9.999581, 9.999963 
1.7150174e+3, 1.8474995e+2, -1176288.8, -1207065.1, -6670.3296, -0.13563415, 0.48381338, -1174905.3, -45410.01, 0.0, 9.999868, 9.999494 
1.7150363e+3, 1.9474906e+2, -1114613.8, -1105687.3, 13250.342, 0.06021133, 0.40201852, -1096168.6, -64665.523, 0.0, 9.99954, 9.999665 
1.7150532e+3, 2.0474865e+2, -999751.25, -964134.5, -27800.385, 0.08154535, 0.38768303, -948927.75, -15422.969, 0.0, 9.9995, 9.999979 
1.7150678e+3, 2.1474889e+2, -842834.2, -816341.25, -18889.744, -0.077330075, 0.36887905, -806516.3, 28981.73, 0.0, 9.999831, 10.000153 
1.7150845e+3, 2.2474848e+2, -750628.06, -814083.3, 69125.414, -0.143004, 0.36055675, -706296.7, 31202.428, 0.0, 10.000161, 9.999359 
1.7151035e+3, 2.3474734e+2, -589066.5, -667827.9, 106874.984, -0.093190365, 0.2696247, -514547.63, 124961.516, 0.0, 10.000532, 9.999502 
1.715121e+3, 2.4474658e+2, -504124.88, -626682.0, 22298.895, -0.114363424, 0.27653435, -500193.75, 41322.492, 0.0, 10.000663, 9.99905 
1.7151368e+3, 2.547463e+2, -370233.25, -497472.44, 17439.535, -0.20358734, 0.30000457, -367886.25, 75633.875, 0.0000000000058928205, 10.000857, 9.9991665 
1.7151538e+3, 2.6474544e+2, -265468.75, -507071.06, 5346.089, -0.1867477, 0.35866788, -265350.5, 80177.68, 0.0000014626683, 10.001363, 9.998191 
1.7151722e+3, 2.7474418e+2, -17223.152, -316951.25, -116.896065, -0.047767777, 0.3645474, -17223.107, 230316.42, 0.000032258973, 10.002329, 9.998347 
1.7151892e+3, 2.8474215e+2, 102007.94, -276477.97, -8884.393, -0.076367594, 0.36960706, 102216.375, 251775.08, 0.00021422842, 10.002753, 9.99776 
1.7152044e+3, 2.9473937e+2, 237675.22, -119986.56, 34378.44, -0.27238107, 0.2554664, 240949.69, 292536.3, 0.0007459909, 10.002848, 9.998104 
1.7152233e+3, 3.047373e+2, 340928.7, -172673.2, 19786.584, -0.06919587, 0.29739037, 341689.84, 341689.84, 0.0017319231, 10.003798, 9.996948 
1.7152415e+3, 3.147352e+2, 644594.7, 54410.484, 39995.18, 0.034023453, 0.34483787, 647292.7, 647292.7, 0.0030779627, 10.005541, 9.9976425 
1.7249182e+3, 1.2472895e+2, -2151419.0, -1690950.4, 138126.02, 0.034473848, 0.2945641, -1652695.1, 64999.297, 0.06177432, 9.995897, 10.002147 
1.7249334e+3, 1.3472936e+2, -1897124.5, -1636110.5, -102490.1, 0.04787755, 0.19872934, -1600676.9, 19011.95, 0.039721623, 9.997556, 10.001021 
1.7249483e+3, 1.4473441e+2, -1720847.3, -1600861.6, -34281.434, 0.026776483, 0.6515618, -1591757.8, -70116.92, 0.019743169, 9.998501, 10.000149 
1.7249653e+3, 1.5473357e+2, -1507482.0, -1431694.0, -16491.52, 0.032861777, 0.5118294, -1428261.0, -4607.1167, 0.006494274, 9.999239, 10.000274 
1.7249826e+3, 1.647331e+2, -1467065.4, -1420321.1, 26305.676, -0.002131535, 0.47496226, -1408504.5, -82843.6, 0.001032908, 9.999099, 9.999742 
1.7249992e+3, 1.7473291e+2, -1456999.5, -1340181.1, 25699.936, -0.10609658, 0.43498752, -1334777.1, -107114.414, 0.00003215152, 9.998405, 9.999945 
1.725017e+3, 1.8473269e+2, -1334154.3, -1230546.8, 48770.85, -0.08289652, 0.42951, -1211201.3, -81538.09, 0.0, 9.998562, 9.999957 
1.725036e+3, 1.947326e+2, -1014349.56, -1000601.5, 68335.74, 0.056397744, 0.3795021, -938794.94, 92865.414, 0.0, 9.999993, 10.000163 
1.7250532e+3, 2.0473224e+2, -855047.06, -954060.44, 30645.1, 0.08118019, 0.36937043, -846329.75, 87331.695, 0.0, 10.000751, 9.999455 
1.7250685e+3, 2.1473156e+2, -724740.56, -823480.94, -21416.639, -0.021191189, 0.31672135, -720295.44, 115371.484, 0.0, 10.000911, 9.999596 
1.7250857e+3, 2.2473104e+2, -633427.4, -728410.7, 50476.227, -0.060115278, 0.31752664, -611613.1, 126056.73, 0.0, 10.000862, 9.999595 
1.7251045e+3, 2.3473088e+2, -551888.1, -620258.75, 31582.31, -0.046263598, 0.30050257, -539532.3, 100136.41, 0.0, 10.000687, 9.999738 
1.725122e+3, 2.4473011e+2, -472382.7, -670065.94, -24562.727, -0.09244155, 0.31862044, -469376.44, 72299.85, 0.0, 10.001125, 9.998525 
1.7251381e+3, 2.5472873e+2, -211627.36, -476330.3, -57864.516, -0.20969324, 0.28574428, -199530.88, 244162.13, 0.0000000000049057277, 10.002189, 9.998659 
1.7251557e+3, 2.6472753e+2, -67761.32, -408216.56, -35817.344, -0.20163833, 0.3309187, -64033.992, 281671.88, 0.0000011502509, 10.002715, 9.998214 
1.7251745e+3, 2.7472657e+2, 28108.68, -294764.13, -35731.637, -0.057992935, 0.36942455, 32015.744, 279729.7, 0.000029351942, 10.002635, 9.998356 
1.7251919e+3, 2.8472492e+2, 106429.234, -236452.36, -17121.832, -0.056564778, 0.3946194, 107282.09, 257011.06, 0.00020332959, 10.00263, 9.998087 
1.7252076e+3, 2.9472238e+2, 246783.9, -81988.24, -44164.758, -0.21625963, 0.27515393, 252613.3, 304366.72, 0.0007056686, 10.002785, 9.998386 
1.7252275e+3, 3.047201e+2, 301741.3, -156314.03, 6928.511, 0.0032478815, 0.26999235, 301846.1, 301846.1, 0.0016348797, 10.003337, 9.997307 
1.7252462e+3, 3.1471932e+2, 454024.38, -6081.884, -32887.33, 0.05389826, 0.42327, 456363.2, 456363.2, 0.0029110275, 10.004002, 9.998019 
1.7349166e+3, 1.2471259e+2, -2053415.9, -1514941.8, 84718.13, 0.22114089, 0.4156066, -1501927.6, 215931.75, 0.06561491, 9.995977, 10.003382 
1.7349307e+3, 1.3471286e+2, -1912455.0, -1660790.1, -46952.453, -0.0028925042, 0.28028643, -1652315.8, -32461.697, 0.042436883, 9.997526, 10.000861 
1.7349462e+3, 1.4471516e+2, -1728679.6, -1629390.1, -27033.76, -0.07982001, 0.49021405, -1622506.8, -100674.64, 0.021297567, 9.998553, 9.999925 
1.734963e+3, 1.5471578e+2, -1496633.1, -1411671.6, 18462.352, -0.15174277, 0.483898, -1407833.1, 15996.87, 0.0071235094, 9.999255, 10.0004 
1.7349806e+3, 1.6471617e+2, -1419920.8, -1357155.8, -14270.9375, -0.13994318, 0.50871974, -1354063.3, -28235.584, 0.0011691477, 9.99923, 10.000118 
1.7349991e+3, 1.7471589e+2, -1431477.8, -1295567.9, 7544.007, 0.023680044, 0.42669746, -1295150.4, -67320.92, 0.00004011834, 9.998428, 10.000244 
1.7350172e+3, 1.8471602e+2, -1279165.3, -1121460.0, 83599.88, 0.034036174, 0.40373468, -1085392.4, 44431.87, 0.0, 9.998585, 10.000695 
1.7350341e+3, 1.9471681e+2, -979881.2, -900769.9, 129149.08, -0.14456938, 0.36480868, -805254.7, 226554.42, 0.0, 9.999872, 10.000906 
1.7350517e+3, 2.0471643e+2, -947536.25, -1111690.6, 23737.32, -0.16955177, 0.3650141, -944172.7, -10361.949, 0.0, 10.000598, 9.998448 
1.7350698e+3, 2.1471462e+2, -821545.9, -991363.7, -3935.7507, -0.0020063333, 0.303292, -821454.75, 14377.922, 0.0, 10.000763, 9.998514 
1.7350873e+3, 2.2471376e+2, -681376.6, -776855.1, 32349.729, -0.004488902, 0.33451807, -671448.4, 66393.87, 0.0, 10.000645, 9.999365 
1.735104e+3, 2.3471414e+2, -589936.6, -657774.0, 37890.504, -0.18572666, 0.38658857, -573000.94, 66835.13, 0.0, 10.0005, 9.999571 
1.7351218e+3, 2.4471347e+2, -553203.06, -771799.5, 4066.7598, -0.24999969, 0.45031214, -553127.44, -11284.122, 0.0, 10.000854, 9.997954 
1.7351408e+3, 2.5471163e+2, -286355.88, -575232.25, -169.78943, -0.17528373, 0.42985559, -286355.75, 157509.81, 0.000000000000012544113, 10.001955, 9.998091 
1.735159e+3, 2.6470956e+2, -79118.91, -365160.56, -46898.676, -0.15121526, 0.39724168, -71625.805, 274260.22, 0.0000010511417, 10.002429, 9.998647 
1.7351761e+3, 2.7470753e+2, 28964.002, -241251.73, -18704.16, -0.17695163, 0.27561596, 30252.547, 278154.47, 0.000029114979, 10.002419, 9.998821 
1.7351934e+3, 2.8470615e+2, 54146.68, -284850.72, -29486.371, -0.20337592, 0.3134124, 56692.324, 206606.03, 0.00019954766, 10.002371, 9.997881 
1.7352106e+3, 2.9470518e+2, 186601.05, -140712.64, -15940.524, -0.22752027, 0.36983058, 187375.53, 239300.17, 0.00068418466, 10.002502, 9.998118 
1.7352317e+3, 3.0470306e+2, 269175.25, -126130.43, 15622.121, 0.04831737, 0.37786835, 269791.66, 269791.66, 0.0015843196, 10.002941, 9.997689 
1.7352508e+3, 3.1470224e+2, 435555.3, 102241.586, 25376.654, 0.058310363, 0.4670082, 437476.28, 437476.28, 0.0028316744, 10.003421, 9.999018 
1.744914e+3, 1.2469616e+2, -1950682.5, -1547588.9, 160479.16, 0.32979754, 0.48120117, -1491502.9, 226516.86, 0.06957688, 9.997071, 10.002638 
1.7449288e+3, 1.3469669e+2, -1833539.9, -1630929.1, -7975.1987, 0.04002778, 0.38867295, -1630615.6, -10601.803, 0.045260757, 9.998118, 10.000783 
1.7449445e+3, 1.446971e+2, -1698444.0, -1625254.0, 34282.746, -0.10427448, 0.4168132, -1611704.3, -89693.625, 0.022935338, 9.998822, 9.999807 
1.7449622e+3, 1.5469801e+2, -1594464.1, -1474706.3, 21088.121, -0.12556694, 0.45261115, -1471101.4, -47097.54, 0.0078018596, 9.998657, 10.00024 
1.74498e+3, 1.6469859e+2, -1498650.8, -1390645.9, -22665.957, -0.085998826, 0.498697, -1386082.0, -60082.824, 0.0013223152, 9.998678, 10.000159 
1.7449987e+3, 1.7469855e+2, -1275680.5, -1213881.0, -45500.418, 0.078080684, 0.4391644, -1189780.0, 38218.74, 0.000049909977, 9.999478, 10.000303 
1.7450166e+3, 1.8469882e+2, -1135842.4, -1042893.94, 33781.125, 0.08261179, 0.4239885, -1031913.7, 98078.695, 0.0000000000000006446772, 9.999534, 10.000766 
1.7450336e+3, 1.9469951e+2, -1116925.6, -960858.7, 2606.903, -0.13546921, 0.36759418, -960815.1, 71163.34, 0.0, 9.998906, 10.000946 
1.7450514e+3, 2.0469911e+2, -1159127.8, -1200756.3, -51482.805, -0.16051984, 0.3590098, -1124410.9, -190430.6, 0.0, 9.999087, 9.99856 
1.7450707e+3, 2.1469755e+2, -872539.56, -997246.56, -18633.717, 0.030520335, 0.31011626, -869814.8, -33815.68, 0.0, 10.000343, 9.998668 
1.7450885e+3, 2.2469665e+2, -643968.0, -809706.75, 53788.64, 0.031981736, 0.34994826, -628041.9, 109967.71, 0.0, 10.001097, 9.998939 
1.7451048e+3, 2.3469663e+2, -514202.28, -671973.25, 18136.795, -0.18648316, 0.40865886, -512144.2, 127864.95, 0.0, 10.001228, 9.999135 
1.745123e+3, 2.4469574e+2, -500599.84, -733787.0, 32680.564, -0.2320346, 0.46884823, -496106.34, 45912.297, 0.0, 10.001177, 9.998055 
1.7451431e+3, 2.5469384e+2, -426903.63, -630770.1, 45226.695, -0.09220641, 0.4325053, -417320.78, 26719.314, 0.0, 10.000955, 9.998187 
1.7451616e+3, 2.6469186e+2, -260839.67, -451792.9, 30778.924, -0.06993831, 0.40184876, -256001.16, 90058.22, 0.0000010008785, 10.00117, 9.998657 
1.745178e+3, 2.7468994e+2, -37776.56, -275135.28, -6062.3296, -0.20260833, 0.29924342, -37621.82, 210452.8, 0.000030147008, 10.001956, 9.998811 
1.7451955e+3, 2.846886e+2, 100573.65, -257001.78, 3916.8054, -0.22825153, 0.33800563, 100616.55, 250702.42, 0.00019898178, 10.002649, 9.997941 
1.7452142e+3, 2.946875e+2, 265244.22, -113077.65, -6199.6436, -0.13061911, 0.3773273, 265345.8, 317442.56, 0.00068108423, 10.00305, 9.99806 
1.7452355e+3, 3.0468497e+2, 313718.2, -127883.94, 63408.008, 0.1324338, 0.36341998, 322642.34, 322642.34, 0.0015908111, 10.003324, 9.997509 
1.7452537e+3, 3.1468374e+2, 511562.03, 165483.42, -66952.62, 0.0047709364, 0.42355818, 524063.16, 524063.16, 0.0028690014, 10.003811, 9.999266 
1.7549089e+3, 1.2467894e+2, -2143295.0, -1944675.4, 150860.47, 0.0285778, 0.4263175, -1863371.4, -145189.13, 0.07366958, 9.997099, 9.999799 
1.7549272e+3, 1.3468091e+2, -1834108.3, -1626828.6, 52389.305, 0.03706018, 0.51896006, -1614339.9, 5827.3164, 0.048192136, 9.998099, 10.000818 
1.7549428e+3, 1.4468074e+2, -1679738.8, -1615587.4, 23984.113, -0.19344522, 0.46725926, -1607612.0, -85440.91, 0.024652572, 9.998937, 9.999826 
1.7549625e+3, 1.5468043e+2, -1623634.9, -1541333.8, 22850.201, 0.011562877, 0.42551312, -1535415.3, -111241.24, 0.008527423, 9.9986725, 9.999784 
1.7549802e+3, 1.6468018e+2, -1517944.4, -1440093.5, -18023.049, 0.033393383, 0.43462694, -1436123.5, -109946.64, 0.0014925194, 9.998722, 9.999798 
1.7549971e+3, 1.7468078e+2, -1298499.3, -1247217.9, -5207.7993, -0.04756867, 0.4632667, -1246694.4, -18522.926, 0.00006156021, 9.999429, 10.0000925 
1.755015e+3, 1.8468113e+2, -1173013.4, -1126009.9, -237.25462, -0.061938353, 0.49291244, -1126008.6, 4158.4116, 0.0000000010737394, 9.999556, 10.000186 
1.7550339e+3, 1.9468078e+2, -1169124.1, -1058720.6, -11663.312, -0.029060505, 0.39454725, -1057501.9, -25334.236, 0.0, 9.998857, 10.0003 
1.7550522e+3, 2.0468034e+2, -1095193.5, -1041244.9, -20798.09, -0.02474446, 0.35974175, -1034157.9, -99988.65, 0.0, 9.998969, 9.999711 
1.7550707e+3, 2.1468012e+2, -809881.9, -828561.94, 37694.17, -0.021406861, 0.31893522, -780387.8, 55781.016, 0.0, 10.00017, 9.999911 
1.7550887e+3, 2.246795e+2, -722569.94, -915357.0, 47726.195, -0.06527341, 0.35338178, -711401.9, 26772.578, 0.0, 10.0008545, 9.998329 
1.7551064e+3, 2.3467842e+2, -591452.06, -787833.2, 37263.625, -0.16675107, 0.37326697, -584619.0, 55568.344, 0.0, 10.001034, 9.998434 
1.7551248e+3, 2.4467699e+2, -496294.78, -667751.7, 15619.933, -0.18850332, 0.38657352, -494883.38, 47318.56, 0.0, 10.000926, 9.9986315 
1.7551441e+3, 2.5467527e+2, -404259.22, -547676.75, 49888.08, -0.08518348, 0.3020133, -388612.56, 55605.098, 0.0, 10.000795, 9.998836 
1.7551628e+3, 2.6467404e+2, -321006.28, -541433.8, 42743.71, -0.092409454, 0.33979133, -313007.97, 33221.555, 0.00000094846536, 10.001008, 9.998124 
1.7551796e+3, 2.7467358e+2, -100266.43, -359045.16, 40279.043, -0.25537938, 0.43194318, -94141.92, 154092.84, 0.000030605133, 10.001763, 9.998323 
1.755198e+3, 2.8467214e+2, 80758.734, -239941.92, 7274.627, -0.27745423, 0.46811944, 80923.664, 231170.86, 0.0002004244, 10.002398, 9.998179 
1.7552179e+3, 2.9466927e+2, 236884.9, -107098.49, 25912.256, -0.09201895, 0.30710778, 238825.92, 291096.44, 0.00069697236, 10.002778, 9.998228 
1.7552385e+3, 3.0466607e+2, 185018.27, -307366.75, 56959.73, 0.067157984, 0.27215025, 191521.55, 191521.55, 0.0016493177, 10.00295, 9.99645 
1.7552546e+3, 3.146641e+2, 359364.53, -7900.512, -15225.552, -0.3312783, 0.33444268, 359994.66, 359994.66, 0.0029977763, 10.003228, 9.998333 
1.7649035e+3, 1.246588e+2, -2410742.0, -2085420.9, 3685.388, -0.094616145, 0.34045815, -2085379.1, -367000.84, 0.07790593, 9.995295, 9.999694 
1.7649244e+3, 1.3466087e+2, -1896652.8, -1605293.6, -24593.24, 0.0034843388, 0.4009855, -1603232.3, 17130.58, 0.05123237, 9.997414, 10.001301 
1.7649418e+3, 1.4466293e+2, -1706727.8, -1596522.0, -69055.086, -0.16200013, 0.5287173, -1563279.4, -40935.16, 0.026445003, 9.99861, 10.000124 
1.7649622e+3, 1.5466197e+2, -1572430.0, -1493367.3, -59311.51, 0.12167558, 0.40323058, -1461620.4, -37268.7, 0.009296644, 9.998946, 9.99998 
1.7649803e+3, 1.6466136e+2, -1470979.9, -1408193.0, -18125.832, 0.14667267, 0.36559132, -1403336.0, -76979.125, 0.0016790463, 9.99902, 9.999856 
1.7649963e+3, 1.7466193e+2, -1374200.5, -1282264.9, -11656.297, -0.020078385, 0.38218653, -1280810.0, -52457.87, 0.000074904594, 9.998891, 10.000105 
1.7650144e+3, 1.8466245e+2, -1284232.8, -1215047.5, 26934.572, -0.04009541, 0.44139248, -1205798.1, -75450.13, 0.000000009428086, 9.998943, 9.999878 
1.7650338e+3, 1.9466262e+2, -1071777.4, -1041713.2, 12549.982, 0.051964045, 0.42845082, -1037163.0, -4816.0327, 0.0, 9.999664, 10.000035 
1.7650525e+3, 2.0466243e+2, -920128.9, -935140.7, 26733.38, 0.05553837, 0.42260286, -899867.7, 34479.68, 0.0, 10.000085, 9.999902 
1.7650709e+3, 2.1466205e+2, -796182.0, -801775.1, -12739.938, -0.024884459, 0.35222688, -785935.3, 50411.723, 0.0, 10.000182, 10.000091 
1.7650892e+3, 2.2466129e+2, -817485.1, -944030.7, -17953.822, -0.05708396, 0.3538085, -814987.2, -76633.89, 0.0, 10.000135, 9.998469 
1.765108e+3, 2.3466001e+2, -725960.56, -832606.0, -738.8385, -0.058566142, 0.34215692, -725955.44, -85588.086, 0.0, 10.000039, 9.998594 
1.7651266e+3, 2.4465859e+2, -516606.06, -674513.0, 37543.715, -0.081923835, 0.34385055, -508134.25, 34246.72, 0.0, 10.000737, 9.998694 
1.7651454e+3, 2.5465703e+2, -181626.08, -441075.13, 10953.949, -0.1199586, 0.2742341, -181164.44, 263229.1, 0.0, 10.00229, 9.998867 
1.7651641e+3, 2.6465574e+2, -47079.414, -441446.97, 870.6111, -0.1383637, 0.32131824, -47077.492, 299327.94, 0.0000007067664, 10.003049, 9.99782 
1.7651829e+3, 2.7465484e+2, 44219.957, -326898.63, -24816.041, -0.16984946, 0.40150154, 45872.008, 294288.2, 0.000029110019, 10.002928, 9.997982 
1.7652014e+3, 2.8465307e+2, 161240.5, -160430.69, -29530.291, -0.18320426, 0.40729025, 163929.0, 314360.88, 0.00020337792, 10.002784, 9.998545 
1.7652202e+3, 2.946503e+2, 256490.14, -63092.895, -47469.355, -0.12914251, 0.22940019, 263391.97, 315845.13, 0.00072556926, 10.002768, 9.998539 
1.7652406e+3, 3.0464777e+2, 218625.06, -283354.84, 81445.75, 0.0070217573, 0.2416241, 231508.89, 231508.89, 0.001728222, 10.003131, 9.996529 
1.7652592e+3, 3.1464493e+2, 414944.2, 17219.492, 706.0773, -0.20001027, 0.22725882, 414945.44, 414945.44, 0.0031358835, 10.003573, 9.998361 
1.7749e+3, 1.2463866e+2, -2207430.3, -1696013.6, -44393.71, -0.052036747, 0.50335056, -1692188.6, 26390.771, 0.08231803, 9.9953985, 10.002346 
1.7749207e+3, 1.346367e+2, -1829782.0, -1470184.1, 65093.91, -0.14858848, 0.043336805, -1458763.6, 161836.05, 0.054393712, 9.997393, 10.002295 
1.774941e+3, 1.4464343e+2, -1662432.0, -1516336.4, -72887.445, -0.15392809, 0.5710367, -1486192.4, 36340.15, 0.02831169, 9.998649, 10.000664 
1.7749612e+3, 1.5464263e+2, -1511609.4, -1368632.0, -34536.207, 0.08161838, 0.37960935, -1360726.8, 63809.902, 0.010105246, 9.998944, 10.000841 
1.7749794e+3, 1.6464226e+2, -1433465.4, -1342598.5, -35578.26, 0.12723856, 0.2939767, -1330325.6, -3787.3306, 0.0018804772, 9.999068, 10.000284 
1.7749964e+3, 1.7464206e+2, -1357900.9, -1242829.9, -7112.189, 0.059647135, 0.20393352, -1242391.9, -13851.583, 0.00008970714, 9.998872, 10.000383 
1.7750143e+3, 1.846428e+2, -1280354.5, -1219592.1, 37504.617, 0.018838182, 0.27768394, -1201707.3, -71172.66, 0.000000028818846, 9.998992, 9.999824 
1.7750332e+3, 1.946449e+2, -1080966.6, -1048516.1, 50467.7, -0.0031371631, 0.45828816, -1011729.56, 20787.98, 0.0, 9.999606, 10.000018 
1.775052e+3, 2.046452e+2, -994212.75, -1058060.0, 19582.066, -0.04424193, 0.53941655, -988685.4, -54169.2, 0.0, 9.999961, 9.999112 
1.7750706e+3, 2.1464334e+2, -885440.25, -940889.8, 1836.438, -0.08151114, 0.40088975, -885379.5, -48845.438, 0.0, 9.999992, 9.99922 
1.7750897e+3, 2.2464195e+2, -797375.94, -855166.0, -31387.984, -0.06343136, 0.35333318, -783608.0, -45061.69, 0.0, 9.999922, 9.999186 
1.775109e+3, 2.3464125e+2, -685352.0, -722623.75, 8735.749, 0.030655097, 0.31159043, -683406.1, -42855.105, 0.0, 9.999913, 9.999415 
1.775128e+3, 2.4464025e+2, -576912.5, -747098.0, 80004.93, -0.03687669, 0.33164084, -545208.1, -2649.5334, 0.0, 10.000518, 9.998298 
1.7751461e+3, 2.546391e+2, -240923.25, -519521.75, 82736.29, -0.28936496, 0.34505805, -218205.3, 226362.5, 0.0, 10.002107, 9.998412 
1.7751656e+3, 2.6463702e+2, -102990.16, -499726.28, -11691.838, -0.31607366, 0.3492751, -102645.9, 243940.72, 0.00000032366296, 10.002802, 9.9975395 
1.7751868e+3, 2.746339e+2, -16176.016, -382653.88, -12290.662, -0.083704375, 0.23623206, -15764.283, 232852.69, 0.00002512301, 10.00265, 9.997722 
1.7752053e+3, 2.8463155e+2, 133819.06, -154289.05, -50137.34, -0.10085189, 0.19280379, 142294.75, 292932.88, 0.00020098852, 10.002501, 9.998728 
1.7752208e+3, 2.946305e+2, 245802.36, -30623.803, -30124.445, -0.36832035, 0.14626993, 249047.19, 301692.4, 0.0007424846, 10.002532, 9.998875 
1.775242e+3, 3.046299e+2, 235822.9, -161641.66, 87023.53, -0.20258541, 0.28092182, 254041.34, 254041.34, 0.0017695109, 10.002772, 9.997532 
1.7752664e+3, 3.14628e+2, 385623.22, 128541.12, 54802.918, 0.10869766, 0.25824973, 396818.22, 396818.22, 0.003178642, 10.002896, 9.999421 
1.784896e+3, 1.2461902e+2, -2393824.8, -1710828.8, -27156.586, 0.09873064, 0.587477, -1709750.6, 9019.165, 0.08696164, 9.9938545, 10.002954 
1.7849182e+3, 1.34616e+2, -1868609.4, -1445463.5, 189275.7, -0.098287314, -0.02006274, -1373155.5, 247645.58, 0.057701517, 9.996987, 10.002671 
1.7849395e+3, 1.4462388e+2, -1685747.0, -1467786.3, -29719.65, -0.1326075, 0.5804645, -1463806.6, 58915.887, 0.030258754, 9.998244, 10.001191 
1.7849593e+3, 1.5462302e+2, -1580975.9, -1337787.8, -39260.773, 0.0535939, 0.32431406, -1331606.6, 93119.38, 0.0109521225, 9.998183, 10.001426 
1.7849778e+3, 1.6462308e+2, -1561371.4, -1402472.8, -43292.695, 0.12150623, 0.24822043, -1391443.0, -64719.79, 0.0020959692, 9.998176, 10.000306 
1.7849956e+3, 1.7462334e+2, -1408333.4, -1265028.1, -69499.8, 0.12518758, 0.20447595, -1236859.3, -8137.6133, 0.000105867584, 9.9985285, 10.000391 
1.785014e+3, 1.8462394e+2, -1280296.8, -1226934.6, 14615.749, 0.091038875, 0.26916096, -1223193.8, -92475.86, 0.0000000562377, 9.99903, 9.999759 
1.7850327e+3, 1.9462542e+2, -1030128.8, -1028313.94, 7217.584, -0.020375011, 0.3931981, -1021947.0, 10759.952, 0.0, 9.999965, 9.999986 
1.7850517e+3, 2.0462568e+2, -964663.6, -1055596.9, -15896.359, -0.06973436, 0.47590768, -961964.9, -27258.19, 0.0, 10.000203, 9.999022 
1.7850707e+3, 2.1462443e+2, -915544.6, -965746.7, -6092.409, -0.043068014, 0.4078498, -914815.9, -78095.97, 0.0, 9.99982, 9.999142 
1.7850903e+3, 2.2462328e+2, -741903.25, -820934.56, 24978.059, 0.0034988406, 0.38588497, -734670.7, 4059.372, 0.0, 10.000281, 9.999251 
1.7851102e+3, 2.346224e+2, -416925.0, -586501.4, -15600.68, 0.07168189, 0.32512903, -415501.72, 225233.5, 0.0, 10.001742, 9.999473 
1.7851296e+3, 2.4462119e+2, -307935.03, -648548.9, 52453.02, -0.008492709, 0.33755744, -300040.47, 242704.28, 0.0, 10.002523, 9.997994 
1.7851484e+3, 2.546197e+2, -195680.23, -534456.3, 34845.13, -0.27922595, 0.3473412, -192133.34, 252625.06, 0.0, 10.002597, 9.998062 
1.7851685e+3, 2.646174e+2, -152174.67, -501135.6, -60019.844, -0.2918787, 0.339218, -142140.05, 204638.72, 0.00000018370703, 10.002345, 9.997763 
1.7851894e+3, 2.7461407e+2, -129837.586, -426813.06, -51236.633, -0.039632156, 0.18772487, -121246.36, 127562.64, 0.000020759246, 10.001763, 9.997878 
1.7852078e+3, 2.8461173e+2, -6663.3228, -234107.33, -22830.629, -0.039137915, 0.14223711, -4394.241, 146436.16, 0.0001926232, 10.001611, 9.99859 
1.7852238e+3, 2.9461113e+2, 168572.36, -82711.984, -76945.086, -0.2961899, 0.15914306, 190261.45, 243097.03, 0.00073848217, 10.002078, 9.998723 
1.785245e+3, 3.046109e+2, 256198.83, -61636.008, 47312.484, -0.16272488, 0.30141562, 263092.22, 263092.22, 0.0017535051, 10.002533, 9.99833 
1.78527e+3, 3.1460887e+2, 381233.97, 151706.72, -88829.46, 0.21056859, 0.20808448, 411595.7, 411595.7, 0.0030962778, 10.002725, 9.999682 
1.7948903e+3, 1.2459738e+2, -2485660.3, -1935244.3, -313897.28, 0.066358335, 0.3024238, -1792994.5, -74020.766, 0.09190124, 9.993986, 10.001359 
1.7949167e+3, 1.3459899e+2, -1883915.6, -1495178.0, 305166.34, 0.02254751, 0.21104887, -1327737.9, 293226.9, 0.06119029, 9.997051, 10.002328 
1.794937e+3, 1.4460438e+2, -1657996.4, -1419325.0, -50406.16, -0.23912346, 0.5661146, -1409116.3, 113796.55, 0.03230053, 9.998284, 10.001514 
1.7949565e+3, 1.5460324e+2, -1568465.5, -1302299.6, -30413.377, -0.06312089, 0.25041527, -1298868.6, 126049.99, 0.011841973, 9.998152, 10.00168 
1.7949753e+3, 1.6460384e+2, -1575434.6, -1451348.6, -47223.758, 0.0072665694, 0.2365387, -1435421.0, -108509.43, 0.0023264778, 9.998249, 9.999942 
1.7949939e+3, 1.7460571e+2, -1427193.8, -1308420.3, -49326.42, 0.07826978, 0.38714, -1290606.8, -61709.64, 0.00012352158, 9.998537, 10.000096 
1.7950128e+3, 1.8460585e+2, -1278184.9, -1232361.0, 34275.74, 0.04967917, 0.41944122, -1214044.5, -83146.336, 0.000000085167756, 9.999074, 9.999699 
1.795032e+3, 1.9460423e+2, -1050145.5, -1051257.4, 49385.625, -0.1073042, 0.2429459, -1001312.6, 31602.322, 0.0, 9.9998865, 9.9998665 
1.7950512e+3, 2.04604e+2, -938994.25, -975929.06, -42796.207, -0.1499016, 0.25446433, -910850.9, 24066.783, 0.0, 10.000079, 9.999633 
1.7950709e+3, 2.1460539e+2, -886918.7, -880378.4, -10064.494, -0.019663014, 0.3866497, -873066.1, -36162.05, 0.0, 9.999694, 9.999797 
1.7950909e+3, 2.2460517e+2, -819563.6, -934125.44, 64651.195, 0.023933578, 0.45634198, -790468.1, -51562.734, 0.0, 10.000074, 9.998575 
1.7951111e+3, 2.3460332e+2, -499854.47, -708151.44, 51535.473, -0.030041933, 0.36818862, -487801.38, 153120.45, 0.0, 10.001528, 9.998737 
1.7951314e+3, 2.4460122e+2, -370541.78, -716294.06, 48472.99, -0.1137204, 0.3459123, -363874.63, 179066.67, 0.0, 10.002254, 9.997662 
1.795152e+3, 2.5459886e+2, -248407.69, -591710.4, 52694.47, -0.20465563, 0.30104706, -240501.55, 204462.81, 0.0, 10.00238, 9.997769 
1.795172e+3, 2.645968e+2, -145176.36, -428124.4, -91335.98, -0.20451857, 0.3000129, -118254.54, 228727.92, 0.00000013255313, 10.002093, 9.998386 
1.7951901e+3, 2.745952e+2, -109673.18, -329870.16, -60035.52, -0.14509206, 0.24692424, -94368.555, 154625.03, 0.0000188634, 10.001549, 9.998635 
1.7952088e+3, 2.845936e+2, -84166.48, -345471.7, -24316.053, -0.13063304, 0.26474178, -81922.98, 69084.87, 0.00018772867, 10.001385, 9.997943 
1.7952281e+3, 2.9459232e+2, 79944.12, -191025.02, -34355.63, -0.086069025, 0.28409192, 84232.14, 137254.67, 0.00073076796, 10.001764, 9.998123 
1.7952488e+3, 3.0459088e+2, 210711.27, -72834.24, 38527.555, -0.05917723, 0.32906407, 215853.06, 215853.06, 0.0017122222, 10.002155, 9.998446 
1.7952695e+3, 3.14588e+2, 309331.1, 115041.734, -15594.507, -0.1608825, 0.11782915, 310574.8, 310574.8, 0.0029518523, 10.00228, 9.999622 
1.8048863e+3, 1.2457673e+2, -2102997.5, -1905396.3, -429407.97, 0.11223539, 0.21221401, -1563569.1, 155605.4, 0.097200245, 9.997323, 10.000017 
1.8049154e+3, 1.3457973e+2, -1915961.5, -1470094.6, 305714.56, 0.22353014, 0.22663754, -1314662.3, 306490.0, 0.06490086, 9.996643, 10.002715 
1.8049347e+3, 1.4458503e+2, -1967374.5, -1568670.3, -10083.168, -0.17371966, 0.54945046, -1568415.4, -45313.81, 0.034457777, 9.996164, 10.001486 
1.8049549e+3, 1.5458418e+2, -1661929.8, -1345652.3, -35939.1, -0.010864289, 0.26444525, -1341619.9, 83485.234, 0.0127833225, 9.997504, 10.001686 
1.8049736e+3, 1.645847e+2, -1561386.1, -1471005.3, -29732.887, 0.020002095, 0.2529655, -1462101.1, -135001.55, 0.0025744103, 9.99847, 9.9997 
1.8049923e+3, 1.7458615e+2, -1341840.9, -1289609.4, -51378.313, 0.027990615, 0.3847448, -1258090.4, -29000.486, 0.00014305822, 9.999225, 9.999889 
1.8050118e+3, 1.845862e+2, -1211728.5, -1213169.3, 53388.727, 0.02190618, 0.4244572, -1159055.3, -27962.668, 0.00000010953618, 9.999577, 9.999589 
1.8050322e+3, 1.9458492e+2, -1085850.8, -1077701.5, 44555.934, -0.057803396, 0.2911293, -1037034.25, -3927.31, 0.0, 9.99969, 9.999773 
1.805052e+3, 2.0458475e+2, -916506.5, -958987.4, -46348.348, -0.080520675, 0.31184268, -886763.3, 48345.56, 0.0, 10.000209, 9.999693 
1.8050714e+3, 2.145859e+2, -652808.94, -755182.5, -80025.32, -0.013002967, 0.41301978, -609000.25, 228096.11, 0.0, 10.001262, 9.999896 
1.8050916e+3, 2.2458535e+2, -618292.0, -873917.94, 10268.836, 0.02079526, 0.4608166, -617880.2, 121220.56, 0.0, 10.001637, 9.99822 
1.8051127e+3, 2.3458296e+2, -554737.6, -779918.44, -1860.4805, -0.005512106, 0.36148018, -554722.25, 86401.58, 0.0, 10.001355, 9.998318 
1.8051337e+3, 2.4458085e+2, -483559.47, -725590.5, 36766.13, -0.048502427, 0.33949718, -478097.72, 65045.95, 0.0, 10.001261, 9.9980955 
1.8051547e+3, 2.5457907e+2, -371121.0, -606018.0, 69548.11, -0.10351561, 0.31238714, -352073.75, 93086.35, 0.0, 10.001313, 9.998212 
1.8051745e+3, 2.6457736e+2, -181937.97, -445898.97, -36675.688, -0.116091505, 0.32438496, -176936.88, 170237.72, 0.00000007008213, 10.001848, 9.998378 
1.8051925e+3, 2.745758e+2, 98276.35, -243195.63, -91410.445, -0.14002754, 0.2873417, 121206.695, 370392.7, 0.000018211349, 10.003024, 9.99853 
1.8052115e+3, 2.8457397e+2, 173609.36, -243752.38, -62288.293, -0.087374896, 0.29993445, 182707.14, 333909.5, 0.00018396281, 10.00325, 9.99774 
1.8052322e+3, 2.9457197e+2, 184495.55, -169512.88, -79678.78, 0.10828056, 0.27588594, 201602.64, 254825.53, 0.00071764825, 10.00259, 9.997882 
1.8052524e+3, 3.045698e+2, 333463.66, -36109.324, 74256.836, 0.0725741, 0.26980868, 347825.66, 347825.66, 0.0016601158, 10.003119, 9.998222 
1.8052724e+3, 3.1456837e+2, 626948.06, 182434.3, -62433.426, -0.22069356, 0.2463044, 635550.56, 635550.56, 0.0028130368, 10.004739, 9.998956 
1.8148819e+3, 1.2455752e+2, -2173214.3, -2077660.3, -371881.3, -0.13403006, 0.38050312, -1750499.5, -31131.182, 0.10291468, 9.997413, 9.998727 
1.8149137e+3, 1.34558e+2, -1831994.6, -1299800.8, 254063.28, 0.36407772, 0.02254208, -1197990.5, 423374.97, 0.06887483, 9.996622, 10.003961 
1.8149325e+3, 1.4456564e+2, -1968715.1, -1586370.8, 11593.027, -0.058162156, 0.5196666, -1586019.6, -62729.406, 0.036753505, 9.996215, 10.001348 
1.8149537e+3, 1.5456577e+2, -1671152.5, -1374248.4, 26008.678, 0.10084464, 0.35537243, -1371987.3, 53299.145, 0.01378539, 9.997533, 10.001482 
1.8149725e+3, 1.6456568e+2, -1559697.5, -1484740.1, -15069.73, 0.013764231, 0.29876998, -1481824.0, -154536.89, 0.002842686, 9.998541, 9.99957 
1.8149902e+3, 1.745647e+2, -1357686.6, -1324189.1, -12853.119, -0.11807062, 0.20314103, -1319825.8, -90525.84, 0.00016504708, 9.999221, 9.999657 
1.8150103e+3, 1.8456508e+2, -1215198.3, -1227648.3, 44282.74, -0.104927644, 0.29359907, -1176705.1, -45404.6, 0.00000012908751, 9.999602, 9.99948 
1.815033e+3, 1.9456744e+2, -1095052.0, -1090674.9, 58000.24, 0.023889929, 0.5341523, -1034821.94, -1538.4946, 0.0, 9.999656, 9.999704 
1.8150534e+3, 2.0456783e+2, -970083.44, -1041507.44, -18974.414, 0.014966334, 0.6376286, -965355.7, -30074.3, 0.0, 10.00009, 9.999181 
1.8150719e+3, 2.1456584e+2, -716490.25, -847558.7, -29311.744, -0.11313701, 0.4757825, -710233.75, 127064.0, 0.0, 10.001088, 9.999345 
1.815092e+3, 2.245637e+2, -664842.9, -911832.1, -9500.771, -0.11588751, 0.398256, -664478.0, 74839.22, 0.0, 10.001382, 9.998084 
1.8151146e+3, 2.3456144e+2, -591655.7, -812777.6, 1756.301, 0.03153521, 0.32428503, -591641.75, 49698.26, 0.0, 10.001164, 9.998184 
1.815136e+3, 2.445601e+2, -447026.03, -595915.9, 28237.41, 0.044481352, 0.33925742, -441850.63, 101501.12, 0.0, 10.00103, 9.999093 
1.8151565e+3, 2.5456002e+2, -316340.47, -449283.1, 84616.67, -0.077771604, 0.36652216, -275208.72, 170139.55, 0.0, 10.001133, 9.999368 
1.8151765e+3, 2.6455876e+2, -271733.63, -576594.25, -4886.693, -0.14297502, 0.39958677, -271655.34, 75702.69, 0.0000000874347, 10.001602, 9.997601 
1.8151955e+3, 2.7455604e+2, -327.59854, -385157.47, -27267.162, -0.14770551, 0.3216724, 1594.8159, 250979.47, 0.00001648955, 10.002768, 9.997668 
1.815215e+3, 2.8455317e+2, 132412.08, -272708.13, -96532.48, -0.073145196, 0.28238764, 154238.06, 305648.72, 0.00017264257, 10.002994, 9.997667 
1.8152353e+3, 2.945503e+2, 169470.86, -166176.75, -80929.95, 0.141181, 0.15940662, 187965.3, 241399.64, 0.0006828003, 10.002437, 9.997975 
1.8152557e+3, 3.0454785e+2, 225336.86, -192783.61, 114293.59, 0.055077113, 0.15879604, 254539.52, 254539.52, 0.0015894915, 10.002839, 9.997277 
1.8152758e+3, 3.1454766e+2, 463260.63, 50018.957, 82728.12, -0.3834482, 0.3496475, 479206.9, 479206.9, 0.0027059666, 10.003929, 9.998388 
1.8248796e+3, 1.2453812e+2, -2149067.3, -2216689.3, -215413.42, -0.124149784, 0.5200419, -1964827.6, -245265.78, 0.10907774, 9.998224, 9.997369 
1.8249099e+3, 1.3453697e+2, -1770996.1, -1257039.9, 122849.164, 0.3116848, -0.017073669, -1229185.3, 392388.78, 0.07313931, 9.996911, 10.00414 
1.8249303e+3, 1.4454564e+2, -1904093.1, -1557019.8, -34908.457, 0.081776485, 0.5706941, -1553543.5, -30054.975, 0.039204508, 9.996698, 10.001303 
1.8249515e+3, 1.545454e+2, -1630610.5, -1382649.1, -48059.727, 0.1171895, 0.39033008, -1373660.1, 51829.72, 0.014855209, 9.997946, 10.001222 
1.8249704e+3, 1.6454513e+2, -1539492.5, -1456433.5, -87210.77, -0.03692371, 0.3250256, -1401368.9, -73876.15, 0.0031336718, 9.998597, 9.999734 
1.8249893e+3, 1.7454469e+2, -1397916.8, -1315141.5, -80551.586, -0.11025018, 0.26293725, -1265967.0, -36467.824, 0.00019006866, 9.998837, 9.999897 
1.8250102e+3, 1.8454525e+2, -1269916.4, -1258217.0, 16887.166, -0.05248874, 0.36097762, -1246195.1, -114697.52, 0.00000015151502, 9.99925, 9.999438 
1.8250328e+3, 1.9454722e+2, -1042360.3, -1070317.6, 7140.5664, 0.03660206, 0.5706404, -1040642.1, -7158.3604, 0.0, 10.000062, 9.999644 
1.8250537e+3, 2.0454738e+2, -909892.4, -1012060.5, -27467.238, 0.02697535, 0.6537391, -902976.2, 32507.703, 0.0, 10.000508, 9.9991665 
1.825073e+3, 2.1454528e+2, -787226.5, -880386.0, -20960.38, -0.07011078, 0.48167843, -782727.8, 54773.508, 0.0, 10.000608, 9.999336 
1.8250938e+3, 2.2454341e+2, -711839.9, -915899.3, 43371.055, -0.05895875, 0.42070946, -703004.3, 36514.184, 0.0, 10.000941, 9.998284 
1.8251161e+3, 2.3454188e+2, -518186.25, -749098.9, 56299.773, 0.054284383, 0.3956627, -505190.9, 136343.83, 0.0, 10.001534, 9.99845 
1.8251376e+3, 2.4454078e+2, -310973.1, -524912.0, 86099.05, 0.058057226, 0.41772735, -280627.2, 262917.3, 0.0, 10.001947, 9.999129 
1.8251581e+3, 2.545403e+2, -167321.86, -374739.0, 37413.566, -0.06415019, 0.4008553, -160779.61, 284766.0, 0.0, 10.002148, 9.999379 
1.8251787e+3, 2.645391e+2, -141612.27, -475689.56, -16875.262, -0.09879749, 0.42244977, -140762.02, 206792.69, 0.00000011582431, 10.002345, 9.99793 
1.8251991e+3, 2.7453697e+2, -318.9218, -353667.22, 5613.3564, -0.05137296, 0.38082996, -229.76949, 249344.8, 0.000015405387, 10.0026245, 9.99796 
1.8252191e+3, 2.8453398e+2, 170829.6, -315221.06, -8818.021, 0.01614007, 0.34099776, 170989.53, 322590.6, 0.00016033727, 10.003527, 9.99712 
1.8252386e+3, 2.9453018e+2, 515871.72, -78245.75, -77909.1, 0.098223604, 0.19516894, 525918.4, 579551.75, 0.00063978235, 10.005144, 9.997288 
1.8252592e+3, 3.0452707e+2, 481726.94, -130803.875, 95684.734, 0.020471608, 0.1908496, 496326.1, 496326.1, 0.0015186591, 10.004857, 9.996733 
1.8252803e+3, 3.1452665e+2, 246961.2, -109729.64, 40122.625, -0.23862086, 0.42334184, 251418.73, 251418.73, 0.00264486, 10.002583, 9.997992 
1.834881e+3, 1.2451806e+2, -2231071.5, -2413066.5, -132426.56, 0.12029199, 0.5567038, -2161391.3, -441631.44, 0.11569034, 9.998314, 9.995992 
1.8349035e+3, 1.3451678e+2, -1821777.8, -1363938.9, 90212.586, -0.050774474, 0.11309836, -1346804.6, 274971.66, 0.07769921, 9.996942, 10.003339 
1.8349274e+3, 1.4452529e+2, -1901283.4, -1569603.6, -7480.6157, 0.07891335, 0.7186265, -1569435.0, -45740.766, 0.04181763, 9.996772, 10.001182 
1.8349479e+3, 1.5452304e+2, -1655430.9, -1439383.6, 8858.179, -0.0826409, 0.3735059, -1439021.0, -13305.1875, 0.015997248, 9.997962, 10.000821 
1.8349673e+3, 1.6452304e+2, -1492054.5, -1377011.1, -94611.19, -0.2504171, 0.33332404, -1323807.9, 3908.7134, 0.0034491862, 9.998673, 10.000246 
1.834989e+3, 1.7452595e+2, -1348270.8, -1222752.5, -64406.133, -0.04599163, 0.5462375, -1195584.6, 34105.24, 0.00021871291, 9.998867, 10.000523 
1.8350108e+3, 1.8452647e+2, -1272226.0, -1262528.8, 32381.354, 0.041082803, 0.6090553, -1234635.0, -102949.13, 0.00000018976193, 9.999258, 9.9994 
1.8350315e+3, 1.9452415e+2, -1062981.9, -1096887.4, 47163.758, -0.12144847, 0.40019184, -1029816.56, 3892.3918, 0.0, 9.999992, 9.999495 
1.8350527e+3, 2.0452327e+2, -891054.94, -944244.7, -35156.063, -0.16409998, 0.36089575, -873567.7, 62149.86, 0.0, 10.000384, 9.999692 
1.8350744e+3, 2.1452416e+2, -772598.4, -811007.0, -9927.944, 0.001931331, 0.43392348, -770184.0, 67523.81, 0.0, 10.000441, 9.999893 
1.835096e+3, 2.2452442e+2, -709744.4, -852343.75, 54228.75, 0.05681648, 0.53256917, -691465.06, 48240.24, 0.0, 10.000687, 9.998846 
1.8351169e+3, 2.3452401e+2, -506697.2, -676796.2, 90991.27, -0.029136961, 0.5597066, -467196.2, 174514.61, 0.0, 10.001328, 9.999049 
1.835138e+3, 2.4452263e+2, -410908.63, -670925.94, 82999.164, -0.112245694, 0.5632117, -386673.63, 157051.4, 0.0, 10.00168, 9.99826 
1.8351594e+3, 2.5452003e+2, -272945.94, -536846.2, 61260.797, -0.166937, 0.43740138, -259418.52, 186331.67, 0.0, 10.00191, 9.998381 
1.835181e+3, 2.645186e+2, -102289.25, -341613.47, -16696.367, -0.1290623, 0.43766454, -101130.05, 246631.69, 0.000000090536304, 10.0021105, 9.998966 
1.8352027e+3, 2.7451846e+2, 62564.734, -184445.17, 34097.984, 0.021868685, 0.47105396, 67185.29, 316942.75, 0.00001528185, 10.002458, 9.999201 
1.8352231e+3, 2.8451607e+2, 60713.117, -493595.75, 29091.352, 0.026566548, 0.47405565, 62235.715, 214012.98, 0.00015301339, 10.0033045, 9.996004 
1.8352418e+3, 2.945113e+2, 384817.63, -277113.66, 2944.7864, -0.14467162, 0.3531896, 384830.72, 438653.4, 0.0006073144, 10.004841, 9.996058 
1.835262e+3, 3.0450752e+2, 374383.28, -256920.95, -1223.2885, -0.19821596, 0.38551235, 374385.66, 374385.66, 0.0014668707, 10.004446, 9.996061 
1.8352835e+3, 3.1450582e+2, 141996.5, -213007.4, 60911.273, -0.22375718, 0.52639806, 152156.81, 152156.81, 0.0026202034, 10.002119, 9.997488 
1.8448813e+3, 1.2449709e+2, -2149960.5, -2265387.8, -70329.695, 0.3309522, 0.57938766, -2116695.5, -396727.3, 0.12272786, 9.99841, 9.996968 
1.8448992e+3, 1.3449536e+2, -1784315.4, -1406754.0, 19792.656, -0.1814679, 0.15749572, -1405719.3, 216268.48, 0.08254445, 9.997517, 10.002736 
1.8449242e+3, 1.4450309e+2, -1864958.8, -1582282.1, -1231.4135, 0.08060448, 0.73098797, -1582276.8, -58363.53, 0.04459436, 9.997132, 10.000932 
1.8449463e+3, 1.5450084e+2, -1762907.6, -1512988.9, -1151.9995, 0.013405707, 0.40605676, -1512983.6, -87047.43, 0.017215712, 9.997322, 10.000626 
1.8449669e+3, 1.6450113e+2, -1605513.3, -1403614.4, -79289.56, -0.11122815, 0.3938941, -1376198.6, -48263.87, 0.0037916328, 9.997803, 10.000479 
1.8449879e+3, 1.745043e+2, -1310220.0, -1176314.5, -102446.87, -0.041347913, 0.61066806, -1120882.5, 109023.35, 0.00025177147, 9.999032, 10.000759 
1.8450096e+3, 1.8450478e+2, -1187179.5, -1193977.1, 2348.3289, -0.012050201, 0.6434714, -1186447.1, -54545.91, 0.00000025167606, 9.999709, 9.999656 
1.8450312e+3, 1.9450215e+2, -1053271.8, -1060876.9, 22583.178, -0.1303352, 0.37608927, -1034173.2, -248.80438, 0.0, 9.99991, 9.999778 
1.8450531e+3, 2.0450133e+2, -964517.5, -979288.5, -60312.53, -0.11241416, 0.3282597, -911140.0, 24791.813, 0.0, 9.999875, 9.999705 
1.8450755e+3, 2.1450275e+2, -873080.94, -858076.4, -99311.82, 0.09817496, 0.45571223, -765983.9, 71935.47, 0.0, 9.999756, 9.999905 
1.8450971e+3, 2.2450337e+2, -788522.44, -847163.5, -12729.111, 0.14923991, 0.5723601, -785878.56, -45964.484, 0.0, 9.999988, 9.9992 
1.845118e+3, 2.3450296e+2, -568651.9, -666675.25, -16310.616, -0.026706273, 0.5640296, -566009.1, 75909.1, 0.0, 10.000738, 9.999388 
1.8451393e+3, 2.4450174e+2, -475825.06, -681548.9, 4278.751, -0.112563744, 0.5551156, -475736.13, 68194.22, 0.0, 10.001154, 9.998431 
1.8451615e+3, 2.544996e+2, -364327.06, -565378.25, 33946.027, -0.09894838, 0.46316227, -358750.22, 87201.195, 0.0, 10.001203, 9.998527 
1.8451838e+3, 2.6449826e+2, -155867.81, -373594.22, 16384.127, -0.037296228, 0.46792713, -154641.8, 193320.72, 0.00000009817215, 10.001782, 9.998899 
1.8452059e+3, 2.744978e+2, 147856.11, -154300.83, -48836.348, 0.059193235, 0.4788725, 155553.23, 405515.34, 0.000013983738, 10.003103, 9.999089 
1.8452267e+3, 2.8449523e+2, 164925.86, -452667.34, -39858.18, 0.035978332, 0.47755638, 167487.6, 319471.8, 0.00014297603, 10.004074, 9.995916 
1.8452463e+3, 2.9449075e+2, 346330.94, -299915.72, -38067.656, -0.14326058, 0.39897636, 348565.6, 402593.16, 0.00057426473, 10.004599, 9.996029 
1.8452674e+3, 3.0448702e+2, 399835.38, -270411.56, -17858.67, -0.10100609, 0.44578508, 400310.88, 400310.88, 0.0014116705, 10.004723, 9.995849 
1.8452871e+3, 3.1448263e+2, 492679.78, -76152.086, 14980.146, -0.19005668, 0.35658586, 493074.0, 493074.0, 0.0025729528, 10.004655, 9.997213 
1.8548794e+3, 1.2447527e+2, -1878764.9, -1751094.4, -65779.66, 0.2302378, 0.5769807, -1723267.8, -3081.1638, 0.13014582, 9.998581, 10.000429 
1.8548971e+3, 1.344727e+2, -1819818.8, -1483125.6, 1263.5923, -0.16879551, 0.09735876, -1483120.9, 139087.64, 0.08765755, 9.997536, 10.00217 
1.8549204e+3, 1.4447896e+2, -1880799.1, -1627498.9, -8525.3125, -0.050010987, 0.5818521, -1627212.3, -103065.875, 0.04753598, 9.997186, 10.0006 
1.8549468e+3, 1.5447873e+2, -1760991.5, -1519953.6, 15396.684, 0.29493475, 0.4735381, -1518974.1, -92823.016, 0.01851746, 9.997363, 10.000563 
1.8549684e+3, 1.6447936e+2, -1602175.0, -1411591.6, -52566.47, 0.24044684, 0.49703228, -1398054.4, -69906.484, 0.0041650403, 9.997867, 10.000393 
1.8549857e+3, 1.7447965e+2, -1325580.1, -1208077.9, -45478.156, -0.19833952, 0.44560593, -1192532.6, 37615.234, 0.00029041685, 9.999025, 10.000546 
1.8550065e+3, 1.8448003e+2, -1142070.1, -1104004.0, -2677.505, -0.33398345, 0.45203984, -1103816.6, 28327.93, 0.0000003514084, 9.999728, 10.000265 
1.8550317e+3, 1.9448113e+2, -1017525.8, -968743.44, 36696.008, -0.10135842, 0.4928145, -949071.9, 85058.8, 0.0, 9.999831, 10.000451 
1.855055e+3, 2.0448154e+2, -1021532.06, -1062696.9, -76906.945, 0.052996743, 0.55801773, -962500.94, -26374.059, 0.0, 9.999727, 9.999203 
1.8550757e+3, 2.1448101e+2, -937287.9, -952330.1, -92740.414, 0.13148542, 0.5472274, -851764.1, -13628.109, 0.0, 9.99959, 9.999336 
1.855097e+3, 2.2448015e+2, -807034.94, -839445.94, 4171.559, 0.103234135, 0.5354322, -806506.6, -66361.07, 0.0, 9.999781, 9.999359 
1.8551186e+3, 2.3447885e+2, -586196.56, -659770.25, 26307.793, -0.050388414, 0.42330337, -577757.6, 64397.953, 0.0, 10.000548, 9.999532 
1.8551409e+3, 2.4447834e+2, -438957.63, -544288.2, -3917.6243, -0.08655513, 0.43065456, -438812.13, 105346.02, 0.0, 10.000895, 9.999497 
1.8551643e+3, 2.5447896e+2, -310633.22, -404879.9, 47041.234, 0.035959877, 0.49116978, -291172.13, 154978.17, 0.0, 10.001003, 9.999719 
1.8551868e+3, 2.6447806e+2, -268924.1, -552553.4, 48392.27, 0.06045014, 0.5296157, -260894.8, 87263.3, 0.00000008466028, 10.001547, 9.997784 
1.8552081e+3, 2.7447507e+2, 19318.033, -358705.06, 20623.922, -0.038167443, 0.4162215, 20439.889, 270627.25, 0.000011476472, 10.002848, 9.997805 
1.8552299e+3, 2.844717e+2, 158177.88, -394618.0, -34609.664, -0.09182064, 0.3754796, 160336.3, 312555.78, 0.00012753508, 10.003757, 9.996472 
1.855252e+3, 2.9446858e+2, 366528.94, -193334.0, -231.39655, -0.054657236, 0.35661277, 366529.03, 420776.5, 0.00053210376, 10.004324, 9.996893 
1.8552746e+3, 3.044655e+2, 344692.9, -298113.06, -44650.375, 0.10144832, 0.41705287, 347779.56, 347779.56, 0.0013358389, 10.004355, 9.9958315 
1.8552916e+3, 3.144589e+2, 385172.2, -138130.28, 65842.51, -0.2559133, 0.12464802, 393329.4, 393329.4, 0.002465406, 10.004, 9.997087 
1.864877e+3, 1.2445335e+2, -2154436.3, -1614673.8, 81045.49, 0.29507813, 0.55415523, -1602767.4, 117632.08, 0.1378835, 9.995502, 10.002941 
1.8648952e+3, 1.3445054e+2, -2020237.9, -1715320.6, -59072.51, -0.05742288, 0.15745813, -1704276.4, -81851.07, 0.09301642, 9.996828, 10.000804 
1.8649176e+3, 1.4445491e+2, -1826502.0, -1578408.6, -33704.527, -0.049805213, 0.51841855, -1573911.3, -49529.098, 0.050644647, 9.997472, 10.000791 
1.8649445e+3, 1.5445529e+2, -1589508.9, -1398002.9, -2531.8667, 0.29956207, 0.43357584, -1397969.4, 28409.648, 0.01991141, 9.998371, 10.000916 
1.8649672e+3, 1.6445607e+2, -1512883.5, -1396454.0, -38343.043, 0.29777566, 0.4672462, -1384961.1, -56587.035, 0.0045744055, 9.998587, 10.000147 
1.8649846e+3, 1.744563e+2, -1472589.6, -1303663.8, -61550.746, -0.14129326, 0.43158847, -1283616.0, -53238.758, 0.0003360051, 9.998129, 10.000309 
1.8650058e+3, 1.84457e+2, -1351154.4, -1135067.8, 4093.4688, -0.2702004, 0.45290813, -1134990.3, -2619.0984, 0.00000050835786, 9.997997, 10.000884 
1.8650314e+3, 1.9445886e+2, -1154794.0, -960212.94, 22412.424, -0.03436668, 0.49926218, -957664.75, 76683.46, 0.0, 9.998567, 10.001124 
1.865055e+3, 2.0445955e+2, -1070849.8, -1097208.8, -40620.8, 0.10803495, 0.56072795, -1041323.9, -104982.86, 0.0, 9.999438, 9.999104 
1.8650755e+3, 2.1445867e+2, -765942.8, -888159.94, -48806.68, 0.10936321, 0.528687, -748844.25, 89510.4, 0.0, 10.0008335, 9.99918 
1.8650971e+3, 2.2445758e+2, -586571.94, -723377.44, 59852.83, 0.08260878, 0.49886867, -564083.0, 176283.53, 0.0, 10.001251, 9.999457 
1.8651196e+3, 2.3445638e+2, -578826.0, -645157.94, 50390.207, 0.003752146, 0.38842323, -551666.56, 90708.35, 0.0, 10.00055, 9.999643 
1.8651424e+3, 2.4445596e+2, -465700.7, -540261.94, 29364.129, -0.00760583, 0.39321035, -455525.06, 88850.79, 0.0, 10.000632, 9.999654 
1.8651657e+3, 2.5445664e+2, -199457.56, -336721.0, -14369.447, 0.04998535, 0.44530565, -197969.44, 248397.5, 0.0, 10.001705, 9.999849 
1.8651888e+3, 2.644557e+2, -162476.44, -532966.44, 7236.543, 0.08390843, 0.4919703, -162335.16, 186040.52, 0.000000065173005, 10.002405, 9.99751 
1.8652117e+3, 2.7445287e+2, -26342.178, -415179.6, 13324.839, 0.05944301, 0.42110658, -25886.092, 224520.69, 0.000009433609, 10.002669, 9.997511 
1.8652341e+3, 2.8444985e+2, 103512.43, -367535.78, 24204.129, 0.005532111, 0.41196012, 104752.86, 257189.78, 0.00011541226, 10.003155, 9.996936 
1.8652558e+3, 2.944473e+2, 363482.13, -141709.47, 1664.4178, -0.069656946, 0.39963913, 363487.63, 417948.38, 0.00049646525, 10.00407, 9.997357 
1.8652797e+3, 3.044449e+2, 437668.38, -204079.22, -32004.055, 0.17970483, 0.4832682, 439260.47, 439260.47, 0.0012596898, 10.004763, 9.996273 
1.8652965e+3, 3.1443903e+2, 545275.44, -41266.887, 18015.861, -0.186491, 0.21787429, 545828.3, 545828.3, 0.002323404, 10.004957, 9.997295 
1.8748721e+3, 1.2443019e+2, -2064938.4, -1464970.5, 197924.03, 0.18806884, 0.3465345, -1405560.1, 315057.7, 0.14588223, 9.995546, 10.00417 
1.8748935e+3, 1.3442887e+2, -2179302.3, -2050757.4, -16624.82, 0.037957072, 0.32599604, -2048642.1, -426003.75, 0.0986057, 9.996841, 9.998503 
1.8749152e+3, 1.4443095e+2, -1758127.6, -1466360.0, -18292.299, -0.066362455, 0.54052097, -1465217.6, 59402.79, 0.053927336, 9.997575, 10.001535 
1.8749394e+3, 1.5443042e+2, -1526100.9, -1279128.6, 43589.688, -0.088472, 0.28106722, -1271661.0, 154959.58, 0.021407956, 9.998403, 10.0017395 
1.8749624e+3, 1.644313e+2, -1522538.8, -1432340.5, -65167.086, -0.07481662, 0.29524803, -1398188.9, -69575.51, 0.0050250688, 9.998653, 9.999871 
1.8749847e+3, 1.7443424e+2, -1494470.4, -1351385.8, -69265.97, 0.012709566, 0.56646425, -1323348.6, -92754.67, 0.00038988978, 9.998127, 9.99999 
1.8750072e+3, 1.8443562e+2, -1300106.0, -1034792.6, 6822.55, 0.029762017, 0.6399228, -1034617.25, 97964.92, 0.000000733184, 9.998025, 10.001561 
1.8750302e+3, 1.944353e+2, -1117296.0, -861653.0, 52297.977, -0.03327373, 0.3991908, -851367.94, 183209.33, 0.0, 9.998485, 10.00184 
1.8750529e+3, 2.0443527e+2, -1060741.8, -1058535.3, -6509.7183, -0.07328083, 0.3368811, -1053036.0, -116461.03, 0.0, 9.9993515, 9.999415 
1.8750748e+3, 2.1443571e+2, -773894.7, -865422.8, 13322.363, -0.07660716, 0.40943456, -771994.94, 66580.26, 0.0, 10.000659, 9.999423 
1.8750973e+3, 2.2443572e+2, -624956.4, -748833.25, 24476.572, -0.05201091, 0.4791008, -620295.5, 120281.35, 0.0, 10.001009, 9.999401 
1.8751206e+3, 2.344353e+2, -609394.6, -661981.8, 34481.55, 0.025696464, 0.45011562, -592325.44, 50253.082, 0.0, 10.000351, 9.9996195 
1.8751433e+3, 2.4443431e+2, -550719.06, -665509.2, 54644.227, -0.0037152963, 0.4317305, -528866.5, 15719.822, 0.0, 10.000403, 9.99891 
1.8751654e+3, 2.5443262e+2, -284199.4, -465667.44, 41789.684, -0.15816891, 0.3277659, -275038.28, 171562.95, 0.0, 10.001505, 9.999061 
1.8751897e+3, 2.6443142e+2, -166657.77, -492258.38, 7470.2393, -0.09393518, 0.36557972, -166486.45, 182127.48, 0.00000004605578, 10.002178, 9.997907 
1.8752162e+3, 2.7443102e+2, -19421.271, -353943.25, 38785.207, 0.2178136, 0.49553043, -14983.308, 235638.06, 0.000008319171, 10.00246, 9.998037 
1.875239e+3, 2.844296e+2, 85215.24, -344725.25, 41681.645, 0.14820796, 0.5959897, 89218.89, 241857.4, 0.00010877432, 10.002889, 9.997226 
1.875258e+3, 2.9442668e+2, 321073.66, -145470.34, 62775.75, -0.29791707, 0.5268419, 329372.8, 384042.25, 0.00047256332, 10.003715, 9.997504 
1.8752825e+3, 3.0442488e+2, 437251.8, -100193.22, -39764.492, -0.037394553, 0.6257334, 440177.97, 440177.97, 0.0011932392, 10.004331, 9.997189 
1.8753034e+3, 3.1442183e+2, 496468.5, 14200.283, 24289.549, -0.0632565, 0.5417657, 497688.78, 497688.78, 0.0021771283, 10.004332, 9.997961 
1.8848678e+3, 1.2440597e+2, -1831880.6, -1315859.6, 54757.35, 0.16258192, 0.22207837, -1310113.0, 410741.9, 0.15411249, 9.996803, 10.004775 
1.8848906e+3, 1.3440698e+2, -2181991.0, -2105806.0, 15291.517, 0.0756614, 0.45863843, -2102851.3, -479995.9, 0.10442951, 9.997034, 9.998039 
1.8849126e+3, 1.4440762e+2, -1766589.9, -1486318.9, 58092.46, -0.0875292, 0.5648822, -1474755.0, 50098.094, 0.057399224, 9.9976225, 10.001354 
1.8849365e+3, 1.5440728e+2, -1612569.8, -1306798.9, 31505.428, -0.17358533, 0.32165772, -1303586.4, 123264.08, 0.023018045, 9.9978075, 10.001805 
1.8849601e+3, 1.6440827e+2, -1579226.4, -1403799.5, -70427.82, -0.13058789, 0.3190499, -1379024.1, -50184.176, 0.005521801, 9.998015, 10.000377 
1.8849835e+3, 1.7441128e+2, -1385792.1, -1240393.0, -31223.625, 0.08025173, 0.54167235, -1233971.5, -3155.4368, 0.0004532519, 9.998607, 10.00053 
1.8850066e+3, 1.8441269e+2, -1212624.3, -1031492.56, 77311.0, 0.1404085, 0.6057803, -1002982.1, 129821.2, 0.0000010252129, 9.998796, 10.0012045 
1.8850291e+3, 1.9441208e+2, -1092769.3, -894565.5, 23188.535, -0.0110467095, 0.37357545, -891888.75, 142915.7, 0.0, 9.998843, 10.001434 
1.8850519e+3, 2.0441216e+2, -1057433.0, -1013275.3, -26789.264, -0.08936186, 0.32407033, -1000639.06, -63837.07, 0.0, 9.999193, 9.999797 
1.885075e+3, 2.144132e+2, -817258.44, -835131.75, -19794.238, -0.08716289, 0.4147552, -804477.0, 34317.203, 0.0, 10.000144, 9.999874 
1.8850982e+3, 2.244135e+2, -684810.2, -797203.7, -33055.01, -0.034967307, 0.49888116, -675809.44, 64983.1, 0.0, 10.000697, 9.999206 
1.8851212e+3, 2.3441285e+2, -549967.2, -662865.0, -61148.523, 0.05099239, 0.4725681, -523195.78, 119603.02, 0.0, 10.000885, 9.999354 
1.8851444e+3, 2.4441168e+2, -431486.6, -609382.2, 36186.273, 0.03570463, 0.45317852, -424407.53, 120401.65, 0.0, 10.001252, 9.998877 
1.8851675e+3, 2.544099e+2, -226532.3, -446126.44, 44879.285, -0.11375881, 0.3464692, -217714.25, 229110.14, 0.0, 10.0019455, 9.998981 
1.8851924e+3, 2.6440856e+2, -111146.586, -451552.75, 34839.156, -0.05388033, 0.37097567, -107617.53, 241220.2, 0.000000017635879, 10.0025215, 9.998009 
1.8852186e+3, 2.744081e+2, 76707.75, -287721.38, 9851.885, 0.19233876, 0.48383978, 76973.89, 327819.22, 0.000007223604, 10.003067, 9.99818 
1.8852413e+3, 2.84407e+2, 109258.34, -301854.75, 17611.604, 0.09498947, 0.5951043, 110011.43, 262871.16, 0.00010058898, 10.002946, 9.9974785 
1.8852608e+3, 2.944045e+2, 117415.57, -226631.83, 2340.355, -0.3006336, 0.54585284, 117431.49, 172318.38, 0.0004433926, 10.002238, 9.997655 
1.8852869e+3, 3.044025e+2, 306824.03, -146385.2, -40483.434, 0.029456804, 0.6072429, 310411.88, 310411.88, 0.0011172551, 10.003312, 9.997395 
1.885309e+3, 3.144001e+2, 774575.3, 244835.39, -175020.69, 0.029026331, 0.5653113, 827177.1, 827177.1, 0.002025033, 10.005823, 9.99884 
1.8948631e+3, 1.24382794e+2, -1844222.6, -1376323.8, -218211.88, -0.061342694, 0.376142, -1290353.3, 430737.53, 0.16258536, 9.997027, 10.004257 
1.8948862e+3, 1.3438533e+2, -2077487.8, -1895992.8, 61350.395, -0.08708819, 0.5946702, -1877200.4, -254128.03, 0.110513955, 9.997042, 9.999492 
1.8949088e+3, 1.4438483e+2, -1837474.1, -1630304.3, 56770.598, -0.26251015, 0.5760355, -1615767.4, -90686.984, 0.06108175, 9.99763, 10.000339 
1.8949357e+3, 1.5438578e+2, -1672389.3, -1427157.5, 49388.406, -0.058406718, 0.5498916, -1417584.6, 9484.845, 0.024752133, 9.997804, 10.000964 
1.8949597e+3, 1.6438684e+2, -1466647.6, -1195040.8, -61728.11, -0.0065615578, 0.533524, -1181670.0, 147385.27, 0.0060684755, 9.998115, 10.001768 
1.8949813e+3, 1.743874e+2, -1281554.6, -1023525.4, -1496.9718, -0.038877618, 0.3586006, -1023516.7, 207527.06, 0.0005270964, 9.998603, 10.002024 
1.8950038e+3, 1.8438807e+2, -1296508.4, -1215099.4, 67075.94, -0.05718103, 0.33381957, -1177343.5, -44307.94, 0.0000013718216, 9.998842, 9.999918 
1.8950275e+3, 1.9438934e+2, -1206876.1, -1112007.5, 32071.91, -0.083232485, 0.43389964, -1102182.5, -67154.445, 0.0, 9.998768, 9.999972 
1.8950514e+3, 2.0439036e+2, -1044782.44, -966064.44, -3327.086, -0.081836276, 0.5372945, -965924.06, -28903.744, 0.0, 9.999088, 10.000178 
1.8950759e+3, 2.1439113e+2, -802979.1, -771455.75, 27115.62, -0.020409929, 0.54759496, -755853.6, 83157.77, 0.0, 9.999985, 10.000395 
1.8950994e+3, 2.2439077e+2, -745057.25, -865033.8, -37256.324, 0.0071318774, 0.5553863, -734429.5, 6585.748, 0.0, 10.000453, 9.998856 
1.8951215e+3, 2.3438917e+2, -609831.06, -735961.9, -39547.25, -0.031904656, 0.47201055, -598457.0, 44576.637, 0.0, 10.000671, 9.99895 
1.8951453e+3, 2.4438825e+2, -436320.16, -567774.4, 47283.313, -0.027626578, 0.47893593, -421079.6, 123962.69, 0.0, 10.001014, 9.999285 
1.8951714e+3, 2.5438827e+2, -223426.25, -389851.4, 82855.0, 0.06774815, 0.5018927, -189211.05, 257826.69, 0.0, 10.001731, 9.999471 
1.8951964e+3, 2.6438686e+2, -160731.66, -498827.25, 41523.973, 0.070508234, 0.50525504, -155706.48, 193343.39, 0.0000000071100716, 10.002277, 9.997804 
1.8952188e+3, 2.74384e+2, 22888.854, -337667.4, 43911.58, -0.1119036, 0.39670706, 28159.723, 279239.56, 0.0000064443307, 10.002811, 9.997956 
1.8952407e+3, 2.8438205e+2, 86471.734, -294001.38, -24045.926, -0.2822769, 0.42775226, 87985.42, 241085.98, 0.0000894982, 10.002692, 9.997661 
1.8952636e+3, 2.943806e+2, 79832.95, -247051.38, 2614.7542, -0.25018215, 0.46128795, 79853.87, 134969.27, 0.00040206578, 10.001979, 9.997646 
1.8952917e+3, 3.0437762e+2, 206370.02, -262627.47, 40742.902, 0.14079511, 0.46467516, 209883.14, 209883.14, 0.0010244825, 10.002942, 9.996761 
1.8953139e+3, 3.1437388e+2, 697698.56, 274343.94, -75674.914, -0.13266687, 0.32637852, 710818.9, 710818.9, 0.0018685628, 10.005085, 9.999369 
1.904859e+3, 1.2436005e+2, -2107872.5, -1601841.9, -144240.88, -0.12527758, 0.43407026, -1563614.6, 157700.61, 0.1713416, 9.995809, 10.002975 
1.9048843e+3, 1.3436359e+2, -1923692.3, -1716645.4, 140251.58, -0.00802741, 0.6359573, -1645848.4, -22564.725, 0.11689223, 9.997689, 10.000384 
1.9049062e+3, 1.44362e+2, -1807040.6, -1684159.6, 142222.23, -0.30345896, 0.50379354, -1590674.0, -65373.316, 0.06499328, 9.998095, 9.999764 
1.904935e+3, 1.5436313e+2, -1562755.5, -1409478.5, 151241.97, 0.052278094, 0.5232512, -1316565.9, 110722.96, 0.026617203, 9.998659, 10.000708 
1.9049595e+3, 1.6436414e+2, -1403523.9, -1212091.9, 25007.574, 0.13115613, 0.5352323, -1208879.0, 120396.59, 0.0066676727, 9.998758, 10.001342 
1.9049796e+3, 1.7436379e+2, -1288670.8, -1073080.3, -84462.016, -0.05268205, 0.31410745, -1043931.56, 187341.6, 0.0006122247, 9.998767, 10.001594 
1.9050021e+3, 1.843641e+2, -1311330.3, -1259189.1, -41283.734, -0.1040493, 0.28908935, -1236433.3, -103163.52, 0.0000017786746, 9.998915, 9.999581 
1.905027e+3, 1.9436578e+2, -1111701.3, -1105648.4, -18300.643, -0.04344098, 0.47047448, -1090125.6, -54865.895, 0.0, 9.999598, 9.999625 
1.9050516e+3, 2.0436668e+2, -943460.6, -915431.7, 361.6144, -0.0022915478, 0.5848255, -915427.06, 21826.031, 0.0, 9.999807, 10.000165 
1.905076e+3, 2.1436654e+2, -852664.6, -795035.94, -34954.445, 0.014063547, 0.5060893, -778550.4, 60700.64, 0.0, 9.999662, 10.000379 
1.9050997e+3, 2.2436588e+2, -816204.5, -914671.94, -80711.57, 0.015203948, 0.48787358, -770895.56, -29637.879, 0.0, 10.000007, 9.998741 
1.9051223e+3, 2.3436473e+2, -566649.44, -733899.9, -87010.125, -0.031222027, 0.46345204, -529593.5, 113679.69, 0.0, 10.001024, 9.998804 
1.9051465e+3, 2.4436414e+2, -361089.66, -518309.4, 13476.708, -0.004990732, 0.50573915, -359942.8, 185336.6, 0.0, 10.001489, 9.999383 
1.9051735e+3, 2.5436404e+2, -256281.95, -390047.47, -2227.9673, 0.11606215, 0.5054412, -256244.86, 191030.89, 0.0, 10.001436, 9.999605 
1.9051987e+3, 2.6436266e+2, -221696.89, -477964.4, 2927.5168, 0.12617451, 0.483451, -221663.45, 127623.02, 0.000000016068412, 10.0016365, 9.998254 
1.9052215e+3, 2.7436015e+2, -16909.688, -315623.6, 21856.748, -0.08609186, 0.36645356, -15318.911, 235992.48, 0.000006020835, 10.002314, 9.9983635 
1.9052438e+3, 2.8435826e+2, 162940.94, -250837.55, -8338.229, -0.25336725, 0.38159057, 163108.89, 316438.6, 0.00007835106, 10.003182, 9.997729 
1.9052671e+3, 2.943566e+2, 432669.75, -68983.195, -34225.51, -0.22179039, 0.39304563, 434994.03, 490339.34, 0.00035541714, 10.004383, 9.997708 
1.9052951e+3, 3.043526e+2, 398144.78, -249743.11, 62102.906, 0.12302022, 0.32196215, 404043.9, 404043.9, 0.0009236989, 10.004613, 9.99605 
1.90532e+3, 3.1434807e+2, 495256.34, 158805.17, -169635.1, 0.06724839, 0.19789861, 565936.44, 565936.44, 0.0017173495, 10.003676, 9.999305 
1.914854e+3, 1.2433656e+2, -2266054.5, -1890733.6, 10990.211, -0.26474923, 0.26245275, -1890412.1, -168873.1, 0.18042894, 9.995774, 10.000784 
1.9148844e+3, 1.3434137e+2, -1904723.0, -1685141.9, 175475.39, 0.20818627, 0.5441914, -1587940.8, 35552.3, 0.12358676, 9.997716, 10.000613 
1.9149043e+3, 1.4433889e+2, -1784870.4, -1671807.3, 144384.94, -0.35350865, 0.32695875, -1573281.3, -47765.19, 0.069141634, 9.998237, 9.999782 
1.9149338e+3, 1.5433937e+2, -1533922.3, -1348927.3, 179956.16, 0.037229616, 0.24373285, -1239088.4, 188419.42, 0.028615344, 9.998658, 10.001133 
1.9149588e+3, 1.6434036e+2, -1547721.6, -1532204.4, 11846.099, 0.14018182, 0.33095676, -1525802.3, -196303.33, 0.0073205116, 9.99885, 9.999093 
1.9149785e+3, 1.7434065e+2, -1465217.5, -1433580.3, -76837.445, -0.06959269, 0.4203925, -1370950.0, -139447.31, 0.00070924795, 9.998746, 9.999124 
1.9150011e+3, 1.8434082e+2, -1269454.9, -1186662.8, -32505.996, -0.12718153, 0.49227777, -1175425.5, -41920.613, 0.0000023137907, 9.998962, 10.000063 
1.9150272e+3, 1.9434144e+2, -1070818.8, -1005480.7, 16123.016, 0.011443999, 0.49682587, -1001718.75, 33780.063, 0.0, 9.999526, 10.00035 
1.915052e+3, 2.0434108e+2, -994610.8, -1000489.6, -16088.093, 0.023344923, 0.47000462, -981195.8, -43695.043, 0.0, 9.999703, 9.999633 
1.9150749e+3, 2.1433945e+2, -916306.8, -893336.7, -31855.754, -0.093420446, 0.2986311, -870958.9, -31445.441, 0.0, 9.999507, 9.999779 
1.9150986e+3, 2.2433878e+2, -842287.56, -914430.3, -53361.34, -0.12848443, 0.30746895, -813949.5, -72429.57, 0.0, 9.999769, 9.998861 
1.9151233e+3, 2.3433957e+2, -589438.3, -727847.25, -35180.168, -0.047227215, 0.46305513, -581009.6, 62507.156, 0.0, 10.000801, 9.998954 
1.915148e+3, 2.4433918e+2, -413513.16, -567959.44, 3307.7952, -0.03152277, 0.5300511, -413442.34, 132079.58, 0.0, 10.00123, 9.999167 
1.9151731e+3, 2.543373e+2, -300705.2, -432405.34, 8674.755, -0.074702725, 0.37223086, -300136.25, 147401.06, 0.0, 10.001227, 9.999411 
1.9151992e+3, 2.6433632e+2, -189612.5, -358287.66, 10436.737, -0.021619989, 0.3484937, -188969.19, 160575.45, 0.000000038925435, 10.001399, 9.999195 
1.915226e+3, 2.7433658e+2, 16839.063, -186062.4, 60460.23, 0.11177941, 0.40950418, 33488.668, 285028.3, 0.0000054500297, 10.002067, 9.999369 
1.9152498e+3, 2.8433558e+2, 110137.65, -297644.56, 16108.458, -0.011389806, 0.46704063, 110772.984, 264321.0, 0.00006657065, 10.002909, 9.997542 
1.9152705e+3, 2.943324e+2, 365524.9, -129367.65, 26848.678, -0.34350687, 0.3509968, 366977.22, 422555.03, 0.0003045757, 10.004051, 9.997452 
1.915297e+3, 3.043275e+2, 293513.44, -394214.16, 10717.429, -0.17705128, 0.24067728, 293680.44, 293680.44, 0.0008128508, 10.00429, 9.995209 
1.915324e+3, 3.1432465e+2, 377304.75, 83414.7, -144075.05, 0.054735564, 0.34735268, 436152.0, 436152.0, 0.0015544663, 10.003001, 9.999077 
1.9248514e+3, 1.2431159e+2, -2214268.5, -2056529.9, -155537.06, -0.15476212, 0.37769967, -1961008.4, -239222.16, 0.18987963, 9.996941, 9.999097 
1.9248822e+3, 1.3431646e+2, -1737682.6, -1447128.0, -55380.63, 0.21174526, 0.51338494, -1436930.3, 186806.05, 0.13060497, 9.998068, 10.002243 
1.9249034e+3, 1.4431411e+2, -1785903.0, -1677324.1, -22756.387, -0.257368, 0.22422555, -1672747.6, -146991.77, 0.07352615, 9.998264, 9.9997225 
1.9249317e+3, 1.5431485e+2, -1633941.6, -1418034.9, -57097.918, 0.020250222, 0.19015439, -1403865.0, 23880.52, 0.030745408, 9.998073, 10.000914 
1.9249567e+3, 1.6431579e+2, -1647244.0, -1601190.3, -148530.58, 0.10548064, 0.29472023, -1473912.1, -144174.25, 0.008026891, 9.998272, 9.99889 
1.9249777e+3, 1.7431651e+2, -1381807.6, -1416650.9, -89862.51, -0.04872264, 0.4445144, -1307693.6, -75954.875, 0.0008187495, 9.99942, 9.998917 
1.9250008e+3, 1.8431668e+2, -1163016.8, -1148840.9, 39548.527, -0.0706628, 0.53170156, -1115750.1, 17990.4, 0.0000031359323, 9.999727, 9.999959 
1.9250268e+3, 1.9431642e+2, -1101372.6, -1029760.75, 7768.6074, 0.026845016, 0.4527616, -1028927.7, 6813.668, 0.0, 9.999327, 10.00028 
1.9250512e+3, 2.0431565e+2, -1052448.0, -1055344.9, -14650.845, 0.015454008, 0.39583182, -1039174.2, -101427.3, 0.0, 9.999415, 9.999402 
1.9250742e+3, 2.143143e+2, -799587.7, -863573.9, -25766.35, -0.13847937, 0.28009138, -790502.06, 49255.91, 0.0, 10.000424, 9.999542 
1.9250984e+3, 2.2431378e+2, -680757.8, -816522.9, -12184.95, -0.1518921, 0.3082264, -679672.9, 62089.918, 0.0, 10.000826, 9.99901 
1.9251241e+3, 2.343143e+2, -616120.25, -718120.3, -19423.984, -0.011287403, 0.4190514, -612546.5, 31213.688, 0.0, 10.000537, 9.999142 
1.9251496e+3, 2.443136e+2, -518484.6, -654289.5, 39607.375, 0.029366445, 0.45861253, -507777.3, 37990.992, 0.0, 10.000642, 9.998869 
1.9251744e+3, 2.543116e+2, -302692.2, -479793.78, 11946.223, -0.06620814, 0.32697544, -301890.0, 145898.23, 0.0, 10.001386, 9.999031 
1.9252007e+3, 2.6431087e+2, -120364.62, -296512.4, 9445.789, -0.01930652, 0.33981857, -119859.54, 229934.89, 0.000000047147957, 10.001766, 9.999438 
1.9252281e+3, 2.743116e+2, -8093.925, -166320.64, -25179.611, 0.14362988, 0.42388666, -4183.573, 247600.33, 0.0000044268, 10.001763, 9.999652 
1.925253e+3, 2.8431058e+2, -12804.073, -361649.72, -40183.777, 0.071931906, 0.46719238, -8235.116, 145557.38, 0.000054025306, 10.002103, 9.997474 
1.925275e+3, 2.9430726e+2, 223191.4, -215110.55, -58317.86, -0.23040895, 0.3476155, 230818.13, 286643.34, 0.0002523606, 10.003124, 9.99731 
1.925301e+3, 3.0430296e+2, 272136.84, -345268.7, -23660.906, -0.16906416, 0.28159326, 273042.28, 273042.28, 0.0006949365, 10.003882, 9.99574 
1.9253275e+3, 3.143016e+2, 549557.9, 115424.65, -135596.11, 0.05864215, 0.49617139, 588429.2, 588429.2, 0.0013689927, 10.004333, 9.998683 
1.934851e+3, 1.2428354e+2, -2263947.8, -2191374.8, -157796.34, 0.046286587, 0.6438177, -2065746.4, -343673.5, 0.1997211, 9.9970665, 9.99812 
1.9348769e+3, 1.342885e+2, -1544177.5, -1071152.8, -28613.766, -0.15997331, 0.531624, -1069428.1, 554588.8, 0.13795441, 9.998023, 10.00527 
1.9349028e+3, 1.442879e+2, -1779844.3, -1681971.0, -41822.805, -0.18441112, 0.2358435, -1666534.3, -140516.31, 0.07814733, 9.99833, 9.999662 
1.9349289e+3, 1.5428963e+2, -1690437.5, -1544785.1, -57662.7, -0.10329485, 0.3792432, -1524720.8, -96719.17, 0.033007, 9.998104, 10.000031 
1.9349533e+3, 1.6429032e+2, -1501020.3, -1316116.6, -124496.62, -0.113125175, 0.4215123, -1253498.3, 76495.59, 0.008786739, 9.998347, 10.000817 
1.9349769e+3, 1.7429128e+2, -1232626.3, -1107718.0, -38413.586, -0.08974796, 0.38580364, -1096850.0, 135131.78, 0.00094156526, 9.999421, 10.001042 
1.935001e+3, 1.8429165e+2, -1193869.0, -1226640.5, 15654.027, -0.07712829, 0.40265158, -1187593.3, -53616.105, 0.0000044945964, 9.9997835, 9.999399 
1.935025e+3, 1.9429083e+2, -1168629.9, -1157437.3, 2257.9287, -0.10304012, 0.34911346, -1156999.0, -121012.664, 0.0, 9.999266, 9.99944 
1.9350491e+3, 2.0429046e+2, -1067498.1, -1059570.4, 5829.901, -0.16006684, 0.37627536, -1056484.4, -118493.664, 0.0, 9.999294, 9.999434 
1.935074e+3, 2.1429104e+2, -824919.94, -869403.44, 21679.826, -0.2210956, 0.4459153, -816101.9, 23883.762, 0.0, 10.000223, 9.999601 
1.935099e+3, 2.2429058e+2, -712140.9, -813669.44, -31340.184, -0.19050956, 0.4705915, -703246.0, 38743.35, 0.0, 10.000541, 9.999163 
1.9351247e+3, 2.3428877e+2, -634510.2, -707810.5, -19231.262, -0.04247932, 0.33543754, -629771.0, 14233.423, 0.0, 10.000333, 9.999308 
1.9351503e+3, 2.442874e+2, -582872.56, -734088.1, 49537.637, 0.028729832, 0.31715935, -568089.44, -22070.852, 0.0, 10.000405, 9.99844 
1.9351768e+3, 2.5428677e+2, -366897.56, -564140.5, 49829.066, 0.02598601, 0.36891666, -355024.1, 93005.7, 0.0, 10.00118, 9.99855 
1.935203e+3, 2.6428607e+2, -199297.22, -390565.25, -3214.219, 0.001368856, 0.43951645, -199243.22, 150795.17, 0.00000001782158, 10.001476, 9.998928 
1.9352278e+3, 2.742853e+2, -80588.57, -249981.47, -12844.464, -0.08171477, 0.41435778, -79620.16, 172423.94, 0.0000033385966, 10.001502, 9.99919 
1.9352533e+3, 2.842837e+2, -51084.523, -396718.3, -26399.254, -0.13417572, 0.43057105, -49079.793, 104979.76, 0.00004416703, 10.001895, 9.997343 
1.93528e+3, 2.9428118e+2, 189482.63, -221748.77, -2050.2454, -0.06521524, 0.3979444, 189492.84, 245579.39, 0.00021030588, 10.002861, 9.997389 
1.9353063e+3, 3.0427915e+2, 325003.97, -150618.97, -24314.72, -0.055842407, 0.47389197, 326243.75, 326243.75, 0.0005915153, 10.003523, 9.997247 
1.9353285e+3, 3.1427762e+2, 386735.16, -39934.418, -20426.684, -0.2954496, 0.52051324, 387710.84, 387710.84, 0.0011871122, 10.003614, 9.997928 
1.9448487e+3, 1.24256276e+2, -2309323.8, -2189714.0, 112440.164, 0.16066365, 0.56261265, -2122163.5, -399822.66, 0.20999403, 9.99663, 9.998349 
1.9448741e+3, 1.3426192e+2, -1675922.9, -1146866.0, 97610.11, -0.17518584, 0.5517082, -1129431.6, 494848.22, 0.14565058, 9.997075, 10.00518 
1.9449024e+3, 1.4426194e+2, -1715064.4, -1616971.0, -33185.75, -0.057785556, 0.29183176, -1606798.9, -80522.79, 0.083007626, 9.998611, 9.999987 
1.944927e+3, 1.5426403e+2, -1653694.3, -1529065.9, -35345.92, -0.10708818, 0.46897987, -1519739.4, -91482.71, 0.03539992, 9.998358, 10.00002 
1.944951e+3, 1.6426446e+2, -1523810.5, -1297875.6, -61873.004, -0.16045469, 0.4696099, -1282041.3, 48209.523, 0.009600047, 9.998063, 10.001083 
1.9449759e+3, 1.7426497e+2, -1319263.9, -1114361.8, -126632.664, -0.10288742, 0.36046717, -1053926.3, 178313.84, 0.0010784023, 9.998674, 10.001357 
1.9450004e+3, 1.8426524e+2, -1313010.8, -1280480.9, -144481.98, -0.057178304, 0.352213, -1151351.3, -17116.674, 0.0000066792873, 9.998981, 9.999406 
1.9450241e+3, 1.9426458e+2, -1187380.8, -1163604.8, -126156.02, -0.098032884, 0.3156798, -1048777.9, -12535.427, 0.0, 9.999174, 9.999424 
1.9450489e+3, 2.0426442e+2, -1057758.5, -1047882.8, -39583.086, -0.123339064, 0.36457726, -1012930.8, -74685.89, 0.0, 9.999351, 9.99948 
1.9450746e+3, 2.142652e+2, -894616.06, -896864.1, -45038.918, -0.1266187, 0.45429653, -850687.1, -10449.162, 0.0, 9.999729, 9.999648 
1.9451003e+3, 2.2426468e+2, -760900.2, -841928.44, -94897.76, -0.08676839, 0.4722502, -698230.1, 44012.125, 0.0, 10.000203, 9.999138 
1.9451253e+3, 2.3426242e+2, -554252.06, -674952.94, -118319.16, -0.011980554, 0.29484877, -481780.84, 162480.77, 0.0, 10.000891, 9.999276 
1.9451512e+3, 2.4426118e+2, -486331.47, -675360.3, -17002.412, 0.04515893, 0.2869186, -484814.34, 61460.49, 0.0, 10.001041, 9.99853 
1.945178e+3, 2.5426129e+2, -439493.97, -593377.9, -4738.3926, 0.06836618, 0.40874055, -439348.2, 8931.237, 0.0, 10.000657, 9.998601 
1.9452043e+3, 2.6426053e+2, -318768.0, -493775.34, 2632.877, 0.042365275, 0.48705262, -318728.4, 31561.453, 0.000000002142629, 10.000829, 9.998538 
1.9452293e+3, 2.7425873e+2, -62535.53, -299190.34, -28054.713, -0.092765145, 0.40621388, -59255.2, 193051.55, 0.0000030022966, 10.001829, 9.998718 
1.9452554e+3, 2.8425673e+2, 59437.63, -314203.2, 9892.681, -0.12945221, 0.3971831, 59699.37, 214026.45, 0.00003904193, 10.002531, 9.997612 
1.9452834e+3, 2.9425505e+2, 246305.61, -146622.0, 20612.514, -0.00398295, 0.41754866, 247383.95, 303730.2, 0.00018459432, 10.003032, 9.997834 
1.9453107e+3, 3.0425456e+2, 353546.44, -61265.29, -5820.69, 0.042276554, 0.5897278, 353628.1, 353628.1, 0.00051477127, 10.003412, 9.997906 
1.9453315e+3, 3.142524e+2, 351175.22, -129755.086, -100177.95, -0.35207817, 0.53814393, 371207.88, 371207.88, 0.0010271143, 10.003624, 9.9973345 
1.9548437e+3, 1.2423231e+2, -2148967.5, -1929530.5, -142833.95, -0.09519227, 0.35482952, -1859138.9, -136574.22, 0.22070916, 9.996865, 10.000053 
1.954874e+3, 1.3423686e+2, -1888013.1, -1550109.3, 201010.27, 0.06958273, 0.5673642, -1456478.1, 168045.25, 0.15369554, 9.997162, 10.001989 
1.9549018e+3, 1.4423634e+2, -1646037.4, -1509397.8, -29494.984, -0.021861257, 0.3863365, -1503302.9, 23226.268, 0.08810495, 9.998756, 10.000669 
1.9549255e+3, 1.5423809e+2, -1593691.8, -1416618.9, -39008.16, -0.10835039, 0.45049462, -1408406.5, 20104.06, 0.037922986, 9.998396, 10.000784 
1.954949e+3, 1.6423814e+2, -1603541.0, -1487393.6, -61023.047, -0.18951268, 0.43755534, -1461227.4, -130718.87, 0.010466628, 9.998163, 9.999732 
1.954974e+3, 1.7423761e+2, -1422289.4, -1338102.8, -94026.664, -0.19106123, 0.3744249, -1277177.4, -44664.574, 0.0012294218, 9.998705, 9.999809 
1.9549988e+3, 1.842375e+2, -1266789.4, -1197691.1, -146128.88, -0.15161261, 0.38460293, -1082082.8, 52430.066, 0.000009908067, 9.9990425, 9.999942 
1.9550239e+3, 1.9423759e+2, -1147754.9, -1065881.8, -110777.56, -0.06777824, 0.35898566, -988718.9, 47791.207, 0.0, 9.99911, 10.000126 
1.9550496e+3, 2.0423728e+2, -1074789.6, -1052440.0, -39495.523, -0.011171379, 0.35420066, -1022568.8, -84057.234, 0.0, 9.999213, 9.999517 
1.9550762e+3, 2.1423677e+2, -918208.56, -905577.1, -20473.586, 0.028180875, 0.31205633, -890467.25, -49951.813, 0.0, 9.999559, 9.999667 
1.955102e+3, 2.242361e+2, -803991.0, -881438.5, -77756.6, 0.023882711, 0.3186967, -755849.25, -13327.49, 0.0, 9.999978, 9.998979 
1.9551262e+3, 2.3423523e+2, -597115.1, -715247.44, -79992.05, -0.029302353, 0.296462, -556745.2, 87786.414, 0.0, 10.000689, 9.999092 
1.9551514e+3, 2.442348e+2, -493811.03, -629592.3, -38562.336, -0.065773204, 0.36180457, -483623.53, 62914.098, 0.0, 10.000777, 9.99897 
1.9551778e+3, 2.5423512e+2, -431619.84, -529609.3, -5059.584, -0.04433844, 0.4492427, -431359.3, 17178.18, 0.0, 10.0004635, 9.999124 
1.9552048e+3, 2.642344e+2, -373363.13, -557607.94, 23939.904, -0.029184932, 0.517793, -370303.3, -19756.979, 0.00000003752054, 10.0006075, 9.998212 
1.9552319e+3, 2.7423206e+2, -120432.195, -370313.2, 24412.27, -0.02629052, 0.41980535, -118069.56, 134500.75, 0.0000033251551, 10.001624, 9.998327 
1.9552587e+3, 2.8422984e+2, 40410.086, -277279.94, 12496.724, -0.08400951, 0.3921786, 40900.902, 195493.97, 0.000036409245, 10.002202, 9.998023 
1.9552852e+3, 2.9422903e+2, 237249.47, -77588.18, 60577.125, -0.15367448, 0.44491878, 248502.73, 305105.13, 0.00016708692, 10.0026655, 9.998479 
1.9553135e+3, 3.0422953e+2, 278342.0, -131307.3, -21942.063, -0.045491785, 0.6845707, 279513.94, 279513.94, 0.00045041088, 10.003018, 9.997628 
1.9553368e+3, 3.1422544e+2, 258731.38, -195918.61, -34215.207, -0.23916583, 0.47623947, 261291.86, 261291.86, 0.0008724105, 10.003126, 9.997102 
1.9648407e+3, 1.2420612e+2, -2036298.3, -1814412.1, -380647.03, -0.09904475, 0.32766157, -1528870.0, 193949.52, 0.23177752, 9.997507, 10.000736 
1.964872e+3, 1.3421088e+2, -1914061.5, -1596030.8, 135042.92, 0.17851846, 0.6050298, -1546425.8, 78352.414, 0.1620495, 9.997242, 10.001508 
1.9648992e+3, 1.4421013e+2, -1929602.9, -1601579.1, 12394.501, -0.046850506, 0.41598517, -1601111.5, -74324.24, 0.093428105, 9.996661, 10.001006 
1.964924e+3, 1.5421253e+2, -1569339.8, -1337330.4, -42541.62, -0.08018437, 0.488232, -1329775.9, 98985.42, 0.04057487, 9.998288, 10.001375 
1.9649486e+3, 1.6421273e+2, -1491040.9, -1471512.0, -30729.158, -0.09038648, 0.46769074, -1449033.3, -118275.445, 0.011385711, 9.999093, 9.999396 
1.9649732e+3, 1.7421153e+2, -1440115.3, -1389764.1, -536.5532, -0.1194999, 0.37694496, -1389758.4, -156989.5, 0.0013940044, 9.998776, 9.999416 
1.9649981e+3, 1.8421116e+2, -1314498.8, -1229355.9, 4998.179, -0.09333555, 0.38548458, -1229063.4, -94291.875, 0.000014255441, 9.998733, 9.999882 
1.9650237e+3, 1.9421154e+2, -1102674.3, -1049811.9, -32491.234, -0.005758315, 0.38852143, -1034358.9, 2407.948, 0.0, 9.999423, 10.0000925 
1.9650497e+3, 2.0421116e+2, -979541.1, -1010749.1, 23701.547, 0.059700202, 0.37742648, -966768.25, -27999.205, 0.0, 9.999874, 9.999485 
1.9650765e+3, 2.1420997e+2, -850382.6, -880769.5, 17279.496, 0.079263926, 0.27185932, -842566.9, -1788.6301, 0.0, 10.0000305, 9.999618 
1.9651024e+3, 2.2420926e+2, -764386.94, -887833.5, -9908.049, 0.06857134, 0.2864804, -763596.75, -20810.912, 0.0, 10.000374, 9.998742 
1.9651271e+3, 2.3420905e+2, -542169.0, -722166.8, -45747.793, -0.0230006, 0.3607415, -531209.2, 113583.06, 0.0, 10.001202, 9.998801 
1.9651522e+3, 2.442087e+2, -367634.75, -545046.8, -32994.24, -0.077179395, 0.43886212, -361697.34, 185100.89, 0.0, 10.001512, 9.999213 
1.965178e+3, 2.5420853e+2, -326919.47, -449657.66, -44656.215, -0.08785899, 0.4542071, -312391.63, 136408.33, 0.0, 10.001042, 9.999404 
1.9652055e+3, 2.642078e+2, -293165.63, -518841.4, 59206.035, -0.021325814, 0.50757784, -278576.13, 72231.7, 0.00000006167767, 10.001164, 9.998211 
1.965235e+3, 2.7420595e+2, -49722.137, -343233.9, 52267.203, 0.10424218, 0.4671923, -40692.434, 212135.16, 0.000003603985, 10.002143, 9.99826 
1.9652618e+3, 2.8420377e+2, 26806.867, -284881.47, 23529.34, 0.037619684, 0.44559053, 28573.088, 183423.72, 0.00003430298, 10.00212, 9.998005 
1.9652861e+3, 2.9420227e+2, -29961.71, -219753.33, -6435.868, -0.2328116, 0.44435048, -29743.72, 27122.602, 0.00015136057, 10.000882, 9.998368 
1.9653152e+3, 3.0420193e+2, 63931.086, -216992.17, -9939.262, -0.0872405, 0.6049092, 64282.305, 64282.305, 0.00039140965, 10.001466, 9.997791 
1.9653402e+3, 3.1419924e+2, 470341.63, 7290.1245, -96600.5, -0.23872066, 0.5245634, 489686.03, 489686.03, 0.0007268672, 10.004114, 9.998043 
1.9748381e+3, 1.2417754e+2, -2056536.8, -1912859.9, -195628.3, -0.19962867, 0.43083835, -1776296.9, -53189.094, 0.24301729, 9.997712, 9.99971 
1.974868e+3, 1.3418418e+2, -1758638.8, -1340962.8, 79558.33, 0.0319732, 0.6703772, -1326321.9, 298720.7, 0.17062773, 9.997315, 10.00355 
1.9748938e+3, 1.4418313e+2, -1913248.5, -1591704.5, 41197.973, -0.29393893, 0.35770288, -1586509.9, -59458.047, 0.09895461, 9.99675, 10.001039 
1.9749221e+3, 1.5418734e+2, -1536813.4, -1285156.4, 26120.469, -0.1365591, 0.57778966, -1282473.8, 146536.16, 0.04335473, 9.998335, 10.001735 
1.9749491e+3, 1.6418812e+2, -1419020.3, -1344045.8, -47643.195, 0.007973096, 0.5598954, -1320909.8, 10089.956, 0.012356995, 9.999197, 10.000221 
1.9749737e+3, 1.7418663e+2, -1381571.4, -1270239.8, -5479.29, 0.0155606, 0.36462754, -1269970.8, -36961.406, 0.0015709848, 9.998789, 10.000232 
1.9749981e+3, 1.8418612e+2, -1352514.6, -1316844.1, 13030.56, -0.0072677485, 0.34352016, -1312591.1, -177578.28, 0.000019593592, 9.998765, 9.9992695 
1.975023e+3, 1.9418636e+2, -1161157.5, -1155664.3, 2901.3486, -0.030989965, 0.4028709, -1154415.8, -117402.14, 0.0, 9.99936, 9.999394 
1.9750488e+3, 2.0418592e+2, -1011550.56, -1043792.06, 22636.871, -0.050894313, 0.43138176, -999880.9, -60862.47, 0.0, 9.999732, 9.999326 
1.975075e+3, 2.1418491e+2, -885093.0, -907640.06, 32471.914, -0.07018158, 0.35255677, -861993.3, -20967.762, 0.0, 9.99984, 9.999523 
1.9751014e+3, 2.241842e+2, -832861.3, -974325.8, 6876.4395, -0.0879624, 0.39447483, -832527.9, -89494.14, 0.0, 10.000122, 9.998274 
1.9751278e+3, 2.3418376e+2, -599136.7, -804540.1, 410.288, -0.089848965, 0.49203375, -599135.9, 45908.75, 0.0, 10.001036, 9.99832 
1.9751535e+3, 2.4418285e+2, -402906.66, -565851.44, -58377.37, -0.11885844, 0.5397406, -384150.97, 162905.39, 0.0, 10.00128, 9.999186 
1.9751783e+3, 2.541816e+2, -344793.5, -453879.2, -51429.883, -0.165679, 0.44001308, -324370.0, 124696.69, 0.0, 10.000896, 9.999448 
1.9752063e+3, 2.641806e+2, -320586.5, -517124.94, 76817.83, -0.079268955, 0.46112454, -294124.75, 56950.68, 0.000000055759365, 10.000913, 9.998341 
1.9752382e+3, 2.7418032e+2, -71582.83, -328307.8, 103091.625, 0.18396932, 0.5546528, -35309.934, 217769.75, 0.0000036492006, 10.001894, 9.998472 
1.9752648e+3, 2.8417858e+2, -48915.46, -389539.78, -35340.977, 0.09474567, 0.58832306, -45287.355, 109811.41, 0.00003270768, 10.001877, 9.997414 
1.9752857e+3, 2.941748e+2, -96599.89, -333072.0, -27398.607, -0.38668555, 0.41885388, -93466.89, -36328.965, 0.00013942833, 10.000767, 9.997648 
1.9753149e+3, 3.0417204e+2, 6821.4277, -243981.63, 62827.363, -0.28506762, 0.38192514, 21679.734, 21679.734, 0.00034788318, 10.001096, 9.997777 
1.975344e+3, 3.1417328e+2, 513764.8, 276928.56, 21578.268, -0.31274137, 0.65676916, 515714.75, 515714.75, 0.0006198475, 10.00339, 10.000222 
1.984836e+3, 1.2414924e+2, -2219207.3, -2114284.5, 69911.09, -0.11922811, 0.37582305, -2079340.3, -355955.72, 0.25424254, 9.997098, 9.998652 
1.9848648e+3, 1.3415669e+2, -1701493.8, -1271381.5, 44510.438, -0.015673157, 0.63602686, -1266823.6, 358487.63, 0.17932345, 9.997413, 10.004122 
1.9848906e+3, 1.4415617e+2, -1945875.3, -1628606.6, 23335.13, -0.27034536, 0.35777026, -1626899.5, -99584.125, 0.104643695, 9.996614, 10.00086 
1.9849202e+3, 1.5415998e+2, -1795279.3, -1415786.3, -27568.375, -0.07360756, 0.55256367, -1413794.0, 15484.204, 0.046255346, 9.99661, 10.001641 
1.9849479e+3, 1.6416113e+2, -1684673.9, -1397725.6, -116694.516, 0.08070265, 0.5462357, -1356260.8, -24996.43, 0.013380272, 9.997061, 10.000874 
1.9849725e+3, 1.7416061e+2, -1393405.8, -1197432.6, -104828.15, 0.062614776, 0.37528974, -1151925.9, 81337.41, 0.0017591557, 9.998371, 10.000933 
1.9849972e+3, 1.841605e+2, -1311643.5, -1317317.0, -55132.457, 0.0383036, 0.3653833, -1259274.9, -124012.07, 0.0000256483, 9.999124, 9.999092 
1.9850227e+3, 1.9416039e+2, -1175705.5, -1195117.6, -51768.83, 0.006824355, 0.41239855, -1132740.8, -95471.77, 0.0, 9.999372, 9.9991255 
1.9850487e+3, 2.0415987e+2, -1014362.94, -1051876.4, 11386.188, -0.018367525, 0.44998243, -1011177.44, -71901.6, 0.0, 9.999746, 9.999263 
1.9850752e+3, 2.1415918e+2, -783722.44, -867081.94, -827.89355, -0.06985073, 0.41209936, -783714.25, 57565.777, 0.0, 10.000577, 9.999446 
1.985102e+3, 2.2415844e+2, -708960.6, -907519.56, 7610.562, -0.08153415, 0.45239523, -708669.3, 34618.684, 0.0, 10.000939, 9.998338 
1.985129e+3, 2.3415758e+2, -653025.25, -823667.06, 17653.697, -0.053137314, 0.50145274, -651218.0, -5916.472, 0.0, 10.000635, 9.998378 
1.9851552e+3, 2.4415635e+2, -508928.2, -679561.4, -14962.744, -0.05403992, 0.54074806, -507626.06, 39690.617, 0.0, 10.000859, 9.998585 
1.9851802e+3, 2.5415462e+2, -232720.39, -476523.56, -84788.93, -0.121721365, 0.46519592, -206132.39, 243201.52, 0.0, 10.002011, 9.998746 
1.9852081e+3, 2.6415336e+2, -110236.98, -397889.47, 24554.14, -0.04137468, 0.4874286, -108156.08, 243190.5, 0.00000004684117, 10.002297, 9.998483 
1.9852398e+3, 2.7415308e+2, -128602.586, -334849.47, 19977.879, 0.21010283, 0.5658745, -126685.27, 126664.12, 0.000003631824, 10.001425, 9.998647 
1.985267e+3, 2.841516e+2, -56665.297, -370112.97, -54955.242, 0.14349651, 0.61423177, -47309.516, 108054.85, 0.000030883682, 10.001746, 9.997597 
1.9852886e+3, 2.941481e+2, 335038.63, -112960.75, -34347.016, -0.3122737, 0.46111104, 337656.66, 395056.72, 0.00012822116, 10.0037155, 9.997725 
1.9853176e+3, 3.04145e+2, 404844.84, -43548.93, 105568.766, -0.23806646, 0.3870799, 428456.38, 428456.38, 0.00031412428, 10.003749, 9.997884 
1.9853474e+3, 3.1414554e+2, 189295.0, 158177.3, -46487.824, -0.16572803, 0.57842594, 222758.55, 222758.55, 0.00054947456, 10.000916, 10.000616 
1.9948344e+3, 1.2412311e+2, -2264231.5, -2238843.0, -27868.744, -0.07511793, 0.35810104, -2220913.5, -497282.78, 0.26535824, 9.997233, 9.9977255 
1.9948617e+3, 1.3412824e+2, -1749248.5, -1375782.8, 26477.66, -0.09276261, 0.4917347, -1373914.9, 251670.33, 0.18805622, 9.9974985, 10.003231 
1.9948892e+3, 1.4412907e+2, -1949793.3, -1668557.1, -3676.57, -0.105411105, 0.40242687, -1668509.1, -140930.08, 0.11045076, 9.996749, 10.0005245 
1.9949178e+3, 1.5413032e+2, -1828828.6, -1487906.3, -19122.709, 0.01080583, 0.39656323, -1486837.0, -57269.68, 0.04926506, 9.996628, 10.001133 
1.9949445e+3, 1.6413167e+2, -1639700.6, -1320386.4, -81667.4, 0.0020348425, 0.41374603, -1300711.5, 30841.21, 0.014456319, 9.997125, 10.001378 
1.9949697e+3, 1.741334e+2, -1348842.9, -1106124.9, -49833.965, -0.080855, 0.407718, -1096291.5, 137239.66, 0.0019582892, 9.998376, 10.001556 
1.9949956e+3, 1.841342e+2, -1290513.5, -1279409.6, -52335.68, -0.08128452, 0.44161603, -1232332.3, -96809.33, 0.000032105352, 9.999154, 9.999337 
1.9950223e+3, 1.9413361e+2, -1171055.9, -1166840.1, -33736.785, 0.012902056, 0.4224443, -1135145.4, -97612.06, 0.0, 9.999302, 9.999349 
1.9950493e+3, 2.0413308e+2, -1038013.25, -1071835.0, 25016.12, 0.032980394, 0.4484997, -1024728.3, -85187.72, 0.0, 9.999613, 9.999192 
1.9950764e+3, 2.1413273e+2, -813387.94, -891212.56, 40001.86, -0.02675683, 0.4511395, -796494.2, 45048.164, 0.0, 10.000412, 9.999359 
1.9951034e+3, 2.2413193e+2, -707636.2, -850293.75, -8630.496, -0.051412817, 0.46581072, -707115.94, 36433.137, 0.0, 10.000699, 9.998847 
1.9951302e+3, 2.3413056e+2, -638122.9, -752994.44, 19615.383, -0.018912783, 0.40534246, -634865.75, 10696.608, 0.0, 10.000456, 9.998951 
1.9951566e+3, 2.4412905e+2, -639327.7, -886106.94, 10381.383, -0.027053826, 0.44135284, -638891.75, -91311.445, 0.0, 10.000579, 9.997305 
1.995183e+3, 2.5412756e+2, -362800.34, -697490.06, -27909.617, -0.06087707, 0.52840054, -360488.94, 89113.56, 0.0, 10.001798, 9.997332 
1.9952108e+3, 2.6412588e+2, -154377.45, -422809.44, -12380.277, -0.035203237, 0.58808124, -153807.69, 197814.44, 0.000000042002604, 10.002017, 9.998445 
1.9952402e+3, 2.7412418e+2, -153447.94, -334351.72, 2775.8105, 0.07531148, 0.5119703, -153405.34, 100230.9, 0.0000035134383, 10.001217, 9.998743 
1.9952679e+3, 2.8412265e+2, -57256.543, -310437.47, -4786.5493, 0.021419497, 0.52741325, -57166.082, 98483.055, 0.00002820436, 10.001477, 9.998139 
1.995294e+3, 2.9412165e+2, 332214.0, -43735.87, 55720.17, -0.1799871, 0.549698, 340298.53, 397956.97, 0.00011358975, 10.003382, 9.998362 
1.9953226e+3, 3.0412045e+2, 329570.0, -62137.016, -4173.7183, -0.15374115, 0.62021214, 329614.47, 329614.47, 0.00027761437, 10.003189, 9.99801 
1.9953486e+3, 3.1411737e+2, -4085.6318, -118413.0, -112309.42, -0.19429801, 0.42746213, 64770.89, 64770.89, 0.0004899251, 10.000429, 9.998922 
2.0048323e+3, 1.2409741e+2, -2207628.5, -2183524.3, 10574.328, -0.008989641, 0.38259318, -2179543.0, -455665.94, 0.27641812, 9.9974985, 9.99796 
2.0048587e+3, 1.3409995e+2, -1701039.5, -1418786.9, 43729.543, -0.15754361, 0.31767535, -1412167.0, 213691.13, 0.1968332, 9.998151, 10.0025625 
2.0048878e+3, 1.4410295e+2, -1748348.1, -1596326.5, 43029.066, 0.016852217, 0.4821319, -1584992.4, -57161.246, 0.11636926, 9.998251, 10.000284 
2.0049158e+3, 1.5410233e+2, -1645317.5, -1442628.8, 22666.36, 0.08168413, 0.3219415, -1440125.0, -10287.214, 0.05238356, 9.998074, 10.000743 
2.0049421e+3, 1.6410306e+2, -1555015.1, -1314229.0, -9912.569, 0.025004849, 0.31344187, -1313821.6, 18008.611, 0.015589432, 9.997835, 10.001084 
2.004968e+3, 1.7410542e+2, -1425459.1, -1176526.5, -60764.293, -0.06310893, 0.39315712, -1162485.9, 71319.836, 0.0021699998, 9.997966, 10.00128 
2.0049946e+3, 1.8410656e+2, -1391132.8, -1281741.0, -75313.75, -0.042988695, 0.45772618, -1243357.4, -107562.17, 0.00003871999, 9.998281, 9.999736 
2.0050219e+3, 1.941063e+2, -1132007.9, -1101595.1, -63647.586, 0.033792567, 0.42958045, -1051362.6, -13561.511, 0.0, 9.999385, 9.999756 
2.0050491e+3, 2.0410594e+2, -999011.5, -1056412.4, 13160.159, 0.061713923, 0.45574263, -996138.1, -56331.97, 0.0, 9.9999075, 9.999157 
2.0050769e+3, 2.141055e+2, -910097.4, -946390.06, 8575.341, 0.026965728, 0.45922866, -908173.2, -66363.07, 0.0, 9.999787, 9.999288 
2.0051043e+3, 2.2410457e+2, -817267.94, -901589.5, -45314.0, 0.014437269, 0.465932, -797534.56, -53715.875, 0.0, 9.999965, 9.998839 
2.0051308e+3, 2.3410301e+2, -598024.06, -731104.25, -90493.55, -0.0043678633, 0.39087102, -552240.2, 93592.555, 0.0, 10.000757, 9.998943 
2.0051575e+3, 2.441015e+2, -547920.75, -849742.75, -54403.52, -0.007628144, 0.43225998, -538413.94, 9436.228, 0.0, 10.001205, 9.997267 
2.0051849e+3, 2.5410026e+2, -470422.94, -753623.5, -14894.94, -0.0024938716, 0.5497245, -469641.7, -19771.326, 0.0, 10.001063, 9.997302 
2.0052128e+3, 2.6409864e+2, -274748.56, -511074.1, 54123.703, 0.012295793, 0.6248462, -262942.8, 88946.914, 0.000000029896977, 10.0013, 9.998189 
2.0052412e+3, 2.740961e+2, -32231.95, -315388.66, 17044.043, 0.018101986, 0.4983452, -31209.707, 222702.0, 0.0000031274246, 10.002179, 9.9984255 
2.0052695e+3, 2.840941e+2, 82394.836, -210307.38, 27518.248, 0.013941945, 0.46379817, 84959.48, 240888.52, 0.000025154262, 10.002284, 9.998446 
2.0052975e+3, 2.940933e+2, 30892.072, -157657.06, 19166.398, -0.018657705, 0.48871967, 32820.65, 90755.14, 0.00009776422, 10.001173, 9.998646 
2.0053259e+3, 3.0409393e+2, 59962.902, -187030.58, -45768.094, -0.026714498, 0.71928525, 68170.99, 68170.99, 0.00024034745, 10.001297, 9.998081 
2.005352e+3, 3.1408903e+2, 356396.7, -47152.906, -195592.44, -0.038192376, 0.36342856, 435636.94, 435636.94, 0.0004335503, 10.003314, 9.998055 
2.0148298e+3, 1.2407014e+2, -2091806.3, -1971381.6, 49049.887, -0.06740526, 0.24176843, -1953931.8, -229788.16, 0.28771394, 9.997623, 9.999359 
2.0148559e+3, 1.3407163e+2, -1722617.3, -1460145.1, 65455.0, -0.29375434, 0.09937693, -1444727.6, 181403.66, 0.20582092, 9.998175, 10.002229 
2.0148858e+3, 1.4407775e+2, -1743038.1, -1611487.1, 25463.559, -0.055687804, 0.5959616, -1606730.3, -78658.12, 0.12247417, 9.998352, 10.000135 
2.0149134e+3, 1.5407592e+2, -1654935.6, -1472020.5, 21213.652, 0.016992152, 0.33658338, -1469592.4, -39502.777, 0.055639356, 9.998112, 10.000523 
2.0149402e+3, 1.6407536e+2, -1607955.3, -1450470.3, -20020.412, 0.0075293244, 0.2541248, -1447965.0, -115868.76, 0.016791714, 9.997949, 10.000095 
2.014967e+3, 1.7407663e+2, -1503466.0, -1333630.8, -49180.63, 0.02926437, 0.33517802, -1320417.1, -86329.93, 0.0023981123, 9.997953, 10.000203 
2.014994e+3, 1.8407764e+2, -1349437.6, -1211794.8, -53879.766, 0.027763406, 0.4224709, -1193212.5, -57132.977, 0.000045425786, 9.99834, 10.000194 
2.0150207e+3, 1.9407842e+2, -1099402.3, -1019704.5, -16911.016, -0.039475355, 0.4415064, -1016264.6, 21807.719, 0.0, 9.999324, 10.000348 
2.015048e+3, 2.0407853e+2, -1018391.94, -1065020.3, 858.7085, -0.0668276, 0.4795188, -1018376.1, -78304.02, 0.0, 9.999769, 9.999167 
2.0150764e+3, 2.140776e+2, -946242.0, -975394.44, 13818.085, -0.006637225, 0.4446407, -940733.25, -98650.58, 0.0, 9.999593, 9.999183 
2.0151041e+3, 2.2407633e+2, -900348.06, -1020421.0, -29480.746, -0.016460916, 0.45502794, -893500.3, -149403.36, 0.0, 9.99972, 9.998148 
2.0151307e+3, 2.340747e+2, -669084.8, -847110.75, -48376.164, -0.107575186, 0.4445834, -656788.56, -10673.783, 0.0, 10.000604, 9.998228 
2.0151578e+3, 2.4407338e+2, -509969.88, -709999.56, -64112.66, -0.13441175, 0.49369448, -491184.88, 56944.594, 0.0, 10.00095, 9.998347 
2.0151855e+3, 2.5407264e+2, -409974.44, -584911.9, -10406.062, -0.05412862, 0.5381375, -409357.6, 40781.09, 0.0, 10.000883, 9.998548 
2.0152138e+3, 2.6407123e+2, -345167.84, -599338.8, 70399.33, -0.044190273, 0.5911525, -326971.56, 25181.715, 0.0000000091701935, 10.00105, 9.9977045 
2.0152426e+3, 2.7406877e+2, -108925.17, -419452.22, 65933.6, -0.085230775, 0.5325705, -95505.56, 158671.36, 0.0000023642951, 10.001945, 9.997822 
2.0152712e+3, 2.8406602e+2, 25428.656, -256382.03, -25375.248, -0.06416409, 0.45744887, 27695.305, 183898.44, 0.000021595964, 10.001982, 9.99827 
2.0152995e+3, 2.9406315e+2, -1807.9163, -197113.88, -8123.962, 0.031446677, 0.28255603, -1470.574, 56758.055, 0.000083873885, 10.001028, 9.998451 
2.015327e+3, 3.0406517e+2, -20903.723, -260900.72, -1851.9336, -0.06252074, 0.6832016, -20889.432, -20889.432, 0.00020823472, 10.000927, 9.997731 
2.0153548e+3, 3.140622e+2, 245593.13, -73047.34, -1345.2095, -0.13347338, 0.533252, 245598.81, 245598.81, 0.00038333618, 10.002505, 9.998229 
2.0248286e+3, 1.2404384e+2, -2088416.8, -1870352.8, 28927.79, 0.07050156, 0.40537435, -1866580.6, -142175.16, 0.29983783, 9.997245, 10.000217 
2.0248537e+3, 1.3404351e+2, -1884818.0, -1538402.4, -59139.348, -0.2636468, 0.09558771, -1528584.5, 97823.5, 0.21537028, 9.997158, 10.002035 
2.0248842e+3, 1.4404902e+2, -1784311.6, -1611289.9, -81006.86, -0.02482741, 0.52815133, -1579283.9, -50931.082, 0.12892798, 9.997977, 10.000321 
2.0249115e+3, 1.540481e+2, -1603702.8, -1445358.8, -98750.74, 0.004616928, 0.35392573, -1397960.9, 32400.146, 0.05909158, 9.998451, 10.000554 
2.0249385e+3, 1.6404746e+2, -1531935.5, -1466568.1, -85718.61, 0.0158902, 0.28851232, -1407513.6, -75144.77, 0.018083457, 9.998725, 9.9995985 
2.0249662e+3, 1.7404796e+2, -1315731.6, -1304147.5, -94350.75, 0.07165435, 0.350752, -1215411.3, 18958.146, 0.0026487417, 9.999542, 9.999627 
2.0249933e+3, 1.8404861e+2, -1173401.9, -1126569.9, -86224.17, 0.07631088, 0.43530127, -1060638.8, 75727.125, 0.000052423693, 9.999545, 10.000193 
2.0250194e+3, 1.9404933e+2, -1187550.5, -1061912.3, -110310.09, -0.05364945, 0.44251087, -997788.25, 40569.906, 0.0, 9.998703, 10.000358 
2.025047e+3, 2.0404942e+2, -1199086.4, -1155058.6, -82568.555, -0.073671214, 0.47747067, -1091619.8, -151261.77, 0.0, 9.998549, 9.999123 
2.0250764e+3, 2.1404858e+2, -949202.3, -986334.3, -92088.06, 0.0381666, 0.457288, -873827.4, -31458.584, 0.0, 9.999612, 9.999087 
2.0251048e+3, 2.2404738e+2, -814447.0, -979462.2, -83745.43, 0.051291194, 0.48042768, -779392.7, -35009.754, 0.0, 10.000311, 9.9981365 
2.0251313e+3, 2.3404594e+2, -672123.4, -845752.06, -68485.1, -0.096348174, 0.48812297, -648362.2, -1962.8722, 0.0, 10.000578, 9.998237 
2.0251584e+3, 2.4404472e+2, -498984.38, -656571.25, -72907.78, -0.1378678, 0.52554053, -470428.16, 77983.914, 0.0, 10.000836, 9.998755 
2.0251864e+3, 2.5404373e+2, -340463.75, -506614.5, -102344.5, -0.064291745, 0.5063293, -291721.38, 158699.11, 0.0, 10.001172, 9.998941 
2.025215e+3, 2.6404238e+2, -280984.13, -550101.9, 1592.115, -0.022021424, 0.5354473, -280974.7, 71458.78, 0.000000001074916, 10.001417, 9.997868 
2.0252447e+3, 2.7404064e+2, -170087.3, -429417.3, 22781.432, -0.027374774, 0.53853416, -168101.22, 86350.49, 0.0000018159459, 10.001469, 9.997973 
2.0252737e+3, 2.8403828e+2, -6204.5874, -302209.6, -36790.453, 0.009791585, 0.5096987, -1700.4403, 154774.33, 0.000018189116, 10.001873, 9.9980135 
2.0253015e+3, 2.940351e+2, 213397.16, -109215.57, -69212.734, 0.058199022, 0.33138892, 227618.98, 286122.25, 0.000072171526, 10.00259, 9.998291 
2.0253298e+3, 3.0403516e+2, 235252.2, -186299.11, -7064.6606, 0.043447267, 0.55771905, 235370.56, 235370.56, 0.00017992329, 10.002826, 9.997368 
2.025357e+3, 3.1403404e+2, 211888.33, -78035.734, -25471.777, -0.10691366, 0.65734744, 214109.17, 214109.17, 0.0003356384, 10.002153, 9.998396 
2.0348273e+3, 1.2401706e+2, -2053633.3, -1847821.9, 90439.625, 0.14752917, 0.6871652, -1813727.9, -89050.6, 0.3135409, 9.997417, 10.000308 
2.0348516e+3, 1.3401559e+2, -1881860.5, -1557041.3, -27644.742, -0.21366021, 0.31298232, -1554705.3, 71982.78, 0.22593072, 9.997258, 10.001832 
2.0348825e+3, 1.4401644e+2, -1723113.5, -1531034.8, -69260.9, -0.042837825, 0.2641518, -1508665.4, 20011.338, 0.13594478, 9.998164, 10.000803 
2.0349097e+3, 1.540187e+2, -1574073.1, -1392619.3, -81940.12, -0.051455155, 0.37030405, -1361094.1, 69559.37, 0.06282382, 9.998482, 10.000914 
2.0349365e+3, 1.6401935e+2, -1525161.6, -1473313.9, -76104.04, -0.09669206, 0.4139974, -1418839.6, -86191.01, 0.019494196, 9.998807, 9.999515 
2.0349647e+3, 1.740194e+2, -1310632.4, -1307685.9, -54507.273, -0.045533065, 0.43801543, -1254632.0, -19979.268, 0.0029308582, 9.999591, 9.999581 
2.0349921e+3, 1.840195e+2, -1200203.8, -1194529.8, -121227.484, -0.03414448, 0.48788968, -1076106.0, 60548.402, 0.00006041413, 9.9996, 9.999703 
2.0350178e+3, 1.940191e+2, -1234769.1, -1143231.5, -133499.13, -0.107098304, 0.4392647, -1047873.5, -9215.169, 0.0, 9.998637, 9.999832 
2.0350455e+3, 2.0401864e+2, -1224735.8, -1180831.0, -61751.7, -0.105191916, 0.4545486, -1137245.8, -196582.08, 0.0, 9.998432, 9.999003 
2.0350765e+3, 2.1401837e+2, -975588.8, -1004201.9, -41366.58, 0.053257585, 0.49826917, -946124.7, -103455.82, 0.0, 9.999451, 9.999044 
2.0351055e+3, 2.2401777e+2, -808629.25, -899778.7, -79208.7, 0.07327977, 0.552184, -762819.75, -18143.426, 0.0, 10.000031, 9.998814 
2.035132e+3, 2.3401675e+2, -655343.25, -758867.4, -44139.203, -0.08074989, 0.5278323, -639079.0, 7607.671, 0.0, 10.000361, 9.998934 
2.0351592e+3, 2.4401538e+2, -558446.75, -720144.5, -71069.56, -0.16613843, 0.5277699, -531650.75, 17048.678, 0.0, 10.00058, 9.998445 
2.035187e+3, 2.5401354e+2, -389941.4, -575073.0, -79285.25, -0.13572405, 0.46165717, -360627.84, 90087.91, 0.0, 10.001017, 9.998551 
2.0352162e+3, 2.6401207e+2, -281482.2, -479664.3, -7142.7344, -0.07532602, 0.47022042, -281225.06, 71505.03, 0.000000023664393, 10.001129, 9.998481 
2.0352472e+3, 2.740113e+2, -151206.14, -341559.5, 38073.58, 0.05813335, 0.49387038, -143873.33, 110866.01, 0.0000019634658, 10.00126, 9.998676 
2.0352766e+3, 2.8401035e+2, -81047.875, -377192.4, -28953.09, 0.07804681, 0.5860089, -78243.77, 78505.08, 0.000016146072, 10.001538, 9.997657 
2.0353033e+3, 2.9400882e+2, 159734.98, -168485.36, -24068.18, -0.054910563, 0.61361253, 161490.5, 220251.88, 0.00006227005, 10.00235, 9.998008 
2.035333e+3, 3.0400366e+2, 104321.7, -321315.8, -49547.973, 0.052186687, 0.36057132, 110013.414, 110013.414, 0.00015436458, 10.002275, 9.996682 
2.0353596e+3, 3.1400192e+2, 148756.0, -49042.293, 100165.41, -0.11009393, 0.45371068, 190619.6, 190619.6, 0.00029089712, 10.00152, 9.998873 
2.044826e+3, 1.2398597e+2, -1985576.0, -1828224.6, 97235.945, 0.25001797, 0.5972369, -1781821.5, -56836.434, 0.3294151, 9.997954, 10.0001955 
2.0448512e+3, 1.3398787e+2, -1848421.3, -1503342.4, -7493.3423, 0.030829458, 0.52640754, -1503179.8, 123783.36, 0.23787552, 9.99728, 10.002313 
2.04488e+3, 1.4398624e+2, -1806831.1, -1543205.3, 16279.789, -0.07208236, 0.19420171, -1542203.8, -13227.673, 0.14372098, 9.997481, 10.001027 
2.044908e+3, 1.5398972e+2, -1547462.0, -1352111.4, -44953.42, -0.06628354, 0.39677915, -1342263.4, 88676.945, 0.06692591, 9.998539, 10.001175 
2.0449354e+3, 1.6399084e+2, -1484473.9, -1426288.3, -17718.229, -0.09080135, 0.4627325, -1421317.4, -88388.234, 0.021061258, 9.998967, 9.999757 
2.0449638e+3, 1.7399043e+2, -1361823.8, -1311136.1, 574.10095, -0.065361194, 0.41674367, -1311129.6, -76193.914, 0.003256253, 9.9991455, 9.999773 
2.0449917e+3, 1.8399027e+2, -1228287.8, -1266219.1, -48672.89, -0.025630435, 0.4548204, -1195016.0, -58076.32, 0.00007088071, 9.99967, 9.999173 
2.0450182e+3, 1.9398983e+2, -925420.94, -1059204.1, -88583.68, -0.04688529, 0.46165985, -881310.06, 157636.23, 0.0, 10.001059, 9.999231 
2.045046e+3, 2.0398913e+2, -817435.8, -1010099.2, -13261.327, -0.03818457, 0.49646905, -816527.3, 124427.9, 0.0, 10.001324, 9.9987955 
2.0450757e+3, 2.1398842e+2, -884603.06, -972248.9, -23834.672, 0.024610545, 0.51000327, -878540.7, -35576.625, 0.0, 10.000134, 9.998938 
2.0451048e+3, 2.2398771e+2, -851334.6, -905573.0, -44822.83, 0.041877095, 0.55291617, -826065.5, -81093.58, 0.0, 9.999668, 9.998959 
2.0451328e+3, 2.3398677e+2, -647154.3, -740013.1, -70872.31, -0.029780453, 0.5247631, -608857.25, 38123.582, 0.0, 10.000342, 9.999082 
2.0451607e+3, 2.4398546e+2, -517564.47, -699392.94, -91827.37, -0.081700526, 0.52082163, -479259.25, 69733.6, 0.0, 10.000842, 9.998466 
2.0451881e+3, 2.5398374e+2, -382286.22, -564996.06, -94278.39, -0.12120087, 0.46637592, -342362.28, 108645.7, 0.0, 10.001053, 9.998594 
2.0452172e+3, 2.6398224e+2, -276964.16, -484879.66, -13625.312, -0.07047721, 0.4727576, -276075.06, 76947.68, 0.00000011200642, 10.001162, 9.998434 
2.0452486e+3, 2.739812e+2, -176055.52, -364717.84, -52735.91, 0.099781245, 0.47791392, -162315.19, 92720.164, 0.000002326167, 10.001121, 9.998587 
2.0452781e+3, 2.839803e+2, -57411.926, -356354.88, -74959.766, 0.08802499, 0.58018094, -39668.9, 117375.664, 0.000014696717, 10.001654, 9.997742 
2.0453046e+3, 2.9397938e+2, 239633.34, -118675.945, -76153.17, -0.16005157, 0.66526926, 255146.86, 314198.6, 0.00005375532, 10.002873, 9.998089 
2.0453368e+3, 3.0397454e+2, 272988.72, -250587.66, -85673.8, 0.16593643, 0.44753078, 286651.16, 286651.16, 0.00013253847, 10.003467, 9.996586 
2.0453623e+3, 3.139709e+2, 423030.53, 114061.06, 6034.1177, -0.06699139, 0.36898643, 423148.3, 423148.3, 0.00025393235, 10.0032, 9.999198 
2.0548223e+3, 1.239525e+2, -2004348.5, -1921662.5, -5483.3394, 0.013406759, 0.32204166, -1921300.4, -195990.84, 0.3476065, 9.998174, 9.999456 
2.0548518e+3, 1.3396053e+2, -1748783.4, -1360226.5, -5275.264, 0.33002082, 0.7387614, -1360154.9, 267076.2, 0.2513395, 9.9973345, 10.003617 
2.0548755e+3, 1.4395848e+2, -1796043.1, -1543155.1, 45223.11, -0.30390683, 0.30547068, -1535311.4, -6061.6216, 0.15236652, 9.997578, 10.000979 
2.0549057e+3, 1.5396135e+2, -1528342.1, -1328828.1, 5397.2627, -0.16960528, 0.4368642, -1328682.3, 102536.84, 0.071473114, 9.99859, 10.001326 
2.0549345e+3, 1.6396207e+2, -1436288.4, -1362189.1, -23311.516, -0.1104719, 0.43528894, -1355465.5, -22255.488, 0.022826005, 9.999109, 10.000136 
2.054963e+3, 1.7396103e+2, -1334719.8, -1254861.1, 13312.904, -0.085256144, 0.2907982, -1252700.3, -17481.469, 0.0036400491, 9.999142, 10.000164 
2.0549917e+3, 1.8396078e+2, -1261042.6, -1351630.1, -12121.465, -0.042216297, 0.32794118, -1259448.8, -122225.68, 0.00008593674, 9.999729, 9.998566 
2.05502e+3, 1.9396135e+2, -973019.44, -1158529.5, -28205.33, 0.00954019, 0.5020302, -968825.8, 70398.375, 0.0, 10.001043, 9.998566 
2.0550476e+3, 2.0396075e+2, -857665.56, -1066262.4, -59215.918, -0.020763556, 0.5948698, -842027.8, 99206.52, 0.0, 10.001205, 9.9984665 
2.0550743e+3, 2.1395856e+2, -928795.06, -1027300.44, -57545.535, -0.14892845, 0.48979226, -902302.7, -59046.656, 0.0, 9.99997, 9.99864 
2.0551026e+3, 2.2395687e+2, -919985.3, -988346.0, -36214.395, -0.18172593, 0.46804288, -904368.25, -159095.1, 0.0, 9.999418, 9.9985075 
2.055133e+3, 2.3395585e+2, -703348.56, -813729.44, -32852.195, -0.054560043, 0.47559315, -694310.9, -47027.16, 0.0, 10.000159, 9.998663 
2.0551623e+3, 2.4395481e+2, -541095.94, -675194.7, -93342.81, -0.030359084, 0.5070886, -493217.06, 56076.68, 0.0, 10.000541, 9.998772 
2.0551892e+3, 2.5395396e+2, -386907.5, -522088.5, -72970.23, -0.1330467, 0.49738842, -355033.78, 96266.91, 0.0, 10.000837, 9.998989 
2.055218e+3, 2.6395258e+2, -365633.9, -602737.5, -24783.652, -0.14256503, 0.52436507, -363071.06, -9756.5625, 0.00000017468948, 10.000882, 9.997757 
2.0552488e+3, 2.739503e+2, -257254.64, -497869.5, -38363.266, -0.015981805, 0.48911878, -251286.11, 4053.684, 0.0000023499456, 10.000961, 9.997751 
2.0552781e+3, 2.8394824e+2, -98580.99, -356939.56, -44160.44, -0.11857088, 0.51011825, -91241.3, 66120.08, 0.000012296112, 10.001305, 9.997901 
2.0553054e+3, 2.939467e+2, 212418.78, -103137.12, -8654.921, -0.41244882, 0.49196625, 212655.98, 272030.34, 0.000044415407, 10.0025625, 9.9983425 
2.0553406e+3, 3.0394664e+2, 196525.14, -266013.8, -113765.86, 0.16248128, 0.730016, 222992.44, 222992.44, 0.00011238554, 10.002883, 9.996745 
2.055365e+3, 3.1394127e+2, 287635.38, 9291.914, -23125.826, -0.18366319, 0.44674042, 289543.7, 289543.7, 0.00022334591, 10.002482, 9.998806 
2.0648204e+3, 1.2392167e+2, -1888986.8, -1947969.3, 117768.38, -0.04259729, 0.16135891, -1797073.1, -71464.914, 0.36771804, 9.999312, 9.998711 
2.0648496e+3, 1.3393113e+2, -1562539.5, -1314654.5, -48947.25, 0.31420952, 0.7375571, -1305339.5, 322179.66, 0.26616043, 9.998893, 10.003335 
2.0648743e+3, 1.4392985e+2, -1843611.8, -1592080.8, 9059.931, -0.1496096, 0.40822154, -1591754.9, -62222.668, 0.1618756, 9.997341, 10.000766 
2.0649043e+3, 1.5393181e+2, -1614414.0, -1371128.0, -49571.86, -0.118708424, 0.45011625, -1361415.0, 70095.51, 0.07651462, 9.998002, 10.0013075 
2.0649336e+3, 1.6393241e+2, -1477361.9, -1406875.6, -85056.97, -0.08372675, 0.44724596, -1350049.4, -16546.705, 0.024829434, 9.998954, 9.999891 
2.0649628e+3, 1.7393127e+2, -1176669.8, -1212837.6, -121186.766, -0.052867256, 0.32397595, -1072225.1, 163288.1, 0.0041003036, 10.000391, 9.999841 
2.0649919e+3, 1.8393081e+2, -1109146.0, -1262023.9, -145756.1, -0.006570067, 0.35353005, -1021001.3, 116518.516, 0.000108260756, 10.000719, 9.99869 
2.0650205e+3, 1.9393148e+2, -1119472.3, -1203197.0, -122631.625, 0.023178335, 0.51797324, -1031754.6, 7764.9556, 0.0, 9.999939, 9.998783 
2.0650484e+3, 2.0393106e+2, -1025132.44, -1130477.3, -90280.16, -0.0007388165, 0.6131897, -973282.7, -31755.57, 0.0, 9.999985, 9.998607 
2.0650752e+3, 2.139291e+2, -707491.1, -908057.56, -81411.83, -0.12944047, 0.51906246, -678605.44, 164940.19, 0.0, 10.001441, 9.998744 
2.0651032e+3, 2.2392727e+2, -559721.4, -826566.5, -15931.526, -0.15469807, 0.48541373, -558773.6, 186789.44, 0.0, 10.001924, 9.998422 
2.0651338e+3, 2.3392573e+2, -599057.4, -771095.25, -9524.801, -0.034232717, 0.4483359, -598531.7, 49046.145, 0.0, 10.0009165, 9.9985895 
2.0651631e+3, 2.4392466e+2, -540520.9, -681507.75, -26603.959, -0.0011537301, 0.48392853, -535667.8, 13920.435, 0.0, 10.000573, 9.998713 
2.0651904e+3, 2.539243e+2, -325581.63, -497806.7, -63849.324, -0.11267871, 0.52915865, -304492.9, 147099.48, 0.0, 10.001283, 9.998939 
2.0652194e+3, 2.6392296e+2, -248990.92, -588643.75, -12511.691, -0.10443898, 0.5798423, -248530.66, 105075.83, 0.00000012472299, 10.001855, 9.997393 
2.0652507e+3, 2.739202e+2, -93169.82, -458799.16, -20842.068, 0.028184427, 0.5332817, -91985.586, 163650.39, 0.0000018192295, 10.00226, 9.9973955 
2.0652801e+3, 2.839177e+2, 19332.354, -259499.77, 14235.434, -0.06644909, 0.51101875, 20057.242, 177717.73, 0.000008845643, 10.001925, 9.9982815 
2.0653066e+3, 2.9391572e+2, -72039.586, -201037.19, 8251.206, -0.4028765, 0.41121635, -71513.95, -11837.489, 0.000033872344, 10.000441, 9.998693 
2.0653433e+3, 3.0391604e+2, -31432.857, -358035.06, 6841.2544, 0.24558093, 0.65999115, -31289.62, -31289.62, 0.00009226449, 10.0011835, 9.996971 
2.06537e+3, 3.139116e+2, 578688.75, 109958.5, -83502.36, -0.019345414, 0.45939955, 593120.06, 593120.06, 0.00019358228, 10.004614, 9.998507 
2.0748205e+3, 1.23895034e+2, -1914705.8, -2052061.8, 94288.79, -0.034390904, 0.26416454, -1866734.5, -140868.63, 0.38886976, 9.9995165, 9.997906 
2.074844e+3, 1.3389955e+2, -1666289.0, -1522768.6, -117489.79, -0.18064867, 0.51753443, -1456857.5, 170971.14, 0.28190908, 9.9990425, 10.001419 
2.0748763e+3, 1.4390014e+2, -1849478.1, -1630811.8, -12805.974, 0.23944397, 0.49882, -1630064.4, -100238.6, 0.17213808, 9.997455, 10.000446 
2.0749035e+3, 1.539009e+2, -1617472.8, -1380860.6, -14862.974, -0.028377278, 0.4356936, -1379930.6, 51885.734, 0.08207624, 9.998024, 10.00122 
2.0749323e+3, 1.639017e+2, -1522525.0, -1522691.4, -46253.71, -0.15624577, 0.49200916, -1476354.4, -142545.13, 0.027111659, 9.999044, 9.999053 
2.0749635e+3, 1.7390117e+2, -1241647.9, -1350510.1, -62164.805, -0.070539616, 0.5225642, -1213452.1, 22367.102, 0.0046569863, 10.000406, 9.998882 
2.0749927e+3, 1.8390046e+2, -1042176.9, -1146117.3, -178887.78, -0.04695952, 0.546907, -907863.06, 229966.13, 0.00014131474, 10.000816, 9.99944 
2.0750195e+3, 1.939001e+2, -1058799.1, -1067754.5, -146199.64, -0.09941715, 0.5152498, -917008.6, 122824.81, 0.0000000002137382, 9.999893, 9.999739 
2.0750476e+3, 2.0389989e+2, -1002829.1, -1056767.4, -56978.508, -0.1119205, 0.54972917, -966759.44, -24923.861, 0.0, 9.99986, 9.999175 
2.0750776e+3, 2.1389978e+2, -694715.6, -844042.06, -14838.178, -0.031457264, 0.5886792, -693255.5, 150580.08, 0.0, 10.001272, 9.999266 
2.075107e+3, 2.2389874e+2, -585830.5, -807276.56, -51215.77, -0.009545367, 0.59040153, -574559.1, 171284.72, 0.0, 10.001625, 9.99869 
2.0751345e+3, 2.3389633e+2, -618019.4, -755071.7, -35557.996, -0.06903084, 0.44428283, -609343.2, 38520.87, 0.0, 10.000694, 9.998801 
2.0751624e+3, 2.438948e+2, -613760.6, -768296.44, -16298.344, -0.13730988, 0.44154552, -612060.4, -62181.61, 0.0, 10.000296, 9.998247 
2.0751911e+3, 2.5389463e+2, -388412.16, -592402.25, -27350.043, -0.17448568, 0.56248254, -384808.84, 67076.02, 0.0, 10.00113, 9.998362 
2.0752217e+3, 2.6389334e+2, -298189.94, -622766.06, -11276.289, -0.10809041, 0.6526775, -297798.66, 56101.297, 0.000000021824269, 10.001573, 9.9972925 
2.0752539e+3, 2.7389047e+2, -125424.05, -467243.5, 7976.596, 0.1014111, 0.59747344, -125238.01, 130689.33, 0.00000084431264, 10.00202, 9.997452 
2.0752832e+3, 2.8388804e+2, -7715.3916, -226348.58, -52653.285, 0.044062108, 0.5571829, 4304.267, 162252.73, 0.000005133315, 10.001553, 9.998683 
2.0753086e+3, 2.9388592e+2, -77385.57, -180511.48, -29851.44, -0.28742546, 0.40291676, -69367.94, -9404.871, 0.000023723636, 10.000283, 9.998918 
2.0753445e+3, 3.0388287e+2, -110313.23, -383296.0, 99561.92, 0.2078923, 0.30546713, -77859.43, -77859.43, 0.00007269807, 10.000649, 9.997026 
2.0753753e+3, 3.1388262e+2, 405735.7, -12831.862, -21573.12, 0.019409759, 0.49190378, 406844.63, 406844.63, 0.00016061905, 10.003702, 9.998054 
2.0848206e+3, 1.23867296e+2, -2017403.3, -1912622.9, 167835.77, 0.08984397, 0.39350855, -1789190.5, -63052.473, 0.40993002, 9.99805, 9.999539 
2.0848416e+3, 1.3386841e+2, -1838261.5, -1712469.4, -227192.73, -0.2653431, 0.4104114, -1539627.3, 88507.61, 0.29801235, 9.998437, 10.000208 
2.0848756e+3, 1.4387016e+2, -1667559.3, -1576486.0, -9385.347, 0.37133363, 0.5790164, -1575528.9, -45406.895, 0.18298064, 9.99888, 10.000118 
2.0849031e+3, 1.5386961e+2, -1475707.4, -1370733.3, -50685.695, 0.06404834, 0.43247858, -1350255.1, 81872.06, 0.088167645, 9.999253, 10.000714 
2.0849319e+3, 1.6387042e+2, -1461911.1, -1431041.3, -27578.234, -0.10850401, 0.49510646, -1414872.4, -80752.24, 0.029713616, 9.99918, 9.999634 
2.0849624e+3, 1.7387122e+2, -1385508.8, -1338266.6, 58576.58, -0.128223, 0.58504117, -1298727.9, -62612.785, 0.005333032, 9.9990425, 9.999644 
2.0849922e+3, 1.8387103e+2, -1256122.1, -1233426.1, 469.56296, -0.09796718, 0.612021, -1233416.4, -95298.03, 0.00018960002, 9.999278, 9.999594 
2.0850205e+3, 1.9387011e+2, -951672.5, -1009240.44, -52837.586, -0.02286064, 0.51816, -920287.3, 119840.08, 0.000000020895914, 10.000606, 9.999798 
2.085049e+3, 2.0386957e+2, -833606.1, -994371.44, 228.01848, 0.018807845, 0.5277621, -833605.75, 108527.13, 0.0, 10.001139, 9.998977 
2.0850788e+3, 2.1386956e+2, -779760.8, -905318.0, -37248.645, -0.00095584977, 0.598379, -769542.06, 74591.51, 0.0, 10.000804, 9.999058 
2.0851079e+3, 2.2386865e+2, -699095.75, -835163.1, -116274.95, -0.0070281536, 0.6139388, -632413.3, 113727.33, 0.0, 10.000708, 9.998952 
2.0851357e+3, 2.3386645e+2, -547592.44, -685448.1, -118821.08, -0.022488786, 0.4564318, -479153.97, 169002.64, 0.0, 10.000996, 9.999146 
2.085164e+3, 2.4386483e+2, -460318.47, -755812.7, -27783.121, -0.063949026, 0.44996813, -457728.94, 92442.66, 0.0, 10.001598, 9.997711 
2.0851934e+3, 2.5386405e+2, -191395.63, -574252.94, -58320.77, -0.14772922, 0.5779816, -182708.72, 269477.25, 0.0, 10.002797, 9.99769 
2.085224e+3, 2.6386255e+2, -75208.45, -461334.2, -57199.83, -0.1009443, 0.6625276, -66913.2, 287289.94, 0.0, 10.00288, 9.9977665 
2.0852554e+3, 2.7385995e+2, -196955.1, -435195.53, -33752.098, 0.08195161, 0.5770247, -192265.66, 63958.516, 0.000000115745564, 10.001258, 9.99803 
2.0852849e+3, 2.8385743e+2, -116950.32, -324863.22, -46164.043, 0.10193281, 0.5148065, -107161.164, 51083.883, 0.0000020138657, 10.000983, 9.99828 
2.0853123e+3, 2.93855e+2, 235758.48, -76403.125, -119195.016, -0.059194185, 0.38627788, 276066.75, 336332.2, 0.000014504671, 10.002655, 9.998482 
2.0853467e+3, 3.0385274e+2, 327487.8, -151585.02, 65457.96, 0.2655365, 0.37268165, 336270.63, 336270.63, 0.000053403415, 10.003484, 9.99729 
2.0853779e+3, 3.1385234e+2, 290384.38, -50939.44, -178379.78, -0.029879833, 0.5294412, 366592.53, 366592.53, 0.00012565745, 10.002698, 9.9983225 
2.0948167e+3, 1.238364e+2, -1773503.3, -1490312.5, 286148.97, -0.18669026, 0.349583, -1312642.4, 413802.8, 0.42994058, 9.998184, 10.003943 
2.0948425e+3, 1.338375e+2, -1850967.5, -1747956.5, -212483.17, -0.07050115, 0.40769464, -1580825.5, 47614.137, 0.31401625, 9.998475, 9.999879 
2.0948718e+3, 1.438399e+2, -1677249.1, -1628295.1, -7247.608, 0.079630844, 0.6603268, -1627244.6, -96823.75, 0.19429262, 9.998998, 9.999717 
2.0949024e+3, 1.5383793e+2, -1527662.0, -1494954.6, -34838.746, 0.03084386, 0.45694417, -1472822.1, -40379.56, 0.094824284, 9.999333, 9.999781 
2.0949315e+3, 1.638385e+2, -1300488.1, -1136275.4, -46765.035, -0.10205029, 0.4633301, -1123891.4, 210544.58, 0.032688897, 9.999329, 10.001633 
2.0949598e+3, 1.7384145e+2, -1205952.6, -975094.44, 58338.316, -0.33087867, 0.5243075, -961189.7, 275210.66, 0.0061590113, 9.99907, 10.002137 
2.0949897e+3, 1.8384258e+2, -1275051.8, -1290351.1, 31424.0, -0.30405965, 0.5621018, -1250359.8, -111973.07, 0.00026052183, 9.999352, 9.9991665 
2.095023e+3, 1.9384153e+2, -1017476.0, -1137768.8, 4051.5718, 0.13751869, 0.53577703, -1017339.75, 23061.494, 0.00000016154512, 10.000568, 9.998934 
2.095053e+3, 2.0384018e+2, -927493.2, -1159986.5, -18451.703, 0.25031534, 0.55756646, -926037.9, 16380.858, 0.0, 10.001013, 9.997898 
2.0950787e+3, 2.1383835e+2, -885102.06, -1079534.8, -41102.258, -0.13716939, 0.5560458, -876770.25, -32329.771, 0.0, 10.000618, 9.997947 
2.0951062e+3, 2.2383685e+2, -717631.5, -813412.06, -116904.56, -0.2805564, 0.56048256, -639188.25, 107266.516, 0.0, 10.00045, 9.999224 
2.095137e+3, 2.3383597e+2, -544245.9, -633884.44, -97860.91, -0.017315846, 0.49099016, -481429.1, 167027.31, 0.0, 10.000802, 9.999594 
2.095167e+3, 2.4383467e+2, -544672.8, -860933.44, 3189.1401, 0.05561631, 0.51482064, -544640.7, 5827.057, 0.0, 10.0013, 9.997131 
2.0951962e+3, 2.538326e+2, -270878.47, -691863.3, 238.64253, -0.14112712, 0.58406955, -270878.3, 181617.03, 0.0, 10.002588, 9.996984 
2.0952256e+3, 2.6383057e+2, -57839.14, -353767.72, -117159.41, -0.23547071, 0.6123735, -17071.457, 337445.03, 0.0, 10.002584, 9.998642 
2.0952547e+3, 2.7382842e+2, -154024.89, -303452.66, -82073.99, -0.14429905, 0.46840107, -117750.914, 138777.6, 0.0, 10.001079, 9.999018 
2.0952849e+3, 2.8382578e+2, -256093.23, -526399.0, -11952.41, -0.03804876, 0.39333797, -255565.75, -97014.586, 0.00000039293647, 10.000617, 9.997071 
2.0953171e+3, 2.938231e+2, 110306.68, -268187.78, -30478.104, 0.1391643, 0.37264055, 112745.2, 173327.31, 0.000007667558, 10.002359, 9.997308 
2.0953496e+3, 3.03824e+2, 234805.72, -162216.22, 32496.63, 0.15719621, 0.7233542, 237448.02, 237448.02, 0.000037309004, 10.002761, 9.99754 
2.0953774e+3, 3.1381983e+2, 249131.38, 100536.3, -87898.25, -0.39488736, 0.47387606, 289926.1, 289926.1, 0.00009608347, 10.001772, 9.999771 
2.1048146e+3, 1.2380449e+2, -1718296.4, -1473024.1, 212879.6, -0.18442631, 0.4603213, -1349982.9, 376780.2, 0.44859928, 9.998503, 10.003924 
2.1048418e+3, 1.338056e+2, -1748012.9, -1613075.0, -235836.6, 0.014758073, 0.40123925, -1435246.3, 193510.83, 0.3298663, 9.998822, 10.000978 
2.1048684e+3, 1.4381012e+2, -1648258.6, -1593290.0, 1593.4929, -0.14934394, 0.80388105, -1593243.8, -62527.438, 0.20615475, 9.999122, 9.999883 
2.1049017e+3, 1.5380782e+2, -1579052.4, -1496252.5, 16457.139, 0.07412527, 0.5451359, -1493101.4, -60361.586, 0.10215144, 9.99892, 9.999945 
2.1049319e+3, 1.6380753e+2, -1390360.8, -1174358.9, 10008.114, 0.04421893, 0.453102, -1173896.1, 160844.22, 0.036114734, 9.998681, 10.001669 
2.104959e+3, 1.7381002e+2, -1221524.5, -973831.94, -80613.92, -0.29619783, 0.46079862, -949906.44, 286802.22, 0.007176738, 9.998931, 10.002203 
2.1049888e+3, 1.8381132e+2, -1290022.6, -1288060.1, -146956.64, -0.30990627, 0.50794333, -1142081.5, -3388.6345, 0.0003661867, 9.999206, 9.99925 
2.105023e+3, 1.9381079e+2, -1112662.9, -1171921.3, -124010.13, 0.12350633, 0.52799344, -1014791.44, 25910.59, 0.00000091193453, 9.999877, 9.999026 
2.1050535e+3, 2.0380962e+2, -1001679.5, -1202311.8, -80270.74, 0.24716291, 0.5646563, -973517.1, -30799.793, 0.0, 10.000486, 9.99788 
2.1050793e+3, 2.1380733e+2, -813404.7, -1057597.9, -45227.61, -0.13159294, 0.5221074, -805297.2, 39446.145, 0.0, 10.001113, 9.997889 
2.1051072e+3, 2.2380564e+2, -600682.5, -805891.9, -71709.32, -0.25743318, 0.5319622, -578107.5, 168652.69, 0.0, 10.001487, 9.998762 
2.1051382e+3, 2.3380482e+2, -428184.03, -632497.3, -147563.3, -0.014682501, 0.5218775, -350866.7, 297896.53, 0.0, 10.001855, 9.999079 
2.1051687e+3, 2.4380335e+2, -440950.78, -782531.4, -46006.87, 0.084590726, 0.54758036, -434862.72, 115913.48, 0.0, 10.001887, 9.997393 
2.105199e+3, 2.538008e+2, -433717.75, -727092.94, 5319.1113, -0.07074132, 0.5370557, -433621.34, 19183.564, 0.0, 10.001303, 9.997357 
2.1052283e+3, 2.637986e+2, -240414.81, -446004.06, -96575.38, -0.14945802, 0.5258486, -202164.98, 152661.66, 0.0, 10.001319, 9.998632 
2.1052563e+3, 2.7379674e+2, 19927.482, -230531.6, -165307.31, -0.12412954, 0.41966197, 102083.93, 358922.16, 0.0, 10.002297, 9.998941 
2.1052864e+3, 2.8379473e+2, 61508.477, -368051.03, -43855.684, -0.030871391, 0.41911215, 65940.18, 224795.42, 0.00000006547354, 10.002806, 9.9970875 
2.1053194e+3, 2.9379272e+2, 105970.18, -275626.5, -15913.302, 0.14203456, 0.47315875, 106632.65, 167512.47, 0.000004738257, 10.00239, 9.99723 
2.1053514e+3, 3.0379206e+2, 98726.87, -223921.25, 68428.79, 0.13384838, 0.6695148, 112639.65, 112639.65, 0.00002905632, 10.001782, 9.997589 
2.1053791e+3, 3.1378788e+2, 194665.73, 161496.86, -103433.28, -0.3436979, 0.41835195, 282835.7, 282835.7, 0.00007990105, 10.000983, 10.000578 
2.114815e+3, 1.23769514e+2, -2032055.5, -2077335.3, 73392.54, -0.114920914, 0.4824415, -1977890.3, -250778.38, 0.46656317, 9.998609, 9.99814 
2.1148391e+3, 1.3377278e+2, -1566918.8, -1339999.0, -163481.67, -0.16732498, 0.39651796, -1254462.9, 374623.16, 0.34608045, 9.998925, 10.0034485 
2.1148647e+3, 1.4378057e+2, -1578952.4, -1507083.6, -8794.212, -0.49697357, 0.9827975, -1506023.1, 24987.957, 0.21890919, 9.999325, 10.00043 
2.114901e+3, 1.5377909e+2, -1467918.5, -1312992.3, 10268.074, 0.07436092, 0.6906126, -1312314.6, 120705.72, 0.110347085, 9.999049, 10.0012455 
2.1149324e+3, 1.6377732e+2, -1501207.0, -1425877.4, 5473.302, 0.18708521, 0.45300213, -1425481.8, -90447.016, 0.040102176, 9.998799, 9.999844 
2.1149597e+3, 1.7377679e+2, -1385716.4, -1323289.4, -64804.684, -0.1306796, 0.39401135, -1282572.9, -45532.086, 0.008443992, 9.998966, 9.999776 
2.114989e+3, 1.8377693e+2, -1244658.1, -1206275.5, -138394.28, -0.25954992, 0.4348021, -1085748.3, 53291.313, 0.00052604213, 9.999259, 9.999785 
2.11502e+3, 1.9377773e+2, -1053512.6, -1037195.1, -92678.87, -0.16564408, 0.49596155, -952316.56, 88714.49, 0.0000034897541, 9.9998255, 9.999973 
2.1150506e+3, 2.0377772e+2, -953101.2, -1062465.6, -67838.555, -0.12496468, 0.54802465, -920650.1, 22380.469, 0.0, 10.000321, 9.9989195 
2.1150808e+3, 2.1377647e+2, -772628.44, -919511.06, -15342.148, -0.0981034, 0.50644207, -771043.06, 73999.34, 0.0, 10.000903, 9.99893 
2.1151106e+3, 2.2377498e+2, -731652.0, -1007237.56, -65668.33, -0.09303661, 0.5314352, -716804.06, 30253.088, 0.0, 10.0011835, 9.997524 
2.1151392e+3, 2.3377296e+2, -567241.56, -876077.75, -120089.84, -0.11296814, 0.555538, -526041.4, 123036.37, 0.0, 10.00166, 9.997499 
2.115169e+3, 2.4377081e+2, -415060.28, -662635.4, -72727.76, -0.122582234, 0.55833423, -395276.66, 155821.23, 0.0, 10.001609, 9.9983425 
2.1152005e+3, 2.5376844e+2, -369426.6, -553774.6, -7663.835, -0.054234155, 0.4313405, -369108.53, 84008.836, 0.0, 10.001139, 9.99862 
2.1152312e+3, 2.637663e+2, -348780.47, -593656.6, -75047.484, -0.0058540874, 0.39850995, -327610.72, 27525.734, 0.0, 10.000997, 9.997767 
2.11526e+3, 2.7376476e+2, -80378.42, -394346.9, -110065.195, -0.0006933525, 0.42975816, -45637.863, 211514.98, 0.0, 10.002105, 9.997906 
2.1152891e+3, 2.837639e+2, 57682.08, -288687.06, -66906.88, -0.09253913, 0.56002194, 70156.945, 229318.25, 0.00000005479561, 10.002432, 9.997812 
2.1153188e+3, 2.9376322e+2, 117491.84, -195149.86, -8978.546, -0.19010255, 0.64873886, 117749.484, 178915.02, 0.0000044706885, 10.002125, 9.997916 
2.1153516e+3, 3.0375674e+2, -54334.066, -325053.78, 11432.555, -0.072977334, 0.2519027, -53852.125, -53852.125, 0.000027145721, 10.000924, 9.997274 
2.1153826e+3, 3.1375638e+2, 24142.523, 29284.943, 51915.668, -0.16479261, 0.3815475, 78693.03, 78693.03, 0.00007500409, 10.000098, 10.00007 
2.1248151e+3, 1.2374024e+2, -1818190.8, -1909547.6, 115231.68, -0.00012025858, 0.7002742, -1739914.1, -12512.633, 0.48543465, 9.999699, 9.998788 
2.1248372e+3, 1.3374275e+2, -1587018.0, -1389118.6, -93922.836, -0.24224457, 0.519907, -1351640.5, 277742.88, 0.3637423, 9.99893, 10.0029545 
2.1248643e+3, 1.4374731e+2, -1647571.1, -1491853.9, -5958.9927, -0.4228099, 0.8026578, -1491626.3, 39712.668, 0.23315269, 9.998616, 10.000914 
2.1248996e+3, 1.5374815e+2, -1439839.8, -1221020.8, -35157.54, 0.073295474, 0.6634037, -1215510.8, 217812.23, 0.1197026, 9.998818, 10.002106 
2.1249317e+3, 1.637475e+2, -1520425.6, -1516303.9, 484.38837, 0.22603394, 0.5179571, -1516247.6, -180920.78, 0.044803485, 9.99901, 9.999134 
2.1249607e+3, 1.7374629e+2, -1339946.4, -1415871.3, 19309.377, 0.020755433, 0.4948378, -1335317.8, -97973.55, 0.01004214, 9.999772, 9.998756 
2.12499e+3, 1.8374588e+2, -1120825.6, -1150478.6, 1599.3586, -0.10768404, 0.53868365, -1120739.6, 18610.771, 0.0007722133, 10.000116, 9.999751 
2.1250193e+3, 1.9374613e+2, -981855.75, -994328.9, -34753.527, -0.22325437, 0.53556365, -952783.6, 88560.92, 0.000010944595, 10.000264, 10.000061 
2.1250498e+3, 2.03746e+2, -929206.6, -1014580.06, -53266.086, -0.22019783, 0.55679464, -903633.3, 39709.855, 0.0, 10.000359, 9.999215 
2.1250823e+3, 2.1374522e+2, -788241.4, -887228.25, -81030.336, -0.037473142, 0.52978915, -742784.75, 102564.18, 0.0, 10.00066, 9.999246 
2.125113e+3, 2.2374372e+2, -734244.1, -1024609.8, -95216.016, 0.052850705, 0.5432632, -705806.3, 41556.63, 0.0, 10.001216, 9.997398 
2.1251413e+3, 2.3374113e+2, -510765.7, -868091.1, -65217.418, -0.07598927, 0.5282268, -499234.63, 150155.28, 0.0, 10.002125, 9.997335 
2.1251707e+3, 2.4373884e+2, -301219.47, -600465.75, -14888.151, -0.11958277, 0.52152705, -300480.6, 250930.86, 0.0, 10.00237, 9.998399 
2.1252021e+3, 2.5373685e+2, -290185.4, -510221.97, -68182.77, -0.019456523, 0.4331951, -270770.63, 182655.39, 0.0, 10.00166, 9.9986725 
2.1252331e+3, 2.6373485e+2, -323207.56, -627266.5, -109182.164, 0.08169865, 0.43035346, -288064.1, 67380.23, 0.0, 10.0013895, 9.99734 
2.1252628e+3, 2.737329e+2, -175587.75, -495838.13, -133487.69, 0.09212944, 0.48067558, -127244.62, 130222.98, 0.0, 10.001725, 9.997384 
2.1252915e+3, 2.8373188e+2, -27600.639, -293088.88, -96038.086, -0.04028706, 0.6060449, 3497.5925, 162976.25, 0.000000117451826, 10.001661, 9.998174 
2.1253194e+3, 2.9373103e+2, -2733.6455, -196270.6, -112739.89, -0.28445446, 0.64463085, 49072.508, 110553.49, 0.0000050467984, 10.001047, 9.998435 
2.1253528e+3, 3.037244e+2, 55303.75, -189651.03, -13970.593, -0.026280837, 0.15823507, 56097.96, 56097.96, 0.00002697455, 10.001223, 9.998118 
2.125385e+3, 3.137269e+2, 148602.84, 36005.13, 6588.4976, 0.03838259, 0.5218525, 148987.05, 148987.05, 0.00007158717, 10.001079, 9.999709 
2.1348357e+3, 1.3371569e+2, -1807258.5, -1757180.4, -183050.0, -0.31109297, 0.83534443, -1597464.9, 32182.055, 0.38411817, 9.998975, 9.999515 
2.134867e+3, 1.4371035e+2, -1609105.0, -1458062.1, -18936.742, -0.08788748, 0.28027225, -1455724.1, 75975.46, 0.24951555, 9.998756, 10.001162 
2.1348977e+3, 1.537149e+2, -1400375.9, -1163720.6, -26208.63, -0.047729027, 0.46655858, -1160852.9, 272796.1, 0.13052814, 9.998906, 10.002532 
2.1349287e+3, 1.6371779e+2, -1473112.6, -1453260.1, 9100.076, -0.00033991568, 0.6343538, -1449720.1, -114100.64, 0.050404422, 9.999157, 9.9994955 
2.1349609e+3, 1.7371847e+2, -1309628.4, -1356221.4, 53153.777, 0.047794756, 0.76022124, -1274890.0, -37270.45, 0.012084308, 9.999788, 9.999156 
2.1349917e+3, 1.8371819e+2, -1151506.3, -1235658.5, 955.94147, 0.0009731803, 0.8194029, -1151495.4, -11870.315, 0.001155736, 10.000204, 9.9991255 
2.1350205e+3, 1.9371605e+2, -1040381.06, -1113157.3, -21118.826, -0.15899567, 0.65568954, -1034696.6, 6945.736, 0.000030850606, 10.000245, 9.999259 
2.1350507e+3, 2.0371433e+2, -988368.56, -1099230.8, -54597.15, -0.2030555, 0.58543223, -965995.7, -22339.105, 0.0, 10.000196, 9.998713 
2.1350831e+3, 2.1371332e+2, -849465.8, -967522.94, -59238.383, -0.04065267, 0.5831919, -824866.94, 20798.307, 0.0, 10.000462, 9.99879 
2.1351142e+3, 2.2371183e+2, -712063.94, -901905.4, -68936.52, 0.034928028, 0.57622963, -689672.3, 58005.844, 0.0, 10.000899, 9.998385 
2.1351443e+3, 2.3370934e+2, -460268.6, -718612.75, -20253.938, -0.020629076, 0.45414838, -458690.34, 191009.8, 0.0, 10.001931, 9.998457 
2.1351738e+3, 2.4370725e+2, -405108.28, -751226.94, -43460.67, -0.07647418, 0.44641876, -399734.53, 151984.42, 0.0, 10.002095, 9.997493 
2.1352033e+3, 2.537059e+2, -392063.88, -690043.44, -81521.17, -0.06850151, 0.5319051, -371219.47, 82513.0, 0.0, 10.00152, 9.997502 
2.1352336e+3, 2.6370388e+2, -383129.56, -688549.3, -109237.125, -0.027916158, 0.6058931, -348081.47, 7671.8745, 0.0, 10.001131, 9.997038 
2.1352641e+3, 2.737008e+2, -218396.64, -543097.6, -103260.6, 0.04160121, 0.55384463, -188340.19, 69446.13, 0.00000000014169585, 10.001539, 9.99715 
2.135293e+3, 2.8369808e+2, -102119.87, -338762.3, -125603.7, -0.085073724, 0.5367451, -47883.27, 111929.29, 0.000000256191, 10.001225, 9.99805 
2.1353206e+3, 2.9369602e+2, -25888.129, -195583.9, -98346.38, -0.2910159, 0.44097874, 19153.066, 80980.734, 0.0000052967753, 10.000827, 9.998544 
2.1353543e+3, 3.0369347e+2, 60176.746, 12529.455, -12386.63, -0.04784877, 0.27444613, 63204.445, 63204.445, 0.000025200057, 10.000478, 9.999829 
2.1353845e+3, 3.1369635e+2, -48269.86, -88415.32, 30367.598, -0.17370042, 0.4977781, -31940.592, -31940.592, 0.00006359548, 9.99996, 9.999345 
2.1448354e+3, 1.336858e+2, -1890553.6, -1856642.8, -80626.484, -0.19648638, 0.8225091, -1791208.1, -161271.05, 0.40760165, 9.998557, 9.998953 
2.1448675e+3, 1.4367925e+2, -1719144.6, -1592971.9, 81720.23, 0.14173032, 0.21206495, -1552820.3, -20818.873, 0.26811564, 9.9984455, 10.0002165 
2.1448965e+3, 1.5368345e+2, -1427795.1, -1294122.9, -36624.996, -0.05641459, 0.47651, -1284745.8, 149213.31, 0.14296411, 9.999262, 10.00135 
2.1449275e+3, 1.6368629e+2, -1367498.9, -1368740.0, -58926.12, -0.04671638, 0.69776624, -1309190.1, 26741.521, 0.057087187, 9.999765, 9.999778 
2.1449609e+3, 1.7368688e+2, -1251657.8, -1266007.3, -32768.81, 0.08545074, 0.7580739, -1225287.4, 12641.467, 0.014719365, 9.99995, 9.999684 
2.1449925e+3, 1.8368647e+2, -1189941.9, -1267027.5, -52707.66, 0.09261853, 0.78271735, -1163188.0, -23254.361, 0.0017550356, 10.000014, 9.9990015 
2.1450217e+3, 1.9368447e+2, -1010789.2, -1121520.0, -51912.605, -0.06995561, 0.6553688, -990258.3, 51692.58, 0.00008036648, 10.000568, 9.999039 
2.145052e+3, 2.0368269e+2, -903049.7, -1064454.6, -31306.96, -0.11067736, 0.5961366, -897189.94, 46776.492, 0.000000018813253, 10.000803, 9.998661 
2.145084e+3, 2.1368136e+2, -802626.7, -952302.5, -23711.531, 0.005526623, 0.56105113, -798960.1, 47018.66, 0.0, 10.00079, 9.998746 
2.1451154e+3, 2.2367999e+2, -677121.1, -830304.9, 5543.668, 0.08184195, 0.54834515, -676920.75, 71069.82, 0.0, 10.000904, 9.9988785 
2.1451464e+3, 2.3367848e+2, -498222.75, -669880.4, -10225.669, 0.051099315, 0.47369167, -497615.75, 152386.86, 0.0, 10.0014, 9.999043 
2.1451768e+3, 2.4367693e+2, -435043.78, -775806.8, -38567.0, 0.022972321, 0.48869845, -430733.34, 121283.305, 0.0, 10.001926, 9.997415 
2.145206e+3, 2.5367528e+2, -266841.88, -648043.2, -29780.06, -0.006458732, 0.5675577, -264529.44, 189504.4, 0.0, 10.002463, 9.997336 
2.1452358e+3, 2.6367298e+2, -176904.06, -603319.8, 5093.687, 0.00824257, 0.6255451, -176843.22, 179214.25, 0.0, 10.002587, 9.996929 
2.1452656e+3, 2.7366942e+2, -164472.1, -524822.94, -16967.018, 0.027451709, 0.53672016, -163674.97, 94418.31, 0.00000000016893417, 10.001943, 9.997081 
2.1452944e+3, 2.8366634e+2, -79643.75, -351753.78, -15356.581, -0.050806716, 0.49087486, -78779.84, 81343.02, 0.0000002738674, 10.001425, 9.997883 
2.1453226e+3, 2.9366422e+2, 31553.898, -166282.06, -31458.066, -0.17067562, 0.40925857, 36435.613, 98576.99, 0.0000047479944, 10.001214, 9.998549 
2.145356e+3, 3.0366457e+2, 255041.55, 161682.83, 55092.19, 0.06496735, 0.48697042, 280571.0, 280571.0, 0.000021563434, 10.001472, 10.000415 
2.145385e+3, 3.1366512e+2, 167784.86, 34581.785, -132572.5, -0.14945917, 0.44022888, 249545.16, 249545.16, 0.000054127435, 10.001284, 9.999558 
2.1548358e+3, 1.3365316e+2, -1720391.8, -1573098.5, -48026.617, -0.1179773, 0.4978959, -1558822.5, 71430.48, 0.43279883, 9.998695, 10.001164 
2.1548653e+3, 1.4365377e+2, -1827143.6, -1891851.9, 49798.336, -0.01748383, 0.55653054, -1800112.0, -267865.2, 0.28823382, 9.998749, 9.998024 
2.154896e+3, 1.5365393e+2, -1615102.9, -1690562.8, -2638.088, -0.082345895, 0.69656765, -1615010.8, -180758.4, 0.15688464, 9.999375, 9.998412 
2.1549276e+3, 1.6365321e+2, -1336676.9, -1348305.8, -57402.0, -0.07670668, 0.7195085, -1284795.6, 51466.004, 0.06501248, 9.999964, 9.999825 
2.1549605e+3, 1.736514e+2, -1212868.6, -1188673.4, -26139.3, 0.016611822, 0.49440768, -1171967.9, 66305.516, 0.018139776, 9.99997, 10.000204 
2.1549922e+3, 1.8365052e+2, -1152321.3, -1210586.6, -49832.484, 0.019438282, 0.42778322, -1123730.6, 16547.758, 0.0026903055, 10.000098, 9.9993515 
2.1550225e+3, 1.936513e+2, -986651.4, -1065164.1, -23435.207, -0.07408382, 0.53959817, -980188.25, 62082.664, 0.00019736934, 10.000544, 9.9994335 
2.1550532e+3, 2.0365109e+2, -895789.06, -1021903.75, -40755.31, -0.10263144, 0.5956089, -883764.94, 60508.098, 0.0000007869328, 10.000681, 9.999014 
2.1550848e+3, 2.1364915e+2, -800505.7, -914329.75, -17026.752, -0.012632009, 0.46730813, -798013.25, 48277.85, 0.0, 10.000639, 9.999082 
2.1551162e+3, 2.2364807e+2, -718894.25, -858107.2, 10501.532, 0.034336906, 0.46538937, -718106.5, 30194.883, 0.0, 10.000647, 9.998811 
2.1551476e+3, 2.3364837e+2, -533181.2, -699053.44, 20335.887, 0.027590092, 0.57811767, -530724.44, 119574.89, 0.0, 10.0012045, 9.998939 
2.1551788e+3, 2.4364755e+2, -443930.28, -707966.7, -27494.746, 0.02568301, 0.6431934, -441097.6, 111209.64, 0.0, 10.001573, 9.99804 
2.1552092e+3, 2.5364482e+2, -246924.95, -559434.5, 805.97186, 0.0598111, 0.5407726, -246922.88, 207409.28, 0.0, 10.002257, 9.998043 
2.1552388e+3, 2.6364183e+2, -225956.23, -626303.06, -20727.746, 0.024049435, 0.48935428, -224885.92, 131474.05, 0.0, 10.002258, 9.996926 
2.1552669e+3, 2.7363828e+2, -201166.83, -555901.0, -28757.373, -0.068808235, 0.4095391, -198850.66, 59543.324, 0.0, 10.001744, 9.996966 
2.1552955e+3, 2.8363565e+2, -162747.2, -417746.2, -37732.31, -0.11908588, 0.42543903, -157281.1, 3139.0547, 0.000000100631844, 10.001003, 9.997616 
2.155325e+3, 2.93635e+2, -40898.938, -245003.47, -8175.0107, -0.073967986, 0.5206646, -40572.027, 21856.717, 0.0000031808167, 10.000908, 9.998156 
2.1553567e+3, 3.0363613e+2, 85364.48, 10278.787, 37367.367, -0.05361723, 0.7401479, 100791.29, 100791.29, 0.000016664693, 10.000672, 9.999726 
2.1553853e+3, 3.136338e+2, 52143.992, -42374.2, -37849.35, -0.3383907, 0.42865258, 65432.363, 65432.363, 0.00004561872, 10.000607, 9.999346 
2.1648335e+3, 1.3362037e+2, -1748332.6, -1489052.6, -74345.94, -0.1424519, 0.3912852, -1469247.5, 161329.25, 0.45757636, 9.997898, 10.002671 
2.164865e+3, 1.4362474e+2, -1528547.8, -1744224.8, -94798.75, -0.0139953215, 0.7714408, -1492803.8, 39726.57, 0.3088363, 10.000952, 9.997985 
2.1648964e+3, 1.5362225e+2, -1495348.0, -1702688.9, -6915.048, -0.011550416, 0.69180727, -1495117.6, -60556.332, 0.17204043, 10.000533, 9.997747 
2.1649282e+3, 1.6361988e+2, -1393556.5, -1416633.4, 27888.313, 0.022857836, 0.6048241, -1374914.0, -38327.723, 0.07433442, 9.999702, 9.999488 
2.1649602e+3, 1.7361821e+2, -1220031.3, -1215653.0, 3061.6985, -0.004094459, 0.41518325, -1214078.3, 24517.469, 0.022589553, 9.999982, 10.000037 
2.1649916e+3, 1.8361755e+2, -1165799.5, -1196948.6, -39253.438, -0.008368179, 0.37334025, -1139143.8, 1454.591, 0.00413868, 9.999937, 9.999518 
2.1650234e+3, 1.9361848e+2, -1091964.1, -1102739.6, -57925.89, 0.015754348, 0.48475295, -1039176.0, 3414.6758, 0.00045452762, 9.999767, 9.999558 
2.1650547e+3, 2.036186e+2, -989413.6, -1039342.6, -61021.008, 0.03953923, 0.5586346, -948447.94, -3857.5212, 0.000007502901, 9.999903, 9.999273 
2.1650854e+3, 2.1361743e+2, -736402.75, -851208.94, -59807.39, -0.003840841, 0.48104465, -710908.1, 135694.19, 0.0, 10.000943, 9.99937 
2.1651167e+3, 2.2361688e+2, -635549.0, -800040.06, -34122.86, 0.012863712, 0.512223, -628751.3, 119856.914, 0.0, 10.001161, 9.99895 
2.1651492e+3, 2.3361722e+2, -672049.3, -755179.9, -36053.21, 0.103867404, 0.61733675, -658591.8, -7985.876, 0.0, 10.000208, 9.999027 
2.1651806e+3, 2.436164e+2, -655891.6, -781602.5, -34773.863, 0.1512965, 0.66873276, -646913.7, -94299.53, 0.0, 9.999972, 9.998314 
2.165211e+3, 2.5361377e+2, -410838.25, -590550.75, -48761.8, 0.0753756, 0.5424039, -398460.16, 56178.86, 0.0, 10.000946, 9.998447 
2.1652402e+3, 2.6361135e+2, -285536.4, -584604.75, -84168.32, 0.00094479404, 0.49284893, -263475.78, 93184.984, 0.0, 10.001529, 9.997569 
2.1652685e+3, 2.7360868e+2, -201376.02, -477860.1, -64436.367, -0.049261224, 0.43927827, -187096.23, 71586.89, 0.0, 10.001412, 9.997655 
2.1652976e+3, 2.8360608e+2, -68053.99, -393167.84, 7957.9404, -0.030473977, 0.42073354, -67859.32, 92848.21, 0.0000000029805467, 10.00173, 9.997439 
2.1653272e+3, 2.9360434e+2, 154593.28, -188363.69, -1379.7758, -0.016442621, 0.45270935, 154598.83, 217326.14, 0.000001345268, 10.002435, 9.997802 
2.1653587e+3, 3.0360544e+2, 268234.63, -85053.55, 38744.746, -0.0051677604, 0.7554903, 272433.8, 272433.8, 0.000010778314, 10.002701, 9.998101 
2.1653879e+3, 3.1360072e+2, 378607.25, 83546.25, -176662.53, -0.2460877, 0.39518774, 461239.5, 461239.5, 0.00003608632, 10.003023, 9.999033 
2.1748298e+3, 1.33589e+2, -1683789.1, -1442657.9, -54724.406, -0.3697974, 0.68289196, -1430819.5, 200073.56, 0.48078975, 9.998284, 10.003035 
2.1748666e+3, 1.4359283e+2, -1416088.5, -1503895.5, -39880.363, -0.029331323, 0.8743309, -1400679.6, 132166.2, 0.32934, 10.001261, 9.999562 
2.174898e+3, 1.5358847e+2, -1405353.8, -1511023.8, -28493.043, 0.05790532, 0.4729638, -1398160.5, 36724.895, 0.18832743, 10.000577, 9.999042 
2.174929e+3, 1.6358602e+2, -1419340.9, -1511900.9, 17584.057, 0.07059562, 0.34545165, -1416112.9, -79205.15, 0.0852701, 9.999874, 9.99875 
2.1749595e+3, 1.7358743e+2, -1258667.9, -1313584.1, 23438.367, -0.09870277, 0.53239566, -1250024.6, -11130.061, 0.028395085, 10.000056, 9.999318 
2.1749908e+3, 1.8358764e+2, -1170237.6, -1230350.1, -55190.07, -0.14336334, 0.62698257, -1137450.3, 3442.89, 0.006367479, 10.000036, 9.99924 
2.1750242e+3, 1.935858e+2, -1113219.4, -1142132.3, -59002.0, 0.08833696, 0.48647755, -1066928.6, -24016.955, 0.0009868387, 9.9997425, 9.999296 
2.1750562e+3, 2.0358497e+2, -998737.7, -1032066.44, -38579.457, 0.14836948, 0.47537348, -973377.3, -28456.34, 0.000047582707, 9.999781, 9.999386 
2.175086e+3, 2.1358603e+2, -747544.1, -829377.2, -12787.887, -0.06957253, 0.59579676, -745592.4, 101321.3, 0.00000000032497088, 10.000749, 9.999613 
2.175117e+3, 2.2358622e+2, -665313.9, -789091.1, -68412.94, -0.118118435, 0.6763987, -634950.0, 113962.99, 0.0, 10.000853, 9.999172 
2.1751502e+3, 2.3358473e+2, -686198.56, -739670.3, -62631.746, 0.16273181, 0.5780593, -644834.94, 6090.817, 0.0, 10.00002, 9.99922 
2.1751817e+3, 2.4358319e+2, -709470.9, -809927.94, -19197.25, 0.22725582, 0.5457702, -705927.25, -152986.63, 0.0, 9.999632, 9.998275 
2.1752107e+3, 2.5358185e+2, -446593.63, -613826.25, -1928.5388, -0.0614838, 0.55251676, -446571.4, 8385.261, 0.0, 10.000733, 9.998386 
2.1752399e+3, 2.635811e+2, -254571.27, -430487.44, -94402.75, -0.20781319, 0.6204969, -213500.27, 143462.73, 0.0, 10.001163, 9.9987955 
2.1752703e+3, 2.7358034e+2, -136185.52, -289950.88, -55463.336, -0.0442429, 0.61769056, -118267.734, 140694.94, 0.0, 10.001198, 9.999043 
2.1753001e+3, 2.835772e+2, -145819.8, -453055.25, 15224.237, -0.0018037878, 0.4782815, -145067.23, 15921.514, 0.0, 10.001318, 9.997216 
2.1753284e+3, 2.9357195e+2, 75669.13, -297981.1, 34108.832, -0.16710289, 0.19010492, 78757.26, 141797.3, 0.00000028754212, 10.002202, 9.997157 
2.175361e+3, 3.035712e+2, -32646.309, -549975.44, 15840.002, -0.07090891, 0.493121, -32161.76, -32161.76, 0.0000061263827, 10.00208, 9.995173 
2.1753931e+3, 3.13567e+2, 210519.28, -55005.543, -7750.352, -0.076997556, 0.45567518, 210745.31, 210745.31, 0.000027574106, 10.002146, 9.99849 
2.1848671e+3, 1.4355811e+2, -1843815.6, -1737694.5, -106034.375, 0.09247793, 0.7489817, -1672185.6, -139001.23, 0.34983045, 9.997914, 9.999465 
2.184901e+3, 1.5355381e+2, -1331415.0, -1384985.5, -140885.72, 0.29953665, 0.30074623, -1214790.9, 220431.67, 0.2059314, 10.000781, 9.999994 
2.1849279e+3, 1.6355462e+2, -1357089.0, -1472262.5, -83530.08, -0.029783107, 0.43826905, -1313218.9, 23994.424, 0.09816949, 10.000299, 9.998816 
2.1849595e+3, 1.7355558e+2, -1292024.5, -1341993.6, -42681.457, -0.08259714, 0.5966088, -1267552.6, -28345.623, 0.036017943, 9.999935, 9.999166 
2.184991e+3, 1.8355533e+2, -1191297.4, -1247917.4, -64981.34, -0.11440861, 0.6531252, -1148727.0, -7515.6836, 0.009796201, 9.999889, 9.999201 
2.1850242e+3, 1.9355315e+2, -1010515.5, -1093659.3, -66691.68, 0.102524325, 0.47686026, -973499.8, 69731.95, 0.0020521113, 10.000429, 9.999295 
2.1850564e+3, 2.0355237e+2, -904700.7, -1002210.44, -11361.498, 0.1939898, 0.47623184, -903394.44, 41846.37, 0.00020967671, 10.000513, 9.999235 
2.1850865e+3, 2.1355394e+2, -826373.1, -889107.06, -40431.64, -0.04809668, 0.66860527, -806567.75, 40663.223, 0.00000086887735, 10.000304, 9.999421 
2.1851175e+3, 2.2355404e+2, -730775.5, -831313.1, -112359.3, -0.10844619, 0.75796765, -657952.6, 91279.79, 0.0, 10.0004225, 9.999107 
2.1851504e+3, 2.3355162e+2, -500130.3, -644713.1, -143877.13, 0.15246573, 0.5694445, -411404.1, 239849.36, 0.0, 10.001287, 9.999261 
2.1851821e+3, 2.4355012e+2, -395302.88, -605264.0, -69064.23, 0.23960419, 0.5177803, -374622.03, 178645.34, 0.0, 10.001545, 9.998763 
2.1852116e+3, 2.5355035e+2, -408046.72, -539879.3, -30999.266, -0.022381537, 0.62811965, -401121.3, 54147.35, 0.0, 10.000729, 9.99891 
2.1852414e+3, 2.6355037e+2, -353985.75, -448875.1, -106930.38, -0.11579725, 0.73158, -284447.1, 72820.82, 0.0, 10.000337, 9.999077 
2.185272e+3, 2.7354917e+2, -159906.14, -279039.9, -174986.58, 0.048107103, 0.6670352, -34625.742, 224647.73, 0.0, 10.000933, 9.999259 
2.185302e+3, 2.835464e+2, -51947.72, -371118.47, -92298.05, 0.07304284, 0.5343511, -27179.031, 134116.7, 0.0, 10.00177, 9.997581 
2.1853308e+3, 2.9354194e+2, 182994.58, -224089.31, -57858.586, -0.15310028, 0.3047074, 191058.25, 254395.28, 0.000000027227998, 10.002818, 9.997382 
2.1853648e+3, 3.0353934e+2, 139269.58, -548919.5, 35287.78, 0.042191368, 0.44132856, 141074.27, 141074.27, 0.0000044959556, 10.003527, 9.994534 
2.1853967e+3, 3.135359e+2, 443347.28, 150243.0, 53314.363, 0.030117208, 0.571376, 452743.7, 452743.7, 0.000025056477, 10.0032015, 9.999468 
2.1948633e+3, 1.4351936e+2, -1860067.6, -1767399.5, -55371.74, -0.1630258, 0.4567034, -1741533.4, -207975.5, 0.371045, 9.997945, 9.999226 
2.1949048e+3, 1.5351747e+2, -1259260.1, -1251545.4, -111224.89, 0.5672079, 0.16437788, -1144111.0, 291470.2, 0.22535217, 10.000881, 10.001073 
2.1949245e+3, 1.6352582e+2, -1281777.0, -1325793.4, -125169.38, -0.4400694, 0.91827375, -1176695.8, 160806.45, 0.113554515, 10.000404, 9.999823 
2.19496e+3, 1.7352243e+2, -1273964.6, -1300671.1, -46824.88, -0.05218975, 0.6070885, -1238626.3, 909.60144, 0.046104282, 9.999926, 9.999454 
2.1949917e+3, 1.8352011e+2, -1156464.4, -1192738.8, -52165.656, -0.06938377, 0.42966217, -1119372.8, 22184.873, 0.015073848, 9.999961, 9.99955 
2.1950234e+3, 1.9352043e+2, -985416.6, -1035981.25, -42614.92, -0.043431748, 0.46692896, -961148.7, 82403.0, 0.004138987, 10.000411, 9.9997015 
2.1950556e+3, 2.0352075e+2, -958344.1, -1087608.9, -29424.781, 0.01753548, 0.5736332, -951961.25, -6411.2974, 0.00072646124, 10.000403, 9.9987 
2.195087e+3, 2.1352097e+2, -902070.06, -1000923.75, -41696.164, -0.066453956, 0.69999665, -886831.75, -39275.72, 0.000022642807, 10.000116, 9.998737 
2.1951179e+3, 2.2352028e+2, -796245.1, -896673.25, -94201.53, -0.121594846, 0.7580034, -739710.06, 9857.448, 0.000000000011542125, 10.000117, 9.998802 
2.1951501e+3, 2.3351781e+2, -539353.44, -687570.0, -100853.12, -0.03089964, 0.58284277, -488308.25, 163281.52, 0.0, 10.001115, 9.999049 
2.1951818e+3, 2.4351712e+2, -388978.25, -498819.16, -100924.49, 0.025701651, 0.5830557, -328998.72, 224596.64, 0.0, 10.00116, 9.999672 
2.1952134e+3, 2.5351915e+2, -363412.47, -399962.9, -54344.035, 0.058319088, 0.7678071, -324353.06, 131222.97, 0.0, 10.000529, 9.999964 
2.1952441e+3, 2.6351896e+2, -468239.6, -590655.2, -105636.9, 0.07961206, 0.82270914, -407359.1, -49781.164, 0.0, 9.999947, 9.998276 
2.1952736e+3, 2.7351496e+2, -263443.84, -439242.53, -136793.28, 0.092676215, 0.57455087, -188743.39, 70872.79, 0.0, 10.000717, 9.998243 
2.1953034e+3, 2.8351313e+2, -58632.727, -292873.56, -66030.75, 0.0027305784, 0.5598518, -41301.473, 120330.69, 0.0, 10.001397, 9.998288 
2.1953343e+3, 2.93514e+2, 197973.94, -118828.96, 1417.8069, -0.122536175, 0.770093, 197980.3, 261600.0, 0.000000020729713, 10.002505, 9.998254 
2.1953687e+3, 3.035088e+2, 114712.82, -414410.78, 28997.104, 0.016178451, 0.5477404, 116297.18, 116297.18, 0.0000055230016, 10.002781, 9.995782 
2.1953987e+3, 3.1350565e+2, 324367.5, 172459.75, 40208.61, -0.15403855, 0.54982525, 334353.88, 334353.88, 0.000029811183, 10.002144, 10.000078 
2.2048594e+3, 1.4348535e+2, -1516144.3, -1612837.6, 108150.09, -0.46601573, 0.3214937, -1446026.4, 87860.94, 0.39437363, 10.000679, 9.999077 
2.2049057e+3, 1.5348536e+2, -1473576.8, -1338141.8, 7575.609, 0.69619924, 0.26113814, -1337719.4, 98175.68, 0.24751917, 9.99899, 10.0012455 
2.2049245e+3, 1.634933e+2, -1340859.6, -1317425.6, -59532.37, -0.43614122, 0.937301, -1268468.1, 69353.38, 0.13222682, 9.999753, 10.000198 
2.2049607e+3, 1.7348976e+2, -1100418.0, -1219670.1, 2799.6897, -0.01507004, 0.6028538, -1100352.3, 139504.4, 0.059555795, 10.001134, 9.999471 
2.2049932e+3, 1.8348746e+2, -939412.94, -1063540.6, -14781.966, 0.026647964, 0.41831696, -937676.9, 204201.1, 0.023171267, 10.001383, 9.999767 
2.2050236e+3, 1.9348823e+2, -932508.25, -983238.4, -41899.484, -0.06871782, 0.4737684, -908894.2, 134972.52, 0.008108057, 10.000656, 9.999967 
2.2050554e+3, 2.0348856e+2, -959277.1, -1109243.4, 10297.969, -0.04044666, 0.5764621, -958573.25, -12709.452, 0.0021629941, 10.000479, 9.998526 
2.2050881e+3, 2.1348788e+2, -704901.94, -937356.75, 15123.458, -0.011047328, 0.6395943, -703922.1, 143955.77, 0.00023583506, 10.001589, 9.99847 
2.2051199e+3, 2.2348675e+2, -551482.2, -797077.2, -13270.352, -0.011965332, 0.67737156, -550767.2, 199126.5, 0.0000019906881, 10.001876, 9.998641 
2.2051506e+3, 2.3348527e+2, -596837.5, -738110.3, -46835.824, -0.056560077, 0.6178357, -582720.75, 69187.336, 0.0, 10.000803, 9.998866 
2.2051819e+3, 2.4348477e+2, -557717.5, -584682.7, -64745.492, -0.011147401, 0.6551081, -505065.7, 48846.855, 0.0, 10.000012, 9.9996395 
2.205214e+3, 2.5348583e+2, -460241.2, -433036.97, -121637.34, 0.13411275, 0.73801035, -324243.56, 131658.53, 0.0, 9.999865, 10.000031 
2.2052453e+3, 2.6348522e+2, -390171.88, -539677.1, -116510.45, 0.20405212, 0.7433287, -326495.3, 31413.209, 0.0, 10.00041, 9.998413 
2.2052749e+3, 2.7348208e+2, -45191.34, -328799.88, -75788.73, 0.09654221, 0.57254696, -26208.848, 233732.14, 0.0, 10.00216, 9.998326 
2.2053054e+3, 2.834814e+2, 135717.81, -184651.06, -658.57294, 0.014297619, 0.65897393, 135719.16, 297666.72, 0.0, 10.002669, 9.998416 
2.2053371e+3, 2.934824e+2, 49319.652, -167708.31, -45865.13, -0.012876772, 0.8832095, 58614.387, 122548.625, 0.00000007580395, 10.001395, 9.998452 
2.2053708e+3, 3.0347666e+2, -50361.34, -342671.94, 21843.578, 0.09794699, 0.5189718, -48738.043, -48738.043, 0.0000083740215, 10.000963, 9.997165 
2.2054018e+3, 3.134763e+2, 298154.03, 194744.7, -100976.62, -0.013455592, 0.68307084, 359893.84, 359893.84, 0.000042885644, 10.001778, 10.000401 
2.2148629e+3, 1.4345743e+2, -1534606.9, -1622910.9, -187686.8, -0.2813551, 0.4772451, -1385948.8, 148211.08, 0.4221777, 10.000689, 9.999182 
2.2149043e+3, 1.5345754e+2, -1554584.9, -1457097.5, 50582.12, 0.6276864, 0.6137304, -1435595.3, 568.1885, 0.27423543, 9.998931, 10.000243 
2.214927e+3, 1.6345666e+2, -1327493.0, -1322722.9, -25195.17, -0.21061708, 0.4785511, -1299800.1, 38375.563, 0.15564767, 9.999896, 10.000072 
2.2149615e+3, 1.7345762e+2, -1105761.0, -1229188.1, 50298.227, -0.09899698, 0.5905626, -1087860.0, 152309.17, 0.07778218, 10.001153, 9.999392 
2.2149949e+3, 1.8345748e+2, -937802.9, -1070618.6, -45698.273, 0.026591375, 0.6318251, -923598.5, 218572.63, 0.035576556, 10.001445, 9.999698 
2.2150244e+3, 1.9345643e+2, -941677.94, -980070.6, -62321.664, -0.0808455, 0.5035652, -895663.2, 148514.34, 0.0154146915, 10.000571, 10.00003 
2.2150552e+3, 2.034556e+2, -966214.3, -1094517.5, 34468.16, -0.140776, 0.47540238, -957540.94, -11356.652, 0.005714695, 10.000347, 9.998691 
2.2150898e+3, 2.1345448e+2, -719056.3, -926648.56, 67174.03, -0.0017066495, 0.47998533, -699215.94, 148982.22, 0.0013616167, 10.001416, 9.998626 
2.2151226e+3, 2.2345366e+2, -617438.6, -850528.7, -52529.09, 0.048999187, 0.54804313, -606147.6, 144061.56, 0.00013056793, 10.001521, 9.998444 
2.2151518e+3, 2.334537e+2, -640265.8, -784207.1, -77419.2, -0.044534203, 0.664014, -606531.7, 45679.707, 0.0000045921656, 10.00061, 9.998642 
2.2151819e+3, 2.434529e+2, -680521.0, -749638.4, -90607.39, -0.05507241, 0.72698647, -618105.44, -63884.363, 0.000000030624218, 9.999646, 9.998673 
2.2152139e+3, 2.5345033e+2, -563898.9, -595310.9, -115506.31, 0.1006154, 0.54690635, -463035.66, -6788.387, 0.0, 9.999651, 9.999012 
2.215245e+3, 2.6344895e+2, -387800.56, -441407.7, -73722.24, 0.116664946, 0.49508926, -336160.53, 22101.738, 0.0, 10.000028, 9.999266 
2.2152759e+3, 2.734503e+2, -7656.586, -175425.28, -760.5876, -0.052083354, 0.65067434, -7653.138, 252597.84, 0.0, 10.00185, 9.99952 
2.215307e+3, 2.8345087e+2, 6159.851, -321888.97, -47708.6, -0.11222638, 0.82583904, 12957.33, 175203.39, 0.0, 10.002129, 9.997718 
2.2153391e+3, 2.9344717e+2, -44294.414, -301833.94, -70540.12, 0.028818298, 0.6620818, -26239.246, 38041.637, 0.00000027397763, 10.001153, 9.997635 
2.2153716e+3, 3.0344275e+2, -12956.475, -143752.1, 34994.6, 0.010017232, 0.39260438, -4182.2153, -4182.2153, 0.000015050563, 10.000489, 9.998733 
2.215403e+3, 3.1344676e+2, 86806.67, -7198.9917, 55243.605, -0.11859325, 0.82012594, 112337.43, 112337.43, 0.00007034586, 10.0008135, 9.999454 
2.224865e+3, 1.4342e+2, -2139825.8, -1505297.8, -175773.14, 0.1510535, 0.33326393, -1459859.9, 74671.56, 0.45833316, 9.99408, 10.003249 
2.2249001e+3, 1.5342554e+2, -1380813.8, -1396339.1, -27703.602, 0.25488272, 0.6739995, -1359805.8, 76670.055, 0.30885017, 10.000378, 10.000053 
2.2249289e+3, 1.6342175e+2, -1222495.6, -1297633.9, -62251.785, -0.05588294, 0.2900203, -1187354.9, 151158.89, 0.18666483, 10.000903, 9.99979 
2.2249614e+3, 1.7342436e+2, -1314637.5, -1298313.8, -31095.186, -0.10118918, 0.5478572, -1274327.1, -33834.133, 0.103338934, 9.999513, 9.999688 
2.224995e+3, 1.834254e+2, -1319919.5, -1267077.4, -75639.14, 0.0514981, 0.69294494, -1213377.5, -70892.65, 0.054786276, 9.9987955, 9.999623 
2.2250256e+3, 1.9342402e+2, -903860.6, -977955.44, -108229.13, -0.020463018, 0.5464186, -826513.75, 217982.1, 0.028543482, 10.0008955, 9.999896 
2.2250566e+3, 2.0342278e+2, -734416.8, -954334.44, -19924.803, -0.06842979, 0.4749504, -732626.2, 213879.84, 0.013685946, 10.001859, 9.998915 
2.2250913e+3, 2.1342154e+2, -800770.4, -940125.94, -12891.843, 0.040013574, 0.4417045, -799587.75, 48930.594, 0.005262215, 10.000756, 9.998853 
2.2251241e+3, 2.2342049e+2, -757495.9, -921151.06, -90159.19, 0.10113494, 0.4764409, -717567.9, 32961.63, 0.001420654, 10.0005455, 9.998439 
2.2251533e+3, 2.3342016e+2, -445202.16, -690099.4, -115419.22, 0.0006104713, 0.55895895, -399379.4, 253155.56, 0.0002619265, 10.001933, 9.99866 
2.2251831e+3, 2.4341926e+2, -297230.34, -587736.8, -105817.94, -0.01899034, 0.619657, -262772.88, 291773.28, 0.000035642544, 10.0023575, 9.998494 
2.2252138e+3, 2.5341722e+2, -344877.44, -515701.16, -90625.734, 0.0757092, 0.51324505, -305757.34, 150811.17, 0.0000011567587, 10.001211, 9.998839 
2.225245e+3, 2.6341614e+2, -341663.44, -384151.5, 28248.02, 0.09742247, 0.4914757, -327562.63, 31018.527, 0.0, 10.000185, 9.999585 
2.2252767e+3, 2.734174e+2, -266292.75, -246427.86, 18672.748, -0.04303946, 0.6023833, -235210.23, 25360.246, 0.0, 9.999874, 9.999978 
2.2253086e+3, 2.8341827e+2, -220292.7, -359198.3, -5543.0747, -0.0579816, 0.75121754, -220071.86, -57509.09, 0.0, 10.000247, 9.998386 
2.2253413e+3, 2.9341552e+2, 186266.88, -108006.02, 53811.824, 0.070758305, 0.62613326, 195798.38, 260387.75, 0.00000073017384, 10.002392, 9.998365 
2.2253743e+3, 3.0341285e+2, 366089.44, 40492.1, 133367.78, 0.12930182, 0.46430594, 413743.56, 413743.56, 0.00002755439, 10.003057, 9.998791 
2.2254036e+3, 3.1341442e+2, 20872.037, -86968.055, -75384.3, -0.11661079, 0.72284555, 59635.13, 59635.13, 0.000118261974, 10.000512, 9.999098 
2.2348921e+3, 1.5338968e+2, -1380038.6, -1340786.8, -29133.438, -0.6149698, 0.5028181, -1325285.3, 111544.37, 0.35698506, 10.000127, 10.000759 
2.23493e+3, 1.63388e+2, -1271770.4, -1390760.0, -97809.06, -0.12062982, 0.32619447, -1216782.6, 122058.71, 0.23053116, 10.000868, 9.9991665 
2.234961e+3, 1.7338961e+2, -1292444.8, -1230617.8, -84163.875, -0.12717149, 0.451756, -1171869.6, 68961.68, 0.14104874, 9.999414, 10.000251 
2.2349931e+3, 1.8339102e+2, -1329775.5, -1281949.8, -32829.93, -0.08173835, 0.58791643, -1265247.0, -122425.44, 0.08532412, 9.998771, 9.999531 
2.2350268e+3, 1.9339094e+2, -938114.7, -1026888.25, -21503.484, 0.0003076187, 0.60070217, -933180.2, 111642.125, 0.05187056, 10.000816, 9.999593 
2.2350599e+3, 2.033903e+2, -753071.25, -943783.5, -52568.94, 0.017671859, 0.60118157, -739540.8, 207286.83, 0.030293982, 10.0016775, 9.999076 
2.2350918e+3, 2.1338882e+2, -804108.25, -905688.8, -48375.594, 0.006849795, 0.51449704, -784756.9, 64083.723, 0.015773455, 10.000582, 9.999174 
2.2351238e+3, 2.23387e+2, -797113.0, -919765.4, -60817.81, -0.017214658, 0.4504888, -772069.56, -21212.906, 0.0069356123, 10.0001955, 9.998607 
2.235155e+3, 2.3338468e+2, -458209.06, -669984.7, -50137.344, -0.04742638, 0.30220345, -446938.94, 205939.58, 0.002541045, 10.001727, 9.99889 
2.235185e+3, 2.4338388e+2, -330697.7, -556624.8, -149054.22, -0.08073729, 0.34443933, -256637.39, 298249.78, 0.00075579167, 10.001943, 9.998898 
2.2352138e+3, 2.5338623e+2, -341304.38, -446104.66, -127927.766, -0.060799647, 0.61307544, -255460.94, 201407.25, 0.00014769337, 10.000949, 9.999436 
2.2352439e+3, 2.6338658e+2, -443472.7, -482053.53, -13894.797, -0.050311647, 0.71919656, -438989.5, -80121.57, 0.000007045108, 9.999724, 9.999118 
2.2352768e+3, 2.7338344e+2, -335692.97, -336463.44, 15519.562, -0.019277578, 0.43887964, -320553.88, -59654.44, 0.00000000065814787, 9.999649, 9.999454 
2.2353096e+3, 2.8338346e+2, -176309.66, -150233.52, 31269.332, -0.031787954, 0.4487023, -129392.945, 33507.027, 0.0, 9.999782, 10.000024 
2.2353427e+3, 2.9338685e+2, 229950.3, 113638.92, 144974.56, -0.0462469, 0.73378503, 327998.7, 392864.88, 0.0000012574419, 10.0018635, 10.000122 
2.2353779e+3, 3.033855e+2, 89608.25, -316866.7, 39192.383, 0.14943202, 0.70622796, 93352.695, 93352.695, 0.000044073433, 10.002173, 9.996735 
2.2354043e+3, 3.1338143e+2, -155101.98, -213956.86, -53956.805, -0.15472881, 0.6228512, -123069.586, -123069.586, 0.00018419352, 9.999579, 9.998639 
2.2448976e+3, 1.533554e+2, -1368884.1, -1216412.4, -36539.613, -0.05782825, 0.5277685, -1208108.1, 229059.73, 0.42759266, 9.999361, 10.002641 
2.2449307e+3, 1.6335556e+2, -1347685.0, -1403186.9, -5577.9893, -0.048164707, 0.37022385, -1347129.9, -7972.252, 0.29616648, 10.000019, 9.999438 
2.2449619e+3, 1.7335615e+2, -1151922.9, -1225204.9, -77352.83, -0.029045055, 0.44411254, -1102971.8, 138186.44, 0.19952731, 10.000821, 9.999627 
2.2449939e+3, 1.8335672e+2, -1017973.2, -1113750.4, -25304.611, 0.020676885, 0.5291554, -1011698.7, 131458.0, 0.13536815, 10.000983, 9.999647 
2.2450279e+3, 1.9335714e+2, -923278.1, -994124.06, 4651.634, 0.02904345, 0.57014334, -922974.0, 122178.84, 0.09319166, 10.00083, 9.999857 
2.2450611e+3, 2.0335709e+2, -868247.5, -1020697.8, -24891.578, 0.03505501, 0.61492544, -864286.25, 82867.55, 0.06306426, 10.000902, 9.9989605 
2.2450933e+3, 2.133558e+2, -695786.56, -873151.06, -80374.48, 0.043416318, 0.5737317, -664783.4, 184383.28, 0.0400799, 10.001423, 9.999023 
2.2451247e+3, 2.2335418e+2, -583296.3, -776462.56, -70102.26, 0.028277984, 0.5259695, -560537.0, 190645.34, 0.023131557, 10.001504, 9.998981 
2.2451563e+3, 2.3335223e+2, -602346.6, -681666.3, -75090.875, -0.032875005, 0.36800423, -557085.6, 96114.75, 0.011994159, 10.000495, 9.999412 
2.245186e+3, 2.433515e+2, -595580.2, -692101.56, -173168.78, -0.06603257, 0.39549327, -464072.9, 91134.984, 0.0054928027, 10.000114, 9.998868 
2.2452141e+3, 2.5335336e+2, -368948.5, -462763.34, -218514.8, -0.111805774, 0.6243477, -192363.14, 264829.16, 0.002050329, 10.000768, 9.999419 
2.2452436e+3, 2.6335344e+2, -267341.78, -402528.4, -96414.94, -0.08310795, 0.7105007, -217186.66, 142007.17, 0.0004876709, 10.000937, 9.999091 
2.2452778e+3, 2.7335054e+2, -97539.0, -211769.47, -36743.414, 0.056116786, 0.45040575, -86740.84, 174482.14, 0.000047167257, 10.001239, 9.999551 
2.2453108e+3, 2.8335097e+2, -19191.758, -16736.43, -16727.984, 0.09083661, 0.47381726, -1191.1199, 162027.55, 0.00000034188096, 10.000594, 10.000561 
2.2453426e+3, 2.9335487e+2, -77302.71, 5717.7236, -37895.777, -0.11075725, 0.78339446, 20414.162, 85594.016, 0.0000013302117, 9.999535, 10.00053 
2.2453779e+3, 3.033531e+2, -204741.05, -398629.88, -66463.625, 0.07732456, 0.64869833, -184145.55, -184145.55, 0.0000584347, 9.999824, 9.997318 
2.2454081e+3, 3.1335065e+2, 397972.06, 224649.97, -70416.625, 0.13297027, 0.6973567, 422974.06, 422974.06, 0.00025945, 10.002521, 10.000249 
2.2549309e+3, 1.6332532e+2, -1397070.6, -1378574.0, -5043.661, -0.11904625, 0.53232014, -1377288.1, -37833.934, 0.39765337, 9.999467, 9.99985 
2.2549644e+3, 1.7332374e+2, -1261572.0, -1479864.1, -78328.414, 0.067330085, 0.51807547, -1236374.5, 5100.571, 0.29298013, 10.000763, 9.997829 
2.2549973e+3, 1.8332225e+2, -1061846.5, -1139517.3, -61747.32, 0.19427454, 0.50725, -1027737.25, 115755.59, 0.21888196, 10.000745, 9.999589 
2.255028e+3, 1.9332223e+2, -922442.25, -927826.3, -2969.8193, -0.057257585, 0.43030694, -921125.94, 124366.27, 0.16615056, 10.000588, 10.000535 
2.2550601e+3, 2.0332272e+2, -934611.5, -1098044.6, -16526.998, -0.20712356, 0.49267048, -932957.0, 14531.469, 0.12546477, 10.000621, 9.998543 
2.2550945e+3, 2.1332234e+2, -771310.56, -981604.5, -50527.86, 0.0026945958, 0.5957129, -759800.1, 89697.79, 0.0914258, 10.00124, 9.998345 
2.255127e+3, 2.2332194e+2, -629420.7, -777560.44, -99440.52, 0.059343897, 0.7012978, -579495.56, 172010.77, 0.062582165, 10.00113, 9.999168 
2.2551568e+3, 2.333225e+2, -593666.3, -617233.06, -100289.82, -0.049423076, 0.7350934, -504470.0, 149033.25, 0.039919913, 10.000288, 9.999976 
2.2551855e+3, 2.4332179e+2, -728029.94, -815865.44, -176327.94, -0.15719476, 0.76144314, -590232.75, -34721.816, 0.023601582, 9.999491, 9.998303 
2.2552142e+3, 2.5331882e+2, -454953.06, -562640.56, -183706.06, -0.21737199, 0.5524703, -317362.6, 140175.9, 0.012405956, 10.000457, 9.998869 
2.255244e+3, 2.6331684e+2, -334905.7, -420140.78, -111614.805, -0.18998718, 0.47382832, -258048.89, 101508.29, 0.005154125, 10.0004425, 9.9992 
2.2552791e+3, 2.7331832e+2, -125184.76, -156004.25, -16731.324, 0.03607028, 0.5856924, -117848.13, 143695.39, 0.0013586987, 10.000777, 10.000146 
2.2553115e+3, 2.833204e+2, -194533.25, -202163.08, -86692.35, 0.07904166, 0.77398115, -111571.914, 51951.49, 0.00015517221, 9.999872, 9.999614 
2.2553408e+3, 2.933203e+2, -200678.75, -147033.33, -58828.957, -0.2641908, 0.8003764, -109200.77, -43677.78, 0.0000026982873, 9.999169, 9.999617 
2.255374e+3, 3.0331638e+2, -114038.01, -69941.13, -6420.329, -0.36884716, 0.37297052, -69025.375, -69025.375, 0.000065484004, 9.999279, 9.999815 
2.2554116e+3, 3.133187e+2, 464474.8, 583921.5, 178059.9, 0.18087038, 0.6170521, 712007.1, 712007.1, 0.00034262822, 10.001644, 10.003127 
2.2649646e+3, 1.7328748e+2, -1121474.5, -1227166.3, -119345.03, 0.037793275, 0.37478253, -1043798.7, 198031.53, 0.44342524, 10.001055, 9.999927 
2.2649948e+3, 1.832906e+2, -1021052.25, -1221140.4, 63968.457, -0.19046426, 0.5225073, -1002349.6, 141451.83, 0.3585124, 10.00172, 9.998581 
2.265028e+3, 1.9328907e+2, -1044451.75, -1107311.1, -45113.813, -0.1044431, 0.46270984, -1020898.9, 24919.242, 0.29413474, 10.000225, 9.999272 
2.2650613e+3, 2.0328814e+2, -950144.6, -1021712.9, -32618.24, -0.09053966, 0.40933913, -937509.25, 10320.701, 0.24160613, 10.000038, 9.999398 
2.2650939e+3, 2.1328834e+2, -743881.7, -853819.3, 18718.639, -0.1309309, 0.4801288, -740781.94, 109050.16, 0.1940874, 10.001021, 9.999366 
2.2651264e+3, 2.232891e+2, -544462.56, -721848.3, 14426.195, -0.12321684, 0.63668054, -543296.94, 208532.08, 0.14888066, 10.001825, 9.999259 
2.2651573e+3, 2.3329143e+2, -453846.0, -565866.7, -61125.516, -0.0796787, 0.8805706, -426949.84, 226861.83, 0.108788945, 10.001465, 9.999827 
2.2651868e+3, 2.432913e+2, -430316.25, -621734.94, -77079.74, -0.06786356, 0.95926225, -403137.16, 152677.61, 0.07581198, 10.0013075, 9.9988 
2.2652158e+3, 2.5328764e+2, -259084.11, -415760.84, -27973.447, -0.11564475, 0.623112, -254239.47, 203606.39, 0.048806984, 10.001526, 9.999442 
2.2652452e+3, 2.6328507e+2, -292326.34, -490012.4, 41673.266, -0.123574756, 0.49438232, -283900.53, 75968.0, 0.026684597, 10.001046, 9.998469 
2.2652788e+3, 2.7328575e+2, -238682.06, -308747.88, 13754.329, -0.018980358, 0.6096305, -236078.73, 25784.895, 0.010897145, 10.000314, 9.999371 
2.2653106e+3, 2.832867e+2, -340728.3, -306625.25, -66291.13, 0.0705345, 0.7453009, -255227.75, -91373.2, 0.002788968, 9.998971, 9.999353 
2.265343e+3, 2.9328603e+2, 165478.08, 10219.772, 51905.348, -0.08993455, 0.7408157, 181232.27, 247090.86, 0.0003034348, 10.001784, 9.999444 
2.2653764e+3, 3.0328208e+2, 418226.16, 119873.47, 58459.223, -0.2367305, 0.304978, 429271.72, 429271.72, 0.000074942734, 10.003279, 9.999205 
2.2654146e+3, 3.1328186e+2, 393428.56, 303379.1, -89681.914, 0.2878977, 0.5444119, 448753.6, 448753.6, 0.00045627946, 10.002086, 10.001089 
2.2750652e+3, 2.0325753e+2, -990788.56, -984864.5, 7420.383, 0.2356316, 0.8301786, -979836.8, -31700.021, 0.4526298, 9.9995165, 9.999846 
2.2750947e+3, 2.1325722e+2, -795505.3, -695754.6, 30883.744, -0.18926887, 0.5937599, -686966.94, 163168.66, 0.38963944, 9.99957, 10.001749 
2.2751287e+3, 2.2325687e+2, -1090459.8, -1063843.8, -55020.027, -0.1512958, 0.4861789, -1020545.2, -268406.25, 0.32267725, 9.998149, 9.998596 
2.2751592e+3, 2.3325805e+2, -888109.25, -875383.1, -66821.695, -0.030780746, 0.6824165, -814622.2, -160486.34, 0.25840095, 9.998778, 9.99886 
2.2751892e+3, 2.4325864e+2, -564885.1, -640453.0, -63635.953, -0.03409787, 0.8762731, -528661.2, 27472.184, 0.20062341, 10.000162, 9.999191 
2.2752197e+3, 2.5325915e+2, -285816.16, -274868.88, -10150.436, 0.07141096, 0.7608444, -268810.3, 189310.94, 0.14660953, 10.000772, 10.000923 
2.2752473e+3, 2.63258e+2, -683037.0, -948203.25, -28214.787, -0.069473475, 0.7916958, -680068.06, -319938.97, 0.09444842, 9.999555, 9.995999 
2.2752775e+3, 2.7325368e+2, -468153.56, -642752.6, -22374.6, -0.2152708, 0.5996702, -465331.88, -203157.23, 0.04983968, 9.999739, 9.997309 
2.275308e+3, 2.8325084e+2, -512329.78, -405130.4, -99315.2, -0.13548128, 0.4734164, -345874.28, -181670.8, 0.019500945, 9.997915, 9.999154 
2.2753471e+3, 2.9325175e+2, 79622.86, 2889.6184, 159849.36, 0.15591225, 0.562054, 205645.45, 271834.38, 0.004786881, 10.001111, 9.999685 
2.275383e+3, 3.0324972e+2, -24879.201, -513194.38, -32670.508, 0.055538915, 0.42173445, -22703.094, -22703.094, 0.0007184054, 10.002139, 9.995357 
2.2754148e+3, 3.1324375e+2, -352490.6, -831106.75, -1537.8192, 0.052728727, 0.5994578, -352485.66, -352485.66, 0.0007782504, 10.000521, 9.993946 
2.285189e+3, 2.4322325e+2, -713470.94, -727900.8, 159583.05, -0.11872538, 0.47147924, -560939.8, -4469.622, 0.45869297, 9.998295, 10.000023 
2.2852194e+3, 2.532162e+2, -541697.9, -526021.25, -349878.72, 0.021581553, -0.04283722, -183893.06, 274650.16, 0.36361384, 9.999713, 10.000176 
2.2852439e+3, 2.6322803e+2, -346308.1, -530771.5, -287358.66, -0.48281026, 1.2013255, -136742.39, 223686.44, 0.26167566, 10.00087, 9.998508 
2.2852795e+3, 2.732233e+2, -24579.166, -306545.53, -42894.71, -0.1052757, 0.8414665, -18198.127, 244274.23, 0.1640845, 10.0025215, 9.9984 
2.2853093e+3, 2.8321746e+2, -245910.69, -440131.4, -70683.68, 0.10863511, 0.47417995, -222910.25, -58383.69, 0.0825175, 10.000333, 9.997806 
2.2853471e+3, 2.932164e+2, 267730.56, -10949.092, 232080.31, -0.020576987, 0.4678528, 399087.72, 465622.16, 0.030766618, 10.002739, 9.998923 
2.2853872e+3, 3.0321717e+2, 401371.66, -59343.188, -20821.938, 0.18684062, 0.5707909, 402310.8, 402310.8, 0.009050321, 10.003841, 9.997713 
2.2854148e+3, 3.1321305e+2, -225326.25, -253074.45, 158747.39, 0.08091723, 0.65497935, -79847.836, -79847.836, 0.003966084, 9.999115, 9.998567 
2.2952822e+3, 2.7318648e+2, -55804.727, 6702.621, -56772.203, -0.11794257, 0.50597775, 40255.39, 303090.94, 0.434636, 10.001077, 10.00252 
2.2953147e+3, 2.8318542e+2, -1325735.8, -1547078.3, -351671.84, 0.5003154, 0.53524035, -1067732.1, -902896.2, 0.25417706, 9.995559, 9.992425 
2.2953433e+3, 2.93184e+2, -51752.773, -355428.3, 395558.6, -0.7723847, 0.5909178, 220109.02, 286963.5, 0.12176558, 10.001629, 9.997018 
2.2953889e+3, 3.031882e+2, -266090.4, 34467.85, -148466.38, -0.16709566, 0.9884688, 95437.58, 95437.58, 0.05399963, 9.997606, 10.001265 
2.2954175e+3, 3.131854e+2, 414016.28, 1446053.4, -307308.6, 0.2583316, 0.14591727, 1530629.4, 1530629.4, 0.03147163, 9.997752, 10.011042 
2.3053476e+3, 2.9315296e+2, -621135.25, 493218.72, -336579.0, -0.4421095, 0.81519115, 586988.44, 654154.6, 0.36121994, 9.990888, 10.010893 
2.3054057e+3, 3.0315766e+2, 231489.33, 20433.342, 227788.39, 0.88712305, 0.31456804, 377006.56, 377006.56, 0.21502487, 10.002249, 9.999226 
2.305418e+3, 3.1314734e+2, 889584.6, -1172963.6, -182799.03, -0.5058789, 0.5778086, 905660.4, 905660.4, 0.16742057, 10.013894, 9.985838 
2.3473623e+3, 2.7536955e+2, -241381.42, -905553.94, -215465.81, -0.22333197, -0.37432125, -177605.58, 63743.68, 0.45051897, 10.002421, 9.993472 
2.3469585e+3, 2.8535643e+2, 792559.0, -461338.1, -257582.4, 0.1791723, -0.2719405, 843410.7, 986901.3, 0.3549797, 10.013308, 9.991 
2.3465665e+3, 2.9535547e+2, -183438.52, -414528.56, 903636.56, -0.83787256, 0.20222484, 612010.25, 657522.7, 0.27959839, 10.001132, 9.997306 
2.3462033e+3, 3.0533922e+2, -351966.47, -542080.44, -573795.9, 0.87073416, 0.16106577, 134592.86, 134592.86, 0.22592315, 10.000611, 9.996413 
2.3612598e+3, 1.7585333e+2, -1536365.1, -1376042.3, 21535.023, -0.1890534, 0.44913873, -1373200.0, -156571.83, 0.43641227, 9.997143, 9.999525 
2.3608679e+3, 1.858314e+2, -176907.02, -906354.3, 153552.3, -0.1541429, -0.65406746, -145901.39, 972940.94, 0.37760058, 10.01169, 9.995834 
2.360479e+3, 1.9583167e+2, -1008916.1, -1410521.6, 57669.125, 0.25407127, 0.3471648, -1000799.06, 20040.9, 0.33353612, 10.001329, 9.995894 
2.360085e+3, 2.0581488e+2, -874423.1, -949604.2, -140738.72, -0.39327073, -0.35054344, -766341.3, 156663.47, 0.30097803, 10.000378, 9.99895 
2.3597072e+3, 2.1580786e+2, -481629.28, -754306.5, 211191.3, 0.65327233, -0.29681537, -366591.72, 458482.6, 0.2781447, 10.00308, 9.99861 
2.359317e+3, 2.2580443e+2, 622810.06, -437898.28, 97109.91, 0.54937917, 0.4033199, 631627.4, 1358735.4, 0.26104888, 10.014043, 9.995164 
2.3589139e+3, 2.3578997e+2, 144965.73, -595960.3, 40019.13, -0.92502505, 0.05235352, 147121.0, 776369.44, 0.24563138, 10.008285, 9.995622 
2.3585254e+3, 2.4577986e+2, 17012.166, -469941.3, 58133.625, -0.4346695, 0.14965375, 23856.102, 555203.44, 0.23008795, 10.005389, 9.99723 
2.358136e+3, 2.5576624e+2, -1947706.0, -1207900.0, 64444.777, -0.23521952, -0.2348147, -1202328.1, -768847.5, 0.2098318, 9.98906, 9.999301 
2.3577407e+3, 2.6576215e+2, -870647.9, 22937.707, -212734.5, -0.35363224, -0.3224631, 70998.195, 406519.2, 0.17457722, 9.992514, 10.006067 
2.3573563e+3, 2.7576113e+2, -314041.28, -644931.9, 47963.12, -0.3997115, 0.0005174779, -307229.2, -69696.82, 0.12480152, 10.000577, 9.996244 
2.3569614e+3, 2.857504e+2, 982380.56, 133575.61, -510031.7, -0.11265988, 0.013601467, 1221491.3, 1361126.8, 0.081913434, 10.00904, 9.997071 
2.3565696e+3, 2.9574007e+2, -248510.36, -50089.67, 277303.84, -0.0377631, -0.5487519, 145216.73, 186948.6, 0.05543798, 9.998047, 10.000654 
2.3561865e+3, 3.0573732e+2, 264838.3, 505860.9, 220668.72, 0.014013429, -0.07632, 636780.8, 636780.8, 0.0399189, 10.000714, 10.0033865 
2.3720154e+3, 1.5625085e+2, -874977.75, -1768981.3, 375725.63, -0.14779475, -0.11934116, -738044.3, 670669.94, 0.40917477, 10.008889, 9.992952 
2.371627e+3, 1.6623724e+2, -1401665.1, -1347651.5, 40201.676, -0.97001266, -0.42596003, -1326227.5, -15376.553, 0.3191415, 9.998811, 9.999602 
2.371254e+3, 1.7623398e+2, -1683826.3, -1519948.8, -61493.67, 0.23279719, -0.05365403, -1499440.3, -286548.44, 0.25440004, 9.996466, 9.998988 
2.3708671e+3, 1.8622443e+2, -1497955.0, -1439554.1, -218822.1, 0.49469528, -0.12344114, -1247992.8, -133002.86, 0.20803122, 9.997492, 9.998294 
2.3704709e+3, 1.9621557e+2, -1001971.0, -1238971.4, -79941.73, 0.06845487, -0.12607855, -977527.2, 39551.188, 0.17323056, 10.000434, 9.997703 
2.3700744e+3, 2.062058e+2, -868270.94, -996820.3, 72424.38, -0.70777357, -0.16343687, -835713.2, 83459.336, 0.14628343, 10.000253, 9.9987335 
2.3696816e+3, 2.1619667e+2, -993788.1, -992927.0, -42377.664, -1.2126721, -0.24696496, -950977.7, -129719.61, 0.1255341, 9.998488, 9.9989605 
2.3692998e+3, 2.2618797e+2, -1077785.5, -1085362.8, -4927.9272, -0.57079273, -0.22384903, -1075358.1, -352015.5, 0.10829949, 9.997748, 9.997962 
2.3689209e+3, 2.3617658e+2, -1028286.8, -1003648.75, 14772.907, 0.4323337, -0.38564968, -996732.44, -371277.13, 0.09199208, 9.997331, 9.998094 
2.3685269e+3, 2.461696e+2, -516243.53, -441849.13, -114171.36, 0.51256925, -0.28151715, -358968.3, 168557.67, 0.07586676, 9.99909, 10.000502 
2.36813e+3, 2.5616387e+2, -218950.66, -540818.6, 71107.414, 0.17394473, 0.027721742, -203941.44, 225644.17, 0.059159197, 10.001879, 9.997709 
2.367735e+3, 2.6615718e+2, 281716.22, 125091.836, 155803.2, -0.09939048, 0.14014694, 377781.3, 709434.5, 0.040412202, 10.003011, 10.001198 
2.3673488e+3, 2.7614886e+2, -445369.44, -588092.06, 334781.47, -0.42388317, 0.057173982, -174428.16, 59306.78, 0.021718558, 9.999267, 9.997193 
2.3669553e+3, 2.8613815e+2, -134427.11, -229073.06, -348380.7, -0.35181063, -0.040955868, 169830.02, 305664.28, 0.00948949, 10.000182, 9.998466 
2.3665652e+3, 2.9612792e+2, 219683.38, 320110.94, 108856.12, 0.18350893, -0.52593195, 389776.6, 427701.88, 0.0043451684, 10.0007925, 10.001615 
2.3661774e+3, 3.06124e+2, 232684.5, 359553.63, -44311.88, -0.25012589, -0.14631419, 373497.9, 373497.9, 0.0025857294, 10.000748, 10.001882 
2.3824078e+3, 1.4664137e+2, -604761.56, -890730.7, -40654.863, -0.31072617, 0.10501765, -599094.2, 903805.6, 0.38968244, 10.00846, 10.002052 
2.3820147e+3, 1.566285e+2, -1195677.0, -1244117.1, -121860.734, -0.23837775, -0.7526773, -1095652.8, 309352.16, 0.27836236, 10.001073, 10.000432 
2.3816247e+3, 1.6661967e+2, -1580386.1, -1452702.1, 165504.95, -0.32552388, -0.862645, -1339152.8, -32059.453, 0.19862524, 9.997745, 9.999396 
2.381237e+3, 1.7661716e+2, -1543463.8, -1495996.3, 57676.895, -0.46033078, -0.38122115, -1457360.8, -248227.94, 0.1461588, 9.997718, 9.998525 
2.3808494e+3, 1.8661384e+2, -1208270.6, -1108022.6, 24328.918, -0.37363827, 0.11096269, -1102430.3, 8742.563, 0.11113541, 9.998696, 9.999984 
2.3804636e+3, 1.9660828e+2, -994609.7, -1075960.6, 1138.6322, 0.012054955, 0.2566033, -994593.75, 18636.791, 0.08556882, 9.999841, 9.999083 
2.3800778e+3, 2.0659705e+2, -1004529.75, -1237404.5, 49249.336, 0.30538613, 0.063703135, -994542.6, -79204.41, 0.065839775, 10.000076, 9.997101 
2.3796877e+3, 2.1658196e+2, -1127700.6, -1281356.4, -10104.259, 0.22434998, -0.44783193, -1127039.1, -309558.6, 0.050802168, 9.998634, 9.996884 
2.3792954e+3, 2.265741e+2, -901707.5, -643859.75, 25784.666, -0.11694504, -0.4456527, -641306.56, 78249.7, 0.038884565, 9.997575, 10.001039 
2.3789048e+3, 2.3656958e+2, -1144676.8, -896053.0, -17498.799, -0.2568722, -0.22054961, -894827.4, -273225.6, 0.028499383, 9.995995, 9.999451 
2.378511e+3, 2.4656475e+2, -571338.56, -354535.34, -78423.03, -0.2974658, -0.03450762, -329142.03, 194507.34, 0.019239577, 9.998372, 10.001327 
2.3781201e+3, 2.5655815e+2, -510199.3, -667438.6, 74921.02, -0.2799072, 0.038467377, -480217.8, -54504.0, 0.011432521, 9.999887, 9.997746 
2.3777296e+3, 2.6654908e+2, -105363.375, -367007.06, 26889.717, -0.22139037, 0.057787977, -102628.445, 225176.22, 0.005416997, 10.001771, 9.998183 
2.377342e+3, 2.7653685e+2, -565855.75, -733934.7, 133477.84, -0.32993227, -0.2517079, -492164.53, -262237.66, 0.001679893, 9.998887, 9.996372 
2.3769458e+3, 2.8652662e+2, 15210.375, -25109.938, -264644.94, -0.6213788, -0.3306818, 260461.92, 392485.28, 0.00032890253, 10.000672, 9.999626 
2.3765537e+3, 2.9652393e+2, -157928.88, -165986.38, 77325.64, -0.39615422, -0.07213433, -84527.1, -50484.71, 0.000101582686, 9.999475, 9.998957 
2.3761751e+3, 3.0651116e+2, -366164.13, -475731.78, 102564.88, -0.019152952, -0.20428123, -304668.9, -304668.9, 0.0001437013, 9.999067, 9.996922 
2.392798e+3, 1.3703202e+2, -1846457.6, -1230469.4, 429712.5, 0.22562955, -0.73551255, -1009773.44, 587316.2, 0.42782584, 9.995064, 10.006491 
2.3923972e+3, 1.4703679e+2, -1775688.9, -1586501.0, -20116.762, -0.5677616, 0.20869139, -1584385.6, -85357.06, 0.2998544, 9.99739, 10.000063 
2.3920059e+3, 1.570255e+2, -1640839.1, -1616078.9, -51890.14, -0.3117833, -0.1706794, -1575112.5, -173978.84, 0.19614406, 9.998126, 9.998958 
2.3916174e+3, 1.6701622e+2, -1380470.4, -1326438.1, 167615.75, -0.254101, -0.3111263, -1183675.3, 119545.266, 0.12585048, 9.998868, 9.999886 
2.3912305e+3, 1.770083e+2, -1297004.3, -1339962.6, 165629.69, -0.335715, -0.36120677, -1151466.9, 53829.64, 0.083471425, 9.999179, 9.998952 
2.3908435e+3, 1.8700135e+2, -1019752.1, -1105749.8, 99328.88, -0.23823789, -0.21650161, -954514.5, 152853.89, 0.057587944, 10.00036, 9.999236 
2.3904568e+3, 1.9699448e+2, -828413.25, -1056810.8, 50526.434, -0.062053982, -0.09718526, -817735.0, 191706.56, 0.03970386, 10.001249, 9.99854 
2.3900689e+3, 2.069858e+2, -718790.56, -990093.25, 42425.83, 0.0038281519, -0.06451377, -712310.8, 199217.34, 0.026570952, 10.001581, 9.99808 
2.3896793e+3, 2.1697553e+2, -591691.75, -892224.0, 84623.11, -0.023265231, -0.15505408, -569502.1, 244126.05, 0.017417854, 10.001744, 9.998061 
2.3892878e+3, 2.2696808e+2, -475627.5, -469358.4, 19951.23, -0.10374782, -0.13465773, -452297.0, 263401.94, 0.011141793, 10.00061, 10.000804 
2.3888962e+3, 2.3696116e+2, -678826.8, -670342.3, -14997.814, -0.22356702, -0.09708793, -658998.3, -41233.914, 0.0065593217, 9.999144, 9.999468 
2.3885025e+3, 2.469529e+2, -416224.1, -351791.4, -89254.49, -0.35766298, -0.20848097, -289117.0, 230724.5, 0.0032030866, 9.99971, 10.000684 
2.3881114e+3, 2.5694397e+2, -478187.13, -602135.2, 22569.566, -0.44307557, -0.33751357, -474205.38, -52280.297, 0.0011282732, 9.99987, 9.998165 
2.3877232e+3, 2.6693583e+2, -253499.31, -441848.9, 23018.72, -0.2667435, -0.22656174, -250726.94, 73278.69, 0.00023273825, 10.000775, 9.998131 
2.3873374e+3, 2.769265e+2, -161858.22, -313539.94, 154297.95, -0.13535069, -0.271902, -65769.76, 160330.28, 0.000018051116, 10.000652, 9.998369 
2.3869416e+3, 2.8691715e+2, 206744.13, 128289.8, -129376.77, -0.41693112, -0.38446665, 302709.88, 430900.16, 0.000004039042, 10.001652, 10.000212 
2.3865491e+3, 2.9691502e+2, 236028.22, -45643.223, 79587.805, -0.28477523, 0.017733544, 256960.61, 287168.25, 0.00001362104, 10.002306, 9.998451 
2.3861694e+3, 3.0689898e+2, 12741.013, -194322.11, 72723.08, 0.13709457, -0.30678862, 35729.92, 35729.92, 0.00005414364, 10.001088, 9.997972 
2.403176e+3, 1.274454e+2, -1393565.9, -1408313.4, 174497.81, -0.108177245, 0.5327708, -1226286.1, 464765.44, 0.49043512, 10.002651, 10.001631 
2.40278e+3, 1.3743642e+2, -1669861.9, -1591961.5, 3879.0266, -0.6222912, 0.090514116, -1591768.8, 1348.7332, 0.36336103, 9.998847, 9.999957 
2.4023889e+3, 1.4742862e+2, -1478491.0, -1630770.3, -63373.11, -0.51026773, 0.13297458, -1455568.0, 39624.656, 0.24041095, 10.00052, 9.998135 
2.4019988e+3, 1.5742111e+2, -1097527.1, -1465613.8, -55114.492, -0.23106474, 0.28899696, -1089451.8, 307821.06, 0.14389461, 10.0029335, 9.997568 
2.401611e+3, 1.6741116e+2, -936875.1, -1089090.1, 125689.9, -0.16377068, 0.12599309, -866046.25, 433315.03, 0.08188297, 10.0021305, 9.999954 
2.4012247e+3, 1.773992e+2, -1243502.9, -1339416.8, 64968.887, -0.12790108, -0.32713017, -1210708.1, -9244.365, 0.047678713, 9.999661, 9.998727 
2.4008377e+3, 1.8738957e+2, -1187902.8, -1269279.8, 73119.72, -0.098349765, -0.41502005, -1144913.0, -41354.332, 0.028905774, 9.999587, 9.998446 
2.40045e+3, 1.973815e+2, -1144808.3, -1298939.6, 34025.38, -0.09656151, -0.3364712, -1137631.1, -131986.19, 0.017015342, 9.999502, 9.997709 
2.4000593e+3, 2.0737535e+2, -868732.7, -899016.8, 39065.188, -0.2890556, -0.1048428, -841977.6, 65732.76, 0.00915297, 9.999929, 9.999484 
2.3996691e+3, 2.1736966e+2, -891644.75, -973928.25, 25533.408, -0.38994926, 0.13773592, -884365.44, -74595.414, 0.0045936005, 9.999511, 9.998575 
2.3992793e+3, 2.2736195e+2, -661671.3, -662668.25, -53072.984, -0.23948713, 0.14698887, -609094.44, 102748.19, 0.0022051786, 9.999824, 9.999824 
2.3988894e+3, 2.3735172e+2, -804397.44, -866414.9, -64856.254, -0.05775534, -0.06435812, -763518.2, -149581.08, 0.0009056362, 9.9989395, 9.998224 
2.3984961e+3, 2.4734047e+2, -426551.0, -410347.47, -74692.55, -0.21835549, -0.41126612, -343318.56, 172721.56, 0.00023937336, 10.000051, 10.000021 
2.3981038e+3, 2.573286e+2, -590370.3, -726409.7, -6852.9297, -0.44871393, -0.80750537, -590026.0, -171877.2, 0.000025130046, 9.999472, 9.997515 
2.3977165e+3, 2.6732266e+2, -165811.34, -249042.66, 41355.496, -0.27152818, -0.5226855, -148757.25, 171448.56, 0.00000030344088, 10.000842, 9.999381 
2.3973323e+3, 2.7731916e+2, -234203.83, -188131.97, 90649.02, 0.0061228345, -0.17916298, -117637.69, 104604.3, 0.000000006555133, 9.999532, 9.999787 
2.39694e+3, 2.8731057e+2, 81088.44, 76305.61, -100537.0, 0.011993671, -0.31718877, 179262.47, 303590.6, 0.00000087941476, 10.00086, 10.000194 
2.3965484e+3, 2.9730365e+2, -335259.13, -538199.94, 71641.05, 0.11539021, -0.27419785, -312517.28, -286119.4, 0.0000072209577, 9.999447, 9.996412 
2.3961611e+3, 3.0729184e+2, -15773.685, 131910.95, 178423.05, -0.1551673, -0.34821552, 251168.28, 251168.28, 0.00003484927, 9.99963, 10.000767 
2.4131724e+3, 1.278355e+2, -1447527.1, -1575720.8, -113407.0, -0.21192887, 0.31417337, -1381356.8, 305854.28, 0.44509998, 10.002709, 9.999376 
2.4127744e+3, 1.3782233e+2, -1709379.4, -1850231.6, -149316.81, -0.4950502, -0.26318422, -1614713.5, -25380.99, 0.31930807, 9.9995985, 9.997877 
2.4123847e+3, 1.4781554e+2, -1257607.6, -1448374.9, -4854.0264, -0.39668864, -0.07377364, -1257484.3, 233917.6, 0.20041417, 10.002081, 9.99871 
2.4119973e+3, 1.5780959e+2, -728828.4, -1271374.1, 4237.919, -0.2427597, 0.1869883, -728795.3, 664671.1, 0.110025235, 10.005624, 9.997697 
2.4116081e+3, 1.6779967e+2, -716145.5, -1131966.9, -47166.027, -0.12694961, 0.10155249, -710862.6, 584694.4, 0.054970514, 10.004312, 9.998553 
2.4112184e+3, 1.7778818e+2, -1160628.4, -1372660.5, -79748.016, -0.07410858, -0.1713893, -1133982.6, 63675.8, 0.027314784, 10.000519, 9.998096 
2.4108297e+3, 1.8777937e+2, -1104072.9, -1150502.8, 15600.048, -0.14910896, -0.21321365, -1099318.4, 425.8294, 0.013986388, 9.99977, 9.999196 
2.4104404e+3, 1.9777133e+2, -1051673.3, -1136692.9, 32628.824, -0.32244682, -0.19592658, -1040594.56, -38768.164, 0.006556314, 9.999579, 9.9987955 
2.4100515e+3, 2.0776427e+2, -852342.25, -797323.25, 15943.206, -0.3164852, -0.15284531, -793037.2, 110858.56, 0.002469395, 9.999617, 10.000363 
2.4096629e+3, 2.1775743e+2, -804084.5, -848278.8, 36846.78, -0.28761575, -0.0886235, -783216.94, 22745.121, 0.00078321603, 9.999659, 9.999397 
2.4092722e+3, 2.2775006e+2, -572128.5, -634053.06, -30281.74, -0.24166772, -0.069499165, -559782.0, 148252.17, 0.00023610769, 10.000396, 9.999782 
2.4088816e+3, 2.3774144e+2, -449719.56, -675663.2, 9480.159, -0.21760933, -0.11335999, -449322.5, 160795.8, 0.000047296035, 10.001191, 9.998463 
2.4084897e+3, 2.4773164e+2, -272924.47, -453982.38, -34670.156, -0.22793958, -0.2433231, -266512.66, 245698.97, 0.0000020598873, 10.00158, 9.999001 
2.4080993e+3, 2.577211e+2, -285187.16, -521447.88, 21397.633, -0.28591168, -0.42547098, -283264.88, 131046.195, 0.0, 10.001248, 9.998054 
2.4077111e+3, 2.6771384e+2, -111360.52, -162308.39, 35876.785, -0.19131345, -0.3230841, -92833.72, 223544.33, 0.0, 10.00093, 9.999945 
2.4073242e+3, 2.777086e+2, -124374.54, -75308.3, -11425.708, -0.07926998, -0.1752368, -72778.15, 145647.78, 0.0, 9.999882, 10.000427 
2.4069324e+3, 2.877e+2, -131905.92, -119306.76, -255781.22, -0.02091408, -0.29429176, 130252.445, 250764.73, 0.0000001537889, 9.999626, 9.999542 
2.4065416e+3, 2.9769266e+2, -234545.11, -505155.63, -53495.582, 0.12167689, -0.20125, -224353.67, -201764.55, 0.000003139397, 9.999984, 9.996436 
2.4061577e+3, 3.0768037e+2, 463124.13, 221225.22, 3889.4521, 0.05366836, -0.25377822, 463186.66, 463186.66, 0.000017282315, 10.003175, 9.999812 
2.423169e+3, 1.2822062e+2, -1637435.9, -1775813.6, -161231.25, 0.026702179, -0.22409487, -1531175.0, 152249.95, 0.4141129, 10.000847, 9.998553 
2.4227692e+3, 1.382108e+2, -1533615.1, -1874645.6, -140545.72, -0.27123547, -0.3508625, -1483158.6, 102364.25, 0.28877336, 10.00143, 9.996911 
2.4223806e+3, 1.4820363e+2, -1355820.4, -1519125.4, 103616.34, -0.25310892, -0.163446, -1305550.6, 182047.5, 0.17287979, 10.001135, 9.998732 
2.4219948e+3, 1.5819706e+2, -1345422.9, -1627438.9, -15622.715, -0.13381562, 0.04980583, -1344560.0, 45107.55, 0.08747846, 10.000868, 9.997524 
2.4216047e+3, 1.6818745e+2, -1139914.9, -1396955.9, -117707.586, -0.041909076, 0.019536542, -1094158.0, 197598.75, 0.038149297, 10.001451, 9.99805 
2.4212131e+3, 1.7817718e+2, -1101993.6, -1370562.9, -40555.94, 0.0640891, -0.07558541, -1096003.1, 97846.664, 0.01570925, 10.001078, 9.99781 
2.4208218e+3, 1.881692e+2, -950249.44, -1002777.4, 97485.66, -0.16523166, -0.071090214, -875551.75, 220375.52, 0.0064830934, 10.00054, 9.999813 
2.4204314e+3, 1.9816151e+2, -1104748.6, -1124729.1, 45872.95, -0.40848866, -0.07580555, -1067790.6, -69786.984, 0.0021827125, 9.999089, 9.999107 
2.4200436e+3, 2.08153e+2, -866512.94, -756207.8, 29459.045, -0.2791972, -0.22919823, -748833.3, 151248.88, 0.00044835047, 9.999319, 10.000772 
2.419657e+3, 2.1814427e+2, -952643.7, -907176.7, 14467.611, -0.035823766, -0.41469795, -902963.5, -100801.83, 0.000068581576, 9.998678, 9.999448 
2.4192654e+3, 2.2813793e+2, -735999.56, -676310.3, -33452.168, -0.18529159, -0.31343666, -661324.7, 42902.723, 0.0000096515805, 9.999299, 9.9999485 
2.4188733e+3, 2.3813176e+2, -831612.6, -908421.0, -27980.08, -0.35436803, -0.14203021, -822500.9, -216206.95, 0.00000040342232, 9.998922, 9.997937 
2.4184836e+3, 2.4812451e+2, -488870.63, -664675.56, -36480.79, -0.24408716, 0.044350535, -481601.2, 26767.363, 0.0, 10.000631, 9.997981 
2.4180955e+3, 2.5811636e+2, -471807.56, -704407.5, -1565.7755, -0.06601748, 0.17161459, -471797.0, -61346.684, 0.0, 10.000451, 9.997203 
2.4177054e+3, 2.6810652e+2, -186639.6, -176968.89, 9532.904, -0.11818922, 0.004137485, -171115.14, 141424.66, 0.0, 10.000429, 10.000026 
2.4173152e+3, 2.7809656e+2, -529818.44, -492210.97, -80898.34, -0.22987469, -0.28294507, -427959.78, -213331.36, 0.0, 9.998149, 9.998402 
2.4169214e+3, 2.8808773e+2, -321215.75, -359228.03, -257554.72, -0.31330436, -0.25317934, -81966.836, 34749.797, 0.0000000009564638, 9.99917, 9.998019 
2.4165317e+3, 2.980807e+2, -747649.3, -931808.9, 49893.027, -0.15256412, -0.029916393, -735000.9, -716208.7, 0.0000004799063, 9.99742, 9.994721 
2.416155e+3, 3.08069e+2, -114245.38, -432290.84, 46087.65, 0.09592465, 0.044036344, -107701.51, -107701.51, 0.0000055147566, 10.000981, 9.996328 
2.4331592e+3, 1.2861042e+2, -1651762.1, -1762263.6, -152053.84, -0.32209283, -0.30268416, -1545232.1, 134369.61, 0.39271495, 10.0006075, 9.998722 
2.4327631e+3, 1.3860479e+2, -1482463.1, -1859157.4, -73529.34, -0.39685652, 0.009970393, -1468619.3, 113039.01, 0.26710206, 10.001946, 9.996719 
2.4323742e+3, 1.4859408e+2, -1479425.1, -1783144.6, 35198.44, -0.28290695, -0.031676672, -1475399.4, 8368.365, 0.15331793, 10.000954, 9.996967 
2.4319871e+3, 1.5858276e+2, -1658555.1, -1784100.9, -48392.574, -0.16928189, -0.14269923, -1642067.1, -256184.33, 0.07196278, 9.998735, 9.997475 
2.4315971e+3, 1.685743e+2, -1118219.5, -1110833.9, -36529.156, -0.113603935, -0.22420408, -1077811.4, 210145.13, 0.027363949, 10.00039, 10.000551 
2.4312063e+3, 1.7856617e+2, -857557.9, -1098868.9, 71250.586, -0.13555494, -0.32202414, -838090.6, 351934.38, 0.009079448, 10.002112, 9.999159 
2.430815e+3, 1.8855879e+2, -881600.2, -1078050.6, 93619.33, -0.26561952, -0.22329986, -844131.75, 247968.31, 0.002868925, 10.001473, 9.998846 
2.4304241e+3, 1.9855134e+2, -1009082.06, -1121572.9, 54406.426, -0.43874368, -0.099350825, -987074.0, 7104.3784, 0.00059867656, 9.999875, 9.998764 
2.4300364e+3, 2.085428e+2, -821721.94, -769327.25, 45651.496, -0.26356447, -0.22582264, -742890.4, 153368.8, 0.000045539302, 9.999675, 10.000553 
2.4296494e+3, 2.1853401e+2, -837163.9, -854174.94, 17180.773, -0.04779195, -0.38592553, -826498.5, -28158.127, 0.0000022398012, 9.999398, 9.999466 
2.4292576e+3, 2.2852732e+2, -866768.2, -799933.8, -77173.945, -0.11098699, -0.2761715, -749252.7, -48842.605, 0.000000052409952, 9.998614, 9.999449 
2.4288654e+3, 2.3852101e+2, -955588.9, -892162.75, -40507.535, -0.25808525, -0.08660185, -872430.94, -269952.66, 0.0, 9.997681, 9.998648 
2.4284764e+3, 2.4851307e+2, -581302.1, -602040.8, 43514.336, -0.22868817, -0.043207176, -546938.7, -42382.043, 0.0, 9.999458, 9.999023 
2.4280883e+3, 2.5850457e+2, -233665.28, -469317.25, 86402.85, -0.17810452, -0.031905055, -205380.3, 201258.8, 0.0, 10.001443, 9.998361 
2.4276985e+3, 2.6849493e+2, -232002.1, -354098.1, -30218.633, -0.14463823, -0.11985067, -224932.38, 83798.93, 0.0, 10.00064, 9.998786 
2.4273084e+3, 2.7848503e+2, -372767.8, -447338.06, -102239.8, -0.104610756, -0.25406688, -301226.7, -90401.586, 0.0, 9.999199, 9.998232 
2.426916e+3, 2.8847587e+2, 80584.8, -122236.56, -103059.48, -0.17334512, -0.2690294, 123761.055, 236672.95, 0.0, 10.00157, 9.998559 
2.4265265e+3, 2.9846758e+2, 302353.22, -223888.95, 225722.08, -0.15282421, -0.21385917, 385906.56, 400899.4, 0.000000008678429, 10.003571, 9.996648 
2.4261485e+3, 3.084598e+2, -413591.1, -645647.4, 59174.324, 0.11184426, 0.25421372, -399372.8, -399372.8, 0.0000009202062, 9.998778, 9.996133 
2.4435452e+3, 1.1901024e+2, -1783058.3, -1592516.0, 16529.1, -0.32258642, -0.021787202, -1591092.8, 182588.02, 0.4945417, 9.99785, 10.002943 
2.4431509e+3, 1.2900034e+2, -1634699.6, -1796446.8, -146952.67, -0.48149866, -0.294073, -1547836.5, 127940.34, 0.3775347, 10.001025, 9.998272 
2.4427593e+3, 1.3899522e+2, -1501842.3, -1869362.9, -140204.23, -0.22828169, 0.104131885, -1454463.9, 123364.6, 0.25111946, 10.001773, 9.996754 
2.4423687e+3, 1.4898326e+2, -1499771.3, -1872569.9, -20628.826, -0.19930142, -0.028433999, -1498633.3, -18684.262, 0.13882844, 10.001157, 9.996242 
2.4419788e+3, 1.5896977e+2, -1518177.3, -1682558.0, 26803.818, -0.13128492, -0.28855076, -1513917.1, -131833.22, 0.060861234, 9.999598, 9.997727 
2.4415894e+3, 1.6896199e+2, -1034761.3, -891606.75, 39545.027, -0.177576, -0.43062332, -881409.25, 402739.16, 0.02025213, 10.000248, 10.002118 
2.4411994e+3, 1.7895529e+2, -1022803.7, -1123928.4, -22320.441, -0.22630349, -0.5229501, -1018096.2, 168104.4, 0.0052852775, 10.000736, 9.999673 
2.4408084e+3, 1.8894827e+2, -1034453.44, -1248469.1, -34977.7, -0.29029918, -0.36497906, -1028881.9, 59392.64, 0.0012089658, 10.000841, 9.998005 
2.4404177e+3, 1.989411e+2, -1072434.5, -1219521.4, -8336.405, -0.29137063, -0.13779135, -1071963.5, -81609.87, 0.00012403581, 9.999835, 9.998088 
2.4400288e+3, 2.089331e+2, -891504.75, -821491.2, 8671.716, -0.19730674, -0.19437008, -820433.06, 71998.484, 0.000001917801, 9.999428, 10.000215 
2.439641e+3, 2.1892466e+2, -1082206.3, -1078968.5, -45424.59, -0.030595127, -0.28693572, -1035133.94, -240621.86, 0.000000018702426, 9.998269, 9.998423 
2.4392495e+3, 2.2891714e+2, -866256.6, -886249.5, -132057.81, -0.025798405, -0.19633938, -743817.44, -47227.9, 0.0, 9.999006, 9.998631 
2.4388577e+3, 2.389095e+2, -886895.2, -903171.0, -55932.07, -0.050787177, -0.09040113, -838512.06, -239843.14, 0.0, 9.998403, 9.99822 
2.4384685e+3, 2.4890049e+2, -506607.72, -394028.38, 78768.19, -0.20420069, -0.26274687, -353504.03, 147248.89, 0.0, 9.999373, 10.000434 
2.4380806e+3, 2.5889114e+2, -579935.9, -686111.94, 30029.443, -0.34933192, -0.45901486, -572031.25, -169192.38, 0.0, 9.999406, 9.997836 
2.4376911e+3, 2.6888263e+2, -482028.25, -674076.25, -118803.42, -0.18568234, -0.31586778, -425294.72, -120367.82, 0.0, 9.999878, 9.996911 
2.4373022e+3, 2.7887398e+2, -579514.2, -663745.94, -89931.81, 0.11280863, -0.16931772, -522325.1, -315308.8, 0.0, 9.998381, 9.997148 
2.4369134e+3, 2.8886396e+2, 58168.668, 36563.73, 22037.006, 0.14403102, -0.38887957, 71908.47, 181012.13, 0.0, 10.000787, 9.999982 
2.4365239e+3, 2.9885444e+2, -225753.42, -405556.63, 181899.81, -0.058614366, -0.58812267, -112751.51, -101565.72, 0.0, 9.999797, 9.99721 
2.4361335e+3, 3.0884784e+2, -781045.94, -549954.06, 96109.445, -0.5398877, -0.25653812, -515207.34, -515207.34, 0.00000009984614, 9.995593, 9.998107 
2.453539e+3, 1.1939719e+2, -2182552.3, -2122354.0, 221195.89, -0.09398668, -0.3381715, -1929218.8, -159340.14, 0.48539782, 9.997415, 9.998326 
2.4531448e+3, 1.2938847e+2, -1650937.5, -1882565.9, -150723.94, -0.46686643, -0.2986353, -1576671.1, 95297.06, 0.36593348, 10.001224, 9.997497 
2.4527575e+3, 1.3937882e+2, -1465978.3, -1789966.5, -131356.47, 0.09132663, -0.29907048, -1419414.0, 154650.78, 0.23856215, 10.0018635, 9.997238 
2.4523635e+3, 1.4937063e+2, -1307467.8, -1487142.5, -37314.89, -0.12096427, -0.25234675, -1300026.4, 176120.05, 0.1275105, 10.00145, 9.998737 
2.4519697e+3, 1.5936175e+2, -1399686.6, -1558727.0, 74274.82, -0.38915518, -0.2548195, -1370394.1, 7839.537, 0.052560914, 10.00016, 9.998289 
2.4515803e+3, 1.6935244e+2, -1179540.8, -1237900.4, 64270.94, -0.39044526, -0.38151067, -1138135.8, 142181.39, 0.01541553, 10.000431, 9.999614 
2.4511914e+3, 1.7934339e+2, -1134900.0, -1266455.1, -62878.26, -0.38674244, -0.48862025, -1109681.0, 72716.77, 0.0031067657, 10.000326, 9.998894 
2.4508025e+3, 1.8933651e+2, -949735.0, -1056924.4, -59840.37, -0.24123341, -0.38932663, -922997.5, 161470.95, 0.00048131414, 10.000764, 9.999359 
2.4504131e+3, 1.9932976e+2, -888637.75, -1070599.9, -11426.922, -0.12363567, -0.23518431, -887923.0, 98617.38, 0.000015932997, 10.000802, 9.998627 
2.4500215e+3, 2.0932205e+2, -902277.94, -943225.2, -54450.98, -0.19105572, -0.19571011, -864578.7, 24039.047, 0.0000000054715246, 9.999832, 9.9991865 
2.4496303e+3, 2.193139e+2, -1007936.25, -1055806.5, -78587.305, -0.2776545, -0.16742939, -949720.0, -159021.56, 0.0, 9.998765, 9.998352 
2.449241e+3, 2.2930469e+2, -680706.75, -805256.75, -100653.64, -0.14702593, -0.23325798, -624620.75, 68168.766, 0.0, 10.000236, 9.998645 
2.4488516e+3, 2.3929533e+2, -398079.3, -652708.3, -61117.996, -0.041423887, -0.2832221, -384169.22, 210712.97, 0.0, 10.00157, 9.998441 
2.4484614e+3, 2.4928729e+2, -483628.3, -487154.78, -49338.96, -0.1911253, -0.29205805, -436021.1, 60940.74, 0.0, 9.999869, 9.9996195 
2.4480715e+3, 2.5927943e+2, -746359.2, -681585.7, -130231.94, -0.39250892, -0.28723344, -579773.9, -180734.8, 0.0, 9.99774, 9.998712 
2.4476837e+3, 2.6927158e+2, -449622.38, -495349.22, -134219.6, -0.15015541, -0.21551767, -336332.8, -35215.395, 0.0, 9.999256, 9.998506 
2.4472964e+3, 2.792636e+2, -14178.044, -223461.44, 3454.1401, 0.17769682, -0.14345095, -14121.051, 189075.58, 0.0, 10.0013685, 9.998761 
2.4469066e+3, 2.8925374e+2, 114659.9, 43979.926, 39958.67, 0.07345749, -0.36041966, 132664.17, 237946.66, 0.0, 10.001067, 9.99998 
2.4465163e+3, 2.9924396e+2, -144787.16, -267906.3, 21764.504, -0.16523181, -0.57386047, -141052.97, -133685.19, 0.0, 9.999647, 9.99829 
2.4461243e+3, 3.092381e+2, -321581.0, -105179.53, -76784.81, -0.4698478, -0.2125428, -80702.81, -80702.81, 0.000000000000427524, 9.997428, 10.00038 
2.4635307e+3, 1.1978516e+2, -1747278.4, -2032134.5, 234126.48, -0.19323307, -0.38515833, -1615660.9, 150415.83, 0.47722325, 10.001606, 9.997212 
2.4631396e+3, 1.2977637e+2, -1653516.6, -1876376.6, -173191.98, -0.34640983, -0.31152987, -1559004.6, 109161.664, 0.3557266, 10.001083, 9.997699 
2.4627537e+3, 1.397648e+2, -1733003.9, -1842430.8, -131400.88, 0.3622522, -0.5094718, -1645380.5, -75100.43, 0.22774403, 9.999279, 9.998119 
2.4623579e+3, 1.4975895e+2, -1351448.1, -1353018.8, -103137.39, -0.04551911, -0.36473852, -1249093.1, 223243.92, 0.11809006, 10.000369, 10.000277 
2.461962e+3, 1.597533e+2, -1230415.3, -1473228.4, -68183.96, -0.4812365, -0.17273901, -1212578.9, 161812.7, 0.04605504, 10.001336, 9.998322 
2.4615727e+3, 1.6974275e+2, -1120918.0, -1432195.8, 2079.1223, -0.48854926, -0.30478504, -1120904.1, 155586.2, 0.012013259, 10.001788, 9.997621 
2.4611846e+3, 1.79732e+2, -1028099.5, -1290102.5, -52003.195, -0.37689617, -0.41976252, -1018155.2, 160436.47, 0.0018483637, 10.001398, 9.998217 
2.4607967e+3, 1.8972488e+2, -899701.2, -930577.0, -95592.66, -0.1371938, -0.40628257, -818307.9, 262354.8, 0.00018026956, 10.000642, 10.000295 
2.4604082e+3, 1.9971824e+2, -1126808.3, -1195809.8, -104928.24, 0.10337115, -0.320447, -1050854.4, -68124.0, 0.0000007906511, 9.999261, 9.9985285 
2.460014e+3, 2.0971057e+2, -958569.75, -1078253.0, -118957.41, -0.17328607, -0.22258021, -885250.25, -441.8108, 0.0, 9.999945, 9.998238 
2.4596201e+3, 2.1970232e+2, -952410.2, -1107437.4, -62209.152, -0.43018976, -0.114448264, -930533.94, -143641.84, 0.0, 9.999629, 9.997572 
2.4592327e+3, 2.2969191e+2, -637905.9, -743978.3, -23157.365, -0.24473682, -0.30624086, -633070.7, 55920.94, 0.0, 10.0005865, 9.998796 
2.458846e+3, 2.3968157e+2, -661441.9, -887691.94, -56275.49, 0.007220708, -0.45185453, -648217.4, -57126.168, 0.0, 10.000366, 9.997377 
2.4584539e+3, 2.4967465e+2, -635267.4, -740620.44, -98503.44, -0.16996765, -0.22514969, -576240.1, -83072.45, 0.0, 9.999639, 9.997966 
2.458062e+3, 2.596681e+2, -850048.6, -750306.06, -95418.77, -0.35163516, 0.04099551, -692511.75, -297271.97, 0.0, 9.997214, 9.998473 
2.4576762e+3, 2.6966068e+2, -333890.7, -121316.26, -18618.959, -0.06479369, -0.06614018, -119697.79, 177610.08, 0.0, 9.998803, 10.0012245 
2.4572906e+3, 2.796534e+2, -271545.47, -271057.78, 50957.875, 0.2301217, -0.14884448, -220343.16, -20971.123, 0.0, 9.999437, 9.99934 
2.4568968e+3, 2.8964466e+2, -138810.36, -185363.78, 21126.342, -0.25046492, -0.239315, -130652.57, -29199.379, 0.0, 9.999924, 9.998902 
2.4565063e+3, 2.9963383e+2, -752232.6, -794278.5, -42338.535, -0.40356693, -0.3864594, -725984.94, -722429.06, 0.0, 9.996724, 9.9960375 
2.4561198e+3, 3.0962673e+2, -718937.6, -176669.56, -109662.56, 0.040703516, -0.16177507, -155332.16, -155332.16, 0.0, 9.994638, 10.001054 
2.4735254e+3, 1.2017442e+2, -1525557.1, -1617526.6, 154107.6, -0.37492007, 0.0014901286, -1410719.8, 351557.7, 0.46784633, 10.00252, 10.000175 
2.4731338e+3, 1.3016485e+2, -1591762.5, -1689549.0, -234792.48, -0.3038071, -0.21232119, -1400826.5, 263540.53, 0.34520847, 10.001074, 9.999213 
2.4727431e+3, 1.4015538e+2, -1896969.6, -1921679.9, -130255.13, 0.14134604, -0.31086543, -1778485.0, -212029.55, 0.21743059, 9.998197, 9.998081 
2.4723494e+3, 1.5014835e+2, -1456100.3, -1520464.9, -50186.06, -0.20180981, -0.20366117, -1428664.3, 39861.598, 0.109704144, 10.0001745, 9.999079 
2.4719563e+3, 1.6014135e+2, -1130981.5, -1419534.0, -58851.016, -0.55521375, -0.058469206, -1119440.3, 251155.14, 0.040704507, 10.002049, 9.99833 
2.4715689e+3, 1.7013104e+2, -889118.7, -1201097.0, -3777.7456, -0.43347737, -0.25007507, -889072.94, 383617.16, 0.00953522, 10.002855, 9.998713 
2.4711812e+3, 1.8012074e+2, -844703.8, -1175648.9, -65360.09, -0.2953235, -0.39581332, -832263.2, 342522.38, 0.0011160366, 10.002542, 9.9984455 
2.47079e+3, 1.9011354e+2, -965565.8, -1077892.6, -181181.0, -0.14232522, -0.31335983, -832042.94, 244815.94, 0.00006263998, 10.000695, 9.999256 
2.4703987e+3, 2.0010652e+2, -1160647.1, -1149050.3, -148403.95, -0.048705947, -0.1949861, -1006331.5, -27401.242, 0.0000000031066179, 9.998737, 9.999103 
2.4700074e+3, 2.1009734e+2, -722303.06, -802340.7, -39632.625, -0.15417007, -0.36479414, -705999.1, 175016.9, 0.0, 10.000818, 9.99976 
2.469616e+3, 2.2008795e+2, -432373.1, -754923.6, 22489.527, -0.3249094, -0.48196495, -430812.6, 352291.53, 0.0, 10.002664, 9.998559 
2.4692263e+3, 2.300797e+2, -454637.9, -697308.25, 7391.58, -0.3173694, -0.44435567, -454412.97, 230772.8, 0.0, 10.001926, 9.998523 
2.4688369e+3, 2.4007154e+2, -526562.4, -748705.56, -36748.89, -0.27741867, -0.3489473, -520640.88, 66626.71, 0.0, 10.000866, 9.998112 
2.4684457e+3, 2.5006393e+2, -479437.34, -605052.4, -28198.664, -0.24169244, -0.23430164, -473397.6, 15950.995, 0.0, 10.000333, 9.998624 
2.4680555e+3, 2.600564e+2, -393884.75, -427563.94, 71677.59, -0.2203896, -0.11478308, -337095.22, 54333.457, 0.0, 9.99974, 9.9995 
2.4676682e+3, 2.7004877e+2, -222323.25, -68398.66, 91446.586, -0.06749047, -0.24316415, -25838.268, 267660.47, 0.0, 9.999439, 10.001334 
2.4672808e+3, 2.8004208e+2, -225094.77, -155028.66, 48473.34, -0.0034803122, -0.2827319, -130253.86, 65305.023, 0.0, 9.999234, 10.00025 
2.4668889e+3, 2.9003474e+2, -161111.36, -174394.02, 36339.633, -0.28615272, -0.25041303, -130811.164, -33180.926, 0.0, 9.999502, 9.999282 
2.4665022e+3, 3.0002466e+2, -209605.25, -444236.94, 57870.28, -0.018257527, -0.33710554, -196108.34, -196108.34, 0.0, 9.999816, 9.997018 
2.4661098e+3, 3.1001478e+2, 236566.08, 315673.13, -18882.855, -0.08185843, -0.36050996, 319949.3, 319949.3, 0.0, 10.000614, 10.001728 
2.4835213e+3, 1.2056305e+2, -1697171.6, -1699807.6, 323292.7, -0.30901816, 0.024317982, -1375194.3, 383280.2, 0.4557152, 10.000556, 10.000854 
2.4831282e+3, 1.3055365e+2, -1416192.6, -1574449.8, -224177.55, -0.26684153, -0.18617505, -1257588.4, 402972.1, 0.33319858, 10.002414, 9.999491 
2.4827342e+3, 1.4054556e+2, -1364104.8, -1660724.4, -119818.87, 0.013221185, -0.16183747, -1321751.6, 240882.25, 0.20679392, 10.002295, 9.997964 
2.482342e+3, 1.5053715e+2, -1320042.8, -1591619.3, -15028.528, -0.2667658, -0.09935753, -1319213.6, 145505.56, 0.10179194, 10.001746, 9.997896 
2.4819517e+3, 1.6052851e+2, -1293871.8, -1491992.6, -39392.484, -0.4357694, -0.027177833, -1286326.6, 80479.664, 0.036105353, 10.000865, 9.99841 
2.4815647e+3, 1.7051898e+2, -1118569.9, -1199917.8, -42372.79, -0.3118422, -0.2217322, -1100508.6, 168384.7, 0.0076701324, 10.000838, 9.9996805 
2.481177e+3, 1.8050957e+2, -1154718.0, -1330783.0, -158179.23, -0.14389983, -0.34002504, -1061724.6, 109255.23, 0.000687035, 10.000498, 9.998341 
2.4807827e+3, 1.9050251e+2, -1072905.4, -1209205.5, -252133.3, -0.15039043, -0.20397535, -879874.2, 193178.44, 0.000019881356, 10.0004015, 9.998442 
2.4803892e+3, 2.0049499e+2, -1045188.7, -1072165.8, -88234.66, -0.116919495, -0.074148886, -969417.5, 5710.99, 0.0, 9.999498, 9.999225 
2.480001e+3, 2.1048455e+2, -751935.56, -658558.44, 27340.963, -0.086581685, -0.49656412, -651142.0, 226078.22, 0.0, 10.000002, 10.0010605 
2.4796128e+3, 2.2047445e+2, -831268.3, -934984.2, -11796.813, -0.093610235, -0.7973044, -829943.44, -50634.203, 0.0, 9.999915, 9.998624 
2.4792197e+3, 2.304684e+2, -727515.7, -875966.9, -53445.29, -0.36213398, -0.53535765, -710276.3, -28903.863, 0.0, 10.000244, 9.998105 
2.4788271e+3, 2.4046236e+2, -774029.3, -857366.75, -55334.484, -0.54081523, -0.20602515, -746429.06, -162992.06, 0.0, 9.999241, 9.998131 
2.478438e+3, 2.5045356e+2, -537646.56, -489484.22, -56547.535, -0.28498214, -0.32808813, -452103.8, 33420.926, 0.0, 9.999434, 9.999783 
2.4780495e+3, 2.604445e+2, -648485.06, -593532.25, 39426.766, -0.0022254477, -0.4409544, -572952.25, -185338.11, 0.0, 9.99833, 9.999022 
2.4776594e+3, 2.7043685e+2, -415190.34, -281776.06, 53921.594, -0.1433203, -0.49948406, -262708.03, 26979.586, 0.0, 9.998757, 10.000165 
2.477269e+3, 2.8042993e+2, -498557.63, -378004.1, 24861.744, -0.35245937, -0.44559008, -373078.16, -181324.11, 0.0, 9.997864, 9.99937 
2.4768826e+3, 2.904236e+2, -242499.69, -76898.03, 29595.678, -0.128997, -0.40055975, -71767.74, 22050.627, 0.0, 9.998552, 10.000317 
2.4765012e+3, 3.004169e+2, -532195.0, -509737.75, 56561.895, 0.63870543, -0.2637872, -463300.7, -463300.7, 0.0, 9.9974165, 9.997685 
2.4760965e+3, 3.1040722e+2, -23191.58, 306633.63, -48808.164, -0.7829839, -0.4654991, 313704.75, 313704.75, 0.0, 9.998508, 10.0026455 
2.4935147e+3, 1.209533e+2, -1925221.5, -2004440.1, 495342.0, -0.40633664, -0.032536857, -1467907.6, 286732.22, 0.4399176, 9.999893, 9.998654 
2.4931225e+3, 1.3094334e+2, -1425071.3, -1673275.6, -174676.22, -0.3594602, -0.18390627, -1334900.0, 321838.38, 0.31901658, 10.002844, 9.998335 
2.4927278e+3, 1.4093469e+2, -1328297.9, -1759666.5, -122408.44, -0.25124925, -0.10209128, -1295983.0, 262837.97, 0.19536594, 10.003152, 9.996828 
2.492337e+3, 1.5092409e+2, -1332504.8, -1681295.4, -51120.59, -0.2611548, -0.16981085, -1325166.6, 135759.81, 0.094030365, 10.002047, 9.99711 
2.4919473e+3, 1.6091366e+2, -1400010.8, -1589207.6, -61651.95, -0.27303287, -0.20298198, -1381694.0, -18664.082, 0.032013185, 10.000337, 9.99798 
2.4915576e+3, 1.7090563e+2, -1260818.0, -1292971.1, -52238.598, -0.31931758, -0.22368677, -1222238.1, 42869.758, 0.0062260167, 9.999967, 9.999443 
2.4911675e+3, 1.8089792e+2, -1211667.9, -1232343.4, -167946.63, -0.37570307, -0.18814316, -1053741.1, 113441.03, 0.00043419475, 9.999546, 9.99947 
2.4907747e+3, 1.908911e+2, -891272.8, -920267.9, -189883.08, -0.29405758, -0.1897519, -715334.6, 353914.63, 0.0000058323185, 10.000731, 10.000287 
2.490382e+3, 2.0088404e+2, -786717.0, -935102.25, -27087.193, -0.22785492, -0.13355188, -781926.94, 189391.61, 0.000000000090419006, 10.001159, 9.999371 
2.4899934e+3, 2.1087572e+2, -853270.8, -872917.94, 2368.0093, -0.14913192, -0.22145694, -852989.44, 20407.48, 0.0, 9.999918, 9.999655 
2.4896042e+3, 2.208672e+2, -963743.56, -914261.8, -81482.625, -0.15966408, -0.2880672, -853846.8, -78370.62, 0.0, 9.998572, 9.999406 
2.4892122e+3, 2.3085974e+2, -795058.56, -733529.7, -45548.066, -0.33105165, -0.29847142, -709329.8, -31783.139, 0.0, 9.998974, 9.999723 
2.4888201e+3, 2.4085219e+2, -677979.0, -705781.06, -31099.963, -0.48958597, -0.24444886, -657814.7, -78195.3, 0.0, 9.999358, 9.999114 
2.4884292e+3, 2.5084323e+2, -616579.6, -574771.9, -82478.74, -0.33838534, -0.3619027, -510589.25, -28881.357, 0.0, 9.998981, 9.999455 
2.4880393e+3, 2.608344e+2, -578743.25, -546603.06, -26206.861, -0.1805081, -0.42806378, -531931.56, -148136.34, 0.0, 9.998618, 9.999227 
2.4876504e+3, 2.7082777e+2, -360117.9, -308363.66, 36566.227, -0.22416587, -0.34379882, -289444.44, -3584.179, 0.0, 9.999232, 9.999824 
2.4872613e+3, 2.8082108e+2, -172169.05, -163364.03, 19962.584, -0.344199, -0.24690196, -147324.25, 40601.313, 0.0, 9.999669, 10.000012 
2.4868736e+3, 2.9081345e+2, -97657.12, 36526.066, -17878.135, -0.19280374, -0.35490456, 38867.246, 128866.85, 0.0, 9.999188, 10.000862 
2.4864908e+3, 3.0080673e+2, -151011.89, -214774.39, 29714.855, 0.42995885, -0.29664564, -139311.19, -139311.19, 0.0, 9.999408, 9.998779 
2.4860905e+3, 3.1079817e+2, 557786.06, 494663.44, -168581.6, -0.7418827, -0.29992068, 697735.3, 697735.3, 0.0, 10.002561, 10.002123 
2.50351e+3, 1.2133864e+2, -1800307.0, -2023235.8, 214277.22, -0.23809884, -0.23101416, -1670236.6, 80622.86, 0.42027465, 10.00058, 9.997695 
2.5031173e+3, 1.3133161e+2, -1486886.9, -1652821.3, -297567.38, -0.3649131, -0.1496047, -1260936.8, 391994.94, 0.30251706, 10.00197, 9.999164 
2.502723e+3, 1.4132334e+2, -1276137.4, -1729109.8, -161221.9, -0.2945549, -0.06833985, -1224615.5, 330396.53, 0.18302314, 10.003395, 9.996987 
2.5023326e+3, 1.5131152e+2, -1228200.6, -1680895.3, -89414.53, -0.18345621, -0.24606386, -1211179.8, 245948.44, 0.08629053, 10.002927, 9.996736 
2.5019425e+3, 1.6130045e+2, -1207604.9, -1515106.0, -34914.027, -0.06561506, -0.31291425, -1203690.5, 155547.33, 0.028287582, 10.00174, 9.99781 
2.5015503e+3, 1.712934e+2, -1175127.1, -1301013.6, -15304.345, -0.30930454, -0.21969332, -1173293.3, 88017.3, 0.0050760456, 10.000682, 9.999068 
2.5011584e+3, 1.8128657e+2, -1173174.9, -1121965.3, -83022.836, -0.4780521, -0.08822341, -1060688.6, 102691.27, 0.00028139996, 9.999473, 10.000261 
2.5007668e+3, 1.9128007e+2, -855491.25, -727722.8, -157873.61, -0.35201603, -0.19749023, -621297.7, 444143.6, 0.0000014559199, 10.000304, 10.001812 
2.5003758e+3, 2.0127347e+2, -930493.6, -1067932.0, -76412.88, -0.19462378, -0.1770767, -896444.8, 71060.02, 0.0, 10.000525, 9.998763 
2.4999854e+3, 2.1126738e+2, -881146.2, -1041370.6, -53759.496, -0.18814158, 0.07126587, -864780.1, 4789.7485, 0.0, 10.00054, 9.998161 
2.4995953e+3, 2.2126065e+2, -831417.06, -859539.6, -81013.33, -0.18232566, 0.2997764, -763253.75, 8384.528, 0.0, 9.999607, 9.999288 
2.4992043e+3, 2.3125105e+2, -674841.1, -507038.97, -94931.414, -0.24668229, -0.057510942, -464246.06, 209476.8, 0.0, 9.999138, 10.001176 
2.4988133e+3, 2.4124157e+2, -885664.44, -830321.5, -145090.5, -0.30555302, -0.30387643, -710287.3, -134479.47, 0.0, 9.998111, 9.998848 
2.4984199e+3, 2.5123298e+2, -714143.7, -701970.5, -187311.2, -0.3984129, -0.3531428, -520647.0, -42753.4, 0.0, 9.998755, 9.998649 
2.4980281e+3, 2.612251e+2, -662021.8, -665955.6, -71278.0, -0.43021867, -0.2504112, -592683.56, -212710.7, 0.0, 9.998497, 9.9984455 
2.4976419e+3, 2.7121952e+2, -389289.72, -334150.2, 25326.277, -0.26812482, -0.070153415, -324283.2, -42254.492, 0.0, 9.999143, 9.999667 
2.497255e+3, 2.812133e+2, -388414.5, -306584.03, -18537.604, -0.16745861, 0.096025325, -302580.47, -118491.44, 0.0, 9.998497, 9.999561 
2.496863e+3, 2.9120377e+2, -178839.52, 1704.4614, -64679.645, -0.42702025, -0.24358357, 22484.21, 108660.79, 0.0, 9.998714, 10.000802 
2.4964748e+3, 3.011948e+2, -429621.94, -468928.88, 61282.04, -0.38382152, -0.37074775, -384919.0, -384919.0, 0.0, 9.998223, 9.997549 
2.4960908e+3, 3.1118762e+2, 18101.143, -18802.809, 13285.531, -0.3177499, -0.18297061, 22386.377, 22386.377, 0.0, 10.000325, 9.999525 
2.5135076e+3, 1.2172006e+2, -1816075.8, -1874243.9, -117351.25, 0.07715738, -0.110519394, -1724258.3, 22868.576, 0.39734322, 9.999719, 9.998991 
2.5131115e+3, 1.3171537e+2, -1278017.4, -1192119.4, -214742.39, -0.37373704, -0.1823319, -1016073.2, 633098.25, 0.28406283, 10.001793, 10.003163 
2.5127202e+3, 1.4170928e+2, -1177712.3, -1462525.8, -127036.266, -0.2367147, -0.2061474, -1129284.4, 421943.72, 0.16993596, 10.003229, 9.998943 
2.5123286e+3, 1.5170054e+2, -1084391.0, -1448560.8, -66214.6, -0.1960456, -0.22850807, -1072725.3, 380589.16, 0.078587286, 10.003319, 9.998124 
2.5119367e+3, 1.6169173e+2, -1067402.1, -1362442.3, -27771.76, -0.20663619, -0.17906871, -1064810.8, 290591.6, 0.024857625, 10.002387, 9.9985285 
2.511544e+3, 1.7168383e+2, -1080326.9, -1211103.3, 12056.279, -0.3574377, -0.20144717, -1079224.8, 178257.5, 0.0041356636, 10.0011635, 9.999446 
2.5111514e+3, 1.8167627e+2, -1146101.6, -1152086.1, -46280.688, -0.4742523, -0.14494897, -1102716.6, 56842.137, 0.00018434241, 9.999837, 9.999868 
2.5107607e+3, 1.9166996e+2, -926753.06, -891180.44, -107881.086, -0.25261855, -0.122159936, -799629.25, 261992.13, 0.00000026313862, 10.00034, 10.000685 
2.51037e+3, 2.0166312e+2, -860813.6, -1023876.06, -74859.8, -0.13617632, -0.0457505, -831659.1, 132030.28, 0.0, 10.000933, 9.998865 
2.509979e+3, 2.1165481e+2, -611337.3, -878054.3, -4391.0435, -0.2712188, -0.033486098, -611265.0, 254508.83, 0.0, 10.002198, 9.998519 
2.509588e+3, 2.2164643e+2, -455918.3, -795261.9, -97791.0, -0.38726515, 0.049326222, -429754.47, 338104.38, 0.0, 10.002593, 9.998319 
2.5091964e+3, 2.3163734e+2, -666938.5, -758925.4, -243626.53, -0.3262135, -0.04066825, -465001.94, 204945.0, 0.0, 10.0002, 9.998979 
2.5088048e+3, 2.4162851e+2, -816970.44, -822217.3, -304819.16, -0.29644206, -0.074759685, -514763.47, 57268.355, 0.0, 9.9985895, 9.998688 
2.5084132e+3, 2.5162008e+2, -453863.94, -558749.8, -281694.0, -0.31080386, -0.12423052, -219772.83, 254341.13, 0.0, 10.000332, 9.998939 
2.5080228e+3, 2.6161212e+2, -121899.33, -285861.84, -196656.08, -0.3223565, -0.09690274, 9179.356, 385369.66, 0.0, 10.001572, 9.999606 
2.5076354e+3, 2.716054e+2, -125749.83, -136653.81, -109975.75, -0.21280299, -0.09686625, -21091.008, 257158.44, 0.0, 10.000525, 10.000424 
2.5072473e+3, 2.8159824e+2, -152299.4, -186472.95, -112258.6, -0.1874625, -0.08313547, -55834.64, 124479.6, 0.0, 9.999927, 9.999742 
2.5068554e+3, 2.9158884e+2, 180593.69, 41410.58, -178508.56, -0.48294973, -0.32263967, 302596.22, 384999.1, 0.0, 10.001533, 9.999821 
2.5064674e+3, 3.0158067e+2, 177869.83, -175377.98, -110236.22, -0.48966905, -0.31740782, 209447.81, 209447.81, 0.0, 10.002187, 9.997709 
2.506088e+3, 3.1157523e+2, -64959.02, -149381.53, -92332.2, 0.067030415, 0.086845085, -5646.752, -5646.752, 0.0, 9.999818, 9.998984 
2.5234988e+3, 1.2210605e+2, -1727445.1, -1800317.0, 18102.066, -0.066987455, -0.13127248, -1723196.1, 20147.56, 0.3720952, 10.00004, 9.999327 
2.5231054e+3, 1.321015e+2, -1384658.4, -1146950.0, -37711.76, -0.33213165, -0.26514462, -1141110.6, 504276.47, 0.26429757, 10.000044, 10.004342 
2.5227168e+3, 1.4209697e+2, -1435506.9, -1427522.5, -92552.35, -0.030215977, -0.25834715, -1338876.3, 208551.72, 0.15642525, 10.000303, 10.00058 
2.5223234e+3, 1.5209031e+2, -1390591.5, -1451529.1, -81987.62, -0.18097827, -0.21792431, -1333594.3, 115899.13, 0.071005836, 10.000443, 9.999472 
2.5219303e+3, 1.6208307e+2, -1284222.9, -1395926.3, -26131.295, -0.25348577, -0.11140789, -1278412.1, 73153.08, 0.021693112, 10.000567, 9.999187 
2.5215378e+3, 1.7207463e+2, -1040698.3, -1144386.5, -35744.258, -0.3287845, -0.22179605, -1029570.5, 224079.16, 0.00335279, 10.001342, 9.9998045 
2.5211456e+3, 1.8206675e+2, -984453.5, -1184860.0, -49324.848, -0.31423646, -0.18351981, -972971.4, 182757.77, 0.00011963712, 10.001402, 9.998891 
2.5207552e+3, 1.9206025e+2, -882059.8, -1030529.5, -84054.58, -0.121055715, -0.06894317, -844151.94, 213645.08, 0.00000002568285, 10.001293, 9.999259 
2.5203645e+3, 2.0205285e+2, -900278.25, -1105136.9, 9666.192, -0.0239871, 0.058445, -899823.1, 60049.555, 0.0, 10.000919, 9.99832 
2.519973e+3, 2.1204194e+2, -727851.7, -912091.94, 23303.834, -0.3240358, -0.21431306, -724949.8, 137029.98, 0.0, 10.001275, 9.99873 
2.519581e+3, 2.2203164e+2, -842858.9, -1200087.3, -139326.84, -0.5093032, -0.27104732, -794944.94, -30861.563, 0.0, 10.000985, 9.996281 
2.5191882e+3, 2.3202331e+2, -776166.8, -1118538.3, -266551.13, -0.39119482, -0.045362245, -630565.44, 35608.23, 0.0, 10.000843, 9.9961815 
2.5187963e+3, 2.4201514e+2, -711267.0, -872735.56, -174777.86, -0.25460666, 0.21818198, -599477.75, -31217.813, 0.0, 9.999867, 9.997714 
2.5184077e+3, 2.5200647e+2, -407855.38, -489492.06, -146858.92, -0.14768878, 0.11517943, -296247.75, 174094.47, 0.0, 10.000568, 9.999265 
2.518019e+3, 2.619979e+2, -271887.44, -317255.56, -158009.22, -0.07783914, 0.060068894, -134942.3, 237477.52, 0.0, 10.000503, 9.999871 
2.5176287e+3, 2.7198908e+2, -191223.61, -63016.55, -143861.77, -0.15307027, -0.26115158, 30377.44, 304867.16, 0.0, 9.999771, 10.00122 
2.5172392e+3, 2.8198e+2, -406758.7, -423001.53, -79773.4, -0.27924374, -0.44672063, -334694.34, -158127.78, 0.0, 9.998847, 9.998592 
2.5168502e+3, 2.9197118e+2, -87834.234, -224019.8, -90012.61, -0.4384444, -0.52665764, -43060.297, 35594.9, 0.0, 10.000441, 9.998457 
2.5164643e+3, 3.019652e+2, -113058.21, -368351.4, -125841.586, -0.2921293, -0.1865839, -61457.06, -61457.06, 0.0, 10.000598, 9.997092 
2.516076e+3, 3.119579e+2, -331695.1, -226166.19, -96369.55, -0.42898247, -0.055150356, -169061.73, -169061.73, 0.0, 9.998071, 9.999182 
2.5334862e+3, 1.2249553e+2, -1967257.8, -2114272.0, -112373.67, -0.699549, -0.5930155, -1906484.8, -166966.94, 0.34545994, 9.999266, 9.997509 
2.533099e+3, 1.3249215e+2, -1626825.3, -1527871.5, 22903.271, -0.21305093, -0.31165498, -1522827.6, 118728.88, 0.24384509, 9.999376, 10.001048 
2.5327098e+3, 1.4248742e+2, -1645609.6, -1523747.9, -86202.266, -0.0027574499, -0.10283773, -1479116.4, 64486.836, 0.14280653, 9.998821, 10.000503 
2.5323147e+3, 1.5247975e+2, -1439425.3, -1316045.0, -42033.402, -0.3022362, -0.28003666, -1303086.1, 142588.6, 0.06363834, 9.999409, 10.00091 
2.5319216e+3, 1.6247226e+2, -1350069.9, -1395886.5, 26211.25, -0.44717646, -0.2908508, -1338167.0, 9579.231, 0.0187796, 9.999964, 9.999475 
2.531532e+3, 1.724646e+2, -973280.8, -1130374.8, 43574.965, -0.33795553, -0.31705707, -962003.5, 287820.25, 0.0026956536, 10.001814, 9.9997 
2.5311413e+3, 1.8245707e+2, -793153.9, -1090679.6, -46409.734, -0.2957116, -0.23188612, -786082.7, 365818.06, 0.00007576087, 10.002724, 9.998879 
2.5307482e+3, 1.9244961e+2, -739378.4, -985663.4, -65300.4, -0.28620902, -0.18276964, -723135.75, 330843.44, 0.00000000011876218, 10.00235, 9.99906 
2.5303563e+3, 2.0244181e+2, -818286.56, -1120354.4, 28684.982, -0.3007947, -0.052547835, -815586.75, 140474.16, 0.0, 10.001687, 9.997834 
2.5299665e+3, 2.1243273e+2, -789835.2, -1041227.06, 35179.25, -0.37950134, -0.044148203, -785005.06, 73150.36, 0.0, 10.001229, 9.997878 
2.5295758e+3, 2.224232e+2, -739102.56, -1081433.9, -108161.414, -0.47129503, 0.013428139, -707792.1, 52460.785, 0.0, 10.001315, 9.996952 
2.529183e+3, 2.32413e+2, -368827.47, -848950.06, -99374.73, -0.41478643, 0.0032183807, -349071.97, 313283.6, 0.0, 10.003214, 9.9969425 
2.528791e+3, 2.424033e+2, -84739.805, -568876.75, -5796.444, -0.3421504, 0.08522658, -84670.414, 479782.28, 0.0, 10.004055, 9.99781 
2.5284016e+3, 2.5239462e+2, -176640.11, -470934.47, -9200.117, -0.21834777, 0.09137452, -176352.78, 290184.84, 0.0, 10.002471, 9.998511 
2.528012e+3, 2.623859e+2, -185573.77, -307268.22, -59918.254, -0.16020381, 0.093338676, -161024.38, 207594.47, 0.0, 10.001124, 9.999661 
2.527621e+3, 2.7237642e+2, -151060.33, -138094.73, -107135.29, -0.19509125, -0.18871753, -37246.285, 233451.3, 0.0, 10.000326, 10.000483 
2.5272313e+3, 2.8236714e+2, -259904.1, -291029.47, -43389.547, -0.2806798, -0.36393824, -229370.69, -56592.945, 0.0, 9.999533, 9.999155 
2.526843e+3, 2.9235858e+2, -257547.2, -275078.25, 17284.854, -0.4091652, -0.4151484, -246932.31, -172070.55, 0.0, 9.999053, 9.9988165 
2.5264573e+3, 3.0235168e+2, -307240.63, -431900.47, 6220.05, -0.26555702, -0.17504163, -306931.03, -306931.03, 0.0, 9.998985, 9.997502 
2.5260684e+3, 3.1234574e+2, -79512.875, -107366.875, 5254.9575, -0.38089994, 0.1774466, -78554.45, -78554.45, 0.0, 9.999565, 9.999405 
2.5434843e+3, 1.2289091e+2, -1561575.0, -1870183.5, -214100.1, -0.19287491, -0.28568095, -1451969.0, 283672.75, 0.31815657, 10.002669, 9.997718 
2.543094e+3, 1.32884e+2, -1408930.6, -1571122.0, -30630.605, -0.018652916, -0.22760436, -1403338.6, 234378.13, 0.22319712, 10.002103, 9.999329 
2.542702e+3, 1.4287771e+2, -1352944.3, -1410632.5, -47648.387, 0.013434417, -0.049401525, -1326089.6, 213690.97, 0.12934339, 10.001041, 10.000315 
2.542307e+3, 1.5286936e+2, -1288872.3, -1237666.4, -123569.89, -0.2717781, -0.30864224, -1137074.9, 304782.2, 0.05657354, 10.000377, 10.001072 
2.5419146e+3, 1.6286172e+2, -1383015.5, -1393673.4, -54876.414, -0.37684095, -0.35755363, -1333209.9, 10718.706, 0.016116831, 9.999646, 9.9996395 
2.5415266e+3, 1.7285474e+2, -1242881.8, -1270561.3, -29957.951, -0.2668657, -0.34739837, -1223721.3, 22277.71, 0.0021455006, 9.999963, 9.99963 
2.541136e+3, 1.8284747e+2, -1160062.9, -1296331.4, -111534.91, -0.22985546, -0.23146911, -1097497.9, 50575.797, 0.000046550977, 10.0003195, 9.998641 
2.5407416e+3, 1.9283918e+2, -929156.44, -1104500.3, -156092.33, -0.40871716, -0.26453456, -837799.9, 212360.61, 0.0, 10.001161, 9.998838 
2.5403488e+3, 2.0283134e+2, -939361.44, -1259593.8, -19603.178, -0.46448275, -0.0968684, -938165.9, 14078.438, 0.0, 10.001288, 9.997035 
2.53996e+3, 2.1282408e+2, -866579.75, -1167582.1, -609.11163, -0.3679729, 0.1508853, -866578.56, -12253.201, 0.0, 10.001161, 9.99701 
2.539571e+3, 2.2281533e+2, -760471.7, -1026517.8, -40683.49, -0.31454164, 0.32923284, -754389.44, 2026.6376, 0.0, 10.000975, 9.9974785 
2.5391784e+3, 2.32803e+2, -456392.84, -738323.6, -48054.527, -0.39548406, -0.030892901, -448427.13, 210103.9, 0.0, 10.002069, 9.998212 
2.5387865e+3, 2.4279213e+2, -420453.88, -808108.9, -49495.902, -0.39269933, -0.112543106, -414234.03, 146400.19, 0.0, 10.002215, 9.997004 
2.538395e+3, 2.5278372e+2, -429764.44, -714187.7, -62727.816, -0.34122753, -0.010196513, -416544.66, 46174.516, 0.0, 10.001334, 9.997344 
2.538004e+3, 2.6277494e+2, -456653.7, -605782.75, -56441.21, -0.29687744, 0.12601693, -437700.94, -72896.13, 0.0, 10.000117, 9.998058 
2.5376135e+3, 2.7276525e+2, -333140.44, -374904.56, -97216.01, -0.23754615, -0.06667578, -254589.03, 12303.301, 0.0, 9.999832, 9.999056 
2.5372237e+3, 2.8275678e+2, -383655.0, -354647.3, -24758.133, -0.23525168, -0.058250863, -340457.5, -171488.73, 0.0, 9.998817, 9.999044 
2.5368342e+3, 2.9274884e+2, -332612.2, -196137.06, 23373.117, -0.42510068, -0.16642106, -192245.11, -121203.17, 0.0, 9.99818, 9.99973 
2.5364476e+3, 3.0273923e+2, -557737.0, -587120.0, 46531.55, -0.38907388, -0.21247351, -523632.72, -523632.72, 0.0, 9.997602, 9.9970455 
2.5360617e+3, 3.127332e+2, -312041.53, -58653.355, 64672.188, -0.2820295, 0.09432573, -43101.586, -43101.586, 0.0, 9.997491, 10.000683 
2.55348e+3, 1.23280555e+2, -1521988.4, -1790530.3, 110799.195, -0.3016669, -0.3057663, -1482175.5, 249658.36, 0.29081753, 10.0028, 9.998048 
2.553088e+3, 1.3327678e+2, -1274328.1, -1425593.1, -26355.64, -0.15298326, -0.028304256, -1269867.6, 364004.72, 0.2027681, 10.002849, 10.0001745 
2.5526947e+3, 1.4326727e+2, -1399353.5, -1602618.3, -74632.52, -0.19912568, -0.14524692, -1374894.0, 161072.17, 0.11625642, 10.001516, 9.998622 
2.552303e+3, 1.5325902e+2, -1414876.3, -1543964.0, -158215.36, -0.027020741, -0.18030249, -1308545.9, 129501.62, 0.04988728, 10.000589, 9.998782 
2.5519112e+3, 1.6325116e+2, -1408656.6, -1396002.0, -116161.35, -0.007955726, -0.11182017, -1285995.9, 54127.977, 0.013707004, 9.999459, 9.999711 
2.5515193e+3, 1.732436e+2, -1324488.6, -1239705.0, -56235.492, -0.20433871, -0.20865563, -1211673.1, 30523.371, 0.0016894786, 9.999115, 10.000254 
2.5511274e+3, 1.8323638e+2, -1269780.9, -1298564.4, -115177.82, -0.37027174, -0.14315315, -1168099.1, -23830.77, 0.000027889511, 9.999343, 9.999088 
2.550735e+3, 1.9322912e+2, -946556.25, -1093857.0, -118115.984, -0.4501123, -0.09139959, -881009.75, 165335.06, 0.0, 10.000938, 9.999026 
2.5503436e+3, 2.0322143e+2, -763479.2, -1055420.8, -27414.725, -0.48631802, 0.037142836, -760927.1, 187497.77, 0.0, 10.001937, 9.998132 
2.5499547e+3, 2.1321256e+2, -631988.25, -942934.8, 44690.113, -0.4119887, 0.030153776, -625692.7, 224821.63, 0.0, 10.002195, 9.998086 
2.5495648e+3, 2.2320332e+2, -558010.06, -875243.6, -2712.8853, -0.3642365, 0.07718571, -557986.9, 194619.34, 0.0, 10.002099, 9.9979725 
2.5491732e+3, 2.3319271e+2, -487923.34, -764158.75, -20479.35, -0.3720131, -0.08602646, -486413.3, 168293.94, 0.0, 10.001853, 9.998153 
2.5487816e+3, 2.4318276e+2, -438418.84, -724038.56, -75621.22, -0.3842946, -0.11195002, -419632.84, 137169.42, 0.0, 10.001575, 9.997926 
2.5483882e+3, 2.5317377e+2, -435029.3, -663377.25, -38696.406, -0.396623, -0.1038584, -428649.94, 30239.652, 0.0, 10.000922, 9.997956 
2.5479966e+3, 2.6316473e+2, -351140.72, -531202.4, 41184.953, -0.37362993, -0.035393476, -342167.75, 18809.445, 0.0, 10.000625, 9.998371 
2.5476068e+3, 2.7315557e+2, -149148.95, -348529.72, 49622.125, -0.23321769, -0.09300814, -137481.69, 125583.53, 0.0, 10.001253, 9.998614 
2.5472167e+3, 2.8314713e+2, -31024.027, -186559.81, 82857.25, -0.23605768, -0.043471698, 4844.2036, 169989.33, 0.0, 10.001076, 9.99917 
2.5468248e+3, 2.9313895e+2, -232314.0, -203778.58, 55487.574, -0.52894455, -0.09876917, -160753.72, -93532.74, 0.0, 9.99893, 9.999403 
2.5464377e+3, 3.0312875e+2, -449810.47, -371478.2, 97266.72, -0.38483235, -0.24908026, -305788.22, -305788.22, 0.0, 9.997447, 9.998683 
2.5460503e+3, 3.1312028e+2, -427631.34, -142667.5, 101059.42, -0.41084656, -0.2452424, -110466.555, -110466.555, 0.0, 9.996511, 10.000696 
2.5634754e+3, 1.2367597e+2, -1514783.0, -1801677.6, 75813.63, -0.3306439, 0.012695337, -1495981.0, 231983.38, 0.26403108, 10.00268, 9.998075 
2.563082e+3, 1.3366926e+2, -1398406.6, -1542228.8, -78903.555, -0.26069695, 0.05897842, -1363561.1, 266468.25, 0.18292536, 10.002002, 9.99961 
2.5626883e+3, 1.4365813e+2, -1462850.3, -1759758.8, -93115.59, -0.22478618, -0.13619763, -1436064.1, 96074.29, 0.1037245, 10.001485, 9.997572 
2.5622982e+3, 1.5364924e+2, -1295592.4, -1674252.6, -112117.69, 0.14432856, -0.09908649, -1264885.5, 169343.25, 0.043632858, 10.002166, 9.997144 
2.5619066e+3, 1.6364089e+2, -1046207.56, -1212746.4, 16837.13, 0.27193034, 0.018092738, -1044522.4, 291789.7, 0.011545959, 10.001977, 9.99973 
2.5615126e+3, 1.7363285e+2, -1047249.06, -1106992.0, -25116.672, -0.11062897, -0.12813185, -1038092.94, 200295.63, 0.0013158798, 10.001063, 10.000201 
2.5611195e+3, 1.8362553e+2, -1079638.6, -1184847.6, -47213.582, -0.36963075, -0.06924327, -1061558.1, 78902.26, 0.000016496271, 10.000618, 9.99925 
2.5607285e+3, 1.9361898e+2, -931694.56, -1090412.3, -66265.984, -0.40801114, 0.035877526, -907665.75, 134863.55, 0.0, 10.0010805, 9.999004 
2.5603384e+3, 2.0361124e+2, -851164.7, -963547.44, -1082.0793, -0.40148932, 0.12545522, -851154.25, 93452.21, 0.0, 10.000848, 9.999276 
2.559949e+3, 2.13601e+2, -899716.94, -934785.25, 17917.059, -0.38420883, -0.15849817, -892181.8, -45479.777, 0.0, 9.999865, 9.999257 
2.559559e+3, 2.235916e+2, -906122.94, -1062964.6, -14809.921, -0.33415666, -0.1777104, -904736.75, -155944.83, 0.0, 9.999873, 9.997723 
2.559168e+3, 2.3358302e+2, -673546.0, -910046.7, -27715.7, -0.30496025, -0.12611495, -670341.4, -19463.69, 0.0, 10.00088, 9.997589 
2.5587758e+3, 2.4357407e+2, -498801.13, -682105.7, -79187.8, -0.2992557, -0.039038148, -469330.13, 83634.414, 0.0, 10.000953, 9.998475 
2.5583813e+3, 2.5356403e+2, -508828.4, -608752.6, -84398.25, -0.39773163, -0.2476862, -460712.63, -5654.9663, 0.0, 10.000132, 9.998677 
2.5579894e+3, 2.6355508e+2, -544595.2, -634531.7, 45026.84, -0.36466247, -0.20241018, -525927.25, -168784.25, 0.0, 9.999485, 9.998134 
2.557601e+3, 2.735468e+2, -339375.0, -478361.56, 66963.89, -0.19195308, -0.1898123, -312361.9, -53135.45, 0.0, 10.000215, 9.99817 
2.5572097e+3, 2.8353778e+2, -297311.9, -437756.44, 9771.391, -0.27085286, -0.11427864, -296635.34, -135319.84, 0.0, 9.999908, 9.997949 
2.5568143e+3, 2.9352808e+2, -430480.28, -442485.1, -27906.52, -0.6965531, -0.24279235, -407937.94, -344529.0, 0.0, 9.998303, 9.9979925 
2.5564283e+3, 3.0351934e+2, -490408.5, -340625.2, 52961.66, -0.3424665, -0.1760891, -323790.63, -323790.63, 0.0, 9.997153, 9.998929 
2.556041e+3, 3.135155e+2, -545256.4, -106543.17, 105549.92, -0.31222752, 0.14032458, -82469.9, -82469.9, 0.0, 9.995642, 10.001215 
2.5734705e+3, 1.240658e+2, -1554165.0, -1699594.9, -22248.152, -0.40362856, -0.23256701, -1550837.6, 173303.73, 0.23823552, 10.001779, 9.999165 
2.5730762e+3, 1.3406013e+2, -1557134.5, -1769071.5, -126603.74, -0.2840468, 0.024541423, -1498003.5, 128196.22, 0.16394834, 10.001413, 9.998184 
2.572681e+3, 1.4405014e+2, -1467644.3, -1655295.0, -40844.098, -0.39760363, -0.013152059, -1459139.5, 69157.87, 0.09188186, 10.001031, 9.998479 
2.57229e+3, 1.5403976e+2, -1141532.5, -1454460.5, 15036.613, -0.21457666, -0.24226099, -1140811.6, 289583.84, 0.03784501, 10.002667, 9.998403 
2.571899e+3, 1.6403067e+2, -971067.2, -1306263.4, 51604.324, -0.082875304, -0.20937769, -963302.44, 369182.16, 0.009625426, 10.003104, 9.998508 
2.5715074e+3, 1.7402261e+2, -993918.9, -1279610.4, 9404.615, -0.1354427, -0.17962389, -993609.6, 240958.48, 0.0010124295, 10.002288, 9.998419 
2.571115e+3, 1.8401499e+2, -907713.56, -1079053.9, -35881.227, -0.26257157, -0.05340575, -900502.94, 236142.6, 0.000009793076, 10.001692, 9.999449 
2.570723e+3, 1.9400768e+2, -833382.6, -1003743.56, -8442.152, -0.38869005, -0.04090092, -832965.3, 205752.69, 0.0, 10.001554, 9.999371 
2.570332e+3, 2.039998e+2, -847418.0, -921288.44, -36196.99, -0.39466402, -0.0031059957, -832638.25, 108155.77, 0.0, 10.000638, 9.999686 
2.5699428e+3, 2.1399061e+2, -1012708.4, -970229.4, -18820.102, -0.21937974, -0.18596147, -963090.9, -120210.836, 0.0, 9.998922, 9.999505 
2.5695524e+3, 2.2398195e+2, -961778.7, -984061.6, 40933.633, -0.19992454, -0.19273466, -930497.4, -185534.55, 0.0, 9.998936, 9.998739 
2.5691617e+3, 2.3397386e+2, -538364.94, -765662.0, 93298.78, -0.35735896, -0.15693605, -504973.84, 142069.28, 0.0, 10.001323, 9.998418 
2.5687692e+3, 2.4396531e+2, -300404.28, -553019.9, -85036.336, -0.4140449, -0.08772895, -274446.4, 274680.22, 0.0, 10.002093, 9.998825 
2.568375e+3, 2.5395578e+2, -421799.0, -573968.7, -113707.44, -0.34802753, -0.21310042, -361069.06, 90148.59, 0.0, 10.000662, 9.998696 
2.5679827e+3, 2.639468e+2, -475188.34, -552822.75, 31039.785, -0.28637767, -0.19703096, -464304.0, -110999.88, 0.0, 9.999644, 9.998632 
2.5675932e+3, 2.7393818e+2, -452274.8, -521681.3, 66253.555, -0.20631148, -0.21504568, -412186.03, -156796.2, 0.0, 9.999251, 9.998375 
2.5672022e+3, 2.839293e+2, -311844.13, -407414.7, 38680.117, -0.2917332, -0.15837392, -298151.1, -140673.4, 0.0, 9.999539, 9.998358 
2.5668085e+3, 2.9392016e+2, -35487.008, -262532.03, 59722.09, -0.5416797, -0.19596478, -20736.03, 38831.89, 0.0, 10.000918, 9.998015 
2.5664213e+3, 3.0391154e+2, -14297.195, -90266.19, 117437.5, -0.1745848, -0.12929311, 71145.97, 71145.97, 0.0, 10.00015, 9.999267 
2.566027e+3, 3.1390128e+2, -469000.84, -207585.5, 28803.268, -0.6024935, -0.38072452, -204449.52, -204449.52, 0.0, 9.99643, 10.000243 
2.5834683e+3, 1.2445666e+2, -1431426.5, -1711920.3, -9288.303, -0.14345148, -0.24424814, -1431119.3, 289188.03, 0.21373183, 10.002934, 9.998535 
2.5830713e+3, 1.3445039e+2, -1185321.6, -1627537.5, -167445.14, -0.25968173, -0.030895116, -1129073.1, 493300.66, 0.14603193, 10.004419, 9.997803 
2.5826755e+3, 1.444412e+2, -1006291.7, -1356020.4, -25703.727, -0.3933923, -0.0037125412, -1004412.6, 520051.53, 0.080827504, 10.004163, 9.999124 
2.5822836e+3, 1.5443063e+2, -1020242.06, -1343072.4, -84824.58, -0.38022974, -0.31194463, -999311.2, 427250.63, 0.032553293, 10.003285, 9.998892 
2.5818923e+3, 1.6442123e+2, -1085040.9, -1464237.9, -59174.965, -0.28250146, -0.31212446, -1076021.0, 252632.92, 0.007938516, 10.002719, 9.997599 
2.581502e+3, 1.744132e+2, -1125385.6, -1482908.9, -47094.8, -0.1233522, -0.1883127, -1119286.1, 111454.33, 0.00076767127, 10.001975, 9.997166 
2.5811106e+3, 1.8440524e+2, -923956.2, -1077358.6, 5483.094, -0.115213476, -0.02758234, -923760.44, 209061.06, 0.000005913737, 10.001603, 9.999476 
2.5807178e+3, 1.9439696e+2, -900963.1, -1025956.06, -30310.316, -0.29844025, -0.1308656, -894000.8, 140898.83, 0.0, 10.00114, 9.999381 
2.5803262e+3, 2.0438887e+2, -847105.0, -960855.9, -92205.58, -0.27263492, -0.09856632, -795644.5, 141332.13, 0.0, 10.00084, 9.999295 
2.5799364e+3, 2.1438041e+2, -854865.06, -945691.75, -129642.11, -0.008715604, -0.20258313, -762912.3, 76145.59, 0.0, 10.00025, 9.999019 
2.579546e+3, 2.2437249e+2, -820014.5, -796357.5, 62812.742, -0.02104715, -0.15628001, -744269.25, -3135.509, 0.0, 9.999567, 9.99968 
2.5791547e+3, 2.3436478e+2, -802772.25, -773287.6, 104994.35, -0.38509053, -0.21021765, -682005.7, -38797.598, 0.0, 9.999152, 9.999372 
2.5787625e+3, 2.4435697e+2, -705628.25, -770807.25, -157347.6, -0.48110923, -0.10791736, -577530.7, -32245.57, 0.0, 9.999543, 9.998511 
2.5783688e+3, 2.543483e+2, -578361.5, -708322.4, -180088.55, -0.24850418, -0.13994591, -451888.7, -4516.45, 0.0, 9.999959, 9.998076 
2.577976e+3, 2.6433927e+2, -467735.78, -535675.94, 14501.104, -0.1588531, -0.09467137, -464770.13, -115309.086, 0.0, 9.999728, 9.998701 
2.5775844e+3, 2.743298e+2, -497042.3, -530114.0, 40871.656, -0.2551863, -0.24588671, -469488.16, -217936.17, 0.0, 9.999012, 9.998404 
2.5771943e+3, 2.8432187e+2, -364392.38, -348445.63, 95373.47, -0.2743526, -0.12752794, -260712.83, -107082.61, 0.0, 9.998937, 9.999011 
2.576805e+3, 2.943144e+2, -201514.86, -275870.9, 138768.02, -0.2313303, -0.10301778, -95030.89, -39325.27, 0.0, 9.999611, 9.998524 
2.5764158e+3, 3.0430573e+2, -177931.83, -122184.734, 15841.262, 0.011666478, -0.079025306, -117997.71, -117997.71, 0.0, 9.998985, 9.999553 
2.576021e+3, 3.142988e+2, -429479.44, 157675.9, -60899.914, -0.1294579, -0.06531677, 163925.94, 163925.94, 0.0, 9.995439, 10.003186 
2.59346e+3, 1.248468e+2, -1489482.0, -1762767.5, -34079.38, -0.5999515, -0.28175282, -1485296.4, 231182.3, 0.19077115, 10.002565, 9.998329 
2.5930685e+3, 1.3483937e+2, -1108896.3, -1553358.8, -81344.664, -0.32579267, -0.22607586, -1094476.5, 524078.72, 0.12932457, 10.004841, 9.998105 
2.592675e+3, 1.4483023e+2, -1006516.94, -1485507.0, -80946.42, -0.22192572, -0.14534505, -993207.4, 527442.1, 0.07062259, 10.004752, 9.997858 
2.592281e+3, 1.5482143e+2, -1104833.4, -1541057.3, -133069.3, -0.26218817, -0.13169838, -1067445.3, 355295.5, 0.027766839, 10.003375, 9.997467 
2.5918874e+3, 1.6481325e+2, -991096.06, -1221056.5, -111006.34, -0.3218366, -0.021929746, -946254.94, 378568.03, 0.0064744665, 10.002526, 9.999358 
2.591495e+3, 1.7480558e+2, -994125.4, -1229052.1, -19148.203, -0.3319352, -0.029014742, -992574.9, 234323.25, 0.0005723583, 10.002017, 9.998908 
2.5911033e+3, 1.8479724e+2, -937716.9, -1135068.1, 26542.967, -0.29744, 0.02733323, -934209.3, 194769.02, 0.0000035552432, 10.001717, 9.999034 
2.5907123e+3, 1.9478765e+2, -891659.56, -1100853.3, 11664.36, -0.27120626, -0.122673675, -891011.2, 140057.2, 0.0, 10.001486, 9.998728 
2.590321e+3, 2.0477834e+2, -763332.6, -1041638.5, -72610.414, -0.24373896, -0.12555116, -745527.56, 187632.14, 0.0, 10.00192, 9.998229 
2.5899297e+3, 2.1476917e+2, -517976.78, -919084.75, -113907.555, -0.16712268, -0.1542696, -487886.38, 347367.5, 0.0, 10.003079, 9.997877 
2.589538e+3, 2.2476135e+2, -416587.28, -468789.13, -90288.48, -0.19040783, -0.107151784, -348702.75, 388626.47, 0.0, 10.001707, 10.00091 
2.589146e+3, 2.3475459e+2, -916744.94, -712781.56, -30833.047, -0.35616133, -0.15956661, -708222.44, -68833.34, 0.0, 9.997773, 10.000483 
2.5887543e+3, 2.4474725e+2, -948862.7, -817342.9, -130019.8, -0.39509737, -0.10757196, -737399.25, -195939.64, 0.0, 9.997458, 9.999228 
2.5883618e+3, 2.54739e+2, -367990.94, -538992.44, -99895.234, -0.2575446, -0.1389971, -322002.38, 121541.98, 0.0, 10.000987, 9.998783 
2.5879693e+3, 2.6473042e+2, -34989.473, -282833.75, -14475.185, -0.25899777, -0.11175465, -34146.92, 311482.56, 0.0, 10.002451, 9.999149 
2.5875765e+3, 2.7472138e+2, -85226.836, -301800.84, 1843.9878, -0.39181757, -0.20619239, -85211.13, 162505.61, 0.0, 10.001603, 9.99877 
2.5871855e+3, 2.8471416e+2, -131816.34, -105692.195, 15536.196, -0.36691195, -0.104701705, -98456.7, 51330.902, 0.0, 9.999877, 10.000249 
2.586796e+3, 2.9470813e+2, -474505.53, -287550.25, 47125.78, -0.22999793, -0.019656492, -276343.1, -224494.48, 0.0, 9.99708, 9.999711 
2.586406e+3, 3.0469984e+2, -317063.06, -159761.47, -23589.113, -0.06104305, -0.038037986, -156300.19, -156300.19, 0.0, 9.997772, 9.999947 
2.5860068e+3, 3.1469092e+2, 61651.203, -263402.75, -245888.19, -0.67880523, -0.19346014, 193871.61, 193871.61, 0.0, 10.001463, 9.997454 
2.603455e+3, 1.2523745e+2, -1642483.5, -1920758.4, -90083.766, -0.61662656, -0.33234286, -1615867.1, 96783.8, 0.16949552, 10.001521, 9.99778 
2.603065e+3, 1.3522898e+2, -1293781.6, -1662606.4, -97378.336, -0.3094235, -0.36112586, -1269650.4, 345084.1, 0.11391175, 10.003367, 9.998035 
2.6026723e+3, 1.4522026e+2, -1206342.9, -1639896.0, -112377.03, -0.16833402, -0.22061133, -1178946.0, 337879.9, 0.061296463, 10.003485, 9.997372 
2.6022777e+3, 1.5521267e+2, -1307676.3, -1729250.0, -105580.266, -0.163556, -0.019289522, -1282712.6, 136198.86, 0.023481611, 10.002303, 9.996689 
2.6018828e+3, 1.6520524e+2, -962051.9, -1074876.3, -16692.424, -0.26526982, 0.15212506, -959634.0, 361353.28, 0.005220199, 10.002129, 10.000602 
2.6014888e+3, 1.7519784e+2, -870556.1, -1056621.6, -55037.434, -0.39666063, 0.062970206, -855495.3, 367559.44, 0.00041937284, 10.002363, 9.999965 
2.601097e+3, 1.85189e+2, -868940.1, -1173272.1, 6371.133, -0.36268288, 0.042176787, -868806.8, 256330.34, 0.0000020172258, 10.002515, 9.998368 
2.6007074e+3, 1.951783e+2, -862819.7, -1194360.1, -17888.174, -0.18536803, -0.15985638, -861857.3, 165381.0, 0.0, 10.002167, 9.997745 
2.600316e+3, 2.0516834e+2, -836324.25, -1165831.6, 6861.844, -0.16210592, -0.13488668, -836181.44, 93157.266, 0.0, 10.001878, 9.997374 
2.5999236e+3, 2.1515875e+2, -911637.94, -1223711.6, 18113.277, -0.2681845, -0.122159086, -910590.1, -79148.46, 0.0, 10.000974, 9.996766 
2.5995305e+3, 2.2515109e+2, -568233.7, -452990.16, -75354.35, -0.31489807, -0.029053804, -415751.25, 317764.22, 0.0, 10.0003195, 10.001674 
2.5991368e+3, 2.351448e+2, -818003.2, -603655.0, -87960.125, -0.2712867, -0.1191058, -572181.1, 63385.42, 0.0, 9.998242, 10.000988 
2.5987452e+3, 2.4513777e+2, -834210.0, -683706.44, 54204.098, -0.25682068, -0.08329817, -666217.1, -128584.8, 0.0, 9.998005, 9.999859 
2.598355e+3, 2.5512958e+2, -577794.6, -591831.5, 54340.508, -0.27039692, -0.18873659, -530021.2, -90304.47, 0.0, 9.999415, 9.99917 
2.5979626e+3, 2.6512146e+2, -324104.38, -418805.84, -5399.174, -0.38789582, -0.12850371, -323797.56, 18000.83, 0.0, 10.0005665, 9.999086 
2.5975686e+3, 2.7511287e+2, -319245.4, -451012.47, 3442.1086, -0.564081, -0.19610326, -319155.53, -75272.67, 0.0, 10.000249, 9.998379 
2.597176e+3, 2.8510615e+2, -197833.22, -52092.574, -70657.086, -0.50907725, -0.052111883, -23461.629, 122487.086, 0.0, 9.999159, 10.0009365 
2.5967842e+3, 2.9510114e+2, -563892.06, -295354.0, -69543.43, -0.35342818, 0.04356455, -278413.06, -230414.94, 0.0, 9.996452, 9.999928 
2.596393e+3, 3.050921e+2, -374687.5, -205029.14, 94619.29, -0.38154715, -0.04716128, -162780.39, -162780.39, 0.0, 9.997625, 9.999625 
2.5960055e+3, 3.1508112e+2, 262089.33, 470240.25, 109610.984, -0.249119, -0.42570212, 517314.63, 517314.63, 0.0, 10.0003, 10.002998 
2.6134565e+3, 1.2563144e+2, -1666023.6, -1750853.8, -66720.88, 0.08993644, 0.12957527, -1629377.3, 79423.84, 0.14988421, 10.000584, 9.999378 
2.6130593e+3, 1.3562004e+2, -1339913.9, -1652987.1, -29814.547, -0.46708643, -0.25636742, -1337099.9, 273807.6, 0.09979623, 10.002856, 9.998317 
2.6126638e+3, 1.4561135e+2, -1176356.4, -1424110.1, -135388.81, -0.6001734, -0.21910232, -1116724.1, 396268.47, 0.05285716, 10.002839, 9.999177 
2.61227e+3, 1.5560417e+2, -1289312.3, -1568334.3, -62563.98, -0.39178586, -0.12995532, -1275926.0, 139141.0, 0.019694533, 10.001768, 9.998066 
2.6118773e+3, 1.6559626e+2, -1063737.1, -1248615.9, 55735.402, -0.31446707, -0.008806179, -1048234.56, 268911.22, 0.004163879, 10.001989, 9.999444 
2.611485e+3, 1.7558764e+2, -885886.3, -1204715.0, 5685.0894, -0.35205033, -0.0930631, -885785.0, 333443.8, 0.00030229846, 10.002879, 9.998681 
2.6110935e+3, 1.8557839e+2, -709687.3, -1073110.0, -3100.1182, -0.3170879, -0.10485095, -709660.9, 411657.9, 0.0000010444409, 10.00347, 9.998603 
2.6107028e+3, 1.9556811e+2, -647271.2, -1078032.5, 13058.97, -0.24035071, -0.2598826, -646875.7, 376543.56, 0.0, 10.003502, 9.997925 
2.610311e+3, 2.0555998e+2, -569023.0, -768579.1, -4346.392, -0.18223353, -0.18927372, -568928.4, 356571.84, 0.0, 10.002503, 9.999812 
2.609918e+3, 2.155531e+2, -812545.1, -924954.9, 113371.055, -0.1865962, -0.109813705, -742211.56, 85359.266, 0.0, 10.000485, 9.999067 
2.6095238e+3, 2.2554576e+2, -609881.1, -552541.56, 100228.34, -0.25245923, -0.055053852, -476963.2, 252677.03, 0.0, 10.000274, 10.00105 
2.6091293e+3, 2.3553805e+2, -409335.66, -489560.94, 69037.32, -0.34114295, -0.17534211, -369603.6, 262104.33, 0.0, 10.001256, 10.000368 
2.6087376e+3, 2.4553025e+2, -437343.13, -459525.4, 122904.625, -0.30890995, -0.19745877, -325030.22, 208751.61, 0.0, 10.000519, 10.000206 
2.6083472e+3, 2.5552195e+2, -669222.56, -615970.06, 133420.19, -0.225134, -0.29574084, -506545.22, -70680.445, 0.0, 9.998573, 9.99945 
2.6079553e+3, 2.6551452e+2, -558310.9, -444347.56, 131224.25, -0.29217607, -0.21590184, -358267.3, -20329.059, 0.0, 9.998473, 9.999952 
2.6075625e+3, 2.755075e+2, -314164.03, -359840.88, 169988.56, -0.44229177, -0.15732445, -165486.55, 74520.84, 0.0, 9.9997635, 9.999273 
2.60717e+3, 2.854996e+2, -117026.74, -156554.36, 6688.3535, -0.35915574, -0.10628702, -115925.695, 26160.23, 0.0, 10.000245, 9.999723 
2.6067773e+3, 2.9549143e+2, -110940.65, -207250.98, -56518.49, -0.1665809, -0.1534147, -84844.484, -40676.957, 0.0, 10.000008, 9.998854 
2.606385e+3, 3.0548215e+2, -70311.49, -160393.9, 136027.84, -0.3544568, -0.17991002, 27938.201, 27938.201, 0.0, 9.999991, 9.998836 
2.6060024e+3, 3.154738e+2, 62919.703, 92573.83, -47286.082, 0.14576784, -0.19926885, 127302.95, 127302.95, 0.0, 9.999919, 10.000609 
2.6234522e+3, 1.260212e+2, -1468376.0, -1530043.3, 14221.246, 0.26291466, 0.11268822, -1465254.4, 239731.33, 0.13183987, 10.001543, 10.000557 
2.6230538e+3, 1.3601187e+2, -1468175.6, -1603012.1, 2684.2073, -0.48721555, -0.15951739, -1468122.1, 138947.08, 0.08692974, 10.001324, 9.999404 
2.6226577e+3, 1.4600343e+2, -1278909.8, -1389765.9, -142906.22, -0.6751925, -0.19417636, -1181058.8, 328089.4, 0.045284748, 10.001595, 10.000072 
2.622264e+3, 1.5599562e+2, -1210109.1, -1437138.1, -150496.73, -0.38466066, -0.25607178, -1135116.9, 276107.0, 0.01638905, 10.001857, 9.998968 
2.6218724e+3, 1.6598725e+2, -1122374.8, -1375728.3, 58157.227, -0.2519563, -0.18760812, -1109662.6, 203642.92, 0.0032885466, 10.002024, 9.998553 
2.6214814e+3, 1.7597814e+2, -1103931.0, -1421561.1, 51183.39, -0.20949101, -0.2260306, -1095886.9, 119508.63, 0.00021471751, 10.001859, 9.997703 
2.6210898e+3, 1.8596883e+2, -930747.25, -1157137.3, 56566.457, -0.21522385, -0.21107653, -917400.3, 200089.48, 0.00000047553752, 10.001828, 9.998828 
2.6206982e+3, 1.9595934e+2, -1003201.06, -1222880.9, 34430.344, -0.2277503, -0.3109094, -997931.25, 21655.41, 0.0, 10.000973, 9.998153 
2.6203054e+3, 2.059529e+2, -679349.4, -583911.9, -48638.89, -0.16917513, -0.19420268, -563492.4, 358156.8, 0.0, 10.0007515, 10.00191 
2.6199117e+3, 2.159483e+2, -812097.8, -731464.56, -19495.201, -0.050677303, -0.11590607, -726998.44, 96692.14, 0.0, 9.999713, 10.000765 
2.6195174e+3, 2.2594112e+2, -744776.8, -714465.8, 59048.227, -0.13773745, -0.082359225, -668659.2, 57098.184, 0.0, 9.9998865, 10.000081 
2.6191226e+3, 2.3593205e+2, -740544.2, -778895.6, 16534.078, -0.3533622, -0.2649008, -734400.25, -106557.99, 0.0, 9.99968, 9.999108 
2.6187298e+3, 2.4592349e+2, -578487.7, -533431.5, 14094.522, -0.35155258, -0.3022128, -529385.75, 537.5305, 0.0, 9.999686, 10.00005 
2.6183388e+3, 2.5591487e+2, -760848.2, -705633.75, 16220.321, -0.16936567, -0.43833196, -701221.3, -269215.84, 0.0, 9.998257, 9.998953 
2.617948e+3, 2.6590854e+2, -516144.66, -323352.53, 128708.02, -0.12803221, -0.28255752, -258944.48, 75121.85, 0.0, 9.998401, 10.000775 
2.6175573e+3, 2.7590355e+2, -477666.4, -417360.34, 145742.3, -0.18610097, -0.13594899, -298684.53, -62570.094, 0.0, 9.998649, 9.99938 
2.617165e+3, 2.858936e+2, -401473.13, -517561.25, -39998.125, -0.11573112, -0.18844323, -389026.3, -250812.19, 0.0, 9.999397, 9.997596 
2.616772e+3, 2.958799e+2, -443687.6, -657678.75, -50092.438, 0.073952824, -0.60310733, -432542.13, -392190.13, 0.0, 9.999092, 9.99618 
2.6163805e+3, 3.0587235e+2, -311808.56, -436551.84, 143813.66, -0.06323659, -0.2495657, -217423.73, -217423.73, 0.0, 9.999147, 9.9973135 
2.6159877e+3, 3.1586376e+2, -393156.4, -413067.1, -90051.02, -0.6100215, -0.14975043, -312512.13, -312512.13, 0.0, 9.998259, 9.997897 
2.633439e+3, 1.2640712e+2, -1482710.0, -1416394.5, -25433.592, -0.5662206, -0.34041315, -1407763.5, 293433.16, 0.11528824, 10.000909, 10.001688 
2.6330492e+3, 1.3640451e+2, -1531416.8, -1558473.1, 17769.178, -0.32543123, -0.0755943, -1522612.1, 80603.39, 0.07524984, 10.000511, 10.000116 
2.632656e+3, 1.4639665e+2, -1405537.3, -1493502.6, -106331.13, -0.24323776, -0.05383326, -1334451.3, 170839.77, 0.038529176, 10.000925, 9.999628 
2.6322615e+3, 1.5638576e+2, -1223914.6, -1464784.5, -103928.19, -0.15227674, -0.39054292, -1185272.1, 222126.97, 0.013527696, 10.001884, 9.998741 
2.6318684e+3, 1.6637768e+2, -1024371.8, -1205209.3, 33137.73, -0.1294347, -0.34633264, -1018490.75, 290985.66, 0.0025719018, 10.002162, 9.999665 
2.6314762e+3, 1.76371e+2, -1078951.5, -1295466.3, 89543.766, -0.17714036, -0.24607985, -1046717.75, 164821.3, 0.00015054179, 10.001512, 9.998739 
2.631083e+3, 1.863632e+2, -1039666.6, -1182604.9, 61023.824, -0.2684706, -0.13581865, -1017158.44, 96461.99, 0.0000001940375, 10.000941, 9.999094 
2.630689e+3, 1.9635458e+2, -1145343.9, -1253523.1, 75119.805, -0.4280174, -0.16373336, -1106866.4, -91152.37, 0.0, 9.999756, 9.998554 
2.6302958e+3, 2.0634761e+2, -854168.06, -722647.2, -17263.594, -0.3895085, -0.09172374, -720418.9, 197364.61, 0.0, 9.999794, 10.001406 
2.629903e+3, 2.1634166e+2, -701703.5, -725736.0, -29200.871, -0.2724888, -0.08582365, -682143.2, 137695.19, 0.0, 10.000618, 10.000375 
2.62951e+3, 2.2633365e+2, -681530.75, -763741.7, -37421.816, -0.18912348, -0.08760441, -667048.0, 54866.08, 0.0, 10.000608, 9.999414 
2.629117e+3, 2.3632438e+2, -717715.3, -815987.6, -58363.7, -0.18274459, -0.20969012, -690558.06, -66555.72, 0.0, 9.999948, 9.998748 
2.628723e+3, 2.463155e+2, -536581.06, -546265.44, -76793.61, -0.2613241, -0.2640429, -464477.13, 61608.32, 0.0, 10.000023, 9.999832 
2.628329e+3, 2.563067e+2, -432034.1, -524765.2, -64148.305, -0.3640723, -0.3911161, -399249.38, 28917.168, 0.0, 10.000311, 9.999226 
2.6279387e+3, 2.6629972e+2, -301069.03, -232678.44, -12715.359, -0.2520686, -0.32651705, -230390.89, 99841.67, 0.0, 9.999819, 10.000769 
2.6275504e+3, 2.7629393e+2, -444707.6, -377055.38, -32229.531, -0.047510814, -0.2396655, -364159.47, -131871.22, 0.0, 9.99861, 9.999727 
2.6271576e+3, 2.8628522e+2, -380447.88, -405267.0, -118183.73, -0.049358465, -0.2565127, -274024.0, -139648.0, 0.0, 9.998968, 9.998622 
2.6267624e+3, 2.9627407e+2, -176616.55, -388918.28, 3866.8926, -0.13787122, -0.4894289, -176546.14, -140056.84, 0.0, 10.000175, 9.997551 
2.6263714e+3, 3.0626658e+2, -277050.13, -440905.34, 218310.11, -0.15858956, -0.18722266, -125800.9, -125800.9, 0.0, 9.999338, 9.997275 
2.625982e+3, 3.1626073e+2, -294476.13, 205711.81, -204779.13, -0.15193357, 0.25241566, 278853.78, 278853.78, 0.0, 9.996211, 10.003243 
2.643431e+3, 1.2679708e+2, -1096543.6, -1224041.6, -45763.79, -0.81272846, -0.512548, -1081818.0, 615552.94, 0.10017185, 10.003654, 10.001876 
2.6430443e+3, 1.3679665e+2, -1594811.5, -1554743.6, -101776.98, -0.08398823, -0.028903058, -1471047.6, 128321.99, 0.06469282, 9.999868, 10.000484 
2.6426524e+3, 1.4678895e+2, -1567692.8, -1608791.1, -97937.12, 0.11553158, -0.0034047582, -1488172.3, 13272.962, 0.032530583, 9.999927, 9.999305 
2.6422578e+3, 1.5677676e+2, -1296709.1, -1517419.1, -107018.58, 0.076600775, -0.43554652, -1253339.6, 150227.98, 0.011066901, 10.001432, 9.9986 
2.641864e+3, 1.6676922e+2, -995234.5, -1066546.4, 656.6155, -0.0007926681, -0.4117751, -995228.44, 310409.6, 0.0019930317, 10.001799, 10.000794 
2.641471e+3, 1.767641e+2, -1136671.4, -1249182.0, 12302.945, -0.10040626, -0.2540085, -1135341.8, 72340.12, 0.00010503105, 10.000759, 9.99945 
2.6410758e+3, 1.867575e+2, -1178245.3, -1179621.0, 7041.17, -0.27398762, -0.09253375, -1171858.5, -62106.254, 0.00000008640195, 9.999829, 9.999571 
2.6406804e+3, 1.9674999e+2, -1351915.5, -1340374.3, 14578.144, -0.477972, -0.0609856, -1330466.1, -318628.3, 0.0, 9.998385, 9.998585 
2.6402867e+3, 2.0674245e+2, -970028.7, -885524.0, 27615.404, -0.50658315, -0.0016345708, -877299.9, 36615.39, 0.0, 9.999459, 10.000467 
2.6398942e+3, 2.1673492e+2, -825488.6, -931366.94, -16587.227, -0.39674982, -0.061708435, -822950.8, -6962.8833, 0.0, 10.000406, 9.999095 
2.639503e+3, 2.2672616e+2, -721061.0, -844805.56, -36109.04, -0.19031541, -0.05192768, -711295.0, 6777.3477, 0.0, 10.000636, 9.998819 
2.6391116e+3, 2.3671673e+2, -920403.9, -1016144.2, -39589.91, 0.06556777, -0.14459324, -906153.9, -285990.5, 0.0, 9.999043, 9.997812 
2.6387167e+3, 2.4670762e+2, -613992.8, -604677.44, -3439.668, -0.14229336, -0.16737242, -603545.0, -81297.29, 0.0, 9.999659, 9.99958 
2.6383194e+3, 2.5669846e+2, -582356.1, -667680.56, -8204.787, -0.56774276, -0.31618395, -581574.4, -157243.75, 0.0, 9.999664, 9.998555 
2.6379293e+3, 2.6669005e+2, -374657.4, -299687.78, -10955.998, -0.40619412, -0.34434205, -298119.5, 28290.875, 0.0, 9.999583, 10.000365 
2.6375422e+3, 2.7668208e+2, -609818.94, -516048.47, -34048.473, 0.06407036, -0.45156175, -504989.56, -276501.3, 0.0, 9.997858, 9.999118 
2.6371485e+3, 2.8667638e+2, -304693.8, -118305.125, -50805.14, -0.093480706, -0.2582972, -105356.414, 25190.027, 0.0, 9.998511, 10.000771 
2.6367503e+3, 2.966716e+2, -241122.03, -234686.02, 27985.885, -0.6091494, -0.09293175, -209733.73, -177136.11, 0.0, 9.999049, 9.999132 
2.6363587e+3, 3.066623e+2, -286868.9, -330320.44, 119371.64, -0.5620365, -0.11176849, -187262.08, -187262.08, 0.0, 9.9989195, 9.998148 
2.6359728e+3, 3.1665143e+2, -254898.86, 418326.56, -176523.08, 0.06154658, -0.32038382, 461804.0, 461804.0, 0.0, 9.995854, 10.004799 
2.6534313e+3, 1.2719311e+2, -1264610.3, -1417074.4, -210281.89, -0.5154452, -0.14395133, -1117168.9, 576323.06, 0.086430125, 10.003028, 10.000604 
2.653037e+3, 1.371862e+2, -1761350.1, -1756856.9, -177275.55, -0.07667516, -0.20010906, -1581813.6, 13741.389, 0.055199515, 9.999273, 9.999341 
2.652644e+3, 1.4717887e+2, -1619393.5, -1594457.6, -13751.02, 0.0111986175, -0.11302783, -1588363.8, -90736.15, 0.027235242, 9.999441, 9.99962 
2.652251e+3, 1.5717049e+2, -1308853.6, -1478432.3, -7285.565, -0.058657788, -0.19193053, -1308541.3, 91171.9, 0.0089680515, 10.001153, 9.998999 
2.651857e+3, 1.6716327e+2, -980789.5, -964286.94, -15083.147, -0.13965687, -0.20335056, -955345.6, 346434.1, 0.0015322798, 10.0015545, 10.001582 
2.651463e+3, 1.7715654e+2, -1098781.5, -1137781.3, -4785.774, -0.2655555, -0.2773966, -1098202.9, 105635.734, 0.00007382683, 10.00061, 10.000282 
2.6510683e+3, 1.871493e+2, -1164742.1, -1082312.3, -39444.254, -0.26585168, -0.262103, -1066478.8, 39430.977, 0.000000036839044, 9.999507, 10.000403 
2.6506737e+3, 1.971418e+2, -1332081.4, -1255316.9, 22679.113, -0.27068514, -0.29811454, -1249117.3, -241129.75, 0.0, 9.998144, 9.999291 
2.650281e+3, 2.0713499e+2, -987808.9, -978707.94, 119616.55, -0.29279262, -0.15329574, -863555.3, 46504.43, 0.0, 9.9996805, 9.999721 
2.6498893e+3, 2.1712837e+2, -588831.0, -851321.25, 72771.03, -0.3485301, -0.03592791, -570006.44, 242123.25, 0.0, 10.002103, 9.998841 
2.6494962e+3, 2.2712016e+2, -495944.7, -656144.6, -45739.37, -0.24293967, -0.0077939625, -483805.3, 230403.94, 0.0, 10.001766, 9.999596 
2.6491028e+3, 2.3711118e+2, -665812.94, -794339.44, 34156.96, -0.08263075, -0.10910581, -657299.4, -41005.383, 0.0, 10.000235, 9.998792 
2.6487094e+3, 2.4710184e+2, -466985.72, -511724.34, 149982.17, -0.12703018, -0.19686866, -337713.9, 180666.61, 0.0, 10.000485, 9.999864 
2.648316e+3, 2.5709242e+2, -293795.63, -492499.44, 159630.92, -0.31496805, -0.35600743, -205124.06, 215343.27, 0.0, 10.001356, 9.998977 
2.6479232e+3, 2.670839e+2, -204963.2, -298766.44, 89377.38, -0.31772724, -0.35884193, -150928.81, 171621.16, 0.0, 10.000995, 9.999726 
2.6475322e+3, 2.7707592e+2, -277939.53, -347088.1, 70267.11, -0.14184682, -0.37515205, -234201.3, -9571.487, 0.0, 9.999956, 9.999303 
2.6471397e+3, 2.8706962e+2, -71797.22, 15605.671, 57126.84, -0.13863753, -0.26499414, 43829.83, 170522.98, 0.0, 9.999856, 10.001123 
2.6467445e+3, 2.9706448e+2, -27159.063, -49707.11, 47669.645, -0.39307836, -0.1356246, 10551.594, 39296.617, 0.0, 9.99999, 9.999991 
2.64635e+3, 3.0705592e+2, -157333.97, -186957.42, 20721.79, -0.6166209, -0.16261175, -146674.55, -146674.55, 0.0, 9.999314, 9.9990015 
2.645962e+3, 3.1704795e+2, 221936.19, 673734.6, -166293.98, -0.041427527, -0.13964279, 728342.3, 728342.3, 0.0, 9.998771, 10.005222 
2.663428e+3, 1.2758806e+2, -1674014.3, -1687531.8, -165473.23, -0.23187156, -0.050085343, -1515161.8, 174460.58, 0.07399981, 10.000207, 9.999967 
2.6630306e+3, 1.375785e+2, -1369208.1, -1649753.4, -108063.02, 0.029400073, -0.27889675, -1332410.0, 259302.13, 0.046711504, 10.002321, 9.998644 
2.6626363e+3, 1.4757098e+2, -1301425.8, -1441692.9, 120421.42, -0.011742358, -0.16996759, -1232203.5, 261582.92, 0.022592498, 10.001654, 9.999644 
2.6622435e+3, 1.575644e+2, -1488588.3, -1562767.5, 57125.56, -0.10509105, -0.050453633, -1457567.9, -61714.746, 0.0071954923, 9.999878, 9.999072 
2.6618496e+3, 1.6755693e+2, -1265690.6, -1122752.8, -26989.035, -0.19916962, -0.08157657, -1117826.6, 180097.19, 0.001170623, 9.999653, 10.001434 
2.6614553e+3, 1.7754908e+2, -1307473.5, -1233853.9, -112131.65, -0.25906384, -0.26799345, -1152644.8, 47350.95, 0.00005271245, 9.999194, 10.000306 
2.6610613e+3, 1.8754111e+2, -1001421.5, -942070.44, -160343.63, -0.17310748, -0.37641233, -808679.4, 293389.8, 0.000000014947995, 10.000352, 10.000977 
2.6606676e+3, 1.9753338e+2, -954906.5, -1064379.1, -108485.73, 0.012594547, -0.49635738, -888130.56, 116010.94, 0.0, 10.000736, 9.999365 
2.660276e+3, 2.075272e+2, -861078.2, -963290.06, 98167.99, -0.053113114, -0.28227255, -801509.94, 104698.375, 0.0, 10.00086, 9.999193 
2.6598847e+3, 2.1752152e+2, -956905.8, -1083851.5, 29555.387, -0.19783649, -0.037503533, -950362.06, -142088.28, 0.0, 9.999939, 9.998241 
2.6594898e+3, 2.2751406e+2, -621242.44, -598592.0, -137707.75, -0.2595747, 0.013587896, -471744.56, 238600.66, 0.0, 10.000512, 10.0005245 
2.6590937e+3, 2.3750575e+2, -718523.7, -766243.06, -58542.805, -0.22943316, -0.13216403, -679165.1, -66744.516, 0.0, 9.999763, 9.999181 
2.658703e+3, 2.4749666e+2, -481441.94, -488334.3, 113253.32, -0.07335388, -0.23771936, -371582.4, 142923.34, 0.0, 10.000343, 10.000064 
2.6583135e+3, 2.5748715e+2, -556896.2, -664226.94, 96859.23, 0.08363576, -0.43689302, -499829.06, -83233.6, 0.0, 9.99988, 9.998482 
2.657918e+3, 2.6747945e+2, -378767.2, -442434.1, 18206.186, -0.1771884, -0.3175006, -373928.66, -55256.26, 0.0, 10.000236, 9.99902 
2.6575214e+3, 2.7747232e+2, -460387.75, -544539.3, 40593.746, -0.48685133, -0.19902404, -443997.97, -223252.3, 0.0, 9.999346, 9.998194 
2.6571319e+3, 2.874637e+2, -148624.03, -48657.145, 57837.227, -0.15505739, -0.2688594, -22197.867, 100631.516, 0.0, 9.999629, 10.000701 
2.656743e+3, 2.97455e+2, -291886.94, -271300.22, 39308.86, 0.17651686, -0.46183777, -240959.36, -216047.3, 0.0, 9.998761, 9.999015 
2.656342e+3, 3.0744883e+2, -235719.39, -175826.27, -25693.064, -0.5802942, -0.24031231, -166314.88, -166314.88, 0.0, 9.998707, 9.999289 
2.6559514e+3, 3.1743675e+2, -277565.2, -72808.766, -66557.195, -0.21258357, -0.65437275, -53075.723, -53075.723, 0.0, 9.997734, 10.0005245 
2.67342e+3, 1.2798095e+2, -1824394.5, -1675809.0, -63808.617, -0.33685264, -0.29021278, -1652168.3, 33602.22, 0.062782034, 9.998906, 10.000606 
2.673027e+3, 1.3797592e+2, -1335094.8, -1637282.1, 20795.469, 0.057771396, -0.12692237, -1333670.4, 254145.56, 0.039146993, 10.00262, 9.998571 
2.6726305e+3, 1.4796627e+2, -1327793.5, -1542824.4, 70601.99, -0.03747034, -0.17272313, -1306684.6, 183223.06, 0.018543638, 10.00191, 9.998788 
2.6722345e+3, 1.5795557e+2, -1665771.8, -1779848.5, 46625.813, -0.25291127, -0.36950764, -1649139.6, -257129.02, 0.005710664, 9.999238, 9.997888 
2.671841e+3, 1.6794781e+2, -1530840.6, -1486218.8, -12959.644, -0.22052866, -0.25257143, -1482728.0, -188637.4, 0.0008890518, 9.998866, 9.999299 
2.6714483e+3, 1.7794085e+2, -1454522.5, -1471260.0, -87048.94, -0.15908672, -0.14174414, -1375440.9, -179277.38, 0.000037964888, 9.998893, 9.998806 
2.671055e+3, 1.8793286e+2, -887126.25, -912308.75, -116998.75, -0.16604649, -0.18590249, -782043.1, 316196.28, 0.0000000057994387, 10.001259, 10.000738 
2.6706615e+3, 1.979247e+2, -511959.16, -825712.4, -122926.32, -0.20077752, -0.3295064, -469534.1, 530780.94, 0.0, 10.003627, 9.999614 
2.6702693e+3, 2.0791753e+2, -586752.06, -741110.9, -52809.277, -0.1711037, -0.28084886, -570414.2, 331971.47, 0.0, 10.002321, 10.000036 
2.6698777e+3, 2.1791063e+2, -906837.3, -942123.0, -54546.293, -0.18254277, -0.2341178, -867151.56, -62696.09, 0.0, 9.9996805, 9.999359 
2.6694828e+3, 2.2790298e+2, -625902.5, -553993.0, -137322.45, -0.19929269, -0.27679688, -447996.34, 258530.38, 0.0, 10.000192, 10.001031 
2.6690876e+3, 2.3789512e+2, -389843.38, -553154.25, -81284.85, -0.21661451, -0.4071263, -356282.34, 252315.84, 0.0, 10.001674, 9.999748 
2.6686963e+3, 2.4788801e+2, -355875.53, -471950.0, -8883.79, -0.08924857, -0.31910583, -355199.53, 155470.1, 0.0, 10.001309, 9.999745 
2.6683056e+3, 2.5788105e+2, -469124.8, -568123.8, -31143.701, 0.027298499, -0.23894459, -460142.44, -47400.65, 0.0, 10.000132, 9.999047 
2.6679108e+3, 2.6787356e+2, -239827.38, -274277.7, -43006.285, -0.17754698, -0.1898876, -210724.92, 104090.47, 0.0, 10.000647, 10.000025 
2.6675153e+3, 2.778659e+2, -49545.883, -227150.33, 19349.98, -0.4348259, -0.20576414, -47462.152, 169428.28, 0.0, 10.001541, 9.9993305 
2.6671255e+3, 2.8785726e+2, -39069.71, -43135.676, -469.41983, -0.07299642, -0.2870304, -39016.22, 79958.41, 0.0, 10.000531, 10.000344 
2.666736e+3, 2.9784864e+2, -244919.28, -212011.31, -8611.284, 0.30797634, -0.41857234, -209894.14, -188835.02, 0.0, 9.998797, 9.999441 
2.666333e+3, 3.0784413e+2, -60987.926, -12982.586, -12242.293, -0.6402417, -0.08508158, -10040.834, -10040.834, 0.0, 9.999456, 10.000104 
2.6659447e+3, 3.1783032e+2, 42659.99, -162992.38, 67042.86, -0.10611134, -0.6759391, 62585.465, 62585.465, 0.0, 10.00072, 9.998539 
2.683412e+3, 1.2837644e+2, -1846120.0, -1708818.0, 70953.29, -0.24766067, -0.27192456, -1678740.4, 3152.4128, 0.05267765, 9.99866, 10.000591 
2.6830226e+3, 1.3837124e+2, -1387809.5, -1663432.1, -11864.235, 0.17785259, -0.115843356, -1387299.8, 196639.66, 0.03242507, 10.0021925, 9.998605 
2.6826254e+3, 1.4836064e+2, -1222931.3, -1553527.6, -45948.03, -0.005463662, -0.23863265, -1216663.9, 269374.72, 0.015032841, 10.002871, 9.998239 
2.6822272e+3, 1.5834826e+2, -1289711.6, -1682479.8, -38718.375, -0.24800093, -0.5498189, -1285931.3, 102224.55, 0.0044764117, 10.002184, 9.9971285 
2.6818338e+3, 1.6834015e+2, -1161658.4, -1457852.1, 50699.617, -0.18289995, -0.3552916, -1153220.5, 137022.16, 0.00066900725, 10.002076, 9.997944 
2.6814416e+3, 1.7833345e+2, -1169242.0, -1470870.9, 69372.586, -0.030864863, -0.0663999, -1154051.8, 38266.98, 0.000027210404, 10.001464, 9.997581 
2.6810488e+3, 1.8832536e+2, -863088.44, -971623.44, 95707.914, -0.15214655, -0.02540726, -807333.4, 287066.1, 0.000000001728097, 10.001756, 10.000097 
2.6806557e+3, 1.9831704e+2, -859253.56, -1027048.9, -9319.035, -0.2972262, -0.11555593, -858737.6, 137741.28, 0.0, 10.001433, 9.99929 
2.6802632e+3, 2.083086e+2, -710421.06, -709810.0, -73956.63, -0.2199435, -0.23551601, -636158.25, 262398.6, 0.0, 10.001101, 10.0008335 
2.6798707e+3, 2.1830027e+2, -964644.25, -928649.1, -72361.89, -0.06428434, -0.40060598, -872080.25, -71446.85, 0.0, 9.99915, 9.999722 
2.6794764e+3, 2.2829208e+2, -638746.25, -534611.7, -60692.17, -0.071818925, -0.53830594, -506713.1, 195994.89, 0.0, 10.0000105, 10.001245 
2.6790825e+3, 2.3828429e+2, -670475.56, -744044.4, -48497.668, -0.096960925, -0.6792688, -646390.3, -41610.887, 0.0, 10.000082, 9.999198 
2.6786894e+3, 2.4827927e+2, -510311.53, -581997.06, -19394.586, -0.12275533, -0.35164377, -505400.72, 1436.0544, 0.0, 10.000553, 9.999255 
2.6782963e+3, 2.5827494e+2, -631373.4, -684589.75, -12811.832, -0.14064161, 0.017590309, -628449.56, -219559.16, 0.0, 9.999309, 9.998609 
2.6779035e+3, 2.6826718e+2, -272536.13, -140350.39, 8142.6763, -0.19413655, -0.041922633, -139850.7, 171113.89, 0.0, 9.999844, 10.001301 
2.677511e+3, 2.7825832e+2, -363107.88, -353792.6, 4138.7476, -0.20903143, -0.30175686, -352219.44, -139173.39, 0.0, 9.999354, 9.999518 
2.6771188e+3, 2.882507e+2, -240030.75, -195540.94, -89008.516, 0.0060101603, -0.27500266, -126039.72, -10915.728, 0.0, 9.999445, 9.99979 
2.6767257e+3, 2.9824388e+2, -442592.2, -357803.22, -54098.027, 0.15949968, -0.19387229, -331467.16, -314271.34, 0.0, 9.997769, 9.998924 
2.6763245e+3, 3.0824083e+2, -49447.33, 103564.66, 12415.444, -0.6650573, 0.227725, 104565.51, 104565.51, 0.0, 9.999216, 10.000948 
2.6759374e+3, 3.182285e+2, -200718.88, -260566.72, 113493.42, -0.19191138, -0.30577734, -113270.75, -113270.75, 0.0, 9.99925, 9.998506 
2.693404e+3, 1.2877512e+2, -2046230.8, -1910044.5, 168734.6, -0.22612692, 0.18364845, -1796181.5, -118197.63, 0.0436191, 9.997904, 9.999474 
2.6930168e+3, 1.3876097e+2, -1531360.0, -1802799.9, 74896.77, 0.106365405, -0.49266988, -1512065.6, 68051.42, 0.026486209, 10.001532, 9.997933 
2.692621e+3, 1.4875281e+2, -1191367.8, -1497430.4, -36422.293, -0.00774632, -0.37741172, -1187093.1, 295101.94, 0.012009438, 10.002934, 9.998587 
2.692224e+3, 1.5874544e+2, -1079284.6, -1496121.8, -10551.3955, -0.17912328, -0.22592516, -1079017.6, 305248.3, 0.003455713, 10.003271, 9.997875 
2.6918292e+3, 1.6873635e+2, -830524.6, -1135241.5, 96546.31, -0.23885688, -0.26274568, -802510.44, 483843.72, 0.00049606664, 10.003621, 9.999407 
2.691435e+3, 1.7872734e+2, -873019.9, -1290154.6, 169654.28, -0.31434107, -0.32074872, -812732.4, 375711.03, 0.00001910138, 10.003298, 9.997937 
2.6910427e+3, 1.8871932e+2, -883336.7, -1151718.9, 153205.63, -0.2419637, -0.17657088, -813863.3, 276666.75, 0.0000000002885943, 10.002307, 9.998597 
2.6906508e+3, 1.9871178e+2, -1006169.0, -1192120.9, 65507.043, -0.17369507, -0.032931108, -985409.75, 7202.285, 0.0, 10.000761, 9.998484 
2.690258e+3, 2.0870405e+2, -761425.1, -740510.1, 2972.2595, -0.062348165, -0.04654734, -740095.94, 154592.05, 0.0, 10.00071, 10.000832 
2.6898646e+3, 2.1869633e+2, -715127.8, -791382.94, 1814.1827, 0.026442196, -0.13587491, -715084.7, 81676.945, 0.0, 10.000715, 9.999911 
2.6894704e+3, 2.28688e+2, -569947.7, -546609.6, -7651.329, -0.014927054, -0.25792977, -544324.9, 154513.4, 0.0, 10.000614, 10.000902 
2.6890758e+3, 2.3867995e+2, -577253.06, -637743.5, 2212.4033, -0.112006836, -0.38744122, -577172.25, 23739.957, 0.0, 10.000366, 9.999806 
2.6886818e+3, 2.4867357e+2, -420897.88, -468037.28, 54370.96, -0.21154657, -0.2537685, -385207.7, 117770.06, 0.0, 10.000757, 10.0 
2.688288e+3, 2.5866756e+2, -306406.88, -442514.88, 73771.68, -0.318727, -0.08451567, -274093.5, 130947.99, 0.0, 10.001029, 9.999471 
2.687895e+3, 2.6866007e+2, -358200.13, -224770.03, 11122.926, -0.2570879, -0.11577824, -223849.17, 83263.695, 0.0, 9.999328, 10.001031 
2.6875025e+3, 2.78652e+2, -663205.25, -489498.1, -11821.05, -0.14858094, -0.24431309, -488697.34, -279509.75, 0.0, 9.997112, 9.999697 
2.6871088e+3, 2.886444e+2, -417554.47, -308245.7, -48390.61, -0.1026195, -0.20810334, -289901.75, -178635.47, 0.0, 9.998178, 9.999677 
2.6867142e+3, 2.986375e+2, -136218.28, -247416.92, -11217.231, -0.121466614, -0.10145745, -135098.02, -121757.83, 0.0, 9.999873, 9.998688 
2.6863188e+3, 3.0863255e+2, 55625.35, -18017.777, -41169.504, -0.47601584, 0.23393619, 74037.43, 74037.43, 0.0, 10.000538, 9.999533 
2.685931e+3, 3.186208e+2, -23022.484, -198732.1, -131778.4, -0.11630739, -0.10597679, 47502.055, 47502.055, 0.0, 10.000343, 9.9984455 
2.703398e+3, 1.2916847e+2, -1335151.5, -1618239.5, 19566.734, -0.12345506, 0.24232957, -1333805.4, 340323.5, 0.03554995, 10.003027, 9.999045 
2.7030098e+3, 1.3915184e+2, -1714344.9, -1891350.1, -43323.176, 0.04625334, -0.62808615, -1704310.1, -128024.3, 0.021269772, 10.000167, 9.998036 
2.7026162e+3, 1.4914554e+2, -1362726.9, -1494221.1, -84687.586, 0.0334681, -0.40615287, -1321260.8, 157085.8, 0.009415533, 10.001301, 9.999442 
2.7022216e+3, 1.5914108e+2, -1139715.6, -1431006.9, -57227.855, 0.022690035, -0.040374517, -1128875.9, 251513.66, 0.0026134893, 10.002418, 9.998745 
2.7018246e+3, 1.6913143e+2, -1021963.6, -1113632.6, -33842.875, -0.22462149, -0.24526285, -1010823.2, 271654.03, 0.0003600524, 10.001802, 10.000423 
2.7014282e+3, 1.7912091e+2, -1299795.1, -1468092.3, -11447.662, -0.45579684, -0.5513035, -1299020.0, -114446.19, 0.000012952271, 10.000278, 9.998159 
2.7010366e+3, 1.8911335e+2, -1144245.0, -1371258.8, 43112.516, -0.27060398, -0.33200175, -1136333.3, -49673.125, 0.000000000007316074, 10.000978, 9.997705 
2.700646e+3, 1.9910656e+2, -1070325.3, -1331719.6, 45853.727, 0.015547841, -0.021768745, -1062515.0, -73772.89, 0.0, 10.000821, 9.99751 
2.7002528e+3, 2.0909983e+2, -773324.0, -787067.8, -2858.952, 0.10682391, 0.10786185, -772753.0, 118061.27, 0.0, 10.000843, 10.000437 
2.6998585e+3, 2.1909307e+2, -919176.06, -964732.75, -25051.383, 0.16001764, 0.15565977, -908095.5, -115212.23, 0.0, 9.999736, 9.999172 
2.6994637e+3, 2.2908507e+2, -681288.3, -631409.94, -20560.82, 0.04064485, 0.09150674, -624027.1, 70931.375, 0.0, 10.000125, 10.000471 
2.6990682e+3, 2.3907697e+2, -761428.1, -781179.7, 13818.139, -0.10284091, -0.009816452, -754319.44, -157286.11, 0.0, 9.99943, 9.999255 
2.6986742e+3, 2.4906842e+2, -392749.9, -359945.16, 46454.91, -0.27831817, -0.14586353, -327081.97, 172030.98, 0.0, 10.000612, 10.000774 
2.6982802e+3, 2.590601e+2, -475166.56, -554476.7, -8211.349, -0.41815025, -0.28703824, -474325.3, -73134.695, 0.0, 10.000146, 9.999092 
2.697886e+3, 2.6905316e+2, -449550.34, -356300.53, -124693.68, -0.3123671, -0.20930393, -269799.94, 33456.805, 0.0, 9.999207, 10.000115 
2.6974916e+3, 2.7904648e+2, -803069.06, -648188.9, -71233.61, -0.168738, -0.13644849, -620409.25, -415088.28, 0.0, 9.996715, 9.998762 
2.6970977e+3, 2.8903866e+2, -425596.0, -288637.6, -9846.032, -0.30013853, -0.11003685, -287933.38, -180531.78, 0.0, 9.998208, 9.999725 
2.696703e+3, 2.990306e+2, -396888.03, -550686.44, 22823.4, -0.48305985, -0.09547517, -393572.53, -384086.63, 0.0, 9.999002, 9.997004 
2.6963142e+3, 3.0902126e+2, -223287.89, -478328.6, -15565.878, -0.2381046, 0.038302053, -222341.38, -222341.38, 0.0, 10.000133, 9.996529 
2.695924e+3, 3.1900892e+2, -223788.22, -310681.16, -151942.5, -0.13447985, -0.13960372, -109202.67, -109202.67, 0.0, 9.999254, 9.998171 
2.713395e+3, 1.295533e+2, -1295798.1, -1489454.5, -220682.17, -0.13886218, -0.117418826, -1151636.0, 518725.75, 0.028414978, 10.002918, 9.999969 
2.712999e+3, 1.3954537e+2, -1771081.3, -1793678.5, -113017.72, -0.30725226, -0.23752132, -1668798.8, -96365.43, 0.016713178, 9.999311, 9.999091 
2.7126083e+3, 1.4953807e+2, -1340976.3, -1289926.8, -16995.582, -0.09706634, -0.27728158, -1284786.1, 189713.63, 0.0071980846, 10.000668, 10.001118 
2.7122176e+3, 1.5953092e+2, -1175269.5, -1391913.1, -48539.875, 0.10202455, -0.32515362, -1164891.1, 211674.14, 0.0019202423, 10.001961, 9.99922 
2.7118197e+3, 1.69522e+2, -1217761.1, -1308496.0, -134467.25, -0.10720645, -0.40495163, -1121214.4, 157434.5, 0.00025324232, 10.000901, 9.999522 
2.7114213e+3, 1.795129e+2, -1446799.8, -1479296.5, -88442.54, -0.39839786, -0.5062704, -1373125.4, -192390.63, 0.000008369746, 9.998983, 9.998714 
2.7110288e+3, 1.8950544e+2, -1089061.3, -1105881.5, 72492.08, -0.34922945, -0.45237324, -1024493.1, 58319.598, 0.0, 10.000314, 9.999862 
2.7106377e+3, 1.9949856e+2, -880134.2, -1131712.4, 97002.69, -0.25293553, -0.333572, -847076.1, 137811.4, 0.0, 10.001617, 9.998509 
2.7102447e+3, 2.0949186e+2, -758499.7, -923216.1, -5159.4067, -0.09241565, -0.13122289, -758338.25, 128624.09, 0.0, 10.001508, 9.999222 
2.7098507e+3, 2.1948527e+2, -757014.5, -889593.4, -37590.063, 0.0004329453, 0.042754564, -747098.3, 41936.32, 0.0, 10.000789, 9.9992 
2.7094552e+3, 2.2947763e+2, -573825.25, -536398.2, -5905.7964, -0.106874086, -0.0076214657, -535488.4, 155619.14, 0.0, 10.000611, 10.000936 
2.7090597e+3, 2.394698e+2, -566496.0, -671334.5, 58950.363, -0.2590967, -0.09406074, -540029.75, 53150.863, 0.0, 10.0006075, 9.999451 
2.7086678e+3, 2.4946171e+2, -357385.4, -461521.38, 53949.535, -0.29237765, -0.10585077, -334475.88, 160782.94, 0.0, 10.001311, 9.9997635 
2.7082753e+3, 2.5945356e+2, -262613.44, -504914.5, -105381.98, -0.31928998, -0.12872103, -223193.69, 174144.06, 0.0, 10.001741, 9.998661 
2.7078792e+3, 2.694445e+2, -257422.83, -374321.0, -284577.72, -0.26586524, -0.18772632, -25353.805, 274070.3, 0.0, 10.000895, 9.999214 
2.707483e+3, 2.7943572e+2, -350420.4, -442152.75, -202819.0, -0.1950798, -0.243643, -188346.08, 13162.217, 0.0, 9.999785, 9.998695 
2.7070895e+3, 2.8942803e+2, -126667.59, -159009.14, -106869.01, -0.31372097, -0.19850726, -34752.848, 68834.75, 0.0, 10.000297, 9.999633 
2.7066958e+3, 2.9942042e+2, -42980.82, -270044.63, -90262.55, -0.50549227, -0.14738747, -11471.966, -5805.409, 0.0, 10.000845, 9.998063 
2.7063075e+3, 3.094119e+2, -40928.37, -240596.13, 27935.842, -0.197953, -0.048442103, -37093.477, -37093.477, 0.0, 10.000624, 9.997995 
2.705916e+3, 3.1940162e+2, -72011.17, -50259.508, -9728.702, -0.15038939, -0.10741174, -46543.17, -46543.17, 0.0, 9.999322, 9.999978 
2.7233905e+3, 1.2994349e+2, -1293879.1, -1418023.4, -16091.3545, -0.10814171, -0.34771645, -1291827.3, 374709.72, 0.022191128, 10.002448, 10.000782 
2.7229908e+3, 1.3993959e+2, -1470920.9, -1565125.1, 81492.59, -0.3523114, -0.06979461, -1423897.3, 144672.36, 0.012784308, 10.000926, 9.999933 
2.7226013e+3, 1.4993145e+2, -1215087.6, -1162874.8, 179934.25, -0.12243433, -0.24900755, -1007162.9, 463480.56, 0.00532732, 10.001214, 10.001766 
2.7222127e+3, 1.5992251e+2, -1250622.3, -1432757.9, 10390.37, 0.1941863, -0.49894112, -1250031.5, 122693.8, 0.0013580795, 10.001473, 9.99919 
2.7218142e+3, 1.6991413e+2, -1164845.1, -1369232.3, -131154.94, 0.028054703, -0.46830457, -1100770.4, 174037.03, 0.00016970174, 10.001668, 9.998744 
2.7214152e+3, 1.79906e+2, -1159238.5, -1321219.3, -34700.188, -0.19986951, -0.40322784, -1152117.9, 24769.56, 0.0000049540654, 10.000894, 9.998887 
2.7210218e+3, 1.8989816e+2, -896443.44, -835076.94, 83092.234, -0.3622098, -0.5150394, -777183.75, 301778.2, 0.0, 10.000874, 10.001429 
2.7206296e+3, 1.9989064e+2, -1082284.0, -1207906.3, -5391.356, -0.4167471, -0.5955897, -1082053.1, -101018.09, 0.0, 10.000208, 9.998637 
2.7202365e+3, 2.098838e+2, -857772.1, -1067260.5, -88191.76, -0.2610771, -0.36512715, -825588.8, 57523.105, 0.0, 10.00135, 9.998251 
2.7198425e+3, 2.1987714e+2, -768075.9, -970702.1, -66136.87, -0.09363858, -0.11527572, -748399.56, 36787.64, 0.0, 10.001118, 9.998483 
2.7194467e+3, 2.2986948e+2, -543809.0, -480329.25, -52056.74, -0.21652094, -0.18599328, -451099.28, 236161.36, 0.0, 10.000705, 10.001257 
2.7190518e+3, 2.3986192e+2, -869363.94, -907983.4, 21958.277, -0.3340941, -0.25574872, -859432.75, -270100.75, 0.0, 9.999053, 9.998546 
2.7186617e+3, 2.4985477e+2, -616831.25, -728250.8, 79555.805, -0.24859025, -0.0769626, -575418.94, -84013.0, 0.0, 10.000231, 9.998409 
2.7182713e+3, 2.5984722e+2, -603359.44, -854863.75, -81417.79, -0.13490814, 0.10136167, -579303.5, -185819.67, 0.0, 10.000291, 9.996971 
2.7178732e+3, 2.6983532e+2, -442048.75, -556334.6, -272786.13, -0.18285553, -0.14664753, -220484.69, 75113.39, 0.0, 10.0001335, 9.998302 
2.717475e+3, 2.798234e+2, -628144.0, -715494.6, -145861.33, -0.21295235, -0.41707832, -519559.47, -321846.84, 0.0, 9.998573, 9.997404 
2.7170825e+3, 2.8981537e+2, -268522.06, -272208.34, -23083.047, -0.25806293, -0.35790747, -247208.69, -147414.19, 0.0, 9.999565, 9.999174 
2.71669e+3, 2.9980874e+2, -186629.81, -208390.1, -34886.08, -0.42135817, -0.20465848, -160966.61, -159104.44, 0.0, 9.99941, 9.999152 
2.7162996e+3, 3.0980405e+2, 102032.445, 284200.78, 15951.594, -0.2912408, -0.08009636, 285587.03, 285587.03, 0.0, 9.999744, 10.001948 
2.715908e+3, 3.1979427e+2, -145198.05, 118547.38, -110981.41, -0.11775745, -0.45838565, 159032.69, 159032.69, 0.0, 9.998147, 10.001627 
2.7333835e+3, 1.3034207e+2, -1439501.1, -1461772.9, -57252.332, -0.29163513, -0.273095, -1392311.8, 270309.2, 0.016854065, 10.001436, 10.000878 
2.732987e+3, 1.4033419e+2, -1584744.1, -1721899.6, 144191.44, -0.1251351, -0.41727117, -1493653.3, 71040.05, 0.009467284, 10.000648, 9.998959 
2.732595e+3, 1.5032694e+2, -1344253.4, -1399698.1, 256918.75, -0.14730199, -0.35597908, -1113565.6, 353198.34, 0.0037924994, 10.001119, 10.000155 
2.7322036e+3, 1.6031931e+2, -1358490.4, -1576569.4, 60637.36, -0.14326426, -0.3251762, -1342764.1, 26074.95, 0.0009170214, 10.001156, 9.998336 
2.7318075e+3, 1.7031078e+2, -1108152.3, -1340287.6, -46683.57, -0.08856664, -0.27922925, -1099115.8, 171810.22, 0.0001065257, 10.002081, 9.998731 
2.731411e+3, 1.8030237e+2, -999001.94, -1325138.0, 25805.121, -0.11858423, -0.20848031, -996972.75, 176038.38, 0.0000025959862, 10.002342, 9.998153 
2.7310166e+3, 1.9029346e+2, -958272.9, -1082787.9, 42801.777, -0.2662308, -0.26186052, -944979.1, 130119.125, 0.0, 10.001334, 9.99954 
2.730623e+3, 2.0028466e+2, -1096425.6, -1217124.4, -64378.527, -0.41621333, -0.32032743, -1068533.0, -91349.2, 0.0, 10.000072, 9.998639 
2.7302298e+3, 2.1027628e+2, -676125.6, -847571.2, -46756.477, -0.3614099, -0.33779672, -664203.3, 215064.03, 0.0, 10.001981, 9.999473 
2.7298364e+3, 2.2026847e+2, -359201.16, -730994.7, -65203.27, -0.2980438, -0.2909062, -348097.75, 433248.3, 0.0, 10.003668, 9.998901 
2.7294406e+3, 2.3026127e+2, -470755.94, -566190.2, -157279.75, -0.20281258, -0.2481212, -354114.2, 329303.22, 0.0, 10.001648, 10.0002365 
2.7290457e+3, 2.4025415e+2, -781597.5, -803003.2, -53238.84, -0.15062864, -0.20460714, -737996.3, -152509.4, 0.0, 9.999297, 9.999151 
2.728655e+3, 2.502462e+2, -586597.3, -583286.56, 126844.59, -0.1718525, -0.20677638, -458086.53, 29478.393, 0.0, 9.999763, 9.999683 
2.7282637e+3, 2.6023817e+2, -487887.88, -637565.75, 1253.9995, -0.19733503, -0.1849004, -487877.38, -98233.016, 0.0, 10.000282, 9.99848 
2.7278647e+3, 2.702289e+2, -435726.88, -492161.06, -142937.23, -0.21871817, -0.2265615, -318248.2, -26511.613, 0.0, 9.999829, 9.998936 
2.7274662e+3, 2.802191e+2, -451324.25, -512744.63, 88136.37, -0.21729986, -0.31007037, -388700.97, -194868.0, 0.0, 9.999116, 9.9985695 
2.7270743e+3, 2.902106e+2, -293568.22, -225849.84, 270515.22, -0.25931844, -0.3391731, 12916.95, 108833.11, 0.0, 9.998979, 9.999847 
2.726682e+3, 3.002033e+2, -254771.64, -183905.52, 263939.7, -0.37580618, -0.27024108, 46968.87, 46968.87, 0.0, 9.998569, 9.999744 
2.7262914e+3, 3.1019843e+2, -241699.75, 53337.7, 104841.195, -0.20290472, -0.10242074, 86798.12, 86798.12, 0.0, 9.997536, 10.001484 
2.7258995e+3, 3.2018825e+2, -46711.23, 276125.75, -159594.63, -0.009661291, -0.48378083, 341701.47, 341701.47, 0.0, 9.998089, 10.002809 
2.743377e+3, 1.3073893e+2, -1572315.3, -1598118.4, -43354.2, -0.29508096, -0.34333402, -1539983.6, 118740.15, 0.012358498, 10.000723, 10.000277 
2.7429846e+3, 1.4072974e+2, -1081127.1, -1575374.4, 19.996202, 0.17993814, -0.52428746, -1081127.1, 479685.97, 0.0067449147, 10.004496, 9.998098 
2.7425897e+3, 1.507225e+2, -1197514.0, -1474199.0, 95932.77, -0.09025001, -0.3672786, -1167506.5, 295381.16, 0.0025850076, 10.002708, 9.998871 
2.7421954e+3, 1.6071543e+2, -1449142.1, -1659577.4, -26164.777, -0.28420776, -0.18634579, -1445937.8, -80976.46, 0.0005889778, 10.000672, 9.997989 
2.741801e+3, 1.7070715e+2, -1106755.8, -1313687.4, -49780.24, -0.13916548, -0.15072821, -1095403.3, 171642.97, 0.00006228534, 10.00192, 9.999003 
2.741407e+3, 1.8069862e+2, -1065194.1, -1480056.3, 34795.88, 0.0070854425, -0.07515812, -1062296.0, 106837.67, 0.0000011486238, 10.002436, 9.997038 
2.7410117e+3, 1.9068897e+2, -1013545.75, -1305191.9, 53684.156, -0.12905452, -0.051778406, -1003977.9, 67252.766, 0.0, 10.001856, 9.997724 
2.7406168e+3, 2.0067936e+2, -1063854.5, -1230992.9, 57778.52, -0.27390456, -0.045581564, -1045825.6, -72500.516, 0.0, 10.000495, 9.998327 
2.7402237e+3, 2.1066953e+2, -735935.1, -748376.2, 91349.93, -0.36864984, -0.30002633, -650594.2, 224821.0, 0.0, 10.001004, 10.000629 
2.739831e+3, 2.2066031e+2, -804924.94, -987682.94, -34056.984, -0.3668844, -0.45961526, -798784.75, -21284.566, 0.0, 10.000835, 9.998497 
2.7394354e+3, 2.306536e+2, -604862.25, -751936.9, -186154.4, -0.106124565, -0.28616375, -478246.63, 201322.78, 0.0, 10.001326, 9.999079 
2.73904e+3, 2.406469e+2, -674719.44, -769022.9, 55.210472, 0.11216524, -0.10607425, -674719.4, -93081.8, 0.0, 10.000164, 9.998964 
2.7386478e+3, 2.5063762e+2, -515308.38, -358945.6, 164178.98, -0.10033599, -0.38630036, -255283.47, 228439.47, 0.0, 9.999501, 10.001309 
2.7382547e+3, 2.6062912e+2, -754244.06, -681068.75, -40179.297, -0.31282932, -0.55757236, -663314.6, -277512.53, 0.0, 9.998218, 9.999141 
2.737856e+3, 2.7062395e+2, -504278.56, -411495.9, -202114.67, -0.2829743, -0.3062245, -250516.8, 37341.316, 0.0, 9.998944, 9.999866 
2.7374578e+3, 2.8061837e+2, -532955.3, -478282.72, 42939.344, -0.22141916, -0.070766, -454716.53, -264799.28, 0.0, 9.998385, 9.999122 
2.7370656e+3, 2.906096e+2, -271148.4, -80057.07, 218386.19, -0.2655201, -0.26162547, 62769.867, 154767.08, 0.0, 9.998675, 10.000946 
2.7366737e+3, 3.0060107e+2, -544847.7, -527369.4, 182294.14, -0.34651306, -0.34697458, -353605.06, -353605.06, 0.0, 9.997603, 9.9978285 
2.7362823e+3, 3.1059414e+2, -539534.75, -450103.0, 34091.36, -0.0788673, -0.12395153, -438589.63, -438589.63, 0.0, 9.997208, 9.998099 
2.735891e+3, 3.205817e+2, -91394.78, 363709.2, 66299.805, 0.0736325, -0.5297645, 373171.06, 373171.06, 0.0, 9.997556, 10.003593 
2.7533695e+3, 1.311322e+2, -1847959.8, -1964895.8, 144246.4, -0.4109484, -0.5465871, -1750782.3, -95915.22, 0.008685325, 9.999959, 9.998087 
2.752984e+3, 1.411274e+2, -1118647.3, -1738499.4, 20156.91, 0.25774553, -0.120719135, -1117992.4, 438931.8, 0.004592608, 10.004915, 9.996753 
2.7525866e+3, 1.5111734e+2, -1216581.0, -1536618.4, -25290.771, 0.031542588, -0.18820646, -1214594.8, 244431.7, 0.0016782222, 10.00284, 9.998371 
2.7521896e+3, 1.6110767e+2, -1442299.4, -1558025.3, -48756.78, -0.21328616, -0.25401935, -1424496.4, -63373.16, 0.0003582281, 10.000326, 9.998841 
2.751795e+3, 1.7110075e+2, -1012341.2, -1087486.4, 23680.123, -0.20309801, -0.2311936, -1005501.56, 257688.08, 0.000033741435, 10.001806, 10.000601 
2.7514008e+3, 1.8109348e+2, -954786.44, -1332451.8, 71390.02, -0.20222151, -0.15661545, -941742.1, 223517.66, 0.00000040337267, 10.002766, 9.9978895 
2.7510062e+3, 1.9108362e+2, -913387.44, -1249659.6, 101796.76, -0.193629, -0.1704901, -884972.44, 182385.73, 0.0, 10.002479, 9.99782 
2.750612e+3, 2.0107403e+2, -860713.2, -1102094.9, 120161.484, -0.21237873, -0.16097489, -811095.3, 158356.92, 0.0, 10.001695, 9.9986515 
2.750219e+3, 2.1106486e+2, -794652.0, -784210.8, 148279.63, -0.17523502, -0.3406791, -641059.9, 230476.06, 0.0, 10.000544, 10.000654 
2.749826e+3, 2.2105613e+2, -910820.2, -988582.4, 55225.805, -0.15293103, -0.4531362, -882161.44, -108544.69, 0.0, 9.999829, 9.998986 
2.74943e+3, 2.3104899e+2, -439922.78, -664404.25, -2024.3766, -0.08664003, -0.31901175, -439904.53, 235786.53, 0.0, 10.002355, 9.999228 
2.7490336e+3, 2.4104182e+2, -128592.92, -508780.88, 86017.68, -0.069648, -0.17012404, -110037.05, 467727.97, 0.0, 10.003825, 9.999008 
2.748639e+3, 2.5103277e+2, -504191.2, -468727.4, 89754.836, -0.2364865, -0.31678003, -394969.66, 84882.31, 0.0, 10.000016, 10.000343 
2.7482438e+3, 2.6102424e+2, -936693.44, -745710.4, -96477.68, -0.3884881, -0.41037712, -705457.4, -323523.22, 0.0, 9.996759, 9.9994135 
2.747847e+3, 2.710181e+2, -536426.06, -417959.3, -215797.11, -0.26336238, -0.26001334, -253413.83, 30584.813, 0.0, 9.998581, 10.000046 
2.747451e+3, 2.8101215e+2, -220518.25, -253679.72, -63444.574, -0.12910669, -0.09115025, -171523.58, 14536.254, 0.0, 10.000118, 9.999842 
2.7470592e+3, 2.9100433e+2, -165424.14, -20583.195, 6255.5547, -0.09287124, -0.19797666, -20313.525, 67815.7, 0.0, 9.9993105, 10.00109 
2.7466664e+3, 3.0099583e+2, -404922.88, -480351.5, -36544.652, -0.16293773, -0.2883625, -390121.66, -390121.66, 0.0, 9.998525, 9.9977455 
2.7462733e+3, 3.1098548e+2, -212307.72, -414327.84, -70269.28, -0.1180047, -0.3257039, -190269.81, -190269.81, 0.0, 9.999818, 9.997172 
2.745883e+3, 3.209755e+2, 308371.13, 366289.1, 149599.23, -0.007143821, -0.35767376, 489706.47, 489706.47, 0.0, 10.000896, 10.002041 
2.7633652e+3, 1.3152695e+2, -1329729.8, -1813316.0, 148453.0, -0.28772858, -0.51681143, -1287793.9, 363207.75, 0.005822727, 10.0038595, 9.997295 
2.7629805e+3, 1.4152302e+2, -1472270.5, -1913654.8, -35292.12, 0.30115402, 0.08800961, -1469466.4, 83587.25, 0.002969682, 10.002474, 9.996745 
2.7625823e+3, 1.5151168e+2, -1280834.3, -1546349.4, -69384.73, 0.11162929, -0.12810655, -1263795.9, 191370.38, 0.0010279784, 10.002314, 9.99856 
2.7621844e+3, 1.6150089e+2, -1210212.1, -1414472.1, 19187.318, -0.06655432, -0.31794566, -1208425.4, 148846.77, 0.0002033788, 10.001737, 9.999181 
2.7617893e+3, 1.7149454e+2, -935401.9, -991862.0, 8597.691, -0.19806176, -0.284245, -934121.6, 325208.8, 0.000016580547, 10.002057, 10.001157 
2.7613947e+3, 1.8148796e+2, -1044016.0, -1326094.5, -53981.64, -0.2732102, -0.20528333, -1034038.44, 127353.15, 0.00000009587778, 10.00199, 9.998298 
2.7610007e+3, 1.9147795e+2, -949403.9, -1220339.0, -49741.703, -0.18696903, -0.29177886, -940560.3, 122929.39, 0.0, 10.002054, 9.998227 
2.760607e+3, 2.0146838e+2, -941880.0, -1154273.1, 4572.6646, -0.070208624, -0.31024066, -941781.6, 23801.16, 0.0, 10.001229, 9.998518 
2.7602142e+3, 2.1146046e+2, -853259.8, -813805.56, 12757.617, 0.06563862, -0.3822813, -810039.8, 57615.832, 0.0, 10.000227, 10.000561 
2.7598205e+3, 2.2145277e+2, -1092855.0, -1077218.8, 34070.55, 0.14815874, -0.38986954, -1050080.8, -280353.34, 0.0, 9.998724, 9.998874 
2.7594241e+3, 2.3144509e+2, -703131.75, -744921.9, 42498.26, -0.07271444, -0.3614975, -676669.56, -4863.038, 0.0, 10.000446, 9.999557 
2.7590275e+3, 2.4143745e+2, -677971.0, -912859.0, 5606.19, -0.26685247, -0.24030825, -677837.25, -103951.516, 0.0, 10.000793, 9.997656 
2.75863e+3, 2.5142902e+2, -689864.6, -740071.25, -53391.31, -0.36427176, -0.19732772, -655969.56, -179997.02, 0.0, 9.999604, 9.998632 
2.7582332e+3, 2.614205e+2, -922318.2, -875163.44, -64402.207, -0.38918602, -0.13441873, -830158.5, -452099.3, 0.0, 9.99755, 9.998139 
2.7578387e+3, 2.7141184e+2, -505147.25, -418615.8, -101804.6, -0.18778458, -0.20958273, -351264.63, -71118.805, 0.0, 9.999018, 9.999788 
2.757445e+3, 2.8140384e+2, -417114.5, -442746.4, -20080.139, 0.03585046, -0.194518, -406109.03, -223884.56, 0.0, 9.999299, 9.998924 
2.757053e+3, 2.913972e+2, -269105.28, -140338.53, -17476.297, 0.14138243, -0.13751021, -138008.78, -53724.63, 0.0, 9.998967, 10.000407 
2.7566594e+3, 3.0138907e+2, -561364.3, -601924.7, -18404.957, 0.062150456, -0.12565163, -554257.9, -554257.9, 0.0, 9.997787, 9.997238 
2.7562645e+3, 3.1137386e+2, -251784.94, -376854.6, -14466.233, -0.2372516, -0.6955451, -250133.5, -250133.5, 0.0, 9.999434, 9.997562 
2.7558717e+3, 3.213709e+2, -222415.11, -347646.16, 283722.88, -0.52762735, 0.046133716, 5519.489, 5519.489, 0.0, 9.999514, 9.997711 
2.773364e+3, 1.3192263e+2, -1313072.4, -1662953.0, -69229.336, -0.1590518, -0.07637881, -1299872.3, 347263.25, 0.0036892197, 10.003496, 9.998427 
2.772971e+3, 1.4191242e+2, -1560410.4, -1770997.3, -61740.938, -0.10485118, -0.2718719, -1543643.9, 5595.3906, 0.0018042208, 10.001149, 9.998323 
2.7725747e+3, 1.5190497e+2, -1214041.9, -1303276.0, -6403.3716, -0.12267384, -0.294119, -1213584.8, 237722.5, 0.00058557204, 10.001905, 10.000396 
2.772179e+3, 1.6189703e+2, -1234067.5, -1578789.0, 54186.613, -0.1369785, -0.26734513, -1225750.5, 127631.914, 0.00010501939, 10.002233, 9.997808 
2.771784e+3, 1.7188834e+2, -1108187.8, -1384045.6, -1185.7753, -0.18238679, -0.21456699, -1108182.6, 147289.8, 0.0000068884756, 10.00219, 9.998405 
2.7713898e+3, 1.8187982e+2, -1083886.4, -1354968.8, -125402.65, -0.23402028, -0.1387602, -1034773.2, 122785.67, 0.00000000965895, 10.001772, 9.998191 
2.7709955e+3, 1.9187017e+2, -887999.1, -1077048.8, -86494.766, -0.17994452, -0.27669463, -854397.94, 205254.1, 0.0, 10.001967, 9.999262 
2.7706006e+3, 2.0186137e+2, -825696.6, -986668.7, -85058.47, -0.14611119, -0.32263377, -789080.4, 172656.02, 0.0, 10.00154, 9.999501 
2.7702057e+3, 2.1185498e+2, -797584.2, -751370.75, -69017.05, -0.063632265, -0.27812773, -701695.1, 162101.3, 0.0, 10.000461, 10.000875 
2.769811e+3, 2.2184841e+2, -917185.44, -891018.9, -34617.55, -0.039607283, -0.21873923, -867094.75, -101236.47, 0.0, 9.999425, 9.99983 
2.769415e+3, 2.3184037e+2, -870145.2, -747291.0, 15387.95, -0.16868077, -0.2891154, -745392.94, -77456.41, 0.0, 9.9988785, 10.000349 
2.7690193e+3, 2.4183246e+2, -870471.56, -867948.75, 7443.354, -0.29323733, -0.28729478, -861660.7, -291645.78, 0.0, 9.998814, 9.9989195 
2.7686235e+3, 2.5182444e+2, -478654.03, -587030.75, 29522.31, -0.26836357, -0.246073, -471133.8, 962.74866, 0.0, 10.000759, 9.999169 
2.7682278e+3, 2.6181635e+2, -176885.69, -421592.3, 51878.04, -0.23659147, -0.18323238, -166341.81, 207836.44, 0.0, 10.00216, 9.999055 
2.7678323e+3, 2.718076e+2, -53285.52, -176410.31, 51296.906, -0.1656198, -0.27230877, -34714.895, 241547.61, 0.0, 10.001912, 10.000113 
2.7674374e+3, 2.817991e+2, -134503.25, -359903.1, 136130.4, -0.077514276, -0.2882489, -70475.234, 107869.875, 0.0, 10.001343, 9.998523 
2.7670437e+3, 2.9179147e+2, -94864.5, -249946.27, 77261.875, -0.042840067, -0.16156977, -62943.13, 17478.043, 0.0, 10.000806, 9.9988365 
2.76665e+3, 3.0178282e+2, -146364.78, -386317.72, 99389.195, -0.11004671, -0.08946777, -110544.7, -110544.7, 0.0, 10.000405, 9.997474 
2.7662578e+3, 3.1176886e+2, 50392.703, -174908.77, 131252.61, -0.19106136, -0.5612139, 110708.54, 110708.54, 0.0, 10.001129, 9.998169 
2.7658638e+3, 3.2176757e+2, -290637.22, -200778.77, 278066.72, -0.4746429, 0.2884076, 35965.113, 35965.113, 0.0, 9.998069, 9.999446 
2.7833608e+3, 1.3231808e+2, -1315669.3, -1657825.8, 59378.62, -0.06509411, 0.09783742, -1305657.5, 337606.16, 0.0021709546, 10.003326, 9.998591 
2.7829635e+3, 1.4230351e+2, -1194503.5, -1505499.4, -21430.918, -0.26055628, -0.54400694, -1193033.6, 352373.22, 0.0010072378, 10.003127, 9.999265 
2.7825683e+3, 1.5229887e+2, -905046.1, -1066579.0, -51728.49, -0.20672257, -0.37662384, -889900.9, 557543.4, 0.00030058212, 10.003504, 10.001338 
2.7821743e+3, 1.622929e+2, -1152374.8, -1639300.1, -33230.492, -0.09240908, -0.1818353, -1150117.4, 199381.92, 0.000046417692, 10.003218, 9.996929 
2.7817795e+3, 1.7228235e+2, -1215660.5, -1639673.4, 1492.9862, -0.10223007, -0.16088898, -1215655.3, 35957.15, 0.0000020738605, 10.00233, 9.9966 
2.781385e+3, 1.8227236e+2, -1191368.9, -1400485.3, -3644.3748, -0.10792821, -0.10054823, -1191305.4, -37587.777, 0.00000000000031198744, 10.001015, 9.998242 
2.7809897e+3, 1.9226347e+2, -1066986.1, -1055003.4, -10888.04, -0.10871773, -0.2474643, -1048567.1, 7235.668, 0.0, 10.000311, 10.000188 
2.7805942e+3, 2.0225565e+2, -1116473.6, -1094504.3, -30756.787, -0.115453355, -0.2580575, -1072829.5, -114951.69, 0.0, 9.999484, 9.999736 
2.780197e+3, 2.1225e+2, -849410.4, -758313.6, -68293.266, -0.17664658, -0.15941045, -721772.9, 138160.13, 0.0, 10.0000925, 10.000995 
2.779801e+3, 2.2224393e+2, -884838.75, -854619.56, -23492.596, -0.18912128, -0.05390549, -841797.06, -79806.14, 0.0, 9.999598, 9.999986 
2.7794057e+3, 2.3223558e+2, -713400.7, -596806.1, -11335.933, -0.20683692, -0.23709174, -595714.2, 68353.88, 0.0, 9.999673, 10.00097 
2.779011e+3, 2.4222751e+2, -816744.6, -782433.0, 32274.219, -0.1923029, -0.30866072, -763038.2, -196894.42, 0.0, 9.999026, 9.999392 
2.778618e+3, 2.5221983e+2, -500349.72, -478004.72, 50149.777, -0.09244815, -0.3445805, -437798.0, 30421.842, 0.0, 10.000212, 10.000153 
2.778224e+3, 2.6221225e+2, -420203.94, -502181.8, 14028.909, -0.03112874, -0.30058455, -417869.63, -47575.945, 0.0, 10.000491, 9.99925 
2.777826e+3, 2.7220422e+2, -157954.86, -173873.97, -22503.785, -0.17417125, -0.39110407, -142044.47, 130323.18, 0.0, 10.001069, 10.000482 
2.7774286e+3, 2.8219587e+2, -397203.34, -668634.4, 64317.332, -0.2992966, -0.36304653, -382734.22, -208285.47, 0.0, 10.000462, 9.996798 
2.777033e+3, 2.9218617e+2, -301804.72, -553596.94, 37282.324, -0.42115098, -0.28448132, -296400.4, -219847.42, 0.0, 10.000426, 9.99686 
2.776639e+3, 3.021772e+2, -318143.16, -520496.9, 121361.91, -0.50222236, -0.08287795, -261315.36, -261315.36, 0.0, 9.999636, 9.996879 
2.7762523e+3, 3.1216854e+2, -79833.22, -150494.34, 155371.56, -0.09047784, -0.11054902, 44174.14, 44174.14, 0.0, 10.000017, 9.998824 
2.7758592e+3, 3.2216236e+2, -84469.76, 631545.6, -161748.31, 0.02400493, -0.012096865, 666389.06, 666389.06, 0.0, 9.996551, 10.005872 
2.7933556e+3, 1.3271387e+2, -1571477.0, -1988560.5, 90094.71, -0.22409436, -0.026468761, -1552847.6, 86527.695, 0.0011673695, 10.002569, 9.996649 
2.792961e+3, 1.4269936e+2, -1342863.9, -1780159.4, 17237.545, -0.15826952, -0.4709775, -1342185.4, 199341.58, 0.00050489604, 10.003051, 9.997389 
2.7925655e+3, 1.526936e+2, -993009.0, -1262038.5, -23421.697, -0.14950848, -0.2709792, -990985.1, 452595.56, 0.00013439951, 10.003619, 9.999912 
2.7921706e+3, 1.62687e+2, -1062654.4, -1472934.3, -85748.34, -0.10256223, -0.08331826, -1045454.1, 300189.63, 0.000016423304, 10.003335, 9.998001 
2.7917743e+3, 1.7267692e+2, -1091364.5, -1362987.4, 14084.418, -0.13300428, -0.19457711, -1090636.3, 157108.8, 0.0000003300107, 10.002267, 9.998519 
2.7913782e+3, 1.8266796e+2, -1167982.6, -1292577.4, 24248.146, -0.16200092, -0.17801832, -1163429.9, -13594.241, 0.0, 10.000732, 9.999129 
2.7909824e+3, 1.9266081e+2, -1191540.6, -1094901.6, 35216.992, -0.04439836, -0.15766664, -1083429.8, -31523.25, 0.0, 9.999331, 10.000417 
2.7905867e+3, 2.0265375e+2, -1235419.4, -1140608.4, 55129.1, -0.025419522, -0.09192074, -1115305.6, -161329.23, 0.0, 9.99862, 9.999823 
2.7901897e+3, 2.1264628e+2, -842206.1, -803325.06, 62754.758, -0.182119, -0.123807825, -757068.6, 98981.99, 0.0, 10.000341, 10.00058 
2.789794e+3, 2.226388e+2, -582030.0, -730831.0, 45242.504, -0.27630472, -0.11440997, -569354.0, 188769.03, 0.0, 10.001689, 9.999839 
2.7893993e+3, 2.3263058e+2, -410354.44, -512405.6, 21156.854, -0.21755767, -0.21965402, -406142.13, 254056.53, 0.0, 10.001923, 10.000494 
2.7890047e+3, 2.4262273e+2, -393049.56, -540594.1, 434.21997, -0.20683444, -0.24968366, -393048.28, 169224.02, 0.0, 10.001684, 9.999796 
2.7886096e+3, 2.5261492e+2, -404253.9, -418414.0, 4640.568, -0.2598447, -0.2997368, -402868.63, 61480.81, 0.0, 10.000693, 10.000397 
2.7882147e+3, 2.626074e+2, -456382.8, -509868.75, -47355.16, -0.27665338, -0.27306744, -428741.06, -62317.934, 0.0, 10.000086, 9.999408 
2.787819e+3, 2.7260002e+2, -187080.8, -271215.75, -116788.01, -0.23584418, -0.23693831, -105014.83, 163479.31, 0.0, 10.00109, 9.999858 
2.787423e+3, 2.8259173e+2, -149923.16, -484014.0, -58530.3, -0.24586193, -0.1864737, -139965.84, 30609.107, 0.0, 10.001804, 9.997417 
2.7870274e+3, 2.925809e+2, 16094.1455, -350905.16, -4717.46, -0.40559983, -0.25964552, 16154.774, 88839.64, 0.0, 10.002318, 9.997358 
2.7866325e+3, 3.0257142e+2, 55954.824, -287064.53, 106752.56, -0.48044428, -0.16496445, 86464.15, 86464.15, 0.0, 10.001813, 9.997477 
2.786246e+3, 3.1256518e+2, -205937.97, -236690.89, 79237.09, 0.054234, 0.07894189, -140599.17, -140599.17, 0.0, 9.999059, 9.9987955 
2.78585e+3, 3.225542e+2, 385403.88, 827788.94, -395812.2, 0.028449455, -0.27873823, 1060020.5, 1060020.5, 0.0, 9.999675, 10.005798 
2.803352e+3, 1.3310787e+2, -1619724.6, -2055141.3, -1630.184, -0.09637806, -0.2442394, -1619718.5, 15789.764, 0.0005664125, 10.002279, 9.996374 
2.8029576e+3, 1.430964e+2, -1435182.3, -1903522.4, 42007.152, -0.02060186, -0.33742592, -1431444.3, 106189.19, 0.00022570654, 10.002749, 9.996667 
2.802562e+3, 1.5308881e+2, -1191069.6, -1483534.8, 50422.62, -0.052612383, -0.21711595, -1182620.6, 257089.0, 0.00005282333, 10.002787, 9.99878 
2.8021666e+3, 1.6308111e+2, -1115123.0, -1380233.3, -4119.3823, -0.016498046, -0.09735177, -1115059.0, 226725.69, 0.000004777361, 10.002489, 9.999001 
2.8017694e+3, 1.7307208e+2, -973066.94, -1128016.6, -4186.532, -0.067524716, -0.2666203, -972953.9, 270916.34, 0.00000002399446, 10.002291, 10.000096 
2.801372e+3, 1.8306412e+2, -1027107.9, -1194831.0, -24197.291, -0.07910433, -0.2570999, -1023686.75, 122260.586, 0.0, 10.001617, 9.999364 
2.8009754e+3, 1.9305815e+2, -967397.75, -990103.6, -58594.375, 0.03459772, -0.12739536, -919066.6, 128942.516, 0.0, 10.000917, 10.000369 
2.8005788e+3, 2.0305146e+2, -1071553.4, -1128096.0, 72020.305, 0.08043979, 0.0030930352, -1022454.25, -72376.97, 0.0, 10.00003, 9.999241 
2.800183e+3, 2.1304242e+2, -864546.8, -869161.56, 94073.3, -0.11781707, -0.15551898, -772752.6, 79414.664, 0.0, 10.000403, 10.000102 
2.7997878e+3, 2.2303388e+2, -851552.44, -937216.75, 87412.77, -0.23803782, -0.19191661, -797042.0, -42791.348, 0.0, 10.000314, 9.999042 
2.7993938e+3, 2.3302585e+2, -626300.4, -683575.06, 30480.314, -0.1781924, -0.22532126, -613114.9, 43210.867, 0.0, 10.000843, 9.999813 
2.7989987e+3, 2.4301809e+2, -627678.9, -698563.5, -2456.5117, -0.1976686, -0.17538646, -627593.8, -69194.35, 0.0, 10.000376, 9.999316 
2.7986002e+3, 2.530101e+2, -567021.3, -491004.88, -27771.912, -0.4594583, -0.25763583, -481939.72, -21461.027, 0.0, 9.999656, 10.000352 
2.7982038e+3, 2.630027e+2, -708325.06, -760884.8, -7637.872, -0.5530705, -0.16469671, -707237.6, -344684.28, 0.0, 9.999013, 9.998189 
2.7978116e+3, 2.7299568e+2, -297648.88, -437462.38, -62911.945, -0.26556033, -0.008718841, -273508.5, -8881.714, 0.0, 10.000904, 9.998778 
2.7974188e+3, 2.829874e+2, -207647.28, -466879.66, -27994.564, -0.086368665, 0.1067245, -204658.61, -37950.344, 0.0, 10.001329, 9.997737 
2.7970237e+3, 2.9297543e+2, -72004.36, -229178.6, 1693.5126, -0.21494564, -0.22664195, -71986.11, -3168.0957, 0.0, 10.001113, 9.998749 
2.7966288e+3, 3.0296555e+2, -245003.13, -453683.5, 2091.3376, -0.2901459, -0.24962749, -244982.17, -244982.17, 0.0, 10.000022, 9.997123 
2.796238e+3, 3.129596e+2, -397747.94, -375348.9, -33590.996, 0.15741704, 0.049677663, -351139.63, -351139.63, 0.0, 9.998126, 9.9981985 
2.7958348e+3, 3.229444e+2, -156024.6, -24039.992, -65955.17, -0.69650036, -0.5135143, 3268.6628, 3268.6628, 0.0, 9.998856, 10.000191 
2.813349e+3, 1.334991e+2, -1556874.6, -1678508.8, -20080.896, 0.12272301, -0.462586, -1553645.1, 78029.13, 0.00024939553, 10.001336, 9.999374 
2.8129512e+3, 1.4349487e+2, -1452845.0, -1753870.3, 33411.156, -0.1842817, -0.085578084, -1449181.3, 84539.65, 0.00009135431, 10.002031, 9.998014 
2.8125566e+3, 1.5348482e+2, -1250925.9, -1428830.8, 104591.72, -0.097141206, -0.29761046, -1202575.9, 233246.33, 0.000018191195, 10.00206, 9.999499 
2.812162e+3, 1.634757e+2, -1175894.6, -1382572.5, 37797.63, 0.017089758, -0.35975033, -1169199.0, 168712.88, 0.000001253609, 10.001973, 9.999234 
2.811766e+3, 1.7346817e+2, -979578.0, -1127779.3, 55535.574, 0.06768574, -0.36649144, -961076.75, 278905.94, 0.0000000065346386, 10.002251, 10.000118 
2.8113678e+3, 1.8346049e+2, -965212.9, -1184641.1, -43599.41, -0.022627309, -0.31026912, -956867.3, 185189.78, 0.0, 10.0021715, 9.999135 
2.8109667e+3, 1.9345193e+2, -823020.1, -985372.7, -54020.66, -0.26964277, -0.37850204, -806688.4, 237455.83, 0.0, 10.002202, 9.999779 
2.810569e+3, 2.0344463e+2, -761223.7, -912058.7, 40813.063, -0.3294723, -0.29644966, -750888.56, 195329.58, 0.0, 10.001848, 9.999838 
2.810176e+3, 2.1343848e+2, -730995.25, -755208.06, 105627.63, -0.15437007, -0.20692265, -636782.5, 211496.84, 0.0, 10.001039, 10.000597 
2.8097817e+3, 2.2343108e+2, -807520.3, -915490.3, 114178.1, -0.15024206, -0.15153278, -735208.0, 15144.107, 0.0, 10.0005665, 9.999075 
2.8093857e+3, 2.3342124e+2, -622369.56, -734334.25, 103066.195, -0.33812204, -0.3088824, -561063.06, 91384.4, 0.0, 10.001011, 9.999419 
2.80899e+3, 2.4341267e+2, -540566.6, -647007.0, 8764.696, -0.40621322, -0.31465662, -539849.75, 14680.957, 0.0, 10.000857, 9.999437 
2.808594e+3, 2.5340584e+2, -567465.1, -525026.0, -22082.463, -0.31377453, -0.24075198, -515620.34, -59022.18, 0.0, 9.999709, 10.00012 
2.808199e+3, 2.633982e+2, -583409.5, -749845.6, 99195.1, -0.26900235, -0.13526237, -537148.2, -178473.52, 0.0, 9.99996, 9.997849 
2.807807e+3, 2.7338862e+2, -63879.895, -422165.84, 81250.59, -0.2063383, -0.13078354, -46315.31, 214456.64, 0.0, 10.002782, 9.998051 
2.8074133e+3, 2.833791e+2, 120619.18, -220961.06, -38199.47, -0.15201378, -0.1291031, 124838.96, 287704.38, 0.0, 10.003072, 9.998623 
2.8070164e+3, 2.9336864e+2, -299897.9, -284772.75, -66302.8, -0.2050694, -0.34909418, -225602.63, -160641.28, 0.0, 9.99916, 9.999377 
2.80662e+3, 3.0335984e+2, -574129.25, -562473.75, 21406.404, -0.28522268, -0.3117845, -546116.0, -546116.0, 0.0, 9.997465, 9.997615 
2.8062278e+3, 3.1335402e+2, -40697.063, -211038.0, 18487.404, -0.071147226, 0.023166405, -38713.684, -38713.684, 0.0, 10.000493, 9.998235 
2.8058273e+3, 3.2334042e+2, -70689.305, -195274.83, 66150.055, -0.719316, -0.2965715, -42118.332, -42118.332, 0.0, 10.000096, 9.998511 
2.8233442e+3, 1.3389282e+2, -1160411.1, -1267358.3, 61405.785, 0.17228338, -0.6283733, -1132459.3, 495355.13, 0.00010704309, 10.003093, 10.001365 
2.8229454e+3, 1.4389218e+2, -1581593.9, -1693930.5, 68028.086, -0.1551373, 0.0015133831, -1549542.6, -19721.707, 0.000035101017, 10.000617, 9.999115 
2.822551e+3, 1.5388106e+2, -1283430.1, -1370609.8, 92129.3, -0.070023954, -0.3815747, -1225099.0, 206833.84, 0.0000055355054, 10.001539, 10.000157 
2.8221568e+3, 1.6387168e+2, -1186889.8, -1389352.8, 30527.203, 0.0931892, -0.50548863, -1182387.0, 151639.27, 0.0000002527922, 10.001931, 9.999223 
2.8217614e+3, 1.7386502e+2, -1060083.9, -1192052.6, 3473.5784, 0.19323981, -0.40342376, -1059992.5, 176097.81, 0.0, 10.001859, 9.999894 
2.8213623e+3, 1.8385725e+2, -1077560.5, -1290925.0, -62046.676, 0.036532074, -0.31968912, -1060829.3, 77336.78, 0.0, 10.001608, 9.9986925 
2.8209585e+3, 1.9384661e+2, -957497.2, -1123870.0, -68840.73, -0.49017644, -0.5572878, -932706.6, 107565.71, 0.0, 10.001549, 9.999174 
2.8205603e+3, 2.038387e+2, -892031.1, -959073.44, 28846.635, -0.59546167, -0.50261766, -881327.94, 61023.44, 0.0, 10.000982, 9.999886 
2.8201696e+3, 2.1383461e+2, -789979.44, -752740.44, 3648.016, -0.11941579, -0.25252876, -752386.44, 92005.3, 0.0, 10.000595, 10.000783 
2.8197756e+3, 2.238281e+2, -929562.9, -1010658.9, 59980.41, -0.024850685, -0.10437952, -897710.7, -151254.72, 0.0, 9.999959, 9.998691 
2.8193772e+3, 2.3381679e+2, -852026.9, -852100.2, 71958.09, -0.4781615, -0.42067027, -780105.44, -131537.78, 0.0, 9.99957, 9.999257 
2.8189808e+3, 2.4380782e+2, -792201.8, -821195.75, -23970.684, -0.5610459, -0.43239638, -778685.3, -228029.47, 0.0, 9.999469, 9.998884 
2.8185886e+3, 2.5380188e+2, -537446.3, -551331.7, -75254.4, -0.03743942, -0.25202072, -468815.03, -16101.157, 0.0, 10.00017, 9.999694 
2.8181958e+3, 2.6379362e+2, -608084.75, -852614.2, 190226.97, 0.15763758, -0.13405755, -504219.06, -149424.45, 0.0, 10.000343, 9.996899 
2.8178027e+3, 2.737807e+2, -326331.44, -600510.2, 210380.36, -0.13898069, -0.4326798, -212316.47, 44604.098, 0.0, 10.001349, 9.997449 
2.8174067e+3, 2.8377e+2, -204491.16, -385103.97, -123656.64, -0.32212383, -0.49995404, -141676.0, 17349.375, 0.0, 10.001039, 9.998422 
2.8170067e+3, 2.9376173e+2, -352768.8, -273881.88, -195341.38, -0.29219276, -0.545038, -114041.52, -52936.22, 0.0, 9.998787, 9.999575 
2.8166083e+3, 3.037544e+2, -575852.6, -577800.6, 115892.016, -0.43995985, -0.34856784, -460930.53, -460930.53, 0.0, 9.997624, 9.997414 
2.8162155e+3, 3.1374815e+2, -171260.16, -246983.34, 147187.8, -0.5835172, -0.100338094, -57142.316, -57142.316, 0.0, 9.9995775, 9.998399 
2.8158262e+3, 3.237416e+2, -153359.64, 21183.238, -76630.24, -0.08886689, 0.15902932, 50051.793, 50051.793, 0.0, 9.998689, 10.000578 
2.8333354e+3, 1.3429037e+2, -1312963.0, -1370624.4, -185090.28, -0.29079545, -0.5946922, -1154471.4, 469443.75, 0.000050582996, 10.0022545, 10.00103 
2.8329396e+3, 1.4428706e+2, -1716251.9, -1735398.8, 100996.42, -0.003538234, -0.22133535, -1624376.3, -98429.33, 0.000015386415, 9.99966, 9.999259 
2.8325438e+3, 1.5427841e+2, -1380801.0, -1412113.3, 173357.2, -0.17266236, -0.37681976, -1222394.4, 205639.7, 0.0000020566958, 10.0008955, 10.000162 
2.8321487e+3, 1.6427019e+2, -1274244.1, -1479510.1, 15910.525, -0.18545398, -0.35659423, -1273018.1, 57100.844, 0.00000005936716, 10.001567, 9.998758 
2.8317523e+3, 1.7426229e+2, -1144016.3, -1314968.4, 16331.471, -0.11290504, -0.31739447, -1142470.0, 89732.66, 0.0, 10.001631, 9.999157 
2.831354e+3, 1.8425484e+2, -1052914.6, -1219308.4, -84990.73, -0.17953554, -0.18893844, -1017178.2, 117100.29, 0.0, 10.001482, 9.999262 
2.830953e+3, 1.9424687e+2, -967286.4, -1079061.4, -37655.24, -0.43023014, -0.20272335, -955784.5, 80570.84, 0.0, 10.001236, 9.999646 
2.830555e+3, 2.042384e+2, -967197.6, -1126731.8, 28740.213, -0.4712814, -0.17644875, -962178.0, -23739.213, 0.0, 10.001016, 9.998729 
2.830162e+3, 2.1422905e+2, -828863.7, -967937.5, -12713.294, -0.22231409, -0.2660918, -827711.1, 12821.3955, 0.0, 10.001135, 9.999069 
2.8297675e+3, 2.2422111e+2, -729141.6, -756982.25, -41367.67, -0.16244759, -0.23643239, -699414.94, 43194.996, 0.0, 10.0006075, 10.000134 
2.82937e+3, 2.3421372e+2, -845121.5, -719038.3, 21036.12, -0.3863868, -0.27720988, -715621.2, -70942.07, 0.0, 9.99897, 10.000499 
2.8289744e+3, 2.4420586e+2, -768751.75, -795032.4, 54517.977, -0.4120928, -0.25688753, -725812.9, -179058.05, 0.0, 9.999479, 9.9990835 
2.8285825e+3, 2.5419724e+2, -145401.64, -419721.72, 38007.965, -0.08306502, -0.28940272, -140232.9, 308606.78, 0.0, 10.002987, 9.999288 
2.8281897e+3, 2.6418814e+2, -55218.535, -395162.22, 165064.47, 0.045067076, -0.31089893, 11741.479, 362668.47, 0.0, 10.003261, 9.998641 
2.827795e+3, 2.7417737e+2, -518351.2, -545937.9, 238316.44, -0.17145352, -0.51261836, -293429.25, -40401.266, 0.0, 9.999343, 9.998811 
2.827399e+3, 2.8416806e+2, -565963.56, -575939.8, 43513.426, -0.25991717, -0.49650064, -527153.3, -372034.13, 0.0, 9.998503, 9.998378 
2.8270006e+3, 2.9416054e+2, 66507.81, -185505.58, -50631.508, -0.17135811, -0.34746855, 76299.63, 133498.28, 0.0, 10.002007, 9.998691 
2.8266022e+3, 3.0415243e+2, 294357.16, -55201.684, 214317.9, -0.3807683, -0.22286656, 396127.94, 396127.94, 0.0, 10.003004, 9.99846 
2.826207e+3, 3.1414363e+2, 36175.84, -111712.75, 252139.52, -0.71598727, -0.26679242, 224990.16, 224990.16, 0.0, 10.00066, 9.998877 
2.82582e+3, 3.2413962e+2, 120071.66, 246673.78, -48090.207, 0.1430225, 0.19216496, 262869.22, 262869.22, 0.0, 9.999891, 10.001658 
2.84333e+3, 1.3468863e+2, -1345108.9, -1547099.3, -142435.64, -0.29842296, -0.6097176, -1271496.1, 348511.56, 0.000026717651, 10.002524, 9.99978 
2.8429344e+3, 1.4468311e+2, -1065179.6, -1412478.9, 118727.484, 0.105476454, -0.3676776, -1028471.44, 493592.28, 0.000008259606, 10.004023, 9.999387 
2.8425372e+3, 1.5467565e+2, -1343371.4, -1415682.4, 127506.3, -0.16838638, -0.3911619, -1246993.5, 177144.73, 0.0000013335809, 10.001168, 10.000023 
2.8421408e+3, 1.6466816e+2, -1489654.5, -1609950.4, 34563.81, -0.28211507, -0.28171688, -1480430.8, -154212.75, 0.000000073245815, 10.00022, 9.998499 
2.8417444e+3, 1.7465958e+2, -1241138.4, -1421701.0, 38179.74, -0.2845019, -0.26709288, -1233397.3, -5083.762, 0.0, 10.001212, 9.998632 
2.841347e+3, 1.8465257e+2, -1051905.4, -1170704.0, -53380.137, -0.26636565, -0.08108165, -1031444.06, 98942.66, 0.0, 10.001325, 9.999639 
2.840948e+3, 1.9464676e+2, -1001505.3, -1072597.5, -76366.22, -0.24714147, 0.070007406, -952817.6, 79623.0, 0.0, 10.000923, 9.999817 
2.8405505e+3, 2.0463747e+2, -1100743.0, -1342074.8, 65584.06, -0.25160986, 0.07432592, -1084071.6, -149539.92, 0.0, 10.000777, 9.997363 
2.8401548e+3, 2.1462353e+2, -990758.44, -1221704.8, 60296.582, -0.28186658, -0.34503302, -975963.7, -139291.58, 0.0, 10.000836, 9.997453 
2.8397593e+3, 2.2461474e+2, -680769.06, -621802.6, 10417.022, -0.24914917, -0.34709167, -620016.5, 118740.805, 0.0, 10.000518, 10.0011015 
2.8393632e+3, 2.3461126e+2, -639356.9, -514514.5, -25121.414, -0.18005268, -0.122931674, -509649.06, 131136.08, 0.0, 9.99997, 10.001429 
2.8389686e+3, 2.4460422e+2, -718792.2, -817215.9, 161681.86, -0.18547648, -0.03581396, -598998.6, -56147.336, 0.0, 10.000108, 9.998624 
2.8385767e+3, 2.545924e+2, -409545.97, -602375.75, 134350.72, -0.1950736, -0.37563303, -340594.75, 104373.85, 0.0, 10.001515, 9.998728 
2.8381827e+3, 2.6458317e+2, -215969.55, -272335.4, 18085.662, -0.18393472, -0.45485735, -210665.64, 136390.36, 0.0, 10.0014305, 10.000315 
2.8377867e+3, 2.7457595e+2, -421847.3, -297532.3, 31747.738, -0.18597817, -0.5284054, -289893.88, -40775.71, 0.0, 9.999255, 10.000512 
2.8373915e+3, 2.8456908e+2, -613564.44, -724394.1, 94031.9, -0.12196437, -0.30252734, -559833.5, -408646.44, 0.0, 9.998838, 9.997153 
2.8369972e+3, 2.94562e+2, -155803.83, -447879.47, 53229.89, 0.023933014, -0.02134107, -146405.28, -93135.47, 0.0, 10.001262, 9.997216 
2.8365988e+3, 3.0455253e+2, 136050.9, -27623.135, 135596.3, -0.2366212, 0.0072949748, 212592.1, 212592.1, 0.0, 10.001658, 9.999224 
2.8362006e+3, 3.145396e+2, -157832.47, -118399.805, 156412.19, -0.6600324, -0.5684055, 19533.818, 19533.818, 0.0, 9.99915, 9.99948 
2.8358075e+3, 3.245345e+2, -32222.658, 256268.55, 37607.914, -0.3602486, -0.33791426, 261090.55, 261090.55, 0.0, 9.998802, 10.002103 
2.853327e+3, 1.3508813e+2, -1587573.6, -1927857.0, 134342.14, -0.08179756, -0.58921444, -1540929.8, 75156.5, 0.000013313982, 10.002062, 9.997378 
2.852929e+3, 1.4508106e+2, -1054202.0, -1456430.8, -12522.701, -0.18026304, -0.35187918, -1053812.5, 464353.38, 0.0000038169696, 10.004366, 9.998894 
2.8525317e+3, 1.5507188e+2, -1464100.4, -1560884.9, 22538.209, -0.10455298, -0.49095985, -1459109.3, -38852.754, 0.0000005153316, 10.000741, 9.999224 
2.8521353e+3, 1.6506422e+2, -1507113.8, -1520043.4, 76318.984, -0.10430242, -0.3991427, -1436986.3, -114650.56, 0.00000002542409, 9.999696, 9.999355 
2.8517386e+3, 1.7505723e+2, -1227925.3, -1338413.6, 141330.06, -0.2608842, -0.29870307, -1131425.9, 92985.71, 0.0, 10.000987, 9.999302 
2.8513408e+3, 1.8504962e+2, -1055775.4, -1215210.9, -42594.68, -0.28800443, -0.18207027, -1045109.4, 81379.71, 0.0, 10.00148, 9.999246 
2.8509423e+3, 1.9504113e+2, -1023126.8, -1147420.1, -44146.785, -0.16533817, -0.22856084, -1009042.6, 19527.611, 0.0, 10.001021, 9.999258 
2.8505448e+3, 2.0503217e+2, -972808.1, -1122913.9, 112607.98, -0.1867279, -0.23216344, -912533.7, 18123.021, 0.0, 10.000956, 9.998774 
2.850148e+3, 2.1502161e+2, -835283.2, -1003083.1, 192846.03, -0.35151166, -0.42517152, -708876.7, 123883.07, 0.0, 10.001229, 9.998773 
2.8497526e+3, 2.2501315e+2, -569387.3, -732737.94, 135131.42, -0.32342723, -0.38595927, -493165.97, 241677.69, 0.0, 10.001952, 9.999648 
2.849358e+3, 2.3500666e+2, -316795.9, -555058.25, 52649.71, -0.1518012, -0.2525908, -305680.28, 331228.28, 0.0, 10.0029335, 9.999748 
2.848964e+3, 2.4499896e+2, -358551.94, -627770.8, 118785.26, -0.082987286, -0.1589509, -313635.22, 225350.13, 0.0, 10.002419, 9.998843 
2.848571e+3, 2.5498924e+2, -557382.6, -662188.9, 129444.016, -0.11441316, -0.27201128, -470136.75, -29053.87, 0.0, 10.000337, 9.99893 
2.8481758e+3, 2.6498073e+2, -439514.2, -444443.25, -1962.965, -0.18083344, -0.2664003, -438828.0, -95661.91, 0.0, 10.0000725, 9.999826 
2.847779e+3, 2.7497345e+2, -51801.496, -187972.22, -87702.74, -0.28535724, -0.24606153, -8858.092, 236377.11, 0.0, 10.001976, 10.000001 
2.8473836e+3, 2.8496566e+2, -4107.2256, -310655.8, -62603.46, -0.26000926, -0.16855763, 8184.7886, 155497.42, 0.0, 10.002383, 9.998334 
2.846989e+3, 2.9495704e+2, -77461.12, -294728.0, -11380.811, -0.13548681, -0.124278076, -76866.6, -27463.545, 0.0, 10.0012045, 9.998334 
2.846592e+3, 3.0494896e+2, -46201.54, -36488.9, 32046.26, -0.25468755, -0.06570415, -8933.082, -8933.082, 0.0, 9.999918, 10.000063 
2.8461945e+3, 3.149404e+2, -197075.94, -90315.836, 15442.816, -0.40257367, -0.23053977, -88126.914, -88126.914, 0.0, 9.998514, 10.000062 
2.8457978e+3, 3.2493144e+2, 139828.86, 156105.38, -24007.28, -0.51712, -0.3269073, 173316.3, 173316.3, 0.0, 10.000453, 10.000766 
2.8633234e+3, 1.3548581e+2, -1574248.9, -1989056.5, 115177.195, 0.052857142, -0.5908114, -1544414.1, 67777.42, 0.0000059672334, 10.002334, 9.996868 
2.8629234e+3, 1.4547901e+2, -1386478.8, -1628723.5, -155633.7, -0.27471167, -0.28823966, -1310389.4, 203881.38, 0.0000015122073, 10.002094, 9.998825 
2.8625256e+3, 1.5546888e+2, -1290348.6, -1517435.5, -107564.516, -0.0429555, -0.49578246, -1247488.0, 168882.1, 0.0000000966577, 10.002056, 9.998907 
2.8621295e+3, 1.6546103e+2, -1185784.9, -1294217.1, 84892.08, 0.034173973, -0.44287392, -1139273.4, 179175.08, 0.00000000026919006, 10.00157, 10.000021 
2.8617325e+3, 1.7545494e+2, -1200886.5, -1268497.0, 91653.164, -0.15922184, -0.3250776, -1137003.0, 83507.805, 0.0, 10.000901, 9.999835 
2.861335e+3, 1.8544663e+2, -1132854.6, -1291348.9, -82510.73, -0.21361871, -0.28597584, -1097698.5, 24894.463, 0.0, 10.001205, 9.998846 
2.8609368e+3, 1.9543597e+2, -937374.2, -1158097.3, -99662.73, -0.061720517, -0.50784945, -899033.6, 125662.82, 0.0, 10.001931, 9.998729 
2.8605393e+3, 2.0542765e+2, -744961.4, -892424.56, 75075.45, -0.08833689, -0.4773103, -713466.2, 213308.75, 0.0, 10.001981, 9.999882 
2.860142e+3, 2.154205e+2, -777323.0, -885529.5, 72918.664, -0.2944943, -0.46420544, -740628.2, 88211.95, 0.0, 10.001203, 9.99963 
2.8597468e+3, 2.2541186e+2, -818411.8, -1088765.1, 80028.664, -0.2990273, -0.38583848, -796498.3, -65570.6, 0.0, 10.001323, 9.99746 
2.8593534e+3, 2.354016e+2, -641813.5, -966786.1, 25780.367, -0.10693877, -0.44933394, -639781.06, -6743.4414, 0.0, 10.00193, 9.997339 
2.8589594e+3, 2.4539366e+2, -471023.4, -642877.6, 47849.35, 0.0031604148, -0.27226657, -458598.97, 76521.734, 0.0, 10.001652, 9.999002 
2.858565e+3, 2.5538683e+2, -597460.9, -692870.8, 41410.36, 0.046054784, -0.15180032, -581994.8, -144804.88, 0.0, 10.000244, 9.998683 
2.858169e+3, 2.653792e+2, -575819.75, -717351.56, 74724.18, -0.09633303, 0.051968616, -543670.56, -204400.5, 0.0, 10.000111, 9.997898 
2.857772e+3, 2.7537033e+2, -352075.8, -562766.94, 5677.8022, -0.37657768, 0.072065376, -351922.9, -110558.68, 0.0, 10.000954, 9.9979105 
2.8573757e+3, 2.853604e+2, -97625.82, -131939.5, -76613.766, -0.4868981, -0.05059809, -36271.348, 107189.5, 0.0, 10.000955, 10.000179 
2.856979e+3, 2.9534882e+2, -181173.05, -161074.38, -52347.7, -0.46434057, -0.51511705, -117820.14, -72253.375, 0.0, 9.999839, 9.9998665 
2.8565827e+3, 3.053439e+2, -172223.48, -75152.82, -33455.363, -0.37960702, -0.21363501, -64739.527, -64739.527, 0.0, 9.999124, 10.000105 
2.8561887e+3, 3.1534457e+2, -390265.34, -233705.31, -36126.625, -0.064142756, 0.49296904, -225771.1, -225771.1, 0.0, 9.997578, 9.999457 
2.8557912e+3, 3.253276e+2, -163882.4, -179302.11, 224532.52, -0.4978831, -0.31319225, 53072.594, 53072.594, 0.0, 9.999455, 9.9988365 
2.873317e+3, 1.3588065e+2, -1503337.4, -1580692.8, -70549.05, -0.105241664, -0.4735734, -1461559.3, 146778.13, 0.0000021514043, 10.001274, 10.000155 
2.8729177e+3, 1.4587694e+2, -1478711.4, -1572973.6, -130615.82, -0.23264381, -0.07001129, -1386983.5, 123397.13, 0.00000043033984, 10.001065, 9.9996805 
2.872517e+3, 1.5586796e+2, -1260640.5, -1441230.8, -49240.31, -0.38411835, -0.23895249, -1248087.1, 164383.47, 0.000000019645139, 10.002012, 9.999447 
2.8721213e+3, 1.6585985e+2, -1127320.9, -1253570.5, 24366.625, -0.25306296, -0.2427529, -1122781.3, 191767.89, 0.0, 10.001935, 10.000115 
2.8717265e+3, 1.758524e+2, -1246719.4, -1306674.6, 59601.676, -0.1405438, -0.2519774, -1209981.0, 6638.1353, 0.0, 10.000644, 9.999703 
2.8713292e+3, 1.8584378e+2, -1112938.4, -1283192.6, -57297.887, -0.17307514, -0.24324349, -1095451.4, 23251.86, 0.0, 10.001302, 9.998872 
2.8709304e+3, 1.9583355e+2, -801680.4, -1116197.8, -23101.988, -0.23687932, -0.4045735, -799992.5, 220812.0, 0.0, 10.002896, 9.998584 
2.8705338e+3, 2.05825e+2, -610391.4, -884214.56, -1223.5044, -0.19661863, -0.36465675, -610385.9, 312501.3, 0.0, 10.00317, 9.999345 
2.870138e+3, 2.1581726e+2, -681177.0, -914320.6, -17344.908, -0.1595989, -0.32764506, -679893.7, 145066.7, 0.0, 10.002147, 9.998984 
2.869742e+3, 2.2580871e+2, -701462.25, -1000504.6, 7593.255, -0.22057064, -0.23513286, -701269.56, 25777.967, 0.0, 10.001927, 9.997798 
2.869346e+3, 2.3579925e+2, -568769.44, -891867.6, 30736.38, -0.3187144, -0.22231759, -565871.5, 63276.844, 0.0, 10.002175, 9.99777 
2.8689516e+3, 2.4579059e+2, -326383.7, -525093.94, 38169.92, -0.2536366, -0.17363745, -319303.94, 211931.69, 0.0, 10.002339, 9.999522 
2.8685576e+3, 2.5578222e+2, -227478.53, -471889.34, 46146.96, -0.11562113, -0.21098363, -219055.83, 214260.36, 0.0, 10.002473, 9.999175 
2.868163e+3, 2.6577467e+2, -263715.63, -512293.22, 109697.75, -0.114735186, -0.056158494, -222229.56, 113165.516, 0.0, 10.001896, 9.998492 
2.8677672e+3, 2.7576715e+2, -335195.4, -506847.4, 130026.39, -0.23250544, 0.10089227, -265223.56, -27745.414, 0.0, 10.000732, 9.998443 
2.86737e+3, 2.85758e+2, -277610.16, -222798.6, 22536.31, -0.33309346, 0.0422753, -214722.52, -75154.234, 0.0, 9.999657, 10.0002 
2.8669712e+3, 2.957471e+2, -291937.84, -217319.23, -27945.572, -0.44821653, -0.31206366, -208013.75, -166345.86, 0.0, 9.99896, 9.999941 
2.8665742e+3, 3.0574024e+2, -71551.28, -92531.95, -17217.365, -0.4394554, -0.18466717, -61880.152, -61880.152, 0.0, 9.999981, 9.9996195 
2.8661805e+3, 3.1573763e+2, 309000.88, 75383.836, -79524.086, -0.15147214, 0.29274613, 333501.63, 333501.63, 0.0, 10.002354, 9.999341 
2.8657845e+3, 3.257235e+2, 25296.973, 22814.242, 163771.45, -0.44205788, -0.26860717, 187831.77, 187831.77, 0.0, 10.00005, 10.000013 
2.883311e+3, 1.3627976e+2, -1246167.9, -1359850.5, 45498.535, -0.11013064, -0.2746427, -1230200.9, 374232.03, 0.00000033823923, 10.002527, 10.001085 
2.8829116e+3, 1.4627405e+2, -1425100.5, -1498170.5, 64128.176, -0.18084018, -0.10145171, -1387830.1, 118663.945, 0.000000039050374, 10.001205, 10.000135 
2.8825104e+3, 1.5626708e+2, -1108096.5, -1345741.3, 60145.87, -0.50223184, -0.07787239, -1093741.3, 314824.28, 0.0000000006124831, 10.002944, 9.999674 
2.8821146e+3, 1.6625892e+2, -1035847.6, -1241054.0, 46268.363, -0.3606763, -0.07298904, -1025897.8, 284745.63, 0.0, 10.002693, 9.999814 
2.8817204e+3, 1.7624995e+2, -1214536.6, -1345060.5, 26982.154, -0.044645898, -0.20994067, -1209178.8, 3546.9834, 0.0, 10.001062, 9.999237 
2.881323e+3, 1.8624103e+2, -1153098.4, -1312862.5, 18839.508, -0.095641054, -0.2032885, -1150906.9, -36093.664, 0.0, 10.001142, 9.99873 
2.8809246e+3, 1.9623157e+2, -952754.2, -1228082.5, -3555.5703, -0.29064143, -0.28118736, -952708.3, 64200.81, 0.0, 10.002069, 9.99822 
2.8805286e+3, 2.0622288e+2, -820489.44, -1060285.8, -635.3458, -0.21589865, -0.19962893, -820487.75, 98508.04, 0.0, 10.002149, 9.998604 
2.880134e+3, 2.1621428e+2, -867511.06, -1103267.9, -5554.2954, 0.035102513, -0.17662367, -867380.3, -46300.043, 0.0, 10.0014105, 9.998014 
2.879737e+3, 2.26206e+2, -762840.4, -937869.7, 94646.375, -0.107477315, -0.042066086, -721449.06, 1715.1914, 0.0, 10.001204, 9.998559 
2.8793386e+3, 2.3619777e+2, -752123.1, -939666.25, 98387.56, -0.47164717, 0.015941216, -709978.5, -84728.44, 0.0, 10.000843, 9.998077 
2.8789434e+3, 2.4618813e+2, -517515.8, -590694.1, 109942.164, -0.49025553, -0.043251842, -438234.16, 89108.99, 0.0, 10.000985, 9.999718 
2.8785503e+3, 2.5617728e+2, -507139.03, -613253.6, 73106.82, -0.28443658, -0.3616221, -469865.38, -40420.934, 0.0, 10.000683, 9.99906 
2.8781566e+3, 2.6617002e+2, -401635.5, -450646.34, 88232.47, -0.12673183, -0.2271553, -334568.63, -3050.182, 0.0, 10.000526, 9.999527 
2.8777623e+3, 2.7616444e+2, -507073.5, -538499.9, 80210.58, 0.026201092, -0.004686833, -441051.5, -207470.02, 0.0, 9.999458, 9.99881 
2.8773645e+3, 2.861573e+2, -418480.84, -404044.06, 1914.4034, -0.04270934, 0.18593068, -403794.53, -268140.56, 0.0, 9.9992695, 9.999102 
2.8769642e+3, 2.9614854e+2, -492157.44, -498750.56, -19473.068, -0.25393698, 0.1254658, -475703.88, -437964.47, 0.0, 9.998494, 9.998207 
2.8765664e+3, 3.0613625e+2, -238764.56, -299153.84, 82247.97, -0.46761236, -0.13774274, -181343.88, -181343.88, 0.0, 9.999535, 9.998375 
2.8761718e+3, 3.1612253e+2, -77292.164, -286419.75, 13525.579, -0.50479406, -0.65634656, -76421.016, -76421.016, 0.0, 10.000607, 9.997677 
2.8757775e+3, 3.2612145e+2, -86064.39, 351086.7, 18663.336, -0.3896997, -0.11294697, 351882.06, 351882.06, 0.0, 9.998005, 10.003086 
2.8933057e+3, 1.3668504e+2, -1634644.4, -1927944.9, -184346.86, -0.16866478, 0.060117073, -1545731.4, 54721.734, 0.0000000028010363, 10.001575, 9.997633 
2.8929037e+3, 1.4666873e+2, -1540435.5, -1608427.5, 170956.02, -0.33133367, -0.652276, -1400128.1, 102493.03, 0.0, 10.000696, 9.999595 
2.892508e+3, 1.5666567e+2, -1177292.1, -1449852.4, 174106.94, -0.3262408, -0.18231784, -1092471.6, 312179.9, 0.0, 10.002787, 9.999029 
2.8921115e+3, 1.6665791e+2, -1072759.0, -1349442.4, 9761.086, -0.21748808, -0.069947794, -1072415.1, 234312.66, 0.0, 10.002818, 9.999007 
2.8917137e+3, 1.7664751e+2, -1246985.1, -1462829.0, 23682.088, -0.15120982, -0.25793108, -1244417.3, -35588.035, 0.0, 10.001254, 9.998344 
2.8913167e+3, 1.86638e+2, -1156729.4, -1377264.6, 48571.5, -0.13956082, -0.23885912, -1146505.8, -35579.63, 0.0, 10.00134, 9.998204 
2.8909203e+3, 1.9662876e+2, -1002814.1, -1285600.4, 38898.1, -0.17535678, -0.22106484, -997561.1, 15461.152, 0.0, 10.0018, 9.99798 
2.8905234e+3, 2.0662077e+2, -781585.8, -940599.0, 4904.144, -0.16971779, -0.11751931, -781434.7, 133666.56, 0.0, 10.001921, 9.999546 
2.8901264e+3, 2.1661305e+2, -731840.44, -918073.7, 84657.68, -0.15885487, -0.085893124, -699109.44, 118065.86, 0.0, 10.0017395, 9.999147 
2.8897303e+3, 2.2660445e+2, -641617.3, -768545.25, 170780.19, -0.18412241, -0.08978626, -522890.28, 196367.06, 0.0, 10.001499, 9.999596 
2.889334e+3, 2.3659533e+2, -648502.5, -781761.4, 210444.55, -0.29248232, -0.18741715, -494391.4, 126953.25, 0.0, 10.000973, 9.999129 
2.888938e+3, 2.4658623e+2, -649373.56, -756515.9, 192681.25, -0.34779415, -0.19165245, -502954.88, 20479.488, 0.0, 10.00042, 9.998891 
2.888542e+3, 2.565765e+2, -652929.0, -730425.4, 145797.63, -0.37945437, -0.2762765, -540818.4, -115287.99, 0.0, 9.999744, 9.998752 
2.8881475e+3, 2.6656845e+2, -492389.34, -460514.8, 134476.83, -0.27935562, -0.22999601, -341034.16, -13422.5, 0.0, 9.999692, 9.999881 
2.8877535e+3, 2.7656123e+2, -354524.16, -405486.66, 108030.805, -0.12496613, -0.1646317, -269010.16, -39324.188, 0.0, 10.000149, 9.999409 
2.8873566e+3, 2.865543e+2, -159643.44, -256910.45, 61341.28, -0.0969796, -0.0032565598, -129995.586, 1761.1339, 0.0, 10.000818, 9.999413 
2.886958e+3, 2.9654703e+2, 9013.7705, -199852.08, 113415.89, -0.15828753, 0.09736179, 58754.125, 92584.4, 0.0, 10.00156, 9.9988165 
2.8865603e+3, 3.065357e+2, 39128.906, -161225.9, 287404.72, -0.3622292, -0.09457371, 243314.75, 243314.75, 0.0, 10.00136, 9.998495 
2.8861654e+3, 3.1652173e+2, -45456.99, -222769.5, 250918.97, -0.47487432, -0.5667998, 132007.53, 132007.53, 0.0, 10.000493, 9.998239 
2.885771e+3, 3.2652226e+2, -128133.85, 253506.83, -76989.59, -0.0826139, 0.24215028, 268452.84, 268452.84, 0.0, 9.997742, 10.002747 
2.9032975e+3, 1.3708289e+2, -1879642.4, -2186294.5, -402195.5, -0.2724417, -0.08146979, -1602538.3, -5985.9688, 0.00000000011876347, 10.000373, 9.996519 
2.9028985e+3, 1.4706533e+2, -1181219.0, -1462567.1, 50878.992, -0.23846357, -0.8743243, -1172300.8, 326430.84, 0.0, 10.003228, 9.999424 
2.9025048e+3, 1.5706357e+2, -1400675.8, -1590863.9, 56988.953, -0.11876569, -0.26250115, -1384906.8, 15839.937, 0.0, 10.001354, 9.998778 
2.9021075e+3, 1.6705585e+2, -1294364.8, -1511931.8, -85277.055, -0.06646571, -0.11350244, -1264923.8, 37900.523, 0.0, 10.001593, 9.998459 
2.9017076e+3, 1.7704488e+2, -1184325.3, -1499655.6, -42536.063, -0.122172356, -0.31036028, -1178688.3, 26247.535, 0.0, 10.001998, 9.997734 
2.901311e+3, 1.870355e+2, -1076553.4, -1365170.5, 91140.055, -0.09927891, -0.24002495, -1050182.5, 56850.746, 0.0, 10.001991, 9.997959 
2.9009163e+3, 1.9702673e+2, -1055417.8, -1318027.6, 103213.77, 0.024188476, -0.16849943, -1019707.56, -10581.852, 0.0, 10.001487, 9.997871 
2.9005182e+3, 2.0701921e+2, -819079.75, -869987.94, 59110.848, -0.09772495, -0.06284528, -780175.5, 131023.53, 0.0, 10.001313, 10.000288 
2.9001185e+3, 2.1701197e+2, -853645.75, -906235.5, 71854.586, -0.29096565, -0.0694856, -803425.94, 9840.163, 0.0, 10.000652, 9.999727 
2.8997236e+3, 2.2700301e+2, -694205.8, -687743.9, 141912.92, -0.20298517, -0.1920551, -549025.1, 166321.19, 0.0, 10.000786, 10.000438 
2.89933e+3, 2.3699293e+2, -755760.9, -825623.06, 133069.8, 0.01303377, -0.4867295, -653113.8, -35677.39, 0.0, 10.0002775, 9.999137 
2.898933e+3, 2.4698478e+2, -693423.8, -875654.3, 139400.7, -0.12504217, -0.3384224, -618002.2, -98482.8, 0.0, 10.000682, 9.997853 
2.8985336e+3, 2.569771e+2, -679606.2, -873804.44, 105331.15, -0.40721112, -0.14978464, -633447.2, -211843.92, 0.0, 10.00027, 9.997446 
2.8981376e+3, 2.669678e+2, -418021.6, -434599.72, 141941.45, -0.45921883, -0.1696761, -284127.38, 39568.36, 0.0, 10.000334, 9.999702 
2.8977433e+3, 2.7695763e+2, -457713.3, -504581.72, 96026.14, -0.38757107, -0.41594827, -382303.28, -156510.02, 0.0, 9.999745, 9.998903 
2.8973475e+3, 2.8695047e+2, -212654.69, -161454.94, 47684.22, -0.27937788, -0.3127489, -132933.3, -5068.4146, 0.0, 10.000088, 10.000373 
2.896952e+3, 2.9694435e+2, -201288.39, -246918.52, 109754.61, -0.14440382, -0.20175502, -112002.59, -82074.44, 0.0, 10.000044, 9.999173 
2.8965536e+3, 3.0693853e+2, 254652.61, 59912.152, 246277.81, -0.41336802, 0.07003388, 422110.1, 422110.1, 0.0, 10.002548, 9.999266 
2.8961554e+3, 3.1693318e+2, 206658.31, -313853.53, 191015.7, -0.76844335, 0.4005922, 269233.84, 269233.84, 0.0, 10.0033865, 9.996081 
2.8957602e+3, 3.2691675e+2, -549079.7, -407602.63, -294314.7, -0.2179618, -0.24088162, -175644.81, -175644.81, 0.0, 9.997207, 9.998156 
2.9132885e+3, 1.3747303e+2, -1708436.1, -1673548.8, -25948.943, -0.48542634, -0.39364764, -1659725.4, -66988.78, 0.0000000000007792345, 9.999763, 10.0003195 
2.912898e+3, 1.474659e+2, -1142973.3, -1368027.9, -99269.06, 0.12076037, -0.3384453, -1105444.8, 389363.9, 0.0, 10.003195, 10.000073 
2.9124966e+3, 1.5745942e+2, -1516127.5, -1608247.9, -36038.387, -0.30326593, -0.26375982, -1503704.3, -106835.086, 0.0, 10.0004015, 9.999122 
2.9121e+3, 1.6745117e+2, -1350967.1, -1482090.1, -70543.71, -0.20016804, -0.22214822, -1320223.3, -21270.281, 0.0, 10.00096, 9.998957 
2.9117036e+3, 1.7744178e+2, -1089328.3, -1375567.0, -9919.56, -0.043056022, -0.31231532, -1088984.9, 112065.06, 0.0, 10.002285, 9.998456 
2.9113063e+3, 1.8743426e+2, -887184.8, -1090545.9, 66688.61, -0.05067319, -0.19348392, -867266.44, 235858.75, 0.0, 10.002465, 9.999626 
2.910909e+3, 1.974273e+2, -960333.8, -1141837.3, 141943.52, -0.11792973, -0.08490143, -882610.5, 122583.23, 0.0, 10.001522, 9.999082 
2.910511e+3, 2.0741859e+2, -873194.94, -983295.9, 72131.19, -0.17526194, -0.0996572, -837507.0, 69770.69, 0.0, 10.001248, 9.999565 
2.9101124e+3, 2.174091e+2, -840620.25, -945178.9, 80803.28, -0.28896716, -0.24473171, -796658.75, 12709.041, 0.0, 10.000852, 9.999392 
2.909717e+3, 2.2740029e+2, -666719.3, -698766.9, 111214.19, -0.21171294, -0.33106747, -570380.5, 141067.95, 0.0, 10.001007, 10.000293 
2.9093224e+3, 2.3739132e+2, -593295.06, -739538.4, 107607.21, -0.090871304, -0.47960994, -536316.44, 77213.08, 0.0, 10.001232, 9.99931 
2.908927e+3, 2.4738336e+2, -414733.7, -735445.3, 133553.48, -0.17030856, -0.3373685, -366401.9, 149209.58, 0.0, 10.002467, 9.9979925 
2.9085296e+3, 2.5737575e+2, -97398.39, -559286.8, 117977.914, -0.36738414, -0.14002822, -69008.81, 348685.78, 0.0, 10.003978, 9.997858 
2.9081333e+3, 2.6736605e+2, -59769.703, -363830.4, 74847.15, -0.3771014, -0.1685461, -42344.094, 277447.78, 0.0, 10.003079, 9.998936 
2.9077372e+3, 2.7735555e+2, -243881.95, -397642.03, 11193.398, -0.33817086, -0.36076254, -243071.36, -21177.176, 0.0, 10.001056, 9.999046 
2.9073408e+3, 2.8734913e+2, -193715.78, -69764.484, -9337.954, -0.20160295, -0.2535732, -69064.95, 54889.754, 0.0, 9.999776, 10.001183 
2.906944e+3, 2.9734203e+2, -317724.13, -149872.3, 138743.89, -0.109371416, -0.3031588, -71645.734, -45624.523, 0.0, 9.998386, 10.000672 
2.9232833e+3, 1.3786735e+2, -1317866.1, -1374903.8, 277940.28, -0.37678915, -0.44821385, -1066985.4, 521891.22, 0.0, 10.001929, 10.001311 
2.9228935e+3, 1.4786527e+2, -1457329.9, -1452903.0, -126331.44, 0.21549284, 0.036996137, -1328765.6, 162132.64, 0.0, 10.00073, 10.0006695 
2.922489e+3, 1.5785542e+2, -1504770.3, -1540686.0, -57461.965, -0.3126805, -0.27549538, -1462525.5, -69534.1, 0.0, 10.000185, 9.999695 
2.922093e+3, 1.6784708e+2, -1350729.8, -1431441.8, 14371.94, -0.19732828, -0.29057437, -1348247.0, -53171.176, 0.0, 10.000695, 9.999477 
2.921699e+3, 1.77839e+2, -1197537.5, -1337612.3, 41976.64, 0.09777213, -0.29642746, -1185921.5, 11237.975, 0.0, 10.001153, 9.999288 
2.921301e+3, 1.8783289e+2, -918392.7, -936728.06, 51602.055, 0.010451819, -0.16670771, -875150.3, 224066.0, 0.0, 10.001594, 10.001063 
2.9209027e+3, 1.9782704e+2, -959741.3, -1085885.3, 61363.934, -0.13333346, -0.08986388, -934815.5, 66452.98, 0.0, 10.001277, 9.9996 
2.9205045e+3, 2.0781723e+2, -861787.1, -1073495.1, 31713.936, -0.17665781, -0.18266575, -857138.44, 46224.574, 0.0, 10.001797, 9.998675 
2.9201064e+3, 2.1780589e+2, -819292.25, -1041903.06, 35812.063, -0.17787232, -0.43885982, -813672.94, -8199.651, 0.0, 10.001521, 9.99841 
2.9197103e+3, 2.2779758e+2, -639913.25, -716557.94, 105124.34, -0.20312941, -0.42995933, -566344.0, 141208.14, 0.0, 10.001376, 9.9999695 
2.9193148e+3, 2.377901e+2, -753790.9, -869690.56, 116868.375, -0.21224527, -0.41414565, -681293.75, -71671.66, 0.0, 10.000452, 9.998772 
2.9189205e+3, 2.4778205e+2, -589596.0, -766107.56, 212299.78, -0.22422427, -0.28883064, -447938.16, 63765.81, 0.0, 10.001123, 9.998399 
2.9185268e+3, 2.5777367e+2, -505487.06, -784179.9, 164981.13, -0.22778322, -0.22009258, -428879.34, -15087.554, 0.0, 10.001394, 9.997548 
2.9181302e+3, 2.677643e+2, -373462.84, -576454.3, 52593.883, -0.20157817, -0.16208556, -360645.4, -44757.3, 0.0, 10.0014, 9.998169 
2.9177317e+3, 2.7775472e+2, -468912.38, -567691.25, 23489.7, -0.1783227, -0.2174037, -463611.03, -245625.23, 0.0, 9.999927, 9.998376 
2.917334e+3, 2.8774932e+2, -148577.84, 8545.365, -3261.108, -0.047214568, -0.017060561, 8613.0205, 128644.05, 0.0, 9.999974, 10.0015545 
2.9169342e+3, 2.9773837e+2, -343928.34, -61272.07, 227149.7, -0.15176925, -0.56992906, 64926.676, 87053.53, 0.0, 9.9979315, 10.001476 
2.9332772e+3, 1.3826558e+2, -1701155.3, -1929552.4, -29934.623, -0.48650113, -0.27209252, -1697297.0, -112324.086, 0.0, 10.000987, 9.997933 
2.9328802e+3, 1.4826131e+2, -1566797.9, -1412851.5, -130622.664, -0.35650897, 0.042265587, -1338209.5, 148811.88, 0.0, 9.999569, 10.001512 
2.9324836e+3, 1.5825191e+2, -1537208.3, -1484031.9, -30503.074, -0.14588408, -0.2987442, -1470155.6, -81046.12, 0.0, 9.99964, 10.000357 
2.9320875e+3, 1.6824484e+2, -1346966.1, -1346721.8, 36924.92, -0.051387075, -0.2585059, -1309918.9, -18740.264, 0.0, 10.000377, 10.000204 
2.9316908e+3, 1.7823803e+2, -1237499.6, -1293412.1, 85456.33, -0.10722414, -0.19904594, -1175543.0, 17703.063, 0.0, 10.000576, 9.999881 
2.931294e+3, 1.8823019e+2, -975113.9, -979624.56, 47071.06, -0.09682138, -0.25957832, -930244.1, 165072.52, 0.0, 10.001248, 10.000941 
2.9308978e+3, 1.9822201e+2, -925250.9, -1070029.4, 47632.62, -0.073386714, -0.39565393, -910985.25, 86404.14, 0.0, 10.001479, 9.999618 
2.9305002e+3, 2.08213e+2, -745743.4, -1038524.3, 17369.68, -0.111744694, -0.40284872, -744716.44, 154763.77, 0.0, 10.002662, 9.998512 
2.9301018e+3, 2.1820353e+2, -513786.0, -878110.6, 35745.49, -0.23595409, -0.44646063, -510311.97, 291265.84, 0.0, 10.003446, 9.998637 
2.9297045e+3, 2.2819673e+2, -398702.7, -578408.44, 50486.36, -0.2820882, -0.31223217, -385490.47, 318154.66, 0.0, 10.002809, 10.000292 
2.9293072e+3, 2.381905e+2, -522832.53, -653220.8, 98721.79, -0.3478651, -0.19253202, -469720.84, 135984.4, 0.0, 10.001421, 9.999851 
2.9289135e+3, 2.4818188e+2, -613745.2, -636975.3, 213258.89, -0.24271435, -0.2531158, -411785.28, 96001.41, 0.0, 10.000212, 9.999797 
2.9285204e+3, 2.5817242e+2, -717842.6, -723445.56, 211393.72, -0.12400042, -0.3949338, -509231.8, -99355.305, 0.0, 9.999068, 9.999142 
2.928123e+3, 2.6816374e+2, -580585.06, -608401.0, 171984.56, -0.19226265, -0.37037924, -421947.06, -109983.664, 0.0, 9.999554, 9.998886 
2.9277235e+3, 2.781552e+2, -290388.94, -451628.78, 188748.36, -0.316621, -0.35135844, -165763.84, 48286.04, 0.0, 10.000813, 9.998812 
2.9273292e+3, 2.8814816e+2, 57416.152, -173852.5, 110518.836, 0.06929033, -0.1679616, 101737.164, 217855.42, 0.0, 10.0023775, 9.99928 
2.926928e+3, 2.9813647e+2, 324296.1, 187035.81, 6763.425, -0.123437695, -0.546103, 324628.56, 342856.78, 0.0, 10.002496, 10.001102 
2.94327e+3, 1.3866243e+2, -1946789.4, -2128305.0, -24325.441, -0.48435476, -0.29848313, -1943586.0, -362502.3, 0.0, 9.999501, 9.997343 
2.9428706e+3, 1.4865798e+2, -1375204.8, -1325699.1, -22593.764, -0.5170438, 0.035522807, -1316938.1, 166197.06, 0.0, 10.000882, 10.001497 
2.9424772e+3, 1.5864868e+2, -1361648.1, -1376251.4, -41142.18, 0.0031207122, -0.29393, -1327164.8, 58058.957, 0.0, 10.00074, 10.000576 
2.942081e+3, 1.6864234e+2, -1322589.8, -1280958.3, -6078.4277, 0.05121577, -0.22045025, -1280089.0, 7194.803, 0.0, 10.000361, 10.000637 
2.941683e+3, 1.7863622e+2, -1360933.6, -1334328.9, 12922.811, -0.1329366, -0.14603771, -1329085.3, -139743.73, 0.0, 9.999678, 9.999999 
2.9412872e+3, 1.8862711e+2, -1142033.5, -1091203.8, 7888.6245, -0.11504739, -0.33175066, -1090007.5, 1415.5056, 0.0, 10.000254, 10.000655 
2.9408926e+3, 1.9861716e+2, -1107616.6, -1194483.3, 3913.089, 0.06772086, -0.62146354, -1107440.8, -113928.4, 0.0, 10.00044, 9.999255 
2.9404953e+3, 2.0860922e+2, -1016145.44, -1147958.6, 21486.688, -0.03046974, -0.53708965, -1012731.4, -117135.266, 0.0, 10.0007715, 9.998632 
2.940097e+3, 2.1860176e+2, -1009974.9, -1146540.9, 31362.953, -0.19671401, -0.3908828, -1003116.6, -205437.77, 0.0, 10.000205, 9.998361 
2.9396984e+3, 2.2859628e+2, -657839.94, -652377.4, 34488.406, -0.3046796, -0.14856994, -620512.25, 79223.555, 0.0, 10.000926, 10.000611 
2.9393005e+3, 2.3859088e+2, -652480.4, -676060.75, 68065.92, -0.35951957, -0.002019949, -595191.06, 6598.3115, 0.0, 10.000498, 10.000078 
2.9389066e+3, 2.4858163e+2, -540676.75, -429142.38, 153551.5, -0.20911215, -0.23246273, -321544.8, 182325.44, 0.0, 10.000157, 10.001151 
2.938513e+3, 2.585716e+2, -710296.75, -607488.56, 144027.31, -0.0005967329, -0.59024394, -505967.06, -100010.2, 0.0, 9.998817, 10.000013 
2.9381144e+3, 2.685636e+2, -506520.03, -458458.47, 166898.52, -0.22209735, -0.60025865, -313869.56, -5837.6514, 0.0, 9.999634, 9.999876 
2.9377145e+3, 2.7855578e+2, -519295.53, -653020.5, 192195.48, -0.4918457, -0.6009959, -382664.3, -172555.39, 0.0, 9.999777, 9.997905 
2.9373243e+3, 2.8854582e+2, -312219.88, -692818.25, 176272.84, 0.14488009, -0.47764462, -243123.8, -130906.5, 0.0, 10.001497, 9.996058 
2.9369223e+3, 2.985381e+2, -76703.8, -119765.96, -284139.44, -0.15348265, -0.16650774, 186719.17, 201021.33, 0.0, 10.000575, 9.999807 
2.9532665e+3, 1.3905932e+2, -1758450.3, -1555633.4, 144517.78, -0.07453772, -0.45462355, -1480494.1, 96697.43, 0.0, 9.9987545, 10.001644 
2.9528677e+3, 1.49057e+2, -1533018.0, -1646852.4, -23144.375, -0.16155405, 0.09256159, -1528492.4, -49272.957, 0.0, 10.000887, 9.999279 
2.952467e+3, 1.5904593e+2, -1501140.4, -1622807.3, -65967.36, -0.41406938, -0.20082714, -1472238.6, -90907.68, 0.0, 10.000545, 9.998995 
2.9520723e+3, 1.6903806e+2, -1388804.0, -1351790.0, -81091.14, -0.113496184, -0.21346468, -1287120.9, -3713.7502, 0.0, 10.000053, 10.000308 
2.951677e+3, 1.7903103e+2, -1444566.5, -1375591.9, -45062.79, 0.04039715, -0.19785927, -1353333.9, -167859.88, 0.0, 9.999076, 10.000018 
2.95128e+3, 1.8902357e+2, -1196010.5, -1103703.4, -20926.771, -0.08438504, -0.23997694, -1099180.8, -11636.91, 0.0, 9.999778, 10.000817 
2.950883e+3, 1.9901583e+2, -1100234.5, -1122813.8, -25245.857, -0.20850615, -0.3237257, -1083868.9, -94252.17, 0.0, 10.000121, 9.999925 
2.950486e+3, 2.0900896e+2, -1081866.0, -1039687.3, -38774.55, -0.18047543, -0.24551536, -1016637.94, -124949.28, 0.0, 9.999602, 9.999992 
2.9500887e+3, 2.1900219e+2, -1137627.6, -1065067.8, 35105.42, -0.20344545, -0.14656977, -1050863.8, -257102.25, 0.0, 9.998606, 9.999726 
2.949692e+3, 2.2899547e+2, -786430.5, -686565.0, 91595.65, -0.2345154, -0.093469866, -632175.94, 63652.344, 0.0, 9.999867, 10.00092 
2.949295e+3, 2.3898867e+2, -479279.78, -557117.2, 93748.1, -0.28469875, -0.098812565, -416692.97, 181201.23, 0.0, 10.001422, 10.000474 
2.9489e+3, 2.489803e+2, -372896.66, -427131.16, 87117.77, -0.20848471, -0.21363308, -308773.28, 191195.94, 0.0, 10.001508, 10.000586 
2.948505e+3, 2.5897145e+2, -288171.84, -364322.25, 22111.352, -0.10518201, -0.39794135, -282217.16, 119830.07, 0.0, 10.001366, 10.000521 
2.948108e+3, 2.6896408e+2, -188296.69, -206622.94, 28786.16, -0.14947084, -0.44482204, -167250.44, 136863.61, 0.0, 10.001263, 10.000896 
2.9477096e+3, 2.789567e+2, -213370.64, -352312.88, 65687.266, -0.30207488, -0.4851142, -187232.9, 18949.93, 0.0, 10.001049, 9.999412 
2.947314e+3, 2.8894606e+2, -309229.84, -539458.4, 207075.06, -0.19931589, -0.58937454, -187423.5, -79129.64, 0.0, 10.000663, 9.997596 
2.9469126e+3, 2.9894248e+2, 213460.42, 240110.52, -134807.98, -0.44290578, 0.022865698, 362250.4, 372584.1, 0.0, 10.001268, 10.002025 
2.9632616e+3, 1.3945647e+2, -1415608.5, -1201883.1, 134792.6, 0.24195512, -0.5087362, -1136732.1, 436566.94, 0.0, 10.000278, 10.003353 
2.962863e+3, 1.4945379e+2, -1525546.3, -1752580.0, -61407.227, 0.046394087, 0.026695132, -1510001.4, -34673.664, 0.0, 10.001423, 9.998316 
2.9624587e+3, 1.5944217e+2, -1310167.8, -1587308.9, -29844.121, -0.5450083, -0.21849547, -1306990.4, 70456.86, 0.0, 10.002057, 9.998531 
2.9620647e+3, 1.6943403e+2, -1243539.4, -1279579.5, -3672.4004, -0.114341825, -0.25111285, -1243169.0, 36357.145, 0.0, 10.000967, 10.000398 
2.961671e+3, 1.7942666e+2, -1404304.0, -1365576.4, 108301.47, 0.31576666, -0.26494622, -1274921.3, -93324.45, 0.0, 9.999375, 9.999959 
2.9612726e+3, 1.894204e+2, -1158423.0, -1096797.9, 119894.96, -0.030769538, -0.16840164, -1003819.4, 79840.93, 0.0, 10.000151, 10.00065 
2.960874e+3, 1.9941418e+2, -1065032.1, -1098507.6, 30061.604, -0.33348793, -0.07979024, -1047362.75, -61638.926, 0.0, 10.00039, 9.999951 
2.9604772e+3, 2.0940834e+2, -949732.7, -827878.2, -40453.34, -0.24687368, 0.014681654, -815671.3, 72112.305, 0.0, 9.999968, 10.001229 
2.9600802e+3, 2.1940215e+2, -1114561.1, -977616.94, 41777.668, -0.10280043, 0.044046618, -965878.06, -176031.34, 0.0, 9.99855, 10.000313 
2.959685e+3, 2.2939402e+2, -781263.94, -654946.0, 151784.2, -0.13184139, -0.08607438, -553704.56, 138220.81, 0.0, 9.999846, 10.001117 
2.95929e+3, 2.3938581e+2, -666091.56, -713370.94, 115640.49, -0.1442852, -0.24899343, -571699.25, 22304.508, 0.0, 10.000502, 9.99985 
2.9588935e+3, 2.4937865e+2, -524281.16, -585269.5, 102437.19, -0.21113114, -0.17637582, -447895.63, 48176.504, 0.0, 10.00091, 9.999753 
2.9584974e+3, 2.593715e+2, -539228.06, -558667.2, 73013.42, -0.21383454, -0.12005838, -475290.1, -77150.46, 0.0, 10.000086, 9.999763 
2.9581025e+3, 2.6936466e+2, -218296.52, -133077.97, 55446.676, -0.03594683, -0.1507824, -105759.54, 194441.02, 0.0, 10.000778, 10.001565 
2.9577056e+3, 2.793575e+2, -254630.73, -232672.75, 49832.473, -0.0102363285, -0.26670495, -192624.16, 9640.269, 0.0, 10.00033, 10.000529 
2.957301e+3, 2.893474e+2, -188186.67, -92918.01, 149947.72, -0.7971254, -0.60780346, 16779.627, 121140.0, 0.0, 9.999993, 10.000898 
2.9569066e+3, 2.9934427e+2, 155521.4, 540171.6, -29849.266, -0.38648388, -0.32216144, 542474.2, 548856.06, 0.0, 9.999684, 10.004799 
2.973249e+3, 1.3985401e+2, -1630906.3, -1528172.9, -25141.121, -0.3440397, -0.2782551, -1522350.3, 47058.418, 0.0, 9.999856, 10.001285 
2.9728556e+3, 1.4984675e+2, -1443091.8, -1521609.3, -17110.525, -0.09487865, -0.2822035, -1439525.0, 31953.25, 0.0, 10.001194, 9.999991 
2.9724568e+3, 1.5983732e+2, -1156863.6, -1319467.6, -17009.514, -0.26997924, -0.47009024, -1155103.4, 218468.31, 0.0, 10.002295, 10.000246 
2.9720604e+3, 1.6983251e+2, -1092098.9, -1012002.3, -17852.232, 0.074062064, -0.3481242, -1008203.5, 267411.63, 0.0, 10.001175, 10.002133 
2.9716635e+3, 1.798274e+2, -1364933.6, -1351932.3, 162952.1, 0.28134903, -0.24442661, -1195351.3, -17688.928, 0.0, 9.999637, 9.999937 
2.971266e+3, 1.898188e+2, -1198782.1, -1326087.3, 196351.97, -0.0075805523, -0.23964643, -1056023.1, 23729.963, 0.0, 10.0007, 9.998847 
2.9708683e+3, 1.9981006e+2, -962291.2, -1099927.6, 37089.258, -0.30960974, -0.24963263, -952932.94, 28912.316, 0.0, 10.001226, 9.999565 
2.9704702e+3, 2.0980386e+2, -831101.94, -744800.5, -78759.37, -0.22867551, -0.19775987, -698145.75, 185758.48, 0.0, 10.000631, 10.001507 
2.970072e+3, 2.1979816e+2, -877650.1, -810516.9, 28594.164, -0.16544658, -0.13904558, -799988.75, -14031.02, 0.0, 9.999815, 10.000899 
2.969677e+3, 2.2979175e+2, -627496.44, -589207.1, 171999.89, -0.26084852, -0.1167687, -435289.72, 252732.2, 0.0, 10.000776, 10.001204 
2.9692814e+3, 2.39785e+2, -408391.22, -489088.1, 106961.28, -0.39848706, -0.14357816, -334421.2, 255667.66, 0.0, 10.001701, 10.000853 
2.968885e+3, 2.49778e+2, -396892.5, -398353.63, 106677.46, -0.4091773, -0.16587801, -290943.1, 201211.56, 0.0, 10.001115, 10.000997 
2.9684886e+3, 2.5977096e+2, -426646.28, -449552.22, 154146.55, -0.3746132, -0.17282015, -283527.8, 110692.33, 0.0, 10.000438, 10.000386 
2.9680952e+3, 2.697644e+2, -164867.66, -233868.13, 140528.64, -0.1317745, -0.105341226, -54666.25, 241614.78, 0.0, 10.0015, 10.000625 
2.9676995e+3, 2.797573e+2, 89229.3, -43849.066, 14550.366, -0.053772207, -0.1141001, 90801.61, 289148.22, 0.0, 10.002366, 10.000928 
2.967295e+3, 2.8974727e+2, -88105.43, 38634.043, -42274.094, -0.6318452, -0.5240206, 51440.566, 151882.16, 0.0, 10.000166, 10.0018215 
2.9669008e+3, 2.9974222e+2, 30553.713, 406226.13, -135883.03, -0.15178254, -0.45345932, 450223.16, 452704.22, 0.0, 9.998942, 10.004316 
2.9832426e+3, 1.4025225e+2, -1442965.1, -1491048.9, -100195.234, -0.3221876, -0.077538826, -1363967.8, 201543.11, 0.0, 10.001274, 10.000884 
2.9828483e+3, 1.5024346e+2, -1511202.0, -1396185.1, 98879.2, -0.112226196, -0.3080539, -1339306.9, 128285.33, 0.0, 9.999975, 10.001472 
2.9824522e+3, 1.6023582e+2, -1448898.8, -1354749.6, 23662.404, -0.08964318, -0.45926592, -1349137.3, 20527.707, 0.0, 9.999799, 10.00125 
2.982054e+3, 1.7023161e+2, -996488.5, -904726.6, -129256.18, 0.123984076, -0.33555385, -813449.9, 458250.84, 0.0, 10.001605, 10.002684 
2.981656e+3, 1.8022679e+2, -984772.1, -1242641.8, -1575.1609, 0.2523717, -0.2346267, -984762.5, 188981.63, 0.0, 10.00257, 9.999304 
2.9812598e+3, 1.902172e+2, -1085080.1, -1396878.0, 133766.44, 0.03341367, -0.23881905, -1035557.7, 40288.91, 0.0, 10.002017, 9.997754 
2.9808632e+3, 2.002074e+2, -1050249.3, -1178042.9, 36412.79, -0.1644192, -0.28634828, -1040602.25, -62651.63, 0.0, 10.000794, 9.999247 
2.9804635e+3, 2.101995e+2, -815872.44, -758780.06, -89860.58, -0.15902805, -0.40080193, -693040.44, 186981.53, 0.0, 10.00077, 10.001372 
2.9800647e+3, 2.2019339e+2, -940821.2, -865523.9, 53087.844, -0.08472503, -0.38702402, -838089.94, -56014.14, 0.0, 9.999554, 10.000651 
2.979669e+3, 2.301894e+2, -821535.0, -662786.44, 195610.67, -0.3124839, -0.13237701, -531059.3, 153059.0, 0.0, 9.999481, 10.001284 
2.9792732e+3, 2.401843e+2, -818473.94, -662285.44, 83362.16, -0.5544507, 0.00017178891, -626152.0, -39980.48, 0.0, 9.998891, 10.001005 
2.9788765e+3, 2.5017694e+2, -477912.53, -263275.97, 2263.9143, -0.5654539, -0.18382303, -263252.1, 224986.2, 0.0, 9.999964, 10.00243 
2.9784808e+3, 2.6016963e+2, -561711.6, -584760.5, 65213.22, -0.43964177, -0.31899306, -507012.34, -116707.97, 0.0, 9.9999485, 9.9996805 
2.978088e+3, 2.7016297e+2, -311187.3, -426536.72, 136857.34, -0.23437808, -0.1694713, -220348.36, 72020.57, 0.0, 10.001159, 9.999426 
2.977693e+3, 2.8015617e+2, -221253.0, -322407.5, -14385.222, -0.13282533, -0.05347076, -219247.06, -24811.63, 0.0, 10.000969, 9.999664 
2.9772928e+3, 2.9014656e+2, -135582.61, -14194.1455, -154114.4, -0.083484605, -0.37334725, 90746.89, 187275.53, 0.0, 10.0001545, 10.001405 
2.97689e+3, 3.0013663e+2, -262671.03, -32541.94, 18036.936, -0.38592535, -0.71207255, -31136.828, -31136.828, 0.0, 9.998532, 10.001412 
2.993245e+3, 1.4065179e+2, -1449796.8, -1213194.9, -264733.88, 0.48157322, 0.11664106, -1041531.75, 520065.94, 0.0, 10.00015, 10.003331 
2.9928404e+3, 1.5064657e+2, -1631477.6, -1344455.3, 62561.105, -0.12575933, 0.112433225, -1331411.8, 132232.19, 0.0, 9.998766, 10.0023985 
2.9924387e+3, 1.6064046e+2, -1809452.3, -1712899.0, 72831.49, -0.6043263, 0.10063889, -1673796.9, -308094.6, 0.0, 9.998137, 9.999597 
2.992044e+3, 1.7062853e+2, -1275899.6, -1411218.1, -77743.5, -0.310655, -0.24820265, -1240496.6, 27319.234, 0.0, 10.001294, 9.999365 
2.991649e+3, 1.806185e+2, -791174.56, -1098677.3, -88420.24, -0.15761082, -0.4443025, -767563.0, 402348.97, 0.0, 10.003709, 9.999727 
2.9912525e+3, 1.9061497e+2, -770239.06, -908007.56, 37258.605, -0.23681903, -0.0866619, -760808.3, 311141.2, 0.0, 10.002765, 10.000735 
2.9908565e+3, 2.006104e+2, -1014442.9, -1023726.8, 10366.993, -0.22834127, 0.165027, -1007726.0, -33728.895, 0.0, 10.000416, 10.000484 
2.9904586e+3, 2.1059981e+2, -791120.6, -748549.8, -62779.594, -0.009743655, -0.23655224, -703545.4, 172551.64, 0.0, 10.000924, 10.001376 
2.99006e+3, 2.2058901e+2, -737179.94, -810569.0, 30542.912, 0.06342418, -0.6515584, -726131.9, 52066.64, 0.0, 10.001047, 10.0003195 
2.9896635e+3, 2.3058271e+2, -953303.7, -832804.06, 103365.61, -0.014035173, -0.5358427, -773410.7, -93151.625, 0.0, 9.998924, 10.000439 
2.989269e+3, 2.405777e+2, -1033141.7, -832926.3, 44189.2, -0.06278339, -0.31988093, -823607.1, -241299.31, 0.0, 9.997597, 10.000481 
2.9888746e+3, 2.505703e+2, -546113.56, -483095.22, -53421.707, -0.013747784, -0.37220958, -452582.56, 31796.676, 0.0, 10.000204, 10.000868 
2.9884797e+3, 2.6056165e+2, -139771.67, -258710.22, -103244.96, 0.040206518, -0.5516174, -80093.484, 306368.9, 0.0, 10.002175, 10.000913 
2.9880878e+3, 2.7055156e+2, -73944.66, -38840.84, 28893.281, 0.36817843, -0.9517303, -22586.076, 265972.84, 0.0, 10.001577, 10.001953 
2.9876933e+3, 2.805442e+2, -114611.695, -183674.22, -12595.56, 0.4890948, -1.0700712, -112386.24, 78244.664, 0.0, 10.00118, 10.000599 
2.987289e+3, 2.9054585e+2, 174655.72, -5990.398, -144230.48, 0.15841419, -0.18283688, 254511.06, 347129.66, 0.0, 10.002735, 10.000385 
2.986882e+3, 3.005387e+2, 143650.34, -202769.69, -1921.2101, -0.5327529, -0.038136512, 143661.0, 143661.0, 0.0, 10.002568, 9.998517 
3.0032313e+3, 1.410502e+2, -1857413.6, -1573267.1, 14933.791, -0.103975646, -0.37060812, -1572484.5, -14797.304, 0.0, 9.997716, 10.0021515 
3.0028337e+3, 1.5103947e+2, -1453285.6, -1762465.5, 101827.45, 0.03807607, -0.5269441, -1422762.5, 37030.105, 0.0, 10.002086, 9.997914 
3.0024368e+3, 1.6103473e+2, -1111790.9, -1455744.6, -214739.52, -0.059482433, -0.10920196, -1008651.2, 353188.0, 0.0, 10.003103, 9.998958 
3.0020404e+3, 1.7102633e+2, -1389218.8, -1316186.8, 152189.69, 0.03435038, -0.26054895, -1196193.5, 67719.336, 0.0, 9.999752, 10.0007 
3.0016464e+3, 1.8101643e+2, -1570718.8, -1315549.9, 550685.9, 0.1760115, -0.55973315, -877862.06, 288141.06, 0.0, 9.997515, 10.001244 
3.001249e+3, 1.910121e+2, -1212668.4, -859277.7, 510625.88, 0.040449455, -0.49419194, -495639.75, 572404.4, 0.0, 9.998478, 10.003104 
3.0008507e+3, 2.0100585e+2, -1182837.0, -1269573.8, 385696.63, -0.116672024, -0.4672995, -838078.25, 132027.73, 0.0, 9.999843, 9.999069 
3.0004498e+3, 2.1100087e+2, -1056585.4, -1027795.1, 138633.84, -0.16390051, -0.14973184, -902811.06, -30651.285, 0.0, 9.9997635, 9.999917 
3.0000496e+3, 2.2099301e+2, -957546.1, -1180120.3, 40355.76, -0.28685403, -0.08328292, -950455.0, -176216.13, 0.0, 10.000643, 9.997936 
2.9996526e+3, 2.3098074e+2, -231931.36, -669878.4, 37586.855, -0.34950414, -0.41947043, -228728.89, 447624.34, 0.0, 10.004703, 9.998643 
2.999258e+3, 2.4097161e+2, -147272.94, -623298.7, -10729.425, -0.33481374, -0.4945136, -147031.23, 431407.44, 0.0, 10.004636, 9.998462 
2.998864e+3, 2.5096387e+2, -591011.6, -702608.4, 91834.336, -0.33431897, -0.4451158, -539353.0, -58834.05, 0.0, 10.000841, 9.998892 
2.9984686e+3, 2.6095754e+2, -757282.1, -532137.3, 45798.117, -0.49100143, -0.28780946, -523177.78, -140593.55, 0.0, 9.997908, 10.000992 
2.9980746e+3, 2.709556e+2, -574055.4, 23723.469, -8967.944, -0.2601226, -0.1207979, 23857.977, 308457.3, 0.0, 9.996997, 10.004399 
2.9976794e+3, 2.8094894e+2, -658302.2, -401705.7, -32214.354, -0.17878996, -0.3846981, -397723.16, -211060.48, 0.0, 9.997355, 10.000847 
2.9972753e+3, 2.9094857e+2, 8253.339, -121483.54, 122354.91, -0.65674835, 0.29439926, 81871.86, 170547.53, 0.0, 10.001951, 9.999779 
2.996878e+3, 3.009334e+2, 3044.61, -585411.56, 87063.28, -0.3826884, -0.24165162, 15655.539, 15655.539, 0.0, 10.003248, 9.995368 
