coord_x,coord_y,stress_xx,stress_yy,tau_xy,velocity_x,velocity_y,stress_1,eps,damage,lx,ly
4.9987563e+0, 1.24919936e+2, -1937416.9, -1634862.3, -9203.449, -0.0077208662, -0.36706427, -1634582.5, 81169.914, 0.0013801174, 9.997659, 10.001674 
4.9990517e+0, 1.3492118e+2, -1889384.6, -1716560.0, -13264.763, 0.005372112, -0.27259865, -1715547.9, -97806.09, 0.0008364695, 9.99799, 10.000279 
4.999208e+0, 1.4492089e+2, -1733710.5, -1571889.6, -11793.145, 0.0052557937, -0.33984274, -1571034.8, -51289.035, 0.00038681776, 9.998305, 10.0004425 
4.999237e+0, 1.549217e+2, -1598978.0, -1467822.4, -6799.72, -0.006863491, -0.30192274, -1467470.8, -45732.344, 0.00011816065, 9.998608, 10.000338 
4.9994072e+0, 1.649222e+2, -1488565.3, -1414192.3, -1672.813, -0.004924094, -0.26324448, -1414154.6, -90420.234, 0.000016018055, 9.99891, 9.999889 
4.9997267e+0, 1.7492194e+2, -1346978.3, -1297780.0, 767.75214, 0.011454433, -0.2816443, -1297768.0, -72030.33, 0.00000013955699, 9.999221, 9.999866 
4.9998426e+0, 1.849216e+2, -1233962.1, -1225027.4, -673.40173, 0.010916713, -0.2884598, -1224976.9, -97234.984, 0.0, 9.999464, 9.9995775 
4.9997506e+0, 1.9492127e+2, -1114417.0, -1121511.0, -2273.6484, -0.006691051, -0.28232196, -1113750.9, -84005.14, 0.0, 9.999633, 9.999534 
4.9998885e+0, 2.0492072e+2, -1019997.56, -1093427.3, 1601.1666, -0.006365321, -0.25744966, -1019962.6, -88210.45, 0.0, 9.999903, 9.998922 
5.00026e+0, 2.1491997e+2, -869747.7, -974184.06, 877.0088, 0.011977807, -0.23162565, -869740.3, -35978.78, 0.0, 10.000278, 9.998887 
5.000413e+0, 2.2491893e+2, -736857.2, -871596.06, -1834.478, 0.012658291, -0.21637447, -736832.2, -1060.05, 0.0, 10.00057, 9.998777 
5.0003374e+0, 2.3491766e+2, -611255.8, -763477.2, -2547.446, -0.0050272266, -0.22784252, -611213.2, 26570.943, 0.0, 10.000773, 9.998749 
5.000426e+0, 2.4491619e+2, -495100.5, -686403.2, -3380.4912, -0.00875452, -0.23638843, -495040.78, 44757.535, 0.0, 10.001026, 9.998486 
5.000687e+0, 2.549145e+2, -354984.34, -573084.2, -9909.341, 0.0017962536, -0.25593328, -354535.03, 87279.77, 0.0, 10.001337, 9.998441 
5.0008494e+0, 2.6491293e+2, -236804.73, -500048.28, -14344.183, 0.0035734763, -0.23955035, -236025.42, 107805.48, 0.0, 10.001625, 9.99813 
5.0009096e+0, 2.7491155e+2, -102339.34, -386724.53, -18196.1, -0.0033979386, -0.19534215, -101179.81, 144665.9, 0.0, 10.001885, 9.998109 
5.0010234e+0, 2.8490978e+2, 25825.96, -299150.16, -20703.168, -0.0077294204, -0.17351116, 27139.584, 175003.84, 0.000000004221918, 10.002199, 9.997886 
5.0011903e+0, 2.9490742e+2, 180340.8, -171176.27, -26359.152, -0.009907998, -0.20405272, 182306.39, 232194.67, 0.0000065845143, 10.002576, 9.9979105 
5.0014293e+0, 3.0490434e+2, 184928.63, -316555.53, -20395.836, -0.007907749, -0.22842693, 185756.78, 185756.78, 0.00007542163, 10.003015, 9.996371 
5.0017476e+0, 3.14902e+2, 455120.03, 131690.2, -8358.538, -0.000537832, -0.09300112, 455335.9, 455335.9, 0.00027006015, 10.003501, 9.999217 
1.4996263e+1, 1.2491957e+2, -1944161.5, -1647098.8, 2864.085, -0.023570128, -0.3607253, -1647071.1, 68686.086, 0.00135349, 9.997653, 10.001594 
1.4997157e+1, 1.3492092e+2, -1894790.9, -1726903.5, -830.7837, 0.01634274, -0.2458947, -1726899.4, -109153.945, 0.0008181531, 9.997988, 10.000211 
1.4997621e+1, 1.4492069e+2, -1723843.1, -1549911.4, -1127.352, 0.01565392, -0.31194788, -1549904.1, -30155.664, 0.00037595516, 9.9983, 10.000596 
1.4997712e+1, 1.5492138e+2, -1588643.1, -1445393.1, 4872.4536, -0.020521091, -0.29901007, -1445227.6, -23486.309, 0.00011312574, 9.998604, 10.000494 
1.4998223e+1, 1.6492184e+2, -1483104.5, -1401798.1, 9231.583, -0.014811555, -0.27869296, -1400763.1, -77025.85, 0.000014709239, 9.998906, 9.999977 
1.499918e+1, 1.7492162e+2, -1342131.1, -1286788.3, 12651.229, 0.034388963, -0.30143526, -1284033.4, -58293.08, 0.00000010097208, 9.999217, 9.999944 
1.4999527e+1, 1.8492152e+2, -1236610.9, -1229175.1, 5477.044, 0.032685567, -0.28434837, -1226273.3, -98531.055, 0.0, 9.999459, 9.999552 
1.4999253e+1, 1.9492172e+2, -1116266.9, -1124756.5, 4519.8887, -0.020016892, -0.2226869, -1114311.1, -84569.22, 0.0, 9.999631, 9.999513 
1.4999664e+1, 2.0492108e+2, -1020542.9, -1093457.8, 15152.238, -0.019184835, -0.2073848, -1017519.5, -85770.375, 0.0, 9.999898, 9.998925 
1.500078e+1, 2.1491955e+2, -870689.75, -975061.9, 15616.413, 0.03612638, -0.2564319, -868403.25, -34638.586, 0.0, 10.000274, 9.998883 
1.5001234e+1, 2.2491826e+2, -736997.4, -870501.9, 5453.9785, 0.037748117, -0.26872513, -736774.94, -997.3773, 0.0, 10.000566, 9.998788 
1.5001012e+1, 2.3491725e+2, -611760.9, -763844.94, 5650.1763, -0.01494701, -0.25116915, -611551.25, 26235.908, 0.0, 10.000771, 9.998749 
1.5001276e+1, 2.4491604e+2, -507047.1, -710328.0, 7731.317, -0.02650674, -0.22624193, -506753.47, 33046.06, 0.0, 10.001022, 9.9983225 
1.5002061e+1, 2.5491455e+2, -365697.44, -594428.44, 2217.0496, 0.0052829385, -0.20807119, -365675.94, 76138.82, 0.0, 10.001333, 9.998296 
1.5002546e+1, 2.6491264e+2, -242411.92, -510585.72, -4913.609, 0.0107389605, -0.22018382, -242321.92, 101512.69, 0.0, 10.00162, 9.99806 
1.5002726e+1, 2.7491024e+2, -109974.72, -401429.2, -8028.064, -0.010435438, -0.26722395, -109753.75, 136104.83, 0.0, 10.001881, 9.998011 
1.500307e+1, 2.849085e+2, 14870.892, -320738.03, -7143.7905, -0.022938365, -0.2259476, 15022.886, 162899.77, 0.0000000059189293, 10.002195, 9.99774 
1.5003566e+1, 2.9490742e+2, 171213.81, -188795.63, -11288.207, -0.030196745, -0.11589589, 171567.4, 221457.44, 0.0000065077284, 10.002571, 9.997791 
1.5004292e+1, 3.049042e+2, 204831.61, -273882.16, -2431.6086, -0.023183461, -0.16183041, 204843.97, 204843.97, 0.000074265045, 10.00301, 9.996667 
1.5005235e+1, 3.1490037e+2, 473850.7, 172996.3, 14939.081, -0.002396559, -0.20929234, 474590.7, 474590.7, 0.00026651216, 10.003492, 9.999505 
2.4994041e+1, 1.2491906e+2, -1943209.6, -1645252.5, -4476.727, -0.011592869, -0.33705768, -1645185.3, 70577.77, 0.0013145427, 9.997657, 10.001605 
2.4995121e+1, 1.3492028e+2, -1884581.0, -1720100.9, -4187.65, 0.010704937, -0.23624428, -1719994.3, -102242.46, 0.0007913486, 9.998051, 10.000228 
2.49959e+1, 1.4491993e+2, -1715771.4, -1549090.4, -9062.519, 0.010221398, -0.3135923, -1548599.1, -28843.377, 0.00036019128, 9.998367, 10.00057 
2.4996479e+1, 1.5492058e+2, -1587010.3, -1447509.3, -17175.86, -0.0055117467, -0.30445465, -1445425.6, -23676.396, 0.00010584406, 9.998628, 10.000468 
2.4997252e+1, 1.6492106e+2, -1487249.5, -1392159.0, -20102.941, 0.0012721177, -0.28307924, -1388083.8, -64339.09, 0.000012859098, 9.998828, 10.000082 
2.4998242e+1, 1.74921e+2, -1372335.5, -1289798.8, -15633.882, 0.031655002, -0.29980832, -1286936.6, -61190.99, 0.00000006033416, 9.9989605, 10.000048 
2.4998863e+1, 1.8492097e+2, -1266502.0, -1251886.1, -17312.553, 0.028872818, -0.28017786, -1240402.3, -112654.875, 0.0, 9.9992895, 9.999477 
2.4999107e+1, 1.9492108e+2, -1092516.3, -1121311.0, -22308.799, -0.0076501747, -0.21867849, -1080362.4, -50614.19, 0.0, 9.999829, 9.999441 
2.4999784e+1, 2.0492043e+2, -977933.4, -1065291.8, -14669.562, -0.010002219, -0.20647953, -975535.8, -43780.098, 0.0, 10.000158, 9.998993 
2.5000903e+1, 2.1491887e+2, -867949.25, -966046.1, -9672.723, 0.021681815, -0.26307702, -867004.56, -33233.926, 0.0, 10.00026, 9.998953 
2.5001594e+1, 2.2491758e+2, -750618.6, -882900.2, -15917.868, 0.020678569, -0.2770631, -748730.1, -12946.593, 0.0, 10.000496, 9.998737 
2.5001854e+1, 2.349166e+2, -599939.7, -763797.56, -20644.193, -0.013314855, -0.25243315, -597378.8, 40414.723, 0.0, 10.000877, 9.998697 
2.500245e+1, 2.4491537e+2, -488975.28, -710139.06, -16793.258, -0.019623335, -0.22132283, -487707.4, 52098.855, 0.0, 10.0011835, 9.998247 
2.5003403e+1, 2.5491387e+2, -360277.7, -599643.25, -16285.59, 0.0027958816, -0.20013918, -359174.75, 82647.266, 0.0, 10.001404, 9.998226 
2.5004163e+1, 2.6491183e+2, -231648.86, -509119.94, -16149.102, 0.005958789, -0.21498448, -230712.13, 113130.53, 0.0, 10.001711, 9.998027 
2.5004733e+1, 2.7490932e+2, -77972.336, -390682.8, -15830.41, -0.009628488, -0.2709246, -77172.99, 168694.83, 0.0, 10.002121, 9.99797 
2.5005424e+1, 2.8490758e+2, 45791.496, -313012.0, -9613.411, -0.019284919, -0.2277244, 46048.883, 193935.44, 0.0000000086392555, 10.002439, 9.997676 
2.500619e+1, 2.9490653e+2, 175394.7, -194200.33, -9419.478, -0.027681338, -0.10448804, 175634.61, 225533.86, 0.0000063841276, 10.002631, 9.997726 
2.5007102e+1, 3.0490327e+2, 184611.31, -263854.84, -779.3483, -0.03170892, -0.16215797, 184612.67, 184612.67, 0.00007245626, 10.002789, 9.996842 
2.500814e+1, 3.1489938e+2, 403676.66, 157328.8, 11037.263, -0.033336993, -0.22970009, 404170.16, 404170.16, 0.0002610093, 10.0029335, 9.999666 
3.4992078e+1, 1.24918394e+2, -1935967.4, -1629924.1, 9607.498, 0.024373202, -0.2990109, -1629622.8, 86147.195, 0.0012623775, 9.997656, 10.001711 
3.499293e+1, 1.3491927e+2, -1876257.8, -1703468.8, 11366.402, -0.014265362, -0.24486351, -1702724.3, -84963.2, 0.000755357, 9.9980545, 10.000341 
3.499404e+1, 1.4491864e+2, -1729446.5, -1577583.0, -407.55853, -0.013995246, -0.34596792, -1577582.0, -57814.457, 0.00033918672, 9.998368, 10.000375 
3.4995544e+1, 1.5491927e+2, -1601784.1, -1477541.5, -7241.646, 0.03710474, -0.3164758, -1477120.8, -55358.6, 0.00009620481, 9.998626, 10.000264 
3.4996492e+1, 1.649199e+2, -1478897.9, -1373529.8, -15277.509, 0.04160289, -0.27671298, -1371359.4, -47602.867, 0.000010539653, 9.998823, 10.000212 
3.4996903e+1, 1.7492014e+2, -1363051.1, -1270123.0, -10133.738, 0.001098157, -0.27737585, -1269030.8, -43276.55, 0.000000028001644, 9.99896, 10.000183 
3.4997842e+1, 1.8491991e+2, -1274628.5, -1268176.8, 2351.1077, -0.0028407788, -0.27709562, -1267410.9, -139653.44, 0.0, 9.999288, 9.999367 
3.4999314e+1, 1.9491938e+2, -1101485.1, -1138992.5, -1449.1301, 0.029528389, -0.26985112, -1101429.3, -71664.336, 0.0, 9.9998255, 9.999321 
3.5000244e+1, 2.0491873e+2, -969257.6, -1045500.56, -10802.925, 0.019620264, -0.2551037, -967756.5, -35984.41, 0.0, 10.000152, 9.999132 
3.5000622e+1, 2.1491794e+2, -858441.8, -945615.94, -5307.1226, -0.032757405, -0.2515818, -858119.9, -24340.314, 0.0, 10.0002575, 9.999095 
3.5001484e+1, 2.2491689e+2, -758015.2, -897197.6, -2163.4465, -0.040636495, -0.24266627, -757981.6, -22191.393, 0.0, 10.000492, 9.998641 
3.5002857e+1, 2.3491566e+2, -607208.2, -778594.5, -5708.5347, -0.001232774, -0.23169324, -607018.25, 30785.027, 0.0, 10.000875, 9.998598 
3.5003936e+1, 2.4491417e+2, -488016.97, -706701.3, -8729.57, 0.010393087, -0.22290635, -487669.03, 52149.6, 0.0, 10.001178, 9.998273 
3.5004714e+1, 2.549124e+2, -360017.3, -597881.0, -7658.0063, -0.007213509, -0.23145825, -359771.03, 82065.516, 0.0, 10.001399, 9.99824 
3.5005692e+1, 2.6491058e+2, -231661.83, -508005.7, -1205.7455, -0.012846227, -0.2249434, -231656.56, 112198.51, 0.0, 10.001707, 9.998036 
3.5006928e+1, 2.7490884e+2, -76658.14, -386507.5, 398.05206, -0.0032363548, -0.2055525, -76657.63, 169215.77, 0.0, 10.002115, 9.998001 
3.500808e+1, 2.8490695e+2, 46303.14, -310595.2, -2504.8071, 0.0019003716, -0.17967358, 46320.72, 194214.02, 0.000000011844628, 10.002434, 9.997696 
3.5009056e+1, 2.949048e+2, 174617.22, -194050.28, -1857.436, -0.004881474, -0.16919413, 174626.58, 224542.55, 0.0000061783935, 10.002625, 9.99773 
3.5009864e+1, 3.049015e+2, 188035.38, -255540.16, 3834.3062, -0.034755006, -0.22994597, 188068.52, 188068.52, 0.00006980898, 10.002784, 9.996902 
3.5010445e+1, 3.1489915e+2, 406571.22, 165002.66, 21663.502, -0.097426444, -0.15214849, 408498.56, 408498.56, 0.00025310565, 10.002929, 9.999721 
4.4989723e+1, 1.249169e+2, -1911151.9, -1626576.8, 6392.0205, 0.013767576, -0.3202293, -1626433.3, 89350.06, 0.0011988538, 9.997863, 10.0016365 
4.499117e+1, 1.3491777e+2, -1870766.3, -1706996.3, -6994.744, 0.0010652534, -0.26038235, -1706698.0, -88923.31, 0.0007112032, 9.99812, 10.000286 
4.4992608e+1, 1.4491712e+2, -1734532.3, -1579087.6, -20439.307, 0.0080014495, -0.3620847, -1576445.0, -56663.324, 0.00031351, 9.99833, 10.000384 
4.4994205e+1, 1.5491785e+2, -1618596.6, -1484991.1, -12501.982, 0.047070388, -0.32354653, -1483831.4, -62055.836, 0.000084590996, 9.998508, 10.000271 
4.499531e+1, 1.6491848e+2, -1487069.1, -1388537.8, -16537.156, 0.04197636, -0.27791962, -1385836.4, -62066.418, 0.000007991499, 9.998816, 10.0001135 
4.4995952e+1, 1.7491865e+2, -1324423.0, -1262078.4, -29279.969, -0.005626506, -0.27567396, -1250483.6, -24714.895, 0.000000008983813, 9.999271, 10.000089 
4.4997227e+1, 1.8491836e+2, -1236625.5, -1247404.1, -19878.959, -0.005726338, -0.27884087, -1221418.3, -93645.484, 0.0, 9.999538, 9.999389 
4.4999132e+1, 1.9491774e+2, -1131528.9, -1151205.8, -14092.589, 0.039823193, -0.2818926, -1124180.3, -94399.48, 0.0, 9.99961, 9.999342 
4.5000353e+1, 2.0491713e+2, -1006373.2, -1061129.6, -21366.121, 0.02912266, -0.2659071, -999022.75, -67235.16, 0.0, 9.9998865, 9.999154 
4.5000884e+1, 2.149165e+2, -839694.56, -933304.2, -25403.81, -0.03778461, -0.247821, -833244.9, 548.6595, 0.0, 10.000373, 9.999124 
4.5001993e+1, 2.2491552e+2, -733250.5, -892101.75, -25636.764, -0.048994243, -0.23182991, -729215.5, 6588.4233, 0.0, 10.000691, 9.99858 
4.5003703e+1, 2.3491421e+2, -617464.56, -790050.2, -26752.375, -0.0019213647, -0.22246906, -613412.8, 24405.45, 0.0, 10.0008335, 9.998539 
4.5005062e+1, 2.4491267e+2, -496088.22, -700034.56, -23798.287, 0.010364099, -0.21997048, -493348.03, 46485.99, 0.0, 10.001077, 9.998368 
4.5006055e+1, 2.549109e+2, -349411.56, -582249.5, -17918.133, -0.014451238, -0.23959437, -348040.75, 93810.64, 0.0, 10.001427, 9.998335 
4.5007297e+1, 2.6490918e+2, -232511.28, -504352.56, -6552.4414, -0.021354115, -0.22919609, -232353.44, 111515.3, 0.0, 10.001682, 9.998074 
4.5008868e+1, 2.7490765e+2, -115680.01, -400668.6, -3661.4016, -0.0057726055, -0.1922313, -115632.98, 130252.18, 0.0, 10.001827, 9.998043 
4.5010325e+1, 2.8490582e+2, 3242.73, -323232.16, -2036.8142, 0.0003041522, -0.1658035, 3255.4368, 151159.64, 0.000000014278152, 10.002104, 9.997767 
4.5011574e+1, 2.9490358e+2, 167503.8, -190928.47, 2463.2095, -0.011559372, -0.17339037, 167520.72, 217447.98, 0.0000058442592, 10.002548, 9.99779 
4.501262e+1, 3.049001e+2, 198238.22, -256635.27, 1760.6434, -0.041907713, -0.2507576, 198245.03, 198245.03, 0.00006621042, 10.00288, 9.996849 
4.5013425e+1, 3.1489792e+2, 415865.47, 159560.52, 11790.289, -0.097279936, -0.15146679, 416406.7, 416406.7, 0.0002425997, 10.003033, 9.999636 
5.498695e+1, 1.24914594e+2, -1927602.4, -1662920.1, 15955.564, -0.051537998, -0.39956927, -1661961.8, 53841.0, 0.0011275938, 9.997873, 10.001382 
5.498985e+1, 1.3491583e+2, -1886690.6, -1740060.0, 2235.068, 0.056173805, -0.27977702, -1740026.0, -122233.3, 0.00066134764, 9.99812, 10.00006 
5.499161e+1, 1.4491536e+2, -1719084.4, -1546060.8, -13706.37, 0.07421753, -0.36237815, -1544981.6, -25183.28, 0.00028458898, 9.998326, 10.000612 
5.499244e+1, 1.5491627e+2, -1602206.0, -1451919.4, -4998.9805, 0.01845657, -0.3269642, -1451753.3, -29963.943, 0.00007188515, 9.998512, 10.000497 
5.499369e+1, 1.6491681e+2, -1509193.9, -1434884.0, -103.49301, -0.0028514743, -0.28777257, -1434883.9, -111098.83, 0.0000055425044, 9.998817, 9.999794 
5.4995394e+1, 1.7491658e+2, -1347903.3, -1309750.9, -11897.119, 0.011059544, -0.29353443, -1306345.0, -80555.836, 0.00000000116644, 9.999267, 9.9997635 
5.499701e+1, 1.849163e+2, -1226754.5, -1225416.4, -17055.021, 0.0182049, -0.28489986, -1209017.3, -81223.94, 0.0, 9.999533, 9.999542 
5.4998547e+1, 1.9491617e+2, -1120478.3, -1128061.8, -10941.573, 0.01976268, -0.25566676, -1112690.0, -82893.87, 0.0, 9.999609, 9.999501 
5.500011e+1, 2.049156e+2, -1012043.75, -1072496.6, -3440.4792, 0.015245578, -0.24003632, -1011848.56, -80046.14, 0.0, 9.999885, 9.999077 
5.500169e+1, 2.1491458e+2, -846082.7, -945911.5, -6485.1035, 0.0044391775, -0.25235823, -845663.1, -11850.523, 0.0, 10.000369, 9.999039 
5.5003107e+1, 2.2491345e+2, -735336.94, -894835.06, -20338.68, -0.0066895825, -0.24551082, -732784.25, 3040.527, 0.0, 10.000686, 9.998564 
5.500438e+1, 2.3491225e+2, -618910.5, -792765.1, -20950.637, -0.017685976, -0.22431795, -616421.44, 21417.06, 0.0, 10.000833, 9.998522 
5.500581e+1, 2.4491087e+2, -484273.9, -674969.44, -10947.405, -0.022705339, -0.21362859, -483647.5, 56204.98, 0.0, 10.001075, 9.998542 
5.5007416e+1, 2.5490934e+2, -337806.2, -557319.75, -4186.7876, -0.021591658, -0.22477408, -337726.38, 104140.3, 0.0, 10.001423, 9.998508 
5.5008984e+1, 2.6490763e+2, -227967.5, -493740.6, -1249.4219, -0.021402571, -0.22908738, -227961.63, 115922.125, 0.0, 10.001678, 9.998148 
5.501056e+1, 2.7490577e+2, -111606.68, -391140.16, 1723.0631, -0.02011167, -0.23032564, -111596.055, 134307.03, 0.0, 10.001823, 9.99811 
5.5012155e+1, 2.849042e+2, 11482.624, -305750.5, 14000.66, -0.02783618, -0.18641837, 12099.326, 160018.6, 0.000000014996283, 10.002102, 9.997889 
5.5013734e+1, 2.9490283e+2, 176266.77, -171267.95, 20395.14, -0.050956666, -0.11576617, 177459.56, 227392.56, 0.0000053587105, 10.0025425, 9.997928 
5.501536e+1, 3.0489904e+2, 185442.03, -282415.03, 7673.071, -0.056326002, -0.22558981, 185567.84, 185567.84, 0.000061679886, 10.002876, 9.996675 
5.5017054e+1, 3.1489563e+2, 399757.44, 126787.95, 22433.334, -0.039228626, -0.22978961, 401588.75, 401588.75, 0.00022953504, 10.00303, 9.999412 
6.4985025e+1, 1.2491251e+2, -1914288.6, -1657980.5, -11267.297, -0.03580695, -0.41249722, -1657486.1, 58336.742, 0.001052614, 9.997971, 10.001368 
6.4988047e+1, 1.3491386e+2, -1901819.4, -1744632.3, -8167.098, 0.0697565, -0.28291345, -1744209.1, -126397.49, 0.00060904585, 9.998005, 10.000083 
6.4989936e+1, 1.4491338e+2, -1723076.4, -1549311.3, -12268.529, 0.07552331, -0.36791444, -1548449.4, -28631.959, 0.000254567, 9.998305, 10.000601 
6.499099e+1, 1.549143e+2, -1543624.1, -1424845.8, -22092.242, 0.001899236, -0.33082128, -1420869.9, 938.43225, 0.00005931439, 9.9989195, 10.000485 
6.499261e+1, 1.6491479e+2, -1451897.9, -1413705.6, -22162.996, -0.012465231, -0.29357687, -1403546.6, -79742.09, 0.0000034805446, 9.999239, 9.999736 
6.499485e+1, 1.7491443e+2, -1354283.4, -1319289.3, -14085.52, 0.0314198, -0.30503562, -1314324.1, -88514.18, 0.00000000000024211628, 9.999251, 9.999705 
6.4996684e+1, 1.849142e+2, -1237657.9, -1230563.0, -13156.295, 0.03677983, -0.2901261, -1220484.3, -92670.3, 0.0, 9.999458, 9.999542 
6.499814e+1, 1.9491424e+2, -1082085.3, -1108879.1, -19084.719, 0.0052675856, -0.2435522, -1072164.8, -42349.62, 0.0, 9.999871, 9.999506 
6.4999944e+1, 2.0491363e+2, -983523.2, -1064539.6, -15118.476, -0.00047693108, -0.22798485, -980793.9, -48972.12, 0.0, 10.000107, 9.999024 
6.500209e+1, 2.149124e+2, -880331.94, -968286.44, -16345.105, 0.01880871, -0.257711, -877392.6, -43558.313, 0.0, 10.00016, 9.998985 
6.500381e+1, 2.2491124e+2, -769739.1, -905018.6, -23942.854, 0.009033655, -0.25283632, -765626.56, -29779.861, 0.0, 10.000422, 9.998622 
6.500513e+1, 2.3491022e+2, -606041.06, -779343.2, -19066.525, -0.029673893, -0.21955402, -603968.2, 33890.215, 0.0, 10.00089, 9.998586 
6.5006757e+1, 2.4490893e+2, -467933.63, -670553.94, -15066.839, -0.042002726, -0.20259038, -466819.38, 73052.32, 0.0, 10.001202, 9.998511 
6.5008754e+1, 2.5490737e+2, -350233.4, -566163.25, -23735.703, -0.026487464, -0.21342354, -347655.1, 94231.305, 0.0, 10.00135, 9.998483 
6.5010625e+1, 2.6490554e+2, -230114.5, -490642.53, -27211.217, -0.022916468, -0.22620854, -227302.72, 116601.4, 0.0, 10.001646, 9.998185 
6.501243e+1, 2.7490357e+2, -68591.2, -366949.22, -27213.355, -0.029298928, -0.24639373, -66129.375, 179795.06, 0.0, 10.002104, 9.998141 
6.5014285e+1, 2.8490204e+2, 53656.0, -286163.75, -21526.736, -0.039845087, -0.20039926, 55014.24, 202954.31, 0.000000013847158, 10.002396, 9.997882 
6.501614e+1, 2.9490092e+2, 168320.92, -174842.5, -25898.959, -0.062244862, -0.10526673, 170264.55, 220216.02, 0.0000047556837, 10.002487, 9.99793 
6.5018106e+1, 3.04897e+2, 149806.75, -301853.63, -39135.242, -0.05742132, -0.22788787, 153172.63, 153172.63, 0.000056396846, 10.002642, 9.996653 
6.502024e+1, 3.1489354e+2, 373227.13, 103496.65, -10063.314, -0.016220635, -0.23046911, 373602.06, 373602.06, 0.00021421611, 10.002893, 9.999316 
7.498395e+1, 1.249106e+2, -1896746.9, -1622840.3, -10216.146, 0.056797832, -0.36264068, -1622459.8, 93384.086, 0.0009783517, 9.997974, 10.001607 
7.4985695e+1, 1.3491184e+2, -1880695.3, -1703498.0, -6277.3584, 0.03312865, -0.27239957, -1703275.9, -85444.25, 0.00055803865, 9.998014, 10.0003605 
7.498754e+1, 1.4491114e+2, -1740110.6, -1585705.8, 10189.7295, 0.0040404014, -0.3803962, -1585036.1, -65197.184, 0.00022607559, 9.99831, 10.000349 
7.4989873e+1, 1.5491189e+2, -1562063.4, -1462513.0, 1309.9423, -0.0016128916, -0.3342595, -1462495.8, -40663.43, 0.000048170983, 9.998918, 10.000229 
7.499212e+1, 1.6491237e+2, -1437500.4, -1382535.9, -21456.582, 0.01294316, -0.29521376, -1375151.8, -51323.24, 0.0000019773436, 9.999233, 9.999952 
7.49943e+1, 1.749122e+2, -1338716.1, -1287711.9, -12998.262, 0.050235845, -0.31069076, -1284590.4, -58759.242, 0.0, 9.999255, 9.99992 
7.4996233e+1, 1.84912e+2, -1247716.6, -1251846.9, 2140.3647, 0.044780724, -0.2954928, -1246807.5, -118972.89, 0.0, 9.99946, 9.999395 
7.499792e+1, 1.9491193e+2, -1092974.4, -1130672.9, -3261.353, -0.004528551, -0.24493872, -1092694.4, -62856.727, 0.0, 9.999867, 9.999358 
7.499987e+1, 2.0491126e+2, -986064.5, -1068539.6, -13026.032, -0.018793274, -0.22968535, -984056.06, -52210.56, 0.0, 10.000102, 9.998999 
7.500209e+1, 2.1490994e+2, -882513.3, -972248.2, -13886.615, 0.0024621743, -0.2635963, -880413.44, -46554.715, 0.0, 10.000158, 9.998959 
7.500411e+1, 2.2490887e+2, -760018.6, -884420.3, -6610.2666, -0.004536202, -0.2543093, -759668.3, -23798.58, 0.0, 10.00042, 9.998764 
7.500591e+1, 2.3490813e+2, -596405.8, -758866.75, -1104.013, -0.03982596, -0.20880213, -596398.3, 41479.887, 0.0, 10.000888, 9.998728 
7.500789e+1, 2.4490683e+2, -484220.88, -703396.06, -9649.44, -0.048851613, -0.1886849, -483796.88, 56094.97, 0.0, 10.001198, 9.998287 
7.501005e+1, 2.54905e+2, -366374.34, -599338.25, -18124.297, -0.03208831, -0.20503609, -364972.75, 76937.86, 0.0, 10.0013485, 9.998256 
7.5012225e+1, 2.6490304e+2, -230088.06, -490146.8, -10554.244, -0.028877258, -0.2201779, -229660.44, 114269.42, 0.0, 10.001644, 9.998189 
7.501447e+1, 2.7490106e+2, -69649.76, -367565.53, -9189.066, -0.035223372, -0.24062747, -69366.59, 176582.6, 0.0, 10.002097, 9.998139 
7.50167e+1, 2.8489932e+2, 43467.195, -306345.06, -18194.809, -0.03792117, -0.20834294, 44411.02, 192377.66, 0.000000011324871, 10.002392, 9.9977455 
7.5018764e+1, 2.9489776e+2, 159067.72, -193882.33, -22431.574, -0.04877178, -0.14220229, 160487.64, 210470.3, 0.000004098041, 10.002486, 9.9978 
7.502082e+1, 3.048939e+2, 159273.48, -282121.2, -30322.334, -0.050410725, -0.2571069, 161346.8, 161346.8, 0.000050636394, 10.002642, 9.996788 
7.5022966e+1, 3.148917e+2, 375826.38, 110554.414, 4025.2134, -0.034128364, -0.15303342, 375887.44, 375887.44, 0.00019719645, 10.002887, 9.999367 
8.4982276e+1, 1.2490844e+2, -1925815.6, -1641864.6, -1136.4324, 0.101707146, -0.331693, -1641860.0, 74006.414, 0.00090933184, 9.997796, 10.001563 
8.4983736e+1, 1.3490954e+2, -1816300.6, -1672182.4, -20968.664, 0.013931433, -0.25531638, -1669193.5, -51338.445, 0.0005120121, 9.998456, 10.000362 
8.498576e+1, 1.4490865e+2, -1680195.4, -1563597.9, -9525.609, -0.02602528, -0.37955981, -1562824.9, -42960.78, 0.00020159004, 9.998751, 10.000288 
8.498882e+1, 1.549094e+2, -1598356.5, -1487006.0, -3860.622, 0.012524019, -0.32665154, -1486872.4, -65014.746, 0.000039447743, 9.9987, 10.000165 
8.4991395e+1, 1.6490991e+2, -1481613.1, -1396873.1, -25318.254, 0.033942156, -0.28548115, -1389884.9, -66031.48, 0.0000010481418, 9.998902, 10.000013 
8.499353e+1, 1.7490977e+2, -1317419.8, -1270320.3, -29635.479, 0.04201522, -0.3025297, -1256016.9, -30161.863, 0.0, 9.999371, 9.999984 
8.4995675e+1, 1.8490952e+2, -1220295.9, -1246298.4, -15636.592, 0.03236802, -0.2939031, -1212961.5, -85102.53, 0.0, 9.999681, 9.999328 
8.4997827e+1, 1.9490926e+2, -1102879.5, -1142859.1, -14957.372, 0.0015959103, -0.25466356, -1097903.0, -68039.14, 0.0, 9.999832, 9.999291 
8.5000044e+1, 2.0490858e+2, -982719.06, -1066235.6, -21305.49, -0.011772798, -0.23586191, -977598.0, -45726.15, 0.0, 10.000122, 9.999004 
8.500236e+1, 2.1490747e+2, -824971.25, -943971.8, -20444.248, -0.005993982, -0.25063917, -821556.9, 12326.236, 0.0, 10.00055, 9.998965 
8.500462e+1, 2.2490636e+2, -711942.0, -867995.4, -18794.926, -0.0127653815, -0.24347295, -709710.3, 26184.24, 0.0, 10.000779, 9.998704 
8.5006833e+1, 2.3490532e+2, -612821.9, -773242.06, -29465.115, -0.031875644, -0.2209172, -607581.1, 30324.518, 0.0, 10.000803, 9.99867 
8.500909e+1, 2.4490398e+2, -513194.9, -720861.94, -36646.195, -0.039030254, -0.20009431, -506917.84, 33001.93, 0.0, 10.001013, 9.998257 
8.501139e+1, 2.5490236e+2, -358814.2, -599408.2, -30664.518, -0.03593323, -0.1903452, -354967.4, 86969.45, 0.0, 10.001416, 9.998223 
8.5013795e+1, 2.6490045e+2, -225205.03, -491695.28, -16360.662, -0.03819776, -0.20081006, -224204.34, 119751.766, 0.0, 10.001695, 9.998155 
8.5016394e+1, 2.7489826e+2, -109757.54, -390091.75, -18769.729, -0.03946936, -0.23823585, -108506.4, 137470.73, 0.0, 10.001835, 9.998112 
8.501894e+1, 2.8489643e+2, -3073.3452, -327702.8, -24950.861, -0.036525115, -0.21276559, -1166.8312, 146828.31, 0.000000007967864, 10.002066, 9.997757 
8.502126e+1, 2.9489493e+2, 147877.06, -198033.4, -18902.434, -0.04341975, -0.14091249, 148906.94, 198917.38, 0.0000034232567, 10.002404, 9.997811 
8.502348e+1, 3.0489105e+2, 169387.08, -267033.66, -23686.262, -0.049159992, -0.26779822, 170668.86, 170668.86, 0.00004462947, 10.002666, 9.99688 
8.502576e+1, 3.148892e+2, 360506.63, 99367.62, 9092.016, -0.03883479, -0.13431388, 360822.8, 360822.8, 0.00017905688, 10.002797, 9.999334 
9.4979966e+1, 1.2490602e+2, -1949386.5, -1690950.4, 24008.008, 0.08904847, -0.31931376, -1688739.1, 27151.68, 0.0008487081, 9.997797, 10.001225 
9.49822e+1, 1.3490693e+2, -1836071.5, -1714613.8, 3940.5142, 0.013910216, -0.23241544, -1714486.0, -96603.9, 0.00047347447, 9.998462, 10.00007 
9.4984645e+1, 1.4490588e+2, -1669421.5, -1541664.1, -11768.801, -0.014376778, -0.3653817, -1540589.0, -20696.102, 0.00018256163, 9.998753, 10.000438 
9.498778e+1, 1.5490682e+2, -1587643.8, -1466012.9, -5045.4155, 0.036640607, -0.3087947, -1465804.0, -43919.832, 0.00003354367, 9.998705, 10.000307 
9.4990396e+1, 1.6490737e+2, -1488933.3, -1412169.5, -7711.7314, 0.04298518, -0.26524186, -1411402.4, -87523.1, 0.00000057940093, 9.998903, 9.9999075 
9.4992554e+1, 1.7490715e+2, -1324759.3, -1285143.9, -11604.922, 0.0067199715, -0.28077745, -1281994.6, -56112.86, 0.0, 9.999369, 9.999883 
9.4995034e+1, 1.8490672e+2, -1219164.1, -1243658.8, -10141.9, -0.00079763716, -0.2847016, -1215510.1, -87622.99, 0.0, 9.99968, 9.999346 
9.499785e+1, 1.949062e+2, -1101552.9, -1140275.6, -8884.385, 0.020480929, -0.27273142, -1099611.8, -69717.82, 0.0, 9.999833, 9.999309 
9.5000476e+1, 2.0490564e+2, -980589.75, -1061445.6, -5391.347, 0.01797479, -0.24636824, -980231.9, -48331.203, 0.0, 10.00012, 9.999039 
9.500289e+1, 2.1490496e+2, -822553.2, -938499.9, -3914.5234, -0.00860667, -0.2190989, -822421.1, 11486.427, 0.0, 10.000548, 9.999003 
9.500536e+1, 2.2490367e+2, -731115.4, -907064.0, -18034.19, -0.01756356, -0.22040918, -729286.0, 6635.093, 0.0, 10.000775, 9.998437 
9.500789e+1, 2.3490179e+2, -631836.56, -812153.4, -28375.715, -0.007633365, -0.2561868, -627476.6, 10464.128, 0.0, 10.000801, 9.998404 
9.501036e+1, 2.4490039e+2, -502126.66, -697399.06, -22014.963, -0.014252384, -0.2357905, -499675.44, 40280.02, 0.0, 10.001011, 9.998418 
9.501277e+1, 2.548995e+2, -348223.8, -576485.0, -15030.924, -0.039849274, -0.17059842, -347238.28, 94726.95, 0.0, 10.001412, 9.998382 
9.501535e+1, 2.6489773e+2, -231401.44, -503630.28, -11306.86, -0.051900182, -0.16903771, -230932.63, 113050.414, 0.0, 10.001691, 9.9980755 
9.501818e+1, 2.7489513e+2, -114523.3, -400016.84, -13490.025, -0.045411803, -0.23895925, -113887.29, 132121.02, 0.0, 10.001835, 9.998044 
9.5020974e+1, 2.8489336e+2, 8588.245, -303429.5, -13212.925, -0.039462224, -0.21224473, 9146.77, 157172.27, 0.0000000042394483, 10.002066, 9.997923 
9.502362e+1, 2.9489243e+2, 157441.84, -176493.4, -5438.8115, -0.048037402, -0.10274537, 157530.39, 207565.28, 0.000002739973, 10.002397, 9.997962 
9.5026094e+1, 3.048883e+2, 171319.38, -261022.08, -18561.133, -0.05530462, -0.26097965, 172114.78, 172114.78, 0.000038513957, 10.002659, 9.996924 
9.50286e+1, 3.14886e+2, 351654.3, 81475.53, 18320.752, -0.03606652, -0.17672923, 352891.0, 352891.0, 0.00016021931, 10.002794, 9.999212 
1.0497777e+2, 1.2490306e+2, -1874433.3, -1662397.1, 6202.623, 0.06262538, -0.32069445, -1662215.8, 53704.56, 0.00079770345, 9.998345, 10.001156 
1.0498081e+2, 1.3490406e+2, -1859312.4, -1725444.1, 5756.3315, 0.037173554, -0.22549336, -1725197.0, -107286.14, 0.0004431459, 9.998302, 10.000071 
1.0498358e+2, 1.4490299e+2, -1707918.9, -1564528.4, -8438.612, 0.016687257, -0.357988, -1564033.5, -44111.53, 0.00016917764, 9.998507, 10.0004 
1.049866e+2, 1.5490401e+2, -1550210.8, -1452962.0, -17475.28, 0.035687964, -0.29078662, -1449917.1, -28004.275, 0.000030278157, 9.998982, 10.000263 
1.0498939e+2, 1.6490448e+2, -1435878.1, -1395086.5, -21148.668, 0.032469943, -0.24686328, -1386101.1, -62192.38, 0.0000004316036, 9.999302, 9.999834 
1.04991965e+2, 1.7490411e+2, -1315970.8, -1288948.6, -22724.137, 0.0070595685, -0.27030537, -1276022.4, -50109.887, 0.0, 9.999464, 9.999811 
1.0499476e+2, 1.8490358e+2, -1215409.9, -1242153.3, -22986.686, 0.0028202152, -0.28100112, -1202188.5, -74269.95, 0.0, 9.999707, 9.999343 
1.049978e+2, 1.94903e+2, -1071998.4, -1126779.4, -24456.96, 0.021283185, -0.2756096, -1062668.5, -32742.81, 0.0, 10.000038, 9.999303 
1.0500067e+2, 2.0490246e+2, -962700.56, -1053575.5, -22291.068, 0.018629678, -0.24543062, -957527.2, -25595.002, 0.0, 10.000245, 9.999033 
1.0500334e+2, 2.1490194e+2, -856331.44, -954892.9, -24322.63, -0.006864952, -0.20352341, -850656.0, -16718.021, 0.0, 10.000319, 9.9990015 
1.0500607e+2, 2.249006e+2, -770142.9, -930515.94, -33483.832, -0.012147289, -0.20613365, -763432.6, -27480.793, 0.0, 10.000528, 9.998395 
1.0500884e+2, 2.348985e+2, -623768.44, -813640.25, -27371.992, 0.0040357304, -0.2591381, -619901.25, 18072.125, 0.0, 10.000878, 9.998356 
1.05011545e+2, 2.4489702e+2, -481331.6, -687107.75, -14147.272, -0.004115751, -0.2448111, -480363.5, 59625.273, 0.0, 10.001153, 9.998421 
1.0501416e+2, 2.5489616e+2, -357574.78, -580353.0, -20517.723, -0.03894494, -0.17517798, -355700.9, 86297.12, 0.0, 10.001346, 9.998388 
1.05016954e+2, 2.6489443e+2, -244129.31, -504435.88, -19989.86, -0.0548085, -0.17084362, -242603.17, 101411.984, 0.0, 10.001578, 9.998125 
1.0502e+2, 2.7489194e+2, -110072.77, -392708.47, -13125.493, -0.046510946, -0.2391265, -109464.54, 136575.19, 0.0, 10.0018425, 9.998092 
1.0502305e+2, 2.8489023e+2, 12427.607, -300993.1, -11709.215, -0.039639447, -0.2086717, 12864.447, 160920.6, 0.0000000012344323, 10.002089, 9.99793 
1.0502598e+2, 2.9488936e+2, 145285.89, -181846.89, -16374.508, -0.04740361, -0.09143688, 146103.47, 196167.98, 0.0000020653147, 10.002308, 9.997971 
1.0502864e+2, 3.0488506e+2, 158809.2, -248952.13, -33857.992, -0.057998486, -0.27558815, 161601.44, 161601.44, 0.00003243676, 10.002491, 9.99709 
1.0503134e+2, 3.1488284e+2, 323632.13, 64217.92, 13103.102, -0.031581145, -0.20065852, 324292.3, 324292.3, 0.00014106146, 10.002618, 9.99918 
1.14975706e+2, 1.24899514e+2, -1858930.1, -1632188.6, 4817.2695, 0.019446727, -0.33907548, -1632086.3, 83869.3, 0.0007564602, 9.998354, 10.00136 
1.14979506e+2, 1.349009e+2, -1838212.4, -1681467.5, 4245.723, 0.07561287, -0.23496088, -1681352.6, -63411.145, 0.00042056636, 9.998301, 10.000374 
1.14982516e+2, 1.4489996e+2, -1725763.5, -1600346.6, 9579.133, 0.058647085, -0.35795233, -1599619.3, -79667.914, 0.00016082273, 9.998502, 10.000156 
1.1498533e+2, 1.549009e+2, -1566833.1, -1488737.3, 1295.7168, 0.009307225, -0.27370262, -1488715.8, -66771.586, 0.000029173776, 9.998987, 10.000015 
1.14988394e+2, 1.6490123e+2, -1436968.1, -1398582.0, -15665.581, 0.0023592988, -0.2302739, -1393000.4, -69058.63, 0.0000005105562, 9.999308, 9.999807 
1.14991754e+2, 1.7490067e+2, -1317825.3, -1293255.1, -16298.172, 0.03889222, -0.27054065, -1285130.6, -59183.574, 0.0, 9.999466, 9.999781 
1.1499483e+2, 1.8490009e+2, -1218149.5, -1247397.9, -10630.434, 0.038857926, -0.2829226, -1214694.0, -86740.65, 0.0, 9.999705, 9.999309 
1.1499765e+2, 1.9489962e+2, -1073999.5, -1130971.1, -11533.015, 0.0027112737, -0.26386842, -1071753.4, -41793.926, 0.0, 10.000038, 9.999274 
1.1500061e+2, 2.0489903e+2, -966356.0, -1060488.1, -19711.23, -0.011215848, -0.23291387, -962395.1, -30428.693, 0.0, 10.000242, 9.998987 
1.15003705e+2, 2.1489835e+2, -859530.5, -961116.8, -21255.115, -0.0023714425, -0.20419456, -855262.56, -21288.13, 0.0, 10.000316, 9.99896 
1.1500674e+2, 2.2489715e+2, -758137.0, -904755.9, -20591.695, 0.0019279452, -0.20092903, -755299.9, -19312.967, 0.0, 10.0005245, 9.998574 
1.150097e+2, 2.3489545e+2, -611631.44, -787961.2, -13699.084, 0.00183338, -0.2298972, -610573.5, 27430.098, 0.0, 10.000876, 9.998533 
1.1501263e+2, 2.4489386e+2, -493610.22, -711738.8, -7168.1465, -0.010142681, -0.22706681, -493374.9, 46644.797, 0.0, 10.001149, 9.998254 
1.15015544e+2, 2.5489238e+2, -368704.72, -603018.0, -13035.452, -0.0359766, -0.20369412, -367981.75, 74053.38, 0.0, 10.001344, 9.998234 
1.1501859e+2, 2.648906e+2, -231590.97, -477947.13, -10696.124, -0.048987426, -0.20563895, -231127.45, 112925.08, 0.0, 10.001576, 9.998308 
1.1502188e+2, 2.748886e+2, -98943.32, -368408.2, -2908.255, -0.04416236, -0.2402681, -98911.94, 147159.58, 0.0, 10.001838, 9.998261 
1.1502516e+2, 2.84887e+2, 278.28207, -324225.5, -3864.9277, -0.03749359, -0.2035533, 324.3079, 148411.5, 0.00000000006210851, 10.002081, 9.997774 
1.1502831e+2, 2.9488578e+2, 135274.66, -202156.3, -7319.4175, -0.045563024, -0.106018335, 135433.34, 185532.52, 0.0000014487281, 10.002307, 9.997831 
1.1503111e+2, 3.0488136e+2, 178903.52, -206370.72, -29650.547, -0.060218442, -0.30996314, 181172.05, 181172.05, 0.000026628812, 10.002488, 9.997384 
1.1503399e+2, 3.148797e+2, 325509.1, 70695.57, 21049.736, -0.029894153, -0.20878081, 327236.28, 327236.28, 0.00012208533, 10.002607, 9.999229 
1.2497386e+2, 1.2489588e+2, -1915853.8, -1663990.4, 502.2219, 0.01823391, -0.34355456, -1663989.4, 52002.08, 0.0007247361, 9.997983, 10.001321 
1.24977894e+2, 1.3489747e+2, -1782821.1, -1649694.3, -23108.174, 0.0679305, -0.22174479, -1645797.3, -27821.805, 0.00040489552, 9.99866, 10.000419 
1.2498123e+2, 1.4489648e+2, -1655047.5, -1576472.0, -21537.771, 0.054578386, -0.34879628, -1570955.6, -50969.68, 0.00015657058, 9.99903, 10.000067 
1.2498448e+2, 1.5489723e+2, -1556458.0, -1494044.5, -18405.56, 0.020212203, -0.2739222, -1489021.1, -67040.484, 0.000029665785, 9.999103, 9.999924 
1.2498781e+2, 1.648975e+2, -1437036.4, -1399378.5, -29111.014, 0.013004348, -0.23094505, -1383537.9, -59559.05, 0.0000007617598, 9.999309, 9.999802 
1.2499125e+2, 1.7489703e+2, -1291662.0, -1281686.9, -29645.422, 0.033601608, -0.2614004, -1256612.4, -30628.834, 0.0, 9.999648, 9.999773 
1.2499451e+2, 1.848965e+2, -1198576.0, -1238670.6, -23271.72, 0.029027686, -0.2685017, -1187907.4, -59917.88, 0.0, 9.999841, 9.999304 
1.2499756e+2, 1.9489603e+2, -1097197.1, -1142395.5, -22334.334, -0.0014451228, -0.24797733, -1088022.9, -58027.7, 0.0, 9.99988, 9.999272 
1.2500077e+2, 2.0489539e+2, -998054.06, -1079965.6, -28657.225, -0.008585606, -0.2231017, -989023.75, -57020.86, 0.0, 10.000043, 9.99895 
1.2500414e+2, 2.1489452e+2, -859580.25, -965757.94, -30762.4, 0.008094583, -0.20815858, -851311.56, -17298.719, 0.0, 10.000335, 9.9989195 
1.2500739e+2, 2.2489338e+2, -741472.4, -887703.0, -28912.879, 0.010474034, -0.19962075, -735963.25, 61.407707, 0.0, 10.000599, 9.998656 
1.2501052e+2, 2.3489201e+2, -612093.5, -778664.94, -30001.209, -0.002140792, -0.20355506, -606854.75, 31183.207, 0.0, 10.000833, 9.998618 
1.2501372e+2, 2.4489045e+2, -504526.47, -720919.8, -23149.557, -0.013648242, -0.20109296, -502077.7, 37976.023, 0.0, 10.001091, 9.9982195 
1.2501699e+2, 2.5488868e+2, -368462.25, -607361.6, -19555.037, -0.02614502, -0.20297867, -366872.16, 75199.59, 0.0, 10.001364, 9.998195 
1.2502027e+2, 2.6488683e+2, -231127.86, -481434.53, -20754.795, -0.039747834, -0.20910555, -229418.6, 114671.35, 0.0, 10.001596, 9.998275 
1.2502363e+2, 2.7488494e+2, -108977.95, -377660.3, -30578.111, -0.048501913, -0.22778048, -105541.87, 140566.27, 0.0, 10.001785, 9.998223 
1.2502716e+2, 2.848833e+2, -10229.247, -326737.53, -31276.035, -0.040564854, -0.19433655, -7168.2817, 140955.73, 0.0, 10.001996, 9.997799 
1.2503068e+2, 2.948819e+2, 120873.09, -206138.63, -22581.242, -0.032657873, -0.117573686, 122425.04, 172561.95, 0.00000094519226, 10.002195, 9.997857 
1.2503363e+2, 3.0487746e+2, 176181.44, -195147.48, -46271.563, -0.051202025, -0.32922313, 181860.52, 181860.52, 0.000021325412, 10.002418, 9.997496 
1.2503663e+2, 3.1487626e+2, 320000.63, 48774.195, -7994.4604, -0.028217625, -0.19601929, 320236.06, 320236.06, 0.000103857135, 10.002651, 9.99906 
1.3497218e+2, 1.248922e+2, -1939016.6, -1709473.6, 26551.158, 0.052001104, -0.32938984, -1706442.5, 9585.203, 0.0007016644, 9.9979725, 10.001014 
1.3497603e+2, 1.3489377e+2, -1797660.4, -1683416.1, 3144.8052, 0.012373112, -0.18663165, -1683329.6, -65316.293, 0.00039489288, 9.9986725, 10.000182 
1.3497975e+2, 1.448925e+2, -1647928.6, -1564105.4, -20107.771, 0.0022654994, -0.33173943, -1559531.5, -39504.996, 0.00015526546, 9.999041, 10.000146 
1.3498403e+2, 1.54893e+2, -1551510.4, -1482944.1, -15456.636, 0.06287488, -0.29039484, -1479620.9, -57598.598, 0.000031126172, 9.9991, 10.000001 
1.3498758e+2, 1.6489331e+2, -1437376.3, -1399130.3, -16560.451, 0.05875507, -0.24832219, -1392956.4, -68936.336, 0.0000011270397, 9.999305, 9.999805 
1.3499048e+2, 1.7489319e+2, -1290599.5, -1280206.3, -16328.398, -0.010331001, -0.24416853, -1268267.5, -42245.285, 0.0, 9.999651, 9.999782 
1.3499378e+2, 1.848928e+2, -1195849.8, -1233473.8, -22173.59, -0.02807044, -0.23811613, -1185583.3, -57556.26, 0.0, 9.999843, 9.999339 
1.3499753e+2, 1.9489226e+2, -1095150.8, -1138121.1, -20586.076, 0.0068872557, -0.22810122, -1086880.3, -56847.316, 0.0, 9.99988, 9.999302 
1.3500114e+2, 2.0489147e+2, -1000892.06, -1085170.0, -18004.0, 0.024213193, -0.21616825, -997207.06, -65165.406, 0.0, 10.000039, 9.998916 
1.3500462e+2, 2.1489042e+2, -862458.4, -971096.3, -19177.828, 0.023042025, -0.21564217, -859172.3, -25119.133, 0.0, 10.000331, 9.998885 
1.3500799e+2, 2.2488932e+2, -743735.7, -891181.2, -20307.334, 0.011202383, -0.20138225, -740989.94, -4924.977, 0.0, 10.000594, 9.998634 
1.3501127e+2, 2.348882e+2, -612907.5, -780199.6, -20773.05, -0.0102725355, -0.18095867, -610366.6, 27710.031, 0.0, 10.000832, 9.998609 
1.3501479e+2, 2.4488679e+2, -497738.03, -706239.94, -13188.741, -0.016970603, -0.16846196, -496907.1, 43183.875, 0.0, 10.001088, 9.998322 
1.3501851e+2, 2.5488508e+2, -362402.47, -594081.2, -8936.186, -0.010824335, -0.17376465, -362058.28, 80049.54, 0.0, 10.001361, 9.998288 
1.3502198e+2, 2.6488313e+2, -250139.44, -519590.38, -13829.53, -0.027948214, -0.18166769, -249431.5, 94695.89, 0.0, 10.001591, 9.998015 
1.3502528e+2, 2.7488098e+2, -126006.46, -412766.22, -22533.377, -0.063456364, -0.20072992, -124246.6, 121902.85, 0.0, 10.001785, 9.997982 
1.3502903e+2, 2.8487915e+2, 3601.556, -297496.78, -24144.598, -0.052476276, -0.18063302, 5525.381, 153691.9, 0.0, 10.001993, 9.998001 
1.350331e+2, 2.9487774e+2, 133633.23, -178205.47, -14447.262, -0.01189532, -0.12798633, 134301.14, 184479.08, 0.0000005800232, 10.00219, 9.998053 
1.3503624e+2, 3.048734e+2, 170042.47, -205182.4, -38009.867, -0.032495614, -0.3363808, 173854.11, 173854.11, 0.000016654767, 10.002407, 9.997432 
1.3503924e+2, 3.148725e+2, 293525.94, -4291.4346, 3765.7703, -0.032166786, -0.16344638, 293573.56, 293573.56, 0.000086807726, 10.002645, 9.998697 
1.4497054e+2, 1.2488796e+2, -1854099.8, -1690891.6, 5629.517, 0.0566972, -0.32305554, -1690697.8, 25371.578, 0.0006852014, 9.998651, 10.000814 
1.4497463e+2, 1.3488947e+2, -1810543.6, -1701836.9, -11134.938, 0.009021692, -0.174997, -1700708.0, -82651.83, 0.00038852147, 9.998636, 10.0000725 
1.4497857e+2, 1.4488815e+2, -1677426.0, -1564964.9, -33290.434, -0.008231065, -0.32622337, -1555849.1, -35779.31, 0.00015533686, 9.998779, 10.000266 
1.4498293e+2, 1.5488864e+2, -1546728.8, -1467526.4, -27117.148, 0.046406623, -0.29589486, -1459131.8, -37066.92, 0.00003278088, 9.999075, 10.000119 
1.4498676e+2, 1.6488902e+2, -1441055.3, -1404338.3, -23887.76, 0.048099115, -0.25218353, -1392569.4, -68507.41, 0.0000015078091, 9.999293, 9.999775 
1.4499009e+2, 1.7488906e+2, -1322831.1, -1299345.8, -27184.719, -0.0042923666, -0.2302873, -1281476.0, -55412.57, 0.0, 9.999445, 9.99975 
1.4499365e+2, 1.8488869e+2, -1218873.8, -1245039.4, -37553.586, -0.016584747, -0.21951835, -1192189.4, -64121.28, 0.0, 9.999686, 9.999335 
1.4499752e+2, 1.9488803e+2, -1074740.0, -1129128.9, -39757.96, 0.011808338, -0.22056082, -1053765.6, -23690.63, 0.0, 10.000022, 9.999296 
1.450013e+2, 2.0488718e+2, -968232.0, -1071394.6, -35580.46, 0.024612786, -0.21449208, -957150.75, -25066.47, 0.0, 10.000272, 9.9988985 
1.4500497e+2, 2.1488614e+2, -848730.94, -966204.25, -36197.453, 0.02058833, -0.21177272, -838473.06, -4377.37, 0.0, 10.000434, 9.998869 
1.4500858e+2, 2.2488503e+2, -742106.4, -893178.75, -36170.14, 0.009855608, -0.19585204, -733892.94, 2214.6802, 0.0, 10.000617, 9.99861 
1.4501213e+2, 2.3488386e+2, -616586.25, -784697.44, -37535.55, -0.0067983125, -0.17550328, -608586.06, 29533.824, 0.0, 10.000818, 9.998585 
1.4501585e+2, 2.448825e+2, -501771.78, -696975.2, -29479.71, -0.014922908, -0.16255528, -497416.88, 42716.934, 0.0, 10.001012, 9.998422 
1.4501972e+2, 2.548809e+2, -378976.28, -591220.25, -26108.006, -0.017027708, -0.16564085, -375811.94, 66337.29, 0.0, 10.001201, 9.998384 
1.4502348e+2, 2.6487905e+2, -274150.75, -533320.94, -20967.162, -0.029386519, -0.16801254, -272465.44, 71702.484, 0.0, 10.001434, 9.997996 
1.4502719e+2, 2.7487698e+2, -141540.69, -422053.7, -12213.593, -0.045919605, -0.17969432, -141009.92, 105179.875, 0.0, 10.001687, 9.997965 
1.4503117e+2, 2.8487512e+2, 826.61536, -295323.13, -9885.88, -0.035965875, -0.163448, 1156.2526, 149363.44, 0.0, 10.001961, 9.998032 
1.4503527e+2, 2.948736e+2, 147149.58, -169768.45, -14047.691, -0.017688757, -0.1250307, 147771.05, 197990.44, 0.00000034163278, 10.002273, 9.998072 
1.4503855e+2, 3.0486938e+2, 192086.98, -176986.36, -38952.066, -0.045482304, -0.32850394, 196153.19, 196153.19, 0.000012640429, 10.0024805, 9.99759 
1.4504197e+2, 3.1486872e+2, 260568.63, -37502.836, 17975.54, -0.015477242, -0.14846699, 261648.75, 261648.75, 0.00007115946, 10.002492, 9.998542 
1.549689e+2, 1.2488308e+2, -1857570.3, -1701290.9, 5609.2476, 0.024931608, -0.32920435, -1701089.8, 15027.194, 0.0006719969, 9.998664, 10.000736 
1.5497372e+2, 1.3488457e+2, -1808958.3, -1697986.1, -11796.604, 0.051876057, -0.18581814, -1696746.0, -78641.875, 0.00038301162, 9.998632, 10.000101 
1.549776e+2, 1.4488341e+2, -1667286.0, -1542466.1, -22668.87, 0.017481538, -0.33082205, -1538476.6, -18360.45, 0.00015494693, 9.998774, 10.000423 
1.5498124e+2, 1.5488416e+2, -1535070.0, -1444403.5, -15506.959, -0.031574465, -0.2910531, -1441824.6, -19716.045, 0.000033834087, 9.99908, 10.000276 
1.5498538e+2, 1.6488461e+2, -1444380.9, -1412778.8, -18938.49, -0.021738753, -0.24349049, -1403915.3, -79810.33, 0.0000017896223, 9.9993, 9.999714 
1.5499005e+2, 1.7488462e+2, -1327565.8, -1308846.0, -21244.11, 0.048438814, -0.21877131, -1294991.3, -68884.21, 0.0, 9.999444, 9.999685 
1.5499412e+2, 1.8488416e+2, -1222128.0, -1251543.1, -25259.941, 0.059851807, -0.21193855, -1207605.9, -79493.01, 0.0, 9.999684, 9.999291 
1.5499756e+2, 1.9488333e+2, -1077621.4, -1135069.5, -26751.014, 0.0112926, -0.22591707, -1067093.8, -36972.254, 0.0, 10.000022, 9.999255 
1.5500124e+2, 2.0488247e+2, -968792.25, -1072094.6, -29738.246, -0.009428858, -0.21791396, -960843.06, -28712.24, 0.0, 10.000269, 9.998895 
1.5500519e+2, 2.1488161e+2, -848968.3, -966644.1, -29585.68, -0.0014798889, -0.19775799, -841948.75, -7808.1646, 0.0, 10.000433, 9.998867 
1.5500914e+2, 2.2488046e+2, -743995.7, -896565.94, -28863.709, 0.003926406, -0.18434353, -738717.75, -2564.8384, 0.0, 10.000615, 9.998588 
1.550131e+2, 2.3487905e+2, -618906.3, -788961.25, -29584.912, 0.007268532, -0.187046, -613906.3, 24261.355, 0.0, 10.000815, 9.998557 
1.5501693e+2, 2.4487762e+2, -495972.66, -683946.94, -22570.838, -0.009179734, -0.1823571, -493300.47, 46881.68, 0.0, 10.001008, 9.998513 
1.5502061e+2, 2.548762e+2, -371907.53, -576450.5, -18349.406, -0.048406478, -0.17842771, -370274.47, 71921.54, 0.0, 10.0012, 9.9984865 
1.5502474e+2, 2.6487464e+2, -258774.89, -501025.7, -11584.139, -0.047547743, -0.16936989, -258222.22, 85989.52, 0.0, 10.001432, 9.998219 
1.5502936e+2, 2.7487293e+2, -126660.86, -390243.2, -2572.6475, 0.0015003252, -0.16566245, -126635.75, 119593.59, 0.0, 10.001683, 9.998185 
1.5503357e+2, 2.8487116e+2, -9794.331, -316642.63, 1367.4656, 0.007431098, -0.14419693, -9788.237, 138457.94, 0.0, 10.001957, 9.997888 
1.5503718e+2, 2.9486945e+2, 137598.11, -190168.94, -548.77783, -0.053107634, -0.10787934, 137599.03, 187860.23, 0.00000019535571, 10.0022745, 9.997931 
1.5504055e+2, 3.0486545e+2, 217398.0, -123768.64, -38032.246, -0.094826, -0.30467516, 221586.3, 221586.3, 0.000009261703, 10.002478, 9.997956 
1.5504475e+2, 3.1486487e+2, 262975.63, -30821.582, 20789.871, 0.011265101, -0.15146312, 264439.5, 264439.5, 0.00005700469, 10.002485, 9.99859 
1.6496727e+2, 1.2487803e+2, -1867953.6, -1699463.5, -6758.1494, 0.0012813391, -0.32969153, -1699192.9, 16973.791, 0.00065754744, 9.99856, 10.000799 
1.6497242e+2, 1.3487953e+2, -1787429.5, -1668986.1, -17942.365, 0.057457604, -0.2014468, -1666327.8, -48175.023, 0.00037533476, 9.998699, 10.000267 
1.6497657e+2, 1.4487848e+2, -1657185.1, -1543076.1, -22607.875, 0.032211345, -0.34182122, -1538760.1, -18596.406, 0.00015252095, 9.998866, 10.000374 
1.6498035e+2, 1.5487939e+2, -1540635.6, -1452817.6, -32279.86, -0.027978018, -0.27996737, -1442229.0, -20073.707, 0.000033788867, 9.999065, 10.000224 
1.6498466e+2, 1.6487987e+2, -1439338.4, -1404150.4, -39939.28, -0.02337237, -0.23220786, -1378101.6, -53949.723, 0.0000018950186, 9.999309, 9.999769 
1.6498955e+2, 1.748797e+2, -1302157.0, -1290727.8, -34403.59, 0.04587013, -0.22879179, -1261567.4, -35412.39, 0.0, 9.999593, 9.999738 
1.6499381e+2, 1.8487923e+2, -1202061.4, -1238292.3, -29340.82, 0.05477932, -0.22837265, -1185694.3, -57533.227, 0.0, 9.999807, 9.999323 
1.6499744e+2, 1.9487852e+2, -1084274.6, -1134743.8, -26090.605, 0.0012055044, -0.23215696, -1073211.8, -43043.184, 0.0, 9.999961, 9.999287 
1.6500136e+2, 2.0487776e+2, -987110.5, -1079871.5, -27343.877, -0.017656557, -0.21642587, -979650.1, -47472.992, 0.0, 10.000139, 9.998904 
1.6500558e+2, 2.1487695e+2, -861225.4, -971406.0, -26840.4, -0.0010344542, -0.19157578, -855034.75, -20848.287, 0.0, 10.000343, 9.998878 
1.6500974e+2, 2.248758e+2, -756692.25, -901493.4, -23832.104, 0.006225804, -0.18015677, -752870.7, -16671.816, 0.0, 10.000523, 9.998598 
1.650138e+2, 2.3487432e+2, -638047.44, -797044.1, -22775.008, 0.004067508, -0.1899574, -634849.4, 3364.6787, 0.0, 10.00068, 9.998567 
1.6501789e+2, 2.448729e+2, -512463.63, -689744.06, -14734.891, -0.008244829, -0.18684277, -511247.25, 28981.313, 0.0, 10.000885, 9.998533 
1.6502193e+2, 2.5487155e+2, -380359.0, -577732.4, -16177.87, -0.03359808, -0.17872982, -379041.75, 63200.273, 0.0, 10.00113, 9.99851 
1.6502623e+2, 2.6487002e+2, -256401.97, -483249.38, -13312.296, -0.039312765, -0.17140386, -255623.42, 88633.375, 0.0, 10.001378, 9.998366 
1.6503082e+2, 2.7486837e+2, -123759.88, -372656.44, -11002.8955, -0.017573388, -0.1768894, -123274.43, 122998.66, 0.0, 10.001634, 9.99833 
1.6503532e+2, 2.8486666e+2, -21035.145, -324886.75, -3751.8445, -0.008874733, -0.1563972, -20988.824, 127300.75, 0.0, 10.001891, 9.997861 
1.6503957e+2, 2.9486504e+2, 113537.11, -205050.17, 2354.2375, -0.03523565, -0.10860512, 113554.51, 163859.39, 0.00000010392393, 10.002125, 9.997899 
1.6504307e+2, 3.0486143e+2, 211252.33, -104444.516, -43000.348, -0.0810706, -0.27425703, 217004.5, 217004.5, 0.0000064948904, 10.00234, 9.998154 
1.6504718e+2, 3.1486085e+2, 262281.6, -41160.426, 1147.7546, 0.0041796933, -0.14347471, 262285.94, 262285.94, 0.000044405664, 10.002522, 9.998501 
1.7496562e+2, 1.2487282e+2, -1853709.5, -1669651.1, 352.74402, -0.021114293, -0.3220655, -1669650.5, 46567.594, 0.0006370072, 9.998559, 10.001004 
1.7497079e+2, 1.3487433e+2, -1765222.5, -1624577.6, -12039.475, 0.02312145, -0.2231296, -1623554.4, -5352.1978, 0.00036284848, 9.998706, 10.000568 
1.7497547e+2, 1.4487332e+2, -1674250.1, -1579936.4, -16086.4375, 0.032984108, -0.3610753, -1577268.1, -57055.348, 0.00014707113, 9.998872, 10.000118 
1.7498024e+2, 1.5487435e+2, -1559009.3, -1490951.8, -24515.611, 0.05346305, -0.26119027, -1483040.4, -60835.33, 0.00003249045, 9.999065, 9.999963 
1.7498462e+2, 1.6487475e+2, -1427328.9, -1379283.8, -29735.783, 0.039504908, -0.21679856, -1365079.4, -40876.598, 0.0000018022155, 9.999308, 9.999941 
1.7498854e+2, 1.7487428e+2, -1289970.1, -1265405.4, -23354.318, -0.013864577, -0.2607728, -1251300.6, -25093.047, 0.0, 9.999592, 9.999912 
1.7499273e+2, 1.8487385e+2, -1194744.9, -1223497.3, -23825.87, -0.03489536, -0.26896697, -1181293.9, -53081.473, 0.0, 9.999808, 9.999424 
1.749972e+2, 1.948736e+2, -1077189.1, -1119886.8, -19957.906, -0.020051522, -0.23951331, -1069313.1, -39096.832, 0.0, 9.99996, 9.99939 
1.7500167e+2, 2.0487304e+2, -985568.6, -1076289.3, -19910.898, -0.0018978668, -0.20989247, -981391.06, -49167.805, 0.0, 10.000137, 9.99893 
1.7500614e+2, 2.1487217e+2, -860139.1, -968394.0, -18723.438, 0.01972833, -0.19327016, -856992.25, -22758.844, 0.0, 10.0003395, 9.998899 
1.7501034e+2, 2.2487104e+2, -754234.75, -895557.75, -18282.838, 0.014406402, -0.18258128, -751907.8, -15662.314, 0.0, 10.000519, 9.998641 
1.7501427e+2, 2.3486967e+2, -634856.9, -790645.5, -16383.016, -0.018513024, -0.1855816, -633152.6, 5106.6836, 0.0, 10.00068, 9.9986105 
1.7501871e+2, 2.448683e+2, -516083.88, -697078.06, -5852.3105, -0.014538058, -0.17758076, -515894.84, 24378.53, 0.0, 10.000884, 9.998483 
1.7502365e+2, 2.548669e+2, -384166.66, -585002.25, -6822.0405, 0.025405845, -0.1667288, -383935.2, 58352.19, 0.0, 10.001127, 9.998462 
1.7502794e+2, 2.648653e+2, -251629.97, -473174.4, -4034.607, -0.005526112, -0.17398916, -251556.52, 92746.66, 0.0, 10.001377, 9.998436 
1.7503159e+2, 2.7486333e+2, -118327.35, -361658.28, -645.83325, -0.10494867, -0.21309064, -118325.64, 127995.4, 0.0, 10.001634, 9.998405 
1.7503645e+2, 2.8486165e+2, -15670.361, -313373.13, 4668.769, -0.088370994, -0.19943286, -15597.161, 132740.27, 0.0, 10.00189, 9.997941 
1.7504236e+2, 2.9486036e+2, 117564.13, -195162.83, 11670.35, 0.03114657, -0.12762423, 117999.05, 168349.75, 0.00000004563321, 10.002118, 9.99797 
1.7504616e+2, 3.0485734e+2, 213938.08, -98576.555, -36298.56, -0.008509897, -0.23799953, 218098.77, 218098.77, 0.000004309572, 10.002338, 9.998195 
1.7504928e+2, 3.1485668e+2, 248643.9, -70957.1, 8447.141, -0.040348247, -0.11899391, 248867.0, 248867.0, 0.000033397264, 10.002527, 9.998294 
1.849642e+2, 1.2486749e+2, -1823811.6, -1661771.4, 10473.685, -0.03210479, -0.33033925, -1661097.3, 55172.254, 0.0006065531, 9.998793, 10.000944 
1.849694e+2, 1.34869e+2, -1756405.8, -1616545.9, -26369.805, 0.010132545, -0.23650463, -1611739.1, 6514.552, 0.00034376056, 9.998751, 10.000601 
1.8497427e+2, 1.4486805e+2, -1675929.9, -1580355.5, -23900.82, 0.028486826, -0.3713253, -1574711.8, -54447.902, 0.00013809917, 9.998859, 10.000121 
1.8497942e+2, 1.5486911e+2, -1549628.0, -1485831.9, -13062.419, 0.06422716, -0.26935333, -1483261.0, -61004.863, 0.000029920388, 9.999127, 9.999968 
1.8498403e+2, 1.6486947e+2, -1426124.9, -1376929.3, -14765.866, 0.050144337, -0.22597618, -1372837.8, -48583.8, 0.0000015280342, 9.999309, 9.999956 
1.8498798e+2, 1.7486902e+2, -1316990.1, -1276435.5, -21292.584, -0.02091981, -0.27101818, -1267309.8, -41051.0, 0.0, 9.999398, 9.99993 
1.8499231e+2, 1.8486871e+2, -1225119.6, -1229832.1, -27547.145, -0.045967072, -0.27275908, -1199828.1, -71565.36, 0.0, 9.999564, 9.999498 
1.8499705e+2, 1.9486867e+2, -1092730.4, -1118703.3, -26113.52, -0.021567395, -0.22999087, -1076552.4, -46287.51, 0.0, 9.999816, 9.999467 
1.8500178e+2, 2.048682e+2, -995453.06, -1075458.4, -25116.908, -0.0002479247, -0.19854155, -988221.5, -55950.535, 0.0, 10.000046, 9.99898 
1.8500641e+2, 2.1486726e+2, -868373.75, -966807.1, -22954.072, 0.017053954, -0.19102329, -863284.2, -29002.963, 0.0, 10.000259, 9.99895 
1.8501082e+2, 2.248661e+2, -753787.3, -896876.6, -21388.1, 0.010452059, -0.18611994, -750658.75, -14365.167, 0.0, 10.000528, 9.998627 
1.8501501e+2, 2.348647e+2, -610484.5, -780358.44, -24243.352, -0.020193296, -0.1908203, -607092.4, 31215.465, 0.0, 10.0008545, 9.998597 
1.8501967e+2, 2.4486333e+2, -491045.25, -688841.3, -17112.602, -0.016016994, -0.18021533, -489575.66, 50746.27, 0.0, 10.001074, 9.998447 
1.8502477e+2, 2.5486198e+2, -378812.47, -586566.0, -17982.65, 0.021822978, -0.16192259, -377267.44, 65068.16, 0.0, 10.001183, 9.998425 
1.850293e+2, 2.6486033e+2, -255091.23, -477385.06, -14889.07, -0.0064126854, -0.16848473, -254098.42, 90253.31, 0.0, 10.001365, 9.998413 
1.8503328e+2, 2.748583e+2, -122634.8, -365941.22, -19108.813, -0.09785954, -0.21474113, -121143.17, 125227.49, 0.0, 10.001616, 9.998384 
1.8503834e+2, 2.848566e+2, -27894.326, -309173.13, -20794.783, -0.07960846, -0.20600855, -26365.293, 122022.09, 0.0, 10.001763, 9.99803 
1.8504435e+2, 2.948554e+2, 77809.62, -204925.3, -13951.143, 0.034970082, -0.13333513, 78496.34, 128896.28, 0.000000013949684, 10.001805, 9.998053 
1.8504831e+2, 3.048528e+2, 186336.42, -105368.38, -50685.246, -0.015536829, -0.20548262, 194892.3, 194892.3, 0.0000026617806, 10.00212, 9.998254 
1.8505187e+2, 3.148518e+2, 264307.75, -74226.664, -7811.911, -0.039533366, -0.13192685, 264487.9, 264487.9, 0.000023992492, 10.002684, 9.998195 
1.9496298e+2, 1.2486207e+2, -1846372.0, -1709766.1, 10345.435, -0.034554727, -0.3552858, -1708987.1, 7333.836, 0.0005643703, 9.998797, 10.000613 
1.949682e+2, 1.3486354e+2, -1773176.9, -1651492.9, -27636.469, 0.015509787, -0.24031892, -1645510.3, -27203.045, 0.00031730495, 9.998752, 10.000361 
1.94973e+2, 1.4486262e+2, -1657250.0, -1542070.5, -14366.334, 0.014540204, -0.3712014, -1540305.6, -19988.686, 0.00012543245, 9.99886, 10.000383 
1.9497795e+2, 1.548636e+2, -1530137.5, -1446149.3, -2320.8357, 0.0022551173, -0.30509305, -1446085.1, -23776.773, 0.000026112697, 9.99913, 10.000238 
1.949829e+2, 1.6486406e+2, -1435841.4, -1397290.4, -11637.777, 0.0058771586, -0.26059085, -1394049.6, -69744.33, 0.0000011234973, 9.99931, 9.999816 
1.9498782e+2, 1.7486392e+2, -1327076.5, -1297170.4, -17508.885, 0.023359941, -0.2589695, -1289098.4, -62789.76, 0.0, 9.999397, 9.999788 
1.9499253e+2, 1.8486379e+2, -1221580.1, -1222324.6, -18380.438, 0.019415699, -0.23888509, -1203568.1, -75256.33, 0.0, 9.999564, 9.99955 
1.9499706e+2, 1.9486372e+2, -1089453.4, -1111518.3, -16421.455, -0.004858686, -0.2032551, -1080702.5, -50388.32, 0.0, 9.999814, 9.999517 
1.9500166e+2, 2.048632e+2, -990424.5, -1064671.4, -17323.678, -0.015015809, -0.18165085, -986581.4, -54261.12, 0.0, 10.000044, 9.999055 
1.950064e+2, 2.1486224e+2, -863096.1, -955609.75, -14233.151, -0.010788724, -0.18597393, -860955.9, -26625.803, 0.0, 10.000258, 9.999027 
1.9501118e+2, 2.2486098e+2, -759266.0, -907697.9, -9592.015, -0.0072439658, -0.1912535, -758648.7, -22305.477, 0.0, 10.000526, 9.998554 
1.9501604e+2, 2.3485942e+2, -615964.06, -791116.0, -11649.938, -0.0028960204, -0.20551339, -615192.6, 23167.021, 0.0, 10.000852, 9.998525 
1.9502077e+2, 2.4485798e+2, -492863.1, -692346.06, -13340.763, -0.014211504, -0.19431587, -491974.88, 48399.406, 0.0, 10.001072, 9.998425 
1.9502528e+2, 2.5485677e+2, -380597.9, -590223.6, -13495.094, -0.04563662, -0.16473657, -379732.7, 62654.074, 0.0, 10.001183, 9.998399 
1.9503029e+2, 2.6485518e+2, -263917.63, -495541.56, -5980.881, -0.043877993, -0.15510173, -263763.3, 80639.26, 0.0, 10.001364, 9.998289 
1.9503587e+2, 2.748532e+2, -131465.89, -383673.22, -9649.821, 0.000111068184, -0.1824846, -131097.2, 115324.91, 0.0, 10.001613, 9.998264 
1.9504105e+2, 2.8485146e+2, -21309.934, -294696.13, -19316.459, 0.014462245, -0.17651984, -19951.85, 128487.71, 0.0, 10.0017605, 9.998131 
1.9504558e+2, 2.9485017e+2, 84562.72, -191337.75, -11045.708, -0.02418691, -0.12607737, 85004.23, 135456.86, 0.0000000023315327, 10.001807, 9.998146 
1.9504955e+2, 3.0484787e+2, 191332.28, -95180.86, -30394.152, -0.10312535, -0.17607872, 194521.1, 194521.1, 0.0000014940416, 10.002121, 9.9983225 
1.9505496e+2, 3.148462e+2, 262986.34, -76226.91, 12077.582, -0.0014095168, -0.17431396, 263415.8, 263415.8, 0.00001627015, 10.00268, 9.998182 
2.0496204e+2, 1.2485664e+2, -1835820.9, -1721122.6, -1497.4846, -0.014222476, -0.3612447, -1721103.1, -4729.114, 0.0005112227, 9.998943, 10.0004635 
2.0496695e+2, 1.3485818e+2, -1763759.8, -1654919.1, -32250.557, 0.010092046, -0.2342339, -1646080.6, -27719.99, 0.00028397882, 9.998851, 10.00029 
2.0497172e+2, 1.4485735e+2, -1647696.1, -1525980.0, -7227.251, -0.0024585312, -0.35695398, -1525552.4, -5182.9263, 0.000109345056, 9.998877, 10.000486 
2.049769e+2, 1.5485828e+2, -1538064.8, -1437232.9, -8055.042, -0.011324523, -0.30779785, -1436593.5, -14232.968, 0.000021261263, 9.999022, 10.000353 
2.0498212e+2, 1.648587e+2, -1449748.9, -1408162.9, -19454.234, 0.00040319117, -0.27001864, -1400481.0, -76123.56, 0.00000067965186, 9.999232, 9.999779 
2.0498732e+2, 1.748586e+2, -1311402.0, -1293957.0, -18238.783, 0.027937317, -0.26163167, -1282462.4, -56101.508, 0.0, 9.999523, 9.99975 
2.0499228e+2, 1.8485846e+2, -1192630.6, -1212507.3, -16098.042, 0.02724363, -0.23627315, -1183650.3, -55286.117, 0.0, 9.99978, 9.999514 
2.0499699e+2, 1.9485839e+2, -1064471.8, -1103173.6, -21340.342, -0.001141981, -0.19778019, -1055015.3, -24648.701, 0.0, 10.000002, 9.999484 
2.0500179e+2, 2.0485781e+2, -970740.56, -1056980.8, -29978.078, -0.015388917, -0.1805527, -961343.7, -28970.521, 0.0, 10.000187, 9.999039 
2.0500664e+2, 2.1485671e+2, -852610.75, -952182.56, -34567.41, -0.015811263, -0.19607286, -841786.9, -7402.7046, 0.0, 10.000338, 9.999013 
2.0501164e+2, 2.2485548e+2, -767069.94, -914121.25, -28747.166, -0.011311147, -0.19608578, -761649.9, -25252.664, 0.0, 10.000484, 9.99853 
2.050168e+2, 2.3485413e+2, -650106.2, -810053.2, -27847.883, -0.00045166063, -0.18857849, -645396.4, -6984.1973, 0.0, 10.000628, 9.998502 
2.0502174e+2, 2.4485269e+2, -518730.0, -697404.56, -24215.242, -0.012939294, -0.18016684, -515506.34, 24920.443, 0.0, 10.000863, 9.99849 
2.050264e+2, 2.5485122e+2, -374140.25, -579671.06, -18275.773, -0.053379606, -0.17798997, -372527.8, 69912.81, 0.0, 10.001195, 9.998466 
2.0503162e+2, 2.648497e+2, -268507.47, -505526.0, -8434.181, -0.0474218, -0.1643978, -268207.72, 76248.445, 0.0, 10.001366, 9.99822 
2.050375e+2, 2.7484804e+2, -174130.17, -412347.7, -9625.916, 0.015315784, -0.15425204, -173741.84, 72731.984, 0.0, 10.001354, 9.998192 
2.0504287e+2, 2.8484628e+2, -51141.926, -299604.03, -14718.214, 0.03286465, -0.14912587, -50273.098, 98218.445, 0.0, 10.001514, 9.998217 
2.0504746e+2, 2.9484466e+2, 97076.875, -176160.98, -7772.9355, -0.019171458, -0.13745996, 97297.82, 147804.72, 0.000000000097020676, 10.001854, 9.998227 
2.0505165e+2, 3.0484274e+2, 211378.94, -82446.945, -17311.549, -0.1117546, -0.15786152, 212395.39, 212395.39, 0.00000072960836, 10.002246, 9.998351 
2.0505765e+2, 3.1484073e+2, 260634.64, -72159.805, 17448.943, 0.0012978908, -0.19321725, 261547.02, 261547.02, 0.00001031642, 10.00264, 9.998232 
2.149614e+2, 1.2485124e+2, -1833893.1, -1718200.1, -1035.2395, 0.023868993, -0.3467417, -1718190.9, -1762.2125, 0.00045034575, 9.998947, 10.000483 
2.1496564e+2, 1.3485286e+2, -1756952.0, -1641961.4, -34951.383, -0.007829927, -0.218464, -1632171.4, -13757.153, 0.0002457903, 9.998856, 10.000378 
2.1497037e+2, 1.4485219e+2, -1650910.3, -1533187.6, -2484.5217, -0.025351824, -0.32837707, -1533135.3, -12713.745, 0.00009091271, 9.998879, 10.000436 
2.1497625e+2, 1.5485309e+2, -1541286.9, -1443584.1, -2110.7888, 0.022063468, -0.27678373, -1443538.5, -21125.91, 0.000015871614, 9.99902, 10.000311 
2.1498166e+2, 1.648534e+2, -1445243.1, -1398836.9, -8746.42, 0.031347834, -0.2534506, -1397243.1, -72832.836, 0.00000031009594, 9.999232, 9.999843 
2.1498647e+2, 1.7485301e+2, -1306710.6, -1285035.1, -6853.6553, -0.008905828, -0.27888966, -1283049.9, -56634.395, 0.0, 9.999526, 9.99981 
2.1499152e+2, 1.8485273e+2, -1200734.0, -1229544.9, -7852.4424, -0.025582485, -0.2651137, -1198732.8, -70313.13, 0.0, 9.999781, 9.999396 
2.1499689e+2, 1.9485267e+2, -1072781.6, -1120234.1, -12489.193, -0.011940179, -0.21410666, -1069695.3, -39273.277, 0.0, 10.000001, 9.999368 
2.1500209e+2, 2.0485198e+2, -978675.56, -1072935.6, -24455.46, -0.0028660425, -0.19539233, -972708.44, -40278.484, 0.0, 10.000185, 9.998931 
2.1500714e+2, 2.148507e+2, -860510.9, -968211.6, -28337.03, 0.0000653978, -0.22058624, -853510.25, -19066.57, 0.0, 10.000336, 9.998904 
2.1501221e+2, 2.2484963e+2, -765686.9, -910556.75, -23730.7, -0.003940313, -0.20051335, -761898.7, -25443.059, 0.0, 10.000482, 9.998556 
2.150173e+2, 2.348488e+2, -648627.0, -806416.2, -22003.336, -0.0142940525, -0.1409426, -645616.1, -7150.5854, 0.0, 10.000627, 9.998528 
2.150226e+2, 2.448474e+2, -508445.75, -675886.44, -12389.19, -0.0135755, -0.13753419, -507534.03, 32945.49, 0.0, 10.000862, 9.998639 
2.1502809e+2, 2.5484544e+2, -363217.34, -556543.1, -5497.5454, -0.004140967, -0.20198712, -363061.16, 79436.11, 0.0, 10.001193, 9.998626 
2.1503328e+2, 2.648439e+2, -270776.7, -509390.63, -8921.265, -0.019008689, -0.1962065, -270443.6, 74069.086, 0.0, 10.001362, 9.998196 
2.1503818e+2, 2.7484277e+2, -176456.39, -417098.6, -9595.611, -0.052917317, -0.13060424, -176074.38, 70451.6, 0.0, 10.001353, 9.99816 
2.1504381e+2, 2.8484103e+2, -46498.023, -289758.38, -3156.593, -0.02509931, -0.12371246, -46457.07, 102086.43, 0.0, 10.001513, 9.998285 
2.1504995e+2, 2.9483894e+2, 102012.36, -166269.25, 5315.728, 0.045166697, -0.16782862, 102117.64, 152680.6, 0.0, 10.001855, 9.998296 
2.1505456e+2, 3.0483744e+2, 210064.0, -83109.484, -2200.7078, -0.045430887, -0.1509972, 210080.52, 210080.52, 0.0000002906552, 10.002238, 9.99835 
2.1505994e+2, 3.1483546e+2, 267964.4, -56215.313, 29545.313, -0.03569997, -0.18195337, 270635.13, 270635.13, 0.0000060416633, 10.002638, 9.9983425 
2.2496009e+2, 1.2484606e+2, -1914375.9, -1754530.3, 10227.486, 0.025578773, -0.30954525, -1753878.5, -37397.23, 0.0003861587, 9.998387, 10.0005045 
2.2496453e+2, 1.3484746e+2, -1748103.4, -1628029.6, -29022.2, -0.005248032, -0.21236761, -1621382.8, -2914.4514, 0.00020573656, 9.998878, 10.000463 
2.2496943e+2, 1.4484678e+2, -1617216.6, -1529346.6, -1106.337, -0.020860894, -0.32140625, -1529332.8, -8857.192, 0.00007189719, 9.999164, 10.000326 
2.2497545e+2, 1.5484768e+2, -1512800.0, -1441685.3, -6894.1436, 0.027800214, -0.2583764, -1441023.1, -18556.031, 0.000010694928, 9.999267, 10.000205 
2.2498104e+2, 1.6484797e+2, -1411305.8, -1378261.5, -10386.304, 0.03382932, -0.23148246, -1375268.1, -50803.375, 0.000000092361944, 9.999446, 9.999882 
2.2498602e+2, 1.7484762e+2, -1278373.8, -1266204.4, -10525.284, -0.016637197, -0.26051515, -1260131.5, -33662.348, 0.0, 9.999699, 9.999856 
2.2499125e+2, 1.848472e+2, -1192304.0, -1232479.8, -13796.407, -0.037096906, -0.25884342, -1188022.5, -59548.46, 0.0, 9.999869, 9.999334 
2.2499678e+2, 1.9484685e+2, -1083153.1, -1132376.5, -15117.75, -0.0211027, -0.22991389, -1078880.9, -48402.082, 0.0, 9.99996, 9.999305 
2.2500223e+2, 2.0484613e+2, -991991.25, -1084876.8, -20726.895, -0.0043665743, -0.21089126, -987576.06, -55088.74, 0.0, 10.000116, 9.998881 
2.2500758e+2, 2.1484502e+2, -862824.44, -974642.9, -20625.15, 0.011419591, -0.21181326, -859141.4, -24641.725, 0.0, 10.000343, 9.998856 
2.2501282e+2, 2.2484398e+2, -748574.8, -898722.1, -12244.424, 0.005249095, -0.18733446, -747582.8, -11071.458, 0.0, 10.000585, 9.998588 
2.2501794e+2, 2.3484303e+2, -615756.56, -787303.4, -10733.393, -0.02323912, -0.14397748, -615087.6, 23434.488, 0.0, 10.000837, 9.998558 
2.2502342e+2, 2.448416e+2, -496808.22, -674374.2, -8391.375, -0.021683017, -0.14320534, -496412.53, 44123.75, 0.0, 10.00096, 9.998603 
2.2502927e+2, 2.5483972e+2, -403352.66, -580396.56, -17191.93, 0.008739776, -0.19653091, -401698.7, 40855.086, 0.0, 10.0009365, 9.998586 
2.2503464e+2, 2.6483822e+2, -302164.16, -514444.6, -22396.998, -0.0055477386, -0.18857226, -299826.88, 44741.75, 0.0, 10.001103, 9.998284 
2.2503953e+2, 2.7483714e+2, -153135.63, -395634.38, -14427.673, -0.060373515, -0.12956463, -152280.27, 94300.61, 0.0, 10.001471, 9.998251 
2.2504534e+2, 2.848353e+2, -22332.059, -284110.56, -5790.8613, -0.032221522, -0.13442655, -22204.021, 126395.13, 0.0, 10.001704, 9.998232 
2.2505194e+2, 2.9483294e+2, 84776.62, -182506.69, -8445.42, 0.062409554, -0.19535767, 85043.2, 135664.42, 0.0, 10.00177, 9.998225 
2.250568e+2, 3.0483177e+2, 174113.77, -103095.516, -13540.418, -0.03268454, -0.1378999, 174773.6, 174773.6, 0.000000085825576, 10.002001, 9.998328 
2.2506243e+2, 3.1482974e+2, 248145.14, -42392.17, 11366.926, -0.037415784, -0.17537788, 248589.17, 248589.17, 0.0000031779714, 10.002402, 9.998551 
2.3495805e+2, 1.2484112e+2, -1912788.5, -1751051.0, 31364.602, -0.01642762, -0.24595332, -1745181.6, -28649.87, 0.00032267286, 9.998386, 10.000528 
2.3496363e+2, 1.3484193e+2, -1743157.9, -1616595.5, -10314.176, 0.016143726, -0.21539204, -1615760.4, 2762.625, 0.0001666326, 9.998872, 10.000544 
2.349689e+2, 1.4484109e+2, -1629881.3, -1555234.6, 2589.889, 0.009037856, -0.33633655, -1555144.9, -34613.145, 0.00005400246, 9.999163, 10.00015 
2.3497449e+2, 1.5484202e+2, -1524640.9, -1467931.0, -2524.4714, 0.0032042773, -0.25271964, -1467818.9, -45294.71, 0.000006396683, 9.999273, 10.000023 
2.3498018e+2, 1.6484246e+2, -1408936.5, -1374315.1, -1327.7401, 0.003712919, -0.20431691, -1374264.3, -49743.387, 0.000000013163342, 9.999451, 9.999907 
2.3498592e+2, 1.7484237e+2, -1275940.6, -1261305.8, -624.38947, 0.0028977997, -0.20676573, -1261279.1, -34756.992, 0.0, 9.9997, 9.999889 
2.349914e+2, 1.8484186e+2, -1193323.6, -1234109.4, -10510.97, -0.009154224, -0.2174856, -1190774.1, -62246.57, 0.0, 9.999867, 9.999324 
2.3499665e+2, 1.9484094e+2, -1083800.4, -1134082.4, -11416.775, -0.030128077, -0.24415126, -1081329.6, -50792.605, 0.0, 9.999962, 9.999292 
2.3500216e+2, 2.048402e+2, -991297.06, -1082811.4, -12508.358, -0.022070369, -0.22684203, -989618.2, -57072.797, 0.0, 10.000114, 9.998897 
2.3500799e+2, 2.148397e+2, -862293.2, -972754.56, -11503.4, 0.0159215, -0.17060585, -861107.94, -26555.531, 0.0, 10.00034, 9.99887 
2.350135e+2, 2.2483855e+2, -746492.5, -893728.4, -3053.3762, 0.014255272, -0.15664566, -746429.2, -9864.745, 0.0, 10.000581, 9.998624 
2.3501872e+2, 2.348368e+2, -612716.3, -780755.6, -683.8816, -0.028610997, -0.1967608, -612713.56, 25868.13, 0.0, 10.000836, 9.998603 
2.3502421e+2, 2.4483529e+2, -513254.47, -708351.4, -9402.049, -0.03871493, -0.19726494, -512802.4, 27794.76, 0.0, 10.000958, 9.99837 
2.3502997e+2, 2.5483403e+2, -420633.97, -615966.0, -17737.926, -0.016809544, -0.16224548, -419036.25, 23574.07, 0.0, 10.000936, 9.9983425 
2.350357e+2, 2.6483265e+2, -288026.7, -484795.44, -9584.148, -0.0091375625, -0.14132433, -287560.97, 57063.09, 0.0, 10.001102, 9.998489 
2.3504148e+2, 2.748311e+2, -137309.86, -362378.1, -337.06403, -0.010837022, -0.15121503, -137309.36, 109329.234, 0.0, 10.001469, 9.99848 
2.3504746e+2, 2.8482905e+2, -35855.332, -311335.7, -3051.9487, 0.008915653, -0.18136285, -35821.523, 112837.0, 0.0, 10.0017, 9.998048 
2.3505339e+2, 2.9482672e+2, 70389.336, -212897.92, -5346.4116, 0.031036837, -0.22083957, 70490.2, 121172.07, 0.0, 10.001772, 9.998016 
2.3505838e+2, 3.0482584e+2, 170560.02, -109261.67, 302.72998, -0.07409953, -0.120404415, 170560.34, 170560.34, 0.000000016806371, 10.001996, 9.998288 
2.3506509e+2, 3.1482366e+2, 268068.4, 468.70032, 22083.555, -0.012487537, -0.16877425, 269878.6, 269878.6, 0.0000014346882, 10.002396, 9.998848 
2.4495669e+2, 1.2483543e+2, -1839050.8, -1714650.4, 16370.484, -0.01670017, -0.2249539, -1712532.1, 4056.8706, 0.00026299746, 9.998887, 10.000537 
2.4496242e+2, 1.3483621e+2, -1773829.9, -1624890.0, -33994.09, 0.022187354, -0.20457141, -1617498.1, 1082.0912, 0.0001305452, 9.998633, 10.000602 
2.449679e+2, 1.4483543e+2, -1691525.0, -1584387.6, -7280.348, 0.013571202, -0.3221276, -1583895.1, -63307.273, 0.000038366878, 9.998736, 10.000155 
2.4497367e+2, 1.5483624e+2, -1533012.9, -1470390.9, 1664.9463, -0.0016632553, -0.25055692, -1470346.6, -47765.316, 0.000003303544, 9.999209, 10.000036 
2.4497962e+2, 1.6483666e+2, -1406789.1, -1380134.0, 3761.129, 0.00013839382, -0.20341381, -1379613.5, -55034.93, 0.00000000018007511, 9.9994955, 9.9998455 
2.4498561e+2, 1.7483664e+2, -1294703.6, -1277093.3, -3829.266, 0.00876516, -0.19266349, -1276296.6, -49717.324, 0.0, 9.9996, 9.999829 
2.4499132e+2, 1.8483612e+2, -1204890.6, -1240323.3, -16180.164, 0.0011880241, -0.20021312, -1198613.9, -70029.3, 0.0, 9.999791, 9.999318 
2.4499677e+2, 1.9483511e+2, -1068638.9, -1126883.8, -16748.674, -0.019625321, -0.23549101, -1064166.1, -33571.6, 0.0, 10.000068, 9.99929 
2.4500239e+2, 2.0483431e+2, -971643.4, -1076049.1, -18917.773, -0.017141258, -0.2228499, -968321.3, -35717.95, 0.0, 10.000261, 9.998872 
2.4500826e+2, 2.1483377e+2, -860257.0, -974811.25, -21988.842, 0.008534299, -0.1668801, -856181.25, -21570.676, 0.0, 10.000367, 9.998843 
2.4501398e+2, 2.2483261e+2, -758397.44, -897441.8, -13290.402, 0.009360424, -0.15621752, -757138.5, -20515.744, 0.0, 10.00049, 9.998643 
2.4501958e+2, 2.348308e+2, -641082.56, -792288.7, -13150.256, -0.014951259, -0.2045546, -639947.44, -1307.4186, 0.0, 10.000632, 9.998623 
2.4502526e+2, 2.4482922e+2, -527347.25, -725143.44, -16874.21, -0.026036981, -0.20521669, -525918.0, 14737.819, 0.0, 10.000906, 9.99828 
2.4503098e+2, 2.5482798e+2, -371103.63, -602563.56, -14574.257, -0.02634263, -0.16050732, -370189.56, 72479.914, 0.0, 10.00132, 9.998249 
2.4503691e+2, 2.6482648e+2, -234342.28, -463504.97, -11102.639, -0.017819, -0.14284334, -233805.63, 110878.484, 0.0, 10.001492, 9.998448 
2.4504307e+2, 2.748247e+2, -152120.4, -374514.44, -22657.14, 0.006231562, -0.17050838, -149835.61, 96864.516, 0.0, 10.001389, 9.998436 
2.4504921e+2, 2.848226e+2, -63917.68, -325384.7, -25122.068, 0.025072545, -0.20302863, -61525.8, 87194.56, 0.0, 10.001511, 9.998043 
2.450551e+2, 2.9482043e+2, 85979.83, -207080.36, -13815.372, 0.018912418, -0.22866029, 86629.67, 137372.45, 0.0, 10.001887, 9.998 
2.450603e+2, 3.0481955e+2, 183037.27, -127384.47, -3521.0193, -0.09229259, -0.11651253, 183077.2, 183077.2, 0.0000000018495133, 10.002188, 9.99807 
2.4506757e+2, 3.1481695e+2, 270211.84, 14825.399, -3602.8237, -0.00085641874, -0.18665066, 270262.66, 270262.66, 0.00000052479436, 10.002353, 9.998968 
2.5495598e+2, 1.2482895e+2, -1839569.3, -1715218.1, 10999.758, 0.022445835, -0.2498969, -1714252.6, 2400.9956, 0.000209724, 9.998883, 10.000535 
2.5496092e+2, 1.3483025e+2, -1770577.6, -1620557.1, -43396.34, 0.0078021497, -0.18074197, -1608908.4, 9731.624, 0.00009902971, 9.998642, 10.0006275 
2.5496638e+2, 1.4482978e+2, -1676615.4, -1554677.1, 9091.829, -0.013313941, -0.27847946, -1554002.9, -33358.605, 0.000025643241, 9.998742, 10.000357 
2.54973e+2, 1.5483035e+2, -1518093.1, -1438727.6, 19427.004, 0.011021156, -0.251785, -1434227.5, -11588.782, 0.0000014046367, 9.999207, 10.000256 
2.5497934e+2, 1.6483055e+2, -1418264.9, -1403081.0, 7482.39, 0.02184141, -0.22848625, -1400013.5, -75375.86, 0.0, 9.999492, 9.99969 
2.5498512e+2, 1.7483036e+2, -1305654.8, -1300938.8, 464.87735, -0.0013985088, -0.21818103, -1300893.4, -74252.51, 0.0, 9.999605, 9.999663 
2.5499102e+2, 1.8482995e+2, -1203979.9, -1238824.5, -6080.45, -0.009161546, -0.20755166, -1202949.4, -74303.78, 0.0, 9.999793, 9.999328 
2.549971e+2, 1.9482934e+2, -1067675.6, -1124750.4, -5967.231, 0.008214027, -0.20485866, -1067058.5, -36406.836, 0.0, 10.000067, 9.999305 
2.5500292e+2, 2.0482844e+2, -977033.5, -1086362.5, -14934.649, 0.008726735, -0.19966377, -975030.06, -42368.902, 0.0, 10.000258, 9.998803 
2.5500843e+2, 2.1482727e+2, -865215.94, -984548.06, -17503.55, -0.011960832, -0.19925602, -862701.5, -28027.37, 0.0, 10.000365, 9.998777 
2.5501427e+2, 2.248261e+2, -758556.6, -897455.4, -8379.848, -0.010863383, -0.18599153, -758052.9, -21366.656, 0.0, 10.000488, 9.998644 
2.5502053e+2, 2.3482496e+2, -641690.9, -792812.6, -7435.9067, 0.015094419, -0.16775438, -641325.9, -2628.6167, 0.0, 10.000629, 9.998621 
2.5502658e+2, 2.4482343e+2, -523776.0, -717264.56, -1875.2311, 0.013030767, -0.16686203, -523757.8, 16954.479, 0.0, 10.000903, 9.998335 
2.5503236e+2, 2.5482157e+2, -366552.16, -592519.06, 1504.4987, -0.021561049, -0.19093788, -366542.13, 76188.984, 0.0, 10.001318, 9.998319 
2.5503826e+2, 2.6481977e+2, -255292.84, -507251.22, -14648.48, -0.032548316, -0.19349743, -254444.06, 90304.73, 0.0, 10.001492, 9.998148 
2.5504428e+2, 2.74818e+2, -174139.83, -420688.7, -26219.725, -0.011798744, -0.18773577, -171382.28, 75383.28, 0.0, 10.0013895, 9.998119 
2.550506e+2, 2.84816e+2, -52246.07, -300395.84, -12211.895, 0.012876308, -0.19972123, -51646.55, 97138.2, 0.0, 10.001508, 9.998216 
2.5505704e+2, 2.9481408e+2, 98385.08, -179597.48, 959.56647, 0.021938829, -0.21940672, 98388.39, 149192.42, 0.0, 10.001881, 9.998192 
2.550625e+2, 3.048129e+2, 153966.38, -186691.06, 3553.2056, -0.089936815, -0.12667625, 154003.44, 154003.44, 0.000000000039700524, 10.002182, 9.997667 
2.5506988e+2, 3.1480956e+2, 266719.6, 6708.3584, -1362.2207, -0.0076100896, -0.2308125, 266726.72, 266726.72, 0.00000015406697, 10.002355, 9.998912 
2.6495466e+2, 1.2482251e+2, -1938831.4, -1762386.0, 21440.91, 0.03558523, -0.26296452, -1759817.9, -43101.105, 0.0001649167, 9.9981985, 10.000543 
2.6495966e+2, 1.3482392e+2, -1721426.9, -1592364.5, -38504.9, 0.0019775338, -0.18820478, -1581749.9, 36952.35, 0.000073287774, 9.99896, 10.000669 
2.6496527e+2, 1.448236e+2, -1604868.0, -1528016.1, 2355.0325, -0.022934068, -0.2691535, -1527944.1, -7238.9814, 0.000016155976, 9.9992695, 10.000286 
2.6497224e+2, 1.5482411e+2, -1533344.8, -1453083.6, -10318.808, 0.0169917, -0.2417656, -1451778.1, -29077.77, 0.00000046134082, 9.999133, 10.000193 
2.649788e+2, 1.6482423e+2, -1448897.8, -1418166.4, -22545.396, 0.029584464, -0.22308108, -1406248.4, -81548.27, 0.0, 9.999284, 9.999686 
2.649847e+2, 1.7482394e+2, -1287571.8, -1292520.0, -18124.37, -0.00967492, -0.2226302, -1271753.4, -45049.297, 0.0, 9.999732, 9.9996605 
2.649908e+2, 1.8482353e+2, -1177227.4, -1225126.9, -22593.068, -0.017633349, -0.21205403, -1168252.4, -39543.664, 0.0, 9.999973, 9.999334 
2.649972e+2, 1.9482303e+2, -1076131.6, -1128052.1, -23914.441, 0.016522339, -0.19909118, -1066795.5, -36081.625, 0.0, 10.000006, 9.999312 
2.6500326e+2, 2.0482211e+2, -986411.4, -1094322.4, -27740.096, 0.019013867, -0.19367336, -979698.06, -46974.723, 0.0, 10.000209, 9.998773 
2.6500884e+2, 2.148208e+2, -834439.94, -973222.7, -27564.783, -0.015953787, -0.204174, -829165.56, 5571.6816, 0.0, 10.000591, 9.998747 
2.6501486e+2, 2.2481954e+2, -715417.06, -885295.9, -24424.508, -0.017196277, -0.1950709, -711975.1, 24775.066, 0.0, 10.000822, 9.998566 
2.650213e+2, 2.3481834e+2, -609127.1, -785862.0, -30262.922, 0.018708646, -0.17318417, -604088.75, 34673.207, 0.0, 10.000891, 9.998543 
2.650276e+2, 2.4481684e+2, -513033.75, -711656.3, -22871.25, 0.02506648, -0.16726212, -510434.16, 30342.797, 0.0, 10.000976, 9.998339 
2.6503375e+2, 2.54815e+2, -400914.88, -608160.5, -24255.2, -0.0024380027, -0.18657537, -398114.0, 44681.1, 0.0, 10.001079, 9.998326 
2.6503974e+2, 2.6481315e+2, -290910.94, -534747.25, -39698.23, -0.02276685, -0.19176, -284610.6, 60202.855, 0.0, 10.001291, 9.998056 
2.650456e+2, 2.7481118e+2, -145980.98, -417483.1, -35509.77, -0.029565725, -0.1945746, -141413.5, 105418.72, 0.0, 10.001629, 9.998026 
2.6505205e+2, 2.8480923e+2, -15060.984, -279138.34, -17498.191, -0.0041882196, -0.20210777, -13906.573, 134944.78, 0.0, 10.001751, 9.998244 
2.650589e+2, 2.948075e+2, 59900.21, -195284.25, -17613.682, 0.036863413, -0.2064843, 61110.23, 111978.93, 0.0, 10.001604, 9.998218 
2.6506457e+2, 3.0480605e+2, 86439.26, -227328.58, 418.84656, -0.07682177, -0.13574998, 86439.82, 86439.82, 0.0, 10.001753, 9.997594 
2.6507196e+2, 3.1480268e+2, 269078.78, 34835.496, 13240.125, -0.029552411, -0.23800541, 269824.75, 269824.75, 0.000000038019415, 10.002258, 9.99915 
2.7495268e+2, 1.2481611e+2, -1936763.5, -1757907.5, 54397.78, 0.015568386, -0.26269478, -1742662.3, -25883.586, 0.00012966055, 9.9981985, 10.000572 
2.749586e+2, 1.348172e+2, -1717352.3, -1582754.5, -10531.803, 0.0021708976, -0.22644965, -1581935.5, 36831.254, 0.00005392466, 9.998955, 10.000737 
2.749646e+2, 1.4481688e+2, -1629796.5, -1579247.6, -3117.341, -0.017589595, -0.29399914, -1579056.1, -58285.863, 0.0000098627, 9.999267, 9.999935 
2.7497134e+2, 1.548175e+2, -1557578.3, -1504348.8, -15257.251, 0.012500056, -0.22127745, -1500285.6, -77519.19, 0.00000011248763, 9.999137, 9.999839 
2.7497798e+2, 1.6481766e+2, -1438032.6, -1396418.8, -6690.9326, 0.019658772, -0.18790156, -1395369.4, -70603.234, 0.0, 9.999288, 9.999835 
2.7498433e+2, 1.7481735e+2, -1276076.9, -1268749.3, -1287.6606, -0.018211834, -0.20567101, -1268529.5, -41760.344, 0.0, 9.999732, 9.999824 
2.7499068e+2, 1.8481685e+2, -1177637.1, -1225540.8, -21547.107, -0.026414655, -0.21319324, -1169371.5, -40597.188, 0.0, 9.999971, 9.999332 
2.7499712e+2, 1.9481614e+2, -1076659.8, -1129109.5, -22457.928, 0.0036936128, -0.21750718, -1068357.8, -37576.53, 0.0, 10.000006, 9.999305 
2.7500337e+2, 2.0481533e+2, -985818.6, -1092329.8, -13694.089, 0.011964459, -0.20485683, -984086.2, -51296.293, 0.0, 10.000205, 9.998788 
2.7500954e+2, 2.1481435e+2, -833725.5, -971187.9, -12573.648, -0.0056606806, -0.18232626, -832584.9, 2215.1543, 0.0, 10.000588, 9.998762 
2.7501574e+2, 2.2481291e+2, -727374.1, -908962.7, -21803.447, -0.012352616, -0.18424888, -724792.9, 12021.898, 0.0, 10.000818, 9.998405 
2.7502197e+2, 2.3481098e+2, -620325.44, -808831.7, -27232.879, -0.004501461, -0.22041984, -616470.0, 22364.086, 0.0, 10.00089, 9.998385 
2.7502844e+2, 2.4480943e+2, -516398.38, -718934.44, -19444.018, 0.00922824, -0.20688851, -514548.6, 26301.291, 0.0, 10.0009775, 9.998288 
2.750351e+2, 2.5480834e+2, -405078.44, -616392.8, -20157.943, 0.027150862, -0.14776699, -403172.7, 39688.766, 0.0, 10.001077, 9.998272 
2.7504134e+2, 2.6480666e+2, -283120.56, -517436.06, -27742.072, 0.007028543, -0.13747524, -279880.8, 64997.273, 0.0, 10.0012865, 9.998177 
2.7504706e+2, 2.7480432e+2, -137525.63, -398226.9, -22050.492, -0.048529718, -0.19125485, -135673.72, 111226.39, 0.0, 10.001622, 9.99816 
2.750536e+2, 2.8480226e+2, -24145.305, -297622.22, -22442.238, -0.027065184, -0.21131854, -22315.873, 126604.41, 0.0, 10.001748, 9.998118 
2.7506077e+2, 2.9480064e+2, 50670.684, -215682.39, -22846.262, 0.05979024, -0.19057837, 52616.098, 103552.97, 0.0, 10.001609, 9.9980755 
2.7506652e+2, 3.0479902e+2, 103673.836, -191916.98, 17994.02, -0.05850011, -0.14387113, 104765.19, 104765.19, 0.0, 10.001755, 9.997836 
2.750738e+2, 3.1479618e+2, 303660.38, 109018.914, 26617.236, -0.07399399, -0.21548049, 307234.66, 307234.66, 0.00000000643165, 10.002249, 9.999664 
2.849511e+2, 1.2480935e+2, -1832924.5, -1713928.3, 42098.95, 0.00082759006, -0.25898987, -1700540.5, 16304.168, 0.00010364884, 9.998938, 10.000518 
2.8495756e+2, 1.348104e+2, -1760824.1, -1606542.8, -38914.625, 0.014370189, -0.22365554, -1597283.0, 21550.268, 0.000040612387, 9.99867, 10.000711 
2.8496376e+2, 1.4481011e+2, -1701045.9, -1624675.0, -25371.67, -0.0086972425, -0.28338078, -1617014.5, -96177.65, 0.0000062724685, 9.998827, 9.999836 
2.849704e+2, 1.5481052e+2, -1521676.0, -1497578.8, -18949.375, -0.007732891, -0.22195636, -1487171.9, -64336.79, 0.000000028346124, 9.99943, 9.999745 
2.8497726e+2, 1.6481057e+2, -1386515.5, -1372406.3, -9010.782, 0.0015817643, -0.19381088, -1368017.0, -43181.2, 0.0, 9.999645, 9.999826 
2.849841e+2, 1.7481028e+2, -1314499.6, -1287688.5, -17155.299, -0.0018857549, -0.20859928, -1279322.3, -52483.77, 0.0, 9.999471, 9.99982 
2.849907e+2, 1.8480983e+2, -1226854.4, -1250707.0, -38427.133, -0.0069124806, -0.20995231, -1198545.4, -69702.29, 0.0, 9.999641, 9.999318 
2.8499708e+2, 1.9480921e+2, -1052402.5, -1119254.9, -40856.76, -0.007801471, -0.20382662, -1033040.6, -2191.037, 0.0, 10.00018, 9.999289 
2.8500357e+2, 2.0480834e+2, -955011.75, -1078134.3, -37848.406, -0.0024659885, -0.19450344, -944307.56, -11448.922, 0.0, 10.000419, 9.998783 
2.8501013e+2, 2.1480718e+2, -871193.4, -989279.8, -39084.03, 0.0069808736, -0.19035618, -859429.4, -24558.994, 0.0, 10.000333, 9.998761 
2.8501654e+2, 2.2480574e+2, -773601.3, -930905.0, -38260.625, 0.0019829357, -0.19206244, -764788.94, -27903.912, 0.0, 10.000499, 9.998409 
2.8502277e+2, 2.3480403e+2, -613457.56, -805135.2, -31538.781, -0.015831506, -0.20776154, -608401.5, 30501.174, 0.0, 10.000935, 9.998389 
2.8502932e+2, 2.4480249e+2, -491599.0, -710274.94, -23380.713, -0.009734737, -0.19219531, -489127.1, 51791.418, 0.0, 10.001161, 9.99826 
2.8503618e+2, 2.5480118e+2, -394351.88, -614420.0, -23334.941, 0.019283682, -0.15056913, -391904.75, 51027.258, 0.0, 10.001164, 9.998243 
2.8504258e+2, 2.6479954e+2, -291465.7, -511239.44, -25742.42, 0.008397248, -0.14121091, -288490.7, 56457.734, 0.0, 10.001187, 9.998267 
2.8504857e+2, 2.7479747e+2, -189661.2, -412251.06, -23378.273, -0.038898416, -0.17817596, -187232.31, 59735.61, 0.0, 10.001217, 9.99826 
2.8505525e+2, 2.8479546e+2, -77383.516, -333790.22, -24488.412, -0.020127198, -0.19020654, -75065.68, 73921.62, 0.0, 10.001429, 9.998024 
2.850624e+2, 2.947937e+2, 80908.41, -212030.61, -23153.76, 0.052612063, -0.17246166, 82727.18, 133732.42, 0.0, 10.001866, 9.997976 
2.8506833e+2, 3.0479163e+2, 133504.61, -176691.73, 8990.954, -0.06474618, -0.16786948, 133765.0, 133765.0, 0.0, 10.001958, 9.997842 
2.8507575e+2, 3.1478924e+2, 220811.63, 82207.6, -8557.771, -0.06910725, -0.19549261, 221338.02, 221338.02, 0.00000000043435586, 10.001621, 9.999783 
2.949499e+2, 1.2480224e+2, -1842556.3, -1735763.8, 37350.33, -0.014579889, -0.2526805, -1723997.1, -7082.5317, 0.000085497144, 9.998945, 10.000365 
2.9495645e+2, 1.3480355e+2, -1769906.5, -1625505.4, -49225.453, 0.035706818, -0.18024784, -1610321.4, 8580.389, 0.000032281903, 9.99867, 10.000582 
2.9496267e+2, 1.4480326e+2, -1690740.6, -1603106.6, -3774.3584, 0.0013135027, -0.23700017, -1602944.4, -82039.68, 0.0000046245973, 9.998826, 9.999985 
2.9496944e+2, 1.5480317e+2, -1510225.6, -1473619.1, 3787.6091, -0.047370125, -0.24186842, -1473231.3, -50325.3, 0.00000001715619, 9.999429, 9.999909 
2.9497662e+2, 1.6480298e+2, -1398104.4, -1396465.3, -15854.876, -0.028633608, -0.23887965, -1381408.8, -56500.152, 0.0, 9.999645, 9.999662 
2.9498398e+2, 1.7480274e+2, -1327036.3, -1312930.4, -23434.303, 0.037331294, -0.23257738, -1295510.6, -68598.73, 0.0, 9.999468, 9.999647 
2.949908e+2, 1.8480247e+2, -1230168.5, -1256559.1, -18638.086, 0.03924168, -0.20332785, -1220527.6, -91612.21, 0.0, 9.999637, 9.999281 
2.9499713e+2, 1.9480222e+2, -1054687.8, -1123986.3, -20140.86, -0.019290918, -0.15857774, -1049259.4, -18340.416, 0.0, 10.00018, 9.999256 
2.950037e+2, 2.0480117e+2, -957279.56, -1082031.3, -40855.39, -0.02617743, -0.16286385, -945090.6, -12160.813, 0.0, 10.000416, 9.998758 
2.950106e+2, 2.147993e+2, -873210.3, -993129.0, -41822.805, 0.020425826, -0.22826226, -860065.1, -25116.766, 0.0, 10.000331, 9.998736 
2.9501724e+2, 2.2479805e+2, -762235.44, -906575.5, -22546.594, 0.023629332, -0.21884687, -758795.56, -21834.25, 0.0, 10.000496, 9.998578 
2.9502368e+2, 2.347975e+2, -601875.9, -780448.0, -14704.479, -0.017870178, -0.1359323, -600673.1, 38294.676, 0.0, 10.000932, 9.998561 
2.9503024e+2, 2.4479601e+2, -492668.3, -711382.56, -23282.188, -0.034410976, -0.12354008, -490217.38, 50765.473, 0.0, 10.001157, 9.998254 
2.9503685e+2, 2.5479355e+2, -395393.38, -615827.2, -22686.158, -0.026437266, -0.19479409, -393082.8, 49923.977, 0.0, 10.001161, 9.998235 
2.950435e+2, 2.6479176e+2, -287958.75, -503735.66, -25038.19, -0.018760901, -0.20327166, -285091.47, 59933.164, 0.0, 10.001186, 9.998319 
2.9505014e+2, 2.7479059e+2, -185725.69, -404127.75, -22295.672, -0.0055013057, -0.15588617, -183472.86, 63562.96, 0.0, 10.001217, 9.998316 
2.9505697e+2, 2.8478888e+2, -82114.11, -343241.7, -9293.529, 0.011408377, -0.1384724, -81783.766, 67268.734, 0.0, 10.001428, 9.997959 
2.950639e+2, 2.9478675e+2, 75249.87, -221573.64, -5957.5913, 0.014086009, -0.15184937, 75369.4, 126443.29, 0.0, 10.001857, 9.997914 
2.9506996e+2, 3.047839e+2, 116833.68, -210174.13, -2821.04, -0.095902056, -0.20693097, 116858.016, 116858.016, 0.0, 10.001952, 9.997615 
2.9507786e+2, 3.147817e+2, 204256.06, 45623.703, -25373.752, -0.022852037, -0.1929825, 208215.83, 208215.83, 0.0, 10.001631, 9.999527 
3.0494866e+2, 1.24794714e+2, -1904093.0, -1782699.0, 22823.832, -0.01313473, -0.24767554, -1778549.6, -61561.652, 0.000073591786, 9.998602, 10.000208 
3.0495545e+2, 1.3479576e+2, -1700634.5, -1608127.0, -73457.79, 0.041609626, -0.18657514, -1567573.8, 51404.516, 0.000027638554, 9.999215, 10.000439 
3.049618e+2, 1.4479554e+2, -1596796.9, -1538680.4, -26261.533, 0.002305678, -0.23889019, -1528571.8, -7591.2725, 0.000004191702, 9.99939, 10.0001545 
3.049687e+2, 1.5479556e+2, -1546373.5, -1471147.5, -19377.54, -0.046017494, -0.2502415, -1466449.4, -43469.69, 0.000000032166714, 9.999096, 10.000087 
3.0497608e+2, 1.6479541e+2, -1457433.6, -1434217.6, -31247.139, -0.02806607, -0.24827465, -1412492.0, -87510.24, 0.0, 9.999279, 9.999578 
3.0498362e+2, 1.7479512e+2, -1258084.3, -1289804.1, -33683.24, 0.029497918, -0.2362515, -1236713.9, -9727.897, 0.0, 9.999985, 9.9995575 
3.0499065e+2, 1.8479481e+2, -1154663.0, -1222358.4, -31006.332, 0.03646801, -0.20653144, -1142608.0, -13617.727, 0.0, 10.000165, 9.999261 
3.0499732e+2, 1.947945e+2, -1112927.4, -1152930.8, -31854.434, -0.00039791863, -0.1665814, -1095315.6, -64321.035, 0.0, 9.999786, 9.999247 
3.0500406e+2, 2.0479351e+2, -1023925.5, -1105524.6, -39491.836, -0.009846691, -0.16817082, -1007942.94, -74937.93, 0.0, 9.999923, 9.998834 
3.050109e+2, 2.1479183e+2, -826711.4, -962249.7, -33277.895, 0.006191553, -0.22099094, -818981.7, 16040.091, 0.0, 10.000613, 9.998812 
3.0501774e+2, 2.2479069e+2, -704395.3, -873961.94, -20730.402, 0.0052826055, -0.20713715, -701897.7, 35136.047, 0.0, 10.000871, 9.998622 
3.0502453e+2, 2.3479012e+2, -638403.5, -792771.44, -23622.264, -0.011660362, -0.12940596, -634869.6, 4170.6504, 0.0, 10.000658, 9.998608 
3.0503127e+2, 2.4478866e+2, -558035.75, -736172.6, -33090.47, -0.022543194, -0.11965538, -552087.56, -11032.531, 0.0, 10.000679, 9.998314 
3.0503792e+2, 2.5478628e+2, -421549.13, -621482.75, -27582.254, -0.028668195, -0.1908764, -417813.75, 25264.697, 0.0, 10.000952, 9.998297 
3.050446e+2, 2.6478446e+2, -291707.03, -507319.6, -30073.373, -0.028338261, -0.20186837, -287591.0, 57505.285, 0.0, 10.001169, 9.998302 
3.050513e+2, 2.7478322e+2, -170258.38, -398746.2, -33983.613, -0.015477459, -0.1586374, -165311.02, 81797.055, 0.0, 10.001333, 9.998296 
3.0505836e+2, 2.847816e+2, -79027.22, -339832.7, -15915.958, 0.004407761, -0.13346386, -78059.52, 71064.49, 0.0, 10.001441, 9.997976 
3.0506557e+2, 2.9477966e+2, 19758.826, -246061.03, -7129.457, 0.016429879, -0.12844023, 19949.904, 71093.35, 0.0, 10.001466, 9.997935 
3.050719e+2, 3.047765e+2, 75025.21, -238953.67, 395.0775, -0.08560127, -0.21854514, 75025.71, 75025.71, 0.0, 10.001702, 9.997538 
3.0507982e+2, 3.1477448e+2, 266327.44, 49946.676, -18857.658, -0.018396772, -0.17496452, 267958.6, 267958.6, 0.0, 10.002169, 9.999297 
3.1494746e+2, 1.247868e+2, -1915999.0, -1807395.8, 54258.58, 0.0032359639, -0.24272066, -1784933.6, -67869.15, 0.00006650563, 9.998601, 10.00004 
3.149545e+2, 1.3478711e+2, -1709376.1, -1628377.4, -49564.535, 0.024192844, -0.2411137, -1604870.1, 14192.225, 0.000025576577, 9.999225, 10.000295 
3.1496102e+2, 1.4478697e+2, -1582829.8, -1511823.4, -37550.504, -0.014080903, -0.2875952, -1495649.5, 25414.455, 0.000004447986, 9.999398, 10.000336 
3.1496823e+2, 1.5478767e+2, -1533968.6, -1444033.1, -30199.55, -0.004657786, -0.24862692, -1434833.5, -11777.132, 0.00000006594377, 9.99909, 10.000277 
3.1497568e+2, 1.6478784e+2, -1459506.8, -1436856.8, -5682.0625, 0.002533434, -0.2226926, -1435511.3, -110456.17, 0.0, 9.999271, 9.999564 
3.1498304e+2, 1.7478748e+2, -1259227.5, -1292522.1, -6706.938, -0.028698107, -0.21847573, -1257927.1, -30866.602, 0.0, 9.999987, 9.999538 
3.1499025e+2, 1.8478687e+2, -1154086.9, -1221832.6, -44982.766, -0.01988673, -0.21738194, -1131649.8, -2581.962, 0.0, 10.000167, 9.999265 
3.1499758e+2, 1.9478604e+2, -1112738.9, -1152305.5, -45700.684, 0.047045548, -0.22894216, -1082723.4, -51646.668, 0.0, 9.999784, 9.999252 
3.1500456e+2, 2.0478533e+2, -1012680.7, -1080548.6, -14353.078, 0.044690214, -0.2115127, -1009770.06, -76685.6, 0.0, 9.999915, 9.999008 
3.150111e+2, 2.1478479e+2, -814819.9, -936839.7, -6634.8154, -0.03758715, -0.16938825, -814460.1, 20630.615, 0.0, 10.000609, 9.998988 
3.15018e+2, 2.2478367e+2, -710469.2, -885754.4, -28244.447, -0.055013638, -0.15741046, -706030.44, 31072.094, 0.0, 10.000868, 9.998543 
3.1502533e+2, 2.3478194e+2, -644364.7, -805146.8, -31237.955, 0.0012780554, -0.18767524, -638508.8, 611.2402, 0.0, 10.000658, 9.998524 
3.1503242e+2, 2.4478047e+2, -549504.44, -718179.3, -23767.543, 0.02392208, -0.1806888, -546219.4, -5084.2534, 0.0, 10.000678, 9.998438 
3.1503922e+2, 2.5477934e+2, -412183.13, -601534.1, -17217.467, 0.008035269, -0.14008147, -410630.3, 32516.807, 0.0, 10.000949, 9.998435 
3.150458e+2, 2.647777e+2, -298139.8, -520113.47, -24312.752, -0.023613393, -0.13757294, -295508.03, 49655.457, 0.0, 10.001166, 9.998216 
3.150521e+2, 2.7477545e+2, -177618.5, -412874.44, -27193.283, -0.06936885, -0.18566677, -174516.14, 72668.484, 0.0, 10.001328, 9.9982 
3.1505933e+2, 2.8477368e+2, -73834.914, -327534.94, -15491.432, -0.04088138, -0.1744935, -72892.48, 76309.35, 0.0, 10.001434, 9.998064 
3.150674e+2, 2.947725e+2, 27200.219, -231061.0, -6058.3853, 0.054075748, -0.10375683, 27342.26, 78556.375, 0.0, 10.001469, 9.998036 
3.1507406e+2, 3.0476928e+2, 79640.62, -230270.03, 16894.91, -0.039008934, -0.20420627, 80558.93, 80558.93, 0.0, 10.001705, 9.997596 
3.1508154e+2, 3.1476742e+2, 251195.13, 21160.271, -6078.5728, -0.06062671, -0.1512592, 251355.64, 251355.64, 0.0, 10.002156, 9.999105 
3.2494646e+2, 1.24778494e+2, -1836385.3, -1753285.5, 55464.004, 0.023357669, -0.25620133, -1725534.3, -8388.836, 0.00006287029, 9.999083, 10.000177 
3.2495347e+2, 1.3477878e+2, -1761735.5, -1635736.8, -35736.016, 0.022528546, -0.27279568, -1626307.0, -7164.4087, 0.000025189593, 9.998789, 10.000454 
3.249601e+2, 1.4477877e+2, -1650091.4, -1558398.9, -21673.174, -0.02489455, -0.30690807, -1553534.1, -32391.254, 0.0000050024137, 9.998999, 10.000208 
3.2496774e+2, 1.5477951e+2, -1449410.1, -1417511.5, -39882.773, 0.0088037895, -0.25284782, -1390507.1, 32628.955, 0.000000115129794, 9.999732, 10.000149 
3.249754e+2, 1.6477974e+2, -1367728.6, -1384280.0, -26787.443, 0.02107769, -0.21900536, -1347967.6, -22832.816, 0.0, 9.9998665, 9.999638 
3.249827e+2, 1.7477944e+2, -1344652.0, -1324262.9, -21243.398, -0.028259557, -0.21278207, -1310894.5, -83755.58, 0.0, 9.999362, 9.99962 
3.2499003e+2, 1.8477884e+2, -1250716.5, -1266502.9, -50026.137, -0.027727176, -0.21887209, -1207964.6, -78818.484, 0.0, 9.999496, 9.99928 
3.2499754e+2, 1.9477786e+2, -1030844.7, -1111686.3, -51195.266, 0.039043095, -0.2464416, -1006036.7, 25119.902, 0.0, 10.00034, 9.999264 
3.250047e+2, 2.0477726e+2, -911839.6, -1026574.75, -26981.594, 0.03751196, -0.22160807, -905811.25, 27352.309, 0.0, 10.000583, 9.999059 
3.2501143e+2, 2.147771e+2, -875984.4, -959660.3, -29500.957, -0.04223967, -0.14652175, -866629.4, -31462.773, 0.0, 10.000162, 9.999046 
3.250185e+2, 2.24776e+2, -803285.44, -922110.6, -48510.313, -0.058026712, -0.13787945, -785996.6, -48818.645, 0.0, 10.0001955, 9.998616 
3.2502598e+2, 2.347739e+2, -629695.3, -789815.75, -39937.66, -0.0017731992, -0.2103461, -620286.75, 18911.668, 0.0, 10.000723, 9.998597 
3.2503325e+2, 2.447725e+2, -508470.13, -699208.44, -32482.13, 0.023455322, -0.20312072, -503090.25, 38122.992, 0.0, 10.000963, 9.998431 
3.250402e+2, 2.5477183e+2, -421875.16, -607404.56, -37747.656, 0.012849609, -0.115885325, -414489.13, 28732.396, 0.0, 10.000888, 9.998425 
3.250469e+2, 2.6477024e+2, -323257.4, -531723.7, -42040.74, -0.019981733, -0.106448516, -315098.5, 30139.037, 0.0, 10.000991, 9.998221 
3.2505336e+2, 2.7476764e+2, -182594.08, -414437.06, -37930.39, -0.0733184, -0.19064231, -176546.28, 70715.67, 0.0, 10.00129, 9.998209 
3.2506067e+2, 2.847658e+2, -71488.55, -327343.97, -32063.809, -0.050128426, -0.18460467, -67531.51, 81748.2, 0.0, 10.001455, 9.998055 
3.2506874e+2, 2.947649e+2, 24541.885, -233525.47, -31986.738, 0.04353299, -0.084800206, 28447.445, 79737.12, 0.0, 10.001455, 9.998027 
3.250757e+2, 3.047618e+2, 76574.234, -191472.73, 8041.3965, -0.037251964, -0.19063258, 76815.26, 76815.26, 0.0, 10.001511, 9.997956 
3.2508352e+2, 3.1476036e+2, 176775.64, -9938.3125, 2356.622, -0.049162507, -0.13704324, 176805.38, 176805.38, 0.0, 10.001623, 9.999149 
3.3494568e+2, 1.2476983e+2, -1804184.0, -1690383.9, 52450.914, 0.035087485, -0.28653893, -1669897.1, 47332.87, 0.000061273975, 9.999098, 10.000602 
3.3495238e+2, 1.347708e+2, -1730846.1, -1569811.6, -45845.1, 0.037672933, -0.28143212, -1557674.8, 61543.906, 0.000025556885, 9.99878, 10.000911 
3.3495906e+2, 1.44771e+2, -1682490.3, -1623589.0, 5651.357, -0.029647857, -0.2963285, -1623051.8, -101834.68, 0.0000055599335, 9.998989, 9.999765 
3.349673e+2, 1.5477109e+2, -1480503.1, -1482944.1, -11244.171, -0.013492971, -0.26132947, -1470413.4, -47194.402, 0.00000016881297, 9.999737, 9.999697 
3.3497527e+2, 1.647711e+2, -1354932.5, -1359756.6, -45417.867, 0.018968198, -0.23492172, -1311862.6, 13357.995, 0.0, 9.999874, 9.999804 
3.3498263e+2, 1.7477106e+2, -1332228.8, -1298030.9, -39850.32, 0.030777227, -0.22090635, -1271766.0, -44544.723, 0.0, 9.999358, 9.999803 
3.3498994e+2, 1.8477069e+2, -1250432.0, -1264171.9, -19480.959, 0.012271209, -0.21240273, -1236645.1, -107419.445, 0.0, 9.999489, 9.9993 
3.3499724e+2, 1.9476993e+2, -1030518.94, -1110827.0, -18793.066, -0.026903538, -0.2193009, -1026338.7, 4895.6865, 0.0, 10.0003395, 9.99927 
3.3500457e+2, 2.0476927e+2, -917218.75, -1036997.06, -41960.063, -0.03452596, -0.19752324, -903982.3, 29260.107, 0.0, 10.00058, 9.998988 
3.3501193e+2, 2.1476874e+2, -880734.06, -969595.44, -44761.438, -0.010065501, -0.15281792, -862095.94, -26846.582, 0.0, 10.000162, 9.99898 
3.3501923e+2, 2.2476767e+2, -787794.44, -889298.75, -29762.736, -0.006179258, -0.14903371, -779711.2, -42450.844, 0.0, 10.000193, 9.998843 
3.350265e+2, 2.3476605e+2, -613140.25, -755131.56, -19600.307, -0.022757629, -0.19816814, -610484.4, 28791.148, 0.0, 10.000722, 9.9988365 
3.3503368e+2, 2.4476472e+2, -519026.8, -720501.56, -35109.563, -0.025666557, -0.1871975, -513083.84, 28205.553, 0.0, 10.00096, 9.998286 
3.350408e+2, 2.5476372e+2, -433266.34, -630475.06, -40141.555, -0.015506894, -0.11742379, -425408.7, 17892.889, 0.0, 10.000886, 9.998267 
3.350479e+2, 2.6476207e+2, -317420.7, -518756.63, -31762.086, -0.018354202, -0.108187035, -312528.88, 32789.56, 0.0, 10.000988, 9.998312 
3.3505505e+2, 2.7475977e+2, -174933.03, -397964.97, -26502.887, -0.032136556, -0.17538825, -171826.95, 75513.3, 0.0, 10.001288, 9.998323 
3.3506235e+2, 2.84758e+2, -79477.59, -343223.94, -32203.826, -0.02760011, -0.16504481, -75602.39, 73755.38, 0.0, 10.0014515, 9.997949 
3.3506963e+2, 2.9475692e+2, 15903.275, -250154.67, -30994.354, -0.016414352, -0.070809074, 19466.24, 70836.195, 0.0, 10.00145, 9.997915 
3.3507675e+2, 3.0475405e+2, 120598.2, -98580.41, 11124.204, -0.080660254, -0.17746665, 121161.35, 121161.35, 0.0, 10.001505, 9.998597 
3.3508575e+2, 3.1475312e+2, 197123.19, 32811.805, 3716.8943, 0.007165805, -0.1376818, 197207.22, 197207.22, 0.0, 10.001621, 9.999443 
3.4494492e+2, 1.2476157e+2, -1762186.3, -1694885.8, 74346.73, 0.030102506, -0.30060652, -1646928.6, 70381.664, 0.000060228966, 9.999494, 10.00038 
3.4495172e+2, 1.3476259e+2, -1638390.3, -1549420.3, -85260.69, 0.05635279, -0.26820228, -1497737.3, 121562.28, 0.000025763518, 9.9995165, 10.000697 
3.4495834e+2, 1.4476287e+2, -1617344.0, -1587905.6, -25679.646, -0.020222291, -0.26550376, -1573025.9, -51728.434, 0.000005876301, 9.999418, 9.999802 
3.4496668e+2, 1.5476274e+2, -1563172.3, -1517494.4, -6016.3403, -0.0168379, -0.25721148, -1516715.3, -93414.14, 0.0000002059256, 9.999146, 9.999743 
3.4497485e+2, 1.6476262e+2, -1435043.8, -1399670.9, -31849.393, 0.01671281, -0.24519552, -1380926.6, -55622.91, 0.0, 9.9993305, 9.999791 
3.4498242e+2, 1.7476259e+2, -1232372.3, -1251307.5, -42148.242, 0.038472675, -0.23034525, -1198641.4, 28662.879, 0.0, 10.00005, 9.99979 
3.4498984e+2, 1.8476228e+2, -1138958.0, -1211653.9, -24110.113, 0.017084599, -0.21462461, -1131688.6, -2380.5315, 0.0, 10.000258, 9.9992895 
3.4499726e+2, 1.9476166e+2, -1095108.3, -1142059.3, -25242.246, -0.0367451, -0.2065853, -1084112.5, -52796.777, 0.0, 9.999898, 9.999267 
3.4500477e+2, 2.0476098e+2, -1001968.5, -1072426.6, -50036.914, -0.04107758, -0.18775798, -976002.94, -42679.117, 0.0, 9.999975, 9.999036 
3.450124e+2, 2.1476029e+2, -822504.7, -936291.94, -44939.492, 0.0038174246, -0.16548464, -806897.0, 28435.418, 0.0, 10.000539, 9.999026 
3.4501982e+2, 2.247593e+2, -707830.56, -848232.44, -29233.59, 0.007845467, -0.15747453, -701986.94, 35355.81, 0.0, 10.00073, 9.998866 
3.4502703e+2, 2.3475802e+2, -642548.9, -766605.1, -35861.258, -0.030314976, -0.17333129, -632928.44, 6426.322, 0.0, 10.000508, 9.99886 
3.4503433e+2, 2.4475671e+2, -572695.44, -743692.06, -52574.066, -0.040438775, -0.16262992, -557824.44, -16456.006, 0.0, 10.00058, 9.99831 
3.4504166e+2, 2.5475538e+2, -418086.13, -620418.7, -44709.723, -0.021761715, -0.12998681, -408646.94, 34736.83, 0.0, 10.0009775, 9.998292 
3.45049e+2, 2.6475376e+2, -296711.5, -507053.72, -33946.38, -0.017802535, -0.120708145, -291368.72, 54031.9, 0.0, 10.001122, 9.998327 
3.4505624e+2, 2.7475187e+2, -219840.05, -418754.13, -36426.824, -0.026713911, -0.14755695, -213379.13, 34039.99, 0.0, 10.000975, 9.998332 
3.450636e+2, 2.8475022e+2, -123863.41, -347778.63, -31589.9, -0.027450314, -0.13322985, -119492.05, 29943.432, 0.0, 10.001074, 9.998099 
3.4507093e+2, 2.9474893e+2, 30001.652, -226431.73, -11357.297, -0.031141352, -0.0741592, 30503.678, 81952.45, 0.0, 10.001472, 9.998067 
3.450783e+2, 3.047463e+2, 146979.55, -75546.8, 14242.531, -0.083792366, -0.17024046, 147887.42, 147887.42, 0.0, 10.001643, 9.998688 
3.4508744e+2, 3.1474546e+2, 160511.1, -10689.4, -42466.934, 0.023176212, -0.13164614, 170466.3, 170466.3, 0.0, 10.001484, 9.999209 
3.5494417e+2, 1.2475369e+2, -1824206.5, -1823407.5, 85275.32, 0.005577775, -0.29902834, -1738530.8, -21144.516, 0.00005843651, 9.999492, 9.999498 
3.5495138e+2, 1.3475418e+2, -1699163.0, -1677961.6, -82811.88, 0.06873342, -0.23173998, -1605074.6, 14310.445, 0.000025162195, 9.999526, 9.99981 
3.549579e+2, 1.4475444e+2, -1579391.0, -1511862.8, -35563.574, -0.006724585, -0.2121946, -1496588.3, 24795.756, 0.0000057861466, 9.999429, 10.0003195 
3.54966e+2, 1.5475449e+2, -1525041.3, -1437483.3, -15871.1875, 0.00022443457, -0.24074703, -1434695.3, -11312.693, 0.00000020730299, 9.999142, 10.000296 
3.5497415e+2, 1.6475433e+2, -1449680.1, -1428852.8, -5972.3354, 0.014532171, -0.24982587, -1427261.8, -101877.766, 0.0, 9.999325, 9.999594 
3.54982e+2, 1.7475402e+2, -1247222.4, -1282868.0, -14242.036, -0.01067267, -0.24077497, -1242231.0, -14843.005, 0.0, 10.0000515, 9.999573 
3.5498974e+2, 1.847536e+2, -1140747.9, -1215809.4, -36857.79, -0.019630834, -0.22457787, -1125675.9, 3717.6953, 0.0, 10.000259, 9.999261 
3.5499758e+2, 1.9475304e+2, -1096258.5, -1144573.9, -38320.773, 0.0081604235, -0.20949754, -1075116.4, -43715.676, 0.0, 9.999898, 9.999251 
3.5500535e+2, 2.0475242e+2, -991217.56, -1049067.6, -29884.432, 0.016758282, -0.19336572, -978552.5, -45144.38, 0.0, 9.99997, 9.999199 
3.5501286e+2, 2.1475172e+2, -811596.0, -912762.7, -23050.646, -0.0027786547, -0.1843024, -806591.56, 28824.285, 0.0, 10.000535, 9.99919 
3.5502028e+2, 2.2475088e+2, -721111.3, -874943.56, -37186.0, -0.018512547, -0.16315979, -712593.9, 24831.322, 0.0, 10.000726, 9.998685 
3.550276e+2, 2.3474985e+2, -656108.25, -794622.06, -43861.793, -0.026224893, -0.13600397, -643387.25, -3951.0586, 0.0, 10.000507, 9.998669 
3.550351e+2, 2.4474847e+2, -559532.2, -715958.94, -38622.68, -0.022684813, -0.12970655, -550515.75, -9065.207, 0.0, 10.000578, 9.998502 
3.5504276e+2, 2.5474676e+2, -403689.25, -589669.0, -29551.998, -0.008940843, -0.15401167, -399106.38, 44361.8, 0.0, 10.000975, 9.998505 
3.5505006e+2, 2.6474524e+2, -301757.88, -516384.66, -39133.49, -0.021120684, -0.1444154, -294845.2, 50639.02, 0.0, 10.001118, 9.998266 
3.550569e+2, 2.747439e+2, -225315.34, -429895.56, -41319.64, -0.058660053, -0.106793754, -217285.11, 30213.36, 0.0, 10.000974, 9.998256 
3.5506445e+2, 2.8474247e+2, -96622.55, -290992.13, -18088.941, -0.051321726, -0.08896936, -94953.44, 54559.31, 0.0, 10.001073, 9.998489 
3.5507268e+2, 2.9474092e+2, 58291.26, -166477.22, 4102.1484, -0.0055171326, -0.09513257, 58366.105, 109892.36, 0.0, 10.001467, 9.998482 
3.5508025e+2, 3.0473852e+2, 114219.81, -142430.58, 8892.337, -0.05208894, -0.16961633, 114527.54, 114527.54, 0.0, 10.0016365, 9.998232 
3.5508862e+2, 3.1473735e+2, 109083.04, -117769.7, -50830.035, -0.009213028, -0.11559823, 119951.62, 119951.62, 0.0, 10.001484, 9.998474 
3.649437e+2, 1.2474545e+2, -1813553.5, -1824755.0, 46101.59, 0.00681982, -0.27039337, -1772713.8, -55245.25, 0.000055122826, 9.999594, 9.999439 
3.6495093e+2, 1.3474561e+2, -1710144.9, -1689055.8, -69737.11, 0.07303678, -0.2311838, -1629070.5, -9600.18, 0.000023501116, 9.9994755, 9.999758 
3.649573e+2, 1.447459e+2, -1565290.3, -1507060.6, -8896.199, -0.014936491, -0.20588847, -1505731.9, 15736.942, 0.00000526637, 9.999534, 10.000301 
3.649654e+2, 1.5474598e+2, -1436941.3, -1396434.9, -33756.07, -0.0004133463, -0.22774418, -1377322.4, 46144.3, 0.00000017249042, 9.999751, 10.000283 
3.6497375e+2, 1.6474585e+2, -1378144.0, -1395772.9, -24734.838, 0.017071562, -0.23483603, -1360700.0, -35232.08, 0.0, 9.999822, 9.99958 
3.6498183e+2, 1.747455e+2, -1296115.8, -1307498.5, -17870.484, -0.014058571, -0.22927362, -1283052.3, -55579.816, 0.0, 9.999722, 9.999561 
3.6498976e+2, 1.8474503e+2, -1201638.8, -1239950.5, -40840.984, -0.021447495, -0.21824355, -1175684.4, -46206.215, 0.0, 9.999819, 9.999308 
3.6499768e+2, 1.9474445e+2, -1055305.5, -1119385.9, -38293.06, 0.014703059, -0.20986691, -1037416.4, -5931.34, 0.0, 10.000154, 9.999301 
3.650055e+2, 2.0474383e+2, -943307.2, -1026499.6, -22968.625, 0.019924099, -0.19479132, -937387.06, -3894.9053, 0.0, 10.000299, 9.999196 
3.6501312e+2, 2.147432e+2, -856277.9, -934361.44, -29167.684, -0.01588703, -0.18044148, -846585.56, -11086.134, 0.0, 10.000228, 9.99919 
3.650207e+2, 2.2474237e+2, -776584.9, -898797.3, -48473.24, -0.031129422, -0.15834008, -759693.5, -22184.816, 0.0, 10.000333, 9.998711 
3.650282e+2, 2.3474133e+2, -635140.1, -781628.75, -40006.383, -0.020164415, -0.13468929, -624926.44, 14593.465, 0.0, 10.000639, 9.998694 
3.6503586e+2, 2.4474e+2, -531216.4, -696460.2, -26891.002, -0.009648593, -0.1305704, -526950.44, 14583.67, 0.0, 10.000748, 9.998554 
3.6504364e+2, 2.547383e+2, -449285.75, -606069.7, -29959.19, -0.0022681926, -0.15588288, -443756.0, -204.80145, 0.0, 10.000636, 9.998555 
3.65051e+2, 2.647369e+2, -343606.7, -525306.9, -38807.07, -0.022824418, -0.14467154, -335665.44, 9900.709, 0.0, 10.00078, 9.998367 
3.6505786e+2, 2.747357e+2, -181230.98, -397070.47, -29057.777, -0.07154419, -0.10270725, -177387.47, 70191.33, 0.0, 10.001226, 9.99836 
3.6506554e+2, 2.847342e+2, -53989.633, -277150.5, -15838.672, -0.06274856, -0.09009294, -52871.1, 96722.36, 0.0, 10.001393, 9.998431 
3.6507407e+2, 2.9473245e+2, 15912.937, -194442.78, -29170.27, 0.00071988866, -0.111188166, 19883.08, 71492.56, 0.0, 10.001207, 9.998415 
3.6508185e+2, 3.047305e+2, 76431.85, -158494.39, -19203.682, -0.040648423, -0.13908626, 77991.27, 77991.27, 0.0, 10.001367, 9.998252 
3.6509013e+2, 3.1472915e+2, 170983.08, -100395.56, -46951.906, -0.031430587, -0.10175743, 178876.75, 178876.75, 0.0, 10.001961, 9.998365 
3.7494355e+2, 1.2473684e+2, -1759985.8, -1713273.9, 52037.375, 0.027029801, -0.21346882, -1679591.3, 37965.844, 0.00005010573, 9.999591, 10.000205 
3.7495038e+2, 1.3473688e+2, -1654438.4, -1573547.1, -72784.78, 0.070138864, -0.26626626, -1530725.3, 88829.98, 0.000020857056, 9.999475, 10.000551 
3.7495655e+2, 1.4473723e+2, -1604635.3, -1588402.4, -1029.1488, -0.04607186, -0.24711327, -1588337.4, -66785.5, 0.000004428325, 9.999533, 9.999744 
3.7496492e+2, 1.5473725e+2, -1477410.0, -1481329.0, -24986.967, -0.025356099, -0.21852757, -1454305.8, -30752.12, 0.00000011962439, 9.999755, 9.999699 
3.7497357e+2, 1.6473715e+2, -1365230.9, -1369625.9, -28428.516, 0.017337456, -0.19944625, -1338915.0, -13359.273, 0.0, 9.999824, 9.999759 
3.7498197e+2, 1.7473696e+2, -1282068.9, -1278533.5, -21172.918, 0.028194176, -0.19618219, -1259054.6, -31496.951, 0.0, 9.999722, 9.999761 
3.749899e+2, 1.8473658e+2, -1193513.6, -1222780.8, -29134.35, 0.01047819, -0.19571722, -1175544.3, -45982.277, 0.0, 9.999817, 9.999426 
3.749975e+2, 1.947359e+2, -1047486.94, -1102808.1, -25151.469, -0.019806085, -0.20705691, -1037761.6, -6192.7383, 0.0, 10.000152, 9.999416 
3.7500525e+2, 2.0473526e+2, -955093.56, -1050186.0, -25432.135, -0.0345223, -0.19186968, -948719.1, -15143.039, 0.0, 10.000297, 9.999035 
3.750131e+2, 2.1473469e+2, -868215.3, -958482.4, -31321.338, -0.03735307, -0.1547929, -858412.0, -22828.627, 0.0, 10.000225, 9.999026 
3.7502104e+2, 2.2473378e+2, -760979.94, -865789.6, -37747.75, -0.031791992, -0.1433377, -748800.25, -11207.037, 0.0, 10.00033, 9.998939 
3.750289e+2, 2.347325e+2, -618548.2, -746456.75, -28238.084, -0.014148239, -0.1688789, -612591.5, 27014.408, 0.0, 10.000636, 9.998938 
3.750367e+2, 2.4473123e+2, -537783.75, -709207.1, -30981.682, -0.003844469, -0.16528125, -532356.2, 9263.025, 0.0, 10.000744, 9.998468 
3.7504426e+2, 2.5473002e+2, -456161.9, -620395.2, -33828.59, -0.0031995059, -0.1361346, -449466.84, -5833.9775, 0.0, 10.000636, 9.998457 
3.7505177e+2, 2.6472867e+2, -325876.53, -488553.06, -23277.035, -0.024340754, -0.121639766, -322611.4, 23035.111, 0.0, 10.00078, 9.99862 
3.7505916e+2, 2.747272e+2, -163129.81, -357708.4, -12034.901, -0.068211846, -0.13465795, -162388.27, 85271.91, 0.0, 10.001218, 9.998634 
3.7506694e+2, 2.847255e+2, -89484.89, -348563.44, -22194.316, -0.065355346, -0.13579333, -87597.336, 62080.27, 0.0, 10.001383, 9.997945 
3.750751e+2, 2.947236e+2, -20107.707, -269649.5, -35344.297, -0.015684424, -0.12194948, -15198.244, 36499.938, 0.0, 10.001209, 9.997898 
3.750831e+2, 3.0472228e+2, 110492.53, -88868.055, 1376.9652, -0.05252924, -0.0793894, 110502.04, 110502.04, 0.0, 10.001371, 9.998729 
3.7509188e+2, 3.1472105e+2, 203967.81, -28102.814, -26518.2, -0.049834095, -0.083414875, 206959.44, 206959.44, 0.0, 10.0019455, 9.998869 
3.849433e+2, 1.24728255e+2, -1725007.9, -1676612.6, 80182.625, 0.037819367, -0.18327174, -1617056.0, 100587.64, 0.00004363311, 9.999747, 10.0003805 
3.8494986e+2, 1.3472822e+2, -1632189.4, -1543276.1, -103009.02, 0.069579735, -0.2610418, -1475539.9, 144101.03, 0.000017489165, 9.999541, 10.000728 
3.8495594e+2, 1.4472863e+2, -1608401.8, -1603689.9, -24760.615, -0.06272617, -0.23822366, -1581173.4, -59537.03, 0.0000034194288, 9.999564, 9.999624 
3.8496473e+2, 1.5472853e+2, -1489267.4, -1501260.9, -15891.27, -0.021164369, -0.21033703, -1478279.0, -54638.867, 0.00000006772674, 9.999735, 9.999572 
3.849735e+2, 1.6472837e+2, -1368509.6, -1371915.1, -16569.154, 0.03004504, -0.19036871, -1353556.0, -27912.895, 0.0, 9.999803, 9.999755 
3.8498175e+2, 1.7472823e+2, -1270717.5, -1272936.6, -25145.488, 0.03118664, -0.18394682, -1246657.0, -19012.365, 0.0, 9.999797, 9.9997635 
3.849897e+2, 1.8472786e+2, -1178337.3, -1211454.4, -30858.176, 0.0065466794, -0.18101, -1159875.6, -30227.242, 0.0, 9.999904, 9.999462 
3.8499755e+2, 1.9472724e+2, -1049454.3, -1099315.8, -33105.15, -0.027545327, -0.19088548, -1032942.4, -1288.0354, 0.0, 10.000119, 9.999455 
3.8500544e+2, 2.0472656e+2, -968037.0, -1059821.4, -42320.395, -0.04002712, -0.18207136, -951502.4, -17840.521, 0.0, 10.000223, 9.999003 
3.8501337e+2, 2.1472582e+2, -872493.1, -964065.06, -39460.742, -0.034292374, -0.1595727, -857834.9, -22164.24, 0.0, 10.000211, 9.998994 
3.850214e+2, 2.2472489e+2, -766329.3, -863814.44, -36844.12, -0.02492488, -0.1506044, -753970.9, -16290.089, 0.0, 10.000274, 9.99898 
3.850295e+2, 2.3472375e+2, -646638.8, -755216.8, -42515.203, -0.009720107, -0.16599897, -631972.5, 7719.895, 0.0, 10.0004225, 9.9989805 
3.8503733e+2, 2.4472259e+2, -551867.3, -704392.06, -51776.145, -0.005816622, -0.15752195, -535952.0, 5752.4688, 0.0, 10.000597, 9.998572 
3.8504484e+2, 2.547215e+2, -423871.97, -592950.0, -40748.87, -0.01610891, -0.12854154, -414563.7, 29153.072, 0.0, 10.000808, 9.998563 
3.850525e+2, 2.6472017e+2, -306412.88, -476475.72, -24660.078, -0.03214854, -0.116988376, -302909.2, 42820.563, 0.0, 10.000902, 9.998644 
3.850603e+2, 2.7471867e+2, -214230.2, -379550.63, -31716.531, -0.052827325, -0.13668002, -208354.27, 39389.484, 0.0, 10.0008545, 9.99866 
3.8506818e+2, 2.8471687e+2, -147209.11, -371587.72, -35208.73, -0.05572101, -0.14663939, -141814.0, 7947.5664, 0.0, 10.000965, 9.997989 
3.8507608e+2, 2.9471493e+2, -6467.5225, -259253.94, -9536.153, -0.043369036, -0.14329603, -6108.2896, 45674.3, 0.0, 10.001285, 9.997933 
3.8508436e+2, 3.0471402e+2, 125487.36, -84954.625, 38947.957, -0.071781486, -0.061811496, 132464.4, 132464.4, 0.0, 10.001488, 9.998699 
3.8509375e+2, 3.1471235e+2, 147835.14, -44022.203, -31236.25, -0.035459224, -0.10710421, 152792.61, 152792.61, 0.000000000002787424, 10.00151, 9.99897 
3.9494306e+2, 1.247197e+2, -1756148.6, -1740110.0, 82543.02, 0.03512287, -0.18118538, -1665197.6, 52530.406, 0.0000362571, 9.999743, 9.999947 
3.949494e+2, 1.3471965e+2, -1663142.4, -1608403.1, -109534.41, 0.06737687, -0.21547076, -1522870.6, 96856.78, 0.000013744367, 9.999544, 10.000279 
3.9495543e+2, 1.4472015e+2, -1587152.9, -1558837.4, -17950.035, -0.070053264, -0.17789473, -1550133.8, -28411.328, 0.0000023661473, 9.99956, 9.999933 
3.9496478e+2, 1.5471983e+2, -1465697.9, -1452754.3, -8975.257, 0.010308269, -0.20331232, -1448160.8, -24434.648, 0.000000028035489, 9.999737, 9.999904 
3.9497355e+2, 1.647195e+2, -1381740.0, -1399382.1, -17599.514, 0.05271687, -0.20788968, -1370874.8, -45144.594, 0.0, 9.999803, 9.999566 
3.9498118e+2, 1.7471926e+2, -1284598.6, -1301442.0, -24903.883, -0.0073621282, -0.19244067, -1266731.0, -38997.45, 0.0, 9.999796, 9.999569 
3.949892e+2, 1.8471894e+2, -1181742.0, -1217979.1, -22939.008, -0.036551945, -0.17413901, -1170629.1, -40891.79, 0.0, 9.999901, 9.999419 
3.9499784e+2, 1.947185e+2, -1052504.9, -1105068.9, -24518.082, -0.010564194, -0.16179827, -1042844.2, -11102.668, 0.0, 10.000117, 9.999417 
3.9500606e+2, 2.0471771e+2, -961566.1, -1045852.8, -42918.46, 0.0012361123, -0.16533563, -943559.2, -9809.697, 0.0, 10.000221, 9.999101 
3.9501384e+2, 2.1471655e+2, -865854.25, -949548.2, -39353.684, -0.009167863, -0.1937813, -850256.6, -14495.306, 0.0, 10.000208, 9.999095 
3.9502177e+2, 2.2471565e+2, -776830.06, -884802.6, -31612.535, -0.013235182, -0.17989327, -768255.44, -30484.0, 0.0, 10.000271, 9.9988365 
3.950299e+2, 2.3471504e+2, -657305.8, -776962.1, -36474.543, -0.007872749, -0.12713815, -647064.0, -7284.562, 0.0, 10.000421, 9.998833 
3.950378e+2, 2.4471407e+2, -532302.56, -663237.94, -44322.254, -0.016857695, -0.10790849, -518710.28, 23079.648, 0.0, 10.000594, 9.998857 
3.9504537e+2, 2.547127e+2, -403739.1, -549538.9, -32519.666, -0.043465782, -0.1327039, -396814.66, 46988.2, 0.0, 10.0008, 9.998864 
3.950532e+2, 2.647114e+2, -320662.84, -504504.88, -26485.838, -0.04902242, -0.13045925, -316923.16, 28892.816, 0.0, 10.0008955, 9.998455 
3.950614e+2, 2.747101e+2, -228610.78, -409904.5, -33273.37, -0.02816894, -0.10932729, -222696.94, 25132.525, 0.0, 10.000856, 9.99845 
3.9506933e+2, 2.847084e+2, -108403.52, -291064.63, -24581.057, -0.036586773, -0.12355078, -105153.44, 44691.914, 0.0, 10.000965, 9.998542 
3.9507693e+2, 2.947065e+2, 31318.428, -176998.2, 2817.8386, -0.08493968, -0.17430411, 31356.537, 83219.37, 0.0, 10.001268, 9.998506 
3.9508554e+2, 3.0470568e+2, 87321.805, -160705.31, 39805.855, -0.10106518, -0.08454822, 93553.664, 93553.664, 0.0, 10.001473, 9.998186 
3.9509565e+2, 3.1470314e+2, 126980.984, -86870.805, -30542.88, 0.002087857, -0.16508913, 131257.67, 131257.67, 0.000000001718879, 10.00151, 9.998675 
4.0494278e+2, 1.24711044e+2, -1752885.9, -1758769.9, 81689.48, 0.028447812, -0.1797993, -1674085.4, 43727.887, 0.000028702449, 9.999854, 9.999765 
4.0494925e+2, 1.3471088e+2, -1638725.5, -1617386.5, -101750.65, 0.085958876, -0.20727658, -1525747.5, 94067.38, 0.000010028613, 9.999801, 10.000095 
4.0495512e+2, 1.4471151e+2, -1549960.8, -1528358.0, 1001.4287, -0.065140255, -0.15283175, -1528311.8, -6502.955, 0.0000013962007, 9.99976, 10.000048 
4.0496442e+2, 1.547112e+2, -1464946.4, -1438341.8, -8250.103, 0.005959435, -0.18858925, -1435991.0, -12179.484, 0.000000006286357, 9.9996805, 10.0000305 
4.0497324e+2, 1.6471085e+2, -1393571.0, -1417322.8, -18109.37, 0.044599105, -0.1983148, -1383790.8, -57975.16, 0.0, 9.999774, 9.999457 
4.04981e+2, 1.7471047e+2, -1256417.8, -1301018.5, -19985.875, -0.016895076, -0.1835487, -1248772.5, -20951.908, 0.0, 10.000046, 9.999452 
4.049891e+2, 1.8471004e+2, -1156537.6, -1209706.4, -17894.486, -0.042077035, -0.16694732, -1151076.0, -21250.594, 0.0, 10.000092, 9.999383 
4.049979e+2, 1.9470955e+2, -1085031.8, -1124121.5, -19885.258, -0.0051110005, -0.15740576, -1076694.3, -44864.11, 0.0, 9.999908, 9.999387 
4.050063e+2, 2.0470877e+2, -994939.56, -1056305.5, -33925.414, 0.0131976055, -0.16112761, -979880.0, -46042.234, 0.0, 9.999968, 9.99915 
4.050142e+2, 2.1470769e+2, -848826.0, -935229.7, -34486.895, 0.0023391403, -0.18763992, -836749.06, -900.45044, 0.0, 10.0002985, 9.999149 
4.0502217e+2, 2.247068e+2, -756949.4, -880229.9, -28980.082, -0.0058294823, -0.17231749, -750476.75, -12618.218, 0.0, 10.000429, 9.998792 
4.0503028e+2, 2.3470616e+2, -672907.7, -789480.8, -27141.678, -0.0080043, -0.11833148, -666898.1, -27030.965, 0.0, 10.000336, 9.998787 
4.0503827e+2, 2.4470519e+2, -556397.25, -669967.4, -31285.318, -0.02031324, -0.09931595, -548349.3, -6471.635, 0.0, 10.000408, 9.998899 
4.0504608e+2, 2.5470385e+2, -419343.88, -551497.06, -38507.414, -0.045472488, -0.12630981, -408942.13, 34947.934, 0.0, 10.000669, 9.998915 
4.0505403e+2, 2.647026e+2, -340609.3, -520114.5, -45966.63, -0.05110981, -0.11974778, -329523.13, 16379.7295, 0.0, 10.000784, 9.998402 
4.0506217e+2, 2.7470133e+2, -247620.33, -425888.13, -43227.355, -0.0324902, -0.08608828, -237691.34, 10224.952, 0.0, 10.000755, 9.99839 
4.0507022e+2, 2.8469965e+2, -114906.44, -273164.6, -31742.68, -0.038096834, -0.10918672, -108777.03, 41155.023, 0.0, 10.00083, 9.998731 
4.0507814e+2, 2.9469755e+2, 4195.4243, -167624.9, -32330.758, -0.07582617, -0.1956638, 10077.603, 62027.113, 0.0, 10.000985, 9.998707 
4.05087e+2, 3.0469686e+2, 35950.39, -198597.02, 4823.8022, -0.083209895, -0.10062578, 36049.555, 36049.555, 0.0, 10.001177, 9.998068 
4.0509707e+2, 3.1469405e+2, 133552.52, -61852.17, -39122.375, -0.004472889, -0.19324659, 141094.2, 141094.2, 0.00000001196501, 10.00146, 9.998871 
4.1494247e+2, 1.2470223e+2, -1747591.5, -1746878.8, 90530.47, 0.011583684, -0.18296316, -1656704.0, 61195.867, 0.000021697306, 9.999851, 9.999847 
4.1494945e+2, 1.347019e+2, -1631505.4, -1604363.3, -102299.41, 0.12259101, -0.23887323, -1514738.6, 105164.73, 0.000006740833, 9.999807, 10.000182 
4.1495502e+2, 1.447027e+2, -1556511.0, -1541795.4, -1725.199, -0.051601246, -0.16486935, -1541595.9, -19700.197, 0.0000006540361, 9.99976, 9.999955 
4.1496372e+2, 1.5470265e+2, -1471113.0, -1450928.8, -10856.539, -0.035368428, -0.16589294, -1446198.0, -22301.746, 0.0000000002364484, 9.99968, 9.999945 
4.1497263e+2, 1.6470237e+2, -1396579.8, -1422720.8, -8562.327, 0.0032687017, -0.16104056, -1394024.9, -68125.22, 0.0, 9.999771, 9.999422 
4.149812e+2, 1.7470185e+2, -1259115.4, -1306360.3, -9285.44, -0.00044287986, -0.15696128, -1257356.0, -29450.03, 0.0, 10.000045, 9.999415 
4.149895e+2, 1.8470122e+2, -1158462.1, -1213666.5, -24817.387, -0.0133032, -0.15953527, -1148945.8, -19032.994, 0.0, 10.000092, 9.999356 
4.1499776e+2, 1.9470042e+2, -1087243.4, -1128030.0, -26348.754, -0.012337862, -0.1770064, -1074317.9, -42397.742, 0.0, 9.999906, 9.999361 
4.1500607e+2, 2.0469975e+2, -995138.4, -1055826.9, -22228.23, -0.0056567374, -0.16936839, -987867.9, -53941.027, 0.0, 9.999964, 9.999156 
4.1501448e+2, 2.1469921e+2, -848830.2, -934236.3, -21570.824, -0.0015902448, -0.14185765, -843691.3, -7758.5737, 0.0, 10.000295, 9.999158 
4.150226e+2, 2.2469833e+2, -753651.4, -872930.6, -32361.207, -0.0046817544, -0.1284147, -745437.25, -7495.044, 0.0, 10.000427, 9.998843 
4.1503057e+2, 2.3469712e+2, -669505.06, -781849.7, -30315.463, -0.012524853, -0.13853015, -661846.7, -21891.127, 0.0, 10.000333, 9.99884 
4.150387e+2, 2.4469595e+2, -569717.4, -697074.8, -22189.748, -0.018814394, -0.13080817, -565961.94, -23994.146, 0.0, 10.000405, 9.998714 
4.1504696e+2, 2.546949e+2, -433078.8, -579723.44, -28437.287, -0.024261585, -0.11034495, -427757.38, 16221.118, 0.0, 10.000667, 9.998722 
4.1505492e+2, 2.6469377e+2, -335887.56, -509352.28, -47220.406, -0.040113974, -0.08588411, -323866.34, 22124.238, 0.0, 10.00078, 9.998477 
4.1506255e+2, 2.7469245e+2, -243042.06, -414396.75, -43424.082, -0.067766726, -0.0669494, -232665.98, 15338.339, 0.0, 10.000747, 9.998472 
4.150708e+2, 2.846906e+2, -127042.27, -296832.88, -26304.623, -0.06271413, -0.10338958, -123060.44, 26961.21, 0.0, 10.000823, 9.998571 
4.1507968e+2, 2.9468817e+2, -6681.612, -190599.11, -26617.5, -0.021149416, -0.20663019, -2906.8618, 49135.496, 0.0, 10.000987, 9.9985485 
4.150888e+2, 3.0468753e+2, 54365.44, -160300.44, 14356.59, -0.023021288, -0.10970316, 55321.336, 55321.336, 0.0, 10.001177, 9.998331 
4.1509798e+2, 3.1468505e+2, 177293.34, 32826.793, -29232.082, -0.060577303, -0.19584872, 182984.14, 182984.14, 0.000000036873733, 10.001444, 9.999528 
4.2494226e+2, 1.24693535e+2, -1746675.1, -1744034.5, 106173.56, 0.007044502, -0.18067992, -1639173.0, 78812.33, 0.000015823704, 9.99985, 9.999867 
4.249493e+2, 1.3469316e+2, -1625744.5, -1600480.8, -105124.72, 0.12626503, -0.24005479, -1507231.8, 112757.52, 0.0000041887733, 9.999843, 10.000192 
4.2495477e+2, 1.4469405e+2, -1538344.8, -1545550.0, -6123.1777, -0.06080149, -0.15355581, -1534843.0, -12862.091, 0.00000021832761, 9.99994, 9.999844 
4.2496362e+2, 1.5469383e+2, -1428865.8, -1443279.1, -18970.064, -0.027611647, -0.15934382, -1415779.6, 8203.808, 0.0, 10.000026, 9.99983 
4.2497262e+2, 1.6469353e+2, -1361706.0, -1401594.0, -11266.409, 0.01731985, -0.15395933, -1358743.8, -32756.63, 0.0, 9.999993, 9.999459 
4.249812e+2, 1.7469312e+2, -1282128.9, -1312705.5, -7426.73, 0.0039941017, -0.14396429, -1280420.5, -52428.332, 0.0, 9.999867, 9.999456 
4.249895e+2, 1.8469243e+2, -1188458.8, -1238700.3, -23212.133, -0.012729142, -0.14705345, -1179376.4, -49377.14, 0.0, 9.999931, 9.999262 
4.249978e+2, 1.9469146e+2, -1051073.9, -1121726.6, -30747.15, -0.009614426, -0.1720077, -1039567.1, -7558.719, 0.0, 10.000202, 9.999261 
4.250062e+2, 2.0469074e+2, -951378.56, -1038691.8, -28198.633, -0.0032819652, -0.16399679, -943063.44, -9047.502, 0.0, 10.000282, 9.99912 
4.2501467e+2, 2.1469025e+2, -872623.6, -949444.2, -31232.176, -0.0019462723, -0.12811635, -861528.4, -25506.809, 0.0, 10.000148, 9.999125 
4.2502293e+2, 2.2468936e+2, -777103.3, -878389.1, -41677.87, -0.007304235, -0.11542958, -762158.5, -24127.656, 0.0, 10.000241, 9.998895 
4.2503098e+2, 2.3468809e+2, -627239.2, -755239.3, -40374.813, -0.017291375, -0.13502204, -615568.0, 24476.021, 0.0, 10.000597, 9.998896 
4.250392e+2, 2.4468689e+2, -535912.8, -686901.2, -31474.008, -0.018575907, -0.13256453, -529614.6, 12441.773, 0.0, 10.000664, 9.99866 
4.2504764e+2, 2.546858e+2, -474473.22, -606496.7, -28893.05, -0.01092315, -0.11380295, -468426.94, -24359.174, 0.0, 10.000412, 9.99866 
4.250557e+2, 2.6468453e+2, -377015.4, -529756.3, -37124.496, -0.026199184, -0.09269373, -368470.16, -22389.65, 0.0, 10.0005, 9.998473 
4.250634e+2, 2.746832e+2, -212252.1, -399063.13, -39826.305, -0.06693769, -0.078536555, -204115.86, 43978.93, 0.0, 10.000956, 9.998477 
4.2507178e+2, 2.8468138e+2, -88216.82, -287413.7, -28574.889, -0.06355105, -0.10845164, -84198.78, 65913.29, 0.0, 10.001129, 9.998488 
4.2508078e+2, 2.9467902e+2, -10754.94, -201923.6, -25260.59, -0.009387887, -0.19513264, -7473.3936, 44659.04, 0.0, 10.000999, 9.998466 
4.2509004e+2, 3.0467832e+2, 14589.257, -194424.83, 11259.257, -0.0046286494, -0.096200794, 15194.025, 15194.025, 0.0, 10.000968, 9.998198 
4.2509907e+2, 3.1467584e+2, 134798.53, 38689.723, -62832.34, -0.075807095, -0.169953, 165846.14, 165846.14, 0.00000007454206, 10.001039, 9.999764 
4.3494213e+2, 1.2468496e+2, -1751323.3, -1753326.8, 116607.9, 0.010254388, -0.17208163, -1635712.8, 82356.85, 0.0000113764345, 9.999849, 9.999804 
4.3494883e+2, 1.3468473e+2, -1630591.9, -1612303.1, -103245.31, 0.09492161, -0.20954747, -1517798.0, 102274.26, 0.0000025044064, 9.999848, 10.000109 
4.3495438e+2, 1.4468555e+2, -1546991.8, -1563757.3, -2192.5688, -0.09619857, -0.117928974, -1546709.8, -24645.256, 0.000000047491298, 9.999941, 9.999718 
4.349642e+2, 1.5468475e+2, -1438220.8, -1462651.9, -15262.134, 0.025924828, -0.17076546, -1430887.5, -6814.6035, 0.0, 10.000026, 9.999698 
4.349733e+2, 1.6468428e+2, -1355227.5, -1387490.4, -16157.502, 0.08337617, -0.17894667, -1348527.3, -22449.14, 0.0, 9.99999, 9.999557 
4.34981e+2, 1.7468423e+2, -1274536.3, -1296617.5, -11511.669, -0.004838392, -0.14441605, -1269626.5, -41547.18, 0.0, 9.9998665, 9.999568 
4.3498912e+2, 1.846837e+2, -1200623.9, -1262929.8, -13734.651, -0.042712968, -0.12860304, -1197730.6, -67645.83, 0.0, 9.9999275, 9.999097 
4.349981e+2, 1.9468269e+2, -1063630.6, -1147065.1, -20181.813, 0.00064370275, -0.14195493, -1059005.3, -26910.28, 0.0, 10.000199, 9.999088 
4.350067e+2, 2.0468172e+2, -957245.5, -1050118.5, -32908.992, 0.018193, -0.1452346, -946766.75, -12661.55, 0.0, 10.000279, 9.999043 
4.3501484e+2, 2.1468079e+2, -878250.3, -960423.94, -35730.793, -0.00094850175, -0.14574105, -864887.0, -28771.914, 0.0, 10.000145, 9.999051 
4.3502307e+2, 2.246799e+2, -773991.9, -871311.2, -29152.523, -0.016043128, -0.13250493, -765927.4, -27802.93, 0.0, 10.000238, 9.998944 
4.3503153e+2, 2.346791e+2, -623723.8, -747314.5, -26671.3, -0.02375018, -0.10910264, -618213.7, 21919.037, 0.0, 10.000594, 9.998952 
4.3503985e+2, 2.4467798e+2, -531470.4, -677002.75, -40605.367, -0.020997563, -0.105760545, -520907.63, 21236.125, 0.0, 10.000661, 9.99873 
4.3504807e+2, 2.5467643e+2, -469796.3, -596557.6, -37955.46, -0.0082637435, -0.13558014, -459300.56, -15142.615, 0.0, 10.000411, 9.99873 
4.3505636e+2, 2.6467496e+2, -382757.9, -541283.2, -21188.492, -0.012223977, -0.13880949, -379974.72, -33802.05, 0.0, 10.000498, 9.998395 
4.3506473e+2, 2.7467358e+2, -218424.2, -410826.28, -22727.576, -0.0335344, -0.119736284, -215775.95, 32411.746, 0.0, 10.000951, 9.998399 
4.3507308e+2, 2.8467196e+2, -89702.96, -288309.53, -33432.184, -0.043610226, -0.12404665, -84226.23, 65977.22, 0.0, 10.001121, 9.9984865 
4.3508145e+2, 2.946701e+2, -11834.852, -202956.83, -29391.115, -0.04242686, -0.16270554, -7417.1416, 44802.863, 0.0, 10.000995, 9.99846 
4.3509075e+2, 3.0466917e+2, -21991.553, -269232.3, 13180.903, -0.029875092, -0.06201485, -21290.838, -21290.838, 0.0, 10.000964, 9.997685 
4.351003e+2, 3.146663e+2, 121574.35, 13181.525, -57293.496, -0.059112776, -0.12281867, 146243.63, 146243.63, 0.0000001100893, 10.00103, 9.999594 
4.449419e+2, 1.2467613e+2, -1720274.5, -1745199.1, 104894.52, -0.011335437, -0.16015926, -1627104.6, 91051.74, 0.000008277144, 10.000094, 9.99974 
4.449489e+2, 1.346757e+2, -1606494.6, -1609016.0, -124852.73, 0.10954419, -0.20990466, -1482896.3, 137264.55, 0.0000015575915, 10.00005, 10.000036 
4.4495443e+2, 1.446765e+2, -1538171.5, -1561577.3, -18175.023, -0.08650599, -0.11422575, -1528257.5, -6104.5273, 0.000000013935479, 10.0000105, 9.9997 
4.4496426e+2, 1.5467563e+2, -1459272.9, -1474595.9, -26122.916, 0.038231697, -0.1745474, -1439711.1, -15548.568, 0.0, 9.99989, 9.9996805 
4.4497338e+2, 1.6467512e+2, -1362969.6, -1394350.8, -22981.285, 0.09796442, -0.1841426, -1350833.4, -24665.154, 0.0, 9.999951, 9.999529 
4.4498116e+2, 1.7467508e+2, -1223310.3, -1274703.0, -28326.766, 0.010561781, -0.14444052, -1210761.3, 17407.754, 0.0, 10.000231, 9.999542 
4.4498938e+2, 1.8467458e+2, -1144832.6, -1234461.8, -29210.84, -0.030561775, -0.1267683, -1136153.1, -5978.896, 0.0, 10.000304, 9.99911 
4.4499832e+2, 1.9467355e+2, -1070602.0, -1148733.6, -22386.93, 0.00457598, -0.14250979, -1064642.1, -32457.713, 0.0, 10.000145, 9.999103 
4.4500694e+2, 2.0467252e+2, -981163.3, -1071565.1, -28446.105, 0.01794149, -0.1474706, -972957.25, -38762.063, 0.0, 10.000158, 9.998954 
4.4501507e+2, 2.146715e+2, -852316.75, -958255.1, -33221.12, -0.0010656251, -0.14825997, -842760.94, -6554.5366, 0.0, 10.000368, 9.998958 
4.4502345e+2, 2.2467059e+2, -750100.5, -862537.2, -27072.686, -0.0128446175, -0.13120379, -743921.5, -5705.3867, 0.0, 10.000416, 9.9989195 
4.4503203e+2, 2.3466985e+2, -671761.06, -773338.9, -31184.674, -0.014256961, -0.10125278, -662951.3, -22727.4, 0.0, 10.000277, 9.998926 
4.4504046e+2, 2.4466866e+2, -565976.44, -695534.56, -50226.496, -0.015228229, -0.10076525, -548785.8, -6550.488, 0.0, 10.000432, 9.998713 
4.4504863e+2, 2.5466698e+2, -396396.06, -562129.5, -54429.426, -0.017151833, -0.14325865, -380119.16, 64131.52, 0.0, 10.00092, 9.99872 
4.4505703e+2, 2.6466545e+2, -314478.44, -506775.0, -41109.27, -0.016492654, -0.151943, -306058.75, 40206.97, 0.0, 10.00096, 9.998408 
4.4506568e+2, 2.7466413e+2, -283185.06, -440894.0, -36658.195, -0.010987268, -0.12769951, -275080.63, -26800.633, 0.0, 10.000502, 9.998409 
4.4507402e+2, 2.8466266e+2, -173697.03, -321337.5, -33262.535, -0.030075297, -0.12134561, -166549.23, -16254.847, 0.0, 10.00051, 9.998554 
4.4508213e+2, 2.94661e+2, -2173.128, -189415.72, -24904.05, -0.07644483, -0.1478284, 1082.6052, 53391.926, 0.0, 10.001022, 9.99854 
4.4509158e+2, 3.046597e+2, -8541.281, -280838.84, 23710.842, -0.05193819, -0.0792487, -6492.0356, -6492.0356, 0.00000000000009396187, 10.001133, 9.997525 
4.451014e+2, 3.1465697e+2, 95692.12, 10047.792, -21741.02, -0.037891474, -0.106844805, 100895.05, 100895.05, 0.00000013361628, 10.000813, 9.999676 
4.5494148e+2, 1.2466699e+2, -1722238.0, -1750784.4, 113268.38, -0.06513373, -0.1482299, -1622347.1, 95898.875, 0.0000061456926, 10.000101, 9.999699 
4.549496e+2, 1.3466603e+2, -1610147.0, -1616843.3, -124652.984, 0.16900592, -0.24400906, -1488797.1, 131457.84, 0.0000010596042, 10.000049, 9.999984 
4.5495498e+2, 1.4466691e+2, -1533478.1, -1550820.9, -21238.498, -0.033585362, -0.14426164, -1519209.0, 3037.6765, 0.000000007555667, 10.000006, 9.999775 
4.5496383e+2, 1.5466645e+2, -1453393.5, -1462486.5, -29761.105, 0.005634102, -0.16881981, -1427833.6, -3581.4148, 0.0, 9.99989, 9.9997635 
4.5497295e+2, 1.6466604e+2, -1372699.9, -1414963.8, -13424.395, 0.057079196, -0.1671237, -1368796.4, -42539.137, 0.0, 9.999953, 9.999386 
4.5498177e+2, 1.7466567e+2, -1234307.4, -1297217.0, -17128.105, 0.048845366, -0.1444934, -1229946.4, -1684.8185, 0.0, 10.00023, 9.999389 
4.549902e+2, 1.8466502e+2, -1132420.0, -1207412.4, -34607.074, 0.022050751, -0.14310151, -1118890.5, 11377.412, 0.0, 10.000299, 9.999298 
4.549984e+2, 1.9466405e+2, -1056858.5, -1119604.1, -27993.217, -0.000028640661, -0.17395276, -1046185.25, -13908.467, 0.0, 10.000143, 9.999304 
4.5500684e+2, 2.0466316e+2, -988880.7, -1086682.3, -21368.324, -0.006601087, -0.17053601, -984415.8, -50129.82, 0.0, 10.0001545, 9.998852 
4.5501542e+2, 2.1466239e+2, -860142.9, -974206.25, -24795.268, -0.0036491607, -0.135482, -854985.94, -18690.508, 0.0, 10.000366, 9.998849 
4.5502397e+2, 2.2466144e+2, -757969.0, -878482.75, -32096.236, 0.00088388287, -0.11198238, -749953.94, -11647.931, 0.0, 10.000414, 9.998811 
4.5503256e+2, 2.346603e+2, -679358.5, -789144.6, -36167.684, 0.009380917, -0.1105248, -668514.56, -28196.92, 0.0, 10.000277, 9.998817 
4.5504102e+2, 2.4465895e+2, -573294.75, -710234.8, -33030.57, -0.0032466264, -0.11626711, -565743.94, -23412.889, 0.0, 10.000429, 9.998613 
4.5504934e+2, 2.546574e+2, -404119.88, -576030.5, -35924.977, -0.039630454, -0.13800262, -396914.47, 47431.62, 0.0, 10.000911, 9.99863 
4.5505777e+2, 2.6465598e+2, -308140.1, -492181.63, -57569.844, -0.040181678, -0.13355508, -291615.44, 54744.418, 0.0, 10.000954, 9.998512 
4.5506626e+2, 2.746548e+2, -275388.16, -425683.5, -53101.703, -0.0020839411, -0.10437596, -258519.72, -10147.812, 0.0, 10.0005045, 9.998512 
4.5507458e+2, 2.8465343e+2, -164796.17, -302348.22, -15640.996, -0.025734901, -0.10184441, -163040.06, -12654.95, 0.0, 10.000509, 9.998685 
4.5508277e+2, 2.9465172e+2, 6833.2104, -167579.03, -6188.058, -0.11513897, -0.14884071, 7052.484, 59452.855, 0.0, 10.001009, 9.998696 
4.550925e+2, 3.046499e+2, 1506.2255, -256219.19, 11726.758, -0.07380876, -0.14528555, 2038.7042, 2038.7042, 0.00000000000087855477, 10.001118, 9.997702 
4.551024e+2, 3.1464776e+2, 118631.76, 57636.484, -30468.479, -0.018494153, -0.13182406, 131243.69, 131243.69, 0.00000014519496, 10.0008135, 10.000002 
4.649418e+2, 1.2465782e+2, -1657244.5, -1721196.8, 130486.234, -0.062787704, -0.16149232, -1554873.6, 163461.66, 0.000004581255, 10.00056, 9.999678 
4.649498e+2, 1.3465673e+2, -1604355.6, -1618357.0, -117581.97, 0.18526348, -0.26788104, -1493566.1, 126779.48, 0.0000007444035, 10.000106, 9.999946 
4.6495494e+2, 1.446577e+2, -1541193.6, -1560331.0, -7454.4414, -0.035114154, -0.15391906, -1538632.6, -16296.148, 0.0000000034677494, 9.999979, 9.999723 
4.6496382e+2, 1.5465735e+2, -1421100.8, -1452328.5, -27010.736, 0.007213842, -0.1625811, -1405515.6, 18825.826, 0.0, 10.000136, 9.999715 
4.6497306e+2, 1.6465689e+2, -1337917.3, -1400540.6, -6626.5327, 0.060886055, -0.16081765, -1337223.8, -10876.896, 0.0, 10.000202, 9.999366 
4.6498203e+2, 1.7465635e+2, -1244625.5, -1304591.1, -1040.5782, 0.052739438, -0.15597135, -1244607.4, -16254.809, 0.0, 10.000169, 9.999368 
4.6499053e+2, 1.846556e+2, -1143699.6, -1220645.8, -24932.32, 0.026847148, -0.15758234, -1136327.4, -5967.524, 0.0, 10.000256, 9.9992285 
4.6499878e+2, 1.946547e+2, -1010545.3, -1105217.6, -38614.223, 0.0065756226, -0.17348917, -996793.25, 35575.332, 0.0, 10.000495, 9.999232 
4.6500725e+2, 2.046539e+2, -931976.6, -1053475.3, -38427.883, 0.002012986, -0.16126968, -920842.8, 13534.432, 0.0, 10.000521, 9.998903 
4.6501583e+2, 2.1465318e+2, -867641.2, -971857.6, -30714.266, 0.005131982, -0.12469331, -859262.8, -22877.07, 0.0, 10.00029, 9.998902 
4.650244e+2, 2.2465216e+2, -775948.94, -895827.75, -25829.486, 0.006228346, -0.10790871, -770620.44, -32223.6, 0.0, 10.000327, 9.9987335 
4.65033e+2, 2.3465079e+2, -627639.8, -772734.1, -27973.947, 0.007295339, -0.12166647, -622433.3, 17977.576, 0.0, 10.0006695, 9.99874 
4.6504158e+2, 2.4464944e+2, -539153.8, -699914.7, -22671.59, -0.002633227, -0.12045408, -536017.7, 6406.9497, 0.0, 10.000691, 9.998557 
4.650501e+2, 2.5464812e+2, -489716.75, -624167.7, -23606.951, -0.02446385, -0.11081964, -485692.28, -41254.344, 0.0, 10.000352, 9.998569 
4.6505857e+2, 2.6464674e+2, -385576.63, -524689.4, -47349.08, -0.02741504, -0.104725525, -370990.13, -24538.396, 0.0, 10.000401, 9.998556 
4.6506685e+2, 2.7464533e+2, -216264.22, -391583.13, -48541.563, -0.011279323, -0.106634334, -203721.56, 44744.098, 0.0, 10.000888, 9.998562 
4.6507522e+2, 2.8464392e+2, -111703.68, -285377.72, -20719.625, -0.033107743, -0.10188506, -109266.01, 41212.715, 0.0, 10.000911, 9.998608 
4.650837e+2, 2.9464248e+2, -88438.52, -221396.84, -28892.82, -0.090848096, -0.1111731, -82431.31, -29939.525, 0.0, 10.000388, 9.998626 
4.6509352e+2, 3.0464026e+2, -86006.97, -275090.1, -9374.548, -0.04440298, -0.15926477, -85543.32, -85543.32, 0.00000000000042122027, 10.000415, 9.9979105 
4.651031e+2, 3.1463838e+2, 173645.05, 109927.85, -46029.797, -0.047367483, -0.14342636, 197766.03, 197766.03, 0.00000014428599, 10.001078, 10.0002365 
4.749429e+2, 1.2464858e+2, -1659075.4, -1724372.0, 122460.12, -0.010846356, -0.20213117, -1564986.1, 153438.2, 0.0000033199578, 10.000556, 9.999658 
4.749496e+2, 1.3464776e+2, -1606200.6, -1624152.8, -132300.42, 0.15213771, -0.277741, -1482572.1, 137860.3, 0.00000048107097, 10.000113, 9.999904 
4.749543e+2, 1.4464888e+2, -1551588.6, -1584003.0, -1830.0375, -0.098097265, -0.13877255, -1551485.6, -29063.297, 0.000000000765976, 9.999987, 9.9995575 
4.7496435e+2, 1.5464826e+2, -1433587.1, -1477471.1, -20409.314, 0.0424445, -0.15738994, -1425562.6, -1132.1238, 0.0, 10.000133, 9.999543 
4.7497377e+2, 1.6464764e+2, -1331856.3, -1386769.4, -7495.622, 0.108609706, -0.16657905, -1330851.5, -4414.3906, 0.0, 10.000196, 9.999462 
4.7498184e+2, 1.7464703e+2, -1236722.9, -1288407.3, -1550.8269, 0.017590098, -0.1784912, -1236676.4, -8234.071, 0.0, 10.00017, 9.999478 
4.749903e+2, 1.8464634e+2, -1166011.4, -1267057.8, -16590.086, -0.021644209, -0.16866107, -1163357.4, -32907.484, 0.0, 10.000256, 9.99891 
4.7499946e+2, 1.9464554e+2, -1033928.6, -1153970.3, -28938.164, 0.023758844, -0.14119199, -1027316.75, 5143.1064, 0.0, 10.000495, 9.9988985 
4.750082e+2, 2.0464471e+2, -919653.8, -1026374.0, -46604.773, 0.042623486, -0.12026359, -902166.8, 32302.207, 0.0, 10.000514, 9.999092 
4.750163e+2, 2.1464391e+2, -853080.9, -941478.56, -39215.215, 0.023132898, -0.11591642, -838191.9, -1714.655, 0.0, 10.000289, 9.999111 
4.750247e+2, 2.2464277e+2, -779322.94, -902226.75, -14244.139, 0.0006064066, -0.11861037, -777693.7, -39204.938, 0.0, 10.000323, 9.998692 
4.7503337e+2, 2.3464131e+2, -631174.44, -779289.56, -14671.458, -0.022026526, -0.13561656, -629735.1, 10768.525, 0.0, 10.000666, 9.998697 
4.7504213e+2, 2.4464014e+2, -541131.8, -703645.9, -34956.094, -0.015301321, -0.11483297, -533931.9, 8584.349, 0.0, 10.0006895, 9.998533 
4.7505096e+2, 2.546392e+2, -491233.9, -628301.3, -36124.367, 0.025137173, -0.061942816, -482296.1, -37769.72, 0.0, 10.000356, 9.998539 
4.7505942e+2, 2.6463774e+2, -386956.94, -527685.75, -30354.99, 0.019224824, -0.0646616, -380688.6, -34147.203, 0.0, 10.0004015, 9.998535 
4.7506744e+2, 2.746356e+2, -218568.6, -393725.22, -29924.24, -0.041022155, -0.13293512, -213597.34, 34963.953, 0.0, 10.000876, 9.998552 
4.7507593e+2, 2.8463417e+2, -132323.94, -326263.28, -39281.42, -0.054368384, -0.120390706, -124669.77, 25905.504, 0.0, 10.000902, 9.998331 
4.750849e+2, 2.9463336e+2, -106749.09, -261280.58, -47710.99, -0.0094699105, -0.0384211, -93205.51, -40621.637, 0.0, 10.000397, 9.998348 
4.750947e+2, 3.046307e+2, -69485.08, -240569.16, 13387.768, 0.031485688, -0.12567374, -68443.79, -68443.79, 0.0, 10.000415, 9.998148 
4.7510332e+2, 3.1462863e+2, 181744.38, 132146.5, -14288.742, -0.12996039, -0.15130882, 185566.33, 185566.33, 0.00000012581201, 10.001055, 10.000399 
4.8494342e+2, 1.2463974e+2, -1712138.6, -1750399.0, 120410.32, 0.0053038117, -0.19825032, -1609348.4, 109162.23, 0.0000022837717, 10.000197, 9.999651 
4.849499e+2, 1.3463889e+2, -1586189.8, -1618527.3, -142435.73, 0.16364455, -0.27356505, -1459008.0, 161510.98, 0.0000002759338, 10.000266, 9.999869 
4.8495436e+2, 1.4463994e+2, -1504677.8, -1571910.5, 933.0317, -0.10954894, -0.13547501, -1504664.9, 17844.662, 0.000000000009128432, 10.000355, 9.999463 
4.8496464e+2, 1.5463904e+2, -1414234.1, -1479603.0, -14898.265, 0.049367398, -0.17223902, -1410998.8, 13521.427, 0.0, 10.000314, 9.999442 
4.849741e+2, 1.6463834e+2, -1310187.8, -1381228.4, -1866.6528, 0.117835805, -0.18377864, -1310138.8, 16388.99, 0.0, 10.000366, 9.999419 
4.8498213e+2, 1.7463785e+2, -1180440.3, -1265630.0, -7678.423, 0.011989482, -0.17895983, -1179753.8, 48778.13, 0.0, 10.000575, 9.999439 
4.8499063e+2, 1.8463713e+2, -1125000.3, -1256131.9, -22936.88, -0.028631922, -0.16362658, -1121104.0, 9435.698, 0.0, 10.000573, 9.998833 
4.8499987e+2, 1.946362e+2, -1066887.6, -1178573.9, -16983.764, 0.027388979, -0.14188628, -1064362.1, -31810.654, 0.0, 10.000306, 9.998821 
4.8500863e+2, 2.0463534e+2, -951670.1, -1041428.7, -28814.695, 0.049918827, -0.12321216, -943216.2, -8654.828, 0.0, 10.000291, 9.999098 
4.8501676e+2, 2.1463454e+2, -811884.3, -920405.0, -36449.49, 0.026925823, -0.11665085, -800778.4, 35790.703, 0.0, 10.0005665, 9.999123 
4.8502517e+2, 2.2463346e+2, -733279.6, -877611.5, -14430.054, 0.0041699964, -0.1158861, -731851.06, 6728.95, 0.0, 10.000629, 9.998713 
4.8503396e+2, 2.3463206e+2, -661211.8, -791765.25, -11108.761, -0.017040651, -0.12848401, -660273.3, -19678.828, 0.0, 10.00045, 9.998715 
4.8504275e+2, 2.4463089e+2, -567374.75, -717591.1, -30705.574, -0.012973067, -0.10757889, -561340.6, -18733.486, 0.0, 10.000514, 9.998522 
4.850515e+2, 2.546299e+2, -419178.03, -594477.56, -31671.441, 0.01963443, -0.060471788, -413631.44, 30986.615, 0.0, 10.000855, 9.998529 
4.8506004e+2, 2.646284e+2, -321992.6, -498195.06, -23271.926, 0.017780114, -0.06316535, -318970.78, 27662.566, 0.0, 10.000856, 9.998518 
4.8506826e+2, 2.7462634e+2, -281001.75, -426164.8, -23252.787, -0.024073258, -0.12417544, -277367.97, -28715.074, 0.0, 10.000458, 9.998531 
4.8507679e+2, 2.8462493e+2, -196471.53, -366701.34, -25615.293, -0.036270883, -0.10314774, -192700.6, -42033.81, 0.0, 10.000503, 9.998246 
4.850856e+2, 2.9462412e+2, -15992.443, -226354.13, -21371.453, -0.0099989055, -0.01209476, -13843.193, 38832.543, 0.0, 10.001057, 9.99827 
4.8509544e+2, 3.0462116e+2, 16316.279, -190295.75, 37433.664, 0.034452327, -0.1331589, 22889.344, 22889.344, 0.0, 10.000965, 9.998228 
4.8510396e+2, 3.1461957e+2, 33805.62, 46269.457, 663.1442, -0.12184338, -0.11584829, 46304.64, 46304.64, 0.00000009052117, 10.000102, 10.000268 
4.949433e+2, 1.246313e+2, -1712155.3, -1749964.8, 129544.04, -0.026656754, -0.14884628, -1600143.9, 118450.2, 0.0000015131136, 10.0001955, 9.999655 
4.949507e+2, 1.3463008e+2, -1588386.8, -1622432.8, -137611.73, 0.21939644, -0.2570547, -1466749.1, 153856.64, 0.00000014199817, 10.000262, 9.9998455 
4.9495512e+2, 1.4463085e+2, -1507019.0, -1576328.3, 895.52704, -0.070889816, -0.14496323, -1507007.5, 15590.935, 0.0, 10.000352, 9.999434 
4.9496466e+2, 1.5462969e+2, -1415760.5, -1483745.4, -15917.261, 0.02174908, -0.20479918, -1412218.3, 12392.206, 0.0, 10.000319, 9.999412 
4.949741e+2, 1.6462897e+2, -1321974.1, -1407477.9, 4522.4644, 0.08134509, -0.2084132, -1321735.6, 4882.807, 0.0, 10.000374, 9.999236 
4.9498296e+2, 1.7462875e+2, -1193629.3, -1293337.8, 817.4672, 0.035552155, -0.15774484, -1193622.5, 34998.87, 0.0, 10.000576, 9.9992485 
4.9499154e+2, 1.8462802e+2, -1114354.3, -1232634.9, -32313.88, 0.004943865, -0.14263125, -1106101.9, 24527.617, 0.0, 10.000567, 9.998997 
4.9500006e+2, 1.946267e+2, -1054138.8, -1152457.8, -26636.934, 0.014885518, -0.17613797, -1047386.0, -14742.52, 0.0, 10.000307, 9.999 
4.9500865e+2, 2.0462571e+2, -963998.94, -1066347.3, -19632.404, 0.020310514, -0.17039852, -960362.25, -25708.016, 0.0, 10.000288, 9.998928 
4.950172e+2, 2.146251e+2, -824752.25, -946816.8, -25340.871, 0.015137778, -0.1281271, -819700.5, 16960.725, 0.0, 10.000564, 9.998943 
4.950259e+2, 2.2462422e+2, -729261.8, -868199.7, -20915.385, 0.014236115, -0.10153423, -726181.56, 12489.302, 0.0, 10.000625, 9.998779 
4.9503478e+2, 2.3462304e+2, -655983.2, -781257.3, -17709.113, 0.020801963, -0.099551655, -653527.9, -12844.591, 0.0, 10.000451, 9.998788 
4.9504343e+2, 2.4462172e+2, -567571.25, -717509.6, -18955.822, 0.0031082972, -0.09715572, -565211.9, -22514.633, 0.0, 10.000512, 9.998524 
4.9505177e+2, 2.546202e+2, -419484.28, -593786.94, -18432.813, -0.042174414, -0.10532668, -417556.3, 27156.729, 0.0, 10.00085, 9.998537 
4.9506035e+2, 2.6461875e+2, -323799.56, -501050.84, -37676.277, -0.033625517, -0.10047638, -316123.56, 30604.219, 0.0, 10.000853, 9.9985 
4.9506932e+2, 2.7461746e+2, -282232.34, -429326.84, -37823.49, 0.03552078, -0.08268569, -273076.44, -24335.676, 0.0, 10.000461, 9.998508 
4.9507782e+2, 2.846162e+2, -190631.73, -354126.7, -6410.744, 0.018407244, -0.051425204, -190380.75, -39627.242, 0.0, 10.000501, 9.998334 
4.9508584e+2, 2.9461482e+2, -9637.235, -210379.48, 353.5119, -0.09209726, -0.028454784, -9636.613, 43130.703, 0.0, 10.001045, 9.998385 
4.9509567e+2, 3.0461156e+2, 9016.258, -202357.81, 6749.8096, -0.035581797, -0.17806076, 9231.581, 9231.581, 0.0, 10.000953, 9.998151 
4.9510497e+2, 3.1461102e+2, 5956.1914, -11028.666, -24631.877, -0.034167, -0.046381038, 23518.527, 23518.527, 0.000000050936965, 10.000101, 9.999874 
5.0494355e+2, 1.2462228e+2, -1667375.5, -1738408.4, 132071.53, -0.034857444, -0.15458885, -1566128.3, 152553.88, 0.0000009949754, 10.000549, 9.999561 
5.0495124e+2, 1.3462095e+2, -1579783.3, -1632684.0, -149190.81, 0.23923059, -0.25965923, -1454716.3, 165979.03, 0.000000065122016, 10.000381, 9.999719 
5.0495553e+2, 1.4462167e+2, -1500980.1, -1574976.5, -8641.1875, -0.06756779, -0.14532664, -1499984.4, 22704.01, 0.0, 10.0004, 9.999421 
5.04965e+2, 1.5462048e+2, -1377711.4, -1466747.5, -26869.242, 0.013109417, -0.20800328, -1370231.1, 54469.21, 0.0, 10.000585, 9.9994 
5.0497454e+2, 1.6461967e+2, -1295401.3, -1407513.0, -4652.2393, 0.07307042, -0.21326078, -1295208.6, 31500.572, 0.0, 10.00061, 9.999122 
5.0498354e+2, 1.7461935e+2, -1224837.4, -1321586.5, -3777.8643, 0.043319307, -0.1609227, -1224690.0, 4023.8845, 0.0, 10.000418, 9.999131 
5.049921e+2, 1.8461867e+2, -1122443.0, -1225551.5, -33794.246, 0.015528725, -0.14045875, -1112354.0, 18367.893, 0.0, 10.000464, 9.999096 
5.050006e+2, 1.9461757e+2, -972836.9, -1101188.6, -34137.28, 0.011073149, -0.16318227, -964322.3, 68410.87, 0.0, 10.000813, 9.999108 
5.050091e+2, 2.0461656e+2, -894779.3, -1043271.75, -30869.104, 0.013458144, -0.1604375, -888617.8, 46126.094, 0.0, 10.000806, 9.998837 
5.050177e+2, 2.1461566e+2, -858680.8, -973881.1, -31760.445, 0.01623587, -0.13779381, -850504.8, -13750.843, 0.0, 10.000377, 9.998847 
5.050264e+2, 2.2461471e+2, -777652.0, -887817.2, -19525.283, 0.02030148, -0.11332694, -774293.75, -35529.54, 0.0, 10.000277, 9.998814 
5.0503534e+2, 2.3461378e+2, -638545.44, -768324.25, -19195.045, 0.028264012, -0.093532704, -635765.94, 5008.6, 0.0, 10.000552, 9.998828 
5.0504404e+2, 2.446125e+2, -549527.9, -708020.1, -19267.764, 0.009062069, -0.086250424, -547219.2, -4431.353, 0.0, 10.000633, 9.99853 
5.0505245e+2, 2.546109e+2, -470938.6, -618247.2, -19017.607, -0.0413589, -0.104708776, -468523.03, -23718.316, 0.0, 10.000495, 9.99854 
5.050611e+2, 2.6460943e+2, -368519.72, -519265.16, -42563.984, -0.03390477, -0.102629066, -357331.8, -10512.124, 0.0, 10.000532, 9.998529 
5.0507e+2, 2.7460822e+2, -235416.39, -403818.6, -41038.434, 0.037412964, -0.08058687, -225947.98, 22884.178, 0.0, 10.000771, 9.998534 
5.0507843e+2, 2.8460705e+2, -147807.72, -327453.6, -1379.5503, 0.016622726, -0.042358432, -147797.13, 3046.8843, 0.0, 10.00077, 9.998387 
5.0508654e+2, 2.9460582e+2, -89082.89, -241106.45, 2108.9973, -0.101743646, -0.005416821, -89053.63, -36197.61, 0.0, 10.000468, 9.998452 
5.050964e+2, 3.0460262e+2, -55947.0, -210595.86, 2141.3633, -0.029398955, -0.1668572, -55917.355, -55917.355, 0.0, 10.000408, 9.998356 
5.051057e+2, 3.1460238e+2, 70561.16, 1535.1538, -5452.1855, -0.0020093995, -0.026911408, 70989.16, 70989.16, 0.000000020855737, 10.000626, 9.999708 
5.149442e+2, 1.24612585e+2, -1681538.8, -1766689.4, 129288.9, -0.027875079, -0.22067402, -1587995.5, 130780.08, 0.00000067894854, 10.000544, 9.999371 
5.149514e+2, 1.3461155e+2, -1594490.0, -1664766.9, -154057.86, 0.21706052, -0.2776009, -1471614.1, 149173.3, 0.000000029496794, 10.000386, 9.999496 
5.149555e+2, 1.4461246e+2, -1500871.9, -1576672.0, -2871.8616, -0.10857389, -0.13059779, -1500763.3, 22016.09, 0.0, 10.000407, 9.999406 
5.149657e+2, 1.5461138e+2, -1377694.3, -1466857.4, -19532.748, 0.021169549, -0.18209979, -1373603.0, 51187.098, 0.0, 10.000585, 9.999399 
5.1497537e+2, 1.6461045e+2, -1298002.8, -1412376.3, -11846.0625, 0.09136633, -0.19850354, -1296788.6, 30011.42, 0.0, 10.0006075, 9.99909 
5.1498383e+2, 1.7460966e+2, -1226706.1, -1326278.3, -10692.162, 0.031741224, -0.18910877, -1225570.9, 3238.6426, 0.0, 10.000421, 9.999098 
5.149924e+2, 1.8460909e+2, -1120065.0, -1221151.0, -22095.678, -0.00237628, -0.15655635, -1115446.4, 15370.347, 0.0, 10.000466, 9.9991255 
5.150015e+2, 1.9460878e+2, -970569.7, -1096496.4, -20545.201, 0.014535322, -0.10350788, -967302.44, 65518.16, 0.0, 10.000812, 9.999142 
5.1501006e+2, 2.0460784e+2, -896878.9, -1045908.75, -46306.195, 0.02724275, -0.09408387, -883662.75, 51167.777, 0.0, 10.000799, 9.998823 
5.1501817e+2, 2.1460618e+2, -859784.94, -976626.1, -47584.01, 0.028742168, -0.14530718, -842858.25, -6010.988, 0.0, 10.000379, 9.998828 
5.150267e+2, 2.2460493e+2, -777367.8, -886906.5, -10515.415, 0.020303508, -0.15121904, -776367.5, -37507.33, 0.0, 10.000275, 9.99882 
5.150357e+2, 2.3460421e+2, -637983.1, -766951.44, -8223.597, 0.0036724138, -0.11127359, -637460.8, 3407.3945, 0.0, 10.00055, 9.998838 
5.150446e+2, 2.4460322e+2, -549759.06, -707817.3, -24504.373, 0.0017662143, -0.07719888, -546047.2, -3168.1255, 0.0, 10.00063, 9.998533 
5.150535e+2, 2.5460196e+2, -471035.9, -618298.6, -24012.023, 0.019007998, -0.059734512, -467219.53, -22326.373, 0.0, 10.000494, 9.998541 
5.150621e+2, 2.646004e+2, -364295.6, -509929.3, -34176.977, 0.014994476, -0.06935961, -356673.9, -9764.792, 0.0, 10.000529, 9.998595 
5.150702e+2, 2.7459857e+2, -230987.34, -393744.66, -31257.65, -0.018678488, -0.115600884, -225190.73, 23736.254, 0.0, 10.000766, 9.998606 
5.150786e+2, 2.845975e+2, -148082.34, -326108.66, -12139.351, -0.043354135, -0.074763924, -147258.39, 3679.9392, 0.0, 10.000761, 9.9984 
5.1508754e+2, 2.945972e+2, -88578.4, -238424.98, -8431.292, -0.0459602, 0.053015634, -88105.49, -35163.11, 0.0, 10.000462, 9.998473 
5.150976e+2, 3.045943e+2, -23972.023, -142582.78, 8703.059, 0.047232963, -0.1033597, -23336.838, -23336.838, 0.0, 10.000401, 9.998828 
5.15106e+2, 3.1459355e+2, 74725.16, 11927.207, 10041.01, -0.026694031, -0.054997213, 76291.58, 76291.58, 0.0000000053166334, 10.000618, 9.9997835 
5.249449e+2, 1.2460348e+2, -1676096.3, -1763957.1, 123619.555, -0.01437414, -0.21655972, -1588833.4, 130032.1, 0.0000005002885, 10.000585, 9.999368 
5.249518e+2, 1.3460237e+2, -1557727.9, -1651469.5, -152027.34, 0.21097876, -0.27546117, -1445510.0, 175367.8, 0.000000016983103, 10.000657, 9.999457 
5.249558e+2, 1.4460322e+2, -1463950.4, -1564032.9, 8221.39, -0.13145854, -0.13041402, -1463279.5, 59590.805, 0.0, 10.000684, 9.999359 
5.2496636e+2, 1.5460216e+2, -1393068.6, -1479482.3, -13567.292, 0.03396727, -0.17467268, -1390988.6, 33892.313, 0.0, 10.000503, 9.999352 
5.24976e+2, 1.646012e+2, -1317340.5, -1422742.1, -5589.1216, 0.10771448, -0.19054443, -1317044.9, 9846.228, 0.0, 10.000479, 9.999082 
5.2498424e+2, 1.7460035e+2, -1189261.8, -1309565.3, -4178.0186, 0.018337894, -0.18779236, -1189116.8, 39784.57, 0.0, 10.000682, 9.999088 
5.249929e+2, 1.8459976e+2, -1092045.9, -1207308.0, -14482.344, -0.019477028, -0.1554345, -1090254.1, 40654.504, 0.0, 10.000656, 9.999129 
5.2500206e+2, 1.9459955e+2, -1038535.6, -1128185.9, -15986.61, 0.020581838, -0.094461806, -1035770.2, -2858.4475, 0.0, 10.000341, 9.99915 
5.2501076e+2, 2.0459865e+2, -960849.6, -1080676.3, -42484.184, 0.038831387, -0.08083648, -947315.56, -12394.152, 0.0, 10.000377, 9.998787 
5.2501875e+2, 2.1459696e+2, -797739.6, -950761.44, -46121.684, 0.02551194, -0.13066542, -784913.4, 52025.113, 0.0, 10.000822, 9.998791 
5.2502716e+2, 2.2459562e+2, -691537.1, -852330.5, -13775.059, 0.011871869, -0.14048003, -690365.56, 48586.69, 0.0, 10.000894, 9.998761 
5.250362e+2, 2.345947e+2, -645375.0, -776959.2, -17574.756, 0.00028759742, -0.11280716, -643068.1, -2105.964, 0.0, 10.000528, 9.99878 
5.2504516e+2, 2.4459374e+2, -575850.9, -708869.8, -30193.004, 0.003695649, -0.07957449, -569318.4, -26345.55, 0.0, 10.0004015, 9.998636 
5.250541e+2, 2.5459272e+2, -455801.56, -598569.8, -22774.717, 0.025675578, -0.04857003, -452256.53, -7272.102, 0.0, 10.000546, 9.998651 
5.250627e+2, 2.645913e+2, -353749.3, -498210.0, -26501.861, 0.021064408, -0.052980836, -349040.9, -2041.9885, 0.0, 10.000573, 9.998654 
5.250708e+2, 2.7458948e+2, -271970.1, -406432.78, -24495.8, -0.018568909, -0.10639638, -267646.6, -18629.793, 0.0, 10.000455, 9.998668 
5.2507925e+2, 2.845883e+2, -192731.63, -341888.9, -9320.919, -0.04214698, -0.07523123, -192151.42, -41122.82, 0.0, 10.00043, 9.99845 
5.250881e+2, 2.94588e+2, -78344.195, -228590.14, -4784.3105, -0.036557283, 0.045256324, -78192.0, -25158.754, 0.0, 10.00051, 9.998518 
5.250981e+2, 3.0458546e+2, 7920.035, -100355.21, 11025.843, 0.054832056, -0.09214248, 9031.407, 9031.407, 0.0, 10.000504, 9.999068 
5.251064e+2, 3.1458503e+2, 30459.59, -22526.238, 846.2398, -0.037671912, -0.03914822, 30473.102, 30473.102, 0.00000000056215, 10.000369, 9.999667 
5.3494555e+2, 1.24594994e+2, -1663770.5, -1740444.9, 127020.484, -0.00825487, -0.13716249, -1569427.9, 149523.67, 0.00000041209, 10.000593, 9.999525 
5.349526e+2, 1.3459341e+2, -1547978.1, -1632820.1, -147892.17, 0.21811983, -0.25387996, -1436543.3, 184423.6, 0.000000018082496, 10.000662, 9.999584 
5.349564e+2, 1.4459394e+2, -1468924.9, -1573924.9, 1755.398, -0.13918552, -0.1461145, -1468895.6, 54066.21, 0.0, 10.000681, 9.999292 
5.34967e+2, 1.5459286e+2, -1398393.3, -1490839.5, -20508.342, 0.04792282, -0.18555084, -1394047.9, 30924.766, 0.0, 10.0005045, 9.999273 
5.3497654e+2, 1.64592e+2, -1316929.6, -1422632.1, 470.8213, 0.116626, -0.18736117, -1316927.5, 10054.494, 0.0, 10.000482, 9.999082 
5.3498477e+2, 1.7459142e+2, -1188518.4, -1308564.9, 4025.2683, 0.0007734265, -0.15676127, -1188383.6, 40605.79, 0.0, 10.000684, 9.999095 
5.349933e+2, 1.845907e+2, -1093647.9, -1210005.3, -25999.17, -0.03863633, -0.1371344, -1088102.9, 42894.813, 0.0, 10.000654, 9.999112 
5.3500247e+2, 1.9458985e+2, -1039870.56, -1131279.4, -27760.633, 0.02708401, -0.13715675, -1032100.25, 906.45526, 0.0, 10.000342, 9.999129 
5.350112e+2, 2.0458895e+2, -965210.8, -1088821.4, -27173.115, 0.04555672, -0.121398084, -959501.1, -24484.404, 0.0, 10.000374, 9.998733 
5.3501934e+2, 2.1458797e+2, -802381.0, -959560.75, -28840.373, 0.0044813915, -0.094960555, -797256.25, 39771.453, 0.0, 10.000818, 9.9987335 
5.350279e+2, 2.2458674e+2, -701144.25, -871197.7, -26928.76, -0.0077201715, -0.083132334, -696981.8, 42058.97, 0.0, 10.000889, 9.998633 
5.3503686e+2, 2.3458527e+2, -654285.2, -796132.3, -30982.887, 0.016309097, -0.09819127, -647813.06, -6756.739, 0.0, 10.00053, 9.998649 
5.350457e+2, 2.4458404e+2, -561778.9, -679493.3, -25508.07, 0.012936987, -0.09332071, -556489.1, -13420.002, 0.0, 10.000401, 9.998838 
5.3505415e+2, 2.5458315e+2, -441076.13, -567840.2, -16774.38, -0.022470778, -0.07106683, -438893.97, 6184.582, 0.0, 10.000545, 9.998863 
5.3506285e+2, 2.645821e+2, -350895.03, -491224.88, -30850.174, -0.017572224, -0.054799955, -344412.38, 2677.0396, 0.0, 10.000568, 9.998704 
5.3507173e+2, 2.745808e+2, -269260.63, -399604.16, -28573.313, 0.03287638, -0.055373102, -263272.06, -14170.083, 0.0, 10.00045, 9.998717 
5.350802e+2, 2.8457955e+2, -187417.77, -329283.56, -6934.146, 0.015787063, -0.044684887, -187079.64, -35964.563, 0.0, 10.000423, 9.998541 
5.3508824e+2, 2.945783e+2, -73168.45, -217095.25, -596.01764, -0.07297096, -0.024872378, -73165.984, -20037.61, 0.0, 10.000506, 9.998599 
5.35098e+2, 3.0457607e+2, 7370.7886, -99550.93, 6042.7593, -0.006485681, -0.13122028, 7711.216, 7711.216, 0.0, 10.000496, 9.999077 
5.351067e+2, 3.1457666e+2, 8020.545, -65648.74, 3923.694, -0.04428416, 0.018118357, 8228.935, 8228.935, 0.0000000000003731001, 10.000355, 9.999377 
5.449462e+2, 1.2458605e+2, -1655689.3, -1735858.9, 136685.16, -0.0077395393, -0.10944662, -1553332.4, 165708.38, 0.00000036785775, 10.000646, 9.999532 
5.449534e+2, 1.3458441e+2, -1551479.8, -1637863.1, -150998.0, 0.23948729, -0.23058508, -1437617.5, 183438.98, 0.000000024396927, 10.000651, 9.999556 
5.4495716e+2, 1.4458479e+2, -1467588.4, -1572808.6, -7708.9194, -0.1350433, -0.13408889, -1467026.6, 56026.027, 0.0, 10.0006895, 9.999295 
5.449675e+2, 1.5458371e+2, -1363570.8, -1473909.0, -27617.166, 0.03204059, -0.17412367, -1357044.4, 68019.15, 0.0, 10.000742, 9.999275 
5.44977e+2, 1.6458285e+2, -1284168.4, -1405974.9, 468.2354, 0.10049991, -0.17585658, -1284166.6, 42905.97, 0.0, 10.000704, 9.999088 
5.449855e+2, 1.745823e+2, -1210790.5, -1317626.6, 3858.0203, 0.01323251, -0.14372632, -1210651.4, 18427.88, 0.0, 10.000527, 9.999105 
5.4499406e+2, 1.845815e+2, -1111650.5, -1229599.3, -28367.893, -0.023011575, -0.1282489, -1105182.4, 25905.918, 0.0, 10.000578, 9.999014 
5.4500294e+2, 1.9458045e+2, -964351.4, -1106549.4, -37584.457, 0.013051646, -0.13866511, -955028.6, 78071.195, 0.0, 10.000912, 9.999024 
5.450116e+2, 2.0457952e+2, -886804.56, -1047202.6, -36612.54, 0.023208195, -0.120343074, -878842.6, 56267.62, 0.0, 10.000895, 9.998768 
5.4502e+2, 2.1457875e+2, -851179.3, -978079.06, -31557.814, -0.00039981713, -0.07729057, -843764.6, -6645.4683, 0.0, 10.000462, 9.998777 
5.450285e+2, 2.2457762e+2, -780814.7, -910392.4, -22546.732, -0.0054353573, -0.05914905, -777003.6, -37872.117, 0.0, 10.000345, 9.998626 
5.450374e+2, 2.3457608e+2, -644454.06, -792161.06, -18538.457, 0.013055902, -0.07979455, -642162.9, -1015.0905, 0.0, 10.000602, 9.998641 
5.450461e+2, 2.4457482e+2, -524664.44, -656405.1, -13119.284, 0.006837419, -0.079897985, -523370.66, 19790.217, 0.0, 10.000634, 9.998884 
5.4505455e+2, 2.5457394e+2, -458529.94, -570622.7, -17003.678, -0.028095441, -0.06183505, -456007.34, -10837.437, 0.0, 10.000402, 9.998911 
5.450633e+2, 2.6457292e+2, -384773.13, -494026.75, -34547.375, -0.01940012, -0.048539013, -374765.5, -27585.549, 0.0, 10.0002775, 9.998825 
5.4507214e+2, 2.7457175e+2, -286618.84, -394347.8, -27984.41, 0.038441207, -0.05305513, -279783.2, -30591.734, 0.0, 10.000272, 9.998839 
5.450806e+2, 2.8457052e+2, -204850.64, -331364.3, -494.12054, 0.021083232, -0.04587566, -204848.7, -53644.664, 0.0, 10.000277, 9.998597 
5.4508865e+2, 2.945694e+2, -101435.13, -224451.95, 2947.9744, -0.07688362, -0.022343544, -101364.53, -48147.758, 0.0, 10.000287, 9.998652 
5.4509825e+2, 3.0456764e+2, -13443.437, -90345.14, 10008.2705, -0.014410325, -0.09432882, -12162.268, -12162.268, 0.0, 10.000269, 9.999249 
5.4510695e+2, 3.145678e+2, -15508.461, -80536.73, 25243.535, -0.04636836, 0.0025995113, -6859.4443, -6859.4443, 0.000000000015387011, 10.000207, 9.999346 
5.549467e+2, 1.245766e+2, -1663918.5, -1753003.0, 135569.34, -0.01848897, -0.13827579, -1565761.5, 153372.14, 0.0000003291145, 10.000646, 9.9994135 
5.549544e+2, 1.3457537e+2, -1561793.4, -1660627.4, -150103.94, 0.2722033, -0.20459995, -1453181.3, 167965.42, 0.000000025104656, 10.000657, 9.999396 
5.549579e+2, 1.4457583e+2, -1463502.4, -1565607.9, -6305.017, -0.124145664, -0.09229029, -1463114.5, 60027.758, 0.0, 10.000694, 9.999344 
5.549677e+2, 1.5457472e+2, -1358615.0, -1464432.1, -25116.033, -0.0170283, -0.1399132, -1352956.3, 72196.97, 0.0, 10.000745, 9.99934 
5.549773e+2, 1.6457377e+2, -1283151.8, -1402925.1, -6571.9556, 0.056026928, -0.15634272, -1282792.3, 44370.477, 0.0, 10.0007, 9.99911 
5.549864e+2, 1.74573e+2, -1209693.4, -1315022.9, -2800.9944, 0.05367819, -0.14913927, -1209619.0, 19551.9, 0.0, 10.000525, 9.999125 
5.549951e+2, 1.8457216e+2, -1124850.3, -1256613.9, -17027.883, 0.024965746, -0.12919696, -1122685.3, 8495.194, 0.0, 10.000576, 9.99883 
5.5500346e+2, 1.9457132e+2, -978189.75, -1134867.0, -24613.975, -0.02297483, -0.09945285, -974413.9, 58777.363, 0.0, 10.000909, 9.998832 
5.55012e+2, 2.0457037e+2, -878380.44, -1028680.3, -52107.902, -0.030187706, -0.078697935, -862082.3, 73119.76, 0.0, 10.00089, 9.998898 
5.550205e+2, 2.1456932e+2, -841543.3, -957658.0, -47552.69, 0.008295783, -0.07772161, -824554.56, 12658.315, 0.0, 10.00046, 9.9989195 
5.5502903e+2, 2.2456823e+2, -773302.94, -894156.44, -14301.564, 0.016499491, -0.06866944, -771633.56, -32409.117, 0.0, 10.000342, 9.998738 
5.550378e+2, 2.345671e+2, -637176.6, -776595.25, -8580.628, -0.010691451, -0.058103055, -636650.5, 4586.2803, 0.0, 10.000599, 9.998749 
5.550465e+2, 2.4456602e+2, -532674.06, -672219.0, -21470.746, -0.015972342, -0.040785212, -529445.2, 13803.121, 0.0, 10.00063, 9.998776 
5.550553e+2, 2.5456503e+2, -466578.94, -587016.6, -25245.61, 0.005685662, -0.021961352, -461501.16, -16242.467, 0.0, 10.000401, 9.998799 
5.5506384e+2, 2.645638e+2, -371928.2, -466821.66, -35219.03, 0.012481279, -0.034539703, -360285.4, -13014.737, 0.0, 10.000276, 9.999013 
5.55072e+2, 2.7456224e+2, -273412.4, -366953.25, -27726.813, -0.002085521, -0.09853383, -265811.44, -16526.266, 0.0, 10.000271, 9.999028 
5.5508035e+2, 2.8456122e+2, -204523.22, -329566.44, -597.1933, -0.026613204, -0.0788885, -204520.36, -53224.758, 0.0, 10.000272, 9.998611 
5.550891e+2, 2.9456115e+2, -101839.5, -223117.53, 3677.6248, -0.053938236, 0.050135937, -101728.086, -48429.152, 0.0, 10.0002775, 9.998667 
5.5509895e+2, 3.0455998e+2, 9303.063, -40934.848, 6841.8237, 0.024774607, 0.016938621, 10218.172, 10218.172, 0.0, 10.000259, 9.999593 
5.551072e+2, 3.1455863e+2, 1268.2925, -44834.914, 29251.086, -0.048226833, -0.07690446, 15459.171, 15459.171, 0.0000000020600701, 10.000204, 9.999593 
5.649475e+2, 1.2456721e+2, -1630995.4, -1741018.9, 128668.055, -0.0142074935, -0.14758448, -1546072.3, 173154.13, 0.00000027083397, 10.000893, 9.999374 
5.6495523e+2, 1.3456614e+2, -1530143.4, -1654443.3, -153347.66, 0.2776797, -0.18918702, -1426830.0, 194408.0, 0.000000017878008, 10.000913, 9.999316 
5.649587e+2, 1.4456655e+2, -1443839.3, -1564001.1, -12665.191, -0.12787135, -0.07691374, -1442518.9, 80715.98, 0.0, 10.000863, 9.999272 
5.6496847e+2, 1.5456538e+2, -1370058.1, -1477168.4, -41735.266, -0.014263958, -0.12304517, -1355716.4, 69530.28, 0.0, 10.000699, 9.999272 
5.6497794e+2, 1.6456442e+2, -1284035.6, -1397563.3, -25426.57, 0.05649803, -0.13868962, -1278601.0, 48655.246, 0.0, 10.000671, 9.99916 
5.64987e+2, 1.745637e+2, -1165119.6, -1287952.6, -21001.83, 0.046242353, -0.13068171, -1161628.0, 67635.55, 0.0, 10.000808, 9.999174 
5.649957e+2, 1.8456288e+2, -1107662.1, -1252474.4, -28054.086, 0.018446228, -0.11009607, -1102417.3, 28855.656, 0.0, 10.000711, 9.998793 
5.6500417e+2, 1.94562e+2, -1063685.8, -1180129.6, -24774.426, -0.0205601, -0.080287725, -1058633.9, -25349.564, 0.0, 10.00034, 9.998795 
5.650126e+2, 2.0456107e+2, -957209.94, -1051859.5, -46560.582, -0.025136571, -0.062651776, -938145.5, -2850.5667, 0.0, 10.000285, 9.999029 
5.65021e+2, 2.1456009e+2, -809744.7, -926381.1, -42955.64, 0.0086925775, -0.06830566, -795632.2, 41672.23, 0.0, 10.00061, 9.999062 
5.650295e+2, 2.245591e+2, -720714.4, -858399.3, -8071.2524, 0.009912518, -0.061587922, -720242.8, 19071.785, 0.0, 10.000659, 9.998831 
5.650381e+2, 2.3455809e+2, -662116.7, -778445.75, -4226.0527, -0.026692217, -0.048244745, -661963.3, -20637.762, 0.0, 10.000384, 9.998839 
5.650467e+2, 2.4455705e+2, -587191.44, -693747.94, -15404.807, -0.029652353, -0.033424392, -585009.06, -41672.523, 0.0, 10.000235, 9.99882 
5.6505567e+2, 2.5455603e+2, -487496.0, -592405.5, -8847.654, 0.0081716785, -0.022787783, -486755.06, -41407.85, 0.0, 10.000236, 9.998842 
5.6506413e+2, 2.6455483e+2, -379418.34, -478571.7, -17089.592, 0.016460601, -0.030315056, -376555.53, -29196.43, 0.0, 10.00026, 9.998939 
5.650722e+2, 2.7455336e+2, -273884.53, -375191.7, -30252.463, -0.013800238, -0.07634967, -265538.13, -16164.821, 0.0, 10.000305, 9.998954 
5.650806e+2, 2.845523e+2, -192112.8, -311820.13, -10408.077, -0.038073234, -0.0641497, -191214.6, -39830.223, 0.0, 10.000307, 9.998716 
5.6508946e+2, 2.9455203e+2, -97881.17, -210490.69, 256.96188, -0.045891434, 0.034884002, -97880.586, -44491.797, 0.0, 10.000258, 9.998763 
5.650993e+2, 3.0455127e+2, 4188.773, -55181.992, -7160.6626, 0.032558534, 0.046368834, 5040.2046, 5040.2046, 0.0, 10.000276, 9.999488 
5.651074e+2, 3.145497e+2, 19905.023, -45464.254, -15268.506, -0.05103447, -0.059065863, 23295.484, 23295.484, 0.000000017271022, 10.000373, 9.999507 
5.7494855e+2, 1.24557935e+2, -1628990.8, -1741106.8, 124360.984, -0.0018733528, -0.13704152, -1548637.1, 170681.03, 0.00000019303324, 10.000908, 9.999367 
5.7495594e+2, 1.3455679e+2, -1530701.3, -1657582.5, -151945.63, 0.2527521, -0.18439415, -1429484.1, 191846.17, 0.000000007774616, 10.000918, 9.999293 
5.749593e+2, 1.4455691e+2, -1457544.8, -1591433.8, -19447.758, -0.15010509, -0.0884832, -1454777.1, 68553.016, 0.0, 10.000859, 9.999086 
5.7496965e+2, 1.5455566e+2, -1383223.6, -1504522.0, -47659.652, 0.037927132, -0.12378318, -1366738.1, 58605.61, 0.0, 10.000699, 9.999084 
5.7497907e+2, 1.645548e+2, -1279447.5, -1388356.6, -21111.04, 0.09944219, -0.123225346, -1275498.5, 51854.508, 0.0, 10.000671, 9.999224 
5.7498723e+2, 1.7455442e+2, -1159655.5, -1277245.9, -15345.666, -0.011061394, -0.088606566, -1157685.9, 71671.19, 0.0, 10.000809, 9.9992485 
5.749958e+2, 1.8455367e+2, -1100462.6, -1236914.6, -41752.625, -0.045994718, -0.071197756, -1088700.6, 42664.906, 0.0, 10.00071, 9.9989 
5.750049e+2, 1.945525e+2, -1056229.8, -1164070.4, -38707.605, 0.017543579, -0.081110634, -1043774.8, -10395.618, 0.0, 10.000338, 9.998906 
5.750135e+2, 2.045516e+2, -948012.94, -1032025.25, -35969.383, 0.036361884, -0.07216755, -934717.06, 671.8214, 0.0, 10.000281, 9.999167 
5.7502156e+2, 2.1455106e+2, -800308.5, -906086.8, -30435.2, -0.0011532197, -0.04899016, -792176.6, 45217.215, 0.0, 10.000607, 9.999203 
5.750298e+2, 2.245502e+2, -715826.5, -847603.0, -17852.643, -0.026895706, -0.03821569, -713450.7, 25951.455, 0.0, 10.000656, 9.998907 
5.750384e+2, 2.3454902e+2, -657173.7, -767763.2, -14212.277, -0.036930382, -0.050646648, -655376.44, -13962.093, 0.0, 10.000382, 9.998914 
5.7504696e+2, 2.4454789e+2, -574122.0, -666406.56, -16267.689, -0.036256295, -0.0580128, -571338.3, -27912.666, 0.0, 10.000234, 9.999008 
5.750556e+2, 2.5454688e+2, -474607.47, -565427.0, -8749.658, -0.021961845, -0.06368657, -473772.2, -28336.598, 0.0, 10.000235, 9.999028 
5.750641e+2, 2.6454598e+2, -402718.56, -526664.1, -15973.021, -0.008374767, -0.035654925, -400693.2, -53247.785, 0.0, 10.000258, 9.99861 
5.7507265e+2, 2.745451e+2, -298126.66, -424737.0, -28247.605, -0.00029476426, 0.012167459, -292110.3, -42654.27, 0.0, 10.0003, 9.998615 
5.750811e+2, 2.845437e+2, -179007.55, -283287.8, -12607.561, -0.017418379, -0.0023004634, -177504.94, -26034.408, 0.0, 10.000301, 9.998915 
5.750896e+2, 2.94542e+2, -84975.83, -183106.27, -1101.7926, -0.054655712, -0.06631487, -84963.46, -31477.201, 0.0, 10.000256, 9.998952 
5.750993e+2, 3.0454156e+2, -35646.53, -136697.81, -4566.1367, 0.007793144, -0.004738419, -35440.62, -35440.62, 0.00000000021282408, 10.00027, 9.998931 
5.751077e+2, 3.145411e+2, -12262.116, -108436.09, -5215.128, -0.06113512, 0.05567739, -11980.147, -11980.147, 0.0000000699572, 10.000356, 9.999083 
5.8494955e+2, 1.2454875e+2, -1607980.1, -1725811.6, 121848.34, 0.002716302, -0.11925064, -1531551.5, 187857.98, 0.00000011738098, 10.001033, 9.999412 
5.8495677e+2, 1.3454758e+2, -1528306.0, -1654997.9, -148087.78, 0.245712, -0.16943802, -1430584.5, 190837.13, 0.0000000014227642, 10.000933, 9.999302 
5.849601e+2, 1.4454755e+2, -1457258.9, -1592162.6, -8589.513, -0.16104428, -0.08879089, -1456714.3, 66708.7, 0.0, 10.000866, 9.999077 
5.849706e+2, 1.5454641e+2, -1362350.5, -1495319.0, -25095.217, 0.05251262, -0.112994894, -1357771.9, 67663.62, 0.0, 10.000847, 9.999077 
5.849799e+2, 1.645456e+2, -1272678.6, -1395115.1, 6300.4946, 0.11374306, -0.10458337, -1272355.3, 55089.688, 0.0, 10.00076, 9.999135 
5.849879e+2, 1.7454515e+2, -1196594.1, -1305287.4, -838.2382, -0.020408327, -0.06672254, -1196587.8, 32862.53, 0.0, 10.000601, 9.999155 
5.849963e+2, 1.845444e+2, -1116427.3, -1231423.9, -37917.95, -0.057614017, -0.04809887, -1105050.1, 26408.395, 0.0, 10.000544, 9.999017 
5.850054e+2, 1.9454333e+2, -1008757.8, -1126940.1, -34637.97, 0.025561402, -0.05983202, -999354.0, 34116.23, 0.0, 10.000603, 9.999033 
5.85014e+2, 2.0454244e+2, -911704.0, -1018714.8, -28662.451, 0.044553753, -0.05598498, -904510.44, 30969.123, 0.0, 10.000549, 9.999129 
5.8502185e+2, 2.1454176e+2, -838248.5, -929539.2, -37618.81, -0.015086585, -0.041540083, -824744.25, 12741.676, 0.0, 10.000368, 9.999156 
5.8503014e+2, 2.2454087e+2, -760788.8, -857696.44, -37154.418, -0.04188132, -0.037152264, -748183.44, -8689.0625, 0.0, 10.000297, 9.999011 
5.8503884e+2, 2.3453976e+2, -653103.3, -753256.9, -31654.568, -0.028238619, -0.054032873, -643937.4, -2432.0132, 0.0, 10.000357, 9.999026 
5.8504736e+2, 2.4453868e+2, -549290.94, -649925.9, -33197.95, -0.024329763, -0.06346621, -539326.2, 4189.756, 0.0, 10.000386, 9.999048 
5.8505577e+2, 2.5453773e+2, -451721.0, -550122.44, -37469.89, -0.03192539, -0.0681596, -439077.53, 6447.9004, 0.0, 10.000374, 9.999065 
5.8506435e+2, 2.6453692e+2, -389984.06, -522080.53, -37937.004, -0.023446213, -0.03184647, -379864.16, -32329.668, 0.0, 10.000352, 9.998595 
5.8507293e+2, 2.745362e+2, -295335.25, -425501.25, -26582.355, 0.0008530521, 0.03318376, -290115.9, -40572.043, 0.0, 10.000328, 9.998598 
5.850814e+2, 2.8453466e+2, -187874.36, -298591.25, -11239.436, -0.012865518, 0.012887214, -186744.9, -35185.223, 0.0, 10.000287, 9.998817 
5.850898e+2, 2.9453257e+2, -99797.61, -203283.11, -24958.773, -0.063356794, -0.08384318, -94092.54, -40512.76, 0.0, 10.000211, 9.998835 
5.8509934e+2, 3.045323e+2, -63581.656, -164653.92, -20636.582, -0.008576028, 0.0070765777, -59530.527, -59530.527, 0.000000006848287, 10.00014, 9.998801 
5.85108e+2, 3.145318e+2, -39529.203, -108973.03, 16535.121, -0.057355013, 0.07462719, -35793.07, -35793.07, 0.00000018333391, 10.000114, 9.999195 
5.949505e+2, 1.2453971e+2, -1599795.6, -1711002.9, 111187.03, -0.0031905342, -0.09092472, -1531083.9, 188416.17, 0.000000058921596, 10.00104, 9.99951 
5.949578e+2, 1.3453856e+2, -1524041.4, -1647700.1, -151507.81, 0.25386724, -0.1455193, -1422232.5, 199279.42, 0.000000000010343272, 10.000937, 9.999351 
5.949609e+2, 1.4453848e+2, -1445902.1, -1568856.9, -9939.558, -0.16381727, -0.07929495, -1445103.9, 78409.266, 0.0, 10.000867, 9.999237 
5.949712e+2, 1.5453765e+2, -1350470.4, -1471218.9, -25044.291, 0.027142143, -0.09090734, -1345482.0, 80039.984, 0.0, 10.000849, 9.999242 
5.949805e+2, 1.6453677e+2, -1290340.8, -1431328.6, -56.774784, 0.09593231, -0.08326166, -1290340.6, 37191.168, 0.0, 10.000758, 9.998887 
5.9498876e+2, 1.7453587e+2, -1214645.4, -1343192.1, -6553.4985, 0.015741544, -0.0650361, -1214312.1, 15230.827, 0.0, 10.000602, 9.998895 
5.9499717e+2, 1.8453512e+2, -1107464.5, -1212792.4, -36299.816, -0.018969124, -0.0411744, -1096166.3, 35385.598, 0.0, 10.000543, 9.9991455 
5.950058e+2, 1.9453456e+2, -998402.0, -1105673.9, -32129.947, 0.0019032353, -0.0164141, -989514.75, 44042.805, 0.0, 10.000603, 9.999179 
5.9501404e+2, 2.0453362e+2, -927492.5, -1050789.3, -35567.76, -0.0022185142, -0.014058514, -917967.94, 17599.021, 0.0, 10.000546, 9.998911 
5.95022e+2, 2.1453223e+2, -855271.7, -963929.56, -44097.598, -0.035014648, -0.046296436, -839627.5, -2046.8634, 0.0, 10.000364, 9.998921 
5.950304e+2, 2.2453113e+2, -752104.4, -838741.7, -35868.086, -0.03714931, -0.058828626, -739182.25, 409.16138, 0.0, 10.000293, 9.999144 
5.950394e+2, 2.3453033e+2, -642789.8, -731737.8, -29129.21, -0.00316696, -0.05765239, -634099.44, 7499.222, 0.0, 10.000356, 9.999174 
5.95048e+2, 2.4452947e+2, -556727.44, -665384.25, -33690.395, 0.0033402408, -0.04919961, -547129.2, -3521.9893, 0.0, 10.000385, 9.998942 
5.9505624e+2, 2.5452855e+2, -459736.63, -566102.06, -37455.184, -0.02360362, -0.036575112, -447870.97, -2254.327, 0.0, 10.000371, 9.998958 
5.950646e+2, 2.6452765e+2, -370262.06, -480222.28, -39061.586, -0.03019391, -0.018955126, -357798.72, -10172.509, 0.0, 10.000348, 9.998885 
5.950731e+2, 2.7452666e+2, -274999.63, -382587.75, -26994.703, -0.013411256, -0.012695716, -268606.34, -18969.54, 0.0, 10.000324, 9.998895 
5.9508157e+2, 2.8452525e+2, -216441.42, -356809.44, -14539.179, -0.027624454, -0.018543845, -214951.28, -63299.316, 0.0, 10.000282, 9.99842 
5.9508985e+2, 2.945237e+2, -131227.3, -266374.06, -27812.01, -0.07478173, -0.018440004, -125727.63, -72058.234, 0.0, 10.0002, 9.998406 
5.950994e+2, 3.045234e+2, -44922.85, -122911.96, -22139.72, -0.018509904, 0.083218016, -39076.105, -39076.105, 0.000000033052434, 10.000128, 9.999094 
5.9510815e+2, 3.1452176e+2, 3984.578, -16100.627, 21189.723, -0.045609325, 0.0021736373, 17391.031, 17391.031, 0.00000037488923, 10.000105, 9.999838 
6.0495144e+2, 1.24530666e+2, -1622352.5, -1722593.8, 121873.67, -0.010258387, -0.08694604, -1540695.8, 178894.05, 0.000000021349177, 10.000889, 9.999503 
6.049588e+2, 1.345297e+2, -1537080.4, -1657654.3, -143488.67, 0.2637919, -0.11994224, -1441728.3, 179872.13, 0.0, 10.000865, 9.999316 
6.049618e+2, 1.4452952e+2, -1444466.9, -1564260.4, -5446.5786, -0.15861428, -0.06212822, -1444219.8, 79382.76, 0.0, 10.000861, 9.999271 
6.0497195e+2, 1.545287e+2, -1330188.4, -1456286.0, -30080.37, 0.008265304, -0.07520783, -1323380.4, 102230.36, 0.0, 10.000967, 9.999287 
6.049811e+2, 1.6452783e+2, -1260126.0, -1421800.4, -8045.815, 0.077055894, -0.068654716, -1259726.6, 67893.91, 0.0, 10.000987, 9.998842 
6.049897e+2, 1.7452689e+2, -1178289.6, -1331083.8, 322.1582, 0.030192425, -0.04997903, -1178288.9, 51343.31, 0.0, 10.000875, 9.998846 
6.0499805e+2, 1.8452606e+2, -1082300.8, -1210995.3, -24304.334, 0.0032931124, -0.025105517, -1077863.8, 53778.07, 0.0, 10.00076, 9.999053 
6.0500634e+2, 1.9452544e+2, -996836.94, -1115739.9, -39148.105, -0.0012569657, 0.0010182626, -985105.2, 48543.36, 0.0, 10.000661, 9.999083 
6.050145e+2, 2.0452443e+2, -926794.94, -1048518.6, -48207.434, -0.011665184, 0.0009845733, -910015.8, 25642.74, 0.0, 10.000544, 9.998928 
6.050225e+2, 2.1452299e+2, -849399.2, -958796.75, -38275.17, -0.027500683, -0.03827455, -837337.6, 334.70975, 0.0, 10.000395, 9.998942 
6.0503095e+2, 2.2452189e+2, -740365.06, -835637.25, -14809.971, -0.02438677, -0.04945243, -738115.94, 1566.9419, 0.0, 10.000385, 9.99912 
6.050399e+2, 2.3452118e+2, -617492.7, -722751.6, -21848.52, -0.00014807198, -0.037045337, -613137.75, 28551.951, 0.0, 10.000544, 9.9991455 
6.050485e+2, 2.445203e+2, -537396.9, -654921.94, -37497.47, 0.002368185, -0.028036702, -526452.2, 17246.133, 0.0, 10.000514, 9.998953 
6.050566e+2, 2.545193e+2, -475567.6, -572671.0, -33538.742, -0.021242859, -0.026516953, -465109.84, -19401.549, 0.0, 10.000258, 9.998967 
6.050648e+2, 2.6451838e+2, -394106.13, -484796.06, -32476.422, -0.030005526, -0.016726239, -383675.8, -35957.773, 0.0, 10.000154, 9.998948 
6.0507333e+2, 2.7451736e+2, -286295.0, -380684.1, -38549.168, -0.022162829, -0.014608641, -272552.2, -22823.887, 0.0, 10.000215, 9.9989605 
6.0508174e+2, 2.8451607e+2, -226334.4, -357756.44, -22473.775, -0.034263276, -0.016422883, -222597.53, -70855.03, 0.0, 10.000197, 9.998455 
6.050901e+2, 2.9451466e+2, -145164.05, -271358.78, -3614.176, -0.066525206, -0.0031065943, -145060.63, -91302.34, 0.00000000003092486, 10.000096, 9.998424 
6.050995e+2, 3.0451435e+2, -62583.844, -140391.47, 10373.273, -0.016216926, 0.096788295, -61224.63, -61224.63, 0.00000008707832, 10.000046, 9.999013 
6.051082e+2, 3.1451234e+2, 15977.189, 15385.501, 24507.035, -0.05020054, -0.014304605, 40190.164, 40190.164, 0.0000006525611, 10.000077, 10.000068 
6.149522e+2, 1.2452163e+2, -1630325.1, -1739921.9, 111204.18, -0.018231299, -0.10691685, -1561150.8, 158527.86, 0.0000000039655865, 10.000892, 9.999384 
6.149598e+2, 1.3452101e+2, -1546641.3, -1676893.8, -144515.97, 0.27300593, -0.09178396, -1453254.8, 168431.97, 0.0, 10.000863, 9.999186 
6.1496276e+2, 1.445207e+2, -1450999.6, -1578270.4, -3237.4495, -0.14860107, -0.03674217, -1450917.4, 72773.61, 0.0, 10.000862, 9.999175 
6.149727e+2, 1.5451962e+2, -1335603.0, -1468872.6, -25394.086, -0.0064594815, -0.066832095, -1330928.1, 94773.6, 0.0, 10.000971, 9.999199 
6.1498195e+2, 1.6451879e+2, -1248561.4, -1398243.4, -12112.044, 0.053739835, -0.061291188, -1247587.6, 80123.234, 0.0, 10.000989, 9.999003 
6.149905e+2, 1.745182e+2, -1166182.4, -1306469.3, -3652.9521, 0.021170551, -0.021696402, -1166087.3, 63630.6, 0.0, 10.000876, 9.999014 
6.149989e+2, 1.845173e+2, -1105469.6, -1258700.9, -28846.441, 0.006587672, -0.00001869945, -1100219.0, 31509.44, 0.0, 10.000759, 9.998727 
6.150072e+2, 1.9451596e+2, -1021164.6, -1166230.0, -42626.63, 0.014190013, -0.007941805, -1009566.4, 24176.926, 0.0, 10.00066, 9.998736 
6.150153e+2, 2.0451486e+2, -909778.8, -1012183.0, -54225.51, 0.013840607, -0.011321889, -886401.7, 49352.68, 0.0, 10.000539, 9.99918 
6.150232e+2, 2.1451405e+2, -829513.9, -917484.2, -43607.605, 0.004597577, -0.016987808, -811561.06, 26199.768, 0.0, 10.000395, 9.999226 
6.150315e+2, 2.2451322e+2, -753967.75, -863462.2, -9890.458, -0.006332772, -0.008318262, -753081.5, -13312.776, 0.0, 10.000383, 9.99893 
6.1504024e+2, 2.3451233e+2, -632246.9, -752789.3, -15391.01, -0.019449772, 0.007125047, -630312.8, 11465.791, 0.0, 10.000541, 9.99894 
6.150487e+2, 2.4451123e+2, -530059.1, -638855.56, -46797.695, -0.027465122, -0.00034567207, -512699.5, 31089.861, 0.0, 10.000509, 9.999065 
6.1505675e+2, 2.5451e+2, -466963.25, -554817.7, -42725.84, -0.028106412, -0.038311616, -449611.63, -3811.0154, 0.0, 10.0002575, 9.99909 
6.1506504e+2, 2.6450902e+2, -405025.2, -507694.2, -30717.682, -0.026932647, -0.025509419, -396536.56, -48726.55, 0.0, 10.000154, 9.998792 
6.150735e+2, 2.745084e+2, -297879.2, -403986.1, -35724.934, -0.026766991, 0.028367713, -286972.2, -37154.01, 0.0, 10.000212, 9.998802 
6.150819e+2, 2.8450716e+2, -195522.67, -292513.16, -26183.537, -0.033397794, 0.021053582, -188905.61, -37074.492, 0.0, 10.000192, 9.998906 
6.1509037e+2, 2.9450554e+2, -113364.61, -204708.02, -6928.009, -0.043613687, -0.037624456, -112842.14, -58995.508, 0.0000000010306047, 10.000093, 9.998883 
6.150996e+2, 3.0450505e+2, -96004.07, -208296.16, 10471.06, -0.007408375, 0.046326816, -95036.01, -95036.01, 0.00000016756015, 10.000039, 9.998549 
6.15108e+2, 3.145034e+2, -22.621475, -13333.654, 29275.275, -0.07584997, 0.019691182, 23344.146, 23344.146, 0.000001002472, 10.000058, 9.999879 
6.249531e+2, 1.24512896e+2, -1648798.0, -1748055.9, 101983.64, -0.017646702, -0.09124581, -1585008.8, 134756.61, 0.00000000008306351, 10.00076, 9.999392 
6.2496054e+2, 1.3451229e+2, -1528888.4, -1670172.5, -138062.4, 0.2591445, -0.07386801, -1444444.9, 177328.44, 0.0, 10.000993, 9.999168 
6.2496364e+2, 1.4451177e+2, -1431831.5, -1575042.8, 6200.113, -0.15755375, -0.03351975, -1431563.5, 92215.836, 0.0, 10.001019, 9.999123 
6.249738e+2, 1.5451077e+2, -1353068.9, -1482429.0, -13130.995, 0.0042713843, -0.053353596, -1351749.4, 74040.44, 0.0, 10.000874, 9.999152 
6.249829e+2, 1.6450994e+2, -1274944.4, -1406737.8, -3417.3308, 0.064190514, -0.045796916, -1274855.9, 52942.926, 0.0, 10.000791, 9.999041 
6.2499124e+2, 1.7450932e+2, -1175187.3, -1306085.0, -5858.279, 0.0122441305, -0.014153514, -1174925.6, 54880.195, 0.0, 10.000795, 9.999056 
6.249995e+2, 1.8450838e+2, -1109700.4, -1261759.5, -26343.355, -0.00456148, 0.0027166526, -1105265.9, 26550.73, 0.0, 10.000733, 9.998718 
6.250078e+2, 1.9450702e+2, -1033563.4, -1173570.3, -15764.332, 0.018328445, -0.00648021, -1031810.3, 2021.311, 0.0, 10.000581, 9.998724 
6.25016e+2, 2.0450595e+2, -906453.3, -1010390.0, -17828.268, 0.026599318, -0.0074801496, -903480.25, 32362.21, 0.0, 10.000561, 9.999182 
6.2502384e+2, 2.1450518e+2, -783760.5, -895318.44, -29084.715, 0.01728134, -0.006777403, -776633.1, 61215.004, 0.0, 10.000709, 9.999228 
6.2503207e+2, 2.2450435e+2, -724854.0, -857463.0, -6068.7993, 0.0012930549, 0.0045211283, -724576.9, 15279.335, 0.0, 10.000618, 9.9988575 
6.250406e+2, 2.3450337e+2, -683215.8, -786011.7, -2699.342, -0.02334951, 0.019317197, -683145.0, -41277.746, 0.0, 10.000229, 9.998863 
6.2504894e+2, 2.4450226e+2, -574832.94, -656375.9, -24651.059, -0.03447454, 0.010761468, -567960.0, -24081.645, 0.0, 10.000185, 9.999101 
6.250571e+2, 2.54501e+2, -421243.47, -528394.2, -27711.256, -0.029079698, -0.031463224, -414501.06, 31388.16, 0.0, 10.000553, 9.999129 
6.250654e+2, 2.6450002e+2, -350477.8, -488168.47, -23805.002, -0.025859306, -0.019831147, -346478.38, 1420.3435, 0.0, 10.000558, 9.998731 
6.250736e+2, 2.744994e+2, -314652.2, -419393.75, -22659.625, -0.02759092, 0.039747242, -309960.22, -60052.98, 0.0, 10.000128, 9.998737 
6.25082e+2, 2.8449816e+2, -213876.36, -293227.47, -12015.984, -0.031439535, 0.03512511, -212096.72, -60176.883, 0.0, 10.0000305, 9.998978 
6.250907e+2, 2.9449657e+2, -74690.34, -178255.45, -23341.117, -0.034185424, -0.030567786, -69672.89, -15738.142, 0.000000004235602, 10.000326, 9.998952 
6.250997e+2, 3.0449578e+2, -80767.1, -223312.73, -22483.586, -0.006149033, 0.031325843, -77304.875, -77304.875, 0.000000262113, 10.000239, 9.99835 
6.251079e+2, 3.1449425e+2, -44476.004, -30700.863, 18348.18, -0.0754454, 0.03701271, -17990.11, -17990.11, 0.0000013873902, 9.999734, 9.999916 
6.349539e+2, 1.24504484e+2, -1637838.5, -1727041.6, 97296.71, -0.008399561, -0.038319398, -1575407.6, 144441.92, 0.0, 10.000765, 9.999535 
6.349612e+2, 1.345035e+2, -1522011.3, -1656526.4, -129743.73, 0.21904355, -0.067402974, -1443128.4, 178731.58, 0.0, 10.000995, 9.999261 
6.3496435e+2, 1.4450279e+2, -1431985.6, -1576072.9, -827.1044, -0.1891518, -0.05301075, -1431980.9, 91886.86, 0.0, 10.001021, 9.999113 
6.3497496e+2, 1.5450215e+2, -1353853.5, -1484240.0, -18562.092, 0.038251083, -0.034685154, -1351262.5, 74612.39, 0.0, 10.000874, 9.999141 
6.3498414e+2, 1.6450131e+2, -1281172.5, -1419654.4, -4410.777, 0.10514789, -0.022088792, -1281032.1, 46851.97, 0.0, 10.00079, 9.998952 
6.349919e+2, 1.7450023e+2, -1181033.5, -1319078.9, -5470.519, 0.0012573685, -0.027867557, -1180817.0, 49078.992, 0.0, 10.000798, 9.998966 
6.3499993e+2, 1.8449931e+2, -1088400.3, -1217327.3, -32306.506, -0.03328503, -0.017379152, -1080757.9, 51148.086, 0.0, 10.000732, 9.999023 
6.3500834e+2, 1.9449863e+2, -1010452.6, -1126086.4, -21404.27, 0.009203168, 0.0057713734, -1006617.8, 27295.65, 0.0, 10.000583, 9.999049 
6.3501656e+2, 2.0449767e+2, -924923.0, -1048192.44, -13611.512, 0.024042817, 0.01293554, -923437.9, 12484.877, 0.0, 10.000558, 9.998923 
6.3502455e+2, 2.1449642e+2, -803765.6, -936820.7, -23174.33, 0.0091788005, -0.008952233, -799844.8, 38089.477, 0.0, 10.000708, 9.998942 
6.3503265e+2, 2.2449529e+2, -722916.56, -852257.06, -20291.854, -0.0035546948, -0.012203528, -719807.75, 20137.64, 0.0, 10.000613, 9.998896 
6.350409e+2, 2.3449436e+2, -679098.06, -777752.44, -16893.51, -0.014628693, -0.00022110432, -676285.44, -34329.727, 0.0, 10.000229, 9.9989195 
6.350493e+2, 2.4449338e+2, -578369.4, -663589.0, -12399.772, -0.022251185, 0.005632345, -576601.8, -32636.47, 0.0, 10.000184, 9.999052 
6.3505775e+2, 2.5449237e+2, -424814.25, -535191.1, -13440.108, -0.02547143, -0.0049273064, -423201.28, 22772.756, 0.0, 10.00055, 9.9990835 
6.350659e+2, 2.6449135e+2, -349110.75, -484595.06, -38771.92, -0.02748158, 0.0018967511, -338799.97, 9184.099, 0.0, 10.000554, 9.998757 
6.350737e+2, 2.7449033e+2, -312916.6, -415498.56, -38199.746, -0.028656075, 0.018954916, -300254.6, -50258.863, 0.0, 10.000126, 9.998765 
6.3508207e+2, 2.8448907e+2, -234991.5, -336602.66, -2150.897, -0.032950994, 0.02329711, -234945.98, -82937.016, 0.0, 10.000029, 9.998681 
6.35091e+2, 2.9448774e+2, -97631.42, -223997.16, -11664.212, -0.038981877, 0.017979842, -96563.77, -42541.23, 0.000000008608103, 10.000318, 9.998642 
6.350999e+2, 3.0448657e+2, -77949.85, -215721.44, -40403.82, -0.013022048, 0.05443706, -66975.01, -66975.01, 0.00000035003856, 10.000232, 9.998407 
6.351079e+2, 3.1448492e+2, -26566.168, 7943.728, 2614.9824, -0.056996208, 0.03862544, 8140.7534, 8140.7534, 0.0000017531552, 9.999727, 10.000185 
6.4495456e+2, 1.24495514e+2, -1658059.0, -1722900.8, 96071.89, -0.0061992975, -0.040928956, -1589085.0, 130853.164, 0.0, 10.000566, 9.99966 
6.449621e+2, 1.3449474e+2, -1543440.5, -1654110.8, -120287.266, 0.22247641, -0.060158, -1466371.0, 155575.27, 0.0, 10.000795, 9.9993725 
6.4496535e+2, 1.4449401e+2, -1452384.4, -1581295.9, 831.36035, -0.18181401, -0.05499994, -1452379.0, 71575.055, 0.0, 10.000862, 9.999154 
6.449758e+2, 1.5449348e+2, -1354953.6, -1480403.6, -14333.389, 0.03088912, -0.029291026, -1353336.9, 72623.234, 0.0, 10.000848, 9.999179 
6.449848e+2, 1.6449268e+2, -1283985.4, -1424216.9, 5516.892, 0.09445418, -0.014736189, -1283768.6, 44200.586, 0.0, 10.000784, 9.998924 
6.449926e+2, 1.7449151e+2, -1205599.3, -1334496.8, 7755.5034, 0.0052927593, -0.025239136, -1205134.3, 24848.06, 0.0, 10.000645, 9.998934 
6.4500076e+2, 1.8449064e+2, -1099766.8, -1211344.9, -22187.283, -0.022972083, -0.014864342, -1095516.6, 36475.29, 0.0, 10.000607, 9.999125 
6.45009e+2, 1.944901e+2, -985696.6, -1101599.5, -28425.762, 0.012633269, 0.0147448005, -979100.44, 54896.566, 0.0, 10.000701, 9.999159 
6.450171e+2, 2.0448916e+2, -910425.3, -1054207.4, -21358.865, 0.020388803, 0.020404994, -907319.56, 28686.764, 0.0, 10.000714, 9.998806 
6.450251e+2, 2.1448764e+2, -825719.25, -962268.5, -20164.377, -0.0016150211, -0.0133202365, -822803.8, 15217.012, 0.0, 10.000622, 9.99881 
6.450331e+2, 2.2448643e+2, -725020.06, -850628.44, -18174.92, -0.012908809, -0.019690523, -722443.06, 17589.809, 0.0, 10.0005865, 9.9989195 
6.4504135e+2, 2.3448558e+2, -619666.1, -745641.6, -18325.113, -0.012823427, -0.00018182168, -617054.56, 24987.2, 0.0, 10.000623, 9.998949 
6.450497e+2, 2.4448463e+2, -537191.2, -651508.6, -8050.081, -0.016077338, 0.009590393, -536627.1, 7423.919, 0.0, 10.0005, 9.998982 
6.450581e+2, 2.5448355e+2, -484002.75, -572124.94, -11285.381, -0.023938442, -0.0017315885, -482580.44, -36519.703, 0.0, 10.000179, 9.999008 
6.4506626e+2, 2.644824e+2, -405868.4, -511784.5, -40337.586, -0.027790286, -0.0012231873, -392255.63, -44183.88, 0.0, 10.000165, 9.998757 
6.4507407e+2, 2.7448127e+2, -255689.63, -387401.3, -42975.902, -0.026755843, 0.004048183, -242907.56, 7176.7666, 0.0, 10.000518, 9.998768 
6.4508235e+2, 2.8448007e+2, -175178.94, -323497.88, -3713.933, -0.033566713, 0.01989815, -175085.98, -22988.777, 0.0, 10.000507, 9.998541 
6.4509106e+2, 2.9447895e+2, -147372.23, -264549.5, -2378.9495, -0.04874591, 0.04873881, -147323.97, -93214.5, 0.000000011710588, 10.000047, 9.998493 
6.450998e+2, 3.044774e+2, -131940.9, -239738.3, -27950.586, -0.026998494, 0.05313198, -125124.65, -125124.65, 0.00000040808163, 9.999851, 9.9984255 
6.4510787e+2, 3.144758e+2, 20716.783, 40012.496, 10502.279, -0.043546267, 0.04072238, 44625.742, 44625.742, 0.0000020409286, 10.0000105, 10.00027 
6.5495515e+2, 1.24486e+2, -1649184.5, -1707281.3, 90731.09, -0.008143951, -0.10138037, -1582965.1, 137065.92, 0.0, 10.000575, 9.9997635 
6.549633e+2, 1.3448602e+2, -1535376.6, -1636770.1, -112875.2, 0.26595047, -0.05229115, -1462335.9, 159695.81, 0.0, 10.0007925, 9.999493 
6.5496665e+2, 1.4448547e+2, -1446671.3, -1568600.1, -1801.3322, -0.13874483, -0.040174022, -1446644.6, 77393.34, 0.0, 10.000858, 9.999244 
6.5497607e+2, 1.5448481e+2, -1348619.4, -1468014.5, -14435.586, -0.020802995, -0.037493788, -1346898.9, 79146.36, 0.0, 10.000851, 9.999264 
6.5498495e+2, 1.6448404e+2, -1282013.5, -1420716.8, -332.70105, 0.028696582, -0.02368772, -1282012.8, 46041.29, 0.0, 10.000786, 9.998947 
6.549935e+2, 1.7448318e+2, -1204089.4, -1331776.3, 2369.9607, 0.022218328, -0.0065460657, -1204045.4, 26019.238, 0.0, 10.000646, 9.998953 
6.5500176e+2, 1.8448232e+2, -1107458.8, -1226572.3, -20038.871, 0.023320988, 0.010003812, -1104177.9, 27896.39, 0.0, 10.000603, 9.9990225 
6.550098e+2, 1.9448148e+2, -993397.44, -1117421.9, -24691.572, 0.026961086, 0.019042162, -988662.44, 45419.86, 0.0, 10.0007, 9.999051 
6.5501773e+2, 2.0448036e+2, -910012.9, -1052394.0, -24965.592, 0.013815493, 0.013387857, -905762.25, 30330.953, 0.0, 10.0007105, 9.99882 
6.5502554e+2, 2.1447887e+2, -824544.8, -959635.56, -23342.846, -0.016749114, -0.01984529, -820625.0, 17482.541, 0.0, 10.00062, 9.998828 
6.550336e+2, 2.2447775e+2, -725387.25, -850595.4, -17689.697, -0.029156115, -0.017524526, -722936.0, 17182.555, 0.0, 10.000583, 9.998922 
6.550419e+2, 2.344771e+2, -619395.0, -745318.56, -16637.258, -0.019242588, 0.018735813, -617233.94, 24891.453, 0.0, 10.000624, 9.998952 
6.5505016e+2, 2.4447604e+2, -544503.9, -666237.8, -19861.62, -0.018068988, 0.022005027, -541345.3, 2790.1982, 0.0, 10.000498, 9.998882 
6.5505826e+2, 2.5447452e+2, -491315.38, -586871.0, -22875.588, -0.02701367, -0.0224107, -486121.38, -39972.082, 0.0, 10.000177, 9.998908 
6.550665e+2, 2.6447323e+2, -408535.53, -516876.7, -28339.576, -0.028953087, -0.030322595, -401570.34, -53408.51, 0.0, 10.000163, 9.998724 
6.5507466e+2, 2.7447227e+2, -258477.39, -391775.38, -28942.783, -0.023537649, -0.0038246105, -252464.33, -2291.4504, 0.0, 10.000512, 9.998741 
6.550828e+2, 2.844712e+2, -175779.4, -323449.7, -19565.014, -0.035487127, 0.028304322, -173231.19, -21046.895, 0.0, 10.000501, 9.998544 
6.550909e+2, 2.9447016e+2, -147276.4, -263520.72, -19083.521, -0.06693751, 0.062493842, -144223.67, -90028.08, 0.000000011654482, 10.000043, 9.998503 
6.5509945e+2, 3.0446818e+2, -133788.16, -242340.25, -23191.26, -0.05131387, 0.025779832, -129041.13, -129041.13, 0.00000041978168, 9.999846, 9.998409 
6.551079e+2, 3.1446683e+2, 12722.869, 26814.262, 18535.375, -0.038648054, 0.039972544, 39597.887, 39597.887, 0.000002202322, 9.999997, 10.000185 
6.649557e+2, 1.24477305e+2, -1660058.1, -1711670.4, 110780.15, -0.009098995, -0.10934239, -1572118.0, 147998.45, 0.0, 10.000496, 9.999772 
6.649641e+2, 1.3447747e+2, -1547649.1, -1642560.0, -92279.41, 0.2641264, -0.04696663, -1491337.9, 130778.125, 0.0, 10.0007105, 9.999492 
6.6496754e+2, 1.4447683e+2, -1447920.6, -1565025.1, 7737.5806, -0.13132012, -0.042763934, -1447411.6, 76711.38, 0.0, 10.000833, 9.99928 
6.6497695e+2, 1.5447626e+2, -1329536.6, -1454205.9, -8146.072, -0.027493326, -0.036200684, -1329006.6, 97122.97, 0.0, 10.000962, 9.999304 
6.6498566e+2, 1.6447558e+2, -1260862.3, -1409537.1, -4496.6406, 0.018922707, -0.016460529, -1260726.4, 67411.32, 0.0, 10.000929, 9.998954 
6.649941e+2, 1.744748e+2, -1197142.9, -1327544.4, -4694.478, 0.024843333, 0.008786576, -1196974.1, 33173.5, 0.0, 10.000692, 9.998958 
6.6500247e+2, 1.8447393e+2, -1114282.4, -1234454.1, -15274.247, 0.029470086, 0.026231416, -1112371.4, 19786.037, 0.0, 10.000577, 9.99898 
6.6501045e+2, 1.9447297e+2, -1008993.7, -1130585.1, -16307.328, 0.023900377, 0.0266747, -1006844.6, 27322.174, 0.0, 10.000616, 9.9990015 
6.650183e+2, 2.0447178e+2, -926931.56, -1062833.5, -20255.074, 0.0074578263, 0.019743642, -923976.94, 12201.215, 0.0, 10.000604, 9.9988 
6.6502607e+2, 2.1447037e+2, -838077.56, -967442.2, -22581.242, -0.019735197, -0.00470211, -834249.2, 3942.7585, 0.0, 10.000535, 9.998815 
6.6503406e+2, 2.2446926e+2, -738853.06, -858267.9, -14400.069, -0.03053016, -0.0010828723, -737141.1, 3061.7607, 0.0, 10.000497, 9.99891 
6.650424e+2, 2.3446849e+2, -639229.56, -756312.44, -14759.529, -0.022260273, 0.026680766, -637397.6, 4812.7915, 0.0, 10.000494, 9.9989395 
6.650506e+2, 2.444674e+2, -548683.56, -673732.1, -22298.223, -0.022205533, 0.028453048, -544826.44, -605.5062, 0.0, 10.000493, 9.998834 
6.6505855e+2, 2.5446588e+2, -448967.72, -572282.44, -23238.902, -0.031720217, -0.009813928, -444733.7, 1501.1204, 0.0, 10.000494, 9.998856 
6.6506666e+2, 2.6446453e+2, -385287.06, -513353.34, -21339.74, -0.033881404, -0.018232625, -381824.8, -33576.793, 0.0, 10.000356, 9.998653 
6.650748e+2, 2.7446344e+2, -331495.78, -434705.22, -25398.193, -0.028398205, 0.0013675954, -325584.28, -75324.02, 0.0, 10.000044, 9.998671 
6.6508305e+2, 2.8446236e+2, -238316.2, -339154.4, -15406.932, -0.037820555, 0.031420503, -236014.72, -83743.43, 0.0, 10.000011, 9.998671 
6.650911e+2, 2.9446146e+2, -95135.69, -222189.47, -7075.631, -0.0650168, 0.06456995, -94742.87, -40462.09, 0.000000008469742, 10.000334, 9.998646 
6.6509944e+2, 3.044593e+2, -66701.5, -204026.92, -7323.8193, -0.05673828, -0.0028409977, -66312.01, -66312.01, 0.00000038345433, 10.000282, 9.998461 
6.651078e+2, 3.1445825e+2, -31093.05, -6927.948, 37617.76, -0.039796438, 0.03850829, 20500.057, 20500.057, 0.0000022156387, 9.99975, 10.000072 
6.749562e+2, 1.24469474e+2, -1665976.6, -1724745.0, 102394.04, -0.009141495, -0.06437313, -1588834.0, 131360.05, 0.0, 10.000497, 9.999683 
6.7496425e+2, 1.3446909e+2, -1555745.1, -1660455.0, -84740.31, 0.21220513, -0.04410953, -1508491.0, 113707.586, 0.0, 10.000716, 9.999366 
6.7496806e+2, 1.4446817e+2, -1448285.8, -1567581.4, 10045.179, -0.1634308, -0.06291464, -1447445.8, 76762.86, 0.0, 10.000839, 9.99926 
6.749782e+2, 1.5446787e+2, -1330161.4, -1455849.4, -3196.9885, 0.007798289, -0.02624113, -1330080.1, 96132.59, 0.0, 10.000962, 9.999293 
6.749871e+2, 1.644673e+2, -1262082.0, -1410766.3, -13484.464, 0.061709322, 0.0059831967, -1260869.0, 67350.92, 0.0, 10.000924, 9.998948 
6.749947e+2, 1.7446642e+2, -1197542.5, -1328302.4, -13198.97, 0.011327492, 0.020403767, -1196223.5, 34007.48, 0.0, 10.000692, 9.998953 
6.7500263e+2, 1.844655e+2, -1114244.9, -1234363.4, -15005.107, -0.006974488, 0.03345418, -1112398.8, 19842.475, 0.0, 10.000577, 9.9989805 
6.7501086e+2, 1.9446456e+2, -1009467.0, -1131117.6, -14875.455, 0.001684241, 0.038011856, -1007674.44, 26575.81, 0.0, 10.000613, 9.999 
6.7501885e+2, 2.0446345e+2, -931118.0, -1070508.3, -23438.09, -0.0012116623, 0.0399072, -927282.5, 8978.587, 0.0, 10.000599, 9.99875 
6.7502666e+2, 2.1446215e+2, -841839.5, -975097.4, -24967.135, -0.012412188, 0.030852191, -837315.3, 958.6507, 0.0, 10.000534, 9.998763 
6.7503464e+2, 2.2446093e+2, -740861.1, -861995.4, -15088.644, -0.019716823, 0.02815283, -739009.94, 1275.8844, 0.0, 10.000494, 9.998886 
6.750429e+2, 2.344598e+2, -641054.44, -759717.94, -14288.153, -0.022931509, 0.02349532, -639358.3, 2938.339, 0.0, 10.000491, 9.998917 
6.7505103e+2, 2.4445872e+2, -549353.7, -674738.56, -22552.186, -0.029897695, 0.028479211, -545420.7, -1113.608, 0.0, 10.000491, 9.998828 
6.7505896e+2, 2.5445768e+2, -449750.94, -573678.25, -22782.766, -0.040358283, 0.035933647, -445695.3, 621.9163, 0.0, 10.000492, 9.998847 
6.750669e+2, 2.6445636e+2, -393243.2, -529281.6, -32592.578, -0.04552258, 0.035575606, -385837.66, -37507.39, 0.0, 10.000353, 9.998546 
6.7507476e+2, 2.7445477e+2, -339678.88, -450733.1, -36406.453, -0.043331582, 0.018576527, -328808.03, -78461.47, 0.0, 10.00004, 9.998563 
6.75083e+2, 2.8445357e+2, -222104.2, -304361.53, -4558.3936, -0.042365227, 0.027559187, -221852.36, -69494.0, 0.0, 10.000006, 9.998912 
6.750917e+2, 2.9445282e+2, -78617.48, -185054.25, 5958.144, -0.045983903, 0.055540573, -78284.984, -23919.957, 0.0000000040864183, 10.000321, 9.998906 
6.750998e+2, 3.0445066e+2, -59776.15, -187082.31, -25625.873, -0.046431467, -0.031466175, -54811.445, -54811.445, 0.0000003121116, 10.000272, 9.998583 
6.7510736e+2, 3.1445006e+2, -40975.0, -26025.12, 18944.941, -0.05243312, 0.042005267, -13133.775, -13133.775, 0.0000020914758, 9.999744, 9.999943 
6.849568e+2, 1.2446132e+2, -1634137.8, -1709813.1, 86201.086, -0.008785639, -0.035201427, -1577835.6, 142439.94, 0.0, 10.000718, 9.999679 
6.849648e+2, 1.3446091e+2, -1534667.1, -1652568.0, -81682.836, 0.19082998, -0.015588861, -1492884.0, 129395.91, 0.0, 10.000874, 9.999343 
6.849688e+2, 1.4445981e+2, -1458759.6, -1577953.5, 7693.1157, -0.16895299, -0.04875497, -1458265.1, 66026.44, 0.0, 10.000792, 9.99921 
6.849791e+2, 1.544594e+2, -1395348.6, -1492834.0, -8887.3955, 0.02012808, -0.017035883, -1394545.1, 31751.832, 0.0, 10.000542, 9.999242 
6.8498784e+2, 1.6445884e+2, -1314653.3, -1425545.1, -13284.839, 0.07457401, 0.014343479, -1313083.9, 15220.017, 0.0, 10.000519, 9.999041 
6.8499535e+2, 1.744581e+2, -1178079.8, -1307803.0, -6652.709, 0.006513855, 0.032521907, -1177739.5, 52573.695, 0.0, 10.000778, 9.999052 
6.850032e+2, 1.8445721e+2, -1080344.1, -1225479.8, -9063.21, -0.018803509, 0.047124732, -1079780.4, 52542.6, 0.0, 10.000842, 9.998914 
6.850114e+2, 1.944562e+2, -1005052.25, -1136093.3, -14512.1875, -0.006838665, 0.050481964, -1003464.3, 30868.748, 0.0, 10.000678, 9.998933 
6.8501943e+2, 2.0445505e+2, -929274.8, -1065753.1, -20045.607, -0.003352583, 0.050346944, -926391.5, 9952.853, 0.0, 10.000597, 9.998782 
6.8502736e+2, 2.1445376e+2, -825921.3, -963555.2, -16036.133, -0.0052327244, 0.03802987, -824077.6, 14279.227, 0.0, 10.000626, 9.998798 
6.850353e+2, 2.2445251e+2, -735999.4, -864241.94, -5617.8643, -0.010585423, 0.03404684, -735753.75, 4615.02, 0.0, 10.000546, 9.998846 
6.8504333e+2, 2.3445138e+2, -665961.1, -775828.4, -7682.4976, -0.021292724, 0.030898478, -665426.56, -23046.59, 0.0, 10.0003395, 9.9988785 
6.850513e+2, 2.444503e+2, -593056.56, -705640.7, -14452.657, -0.030115496, 0.042045858, -591230.8, -46839.984, 0.0, 10.000234, 9.998738 
6.8505937e+2, 2.5444928e+2, -490433.0, -603193.5, -21081.488, -0.036666553, 0.060580507, -486620.56, -40219.117, 0.0, 10.000257, 9.998757 
6.850672e+2, 2.6444793e+2, -395651.88, -516381.44, -30474.908, -0.04440879, 0.0586863, -388395.47, -39981.09, 0.0, 10.0002775, 9.998671 
6.850748e+2, 2.744463e+2, -291780.9, -412313.56, -17662.03, -0.051803097, 0.024460938, -289246.16, -38816.336, 0.0, 10.000303, 9.998699 
6.8508303e+2, 2.8444514e+2, -210492.42, -309012.13, 15440.829, -0.050382204, 0.029763063, -208129.11, -55687.664, 0.0, 10.000131, 9.99882 
6.850917e+2, 2.9444435e+2, -175597.25, -242556.81, -1217.8988, -0.042231306, 0.06895759, -175575.1, -121126.15, 0.0000000009738006, 9.999702, 9.998809 
6.850997e+2, 3.0444226e+2, -128193.41, -180178.25, -37426.066, -0.04586581, -0.024846964, -108619.21, -108619.21, 0.00000022618863, 9.99963, 9.9989395 
6.851073e+2, 3.14442e+2, 4457.969, 8645.973, 23640.766, -0.04945408, 0.04562058, 30285.295, 30285.295, 0.0000018666766, 10.000003, 10.000055 
6.949575e+2, 1.24452874e+2, -1628070.6, -1701169.5, 77949.44, -0.0071967393, -0.02558773, -1578527.3, 141833.56, 0.0, 10.000733, 9.999732 
6.949658e+2, 1.3445295e+2, -1530007.5, -1642000.0, -77024.65, 0.1964359, 0.03775122, -1490775.6, 131583.97, 0.0, 10.000871, 9.999416 
6.949698e+2, 1.444518e+2, -1464821.4, -1588926.0, -2985.073, -0.15121104, -0.0016187142, -1464749.6, 59621.914, 0.0, 10.000786, 9.999138 
6.949795e+2, 1.5445092e+2, -1400493.6, -1504378.0, -17133.676, 0.0067130327, -0.0087097855, -1397740.6, 28640.861, 0.0, 10.000545, 9.999161 
6.949882e+2, 1.6445027e+2, -1302750.9, -1401355.8, -5356.066, 0.053543426, 0.008409538, -1302460.8, 25928.383, 0.0, 10.000521, 9.999207 
6.949962e+2, 1.7444989e+2, -1165948.9, -1281860.8, 2893.089, 0.007126862, 0.045371428, -1165876.8, 64517.08, 0.0, 10.000774, 9.999232 
6.9500417e+2, 1.844491e+2, -1089143.4, -1242319.3, -15224.594, -0.009708572, 0.06723971, -1087644.8, 44757.5, 0.0, 10.000835, 9.998801 
6.9501215e+2, 1.9444789e+2, -1014461.3, -1155089.5, -20361.531, -0.002817273, 0.0630521, -1011572.56, 22842.627, 0.0, 10.000675, 9.998804 
6.950201e+2, 2.0444661e+2, -921927.75, -1050338.4, -20039.47, -0.00083617173, 0.050167147, -918873.1, 17554.777, 0.0, 10.000596, 9.998889 
6.95028e+2, 2.144452e+2, -818348.7, -946997.1, -14750.775, -0.00025478817, 0.017791774, -816679.06, 21761.39, 0.0, 10.000622, 9.998914 
6.950359e+2, 2.2444406e+2, -739871.0, -871739.6, -13556.404, -0.0057879556, 0.017583502, -738491.8, 1959.6321, 0.0, 10.000545, 9.9987955 
6.950437e+2, 2.344432e+2, -670309.9, -785200.9, -15256.591, -0.019177662, 0.04894878, -668318.44, -25858.03, 0.0, 10.0003395, 9.998815 
6.950516e+2, 2.4444209e+2, -604180.6, -728867.1, -14397.504, -0.025455808, 0.06885887, -602539.75, -58067.574, 0.0, 10.000234, 9.998579 
6.950598e+2, 2.5444067e+2, -502511.84, -627260.06, -19623.947, -0.022410672, 0.06402097, -499497.66, -53010.2, 0.0, 10.000252, 9.998594 
6.9506764e+2, 2.644393e+2, -372067.2, -466204.47, -29551.268, -0.032323062, 0.05050164, -363559.44, -15059.089, 0.0, 10.000272, 9.999018 
6.950751e+2, 2.7443808e+2, -266776.84, -359145.06, -16196.744, -0.056613397, 0.019865025, -264019.1, -13509.034, 0.0, 10.000298, 9.999067 
6.9508296e+2, 2.84437e+2, -239698.42, -368708.84, 40.88925, -0.064807385, 0.038529966, -239698.4, -87177.87, 0.0, 10.000127, 9.998412 
6.9509125e+2, 2.944361e+2, -206991.44, -307058.13, -16328.639, -0.05587376, 0.103412285, -204394.38, -149861.8, 0.000000000021633938, 9.9997, 9.998367 
6.950993e+2, 3.044341e+2, -88413.35, -96440.92, -25227.531, -0.05670097, 0.015233121, -66882.3, -66882.3, 0.00000014519733, 9.999625, 9.9995165 
6.951074e+2, 3.1443417e+2, 25295.205, 55978.438, 37264.43, -0.037796058, 0.058061022, 80935.74, 80935.74, 0.0000015881137, 9.999986, 10.000389 
7.0495826e+2, 1.24444455e+2, -1653455.5, -1706008.9, 71691.92, 0.0005289137, -0.010018632, -1603376.5, 117068.234, 0.0, 10.000527, 9.999799 
7.0496655e+2, 1.3444458e+2, -1552244.9, -1644931.9, -73202.4, 0.20308796, 0.04953323, -1511949.4, 110493.44, 0.0, 10.000688, 9.999483 
7.049708e+2, 1.4444336e+2, -1466352.0, -1588962.4, -3101.0564, -0.13179441, -0.00003998935, -1466273.6, 58181.363, 0.0, 10.000772, 9.999144 
7.0498013e+2, 1.544425e+2, -1349051.5, -1479691.9, -11347.325, -0.00097084173, -0.0037418006, -1348073.1, 78391.53, 0.0, 10.000899, 9.999159 
7.049887e+2, 1.6444187e+2, -1251739.6, -1371900.0, 1859.4022, 0.039411455, 0.0131457485, -1251710.8, 76761.164, 0.0, 10.000851, 9.9992485 
7.049968e+2, 1.7444149e+2, -1190695.4, -1287672.6, -116.82778, 0.009812126, 0.04466413, -1190695.3, 39781.105, 0.0, 10.000581, 9.999284 
7.0500493e+2, 1.844407e+2, -1137128.8, -1262598.8, -17318.035, 0.00006685713, 0.06118308, -1134782.3, -2297.5225, 0.0, 10.000496, 9.998824 
7.050128e+2, 1.9443946e+2, -1017672.25, -1154997.9, -13029.534, 0.0016311863, 0.051297385, -1016446.94, 18051.104, 0.0, 10.000645, 9.998819 
7.0502067e+2, 2.0443822e+2, -912379.4, -1041982.75, -11313.324, -0.0002992869, 0.04176231, -911399.2, 25111.127, 0.0, 10.000645, 9.998924 
7.050285e+2, 2.14437e+2, -838212.5, -951650.7, -12846.673, -0.0020337931, 0.022920253, -836775.9, 1745.503, 0.0, 10.000465, 9.998957 
7.050364e+2, 2.244359e+2, -764382.56, -888430.44, -12876.626, -0.004264647, 0.027624754, -763060.0, -22528.012, 0.0, 10.000398, 9.998751 
7.050442e+2, 2.3443493e+2, -654547.9, -783092.3, -14302.732, -0.008385282, 0.054167103, -652975.7, -10433.701, 0.0, 10.000472, 9.998766 
7.0505214e+2, 2.4443376e+2, -580579.75, -718301.2, -8482.549, -0.010228343, 0.069727555, -580059.25, -35504.785, 0.0, 10.000401, 9.998571 
7.050601e+2, 2.544323e+2, -516561.97, -634486.56, -3369.175, -0.0087683005, 0.061291892, -516465.8, -69895.71, 0.0, 10.000157, 9.99859 
7.050678e+2, 2.6443094e+2, -409138.2, -489118.28, -15243.399, -0.024545422, 0.051438693, -406331.44, -57748.355, 0.0, 10.000039, 9.998973 
7.0507526e+2, 2.744298e+2, -302710.75, -381161.94, -32829.434, -0.060171448, 0.032836284, -290785.4, -40192.75, 0.0, 10.0000725, 9.999024 
7.05083e+2, 2.8442878e+2, -244316.63, -362775.88, -24441.932, -0.07071354, 0.05531338, -239471.64, -86868.88, 0.0, 10.00006, 9.998485 
7.050911e+2, 2.944279e+2, -155849.56, -272967.0, -3257.1997, -0.05267348, 0.1160249, -155759.05, -101145.17, 0.0, 10.00001, 9.998453 
7.05099e+2, 3.0442607e+2, -47591.88, -78257.21, 25.646692, -0.05923439, 0.042239435, -47591.86, -47591.86, 0.00000008201181, 9.999912, 9.999503 
7.0510715e+2, 3.1442595e+2, -32865.785, -2181.8, 11493.667, -0.04460174, 0.06669467, 1646.0046, 1646.0046, 0.0000012936833, 9.999715, 10.000121 
7.149589e+2, 1.24436125e+2, -1647691.3, -1695106.9, 62999.438, 0.012995078, 0.009256536, -1604086.4, 116440.59, 0.0, 10.000529, 9.999874 
7.149673e+2, 1.344358e+2, -1546320.0, -1634481.3, -66868.17, 0.20645139, 0.019100226, -1510310.3, 112218.67, 0.0, 10.000695, 9.999552 
7.1497166e+2, 1.4443451e+2, -1461766.3, -1579994.6, -734.0992, -0.11596422, -0.044886924, -1461761.6, 62780.06, 0.0, 10.000776, 9.999204 
7.14981e+2, 1.5443417e+2, -1345207.4, -1471149.5, -6330.542, -0.0062808744, -0.0025290286, -1344890.0, 81656.16, 0.0, 10.000896, 9.999219 
7.149895e+2, 1.6443369e+2, -1256266.9, -1380485.8, -7710.8604, 0.028768228, 0.027511831, -1255790.0, 72762.12, 0.0, 10.000847, 9.999192 
7.149975e+2, 1.7443292e+2, -1194985.3, -1297159.3, -9558.954, 0.012975895, 0.029662838, -1194098.6, 36461.594, 0.0, 10.000583, 9.999218 
7.150055e+2, 1.84432e+2, -1127536.9, -1242467.9, -13169.353, 0.007700453, 0.028292011, -1126047.1, 6522.827, 0.0, 10.000495, 9.998963 
7.150135e+2, 1.9443087e+2, -1008003.94, -1133692.9, -7305.5674, 0.0035484808, 0.01647307, -1007580.7, 27000.846, 0.0, 10.000639, 9.998969 
7.150213e+2, 2.044299e+2, -914978.0, -1046446.25, -18141.611, -0.0043695057, 0.026111955, -912520.56, 24070.988, 0.0, 10.00064, 9.998896 
7.150289e+2, 2.144291e+2, -841273.3, -957700.2, -19462.922, -0.01171532, 0.052619148, -838105.9, 493.72342, 0.0, 10.0004635, 9.998917 
7.1503675e+2, 2.2442801e+2, -766156.7, -892224.1, -11322.994, -0.007692271, 0.06337341, -765147.8, -24537.357, 0.0, 10.000398, 9.998725 
7.1504486e+2, 2.344266e+2, -657180.06, -787658.25, -11005.538, 0.00919446, 0.046846353, -656258.25, -13633.654, 0.0, 10.000467, 9.998736 
7.150527e+2, 2.4442531e+2, -571614.56, -698910.6, -17303.658, 0.0131993275, 0.04540361, -569304.4, -24666.693, 0.0, 10.000397, 9.998707 
7.1506035e+2, 2.5442412e+2, -506762.0, -614362.56, -12154.035, 0.002217148, 0.053601254, -505406.22, -58756.89, 0.0, 10.000158, 9.998729 
7.1506786e+2, 2.6442286e+2, -437867.22, -549212.8, -14698.665, -0.0229218, 0.061597165, -435959.53, -87296.94, 0.0, 10.00004, 9.99856 
7.1507525e+2, 2.7442145e+2, -334351.9, -445764.63, -30861.037, -0.06475018, 0.061846636, -326374.66, -75697.05, 0.0, 10.000067, 9.998584 
7.1508306e+2, 2.844204e+2, -207777.92, -285409.94, -26277.73, -0.07073709, 0.07922116, -199719.61, -47031.598, 0.0, 10.000054, 9.99902 
7.150913e+2, 2.9441977e+2, -115268.66, -187132.03, -4163.3403, -0.0360271, 0.10879725, -115028.266, -60335.47, 0.0, 10.000003, 9.999045 
7.150989e+2, 3.0441824e+2, -88568.6, -162388.64, -6984.574, -0.056107275, 0.05702903, -87913.56, -87913.56, 0.00000004119849, 9.9999075, 9.998928 
7.151066e+2, 3.1441742e+2, -94296.33, -127494.59, 3767.1028, -0.07536467, 0.08093062, -93874.23, -93874.23, 0.0000010048329, 9.999705, 9.999265 
7.2495955e+2, 1.2442782e+2, -1615466.1, -1686474.8, 76925.46, 0.015739042, 0.0010822841, -1566246.9, 154361.48, 0.0, 10.000777, 9.999814 
7.2496784e+2, 1.3442747e+2, -1543230.3, -1640259.5, -51900.668, 0.18963337, 0.015365663, -1520700.3, 101910.93, 0.0, 10.000751, 9.999483 
7.249724e+2, 1.4442621e+2, -1470071.5, -1573070.9, 10611.122, -0.11406142, -0.04737508, -1468989.8, 55633.996, 0.0, 10.000672, 9.9993 
7.249818e+2, 1.5442608e+2, -1374709.6, -1473487.3, 8945.418, 0.0027116637, 0.005455512, -1373906.1, 52719.56, 0.0, 10.000644, 9.999324 
7.249903e+2, 1.6442561e+2, -1298989.6, -1414662.3, 1054.4668, 0.035903495, 0.03768537, -1298980.0, 29651.438, 0.0, 10.000612, 9.99907 
7.24998e+2, 1.7442463e+2, -1204667.0, -1317602.9, -8031.891, 0.0070451964, 0.03130611, -1204098.6, 26543.785, 0.0, 10.000584, 9.999078 
7.250059e+2, 1.8442369e+2, -1114220.8, -1223525.0, -8237.905, 0.0012338805, 0.030317444, -1113603.4, 19049.076, 0.0, 10.000531, 9.999076 
7.250141e+2, 1.9442281e+2, -1025423.1, -1126996.8, -3718.6528, 0.010879535, 0.028952658, -1025287.2, 9374.152, 0.0, 10.000456, 9.999102 
7.2502196e+2, 2.0442192e+2, -944627.4, -1063805.0, -16971.676, 0.0093503725, 0.042498767, -942257.6, -5587.304, 0.0, 10.00045, 9.998867 
7.2502947e+2, 2.1442103e+2, -834148.7, -958683.56, -19389.387, -0.0015585631, 0.06557159, -831199.7, 7479.822, 0.0, 10.00053, 9.9988785 
7.250372e+2, 2.2441995e+2, -748089.4, -879179.5, -8044.0693, -0.0010434904, 0.074535236, -747597.56, -6906.8696, 0.0, 10.000503, 9.998764 
7.2504526e+2, 2.3441859e+2, -670591.7, -788874.9, -3542.9602, 0.012807832, 0.057110578, -670485.6, -27781.213, 0.0, 10.000353, 9.998783 
7.250531e+2, 2.444173e+2, -588250.8, -703429.75, -12623.769, 0.014771014, 0.054617632, -586883.5, -42166.516, 0.0, 10.000267, 9.998738 
7.250605e+2, 2.5441617e+2, -489631.4, -602144.4, -15972.226, 0.0024589342, 0.06208327, -487407.97, -40679.96, 0.0, 10.000259, 9.998764 
7.25068e+2, 2.6441488e+2, -423742.22, -553872.4, -8830.322, -0.021352123, 0.07325154, -423145.75, -74404.375, 0.0, 10.000188, 9.998457 
7.2507536e+2, 2.744134e+2, -344995.7, -463579.38, -1488.3937, -0.058356993, 0.08076308, -344977.0, -94219.45, 0.0, 10.000048, 9.998471 
7.250832e+2, 2.8441226e+2, -211521.06, -280519.22, 2390.532, -0.061425343, 0.090124354, -211438.33, -58669.246, 0.0, 9.999998, 9.99908 
7.2509146e+2, 2.944115e+2, -100964.12, -171958.66, -13858.049, -0.026749676, 0.09526948, -98354.94, -43580.164, 0.0, 10.000066, 9.99912 
7.2509885e+2, 3.044103e+2, -75371.266, -157318.95, -24438.469, -0.0576609, 0.07535005, -68636.68, -68636.68, 0.000000018939705, 10.000004, 9.998917 
7.251062e+2, 3.144094e+2, -94381.58, -141999.69, 28202.133, -0.085425004, 0.09254089, -81282.21, -81282.21, 0.0000007295325, 9.999766, 9.999137 
7.349602e+2, 1.2441956e+2, -1630241.1, -1717611.3, 62884.26, 0.0025915098, -0.0362959, -1597357.1, 123331.29, 0.0, 10.000778, 9.9996 
7.349682e+2, 1.3441962e+2, -1558148.8, -1670772.8, -53607.676, 0.14953259, 0.038169783, -1536712.4, 85976.76, 0.0, 10.000749, 9.999274 
7.3497295e+2, 1.4441848e+2, -1459363.6, -1551061.1, 8057.8467, -0.12969151, -0.008333278, -1458660.9, 66040.055, 0.0, 10.000673, 9.999451 
7.3498267e+2, 1.5441826e+2, -1362533.3, -1449718.9, 8993.011, 0.02278004, 0.019701703, -1361615.3, 65087.547, 0.0, 10.000649, 9.999484 
7.349911e+2, 1.6441768e+2, -1313500.3, -1444858.5, -678.4592, 0.0569435, 0.042936042, -1313496.8, 15212.875, 0.0, 10.000612, 9.998863 
7.349984e+2, 1.7441663e+2, -1220717.3, -1350621.3, -9026.371, -0.010149241, 0.050531603, -1220093.0, 10629.475, 0.0, 10.000582, 9.998853 
7.350062e+2, 1.8441579e+2, -1107518.9, -1209218.4, -11662.398, -0.02175062, 0.06741484, -1106198.6, 26533.373, 0.0, 10.000529, 9.999176 
7.350147e+2, 1.9441523e+2, -1017253.56, -1109885.8, -6478.238, 0.021821931, 0.08775905, -1016802.7, 17934.633, 0.0, 10.000455, 9.99922 
7.350227e+2, 2.044143e+2, -946926.75, -1067988.4, -15040.112, 0.038227692, 0.09028821, -945086.2, -8339.584, 0.0, 10.000447, 9.99884 
7.350303e+2, 2.1441285e+2, -837642.0, -964760.5, -16163.891, 0.025842084, 0.062480778, -835618.9, 3142.0464, 0.0, 10.0005245, 9.998839 
7.350379e+2, 2.244117e+2, -741447.5, -864596.25, -14015.036, 0.013689662, 0.0617964, -739872.6, 900.06244, 0.0, 10.000499, 9.998866 
7.3504555e+2, 2.3441084e+2, -662792.4, -772911.3, -9062.488, 0.0011231103, 0.08522798, -662051.56, -19270.18, 0.0, 10.000354, 9.998894 
7.350532e+2, 2.4440974e+2, -591983.1, -711415.94, -13685.855, -0.007087339, 0.09680719, -590434.94, -45642.555, 0.0, 10.000268, 9.998683 
7.350607e+2, 2.5440833e+2, -494787.8, -611483.25, -15925.468, -0.010255708, 0.085541956, -492653.5, -45847.42, 0.0, 10.000254, 9.998703 
7.350682e+2, 2.64407e+2, -410998.1, -526152.5, -14012.121, -0.022203824, 0.08581974, -409317.6, -60498.17, 0.0, 10.000182, 9.998651 
7.3507553e+2, 2.7440575e+2, -331112.84, -434648.03, -6193.689, -0.043032967, 0.09186595, -330743.66, -79911.28, 0.0, 10.000048, 9.998671 
7.3508334e+2, 2.8440443e+2, -238267.52, -336312.78, 4410.595, -0.04480191, 0.0896525, -238069.52, -85223.58, 0.0, 9.999999, 9.998696 
7.350915e+2, 2.94403e+2, -131377.23, -232757.75, -9937.53, -0.027762007, 0.073706165, -130412.32, -75552.59, 0.0, 10.000055, 9.998708 
7.3509884e+2, 3.0440226e+2, -40917.305, -83375.05, -32212.375, -0.06753306, 0.09561699, -23567.658, -23567.658, 0.0000000073965225, 9.999994, 9.99943 
7.35106e+2, 3.1440195e+2, -58425.406, -63832.28, 17969.174, -0.08218207, 0.11590884, -42957.44, -42957.44, 0.0000004773962, 9.999752, 9.99968 
7.449609e+2, 1.2441172e+2, -1633955.8, -1725557.1, 48206.55, -0.008127945, -0.024921792, -1613261.5, 107504.52, 0.0, 10.000781, 9.999543 
7.449689e+2, 1.3441183e+2, -1546947.9, -1671762.1, -48379.176, 0.13669364, 0.06062752, -1530391.8, 92374.87, 0.0, 10.000855, 9.999214 
7.449738e+2, 1.4441063e+2, -1445085.9, -1549412.5, 8995.436, -0.120494805, 0.015663251, -1444315.9, 80463.06, 0.0, 10.000792, 9.999406 
7.449834e+2, 1.5441035e+2, -1361850.6, -1454611.3, -5517.3276, 0.027240768, 0.040096678, -1361523.6, 65258.1, 0.0, 10.000676, 9.999438 
7.449918e+2, 1.644097e+2, -1306292.1, -1438126.9, -10015.752, 0.06041813, 0.057909265, -1305535.6, 23253.398, 0.0, 10.0006485, 9.998892 
7.449991e+2, 1.7440858e+2, -1196904.0, -1335550.6, 649.54254, -0.004654155, 0.056807514, -1196900.9, 33901.008, 0.0, 10.0007305, 9.998883 
7.450069e+2, 1.8440774e+2, -1088667.9, -1208442.0, -2317.711, -0.016631423, 0.07523278, -1088623.1, 44188.414, 0.0, 10.000693, 9.999102 
7.4501514e+2, 1.9440725e+2, -1014372.1, -1117886.3, -13472.357, 0.02221203, 0.10994924, -1012647.44, 22169.375, 0.0, 10.000514, 9.999138 
7.4502313e+2, 2.044063e+2, -946667.06, -1059624.5, -19741.156, 0.038108855, 0.112950064, -943316.4, -6490.118, 0.0, 10.000414, 9.998914 
7.4503076e+2, 2.144048e+2, -847309.1, -959630.56, -12445.962, 0.0303679, 0.06757928, -845946.56, -7105.712, 0.0, 10.000418, 9.998925 
7.450384e+2, 2.2440363e+2, -754738.7, -874132.0, -12971.423, 0.018581918, 0.06424767, -753345.7, -12493.226, 0.0, 10.000422, 9.998839 
7.450459e+2, 2.3440291e+2, -655777.4, -773095.7, -19722.084, 0.00060273183, 0.10429273, -652550.75, -9690.447, 0.0, 10.000418, 9.998861 
7.450534e+2, 2.4440186e+2, -579483.4, -701028.75, -26900.162, -0.010911476, 0.120550916, -573796.0, -28924.99, 0.0, 10.000336, 9.998721 
7.4506086e+2, 2.544004e+2, -505235.5, -612093.6, -22635.332, -0.014888507, 0.09963469, -500638.5, -53753.258, 0.0, 10.000162, 9.998743 
7.450684e+2, 2.6439908e+2, -412278.97, -518980.8, -16502.168, -0.021954123, 0.0954448, -409785.1, -60886.875, 0.0, 10.000138, 9.998721 
7.450759e+2, 2.743979e+2, -287464.0, -405527.88, -18745.254, -0.030373592, 0.10172588, -284559.22, -33649.402, 0.0, 10.000312, 9.998744 
7.450835e+2, 2.8439653e+2, -211900.3, -325885.97, -8250.035, -0.035084866, 0.09355018, -211306.28, -58382.62, 0.0, 10.000191, 9.998676 
7.4509126e+2, 2.94395e+2, -184779.89, -261612.48, 4498.322, -0.0402678, 0.067751795, -184517.42, -129578.07, 0.0, 9.999701, 9.99868 
7.450985e+2, 3.0439463e+2, -94930.195, -101712.78, -6438.9272, -0.082725205, 0.12444449, -91044.08, -91044.08, 0.0000000015345106, 9.99959, 9.999497 
7.451061e+2, 3.1439415e+2, -15837.158, -26177.395, 3229.5615, -0.06528727, 0.11986103, -14911.36, -14911.36, 0.00000026410652, 9.99997, 9.999833 
7.549615e+2, 1.24404326e+2, -1628736.1, -1716041.4, 38550.938, -0.025571126, 0.036370337, -1614150.3, 106690.41, 0.0, 10.000785, 9.999607 
7.5496984e+2, 1.3440411e+2, -1541594.3, -1660603.3, -46098.457, 0.14784274, 0.08203757, -1525826.9, 97016.5, 0.0, 10.000855, 9.999291 
7.549749e+2, 1.4440271e+2, -1462360.9, -1584892.4, 3110.4194, -0.089350045, 0.023999138, -1462282.0, 62575.793, 0.0, 10.000792, 9.999163 
7.5498396e+2, 1.5440236e+2, -1379197.8, -1491132.3, -9440.118, 0.014373572, 0.067785576, -1378407.3, 48454.97, 0.0, 10.000678, 9.999187 
7.5499225e+2, 1.6440168e+2, -1286840.5, -1398548.5, -7957.6445, 0.042870667, 0.08252311, -1286276.5, 42592.89, 0.0, 10.00065, 9.999163 
7.550001e+2, 1.7440054e+2, -1175884.3, -1292802.1, 3946.0225, 0.02087994, 0.0492217, -1175751.3, 55129.37, 0.0, 10.000732, 9.999177 
7.5500786e+2, 1.8439959e+2, -1106745.1, -1245067.6, -9225.7705, 0.013196406, 0.052871943, -1106132.5, 26758.242, 0.0, 10.0006895, 9.998853 
7.5501555e+2, 1.943989e+2, -1034713.5, -1159603.8, -20079.734, 0.010953929, 0.09597246, -1031564.5, 3335.0786, 0.0, 10.000511, 9.998853 
7.5502324e+2, 2.0439799e+2, -934856.7, -1034831.3, -20826.09, 0.008167582, 0.11080973, -930691.8, 6217.17, 0.0, 10.000412, 9.999085 
7.55031e+2, 2.1439685e+2, -833314.25, -930340.9, -12373.3125, 0.009752514, 0.080766246, -831761.2, 7158.0347, 0.0, 10.000416, 9.999128 
7.5503874e+2, 2.2439577e+2, -765590.0, -895735.1, -13742.562, 0.010536067, 0.08188674, -764154.7, -23224.832, 0.0, 10.000417, 9.9986925 
7.5504637e+2, 2.3439479e+2, -668547.44, -798420.94, -19594.277, 0.009322263, 0.113963455, -665655.56, -22714.662, 0.0, 10.000413, 9.99869 
7.550538e+2, 2.4439366e+2, -571553.1, -683513.3, -33356.637, 0.001911434, 0.12606154, -562368.5, -17415.766, 0.0, 10.000331, 9.998844 
7.5506103e+2, 2.5439236e+2, -495972.16, -592587.06, -28751.488, -0.013465551, 0.10579487, -488063.44, -41098.13, 0.0, 10.000161, 9.998878 
7.550685e+2, 2.6439112e+2, -415406.47, -525162.7, -10859.732, -0.022860497, 0.10306567, -414342.28, -65364.695, 0.0, 10.000137, 9.998679 
7.550762e+2, 2.7438986e+2, -291824.4, -412543.78, -11139.362, -0.023244644, 0.1081417, -290805.13, -39815.21, 0.0, 10.000303, 9.9987 
7.5508374e+2, 2.843886e+2, -190802.61, -280460.28, -25131.213, -0.034998234, 0.10042707, -184238.81, -31236.53, 0.0, 10.000183, 9.998992 
7.550907e+2, 2.943875e+2, -161854.22, -213473.28, -13152.975, -0.06663887, 0.08194417, -158695.97, -103682.64, 0.0, 9.999699, 9.999012 
7.550978e+2, 3.0438742e+2, -118623.45, -151058.67, 5679.804, -0.105938725, 0.16644642, -117657.61, -117657.61, 0.00000000001992495, 9.999591, 9.999158 
7.551063e+2, 3.1438604e+2, -34272.836, -60156.688, 17067.693, -0.041129213, 0.110212795, -25795.152, -25795.152, 0.000000109993245, 9.999952, 9.999608 
7.6496214e+2, 1.2439642e+2, -1637773.6, -1721803.5, 37642.023, -0.036124066, 0.041744478, -1623377.8, 97540.72, 0.0, 10.000726, 9.9995985 
7.649707e+2, 1.3439615e+2, -1524162.1, -1652829.5, -43969.203, 0.14332244, 0.08333145, -1510572.1, 112349.61, 0.0, 10.000978, 9.999285 
7.6497597e+2, 1.443947e+2, -1444293.4, -1587213.4, -3180.9949, -0.070511274, 0.024404768, -1444222.6, 80714.21, 0.0, 10.000962, 9.999064 
7.6498467e+2, 1.5439427e+2, -1379447.5, -1503272.3, -5085.5005, 0.020791464, 0.070378885, -1379239.0, 47703.41, 0.0, 10.000728, 9.999081 
7.6499283e+2, 1.6439362e+2, -1289115.0, -1384687.9, 4898.3594, 0.045269687, 0.08693803, -1288864.6, 40084.715, 0.0, 10.000568, 9.999298 
7.6500076e+2, 1.7439264e+2, -1196964.4, -1285753.1, 5386.741, 0.025266042, 0.054911952, -1196638.8, 34319.355, 0.0, 10.000514, 9.9993305 
7.6500857e+2, 1.8439169e+2, -1128295.4, -1260636.4, -5814.386, 0.013795866, 0.05240391, -1128040.5, 4927.539, 0.0, 10.000565, 9.998806 
7.650161e+2, 1.9439077e+2, -1004754.94, -1151831.3, -379.0534, 0.0011943151, 0.07928923, -1004753.94, 30225.125, 0.0, 10.000746, 9.998793 
7.6502377e+2, 2.0438986e+2, -886838.0, -1016684.75, -2035.05, -0.00068584824, 0.09773532, -886806.1, 50182.895, 0.0, 10.000763, 9.999041 
7.650316e+2, 2.1438895e+2, -814722.06, -926395.4, -12961.762, 0.014527039, 0.09591465, -813237.4, 25760.08, 0.0, 10.000566, 9.999083 
7.6503927e+2, 2.243879e+2, -764202.7, -891272.44, -15773.48, 0.018622069, 0.100857034, -762273.94, -21266.096, 0.0, 10.000412, 9.998725 
7.650468e+2, 2.3438668e+2, -680359.8, -800391.44, -7564.3525, 0.007299092, 0.10573372, -679885.0, -36864.313, 0.0, 10.000316, 9.998723 
7.6505417e+2, 2.443855e+2, -586269.94, -692526.0, -19596.836, 0.000100952435, 0.111682676, -582770.9, -37737.92, 0.0, 10.000238, 9.998827 
7.650613e+2, 2.543844e+2, -493385.8, -593591.0, -27741.469, -0.002408062, 0.1117688, -486218.34, -39174.027, 0.0, 10.000189, 9.998857 
7.6506865e+2, 2.6438323e+2, -413027.97, -514241.75, -6168.0737, -0.013765571, 0.11867467, -412653.47, -63597.895, 0.0, 10.000113, 9.998765 
7.650763e+2, 2.7438205e+2, -329635.44, -420494.47, 2905.0369, -0.034300793, 0.11917369, -329542.66, -78475.445, 0.0, 9.999999, 9.998791 
7.650836e+2, 2.8438082e+2, -223357.33, -297210.44, -23881.666, -0.048593108, 0.109730326, -216307.7, -63228.35, 0.0, 9.999963, 9.998982 
7.650906e+2, 2.9437974e+2, -112158.59, -191893.89, -39589.457, -0.060562793, 0.0947416, -95841.24, -40750.613, 0.0, 10.000049, 9.998992 
7.650977e+2, 3.0437976e+2, -72573.64, -144663.53, -19233.092, -0.0984045, 0.19981262, -67763.35, -67763.35, 0.0, 9.999973, 9.999019 
7.65106e+2, 3.14378e+2, -69635.7, -67539.74, 6003.845, -0.047122207, 0.11743, -62493.1, -62493.1, 0.000000028836135, 9.999667, 9.999695 
7.749628e+2, 1.2438806e+2, -1643887.5, -1733042.3, 35667.29, -0.045883738, -0.005516628, -1631374.6, 89624.555, 0.00000000003061157, 10.00072, 9.999524 
7.749714e+2, 1.3438798e+2, -1530262.0, -1665182.0, -34810.355, 0.11921794, 0.06461167, -1521810.1, 101191.13, 0.0, 10.000978, 9.9992 
7.749769e+2, 1.4438663e+2, -1440079.1, -1579708.1, -13040.791, -0.0699487, 0.016443633, -1438871.6, 86144.22, 0.0, 10.000967, 9.999114 
7.749857e+2, 1.5438607e+2, -1376057.0, -1497451.4, -13616.059, 0.044041436, 0.046050634, -1374548.5, 52473.883, 0.0, 10.0007305, 9.99912 
7.7499366e+2, 1.6438551e+2, -1289446.3, -1384800.9, 1567.8767, 0.06521974, 0.06962768, -1289420.5, 39607.984, 0.0, 10.0005665, 9.999298 
7.750011e+2, 1.743849e+2, -1196505.0, -1284684.8, 3419.1301, 0.0068608113, 0.0741393, -1196372.6, 34661.773, 0.0, 10.000514, 9.999338 
7.750088e+2, 1.8438406e+2, -1117469.0, -1237613.4, -148.05066, -0.017689351, 0.07378732, -1117468.8, 15574.229, 0.0, 10.000561, 9.998966 
7.750167e+2, 1.943829e+2, -993570.06, -1128139.4, 6517.072, -0.009423292, 0.06013651, -993255.2, 41800.004, 0.0, 10.000743, 9.998958 
7.750246e+2, 2.043819e+2, -905736.25, -1054266.6, -9526.39, 0.008251748, 0.07358814, -905127.75, 31938.316, 0.0, 10.000755, 9.998786 
7.750324e+2, 2.143811e+2, -835456.2, -968584.25, -20476.21, 0.04289603, 0.11274788, -832378.0, 6697.329, 0.0, 10.000562, 9.9987955 
7.7503985e+2, 2.2438003e+2, -750455.94, -862373.1, -20351.209, 0.04138727, 0.120689094, -746870.1, -5783.8384, 0.0, 10.00041, 9.998924 
7.750469e+2, 2.343786e+2, -664148.25, -766558.56, -10833.634, -0.0073492425, 0.08030712, -663014.75, -19915.32, 0.0, 10.000315, 9.998956 
7.7505416e+2, 2.4437739e+2, -597487.94, -714951.25, -21936.992, -0.019099552, 0.07789262, -593524.75, -48413.188, 0.0, 10.000235, 9.998675 
7.750617e+2, 2.5437647e+2, -505996.8, -619020.6, -28928.404, 0.015836645, 0.11612636, -499022.9, -51900.62, 0.0, 10.000186, 9.998684 
7.75069e+2, 2.6437554e+2, -399439.22, -485467.88, -10202.027, 0.0038418272, 0.14186268, -398245.9, -49113.75, 0.0, 10.00011, 9.998965 
7.75076e+2, 2.7437454e+2, -315073.97, -389205.78, -530.57556, -0.06604419, 0.1386751, -315070.16, -63928.785, 0.0, 9.999994, 9.999008 
7.750833e+2, 2.8437322e+2, -245365.44, -341829.9, -21362.027, -0.079353034, 0.12417632, -240846.52, -87691.99, 0.0, 9.999958, 9.998679 
7.75091e+2, 2.943717e+2, -137513.94, -242829.13, -34442.96, -0.025820358, 0.10050745, -127249.84, -72078.41, 0.0, 10.000041, 9.998646 
7.7509797e+2, 3.043717e+2, -71567.4, -141217.61, -28682.684, -0.06344603, 0.22142997, -61276.16, -61276.16, 0.0, 9.999968, 9.999045 
7.7510524e+2, 3.1437013e+2, -46956.5, -18715.104, -6247.128, -0.09100948, 0.1500695, -17394.924, -17394.924, 0.0000000029769756, 9.999659, 10.000035 
7.849638e+2, 1.2438009e+2, -1572749.3, -1711873.0, 26084.238, -0.044607323, -0.01433651, -1568019.6, 153057.42, 0.0000000009851104, 10.001264, 9.999409 
7.849723e+2, 1.3438e+2, -1560047.5, -1691840.6, -39834.82, 0.11177843, 0.06596005, -1548943.0, 74136.86, 0.0, 10.000828, 9.999089 
7.8497785e+2, 1.4437868e+2, -1478418.9, -1584599.9, -12727.529, -0.05958024, 0.02083753, -1476914.6, 48179.504, 0.0, 10.000643, 9.999238 
7.8498656e+2, 1.5437815e+2, -1347319.4, -1467852.1, -5919.2554, 0.05429592, 0.03899609, -1347029.4, 80070.31, 0.0, 10.00086, 9.99926 
7.849944e+2, 1.643776e+2, -1254315.1, -1382157.5, 5270.212, 0.07229504, 0.06264457, -1254098.3, 75007.47, 0.0, 10.00087, 9.99917 
7.8500164e+2, 1.7437701e+2, -1189908.6, -1298168.3, -5531.3438, 0.0054356693, 0.08334697, -1189626.8, 41485.73, 0.0, 10.00063, 9.999189 
7.8500926e+2, 1.8437621e+2, -1121258.3, -1225644.5, -7879.5996, -0.017523251, 0.08942097, -1120666.9, 12454.064, 0.0, 10.000475, 9.99909 
7.8501743e+2, 1.9437513e+2, -1029229.25, -1129174.3, -3479.4587, 0.0031294113, 0.06938008, -1029108.3, 6023.2686, 0.0, 10.000429, 9.999102 
7.8502524e+2, 2.0437413e+2, -959464.1, -1089607.5, -18530.023, 0.019772781, 0.07867698, -956877.25, -19734.836, 0.0, 10.000428, 9.998701 
7.850328e+2, 2.1437322e+2, -853338.4, -988757.6, -16769.16, 0.03655658, 0.116939306, -851292.7, -12139.1875, 0.0, 10.000488, 9.998692 
7.8504014e+2, 2.2437216e+2, -731748.06, -836742.6, -11734.973, 0.03023113, 0.12627283, -730452.5, 10711.818, 0.0, 10.000468, 9.999072 
7.8504723e+2, 2.3437095e+2, -647209.94, -739802.75, -8850.327, -0.0077125533, 0.08917311, -646371.56, -3196.8684, 0.0, 10.000352, 9.999121 
7.850544e+2, 2.4436976e+2, -583676.2, -708042.0, -12209.788, -0.02307537, 0.082555376, -582488.8, -37302.867, 0.0, 10.000329, 9.998676 
7.850617e+2, 2.5436872e+2, -473031.78, -604502.6, -7776.346, -0.010131728, 0.10768601, -472573.44, -25375.346, 0.0, 10.000418, 9.998672 
7.850689e+2, 2.6436776e+2, -376617.63, -474901.78, 322.6979, -0.019056482, 0.13426821, -376616.56, -27408.49, 0.0, 10.000268, 9.998961 
7.8507596e+2, 2.7436695e+2, -339435.3, -401547.34, -8355.914, -0.05410109, 0.14961427, -338330.8, -87115.055, 0.0, 9.999829, 9.999003 
7.8508335e+2, 2.8436562e+2, -282262.28, -365466.66, -11981.993, -0.05464928, 0.13575481, -280571.2, -127341.96, 0.0, 9.99973, 9.998627 
7.850911e+2, 2.943638e+2, -141552.02, -251043.13, -4197.6333, -0.015250655, 0.08951437, -141391.33, -86142.484, 0.0, 10.000041, 9.998589 
7.8509796e+2, 3.0436367e+2, -67020.11, -157509.03, -9266.902, -0.06458026, 0.20802243, -66080.84, -66080.84, 0.0, 10.000079, 9.998879 
7.8510493e+2, 3.1436217e+2, -18437.8, 7393.153, -10153.762, -0.09769623, 0.15882851, 10906.566, 10906.566, 0.0, 9.999802, 10.000146 
7.94965e+2, 1.24372564e+2, -1583195.5, -1735731.4, 214.28685, -0.04546346, 0.01752656, -1583195.1, 137956.38, 0.0000000034592607, 10.001272, 9.999242 
7.949732e+2, 1.3437222e+2, -1569296.9, -1712358.3, -56729.97, 0.11975782, 0.08643331, -1549531.8, 73625.56, 0.0, 10.000833, 9.998947 
7.949786e+2, 1.4437088e+2, -1464117.9, -1554649.9, -7927.29, -0.040962506, 0.0369958, -1463429.0, 61742.547, 0.0, 10.000643, 9.999443 
7.949874e+2, 1.5437053e+2, -1330717.5, -1432635.4, 2666.4294, 0.047095593, 0.049695548, -1330647.8, 96526.13, 0.0, 10.000858, 9.999503 
7.949952e+2, 1.6436993e+2, -1272474.6, -1419781.9, -3536.0676, 0.061545387, 0.06635084, -1272389.9, 56790.59, 0.0, 10.000869, 9.998914 
7.9500246e+2, 1.7436899e+2, -1210776.5, -1342060.8, -14329.904, 0.019809231, 0.08251043, -1209230.6, 21961.469, 0.0, 10.000631, 9.998889 
7.950101e+2, 1.8436816e+2, -1115632.4, -1213167.1, -10807.576, 0.0120361475, 0.09844387, -1114449.1, 18752.291, 0.0, 10.000472, 9.999177 
7.950182e+2, 1.9436747e+2, -1021625.75, -1112782.4, -5326.271, 0.03642498, 0.10536574, -1021315.56, 13892.408, 0.0, 10.000426, 9.999215 
7.950258e+2, 2.0436653e+2, -954109.56, -1077684.8, -17373.887, 0.031597525, 0.11187279, -951713.3, -14495.549, 0.0, 10.000424, 9.998784 
7.950329e+2, 2.1436529e+2, -848206.2, -977125.2, -14425.63, -0.00586708, 0.10919385, -846611.75, -7379.973, 0.0, 10.0004835, 9.998774 
7.950402e+2, 2.2436434e+2, -726199.7, -824057.06, -16544.49, -0.017047264, 0.11786146, -723478.2, 17763.46, 0.0, 10.000463, 9.999162 
7.9504764e+2, 2.3436369e+2, -641134.4, -726760.75, -13107.151, 0.004483802, 0.13149053, -639172.94, 4073.512, 0.0, 10.00035, 9.999211 
7.950548e+2, 2.4436265e+2, -573669.56, -686819.2, -9707.755, -0.013522848, 0.1252499, -572842.7, -27586.621, 0.0, 10.000326, 9.998823 
7.950614e+2, 2.5436112e+2, -463562.34, -583370.7, -3956.3738, -0.08238142, 0.08813783, -463431.84, -16160.335, 0.0, 10.000411, 9.99882 
7.9506856e+2, 2.6435998e+2, -391280.22, -504002.16, -15508.511, -0.085035786, 0.09654614, -389185.47, -39902.32, 0.0, 10.000261, 9.998765 
7.950764e+2, 2.7435932e+2, -355155.4, -433855.16, -24099.824, -0.0014712419, 0.14833292, -348361.88, -97071.34, 0.0, 9.999827, 9.998783 
7.950839e+2, 2.8435802e+2, -270439.34, -340498.28, -1337.6208, 0.022434061, 0.14327008, -270413.8, -117110.31, 0.0, 9.999728, 9.998799 
7.9509103e+2, 2.9435614e+2, -128580.695, -222078.84, 8804.638, -0.03423926, 0.069817394, -127758.8, -72436.45, 0.0, 10.000031, 9.998793 
7.950976e+2, 3.0435577e+2, -91031.49, -205682.05, -19005.57, -0.107654534, 0.16710633, -87963.07, -87963.07, 0.0, 10.000072, 9.998552 
7.95105e+2, 3.1435403e+2, -26785.17, -7975.584, -20735.58, -0.07321484, 0.13354148, 5388.339, 5388.339, 0.0, 9.999793, 10.000045 
8.0496615e+2, 1.24364905e+2, -1647245.1, -1760178.3, -13101.506, -0.040211093, 0.043002684, -1645745.1, 75482.78, 0.0000000057252847, 10.000803, 9.999301 
8.049742e+2, 1.343644e+2, -1519451.3, -1679555.8, -48303.17, 0.12494346, 0.08770082, -1506007.3, 117227.27, 0.0, 10.001139, 9.999024 
8.0497974e+2, 1.4436302e+2, -1402202.0, -1532056.1, -695.39233, -0.022239748, 0.03473132, -1402198.3, 123050.305, 0.0, 10.001101, 9.999376 
8.0498815e+2, 1.5436272e+2, -1359450.3, -1455638.3, -14204.851, 0.050006118, 0.06019471, -1357396.4, 69854.49, 0.0, 10.0007, 9.999421 
8.049959e+2, 1.6436209e+2, -1311665.9, -1437082.0, -18816.979, 0.062593825, 0.07775018, -1308903.5, 20354.316, 0.0, 10.000592, 9.998929 
8.050033e+2, 1.7436102e+2, -1176296.3, -1323167.0, -6552.69, 0.032385126, 0.07896923, -1176004.5, 55265.91, 0.0, 10.000858, 9.998909 
8.050108e+2, 1.843602e+2, -1064035.3, -1191775.9, -1433.5483, 0.023806375, 0.09515981, -1064019.1, 69260.66, 0.0, 10.000842, 9.999145 
8.050186e+2, 1.9435966e+2, -1016914.56, -1114694.0, -8206.464, 0.032838263, 0.122411594, -1016230.6, 19054.684, 0.0, 10.000478, 9.999177 
8.050261e+2, 2.043588e+2, -961608.8, -1062521.3, -13391.221, 0.024886092, 0.12999211, -959862.0, -22567.785, 0.0, 10.000294, 9.998952 
8.050333e+2, 2.1435751e+2, -856973.1, -960727.6, -3674.4443, -0.001976412, 0.1028427, -856843.1, -17535.492, 0.0, 10.000337, 9.998957 
8.0504066e+2, 2.2435653e+2, -750125.3, -844973.2, -11951.459, -0.00984583, 0.10481902, -748642.5, -7325.0313, 0.0, 10.000339, 9.999078 
8.0504805e+2, 2.3435597e+2, -657495.25, -746096.9, -23842.742, 0.0063882014, 0.13598216, -651486.6, -8163.87, 0.0, 10.000287, 9.999108 
8.050551e+2, 2.4435502e+2, -589785.4, -677410.5, -27573.207, -0.012681962, 0.1384326, -581830.94, -36499.367, 0.0, 10.000143, 9.998977 
8.050616e+2, 2.543536e+2, -527341.44, -595221.5, -21713.643, -0.07813495, 0.09701952, -520989.94, -73645.164, 0.0, 9.999892, 9.998988 
8.050687e+2, 2.6435244e+2, -450258.3, -543470.0, -27231.719, -0.077288896, 0.095183544, -442885.72, -93529.07, 0.0, 9.999905, 9.998666 
8.050765e+2, 2.7435148e+2, -302802.72, -421605.63, -29119.234, 0.010788858, 0.13036937, -296049.34, -44682.008, 0.0, 10.000243, 9.998666 
8.0508393e+2, 2.8435022e+2, -194217.55, -289013.06, -5182.7773, 0.032215428, 0.12760799, -193935.03, -40554.945, 0.0, 10.000189, 9.99893 
8.0509084e+2, 2.9434872e+2, -174996.16, -227831.94, -779.1165, -0.03671206, 0.07824403, -174984.67, -119590.195, 0.0, 9.999641, 9.99894 
8.0509734e+2, 3.0434817e+2, -175345.98, -251813.28, -14207.186, -0.11347438, 0.15392768, -172791.7, -172791.7, 0.0, 9.999517, 9.998503 
8.0510485e+2, 3.1434622e+2, 1960.5997, 25443.322, 3242.307, -0.06872334, 0.104007155, 25882.77, 25882.77, 0.0, 9.999907, 10.000219 
8.149669e+2, 1.243572e+2, -1626598.5, -1717532.6, -8922.078, -0.041059565, 0.068447724, -1625731.4, 95573.914, 0.000000004999778, 10.000805, 9.999593 
8.149753e+2, 1.3435656e+2, -1499937.5, -1637081.0, -36076.254, 0.121751, 0.070139565, -1491026.5, 132284.31, 0.0, 10.001132, 9.999318 
8.14981e+2, 1.4435516e+2, -1425708.3, -1581701.8, -15815.013, -0.009064689, 0.015214722, -1424121.0, 101203.6, 0.0, 10.001102, 9.999036 
8.14989e+2, 1.5435477e+2, -1385986.5, -1513090.3, -28482.55, 0.06190447, 0.07063285, -1379895.8, 47434.395, 0.0, 10.000709, 9.999024 
8.1499666e+2, 1.6435413e+2, -1291707.0, -1396415.4, -10960.971, 0.07347253, 0.09568961, -1290571.9, 38765.594, 0.0, 10.000596, 9.999206 
8.150042e+2, 1.7435312e+2, -1153763.4, -1275018.1, 3493.3145, 0.039320648, 0.07095361, -1153662.8, 77684.52, 0.0, 10.000854, 9.999241 
8.150116e+2, 1.8435232e+2, -1075142.8, -1213936.6, -14444.285, 0.013892306, 0.07946627, -1073655.5, 59700.34, 0.0, 10.000837, 9.998996 
8.1501865e+2, 1.9435178e+2, -1029906.44, -1141749.3, -21913.377, -0.008704196, 0.12231941, -1025766.25, 9596.77, 0.0, 10.000477, 9.998992 
8.150261e+2, 2.0435096e+2, -944863.7, -1027290.4, -13542.859, -0.0020319612, 0.13377002, -942695.56, -5324.2637, 0.0, 10.000291, 9.999195 
8.1503415e+2, 2.1434984e+2, -838288.94, -921274.8, -2186.9731, 0.04505916, 0.09723699, -838231.4, 1149.6729, 0.0, 10.000334, 9.999229 
8.1504154e+2, 2.2434877e+2, -767728.8, -881237.0, -14556.689, 0.048500977, 0.08697578, -765891.75, -24500.174, 0.0, 10.000337, 9.99883 
8.150482e+2, 2.3434778e+2, -677801.75, -787839.6, -25554.238, -0.003904118, 0.10324573, -672156.8, -28753.627, 0.0, 10.000285, 9.998823 
8.1505513e+2, 2.4434692e+2, -579637.7, -656195.6, -37135.492, -0.023107266, 0.12171146, -564584.5, -19172.313, 0.0, 10.000141, 9.999124 
8.150623e+2, 2.5434622e+2, -514955.3, -569316.94, -30950.87, -0.00048330694, 0.13291654, -500944.47, -53526.668, 0.0, 9.99989, 9.999167 
8.150694e+2, 2.643451e+2, -451342.88, -544997.06, -15766.47, 0.0012643094, 0.13059987, -448759.88, -99331.48, 0.0, 9.999901, 9.998657 
8.150764e+2, 2.7434346e+2, -305537.78, -425456.3, -15216.416, -0.021460764, 0.10036809, -303637.1, -52191.426, 0.0, 10.000235, 9.998644 
8.150835e+2, 2.843422e+2, -187552.3, -274087.75, -24258.898, -0.02950858, 0.09076362, -181215.69, -27756.975, 0.0, 10.000183, 9.999036 
8.150906e+2, 2.9434147e+2, -168664.86, -213937.78, -20333.238, -0.02463343, 0.1075323, -160873.55, -105407.75, 0.0, 9.999637, 9.99904 
8.1509715e+2, 3.0434084e+2, -161873.19, -221940.13, -735.9442, -0.084081195, 0.16336855, -161864.17, -161864.17, 0.0, 9.99951, 9.998711 
8.151045e+2, 3.1433868e+2, 29462.463, 85846.266, 17462.004, -0.0946129, 0.06829663, 90816.164, 90816.164, 0.0000000016901937, 9.999893, 10.000641 
8.24968e+2, 1.24349326e+2, -1584920.9, -1687611.9, 6401.777, -0.02982688, 0.05803627, -1584523.3, 136859.45, 0.0000000017683296, 10.00105, 9.999679 
8.249764e+2, 1.3434885e+2, -1513213.8, -1632476.9, -30356.152, 0.1221399, 0.06802151, -1505931.8, 117453.984, 0.0, 10.000993, 9.999417 
8.2498205e+2, 1.4434753e+2, -1455553.4, -1615868.6, -20732.922, -0.00045235478, 0.02236044, -1452915.4, 72483.58, 0.0, 10.000983, 9.998859 
8.249899e+2, 1.543469e+2, -1341772.8, -1513748.6, -20320.965, 0.06493895, 0.0718655, -1339404.1, 88003.9, 0.0, 10.001107, 9.998827 
8.249974e+2, 1.6434613e+2, -1226433.8, -1354864.8, 2142.783, 0.07384544, 0.09304487, -1226398.0, 103018.59, 0.0, 10.001002, 9.999293 
8.2500494e+2, 1.7434525e+2, -1179146.3, -1275564.9, -201.92273, 0.038689177, 0.069501095, -1179145.8, 52278.563, 0.0, 10.000629, 9.999345 
8.250122e+2, 1.8434452e+2, -1125154.0, -1240597.0, -22435.902, 0.01093221, 0.07741477, -1120947.0, 12485.121, 0.0, 10.000506, 9.998971 
8.250192e+2, 1.9434386e+2, -999079.94, -1130643.6, -19764.9, -0.016777156, 0.11610979, -996174.8, 39265.426, 0.0, 10.000706, 9.998958 
8.250266e+2, 2.04343e+2, -891937.5, -1002937.8, -16446.115, -0.0052955938, 0.12356318, -889552.06, 47897.074, 0.0, 10.00066, 9.999184 
8.250346e+2, 2.1434186e+2, -843579.6, -924783.6, -26612.846, 0.059788868, 0.08484463, -835635.06, 3823.8464, 0.0, 10.000301, 9.99922 
8.25042e+2, 2.2434083e+2, -795718.25, -894014.75, -34440.434, 0.06541226, 0.07945999, -784852.4, -43383.234, 0.0, 10.000142, 9.9988365 
8.2504845e+2, 2.3433997e+2, -683972.8, -789978.4, -24688.947, -0.0063745216, 0.10846593, -678504.75, -35024.664, 0.0, 10.000239, 9.99883 
8.250553e+2, 2.4433911e+2, -563976.6, -651883.2, -36639.895, -0.025861148, 0.128919, -550707.8, -5218.554, 0.0, 10.000263, 9.999094 
8.250625e+2, 2.5433826e+2, -472715.6, -552024.25, -47129.902, 0.021725377, 0.12868075, -450776.94, -3280.748, 0.0, 10.000195, 9.999139 
8.250696e+2, 2.643372e+2, -419738.16, -511412.13, -26874.17, 0.022996908, 0.12505634, -412440.88, -62934.695, 0.0, 10.00004, 9.998819 
8.250763e+2, 2.743359e+2, -359504.38, -431654.4, -12388.789, -0.032944873, 0.10808032, -357436.38, -105916.18, 0.0, 9.99978, 9.998819 
8.2508326e+2, 2.8433478e+2, -265654.6, -309802.72, -27126.803, -0.0454275, 0.10672694, -252755.4, -99223.99, 0.0, 9.999639, 9.999053 
8.250904e+2, 2.9433405e+2, -167070.58, -211916.1, -32422.9, -0.007344556, 0.121527836, -150072.22, -94533.33, 0.0, 9.999643, 9.999049 
8.2509696e+2, 3.0433315e+2, -143400.14, -209673.28, -5416.422, -0.05868452, 0.14700675, -142960.39, -142960.39, 0.0, 9.999621, 9.998741 
8.251042e+2, 3.143314e+2, -10575.197, 83861.2, -4982.482, -0.094268695, 0.09154912, 84123.35, 84123.35, 0.000000023716037, 9.999544, 10.000794 
8.349691e+2, 1.24341324e+2, -1592481.0, -1704659.4, -2186.87, -0.019938834, 0.011188635, -1592438.5, 129021.55, 0.000000000051048894, 10.001053, 9.999561 
8.349773e+2, 1.3434139e+2, -1517085.3, -1643593.6, -31702.357, 0.12347487, 0.080864295, -1509585.4, 113873.4, 0.0, 10.001003, 9.999336 
8.349831e+2, 1.4434017e+2, -1457419.8, -1621206.1, -17925.543, 0.0004459051, 0.05502964, -1455480.8, 69990.53, 0.0, 10.00099, 9.998819 
8.349909e+2, 1.5433909e+2, -1344029.1, -1516564.0, -15643.3125, 0.05630495, 0.063307025, -1342622.3, 84862.14, 0.0, 10.001101, 9.998811 
8.349983e+2, 1.6433819e+2, -1232795.1, -1368023.6, -11372.176, 0.06020035, 0.071451455, -1231845.4, 97649.266, 0.0, 10.001, 9.999205 
8.350055e+2, 1.7433749e+2, -1185630.4, -1290543.9, -13736.099, 0.028740855, 0.076708496, -1183861.8, 47639.105, 0.0, 10.000634, 9.99924 
8.3501273e+2, 1.8433677e+2, -1118977.4, -1227914.5, -16816.223, 0.012359614, 0.08953249, -1116440.6, 17067.537, 0.0, 10.000507, 9.999058 
8.3502007e+2, 1.9433597e+2, -992630.7, -1115942.0, -12377.647, 0.0057976306, 0.10217271, -991400.5, 44116.33, 0.0, 10.0007, 9.999061 
8.350274e+2, 2.0433493e+2, -910281.25, -1040490.94, -29565.648, 0.012541529, 0.09886996, -903882.44, 33645.098, 0.0, 10.000656, 9.998928 
8.350347e+2, 2.1433358e+2, -863414.56, -965821.06, -40431.23, 0.040903326, 0.06633206, -849376.3, -9835.404, 0.0, 10.0003, 9.9989395 
8.350419e+2, 2.2433272e+2, -778576.5, -858469.6, -32785.6, 0.039558567, 0.08212733, -766845.0, -25295.14, 0.0, 10.000142, 9.999081 
8.3504874e+2, 2.3433255e+2, -664280.1, -748819.7, -21051.174, -0.0022392196, 0.15168463, -659328.25, -15775.122, 0.0, 10.000237, 9.999114 
8.3505553e+2, 2.4433164e+2, -578247.4, -680822.5, -39309.68, -0.02210486, 0.16143371, -564915.5, -19353.049, 0.0, 10.000259, 9.998898 
8.350624e+2, 2.543298e+2, -489662.84, -586358.44, -48982.285, -0.013992934, 0.08563433, -469186.44, -21606.785, 0.0, 10.000191, 9.998905 
8.3506924e+2, 2.6432875e+2, -396806.53, -464241.1, -36501.273, -0.014901989, 0.07805144, -380832.78, -31242.943, 0.0, 10.000041, 9.999144 
8.3507615e+2, 2.7432865e+2, -334675.3, -379428.8, -21739.697, -0.02550816, 0.14942224, -325853.75, -74262.51, 0.0, 9.999776, 9.999181 
8.350832e+2, 2.8432798e+2, -271898.97, -320919.7, -27171.34, -0.017650459, 0.17359848, -259816.45, -106218.08, 0.0, 9.999631, 9.99898 
8.350902e+2, 2.943265e+2, -174723.66, -226399.3, -30829.432, 0.008904635, 0.12535618, -160336.53, -104723.23, 0.0, 9.999639, 9.998952 
8.350967e+2, 3.043251e+2, -152107.83, -228065.36, -8219.388, -0.043446533, 0.108763665, -151228.58, -151228.58, 0.0, 9.999621, 9.998615 
8.351039e+2, 3.1432423e+2, -18554.176, 68921.15, -7913.068, -0.07503033, 0.15514237, 69631.2, 69631.2, 0.00000010288848, 9.999536, 10.000696 
8.4497035e+2, 1.2433384e+2, -1582482.0, -1719310.5, -2380.9888, -0.011285575, 0.015354833, -1582440.6, 139092.47, 0.0, 10.0012045, 9.999388 
8.4497845e+2, 1.3433369e+2, -1485709.1, -1645052.3, -35992.234, 0.11351784, 0.07784573, -1477956.5, 145578.5, 0.0, 10.001293, 9.999185 
8.449841e+2, 1.4433248e+2, -1413574.3, -1587377.5, -20965.215, -0.0044470932, 0.055840526, -1411081.1, 114466.39, 0.0, 10.001238, 9.99893 
8.4499186e+2, 1.543316e+2, -1340131.5, -1499819.4, -6153.772, 0.0471238, 0.06810464, -1339894.8, 87663.42, 0.0, 10.001063, 9.998942 
8.449992e+2, 1.643307e+2, -1245971.6, -1392353.8, -1749.2797, 0.053549245, 0.08129859, -1245950.8, 83617.1, 0.0, 10.000988, 9.999043 
8.450063e+2, 1.7432988e+2, -1138982.8, -1288769.1, -12198.521, 0.030056974, 0.091649435, -1137995.8, 93580.336, 0.0, 10.001044, 9.999055 
8.4501356e+2, 1.8432899e+2, -1060772.3, -1202366.1, -19236.232, 0.023058461, 0.099766046, -1058205.5, 75379.58, 0.0, 10.000916, 9.999037 
8.4502095e+2, 1.9432805e+2, -1014408.25, -1126977.5, -22890.291, 0.027400777, 0.09640516, -1009931.6, 25663.19, 0.0, 10.000552, 9.999057 
8.450281e+2, 2.0432702e+2, -950324.8, -1061452.3, -36430.176, 0.024616038, 0.09471979, -939446.94, -1841.4812, 0.0, 10.000389, 9.998913 
8.4503484e+2, 2.1432585e+2, -837977.06, -955385.56, -28374.055, 0.01672309, 0.084718384, -831479.5, 8137.859, 0.0, 10.000483, 9.998923 
8.450418e+2, 2.2432505e+2, -737107.75, -831286.4, -15079.399, 0.011534215, 0.10260879, -734752.25, 6873.7036, 0.0, 10.000397, 9.999144 
8.45049e+2, 2.3432472e+2, -681577.4, -749486.25, -20521.367, 0.007933581, 0.14945403, -675857.75, -32227.805, 0.0, 10.000087, 9.999182 
8.450558e+2, 2.4432379e+2, -614762.8, -694848.25, -33315.848, -0.004134967, 0.15212451, -602715.56, -57076.363, 0.0, 9.999994, 9.998928 
8.4506243e+2, 2.543221e+2, -488647.63, -582848.44, -24488.018, -0.027638203, 0.08811447, -482662.16, -35006.926, 0.0, 10.000185, 9.998932 
8.450691e+2, 2.643211e+2, -383788.38, -451877.66, -24770.03, -0.033676956, 0.08129511, -375730.84, -26065.752, 0.0, 10.000105, 9.999197 
8.4507596e+2, 2.7432096e+2, -344151.47, -377388.2, -34964.3, -0.014938594, 0.14087364, -322057.16, -70390.12, 0.0, 9.999684, 9.999237 
8.4508294e+2, 2.8432035e+2, -278906.63, -323358.22, -31593.0, -0.0026500816, 0.17091551, -262504.66, -108831.42, 0.0, 9.99958, 9.998986 
8.4508985e+2, 2.9431912e+2, -141365.98, -209480.75, -27557.498, -0.0017144553, 0.14706908, -131613.31, -75927.49, 0.0, 9.999865, 9.998959 
8.4509635e+2, 3.043174e+2, -129069.58, -224470.44, -13599.363, -0.04937086, 0.104254596, -127168.86, -127168.86, 0.00000000024035085, 9.999812, 9.998547 
8.451037e+2, 3.143167e+2, -57680.74, 37772.89, -13724.8125, -0.042397805, 0.16866525, 39707.12, 39707.12, 0.00000026211356, 9.999319, 10.0005865 
8.5497147e+2, 1.2432698e+2, -1599590.5, -1756350.8, -3295.1128, -0.01849701, 0.07374658, -1599521.3, 122079.97, 0.0, 10.00121, 9.99913 
8.549795e+2, 1.3432579e+2, -1504876.0, -1683787.1, -33127.52, 0.092324175, 0.06014063, -1498939.1, 124674.7, 0.0, 10.001288, 9.99892 
8.549853e+2, 1.443245e+2, -1392920.0, -1544681.8, -28144.63, -0.017117564, 0.027066156, -1387868.6, 137758.47, 0.0, 10.001236, 9.999225 
8.5499287e+2, 1.5432438e+2, -1316908.1, -1453814.9, -11664.334, 0.033292174, 0.08745493, -1315921.4, 111707.18, 0.0, 10.001072, 9.999255 
8.550002e+2, 1.6432376e+2, -1263770.8, -1430199.6, -389.82617, 0.049464766, 0.12189085, -1263769.9, 65865.7, 0.0, 10.000992, 9.998781 
8.5500747e+2, 1.7432246e+2, -1159668.1, -1330809.4, -10056.027, 0.04147042, 0.112968996, -1159079.3, 72570.58, 0.0, 10.0010395, 9.998768 
8.550146e+2, 1.8432124e+2, -1069072.6, -1219256.0, -32611.053, 0.041042194, 0.10814107, -1062297.1, 71365.5, 0.0, 10.000914, 9.998922 
8.5502166e+2, 1.9432013e+2, -1021578.5, -1142289.6, -36763.973, 0.046092678, 0.10008298, -1011263.1, 24410.65, 0.0, 10.000553, 9.998951 
8.550285e+2, 2.0431927e+2, -934704.75, -1028795.75, -34934.27, 0.029156357, 0.111449696, -923152.6, 14529.89, 0.0, 10.000387, 9.999139 
8.55035e+2, 2.1431874e+2, -821072.5, -919446.7, -25096.895, -0.0144624915, 0.13982429, -815039.8, 24648.318, 0.0, 10.000478, 9.999172 
8.550419e+2, 2.2431785e+2, -745933.4, -849256.94, -26897.678, -0.020542571, 0.14185111, -739350.6, 2346.4045, 0.0, 10.000394, 9.999022 
8.550492e+2, 2.3431651e+2, -691608.3, -770698.2, -32035.746, 0.021392787, 0.101753, -680260.3, -36550.05, 0.0, 10.000088, 9.999036 
8.5505617e+2, 2.4431558e+2, -597534.5, -659664.7, -27750.76, 0.024825793, 0.09969723, -586944.5, -41225.313, 0.0, 9.999996, 9.999169 
8.5506266e+2, 2.5431517e+2, -470354.0, -543792.7, -17140.852, -0.020957591, 0.13550867, -466550.28, -18827.357, 0.0, 10.000179, 9.999204 
8.550692e+2, 2.6431426e+2, -399432.78, -483002.66, -39621.82, -0.03410408, 0.13607228, -383634.13, -33902.38, 0.0, 10.000098, 9.998987 
8.550758e+2, 2.7431276e+2, -362022.44, -413738.9, -50022.85, -0.0053548412, 0.085765004, -331569.63, -79822.5, 0.0, 9.9996805, 9.99899 
8.5508245e+2, 2.8431192e+2, -273150.5, -311659.88, -22246.977, -0.004346437, 0.100877285, -262982.9, -109227.125, 0.0, 9.99958, 9.999067 
8.550893e+2, 2.9431188e+2, -135223.58, -194902.55, -15501.122, -0.041999087, 0.18389492, -131437.48, -75680.766, 0.0, 9.999856, 9.9990635 
8.550959e+2, 3.043101e+2, -131388.58, -227106.73, -29885.08, -0.07770645, 0.13081686, -122824.17, -122824.17, 0.0000000059514194, 9.999803, 9.998533 
8.551034e+2, 3.1430864e+2, -66735.14, 20918.365, -31951.945, -0.0031672183, 0.124982476, 31329.156, 31329.156, 0.0000005093443, 9.999311, 10.000474 
8.649727e+2, 1.24319635e+2, -1584809.5, -1743649.5, -7381.3823, -0.023449913, 0.08951307, -1584467.3, 137206.95, 0.00000000000000000000885557, 10.00129, 9.999177 
8.649807e+2, 1.3431841e+2, -1509752.4, -1677664.8, -9964.542, 0.08514084, 0.06523911, -1509163.1, 114523.29, 0.0, 10.00122, 9.998995 
8.6498654e+2, 1.4431712e+2, -1398135.0, -1554454.5, -3727.5742, -0.014849232, 0.03153713, -1398046.1, 127653.22, 0.0, 10.001233, 9.999159 
8.649941e+2, 1.5431687e+2, -1275738.5, -1443208.5, -19233.729, 0.032699514, 0.0874041, -1273557.9, 154144.16, 0.0, 10.001393, 9.999173 
8.650013e+2, 1.6431615e+2, -1214339.8, -1418535.8, -20820.373, 0.045756195, 0.12071646, -1212238.5, 117471.81, 0.0, 10.001381, 9.998675 
8.650084e+2, 1.743148e+2, -1150717.0, -1337396.1, -15986.186, 0.030277917, 0.11702692, -1149358.0, 82367.43, 0.0, 10.001148, 9.998671 
8.6501545e+2, 1.8431358e+2, -1065153.6, -1216295.1, -31841.162, 0.026219944, 0.116963215, -1058719.5, 75018.92, 0.0, 10.0009365, 9.998931 
8.6502224e+2, 1.9431251e+2, -991516.9, -1126471.9, -28461.713, 0.033712678, 0.11198328, -985759.94, 49989.098, 0.0, 10.000753, 9.998963 
8.650289e+2, 2.043117e+2, -909432.5, -1016104.3, -21449.783, 0.028188424, 0.12478012, -905280.94, 32476.615, 0.0, 10.000558, 9.999144 
8.6503565e+2, 2.1431117e+2, -840114.6, -927967.7, -29924.684, 0.005768235, 0.15425533, -830890.2, 8873.013, 0.0, 10.000345, 9.999178 
8.6504245e+2, 2.2431026e+2, -759036.8, -852543.3, -36264.754, -0.002040083, 0.15174575, -746620.8, -4848.501, 0.0, 10.000292, 9.999048 
8.650493e+2, 2.3430881e+2, -637429.9, -741073.25, -29675.18, 0.008834382, 0.09770458, -629534.75, 14251.409, 0.0, 10.000445, 9.999066 
8.6505616e+2, 2.4430792e+2, -549688.6, -630532.0, -27604.217, 0.0069745257, 0.09704207, -541162.3, 4632.1133, 0.0, 10.000299, 9.999223 
8.650628e+2, 2.5430778e+2, -525591.4, -564267.5, -34246.39, -0.011368335, 0.155213, -505600.38, -57804.598, 0.0, 9.999775, 9.999257 
8.650692e+2, 2.643069e+2, -473036.6, -521024.06, -54754.957, -0.018305706, 0.15620904, -437249.03, -87444.445, 0.0, 9.999606, 9.998962 
8.650755e+2, 2.743051e+2, -333878.75, -403970.03, -50057.547, -0.009405317, 0.078465484, -307818.3, -55995.426, 0.0, 9.99989, 9.998956 
8.6508214e+2, 2.8430426e+2, -225194.61, -278460.16, -13163.425, -0.010851214, 0.09038306, -222119.13, -68287.7, 0.0, 9.9998665, 9.999157 
8.6508906e+2, 2.9430458e+2, -186929.83, -208198.83, -8547.718, -0.029192535, 0.19946775, -183920.44, -128091.875, 0.0, 9.999452, 9.999166 
8.650956e+2, 3.0430266e+2, -190074.67, -251556.53, -20036.316, -0.06487113, 0.12552574, -184121.48, -184121.48, 0.000000027135602, 9.999384, 9.998567 
8.6510277e+2, 3.1430128e+2, -16413.99, 31587.424, -21846.766, -0.020182014, 0.12303409, 40041.535, 40041.535, 0.00000083365, 9.999715, 10.000353 
8.749739e+2, 1.2431184e+2, -1557995.1, -1687867.6, -12489.53, -0.03772088, 0.062376186, -1556805.0, 164946.69, 0.0000000055054987, 10.001289, 9.999561 
8.7498194e+2, 1.3431162e+2, -1478044.0, -1612244.6, -12087.2705, 0.08581041, 0.092200264, -1476964.1, 146788.38, 0.0, 10.001222, 9.999443 
8.7498784e+2, 1.4431043e+2, -1430681.4, -1623087.4, 1340.6769, -0.0044918596, 0.06778565, -1430672.1, 95091.82, 0.0, 10.001237, 9.998687 
8.749956e+2, 1.5430911e+2, -1311865.0, -1518418.3, -12870.78, 0.04571882, 0.06840134, -1311066.1, 116712.14, 0.0, 10.001393, 9.998657 
8.750027e+2, 1.6430794e+2, -1208767.0, -1407393.8, -29666.02, 0.04232146, 0.0800242, -1204430.9, 125360.58, 0.0, 10.001382, 9.998753 
8.7500924e+2, 1.7430697e+2, -1142904.3, -1321714.8, -24748.713, -0.006373041, 0.10518133, -1139542.0, 92260.41, 0.0, 10.00115, 9.998777 
8.7501585e+2, 1.8430609e+2, -1056748.1, -1198531.9, -39519.324, -0.024866916, 0.12647633, -1046477.0, 87335.086, 0.0, 10.000935, 9.999055 
8.7502253e+2, 1.9430526e+2, -982739.8, -1108016.3, -35537.473, -0.011091807, 0.13163212, -973360.94, 62459.363, 0.0, 10.000752, 9.999091 
8.7502944e+2, 2.043043e+2, -924577.9, -1047274.6, -30396.217, 0.019516656, 0.13487427, -917460.56, 20369.678, 0.0, 10.000556, 9.99893 
8.7503666e+2, 2.143032e+2, -856508.3, -962135.3, -38218.313, 0.07440201, 0.1282158, -844130.5, -4288.297, 0.0, 10.000345, 9.998943 
8.750434e+2, 2.2430228e+2, -747474.44, -828460.6, -32374.855, 0.06437951, 0.13144737, -736123.4, 5728.151, 0.0, 10.000291, 9.999215 
8.7504935e+2, 2.3430163e+2, -624306.75, -712899.1, -23874.2, -0.029774223, 0.13774398, -618282.6, 25574.678, 0.0, 10.000441, 9.999263 
8.750558e+2, 2.4430089e+2, -558987.94, -649292.5, -46446.598, -0.05812314, 0.14599834, -539363.56, 6500.8535, 0.0, 10.000296, 9.999096 
8.7506264e+2, 2.5430003e+2, -536389.7, -586695.75, -53507.15, -0.002314309, 0.14775161, -502418.38, -54544.934, 0.0, 9.999774, 9.999104 
8.750691e+2, 2.6429904e+2, -462933.22, -500447.78, -45552.184, 0.010449043, 0.14078394, -432427.56, -82544.18, 0.0, 9.999607, 9.999104 
8.750752e+2, 2.7429795e+2, -322680.28, -379714.25, -38168.727, -0.02959032, 0.11684895, -303552.0, -51657.64, 0.0, 9.999886, 9.9991255 
8.7508184e+2, 2.8429735e+2, -219527.88, -265606.1, -27300.281, -0.024657292, 0.13845354, -206844.36, -52944.09, 0.0, 9.999862, 9.9992485 
8.7508917e+2, 2.9429722e+2, -181448.94, -195271.97, -23048.523, 0.032972872, 0.1955414, -164297.97, -108396.79, 0.0, 9.999445, 9.999257 
8.7509555e+2, 3.042951e+2, -185731.42, -240571.22, -8271.321, -0.013408862, 0.08990636, -184511.05, -184511.05, 0.00000006425192, 9.999376, 9.998646 
8.751017e+2, 3.1429437e+2, -26749.807, 14410.213, -7778.5903, -0.1006079, 0.15035549, 15831.187, 15831.187, 0.0000011924308, 9.999698, 10.000241 
8.8497525e+2, 1.24304414e+2, -1540646.8, -1689880.5, 9526.702, -0.031007193, 0.047415335, -1540041.0, 181783.27, 0.00000006865043, 10.001453, 9.99947 
8.8498336e+2, 1.3430431e+2, -1420307.8, -1590591.4, -30047.861, 0.083127335, 0.09746251, -1415161.1, 208662.86, 0.0, 10.001644, 9.999389 
8.849893e+2, 1.4430316e+2, -1380758.8, -1610501.6, -25913.775, -0.0025191316, 0.08307447, -1377872.1, 147963.33, 0.0, 10.001628, 9.998585 
8.8499695e+2, 1.5430161e+2, -1318916.8, -1532392.8, -8297.144, 0.044705022, 0.06944989, -1318594.8, 109257.445, 0.0, 10.001392, 9.998561 
8.850039e+2, 1.6430031e+2, -1235025.6, -1414379.0, -13935.285, 0.03814885, 0.07206846, -1233949.4, 95917.1, 0.0, 10.00118, 9.9988 
8.8501024e+2, 1.7429937e+2, -1161806.8, -1325596.3, -15290.076, -0.0136721255, 0.09481609, -1160391.6, 71485.234, 0.0, 10.000997, 9.998826 
8.850167e+2, 1.8429856e+2, -1069185.6, -1207710.0, -33847.85, -0.030844092, 0.12023382, -1061357.4, 72528.51, 0.0, 10.000862, 9.999027 
8.8502324e+2, 1.9429782e+2, -978526.56, -1108712.1, -42053.684, -0.0134296045, 0.13945162, -966123.6, 69769.87, 0.0, 10.000793, 9.999066 
8.8503003e+2, 2.0429684e+2, -906814.7, -1043674.5, -37957.566, 0.01664509, 0.14493388, -896992.25, 40911.58, 0.0, 10.000702, 9.998884 
8.8503706e+2, 2.1429555e+2, -826360.2, -952854.9, -32746.045, 0.06638338, 0.12377772, -818385.9, 21531.854, 0.0, 10.000576, 9.998896 
8.850436e+2, 2.2429466e+2, -736239.25, -816970.5, -20497.74, 0.05767485, 0.12906376, -731333.0, 10593.902, 0.0, 10.000341, 9.999269 
8.8504964e+2, 2.3429433e+2, -688553.4, -737289.56, -23353.59, -0.028049698, 0.16130586, -679169.5, -35239.723, 0.0, 9.99997, 9.999322 
8.8505584e+2, 2.4429365e+2, -627563.6, -683768.56, -49375.695, -0.054445896, 0.17196509, -598853.2, -52916.555, 0.0, 9.999832, 9.999083 
8.8506246e+2, 2.5429246e+2, -504436.1, -573192.1, -47933.992, -0.0047517493, 0.14364801, -479826.7, -31877.799, 0.0, 10.000002, 9.999086 
8.8506883e+2, 2.6429152e+2, -399106.94, -449424.84, -27228.752, 0.0065568998, 0.13369848, -387193.28, -37234.926, 0.0, 9.999958, 9.999285 
8.85075e+2, 2.7429095e+2, -345130.44, -368315.94, -18229.14, -0.029917937, 0.14375411, -335120.1, -83156.34, 0.0, 9.999637, 9.999323 
8.850815e+2, 2.8429052e+2, -278444.75, -300386.97, -16117.674, -0.02249202, 0.173864, -269918.56, -115950.49, 0.0, 9.999486, 9.999189 
8.850887e+2, 2.9429004e+2, -173320.48, -200258.4, -25680.87, 0.038310695, 0.20504802, -157790.83, -101818.07, 0.0, 9.999538, 9.999179 
8.8509506e+2, 3.0428788e+2, -158305.11, -192607.73, -3350.9434, -0.0027158302, 0.083154075, -157980.83, -157980.83, 0.00000010587227, 9.9994135, 9.998957 
8.8510114e+2, 3.142879e+2, -112710.64, -12136.232, 13223.444, -0.09044009, 0.18365297, -10426.684, -10426.684, 0.0000015115112, 9.999044, 10.000374 
8.9497685e+2, 1.24297395e+2, -1582705.4, -1777242.5, 15139.812, -0.022108005, 0.044584066, -1581534.1, 140357.34, 0.00000033567557, 10.001453, 9.99887 
8.949849e+2, 1.3429661e+2, -1462087.6, -1677712.0, -22825.607, 0.078335196, 0.084001765, -1459697.8, 164202.75, 0.00000000007521531, 10.001646, 9.99879 
8.949909e+2, 1.442954e+2, -1358051.6, -1565957.3, -35941.676, -0.007730409, 0.081526436, -1352013.6, 173899.8, 0.0, 10.001638, 9.998887 
8.949982e+2, 1.5429442e+2, -1294086.4, -1481165.4, -17223.176, 0.024683181, 0.09066658, -1292514.0, 135409.38, 0.0, 10.001393, 9.998913 
8.95005e+2, 1.6429332e+2, -1235154.9, -1414588.0, -21212.49, 0.02693063, 0.0954838, -1232681.3, 97253.51, 0.0, 10.001179, 9.998799 
8.950114e+2, 1.7429206e+2, -1162920.6, -1328260.6, -22052.783, 0.0065523875, 0.08550271, -1160029.8, 71918.38, 0.0, 10.000998, 9.998807 
8.950179e+2, 1.8429102e+2, -1081250.3, -1233138.8, -37706.348, 0.0055176127, 0.099314585, -1072404.8, 61554.715, 0.0, 10.000863, 9.998853 
8.950244e+2, 1.9429027e+2, -991244.44, -1135534.8, -45017.715, 0.024800612, 0.13590613, -978351.25, 57616.91, 0.0, 10.000795, 9.998882 
8.9503074e+2, 2.0428939e+2, -898915.75, -1026987.25, -43832.824, 0.018417273, 0.15475743, -885350.7, 52627.32, 0.0, 10.0007, 9.999001 
8.950368e+2, 2.142883e+2, -817249.25, -933133.1, -37877.293, -0.019111665, 0.14105712, -805967.2, 34022.14, 0.0, 10.000571, 9.999033 
8.9504313e+2, 2.2428747e+2, -740677.75, -825806.0, -34838.938, -0.024479501, 0.14577024, -728237.75, 13760.378, 0.0, 10.000339, 9.99921 
8.9505e+2, 2.3428693e+2, -693672.9, -748213.2, -37140.453, 0.010646116, 0.1683243, -674866.2, -30863.006, 0.0, 9.999971, 9.999247 
8.9505637e+2, 2.4428621e+2, -621555.3, -671598.75, -44632.348, 0.014969149, 0.17384073, -595409.3, -49398.56, 0.0, 9.999832, 9.9991665 
8.950623e+2, 2.542851e+2, -498028.06, -558644.56, -40783.45, -0.020151619, 0.14315732, -477524.13, -29502.041, 0.0, 9.999996, 9.999189 
8.950684e+2, 2.6428437e+2, -384057.22, -417027.84, -38584.207, -0.031902544, 0.13671784, -358584.16, -8554.824, 0.0, 9.999952, 9.999511 
8.950748e+2, 2.7428418e+2, -329770.0, -335230.7, -29680.744, -0.0128501225, 0.1602938, -302694.28, -50663.47, 0.0, 9.999631, 9.999553 
8.950812e+2, 2.8428382e+2, -293811.56, -331543.16, -14261.028, -0.005949559, 0.19688205, -289027.94, -134993.3, 0.0, 9.999481, 9.998978 
8.950877e+2, 2.9428312e+2, -190988.8, -235917.73, -21781.82, -0.01704896, 0.22789882, -182162.69, -126119.54, 0.0, 9.999534, 9.998937 
8.950941e+2, 3.0428103e+2, -122529.01, -117168.07, -16354.376, -0.03807577, 0.1048969, -103275.95, -103275.95, 0.00000013409642, 9.999409, 9.999478 
8.9510113e+2, 3.142817e+2, -88869.27, 40517.637, -15.822697, 0.0019255235, 0.21312132, 40517.637, 40517.637, 0.0000016978646, 9.999031, 10.000741 
9.049787e+2, 1.2429036e+2, -1518033.4, -1762576.3, 1679.9398, -0.0046648104, 0.05846456, -1518021.8, 203938.67, 0.0000010657902, 10.001965, 9.998727 
9.0498656e+2, 1.342892e+2, -1467340.6, -1690907.5, 398.7825, 0.079370916, 0.07021587, -1467339.9, 156633.4, 0.000000007369457, 10.001656, 9.998695 
9.0499246e+2, 1.4428796e+2, -1376333.0, -1567403.9, -1566.4082, -0.010361889, 0.068206, -1376320.3, 149666.19, 0.0, 10.001484, 9.99895 
9.0499943e+2, 1.5428731e+2, -1273174.9, -1463948.6, -6193.6426, 0.009139625, 0.102315806, -1272974.0, 155019.44, 0.0, 10.001505, 9.998979 
9.050062e+2, 1.6428632e+2, -1203651.9, -1406093.0, -25382.914, 0.016029721, 0.11679392, -1200517.8, 129486.18, 0.0, 10.001424, 9.99874 
9.050126e+2, 1.7428488e+2, -1134167.4, -1320711.0, -30882.207, 0.01741571, 0.09674805, -1129187.8, 102831.23, 0.0, 10.001225, 9.998748 
9.0501904e+2, 1.8428372e+2, -1057603.5, -1223496.4, -39431.523, 0.024024865, 0.102628075, -1048708.0, 85323.64, 0.0, 10.001036, 9.998835 
9.050253e+2, 1.9428293e+2, -983330.8, -1134109.5, -34512.805, 0.03446514, 0.13463576, -975806.44, 60234.51, 0.0, 10.00086, 9.99886 
9.050314e+2, 2.042821e+2, -905941.56, -1021770.56, -31290.928, 0.015670674, 0.15757822, -898028.94, 40021.086, 0.0, 10.000614, 9.999078 
9.05037e+2, 2.1428126e+2, -854175.06, -941552.9, -31115.234, -0.041141614, 0.16003045, -844227.44, -4168.652, 0.0, 10.000278, 9.999117 
9.050431e+2, 2.2428045e+2, -779945.0, -848402.44, -27461.2, -0.043769658, 0.16449432, -770290.7, -28223.367, 0.0, 10.000087, 9.999176 
9.050501e+2, 2.3427966e+2, -678938.75, -745761.25, -28315.11, 0.023311976, 0.16428117, -668554.4, -24478.965, 0.0, 10.000093, 9.999204 
9.0505654e+2, 2.4427892e+2, -597494.8, -645568.0, -29666.475, 0.03830944, 0.16659994, -583349.5, -37266.516, 0.0, 9.999936, 9.999294 
9.0506214e+2, 2.542782e+2, -551477.25, -568609.75, -23666.143, -0.014586243, 0.15917851, -534874.7, -86784.375, 0.0, 9.999562, 9.99933 
9.0506804e+2, 2.6427758e+2, -464820.78, -458439.88, -27341.246, -0.03437114, 0.15852687, -434103.56, -84007.22, 0.0, 9.999409, 9.999487 
9.050744e+2, 2.7427715e+2, -344021.88, -346114.5, -39419.29, -0.010304239, 0.1645777, -305635.0, -53534.8, 0.0, 9.999551, 9.999517 
9.050807e+2, 2.8427678e+2, -281014.03, -317331.1, -24073.691, -0.0071400665, 0.19771865, -269018.38, -114914.01, 0.0, 9.999534, 9.999051 
9.0508693e+2, 2.942763e+2, -219166.1, -239559.55, -8930.764, -0.032927874, 0.24390231, -215808.05, -159697.58, 0.0, 9.999298, 9.999024 
9.050933e+2, 3.0427438e+2, -144210.98, -112338.82, -3941.4575, -0.043734398, 0.12084728, -111858.64, -111858.64, 0.0000001316986, 9.999195, 9.999614 
9.051005e+2, 3.14275e+2, -63125.9, 42559.3, -23293.434, 0.028865816, 0.21308525, 47465.504, 47465.504, 0.0000016698094, 9.9992485, 10.000652 
9.149808e+2, 1.2428337e+2, -1489180.0, -1707637.4, -10901.305, 0.010372263, 0.09180978, -1488637.4, 233393.3, 0.000002613721, 10.001984, 9.999095 
9.149882e+2, 1.3428216e+2, -1437145.1, -1627306.0, -11780.199, 0.08021374, 0.055316612, -1436418.1, 187623.44, 0.00000007607973, 10.001651, 9.999134 
9.149938e+2, 1.4428094e+2, -1390689.8, -1596445.6, -1678.3702, -0.018354794, 0.041292995, -1390676.1, 135377.73, 0.0, 10.00148, 9.998753 
9.150008e+2, 1.5428036e+2, -1289701.1, -1498622.9, -4704.0825, -0.0039629415, 0.10525382, -1289595.3, 138466.58, 0.0, 10.001507, 9.998739 
9.1500753e+2, 1.6427937e+2, -1210802.6, -1422916.6, -33566.094, 0.003855598, 0.13916887, -1205617.6, 124455.66, 0.0, 10.0014305, 9.998623 
9.1501385e+2, 1.7427792e+2, -1141489.6, -1336418.5, -38717.094, 0.017018093, 0.12933703, -1134081.1, 98007.734, 0.0, 10.001226, 9.998641 
9.150201e+2, 1.8427671e+2, -1048337.75, -1203869.9, -47103.184, 0.022305958, 0.12975556, -1035184.8, 98916.99, 0.0, 10.001034, 9.998971 
9.15026e+2, 1.942758e+2, -973219.4, -1112425.0, -41430.38, 0.013293246, 0.13515776, -961822.0, 74289.336, 0.0, 10.000856, 9.999011 
9.1503185e+2, 2.0427504e+2, -904736.2, -1018730.8, -44614.01, 0.004841054, 0.15393487, -889351.8, 48767.65, 0.0, 10.00061, 9.999101 
9.1503763e+2, 2.1427447e+2, -852868.6, -938840.06, -44215.168, -0.0022045216, 0.18070278, -834187.9, 5937.794, 0.0, 10.0002775, 9.999136 
9.150437e+2, 2.2427364e+2, -780868.4, -850769.6, -29280.434, -0.0016979066, 0.18480465, -770224.1, -28089.844, 0.0, 10.000088, 9.99916 
9.150501e+2, 2.342725e+2, -680609.5, -748322.2, -27928.412, 0.009019019, 0.14998919, -670576.8, -26430.668, 0.0, 10.000089, 9.999189 
9.150562e+2, 2.4427181e+2, -585662.9, -620431.7, -43228.848, 0.013269151, 0.15167698, -556453.8, -10300.8125, 0.0, 9.999933, 9.99947 
9.1506195e+2, 2.5427175e+2, -538939.8, -542471.6, -37422.0, 0.0088951625, 0.19186608, -503242.06, -55088.6, 0.0, 9.999561, 9.999511 
9.150678e+2, 2.6427117e+2, -483595.03, -497861.0, -23224.264, -0.003295907, 0.19851351, -466433.03, -116273.766, 0.0, 9.999411, 9.999216 
9.150738e+2, 2.7427e+2, -365642.56, -390328.94, -32806.484, -0.025640335, 0.15673529, -342934.1, -90762.38, 0.0, 9.999546, 9.999216 
9.1508e+2, 2.842695e+2, -258071.89, -267750.0, -32412.443, -0.030446796, 0.177449, -230139.27, -75962.27, 0.0, 9.999526, 9.999395 
9.1508645e+2, 2.942697e+2, -192555.98, -181871.8, -17020.342, -0.012393381, 0.2538051, -169374.89, -113200.266, 0.0, 9.999288, 9.999426 
9.1509277e+2, 3.0426788e+2, -161288.48, -146275.89, -2316.481, -0.021161659, 0.13135248, -145926.58, -145926.58, 0.00000009563079, 9.999187, 9.999385 
9.150994e+2, 3.1426772e+2, -99099.2, -30167.883, -18859.96, -0.016571973, 0.17487119, -25345.123, -25345.123, 0.0000014046396, 9.999241, 10.000156 
9.249829e+2, 1.24276325e+2, -1507085.9, -1716273.8, 15312.541, 0.026312923, 0.08852112, -1505971.0, 216129.17, 0.0000053718704, 10.001866, 9.999089 
9.2498994e+2, 1.3427524e+2, -1382001.8, -1596394.3, -19539.434, 0.06817058, 0.061171457, -1380235.5, 243874.17, 0.00000033393198, 10.002011, 9.999172 
9.249954e+2, 1.4427409e+2, -1331737.9, -1575483.8, -22460.055, -0.028645137, 0.052370645, -1329685.5, 196436.03, 0.0, 10.001918, 9.998686 
9.250024e+2, 1.5427333e+2, -1292306.9, -1507003.8, -14995.488, 0.0039456505, 0.10818206, -1291264.5, 136866.64, 0.0, 10.001522, 9.9986725 
9.2500895e+2, 1.6427232e+2, -1228675.4, -1430038.0, -27909.6, 0.016391996, 0.14195314, -1224878.6, 105264.64, 0.0, 10.001307, 9.9986315 
9.2501515e+2, 1.7427102e+2, -1123604.9, -1326688.5, -24194.053, 0.0159114, 0.14465745, -1120762.3, 111395.53, 0.0, 10.001346, 9.99865 
9.2502105e+2, 1.8426985e+2, -1029787.06, -1192562.0, -40280.844, 0.01314597, 0.14933646, -1020364.5, 113805.734, 0.0, 10.001151, 9.998992 
9.250266e+2, 1.9426891e+2, -1001894.8, -1123244.1, -46442.33, 0.0011471933, 0.14841284, -986160.7, 50019.215, 0.0, 10.0006485, 9.999037 
9.250324e+2, 2.0426808e+2, -929227.25, -1025211.56, -44411.953, 0.0018178484, 0.15838906, -911830.8, 26357.33, 0.0, 10.000422, 9.999146 
9.250383e+2, 2.1426743e+2, -807821.44, -912111.5, -41978.063, 0.020055793, 0.17353128, -793024.25, 47170.41, 0.0, 10.000566, 9.999181 
9.250441e+2, 2.2426662e+2, -739082.8, -831194.75, -32452.027, 0.021901611, 0.1772648, -728798.0, 13405.091, 0.0, 10.000378, 9.999154 
9.250499e+2, 2.3426561e+2, -730453.5, -773368.8, -33086.098, 0.002268271, 0.15667112, -712476.1, -68262.086, 0.0, 9.999752, 9.999179 
9.250558e+2, 2.4426502e+2, -643002.7, -641166.06, -42453.004, -0.0013153696, 0.16327012, -599621.44, -53401.14, 0.0, 9.99951, 9.999531 
9.250617e+2, 2.5426495e+2, -500321.8, -516339.7, -45568.344, 0.015618037, 0.19737199, -462063.94, -13843.584, 0.0, 9.999794, 9.999578 
9.2506754e+2, 2.6426435e+2, -432250.25, -479421.34, -30561.27, 0.011058596, 0.20081869, -417231.78, -67005.57, 0.0, 9.999789, 9.999161 
9.250733e+2, 2.742631e+2, -392846.47, -410405.47, -23805.193, -0.021409515, 0.1595448, -376253.4, -124014.08, 0.0, 9.999391, 9.999153 
9.2507935e+2, 2.8426254e+2, -310277.06, -294315.9, -23917.086, -0.03139375, 0.17607173, -277083.06, -122837.62, 0.0, 9.999174, 9.999382 
9.2508566e+2, 2.9426268e+2, -204915.81, -188700.38, -40443.375, -0.011302742, 0.2439067, -155560.05, -99316.08, 0.0, 9.999207, 9.999419 
9.25092e+2, 3.04261e+2, -159244.7, -132329.88, -27942.518, -0.015238143, 0.13051355, -114772.99, -114772.99, 0.00000004550982, 9.9991455, 9.999501 
9.2509854e+2, 3.1426093e+2, -146638.8, -59813.906, -15878.388, -0.010353507, 0.17551182, -57001.21, -57001.21, 0.0000009683944, 9.998943, 10.000097 
9.349848e+2, 1.24269255e+2, -1536227.9, -1775405.9, 22724.777, 0.025521014, 0.041767664, -1534087.9, 188080.77, 0.000009857008, 10.00186, 9.998687 
9.349917e+2, 1.3426855e+2, -1408221.0, -1652018.8, -13251.064, 0.04114335, 0.0906653, -1407502.9, 216673.78, 0.0000009955157, 10.002018, 9.998787 
9.349972e+2, 1.4426745e+2, -1324616.8, -1565014.8, -37101.258, -0.043128543, 0.10642342, -1319021.1, 207167.44, 0.00000000002439963, 10.001934, 9.998751 
9.3500423e+2, 1.5426631e+2, -1285391.6, -1492951.3, -30056.523, 0.0300887, 0.112171136, -1281126.8, 147074.23, 0.0, 10.001522, 9.99877 
9.350106e+2, 1.642652e+2, -1219680.9, -1410651.6, -28362.303, 0.049877807, 0.12497356, -1215557.6, 114655.66, 0.0, 10.001303, 9.998766 
9.350164e+2, 1.7426418e+2, -1114917.0, -1307902.8, -22586.625, 0.011471008, 0.1423379, -1112308.8, 119916.53, 0.0, 10.001343, 9.99878 
9.3502206e+2, 1.8426318e+2, -1037518.3, -1208381.3, -58584.12, -0.007111304, 0.16217643, -1019361.0, 114875.32, 0.0, 10.001148, 9.998885 
9.3502724e+2, 1.9426225e+2, -1009535.94, -1139713.5, -65802.586, -0.003222286, 0.17476048, -982069.2, 54176.863, 0.0, 10.00065, 9.998923 
9.3503284e+2, 2.0426126e+2, -924172.1, -1015544.2, -42083.723, 0.005853063, 0.17123935, -907743.3, 30512.416, 0.0, 10.000424, 9.999212 
9.3503886e+2, 2.1426022e+2, -803186.2, -901387.2, -36794.855, 0.023460994, 0.13964792, -790929.4, 49335.906, 0.0, 10.00056, 9.999258 
9.350445e+2, 2.2425947e+2, -739988.1, -832303.4, -55026.76, 0.024035057, 0.14324601, -714323.25, 27949.898, 0.0, 10.000374, 9.999148 
9.3504965e+2, 2.3425905e+2, -731502.5, -775448.8, -56803.465, 0.0010135316, 0.18445846, -692570.4, -48291.563, 0.0, 9.999751, 9.999166 
9.3505526e+2, 2.4425852e+2, -646202.5, -648729.0, -34779.016, -0.007118235, 0.20168585, -612663.8, -66379.18, 0.0, 9.999514, 9.999477 
9.3506134e+2, 2.542578e+2, -504215.6, -523754.66, -34100.37, 0.0037576503, 0.17580673, -478512.9, -30222.164, 0.0, 9.999789, 9.99953 
9.3506724e+2, 2.6425713e+2, -422075.6, -456672.94, -43852.35, 0.0062930817, 0.16574103, -392233.28, -41936.35, 0.0, 9.999783, 9.99932 
9.350729e+2, 2.7425653e+2, -381688.3, -386268.44, -38169.99, -0.0010592709, 0.17261685, -345739.75, -93436.84, 0.0, 9.999386, 9.999322 
9.3507874e+2, 2.8425592e+2, -335580.13, -347152.13, -23857.906, -0.013322608, 0.19362321, -316816.63, -162507.08, 0.0, 9.999174, 9.99902 
9.3508464e+2, 2.942552e+2, -233523.81, -247816.64, -37589.918, -0.03414711, 0.21532066, -202407.02, -146089.0, 0.0, 9.999204, 9.999015 
9.35091e+2, 3.0425367e+2, -129888.19, -68650.18, -34938.652, -0.031050628, 0.118809424, -52812.4, -52812.4, 0.000000010385675, 9.999134, 9.999944 
9.3509793e+2, 3.1425455e+2, -123930.555, -7707.147, -21259.023, 0.038481068, 0.20499066, -3940.614, -3940.614, 0.00000050425, 9.998923, 10.000464 
9.44987e+2, 1.24262705e+2, -1450795.0, -1755029.1, 16356.697, 0.028503159, 0.058038473, -1449918.1, 272315.5, 0.000016753027, 10.002536, 9.998502 
9.449936e+2, 1.3426186e+2, -1408544.3, -1669301.8, -8189.982, 0.027558213, 0.10767009, -1408287.3, 215956.53, 0.000002343361, 10.00209, 9.998632 
9.4499904e+2, 1.4426066e+2, -1341553.1, -1566934.4, -25802.219, -0.048722703, 0.11963824, -1338636.9, 187619.7, 0.0000000053592455, 10.001795, 9.998802 
9.450058e+2, 1.5425946e+2, -1251671.9, -1469053.4, -22087.236, 0.031524654, 0.11429586, -1249450.4, 178818.48, 0.0, 10.001722, 9.9988365 
9.4501203e+2, 1.6425839e+2, -1188894.9, -1390385.0, -22575.61, 0.05321673, 0.12514499, -1186396.4, 143884.2, 0.0, 10.001492, 9.998815 
9.450176e+2, 1.742575e+2, -1155231.0, -1321487.0, -24414.701, 0.0071055656, 0.15178975, -1151719.9, 80571.42, 0.0, 10.001042, 9.998831 
9.45023e+2, 1.842566e+2, -1075142.8, -1219881.3, -54818.5, -0.009253832, 0.1726562, -1056724.5, 77577.16, 0.0, 10.000864, 9.998941 
9.450282e+2, 1.9425562e+2, -945914.7, -1102891.4, -49384.28, 0.00992552, 0.17612523, -931671.0, 104640.3, 0.0, 10.001061, 9.998978 
9.450336e+2, 2.0425463e+2, -858900.9, -987041.4, -25718.95, 0.020637099, 0.16974095, -853931.56, 84389.42, 0.0, 10.000886, 9.999185 
9.450393e+2, 2.142536e+2, -855857.0, -930483.8, -30407.537, 0.02094775, 0.14330006, -845036.1, -4705.535, 0.0, 10.000216, 9.999223 
9.4504464e+2, 2.2425283e+2, -801334.6, -858632.6, -48379.87, 0.0174618, 0.14799249, -773757.5, -31419.104, 0.0, 9.99994, 9.999177 
9.450497e+2, 2.3425242e+2, -664125.2, -739743.56, -47472.996, 0.0076233167, 0.18585718, -641244.8, 3098.916, 0.0, 10.000199, 9.999195 
9.450551e+2, 2.4425185e+2, -572409.6, -624581.44, -25011.027, 0.0015073344, 0.20108435, -562356.56, -16006.595, 0.0, 10.00007, 9.999376 
9.450609e+2, 2.5425103e+2, -567089.8, -566338.5, -30390.99, 0.000416097, 0.17455336, -536320.8, -87963.35, 0.0, 9.999412, 9.999419 
9.4506663e+2, 2.6425028e+2, -507926.56, -488216.34, -40176.063, -0.0034979272, 0.16125774, -456704.34, -106340.24, 0.0, 9.999151, 9.999408 
9.4507223e+2, 2.7424973e+2, -367034.72, -367371.13, -39820.863, -0.010185072, 0.16222031, -327381.72, -75012.59, 0.0, 9.999436, 9.999427 
9.4507796e+2, 2.8424916e+2, -293752.9, -331931.63, -18747.484, -0.020518728, 0.1827826, -286086.47, -131711.14, 0.0, 9.999483, 9.998976 
9.4508386e+2, 2.9424843e+2, -239607.94, -256703.92, -7951.1675, -0.036749344, 0.21391149, -236481.64, -180097.77, 0.0, 9.999187, 9.998961 
9.4509006e+2, 3.0424714e+2, -156469.95, -71544.45, -5166.046, -0.025146555, 0.13486524, -71231.36, -71231.36, 0.00000000032400083, 9.998909, 10.000032 
9.4509685e+2, 3.142479e+2, -163612.63, -29854.637, -25562.176, 0.05227706, 0.20130803, -25135.973, -25135.973, 0.00000016973306, 9.998664, 10.000437 
9.5498943e+2, 1.24256775e+2, -1444870.4, -1748200.8, 1767.6014, 0.017482165, 0.14041463, -1444860.1, 277434.16, 0.00002677623, 10.002558, 9.998539 
9.549957e+2, 1.3425522e+2, -1403880.6, -1659356.0, -25057.6, 0.02499754, 0.11270178, -1401446.1, 222864.11, 0.0000047533053, 10.002089, 9.998703 
9.550008e+2, 1.4425375e+2, -1339993.0, -1562378.0, -29975.516, -0.04879082, 0.09099216, -1336023.5, 190301.81, 0.000000046136613, 10.001789, 9.9988365 
9.5500726e+2, 1.5425287e+2, -1249736.8, -1464941.8, -24193.646, 0.0055528576, 0.1144196, -1247050.4, 181283.97, 0.0, 10.001722, 9.998865 
9.550132e+2, 1.6425197e+2, -1191250.9, -1396121.9, -38830.234, 0.02270053, 0.1434303, -1184138.1, 146206.2, 0.0, 10.001493, 9.998775 
9.550186e+2, 1.7425108e+2, -1157426.0, -1326846.3, -41238.34, 0.0012441052, 0.17365114, -1147921.5, 84433.72, 0.0, 10.001044, 9.998794 
9.55024e+2, 1.8425012e+2, -1059943.5, -1188777.0, -50235.57, 0.0044528246, 0.18182316, -1042671.0, 91694.61, 0.0, 10.000866, 9.999155 
9.5502955e+2, 1.9424905e+2, -930573.25, -1070141.4, -42318.297, 0.03814961, 0.15388866, -918744.5, 117630.61, 0.0, 10.001058, 9.999205 
9.5503473e+2, 2.0424819e+2, -868384.25, -1006187.5, -49909.13, 0.043183886, 0.15451556, -852207.4, 86176.09, 0.0, 10.000882, 9.999056 
9.550394e+2, 2.1424757e+2, -866573.94, -952586.4, -56226.87, 0.010866845, 0.18394493, -838791.8, 1598.4773, 0.0, 10.000215, 9.999072 
9.5504445e+2, 2.2424679e+2, -796970.25, -850166.8, -42345.473, 0.0007829666, 0.19159472, -773562.44, -31163.992, 0.0, 9.999941, 9.999235 
9.5505005e+2, 2.3424578e+2, -658931.4, -728406.8, -37412.777, 0.019865006, 0.16111037, -642615.94, 1792.5359, 0.0, 10.000196, 9.999275 
9.5505536e+2, 2.4424501e+2, -583901.44, -647846.9, -47590.227, 0.022260437, 0.1616798, -558541.06, -12125.0205, 0.0, 10.000066, 9.999218 
9.5506036e+2, 2.542446e+2, -580152.1, -593099.1, -54777.09, 0.0024803183, 0.1942406, -531467.4, -83047.05, 0.0, 9.99941, 9.999237 
9.550656e+2, 2.6424387e+2, -506081.56, -485242.1, -32221.738, -0.021023085, 0.18906075, -461797.22, -111369.89, 0.0, 9.999153, 9.999428 
9.550712e+2, 2.7424273e+2, -364550.9, -361521.0, -28108.86, -0.050751165, 0.12907755, -334886.3, -82448.72, 0.0, 9.999432, 9.999471 
9.550771e+2, 2.8424224e+2, -276862.63, -294033.1, -28078.31, -0.054578666, 0.14284693, -256086.34, -101643.695, 0.0, 9.999471, 9.999243 
9.550832e+2, 2.9424244e+2, -221445.31, -215993.36, -17727.242, -0.023928922, 0.23696102, -200783.73, -144342.05, 0.0, 9.999175, 9.999248 
9.5508915e+2, 3.0424133e+2, -175828.8, -110253.805, -14595.397, -0.0022216297, 0.17745952, -107151.95, -107151.95, 0.0, 9.998901, 9.999771 
9.550953e+2, 3.1424105e+2, -193328.88, -89618.195, -31978.443, 0.024396116, 0.16606401, -80550.66, -80550.66, 0.000000027453995, 9.998654, 10.0000305 
9.6499187e+2, 1.2425038e+2, -1441349.0, -1739957.9, 5440.8467, 0.0066746967, 0.15945277, -1441250.0, 281108.6, 0.000040530904, 10.002558, 9.998593 
9.6499777e+2, 1.3424888e+2, -1395841.1, -1644487.8, -25355.445, 0.02237065, 0.12728031, -1393281.9, 231091.67, 0.000008656152, 10.002098, 9.998798 
9.6500266e+2, 1.4424746e+2, -1341992.8, -1558862.1, -16221.465, -0.03680114, 0.10347188, -1340786.1, 185601.77, 0.00000019058375, 10.001758, 9.998876 
9.6500885e+2, 1.5424661e+2, -1274929.0, -1472993.0, -11469.599, 0.0013728486, 0.12724018, -1274267.0, 154129.38, 0.0, 10.001533, 9.9989 
9.650146e+2, 1.642457e+2, -1202349.0, -1398353.6, -24796.98, 0.014651001, 0.15038535, -1199260.5, 131145.83, 0.0, 10.001406, 9.998801 
9.650198e+2, 1.742447e+2, -1098581.3, -1294983.0, -22758.627, 0.0030389593, 0.16763301, -1095978.5, 136439.1, 0.0, 10.001434, 9.998823 
9.6502507e+2, 1.842437e+2, -1005821.6, -1163949.5, -33949.62, 0.010145279, 0.17159721, -998840.94, 135587.11, 0.0, 10.001244, 9.999143 
9.6503043e+2, 1.942427e+2, -975229.44, -1093165.3, -44784.79, 0.039095256, 0.15039934, -960150.8, 76286.65, 0.0, 10.000758, 9.99919 
9.650354e+2, 2.042419e+2, -915566.3, -1026080.8, -59235.504, 0.04094865, 0.15711007, -889816.1, 48629.29, 0.0, 10.000548, 9.999079 
9.650398e+2, 2.1424137e+2, -792014.7, -913924.8, -53482.652, 0.006716059, 0.19160224, -771877.75, 68573.64, 0.0, 10.000715, 9.999097 
9.650446e+2, 2.2424057e+2, -713351.2, -815551.94, -33451.176, -0.0020821125, 0.19996871, -703375.94, 39083.613, 0.0, 10.00054, 9.999184 
9.650501e+2, 2.3423944e+2, -705067.56, -756596.8, -40004.63, 0.02244302, 0.16351515, -683248.7, -38778.08, 0.0, 9.999907, 9.999221 
9.650552e+2, 2.4423859e+2, -650279.6, -680380.9, -52050.625, 0.023958718, 0.15737122, -611147.4, -64668.406, 0.0, 9.999614, 9.999211 
9.650599e+2, 2.542381e+2, -525106.7, -566693.4, -46639.934, -0.0055255806, 0.18403089, -494834.9, -46351.39, 0.0, 9.999789, 9.999234 
9.6506494e+2, 2.6423737e+2, -440771.44, -464375.75, -17030.314, -0.029679732, 0.18307057, -431853.5, -81362.77, 0.0, 9.999649, 9.999332 
9.6507055e+2, 2.7423632e+2, -425446.4, -402305.1, -24530.71, -0.046595607, 0.14024025, -386753.13, -134252.14, 0.0, 9.9990635, 9.999368 
9.6507627e+2, 2.8423584e+2, -373713.34, -319939.0, -32353.22, -0.04493735, 0.15365416, -304758.94, -150253.14, 0.0, 9.998716, 9.999428 
9.6508217e+2, 2.9423603e+2, -273474.4, -217541.88, -29582.662, -0.018175479, 0.22525416, -204798.84, -148294.72, 0.0, 9.998717, 9.999456 
9.65088e+2, 3.042351e+2, -197427.27, -123509.86, -18209.451, -0.003533972, 0.17407534, -119267.48, -119267.48, 0.0, 9.998768, 9.999743 
9.6509385e+2, 3.142349e+2, -172554.45, -92285.6, -17130.23, 0.008511151, 0.17817956, -88782.695, -88782.695, 0.00000000015790982, 9.998853, 9.999917 
9.749942e+2, 1.2424355e+2, -1436573.1, -1729254.6, -5542.603, -0.022234106, 0.10879505, -1436468.3, 285958.0, 0.000058506626, 10.002553, 9.998669 
9.749998e+2, 1.3424292e+2, -1386679.3, -1626635.3, -41390.73, 0.01576813, 0.15171386, -1379740.3, 244692.64, 0.00001444443, 10.002103, 9.998919 
9.750046e+2, 1.4424187e+2, -1339083.1, -1553941.0, -25063.2, -0.017762527, 0.15800193, -1336198.3, 190245.28, 0.0000005546723, 10.001761, 9.998907 
9.750106e+2, 1.5424079e+2, -1272995.8, -1468893.1, -19551.166, 0.016998515, 0.15335134, -1271063.6, 157390.98, 0.0, 10.001532, 9.998929 
9.750161e+2, 1.6423963e+2, -1195931.3, -1384933.8, -25401.57, 0.026354454, 0.14719966, -1192576.9, 137889.22, 0.0, 10.001404, 9.998894 
9.750213e+2, 1.7423843e+2, -1092256.9, -1281398.6, -21716.49, 0.010348674, 0.13498445, -1089795.5, 142682.27, 0.0, 10.001431, 9.998919 
9.750263e+2, 1.842374e+2, -1022362.94, -1197848.3, -51726.184, 0.004634353, 0.14185606, -1008250.94, 126237.54, 0.0, 10.001241, 9.998912 
9.7503096e+2, 1.9423659e+2, -993052.3, -1130204.8, -63379.41, 0.011598313, 0.16497488, -968249.5, 68248.48, 0.0, 10.000758, 9.998936 
9.750357e+2, 2.0423578e+2, -903622.7, -1001677.56, -56096.008, 0.012269884, 0.1775837, -878148.8, 60357.637, 0.0, 10.000549, 9.999247 
9.750405e+2, 2.1423501e+2, -778339.25, -884665.75, -47597.44, 0.0060682353, 0.16778015, -760145.3, 80368.15, 0.0, 10.000711, 9.9993 
9.750452e+2, 2.2423422e+2, -725409.6, -840059.4, -56362.92, 0.0061990274, 0.17399111, -702342.2, 40178.97, 0.0, 10.000537, 9.999018 
9.750499e+2, 2.3423345e+2, -719252.94, -785497.6, -64022.367, 0.014008729, 0.19364826, -680292.3, -35762.58, 0.0, 9.999904, 9.999023 
9.750547e+2, 2.442326e+2, -640139.8, -659564.1, -48272.273, 0.0053025004, 0.18990052, -600612.4, -54074.06, 0.0, 9.999614, 9.999355 
9.7505945e+2, 2.5423154e+2, -512999.25, -541033.06, -39450.684, -0.025900045, 0.14369069, -485149.34, -36602.42, 0.0, 9.999786, 9.999413 
9.750646e+2, 2.6423082e+2, -456533.63, -495993.38, -36544.492, -0.0316912, 0.14150922, -434733.2, -84178.984, 0.0, 9.999643, 9.999119 
9.7507006e+2, 2.7423045e+2, -443077.78, -438632.2, -45383.535, -0.0029631108, 0.19327961, -395417.03, -142857.75, 0.0, 9.999062, 9.99912 
9.750755e+2, 2.8423e+2, -366801.7, -306255.34, -34033.168, 0.002995595, 0.2154262, -290979.4, -136414.83, 0.0, 9.998718, 9.999521 
9.750808e+2, 2.9422924e+2, -265106.0, -199273.53, -28285.951, -0.023180792, 0.18375145, -188789.63, -132219.03, 0.0, 9.9987135, 9.999585 
9.750865e+2, 3.0422845e+2, -185610.47, -96509.66, -15119.192, -0.031011852, 0.1280116, -94014.04, -94014.04, 0.0, 9.998755, 9.999936 
9.750926e+2, 3.1422937e+2, -163757.9, -69026.695, -11297.275, -0.0048049395, 0.22322969, -67698.06, -67698.06, 0.0, 9.998832, 10.000088 
9.8499656e+2, 1.24237455e+2, -1455090.9, -1737451.1, 8117.952, -0.029105106, 0.10921646, -1454857.8, 267629.34, 0.00008108169, 10.002422, 9.998675 
9.8500174e+2, 1.3423693e+2, -1371836.4, -1616379.0, -42766.234, 0.0051430073, 0.16091883, -1364573.0, 259919.52, 0.000022462764, 10.002191, 9.998947 
9.850065e+2, 1.4423594e+2, -1309291.0, -1544517.5, -26870.56, -0.01378133, 0.17178401, -1306260.6, 220242.33, 0.0000013019285, 10.0019865, 9.998864 
9.850122e+2, 1.5423483e+2, -1237635.0, -1456350.3, -27380.27, 0.012103265, 0.17169738, -1234259.4, 194254.67, 0.0, 10.001795, 9.998888 
9.8501754e+2, 1.6423367e+2, -1174000.4, -1361858.5, -33990.984, 0.022426397, 0.16136871, -1168039.3, 162486.25, 0.0, 10.001502, 9.999004 
9.850227e+2, 1.7423242e+2, -1135768.1, -1288609.9, -29319.047, 0.020516854, 0.13178273, -1130336.9, 102199.67, 0.0, 10.001074, 9.999042 
9.850275e+2, 1.8423139e+2, -1080122.9, -1233603.1, -50644.3, 0.015079328, 0.13411273, -1064918.0, 69629.086, 0.0, 10.000877, 9.998841 
9.850317e+2, 1.9423062e+2, -963122.2, -1125234.9, -50420.363, 0.0011429084, 0.17009725, -948719.94, 87836.71, 0.0, 10.001003, 9.998852 
9.8503625e+2, 2.042298e+2, -855512.5, -979799.1, -40146.402, -0.0022149736, 0.18533146, -843672.5, 94893.08, 0.0, 10.000884, 9.999236 
9.850411e+2, 2.1422888e+2, -817483.1, -903871.1, -47649.734, 0.00935948, 0.16296485, -796363.7, 44210.098, 0.0, 10.000443, 9.999296 
9.850457e+2, 2.2422807e+2, -772655.8, -857347.1, -62559.906, 0.0122783715, 0.16492979, -739457.44, 3124.0483, 0.0, 10.000192, 9.9990635 
9.8504984e+2, 2.3422745e+2, -672986.4, -757966.5, -53738.94, 0.0023733235, 0.19324401, -646968.94, -2380.5042, 0.0, 10.000199, 9.99907 
9.850544e+2, 2.4422662e+2, -587347.7, -641077.56, -28929.867, -0.0063450364, 0.19381389, -574732.75, -28136.227, 0.0, 10.000008, 9.999292 
9.850592e+2, 2.542255e+2, -554923.4, -569353.75, -39851.57, -0.014151402, 0.14489028, -521639.1, -73032.57, 0.0, 9.999534, 9.999339 
9.8506415e+2, 2.6422468e+2, -512320.2, -523352.6, -44377.938, -0.015670242, 0.14162552, -473116.94, -122502.555, 0.0, 9.999264, 9.999113 
9.8506916e+2, 2.7422434e+2, -411100.66, -422867.97, -36649.3, -0.008834915, 0.19515987, -379865.75, -127246.734, 0.0, 9.999282, 9.999121 
9.850743e+2, 2.842238e+2, -311978.28, -299026.84, -19373.541, -0.011211126, 0.21613814, -285075.38, -130450.15, 0.0, 9.999179, 9.999349 
9.850796e+2, 2.9422283e+2, -255005.73, -215597.03, -36662.145, -0.025518475, 0.18026483, -193679.58, -137045.63, 0.0, 9.998874, 9.999395 
9.8508525e+2, 3.0422205e+2, -196390.66, -94811.86, -33493.37, -0.027237633, 0.13426779, -84762.375, -84762.375, 0.0, 9.998654, 9.999995 
9.8509127e+2, 3.1422302e+2, -196693.7, -80027.45, -42044.965, -0.0051038703, 0.22841763, -66454.164, -66454.164, 0.0, 9.998584, 10.000132 
9.9499905e+2, 1.2423214e+2, -1460925.8, -1749529.5, 3425.312, -0.029435247, 0.15718088, -1460885.1, 261655.3, 0.000108580556, 10.002423, 9.998592 
9.950038e+2, 1.34231e+2, -1377552.3, -1628079.8, -50567.074, -0.011212621, 0.15563735, -1367730.6, 256821.11, 0.000033028722, 10.00219, 9.998868 
9.950084e+2, 1.442297e+2, -1317179.6, -1560826.8, -34560.688, -0.02791, 0.1460239, -1312372.1, 214193.08, 0.0000026281716, 10.001986, 9.998753 
9.9501365e+2, 1.5422887e+2, -1245330.3, -1472397.8, -34053.797, -0.016424196, 0.1820511, -1240333.0, 188241.42, 0.00000000019976186, 10.001795, 9.998778 
9.950188e+2, 1.6422789e+2, -1165455.3, -1343805.0, -50092.254, -0.00095555023, 0.19131076, -1152349.3, 178234.75, 0.0, 10.0015, 9.99913 
9.9502385e+2, 1.7422675e+2, -1125172.8, -1267166.3, -45503.24, 0.031410184, 0.15761206, -1111842.3, 120751.266, 0.0, 10.001076, 9.999188 
9.9502856e+2, 1.8422572e+2, -1074000.4, -1221189.4, -48630.844, 0.037867688, 0.1490145, -1059384.3, 75218.99, 0.0, 10.000878, 9.998927 
9.950328e+2, 1.9422485e+2, -957808.1, -1113708.1, -46215.35, 0.005779573, 0.16773918, -945137.75, 91475.16, 0.0, 10.001, 9.998933 
9.9503714e+2, 2.0422398e+2, -868708.75, -1006708.06, -56669.523, -0.0049416027, 0.18114638, -848420.1, 90202.27, 0.0, 10.000882, 9.999053 
9.950416e+2, 2.1422304e+2, -832305.25, -933817.2, -64810.445, 0.015264059, 0.17693196, -800741.3, 39890.617, 0.0, 10.00044, 9.999092 
9.950459e+2, 2.2422218e+2, -755331.3, -821238.5, -64701.77, 0.014426434, 0.17319898, -715674.56, 26965.506, 0.0, 10.00019, 9.999313 
9.950499e+2, 2.3422144e+2, -652808.2, -715782.44, -53389.42, -0.014799102, 0.16214398, -622312.5, 22333.75, 0.0, 10.000198, 9.99936 
9.9505424e+2, 2.442207e+2, -607146.3, -681654.8, -45711.266, -0.014144815, 0.16824037, -585431.1, -38777.7, 0.0, 10.000005, 9.999015 
9.950592e+2, 2.5421992e+2, -577716.7, -616627.4, -56941.793, 0.026807735, 0.18734173, -536998.25, -88336.37, 0.0, 9.999534, 9.999016 
9.950638e+2, 2.6421905e+2, -499124.88, -496653.47, -45211.32, 0.01618232, 0.1860681, -452660.97, -101990.234, 0.0, 9.999265, 9.999296 
9.950679e+2, 2.7421805e+2, -395591.75, -389752.97, -35090.688, -0.06600263, 0.15011552, -357460.44, -104780.73, 0.0, 9.999277, 9.999351 
9.950727e+2, 2.8421727e+2, -342957.72, -361260.28, -29145.193, -0.08926941, 0.15688641, -321560.88, -166873.19, 0.0, 9.999169, 9.998926 
9.9507844e+2, 2.9421672e+2, -288502.0, -284170.06, -45792.66, -0.030404821, 0.20944552, -240492.17, -183797.75, 0.0, 9.99887, 9.998926 
9.9508417e+2, 3.042159e+2, -203676.47, -110112.58, -35919.08, 0.002195339, 0.18888165, -97913.76, -97913.76, 0.0, 9.998653, 9.999892 
9.950899e+2, 3.1421593e+2, -206668.95, -95743.375, -41002.58, 0.0011121514, 0.19715837, -82232.74, -82232.74, 0.0, 9.998563, 10.000034 
1.0050016e+3, 1.2422688e+2, -1470889.9, -1759214.4, 28730.26, -0.0145689035, 0.1760563, -1468054.9, 254537.6, 0.00014134821, 10.002373, 9.998552 
1.00500576e+3, 1.3422565e+2, -1379947.9, -1632400.1, -25890.111, -0.02946556, 0.16681068, -1377320.1, 247284.73, 0.000046426092, 10.002187, 9.99884 
1.0050104e+3, 1.4422421e+2, -1318238.8, -1565864.4, -3497.1929, -0.032175586, 0.14812192, -1318189.4, 208430.03, 0.00000474816, 10.001999, 9.998712 
1.0050156e+3, 1.5422328e+2, -1253074.6, -1481770.8, -885.6818, -0.0057065114, 0.17969283, -1253071.3, 175558.23, 0.000000004412824, 10.001764, 9.99873 
1.00502044e+3, 1.642223e+2, -1162739.0, -1350030.0, -23032.229, 0.010699268, 0.19391236, -1159948.1, 170691.06, 0.0, 10.001549, 9.999064 
1.00502506e+3, 1.7422128e+2, -1086644.1, -1255298.5, -35009.902, 0.023086442, 0.17877214, -1079665.5, 152982.66, 0.0, 10.001369, 9.999128 
1.00502945e+3, 1.8422025e+2, -1029517.9, -1190364.1, -37887.336, 0.028915608, 0.17031188, -1021040.3, 113617.266, 0.0, 10.001144, 9.99901 
1.00503385e+3, 1.9421923e+2, -970665.9, -1109232.1, -34196.086, 0.021812389, 0.16324721, -962686.3, 73981.43, 0.0, 10.000867, 9.999028 
1.0050381e+3, 2.0421831e+2, -909647.06, -1034680.4, -46895.613, 0.01578878, 0.16984631, -894013.06, 44664.457, 0.0, 10.000638, 9.998977 
1.00504205e+3, 2.1421748e+2, -832479.3, -944159.6, -48391.773, 0.012200212, 0.18600278, -814428.44, 26258.19, 0.0, 10.0004835, 9.999 
1.005046e+3, 2.2421663e+2, -737539.7, -811438.3, -44284.67, 0.004262582, 0.18653423, -716814.2, 25880.816, 0.0, 10.000308, 9.999323 
1.0050501e+3, 2.342157e+2, -665448.4, -719610.56, -53965.08, -0.010470554, 0.15500809, -632150.56, 12551.992, 0.0, 10.000102, 9.999379 
1.00505434e+3, 2.4421492e+2, -626543.7, -696244.9, -57398.24, -0.0049828487, 0.15837167, -594244.3, -47534.316, 0.0, 9.999896, 9.998966 
1.0050588e+3, 2.5421435e+2, -558319.6, -613081.6, -50563.01, 0.027316516, 0.20219806, -528199.9, -79482.836, 0.0, 9.999694, 9.9989605 
1.0050631e+3, 2.6421344e+2, -474924.2, -492790.6, -29396.6, 0.013635804, 0.20438637, -453133.4, -102407.24, 0.0, 9.999468, 9.999224 
1.0050671e+3, 2.742121e+2, -414549.5, -407313.63, -41874.582, -0.06366277, 0.14135545, -368901.0, -116162.86, 0.0, 9.999184, 9.999274 
1.0050718e+3, 2.842112e+2, -366718.3, -377008.13, -34244.7, -0.08657233, 0.14195448, -337234.2, -182486.98, 0.0, 9.999026, 9.998886 
1.00507736e+3, 2.9421085e+2, -263590.4, -276397.66, -22317.865, -0.033814073, 0.21775553, -246775.64, -190023.2, 0.0, 9.999061, 9.998887 
1.0050829e+3, 3.0421013e+2, -180381.1, -97965.85, -73.73964, -0.00054377184, 0.20788033, -97965.78, -97965.78, 0.0, 9.99881, 9.9999 
1.0050883e+3, 3.1420985e+2, -270060.75, -126896.76, 798.68884, 0.007660349, 0.18450058, -126892.3, -126892.3, 0.0, 9.99813, 10.000028 
1.015004e+3, 1.2422169e+2, -1469504.4, -1754819.3, 26037.932, -0.006174191, 0.16142206, -1467147.6, 255495.88, 0.0001798155, 10.002368, 9.998585 
1.0150077e+3, 1.3422091e+2, -1376914.4, -1625506.9, -31610.662, -0.054024994, 0.19325492, -1372957.9, 251693.27, 0.000062927356, 10.002185, 9.998888 
1.0150124e+3, 1.4421953e+2, -1317703.5, -1565093.1, -12324.551, -0.030631026, 0.1764112, -1317091.0, 209573.78, 0.000007860604, 10.001998, 9.998717 
1.01501785e+3, 1.5421817e+2, -1252514.0, -1481367.1, -9493.313, 0.040728856, 0.16529235, -1252120.9, 176557.6, 0.000000028517778, 10.001766, 9.998732 
1.0150224e+3, 1.64217e+2, -1180365.0, -1387075.3, -30911.969, 0.052896924, 0.1715341, -1175841.4, 154849.14, 0.0, 10.001551, 9.99881 
1.01502605e+3, 1.742161e+2, -1105705.3, -1294714.3, -41981.117, -0.0063826526, 0.19585021, -1096800.3, 135899.42, 0.0, 10.0013685, 9.998858 
1.0150302e+3, 1.8421507e+2, -1023779.2, -1178398.9, -49316.406, -0.013870536, 0.19697516, -1009388.9, 125320.79, 0.0, 10.0011425, 9.999093 
1.015035e+3, 1.9421382e+2, -962496.9, -1092494.4, -45076.31, 0.046996493, 0.15590173, -948396.25, 88324.53, 0.0, 10.000867, 9.999144 
1.0150391e+3, 2.0421284e+2, -908081.1, -1031369.06, -54424.3, 0.056641396, 0.15151118, -887493.8, 51236.465, 0.0, 10.000637, 9.999001 
1.0150424e+3, 2.1421227e+2, -831601.4, -942038.1, -54650.754, -0.0020666106, 0.19081491, -809129.56, 31607.795, 0.0, 10.000482, 9.999016 
1.0150461e+3, 2.2421145e+2, -754183.06, -845346.44, -53058.33, -0.021188803, 0.20491964, -729815.7, 12930.222, 0.0, 10.000304, 9.999092 
1.0150504e+3, 2.3421027e+2, -683058.44, -756090.9, -61516.8, 0.014119505, 0.1721291, -648036.2, -3279.4763, 0.0, 10.000101, 9.999129 
1.0150544e+3, 2.4420933e+2, -614873.4, -672159.25, -65563.72, 0.019579846, 0.16662285, -571969.0, -25203.422, 0.0, 9.999895, 9.999132 
1.015058e+3, 2.5420874e+2, -544379.75, -583863.9, -57673.45, -0.015157865, 0.19029747, -503163.03, -54391.504, 0.0, 9.999692, 9.999164 
1.0150621e+3, 2.642078e+2, -497948.38, -539506.94, -39328.918, -0.02681601, 0.19467196, -474246.84, -123466.12, 0.0, 9.999462, 9.998905 
1.0150669e+3, 2.742065e+2, -439421.44, -459260.94, -50669.805, -0.006946078, 0.16538058, -397709.5, -144915.38, 0.0, 9.999185, 9.998917 
1.0150716e+3, 2.8420553e+2, -345756.3, -334532.13, -33251.973, -0.008543839, 0.17072749, -306422.0, -151618.5, 0.0, 9.999029, 9.999177 
1.01507634e+3, 2.9420522e+2, -241696.88, -227444.58, -19364.35, -0.039621282, 0.21285367, -213936.77, -157129.31, 0.0, 9.999044, 9.999231 
1.0150813e+3, 3.0420467e+2, -173744.3, -79719.34, -22729.916, -0.039050024, 0.19757126, -74512.836, -74512.836, 0.0, 9.99879, 10.000034 
1.0150864e+3, 3.1420463e+2, -262783.47, -109891.375, -21613.994, 0.004213453, 0.18016508, -106894.59, -106894.59, 0.0, 9.998123, 10.000147 
1.0250063e+3, 1.2421664e+2, -1434231.3, -1736699.6, 39587.68, -0.023628104, 0.14187413, -1429135.8, 293556.2, 0.00022439056, 10.002607, 9.998592 
1.0250101e+3, 1.3421604e+2, -1352962.4, -1613478.5, -27002.098, -0.050393686, 0.19017892, -1350193.1, 274505.03, 0.0000828242, 10.002346, 9.998894 
1.02501474e+3, 1.4421465e+2, -1306588.3, -1559505.0, -10476.798, 0.0013811375, 0.17345308, -1306155.0, 220556.78, 0.000012107546, 10.002072, 9.998721 
1.0250195e+3, 1.5421316e+2, -1258340.9, -1483273.4, -8983.09, 0.03856673, 0.14970076, -1257982.6, 170743.47, 0.00000009714164, 10.001723, 9.998739 
1.0250238e+3, 1.642119e+2, -1191984.9, -1401985.6, -16243.623, 0.038351633, 0.15113638, -1190735.9, 140003.08, 0.0, 10.001513, 9.998725 
1.02502756e+3, 1.7421098e+2, -1092713.4, -1299630.9, -14640.81, -0.002661404, 0.18071468, -1091682.5, 141066.56, 0.0, 10.001504, 9.998759 
1.0250315e+3, 1.8420994e+2, -997930.9, -1167762.5, -25597.82, -0.0038428307, 0.18794195, -994156.56, 140602.84, 0.0, 10.001328, 9.999077 
1.0250359e+3, 1.9420877e+2, -952056.94, -1088183.6, -32297.443, 0.045221273, 0.15496083, -944782.75, 91987.18, 0.0, 10.000942, 9.999136 
1.0250398e+3, 2.042078e+2, -899504.6, -1025804.94, -38812.246, 0.054462038, 0.1513676, -888531.06, 50248.27, 0.0, 10.00069, 9.999013 
1.02504306e+3, 2.1420714e+2, -809813.1, -929811.8, -39130.676, 0.00966845, 0.18021585, -798180.56, 42606.367, 0.0, 10.000624, 9.999031 
1.0250466e+3, 2.2420627e+2, -742226.25, -850932.44, -38222.0, -0.007382265, 0.19281591, -730132.5, 12663.538, 0.0, 10.000436, 9.998989 
1.0250505e+3, 2.3420511e+2, -693292.75, -773330.7, -38211.227, 0.013297478, 0.17429113, -677979.8, -33172.82, 0.0, 10.000086, 9.999017 
1.0250543e+3, 2.4420413e+2, -621364.56, -680274.3, -38141.63, 0.012678921, 0.17145374, -602628.44, -55811.824, 0.0, 9.999874, 9.999085 
1.0250579e+3, 2.5420335e+2, -526199.6, -579743.4, -48956.395, -0.017275825, 0.17913888, -497173.13, -48348.707, 0.0, 9.999837, 9.999121 
1.02506176e+3, 2.6420236e+2, -469698.22, -536791.44, -37591.008, -0.022791049, 0.18373261, -452861.7, -102027.336, 0.0, 9.999703, 9.998807 
1.0250663e+3, 2.7420112e+2, -409493.7, -455650.06, -32715.54, 0.005222941, 0.177394, -392535.53, -139688.67, 0.0, 9.999439, 9.998817 
1.0250708e+3, 2.8420022e+2, -343010.22, -324108.66, -14072.32, 0.0060569253, 0.18605843, -316608.1, -161751.98, 0.0, 9.999011, 9.999255 
1.0250752e+3, 2.9419973e+2, -335909.13, -262210.03, -18460.371, -0.030253125, 0.20361514, -257844.6, -200983.39, 0.0, 9.998352, 9.999325 
1.02507986e+3, 3.0419928e+2, -256322.38, -111875.63, -23015.887, -0.037761826, 0.18907517, -108296.984, -108296.984, 0.0, 9.998192, 10.0001 
1.0250847e+3, 3.1419942e+2, -176254.2, -63499.363, -29960.576, -0.007861235, 0.18676625, -56032.832, -56032.832, 0.0, 9.998695, 10.000191 
1.0350084e+3, 1.24211766e+2, -1438447.0, -1744942.0, 30202.605, -0.082499236, 0.114081815, -1435499.1, 287238.44, 0.00027553758, 10.002605, 9.998536 
1.0350127e+3, 1.3421108e+2, -1356647.0, -1620999.0, -35940.76, -0.022724535, 0.15872514, -1351847.8, 272897.5, 0.000106410545, 10.002345, 9.998842 
1.0350174e+3, 1.4420967e+2, -1306394.8, -1559106.4, -23621.076, 0.059174605, 0.14193375, -1304205.8, 222553.48, 0.000017580353, 10.002071, 9.998725 
1.0350207e+3, 1.5420835e+2, -1257374.4, -1480993.9, -21871.152, -0.013760749, 0.1324552, -1255255.3, 173516.48, 0.00000023822265, 10.001722, 9.998755 
1.0350247e+3, 1.6420709e+2, -1186244.8, -1391272.5, -18610.432, -0.034426723, 0.13097422, -1184569.1, 146214.88, 0.0, 10.001516, 9.998797 
1.03502944e+3, 1.7420597e+2, -1087170.4, -1288468.9, -15085.038, 0.030824041, 0.13326344, -1086046.3, 146749.38, 0.0, 10.001505, 9.9988365 
1.0350335e+3, 1.8420497e+2, -1006998.3, -1186366.9, -40329.82, 0.054123815, 0.14508826, -998347.6, 136458.44, 0.0, 10.001327, 9.99895 
1.0350365e+3, 1.9420415e+2, -962164.9, -1108869.9, -47518.49, 0.015567312, 0.16147617, -948118.3, 88696.24, 0.0, 10.00094, 9.998995 
1.03504e+3, 2.0420322e+2, -899711.5, -1025871.2, -43681.332, 0.008353912, 0.16928934, -886063.75, 52760.34, 0.0, 10.000688, 9.999014 
1.03504404e+3, 2.1420212e+2, -808804.06, -927735.94, -42038.848, 0.04573455, 0.15358338, -795445.1, 45389.992, 0.0, 10.000624, 9.999045 
1.0350475e+3, 2.2420113e+2, -740919.44, -848155.4, -51907.01, 0.042902377, 0.15137942, -719910.2, 22934.809, 0.0, 10.000435, 9.999009 
1.0350503e+3, 2.3420027e+2, -691837.2, -770849.06, -51422.883, -0.014523188, 0.16117819, -666496.94, -21643.877, 0.0, 10.000087, 9.999035 
1.0350537e+3, 2.4419929e+2, -639528.0, -717391.25, -40670.74, -0.028466016, 0.1703594, -622158.8, -75295.89, 0.0, 9.999871, 9.998833 
1.035058e+3, 2.5419813e+2, -545348.7, -619820.06, -49270.61, 0.018045772, 0.16807458, -520826.06, -71950.766, 0.0, 9.999837, 9.998846 
1.0350619e+3, 2.6419705e+2, -463201.78, -523267.4, -46487.082, 0.023101754, 0.17414181, -437890.03, -87003.6, 0.0, 9.999702, 9.9989 
1.0350654e+3, 2.7419612e+2, -402091.22, -438380.63, -41656.668, -0.028979462, 0.18219395, -374799.06, -121903.24, 0.0, 9.99943, 9.998941 
1.0350693e+3, 2.8419518e+2, -351658.25, -339634.84, -37176.5, -0.04518587, 0.18916313, -307987.13, -153082.1, 0.0, 9.999001, 9.999154 
1.0350737e+3, 2.941944e+2, -343033.8, -277927.7, -40739.04, -0.010834147, 0.18589057, -258333.16, -201419.42, 0.0, 9.998357, 9.999215 
1.0350784e+3, 3.0419394e+2, -257687.11, -117168.39, -5738.7134, -0.0020605964, 0.17885436, -116934.414, -116934.414, 0.0, 9.998199, 10.000061 
1.03508316e+3, 3.1419438e+2, -182425.27, -72266.07, -7465.409, -0.03266542, 0.20880096, -71762.445, -71762.445, 0.0, 9.998676, 10.00014 
1.0450112e+3, 1.2420723e+2, -1446793.0, -1760636.4, 28104.314, -0.06181353, 0.110888794, -1444296.3, 278485.0, 0.0003338259, 10.002595, 9.998433 
1.04501486e+3, 1.3420624e+2, -1379990.5, -1644873.1, -43078.445, -0.0325947, 0.13629805, -1373160.6, 251631.55, 0.00013404706, 10.002238, 9.99873 
1.0450194e+3, 1.4420475e+2, -1303545.8, -1546912.9, -23757.617, 0.06003708, 0.11487854, -1301248.3, 225558.63, 0.000024406929, 10.002048, 9.998818 
1.04502246e+3, 1.5420379e+2, -1204449.4, -1443816.5, -17294.031, -0.021994904, 0.12783712, -1203206.4, 225609.34, 0.0000004785213, 10.002033, 9.99886 
1.04502626e+3, 1.642026e+2, -1143114.8, -1370090.8, -14260.905, -0.04162036, 0.12926622, -1142222.3, 188604.52, 0.0, 10.001811, 9.998801 
1.0450309e+3, 1.7420126e+2, -1113879.6, -1301197.0, -17894.543, 0.037697427, 0.10931646, -1112185.5, 120654.8, 0.0, 10.001323, 9.998836 
1.0450348e+3, 1.8420018e+2, -1052632.5, -1219817.1, -41683.18, 0.064804986, 0.117751345, -1042816.2, 92035.48, 0.0, 10.001065, 9.998845 
1.0450376e+3, 1.9419946e+2, -942197.56, -1112084.9, -47060.83, 0.014483648, 0.15666367, -930032.25, 106827.82, 0.0, 10.001134, 9.9988785 
1.0450408e+3, 2.0419858e+2, -852417.0, -1001245.3, -43014.32, 0.0010476311, 0.17444463, -840879.44, 97990.12, 0.0, 10.001005, 9.999028 
1.0450446e+3, 2.1419746e+2, -807831.75, -923954.2, -41758.355, 0.039324682, 0.15361252, -794374.6, 46505.85, 0.0, 10.000618, 9.999073 
1.04504794e+3, 2.2419645e+2, -744068.75, -850578.44, -48712.395, 0.042310085, 0.14811032, -725150.4, 17740.082, 0.0, 10.000418, 9.9990015 
1.0450507e+3, 2.3419556e+2, -636551.0, -745532.25, -51626.617, -0.0034168945, 0.15523547, -615978.06, 28920.885, 0.0, 10.000472, 9.9990225 
1.045054e+3, 2.4419452e+2, -586695.9, -703938.2, -41043.754, -0.013907174, 0.16535604, -573755.6, -26846.125, 0.0, 10.000284, 9.998725 
1.04505785e+3, 2.5419334e+2, -564052.8, -640904.2, -39521.992, 0.024330756, 0.17103428, -547355.7, -98432.97, 0.0, 9.999763, 9.998735 
1.0450615e+3, 2.6419225e+2, -503464.2, -527225.1, -27651.898, 0.023488289, 0.17785244, -485248.6, -134314.9, 0.0, 9.999361, 9.999038 
1.0450647e+3, 2.7419135e+2, -435337.78, -436742.78, -20379.426, -0.031525433, 0.17434056, -415648.75, -162706.97, 0.0, 9.9991255, 9.999099 
1.0450682e+3, 2.8419042e+2, -365230.72, -368088.1, -18755.555, -0.05051468, 0.1795469, -347849.5, -192898.38, 0.0, 9.999001, 9.998958 
1.0450723e+3, 2.941895e+2, -264013.94, -265001.78, -33964.617, -0.017192708, 0.18937567, -230539.64, -173577.89, 0.0, 9.999008, 9.998989 
1.0450768e+3, 3.0418903e+2, -184972.9, -75315.43, 5157.0137, -0.0029472306, 0.18745072, -75073.44, -75073.44, 0.0, 9.998671, 10.000121 
1.04508154e+3, 3.1418943e+2, -293025.28, -116599.766, 12952.719, -0.020314338, 0.20418347, -115653.875, -115653.875, 0.0, 9.997879, 10.000218 
1.05501465e+3, 1.2420306e+2, -1456273.6, -1779549.9, 13631.391, 0.019007359, 0.12945135, -1455699.8, 267122.63, 0.00039971265, 10.002592, 9.998306 
1.0550166e+3, 1.3420159e+2, -1390748.9, -1667544.6, -55017.535, -0.08048727, 0.12278267, -1380214.3, 244623.95, 0.00016604259, 10.002239, 9.998574 
1.05502084e+3, 1.4420001e+2, -1290990.4, -1522403.1, -25352.781, 0.0025005592, 0.09172783, -1288245.4, 238608.31, 0.000032768716, 10.002052, 9.998985 
1.0550249e+3, 1.5419953e+2, -1191595.1, -1416424.3, -17650.133, 0.009455347, 0.13639237, -1190218.0, 238639.19, 0.0000008393984, 10.002029, 9.999051 
1.0550286e+3, 1.6419855e+2, -1148423.8, -1380812.0, -32223.602, 0.010948602, 0.14866719, -1144038.3, 186827.95, 0.0, 10.001808, 9.998729 
1.055032e+3, 1.7419691e+2, -1120122.5, -1314294.4, -36548.77, 0.017119458, 0.10947606, -1113470.9, 119411.375, 0.0, 10.001323, 9.998746 
1.0550355e+3, 1.8419561e+2, -1058289.5, -1232176.4, -41903.367, 0.027160835, 0.10512535, -1048718.4, 86177.48, 0.0, 10.001067, 9.99876 
1.05503894e+3, 1.9419476e+2, -948169.6, -1124582.3, -44726.05, 0.03928691, 0.13870567, -937478.2, 99427.86, 0.0, 10.001133, 9.998794 
1.055042e+3, 2.0419393e+2, -851089.25, -998074.4, -57441.72, 0.028701399, 0.16706656, -831304.25, 107610.91, 0.0, 10.001003, 9.999052 
1.0550447e+3, 2.141932e+2, -805685.06, -919488.25, -56673.69, -0.010824238, 0.18002541, -782276.7, 58646.027, 0.0, 10.000616, 9.999105 
1.0550479e+3, 2.2419225e+2, -746991.2, -856254.75, -49002.027, -0.010865859, 0.18117824, -728234.75, 14697.398, 0.0, 10.000415, 9.998963 
1.0550516e+3, 2.34191e+2, -639475.44, -751773.7, -49357.465, 0.04397616, 0.15580687, -620865.75, 24078.523, 0.0, 10.000471, 9.9989805 
1.05505496e+3, 2.4418987e+2, -584896.8, -699659.4, -59300.105, 0.05327788, 0.15813595, -559760.75, -12804.928, 0.0, 10.000281, 9.998757 
1.05505735e+3, 2.5418898e+2, -561655.56, -635668.1, -58579.516, 0.00024893298, 0.18866768, -529372.44, -80406.06, 0.0, 9.99976, 9.998774 
1.0550604e+3, 2.64188e+2, -490457.63, -499413.03, -37252.84, -0.023026623, 0.19216692, -457414.34, -106438.18, 0.0, 9.999357, 9.99923 
1.055064e+3, 2.7418688e+2, -420408.7, -406151.78, -27771.297, -0.006948297, 0.15126202, -384608.66, -131624.02, 0.0, 9.999126, 9.999309 
1.0550676e+3, 2.8418595e+2, -387497.84, -414611.3, -18175.693, -0.01440383, 0.15704772, -378379.9, -223385.8, 0.0, 9.999001, 9.998639 
1.05507106e+3, 2.941852e+2, -291609.0, -319879.34, -31892.002, -0.051173273, 0.21810576, -270860.03, -213855.23, 0.0, 9.998996, 9.998618 
1.0550751e+3, 3.0418456e+2, -174346.84, -50712.684, -21859.734, -0.042661667, 0.21781774, -46961.48, -46961.48, 0.0, 9.998659, 10.000296 
1.05507985e+3, 3.1418458e+2, -276292.03, -82395.17, -13908.274, 0.019904278, 0.17332028, -81402.61, -81402.61, 0.0, 9.997882, 10.000452 
1.06501736e+3, 1.2419901e+2, -1440572.0, -1757069.8, 22169.406, 0.034869477, 0.13958007, -1439026.8, 283836.5, 0.00047318285, 10.00264, 9.998436 
1.0650189e+3, 1.3419773e+2, -1349326.9, -1634586.0, -25984.467, -0.094197705, 0.14069015, -1346979.3, 277896.7, 0.00020250746, 10.002466, 9.998692 
1.0650231e+3, 1.4419608e+2, -1272545.9, -1533250.0, 7367.544, 0.0069294507, 0.10379082, -1272337.9, 254554.11, 0.000042863663, 10.002264, 9.998808 
1.065027e+3, 1.5419526e+2, -1216579.8, -1450651.5, -15601.283, 0.01736641, 0.13512768, -1215544.5, 213354.9, 0.0000013547858, 10.001956, 9.99885 
1.0650304e+3, 1.6419418e+2, -1157024.6, -1377792.0, -44858.566, 0.017352259, 0.14538108, -1148257.8, 182651.77, 0.0, 10.001722, 9.998789 
1.06503345e+3, 1.7419277e+2, -1072375.6, -1282150.9, -37463.605, 0.014226836, 0.119186886, -1065885.8, 167037.31, 0.0, 10.001612, 9.998827 
1.06503665e+3, 1.8419151e+2, -1005276.75, -1198903.0, -24015.717, 0.01983753, 0.11246578, -1002342.5, 132593.08, 0.0, 10.001398, 9.998828 
1.0650399e+3, 1.941905e+2, -953755.56, -1119544.8, -15988.9375, 0.032827195, 0.12436401, -952227.6, 84719.03, 0.0, 10.001063, 9.998861 
1.065043e+3, 2.0418964e+2, -879830.1, -1020042.9, -28546.566, 0.023973675, 0.1460137, -874241.0, 64715.348, 0.0, 10.000841, 9.998979 
1.06504545e+3, 2.1418893e+2, -787956.1, -920382.9, -37652.86, -0.013422497, 0.17242847, -777998.94, 62965.047, 0.0, 10.000779, 9.999021 
1.06504835e+3, 2.2418803e+2, -732706.2, -849000.44, -33090.133, -0.010447075, 0.18302813, -723950.06, 19023.416, 0.0, 10.000511, 9.998966 
1.06505185e+3, 2.3418684e+2, -712084.94, -784896.0, -30552.938, 0.04789801, 0.16300385, -700963.2, -55977.75, 0.0, 9.999967, 9.998996 
1.0650549e+3, 2.441858e+2, -661470.6, -725537.06, -33584.355, 0.054833304, 0.16718215, -647092.25, -100095.97, 0.0, 9.999709, 9.998855 
1.06505714e+3, 2.5418496e+2, -541544.94, -614391.25, -28790.514, -0.008915383, 0.19247237, -531540.3, -82534.43, 0.0, 9.999847, 9.998878 
1.0650598e+3, 2.6418397e+2, -439153.97, -484875.94, -19028.918, -0.0318079, 0.19513915, -432270.63, -81255.055, 0.0, 9.999752, 9.99914 
1.0650633e+3, 2.7418286e+2, -401007.16, -408314.25, -34807.703, 0.0014115353, 0.16144225, -369661.78, -116636.95, 0.0, 9.99931, 9.999205 
1.0650667e+3, 2.841819e+2, -390915.06, -405943.28, -16454.53, -0.0011804451, 0.16617313, -380340.13, -225305.7, 0.0, 9.998935, 9.99873 
1.0650698e+3, 2.9418105e+2, -328976.03, -325695.75, 5362.002, -0.051885493, 0.2117597, -321728.66, -264684.06, 0.0, 9.998688, 9.998726 
1.06507346e+3, 3.041804e+2, -216846.47, -80305.77, 11724.365, -0.050355583, 0.20501085, -79306.35, -79306.35, 0.0, 9.998408, 10.000212 
1.0650778e+3, 3.1418058e+2, -263589.22, -87449.0, -10024.33, 0.018373713, 0.18522069, -86880.34, -86880.34, 0.0, 9.998018, 10.000352 
1.0750194e+3, 1.2419519e+2, -1415623.0, -1704631.9, 11753.326, -0.026719384, 0.1419186, -1415145.9, 307756.66, 0.00055371417, 10.002639, 9.998796 
1.0750215e+3, 1.3419475e+2, -1324084.4, -1580482.1, -31217.736, -0.07785582, 0.19064984, -1320338.3, 304566.53, 0.00024334127, 10.00246, 9.999067 
1.075026e+3, 1.4419305e+2, -1309301.0, -1608548.0, -3866.443, 0.067369215, 0.15212432, -1309251.0, 217669.73, 0.00005483326, 10.002259, 9.998294 
1.0750287e+3, 1.5419108e+2, -1257802.6, -1536748.6, -26885.996, 0.0009001453, 0.124965, -1255234.9, 173706.67, 0.000002073113, 10.001959, 9.998258 
1.0750316e+3, 1.6418959e+2, -1143109.8, -1350075.1, -50550.305, -0.023662921, 0.11912628, -1131423.0, 199533.25, 0.0000000000166348, 10.001726, 9.998978 
1.0750352e+3, 1.7418885e+2, -1054922.1, -1245350.8, -41556.715, 0.026216833, 0.13732795, -1046248.44, 186713.73, 0.0, 10.001609, 9.999081 
1.07503824e+3, 1.8418795e+2, -990930.5, -1168564.0, -37206.355, 0.038064107, 0.14062622, -983452.25, 151518.03, 0.0, 10.001395, 9.999039 
1.0750406e+3, 1.9418676e+2, -939635.5, -1089979.3, -29177.695, -0.0060184738, 0.11470148, -934171.44, 102810.09, 0.0, 10.001061, 9.999065 
1.0750433e+3, 2.0418568e+2, -891769.9, -1044834.7, -33180.6, -0.014587855, 0.11162756, -884886.7, 54106.1, 0.0, 10.00084, 9.99881 
1.0750465e+3, 2.141847e+2, -802391.25, -950187.44, -40538.457, 0.028423881, 0.13041286, -792002.4, 49001.734, 0.0, 10.000777, 9.998817 
1.07504934e+3, 2.2418386e+2, -729641.2, -842317.8, -53397.76, 0.040158033, 0.15449838, -708356.5, 34657.49, 0.0, 10.000509, 9.999014 
1.0750515e+3, 2.3418315e+2, -706998.7, -774977.7, -50971.227, 0.0079812, 0.17673849, -679723.56, -34701.57, 0.0, 9.999968, 9.999064 
1.07505396e+3, 2.4418233e+2, -649983.7, -701928.0, -30756.73, -0.009770159, 0.19026142, -635700.06, -88669.18, 0.0, 9.999709, 9.999017 
1.075057e+3, 2.541813e+2, -529747.1, -589798.75, -22832.223, -0.006952532, 0.1818224, -522052.1, -73011.086, 0.0, 9.999846, 9.999047 
1.07505985e+3, 2.6418027e+2, -465812.28, -539822.56, -33370.12, -0.0061152354, 0.18780304, -452988.28, -101936.805, 0.0, 9.999749, 9.998765 
1.0750625e+3, 2.7417922e+2, -431197.22, -470170.34, -50348.227, -0.007892122, 0.20553027, -396696.1, -143634.1, 0.0, 9.999305, 9.998783 
1.0750656e+3, 2.8417823e+2, -356868.94, -333861.9, -26579.037, -0.012666636, 0.20558743, -316403.78, -161331.86, 0.0, 9.998928, 9.999228 
1.07506886e+3, 2.9417717e+2, -288179.3, -240493.45, -2146.508, -0.024056064, 0.16913228, -240397.03, -183315.97, 0.0, 9.998685, 9.999312 
1.07507214e+3, 3.0417654e+2, -241824.55, -132302.3, -693.2624, -0.029813709, 0.14898108, -132297.9, -132297.9, 0.0, 9.998407, 9.999856 
1.07507534e+3, 3.1417742e+2, -294874.84, -151478.73, -22031.77, -0.0285107, 0.24516222, -148170.06, -148170.06, 0.0, 9.998013, 9.999915 
1.0850221e+3, 1.2419162e+2, -1395177.0, -1698755.3, 14556.897, -0.028194785, 0.15446804, -1394480.5, 328457.9, 0.00064071716, 10.002797, 9.998759 
1.085024e+3, 1.3419107e+2, -1304137.4, -1576653.6, -55764.68, -0.07956366, 0.19780684, -1293167.9, 331773.8, 0.00028839763, 10.002624, 9.999013 
1.0850286e+3, 1.441893e+2, -1285758.9, -1594275.5, -30021.203, 0.091296814, 0.15458946, -1282864.8, 244093.36, 0.00006873226, 10.002412, 9.998317 
1.0850307e+3, 1.5418737e+2, -1237121.1, -1524117.6, -10362.71, 0.0051432317, 0.12950163, -1236747.5, 192230.5, 0.0000030594845, 10.0020895, 9.998281 
1.08503334e+3, 1.6418587e+2, -1142759.1, -1356514.8, -13809.454, -0.03160499, 0.12280594, -1141870.6, 189122.14, 0.000000000186287, 10.001758, 9.998919 
1.0850366e+3, 1.7418502e+2, -1087035.5, -1267851.0, -29337.412, 0.016700476, 0.1367688, -1082394.6, 150605.5, 0.0, 10.001421, 9.999016 
1.08503945e+3, 1.8418412e+2, -1021194.5, -1179941.5, -43062.598, 0.029522715, 0.14141639, -1010265.5, 124742.91, 0.0, 10.001175, 9.999065 
1.0850416e+3, 1.9418305e+2, -936183.9, -1084220.8, -48333.566, -0.012528288, 0.12362059, -921800.6, 115217.55, 0.0, 10.001068, 9.999102 
1.0850442e+3, 2.04182e+2, -887592.6, -1033975.6, -50084.64, -0.01483255, 0.117781796, -872096.7, 66932.17, 0.0, 10.000832, 9.998888 
1.0850473e+3, 2.1418093e+2, -847494.9, -962487.2, -37102.566, 0.038934395, 0.12020951, -836562.9, 4477.92, 0.0, 10.000428, 9.9989 
1.0850498e+3, 2.2418012e+2, -770791.5, -860277.3, -39081.19, 0.048957177, 0.14301103, -756126.8, -13076.378, 0.0, 10.000218, 9.99903 
1.0850515e+3, 2.3417962e+2, -660652.4, -751549.25, -42618.695, -0.0024490247, 0.18393809, -643795.8, 1261.0364, 0.0, 10.000281, 9.999074 
1.0850538e+3, 2.4417886e+2, -587435.2, -668185.1, -26487.057, -0.022906281, 0.20373495, -579522.44, -32457.375, 0.0, 10.000123, 9.999049 
1.0850567e+3, 2.5417778e+2, -555805.06, -598088.3, -28969.898, 0.000048495396, 0.18539788, -541082.75, -92007.125, 0.0, 9.99965, 9.999085 
1.0850594e+3, 2.6417673e+2, -525886.3, -572715.4, -35182.164, 0.0028643727, 0.18782382, -507039.44, -155952.92, 0.0, 9.999355, 9.998728 
1.0850618e+3, 2.741757e+2, -431030.94, -475367.88, -25311.879, -0.022860982, 0.20980577, -419552.25, -166454.58, 0.0, 9.999329, 9.998735 
1.0850643e+3, 2.8417468e+2, -327882.16, -305306.97, -5483.8555, -0.030387152, 0.20942496, -304045.38, -148938.13, 0.0, 9.9990635, 9.999358 
1.08506754e+3, 2.9417375e+2, -315519.84, -237448.84, -15812.013, -0.012374413, 0.16740142, -234367.97, -177253.33, 0.0, 9.998427, 9.999457 
1.0850705e+3, 3.0417305e+2, -280278.72, -143279.83, -5648.442, -0.014511485, 0.13106616, -143047.33, -143047.33, 0.0, 9.998111, 9.999923 
1.08507335e+3, 3.14174e+2, -248517.14, -119928.69, 9258.983, -0.046049085, 0.23074858, -119265.414, -119265.414, 0.0, 9.998293, 9.999995 
1.0950254e+3, 1.2418835e+2, -1425485.4, -1759243.6, 840.7672, 0.018142225, 0.17456318, -1425483.3, 297487.28, 0.000734217, 10.002788, 9.998348 
1.09502636e+3, 1.3418679e+2, -1336789.1, -1645518.3, -60325.3, -0.102167845, 0.16387074, -1325420.3, 299565.4, 0.00033773432, 10.002627, 9.998539 
1.0950309e+3, 1.4418493e+2, -1246901.4, -1514432.0, -41678.03, 0.07567878, 0.11229525, -1240558.8, 286444.2, 0.0000845864, 10.002416, 9.998863 
1.0950331e+3, 1.5418422e+2, -1193806.8, -1433620.1, -22040.146, 0.026868965, 0.14803654, -1191798.0, 237210.16, 0.0000043925156, 10.002087, 9.998903 
1.0950353e+3, 1.6418308e+2, -1164479.5, -1401284.6, -27409.713, -0.01131027, 0.15631078, -1161348.4, 169670.38, 0.0000000006358386, 10.001755, 9.998612 
1.0950377e+3, 1.7418134e+2, -1114260.5, -1324925.5, -42153.863, -0.01620288, 0.118700385, -1106138.6, 126897.77, 0.0, 10.001423, 9.998624 
1.09504014e+3, 1.8418004e+2, -1031699.75, -1202170.9, -49049.395, -0.008872653, 0.115274735, -1018594.3, 116455.13, 0.0, 10.001177, 9.998913 
1.095043e+3, 1.9417939e+2, -945649.06, -1103407.1, -52767.246, 0.011148138, 0.14993873, -929626.7, 107429.35, 0.0, 10.001065, 9.998971 
1.0950454e+3, 2.0417859e+2, -865336.7, -987240.2, -65712.97, 0.020485733, 0.16400707, -836659.7, 102404.26, 0.0, 10.000828, 9.999211 
1.0950475e+3, 2.1417764e+2, -822376.6, -910274.8, -52660.52, 0.016660655, 0.14165081, -797735.25, 43338.35, 0.0, 10.000426, 9.99926 
1.0950497e+3, 2.2417685e+2, -772141.0, -863270.56, -39425.1, 0.014174783, 0.14822742, -757452.25, -14369.943, 0.0, 10.000218, 9.99901 
1.095052e+3, 2.3417625e+2, -664759.56, -759768.8, -40290.84, 0.013739759, 0.18444031, -649974.2, -4884.5464, 0.0, 10.000279, 9.999019 
1.0950543e+3, 2.4417546e+2, -594126.44, -681749.8, -42850.813, 0.01237834, 0.2078146, -576654.7, -29556.16, 0.0, 10.00012, 9.998959 
1.0950565e+3, 2.541744e+2, -562598.56, -611412.3, -46132.18, 0.010279826, 0.2030797, -534814.7, -85705.35, 0.0, 9.999646, 9.998996 
1.0950587e+3, 2.6417333e+2, -506149.03, -530915.44, -37526.16, -0.006486944, 0.19460316, -479015.7, -127895.26, 0.0, 9.999351, 9.999018 
1.0950608e+3, 2.7417222e+2, -408912.84, -428662.75, -24832.38, -0.04614158, 0.17487237, -392064.0, -138932.53, 0.0, 9.999325, 9.999059 
1.0950631e+3, 2.841713e+2, -345339.5, -340812.78, -26379.729, -0.05596202, 0.17966306, -316599.5, -161459.53, 0.0, 9.99906, 9.999117 
1.0950658e+3, 2.9417077e+2, -336648.66, -280198.13, -37925.953, -0.02007278, 0.20496409, -261147.14, -204001.95, 0.0, 9.998423, 9.999167 
1.09506875e+3, 3.0416995e+2, -248473.48, -75588.48, -1765.3102, -0.009147617, 0.1488672, -75570.45, -75570.45, 0.0, 9.998103, 10.000392 
1.09507166e+3, 3.1417045e+2, -209032.73, -36051.688, 18805.486, -0.040634155, 0.14651117, -34030.87, -34030.87, 0.0, 9.998283, 10.000576 
1.10502854e+3, 1.24185175e+2, -1432128.4, -1771011.8, 16219.646, 0.05304942, 0.17413573, -1431353.9, 291648.13, 0.00083503575, 10.00278, 9.998271 
1.1050289e+3, 1.3418354e+2, -1325144.3, -1652736.8, -11228.972, -0.11723191, 0.16748929, -1324759.8, 300258.8, 0.0003918232, 10.002759, 9.998427 
1.1050332e+3, 1.4418168e+2, -1210167.4, -1483812.9, -1634.1183, 0.06567109, 0.116236374, -1210157.6, 316878.25, 0.000102570426, 10.002611, 9.998979 
1.1050352e+3, 1.5418111e+2, -1169714.9, -1406633.9, -21287.33, 0.015376255, 0.15149912, -1167817.4, 261221.47, 0.0000061708192, 10.002189, 9.999039 
1.10503696e+3, 1.6417998e+2, -1154341.6, -1410069.9, -33177.383, -0.018690394, 0.1609217, -1150107.4, 180941.52, 0.0000000015512864, 10.001886, 9.998487 
1.10503934e+3, 1.7417811e+2, -1072607.0, -1321520.8, -30663.178, -0.014903624, 0.12595752, -1068885.4, 164183.08, 0.0, 10.001781, 9.998473 
1.10504165e+3, 1.8417673e+2, -992270.56, -1186369.0, -27159.02, -0.00010934145, 0.12167858, -988542.0, 146540.81, 0.0, 10.001461, 9.998884 
1.105044e+3, 1.94176e+2, -976955.4, -1120216.4, -23517.389, 0.024578365, 0.15169184, -973193.56, 63896.316, 0.0, 10.000859, 9.998955 
1.1050461e+3, 2.0417523e+2, -912145.56, -1010070.75, -36940.566, 0.02864474, 0.16851105, -899773.5, 39324.14, 0.0, 10.000508, 9.999208 
1.1050478e+3, 2.141744e+2, -810731.94, -904695.1, -51586.28, 0.005321413, 0.15809833, -787939.5, 53166.848, 0.0, 10.000507, 9.999259 
1.1050498e+3, 2.2417365e+2, -742633.4, -832988.56, -45028.164, 0.0007995108, 0.16221167, -724025.75, 19088.695, 0.0, 10.000353, 9.999153 
1.10505216e+3, 2.3417298e+2, -696256.75, -757501.4, -30856.168, 0.02181004, 0.17653318, -683406.9, -38285.152, 0.0, 9.999989, 9.999174 
1.1050543e+3, 2.4417225e+2, -652069.5, -706934.44, -25783.59, 0.025656473, 0.19408415, -641854.5, -94724.484, 0.0, 9.999712, 9.998981 
1.1050562e+3, 2.5417137e+2, -572493.94, -615415.56, -23611.873, 0.0054936525, 0.2051425, -562047.25, -112907.63, 0.0, 9.999575, 9.999003 
1.105058e+3, 2.641704e+2, -499128.2, -510325.9, -12879.546, -0.017127112, 0.2020058, -490683.2, -139533.48, 0.0, 9.999325, 9.999171 
1.1050599e+3, 2.741694e+2, -459374.28, -434202.88, -12560.122, -0.044016037, 0.17512801, -429007.78, -175848.03, 0.0, 9.9988985, 9.999226 
1.105062e+3, 2.8416866e+2, -406983.44, -365027.6, -14024.867, -0.049849037, 0.18500957, -360771.22, -205604.45, 0.0, 9.998614, 9.999166 
1.1050643e+3, 2.9416832e+2, -315290.3, -266233.2, -3008.2703, -0.02387592, 0.22928478, -266049.4, -208879.31, 0.0, 9.998553, 9.9992 
1.10506676e+3, 3.0416745e+2, -223956.16, -63137.914, 35853.293, -0.01599545, 0.16473167, -55506.785, -55506.785, 0.0, 9.998268, 10.000399 
1.1050697e+3, 3.1416792e+2, -299847.3, -74275.32, 13569.113, -0.037059024, 0.16195185, -73462.016, -73462.016, 0.0, 9.997636, 10.000627 
1.1150315e+3, 1.2418212e+2, -1414993.3, -1735152.5, 4477.388, 0.068585746, 0.14805755, -1414930.6, 308101.72, 0.000944546, 10.00278, 9.998516 
1.1150316e+3, 1.3418138e+2, -1308894.9, -1618930.0, -9667.764, -0.12824467, 0.20717199, -1308593.6, 316446.16, 0.00045159098, 10.002758, 9.99866 
1.1150358e+3, 1.4417961e+2, -1231550.4, -1527497.8, -16673.943, 0.057569973, 0.16490401, -1230613.9, 296442.47, 0.00012308804, 10.002608, 9.998681 
1.1150368e+3, 1.541781e+2, -1193617.5, -1456703.9, -37222.246, -0.032711748, 0.14125906, -1188452.6, 240616.78, 0.000008505592, 10.00219, 9.998694 
1.11503854e+3, 1.6417669e+2, -1150622.5, -1402897.5, -39162.87, -0.058044266, 0.13782439, -1144682.8, 186399.94, 0.0000000033697685, 10.001888, 9.998536 
1.1150414e+3, 1.7417544e+2, -1066804.6, -1309136.9, -34607.996, 0.018661737, 0.15782125, -1061959.1, 171136.64, 0.0, 10.00178, 9.99856 
1.1150436e+3, 1.8417422e+2, -986086.25, -1172999.1, -49675.758, 0.052776653, 0.16054282, -973704.25, 161403.73, 0.0, 10.001457, 9.998978 
1.11504495e+3, 1.9417298e+2, -970488.6, -1107272.5, -46667.26, 0.025297413, 0.129863, -956083.9, 81035.29, 0.0, 10.00086, 9.999044 
1.1150465e+3, 2.0417197e+2, -934815.25, -1057634.6, -40198.66, 0.00686939, 0.13202298, -922828.2, 16301.285, 0.0, 10.00051, 9.998881 
1.1150483e+3, 2.1417125e+2, -836441.25, -957549.1, -52051.367, 0.0033264526, 0.16956474, -817144.56, 23994.037, 0.0, 10.0005045, 9.9988985 
1.1150502e+3, 2.2417055e+2, -721480.0, -788480.3, -58634.008, 0.00685855, 0.1846071, -687450.8, 55695.65, 0.0, 10.00035, 9.999461 
1.1150521e+3, 2.3416987e+2, -670825.44, -704100.0, -44479.56, 0.020155728, 0.16107109, -639973.44, 5179.0293, 0.0, 9.999986, 9.999543 
1.115054e+3, 2.4416924e+2, -643620.25, -688778.4, -32079.906, 0.01504542, 0.16382654, -626970.06, -79811.16, 0.0, 9.999709, 9.999108 
1.11505546e+3, 2.5416863e+2, -565898.9, -601346.25, -27950.508, -0.016030002, 0.1919546, -550526.3, -101360.26, 0.0, 9.999573, 9.999101 
1.1150571e+3, 2.6416793e+2, -498193.13, -508371.75, -27579.816, -0.030598111, 0.20976014, -475237.0, -124062.945, 0.0, 9.999324, 9.999186 
1.1150591e+3, 2.7416718e+2, -459624.9, -433240.06, -27486.861, -0.02085457, 0.20835073, -415943.7, -162761.17, 0.0, 9.998892, 9.999235 
1.11506104e+3, 2.841667e+2, -384984.06, -317356.47, -17577.86, -0.017459556, 0.22361821, -313060.5, -157872.89, 0.0, 9.998605, 9.999497 
1.1150628e+3, 2.9416645e+2, -289988.78, -213876.3, -3105.5369, -0.025967808, 0.24192649, -213749.8, -156560.83, 0.0, 9.998552, 9.99956 
1.1150649e+3, 3.0416557e+2, -256613.28, -130834.875, 14902.572, -0.035752025, 0.181358, -129093.29, -129093.29, 0.0, 9.998267, 9.999934 
1.1150672e+3, 3.1416655e+2, -334128.16, -143125.45, -7534.1953, -0.042826075, 0.2815516, -142828.73, -142828.73, 0.0, 9.997625, 10.000159 
1.12503454e+3, 1.2417993e+2, -1314394.4, -1691227.4, 20618.707, 0.06584718, 0.15959917, -1313269.5, 409785.03, 0.0010643419, 10.003492, 9.998474 
1.1250344e+3, 1.3417915e+2, -1283017.0, -1614410.9, -3579.4675, -0.1390404, 0.22058325, -1282978.4, 342083.94, 0.00051804923, 10.002972, 9.998589 
1.1250384e+3, 1.4417726e+2, -1236844.3, -1547569.0, -16971.87, 0.06734743, 0.17961705, -1235920.0, 291160.1, 0.00014661087, 10.002649, 9.998523 
1.12503916e+3, 1.5417561e+2, -1161039.4, -1460526.6, -27578.188, -0.03617229, 0.15886992, -1158521.0, 270574.34, 0.00001150662, 10.002497, 9.998522 
1.1250405e+3, 1.6417414e+2, -1109608.1, -1371052.1, -23216.053, -0.06263454, 0.15420324, -1107562.5, 223546.73, 0.0000000061074554, 10.002117, 9.998645 
1.1250431e+3, 1.7417297e+2, -1106604.9, -1313226.0, -16197.64, 0.027831916, 0.16715924, -1105342.9, 127777.86, 0.0, 10.001442, 9.998694 
1.1250449e+3, 1.8417178e+2, -1039596.9, -1197564.1, -26194.959, 0.062495127, 0.16603161, -1035366.44, 99765.586, 0.0, 10.001085, 9.998988 
1.1250459e+3, 1.9417053e+2, -924945.2, -1085455.5, -30793.521, 0.015862035, 0.13529076, -919240.25, 117903.05, 0.0, 10.001174, 9.9990425 
1.1250471e+3, 2.0416947e+2, -863054.56, -1025875.9, -16391.49, -0.007856135, 0.13349682, -861420.75, 77733.34, 0.0, 10.001016, 9.998856 
1.12504885e+3, 2.1416864e+2, -835112.4, -959937.3, -4008.5796, 0.0012097416, 0.16190422, -834983.8, 6180.394, 0.0, 10.000527, 9.998871 
1.12505056e+3, 2.2416794e+2, -757346.94, -809995.4, -10811.613, 0.010689395, 0.18104047, -755213.2, -12041.002, 0.0, 10.000123, 9.999422 
1.125052e+3, 2.3416747e+2, -694560.56, -719619.3, -29146.111, 0.019922502, 0.18100637, -675364.9, -30187.756, 0.0, 9.999841, 9.999505 
1.1250536e+3, 2.441669e+2, -648021.06, -672854.7, -26325.934, 0.013024279, 0.1864336, -631330.6, -84147.82, 0.0, 9.999602, 9.999269 
1.12505496e+3, 2.5416622e+2, -577320.5, -586575.8, -16421.322, -0.016699921, 0.18805225, -564887.25, -115697.33, 0.0, 9.999409, 9.99928 
1.1250564e+3, 2.6416558e+2, -517045.25, -509081.5, -17313.773, -0.027415616, 0.19895811, -495297.63, -144100.6, 0.0, 9.999161, 9.999258 
1.1250581e+3, 2.741651e+2, -461488.6, -427807.72, -15293.531, -0.010691378, 0.21876891, -421899.7, -168696.2, 0.0, 9.998852, 9.999292 
1.1250597e+3, 2.8416476e+2, -384886.53, -309726.16, -4174.0254, -0.009227868, 0.24391241, -309495.06, -154287.7, 0.0, 9.998572, 9.999566 
1.12506114e+3, 2.941645e+2, -318919.16, -220203.28, -12953.41, -0.03053909, 0.25611302, -218531.84, -161323.19, 0.0, 9.998323, 9.999626 
1.125063e+3, 3.0416358e+2, -296010.75, -144445.14, -2956.6582, -0.044865675, 0.1806078, -144387.5, -144387.5, 0.0, 9.997975, 9.999981 
1.1250648e+3, 3.141648e+2, -343632.13, -131614.25, 15423.177, -0.042124014, 0.30336148, -130498.164, -130498.164, 0.0, 9.997492, 10.000301 
1.13503784e+3, 1.2417864e+2, -1336957.0, -1735981.5, -14337.872, 0.03967334, 0.20901258, -1336442.4, 386625.44, 0.0011953667, 10.003486, 9.99817 
1.13503724e+3, 1.3417688e+2, -1307927.1, -1666447.8, -21184.992, -0.15485124, 0.20961367, -1306679.6, 318405.47, 0.00059164723, 10.002972, 9.998232 
1.1350414e+3, 1.4417474e+2, -1239301.4, -1552543.6, -23356.729, 0.088954784, 0.16210593, -1237569.4, 289536.63, 0.00017336896, 10.002648, 9.99849 
1.135042e+3, 1.5417369e+2, -1161543.9, -1461817.5, -32877.02, 0.0024412875, 0.2030779, -1157986.3, 271130.06, 0.000015247707, 10.002498, 9.998512 
1.1350428e+3, 1.641724e+2, -1098162.8, -1347335.9, -48370.902, -0.0357136, 0.20878972, -1089102.3, 242026.17, 0.000000009421829, 10.002116, 9.998809 
1.1350443e+3, 1.7417075e+2, -1093543.1, -1286898.5, -41905.188, 0.009690879, 0.15479425, -1084851.8, 148290.95, 0.0, 10.001444, 9.998874 
1.13504566e+3, 1.8416947e+2, -1044577.25, -1208389.1, -26558.992, 0.025389029, 0.1387956, -1040378.8, 94775.48, 0.0, 10.001087, 9.998914 
1.1350468e+3, 1.9416872e+2, -931915.0, -1099408.8, -27967.201, -0.004657863, 0.16757117, -927368.56, 109793.27, 0.0, 10.001171, 9.998949 
1.135048e+3, 2.0416778e+2, -844637.4, -986774.56, -34411.785, -0.01740659, 0.1726692, -836744.5, 102426.59, 0.0, 10.001011, 9.999126 
1.1350493e+3, 2.1416661e+2, -814055.9, -916246.5, -22867.617, -0.0038943507, 0.13615894, -809172.06, 32010.578, 0.0, 10.000526, 9.999171 
1.13505065e+3, 2.2416587e+2, -784480.56, -866363.2, -23411.477, 0.008865811, 0.15278025, -778259.5, -35068.35, 0.0, 10.000122, 9.999036 
1.13505185e+3, 2.3416577e+2, -726200.1, -785227.5, -39771.473, 0.019903746, 0.23501669, -706187.75, -60992.45, 0.0, 9.99984, 9.999056 
1.1350532e+3, 2.4416526e+2, -634349.7, -644117.2, -34108.26, 0.018004594, 0.2595655, -604777.3, -57575.75, 0.0, 9.9996, 9.999467 
1.1350545e+3, 2.5416416e+2, -559914.5, -548847.6, -22975.71, -0.00024395045, 0.19316138, -530748.44, -81537.61, 0.0, 9.999401, 9.999543 
1.1350558e+3, 2.641634e+2, -508912.75, -490390.56, -28347.875, -0.011628186, 0.17132214, -469829.34, -118611.26, 0.0, 9.999152, 9.999392 
1.1350569e+3, 2.741632e+2, -453011.66, -410677.88, -25092.27, -0.015788237, 0.20800388, -399017.03, -145794.94, 0.0, 9.998853, 9.99941 
1.1350581e+3, 2.8416294e+2, -400209.4, -341783.84, -13204.207, -0.02672563, 0.24706706, -338938.28, -183712.7, 0.0, 9.998573, 9.999346 
1.13505945e+3, 2.9416257e+2, -338059.03, -257265.6, -20694.018, -0.04308876, 0.26875964, -252273.58, -195044.31, 0.0, 9.998311, 9.999378 
1.1350609e+3, 3.041614e+2, -258756.19, -63040.36, -20124.836, -0.049934037, 0.16019669, -60992.414, -60992.414, 0.0, 9.997957, 10.000549 
1.13506235e+3, 3.1416285e+2, -288712.75, -18514.236, 741.3968, -0.041810215, 0.23805702, -18512.203, -18512.203, 0.0, 9.997495, 10.001079 
1.1450409e+3, 1.2417698e+2, -1364803.1, -1739644.8, -43219.664, 0.015568533, 0.22783653, -1359884.4, 363201.34, 0.0013373722, 10.003254, 9.998257 
1.1450402e+3, 1.3417508e+2, -1266980.9, -1640652.3, -2984.006, -0.16495068, 0.20891766, -1266957.0, 358146.3, 0.000672049, 10.003225, 9.998289 
1.1450444e+3, 1.441729e+2, -1193171.0, -1539862.6, 7079.1445, 0.107620984, 0.1588674, -1193026.5, 334097.84, 0.0002032588, 10.003005, 9.998405 
1.1450446e+3, 1.5417197e+2, -1179029.6, -1480978.8, -11098.786, 0.013268674, 0.2211376, -1178622.3, 250512.3, 0.000019742625, 10.002425, 9.998416 
1.14504494e+3, 1.6417068e+2, -1109233.0, -1345107.4, -34003.477, -0.034192238, 0.23094678, -1104429.0, 226717.55, 0.000000013934886, 10.002008, 9.998877 
1.1450459e+3, 1.7416891e+2, -1032828.1, -1249006.4, -36154.797, -0.0038168444, 0.15694073, -1026941.7, 206219.45, 0.0, 10.001822, 9.998953 
1.1450469e+3, 1.8416761e+2, -984742.06, -1178116.3, -13485.679, 0.009409747, 0.13214459, -983806.1, 151366.39, 0.0, 10.0014925, 9.998925 
1.14504784e+3, 1.9416693e+2, -958951.3, -1111689.8, -7595.9766, -0.0063782427, 0.16771622, -958574.5, 78604.87, 0.0, 10.000983, 9.998955 
1.1450488e+3, 2.0416607e+2, -892372.8, -1002312.1, -18661.705, -0.010600971, 0.17692149, -889291.44, 49896.402, 0.0, 10.000652, 9.999192 
1.1450499e+3, 2.1416497e+2, -803318.56, -902719.56, -25852.559, 0.0019771014, 0.14143796, -796996.8, 44201.664, 0.0, 10.000566, 9.999245 
1.1450509e+3, 2.2416425e+2, -752931.6, -857103.5, -25048.523, 0.010513306, 0.1561615, -747221.56, -4014.5493, 0.0, 10.000366, 9.998981 
1.1450518e+3, 2.34164e+2, -706466.94, -783058.9, -13471.887, 0.011791224, 0.23113756, -704166.44, -58953.832, 0.0, 10.000009, 9.998989 
1.14505276e+3, 2.4416347e+2, -628817.56, -633854.8, 3345.1396, 0.012644785, 0.2552459, -627148.9, -79929.805, 0.0, 9.999607, 9.999534 
1.14505395e+3, 2.5416255e+2, -591349.7, -555641.3, -946.2863, 0.014244852, 0.19917037, -555616.25, -106389.57, 0.0, 9.999149, 9.999618 
1.1450549e+3, 2.6416185e+2, -558827.1, -516446.56, -15598.742, 0.005451608, 0.1808719, -511324.3, -160090.84, 0.0, 9.998817, 9.999374 
1.1450555e+3, 2.7416155e+2, -483472.6, -427748.44, -23694.383, -0.020154022, 0.21108948, -419035.66, -165796.97, 0.0, 9.998656, 9.999387 
1.1450564e+3, 2.8416136e+2, -416798.56, -334803.47, -8331.163, -0.03544946, 0.24780439, -333965.53, -178723.72, 0.0, 9.998397, 9.999477 
1.14505775e+3, 2.9416114e+2, -375679.47, -259880.11, 12537.312, -0.031651612, 0.27120304, -258538.28, -201295.06, 0.0, 9.997986, 9.999517 
1.1450589e+3, 3.0415985e+2, -306078.75, -83445.6, 10161.321, -0.03477392, 0.142723, -82982.79, -82982.79, 0.0, 9.997623, 10.00057 
1.14505984e+3, 3.141612e+2, -299758.66, -4837.698, -21072.617, -0.04108402, 0.21361236, -3339.6326, -3339.6326, 0.0, 9.997342, 10.001245 
1.1550439e+3, 1.24175005e+2, -1334115.0, -1672984.9, -64969.55, -0.013293132, 0.21685189, -1322085.8, 401021.53, 0.001489488, 10.0032425, 9.998719 
1.1550433e+3, 1.3417375e+2, -1235129.1, -1574878.1, -1756.4939, -0.17167959, 0.21702828, -1235120.0, 389996.6, 0.00075867696, 10.003227, 9.99874 
1.1550475e+3, 1.4417179e+2, -1201424.6, -1557878.4, -13497.453, 0.12119737, 0.16869175, -1200914.4, 326220.56, 0.0002361324, 10.003008, 9.9982815 
1.1550469e+3, 1.5417051e+2, -1191022.1, -1506425.5, -32722.22, -0.006501336, 0.21456142, -1187663.0, 241486.08, 0.000024990082, 10.002426, 9.998241 
1.15504675e+3, 1.641691e+2, -1111590.9, -1349761.5, -43036.656, -0.062332235, 0.222178, -1104052.9, 227109.88, 0.000000023716384, 10.002007, 9.998845 
1.15504764e+3, 1.7416756e+2, -1034508.5, -1252148.3, -43247.406, -0.01452635, 0.17327875, -1026229.7, 206945.42, 0.0, 10.0018215, 9.998932 
1.1550483e+3, 1.8416624e+2, -978351.4, -1164797.9, -32856.63, 0.01131538, 0.14554834, -972730.6, 162455.44, 0.0, 10.001492, 9.999018 
1.155049e+3, 1.9416521e+2, -951361.8, -1096782.4, -27093.623, 0.0077983043, 0.13619007, -946477.94, 90717.28, 0.0, 10.000985, 9.999056 
1.15504965e+3, 2.0416437e+2, -902328.56, -1023155.1, -24573.213, 0.009029839, 0.14681943, -897522.2, 41681.57, 0.0, 10.000652, 9.999049 
1.1550507e+3, 2.1416377e+2, -815316.7, -926822.44, -29722.107, 0.017801663, 0.1768703, -807889.0, 33322.27, 0.0, 10.000562, 9.999082 
1.1550513e+3, 2.2416306e+2, -734451.56, -817155.94, -38873.574, 0.014210064, 0.19001304, -719048.5, 24170.936, 0.0, 10.00036, 9.999259 
1.1550515e+3, 2.3416218e+2, -684714.25, -737168.2, -26896.502, -0.0066352882, 0.17101555, -673374.25, -28145.799, 0.0, 10.000005, 9.999306 
1.1550521e+3, 2.441616e+2, -634327.4, -644601.25, -13847.443, -0.006174719, 0.17624478, -624694.75, -77460.04, 0.0, 9.999602, 9.999462 
1.1550532e+3, 2.5416145e+2, -598972.56, -571733.06, -17520.92, 0.024277288, 0.20591778, -563160.9, -113923.81, 0.0, 9.999149, 9.999508 
1.155054e+3, 2.64161e+2, -571252.2, -542402.44, -22537.473, 0.021782618, 0.22519763, -530068.8, -178825.81, 0.0, 9.998818, 9.999196 
1.1550542e+3, 2.741602e+2, -497136.2, -454455.56, -28857.682, -0.02692691, 0.22630718, -439904.75, -186651.53, 0.0, 9.998649, 9.9992075 
1.1550548e+3, 2.8415996e+2, -382510.75, -260949.95, -22240.686, -0.039416157, 0.24574101, -257008.6, -101752.74, 0.0, 9.998384, 9.999991 
1.1550559e+3, 2.9416025e+2, -335351.9, -176837.03, -128.87589, -0.0026171063, 0.26439035, -176836.92, -119587.03, 0.0, 9.997988, 10.000088 
1.1550567e+3, 3.0415893e+2, -347301.84, -169515.98, -540.1377, -0.0041008056, 0.12841737, -169514.34, -169514.34, 0.0, 9.997624, 9.999979 
1.1550571e+3, 3.1415996e+2, -336492.13, -79361.42, -29662.094, -0.04555824, 0.23320897, -75984.02, -75984.02, 0.0, 9.997334, 10.000737 
1.1650472e+3, 1.2417401e+2, -1291626.8, -1653252.3, -12948.436, -0.012970647, 0.20331457, -1291163.8, 431953.25, 0.0016512593, 10.003541, 9.998711 
1.1650464e+3, 1.3417295e+2, -1233055.9, -1579582.9, 33635.527, -0.1859816, 0.22729689, -1229821.3, 395303.56, 0.0008513687, 10.003264, 9.998691 
1.1650504e+3, 1.4417098e+2, -1199860.5, -1548461.1, -2039.602, 0.11028036, 0.17958337, -1199848.5, 327294.3, 0.00027198074, 10.002981, 9.998359 
1.1650493e+3, 1.5416959e+2, -1159956.5, -1481613.6, -5389.819, -0.008554708, 0.20274244, -1159866.1, 269291.34, 0.00003101119, 10.002596, 9.99833 
1.16504885e+3, 1.6416809e+2, -1084696.6, -1348572.3, 2104.2751, -0.061313886, 0.20352547, -1084679.9, 246491.81, 0.00000004774233, 10.002243, 9.99874 
1.16504945e+3, 1.7416658e+2, -1022249.4, -1259919.9, -5763.27, -0.02374819, 0.1691998, -1022109.75, 211074.6, 0.0, 10.001965, 9.998809 
1.1650498e+3, 1.8416522e+2, -957218.0, -1156692.6, -9279.553, 0.003544774, 0.14560567, -956787.25, 178408.47, 0.0, 10.001645, 9.999 
1.1650502e+3, 1.9416411e+2, -910321.25, -1077570.5, -13135.484, 0.01696422, 0.12686849, -909295.94, 127909.47, 0.0, 10.00127, 9.99905 
1.1650506e+3, 2.041632e+2, -882608.7, -1026106.75, -7926.0527, 0.019807035, 0.1362449, -882172.2, 57042.395, 0.0, 10.000843, 9.998937 
1.165051e+3, 2.1416256e+2, -854049.2, -959441.1, -10054.23, 0.008177104, 0.17512299, -853098.6, -11875.458, 0.0, 10.000356, 9.998957 
1.1650512e+3, 2.2416183e+2, -772923.1, -811487.44, -18688.346, -0.000014632851, 0.1837339, -765352.8, -22121.576, 0.0, 9.99999, 9.9994755 
1.1650515e+3, 2.3416099e+2, -698540.8, -716100.56, -13889.594, -0.0034834063, 0.14334807, -690888.8, -45650.34, 0.0, 9.999791, 9.999554 
1.16505176e+3, 2.441605e+2, -655866.1, -670501.6, -10476.029, 0.0006175094, 0.1503581, -650405.1, -103161.41, 0.0, 9.999522, 9.999323 
1.1650523e+3, 2.5416046e+2, -609824.25, -596123.3, -19701.168, 0.013964316, 0.21201381, -582115.56, -132869.23, 0.0, 9.99916, 9.999335 
1.1650526e+3, 2.6416004e+2, -554692.94, -523520.8, -9085.391, 0.009705607, 0.23885787, -521066.1, -169813.48, 0.0, 9.998887, 9.999291 
1.16505295e+3, 2.7415916e+2, -478655.28, -433209.53, 6604.0957, -0.017213121, 0.21593994, -432269.28, -179006.19, 0.0, 9.998721, 9.999319 
1.1650533e+3, 2.8415897e+2, -381965.22, -254214.67, -1798.8654, -0.023872528, 0.23129113, -254189.34, -98924.41, 0.0, 9.99836, 10.000051 
1.16505384e+3, 2.941595e+2, -367152.4, -186342.83, -22351.629, -0.00402318, 0.2710016, -183620.7, -126363.875, 0.0, 9.997746, 10.000137 
1.1650542e+3, 3.0415818e+2, -393738.75, -218225.55, -17623.744, -0.008273151, 0.14115222, -216473.39, -216473.39, 0.0, 9.99742, 9.9997425 
1.1650547e+3, 3.1415904e+2, -326749.9, -82266.86, -11976.623, -0.02563713, 0.2518335, -81681.555, -81681.555, 0.0, 9.997431, 10.000672 
1.1750512e+3, 1.24174066e+2, -1324104.8, -1721295.3, -46639.01, 0.013300356, 0.19024627, -1318701.9, 404412.22, 0.0018234614, 10.003544, 9.998242 
1.1750495e+3, 1.3417271e+2, -1270734.4, -1658027.3, 25352.355, -0.21208048, 0.24046972, -1269081.9, 356045.34, 0.0009506097, 10.003263, 9.998154 
1.175053e+3, 1.4417061e+2, -1181500.3, -1509312.3, -16427.078, 0.07012558, 0.19259213, -1180679.1, 346468.2, 0.00031097958, 10.002977, 9.99863 
1.175052e+3, 1.5416923e+2, -1135949.6, -1431606.6, -20023.432, 0.0043473113, 0.18525235, -1134599.6, 294559.7, 0.00003785508, 10.002596, 9.998673 
1.1750514e+3, 1.6416773e+2, -1096778.9, -1374807.3, -9919.928, -0.034962945, 0.17352498, -1096425.4, 234747.3, 0.00000010132158, 10.002246, 9.998559 
1.17505126e+3, 1.7416605e+2, -1037713.44, -1292794.5, -16275.269, -0.033436157, 0.14485352, -1036679.2, 196509.0, 0.0, 10.001966, 9.998584 
1.17505126e+3, 1.8416464e+2, -966305.56, -1175105.3, -24348.191, -0.016975058, 0.13359518, -963503.9, 171696.89, 0.0, 10.001643, 9.998875 
1.1750515e+3, 1.9416365e+2, -919159.9, -1095114.3, -27724.602, 0.020005379, 0.13970947, -914894.8, 122314.51, 0.0, 10.0012665, 9.998932 
1.1750514e+3, 2.0416258e+2, -888664.75, -1038222.4, -27116.563, 0.019922689, 0.14454685, -883900.0, 55319.895, 0.0, 10.00084, 9.998856 
1.175051e+3, 2.141614e+2, -859472.25, -971044.94, -28654.139, -0.029335791, 0.13623086, -852543.56, -11309.942, 0.0, 10.000356, 9.998878 
1.1750509e+3, 2.2416063e+2, -763246.75, -791189.06, -28138.832, -0.035569552, 0.13817587, -745801.56, -2559.652, 0.0, 9.9999895, 9.999616 
1.1750515e+3, 2.3416045e+2, -687222.25, -692440.8, -21649.469, 0.019386558, 0.1471188, -668025.4, -22783.03, 0.0, 9.999789, 9.999717 
1.1750516e+3, 2.4416018e+2, -670531.5, -700249.2, -24551.955, 0.03115432, 0.1755928, -656692.2, -109446.33, 0.0, 9.999519, 9.999121 
1.1750512e+3, 2.541597e+2, -626921.0, -630575.44, -32869.652, -0.01825727, 0.21734439, -595827.8, -146573.78, 0.0, 9.999155, 9.999101 
1.1750512e+3, 2.641591e+2, -529284.4, -469699.75, -15225.282, -0.032515153, 0.2233288, -466034.75, -114773.055, 0.0, 9.99888, 9.999664 
1.17505185e+3, 2.7415845e+2, -449194.38, -371326.28, 2205.6414, 0.0023342154, 0.18031295, -371263.84, -117996.01, 0.0, 9.998717, 9.999746 
1.175052e+3, 2.8415835e+2, -413443.16, -319060.97, -23469.227, 0.005167688, 0.20349585, -313547.2, -158278.52, 0.0, 9.998357, 9.999607 
1.17505126e+3, 2.9415888e+2, -404331.84, -262003.78, -44609.035, -0.037372842, 0.2901886, -249178.02, -191913.92, 0.0, 9.997739, 9.999621 
1.17505126e+3, 3.041575e+2, -381792.56, -191167.94, -17793.47, -0.048622455, 0.179768, -189521.27, -189521.27, 0.0, 9.997409, 9.999934 
1.1750525e+3, 3.1415847e+2, -294766.7, -14348.769, -6696.17, 0.005584962, 0.2741054, -14188.961, -14188.961, 0.0, 9.997423, 10.0011425 
1.1850544e+3, 1.24174364e+2, -1320270.5, -1730813.6, -61969.734, -0.011588033, 0.1876162, -1311120.4, 411989.25, 0.0020081834, 10.003622, 9.998137 
1.18505284e+3, 1.3417277e+2, -1260549.4, -1671299.1, 57629.58, -0.20148039, 0.22813219, -1252617.0, 372509.0, 0.0010574218, 10.003413, 9.99799 
1.1850561e+3, 1.441705e+2, -1158806.6, -1503751.4, 16039.716, 0.079631194, 0.1757988, -1158062.4, 369085.38, 0.00035351914, 10.003158, 9.99858 
1.18505456e+3, 1.5416913e+2, -1109955.5, -1422997.1, -17534.45, -0.008120826, 0.17327118, -1108976.5, 320182.84, 0.00004562391, 10.002792, 9.998636 
1.1850536e+3, 1.641676e+2, -1073061.1, -1368708.0, -14953.069, -0.04573879, 0.1647453, -1072306.8, 258865.95, 0.00000019883093, 10.002432, 9.998511 
1.18505344e+3, 1.7416589e+2, -1023383.94, -1290870.5, -8914.556, -0.014056086, 0.13757445, -1023087.1, 210101.47, 0.0, 10.002088, 9.998538 
1.1850532e+3, 1.8416445e+2, -966938.06, -1183921.5, -11629.017, 0.0072388477, 0.12794112, -966316.56, 168885.28, 0.0, 10.001677, 9.998797 
1.1850528e+3, 1.941634e+2, -936297.3, -1112356.0, -13534.852, 0.013606601, 0.13491745, -935262.9, 101948.31, 0.0, 10.001187, 9.998852 
1.1850521e+3, 2.0416221e+2, -893957.06, -1044090.06, -5584.922, 0.0015546334, 0.13538025, -893749.56, 45473.06, 0.0, 10.000817, 9.998827 
1.1850514e+3, 2.141609e+2, -823894.06, -955562.56, -3567.4268, -0.03546485, 0.11673025, -823797.44, 17439.629, 0.0, 10.000609, 9.99886 
1.18505105e+3, 2.2416008e+2, -735824.75, -797917.06, -11689.16, -0.03344875, 0.122561194, -733697.1, 9548.929, 0.0, 10.000264, 9.999436 
1.1850513e+3, 2.3415995e+2, -709563.2, -724776.2, -32388.727, 0.022857988, 0.15416226, -683899.75, -38652.477, 0.0, 9.999729, 9.999524 
1.18505105e+3, 2.4415964e+2, -696785.25, -705735.75, -38306.496, 0.032669477, 0.18764834, -662693.44, -115442.02, 0.0, 9.999309, 9.999184 
1.18505016e+3, 2.5415906e+2, -637303.2, -626330.94, -24448.705, -0.021852355, 0.21068102, -606760.44, -157500.5, 0.0, 9.999043, 9.999185 
1.1850498e+3, 2.641585e+2, -553632.2, -472675.16, -4707.691, -0.03499755, 0.20781861, -472402.34, -121135.09, 0.0, 9.998676, 9.999743 
1.1850504e+3, 2.741579e+2, -521669.66, -397148.2, -15086.732, 0.0081318, 0.16781068, -395346.4, -142074.16, 0.0, 9.998183, 9.9998255 
1.18505016e+3, 2.841579e+2, -473871.78, -348215.38, -36429.79, 0.004964413, 0.19466232, -338417.72, -183145.25, 0.0, 9.997945, 9.999604 
1.1850488e+3, 2.9415846e+2, -362906.84, -244033.55, -19241.545, -0.061094806, 0.2874779, -240996.58, -183728.66, 0.0, 9.998031, 9.999605 
1.1850486e+3, 3.0415717e+2, -345026.47, -161495.7, 15874.999, -0.066628255, 0.18038934, -160132.67, -160132.67, 0.0, 9.997611, 10.00004 
1.1850497e+3, 3.1415805e+2, -403034.88, -28232.533, 10207.933, 0.039612558, 0.25536895, -27954.72, -27954.72, 0.0, 9.996516, 10.001483 
1.19505726e+3, 1.2417499e+2, -1305115.9, -1696559.6, -90830.29, -0.09489307, 0.19547379, -1285066.6, 438036.1, 0.0022081332, 10.003611, 9.998379 
1.1950567e+3, 1.3417311e+2, -1247166.6, -1643853.6, 51148.37, -0.15729894, 0.19064103, -1240677.8, 384442.56, 0.0011730703, 10.003414, 9.9981785 
1.19505994e+3, 1.441707e+2, -1182784.0, -1555235.6, 1892.3684, 0.13523099, 0.12902445, -1182774.4, 344369.13, 0.00040013902, 10.003163, 9.998224 
1.195057e+3, 1.5416932e+2, -1137937.0, -1482167.3, -31281.38, -0.047648806, 0.16710034, -1135117.4, 294039.28, 0.00005450229, 10.002795, 9.99823 
1.19505554e+3, 1.6416784e+2, -1067566.9, -1357356.8, -28823.459, -0.096755125, 0.17849995, -1064727.8, 266442.8, 0.00000035173326, 10.002432, 9.9985895 
1.1950561e+3, 1.741662e+2, -1014939.25, -1273114.4, -22059.055, 0.031744834, 0.14702244, -1013068.0, 220117.06, 0.0, 10.002086, 9.998661 
1.19505554e+3, 1.8416469e+2, -969258.25, -1188915.6, -30734.967, 0.07193317, 0.12663718, -965038.8, 170159.72, 0.0, 10.001676, 9.998764 
1.1950537e+3, 1.9416337e+2, -939250.6, -1119316.6, -32486.31, -0.004572314, 0.11156583, -933568.9, 103641.72, 0.0, 10.001189, 9.998804 
1.1950525e+3, 2.0416217e+2, -892454.0, -1040745.06, -15582.774, -0.038116608, 0.109974176, -890834.2, 48387.992, 0.0, 10.000815, 9.99885 
1.1950523e+3, 2.1416113e+2, -822068.8, -951527.25, -11971.706, -0.011629445, 0.11666848, -820971.06, 20261.996, 0.0, 10.0006075, 9.99889 
1.19505174e+3, 2.2416024e+2, -770345.44, -869010.7, -32021.063, 0.0041921753, 0.13592122, -760864.4, -17621.01, 0.0, 10.000261, 9.99895 
1.1950509e+3, 2.3415953e+2, -747103.6, -802910.94, -52404.586, 0.005413387, 0.1639155, -715636.75, -70384.05, 0.0, 9.999729, 9.998988 
1.19505e+3, 2.4415897e+2, -674991.94, -660390.75, -49294.28, 0.0032648502, 0.1868981, -617859.4, -70599.65, 0.0, 9.999307, 9.999496 
1.1950494e+3, 2.5415862e+2, -610342.4, -569448.94, -33668.36, -0.0020016574, 0.19206777, -550505.0, -101241.42, 0.0, 9.999039, 9.9995775 
1.19504884e+3, 2.6415813e+2, -570815.7, -507800.03, -22649.78, -0.0025649555, 0.1913633, -500503.78, -149234.83, 0.0, 9.9986725, 9.999504 
1.1950485e+3, 2.7415755e+2, -542718.75, -440223.38, -32798.51, 0.0002825149, 0.17878406, -430626.44, -177350.33, 0.0, 9.998179, 9.999532 
1.1950477e+3, 2.841576e+2, -440891.72, -279468.88, -34006.04, -0.024681741, 0.20544423, -272597.5, -117321.445, 0.0, 9.997942, 10.000078 
1.1950466e+3, 2.9415837e+2, -327062.97, -167103.08, -13148.137, -0.086291924, 0.26187545, -166029.55, -108761.79, 0.0, 9.99802, 10.000138 
1.19504616e+3, 3.041572e+2, -351450.22, -173263.02, -21322.592, -0.07304857, 0.14284405, -170747.0, -170747.0, 0.0, 9.997602, 9.999964 
1.1950466e+3, 3.1415787e+2, -396683.7, -13739.01, -28821.697, 0.07536227, 0.20686941, -11581.942, -11581.942, 0.0, 9.9965105, 10.001585 
1.2050608e+3, 1.2417552e+2, -1366375.8, -1709188.1, -97513.2, -0.07698285, 0.18474786, -1340579.3, 382517.7, 0.0024257244, 10.0031185, 9.998528 
1.20506e+3, 1.3417365e+2, -1251065.8, -1637121.8, 54519.492, -0.15694499, 0.17133616, -1243514.1, 381599.84, 0.0012988481, 10.003349, 9.998256 
1.2050629e+3, 1.4417124e+2, -1156774.1, -1552539.9, -1123.6906, 0.10955702, 0.110694505, -1156771.0, 370365.8, 0.00045139206, 10.003385, 9.998136 
1.20505996e+3, 1.5416987e+2, -1096579.0, -1473255.1, -14565.403, -0.048202008, 0.15926923, -1096016.6, 333133.9, 0.00006471426, 10.003128, 9.99813 
1.2050581e+3, 1.6416834e+2, -1031517.06, -1342104.9, -9020.213, -0.08818488, 0.1745473, -1031255.3, 299909.6, 0.00000057087306, 10.00269, 9.998569 
1.20505795e+3, 1.7416663e+2, -1024491.5, -1279645.5, -13987.623, 0.020230465, 0.13718526, -1023727.0, 209452.83, 0.0, 10.002029, 9.998642 
1.205057e+3, 1.8416508e+2, -983323.06, -1202272.3, -20705.174, 0.05644358, 0.11354093, -981382.25, 153811.7, 0.0, 10.001607, 9.998705 
1.20505504e+3, 1.9416368e+2, -896644.0, -1104858.3, -23363.314, -0.0010207952, 0.09941867, -894054.7, 143152.17, 0.0, 10.00151, 9.998747 
1.2050537e+3, 2.0416251e+2, -838083.75, -1014746.2, -11435.98, -0.021614235, 0.10280215, -837346.56, 101871.71, 0.0, 10.001191, 9.998847 
1.20505296e+3, 2.1416159e+2, -827984.2, -954305.56, -11235.43, 0.00781865, 0.120263696, -826992.6, 14235.013, 0.0, 10.0005665, 9.998891 
1.205052e+3, 2.2416063e+2, -809591.2, -905696.25, -21190.443, 0.015562209, 0.14074048, -805126.25, -61887.66, 0.0, 10.000068, 9.998792 
1.2050506e+3, 2.3415962e+2, -756408.75, -826124.0, -15949.677, -0.005948304, 0.15704523, -752933.0, -107681.445, 0.0, 9.999747, 9.998819 
1.2050493e+3, 2.4415895e+2, -661011.1, -643302.25, -3598.911, -0.008974275, 0.1732118, -642598.8, -95339.016, 0.0, 9.99936, 9.999588 
1.2050485e+3, 2.541587e+2, -625678.5, -563478.5, -9442.276, 0.013665987, 0.17738591, -562076.7, -112814.91, 0.0, 9.998877, 9.999695 
1.2050476e+3, 2.6415834e+2, -594405.56, -520031.03, -186.42635, 0.012163884, 0.17970204, -520030.56, -168764.58, 0.0, 9.998517, 9.999495 
1.2050465e+3, 2.741578e+2, -523560.06, -433743.66, 9549.607, -0.023461333, 0.17521459, -432739.53, -179466.67, 0.0, 9.9983225, 9.999508 
1.2050455e+3, 2.8415787e+2, -435491.88, -261532.33, 8902.737, -0.048211943, 0.1986051, -261077.9, -105805.086, 0.0, 9.997913, 10.000214 
1.20504454e+3, 2.9415858e+2, -434046.38, -202198.1, -2800.437, -0.056843, 0.23694582, -202164.27, -144899.4, 0.0, 9.997217, 10.000283 
1.2050437e+3, 3.0415753e+2, -453480.78, -228959.44, -27908.086, -0.04347535, 0.12733254, -225542.47, -225542.47, 0.0, 9.996933, 9.999903 
1.2050431e+3, 3.1415805e+2, -287867.13, 52445.652, -30100.125, 0.039839216, 0.1823956, 55087.453, 55087.453, 0.0, 9.997198, 10.001709 
1.21506505e+3, 1.2417606e+2, -1362379.8, -1702121.6, -110151.586, 0.036758292, 0.15676017, -1329792.1, 393299.06, 0.0026624324, 10.003122, 9.998575 
1.21506296e+3, 1.341744e+2, -1252955.9, -1642450.9, 64160.4, -0.203426, 0.16939227, -1242659.1, 382446.75, 0.0014356553, 10.003354, 9.998218 
1.2150652e+3, 1.4417218e+2, -1144803.8, -1527245.0, -10153.481, -0.0007960938, 0.11965162, -1144534.4, 382592.6, 0.0005075534, 10.003383, 9.99831 
1.2150635e+3, 1.5417081e+2, -1083514.8, -1445300.6, -24100.775, -0.0125607615, 0.14908001, -1081916.4, 347223.8, 0.000076397075, 10.003123, 9.998324 
1.21506155e+3, 1.641692e+2, -1041166.4, -1361501.0, -34136.08, -0.024523903, 0.1514792, -1037569.1, 293586.03, 0.0000008702971, 10.0026865, 9.998437 
1.2150593e+3, 1.7416726e+2, -1035554.06, -1303482.4, -39293.625, -0.049512703, 0.10850596, -1029910.25, 203262.17, 0.0, 10.002031, 9.998478 
1.2150576e+3, 1.8416563e+2, -988646.44, -1213472.9, -27102.291, -0.040380016, 0.09119187, -985425.44, 149761.89, 0.0, 10.001608, 9.998628 
1.2150568e+3, 1.941644e+2, -901541.7, -1115281.1, -27192.523, 0.022555677, 0.098334715, -898136.44, 139062.83, 0.0, 10.00151, 9.998676 
1.2150555e+3, 2.0416327e+2, -840251.3, -1019394.0, -34656.355, 0.04775738, 0.11194283, -833780.56, 105429.875, 0.0, 10.001191, 9.998816 
1.2150537e+3, 2.1416229e+2, -830123.56, -958598.94, -35367.195, 0.020174753, 0.12617347, -821031.06, 20189.438, 0.0, 10.000564, 9.998863 
1.21505186e+3, 2.241613e+2, -799232.1, -883278.6, -35454.184, -0.0015169072, 0.13707279, -786274.0, -43042.574, 0.0, 10.000063, 9.998948 
1.21505015e+3, 2.3416027e+2, -744343.44, -800774.25, -28047.531, -0.0133333765, 0.13415843, -732774.8, -87531.35, 0.0, 9.999745, 9.998995 
1.2150487e+3, 2.4415961e+2, -670031.6, -661990.1, -21866.738, -0.0064741867, 0.14650747, -643777.56, -96526.12, 0.0, 9.999358, 9.999461 
1.2150475e+3, 2.5415936e+2, -636382.9, -586145.25, -26995.096, 0.024247503, 0.16696256, -574390.1, -125135.77, 0.0, 9.998878, 9.999539 
1.2150461e+3, 2.6415902e+2, -579016.75, -488458.13, -8063.321, 0.008584846, 0.17324698, -487745.78, -136487.77, 0.0, 9.998517, 9.999711 
1.2150443e+3, 2.7415866e+2, -507044.2, -397198.28, 3870.6948, -0.070236444, 0.15672374, -397062.06, -143799.86, 0.0, 9.998312, 9.9997635 
1.2150431e+3, 2.8415865e+2, -453783.72, -298155.3, -15444.312, -0.073413886, 0.1738367, -296637.44, -141374.86, 0.0, 9.997906, 9.999967 
1.2150426e+3, 2.941591e+2, -454660.75, -244865.84, -28156.473, 0.026310205, 0.2147533, -241152.7, -183893.5, 0.0, 9.997215, 9.999991 
1.2150413e+3, 3.0415827e+2, -451819.63, -226043.95, -20021.852, 0.021401847, 0.13609083, -224282.16, -224282.16, 0.0, 9.996934, 9.999923 
1.2150392e+3, 3.141588e+2, -274452.84, 84092.57, -15086.508, -0.07906415, 0.1860752, 84726.24, 84726.24, 0.0, 9.997182, 10.001933 
1.22506835e+3, 1.2417713e+2, -1282017.1, -1659576.4, -81823.49, 0.028988963, 0.12981385, -1265047.3, 458032.16, 0.0029179724, 10.003663, 9.998606 
1.22506656e+3, 1.3417566e+2, -1237037.5, -1639658.6, 106187.73, -0.18891579, 0.1668141, -1210748.0, 414344.63, 0.0015834377, 10.003488, 9.998171 
1.22506835e+3, 1.4417353e+2, -1182422.9, -1546580.3, 10074.869, -0.0055823005, 0.13070624, -1182144.4, 344968.44, 0.00056846405, 10.003132, 9.998297 
1.2250664e+3, 1.5417196e+2, -1166566.1, -1486643.5, -21758.744, -0.00095256296, 0.13837852, -1165093.8, 264034.66, 0.00008951281, 10.002561, 9.99831 
1.2250641e+3, 1.6417022e+2, -1101974.8, -1388720.3, -29721.053, -0.012361719, 0.12978525, -1098926.6, 232217.73, 0.0000012652538, 10.002259, 9.998456 
1.2250614e+3, 1.7416838e+2, -992285.7, -1279335.9, -21677.656, -0.060206905, 0.091646366, -990657.9, 242502.52, 0.0, 10.002316, 9.998506 
1.2250593e+3, 1.8416677e+2, -928990.56, -1194534.6, -4822.747, -0.056505833, 0.080752224, -928903.0, 206271.89, 0.0, 10.002061, 9.998539 
1.2250582e+3, 1.9416553e+2, -926368.5, -1138480.3, -8500.14, 0.022113804, 0.09533742, -926028.44, 111159.03, 0.0, 10.001389, 9.998575 
1.22505665e+3, 2.0416428e+2, -893716.9, -1054107.9, -21211.963, 0.05650247, 0.10755453, -890959.0, 48240.99, 0.0, 10.000862, 9.998735 
1.22505434e+3, 2.141631e+2, -839329.1, -970973.3, -26425.732, 0.029698161, 0.108695045, -834222.6, 6989.526, 0.0, 10.000537, 9.99879 
1.2250521e+3, 2.2416207e+2, -776097.9, -858266.8, -25559.023, 0.008811817, 0.11558745, -768796.44, -25573.428, 0.0, 10.000164, 9.99907 
1.22504994e+3, 2.3416129e+2, -739079.94, -782702.1, -22270.287, -0.0028311056, 0.12113501, -729719.1, -84486.99, 0.0, 9.999715, 9.999133 
1.2250481e+3, 2.441607e+2, -684193.2, -681475.3, -17436.623, -0.0032741386, 0.1395449, -665344.75, -118105.38, 0.0, 9.999315, 9.999348 
1.2250463e+3, 2.5416034e+2, -627729.25, -596828.94, -22233.934, 0.010104497, 0.16348659, -585204.1, -135959.81, 0.0, 9.999002, 9.999406 
1.2250444e+3, 2.6416004e+2, -560622.8, -466693.7, -5295.8755, -0.005368169, 0.17350312, -466396.03, -115147.86, 0.0, 9.998589, 9.9998255 
1.2250426e+3, 2.741598e+2, -540135.5, -397862.2, -4585.7754, -0.059480187, 0.15880816, -397714.53, -144464.3, 0.0, 9.998021, 9.999898 
1.225041e+3, 2.841598e+2, -502552.75, -333974.8, -24081.498, -0.05660304, 0.17193353, -330602.22, -175351.45, 0.0, 9.997626, 9.999854 
1.2250399e+3, 2.9416004e+2, -425517.63, -246255.1, -25519.47, 0.022525905, 0.20526135, -242692.97, -185442.69, 0.0, 9.997482, 9.999853 
1.2250382e+3, 3.0415943e+2, -410211.13, -205799.97, -3.1931815, 0.009375196, 0.15905611, -205799.97, -205799.97, 0.0, 9.997219, 9.999924 
1.22503616e+3, 3.1415987e+2, -322972.6, 76691.79, -161.22733, -0.07327677, 0.20101346, 76691.85, 76691.85, 0.0, 9.996779, 10.002077 
1.2350707e+3, 1.241788e+2, -1282272.8, -1658738.6, -103146.14, -0.10489574, 0.101816654, -1255864.8, 467196.6, 0.0031898965, 10.003657, 9.998614 
1.2350708e+3, 1.341775e+2, -1241779.8, -1649259.8, 99995.18, -0.11589794, 0.16309577, -1218563.8, 406509.53, 0.0017411282, 10.003486, 9.998107 
1.23507254e+3, 1.4417543e+2, -1197539.8, -1577365.3, -12292.507, 0.08998143, 0.14377733, -1197142.4, 329951.38, 0.0006337289, 10.003128, 9.998088 
1.2350688e+3, 1.5417336e+2, -1181417.1, -1519695.5, -43356.496, -0.01623468, 0.12720971, -1175948.6, 253165.98, 0.00010392506, 10.002568, 9.99808 
1.2350659e+3, 1.641715e+2, -1089527.9, -1363555.3, -30140.27, -0.05466354, 0.1096463, -1086252.0, 244879.81, 0.0000017603737, 10.002261, 9.998628 
1.2350641e+3, 1.7416999e+2, -977612.9, -1249186.1, -19609.992, -0.01466523, 0.08516988, -976204.2, 256939.19, 0.0, 10.002316, 9.9987135 
1.235062e+3, 1.841685e+2, -937216.8, -1211061.4, -29692.164, 0.0032114596, 0.07948029, -934034.4, 201121.89, 0.0, 10.002058, 9.998427 
1.2350594e+3, 1.9416706e+2, -936025.3, -1158584.1, -34687.777, -0.0040370054, 0.0902829, -930744.2, 106426.87, 0.0, 10.001388, 9.998438 
1.23505704e+3, 2.041656e+2, -902758.44, -1072598.3, -35760.246, 0.004353585, 0.09127766, -895536.1, 43650.152, 0.0, 10.00086, 9.99861 
1.23505495e+3, 2.1416405e+2, -847893.9, -989226.94, -38972.598, 0.034409896, 0.06852306, -837859.6, 3342.4214, 0.0, 10.000538, 9.998664 
1.23505265e+3, 2.2416301e+2, -769870.56, -845742.8, -43093.35, 0.04346228, 0.07626936, -750394.25, -7181.3, 0.0, 10.000164, 9.999157 
1.23505e+3, 2.3416267e+2, -732088.0, -768175.56, -39072.51, 0.02377114, 0.11731609, -707094.1, -61876.87, 0.0, 9.999713, 9.999234 
1.23504736e+3, 2.4416223e+2, -692021.56, -697596.3, -30258.67, -0.00081887515, 0.15157351, -664422.1, -117198.93, 0.0, 9.999314, 9.999238 
1.2350449e+3, 2.541617e+2, -637150.0, -615251.6, -33210.27, -0.032316756, 0.16670099, -591232.2, -142000.75, 0.0, 9.998996, 9.999283 
1.2350428e+3, 2.6416135e+2, -561434.7, -467516.44, -25530.03, -0.033627618, 0.18051575, -461025.2, -109788.94, 0.0, 9.998583, 9.999824 
1.23504125e+3, 2.7416128e+2, -539661.2, -397354.44, -24803.336, 0.0066516693, 0.18262364, -393155.25, -139918.52, 0.0, 9.998021, 9.999902 
1.2350393e+3, 2.841613e+2, -500078.7, -329363.44, -30373.842, -0.00033726284, 0.19379483, -324120.3, -168883.11, 0.0, 9.997628, 9.999885 
1.2350365e+3, 2.9416135e+2, -424750.53, -242272.75, -28588.547, -0.07375178, 0.206329, -237898.67, -180660.6, 0.0, 9.997471, 9.999886 
1.23503454e+3, 3.0416107e+2, -416365.78, -216185.98, -14573.784, -0.08607444, 0.19463196, -215130.53, -215130.53, 0.0, 9.997208, 9.999859 
1.2350342e+3, 3.1416148e+2, -324306.84, 75453.27, -12315.334, 0.050983354, 0.24014407, 75832.305, 75832.305, 0.0, 9.996772, 10.002072 
1.2450741e+3, 1.2418084e+2, -1315282.8, -1680453.0, -113442.82, -0.11464373, 0.11097508, -1282910.6, 440130.0, 0.003475441, 10.003459, 9.998559 
1.2450745e+3, 1.3417923e+2, -1273060.5, -1677512.9, 94487.77, -0.08795089, 0.152587, -1252075.3, 372981.13, 0.0019075654, 10.003328, 9.997988 
1.24507554e+3, 1.4417718e+2, -1188125.0, -1569972.0, -18495.857, 0.08822243, 0.14172652, -1187231.1, 339845.38, 0.0007030745, 10.0031805, 9.998113 
1.2450715e+3, 1.5417524e+2, -1109927.3, -1479745.9, -31206.855, -0.024672383, 0.13256139, -1107312.4, 321783.53, 0.00011956255, 10.003038, 9.998127 
1.2450684e+3, 1.641734e+2, -1025973.8, -1338600.1, -10260.489, -0.05682002, 0.11628873, -1025637.4, 305475.38, 0.0000023468863, 10.002725, 9.998575 
1.2450665e+3, 1.7417172e+2, -1001520.7, -1267942.0, -20378.498, 0.0019437285, 0.08283533, -999970.94, 233155.16, 0.0, 10.002185, 9.998647 
1.2450641e+3, 1.8417017e+2, -984414.9, -1234450.8, -45771.32, 0.024295973, 0.0729069, -976299.44, 158840.48, 0.0, 10.001737, 9.998421 
1.2450609e+3, 1.9416876e+2, -935119.0, -1157946.1, -42288.58, 0.0035709979, 0.08686977, -927363.3, 109791.0, 0.0, 10.001394, 9.998438 
1.24505796e+3, 2.0416729e+2, -876741.4, -1058674.8, -27333.875, 0.0015443921, 0.08913885, -872723.44, 66445.8, 0.0, 10.001034, 9.998621 
1.2450554e+3, 2.1416575e+2, -830840.94, -979711.9, -21505.02, 0.022784637, 0.064383335, -827796.7, 13388.248, 0.0, 10.00065, 9.998675 
1.24505274e+3, 2.2416468e+2, -767642.9, -848575.0, -29029.338, 0.033052817, 0.069841094, -758307.25, -15111.148, 0.0, 10.000196, 9.999122 
1.2450497e+3, 2.3416427e+2, -742877.0, -776718.0, -36654.457, 0.028735282, 0.10744431, -719426.06, -74225.07, 0.0, 9.999655, 9.999203 
1.2450468e+3, 2.441638e+2, -709614.3, -711161.25, -24116.068, 0.008936897, 0.14320791, -686259.3, -139052.02, 0.0, 9.999217, 9.99919 
1.2450438e+3, 2.541633e+2, -653496.1, -628840.8, -22717.385, -0.031920735, 0.16703258, -615321.8, -166106.23, 0.0, 9.998909, 9.99923 
1.2450414e+3, 2.6416296e+2, -570285.8, -479051.3, -19768.838, -0.03704084, 0.18683966, -474951.94, -123731.09, 0.0, 9.998554, 9.999757 
1.2450394e+3, 2.7416283e+2, -524794.3, -397313.66, -25639.283, 0.006564418, 0.1892939, -392350.25, -139127.88, 0.0, 9.998155, 9.999837 
1.245037e+3, 2.8416285e+2, -459108.7, -288084.56, -19242.305, -0.0011184486, 0.19548525, -285946.3, -130723.58, 0.0, 9.997817, 10.000077 
1.245034e+3, 2.9416302e+2, -401924.3, -207052.66, -6149.425, -0.08016872, 0.20100111, -206858.8, -149637.45, 0.0, 9.997524, 10.000101 
1.2450315e+3, 3.0416313e+2, -446433.3, -239818.03, 4233.5767, -0.09108379, 0.2181905, -239731.33, -239731.33, 0.0, 9.997042, 9.999775 
1.2450309e+3, 3.1416306e+2, -395614.06, 30659.238, 4234.4487, 0.06505645, 0.22525813, 30701.297, 30701.297, 0.0, 9.996328, 10.001977 
1.2550786e+3, 1.2418336e+2, -1324136.3, -1699997.5, -129288.195, -0.009283201, 0.15682027, -1283958.6, 439057.94, 0.003773608, 10.003462, 9.9984255 
1.2550776e+3, 1.3418092e+2, -1285157.8, -1704776.0, 89419.46, -0.10796882, 0.13440542, -1266897.4, 358143.4, 0.0020822599, 10.003336, 9.997799 
1.2550777e+3, 1.4417888e+2, -1170133.1, -1532365.6, -25517.408, -0.012904075, 0.12214332, -1168344.4, 358716.2, 0.0007764397, 10.00318, 9.998372 
1.2550746e+3, 1.5417762e+2, -1088291.9, -1434805.1, -36569.57, -0.027462294, 0.15248318, -1084474.6, 344597.13, 0.00013646827, 10.003037, 9.998437 
1.2550715e+3, 1.6417593e+2, -1046589.94, -1380496.4, -31210.89, -0.022037255, 0.14750414, -1043697.6, 287389.28, 0.0000030208696, 10.00272, 9.99829 
1.2550686e+3, 1.7417364e+2, -1024559.4, -1316828.4, -41106.38, -0.012394809, 0.0853491, -1018887.94, 214219.92, 0.0, 10.002188, 9.998311 
1.2550656e+3, 1.8417181e+2, -977637.75, -1220494.8, -60122.875, 0.004851307, 0.062245823, -963568.5, 171556.52, 0.0, 10.001737, 9.998518 
1.2550627e+3, 1.9417062e+2, -925616.8, -1138624.8, -55469.66, 0.04225233, 0.08421775, -912037.56, 125099.17, 0.0, 10.001395, 9.998571 
1.2550594e+3, 2.0416942e+2, -867723.9, -1039521.75, -43121.473, 0.04414068, 0.099203676, -857507.9, 81640.76, 0.0, 10.001032, 9.9987545 
1.2550558e+3, 2.141682e+2, -821890.44, -960446.0, -36481.258, -0.0061414107, 0.095298804, -812872.0, 28288.576, 0.0, 10.000647, 9.99881 
1.2550524e+3, 2.2416708e+2, -778673.8, -871015.44, -50326.81, -0.022586692, 0.095541075, -756547.25, -13375.143, 0.0, 10.000194, 9.99897 
1.2550493e+3, 2.3416609e+2, -755097.6, -802078.56, -57095.14, 0.01003211, 0.092056476, -716849.44, -71666.555, 0.0, 9.999654, 9.999029 
1.2550461e+3, 2.4416544e+2, -708855.8, -709567.7, -36704.023, 0.022894833, 0.11538015, -672506.0, -125314.75, 0.0, 9.999215, 9.999203 
1.2550431e+3, 2.541652e+2, -651887.5, -625749.0, -33425.004, 0.0084947925, 0.16513029, -602929.06, -153732.58, 0.0, 9.998909, 9.999252 
1.25504e+3, 2.641649e+2, -579640.3, -498687.72, -34283.594, -0.018357225, 0.19267593, -486119.72, -134918.05, 0.0, 9.998554, 9.999622 
1.2550369e+3, 2.7416447e+2, -535508.7, -418135.8, -39066.363, -0.062451426, 0.1781694, -406322.03, -153114.94, 0.0, 9.998147, 9.999699 
1.2550342e+3, 2.8416446e+2, -437144.4, -240530.38, -29456.016, -0.06167892, 0.17651643, -236212.22, -81004.86, 0.0, 9.9978075, 10.000408 
1.2550323e+3, 2.9416513e+2, -376308.16, -153175.5, -15525.753, -0.0018339333, 0.19107457, -152100.39, -94900.32, 0.0, 9.99752, 10.000473 
1.2550294e+3, 3.041656e+2, -452397.97, -251646.48, -21329.18, -0.011396875, 0.23150162, -249405.34, -249405.34, 0.0, 9.997038, 9.999696 
1.2550263e+3, 3.1416467e+2, -409885.6, 3850.181, -17522.488, -0.0372986, 0.16400175, 4590.965, 4590.965, 0.0, 9.996316, 10.001799 
1.2650827e+3, 1.2418562e+2, -1292483.8, -1687469.3, -128125.93, 0.029783094, 0.16660123, -1254562.8, 468432.0, 0.0040845773, 10.003692, 9.998401 
1.2650812e+3, 1.3418299e+2, -1255905.1, -1695531.9, 105223.27, -0.09361841, 0.1292269, -1232018.1, 393002.6, 0.0022650654, 10.00356, 9.997753 
1.2650807e+3, 1.4418101e+2, -1151438.0, -1519257.4, -15174.382, -0.04811567, 0.12413293, -1150813.1, 376226.56, 0.00085386867, 10.003293, 9.998406 
1.2650774e+3, 1.5417968e+2, -1106225.0, -1439599.4, -46960.387, -0.026697565, 0.14241703, -1099736.3, 329315.06, 0.00015477135, 10.002898, 9.998469 
1.2650742e+3, 1.6417801e+2, -1076650.3, -1399125.3, -48878.63, -0.009352212, 0.14043027, -1069404.4, 261662.05, 0.0000038088367, 10.002532, 9.998252 
1.2650707e+3, 1.741759e+2, -1026777.25, -1322419.5, -39015.313, -0.019935096, 0.10072384, -1021715.1, 211371.4, 0.0, 10.002194, 9.998268 
1.2650673e+3, 1.8417417e+2, -962716.3, -1206637.4, -45622.973, -0.008457766, 0.08488512, -954462.3, 180640.97, 0.0, 10.001812, 9.998575 
1.265064e+3, 1.9417289e+2, -924251.44, -1130350.5, -46913.82, 0.039465673, 0.09192505, -914075.0, 123040.49, 0.0, 10.001373, 9.998637 
1.2650605e+3, 2.0417169e+2, -884119.25, -1040007.06, -41464.418, 0.04983364, 0.101393655, -873776.4, 65350.57, 0.0, 10.000888, 9.998819 
1.2650564e+3, 2.141706e+2, -864159.1, -973175.06, -41136.96, 0.0061004474, 0.104949206, -850378.2, -9240.905, 0.0, 10.000324, 9.998877 
1.2650526e+3, 2.2416952e+2, -818985.5, -894601.56, -48449.492, -0.0141757, 0.10707368, -795337.9, -52189.457, 0.0, 9.999935, 9.998931 
1.2650488e+3, 2.3416843e+2, -739181.6, -799999.6, -47190.64, -0.00024131408, 0.097653106, -713450.94, -68290.51, 0.0, 9.999787, 9.99898 
1.2650453e+3, 2.4416769e+2, -668354.5, -689309.94, -23852.857, 0.011706601, 0.11420176, -652779.56, -105609.92, 0.0, 9.99949, 9.999209 
1.2650423e+3, 2.5416738e+2, -638296.2, -617256.75, -22850.596, 0.019238358, 0.15616849, -602620.7, -153445.56, 0.0, 9.998995, 9.9992695 
1.2650387e+3, 2.641671e+2, -588192.3, -493470.2, -20112.408, -0.0036867126, 0.18486512, -489376.6, -138197.06, 0.0, 9.998456, 9.999705 
1.2650348e+3, 2.741669e+2, -574915.06, -427210.0, -9390.866, -0.06678082, 0.18235648, -426615.34, -173432.36, 0.0, 9.997834, 9.999786 
1.2650317e+3, 2.8416693e+2, -499824.9, -265181.56, 9182.896, -0.066033676, 0.17666745, -264822.75, -109639.77, 0.0, 9.997354, 10.000458 
1.2650298e+3, 2.9416743e+2, -437434.28, -177501.64, -1864.3094, 0.019505389, 0.16997923, -177488.27, -120310.97, 0.0, 9.997079, 10.000519 
1.2650265e+3, 3.0416828e+2, -473384.63, -239736.97, -19015.816, 0.0030476835, 0.23390101, -238199.45, -238199.45, 0.0, 9.996799, 9.999892 
1.2650223e+3, 3.1416726e+2, -377796.06, 28107.54, 8373.557, -0.069337256, 0.14060299, 28280.207, 28280.207, 0.0, 9.996497, 10.001878 
1.2750861e+3, 1.2418772e+2, -1286556.9, -1674648.0, -138551.28, -0.0015337986, 0.14133409, -1242169.8, 480804.6, 0.004408359, 10.00369, 9.998491 
1.2750852e+3, 1.3418551e+2, -1248517.8, -1680792.0, 100030.52, -0.04689704, 0.1362827, -1226492.4, 398503.06, 0.0024557966, 10.003563, 9.997852 
1.2750842e+3, 1.4418365e+2, -1164458.0, -1547033.1, -31065.557, -0.022083385, 0.14674906, -1161951.9, 365061.06, 0.00093550276, 10.003294, 9.998216 
1.2750804e+3, 1.5418147e+2, -1122059.0, -1473780.3, -61619.125, -0.026580088, 0.1032589, -1111576.1, 317457.53, 0.00017466526, 10.002901, 9.998235 
1.2750767e+3, 1.6417971e+2, -1063660.8, -1371539.9, -62646.043, -0.021839703, 0.095573165, -1051402.0, 279648.5, 0.0000047674703, 10.002528, 9.998444 
1.2750728e+3, 1.7417856e+2, -1010350.5, -1288148.9, -52004.94, -0.022340791, 0.12798335, -1000934.2, 232127.38, 0.0, 10.0021925, 9.998505 
1.275069e+3, 1.841772e+2, -962113.2, -1204675.3, -63249.277, -0.0186991, 0.13848646, -946611.3, 188463.2, 0.0, 10.001808, 9.998591 
1.275065e+3, 1.9417557e+2, -924251.6, -1130663.8, -63779.313, -0.0051535135, 0.11013068, -906134.56, 130955.55, 0.0, 10.001374, 9.998635 
1.275061e+3, 2.0417415e+2, -884159.1, -1040367.94, -63355.758, 0.018421456, 0.09637053, -861693.9, 77409.85, 0.0, 10.000888, 9.998817 
1.2750572e+3, 2.14173e+2, -864521.7, -973940.2, -62683.51, 0.055999737, 0.09371582, -836030.44, 5084.1343, 0.0, 10.000323, 9.998873 
1.2750532e+3, 2.2417204e+2, -814624.6, -884865.7, -56436.1, 0.053243272, 0.10475085, -783273.44, -40148.96, 0.0, 9.999931, 9.999001 
1.2750486e+3, 2.341713e+2, -734278.44, -789715.94, -52584.27, -0.0035534373, 0.1238663, -702554.5, -57421.207, 0.0, 9.999785, 9.999051 
1.2750444e+3, 2.4417056e+2, -668945.6, -690273.2, -41808.95, -0.025920656, 0.13886032, -636461.94, -89319.65, 0.0, 9.999487, 9.999205 
1.275041e+3, 2.5416985e+2, -639161.94, -618125.4, -40631.086, -0.0017979293, 0.140077, -586673.2, -137521.89, 0.0, 9.998989, 9.999267 
1.2750372e+3, 2.6416966e+2, -568381.2, -451139.72, -42592.965, 0.0050008246, 0.1635786, -437299.75, -86145.43, 0.0, 9.998449, 10.0 
1.2750332e+3, 2.741702e+2, -552765.5, -381085.8, -31301.008, -0.011124638, 0.20246625, -375557.0, -122407.1, 0.0, 9.997832, 10.000105 
1.2750295e+3, 2.841703e+2, -515985.28, -299103.8, -1851.5573, -0.019341672, 0.19624524, -299088.0, -143938.56, 0.0, 9.997353, 10.000226 
1.2750264e+3, 2.9417e+2, -458433.72, -218765.08, -10401.396, -0.019241463, 0.13737473, -218314.52, -161161.58, 0.0, 9.997067, 10.000241 
1.2750228e+3, 3.0417112e+2, -443177.78, -174506.13, -29014.87, -0.049170975, 0.22441229, -171408.4, -171408.4, 0.0, 9.996788, 10.000346 
1.2750192e+3, 3.14171e+2, -357557.9, 73059.445, 3246.4875, -0.039609723, 0.16649018, 73083.92, 73083.92, 0.0, 9.996485, 10.0021925 
1.2850897e+3, 1.2419036e+2, -1197690.8, -1636464.9, -116241.17, -0.029997723, 0.13053568, -1168798.4, 554149.94, 0.004744735, 10.004326, 9.998446 
1.2850893e+3, 1.3418818e+2, -1211618.8, -1664422.4, 112479.53, -0.01139606, 0.13040598, -1185217.4, 439751.66, 0.0026544554, 10.003825, 9.997838 
1.2850876e+3, 1.4418647e+2, -1162573.9, -1550853.8, -21357.762, -0.0073078442, 0.15694518, -1161402.5, 365582.8, 0.0010215283, 10.003328, 9.998173 
1.2850833e+3, 1.541841e+2, -1123825.1, -1479554.8, -39105.254, -0.030272048, 0.099812694, -1119577.0, 309431.38, 0.00019628371, 10.0029125, 9.998189 
1.2850791e+3, 1.6418232e+2, -1059691.9, -1354532.5, -32499.633, -0.029266678, 0.08793425, -1056152.0, 274873.3, 0.0000059623408, 10.002492, 9.998577 
1.2850751e+3, 1.7418142e+2, -1020119.3, -1276370.6, -28972.129, -0.014939889, 0.12977959, -1016884.5, 216149.16, 0.0, 10.002055, 9.9986515 
1.2850708e+3, 1.8418019e+2, -983402.1, -1215571.1, -43499.434, -0.010284673, 0.1461095, -975519.6, 159525.75, 0.0, 10.001666, 9.998585 
1.2850662e+3, 1.9417854e+2, -931510.3, -1136499.4, -46565.023, -0.0145617705, 0.118059464, -921428.5, 115633.13, 0.0, 10.001335, 9.998614 
1.2850618e+3, 2.0417711e+2, -868092.4, -1026417.56, -48160.227, 0.004674017, 0.101662785, -854593.6, 84481.945, 0.0, 10.000973, 9.998872 
1.2850577e+3, 2.1417597e+2, -824348.7, -947173.25, -44120.918, 0.054730315, 0.09201918, -810142.7, 30943.477, 0.0, 10.000568, 9.998938 
1.2850532e+3, 2.2417507e+2, -787066.6, -869718.94, -31185.963, 0.05896017, 0.10581583, -776620.06, -33524.67, 0.0, 10.0001135, 9.999017 
1.2850483e+3, 2.3417449e+2, -762755.2, -801617.5, -32607.936, 0.0007256018, 0.14060253, -744227.8, -99124.95, 0.0, 9.999584, 9.999066 
1.2850437e+3, 2.4417382e+2, -725788.4, -705973.75, -26509.12, -0.02527379, 0.15711808, -687581.1, -140469.97, 0.0, 9.999047, 9.999309 
1.2850396e+3, 2.5417304e+2, -702601.9, -636392.0, -18413.314, -0.0069556376, 0.14147261, -631615.7, -182495.5, 0.0, 9.9985, 9.999377 
1.2850355e+3, 2.641729e+2, -618452.1, -472685.38, -20672.256, 0.00230364, 0.16081002, -469810.38, -118687.74, 0.0, 9.998094, 10.000023 
1.2850311e+3, 2.7417356e+2, -543885.56, -375032.72, -32950.914, -0.0006221791, 0.21064636, -368830.3, -115713.34, 0.0, 9.997886, 10.000121 
1.2850271e+3, 2.8417364e+2, -485205.1, -284036.4, -6418.778, -0.010189555, 0.20384568, -283831.8, -128715.22, 0.0, 9.997563, 10.000228 
1.2850234e+3, 2.941732e+2, -458816.7, -218834.89, 4236.2437, -0.030020926, 0.13170247, -218760.14, -161638.48, 0.0, 9.997064, 10.000243 
1.2850192e+3, 3.0417466e+2, -455682.72, -160102.28, -7930.3594, -0.05870124, 0.24003696, -159889.67, -159889.67, 0.0, 9.996616, 10.000526 
1.2850158e+3, 3.1417468e+2, -390305.1, 50097.48, 483.39752, -0.01770206, 0.18161692, 50098.01, 50098.01, 0.0, 9.996291, 10.002129 
1.2950937e+3, 1.24193616e+2, -1210612.9, -1665266.3, -134339.9, -0.06392933, 0.133457, -1173885.3, 549030.5, 0.0050931526, 10.0043335, 9.998245 
1.2950934e+3, 1.3419107e+2, -1221765.5, -1684522.3, 93074.74, 0.0101580275, 0.11135217, -1203746.9, 421193.66, 0.002860902, 10.003821, 9.997702 
1.295091e+3, 1.4418949e+2, -1156983.3, -1537763.0, -39002.77, -0.007769617, 0.15462388, -1153029.3, 373926.88, 0.00111182, 10.003322, 9.998266 
1.295086e+3, 1.5418759e+2, -1113687.6, -1459597.8, -54483.363, -0.03945409, 0.13110927, -1105309.1, 323665.72, 0.000219555, 10.002916, 9.998324 
1.2950815e+3, 1.6418591e+2, -1053730.8, -1342997.0, -49899.117, -0.03463989, 0.115545504, -1045364.94, 285625.7, 0.0000074533, 10.002494, 9.998656 
1.2950772e+3, 1.7418456e+2, -1015333.9, -1267157.1, -45635.953, -0.00024387827, 0.10629679, -1007318.75, 225683.69, 0.0, 10.002057, 9.998714 
1.2950727e+3, 1.841832e+2, -986546.25, -1221963.9, -57346.906, 0.0137724485, 0.10869915, -973319.8, 161695.38, 0.0, 10.001664, 9.998542 
1.2950678e+3, 1.9418186e+2, -935368.1, -1144084.3, -59288.438, 0.008191837, 0.1165513, -919702.4, 117327.14, 0.0, 10.001332, 9.998564 
1.2950628e+3, 2.0418061e+2, -860940.3, -1010769.75, -64441.75, 0.0047802543, 0.11724495, -837037.25, 102004.75, 0.0, 10.000968, 9.998982 
1.2950577e+3, 2.141795e+2, -815509.5, -929063.3, -59781.285, 0.0021199377, 0.099000484, -789839.94, 51211.88, 0.0, 10.000568, 9.999063 
1.2950528e+3, 2.2417864e+2, -789540.44, -874971.7, -51788.375, 0.0029757356, 0.10951247, -765124.4, -22063.559, 0.0, 10.0001135, 9.998981 
1.295048e+3, 2.3417804e+2, -766405.75, -808999.25, -52283.83, 0.010170976, 0.14805035, -731247.6, -86178.79, 0.0, 9.999581, 9.999018 
1.2950431e+3, 2.4417749e+2, -711889.25, -676320.4, -47327.832, 0.010123673, 0.16930737, -643545.8, -96469.85, 0.0, 9.999043, 9.999516 
1.2950382e+3, 2.54177e+2, -686914.75, -603826.3, -38279.08, 0.0008372311, 0.16055231, -588879.75, -139798.14, 0.0, 9.9985, 9.999601 
1.2950334e+3, 2.6417685e+2, -635658.3, -509063.34, -29200.3, -0.01450672, 0.1761621, -502652.66, -151568.33, 0.0, 9.9980955, 9.999774 
1.2950286e+3, 2.74177e+2, -565019.9, -417187.75, -39090.332, -0.03808507, 0.20728528, -407487.78, -154403.84, 0.0, 9.997877, 9.999836 
1.2950245e+3, 2.8417704e+2, -470624.53, -252062.33, -23189.19, -0.040593393, 0.19981268, -249629.08, -94544.836, 0.0, 9.997556, 10.000452 
1.2950206e+3, 2.9417714e+2, -440247.16, -178813.31, -12682.757, -0.017849585, 0.15499431, -178199.48, -121116.29, 0.0, 9.997058, 10.000521 
1.2950163e+3, 3.041789e+2, -462093.38, -174489.28, -20781.887, -0.030750524, 0.28193808, -172995.38, -172995.38, 0.0, 9.996617, 10.000428 
1.2950121e+3, 3.1417853e+2, -424317.75, -15743.484, -6280.8394, -0.011194513, 0.19625692, -15646.954, -15646.954, 0.0, 9.99627, 10.001686 
1.3050982e+3, 1.24197334e+2, -1169162.6, -1657156.3, -114074.52, -0.06285635, 0.13317616, -1143813.1, 579066.44, 0.005450988, 10.004675, 9.998137 
1.3050972e+3, 1.3419469e+2, -1210945.0, -1686211.1, 111543.234, 0.008086957, 0.107349195, -1186068.4, 438837.3, 0.003073595, 10.003929, 9.997638 
1.305094e+3, 1.441932e+2, -1151633.4, -1531723.1, -7764.0786, -0.035891373, 0.16314475, -1151474.9, 375445.44, 0.0012055306, 10.003345, 9.998297 
1.3050893e+3, 1.5419145e+2, -1094594.0, -1446174.1, -29770.965, -0.025269981, 0.15121086, -1092090.9, 336846.72, 0.000244213, 10.00303, 9.998362 
1.3050844e+3, 1.6418979e+2, -1033889.44, -1332014.8, -35388.215, -0.01106692, 0.13446121, -1029746.4, 301206.9, 0.000009295233, 10.002625, 9.998668 
1.3050792e+3, 1.7418824e+2, -1007090.9, -1261778.1, -36309.906, -0.010695056, 0.10655679, -1002015.44, 230951.22, 0.0, 10.002109, 9.998726 
1.3050742e+3, 1.8418688e+2, -985357.2, -1213677.8, -41810.934, -0.005267166, 0.10203793, -977941.5, 157038.1, 0.0, 10.00164, 9.99861 
1.305069e+3, 1.941857e+2, -944740.56, -1139809.4, -35293.27, 0.012224533, 0.11897724, -938551.4, 98440.53, 0.0, 10.001231, 9.998641 
1.3050637e+3, 2.0418455e+2, -880161.25, -1021140.1, -38950.97, 0.013472347, 0.12456473, -870115.4, 68888.32, 0.0, 10.000842, 9.998971 
1.3050582e+3, 2.141834e+2, -830558.5, -938395.5, -46017.11, -0.010051968, 0.10614139, -813591.3, 27423.043, 0.0, 10.000475, 9.999043 
1.3050528e+3, 2.2418259e+2, -791293.4, -861340.7, -42932.313, -0.010142956, 0.11789935, -770910.9, -27887.951, 0.0, 10.000039, 9.99911 
1.3050476e+3, 2.3418218e+2, -766355.94, -792701.56, -31323.37, 0.022785103, 0.15940979, -745548.25, -100519.49, 0.0, 9.999513, 9.999162 
1.3050424e+3, 2.441817e+2, -720025.06, -688363.6, -26500.764, 0.028322527, 0.18137789, -673325.2, -126290.08, 0.0, 9.9990225, 9.999442 
1.3050367e+3, 2.541811e+2, -681996.56, -611697.94, -41949.203, -0.0035266085, 0.16977714, -592118.75, -143076.56, 0.0, 9.998578, 9.99951 
1.3050313e+3, 2.6418078e+2, -624397.9, -503003.06, -29500.537, -0.031787243, 0.17867334, -496213.75, -145167.78, 0.0, 9.998171, 9.999779 
1.3050264e+3, 2.7418086e+2, -572340.4, -419509.97, -18157.23, -0.05392583, 0.19738498, -417382.38, -164336.13, 0.0, 9.997822, 9.999846 
1.3050218e+3, 2.8418088e+2, -494690.28, -266893.0, -5240.9775, -0.04780869, 0.19197282, -266772.5, -111726.14, 0.0, 9.997405, 10.000422 
1.3050178e+3, 2.9418117e+2, -464774.5, -194252.22, -20064.508, -0.00664084, 0.16804633, -192772.14, -135728.1, 0.0, 9.996904, 10.000489 
1.305013e+3, 3.0418295e+2, -470503.56, -164762.36, -25595.494, -0.015433907, 0.29604048, -162634.4, -162634.4, 0.0, 9.996503, 10.00055 
1.3050082e+3, 3.141825e+2, -439663.75, -44596.99, 10028.669, -0.016750079, 0.18735188, -44342.574, -44342.574, 0.0, 9.996255, 10.001497 
1.3151032e+3, 1.24201626e+2, -1171865.1, -1661366.3, -136992.64, -0.03639526, 0.13538691, -1136134.4, 586704.0, 0.0058134617, 10.004667, 9.998113 
1.3151008e+3, 1.3419904e+2, -1209440.1, -1685152.9, 83245.516, -0.018693563, 0.11690589, -1195293.5, 429570.25, 0.0032896372, 10.003938, 9.997641 
1.3150968e+3, 1.4419764e+2, -1152800.5, -1536148.1, -22338.758, -0.09523222, 0.18046427, -1151503.1, 375374.47, 0.0013013786, 10.003352, 9.998262 
1.3150926e+3, 1.5419574e+2, -1099536.5, -1455654.8, -41536.387, 0.0086591, 0.15996572, -1094756.0, 334140.13, 0.00026992275, 10.003026, 9.998299 
1.3150874e+3, 1.6419402e+2, -1038920.06, -1341584.3, -55380.85, 0.037508424, 0.14480095, -1029104.9, 301807.78, 0.00001153221, 10.002621, 9.998605 
1.3150811e+3, 1.7419258e+2, -1009727.8, -1268325.3, -55902.715, -0.04761535, 0.13079613, -998160.44, 234765.48, 0.0, 10.002112, 9.99868 
1.3150752e+3, 1.8419126e+2, -972500.6, -1187502.0, -58572.117, -0.07000976, 0.12569943, -957579.56, 177358.45, 0.0, 10.001641, 9.99879 
1.3150702e+3, 1.9419008e+2, -930620.94, -1111307.1, -51073.47, -0.0036107854, 0.12374963, -917183.6, 119765.02, 0.0, 10.001234, 9.998836 
1.3150647e+3, 2.0418888e+2, -889562.4, -1040753.9, -54122.043, 0.028952971, 0.1227722, -872185.5, 66774.86, 0.0, 10.000842, 9.9988365 
1.3150588e+3, 2.141877e+2, -842633.0, -962982.6, -59891.4, 0.015190645, 0.11384981, -817907.94, 23065.465, 0.0, 10.000471, 9.998877 
1.315053e+3, 2.2418699e+2, -772108.75, -820412.25, -63349.03, 0.015377167, 0.13165942, -728463.7, 14517.655, 0.0, 10.000033, 9.999394 
1.3150473e+3, 2.341869e+2, -743766.1, -746089.1, -51216.246, 0.036747918, 0.17437537, -693698.25, -48715.918, 0.0, 9.999513, 9.999482 
1.3150413e+3, 2.4418639e+2, -743945.7, -738488.3, -43857.64, 0.027764926, 0.19241941, -697274.56, -150286.03, 0.0, 9.999023, 9.999098 
1.3150352e+3, 2.5418526e+2, -710579.9, -670278.94, -57619.68, -0.022684734, 0.16963242, -629387.9, -180386.25, 0.0, 9.998573, 9.99911 
1.3150294e+3, 2.6418477e+2, -608052.75, -468519.72, -42172.168, -0.052026507, 0.16898264, -456764.1, -105756.77, 0.0, 9.998167, 10.000018 
1.3150242e+3, 2.7418506e+2, -552064.44, -377208.28, -29537.98, -0.051488865, 0.18241346, -372353.28, -119349.62, 0.0, 9.99782, 10.000138 
1.3150193e+3, 2.8418517e+2, -514101.06, -308333.97, -23385.977, -0.035687022, 0.1814466, -305709.56, -150706.7, 0.0, 9.997408, 10.000136 
1.3150147e+3, 2.941853e+2, -490387.44, -243759.78, -36974.64, -0.0017160244, 0.17258133, -238335.8, -181331.84, 0.0, 9.996888, 10.000157 
1.3150096e+3, 3.0418688e+2, -449390.3, -118318.914, -34338.28, -0.01777753, 0.2836607, -114794.91, -114794.91, 0.0, 9.9964905, 10.000876 
1.3150042e+3, 3.1418666e+2, -435336.06, -33208.945, 7038.409, -0.040416665, 0.1636758, -33085.79, -33085.79, 0.0, 9.996246, 10.001579 
1.3251078e+3, 1.2420668e+2, -1145330.8, -1664963.6, -110839.73, -0.05425248, 0.16161184, -1122675.9, 600113.75, 0.0061763534, 10.004921, 9.997968 
1.3251051e+3, 1.3420385e+2, -1162447.6, -1674207.0, 91049.26, -0.008763627, 0.13157171, -1146731.4, 478086.34, 0.0035064155, 10.004316, 9.997533 
1.3251002e+3, 1.4420237e+2, -1104873.6, -1505153.8, -9657.459, -0.102526896, 0.18730377, -1104640.8, 422191.44, 0.0013982237, 10.00365, 9.998332 
1.3250954e+3, 1.542004e+2, -1102682.0, -1448436.6, -18238.992, 0.0027335759, 0.1538263, -1101722.5, 327127.7, 0.00029637254, 10.002967, 9.998377 
1.32509e+3, 1.641987e+2, -1063295.6, -1366673.3, -20559.46, 0.03693469, 0.14057533, -1061908.8, 268957.8, 0.000014169166, 10.002511, 9.998486 
1.3250834e+3, 1.7419736e+2, -984522.56, -1271457.1, -28766.8, -0.034898147, 0.1507909, -981666.94, 251213.1, 0.0, 10.002352, 9.998543 
1.325077e+3, 1.8419601e+2, -915068.06, -1148284.0, -43817.902, -0.05899992, 0.14759752, -907107.06, 227785.39, 0.0, 10.0019865, 9.998892 
1.3250713e+3, 1.9419469e+2, -905466.4, -1085228.4, -42740.977, -0.01742922, 0.11660254, -895821.56, 141081.88, 0.0, 10.001347, 9.9989605 
1.3250655e+3, 2.0419352e+2, -895886.8, -1038203.44, -38441.984, 0.012977233, 0.10817803, -886166.9, 52747.59, 0.0, 10.000774, 9.998887 
1.3250594e+3, 2.1419258e+2, -866147.06, -968708.3, -30157.785, 0.027408399, 0.12168339, -857936.56, -17011.232, 0.0, 10.000288, 9.998924 
1.3250531e+3, 2.241919e+2, -796411.1, -835548.3, -34684.45, 0.03392495, 0.14234817, -776155.9, -33222.805, 0.0, 9.999883, 9.999363 
1.3250467e+3, 2.3419155e+2, -736541.8, -746528.75, -50033.64, 0.031109199, 0.16157545, -691253.06, -46316.55, 0.0, 9.99958, 9.999447 
1.3250405e+3, 2.4419093e+2, -708084.75, -718776.75, -43712.723, 0.0132761635, 0.17084084, -669392.3, -122448.82, 0.0, 9.999261, 9.999119 
1.3250338e+3, 2.5418997e+2, -658135.0, -641450.25, -27745.947, -0.025594639, 0.15858506, -620819.6, -171864.61, 0.0, 9.99892, 9.99914 
1.3250276e+3, 2.6418954e+2, -580581.06, -460853.56, -11267.474, -0.043068722, 0.16488416, -459802.44, -108842.336, 0.0, 9.998382, 9.999967 
1.3250221e+3, 2.741898e+2, -592648.94, -403258.28, -26246.82, -0.029820736, 0.18023811, -399688.13, -146731.05, 0.0, 9.99757, 10.00008 
1.3250168e+3, 2.8418982e+2, -577677.3, -350419.3, -19364.785, -0.018106464, 0.18039349, -348781.03, -193823.92, 0.0, 9.997024, 10.000032 
1.3250114e+3, 2.9418978e+2, -503376.7, -260946.6, -17665.498, -0.009843905, 0.1685783, -259666.11, -202706.39, 0.0, 9.996847, 10.000059 
1.3250059e+3, 3.041912e+2, -433335.78, -86543.87, -10194.134, -0.026408534, 0.25406724, -86244.46, -86244.46, 0.0, 9.996499, 10.001089 
1.3250005e+3, 3.1419146e+2, -484968.1, -59578.293, 21079.848, -0.029622853, 0.16170576, -58536.25, -58536.25, 0.0, 9.995916, 10.001556 
1.335112e+3, 1.24212556e+2, -1164535.6, -1705044.4, -126330.24, -0.124603815, 0.21050306, -1136466.8, 586266.44, 0.006537478, 10.004922, 9.997692 
1.3351099e+3, 1.3420923e+2, -1180045.9, -1707845.3, 67408.52, 0.0357309, 0.15215111, -1171572.8, 453194.06, 0.0037225517, 10.004304, 9.997308 
1.3351044e+3, 1.4420745e+2, -1093977.1, -1480623.8, -36511.01, -0.06257264, 0.18504359, -1090559.5, 436224.0, 0.0014951819, 10.003641, 9.998506 
1.335098e+3, 1.5420553e+2, -1085787.3, -1415281.6, -43549.8, -0.04466979, 0.13291161, -1080128.4, 348670.72, 0.00032323142, 10.0029745, 9.998601 
1.3350919e+3, 1.6420387e+2, -1075831.1, -1394332.5, -28909.934, -0.015592767, 0.12177283, -1073228.3, 257586.19, 0.000017128494, 10.002517, 9.998294 
1.3350864e+3, 1.7420264e+2, -1001282.2, -1306276.1, -34929.535, 0.023993457, 0.16586523, -997333.0, 235495.64, 0.00000000003443261, 10.002351, 9.998305 
1.3350798e+3, 1.8420121e+2, -913538.44, -1144511.3, -67657.13, 0.023144502, 0.16698205, -895179.4, 239663.05, 0.0, 10.001983, 9.99892 
1.3350725e+3, 1.9419958e+2, -901204.0, -1077253.3, -67073.64, -0.031083085, 0.09813118, -878561.56, 158294.28, 0.0, 10.001349, 9.999015 
1.3350657e+3, 2.0419845e+2, -880118.25, -1005685.6, -58392.934, -0.036708977, 0.08193559, -857160.9, 81704.61, 0.0, 10.000774, 9.99911 
1.3350596e+3, 2.1419808e+2, -849402.56, -934383.56, -49042.05, 0.024669131, 0.12874451, -827004.2, 13865.799, 0.0, 10.000289, 9.999161 
1.3350531e+3, 2.2419737e+2, -819905.5, -884323.6, -47739.813, 0.043637957, 0.14859523, -794525.4, -51647.32, 0.0, 9.999883, 9.999028 
1.335046e+3, 2.3419619e+2, -763923.3, -802991.1, -60966.99, 0.004889762, 0.12145663, -719437.3, -74546.35, 0.0, 9.9995775, 9.999062 
1.3350393e+3, 2.4419539e+2, -683051.44, -665985.9, -56525.203, -0.016706897, 0.117554866, -617353.0, -70453.39, 0.0, 9.999256, 9.999484 
1.3350329e+3, 2.5419518e+2, -628741.44, -580016.44, -39841.523, -0.014977927, 0.13778904, -557679.06, -108776.79, 0.0, 9.998918, 9.999564 
1.3350265e+3, 2.6419502e+2, -603740.0, -509130.34, -40207.477, -0.0077543473, 0.16661078, -494351.47, -143447.11, 0.0, 9.998382, 9.999636 
1.33502e+3, 2.74195e+2, -621640.8, -461367.06, -55075.77, 0.0070151994, 0.19102447, -444265.78, -191359.47, 0.0, 9.9975605, 9.999686 
1.335014e+3, 2.8419483e+2, -574854.0, -343294.94, -26671.66, 0.0010152799, 0.18917108, -340262.53, -185353.48, 0.0, 9.997016, 10.000086 
1.335008e+3, 2.941947e+2, -496578.25, -246623.8, -21974.256, -0.033452876, 0.15910934, -244706.67, -187795.48, 0.0, 9.996845, 10.000158 
1.3350022e+3, 3.0419585e+2, -425244.9, -70275.76, -29909.016, -0.045053635, 0.20942624, -67773.32, -67773.32, 0.0, 9.9965, 10.001201 
1.3349968e+3, 3.1419688e+2, -494571.6, -74543.164, 4419.426, 0.0071570696, 0.1837068, -74496.67, -74496.67, 0.0, 9.995895, 10.001464 
1.3451168e+3, 1.24218315e+2, -1187443.4, -1710428.6, -108048.33, -0.12553316, 0.2098819, -1165999.9, 556677.0, 0.006895853, 10.004743, 9.99774 
1.3451141e+3, 1.3421506e+2, -1203597.3, -1712821.8, 95184.31, 0.044586517, 0.15267925, -1186387.0, 438322.63, 0.0039373813, 10.004117, 9.997363 
1.3451079e+3, 1.4421326e+2, -1097939.6, -1487694.0, 3171.0112, -0.07028484, 0.18203111, -1097913.8, 428812.6, 0.0015916324, 10.003636, 9.998459 
1.3451011e+3, 1.5421121e+2, -1031207.0, -1395774.3, -25866.205, -0.053852092, 0.12422026, -1029380.9, 399362.06, 0.0003501717, 10.00338, 9.99854 
1.3450946e+3, 1.6420947e+2, -1021668.75, -1366830.5, -16226.544, -0.020236617, 0.10825823, -1020907.6, 309851.28, 0.000020254476, 10.002883, 9.998306 
1.3450886e+3, 1.7420822e+2, -1039775.75, -1322522.8, -3745.5442, 0.03358984, 0.14943352, -1039726.2, 193046.89, 0.0000000014653116, 10.002076, 9.998325 
1.3450819e+3, 1.8420683e+2, -972128.1, -1178750.3, -22398.371, 0.040965784, 0.15311871, -969727.94, 165058.83, 0.0, 10.001607, 9.998867 
1.345074e+3, 1.9420521e+2, -871879.3, -1069511.1, -31366.432, -0.015235527, 0.09468282, -867020.56, 169779.47, 0.0, 10.001579, 9.998957 
1.3450667e+3, 2.0420408e+2, -816645.94, -981804.9, -46245.523, -0.030491916, 0.08317116, -804578.6, 134231.42, 0.0, 10.00124, 9.99905 
1.3450599e+3, 2.1420363e+2, -825731.0, -929602.2, -60436.215, 0.010372171, 0.12647513, -797980.7, 42834.773, 0.0, 10.00048, 9.999103 
1.3450527e+3, 2.2420286e+2, -816553.3, -883590.4, -48253.453, 0.022577409, 0.14365831, -791319.06, -48494.875, 0.0, 9.999909, 9.99902 
1.3450456e+3, 2.3420164e+2, -760253.5, -800704.4, -34534.824, -0.0047837785, 0.11551438, -740457.4, -95620.19, 0.0, 9.999603, 9.999063 
1.3450386e+3, 2.4420093e+2, -692975.4, -657829.5, -30287.756, -0.014378668, 0.11452736, -640385.94, -93541.0, 0.0, 9.999136, 9.999597 
1.3450317e+3, 2.542009e+2, -689216.2, -595272.9, -37664.813, 0.00082558586, 0.14170289, -582036.8, -133191.42, 0.0, 9.998445, 9.999685 
1.3450249e+3, 2.6420078e+2, -665626.25, -549669.94, -39813.27, 0.010856495, 0.16905527, -537316.25, -186468.89, 0.0, 9.998006, 9.999537 
1.3450179e+3, 2.742005e+2, -578188.5, -452762.63, -36096.93, 0.013561735, 0.18274166, -443116.03, -190264.1, 0.0, 9.997916, 9.999573 
1.3450113e+3, 2.842003e+2, -497725.72, -308984.9, 1863.4731, -0.0008377144, 0.18623833, -308966.5, -154111.52, 0.0, 9.997561, 10.000057 
1.3450049e+3, 2.942004e+2, -496497.16, -247987.23, -2849.968, -0.0382738, 0.1769713, -247954.55, -191099.56, 0.0, 9.996855, 10.000143 
1.3449986e+3, 3.042012e+2, -451222.97, -81279.305, -20025.215, -0.037277, 0.19014364, -80198.484, -80198.484, 0.0, 9.996318, 10.001213 
1.344993e+3, 3.142025e+2, -488408.9, -79934.43, 6387.8315, 0.031329416, 0.19182901, -79834.56, -79834.56, 0.0, 9.9959755, 10.001389 
1.3551222e+3, 1.2422407e+2, -1165052.8, -1661750.0, -122956.516, -0.06481307, 0.16319996, -1136281.6, 586338.3, 0.0072514648, 10.004734, 9.998082 
1.3551179e+3, 1.3422139e+2, -1179932.1, -1663484.5, 71235.59, 0.015563287, 0.1321974, -1169656.4, 454989.4, 0.0041506467, 10.004118, 9.997701 
1.355111e+3, 1.442198e+2, -1117474.6, -1529370.3, -8640.846, -0.13037843, 0.17603062, -1117293.4, 409367.13, 0.0016872506, 10.00364, 9.998172 
1.3551047e+3, 1.5421751e+2, -1056367.5, -1447912.1, -35625.484, -0.028109433, 0.12844865, -1053152.4, 375528.9, 0.0003769789, 10.003378, 9.998183 
1.3550979e+3, 1.6421556e+2, -1006542.3, -1335083.6, -46405.535, 0.01963564, 0.10075878, -1000113.44, 330585.97, 0.000023370363, 10.002881, 9.998526 
1.3550903e+3, 1.7421418e+2, -1019016.4, -1281455.3, -34449.645, -0.006750651, 0.101935394, -1014569.6, 218143.14, 0.0000000068048798, 10.002085, 9.998605 
1.355083e+3, 1.842129e+2, -981315.4, -1199453.8, -26882.768, -0.0077308053, 0.10731806, -978051.3, 156673.64, 0.0, 10.001613, 9.998722 
1.3550761e+3, 1.9421166e+2, -884399.06, -1095720.3, -32735.533, 0.027289486, 0.105398506, -879444.2, 157291.58, 0.0, 10.001578, 9.998777 
1.3550685e+3, 2.0421043e+2, -840527.8, -1031059.25, -74066.36, 0.028490774, 0.109913245, -815122.94, 123624.875, 0.0, 10.001238, 9.998714 
1.35506e+3, 2.1420926e+2, -850111.1, -980298.0, -89365.52, -0.016761905, 0.11498327, -804645.25, 36116.047, 0.0, 10.000479, 9.998755 
1.3550521e+3, 2.2420838e+2, -795744.25, -840029.4, -61977.445, -0.030385662, 0.12815207, -752072.7, -9301.792, 0.0, 9.9999075, 9.999321 
1.3550451e+3, 2.3420797e+2, -735869.75, -749682.8, -46019.53, -0.00092992856, 0.14341076, -696241.4, -51466.32, 0.0, 9.9996, 9.999415 
1.355038e+3, 2.4420756e+2, -702150.44, -676452.7, -55670.754, 0.017040126, 0.16040783, -632167.3, -85387.85, 0.0, 9.999133, 9.999471 
1.3550304e+3, 2.542072e+2, -701306.25, -619595.1, -62696.957, 0.019173842, 0.16950126, -585617.0, -136832.83, 0.0, 9.998441, 9.999521 
1.3550228e+3, 2.642068e+2, -658759.4, -534687.75, -44227.734, 0.010657124, 0.17173956, -520536.06, -169747.05, 0.0, 9.998001, 9.999643 
1.3550155e+3, 2.7420637e+2, -569647.44, -434528.28, -37740.004, -0.013020665, 0.15744406, -424701.78, -171907.88, 0.0, 9.997912, 9.9997 
1.3550085e+3, 2.8420633e+2, -504896.9, -323925.47, -22304.887, -0.027536714, 0.17346779, -321216.9, -166421.81, 0.0, 9.9975605, 9.999956 
1.3550018e+3, 2.9420683e+2, -506926.34, -267407.72, -27071.684, -0.029344602, 0.22113274, -264386.06, -207594.6, 0.0, 9.996844, 10.000016 
1.3549952e+3, 3.042071e+2, -459634.72, -96816.28, -32215.953, -0.008293197, 0.19465208, -93977.92, -93977.92, 0.0, 9.996308, 10.001112 
1.354989e+3, 3.1420812e+2, -493655.78, -87959.12, -1873.5203, 0.0379156, 0.18009238, -87950.46, -87950.46, 0.0, 9.995963, 10.00134 
1.3651271e+3, 1.24230854e+2, -1142833.0, -1650527.9, -80823.45, -0.06063896, 0.14842631, -1130276.8, 592275.7, 0.0076066335, 10.004884, 9.998088 
1.365122e+3, 1.3422813e+2, -1169056.8, -1661897.1, 74719.12, 0.016250093, 0.11438396, -1157977.6, 466601.16, 0.004363533, 10.004211, 9.997666 
1.3651145e+3, 1.4422657e+2, -1122906.1, -1532593.4, 339.88983, -0.13615279, 0.16441736, -1122905.9, 403687.56, 0.0017823308, 10.003607, 9.998165 
1.3651082e+3, 1.5422444e+2, -1090432.0, -1465851.3, -798.17236, -0.015516451, 0.1346662, -1090430.3, 338182.9, 0.0004035849, 10.003151, 9.99817 
1.3651009e+3, 1.6422248e+2, -1016616.4, -1348308.8, -10047.274, 0.028268596, 0.10934088, -1016312.3, 314319.38, 0.000026350568, 10.002848, 9.99845 
1.3650925e+3, 1.7422085e+2, -930166.9, -1247804.3, -25918.64, -0.027681423, 0.09290138, -928065.9, 304581.28, 0.000000016360648, 10.002734, 9.998523 
1.3650846e+3, 1.8421946e+2, -883692.8, -1154601.6, -27844.023, -0.034717105, 0.09578021, -880860.6, 253799.3, 0.0, 10.002293, 9.998703 
1.3650776e+3, 1.9421838e+2, -907942.75, -1108818.1, -22332.459, 0.02204949, 0.110488646, -905489.9, 131179.61, 0.0, 10.001425, 9.998762 
1.3650697e+3, 2.0421715e+2, -905074.94, -1072512.6, -49155.523, 0.033959538, 0.117970206, -891710.75, 46971.094, 0.0, 10.00084, 9.99862 
1.3650605e+3, 2.1421571e+2, -833830.06, -983148.2, -47289.516, -0.015072455, 0.10820694, -820113.4, 20584.432, 0.0, 10.000639, 9.998657 
1.3650523e+3, 2.2421473e+2, -749682.1, -818292.1, -20911.027, -0.024988335, 0.11593741, -743811.2, -1102.8496, 0.0, 10.000229, 9.999313 
1.3650449e+3, 2.3421438e+2, -746846.94, -755462.06, -32465.174, 0.017915234, 0.13806184, -718404.8, -73693.23, 0.0, 9.999529, 9.99941 
1.3650373e+3, 2.44214e+2, -717728.0, -689216.2, -50947.145, 0.037264228, 0.15957832, -650568.0, -103852.19, 0.0, 9.99905, 9.999421 
1.365029e+3, 2.5421357e+2, -641269.75, -595753.56, -51377.8, 0.02439904, 0.1685199, -562319.06, -113597.64, 0.0, 9.998878, 9.999473 
1.3650212e+3, 2.6421311e+2, -577862.6, -486372.16, -26230.967, 0.0069498224, 0.16346508, -479385.16, -128658.34, 0.0, 9.998521, 9.9997225 
1.3650134e+3, 2.7421263e+2, -564636.3, -421761.7, -23659.682, -0.01736634, 0.1350047, -417945.63, -165214.17, 0.0, 9.997906, 9.999788 
1.365006e+3, 2.8421268e+2, -541474.2, -346956.44, -16885.428, -0.0266093, 0.1587819, -345501.56, -190770.11, 0.0, 9.9973345, 9.999906 
1.3649988e+3, 2.942134e+2, -515403.44, -277468.0, -19377.748, -0.012043354, 0.23526476, -275900.2, -219174.13, 0.0, 9.996814, 9.99996 
1.3649918e+3, 3.0421326e+2, -461842.13, -111500.25, -12392.868, 0.014898441, 0.17436595, -111062.414, -111062.414, 0.0, 9.996353, 10.000989 
1.3649848e+3, 3.1421438e+2, -492972.9, -84482.78, 14127.059, 0.027390616, 0.1795508, -83994.805, -83994.805, 0.0, 9.995954, 10.001368 
1.3751313e+3, 1.24238655e+2, -1166425.4, -1698426.5, -99209.47, -0.11854024, 0.15804842, -1148526.6, 573948.06, 0.007965984, 10.004878, 9.997761 
1.3751265e+3, 1.342353e+2, -1197391.0, -1719624.6, 48561.137, 0.045155115, 0.10137795, -1192913.9, 431594.4, 0.0045788838, 10.004207, 9.9972725 
1.3751185e+3, 1.4423363e+2, -1103948.5, -1493517.1, -18803.396, -0.09128262, 0.14987028, -1103043.0, 423481.16, 0.0018779079, 10.003607, 9.998435 
1.3751112e+3, 1.5423204e+2, -1067058.4, -1418021.4, -17896.328, -0.018659243, 0.14122911, -1066148.1, 362390.16, 0.00043006244, 10.003153, 9.998498 
1.3751034e+3, 1.6423024e+2, -1042799.9, -1402845.5, -16192.034, 0.001935734, 0.13196345, -1042073.2, 288482.25, 0.000029160963, 10.002848, 9.998077 
1.3750952e+3, 1.7422824e+2, -960922.0, -1311345.4, -30299.473, -0.031249875, 0.12160424, -958321.44, 274254.3, 0.000000027808229, 10.002731, 9.998088 
1.3750869e+3, 1.8422659e+2, -877555.7, -1141263.5, -59561.953, -0.042728007, 0.11711573, -864726.9, 269864.47, 0.0, 10.002289, 9.998797 
1.3750786e+3, 1.9422543e+2, -897707.56, -1088270.1, -55408.67, -0.031222126, 0.10963202, -882768.0, 153832.64, 0.0, 10.001427, 9.998903 
1.37507e+3, 2.0422424e+2, -894979.8, -1052025.9, -59751.95, -0.014647005, 0.1081932, -874830.9, 63780.715, 0.0, 10.000841, 9.998761 
1.3750616e+3, 2.1422304e+2, -824218.4, -962909.8, -54991.832, 0.012133589, 0.10643866, -805060.25, 35564.406, 0.0, 10.000637, 9.998797 
1.3750531e+3, 2.2422192e+2, -772218.2, -864526.6, -46763.113, 0.034606576, 0.10622137, -752668.5, -10032.06, 0.0, 10.000225, 9.998999 
1.3750447e+3, 2.3422092e+2, -771567.25, -806770.56, -58532.664, 0.050113395, 0.099836335, -728047.0, -83400.46, 0.0, 9.999527, 9.999059 
1.3750364e+3, 2.4422026e+2, -717108.4, -687668.3, -58970.5, 0.04522152, 0.11242204, -641608.4, -94954.72, 0.0, 9.999048, 9.9994335 
1.3750279e+3, 2.5422007e+2, -639003.4, -590072.0, -56881.32, 0.01322277, 0.1407212, -552618.0, -103961.07, 0.0, 9.998873, 9.999515 
1.3750196e+3, 2.6421973e+2, -574401.25, -478863.9, -47738.785, -0.0033883422, 0.14544244, -459098.63, -108437.89, 0.0, 9.998517, 9.999776 
1.3750115e+3, 2.7421927e+2, -561323.94, -414286.8, -45098.824, -0.0033403437, 0.113525376, -401556.44, -148891.55, 0.0, 9.997902, 9.999843 
1.3750036e+3, 2.8421938e+2, -542931.75, -348770.75, -35716.797, -0.0023152167, 0.14026724, -342408.9, -187744.58, 0.0, 9.997329, 9.999896 
1.3749959e+3, 2.9422018e+2, -518064.2, -279684.06, -36416.727, 0.00775226, 0.2241109, -274244.88, -217586.28, 0.0, 9.996799, 9.999952 
1.3749883e+3, 3.0421963e+2, -473073.5, -134014.67, -26100.566, 0.02576319, 0.13349868, -132017.23, -132017.23, 0.0, 9.996347, 10.000837 
1.3749805e+3, 3.1422096e+2, -487055.97, -70850.65, 2335.855, -0.007466094, 0.17564493, -70837.54, -70837.54, 0.0, 9.995947, 10.001466 
1.385136e+3, 1.242466e+2, -1178885.6, -1691956.1, -96759.47, -0.14085807, 0.16724211, -1161244.4, 561152.5, 0.008334308, 10.004743, 9.99787 
1.3851309e+3, 1.3424309e+2, -1195985.9, -1714194.3, 71997.53, 0.05138313, 0.09318367, -1186168.8, 438262.06, 0.0047998205, 10.004198, 9.997313 
1.3851224e+3, 1.4424138e+2, -1100395.0, -1503424.8, 15455.195, -0.080233715, 0.13912363, -1099803.3, 426644.03, 0.0019753063, 10.003683, 9.99833 
1.3851142e+3, 1.542398e+2, -1064921.8, -1430726.6, -17357.266, -0.0291325, 0.14331926, -1064100.0, 364362.13, 0.00045665295, 10.003227, 9.998375 
1.3851061e+3, 1.64238e+2, -1053020.6, -1403089.4, -12756.963, -0.008680227, 0.14042367, -1052556.4, 277922.9, 0.00003186285, 10.002757, 9.998119 
1.385098e+3, 1.7423604e+2, -1020743.2, -1333929.6, 8708.498, -0.012507494, 0.12748885, -1020501.25, 211997.56, 0.000000039188958, 10.002295, 9.998143 
1.3850892e+3, 1.8423432e+2, -939855.0, -1177584.6, -16232.187, -0.017950168, 0.113647126, -938751.8, 195763.17, 0.0, 10.001889, 9.998739 
1.3850799e+3, 1.9423291e+2, -883288.4, -1088690.0, -29037.064, -0.032907624, 0.0891971, -879262.4, 157264.23, 0.0, 10.001558, 9.998836 
1.385071e+3, 2.0423168e+2, -842810.9, -1020246.8, -34687.93, -0.024215426, 0.08535034, -836270.6, 102267.195, 0.0, 10.001172, 9.998818 
1.3850622e+3, 2.142307e+2, -808500.6, -948132.9, -35603.02, 0.018502679, 0.09928144, -799946.7, 40601.625, 0.0, 10.000713, 9.998862 
1.3850534e+3, 2.242296e+2, -768156.4, -868248.8, -28358.527, 0.04612179, 0.10135465, -760680.2, -18120.566, 0.0, 10.000278, 9.998947 
1.3850446e+3, 2.3422839e+2, -724444.25, -790148.5, -20629.662, 0.05157604, 0.07895163, -718504.0, -73932.36, 0.0, 9.99988, 9.9990015 
1.3850357e+3, 2.4422757e+2, -669746.1, -679251.6, -6756.6904, 0.04120369, 0.08459694, -666238.0, -119657.484, 0.0, 9.999438, 9.999301 
1.3850267e+3, 2.5422728e+2, -639543.94, -605963.3, -18424.264, 0.009855983, 0.11832588, -597826.4, -149241.33, 0.0, 9.998939, 9.9993725 
1.385018e+3, 2.64227e+2, -589706.9, -484650.0, -26675.809, -0.0015589987, 0.13238823, -478264.63, -127675.71, 0.0, 9.998407, 9.999788 
1.3850094e+3, 2.742267e+2, -568688.8, -414836.6, -28810.316, 0.010804273, 0.11481015, -409618.56, -157027.08, 0.0, 9.997839, 9.999868 
1.385001e+3, 2.8422683e+2, -545176.0, -343614.44, -15243.329, 0.013233335, 0.14095037, -342468.16, -187877.64, 0.0, 9.99729, 9.9999485 
1.3849926e+3, 2.9422745e+2, -517965.16, -272642.28, -13166.531, 0.010660325, 0.20042661, -271937.66, -215351.47, 0.0, 9.996774, 10.000011 
1.3849846e+3, 3.042267e+2, -479584.1, -148498.13, 8239.349, 0.02597958, 0.08892387, -148293.22, -148293.22, 0.0, 9.996355, 10.000733 
1.3849765e+3, 3.1422848e+2, -457871.34, -30203.203, 39745.39, -0.016097443, 0.18644804, -26540.824, -26540.824, 0.0, 9.996036, 10.0017 
1.3951407e+3, 1.24254756e+2, -1143320.6, -1616955.3, -108985.66, -0.13284841, 0.1743533, -1119445.9, 602872.2, 0.008715473, 10.004737, 9.998394 
1.395135e+3, 1.3425158e+2, -1165201.6, -1648633.3, 51089.56, 0.032481648, 0.08861905, -1159861.4, 464484.88, 0.0050291037, 10.004193, 9.997765 
1.3951257e+3, 1.4424984e+2, -1133907.3, -1573419.5, -3494.1333, -0.10740801, 0.12976798, -1133879.5, 392482.88, 0.0020760025, 10.003683, 9.997849 
1.3951173e+3, 1.5424779e+2, -1104105.3, -1512802.6, -34789.203, -0.047585815, 0.14207774, -1101165.1, 327218.84, 0.00048381835, 10.003229, 9.997811 
1.3951088e+3, 1.6424587e+2, -1021420.3, -1338834.5, -31399.426, -0.005981426, 0.13705741, -1018344.0, 312058.63, 0.000034571214, 10.002762, 9.998559 
1.3951007e+3, 1.7424431e+2, -983231.5, -1256966.9, -9140.593, 0.025395518, 0.11095205, -982926.6, 249489.3, 0.00000005013657, 10.002296, 9.998672 
1.3950917e+3, 1.8424265e+2, -954689.9, -1208307.3, -30339.254, 0.034883406, 0.08589979, -951111.0, 183319.55, 0.0, 10.001887, 9.998529 
1.3950819e+3, 1.9424085e+2, -902186.8, -1128515.4, -41774.36, 0.013574554, 0.05005772, -894722.56, 141724.52, 0.0, 10.001559, 9.998563 
1.3950723e+3, 2.042395e+2, -845009.5, -1024770.1, -52492.617, 0.0011292207, 0.04911739, -830803.6, 107656.555, 0.0, 10.001171, 9.998789 
1.3950628e+3, 2.1423873e+2, -809257.9, -949819.1, -52945.137, 0.0029614116, 0.08693807, -791546.75, 48921.754, 0.0, 10.000713, 9.998852 
1.3950534e+3, 2.2423786e+2, -754243.1, -839398.0, -44404.094, 0.009109398, 0.10131983, -735301.75, 7175.6523, 0.0, 10.000277, 9.999146 
1.395044e+3, 2.3423684e+2, -709458.1, -758719.5, -35542.793, 0.020132298, 0.076307856, -690845.75, -46358.95, 0.0, 9.999877, 9.999219 
1.3950348e+3, 2.4423596e+2, -689244.2, -719461.75, -25681.018, 0.0221187, 0.07653872, -674557.2, -128060.9, 0.0, 9.999435, 9.999028 
1.3950257e+3, 2.5423527e+2, -661888.44, -652032.7, -36479.6, 0.011667828, 0.100001104, -620149.6, -171643.8, 0.0, 9.998936, 9.999058 
1.3950165e+3, 2.6423487e+2, -592766.5, -490902.28, -47117.99, 0.009909441, 0.122942664, -472450.06, -121938.664, 0.0, 9.998405, 9.999747 
1.3950074e+3, 2.7423492e+2, -570772.6, -417450.6, -48144.004, 0.019870322, 0.14268748, -403586.72, -151075.86, 0.0, 9.997831, 9.999855 
1.3949983e+3, 2.842351e+2, -538118.94, -329222.2, -33882.395, 0.014822562, 0.16449465, -323864.0, -169354.33, 0.0, 9.997289, 10.00005 
1.3949892e+3, 2.9423514e+2, -511633.28, -259510.06, -30283.502, -0.00852151, 0.16034408, -255923.61, -199414.11, 0.0, 9.996772, 10.000104 
1.3949808e+3, 3.042343e+2, -482123.66, -153942.97, -3329.7556, 0.010169513, 0.037726343, -153909.19, -153909.19, 0.0, 9.996354, 10.000696 
1.3949725e+3, 3.1423676e+2, -434598.03, 22964.928, 29742.451, -0.008550183, 0.20373219, 24890.143, 24890.143, 0.0, 9.996015, 10.002075 
1.4051457e+3, 1.2426342e+2, -1177449.4, -1632236.0, -57165.51, -0.10247327, 0.1565067, -1170374.0, 551858.1, 0.00911393, 10.004497, 9.9984045 
1.4051391e+3, 1.3426027e+2, -1155025.3, -1653652.1, 54719.0, 0.03186586, 0.08232665, -1149091.1, 475169.22, 0.0052702697, 10.004308, 9.997675 
1.4051294e+3, 1.4425847e+2, -1099964.0, -1566751.6, -10644.925, -0.11366024, 0.12500077, -1099721.4, 426555.88, 0.0021821158, 10.003961, 9.997761 
1.4051208e+3, 1.5425615e+2, -1079526.4, -1510972.4, -8635.846, -0.038667418, 0.12144165, -1079353.6, 348947.47, 0.00051218417, 10.003443, 9.99772 
1.4051118e+3, 1.6425414e+2, -1001551.3, -1325067.1, -1493.3358, 0.0018423743, 0.11155606, -1001544.44, 328776.0, 0.000037386584, 10.002883, 9.998593 
1.4051026e+3, 1.7425272e+2, -982770.0, -1251405.3, -15865.355, 0.014032063, 0.095209286, -981836.25, 250496.03, 0.00000006103049, 10.002279, 9.998717 
1.4050934e+3, 1.8425116e+2, -960936.0, -1212066.0, -39104.59, 0.022477087, 0.07826657, -954987.7, 179358.3, 0.0, 10.001849, 9.998522 
1.4050837e+3, 1.9424944e+2, -888333.4, -1123004.5, -31926.738, 0.019864557, 0.04871348, -884067.3, 152295.05, 0.0, 10.001661, 9.99855 
1.4050737e+3, 2.0424806e+2, -829831.94, -1017761.8, -41153.043, 0.014084191, 0.04696343, -821215.25, 117160.51, 0.0, 10.001277, 9.998785 
1.4050634e+3, 2.142472e+2, -820257.94, -954894.06, -42383.56, 0.0066389297, 0.0739334, -808026.7, 32358.4, 0.0, 10.000639, 9.998851 
1.4050536e+3, 2.2424631e+2, -769601.5, -846661.25, -32014.389, 0.0075779087, 0.08867076, -758036.75, -15642.713, 0.0, 10.000173, 9.9991455 
1.4050439e+3, 2.3424543e+2, -701698.56, -755617.25, -39816.824, 0.017402891, 0.07944041, -680572.7, -36170.543, 0.0, 9.999933, 9.999213 
1.4050344e+3, 2.4424464e+2, -669126.9, -708322.9, -35211.656, 0.019227095, 0.08714192, -648426.7, -102015.82, 0.0, 9.999568, 9.999041 
1.4050247e+3, 2.5424388e+2, -645772.7, -642924.56, -23561.744, 0.009811907, 0.10438801, -620743.9, -172323.19, 0.0, 9.99904, 9.99907 
1.4050148e+3, 2.6424336e+2, -578132.3, -490146.2, -22068.463, 0.009283885, 0.119410366, -484921.3, -134494.02, 0.0, 9.998534, 9.999689 
1.4050053e+3, 2.742433e+2, -542041.56, -410023.78, -28695.28, 0.020152422, 0.13122232, -404056.34, -151627.97, 0.0, 9.998058, 9.999794 
1.4049956e+3, 2.8424343e+2, -503511.3, -314650.28, -20381.443, 0.010251683, 0.15621023, -312475.8, -158048.42, 0.0, 9.997537, 10.00003 
1.4049858e+3, 2.9424366e+2, -485774.53, -249524.16, -26524.672, -0.023619344, 0.16762115, -246582.77, -190157.0, 0.0, 9.996959, 10.000082 
1.4049771e+3, 3.042428e+2, -500162.22, -186425.55, -7752.844, 0.006227168, 0.059824135, -186234.1, -186234.1, 0.0, 9.996333, 10.0004835 
1.4049685e+3, 3.142448e+2, -478073.63, 19028.947, 4866.3657, 0.0074784365, 0.19772568, 19076.582, 19076.582, 0.0, 9.995643, 10.002229 
1.4151506e+3, 1.2427259e+2, -1211650.1, -1703084.8, -61781.785, -0.05747503, 0.11067662, -1204002.1, 518136.78, 0.009536317, 10.004496, 9.997915 
1.4151436e+3, 1.3426922e+2, -1199047.5, -1744112.6, 47129.38, 0.047869302, 0.07650821, -1195002.5, 429169.63, 0.005528456, 10.004304, 9.997056 
1.4151335e+3, 1.442673e+2, -1078799.5, -1523714.6, -30688.61, -0.10186213, 0.12779126, -1076692.6, 449498.06, 0.0022966405, 10.003963, 9.998056 
1.4151245e+3, 1.5426494e+2, -1054027.5, -1458000.0, -28259.525, -0.007613813, 0.08231312, -1052060.3, 376152.63, 0.0005425403, 10.003441, 9.998085 
1.4151147e+3, 1.6426289e+2, -1027595.7, -1379295.9, -25527.566, 0.0095071765, 0.06476148, -1025752.5, 304479.84, 0.000040406845, 10.002882, 9.998222 
1.4151044e+3, 1.7426133e+2, -1012195.7, -1314056.3, -38835.766, -0.0460838, 0.07987762, -1007279.4, 224968.06, 0.00000007226826, 10.002284, 9.998285 
1.4150944e+3, 1.842599e+2, -947586.4, -1185300.4, -48178.76, -0.05573908, 0.090036504, -938192.9, 196068.05, 0.0, 10.001852, 9.998705 
1.4150849e+3, 1.9425863e+2, -872221.3, -1089626.4, -39043.78, -0.014183315, 0.084348306, -865422.06, 170850.17, 0.0, 10.001659, 9.998781 
1.4150749e+3, 2.0425735e+2, -828817.94, -1015073.44, -65058.94, 0.013314209, 0.07788449, -808343.56, 129940.93, 0.0, 10.001273, 9.998806 
1.4150643e+3, 2.1425605e+2, -819952.56, -954391.3, -66567.57, 0.026713366, 0.060493898, -792569.2, 47728.715, 0.0, 10.000638, 9.998856 
1.415054e+3, 2.2425497e+2, -784112.1, -876562.1, -42697.5, 0.036940172, 0.06376369, -767409.94, -25100.75, 0.0, 10.00017, 9.998942 
1.415044e+3, 2.3425421e+2, -716982.7, -787794.25, -48292.125, 0.041819666, 0.087806515, -692507.75, -48190.375, 0.0, 9.999933, 9.998993 
1.415034e+3, 2.4425362e+2, -648706.4, -666378.56, -54119.64, 0.03096302, 0.11510129, -602706.25, -56382.043, 0.0, 9.999568, 9.999329 
1.4150235e+3, 2.542532e+2, -623233.9, -595218.1, -42435.023, 0.0011839644, 0.13379356, -564538.75, -116209.44, 0.0, 9.999035, 9.999401 
1.4150134e+3, 2.642526e+2, -584568.06, -503642.28, -39440.063, -0.00732274, 0.12450255, -487600.63, -137264.4, 0.0, 9.998533, 9.999598 
1.4150032e+3, 2.742518e+2, -551277.75, -429153.75, -45072.785, 0.0079921, 0.07797697, -414320.28, -161975.95, 0.0, 9.998056, 9.999665 
1.4149931e+3, 2.8425193e+2, -511774.78, -331720.9, -41172.195, -0.004061107, 0.11370078, -322752.9, -168408.94, 0.0, 9.997535, 9.999913 
1.4149827e+3, 2.9425305e+2, -495643.03, -268101.78, -45520.48, -0.040601783, 0.22768506, -259333.16, -202998.89, 0.0, 9.996949, 9.999959 
1.4149734e+3, 3.042524e+2, -529497.9, -247731.39, -31641.975, 0.007899374, 0.1624326, -244221.77, -244221.77, 0.0, 9.996333, 10.000063 
1.4149643e+3, 3.142525e+2, -488014.78, -662.5872, -21425.52, 0.02550181, 0.15874992, 277.5317, 277.5317, 0.0, 9.995638, 10.002096 
1.4251554e+3, 1.242821e+2, -1153398.5, -1678218.8, -71365.44, -0.050481007, 0.10443939, -1143867.3, 578177.3, 0.009990589, 10.004916, 9.997884 
1.425148e+3, 1.342786e+2, -1211214.6, -1764698.6, 66686.46, 0.058354586, 0.06951205, -1203293.3, 420786.16, 0.0058090654, 10.004285, 9.996923 
1.4251375e+3, 1.4427659e+2, -1110014.5, -1538278.8, -2872.8313, -0.08514063, 0.12003325, -1109995.3, 416103.66, 0.0024226736, 10.003749, 9.998057 
1.425128e+3, 1.5427417e+2, -1061479.4, -1460745.3, -27854.412, -0.0027593856, 0.06810038, -1059545.5, 368576.03, 0.00057589856, 10.003387, 9.998092 
1.4251177e+3, 1.6427213e+2, -1014497.8, -1380575.5, -29771.117, 0.008514951, 0.053377863, -1012092.5, 318048.63, 0.00004378684, 10.003006, 9.998153 
1.4251068e+3, 1.7427063e+2, -971078.7, -1302406.3, -18624.75, -0.044419747, 0.0820446, -970035.0, 262121.14, 0.00000008454083, 10.0026045, 9.99821 
1.4250962e+3, 1.8426919e+2, -919447.2, -1165057.6, -18143.045, -0.055037886, 0.0936439, -918114.25, 216055.66, 0.0, 10.002019, 9.998762 
1.4250863e+3, 1.9426787e+2, -932778.8, -1110555.1, -21618.543, -0.019590734, 0.07481004, -930187.6, 105993.99, 0.0, 10.001211, 9.998852 
1.425076e+3, 2.0426665e+2, -898998.06, -1044650.75, -45480.094, 0.0085661905, 0.06881379, -885963.4, 52229.863, 0.0, 10.000775, 9.998842 
1.4250651e+3, 2.1426557e+2, -789702.75, -936297.4, -45406.457, 0.029511489, 0.070372865, -776778.0, 63426.598, 0.0, 10.000831, 9.998886 
1.4250544e+3, 2.2426449e+2, -726219.44, -852449.3, -19310.217, 0.03944413, 0.075239986, -723331.5, 18884.377, 0.0, 10.000584, 9.998909 
1.425044e+3, 2.3426348e+2, -719316.44, -792943.75, -13353.298, 0.03328169, 0.07661139, -716969.5, -72742.71, 0.0, 9.999935, 9.998957 
1.4250334e+3, 2.4426284e+2, -672623.2, -662054.06, -20164.566, 0.02408468, 0.097321436, -646493.06, -100259.44, 0.0, 9.999335, 9.99947 
1.4250226e+3, 2.5426278e+2, -645853.75, -588174.44, -22577.936, 0.012029054, 0.13240196, -580387.75, -132152.53, 0.0, 9.998803, 9.99956 
1.4250119e+3, 2.6426232e+2, -615851.6, -521155.38, -19654.863, 0.005029399, 0.13194828, -517237.94, -166997.44, 0.0, 9.998329, 9.999576 
1.4250012e+3, 2.7426144e+2, -569791.8, -442596.22, -19421.422, 0.000054544267, 0.08099013, -439696.88, -187447.13, 0.0, 9.997947, 9.999626 
1.4249904e+3, 2.842614e+2, -510501.6, -335121.06, -10602.351, -0.014813787, 0.10555577, -334482.44, -180231.48, 0.0, 9.9975605, 9.999878 
1.4249799e+3, 2.9426238e+2, -467303.75, -258736.9, -11880.945, -0.029547192, 0.20537347, -258062.3, -201819.52, 0.0, 9.997164, 9.999919 
1.42497e+3, 3.0426192e+2, -513469.44, -262649.13, 3269.5757, 0.021837292, 0.17785844, -262606.5, -262606.5, 0.0, 9.996541, 9.99986 
1.4249597e+3, 3.1426153e+2, -488813.72, -2444.4182, 25784.318, 0.0048116213, 0.13967654, -1081.312, -1081.312, 0.0, 9.995637, 10.002084 
1.43516e+3, 1.24291986e+2, -1126141.5, -1619997.3, -91417.26, -0.08053495, 0.13328809, -1109762.5, 612185.9, 0.010484372, 10.0049095, 9.998293 
1.4351523e+3, 1.3428845e+2, -1188845.5, -1716124.5, 42438.25, 0.058100443, 0.06186015, -1185451.6, 438529.84, 0.00611621, 10.004278, 9.997259 
1.4351414e+3, 1.442864e+2, -1131043.6, -1582475.8, -19118.594, -0.07067858, 0.10216164, -1130235.4, 395766.0, 0.0025624905, 10.00375, 9.997755 
1.4351311e+3, 1.5428391e+2, -1085477.4, -1511255.9, -41431.684, -0.024631217, 0.07720884, -1081483.3, 346543.47, 0.0006133788, 10.003389, 9.997745 
1.4351206e+3, 1.642819e+2, -999133.8, -1349200.6, -45935.406, -0.0024384037, 0.07719543, -993206.56, 336839.75, 0.000047750204, 10.003007, 9.998368 
1.43511e+3, 1.7428064e+2, -953502.6, -1265246.6, -33928.645, 0.013966238, 0.10140951, -949852.75, 282205.47, 0.00000010052836, 10.0026, 9.998467 
1.4350991e+3, 1.8427907e+2, -924814.3, -1175625.5, -48705.902, 0.018100461, 0.08962184, -915688.0, 218384.6, 0.0, 10.002014, 9.9986925 
1.4350878e+3, 1.9427715e+2, -938548.3, -1124082.4, -52104.82, 0.00015887448, 0.020611491, -924916.9, 111173.33, 0.0, 10.001216, 9.998758 
1.4350766e+3, 2.0427595e+2, -895344.44, -1037890.06, -46212.438, -0.0037132083, 0.020791642, -881673.75, 56427.992, 0.0, 10.000777, 9.998888 
1.4350659e+3, 2.1427573e+2, -785728.06, -928439.1, -42866.39, 0.014149177, 0.103029735, -773842.2, 66263.01, 0.0, 10.000831, 9.998941 
1.4350548e+3, 2.2427489e+2, -717635.3, -834421.06, -42290.668, 0.014467713, 0.12147343, -703929.44, 38184.66, 0.0, 10.000581, 9.999035 
1.4350435e+3, 2.3427324e+2, -710632.5, -774547.0, -37335.523, -0.00990467, 0.04709109, -693445.0, -49314.906, 0.0, 9.999931, 9.999085 
1.4350325e+3, 2.4427237e+2, -673353.3, -663094.8, -40512.508, -0.0049511413, 0.036049362, -627388.1, -81249.08, 0.0, 9.999331, 9.999466 
1.4350216e+3, 2.5427258e+2, -647302.5, -590961.9, -41701.223, 0.040082566, 0.09933502, -568807.7, -120669.1, 0.0, 9.9988, 9.999543 
1.4350106e+3, 2.6427254e+2, -611644.94, -512742.97, -33705.875, 0.044740587, 0.14031094, -502348.44, -152208.3, 0.0, 9.998328, 9.999635 
1.434999e+3, 2.7427226e+2, -565818.7, -433704.22, -31666.629, -0.006716302, 0.1435768, -426506.2, -174362.17, 0.0, 9.997942, 9.999691 
1.434988e+3, 2.8427196e+2, -509547.63, -333201.56, -23950.652, -0.026346192, 0.13497926, -330006.56, -175858.69, 0.0, 9.997559, 9.999892 
1.4349774e+3, 2.9427156e+2, -468436.63, -260245.45, -24592.096, 0.0043195435, 0.09640675, -257380.0, -201228.19, 0.0, 9.997158, 9.999912 
1.4349668e+3, 3.0427146e+2, -509752.16, -254547.38, -29051.535, 0.04409727, 0.1024251, -251282.03, -251282.03, 0.0, 9.996538, 9.999918 
1.4349547e+3, 3.14272e+2, -481432.56, 13916.013, -8347.722, -0.06067681, 0.1510995, 14056.65, 14056.65, 0.0, 9.995632, 10.002199 
1.445165e+3, 1.2430184e+2, -1146009.6, -1604129.6, -80659.664, -0.06555592, 0.12930243, -1132223.0, 589629.9, 0.0110246, 10.004667, 9.998518 
1.4451565e+3, 1.3429856e+2, -1179128.3, -1692554.4, 35089.223, 0.057857104, 0.066145286, -1176741.3, 447141.5, 0.006453484, 10.004267, 9.997425 
1.4451453e+3, 1.4429662e+2, -1115263.8, -1572973.1, -17019.998, -0.06999729, 0.10759857, -1114631.8, 411269.66, 0.0027179087, 10.003853, 9.997769 
1.4451346e+3, 1.5429415e+2, -1078532.0, -1507309.0, -14529.651, -0.033752225, 0.08598517, -1078040.3, 349886.34, 0.0006559602, 10.003437, 9.997747 
1.4451234e+3, 1.642922e+2, -1011705.2, -1345530.4, -15420.236, -0.009091232, 0.086284876, -1010994.4, 318951.53, 0.000052490832, 10.002883, 9.998451 
1.4451125e+3, 1.7429096e+2, -1010431.1, -1282952.4, -17982.908, 0.027317038, 0.10538725, -1009249.6, 222707.81, 0.00000012546444, 10.00217, 9.998552 
1.4451012e+3, 1.8428946e+2, -965721.5, -1190458.3, -31255.822, 0.039123166, 0.09303636, -961455.5, 172515.73, 0.0, 10.001714, 9.998734 
1.4450893e+3, 1.9428764e+2, -879897.8, -1091656.3, -26184.135, 0.008545629, 0.031761188, -876708.2, 159279.5, 0.0, 10.001602, 9.998794 
1.4450775e+3, 2.0428646e+2, -820327.5, -993035.06, -8343.735, -0.009011281, 0.026143095, -819925.3, 118073.7, 0.0, 10.001256, 9.998965 
1.4450663e+3, 2.1428607e+2, -813280.2, -932449.44, -3755.0164, -0.0053450954, 0.08484985, -813162.0, 26841.469, 0.0, 10.000604, 9.999022 
1.4450549e+3, 2.2428532e+2, -778347.94, -845341.5, -7422.943, -0.0045306105, 0.10166492, -777535.3, -35524.203, 0.0, 10.000087, 9.999197 
1.4450434e+3, 2.342841e+2, -726369.94, -763454.9, -1194.2941, -0.01070905, 0.054212995, -726331.5, -82308.625, 0.0, 9.999744, 9.999251 
1.4450318e+3, 2.4428332e+2, -680203.4, -671321.9, -5122.1016, -0.0020594238, 0.04544859, -668983.5, -122952.44, 0.0, 9.999306, 9.999422 
1.4450203e+3, 2.5428316e+2, -659617.1, -603955.8, -11443.79, 0.02733327, 0.07816303, -601694.8, -153660.58, 0.0, 9.998745, 9.999481 
1.4450088e+3, 2.6428312e+2, -623108.25, -510859.1, -1324.8794, 0.03375624, 0.11712585, -510843.44, -160807.3, 0.0, 9.998218, 9.9997015 
1.444997e+3, 2.7428326e+2, -591233.75, -436690.63, 707.9806, 0.007396132, 0.1550898, -436687.38, -184651.4, 0.0, 9.997728, 9.999772 
1.4449854e+3, 2.84283e+2, -542701.44, -339748.7, 14769.073, -0.008477233, 0.1462849, -338679.56, -184640.45, 0.0, 9.997292, 9.999975 
1.4449744e+3, 2.9428226e+2, -496922.7, -265737.72, 18679.385, -0.0018846352, 0.06555313, -264238.2, -208191.77, 0.0, 9.996926, 9.999986 
1.444963e+3, 3.0428267e+2, -524627.4, -246505.3, 5365.2017, 0.03427254, 0.1095251, -246401.84, -246401.84, 0.0, 9.996372, 10.000052 
1.4449504e+3, 3.1428316e+2, -485724.84, 17836.852, 23511.291, -0.047773324, 0.14259118, 18932.21, 18932.21, 0.0, 9.995579, 10.002251 
1.4551702e+3, 1.2431176e+2, -1143407.9, -1599653.3, -95354.0, -0.01568522, 0.09408833, -1124281.0, 597476.0, 0.011615708, 10.004671, 9.9985485 
1.4551608e+3, 1.3430898e+2, -1179908.4, -1694842.1, 20860.596, 0.056754075, 0.08142746, -1179064.6, 444717.84, 0.0068238983, 10.004271, 9.997409 
1.4551489e+3, 1.443073e+2, -1093070.3, -1527370.9, -34149.156, -0.082902715, 0.13693649, -1090401.5, 435396.66, 0.0028905345, 10.003856, 9.998082 
1.4551379e+3, 1.5430498e+2, -1055466.0, -1458281.3, -29994.615, -0.034550704, 0.094896674, -1053244.9, 374575.84, 0.00070428615, 10.003432, 9.998086 
1.4551263e+3, 1.6430303e+2, -1016049.2, -1355208.4, -42624.598, -0.017343769, 0.082184896, -1010774.25, 319065.25, 0.000058062662, 10.002883, 9.998386 
1.4551143e+3, 1.7430164e+2, -1015484.2, -1295837.4, -44661.063, -0.004941998, 0.093468614, -1008541.5, 223312.06, 0.00000016567238, 10.002177, 9.998461 
1.4551026e+3, 1.8430036e+2, -955201.8, -1170010.0, -37931.7, 0.0065417946, 0.10391063, -948700.44, 185164.95, 0.0, 10.0017185, 9.998874 
1.4550908e+3, 1.9429936e+2, -868983.7, -1069383.6, -30210.93, 0.004702819, 0.1061966, -864528.4, 171345.69, 0.0, 10.001602, 9.998947 
1.4550787e+3, 2.0429811e+2, -813831.7, -979074.94, -32507.244, -0.009001214, 0.08268224, -807666.75, 130218.44, 0.0, 10.001252, 9.9990635 
1.4550667e+3, 2.1429656e+2, -806455.5, -918526.6, -28234.662, -0.03186569, 0.01642571, -799744.1, 40155.297, 0.0, 10.000603, 9.999119 
1.4550549e+3, 2.2429581e+2, -765165.06, -817376.4, -21670.703, -0.0217906, 0.017477298, -757342.5, -15435.636, 0.0, 10.000082, 9.999392 
1.4550434e+3, 2.3429608e+2, -712102.94, -733756.8, -13510.774, 0.029011698, 0.09729961, -705616.2, -61710.973, 0.0, 9.9997425, 9.999456 
1.4550313e+3, 2.4429572e+2, -686423.4, -684452.94, -25594.543, 0.03151218, 0.123498805, -659824.7, -113914.91, 0.0, 9.999305, 9.999333 
1.4550184e+3, 2.5429454e+2, -668000.56, -620910.1, -31360.422, -0.028494153, 0.06981667, -605239.9, -157317.77, 0.0, 9.998741, 9.999368 
1.4550063e+3, 2.6429403e+2, -619260.94, -501997.38, -19095.33, -0.030913524, 0.0641857, -498966.22, -149037.88, 0.0, 9.998212, 9.999764 
1.4549951e+3, 2.742944e+2, -586441.25, -425590.1, -16057.881, 0.039050758, 0.11427139, -424002.7, -172076.88, 0.0, 9.997723, 9.999851 
1.4549832e+3, 2.842946e+2, -530447.0, -314218.38, 1685.8231, 0.03652657, 0.13785334, -314205.22, -160280.31, 0.0, 9.997289, 10.000153 
1.4549707e+3, 2.9429463e+2, -485225.7, -241305.86, 7337.465, -0.052000735, 0.11571638, -241085.33, -185159.27, 0.0, 9.996923, 10.000156 
1.454959e+3, 3.0429563e+2, -511524.9, -219469.8, -21738.664, -0.012485263, 0.2029301, -217860.58, -217860.58, 0.0, 9.996371, 10.000238 
1.4549468e+3, 3.1429526e+2, -492951.3, 4758.8936, -7365.2534, 0.037764158, 0.12949911, 4867.863, 4867.863, 0.0, 9.995569, 10.002166 
1.465175e+3, 1.2432331e+2, -1126346.8, -1604100.0, -19492.314, 0.006622002, 0.10456154, -1125552.8, 596091.44, 0.012256221, 10.004848, 9.998433 
1.465165e+3, 1.3432036e+2, -1153237.4, -1697383.8, 86527.39, 0.046300303, 0.08812238, -1139809.6, 483862.2, 0.007227244, 10.004524, 9.997269 
1.4651528e+3, 1.4431857e+2, -1062545.0, -1495759.4, 13682.184, -0.08929801, 0.13491765, -1062113.4, 463574.97, 0.0030805848, 10.003998, 9.998228 
1.4651413e+3, 1.5431651e+2, -1072911.1, -1447816.9, 3396.0476, -0.026025597, 0.10146858, -1072880.4, 354827.44, 0.00075854495, 10.003232, 9.998254 
1.4651291e+3, 1.6431466e+2, -1044345.0, -1374936.8, -9136.171, -0.012576443, 0.09022418, -1044092.75, 285633.0, 0.00006440502, 10.002717, 9.99833 
1.4651164e+3, 1.7431308e+2, -968788.94, -1281109.4, -10845.574, -0.028749773, 0.09232018, -968412.75, 263328.94, 0.00000022299002, 10.002535, 9.998388 
1.465104e+3, 1.8431176e+2, -899903.8, -1140301.8, -7488.3813, -0.023429945, 0.10095574, -899670.8, 234083.42, 0.0, 10.002089, 9.998898 
1.4650922e+3, 1.9431087e+2, -910727.94, -1085962.6, -9720.582, -0.0033766965, 0.112467214, -910190.4, 125571.375, 0.0, 10.001304, 9.998977 
1.4650798e+3, 2.0430975e+2, -876489.5, -988860.4, -13885.981, -0.0040710983, 0.09266904, -874799.0, 62972.37, 0.0, 10.000735, 9.999245 
1.4650671e+3, 2.1430838e+2, -816028.6, -901886.5, -3904.549, -0.027621364, 0.022665566, -815851.44, 23931.994, 0.0, 10.000447, 9.999308 
1.4650548e+3, 2.2430767e+2, -781517.56, -826349.3, -2413.5107, -0.018742468, 0.02062329, -781388.0, -39597.89, 0.0, 9.999975, 9.999381 
1.465043e+3, 2.3430789e+2, -783980.7, -770987.5, -13061.276, 0.030451186, 0.09767247, -762896.3, -119106.71, 0.0, 9.999261, 9.999433 
1.4650305e+3, 2.4430755e+2, -746036.1, -703157.9, -19663.24, 0.029305262, 0.12260509, -695506.1, -149711.98, 0.0, 9.998854, 9.999421 
1.4650172e+3, 2.543065e+2, -646579.5, -599600.44, -10236.547, -0.03750581, 0.069787286, -597466.8, -149661.72, 0.0, 9.998843, 9.999464 
1.4650047e+3, 2.6430604e+2, -573644.56, -480585.72, -2179.9663, -0.04017163, 0.06489855, -480534.7, -130724.08, 0.0, 9.998529, 9.999759 
1.4649928e+3, 2.7430636e+2, -573336.2, -421129.84, -8756.753, 0.038941324, 0.11403056, -420627.7, -168819.23, 0.0, 9.997821, 9.999835 
1.4649805e+3, 2.843066e+2, -553631.7, -323427.2, 2720.714, 0.042427585, 0.13859196, -323395.03, -169587.14, 0.0, 9.997122, 10.00017 
1.4649676e+3, 2.943067e+2, -553632.8, -272024.34, -5187.636, -0.04460147, 0.12530534, -271928.8, -216119.98, 0.0, 9.996447, 10.0001745 
1.4649554e+3, 3.0430812e+2, -545184.6, -199716.28, -33248.39, -0.009081656, 0.23881677, -196545.52, -196545.52, 0.0, 9.995986, 10.000558 
1.4649427e+3, 3.1430778e+2, -458787.1, 20758.055, -13784.093, 0.042026423, 0.13112405, 21153.94, 21153.94, 0.0, 9.995807, 10.002159 
1.47518e+3, 1.243365e+2, -1142039.0, -1638653.5, -31816.824, 0.0039174925, 0.16033222, -1140008.9, 581505.75, 0.0129400715, 10.004857, 9.99819 
1.4751694e+3, 1.3433273e+2, -1170391.4, -1733102.8, 74536.96, 0.022014957, 0.086700626, -1160685.6, 462864.88, 0.0076596183, 10.004525, 9.997024 
1.4751567e+3, 1.443305e+2, -1064103.4, -1500139.9, -14857.386, -0.09671443, 0.104152486, -1063597.8, 461973.88, 0.00328642, 10.004001, 9.998198 
1.4751446e+3, 1.5432878e+2, -1072504.4, -1448571.0, -25085.906, -0.010172415, 0.10523934, -1070838.4, 356749.4, 0.00081847265, 10.003238, 9.998246 
1.475132e+3, 1.6432706e+2, -1047461.3, -1383143.6, -18951.195, 0.0023336255, 0.11065054, -1046394.75, 283209.47, 0.000071419374, 10.002723, 9.998271 
1.4751188e+3, 1.7432532e+2, -973247.56, -1290704.6, -17710.404, -0.046706002, 0.101800725, -972262.6, 259359.1, 0.0000002932695, 10.002535, 9.9983225 
1.475106e+3, 1.8432367e+2, -906566.75, -1154053.8, -36238.08, -0.054377586, 0.08473073, -901369.75, 232267.73, 0.0, 10.002087, 9.998805 
1.4750932e+3, 1.9432223e+2, -916372.5, -1099571.1, -39086.484, -0.01808388, 0.052080326, -908381.75, 127268.73, 0.0, 10.001309, 9.998881 
1.4750805e+3, 2.0432144e+2, -858464.25, -952168.5, -26559.217, 0.0020779897, 0.057432793, -851460.0, 86197.16, 0.0, 10.000737, 9.999496 
1.475068e+3, 2.1432148e+2, -796592.25, -861916.4, -14529.909, 0.0051192576, 0.102045804, -793506.2, 46149.29, 0.0, 10.000447, 9.999583 
1.475055e+3, 2.243209e+2, -797493.1, -859375.94, -28944.549, 0.002883881, 0.108487085, -786065.25, -44404.117, 0.0, 9.999973, 9.999157 
1.4750418e+3, 2.3431957e+2, -802187.3, -809217.3, -39379.195, -0.008144251, 0.05594968, -766166.56, -122490.72, 0.0, 9.999262, 9.99917 
1.475029e+3, 2.4431883e+2, -728085.56, -665660.25, -21642.951, -0.0110036265, 0.04421942, -658890.7, -113206.64, 0.0, 9.998852, 9.9996805 
1.4750163e+3, 2.5431895e+2, -626038.1, -556203.9, -9398.693, -0.0024272196, 0.07798152, -554961.06, -107277.86, 0.0, 9.998838, 9.999764 
1.4750035e+3, 2.6431906e+2, -579152.75, -492343.47, -26216.344, 0.003874062, 0.11869752, -485040.53, -135357.47, 0.0, 9.9985285, 9.99968 
1.4749904e+3, 2.7431914e+2, -581811.6, -438012.0, -33600.086, 0.0040744967, 0.15534012, -430548.4, -178864.63, 0.0, 9.997816, 9.9997225 
1.4749773e+3, 2.8431895e+2, -565523.9, -347058.03, -21972.945, 0.005839122, 0.15010694, -344869.94, -191181.97, 0.0, 9.997116, 10.0000105 
1.4749646e+3, 2.9431844e+2, -566500.25, -296793.88, -28616.23, 0.017267382, 0.09300884, -293791.06, -238096.0, 0.0, 9.996437, 10.000009 
1.4749518e+3, 3.043201e+2, -511900.94, -130576.836, -40247.793, 0.042398583, 0.21464708, -126375.08, -126375.08, 0.0, 9.995983, 10.001036 
1.4749376e+3, 3.143209e+2, -453335.97, 31718.998, -21006.645, -0.044104204, 0.17151314, 32627.047, 32627.047, 0.0, 9.995806, 10.002236 
1.4851849e+3, 1.2434965e+2, -1057881.6, -1607356.3, -20567.018, -0.017294407, 0.1704208, -1057112.9, 664272.3, 0.013666153, 10.005491, 9.9981 
1.4851737e+3, 1.3434574e+2, -1177600.6, -1742307.0, 97459.17, 0.013987843, 0.085897654, -1161253.9, 462168.9, 0.008119373, 10.004502, 9.996971 
1.4851607e+3, 1.4434332e+2, -1092919.4, -1527398.9, 19633.877, -0.08645709, 0.093045354, -1092034.0, 433412.13, 0.0035067333, 10.003861, 9.998076 
1.485148e+3, 1.5434168e+2, -1017615.1, -1434711.4, 1395.2006, -0.019467989, 0.11590611, -1017610.44, 409851.2, 0.0008836583, 10.003673, 9.998131 
1.4851348e+3, 1.6433994e+2, -986785.7, -1354052.3, 2426.2026, -0.009649319, 0.1256154, -986769.6, 342708.75, 0.00007901186, 10.003143, 9.998266 
1.4851213e+3, 1.7433801e+2, -1023219.7, -1314747.4, 6760.115, -0.04110688, 0.09843865, -1023063.0, 208434.28, 0.00000037325287, 10.0021925, 9.9983225 
1.4851078e+3, 1.8433632e+2, -969090.6, -1175050.6, 2171.2466, -0.046985917, 0.07184872, -969067.75, 164445.6, 0.0, 10.001618, 9.998886 
1.4850946e+3, 1.94335e+2, -878006.0, -1071039.6, 11774.521, -0.030666996, 0.04245492, -877290.44, 158234.31, 0.0, 10.001532, 9.998968 
1.4850815e+3, 2.0433421e+2, -809471.3, -946511.0, 14110.626, -0.010929679, 0.052706618, -808033.44, 129498.04, 0.0, 10.001152, 9.999334 
1.4850685e+3, 2.1433413e+2, -817771.9, -892422.4, -8948.146, 0.016370067, 0.10344726, -816714.25, 22817.738, 0.0, 10.000391, 9.999399 
1.4850551e+3, 2.2433352e+2, -806976.44, -855037.0, -27920.432, 0.014998739, 0.11291286, -794169.2, -52630.914, 0.0, 9.999872, 9.999234 
1.4850411e+3, 2.3433226e+2, -737286.94, -767753.8, -13295.746, -0.026320128, 0.058719777, -732300.7, -88748.84, 0.0, 9.999665, 9.99926 
1.4850277e+3, 2.4433161e+2, -677101.44, -635788.2, 12358.945, -0.02985086, 0.04859377, -632373.25, -86814.234, 0.0, 9.999181, 9.999726 
1.4850152e+3, 2.5433183e+2, -697172.1, -585952.75, 3456.747, 0.01666664, 0.088228084, -585845.44, -138288.11, 0.0, 9.998332, 9.999804 
1.4850019e+3, 2.6433197e+2, -684239.3, -538204.1, -19477.578, 0.028259458, 0.1293494, -535650.9, -186094.08, 0.0, 9.997788, 9.99972 
1.4849879e+3, 2.7433202e+2, -602903.75, -443574.75, -16409.174, -0.009168595, 0.1580509, -441902.34, -190344.28, 0.0, 9.997653, 9.999762 
1.4849742e+3, 2.8433183e+2, -537779.6, -327826.56, 910.98114, -0.014936721, 0.1483108, -327822.63, -174260.56, 0.0, 9.997284, 10.000061 
1.4849612e+3, 2.943314e+2, -538918.5, -278455.06, 7039.7954, 0.028927524, 0.092348136, -278264.94, -222696.8, 0.0, 9.996606, 10.000053 
1.484948e+3, 3.0433294e+2, -487570.16, -109747.2, 7276.6523, 0.055304136, 0.19800179, -109607.11, -109607.11, 0.0, 9.996114, 10.001115 
1.4849333e+3, 3.1433398e+2, -466534.53, -7200.3574, -9634.833, -0.048301835, 0.1706178, -6998.349, -6998.349, 0.0, 9.995857, 10.001943 
1.49519e+3, 1.243629e+2, -1058199.3, -1604898.4, -59785.14, -0.058936387, 0.13964209, -1051737.8, 669517.06, 0.01444369, 10.005482, 9.998123 
1.4951783e+3, 1.343594e+2, -1171189.6, -1728106.6, 60405.047, 0.021115642, 0.08635928, -1164713.1, 458575.22, 0.008611614, 10.004501, 9.997068 
1.495165e+3, 1.4435703e+2, -1105382.8, -1555455.6, 8723.032, -0.06070486, 0.1019474, -1105213.8, 420097.88, 0.003742957, 10.003869, 9.997882 
1.4951514e+3, 1.5435527e+2, -1032354.1, -1466053.1, -5797.656, -0.056397803, 0.13322875, -1032276.7, 395052.47, 0.0009542271, 10.003674, 9.997916 
1.4951375e+3, 1.6435336e+2, -984064.56, -1348898.4, -32359.77, -0.05192263, 0.13574855, -981216.56, 348131.16, 0.00008722728, 10.003144, 9.998302 
1.4951237e+3, 1.7435122e+2, -1018601.06, -1307006.0, -29012.053, -0.014271705, 0.08222011, -1015711.5, 215656.75, 0.0000004647829, 10.002198, 9.998373 
1.4951098e+3, 1.8434972e+2, -951422.6, -1139923.6, -4106.705, -0.0055280062, 0.06267234, -951333.2, 182048.39, 0.0, 10.001623, 9.9991255 
1.495096e+3, 1.9434915e+2, -859591.56, -1034079.0, 8341.884, -0.043194402, 0.08186823, -859193.6, 176191.14, 0.0, 10.001535, 9.999222 
1.4950822e+3, 2.0434807e+2, -850223.0, -1030728.2, -13921.078, -0.044462163, 0.07649881, -849155.7, 88238.875, 0.0, 10.001149, 9.998758 
1.4950687e+3, 2.1434638e+2, -861473.0, -984146.7, -37394.48, 0.004506065, 0.028501876, -850972.9, -11560.252, 0.0, 10.000394, 9.99877 
1.495055e+3, 2.2434558e+2, -781255.06, -802074.4, -37347.055, 0.014817367, 0.03560606, -752894.06, -11472.762, 0.0, 9.999872, 9.9995985 
1.4950408e+3, 2.3434599e+2, -706653.3, -704127.0, -20489.684, -0.026248544, 0.10596875, -684861.56, -41443.96, 0.0, 9.999663, 9.999698 
1.4950268e+3, 2.4434589e+2, -690585.9, -663414.0, -17847.66, -0.029313995, 0.13473186, -654569.7, -109150.48, 0.0, 9.999178, 9.999538 
1.4950134e+3, 2.5434512e+2, -714204.5, -620517.25, -27287.508, 0.017787574, 0.10081959, -613148.94, -165721.53, 0.0, 9.998327, 9.999569 
1.4949998e+3, 2.6434478e+2, -673181.4, -514750.25, -25781.998, 0.030604837, 0.09720729, -510660.25, -161228.33, 0.0, 9.997786, 9.999883 
1.4949857e+3, 2.74345e+2, -589535.56, -415381.78, -19700.424, -0.0038919358, 0.12160799, -413181.06, -161749.69, 0.0, 9.99765, 9.999957 
1.4949714e+3, 2.8434518e+2, -520216.8, -292317.75, -22023.83, -0.02278205, 0.13241528, -290208.9, -136778.52, 0.0, 9.997286, 10.000305 
1.4949574e+3, 2.943455e+2, -523217.97, -244613.92, -16287.955, -0.014930701, 0.12501723, -243664.9, -188236.94, 0.0, 9.996598, 10.00029 
1.4949438e+3, 3.0434662e+2, -511137.13, -157609.55, -2513.9324, 0.024549637, 0.19014537, -157591.67, -157591.67, 0.0, 9.996108, 10.00079 
1.49493e+3, 3.1434706e+2, -513756.53, -104099.88, -17761.186, 0.025325118, 0.14050165, -103331.266, -103331.266, 0.0, 9.995853, 10.001279 
1.5051952e+3, 1.243765e+2, -1110401.0, -1638620.8, -54428.65, -0.06760685, 0.10421808, -1104851.0, 616270.56, 0.015284076, 10.005158, 9.998045 
1.5051828e+3, 1.3437359e+2, -1124247.6, -1703966.8, 60495.176, 0.006828633, 0.10942428, -1118002.1, 505147.8, 0.009143236, 10.004824, 9.997078 
1.505169e+3, 1.4437124e+2, -1047125.4, -1526551.6, 18514.398, -0.05800986, 0.12742002, -1046411.44, 478761.56, 0.00399821, 10.0042715, 9.997886 
1.505155e+3, 1.5436913e+2, -1061614.4, -1479139.1, 18610.96, -0.057097096, 0.12188656, -1060786.4, 366407.1, 0.0010310835, 10.0034685, 9.997925 
1.5051405e+3, 1.6436714e+2, -1015263.0, -1360512.5, -2196.6514, -0.057282373, 0.11560518, -1015249.0, 313963.47, 0.000096309515, 10.002913, 9.998334 
1.5051259e+3, 1.743653e+2, -948993.6, -1269369.8, -1062.5842, -0.024998287, 0.08848848, -948990.1, 282240.0, 0.000000575819, 10.002661, 9.998408 
1.5051118e+3, 1.843639e+2, -881109.2, -1118296.9, 17051.395, -0.010953766, 0.0826277, -879889.6, 253353.05, 0.0, 10.002162, 9.999014 
1.5050976e+3, 1.9436318e+2, -894059.7, -1064824.4, 846.70245, -0.032234304, 0.09938207, -894055.5, 141192.48, 0.0, 10.001361, 9.999094 
1.5050833e+3, 2.0436199e+2, -893254.1, -1046871.0, -15088.532, -0.034358703, 0.086099215, -891786.1, 45472.95, 0.0, 10.000835, 9.998798 
1.5050691e+3, 2.1436018e+2, -819971.9, -958356.5, 10408.723, -0.0086313775, 0.023326809, -819193.3, 20084.0, 0.0, 10.000655, 9.998819 
1.5050548e+3, 2.2435935e+2, -732772.4, -788509.7, 22209.352, -0.00024136205, 0.028315183, -725005.1, 16281.095, 0.0, 10.00025, 9.999509 
1.5050404e+3, 2.343598e+2, -730446.56, -726959.6, -2242.5503, -0.015879681, 0.112861864, -725862.56, -82579.875, 0.0, 9.999552, 9.999595 
1.505026e+3, 2.4435972e+2, -719461.7, -664709.4, -18382.305, -0.01994733, 0.14526497, -659110.3, -113826.31, 0.0, 9.998928, 9.999649 
1.5050116e+3, 2.5435898e+2, -694190.75, -596987.94, -3573.2212, -0.009316638, 0.09961282, -596856.75, -149565.19, 0.0, 9.998407, 9.999691 
1.5049973e+3, 2.6435858e+2, -647275.75, -498354.8, 23098.773, 0.0028669045, 0.08577056, -494854.28, -145558.25, 0.0, 9.997949, 9.999916 
1.5049835e+3, 2.7435878e+2, -600994.9, -417881.13, 16247.266, 0.014760591, 0.103551, -416450.72, -165154.6, 0.0, 9.9975605, 9.999982 
1.504969e+3, 2.8435913e+2, -538560.1, -301835.28, -11508.638, 0.00597465, 0.12853836, -301277.1, -147983.36, 0.0, 9.997165, 10.000298 
1.504954e+3, 2.943598e+2, -498226.5, -233232.55, -26721.26, -0.023996929, 0.15935755, -230564.89, -175277.4, 0.0, 9.996775, 10.000283 
1.5049398e+3, 3.0436045e+2, -480113.9, -143023.44, -4740.2734, 0.0060978676, 0.17577964, -142956.8, -142956.8, 0.0, 9.996324, 10.000787 
1.5049261e+3, 3.1436083e+2, -535582.8, -130380.97, 5169.849, 0.06470517, 0.12402405, -130315.02, -130315.02, 0.0, 9.99577, 10.00114 
1.5152006e+3, 1.2439054e+2, -1121162.8, -1659989.6, -71349.6, -0.046011765, 0.07208825, -1111875.0, 609109.44, 0.016190303, 10.005157, 9.997897 
1.5151873e+3, 1.3438836e+2, -1128780.3, -1712642.4, 48636.625, -0.031967822, 0.1530738, -1124756.4, 498250.47, 0.009716031, 10.004822, 9.99702 
1.515173e+3, 1.4438602e+2, -1035214.1, -1501694.4, -11105.139, -0.081642814, 0.1684849, -1034949.9, 490079.7, 0.0042739515, 10.004271, 9.998058 
1.5151587e+3, 1.543833e+2, -1047753.6, -1450961.1, -11151.341, -0.024334328, 0.083672434, -1047445.44, 379608.88, 0.0011150336, 10.00347, 9.998118 
1.5151437e+3, 1.6438136e+2, -1012057.2, -1354887.4, -13914.949, -0.030070195, 0.06775334, -1011493.3, 317579.03, 0.000106548556, 10.002916, 9.998372 
1.5151282e+3, 1.7438027e+2, -947083.5, -1265968.5, -10565.274, -0.07499266, 0.11584775, -946733.8, 284348.94, 0.0000007145684, 10.002661, 9.998432 
1.5151134e+3, 1.8437888e+2, -914011.94, -1186544.3, -12396.471, -0.06494088, 0.12953502, -913449.25, 219647.3, 0.0, 10.002159, 9.998548 
1.5150993e+3, 1.9437714e+2, -928326.56, -1137533.5, -28900.3, 0.0003778587, 0.09564022, -924407.6, 110706.31, 0.0, 10.001366, 9.998594 
1.5150847e+3, 2.0437598e+2, -848371.3, -954775.0, -23597.803, 0.016094271, 0.08243432, -843372.7, 93751.84, 0.0, 10.000838, 9.999431 
1.5150696e+3, 2.1437556e+2, -770508.44, -855711.7, 3819.4492, -0.025527483, 0.086447254, -770337.56, 68788.69, 0.0, 10.000654, 9.999526 
1.5150549e+3, 2.243748e+2, -772536.0, -869698.06, -3535.8389, -0.032367226, 0.08864161, -772407.5, -31274.129, 0.0, 10.000242, 9.998956 
1.5150401e+3, 2.3437369e+2, -775317.94, -820121.9, -27785.625, 0.0034466002, 0.079723924, -762028.3, -118881.29, 0.0, 9.99955, 9.998957 
1.5150252e+3, 2.4437314e+2, -691529.8, -606944.7, -38183.688, -0.0043858336, 0.08088104, -592257.9, -47104.58, 0.0, 9.998927, 10.000047 
1.5150094e+3, 2.5437334e+2, -661524.0, -528748.4, -22011.998, -0.06727403, 0.08485535, -525194.3, -78044.59, 0.0, 9.9984045, 10.000162 
1.5149947e+3, 2.6437342e+2, -655692.7, -515190.38, 9284.502, -0.05704265, 0.0950898, -514579.5, -165430.25, 0.0, 9.997945, 9.999803 
1.5149812e+3, 2.7437335e+2, -612861.2, -441611.44, 3642.9338, 0.04481455, 0.10510055, -441533.97, -190381.66, 0.0, 9.997556, 9.999822 
1.5149668e+3, 2.8437358e+2, -556490.6, -339154.94, -25884.287, 0.068879895, 0.13825682, -336114.7, -182962.64, 0.0, 9.997163, 10.000043 
1.514951e+3, 2.9437426e+2, -516201.22, -270863.75, -39627.15, -0.002068306, 0.19510406, -264621.94, -209475.08, 0.0, 9.996774, 10.000026 
1.5149361e+3, 3.0437434e+2, -456676.66, -96304.195, -23582.361, -0.0042455173, 0.15274765, -94767.55, -94767.55, 0.0, 9.996329, 10.001106 
1.514922e+3, 3.1437525e+2, -506253.22, -67807.58, -11364.502, 0.061201535, 0.1190445, -67513.2, -67513.2, 0.0, 9.995762, 10.0015745 
1.5252058e+3, 1.244058e+2, -1089414.3, -1638582.4, -38951.883, -0.038952865, 0.091662884, -1086665.1, 634171.1, 0.017157486, 10.005361, 9.99795 
1.525192e+3, 1.3440369e+2, -1132736.8, -1697571.9, 96892.375, -0.045836598, 0.16429372, -1116578.0, 506279.22, 0.010326995, 10.004724, 9.997172 
1.525177e+3, 1.4440128e+2, -1056545.3, -1515259.0, 32831.62, -0.08383201, 0.16604671, -1054207.3, 470672.94, 0.0045687975, 10.004137, 9.99803 
1.5251622e+3, 1.5439849e+2, -1034419.25, -1447842.9, 15371.338, -0.03206445, 0.07700269, -1033848.56, 393056.97, 0.0012059042, 10.003577, 9.998089 
1.5251467e+3, 1.643965e+2, -998865.7, -1345432.0, 13414.375, -0.03316656, 0.059848472, -998347.2, 330576.28, 0.000118081814, 10.002996, 9.998398 
1.5251309e+3, 1.7439549e+2, -981067.06, -1279581.4, 15953.406, -0.062948674, 0.11194475, -980216.94, 250716.05, 0.0000008766353, 10.002417, 9.998456 
1.5251155e+3, 1.8439402e+2, -954161.0, -1221903.6, 20924.963, -0.053051353, 0.123259306, -952535.56, 180412.1, 0.0, 10.001953, 9.9984045 
1.5251006e+3, 1.9439203e+2, -900581.56, -1141318.4, 28797.732, -0.007215077, 0.07967298, -897184.6, 137783.38, 0.0, 10.001631, 9.99844 
1.5250856e+3, 2.0439085e+2, -796553.25, -926604.5, 32540.02, 0.006646032, 0.07416467, -788865.8, 148113.0, 0.0, 10.001183, 9.999456 
1.5250704e+3, 2.1439077e+2, -778938.44, -856088.44, 9567.221, -0.015783777, 0.108398534, -777769.75, 61207.582, 0.0, 10.000582, 9.9995575 
1.525055e+3, 2.2439004e+2, -810021.2, -879329.2, -11923.184, -0.01626503, 0.10851761, -808027.4, -67043.62, 0.0, 9.99995, 9.999029 
1.5250397e+3, 2.3438856e+2, -809481.9, -827976.75, 14481.466, 0.008472559, 0.055786885, -801547.1, -158547.06, 0.0, 9.99928, 9.999032 
1.5250239e+3, 2.443879e+2, -710959.0, -627358.3, 27315.213, -0.0029946158, 0.045272123, -619224.8, -74217.44, 0.0, 9.998843, 9.999947 
1.525008e+3, 2.543883e+2, -627435.9, -525002.94, -378.07513, -0.06032173, 0.079541996, -525001.56, -77998.64, 0.0, 9.998694, 10.000048 
1.5249927e+3, 2.6438844e+2, -608407.75, -497299.34, 2435.4673, -0.051527474, 0.1050824, -497245.97, -148243.88, 0.0, 9.998292, 9.999758 
1.5249787e+3, 2.7438828e+2, -613980.1, -446544.56, 3336.888, 0.0404337, 0.109743625, -446478.1, -195472.3, 0.0, 9.997569, 9.999782 
1.5249638e+3, 2.8438842e+2, -573731.8, -350011.22, -3729.7068, 0.06661201, 0.13720088, -349949.06, -196942.72, 0.0, 9.997058, 10.000019 
1.5249479e+3, 2.94389e+2, -511896.34, -271188.34, -551.6251, 0.010597265, 0.18686363, -271187.1, -216184.69, 0.0, 9.996816, 10.000003 
1.5249324e+3, 3.0438873e+2, -447730.84, -91011.625, 4036.4417, -0.0037034831, 0.112580314, -90965.95, -90965.95, 0.0, 9.99639, 10.001111 
1.5249175e+3, 3.1439042e+2, -493347.34, -35105.836, -9450.048, 0.044963706, 0.15287556, -34911.04, -34911.04, 0.0, 9.995739, 10.001809 
1.5352112e+3, 1.2442226e+2, -1075743.0, -1608541.3, -65692.72, -0.04587506, 0.160681, -1067762.8, 652914.1, 0.018180085, 10.005356, 9.998163 
1.5351966e+3, 1.344196e+2, -1110018.1, -1650038.8, 73183.555, -0.039099388, 0.14525644, -1100276.1, 522424.78, 0.01097327, 10.0047245, 9.9974985 
1.5351816e+3, 1.4441703e+2, -1070736.5, -1545345.0, 10161.723, -0.06896487, 0.124083154, -1070519.0, 454205.56, 0.004880885, 10.00414, 9.997822 
1.5351652e+3, 1.5441464e+2, -1050581.9, -1481718.0, -5727.309, -0.081363894, 0.09963364, -1050505.8, 376241.25, 0.0013028968, 10.003578, 9.997856 
1.5351492e+3, 1.6441263e+2, -998158.56, -1345823.5, -9032.19, -0.06903869, 0.08948685, -997924.06, 330841.7, 0.00013086536, 10.003002, 9.998393 
1.5351339e+3, 1.74411e+2, -978780.9, -1277579.0, -5616.9443, 0.0072842874, 0.0787464, -978675.3, 252105.11, 0.0000010420176, 10.002426, 9.9984665 
1.5351182e+3, 1.8440938e+2, -941597.1, -1197474.0, 7498.129, 0.019697117, 0.06740626, -941377.6, 191417.89, 0.0, 10.001958, 9.9985695 
1.5351018e+3, 1.9440784e+2, -888285.3, -1116263.6, 16635.594, -0.05675106, 0.05134066, -887077.8, 147732.42, 0.0, 10.001632, 9.998611 
1.535086e+3, 2.0440663e+2, -837256.6, -1010963.7, 9778.352, -0.06411065, 0.0600876, -836707.94, 100114.23, 0.0, 10.00118, 9.99888 
1.5350711e+3, 2.1440586e+2, -822700.4, -947467.75, -12383.33, 0.018817374, 0.09019721, -821483.2, 17347.156, 0.0, 10.000582, 9.998931 
1.5350555e+3, 2.2440514e+2, -762044.9, -780038.5, -37266.047, 0.044700507, 0.089551926, -732705.06, 8132.0615, 0.0, 9.99995, 9.999712 
1.5350388e+3, 2.3440446e+2, -755566.9, -716481.0, -10120.17, -0.0023959905, 0.04115089, -714016.1, -71174.38, 0.0, 9.999281, 9.999798 
1.5350227e+3, 2.4440397e+2, -753884.94, -715898.4, 20598.377, -0.017215911, 0.03765943, -706873.1, -162026.52, 0.0, 9.998839, 9.999341 
1.5350074e+3, 2.544038e+2, -676835.1, -627545.94, -4468.949, 0.00961101, 0.08411828, -627144.0, -180292.81, 0.0, 9.998693, 9.999345 
1.5349919e+3, 2.6440364e+2, -606134.7, -493159.1, -22751.654, 0.015905347, 0.11564783, -488749.34, -139894.69, 0.0, 9.998293, 9.999787 
1.5349758e+3, 2.744035e+2, -608529.94, -435393.0, -22218.324, -0.003098114, 0.115449265, -432587.22, -181730.56, 0.0, 9.997567, 9.99986 
1.5349603e+3, 2.844036e+2, -560628.7, -322278.25, -12578.358, -0.0052699563, 0.12332776, -321616.3, -168759.52, 0.0, 9.997055, 10.000212 
1.5349448e+3, 2.9440403e+2, -498817.44, -243159.08, -7203.724, 0.011920505, 0.13721873, -242956.25, -188102.33, 0.0, 9.996812, 10.000198 
1.5349288e+3, 3.0440363e+2, -469055.47, -135913.95, -18755.973, 0.0064538876, 0.05753632, -134861.31, -134861.31, 0.0, 9.996389, 10.000804 
1.5349129e+3, 3.1440604e+2, -489145.4, -26096.838, -27061.371, 0.0043368973, 0.20137101, -24520.688, -24520.688, 0.0, 9.995736, 10.001874 
1.5452164e+3, 1.244391e+2, -1097624.9, -1640352.4, -30084.152, -0.04935201, 0.18478532, -1095962.4, 624549.1, 0.019257205, 10.005303, 9.997967 
1.5452012e+3, 1.344359e+2, -1121491.6, -1669236.5, 79079.305, -0.049122408, 0.12957595, -1110303.3, 512237.7, 0.011655771, 10.004709, 9.997374 
1.5451857e+3, 1.444332e+2, -1060207.6, -1531476.1, 12906.449, -0.051379412, 0.09783562, -1059854.4, 464711.72, 0.0052106176, 10.004179, 9.997898 
1.5451689e+3, 1.5443127e+2, -1022923.8, -1457828.0, 18916.24, -0.07129948, 0.110391006, -1022102.56, 404481.13, 0.0014057456, 10.003723, 9.997951 
1.5451524e+3, 1.644293e+2, -968877.0, -1348339.5, 23958.82, -0.06506724, 0.10839381, -967370.25, 361231.63, 0.00014487762, 10.003275, 9.998245 
1.5451366e+3, 1.7442724e+2, -930463.7, -1272488.9, 13865.426, 0.0077828737, 0.07018212, -929902.5, 300718.75, 0.000001197513, 10.002837, 9.998303 
1.5451203e+3, 1.8442547e+2, -884082.75, -1161962.6, 18277.828, 0.022435809, 0.0505585, -882885.6, 249751.83, 0.0, 10.002322, 9.998637 
1.5451035e+3, 1.9442418e+2, -870430.3, -1098687.3, 19585.357, -0.047835164, 0.05099673, -868762.0, 165886.89, 0.0, 10.001717, 9.998691 
1.5450872e+3, 2.044229e+2, -859521.0, -1041861.75, 18841.23, -0.053955574, 0.057837047, -857594.5, 79066.86, 0.0, 10.001116, 9.998698 
1.5450718e+3, 2.1442172e+2, -845030.3, -980276.06, 26613.047, 0.023496654, 0.06309277, -839981.94, -1307.183, 0.0, 10.000525, 9.998733 
1.5450555e+3, 2.2442093e+2, -735480.06, -761099.06, 2329.0806, 0.043322586, 0.0651169, -735270.0, 5412.3945, 0.0, 10.000108, 9.999765 
1.5450384e+3, 2.3442069e+2, -660216.3, -663204.5, -22815.3, -0.010660461, 0.053993497, -638846.25, 3836.3103, 0.0, 9.999905, 9.999863 
1.5450217e+3, 2.4442029e+2, -678727.2, -695440.56, -4773.779, -0.017295297, 0.06286537, -677459.75, -132773.14, 0.0, 9.999425, 9.999199 
1.5450062e+3, 2.5441977e+2, -701808.4, -657069.06, 8485.558, 0.034918975, 0.08982071, -655513.7, -208818.61, 0.0, 9.998599, 9.999187 
1.5449902e+3, 2.6441944e+2, -632827.9, -498294.8, 15671.377, 0.03721163, 0.1084371, -496493.44, -147793.16, 0.0, 9.998077, 9.999855 
1.5449734e+3, 2.744193e+2, -549031.44, -397960.94, 15512.418, -0.022430664, 0.10352434, -396384.5, -145683.36, 0.0, 9.99794, 9.999937 
1.544957e+3, 2.8441945e+2, -509140.13, -303310.94, 10834.621, -0.03414901, 0.11464045, -302742.2, -150041.45, 0.0, 9.997436, 10.000157 
1.5449412e+3, 2.944199e+2, -555154.44, -277100.8, -6108.5063, 0.013277261, 0.14196205, -276966.7, -222268.72, 0.0, 9.996456, 10.000136 
1.544925e+3, 3.0441952e+2, -554580.2, -189498.05, -11711.887, 0.00824798, 0.068658695, -189122.72, -189122.72, 0.0, 9.995859, 10.00069 
1.5449083e+3, 3.1442183e+2, -464185.5, 17501.572, -492.86313, -0.019543082, 0.21465316, 17502.076, 17502.076, 0.0, 9.995774, 10.002153 
1.5552217e+3, 1.244564e+2, -1139276.3, -1722956.5, -58543.035, -0.050164558, 0.17541195, -1133462.4, 586877.06, 0.02039489, 10.005292, 9.9973955 
1.5552057e+3, 1.3445264e+2, -1159941.3, -1748460.0, 56967.875, -0.07699518, 0.1168766, -1154477.5, 467899.7, 0.012379573, 10.004706, 9.996831 
1.5551901e+3, 1.4444982e+2, -1036725.94, -1483828.3, -5181.875, -0.034410838, 0.08710352, -1036665.9, 487738.28, 0.00556119, 10.004182, 9.998226 
1.5551732e+3, 1.5444839e+2, -995222.06, -1401931.0, 1626.6772, -0.00841083, 0.11053596, -995215.56, 431199.66, 0.0015155156, 10.003729, 9.998333 
1.555156e+3, 1.6444659e+2, -988858.5, -1390511.4, 6007.375, -0.026725294, 0.11784211, -988768.6, 339662.97, 0.00016035176, 10.003277, 9.997955 
1.5551387e+3, 1.7444423e+2, -954223.3, -1321281.3, -2745.7231, -0.06101436, 0.08394965, -954202.8, 276252.6, 0.0000013687348, 10.002834, 9.997971 
1.555122e+3, 1.8444234e+2, -886927.6, -1167434.9, -4675.7534, -0.04605206, 0.07064046, -886849.75, 245623.78, 0.0, 10.002317, 9.998603 
1.5551059e+3, 1.944411e+2, -871028.25, -1100951.6, -2709.5369, 0.016876355, 0.078400925, -870996.3, 163487.45, 0.0, 10.0017185, 9.998675 
1.5550892e+3, 2.0443974e+2, -845915.7, -1014285.8, -3841.2856, 0.032954566, 0.0680712, -845828.1, 90668.016, 0.0, 10.001117, 9.998888 
1.555072e+3, 2.1443827e+2, -830993.1, -951181.7, 4581.5015, -0.0040604533, 0.026719391, -830818.75, 7691.9175, 0.0, 10.0005245, 9.998934 
1.5550551e+3, 2.2443737e+2, -775495.5, -843853.6, -6573.721, -0.022299122, 0.034238357, -774869.06, -34349.098, 0.0, 10.000105, 9.9992 
1.5550381e+3, 2.3443724e+2, -703476.44, -753405.1, -29326.813, -0.017655445, 0.09400029, -689927.4, -47404.91, 0.0, 9.999905, 9.999245 
1.5550214e+3, 2.4443685e+2, -657412.2, -651039.2, -33926.727, -0.0065098866, 0.12032264, -620149.6, -75622.3, 0.0, 9.999423, 9.999506 
1.5550046e+3, 2.5443617e+2, -676232.6, -604046.9, -21262.076, 0.012801184, 0.09515031, -598249.75, -151714.95, 0.0, 9.998597, 9.999554 
1.554988e+3, 2.6443574e+2, -625603.1, -483076.53, 10005.84, 0.010852589, 0.082376115, -482377.53, -133838.39, 0.0, 9.9980755, 9.999962 
1.5549715e+3, 2.744357e+2, -543329.9, -386811.72, 12775.5205, -0.018980429, 0.07644855, -385775.78, -135236.7, 0.0, 9.997941, 10.000014 
1.5549546e+3, 2.84436e+2, -530287.7, -348081.6, -23029.418, -0.022682121, 0.112833165, -345215.9, -192677.88, 0.0, 9.9974375, 9.99985 
1.5549378e+3, 2.944367e+2, -578903.3, -325727.97, -41394.938, 0.0072749937, 0.1977775, -319131.63, -264596.75, 0.0, 9.996451, 9.999806 
1.5549207e+3, 3.0443633e+2, -551773.5, -182302.14, -15658.308, -0.005363857, 0.14276215, -181639.72, -181639.72, 0.0, 9.995852, 10.000745 
1.554904e+3, 3.144376e+2, -430188.16, 86996.52, 5106.978, -0.03045341, 0.17444402, 87046.945, 87046.945, 0.0, 9.995778, 10.00263 
1.5652269e+3, 1.24473296e+2, -1159612.0, -1726192.1, -92677.52, -0.04239132, 0.15162268, -1144837.6, 575335.9, 0.02160534, 10.005128, 9.997453 
1.5652102e+3, 1.3446991e+2, -1156484.0, -1736931.8, 66906.91, -0.09772627, 0.12024773, -1148871.6, 473336.16, 0.013152628, 10.004691, 9.996919 
1.5651943e+3, 1.4446716e+2, -1035226.4, -1486551.1, 17376.066, -0.027693186, 0.09613095, -1034558.4, 489675.66, 0.0059374096, 10.00421, 9.998193 
1.5651771e+3, 1.544656e+2, -1003692.06, -1409757.1, -7490.6377, 0.0057677752, 0.10930088, -1003553.94, 422692.78, 0.0016341616, 10.003689, 9.998297 
1.5651593e+3, 1.6446377e+2, -1003902.9, -1399580.1, -8397.883, -0.01681759, 0.117653504, -1003724.7, 324538.84, 0.00017771397, 10.003184, 9.997936 
1.5651414e+3, 1.7446157e+2, -975726.75, -1333719.5, 4199.136, -0.07000882, 0.10139034, -975677.5, 254608.58, 0.0000016137079, 10.002698, 9.997951 
1.5651241e+3, 1.844597e+2, -908468.9, -1178775.8, 11913.495, -0.053227276, 0.09105704, -907944.8, 224359.27, 0.0, 10.002175, 9.998593 
1.5651077e+3, 1.9445829e+2, -886080.5, -1109389.4, 12412.36, 0.03675288, 0.084265664, -885392.7, 148923.08, 0.0, 10.001622, 9.998663 
1.5650906e+3, 2.044569e+2, -832966.4, -997915.44, 12067.664, 0.053500827, 0.06566477, -832088.2, 104239.92, 0.0, 10.0011635, 9.998978 
1.5650727e+3, 2.144555e+2, -782023.9, -917228.7, 12316.941, -0.016340012, 0.023750966, -780911.0, 57429.91, 0.0, 10.000816, 9.999025 
1.5650551e+3, 2.2445458e+2, -755845.7, -857295.0, 11912.612, -0.04005375, 0.03210776, -754465.6, -14114.883, 0.0, 10.00034, 9.998993 
1.565038e+3, 2.3445423e+2, -748615.06, -800572.44, 15706.914, -0.007833958, 0.09479927, -744235.9, -101879.52, 0.0, 9.999706, 9.999015 
1.5650207e+3, 2.4445373e+2, -680892.0, -653378.25, 13783.863, 0.0051481817, 0.12051082, -647660.9, -103298.55, 0.0, 9.999224, 9.999585 
1.5650032e+3, 2.544531e+2, -620486.7, -566171.3, 5455.051, -0.0050860145, 0.0900094, -565628.9, -119260.48, 0.0, 9.998935, 9.99965 
1.564986e+3, 2.644527e+2, -592821.44, -478589.44, 19446.78, -0.0070089386, 0.07884992, -475369.6, -126997.32, 0.0, 9.998351, 9.999859 
1.5649693e+3, 2.7445263e+2, -631713.94, -442457.9, 5300.6934, 0.00020617091, 0.081151, -442309.56, -191936.19, 0.0, 9.997394, 9.999896 
1.564952e+3, 2.8445283e+2, -604887.8, -381156.44, -21996.99, -0.0015220252, 0.11502886, -379014.25, -226640.95, 0.0, 9.996914, 9.999875 
1.5649343e+3, 2.944535e+2, -493954.6, -280774.97, -14032.783, -0.013872609, 0.19035795, -279855.22, -225485.02, 0.0, 9.997019, 9.999841 
1.5649167e+3, 3.0445334e+2, -464978.88, -164775.38, 12331.159, -0.03204571, 0.16678959, -164269.7, -164269.7, 0.0, 9.996552, 10.000527 
1.5648997e+3, 3.144539e+2, -486539.66, 56943.44, 11472.785, -0.026400343, 0.1507299, 57185.523, 57185.523, 0.0, 9.995402, 10.002605 
1.5752321e+3, 1.2448995e+2, -1116643.4, -1636730.3, -110158.22, -0.027550312, 0.11914776, -1094273.3, 625738.7, 0.022901768, 10.005134, 9.998076 
1.5752147e+3, 1.3448773e+2, -1110202.3, -1641047.5, 50571.098, -0.11551598, 0.13902593, -1105427.5, 516604.72, 0.013983491, 10.004699, 9.997574 
1.5751985e+3, 1.4448525e+2, -1061992.5, -1542628.3, -3450.6353, -0.033634897, 0.12406905, -1061967.8, 462088.1, 0.0063441456, 10.004213, 9.997807 
1.5751804e+3, 1.5448293e+2, -1034851.3, -1474223.8, -26387.37, -0.027632391, 0.10641168, -1033272.25, 392805.5, 0.0017635659, 10.003687, 9.997856 
1.5751623e+3, 1.6448094e+2, -986931.44, -1364987.6, -26828.434, -0.03740288, 0.10970034, -985037.06, 343059.88, 0.00019721544, 10.003184, 9.998175 
1.5751445e+3, 1.7447929e+2, -956144.4, -1294319.3, -13578.65, -0.023382446, 0.12257366, -955600.0, 274512.94, 0.0000019795527, 10.002701, 9.9982195 
1.5751268e+3, 1.8447755e+2, -908541.4, -1179803.1, -9234.739, -0.0036437644, 0.11175602, -908227.4, 223901.88, 0.0, 10.002177, 9.998586 
1.575109e+3, 1.9447577e+2, -887651.7, -1113302.6, -8305.29, 0.009874571, 0.06824996, -887346.44, 146798.52, 0.0, 10.001624, 9.998636 
1.5750912e+3, 2.0447434e+2, -833228.06, -998601.94, -1633.338, 0.005989096, 0.050518498, -833211.94, 102945.42, 0.0, 10.001162, 9.998974 
1.5750733e+3, 2.1447343e+2, -782405.9, -918264.5, 129.60721, -0.01461728, 0.053656645, -782405.75, 55759.72, 0.0, 10.000816, 9.99902 
1.5750557e+3, 2.244725e+2, -747475.9, -839851.94, -11351.276, -0.012456403, 0.05823024, -746101.5, -5926.934, 0.0, 10.000339, 9.999115 
1.575038e+3, 2.3447163e+2, -739303.9, -781535.9, -7444.221, 0.01641799, 0.056051932, -738030.1, -95845.66, 0.0, 9.999705, 9.999147 
1.57502e+3, 2.4447097e+2, -690957.94, -674431.8, 2537.2378, 0.015945924, 0.063349225, -674051.0, -129859.08, 0.0, 9.999223, 9.999442 
1.5750019e+3, 2.544706e+2, -632049.6, -590251.94, -3807.2134, -0.021417303, 0.07585018, -589908.0, -143712.19, 0.0, 9.998933, 9.999487 
1.5749842e+3, 2.6447028e+2, -615882.44, -526393.1, -14003.209, -0.019837992, 0.09778748, -524253.06, -176053.22, 0.0, 9.998349, 9.999534 
1.5749669e+3, 2.7447e+2, -654964.94, -491014.13, -28917.742, 0.030822063, 0.11395006, -486063.13, -235858.42, 0.0, 9.997393, 9.999564 
1.5749492e+3, 2.844699e+2, -579430.6, -328674.13, -18724.02, 0.02560154, 0.11813253, -327283.72, -175076.64, 0.0, 9.996914, 10.0002365 
1.5749308e+3, 2.9447028e+2, -464231.38, -221833.02, -7502.75, -0.05245038, 0.121667616, -221601.02, -167397.13, 0.0, 9.997028, 10.000242 
1.5749127e+3, 3.044705e+2, -498798.84, -237005.45, -27750.57, -0.07463304, 0.14200884, -234096.17, -234096.17, 0.0, 9.99656, 10.000029 
1.5748951e+3, 3.144706e+2, -526229.06, -24542.436, -25441.076, -0.021244535, 0.13264342, -23255.592, -23255.592, 0.0, 9.995397, 10.0020485 
1.5852372e+3, 1.2450782e+2, -1079302.8, -1613127.5, -36017.777, -0.042014435, 0.08440873, -1076883.6, 642952.2, 0.024293588, 10.005383, 9.998121 
1.5852194e+3, 1.3450597e+2, -1086076.6, -1623414.3, 79774.7, -0.12535499, 0.13467874, -1074483.1, 547369.5, 0.014878684, 10.0048485, 9.997621 
1.585203e+3, 1.4450346e+2, -1061836.1, -1549168.3, 11465.488, -0.009387382, 0.12079339, -1061566.5, 462309.78, 0.0067848866, 10.004249, 9.997743 
1.5851839e+3, 1.5450107e+2, -1055990.4, -1491863.1, 13125.402, -0.046668515, 0.10181494, -1055595.5, 370304.0, 0.0019048249, 10.003577, 9.997786 
1.5851651e+3, 1.6449898e+2, -1006703.8, -1371290.5, 26330.016, -0.06308082, 0.09832058, -1004812.1, 323107.53, 0.0002187055, 10.003038, 9.9982 
1.5851474e+3, 1.7449723e+2, -957957.25, -1291666.6, 20804.295, -0.009620791, 0.09733808, -956665.25, 273271.06, 0.000002466339, 10.002676, 9.998248 
1.5851292e+3, 1.8449551e+2, -894467.25, -1175974.6, 13136.289, 0.015291994, 0.088756725, -893855.56, 238096.88, 0.0, 10.00229, 9.998557 
1.5851106e+3, 1.944939e+2, -854407.5, -1100942.0, 12668.101, -0.010005868, 0.06763651, -853758.25, 180208.7, 0.0, 10.00187, 9.998601 
1.5850922e+3, 2.0449255e+2, -808896.9, -988729.6, 18204.764, -0.017093763, 0.058450647, -807072.44, 128906.67, 0.0, 10.00134, 9.998955 
1.5850744e+3, 2.1449152e+2, -803973.06, -930783.7, 16631.18, 0.0025674715, 0.054078814, -801828.1, 36159.992, 0.0, 10.000679, 9.998998 
1.5850562e+3, 2.2449058e+2, -765773.75, -836338.0, 5110.6, 0.016418947, 0.05262553, -765405.5, -25408.348, 0.0, 10.00016, 9.999225 
1.5850377e+3, 2.3448978e+2, -714524.7, -756320.25, 7852.395, 0.022342494, 0.045210022, -713098.1, -71092.266, 0.0, 9.99982, 9.999265 
1.5850192e+3, 2.4448909e+2, -677133.4, -675727.25, 21116.139, 0.0135962805, 0.04946188, -655302.44, -111289.266, 0.0, 9.999355, 9.999368 
1.5850009e+3, 2.5448865e+2, -667501.3, -617270.75, 18334.88, -0.015034433, 0.06340657, -611290.3, -165272.23, 0.0, 9.9987335, 9.999396 
1.5849826e+3, 2.6448834e+2, -639825.94, -549154.4, 12389.369, -0.017530346, 0.093975976, -547492.0, -199469.28, 0.0, 9.998235, 9.999432 
1.5849644e+3, 2.7448812e+2, -590569.8, -471093.25, 13395.828, 0.014678511, 0.12596022, -469609.72, -219582.14, 0.0, 9.997885, 9.999462 
1.584946e+3, 2.8448787e+2, -515841.88, -295450.44, 32452.064, 0.006299358, 0.120172136, -290771.3, -138740.1, 0.0, 9.997342, 10.000257 
1.5849276e+3, 2.944879e+2, -531887.4, -250707.64, 13676.706, -0.056343358, 0.08674805, -250043.97, -196013.6, 0.0, 9.9965515, 10.000272 
1.5849091e+3, 3.0448845e+2, -581645.1, -276685.53, -16468.992, -0.062429745, 0.13827673, -275798.72, -275798.72, 0.0, 9.995993, 10.000029 
1.5848906e+3, 3.1448832e+2, -491417.9, -26216.357, 26729.697, -0.023985041, 0.1103827, -24685.55, -24685.55, 0.0, 9.995719, 10.00188 
1.5952423e+3, 1.24526985e+2, -1114187.6, -1683981.6, -55414.82, -0.08481576, 0.056157593, -1108848.4, 610796.5, 0.025788195, 10.005383, 9.997623 
1.5952241e+3, 1.3452461e+2, -1122799.0, -1699778.6, 60234.613, -0.1296314, 0.1080076, -1116577.8, 505090.97, 0.015842836, 10.004846, 9.997099 
1.5952076e+3, 1.445219e+2, -1046389.44, -1516002.6, -14715.057, 0.039231125, 0.089134224, -1045928.75, 477766.28, 0.007261786, 10.004245, 9.9979725 
1.5951873e+3, 1.5452003e+2, -1037186.6, -1453688.3, -12474.356, -0.054568645, 0.095648296, -1036813.3, 388898.7, 0.0020584215, 10.00358, 9.998048 
1.5951678e+3, 1.645179e+2, -1019011.2, -1398711.6, 10784.955, -0.09595282, 0.083353564, -1018705.1, 309026.88, 0.00024185247, 10.003044, 9.99801 
1.5951498e+3, 1.745154e+2, -972460.0, -1322901.5, 7287.68, -0.030411255, 0.027813954, -972308.5, 257447.67, 0.0000030340082, 10.00268, 9.998033 
1.5951313e+3, 1.845136e+2, -897652.3, -1182967.8, -3023.248, 0.00030732487, 0.025410514, -897620.25, 234153.28, 0.0, 10.00229, 9.998509 
1.5951122e+3, 1.9451274e+2, -857254.44, -1107339.1, -2541.2588, -0.02380178, 0.08247274, -857228.6, 176553.1, 0.0, 10.00187, 9.998558 
1.5950935e+3, 2.045115e+2, -812885.94, -997493.25, -6425.6426, -0.0171717, 0.088718355, -812662.5, 123131.016, 0.0, 10.001339, 9.998897 
1.5950753e+3, 2.1450981e+2, -808438.25, -939688.5, -7800.001, 0.03141652, 0.025238948, -807976.4, 29832.84, 0.0, 10.000676, 9.9989395 
1.5950565e+3, 2.245088e+2, -758796.1, -821588.8, -8606.969, 0.04288536, 0.015934248, -757637.75, -17818.943, 0.0, 10.000156, 9.999329 
1.5950373e+3, 2.3450865e+2, -706796.9, -740122.25, -3714.75, 0.007847981, 0.06254416, -706387.8, -64567.2, 0.0, 9.999818, 9.999378 
1.5950185e+3, 2.4450815e+2, -679382.5, -680447.7, -1059.0248, -0.0042373664, 0.07870324, -678729.7, -134903.48, 0.0, 9.999352, 9.999338 
1.5949997e+3, 2.5450724e+2, -669564.0, -622341.94, -3422.8767, 0.0117151, 0.05111906, -622095.1, -176259.4, 0.0, 9.998735, 9.999362 
1.5949808e+3, 2.6450682e+2, -630928.44, -531696.75, -276.291, -0.0018644906, 0.06687625, -531696.0, -183854.77, 0.0, 9.998237, 9.999551 
1.5949616e+3, 2.7450693e+2, -581371.75, -452834.78, 2462.3923, -0.052435357, 0.11943372, -452787.63, -202945.53, 0.0, 9.997886, 9.999588 
1.5949428e+3, 2.8450668e+2, -539605.6, -345595.66, 4881.6484, -0.064408, 0.12218014, -345472.9, -193626.92, 0.0, 9.997344, 9.999912 
1.5949243e+3, 2.9450622e+2, -557225.6, -304015.25, -14285.4375, -0.030918246, 0.08124677, -303211.88, -249361.22, 0.0, 9.996552, 9.999907 
1.5949057e+3, 3.0450708e+2, -547192.44, -204345.27, -26611.488, -0.00001330429, 0.15304959, -202292.0, -202292.0, 0.0, 9.995988, 10.000528 
1.594886e+3, 3.1450722e+2, -476602.2, 2532.0574, 19975.287, -0.03992753, 0.09838216, 3363.3923, 3363.3923, 0.0, 9.995726, 10.002075 
1.6052477e+3, 1.24546506e+2, -1099574.5, -1681632.3, -73383.71, -0.08235405, 0.06714441, -1090465.1, 628988.5, 0.027396144, 10.005517, 9.997574 
1.6052285e+3, 1.3454427e+2, -1169842.3, -1724531.9, 67326.12, -0.16112937, 0.13368031, -1161787.4, 459688.6, 0.016882626, 10.004531, 9.99708 
1.6052118e+3, 1.4454123e+2, -1105204.6, -1556970.1, 12785.223, 0.047683865, 0.08815848, -1104843.0, 418662.28, 0.0077784867, 10.003897, 9.997857 
1.6051911e+3, 1.5453902e+2, -1023786.44, -1460235.8, -12957.807, -0.044007633, 0.07324419, -1023402.06, 402123.47, 0.0022256991, 10.003733, 9.997927 
1.605171e+3, 1.6453685e+2, -968141.5, -1371478.4, 1958.7654, -0.09320994, 0.062825434, -968131.94, 359413.9, 0.00026665046, 10.0033865, 9.99803 
1.6051523e+3, 1.745347e+2, -949872.44, -1308781.5, 14278.229, -0.045583334, 0.03979262, -949305.3, 280261.5, 0.0000036433328, 10.002825, 9.998058 
1.6051334e+3, 1.8453296e+2, -905068.1, -1190895.6, 12500.418, -0.013423661, 0.044366825, -904522.44, 227061.17, 0.0, 10.00226, 9.998467 
1.6051142e+3, 1.9453181e+2, -886103.8, -1126680.5, 10815.693, -0.015218612, 0.07743471, -885618.56, 147976.27, 0.0, 10.0016985, 9.998507 
1.605095e+3, 2.0453048e+2, -839858.5, -1009065.44, 5502.155, -0.004226055, 0.078366436, -839679.75, 95927.79, 0.0, 10.00115, 9.998906 
1.6050757e+3, 2.1452898e+2, -815689.8, -941848.25, 8829.802, 0.027386088, 0.0321357, -815074.8, 22546.855, 0.0, 10.000622, 9.99895 
1.6050565e+3, 2.2452806e+2, -766740.7, -826063.6, 13594.789, 0.033125903, 0.031099863, -763773.6, -24143.035, 0.0, 10.000108, 9.999319 
1.605037e+3, 2.3452787e+2, -738332.75, -757070.1, 6753.3975, 0.003945384, 0.07594988, -736152.4, -94519.54, 0.0, 9.99961, 9.99936 
1.6050176e+3, 2.4452734e+2, -709381.1, -688454.7, 2859.5503, -0.004573322, 0.088493004, -688071.0, -144432.45, 0.0, 9.999121, 9.999394 
1.6049986e+3, 2.5452644e+2, -678771.56, -619627.06, 6457.754, 0.01336856, 0.054976366, -618930.1, -173282.28, 0.0, 9.998644, 9.999423 
1.6049792e+3, 2.6452604e+2, -634915.6, -526357.7, 16845.93, 0.0017117963, 0.06752196, -523803.66, -176150.77, 0.0, 9.998182, 9.999611 
1.6049594e+3, 2.745262e+2, -599297.0, -455212.22, 12961.577, -0.048523363, 0.12088262, -454055.5, -204402.48, 0.0, 9.997739, 9.99964 
1.60494e+3, 2.84526e+2, -551785.4, -350779.4, 16280.044, -0.062861204, 0.12358803, -349469.38, -197812.83, 0.0, 9.997259, 9.999916 
1.604921e+3, 2.9452553e+2, -531592.9, -290341.88, 22706.22, -0.032008436, 0.08134738, -288223.38, -234562.02, 0.0, 9.996725, 9.999915 
1.6049017e+3, 3.045265e+2, -512940.22, -163545.94, 22914.229, 0.0076818895, 0.1565735, -162049.56, -162049.56, 0.0, 9.9961195, 10.000744 
1.6048816e+3, 3.1452695e+2, -529828.94, -34762.895, 39449.516, -0.04816435, 0.11250233, -31639.057, -31639.057, 0.0, 9.995414, 10.001967 
1.6152537e+3, 1.2456649e+2, -1077787.1, -1632382.8, -101285.58, -0.04132553, 0.117470354, -1059868.3, 659392.8, 0.029133527, 10.005508, 9.997928 
1.6152324e+3, 1.345649e+2, -1138593.8, -1661605.6, 29383.035, -0.21987624, 0.20871592, -1136948.3, 484326.0, 0.018010536, 10.004547, 9.997505 
1.6152154e+3, 1.4456141e+2, -1133906.9, -1620738.3, 3103.846, 0.016483702, 0.11635622, -1133887.0, 389420.1, 0.008342988, 10.003913, 9.997413 
1.6151951e+3, 1.5455806e+2, -1057558.3, -1531746.8, -18501.982, -0.019246558, 0.035125203, -1056837.4, 368502.16, 0.0024103029, 10.003737, 9.997435 
1.6151747e+3, 1.6455588e+2, -953213.2, -1340131.9, -19066.2, -0.061785966, 0.038184598, -952275.94, 375084.7, 0.0002938313, 10.003383, 9.998248 
1.615155e+3, 1.745551e+2, -932989.4, -1273528.4, -6612.5596, -0.05664592, 0.12903734, -932861.0, 296507.2, 0.000004294035, 10.002821, 9.998303 
1.6151355e+3, 1.8455353e+2, -909631.1, -1199747.1, -9331.975, -0.027529005, 0.14062165, -909331.25, 222051.94, 0.0, 10.002256, 9.99841 
1.6151161e+3, 1.945511e+2, -891557.3, -1137892.6, -9849.595, 0.011852164, 0.052727625, -891164.1, 142242.16, 0.0, 10.001697, 9.998431 
1.6150963e+3, 2.0454954e+2, -834335.06, -997785.0, -14676.887, 0.01712552, 0.029803142, -833027.6, 102393.51, 0.0, 10.001149, 9.998985 
1.615076e+3, 2.1454902e+2, -809396.1, -929305.1, -9945.137, -0.01040466, 0.074373074, -808576.9, 28848.785, 0.0, 10.000623, 9.999037 
1.6150561e+3, 2.2454832e+2, -777254.2, -848575.8, -5204.497, -0.013971512, 0.09754886, -776876.44, -37443.594, 0.0, 10.000109, 9.999166 
1.6150367e+3, 2.345474e+2, -749645.44, -781108.06, -11033.962, 0.008971498, 0.085387066, -746161.6, -104718.805, 0.0, 9.999611, 9.999196 
1.6150169e+3, 2.4454667e+2, -699840.1, -668656.06, -14756.273, 0.010401004, 0.07929031, -662780.5, -119329.92, 0.0, 9.999119, 9.999532 
1.6149968e+3, 2.5454623e+2, -668354.7, -597519.4, -9692.319, -0.013856222, 0.07580933, -596217.1, -150762.38, 0.0, 9.99864, 9.9995775 
1.6149771e+3, 2.6454595e+2, -636347.44, -529807.8, 1334.6528, -0.0107579855, 0.09657474, -529791.06, -182332.95, 0.0, 9.998181, 9.999589 
1.6149579e+3, 2.7454594e+2, -600450.6, -459651.66, -1645.9188, 0.024635572, 0.1292111, -459632.44, -210171.38, 0.0, 9.997745, 9.999609 
1.614938e+3, 2.8454575e+2, -526717.4, -299994.16, -2804.3787, 0.009603102, 0.12391816, -299959.47, -148495.88, 0.0, 9.997263, 10.000264 
1.6149174e+3, 2.945457e+2, -504602.0, -235448.67, 4657.3926, -0.065129414, 0.08803181, -235368.11, -181905.16, 0.0, 9.996728, 10.000292 
1.6148974e+3, 3.0454674e+2, -519236.2, -177321.77, -2083.633, -0.046110682, 0.15010189, -177309.06, -177309.06, 0.0, 9.996121, 10.0006485 
1.614877e+3, 3.1454766e+2, -560384.44, -97789.28, 9445.016, -0.05540992, 0.16782029, -97596.52, -97596.52, 0.0, 9.995411, 10.001536 
1.6252592e+3, 1.2458656e+2, -1136739.4, -1672164.8, -66414.57, -0.023264633, 0.12918226, -1128624.3, 590440.2, 0.031020261, 10.005155, 9.997816 
1.625237e+3, 1.3458481e+2, -1056380.6, -1619341.0, 18315.307, -0.23320116, 0.2007562, -1055785.4, 565293.7, 0.019242628, 10.00512, 9.997518 
1.6252199e+3, 1.4458111e+2, -1027816.5, -1572789.0, -9263.368, 0.035133585, 0.08991052, -1027659.06, 495454.75, 0.008965357, 10.004668, 9.997376 
1.6251989e+3, 1.5457809e+2, -1047808.25, -1530955.4, -136.34204, -0.02010289, 0.04772883, -1047808.2, 377335.06, 0.0026171077, 10.003825, 9.997396 
1.6251779e+3, 1.6457604e+2, -996578.8, -1363620.5, 6090.3804, -0.06713795, 0.065048404, -996477.8, 330685.9, 0.0003247618, 10.003099, 9.998221 
1.6251579e+3, 1.7457508e+2, -980861.1, -1299618.6, -2419.8354, -0.047572523, 0.14138567, -980842.8, 248330.61, 0.000005034694, 10.002508, 9.998273 
1.6251378e+3, 1.8457349e+2, -936263.0, -1191138.0, -3801.7078, -0.014910525, 0.14269137, -936206.3, 194982.16, 0.0, 10.001983, 9.998599 
1.6251177e+3, 1.945712e+2, -901178.25, -1120186.3, 14344.9, 0.01381532, 0.049078614, -900242.6, 132966.63, 0.0, 10.001536, 9.998629 
1.6250972e+3, 2.0456971e+2, -838598.3, -999646.0, 19224.377, 0.012775415, 0.026210943, -836335.3, 98887.4, 0.0, 10.001121, 9.998985 
1.6250767e+3, 2.1456927e+2, -794406.9, -923200.1, 15005.959, -0.017427532, 0.07796428, -792681.6, 44545.31, 0.0, 10.000732, 9.999024 
1.6250563e+3, 2.2456852e+2, -772343.3, -857130.25, 12852.381, -0.017708734, 0.100131065, -770437.94, -31202.94, 0.0, 10.000191, 9.999066 
1.6250363e+3, 2.3456737e+2, -777009.2, -805682.94, 10626.151, 0.015604857, 0.07713178, -773500.56, -132253.28, 0.0, 9.999474, 9.999092 
1.625016e+3, 2.4456662e+2, -722360.94, -669072.0, 14671.447, 0.015186926, 0.070905454, -665299.75, -122044.49, 0.0, 9.998922, 9.999621 
1.6249952e+3, 2.545664e+2, -672491.75, -588774.06, 13585.177, -0.027270352, 0.081030965, -586624.7, -141367.69, 0.0, 9.998568, 9.999671 
1.624975e+3, 2.6456624e+2, -647282.0, -522661.34, 21668.879, -0.021907963, 0.10131193, -519001.1, -171741.84, 0.0, 9.998054, 9.999699 
1.6249555e+3, 2.7456614e+2, -651614.4, -471214.28, 28191.986, 0.041606188, 0.11632347, -466911.22, -217648.8, 0.0, 9.99734, 9.9997225 
1.6249351e+3, 2.845661e+2, -585209.25, -317319.66, 29466.207, 0.030324712, 0.11486225, -314116.84, -162853.38, 0.0, 9.996818, 10.000358 
1.624914e+3, 2.9456642e+2, -528400.4, -235921.42, 13930.06, -0.071207516, 0.10720174, -235259.47, -181999.94, 0.0, 9.99652, 10.000387 
1.6248932e+3, 3.0456716e+2, -515821.56, -179636.03, -6241.551, -0.05615947, 0.1354113, -179520.2, -179520.2, 0.0, 9.996161, 10.000613 
1.6248725e+3, 3.1456822e+2, -528329.2, -98575.34, 2700.5405, -0.049984284, 0.17060043, -98558.375, -98558.375, 0.0, 9.995698, 10.001394 
1.6352642e+3, 1.2460687e+2, -1169717.1, -1746001.4, -50184.203, -0.029809218, 0.11118581, -1165379.5, 553483.56, 0.03307394, 10.005184, 9.997286 
1.6352424e+3, 1.3460405e+2, -1082679.4, -1673889.6, 17374.498, -0.20851308, 0.114732645, -1082169.3, 538720.4, 0.020591484, 10.00512, 9.997145 
1.6352251e+3, 1.446004e+2, -1007115.3, -1525262.3, -40762.965, 0.09376891, 0.012399647, -1003928.1, 518996.5, 0.009652625, 10.004651, 9.997712 
1.6352023e+3, 1.5459913e+2, -1022803.25, -1478609.3, -30764.527, -0.046916757, 0.108670026, -1020736.1, 404200.66, 0.0028495374, 10.003821, 9.997759 
1.6351806e+3, 1.6459727e+2, -1014791.0, -1401440.0, -16602.717, -0.1085858, 0.13970555, -1014079.4, 312876.1, 0.0003608522, 10.003098, 9.997964 
1.6351606e+3, 1.7459469e+2, -1000963.0, -1342450.6, -23524.035, -0.021572264, 0.080573834, -999350.1, 229631.81, 0.000005927034, 10.002511, 9.997978 
1.63514e+3, 1.8459287e+2, -906248.1, -1129726.1, -20534.715, 0.018927293, 0.056270536, -904376.94, 226621.89, 0.0, 10.001985, 9.999021 
1.635119e+3, 1.9459207e+2, -869215.56, -1054618.0, -1659.9528, -0.010103073, 0.0663663, -869200.75, 163803.11, 0.0, 10.001537, 9.99908 
1.6350982e+3, 2.0459102e+2, -845382.3, -1013633.2, 4227.6147, -0.018307896, 0.06565003, -845276.2, 89736.62, 0.0, 10.001119, 9.998892 
1.6350776e+3, 2.145897e+2, -803345.25, -941506.06, 1047.867, 0.003620741, 0.043414105, -803337.3, 33688.49, 0.0, 10.000729, 9.998901 
1.6350567e+3, 2.245886e+2, -775843.25, -863945.7, -13880.466, 0.017921764, 0.040706173, -773708.1, -34670.88, 0.0, 10.000187, 9.9990225 
1.6350357e+3, 2.3458777e+2, -779944.56, -812054.06, -15161.049, 0.021199442, 0.051718745, -773917.4, -132870.94, 0.0, 9.999474, 9.999049 
1.6350147e+3, 2.4458718e+2, -720922.3, -666575.3, 1529.9552, 0.0065862117, 0.06395137, -666532.25, -123479.445, 0.0, 9.998921, 9.99964 
1.6349937e+3, 2.5458696e+2, -670480.9, -586163.6, 2045.7856, -0.028836451, 0.07069697, -586114.0, -141058.84, 0.0, 9.998571, 9.999688 
1.634973e+3, 2.6458684e+2, -630364.0, -488174.16, -3792.876, -0.03383158, 0.08137889, -488073.06, -141016.28, 0.0, 9.9980545, 9.999936 
1.6349524e+3, 2.7458683e+2, -634299.75, -435368.28, 3089.798, -0.0027847618, 0.081737235, -435320.28, -186262.67, 0.0, 9.997338, 9.99997 
1.6349317e+3, 2.8458697e+2, -598017.56, -344435.88, 18808.266, -0.006419323, 0.09608014, -343048.44, -191991.55, 0.0, 9.996817, 10.000174 
1.6349106e+3, 2.9458764e+2, -541726.5, -265869.47, 5143.0757, -0.05394538, 0.13956933, -265773.63, -212721.78, 0.0, 9.996527, 10.000179 
1.6348898e+3, 3.0458772e+2, -513228.66, -174973.45, -23017.494, -0.024436953, 0.112930596, -173414.36, -173414.36, 0.0, 9.996163, 10.000646 
1.6348684e+3, 3.145885e+2, -515336.44, -72131.75, -20779.793, -0.0335231, 0.11949768, -71159.62, -71159.62, 0.0, 9.995699, 10.001575 
1.64527e+3, 1.2462752e+2, -1020524.7, -1694026.9, -12622.54, -0.018250128, 0.07232806, -1020288.2, 698370.56, 0.035302397, 10.006354, 9.997083 
1.6452473e+3, 1.3462494e+2, -1115916.1, -1688904.4, 54256.16, -0.22508779, 0.09995166, -1110823.9, 509859.9, 0.0220615, 10.0048895, 9.997153 
1.6452295e+3, 1.4462145e+2, -1103601.8, -1556271.4, 13210.806, 0.11001822, 0.0042810845, -1103216.6, 419501.34, 0.010407191, 10.003918, 9.997851 
1.6452062e+3, 1.5462036e+2, -1041530.06, -1471909.6, 7862.2886, -0.030387096, 0.106014825, -1041386.44, 383341.72, 0.0031086747, 10.003627, 9.997897 
1.6451839e+3, 1.6461846e+2, -1000817.1, -1398952.5, 21410.918, -0.0986388, 0.13034466, -999669.0, 327077.88, 0.00040293386, 10.003213, 9.997924 
1.6451631e+3, 1.7461564e+2, -983631.56, -1339020.8, 30950.313, -0.023457468, 0.05120829, -980956.3, 247819.31, 0.0000070009137, 10.002654, 9.997932 
1.645142e+3, 1.8461381e+2, -894922.44, -1130400.8, 29307.355, 0.010673615, 0.030860543, -891329.7, 239463.19, 0.0, 10.002091, 9.998963 
1.6451204e+3, 1.9461326e+2, -876258.6, -1064542.3, 9941.124, -0.021750726, 0.07281945, -875735.2, 157060.89, 0.0, 10.001519, 9.999019 
1.645099e+3, 2.0461227e+2, -871860.25, -1026847.94, 1109.9064, -0.022546284, 0.08138606, -871852.3, 62952.473, 0.0, 10.00094, 9.998885 
1.6450782e+3, 2.146108e+2, -858357.1, -968512.56, 5014.163, 0.019705703, 0.042055655, -858129.3, -21309.791, 0.0, 10.000356, 9.998895 
1.645057e+3, 2.2460963e+2, -806537.2, -870124.1, 379.7203, 0.03569444, 0.0315433, -806534.94, -67703.7, 0.0, 9.999941, 9.999098 
1.6450353e+3, 2.3460892e+2, -737951.25, -783175.75, 5956.6016, 0.017909655, 0.04602618, -737179.8, -96341.08, 0.0, 9.999725, 9.9991255 
1.6450138e+3, 2.4460837e+2, -686910.25, -657030.3, 18415.945, 0.00062451157, 0.061128948, -648256.4, -105411.67, 0.0, 9.999185, 9.999578 
1.6449924e+3, 2.5460806e+2, -721358.75, -618320.44, 10909.126, -0.015654862, 0.06903636, -617178.06, -172329.92, 0.0, 9.998257, 9.999618 
1.6449709e+3, 2.646079e+2, -675087.2, -496382.53, 5312.455, -0.02290377, 0.074494354, -496224.75, -149374.7, 0.0, 9.997693, 10.000052 
1.6449498e+3, 2.746079e+2, -594305.5, -402743.53, 1263.7344, -0.019658154, 0.063831665, -402735.22, -153885.1, 0.0, 9.997558, 10.000088 
1.6449285e+3, 2.8460816e+2, -562406.8, -339985.7, 10462.339, -0.021185003, 0.08430444, -339494.66, -188645.88, 0.0, 9.997117, 10.000058 
1.6449073e+3, 2.9460892e+2, -584864.94, -299761.75, 1128.9901, -0.029606223, 0.15118074, -299757.28, -246913.73, 0.0, 9.996289, 10.000059 
1.644886e+3, 3.046087e+2, -558355.75, -195135.95, -10303.253, -0.008696707, 0.1015622, -194843.92, -194843.92, 0.0, 9.995851, 10.000655 
1.6448641e+3, 3.1460944e+2, -465378.72, -14569.7, -19199.625, -0.043364726, 0.104224145, -13753.48, -13753.48, 0.0, 9.995898, 10.001873 
1.6552766e+3, 1.2464852e+2, -1017341.7, -1680724.4, -38768.543, 0.0027950767, 0.010856657, -1015083.75, 703367.7, 0.037701104, 10.006338, 9.997187 
1.6552515e+3, 1.3464741e+2, -1091690.9, -1638073.5, -180.57033, -0.28086784, 0.15233567, -1091690.9, 528771.6, 0.023649707, 10.004895, 9.9975 
1.6552332e+3, 1.4464411e+2, -1106626.1, -1563561.6, -1030.8661, 0.08509812, 0.05915537, -1106623.9, 415871.06, 0.011228715, 10.003923, 9.9978 
1.6552103e+3, 1.5464176e+2, -1045318.06, -1482752.6, -2471.0645, 0.02318998, 0.042486686, -1045304.06, 379213.22, 0.0033946189, 10.003639, 9.997818 
1.6551875e+3, 1.6463967e+2, -987576.8, -1374003.1, 332.91714, -0.04570028, 0.042373978, -987576.56, 338961.06, 0.00045125975, 10.0032215, 9.998093 
1.6551654e+3, 1.746379e+2, -970186.2, -1312773.1, 10416.7705, -0.054087702, 0.0525258, -969869.75, 258685.27, 0.000008273259, 10.002658, 9.998112 
1.6551435e+3, 1.8463625e+2, -931284.75, -1206414.9, 7482.9565, -0.04016144, 0.06332287, -931081.4, 199490.08, 0.0, 10.002092, 9.998442 
1.6551219e+3, 1.9463477e+2, -914650.0, -1145389.0, -10938.005, -0.022854555, 0.06813558, -914132.7, 118453.47, 0.0, 10.001523, 9.998464 
1.6551003e+3, 2.0463349e+2, -865635.1, -1015153.1, -20826.16, -0.0032316886, 0.07440709, -862788.44, 71810.25, 0.0, 10.000944, 9.998965 
1.6550787e+3, 2.146325e+2, -850858.56, -953827.9, -16035.319, 0.028119933, 0.07322509, -848419.2, -11810.826, 0.0, 10.000358, 9.998996 
1.6550569e+3, 2.2463156e+2, -793754.6, -843990.25, -8324.78, 0.03265987, 0.071437135, -792411.0, -53793.81, 0.0, 9.99994, 9.999279 
1.6550349e+3, 2.3463076e+2, -724916.1, -756787.0, -942.1532, 0.0038962606, 0.059323166, -724888.3, -84263.71, 0.0, 9.999726, 9.999308 
1.6550128e+3, 2.4463011e+2, -697386.1, -678868.56, -14896.899, -0.00478666, 0.06196414, -670587.6, -127956.35, 0.0, 9.999183, 9.999431 
1.6549909e+3, 2.546297e+2, -732569.7, -641928.5, -22384.238, 0.009579677, 0.07544786, -636702.0, -192065.64, 0.0, 9.998256, 9.999457 
1.654969e+3, 2.6462945e+2, -676404.5, -500099.88, 363.33688, 0.008124972, 0.08115726, -500099.13, -153459.69, 0.0, 9.997694, 10.000028 
1.6549473e+3, 2.7462935e+2, -594636.4, -406264.94, -1282.9598, -0.012136085, 0.064750105, -406256.2, -157615.89, 0.0, 9.997566, 10.00006 
1.6549255e+3, 2.8462952e+2, -565098.4, -347488.47, -19223.69, -0.016292207, 0.07987355, -345803.28, -195163.44, 0.0, 9.997124, 10.000005 
1.6549037e+3, 2.9463017e+2, -587685.75, -305797.56, -29197.307, -0.0024719073, 0.13927631, -302805.13, -250169.48, 0.0, 9.996287, 10.00002 
1.6548817e+3, 3.0463004e+2, -559450.94, -196687.2, -8474.539, -0.014044419, 0.09951777, -196489.34, -196489.34, 0.0, 9.995846, 10.000648 
1.6548595e+3, 3.1463096e+2, -435168.22, 46356.77, -19771.572, -0.08564818, 0.121969014, 47167.234, 47167.234, 0.0, 9.995906, 10.002289 
1.6652825e+3, 1.2467094e+2, -1105456.9, -1735227.0, 18794.451, 0.001223851, -0.0016447839, -1104896.5, 613334.06, 0.040258814, 10.005779, 9.99707 
1.6652566e+3, 1.3467e+2, -1068269.0, -1614524.5, 5630.894, -0.27451307, 0.1473296, -1068211.0, 552029.25, 0.025351064, 10.005021, 9.997601 
1.6652374e+3, 1.446668e+2, -1045681.06, -1545820.8, 23918.12, 0.10171301, 0.06713424, -1044539.8, 477731.97, 0.012116908, 10.004402, 9.99769 
1.6652142e+3, 1.5466416e+2, -989091.44, -1468224.0, 21591.254, 0.013094301, 0.030989956, -988120.44, 436177.2, 0.003707958, 10.004084, 9.997703 
1.6651908e+3, 1.6466205e+2, -931510.56, -1341818.3, 7497.178, -0.06288454, 0.033540837, -931373.6, 394944.53, 0.000505959, 10.003586, 9.998137 
1.6651681e+3, 1.7466064e+2, -935238.6, -1290587.6, 6132.105, -0.05641892, 0.075068936, -935132.9, 293199.0, 0.000009797576, 10.002875, 9.998158 
1.6651458e+3, 1.8465891e+2, -925056.56, -1231869.9, 11899.921, -0.033137023, 0.08949728, -924595.7, 205753.39, 0.0, 10.002258, 9.998187 
1.6651236e+3, 1.9465688e+2, -900154.4, -1167810.1, 13439.932, -0.013627481, 0.06434956, -899481.2, 132888.75, 0.0, 10.001751, 9.9981985 
1.6651013e+3, 2.0465541e+2, -832943.7, -1003799.75, 8048.44, 0.0026223364, 0.06677994, -832565.4, 101819.42, 0.0, 10.001189, 9.998923 
1.6650791e+3, 2.1465465e+2, -824062.06, -944498.2, 1396.2599, 0.023573607, 0.09233233, -824045.9, 12346.426, 0.0, 10.000559, 9.998962 
1.6650568e+3, 2.2465378e+2, -794463.44, -839621.1, 5831.956, 0.02686292, 0.09760056, -793722.44, -55322.07, 0.0, 9.999916, 9.99932 
1.6650344e+3, 2.3465286e+2, -790380.6, -783518.94, 1613.278, 0.006735081, 0.070154555, -783158.56, -142750.06, 0.0, 9.999257, 9.99935 
1.6650118e+3, 2.4465218e+2, -749439.25, -698454.06, -15143.247, -0.0007571749, 0.06392527, -694295.56, -151880.14, 0.0, 9.998804, 9.999477 
1.6649893e+3, 2.546518e+2, -680194.94, -611785.3, -9060.463, 0.006101884, 0.07669608, -610605.6, -166185.66, 0.0, 9.998595, 9.999499 
1.6649668e+3, 2.6465166e+2, -626558.4, -486983.1, 21782.908, 0.00737758, 0.09161242, -483662.53, -137239.81, 0.0, 9.998085, 9.999928 
1.6649449e+3, 2.7465162e+2, -653777.44, -446889.9, 13008.318, 0.0028034144, 0.09346378, -446075.2, -197651.53, 0.0, 9.997214, 9.99995 
1.6649227e+3, 2.8465164e+2, -608807.75, -346790.7, 3724.4038, 0.0038454256, 0.09392612, -346737.75, -196313.66, 0.0, 9.996732, 10.000196 
1.6649003e+3, 2.94652e+2, -514734.5, -246881.92, 10246.861, 0.009237479, 0.104464695, -246490.48, -194069.11, 0.0, 9.996688, 10.00023 
1.6648775e+3, 3.0465227e+2, -534192.3, -202215.78, 32102.14, -0.032363594, 0.10361686, -199140.0, -199140.0, 0.0, 9.996097, 10.000488 
1.664855e+3, 3.146533e+2, -576199.25, -13074.728, 3554.1882, -0.07730163, 0.1538179, -13052.297, -13052.297, 0.0, 9.9949045, 10.002362 
1.6752881e+3, 1.24694556e+2, -1126252.0, -1779977.4, 22833.264, -0.023947038, 0.018156713, -1125455.5, 592542.6, 0.042964038, 10.005791, 9.996758 
1.6752622e+3, 1.346927e+2, -1075259.4, -1633327.3, -24493.637, -0.21564128, 0.088432245, -1074186.5, 545830.56, 0.02716307, 10.005044, 9.997461 
1.6752423e+3, 1.4468957e+2, -1055436.9, -1567864.6, 9358.018, 0.15014797, 0.030927604, -1055266.1, 466782.28, 0.013073933, 10.004411, 9.997536 
1.6752174e+3, 1.5468751e+2, -1000407.56, -1490419.6, 10773.659, -0.05821118, 0.06836947, -1000170.8, 423898.6, 0.004050763, 10.004076, 9.997555 
1.6751935e+3, 1.6468558e+2, -938674.2, -1354752.1, -18831.16, -0.14717536, 0.09838319, -937823.6, 388265.38, 0.0005674548, 10.003576, 9.9980545 
1.6751711e+3, 1.7468385e+2, -940907.75, -1303345.5, -20209.693, -0.034000505, 0.11692729, -939784.4, 288321.88, 0.000011659807, 10.002878, 9.998072 
1.6751486e+3, 1.8468185e+2, -924377.1, -1231591.1, -7450.836, 0.02536428, 0.10930139, -924196.56, 205929.23, 0.0, 10.002261, 9.998189 
1.6751255e+3, 1.946796e+2, -899943.94, -1167822.0, -4558.958, 0.0028825775, 0.061690662, -899866.4, 132281.27, 0.0, 10.001751, 9.998199 
1.6751024e+3, 2.04678e+2, -844421.0, -1027749.06, -15464.58, -0.007490209, 0.058746427, -843125.7, 91037.75, 0.0, 10.001188, 9.998761 
1.6750795e+3, 2.146772e+2, -836113.06, -970192.1, -21303.416, 0.0047198012, 0.09913839, -832809.6, 3361.9875, 0.0, 10.00056, 9.998787 
1.6750565e+3, 2.2467625e+2, -801137.56, -853993.7, -18573.572, 0.016579766, 0.11016828, -795263.56, -57082.703, 0.0, 9.999917, 9.999222 
1.6750339e+3, 2.346752e+2, -796912.5, -797966.75, -21817.914, 0.024601886, 0.07859843, -775615.4, -135424.52, 0.0, 9.999259, 9.99925 
1.6750108e+3, 2.4467452e+2, -732978.8, -665243.0, -23004.63, 0.009995485, 0.067249686, -658168.9, -115971.46, 0.0, 9.998805, 9.999706 
1.6749874e+3, 2.5467435e+2, -663046.7, -577506.44, -14962.7295, -0.030051837, 0.073515035, -574964.7, -130765.34, 0.0, 9.998598, 9.999735 
1.6749646e+3, 2.6467434e+2, -638928.4, -513808.4, -8928.73, -0.02807367, 0.10536301, -513174.47, -166974.06, 0.0, 9.998087, 9.999744 
1.6749422e+3, 2.7467456e+2, -667276.5, -475372.56, -17805.545, 0.023179803, 0.14858387, -473734.5, -225533.66, 0.0, 9.997214, 9.999756 
1.6749199e+3, 2.8467447e+2, -578475.2, -284403.06, 2579.6724, 0.03660596, 0.12631702, -284380.44, -134178.4, 0.0, 9.996732, 10.000626 
1.674897e+3, 2.946744e+2, -480835.94, -179176.64, 11497.655, -0.000193826, 0.05109918, -178739.05, -126538.33, 0.0, 9.996697, 10.000691 
1.6748732e+3, 3.046754e+2, -557205.94, -252134.58, -11128.761, -0.06753571, 0.1154213, -251729.16, -251729.16, 0.0, 9.996103, 10.000143 
1.6748504e+3, 3.146764e+2, -601394.2, -63295.78, -35270.637, -0.021185715, 0.1994263, -60993.75, -60993.75, 0.0, 9.994894, 10.002023 
1.685294e+3, 1.2471845e+2, -1077660.9, -1778639.5, 43646.82, -0.035088696, 0.052426398, -1074953.6, 642810.5, 0.04580752, 10.00626, 9.996541 
1.6852674e+3, 1.347159e+2, -1002831.7, -1612073.0, -40115.293, -0.2129076, 0.0665427, -1000201.6, 619588.4, 0.029085515, 10.005629, 9.997327 
1.6852468e+3, 1.4471295e+2, -999864.0, -1533552.8, 3371.6057, 0.14578585, 0.03058064, -999842.75, 521976.9, 0.014103935, 10.004771, 9.997598 
1.6852213e+3, 1.5471116e+2, -1034619.25, -1499190.5, 19537.094, -0.056018144, 0.08723827, -1033799.06, 390038.78, 0.0044267, 10.003809, 9.997623 
1.6851969e+3, 1.647092e+2, -1003804.2, -1399437.3, 4157.7827, -0.1395141, 0.11786145, -1003760.5, 322097.22, 0.00063672714, 10.003185, 9.997936 
1.6851743e+3, 1.7470714e+2, -940990.9, -1317001.8, -272.41812, -0.022121355, 0.11686306, -940990.6, 286887.9, 0.00001399049, 10.002936, 9.997949 
1.685151e+3, 1.847051e+2, -887652.94, -1199465.8, 10092.183, 0.034253065, 0.1032066, -887326.6, 242571.88, 0.0, 10.002452, 9.998317 
1.685127e+3, 1.9470306e+2, -899170.8, -1152589.1, 20939.088, -0.0010830932, 0.06603167, -897452.4, 134464.72, 0.0, 10.001692, 9.998332 
1.6851033e+3, 2.0470141e+2, -862057.1, -1050946.0, 22224.537, -0.013841129, 0.057729322, -859477.44, 74455.55, 0.0, 10.001131, 9.99863 
1.6850801e+3, 2.1470024e+2, -811386.56, -973335.6, 17944.814, 0.007481561, 0.07513168, -809422.0, 26523.012, 0.0, 10.000796, 9.998651 
1.6850567e+3, 2.2469918e+2, -751246.56, -839960.06, 16100.836, 0.01928822, 0.086195245, -748414.8, -10459.042, 0.0, 10.000305, 9.99913 
1.6850331e+3, 2.3469831e+2, -748483.9, -784820.3, 11750.327, 0.017073195, 0.08051018, -745015.2, -105050.62, 0.0, 9.999638, 9.999157 
1.6850094e+3, 2.4469763e+2, -709118.1, -654494.8, 10659.564, 0.0030158542, 0.077085696, -652488.3, -110517.12, 0.0, 9.998975, 9.999698 
1.6849859e+3, 2.5469732e+2, -705965.6, -599044.44, -967.3484, -0.024553435, 0.07078719, -599035.7, -155061.25, 0.0, 9.998309, 9.999726 
1.6849625e+3, 2.646973e+2, -675328.3, -521991.75, -279.55786, -0.022862349, 0.10095962, -521991.25, -176015.95, 0.0, 9.997799, 9.999826 
1.6849394e+3, 2.7469772e+2, -624004.56, -445261.9, 10499.948, 0.014185438, 0.15531465, -444647.22, -196673.42, 0.0, 9.997474, 9.999837 
1.6849165e+3, 2.846977e+2, -554284.5, -270389.34, 32173.877, 0.030944617, 0.13736677, -266788.75, -116814.484, 0.0, 9.996889, 10.000646 
1.6848934e+3, 2.9469764e+2, -582478.1, -224109.77, 5967.8984, 0.018168598, 0.05632315, -224010.4, -172036.73, 0.0, 9.995983, 10.000727 
1.6848691e+3, 3.0469912e+2, -639202.7, -260244.69, -17150.148, -0.06495403, 0.15290199, -259470.13, -259470.13, 0.0, 9.995407, 10.000422 
1.6848457e+3, 3.1469956e+2, -550719.44, -39871.195, 15740.594, 0.00270643, 0.15531342, -39386.65, -39386.65, 0.0, 9.995245, 10.002014 
1.6953003e+3, 1.24742486e+2, -1089928.5, -1801722.5, 52398.867, -0.037698947, 0.08416243, -1086091.9, 631438.1, 0.04878665, 10.006261, 9.996384 
1.6952726e+3, 1.3473961e+2, -1015351.0, -1632052.9, -63358.605, -0.26330182, 0.07810035, -1008909.0, 610650.2, 0.031120265, 10.0056095, 9.9972 
1.6952512e+3, 1.447369e+2, -986552.1, -1501238.3, -32974.44, 0.09108075, 0.06222347, -984448.1, 537137.6, 0.015211463, 10.004754, 9.997831 
1.6952258e+3, 1.5473506e+2, -1015630.44, -1462466.4, -15646.424, 0.010553928, 0.08930824, -1015083.25, 408519.8, 0.00484029, 10.00382, 9.997871 
1.695201e+3, 1.6473292e+2, -1011907.3, -1419575.6, -5842.6553, -0.05131054, 0.09606416, -1011823.56, 313800.66, 0.0007154005, 10.003198, 9.997793 
1.6951771e+3, 1.7473054e+2, -951403.9, -1339524.1, -8267.848, -0.022514751, 0.0769586, -951227.8, 276421.0, 0.000016975888, 10.002938, 9.997795 
1.6951531e+3, 1.8472862e+2, -871330.2, -1165410.6, -17539.506, -0.006083688, 0.07279452, -870287.75, 259379.58, 0.0, 10.002449, 9.998553 
1.6951285e+3, 1.9472724e+2, -881220.3, -1116735.4, -7045.314, -0.026131526, 0.07706603, -881009.75, 150668.88, 0.0, 10.001696, 9.998578 
1.6951045e+3, 2.0472562e+2, -868924.75, -1066092.6, 9007.126, -0.018160429, 0.06323139, -868514.1, 65179.742, 0.0, 10.001133, 9.998525 
1.695081e+3, 2.1472374e+2, -819109.4, -989933.6, 6260.515, 0.029457346, 0.020997407, -818880.25, 16832.559, 0.0, 10.000796, 9.998537 
1.6950572e+3, 2.2472253e+2, -757525.9, -853022.4, -8652.782, 0.03180865, 0.026574986, -756748.2, -19022.93, 0.0, 10.000303, 9.9990425 
1.6950324e+3, 2.3472211e+2, -755212.0, -799079.25, -11988.225, -0.018287644, 0.07588233, -752149.56, -112419.42, 0.0, 9.999637, 9.999061 
1.6950083e+3, 2.4472147e+2, -727609.8, -692664.9, -13447.85, -0.02331801, 0.092855684, -688088.94, -146351.73, 0.0, 9.998972, 9.999438 
1.6949846e+3, 2.547207e+2, -724320.6, -637461.8, -24181.014, 0.021922255, 0.06851951, -631183.75, -187438.1, 0.0, 9.998308, 9.999463 
1.6949607e+3, 2.6472056e+2, -650810.3, -472161.47, -11758.105, 0.021236345, 0.07849376, -471390.9, -125643.09, 0.0, 9.997801, 10.000169 
1.6949365e+3, 2.7472112e+2, -597753.75, -393355.06, 897.73236, -0.030324992, 0.114300996, -393351.13, -145608.13, 0.0, 9.997482, 10.00019 
1.6949129e+3, 2.847214e+2, -582980.44, -331757.0, -443.69345, -0.017877264, 0.12747073, -331756.22, -182014.89, 0.0, 9.996895, 10.000223 
1.69489e+3, 2.9472163e+2, -613455.8, -286280.13, -26844.387, 0.06291384, 0.12243752, -284092.22, -232351.3, 0.0, 9.995973, 10.000307 
1.6948648e+3, 3.0472332e+2, -574048.94, -124399.19, -23273.85, -0.02734762, 0.2128658, -123197.74, -123197.74, 0.0, 9.995401, 10.001359 
1.6948408e+3, 3.1472296e+2, -520753.47, 17451.336, 29433.379, -0.019366004, 0.045160342, 19056.205, 19056.205, 0.0, 9.995265, 10.002399 
1.7053066e+3, 1.2476697e+2, -1057716.1, -1758294.9, 91983.5, -0.032432634, 0.093671486, -1045840.3, 671450.75, 0.051903915, 10.006396, 9.996618 
1.705278e+3, 1.3476409e+2, -1089208.5, -1650881.9, -37533.83, -0.24355198, 0.07107641, -1086711.5, 532607.94, 0.033270046, 10.005022, 9.997352 
1.7052554e+3, 1.447616e+2, -1062617.8, -1536847.6, 17396.313, 0.07272481, 0.069743074, -1061980.5, 459362.8, 0.016399965, 10.004225, 9.997839 
1.7052299e+3, 1.5475947e+2, -962828.8, -1435935.6, 19038.97, 0.017618801, 0.06665096, -962063.9, 461299.25, 0.005295314, 10.004183, 9.997879 
1.7052044e+3, 1.6475719e+2, -927504.6, -1375806.4, 24455.365, -0.039526746, 0.059164267, -926174.5, 399210.66, 0.00080522004, 10.003765, 9.997821 
1.70518e+3, 1.7475489e+2, -951100.7, -1336635.1, 33110.703, -0.03275784, 0.04552139, -948277.75, 279130.9, 0.000020835996, 10.002929, 9.997819 
1.7051552e+3, 1.8475299e+2, -891905.75, -1186176.0, 20573.762, -0.023186171, 0.048004072, -890474.3, 238952.75, 0.0, 10.002355, 9.998456 
1.7051303e+3, 1.9475159e+2, -833306.5, -1104261.4, 5023.7944, -0.033512104, 0.05955387, -833213.4, 198225.84, 0.0, 10.002073, 9.998481 
1.7051059e+3, 2.0475e+2, -807844.6, -1038549.5, 10460.353, -0.018690482, 0.055675372, -807371.3, 126083.12, 0.0, 10.001563, 9.998506 
1.7050819e+3, 2.1474825e+2, -821995.06, -993469.5, 13216.156, 0.031264056, 0.02726768, -820982.4, 14489.857, 0.0, 10.000788, 9.998516 
1.7050573e+3, 2.2474697e+2, -785438.8, -876063.1, 1613.907, 0.031370673, 0.033430923, -785410.06, -47924.758, 0.0, 10.0001545, 9.998955 
1.705032e+3, 2.3474632e+2, -755179.56, -808949.4, -3499.0056, -0.02597551, 0.069391966, -754952.9, -115460.32, 0.0, 9.999682, 9.99897 
1.7050073e+3, 2.447456e+2, -710429.56, -691420.6, -758.08966, -0.028627412, 0.08481436, -691390.44, -149889.89, 0.0, 9.999122, 9.9993725 
1.704983e+3, 2.5474483e+2, -706749.25, -636081.1, 2063.1538, 0.030026343, 0.069626346, -636020.94, -192512.2, 0.0, 9.998463, 9.999397 
1.7049587e+3, 2.6474464e+2, -653565.1, -480286.94, 14080.45, 0.030327724, 0.07825356, -479150.22, -133638.44, 0.0, 9.997814, 10.000106 
1.7049336e+3, 2.7474502e+2, -648725.2, -425034.47, -6670.5684, -0.034217283, 0.10355635, -424835.75, -177327.05, 0.0, 9.997165, 10.000125 
1.7049095e+3, 2.847453e+2, -623138.8, -357870.97, -15304.44, -0.021738676, 0.1227837, -356990.94, -207483.6, 0.0, 9.996652, 10.00016 
1.7048861e+3, 2.947456e+2, -567266.9, -269922.53, -14028.658, 0.07563473, 0.13330811, -269262.13, -217755.58, 0.0, 9.996318, 10.000252 
1.7048603e+3, 3.0474728e+2, -500375.63, -38542.516, -12274.232, -0.02013117, 0.20204021, -38216.53, -38216.53, 0.0, 9.995692, 10.001809 
1.7048357e+3, 3.1474742e+2, -610271.06, -34230.957, 19592.285, -0.014421229, 0.041820444, -33565.35, -33565.35, 0.0, 9.994692, 10.002318 
1.715313e+3, 1.2479177e+2, -1029238.25, -1683281.8, 68171.91, -0.020651044, 0.07229573, -1022208.1, 694840.5, 0.05515611, 10.006354, 9.997165 
1.7152838e+3, 1.347893e+2, -1062310.5, -1593679.3, -88191.14, -0.16510856, 0.04981354, -1048055.9, 571015.25, 0.035533722, 10.005029, 9.997748 
1.7152597e+3, 1.4478701e+2, -1074785.5, -1565142.9, 12876.173, 0.080768436, 0.057759035, -1074447.6, 446644.78, 0.017670408, 10.004239, 9.997639 
1.7152335e+3, 1.5478432e+2, -977875.5, -1466965.4, 18413.807, -0.032641314, 0.0190943, -977183.2, 445935.16, 0.0057941363, 10.004182, 9.997667 
1.7152077e+3, 1.6478197e+2, -916133.3, -1351511.3, -6261.7144, -0.10043605, 0.007333445, -916043.3, 409097.56, 0.0009077386, 10.003759, 9.997992 
1.7151827e+3, 1.7478013e+2, -937039.06, -1310107.0, 2058.8708, -0.05420641, 0.02274243, -937027.75, 290130.84, 0.000025810483, 10.002937, 9.997999 
1.7151576e+3, 1.8477815e+2, -920113.7, -1246861.3, 8967.831, -0.022157222, 0.028857937, -919867.75, 209310.31, 0.0, 10.002361, 9.998037 
1.7151324e+3, 1.9477606e+2, -863014.06, -1167352.0, -4682.2227, -0.026315361, 0.013581631, -862942.06, 168257.0, 0.0, 10.002076, 9.998048 
1.7151074e+3, 2.0477453e+2, -803863.06, -1030118.9, -17904.408, -0.018297408, 0.035681248, -802455.0, 130759.73, 0.0, 10.00156, 9.998567 
1.7150824e+3, 2.147737e+2, -817793.5, -984592.5, -14905.872, 0.0111126965, 0.09224759, -816471.94, 18751.797, 0.0, 10.000785, 9.99858 
1.7150572e+3, 2.2477248e+2, -793315.3, -891751.56, -16304.079, 0.016336935, 0.10457652, -790685.2, -53448.777, 0.0, 10.00015, 9.99885 
1.7150317e+3, 2.3477092e+2, -762299.8, -824315.94, -19934.852, -0.007418682, 0.060604896, -756444.6, -117192.46, 0.0, 9.999682, 9.998865 
1.7150065e+3, 2.4476996e+2, -701684.75, -673298.44, -24591.342, -0.015648296, 0.052811064, -659098.25, -117836.45, 0.0, 9.999121, 9.999499 
1.7149812e+3, 2.547697e+2, -697728.7, -618122.4, -20713.096, -0.005303239, 0.074914046, -613055.44, -169791.19, 0.0, 9.998465, 9.99952 
1.7149562e+3, 2.6476946e+2, -687676.4, -552343.94, -9310.008, 0.0012301381, 0.10068215, -551706.44, -206438.69, 0.0, 9.997817, 9.999611 
1.7149313e+3, 2.7476934e+2, -684342.5, -499024.25, -29872.018, 0.0020064877, 0.1240058, -494328.1, -247056.47, 0.0, 9.997163, 9.9996195 
1.7149065e+3, 2.8476933e+2, -601354.44, -312711.88, -27486.625, 0.01737659, 0.12316608, -310117.72, -160844.64, 0.0, 9.99665, 10.000472 
1.7148821e+3, 2.947695e+2, -542750.1, -222526.56, -22969.36, 0.049049426, 0.0870969, -220887.38, -169616.0, 0.0, 9.996331, 10.000571 
1.7148557e+3, 3.0477092e+2, -506000.84, -54558.438, -49715.645, -0.0501731, 0.118350625, -49148.277, -49148.277, 0.0, 9.9957075, 10.001694 
1.7148307e+3, 3.14773e+2, -648382.06, -112305.48, 7147.161, 0.006752202, 0.16140366, -112210.2, -112210.2, 0.0, 9.994685, 10.001787 
1.7253189e+3, 1.2481779e+2, -1171694.9, -1736124.5, 132366.2, -0.019165186, 0.071196064, -1142195.1, 574598.06, 0.05853602, 10.005257, 9.997328 
1.7252894e+3, 1.348152e+2, -1040928.6, -1585226.1, -74208.14, -0.11536366, 0.03867085, -1030992.6, 587824.25, 0.037906602, 10.005206, 9.997724 
1.7252639e+3, 1.4481294e+2, -999207.0, -1533186.3, 30528.775, 0.064487875, 0.053945225, -997467.25, 523370.7, 0.019021083, 10.004797, 9.99759 
1.7252374e+3, 1.548102e+2, -990083.3, -1478301.6, 47064.465, -0.047895256, 0.01856332, -985587.7, 437276.34, 0.0063376864, 10.004124, 9.997617 
1.7252111e+3, 1.6480786e+2, -939543.44, -1370286.9, 14059.468, -0.109026365, 0.011210676, -939085.0, 385801.8, 0.0010243602, 10.0036335, 9.997922 
1.7251857e+3, 1.7480598e+2, -885176.2, -1292761.3, 3189.6816, -0.054629594, 0.030187715, -885151.2, 341753.8, 0.00003215152, 10.003328, 9.997929 
1.7251602e+3, 1.848039e+2, -859986.9, -1234028.6, 14174.13, -0.022561086, 0.03704743, -859450.5, 269475.13, 0.0, 10.002846, 9.997891 
1.7251344e+3, 1.9480167e+2, -860347.1, -1182956.6, 19478.518, -0.035617106, 0.022156676, -859175.3, 171773.06, 0.0, 10.002169, 9.997896 
1.7251088e+3, 2.048e+2, -816659.3, -1049453.5, 3247.4128, -0.03271502, 0.043231357, -816614.06, 116351.62, 0.0, 10.001531, 9.998447 
1.7250831e+3, 2.14799e+2, -804079.7, -990680.7, -9080.809, -0.0050686724, 0.09635164, -803638.8, 31337.36, 0.0, 10.000937, 9.998464 
1.7250574e+3, 2.247977e+2, -768088.94, -875629.5, -7593.6646, 0.00900015, 0.105455816, -767555.4, -30565.938, 0.0, 10.000308, 9.998883 
1.7250314e+3, 2.3479614e+2, -767527.9, -822314.9, -1959.84, 0.0054682037, 0.059368245, -767457.9, -128453.02, 0.0, 9.99963, 9.998902 
1.7250057e+3, 2.4479523e+2, -711803.7, -686828.56, -6688.67, -0.007437225, 0.057559766, -685150.06, -144135.89, 0.0, 9.999091, 9.999418 
1.7249794e+3, 2.54795e+2, -668948.7, -613748.06, -20392.096, -0.028915988, 0.092534624, -607032.0, -164015.44, 0.0, 9.998706, 9.9994335 
1.7249538e+3, 2.6479462e+2, -645155.0, -541950.0, -7937.825, -0.019543223, 0.110718645, -541343.06, -196321.19, 0.0, 9.998156, 9.999518 
1.7249288e+3, 2.7479416e+2, -652355.4, -493934.6, 1264.6548, 0.021399261, 0.10921337, -493924.5, -246895.38, 0.0, 9.99743, 9.999524 
1.7249034e+3, 2.8479424e+2, -583225.94, -291551.78, 19878.77, 0.036886554, 0.12036163, -290203.2, -141174.11, 0.0, 9.996723, 10.000581 
1.7248781e+3, 2.947949e+2, -579055.5, -230078.83, 7004.9927, 0.028787164, 0.12149812, -229938.27, -178916.2, 0.0, 9.996041, 10.000658 
1.7248513e+3, 3.0479544e+2, -558010.5, -110480.04, -45080.81, -0.052688826, 0.07780607, -105984.1, -105984.1, 0.0, 9.995485, 10.001416 
1.7248255e+3, 3.1479806e+2, -615526.6, -120358.625, 24218.322, 0.017927896, 0.2014263, -119176.945, -119176.945, 0.0, 9.995016, 10.001572 
1.735324e+3, 1.24844946e+2, -1186861.5, -1768419.4, 139029.47, -0.031967252, 0.09033273, -1155333.9, 561191.6, 0.062048964, 10.005269, 9.997102 
1.7352948e+3, 1.3484173e+2, -1070294.5, -1644237.9, -78825.18, -0.09423619, 0.03350633, -1059665.5, 558891.75, 0.040388484, 10.005202, 9.997314 
1.7352684e+3, 1.4483936e+2, -995964.0, -1523019.4, 4362.0566, 0.02409369, 0.055992737, -995927.94, 524652.0, 0.020450104, 10.004787, 9.997665 
1.7352417e+3, 1.5483715e+2, -983207.94, -1465335.9, 22046.459, -0.034178335, 0.063315935, -982201.9, 440398.63, 0.0069256634, 10.004129, 9.9977045 
1.7352152e+3, 1.6483481e+2, -959640.2, -1413316.1, 1308.1189, -0.07526211, 0.06857334, -959636.4, 364987.06, 0.0011560619, 10.003637, 9.997626 
1.7351893e+3, 1.748324e+2, -906283.0, -1337153.1, -7964.1167, -0.038099065, 0.06408017, -906135.8, 320512.34, 0.00004011834, 10.003328, 9.997624 
1.735163e+3, 1.8483022e+2, -853752.0, -1220207.4, -10964.365, -0.0267285, 0.07021836, -853424.25, 275245.7, 0.0, 10.002839, 9.997991 
1.7351364e+3, 1.9482836e+2, -853340.4, -1168109.4, -5143.58, -0.062846564, 0.08245779, -853256.4, 177431.36, 0.0, 10.002165, 9.998001 
1.7351098e+3, 2.048263e+2, -838359.0, -1093925.8, -19380.195, -0.063957855, 0.07621305, -836897.7, 95810.09, 0.0, 10.001526, 9.998145 
1.7350839e+3, 2.148241e+2, -825544.94, -1036154.75, -30090.97, -0.019608146, 0.03978875, -821330.0, 13399.827, 0.0, 10.000938, 9.998152 
1.7350577e+3, 2.2482261e+2, -756505.44, -851465.94, -32331.154, 0.006324053, 0.03772536, -746542.9, -9798.173, 0.0, 10.000306, 9.999051 
1.7350313e+3, 2.3482199e+2, -756009.56, -798164.2, -25915.572, 0.009879019, 0.06677333, -743682.25, -104931.35, 0.0, 9.999627, 9.999071 
1.7350046e+3, 2.4482135e+2, -733460.75, -731530.3, -20725.922, -0.0064966623, 0.09925286, -711747.1, -170988.98, 0.0, 9.999088, 9.999114 
1.734978e+3, 2.548207e+2, -690313.2, -659021.06, -33271.04, -0.042356946, 0.12190514, -637900.8, -195134.53, 0.0, 9.998707, 9.999123 
1.7349519e+3, 2.6481998e+2, -623079.8, -497222.56, -33940.664, -0.034215655, 0.10747589, -488653.1, -143878.3, 0.0, 9.998158, 9.9998255 
1.734926e+3, 2.7481937e+2, -628650.4, -447487.38, -24120.615, 0.017578198, 0.059449807, -444330.88, -197549.19, 0.0, 9.99744, 9.999839 
1.7349e+3, 2.8482002e+2, -589465.44, -307696.3, -5028.515, 0.03120725, 0.11501636, -307606.6, -158830.67, 0.0, 9.996735, 10.000466 
1.734874e+3, 2.9482174e+2, -590787.56, -255694.3, -16038.01, 0.012764314, 0.23878153, -254928.44, -204169.22, 0.0, 9.996043, 10.0004835 
1.734847e+3, 3.0482087e+2, -589912.1, -176733.1, -62396.63, -0.030293752, 0.08615176, -167515.83, -167515.83, 0.0, 9.995483, 10.000962 
1.7348205e+3, 3.148222e+2, -604261.25, -99879.516, 31107.88, 0.005694475, 0.11990793, -97968.17, -97968.17, 0.0, 9.9950285, 10.001706 
1.7453296e+3, 1.2487155e+2, -1111021.9, -1731211.6, 118888.445, -0.0250948, 0.07663726, -1089012.4, 627251.94, 0.065714285, 10.005857, 9.99707 
1.7453e+3, 1.3486852e+2, -1084487.8, -1667902.5, -89497.64, -0.08148711, 0.053465664, -1071067.3, 547227.94, 0.04298578, 10.005189, 9.997158 
1.7452723e+3, 1.4486603e+2, -1024575.7, -1538992.0, -5394.95, -0.03715914, 0.07344096, -1024519.1, 495800.44, 0.021957198, 10.004604, 9.9976425 
1.7452459e+3, 1.5486376e+2, -978849.5, -1465199.8, 2688.1016, -0.029255196, 0.07633561, -978834.6, 443506.06, 0.0075570517, 10.004173, 9.997684 
1.7452191e+3, 1.6486138e+2, -956233.44, -1423664.1, -9687.291, -0.047162622, 0.08325735, -956032.75, 368331.44, 0.0013031173, 10.003715, 9.997518 
1.7451924e+3, 1.748589e+2, -928633.25, -1360123.6, -6705.83, -0.03736451, 0.0845527, -928529.06, 297860.63, 0.0000499099, 10.00323, 9.997514 
1.7451656e+3, 1.8485668e+2, -876380.94, -1224022.9, -13809.53, -0.03336164, 0.091037676, -875833.25, 252578.4, 0.0000000000000006446772, 10.002657, 9.998052 
1.7451385e+3, 1.9485484e+2, -875513.3, -1171610.9, -12584.558, -0.05582169, 0.098124295, -874979.44, 155449.48, 0.0, 10.001985, 9.998062 
1.7451115e+3, 2.0485267e+2, -846330.25, -1087827.9, -7774.736, -0.054960284, 0.073372506, -846080.2, 86369.086, 0.0, 10.0014305, 9.998232 
1.7450847e+3, 2.1485025e+2, -810953.75, -1019640.2, 9044.242, -0.021724775, 0.005296076, -810562.56, 23909.883, 0.0, 10.000999, 9.998235 
1.7450579e+3, 2.2484872e+2, -740532.6, -860354.9, 5454.2227, -0.0058727283, 0.0036608214, -740284.8, -3797.3606, 0.0, 10.000489, 9.9989 
1.7450306e+3, 2.3484828e+2, -727682.75, -801623.9, -14085.322, -0.0114762755, 0.06695481, -725090.5, -86597.66, 0.0, 9.999898, 9.998916 
1.7450036e+3, 2.4484764e+2, -718006.1, -729793.56, -9222.889, -0.018912205, 0.110350326, -712954.6, -172454.0, 0.0, 9.999222, 9.999061 
1.7449766e+3, 2.548468e+2, -731668.1, -684699.8, -3453.4658, -0.026275666, 0.118799366, -684447.25, -241936.34, 0.0, 9.998451, 9.999068 
1.74495e+3, 2.6484606e+2, -666167.0, -499739.3, -1868.4907, -0.01675697, 0.099354506, -499718.34, -155199.11, 0.0, 9.9977865, 9.999985 
1.7449231e+3, 2.7484566e+2, -647644.6, -438316.4, -5082.705, 0.0054242727, 0.056299437, -438193.06, -191669.53, 0.0, 9.997233, 10.0 
1.7448965e+3, 2.8484645e+2, -590473.6, -310514.75, 14262.507, 0.006131667, 0.12133763, -309790.0, -161273.9, 0.0, 9.99674, 10.0004425 
1.74487e+3, 2.9484832e+2, -561312.3, -250438.38, 9113.469, -0.0014827695, 0.25980118, -250171.44, -199672.58, 0.0, 9.996288, 10.000401 
1.7448428e+3, 3.0484694e+2, -584114.06, -210463.05, -28065.936, 0.015268088, 0.08096519, -208366.7, -208366.7, 0.0, 9.995683, 10.000635 
1.7448151e+3, 3.1484792e+2, -587996.5, -42342.016, 84731.07, -0.019310918, 0.10858753, -29487.512, -29487.512, 0.0, 9.994928, 10.002151 
1.7553356e+3, 1.24897815e+2, -1111399.4, -1717411.0, 90073.45, 0.000704846, 0.041015457, -1098294.9, 617712.7, 0.069548994, 10.0058155, 9.997184 
1.7553052e+3, 1.3489562e+2, -1082920.5, -1660746.6, -113846.164, -0.08037461, 0.09729068, -1061299.0, 556731.25, 0.04570502, 10.005181, 9.997214 
1.7552762e+3, 1.44893e+2, -1033580.5, -1557378.6, -21914.96, -0.12277953, 0.10748163, -1032665.25, 487391.1, 0.023542674, 10.004607, 9.997516 
1.75525e+3, 1.5489008e+2, -987748.06, -1484568.6, -12590.366, -0.034563433, 0.058585923, -987429.2, 434654.97, 0.0082307365, 10.004178, 9.997549 
1.755223e+3, 1.6488758e+2, -952214.56, -1415914.1, -27587.533, -0.026688706, 0.057156235, -950579.0, 373529.66, 0.0014652916, 10.003715, 9.997572 
1.7551954e+3, 1.7488551e+2, -924216.1, -1351937.3, -23564.244, -0.054256007, 0.09336925, -922921.9, 303207.66, 0.000061555744, 10.003232, 9.997571 
1.7551681e+3, 1.8488334e+2, -875121.56, -1221596.9, -38289.367, -0.04648018, 0.10059278, -870940.6, 257210.19, 0.0000000010737394, 10.002655, 9.998071 
1.7551407e+3, 1.9488114e+2, -873940.25, -1169692.4, -36319.375, -0.018239554, 0.07056199, -869545.44, 160626.45, 0.0, 10.001988, 9.998075 
1.7551133e+3, 2.0487912e+2, -814844.8, -1022970.75, -23596.422, -0.009505687, 0.03713588, -812203.06, 119987.0, 0.0, 10.0014305, 9.998678 
1.7550859e+3, 2.1487737e+2, -779756.8, -954561.8, -6001.7715, -0.014382859, -0.007396732, -779551.0, 54653.473, 0.0, 10.000996, 9.998685 
1.7550582e+3, 2.2487594e+2, -774441.9, -929923.7, -16495.535, -0.030396631, 0.0014562756, -772711.06, -36492.543, 0.0, 10.0004835, 9.998426 
1.75503e+3, 2.3487496e+2, -761792.3, -873098.9, -34807.414, -0.0605806, 0.058627967, -751803.8, -113572.53, 0.0, 9.999898, 9.9984255 
1.7550026e+3, 2.4487406e+2, -704846.1, -702467.6, -37464.305, -0.046948526, 0.09023006, -666173.7, -125931.45, 0.0, 9.99922, 9.99925 
1.7549756e+3, 2.5487328e+2, -717692.1, -656132.6, -30707.77, 0.016271386, 0.08389356, -643434.1, -201183.23, 0.0, 9.998451, 9.999266 
1.754948e+3, 2.6487285e+2, -665801.4, -500379.28, -21784.37, 0.029468996, 0.08749742, -497558.6, -153302.88, 0.0, 9.99779, 9.99998 
1.7549202e+3, 2.74873e+2, -647747.9, -440021.5, -23674.254, -0.017260838, 0.10094035, -437357.53, -191102.38, 0.0, 9.997237, 9.999988 
1.7548928e+3, 2.8487357e+2, -585569.0, -301405.06, -1887.8322, -0.04096227, 0.13842945, -301392.53, -153142.02, 0.0, 9.996743, 10.0005045 
1.754866e+3, 2.948745e+2, -558340.0, -248604.27, -6814.493, -0.019828398, 0.17727251, -248454.42, -198212.0, 0.0, 9.9963045, 10.000405 
1.7548393e+3, 3.0487365e+2, -594695.2, -236536.39, -55401.72, 0.07787627, 0.065714754, -228162.38, -228162.38, 0.0, 9.995698, 10.00045 
1.7548096e+3, 3.1487548e+2, -547271.56, 43194.21, 58775.438, -0.058138203, 0.19072153, 48987.918, 48987.918, 0.0, 9.994923, 10.002741 
1.7653409e+3, 1.2492481e+2, -1229980.1, -1749225.4, 92559.64, -0.012048333, 0.048816707, -1213974.0, 501770.03, 0.073565416, 10.004834, 9.997438 
1.7653108e+3, 1.3492283e+2, -1099303.9, -1637331.8, -87687.89, -0.0242476, 0.09877116, -1085373.3, 532390.4, 0.04855159, 10.004947, 9.997484 
1.7652805e+3, 1.4492011e+2, -1016270.8, -1559357.6, 8408.928, -0.14144926, 0.09044287, -1016140.6, 503649.84, 0.025206104, 10.004785, 9.997416 
1.765254e+3, 1.5491723e+2, -963251.06, -1484321.6, 19314.486, -0.050910354, 0.056651305, -962536.1, 459282.84, 0.008944637, 10.004404, 9.99744 
1.7652267e+3, 1.6491474e+2, -912240.8, -1369395.5, 6020.446, -0.03502155, 0.05349265, -912161.56, 411681.22, 0.0016418446, 10.003879, 9.99781 
1.7651986e+3, 1.7491274e+2, -912531.0, -1319192.3, 21297.51, -0.05643539, 0.06945443, -911418.7, 314442.94, 0.00007487245, 10.003199, 9.997809 
1.7651707e+3, 1.8491057e+2, -889529.3, -1238222.9, 9291.724, -0.044061977, 0.069856696, -889281.9, 238600.8, 0.000000009428086, 10.0026, 9.997982 
1.7651428e+3, 1.9490834e+2, -865687.25, -1175970.4, 1849.431, -0.0108498745, 0.048159074, -865676.25, 164228.88, 0.0, 10.002091, 9.997981 
1.7651148e+3, 2.0490651e+2, -804764.9, -1016077.06, -3417.3403, -0.0065118573, 0.03777463, -804709.6, 127212.56, 0.0, 10.001493, 9.998694 
1.7650865e+3, 2.1490516e+2, -806848.7, -965007.7, -18985.314, -0.027122814, 0.03123173, -804601.6, 29331.27, 0.0, 10.000801, 9.998705 
1.7650582e+3, 2.2490372e+2, -817511.0, -955451.1, -28124.203, -0.03921781, 0.03861224, -811997.25, -76050.12, 0.0, 10.000212, 9.998382 
1.76503e+3, 2.3490225e+2, -791121.9, -892651.75, -15073.329, -0.045166083, 0.053201236, -788931.3, -150967.16, 0.0, 9.9997225, 9.998375 
1.7650019e+3, 2.4490117e+2, -711251.8, -700285.0, -12374.77, -0.034708425, 0.068710804, -692233.1, -152256.7, 0.0, 9.999154, 9.999296 
1.7649738e+3, 2.5490057e+2, -705949.44, -644960.56, -18450.656, -0.0027602604, 0.07628495, -639813.2, -197830.27, 0.0, 9.998509, 9.999313 
1.7649458e+3, 2.649003e+2, -657383.94, -502385.8, -12590.079, 0.014148436, 0.09290793, -501369.8, -157383.33, 0.0, 9.997877, 9.999923 
1.7649177e+3, 2.749004e+2, -649011.0, -446712.47, -19100.92, 0.006277182, 0.11209945, -444924.78, -198938.61, 0.0, 9.997258, 9.99993 
1.7648895e+3, 2.8490075e+2, -599755.0, -296846.7, 3541.0183, -0.029429823, 0.12619905, -296805.3, -148821.64, 0.0, 9.996598, 10.000605 
1.7648616e+3, 2.949014e+2, -615564.9, -268353.78, 82.380936, -0.06859967, 0.12716536, -268353.75, -218375.47, 0.0, 9.99588, 10.000473 
1.764835e+3, 3.049014e+2, -635566.94, -262658.22, -33595.734, 0.09698395, 0.09710349, -259655.72, -259655.72, 0.0, 9.995447, 10.00039 
1.7648047e+3, 3.149025e+2, -478275.25, 101407.86, 65758.19, -0.067871444, 0.15736833, 108773.76, 108773.76, 0.0, 9.995292, 10.00296 
1.7753454e+3, 1.2495268e+2, -1209168.9, -1698581.6, 71134.84, -0.05312493, 0.10798929, -1199039.3, 516433.13, 0.07778576, 10.004834, 9.997788 
1.7753167e+3, 1.3495013e+2, -1072543.1, -1577344.0, -84472.43, 0.07660241, 0.06057702, -1058782.8, 558712.2, 0.05153581, 10.004948, 9.997907 
1.7752856e+3, 1.4494734e+2, -1023043.06, -1570694.3, -7098.952, -0.10466906, 0.027075112, -1022951.06, 496571.0, 0.026948437, 10.004776, 9.997343 
1.7752582e+3, 1.5494515e+2, -970960.1, -1498122.9, 5753.9146, -0.08086029, 0.07025308, -970897.4, 450648.13, 0.009696355, 10.004395, 9.997352 
1.7752302e+3, 1.6494288e+2, -886158.56, -1312904.3, -19720.912, -0.07365926, 0.07089279, -885249.1, 438317.84, 0.0018317308, 10.003867, 9.998204 
1.7752019e+3, 1.7494053e+2, -885101.4, -1261859.9, -4059.4573, -0.046657536, 0.0145629905, -885057.6, 340528.88, 0.000089597095, 10.003196, 9.998205 
1.7751734e+3, 1.8493833e+2, -904288.75, -1269156.6, -10355.65, -0.029488962, 0.0020718325, -903995.06, 223612.56, 0.000000028818846, 10.002599, 9.997771 
1.7751446e+3, 1.9493638e+2, -880210.6, -1206829.1, -16559.084, -0.03464436, 0.030550212, -879373.25, 150255.97, 0.0, 10.002091, 9.99777 
1.7751159e+3, 2.0493478e+2, -832993.0, -1074906.4, -29113.246, -0.047046695, 0.07275674, -829538.7, 102107.66, 0.0, 10.001492, 9.998292 
1.775087e+3, 2.1493354e+2, -835134.25, -1024637.8, -43530.293, -0.061817642, 0.118977115, -825613.4, 8044.86, 0.0, 10.000802, 9.998297 
1.7750585e+3, 2.2493196e+2, -791418.7, -901685.3, -45918.56, -0.034712233, 0.11492091, -774801.06, -39127.402, 0.0, 10.000211, 9.998752 
1.7750305e+3, 2.3493008e+2, -764774.25, -838100.56, -31888.92, 0.03295138, 0.050898127, -752846.4, -115154.45, 0.0, 9.999721, 9.998753 
1.7750014e+3, 2.4492893e+2, -718771.2, -716203.44, -35712.992, 0.01468573, 0.04499526, -681751.25, -142047.45, 0.0, 9.999153, 9.999188 
1.7749715e+3, 2.5492865e+2, -713781.1, -662599.4, -40953.434, -0.08755847, 0.094540656, -639898.7, -198190.94, 0.0, 9.998513, 9.999191 
1.7749429e+3, 2.6492825e+2, -664914.5, -519697.75, -35162.848, -0.066085115, 0.11468008, -511631.47, -167919.16, 0.0, 9.997882, 9.999803 
1.7749155e+3, 2.7492785e+2, -655799.3, -463025.84, -40575.492, 0.07256881, 0.089753665, -454833.56, -209116.3, 0.0, 9.997265, 9.999816 
1.7748867e+3, 2.8492802e+2, -588567.25, -275649.94, -23015.832, 0.037158918, 0.08428706, -273966.13, -126249.78, 0.0, 9.996605, 10.000749 
1.7748566e+3, 2.9492903e+2, -605701.5, -248939.77, -25756.807, -0.15021907, 0.110438064, -247089.81, -197382.88, 0.0, 9.995882, 10.0006075 
1.77483e+3, 3.0493006e+2, -629372.8, -250059.95, -36611.914, 0.069012016, 0.1736637, -246558.44, -246558.44, 0.0, 9.995446, 10.000477 
1.7748003e+3, 3.1493014e+2, -494896.2, 63291.96, 23974.318, -0.03464161, 0.11976111, 64319.77, 64319.77, 0.0, 9.995306, 10.002692 
1.7853503e+3, 1.2498043e+2, -1177083.5, -1684944.0, 79533.734, -0.046732403, 0.10163564, -1164919.5, 550281.56, 0.08224309, 10.005109, 9.997757 
1.7853218e+3, 1.3497809e+2, -1054519.6, -1560247.9, -69566.125, 0.10268755, 0.069095224, -1045124.8, 572097.06, 0.054672107, 10.005061, 9.997973 
1.7852901e+3, 1.4497548e+2, -1028691.4, -1551105.9, -15872.609, -0.13169642, 0.03991863, -1028209.5, 491037.7, 0.028773688, 10.004653, 9.997535 
1.7852625e+3, 1.5497349e+2, -1028362.3, -1505180.6, 13049.851, -0.06425456, 0.087899975, -1028005.44, 393262.75, 0.010485915, 10.003912, 9.997534 
1.785234e+3, 1.6497132e+2, -953710.94, -1338333.9, -12179.728, -0.045614142, 0.087953985, -953325.7, 369962.78, 0.0020345694, 10.003374, 9.998266 
1.785205e+3, 1.7496897e+2, -903593.75, -1263695.5, -21589.973, -0.042906214, 0.024587736, -902303.94, 323004.0, 0.000105598076, 10.00304, 9.998266 
1.785176e+3, 1.8496683e+2, -904145.25, -1271503.0, -33152.07, -0.03622451, 0.015486443, -901177.44, 226151.22, 0.0000000562377, 10.002614, 9.9977455 
1.7851466e+3, 1.94965e+2, -880717.6, -1209648.5, -27526.96, -0.03860953, 0.05832629, -878429.9, 150919.48, 0.0, 10.002103, 9.997744 
1.7851172e+3, 2.0496327e+2, -833499.8, -1088780.5, -28100.246, -0.045610826, 0.09620118, -830443.25, 100924.79, 0.0, 10.001549, 9.998168 
1.7850879e+3, 2.1496171e+2, -822479.2, -1032975.44, -23517.17, -0.05262869, 0.120742865, -819883.75, 13499.998, 0.0, 10.000953, 9.998166 
1.7850588e+3, 2.2496013e+2, -771172.1, -871415.75, -21890.078, -0.02595197, 0.11548357, -766600.56, -31201.584, 0.0, 10.000262, 9.998935 
1.78503e+3, 2.3495862e+2, -786994.7, -827330.8, -23701.121, 0.033230886, 0.06879124, -776042.1, -138629.22, 0.0, 9.999477, 9.998942 
1.7850004e+3, 2.4495752e+2, -747277.4, -726707.8, -22466.53, 0.011755391, 0.05804624, -712283.9, -172860.19, 0.0, 9.998945, 9.999215 
1.78497e+3, 2.54957e+2, -690939.44, -649535.44, -18243.686, -0.08849295, 0.08198006, -642643.9, -201214.1, 0.0, 9.998662, 9.999209 
1.7849408e+3, 2.6495662e+2, -631083.5, -499959.03, -10407.064, -0.065799214, 0.10123346, -499138.2, -155704.14, 0.0, 9.998099, 9.999833 
1.7849126e+3, 2.7495643e+2, -653463.06, -458630.1, -5410.388, 0.07330662, 0.096145235, -458479.97, -213043.25, 0.0, 9.997268, 9.9998455 
1.7848831e+3, 2.8495649e+2, -605901.2, -291644.9, 10786.373, 0.034781177, 0.082970545, -291275.13, -143838.34, 0.0, 9.99652, 10.000679 
1.7848523e+3, 2.9495722e+2, -612800.25, -256048.02, -10783.864, -0.15633939, 0.08692822, -255722.34, -206292.08, 0.0, 9.995851, 10.000573 
1.7848256e+3, 3.049586e+2, -623407.1, -228355.81, -2280.9377, 0.08876991, 0.18022706, -228342.64, -228342.64, 0.0, 9.995407, 10.000645 
1.7847952e+3, 3.1495845e+2, -550393.8, -8661.854, 10802.272, -0.04569878, 0.08943957, -8446.539, -8446.539, 0.0, 9.995122, 10.002285 
1.7953558e+3, 1.250082e+2, -1204319.9, -1736518.6, 40526.56, 0.0015798195, 0.043298803, -1201251.5, 513677.4, 0.08696771, 10.005098, 9.997395 
1.7953265e+3, 1.3500668e+2, -1073065.0, -1595595.5, -69836.29, 0.060105667, 0.11952001, -1063892.4, 553051.75, 0.05797549, 10.005063, 9.997718 
1.7952938e+3, 1.4500444e+2, -1001244.8, -1492300.4, -42739.75, -0.2172817, 0.12069895, -997552.7, 521413.4, 0.030689498, 10.004656, 9.997943 
1.7952669e+3, 1.5500227e+2, -999147.0, -1445692.1, -13865.554, -0.008442087, 0.10873903, -998716.9, 422270.25, 0.011317566, 10.0039215, 9.997938 
1.7952381e+3, 1.6500016e+2, -970745.7, -1375792.8, -25279.557, 0.039007504, 0.105654106, -969174.0, 353833.13, 0.0022516523, 10.003381, 9.998007 
1.7952079e+3, 1.7499806e+2, -921055.3, -1301084.5, -33279.867, -0.047278747, 0.094883315, -918163.0, 306863.13, 0.00012299663, 10.003043, 9.99801 
1.7951782e+3, 1.8499604e+2, -894664.94, -1252044.5, -52107.895, -0.06596761, 0.10423156, -887222.3, 239823.69, 0.000000085167756, 10.002612, 9.997882 
1.7951488e+3, 1.9499417e+2, -871097.8, -1190137.5, -45295.383, -0.026198158, 0.1290694, -864791.7, 164274.17, 0.0, 10.002102, 9.99788 
1.7951192e+3, 2.0499201e+2, -824810.4, -1070349.6, -49768.242, -0.006201254, 0.10934255, -815106.4, 115981.14, 0.0, 10.001545, 9.998298 
1.7950892e+3, 2.1498959e+2, -813847.7, -1014644.9, -44007.586, -0.0020741392, 0.038045388, -804626.25, 28483.65, 0.0, 10.000949, 9.998296 
1.7950591e+3, 2.2498816e+2, -772211.3, -873675.6, -50627.965, -0.015764501, 0.04070459, -751271.0, -16147.412, 0.0, 10.000259, 9.998921 
1.7950287e+3, 2.3498777e+2, -787792.5, -830155.4, -51598.363, -0.048014928, 0.1067434, -753197.2, -116069.52, 0.0, 9.999479, 9.998923 
1.7949988e+3, 2.4498685e+2, -735694.25, -703244.7, -32247.336, -0.045785386, 0.108135656, -683370.5, -144233.84, 0.0, 9.998946, 9.999378 
1.7949694e+3, 2.5498557e+2, -678813.94, -625411.44, -27085.393, -0.005895453, 0.03992922, -614078.8, -172929.5, 0.0, 9.998664, 9.999375 
1.7949396e+3, 2.649853e+2, -617246.0, -473322.9, -40452.168, 0.013438775, 0.051683083, -462732.4, -119580.18, 0.0, 9.998106, 10.000015 
1.7949092e+3, 2.749861e+2, -640100.8, -433980.78, -34224.02, 0.0025798974, 0.1275681, -428446.84, -183301.58, 0.0, 9.997278, 10.0000105 
1.794879e+3, 2.8498614e+2, -626315.7, -336040.88, -13537.57, -0.04093019, 0.12169558, -335410.9, -188265.45, 0.0, 9.996527, 10.000371 
1.7948489e+3, 2.9498592e+2, -628477.2, -289763.25, -33756.023, -0.090352006, 0.06195415, -286431.9, -237283.64, 0.0, 9.995853, 10.000341 
1.7948216e+3, 3.049869e+2, -605151.44, -191816.3, -10496.693, 0.14787282, 0.10690345, -191549.9, -191549.9, 0.0, 9.995411, 10.000895 
1.79479e+3, 3.149879e+2, -571540.7, -57119.45, -51057.766, -0.083827116, 0.11019837, -52100.785, -52100.785, 0.0, 9.995139, 10.001946 
1.8053609e+3, 1.2503731e+2, -1197993.6, -1738299.8, 39676.12, -0.0048445933, 0.060085304, -1195095.6, 519548.47, 0.091982305, 10.005197, 9.997334 
1.8053319e+3, 1.3503572e+2, -1061688.3, -1586502.3, -12419.935, 0.08265768, 0.12813851, -1061394.5, 555265.7, 0.061463367, 10.005151, 9.997741 
1.8052986e+3, 1.4503351e+2, -974105.8, -1484597.1, -9770.574, -0.21404664, 0.13268574, -973918.9, 544763.2, 0.032707427, 10.004885, 9.997887 
1.805271e+3, 1.550312e+2, -936203.7, -1421640.9, -14194.688, -0.0047948062, 0.11421568, -935789.0, 484915.3, 0.012198155, 10.004394, 9.997874 
1.8052417e+3, 1.6502905e+2, -915090.4, -1350510.1, -30058.418, 0.04252266, 0.11311778, -913025.2, 409699.63, 0.002485514, 10.003777, 9.997988 
1.8052109e+3, 1.7502707e+2, -922367.44, -1303823.1, -23228.287, -0.051937245, 0.11484079, -920958.2, 303785.16, 0.00014217784, 10.003047, 9.997987 
1.8051806e+3, 1.850251e+2, -909395.06, -1235752.8, -30503.307, -0.06665606, 0.121314004, -906568.56, 220194.05, 0.00000010953618, 10.002413, 9.998088 
1.805151e+3, 1.9502327e+2, -889177.25, -1175503.8, -20103.486, -0.009860929, 0.12833369, -887772.6, 141008.69, 0.0, 10.001881, 9.998085 
1.8051209e+3, 2.050212e+2, -850804.25, -1060100.6, -23471.92, 0.017695054, 0.10001378, -848204.25, 82596.86, 0.0, 10.001271, 9.998499 
1.8050902e+3, 2.15019e+2, -852793.6, -1010362.2, -14293.818, 0.018765688, 0.028389884, -851507.44, -18686.363, 0.0, 10.000586, 9.998497 
1.8050593e+3, 2.250176e+2, -799232.7, -894057.6, -15045.487, -0.008427793, 0.030029904, -796902.75, -62068.438, 0.0, 10.000109, 9.998854 
1.805028e+3, 2.3501715e+2, -740817.5, -815309.06, -20960.406, -0.06482412, 0.09692346, -735324.7, -98484.875, 0.0, 9.999837, 9.998852 
1.8049976e+3, 2.4501635e+2, -700455.25, -667610.3, -10640.837, -0.057699062, 0.10539718, -664464.3, -125616.516, 0.0, 9.999106, 9.999545 
1.804968e+3, 2.5501534e+2, -774931.25, -652271.7, -6582.4063, 0.015577307, 0.048151318, -651919.5, -211062.27, 0.0, 9.997922, 9.999547 
1.8049376e+3, 2.6501513e+2, -728488.8, -520945.03, -13513.391, 0.03183017, 0.05593615, -520068.84, -177209.55, 0.0, 9.997317, 10.000067 
1.8049064e+3, 2.750158e+2, -638662.6, -428114.84, -18342.842, -0.015283994, 0.114155136, -426528.75, -181674.98, 0.0, 9.997266, 10.000057 
1.8048754e+3, 2.8501594e+2, -592772.1, -324633.4, -2721.747, -0.049896885, 0.11568696, -324605.78, -177752.38, 0.0, 9.9967785, 10.000328 
1.804845e+3, 2.9501596e+2, -620240.6, -284635.3, -2944.2134, -0.051879518, 0.08464059, -284609.5, -235755.63, 0.0, 9.995906, 10.00035 
1.8048167e+3, 3.0501655e+2, -590706.75, -176984.5, 45334.813, 0.12217705, 0.08237023, -172075.06, -172075.06, 0.0, 9.995481, 10.000961 
1.8047854e+3, 3.150185e+2, -538004.25, -49734.75, -53254.695, -0.07072151, 0.18450344, -43993.85, -43993.85, 0.0, 9.995408, 10.001867 
1.8153656e+3, 1.2506767e+2, -1186888.5, -1709063.4, -6482.0103, -0.06141485, 0.14252946, -1186808.0, 527539.7, 0.09730319, 10.005205, 9.997534 
1.8153377e+3, 1.3506521e+2, -1046840.06, -1552345.9, -12979.139, 0.15629584, 0.09873737, -1046507.06, 569863.44, 0.06515519, 10.005154, 9.997992 
1.8153042e+3, 1.450627e+2, -1008707.6, -1554940.0, -28205.19, -0.13909131, 0.08379178, -1007255.06, 511140.16, 0.034841765, 10.004881, 9.9974 
1.815275e+3, 1.5506032e+2, -971128.94, -1493863.9, -30716.893, -0.05064158, 0.10646215, -969330.2, 451089.4, 0.013135092, 10.004391, 9.997382 
1.8152447e+3, 1.6505808e+2, -902195.75, -1323883.8, -56226.7, -0.030467786, 0.11125593, -894827.44, 427613.84, 0.002739046, 10.003776, 9.998173 
1.8152139e+3, 1.7505603e+2, -908761.06, -1276670.8, -48580.734, -0.05920651, 0.08832406, -902454.3, 322005.34, 0.00016371385, 10.003049, 9.998174 
1.8151832e+3, 1.8505405e+2, -891695.94, -1199164.9, -49532.04, -0.043857764, 0.072480254, -883913.5, 242564.83, 0.00000012908751, 10.002412, 9.998341 
1.8151529e+3, 1.9505227e+2, -870830.1, -1138275.4, -38385.082, 0.008967077, 0.058830332, -865429.94, 163066.13, 0.0, 10.001882, 9.998342 
1.815122e+3, 2.0505084e+2, -832461.44, -1023098.06, -48591.586, 0.024431648, 0.06850352, -820790.44, 109719.09, 0.0, 10.001273, 9.998753 
1.8150906e+3, 2.1504982e+2, -834300.25, -973915.56, -38505.04, 0.0068703075, 0.090458296, -824384.94, 8133.1406, 0.0, 10.00059, 9.998747 
1.8150595e+3, 2.2504841e+2, -807713.9, -912044.94, -24616.83, -0.00681253, 0.08273317, -802197.25, -67665.29, 0.0, 10.000108, 9.998732 
1.8150283e+3, 2.3504671e+2, -748824.06, -832796.4, -29394.03, -0.017743072, 0.03856653, -739557.44, -103007.52, 0.0, 9.999838, 9.9987335 
1.8149969e+3, 2.4504595e+2, -688933.6, -644603.44, -54367.246, -0.0259769, 0.04821557, -608056.6, -69498.9, 0.0, 9.999108, 9.999703 
1.8149653e+3, 2.5504625e+2, -763884.94, -630194.8, -49180.473, -0.03037762, 0.1061152, -614052.0, -173497.8, 0.0, 9.997922, 9.999701 
1.8149343e+3, 2.650461e+2, -734004.06, -532676.9, -14422.135, -0.014914266, 0.11405007, -531649.0, -189092.92, 0.0, 9.997317, 9.999988 
1.8149039e+3, 2.750455e+2, -643477.0, -438975.53, -19029.143, 0.018030832, 0.056818437, -437219.9, -192657.0, 0.0, 9.997268, 9.999983 
1.8148728e+3, 2.8504577e+2, -573962.4, -289381.56, -34505.23, 0.0059847888, 0.06492247, -285257.6, -138696.42, 0.0, 9.99679, 10.000567 
1.8148409e+3, 2.9504725e+2, -597750.9, -245346.36, -31525.158, -0.045110617, 0.15364176, -242548.42, -194000.88, 0.0, 9.995934, 10.000609 
1.8148111e+3, 3.0504742e+2, -601012.5, -201923.53, 43311.63, 0.004572926, 0.10586013, -197277.17, -197277.17, 0.0, 9.995497, 10.000782 
1.814781e+3, 3.1504887e+2, -515538.63, -4910.956, -72185.89, -0.050985985, 0.17876187, 5097.5747, 5097.5747, 0.0, 9.995413, 10.002175 
1.8253708e+3, 1.2509811e+2, -1143907.9, -1716060.0, 4856.2334, -0.071425065, 0.14323395, -1143866.6, 570181.8, 0.10293621, 10.005699, 9.997245 
1.825343e+3, 1.3509533e+2, -1030533.2, -1569288.0, 6780.2524, 0.16576341, 0.09194379, -1030447.9, 585628.0, 0.06906273, 10.005414, 9.997742 
1.8253094e+3, 1.4509277e+2, -995764.94, -1535633.4, -18851.629, -0.1034716, 0.082646295, -995107.5, 522993.44, 0.037103236, 10.004932, 9.997506 
1.8252791e+3, 1.5509044e+2, -983650.56, -1487947.5, 18291.33, -0.045861576, 0.09948657, -982988.0, 437135.97, 0.014134216, 10.004259, 9.997483 
1.8252485e+3, 1.6508819e+2, -922533.06, -1329325.5, 5915.5156, -0.030961365, 0.09796258, -922447.0, 399698.34, 0.0030147778, 10.003621, 9.998208 
1.8252169e+3, 1.7508613e+2, -911531.56, -1273705.0, 1272.0952, -0.04180723, 0.06975628, -911527.06, 312637.22, 0.00018819183, 10.0030155, 9.998209 
1.8251859e+3, 1.8508421e+2, -883408.75, -1177910.4, -4964.7856, -0.025243932, 0.05258472, -883325.06, 242857.16, 0.00000015151502, 10.002397, 9.998492 
1.8251547e+3, 1.950826e+2, -876706.25, -1124027.4, -2597.1987, 0.011365841, 0.04173318, -876679.0, 151518.98, 0.0, 10.001771, 9.998491 
1.8251231e+3, 2.0508137e+2, -825482.8, -1013253.94, -20595.889, 0.014058892, 0.06179713, -823250.3, 106959.27, 0.0, 10.001296, 9.998809 
1.8250912e+3, 2.1508062e+2, -775807.3, -938897.1, -26473.938, -0.013290565, 0.10297223, -771617.5, 60598.71, 0.0, 10.000966, 9.998805 
1.8250595e+3, 2.2507928e+2, -781531.4, -891883.3, -18342.307, -0.01520022, 0.098546706, -778562.44, -44333.074, 0.0, 10.000257, 9.998797 
1.825028e+3, 2.3507752e+2, -841036.1, -868819.1, -10554.438, 0.0069798185, 0.04057615, -837481.44, -201233.5, 0.0, 9.999172, 9.998805 
1.824996e+3, 2.450767e+2, -756117.25, -676917.75, -30695.844, -0.00088855444, 0.04323049, -666413.9, -128157.805, 0.0, 9.99865, 9.999701 
1.8249635e+3, 2.55077e+2, -656770.44, -579050.3, -38462.152, -0.03780042, 0.10117263, -563234.56, -122981.87, 0.0, 9.998661, 9.999695 
1.8249318e+3, 2.6507688e+2, -625610.3, -478603.34, -6546.756, -0.031465698, 0.112462044, -478312.34, -136058.03, 0.0, 9.9980545, 10.000004 
1.8249008e+3, 2.750764e+2, -703592.25, -466083.5, -5957.8013, 0.019091297, 0.06328667, -465934.16, -221673.67, 0.0, 9.99685, 9.999996 
1.8248695e+3, 2.850768e+2, -644853.56, -317589.72, -17592.346, 0.026294578, 0.07814878, -316646.75, -170388.75, 0.0, 9.99628, 10.000618 
1.8248375e+3, 2.9507825e+2, -541872.0, -211103.9, -30509.357, -0.013200799, 0.16399324, -208313.33, -160069.03, 0.0, 9.996287, 10.000673 
1.8248059e+3, 3.0507842e+2, -588278.44, -187616.0, 37194.5, -0.059161026, 0.10853236, -184192.39, -184192.39, 0.0, 9.995552, 10.000852 
1.8247764e+3, 3.1507987e+2, -641231.25, -4847.959, -46692.906, 0.008138155, 0.17477472, -1440.2405, -1440.2405, 0.0, 9.9942875, 10.002718 
1.8353766e+3, 1.2512866e+2, -1193871.9, -1823424.8, -42859.49, -0.05995568, 0.07390494, -1190967.4, 522778.72, 0.108872525, 10.005694, 9.996513 
1.8353479e+3, 1.3512601e+2, -1078691.5, -1668059.5, -811.2231, 0.11694793, 0.10732263, -1078690.4, 537085.8, 0.07318463, 10.005413, 9.997042 
1.8353143e+3, 1.451237e+2, -954787.56, -1447749.5, -41611.992, -0.10438708, 0.12521167, -951299.7, 566499.9, 0.039495878, 10.004931, 9.998131 
1.835284e+3, 1.551215e+2, -940875.5, -1397663.5, -4918.797, 0.000551846, 0.092131235, -940822.56, 478995.84, 0.015199396, 10.004258, 9.998108 
1.8352525e+3, 1.6511932e+2, -931474.25, -1347362.6, -16717.473, 0.029044902, 0.07359845, -930803.4, 391034.84, 0.0033148967, 10.003616, 9.998088 
1.8352203e+3, 1.7511727e+2, -919572.3, -1291567.1, -20404.566, -0.003833591, 0.05768116, -918456.44, 305401.8, 0.00021620854, 10.003017, 9.998087 
1.8351883e+3, 1.8511552e+2, -879204.8, -1171085.6, -27990.596, -0.01359528, 0.059821866, -876544.8, 249330.31, 0.00000018976193, 10.002402, 9.998538 
1.8351564e+3, 1.9511421e+2, -872549.06, -1118035.6, -24660.697, -0.004689611, 0.07480454, -870096.25, 157791.61, 0.0, 10.001779, 9.998529 
1.8351242e+3, 2.0511276e+2, -835107.3, -1034118.9, -32255.334, -0.015229818, 0.078990996, -830010.0, 99891.94, 0.0, 10.001297, 9.998667 
1.8350919e+3, 2.151113e+2, -785283.6, -959035.5, -37211.438, -0.042420726, 0.064883724, -777649.7, 54266.492, 0.0, 10.000965, 9.99867 
1.8350594e+3, 2.2511019e+2, -764975.3, -857350.6, -58346.14, -0.035182875, 0.07636572, -736748.06, -2820.8918, 0.0, 10.000254, 9.999037 
1.8350272e+3, 2.3510951e+2, -824264.44, -834809.1, -49187.0, 0.0053076223, 0.103276156, -780068.0, -144133.67, 0.0, 9.999172, 9.99904 
1.8349949e+3, 2.4510857e+2, -768155.3, -701820.0, -29164.059, 0.0145925535, 0.09046038, -690821.7, -152878.19, 0.0, 9.998648, 9.999533 
1.8349624e+3, 2.5510752e+2, -666825.8, -601833.75, -36310.535, -0.007684471, 0.03205041, -585601.5, -145647.98, 0.0, 9.998668, 9.9995365 
1.8349299e+3, 2.6510745e+2, -617396.8, -464761.5, -51308.785, -0.019425694, 0.050232675, -449117.34, -107162.38, 0.0, 9.998064, 10.000095 
1.8348974e+3, 2.751084e+2, -696934.44, -454327.97, -49051.523, -0.017550508, 0.13515449, -444785.78, -200838.56, 0.0, 9.996855, 10.000076 
1.8348655e+3, 2.851088e+2, -654874.7, -339896.44, -16559.4, 0.006033597, 0.15453443, -339028.25, -193083.31, 0.0, 9.996285, 10.0004635 
1.834834e+3, 2.9510882e+2, -550506.75, -232362.86, -31088.72, 0.038224004, 0.11009919, -229353.36, -181407.58, 0.0, 9.9963, 10.000522 
1.8348013e+3, 3.0510953e+2, -564366.94, -139581.58, -14726.244, -0.06687756, 0.10001647, -139071.67, -139071.67, 0.0, 9.995556, 10.001182 
1.8347706e+3, 3.151112e+2, -606921.9, 63639.69, -48524.32, 0.008984288, 0.15038486, 67132.89, 67132.89, 0.0, 9.994291, 10.003191 
1.8453826e+3, 1.2516025e+2, -1139474.4, -1792125.8, -46748.324, -0.044308685, 0.050317284, -1136142.9, 577292.9, 0.115091145, 10.006147, 9.99651 
1.845353e+3, 1.3515766e+2, -1062541.9, -1655852.4, 69494.64, 0.07596369, 0.087843426, -1054510.6, 560954.4, 0.077513486, 10.005543, 9.997065 
1.8453193e+3, 1.4515556e+2, -957616.75, -1447190.5, 26228.809, -0.08792737, 0.12570836, -956215.56, 561270.9, 0.042021774, 10.004918, 9.99814 
1.8452883e+3, 1.5515341e+2, -945514.94, -1398624.1, 19297.09, 0.014000523, 0.09786105, -944694.6, 474810.7, 0.016334835, 10.004227, 9.998116 
1.8452562e+3, 1.6515125e+2, -935483.06, -1347394.3, -4699.7363, 0.042554334, 0.08034512, -935429.5, 386095.7, 0.0036419537, 10.003585, 9.998101 
1.8452235e+3, 1.751492e+2, -921801.4, -1291231.8, 504.96954, 0.008568126, 0.06380629, -921800.7, 301744.53, 0.00024857238, 10.002999, 9.9980955 
1.8451907e+3, 1.8514748e+2, -873840.1, -1176627.6, -4491.1533, -0.009790833, 0.071738, -873773.56, 251788.55, 0.00000025167606, 10.002478, 9.998462 
1.845158e+3, 1.9514619e+2, -842930.2, -1111582.5, -11828.006, -0.016205134, 0.09774056, -842410.44, 185164.36, 0.0, 10.00202, 9.998456 
1.8451254e+3, 2.0514466e+2, -829026.7, -1029025.5, -20234.854, -0.020172793, 0.09459952, -827000.0, 102589.94, 0.0, 10.001332, 9.998683 
1.8450926e+3, 2.1514297e+2, -862898.3, -994083.75, -14622.813, -0.020783368, 0.056513853, -861288.1, -29681.742, 0.0, 10.000425, 9.998687 
1.8450597e+3, 2.2514187e+2, -799519.4, -856586.25, -31182.105, -0.020096336, 0.06178262, -785786.0, -52169.16, 0.0, 9.999945, 9.99919 
1.8450263e+3, 2.3514143e+2, -713393.7, -764849.2, -30298.215, -0.016378602, 0.10016786, -699373.5, -63752.824, 0.0, 9.999865, 9.999186 
1.8449935e+3, 2.451406e+2, -684657.25, -675308.4, -9031.71, -0.0019751699, 0.09481161, -669813.2, -132183.89, 0.0, 9.999282, 9.999409 
1.844961e+3, 2.5513944e+2, -740954.9, -649900.3, -14361.292, 0.020152824, 0.038252696, -647688.94, -208047.44, 0.0, 9.998216, 9.999422 
1.844928e+3, 2.6513934e+2, -684594.1, -487386.47, -35925.754, 0.007583832, 0.05457135, -481045.7, -139402.36, 0.0, 9.997566, 10.000177 
1.8448943e+3, 2.7514032e+2, -625440.2, -411325.78, -34380.47, -0.033314753, 0.13521919, -405940.72, -162306.52, 0.0, 9.997312, 10.00015 
1.8448618e+3, 2.8514063e+2, -583075.94, -302055.56, 16713.045, -0.0132160485, 0.1437482, -301065.1, -155432.88, 0.0, 9.996766, 10.00049 
1.8448304e+3, 2.951405e+2, -611083.0, -258352.9, 10279.777, 0.054211248, 0.08113261, -258053.58, -210418.58, 0.0, 9.995873, 10.000547 
1.8447967e+3, 3.0514175e+2, -621228.25, -153699.7, 10364.753, -0.052541986, 0.12071629, -153470.05, -153470.05, 0.0, 9.995113, 10.001294 
1.844765e+3, 3.1514242e+2, -545662.2, 81674.6, 8037.1924, -0.0012363902, 0.062508024, 81777.555, 81777.555, 0.0, 9.994761, 10.003087 
1.8553887e+3, 1.2519278e+2, -1105393.3, -1702350.9, -85897.85, -0.0466639, 0.06569613, -1093279.1, 619838.94, 0.121566266, 10.006141, 9.997139 
1.855358e+3, 1.3519019e+2, -1023793.9, -1565519.3, 50102.938, 0.035335027, 0.034261756, -1019198.94, 595944.56, 0.082045294, 10.005538, 9.997714 
1.8553245e+3, 1.4518824e+2, -998196.06, -1527414.6, 641.0072, -0.063007765, 0.08602756, -998195.25, 518967.75, 0.04468753, 10.004909, 9.997575 
1.8552922e+3, 1.5518612e+2, -984323.3, -1480503.9, -5031.4136, -0.0047866115, 0.11668955, -984272.3, 434912.94, 0.017548151, 10.0042305, 9.99755 
1.8552594e+3, 1.6518395e+2, -924825.7, -1327570.4, -25810.826, 0.011367097, 0.11820953, -923178.25, 398028.25, 0.003999877, 10.003593, 9.998235 
1.8552262e+3, 1.7518187e+2, -911496.75, -1272053.1, -19785.166, -0.0044549415, 0.08708694, -910414.3, 312811.38, 0.0002864854, 10.003006, 9.998226 
1.855193e+3, 1.8518002e+2, -888069.6, -1207070.1, -21004.59, -0.015957987, 0.08689548, -886692.5, 238551.13, 0.0000003514084, 10.002479, 9.998255 
1.8551598e+3, 1.951785e+2, -857008.7, -1141280.5, -27462.78, -0.025131494, 0.109098986, -854379.9, 172879.39, 0.0, 10.002019, 9.998255 
1.8551268e+3, 2.0517695e+2, -817070.94, -1004951.06, -53426.81, -0.0039013885, 0.10805266, -802940.9, 126333.4, 0.0, 10.001332, 9.99885 
1.8550937e+3, 2.1517551e+2, -851026.4, -970789.56, -46375.324, 0.046796795, 0.0780901, -835168.44, -3880.8647, 0.0, 10.000428, 9.998847 
1.85506e+3, 2.2517423e+2, -795445.5, -849092.3, -33238.9, 0.026310885, 0.055019565, -779556.9, -46257.832, 0.0, 9.999946, 9.999242 
1.8550257e+3, 2.3517324e+2, -709428.8, -758060.94, -31822.82, -0.059708748, 0.030077176, -693695.4, -58387.684, 0.0, 9.999868, 9.999231 
1.8549924e+3, 2.4517266e+2, -690630.2, -688801.75, -48571.664, -0.052346446, 0.05550232, -641135.7, -103821.46, 0.0, 9.999284, 9.999316 
1.8549594e+3, 2.5517264e+2, -746724.94, -662668.25, -52774.055, 0.041627757, 0.12171297, -637231.94, -197914.5, 0.0, 9.998216, 9.999336 
1.8549259e+3, 2.6517242e+2, -680474.2, -479269.9, -44759.254, 0.04756316, 0.12592483, -469762.2, -128441.84, 0.0, 9.997566, 10.000235 
1.8548916e+3, 2.75172e+2, -619613.25, -401934.25, -41234.45, -0.029542476, 0.06094665, -394385.1, -151062.45, 0.0, 9.997321, 10.000211 
1.8548582e+3, 2.851722e+2, -566603.56, -272370.53, -16730.287, -0.035505142, 0.0432311, -271422.3, -126101.3, 0.0, 9.996781, 10.0006895 
1.8548258e+3, 2.9517323e+2, -595952.25, -229780.14, -25592.648, 0.024913102, 0.07711267, -228000.06, -180687.23, 0.0, 9.995881, 10.000742 
1.8547922e+3, 3.05175e+2, -627034.8, -168250.78, -6187.0117, -0.012436821, 0.16849144, -168167.36, -168167.36, 0.0, 9.995124, 10.00119 
1.8547595e+3, 3.151756e+2, -598402.06, -35382.656, 33178.883, -0.034557894, 0.11158803, -33434.16, -33434.16, 0.0, 9.994793, 10.00227 
1.8653947e+3, 1.2522632e+2, -1076148.0, -1677415.5, -47730.113, -0.052219704, 0.07444791, -1072382.6, 640407.06, 0.12827532, 10.006366, 9.997225 
1.8653631e+3, 1.3522372e+2, -1008418.75, -1548827.3, 58150.152, 0.0003085641, 0.034141313, -1002232.4, 612581.56, 0.086781494, 10.00564, 9.997791 
1.8653299e+3, 1.4522178e+2, -998892.1, -1543445.8, 6566.7354, -0.018794717, 0.09015818, -998812.94, 518020.0, 0.047504384, 10.004988, 9.997425 
1.8652965e+3, 1.5521921e+2, -971489.5, -1490419.6, 29097.307, -0.0045466307, 0.09134506, -969863.06, 448996.75, 0.018849539, 10.004398, 9.9974 
1.865263e+3, 1.6521695e+2, -897770.5, -1320158.9, 18504.102, -0.003839763, 0.09656653, -896961.44, 423920.8, 0.004393532, 10.003808, 9.99818 
1.8652293e+3, 1.7521515e+2, -885347.1, -1265512.9, 8643.518, -0.00849976, 0.098823704, -885150.7, 337748.56, 0.00033133916, 10.003213, 9.99817 
1.8651955e+3, 1.8521324e+2, -881871.75, -1202574.4, 8265.044, -0.009084739, 0.09442506, -881658.9, 243258.86, 0.00000050835786, 10.002517, 9.998266 
1.865162e+3, 1.9521135e+2, -898166.7, -1159657.5, 16725.158, -0.009265575, 0.07879442, -897101.25, 129834.945, 0.0, 10.001732, 9.998265 
1.8651281e+3, 2.0520978e+2, -829221.8, -1005255.06, -3480.7222, 0.0040405397, 0.07225944, -829153.0, 99798.29, 0.0, 10.001228, 9.998896 
1.8650943e+3, 2.152086e+2, -766635.3, -924914.2, -7020.167, 0.031817406, 0.0663867, -766324.56, 64637.59, 0.0, 10.000988, 9.998891 
1.86506e+3, 2.2520745e+2, -728398.6, -816811.25, 3917.6165, 0.020027654, 0.052701607, -728225.4, 4747.405, 0.0, 10.000409, 9.99924 
1.8650258e+3, 2.352064e+2, -760739.5, -782678.44, 116.61217, -0.030481072, 0.023417125, -760738.9, -125756.836, 0.0, 9.999519, 9.999229 
1.8649915e+3, 2.452058e+2, -751731.1, -723091.2, -25000.395, -0.033743296, 0.050376672, -708600.06, -171611.03, 0.0, 9.99889, 9.999268 
1.8649574e+3, 2.5520584e+2, -710294.9, -650831.75, -27574.129, 0.011076924, 0.12446025, -640013.4, -201021.02, 0.0, 9.998494, 9.999282 
1.8649234e+3, 2.6520553e+2, -626551.06, -446696.28, -9669.514, 0.024648566, 0.12516037, -446177.94, -105182.27, 0.0, 9.9979105, 10.000292 
1.864889e+3, 2.7520502e+2, -642290.56, -405279.03, -7341.5254, 0.0019696462, 0.04488844, -405051.84, -162053.4, 0.0, 9.997137, 10.000275 
1.864855e+3, 2.8520525e+2, -627248.9, -317056.84, -4974.887, -0.020499425, 0.035897467, -316977.06, -171980.67, 0.0, 9.996436, 10.0005455 
1.8648212e+3, 2.9520646e+2, -614555.94, -254161.63, -41746.707, -0.026163125, 0.099766016, -249389.05, -202401.81, 0.0, 9.995824, 10.0006 
1.8647878e+3, 3.0520785e+2, -575413.56, -157098.11, -16228.451, 0.016616093, 0.16432929, -156469.48, -156469.48, 0.0, 9.995538, 10.001066 
1.864754e+3, 3.152086e+2, -523727.22, -42838.527, 26224.906, -0.08746719, 0.14203268, -41412.6, -41412.6, 0.0, 9.995494, 10.001878 
1.8754007e+3, 1.2526065e+2, -1108741.1, -1735000.3, -70742.25, -0.09069896, 0.06442647, -1100849.5, 611603.5, 0.13521203, 10.006343, 9.996816 
1.8753684e+3, 1.352582e+2, -1039429.06, -1607736.3, 34242.016, -0.032776397, 0.084362075, -1037373.3, 577103.44, 0.091732085, 10.005643, 9.997349 
1.8753353e+3, 1.4525613e+2, -985536.4, -1511400.5, -14079.23, 0.037542406, 0.1374225, -985159.7, 531336.5, 0.05048682, 10.004988, 9.997648 
1.8753009e+3, 1.5525264e+2, -958170.0, -1458712.5, 9178.063, 0.009202702, 0.024375306, -958001.8, 460527.66, 0.020249583, 10.004387, 9.997624 
1.8752666e+3, 1.6525026e+2, -917256.0, -1358154.5, -3706.982, -0.008466513, 0.017479675, -917224.8, 403328.22, 0.0048278267, 10.003795, 9.997928 
1.8752325e+3, 1.7524901e+2, -902555.5, -1301851.1, -12566.596, -0.0065667806, 0.10018697, -902160.4, 320406.22, 0.000384473, 10.003213, 9.997922 
1.8751982e+3, 1.8524708e+2, -865585.44, -1170789.8, -20590.088, 0.0068371654, 0.09700528, -864202.6, 260382.2, 0.000000733184, 10.002522, 9.998483 
1.8751639e+3, 1.952447e+2, -882669.06, -1129613.5, -11007.382, 0.02769581, 0.010801696, -882179.4, 144426.66, 0.0, 10.001739, 9.99847 
1.8751293e+3, 2.0524304e+2, -834085.2, -1017163.06, -12001.091, 0.0012589861, -0.01002986, -833301.8, 95319.83, 0.0, 10.001233, 9.998814 
1.8750942e+3, 2.1524218e+2, -772596.0, -937793.8, -15030.516, -0.065182514, 0.021571094, -771239.56, 59391.36, 0.0, 10.000987, 9.998804 
1.8750598e+3, 2.252414e+2, -732312.9, -825384.06, -29072.393, -0.03880548, 0.05449071, -723978.0, 8660.864, 0.0, 10.000408, 9.999183 
1.8750261e+3, 2.3524083e+2, -764726.5, -791238.2, -31333.91, 0.06884495, 0.080837734, -743959.8, -109315.42, 0.0, 9.999517, 9.999173 
1.8749912e+3, 2.4523993e+2, -752772.7, -726096.8, -38840.184, 0.050751474, 0.078790456, -698368.2, -161713.81, 0.0, 9.99889, 9.9992485 
1.8749551e+3, 2.5523883e+2, -710965.9, -655186.2, -40733.19, -0.076440774, 0.044123836, -633709.7, -195042.31, 0.0, 9.998504, 9.9992485 
1.8749203e+3, 2.652386e+2, -621893.56, -440230.1, -38332.945, -0.065064706, 0.051120464, -432472.7, -91802.54, 0.0, 9.997921, 10.000332 
1.8748868e+3, 2.7523932e+2, -637986.44, -398885.78, -35320.855, 0.059964016, 0.08934963, -393777.22, -151114.88, 0.0, 9.997145, 10.000317 
1.8748519e+3, 2.852398e+2, -662819.8, -391924.38, -28644.889, 0.02981649, 0.12713999, -388928.56, -244269.47, 0.0, 9.996439, 10.000032 
1.8748161e+3, 2.952401e+2, -650581.1, -329163.2, -62764.414, -0.105579294, 0.1569815, -317341.75, -270682.78, 0.0, 9.995823, 10.000087 
1.8747835e+3, 3.0523992e+2, -582253.3, -178813.98, -17487.467, 0.031745534, 0.09529463, -178057.39, -178057.39, 0.0, 9.995564, 10.000907 
1.8747498e+3, 3.1524122e+2, -489221.66, 13975.615, -14636.867, -0.04641916, 0.14088061, 14401.009, 14401.009, 0.0, 9.995556, 10.002239 
1.8854074e+3, 1.2529577e+2, -1099312.0, -1732435.1, -51340.71, -0.051700197, 0.09000795, -1095175.8, 616932.94, 0.14239521, 10.006489, 9.996757 
1.8853737e+3, 1.3529254e+2, -1042392.25, -1628632.6, 53334.746, -0.06003427, 0.053015526, -1037579.5, 576559.94, 0.09691873, 10.005737, 9.997158 
1.8853405e+3, 1.452905e+2, -980254.1, -1495699.1, 12373.587, 0.067262, 0.1119647, -979957.25, 536200.94, 0.053651214, 10.004984, 9.997764 
1.8853053e+3, 1.5528716e+2, -976542.75, -1455338.8, 26321.86, 0.015359531, 0.0026507338, -975100.06, 443089.25, 0.021756884, 10.004211, 9.997732 
1.8852703e+3, 1.6528471e+2, -951825.75, -1389065.0, 21988.166, -0.0065327357, -0.008149165, -950722.8, 369490.6, 0.0053065894, 10.00362, 9.997799 
1.8852358e+3, 1.7528325e+2, -913900.75, -1321307.6, 20759.096, 0.0054744226, 0.06728154, -912845.75, 309383.66, 0.0004470161, 10.003198, 9.997795 
1.8852007e+3, 1.8528132e+2, -834434.4, -1151019.3, 5268.897, 0.01571503, 0.06752059, -834346.75, 289901.1, 0.0000010252129, 10.002719, 9.998523 
1.8851657e+3, 1.9527908e+2, -814309.6, -1092701.1, 743.2911, 0.021074839, -0.008037752, -814307.6, 211959.77, 0.0, 10.002193, 9.998503 
1.8851306e+3, 2.0527743e+2, -799987.75, -1017987.75, -2952.6963, -0.0085706, -0.019961314, -799947.8, 128335.3, 0.0, 10.001545, 9.998657 
1.885095e+3, 2.152765e+2, -812234.9, -973940.4, -12943.089, -0.06843053, 0.019530158, -811205.44, 19088.566, 0.0, 10.000791, 9.99865 
1.8850599e+3, 2.2527568e+2, -774296.44, -849929.44, -36156.33, -0.043649767, 0.058783792, -759793.06, -27490.12, 0.0, 10.000143, 9.99914 
1.8850255e+3, 2.3527513e+2, -756598.44, -791508.8, -38765.13, 0.056441203, 0.091023244, -731539.9, -97231.05, 0.0, 9.999596, 9.999131 
1.88499e+3, 2.4527422e+2, -719333.8, -691755.1, -29201.309, 0.039563194, 0.080801226, -673251.1, -136932.55, 0.0, 9.999044, 9.999409 
1.8849534e+3, 2.55273e+2, -703999.2, -635237.5, -18626.838, -0.07853073, 0.022838756, -630515.9, -192185.02, 0.0, 9.998484, 9.999393 
1.8849182e+3, 2.652728e+2, -639592.56, -481991.2, -28303.059, -0.0636821, 0.03781412, -477062.5, -136728.19, 0.0, 9.997946, 10.000031 
1.884884e+3, 2.7527362e+2, -617871.1, -420493.44, -53220.96, 0.05500079, 0.11852923, -407057.56, -164729.92, 0.0, 9.997421, 10.000033 
1.8848483e+3, 2.8527412e+2, -603207.8, -344761.5, -31346.021, 0.013126239, 0.1647287, -341014.0, -196689.81, 0.0, 9.996772, 10.000194 
1.8848118e+3, 2.9527423e+2, -609032.0, -296476.34, -11594.108, -0.116274394, 0.15738541, -296046.84, -249722.64, 0.0, 9.996057, 10.000196 
1.8847792e+3, 3.052736e+2, -604746.2, -233664.44, 58966.51, 0.05467138, 0.06747294, -224519.75, -224519.75, 0.0, 9.995601, 10.000512 
1.8847448e+3, 3.152751e+2, -553574.6, 9719.786, -18686.771, -0.08201976, 0.17430046, 10339.021, 10339.021, 0.0, 9.995008, 10.002468 
1.8954147e+3, 1.253315e+2, -1090372.6, -1703204.3, -53563.805, 0.024088291, 0.13600048, -1085726.1, 626031.6, 0.14985669, 10.006508, 9.996954 
1.8953793e+3, 1.3532677e+2, -1047724.5, -1628896.1, 30448.182, -0.086749926, -0.05355743, -1046133.6, 567668.2, 0.102368176, 10.005718, 9.997164 
1.8953454e+3, 1.4532486e+2, -984951.4, -1497217.4, -15010.61, 0.06826848, 0.018453524, -984511.9, 531307.2, 0.05701244, 10.004961, 9.997766 
1.8953094e+3, 1.5532266e+2, -975971.7, -1456389.5, -904.21875, 0.011201572, 0.024195777, -975970.0, 441870.03, 0.023376752, 10.004225, 9.997719 
1.8952739e+3, 1.6532025e+2, -950538.56, -1391106.9, 6240.6616, -0.0037192227, 0.018749341, -950450.2, 369413.56, 0.0058320933, 10.003639, 9.997778 
1.895239e+3, 1.7531785e+2, -915008.75, -1325127.4, 5858.32, 0.024013007, 0.0026909509, -914925.1, 306962.9, 0.0005198779, 10.0032015, 9.997769 
1.8952034e+3, 1.8531589e+2, -844175.0, -1171176.9, -14232.666, 0.014686567, 0.006519239, -843556.7, 280350.6, 0.0000013718216, 10.002715, 9.998387 
1.8951675e+3, 1.9531439e+2, -824082.75, -1113587.0, -18037.348, -0.02865934, 0.019309811, -822963.3, 202957.69, 0.0, 10.0021925, 9.998362 
1.8951318e+3, 2.0531288e+2, -816304.56, -1052757.5, -30717.566, -0.026644237, 0.039204907, -812379.2, 115557.16, 0.0, 10.001546, 9.99842 
1.8950966e+3, 2.153115e+2, -829184.9, -1009025.56, -39178.78, 0.016630728, 0.05944742, -821020.3, 8931.554, 0.0, 10.000788, 9.998412 
1.8950605e+3, 2.2531022e+2, -776266.1, -854812.2, -55924.992, 0.00028419116, 0.06541205, -747201.94, -15236.416, 0.0, 10.000143, 9.999107 
1.8950237e+3, 2.353092e+2, -758317.44, -796562.7, -57496.36, -0.07048533, 0.053828467, -716847.1, -82871.055, 0.0, 9.9995985, 9.999097 
1.894988e+3, 2.4530856e+2, -695227.44, -643534.6, -49359.676, -0.06819652, 0.057687968, -613663.75, -77681.59, 0.0, 9.999049, 9.999739 
1.8949528e+3, 2.5530836e+2, -681328.8, -590451.75, -38004.26, 0.0057433173, 0.062484097, -576653.6, -138670.08, 0.0, 9.99849, 9.9997 
1.894917e+3, 2.6530802e+2, -683660.4, -576579.8, -47295.61, 0.027743647, 0.08526291, -558681.75, -218692.69, 0.0, 9.997956, 9.999379 
1.8948805e+3, 2.7530783e+2, -658659.3, -510214.6, -73223.82, -0.022394482, 0.12991916, -480174.38, -238178.66, 0.0, 9.997439, 9.999411 
1.8948442e+3, 2.8530812e+2, -539847.2, -216384.36, -58377.58, -0.076388046, 0.14491273, -206171.03, -62178.117, 0.0, 9.996783, 10.001071 
1.8948086e+3, 2.953087e+2, -554672.25, -187166.38, -30642.549, -0.05281668, 0.09676644, -184628.94, -138645.2, 0.0, 9.996069, 10.000943 
1.8947749e+3, 3.0530885e+2, -650594.25, -335431.25, 42279.38, 0.07442315, 0.08684537, -329858.0, -329858.0, 0.0, 9.995624, 9.999805 
1.8947394e+3, 3.1530902e+2, -564468.75, -12805.976, -113770.03, -0.113528445, 0.1221196, 9735.851, 9735.851, 0.0, 9.99501, 10.002313 
1.9054216e+3, 1.2536752e+2, -1010368.94, -1653698.5, 722.1619, 0.0361226, 0.09830538, -1010368.1, 701034.9, 0.15761153, 10.007166, 9.997041 
1.9053848e+3, 1.3536279e+2, -1068513.5, -1657131.9, 48914.164, -0.093697876, -0.07349781, -1064476.5, 548970.56, 0.108090095, 10.005668, 9.996997 
1.9053505e+3, 1.4536083e+2, -1013454.2, -1535841.3, 17638.215, 0.09477875, 0.012776857, -1012859.3, 502606.34, 0.06057379, 10.004881, 9.99753 
1.9053137e+3, 1.5535854e+2, -922925.0, -1454839.3, 14747.86, 0.010540101, 0.03433203, -922516.44, 494972.2, 0.025109172, 10.004715, 9.997493 
1.9052777e+3, 1.6535604e+2, -867952.0, -1346476.0, 10949.51, -0.012947248, 0.028610967, -867701.56, 451811.7, 0.0064047724, 10.004195, 9.997815 
1.9052422e+3, 1.753535e+2, -888146.6, -1308849.3, 13036.414, 0.02043055, -0.004988978, -887743.06, 333794.78, 0.00060364814, 10.003374, 9.997796 
1.905206e+3, 1.8535146e+2, -860159.06, -1201044.3, -3178.8608, 0.012498937, 0.0015221752, -860129.44, 263428.56, 0.0000017786746, 10.002704, 9.998187 
1.9051695e+3, 1.9534999e+2, -842132.06, -1143948.5, -13555.799, -0.03432561, 0.037457243, -841524.44, 184048.42, 0.0, 10.002164, 9.998166 
1.9051333e+3, 2.0534842e+2, -813470.75, -1043691.44, -23857.809, -0.026591746, 0.058185324, -811024.4, 116564.52, 0.0, 10.001534, 9.998486 
1.9050974e+3, 2.1534687e+2, -818884.6, -996877.6, -11262.384, 0.03138608, 0.05800673, -818174.8, 11429.986, 0.0, 10.00083, 9.998473 
1.9050609e+3, 2.2534545e+2, -767673.9, -862701.8, -11256.383, 0.0102854995, 0.05069524, -766358.75, -34738.91, 0.0, 10.000257, 9.998998 
1.9050233e+3, 2.3534426e+2, -737398.06, -798419.6, -19555.516, -0.0847917, 0.03231957, -731669.0, -98036.44, 0.0, 9.999796, 9.998988 
1.9049868e+3, 2.4534369e+2, -672393.75, -629392.1, -30131.12, -0.0826295, 0.04896364, -613877.1, -78239.055, 0.0, 9.999196, 9.999764 
1.9049512e+3, 2.553438e+2, -681856.94, -587591.75, -42944.52, 0.017394854, 0.08414977, -570961.44, -133325.1, 0.0, 9.998477, 9.999724 
1.9049148e+3, 2.6534346e+2, -692357.5, -571702.56, -29131.414, 0.03187156, 0.101409525, -565037.1, -225395.47, 0.0, 9.997861, 9.999457 
1.9048774e+3, 2.7534297e+2, -670588.4, -506488.1, -1229.8496, -0.06059029, 0.10788804, -506478.88, -264827.94, 0.0, 9.99732, 9.999493 
1.9048406e+3, 2.8534323e+2, -541623.25, -206083.19, 5176.7314, -0.10103502, 0.10979343, -206003.33, -62354.844, 0.0, 9.996726, 10.001168 
1.904805e+3, 2.9534402e+2, -545528.06, -179723.8, -23368.166, -0.0013426922, 0.07309277, -178237.05, -132599.66, 0.0, 9.996123, 10.000967 
1.9047698e+3, 3.0534494e+2, -652446.0, -300966.63, 59938.227, 0.02017388, 0.1318846, -291026.4, -291026.4, 0.0, 9.995458, 10.000123 
1.9047344e+3, 3.1534407e+2, -652572.7, -40962.617, -67525.29, -0.07544359, 0.021904431, -33596.16, -33596.16, 0.0, 9.99435, 10.002435 
1.915428e+3, 1.2540376e+2, -1026750.6, -1660976.6, -20502.707, -0.025332095, -0.012619764, -1026088.5, 684956.1, 0.16563453, 10.007095, 9.997019 
1.9153905e+3, 1.3540044e+2, -1090312.8, -1703421.4, -170.26074, -0.08742965, -0.013552653, -1090312.8, 522763.72, 0.11406082, 10.005683, 9.99667 
1.9153558e+3, 1.4539821e+2, -1040444.06, -1599787.0, 10886.1455, 0.1360759, 0.08703089, -1040232.3, 474866.88, 0.06432089, 10.004914, 9.997077 
1.9153184e+3, 1.5539472e+2, -952680.5, -1516984.0, 8675.224, 0.009091394, 0.032046095, -952547.1, 464588.2, 0.026948437, 10.004714, 9.997068 
1.9152816e+3, 1.6539198e+2, -864098.25, -1336082.9, -19550.648, -0.03621742, 0.020220527, -863289.8, 455872.34, 0.007023581, 10.004185, 9.997893 
1.9152452e+3, 1.7539006e+2, -883145.8, -1299986.3, -16215.886, -0.0058247903, 0.03990348, -882515.94, 338663.7, 0.00069868803, 10.003378, 9.997857 
1.9152085e+3, 1.8538794e+2, -878273.2, -1240722.5, -22870.24, 0.005694736, 0.050021324, -876835.75, 246364.94, 0.0000023137907, 10.002708, 9.997914 
1.915172e+3, 1.9538581e+2, -860227.4, -1181806.9, -32506.033, -0.0012982707, 0.047568038, -856974.5, 168248.88, 0.0, 10.002162, 9.997909 
1.915135e+3, 2.05384e+2, -789413.7, -993822.25, -49226.125, -0.012315715, 0.038851965, -778176.7, 149064.44, 0.0, 10.001532, 9.998831 
1.9150977e+3, 2.153826e+2, -796160.6, -950123.1, -35650.625, -0.024588376, 0.016650919, -788306.25, 40947.133, 0.0, 10.000829, 9.9987955 
1.9150607e+3, 2.2538128e+2, -780494.6, -890329.1, -27803.14, -0.013741167, 0.015779747, -773857.6, -42591.043, 0.0, 10.0002575, 9.99881 
1.915024e+3, 2.3538019e+2, -750424.2, -826128.0, -35553.32, 0.01153572, 0.026830502, -736345.3, -103066.055, 0.0, 9.999796, 9.9988 
1.9149867e+3, 2.453795e+2, -692159.25, -671968.2, -56250.215, -0.0067654555, 0.053392004, -624914.75, -89627.39, 0.0, 9.9992, 9.999472 
1.914949e+3, 2.553793e+2, -699016.1, -625811.1, -68177.13, -0.05115601, 0.086912535, -585032.3, -147742.14, 0.0, 9.998485, 9.99946 
1.9149117e+3, 2.6537907e+2, -632810.0, -450286.63, -48616.285, -0.056059785, 0.08652436, -438145.03, -98852.27, 0.0, 9.997868, 10.000289 
1.9148746e+3, 2.7537897e+2, -613491.75, -391277.72, -19878.813, -0.059249412, 0.05133137, -389513.4, -148219.8, 0.0, 9.997331, 10.00028 
1.9148377e+3, 2.853793e+2, -590572.7, -311652.66, -16822.768, -0.059838522, 0.056691244, -310641.66, -167350.11, 0.0, 9.99674, 10.000438 
1.9148014e+3, 2.9537997e+2, -594981.8, -288458.28, -41064.188, 0.032974984, 0.08292541, -283052.38, -237765.55, 0.0, 9.996145, 10.000212 
1.9147637e+3, 3.0538195e+2, -548240.5, -89105.27, 25362.932, -0.1256774, 0.21239927, -87708.45, -87708.45, 0.0, 9.995473, 10.001573 
1.9147292e+3, 3.153826e+2, -634844.5, -1227.6692, -89899.44, -0.024016613, 0.10373135, 11280.604, 11280.604, 0.0, 9.994336, 10.002715 
1.9254349e+3, 1.2544064e+2, -1129589.8, -1694996.5, -31184.791, 0.003630607, -0.020113524, -1127875.0, 582808.1, 0.17386481, 10.006232, 9.997153 
1.9253962e+3, 1.354376e+2, -1028104.9, -1672572.3, -29882.584, -0.095268585, 0.009302554, -1026722.25, 585990.4, 0.12023374, 10.006221, 9.996622 
1.925361e+3, 1.4543505e+2, -939794.25, -1558461.9, 5556.77, 0.124776, 0.08668313, -939744.4, 574994.06, 0.068228364, 10.005726, 9.996968 
1.9253233e+3, 1.5543142e+2, -946465.7, -1526294.5, 23332.355, 0.018840348, 0.03116301, -945528.3, 471247.38, 0.02888495, 10.004822, 9.996952 
1.9252858e+3, 1.654286e+2, -878813.2, -1352928.1, -3263.4033, -0.024007732, 0.019720042, -878790.75, 440012.84, 0.007686284, 10.00413, 9.997802 
1.9252485e+3, 1.7542659e+2, -854374.8, -1295541.4, -14008.728, -0.012849442, 0.041286014, -853930.44, 366891.47, 0.0008053693, 10.00362, 9.997769 
1.9252113e+3, 1.8542446e+2, -843323.2, -1218305.3, -15204.528, -0.005347677, 0.052805293, -842707.7, 280135.38, 0.0000031359323, 10.002928, 9.997961 
1.925174e+3, 1.9542237e+2, -868546.75, -1181119.1, -2930.6882, -0.0017050795, 0.049993522, -868519.3, 156346.05, 0.0, 10.002088, 9.997948 
1.9251363e+3, 2.0542054e+2, -808865.25, -1006302.6, -20150.67, -0.01074015, 0.03906861, -806829.6, 120053.65, 0.0, 10.001415, 9.998799 
1.9250984e+3, 2.1541907e+2, -790379.5, -950616.25, -35788.188, -0.030374276, 0.01421659, -782749.7, 46146.55, 0.0, 10.000886, 9.998764 
1.9250609e+3, 2.2541782e+2, -761900.3, -874977.6, -25860.205, -0.018635478, 0.017778253, -756266.9, -25358.123, 0.0, 10.000361, 9.998863 
1.9250238e+3, 2.3541684e+2, -740030.0, -815578.1, -17198.291, 0.017485438, 0.037224635, -736299.1, -103379.29, 0.0, 9.9998455, 9.998847 
1.9249858e+3, 2.4541607e+2, -692988.2, -676168.75, -27395.176, -0.0003156074, 0.05684818, -655921.56, -120992.94, 0.0, 9.999212, 9.999434 
1.9249472e+3, 2.5541568e+2, -702787.8, -631041.8, -21265.55, -0.05608169, 0.074667975, -625212.4, -188278.53, 0.0, 9.998476, 9.999427 
1.9249094e+3, 2.6541552e+2, -640932.4, -438349.2, -16294.867, -0.068254665, 0.078231655, -437046.88, -98111.54, 0.0, 9.997747, 10.000427 
1.9248717e+3, 2.7541572e+2, -648792.6, -392502.88, -41734.504, -0.06745876, 0.055546176, -385878.03, -144945.14, 0.0, 9.997025, 10.000417 
1.9248343e+3, 2.8541604e+2, -638046.25, -338985.8, -31733.33, -0.04634278, 0.056912877, -335655.7, -192724.86, 0.0, 9.996437, 10.000395 
1.9247979e+3, 2.954167e+2, -626737.8, -307745.88, -1142.5598, 0.07105756, 0.08775849, -307741.78, -262814.97, 0.0, 9.995948, 10.000172 
1.9247581e+3, 3.0541864e+2, -552236.3, -44443.09, 37514.434, -0.2244401, 0.1916478, -41686.582, -41686.582, 0.0, 9.995248, 10.0019865 
1.9247243e+3, 3.1542024e+2, -667988.1, -38969.848, -107361.76, 0.066213116, 0.13628523, -21150.016, -21150.016, 0.0, 9.994208, 10.002515 
1.9354421e+3, 1.2547818e+2, -1117803.0, -1663510.3, -5310.6055, 0.09900204, 0.065603934, -1117751.3, 592566.5, 0.18224801, 10.006255, 9.997409 
1.9354022e+3, 1.3547434e+2, -1024284.94, -1648444.3, -30312.836, -0.121274486, -0.0013505324, -1022816.25, 589537.9, 0.12656917, 10.006195, 9.996802 
1.935366e+3, 1.4547141e+2, -934725.94, -1534772.6, -25879.734, 0.06276495, 0.020910852, -933611.8, 580770.6, 0.07227463, 10.005693, 9.9971485 
1.9353281e+3, 1.5546866e+2, -937314.4, -1504787.0, -7766.9463, 0.03543902, 0.03341554, -937208.06, 479201.84, 0.030910179, 10.004821, 9.997101 
1.9352902e+3, 1.6546582e+2, -895889.4, -1391429.1, -22081.81, 0.014930998, 0.029233478, -894907.3, 423530.56, 0.008390655, 10.004141, 9.997535 
1.9352522e+3, 1.7546308e+2, -871154.56, -1331023.3, -32246.852, -0.005587237, 0.0031666234, -868904.4, 351560.4, 0.00092432834, 10.00362, 9.997527 
1.935214e+3, 1.8546098e+2, -820226.75, -1170222.8, -45973.984, -0.022985565, 0.012438891, -814288.56, 308196.9, 0.0000044945964, 10.002924, 9.998294 
1.9351757e+3, 1.9545957e+2, -846432.4, -1136582.4, -32579.66, -0.035744786, 0.044607528, -842819.1, 181680.48, 0.0, 10.00209, 9.998254 
1.9351375e+3, 2.0545791e+2, -836526.7, -1066003.8, -39407.215, -0.023181401, 0.05802428, -829948.06, 96568.43, 0.0, 10.001421, 9.998388 
1.9350997e+3, 2.1545622e+2, -816836.7, -1006801.94, -53474.336, 0.0098877, 0.050964296, -802818.4, 25715.568, 0.0, 10.000888, 9.998379 
1.9350612e+3, 2.2545494e+2, -741386.06, -833864.06, -44107.543, -0.00817636, 0.056459937, -723722.7, 6824.2686, 0.0, 10.000364, 9.9991455 
1.9350228e+3, 2.3545413e+2, -720262.56, -775374.25, -34892.426, -0.0703079, 0.0634217, -703357.1, -70802.1, 0.0, 9.999846, 9.999124 
1.9349843e+3, 2.4545337e+2, -678050.9, -646941.8, -54129.37, -0.06433877, 0.0600247, -606176.44, -71613.805, 0.0, 9.999216, 9.999636 
1.9349463e+3, 2.5545284e+2, -688890.6, -604973.7, -47337.258, 0.0027709862, 0.045749895, -583676.06, -147107.9, 0.0, 9.998485, 9.999604 
1.9349077e+3, 2.6545277e+2, -680502.44, -522981.78, -43126.082, -0.005319449, 0.075548366, -511947.66, -173377.13, 0.0, 9.997755, 9.999845 
1.9348684e+3, 2.7545306e+2, -686720.7, -472933.25, -67750.71, -0.09337932, 0.12433455, -453270.94, -212700.98, 0.0, 9.997028, 9.999866 
1.9348304e+3, 2.8545338e+2, -588323.94, -238486.22, -50387.293, -0.0659333, 0.11422847, -231373.53, -88806.22, 0.0, 9.996445, 10.001083 
1.9347942e+3, 2.9545414e+2, -573302.94, -203363.31, -16730.232, 0.11259861, 0.086642176, -202608.23, -158050.13, 0.0, 9.995972, 10.00088 
1.9347528e+3, 3.0545473e+2, -596937.8, -140949.06, 1580.7401, -0.27593595, 0.055617686, -140943.58, -140943.58, 0.0, 9.995261, 10.001319 
1.9347177e+3, 3.1545684e+2, -682487.75, -75733.445, -28090.34, 0.00015713197, 0.1253942, -74435.75, -74435.75, 0.0, 9.994231, 10.0022545 
1.9454487e+3, 1.2551574e+2, -1068459.6, -1654377.3, 49591.97, 0.10819221, 0.06690446, -1064291.8, 645658.1, 0.19077267, 10.006824, 9.997212 
1.9454083e+3, 1.3551189e+2, -1089564.3, -1696161.9, -13594.5205, -0.09911761, 0.012720532, -1089259.8, 522727.3, 0.13305096, 10.005773, 9.996676 
1.9453712e+3, 1.4550869e+2, -989703.9, -1537986.0, -13445.516, 0.04937117, 0.002635263, -989374.3, 524643.4, 0.07644697, 10.005202, 9.99736 
1.9453327e+3, 1.5550631e+2, -904146.5, -1465333.6, 3471.2324, 0.016209034, 0.032851942, -904125.06, 511915.47, 0.033018563, 10.0049715, 9.997296 
1.9452943e+3, 1.6550359e+2, -866598.75, -1385168.0, -6932.4976, 0.0017106783, 0.034210376, -866506.06, 451561.28, 0.0091353515, 10.004388, 9.997456 
1.9452557e+3, 1.7550069e+2, -887946.6, -1347441.1, -5028.793, -0.009346219, 0.0010195044, -887891.6, 332204.84, 0.0010562142, 10.003545, 9.997449 
1.945217e+3, 1.8549852e+2, -826610.9, -1174568.0, -25065.98, -0.0145708965, 0.007181848, -824814.44, 297303.63, 0.0000066792695, 10.00289, 9.998279 
1.945178e+3, 1.954971e+2, -805212.5, -1118556.6, -38160.89, -0.012526593, 0.041232623, -800632.0, 223499.84, 0.0, 10.002385, 9.998234 
1.9451393e+3, 2.0549545e+2, -770492.44, -1040335.2, -36501.07, -0.010518646, 0.058604356, -765642.2, 160506.67, 0.0, 10.0019045, 9.99833 
1.9451004e+3, 2.1549372e+2, -739164.7, -975205.9, -27356.719, -0.00886403, 0.056585006, -736035.6, 92131.42, 0.0, 10.00145, 9.998323 
1.9450614e+3, 2.2549252e+2, -697951.2, -802329.3, -25524.393, -0.033239666, 0.06735068, -692043.8, 38135.625, 0.0, 10.00062, 9.999236 
1.9450222e+3, 2.3549186e+2, -767021.56, -787528.6, -31199.402, -0.08103263, 0.07970072, -744434.0, -112248.09, 0.0, 9.999485, 9.999212 
1.9449833e+3, 2.4549115e+2, -743879.3, -672958.1, -53060.895, -0.062808074, 0.0755734, -644599.4, -110406.52, 0.0, 9.998746, 9.999681 
1.9449449e+3, 2.554906e+2, -707911.5, -609217.44, -59205.39, 0.013977702, 0.055107396, -581490.44, -145292.02, 0.0, 9.998337, 9.999644 
1.9449054e+3, 2.6549047e+2, -684949.7, -528764.2, -43782.984, 0.00164805, 0.08027214, -517328.0, -179126.84, 0.0, 9.997743, 9.999808 
1.9448653e+3, 2.754907e+2, -697049.1, -482519.66, -27307.03, -0.094437346, 0.12507077, -479098.38, -238896.84, 0.0, 9.996981, 9.999821 
1.9448268e+3, 2.85491e+2, -581918.8, -229851.84, -3740.5618, -0.06797769, 0.116635695, -229812.11, -87613.55, 0.0, 9.996469, 10.00113 
1.9447899e+3, 2.9549196e+2, -536489.6, -168400.4, -21120.365, 0.093620285, 0.10551631, -167192.52, -123005.91, 0.0, 9.996156, 10.001029 
1.944748e+3, 3.0549216e+2, -632557.8, -186421.33, -38011.117, -0.2649292, 0.03306779, -183205.92, -183205.92, 0.0, 9.995146, 10.00106 
1.9447117e+3, 3.1549478e+2, -759969.56, -81823.86, 63227.53, 0.008871822, 0.18802235, -75979.16, -75979.16, 0.0, 9.99357, 10.002529 
1.9554546e+3, 1.2555355e+2, -1109299.6, -1730947.8, 30931.916, 0.032158967, 0.008462724, -1107764.3, 601814.06, 0.19945388, 10.0068245, 9.996602 
1.9554146e+3, 1.3555022e+2, -1114199.1, -1752238.8, -44979.004, -0.038063653, 0.04999259, -1111043.9, 500568.06, 0.13968156, 10.005797, 9.996284 
1.9553766e+3, 1.4554682e+2, -974813.3, -1506048.8, -20003.104, 0.07278706, 0.027188603, -974061.2, 539583.8, 0.08074253, 10.005226, 9.997574 
1.9553372e+3, 1.5554439e+2, -891267.5, -1434918.4, -5891.9546, -0.038729984, 0.029781723, -891203.7, 524464.1, 0.035208605, 10.004968, 9.997508 
1.955298e+3, 1.6554186e+2, -862114.6, -1373991.9, -38897.855, -0.060816478, 0.035500616, -859175.6, 458516.88, 0.00992006, 10.00438, 9.997539 
1.955259e+3, 1.7553931e+2, -882697.25, -1339028.4, -35252.984, -0.024630029, 0.031326715, -879989.9, 339728.16, 0.0012012315, 10.003552, 9.997504 
1.95522e+3, 1.8553695e+2, -850026.94, -1225857.8, -43244.047, 0.014496215, 0.034532446, -845115.4, 276626.4, 0.000009907366, 10.002898, 9.997925 
1.9551812e+3, 1.9553491e+2, -827635.75, -1166551.4, -55013.76, 0.061453287, 0.040939864, -818929.4, 204832.98, 0.0, 10.002388, 9.997905 
1.9551414e+3, 2.0553307e+2, -752763.56, -1003969.4, -52382.965, 0.022750003, 0.04228707, -742278.06, 183502.77, 0.0, 10.001904, 9.998582 
1.955101e+3, 2.1553153e+2, -723537.9, -941544.8, -43793.426, -0.08737647, 0.031753547, -715069.56, 112726.71, 0.0, 10.001441, 9.99856 
1.9550614e+3, 2.2553046e+2, -705434.94, -817903.9, -67343.37, -0.09393844, 0.05097088, -673934.3, 55872.965, 0.0, 10.000616, 9.999134 
1.9550222e+3, 2.3552993e+2, -774201.5, -803016.06, -70740.516, -0.017030135, 0.08685164, -716416.06, -84602.64, 0.0, 9.999483, 9.999109 
1.9549827e+3, 2.4552931e+2, -751802.4, -691170.6, -67526.984, 0.0005804575, 0.104079895, -647466.56, -113646.484, 0.0, 9.99875, 9.999556 
1.9549426e+3, 2.5552887e+2, -713812.1, -623849.56, -73723.14, -0.028664447, 0.10455122, -582468.75, -146643.28, 0.0, 9.998343, 9.999541 
1.9549026e+3, 2.6552856e+2, -647516.2, -453516.4, -72138.58, -0.051132265, 0.092975825, -429632.25, -91803.984, 0.0, 9.997749, 10.000324 
1.9548625e+3, 2.7552843e+2, -662703.2, -416117.47, -53581.49, -0.07243043, 0.050291426, -404977.8, -165148.66, 0.0, 9.996997, 10.000271 
1.9548234e+3, 2.855288e+2, -624316.5, -322838.53, -16068.383, -0.056301456, 0.060353886, -321984.53, -180158.55, 0.0, 9.996487, 10.0004835 
1.9547851e+3, 2.9553017e+2, -567241.8, -237138.47, -35295.832, 0.0008748587, 0.15229136, -233406.7, -189593.28, 0.0, 9.996172, 10.000551 
1.9547439e+3, 3.0553073e+2, -620094.4, -161751.84, -101476.9, -0.1831243, 0.12561905, -140289.84, -140289.84, 0.0, 9.995149, 10.001228 
1.9547054e+3, 3.1553137e+2, -710413.7, 11507.84, 64808.92, 0.029113835, 0.07705116, 17279.771, 17279.771, 0.0, 9.9936, 10.003162 
1.9654614e+3, 1.2559228e+2, -1068986.9, -1696967.0, 23099.314, 0.014430341, 0.0389213, -1068138.4, 641062.4, 0.20827587, 10.007197, 9.996673 
1.9654208e+3, 1.3558902e+2, -999034.0, -1652078.5, -21727.727, -0.028924467, 0.056914225, -998311.94, 612919.94, 0.14645894, 10.006618, 9.996572 
1.965382e+3, 1.4558549e+2, -908473.4, -1493441.0, 17230.518, 0.054789294, 0.019161994, -907966.3, 605299.75, 0.08516387, 10.005852, 9.997363 
1.9653422e+3, 1.5558301e+2, -913055.5, -1467661.0, 1007.3652, -0.0191262, 0.03797435, -913053.6, 502236.88, 0.03748175, 10.004922, 9.997304 
1.9653025e+3, 1.6558053e+2, -875227.44, -1374990.6, -46239.832, -0.03414662, 0.05635064, -870985.2, 446330.03, 0.010744171, 10.004272, 9.9975815 
1.9652627e+3, 1.7557813e+2, -835825.7, -1311255.4, -47326.227, -0.020867208, 0.06262652, -831160.44, 388178.6, 0.0013586497, 10.003859, 9.997545 
1.965223e+3, 1.855757e+2, -796785.4, -1202852.6, -44137.41, 0.0030574303, 0.05894894, -792043.25, 329320.0, 0.000014253208, 10.003281, 9.997895 
1.9651833e+3, 1.9557342e+2, -803214.3, -1156924.6, -34357.15, 0.04260229, 0.045518875, -799908.0, 223478.02, 0.0, 10.00257, 9.99788 
1.9651431e+3, 2.0557162e+2, -771855.25, -997674.25, -29212.135, 0.014837531, 0.044946745, -768137.5, 157266.28, 0.0, 10.001709, 9.998716 
1.9651023e+3, 2.1557032e+2, -818714.44, -973279.2, -30816.053, -0.07120573, 0.045335297, -812797.1, 14619.415, 0.0, 10.0007305, 9.998683 
1.9650619e+3, 2.255692e+2, -782212.4, -856837.0, -54588.215, -0.075809814, 0.05655709, -753402.94, -23975.299, 0.0, 10.000102, 9.999112 
1.9650218e+3, 2.3556842e+2, -735630.0, -786549.56, -53884.977, -0.0125264, 0.07045173, -701492.9, -70056.805, 0.0, 9.999761, 9.999086 
1.9649814e+3, 2.455678e+2, -691990.25, -658103.94, -36615.574, -0.0054257424, 0.08461, -634701.44, -101258.5, 0.0, 9.999145, 9.999591 
1.9649407e+3, 2.5556746e+2, -717656.1, -620916.56, -32005.998, -0.044947207, 0.09692134, -611286.2, -175839.38, 0.0, 9.9983015, 9.999579 
1.9649e+3, 2.655673e+2, -662917.6, -451469.6, -43983.902, -0.06025882, 0.09050072, -442685.3, -105236.836, 0.0, 9.997609, 10.000403 
1.9648597e+3, 2.7556726e+2, -654266.44, -403012.5, -59468.15, -0.053287476, 0.050546706, -389648.13, -150200.02, 0.0, 9.997023, 10.000345 
1.9648196e+3, 2.8556755e+2, -678707.06, -352171.53, -11663.504, -0.056781027, 0.054003406, -351755.44, -210310.17, 0.0, 9.996131, 10.000452 
1.96478e+3, 2.9556867e+2, -736577.75, -313521.94, 14487.052, -0.074733265, 0.119467594, -313026.4, -269590.84, 0.0, 9.994993, 10.000592 
1.9647394e+3, 3.0556953e+2, -730655.9, -214880.8, -50929.727, -0.106963225, 0.120152265, -209899.88, -209899.88, 0.0, 9.994394, 10.001225 
1.9646984e+3, 3.1556955e+2, -607264.9, 79312.71, 108587.54, -0.05762742, 0.016623415, 96077.32, 96077.32, 0.0, 9.994231, 10.003324 
1.9754688e+3, 1.2563181e+2, -1039451.25, -1620645.0, 10879.283, 0.041373536, 0.13961644, -1039247.7, 669570.3, 0.2171713, 10.007193, 9.997347 
1.975427e+3, 1.356283e+2, -955075.56, -1540793.9, -40035.17, -0.07063889, 0.038715314, -952351.75, 658495.0, 0.15335563, 10.006598, 9.997432 
1.975387e+3, 1.4562474e+2, -950605.4, -1580844.9, -14393.591, -0.0048139854, -0.012741185, -950276.8, 562604.0, 0.08970602, 10.005846, 9.996756 
1.9753478e+3, 1.5562212e+2, -950676.44, -1551622.8, -29852.803, 0.06366159, 0.056832924, -949197.1, 465711.94, 0.039838076, 10.004941, 9.99672 
1.9753078e+3, 1.6561957e+2, -873797.2, -1376008.8, -60572.965, 0.06707308, 0.09529692, -866594.6, 450340.8, 0.011606313, 10.004289, 9.997569 
1.9752666e+3, 1.756171e+2, -835569.94, -1311449.3, -61181.637, -0.0031063138, 0.0951813, -827830.0, 391129.6, 0.0015269539, 10.0038595, 9.997545 
1.9752257e+3, 1.856147e+2, -779347.75, -1166064.9, -69244.51, -0.04839068, 0.08112383, -767322.94, 353659.88, 0.000019590076, 10.003275, 9.998153 
1.9751847e+3, 1.9561255e+2, -786053.8, -1121581.8, -59673.79, -0.06541277, 0.053988498, -775756.8, 247246.83, 0.0, 10.002568, 9.998126 
1.9751441e+3, 2.0561098e+2, -770640.9, -996206.06, -64853.938, -0.032852527, 0.064771965, -753323.75, 171695.17, 0.0, 10.00171, 9.998728 
1.975104e+3, 2.1561e+2, -817774.75, -972265.3, -63902.316, 0.03415736, 0.097258694, -794768.7, 32259.963, 0.0, 10.0007305, 9.998692 
1.9750628e+3, 2.2560868e+2, -779151.56, -852238.9, -66080.664, 0.014371, 0.084234744, -740183.0, -11141.656, 0.0, 10.000106, 9.999144 
1.9750209e+3, 2.3560724e+2, -732557.8, -781652.8, -65727.8, -0.071109824, 0.029885963, -686943.2, -55888.21, 0.0, 9.9997635, 9.999121 
1.9749798e+3, 2.4560645e+2, -677896.56, -631043.3, -67795.96, -0.08187643, 0.017098162, -582740.56, -49678.113, 0.0, 9.99915, 9.999777 
1.974939e+3, 2.5560632e+2, -705603.5, -598860.56, -62177.348, -0.03743365, 0.030472929, -570289.75, -135226.11, 0.0, 9.99831, 9.999729 
1.974898e+3, 2.656065e+2, -688415.3, -507259.34, -66135.27, -0.028346542, 0.07252412, -485684.56, -148621.45, 0.0, 9.997618, 10.000017 
1.9748567e+3, 2.7560705e+2, -675664.0, -451237.16, -82456.49, -0.04045969, 0.13004927, -424199.28, -185139.61, 0.0, 9.997035, 10.0000105 
1.9748154e+3, 2.856072e+2, -635112.3, -263211.25, -56317.426, -0.07346505, 0.09941125, -254870.11, -113812.35, 0.0, 9.996134, 10.001063 
1.9747742e+3, 2.956072e+2, -696604.3, -231700.25, -25737.732, -0.14144395, -0.0039785127, -230279.72, -187224.63, 0.0, 9.994994, 10.001156 
1.9747344e+3, 3.0560833e+2, -749344.1, -255568.39, -59916.523, -0.035120673, 0.011572811, -248401.92, -248401.92, 0.0, 9.9944, 10.000944 
1.9746931e+3, 3.1560978e+2, -636402.94, 8076.64, 26162.443, -0.006832116, 0.07993084, 9136.951, 9136.951, 0.0, 9.994269, 10.002819 
1.985476e+3, 1.2567158e+2, -1067996.3, -1644856.4, 61150.2, 0.042767018, 0.1384128, -1061585.3, 646843.9, 0.22605318, 10.007085, 9.9971895 
1.9854338e+3, 1.3566826e+2, -969036.5, -1544311.0, -38745.285, -0.029004268, 0.056642286, -966438.7, 644017.94, 0.16031434, 10.006523, 9.997442 
1.985393e+3, 1.4566493e+2, -931254.3, -1573213.6, -21224.191, -0.0073262188, 0.031105354, -930553.3, 581935.1, 0.09434089, 10.006035, 9.9967165 
1.985353e+3, 1.5566206e+2, -872856.2, -1515233.4, -3039.8943, 0.057160564, 0.0776438, -872841.8, 541677.4, 0.042267766, 10.005528, 9.996684 
1.9853121e+3, 1.656593e+2, -801854.8, -1333538.3, -12865.223, 0.0644223, 0.09569109, -801543.7, 515003.3, 0.012503388, 10.00477, 9.997624 
1.9852704e+3, 1.756567e+2, -836351.7, -1305640.6, -9923.472, -0.002356623, 0.07966399, -836141.94, 382429.6, 0.00170438, 10.003833, 9.997595 
1.9852288e+3, 1.8565442e+2, -810084.5, -1178299.9, -24187.33, -0.047021788, 0.07279699, -808502.44, 312091.34, 0.000025644316, 10.003057, 9.998172 
1.9851871e+3, 1.9565251e+2, -808091.75, -1129551.0, -33286.31, -0.065303214, 0.06900615, -804681.2, 217931.42, 0.0, 10.002409, 9.998146 
1.9851458e+3, 2.0565096e+2, -763598.5, -989786.7, -51039.87, -0.034106582, 0.08110432, -752614.6, 172013.19, 0.0, 10.001749, 9.998752 
1.9851047e+3, 2.1564986e+2, -765367.6, -943266.56, -50780.492, 0.03272169, 0.09918001, -751893.2, 74745.55, 0.0, 10.001079, 9.998721 
1.9850628e+3, 2.2564855e+2, -735978.6, -817709.0, -39029.555, 0.008212692, 0.08265464, -720334.8, 8315.905, 0.0, 10.000346, 9.999263 
1.9850203e+3, 2.3564729e+2, -754137.06, -778825.25, -32936.246, -0.08611071, 0.032767024, -731307.7, -100645.54, 0.0, 9.999563, 9.999234 
1.9849785e+3, 2.4564657e+2, -728561.75, -650055.1, -46002.47, -0.09016417, 0.018689068, -628834.9, -96166.05, 0.0, 9.998785, 9.999819 
1.9849372e+3, 2.556464e+2, -745848.3, -613382.94, -51449.94, -0.026369248, 0.023929173, -595747.5, -161076.83, 0.0, 9.998017, 9.999768 
1.9848953e+3, 2.6564655e+2, -743197.4, -531362.56, -38641.793, -0.018701049, 0.06277983, -524533.8, -187863.5, 0.0, 9.997235, 10.000034 
1.9848533e+3, 2.7564722e+2, -763665.0, -490422.1, -26630.459, -0.046133257, 0.13026167, -487850.88, -249184.88, 0.0, 9.996423, 10.000033 
1.9848113e+3, 2.8564748e+2, -683515.7, -266991.03, -12721.335, -0.07884502, 0.105220474, -266602.84, -125940.22, 0.0, 9.995723, 10.001233 
1.9847691e+3, 2.956475e+2, -675734.9, -207547.02, -16418.99, -0.13410221, -0.016553247, -206971.92, -164311.94, 0.0, 9.995083, 10.001276 
1.9847289e+3, 3.056488e+2, -747386.9, -245487.3, -37109.19, -0.01580125, 0.009836608, -242758.38, -242758.38, 0.0, 9.994376, 10.001022 
1.9846864e+3, 3.1565067e+2, -716557.1, -14935.596, 23349.172, -0.06984739, 0.10810567, -14159.42, -14159.42, 0.0, 9.993655, 10.0029545 
1.9954826e+3, 1.2571152e+2, -1121140.5, -1755483.3, 37957.98, 0.012059631, 0.04248116, -1118877.3, 589158.25, 0.23486188, 10.007097, 9.996304 
1.9954415e+3, 1.3570887e+2, -1014150.6, -1637882.1, -52842.39, 0.07941642, 0.10778335, -1009705.5, 600356.25, 0.16727632, 10.006547, 9.99671 
1.9953993e+3, 1.4570604e+2, -903895.44, -1508608.9, -35804.414, 0.033754874, 0.14212856, -901782.9, 610306.6, 0.099028975, 10.006052, 9.997156 
1.9953576e+3, 1.5570271e+2, -847185.4, -1454341.6, -20737.219, -0.03105787, 0.09913065, -846477.94, 567643.8, 0.044754628, 10.005516, 9.99711 
1.9953158e+3, 1.6569963e+2, -797616.44, -1321410.1, -46704.816, -0.033175245, 0.061884012, -793484.5, 522666.2, 0.013432015, 10.004757, 9.997716 
1.995274e+3, 1.756969e+2, -829620.06, -1294862.8, -42470.51, -0.018819122, 0.020849226, -825774.8, 392400.94, 0.0018899236, 10.003844, 9.997665 
1.9952321e+3, 1.8569475e+2, -822797.25, -1208363.0, -47389.78, -0.00003575446, 0.036952052, -817058.0, 303139.06, 0.000032100925, 10.003068, 9.997962 
1.9951904e+3, 1.9569321e+2, -821635.94, -1159018.3, -55161.945, 0.033290662, 0.09149493, -812846.0, 209367.92, 0.0, 10.002411, 9.997945 
1.9951479e+3, 2.0569149e+2, -762658.94, -988976.0, -74979.37, 0.0046157045, 0.09462336, -740072.25, 184159.1, 0.0, 10.001751, 9.998758 
1.9951047e+3, 2.156898e+2, -763664.06, -940700.75, -74017.125, -0.07513036, 0.052536525, -736796.0, 89451.73, 0.0, 10.00108, 9.99874 
1.9950621e+3, 2.2568879e+2, -720766.25, -787354.25, -67541.8, -0.09179983, 0.052930586, -678758.3, 49498.32, 0.0, 10.000348, 9.999473 
1.9950202e+3, 2.3568848e+2, -741174.1, -752656.0, -60517.742, -0.05925956, 0.0798333, -686125.6, -55867.24, 0.0, 9.999562, 9.999416 
1.9949777e+3, 2.45688e+2, -736389.6, -668242.4, -74426.56, -0.033961825, 0.08962439, -620460.5, -88197.32, 0.0, 9.99879, 9.999694 
1.9949351e+3, 2.5568753e+2, -750515.1, -626106.44, -79210.91, -0.015477931, 0.077111244, -587594.6, -153325.55, 0.0, 9.998027, 9.999679 
1.9948924e+3, 2.6568735e+2, -712652.25, -470511.06, -69804.25, -0.032955352, 0.061645236, -451829.3, -115558.01, 0.0, 9.997242, 10.000451 
1.9948493e+3, 2.756876e+2, -737617.7, -439518.16, -56330.88, -0.0761222, 0.047020603, -429228.66, -190960.19, 0.0, 9.996432, 10.0003805 
1.9948068e+3, 2.856883e+2, -704355.3, -312889.94, -37253.773, -0.07650026, 0.069402345, -309376.22, -169114.78, 0.0, 9.995731, 10.000915 
1.994765e+3, 2.956894e+2, -698694.25, -260391.8, -41840.402, -0.051872488, 0.08648359, -256433.45, -214181.64, 0.0, 9.995101, 10.000906 
1.9947228e+3, 3.0569088e+2, -710624.94, -174816.55, -67561.375, -0.057900287, 0.12895979, -166428.86, -166428.86, 0.0, 9.994396, 10.001501 
1.9946794e+3, 3.1569207e+2, -674971.6, 72032.625, -30116.406, -0.121128894, 0.1008296, 73244.836, 73244.836, 0.0, 9.993654, 10.0035515 
2.0054898e+3, 1.2575328e+2, -1058773.6, -1736579.6, 47773.477, -0.01835162, 0.058728877, -1055423.0, 652203.1, 0.24363303, 10.0078335, 9.996081 
2.0054482e+3, 1.3575006e+2, -974890.7, -1643515.0, -3299.6174, 0.08566839, 0.0992417, -974874.44, 634784.4, 0.17424281, 10.007059, 9.996416 
2.0054051e+3, 1.4574732e+2, -878008.5, -1480123.5, 16866.117, 0.02026819, 0.15008178, -877536.44, 634149.1, 0.103759676, 10.006213, 9.997292 
2.0053628e+3, 1.5574388e+2, -876384.4, -1453787.9, 11348.995, -0.035991337, 0.08335165, -876161.4, 537556.7, 0.047291998, 10.005257, 9.997237 
2.0053205e+3, 1.657409e+2, -814531.6, -1325325.8, -20316.25, -0.03553621, 0.049323548, -813724.9, 502020.97, 0.014391348, 10.004628, 9.997749 
2.005278e+3, 1.7573844e+2, -767350.8, -1261386.9, -22167.197, -0.02402963, 0.032998383, -766358.2, 451410.44, 0.0020838254, 10.004264, 9.997691 
2.0052354e+3, 1.8573627e+2, -755967.56, -1178883.5, -28759.91, -0.0024569489, 0.047536217, -754020.75, 365769.28, 0.000038712944, 10.003544, 9.997932 
2.005193e+3, 1.957345e+2, -804440.9, -1154366.9, -24690.48, 0.038089745, 0.08229132, -802707.3, 219101.33, 0.0, 10.00255, 9.997907 
2.0051496e+3, 2.057327e+2, -770744.25, -1007128.0, -37479.59, 0.007225621, 0.086815365, -764944.0, 158883.27, 0.0, 10.001761, 9.998626 
2.0051056e+3, 2.1573101e+2, -765077.5, -954225.6, -48826.21, -0.082762174, 0.06012076, -753217.3, 72627.22, 0.0, 10.001128, 9.998622 
2.0050623e+3, 2.2573005e+2, -734949.06, -779832.5, -61197.863, -0.09291791, 0.06324462, -692207.9, 35645.414, 0.0, 10.000193, 9.999598 
2.0050195e+3, 2.357298e+2, -809996.4, -772621.3, -61427.746, -0.039837763, 0.08470843, -727101.44, -97247.48, 0.0, 9.999036, 9.999531 
2.0049763e+3, 2.4572942e+2, -808498.1, -698343.94, -57569.72, -0.02187987, 0.09747373, -673748.25, -141890.38, 0.0, 9.998277, 9.999733 
2.0049329e+3, 2.557291e+2, -779858.2, -634104.6, -51582.51, -0.030705495, 0.09555233, -617696.56, -183833.77, 0.0, 9.997803, 9.999728 
2.0048892e+3, 2.6572898e+2, -714038.56, -450239.75, -53029.395, -0.050928414, 0.076248586, -439978.78, -104114.87, 0.0, 9.9971485, 10.000631 
2.0048456e+3, 2.757292e+2, -736889.5, -420312.63, -56809.797, -0.079555705, 0.043493547, -410426.8, -172566.6, 0.0, 9.996361, 10.000545 
2.0048027e+3, 2.8572997e+2, -722614.56, -327530.25, -27719.006, -0.06799743, 0.062417693, -325594.97, -185741.81, 0.0, 9.995635, 10.000858 
2.0047602e+3, 2.9573113e+2, -737049.0, -290875.44, -16327.577, -0.02541339, 0.09818365, -290278.72, -248435.4, 0.0, 9.994893, 10.000794 
2.0047167e+3, 3.057329e+2, -722915.75, -135828.8, -34952.65, -0.090210155, 0.15482594, -133755.19, -133755.19, 0.0, 9.994121, 10.001901 
2.0046733e+3, 3.1573316e+2, -714746.44, 50973.41, 6841.2754, -0.073160335, -0.013180313, 51034.527, 51034.527, 0.0, 9.993402, 10.003523 
2.0154971e+3, 1.2579654e+2, -1042912.44, -1689359.8, 12308.106, -0.054476213, 0.15678696, -1042678.2, 664525.9, 0.2526129, 10.007886, 9.996414 
2.0154542e+3, 1.3579181e+2, -975954.56, -1633932.1, -23777.553, 0.0002132763, 0.036917817, -975096.4, 634152.1, 0.18135402, 10.007062, 9.996483 
2.0154107e+3, 1.457888e+2, -891937.7, -1502087.0, -12587.71, -0.04421911, 0.06867142, -891678.06, 619598.8, 0.10859414, 10.006208, 9.997128 
2.0153685e+3, 1.5578555e+2, -885518.9, -1476147.6, -18920.547, 0.028617548, 0.03754911, -884913.4, 528395.0, 0.049899586, 10.005277, 9.997076 
2.0153259e+3, 1.6578305e+2, -815505.8, -1330447.4, -32528.906, 0.04107865, 0.058876056, -813459.06, 501873.94, 0.015387041, 10.004642, 9.99771 
2.015282e+3, 1.757812e+2, -771275.0, -1267690.0, -35646.105, -0.021912135, 0.10949322, -768728.44, 448622.84, 0.002287933, 10.004252, 9.997655 
2.0152383e+3, 1.8577884e+2, -748539.2, -1161712.8, -65000.15, -0.052643776, 0.0993355, -738554.7, 380819.28, 0.000045413177, 10.003533, 9.998057 
2.0151944e+3, 1.9577627e+2, -796868.75, -1140702.4, -59105.688, -0.04710747, 0.042578626, -786992.06, 234405.86, 0.0, 10.002556, 9.998 
2.015151e+3, 2.0577449e+2, -788559.0, -1046641.75, -59756.08, -0.02487161, 0.05894837, -775394.6, 148022.02, 0.0, 10.001768, 9.998354 
2.0151076e+3, 2.157734e+2, -783500.9, -992087.1, -71503.06, 0.0040184883, 0.12095646, -761343.44, 64086.76, 0.0, 10.001122, 9.998367 
2.0150633e+3, 2.2577222e+2, -733936.1, -778373.75, -103499.43, -0.0019816428, 0.11248518, -650297.44, 77144.266, 0.0, 10.000192, 9.99961 
2.0150186e+3, 2.3577112e+2, -807314.56, -769086.06, -101339.945, -0.031487033, 0.046934295, -685073.5, -55623.484, 0.0, 9.999041, 9.999556 
2.0149742e+3, 2.457707e+2, -792990.6, -669028.44, -74736.9, -0.055446185, 0.0428251, -633915.5, -102461.54, 0.0, 9.998285, 9.999932 
2.0149302e+3, 2.5577092e+2, -766385.06, -609345.2, -69488.64, -0.076488085, 0.07839235, -583012.6, -149559.6, 0.0, 9.997812, 9.999896 
2.0148861e+3, 2.6577133e+2, -717791.1, -461166.03, -83147.195, -0.07607587, 0.1072105, -436581.34, -101131.96, 0.0, 9.997158, 10.000554 
2.014842e+3, 2.7577198e+2, -736112.0, -424085.9, -85115.77, -0.05930858, 0.12239287, -402377.9, -164935.48, 0.0, 9.99638, 10.000511 
2.0147982e+3, 2.8577226e+2, -706106.8, -296952.13, -57084.918, -0.054739762, 0.08458409, -289136.94, -149697.83, 0.0, 9.995647, 10.001064 
2.0147547e+3, 2.9577252e+2, -725321.7, -269017.25, -46909.707, -0.062489722, 0.01060588, -264244.7, -222808.45, 0.0, 9.9949, 10.000944 
2.0147103e+3, 3.0577463e+2, -697395.25, -85821.38, -61788.773, -0.12257459, 0.07622748, -79641.17, -79641.17, 0.0, 9.994128, 10.002243 
2.0146666e+3, 3.1577647e+2, -770533.44, -70377.805, 48615.484, -0.07482557, 0.030668737, -67018.3, -67018.3, 0.0, 9.993427, 10.002676 
2.0255052e+3, 1.2584014e+2, -938331.5, -1615081.0, 38269.547, -0.08123621, 0.15499751, -936174.3, 770602.2, 0.26230252, 10.008823, 9.996654 
2.0254615e+3, 1.3583525e+2, -930814.8, -1607714.1, 12488.569, 0.014467865, 0.02196777, -930584.44, 678237.3, 0.1889072, 10.007512, 9.996444 
2.025417e+3, 1.458321e+2, -858962.8, -1504861.4, 31677.434, -0.04104152, 0.05258663, -857413.0, 653438.5, 0.113667995, 10.006593, 9.99692 
2.0253739e+3, 1.5582877e+2, -820201.5, -1466173.3, 23254.738, 0.006356541, 0.036727704, -819365.44, 593518.7, 0.052623563, 10.005868, 9.996858 
2.0253304e+3, 1.658261e+2, -788889.9, -1341462.3, 5784.402, 0.028690565, 0.06354275, -788829.3, 526081.75, 0.01643214, 10.004941, 9.997486 
2.0252863e+3, 1.75824e+2, -839196.25, -1321553.1, -10320.418, 0.00016085398, 0.11228157, -838975.56, 377957.03, 0.0025057762, 10.0038805, 9.997462 
2.0252417e+3, 1.858216e+2, -783988.2, -1161949.9, -40596.742, -0.041083787, 0.09886263, -779676.9, 339278.5, 0.00005236836, 10.0032215, 9.998203 
2.0251969e+3, 1.958191e+2, -744083.25, -1101354.0, -36278.285, -0.07915025, 0.03585409, -740436.7, 280540.88, 0.0, 10.002861, 9.998121 
2.0251526e+3, 2.058173e+2, -762687.5, -1039162.25, -37606.99, -0.04361887, 0.048544057, -757663.4, 165332.98, 0.0, 10.00197, 9.998306 
2.0251086e+3, 2.1581616e+2, -849416.25, -1028270.06, -34192.11, 0.041077495, 0.11065865, -843102.5, -18091.506, 0.0, 10.000693, 9.998323 
2.0250636e+3, 2.2581501e+2, -764413.3, -798209.75, -51356.094, 0.02946517, 0.11292613, -727246.75, -224.1488, 0.0, 10.000008, 9.99956 
2.0250176e+3, 2.3581402e+2, -707924.2, -726047.4, -55001.566, -0.050372824, 0.064154334, -661242.75, -32212.285, 0.0, 9.999747, 9.999509 
2.0249726e+3, 2.4581355e+2, -701036.4, -620031.94, -42671.188, -0.07662563, 0.05576163, -601701.7, -70666.805, 0.0, 9.998901, 9.9999695 
2.0249279e+3, 2.5581366e+2, -790193.56, -616571.75, -50200.523, -0.065810464, 0.07421447, -603101.94, -170067.08, 0.0, 9.997635, 9.99993 
2.024883e+3, 2.658141e+2, -775189.44, -483781.88, -56756.37, -0.063614145, 0.10467526, -473117.88, -138087.27, 0.0, 9.996745, 10.000596 
2.0248382e+3, 2.7581492e+2, -772195.25, -434941.0, -51211.92, -0.06206717, 0.13169505, -427335.97, -190313.69, 0.0, 9.996108, 10.000566 
2.0247935e+3, 2.8581524e+2, -742421.75, -291635.38, -25676.303, -0.0678807, 0.08597784, -290177.6, -151159.36, 0.0, 9.995305, 10.001263 
2.0247489e+3, 2.9581562e+2, -784675.7, -269886.2, -16898.934, -0.08973266, 0.002692154, -269332.06, -228318.31, 0.0, 9.994379, 10.001185 
2.0247045e+3, 3.0581763e+2, -746960.06, -104385.62, -23840.506, -0.08415665, 0.045624115, -103502.31, -103502.31, 0.0, 9.993767, 10.002289 
2.02466e+3, 3.1582037e+2, -815276.5, -137612.4, 79719.6, -0.07652341, 0.095453165, -128360.6, -128360.6, 0.0, 9.99332, 10.002264 
2.0355135e+3, 1.2588422e+2, -952844.44, -1610774.0, -12813.173, -0.11098555, 0.07750799, -952595.0, 753747.94, 0.27329892, 10.008748, 9.996744 
2.03547e+3, 1.3588023e+2, -946651.6, -1632395.1, -23864.72, 0.105632916, 0.0533762, -945822.06, 662558.0, 0.19725916, 10.007516, 9.996274 
2.0354241e+3, 1.45877e+2, -875384.75, -1540124.0, 7927.5313, 0.012720013, 0.09661201, -875290.2, 635120.9, 0.11914709, 10.006617, 9.996664 
2.0353787e+3, 1.5587334e+2, -839181.5, -1506385.4, -2751.1672, -0.09491447, 0.07200645, -839170.2, 573276.94, 0.055524085, 10.005876, 9.996579 
2.0353343e+3, 1.6586992e+2, -815771.9, -1398933.4, -32348.791, -0.063366584, 0.060021676, -813982.94, 500498.44, 0.017545637, 10.004946, 9.997092 
2.0352904e+3, 1.7586684e+2, -860823.9, -1370948.6, -44883.79, 0.03851588, 0.048483007, -856904.9, 359607.88, 0.0027427508, 10.003897, 9.997118 
2.0352454e+3, 1.8586452e+2, -772629.8, -1141192.9, -51751.824, 0.023327606, 0.052843012, -765501.0, 353033.7, 0.000060117985, 10.00323, 9.998343 
2.0351997e+3, 1.9586289e+2, -736194.8, -1083316.0, -49952.598, -0.06494565, 0.06256813, -729149.3, 291399.06, 0.0, 10.002851, 9.998253 
2.0351543e+3, 2.0586102e+2, -752989.3, -1018476.0, -84321.375, -0.05263277, 0.054977234, -728472.06, 194095.22, 0.0, 10.001965, 9.998453 
2.0351091e+3, 2.1585917e+2, -839228.06, -1009334.25, -76639.555, 0.02771029, 0.030931046, -809792.5, 14795.478, 0.0, 10.0007, 9.998452 
2.0350632e+3, 2.2585836e+2, -770794.25, -814742.06, -59794.33, 0.0013652307, 0.06667807, -729064.0, -2467.0032, 0.0, 10.000018, 9.999444 
2.0350169e+3, 2.3585844e+2, -715834.75, -744081.8, -65795.86, -0.09894168, 0.13645956, -662663.6, -34067.28, 0.0, 9.99975, 9.999385 
2.0349711e+3, 2.4585791e+2, -710431.2, -641961.94, -90213.45, -0.087245606, 0.1362665, -579705.75, -49104.074, 0.0, 9.998907, 9.999819 
2.0349261e+3, 2.5585714e+2, -796910.06, -633676.0, -95148.72, 0.0002925298, 0.082624264, -589935.06, -157325.67, 0.0, 9.997644, 9.999811 
2.0348802e+3, 2.6585716e+2, -762594.2, -460340.25, -81013.555, -0.014922628, 0.06647468, -439995.47, -105386.65, 0.0, 9.996753, 10.000756 
2.0348339e+3, 2.758578e+2, -760956.25, -414830.9, -75554.48, -0.09510211, 0.06543811, -399057.25, -162455.9, 0.0, 9.996118, 10.000702 
2.0347883e+3, 2.858588e+2, -729460.94, -266325.72, -61557.867, -0.111789376, 0.06701554, -258283.39, -119691.914, 0.0, 9.995308, 10.001437 
2.034743e+3, 2.9586035e+2, -760607.44, -223261.55, -50437.066, -0.10623702, 0.08579245, -218568.34, -177992.58, 0.0, 9.99439, 10.001503 
2.0346993e+3, 3.0586174e+2, -765402.5, -144394.77, -39615.28, 0.024550116, 0.056838293, -141877.83, -141877.83, 0.0, 9.993771, 10.002014 
2.034653e+3, 3.1586334e+2, -756796.44, -23108.428, 30691.598, -0.09943814, 0.03307663, -21826.777, -21826.777, 0.0, 9.99334, 10.003046 
2.0455222e+3, 1.2592913e+2, -1056246.8, -1671248.6, -19679.691, -0.066958144, 0.042778425, -1055617.8, 650284.0, 0.2860178, 10.007971, 9.996551 
2.0454773e+3, 1.3592547e+2, -940317.3, -1656736.1, -27680.777, 0.082164325, 0.08198777, -939249.4, 668687.8, 0.20666814, 10.007781, 9.995978 
2.0454307e+3, 1.4592192e+2, -814276.75, -1510175.5, 1183.1064, -0.005655027, 0.11024059, -814274.75, 695697.2, 0.12516147, 10.007159, 9.996606 
2.0453846e+3, 1.5591818e+2, -805147.75, -1494148.5, -469.4913, -0.08689055, 0.08513576, -805147.4, 606861.1, 0.058655348, 10.006166, 9.996522 
2.0453393e+3, 1.6591467e+2, -762099.56, -1367484.9, -6895.298, -0.06127745, 0.06542656, -762021.06, 552021.9, 0.018747639, 10.005308, 9.997131 
2.0452945e+3, 1.7591146e+2, -763139.0, -1321335.9, 8603.216, 0.017338075, 0.037707474, -763006.44, 453068.3, 0.0030054294, 10.004561, 9.997136 
2.0452486e+3, 1.8590902e+2, -735152.1, -1135773.9, 6555.8984, 0.015389279, 0.036335323, -735044.9, 383053.1, 0.00006970428, 10.003545, 9.998228 
2.0452026e+3, 1.9590731e+2, -817725.44, -1131073.9, -10417.0625, -0.036744248, 0.050721344, -817379.5, 202733.88, 0.0, 10.002332, 9.998172 
2.045156e+3, 2.0590557e+2, -788977.94, -1013095.4, -48901.445, -0.040587515, 0.0513495, -778772.56, 143358.11, 0.0, 10.001624, 9.9986515 
2.0451096e+3, 2.1590401e+2, -744742.06, -946100.2, -38659.066, -0.01258168, 0.035467904, -737574.94, 86572.766, 0.0, 10.001275, 9.998609 
2.045063e+3, 2.2590315e+2, -725597.7, -818518.06, -22656.707, -0.03057735, 0.07362291, -720367.7, 5789.8833, 0.0, 10.0004425, 9.999211 
2.0450163e+3, 2.3590301e+2, -800372.06, -807189.8, -39707.836, -0.078999005, 0.14424783, -763927.06, -135766.42, 0.0, 9.99927, 9.999181 
2.04497e+3, 2.4590242e+2, -783723.6, -670681.06, -66373.35, -0.059977077, 0.14524895, -640023.94, -109857.234, 0.0, 9.998379, 9.999874 
2.0449238e+3, 2.559017e+2, -787033.6, -621941.8, -55577.86, 0.0041801897, 0.09112681, -604975.3, -172802.06, 0.0, 9.997685, 9.99987 
2.044877e+3, 2.6590165e+2, -736354.06, -438290.13, -30766.314, -0.013559964, 0.064608224, -435147.56, -100974.8, 0.0, 9.996897, 10.000836 
2.04483e+3, 2.7590227e+2, -769988.06, -411638.38, -32995.727, -0.07983943, 0.052081373, -408625.56, -172459.86, 0.0, 9.996028, 10.000764 
2.0447834e+3, 2.8590345e+2, -754384.94, -284579.66, -34532.74, -0.10641058, 0.07485649, -282054.94, -143900.5, 0.0, 9.995167, 10.001378 
2.0447369e+3, 2.9590523e+2, -772705.5, -227717.33, -43032.902, -0.13308865, 0.12374855, -224340.33, -184203.1, 0.0, 9.994304, 10.001513 
2.044693e+3, 3.0590653e+2, -792403.25, -143508.34, -18658.69, 0.036792375, 0.07381971, -142972.25, -142972.25, 0.0, 9.993534, 10.00213 
2.0446457e+3, 3.1590885e+2, -795670.0, 17091.236, 30982.465, -0.14033526, 0.11479523, 18270.576, 18270.576, 0.0, 9.9928255, 10.003568 
2.055531e+3, 1.25975e+2, -1086431.6, -1718729.3, -33304.88, 0.020442652, 0.06266705, -1084682.3, 620769.9, 0.30051035, 10.008009, 9.9961195 
2.0554836e+3, 1.3597089e+2, -969114.3, -1712535.0, -31038.193, -0.042138886, 0.10150322, -967820.75, 639672.94, 0.21719186, 10.0077915, 9.995591 
2.055437e+3, 1.4596683e+2, -814732.75, -1499118.4, -28385.34, -0.085890114, 0.09191141, -813557.44, 695976.44, 0.13176408, 10.007149, 9.996699 
2.0553917e+3, 1.5596333e+2, -800254.75, -1477377.3, -31336.123, 0.012704411, 0.08165809, -798807.7, 612760.2, 0.062053453, 10.006157, 9.996645 
2.0553452e+3, 1.6596031e+2, -736859.9, -1311143.3, -32020.096, 0.016329847, 0.08326247, -735080.06, 578516.25, 0.020056559, 10.005299, 9.997525 
2.0552981e+3, 1.7595766e+2, -742092.25, -1276588.4, -18978.283, -0.061468113, 0.07529337, -741419.25, 474201.25, 0.0033008591, 10.004556, 9.997448 
2.0552514e+3, 1.859549e+2, -759738.6, -1187429.8, -38012.01, -0.059217703, 0.044855963, -756386.5, 361260.88, 0.00008248432, 10.003543, 9.997876 
2.0552051e+3, 1.9595225e+2, -836923.56, -1173675.4, -50847.082, 0.0035436777, 0.0010213518, -829413.5, 190260.06, 0.0, 10.002339, 9.997878 
2.055158e+3, 2.059509e+2, -771011.3, -978884.06, -60449.16, -0.011414429, 0.03882329, -754711.0, 166976.34, 0.0, 10.001634, 9.998883 
2.05511e+3, 2.1595055e+2, -733418.0, -922390.06, -52019.16, -0.08218961, 0.12291126, -720044.9, 103646.41, 0.0, 10.00127, 9.998775 
2.055063e+3, 2.259493e+2, -751760.44, -873232.5, -65604.734, -0.06753546, 0.13251121, -723093.75, 2611.6348, 0.0, 10.000441, 9.998839 
2.0550163e+3, 2.359476e+2, -821616.4, -852646.9, -80575.33, 0.007208472, 0.08688541, -755076.1, -127351.63, 0.0, 9.999272, 9.998871 
2.0549689e+3, 2.4594696e+2, -764506.2, -633319.56, -92226.3, 0.0022587618, 0.083274886, -585739.7, -56008.734, 0.0, 9.998385, 10.000129 
2.0549206e+3, 2.559472e+2, -769530.2, -588579.25, -81066.21, -0.06001608, 0.09952754, -557574.06, -125846.75, 0.0, 9.997694, 10.000096 
2.0548733e+3, 2.6594755e+2, -736119.7, -440826.38, -63822.906, -0.062750995, 0.101173684, -427622.47, -93899.36, 0.0, 9.996905, 10.000816 
2.0548265e+3, 2.7594823e+2, -770104.8, -415638.78, -65544.55, -0.016384672, 0.09501226, -403907.16, -168191.13, 0.0, 9.996039, 10.000734 
2.0547791e+3, 2.859491e+2, -775454.3, -331951.53, -67658.164, -0.05247234, 0.10947648, -321859.66, -184151.42, 0.0, 9.995179, 10.001049 
2.0547307e+3, 2.9595008e+2, -792380.6, -274855.63, -74934.375, -0.17700495, 0.10747463, -264224.0, -224523.61, 0.0, 9.994327, 10.00118 
2.0546855e+3, 3.0595186e+2, -760073.1, -76810.914, -49733.23, -0.056510087, 0.1026674, -73209.914, -73209.914, 0.0, 9.993533, 10.002589 
2.0546387e+3, 3.159554e+2, -833975.6, -63054.723, -66211.125, -0.09019063, 0.21863563, -57409.47, -57409.47, 0.0, 9.992816, 10.003027 
2.0655394e+3, 1.2602149e+2, -991896.2, -1664719.3, -12735.329, 0.004370793, 0.063407615, -991655.2, 713341.1, 0.31646335, 10.009124, 9.996073 
2.0654915e+3, 1.3601741e+2, -937872.1, -1679248.6, 20937.365, -0.05758386, 0.09948481, -937281.3, 669756.1, 0.22868381, 10.008121, 9.995659 
2.0654441e+3, 1.4601314e+2, -828041.7, -1502364.1, 25114.232, -0.076318674, 0.06692473, -827107.6, 681972.2, 0.1389228, 10.007089, 9.996701 
2.0653977e+3, 1.5600988e+2, -815500.56, -1483926.8, 19803.578, 0.014225155, 0.08344048, -814914.4, 596197.5, 0.065729916, 10.006063, 9.996644 
2.0653504e+3, 1.6600692e+2, -754155.06, -1318713.4, 11921.303, 0.015817393, 0.09132324, -753903.44, 559236.25, 0.021485338, 10.00518, 9.997529 
2.0653024e+3, 1.7600422e+2, -767917.06, -1288394.5, -1516.6362, -0.058054272, 0.07521991, -767912.6, 447251.75, 0.0036347718, 10.004379, 9.997451 
2.0652549e+3, 1.8600146e+2, -755802.1, -1194262.3, -25803.785, -0.059414063, 0.053880785, -754288.75, 362902.34, 0.00009968556, 10.003613, 9.997794 
2.0652075e+3, 1.9599894e+2, -765837.6, -1148860.6, -20938.1, -0.005458632, 0.029591825, -764696.44, 254520.58, 0.0, 10.002871, 9.997792 
2.0651597e+3, 2.0599742e+2, -726274.5, -963412.3, -25550.848, -0.016003834, 0.058967408, -723552.75, 197679.56, 0.0, 10.00197, 9.998826 
2.0651111e+3, 2.1599676e+2, -781781.1, -949442.25, -41320.16, -0.073448814, 0.11686532, -772150.94, 51087.844, 0.0, 10.000958, 9.998736 
2.0650633e+3, 2.2599545e+2, -799664.9, -884403.44, -51762.543, -0.054051653, 0.12081826, -775142.3, -49889.59, 0.0, 10.000065, 9.998941 
2.0650156e+3, 2.3599394e+2, -818371.44, -840869.44, -31904.828, 0.020837033, 0.08287492, -795790.6, -168520.6, 0.0, 9.999255, 9.998958 
2.0649673e+3, 2.4599338e+2, -746401.94, -623874.5, -29614.027, 0.0059952177, 0.08330765, -617092.4, -87816.625, 0.0, 9.998511, 10.000132 
2.0649183e+3, 2.5599363e+2, -754577.9, -581894.2, -39801.04, -0.07390605, 0.10204333, -573162.2, -141890.13, 0.0, 9.997803, 10.000088 
2.0648699e+3, 2.6599386e+2, -750022.44, -461739.22, -44155.754, -0.07429184, 0.10317955, -455127.63, -121858.48, 0.0, 9.996875, 10.000687 
2.0648225e+3, 2.759944e+2, -812692.8, -446824.25, -54755.4, -0.009137251, 0.094930924, -438805.38, -203541.14, 0.0, 9.995796, 10.000636 
2.0647742e+3, 2.8599548e+2, -796257.4, -325078.06, -32112.02, -0.028438851, 0.1254908, -322899.63, -185645.1, 0.0, 9.994967, 10.001197 
2.0647253e+3, 2.9599681e+2, -799241.75, -271452.1, -6009.5156, -0.1377174, 0.14892015, -271383.7, -232141.1, 0.0, 9.994257, 10.001234 
2.0646785e+3, 3.059978e+2, -767257.94, -94111.46, 13445.553, -0.105622396, 0.072508946, -93843.01, -93843.01, 0.0, 9.993549, 10.00246 
2.0646319e+3, 3.1599987e+2, -813815.0, -72310.234, -61982.645, -0.0667501, 0.046695232, -67164.79, -67164.79, 0.0, 9.993036, 10.002858 
2.0755474e+3, 1.2606867e+2, -1002780.4, -1643216.1, -39102.527, -0.10445, 0.05822044, -1000401.75, 704132.2, 0.33332467, 10.009063, 9.996334 
2.0755e+3, 1.3606495e+2, -931258.44, -1621712.8, -6521.3804, 0.010485855, 0.08295489, -931196.9, 675372.8, 0.2408611, 10.00807, 9.996079 
2.0754519e+3, 1.4606073e+2, -842639.75, -1518542.3, -7673.048, -0.0014564132, 0.041700438, -842552.7, 666058.75, 0.14654234, 10.007068, 9.996596 
2.0754029e+3, 1.5605766e+2, -823231.8, -1502206.3, -13976.869, -0.07297799, 0.0877978, -822944.2, 587698.5, 0.06967232, 10.006087, 9.996509 
2.0753548e+3, 1.6605437e+2, -773637.9, -1365307.9, -16231.869, -0.05301577, 0.086983085, -773192.94, 539481.94, 0.0230386, 10.005207, 9.997199 
2.0753074e+3, 1.7605102e+2, -785565.5, -1327974.5, -28673.602, 0.01790808, 0.040532906, -784053.94, 430652.8, 0.004010241, 10.004389, 9.997177 
2.0752591e+3, 1.8604869e+2, -745750.5, -1174281.5, -51645.723, 0.0033231836, 0.064627826, -739614.1, 377115.66, 0.00012214475, 10.0036125, 9.997933 
2.0752098e+3, 1.9604722e+2, -760890.2, -1138116.6, -47208.746, -0.06426398, 0.13267197, -755071.94, 263673.2, 0.0, 10.002865, 9.99787 
2.0751612e+3, 2.06045e+2, -750674.0, -1014649.9, -62030.695, -0.052804254, 0.10928889, -736824.25, 183942.61, 0.0, 10.001968, 9.998478 
2.0751128e+3, 2.160425e+2, -799762.0, -987435.8, -76139.81, 0.009069026, 0.01957877, -772757.56, 50033.414, 0.0, 10.000958, 9.998478 
2.0750637e+3, 2.260416e+2, -759755.7, -803639.56, -80935.49, 0.0048218803, 0.042241443, -697840.6, 26959.695, 0.0, 10.00007, 9.999495 
2.0750141e+3, 2.3604192e+2, -785337.25, -773830.6, -59851.14, -0.0415128, 0.1331863, -719456.94, -92658.76, 0.0, 9.999258, 9.999418 
2.0749651e+3, 2.4604152e+2, -764373.0, -663552.8, -55809.26, -0.050563864, 0.14513434, -638757.5, -109955.305, 0.0, 9.998517, 9.999858 
2.0749162e+3, 2.5604084e+2, -772008.75, -621346.8, -67619.29, -0.03912315, 0.09753185, -595449.7, -164641.03, 0.0, 9.997813, 9.999815 
2.0748669e+3, 2.6604053e+2, -767576.94, -500998.4, -85781.02, -0.049289156, 0.06932189, -475780.84, -142968.63, 0.0, 9.996882, 10.000415 
2.0748176e+3, 2.7604064e+2, -823334.75, -472575.66, -93399.016, -0.06398963, 0.049861312, -449256.03, -214444.06, 0.0, 9.995808, 10.000456 
2.074769e+3, 2.8604242e+2, -749553.94, -232317.1, -60502.938, -0.039038535, 0.120891854, -225334.13, -88539.35, 0.0, 9.994981, 10.00183 
2.0747207e+3, 2.9604545e+2, -765167.25, -206452.22, -35106.895, -0.018245999, 0.2482877, -204254.9, -165490.52, 0.0, 9.994276, 10.001674 
2.0746718e+3, 3.0604425e+2, -819010.5, -204748.56, -10861.65, -0.103437014, -0.018630855, -204556.56, -204556.56, 0.0, 9.993562, 10.001695 
2.0746243e+3, 3.160457e+2, -772807.9, 5161.909, -30719.004, -0.11966159, -0.03934375, 6372.998, 6372.998, 0.0, 9.993067, 10.003377 
2.0855561e+3, 1.2611672e+2, -1065656.9, -1657014.3, -21833.799, -0.08728259, 0.04988632, -1064851.9, 639212.0, 0.35047206, 10.008527, 9.99646 
2.0855075e+3, 1.3611348e+2, -1005964.6, -1629057.8, 2548.595, 0.01115611, 0.08979654, -1005954.25, 600139.7, 0.25339702, 10.007343, 9.996377 
2.0854588e+3, 1.461093e+2, -891588.06, -1559582.6, 15182.111, 0.007347427, 0.047379006, -891243.1, 616891.8, 0.154498, 10.006794, 9.996446 
2.0854089e+3, 1.561059e+2, -753360.4, -1479597.1, 7122.045, -0.08860238, 0.07709913, -753290.5, 656879.0, 0.07384926, 10.006694, 9.996369 
2.0853601e+3, 1.6610259e+2, -673438.94, -1322162.3, 410.32025, -0.070205584, 0.082865946, -673438.7, 638763.94, 0.024711996, 10.005953, 9.997134 
2.085312e+3, 1.7609939e+2, -733467.9, -1310462.1, 3837.517, 0.01896941, 0.061147947, -733442.3, 480791.2, 0.0044277823, 10.004784, 9.997107 
2.0852624e+3, 1.8609697e+2, -733843.6, -1174571.5, -16065.09, 0.010245742, 0.08345713, -733258.8, 382998.63, 0.00015031474, 10.003721, 9.997878 
2.0852125e+3, 1.9609524e+2, -784375.4, -1154334.3, -26210.006, -0.062081285, 0.13195609, -782527.75, 235747.05, 0.0, 10.002728, 9.997822 
2.0851628e+3, 2.0609291e+2, -768262.2, -1029695.44, -33321.92, -0.04771419, 0.102190904, -764081.8, 156215.64, 0.0, 10.001882, 9.998413 
2.085114e+3, 2.1609037e+2, -779174.56, -983834.56, -28055.898, 0.024072068, 0.013738045, -775398.2, 46923.87, 0.0, 10.001131, 9.998418 
2.0850639e+3, 2.260894e+2, -723141.56, -783476.1, -46322.516, 0.008419414, 0.034951054, -698029.2, 26302.273, 0.0, 10.000315, 9.999514 
2.0850132e+3, 2.3608972e+2, -756013.0, -757872.94, -66914.54, -0.06409821, 0.123608164, -690022.0, -63693.023, 0.0, 9.999455, 9.999431 
2.0849633e+3, 2.4608932e+2, -774052.56, -675478.4, -69255.59, -0.064302176, 0.13877742, -639762.2, -111428.98, 0.0, 9.998486, 9.99979 
2.0849138e+3, 2.560886e+2, -829347.06, -654378.7, -65991.29, -0.017566498, 0.09926817, -632280.3, -201940.08, 0.0, 9.997447, 9.999763 
2.0848638e+3, 2.6608837e+2, -799318.94, -506068.22, -61067.313, -0.030140808, 0.07446776, -493859.66, -161516.36, 0.0, 9.996625, 10.000503 
2.0848133e+3, 2.7608857e+2, -800612.44, -453727.1, -42257.16, -0.07463689, 0.052325852, -448653.6, -214311.33, 0.0, 9.995934, 10.000522 
2.084764e+3, 2.8609014e+2, -738986.7, -230303.48, -28551.475, -0.047760546, 0.10529757, -228705.97, -92379.29, 0.0, 9.995069, 10.001801 
2.084715e+3, 2.9609296e+2, -800066.06, -229885.63, -55798.297, 0.00510663, 0.21675882, -224476.47, -186178.25, 0.0, 9.994066, 10.001615 
2.0846653e+3, 3.060921e+2, -907723.44, -292732.38, -25077.254, -0.093861066, 0.00676931, -291711.5, -291711.5, 0.0, 9.993151, 10.001289 
2.0846172e+3, 3.160948e+2, -825962.44, 63882.18, 12684.647, -0.097440824, 0.14463684, 64062.96, 64062.96, 0.0, 9.992343, 10.0041275 
2.0955655e+3, 1.2616554e+2, -1088547.1, -1661382.8, -44461.66, 0.017257543, 0.03725957, -1085116.6, 618470.1, 0.3673955, 10.008456, 9.996459 
2.0955141e+3, 1.3616286e+2, -1001230.1, -1603397.8, -25625.275, -0.048545193, 0.115071826, -1000141.6, 605469.56, 0.26602632, 10.007406, 9.996528 
2.0954649e+3, 1.461587e+2, -902498.75, -1583046.0, 12549.809, -0.041172825, 0.07693579, -902267.4, 605384.4, 0.16268718, 10.006838, 9.996264 
2.095416e+3, 1.561546e+2, -768672.94, -1500632.1, 2831.8008, -0.045915652, 0.05301596, -768662.0, 641030.7, 0.07823243, 10.006662, 9.996242 
2.0953663e+3, 1.6615151e+2, -670865.56, -1306460.4, -39923.906, -0.047877215, 0.08025649, -668367.6, 643355.8, 0.026500065, 10.005915, 9.997264 
2.0953159e+3, 1.7614919e+2, -727949.56, -1299429.5, -36555.387, -0.050260216, 0.13205253, -725620.75, 488125.72, 0.004887231, 10.004784, 9.997185 
2.0952657e+3, 1.861462e+2, -748275.44, -1208799.0, -51618.6, -0.033699248, 0.108662434, -742560.56, 373215.0, 0.00018451273, 10.003736, 9.997639 
2.0952156e+3, 1.96143e+2, -796018.6, -1181778.6, -59768.195, -0.004909218, 0.034493413, -786970.56, 230835.9, 0.0, 10.002739, 9.997631 
2.0951651e+3, 2.061411e+2, -752472.94, -999984.75, -60029.742, -0.0068302136, 0.043259338, -738682.1, 181142.61, 0.0, 10.001891, 9.998615 
2.0951144e+3, 2.1614015e+2, -770977.6, -967535.56, -53886.727, -0.029098762, 0.09725662, -757173.9, 64659.527, 0.0, 10.00113, 9.998532 
2.0950638e+3, 2.2613871e+2, -760374.5, -861801.7, -77344.68, -0.04233337, 0.09546043, -718599.94, 5247.8247, 0.0, 10.000315, 9.998978 
2.0950127e+3, 2.361372e+2, -788585.7, -826290.75, -98305.33, -0.049513705, 0.052992012, -707341.5, -81477.79, 0.0, 9.999455, 9.998963 
2.0949619e+3, 2.4613662e+2, -763436.7, -655817.94, -108896.984, -0.037484318, 0.06594774, -588161.25, -60291.313, 0.0, 9.998492, 9.999925 
2.0949113e+3, 2.561369e+2, -816055.7, -629937.75, -103631.87, -0.013995206, 0.109465785, -583714.5, -153846.66, 0.0, 9.997456, 9.999928 
2.0948604e+3, 2.6613733e+2, -765556.1, -439858.16, -87978.98, -0.01991168, 0.11962247, -417612.3, -85748.93, 0.0, 9.996637, 10.000954 
2.0948093e+3, 2.76138e+2, -776376.0, -409410.84, -69001.66, -0.042119037, 0.10097299, -396865.16, -163009.25, 0.0, 9.995955, 10.000818 
2.0947587e+3, 2.8613847e+2, -791396.3, -342820.03, -68340.2, -0.0571992, 0.0774873, -332639.53, -196787.94, 0.0, 9.995081, 10.001024 
2.094708e+3, 2.9613918e+2, -841744.1, -318322.66, -95290.34, -0.081539, 0.0509266, -301514.5, -263668.06, 0.0, 9.99407, 10.001007 
2.0946585e+3, 3.0614117e+2, -908476.25, -296240.03, -60411.027, -0.07887067, 0.14994287, -290336.03, -290336.03, 0.0, 9.993155, 10.001266 
2.0946096e+3, 3.161428e+2, -743339.2, 228424.73, -15165.44, -0.07149944, 0.18715553, 228661.36, 228661.36, 0.0, 9.992368, 10.005249 
2.105574e+3, 1.2621613e+2, -1168378.0, -1721337.6, 18028.041, 0.065075584, 0.07173088, -1167790.9, 535301.0, 0.38382995, 10.007892, 9.996154 
2.1055217e+3, 1.3621289e+2, -875033.8, -1555626.1, 13046.877, -0.09250011, 0.11917557, -874783.8, 730338.25, 0.27860463, 10.008816, 9.996303 
2.105472e+3, 1.4620869e+2, -770741.9, -1492826.5, 26471.078, -0.074184746, 0.082856946, -769772.8, 737389.7, 0.1710508, 10.007927, 9.996376 
2.1054223e+3, 1.5620449e+2, -857618.0, -1533806.3, 35665.23, -0.017685203, 0.03812179, -855742.0, 553461.25, 0.08280467, 10.00597, 9.996347 
2.1053718e+3, 1.6620143e+2, -788726.0, -1366998.4, 10866.485, -0.026447395, 0.065944046, -788521.94, 522711.66, 0.028399345, 10.005104, 9.997237 
2.1053202e+3, 1.7619923e+2, -711643.94, -1294829.9, 2903.6584, -0.07813511, 0.13332564, -711629.5, 501626.2, 0.005388214, 10.004918, 9.997149 
2.1052693e+3, 1.8619615e+2, -676054.5, -1186167.4, -19998.225, -0.059198134, 0.108165324, -675271.7, 440014.22, 0.0002250251, 10.004291, 9.997524 
2.1052185e+3, 1.9619268e+2, -711309.0, -1153227.6, -20679.81, 0.00481171, 0.019636175, -710343.4, 306976.1, 0.0, 10.003376, 9.9975195 
2.1051672e+3, 2.0619076e+2, -684331.94, -973125.75, -26725.16, 0.004746282, 0.038271703, -681879.6, 237458.1, 0.0, 10.002388, 9.998558 
2.1051155e+3, 2.1619004e+2, -744332.7, -963707.5, -41401.73, -0.036657967, 0.118437134, -736779.2, 84565.21, 0.0, 10.001356, 9.998447 
2.1050636e+3, 2.2618833e+2, -770550.4, -899789.3, -60633.74, -0.045162003, 0.11155604, -746557.6, -23196.033, 0.0, 10.000392, 9.998678 
2.1050122e+3, 2.3618624e+2, -805925.0, -862932.2, -65102.08, -0.030962016, 0.04301385, -763360.06, -137976.39, 0.0, 9.999462, 9.998706 
2.1049604e+3, 2.4618554e+2, -759906.56, -644074.5, -73820.24, -0.025472492, 0.04922696, -608162.5, -80771.37, 0.0, 9.998478, 10.00001 
2.1049084e+3, 2.5618598e+2, -811332.2, -619950.3, -72645.805, -0.025370825, 0.099827275, -595498.94, -166111.78, 0.0, 9.997459, 9.999993 
2.1048567e+3, 2.6618657e+2, -782595.94, -451141.0, -72167.16, -0.025961041, 0.12767851, -436109.8, -104728.87, 0.0, 9.996535, 10.000924 
2.1048051e+3, 2.7618742e+2, -820206.3, -433060.34, -90364.68, -0.02557436, 0.13175747, -413006.84, -179635.03, 0.0, 9.9956665, 10.000794 
2.1047537e+3, 2.8618762e+2, -813470.5, -356016.34, -67440.17, -0.058044434, 0.07961538, -346281.16, -210910.6, 0.0, 9.994943, 10.0009985 
2.1047018e+3, 2.9618767e+2, -812533.25, -312108.8, -41215.313, -0.113289334, -0.0041310606, -308737.0, -271365.6, 0.0, 9.9943075, 10.000934 
2.1046513e+3, 3.0619058e+2, -922151.25, -299249.22, -5848.5234, -0.08377355, 0.19133759, -299194.3, -299194.3, 0.0, 9.993049, 10.001293 
2.1046011e+3, 3.1619078e+2, -871327.25, 217638.77, 39049.184, -0.10607403, 0.07841637, 219037.23, 219037.23, 0.0, 9.991279, 10.005696 
2.1155818e+3, 1.2626809e+2, -1199631.1, -1799374.0, 45297.45, 0.05775993, 0.12936716, -1196229.1, 506354.1, 0.3997471, 10.00796, 9.995597 
2.1155302e+3, 1.362635e+2, -920973.75, -1618895.9, 29736.662, -0.12960532, 0.10355087, -919709.06, 684918.2, 0.29109108, 10.008742, 9.995779 
2.1154796e+3, 1.4625926e+2, -768575.1, -1460620.0, -33675.074, -0.100406945, 0.06980911, -766940.4, 739727.06, 0.17955521, 10.007858, 9.996682 
2.1154281e+3, 1.5625547e+2, -838105.94, -1492874.0, -24044.014, -0.0054489947, 0.03273749, -837224.2, 571478.9, 0.087550774, 10.006009, 9.996612 
2.1153769e+3, 1.6625223e+2, -794374.5, -1388299.3, 4777.3784, -0.008461069, 0.041244056, -794336.06, 516398.3, 0.030407257, 10.00515, 9.997071 
2.1153252e+3, 1.7624952e+2, -721362.4, -1315838.3, -5370.1875, -0.07190942, 0.072857425, -721313.9, 491447.72, 0.005931236, 10.004919, 9.997005 
2.1152735e+3, 1.8624674e+2, -677939.3, -1189052.6, -53072.535, -0.07137788, 0.08557247, -672486.56, 442302.7, 0.00027241782, 10.004281, 9.997512 
2.1152215e+3, 1.9624409e+2, -715024.1, -1161421.4, -52927.45, -0.031972054, 0.081728026, -708834.56, 307980.97, 0.00000000000010610821, 10.003374, 9.997466 
2.1151692e+3, 2.0624179e+2, -706137.56, -1020623.75, -63999.17, -0.011375294, 0.08226874, -693612.3, 225225.56, 0.0, 10.002393, 9.998232 
2.115117e+3, 2.1623991e+2, -765540.44, -1008161.3, -77034.84, -0.0033441333, 0.08014359, -743147.75, 77708.12, 0.0, 10.001353, 9.998146 
2.1150644e+3, 2.2623819e+2, -775223.7, -910748.25, -94127.72, -0.0046002674, 0.087789886, -727004.25, -4130.468, 0.0, 10.000393, 9.998605 
2.1150117e+3, 2.3623677e+2, -808862.4, -871087.6, -98757.56, -0.011639521, 0.094728455, -736432.5, -111542.68, 0.0, 9.999467, 9.99865 
2.1149588e+3, 2.4623592e+2, -757388.56, -641637.6, -112376.77, -0.03032271, 0.08644433, -573108.56, -46210.324, 0.0, 9.998486, 10.000025 
2.1149056e+3, 2.5623563e+2, -814728.3, -630229.25, -110315.23, -0.055731308, 0.066452354, -578675.4, -149775.72, 0.0, 9.997469, 9.99992 
2.114853e+3, 2.6623592e+2, -819739.75, -530866.9, -106330.305, -0.050707337, 0.098316856, -495948.88, -165051.48, 0.0, 9.996543, 10.000375 
2.1148008e+3, 2.762367e+2, -843082.4, -483727.03, -123501.9, -0.03174947, 0.14865197, -445375.38, -212484.0, 0.0, 9.995677, 10.000444 
2.1147485e+3, 2.862374e+2, -755896.5, -241132.61, -92820.29, -0.053811647, 0.114338115, -224907.05, -90022.336, 0.0, 9.994958, 10.001783 
2.1146964e+3, 2.962384e+2, -772137.06, -237345.42, -67807.945, -0.084916174, 0.049546756, -228881.78, -192008.23, 0.0, 9.994341, 10.001433 
2.114644e+3, 3.0624035e+2, -919975.44, -295946.25, -72954.39, -0.11599499, 0.13418883, -287530.75, -287530.75, 0.0, 9.9930525, 10.001316 
2.1145925e+3, 3.162409e+2, -921211.8, 120223.87, -42895.316, -0.064797714, 0.041442737, 121987.68, 121987.68, 0.0, 9.991248, 10.005044 
2.1255898e+3, 1.2631977e+2, -1067150.0, -1660168.8, 31729.686, -0.0067926813, 0.16571152, -1065457.1, 636621.8, 0.41521367, 10.009462, 9.996016 
2.1255386e+3, 1.363151e+2, -1047910.75, -1671415.8, 51016.895, -0.09024055, 0.102550484, -1043763.94, 560358.7, 0.30347428, 10.007489, 9.996028 
2.1254869e+3, 1.4631101e+2, -900341.2, -1533799.0, -4135.3364, -0.07449549, 0.08060281, -900314.25, 605846.94, 0.18816388, 10.006853, 9.9965925 
2.1254343e+3, 1.5630743e+2, -706594.44, -1429660.0, -15822.534, -0.04198514, 0.07320824, -706248.4, 701946.9, 0.09244954, 10.007069, 9.996532 
2.1253821e+3, 1.6630396e+2, -634440.5, -1309064.0, 7511.283, -0.041078337, 0.06274267, -634356.9, 675871.5, 0.032521576, 10.006304, 9.997056 
2.1253301e+3, 1.7630073e+2, -720259.7, -1316804.1, 5339.1245, -0.06190537, 0.046878316, -720211.9, 492047.38, 0.006519053, 10.004939, 9.996988 
2.1252775e+3, 1.8629803e+2, -711667.6, -1202829.9, -35489.277, -0.057362676, 0.06669654, -709116.56, 405169.63, 0.00032801976, 10.004043, 9.99753 
2.1252246e+3, 1.962958e+2, -707350.06, -1157719.0, -36200.367, -0.03774055, 0.10218806, -704458.8, 311850.25, 0.0000000000129771185, 10.003431, 9.997461 
2.1251716e+3, 2.0629336e+2, -688065.4, -1031097.06, -47210.33, -0.018080698, 0.10102533, -681686.56, 236646.45, 0.0, 10.0026045, 9.998055 
2.1251184e+3, 2.1629103e+2, -735829.75, -1010818.44, -50852.406, 0.0019185044, 0.07301861, -726727.2, 93628.39, 0.0, 10.001635, 9.99799 
2.1250649e+3, 2.2628932e+2, -748989.9, -893582.5, -58995.08, 0.0072578206, 0.08643669, -727973.94, -5600.3438, 0.0, 10.000558, 9.99864 
2.1250112e+3, 2.3628816e+2, -815058.4, -871894.0, -56308.316, 0.002805098, 0.11735326, -780403.25, -156016.3, 0.0, 9.999418, 9.998666 
2.1249573e+3, 2.4628721e+2, -751198.0, -648794.7, -64888.656, -0.021506982, 0.10561608, -617339.56, -90943.56, 0.0, 9.998574, 9.999931 
2.124903e+3, 2.5628665e+2, -760348.0, -614911.44, -72107.734, -0.05465023, 0.06663149, -585221.4, -156821.39, 0.0, 9.997891, 9.99982 
2.1248494e+3, 2.6628673e+2, -773548.5, -524252.53, -55441.695, -0.05483814, 0.092460155, -512478.75, -182079.06, 0.0, 9.996932, 10.000231 
2.1247962e+3, 2.7628735e+2, -834291.4, -490090.1, -44601.406, -0.04318245, 0.14149404, -484404.6, -252008.95, 0.0, 9.995788, 10.000343 
2.1247429e+3, 2.862881e+2, -803546.5, -237580.56, -28568.928, -0.05987114, 0.108093455, -236142.11, -101753.91, 0.0, 9.994521, 10.002015 
2.1246901e+3, 2.9628956e+2, -917614.2, -281409.75, -45082.72, -0.06264839, 0.06288591, -278231.0, -241858.17, 0.0, 9.9932375, 10.00166 
2.1246368e+3, 3.0629197e+2, -984536.8, -295023.4, -51399.473, -0.09904086, 0.17100234, -291212.94, -291212.94, 0.0, 9.992474, 10.0016 
2.1245842e+3, 3.162931e+2, -902548.94, 81040.86, -1613.7673, -0.016648432, 0.11106873, 81043.51, 81043.51, 0.0, 9.991583, 10.004613 
2.1355979e+3, 1.263713e+2, -1044904.44, -1570229.6, -4910.8657, -0.12139301, 0.18326072, -1044858.5, 656718.94, 0.4302596, 10.009376, 9.997151 
2.1355468e+3, 1.363676e+2, -1014804.44, -1566309.4, 6817.317, 0.00784666, 0.116610944, -1014720.2, 588888.94, 0.31571943, 10.007524, 9.996839 
2.1354942e+3, 1.463638e+2, -925117.6, -1591839.5, 4366.4165, -0.0118037965, 0.1116137, -925089.0, 580556.25, 0.19683324, 10.006894, 9.996177 
2.1354404e+3, 1.5636027e+2, -733749.7, -1482056.0, -11232.866, -0.12385091, 0.15157092, -733581.1, 674099.75, 0.09748324, 10.00706, 9.996179 
2.1353875e+3, 1.663565e+2, -632550.44, -1299435.6, -38682.938, -0.119504735, 0.12354657, -630314.1, 679402.1, 0.034745816, 10.006288, 9.997134 
2.1353349e+3, 1.7635281e+2, -714161.44, -1306291.6, -38626.47, -0.05043542, 0.051476974, -711652.4, 500097.3, 0.0071581677, 10.004948, 9.997058 
2.1352817e+3, 1.8634993e+2, -708216.94, -1199099.5, -55951.695, -0.022089751, 0.05084977, -701920.25, 411857.38, 0.00039433417, 10.004054, 9.997553 
2.1352282e+3, 1.9634771e+2, -706432.06, -1156086.1, -57793.957, -0.01762927, 0.08593354, -699122.6, 316678.06, 0.0000000000136278775, 10.003428, 9.997477 
2.1351741e+3, 2.0634542e+2, -691177.1, -1037941.7, -81751.38, -0.018481065, 0.09874213, -672870.4, 244953.45, 0.0, 10.002601, 9.9980135 
2.1351196e+3, 2.163433e+2, -737132.44, -1014581.8, -85058.43, -0.022304403, 0.09520729, -713132.0, 106712.87, 0.0, 10.001635, 9.997967 
2.1350652e+3, 2.2634158e+2, -739923.0, -876836.7, -100473.305, -0.010302625, 0.10359266, -686801.8, 35060.66, 0.0, 10.000563, 9.998755 
2.1350105e+3, 2.3634028e+2, -810443.3, -863074.56, -95099.77, 0.0095286565, 0.11091709, -738085.3, -114209.15, 0.0, 9.999417, 9.998729 
2.1349558e+3, 2.4633935e+2, -764906.4, -679967.2, -90277.414, -0.00043044807, 0.1101093, -622668.7, -96783.35, 0.0, 9.998581, 9.999716 
2.1349011e+3, 2.563389e+2, -767581.4, -635331.1, -99318.42, -0.025075993, 0.10342324, -582138.7, -154249.69, 0.0, 9.9979105, 9.999673 
2.1348464e+3, 2.6633888e+2, -751144.94, -483079.66, -99644.586, -0.04141484, 0.10946927, -450097.97, -120209.2, 0.0, 9.99695, 10.000507 
2.1347915e+3, 2.7633923e+2, -820879.06, -467666.63, -89282.78, -0.06418574, 0.10392132, -446381.03, -214495.53, 0.0, 9.995807, 10.000491 
2.134737e+3, 2.8633964e+2, -833048.94, -299534.25, -79805.74, -0.0776057, 0.056229305, -287852.3, -153970.13, 0.0, 9.994521, 10.001592 
2.1346833e+3, 2.963409e+2, -926854.06, -296463.4, -87747.32, -0.050092448, 0.03471551, -284477.3, -248606.4, 0.0, 9.993216, 10.00157 
2.1346296e+3, 3.0634546e+2, -934076.9, -190742.33, -74323.414, -0.03577435, 0.30944875, -183383.84, -183383.84, 0.0, 9.992469, 10.002321 
2.1345742e+3, 3.1634504e+2, -897793.0, 79031.945, 45496.875, -0.1735271, 0.048637446, 81146.445, 81146.445, 0.0, 9.991634, 10.004573 
2.1456069e+3, 1.2642485e+2, -1137160.1, -1624579.9, 71800.25, -0.10277, 0.14018871, -1126803.5, 574248.4, 0.4448138, 10.008558, 9.996907 
2.1455547e+3, 1.3642153e+2, -951320.5, -1549572.8, 43312.56, 0.007165914, 0.14186153, -948201.0, 654880.5, 0.32774344, 10.008396, 9.996591 
2.1455012e+3, 1.4641754e+2, -828800.9, -1526489.8, 53893.85, -0.026040128, 0.1278553, -824662.3, 680457.4, 0.20550534, 10.00777, 9.996207 
2.1454476e+3, 1.5641387e+2, -763656.75, -1495171.3, 66305.97, -0.11128622, 0.15147872, -757695.25, 649461.0, 0.10263309, 10.00686, 9.996186 
2.1453938e+3, 1.6641e+2, -677968.56, -1335460.0, 25535.492, -0.10270785, 0.121913105, -676978.3, 632214.2, 0.037084404, 10.0060425, 9.997 
2.1453401e+3, 1.7640616e+2, -674812.8, -1300959.9, 13254.131, -0.045912787, 0.05201507, -674532.4, 536694.9, 0.00785623, 10.005288, 9.996927 
2.1452859e+3, 1.8640321e+2, -660907.4, -1183310.9, -5211.6255, -0.018820768, 0.054605156, -660855.4, 452400.72, 0.00047469506, 10.004415, 9.997484 
2.1452315e+3, 1.9640099e+2, -707117.1, -1162044.6, -15273.665, -0.00795469, 0.09609643, -706604.94, 308674.56, 0.0000000017331654, 10.003453, 9.997421 
2.1451765e+3, 2.0639867e+2, -697780.44, -1031968.3, -40967.266, -0.010454583, 0.106162824, -692831.6, 224471.06, 0.0, 10.002521, 9.998091 
2.1451211e+3, 2.163965e+2, -737450.8, -1007026.7, -37694.45, -0.02128336, 0.09228844, -732279.25, 87044.625, 0.0, 10.001603, 9.998033 
2.1450657e+3, 2.2639482e+2, -698676.75, -851884.7, -52172.523, -0.01590435, 0.10038236, -682597.75, 38743.13, 0.0, 10.000827, 9.998797 
2.1450101e+3, 2.3639363e+2, -706581.56, -810126.4, -53133.32, -0.00008908289, 0.11478777, -684168.2, -60814.83, 0.0, 10.000122, 9.998752 
2.1449544e+3, 2.463927e+2, -718448.94, -672131.94, -48408.453, -0.00068841985, 0.12135172, -641627.6, -116264.805, 0.0, 9.998967, 9.999581 
2.1448989e+3, 2.5639215e+2, -826417.7, -674711.3, -52364.434, -0.0101319, 0.119968295, -658392.1, -231024.05, 0.0, 9.997559, 9.99957 
2.144843e+3, 2.6639202e+2, -809154.3, -504534.5, -58662.79, -0.027377712, 0.118444085, -493627.9, -164259.05, 0.0, 9.996527, 10.000563 
2.1447873e+3, 2.7639234e+2, -835873.9, -472869.84, -68122.34, -0.051966634, 0.10323539, -460506.84, -229141.13, 0.0, 9.995696, 10.000508 
2.1447314e+3, 2.8639287e+2, -847284.4, -325467.72, -60988.26, -0.0807171, 0.07550882, -318434.4, -185072.95, 0.0, 9.994508, 10.001419 
2.144676e+3, 2.963941e+2, -941399.3, -308466.34, -44843.688, -0.09851317, 0.0705203, -305304.94, -269954.3, 0.0, 9.993139, 10.001522 
2.1446225e+3, 3.063982e+2, -919232.8, -146118.64, -29871.037, 0.02162677, 0.28280815, -144966.23, -144966.23, 0.0, 9.99241, 10.002655 
2.1445662e+3, 3.1639752e+2, -923521.7, 11837.463, 58362.957, -0.12915854, -0.023048861, 15465.027, 15465.027, 0.0, 9.991713, 10.004065 
2.1556164e+3, 1.2648013e+2, -1201907.8, -1767779.1, 66006.74, 0.017176751, 0.05590157, -1194310.3, 506195.78, 0.45874077, 10.008575, 9.995542 
2.155562e+3, 1.3647668e+2, -1017103.06, -1686542.3, 39448.113, -0.0814216, 0.17645514, -1014786.5, 587755.2, 0.33944127, 10.008352, 9.995504 
2.1555081e+3, 1.4647213e+2, -819375.75, -1480917.4, 28494.959, -0.107983954, 0.13137296, -818150.7, 686434.75, 0.21412033, 10.007734, 9.996575 
2.155455e+3, 1.5646812e+2, -747841.5, -1454039.8, 37561.69, -0.019616555, 0.08579295, -745849.25, 660773.06, 0.10788019, 10.006875, 9.996461 
2.1554007e+3, 1.6646431e+2, -699933.4, -1383964.4, -667.3932, -0.0076154047, 0.06822274, -699932.75, 608725.75, 0.039540183, 10.006058, 9.996661 
2.1553452e+3, 1.7646065e+2, -696583.1, -1346966.6, -12952.712, -0.050429918, 0.050377507, -696325.3, 514368.3, 0.008620154, 10.00529, 9.9966135 
2.1552901e+3, 1.8645771e+2, -672266.06, -1208436.3, -38582.39, -0.045951977, 0.076454155, -669503.94, 443219.25, 0.0005727824, 10.004416, 9.997313 
2.1552348e+3, 1.9645543e+2, -713637.1, -1179636.4, -47551.02, -0.0097985305, 0.12896898, -708834.44, 305912.66, 0.0000000734803, 10.003466, 9.997297 
2.155179e+3, 2.0645295e+2, -684511.4, -1007990.25, -73365.79, 0.0039829263, 0.120042205, -668649.6, 248121.6, 0.0, 10.002532, 9.998252 
2.1551228e+3, 2.1645054e+2, -728172.8, -988408.9, -68177.23, 0.0015530372, 0.06714499, -711393.5, 107400.21, 0.0, 10.001601, 9.998163 
2.1550664e+3, 2.2644894e+2, -701841.06, -859154.0, -76651.734, -0.011810144, 0.08062429, -670668.94, 50140.824, 0.0, 10.000825, 9.998751 
2.1550098e+3, 2.3644806e+2, -708435.0, -816499.44, -81656.89, -0.029420715, 0.12887299, -664552.3, -41732.594, 0.0, 10.000128, 9.998708 
2.1549532e+3, 2.4644709e+2, -721632.75, -681430.75, -102552.8, -0.025369452, 0.1367154, -597027.56, -72197.56, 0.0, 9.998975, 9.9995165 
2.1548963e+3, 2.5644627e+2, -831149.7, -686396.06, -102427.555, -0.013826107, 0.11461343, -633354.3, -206515.83, 0.0, 9.997562, 9.99949 
2.1548396e+3, 2.6644608e+2, -820494.6, -530707.2, -90301.19, -0.013368064, 0.11970989, -504871.6, -176030.61, 0.0, 9.996533, 10.000382 
2.1547832e+3, 2.7644655e+2, -841991.9, -489179.84, -103027.37, -0.0085410625, 0.14143677, -461297.53, -230460.22, 0.0, 9.9957075, 10.000393 
2.1547258e+3, 2.864477e+2, -839565.8, -311710.9, -114146.35, -0.07335634, 0.17468654, -288084.75, -155258.75, 0.0, 9.9945135, 10.001513 
2.1546677e+3, 2.964492e+2, -940549.44, -311524.0, -87935.375, -0.21719103, 0.18557888, -299462.25, -264651.75, 0.0, 9.993156, 10.001495 
2.1546152e+3, 3.0644962e+2, -931805.4, -180148.0, -49689.02, 0.06693451, 0.04475325, -176877.48, -176877.48, 0.0, 9.992436, 10.002413 
2.154559e+3, 3.16453e+2, -1015807.2, -185919.73, -90945.21, -0.003974204, 0.16453995, -176070.17, -176070.17, 0.0, 9.99173, 10.002704 
2.1656255e+3, 1.265362e+2, -1169044.1, -1715895.6, 26647.738, 0.038815953, 0.10671337, -1167748.6, 532208.75, 0.4719757, 10.009126, 9.9956 
2.1655701e+3, 1.3653252e+2, -1065397.8, -1699391.5, 63384.22, -0.06922871, 0.18852851, -1059123.0, 542872.6, 0.35077974, 10.007876, 9.995656 
2.1655156e+3, 1.4652772e+2, -868734.4, -1504858.6, 79038.68, -0.101811886, 0.11401439, -859060.9, 644980.25, 0.2226679, 10.007376, 9.996556 
2.1654624e+3, 1.5652375e+2, -705219.4, -1432949.0, 67862.21, 0.018714368, 0.075588726, -698945.2, 707131.6, 0.113227196, 10.0072565, 9.996423 
2.165407e+3, 1.6652003e+2, -639950.44, -1361150.6, 19487.365, 0.023088232, 0.075828716, -639424.25, 668687.9, 0.04212098, 10.00654, 9.996584 
2.1653503e+3, 1.765165e+2, -677454.3, -1345636.6, 25070.66, -0.053200208, 0.080142885, -676515.0, 533631.94, 0.009457293, 10.0054655, 9.996535 
2.1652941e+3, 1.8651335e+2, -641392.5, -1196847.3, 15233.196, -0.06253596, 0.09127726, -640975.0, 471203.4, 0.0006923924, 10.004648, 9.997278 
2.1652383e+3, 1.9651067e+2, -644344.8, -1150829.5, 12449.229, -0.027747612, 0.10887879, -644039.0, 370166.44, 0.00000060490504, 10.003965, 9.9972515 
2.1651816e+3, 2.0650819e+2, -612242.06, -978870.7, -25273.922, -0.0070137386, 0.1062157, -610508.0, 305721.53, 0.0, 10.003057, 9.998198 
2.1651246e+3, 2.1650602e+2, -672750.7, -965862.9, -36635.984, 0.0027493245, 0.08234399, -668240.94, 150009.2, 0.0, 10.002005, 9.998121 
2.1650672e+3, 2.2650437e+2, -700841.3, -859482.2, -47285.242, -0.0063585876, 0.09274861, -687816.56, 32450.355, 0.0, 10.00084, 9.998738 
2.1650095e+3, 2.3650323e+2, -784007.7, -853158.1, -51120.035, -0.023170583, 0.12024747, -756868.2, -134589.0, 0.0, 9.999614, 9.998701 
2.1649517e+3, 2.4650231e+2, -761772.0, -696298.9, -69536.85, -0.022100428, 0.13167474, -652178.06, -127888.76, 0.0, 9.998683, 9.999554 
2.1648937e+3, 2.5650164e+2, -779324.25, -655570.1, -62594.277, -0.01650671, 0.12586246, -629431.2, -203134.78, 0.0, 9.997895, 9.99954 
2.164836e+3, 2.6650158e+2, -789502.4, -506830.06, -35474.465, -0.021116024, 0.13623294, -502446.13, -174148.2, 0.0, 9.996712, 10.000458 
2.1647786e+3, 2.7650213e+2, -893421.75, -505382.47, -29993.176, -0.010895204, 0.1578268, -503077.88, -272784.3, 0.0, 9.995322, 10.000464 
2.1647204e+3, 2.8650323e+2, -851825.4, -312833.03, -37104.18, -0.049546946, 0.18263595, -310290.78, -178008.25, 0.0, 9.994414, 10.00155 
2.1646614e+3, 2.9650462e+2, -868721.25, -274580.06, -18710.39, -0.18476196, 0.17849727, -273991.44, -239723.31, 0.0, 9.993645, 10.001511 
2.1646072e+3, 3.0650508e+2, -956092.94, -178084.0, 44299.06, 0.027498342, 0.044403207, -175569.78, -175569.78, 0.0, 9.99222, 10.002527 
2.1645495e+3, 3.165092e+2, -1134476.5, -262165.8, -62189.586, -0.080404855, 0.21681707, -257754.45, -257754.45, 0.0, 9.991, 10.00253 
2.1756338e+3, 1.2659301e+2, -1158516.4, -1630110.4, 690.02875, -0.022334455, 0.26469535, -1158515.4, 540889.8, 0.48476264, 10.0088825, 9.99674 
2.1755789e+3, 1.3658896e+2, -1018226.6, -1556081.8, 36638.65, 0.02172644, 0.1812455, -1015742.25, 585701.3, 0.36197397, 10.007944, 9.996761 
2.1755235e+3, 1.4658421e+2, -883153.3, -1550965.3, 76683.414, -0.029143605, 0.08194854, -874461.06, 629027.0, 0.2312928, 10.007484, 9.996188 
2.1754695e+3, 1.5658055e+2, -726185.44, -1476841.3, 61819.344, 0.0071585136, 0.11234729, -721128.44, 684392.7, 0.118747294, 10.007273, 9.996115 
2.175413e+3, 1.6657701e+2, -633983.2, -1343682.8, -17218.273, -0.0038470717, 0.13592324, -633565.7, 673989.25, 0.04485731, 10.006535, 9.996709 
2.1753557e+3, 1.7657357e+2, -668095.1, -1329097.9, -9782.441, -0.056381572, 0.13605069, -667950.4, 541638.44, 0.010380302, 10.00548, 9.996645 
2.1752986e+3, 1.8656999e+2, -635511.3, -1187713.5, -8357.021, -0.07215516, 0.09796132, -635384.9, 476238.47, 0.00083802454, 10.004658, 9.997339 
2.1752417e+3, 1.9656663e+2, -645049.44, -1151341.4, -12639.558, -0.06267441, 0.04165376, -644734.1, 368921.53, 0.0000023857372, 10.003957, 9.997254 
2.175184e+3, 2.065643e+2, -632017.5, -1019298.94, -62819.79, -0.042996995, 0.06964348, -622082.56, 293596.16, 0.0, 10.003049, 9.997927 
2.175126e+3, 2.1656275e+2, -688746.0, -1000150.1, -74157.734, -0.020418713, 0.1352308, -671987.9, 145706.86, 0.0, 10.002004, 9.997889 
2.1750678e+3, 2.2656086e+2, -699610.4, -858377.44, -92083.59, -0.001942054, 0.13274065, -657416.25, 62297.88, 0.0, 10.000842, 9.998748 
2.1750093e+3, 2.3655905e+2, -782228.75, -850192.9, -93316.77, 0.016166983, 0.08931472, -716899.2, -95166.23, 0.0, 9.999613, 9.998725 
2.1749504e+3, 2.4655826e+2, -752491.94, -678955.0, -98837.1, 0.007948828, 0.107449494, -610268.75, -86526.984, 0.0, 9.998686, 9.999674 
2.1748914e+3, 2.5655827e+2, -765613.9, -632096.1, -95583.91, -0.023494558, 0.15458003, -582265.8, -156523.02, 0.0, 9.997911, 9.999696 
2.1748322e+3, 2.665585e+2, -765072.5, -459262.28, -89578.914, -0.055743538, 0.16843721, -434954.66, -107214.18, 0.0, 9.99672, 10.000782 
2.1747732e+3, 2.76559e+2, -875087.7, -469265.06, -76029.93, -0.06536816, 0.1533565, -455488.7, -225753.81, 0.0, 9.995326, 10.000712 
2.1747151e+3, 2.8655922e+2, -852558.2, -320416.78, -65528.184, -0.009161171, 0.08578643, -312466.4, -180733.45, 0.0, 9.994434, 10.001492 
2.1746567e+3, 2.9655987e+2, -859159.94, -266007.47, -58923.65, 0.0059358873, 0.015959997, -260210.66, -226483.28, 0.0, 9.993687, 10.001553 
2.1745978e+3, 3.0656543e+2, -923253.2, -109398.11, -15386.653, -0.10223171, 0.35654536, -109107.32, -109107.32, 0.0, 9.992215, 10.003002 
2.1745405e+3, 3.1656566e+2, -1015565.0, -14665.988, -159330.33, -0.058632012, 0.08991726, 10085.287, 10085.287, 0.0, 9.990982, 10.004248 
2.1856406e+3, 1.2664948e+2, -1415344.8, -1867161.9, 142548.38, -0.07051337, 0.101404145, -1374130.3, 324717.63, 0.49789795, 10.005883, 9.996289 
2.1855876e+3, 1.366465e+2, -920404.0, -1520652.5, 114687.15, 0.04946845, 0.15396053, -899237.56, 701641.25, 0.37363964, 10.009247, 9.99653 
2.1855322e+3, 1.4664192e+2, -683600.8, -1456428.9, 88197.805, -0.006345737, 0.095207065, -673663.2, 829259.44, 0.24036662, 10.009466, 9.995961 
2.1854766e+3, 1.5663782e+2, -674874.94, -1467922.5, 83945.97, -0.006681552, 0.10494035, -666086.44, 738874.06, 0.124611445, 10.007808, 9.995919 
2.1854195e+3, 1.6663428e+2, -601123.3, -1313144.0, 11260.924, -0.013903284, 0.13189365, -600945.25, 706049.1, 0.04781231, 10.006735, 9.9968195 
2.1853614e+3, 1.7663111e+2, -597632.7, -1284701.9, 17046.725, -0.04184411, 0.14802182, -597210.0, 611815.75, 0.011410857, 10.005934, 9.996729 
2.1853033e+3, 1.8662757e+2, -599935.5, -1171232.3, 14573.982, -0.057862468, 0.11174739, -599563.94, 511495.9, 0.0010164321, 10.00491, 9.997329 
2.1852453e+3, 1.9662412e+2, -673149.9, -1164400.1, 4361.2466, -0.061504055, 0.049112335, -673111.2, 339981.53, 0.000006538303, 10.003766, 9.997254 
2.1851867e+3, 2.066217e+2, -666169.75, -1031125.1, -33008.07, -0.045109827, 0.06793607, -663208.4, 251907.84, 0.0, 10.002799, 9.997963 
2.1851279e+3, 2.1662009e+2, -699447.7, -1003551.75, -25499.887, -0.019811155, 0.12514357, -697324.3, 119808.31, 0.0, 10.001927, 9.9979 
2.1850684e+3, 2.2661825e+2, -686882.7, -859685.56, -44118.035, -0.005657102, 0.13055779, -676270.7, 42881.402, 0.0, 10.000965, 9.998677 
2.1850088e+3, 2.3661648e+2, -737469.7, -831870.3, -51626.508, 0.006093552, 0.10147361, -714718.8, -93547.875, 0.0, 9.999938, 9.998692 
2.1849489e+3, 2.4661572e+2, -731772.8, -649472.3, -51641.117, 0.008419076, 0.11559025, -624591.2, -101411.7, 0.0, 9.99875, 9.999843 
2.1848892e+3, 2.566158e+2, -816687.0, -636296.94, -47667.746, -0.0017265147, 0.15141419, -624475.5, -199295.8, 0.0, 9.997479, 9.999873 
2.1848287e+3, 2.6661626e+2, -792843.75, -442719.72, -49098.273, -0.04829081, 0.16877872, -435964.94, -108790.4, 0.0, 9.996406, 10.001045 
2.184768e+3, 2.7661702e+2, -845397.8, -429320.1, -38922.34, -0.09538399, 0.15833692, -425710.38, -196544.78, 0.0, 9.995424, 10.000938 
2.1847092e+3, 2.8661725e+2, -873686.0, -318445.25, -15922.963, -0.009023356, 0.07513897, -317989.0, -186825.05, 0.0, 9.994242, 10.001595 
2.1846506e+3, 2.9661795e+2, -959528.75, -298588.7, -7123.96, 0.09178707, -0.00037070978, -298511.9, -265353.38, 0.0, 9.992935, 10.001689 
2.1845889e+3, 3.0662403e+2, -1004296.25, -128308.53, 14680.3955, -0.16143784, 0.3778619, -128062.58, -128062.58, 0.0, 9.991575, 10.00318 
2.1845312e+3, 3.1662366e+2, -1031855.3, 101533.2, -117875.266, -0.032923393, 0.03413519, 113662.72, 113662.72, 0.0, 9.99034, 10.005353 
2.1955964e+3, 1.36705e+2, -979874.3, -1674059.1, 188191.08, 0.02161421, 0.11394539, -932138.94, 668164.0, 0.38670662, 10.009383, 9.99526 
2.1955413e+3, 1.4670072e+2, -708527.3, -1477566.9, 43438.43, -0.028728815, 0.1458419, -706081.56, 796264.94, 0.2504056, 10.009409, 9.995803 
2.1954842e+3, 1.5669551e+2, -689009.0, -1486612.0, 39355.973, -0.025067253, 0.059743423, -687071.75, 717323.7, 0.13105592, 10.007796, 9.995793 
2.1954261e+3, 1.6669182e+2, -597493.94, -1302102.3, -12906.547, -0.01234576, 0.07263449, -597257.6, 709173.4, 0.05108046, 10.006739, 9.996897 
2.1953674e+3, 1.7668906e+2, -594861.3, -1278661.3, -10713.22, -0.013565004, 0.12262626, -594693.5, 613764.8, 0.01258417, 10.005936, 9.996772 
2.1953084e+3, 1.8668596e+2, -605193.06, -1184322.3, -25657.566, -0.024014466, 0.13456506, -604058.56, 506430.22, 0.0012391038, 10.004916, 9.997239 
2.1952492e+3, 1.9668296e+2, -672927.5, -1166831.4, -33719.992, -0.031408284, 0.12407825, -670635.94, 341882.34, 0.0000148450445, 10.003774, 9.997237 
2.1951897e+3, 2.0668024e+2, -642764.4, -986255.9, -63778.844, -0.018337011, 0.09578315, -631304.4, 283239.38, 0.0, 10.0028105, 9.998268 
2.1951298e+3, 2.1667795e+2, -682944.56, -971312.44, -56326.02, 0.0011698062, 0.055171363, -672333.06, 144231.67, 0.0, 10.001931, 9.998122 
2.195069e+3, 2.2667637e+2, -698390.9, -884612.3, -80908.47, -0.01946548, 0.08989086, -668149.3, 50432.402, 0.0, 10.000965, 9.998509 
2.1950081e+3, 2.3667541e+2, -743882.6, -847612.94, -90133.93, -0.058632527, 0.15693416, -691756.8, -71162.45, 0.0, 9.999944, 9.998584 
2.1949473e+3, 2.4667457e+2, -716862.4, -620925.56, -100562.21, -0.023659827, 0.15498312, -557477.06, -34873.45, 0.0, 9.998755, 10.000039 
2.194887e+3, 2.5667408e+2, -803046.94, -610072.8, -93977.58, 0.046803012, 0.11554026, -571869.3, -147261.05, 0.0, 9.997483, 10.000053 
2.1948254e+3, 2.6667473e+2, -779177.9, -416734.88, -86906.27, 0.0014283272, 0.13487306, -396973.94, -70372.59, 0.0, 9.996411, 10.0012245 
2.1947634e+3, 2.7667615e+2, -828219.9, -398698.2, -77659.36, -0.10190686, 0.17021623, -385088.28, -156501.31, 0.0, 9.9954405, 10.001143 
2.1947029e+3, 2.8667736e+2, -855204.2, -282559.47, -67051.84, -0.05758575, 0.16302478, -274813.03, -144237.98, 0.0, 9.9942465, 10.0018425 
2.194643e+3, 2.9667908e+2, -946174.25, -269933.7, -56764.035, 0.05026517, 0.1635247, -265202.0, -232643.34, 0.0, 9.992926, 10.001894 
2.1945806e+3, 3.0667993e+2, -1013656.5, -148207.78, -38884.375, -0.1400099, 0.019874183, -146464.23, -146464.23, 0.0, 9.991573, 10.003047 
2.1945213e+3, 3.166837e+2, -1042778.3, 75195.75, -16781.904, -0.05258631, 0.10956184, 75447.6, 75447.6, 0.0, 9.990361, 10.005159 
2.205607e+3, 1.367647e+2, -833089.06, -1642731.8, 193762.0, 0.043550782, 0.088412024, -789107.5, 810610.75, 0.40179744, 10.011649, 9.994392 
2.2055498e+3, 1.4676133e+2, -732531.7, -1467102.0, 69912.95, -0.0831708, 0.23398207, -725936.94, 775817.4, 0.2617305, 10.009203, 9.996 
2.205492e+3, 1.5675564e+2, -684403.1, -1468958.3, 94497.37, -0.0057093077, 0.08496275, -673181.7, 730625.7, 0.13825616, 10.007827, 9.995907 
2.2054331e+3, 1.667516e+2, -596934.44, -1324479.5, 64623.61, 0.01584217, 0.07121321, -591238.9, 714607.4, 0.054758728, 10.00687, 9.996679 
2.2053733e+3, 1.7674854e+2, -581206.8, -1291464.9, 48058.316, -0.0074168826, 0.11648724, -577969.8, 629906.44, 0.013946146, 10.006126, 9.99659 
2.2053133e+3, 1.8674543e+2, -573070.1, -1172190.0, 19877.523, -0.023717983, 0.13743743, -572411.4, 537495.56, 0.001522685, 10.005157, 9.997204 
2.205253e+3, 1.9674252e+2, -631133.4, -1148355.3, 15806.963, -0.029506953, 0.14282, -630650.75, 381284.75, 0.000030221985, 10.004072, 9.997217 
2.2051926e+3, 2.0673983e+2, -584849.7, -952617.5, -15711.795, -0.01417756, 0.11390974, -584179.6, 329781.28, 0.0, 10.003189, 9.998314 
2.2051318e+3, 2.1673746e+2, -610912.06, -927416.6, -31341.438, 0.009160897, 0.06303304, -607838.4, 208144.05, 0.0, 10.002392, 9.9981985 
2.2050701e+3, 2.2673602e+2, -668136.1, -846163.3, -57933.406, -0.015232559, 0.095899165, -650943.8, 67054.01, 0.0, 10.001076, 9.998717 
2.2050075e+3, 2.3673528e+2, -796551.9, -851336.8, -38118.996, -0.062047385, 0.16724749, -777003.9, -156996.14, 0.0, 9.999495, 9.998771 
2.2049458e+3, 2.4673451e+2, -763279.3, -633364.5, -35898.98, -0.025455039, 0.1617256, -624104.6, -102088.67, 0.0, 9.998399, 10.000123 
2.2048843e+3, 2.5673398e+2, -792646.06, -597715.8, -39864.496, 0.0539214, 0.11211532, -589878.4, -165857.66, 0.0, 9.997527, 10.000115 
2.2048217e+3, 2.6673457e+2, -791267.75, -422273.88, -47493.56, 0.012620997, 0.120965585, -416259.0, -90243.84, 0.0, 9.996333, 10.001222 
2.2047585e+3, 2.767359e+2, -898235.2, -427613.25, -54208.805, -0.08932366, 0.15107591, -421449.88, -193447.8, 0.0, 9.994946, 10.001181 
2.2046965e+3, 2.8673774e+2, -899766.4, -280313.47, -47448.324, -0.067309946, 0.19127272, -276700.13, -146715.92, 0.0, 9.993844, 10.002049 
2.2046354e+3, 2.9674017e+2, -925645.75, -237110.11, -40525.355, 0.013162747, 0.24561594, -234733.1, -202772.95, 0.0, 9.992973, 10.002093 
2.2045723e+3, 3.0673906e+2, -982753.7, -158817.06, -36438.402, -0.113621786, -0.09094455, -157208.72, -157208.72, 0.0, 9.991898, 10.002817 
2.2045119e+3, 3.1674516e+2, -1071549.3, 51155.887, 34598.66, 0.020782495, 0.25922522, 52221.11, 52221.11, 0.0, 9.990215, 10.005061 
2.215619e+3, 1.3682543e+2, -893235.56, -1719018.5, 103599.66, 0.09250107, 0.07586371, -880436.7, 718689.6, 0.41849485, 10.011453, 9.99383 
2.2155578e+3, 1.4682338e+2, -722352.1, -1417663.5, 35733.156, -0.1701497, 0.35271397, -720520.56, 780628.44, 0.27415875, 10.009184, 9.996483 
2.2155e+3, 1.5681782e+2, -667096.4, -1421166.6, 55170.31, 0.043929603, 0.1692226, -663081.3, 740118.56, 0.14621677, 10.00787, 9.99621 
2.2154401e+3, 1.6681325e+2, -623986.75, -1390825.6, 40554.24, 0.06390386, 0.11974079, -621848.0, 683395.5, 0.05891071, 10.006924, 9.9962 
2.2153792e+3, 1.7680936e+2, -602330.0, -1344668.8, 21680.389, -0.02419458, 0.12682658, -601697.4, 605584.25, 0.015541971, 10.006168, 9.996207 
2.215318e+3, 1.8680583e+2, -568445.0, -1170176.0, -18231.668, -0.055675995, 0.12168563, -567893.1, 541422.7, 0.0018855939, 10.005187, 9.997206 
2.2152565e+3, 1.9680277e+2, -630970.06, -1153332.1, -19724.268, -0.05478491, 0.11073813, -630226.4, 381119.03, 0.000056599565, 10.004091, 9.997177 
2.2151953e+3, 2.0680036e+2, -599090.25, -984279.4, -42819.145, -0.032141432, 0.12537004, -594387.7, 318981.13, 0.0, 10.003193, 9.998097 
2.215134e+3, 2.167985e+2, -617362.5, -939656.6, -63228.734, 0.00041909743, 0.14502652, -605401.94, 209985.11, 0.0, 10.002381, 9.998122 
2.215071e+3, 2.2679701e+2, -629441.3, -765284.25, -116083.78, 0.0040136697, 0.14475633, -562868.25, 154533.56, 0.0, 10.001068, 9.999279 
2.2150074e+3, 2.3679599e+2, -764112.6, -785243.2, -91438.95, -0.006627502, 0.13120905, -682630.6, -63218.188, 0.0, 9.999495, 9.999228 
2.214944e+3, 2.4679548e+2, -766122.8, -640972.44, -68696.234, 0.00070956897, 0.13563693, -610623.8, -89206.23, 0.0, 9.998402, 10.0000725 
2.2148813e+3, 2.5679544e+2, -795448.6, -608252.25, -75502.77, 0.013266992, 0.1430209, -581595.3, -158177.48, 0.0, 9.997542, 10.000038 
2.2148176e+3, 2.6679564e+2, -804620.9, -453350.2, -101585.086, -0.019418072, 0.12700598, -426088.25, -100671.39, 0.0, 9.996341, 10.001007 
2.2147535e+3, 2.7679616e+2, -908999.4, -451923.16, -106399.58, -0.06551073, 0.09918083, -428368.94, -200956.77, 0.0, 9.994947, 10.001016 
2.2146907e+3, 2.8679812e+2, -889903.56, -260450.86, -82788.05, -0.037644666, 0.15173963, -249744.36, -120350.836, 0.0, 9.993843, 10.002189 
2.2146279e+3, 2.9680094e+2, -910202.2, -208617.31, -71517.234, -0.006523872, 0.22823082, -201401.3, -170035.1, 0.0, 9.992985, 10.002286 
2.2145642e+3, 3.0680197e+2, -997186.2, -197632.42, -90594.76, -0.102389045, 0.10717508, -187495.94, -187495.94, 0.0, 9.991926, 10.002542 
2.214502e+3, 3.1680545e+2, -1074731.1, 36686.387, -82393.266, 0.0011834864, 0.23386842, 42761.28, 42761.28, 0.0, 9.990242, 10.004952 
2.2256291e+3, 1.3688925e+2, -980900.4, -1713080.4, 144664.63, 0.04032488, 0.13966398, -953353.8, 645146.8, 0.43587327, 10.01035, 9.994467 
2.2255677e+3, 1.4688556e+2, -729062.1, -1456014.5, 114921.4, -0.1108062, 0.26196593, -711327.25, 789210.7, 0.28728178, 10.009503, 9.99597 
2.2255085e+3, 1.5688036e+2, -565775.56, -1408887.0, 94310.26, 0.0532953, 0.16598453, -555354.8, 847231.75, 0.15484314, 10.008966, 9.995773 
2.2254474e+3, 1.668757e+2, -476528.1, -1333799.6, 80289.84, 0.056006953, 0.1376976, -469073.2, 835558.3, 0.063557595, 10.008122, 9.996015 
2.2253855e+3, 1.7687152e+2, -472515.97, -1297345.0, 79495.77, -0.031386573, 0.13493624, -464924.16, 741748.44, 0.017399358, 10.007161, 9.996053 
2.2253235e+3, 1.8686788e+2, -452181.6, -1119012.5, 34579.06, -0.051586818, 0.12849697, -450393.25, 658314.7, 0.0023406646, 10.006017, 9.997155 
2.2252612e+3, 1.9686475e+2, -536486.75, -1111585.0, 27823.367, -0.035358213, 0.120522335, -535143.75, 475594.0, 0.00009780224, 10.004762, 9.997138 
2.2251984e+3, 2.0686226e+2, -596433.0, -985780.0, 11038.732, -0.024275461, 0.13033982, -596120.25, 316642.13, 0.00000000002443796, 10.003228, 9.998068 
2.2251357e+3, 2.1686028e+2, -734453.56, -991775.6, 2067.5645, -0.014722676, 0.14311484, -734436.94, 80345.18, 0.0, 10.001565, 9.998155 
2.2250715e+3, 2.2685896e+2, -700399.06, -768804.75, -58220.18, 0.006088597, 0.14243293, -667078.4, 49716.65, 0.0, 10.000455, 9.999547 
2.2250071e+3, 2.368582e+2, -732055.7, -744309.5, -53883.453, 0.03266359, 0.1306056, -683951.94, -65149.67, 0.0, 9.999612, 9.99945 
2.2249426e+3, 2.4685776e+2, -739323.1, -628575.25, -27568.963, 0.018807605, 0.1341909, -622091.94, -101285.086, 0.0, 9.998594, 10.00006 
2.2248782e+3, 2.568577e+2, -804227.1, -611401.7, -34075.855, -0.018301658, 0.1396872, -605557.0, -182749.08, 0.0, 9.997486, 10.00004 
2.2248136e+3, 2.6685798e+2, -801172.3, -452880.56, -56782.902, -0.04420456, 0.13660425, -443856.88, -119050.625, 0.0, 9.996376, 10.00099 
2.2247486e+3, 2.7685872e+2, -865931.94, -431769.8, -48542.17, -0.05066701, 0.13060884, -426408.66, -199608.4, 0.0, 9.995251, 10.001005 
2.2246845e+3, 2.8686032e+2, -862471.8, -242858.95, -17441.229, -0.011543753, 0.15037143, -242368.39, -113583.45, 0.0, 9.994019, 10.002222 
2.2246209e+3, 2.9686245e+2, -957084.5, -233855.66, -16957.277, 0.004352579, 0.15962139, -233458.28, -202694.28, 0.0, 9.99268, 10.002257 
2.2245555e+3, 3.0686554e+2, -1062137.4, -204357.64, -38897.246, -0.119344115, 0.23343451, -202597.39, -202597.39, 0.0, 9.991382, 10.002753 
2.2244917e+3, 3.1686655e+2, -1043021.5, 57895.77, -293.36435, -0.041979488, 0.08593163, 57895.848, 57895.848, 0.0, 9.99045, 10.00499 
2.2356382e+3, 1.3695551e+2, -961380.7, -1542502.0, 101616.04, -0.0835882, 0.25237113, -944124.3, 653724.4, 0.45413008, 10.010096, 9.995952 
2.2355789e+3, 1.4694792e+2, -801218.75, -1631678.9, 97812.734, 0.05957719, 0.008657341, -789853.75, 710067.75, 0.3012602, 10.009586, 9.994636 
2.2355169e+3, 1.5694323e+2, -631502.9, -1557462.4, 74119.08, 0.022287607, 0.09325592, -625607.44, 776360.6, 0.16422641, 10.009001, 9.994734 
2.2354548e+3, 1.6693886e+2, -474848.75, -1324566.9, 46878.17, -0.0037289583, 0.13081153, -472270.34, 831741.0, 0.06873242, 10.008138, 9.996072 
2.2353926e+3, 1.7693484e+2, -471313.8, -1294759.8, 43763.92, -0.03209285, 0.14029875, -468994.4, 737056.56, 0.019522335, 10.007171, 9.996069 
2.2353296e+3, 1.8693136e+2, -460820.16, -1136613.3, -10603.162, -0.017014476, 0.1559619, -460653.84, 647431.4, 0.0028874604, 10.006013, 9.997038 
2.2352664e+3, 1.9692832e+2, -543057.06, -1122746.3, -19428.914, 0.021173224, 0.16809417, -542406.56, 467708.06, 0.00015542416, 10.004746, 9.997072 
2.2352019e+3, 2.0692538e+2, -587803.75, -967897.8, -50251.35, 0.004512044, 0.1278043, -581272.4, 330870.88, 0.0000000065898873, 10.003223, 9.998196 
2.2351368e+3, 2.1692273e+2, -725503.0, -976602.44, -52379.684, -0.03866029, 0.060420014, -715014.6, 99154.15, 0.0, 10.0015745, 9.998258 
2.2350718e+3, 2.2692175e+2, -701453.94, -773792.2, -88134.87, -0.010361075, 0.09214191, -642355.2, 73823.33, 0.0, 10.000463, 9.999512 
2.2350065e+3, 2.3692182e+2, -732441.0, -747713.94, -85892.84, 0.0519349, 0.16615444, -653845.9, -35667.41, 0.0, 9.999618, 9.999426 
2.2349411e+3, 2.4692121e+2, -737305.0, -627126.44, -70189.62, 0.026285734, 0.15564954, -592989.0, -72804.08, 0.0, 9.998601, 10.000071 
2.2348753e+3, 2.5692058e+2, -798304.75, -602137.7, -76651.195, -0.045173813, 0.10030595, -575739.1, -153546.98, 0.0, 9.997494, 10.000103 
2.2348094e+3, 2.6692155e+2, -788050.94, -427897.75, -100111.01, -0.06402663, 0.15196317, -401940.88, -77756.79, 0.0, 9.996381, 10.001162 
2.2347437e+3, 2.7692354e+2, -852518.1, -409369.8, -90690.68, -0.046085004, 0.25256994, -391528.22, -165361.94, 0.0, 9.995269, 10.001154 
2.2346784e+3, 2.869243e+2, -865490.2, -255105.67, -68862.23, 0.0077115167, 0.1883452, -247433.23, -119274.555, 0.0, 9.994037, 10.002132 
2.2346136e+3, 2.969247e+2, -975478.5, -276805.9, -69059.12, 0.032458875, 0.03343718, -270045.28, -239890.94, 0.0, 9.992693, 10.00196 
2.2345461e+3, 3.069295e+2, -1022277.1, -119335.61, -86742.695, -0.16396773, 0.27429876, -111078.03, -111078.03, 0.0, 9.99137, 10.003345 
2.2344825e+3, 3.169313e+2, -1050248.0, 31936.646, 5444.242, 0.013572749, 0.114450075, 31964.035, 31964.035, 0.0, 9.990482, 10.004804 
2.2456448e+3, 1.3701814e+2, -1101543.5, -1511450.5, 158686.98, -0.27214685, 0.1852266, -1047291.5, 549943.7, 0.4749654, 10.007853, 9.997461 
2.2455913e+3, 1.4701144e+2, -655216.5, -1507426.3, 28118.426, 0.29509652, -0.032080684, -654289.75, 845008.75, 0.3171071, 10.011184, 9.994691 
2.2455256e+3, 1.5700723e+2, -548766.94, -1497072.1, 66658.71, -0.03264844, 0.09539256, -544104.25, 857236.0, 0.17478123, 10.009748, 9.994784 
2.2454621e+3, 1.6700293e+2, -417021.0, -1285103.0, 64902.17, -0.08709575, 0.13510168, -412195.4, 891187.44, 0.074505754, 10.008578, 9.996136 
2.2453997e+3, 1.769988e+2, -424910.28, -1262753.3, 57278.52, -0.017957652, 0.12724353, -421012.63, 784411.2, 0.02188151, 10.007479, 9.996138 
2.2453357e+3, 1.8699534e+2, -465977.7, -1127735.4, -1719.8484, 0.017443722, 0.14009875, -465973.22, 641484.5, 0.0035046092, 10.005938, 9.997133 
2.2452708e+3, 1.9699247e+2, -613444.3, -1143376.4, 4758.7964, 0.038140107, 0.15753925, -613401.6, 396084.44, 0.00022643265, 10.004211, 9.997185 
2.2452049e+3, 2.069897e+2, -578547.4, -940657.1, -7181.6177, 0.0073371152, 0.12116483, -578405.0, 333107.6, 0.000000048944283, 10.003195, 9.998393 
2.2451384e+3, 2.1698724e+2, -579938.4, -890053.9, -7028.157, -0.047241047, 0.056494262, -579779.2, 233756.56, 0.0, 10.00251, 9.998399 
2.2450723e+3, 2.2698626e+2, -591766.94, -732823.6, -44638.777, -0.024051696, 0.08783691, -578827.5, 136718.52, 0.0, 10.001272, 9.9994 
2.2450061e+3, 2.3698619e+2, -714926.8, -744750.1, -47257.566, 0.037364043, 0.16094378, -680284.1, -62736.363, 0.0, 9.999768, 9.99937 
2.2449395e+3, 2.4698566e+2, -743443.4, -613157.3, -24892.732, 0.024199225, 0.15083525, -608563.25, -89009.56, 0.0, 9.998493, 10.000215 
2.2448726e+3, 2.5698513e+2, -814978.0, -594620.4, -23309.504, -0.028011391, 0.09685842, -592181.7, -170622.44, 0.0, 9.997318, 10.000236 
2.2448054e+3, 2.6698628e+2, -811597.7, -429303.88, -47916.06, -0.056416, 0.15609685, -423389.66, -99839.92, 0.0, 9.996185, 10.001242 
2.2447383e+3, 2.769884e+2, -877212.56, -411058.9, -46768.31, -0.059609544, 0.2642627, -406413.03, -180882.3, 0.0, 9.995067, 10.001233 
2.2446722e+3, 2.8698915e+2, -876233.5, -255151.38, -28556.787, -0.0062741083, 0.19359781, -253841.13, -126317.586, 0.0, 9.993951, 10.002169 
2.244606e+3, 2.9698953e+2, -962590.75, -265221.13, -24515.697, 0.03077354, 0.0337897, -264360.38, -234840.77, 0.0, 9.992768, 10.001998 
2.2445376e+3, 3.0699462e+2, -988848.5, -73047.93, -26625.975, -0.13400756, 0.2924484, -72274.46, -72274.46, 0.0, 9.991478, 10.003606 
2.2444731e+3, 3.1699684e+2, -1127003.8, -67075.56, 52274.93, 0.058386598, 0.14733733, -64503.637, -64503.637, 0.0, 9.990219, 10.004252 
2.255605e+3, 1.4707606e+2, -624639.4, -1394184.8, -2607.4854, 0.5651165, 0.09519316, -624630.5, 874038.1, 0.33607313, 10.011189, 9.995825 
2.2555344e+3, 1.5707228e+2, -504182.25, -1371261.1, 28513.275, -0.1107226, 0.15623626, -503245.63, 897458.0, 0.18697444, 10.009803, 9.995665 
2.2554694e+3, 1.6706786e+2, -418416.88, -1280449.9, 30384.504, -0.18936539, 0.14825387, -417347.25, 885399.44, 0.08089477, 10.008595, 9.996165 
2.2554073e+3, 1.7706333e+2, -426308.66, -1255263.1, 15883.222, 0.006368738, 0.09832356, -426004.44, 778786.94, 0.024391081, 10.007446, 9.996206 
2.2553416e+3, 1.8705982e+2, -450033.06, -1091584.0, -63790.914, 0.04733788, 0.08689913, -443751.7, 663074.25, 0.004146017, 10.005923, 9.997392 
2.2552744e+3, 1.9705708e+2, -591884.7, -1105269.3, -48904.5, 0.015529553, 0.093371615, -587267.6, 421585.1, 0.00030246418, 10.004234, 9.997438 
2.2552074e+3, 2.070551e+2, -559698.3, -906082.94, -29474.924, -0.014818873, 0.111497805, -557208.1, 353663.44, 0.0000001250421, 10.003209, 9.998626 
2.2551408e+3, 2.1705368e+2, -570612.94, -869573.5, -35873.67, -0.04410942, 0.1271815, -566368.56, 246516.14, 0.0, 10.002499, 9.998547 
2.2550732e+3, 2.2705229e+2, -607299.2, -763842.9, -99863.48, -0.038097963, 0.1253529, -558688.44, 156210.67, 0.0, 10.001262, 9.999195 
2.2550051e+3, 2.3705117e+2, -721925.94, -760539.44, -100330.22, -0.014358431, 0.1133274, -639061.75, -22150.326, 0.0, 9.999768, 9.999265 
2.2549374e+3, 2.4705094e+2, -725126.3, -576690.2, -69800.9, 0.01148983, 0.12079862, -549023.6, -30109.56, 0.0, 9.998495, 10.000466 
2.2548704e+3, 2.570513e+2, -800864.75, -568706.25, -67862.68, 0.03142075, 0.13216491, -550324.6, -129414.63, 0.0, 9.997328, 10.000411 
2.2548017e+3, 2.67052e+2, -813964.44, -436766.13, -92216.7, -0.02381142, 0.14428322, -415428.25, -92523.625, 0.0, 9.99619, 10.001191 
2.2547328e+3, 2.7705306e+2, -879240.44, -416701.38, -89425.57, -0.100385785, 0.15244912, -400014.22, -175118.08, 0.0, 9.995066, 10.001198 
2.2546653e+3, 2.8705475e+2, -866089.1, -237189.34, -74907.45, -0.06021416, 0.16831644, -228390.31, -101509.65, 0.0, 9.9939575, 10.002293 
2.2545981e+3, 2.9705706e+2, -932280.06, -210582.89, -74689.87, -0.0053564818, 0.18888102, -202934.16, -174075.61, 0.0, 9.992797, 10.002362 
2.25453e+3, 3.0706057e+2, -984286.06, -67786.97, -73498.875, -0.018876629, 0.25897792, -61930.137, -61930.137, 0.0, 9.991493, 10.003635 
2.254462e+3, 3.1706274e+2, -1157440.6, -128607.33, 28202.89, -0.055849623, 0.14361772, -127834.8, -127834.8, 0.0, 9.990206, 10.0038395 
2.2656159e+3, 1.4714332e+2, -569364.6, -1364903.4, 105691.43, 0.49717528, 0.1679975, -555562.44, 942447.8, 0.3586478, 10.012166, 9.995697 
2.2655447e+3, 1.5713845e+2, -369534.1, -1305920.4, 93420.87, -0.11743113, 0.13557725, -360304.72, 1039750.8, 0.20078436, 10.011134, 9.995584 
2.2654782e+3, 1.6713409e+2, -334238.66, -1218366.1, 72740.086, -0.17797056, 0.12929545, -328294.06, 973803.9, 0.087694645, 10.009197, 9.996341 
2.2654143e+3, 1.7713016e+2, -490148.5, -1265968.3, 73786.47, 0.015322071, 0.1219104, -483193.2, 720943.94, 0.02689199, 10.00693, 9.99638 
2.2653472e+3, 1.8712676e+2, -445118.03, -1065996.5, 16534.715, 0.04088904, 0.10591143, -444678.0, 661492.3, 0.004748816, 10.005867, 9.997592 
2.2652788e+3, 1.9712396e+2, -419983.72, -1001428.9, 22305.71, -0.010746378, 0.08836935, -419129.25, 589068.1, 0.00037266343, 10.005333, 9.99762 
2.2652107e+3, 2.0712212e+2, -477669.3, -857637.75, 23826.076, -0.030173937, 0.10984945, -476181.1, 434033.78, 0.00000020334997, 10.00374, 9.9987 
2.2651428e+3, 2.1712093e+2, -682844.25, -915759.94, 8274.944, -0.033390667, 0.14245111, -682550.6, 129675.26, 0.0, 10.001701, 9.9986105 
2.265074e+3, 2.2711948e+2, -683866.94, -799092.44, -34972.88, -0.032089073, 0.134564, -674082.9, 40157.99, 0.0, 10.000735, 9.999203 
2.2650047e+3, 2.3711818e+2, -651364.56, -722733.94, -23955.688, -0.026541406, 0.1054458, -644069.4, -27814.326, 0.0, 10.000242, 9.999293 
2.264936e+3, 2.4711803e+2, -647402.5, -527544.8, -7835.1685, -0.0035440912, 0.117577344, -527034.75, -8778.222, 0.0, 9.998983, 10.000566 
2.2648674e+3, 2.5711864e+2, -787218.6, -552254.5, -16070.133, 0.022506263, 0.14468339, -551160.5, -130910.63, 0.0, 9.997386, 10.000493 
2.2647978e+3, 2.671192e+2, -818199.6, -435667.72, -31615.367, -0.024533004, 0.14033373, -433072.38, -110826.6, 0.0, 9.996155, 10.001212 
2.2647278e+3, 2.7711996e+2, -881306.9, -412755.63, -27383.291, -0.08971666, 0.115294315, -411160.72, -186920.27, 0.0, 9.995038, 10.001236 
2.264659e+3, 2.87122e+2, -910278.9, -244309.95, -16416.203, -0.05917338, 0.1625803, -243905.55, -117684.375, 0.0, 9.9936, 10.002412 
2.2645903e+3, 2.971251e+2, -1023538.3, -234233.28, -17313.188, -0.027881993, 0.24969132, -233853.7, -205662.28, 0.0, 9.99209, 10.002537 
2.2645214e+3, 3.071273e+2, -1018023.8, -103675.695, -24946.543, 0.0060608746, 0.1879302, -102995.58, -102995.58, 0.0, 9.991356, 10.003449 
2.2644517e+3, 3.171302e+2, -1058315.6, -58989.355, 52076.883, -0.104938656, 0.18504119, -56282.855, -56282.855, 0.0, 9.990802, 10.004024 
2.2756246e+3, 1.472128e+2, -650059.8, -1473375.0, 80960.555, 0.16206264, 0.1945505, -642174.1, 855154.4, 0.38356003, 10.012227, 9.994519 
2.2755559e+3, 1.5720567e+2, -437472.28, -1414751.6, 59073.758, -0.06668521, 0.049176347, -433914.4, 965482.9, 0.21526305, 10.011129, 9.994689 
2.2754882e+3, 1.6720153e+2, -324200.7, -1183105.8, -1268.4172, -0.08080792, 0.08683235, -324198.8, 977239.1, 0.09438782, 10.00919, 9.996619 
2.2754209e+3, 1.7719898e+2, -468975.1, -1228518.4, 7751.8354, 0.005304301, 0.18957841, -468895.97, 734567.9, 0.029174322, 10.006973, 9.996617 
2.2753525e+3, 1.8719587e+2, -433661.3, -1048662.3, 918.43085, 0.0015817661, 0.18595769, -433659.94, 671834.0, 0.0052547962, 10.005892, 9.997703 
2.2752835e+3, 1.9719286e+2, -418556.22, -994310.25, -6410.1436, -0.043176457, 0.1357033, -418484.88, 589037.6, 0.0004286788, 10.005309, 9.997683 
2.275214e+3, 2.0719056e+2, -485754.56, -871468.1, -52385.79, -0.041506603, 0.115097106, -478766.38, 430777.9, 0.00000027027752, 10.003722, 9.998617 
2.2751445e+3, 2.1718882e+2, -683733.5, -919807.6, -53679.2, -0.019367294, 0.10326948, -672101.0, 139459.47, 0.0, 10.001704, 9.998584 
2.2750747e+3, 2.2718771e+2, -669881.5, -772344.0, -50521.76, -0.008992844, 0.11742006, -649160.75, 64411.496, 0.0, 10.00074, 9.999387 
2.2750048e+3, 2.3718709e+2, -640904.6, -703307.94, -49460.434, -0.0037186604, 0.13776584, -613626.56, 1953.1324, 0.0, 10.000247, 9.999427 
2.2749344e+3, 2.4718684e+2, -652284.8, -540141.75, -69424.305, -0.02543992, 0.13936944, -506973.4, 10608.955, 0.0, 9.998989, 10.000479 
2.2748637e+3, 2.57187e+2, -788463.2, -558393.44, -72499.92, -0.06282018, 0.13091306, -537453.06, -117872.74, 0.0, 9.9973955, 10.000449 
2.2747932e+3, 2.671878e+2, -811825.6, -425595.1, -74657.62, -0.060119513, 0.14795792, -411666.25, -90092.516, 0.0, 9.996162, 10.001281 
2.2747232e+3, 2.7718908e+2, -871558.7, -397961.66, -74482.91, -0.025340002, 0.16815493, -386523.9, -162960.98, 0.0, 9.995055, 10.001332 
2.2746529e+3, 2.8719082e+2, -903325.9, -230865.17, -77118.87, -0.002462063, 0.17189157, -222134.4, -96588.516, 0.0, 9.993598, 10.002509 
2.2745818e+3, 2.9719314e+2, -1034238.5, -249869.34, -64466.496, -0.044885535, 0.17629945, -244606.22, -217083.95, 0.0, 9.992056, 10.002449 
2.2745119e+3, 3.0719504e+2, -1055365.8, -184640.33, -42061.168, -0.07469681, 0.122076996, -182613.25, -182613.25, 0.0, 9.9913645, 10.002893 
2.2744434e+3, 3.171981e+2, -1014521.7, -2276.602, -54116.61, -0.0020165308, 0.1655925, 608.3559, 608.3559, 0.0, 9.990927, 10.004365 
2.2856358e+3, 1.4728338e+2, -528887.06, -1444015.3, 103275.555, -0.016482731, 0.14567567, -517376.8, 979258.7, 0.4075794, 10.014339, 9.993847 
2.2855678e+3, 1.5727624e+2, -450226.9, -1478955.8, 117130.11, 0.005650362, 0.071994565, -437059.13, 961646.75, 0.22860162, 10.011442, 9.994113 
2.2854982e+3, 1.6727175e+2, -282248.9, -1176850.3, 68011.26, -0.008942063, 0.107690945, -277107.97, 1023642.56, 0.100221165, 10.009643, 9.996449 
2.285428e+3, 1.7726868e+2, -289374.84, -1154104.1, 55332.414, -0.03044768, 0.17857209, -285848.63, 916932.4, 0.03102229, 10.008325, 9.996486 
2.2853582e+3, 1.8726555e+2, -344331.9, -1006186.06, 49655.207, -0.035514083, 0.18147174, -340627.28, 764183.94, 0.0056262603, 10.006521, 9.997689 
2.2852883e+3, 1.9726272e+2, -526923.3, -1044780.7, 31734.332, -0.037339367, 0.15304774, -524985.9, 481852.34, 0.00046649866, 10.004564, 9.997691 
2.2852175e+3, 2.0726036e+2, -528043.25, -883724.44, -11349.587, -0.03348932, 0.12439142, -527681.5, 381179.1, 0.00000033095307, 10.003403, 9.998683 
2.2851463e+3, 2.172585e+2, -548468.6, -842396.3, -2007.7968, -0.024690757, 0.09247222, -548454.9, 262423.28, 0.0, 10.002587, 9.998688 
2.2850755e+3, 2.272576e+2, -584589.56, -703428.3, 18994.121, -0.0172155, 0.11103933, -581627.5, 131259.83, 0.0, 10.001211, 9.999631 
2.2850044e+3, 2.3725735e+2, -722294.75, -722071.7, 21564.396, -0.010096672, 0.1462987, -700618.56, -85728.05, 0.0, 9.999606, 9.999603 
2.2849329e+3, 2.4725704e+2, -739993.0, -589687.1, -2695.9658, -0.035248525, 0.14178944, -589638.75, -72744.87, 0.0, 9.998425, 10.000407 
2.2848606e+3, 2.5725695e+2, -789272.94, -561012.25, -4609.153, -0.07633023, 0.11760752, -560919.2, -142024.4, 0.0, 9.997406, 10.000423 
2.2847892e+3, 2.6725784e+2, -792034.7, -406171.38, -530.8769, -0.061792776, 0.14122958, -406170.66, -85283.555, 0.0, 9.996262, 10.001364 
2.2847183e+3, 2.7725938e+2, -866179.1, -388680.03, -3787.5103, -0.008953872, 0.18058956, -388650.0, -165776.7, 0.0, 9.995068, 10.001387 
2.2846465e+3, 2.8726095e+2, -858492.25, -217664.64, -23168.443, -0.0004980762, 0.17290108, -216828.11, -91970.39, 0.0, 9.993948, 10.002428 
2.2845738e+3, 2.972628e+2, -941050.3, -223839.47, -22722.371, -0.06437702, 0.13793567, -223120.31, -196281.25, 0.0, 9.992784, 10.002274 
2.284503e+3, 3.072647e+2, -1074323.6, -213064.94, 27115.45, -0.07551222, 0.107769325, -212212.08, -212212.08, 0.0, 9.991326, 10.002712 
2.2844338e+3, 3.1726736e+2, -1149750.5, -26195.432, -4448.706, 0.016184196, 0.1196722, -26177.816, -26177.816, 0.0, 9.989833, 10.004722 
2.2956492e+3, 1.473549e+2, -587541.7, -1476808.9, 33799.746, -0.09332085, 0.0449484, -586258.9, 909673.75, 0.42677695, 10.014133, 9.993575 
2.2955798e+3, 1.5734963e+2, -474996.63, -1521825.0, 41734.055, 0.089221425, 0.1841421, -473335.44, 924651.6, 0.23879781, 10.011485, 9.99378 
2.2955081e+3, 1.6734421e+2, -317207.0, -1249167.5, 25563.252, 0.036818206, 0.17667846, -316506.34, 983534.2, 0.1044458, 10.009678, 9.995886 
2.2954355e+3, 1.7733912e+2, -324771.2, -1222079.6, 4997.5444, -0.092204645, 0.10080931, -324743.34, 877346.5, 0.032258756, 10.0083, 9.996023 
2.295364e+3, 1.8733577e+2, -356445.88, -1028083.4, -21681.92, -0.073435694, 0.10645834, -355746.7, 748376.1, 0.0058435258, 10.006502, 9.997551 
2.2952929e+3, 1.9733347e+2, -529489.2, -1053243.0, -28965.195, -0.0011183344, 0.14242442, -527892.2, 478253.4, 0.00048432703, 10.004571, 9.997633 
2.295221e+3, 2.0733142e+2, -515268.88, -859147.1, -38033.543, -0.011363732, 0.13621427, -511112.53, 397052.63, 0.00000036592365, 10.003406, 9.998853 
2.2951484e+3, 2.1732976e+2, -536327.8, -814971.9, -35591.273, -0.052667167, 0.10805049, -531853.56, 278327.06, 0.0, 10.002571, 9.998887 
2.295076e+3, 2.2732897e+2, -566716.8, -665197.06, -40227.156, -0.058572564, 0.1139661, -552373.8, 159813.9, 0.0, 10.001201, 9.999901 
2.2950034e+3, 2.373288e+2, -708101.9, -694154.56, -33184.15, -0.049144484, 0.12996773, -667219.2, -53030.336, 0.0, 9.999607, 9.999798 
2.294931e+3, 2.473285e+2, -744497.2, -601018.2, -41652.64, -0.03357282, 0.12526862, -589802.9, -73610.79, 0.0, 9.998427, 10.000332 
2.2948584e+3, 2.5732842e+2, -788957.5, -564391.8, -44751.55, -0.019567039, 0.1066662, -555802.25, -137608.44, 0.0, 9.9974165, 10.000398 
2.2947857e+3, 2.6732922e+2, -784482.25, -394520.75, -46620.305, -0.03292805, 0.11617749, -389024.72, -68838.0, 0.0, 9.996273, 10.001441 
2.2947127e+3, 2.7733067e+2, -864788.06, -390399.63, -46953.285, -0.049346842, 0.14055093, -385797.0, -163623.98, 0.0, 9.995082, 10.001371 
2.2946393e+3, 2.873324e+2, -878352.9, -264141.06, -67210.85, -0.061870173, 0.16971318, -256872.47, -132715.75, 0.0, 9.993965, 10.002103 
2.2945662e+3, 2.9733425e+2, -957152.0, -266815.03, -72460.195, -0.097761564, 0.16818486, -259291.36, -233151.9, 0.0, 9.992818, 10.0019655 
2.2944951e+3, 3.0733576e+2, -1055705.1, -179722.64, -30832.414, 0.027863503, 0.1052741, -178638.77, -178638.77, 0.0, 9.991341, 10.002938 
2.2944224e+3, 3.1733966e+2, -1128490.6, 31520.91, -59362.75, -0.07383332, 0.20235999, 34550.844, 34550.844, 0.0, 9.989779, 10.005141 
2.3056635e+3, 1.4742821e+2, -673720.1, -1504287.4, 20147.729, 0.015543148, 0.08421532, -673231.7, 821983.75, 0.4379319, 10.01322, 9.993729 
2.3055913e+3, 1.5742277e+2, -351659.94, -1432215.0, 33106.27, 0.05740566, 0.19273917, -350646.56, 1046624.3, 0.24437134, 10.012645, 9.993831 
2.3055176e+3, 1.6741714e+2, -214362.72, -1220708.9, 27258.68, 0.005825074, 0.17839327, -213624.9, 1085701.4, 0.1065332, 10.0106, 9.995658 
2.3054436e+3, 1.7741185e+2, -377302.7, -1265974.8, 29101.88, -0.07690597, 0.106292106, -376350.7, 825027.06, 0.032754995, 10.008015, 9.995856 
2.3053704e+3, 1.8740836e+2, -371914.03, -1037349.5, 30501.377, -0.06790997, 0.10790327, -370518.88, 732893.3, 0.005889561, 10.006411, 9.997527 
2.3052974e+3, 1.9740596e+2, -431124.78, -1002059.3, 28837.457, -0.023814404, 0.13818963, -429671.9, 575764.1, 0.00048043652, 10.005239, 9.997659 
2.305224e+3, 2.0740409e+2, -484738.6, -827210.06, 27392.887, -0.019687679, 0.14264922, -482561.38, 424892.3, 0.00000034808062, 10.003548, 9.999001 
2.3051503e+3, 2.1740274e+2, -656022.25, -856799.9, 28506.201, -0.03116208, 0.13123548, -652053.4, 157412.75, 0.0, 10.001689, 9.99902 
2.3050767e+3, 2.2740185e+2, -644981.06, -695931.44, 19403.252, -0.046238713, 0.12160982, -638433.3, 73040.445, 0.0, 10.00064, 9.999957 
2.305003e+3, 2.3740144e+2, -659240.7, -662803.75, 9657.251, -0.059564993, 0.11087717, -651202.0, -37725.316, 0.0, 9.999915, 9.999862 
2.3049292e+3, 2.4740134e+2, -709840.8, -574744.8, 3264.4285, -0.042839624, 0.11823834, -574665.94, -59187.773, 0.0, 9.99863, 10.000412 
2.3048554e+3, 2.574016e+2, -827273.5, -575473.9, 11521.446, -0.017427498, 0.12615722, -574947.75, -157470.9, 0.0, 9.997128, 10.000459 
2.3047812e+3, 2.6740214e+2, -816817.1, -409789.9, 13844.587, -0.038613547, 0.11182448, -409319.53, -89847.82, 0.0, 9.996055, 10.001439 
2.3047073e+3, 2.7740315e+2, -858576.8, -387846.53, 5381.6924, -0.066652045, 0.093455896, -387785.0, -166323.2, 0.0, 9.995132, 10.001361 
2.3046331e+3, 2.8740516e+2, -896387.8, -279328.56, -8504.046, -0.071844816, 0.15794954, -279211.38, -155768.39, 0.0, 9.993875, 10.00204 
2.3045583e+3, 2.9740763e+2, -1008558.3, -288476.38, 2490.2517, -0.098575, 0.22357517, -288467.78, -263047.06, 0.0, 9.992456, 10.001989 
2.3044866e+3, 3.0740833e+2, -1053824.8, -158703.22, 58797.023, 0.06146859, 0.07038145, -154857.6, -154857.6, 0.0, 9.9912615, 10.003123 
2.3044118e+3, 3.1741264e+2, -1111679.1, 26079.162, -18648.232, -0.08867558, 0.20011078, 26384.73, 26384.73, 0.0, 9.989964, 10.00501 
2.3156787e+3, 1.4750297e+2, -648085.75, -1459655.4, 10381.078, 0.22634697, 0.22670785, -647952.94, 846533.2, 0.4390977, 10.013337, 9.994162 
2.3156023e+3, 1.5749578e+2, -344503.63, -1393849.0, 5309.224, -0.07610425, 0.11759111, -344476.78, 1052079.1, 0.2445733, 10.012555, 9.9941435 
2.315527e+3, 1.6749056e+2, -223283.69, -1222651.4, -58956.402, -0.090899765, 0.12889202, -219817.66, 1078789.9, 0.10623267, 10.01051, 9.995688 
2.315452e+3, 1.7748652e+2, -372362.47, -1259814.0, -50059.438, 0.00006512868, 0.18049793, -369547.66, 831100.0, 0.032449465, 10.008024, 9.995897 
2.3153767e+3, 1.8748297e+2, -368318.0, -1032194.94, -8681.352, -0.031418294, 0.17234151, -368204.47, 734478.0, 0.00575777, 10.006413, 9.997564 
2.3153014e+3, 1.9747998e+2, -431617.2, -996318.75, -17223.213, -0.10421341, 0.13943677, -431092.38, 573619.2, 0.0004554582, 10.005202, 9.99772 
2.3152268e+3, 2.0747824e+2, -479193.94, -812548.06, -40789.723, -0.056550886, 0.14607313, -474275.44, 432452.34, 0.0000002756525, 10.003529, 9.999113 
2.3151523e+3, 2.1747725e+2, -652144.25, -850375.75, -28406.652, 0.033693857, 0.16061312, -648153.9, 160582.58, 0.0, 10.00169, 9.999067 
2.3150776e+3, 2.274761e+2, -656741.0, -722456.25, -4947.1177, 0.014443294, 0.13295531, -656370.6, 54376.26, 0.0, 10.000644, 9.999776 
2.3150027e+3, 2.3747517e+2, -664077.8, -674880.25, -23401.137, -0.045864295, 0.0879648, -645462.6, -32707.422, 0.0, 9.999917, 9.999781 
2.3149273e+3, 2.4747542e+2, -694081.2, -544415.2, -55074.39, -0.066817045, 0.12037659, -526333.4, -11580.145, 0.0, 9.998633, 10.000621 
2.3148519e+3, 2.5747636e+2, -817180.56, -557654.25, -40605.73, -0.077118, 0.17689176, -551449.4, -134704.45, 0.0, 9.997134, 10.00058 
2.3147766e+3, 2.6747656e+2, -823589.0, -425931.13, -22055.39, -0.08332213, 0.13088192, -424711.6, -105968.92, 0.0, 9.9960575, 10.001329 
2.3147021e+3, 2.7747676e+2, -857344.56, -388349.34, -33666.914, -0.06781815, 0.04271969, -385944.88, -165204.9, 0.0, 9.995139, 10.001358 
2.3146272e+3, 2.8747922e+2, -879895.75, -246209.55, -62390.332, -0.024438994, 0.13293749, -240125.25, -117408.234, 0.0, 9.993874, 10.002271 
2.314551e+3, 2.974828e+2, -980135.9, -231373.17, -45761.75, -0.04441958, 0.2875002, -228586.75, -203903.16, 0.0, 9.992457, 10.002385 
2.3144765e+3, 3.074828e+2, -1038404.6, -130868.984, 21063.947, -0.032001063, 0.028723862, -130380.35, -130380.35, 0.0, 9.991271, 10.003315 
2.3144019e+3, 3.1748754e+2, -1143793.8, -38888.5, -123746.56, -0.0447423, 0.20668934, -25198.816, -25198.816, 0.0, 9.98996, 10.004564 
2.3256926e+3, 1.475782e+2, -411381.75, -1366040.8, 22868.328, 0.1655724, 0.21821354, -410834.28, 1082915.9, 0.4296146, 10.0161295, 9.993932 
2.3256142e+3, 1.5757096e+2, -466712.56, -1481700.9, -4627.9004, -0.06320137, 0.12689547, -466691.47, 929128.9, 0.23912917, 10.011417, 9.99408 
2.3255369e+3, 1.675659e+2, -339733.7, -1245540.3, -30146.36, -0.06705837, 0.139929, -338731.5, 959138.7, 0.103496104, 10.009432, 9.996025 
2.3254602e+3, 1.7756224e+2, -269943.66, -1172857.1, -5672.626, 0.0076794005, 0.19569796, -269908.0, 929998.94, 0.031369757, 10.008592, 9.996222 
2.3253831e+3, 1.87559e+2, -327880.38, -987887.75, 47096.96, -0.031606656, 0.19270092, -324536.56, 777402.0, 0.005471057, 10.006592, 9.99778 
2.325306e+3, 1.975562e+2, -565551.2, -1043846.44, 54360.52, -0.10901619, 0.16176535, -559450.7, 444514.5, 0.00041492592, 10.004217, 9.997863 
2.32523e+3, 2.0755428e+2, -547999.8, -857510.75, 41592.438, -0.05778216, 0.15525147, -542508.0, 363475.0, 0.00000017484551, 10.003115, 9.999 
2.3251542e+3, 2.17553e+2, -540172.1, -804373.9, 35863.918, 0.040666, 0.15426834, -535390.4, 272604.22, 0.0, 10.0025, 9.998989 
2.3250781e+3, 2.2755188e+2, -602986.25, -697954.44, 63081.19, 0.021486504, 0.1360514, -571514.8, 138490.08, 0.0, 10.001025, 9.999757 
2.325002e+3, 2.375511e+2, -763283.6, -721113.0, 56515.246, -0.040678065, 0.10833852, -681877.8, -69865.66, 0.0, 9.999237, 9.999787 
2.3249254e+3, 2.4755126e+2, -763872.5, -570072.9, 23816.766, -0.06798604, 0.13239652, -567188.9, -53178.266, 0.0, 9.998127, 10.000685 
2.3248486e+3, 2.575521e+2, -794053.3, -536665.2, 28257.137, -0.085061535, 0.17354868, -533599.5, -117596.49, 0.0, 9.997258, 10.000661 
2.3247725e+3, 2.6755247e+2, -808028.25, -404026.53, 59757.42, -0.08764365, 0.1356615, -395372.94, -77374.21, 0.0, 9.99611, 10.0014515 
2.3246968e+3, 2.7755287e+2, -896333.9, -397352.13, 59485.867, -0.06324315, 0.05848831, -390358.6, -170364.92, 0.0, 9.994837, 10.001439 
2.3246206e+3, 2.8755504e+2, -901498.9, -258087.36, 15948.299, -0.01835697, 0.1233531, -257692.3, -135719.0, 0.0, 9.993739, 10.00225 
2.3245434e+3, 2.975584e+2, -940663.6, -202493.4, 8236.729, -0.037586953, 0.25984806, -202401.52, -178459.47, 0.0, 9.992695, 10.002463 
2.3244669e+3, 3.0755904e+2, -1073520.8, -130766.8, 46802.477, -0.078483626, 0.04746611, -128449.016, -128449.016, 0.0, 9.990964, 10.00346 
2.3243912e+3, 3.175638e+2, -1199143.0, -35112.05, -77462.11, -0.06803386, 0.22326012, -29979.852, -29979.852, 0.0, 9.989462, 10.004825 
2.3357058e+3, 1.4765392e+2, -419814.66, -1434312.3, -85102.14, -0.12316087, 0.098029874, -412725.34, 1080282.3, 0.4101732, 10.015958, 9.993175 
2.3356265e+3, 1.5764792e+2, -468149.6, -1536785.1, -113827.92, 0.061742194, 0.2015605, -456159.5, 938907.94, 0.22825117, 10.011462, 9.993708 
2.335547e+3, 1.6764292e+2, -298836.84, -1173024.4, -49324.938, 0.044323325, 0.1964079, -296062.53, 1001054.44, 0.09846263, 10.009434, 9.996577 
2.3354678e+3, 1.7763889e+2, -246160.3, -1106841.0, -43932.168, -0.04881773, 0.16102909, -243923.66, 955233.06, 0.029611427, 10.008496, 9.996738 
2.335389e+3, 1.8763624e+2, -310745.44, -941671.4, -39969.906, -0.064310335, 0.17764199, -308223.38, 792958.44, 0.005070317, 10.0065365, 9.998129 
2.3353103e+3, 1.9763432e+2, -550927.2, -1018328.7, -15459.195, -0.050342217, 0.20122707, -550416.44, 452782.97, 0.00036710425, 10.0042305, 9.998035 
2.335233e+3, 2.0763199e+2, -569816.7, -907621.4, 22805.5, -0.031523664, 0.16695951, -568284.06, 336937.6, 0.000000083393616, 10.003129, 9.998652 
2.335156e+3, 2.1762984e+2, -557104.44, -838396.1, 5995.4854, -0.011998055, 0.113065735, -556976.7, 250265.42, 0.0, 10.002489, 9.998764 
2.3350786e+3, 2.276291e+2, -595440.3, -681891.7, -3658.9106, -0.024587067, 0.13307363, -595285.75, 113963.24, 0.0, 10.001018, 9.999874 
2.335001e+3, 2.3762909e+2, -758623.3, -712812.9, -1907.8107, -0.047868986, 0.17288414, -712733.56, -101484.94, 0.0, 9.999236, 9.999847 
2.3349233e+3, 2.476288e+2, -770177.2, -585382.1, -9229.794, -0.047726933, 0.15347426, -584922.25, -71670.836, 0.0, 9.998131, 10.000581 
2.334846e+3, 2.5762868e+2, -790569.8, -533243.6, -7915.682, -0.04281057, 0.11195441, -533000.3, -117748.0, 0.0, 9.997269, 10.000683 
2.3347686e+3, 2.6762983e+2, -782864.7, -354067.2, 10276.358, -0.05012022, 0.12544325, -353821.03, -36580.68, 0.0, 9.996113, 10.001797 
2.3346914e+3, 2.776315e+2, -885529.75, -377826.44, 13486.87, -0.054397617, 0.14584564, -377468.4, -158246.08, 0.0, 9.994842, 10.0015745 
2.3346135e+3, 2.876327e+2, -924986.06, -310496.84, -22454.787, -0.06725766, 0.13048285, -309677.38, -188465.48, 0.0, 9.993749, 10.001889 
2.3345351e+3, 2.9763436e+2, -960335.75, -249766.44, -37900.402, -0.10944, 0.13393088, -247750.63, -224553.08, 0.0, 9.992716, 10.002132 
2.334458e+3, 3.0763692e+2, -1074051.3, -125908.125, -38039.484, -0.033125333, 0.123871, -124384.43, -124384.43, 0.0, 9.990932, 10.003511 
2.3343803e+3, 3.1764004e+2, -1160601.1, 27807.676, 3629.7283, -0.05452431, 0.11929258, 27818.762, 27818.762, 0.0, 9.989507, 10.00525 
2.3457195e+3, 1.4773151e+2, -524603.7, -1425867.3, -125049.99, -0.18430267, 0.09412966, -507574.8, 984672.94, 0.38311842, 10.013692, 9.99432 
2.3456381e+3, 1.5772687e+2, -315726.9, -1356514.5, -66556.125, 0.07706367, 0.22376373, -311488.03, 1082806.1, 0.21299346, 10.012182, 9.994642 
2.3455565e+3, 1.677222e+2, -268152.94, -1145359.3, 43823.855, 0.057289433, 0.20933126, -265969.0, 1030371.06, 0.09153426, 10.009542, 9.996722 
2.3454748e+3, 1.7771804e+2, -501283.72, -1216116.8, 35971.523, -0.068153806, 0.15144923, -499478.13, 698902.5, 0.027293555, 10.006619, 9.996868 
2.3453945e+3, 1.8771544e+2, -460321.47, -1010094.9, 37557.94, -0.062228765, 0.16737889, -457767.53, 642637.94, 0.0045812693, 10.005493, 9.998154 
2.3453152e+3, 1.9771361e+2, -436760.88, -961630.1, 40924.49, -0.0081013935, 0.19950359, -433589.13, 568833.3, 0.00031676216, 10.005017, 9.998041 
2.3452364e+3, 2.077112e+2, -507076.53, -886494.4, 92486.5, -0.010106109, 0.16730477, -485732.8, 418712.72, 0.000000030505163, 10.003608, 9.998563 
2.3451577e+3, 2.1770896e+2, -648767.0, -885777.56, 89411.46, -0.031771705, 0.1134512, -618820.56, 187646.8, 0.0, 10.001882, 9.998727 
2.3450789e+3, 2.2770825e+2, -645946.5, -696704.6, 77018.26, -0.04311296, 0.13576896, -590233.56, 118239.984, 0.0, 10.000638, 9.99995 
2.345e+3, 2.3770833e+2, -706953.0, -681276.1, 79985.47, -0.04755726, 0.17894708, -613105.3, -2633.4133, 0.0, 9.99957, 9.999899 
2.3449214e+3, 2.4770786e+2, -741020.94, -575072.94, 86656.24, -0.036943533, 0.1454769, -538071.94, -25595.893, 0.0, 9.998356, 10.00054 
2.344843e+3, 2.5770748e+2, -818461.44, -547906.1, 88439.52, -0.02168776, 0.08399214, -521562.0, -107082.664, 0.0, 9.997091, 10.000663 
2.3447645e+3, 2.6770872e+2, -806204.3, -365596.34, 83747.07, -0.03636092, 0.11253706, -350215.34, -33748.79, 0.0, 9.995963, 10.001785 
2.3446861e+3, 2.777107e+2, -882914.56, -373757.28, 60678.83, -0.058902446, 0.16306318, -366625.75, -148179.47, 0.0, 9.994857, 10.00159 
2.344607e+3, 2.877117e+2, -931611.94, -307231.22, 45374.527, -0.08857545, 0.12836352, -303951.03, -183514.0, 0.0, 9.993683, 10.00194 
2.3445274e+3, 2.9771295e+2, -1003524.06, -283190.13, 56238.68, -0.12075803, 0.08679083, -278825.84, -256399.66, 0.0, 9.992481, 10.002012 
2.3444492e+3, 3.0771586e+2, -975514.8, -94814.97, 36984.2, 0.0011160715, 0.13748829, -93264.58, -93264.58, 0.0, 9.991687, 10.003357 
2.3443706e+3, 3.1771883e+2, -1077959.0, 61188.67, 98996.1, 0.00042961448, 0.12293842, 69727.78, 69727.78, 0.0, 9.990114, 10.005179 
2.355734e+3, 1.4781067e+2, -379579.3, -1192908.4, -152553.39, -0.08738636, 0.17572457, -351906.9, 1139566.4, 0.35225055, 10.0134945, 9.996849 
2.3556492e+3, 1.5780745e+2, -206314.53, -1144774.4, -118252.84, -0.0023313905, 0.20276746, -191643.16, 1201860.6, 0.19525763, 10.011994, 9.996533 
2.355565e+3, 1.6780339e+2, -280301.72, -1176020.5, -55480.957, -0.012570387, 0.18902192, -276878.3, 1018664.9, 0.08340394, 10.009477, 9.996518 
2.3554812e+3, 1.7779934e+2, -505477.1, -1244075.0, -43417.723, -0.059959095, 0.16141243, -502933.6, 694649.0, 0.024568137, 10.006676, 9.996654 
2.3554002e+3, 1.877963e+2, -474773.3, -1049899.8, 25725.563, -0.03397424, 0.15891647, -473624.88, 625987.44, 0.0040144203, 10.005527, 9.997867 
2.35532e+3, 1.9779389e+2, -452583.63, -988748.4, 15440.603, 0.016451858, 0.1609114, -452139.3, 549496.5, 0.0002632998, 10.004985, 9.997874 
2.3552397e+3, 2.0779182e+2, -500946.94, -870265.3, 29573.889, 0.0064851637, 0.15999793, -498593.75, 405062.2, 0.000000009033158, 10.003586, 9.998688 
2.3551594e+3, 2.1779017e+2, -642521.7, -872534.44, 33820.125, -0.025043797, 0.15361743, -637652.0, 168020.02, 0.0, 10.001874, 9.998825 
2.355079e+3, 2.2778916e+2, -643696.3, -694244.1, 38984.453, -0.03822494, 0.14194436, -622509.94, 85170.34, 0.0, 10.000641, 9.9999695 
2.3549993e+3, 2.3778865e+2, -705310.4, -680101.3, 38755.234, -0.04428003, 0.1246289, -651952.4, -42269.12, 0.0, 9.999574, 9.999908 
2.3549195e+3, 2.4778837e+2, -740035.9, -576324.5, 37757.805, -0.038342226, 0.10957695, -568035.8, -56350.543, 0.0, 9.998363, 10.00053 
2.3548396e+3, 2.5778845e+2, -824502.25, -564177.2, 42356.875, -0.030444372, 0.092745, -557458.75, -143774.44, 0.0, 9.997101, 10.00055 
2.35476e+3, 2.677891e+2, -835228.2, -427802.0, 40816.22, -0.051536873, 0.09505812, -423753.22, -108075.08, 0.0, 9.995966, 10.00136 
2.3546804e+3, 2.7779022e+2, -891371.1, -393508.97, 16988.61, -0.080507174, 0.10033593, -392929.94, -175262.52, 0.0, 9.994861, 10.001456 
2.3546003e+3, 2.8779206e+2, -895005.6, -231511.06, -1452.3369, -0.078147575, 0.116851926, -231507.88, -111859.14, 0.0, 9.993678, 10.002465 
2.35452e+3, 2.9779434e+2, -995577.94, -270301.75, 20311.994, -0.06837003, 0.1329505, -269733.34, -248108.02, 0.0, 9.99249, 10.002101 
2.354441e+3, 3.077957e+2, -998945.0, -160689.14, 15120.091, 0.013616258, 0.06864888, -160416.5, -160416.5, 0.0, 9.991754, 10.002876 
2.3543596e+3, 3.1779987e+2, -1139650.6, -59743.043, -82278.93, -0.07402323, 0.20306858, -53510.125, -53510.125, 0.0, 9.990091, 10.004355 
2.3658457e+3, 1.3789733e+2, -1101328.3, -1406969.5, -545927.8, 0.13820511, 0.17855503, -687235.06, 901390.56, 0.4787481, 10.007082, 10.000128 
2.3657456e+3, 1.4789557e+2, -548462.6, -1312108.0, 31347.58, -0.1039491, 0.28108534, -547177.94, 943463.3, 0.3213884, 10.011428, 9.996486 
2.3656595e+3, 1.5789033e+2, -508573.13, -1319036.6, -31182.537, -0.010976576, 0.1466179, -507375.16, 885316.0, 0.17710167, 10.009366, 9.996291 
2.3655735e+3, 1.6788614e+2, -410498.7, -1253463.1, 5012.615, -0.02316664, 0.13639511, -410468.88, 884262.8, 0.07486998, 10.008501, 9.996398 
2.365488e+3, 1.7788254e+2, -332590.7, -1177571.5, 26442.127, -0.069313504, 0.16863221, -331764.06, 865002.5, 0.021629198, 10.007959, 9.99649 
2.3654057e+3, 1.8787913e+2, -402475.78, -1051001.1, 102748.01, -0.030281913, 0.1605334, -386586.38, 712213.5, 0.003389885, 10.0061865, 9.997537 
2.3653245e+3, 1.9787611e+2, -605428.5, -1085774.0, 89911.13, 0.035025593, 0.13630356, -589150.56, 411679.03, 0.0002058903, 10.004044, 9.997657 
2.3652427e+3, 2.0787416e+2, -599781.3, -912332.75, 102075.42, 0.018851886, 0.15266442, -569398.25, 333450.7, 0.000000001585009, 10.002892, 9.99873 
2.3651609e+3, 2.1787281e+2, -613996.75, -860266.25, 99747.79, -0.023284808, 0.17675345, -578664.5, 226197.55, 0.0, 10.002084, 9.998804 
2.3650798e+3, 2.278715e+2, -604758.56, -697683.6, 96088.195, -0.031658486, 0.15011962, -544489.2, 162384.27, 0.0, 10.001012, 9.9997635 
2.3649988e+3, 2.3787048e+2, -676496.3, -680780.5, 78132.836, -0.02742756, 0.103717506, -600476.2, 8405.226, 0.0, 9.999843, 9.99977 
2.3649175e+3, 2.4787028e+2, -706586.75, -559079.3, 70011.57, -0.03877031, 0.103282884, -531141.2, -20258.594, 0.0, 9.998596, 10.000532 
2.3648365e+3, 2.5787064e+2, -795157.2, -550527.2, 76927.05, -0.05571871, 0.11536355, -528347.44, -115468.49, 0.0, 9.997313, 10.000538 
2.3647556e+3, 2.678711e+2, -820650.1, -426024.16, 99112.79, -0.069433086, 0.10861333, -402530.1, -87655.83, 0.0, 9.996098, 10.001304 
2.3646751e+3, 2.7787194e+2, -885825.44, -391563.78, 99917.82, -0.070849665, 0.09114042, -372129.03, -155262.52, 0.0, 9.994913, 10.001439 
2.3645942e+3, 2.8787372e+2, -837556.8, -194496.77, 62603.24, -0.04221746, 0.09951758, -188458.9, -69610.94, 0.0, 9.994042, 10.002539 
2.364513e+3, 2.9787606e+2, -891360.9, -206827.11, 46807.39, -0.032470435, 0.115354136, -203641.33, -182818.02, 0.0, 9.993158, 10.002209 
2.3644315e+3, 3.0787775e+2, -1060188.4, -199345.95, 69420.18, -0.051595297, 0.08110361, -193783.7, -193783.7, 0.0, 9.991381, 10.002789 
2.364349e+3, 3.1788036e+2, -1157954.0, -152097.75, -48085.48, -0.10989829, 0.08275134, -149804.23, -149804.23, 0.0, 9.990333, 10.003601 
2.3758504e+3, 1.3798681e+2, -1079650.4, -1490637.8, -178103.84, -0.068317644, 0.07191929, -1013209.1, 574538.06, 0.43900067, 10.007465, 9.997803 
2.3757556e+3, 1.4798495e+2, -653477.06, -1620851.1, -36268.184, -0.21678492, 0.40622965, -652119.2, 837644.94, 0.29309794, 10.011281, 9.993869 
2.3756687e+3, 1.5797512e+2, -603013.6, -1583340.4, -84604.15, 0.035284802, 0.061759636, -595765.7, 796094.5, 0.16004172, 10.00936, 9.994384 
2.375582e+3, 1.6797023e+2, -410587.56, -1267070.6, -10122.823, 0.012128139, 0.057153255, -410467.94, 883439.56, 0.06661233, 10.008484, 9.996307 
2.3754954e+3, 1.7796735e+2, -350083.66, -1206420.3, -7921.5176, -0.09681647, 0.17321439, -350010.4, 845924.44, 0.018691434, 10.007896, 9.996322 
2.3754114e+3, 1.8796371e+2, -433219.66, -1111405.3, 21522.605, -0.0494653, 0.17168328, -432537.3, 665433.1, 0.002749594, 10.006161, 9.997136 
2.3753281e+3, 1.9796008e+2, -623638.5, -1129196.6, 25683.031, 0.044335008, 0.12425808, -622337.1, 377669.06, 0.00014776259, 10.004061, 9.997354 
2.3752454e+3, 2.0795803e+2, -599705.7, -919118.9, 73989.91, 0.024962988, 0.1447614, -583398.94, 318627.5, 0.00000000012725644, 10.002914, 9.998675 
2.3751625e+3, 2.1795675e+2, -625474.9, -886148.3, 68214.164, -0.030565444, 0.18375902, -608703.4, 195335.5, 0.0, 10.002086, 9.99863 
2.3750806e+3, 2.2795515e+2, -635128.06, -762960.4, 53386.31, -0.025297744, 0.16249597, -615765.3, 90288.8, 0.0, 10.001015, 9.999317 
2.3749985e+3, 2.3795372e+2, -698187.75, -727707.44, 33728.58, -0.0016247391, 0.1175987, -676130.9, -68063.445, 0.0, 9.999844, 9.999451 
2.3749158e+3, 2.4795349e+2, -705961.2, -560709.2, 20246.92, -0.04054886, 0.12708853, -557939.7, -47870.543, 0.0, 9.998603, 10.000522 
2.3748328e+3, 2.5795397e+2, -787665.56, -539662.25, 28598.885, -0.10216927, 0.15300791, -536407.0, -124342.86, 0.0, 9.997327, 10.000609 
2.3747513e+3, 2.679548e+2, -797181.6, -380798.7, 52100.71, -0.09174542, 0.1564688, -374378.5, -60323.32, 0.0, 9.996105, 10.001615 
2.3746699e+3, 2.779559e+2, -879216.9, -383496.94, 60679.17, -0.039343685, 0.13827269, -376177.5, -160134.11, 0.0, 9.99493, 10.00149 
2.3745885e+3, 2.879566e+2, -868358.06, -266705.84, 30539.867, 0.019437192, 0.07461806, -265159.63, -147123.89, 0.0, 9.994071, 10.002032 
2.3745061e+3, 2.9795796e+2, -877712.9, -189488.02, -4557.6943, -0.002131053, 0.032645643, -189457.83, -169435.52, 0.0, 9.993198, 10.002313 
2.3744206e+3, 3.0796197e+2, -1032022.2, -132329.69, -8447.253, -0.24349001, 0.17880374, -132250.38, -132250.38, 0.0, 9.991338, 10.003272 
2.3743409e+3, 3.1796265e+2, -1103132.1, -64051.05, 27034.074, 0.060342282, -0.033104207, -63348.176, -63348.176, 0.0, 9.990417, 10.004179 
2.3858579e+3, 1.3807362e+2, -970137.4, -1540833.5, -140316.95, -0.09981937, 0.08740017, -937503.75, 649393.3, 0.4058921, 10.009085, 9.9963665 
2.385766e+3, 1.4807093e+2, -788629.44, -1738450.4, -156939.98, -0.16755852, 0.38359842, -763369.8, 725552.44, 0.2687188, 10.009784, 9.99382 
2.3856777e+3, 1.5806153e+2, -599462.0, -1609028.8, -87150.72, 0.03786282, 0.08945687, -591993.94, 799019.44, 0.14490962, 10.009366, 9.9942 
2.3855898e+3, 1.6805628e+2, -467219.66, -1336798.1, 16187.245, 0.011993717, 0.08069551, -466918.44, 826146.4, 0.05908553, 10.008194, 9.995951 
2.3855025e+3, 1.7805287e+2, -518645.25, -1319623.8, -2474.2734, -0.086774945, 0.17885046, -518637.6, 676460.56, 0.015946597, 10.006837, 9.996051 
2.3854169e+3, 1.880491e+2, -483622.28, -1144815.1, 23455.623, -0.04981125, 0.17979379, -482791.25, 614343.5, 0.0021459963, 10.005857, 9.997048 
2.3853323e+3, 1.980454e+2, -501639.13, -1085817.3, 49371.313, 0.029030558, 0.13915412, -497495.94, 501674.2, 0.000095227064, 10.004972, 9.997209 
2.3852482e+3, 2.0804301e+2, -506508.97, -903345.4, 100942.09, 0.01479462, 0.15043527, -482308.47, 418885.2, 0.0, 10.003688, 9.998407 
2.3851645e+3, 2.1804136e+2, -613810.6, -903690.7, 78062.71, -0.028498663, 0.17777856, -594125.6, 209084.53, 0.0, 10.002273, 9.998415 
2.385081e+3, 2.2803971e+2, -661130.1, -786107.2, 75054.39, -0.025152825, 0.16808426, -625956.06, 79269.99, 0.0, 10.000889, 9.999215 
2.3849978e+3, 2.3803835e+2, -750143.9, -762015.6, 81396.77, -0.0050094416, 0.140944, -674466.8, -67227.7, 0.0, 9.999535, 9.999361 
2.384914e+3, 2.4803795e+2, -720661.94, -571589.44, 78163.695, -0.034559518, 0.14170405, -538120.06, -28877.568, 0.0, 9.998528, 10.00048 
2.3848301e+3, 2.5803816e+2, -749821.94, -525422.1, 80007.695, -0.08246531, 0.15104185, -499817.63, -88578.016, 0.0, 9.997613, 10.000564 
2.3847471e+3, 2.6803896e+2, -743674.25, -359926.7, 79066.125, -0.08748718, 0.15654004, -344274.56, -31043.506, 0.0, 9.996503, 10.001561 
2.3846646e+3, 2.780401e+2, -830234.6, -363309.75, 62376.883, -0.056382716, 0.14861755, -355120.4, -139901.47, 0.0, 9.995288, 10.001452 
2.384582e+3, 2.8804097e+2, -882596.9, -269693.66, 62007.063, 0.007919352, 0.09982943, -263483.38, -146273.22, 0.0, 9.993966, 10.002058 
2.3844987e+3, 2.9804236e+2, -952411.75, -218443.44, 54616.727, 0.0011603014, 0.06281567, -214401.52, -195205.0, 0.0, 9.992666, 10.002365 
2.3844118e+3, 3.080459e+2, -966892.8, -80334.63, 1910.8989, -0.2358661, 0.15183239, -80330.51, -80330.51, 0.0, 9.991703, 10.0034485 
2.3843311e+3, 3.1804925e+2, -998414.25, 192033.19, 92328.125, 0.07937233, 0.18524675, 199151.38, 199151.38, 0.0, 9.990265, 10.006005 
2.3959553e+3, 1.2816162e+2, -1340310.1, -1885076.8, -11202.425, 0.041400988, -0.012895771, -1340079.8, 343951.6, 0.49964023, 10.007155, 9.995386 
2.3958677e+3, 1.3815846e+2, -989802.56, -1647713.4, -101202.92, 0.00086162, 0.16381595, -974586.94, 611480.75, 0.37974074, 10.008981, 9.995523 
2.3957771e+3, 1.4815457e+2, -684475.44, -1484269.8, -157499.84, -0.005272334, 0.25023362, -654577.4, 833527.25, 0.24862687, 10.009657, 9.99565 
2.3956862e+3, 1.5814938e+2, -535068.25, -1463540.3, -109679.02, -0.00087778515, 0.2063391, -522287.94, 867864.7, 0.13200787, 10.009269, 9.9952545 
2.3955974e+3, 1.6814397e+2, -508297.03, -1428680.4, -33666.77, -0.019326339, 0.18646574, -507067.16, 785139.25, 0.052514568, 10.00814, 9.995351 
2.3955093e+3, 1.7813902e+2, -545761.1, -1377429.3, -44607.695, -0.048812654, 0.1863946, -543375.4, 650881.44, 0.013522272, 10.006819, 9.9956665 
2.3954226e+3, 1.8813519e+2, -473276.6, -1123517.5, -6915.649, -0.037134007, 0.18657559, -473203.06, 623090.1, 0.0016222304, 10.005849, 9.997202 
2.3953365e+3, 1.9813195e+2, -506817.0, -1094600.5, 13193.045, -0.011885536, 0.17721452, -506521.0, 491801.97, 0.00005404306, 10.004958, 9.997159 
2.3952512e+3, 2.0812902e+2, -541557.56, -975828.0, 49172.22, -0.011122997, 0.16845055, -536059.44, 364292.4, 0.0, 10.00368, 9.997917 
2.3951665e+3, 2.1812652e+2, -634502.25, -945274.2, 28294.6, -0.020580932, 0.15929839, -631947.1, 170429.66, 0.0, 10.002261, 9.998139 
2.3950815e+3, 2.2812511e+2, -646014.6, -756001.6, 24845.213, -0.03354381, 0.16747086, -640662.75, 63727.46, 0.0, 10.000889, 9.999426 
2.3949966e+3, 2.3812425e+2, -741629.44, -746886.7, 35816.42, -0.043813884, 0.17483222, -708345.3, -101947.86, 0.0, 9.999538, 9.999467 
2.3949124e+3, 2.4812356e+2, -726187.9, -587044.44, 43131.07, -0.021495298, 0.14667739, -574759.5, -66356.0, 0.0, 9.998536, 10.000373 
2.3948283e+3, 2.5812316e+2, -762103.7, -556405.56, 42348.125, 0.0022751072, 0.105186895, -548028.3, -137621.81, 0.0, 9.997629, 10.000347 
2.3947437e+3, 2.681235e+2, -774529.06, -429008.06, 31504.77, -0.058514997, 0.10495133, -426158.94, -113755.53, 0.0, 9.996518, 10.001082 
2.3946586e+3, 2.7812448e+2, -834855.8, -380259.78, 12144.985, -0.1312289, 0.12458562, -379935.56, -165541.2, 0.0, 9.995314, 10.001327 
2.3945747e+3, 2.8812677e+2, -840659.6, -183250.44, 8397.234, -0.09031169, 0.1828824, -183143.19, -66771.88, 0.0, 9.993961, 10.002658 
2.3944905e+3, 2.9812926e+2, -960228.94, -229937.81, 14197.582, -0.042988185, 0.20395301, -229661.89, -211315.83, 0.0, 9.992639, 10.002303 
2.3944058e+3, 3.081294e+2, -987606.25, -132054.52, -37257.156, 0.038142666, -0.0032345103, -130435.125, -130435.125, 0.0, 9.991733, 10.003084 
2.3943186e+3, 3.181347e+2, -1011903.8, 161519.88, -3687.6953, -0.14093709, 0.22129488, 161531.47, 161531.47, 0.0, 9.9902725, 10.005793 
2.4059604e+3, 1.282519e+2, -1178195.3, -1774180.0, -5131.9634, -0.23236527, 0.4241192, -1178151.0, 504994.66, 0.47717997, 10.009178, 9.995173 
2.4058755e+3, 1.3824454e+2, -1060758.9, -1711221.3, -30209.324, -0.011029334, 0.20567557, -1059358.9, 525864.75, 0.35929686, 10.008007, 9.995505 
2.4057856e+3, 1.4824012e+2, -824389.4, -1497751.1, -110418.06, 0.013036669, 0.1970718, -806745.3, 680520.5, 0.2323267, 10.007901, 9.996369 
2.4056943e+3, 1.5823598e+2, -655905.9, -1476617.4, -116828.18, -0.021752855, 0.19121534, -639599.4, 749703.94, 0.1212143, 10.00799, 9.99578 
2.4056047e+3, 1.682311e+2, -596116.44, -1468770.3, -47545.98, -0.034380507, 0.20161593, -593533.56, 697819.06, 0.04692178, 10.007448, 9.995405 
2.4055156e+3, 1.7822635e+2, -570624.8, -1387607.1, -18670.73, -0.043297067, 0.21851707, -570198.4, 623203.5, 0.011464637, 10.006629, 9.995686 
2.405428e+3, 1.8822227e+2, -502677.13, -1143094.3, 22412.164, -0.036362454, 0.19881159, -501893.72, 593546.75, 0.0011991495, 10.005674, 9.9971485 
2.4053408e+3, 1.9821873e+2, -554225.56, -1122490.6, 24751.809, -0.023793407, 0.16603142, -553149.5, 444323.47, 0.000026399242, 10.004662, 9.997107 
2.4052544e+3, 2.0821582e+2, -583691.94, -1002827.1, 68806.88, -0.021562822, 0.1666415, -572685.3, 326816.25, 0.0, 10.003427, 9.99785 
2.4051684e+3, 2.182134e+2, -657303.1, -959707.0, 74545.71, -0.021757955, 0.17201409, -639925.44, 161600.53, 0.0, 10.002126, 9.998101 
2.405082e+3, 2.2821186e+2, -643035.9, -750343.1, 70866.39, -0.031418197, 0.17192829, -607803.3, 95736.79, 0.0, 10.000898, 9.999456 
2.4049962e+3, 2.3821092e+2, -722600.3, -743935.2, 73149.25, -0.040239327, 0.16829933, -659344.75, -53796.62, 0.0, 9.999703, 9.999404 
2.4049106e+3, 2.4821009e+2, -722783.4, -614467.4, 78223.01, -0.016687721, 0.15029292, -573483.75, -65927.74, 0.0, 9.9986925, 10.000106 
2.4048257e+3, 2.5820956e+2, -764045.2, -577164.5, 62650.563, 0.011639601, 0.12082267, -558105.1, -148543.77, 0.0, 9.997707, 10.000164 
2.4047397e+3, 2.682098e+2, -782786.9, -431214.22, 68421.805, -0.046369508, 0.11585938, -418367.63, -106808.13, 0.0, 9.996463, 10.001091 
2.4046539e+3, 2.782107e+2, -859415.6, -389029.7, 80033.16, -0.118116364, 0.13227117, -375785.47, -162234.73, 0.0, 9.995143, 10.001344 
2.404568e+3, 2.8821316e+2, -828003.6, -173233.14, 49682.797, -0.111133814, 0.2067097, -169484.77, -53958.875, 0.0, 9.99404, 10.002685 
2.4044824e+3, 2.9821563e+2, -915854.7, -217251.8, 21413.271, -0.09524468, 0.2283726, -216596.06, -199095.63, 0.0, 9.992987, 10.002219 
2.4043986e+3, 3.0821523e+2, -917281.25, -113960.38, 6225.741, 0.15104584, -0.015504574, -113912.13, -113912.13, 0.0, 9.99229, 10.002936 
2.4043088e+3, 3.1821853e+2, -942054.4, 3845.8284, -3904.3586, -0.17111707, 0.026046677, 3861.9438, 3861.9438, 0.0, 9.991586, 10.00407 
2.41597e+3, 1.2833403e+2, -1129768.4, -1657599.1, -29621.354, -0.14485858, 0.04195834, -1128111.3, 554230.1, 0.45932105, 10.0091, 9.99615 
2.415882e+3, 1.3833174e+2, -1020415.44, -1633743.6, -44517.74, -0.11775985, 0.24110642, -1017201.0, 567165.56, 0.34274477, 10.00803, 9.996032 
2.4157922e+3, 1.4832716e+2, -816707.44, -1511689.5, -107936.62, -0.07940644, 0.20795166, -800329.9, 686080.7, 0.21885042, 10.007911, 9.996268 
2.4157019e+3, 1.5832168e+2, -643488.2, -1456871.3, -118303.1, -0.03131248, 0.07399769, -626630.9, 761831.5, 0.112138145, 10.007947, 9.995938 
2.4156116e+3, 1.6831785e+2, -559957.06, -1390454.5, -75045.76, -0.03916885, 0.14490023, -553230.2, 737271.44, 0.04219381, 10.007409, 9.995966 
2.4155217e+3, 1.7831469e+2, -551164.8, -1344747.3, -48940.97, -0.067016505, 0.26761454, -548158.0, 644377.3, 0.009757502, 10.006604, 9.995995 
2.4154331e+3, 1.883102e+2, -523139.22, -1181932.4, -13658.8, -0.04697282, 0.21396986, -522856.16, 571722.1, 0.00087614526, 10.00565, 9.996898 
2.4153452e+3, 1.9830576e+2, -563731.1, -1136252.1, -13077.288, -0.014000901, 0.112561055, -563432.6, 433187.72, 0.000010751903, 10.00463, 9.997031 
2.4152574e+3, 2.0830338e+2, -565304.94, -962191.06, 21365.324, -0.020518914, 0.1492468, -564158.1, 334485.56, 0.0, 10.00341, 9.99814 
2.4151699e+3, 2.1830183e+2, -649069.56, -940783.56, 29020.543, -0.037345964, 0.21608965, -646210.5, 154448.63, 0.0, 10.002111, 9.998242 
2.4150828e+3, 2.282999e+2, -653766.9, -774727.56, 26613.47, -0.020912522, 0.18155788, -648170.4, 54506.574, 0.0, 10.0009, 9.999291 
2.4149959e+3, 2.382982e+2, -740406.8, -783301.2, 31650.518, 0.0025668528, 0.120862246, -723621.3, -118928.945, 0.0, 9.999707, 9.999135 
2.414909e+3, 2.4829747e+2, -753289.75, -681063.44, 40223.434, -0.024064196, 0.15339161, -663120.3, -156419.28, 0.0, 9.9987, 9.999647 
2.4148223e+3, 2.5829732e+2, -772484.94, -598881.94, 20141.195, -0.066059425, 0.20423116, -596575.8, -187871.08, 0.0, 9.997719, 10.000012 
2.4147359e+3, 2.682978e+2, -746641.3, -358512.94, 16313.679, -0.052083515, 0.19528559, -357828.44, -47129.113, 0.0, 9.996465, 10.001594 
2.4146497e+3, 2.782988e+2, -851407.4, -374229.4, 33773.582, -0.010999656, 0.17351183, -371850.84, -159163.03, 0.0, 9.995143, 10.001449 
2.4145626e+3, 2.8829992e+2, -872063.2, -267526.84, 9011.449, -0.046257645, 0.15805024, -267392.53, -152716.94, 0.0, 9.994046, 10.002037 
2.4144746e+3, 2.983012e+2, -917243.3, -230190.36, -15114.391, -0.15493916, 0.113682255, -229858.02, -213195.22, 0.0, 9.993024, 10.002116 
2.4143894e+3, 3.083039e+2, -904118.25, -95402.05, -16108.607, 0.042892445, 0.15761109, -95081.31, -95081.31, 0.0, 9.992321, 10.003052 
2.4143013e+3, 3.1830662e+2, -1010444.6, -157697.94, 3787.1624, -0.07978628, 0.18899736, -157681.13, -157681.13, 0.0, 9.991663, 10.002928 
2.4259792e+3, 1.284214e+2, -1088266.3, -1626547.0, 8111.9497, -0.096496694, 0.015036923, -1088144.1, 593341.6, 0.44386327, 10.0092745, 9.996435 
2.4258897e+3, 1.384192e+2, -950220.7, -1578354.6, -16739.303, -0.14992563, 0.19867499, -949774.9, 633732.7, 0.32844192, 10.008562, 9.996157 
2.4257994e+3, 1.4841478e+2, -813083.4, -1516213.4, -69723.01, -0.12200622, 0.18450987, -806236.25, 679314.3, 0.2072165, 10.007873, 9.996233 
2.4257088e+3, 1.5840967e+2, -722736.25, -1486803.0, -74581.91, -0.057111662, 0.089018025, -715524.25, 672075.94, 0.10432615, 10.007227, 9.996068 
2.4256182e+3, 1.6840594e+2, -623933.4, -1377897.8, -44555.33, -0.042465802, 0.13862818, -621309.5, 668328.56, 0.038168617, 10.006737, 9.996372 
2.4255279e+3, 1.784028e+2, -584793.75, -1327669.8, -31938.096, -0.050067153, 0.22816497, -583423.2, 608247.3, 0.008354866, 10.006227, 9.99629 
2.4254382e+3, 1.8839872e+2, -587284.7, -1208753.4, 2994.8213, -0.04722929, 0.20148122, -587270.25, 506440.13, 0.00063942675, 10.005196, 9.996929 
2.4253489e+3, 1.9839466e+2, -650810.8, -1170385.5, 18322.762, -0.036177464, 0.13818467, -650165.44, 345584.06, 0.0000034980844, 10.004001, 9.997097 
2.4252602e+3, 2.0839222e+2, -635223.06, -981889.9, 45547.457, -0.025636364, 0.1594412, -629338.56, 268434.75, 0.0, 10.002875, 9.99826 
2.4251716e+3, 2.1839051e+2, -695704.56, -959659.25, 42100.277, -0.016844261, 0.20152837, -689152.3, 110637.59, 0.0, 10.001783, 9.998266 
2.4250835e+3, 2.2838855e+2, -671171.3, -804157.25, 40326.133, -0.008518629, 0.17765358, -659898.5, 41910.0, 0.0, 10.000879, 9.999096 
2.4249952e+3, 2.3838681e+2, -705728.9, -778812.8, 43672.41, 0.0015297917, 0.13310555, -685327.06, -81502.055, 0.0, 10.000005, 9.99902 
2.4249072e+3, 2.483861e+2, -740475.2, -671000.1, 78876.49, -0.032018717, 0.16908693, -619550.7, -113716.93, 0.0, 9.998779, 9.999675 
2.4248193e+3, 2.58386e+2, -807293.4, -610586.2, 90285.36, -0.077310756, 0.22328603, -575429.94, -167592.95, 0.0, 9.997467, 10.00005 
2.424732e+3, 2.683865e+2, -744636.1, -353124.8, 65980.19, -0.047432523, 0.21782234, -342304.4, -32473.61, 0.0, 9.996467, 10.001625 
2.4246448e+3, 2.7838743e+2, -802899.1, -359280.47, 49726.305, 0.0164729, 0.18998408, -353774.84, -141955.28, 0.0, 9.995517, 10.001369 
2.4245566e+3, 2.8838804e+2, -819596.75, -272312.38, 44805.395, -0.029013935, 0.14470337, -268668.47, -154855.83, 0.0, 9.994542, 10.001762 
2.4244674e+3, 2.98389e+2, -842947.4, -206152.9, 46730.68, -0.1587355, 0.0981481, -202741.88, -186938.78, 0.0, 9.993594, 10.002001 
2.4243814e+3, 3.0839238e+2, -866399.7, -94963.18, 25850.924, 0.011110642, 0.21908873, -94097.88, -94097.88, 0.0, 9.992663, 10.002886 
2.4242923e+3, 3.1839398e+2, -1012564.7, -105486.734, 43095.438, -0.09154773, 0.17335986, -103443.87, -103443.87, 0.0, 9.9914255, 10.003398 
2.4359883e+3, 1.2851253e+2, -1077327.8, -1641513.9, -7431.65, -0.087805234, 0.23408483, -1077229.9, 603363.1, 0.42913985, 10.009322, 9.99621 
2.4358979e+3, 1.3850681e+2, -947426.94, -1604338.4, -34224.277, -0.13399309, 0.08895424, -945648.7, 636998.5, 0.31516454, 10.008547, 9.995977 
2.4358067e+3, 1.4850289e+2, -805621.1, -1520050.5, -89634.03, -0.13304181, 0.13149096, -794547.06, 690139.25, 0.19667234, 10.00786, 9.9962225 
2.435715e+3, 1.5849946e+2, -713547.44, -1476704.6, -90622.76, -0.098691754, 0.20444462, -702933.8, 683787.2, 0.0974056, 10.0072155, 9.996148 
2.4356245e+3, 1.684951e+2, -607304.0, -1341524.4, -58668.703, -0.04696484, 0.17161782, -602645.56, 686118.44, 0.034696646, 10.006705, 9.99664 
2.4355341e+3, 1.7849083e+2, -572335.3, -1292374.4, -54621.953, -0.0052529997, 0.11932742, -568215.3, 622590.8, 0.00720394, 10.006174, 9.996561 
2.4354428e+3, 1.8848778e+2, -574018.6, -1176368.5, -39656.465, -0.042129416, 0.16944052, -571419.06, 521417.78, 0.0004702633, 10.005168, 9.997169 
2.4353518e+3, 1.984852e+2, -641836.2, -1150664.8, -22145.158, -0.08996212, 0.23284936, -640874.2, 353988.53, 0.0000008550184, 10.00399, 9.997241 
2.4352625e+3, 2.0848215e+2, -638422.56, -990368.44, 5396.199, -0.036938485, 0.19213907, -638339.8, 258552.4, 0.0, 10.002876, 9.998204 
2.4351735e+3, 2.1847934e+2, -704409.9, -978361.6, 6364.673, 0.033899512, 0.13005692, -704262.1, 94657.08, 0.0, 10.00178, 9.998143 
2.435084e+3, 2.2847773e+2, -687669.94, -840727.4, 9609.941, 0.0028654176, 0.16191843, -687068.94, 13866.674, 0.0, 10.000883, 9.998846 
2.4349944e+3, 2.384767e+2, -704620.7, -778015.6, 6195.079, -0.050356485, 0.2092858, -704101.44, -101154.7, 0.0, 10.000005, 9.999028 
2.4349055e+3, 2.4847586e+2, -703924.56, -597451.56, 27023.492, -0.041462604, 0.19763988, -590985.5, -86030.61, 0.0, 9.998782, 10.000182 
2.4348171e+3, 2.584754e+2, -794013.44, -585840.3, 45095.77, -0.021576684, 0.1724478, -576491.25, -169532.36, 0.0, 9.997473, 10.00022 
2.4347283e+3, 2.6847574e+2, -779355.0, -428165.72, 29485.463, -0.03540406, 0.1774999, -425707.34, -116752.25, 0.0, 9.996473, 10.00111 
2.4346393e+3, 2.7847648e+2, -818883.9, -400114.4, 12167.949, -0.048835296, 0.17949441, -399761.13, -188813.97, 0.0, 9.995543, 10.0010805 
2.4345502e+3, 2.884775e+2, -808616.8, -258257.05, 6713.975, -0.06928682, 0.17610818, -258175.16, -145238.3, 0.0, 9.994572, 10.001848 
2.434461e+3, 2.9847923e+2, -851707.06, -233234.42, 12603.463, -0.11589006, 0.20076175, -232977.7, -218057.63, 0.0, 9.993626, 10.001803 
2.4343745e+3, 3.084802e+2, -897544.8, -164481.11, -15792.268, 0.10240314, 0.12743783, -164141.06, -164141.06, 0.0, 9.992679, 10.002404 
2.4342829e+3, 3.1848225e+2, -965339.56, -10659.907, -85271.69, -0.12289742, 0.1347497, -3103.2803, -3103.2803, 0.0, 9.991421, 10.004061 
2.4459977e+3, 1.2860243e+2, -996232.6, -1634198.3, 6831.219, -0.08522498, 0.217378, -996159.5, 683551.8, 0.41407508, 10.010269, 9.995824 
2.4459063e+3, 1.3859667e+2, -938637.0, -1629176.4, -15903.59, -0.12956403, 0.10255609, -938270.9, 643495.94, 0.30213952, 10.008614, 9.995769 
2.445814e+3, 1.4859264e+2, -803520.9, -1504880.5, -49620.266, -0.13884673, 0.13496539, -800027.75, 683779.44, 0.18672906, 10.007743, 9.996365 
2.4457216e+3, 1.5858926e+2, -711498.2, -1457693.1, -41066.625, -0.116447344, 0.20116667, -709244.94, 676596.44, 0.09111051, 10.007117, 9.996317 
2.4456304e+3, 1.6858509e+2, -652622.3, -1337197.1, -9242.495, -0.0597921, 0.1680225, -652497.56, 635384.4, 0.031653468, 10.006252, 9.996885 
2.4455395e+3, 1.7858101e+2, -676397.75, -1315823.0, -8864.313, -0.0073892204, 0.111105524, -676274.9, 513646.8, 0.00625292, 10.005335, 9.996803 
2.4454474e+3, 1.8857811e+2, -640861.6, -1183371.5, -217.43617, -0.04179015, 0.15692955, -640861.56, 451089.16, 0.00035054577, 10.004605, 9.997388 
2.4453555e+3, 1.9857576e+2, -645597.3, -1135967.4, 13355.13, -0.09061515, 0.22218108, -645233.9, 348740.94, 0.00000014402332, 10.003903, 9.997379 
2.4452649e+3, 2.0857278e+2, -634201.56, -995055.8, 36395.582, -0.04850556, 0.19068666, -630567.4, 265436.53, 0.0, 10.002943, 9.9981365 
2.4451748e+3, 2.1856993e+2, -690319.4, -976839.0, 37499.066, 0.014385886, 0.13433199, -685492.94, 112538.52, 0.0, 10.001904, 9.998092 
2.4450842e+3, 2.2856836e+2, -699703.25, -848897.5, 55440.94, -0.0071235993, 0.17371193, -681357.2, 18691.12, 0.0, 10.000817, 9.998818 
2.4449939e+3, 2.3856738e+2, -745453.56, -793023.5, 62383.254, -0.046646122, 0.23082294, -702474.8, -100415.29, 0.0, 9.999713, 9.999062 
2.444904e+3, 2.4856648e+2, -720542.0, -592621.5, 57781.734, -0.028198045, 0.20686427, -570386.4, -66318.914, 0.0, 9.998619, 10.000291 
2.4448144e+3, 2.5856587e+2, -787105.2, -582967.3, 51409.23, 0.0017266653, 0.1615424, -570751.6, -164680.0, 0.0, 9.997527, 10.000212 
2.4447243e+3, 2.6856604e+2, -778372.2, -456137.44, 52339.453, -0.030543666, 0.1650736, -447849.3, -139779.25, 0.0, 9.996608, 10.000851 
2.4446343e+3, 2.7856657e+2, -803817.6, -406877.13, 49589.848, -0.06648449, 0.17094016, -400775.63, -190710.67, 0.0, 9.995715, 10.000946 
2.4445444e+3, 2.885677e+2, -798963.0, -247229.08, 41333.97, -0.071465015, 0.17938787, -244149.67, -132096.06, 0.0, 9.994616, 10.0019 
2.4444543e+3, 2.9856956e+2, -889416.6, -260207.97, 46448.523, -0.09315565, 0.2198526, -256797.61, -242762.56, 0.0, 9.993405, 10.001725 
2.4443667e+3, 3.085702e+2, -940471.0, -192380.69, 47756.246, 0.10934856, 0.12641752, -189344.38, -189344.38, 0.0, 9.99242, 10.002336 
2.4442741e+3, 3.1857425e+2, -901107.6, 30444.188, -32312.156, -0.12005308, 0.32463384, 31563.635, 31563.635, 0.0, 9.991832, 10.004138 
2.4560076e+3, 1.2869163e+2, -1002720.94, -1672084.9, -30040.258, -0.09557209, 0.041332822, -1001375.5, 677460.06, 0.39819974, 10.010178, 9.995417 
2.4559143e+3, 1.3868839e+2, -939865.75, -1662917.1, -47145.934, -0.14321208, 0.21265398, -936804.6, 644064.94, 0.28898937, 10.008583, 9.995559 
2.4558213e+3, 1.4868377e+2, -784268.56, -1479583.1, -63446.297, -0.14788665, 0.18332632, -778526.6, 704388.5, 0.17710604, 10.007743, 9.996546 
2.4557282e+3, 1.5867917e+2, -695403.5, -1431535.8, -61013.066, -0.1209762, 0.10820116, -690380.8, 694579.44, 0.085256435, 10.007112, 9.996504 
2.455636e+3, 1.6867582e+2, -638300.7, -1310345.1, -39867.703, -0.082695484, 0.13708006, -635943.94, 651048.8, 0.028937554, 10.006246, 9.997077 
2.4555439e+3, 1.7867294e+2, -663867.8, -1289646.6, -36291.29, -0.0499693, 0.1831403, -661770.2, 527250.5, 0.005455885, 10.005325, 9.99699 
2.4554516e+3, 1.8866955e+2, -627786.9, -1156692.4, -23872.06, -0.045482367, 0.15774174, -626711.6, 464342.4, 0.00026567487, 10.0046, 9.997578 
2.4553594e+3, 1.9866632e+2, -641078.75, -1124033.8, -14472.825, -0.04921012, 0.12066263, -640645.44, 352440.22, 0.00000001256012, 10.003886, 9.997474 
2.4552673e+3, 2.0866404e+2, -642661.3, -1011251.8, -977.78644, -0.063937984, 0.16208954, -642658.7, 252450.02, 0.0, 10.002931, 9.998034 
2.4551755e+3, 2.1866219e+2, -693599.3, -980195.44, 1085.2572, -0.07648834, 0.21367921, -693595.2, 103532.57, 0.0, 10.001883, 9.998081 
2.4550845e+3, 2.286603e+2, -688883.8, -827642.5, 15684.675, -0.037938967, 0.21150824, -687133.0, 12014.768, 0.0, 10.000815, 9.998968 
2.4549937e+3, 2.3865873e+2, -744699.8, -794846.3, 21215.932, 0.009490305, 0.1952382, -736928.25, -135763.47, 0.0, 9.999721, 9.999049 
2.4549025e+3, 2.4865785e+2, -742155.5, -640395.75, 14133.756, 0.0054168664, 0.19649191, -638469.1, -135296.53, 0.0, 9.998625, 9.999964 
2.4548113e+3, 2.5865743e+2, -800338.75, -613606.56, 11143.858, -0.01602362, 0.19804178, -612943.8, -207768.27, 0.0, 9.997534, 10.000002 
2.4547204e+3, 2.6865733e+2, -777341.06, -457260.2, 17101.477, -0.034796413, 0.18330635, -456349.1, -149172.64, 0.0, 9.996615, 10.000842 
2.4546298e+3, 2.7865753e+2, -800440.1, -404176.06, 12700.635, -0.037366267, 0.15989575, -403769.4, -194595.4, 0.0, 9.995727, 10.000962 
2.4545391e+3, 2.886585e+2, -796446.6, -243100.89, -5991.257, -0.02948479, 0.14868534, -243036.03, -131872.33, 0.0, 9.994613, 10.001933 
2.4544474e+3, 2.986601e+2, -882969.6, -246003.36, 2485.3354, -0.08148111, 0.15821414, -245993.66, -232846.53, 0.0, 9.993394, 10.001832 
2.4543571e+3, 3.0866256e+2, -916221.1, -142110.14, 21120.338, -0.030182738, 0.21801043, -141534.33, -141534.33, 0.0, 9.992412, 10.002688 
2.4542657e+3, 3.1866467e+2, -911185.5, 6853.2466, -17750.465, -0.10813112, 0.19773638, 7196.327, 7196.327, 0.0, 9.99185, 10.003963 
2.4660172e+3, 1.2878439e+2, -1015816.0, -1681924.0, -5045.986, -0.09191658, 0.08112953, -1015777.75, 662150.2, 0.38149357, 10.009764, 9.995524 
2.4659225e+3, 1.3878079e+2, -909209.56, -1645530.3, 5599.314, -0.13981397, 0.21150804, -909166.94, 670797.8, 0.27558976, 10.00874, 9.995593 
2.4658288e+3, 1.4877616e+2, -765723.3, -1484193.3, 2659.7344, -0.12711434, 0.18786848, -765713.5, 716297.1, 0.16763626, 10.007884, 9.996436 
2.4657354e+3, 1.5877154e+2, -694487.44, -1432015.1, -5884.5586, -0.08140201, 0.12271639, -694440.5, 689615.25, 0.07969994, 10.007087, 9.996508 
2.4656418e+3, 1.6876829e+2, -634089.0, -1285525.8, 10529.474, -0.07615354, 0.14877921, -633918.9, 652168.25, 0.026461698, 10.006171, 9.997279 
2.4655484e+3, 1.7876554e+2, -668608.0, -1279191.1, 17495.248, -0.08452659, 0.19194281, -668107.1, 520006.22, 0.004773758, 10.005244, 9.997096 
2.4654555e+3, 1.8876207e+2, -656907.56, -1179346.8, 20362.818, -0.059782904, 0.16468677, -656115.06, 434032.44, 0.00020466818, 10.004444, 9.997494 
2.4653628e+3, 1.987587e+2, -673959.06, -1136932.9, 7094.4653, -0.028758263, 0.12180764, -673850.4, 318330.44, 0.00000000021894557, 10.003648, 9.9974985 
2.4652696e+3, 2.0875646e+2, -687704.0, -1009422.7, 23530.15, -0.0561884, 0.15249264, -685992.1, 208211.02, 0.0, 10.002525, 9.998239 
2.4651766e+3, 2.1875472e+2, -760243.75, -992620.6, 45726.242, -0.091187544, 0.1973254, -751569.7, 44650.82, 0.0, 10.00135, 9.998248 
2.4650848e+3, 2.28753e+2, -732529.9, -843076.2, 64400.645, -0.04077846, 0.20651789, -702935.1, -4696.2627, 0.0, 10.0005, 9.999011 
2.4649931e+3, 2.3875155e+2, -745662.3, -795832.56, 63957.03, 0.028654728, 0.20110917, -702046.94, -101792.086, 0.0, 9.9997225, 9.999039 
2.4649009e+3, 2.4875054e+2, -713880.5, -639744.9, 66664.29, 0.012103881, 0.19846374, -600535.9, -98271.8, 0.0, 9.998881, 9.999841 
2.4648085e+3, 2.587499e+2, -744710.3, -600684.75, 74615.484, -0.028675145, 0.19494282, -568999.4, -164730.34, 0.0, 9.997983, 9.999869 
2.4647167e+3, 2.6874974e+2, -761712.44, -466380.8, 71793.35, -0.04141991, 0.19169235, -449853.2, -143582.17, 0.0, 9.996799, 10.000689 
2.4646252e+3, 2.7874997e+2, -830974.8, -428867.63, 56680.87, -0.024786374, 0.18242472, -421030.66, -212761.25, 0.0, 9.995563, 10.000872 
2.4645337e+3, 2.8875065e+2, -765047.75, -224954.03, 35149.496, -0.0007938128, 0.1472842, -222676.1, -112414.73, 0.0, 9.994821, 10.001955 
2.4644409e+3, 2.9875186e+2, -771882.9, -179376.48, 33214.035, -0.06291986, 0.11649683, -177520.42, -165272.53, 0.0, 9.994109, 10.001939 
2.4643488e+3, 3.0875537e+2, -874032.1, -107968.58, 42580.477, -0.08446648, 0.27047166, -105609.08, -105609.08, 0.0, 9.992652, 10.002802 
2.4642576e+3, 3.187561e+2, -991364.1, -63147.742, 4019.385, -0.045652322, 0.112560704, -63130.34, -63130.34, 0.0, 9.99144, 10.003678 
2.4760264e+3, 1.288797e+2, -987377.2, -1645637.3, -28479.736, -0.086935006, 0.26197088, -986147.3, 690849.94, 0.3640856, 10.00967, 9.995935 
2.4759309e+3, 1.3887382e+2, -891984.9, -1629057.9, -21028.1, -0.13186267, 0.12829933, -891385.44, 687668.4, 0.26189658, 10.008721, 9.995717 
2.4758367e+3, 1.4886956e+2, -778245.9, -1534798.5, -21970.37, -0.08859143, 0.16232616, -777608.4, 703487.5, 0.15819268, 10.007872, 9.9961 
2.4757427e+3, 1.5886587e+2, -703295.1, -1454770.9, -31513.408, -0.010954401, 0.22068235, -701975.9, 681156.6, 0.074319206, 10.007053, 9.996371 
2.475648e+3, 1.6886218e+2, -621787.5, -1259517.0, -20928.824, -0.04924936, 0.19344094, -621101.4, 664066.25, 0.024151336, 10.006148, 9.997477 
2.475553e+3, 1.7885873e+2, -670074.1, -1280587.9, -12829.115, -0.11714724, 0.151494, -669804.7, 517395.4, 0.0041750735, 10.005228, 9.997098 
2.4754593e+3, 1.8885559e+2, -682711.8, -1231278.6, -5500.5474, -0.0853035, 0.17907853, -682656.6, 406575.6, 0.00015968645, 10.00443, 9.997148 
2.475366e+3, 1.988527e+2, -680628.2, -1146384.0, -23204.61, -0.030211745, 0.21232274, -679474.94, 311787.16, 0.00000000023303823, 10.003623, 9.997449 
2.475272e+3, 2.0884988e+2, -656271.25, -945104.94, -19350.193, -0.028058778, 0.15708755, -654980.7, 238307.75, 0.0, 10.002523, 9.998685 
2.475178e+3, 2.1884744e+2, -741134.9, -955075.25, 9194.094, -0.038946666, 0.090963215, -740740.5, 54570.11, 0.0, 10.001352, 9.998508 
2.475085e+3, 2.288464e+2, -735340.25, -852173.94, 36254.215, -0.020062018, 0.16301519, -725004.7, -27682.229, 0.0, 10.000507, 9.998948 
2.4749921e+3, 2.3884584e+2, -745998.6, -798741.06, 34171.1, 0.0050495276, 0.25276795, -729206.2, -129875.97, 0.0, 9.999725, 9.999021 
2.4748991e+3, 2.4884449e+2, -708221.56, -631662.06, 33162.473, -0.01018705, 0.21240139, -619295.1, -117952.6, 0.0, 9.998891, 9.999894 
2.4748059e+3, 2.5884327e+2, -747629.1, -613692.3, 36044.945, -0.040551294, 0.14691243, -604608.1, -201255.17, 0.0, 9.998006, 9.999773 
2.4747129e+3, 2.688433e+2, -784340.2, -516501.97, 21619.727, -0.052500024, 0.19028604, -514768.06, -209413.77, 0.0, 9.996805, 10.000345 
2.4746203e+3, 2.7884388e+2, -846997.7, -463559.16, 17551.73, -0.033707142, 0.24988872, -462757.4, -255406.8, 0.0, 9.995562, 10.000637 
2.4745281e+3, 2.8884408e+2, -767284.9, -234951.31, 10463.557, 0.0070870733, 0.17833243, -234745.72, -125398.66, 0.0, 9.994837, 10.001883 
2.4744348e+3, 2.9884458e+2, -760880.6, -169333.69, -8276.817, -0.050746936, 0.08145183, -169217.9, -157878.03, 0.0, 9.994158, 10.001988 
2.4743418e+3, 3.088488e+2, -882337.3, -123403.54, -22469.168, -0.004113389, 0.30198526, -122738.89, -122738.89, 0.0, 9.99264, 10.002705 
2.4742487e+3, 3.1884927e+2, -995328.6, -85238.375, 419.82364, -0.03427249, 0.14283612, -85238.18, -85238.18, 0.0, 9.991464, 10.003533 
2.4860357e+3, 1.2897442e+2, -1010536.44, -1684317.9, -1792.0902, -0.06634241, 0.2841253, -1010531.7, 665538.5, 0.3460147, 10.009324, 9.995718 
2.4859394e+3, 1.3896827e+2, -861861.7, -1621881.0, -18171.666, -0.11480078, 0.14422883, -861427.44, 716702.5, 0.24783923, 10.008891, 9.995685 
2.485844e+3, 1.4896403e+2, -764284.56, -1499591.5, -5656.8755, -0.08195113, 0.16276637, -764241.0, 715929.75, 0.14866051, 10.007794, 9.996372 
2.485749e+3, 1.5896046e+2, -751754.6, -1469435.6, 17059.264, -0.012482179, 0.21065435, -751349.3, 630855.7, 0.069015846, 10.00662, 9.996474 
2.4856536e+3, 1.6895679e+2, -676832.8, -1303270.8, 23753.938, -0.042418733, 0.19449909, -675933.4, 608307.3, 0.021949835, 10.005827, 9.997323 
2.4855578e+3, 1.7895332e+2, -687537.5, -1288607.3, 12253.033, -0.10063922, 0.16440812, -687287.8, 498986.5, 0.0036369613, 10.005106, 9.997101 
2.4854632e+3, 1.8895026e+2, -710610.3, -1215822.4, 44198.1, -0.07946742, 0.18500306, -706772.8, 381532.34, 0.00012529656, 10.00412, 9.997399 
2.4853688e+3, 1.9894749e+2, -744204.3, -1156910.4, 60651.063, -0.035662737, 0.2102451, -735475.7, 254857.39, 0.00000000017417703, 10.003112, 9.997617 
2.4852742e+3, 2.0894484e+2, -666528.4, -950179.4, 49017.668, -0.019816171, 0.16930915, -658296.56, 234061.53, 0.0, 10.002461, 9.998676 
2.4851795e+3, 2.1894252e+2, -670187.44, -923136.8, 47115.88, -0.012530418, 0.11683482, -661696.4, 132683.27, 0.0, 10.001855, 9.998484 
2.4850853e+3, 2.2894119e+2, -689644.06, -834438.56, 66170.46, -0.017580096, 0.16638541, -663960.25, 32433.62, 0.0, 10.000846, 9.998903 
2.4849913e+3, 2.3894033e+2, -741487.8, -792811.44, 65128.926, -0.021654468, 0.2310382, -697147.44, -98743.445, 0.0, 9.999748, 9.999046 
2.4848975e+3, 2.4893907e+2, -714071.25, -622917.3, 70101.96, -0.024699297, 0.19432797, -584878.8, -84463.68, 0.0, 9.998807, 9.999992 
2.4848035e+3, 2.58938e+2, -761853.06, -614424.7, 73398.08, -0.031710975, 0.13763213, -584114.56, -181690.63, 0.0, 9.997889, 9.999821 
2.4847095e+3, 2.6893812e+2, -765765.9, -510588.4, 72926.23, -0.041828066, 0.18969482, -491217.56, -186792.95, 0.0, 9.996953, 10.000311 
2.4846157e+3, 2.7893865e+2, -797383.06, -454087.13, 91365.94, -0.029496245, 0.2569535, -431285.22, -224864.23, 0.0, 9.995973, 10.0005 
2.4845225e+3, 2.889386e+2, -783330.44, -276338.53, 80126.71, 0.0018613548, 0.18609203, -263976.47, -155555.66, 0.0, 9.994879, 10.0015745 
2.4844284e+3, 2.989388e+2, -825912.06, -225470.22, 37310.066, -0.047854155, 0.09144357, -223160.73, -212743.52, 0.0, 9.993821, 10.001764 
2.4843343e+3, 3.089427e+2, -789691.2, -83529.78, 1575.7437, -0.011112801, 0.29473034, -83526.266, -83526.266, 0.0, 9.993306, 10.002652 
2.48424e+3, 3.189419e+2, -836832.5, -29590.031, 63482.03, -0.06820726, 0.020644194, -24628.264, -24628.264, 0.0, 9.992653, 10.003336 
2.4960446e+3, 1.2906897e+2, -1024248.56, -1775612.3, -12893.531, -0.042301685, 0.20872517, -1024027.4, 651116.44, 0.32723692, 10.009278, 9.995113 
2.495948e+3, 1.39064e+2, -864004.75, -1643161.4, -34919.246, -0.09846718, 0.23508763, -862442.9, 714751.94, 0.23335387, 10.008791, 9.99559 
2.495851e+3, 1.4905944e+2, -721567.06, -1417635.1, -41764.19, -0.10429708, 0.1811378, -719070.1, 760166.4, 0.13897328, 10.007749, 9.997028 
2.4957547e+3, 1.5905534e+2, -732876.0, -1437353.9, -17043.523, -0.07236549, 0.11777657, -732463.94, 648809.5, 0.06373889, 10.006622, 9.996697 
2.4956587e+3, 1.6905202e+2, -706928.5, -1370434.1, 388.241, -0.051653657, 0.16315164, -706928.3, 576378.8, 0.019828228, 10.005823, 9.996867 
2.495563e+3, 1.7904909e+2, -690009.5, -1290575.8, -14833.033, -0.04671774, 0.22179031, -689643.4, 495694.38, 0.0031462028, 10.005084, 9.997101 
2.495467e+3, 1.8904594e+2, -660517.94, -1111059.4, 7173.5576, -0.0499811, 0.18279374, -660403.75, 426964.03, 0.000097880744, 10.004109, 9.998127 
2.4953714e+3, 1.9904304e+2, -724287.94, -1115843.5, 30053.115, -0.048732966, 0.12992032, -721994.7, 267400.06, 0.00000000005180779, 10.003105, 9.997906 
2.4952762e+3, 2.0904121e+2, -696315.56, -1012933.3, 28879.797, -0.030804344, 0.19262303, -693702.9, 197710.7, 0.0, 10.002459, 9.99825 
2.4951807e+3, 2.1903974e+2, -692241.06, -967533.0, 20935.35, -0.01504733, 0.26513162, -690658.1, 102771.36, 0.0, 10.001842, 9.998188 
2.4950854e+3, 2.2903721e+2, -695066.44, -846583.94, 26043.92, -0.034470413, 0.2105139, -690714.8, 4739.686, 0.0, 10.000843, 9.998824 
2.4949902e+3, 2.3903488e+2, -739493.8, -791884.2, 26471.998, -0.055828974, 0.13429889, -728447.2, -130969.72, 0.0, 9.999755, 9.999053 
2.4948958e+3, 2.4903421e+2, -703307.2, -603787.2, 33505.21, -0.032781266, 0.14575014, -593558.4, -94075.47, 0.0, 9.998815, 10.000123 
2.4948013e+3, 2.5903416e+2, -746552.0, -585759.94, 37389.73, -0.0059471577, 0.17281123, -577490.8, -176008.6, 0.0, 9.997895, 10.000018 
2.4947064e+3, 2.6903412e+2, -744240.0, -469447.78, 36333.348, -0.0091873035, 0.18815726, -464724.9, -161242.66, 0.0, 9.996962, 10.000593 
2.4946113e+3, 2.7903426e+2, -797871.6, -462539.03, 53299.78, -0.011770816, 0.19356097, -454271.1, -248790.25, 0.0, 9.995997, 10.000433 
2.4945168e+3, 2.8903422e+2, -824802.56, -364303.38, 37068.24, -0.02128758, 0.16723953, -361338.63, -253856.13, 0.0, 9.994879, 10.000974 
2.4944215e+3, 2.9903466e+2, -868918.6, -312397.47, 9169.414, -0.074506775, 0.1535458, -312246.44, -302767.22, 0.0, 9.993805, 10.001179 
2.4943262e+3, 3.090369e+2, -801129.2, -121162.5, -16966.168, -0.119034916, 0.23616327, -120739.44, -120739.44, 0.0, 9.99336, 10.002371 
2.4942331e+3, 3.1903818e+2, -880603.06, -147887.55, 21178.049, 0.028316166, 0.20225357, -147275.94, -147275.94, 0.0, 9.992764, 10.002472 
2.5060537e+3, 1.2916468e+2, -992243.94, -1708809.0, -6261.561, -0.012825605, 0.19508211, -992189.25, 682018.06, 0.30776787, 10.009152, 9.995632 
2.5059557e+3, 1.3916068e+2, -922737.9, -1648704.9, 14180.776, -0.101951376, 0.27323464, -922460.94, 653786.9, 0.21846324, 10.007986, 9.995935 
2.5058582e+3, 1.4915612e+2, -764775.06, -1433386.9, -148.84747, -0.11690801, 0.20476902, -764775.0, 713514.5, 0.12914455, 10.007305, 9.9971075 
2.5057608e+3, 1.5915179e+2, -710634.94, -1417946.8, -1293.6665, -0.08763092, 0.11293059, -710632.56, 669696.0, 0.058489185, 10.0067215, 9.9967785 
2.505664e+3, 1.6914855e+2, -713316.4, -1364384.6, 35683.324, -0.05031526, 0.15797658, -711366.5, 570995.2, 0.017781008, 10.005735, 9.996947 
2.5055677e+3, 1.7914574e+2, -737108.3, -1296523.5, 48846.344, -0.02485407, 0.22301634, -732875.25, 451515.8, 0.0026965262, 10.004694, 9.997242 
2.5054708e+3, 1.8914275e+2, -677314.2, -1093983.0, 50272.426, -0.03214127, 0.18378787, -671334.5, 415084.34, 0.00007522789, 10.003893, 9.998344 
2.5053743e+3, 1.9914001e+2, -712305.25, -1096570.5, 44927.27, -0.040497895, 0.12886953, -707122.4, 281321.34, 0.0000000000010010511, 10.003134, 9.998022 
2.5052777e+3, 2.0913817e+2, -731679.75, -1033655.56, 61158.46, -0.034170914, 0.18833323, -719763.7, 170699.58, 0.0, 10.002238, 9.998211 
2.5051817e+3, 2.1913663e+2, -764523.56, -996181.75, 74163.49, -0.025994625, 0.2605641, -742815.0, 49665.145, 0.0, 10.0013275, 9.998235 
2.5050858e+3, 2.2913429e+2, -730527.25, -847936.5, 94147.3, -0.033747382, 0.21323943, -678281.7, 16221.536, 0.0, 10.000539, 9.998959 
2.5049898e+3, 2.3913208e+2, -738791.5, -790466.6, 109769.96, -0.040934492, 0.14188571, -651859.25, -55334.805, 0.0, 9.999763, 9.999055 
2.5048944e+3, 2.4913126e+2, -699623.6, -623908.6, 99560.91, -0.026986225, 0.15572876, -555250.56, -56718.547, 0.0, 9.998941, 9.99992 
2.5047988e+3, 2.59131e+2, -721945.9, -577406.1, 76251.62, -0.009614295, 0.18539566, -544617.75, -144084.05, 0.0, 9.998086, 9.999981 
2.504703e+3, 2.6913086e+2, -699017.8, -428000.5, 62268.473, -0.008343534, 0.17760596, -414378.5, -111844.44, 0.0, 9.997193, 10.000763 
2.504607e+3, 2.7913088e+2, -755365.94, -439081.94, 69975.67, -0.005329794, 0.15778615, -424291.9, -219759.25, 0.0, 9.996283, 10.000454 
2.5045112e+3, 2.8913102e+2, -774551.75, -364219.63, 74369.79, -0.035064016, 0.1662158, -351156.5, -244623.31, 0.0, 9.995334, 10.000752 
2.504415e+3, 2.9913163e+2, -805530.6, -315167.7, 82535.14, -0.101345405, 0.19513975, -301648.56, -293119.16, 0.0, 9.99439, 10.000874 
2.5043195e+3, 3.091328e+2, -768129.9, -146579.17, 75192.84, -0.08727882, 0.21266358, -137612.0, -137612.0, 0.0, 9.993767, 10.001998 
2.5042257e+3, 3.191349e+2, -960215.44, -183661.95, 61282.457, 0.06252731, 0.27961823, -178855.55, -178855.55, 0.0, 9.992216, 10.002487 
2.516063e+3, 1.2926134e+2, -919141.75, -1572987.0, -34206.594, 0.0067294943, 0.21970133, -917357.06, 755905.1, 0.287756, 10.009064, 9.9968815 
2.515963e+3, 1.392582e+2, -883251.1, -1569708.4, -12470.658, -0.12175594, 0.27405083, -883024.7, 692266.3, 0.20329595, 10.007937, 9.99651 
2.5158647e+3, 1.4925389e+2, -784061.1, -1483314.0, -16528.494, -0.12297404, 0.23600818, -783670.7, 693661.2, 0.11925648, 10.007259, 9.996746 
2.5157672e+3, 1.5924959e+2, -716654.5, -1425717.4, -24896.52, -0.07278008, 0.17679566, -715781.4, 663591.1, 0.05330176, 10.006656, 9.99676 
2.5156695e+3, 1.6924617e+2, -684763.25, -1299111.6, -1484.7816, -0.04435683, 0.17190114, -684759.7, 596646.44, 0.015815135, 10.005697, 9.997416 
2.5155717e+3, 1.7924318e+2, -724481.2, -1269171.5, 15509.362, -0.03202469, 0.17842658, -724039.94, 459395.53, 0.0022852607, 10.004682, 9.997439 
2.5154743e+3, 1.892406e+2, -694754.9, -1128986.4, 23764.432, -0.024670398, 0.18893424, -693458.2, 392001.72, 0.000056201214, 10.0038805, 9.998114 
2.5153768e+3, 1.9923827e+2, -718254.56, -1105021.5, 16860.217, -0.017773202, 0.19407587, -717520.94, 269960.7, 0.0, 10.003111, 9.997978 
2.5152797e+3, 2.0923561e+2, -713338.56, -996015.75, 27961.105, -0.032917004, 0.15530424, -710599.3, 178908.75, 0.0, 10.0022335, 9.998474 
2.5151825e+3, 2.1923324e+2, -743311.1, -953130.8, 44037.242, -0.048496176, 0.116512746, -734443.3, 57088.355, 0.0, 10.001325, 9.998534 
2.515086e+3, 2.2923236e+2, -705798.5, -798976.06, 66064.55, -0.016594287, 0.18278177, -671547.7, 21992.781, 0.0, 10.000543, 9.999296 
2.5149894e+3, 2.3923184e+2, -740159.9, -796567.44, 80229.62, 0.018277938, 0.25444934, -683321.06, -87775.39, 0.0, 9.99977, 9.999013 
2.5148928e+3, 2.4923013e+2, -739391.0, -709961.44, 66698.27, -0.009683776, 0.22279316, -656374.06, -158810.81, 0.0, 9.99895, 9.999329 
2.5147963e+3, 2.592286e+2, -742922.3, -625796.25, 42206.164, -0.049139354, 0.17246063, -612172.1, -212592.66, 0.0, 9.998099, 9.999645 
2.5146994e+3, 2.6922825e+2, -696189.7, -425943.34, 26031.95, -0.04506701, 0.15735075, -423458.63, -121877.53, 0.0, 9.997203, 10.000775 
2.5146028e+3, 2.7922845e+2, -744833.1, -421900.53, 33874.258, -0.021905273, 0.15101415, -418385.53, -214808.16, 0.0, 9.996296, 10.000569 
2.514506e+3, 2.8922907e+2, -756388.8, -333046.72, 37985.41, -0.03743592, 0.18946214, -329665.4, -224092.84, 0.0, 9.995355, 10.00096 
2.5144088e+3, 2.9923e+2, -796091.1, -306329.72, 55555.39, -0.10481271, 0.23389353, -300106.94, -292541.8, 0.0, 9.99443, 10.000918 
2.5143147e+3, 3.092305e+2, -785460.06, -190262.7, 56299.246, 0.084981345, 0.1978104, -184984.22, -184984.22, 0.0, 9.9937935, 10.001688 
2.5142157e+3, 3.1923085e+2, -881303.8, 6421.943, -74414.695, -0.12425822, 0.09405726, 12616.618, 12616.618, 0.0, 9.992109, 10.0038395 
2.5260708e+3, 1.2935968e+2, -925699.7, -1576375.5, 20744.66, -0.0065572737, 0.2173672, -925038.94, 747258.9, 0.26743323, 10.008759, 9.996966 
2.5259706e+3, 1.3935624e+2, -905262.9, -1583507.6, 5564.0156, -0.10238692, 0.2359862, -905217.25, 669112.0, 0.18802945, 10.007612, 9.996561 
2.5258717e+3, 1.4935218e+2, -852936.7, -1523977.8, 18526.031, -0.103645906, 0.22384045, -852425.6, 623942.9, 0.109415114, 10.006674, 9.996742 
2.525773e+3, 1.5934823e+2, -822858.5, -1472643.8, 26647.695, -0.060928002, 0.20051427, -821767.5, 556639.5, 0.048221774, 10.005833, 9.99683 
2.5256744e+3, 1.6934492e+2, -743672.0, -1308497.6, 38698.15, -0.045127794, 0.19384564, -741033.0, 539406.3, 0.013941349, 10.005199, 9.997587 
2.525576e+3, 1.7934197e+2, -732679.25, -1260237.8, 37162.992, -0.04213806, 0.18936062, -730074.25, 452393.6, 0.001911451, 10.004575, 9.997549 
2.5254774e+3, 1.8933932e+2, -739240.44, -1149813.8, 51057.71, -0.022411281, 0.19319049, -732986.3, 351506.4, 0.000040390707, 10.00358, 9.998111 
2.5253797e+3, 1.9933695e+2, -791906.3, -1131656.0, 60043.71, -0.0008676206, 0.1939218, -781607.06, 204908.1, 0.0, 10.002575, 9.998049 
2.5252816e+3, 2.0933439e+2, -731322.44, -986200.9, 73538.73, -0.023039646, 0.15485555, -711626.7, 176913.5, 0.0, 10.002038, 9.9986315 
2.5251833e+3, 2.1933214e+2, -700940.3, -915150.3, 77155.73, -0.047924016, 0.114045784, -676043.44, 114518.82, 0.0, 10.001548, 9.998685 
2.5250858e+3, 2.2933128e+2, -682960.75, -773552.4, 79623.61, -0.01927064, 0.17089921, -636650.7, 55919.56, 0.0, 10.000646, 9.999417 
2.5249887e+3, 2.3933083e+2, -749576.6, -792951.75, 83739.84, 0.016937008, 0.23820342, -684761.5, -90187.0, 0.0, 9.999678, 9.999079 
2.5248915e+3, 2.4932921e+2, -747225.94, -718203.06, 105058.71, -0.006550532, 0.21831705, -626658.3, -130066.625, 0.0, 9.998923, 9.999282 
2.5247937e+3, 2.5932768e+2, -737189.9, -631611.9, 113159.28, -0.043130923, 0.17877373, -559534.1, -160925.86, 0.0, 9.998184, 9.999559 
2.524696e+3, 2.6932725e+2, -694083.06, -441587.88, 88992.1, -0.050710306, 0.16747624, -413374.94, -112763.44, 0.0, 9.997297, 10.000618 
2.5245985e+3, 2.7932733e+2, -735328.4, -419346.9, 82952.88, -0.03542059, 0.16420764, -398893.66, -196284.42, 0.0, 9.996377, 10.000543 
2.524501e+3, 2.893279e+2, -702692.0, -290874.9, 80548.41, -0.026459608, 0.18923017, -275680.8, -171076.48, 0.0, 9.995661, 10.001098 
2.5244033e+3, 2.993287e+2, -721914.56, -253848.47, 89475.65, -0.06819114, 0.21109504, -237327.4, -230730.28, 0.0, 9.994876, 10.001058 
2.5243077e+3, 3.093293e+2, -858972.44, -218846.92, 102463.984, 0.082276866, 0.18057932, -202845.64, -202845.64, 0.0, 9.99327, 10.001739 
2.5242066e+3, 3.1933132e+2, -827583.94, 149840.75, -94847.664, -0.16876732, 0.22291616, 158959.55, 158959.55, 0.0, 9.991979, 10.004885 
2.536079e+3, 1.294593e+2, -953167.06, -1656077.6, -13081.43, -0.04786122, 0.19989601, -952923.7, 718395.25, 0.24706715, 10.008656, 9.9962635 
2.5359783e+3, 1.3945478e+2, -911599.25, -1628024.0, -23301.1, -0.05949608, 0.17117666, -910842.25, 662520.06, 0.17284918, 10.007596, 9.996266 
2.5358778e+3, 1.49451e+2, -830170.25, -1492500.8, -8720.736, -0.06984356, 0.18049642, -830055.44, 645344.1, 0.09972877, 10.006689, 9.996955 
2.5357783e+3, 1.5944761e+2, -812822.0, -1459692.6, 1645.6243, -0.055048995, 0.19420882, -812817.8, 564615.44, 0.043297615, 10.005838, 9.99692 
2.535679e+3, 1.6944462e+2, -749416.3, -1321677.8, 19583.336, -0.05274822, 0.22356273, -748746.94, 530715.8, 0.012172976, 10.005189, 9.997505 
2.5355798e+3, 1.794419e+2, -735000.9, -1260010.9, 10359.908, -0.05734664, 0.24616279, -734796.5, 446693.03, 0.0015758267, 10.004545, 9.997567 
2.535481e+3, 1.8943883e+2, -729366.8, -1128843.1, 13206.142, -0.02614101, 0.19550134, -728930.75, 354587.5, 0.000027796832, 10.0035715, 9.998262 
2.535382e+3, 1.9943604e+2, -782949.8, -1115168.9, 32743.113, 0.007919364, 0.14011364, -779753.44, 205790.8, 0.0, 10.002578, 9.998164 
2.5352833e+3, 2.0943442e+2, -726673.25, -979069.94, 58275.418, -0.006272801, 0.1883839, -713867.8, 173692.73, 0.0, 10.002042, 9.998682 
2.5351846e+3, 2.1943311e+2, -703036.44, -919927.6, 53741.156, -0.030575728, 0.23929024, -690450.8, 99123.13, 0.0, 10.001543, 9.998657 
2.535086e+3, 2.2943091e+2, -691335.3, -792620.4, 43287.457, -0.043922927, 0.17046362, -675356.0, 16238.009, 0.0, 10.000647, 9.999289 
2.5349873e+3, 2.3942894e+2, -738508.0, -772173.7, 51159.31, -0.04821094, 0.09316858, -701483.44, -107871.73, 0.0, 9.9996805, 9.999224 
2.5348896e+3, 2.4942844e+2, -710825.94, -645273.3, 76765.336, -0.017838249, 0.14371629, -594579.9, -98962.27, 0.0, 9.998928, 9.999783 
2.534792e+3, 2.5942835e+2, -725805.5, -612075.4, 82482.2, 0.006698577, 0.20755391, -568755.9, -171136.11, 0.0, 9.998196, 9.999692 
2.5346932e+3, 2.6942787e+2, -719771.44, -497766.25, 53184.254, -0.022906832, 0.212565, -485682.94, -186058.03, 0.0, 9.997303, 10.000234 
2.5345945e+3, 2.7942753e+2, -748924.1, -452026.44, 52101.227, -0.043417163, 0.20266813, -443148.88, -241520.84, 0.0, 9.996389, 10.000317 
2.5344965e+3, 2.8942728e+2, -700057.0, -290625.53, 52991.18, -0.003778862, 0.15422267, -283878.28, -180248.14, 0.0, 9.995677, 10.001095 
2.534398e+3, 2.994273e+2, -702451.0, -219478.81, 43909.01, -0.014823128, 0.092487134, -215519.31, -209889.95, 0.0, 9.994895, 10.001288 
2.5342983e+3, 3.0942976e+2, -832261.1, -152147.97, 32814.93, -0.11318416, 0.20507431, -150568.34, -150568.34, 0.0, 9.993215, 10.002227 
2.5341994e+3, 3.1943262e+2, -808826.94, 159902.7, -131299.77, -0.04642272, 0.29267734, 177383.39, 177383.39, 0.0, 9.992057, 10.00494 
2.5460863e+3, 1.2955968e+2, -997573.44, -1691830.6, -2639.312, -0.07877274, 0.20287831, -997563.4, 672771.94, 0.22691703, 10.00809, 9.99626 
2.545985e+3, 1.3955514e+2, -896269.1, -1624354.8, 14110.491, -0.084906116, 0.17519349, -895995.8, 676383.1, 0.1579242, 10.007618, 9.996278 
2.5458843e+3, 1.4955138e+2, -809244.9, -1483029.4, 25157.35, -0.06659018, 0.18651183, -808306.9, 666109.4, 0.09029348, 10.006796, 9.996964 
2.5457838e+3, 1.59548e+2, -793410.75, -1441787.5, 28251.373, -0.02544614, 0.2016508, -792182.06, 584267.6, 0.038572494, 10.005923, 9.996998 
2.5456837e+3, 1.6954498e+2, -768100.25, -1315130.4, 57997.758, -0.040507507, 0.21726838, -762018.75, 516460.13, 0.0105223525, 10.004991, 9.997643 
2.5455835e+3, 1.7954221e+2, -796009.9, -1278899.3, 58734.426, -0.06695177, 0.226656, -788968.6, 391536.7, 0.001279586, 10.004085, 9.997657 
2.5454837e+3, 1.8953924e+2, -750087.75, -1135179.5, 55959.96, -0.03262117, 0.18210071, -742120.75, 340412.75, 0.000018403278, 10.003421, 9.998287 
2.5453842e+3, 1.9953656e+2, -748460.3, -1091660.4, 70359.35, 0.010963076, 0.13629432, -734596.06, 249962.83, 0.0, 10.002792, 9.998219 
2.5452846e+3, 2.0953509e+2, -726873.8, -970699.5, 98888.61, 0.0029208972, 0.19469504, -691809.94, 194763.7, 0.0, 10.002012, 9.998751 
2.5451857e+3, 2.1953392e+2, -750548.25, -939896.0, 90185.5, -0.016545232, 0.2545721, -714468.3, 74117.31, 0.0, 10.001212, 9.998676 
2.5450858e+3, 2.2953153e+2, -721470.0, -813999.2, 79228.67, -0.03965842, 0.17302166, -675987.2, 14620.554, 0.0, 10.000477, 9.99922 
2.5449866e+3, 2.3952931e+2, -728464.8, -761507.2, 90269.02, -0.05387464, 0.0778552, -653217.56, -60589.62, 0.0, 9.999732, 9.999268 
2.5448883e+3, 2.4952894e+2, -701693.94, -619913.0, 97627.414, -0.015158602, 0.12854914, -554958.56, -60326.406, 0.0, 9.998908, 9.999963 
2.54479e+3, 2.5952908e+2, -737292.06, -606731.25, 82160.11, 0.022819715, 0.20001763, -567074.44, -170442.73, 0.0, 9.998077, 9.999782 
2.54469e+3, 2.6952866e+2, -702647.9, -494009.13, 71372.914, -0.01461648, 0.21422304, -471929.8, -173293.39, 0.0, 9.997447, 10.000186 
2.5445905e+3, 2.7952832e+2, -697724.0, -429278.5, 88582.266, -0.04549783, 0.20883098, -402682.8, -202042.67, 0.0, 9.9967575, 10.000291 
2.5444916e+3, 2.8952786e+2, -733252.56, -305372.22, 88042.58, -0.004417625, 0.14415245, -287964.4, -185320.63, 0.0, 9.99545, 10.001099 
2.5443923e+3, 2.9952785e+2, -810274.94, -257440.88, 72309.78, -0.011758982, 0.07547629, -248139.38, -243496.19, 0.0, 9.9941, 10.001409 
2.5442907e+3, 3.0953097e+2, -762335.5, -77471.34, 40266.598, -0.15420055, 0.22773142, -75112.0, -75112.0, 0.0, 9.993528, 10.002583 
2.5441918e+3, 3.1953064e+2, -733005.5, 92444.89, -79001.45, 0.031022118, -0.019028775, 99937.875, 99937.875, 0.0, 9.993046, 10.003988 
2.5560936e+3, 1.2966074e+2, -963402.25, -1636428.6, -13884.031, -0.11220131, 0.22420561, -963115.94, 706230.44, 0.2071929, 10.008008, 9.996736 
2.5559914e+3, 1.3965693e+2, -882662.9, -1603592.4, -4797.674, -0.16257648, 0.22802861, -882630.94, 688751.4, 0.14339082, 10.0075445, 9.996457 
2.5558904e+3, 1.4965299e+2, -817000.7, -1510588.8, -3374.0308, -0.08721945, 0.22778182, -816984.25, 656436.94, 0.081185855, 10.006765, 9.996795 
2.5557896e+3, 1.5964925e+2, -788508.75, -1436345.3, -1518.3856, 0.01922871, 0.21863057, -788505.25, 586952.6, 0.034080725, 10.005912, 9.997044 
2.5556886e+3, 1.6964594e+2, -747937.3, -1275079.8, 25106.186, -0.015422325, 0.18249357, -746744.3, 530744.06, 0.008998928, 10.004988, 9.997922 
2.555587e+3, 1.7964296e+2, -788018.94, -1264060.3, 30289.69, -0.07508707, 0.14765322, -786099.4, 393415.97, 0.0010228797, 10.004086, 9.997761 
2.5554863e+3, 1.8964049e+2, -755327.25, -1149887.8, 33777.926, -0.04262777, 0.15819155, -752456.44, 329083.06, 0.000011845724, 10.003431, 9.998186 
2.555386e+3, 1.9963834e+2, -749214.2, -1095692.3, 45572.824, 0.0051542623, 0.17330305, -743320.2, 240240.66, 0.0, 10.002797, 9.998192 
2.5552863e+3, 2.0963632e+2, -722475.4, -963718.8, 69206.22, 0.0041462667, 0.17355914, -704032.0, 181548.28, 0.0, 10.002015, 9.9988 
2.5551865e+3, 2.1963456e+2, -749499.5, -937728.7, 62781.28, -0.0077451584, 0.17079142, -730481.25, 57115.96, 0.0, 10.001205, 9.998697 
2.5550863e+3, 2.2963312e+2, -722851.1, -818543.94, 52597.656, -0.0079912795, 0.18451247, -699593.44, -9981.817, 0.0, 10.000478, 9.999191 
2.5549865e+3, 2.3963188e+2, -733520.5, -775237.44, 61163.508, -0.0053538675, 0.19243713, -689756.6, -98132.73, 0.0, 9.99974, 9.999173 
2.5548866e+3, 2.4963063e+2, -713604.25, -647503.2, 63944.02, -0.00063385785, 0.17086649, -608573.3, -114936.9, 0.0, 9.998913, 9.999775 
2.554787e+3, 2.596297e+2, -733307.75, -601537.5, 52592.355, -0.0016554634, 0.14975414, -583120.75, -187475.08, 0.0, 9.998084, 9.999818 
2.554687e+3, 2.6962954e+2, -679249.8, -448855.78, 47159.773, -0.030282779, 0.16684225, -439576.3, -141929.06, 0.0, 9.997456, 10.000495 
2.5545865e+3, 2.7962968e+2, -681120.7, -401105.66, 51091.945, -0.05015409, 0.18035616, -392074.6, -192428.73, 0.0, 9.996778, 10.000479 
2.5544864e+3, 2.8962982e+2, -735580.75, -307403.3, 32159.123, -0.03318493, 0.17010309, -305001.4, -203357.31, 0.0, 9.995431, 10.001099 
2.5543854e+3, 2.996306e+2, -822160.9, -270487.1, 36818.55, -0.054571368, 0.18422966, -268040.7, -264404.47, 0.0, 9.994043, 10.001349 
2.5542852e+3, 3.096326e+2, -767297.25, -93866.11, 21336.643, -0.022511976, 0.23137327, -93190.766, -93190.766, 0.0, 9.993547, 10.002465 
2.5541848e+3, 3.1963143e+2, -812164.56, -90063.65, -31121.69, 0.04879197, -0.05995896, -88724.83, -88724.83, 0.0, 9.9931345, 10.002687 
2.566101e+3, 1.2976275e+2, -996206.0, -1651296.1, 22919.527, -0.102630384, 0.24612914, -995405.1, 672941.4, 0.18806207, 10.007537, 9.996832 
2.5659984e+3, 1.397587e+2, -929897.7, -1623380.8, 14042.439, -0.13368107, 0.2172661, -929613.44, 640771.4, 0.12935911, 10.00703, 9.996569 
2.5658965e+3, 1.4975487e+2, -850239.44, -1517930.1, 22863.342, -0.08339656, 0.21809658, -849457.5, 622964.9, 0.072468005, 10.006422, 9.996907 
2.565795e+3, 1.597513e+2, -795213.3, -1426814.3, 34904.805, -0.0030428946, 0.21448365, -793290.2, 581166.9, 0.02984981, 10.005791, 9.997166 
2.565693e+3, 1.6974801e+2, -744303.7, -1260714.1, 51971.473, -0.01880154, 0.17157878, -739125.25, 537361.7, 0.007608943, 10.004956, 9.998034 
2.5655907e+3, 1.7974502e+2, -783516.44, -1262547.6, 52123.484, -0.05582505, 0.12940928, -777910.44, 400603.28, 0.00080406014, 10.004125, 9.997749 
2.5654894e+3, 1.8974255e+2, -757833.06, -1168367.8, 56255.02, -0.03736243, 0.15318874, -750264.06, 330274.44, 0.000007464854, 10.003495, 9.998025 
2.5653884e+3, 1.9974038e+2, -737993.8, -1088537.1, 59790.496, -0.006296332, 0.18070865, -728076.2, 254484.38, 0.0, 10.002872, 9.998201 
2.565288e+3, 2.0973822e+2, -709424.94, -936050.7, 84805.28, 0.0016582813, 0.15166703, -681204.25, 203376.42, 0.0, 10.00202, 9.998984 
2.5651872e+3, 2.1973632e+2, -751197.3, -926016.94, 87177.914, 0.0034370844, 0.12023698, -715154.9, 71443.086, 0.0, 10.001147, 9.998802 
2.5650865e+3, 2.2973523e+2, -733987.8, -822305.94, 83562.34, 0.004344093, 0.16850318, -683633.94, 4975.6196, 0.0, 10.000402, 9.999199 
2.5649855e+3, 2.397344e+2, -747997.2, -786887.44, 93380.36, 0.007385535, 0.21745908, -672058.9, -81439.76, 0.0, 9.999669, 9.999123 
2.5648853e+3, 2.4973287e+2, -727178.56, -668515.8, 98052.49, 0.004763091, 0.1810194, -595501.56, -102866.984, 0.0, 9.998891, 9.999637 
2.5647846e+3, 2.5973156e+2, -733243.25, -599384.75, 89146.87, -0.0044957655, 0.13558859, -554838.94, -160191.45, 0.0, 9.998083, 9.999829 
2.564684e+3, 2.6973155e+2, -702513.8, -439750.8, 76640.234, -0.036513448, 0.15286006, -419030.94, -122383.43, 0.0, 9.997216, 10.0006695 
2.5645828e+3, 2.7973184e+2, -734363.8, -417206.34, 65250.547, -0.053741954, 0.17140254, -404306.66, -205662.77, 0.0, 9.996378, 10.000557 
2.5644818e+3, 2.8973204e+2, -656532.5, -272270.8, 37828.758, -0.03034356, 0.1643326, -268582.16, -167940.02, 0.0, 9.995995, 10.001064 
2.56438e+3, 2.997329e+2, -620886.94, -190164.5, 35976.43, -0.043824527, 0.19062337, -187180.22, -184546.17, 0.0, 9.995506, 10.001191 
2.5642788e+3, 3.097347e+2, -741009.7, -125038.234, 4677.9517, 0.020727389, 0.25514704, -125002.71, -125002.71, 0.0, 9.99392, 10.00207 
2.5641775e+3, 3.197357e+2, -796949.2, -63224.53, 50942.543, 0.050766308, 0.22148843, -59704.477, -59704.477, 0.0, 9.99316, 10.002856 
2.5761083e+3, 1.2986551e+2, -992322.0, -1669598.9, 9839.692, -0.06871479, 0.26348844, -992179.06, 675159.4, 0.16969384, 10.007514, 9.996689 
2.5760058e+3, 1.3986066e+2, -920900.25, -1618763.6, -688.393, -0.03649337, 0.16465284, -920899.56, 648485.44, 0.1159406, 10.006998, 9.996617 
2.5759026e+3, 1.4985713e+2, -827785.06, -1477623.9, 4146.839, -0.068290226, 0.17560092, -827758.56, 643660.4, 0.0642025, 10.006402, 9.997197 
2.5757995e+3, 1.5985407e+2, -786357.0, -1408447.5, 10555.396, -0.07760877, 0.19636744, -786177.94, 587270.56, 0.025906188, 10.005765, 9.997308 
2.575697e+3, 1.6985105e+2, -748698.2, -1268222.9, 21459.438, -0.04369475, 0.179248, -747813.25, 527662.94, 0.0063568153, 10.004937, 9.997993 
2.5755948e+3, 1.7984822e+2, -794145.25, -1282635.9, 26248.107, -0.017909087, 0.15815097, -792738.9, 384763.28, 0.00062051625, 10.00411, 9.997622 
2.5754926e+3, 1.8984535e+2, -774916.7, -1203828.4, 36473.895, -0.021761622, 0.1624507, -771837.1, 307694.16, 0.0000046197197, 10.003489, 9.997787 
2.5753906e+3, 1.9984274e+2, -737778.2, -1087281.6, 35881.844, -0.024492905, 0.16463625, -734132.44, 247425.27, 0.0, 10.002864, 9.998218 
2.5752893e+3, 2.0984074e+2, -690367.75, -896903.56, 52989.95, -0.0050521884, 0.13160712, -677565.9, 206009.14, 0.0, 10.002016, 9.999258 
2.575188e+3, 2.1983908e+2, -740643.75, -904407.6, 58291.3, 0.011286044, 0.09827881, -722014.3, 63574.64, 0.0, 10.0011425, 9.998956 
2.575086e+3, 2.2983782e+2, -731663.0, -819989.8, 57051.05, -0.0038655244, 0.12265306, -703679.1, -16076.641, 0.0, 10.000406, 9.999216 
2.5749847e+3, 2.3983677e+2, -749844.1, -792542.5, 65002.62, -0.01832694, 0.15217483, -702774.56, -113160.35, 0.0, 9.999671, 9.999086 
2.5748834e+3, 2.498356e+2, -734418.94, -684829.44, 66868.7, -0.00027019723, 0.16066077, -638306.56, -146679.5, 0.0, 9.998892, 9.999527 
2.5747824e+3, 2.598347e+2, -734417.2, -605130.25, 56781.69, 0.010173162, 0.16332583, -583733.4, -190096.36, 0.0, 9.998091, 9.999789 
2.5746804e+3, 2.698346e+2, -703584.56, -442397.97, 41033.51, -0.032629, 0.17591883, -436103.13, -140465.72, 0.0, 9.9972105, 10.000659 
2.5745785e+3, 2.7983475e+2, -740026.9, -427775.34, 41431.117, -0.058283377, 0.17892861, -422371.56, -224736.25, 0.0, 9.9963665, 10.000494 
2.5744775e+3, 2.8983426e+2, -659827.6, -288515.56, 25671.637, 0.0062203435, 0.1154802, -286749.1, -187109.08, 0.0, 9.996029, 10.000939 
2.5743756e+3, 2.998343e+2, -626447.6, -226684.92, -4576.9526, 0.017502574, 0.08082733, -226632.52, -224993.08, 0.0, 9.995607, 10.0008955 
2.574272e+3, 3.098373e+2, -770587.44, -195328.55, -67653.55, -0.039632026, 0.30523485, -187479.23, -187479.23, 0.0, 9.993951, 10.001577 
2.5741702e+3, 3.1983754e+2, -744513.1, 37100.617, 111626.26, 0.044650752, 0.2130738, 52730.004, 52730.004, 0.0, 9.993183, 10.003543 
2.586115e+3, 1.2996846e+2, -941511.3, -1655783.6, 42442.08, -0.095956035, 0.20027742, -938998.25, 727328.6, 0.15225671, 10.007828, 9.996649 
2.5860128e+3, 1.3996425e+2, -929431.44, -1617943.4, 38355.832, 0.013615303, 0.16787761, -927301.3, 641067.1, 0.10325152, 10.006818, 9.99671 
2.5859085e+3, 1.4996074e+2, -851795.5, -1469124.9, 46119.203, -0.045422874, 0.16373062, -848369.06, 622032.9, 0.05645399, 10.006093, 9.997402 
2.5858045e+3, 1.599576e+2, -826977.7, -1421004.4, 44592.063, -0.091061436, 0.16240363, -823648.94, 548782.8, 0.022274528, 10.005433, 9.997378 
2.585701e+3, 1.6995472e+2, -796013.44, -1300364.5, 49076.43, -0.046629205, 0.16505188, -791282.4, 483176.7, 0.0052449107, 10.004652, 9.997909 
2.5855985e+3, 1.7995201e+2, -825869.9, -1293699.8, 58094.69, -0.005252637, 0.16488215, -818763.7, 357721.0, 0.00046946981, 10.00388, 9.997655 
2.5854954e+3, 1.8994905e+2, -796301.94, -1196475.5, 93362.7, -0.018902997, 0.14945702, -775591.75, 302922.22, 0.0000028007903, 10.003273, 9.997939 
2.585393e+3, 1.9994634e+2, -763406.94, -1093247.3, 105256.734, -0.0328741, 0.1314008, -732680.4, 247860.14, 0.0, 10.002666, 9.998269 
2.5852907e+3, 2.099445e+2, -724581.5, -921169.56, 99612.77, -0.012347733, 0.12071646, -682931.2, 199625.69, 0.0, 10.0018215, 9.999182 
2.5851884e+3, 2.1994297e+2, -768478.9, -922384.06, 86781.125, 0.009163723, 0.11000645, -729445.8, 55124.36, 0.0, 10.000979, 9.998907 
2.5850862e+3, 2.2994141e+2, -735169.6, -824746.56, 83452.5, 0.0015847818, 0.10983644, -685246.3, 1340.3059, 0.0, 10.000404, 9.999181 
2.584984e+3, 2.399401e+2, -719777.44, -769090.56, 87686.45, -0.00743645, 0.11509521, -653346.9, -64746.035, 0.0, 9.9998455, 9.99916 
2.584882e+3, 2.4993935e+2, -687796.2, -641944.9, 105059.375, -0.00264164, 0.15015347, -557338.9, -66729.086, 0.0, 9.99913, 9.999703 
2.5847802e+3, 2.5993884e+2, -694262.75, -584954.5, 109490.8, -0.0005083508, 0.18222006, -517235.0, -124619.2, 0.0, 9.998371, 9.999788 
2.5846776e+3, 2.6993844e+2, -656874.7, -442933.34, 80429.484, -0.022831596, 0.18345313, -416069.7, -121450.266, 0.0, 9.997639, 10.000444 
2.5845748e+3, 2.7993825e+2, -677511.3, -405151.34, 69621.7, -0.026979936, 0.17265418, -388386.3, -191765.39, 0.0, 9.996835, 10.00042 
2.584473e+3, 2.8993785e+2, -703908.44, -304094.53, 66047.97, 0.016159363, 0.11614408, -293466.16, -194841.27, 0.0, 9.9957075, 10.000984 
2.5843698e+3, 2.9993787e+2, -767835.9, -308127.44, 44925.383, 0.0005356948, 0.07619189, -303778.22, -303153.22, 0.0, 9.994698, 10.000773 
2.5842658e+3, 3.0994025e+2, -649379.1, -165590.6, -4083.5266, -0.0063883327, 0.26769716, -165556.13, -165556.13, 0.0, 9.994914, 10.001313 
2.5841627e+3, 3.1993935e+2, -713516.5, 295.68353, 128033.42, 0.0026223855, 0.0819295, 22565.693, 22565.693, 0.0, 9.993632, 10.003066 
2.5961217e+3, 1.300718e+2, -934725.6, -1655682.8, 7694.344, -0.17253758, 0.093184516, -934643.56, 730666.94, 0.13587196, 10.007758, 9.996677 
2.596019e+3, 1.4006911e+2, -923098.6, -1609725.1, 8175.3765, 0.02669246, 0.20766693, -923001.3, 644337.56, 0.09138783, 10.006759, 9.996795 
2.5959143e+3, 1.5006536e+2, -841652.75, -1454487.8, 23232.262, -0.01783988, 0.16956066, -840773.3, 628600.94, 0.0492798, 10.00607, 9.997521 
2.5958097e+3, 1.6006179e+2, -826475.25, -1422694.1, 19679.703, -0.06375238, 0.116235904, -825826.4, 545581.5, 0.018975832, 10.005423, 9.9973755 
2.5957057e+3, 1.7005898e+2, -804845.25, -1321376.5, 20524.457, -0.03638406, 0.13518277, -804031.0, 469404.9, 0.0042735757, 10.004653, 9.9977665 
2.5956017e+3, 1.8005642e+2, -814956.7, -1273495.0, 33906.37, -0.014251175, 0.15607461, -812463.06, 362998.22, 0.00034796182, 10.003884, 9.997794 
2.595498e+3, 1.900536e+2, -765440.75, -1134074.4, 72337.695, -0.02749192, 0.11905084, -751753.94, 325733.5, 0.0000016193491, 10.003274, 9.99837 
2.5953948e+3, 2.0005105e+2, -762487.9, -1090080.0, 77995.18, -0.03809586, 0.08235183, -744866.2, 234644.78, 0.0, 10.002655, 9.998299 
2.5952917e+3, 2.1004938e+2, -751843.44, -980227.7, 66434.21, -0.022047937, 0.11795745, -733924.44, 147603.23, 0.0, 10.001826, 9.998777 
2.5951886e+3, 2.2004794e+2, -785894.44, -960858.7, 61727.973, -0.003101, 0.1528327, -766308.94, 17233.43, 0.0, 10.000984, 9.998645 
2.595086e+3, 2.3004599e+2, -742948.25, -842552.94, 64343.543, 0.01990788, 0.12986863, -711385.0, -25822.43, 0.0, 10.000407, 9.99906 
2.5949836e+3, 2.4004434e+2, -706731.56, -744563.7, 63889.88, 0.03431138, 0.10628881, -659016.3, -71436.664, 0.0, 9.999851, 9.99933 
2.5948808e+3, 2.5004405e+2, -655055.9, -577079.25, 75835.16, -0.0046129054, 0.1484195, -530797.06, -41213.91, 0.0, 9.999137, 10.00015 
2.5947773e+3, 2.6004395e+2, -692967.56, -586520.0, 80932.79, -0.042581413, 0.18965836, -542878.44, -151294.11, 0.0, 9.9983835, 9.999775 
2.5946748e+3, 2.7004302e+2, -687895.06, -511064.7, 51577.297, -0.0087448545, 0.17356898, -497120.4, -203526.31, 0.0, 9.99765, 9.999973 
2.5945717e+3, 2.8004238e+2, -680942.44, -418374.6, 31971.842, 0.03571214, 0.1543919, -414537.56, -218936.42, 0.0, 9.996855, 10.000322 
2.5944677e+3, 2.9004297e+2, -689818.5, -270672.3, 18644.693, -0.005618976, 0.18204173, -269844.6, -172249.27, 0.0, 9.995683, 10.00123 
2.594363e+3, 3.0004373e+2, -768784.1, -297473.13, 32347.941, -0.09710367, 0.19717744, -295263.3, -295263.3, 0.0, 9.994637, 10.000879 
2.5942615e+3, 3.100433e+2, -644069.9, -172259.44, 20070.94, 0.11229885, 0.1061699, -171407.16, -171407.16, 0.0, 9.994983, 10.001238 
2.594155e+3, 3.2004458e+2, -797175.5, -171824.86, -94006.12, -0.07188531, 0.18093838, -157999.02, -157999.02, 0.0, 9.993616, 10.001898 
2.6061288e+3, 1.3017675e+2, -947428.7, -1674273.8, 8923.905, -0.16561508, 0.08592238, -947319.1, 716961.6, 0.12059263, 10.007579, 9.996629 
2.606025e+3, 1.4017396e+2, -955409.25, -1613386.0, 18108.469, 0.017841043, 0.19118303, -954911.25, 611399.3, 0.08040378, 10.006387, 9.996948 
2.6059195e+3, 1.5017043e+2, -850175.3, -1425482.3, 53890.777, -0.014842767, 0.147596, -845170.75, 623172.44, 0.042716365, 10.005831, 9.997839 
2.6058146e+3, 1.6016707e+2, -831387.56, -1418929.4, 52398.89, -0.04688785, 0.09316843, -826751.06, 543623.06, 0.016022949, 10.005354, 9.997431 
2.6057094e+3, 1.7016427e+2, -823361.9, -1351136.6, 46614.363, -0.036530435, 0.12913951, -819276.4, 453126.75, 0.0034405175, 10.004618, 9.997576 
2.6056048e+3, 1.8016171e+2, -816486.25, -1270277.8, 57364.11, -0.030651215, 0.16407129, -809347.1, 365082.63, 0.00025273912, 10.003862, 9.997824 
2.6055008e+3, 1.9015896e+2, -766432.3, -1109248.0, 85916.99, -0.029833926, 0.11801586, -746105.0, 330349.63, 0.00000086705097, 10.003166, 9.998589 
2.605397e+3, 2.0015648e+2, -784731.5, -1097402.3, 78478.125, -0.025489181, 0.07253541, -766139.56, 212337.17, 0.0, 10.002497, 9.998322 
2.605293e+3, 2.1015473e+2, -754308.4, -1001019.94, 75477.24, -0.021085251, 0.11394435, -733049.25, 147445.58, 0.0, 10.001902, 9.998594 
2.605189e+3, 2.2015321e+2, -743166.6, -942955.7, 84481.92, -0.0137195345, 0.15761717, -712232.6, 70278.336, 0.0, 10.001294, 9.998615 
2.605086e+3, 2.3015136e+2, -721957.94, -819926.6, 105016.56, 0.013468029, 0.13770877, -655063.25, 29466.518, 0.0, 10.000503, 9.9991665 
2.604983e+3, 2.4014978e+2, -730072.2, -755225.06, 113938.58, 0.034512445, 0.114968896, -628018.06, -41472.32, 0.0, 9.999697, 9.999327 
2.6048788e+3, 2.501493e+2, -676370.6, -601491.56, 88619.62, -0.014659722, 0.15359737, -542727.4, -54176.133, 0.0, 9.99906, 10.000015 
2.604775e+3, 2.6014912e+2, -689193.25, -580208.56, 58384.656, -0.059105504, 0.19063622, -554837.4, -164283.2, 0.0, 9.998397, 9.999809 
2.604672e+3, 2.7014825e+2, -692363.8, -492133.72, 65953.586, -0.00044049913, 0.16563234, -472361.75, -179798.66, 0.0, 9.997536, 10.0001545 
2.6045683e+3, 2.801477e+2, -703120.9, -413898.47, 83485.55, 0.064052485, 0.14203392, -391529.94, -196961.1, 0.0, 9.996646, 10.00045 
2.6044628e+3, 2.9014868e+2, -649912.8, -241887.83, 58291.434, -0.014621482, 0.20290317, -233723.55, -137164.2, 0.0, 9.995925, 10.001307 
2.6043573e+3, 3.0014974e+2, -672818.9, -227317.03, 80796.57, -0.12560306, 0.24147409, -213116.34, -213116.34, 0.0, 9.995204, 10.001082 
2.604256e+3, 3.1014863e+2, -690208.9, -157587.88, 111717.76, 0.12428977, 0.053208444, -135104.08, -135104.08, 0.0, 9.994519, 10.001556 
2.604148e+3, 3.2015193e+2, -751018.75, -138175.08, -124296.59, -0.073132046, 0.31070423, -113924.89, -113924.89, 0.0, 9.993894, 10.001989 
2.6161364e+3, 1.3028286e+2, -948271.1, -1688327.5, -31951.664, -0.109404474, 0.13734917, -946894.2, 716346.94, 0.106429875, 10.007519, 9.996559 
2.6160306e+3, 1.4027901e+2, -942364.8, -1589453.5, -6302.28, -0.015369118, 0.13567148, -942303.44, 622977.4, 0.07031258, 10.006342, 9.997135 
2.6159248e+3, 1.50276e+2, -822886.3, -1372750.9, 39628.094, -0.03414187, 0.108949035, -820045.06, 647262.4, 0.036771454, 10.005805, 9.99823 
2.6158196e+3, 1.6027328e+2, -830580.9, -1415215.3, 28589.594, -0.039791714, 0.08917043, -829186.1, 540145.44, 0.013414977, 10.005326, 9.997473 
2.6157135e+3, 1.7027046e+2, -842448.3, -1390132.3, 18824.777, -0.04602827, 0.14146462, -841802.0, 429560.03, 0.0027394386, 10.004606, 9.997317 
2.6156077e+3, 1.802678e+2, -823580.44, -1284324.1, 33232.99, -0.05722013, 0.18541369, -821195.7, 352195.34, 0.00018049874, 10.003854, 9.997734 
2.6155034e+3, 1.9026506e+2, -763506.2, -1105154.8, 62134.93, -0.028339645, 0.14081796, -752556.75, 322859.2, 0.00000042407203, 10.003168, 9.998619 
2.615399e+3, 2.0026258e+2, -785032.1, -1099116.6, 56394.594, 0.001968633, 0.09408184, -775213.3, 202224.84, 0.0, 10.002495, 9.998314 
2.6152945e+3, 2.1026054e+2, -756168.2, -1005962.0, 55010.832, -0.012010207, 0.108619615, -744590.06, 134868.4, 0.0, 10.001901, 9.998564 
2.6151899e+3, 2.2025879e+2, -733227.9, -921543.2, 60040.055, -0.029816782, 0.1271792, -715714.25, 65761.9, 0.0, 10.001286, 9.99877 
2.6150858e+3, 2.3025748e+2, -699515.25, -774833.0, 74604.39, -0.019861175, 0.13389385, -653603.75, 29885.074, 0.0, 10.000503, 9.999478 
2.6149818e+3, 2.4025635e+2, -746150.25, -791162.9, 86579.45, -0.009731853, 0.1395282, -679199.6, -93699.62, 0.0, 9.999701, 9.999081 
2.6148775e+3, 2.5025514e+2, -730036.6, -714039.94, 63339.813, -0.03373035, 0.1655874, -658195.44, -170680.48, 0.0, 9.99906, 9.999245 
2.614773e+3, 2.602542e+2, -680448.56, -565269.5, 27120.016, -0.05445491, 0.18507653, -559203.3, -169676.69, 0.0, 9.998405, 9.99991 
2.614669e+3, 2.7025402e+2, -630512.44, -364038.72, 30079.24, 0.00032610758, 0.15995307, -360685.6, -69158.67, 0.0, 9.99753, 10.00104 
2.6145646e+3, 2.8025422e+2, -681197.25, -367460.28, 54129.26, 0.055238124, 0.13619004, -358383.9, -164860.23, 0.0, 9.996636, 10.000776 
2.6144585e+3, 2.9025483e+2, -661864.9, -270277.06, 31064.633, -0.013935263, 0.16483751, -267828.03, -172309.73, 0.0, 9.9959345, 10.00111 
2.614352e+3, 3.0025575e+2, -646421.56, -184601.77, 52862.914, -0.10693354, 0.19193983, -178628.0, -178628.0, 0.0, 9.995249, 10.001358 
2.614249e+3, 3.1025678e+2, -642802.9, -52491.215, 83176.17, 0.047306728, 0.16176254, -40995.387, -40995.387, 0.0, 9.994484, 10.002299 
2.6141417e+3, 3.2025903e+2, -668953.44, 13209.475, -190578.92, -0.021782545, 0.23165172, 62841.32, 62841.32, 0.0, 9.993944, 10.003021 
2.6261437e+3, 1.3039005e+2, -959769.94, -1695849.0, 6111.8022, -0.063978136, 0.16153102, -959719.25, 702471.2, 0.0933737, 10.007328, 9.996602 
2.6260364e+3, 1.4038575e+2, -945392.2, -1599475.9, 43577.688, -0.015070033, 0.11713484, -942501.6, 621732.4, 0.061094362, 10.006299, 9.997087 
2.6259297e+3, 1.503827e+2, -863914.4, -1409919.9, 75359.83, -0.05037244, 0.09973785, -853704.1, 612557.7, 0.03142461, 10.005571, 9.99807 
2.6258236e+3, 1.6037999e+2, -882162.56, -1432548.4, 38837.41, -0.058885224, 0.09239318, -879435.56, 488850.78, 0.011135321, 10.004931, 9.9975395 
2.6257175e+3, 1.7037722e+2, -852480.56, -1364544.4, 52820.555, -0.042423405, 0.13080736, -847088.75, 423226.56, 0.00215916, 10.004414, 9.997581 
2.6256114e+3, 1.8037462e+2, -819087.2, -1279295.6, 89794.12, -0.035301123, 0.16490473, -802187.44, 370155.56, 0.00012753266, 10.003881, 9.99775 
2.6255062e+3, 1.90372e+2, -787381.25, -1140107.1, 103775.92, -0.020346155, 0.14948428, -759114.44, 315253.63, 0.00000019125741, 10.003115, 9.998401 
2.625401e+3, 2.003696e+2, -806714.7, -1112089.8, 86942.22, -0.0029538597, 0.1277322, -783696.7, 192694.05, 0.0, 10.002364, 9.998284 
2.6252955e+3, 2.1036732e+2, -757751.75, -992983.0, 97195.53, -0.017794225, 0.11245948, -722788.2, 155624.22, 0.0, 10.001837, 9.99868 
2.6251903e+3, 2.2036536e+2, -730537.3, -917562.94, 101530.08, -0.03523851, 0.101857744, -686017.5, 94413.7, 0.0, 10.001302, 9.998784 
2.6250854e+3, 2.3036407e+2, -696464.1, -783317.0, 85676.3, -0.03306097, 0.120901614, -643837.0, 38606.707, 0.0, 10.000574, 9.999383 
2.6249808e+3, 2.4036302e+2, -733642.1, -790699.2, 81501.22, -0.025751257, 0.1422364, -675820.6, -91366.11, 0.0, 9.999817, 9.999024 
2.624876e+3, 2.5036165e+2, -730899.3, -717947.7, 106999.72, -0.026156697, 0.15825786, -617228.0, -130757.25, 0.0, 9.999074, 9.999208 
2.624771e+3, 2.603606e+2, -690999.44, -558428.6, 105127.31, -0.02839175, 0.16683091, -500434.1, -111950.47, 0.0, 9.998288, 10.0000105 
2.6246655e+3, 2.703607e+2, -635363.94, -343073.63, 61153.14, -0.020253548, 0.15450546, -330794.94, -40313.61, 0.0, 9.997403, 10.001243 
2.6245597e+3, 2.8036118e+2, -684695.25, -363670.66, 49236.684, 0.0026507333, 0.14384599, -356288.78, -163813.31, 0.0, 9.996595, 10.000818 
2.6244542e+3, 2.9036164e+2, -604016.5, -253860.42, 35690.125, 0.006806794, 0.16457586, -250259.69, -155788.06, 0.0, 9.996387, 10.001001 
2.6243475e+3, 3.0036238e+2, -533374.6, -110526.89, 39637.21, -0.045526523, 0.17934492, -106843.44, -106843.44, 0.0, 9.995944, 10.001529 
2.6242417e+3, 3.1036383e+2, -675961.06, -19488.326, 30576.264, -0.047156975, 0.15636736, -18067.264, -18067.264, 0.0, 9.994052, 10.00273 
2.6241353e+3, 3.2036564e+2, -648035.7, 25222.0, -130203.15, -0.00992299, 0.14049302, 49525.06, 49525.06, 0.0, 9.994093, 10.003026 
2.6361507e+3, 1.3049814e+2, -965640.25, -1692114.1, -36024.773, -0.032378852, 0.17020875, -963858.2, 697272.1, 0.08139636, 10.007168, 9.996703 
2.6360422e+3, 1.4049387e+2, -963984.4, -1640668.9, 12909.913, 0.0022872835, 0.12852396, -963738.2, 599435.2, 0.0527135, 10.0062475, 9.996828 
2.6359347e+3, 1.5049033e+2, -899756.3, -1491848.8, 52451.492, -0.06786708, 0.11264173, -895145.7, 570061.8, 0.026643606, 10.005567, 9.997502 
2.635828e+3, 1.6048719e+2, -875133.5, -1420428.8, 20159.113, -0.099868946, 0.0997047, -874389.25, 492848.38, 0.0091600055, 10.004928, 9.997628 
2.6357216e+3, 1.7048456e+2, -809278.7, -1273962.4, 35854.754, -0.029735912, 0.100332834, -806528.44, 462734.72, 0.001685924, 10.004403, 9.99821 
2.6356152e+3, 1.8048218e+2, -818369.75, -1275534.0, 65388.17, 0.022334486, 0.10965152, -809201.2, 362085.5, 0.00008980601, 10.003866, 9.997787 
2.6355088e+3, 1.9047976e+2, -820022.06, -1209009.1, 74880.41, -0.010267602, 0.14890005, -806105.4, 267206.38, 0.00000008629741, 10.003113, 9.9979315 
2.6354027e+3, 2.0047745e+2, -812082.4, -1124209.5, 65545.64, -0.041526116, 0.17367609, -798876.7, 176458.63, 0.0, 10.002362, 9.998205 
2.635297e+3, 2.10475e+2, -739836.7, -957950.8, 79595.07, -0.03771543, 0.12381714, -713879.6, 163477.89, 0.0, 10.001842, 9.998921 
2.6351914e+3, 2.204728e+2, -741709.56, -942046.6, 78617.17, -0.032377362, 0.07640255, -714542.3, 64835.152, 0.0, 10.001301, 9.99862 
2.6350856e+3, 2.3047112e+2, -732780.5, -859685.94, 57774.445, -0.027577693, 0.09836012, -710418.7, -29023.62, 0.0, 10.000573, 9.998861 
2.63498e+3, 2.4046974e+2, -722633.5, -769065.5, 53334.434, -0.018861296, 0.12357575, -687681.25, -104271.53, 0.0, 9.999817, 9.999176 
2.634875e+3, 2.5046888e+2, -680279.9, -614189.4, 78015.33, 0.008497162, 0.1306193, -562509.3, -77090.6, 0.0, 9.999075, 9.999923 
2.6347694e+3, 2.604683e+2, -688593.6, -555726.5, 73390.086, 0.015915371, 0.1358568, -523167.53, -135742.78, 0.0, 9.998292, 10.00003 
2.6346618e+3, 2.7046824e+2, -678186.0, -431713.5, 25393.926, -0.06988283, 0.14999852, -429124.38, -139697.67, 0.0, 9.997396, 10.00064 
2.6345548e+3, 2.8046846e+2, -702858.7, -404987.6, 29202.441, -0.110959485, 0.16807899, -402151.7, -210726.19, 0.0, 9.996606, 10.000533 
2.6344505e+3, 2.9046908e+2, -599631.25, -252762.47, 29051.225, 0.057544503, 0.21214579, -250346.17, -156926.55, 0.0, 9.996416, 10.000998 
2.6343444e+3, 3.004697e+2, -528427.4, -105414.38, -9885.069, 0.09302166, 0.21544698, -105183.516, -105183.516, 0.0, 9.995961, 10.001558 
2.6342335e+3, 3.1046912e+2, -683832.8, -25105.379, -56705.305, -0.22209942, -0.015018907, -20259.656, -20259.656, 0.0, 9.993996, 10.002724 
2.6341292e+3, 3.204731e+2, -709575.2, -122455.06, 169550.27, 0.017081616, 0.22334063, -77009.516, -77009.516, 0.0, 9.994194, 10.001955 
2.6461568e+3, 1.3060594e+2, -1047168.5, -1687533.8, -41918.16, -0.02073976, 0.14291249, -1044436.2, 615637.9, 0.070449725, 10.00628, 9.997163 
2.6460475e+3, 1.4060237e+2, -988065.75, -1639883.1, 26869.092, 0.004564775, 0.1365242, -986960.06, 575149.1, 0.04513235, 10.005977, 9.9969635 
2.6459396e+3, 1.5059881e+2, -921495.94, -1516741.8, 90227.03, -0.06599338, 0.12556678, -908119.94, 556024.6, 0.022398278, 10.005463, 9.997376 
2.6458323e+3, 1.6059557e+2, -871466.75, -1412899.9, 72322.375, -0.09391424, 0.11262561, -861972.7, 504203.9, 0.0074650757, 10.00493, 9.997674 
2.6457253e+3, 1.7059304e+2, -821601.9, -1259763.1, 65501.703, -0.019562436, 0.10965195, -812019.44, 456181.06, 0.0013056126, 10.004238, 9.9983835 
2.6456183e+3, 1.8059073e+2, -856655.44, -1284818.1, 74484.28, 0.03325928, 0.11335436, -844068.0, 326154.53, 0.000063545034, 10.0035715, 9.997861 
2.6455113e+3, 1.9058819e+2, -821595.6, -1210924.9, 106187.125, -0.021655535, 0.14303783, -794517.1, 277731.53, 0.000000036839044, 10.003117, 9.997912 
2.645404e+3, 2.005858e+2, -775711.25, -1110536.6, 116742.23, -0.07054286, 0.16350122, -739026.5, 235246.75, 0.0, 10.002639, 9.99816 
2.6452982e+3, 2.105834e+2, -740994.75, -967111.8, 112769.664, -0.051595584, 0.12746654, -694368.5, 181926.97, 0.0, 10.001879, 9.9988365 
2.6451918e+3, 2.2058123e+2, -771675.94, -965327.6, 96346.555, -0.029009132, 0.09344531, -731907.8, 46407.684, 0.0, 10.001141, 9.998534 
2.6450858e+3, 2.3057942e+2, -725673.94, -867450.06, 101487.63, -0.031515278, 0.11366939, -672768.4, 7566.38, 0.0, 10.000675, 9.998755 
2.6449794e+3, 2.4057794e+2, -670999.0, -727997.9, 111112.91, -0.02636593, 0.13345133, -584788.8, -2438.2825, 0.0, 10.000109, 9.999313 
2.6448733e+3, 2.5057718e+2, -672526.1, -574541.2, 104931.99, 0.015122843, 0.12631659, -507727.84, -23370.984, 0.0, 9.99898, 10.000238 
2.6447672e+3, 2.6057673e+2, -745610.94, -586766.1, 84483.8, 0.03235913, 0.1203026, -550234.06, -163873.45, 0.0, 9.997923, 9.999991 
2.6446587e+3, 2.7057642e+2, -670338.94, -466472.06, 57900.65, -0.08409049, 0.14109418, -451175.34, -162809.64, 0.0, 9.997622, 10.00029 
2.6445508e+3, 2.805764e+2, -615592.56, -376960.34, 80391.37, -0.14365447, 0.16580708, -352404.63, -162036.67, 0.0, 9.997269, 10.000404 
2.6444465e+3, 2.9057702e+2, -597542.5, -246788.05, 86366.625, 0.07651324, 0.21048315, -226675.2, -134313.06, 0.0, 9.996415, 10.001036 
2.64434e+3, 3.0057764e+2, -594295.0, -159004.25, 25395.605, 0.13951729, 0.21638414, -157527.64, -157527.64, 0.0, 9.995611, 10.001356 
2.6442268e+3, 3.105767e+2, -523681.06, 2040.737, -65449.66, -0.28336456, -0.009212961, 10066.365, 10066.365, 0.0, 9.995313, 10.002274 
2.644123e+3, 3.2058066e+2, -733566.0, -154545.56, 292070.56, 0.040354576, 0.26949653, -32812.086, -32812.086, 0.0, 9.994133, 10.001758 
2.6561624e+3, 1.3071379e+2, -996421.2, -1590601.3, -48168.125, -0.029341504, 0.09550845, -992541.7, 666476.44, 0.060472243, 10.0062685, 9.99786 
2.656053e+3, 1.4071134e+2, -955859.3, -1582601.8, 12802.609, -0.007678887, 0.13911821, -955597.9, 605442.8, 0.038309935, 10.005988, 9.997352 
2.6559445e+3, 1.5070805e+2, -913481.75, -1499796.9, 70258.33, -0.0520811, 0.13681448, -905180.2, 557893.75, 0.018657336, 10.005437, 9.997508 
2.655837e+3, 1.6070496e+2, -881601.2, -1423376.8, 48066.293, -0.058853824, 0.1307428, -877369.8, 487735.38, 0.0060259122, 10.004871, 9.997633 
2.655729e+3, 1.7070252e+2, -837772.0, -1290389.0, 38844.477, -0.015603844, 0.15215564, -834462.5, 432666.22, 0.0010040768, 10.004218, 9.998186 
2.6556212e+3, 1.8070018e+2, -849791.4, -1272455.1, 54780.797, 0.0037889353, 0.16557421, -842806.75, 326344.3, 0.000045459063, 10.003574, 9.997948 
2.6555133e+3, 1.9069728e+2, -798673.44, -1164248.3, 90257.42, -0.051297214, 0.12976286, -777603.94, 293575.4, 0.000000014947995, 10.003115, 9.998237 
2.655406e+3, 2.0069459e+2, -782120.0, -1121840.6, 92695.16, -0.094609864, 0.0998116, -758473.44, 214732.27, 0.0, 10.002624, 9.998094 
2.6552993e+3, 2.106925e+2, -769374.5, -1026301.9, 83589.82, -0.061412744, 0.12572922, -744573.1, 130653.68, 0.0, 10.001874, 9.998436 
2.6551926e+3, 2.2069062e+2, -774506.7, -969280.8, 76332.734, -0.031453338, 0.15211637, -748156.44, 29089.324, 0.0, 10.001126, 9.998516 
2.6550853e+3, 2.3068896e+2, -706358.5, -827606.75, 86243.72, -0.046076305, 0.16548796, -661563.1, 17700.096, 0.0, 10.000672, 9.999033 
2.6549786e+3, 2.4068756e+2, -664700.5, -717595.2, 77972.016, -0.05389524, 0.17007898, -608812.56, -27534.848, 0.0, 10.000114, 9.999386 
2.6548716e+3, 2.5068656e+2, -681435.7, -593454.94, 57831.875, -0.010107021, 0.14570692, -564783.94, -81498.17, 0.0, 9.998975, 10.000113 
2.654764e+3, 2.606858e+2, -751703.8, -600316.1, 59180.98, 0.014450723, 0.12187678, -579926.94, -194635.14, 0.0, 9.997921, 9.999902 
2.654656e+3, 2.7068526e+2, -673517.1, -476570.13, 49697.508, -0.054986406, 0.12560518, -464740.1, -177441.4, 0.0, 9.997631, 10.000218 
2.654548e+3, 2.8068504e+2, -608256.06, -369372.63, 57677.055, -0.086145036, 0.13335109, -356175.84, -166873.23, 0.0, 9.997296, 10.000445 
2.6544422e+3, 2.9068542e+2, -593757.8, -238323.23, 50962.89, 0.046773553, 0.14870068, -231160.44, -139861.08, 0.0, 9.996407, 10.0011015 
2.6543346e+3, 3.0068618e+2, -633150.6, -237956.19, 9249.321, 0.058235746, 0.18050374, -237739.83, -237739.83, 0.0, 9.995597, 10.000824 
2.6542228e+3, 3.1068727e+2, -573649.44, -130115.984, -70318.18, -0.16400395, 0.24470267, -119234.63, -119234.63, 0.0, 9.995428, 10.001314 
2.6541162e+3, 3.2068712e+2, -687324.1, -45129.58, 101905.72, -0.017066322, 0.15282913, -29346.701, -29346.701, 0.0, 9.994056, 10.002556 
2.6661682e+3, 1.3082306e+2, -992259.5, -1597105.9, 19293.75, -0.022323435, 0.07820167, -991644.7, 666303.0, 0.05140645, 10.006279, 9.997805 
2.6660582e+3, 1.4082076e+2, -920045.06, -1561713.8, 27715.754, -0.044646036, 0.14124773, -918850.1, 641118.94, 0.032197896, 10.006195, 9.997394 
2.6659495e+3, 1.5081769e+2, -946529.9, -1504205.5, 67193.82, -0.04516565, 0.15271556, -938548.0, 523452.4, 0.015380982, 10.005147, 9.997613 
2.6658413e+3, 1.6081476e+2, -977554.4, -1464869.4, 53752.707, -0.014343749, 0.15461577, -971695.7, 392334.66, 0.0048134634, 10.004189, 9.997674 
2.6657328e+3, 1.7081214e+2, -873477.9, -1309577.8, 60489.688, -0.011468301, 0.16167575, -865243.06, 400812.1, 0.0007666277, 10.003988, 9.99816 
2.6656237e+3, 1.8080966e+2, -819513.7, -1251373.6, 75955.016, -0.028611697, 0.16180399, -806544.25, 361534.47, 0.000032791508, 10.003761, 9.997998 
2.6655155e+3, 1.9080684e+2, -814203.9, -1159858.5, 94717.12, -0.06320731, 0.1265852, -789950.94, 280155.25, 0.0000000057994387, 10.002965, 9.998335 
2.665408e+3, 2.008043e+2, -835196.44, -1129832.9, 91513.96, -0.08385023, 0.1001986, -809086.1, 163045.02, 0.0, 10.002192, 9.998243 
2.6653007e+3, 2.1080248e+2, -772201.9, -1008464.25, 115752.195, -0.059900858, 0.13748573, -724944.0, 149205.39, 0.0, 10.001779, 9.9986 
2.665193e+3, 2.2080083e+2, -745820.06, -947367.25, 132693.02, -0.037349716, 0.17397222, -679972.06, 96194.03, 0.0, 10.001296, 9.998581 
2.6650855e+3, 2.3079908e+2, -761694.4, -855825.5, 124793.586, -0.044078205, 0.18015651, -675386.0, 2798.6794, 0.0, 10.000305, 9.999013 
2.664978e+3, 2.4079755e+2, -768717.3, -768191.25, 101003.52, -0.046785016, 0.17645222, -667450.44, -87250.0, 0.0, 9.99941, 9.999374 
2.6648697e+3, 2.5079644e+2, -651840.0, -582608.94, 85210.766, -0.029613065, 0.14723228, -525251.06, -43041.695, 0.0, 9.999199, 10.000076 
2.6647618e+3, 2.6079562e+2, -608876.06, -529638.6, 95981.18, -0.015908228, 0.12148444, -465420.75, -81204.83, 0.0, 9.9988985, 9.999914 
2.6646537e+3, 2.7079523e+2, -607559.94, -440830.8, 96234.02, -0.03007745, 0.136465, -396874.38, -110653.34, 0.0, 9.998074, 10.000248 
2.6645455e+3, 2.80795e+2, -621142.2, -383959.78, 101003.09, -0.02553993, 0.14779688, -346777.1, -158552.72, 0.0, 9.9972515, 10.000363 
2.664438e+3, 2.9079494e+2, -556286.9, -240773.63, 71147.4, 0.017269254, 0.1336785, -225472.16, -135246.02, 0.0, 9.9967575, 10.000912 
2.6643288e+3, 3.007954e+2, -564051.25, -229228.0, 26875.785, -0.019608067, 0.1574057, -227084.44, -227084.44, 0.0, 9.9961815, 10.000599 
2.6642182e+3, 3.1079733e+2, -610507.9, -174083.92, 1591.9484, -0.092909195, 0.32846698, -174078.13, -174078.13, 0.0, 9.995298, 10.001071 
2.6641095e+3, 3.207956e+2, -619374.4, 16375.801, 105404.73, -0.04653318, 0.095154375, 33395.813, 33395.813, 0.0, 9.994405, 10.002806 
2.6761737e+3, 1.3093339e+2, -1031014.25, -1675729.9, 21465.34, -0.012018315, 0.08134168, -1030300.4, 626566.1, 0.043207694, 10.006218, 9.997271 
2.676063e+3, 1.4093068e+2, -937698.2, -1594336.9, 8108.1025, -0.104537435, 0.14637324, -937598.06, 621295.1, 0.026743859, 10.006138, 9.997198 
2.6759538e+3, 1.5092778e+2, -940418.3, -1496942.6, 26399.34, -0.04695414, 0.17442776, -939168.8, 521754.22, 0.012522972, 10.00515, 9.997664 
2.6758453e+3, 1.6092497e+2, -967109.9, -1453026.3, 34391.637, 0.034515485, 0.18330629, -964687.8, 398263.72, 0.003795729, 10.004222, 9.997742 
2.675736e+3, 1.7092198e+2, -867634.44, -1299615.6, 57322.74, -0.009225786, 0.14333636, -860157.3, 404822.16, 0.00057933223, 10.003992, 9.99823 
2.6756266e+3, 1.8091922e+2, -824473.8, -1256001.9, 56290.73, -0.06714603, 0.11143515, -817251.8, 349753.44, 0.000023679033, 10.003732, 9.997983 
2.675518e+3, 1.909169e+2, -823125.25, -1176025.3, 63923.99, -0.06164756, 0.13450025, -811903.0, 257126.1, 0.000000001728097, 10.002949, 9.998235 
2.67541e+3, 2.0091487e+2, -814396.06, -1084322.1, 72019.91, -0.047688805, 0.15768632, -796382.3, 174667.38, 0.0, 10.002175, 9.998566 
2.6753017e+3, 2.1091327e+2, -728565.0, -917884.8, 102259.26, -0.05044755, 0.15989594, -683878.4, 189185.36, 0.0, 10.001775, 9.999227 
2.6751935e+3, 2.209117e+2, -740813.1, -936107.0, 103661.31, -0.051914386, 0.15811214, -696050.06, 79027.7, 0.0, 10.0012865, 9.998666 
2.6750854e+3, 2.3090965e+2, -783960.06, -902640.44, 85270.93, -0.02683275, 0.1582317, -739413.8, -62313.96, 0.0, 10.000302, 9.998695 
2.6749772e+3, 2.4090788e+2, -775496.8, -782872.2, 81697.04, -0.0104117645, 0.15355217, -697404.25, -118285.23, 0.0, 9.999407, 9.999277 
2.674868e+3, 2.5090685e+2, -648347.44, -578107.6, 79742.37, -0.044778842, 0.13023214, -526094.0, -44965.926, 0.0, 9.999207, 10.000106 
2.6747596e+3, 2.6090622e+2, -596764.0, -513891.63, 73502.47, -0.06869694, 0.12068984, -470950.28, -87817.11, 0.0, 9.998935, 10.000008 
2.674651e+3, 2.709064e+2, -597086.6, -423159.9, 61052.176, -0.012648084, 0.17944023, -403868.88, -118736.54, 0.0, 9.998085, 10.000366 
2.6745427e+3, 2.809065e+2, -639901.06, -423833.7, 77608.87, 0.037616722, 0.22131675, -398847.03, -211714.75, 0.0, 9.99725, 10.000093 
2.6744336e+3, 2.909056e+2, -590049.75, -316744.22, 53074.426, -0.013448627, 0.17490415, -306799.3, -217657.11, 0.0, 9.996778, 10.000384 
2.6743236e+3, 3.009052e+2, -545558.75, -200167.84, -4432.01, -0.108289085, 0.14390089, -200110.97, -200110.97, 0.0, 9.996216, 10.000786 
2.674213e+3, 3.109063e+2, -573567.3, -90913.68, -34431.81, -0.08019672, 0.17828459, -88469.734, -88469.734, 0.0, 9.995263, 10.001662 
2.674104e+3, 3.209071e+2, -661400.8, -79799.84, 125077.6, 0.013797494, 0.17716971, -54041.758, -54041.758, 0.0, 9.994438, 10.002131 
2.68618e+3, 1.3104485e+2, -1073821.1, -1686090.6, 45446.84, 0.039611053, 0.17159775, -1070466.1, 585310.75, 0.035831686, 10.005813, 9.997397 
2.6860684e+3, 1.4104125e+2, -991734.06, -1621226.6, 38811.625, -0.11347438, 0.14026119, -989350.1, 568461.2, 0.021895938, 10.005732, 9.997209 
2.685958e+3, 1.5103835e+2, -940998.6, -1506042.6, 41638.066, -0.06702494, 0.17577292, -937946.8, 521894.16, 0.010037431, 10.005178, 9.997584 
2.6858488e+3, 1.6103561e+2, -911460.6, -1417364.8, 51703.824, 0.012336936, 0.19769767, -906230.5, 455637.97, 0.0029428436, 10.004571, 9.997815 
2.6857394e+3, 1.7103267e+2, -876637.8, -1286480.3, 84879.34, -0.024986193, 0.14969245, -859754.6, 404140.9, 0.0004309287, 10.00386, 9.99838 
2.6856294e+3, 1.8102998e+2, -897560.06, -1281641.1, 83838.1, -0.07630548, 0.11286569, -880057.3, 285863.22, 0.000016889995, 10.003195, 9.998062 
2.6855204e+3, 1.9102786e+2, -859382.4, -1190253.1, 93340.6, -0.0660374, 0.15416394, -834866.9, 233075.92, 0.0000000002885943, 10.002692, 9.998257 
2.6854113e+3, 2.01026e+2, -806069.44, -1067556.4, 104370.16, -0.044493053, 0.18856013, -769519.8, 200442.6, 0.0, 10.002184, 9.9986725 
2.685303e+3, 2.1102421e+2, -749658.0, -911589.06, 108192.45, -0.03575084, 0.16347523, -695490.1, 176487.06, 0.0, 10.001565, 9.999367 
2.6851943e+3, 2.2102256e+2, -779840.8, -933224.8, 79789.305, -0.028930185, 0.13782288, -745862.1, 28129.227, 0.0, 10.000933, 9.998852 
2.6850852e+3, 2.3102075e+2, -772745.44, -874172.1, 86311.0, -0.01686313, 0.14006765, -723351.7, -47341.145, 0.0, 10.000287, 9.998895 
2.684976e+3, 2.4101916e+2, -742465.2, -765923.06, 122503.36, -0.007844827, 0.1422454, -631130.56, -53103.027, 0.0, 9.999636, 9.99928 
2.684867e+3, 2.510182e+2, -680113.56, -611176.2, 117835.05, -0.03763975, 0.13825518, -522871.97, -42834.574, 0.0, 9.999072, 9.999941 
2.6847577e+3, 2.610176e+2, -654066.6, -542236.4, 91188.125, -0.061407182, 0.14163944, -491185.28, -109141.69, 0.0, 9.998552, 9.999993 
2.6846486e+3, 2.710176e+2, -573145.9, -402040.8, 68860.68, -0.026881715, 0.18320505, -377770.63, -93727.46, 0.0, 9.998215, 10.000445 
2.6845393e+3, 2.8101766e+2, -570551.4, -385708.78, 87955.2, 0.016577281, 0.21450873, -350545.56, -164502.86, 0.0, 9.997711, 10.00013 
2.6844296e+3, 2.910171e+2, -605538.2, -323985.75, 99936.01, -0.013992823, 0.19975378, -292120.3, -204071.0, 0.0, 9.996678, 10.000379 
2.684319e+3, 3.0101663e+2, -602442.1, -225349.75, 70973.875, -0.100711405, 0.16786043, -212433.89, -212433.89, 0.0, 9.995826, 10.000795 
2.6842082e+3, 3.1101632e+2, -479261.72, -42758.375, 1305.7294, -0.05656809, 0.061870404, -42754.47, -42754.47, 0.0, 9.995908, 10.001677 
2.6840988e+3, 3.2101876e+2, -553550.8, -40953.332, 111061.14, 0.046813574, 0.2283572, -17924.986, -17924.986, 0.0, 9.995243, 10.002006 
2.6961857e+3, 1.311571e+2, -1023966.8, -1603682.3, 49250.12, 0.108665235, 0.31337023, -1019812.5, 634868.0, 0.029226776, 10.0058775, 9.997939 
2.6960737e+3, 1.4115235e+2, -986367.9, -1608351.5, 25424.99, -0.09218425, 0.1269036, -985330.3, 571393.5, 0.017606389, 10.005699, 9.997314 
2.6959625e+3, 1.5114935e+2, -956601.9, -1535819.0, 20279.111, -0.10360512, 0.16266641, -955892.75, 502861.63, 0.007884976, 10.00515, 9.997397 
2.695852e+3, 1.6114669e+2, -910483.06, -1409856.5, 28917.137, -0.06513144, 0.20112908, -908814.1, 451967.13, 0.002230624, 10.0045395, 9.997885 
2.6957422e+3, 1.7114413e+2, -864962.7, -1258855.0, 60062.8, -0.05458284, 0.17592494, -856007.56, 406796.56, 0.00031305826, 10.0038395, 9.998582 
2.695632e+3, 1.8114178e+2, -891590.8, -1266621.9, 63298.473, -0.06403243, 0.15630901, -881195.3, 283630.28, 0.000011633441, 10.003179, 9.998176 
2.6955223e+3, 1.9113961e+2, -854437.6, -1180247.0, 75622.766, -0.07839983, 0.18203174, -837740.7, 229107.78, 0.000000000007316074, 10.002688, 9.998329 
2.695413e+3, 2.0113753e+2, -815144.0, -1086221.6, 83174.875, -0.0741842, 0.19519769, -791658.2, 177211.8, 0.0, 10.002178, 9.998549 
2.6953042e+3, 2.1113533e+2, -770412.75, -954346.1, 85275.73, -0.016068093, 0.15059607, -736960.9, 133928.97, 0.0, 10.001558, 9.999079 
2.6951954e+3, 2.2113344e+2, -762397.0, -893049.6, 56936.57, 0.02362086, 0.113183014, -741067.06, 31839.4, 0.0, 10.00091, 9.999141 
2.695085e+3, 2.3113231e+2, -726783.1, -778514.5, 62732.96, -0.017137032, 0.1254801, -684792.6, -9875.796, 0.0, 10.000282, 9.999555 
2.6949745e+3, 2.4113137e+2, -738037.8, -759870.56, 100118.24, -0.04675928, 0.14416593, -648242.56, -71316.4, 0.0, 9.999644, 9.99932 
2.6948658e+3, 2.5113043e+2, -706237.0, -666998.5, 94939.58, -0.007009919, 0.17328441, -589672.2, -110734.55, 0.0, 9.999073, 9.999559 
2.6947564e+3, 2.6112962e+2, -664189.6, -563797.75, 74766.89, 0.007031092, 0.18680201, -523939.7, -142992.13, 0.0, 9.9985485, 9.999849 
2.6946458e+3, 2.711287e+2, -571727.6, -401245.47, 55669.4, -0.08220423, 0.13901433, -384677.3, -101722.41, 0.0, 9.9982195, 10.000451 
2.6945353e+3, 2.8112835e+2, -538445.2, -325818.34, 56572.137, -0.11666851, 0.11542879, -311703.56, -126746.38, 0.0, 9.997735, 10.000532 
2.6944262e+3, 2.911294e+2, -563718.0, -235312.31, 57483.54, 0.02824292, 0.20720874, -225541.22, -138594.77, 0.0, 9.996662, 10.0009985 
2.6943156e+3, 3.0113e+2, -625757.75, -269480.63, 63896.727, 0.047948953, 0.2405869, -258367.66, -258367.66, 0.0, 9.9958, 10.000508 
2.6942036e+3, 3.1112757e+2, -525277.75, -157097.16, 11479.506, -0.066298395, -0.0022501496, -156739.6, -156739.6, 0.0, 9.995983, 10.000857 
2.694093e+3, 3.2113028e+2, -495647.97, 62381.742, -35381.273, 0.01676383, 0.22679077, 64616.11, 64616.11, 0.0, 9.995292, 10.002704 
2.7061912e+3, 1.3126838e+2, -955562.0, -1595415.1, 81783.164, 0.081650116, 0.26292711, -945274.3, 708315.25, 0.023348778, 10.006429, 9.997731 
2.7060786e+3, 1.4126454e+2, -1030878.2, -1628102.8, 30273.227, -0.07315947, 0.18144171, -1029347.56, 526278.2, 0.013838346, 10.005363, 9.997338 
2.7059668e+3, 1.5126124e+2, -1008352.94, -1544605.8, 42074.21, -0.09397879, 0.17806348, -1005071.94, 452586.75, 0.0060360683, 10.00472, 9.99754 
2.7058557e+3, 1.6125834e+2, -960155.3, -1421216.1, 62126.777, -0.067917876, 0.18145017, -951930.6, 407756.88, 0.0016411492, 10.004146, 9.9979925 
2.705745e+3, 1.7125617e+2, -900850.1, -1268726.3, 84831.28, -0.052011997, 0.18657279, -882230.7, 379476.5, 0.0002197633, 10.003566, 9.998643 
2.7056348e+3, 1.812541e+2, -911754.0, -1269464.3, 83953.836, -0.052612092, 0.19071011, -893030.3, 270695.97, 0.000007542903, 10.0030155, 9.998231 
2.7055243e+3, 1.9125171e+2, -872298.94, -1183772.6, 96974.54, -0.06212739, 0.19279622, -844574.5, 221176.33, 0.0, 10.00255, 9.998368 
2.7054146e+3, 2.012495e+2, -834749.3, -1093270.1, 100625.54, -0.05853843, 0.18959038, -800199.6, 167573.97, 0.0, 10.00204, 9.998565 
2.705305e+3, 2.1124749e+2, -807954.2, -975315.3, 113739.11, -0.025713999, 0.16762882, -750429.2, 119363.086, 0.0, 10.001319, 9.999047 
2.7051952e+3, 2.2124575e+2, -785583.2, -882904.2, 97936.22, 0.0016480396, 0.14390881, -724884.9, 46922.926, 0.0, 10.000666, 9.999325 
2.7050847e+3, 2.3124461e+2, -699185.4, -731440.25, 84723.86, -0.011248962, 0.1279383, -629067.6, 44749.297, 0.0, 10.000332, 9.999851 
2.704974e+3, 2.412437e+2, -688132.3, -726081.44, 101891.08, -0.018542647, 0.1276171, -603464.1, -27639.316, 0.0, 9.999952, 9.999399 
2.7048644e+3, 2.51243e+2, -676957.4, -659421.06, 113959.6, 0.007802731, 0.18327278, -553892.8, -76058.15, 0.0, 9.999309, 9.999495 
2.7047545e+3, 2.6124224e+2, -648925.5, -553136.0, 118262.414, 0.013821193, 0.21209718, -473438.0, -93593.984, 0.0, 9.998646, 9.999872 
2.7046433e+3, 2.7124107e+2, -581123.94, -400062.7, 106651.266, -0.08241476, 0.1305449, -350699.47, -68845.66, 0.0, 9.998138, 10.000494 
2.704532e+3, 2.812405e+2, -551321.75, -327471.8, 88644.086, -0.123893835, 0.081746064, -296620.84, -112763.01, 0.0, 9.997637, 10.000564 
2.7044225e+3, 2.9124182e+2, -492368.47, -197006.22, 37682.695, 0.034858022, 0.19887483, -192274.42, -106430.07, 0.0, 9.997143, 10.001026 
2.7043116e+3, 3.0124256e+2, -528812.44, -227611.13, 30150.02, 0.080461785, 0.24950318, -224622.78, -224622.78, 0.0, 9.996491, 10.000461 
2.7041987e+3, 3.1123984e+2, -597397.9, -203953.61, 39831.266, -0.052631967, -0.015407445, -199961.7, -199961.7, 0.0, 9.995548, 10.000742 
2.7040878e+3, 3.212424e+2, -455626.9, 88000.32, -5877.8755, 0.008173867, 0.2076344, 88063.87, 88063.87, 0.0, 9.995545, 10.002753 
2.7161962e+3, 1.3137925e+2, -1014969.1, -1695976.5, 35215.477, -0.010525796, 0.100091316, -1013152.94, 639347.06, 0.018178524, 10.006299, 9.997092 
2.7160835e+3, 1.4137758e+2, -1035367.6, -1633289.0, 3062.6265, -0.058393426, 0.28145275, -1035351.94, 519167.0, 0.0105717415, 10.005327, 9.997321 
2.7159715e+3, 1.5137391e+2, -986921.7, -1496377.0, 23046.865, -0.053859916, 0.21087539, -985881.2, 470674.06, 0.0044720527, 10.004691, 9.997889 
2.71586e+3, 1.6137058e+2, -959120.5, -1411112.3, 42958.016, -0.0193978, 0.1456186, -955073.94, 403513.66, 0.0011622162, 10.004105, 9.998084 
2.7157483e+3, 1.7136872e+2, -908564.7, -1281448.8, 64895.07, -0.02853203, 0.18602301, -897593.44, 363011.7, 0.00014725362, 10.003548, 9.998566 
2.715637e+3, 1.8136686e+2, -913175.94, -1271975.6, 66722.54, -0.04596529, 0.21760945, -901169.94, 261452.84, 0.0000045032148, 10.00301, 9.9982195 
2.7155268e+3, 1.9136418e+2, -871446.8, -1182411.8, 82525.25, -0.022421466, 0.18898499, -850903.1, 213746.7, 0.0, 10.002547, 9.998383 
2.7154163e+3, 2.0136186e+2, -828780.9, -1078270.4, 79546.43, -0.009213557, 0.17173547, -805576.7, 161096.56, 0.0, 10.002024, 9.998678 
2.715305e+3, 2.1136065e+2, -797590.2, -954075.44, 87346.336, -0.0658401, 0.21225217, -758566.94, 110118.23, 0.0, 10.001317, 9.999195 
2.7151942e+3, 2.2135942e+2, -782826.94, -878378.5, 81083.24, -0.09539638, 0.22834992, -736491.0, 34205.246, 0.0, 10.000667, 9.999357 
2.7150846e+3, 2.3135759e+2, -701729.7, -739107.56, 73300.01, 0.0025586053, 0.14640214, -644773.6, 27937.768, 0.0, 10.000338, 9.999799 
2.7149743e+3, 2.4135612e+2, -678931.3, -707743.6, 82054.8, 0.07155813, 0.091780536, -610027.6, -35303.9, 0.0, 9.99995, 9.999529 
2.714863e+3, 2.5135583e+2, -660184.5, -625360.94, 88272.76, 0.0010192142, 0.16534679, -552799.1, -76070.516, 0.0, 9.999309, 9.99973 
2.7147517e+3, 2.6135555e+2, -635016.3, -529120.0, 96591.61, -0.055964287, 0.22025923, -471916.22, -93183.734, 0.0, 9.998662, 10.000031 
2.7146414e+3, 2.7135473e+2, -575956.06, -390665.3, 86748.266, -0.015446469, 0.16604052, -356391.72, -75652.78, 0.0, 9.998137, 10.000563 
2.7145308e+3, 2.8135413e+2, -582557.25, -393034.4, 70592.89, 0.020072611, 0.12372576, -369630.34, -186886.48, 0.0, 9.997634, 10.000117 
2.7144188e+3, 2.9135403e+2, -540302.0, -303513.28, 16899.594, -0.01659421, 0.16737202, -302313.25, -217567.72, 0.0, 9.997167, 10.000286 
2.7143058e+3, 3.0135405e+2, -500160.78, -178940.63, -7992.2476, -0.069582164, 0.18581796, -178741.9, -178741.9, 0.0, 9.996532, 10.000777 
2.7141947e+3, 3.1135324e+2, -544822.94, -80810.58, -1401.3118, 0.047695782, 0.037187807, -80806.34, -80806.34, 0.0, 9.995481, 10.001623 
2.7140823e+3, 3.2135525e+2, -525350.7, -67311.98, 142992.34, -0.02380096, 0.17299917, -26337.488, -26337.488, 0.0, 9.995599, 10.001657 
2.7262008e+3, 1.3149188e+2, -1103619.6, -1715102.6, 31680.639, -0.050367013, 0.093279734, -1101982.6, 549413.4, 0.013716465, 10.0055485, 9.997324 
2.7260885e+3, 1.4149044e+2, -1061835.5, -1614386.8, 34386.12, -0.040319968, 0.27307233, -1059703.8, 493709.2, 0.00779911, 10.004997, 9.997608 
2.7259752e+3, 1.5148723e+2, -1031790.9, -1485070.1, 56562.625, -0.048423085, 0.22121647, -1024839.25, 430605.16, 0.003182088, 10.004241, 9.998179 
2.7258632e+3, 1.6148423e+2, -1029576.44, -1438250.0, 79325.62, -0.022611372, 0.16638796, -1014719.06, 342754.7, 0.0007853841, 10.003595, 9.99814 
2.725751e+3, 1.7148206e+2, -957453.1, -1314976.9, 103420.9, -0.0147858625, 0.18597779, -929692.1, 329802.56, 0.000092971146, 10.003262, 9.99847 
2.72564e+3, 1.8148004e+2, -915402.1, -1252591.5, 106214.21, -0.021901462, 0.20405485, -884734.06, 276780.22, 0.0000024128854, 10.0029125, 9.998396 
2.7255285e+3, 1.9147776e+2, -871849.0, -1147410.8, 137987.86, -0.018214088, 0.18850909, -814631.9, 248904.73, 0.0, 10.002399, 9.99869 
2.7254176e+3, 2.0147575e+2, -844606.25, -1078679.1, 142835.38, -0.015015413, 0.18046883, -776982.25, 188574.28, 0.0, 10.001891, 9.998735 
2.7253062e+3, 2.1147439e+2, -793082.06, -962899.6, 134813.72, -0.05053446, 0.21735604, -718666.5, 148903.8, 0.0, 10.001402, 9.999091 
2.7251947e+3, 2.2147308e+2, -756685.2, -874858.1, 117878.77, -0.068969406, 0.23526661, -683913.3, 85669.71, 0.0, 10.000891, 9.99927 
2.725084e+3, 2.3147129e+2, -710067.56, -753063.25, 107419.9, -0.0013866941, 0.1679201, -622015.5, 49582.934, 0.0, 10.000329, 9.999704 
2.7249733e+3, 2.4146979e+2, -698446.25, -706165.1, 109725.35, 0.050191816, 0.115309305, -592512.5, -18901.355, 0.0, 9.999776, 9.99962 
2.7248615e+3, 2.514693e+2, -647044.4, -599257.44, 109355.32, -0.009830275, 0.15614666, -511215.72, -35599.46, 0.0, 9.999321, 9.9999 
2.72475e+3, 2.6146895e+2, -620070.94, -530673.6, 106889.93, -0.055005036, 0.19275182, -459512.78, -81892.64, 0.0, 9.998812, 9.999945 
2.7246392e+3, 2.7146828e+2, -587722.44, -421242.88, 72619.85, 0.0010656036, 0.17682849, -394017.72, -114391.64, 0.0, 9.998173, 10.000332 
2.724528e+3, 2.8146768e+2, -603296.5, -411193.72, 53405.27, 0.053850565, 0.15491614, -397345.2, -215713.55, 0.0, 9.997532, 10.000039 
2.7244154e+3, 2.9146713e+2, -551992.8, -310095.44, 55045.98, -0.005703194, 0.15212317, -298158.28, -214520.84, 0.0, 9.9971, 10.000269 
2.7243018e+3, 3.0146688e+2, -459481.84, -157002.2, 56941.1, -0.09438015, 0.14996263, -146638.28, -146638.28, 0.0, 9.996814, 10.000787 
2.72419e+3, 3.1146693e+2, -333609.22, 26716.025, -2544.198, 0.045840178, 0.08123739, 26733.99, 26733.99, 0.0, 9.996914, 10.001667 
2.724077e+3, 3.2146814e+2, -520677.88, -135682.33, 131643.52, -0.040601477, 0.1559479, -94973.305, -94973.305, 0.0, 9.995944, 10.001017 
2.7362055e+3, 1.316058e+2, -1050068.8, -1603102.8, 20916.984, -0.063994795, 0.17877592, -1049278.8, 601002.8, 0.00996442, 10.005532, 9.998101 
2.7360928e+3, 1.4160337e+2, -1039386.94, -1556192.4, 12273.775, -0.025257863, 0.19193366, -1039095.56, 513210.2, 0.005515299, 10.004936, 9.998038 
2.7359787e+3, 1.516012e+2, -1016059.44, -1453636.4, 30498.143, -0.069597304, 0.21827371, -1013944.0, 440382.94, 0.0021569338, 10.004237, 9.9984 
2.7358654e+3, 1.6159895e+2, -1025810.7, -1436029.5, 64503.332, -0.06602031, 0.22641942, -1015907.2, 340441.7, 0.0005021783, 10.003614, 9.998149 
2.735754e+3, 1.715961e+2, -965358.44, -1332968.9, 94817.64, -0.008791386, 0.18442614, -942343.1, 316034.06, 0.000054572123, 10.003264, 9.998348 
2.7356422e+3, 1.8159366e+2, -896003.4, -1209280.5, 91692.75, 0.012194434, 0.15865819, -871139.3, 289261.66, 0.0000011019603, 10.002895, 9.998704 
2.73553e+3, 1.9159237e+2, -837203.6, -1073843.8, 118686.29, -0.046056185, 0.19250245, -787934.7, 274477.75, 0.0, 10.002388, 9.999202 
2.7354184e+3, 2.0159097e+2, -848798.6, -1085413.8, 123097.96, -0.07045666, 0.21413475, -796373.1, 168052.25, 0.0, 10.001879, 9.998697 
2.7353075e+3, 2.1158868e+2, -815831.9, -1011564.56, 116200.33, 0.016669527, 0.18609951, -761776.1, 104672.47, 0.0, 10.001404, 9.998758 
2.7351964e+3, 2.2158672e+2, -772571.56, -906389.6, 98094.09, 0.06441226, 0.16827533, -720740.25, 47728.164, 0.0, 10.00088, 9.999062 
2.7350834e+3, 2.3158568e+2, -722021.44, -778398.75, 86625.31, -0.029468797, 0.1934898, -659113.75, 11364.372, 0.0, 10.000328, 9.999533 
2.734971e+3, 2.415847e+2, -695572.9, -703539.7, 91000.836, -0.09086313, 0.20322092, -608468.3, -35981.438, 0.0, 9.999785, 9.999636 
2.7348602e+3, 2.5158343e+2, -639240.2, -585702.0, 91020.734, -0.021471526, 0.15614162, -517595.6, -43097.785, 0.0, 9.999328, 9.999992 
2.7347487e+3, 2.6158234e+2, -644471.2, -584335.56, 84030.734, 0.018228984, 0.12614252, -525155.2, -148647.53, 0.0, 9.998819, 9.999576 
2.7346364e+3, 2.715816e+2, -630693.25, -510213.75, 45621.906, -0.048755676, 0.15821, -494887.72, -216371.11, 0.0, 9.998167, 9.999725 
2.7345237e+3, 2.8158113e+2, -576416.1, -356681.34, 31730.86, -0.055366855, 0.17882787, -352191.0, -171669.0, 0.0, 9.997534, 10.000415 
2.7344126e+3, 2.9158118e+2, -492564.94, -186134.63, 38824.953, 0.09396189, 0.15897505, -181292.0, -98773.21, 0.0, 9.997091, 10.001127 
2.7342996e+3, 3.0158123e+2, -489961.6, -225621.13, 61140.97, 0.063013144, 0.14377786, -212164.48, -212164.48, 0.0, 9.996831, 10.00031 
2.7341843e+3, 3.1158063e+2, -395305.03, -133021.8, 3661.6782, -0.16751406, 0.113492206, -132970.69, -132970.69, 0.0, 9.9970455, 10.000508 
2.734074e+3, 3.2158065e+2, -521528.7, -144882.36, -68356.28, 0.09378174, 0.15721168, -132860.33, -132860.33, 0.0, 9.995952, 10.000962 
2.74621e+3, 1.3172051e+2, -1070702.5, -1611212.6, 82887.27, -0.10202605, 0.18658532, -1058277.4, 590878.5, 0.0069112414, 10.0053625, 9.998129 
2.7460968e+3, 1.4171763e+2, -1105198.0, -1575375.4, 50274.234, -0.02326044, 0.15073305, -1099882.5, 451302.03, 0.0037063963, 10.004423, 9.998152 
2.745982e+3, 1.5171564e+2, -1027295.44, -1443147.0, 67661.77, -0.069838196, 0.18290167, -1016563.4, 436640.5, 0.0013807103, 10.004098, 9.998534 
2.7458683e+3, 1.6171364e+2, -995665.94, -1406963.4, 99065.89, -0.07223915, 0.20406324, -973048.5, 382174.88, 0.00030086673, 10.003765, 9.998273 
2.7457562e+3, 1.7171101e+2, -973606.7, -1326283.8, 140775.42, -0.027720245, 0.17669396, -924306.1, 332943.4, 0.00002933857, 10.003166, 9.998439 
2.7456442e+3, 1.8170868e+2, -939774.5, -1230966.3, 139044.44, -0.011794538, 0.15740564, -884045.94, 275226.53, 0.00000039166414, 10.002603, 9.9986925 
2.7455318e+3, 1.9170718e+2, -875733.4, -1100499.1, 129983.31, -0.05581935, 0.17988433, -816286.2, 244999.89, 0.0, 10.002166, 9.999124 
2.7454197e+3, 2.0170568e+2, -864422.44, -1087865.6, 111390.39, -0.067557395, 0.19418375, -818379.9, 144920.34, 0.0, 10.001756, 9.998737 
2.7453083e+3, 2.1170342e+2, -810330.6, -999776.4, 128910.95, 0.022934806, 0.16228424, -745083.3, 120239.31, 0.0, 10.001408, 9.998835 
2.7451968e+3, 2.2170144e+2, -758614.25, -908650.5, 127144.4, 0.074843645, 0.14289416, -686006.44, 81336.06, 0.0, 10.001021, 9.998975 
2.7450833e+3, 2.3170045e+2, -717770.2, -798613.6, 113415.52, -0.03280113, 0.19108823, -637788.44, 31564.684, 0.0, 10.00046, 9.999327 
2.7449703e+3, 2.4169949e+2, -680673.1, -703307.56, 118136.336, -0.10341098, 0.21944116, -573313.2, -1950.6112, 0.0, 9.999925, 9.999568 
2.7448592e+3, 2.5169802e+2, -608757.06, -571274.0, 110672.91, -0.014647043, 0.15706185, -477766.97, -4392.4536, 0.0, 9.999544, 9.999984 
2.7447474e+3, 2.6169673e+2, -604526.6, -570537.4, 102335.29, 0.04064076, 0.1095209, -483795.16, -108409.445, 0.0, 9.999123, 9.999521 
2.744634e+3, 2.716959e+2, -567858.6, -491009.44, 98786.23, -0.055370647, 0.14506613, -423437.97, -146042.4, 0.0, 9.998655, 9.999619 
2.7445206e+3, 2.816954e+2, -483673.13, -316200.34, 102247.945, -0.07662463, 0.17136045, -267776.13, -88374.51, 0.0, 9.998199, 10.000367 
2.7444097e+3, 2.9169536e+2, -384991.25, -136353.42, 46044.39, 0.12002978, 0.14420135, -128100.555, -46701.336, 0.0, 9.997846, 10.001103 
2.7442965e+3, 3.0169526e+2, -435975.56, -240312.61, 32532.916, 0.09963409, 0.1307568, -235045.16, -235045.16, 0.0, 9.99738, 9.999944 
2.7441797e+3, 3.116947e+2, -469604.3, -229805.25, 21284.564, -0.2672348, 0.15503949, -227930.69, -227930.69, 0.0, 9.996801, 9.999961 
2.7440706e+3, 3.2169417e+2, -443090.56, -79989.766, -72881.59, 0.219067, 0.17040312, -65907.16, -65907.16, 0.0, 9.996383, 10.001196 
2.756214e+3, 1.3183591e+2, -1117988.8, -1681392.5, 36421.402, -0.15674996, 0.14752379, -1115644.1, 532377.94, 0.00452623, 10.005232, 9.997706 
2.7561006e+3, 1.4183295e+2, -1120483.1, -1594269.1, 31157.973, -0.035670813, 0.13691258, -1118442.9, 431609.47, 0.0023405529, 10.004359, 9.9980545 
2.755986e+3, 1.5183054e+2, -1025189.7, -1438637.6, 58964.113, -0.058799077, 0.124827325, -1016944.9, 435130.75, 0.0008251364, 10.00409, 9.998572 
2.7558717e+3, 1.6182843e+2, -981270.6, -1380172.6, 80464.43, -0.05563192, 0.12493563, -965651.4, 388444.7, 0.0001665299, 10.003775, 9.998454 
2.7557585e+3, 1.718267e+2, -957248.06, -1293003.3, 115912.88, -0.06735169, 0.1654627, -921119.06, 334994.13, 0.000014111729, 10.003166, 9.998669 
2.7556455e+3, 1.8182485e+2, -963272.2, -1277557.0, 118349.555, -0.08215882, 0.1885531, -923690.56, 234441.23, 0.00000009505926, 10.002589, 9.998382 
2.7555332e+3, 1.9182223e+2, -915833.7, -1185143.1, 113906.13, -0.050627563, 0.1519729, -874118.06, 186039.56, 0.0, 10.002169, 9.998543 
2.755421e+3, 2.0181999e+2, -856865.7, -1072589.5, 98452.19, -0.022125201, 0.12778656, -818689.9, 143489.86, 0.0, 10.001754, 9.998845 
2.7553084e+3, 2.1181862e+2, -781153.75, -939440.9, 116594.57, -0.02986919, 0.14651172, -719378.94, 144813.47, 0.0, 10.001406, 9.999251 
2.755196e+3, 2.2181726e+2, -761057.56, -912705.75, 108145.2, -0.03241263, 0.16097398, -704803.4, 61402.19, 0.0, 10.001013, 9.998954 
2.755083e+3, 2.3181556e+2, -733782.8, -834315.56, 91467.07, -0.008195512, 0.16138743, -679680.0, -11456.432, 0.0, 10.000466, 9.999081 
2.7549708e+3, 2.4181412e+2, -692508.7, -728516.94, 101602.234, 0.008415657, 0.1623846, -607327.75, -37089.188, 0.0, 9.999923, 9.999398 
2.754858e+3, 2.5181308e+2, -618822.6, -593212.06, 96344.49, 0.0055130497, 0.15875022, -508825.6, -36579.043, 0.0, 9.999545, 9.999834 
2.7547455e+3, 2.6181218e+2, -581001.56, -527461.5, 85062.414, -0.00017847105, 0.15085475, -465056.16, -90802.44, 0.0, 9.999144, 9.999809 
2.7546322e+3, 2.7181134e+2, -532628.7, -423689.16, 81470.38, -0.008121467, 0.13788725, -380157.0, -103895.17, 0.0, 9.998674, 10.000074 
2.7545193e+3, 2.8181052e+2, -520887.5, -402476.7, 90114.664, 0.0036387895, 0.12340979, -353858.47, -175588.55, 0.0, 9.998233, 9.999762 
2.7544063e+3, 2.9180944e+2, -459839.53, -300039.1, 31695.953, 0.04073896, 0.100517, -293981.9, -213701.64, 0.0, 9.997878, 9.999964 
2.754292e+3, 3.0180883e+2, -443858.5, -261703.9, 6594.827, -0.037641827, 0.11213876, -261465.47, -261465.47, 0.0, 9.997398, 9.999789 
2.754177e+3, 3.1180924e+2, -455220.97, -191239.23, -5374.2207, -0.1608734, 0.21479799, -191129.86, -191129.86, 0.0, 9.996756, 10.000252 
2.7540657e+3, 3.218088e+2, -392239.63, 26366.375, 22830.338, 0.14691865, 0.1904684, 27607.838, 27607.838, 0.0, 9.996403, 10.0019045 
2.7662188e+3, 1.319515e+2, -1227908.1, -1693333.5, 15393.615, -0.1019552, 0.12744269, -1227399.5, 419489.38, 0.0027565248, 10.004285, 9.998084 
2.7661037e+3, 1.4194903e+2, -1187372.8, -1616396.9, 58010.645, -0.061591532, 0.13921624, -1179667.3, 369246.2, 0.0013662655, 10.003854, 9.998146 
2.7659887e+3, 1.5194647e+2, -1067734.9, -1466129.6, 91438.85, -0.08193715, 0.11846849, -1047750.5, 403187.66, 0.00045199547, 10.00383, 9.9985075 
2.765875e+3, 1.619442e+2, -998526.6, -1397916.6, 88317.59, -0.066210836, 0.11077447, -979868.5, 373092.0, 0.000082991, 10.0037, 9.998366 
2.765761e+3, 1.7194241e+2, -975095.3, -1312758.9, 97085.586, -0.06418424, 0.15550013, -949171.44, 305807.25, 0.000005757098, 10.0030985, 9.998563 
2.7656478e+3, 1.8194053e+2, -970525.44, -1280544.1, 99013.625, -0.06984921, 0.18287863, -941601.1, 215396.66, 0.00000000965895, 10.002547, 9.998378 
2.7655348e+3, 1.919379e+2, -911115.0, -1182467.1, 131654.11, -0.037768897, 0.14414355, -857738.7, 201284.84, 0.0, 10.002204, 9.998542 
2.7654225e+3, 2.0193559e+2, -843770.06, -1063209.9, 135780.3, -0.012474549, 0.11493043, -778919.8, 182126.17, 0.0, 10.001834, 9.998869 
2.7653092e+3, 2.1193425e+2, -794350.5, -943378.0, 128269.8, -0.05032655, 0.13515562, -720521.94, 142536.33, 0.0, 10.001309, 9.999269 
2.765196e+3, 2.2193293e+2, -782501.94, -926733.2, 103823.836, -0.07031597, 0.15491359, -728205.3, 36865.6, 0.0, 10.000889, 9.998914 
2.7650833e+3, 2.3193116e+2, -689789.1, -821812.2, 97254.984, -0.01303305, 0.15413864, -638258.94, 28831.072, 0.0, 10.000812, 9.998998 
2.7649704e+3, 2.4192958e+2, -598910.4, -682438.3, 112840.055, 0.030585939, 0.14888066, -520353.5, 48752.824, 0.0, 10.000567, 9.9994 
2.764857e+3, 2.5192857e+2, -580908.56, -574028.25, 116028.734, -0.001813099, 0.14452402, -461388.66, 9725.451, 0.0, 9.999809, 9.999836 
2.764744e+3, 2.6192766e+2, -577895.0, -525221.06, 110063.02, -0.023544893, 0.14066681, -438387.78, -65266.934, 0.0, 9.999171, 9.999806 
2.7646306e+3, 2.7192685e+2, -485262.97, -401237.25, 73371.75, 0.007072784, 0.12938085, -358701.34, -83572.57, 0.0, 9.999008, 10.000065 
2.7645174e+3, 2.8192592e+2, -469832.8, -411126.16, 64015.152, 0.037620362, 0.115375295, -370055.34, -192917.34, 0.0, 9.998732, 9.999459 
2.7644032e+3, 2.919245e+2, -448724.44, -346404.22, 51990.215, 0.012306234, 0.10425832, -324623.7, -245471.27, 0.0, 9.998187, 9.999493 
2.7642882e+3, 3.019236e+2, -407532.0, -242208.31, 59479.855, -0.08084582, 0.11942382, -223032.88, -223032.88, 0.0, 9.997652, 9.999795 
2.7641737e+3, 3.119239e+2, -384368.28, -134695.33, 42206.063, -0.08595757, 0.1932113, -127753.586, -127753.586, 0.0, 9.997157, 10.000442 
2.7640602e+3, 3.2192343e+2, -356631.44, 66338.195, 46444.79, 0.01599578, 0.15329213, 71378.08, 71378.08, 0.0, 9.996556, 10.002102 
2.7762234e+3, 1.3206735e+2, -1159930.4, -1564368.4, -4177.927, 0.010800737, 0.12158562, -1159887.3, 485867.25, 0.0015272094, 10.004338, 9.998941 
2.7761063e+3, 1.420657e+2, -1173569.8, -1591944.9, 49691.645, -0.10259683, 0.15325041, -1167748.8, 380020.03, 0.0007189832, 10.003869, 9.998306 
2.7759916e+3, 1.520632e+2, -1080604.0, -1490071.4, 90051.68, -0.12966743, 0.14644426, -1061674.6, 388118.84, 0.00022026579, 10.003812, 9.998355 
2.7758774e+3, 1.6206072e+2, -1025593.06, -1444298.9, 71015.87, -0.095863715, 0.13954028, -1013876.1, 337942.25, 0.000035434383, 10.0036545, 9.998073 
2.775764e+3, 1.7205822e+2, -999952.4, -1366319.3, 75424.23, -0.030365257, 0.14651127, -985032.3, 268812.3, 0.0000017161015, 10.003104, 9.998194 
2.77565e+3, 1.8205597e+2, -950291.8, -1245895.3, 85779.16, -0.0006344833, 0.15326846, -927203.44, 228664.19, 0.00000000000031198744, 10.002576, 9.998604 
2.7755365e+3, 1.9205417e+2, -878036.25, -1115966.8, 120096.0, -0.021791993, 0.15438692, -827957.75, 229925.97, 0.0, 10.00221, 9.998998 
2.7754232e+3, 2.0205235e+2, -852920.4, -1079607.5, 117168.71, -0.035368517, 0.14818814, -803244.75, 156655.61, 0.0, 10.00182, 9.998765 
2.7753097e+3, 2.1205027e+2, -818363.44, -995552.8, 107787.32, -0.041754983, 0.12617776, -767433.5, 94487.21, 0.0, 10.001317, 9.998908 
2.7751964e+3, 2.2204846e+2, -786847.44, -936368.9, 96346.67, -0.050567724, 0.12316287, -739658.0, 24280.787, 0.0, 10.000888, 9.998851 
2.775083e+3, 2.320472e+2, -685348.7, -814034.8, 95614.625, -0.050954845, 0.16768676, -634443.4, 31509.377, 0.0, 10.000814, 9.999052 
2.7749696e+3, 2.4204591e+2, -587268.7, -660789.7, 90900.41, -0.04600124, 0.18308973, -525977.06, 41988.55, 0.0, 10.000575, 9.999548 
2.774856e+3, 2.520444e+2, -569692.6, -552439.75, 85234.414, -0.03729543, 0.11432009, -475396.34, -5419.1455, 0.0, 9.999812, 9.999986 
2.7747422e+3, 2.6204312e+2, -602827.2, -578524.9, 97499.23, -0.03187945, 0.073705204, -492422.53, -120434.79, 0.0, 9.999174, 9.999442 
2.7746287e+3, 2.720423e+2, -525087.1, -485946.13, 66481.66, -0.018546226, 0.11910789, -436214.28, -162216.55, 0.0, 9.999015, 9.999481 
2.7745152e+3, 2.8204152e+2, -461221.47, -398083.66, 44305.047, 0.013161884, 0.15764304, -375250.97, -199244.36, 0.0, 9.99875, 9.999541 
2.774401e+3, 2.9204068e+2, -424509.16, -299754.0, 28252.707, 0.052536197, 0.16925184, -293654.0, -215639.5, 0.0, 9.998196, 9.999812 
2.774286e+3, 3.020397e+2, -391545.7, -218051.55, 43138.42, -0.007879381, 0.15443408, -207917.36, -207917.36, 0.0, 9.9976845, 9.9999485 
2.7741703e+3, 3.120383e+2, -378667.7, -129811.18, 26764.307, -0.07862268, 0.049808998, -126965.25, -126965.25, 0.0, 9.997185, 10.000463 
2.7740553e+3, 3.2203826e+2, -407620.66, -44818.71, -67903.72, -0.05727073, 0.08115064, -32526.037, -32526.037, 0.0, 9.996532, 10.001372 
2.7862272e+3, 1.321841e+2, -1115410.0, -1552772.1, 1510.3251, 0.014216394, 0.14494121, -1115404.8, 529206.1, 0.00074631994, 10.004679, 9.998859 
2.7861094e+3, 1.4218232e+2, -1174096.1, -1588674.4, 35059.297, -0.12978439, 0.1696214, -1171152.3, 375474.16, 0.00032933633, 10.00385, 9.998338 
2.7859947e+3, 1.5217963e+2, -1131703.0, -1507792.0, 92390.625, -0.12515572, 0.13802028, -1110232.0, 338420.38, 0.00009087811, 10.003439, 9.99841 
2.7858806e+3, 1.6217707e+2, -1092293.6, -1469977.1, 85560.945, -0.07130107, 0.118809186, -1073814.6, 276863.1, 0.000011753326, 10.003175, 9.998125 
2.7857664e+3, 1.721748e+2, -997446.3, -1361877.0, 111521.06, -0.034634586, 0.1443991, -966027.9, 286674.13, 0.00000025139548, 10.00311, 9.998221 
2.785652e+3, 1.8217264e+2, -902293.2, -1222868.6, 125179.76, -0.021256942, 0.16232139, -859204.1, 295519.97, 0.0, 10.002904, 9.998605 
2.7855384e+3, 1.9217074e+2, -872600.3, -1115120.4, 128541.18, -0.025130896, 0.15609929, -817149.2, 239591.97, 0.0, 10.002261, 9.998976 
2.7854246e+3, 2.0216885e+2, -868701.94, -1091353.6, 112303.586, -0.02706256, 0.14693354, -821896.4, 136862.03, 0.0, 10.00174, 9.998717 
2.7853107e+3, 2.121667e+2, -785995.9, -990772.25, 120275.13, -0.03747639, 0.12665582, -730430.1, 130349.52, 0.0, 10.001593, 9.998805 
2.785197e+3, 2.221648e+2, -720351.3, -897918.8, 120883.39, -0.04700752, 0.11913636, -659150.56, 103648.13, 0.0, 10.001321, 9.998904 
2.785083e+3, 2.3216352e+2, -704818.4, -811471.56, 123156.08, -0.059145324, 0.1545078, -623939.4, 40872.484, 0.0, 10.000634, 9.999153 
2.7849692e+3, 2.4216224e+2, -662683.56, -708168.75, 112703.555, -0.06318924, 0.16849014, -570450.9, -3626.5217, 0.0, 10.000112, 9.999442 
2.7848554e+3, 2.5216064e+2, -544188.2, -563214.5, 78826.64, -0.04735743, 0.11072311, -474302.72, -5464.8506, 0.0, 10.000092, 9.999774 
2.784741e+3, 2.6215923e+2, -506192.78, -541982.2, 81482.875, -0.03565602, 0.07584096, -440662.78, -69812.49, 0.0, 9.999885, 9.999349 
2.784627e+3, 2.7215835e+2, -501630.6, -480971.9, 87862.75, -0.036102895, 0.121131495, -402833.4, -129972.72, 0.0, 9.999211, 9.999416 
2.7845132e+3, 2.821576e+2, -466290.8, -392508.25, 92197.12, -0.004856964, 0.16219251, -330095.56, -155226.2, 0.0, 9.998692, 9.999602 
2.784399e+3, 2.921568e+2, -344514.56, -248975.16, 60725.164, 0.059208646, 0.17380384, -219482.39, -142606.5, 0.0, 9.9987, 9.999914 
2.7842835e+3, 3.0215576e+2, -289417.88, -172998.42, 48778.125, 0.013737973, 0.1485271, -155262.92, -155262.92, 0.0, 9.998408, 9.999907 
2.7841675e+3, 3.1215388e+2, -357097.06, -126751.586, 9969.827, -0.043841865, 0.0031635351, -126320.88, -126320.88, 0.0, 9.997374, 10.000388 
2.7840516e+3, 3.2215405e+2, -340565.78, -22974.992, -46974.234, -0.058982436, 0.06307165, -16172.814, -16172.814, 0.0, 9.997047, 10.00127 
2.7962306e+3, 1.323014e+2, -1185275.4, -1657513.3, -37669.5, -0.05225798, 0.18567851, -1182289.4, 461171.84, 0.0003091997, 10.004504, 9.998223 
2.7961123e+3, 1.4229901e+2, -1172517.9, -1590219.5, 18054.672, -0.14873394, 0.18785271, -1171739.0, 373745.38, 0.00012485002, 10.003869, 9.99832 
2.7959976e+3, 1.5229599e+2, -1109843.6, -1476183.8, 80556.7, -0.087425, 0.106366545, -1092912.1, 354600.3, 0.000029062048, 10.003494, 9.998602 
2.7958834e+3, 1.6229345e+2, -1068726.9, -1428441.3, 81003.91, -0.01763328, 0.06632707, -1051327.3, 298209.3, 0.0000024460635, 10.003204, 9.998397 
2.7957684e+3, 1.7229201e+2, -980893.6, -1322009.9, 108741.68, -0.07088214, 0.14753513, -949177.56, 302374.53, 0.0000000042322403, 10.003082, 9.99851 
2.7956536e+3, 1.8229029e+2, -924805.75, -1257500.3, 104396.0, -0.10972945, 0.1974152, -894760.75, 258809.22, 0.0, 10.002849, 9.998395 
2.7955398e+3, 1.9228758e+2, -901463.94, -1176113.9, 103294.73, -0.044181973, 0.14936395, -866951.94, 188644.16, 0.0, 10.002264, 9.998557 
2.795426e+3, 2.0228522e+2, -867078.25, -1091944.0, 102568.836, 0.00039432943, 0.11759005, -827322.06, 130296.91, 0.0, 10.001755, 9.998708 
2.7953118e+3, 2.1228357e+2, -776862.5, -972989.56, 116441.414, -0.038887523, 0.13700396, -722692.44, 136942.39, 0.0, 10.001595, 9.998928 
2.7951974e+3, 2.2228193e+2, -713278.75, -880026.7, 100917.89, -0.06459299, 0.14435597, -665749.56, 95900.945, 0.0, 10.001304, 9.999037 
2.7950832e+3, 2.3228014e+2, -695888.0, -793970.56, 96688.31, -0.03855614, 0.115553856, -636514.9, 27152.428, 0.0, 10.000635, 9.999275 
2.794969e+3, 2.4227853e+2, -691116.5, -767587.6, 105329.15, -0.0227153, 0.10354666, -617297.7, -51614.8, 0.0, 10.00011, 9.999038 
2.7948546e+3, 2.5227723e+2, -586652.94, -653325.25, 78135.94, -0.032892525, 0.13465069, -535038.94, -67342.24, 0.0, 10.000098, 9.999153 
2.7947402e+3, 2.6227605e+2, -486874.06, -508557.94, 60660.633, -0.043541443, 0.15374383, -436094.1, -66385.5, 0.0, 9.99991, 9.999567 
2.7946255e+3, 2.7227506e+2, -464991.22, -406599.5, 59696.266, -0.045893446, 0.1369784, -369342.06, -97624.71, 0.0, 9.999213, 9.999929 
2.794511e+3, 2.8227398e+2, -467000.6, -395441.34, 87423.125, -0.02364404, 0.11916255, -336759.44, -163032.97, 0.0, 9.998694, 9.999583 
2.794397e+3, 2.9227275e+2, -354707.47, -276326.94, 62357.3, 0.019519955, 0.10128109, -241867.3, -166129.16, 0.0, 9.998725, 9.999716 
2.794281e+3, 3.022717e+2, -309442.2, -218133.95, 16069.5, -0.024560915, 0.09593214, -215388.4, -215388.4, 0.0, 9.998421, 9.999592 
2.7941647e+3, 3.1227088e+2, -381782.34, -174499.16, -37038.6, 0.02074699, 0.09554984, -168079.69, -168079.69, 0.0, 9.997351, 10.000075 
2.794048e+3, 3.2227075e+2, -283575.8, 82826.54, 48133.05, -0.058777247, 0.114958405, 89044.11, 89044.11, 0.0, 9.997119, 10.001953 
2.8062338e+3, 1.324182e+2, -1335903.6, -1710959.8, -14676.709, -0.0774678, 0.1482206, -1335330.1, 306985.03, 0.00010249549, 10.003387, 9.998395 
2.806116e+3, 1.4241584e+2, -1186421.0, -1596506.3, 59876.816, -0.11271239, 0.14701934, -1177857.1, 366481.0, 0.000035755456, 10.003772, 9.998324 
2.8060007e+3, 1.5241325e+2, -1091188.0, -1473489.9, 105004.23, -0.07486165, 0.11499257, -1064245.9, 382117.03, 0.0000060332013, 10.003654, 9.998543 
2.8058863e+3, 1.6241094e+2, -1039016.25, -1405136.3, 84045.91, -0.024611041, 0.10118272, -1020644.7, 327740.5, 0.00000016363987, 10.00337, 9.998477 
2.8057706e+3, 1.7240927e+2, -1035725.75, -1335606.4, 101292.68, -0.08485772, 0.14842877, -1004717.7, 245684.5, 0.0, 10.002658, 9.998619 
2.8056553e+3, 1.8240738e+2, -1023273.44, -1305693.3, 102268.445, -0.12557732, 0.17504223, -990130.06, 162291.25, 0.0, 10.002188, 9.998377 
2.8055412e+3, 1.9240466e+2, -898646.7, -1186560.0, 120645.99, -0.048009466, 0.13367069, -854776.4, 199672.2, 0.0, 10.002337, 9.998448 
2.8054276e+3, 2.0240234e+2, -786664.25, -1044137.44, 126798.836, 0.00803415, 0.11255791, -734704.8, 221766.73, 0.0, 10.002265, 9.998792 
2.8053126e+3, 2.1240105e+2, -775284.5, -955659.75, 139078.48, -0.038103398, 0.15311445, -699711.4, 158772.45, 0.0, 10.001537, 9.999072 
2.805198e+3, 2.2239956e+2, -760064.2, -904180.2, 122809.88, -0.06887462, 0.16840747, -689733.2, 70764.46, 0.0, 10.000997, 9.999015 
2.8050834e+3, 2.3239736e+2, -650545.0, -783001.3, 103541.39, -0.0377843, 0.10934199, -593862.7, 68655.62, 0.0, 10.001, 9.999171 
2.804969e+3, 2.423955e+2, -589948.0, -727495.44, 113017.21, -0.013024821, 0.081534594, -526423.9, 38112.62, 0.0, 10.000847, 9.998956 
2.8048542e+3, 2.5239444e+2, -567484.5, -654769.3, 123920.3, -0.026336573, 0.14384058, -479746.16, -13197.174, 0.0, 10.000281, 9.999053 
2.8047395e+3, 2.623934e+2, -502944.9, -511677.88, 118503.88, -0.039336473, 0.18197095, -388727.1, -20167.027, 0.0, 9.999787, 9.999601 
2.804624e+3, 2.7239215e+2, -408557.25, -372306.38, 81678.945, -0.045154132, 0.14167462, -306765.94, -36196.305, 0.0, 9.999572, 9.99999 
2.8045094e+3, 2.823909e+2, -394149.53, -370113.3, 92515.766, -0.029512428, 0.101951, -288838.34, -116258.09, 0.0, 9.999234, 9.999497 
2.8043947e+3, 2.9238945e+2, -375750.03, -301885.6, 72639.11, 0.00017671984, 0.07994976, -257328.97, -182734.77, 0.0, 9.998651, 9.999575 
2.8042784e+3, 3.0238843e+2, -352031.9, -249479.89, 21223.482, -0.03767695, 0.089669056, -245261.16, -245261.16, 0.0, 9.998181, 9.999489 
2.8041622e+3, 3.123881e+2, -285889.63, -142189.08, -14623.683, 0.049881153, 0.14822346, -140716.0, -140716.0, 0.0, 9.99807, 9.999949 
2.8040442e+3, 3.2238784e+2, -256059.47, 98799.48, 85854.336, -0.08693496, 0.16125676, 118479.58, 118479.58, 0.0, 9.997301, 10.001972 
2.8162363e+3, 1.3253479e+2, -1281466.6, -1613584.0, 3168.0117, -0.084634975, 0.06324523, -1281436.4, 359733.28, 0.000024203617, 10.00346, 9.999025 
2.8161195e+3, 1.4253287e+2, -1191063.3, -1604351.9, 56230.383, -0.047396034, 0.067888945, -1183549.4, 359638.75, 0.000006462912, 10.003764, 9.998274 
2.8160036e+3, 1.5253122e+2, -1117766.0, -1518090.0, 96340.766, -0.08272965, 0.15347217, -1095787.5, 349418.72, 0.00000052844416, 10.003603, 9.998263 
2.8158885e+3, 1.6252933e+2, -1049199.8, -1415644.1, 60264.816, -0.072944984, 0.19800384, -1039543.1, 307682.94, 0.0000000005064632, 10.003322, 9.99843 
2.8157726e+3, 1.7252666e+2, -1031523.2, -1333663.6, 74113.555, -0.08394183, 0.14614818, -1014322.7, 234928.84, 0.0, 10.002685, 9.99862 
2.815657e+3, 1.8252417e+2, -1009803.75, -1287925.6, 101249.01, -0.09469442, 0.10942138, -976849.25, 174426.58, 0.0, 10.00223, 9.998481 
2.815543e+3, 1.9252202e+2, -891999.8, -1170222.1, 128140.02, -0.042345073, 0.1121505, -841976.7, 211321.55, 0.0, 10.002324, 9.998569 
2.815429e+3, 2.025202e+2, -783933.25, -1027352.06, 106997.78, -0.0044288225, 0.1283267, -743588.06, 211728.77, 0.0, 10.002215, 9.998933 
2.8153133e+3, 2.125191e+2, -767419.6, -937363.8, 110188.98, -0.03610239, 0.17349906, -713244.8, 144082.17, 0.0, 10.001527, 9.999205 
2.8151983e+3, 2.2251762e+2, -775058.25, -933775.1, 115923.02, -0.06500575, 0.19018033, -713932.1, 45408.613, 0.0, 10.000988, 9.998817 
2.8150836e+3, 2.3251517e+2, -672842.75, -830808.56, 104609.914, -0.058594428, 0.1347462, -620747.3, 40617.848, 0.0, 10.001004, 9.998842 
2.8149688e+3, 2.4251316e+2, -569977.1, -689030.0, 96511.89, -0.04552979, 0.10394212, -516110.72, 47274.313, 0.0, 10.000856, 9.999216 
2.814854e+3, 2.5251222e+2, -536343.56, -591221.8, 101355.59, -0.029015245, 0.13783862, -458778.56, 6615.7183, 0.0, 10.000281, 9.999492 
2.8147388e+3, 2.6251116e+2, -519499.34, -546295.9, 108051.84, -0.024175057, 0.15749714, -424018.25, -56613.996, 0.0, 9.999785, 9.999367 
2.8146234e+3, 2.7250966e+2, -440506.0, -441645.7, 74328.19, -0.03357419, 0.13464536, -366745.47, -97327.73, 0.0, 9.999583, 9.99951 
2.8145078e+3, 2.825083e+2, -399978.28, -388496.2, 71851.89, -0.022729041, 0.118226066, -322156.38, -150725.69, 0.0, 9.999259, 9.999361 
2.8143924e+3, 2.9250708e+2, -384037.94, -315329.28, 47051.41, 0.005213947, 0.12347806, -291425.1, -217981.7, 0.0, 9.998629, 9.9994955 
2.814276e+3, 3.0250606e+2, -341033.5, -223368.67, 14773.615, -0.03557412, 0.1361288, -221542.11, -221542.11, 0.0, 9.998164, 9.999679 
2.814159e+3, 3.1250554e+2, -262136.63, -109066.5, -12319.038, 0.030614452, 0.15335566, -108081.41, -108081.41, 0.0, 9.998136, 10.000147 
2.8140408e+3, 3.2250503e+2, -326065.5, -40493.19, -7972.135, -0.09063038, 0.16499402, -40270.813, -40270.813, 0.0, 9.997262, 10.00104 
2.826239e+3, 1.326523e+2, -1266569.4, -1621940.3, 14606.13, -0.096447535, 0.08958492, -1265970.0, 374048.0, 0.0000033294093, 10.003625, 9.998891 
2.826123e+3, 1.4265004e+2, -1185107.5, -1590796.9, 16203.063, -0.017484738, 0.065663315, -1184461.4, 357578.7, 0.00000050691085, 10.003761, 9.998367 
2.826006e+3, 1.5264845e+2, -1184348.4, -1533586.6, 72908.39, -0.091587655, 0.1411744, -1169738.9, 274318.22, 0.0000000023756648, 10.00308, 9.9984045 
2.8258905e+3, 1.6264662e+2, -1136027.9, -1440262.9, 61377.832, -0.10237152, 0.17928581, -1124111.9, 221963.92, 0.0, 10.002657, 9.998578 
2.8257746e+3, 1.7264402e+2, -1005288.0, -1308580.3, 81792.72, -0.07931353, 0.11990557, -984636.1, 263464.7, 0.0, 10.002812, 9.998731 
2.8256592e+3, 1.8264171e+2, -928672.44, -1233501.4, 108434.97, -0.071032055, 0.090151094, -894035.25, 256088.28, 0.0, 10.002718, 9.998621 
2.8255445e+3, 1.9264016e+2, -937237.5, -1176109.0, 135868.28, -0.048368894, 0.13834995, -875772.5, 176368.38, 0.0, 10.00195, 9.998706 
2.8254297e+3, 2.0263861e+2, -898340.25, -1073324.4, 114339.7, -0.027330795, 0.17129861, -841858.6, 112298.445, 0.0, 10.001402, 9.999002 
2.825314e+3, 2.1263698e+2, -784212.7, -943749.2, 109196.25, -0.03742028, 0.16323176, -728752.25, 127419.445, 0.0, 10.0014105, 9.999213 
2.825199e+3, 2.2263528e+2, -727080.4, -905174.56, 120072.164, -0.050118774, 0.15444107, -666639.3, 91548.31, 0.0, 10.001296, 9.998864 
2.8250837e+3, 2.3263331e+2, -696306.3, -837229.7, 134664.52, -0.06374033, 0.14211476, -614783.2, 45424.766, 0.0, 10.000826, 9.998882 
2.8249687e+3, 2.4263158e+2, -622926.2, -699589.0, 134344.9, -0.059731383, 0.13615836, -521551.28, 40673.73, 0.0, 10.000433, 9.999346 
2.8248537e+3, 2.5263053e+2, -526909.94, -569845.06, 115235.1, -0.022002922, 0.1444419, -431159.8, 33074.676, 0.0, 10.0002775, 9.999639 
2.8247383e+3, 2.626293e+2, -488683.84, -551061.75, 115222.96, -0.004699757, 0.14554209, -400503.28, -34257.605, 0.0, 10.000081, 9.999191 
2.8246224e+3, 2.7262762e+2, -425000.6, -466730.56, 96214.53, -0.033887833, 0.1298225, -347414.66, -79152.44, 0.0, 9.999834, 9.999215 
2.8245065e+3, 2.8262615e+2, -373640.4, -372725.88, 93742.8, -0.020180682, 0.1247489, -279439.22, -109162.664, 0.0, 9.999436, 9.99938 
2.8243908e+3, 2.9262513e+2, -356173.97, -294066.66, 77260.89, 0.04409525, 0.14123227, -241852.22, -169565.06, 0.0, 9.998791, 9.999562 
2.8242737e+3, 3.026241e+2, -311199.0, -204547.53, 68352.17, -0.012749342, 0.15206784, -171180.39, -171180.39, 0.0, 9.998348, 9.999721 
2.824156e+3, 3.1262335e+2, -220852.84, -88667.89, 26365.06, -0.061352942, 0.14155045, -83603.27, -83603.27, 0.0, 9.998421, 10.000148 
2.8240383e+3, 3.226222e+2, -207590.53, -59601.633, -17386.508, -0.027876344, 0.12081716, -57586.418, -57586.418, 0.0, 9.998415, 10.000348 
2.836242e+3, 1.3277043e+2, -1307452.0, -1705052.9, 31117.06, -0.1071867, 0.18801232, -1305031.5, 333830.44, 0.00000016214108, 10.003621, 9.998321 
2.836126e+3, 1.4276746e+2, -1176957.4, -1561886.8, 3108.7202, -0.022211397, 0.11652738, -1176932.4, 363959.34, 0.0000000020979667, 10.003709, 9.998591 
2.8360087e+3, 1.5276526e+2, -1154669.0, -1472065.9, 49414.91, -0.11088759, 0.09109707, -1147153.6, 295758.47, 0.0, 10.0030775, 9.998831 
2.835892e+3, 1.6276325e+2, -1119896.0, -1407177.6, 61725.42, -0.123472095, 0.07620009, -1107195.1, 237736.02, 0.0, 10.002656, 9.998807 
2.8357768e+3, 1.7276143e+2, -1001117.8, -1290247.4, 89193.2, -0.07109328, 0.07861461, -975816.75, 271132.56, 0.0, 10.0027685, 9.998879 
2.8356615e+3, 1.8275988e+2, -926917.75, -1214583.5, 86802.63, -0.05296143, 0.11009385, -902754.8, 246210.52, 0.0, 10.00265, 9.998784 
2.8355455e+3, 1.9275895e+2, -928005.56, -1154011.3, 106221.234, -0.06678646, 0.20319946, -885919.4, 165057.84, 0.0, 10.001935, 9.998865 
2.8354302e+3, 2.0275748e+2, -899767.44, -1076627.3, 108504.06, -0.06536908, 0.23411149, -848222.4, 104770.51, 0.0, 10.0014, 9.998981 
2.835315e+3, 2.1275474e+2, -790792.94, -958566.06, 111274.35, -0.043128844, 0.12405953, -735327.7, 119690.08, 0.0, 10.001412, 9.999113 
2.8351998e+3, 2.2275262e+2, -709116.7, -865500.1, 107336.305, -0.035354145, 0.066689655, -654511.44, 102526.08, 0.0, 10.001284, 9.999144 
2.835084e+3, 2.3275179e+2, -670669.56, -783324.5, 116549.36, -0.055231098, 0.13418224, -597550.0, 61496.43, 0.0, 10.00082, 9.999257 
2.8349686e+3, 2.4275081e+2, -627490.56, -708139.3, 125773.68, -0.055608783, 0.17900178, -535735.1, 25321.256, 0.0, 10.000426, 9.999291 
2.8348532e+3, 2.5274932e+2, -539796.75, -598093.94, 109302.2, -0.0066274786, 0.1639502, -455823.25, 7246.705, 0.0, 10.000281, 9.999443 
2.834738e+3, 2.6274776e+2, -490971.1, -561931.7, 105206.69, 0.00731929, 0.14717753, -415423.03, -50338.332, 0.0, 10.000105, 9.999107 
2.8346214e+3, 2.7274597e+2, -428873.8, -477467.38, 85462.81, -0.05032729, 0.12765102, -364321.16, -97218.12, 0.0, 9.999842, 9.999141 
2.834505e+3, 2.827445e+2, -358088.6, -342609.38, 72656.54, -0.030079713, 0.11675948, -277281.38, -108163.68, 0.0, 9.999443, 9.999585 
2.8343898e+3, 2.9274365e+2, -340010.97, -259249.25, 54433.207, 0.12460869, 0.1268239, -231854.1, -160729.31, 0.0, 9.998784, 9.999805 
2.834272e+3, 3.0274272e+2, -323564.56, -228475.13, 68436.8, 0.040842135, 0.13415357, -192688.61, -192688.61, 0.0, 9.998338, 9.999563 
2.8341517e+3, 3.1274143e+2, -242471.8, -135044.08, 30288.217, -0.26707533, 0.101615354, -127093.08, -127093.08, 0.0, 9.998423, 9.999832 
2.8340375e+3, 3.227398e+2, -226267.56, -117163.38, -858.4628, 0.10878811, 0.06512987, -117156.625, -117156.625, 0.0, 9.998501, 9.999909 
2.846245e+3, 1.3288772e+2, -1321799.8, -1710511.5, 45123.316, -0.09128786, 0.1795946, -1316630.4, 321082.34, 0.00000000032983427, 10.00351, 9.998338 
2.8461283e+3, 1.4288506e+2, -1247880.3, -1564224.0, 22490.549, -0.038074862, 0.12859772, -1246289.4, 293450.5, 0.0, 10.003083, 9.998877 
2.8460106e+3, 1.5288313e+2, -1182046.6, -1451046.1, 61400.04, -0.10070187, 0.09862711, -1168694.5, 273062.94, 0.0, 10.002745, 9.999135 
2.8458944e+3, 1.6288133e+2, -1140187.0, -1397890.9, 78095.67, -0.096886285, 0.08084031, -1118367.9, 225406.31, 0.0, 10.002437, 9.998976 
2.8457785e+3, 1.7287974e+2, -1093287.4, -1320263.1, 108113.12, -0.06743215, 0.09516055, -1050033.6, 195756.33, 0.0, 10.002079, 9.9990015 
2.8456625e+3, 1.8287835e+2, -1039974.1, -1247739.6, 97232.65, -0.06371377, 0.12511504, -1001569.1, 146235.55, 0.0, 10.00179, 9.998966 
2.8455466e+3, 1.9287723e+2, -959219.06, -1150067.9, 112684.35, -0.069475, 0.1851816, -906983.1, 142834.42, 0.0, 10.001642, 9.999033 
2.845431e+3, 2.0287578e+2, -875147.2, -1048620.3, 129849.05, -0.059848297, 0.20263217, -805729.94, 146102.86, 0.0, 10.001498, 9.999128 
2.8453156e+3, 2.128734e+2, -796650.56, -947693.2, 149636.38, -0.040616244, 0.11584505, -704557.7, 149296.8, 0.0, 10.001316, 9.999233 
2.8452003e+3, 2.2287151e+2, -724915.75, -860192.6, 142189.89, -0.034091912, 0.07314506, -635096.5, 120775.59, 0.0, 10.001124, 9.999254 
2.8450844e+3, 2.3287076e+2, -649007.75, -761906.06, 128092.32, -0.048868358, 0.13871878, -565477.8, 92402.38, 0.0, 10.000926, 9.999351 
2.8449684e+3, 2.4286976e+2, -592545.94, -696855.25, 130196.92, -0.044520747, 0.17873906, -504446.0, 55444.293, 0.0, 10.000694, 9.999238 
2.844853e+3, 2.5286806e+2, -525781.4, -604849.06, 119934.67, -0.009769224, 0.14958099, -439032.8, 22873.64, 0.0, 10.000439, 9.99932 
2.8447372e+3, 2.6286644e+2, -495933.56, -559699.2, 116534.766, 0.0013028615, 0.13288145, -406998.88, -43076.75, 0.0, 10.000057, 9.999143 
2.8446203e+3, 2.72865e+2, -468826.97, -487497.84, 105948.516, -0.04284347, 0.14281175, -371803.4, -105866.09, 0.0, 9.99953, 9.999222 
2.8445038e+3, 2.8286362e+2, -398796.94, -359217.2, 94891.875, -0.016332211, 0.14031705, -282073.53, -114122.76, 0.0, 9.9991455, 9.999618 
2.8443882e+3, 2.9286245e+2, -289505.2, -233790.3, 57028.53, 0.13340719, 0.1186665, -198178.92, -128218.625, 0.0, 9.999127, 9.999814 
2.84427e+3, 3.0286142e+2, -236800.63, -188440.23, 68656.79, 0.054770943, 0.1142674, -139830.06, -139830.06, 0.0, 9.998953, 9.9995365 
2.8441495e+3, 3.128603e+2, -234935.9, -140449.4, 51672.285, -0.25697902, 0.10782473, -117678.734, -117678.734, 0.0, 9.998525, 9.999742 
2.8440356e+3, 3.2285875e+2, -253864.78, -121123.195, 34939.863, 0.13601828, 0.08084731, -112488.15, -112488.15, 0.0, 9.998271, 9.999994 
2.8562477e+3, 1.3300456e+2, -1301251.0, -1659259.4, 30496.49, -0.082112625, 0.103845, -1298671.8, 337895.2, 0.0, 10.003477, 9.998703 
2.8561306e+3, 1.4300287e+2, -1238742.8, -1528097.3, 11521.272, -0.05595896, 0.11684519, -1238284.8, 300300.16, 0.0, 10.00301, 9.99916 
2.8560132e+3, 1.5300183e+2, -1168616.9, -1421407.9, 51347.637, -0.06309154, 0.15131901, -1158585.1, 282010.16, 0.0, 10.002733, 9.999345 
2.8558964e+3, 1.6300055e+2, -1129517.0, -1376643.0, 66635.164, -0.039981622, 0.16750036, -1112694.6, 229912.88, 0.0, 10.002439, 9.999122 
2.8557798e+3, 1.729988e+2, -1082891.1, -1301258.8, 96630.414, -0.07539186, 0.151261, -1046271.8, 198352.53, 0.0, 10.002089, 9.999128 
2.8556633e+3, 1.82997e+2, -1028622.56, -1225127.4, 91748.81, -0.10346684, 0.12936185, -992445.1, 154196.77, 0.0, 10.001792, 9.999122 
2.8555477e+3, 1.9299513e+2, -948678.2, -1129059.4, 108877.06, -0.05892038, 0.098202504, -897487.9, 151172.89, 0.0, 10.001642, 9.999179 
2.855432e+3, 2.0299366e+2, -857756.06, -1008328.75, 123880.28, -0.02304045, 0.094353914, -788079.1, 162596.33, 0.0, 10.001479, 9.999415 
2.8553164e+3, 2.1299292e+2, -776986.1, -904539.25, 142566.63, -0.032799777, 0.13899483, -684581.06, 168101.27, 0.0, 10.001305, 9.999536 
2.8552008e+3, 2.2299185e+2, -733895.8, -874253.3, 134275.03, -0.046016626, 0.16443694, -652566.0, 102126.6, 0.0, 10.001102, 9.999169 
2.8550845e+3, 2.3299016e+2, -662377.25, -790800.8, 120306.89, -0.046689965, 0.1530099, -590218.56, 66491.336, 0.0, 10.000928, 9.999153 
2.8549686e+3, 2.4298844e+2, -593253.4, -702713.75, 120516.93, -0.04318226, 0.13455442, -515621.47, 43105.543, 0.0, 10.0007105, 9.999191 
2.8548527e+3, 2.529866e+2, -527748.4, -609855.94, 108705.04, -0.035581816, 0.09907924, -452603.2, 8141.063, 0.0, 10.00044, 9.999287 
2.8547364e+3, 2.6298523e+2, -484020.88, -535890.25, 97605.6, -0.025335025, 0.10061882, -408963.2, -46205.316, 0.0, 10.000058, 9.999307 
2.8546196e+3, 2.7298468e+2, -456074.97, -457885.88, 86054.66, -0.006791138, 0.17941935, -370921.0, -106156.69, 0.0, 9.999514, 9.999434 
2.8545028e+3, 2.8298366e+2, -414341.72, -389506.84, 90169.95, 0.019434415, 0.20463625, -310903.34, -144128.52, 0.0, 9.999134, 9.999416 
2.8543857e+3, 2.9298154e+2, -310226.28, -280046.28, 56322.883, 0.043703504, 0.11770006, -236826.97, -168032.44, 0.0, 9.999139, 9.999493 
2.854268e+3, 3.029801e+2, -218368.55, -161610.2, 51579.113, 0.0031884448, 0.08886795, -131118.48, -131118.48, 0.0, 9.9990015, 9.999699 
2.8541505e+3, 3.1298015e+2, -221459.48, -110383.336, 33776.09, 0.06721033, 0.17183265, -100919.086, -100919.086, 0.0, 9.998515, 9.999954 
2.8540313e+3, 3.2297906e+2, -209981.08, -19815.18, 16384.676, -0.04971163, 0.15466022, -18413.805, -18413.805, 0.0, 9.998211, 10.000727 
2.8662506e+3, 1.3312282e+2, -1322450.8, -1629889.4, 33909.95, -0.06489364, 0.09286078, -1318754.9, 316653.16, 0.0, 10.003155, 9.9990635 
2.8661323e+3, 1.4312142e+2, -1349053.4, -1563953.3, 46527.477, -0.086068004, 0.107471325, -1339412.4, 198009.83, 0.0, 10.002177, 9.999313 
2.866015e+3, 1.5312055e+2, -1221101.9, -1436776.3, 87066.484, -0.060447544, 0.15210755, -1190340.9, 249090.86, 0.0, 10.002336, 9.999428 
2.8658983e+3, 1.6311947e+2, -1128414.3, -1353638.3, 88039.01, -0.01822272, 0.17481868, -1098084.6, 243358.3, 0.0, 10.002353, 9.999318 
2.8657812e+3, 1.7311786e+2, -1081263.8, -1277288.8, 118653.195, -0.065914385, 0.15419345, -1025376.8, 218080.98, 0.0, 10.002002, 9.999334 
2.8656647e+3, 1.8311615e+2, -1032529.5, -1214592.9, 120898.22, -0.101072885, 0.12593335, -972223.3, 173250.61, 0.0, 10.001711, 9.999234 
2.8655487e+3, 1.9311422e+2, -961211.5, -1126139.0, 135655.38, -0.055884864, 0.081849806, -884921.8, 162571.13, 0.0, 10.001521, 9.999256 
2.8654328e+3, 2.0311283e+2, -878518.7, -1007207.2, 141287.16, -0.021148229, 0.07615462, -787613.94, 161892.94, 0.0, 10.001294, 9.999509 
2.865317e+3, 2.1311244e+2, -819284.06, -915921.3, 142033.3, -0.035441883, 0.1500078, -717575.56, 133935.33, 0.0, 10.000979, 9.999612 
2.865201e+3, 2.2311157e+2, -776195.4, -890083.8, 134314.44, -0.04422365, 0.18874831, -687252.6, 66267.03, 0.0, 10.000795, 9.9992075 
2.8650847e+3, 2.3310958e+2, -672606.56, -794802.75, 136113.81, -0.039437417, 0.14577323, -584507.0, 71032.66, 0.0, 10.000856, 9.999159 
2.8649685e+3, 2.4310775e+2, -583455.5, -689507.9, 140077.89, -0.037958268, 0.11535426, -486703.2, 70854.55, 0.0, 10.000746, 9.999263 
2.864852e+3, 2.5310633e+2, -541117.25, -608618.0, 131269.28, -0.047348835, 0.11107896, -439329.03, 20242.791, 0.0, 10.0003195, 9.9993515 
2.8647354e+3, 2.631051e+2, -484546.22, -526103.3, 124770.21, -0.036942806, 0.12231662, -378836.22, -17252.242, 0.0, 10.000011, 9.999396 
2.864619e+3, 2.731043e+2, -377232.38, -411902.53, 102469.56, 0.009340632, 0.17024937, -290641.94, -27049.896, 0.0, 10.000023, 9.999504 
2.8645018e+3, 2.8310323e+2, -328495.53, -348587.4, 103483.125, 0.042318445, 0.18846665, -234571.88, -68969.29, 0.0, 9.999735, 9.999404 
2.8643838e+3, 2.9310134e+2, -324772.25, -290861.7, 95737.48, 0.0052749785, 0.12998538, -210589.67, -142969.44, 0.0, 9.999062, 9.9994545 
2.8642657e+3, 3.0309984e+2, -254919.89, -182524.06, 103836.55, -0.032113828, 0.10032472, -108756.9, -108756.9, 0.0, 9.998765, 9.999672 
2.8641498e+3, 3.1309935e+2, -118628.445, -66951.19, 65305.523, 0.19908097, 0.1348752, -22558.441, -22558.441, 0.0, 9.999252, 9.999898 
2.8640285e+3, 3.2309854e+2, -81542.77, 11560.43, -378.9447, -0.12936452, 0.15156406, 11561.972, 11561.972, 0.0, 9.999237, 10.0004425 
2.876253e+3, 1.3324209e+2, -1294614.5, -1570491.4, -21321.805, -0.040951494, 0.12754056, -1292976.4, 341263.4, 0.0, 10.003153, 9.999469 
2.8761333e+3, 1.432405e+2, -1340878.4, -1551889.8, 46449.176, -0.13545941, 0.097107634, -1331106.3, 205147.14, 0.0, 10.002199, 9.999386 
2.8760165e+3, 1.5323934e+2, -1226043.5, -1441713.4, 97304.12, -0.09164175, 0.11151563, -1188632.3, 249634.83, 0.0, 10.00231, 9.999408 
2.8759003e+3, 1.6323817e+2, -1122586.8, -1329450.0, 80237.81, -0.02584511, 0.12179235, -1095113.0, 245166.38, 0.0, 10.002298, 9.999511 
2.8757828e+3, 1.7323701e+2, -1067356.0, -1244756.9, 105980.09, -0.04095477, 0.121334106, -1017855.4, 224434.36, 0.0, 10.001983, 9.999568 
2.8756657e+3, 1.8323578e+2, -1029268.2, -1205192.0, 112127.055, -0.067318715, 0.12307598, -974717.75, 169583.4, 0.0, 10.0016985, 9.999305 
2.8755492e+3, 1.9323434e+2, -959424.3, -1121923.1, 128761.14, -0.06266757, 0.12394349, -888421.0, 157894.66, 0.0, 10.001517, 9.999287 
2.875433e+3, 2.0323303e+2, -887503.8, -1022881.5, 130650.625, -0.053368215, 0.12905185, -808048.6, 140280.42, 0.0, 10.001279, 9.999409 
2.875317e+3, 2.1323197e+2, -828320.3, -936170.2, 130855.54, -0.04919359, 0.14757623, -740714.1, 109625.984, 0.0, 10.000982, 9.999474 
2.8752008e+3, 2.2323072e+2, -766103.56, -867418.25, 134491.94, -0.04299115, 0.1505584, -673045.06, 79307.63, 0.0, 10.000787, 9.999369 
2.8750852e+3, 2.3322904e+2, -658271.4, -764399.25, 138734.13, -0.02786095, 0.11778345, -562799.3, 91569.91, 0.0, 10.000854, 9.99937 
2.8749686e+3, 2.4322774e+2, -571677.75, -664954.5, 127332.65, -0.026129898, 0.12048663, -482711.03, 73671.28, 0.0, 10.000744, 9.9994335 
2.8748518e+3, 2.532272e+2, -532153.7, -591113.6, 114405.805, -0.04674186, 0.1915691, -443490.72, 14897.783, 0.0, 10.000321, 9.999472 
2.8747347e+3, 2.6322603e+2, -483280.28, -527958.1, 122286.375, -0.048187457, 0.20442057, -381309.16, -20909.277, 0.0, 10.000029, 9.999376 
2.874618e+3, 2.7322373e+2, -380606.63, -423188.53, 102035.055, -0.0026266305, 0.10425959, -297664.88, -35243.344, 0.0, 10.00004, 9.999418 
2.8745008e+3, 2.832222e+2, -303838.13, -308101.53, 79235.15, 0.038802158, 0.07209772, -226706.0, -62270.67, 0.0, 9.999777, 9.999663 
2.8743824e+3, 2.932221e+2, -303666.06, -246041.19, 73552.65, 0.032624587, 0.16174611, -195859.02, -129423.83, 0.0, 9.999053, 9.999768 
2.8742635e+3, 3.03221e+2, -279707.94, -226685.75, 116564.75, -0.043773573, 0.16115694, -133655.31, -133655.31, 0.0, 9.998735, 9.999382 
2.874147e+3, 3.1321788e+2, -147440.56, -134382.33, 90985.3, 0.028005661, -0.022329353, -49692.188, -49692.188, 0.0, 9.999291, 9.9994135 
2.8740287e+3, 3.232172e+2, -192298.22, -225727.58, -14479.86, 0.011485195, 0.10108057, -186898.48, -186898.48, 0.0, 9.999275, 9.998792 
2.886256e+3, 1.3336192e+2, -1302721.3, -1549751.6, -21064.633, -0.025815606, 0.13948932, -1300937.9, 332127.28, 0.0, 10.002984, 9.999696 
2.8861347e+3, 1.4336014e+2, -1342269.6, -1549549.9, 73764.54, -0.14746013, 0.07735947, -1318699.4, 216380.72, 0.0, 10.002174, 9.9994135 
2.8860176e+3, 1.5335912e+2, -1307280.1, -1486470.6, 128890.85, -0.10027505, 0.11066266, -1239903.5, 197188.88, 0.0, 10.001777, 9.999356 
2.8859013e+3, 1.6335802e+2, -1232541.5, -1385403.5, 106503.51, -0.031535987, 0.13033493, -1177882.0, 161222.55, 0.0, 10.001556, 9.999485 
2.885784e+3, 1.7335676e+2, -1122881.6, -1274904.4, 116736.914, -0.04264052, 0.12364687, -1059590.4, 181526.0, 0.0, 10.0016165, 9.9995365 
2.885667e+3, 1.8335553e+2, -1037799.5, -1194279.9, 112808.3, -0.06275272, 0.123855054, -978754.44, 164373.4, 0.0, 10.001576, 9.999436 
2.8855503e+3, 1.9335435e+2, -974396.6, -1110831.0, 134630.6, -0.052996278, 0.13435648, -891686.75, 153452.63, 0.0, 10.001338, 9.999448 
2.8854337e+3, 2.0335315e+2, -904667.6, -1028259.8, 145665.05, -0.03856001, 0.14192943, -808232.7, 138918.66, 0.0, 10.001148, 9.999435 
2.8853175e+3, 2.1335186e+2, -821011.0, -933428.5, 154381.33, -0.03884833, 0.14099742, -712924.25, 136240.25, 0.0, 10.001037, 9.999466 
2.8852013e+3, 2.2335057e+2, -744884.3, -839332.7, 166673.34, -0.042308137, 0.13338736, -618874.2, 132303.55, 0.0, 10.000857, 9.999526 
2.885085e+3, 2.3334914e+2, -689216.7, -757027.5, 167994.86, -0.04432893, 0.10979186, -551739.94, 101451.66, 0.0, 10.000547, 9.999567 
2.8849685e+3, 2.4334818e+2, -617959.4, -659592.44, 154410.14, -0.036749765, 0.12215423, -482968.9, 72232.695, 0.0, 10.000309, 9.999679 
2.8848517e+3, 2.5334793e+2, -530201.1, -564629.5, 146484.27, -0.026046835, 0.20149735, -399923.03, 57281.688, 0.0, 10.000229, 9.999696 
2.8847343e+3, 2.6334694e+2, -466303.4, -507710.16, 169691.0, -0.022795102, 0.21475595, -316057.47, 43156.973, 0.0, 10.000105, 9.999473 
2.884617e+3, 2.7334443e+2, -396713.06, -427944.78, 155015.38, -0.029194457, 0.09274598, -256528.98, 4708.712, 0.0, 9.999926, 9.999434 
2.8844994e+3, 2.8334278e+2, -324664.7, -309087.97, 114258.8, 0.003856036, 0.0455146, -202352.39, -39099.742, 0.0, 9.999599, 9.999739 
2.8843814e+3, 2.9334286e+2, -244304.02, -226155.3, 94201.266, 0.070869654, 0.1517157, -140592.34, -75341.51, 0.0, 9.999507, 9.9996805 
2.8842625e+3, 3.0334175e+2, -149744.95, -194366.83, 143343.02, 0.0038763136, 0.1690828, -26986.94, -26986.94, 0.0, 9.999768, 9.999105 
2.884145e+3, 3.1333816e+2, -45407.684, -146606.27, 126477.58, -0.0599011, -0.01681941, 40216.61, 40216.61, 0.0, 10.000271, 9.998866 
2.884028e+3, 3.2333723e+2, -110199.0, -172606.16, -15681.725, 0.0662105, 0.119773515, -106480.1, -106480.1, 0.0, 9.999769, 9.998939 
2.896258e+3, 1.3348211e+2, -1321721.9, -1546742.8, -62485.42, -0.022299135, 0.13264287, -1305534.9, 326351.72, 0.0, 10.0028105, 9.999796 
2.8961363e+3, 1.4348026e+2, -1337401.6, -1551067.9, 54510.555, -0.1371009, 0.056717742, -1324298.5, 209604.33, 0.0, 10.002227, 9.999377 
2.896019e+3, 1.534797e+2, -1305662.9, -1495586.3, 111459.26, -0.092895985, 0.14312622, -1254197.5, 181712.5, 0.0, 10.001828, 9.99927 
2.895902e+3, 1.6347869e+2, -1242127.3, -1412024.4, 104772.24, -0.03638793, 0.18544674, -1192192.6, 145728.53, 0.0, 10.001584, 9.9992895 
2.8957847e+3, 1.7347689e+2, -1137818.8, -1306842.0, 119196.37, -0.06891088, 0.14652604, -1076214.0, 163725.25, 0.0, 10.001619, 9.999316 
2.8956676e+3, 1.8347535e+2, -1029512.7, -1172146.0, 106150.74, -0.08754197, 0.120822415, -972946.44, 169007.8, 0.0, 10.001554, 9.999599 
2.895551e+3, 1.934743e+2, -958690.2, -1075920.5, 126083.07, -0.030221978, 0.11884643, -878263.4, 165700.25, 0.0, 10.001325, 9.999696 
2.8954348e+3, 2.0347326e+2, -899196.06, -1011840.7, 140718.8, 0.008803471, 0.12231129, -803946.7, 142026.64, 0.0, 10.001126, 9.999559 
2.895318e+3, 2.1347217e+2, -814063.7, -917729.6, 150199.0, -0.008664383, 0.13102871, -707005.56, 140978.83, 0.0, 10.001031, 9.9995775 
2.8952014e+3, 2.2347108e+2, -737579.0, -820844.44, 156143.64, -0.044540588, 0.13286482, -617613.06, 132382.4, 0.0, 10.000842, 9.999661 
2.8950843e+3, 2.3346995e+2, -678675.0, -734438.75, 156379.0, -0.093098335, 0.122776754, -547711.7, 104295.05, 0.0, 10.000543, 9.999725 
2.8949678e+3, 2.4346906e+2, -595839.1, -614367.2, 148786.39, -0.08455397, 0.12042876, -456028.63, 97987.06, 0.0, 10.00031, 9.9999895 
2.8948516e+3, 2.5346848e+2, -507240.72, -516290.97, 143436.8, 0.017051717, 0.13273865, -368257.7, 87763.3, 0.0, 10.000227, 10.00003 
2.8947344e+3, 2.6346773e+2, -448872.97, -475731.56, 165861.19, 0.037744213, 0.1453725, -295898.28, 62129.56, 0.0, 10.000122, 9.999683 
2.8946158e+3, 2.7346665e+2, -389889.56, -414036.22, 145082.53, -0.0767372, 0.1504956, -256378.88, 3659.4998, 0.0, 9.999923, 9.999532 
2.8944975e+3, 2.834652e+2, -336505.22, -337009.63, 100810.39, -0.07059732, 0.12690243, -235946.72, -73894.64, 0.0, 9.999608, 9.999544 
2.8943807e+3, 2.9346335e+2, -285360.3, -309946.47, 103705.734, 0.12013368, 0.07919403, -193221.61, -129152.13, 0.0, 9.999511, 9.999097 
2.8942627e+3, 3.0346185e+2, -153941.39, -213878.7, 160601.22, 0.10345317, 0.097089484, -20536.637, -20536.637, 0.0, 9.999821, 9.998942 
2.8941453e+3, 3.1346038e+2, -75722.65, -217356.16, 143833.03, -0.0070078853, 0.152373, 13782.003, 13782.003, 0.0, 10.000312, 9.99836 
2.8940257e+3, 3.2345822e+2, 66267.83, 200947.98, -77589.74, -0.037584223, 0.11809977, 236344.73, 236344.73, 0.0, 9.999733, 10.001529 
2.9062593e+3, 1.33602e+2, -1524910.4, -1680509.6, -46643.75, -0.04313066, 0.108822204, -1511999.4, 118711.83, 0.0, 10.001561, 9.999484 
2.9061383e+3, 1.4360055e+2, -1306125.1, -1541495.1, 24914.896, -0.104150884, 0.09643307, -1303516.8, 229207.92, 0.0, 10.002462, 9.999331 
2.9060203e+3, 1.5359943e+2, -1275216.9, -1482768.9, 76275.8, -0.07066771, 0.12629992, -1250200.6, 184535.34, 0.0, 10.002045, 9.999254 
2.9059032e+3, 1.6359816e+2, -1225542.0, -1397743.4, 88103.81, -0.026206588, 0.140184, -1188453.4, 148295.45, 0.0, 10.00167, 9.999346 
2.9057854e+3, 1.7359664e+2, -1160295.1, -1309482.5, 120522.42, -0.07217537, 0.12268392, -1093150.0, 145614.5, 0.0, 10.00143, 9.99939 
2.9056683e+3, 1.8359533e+2, -1069924.5, -1176787.3, 113874.3, -0.09358482, 0.11074636, -997569.25, 143208.08, 0.0, 10.001211, 9.999735 
2.9055515e+3, 1.9359441e+2, -994340.25, -1078156.9, 125741.16, -0.02691004, 0.110121004, -903707.44, 139077.72, 0.0, 10.001014, 9.999831 
2.905435e+3, 2.0359343e+2, -931433.2, -1017880.25, 139946.61, 0.013473104, 0.10861229, -828187.2, 116606.91, 0.0, 10.00086, 9.999647 
2.9053184e+3, 2.135923e+2, -844806.3, -921646.5, 147093.14, -0.015326215, 0.10305291, -731198.44, 115607.06, 0.0, 10.0007715, 9.999676 
2.9052013e+3, 2.2359136e+2, -755657.94, -807209.06, 148747.45, -0.049152683, 0.10544813, -630469.3, 118345.74, 0.0, 10.00062, 9.999863 
2.9050842e+3, 2.3359068e+2, -690390.2, -713131.8, 152685.47, -0.08553784, 0.11784301, -548652.7, 102169.17, 0.0, 10.000345, 9.999967 
2.9049674e+3, 2.4359001e+2, -605820.0, -598224.8, 153606.03, -0.073831566, 0.11648616, -448369.44, 104458.97, 0.0, 10.0001545, 10.000174 
2.9048508e+3, 2.535892e+2, -499619.28, -485335.94, 139173.84, 0.01343394, 0.08835174, -353120.63, 101714.51, 0.0, 10.000163, 10.000272 
2.9047337e+3, 2.635887e+2, -447487.84, -441299.22, 153682.25, 0.028086001, 0.09192447, -290680.13, 66159.99, 0.0, 9.999988, 9.999984 
2.9046148e+3, 2.7358845e+2, -409796.06, -378551.4, 142536.4, -0.08142441, 0.14632311, -250783.77, 8059.0054, 0.0, 9.999595, 9.99993 
2.9044965e+3, 2.835875e+2, -337559.47, -308917.9, 137336.67, -0.055068973, 0.13912565, -185157.38, -24305.365, 0.0, 9.9994955, 9.999783 
2.904379e+3, 2.9358548e+2, -341013.78, -274529.5, 165252.86, 0.12348232, 0.04475067, -139208.47, -76337.59, 0.0, 9.998871, 9.999644 
2.9162598e+3, 1.3372174e+2, -1567187.0, -1760207.0, 9702.478, -0.08083674, 0.08545429, -1566700.5, 62836.414, 0.0, 10.0015335, 9.998947 
2.9161403e+3, 1.4372098e+2, -1314563.5, -1549719.0, 22179.572, -0.060841303, 0.17144772, -1312489.8, 219056.27, 0.0, 10.002424, 9.999292 
2.916022e+3, 1.5371853e+2, -1278629.8, -1482076.9, 59745.79, -0.042477917, 0.06936064, -1262382.0, 171186.06, 0.0, 10.002009, 9.999277 
2.9159042e+3, 1.6371678e+2, -1214607.3, -1366331.1, 79160.06, -0.01057842, 0.023748482, -1180827.3, 154757.08, 0.0, 10.001632, 9.99958 
2.9157865e+3, 1.7371617e+2, -1143358.9, -1269633.0, 112243.88, -0.058588684, 0.06852386, -1077713.3, 159877.63, 0.0, 10.001408, 9.999675 
2.9156688e+3, 1.8371549e+2, -1066791.4, -1166531.1, 106063.14, -0.088802874, 0.099575095, -999458.9, 140138.6, 0.0, 10.001195, 9.999813 
2.9155517e+3, 1.937147e+2, -990868.4, -1072169.6, 118034.836, -0.04287166, 0.105916426, -906680.3, 134924.27, 0.0, 10.001018, 9.99987 
2.915435e+3, 2.0371367e+2, -929161.94, -1012010.5, 136273.44, -0.022104315, 0.09615697, -828155.8, 115458.28, 0.0, 10.0008545, 9.99969 
2.915318e+3, 2.1371229e+2, -840475.3, -911183.7, 143624.73, -0.057636935, 0.060217626, -727917.44, 117710.28, 0.0, 10.000764, 9.999752 
2.9152012e+3, 2.2371145e+2, -740533.25, -770845.2, 139162.88, -0.06498912, 0.0539057, -615703.44, 131932.81, 0.0, 10.000598, 10.000124 
2.9150844e+3, 2.3371135e+2, -667553.06, -665270.44, 141756.27, -0.020963829, 0.094597876, -524650.9, 124986.195, 0.0, 10.000342, 10.0002985 
2.9149675e+3, 2.4371101e+2, -601070.6, -590634.2, 152124.66, -0.010042107, 0.107722215, -443638.28, 108001.77, 0.0, 10.000164, 10.000221 
2.9148498e+3, 2.5371024e+2, -491598.03, -467769.47, 138912.55, -0.049272347, 0.07262801, -340261.2, 113385.68, 0.0, 10.00016, 10.000392 
2.9147318e+3, 2.6370972e+2, -418781.97, -388285.16, 137662.44, -0.06846211, 0.055844963, -265029.2, 90622.4, 0.0, 10.00001, 10.0003395 
2.9146144e+3, 2.7370957e+2, -362112.1, -282832.0, 125422.43, -0.037075557, 0.06697197, -190934.55, 66718.33, 0.0, 9.999601, 10.000588 
2.9144964e+3, 2.837094e+2, -291552.72, -214044.56, 147780.53, 0.038434032, 0.072721474, -100021.14, 59632.895, 0.0, 9.999507, 10.000428 
2.914377e+3, 2.9370946e+2, -218867.03, -29325.027, 100055.19, 0.06724048, 0.06641605, 13717.556, 75370.44, 0.0, 9.998915, 10.00131 
2.9262602e+3, 1.3384128e+2, -1590788.3, -1715003.0, 39503.906, -0.07785442, 0.10334471, -1579289.3, 49076.38, 0.0, 10.001125, 9.999453 
2.9261422e+3, 1.4384022e+2, -1372356.6, -1564544.8, 16492.008, -0.025339045, 0.12779583, -1370951.8, 159424.73, 0.0, 10.001967, 9.999412 
2.926023e+3, 1.538384e+2, -1348030.3, -1506527.9, 44573.035, -0.051868405, 0.07706522, -1336355.4, 96038.05, 0.0, 10.0014925, 9.999359 
2.9259047e+3, 1.6383693e+2, -1279218.1, -1382151.0, 74819.74, -0.034925755, 0.0505785, -1239872.8, 94534.195, 0.0, 10.001118, 9.999722 
2.925787e+3, 1.738362e+2, -1193029.1, -1276935.0, 100312.695, -0.05566514, 0.06758207, -1126249.9, 110164.21, 0.0, 10.00099, 9.999827 
2.9256693e+3, 1.8383548e+2, -1098820.9, -1173990.5, 93804.07, -0.07466526, 0.0824248, -1035352.1, 103068.45, 0.0, 10.000933, 9.99989 
2.925552e+3, 1.9383474e+2, -990980.0, -1065106.1, 107332.04, -0.04489004, 0.08758224, -914492.0, 125935.09, 0.0, 10.000982, 9.999937 
2.925435e+3, 2.0383383e+2, -914337.0, -988020.9, 125941.66, -0.030392386, 0.0784096, -819959.2, 122476.3, 0.0, 10.000881, 9.999844 
2.925318e+3, 2.1383265e+2, -865643.2, -904888.9, 137577.48, -0.061739936, 0.045240864, -746296.2, 98150.984, 0.0, 10.000507, 9.99992 
2.925201e+3, 2.238319e+2, -781944.75, -777449.8, 137118.3, -0.06175635, 0.037785377, -642560.56, 103893.56, 0.0, 10.000252, 10.000246 
2.9250842e+3, 2.3383187e+2, -679308.8, -651827.44, 125956.875, -0.0069393017, 0.06816962, -538864.0, 109589.96, 0.0, 10.000175, 10.000472 
2.924967e+3, 2.4383159e+2, -613021.56, -595056.0, 133092.77, 0.0055659926, 0.075968, -470643.22, 79812.94, 0.0, 10.00007, 10.00024 
2.924849e+3, 2.5383088e+2, -515917.2, -470766.34, 116747.87, -0.054170925, 0.0424619, -374431.22, 78031.61, 0.0, 9.9999485, 10.000478 
2.924731e+3, 2.6383054e+2, -432485.56, -364093.78, 107538.445, -0.0722334, 0.024601586, -285445.2, 69020.625, 0.0, 9.999773, 10.000626 
2.9246134e+3, 2.738307e+2, -329669.2, -215191.08, 81938.85, -0.007199753, 0.028525952, -172478.72, 83984.625, 0.0, 9.99959, 10.001063 
2.9244953e+3, 2.8383097e+2, -287515.44, -181946.22, 101929.3, 0.07218267, 0.03342974, -119944.95, 38515.355, 0.0, 9.999382, 10.000727 
2.924375e+3, 2.938314e+2, -65674.41, 68854.02, -45998.203, 0.022550575, 0.040564865, 83077.91, 143533.83, 0.0, 9.99983, 10.001568 
2.936261e+3, 1.3396059e+2, -1511495.4, -1548120.4, 103308.41, -0.05398965, 0.13572769, -1424889.0, 202308.1, 0.0, 10.0011215, 10.000597 
2.936144e+3, 1.4395878e+2, -1381454.3, -1547465.9, 7038.113, 0.001324793, 0.01047964, -1381156.4, 148056.0, 0.0, 10.001814, 9.999602 
2.9360235e+3, 1.5395877e+2, -1345267.6, -1492173.4, 25119.336, -0.08893169, 0.1328136, -1341091.3, 90122.63, 0.0, 10.001454, 9.999476 
2.9359046e+3, 1.6395812e+2, -1273511.6, -1373359.0, 69040.11, -0.08995146, 0.17602657, -1238236.0, 94984.9, 0.0, 10.001131, 9.999776 
2.935787e+3, 1.7395648e+2, -1188744.8, -1269988.6, 96190.22, -0.0626538, 0.10022168, -1124950.8, 110285.055, 0.0, 10.0009985, 9.999872 
2.9356697e+3, 1.8395527e+2, -1094470.9, -1162807.0, 95133.17, -0.055096805, 0.058298495, -1027555.9, 109690.58, 0.0, 10.000922, 9.999972 
2.9355526e+3, 1.9395456e+2, -987357.9, -1052571.1, 109567.95, -0.03802798, 0.05816801, -905647.7, 133604.53, 0.0, 10.000959, 10.000035 
2.9354352e+3, 2.0395389e+2, -902108.8, -954477.6, 114334.805, -0.02387168, 0.055760548, -810998.44, 130259.61, 0.0, 10.000846, 10.000091 
2.9353178e+3, 2.1395327e+2, -847669.3, -866850.94, 122431.945, -0.031757154, 0.053478718, -734453.06, 108811.125, 0.0, 10.000504, 10.000183 
2.9352006e+3, 2.2395273e+2, -782940.94, -778881.4, 133416.72, -0.04399349, 0.050158307, -647479.0, 97790.125, 0.0, 10.000249, 10.000238 
2.9350832e+3, 2.3395227e+2, -680474.9, -651692.3, 122057.13, -0.048763163, 0.040412113, -543181.0, 104091.29, 0.0, 10.000164, 10.000479 
2.934966e+3, 2.4395175e+2, -613046.06, -596874.75, 128142.8, -0.03266767, 0.024443012, -476562.75, 72713.96, 0.0, 10.000073, 10.000228 
2.934849e+3, 2.5395113e+2, -509763.0, -462681.25, 111375.625, 0.0061106454, -0.001889014, -372385.8, 78897.445, 0.0, 9.999964, 10.000529 
2.9347312e+3, 2.6395115e+2, -409739.4, -323853.6, 100184.086, 0.012040409, 0.0017975623, -257796.77, 95486.03, 0.0, 9.999803, 10.000887 
2.9346123e+3, 2.7395195e+2, -307233.47, -173231.95, 74182.98, -0.0049010417, 0.04063602, -140271.63, 115001.64, 0.0, 9.999613, 10.001337 
2.9344937e+3, 2.839521e+2, -281002.8, -200226.8, 92086.445, 0.013536983, 0.026777279, -140060.8, 17211.107, 0.0, 9.999503, 10.000549 
2.9343736e+3, 2.9395163e+2, -117397.12, -50086.156, -15395.124, -0.03726291, 0.0033009972, -46732.164, 12546.209, 0.0, 9.999878, 10.000728 
2.9462618e+3, 1.3408004e+2, -1540035.0, -1557604.8, 107809.94, -0.014237881, 0.1617276, -1440652.6, 185374.1, 0.0, 10.000895, 10.00065 
2.9461437e+3, 1.4407797e+2, -1553277.5, -1595774.3, -11375.352, -0.024683323, -0.0043493733, -1550424.1, -22379.615, 0.0, 10.000484, 9.999912 
2.946024e+3, 1.5407826e+2, -1392560.3, -1479450.9, 15815.442, -0.07343537, 0.11312937, -1389771.1, 40271.67, 0.0, 10.000973, 9.999798 
2.9459053e+3, 1.6407783e+2, -1266626.9, -1362615.6, 58149.094, -0.052703813, 0.16014993, -1239223.8, 92823.77, 0.0, 10.0011425, 9.999846 
2.9457876e+3, 1.7407647e+2, -1189427.3, -1262601.0, 86914.76, -0.030880444, 0.10327769, -1131712.6, 102347.8, 0.0, 10.000956, 9.999947 
2.94567e+3, 1.8407534e+2, -1118825.0, -1162708.0, 89273.24, -0.03396261, 0.062039647, -1048836.4, 87233.875, 0.0, 10.000701, 10.000083 
2.9455525e+3, 1.9407456e+2, -1061464.5, -1080221.0, 102871.54, -0.030008841, 0.04482059, -967544.7, 70531.914, 0.0, 10.000407, 10.000115 
2.9454353e+3, 2.0407401e+2, -971799.94, -983337.44, 105038.65, -0.015328444, 0.047446672, -872371.75, 67709.48, 0.0, 10.000336, 10.000145 
2.9453182e+3, 2.1407375e+2, -845356.1, -858981.2, 96067.914, -0.0065395213, 0.07462349, -755859.5, 86224.71, 0.0, 10.000481, 10.000254 
2.9452005e+3, 2.2407329e+2, -739820.56, -759637.44, 102592.49, -0.021065047, 0.0750703, -646659.1, 97429.19, 0.0, 10.000541, 10.000236 
2.9450828e+3, 2.3407254e+2, -638419.6, -630470.44, 90799.73, -0.0610852, 0.03506302, -543558.4, 102535.48, 0.0, 10.000437, 10.000498 
2.9449654e+3, 2.4407199e+2, -577094.56, -565709.25, 104472.94, -0.050091334, 0.008320009, -466774.0, 81324.266, 0.0, 10.000254, 10.000358 
2.9448485e+3, 2.5407174e+2, -475366.75, -429822.44, 98327.27, 0.022832017, 0.0021342332, -351664.78, 98436.3, 0.0, 10.000121, 10.000684 
2.9447305e+3, 2.6407194e+2, -381361.22, -308250.72, 79950.86, 0.04006699, 0.013718945, -256894.5, 95204.125, 0.0, 9.999984, 10.000912 
2.9446113e+3, 2.7407256e+2, -270991.72, -168181.7, 31738.584, -0.0021202997, 0.04068679, -159173.03, 94917.47, 0.0, 9.9999, 10.001245 
2.9444924e+3, 2.840723e+2, -236967.23, -197538.77, 44465.734, -0.0077386927, 0.0011809979, -168612.97, -12519.727, 0.0, 9.999881, 10.000382 
2.9443726e+3, 2.940723e+2, -75149.31, -43657.594, -15943.906, -0.052803222, 0.0455188, -36994.965, 21100.73, 0.0, 10.000212, 10.000605 
2.9562622e+3, 1.3419953e+2, -1590758.3, -1646536.0, 64400.484, 0.023410724, 0.1900132, -1548467.3, 76388.6, 0.0, 10.000832, 10.000068 
2.956143e+3, 1.4419758e+2, -1519963.9, -1534444.5, 4509.528, -0.086993866, 0.048644666, -1518674.4, 8200.019, 0.0, 10.00052, 10.000316 
2.9560247e+3, 1.5419711e+2, -1363669.5, -1415044.0, 32937.63, -0.021915542, 0.043555062, -1347586.9, 81290.81, 0.0, 10.000953, 10.000251 
2.9559067e+3, 1.6419658e+2, -1270895.9, -1355911.1, 51829.7, 0.047410082, 0.053432092, -1246372.0, 84510.59, 0.0, 10.001075, 9.999926 
2.9557887e+3, 1.7419624e+2, -1188780.9, -1248818.3, 80634.26, 0.02555754, 0.08956159, -1132758.8, 100128.2, 0.0, 10.000901, 10.000068 
2.95567e+3, 1.8419564e+2, -1115658.6, -1148929.9, 76278.55, -0.018336741, 0.08669111, -1054222.8, 80670.01, 0.0, 10.00067, 10.000192 
2.9555523e+3, 1.9419467e+2, -1055216.3, -1069486.1, 91181.984, -0.021743445, 0.04484524, -970890.5, 66009.99, 0.0, 10.000417, 10.000184 
2.955435e+3, 2.0419422e+2, -978821.8, -999564.75, 110174.65, -0.0045366515, 0.05658037, -878531.5, 60373.027, 0.0, 10.000342, 10.0000305 
2.9553178e+3, 2.1419412e+2, -853046.0, -875341.6, 99415.91, 0.010649904, 0.112757616, -764154.8, 76751.68, 0.0, 10.00048, 10.000143 
2.9552007e+3, 2.241936e+2, -741251.7, -757703.1, 100283.695, -0.0042434977, 0.11350078, -648856.94, 94054.55, 0.0, 10.000518, 10.000259 
2.9550827e+3, 2.3419267e+2, -636290.4, -623446.5, 85443.04, -0.044825833, 0.050342023, -544184.44, 100734.28, 0.0, 10.000425, 10.000552 
2.954965e+3, 2.4419235e+2, -552610.94, -517751.88, 97220.65, -0.050491676, 0.02764623, -436410.75, 110509.82, 0.0, 10.000263, 10.000684 
2.9548475e+3, 2.5419277e+2, -453277.5, -385416.7, 93811.02, -0.013525327, 0.05888143, -319588.5, 129327.055, 0.0, 10.000126, 10.000988 
2.9547295e+3, 2.6419297e+2, -395491.97, -342478.72, 75011.07, -0.00038227087, 0.06583827, -289428.7, 61484.01, 0.0, 10.000003, 10.000669 
2.9546106e+3, 2.741926e+2, -297154.72, -229441.97, 35824.535, -0.0020373603, 0.025740141, -214006.86, 38908.355, 0.0, 9.999929, 10.00081 
2.9544917e+3, 2.8419182e+2, -229262.2, -199999.42, 44905.684, -0.008461834, -0.04194414, -167401.61, -12478.628, 0.0, 9.99995, 10.000336 
2.9543722e+3, 2.9419267e+2, -29387.586, 37130.164, 10180.234, -0.05845674, 0.08067506, 38653.324, 95569.19, 0.0, 10.000271, 10.001132 
2.9662627e+3, 1.343179e+2, -1611213.6, -1677176.0, 49989.92, 0.04269053, 0.10843109, -1584305.4, 39390.867, 0.0, 10.000785, 9.999878 
2.9661432e+3, 1.4431776e+2, -1467310.9, -1492714.8, 8675.579, -0.06880455, 0.15386842, -1464630.9, 61067.734, 0.0, 10.000806, 10.000469 
2.9660246e+3, 1.5431693e+2, -1389943.9, -1398044.5, 22088.004, -0.041852187, 0.08760942, -1371537.9, 56166.227, 0.0, 10.000641, 10.000521 
2.9659066e+3, 1.6431643e+2, -1365438.9, -1383736.5, 30902.232, 0.0062005934, 0.077908754, -1342359.6, -12651.831, 0.0, 10.000342, 10.000092 
2.965788e+3, 1.7431639e+2, -1286958.8, -1289746.3, 61546.195, -0.02293427, 0.13379961, -1226790.5, 4918.906, 0.0, 10.000191, 10.0001335 
2.9656696e+3, 1.8431593e+2, -1170139.0, -1187650.3, 55678.08, -0.047189046, 0.14730668, -1122532.4, 11181.537, 0.0, 10.000337, 10.000094 
2.9655522e+3, 1.943149e+2, -1011711.7, -1050271.8, 59902.824, -0.022962539, 0.10133365, -968062.7, 67659.96, 0.0, 10.000713, 10.000179 
2.9654348e+3, 2.043141e+2, -919233.1, -982168.8, 72428.805, -0.006989011, 0.08686796, -871731.6, 65998.484, 0.0, 10.000793, 9.999935 
2.9653174e+3, 2.1431373e+2, -850886.94, -874706.6, 66126.19, -0.021981744, 0.11624683, -795606.6, 44128.355, 0.0, 10.000491, 10.000145 
2.9652e+3, 2.2431335e+2, -770009.6, -750172.25, 78269.29, -0.024542183, 0.119521365, -681195.7, 60543.086, 0.0, 10.000223, 10.000457 
2.9650825e+3, 2.343128e+2, -694145.44, -640379.25, 68303.07, -0.008097092, 0.07905051, -593859.25, 49883.227, 0.0, 9.9999695, 10.000662 
2.9649645e+3, 2.4431264e+2, -605172.6, -531882.3, 80898.17, -0.009408322, 0.06033022, -479716.53, 66026.19, 0.0, 9.99984, 10.0008 
2.9648468e+3, 2.5431296e+2, -468014.4, -394797.2, 58470.324, -0.034279943, 0.076032855, -362420.5, 85317.81, 0.0, 10.000018, 10.000985 
2.9647285e+3, 2.6431298e+2, -370617.2, -350675.66, 32340.285, -0.034076825, 0.074081294, -326803.97, 22933.012, 0.0, 10.000249, 10.000502 
2.9646102e+3, 2.7431244e+2, -232114.13, -229991.52, 9313.191, 0.003765782, 0.03779903, -221679.34, 30062.17, 0.0, 10.000512, 10.000528 
2.9644912e+3, 2.843115e+2, -156230.66, -171811.84, 14086.327, 0.0022817133, -0.028049348, -147924.11, 5826.639, 0.0, 10.000489, 10.0002775 
2.9643714e+3, 2.9431212e+2, -48400.0, 32208.33, -29164.773, -0.07834904, 0.08607602, 41653.637, 97398.99, 0.0, 10.000156, 10.001156 
2.9762626e+3, 1.344357e+2, -1645209.9, -1699276.8, 44691.945, 0.053365696, -0.03052853, -1620011.4, 2531.083, 0.0, 10.000579, 9.999824 
2.976144e+3, 1.4443813e+2, -1469581.4, -1496806.8, 897.912, -0.0012669192, 0.28218096, -1469551.9, 54969.02, 0.0, 10.000806, 10.00044 
2.976024e+3, 1.5443717e+2, -1359968.3, -1366756.6, 5378.784, -0.113201946, 0.19106615, -1357002.3, 69525.0, 0.0, 10.000774, 10.000671 
2.9759046e+3, 1.6443685e+2, -1322587.5, -1337754.3, 11075.275, -0.1395993, 0.17394899, -1316748.1, 11780.465, 0.0, 10.000529, 10.000317 
2.975786e+3, 1.7443664e+2, -1264352.8, -1276156.3, 51734.707, -0.15138412, 0.20819028, -1218184.3, 12346.103, 0.0, 10.000337, 10.000155 
2.9756686e+3, 1.8443619e+2, -1177304.1, -1223121.1, 66383.76, -0.107917696, 0.23514932, -1129987.3, 2547.253, 0.0, 10.000426, 9.999806 
2.975552e+3, 1.9443509e+2, -1011652.1, -1057606.5, 70034.266, -0.035013888, 0.19677942, -960922.1, 73622.445, 0.0, 10.000746, 10.000113 
2.975435e+3, 2.0443355e+2, -926250.5, -993478.56, 61693.566, -0.03377968, 0.119723566, -889607.9, 46951.688, 0.0, 10.000779, 9.999865 
2.9753163e+3, 2.1443257e+2, -843532.7, -855010.06, 54498.535, -0.098508745, 0.07878591, -794471.5, 44098.387, 0.0, 10.000471, 10.00029 
2.975199e+3, 2.2443259e+2, -749490.6, -699836.25, 69130.64, -0.0737691, 0.09401933, -651209.8, 89359.984, 0.0, 10.00019, 10.000819 
2.9750824e+3, 2.3443303e+2, -681688.1, -614439.6, 58323.02, 0.048583433, 0.12786074, -580742.5, 61821.707, 0.0, 9.999967, 10.000842 
2.9749647e+3, 2.4443299e+2, -615490.9, -552457.25, 83966.3, 0.062295184, 0.11576371, -494287.7, 50275.895, 0.0, 9.999835, 10.000661 
2.974846e+3, 2.5443226e+2, -491561.2, -445923.3, 67935.38, -0.042224247, 0.053257618, -397076.94, 49492.625, 0.0, 10.000028, 10.000628 
2.9747277e+3, 2.6443198e+2, -368623.0, -353358.72, 39328.29, -0.06626423, 0.040236674, -320928.88, 27642.781, 0.0, 10.000277, 10.00047 
2.97461e+3, 2.7443224e+2, -229462.38, -233208.92, 21738.44, 0.009622719, 0.08495112, -209516.64, 41051.844, 0.0, 10.000547, 10.000491 
2.974491e+3, 2.844316e+2, -156406.9, -183451.0, -2051.6982, 0.0064597474, 0.05850181, -156252.14, -3677.1606, 0.0, 10.000553, 10.000164 
2.9743707e+3, 2.9443085e+2, -99183.35, -75379.625, -31952.701, -0.09592689, 0.056808878, -53184.137, 1399.803, 0.0, 10.000195, 10.000385 
2.9862612e+3, 1.3455713e+2, -1587590.4, -1646397.4, 63875.65, -0.10649187, 0.22690274, -1546675.5, 74677.87, 0.0, 10.000847, 10.000075 
2.986144e+3, 1.445561e+2, -1543185.6, -1546873.5, -9962.47, 0.025114967, 0.18400764, -1534897.9, -11533.81, 0.0, 10.000367, 10.000309 
2.986027e+3, 1.5455425e+2, -1425358.0, -1427471.4, -619.9823, 0.17911863, 0.027701562, -1425189.6, 190.559, 0.0, 10.000466, 10.000397 
2.9859084e+3, 1.6455287e+2, -1309037.9, -1328508.1, -41548.42, 0.25976065, -0.07799779, -1276099.3, 51292.92, 0.0, 10.000633, 10.000319 
2.985789e+3, 1.7455246e+2, -1165247.4, -1207671.9, 4985.7803, 0.1328063, -0.08150861, -1164669.4, 64726.414, 0.0, 10.000952, 10.000317 
2.9856703e+3, 1.8455194e+2, -1050252.6, -1130648.1, 47222.777, 0.015654564, -0.082764834, -1028435.44, 102964.695, 0.0, 10.00119, 10.00006 
2.9855528e+3, 1.9455193e+2, -1004644.25, -1049119.0, 55357.55, 0.051141787, -0.022962611, -967224.6, 66174.92, 0.0, 10.000787, 10.000146 
2.9854354e+3, 2.0455222e+2, -951831.7, -968107.1, 62517.582, 0.06509233, 0.062074807, -896924.44, 38471.7, 0.0, 10.000447, 10.000199 
2.9853168e+3, 2.1455193e+2, -908179.6, -875206.7, 51270.05, -0.009638103, 0.072839834, -837837.56, -438.75287, 0.0, 9.999977, 10.000393 
2.9851988e+3, 2.2455166e+2, -845397.7, -773236.8, 54204.504, -0.03399144, 0.0720546, -744202.5, -4801.2036, 0.0, 9.999639, 10.000586 
2.9850817e+3, 2.3455206e+2, -626806.3, -593158.0, 30681.156, 0.033385932, 0.1107024, -574990.94, 66406.53, 0.0, 10.000365, 10.000797 
2.9849643e+3, 2.4455199e+2, -472345.1, -499509.47, 31907.816, 0.050508197, 0.10526313, -451248.97, 92148.47, 0.0, 10.000887, 10.000519 
2.9848456e+3, 2.545511e+2, -461947.47, -450157.97, 19592.268, -0.014292033, 0.03890372, -435592.88, 9811.85, 0.0, 10.000307, 10.000466 
2.9847276e+3, 2.6455078e+2, -388073.66, -351413.9, 26540.459, -0.042064514, 0.027628057, -337488.84, 9918.133, 0.0, 10.000085, 10.000584 
2.9846096e+3, 2.7455118e+2, -214413.11, -216643.05, 22212.033, -0.012610015, 0.07164297, -193288.08, 56114.793, 0.0, 10.00059, 10.000599 
2.9844907e+3, 2.8455108e+2, -132394.28, -138599.47, -16211.689, -0.024262305, 0.077364564, -118990.96, 32413.549, 0.0, 10.000568, 10.000494 
2.9843703e+3, 2.945499e+2, -156341.81, -151087.53, -6256.2983, -0.056160636, 0.03154458, -146929.16, -93511.99, 0.0, 9.999943, 10.000073 
2.9962632e+3, 1.3467486e+2, -1595697.3, -1535921.9, -29877.193, 0.07266873, 0.17163476, -1523549.4, 96651.51, 0.0, 10.000329, 10.001067 
2.996144e+3, 1.4467311e+2, -1382281.6, -1451125.6, -27263.416, 0.041779533, -0.019832792, -1372792.8, 149422.48, 0.0, 10.001393, 10.000471 
2.9960233e+3, 1.5467495e+2, -1409533.6, -1470397.1, 94708.516, -0.14187503, 0.22395082, -1340487.9, 83709.13, 0.0, 10.000748, 9.999988 
2.9959044e+3, 1.646739e+2, -1411590.4, -1415703.5, 37745.734, -0.13022703, 0.2030529, -1375845.3, -49638.35, 0.0, 10.000024, 10.000048 
2.9957885e+3, 1.7467338e+2, -1298653.8, -1263691.9, 42664.4, 0.09356041, 0.1829091, -1235066.0, -6854.4194, 0.0, 9.99993, 10.000457 
2.9956704e+3, 1.8467334e+2, -1195374.1, -1150705.8, -1994.9458, -0.0054266327, 0.18642767, -1150616.8, -20405.445, 0.0, 9.9999075, 10.000575 
2.995552e+3, 1.94672e+2, -1098308.5, -1095232.4, -35680.1, -0.01985644, 0.08913382, -1061057.3, -28834.094, 0.0, 10.000089, 10.000193 
2.9954347e+3, 2.0467177e+2, -984697.75, -933394.75, -44102.125, -0.004265126, 0.075747006, -908026.7, 26197.012, 0.0, 9.999957, 10.000695 
2.9953158e+3, 2.1467091e+2, -812580.06, -831899.94, -12057.202, -0.03579526, 0.013948585, -806790.44, 29439.922, 0.0, 10.000621, 10.000389 
2.995198e+3, 2.246704e+2, -719854.7, -808486.8, 20768.78, -0.0007084308, 0.03600477, -715229.44, 23005.955, 0.0, 10.000905, 9.999736 
2.995081e+3, 2.346704e+2, -674621.9, -647316.7, -6666.765, 0.0010000457, 0.078595005, -645775.94, -5538.78, 0.0, 10.000166, 10.000522 
2.9949635e+3, 2.4466972e+2, -477156.03, -513787.75, -2634.4387, -0.015109979, 0.035058796, -476967.56, 65275.973, 0.0, 10.000905, 10.000409 
2.9948458e+3, 2.546696e+2, -452237.28, -432154.06, -7894.3267, 0.05799473, 0.03889854, -429422.47, 14820.02, 0.0, 10.000319, 10.000579 
2.9947278e+3, 2.6466957e+2, -374002.16, -320955.56, 42280.035, 0.042152468, 0.035109043, -297568.06, 48673.863, 0.0, 10.000072, 10.000804 
2.994609e+3, 2.7466914e+2, -195307.7, -189939.92, 48702.652, -0.08154693, -0.020303043, -143847.27, 104398.81, 0.0, 10.000632, 10.000769 
2.9944894e+3, 2.846697e+2, -87429.39, -19444.523, -45271.668, -0.121653385, 0.0026770744, 3175.8457, 153416.78, 0.0, 10.000504, 10.001321 
2.9943702e+3, 2.9467115e+2, -130520.05, -35618.746, 3522.7754, 0.020737147, 0.116963536, -35488.16, 16739.93, 0.0, 9.999746, 10.000932 
