coord_x,coord_y,stress_xx,stress_yy,tau_xy,velocity_x,velocity_y,stress_1,eps,damage,lx,ly
4.99996e+0, 1.2489629e+2, -1687284.0, -1652802.3, 9472.68, -0.0030209387, 0.07938537, -1650371.3, 65655.02, 0.0013801174, 9.999973, 10.000435 
4.9999887e+0, 1.3489653e+2, -1663808.5, -1732778.8, 6520.962, -0.0051987995, 0.18839166, -1663197.4, -45173.125, 0.0008364695, 10.000076, 9.999163 
5.0000036e+0, 1.4489481e+2, -1519674.0, -1542472.9, 2729.031, -0.0045228424, 0.065619335, -1519351.9, 688.07166, 0.00038681776, 10.000092, 9.9997835 
5.0000226e+0, 1.5489432e+2, -1438410.6, -1463425.4, 1841.0526, 0.0008405814, 0.039772082, -1438275.9, -16233.872, 0.00011816065, 10.000024, 9.999685 
5.000026e+0, 1.6489413e+2, -1353259.0, -1376475.6, 1774.8163, 0.0045827706, 0.054988116, -1353124.1, -29081.68, 0.000016018055, 9.999957, 9.999644 
5.000018e+0, 1.7489383e+2, -1265362.5, -1285285.8, -186.68102, 0.0068056234, 0.056178156, -1265360.8, -39315.313, 0.00000013955699, 9.999897, 9.999626 
5.000009e+0, 1.8489341e+2, -1173088.3, -1194902.4, -214.54471, 0.0068241293, 0.053405065, -1173086.3, -45036.504, 0.0, 9.999879, 9.999584 
5.000001e+0, 1.9489297e+2, -1074250.8, -1100710.9, -2781.773, 0.004895272, 0.048333876, -1073961.5, -43907.402, 0.0, 9.999903, 9.999547 
5.000002e+0, 2.048924e+2, -970896.75, -1007396.25, -3190.0803, 0.0015785375, 0.04014761, -970620.06, -38561.266, 0.0, 9.999971, 9.99948 
5.0000083e+0, 2.1489163e+2, -858114.7, -905444.75, -6924.5654, -0.0035547507, 0.011179836, -857122.4, -23058.24, 0.0, 10.000086, 9.999452 
5.0000346e+0, 2.2489083e+2, -803257.2, -904187.8, -9073.726, -0.0024773877, 0.019650187, -802447.94, -66375.93, 0.0, 10.000117, 9.998773 
5.0000787e+0, 2.3488997e+2, -716252.9, -815104.2, -5376.7153, 0.0049453904, 0.05256571, -715961.3, -77878.734, 0.0, 10.000057, 9.99874 
5.000102e+0, 2.448888e+2, -619035.9, -721134.44, 1520.7308, 0.0067554703, 0.06271685, -619013.25, -78918.52, 0.0, 10.000068, 9.998709 
5.000106e+0, 2.5488728e+2, -510592.38, -622441.0, 4651.7427, 0.0025977455, 0.034928087, -510399.22, -68290.59, 0.0, 10.000158, 9.99867 
5.000097e+0, 2.6488572e+2, -416170.47, -537246.4, 79.096664, 0.0005736204, 0.019372892, -416170.44, -72046.7, 0.0, 10.000181, 9.9985695 
5.0000745e+0, 2.7488425e+2, -326849.72, -445341.13, -10457.783, 0.00087725546, 0.010191665, -325933.8, -79794.7, 0.0, 10.00013, 9.998552 
5.000127e+0, 2.848833e+2, -251550.86, -403932.3, -6331.9204, 0.004099963, 0.07973586, -251288.2, -103138.55, 0.000000004221918, 10.00017, 9.998143 
5.000258e+0, 2.9488266e+2, -129853.19, -290720.9, 5798.1504, 0.009916868, 0.19787236, -129644.48, -79487.086, 0.0000065845143, 10.000316, 9.998178 
5.0002056e+0, 3.0487883e+2, -90777.75, -257853.9, 6751.764, 0.0056775883, 0.0008398075, -90505.34, -90505.34, 0.0000754208, 10.000296, 9.998083 
4.99999e+0, 3.1487766e+2, 17276.44, 15412.919, 7903.891, -0.0054466547, 0.078675315, 24303.3, 24303.3, 0.00026987135, 10.000083, 10.000063 
1.4999875e+1, 1.2489651e+2, -1692114.9, -1661300.9, 13012.17, -0.009469543, 0.085079856, -1656541.4, 59481.71, 0.00135349, 9.999968, 10.0003805 
1.4999968e+1, 1.3489625e+2, -1667616.6, -1739847.1, 10261.528, -0.015429582, 0.14827144, -1666187.1, -48161.45, 0.0008181531, 10.000074, 9.999116 
1.5000008e+1, 1.448945e+2, -1520661.1, -1543186.1, -487.6484, -0.013664232, 0.026390143, -1520650.6, -608.72406, 0.00037595516, 10.000087, 9.999781 
1.5000066e+1, 1.5489443e+2, -1438991.8, -1463707.8, -500.38565, 0.002568377, 0.042259485, -1438981.6, -16941.125, 0.00011312574, 10.000021, 9.999685 
1.5000078e+1, 1.648943e+2, -1356088.0, -1381324.3, -1240.0884, 0.013717872, 0.065211244, -1356027.3, -31986.68, 0.000014709239, 9.999953, 9.999613 
1.5000053e+1, 1.7489375e+2, -1268742.5, -1291383.8, -2360.8772, 0.02037864, 0.045383636, -1268498.9, -42453.184, 0.00000010097208, 9.999894, 9.999586 
1.5000027e+1, 1.8489325e+2, -1177728.1, -1203328.4, 399.49786, 0.020449068, 0.039769616, -1177721.9, -49671.105, 0.0, 9.999874, 9.999529 
1.5000004e+1, 1.9489294e+2, -1078159.1, -1108330.4, -1496.4573, 0.014708507, 0.053110342, -1078085.1, -48030.766, 0.0, 9.999901, 9.9994955 
1.5000005e+1, 2.0489243e+2, -976965.7, -1019052.1, 604.2198, 0.0046853507, 0.05713732, -976957.0, -44897.906, 0.0, 9.999968, 9.999403 
1.5000026e+1, 2.1489163e+2, -864532.5, -917835.56, -2039.7297, -0.010491626, 0.03516223, -864454.56, -30388.873, 0.0, 10.000083, 9.999369 
1.50001e+1, 2.2489072e+2, -795325.6, -886502.44, -11655.395, -0.007628289, 0.030714303, -793859.25, -57784.93, 0.0, 10.000113, 9.998897 
1.5000238e+1, 2.3488972e+2, -708458.5, -798479.94, -7130.4443, 0.014985618, 0.037132483, -707897.2, -69812.445, 0.0, 10.000055, 9.998856 
1.5000303e+1, 2.4488863e+2, -613102.9, -708114.75, 4339.676, 0.02004401, 0.045953136, -612905.1, -72809.555, 0.0, 10.000065, 9.998799 
1.5000317e+1, 2.5488743e+2, -503499.63, -606977.6, 8434.737, 0.0077593275, 0.0427168, -502816.6, -60709.74, 0.0, 10.0001545, 9.998777 
1.500029e+1, 2.6488593e+2, -433816.22, -572933.44, -2102.0127, 0.0016931602, 0.036726084, -433784.47, -89662.375, 0.0, 10.000177, 9.998327 
1.5000221e+1, 2.7488416e+2, -346713.03, -485691.13, -12044.434, 0.0024950057, 0.026887165, -345676.94, -99536.25, 0.0, 10.000126, 9.998278 
1.500038e+1, 2.8488296e+2, -230111.1, -358477.84, -1427.1127, 0.012457232, 0.072040506, -230095.23, -81942.12, 0.0000000059189293, 10.000167, 9.998458 
1.5000771e+1, 2.9488224e+2, -106136.89, -240417.34, 12085.271, 0.029415093, 0.14574616, -105057.89, -54897.29, 0.0000065077284, 10.000313, 9.998525 
1.5000619e+1, 3.0487868e+2, -90161.87, -255526.61, -1224.5575, 0.017412227, -0.04182298, -90152.8, -90152.8, 0.000074264535, 10.000293, 9.998101 
1.4999963e+1, 3.148782e+2, 15581.984, 13662.801, 4652.1445, -0.017067283, 0.105685234, 19372.473, 19372.473, 0.0002663471, 10.000077, 10.000053 
2.4999844e+1, 1.2489651e+2, -1705303.3, -1663133.5, -497.68726, -0.004381258, 0.09417571, -1663127.6, 52895.07, 0.0013145427, 9.999861, 10.000419 
2.5000066e+1, 1.3489598e+2, -1678330.6, -1739604.3, 1145.0579, -0.008632405, 0.12518351, -1678309.3, -60281.74, 0.0007913486, 9.999979, 9.999166 
2.500013e+1, 1.4489424e+2, -1523951.8, -1548156.0, -8661.416, -0.009878516, 0.0034911465, -1521171.6, -1127.9004, 0.00036019128, 10.000078, 9.999753 
2.5000155e+1, 1.5489452e+2, -1418304.6, -1457055.4, -11079.187, 0.0014017757, 0.05773607, -1415360.8, 6679.159, 0.00010584406, 10.000177, 9.999657 
2.5000134e+1, 1.648944e+2, -1327861.6, -1371079.6, -16033.939, 0.013339151, 0.08499591, -1322562.8, 1477.194, 0.000012859098, 10.000162, 9.999583 
2.5000077e+1, 1.7489351e+2, -1251041.8, -1286509.4, -17387.072, 0.02640509, 0.0339956, -1243940.1, -17892.045, 0.00000006033416, 10.000031, 9.999555 
2.5000018e+1, 1.8489294e+2, -1160373.0, -1191094.4, -5199.0938, 0.027207382, 0.020909214, -1159517.0, -31463.395, 0.0, 9.999977, 9.999564 
2.4999966e+1, 1.9489285e+2, -1060425.0, -1095439.4, -554.4468, 0.015483017, 0.05252362, -1060416.3, -30361.53, 0.0, 10.000005, 9.999534 
2.5000015e+1, 2.0489244e+2, -977307.5, -1033509.0, 5228.6055, 0.0059424844, 0.07132641, -976825.2, -44766.184, 0.0, 10.000028, 9.999275 
2.5000167e+1, 2.1489161e+2, -880180.44, -940035.44, -1766.7749, -0.0024365291, 0.059061654, -880128.3, -46061.137, 0.0, 10.000038, 9.999238 
2.5000274e+1, 2.248906e+2, -790332.75, -866224.25, -12967.214, 0.0006135847, 0.044158503, -788178.25, -52101.754, 0.0, 10.00007, 9.999058 
2.500034e+1, 2.3488948e+2, -687135.2, -769679.5, -5805.118, 0.01622102, 0.02182198, -686728.94, -48642.438, 0.0, 10.000123, 9.999022 
2.5000367e+1, 2.4488844e+2, -615921.4, -717357.4, 1820.6167, 0.019142585, 0.03156286, -615888.75, -75792.3, 0.0, 10.000079, 9.99873 
2.500037e+1, 2.548875e+2, -541373.8, -632664.25, -6974.3447, 0.008941928, 0.058147017, -540844.06, -98737.43, 0.0, 9.999927, 9.998712 
2.5000376e+1, 2.64886e+2, -459513.2, -582758.0, -7978.085, 0.0020200643, 0.055506427, -458998.9, -114876.87, 0.0, 9.99999, 9.99835 
2.5000405e+1, 2.7488402e+2, -320818.4, -471340.94, 3360.447, -0.00039476962, 0.021156395, -320743.44, -74601.32, 0.0, 10.000296, 9.998295 
2.5000593e+1, 2.8488275e+2, -205386.5, -344029.63, 8570.133, 0.009266348, 0.05737817, -204858.75, -56703.676, 0.0000000086392555, 10.000326, 9.998481 
2.500092e+1, 2.9488212e+2, -145365.23, -256671.34, -2140.287, 0.027148494, 0.13881186, -145324.1, -95162.1, 0.0000063841276, 10.000031, 9.998549 
2.500077e+1, 3.048787e+2, -134518.78, -252791.44, -20010.867, 0.023642575, -0.043966107, -131224.83, -131224.83, 0.00007245599, 9.999886, 9.998316 
2.500025e+1, 3.1487858e+2, 6524.3413, 29003.223, 4990.724, 0.011501652, 0.11297377, 30061.438, 30061.438, 0.00026087384, 9.999932, 10.000229 
3.4999856e+1, 1.2489627e+2, -1695940.8, -1643880.6, 3290.6907, 0.008960061, 0.10410099, -1643673.4, 72352.016, 0.0012623775, 9.999862, 10.000551 
3.5000268e+1, 1.3489571e+2, -1667428.5, -1717849.8, 6167.807, 0.012862007, 0.11814944, -1666685.0, -48655.285, 0.000755357, 9.999982, 9.999313 
3.500036e+1, 1.4489403e+2, -1527191.0, -1554649.4, -6035.386, 0.0041389107, -0.0038984753, -1525923.0, -5877.436, 0.00033918672, 10.000078, 9.999708 
3.5000288e+1, 1.548946e+2, -1422746.1, -1465360.5, -7312.898, -0.003653202, 0.08786958, -1421526.1, 513.59283, 0.00009620481, 10.0001745, 9.999601 
3.500019e+1, 1.6489446e+2, -1329951.0, -1374465.4, -21130.45, 0.0019138203, 0.113985635, -1321518.1, 2522.5127, 0.000010539653, 10.000158, 9.999562 
3.500008e+1, 1.7489311e+2, -1252450.6, -1289243.8, -21886.68, 0.023057697, 0.021256354, -1242255.9, -16203.445, 0.000000028001644, 10.0000305, 9.9995365 
3.4999982e+1, 1.8489248e+2, -1151280.6, -1171569.4, -4652.1777, 0.025065059, -0.0040658065, -1150264.8, -22206.81, 0.0, 9.999974, 9.9997 
3.4999883e+1, 1.9489272e+2, -1051811.4, -1076549.9, 950.38544, 0.0063269786, 0.04722641, -1051774.9, -21719.637, 0.0, 10.000001, 9.999665 
3.5000026e+1, 2.0489244e+2, -990495.94, -1059383.1, 5553.718, 0.004005603, 0.082484186, -990051.06, -57992.473, 0.0, 10.000022, 9.9991 
3.500043e+1, 2.1489157e+2, -892955.6, -966097.6, -851.60364, 0.019485723, 0.082734264, -892945.75, -58877.043, 0.0, 10.000036, 9.999061 
3.500055e+1, 2.2489049e+2, -775932.8, -835416.8, -11428.267, 0.02053066, 0.058734052, -773812.75, -37734.055, 0.0, 10.000066, 9.99927 
3.500038e+1, 2.3488927e+2, -672243.25, -738539.4, -3271.4756, 0.0077865752, 0.006486184, -672082.2, -33994.39, 0.0, 10.000121, 9.999236 
3.5000286e+1, 2.4488826e+2, -631838.06, -749138.0, -4087.2502, 0.0027621547, 0.018355684, -631695.8, -91598.31, 0.0, 10.000074, 9.998513 
3.5000265e+1, 2.5488743e+2, -558168.0, -666720.75, -12424.054, 0.005070035, 0.08173252, -556764.2, -114656.164, 0.0, 9.999924, 9.998479 
3.5000348e+1, 2.6488593e+2, -439311.47, -539979.44, 2924.5352, -0.00017522687, 0.07470428, -439226.56, -95102.99, 0.0, 9.999988, 9.998645 
3.5000613e+1, 2.7488378e+2, -299093.28, -425070.63, 15556.467, -0.009648935, -0.00624527, -297200.72, -51057.39, 0.0, 10.000292, 9.998614 
3.5000762e+1, 2.848826e+2, -224675.42, -382867.72, -2292.0532, -0.0066070436, 0.03499442, -224642.22, -76486.664, 0.000000011844628, 10.000321, 9.998217 
3.5000697e+1, 2.948823e+2, -166189.66, -298654.56, -12995.938, 0.0012146207, 0.1771837, -164926.69, -114765.055, 0.0000061783935, 10.000028, 9.998262 
3.5000655e+1, 3.0487898e+2, -105812.84, -192457.84, -19349.998, 0.023309497, -0.0062795593, -101687.88, -101687.88, 0.00006980885, 9.999884, 9.998732 
3.5000852e+1, 3.1487873e+2, 32424.184, 83806.51, 11687.587, 0.07671932, 0.10250784, 86340.08, 86340.08, 0.00025299258, 9.999929, 10.000607 
4.499993e+1, 1.2489569e+2, -1647469.9, -1613668.1, 2554.645, 0.015657121, 0.08218352, -1613476.1, 102555.17, 0.0011988538, 10.000164, 10.000615 
4.500035e+1, 1.348956e+2, -1660557.0, -1704260.3, -659.154, 0.022808041, 0.13437991, -1660547.1, -42516.203, 0.0007112032, 9.999987, 9.999405 
4.5000434e+1, 1.44894e+2, -1551668.8, -1563286.9, -8146.742, 0.0129454555, 0.014383128, -1547472.0, -27426.084, 0.00031351, 9.999897, 9.999737 
4.5000374e+1, 1.5489441e+2, -1458528.3, -1479932.0, -4509.777, 0.00047809238, 0.08580195, -1457616.8, -35574.754, 0.000084590996, 9.999917, 9.999626 
4.500023e+1, 1.6489422e+2, -1357103.0, -1384850.5, -15234.317, 0.0005854804, 0.1084889, -1350371.8, -26328.691, 0.000007991499, 9.999961, 9.999587 
4.500004e+1, 1.7489307e+2, -1249404.9, -1284546.9, -12815.831, 0.01567954, 0.03043991, -1245227.6, -19174.492, 0.000000008983813, 10.000038, 9.999565 
4.499995e+1, 1.8489243e+2, -1144677.8, -1172784.1, 20.444286, 0.021329554, 0.005004112, -1144677.8, -16619.178, 0.0, 10.000039, 9.99966 
4.4999942e+1, 1.9489245e+2, -1060324.5, -1085512.8, -8334.674, 0.014396067, 0.0401684, -1057816.4, -27758.676, 0.0, 9.999964, 9.999623 
4.5000127e+1, 2.0489211e+2, -993132.7, -1056931.0, 2210.895, 0.013757295, 0.0682945, -993056.1, -60994.625, 0.0, 9.999987, 9.999135 
4.5000514e+1, 2.1489131e+2, -879853.9, -955065.8, 11542.503, 0.021011746, 0.072382696, -878122.3, -44051.676, 0.0, 10.000107, 9.999103 
4.5000625e+1, 2.2489032e+2, -767119.5, -832783.94, -1262.9138, 0.018452013, 0.055658747, -767095.25, -31015.332, 0.0, 10.0001335, 9.999256 
4.5000458e+1, 2.348892e+2, -682309.4, -744745.6, -10971.676, 0.006388429, 0.013212879, -680437.5, -42348.805, 0.0, 10.000058, 9.999224 
4.500038e+1, 2.4488817e+2, -626511.5, -743227.9, -9847.022, 0.0038509695, 0.022815041, -625686.56, -85588.05, 0.0, 10.000096, 9.998544 
4.50004e+1, 2.5488722e+2, -507775.8, -639129.25, 533.9242, 0.0098898, 0.07142179, -507773.63, -65663.86, 0.0, 10.000256, 9.998508 
4.5000514e+1, 2.6488575e+2, -405446.13, -516228.38, 17881.979, 0.007939846, 0.0627148, -402631.22, -58506.29, 0.0, 10.000187, 9.998713 
4.500081e+1, 2.7488378e+2, -356266.53, -444439.22, 12378.263, 0.0022663285, -0.008071949, -354561.75, -108418.49, 0.0, 9.999864, 9.998688 
4.5000932e+1, 2.8488272e+2, -296025.66, -417449.72, -3906.8782, 0.0028139884, 0.040711712, -295900.1, -147745.67, 0.000000014278152, 9.999833, 9.998215 
4.500078e+1, 2.9488242e+2, -150101.61, -292521.28, 5642.319, 0.0007487481, 0.1871646, -149878.44, -99718.43, 0.0000058442592, 10.000145, 9.998249 
4.5000666e+1, 3.0487898e+2, -61584.848, -176292.89, -10252.93, 0.020175463, -0.0064567802, -60675.617, -60675.617, 0.000066210356, 10.000209, 9.998687 
4.500089e+1, 3.148786e+2, 26439.64, 67196.31, -13483.045, 0.08740507, 0.09182501, 71252.98, 71252.98, 0.0002424885, 9.999946, 10.000487 
5.5000037e+1, 1.2489479e+2, -1646451.6, -1613113.1, -4158.941, 0.0085312845, 0.029688697, -1612602.1, 103438.0, 0.0011275938, 10.000172, 10.000616 
5.5000323e+1, 1.3489567e+2, -1658302.1, -1699263.8, -7773.9277, 0.02070716, 0.17661095, -1656876.4, -38845.535, 0.00066134764, 9.999986, 9.99944 
5.500036e+1, 1.4489415e+2, -1543898.4, -1546753.3, -7443.06, 0.014806836, 0.057686504, -1537747.1, -17702.123, 0.00028458898, 9.999895, 9.999852 
5.500038e+1, 1.5489388e+2, -1450058.4, -1463580.3, -3032.1746, 0.008699048, 0.050341077, -1449409.5, -27362.646, 0.00007188515, 9.999922, 9.999737 
5.5000246e+1, 1.6489375e+2, -1351532.9, -1373289.3, -12871.096, 0.0046782624, 0.067745976, -1345558.8, -21511.408, 0.0000055425044, 9.999962, 9.999665 
5.499996e+1, 1.748934e+2, -1244888.4, -1273724.5, -9770.565, 0.0038801725, 0.062956534, -1241889.8, -15839.621, 0.00000000116644, 10.000032, 9.999642 
5.4999924e+1, 1.8489279e+2, -1160638.8, -1204607.0, -2747.282, 0.014341812, 0.048589192, -1160467.8, -32412.365, 0.0, 10.000034, 9.999444 
5.500014e+1, 1.9489208e+2, -1075591.8, -1117199.6, -10764.497, 0.03696653, 0.030350782, -1072971.8, -42909.582, 0.0, 9.999964, 9.999406 
5.5000305e+1, 2.0489143e+2, -975061.0, -1018980.44, 6476.866, 0.032513794, 0.027643595, -974125.75, -42057.805, 0.0, 9.999985, 9.999396 
5.500042e+1, 2.1489085e+2, -861903.2, -917199.75, 16617.896, 0.0000465065, 0.027599974, -857293.44, -23220.332, 0.0, 10.000105, 9.999364 
5.50005e+1, 2.2489011e+2, -784225.5, -867043.25, -4121.3525, -0.0077564153, 0.03404793, -784020.94, -47940.637, 0.0, 10.000129, 9.999023 
5.500056e+1, 2.3488924e+2, -699146.7, -779705.06, -13378.638, 0.01040575, 0.042349156, -696982.94, -58893.766, 0.0, 10.000058, 9.998984 
5.5000645e+1, 2.4488816e+2, -606651.56, -701522.0, -4225.3657, 0.020002209, 0.043770604, -606463.75, -66364.07, 0.0, 10.000094, 9.998832 
5.500077e+1, 2.5488684e+2, -487889.25, -597177.6, 7000.186, 0.020902833, 0.026958875, -487442.7, -45330.734, 0.0, 10.000253, 9.998799 
5.500087e+1, 2.6488543e+2, -416580.22, -538204.25, 5871.5703, 0.024718694, 0.018184153, -416297.44, -72171.164, 0.0, 10.000183, 9.998563 
5.5000985e+1, 2.7488402e+2, -367943.84, -467893.53, 129.9039, 0.033291537, 0.01593676, -367943.7, -121801.805, 0.0, 9.999862, 9.998528 
5.5001086e+1, 2.8488308e+2, -278024.03, -379958.44, 6927.5996, 0.034520637, 0.07402328, -277555.4, -129403.67, 0.000000014996283, 9.999832, 9.998472 
5.5001146e+1, 2.9488254e+2, -131415.88, -252568.78, 18456.475, 0.022842469, 0.1701239, -128666.59, -78509.625, 0.0000053587105, 10.00014, 9.998526 
5.5000794e+1, 3.0487874e+2, -98161.03, -251266.23, -19543.264, 0.011630556, -0.045333143, -95705.78, -95705.78, 0.00006167987, 10.000205, 9.998174 
5.500036e+1, 3.148781e+2, -17289.57, -23095.145, -19047.12, 0.038432408, 0.07840993, -925.31445, -925.31445, 0.00022941288, 9.999945, 9.999867 
6.500019e+1, 1.2489482e+2, -1653949.5, -1633285.1, 24534.926, 0.005763415, 0.032983515, -1616995.5, 99043.6, 0.001052614, 10.000193, 10.000466 
6.5000457e+1, 1.3489552e+2, -1617130.9, -1691171.5, 8364.245, 0.019874305, 0.17229998, -1616197.8, 1834.5342, 0.00060904585, 10.0003195, 9.999334 
6.500045e+1, 1.448939e+2, -1488672.5, -1513987.6, -305.1345, 0.017286358, 0.046557724, -1488668.9, 31378.752, 0.000254567, 10.000249, 9.999907 
6.5000474e+1, 1.5489379e+2, -1433252.3, -1448906.0, -375.45807, 0.021094551, 0.048523452, -1433243.3, -11195.402, 0.00005931439, 10.0000105, 9.999795 
6.5000314e+1, 1.6489376e+2, -1355474.5, -1372446.5, -7218.1416, 0.017173808, 0.072273426, -1352819.9, -28772.553, 0.0000034805446, 9.999924, 9.99969 
6.499997e+1, 1.7489347e+2, -1249296.5, -1273187.9, -8228.67, 0.0040426543, 0.07058528, -1246736.8, -20687.176, 0.00000000000024211628, 9.999991, 9.999665 
6.4999926e+1, 1.8489285e+2, -1160255.8, -1211399.0, 1220.4999, 0.009443702, 0.0569829, -1160226.6, -32171.48, 0.0, 10.000068, 9.999381 
6.500018e+1, 1.9489205e+2, -1051851.4, -1112444.3, 4728.942, 0.035878457, 0.036226682, -1051484.6, -21421.707, 0.0, 10.000156, 9.999345 
6.500034e+1, 2.0489132e+2, -951404.3, -1000541.0, 19647.479, 0.030581817, 0.025637768, -944514.3, -12445.303, 0.0, 10.000118, 9.999458 
6.500035e+1, 2.1489069e+2, -880305.0, -918915.3, 14364.209, -0.00903316, 0.012659139, -875547.4, -41473.473, 0.0, 9.9999485, 9.999427 
6.5000445e+1, 2.2488992e+2, -820112.7, -895139.25, -5943.74, -0.01622017, 0.019629706, -819644.7, -83563.43, 0.0, 9.999928, 9.998927 
6.5000623e+1, 2.3488909e+2, -705445.2, -793055.9, -4663.206, 0.011221096, 0.04078328, -705197.7, -67106.69, 0.0, 10.00006, 9.998892 
6.500081e+1, 2.4488808e+2, -586200.06, -666805.9, 10040.472, 0.025379267, 0.04302625, -584968.25, -44867.43, 0.0, 10.000128, 9.999054 
6.5001017e+1, 2.5488687e+2, -490107.84, -572322.06, 16440.992, 0.02634688, 0.014660722, -486941.9, -44831.223, 0.0, 10.000126, 9.99903 
6.500108e+1, 2.6488554e+2, -431722.72, -565358.25, 5399.683, 0.028559057, 0.012977, -431504.9, -87380.766, 0.0, 10.000165, 9.998386 
6.500105e+1, 2.7488422e+2, -323268.16, -467353.94, -2673.3523, 0.034124177, 0.036029126, -323218.56, -77077.87, 0.0, 10.000258, 9.998341 
6.5001184e+1, 2.848832e+2, -214410.63, -334037.53, 4707.3438, 0.04268649, 0.09142542, -214225.67, -66074.53, 0.000000013847158, 10.000204, 9.998609 
6.500144e+1, 2.9488254e+2, -146890.63, -243241.53, 6285.6636, 0.047563422, 0.15640712, -146482.3, -96325.875, 0.0000047556837, 9.999962, 9.998675 
6.500099e+1, 3.0487868e+2, -148750.11, -280944.6, -21900.744, 0.026601627, -0.06942105, -145216.27, -145216.27, 0.000056396846, 9.999882, 9.998125 
6.500019e+1, 3.1487826e+2, -21041.396, -44568.723, 16328.578, 0.024737727, 0.08366433, -12680.293, -12680.293, 0.00021408794, 10.000004, 9.99969 
7.500038e+1, 1.2489576e+2, -1673376.6, -1675057.3, 29109.676, 0.0035075527, 0.08859902, -1645095.1, 70933.54, 0.0009783517, 10.000197, 10.000176 
7.500073e+1, 1.3489513e+2, -1632830.4, -1726211.9, 13644.289, 0.01272964, 0.119230665, -1630877.6, -12842.141, 0.00055803865, 10.000328, 9.99909 
7.500068e+1, 1.4489324e+2, -1488482.0, -1514259.0, -9571.219, 0.013643058, -0.020276148, -1485316.8, 34737.215, 0.00022607559, 10.000252, 9.999903 
7.500066e+1, 1.5489411e+2, -1434070.5, -1449538.9, -9144.605, 0.03863575, 0.081332974, -1429828.0, -7783.0376, 0.000048170983, 10.000006, 9.999793 
7.5000453e+1, 1.6489425e+2, -1357517.1, -1375502.1, -4631.57, 0.038050693, 0.122198485, -1356394.5, -32351.648, 0.0000019773436, 9.999918, 9.999671 
7.5000054e+1, 1.7489326e+2, -1250391.8, -1276264.3, -5067.7905, 0.011742762, 0.05266825, -1249434.5, -23382.81, 0.0, 9.999995, 9.999642 
7.499992e+1, 1.848926e+2, -1153469.0, -1197619.6, 4464.3955, 0.002055564, 0.029318947, -1153022.1, -24964.283, 0.0, 10.00007, 9.999475 
7.500009e+1, 1.9489238e+2, -1045579.5, -1098524.4, 8286.749, 0.010355201, 0.058514725, -1044312.8, -14253.023, 0.0, 10.000153, 9.999442 
7.500022e+1, 2.0489179e+2, -961489.6, -1020370.56, 13335.466, 0.0073645036, 0.062424134, -958610.25, -26545.48, 0.0, 10.0001135, 9.999324 
7.5000304e+1, 2.148908e+2, -890200.9, -939093.3, 8339.2295, -0.008338507, 0.027698739, -888817.7, -54744.598, 0.0, 9.999947, 9.999289 
7.5000453e+1, 2.2488976e+2, -816754.5, -887818.1, -1275.0442, -0.009098561, 0.011845932, -816731.6, -80648.62, 0.0, 9.999927, 9.998979 
7.500065e+1, 2.3488873e+2, -702072.5, -785850.56, 554.35126, 0.006957455, 0.007869407, -702068.8, -63974.523, 0.0, 10.000059, 9.998941 
7.500087e+1, 2.448879e+2, -574894.6, -642637.3, 9902.688, 0.018701509, 0.01877994, -573476.75, -33374.645, 0.0, 10.000125, 9.999221 
7.500112e+1, 2.5488734e+2, -478342.97, -547770.56, 16389.006, 0.024125436, 0.03473979, -474668.66, -32562.611, 0.0, 10.000125, 9.999199 
7.500114e+1, 2.6488614e+2, -445927.1, -594446.56, 8362.434, 0.017269354, 0.047288664, -445457.72, -101339.086, 0.0, 10.000163, 9.998186 
7.500101e+1, 2.748844e+2, -338823.03, -498512.34, 1566.1058, 0.0030105747, 0.051950738, -338807.66, -92667.95, 0.0, 10.000254, 9.998129 
7.5001216e+1, 2.8488314e+2, -213966.7, -332302.7, -4267.7754, 0.025108168, 0.09226359, -213812.98, -65660.23, 0.000000011324871, 10.000201, 9.998622 
7.500166e+1, 2.9488236e+2, -145172.72, -239833.45, -2810.8696, 0.07240199, 0.14520812, -145089.33, -94930.91, 0.000004098041, 9.999963, 9.998699 
7.5001204e+1, 3.0487877e+2, -119144.86, -219401.28, -18186.146, 0.060809415, -0.07856988, -115947.91, -115947.91, 0.000050636394, 9.999882, 9.998548 
7.5000376e+1, 3.1487912e+2, -2041.1908, -3711.0383, 24933.426, 0.041313756, 0.10923286, 22071.285, 22071.285, 0.00019707165, 9.999998, 9.999972 
8.500082e+1, 1.2489581e+2, -1655868.0, -1670319.4, 9081.291, 0.020490844, 0.07755293, -1651488.5, 64539.316, 0.00090933184, 10.000333, 10.000144 
8.500094e+1, 1.3489541e+2, -1680037.3, -1746210.0, 11331.501, 0.01861586, 0.1295137, -1678150.6, -60117.99, 0.0005120121, 9.999993, 9.999114 
8.500074e+1, 1.4489347e+2, -1539393.9, -1548968.0, 648.45593, 0.01075276, -0.014354767, -1539350.3, -19298.156, 0.00020159004, 9.999947, 9.999812 
8.50007e+1, 1.5489416e+2, -1408462.4, -1447821.5, -5861.9487, 0.0313307, 0.07949464, -1407607.9, 14437.031, 0.000039447743, 10.000229, 9.999698 
8.500051e+1, 1.6489427e+2, -1300231.1, -1341623.3, -3740.3403, 0.03458125, 0.11875882, -1299895.9, 24147.295, 0.0000010481418, 10.000285, 9.999726 
8.500021e+1, 1.748934e+2, -1228590.0, -1259238.4, 794.0269, 0.02226409, 0.05545484, -1228569.5, -2518.9983, 0.0, 10.000117, 9.999701 
8.5000074e+1, 1.8489274e+2, -1153294.9, -1197659.3, 15043.541, 0.010878236, 0.032358225, -1148674.9, -20618.719, 0.0, 10.000071, 9.999475 
8.500012e+1, 1.9489247e+2, -1045766.75, -1098431.5, 11707.724, -0.0013900314, 0.05570493, -1043281.3, -13222.497, 0.0, 10.000152, 9.999443 
8.500021e+1, 2.0489192e+2, -954969.9, -1020040.8, 10528.141, -0.00753203, 0.06396626, -953308.9, -21245.22, 0.0, 10.000171, 9.999298 
8.500036e+1, 2.1489103e+2, -866291.7, -930664.7, 13236.488, -0.00670008, 0.044590402, -863676.2, -29605.25, 0.0, 10.000124, 9.999262 
8.500049e+1, 2.2489e+2, -792062.4, -871889.8, 13512.741, -0.0054705553, 0.02655287, -789837.06, -53756.113, 0.0, 10.000079, 9.999015 
8.500059e+1, 2.348888e+2, -701892.7, -781278.56, 13566.512, -0.002923702, 0.0032477977, -699638.3, -61544.89, 0.0, 10.000041, 9.998981 
8.500082e+1, 2.4488796e+2, -605450.06, -669193.25, 9027.189, 0.008701248, 0.015503057, -604196.3, -64094.734, 0.0, 9.999966, 9.999116 
8.5001147e+1, 2.5488752e+2, -525635.9, -582766.7, -5578.404, 0.027318401, 0.055459153, -525096.3, -82991.11, 0.0, 9.999853, 9.99909 
8.500126e+1, 2.6488632e+2, -470348.9, -588927.5, -2650.8174, 0.024935354, 0.06613754, -470289.66, -126172.125, 0.0, 9.999921, 9.998342 
8.500126e+1, 2.7488446e+2, -339971.47, -480717.9, 17326.021, 0.007966065, 0.042200793, -337870.0, -91731.5, 0.0, 10.000166, 9.998293 
8.5001445e+1, 2.8488314e+2, -217434.63, -350357.75, 9005.741, 0.025758343, 0.07337236, -216827.25, -68675.016, 0.000000007967864, 10.000246, 9.998478 
8.500165e+1, 2.9488233e+2, -125710.9, -246902.7, -2749.2766, 0.064647734, 0.14037886, -125648.56, -75489.27, 0.0000034232567, 10.000167, 9.998552 
8.500108e+1, 3.0487898e+2, -75673.35, -168966.31, -26090.063, 0.051679242, -0.06683565, -68872.8, -68872.8, 0.00004462947, 10.0000515, 9.998813 
8.5000366e+1, 3.148799e+2, -18401.484, -225.50745, 7038.297, 0.04904013, 0.14958306, 2181.2488, 2181.2488, 0.00017893763, 9.999836, 10.000075 
9.500144e+1, 1.24894984e+2, -1640578.8, -1638791.9, -3239.819, 0.048839204, 0.00046834632, -1636324.5, 79712.03, 0.0008487081, 10.000334, 10.0003605 
9.5001143e+1, 1.3489637e+2, -1659992.6, -1705706.6, -1393.5194, 0.038716838, 0.20267887, -1659950.1, -41926.32, 0.00047347447, 9.999997, 9.999391 
9.500068e+1, 1.4489453e+2, -1550455.3, -1572212.1, 10686.683, 0.008521993, 0.06459398, -1546084.3, -26042.201, 0.00018256163, 9.999948, 9.999652 
9.500055e+1, 1.5489389e+2, -1420260.0, -1473297.8, 5453.2407, -0.0075608664, 0.042414147, -1419705.1, 2342.9238, 0.00003354367, 10.000233, 9.999521 
9.500046e+1, 1.6489375e+2, -1291839.9, -1324409.1, -9795.4, 0.0001687661, 0.061268706, -1289120.9, 34927.504, 0.00000057940093, 10.000287, 9.999844 
9.5000464e+1, 1.7489381e+2, -1219978.0, -1240821.5, -5226.315, 0.035716232, 0.078868404, -1218740.9, 7305.191, 0.0, 10.000114, 9.999827 
9.5000404e+1, 1.848933e+2, -1159661.3, -1210443.3, 17824.104, 0.03574642, 0.06680693, -1154029.8, -25979.35, 0.0, 10.000069, 9.999387 
9.5000273e+1, 1.9489232e+2, -1052045.0, -1111600.9, 15127.748, -0.0018692682, 0.027753344, -1048422.75, -18362.732, 0.0, 10.000153, 9.9993515 
9.50003e+1, 2.0489171e+2, -949566.1, -1008664.94, 8652.526, -0.016240863, 0.030445304, -948325.4, -16259.6455, 0.0, 10.00017, 9.999377 
9.5000494e+1, 2.1489143e+2, -860536.3, -918436.94, 11741.696, -0.0059833312, 0.06314523, -858245.8, -24178.268, 0.0, 10.000122, 9.999347 
9.500055e+1, 2.2489062e+2, -791212.06, -869582.0, 11870.62, -0.0070329886, 0.06372732, -789453.5, -53378.29, 0.0, 10.000077, 9.999031 
9.5000476e+1, 2.3488931e+2, -700767.6, -778489.0, 12310.171, -0.019493602, 0.026376056, -698864.44, -60776.094, 0.0, 10.000039, 9.9990015 
9.500064e+1, 2.4488825e+2, -632006.25, -723945.25, 4375.505, -0.0057523134, 0.034013785, -631798.5, -91699.234, 0.0, 9.999964, 9.99874 
9.5001066e+1, 2.5488743e+2, -553182.0, -639343.06, -9434.172, 0.0341332, 0.07558183, -552161.06, -110052.89, 0.0, 9.99985, 9.998703 
9.5001435e+1, 2.6488614e+2, -435568.44, -516125.47, 6334.9033, 0.05047468, 0.068655625, -435073.3, -90952.32, 0.0, 9.999918, 9.998843 
9.5001817e+1, 2.748844e+2, -303012.25, -404277.9, 26565.238, 0.046449732, 0.0067026857, -296466.47, -50329.336, 0.0, 10.000167, 9.998818 
9.5001847e+1, 2.8488317e+2, -237845.64, -392608.13, 5272.167, 0.04166981, 0.03582391, -237666.25, -89516.695, 0.0000000042394483, 10.000246, 9.998187 
9.5001394e+1, 2.9488245e+2, -148779.81, -293536.4, -4963.579, 0.022619396, 0.14071335, -148609.83, -98450.74, 0.000002739973, 10.000162, 9.998235 
9.5000595e+1, 3.0487928e+2, -69208.11, -153764.63, -33828.215, -0.002434614, -0.035277404, -57340.273, -57340.273, 0.000038513957, 10.000045, 9.9989195 
9.5000154e+1, 3.1488052e+2, -24311.482, -12258.164, 2408.2124, 0.042936888, 0.20322779, -11794.823, -11794.823, 0.00016010099, 9.999835, 9.999993 
1.050016e+2, 1.2489514e+2, -1684518.6, -1654904.1, -5234.662, 0.047510818, 0.02353333, -1654006.0, 62030.84, 0.00079770345, 10.000011, 10.000404 
1.0500123e+2, 1.3489652e+2, -1618661.5, -1671545.8, -17071.666, 0.037551332, 0.21326907, -1613629.4, 4394.086, 0.0004431459, 10.000221, 9.999516 
1.0500074e+2, 1.4489472e+2, -1503962.1, -1536873.6, 3802.9294, 0.0072054523, 0.065475695, -1503528.4, 16512.4, 0.00016917764, 10.000211, 9.999768 
1.05000675e+2, 1.5489428e+2, -1447687.5, -1474245.6, 18801.512, -0.00644216, 0.05133475, -1437948.5, -15904.266, 0.000030278157, 9.99999, 9.999632 
1.0500057e+2, 1.6489412e+2, -1340061.8, -1357996.6, 8004.382, -0.0025298425, 0.06721557, -1337009.0, -12964.326, 0.0000004316036, 9.999999, 9.999753 
1.05000496e+2, 1.7489395e+2, -1207483.5, -1245019.8, -3706.572, 0.020901611, 0.07269743, -1207121.0, 18923.826, 0.0, 10.000245, 9.999737 
1.0500042e+2, 1.848934e+2, -1134751.5, -1195671.1, 10607.185, 0.023107678, 0.059222054, -1132957.4, -4907.8643, 0.0, 10.000228, 9.999412 
1.0500038e+2, 1.9489253e+2, -1080573.0, -1122993.8, 15538.135, 0.003588729, 0.029117193, -1075490.5, -45432.813, 0.0, 9.999945, 9.999374 
1.050004e+2, 2.0489188e+2, -990937.94, -1029512.8, 16900.346, -0.009668032, 0.027923202, -984581.1, -52517.504, 0.0, 9.999888, 9.999371 
1.0500047e+2, 2.1489143e+2, -869336.5, -923016.7, 13020.792, -0.01730031, 0.043376017, -866344.9, -32277.438, 0.0, 10.000065, 9.999343 
1.05000556e+2, 2.248907e+2, -781818.1, -862520.1, 6377.577, -0.01711084, 0.050683722, -781317.2, -45242.8, 0.0, 10.000131, 9.999054 
1.05000645e+2, 2.3488973e+2, -693086.56, -772844.94, 6684.7227, -0.008602959, 0.045684185, -692530.2, -54446.0, 0.0, 10.000083, 9.99902 
1.0500083e+2, 2.4488865e+2, -613964.5, -727722.94, 11416.588, 0.00829599, 0.054928705, -612830.06, -72734.54, 0.0, 10.000141, 9.99863 
1.0500114e+2, 2.548874e+2, -493925.03, -623055.56, 16886.479, 0.03301684, 0.065046996, -491753.3, -49644.547, 0.0, 10.00031, 9.998593 
1.0500146e+2, 2.64886e+2, -384660.28, -475085.2, 27117.111, 0.046948276, 0.04652747, -377151.72, -33029.445, 0.0, 10.0001955, 9.998993 
1.0500186e+2, 2.748845e+2, -349262.47, -409759.25, 19453.06, 0.053831555, -0.0057087704, -343547.16, -97411.875, 0.0, 9.999777, 9.998969 
1.05001934e+2, 2.8488347e+2, -308646.84, -422842.22, 4233.5107, 0.0502032, 0.03385801, -308490.13, -160344.39, 0.0000000012344323, 9.999742, 9.998223 
1.05001524e+2, 2.9488292e+2, -155621.89, -293098.13, 19397.734, 0.022907913, 0.15234025, -152937.31, -102783.125, 0.0000020653147, 10.000095, 9.998271 
1.0500058e+2, 3.0487972e+2, -47164.957, -144844.48, -10795.385, -0.015741661, -0.029005872, -45986.094, -45986.094, 0.00003243676, 10.0002, 9.998909 
1.0499993e+2, 3.1488058e+2, -11882.773, -30783.004, 16259.844, 0.027704464, 0.17393346, -2526.3154, -2526.3154, 0.00014094144, 10.000025, 9.999775 
1.150013e+2, 1.24896266e+2, -1692499.0, -1673009.0, 2982.934, 0.013787317, 0.144205, -1672562.8, 43466.234, 0.0007564602, 10.000017, 10.0002775 
1.15001164e+2, 1.3489589e+2, -1620333.9, -1674655.4, -9104.328, 0.008330126, 0.1613362, -1618848.6, -817.08936, 0.00042056636, 10.000218, 9.999496 
1.15000874e+2, 1.4489402e+2, -1478299.3, -1482383.3, -4099.706, -0.00073374156, -0.011889053, -1475761.1, 44287.223, 0.00016082273, 10.000206, 10.000145 
1.15001075e+2, 1.5489526e+2, -1420223.8, -1418239.5, 11301.562, 0.034158334, 0.10551442, -1407886.6, 14147.351, 0.000029173776, 9.999994, 10.000014 
1.1500087e+2, 1.6489531e+2, -1359353.0, -1399108.8, 16541.387, 0.026434066, 0.13693872, -1353370.8, -29338.46, 0.0000005105562, 10.000004, 9.999469 
1.1500028e+2, 1.7489381e+2, -1228124.3, -1288194.6, 5853.928, -0.025522804, 0.037618544, -1227559.1, -1512.4286, 0.0, 10.000246, 9.99944 
1.15000114e+2, 1.8489303e+2, -1126238.9, -1177629.8, 94.46763, -0.030780893, 0.009701206, -1126238.8, 1815.0986, 0.0, 10.000227, 9.999536 
1.1500043e+2, 1.9489308e+2, -1071167.6, -1103317.4, 5249.196, 0.013944467, 0.059411645, -1070332.3, -40280.254, 0.0, 9.999945, 9.99951 
1.15000494e+2, 2.0489244e+2, -997843.94, -1043325.2, 23172.633, 0.0110251745, 0.056671876, -988117.56, -56060.164, 0.0, 9.9998865, 9.999276 
1.150003e+2, 2.1489103e+2, -875938.9, -936462.56, 19957.61, -0.041687347, -0.014989924, -869950.4, -35879.797, 0.0, 10.000063, 9.999251 
1.15000494e+2, 2.2489022e+2, -780445.9, -859091.1, 4478.433, -0.03678499, -0.012817544, -780191.6, -44112.984, 0.0, 10.000129, 9.999079 
1.15001105e+2, 2.3489006e+2, -691801.6, -769726.2, 5276.8467, 0.028641703, 0.06121501, -691445.94, -53365.02, 0.0, 10.000081, 9.9990425 
1.1500139e+2, 2.4488913e+2, -604424.56, -707204.9, 17453.9, 0.049498428, 0.07845821, -601541.44, -61451.203, 0.0, 10.000138, 9.998772 
1.15001336e+2, 2.548874e+2, -482987.03, -600063.7, 23435.227, 0.021933902, 0.023998393, -478470.25, -36363.273, 0.0, 10.000309, 9.998753 
1.1500131e+2, 2.6488593e+2, -398419.84, -503494.5, 11044.653, 0.012919881, 0.00018227428, -397271.47, -53150.035, 0.0, 10.000195, 9.998798 
1.15001395e+2, 2.7488476e+2, -364933.97, -441532.66, 3985.4482, 0.028931549, 0.0034855737, -364727.16, -118594.04, 0.0, 9.999773, 9.998754 
1.1500168e+2, 2.8488407e+2, -284541.06, -370959.84, 16983.313, 0.051158704, 0.0659796, -281323.28, -133182.39, 0.00000000006210851, 9.999735, 9.998583 
1.1500202e+2, 2.948838e+2, -128926.984, -237199.73, 33471.254, 0.062208325, 0.17569366, -119415.33, -69270.77, 0.0000014487281, 10.000094, 9.998655 
1.1500103e+2, 3.0488032e+2, -55747.89, -162097.27, -17572.172, 0.0092617, -0.046923686, -52919.645, -52919.645, 0.000026628812, 10.000198, 9.998791 
1.1499968e+2, 3.148801e+2, -38091.805, -83467.12, 12067.931, -0.00091940846, 0.060594335, -35081.902, -35081.902, 0.00012196842, 10.000017, 9.999417 
1.2500137e+2, 1.24896765e+2, -1689158.8, -1675279.1, 33429.164, 0.017124793, 0.16739717, -1648077.0, 67947.73, 0.0007247361, 10.000059, 10.000242 
1.2500133e+2, 1.3489622e+2, -1648268.1, -1681716.5, 24034.547, 0.013855474, 0.16311784, -1635711.6, -17682.861, 0.00040489552, 10.000001, 9.999553 
1.2500104e+2, 1.4489426e+2, -1500676.5, -1490240.5, 16609.049, 0.0034548286, -0.022280287, -1478049.0, 41997.105, 0.00015657058, 10.000038, 10.000172 
1.2500118e+2, 1.5489565e+2, -1389614.0, -1400591.3, 4856.6475, 0.03522987, 0.105168276, -1387773.8, 34256.434, 0.000029665785, 10.000192, 10.00004 
1.2500098e+2, 1.6489574e+2, -1332371.6, -1393285.9, 8862.233, 0.026665153, 0.14170109, -1331108.4, -7080.144, 0.0000007617598, 10.000218, 9.999406 
1.2500046e+2, 1.7489418e+2, -1252185.9, -1307464.9, 14205.633, -0.024415819, 0.043291487, -1248749.0, -22705.223, 0.0, 10.000113, 9.999373 
1.2500025e+2, 1.8489335e+2, -1141192.5, -1181991.3, 8689.377, -0.03326812, 0.014404169, -1139419.0, -11367.803, 0.0, 10.00011, 9.999563 
1.2500039e+2, 1.9489342e+2, -1029886.7, -1080059.5, 5813.268, 0.0019848277, 0.062069636, -1029221.94, 826.7471, 0.0, 10.000214, 9.999539 
1.2500045e+2, 2.0489275e+2, -964891.06, -1033662.6, 23561.316, 0.004217937, 0.058635622, -957593.3, -25539.203, 0.0, 10.00014, 9.999221 
1.250004e+2, 2.148913e+2, -905937.25, -957623.75, 22211.127, -0.0283959, -0.012066051, -897704.0, -63635.96, 0.0, 9.999885, 9.999192 
1.2500061e+2, 2.2489043e+2, -815200.56, -872219.44, 13882.119, -0.024012063, -0.014939004, -812000.4, -75923.69, 0.0, 9.999873, 9.999112 
1.250011e+2, 2.3489018e+2, -684434.4, -762029.94, 14920.054, 0.019031385, 0.047774706, -681664.44, -43585.086, 0.0, 10.000114, 9.999079 
1.250014e+2, 2.4488924e+2, -600526.25, -695194.2, 21705.104, 0.037074775, 0.05872995, -595787.0, -55698.85, 0.0, 10.000121, 9.998863 
1.2500148e+2, 2.548876e+2, -539993.6, -617628.75, 23060.57, 0.026454084, 0.00504868, -533660.44, -91557.016, 0.0, 9.999874, 9.998841 
1.2500139e+2, 2.6488626e+2, -452794.72, -547110.75, 8975.467, 0.015906086, -0.0053677307, -451948.16, -107830.8, 0.0, 9.999896, 9.998643 
1.250012e+2, 2.748852e+2, -313930.75, -435348.34, 4227.9116, 0.01260152, 0.02229402, -313783.7, -67653.81, 0.0, 10.000201, 9.99859 
1.250015e+2, 2.8488445e+2, -209517.81, -316419.34, 15036.158, 0.039820068, 0.08284197, -207443.17, -59305.105, 0.0, 10.000169, 9.99875 
1.2500212e+2, 2.948841e+2, -166289.22, -235911.58, 15280.192, 0.08028789, 0.16668713, -163083.27, -112941.98, 0.00000094519226, 9.999756, 9.998828 
1.2500115e+2, 3.048808e+2, -103970.56, -161767.53, -25474.488, 0.023151021, -0.057484798, -94345.39, -94345.39, 0.000021325412, 9.999767, 9.9990015 
1.2499972e+2, 3.148806e+2, -11234.322, -72687.69, 30542.697, -0.008004971, 0.03265838, 1363.185, 1363.185, 0.00010374953, 10.000211, 9.999399 
1.3500176e+2, 1.2489669e+2, -1688505.4, -1671148.9, 31961.42, 0.05085287, 0.097760476, -1646708.5, 69315.35, 0.0007016644, 10.000048, 10.000277 
1.3500172e+2, 1.348975e+2, -1638644.8, -1664302.8, 22627.334, 0.051969897, 0.21754709, -1625462.6, -7447.2207, 0.00039489288, 10.000011, 9.999667 
1.3500124e+2, 1.4489545e+2, -1521127.3, -1534813.1, 20984.906, 0.017767547, 0.032998536, -1505897.8, 14136.736, 0.00015526546, 10.000048, 9.999862 
1.3500094e+2, 1.5489542e+2, -1412526.0, -1447230.4, 10747.236, -0.007436837, 0.051473822, -1409467.4, 12565.566, 0.000031126172, 10.000188, 9.999722 
1.3500087e+2, 1.6489537e+2, -1322693.0, -1372021.3, 4855.5913, -0.0067283204, 0.082298055, -1322219.6, 1813.1072, 0.0000011270397, 10.000214, 9.999554 
1.3500105e+2, 1.7489502e+2, -1240767.9, -1284232.6, 10723.814, 0.022680266, 0.0886034, -1238266.1, -12229.746, 0.0, 10.000114, 9.999532 
1.3500085e+2, 1.8489437e+2, -1145275.3, -1190926.5, 12142.569, 0.014382669, 0.07304679, -1142246.5, -14204.67, 0.0, 10.000112, 9.999501 
1.3500024e+2, 1.9489354e+2, -1034781.1, -1090244.3, 9970.115, -0.033572048, 0.036962945, -1033043.3, -2995.4514, 0.0, 10.000214, 9.999471 
1.3500023e+2, 2.0489284e+2, -966842.6, -1037199.7, 13869.228, -0.031849187, 0.033785205, -964207.4, -32153.514, 0.0, 10.000137, 9.999198 
1.350008e+2, 2.1489224e+2, -907986.4, -961237.44, 13102.793, 0.02138054, 0.052040856, -904936.94, -70877.15, 0.0, 9.999882, 9.999169 
1.3500093e+2, 2.2489132e+2, -813265.94, -867179.9, 22613.768, 0.01915445, 0.045267764, -805036.8, -68968.37, 0.0, 9.999868, 9.999148 
1.3500065e+2, 2.3489009e+2, -681103.7, -755104.94, 24419.916, -0.039456178, 0.0046074972, -673771.7, -35692.176, 0.0, 10.000114, 9.999126 
1.3500084e+2, 2.44889e+2, -597531.8, -688731.3, 12355.603, -0.03083226, -0.0054749046, -595887.5, -55798.063, 0.0, 10.00012, 9.998908 
1.3500154e+2, 2.548881e+2, -537955.9, -612875.0, 14035.879, 0.045633927, 0.0077717975, -535412.6, -93314.56, 0.0, 9.999872, 9.998876 
1.3500167e+2, 2.64887e+2, -462457.6, -565857.2, 19970.723, 0.055379037, 0.029567508, -458734.47, -114624.336, 0.0, 9.999891, 9.998516 
1.3500132e+2, 2.7488574e+2, -321643.56, -451044.47, 16426.234, 0.001370727, 0.051543742, -319590.97, -73465.4, 0.0, 10.0002, 9.998483 
1.3500142e+2, 2.8488466e+2, -211175.58, -319790.78, -515.6647, 0.012991747, 0.084918335, -211173.13, -63035.867, 0.0, 10.000168, 9.998727 
1.3500184e+2, 2.9488382e+2, -169464.83, -241467.53, 316.32486, 0.07432483, 0.12378562, -169463.44, -119318.85, 0.0000005800232, 9.99975, 9.998793 
1.3500093e+2, 3.0488113e+2, -67651.0, -83562.18, -9642.563, 0.02481412, -0.06331306, -63105.77, -63105.77, 0.000016654767, 9.999757, 9.999542 
1.3500005e+2, 3.1488213e+2, 11200.734, -24076.854, 49041.348, 0.0021282195, 0.09084417, 45678.934, 45678.934, 0.00008670888, 10.000205, 9.999735 
1.4500196e+2, 1.2489679e+2, -1665307.6, -1673946.1, 34000.99, 0.055908427, 0.040389303, -1635352.6, 80668.1, 0.0006852014, 10.000266, 10.000152 
1.450018e+2, 1.3489828e+2, -1634628.1, -1665401.3, 11058.455, 0.055937923, 0.22874537, -1631066.5, -13059.331, 0.00038852147, 10.0000515, 9.99964 
1.4500122e+2, 1.4489631e+2, -1541885.5, -1557514.1, 19926.574, 0.015713476, 0.06184687, -1528295.8, -8269.854, 0.00015533686, 9.999959, 9.999749 
1.450009e+2, 1.5489584e+2, -1450545.9, -1478801.4, 23678.676, -0.019920139, 0.04717606, -1437100.5, -15071.257, 0.00003278088, 9.999983, 9.999604 
1.4500092e+2, 1.6489567e+2, -1335992.3, -1370901.0, 22409.45, -0.017757853, 0.06954199, -1325041.8, -1011.5141, 0.0000015078091, 10.000089, 9.999621 
1.4500128e+2, 1.748956e+2, -1210876.8, -1262130.3, 21073.047, 0.024700552, 0.09603906, -1203325.1, 22705.557, 0.0, 10.000286, 9.9996 
1.4500113e+2, 1.8489501e+2, -1118526.0, -1183142.8, 17900.824, 0.021362472, 0.08478444, -1113898.4, 14137.178, 0.0, 10.000317, 9.999456 
1.4500047e+2, 1.9489399e+2, -1043219.3, -1099929.5, 16319.218, -0.030631704, 0.03418264, -1038858.56, -8814.897, 0.0, 10.000178, 9.999421 
1.4500038e+2, 2.0489325e+2, -971989.4, -1040545.75, 18238.383, -0.028268721, 0.03111408, -967439.3, -35389.43, 0.0, 10.000105, 9.99919 
1.4500087e+2, 2.1489282e+2, -876309.56, -946497.9, 18039.291, 0.030168628, 0.06738385, -871944.7, -37890.61, 0.0, 10.000102, 9.999164 
1.4500096e+2, 2.2489186e+2, -791583.3, -864485.44, 32532.268, 0.027133456, 0.05930655, -779177.2, -43114.05, 0.0, 10.000051, 9.99908 
1.4500067e+2, 2.3489034e+2, -710188.75, -776898.4, 25731.21, -0.03907856, -0.004010116, -701417.1, -63340.04, 0.0, 9.999948, 9.999058 
1.4500083e+2, 2.4488923e+2, -616813.9, -692278.1, 5378.8174, -0.0372817, -0.015269258, -616432.4, -76345.195, 0.0, 9.999964, 9.99896 
1.450014e+2, 2.548886e+2, -500328.03, -589358.6, 7093.9834, 0.0330276, 0.020432422, -499766.34, -57673.145, 0.0, 10.000107, 9.998924 
1.4500158e+2, 2.648875e+2, -437107.44, -559231.6, 21239.842, 0.04577754, 0.044676274, -433518.84, -89413.766, 0.0, 10.000089, 9.9984665 
1.4500137e+2, 2.74886e+2, -373054.28, -480883.84, 22872.191, 0.004656742, 0.046526603, -368403.34, -122280.37, 0.0, 9.99987, 9.998437 
1.4500144e+2, 2.8488487e+2, -252776.64, -336081.0, 5922.6445, 0.013468259, 0.071061246, -252357.67, -104222.05, 0.0, 9.999867, 9.998759 
1.4500156e+2, 2.948841e+2, -115312.305, -213227.66, 10542.84, 0.055671055, 0.11500142, -114189.99, -64047.85, 0.00000034163278, 10.000112, 9.998814 
1.4500073e+2, 3.0488184e+2, -7422.144, -48769.094, -7320.5156, 0.01107715, -0.03305609, -6164.3057, -6164.3057, 0.000012640429, 10.000143, 9.999597 
1.4500043e+2, 3.1488287e+2, -49023.31, -69296.76, 11815.524, 0.03820231, 0.11821763, -43592.125, -43592.125, 0.000071064576, 9.99986, 9.999591 
1.5500197e+2, 1.2489701e+2, -1682887.4, -1712886.0, 26707.674, 0.026312852, -0.009356226, -1667255.4, 48760.816, 0.0006719969, 10.000276, 9.999879 
1.5500149e+2, 1.3489851e+2, -1646331.3, -1689190.1, 2860.507, 0.02075951, 0.19799048, -1646141.1, -28137.336, 0.00038301162, 10.000049, 9.999478 
1.5500094e+2, 1.4489688e+2, -1537071.4, -1545874.6, 20375.928, -0.007843729, 0.06584382, -1520627.1, -606.4943, 0.00015494693, 9.999952, 9.999831 
1.5500106e+2, 1.548969e+2, -1444216.0, -1466518.1, 25070.254, -0.004685787, 0.09139538, -1427928.6, -5909.0635, 0.000033834087, 9.999988, 9.999686 
1.550011e+2, 1.6489664e+2, -1335958.5, -1372255.6, 29067.64, -0.00865858, 0.10224187, -1319839.0, 4182.1133, 0.0000017896223, 10.000094, 9.999609 
1.5500112e+2, 1.7489594e+2, -1211988.6, -1264112.4, 28665.371, -0.020664698, 0.06654598, -1199308.8, 26718.26, 0.0, 10.000284, 9.999587 
1.5500109e+2, 1.8489526e+2, -1120796.9, -1187471.4, 12506.995, -0.015436046, 0.05044911, -1118528.0, 9504.339, 0.0, 10.000315, 9.999428 
1.5500106e+2, 1.9489475e+2, -1045139.25, -1103776.9, 11394.837, 0.008920456, 0.053314254, -1043002.8, -12966.716, 0.0, 10.000177, 9.999395 
1.550009e+2, 2.04894e+2, -971779.75, -1039659.0, 17800.184, 0.013121978, 0.050918493, -967395.2, -35352.848, 0.0, 10.000103, 9.999198 
1.5500063e+2, 2.1489306e+2, -875782.75, -945326.75, 18383.8, -0.0038565632, 0.03288709, -871222.06, -37171.03, 0.0, 10.000101, 9.999173 
1.5500073e+2, 2.2489202e+2, -803727.25, -889287.56, 28424.36, -0.0021377404, 0.025897875, -795145.1, -59084.152, 0.0, 10.00005, 9.99891 
1.5500121e+2, 2.3489091e+2, -722964.5, -802938.94, 22131.31, 0.019548051, 0.021977136, -717248.6, -79176.66, 0.0, 9.999946, 9.99888 
1.5500133e+2, 2.4488994e+2, -613593.8, -684806.7, 10491.919, 0.016315112, 0.030167798, -612080.2, -71998.875, 0.0, 9.99996, 9.999012 
1.5500104e+2, 2.548891e+2, -495792.28, -580055.7, 13108.103, -0.014918931, 0.042978287, -493800.25, -51711.42, 0.0, 10.000108, 9.998988 
1.5500104e+2, 2.6488778e+2, -434913.88, -554621.75, 13171.102, -0.016030725, 0.038809005, -433481.84, -89379.445, 0.0, 10.000089, 9.998498 
1.550014e+2, 2.74886e+2, -371564.88, -477024.8, 14737.134, 0.02059459, 0.006367722, -369544.22, -123421.89, 0.0, 9.9998665, 9.998465 
1.5500157e+2, 2.84885e+2, -247417.58, -324181.25, 14401.185, 0.040435653, 0.039866418, -244804.78, -96671.46, 0.0, 9.999864, 9.998843 
1.5500134e+2, 2.948849e+2, -108722.664, -200185.45, 21347.043, 0.021458892, 0.14104623, -103985.68, -53851.73, 0.00000019535571, 10.000114, 9.998901 
1.5500055e+2, 3.0488285e+2, -38355.984, -112731.414, -17229.057, -0.022491287, 0.03411326, -34558.746, -34558.746, 0.000009261703, 10.000142, 9.999156 
1.5500082e+2, 3.1488276e+2, -93581.734, -160532.56, 2616.2825, 0.090372354, 0.11538481, -93479.65, -93479.65, 0.000056915687, 9.999854, 9.998966 
1.65002e+2, 1.2489758e+2, -1701950.9, -1728068.0, -8025.429, 0.0082637295, 0.019931123, -1699681.9, 16329.283, 0.00065754744, 10.000168, 9.999827 
1.650015e+2, 1.3489856e+2, -1627661.5, -1674240.9, -19562.074, 0.010600533, 0.17037517, -1620536.0, -2532.8938, 0.00037533476, 10.00015, 9.999532 
1.6500095e+2, 1.4489698e+2, -1508349.4, -1527952.4, 10312.828, -0.0113666, 0.03952023, -1503923.3, 16095.999, 0.00015252095, 10.000132, 9.999867 
1.6500114e+2, 1.5489756e+2, -1423149.3, -1452462.6, 10500.75, -0.00015963963, 0.11743939, -1419775.9, 2237.6572, 0.000033788867, 10.000114, 9.999722 
1.6500124e+2, 1.648974e+2, -1342270.9, -1375609.6, 14954.035, -0.0033722015, 0.13567694, -1336546.3, -12531.931, 0.0000018950186, 10.000053, 9.999606 
1.6500118e+2, 1.748963e+2, -1261960.5, -1288964.5, 14184.008, -0.024338646, 0.061714206, -1255879.6, -29856.213, 0.0, 9.999945, 9.99958 
1.6500118e+2, 1.848955e+2, -1172575.9, -1213174.8, -1417.7043, -0.01921038, 0.0337079, -1172526.5, -44496.656, 0.0, 9.999963, 9.99942 
1.6500126e+2, 1.9489515e+2, -1053548.4, -1108618.8, -1657.3077, 0.01353666, 0.05323218, -1053498.5, -23466.377, 0.0, 10.000123, 9.999389 
1.6500108e+2, 2.0489441e+2, -959638.7, -1035666.5, 4462.7476, 0.017299343, 0.05219525, -959377.6, -27339.254, 0.0, 10.000195, 9.999182 
1.6500072e+2, 2.148933e+2, -866161.9, -942411.06, 2688.4736, -0.009844379, 0.018926201, -866067.2, -32018.594, 0.0, 10.0001745, 9.999158 
1.6500078e+2, 2.2489227e+2, -787614.7, -876047.94, 18151.994, -0.0062374207, 0.011016163, -784033.75, -47975.56, 0.0, 10.000136, 9.99896 
1.6500133e+2, 2.3489137e+2, -699458.1, -786131.3, 28025.9, 0.029842796, 0.023042496, -691185.5, -53118.684, 0.0, 10.000084, 9.998929 
1.6500145e+2, 2.448904e+2, -608241.56, -695908.06, 24658.988, 0.0289842, 0.03708201, -601781.5, -61705.254, 0.0, 10.000055, 9.99889 
1.6500112e+2, 2.548894e+2, -513776.3, -601859.0, 13630.173, -0.012906931, 0.04527376, -511715.38, -69629.1, 0.0, 10.000041, 9.99887 
1.6500103e+2, 2.6488805e+2, -431306.5, -541568.4, 4424.918, -0.0243357, 0.03769378, -431129.2, -87029.05, 0.0, 10.000066, 9.998598 
1.6500124e+2, 2.748863e+2, -325562.1, -443902.66, 10394.961, 0.0034193697, 0.0017560014, -324655.94, -78537.586, 0.0, 10.000135, 9.998562 
1.6500142e+2, 2.848853e+2, -217245.63, -314859.6, 12654.399, 0.027824223, 0.030376704, -215631.83, -67502.42, 0.0, 10.000093, 9.9987955 
1.650014e+2, 2.948851e+2, -143384.75, -222544.8, 8692.918, 0.026829023, 0.12935096, -142441.39, -92309.93, 0.00000010392393, 9.999903, 9.998849 
1.6500065e+2, 3.048834e+2, -67533.79, -130316.96, -20159.23, -0.018101113, 0.056067474, -61618.184, -61618.184, 0.0000064948904, 9.999957, 9.999124 
1.6500092e+2, 3.1488287e+2, -45032.406, -153801.33, 28588.277, 0.094999425, 0.098482944, -37976.17, -37976.17, 0.00004432351, 10.000258, 9.9988165 
1.7500205e+2, 1.2489851e+2, -1690555.8, -1703827.8, -6714.6963, -0.0042995308, 0.13039748, -1687751.3, 28254.525, 0.0006370072, 10.000165, 9.999995 
1.7500179e+2, 1.348984e+2, -1608116.8, -1635051.6, -19668.879, 0.023020266, 0.14460067, -1597746.5, 20258.725, 0.00036284848, 10.000155, 9.999798 
1.7500123e+2, 1.4489663e+2, -1508369.5, -1529214.4, 8779.047, 0.0026710355, -0.01902514, -1505164.9, 14857.298, 0.00014707113, 10.000136, 9.999857 
1.7500117e+2, 1.5489785e+2, -1424047.8, -1454240.6, 10067.157, -0.00963109, 0.12673618, -1420999.0, 1011.9024, 0.00003249045, 10.0001135, 9.999709 
1.7500126e+2, 1.6489796e+2, -1341939.8, -1374786.6, 10451.865, -0.0054658116, 0.17130686, -1338896.0, -14886.503, 0.0000018022155, 10.000052, 9.999613 
1.750015e+2, 1.748967e+2, -1261812.5, -1288488.8, 10369.671, 0.011908406, 0.08118019, -1258255.8, -32235.625, 0.0, 9.999944, 9.999585 
1.7500141e+2, 1.8489572e+2, -1171758.0, -1211666.4, 4241.148, 0.007401222, 0.034392007, -1171312.3, -43284.15, 0.0, 9.999964, 9.999431 
1.7500106e+2, 1.9489518e+2, -1052847.0, -1106926.1, 4700.144, -0.01780523, 0.033675253, -1052441.6, -22409.533, 0.0, 10.000122, 9.999401 
1.7500095e+2, 2.0489445e+2, -962441.7, -1041193.6, 3585.4412, -0.017181622, 0.03499168, -962278.8, -30240.572, 0.0, 10.000193, 9.999145 
1.7500108e+2, 2.1489352e+2, -869388.56, -948526.56, 2330.2224, 0.010380623, 0.02546278, -869320.0, -35273.176, 0.0, 10.000172, 9.999117 
1.7500111e+2, 2.2489259e+2, -769209.5, -837142.94, 15826.624, 0.01277006, 0.015402632, -765703.3, -29648.516, 0.0, 10.0001335, 9.999228 
1.7500101e+2, 2.3489168e+2, -680172.6, -746379.7, 26457.55, -0.0101489965, -0.001999848, -670898.75, -32836.883, 0.0, 10.000085, 9.999202 
1.750012e+2, 2.4489063e+2, -628984.7, -738881.3, 23897.512, -0.0012713881, 0.004074579, -624013.0, -83940.81, 0.0, 10.000055, 9.998595 
1.7500168e+2, 2.548895e+2, -535085.56, -645564.25, 13207.886, 0.037846126, 0.027132455, -533528.5, -91442.945, 0.0, 10.000039, 9.99857 
1.7500156e+2, 2.648883e+2, -419741.8, -517412.56, 6713.807, 0.020442925, 0.041263927, -419282.47, -75184.02, 0.0, 10.000064, 9.998765 
1.7500086e+2, 2.74887e+2, -313034.63, -418439.25, 13764.838, -0.049265098, 0.032459278, -311266.72, -65155.535, 0.0, 10.000137, 9.998736 
1.7500097e+2, 2.8488576e+2, -230423.08, -342227.66, 5409.132, -0.027999729, 0.042801514, -230161.98, -82038.06, 0.0, 10.000094, 9.998608 
1.7500173e+2, 2.9488477e+2, -158142.03, -252173.64, 2074.36, 0.067873344, 0.07946936, -158096.3, -107961.38, 0.00000004563321, 9.999898, 9.998647 
1.75001e+2, 3.048834e+2, -40744.23, -74513.49, -9198.456, 0.020897273, 0.032356966, -38401.215, -38401.215, 0.000004309572, 9.999956, 9.999507 
1.7500073e+2, 3.1488326e+2, -20730.973, -104798.5, 39558.25, 0.048709277, 0.0723073, -5043.921, -5043.921, 0.000033325945, 10.000264, 9.99915 
1.8500221e+2, 1.24898866e+2, -1712861.3, -1709316.4, 22877.1, 0.0031760249, 0.15173851, -1688143.1, 27859.75, 0.0006065531, 9.99999, 10.00004 
1.8500195e+2, 1.3489866e+2, -1609399.6, -1620310.5, -3662.088, 0.027741978, 0.1428359, -1608284.5, 9717.612, 0.00034376056, 10.00008, 9.999934 
1.8500137e+2, 1.4489682e+2, -1523145.6, -1550010.9, 12915.618, 0.0048770546, -0.028038336, -1517943.6, 2075.8967, 0.00013809917, 10.000094, 9.999734 
1.8500122e+2, 1.5489787e+2, -1445484.3, -1478332.9, 4875.49, -0.011938354, 0.11059876, -1444775.9, -22765.049, 0.000029920388, 10.000027, 9.999586 
1.8500131e+2, 1.6489798e+2, -1344066.9, -1368565.1, 4086.926, -0.004411328, 0.15981208, -1343403.1, -19393.463, 0.0000015280342, 10.000007, 9.999678 
1.850016e+2, 1.7489699e+2, -1243264.8, -1271938.4, 7962.449, 0.0231101, 0.08995234, -1241202.0, -15184.475, 0.0, 10.000038, 9.999653 
1.8500155e+2, 1.848961e+2, -1152961.0, -1206194.0, 9781.118, 0.017440842, 0.050076768, -1151220.6, -23196.004, 0.0, 10.000108, 9.999399 
1.850012e+2, 1.9489545e+2, -1040593.44, -1104365.1, 6601.947, -0.021327022, 0.0412109, -1039917.1, -9887.152, 0.0, 10.00022, 9.999371 
1.8500109e+2, 2.0489466e+2, -958386.9, -1037971.5, -1308.8679, -0.024001857, 0.03863866, -958365.3, -26328.695, 0.0, 10.000216, 9.999156 
1.8500122e+2, 2.1489379e+2, -879515.2, -952089.25, 392.68216, 0.010061514, 0.030872136, -879513.06, -45468.25, 0.0, 10.000096, 9.999129 
1.8500121e+2, 2.2489285e+2, -770718.9, -834300.25, 12233.211, 0.010442316, 0.01875529, -768446.4, -32393.926, 0.0, 10.000108, 9.99926 
1.8500105e+2, 2.348919e+2, -653332.0, -729560.2, 4507.5933, -0.023023063, -0.0041896645, -653066.4, -15007.127, 0.0, 10.000253, 9.999236 
1.8500125e+2, 2.448908e+2, -608163.3, -735127.5, -3467.7402, -0.011987551, -0.0031955703, -608068.7, -67998.69, 0.0, 10.000226, 9.998538 
1.8500176e+2, 2.5488955e+2, -541906.56, -655584.06, 3208.619, 0.042497616, 0.015461909, -541816.06, -99731.484, 0.0, 10.000022, 9.998509 
1.8500166e+2, 2.6488838e+2, -434688.38, -524875.5, 6829.2563, 0.030134695, 0.035392717, -434174.16, -90076.82, 0.0, 9.999964, 9.998762 
1.8500097e+2, 2.7488723e+2, -326420.3, -424668.44, 410.70834, -0.045450877, 0.042399447, -326418.6, -80310.02, 0.0, 10.000046, 9.998737 
1.8500103e+2, 2.848859e+2, -244044.31, -356200.84, -17936.03, -0.02687887, 0.04927305, -241245.81, -93123.57, 0.0, 10.000033, 9.998541 
1.8500164e+2, 2.9488468e+2, -159934.66, -261670.4, -12801.179, 0.07038172, 0.065558486, -158348.64, -108212.19, 0.000000013949684, 9.999924, 9.9985695 
1.8500094e+2, 3.048836e+2, -24232.246, -55340.39, -12467.054, 0.01781357, 0.050105363, -19852.514, -19852.514, 0.0000026617806, 10.000021, 9.999607 
1.8500103e+2, 3.148832e+2, -7218.004, -83004.93, 11214.939, 0.051613644, 0.051866405, -5593.251, -5593.251, 0.00002394661, 10.000293, 9.999286 
1.9500247e+2, 1.2489865e+2, -1718396.0, -1721482.6, 27803.947, 0.028263932, 0.08357761, -1692092.6, 23910.186, 0.0005643703, 9.999992, 9.999956 
1.9500199e+2, 1.3489936e+2, -1608934.0, -1619341.4, 165.4872, 0.022119347, 0.1660272, -1608931.4, 9062.512, 0.00031730495, 10.000081, 9.999941 
1.9500136e+2, 1.448976e+2, -1539676.9, -1584573.4, 10027.017, -0.008477726, 0.013631691, -1537539.3, -17528.012, 0.00012543245, 10.000094, 9.999496 
1.9500127e+2, 1.5489757e+2, -1461802.0, -1512767.4, 2790.502, -0.008649491, 0.06869502, -1461649.6, -39636.15, 0.000026112697, 10.000029, 9.999349 
1.9500135e+2, 1.6489746e+2, -1335324.0, -1350509.1, 4937.406, -0.002167849, 0.100606516, -1333859.9, -9845.08, 0.0000011234973, 10.000007, 9.999802 
1.950015e+2, 1.7489716e+2, -1234237.9, -1252996.9, 9565.794, 0.008253903, 0.088427514, -1230220.4, -4204.6865, 0.0, 10.000037, 9.9997835 
1.9500159e+2, 1.8489665e+2, -1157903.5, -1216264.6, 13802.013, 0.008804951, 0.08140197, -1154804.0, -26784.404, 0.0, 10.000107, 9.9993305 
1.9500165e+2, 1.9489595e+2, -1046099.44, -1115362.8, 11008.038, 0.001573043, 0.07617181, -1044392.0, -14366.039, 0.0, 10.000218, 9.999296 
1.9500148e+2, 2.0489506e+2, -954233.8, -1029006.06, -5945.813, -0.0052581644, 0.06380592, -953764.0, -21730.27, 0.0, 10.000214, 9.999218 
1.950011e+2, 2.1489403e+2, -875004.75, -942584.56, -3494.034, -0.012264473, 0.03402381, -874824.56, -40781.785, 0.0, 10.000095, 9.999195 
1.9500107e+2, 2.24893e+2, -785476.3, -864465.4, 17261.852, -0.014549584, 0.020520799, -781868.75, -45817.465, 0.0, 10.000106, 9.999053 
1.9500144e+2, 2.3489204e+2, -668088.44, -759769.3, 10289.154, -0.010191896, 0.016463047, -666947.94, -28888.926, 0.0, 10.000251, 9.999029 
1.9500154e+2, 2.448909e+2, -595686.0, -709116.7, -11396.034, -0.0044803247, 0.015470358, -594552.4, -54482.664, 0.0, 10.000225, 9.998717 
1.9500136e+2, 2.548896e+2, -529182.06, -629326.75, -4148.6655, -0.0006215034, 0.009740524, -529010.5, -86927.016, 0.0, 10.000022, 9.99869 
1.9500136e+2, 2.6488835e+2, -447308.16, -551091.3, 9470.398, 0.0030442192, 0.019978585, -446451.06, -102354.06, 0.0, 9.999963, 9.998582 
1.9500162e+2, 2.7488706e+2, -339048.63, -450680.72, 3494.5674, 0.01275915, 0.0314332, -338939.34, -92828.67, 0.0, 10.000045, 9.998559 
1.9500163e+2, 2.848858e+2, -240350.81, -347994.88, -22209.563, 0.029401045, 0.049904503, -235948.48, -87824.0, 0.0, 10.0000305, 9.998598 
1.9500121e+2, 2.9488483e+2, -156425.48, -254866.6, -15691.582, 0.033138085, 0.08736107, -153984.75, -103848.51, 0.0000000023315327, 9.999926, 9.998615 
1.950005e+2, 3.0488408e+2, -37157.87, -82651.78, -2950.5237, -0.028922345, 0.109648935, -36967.313, -36967.313, 0.0000014940416, 10.000024, 9.999418 
1.950018e+2, 3.1488279e+2, -13364.9795, -95412.04, 19569.025, 0.0973937, 0.041238047, -8936.593, -8936.593, 0.000016254342, 10.000291, 9.999201 
2.0500238e+2, 1.2489853e+2, -1724417.4, -1743014.0, 21221.688, 0.017703254, 0.042326435, -1710546.4, 5455.197, 0.0005112227, 10.000034, 9.999787 
2.05002e+2, 1.3489948e+2, -1617359.0, -1634125.4, -19328.244, 0.016943742, 0.15608199, -1604674.3, 13317.918, 0.00028397882, 10.000071, 9.9998455 
2.0500144e+2, 1.448979e+2, -1539809.6, -1582450.5, -6617.8604, -0.007680438, 0.02616114, -1538806.3, -18797.854, 0.000109345056, 10.000085, 9.9995165 
2.0500143e+2, 1.5489775e+2, -1452684.8, -1505174.8, 5189.2207, 0.0007552777, 0.06801825, -1452176.6, -30165.428, 0.000021261263, 10.000077, 9.999377 
2.0500149e+2, 1.6489755e+2, -1319362.8, -1351241.5, 15734.998, 0.0042660427, 0.09379091, -1312904.5, 11108.935, 0.00000067965186, 10.000153, 9.999726 
2.0500156e+2, 1.7489724e+2, -1198634.0, -1244257.4, 4235.044, -0.003053695, 0.08526379, -1198244.3, 27770.992, 0.0, 10.000318, 9.999708 
2.0500164e+2, 1.8489674e+2, -1130927.0, -1196197.9, -660.11053, -0.0050514564, 0.08311688, -1130920.3, -2901.3044, 0.0, 10.000261, 9.999393 
2.0500174e+2, 1.9489616e+2, -1076144.0, -1122174.4, 6483.8267, 0.00059571984, 0.08320241, -1075248.1, -45223.996, 0.0, 9.999979, 9.999365 
2.0500164e+2, 2.0489535e+2, -986062.75, -1043117.9, 758.8778, -0.0005188998, 0.072072886, -986052.7, -54021.453, 0.0, 9.99999, 9.999229 
2.0500132e+2, 2.1489426e+2, -843095.94, -925853.25, -1337.3845, -0.009879008, 0.040066637, -843074.4, -9034.178, 0.0, 10.000309, 9.9992075 
2.0500134e+2, 2.2489318e+2, -757715.5, -862651.75, 16298.098, -0.00939577, 0.023210919, -755242.5, -19193.018, 0.0, 10.000346, 9.99895 
2.0500174e+2, 2.3489207e+2, -698640.94, -785985.94, 16363.737, 0.002776624, 0.013607399, -695675.94, -57616.9, 0.0, 10.000091, 9.998926 
2.0500176e+2, 2.4489088e+2, -611907.44, -707146.4, -1779.3158, 0.0019426628, 0.009797699, -611874.25, -71804.21, 0.0, 10.0000725, 9.998804 
2.0500137e+2, 2.5488967e+2, -482445.06, -596866.9, -1998.8912, -0.015546502, 0.0054674526, -482410.16, -40328.027, 0.0, 10.0003, 9.998778 
2.0500134e+2, 2.6488844e+2, -408080.5, -537561.2, 8390.051, -0.009863316, 0.015867235, -407539.1, -63443.87, 0.0, 10.000256, 9.998535 
2.0500174e+2, 2.748871e+2, -361692.25, -467325.84, 11058.951, 0.027088283, 0.02653657, -360546.9, -114437.15, 0.0, 9.999913, 9.998508 
2.0500179e+2, 2.848858e+2, -253555.14, -356599.56, -1476.0948, 0.04630194, 0.043184955, -253534.0, -105409.61, 0.0, 9.999949, 9.998579 
2.050013e+2, 2.948848e+2, -92889.69, -227240.28, -711.85535, 0.02634481, 0.07983553, -92885.914, -42749.2, 0.000000000097020676, 10.000375, 9.998589 
2.050006e+2, 3.048843e+2, 7369.633, -81256.34, 2297.8918, -0.040952273, 0.14189464, 7429.1724, 7429.1724, 0.00000072960836, 10.000415, 9.999241 
2.0500216e+2, 3.1488264e+2, -55035.996, -116286.48, 20473.186, 0.11818924, 0.048457384, -48822.99, -48822.99, 0.000010315381, 10.000006, 9.999197 
2.1500193e+2, 1.2489852e+2, -1742751.1, -1782058.4, 26363.408, -0.033788454, 0.029246883, -1729521.6, -13522.484, 0.00045034575, 10.000037, 9.999518 
2.1500203e+2, 1.3489896e+2, -1631426.5, -1664400.8, -17413.898, 0.010737392, 0.11291131, -1623933.0, -5935.88, 0.0002457903, 10.000074, 9.999636 
2.1500167e+2, 1.4489765e+2, -1519731.0, -1541194.6, -7398.9873, 0.004891933, 0.0097386325, -1517427.6, 2583.3948, 0.00009091271, 10.000087, 9.999799 
2.1500166e+2, 1.5489839e+2, -1432094.8, -1462112.4, 5488.891, 0.014941643, 0.10866052, -1431122.5, -9118.379, 0.000015871614, 10.000076, 9.999674 
2.1500173e+2, 1.6489826e+2, -1338778.4, -1391398.9, 21708.527, 0.01235458, 0.13969602, -1330978.6, -6973.0396, 0.00000031009594, 10.000152, 9.999451 
2.1500179e+2, 1.7489713e+2, -1218369.8, -1285814.8, 10724.848, -0.012359496, 0.08067847, -1216705.4, 9310.91, 0.0, 10.00032, 9.999422 
2.1500167e+2, 1.848964e+2, -1116430.8, -1166298.3, -11252.85, -0.02672899, 0.055248488, -1114009.1, 14013.908, 0.0, 10.000262, 9.9995985 
2.1500145e+2, 1.9489609e+2, -1061242.3, -1091271.0, -3735.3118, -0.025316773, 0.061835054, -1060784.5, -30759.857, 0.0, 9.99998, 9.9995775 
2.1500152e+2, 2.0489548e+2, -989202.44, -1049071.5, 12437.333, -0.011031202, 0.06323557, -986721.5, -54692.188, 0.0, 9.999988, 9.999189 
2.150019e+2, 2.1489455e+2, -846415.94, -932302.6, 11213.797, 0.015612121, 0.049678847, -844975.94, -10938.9795, 0.0, 10.000307, 9.999165 
2.1500203e+2, 2.2489338e+2, -757972.25, -862573.0, 6510.364, 0.024053786, 0.02693687, -757568.6, -21521.576, 0.0, 10.000343, 9.998952 
2.1500196e+2, 2.3489195e+2, -698885.5, -786070.6, 7022.9556, 0.014621555, -0.01333597, -698323.4, -60263.92, 0.0, 10.00009, 9.998926 
2.1500188e+2, 2.4489075e+2, -612594.06, -708541.44, 6151.436, 0.0063697863, -0.019805765, -612201.25, -72130.43, 0.0, 10.000072, 9.9987955 
2.1500179e+2, 2.548898e+2, -482513.75, -596816.75, 6883.7896, -0.0040803677, 0.0022986776, -482100.66, -40020.0, 0.0, 10.000299, 9.998779 
2.1500158e+2, 2.648887e+2, -403141.84, -526715.2, -4435.8115, -0.010038995, 0.023017773, -402982.8, -58890.656, 0.0, 10.000253, 9.9986105 
2.1500134e+2, 2.7488735e+2, -356798.28, -457085.53, -1398.1924, -0.004009586, 0.027051065, -356778.78, -110672.82, 0.0, 9.999913, 9.998579 
2.1500151e+2, 2.8488588e+2, -260387.23, -370830.94, 13317.179, 0.02262494, 0.02899807, -258804.16, -110682.04, 0.0, 9.9999485, 9.998482 
2.1500188e+2, 2.9488456e+2, -99562.445, -241877.45, 15585.106, 0.04680927, 0.042551532, -97875.69, -47737.6, 0.0, 10.000377, 9.998487 
2.1500123e+2, 3.048844e+2, -4531.042, -104474.56, -12348.834, -0.020765904, 0.1470346, -3027.8516, -3027.8516, 0.0000002906552, 10.000411, 9.9990835 
2.1500209e+2, 3.1488276e+2, -49735.38, -105056.5, 2215.3254, 0.1096993, 0.07606979, -49646.81, -49646.81, 0.0000060416633, 10.000006, 9.999274 
2.2500181e+2, 1.24898046e+2, -1746826.3, -1779974.0, -3133.8323, -0.04635235, 0.016887654, -1746532.6, -30528.955, 0.0003861587, 9.999994, 9.999555 
2.250021e+2, 1.3489869e+2, -1632101.9, -1654258.3, -29004.178, 0.012952346, 0.11324753, -1612132.3, 5867.4883, 0.00020573656, 10.000027, 9.999728 
2.2500177e+2, 1.4489761e+2, -1512220.4, -1531149.3, -13782.605, 0.004455398, 0.022881296, -1504965.5, 15046.079, 0.00007189719, 10.000111, 9.999857 
2.2500163e+2, 1.5489826e+2, -1399137.1, -1439010.8, -19672.389, -0.004600827, 0.10590496, -1391065.4, 30939.85, 0.000010694928, 10.000272, 9.999739 
2.2500172e+2, 1.6489811e+2, -1334617.3, -1391090.1, -7783.748, -0.0060803033, 0.13533261, -1333564.1, -9557.525, 0.000000092361944, 10.000187, 9.999436 
2.2500189e+2, 1.7489713e+2, -1288257.5, -1320590.8, 1078.655, -0.01104775, 0.09115476, -1288221.5, -62205.098, 0.0, 9.9998455, 9.999413 
2.250018e+2, 1.848964e+2, -1181761.1, -1196613.3, -13734.262, -0.018319424, 0.065764606, -1173573.9, -45550.453, 0.0, 9.999809, 9.99961 
2.2500151e+2, 1.9489594e+2, -1043349.25, -1081424.6, -21859.486, -0.023537813, 0.05610553, -1033399.5, -3372.8848, 0.0, 10.000096, 9.999589 
2.2500162e+2, 2.0489536e+2, -948585.8, -1012706.5, -1500.8519, -0.010944666, 0.052143075, -948550.7, -16520.049, 0.0, 10.000194, 9.99934 
2.2500212e+2, 2.1489464e+2, -866916.0, -925008.44, 11617.208, 0.018660866, 0.044700325, -864678.94, -30643.467, 0.0, 10.000093, 9.999317 
2.2500226e+2, 2.2489356e+2, -795164.06, -881845.56, 7772.4272, 0.02504949, 0.02375639, -794472.7, -58428.18, 0.0, 10.000094, 9.9989395 
2.2500204e+2, 2.348921e+2, -683849.9, -780933.2, 6604.468, 0.008443199, -0.018633837, -683402.6, -45344.926, 0.0, 10.000201, 9.998908 
2.2500199e+2, 2.4489085e+2, -602887.94, -707420.7, 8243.024, 0.0062333955, -0.025573183, -602241.94, -62172.32, 0.0, 10.000154, 9.998764 
2.2500211e+2, 2.5488988e+2, -537488.7, -627234.1, 5756.171, 0.015674388, -0.0031930252, -537121.0, -95041.24, 0.0, 9.999939, 9.998745 
2.2500189e+2, 2.648888e+2, -433533.53, -537482.2, -7082.0845, 0.005484663, 0.019199204, -433053.22, -88962.35, 0.0, 10.000029, 9.998645 
2.2500138e+2, 2.7488753e+2, -279007.25, -415826.5, -7110.3135, -0.017914016, 0.027241101, -278638.75, -32535.238, 0.0, 10.000432, 9.998612 
2.2500154e+2, 2.8488597e+2, -192742.1, -344474.97, 7673.1167, 0.007038969, 0.02034319, -192355.05, -44234.574, 0.0, 10.000441, 9.998426 
2.2500221e+2, 2.9488438e+2, -157656.56, -277935.97, 11278.068, 0.060025737, 0.011440071, -156608.2, -106468.805, 0.0, 10.000012, 9.998417 
2.2500151e+2, 3.0488434e+2, -62893.49, -144757.5, -10203.123, -0.013499733, 0.14062776, -61640.984, -61640.984, 0.000000085825576, 10.000061, 9.998976 
2.2500217e+2, 3.1488279e+2, 50454.918, -34800.043, 3212.4966, 0.087656125, 0.08752008, 50575.797, 50575.797, 0.0000031779714, 10.000601, 9.99947 
2.3500203e+2, 1.2489714e+2, -1722690.4, -1730023.0, 768.03186, -0.025677035, 0.00815312, -1722610.8, -6596.0317, 0.00032267286, 9.999995, 9.999896 
2.3500222e+2, 1.3489872e+2, -1605259.5, -1597367.8, -27534.307, 0.022121334, 0.15742758, -1573498.0, 44502.03, 0.0001666326, 10.000021, 10.000121 
2.3500174e+2, 1.4489773e+2, -1524784.5, -1556560.1, -8169.369, -0.011296357, 0.065396436, -1522807.3, -2796.9946, 0.00005400246, 10.000108, 9.999684 
2.3500136e+2, 1.5489729e+2, -1411040.0, -1465093.4, -13284.202, -0.060307205, 0.059956565, -1407951.8, 14062.864, 0.000006396683, 10.0002775, 9.999558 
2.3500143e+2, 1.6489713e+2, -1315857.9, -1352997.4, -20825.31, -0.054442547, 0.080808155, -1306525.5, 17490.96, 0.000000013163342, 10.000192, 9.999696 
2.3500185e+2, 1.7489722e+2, -1269299.6, -1281403.4, -11477.726, -0.00048095812, 0.11620537, -1262376.0, -36360.25, 0.0, 9.9998455, 9.999681 
2.3500198e+2, 1.8489674e+2, -1195135.1, -1223772.9, -3294.5615, 0.018432764, 0.11432237, -1194761.0, -66740.74, 0.0, 9.999807, 9.999424 
2.3500189e+2, 1.948957e+2, -1056615.6, -1109275.1, -10724.039, 0.0045305546, 0.066777, -1054515.4, -24485.398, 0.0, 10.000098, 9.999397 
2.3500189e+2, 2.0489496e+2, -924539.44, -962318.5, -5337.279, -0.0021670582, 0.03899981, -923799.9, 8235.463, 0.0, 10.000193, 9.999686 
2.35002e+2, 2.1489453e+2, -842602.94, -873966.7, 8279.905, -0.0027073743, 0.024605054, -840551.3, -6515.4663, 0.0, 10.000092, 9.999668 
2.3500203e+2, 2.248937e+2, -797432.6, -886023.9, 11464.939, -0.0079120835, 0.013577447, -795973.0, -59931.027, 0.0, 10.0000925, 9.998912 
2.3500198e+2, 2.3489249e+2, -685484.8, -784217.9, 11120.881, -0.016706703, -0.0018794569, -684247.7, -46193.918, 0.0, 10.000201, 9.998886 
2.3500209e+2, 2.4489123e+2, -607774.5, -717404.94, 16.558687, 0.0002532409, -0.008000752, -607774.5, -67708.09, 0.0, 10.000153, 9.998696 
2.3500231e+2, 2.548899e+2, -543094.75, -638343.2, -2117.6194, 0.041454, -0.011155455, -543047.7, -100968.164, 0.0, 9.999937, 9.99867 
2.3500222e+2, 2.648887e+2, -433869.28, -538041.2, 7226.908, 0.034938604, 0.0050318246, -433370.3, -89278.86, 0.0, 10.000027, 9.998642 
2.3500182e+2, 2.748876e+2, -277892.7, -413537.25, 8392.563, -0.016666986, 0.026960399, -277375.4, -31273.023, 0.0, 10.000431, 9.998629 
2.3500189e+2, 2.84886e+2, -195113.94, -348678.22, -7887.1533, -0.0017891855, 0.016833011, -194709.9, -46590.42, 0.0, 10.000438, 9.9984 
2.3500226e+2, 2.9488412e+2, -160817.36, -284682.9, -4223.7554, 0.063729785, -0.01436767, -160673.5, -110532.64, 0.0, 10.000013, 9.99837 
2.350015e+2, 3.0488414e+2, -67138.336, -152692.3, 8827.129, -0.020636266, 0.12096004, -66237.08, -66237.08, 0.000000016806371, 10.000057, 9.998923 
2.3500237e+2, 3.148827e+2, 72152.33, 10703.583, 19752.94, 0.04568877, 0.0819562, 77954.19, 77954.19, 0.0000014346882, 10.000599, 9.9997835 
2.450024e+2, 1.2489703e+2, -1680722.4, -1713993.6, 39372.195, -0.002489332, 0.03162943, -1654615.6, 61401.113, 0.00026299746, 10.000299, 9.99986 
2.4500215e+2, 1.3489841e+2, -1581316.3, -1585848.4, -25118.072, 0.005189929, 0.15898514, -1558362.3, 59641.594, 0.0001305452, 10.000186, 10.000121 
2.4500151e+2, 1.4489743e+2, -1532076.0, -1555123.5, -9937.196, -0.040736046, 0.06773713, -1528383.1, -8369.704, 0.000038366878, 10.000036, 9.99973 
2.4500133e+2, 1.5489696e+2, -1469746.1, -1487238.8, 1888.1107, -0.06964681, 0.05296537, -1469544.6, -47526.76, 0.000003303544, 9.999848, 9.999613 
2.4500144e+2, 1.6489679e+2, -1358692.6, -1363121.0, -4129.4224, -0.056119025, 0.0669327, -1356221.3, -32201.787, 0.00000000018007511, 9.999852, 9.99979 
2.4500169e+2, 1.7489696e+2, -1230050.4, -1251732.4, -8756.87, -0.010455671, 0.1008216, -1226955.4, -937.7276, 0.0, 10.00007, 9.999778 
2.4500191e+2, 1.848966e+2, -1148958.6, -1203476.1, 5611.0176, 0.013049464, 0.1071094, -1148387.1, -20365.918, 0.0, 10.000132, 9.999407 
2.4500209e+2, 1.9489573e+2, -1067370.4, -1116086.4, 11036.632, 0.018087912, 0.07682436, -1064986.8, -34956.785, 0.0, 10.000032, 9.999382 
2.4500212e+2, 2.04895e+2, -957119.25, -974858.2, 5487.5024, 0.013646256, 0.05094178, -955558.94, -23523.654, 0.0, 9.999955, 9.999715 
2.45002e+2, 2.1489447e+2, -868064.3, -883379.25, -6128.4277, -0.0026943511, 0.022646999, -865913.94, -31877.088, 0.0, 9.999904, 9.999695 
2.4500199e+2, 2.2489372e+2, -814711.56, -885306.44, -3134.8909, -0.0128270695, 0.013064838, -814572.6, -78530.34, 0.0, 9.999934, 9.998994 
2.4500212e+2, 2.3489273e+2, -701700.2, -782889.9, 4190.4717, -0.015028541, 0.0134647805, -701484.5, -63432.61, 0.0, 10.00005, 9.998968 
2.4500227e+2, 2.448915e+2, -601084.06, -713967.94, -4418.726, 0.0022235066, 0.0070483666, -600911.4, -60847.43, 0.0, 10.000198, 9.998697 
2.450024e+2, 2.5489002e+2, -478388.0, -607428.25, -1379.8558, 0.036844812, -0.012119286, -478373.25, -36295.066, 0.0, 10.000381, 9.998668 
2.4500237e+2, 2.648888e+2, -388065.34, -519576.84, 14025.584, 0.032209497, -0.0000118076805, -386586.16, -42495.543, 0.0, 10.000358, 9.99861 
2.4500217e+2, 2.7488774e+2, -328082.7, -441876.4, 10878.346, -0.008695924, 0.029919645, -327052.06, -80950.6, 0.0, 10.000105, 9.998592 
2.4500225e+2, 2.8488615e+2, -242208.05, -369018.47, -10827.296, 0.0070507545, 0.020150296, -241290.23, -93171.766, 0.0, 10.000104, 9.998421 
2.4500248e+2, 2.9488418e+2, -107438.266, -257802.7, -3501.088, 0.0646917, -0.019795591, -107356.8, -57216.98, 0.0, 10.000377, 9.99838 
2.4500167e+2, 3.0488393e+2, -24789.818, -159500.42, 16297.443, -0.028963557, 0.10572984, -22846.178, -22846.178, 0.0000000018495133, 10.000466, 9.998678 
2.4500269e+2, 3.1488234e+2, 37711.027, 2968.3142, 4954.949, 0.031194743, 0.07373408, 38403.875, 38403.875, 0.00000052479436, 10.000323, 9.999864 
2.5500295e+2, 1.2489768e+2, -1710587.5, -1774819.3, 39082.984, 0.020435676, 0.08550012, -1692117.8, 23892.172, 0.000209724, 10.000294, 9.999446 
2.5500187e+2, 1.348977e+2, -1608132.0, -1643852.8, -29359.592, -0.04260527, 0.117135145, -1591627.0, 26384.25, 0.00009902971, 10.000194, 9.999721 
2.5500107e+2, 1.448967e+2, -1511862.4, -1514544.5, -17982.828, -0.08913391, 0.029872036, -1495170.6, 24850.611, 0.000025643241, 10.000043, 10.000005 
2.5500154e+2, 1.5489721e+2, -1449382.1, -1444277.6, -5301.0693, -0.034305926, 0.084989525, -1440946.5, -18931.238, 0.0000014046367, 9.9998455, 9.999909 
2.5500175e+2, 1.6489711e+2, -1364653.6, -1374566.8, 3419.867, -0.012332691, 0.09403525, -1363588.4, -39572.785, 0.0, 9.999848, 9.999714 
2.5500146e+2, 1.7489636e+2, -1235391.6, -1263886.1, -360.24734, -0.043197054, 0.044970036, -1235387.0, -9364.611, 0.0, 10.000074, 9.999692 
2.5500154e+2, 1.8489598e+2, -1137509.1, -1180060.9, 1760.285, -0.037147697, 0.043785278, -1137436.5, -9410.254, 0.0, 10.0001335, 9.999567 
2.550021e+2, 1.9489598e+2, -1055800.5, -1091941.4, 7547.7437, 0.015494142, 0.08557837, -1054287.5, -24261.0, 0.0, 10.000031, 9.999547 
2.550023e+2, 2.0489548e+2, -978160.3, -1017743.75, 3438.4648, 0.03520046, 0.08713631, -977863.8, -45833.18, 0.0, 9.999952, 9.999422 
2.550021e+2, 2.1489446e+2, -888957.8, -926274.56, -7600.6816, 0.017718267, 0.039708838, -887469.06, -53430.62, 0.0, 9.999902, 9.999401 
2.5500214e+2, 2.2489356e+2, -801785.8, -858086.56, 832.2019, 0.009077575, 0.022144595, -801773.5, -65727.85, 0.0, 9.999932, 9.999182 
2.5500244e+2, 2.3489282e+2, -688890.7, -755514.9, 8860.928, 0.011242073, 0.027534455, -687732.3, -49680.223, 0.0, 10.000047, 9.999157 
2.5500256e+2, 2.448917e+2, -595893.5, -702954.3, 2138.3728, 0.009480791, 0.020166332, -595850.8, -55788.57, 0.0, 10.000197, 9.998774 
2.5500244e+2, 2.5489023e+2, -472218.6, -594433.5, 6010.4253, 0.0010333713, -0.0061056516, -471923.72, -29848.02, 0.0, 10.000381, 9.998757 
2.5500238e+2, 2.6488897e+2, -393663.0, -531495.56, 4720.718, -0.0032140512, 0.0031146782, -393501.53, -49413.047, 0.0, 10.000359, 9.998528 
2.550024e+2, 2.7488786e+2, -334665.94, -455719.3, 1623.7045, 0.0028632553, 0.03584333, -334644.16, -88543.234, 0.0, 10.000105, 9.998498 
2.550026e+2, 2.848863e+2, -237297.48, -358292.94, -1613.1442, 0.029825633, 0.03044537, -237275.97, -89158.44, 0.0, 10.000102, 9.998495 
2.550028e+2, 2.9488447e+2, -101888.06, -245415.05, 7248.705, 0.06005565, -0.0048330957, -101522.9, -51386.594, 0.0, 10.000373, 9.998466 
2.5500205e+2, 3.0488378e+2, -56899.293, -225680.14, 11838.523, -0.039876983, 0.09441728, -56072.97, -56072.97, 0.000000000039700524, 10.0004635, 9.998226 
2.5500312e+2, 3.1488165e+2, 27499.043, -19250.525, -3877.0022, 0.039977085, 0.0573433, 27818.387, 27818.387, 0.00000015406697, 10.000327, 9.99971 
2.6500303e+2, 1.2489776e+2, -1710654.8, -1780258.5, 33627.277, -0.003693389, 0.088008374, -1697062.9, 18946.137, 0.0001649167, 10.000316, 9.999399 
2.6500198e+2, 1.3489765e+2, -1633820.1, -1659277.3, -12885.652, -0.0406313, 0.109104805, -1628436.3, -10424.624, 0.000073287774, 10.0000305, 9.999694 
2.6500115e+2, 1.4489679e+2, -1531256.8, -1519312.3, 9623.163, -0.07747531, 0.03424225, -1513958.8, 6061.734, 0.000016155976, 9.99989, 10.000047 
2.6500157e+2, 1.548974e+2, -1433546.0, -1430851.6, 2538.7915, -0.02179074, 0.09338174, -1429324.8, -7311.408, 0.00000046134082, 9.999929, 9.999962 
2.6500174e+2, 1.6489725e+2, -1348792.6, -1370042.1, 12154.422, -0.0027475043, 0.09675864, -1343273.8, -19259.896, 0.0, 9.999971, 9.999686 
2.650015e+2, 1.7489631e+2, -1246857.8, -1272596.3, 11784.679, -0.043171965, 0.032534134, -1242277.1, -16254.726, 0.0, 10.00001, 9.999663 
2.6500154e+2, 1.8489593e+2, -1152891.0, -1180564.5, 5126.3994, -0.04555498, 0.030569412, -1151971.9, -23945.754, 0.0, 9.999999, 9.999628 
2.6500192e+2, 1.9489615e+2, -1064255.8, -1089096.1, 2510.4187, -0.00046352227, 0.08641017, -1064004.6, -33980.08, 0.0, 9.999944, 9.99961 
2.6500216e+2, 2.0489568e+2, -974351.4, -1024603.4, 8755.498, 0.023977822, 0.09274495, -972869.56, -40841.215, 0.0, 10.000016, 9.999345 
2.6500222e+2, 2.1489452e+2, -848430.8, -915669.7, 13962.773, 0.023832912, 0.04012031, -845646.6, -11608.77, 0.0, 10.000218, 9.999322 
2.650023e+2, 2.2489358e+2, -761755.25, -836071.56, 19727.553, 0.021816907, 0.021687886, -756843.1, -20797.605, 0.0, 10.000196, 9.999206 
2.650025e+2, 2.3489292e+2, -702752.9, -759372.9, 14596.305, 0.018707298, 0.031111654, -699211.5, -61160.203, 0.0, 9.999939, 9.999183 
2.6500264e+2, 2.4489182e+2, -635427.5, -714342.9, 11510.85, 0.011571227, 0.020586608, -633782.8, -93721.82, 0.0, 9.999893, 9.998842 
2.6500264e+2, 2.548903e+2, -513221.25, -606285.75, 13905.938, -0.0022214216, -0.017873522, -511187.8, -69113.445, 0.0, 10.000067, 9.998827 
2.6500264e+2, 2.6488903e+2, -420994.2, -549034.56, 4021.9705, -0.00546022, -0.011033366, -420867.97, -76780.734, 0.0, 10.00019, 9.998488 
2.6500264e+2, 2.7488798e+2, -314159.34, -450296.16, 4340.329, 0.008063733, 0.031471997, -314021.1, -67921.25, 0.0, 10.000266, 9.998456 
2.650029e+2, 2.848865e+2, -192886.61, -335068.2, 13211.796, 0.035810567, 0.038977858, -191669.38, -43553.85, 0.0, 10.000401, 9.99851 
2.6500326e+2, 2.9488483e+2, -73220.9, -230416.63, 15493.555, 0.060093217, 0.017106105, -71708.375, -21575.9, 0.0, 10.000565, 9.998477 
2.6500246e+2, 3.0488375e+2, -64491.535, -250387.64, 12594.906, -0.044288393, 0.085292354, -63642.082, -63642.082, 0.0, 10.000503, 9.998037 
2.650033e+2, 3.1488156e+2, 17210.504, -18550.094, 10659.733, 0.03211624, 0.058781095, 20146.904, 20146.904, 0.000000038019415, 10.000236, 9.999758 
2.7500257e+2, 1.2489727e+2, -1687019.1, -1731603.4, 26989.816, -0.081360586, 0.03999099, -1674305.6, 41708.49, 0.00012966055, 10.000319, 9.999731 
2.7500254e+2, 1.3489828e+2, -1609480.9, -1607469.6, -24553.406, 0.009196022, 0.13584779, -1583901.3, 34103.883, 0.00005392466, 10.000025, 10.0000515 
2.7500173e+2, 1.4489768e+2, -1545531.4, -1547894.8, 10202.149, -0.0075889905, 0.08150885, -1536442.8, -16431.914, 0.0000098627, 9.999886, 9.999853 
2.7500135e+2, 1.5489747e+2, -1446873.3, -1459282.1, 4214.008, -0.035575, 0.076954804, -1445577.5, -23565.14, 0.00000011248763, 9.999932, 9.999765 
2.7500144e+2, 1.6489716e+2, -1347002.8, -1367040.0, 13050.2, -0.030828139, 0.0739636, -1340569.0, -16554.234, 0.0, 9.999974, 9.999705 
2.750018e+2, 1.748968e+2, -1244901.5, -1268475.1, 13208.121, -0.01207021, 0.06385142, -1238985.8, -12967.859, 0.0, 10.00001, 9.999692 
2.7500182e+2, 1.8489647e+2, -1156132.1, -1186651.4, 2708.8428, -0.01400848, 0.06797825, -1155893.6, -27872.693, 0.0, 9.999996, 9.999588 
2.7500156e+2, 1.948962e+2, -1067409.1, -1095646.9, 656.3022, -0.031078974, 0.07975568, -1067393.9, -37370.0, 0.0, 9.999944, 9.999564 
2.7500173e+2, 2.048956e+2, -964712.0, -1003972.94, 16213.322, -0.021453755, 0.06774462, -958882.2, -26853.629, 0.0, 10.000013, 9.999487 
2.7500236e+2, 2.1489467e+2, -838512.75, -894702.06, 22143.086, 0.013869764, 0.023440922, -830835.56, 3199.4678, 0.0, 10.0002165, 9.999467 
2.7500254e+2, 2.248938e+2, -772230.1, -856956.5, 10132.949, 0.022965875, 0.010954002, -771035.1, -34993.016, 0.0, 10.000193, 9.9990635 
2.7500233e+2, 2.3489304e+2, -712590.9, -779599.0, 5295.492, 0.0072355326, 0.024269277, -712174.94, -74125.42, 0.0, 9.999939, 9.999044 
2.7500248e+2, 2.4489184e+2, -631395.9, -706236.6, 17512.385, 0.007875916, 0.0077334414, -627500.75, -87440.45, 0.0, 9.999894, 9.998898 
2.7500296e+2, 2.548902e+2, -509910.94, -599143.9, 20614.982, 0.023434231, -0.047192864, -505378.6, -63304.31, 0.0, 10.000065, 9.998878 
2.7500308e+2, 2.6488894e+2, -420534.7, -547366.94, 6397.074, 0.021310633, -0.041497793, -420212.84, -76125.92, 0.0, 10.000187, 9.998501 
2.7500287e+2, 2.7488807e+2, -313050.03, -447015.5, 7863.362, 0.0061657005, 0.016726136, -312590.06, -66491.83, 0.0, 10.000262, 9.99848 
2.750032e+2, 2.8488678e+2, -197162.16, -343862.34, 19608.918, 0.024786584, 0.04443178, -194586.33, -46473.797, 0.0, 10.0004, 9.99845 
2.7500385e+2, 2.9488528e+2, -77586.26, -240437.2, 21932.152, 0.061267864, 0.04510542, -74684.23, -24555.727, 0.0, 10.000568, 9.998407 
2.7500296e+2, 3.048838e+2, -59159.242, -239814.58, 1890.6577, -0.047557157, 0.07823521, -59139.457, -59139.457, 0.0, 10.0005045, 9.998109 
2.7500322e+2, 3.1488192e+2, 34339.0, 17633.059, -4019.4836, 0.0008812947, 0.073117405, 35255.785, 35255.785, 0.00000000643165, 10.000233, 10.000007 
2.8500283e+2, 1.2489742e+2, -1684625.8, -1722313.1, 38814.133, -0.085782565, 0.038616173, -1660322.9, 55689.816, 0.00010364884, 10.0003, 9.999803 
2.8500256e+2, 1.3489847e+2, -1595221.5, -1590939.1, -41492.457, 0.00870253, 0.12940577, -1551532.6, 66470.29, 0.000040612387, 10.000081, 10.000138 
2.8500164e+2, 1.44898e+2, -1530556.1, -1548336.1, 552.6727, -0.011352363, 0.08558386, -1530539.0, -10531.437, 0.0000062724685, 10.000022, 9.9997835 
2.8500137e+2, 1.5489766e+2, -1424058.3, -1455404.0, 3659.5056, -0.036068887, 0.07592255, -1423636.8, -1626.102, 0.000000028346124, 10.00012, 9.9997015 
2.8500146e+2, 1.6489734e+2, -1339958.0, -1366205.3, 9899.298, -0.027351286, 0.0754555, -1336643.1, -12629.792, 0.0, 10.000035, 9.999682 
2.8500178e+2, 1.7489706e+2, -1280180.3, -1287764.5, 5630.6826, -0.005924935, 0.07769695, -1277183.9, -51168.504, 0.0, 9.999778, 9.999671 
2.850018e+2, 1.8489666e+2, -1187997.8, -1204191.3, 2728.1694, -0.007896659, 0.076295465, -1187550.5, -59531.51, 0.0, 9.999788, 9.999567 
2.850016e+2, 1.9489613e+2, -1049815.3, -1089648.3, 1535.9792, -0.027745735, 0.06458701, -1049756.1, -19732.002, 0.0, 10.000076, 9.999542 
2.850018e+2, 2.0489556e+2, -945356.5, -982346.75, 11585.665, -0.021120226, 0.04917194, -942027.4, -9998.978, 0.0, 10.0000925, 9.9995985 
2.8500232e+2, 2.1489489e+2, -887591.7, -905205.5, 14485.563, 0.010264829, 0.022124536, -879445.9, -45414.1, 0.0, 9.999824, 9.999583 
2.8500256e+2, 2.2489405e+2, -824282.3, -894159.4, 7438.26, 0.019962735, 0.0098015005, -823499.3, -87460.52, 0.0, 9.999887, 9.998956 
2.8500247e+2, 2.34893e+2, -668257.56, -770709.75, 4826.05, 0.009795972, 0.005702412, -668030.75, -29981.318, 0.0, 10.000297, 9.998934 
2.8500268e+2, 2.4489176e+2, -559250.75, -665191.6, 13804.577, 0.016332434, -0.008908644, -557481.5, -17421.066, 0.0, 10.000362, 9.998954 
2.850032e+2, 2.548904e+2, -504836.9, -590078.5, 16613.553, 0.03759763, -0.041338485, -501713.38, -59641.85, 0.0, 10.000072, 9.998937 
2.8500333e+2, 2.6488918e+2, -436603.7, -554551.8, 12036.842, 0.030662417, -0.036657985, -435387.8, -91303.96, 0.0, 10.000075, 9.998505 
2.8500316e+2, 2.7488807e+2, -296284.9, -437972.28, 11860.258, 0.00019455243, -0.0040298067, -295298.97, -49201.445, 0.0, 10.000374, 9.998488 
2.850035e+2, 2.848868e+2, -196852.05, -345189.63, 17497.691, 0.015562722, 0.025549479, -194815.98, -46704.215, 0.0, 10.000409, 9.998437 
2.8500423e+2, 2.9488555e+2, -133411.66, -268836.75, 22793.973, 0.06260255, 0.05553354, -129678.05, -79552.58, 0.0, 10.000194, 9.998391 
2.8500336e+2, 3.0488384e+2, -90032.91, -253331.03, 5901.787, -0.047614086, 0.061744135, -89819.88, -89819.88, 0.0, 10.000288, 9.998119 
2.8500345e+2, 3.1488237e+2, 99000.45, 53240.375, -11859.489, -0.02272157, 0.09488789, 101891.4, 101891.4, 0.00000000043435586, 10.000657, 10.000049 
2.9500377e+2, 1.2489823e+2, -1698059.0, -1751001.0, 35553.9, -0.021658385, 0.08326792, -1680204.0, 35800.43, 0.000085497144, 10.000304, 9.999605 
2.950021e+2, 1.3489823e+2, -1608607.0, -1618993.0, -49656.33, -0.045316182, 0.08830865, -1563872.9, 54132.473, 0.000032281903, 10.000083, 9.999946 
2.9500088e+2, 1.448977e+2, -1526940.1, -1541102.1, 3488.004, -0.09147647, 0.04607321, -1526127.8, -6116.982, 0.0000046245973, 10.000023, 9.999833 
2.950016e+2, 1.5489797e+2, -1419902.8, -1446287.1, 7162.316, -0.026218224, 0.09263239, -1418083.9, 3923.8945, 0.00000001715619, 10.000119, 9.999764 
2.9500183e+2, 1.6489778e+2, -1344778.9, -1375701.5, -302.7677, 0.004540149, 0.10381232, -1344775.9, -20766.605, 0.0, 10.000032, 9.999618 
2.9500133e+2, 1.748971e+2, -1285498.4, -1297992.0, -3755.2458, -0.026531957, 0.07280858, -1284456.5, -58441.523, 0.0, 9.999775, 9.999602 
2.950014e+2, 1.848965e+2, -1189274.4, -1206006.4, 13307.989, -0.028847432, 0.054243766, -1181921.1, -53900.793, 0.0, 9.999784, 9.999557 
2.9500204e+2, 1.9489594e+2, -1050241.9, -1090612.6, 12713.694, 0.008431133, 0.04046068, -1046571.7, -16546.336, 0.0, 10.000076, 9.9995365 
2.950023e+2, 2.0489551e+2, -940125.4, -970754.2, 1533.34, 0.023374243, 0.036820773, -940048.8, -8020.757, 0.0, 10.00009, 9.99968 
2.9500216e+2, 2.148952e+2, -882115.9, -893452.4, 4767.2134, 0.011963592, 0.036114007, -880377.7, -46349.453, 0.0, 9.999822, 9.999665 
2.9500234e+2, 2.248943e+2, -829603.3, -904680.5, 22312.223, 0.011171675, 0.018036844, -823472.9, -87437.03, 0.0, 9.999886, 9.998885 
2.950029e+2, 2.3489277e+2, -673669.3, -781811.25, 20635.389, 0.023950635, -0.024803264, -669865.5, -31814.412, 0.0, 10.000296, 9.998858 
2.9500324e+2, 2.4489164e+2, -555419.1, -656675.5, 2863.1086, 0.034321304, -0.029448219, -555338.25, -15276.859, 0.0, 10.00036, 9.999014 
2.9500327e+2, 2.5489098e+2, -500661.53, -580933.2, 6140.071, 0.039987955, -0.0010841783, -500194.6, -58128.34, 0.0, 10.00007, 9.999001 
2.9500332e+2, 2.6488975e+2, -437645.0, -556504.7, 22683.236, 0.022782113, 0.0023119093, -433463.25, -89384.98, 0.0, 10.000074, 9.998492 
2.9500338e+2, 2.7488795e+2, -297055.56, -439692.0, 23033.031, -0.013935644, -0.03113806, -293428.4, -47330.582, 0.0, 10.000375, 9.998477 
2.9500377e+2, 2.8488654e+2, -194693.77, -340630.06, 8795.3125, 0.0034885202, -0.016762488, -194165.61, -46052.32, 0.0, 10.000409, 9.998467 
2.9500446e+2, 2.9488572e+2, -131690.44, -264015.2, 15335.719, 0.06252996, 0.048630696, -129936.36, -79812.91, 0.0, 10.000189, 9.998426 
2.9500365e+2, 3.0488378e+2, -94511.73, -261891.63, 19742.58, -0.04477745, 0.036196496, -92214.6, -92214.6, 0.0, 10.000285, 9.998062 
2.9500392e+2, 3.148827e+2, 89685.36, 31979.666, -1177.9229, -0.04372962, 0.11417199, 89709.39, 89709.39, 0.0, 10.000665, 9.999899 
3.05004e+2, 1.2489863e+2, -1735273.5, -1776109.5, 42484.676, -0.021424418, 0.079961486, -1708555.1, 7444.9136, 0.000073591786, 10.000084, 9.999538 
3.0500215e+2, 1.3489845e+2, -1624877.3, -1634742.4, -41298.414, -0.044764753, 0.074900314, -1588217.9, 29784.693, 0.000027638554, 10.000006, 9.999875 
3.0500075e+2, 1.4489801e+2, -1542371.1, -1547746.1, 22271.867, -0.098892, 0.044691347, -1522625.1, -2617.8499, 0.000004191702, 9.999915, 9.999839 
3.0500156e+2, 1.5489833e+2, -1462375.0, -1465770.4, 20516.533, -0.026709655, 0.09499951, -1443486.0, -21481.764, 0.000000032166714, 9.999824, 9.999773 
3.0500183e+2, 1.6489808e+2, -1367659.6, -1387892.6, 12290.426, 0.009199353, 0.10166224, -1361857.6, -37851.48, 0.0, 9.999882, 9.999606 
3.0500132e+2, 1.748973e+2, -1238732.8, -1276954.5, 11865.081, -0.023985563, 0.05854134, -1235349.0, -9336.291, 0.0, 10.000102, 9.999589 
3.0500135e+2, 1.848966e+2, -1141817.5, -1184186.1, 34262.613, -0.02658165, 0.035187062, -1122719.1, 5299.198, 0.0, 10.000115, 9.999548 
3.050021e+2, 1.9489609e+2, -1072921.6, -1101398.4, 33477.875, 0.01373803, 0.02472595, -1050780.1, -20757.406, 0.0, 9.999922, 9.999536 
3.0500245e+2, 2.0489562e+2, -968324.7, -1000095.94, 12962.25, 0.031467836, 0.024747571, -963707.3, -31681.332, 0.0, 9.999966, 9.9995365 
3.0500233e+2, 2.1489522e+2, -829249.44, -884352.1, -1453.0691, 0.02152312, 0.029474208, -829211.2, 4816.695, 0.0, 10.000255, 9.999519 
3.050025e+2, 2.2489432e+2, -765578.2, -860997.25, 17377.277, 0.017404504, 0.013199542, -762512.0, -26476.45, 0.0, 10.000268, 9.9990015 
3.0500302e+2, 2.3489289e+2, -709369.3, -785276.7, 29442.707, 0.021350777, -0.032113396, -699288.06, -61238.867, 0.0, 9.999991, 9.9989805 
3.0500332e+2, 2.4489184e+2, -610459.8, -690675.7, 13168.954, 0.026109036, -0.033836525, -608353.2, -68294.33, 0.0, 10.000014, 9.998946 
3.0500337e+2, 2.548912e+2, -464986.13, -571368.6, 6370.786, 0.03021477, 0.0030125186, -464605.94, -22541.703, 0.0, 10.000347, 9.998932 
3.0500346e+2, 2.648899e+2, -398318.63, -537630.94, 17745.682, 0.017931994, 0.004634124, -396093.7, -52016.695, 0.0, 10.000346, 9.99849 
3.0500364e+2, 2.7488798e+2, -351634.0, -466222.13, 17947.145, -0.0071513546, -0.040420637, -348888.8, -102791.36, 0.0, 10.000002, 9.998473 
3.050041e+2, 2.8488663e+2, -242361.63, -357332.2, 10082.157, 0.009904761, -0.02154874, -241484.19, -93372.18, 0.0, 10.000055, 9.998524 
3.0500472e+2, 2.9488605e+2, -81943.96, -233513.2, 17690.77, 0.057989355, 0.063874595, -79906.52, -29787.04, 0.0, 10.000503, 9.998486 
3.050041e+2, 3.048838e+2, -38077.418, -236190.53, 26911.95, -0.049973626, 0.016090764, -34486.742, -34486.742, 0.0, 10.000679, 9.998049 
3.0500445e+2, 3.1488276e+2, 62164.992, -3806.4646, 2766.768, -0.050429765, 0.10219085, 62280.824, 62280.824, 0.0, 10.000574, 9.999696 
3.1500342e+2, 1.2489862e+2, -1731032.0, -1767848.1, 46908.754, -0.087804, 0.029900124, -1699048.8, 16950.533, 0.00006650563, 10.000085, 9.999595 
3.1500265e+2, 1.3489917e+2, -1619849.6, -1625433.9, -43923.51, 0.003594799, 0.09193137, -1578629.6, 39364.87, 0.000025576577, 10.0000105, 9.999936 
3.1500128e+2, 1.4489897e+2, -1544844.1, -1554065.6, 18305.162, -0.040642574, 0.084149025, -1530578.0, -10580.969, 0.000004447986, 9.99992, 9.999795 
3.1500125e+2, 1.5489872e+2, -1466381.8, -1472866.1, 17560.088, -0.038946245, 0.081101336, -1451767.1, -29766.99, 0.00000006594377, 9.999819, 9.999727 
3.150015e+2, 1.6489826e+2, -1366494.1, -1384346.6, 20099.639, -0.014334841, 0.06768186, -1353427.9, -29423.893, 0.0, 9.999877, 9.999634 
3.1500164e+2, 1.748976e+2, -1236703.5, -1272820.3, 20294.715, -0.0008269689, 0.035944127, -1227596.0, -1587.6703, 0.0, 10.000103, 9.999618 
3.1500167e+2, 1.8489702e+2, -1141847.9, -1184381.4, 26768.91, -0.004816264, 0.021368785, -1128926.3, -913.7195, 0.0, 10.000115, 9.999547 
3.1500173e+2, 1.9489655e+2, -1073286.9, -1101717.3, 26637.295, -0.013116399, 0.016416827, -1057309.1, -27292.906, 0.0, 9.999919, 9.999535 
3.150021e+2, 2.0489585e+2, -994795.0, -1053834.8, 23650.178, 0.0017614879, 0.011931, -986489.56, -54467.23, 0.0, 9.99996, 9.99917 
3.150027e+2, 2.1489495e+2, -855585.94, -938777.5, 10015.7705, 0.037124928, 0.0015521398, -854397.06, -20366.182, 0.0, 10.000254, 9.999147 
3.1500295e+2, 2.2489409e+2, -744699.7, -817165.44, 7115.815, 0.036768213, -0.00515483, -744007.56, -7969.516, 0.0, 10.000266, 9.999303 
3.1500283e+2, 2.348933e+2, -687631.06, -740126.8, 19393.492, 0.0013798975, -0.016571049, -681243.7, -43199.91, 0.0, 9.999991, 9.999291 
3.1500298e+2, 2.4489225e+2, -624183.2, -718824.75, 24976.652, -0.009176912, -0.022705648, -617996.1, -77943.09, 0.0, 10.000013, 9.9987545 
3.1500348e+2, 2.5489098e+2, -478415.1, -599086.3, 19001.35, 0.0045320373, -0.029315723, -475493.78, -33428.152, 0.0, 10.000347, 9.998742 
3.1500378e+2, 2.648896e+2, -398025.47, -536928.7, 4694.445, 0.013147733, -0.029382583, -397867.0, -53786.953, 0.0, 10.000345, 9.998496 
3.150039e+2, 2.748881e+2, -351782.84, -465761.66, 5596.175, 0.019601876, -0.032112315, -351508.75, -105412.266, 0.0, 9.999999, 9.998478 
3.150044e+2, 2.8488705e+2, -238265.14, -347339.22, 26077.41, 0.034830436, 0.010813334, -232351.2, -84243.15, 0.0, 10.00005, 9.998595 
3.1500512e+2, 2.9488656e+2, -75472.62, -220843.31, 34669.418, 0.044994365, 0.09969466, -67627.67, -17513.898, 0.0, 10.000506, 9.99857 
3.1500462e+2, 3.0488387e+2, -35993.676, -233273.8, 22615.287, -0.06703214, 0.00029892314, -33434.363, -33434.363, 0.0, 10.000685, 9.998067 
3.1500506e+2, 3.1488252e+2, 44262.477, -40134.883, -5287.733, -0.048475567, 0.055154633, 44592.48, 44592.48, 0.0, 10.000569, 9.999449 
3.250031e+2, 1.2489899e+2, -1762429.9, -1760917.1, 46674.105, -0.11263346, 0.031990834, -1714993.3, 1001.9329, 0.00006287029, 9.999778, 9.999789 
3.2500264e+2, 1.348995e+2, -1623003.6, -1605625.4, -43193.402, 0.008555395, 0.06817145, -1570255.8, 47734.016, 0.000025189593, 9.999898, 10.000127 
3.2500127e+2, 1.448994e+2, -1552739.6, -1572673.1, 16587.648, -0.032927666, 0.069043815, -1543354.8, -23363.648, 0.0000050024137, 9.99993, 9.9996605 
3.250012e+2, 1.5489912e+2, -1470830.6, -1489719.3, 7834.158, -0.025481908, 0.07682891, -1468004.4, -46009.01, 0.000000115129794, 9.999851, 9.999596 
3.2500148e+2, 1.648986e+2, -1362241.3, -1378362.5, 19527.635, -0.0028580367, 0.06363653, -1349176.0, -25176.084, 0.0, 9.99989, 9.999667 
3.2500172e+2, 1.7489791e+2, -1239140.1, -1269238.9, 20019.484, -0.002397917, 0.023174502, -1229144.3, -3139.6577, 0.0, 10.000068, 9.999658 
3.2500178e+2, 1.8489738e+2, -1143109.1, -1191411.0, 13283.057, -0.008440721, 0.013991752, -1139697.3, -11689.067, 0.0, 10.000135, 9.999488 
3.250018e+2, 1.9489706e+2, -1051852.3, -1098512.9, 7365.7095, -0.009043759, 0.030151723, -1050717.1, -20706.37, 0.0, 10.000096, 9.999473 
3.2500216e+2, 2.0489624e+2, -986029.9, -1061868.1, 21903.982, 0.006843762, 0.022394732, -980158.1, -48139.906, 0.0, 10.000072, 9.999063 
3.2500288e+2, 2.1489492e+2, -891074.1, -967011.9, 27716.186, 0.03625212, -0.016286502, -882034.25, -48003.72, 0.0, 10.000059, 9.999046 
3.2500312e+2, 2.2489402e+2, -774338.7, -831720.9, 14439.88, 0.035921965, -0.024510805, -770909.9, -34871.543, 0.0, 10.000065, 9.9993 
3.2500294e+2, 2.348935e+2, -673383.0, -733544.9, 2905.1292, 0.006561394, -0.009250254, -673243.06, -35201.65, 0.0, 10.000091, 9.999289 
3.250031e+2, 2.4489245e+2, -620234.1, -725418.8, 11728.164, -0.0063688857, -0.013491379, -618942.25, -78891.31, 0.0, 10.000077, 9.998678 
3.2500356e+2, 2.5489083e+2, -530995.2, -633268.7, 13704.3955, -0.0040485905, -0.043846097, -529190.7, -87123.82, 0.0, 10.000024, 9.998663 
3.2500398e+2, 2.6488942e+2, -421027.75, -543820.94, -181.75186, 0.005891241, -0.046830937, -421027.47, -76945.68, 0.0, 10.000169, 9.998534 
3.2500425e+2, 2.7488813e+2, -273054.0, -423250.78, 2871.339, 0.027550433, -0.030258255, -272999.13, -26903.39, 0.0, 10.000519, 9.99852 
3.250048e+2, 2.848871e+2, -164936.89, -321958.53, 24599.879, 0.04231915, 0.019307991, -161173.14, -13066.263, 0.0, 10.000596, 9.998506 
3.250055e+2, 2.9488647e+2, -101237.2, -243692.88, 19302.31, 0.037204362, 0.102001205, -98668.13, -48553.723, 0.0, 10.000375, 9.998477 
3.2500505e+2, 3.0488372e+2, -70097.18, -215677.11, 6348.5386, -0.06905529, -0.0133039765, -69820.85, -69820.85, 0.0, 10.000303, 9.998371 
3.2500562e+2, 3.148827e+2, 16257.574, -54476.914, -4214.4673, -0.038363878, 0.04143856, 16507.793, 16507.793, 0.0, 10.000379, 9.999443 
3.3500296e+2, 1.2489981e+2, -1738757.8, -1714365.4, 57793.164, -0.106553055, 0.08900027, -1667495.5, 48491.844, 0.000061273975, 9.999787, 10.000104 
3.3500218e+2, 1.348994e+2, -1601913.6, -1560434.5, -37456.207, -0.029090911, 0.0034055097, -1538359.4, 79629.15, 0.000025556885, 9.999891, 10.000441 
3.3500078e+2, 1.4489931e+2, -1569489.5, -1606203.4, 13812.653, -0.07542408, -0.00075559167, -1564873.3, -44883.773, 0.0000055599335, 9.999925, 9.9994335 
3.350014e+2, 1.5489957e+2, -1486326.9, -1521934.8, 5347.6245, 0.007102755, 0.08403105, -1485541.1, -63551.31, 0.00000016881297, 9.999852, 9.999373 
3.3500177e+2, 1.6489919e+2, -1358387.0, -1371393.5, 25902.924, 0.036117896, 0.092384666, -1338183.5, -14189.542, 0.0, 9.999893, 9.999715 
3.350015e+2, 1.7489819e+2, -1235925.0, -1262086.1, 27356.387, -0.0287952, 0.018667145, -1218682.8, 7318.6733, 0.0, 10.000064, 9.999709 
3.3500162e+2, 1.8489766e+2, -1152692.0, -1209972.9, 11660.542, -0.038017925, 0.011688682, -1150409.3, -22403.592, 0.0, 10.00013, 9.999363 
3.350022e+2, 1.9489756e+2, -1061484.4, -1118316.1, 6288.524, 0.023837695, 0.06563598, -1060796.9, -30790.29, 0.0, 10.000094, 9.999337 
3.3500263e+2, 2.0489676e+2, -975571.06, -1039475.4, 21388.441, 0.043982882, 0.056882836, -969073.2, -37059.594, 0.0, 10.000069, 9.999218 
3.3500275e+2, 2.1489519e+2, -879824.0, -943585.56, 27818.072, 0.017630836, -0.024591798, -869393.7, -35366.766, 0.0, 10.000058, 9.999208 
3.3500296e+2, 2.2489408e+2, -796129.44, -876274.0, 15071.205, 0.013426029, -0.045379624, -793389.0, -57352.47, 0.0, 10.000062, 9.998996 
3.350033e+2, 2.3489344e+2, -694776.9, -777888.1, 4264.415, 0.03478587, -0.0104286615, -694558.6, -56516.47, 0.0, 10.00009, 9.998985 
3.3500355e+2, 2.4489233e+2, -618142.1, -720834.7, 9584.725, 0.03244331, -0.0062439837, -617255.2, -77202.5, 0.0, 10.000076, 9.99871 
3.3500367e+2, 2.5489074e+2, -529104.2, -628791.4, 12144.618, 0.003405036, -0.04047896, -527645.94, -85577.92, 0.0, 10.000022, 9.998695 
3.3500403e+2, 2.6488927e+2, -416718.22, -534062.75, 12230.97, -0.0041466616, -0.047925465, -415456.94, -71374.586, 0.0, 10.000166, 9.998603 
3.350046e+2, 2.7488804e+2, -266850.06, -410476.3, 16104.107, 0.013303906, -0.03623968, -265066.56, -18971.162, 0.0, 10.00052, 9.998608 
3.3500525e+2, 2.8488687e+2, -182992.31, -359417.7, 16144.176, 0.029146133, 0.0032622297, -181527.17, -33418.61, 0.0, 10.000595, 9.998249 
3.350058e+2, 2.9488584e+2, -120367.0, -282289.97, 11782.148, 0.03205874, 0.07153438, -119514.18, -69392.85, 0.0, 10.000369, 9.998215 
3.350055e+2, 3.0488342e+2, -30433.996, -131603.66, 7970.7207, -0.05732595, -0.024820907, -29809.867, -29809.867, 0.0, 10.000297, 9.998953 
3.3500618e+2, 3.1488326e+2, 34630.305, -17013.813, -3480.6965, -0.025205834, 0.059281405, 34863.84, 34863.84, 0.0, 10.000382, 9.999698 
3.450028e+2, 1.2489992e+2, -1748213.8, -1729543.3, 58730.51, -0.09869022, 0.08318272, -1679410.8, 36574.29, 0.000060228966, 9.999769, 10.000008 
3.4500208e+2, 1.3489933e+2, -1648547.9, -1596339.6, -77053.81, -0.016375294, -0.008342929, -1541088.3, 76900.76, 0.000025763518, 9.999626, 10.000322 
3.4500054e+2, 1.4489931e+2, -1589649.0, -1601559.1, -21760.936, -0.081805326, -0.006108431, -1573043.0, -53053.8, 0.000005876301, 9.999724, 9.999561 
3.4500128e+2, 1.5489954e+2, -1448013.9, -1488377.6, -4361.995, 0.002051371, 0.06168133, -1447547.9, -25559.363, 0.0000002059256, 10.000051, 9.999508 
3.4500176e+2, 1.6489917e+2, -1340147.0, -1380542.8, 17035.006, 0.038491856, 0.07337279, -1333922.4, -9929.966, 0.0, 10.000096, 9.999554 
3.4500158e+2, 1.7489828e+2, -1274452.6, -1298939.4, 1161.4777, -0.018529583, 0.025984094, -1274397.6, -48397.145, 0.0, 9.999878, 9.999546 
3.450017e+2, 1.8489774e+2, -1188367.4, -1224207.6, -12137.929, -0.028453168, 0.024675492, -1184643.5, -56638.113, 0.0, 9.99987, 9.999391 
3.4500232e+2, 1.9489753e+2, -1061368.6, -1113973.5, -5483.4224, 0.025398387, 0.06358518, -1060803.1, -30796.05, 0.0, 10.000079, 9.999373 
3.450027e+2, 2.0489672e+2, -960911.44, -1029546.9, 7534.9814, 0.04322595, 0.052326903, -960093.94, -28080.14, 0.0, 10.000157, 9.999243 
3.4500283e+2, 2.1489528e+2, -871139.44, -936801.56, 3010.4844, 0.018463783, -0.01859176, -871001.75, -36976.047, 0.0, 10.000106, 9.999231 
3.4500304e+2, 2.2489412e+2, -796347.9, -892405.06, -4790.909, 0.01523376, -0.03800748, -796109.56, -60073.68, 0.0, 10.000129, 9.998853 
3.450035e+2, 2.3489326e+2, -684999.8, -789164.4, -4031.8662, 0.037112646, -0.011286025, -684844.0, -46799.707, 0.0, 10.000226, 9.998841 
3.4500378e+2, 2.4489208e+2, -583506.2, -701748.4, 5253.151, 0.037321802, -0.009544818, -583273.25, -43217.613, 0.0, 10.000302, 9.998733 
3.4500396e+2, 2.5489053e+2, -478156.94, -601526.2, 6749.227, 0.013140853, -0.04032193, -477788.8, -35718.863, 0.0, 10.00036, 9.99872 
3.450043e+2, 2.648891e+2, -390664.44, -527654.2, 8996.609, -0.0021511856, -0.044646837, -390076.13, -45992.22, 0.0, 10.000371, 9.998548 
3.4500486e+2, 2.7488783e+2, -299285.03, -433264.94, 2045.4412, -0.005645739, -0.030835198, -299253.8, -53156.32, 0.0, 10.000326, 9.998545 
3.4500548e+2, 2.8488654e+2, -230223.5, -380983.94, -4423.1587, 0.010078566, 0.0010084313, -230093.84, -81982.164, 0.0, 10.000265, 9.9982605 
3.4500614e+2, 2.9488534e+2, -143871.52, -292620.5, 11217.461, 0.03621022, 0.052105535, -143030.34, -92904.484, 0.0, 10.000202, 9.998224 
3.4500602e+2, 3.0488324e+2, -13028.086, -111105.45, 14994.307, -0.037221048, -0.020168388, -10786.932, -10786.932, 0.0, 10.000364, 9.999059 
3.450068e+2, 3.148832e+2, 68145.36, -21463.11, -38993.24, -0.015663141, 0.06606473, 82737.19, 82737.19, 0.0, 10.000703, 9.999512 
3.5500264e+2, 1.2489931e+2, -1783756.8, -1802927.9, 60484.098, -0.09206653, 0.014065801, -1732103.4, -16115.061, 0.00005843651, 9.999766, 9.999506 
3.5500225e+2, 1.348993e+2, -1685779.3, -1674756.9, -81296.01, 0.03830666, 0.03422491, -1598785.5, 19205.67, 0.000025162195, 9.99963, 9.999783 
3.550005e+2, 1.4489943e+2, -1555076.1, -1531151.6, -9117.174, -0.061199907, 0.05511536, -1528073.3, -8083.267, 0.0000057861466, 9.999729, 10.000043 
3.5500094e+2, 1.5489902e+2, -1413927.3, -1416894.4, 8602.058, -0.03934579, 0.0093976315, -1406681.8, 15309.736, 0.00000020730299, 10.000047, 10.000001 
3.5500157e+2, 1.6489857e+2, -1366935.3, -1435632.1, 8531.417, 0.0045124153, 0.0065001515, -1365891.5, -41895.938, 0.0, 10.000093, 9.999177 
3.550019e+2, 1.7489815e+2, -1301522.4, -1355518.5, -6608.8647, 0.023811826, 0.045268323, -1300725.3, -74723.35, 0.0, 9.999879, 9.999158 
3.5500202e+2, 1.848976e+2, -1175081.3, -1196476.5, -4410.923, 0.014645215, 0.05388257, -1174207.6, -46200.063, 0.0, 9.999869, 9.999581 
3.550021e+2, 1.948969e+2, -1047161.0, -1084417.4, 2927.098, -0.005124126, 0.023012057, -1046932.44, -16919.76, 0.0, 10.000077, 9.9995775 
3.5500246e+2, 2.048961e+2, -968804.8, -1045163.3, 5456.2197, 0.0040201754, 0.007923368, -968416.94, -36397.832, 0.0, 10.0001545, 9.999137 
3.5500312e+2, 2.148952e+2, -879400.4, -953402.5, 1641.9292, 0.03653446, 0.0017496276, -879363.94, -45337.1, 0.0, 10.000103, 9.999119 
3.5500342e+2, 2.2489415e+2, -795664.4, -890343.3, -1398.2135, 0.038692642, -0.002620525, -795643.7, -59607.266, 0.0, 10.000126, 9.998868 
3.5500345e+2, 2.3489296e+2, -684098.4, -787070.1, -60.509018, 0.012577389, -0.0118263, -684098.4, -46050.586, 0.0, 10.000225, 9.998857 
3.5500377e+2, 2.4489163e+2, -582608.9, -699545.7, 6945.897, 0.007477831, -0.023471128, -582197.75, -42137.797, 0.0, 10.000301, 9.998748 
3.5500443e+2, 2.548902e+2, -476405.97, -597472.0, 8936.117, 0.02269286, -0.043931376, -475749.94, -33677.242, 0.0, 10.000358, 9.998748 
3.550048e+2, 2.6488882e+2, -403829.22, -554352.9, 7227.611, 0.0092715705, -0.03763413, -403483.0, -59396.41, 0.0, 10.000368, 9.998366 
3.550049e+2, 2.7488744e+2, -313157.7, -461630.06, 936.03564, -0.031444572, -0.01328402, -313151.78, -67049.875, 0.0, 10.000324, 9.998351 
3.550055e+2, 2.8488618e+2, -211642.94, -341801.22, -7681.7666, -0.016538221, 0.012916925, -211191.14, -63075.04, 0.0, 10.000262, 9.998531 
3.5500643e+2, 2.94885e+2, -123698.05, -250351.7, 9306.868, 0.046772722, 0.04263034, -123017.805, -72889.72, 0.0, 10.000201, 9.998515 
3.5500666e+2, 3.0488318e+2, -39990.6, -166629.6, 27679.107, -0.0124272, -0.0005798909, -34205.168, -34205.168, 0.0, 10.000361, 9.998679 
3.5500747e+2, 3.1488258e+2, 24508.357, -111623.54, -28526.695, -0.01882733, 0.06583793, 30244.48, 30244.48, 0.0, 10.0007, 9.998894 
3.650024e+2, 1.24898985e+2, -1841560.1, -1839207.9, 59647.773, -0.078689344, -0.00912661, -1780724.6, -64734.734, 0.000055122826, 9.999407, 9.99943 
3.6500216e+2, 1.3489908e+2, -1659177.8, -1674704.3, -57438.54, 0.05552709, 0.031881437, -1608980.1, 9012.814, 0.000023501116, 9.999867, 9.999668 
3.6500034e+2, 1.4489932e+2, -1502712.9, -1501773.5, 13036.281, -0.06751339, 0.06907055, -1489198.4, 30792.555, 0.00000526637, 10.000072, 10.000079 
3.650009e+2, 1.5489869e+2, -1421887.3, -1415816.6, -4904.727, -0.04279252, -0.0027859337, -1413084.0, 8910.134, 0.00000017249042, 9.9999695, 10.000045 
3.650016e+2, 1.6489822e+2, -1383697.6, -1435409.0, -11195.873, 0.006146446, -0.014294937, -1381377.8, -57379.734, 0.0, 9.999942, 9.99925 
3.6500186e+2, 1.7489798e+2, -1279170.5, -1335932.4, 8196.199, 0.028163755, 0.034008473, -1278010.8, -52008.582, 0.0, 9.999995, 9.999235 
3.6500198e+2, 1.8489736e+2, -1162165.1, -1205579.0, 23950.434, 0.017578734, 0.04095346, -1151548.5, -23540.195, 0.0, 10.000024, 9.999445 
3.6500213e+2, 1.9489641e+2, -1062196.8, -1107068.5, 4937.4146, -0.008678038, -0.0029039825, -1061659.9, -31643.229, 0.0, 10.000039, 9.999441 
3.6500257e+2, 2.0489562e+2, -980198.9, -1050635.9, -4983.6587, 0.00075456017, -0.011034523, -979848.06, -47824.46, 0.0, 10.000074, 9.999139 
3.6500326e+2, 2.14895e+2, -875887.44, -950851.75, -630.2541, 0.04038477, 0.010476029, -875882.2, -41853.24, 0.0, 10.000124, 9.999127 
3.6500362e+2, 2.24894e+2, -788853.56, -886396.56, 4193.457, 0.04236537, 0.010891597, -788673.56, -52635.563, 0.0, 10.00017, 9.998875 
3.6500365e+2, 2.3489262e+2, -685057.0, -786958.8, 4099.8096, 0.008256518, -0.016911002, -684892.3, -46841.473, 0.0, 10.000216, 9.998862 
3.6500397e+2, 2.4489123e+2, -597055.0, -714319.2, 6710.3794, -0.00008096152, -0.03271274, -596672.25, -56608.42, 0.0, 10.000236, 9.998678 
3.6500463e+2, 2.5488985e+2, -499995.7, -617159.2, 1025.5048, 0.016280299, -0.042892314, -499986.72, -57909.97, 0.0, 10.000231, 9.998674 
3.650051e+2, 2.6488847e+2, -422358.16, -562794.06, 1735.496, 0.007823721, -0.030588744, -422336.72, -78246.3, 0.0, 10.000237, 9.998372 
3.6500528e+2, 2.748871e+2, -320592.03, -464401.66, 9367.058, -0.02405661, -0.0043984223, -319984.47, -73879.266, 0.0, 10.00027, 9.998359 
3.6500585e+2, 2.848857e+2, -206338.16, -348711.7, -3157.4497, -0.009088765, 0.012996526, -206268.17, -58147.7, 0.0, 10.000339, 9.998447 
3.6500674e+2, 2.9488426e+2, -99071.77, -248725.22, -14292.161, 0.04646211, 0.022829162, -97719.07, -47583.813, 0.0, 10.000413, 9.9984255 
3.650071e+2, 3.0488276e+2, -21419.31, -150930.78, 14430.286, -0.006936161, 0.01433565, -19830.955, -19830.955, 0.0, 10.00046, 9.998741 
3.6500812e+2, 3.148819e+2, -5139.002, -131643.53, -12211.027, -0.015087419, 0.04842363, -3971.0974, -3971.0974, 0.0, 10.00052, 9.998845 
3.7500194e+2, 1.24898925e+2, -1818494.8, -1789896.0, 83703.2, -0.06573999, 0.014398706, -1719279.5, -3289.6736, 0.00005010573, 9.999401, 9.99977 
3.7500182e+2, 1.3489862e+2, -1637964.8, -1630447.4, -38731.344, 0.036175612, -0.014751299, -1595292.8, 22701.842, 0.000020857056, 9.999866, 9.999973 
3.7500006e+2, 1.4489897e+2, -1531118.8, -1560643.6, 9316.771, -0.1016873, 0.036185946, -1528424.6, -8432.464, 0.000004428325, 10.00007, 9.999676 
3.750012e+2, 1.5489852e+2, -1450335.1, -1475030.9, -8456.4375, -0.0137212025, 0.025217222, -1447717.0, -25720.568, 0.00000011962439, 9.99997, 9.999639 
3.7500182e+2, 1.648981e+2, -1346452.0, -1357857.3, -9315.714, 0.03746086, 0.0117366435, -1341232.0, -17232.37, 0.0, 9.999941, 9.9997835 
3.7500152e+2, 1.7489772e+2, -1241012.8, -1256724.4, 10727.217, -0.0054369844, -0.008247687, -1235572.4, -9570.969, 0.0, 9.999994, 9.999779 
3.750016e+2, 1.8489704e+2, -1194922.8, -1273504.3, 24116.336, -0.02069191, -0.014216371, -1188111.9, -60104.03, 0.0, 10.000024, 9.998979 
3.7500238e+2, 1.9489604e+2, -1096039.0, -1177112.9, 5941.2007, 0.012082768, -0.013704966, -1095605.9, -65586.67, 0.0, 10.000038, 9.998961 
3.7500292e+2, 2.0489523e+2, -972469.25, -1033905.75, -3182.643, 0.03058761, -0.004523023, -972304.8, -40277.387, 0.0, 10.000072, 9.999255 
3.7500328e+2, 2.1489464e+2, -867415.25, -932642.25, 1763.8792, 0.028730731, 0.0069464296, -867367.56, -33335.527, 0.0, 10.000121, 9.999253 
3.7500364e+2, 2.2489364e+2, -789285.0, -886911.75, 5553.3965, 0.02506459, 0.0023312056, -788970.1, -52929.4, 0.0, 10.000168, 9.998872 
3.75004e+2, 2.3489226e+2, -685397.8, -787191.4, 6041.637, 0.022363335, -0.026460946, -685040.5, -46986.875, 0.0, 10.000214, 9.998861 
3.7500432e+2, 2.4489082e+2, -608561.75, -737549.75, 6318.3394, 0.012149039, -0.037644252, -608253.0, -68185.555, 0.0, 10.000234, 9.99852 
3.7500465e+2, 2.548894e+2, -511521.47, -641078.5, 1122.6958, -0.007419206, -0.037004087, -511511.75, -69429.664, 0.0, 10.000231, 9.99851 
3.750052e+2, 2.6488805e+2, -409216.2, -535652.8, 2365.8662, -0.007525337, -0.023243073, -409171.94, -65076.504, 0.0, 10.000237, 9.998558 
3.7500596e+2, 2.7488682e+2, -306817.7, -434926.7, 10810.464, 0.014440351, -0.0048280503, -305911.88, -59804.406, 0.0, 10.000265, 9.998563 
3.750066e+2, 2.8488517e+2, -237281.56, -411536.16, -414.27795, 0.029332595, 0.00080688664, -237280.58, -89155.7, 0.0, 10.000333, 9.998018 
3.7500703e+2, 2.9488316e+2, -130429.57, -314018.47, -10926.68, 0.031380165, -0.0061592413, -129781.53, -79634.37, 0.0, 10.000414, 9.997976 
3.750074e+2, 3.0488202e+2, 13793.776, -78686.9, 15537.962, -0.02430778, 0.024854241, 16334.553, 16334.553, 0.0, 10.0004635, 9.999235 
3.7500873e+2, 3.1488127e+2, 30197.408, -56186.863, -12093.7295, -0.008805431, 0.018356614, 31858.576, 31858.576, 0.0, 10.000511, 9.999367 
3.8500154e+2, 1.24898344e+2, -1766395.4, -1736899.1, 77798.336, -0.056286525, 0.0099603515, -1672463.3, 43531.867, 0.00004363311, 9.9996395, 10.000018 
3.8500166e+2, 1.3489799e+2, -1675239.1, -1627604.4, -60023.016, 0.04785606, -0.042938225, -1586846.0, 31153.096, 0.000017489165, 9.999518, 10.00016 
3.849998e+2, 1.4489853e+2, -1607897.3, -1608733.4, -8764.034, -0.1104607, 0.021417744, -1599541.4, -79546.51, 0.0000034194288, 9.99959, 9.999577 
3.8500118e+2, 1.5489815e+2, -1484383.5, -1502613.0, -5278.6123, -0.000046437723, 0.026870903, -1482965.3, -60965.566, 0.00000006772674, 9.999784, 9.999538 
3.8500193e+2, 1.6489772e+2, -1342853.0, -1346723.6, -8879.08, 0.053452443, 0.014004794, -1335700.8, -11697.536, 0.0, 9.999924, 9.999869 
3.8500145e+2, 1.7489728e+2, -1228087.5, -1240373.8, -23698.125, -0.01231793, -0.020658778, -1209749.3, 16255.616, 0.0, 10.000038, 9.999871 
3.850016e+2, 1.8489662e+2, -1187923.9, -1271034.5, -13698.639, -0.030902097, -0.02842937, -1185724.3, -57713.406, 0.0, 10.000074, 9.998971 
3.8500246e+2, 1.9489571e+2, -1098906.1, -1179048.3, 3110.2415, 0.019032348, -0.01677756, -1098785.6, -68764.03, 0.0, 10.000021, 9.998956 
3.850031e+2, 2.048949e+2, -975052.75, -1037099.2, 12298.239, 0.03959579, -0.0078726895, -972704.0, -40674.03, 0.0, 10.000063, 9.999237 
3.850034e+2, 2.1489418e+2, -855462.44, -928711.56, 5797.5454, 0.023831287, -0.007876145, -855006.44, -20970.576, 0.0, 10.000211, 9.999237 
3.8500375e+2, 2.2489315e+2, -779161.8, -886819.25, -441.75037, 0.018398322, -0.011712943, -779160.0, -43115.066, 0.0, 10.000258, 9.998829 
3.8500425e+2, 2.3489186e+2, -689869.9, -794120.0, -3586.4165, 0.025849983, -0.027930588, -689746.6, -51689.11, 0.0, 10.000203, 9.998819 
3.8500464e+2, 2.448905e+2, -609781.4, -736992.44, 3877.8708, 0.018450348, -0.030592814, -609663.3, -69592.29, 0.0, 10.000219, 9.99853 
3.850049e+2, 2.548891e+2, -498548.88, -633414.5, 11036.808, -0.0060557458, -0.024826363, -497651.63, -55566.434, 0.0, 10.000314, 9.998523 
3.850055e+2, 2.6488775e+2, -389047.53, -529847.9, 11281.95, -0.0073588346, -0.011366625, -388149.25, -44050.547, 0.0, 10.000393, 9.998523 
3.850063e+2, 2.7488643e+2, -282630.06, -427132.16, 2138.541, 0.017160578, 0.00078402704, -282598.44, -36486.87, 0.0, 10.000447, 9.998529 
3.8500696e+2, 2.8488466e+2, -223137.11, -403272.7, -2177.7253, 0.028238323, -0.0042672455, -223110.78, -74980.83, 0.0, 10.000422, 9.998034 
3.850073e+2, 2.948825e+2, -141601.8, -318892.06, 19808.271, 0.021145802, -0.027002098, -139415.63, -89262.11, 0.0, 10.000333, 9.997982 
3.8500777e+2, 3.048818e+2, -15144.837, -99854.27, 44380.258, -0.022187203, 0.04765274, 3848.0576, 3848.0576, 0.0, 10.000295, 9.999171 
3.8500923e+2, 3.1488076e+2, 1477.7792, -62488.43, -29320.922, 0.0027673848, 0.019037032, 12884.021, 12884.021, 0.000000000002787424, 10.000279, 9.999435 
3.9500123e+2, 1.24897234e+2, -1756375.3, -1714763.8, 77459.71, -0.054458, -0.022571309, -1655364.3, 60641.695, 0.0000362571, 9.999634, 10.000173 
3.950016e+2, 1.3489719e+2, -1669916.8, -1616778.0, -63510.53, 0.08738041, -0.052809786, -1574503.1, 43503.23, 0.000013744367, 9.999518, 10.000235 
3.9499953e+2, 1.4489798e+2, -1594883.9, -1580538.5, -904.88617, -0.097887225, 0.025292888, -1580481.6, -60482.676, 0.0000023661473, 9.999585, 9.999773 
3.9500093e+2, 1.5489753e+2, -1470142.1, -1473107.1, 2395.218, -0.0037424685, 0.0016609443, -1468807.8, -46803.594, 0.000000028035489, 9.999784, 9.999741 
3.9500186e+2, 1.6489705e+2, -1368173.6, -1399286.4, -5363.889, 0.05176744, -0.00739081, -1367274.9, -43265.977, 0.0, 9.999924, 9.999509 
3.950017e+2, 1.7489664e+2, -1253786.6, -1293209.1, -19025.9, 0.0056906366, -0.0028601896, -1246102.3, -20089.838, 0.0, 10.000036, 9.99951 
3.950018e+2, 1.8489611e+2, -1156455.8, -1205044.9, -15689.341, -0.01549616, -0.0015843359, -1151830.0, -23812.773, 0.0, 10.000072, 9.999425 
3.9500242e+2, 1.9489546e+2, -1066600.0, -1111427.4, 1459.1334, 0.010736205, -0.01245362, -1066552.6, -36528.9, 0.0, 10.000018, 9.999421 
3.9500302e+2, 2.0489462e+2, -985808.75, -1059059.3, 17496.277, 0.026241362, -0.020978967, -981844.25, -49812.867, 0.0, 10.000061, 9.999087 
3.950036e+2, 2.1489361e+2, -866928.56, -951855.25, 11887.52, 0.023564974, -0.033322085, -865296.0, -31255.68, 0.0, 10.000208, 9.99908 
3.9500403e+2, 2.2489254e+2, -785305.75, -898816.4, -2592.5046, 0.019855483, -0.03118297, -785246.6, -49195.844, 0.0, 10.000256, 9.998748 
3.9500436e+2, 2.3489141e+2, -695527.6, -805703.7, -5308.4526, 0.017915495, -0.021687325, -695272.44, -57209.72, 0.0, 10.000202, 9.99874 
3.9500484e+2, 2.4489023e+2, -597574.56, -711441.7, 7004.676, 0.017689364, -0.01160286, -597145.25, -57070.652, 0.0, 10.000218, 9.998707 
3.950055e+2, 2.54889e+2, -486392.44, -606948.6, 14849.18, 0.018039035, -0.0066670366, -484590.34, -42504.14, 0.0, 10.000309, 9.998707 
3.95006e+2, 2.6488763e+2, -407200.94, -566282.0, 13104.808, 0.005783308, 0.004766088, -406128.63, -62028.24, 0.0, 10.000388, 9.998276 
3.9500645e+2, 2.74886e+2, -300418.72, -464678.4, 4404.0938, -0.018064829, 0.013032025, -300300.72, -54183.293, 0.0, 10.00045, 9.99827 
3.9500695e+2, 2.848842e+2, -191374.73, -337679.47, -6136.1084, -0.014551488, -0.0021356686, -191117.83, -42982.152, 0.0, 10.000423, 9.998483 
3.9500755e+2, 2.9488236e+2, -110888.65, -252669.92, 16880.738, 0.01304027, -0.039725672, -108906.51, -58752.195, 0.0, 10.000323, 9.998442 
3.9500827e+2, 3.0488205e+2, -59910.47, -190343.06, 43498.914, -0.0032866485, 0.082855634, -46734.668, -46734.668, 0.0, 10.000285, 9.998554 
3.950096e+2, 3.1488043e+2, -25457.32, -118105.305, -30158.754, 0.011721214, 0.056493323, -16505.072, -16505.072, 0.000000001718879, 10.00028, 9.999053 
4.0500093e+2, 1.248967e+2, -1752215.0, -1719909.0, 94318.72, -0.050292507, -0.017145548, -1640370.1, 75641.02, 0.000028702449, 9.999695, 10.000108 
4.0500152e+2, 1.3489643e+2, -1654864.6, -1626176.1, -67684.01, 0.123337716, -0.05588897, -1571333.1, 46680.996, 0.000010028613, 9.999693, 10.000088 
4.0499926e+2, 1.4489725e+2, -1558117.4, -1547245.5, -6089.9834, -0.09374415, 0.026747677, -1544518.3, -24512.322, 0.0000013962007, 9.999769, 9.999913 
4.050006e+2, 1.548968e+2, -1445797.4, -1444949.9, -9405.269, -0.019519206, -0.012126658, -1435958.8, -13948.411, 0.000000006286357, 9.999881, 9.999888 
4.0500164e+2, 1.6489635e+2, -1381433.1, -1417710.4, -15090.393, 0.04041825, -0.020082142, -1375976.6, -51961.75, 0.0, 9.999885, 9.999401 
4.0500173e+2, 1.74896e+2, -1300422.0, -1328129.1, -10319.512, 0.020082688, 0.0013671985, -1297000.9, -70981.82, 0.0, 9.999769, 9.999399 
4.050019e+2, 1.8489553e+2, -1189137.5, -1207786.8, -6566.3027, 0.004026413, 0.008164543, -1187057.5, -59033.766, 0.0, 9.999792, 9.999541 
4.0500244e+2, 1.9489492e+2, -1064136.3, -1096679.5, -16167.34, 0.0154080875, -0.008514791, -1057469.9, -27440.822, 0.0, 9.999977, 9.999542 
4.0500304e+2, 2.0489419e+2, -970761.0, -1040622.56, -1513.5989, 0.02013486, -0.019777076, -970728.25, -38692.633, 0.0, 10.000116, 9.9991865 
4.0500367e+2, 2.1489327e+2, -859848.4, -937009.75, 11708.163, 0.009052339, -0.032441307, -858110.94, -24067.682, 0.0, 10.000208, 9.999182 
4.0500414e+2, 2.2489223e+2, -787063.56, -905125.94, 4133.942, 0.0044717235, -0.029323146, -786919.0, -50865.496, 0.0, 10.000267, 9.998699 
4.0500453e+2, 2.3489109e+2, -685707.6, -806137.6, 3064.3674, 0.010154173, -0.017000178, -685629.7, -47563.406, 0.0, 10.000293, 9.998693 
4.0500507e+2, 2.4488991e+2, -587135.56, -695011.3, 14404.391, 0.0173305, -0.008665156, -585245.3, -45167.184, 0.0, 10.000241, 9.998809 
4.0500575e+2, 2.5488874e+2, -507754.34, -605415.75, 16048.477, 0.024745954, -0.01055722, -505184.75, -63096.05, 0.0, 10.000111, 9.998814 
4.0500632e+2, 2.648874e+2, -452031.63, -591237.4, 24343.584, 0.011612814, 0.0010991758, -447897.34, -103795.0, 0.0, 10.000093, 9.998246 
4.050067e+2, 2.748858e+2, -337920.34, -486664.7, 31500.94, -0.021425031, 0.017677786, -331524.16, -85404.76, 0.0, 10.000209, 9.998236 
4.0500724e+2, 2.8488407e+2, -205411.48, -338885.7, 10909.592, -0.022419522, 0.0051240483, -204525.66, -56388.086, 0.0, 10.000303, 9.998532 
4.050078e+2, 2.948822e+2, -103184.97, -242984.9, 2860.7405, 0.006543995, -0.038191788, -103126.46, -52970.18, 0.0, 10.00035, 9.998496 
4.0500867e+2, 3.0488208e+2, -58976.16, -199718.06, 35924.22, 0.0050541684, 0.103234224, -50336.855, -50336.855, 0.0, 10.000334, 9.9984665 
4.0500998e+2, 3.1488016e+2, -8001.335, -84152.695, -1139.8865, 0.019979611, 0.059408378, -7984.2764, -7984.2764, 0.00000001196501, 10.000289, 9.999282 
4.1500062e+2, 1.248967e+2, -1772793.3, -1761144.6, 97189.06, -0.050206598, 0.023322096, -1669605.5, 46405.473, 0.000021697306, 9.999689, 9.999826 
4.150015e+2, 1.3489568e+2, -1679926.3, -1679438.8, -66598.91, 0.15287718, -0.05400969, -1613083.1, 4939.0723, 0.000006740833, 9.999697, 9.999722 
4.1499895e+2, 1.4489633e+2, -1553038.6, -1536243.0, -1564.3867, -0.101485096, 0.024965612, -1536098.5, -16082.636, 0.0000006540361, 9.999767, 9.99999 
4.150002e+2, 1.5489593e+2, -1439817.8, -1431977.3, -4847.0024, -0.04788601, -0.013730067, -1429663.6, -7645.21, 0.0000000002364484, 9.999879, 9.999979 
4.150013e+2, 1.648956e+2, -1372117.3, -1397519.6, -19781.855, 0.018158495, -0.023480881, -1361310.1, -37288.668, 0.0, 9.999881, 9.999541 
4.150016e+2, 1.7489533e+2, -1290786.1, -1307587.6, -14365.332, 0.028121457, -0.007949663, -1282545.5, -56520.746, 0.0, 9.999767, 9.99954 
4.1500196e+2, 1.8489483e+2, -1204893.1, -1240220.0, -32.683548, 0.02475268, 0.0008417767, -1204893.1, -76862.914, 0.0, 9.999791, 9.999319 
4.1500258e+2, 1.9489413e+2, -1080448.1, -1129823.0, -8748.88, 0.03196752, -0.004493951, -1078943.8, -48905.883, 0.0, 9.999974, 9.999316 
4.1500318e+2, 2.0489356e+2, -946531.0, -989613.7, 1749.6984, 0.019988194, -0.0042386535, -946460.06, -14417.327, 0.0, 10.0001135, 9.999538 
4.1500357e+2, 2.1489312e+2, -834998.0, -884699.94, 15544.176, -0.021283554, -0.0055148895, -830537.0, 3507.8032, 0.0, 10.000205, 9.999542 
4.1500404e+2, 2.2489221e+2, -788324.25, -907392.94, 4864.231, -0.029389588, -0.006438311, -788125.9, -52072.598, 0.0, 10.000265, 9.998684 
4.1500473e+2, 2.3489085e+2, -687349.25, -808911.5, 4344.793, 0.00061316165, -0.013752477, -687194.1, -49125.78, 0.0, 10.00029, 9.998675 
4.1500527e+2, 2.4488953e+2, -585040.44, -690051.75, 9223.863, 0.015305815, -0.02160398, -584236.4, -44154.81, 0.0, 10.000238, 9.998843 
4.1500574e+2, 2.5488827e+2, -505300.2, -600471.25, 11232.718, 0.012740769, -0.036740948, -503992.4, -61899.67, 0.0, 10.000111, 9.998847 
4.1500637e+2, 2.6488703e+2, -439460.13, -564525.2, 28198.625, 0.00881287, -0.022623384, -433396.16, -89291.49, 0.0, 10.000092, 9.99843 
4.150072e+2, 2.7488586e+2, -325950.56, -459978.3, 36592.25, 0.0044412, 0.014238448, -316610.97, -70493.445, 0.0, 10.000202, 9.998423 
4.1500777e+2, 2.8488418e+2, -230393.31, -389277.5, 12307.592, 0.0020135276, 0.017164499, -229445.6, -81309.86, 0.0, 10.000297, 9.99819 
4.150081e+2, 2.9488203e+2, -126916.55, -292817.2, 4296.2793, -0.0010141777, -0.021565674, -126805.37, -76646.055, 0.0, 10.000352, 9.998153 
4.1500893e+2, 3.0488184e+2, -28527.03, -136640.75, 33642.49, 0.000091385744, 0.10977068, -18913.166, -18913.166, 0.0, 10.000335, 9.9988985 
4.1501027e+2, 3.1487998e+2, 48368.78, 35457.758, -3582.6165, 0.020882897, 0.025379142, 49296.273, 49296.273, 0.000000036873733, 10.000279, 10.000107 
4.2500052e+2, 1.2489625e+2, -1761933.6, -1750155.3, 93761.805, -0.03210327, 0.029182112, -1662097.8, 53917.293, 0.000015823704, 9.9997425, 9.999876 
4.2500144e+2, 1.3489506e+2, -1665510.9, -1679014.3, -49636.273, 0.16638863, -0.060657408, -1622169.1, -4141.1963, 0.0000041887733, 9.999825, 9.999663 
4.2499855e+2, 1.4489567e+2, -1546461.8, -1538707.5, 20558.75, -0.1213506, 0.021420343, -1521663.5, -1641.6803, 0.00000021832761, 9.999838, 9.999939 
4.2500004e+2, 1.5489519e+2, -1474134.1, -1454226.9, 5274.5015, -0.04295856, -0.022075674, -1452915.8, -30890.545, 0.0, 9.999668, 9.9999275 
4.2500123e+2, 1.6489483e+2, -1391315.8, -1399985.6, -11869.101, 0.030927915, -0.032988895, -1383014.8, -58986.473, 0.0, 9.999722, 9.999601 
4.250015e+2, 1.7489466e+2, -1245802.9, -1279086.0, -13712.283, 0.027636157, -0.014613662, -1240881.4, -14850.535, 0.0, 10.000048, 9.999601 
4.2500183e+2, 1.8489417e+2, -1156336.0, -1223290.3, 919.39905, 0.017980153, -0.0045939027, -1156323.4, -28287.205, 0.0, 10.000153, 9.999261 
4.2500255e+2, 1.9489342e+2, -1078067.0, -1135420.3, 4386.506, 0.025643468, -0.010388876, -1077733.5, -47688.88, 0.0, 10.00002, 9.999255 
4.2500314e+2, 2.0489287e+2, -972122.9, -998274.56, 9665.988, 0.014738677, -0.005542981, -968938.06, -36888.617, 0.0, 9.999923, 9.999571 
4.2500356e+2, 2.1489255e+2, -882184.2, -903556.06, -1635.772, -0.024205912, 0.002525419, -882059.7, -48009.004, 0.0, 9.999865, 9.999577 
4.2500415e+2, 2.2489172e+2, -831141.94, -910116.4, -15400.692, -0.030586516, -0.00136994, -828244.94, -92186.53, 0.0, 9.999895, 9.998843 
4.2500487e+2, 2.3489037e+2, -715321.7, -804259.0, -3125.599, 0.00024526246, -0.023084138, -715212.0, -77139.414, 0.0, 10.000021, 9.998837 
4.250055e+2, 2.448891e+2, -593146.8, -692349.0, 6750.4917, 0.013997174, -0.03417877, -592689.56, -52604.516, 0.0, 10.000175, 9.9988575 
4.2500594e+2, 2.548879e+2, -467335.28, -580937.44, 6278.4673, 0.008675791, -0.04232006, -466989.34, -24893.727, 0.0, 10.000366, 9.998858 
4.2500663e+2, 2.6488674e+2, -385834.66, -535062.3, 17343.66, 0.0064276373, -0.026110508, -383845.44, -39738.207, 0.0, 10.000443, 9.998464 
4.2500755e+2, 2.7488557e+2, -295483.38, -440948.5, 14016.018, 0.008746753, 0.008597782, -294145.2, -48025.35, 0.0, 10.000392, 9.998461 
4.2500815e+2, 2.848839e+2, -226452.03, -394987.5, -4649.576, 0.0066538313, 0.010565824, -226323.86, -78185.555, 0.0, 10.000357, 9.998122 
4.2500842e+2, 2.948816e+2, -132619.25, -303225.22, 6549.753, -0.0012959561, -0.031235829, -132368.16, -82205.07, 0.0, 10.000345, 9.998084 
4.250093e+2, 3.048813e+2, -49368.54, -152720.22, 22944.225, 0.007848604, 0.094083235, -44503.863, -44503.863, 0.0, 10.000217, 9.998844 
4.2501038e+2, 3.1487954e+2, 24460.545, 58877.57, -52396.22, 0.017346798, 0.027642313, 96818.83, 96818.83, 0.00000007454206, 9.999964, 10.000421 
4.3500057e+2, 1.24895364e+2, -1736972.9, -1697608.1, 96947.51, -0.0020090519, 0.0013668446, -1618365.3, 97658.12, 0.0000113764345, 9.99974, 10.000238 
4.3500122e+2, 1.3489455e+2, -1647784.8, -1643528.9, -44575.59, 0.16271815, -0.074270695, -1601030.5, 17000.678, 0.0000025044064, 9.999828, 9.999906 
4.3499807e+2, 1.448953e+2, -1558671.3, -1564046.3, 15038.919, -0.15567903, 0.01718352, -1546081.6, -26058.1, 0.000000047491298, 9.999838, 9.999765 
4.3500006e+2, 1.5489452e+2, -1487170.4, -1480603.0, -806.1688, -0.008139228, -0.03889995, -1480505.5, -58474.62, 0.0, 9.999665, 9.999747 
4.350014e+2, 1.6489406e+2, -1394393.5, -1405360.8, 6.0202312, 0.07522868, -0.049924735, -1394393.5, -70358.016, 0.0, 9.999718, 9.999566 
4.3500143e+2, 1.7489396e+2, -1248070.3, -1283342.5, -747.24365, 0.017502462, -0.018211013, -1248054.4, -22017.303, 0.0, 10.000046, 9.999573 
4.3500164e+2, 1.8489355e+2, -1149544.1, -1208310.3, -4129.3774, -0.018081963, -0.007110887, -1149255.4, -21213.846, 0.0, 10.00015, 9.999365 
4.3500224e+2, 1.9489276e+2, -1070996.5, -1119992.1, -324.5055, -0.0055584973, -0.02565696, -1070994.3, -40944.95, 0.0, 10.000017, 9.999362 
4.3500292e+2, 2.0489208e+2, -992698.1, -1040216.44, 7381.752, 0.0026842058, -0.02385829, -991577.9, -59521.99, 0.0, 9.99992, 9.999284 
4.3500367e+2, 2.1489155e+2, -902975.56, -946021.9, -3317.3167, -0.0017350478, -0.008262784, -902721.44, -68660.42, 0.0, 9.999862, 9.999286 
4.3500432e+2, 2.2489074e+2, -808147.1, -861778.6, -11019.147, -0.0011570005, -0.01364823, -805971.4, -69902.6, 0.0, 9.999892, 9.999177 
4.3500498e+2, 2.3488961e+2, -691566.3, -754737.25, 1848.0555, 0.007893642, -0.045562923, -691512.3, -53433.215, 0.0, 10.000019, 9.999178 
4.3500564e+2, 2.448886e+2, -594112.56, -693769.75, 13664.722, 0.012230855, -0.047208283, -592272.9, -52184.27, 0.0, 10.000174, 9.998849 
4.3500632e+2, 2.548877e+2, -468539.13, -582827.75, 13884.311, 0.00980532, -0.027217941, -466876.6, -24779.07, 0.0, 10.000363, 9.998847 
4.35007e+2, 2.6488647e+2, -394184.22, -551732.2, 15116.718, 0.0020601042, -0.009230621, -392746.88, -48636.758, 0.0, 10.000441, 9.998351 
4.3500775e+2, 2.7488494e+2, -303312.25, -457052.78, 11907.285, -0.0102752065, 0.0012043775, -302395.5, -56269.152, 0.0, 10.000391, 9.998351 
4.3500832e+2, 2.8488314e+2, -212690.86, -364884.25, -5512.3677, -0.010254696, -0.014461965, -212491.47, -64346.105, 0.0, 10.000351, 9.998331 
4.3500882e+2, 2.94881e+2, -118406.1, -272606.38, 6780.0957, 0.002154294, -0.0677676, -118108.555, -67940.79, 0.0, 10.000341, 9.998296 
4.3500972e+2, 3.0488047e+2, -87436.664, -230919.31, 12783.51, 0.02495993, 0.05556134, -86306.625, -86306.625, 0.0, 10.000215, 9.998309 
4.350102e+2, 3.1487888e+2, 10767.58, 30713.705, -59723.16, 0.0035027512, 0.058962915, 81290.766, 81290.766, 0.0000001100893, 9.999963, 10.000228 
4.450006e+2, 1.2489465e+2, -1683741.5, -1659457.3, 89680.96, 0.01032886, -0.0117486315, -1581100.1, 134930.1, 0.000008277144, 10.000054, 10.000347 
4.450011e+2, 1.348939e+2, -1692499.5, -1666167.0, -69115.36, 0.18321955, -0.079250365, -1608975.0, 9061.944, 0.0000015575915, 9.999525, 9.999897 
4.449976e+2, 1.4489469e+2, -1602863.5, -1589957.9, 1922.5955, -0.16960719, 0.017352635, -1589677.6, -69648.67, 0.000000013935479, 9.999556, 9.999723 
4.4499993e+2, 1.5489379e+2, -1427331.3, -1456358.0, -6650.1963, -0.00751591, -0.046199705, -1425880.3, -3842.567, 0.0, 10.000097, 9.999706 
4.450014e+2, 1.648933e+2, -1333249.3, -1381331.5, -9259.564, 0.081715286, -0.05552645, -1331527.8, -7484.816, 0.0, 10.000161, 9.999517 
4.4500133e+2, 1.7489326e+2, -1297209.6, -1312305.3, -11203.62, 0.018263556, -0.012831232, -1291248.5, -65204.5, 0.0, 9.999732, 9.999525 
4.450015e+2, 1.8489285e+2, -1209092.0, -1223000.9, -7880.669, -0.02064845, -0.004473267, -1205536.0, -77487.87, 0.0, 9.9996805, 9.999489 
4.4500223e+2, 1.9489203e+2, -1060543.9, -1100776.3, -3229.2993, -0.008587102, -0.039974924, -1060286.4, -30230.906, 0.0, 10.000029, 9.999488 
4.4500297e+2, 2.0489132e+2, -958297.56, -1034448.6, 7498.2163, -0.0012015356, -0.042208012, -957566.3, -25504.082, 0.0, 10.000203, 9.999187 
4.4500363e+2, 2.1489081e+2, -861683.1, -937225.44, 10717.321, -0.0074836537, -0.016737012, -860192.06, -26123.78, 0.0, 10.000194, 9.9991865 
4.450043e+2, 2.2489001e+2, -762235.44, -830229.7, 4167.4307, -0.006043369, -0.017046373, -761980.94, -25905.049, 0.0, 10.000168, 9.999261 
4.4500503e+2, 2.3488897e+2, -670691.8, -735322.7, -2825.4656, 0.006290427, -0.050479658, -670568.56, -32483.557, 0.0, 10.000122, 9.999262 
4.450058e+2, 2.4488807e+2, -603155.44, -697518.75, 2650.0674, 0.012951385, -0.047488205, -603081.06, -62987.438, 0.0, 10.000108, 9.998856 
4.4500658e+2, 2.5488728e+2, -502638.25, -597909.4, 3810.5027, 0.012318588, -0.015104126, -502486.1, -60384.227, 0.0, 10.000124, 9.998858 
4.4500735e+2, 2.6488605e+2, -438313.94, -571929.9, 6596.6304, 0.0069857277, 0.00061888475, -437989.06, -93874.18, 0.0, 10.0001335, 9.99836 
4.450081e+2, 2.7488437e+2, -339141.44, -473806.88, 11663.698, -0.002228535, -0.0052549844, -338138.7, -92006.11, 0.0, 10.000142, 9.998356 
4.4500864e+2, 2.8488266e+2, -218133.48, -343625.66, 2073.487, -0.008270196, -0.019607296, -218099.23, -69949.42, 0.0, 10.000209, 9.998546 
4.4500902e+2, 2.948809e+2, -107573.45, -242146.42, 13616.917, -0.0093544135, -0.055802602, -106209.44, -56042.266, 0.0, 10.000307, 9.998522 
4.4501e+2, 3.0487993e+2, -88469.625, -284069.25, 21319.924, 0.0248472, 0.03359319, -86172.77, -86172.77, 0.00000000000009396187, 10.000432, 9.99784 
4.4501048e+2, 3.148781e+2, 88056.73, 42186.664, -46906.402, 0.0048269248, 0.05989267, 117334.98, 117334.98, 0.00000013361628, 10.000606, 9.999997 
4.5500052e+2, 1.2489407e+2, -1692613.5, -1678161.8, 67148.875, -0.002398038, -0.012303996, -1617851.1, 98185.0, 0.0000061456926, 10.000056, 10.000217 
4.5500106e+2, 1.3489309e+2, -1710071.5, -1701944.8, -87153.24, 0.22653548, -0.07820397, -1618760.1, -714.6992, 0.0000010596042, 9.999521, 9.999655 
4.549972e+2, 1.448938e+2, -1598498.4, -1579752.1, 23444.291, -0.16562518, 0.020467646, -1563876.8, -43838.54, 0.000000007555667, 9.99955, 9.999797 
4.549997e+2, 1.5489301e+2, -1421587.9, -1444710.4, 14711.118, -0.044030093, -0.041802987, -1414438.8, 7606.9395, 0.0, 10.000098, 9.999785 
4.5500124e+2, 1.6489257e+2, -1336584.4, -1388586.9, -25483.605, 0.047310837, -0.04720874, -1326178.5, -2128.1704, 0.0, 10.000163, 9.999466 
4.5500118e+2, 1.7489254e+2, -1301517.0, -1320495.5, -26827.701, 0.02894542, 0.0011177569, -1282549.8, -56497.973, 0.0, 9.999729, 9.99947 
4.550015e+2, 1.848921e+2, -1200176.6, -1203035.4, 5082.9478, 0.008630214, 0.0020936104, -1196325.9, -68269.984, 0.0, 9.999675, 9.999629 
4.5500252e+2, 1.948912e+2, -1050819.5, -1079933.5, 10341.519, 0.014389874, -0.05382233, -1047520.06, -17457.057, 0.0, 10.000026, 9.999632 
4.5500317e+2, 2.048906e+2, -952373.5, -1021229.4, 6979.457, 0.0007405156, -0.060512, -951673.2, -19604.615, 0.0, 10.000198, 9.99928 
4.5500347e+2, 2.1489027e+2, -855143.75, -923504.5, 10795.325, -0.042486448, -0.022561803, -853479.5, -19406.908, 0.0, 10.000193, 9.999281 
4.550041e+2, 2.2488958e+2, -774604.1, -855570.44, 2250.3655, -0.046155397, -0.011922941, -774541.6, -38461.766, 0.0, 10.000166, 9.999087 
4.5500505e+2, 2.3488843e+2, -683020.1, -760880.94, -4354.532, -0.005960773, -0.03757545, -682777.3, -44686.93, 0.0, 10.000122, 9.999086 
4.550059e+2, 2.4488744e+2, -601945.44, -694507.94, 2768.8608, 0.014463672, -0.03402999, -601862.7, -61762.508, 0.0, 10.000106, 9.998878 
4.5500675e+2, 2.5488663e+2, -501111.7, -593562.6, 4372.101, 0.014505602, -0.0067248708, -500905.38, -58796.523, 0.0, 10.000119, 9.99889 
4.5500764e+2, 2.648854e+2, -429839.72, -553393.8, 6633.4883, 0.020257117, 0.0026487338, -429484.6, -85362.93, 0.0, 10.00013, 9.998489 
4.5500854e+2, 2.7488378e+2, -330075.44, -455503.28, 12768.199, 0.029791355, -0.011665757, -328788.88, -82650.164, 0.0, 10.000144, 9.998481 
4.55009e+2, 2.8488246e+2, -203431.83, -312374.44, 5299.5596, 0.009268026, -0.005791671, -203174.63, -55022.84, 0.0, 10.000207, 9.998761 
4.5500904e+2, 2.9488134e+2, -91569.516, -207629.48, 16693.162, -0.038660686, 0.0045906105, -89216.22, -39054.805, 0.0, 10.000301, 9.998761 
4.5501027e+2, 3.0487967e+2, -118672.0, -344432.25, 27266.068, 0.0057568713, 0.02833592, -115425.63, -115425.63, 0.00000000000087855477, 10.000423, 9.99743 
4.5501122e+2, 3.1487706e+2, 69147.07, 3429.0615, -36880.727, 0.015905805, 0.019687263, 85683.43, 85683.43, 0.00000014519496, 10.000604, 9.999731 
4.650002e+2, 1.248936e+2, -1786210.6, -1713587.9, 63948.324, -0.0041853874, 0.0033985516, -1676360.8, 39681.008, 0.000004581255, 9.999375, 10.000299 
4.6500117e+2, 1.3489243e+2, -1619037.4, -1661898.3, -71049.54, 0.2524008, -0.07843485, -1566256.6, 51795.773, 0.0000007444035, 10.000161, 9.99962 
4.649971e+2, 1.448931e+2, -1495032.1, -1536111.1, 37004.914, -0.17053849, 0.01857012, -1473248.6, 46796.836, 0.0000000034677494, 10.000287, 9.999741 
4.649995e+2, 1.5489239e+2, -1492125.1, -1484604.0, 17078.973, -0.047711466, -0.028333135, -1470876.5, -48824.242, 0.0, 9.9996395, 9.999732 
4.6500105e+2, 1.6489193e+2, -1425663.9, -1426559.5, -21339.365, 0.04496069, -0.036183096, -1404767.6, -80710.54, 0.0, 9.99953, 9.999511 
4.6500102e+2, 1.7489174e+2, -1259996.9, -1295428.8, -15842.828, 0.026836626, -0.008220719, -1253946.3, -27886.68, 0.0, 9.999992, 9.999516 
4.6500137e+2, 1.848913e+2, -1142740.0, -1173044.8, 15850.27, 0.010608976, -0.010331062, -1135964.6, -7901.0903, 0.0, 10.000059, 9.99965 
4.6500248e+2, 1.9489057e+2, -1093596.6, -1098195.1, 12207.125, 0.024232563, -0.05077549, -1083474.1, -53405.28, 0.0, 9.9997225, 9.999654 
4.650032e+2, 2.0489003e+2, -1022597.7, -1048641.9, 8061.89, 0.009796915, -0.05560747, -1020304.2, -88230.445, 0.0, 9.999689, 9.999337 
4.6500355e+2, 2.1488965e+2, -884336.56, -931331.5, 8161.9937, -0.044967238, -0.029872896, -882959.3, -48881.258, 0.0, 9.999966, 9.999336 
4.6500415e+2, 2.248889e+2, -781992.4, -868156.94, -1936.8994, -0.05354661, -0.021327727, -781948.8, -45863.16, 0.0, 10.000154, 9.999007 
4.6500516e+2, 2.3488778e+2, -670218.8, -763207.25, -1662.1085, -0.011118925, -0.037875593, -670189.1, -32092.523, 0.0, 10.000248, 9.999009 
4.6500602e+2, 2.4488677e+2, -587941.75, -688605.7, 4555.1973, 0.010683919, -0.031614173, -587736.0, -47629.297, 0.0, 10.000207, 9.998868 
4.6500677e+2, 2.5488588e+2, -515259.7, -601955.25, 2567.8044, 0.011112564, -0.009256584, -515183.7, -73067.61, 0.0, 10.000028, 9.998877 
4.650077e+2, 2.648847e+2, -431643.88, -533708.3, 12311.879, 0.018558418, -0.006467915, -430179.7, -86051.3, 0.0, 10.000028, 9.998673 
4.6500877e+2, 2.7488318e+2, -307880.78, -423589.8, 21966.344, 0.031634092, -0.027813267, -303851.0, -57707.39, 0.0, 10.000206, 9.998671 
4.6500927e+2, 2.84882e+2, -197549.7, -320922.6, 4034.7551, 0.009963662, -0.009716393, -197417.89, -49262.926, 0.0, 10.000297, 9.998659 
4.6500927e+2, 2.9488114e+2, -101330.484, -223077.84, -10367.964, -0.042954277, 0.031182611, -100453.86, -50290.61, 0.0, 10.00028, 9.998666 
4.6501067e+2, 3.0487898e+2, -125583.1, -324566.56, 13998.148, 0.014706679, 0.00023621821, -124603.18, -124603.18, 0.00000000000042122027, 10.000274, 9.997639 
4.6501178e+2, 3.148766e+2, 37296.094, 13170.318, -837.9932, 0.027285263, -0.002156946, 37325.164, 37325.164, 0.00000014428599, 10.000274, 9.999958 
4.7499964e+2, 1.24893226e+2, -1768007.9, -1674465.9, 86514.29, -0.0027224892, 0.034514684, -1622889.4, 93158.07, 0.0000033199578, 9.999368, 10.000572 
4.7500136e+2, 1.3489196e+2, -1607133.3, -1638830.9, -39195.945, 0.2556859, -0.07563392, -1580703.3, 37354.203, 0.00000048107097, 10.000166, 9.999778 
4.749972e+2, 1.4489254e+2, -1505729.4, -1559927.4, 13607.482, -0.1902378, 0.01646262, -1502504.9, 17545.81, 0.000000000765976, 10.000294, 9.999575 
4.7499946e+2, 1.548919e+2, -1505019.8, -1509822.5, -6876.5327, -0.018899187, -0.007469942, -1500137.4, -78079.51, 0.0, 9.999634, 9.999562 
4.750009e+2, 1.6489133e+2, -1417048.8, -1407380.6, -4104.4307, 0.073689245, -0.023853965, -1405873.3, -81809.68, 0.0, 9.999524, 9.999645 
4.7500083e+2, 1.7489086e+2, -1249867.8, -1274622.5, 2349.975, 0.0076394607, -0.04043949, -1249646.6, -23579.035, 0.0, 9.999993, 9.999658 
4.7500116e+2, 1.8489046e+2, -1148933.0, -1185935.4, 3163.1343, -0.019549191, -0.04023515, -1148664.6, -20593.787, 0.0, 10.000059, 9.999561 
4.7500214e+2, 1.9489016e+2, -1100067.9, -1111671.4, 14.183013, 0.020645374, -0.030661397, -1100067.9, -69994.89, 0.0, 9.999722, 9.999561 
4.7500306e+2, 2.0488964e+2, -1022634.2, -1047504.56, 18169.291, 0.025048213, -0.027816802, -1013052.2, -80974.484, 0.0, 9.999684, 9.999348 
4.7500378e+2, 2.148889e+2, -883564.1, -929540.2, 18788.473, -0.016903853, -0.039008982, -876862.8, -42778.004, 0.0, 9.999965, 9.99935 
4.7500455e+2, 2.2488801e+2, -781376.9, -866176.2, 1164.1389, -0.030644184, -0.045209106, -781360.9, -45267.387, 0.0, 10.000151, 9.9990225 
4.750054e+2, 2.3488699e+2, -668894.6, -759905.5, 2139.7275, -0.010733072, -0.052342117, -668844.4, -30740.73, 0.0, 10.000245, 9.999033 
4.7500613e+2, 2.4488603e+2, -591663.25, -696054.25, -2443.935, 0.000081323844, -0.04159506, -591606.06, -51492.49, 0.0, 10.000205, 9.998818 
4.7500667e+2, 2.5488508e+2, -518928.0, -610169.4, -3984.3289, -0.000016671263, -0.022299267, -518754.34, -76630.74, 0.0, 10.0000305, 9.998819 
4.7500753e+2, 2.648839e+2, -415431.22, -499834.94, 18533.117, 0.00011447199, -0.025521798, -411541.06, -67406.01, 0.0, 10.000027, 9.998907 
4.7500864e+2, 2.7488256e+2, -291544.88, -387908.13, 28708.857, 0.0011337502, -0.053518154, -283640.25, -37492.844, 0.0, 10.000199, 9.998919 
4.750094e+2, 2.8488138e+2, -227622.47, -381926.78, 3259.6643, -0.007541846, -0.031435356, -227553.64, -79394.11, 0.0, 10.00029, 9.998244 
4.7500974e+2, 2.9488018e+2, -129988.7, -283237.88, -10381.617, -0.025826005, 0.022507941, -129288.62, -79115.78, 0.0, 10.000283, 9.998252 
4.750113e+2, 3.048778e+2, -68841.15, -205724.81, 13258.109, 0.048020992, -0.05258601, -67568.836, -67568.836, 0.0, 10.000271, 9.998456 
4.7501212e+2, 3.1487662e+2, 87789.16, 120320.16, 5392.7207, 0.03171875, -0.015805112, 121190.81, 121190.81, 0.00000012581201, 10.000265, 10.000698 
4.8499927e+2, 1.24892816e+2, -1660623.9, -1612347.5, 95873.54, -0.008040809, 0.04592967, -1537620.1, 178431.9, 0.0000022837717, 10.000064, 10.000662 
4.8500142e+2, 1.3489157e+2, -1685467.6, -1678420.1, -34057.645, 0.27045664, -0.05854423, -1647704.5, -29643.146, 0.0000002759338, 9.999635, 9.999763 
4.8499706e+2, 1.4489204e+2, -1599718.4, -1611665.9, 5389.7188, -0.19876722, 0.023400938, -1597646.4, -77590.63, 0.000000000009128432, 9.999677, 9.9995165 
4.8499942e+2, 1.5489127e+2, -1445302.4, -1488022.8, -9694.898, -0.004516805, -0.006660731, -1443205.1, -21140.957, 0.0, 10.0000725, 9.999501 
4.8500088e+2, 1.6489063e+2, -1330279.0, -1367299.6, 1511.8685, 0.094109185, -0.027166592, -1330217.4, -6146.789, 0.0, 10.000127, 9.999631 
4.8500085e+2, 1.7489012e+2, -1269176.9, -1285316.1, -3930.7112, 0.016789926, -0.04466656, -1268270.4, -42195.816, 0.0, 9.9998665, 9.999646 
4.8500112e+2, 1.8488972e+2, -1175070.9, -1206622.0, -11413.299, -0.019529471, -0.0400816, -1171375.1, -43297.363, 0.0, 9.999913, 9.999491 
4.8500204e+2, 1.9488947e+2, -1026041.7, -1083875.4, -13652.021, 0.011098209, -0.01897791, -1022981.0, 7098.903, 0.0, 10.000263, 9.999492 
4.8500302e+2, 2.0488884e+2, -934675.9, -1012902.0, 3603.88, 0.020386029, -0.018918687, -934510.2, -2424.5579, 0.0, 10.00032, 9.999279 
4.8500398e+2, 2.1488786e+2, -872780.4, -931723.2, -1837.5424, -0.0008340788, -0.04751264, -872723.2, -38628.25, 0.0, 10.000071, 9.999284 
4.8500475e+2, 2.24887e+2, -804558.75, -868499.5, -18095.297, -0.013110123, -0.05421081, -799792.94, -63689.402, 0.0, 9.999953, 9.999102 
4.850055e+2, 2.3488621e+2, -702789.4, -767658.5, -13815.112, -0.013846434, -0.04460619, -699969.75, -61858.348, 0.0, 9.999974, 9.99911 
4.8500615e+2, 2.4488531e+2, -614158.94, -700027.9, -15859.886, -0.007080046, -0.03424503, -611323.25, -71202.87, 0.0, 10.000021, 9.99888 
4.850068e+2, 2.5488424e+2, -505843.7, -596508.3, -9363.982, 0.0060993126, -0.033560522, -504886.66, -62755.76, 0.0, 10.00009, 9.998884 
4.8500764e+2, 2.6488298e+2, -415412.63, -509860.0, 9293.933, 0.006332829, -0.04112555, -414506.75, -70364.0, 0.0, 10.000072, 9.998816 
4.8500863e+2, 2.748817e+2, -334116.7, -419303.9, -5787.985, -0.0061999573, -0.058732174, -333725.22, -87569.79, 0.0, 9.999953, 9.998822 
4.850095e+2, 2.8488046e+2, -266852.4, -395311.06, -23600.8, -0.013350801, -0.036199518, -262653.63, -114485.86, 0.0, 9.999996, 9.998294 
4.850101e+2, 2.9487923e+2, -136486.63, -279521.9, -3255.9456, -0.01357107, 0.008559923, -136412.55, -86231.51, 0.0, 10.000209, 9.998314 
4.8501176e+2, 3.048766e+2, -64685.652, -183105.08, 7373.894, 0.069507524, -0.10250929, -64228.25, -64228.25, 0.0, 10.00021, 9.998641 
4.850122e+2, 3.1487617e+2, 41657.996, 94786.79, -45353.668, 0.029136486, -0.009412908, 120783.05, 120783.05, 0.00000009052117, 9.999964, 10.000669 
4.949991e+2, 1.24892354e+2, -1667761.1, -1626432.9, 68256.51, -0.032414343, 0.039581478, -1575781.1, 140274.66, 0.0000015131136, 10.000062, 10.000566 
4.9500132e+2, 1.3489129e+2, -1699116.6, -1705436.5, -48159.438, 0.29661348, -0.029702552, -1654013.5, -35949.03, 0.00000014199817, 9.999629, 9.99958 
4.949968e+2, 1.4489153e+2, -1597464.1, -1605863.6, 21382.482, -0.19729818, 0.038145877, -1579872.9, -59811.71, 0.0, 9.999671, 9.99956 
4.9499944e+2, 1.5489051e+2, -1441723.4, -1481106.6, 5649.4067, -0.010516406, -0.023039771, -1440929.0, -18857.61, 0.0, 10.000074, 9.999547 
4.950011e+2, 1.6488981e+2, -1340614.9, -1390235.0, -9127.78, 0.099641055, -0.0415857, -1338989.0, -14910.999, 0.0, 10.000133, 9.999471 
4.950011e+2, 1.7488952e+2, -1280745.3, -1309311.0, -13242.509, 0.054180782, -0.021213334, -1275550.9, -49470.21, 0.0, 9.999866, 9.999481 
4.9500135e+2, 1.8488908e+2, -1179574.4, -1214653.3, 1674.4652, 0.00987613, -0.010108381, -1179494.6, -51410.098, 0.0, 9.9999075, 9.999438 
4.9500215e+2, 1.948885e+2, -1029347.1, -1090864.9, -23.015902, -0.006862204, -0.0164996, -1029347.1, 742.5726, 0.0, 10.000263, 9.999443 
4.9500304e+2, 2.0488766e+2, -944947.0, -1033611.6, -6016.385, -0.0072618737, -0.029281095, -944540.6, -12443.014, 0.0, 10.000318, 9.999139 
4.9500406e+2, 2.1488656e+2, -882683.0, -952124.6, -10663.324, 0.002097679, -0.05634433, -881082.44, -46974.06, 0.0, 10.000069, 9.9991455 
4.9500483e+2, 2.248858e+2, -796160.75, -850324.8, -17681.857, -0.0031822876, -0.049685292, -790899.5, -54783.664, 0.0, 9.99995, 9.999228 
4.950054e+2, 2.3488544e+2, -693768.94, -749298.56, -12877.755, -0.021154935, -0.013733706, -690927.8, -52808.043, 0.0, 9.999976, 9.999236 
4.9500614e+2, 2.4488463e+2, -602334.44, -675065.94, -13700.362, -0.011558338, -0.008168495, -599839.3, -59712.19, 0.0, 10.000019, 9.999053 
4.950071e+2, 2.5488335e+2, -493533.94, -570115.1, -6537.341, 0.027447168, -0.043546684, -492979.88, -50841.75, 0.0, 10.000086, 9.999067 
4.95008e+2, 2.64882e+2, -444869.25, -570538.7, 4590.653, 0.034870446, -0.05469374, -444701.78, -100550.055, 0.0, 10.00007, 9.998401 
4.9500874e+2, 2.7488053e+2, -363994.25, -481598.8, -9857.712, 0.007101478, -0.04424735, -363173.7, -117005.875, 0.0, 9.999954, 9.998394 
4.950095e+2, 2.848793e+2, -232271.75, -322972.7, -16161.888, -0.009301131, -0.02383642, -229477.94, -81298.26, 0.0, 9.999994, 9.998792 
4.9501038e+2, 2.948783e+2, -99877.06, -202045.4, 5264.3184, -0.008110391, -0.009337726, -99606.52, -49418.68, 0.0, 10.000203, 9.998848 
4.9501204e+2, 3.0487543e+2, -97433.57, -249274.98, -1843.9202, 0.07764717, -0.14838885, -97411.18, -97411.18, 0.0, 10.000202, 9.99819 
4.95012e+2, 3.148752e+2, -12968.379, -17598.23, -47857.293, 0.013071224, 0.009886196, 32629.943, 32629.943, 0.000000050936965, 9.99996, 9.999897 
5.0499886e+2, 1.2489156e+2, -1724857.9, -1664360.4, 40722.85, -0.044600822, 0.02050463, -1643881.0, 72181.164, 0.0000009949754, 9.999718, 10.000471 
5.050014e+2, 1.3489047e+2, -1635027.4, -1693105.3, -61915.33, 0.32168368, -0.032502964, -1595679.4, 22392.504, 0.000000065122016, 10.000147, 9.999417 
5.049968e+2, 1.4489056e+2, -1509534.1, -1564645.3, 10341.457, -0.19162418, 0.02779165, -1507657.5, 12413.036, 0.0, 10.000279, 9.99955 
5.049995e+2, 1.5488954e+2, -1447097.9, -1484770.1, -12403.949, -0.007666362, -0.03160645, -1443380.5, -21300.105, 0.0, 10.000042, 9.999538 
5.050012e+2, 1.6488889e+2, -1363273.6, -1407469.9, -29786.793, 0.10098656, -0.04362354, -1348283.0, -24196.154, 0.0, 10.000004, 9.999415 
5.050011e+2, 1.7488867e+2, -1243317.1, -1297677.9, -26451.557, 0.05595458, -0.0105039785, -1232570.5, -6481.5415, 0.0, 10.000149, 9.999426 
5.050014e+2, 1.8488814e+2, -1149863.4, -1213835.5, -1727.0385, 0.013365392, -0.0009601673, -1149816.8, -21722.746, 0.0, 10.000169, 9.999319 
5.050024e+2, 1.9488727e+2, -1065036.8, -1121544.1, -9346.362, -0.0014349518, -0.022550648, -1063531.0, -33428.875, 0.0, 10.000076, 9.999324 
5.050033e+2, 2.0488638e+2, -983724.25, -1050132.3, -20812.25, -0.004669552, -0.035177574, -977740.8, -45630.18, 0.0, 10.000041, 9.999159 
5.0500405e+2, 2.1488547e+2, -882684.7, -949456.0, -14427.677, -0.005254212, -0.04686737, -879700.56, -45580.88, 0.0, 10.000057, 9.999168 
5.0500476e+2, 2.2488476e+2, -776851.1, -838107.8, -13164.237, -0.0067498647, -0.037114654, -774141.9, -38015.41, 0.0, 10.00007, 9.999255 
5.0500554e+2, 2.348843e+2, -677682.8, -738483.44, -16226.399, -0.00655351, -0.010948202, -673623.4, -35492.64, 0.0, 10.000073, 9.999264 
5.050063e+2, 2.4488345e+2, -604722.1, -684709.25, -30149.89, 0.0030566554, -0.008624883, -594630.75, -54492.17, 0.0, 10.000039, 9.998977 
5.050071e+2, 2.5488213e+2, -515999.03, -589914.75, -42570.41, 0.022549901, -0.040677674, -496582.06, -54431.633, 0.0, 9.9999695, 9.998988 
5.05008e+2, 2.6488075e+2, -456309.06, -571484.5, -24840.088, 0.032980654, -0.052602686, -451180.16, -107015.88, 0.0, 9.999971, 9.998441 
5.05009e+2, 2.7487925e+2, -347691.8, -469448.97, -5773.616, 0.031099102, -0.04885695, -347418.63, -101238.42, 0.0, 10.000049, 9.998431 
5.050098e+2, 2.8487805e+2, -217995.23, -312652.53, -7383.6646, 0.01239136, -0.028483363, -217422.73, -69231.33, 0.0, 10.000078, 9.998822 
5.050104e+2, 2.9487717e+2, -121712.1, -207808.27, -22496.572, -0.016445242, -0.0029277273, -116188.24, -65990.305, 0.0, 10.000033, 9.998891 
5.050121e+2, 3.0487424e+2, -106781.23, -243468.72, -31625.219, 0.06854429, -0.15639648, -99818.79, -99818.79, 0.0, 10.000094, 9.9982815 
5.0501215e+2, 3.1487414e+2, 12672.722, -36343.57, -32820.836, 0.017871711, 0.00859564, 29126.223, 29126.223, 0.000000020855737, 10.000271, 9.999619 
5.1499856e+2, 1.2489037e+2, -1733138.1, -1679373.5, 41671.063, -0.05190212, -0.012908661, -1656666.1, 59405.5, 0.00000067894854, 9.999707, 10.000373 
5.150018e+2, 1.348892e+2, -1644312.8, -1713122.6, -44223.37, 0.33939096, -0.062283065, -1622687.3, -4604.157, 0.000000029496794, 10.000149, 9.999279 
5.149971e+2, 1.4488919e+2, -1513909.3, -1575332.4, 1308.6788, -0.19041787, -0.0017267495, -1513881.4, 6202.168, 0.0, 10.000285, 9.999474 
5.149997e+2, 1.5488836e+2, -1452169.4, -1494922.3, -21084.688, 0.0027430304, -0.03310164, -1443520.6, -21428.781, 0.0, 10.00004, 9.99947 
5.150012e+2, 1.6488783e+2, -1359721.8, -1399296.6, -24884.412, 0.097506374, -0.033904716, -1347716.5, -23619.344, 0.0, 9.999999, 9.999474 
5.1500094e+2, 1.7488755e+2, -1238702.0, -1288587.1, -20656.186, 0.018715791, -0.0129662445, -1231259.3, -5159.707, 0.0, 10.000152, 9.999487 
5.1500136e+2, 1.8488687e+2, -1162939.6, -1241481.0, -5736.8306, -0.014049186, -0.011628817, -1162522.8, -34416.582, 0.0, 10.000171, 9.999128 
5.1500267e+2, 1.9488578e+2, -1078702.8, -1149901.1, -12433.743, 0.026360443, -0.03708284, -1076593.8, -46476.68, 0.0, 10.000075, 9.99913 
5.150036e+2, 2.0488499e+2, -972249.75, -1024758.9, -20541.701, 0.026400037, -0.037072543, -965168.7, -33043.926, 0.0, 10.000034, 9.999336 
5.150039e+2, 2.1488455e+2, -869920.44, -923092.25, -13520.306, -0.023979492, -0.01897553, -866680.0, -32551.037, 0.0, 10.000057, 9.99935 
5.150047e+2, 2.2488385e+2, -781857.94, -848079.3, -13409.064, -0.025470655, -0.01666584, -779245.75, -43110.31, 0.0, 10.000068, 9.999187 
5.15006e+2, 2.3488286e+2, -682536.75, -748483.44, -15603.698, 0.02814757, -0.037387777, -679031.1, -40886.85, 0.0, 10.0000725, 9.999196 
5.1500666e+2, 2.4488178e+2, -628310.56, -733154.3, -33243.36, 0.033909127, -0.037747413, -618658.5, -78503.53, 0.0, 10.000037, 9.998645 
5.150068e+2, 2.5488058e+2, -539813.56, -639137.75, -45034.836, -0.009908148, -0.024676505, -522434.94, -80267.23, 0.0, 9.9999695, 9.998651 
5.150076e+2, 2.648793e+2, -422494.78, -501118.97, -22140.484, 0.00015732384, -0.033804275, -416688.78, -72508.516, 0.0, 9.99997, 9.998925 
5.1500934e+2, 2.7487785e+2, -312794.88, -396856.13, -2318.1514, 0.064278394, -0.07192323, -312731.0, -66538.37, 0.0, 10.000048, 9.998931 
5.150102e+2, 2.848767e+2, -249633.78, -376829.78, -9187.516, 0.04912647, -0.050124314, -248973.6, -100770.484, 0.0, 10.0000725, 9.9983835 
5.150102e+2, 2.948759e+2, -153856.6, -272641.7, -23574.762, -0.042670105, 0.025967438, -149348.88, -99137.305, 0.0, 10.000026, 9.998448 
5.150119e+2, 3.0487305e+2, -63784.656, -153133.34, -25964.576, 0.039108526, -0.12860899, -56787.38, -56787.38, 0.0, 10.00009, 9.998905 
5.150127e+2, 3.1487307e+2, 28617.977, -2919.9841, -19014.549, 0.040528513, -0.01363532, 37551.504, 37551.504, 0.0000000053166334, 10.000269, 9.999849 
5.249983e+2, 1.2488891e+2, -1710269.5, -1660460.3, 17427.643, -0.053430066, -0.04307717, -1654968.1, 61117.098, 0.0000005002885, 9.999833, 10.000441 
5.250018e+2, 1.3488807e+2, -1644992.6, -1708686.4, -41186.348, 0.33425066, -0.06443783, -1624776.6, -6682.6445, 0.000000016983103, 10.000123, 9.999323 
5.249972e+2, 1.4488804e+2, -1514897.0, -1574239.1, -4886.6772, -0.20840225, -0.0060277157, -1514497.4, 5597.297, 0.0, 10.000273, 9.999488 
5.249999e+2, 1.5488733e+2, -1437354.5, -1486322.3, -23017.158, 0.019019349, -0.028809194, -1428234.1, -6132.2466, 0.0, 10.000135, 9.999482 
5.250014e+2, 1.6488673e+2, -1347074.4, -1400262.3, -14769.237, 0.11544509, -0.03227801, -1343248.5, -19140.832, 0.0, 10.000116, 9.999411 
5.25001e+2, 1.7488626e+2, -1227838.6, -1290972.9, -21367.197, 0.0077373423, -0.024967005, -1221287.0, 4825.025, 0.0, 10.0002575, 9.99942 
5.2500135e+2, 1.8488555e+2, -1145621.1, -1229448.9, -12127.165, -0.030827507, -0.024571793, -1143902.0, -15783.023, 0.0, 10.000273, 9.999162 
5.2500284e+2, 1.9488461e+2, -1066399.4, -1139642.4, -2500.005, 0.024302864, -0.03717665, -1066314.1, -36185.74, 0.0, 10.000142, 9.999167 
5.2500373e+2, 2.0488392e+2, -967379.2, -1023250.75, -3062.3254, 0.032660514, -0.031819396, -967211.8, -35076.367, 0.0, 10.000072, 9.999329 
5.250041e+2, 2.1488345e+2, -869437.44, -923613.25, -10901.128, -0.015530368, -0.014522199, -867326.2, -33186.285, 0.0, 10.000065, 9.999343 
5.250048e+2, 2.2488269e+2, -787129.6, -852304.8, -16523.084, -0.019055128, -0.016240787, -783180.06, -47033.246, 0.0, 10.000038, 9.999173 
5.25006e+2, 2.348816e+2, -694732.06, -755681.06, -15366.195, 0.027091293, -0.046425227, -691077.2, -52920.746, 0.0, 9.999995, 9.999184 
5.250067e+2, 2.4488048e+2, -631930.9, -738759.06, -17607.215, 0.034988783, -0.047029298, -629103.7, -88936.305, 0.0, 10.00003, 9.9986105 
5.250069e+2, 2.5487936e+2, -517731.47, -632357.06, -7642.8228, 0.0025986002, -0.023659857, -517224.13, -75044.43, 0.0, 10.000138, 9.998615 
5.250078e+2, 2.6487806e+2, -392148.13, -482658.9, 9878.786, 0.008983856, -0.032096222, -391082.47, -46890.29, 0.0, 10.000163, 9.998959 
5.2500933e+2, 2.7487656e+2, -303703.44, -387969.7, -4961.3945, 0.054357566, -0.08171551, -303412.3, -57207.367, 0.0, 10.000092, 9.99897 
5.2501017e+2, 2.8487542e+2, -253451.77, -379915.47, -13788.482, 0.0393912, -0.06133637, -251965.84, -103750.445, 0.0, 10.0000515, 9.998372 
5.250103e+2, 2.9487473e+2, -152540.64, -274008.47, 3153.1145, -0.033360966, 0.02836927, -152458.86, -102235.805, 0.0, 10.000043, 9.99843 
5.250121e+2, 3.048721e+2, -71262.445, -129220.0, 2714.7278, 0.0569297, -0.114844576, -71135.56, -71135.56, 0.0, 9.999919, 9.999152 
5.2501273e+2, 3.14872e+2, -69250.84, -62193.082, -13145.91, 0.050970536, -0.03401798, -52110.65, -52110.65, 0.00000000056215, 9.999647, 9.9997425 
5.3499806e+2, 1.2488721e+2, -1695270.4, -1630948.5, 9627.202, -0.06296417, -0.064873226, -1629538.5, 86563.93, 0.00000041209, 9.999839, 10.00064 
5.350017e+2, 1.3488702e+2, -1630020.9, -1678211.9, -28902.5, 0.30485833, -0.0400995, -1616487.3, 1617.5203, 0.000000018082496, 10.000123, 9.999533 
5.349971e+2, 1.4488713e+2, -1507759.8, -1558457.6, -9779.873, -0.24696256, 0.013846657, -1505938.6, 14165.427, 0.0, 10.000268, 9.9995985 
5.3500026e+2, 1.5488642e+2, -1429683.3, -1470419.3, -28373.246, 0.03710369, -0.018054837, -1415124.3, 6986.2393, 0.0, 10.000136, 9.999591 
5.350018e+2, 1.6488566e+2, -1360493.6, -1428870.6, -10581.011, 0.14897324, -0.03619625, -1358893.6, -34775.65, 0.0, 10.000119, 9.999213 
5.350014e+2, 1.748848e+2, -1241739.6, -1320007.5, -15661.563, 0.02142572, -0.04610667, -1238722.0, -12595.547, 0.0, 10.0002575, 9.999222 
5.350016e+2, 1.8488418e+2, -1127989.1, -1191980.3, -17354.598, -0.03904164, -0.039896253, -1123585.5, 4546.981, 0.0, 10.00027, 9.999421 
5.3500265e+2, 1.948838e+2, -1047804.0, -1101155.0, -7369.683, -0.009326642, -0.024233855, -1046804.7, -16668.537, 0.0, 10.000142, 9.999433 
5.350036e+2, 2.0488311e+2, -980981.8, -1050710.1, -3723.4695, 0.011823209, -0.020089213, -980783.56, -48640.715, 0.0, 10.000069, 9.999142 
5.3500444e+2, 2.1488214e+2, -883570.1, -952353.8, -10757.589, 0.018216522, -0.034204993, -881926.9, -47774.297, 0.0, 10.000061, 9.999147 
5.3500515e+2, 2.2488129e+2, -785141.5, -847365.25, -18631.1, 0.009973481, -0.037345517, -779989.56, -43828.81, 0.0, 10.000035, 9.999208 
5.350056e+2, 2.3488052e+2, -691905.25, -750200.0, -16755.691, -0.010782407, -0.037891064, -687432.4, -49265.082, 0.0, 9.999996, 9.999221 
5.3500646e+2, 2.4487957e+2, -613562.94, -700462.6, -13671.841, 0.004801469, -0.03653099, -611462.75, -71286.875, 0.0, 10.000029, 9.998874 
5.3500766e+2, 2.5487846e+2, -499208.75, -594038.9, -3137.9055, 0.058070097, -0.038021937, -499105.03, -56918.547, 0.0, 10.000138, 9.9988785 
5.3500843e+2, 2.6487708e+2, -421899.2, -543577.8, 6962.3086, 0.057258584, -0.048672806, -421502.1, -77301.93, 0.0, 10.000159, 9.998542 
5.3500885e+2, 2.7487534e+2, -333969.06, -449593.44, -7423.882, -0.0013759292, -0.07921092, -333494.34, -87276.99, 0.0, 10.000087, 9.9985485 
5.350096e+2, 2.8487417e+2, -224867.9, -319910.06, -14495.236, -0.01933972, -0.06249258, -222706.34, -74477.91, 0.0, 10.000048, 9.998786 
5.350108e+2, 2.9487368e+2, -123303.24, -213404.45, 3758.3467, 0.010566908, 0.005916241, -123146.74, -72914.48, 0.0, 10.000043, 9.998848 
5.3501266e+2, 3.0487144e+2, -81601.625, -149124.94, -7811.29, 0.12016465, -0.11444206, -80709.77, -80709.77, 0.0, 9.999913, 9.999017 
5.3501225e+2, 3.1487104e+2, -101876.86, -126601.28, -15831.242, 0.041251063, -0.05211811, -94152.945, -94152.945, 0.0000000000003731001, 9.999635, 9.999305 
5.449977e+2, 1.2488627e+2, -1694218.4, -1633158.4, 38526.203, -0.08246239, -0.061549507, -1614532.0, 101579.57, 0.00000036785775, 9.999859, 10.000615 
5.450017e+2, 1.3488618e+2, -1659774.9, -1692394.8, 2686.5818, 0.30789036, -0.027431155, -1659555.1, -41442.11, 0.000000024396927, 9.999919, 9.999534 
5.449973e+2, 1.4488612e+2, -1530475.9, -1570912.6, 6930.036, -0.2510415, 0.012546287, -1529321.3, -9207.47, 0.0, 10.00012, 9.999583 
5.450005e+2, 1.5488547e+2, -1388294.4, -1452389.4, -24660.572, 0.030290367, -0.015370375, -1379904.5, 42215.633, 0.0, 10.000428, 9.999574 
5.450021e+2, 1.6488467e+2, -1312659.1, -1405150.6, -9874.126, 0.14422324, -0.03285761, -1311616.8, 12510.977, 0.0, 10.000445, 9.999218 
5.450016e+2, 1.748838e+2, -1259174.4, -1327057.8, 108.2067, 0.027546301, -0.04569185, -1259174.1, -33038.113, 0.0, 10.000134, 9.99923 
5.4500175e+2, 1.8488316e+2, -1168927.9, -1218206.9, -2313.4937, -0.034368098, -0.038337488, -1168819.5, -40677.03, 0.0, 10.000017, 9.999362 
5.4500264e+2, 1.9488278e+2, -1056536.6, -1112126.3, -17757.834, -0.020738754, -0.016532287, -1051348.3, -21201.568, 0.0, 10.000112, 9.9993725 
5.450036e+2, 2.048821e+2, -965933.6, -1035807.3, -16811.559, 0.0032013732, -0.013083042, -962099.2, -29945.87, 0.0, 10.000138, 9.999211 
5.450047e+2, 2.1488112e+2, -873923.94, -939533.8, -4508.7036, 0.032175306, -0.036192473, -873615.56, -39452.88, 0.0, 10.0000925, 9.999221 
5.450054e+2, 2.2488026e+2, -777870.9, -846378.06, -2239.9734, 0.026270708, -0.04004394, -777797.7, -41627.215, 0.0, 10.000096, 9.999186 
5.450057e+2, 2.3487958e+2, -670929.6, -742547.9, -5780.433, -0.013806681, -0.032419775, -670466.06, -32289.328, 0.0, 10.000152, 9.999198 
5.4500645e+2, 2.4487863e+2, -594828.4, -683725.1, -12050.0, -0.0029518967, -0.033715032, -593223.94, -53038.69, 0.0, 10.000125, 9.998941 
5.4500777e+2, 2.5487745e+2, -512709.88, -592596.75, -16540.059, 0.061175577, -0.049121592, -509420.78, -67224.83, 0.0, 10.000012, 9.998948 
5.4500854e+2, 2.6487607e+2, -455854.03, -571397.75, -2040.9606, 0.063856535, -0.055223845, -455817.97, -111608.555, 0.0, 9.999975, 9.998439 
5.450089e+2, 2.7487445e+2, -352707.28, -470655.78, 6412.7217, 0.00031982575, -0.06384912, -352359.66, -106133.336, 0.0, 10.00001, 9.998442 
5.4500973e+2, 2.8487322e+2, -231870.17, -314791.56, -2748.6636, -0.012827502, -0.051653136, -231779.16, -83540.76, 0.0, 9.999964, 9.998862 
5.450109e+2, 2.9487252e+2, -149022.72, -216641.19, -10876.775, 0.032482404, -0.010392644, -147316.2, -97072.27, 0.0, 9.999828, 9.998928 
5.4501265e+2, 3.0487072e+2, -82500.03, -130801.37, -23189.453, 0.13560076, -0.098022364, -73169.28, -73169.28, 0.0, 9.999826, 9.999185 
5.4501194e+2, 3.148703e+2, -57355.91, -109386.516, -2373.493, 0.030263633, -0.05588694, -57247.863, -57247.863, 0.000000000015387011, 9.999958, 9.999269 
5.549972e+2, 1.24886066e+2, -1710430.8, -1666525.3, 21247.896, -0.116355635, -0.03424521, -1657926.5, 58186.227, 0.0000003291145, 9.999858, 10.000386 
5.55002e+2, 1.3488555e+2, -1671840.8, -1718505.4, 5689.3237, 0.33965087, -0.025371583, -1671157.1, -53038.832, 0.000000025104656, 9.999924, 9.999352 
5.549976e+2, 1.448851e+2, -1541592.1, -1594708.5, 18319.45, -0.22650938, -0.008154806, -1535886.8, -15763.338, 0.0, 10.000122, 9.999419 
5.5500054e+2, 1.5488441e+2, -1399342.0, -1475444.6, -12627.858, -0.0033836542, -0.020290462, -1397301.4, 24829.332, 0.0, 10.000428, 9.999416 
5.550021e+2, 1.648838e+2, -1298406.1, -1374386.4, -22023.748, 0.09937084, -0.022639181, -1292483.9, 31652.656, 0.0, 10.000441, 9.999432 
5.5500174e+2, 1.7488328e+2, -1243991.1, -1295293.4, -11612.708, 0.024239134, -0.024392024, -1241484.9, -15343.997, 0.0, 10.0001335, 9.999449 
5.550019e+2, 1.8488252e+2, -1195769.8, -1273582.4, 648.2159, -0.019354843, -0.020117871, -1195764.4, -67615.69, 0.0, 10.000015, 9.998983 
5.550028e+2, 1.9488159e+2, -1084026.1, -1168779.6, -13867.688, -0.011293862, -0.014197368, -1081814.8, -51654.848, 0.0, 10.000109, 9.998984 
5.5500376e+2, 2.0488088e+2, -943502.5, -988290.94, -18809.38, 0.004974048, -0.01167713, -936651.3, -4484.21, 0.0, 10.000134, 9.999538 
5.550047e+2, 2.1488036e+2, -850690.4, -890765.8, -5976.433, 0.024498861, -0.02063053, -849818.1, -15647.925, 0.0, 10.00009, 9.999557 
5.550055e+2, 2.2487965e+2, -783742.25, -857932.8, -569.31976, 0.02813813, -0.024551155, -783737.9, -47561.773, 0.0, 10.000093, 9.999107 
5.550061e+2, 2.3487872e+2, -677082.5, -755146.4, -3552.3748, 0.016683623, -0.030388828, -676921.2, -38736.195, 0.0, 10.000151, 9.999113 
5.5500674e+2, 2.4487759e+2, -603979.2, -702314.4, -16617.02, 0.010544616, -0.039569538, -601247.1, -61051.4, 0.0, 10.000123, 9.998815 
5.550072e+2, 2.5487626e+2, -521548.3, -610762.4, -20468.746, 0.010231854, -0.0574434, -517076.25, -74868.07, 0.0, 10.000011, 9.998824 
5.550082e+2, 2.6487505e+2, -441206.7, -540776.7, -1047.6974, 0.026504554, -0.052232478, -441195.7, -96975.64, 0.0, 9.999974, 9.998651 
5.5500954e+2, 2.748739e+2, -338292.0, -440879.22, 8050.9175, 0.058062784, -0.03589199, -337664.0, -91432.09, 0.0, 10.00001, 9.998647 
5.550104e+2, 2.8487256e+2, -251405.44, -354354.06, -8196.166, 0.057525612, -0.028888594, -250756.98, -102511.66, 0.0, 9.999959, 9.998592 
5.5501074e+2, 2.9487127e+2, -169383.45, -256770.98, -15821.505, 0.02838399, -0.020543229, -166607.17, -116348.92, 0.0, 9.999819, 9.998656 
5.550121e+2, 3.0487004e+2, -49380.066, -60248.37, -19221.629, 0.09921371, -0.0653345, -34839.21, -34839.21, 0.0, 9.999818, 9.999673 
5.550118e+2, 3.1486994e+2, -30555.023, -52895.652, 9163.974, 0.014477659, -0.039803397, -27277.006, -27277.006, 0.0000000020600701, 9.999954, 9.999658 
5.649971e+2, 1.2488537e+2, -1698142.4, -1671148.3, -5358.4116, -0.120987296, -0.028844982, -1670123.5, 45995.453, 0.00000027083397, 9.9999895, 10.000289 
5.6500214e+2, 1.3488466e+2, -1611597.1, -1692466.4, 6644.232, 0.3441976, -0.039144624, -1611054.9, 7071.398, 0.000000017878008, 10.000349, 9.999326 
5.649979e+2, 1.44884e+2, -1503954.1, -1582933.4, 22049.223, -0.22334604, -0.03734268, -1498215.5, 21917.854, 0.0, 10.000408, 9.999362 
5.650008e+2, 1.548835e+2, -1450087.8, -1505726.5, -1622.0765, -0.0072951713, -0.0261923, -1450040.5, -27901.283, 0.0, 10.000107, 9.999362 
5.650022e+2, 1.6488299e+2, -1359651.0, -1405546.8, -17915.44, 0.08820418, -0.015888955, -1353485.9, -29341.355, 0.0, 10.00003, 9.999414 
5.650018e+2, 1.7488244e+2, -1237567.8, -1294432.4, -27079.754, 0.0100753615, -0.015692715, -1226735.4, -586.0315, 0.0, 10.000188, 9.999429 
5.6500196e+2, 1.8488169e+2, -1165251.6, -1258798.8, -6542.6626, -0.026389733, -0.011667792, -1164796.3, -36638.73, 0.0, 10.000225, 9.998983 
5.65003e+2, 1.9488072e+2, -1080119.8, -1166295.8, 7824.3896, -0.0033720501, -0.008880164, -1079415.0, -49246.348, 0.0, 10.000134, 9.998989 
5.65004e+2, 2.0487997e+2, -953056.0, -997424.4, 3948.945, 0.013565695, -0.007615906, -952707.25, -20531.1, 0.0, 10.000088, 9.999498 
5.6500477e+2, 2.1487944e+2, -853258.44, -896388.06, -12195.8125, 0.019346371, -0.015653046, -850048.7, -15868.987, 0.0, 10.000092, 9.999517 
5.6500554e+2, 2.2487873e+2, -784749.06, -857221.8, -15622.587, 0.02463965, -0.017610915, -781524.8, -45339.168, 0.0, 10.000082, 9.999118 
5.650064e+2, 2.3487785e+2, -689025.4, -759613.6, -11826.685, 0.031080741, -0.01995429, -687096.56, -48902.42, 0.0, 10.000063, 9.999124 
5.650069e+2, 2.4487671e+2, -611591.1, -710495.0, -18694.818, 0.02154745, -0.028042221, -608175.4, -67970.29, 0.0, 10.00009, 9.998775 
5.6500715e+2, 2.5487533e+2, -502176.47, -605912.6, -16904.828, -0.0048364466, -0.047538817, -499491.16, -57272.805, 0.0, 10.000163, 9.998784 
5.650081e+2, 2.6487416e+2, -414794.06, -519582.0, -915.66583, 0.014628738, -0.04035782, -414786.06, -70556.19, 0.0, 10.00012, 9.998725 
5.650097e+2, 2.748731e+2, -341582.9, -432975.06, -2455.8623, 0.08067741, -0.019749464, -341516.97, -95276.67, 0.0, 9.9999485, 9.998729 
5.6501055e+2, 2.8487173e+2, -266808.25, -367092.78, -13532.334, 0.08368456, -0.021310173, -265014.3, -116759.97, 0.0, 9.999877, 9.998544 
5.6501055e+2, 2.9487023e+2, -160760.58, -260191.86, -5123.238, 0.025298368, -0.029882178, -160497.3, -110227.67, 0.0, 9.99991, 9.9985895 
5.650118e+2, 3.0486938e+2, -36857.492, -47711.184, -13607.367, 0.08310596, -0.02961236, -27634.727, -27634.727, 0.0, 9.999876, 9.999732 
5.650117e+2, 3.1486914e+2, -50475.434, -52259.75, -14019.097, 0.015350389, -0.030261198, -37320.137, -37320.137, 0.000000017271022, 9.999773, 9.999749 
5.7499725e+2, 1.2488429e+2, -1697175.0, -1672176.1, -13236.958, -0.103243366, -0.042618416, -1666469.8, 49659.656, 0.00000019303324, 10.000001, 10.0002775 
5.7500225e+2, 1.3488351e+2, -1603251.9, -1676277.0, 20954.586, 0.31952292, -0.06856352, -1597666.1, 20470.53, 0.000000007774616, 10.000352, 9.999436 
5.749981e+2, 1.4488286e+2, -1501042.8, -1575501.4, 10521.496, -0.2439799, -0.075280316, -1499584.5, 20558.938, 0.0, 10.000402, 9.999415 
5.750012e+2, 1.5488271e+2, -1445867.9, -1496985.1, -12725.168, 0.016147284, -0.033494417, -1442875.3, -20729.758, 0.0, 10.000107, 9.999422 
5.7500243e+2, 1.6488221e+2, -1377903.8, -1443402.1, -12399.189, 0.10783915, -0.012919286, -1375635.0, -51483.492, 0.0, 10.000029, 9.999156 
5.7500166e+2, 1.7488134e+2, -1256245.1, -1333325.1, -20690.617, -0.016616223, -0.019654239, -1251042.3, -24880.828, 0.0, 10.000188, 9.999163 
5.750019e+2, 1.8488064e+2, -1139235.5, -1203843.9, -10290.861, -0.0582535, -0.013408276, -1137635.9, -9467.221, 0.0, 10.000221, 9.999363 
5.7500315e+2, 1.9488019e+2, -1053116.1, -1109640.1, 4502.016, 0.0011694907, -0.0005986084, -1052759.9, -22586.807, 0.0, 10.000132, 9.999379 
5.750042e+2, 2.048794e+2, -981889.8, -1056561.4, 3538.9536, 0.02764808, -0.00075988617, -981722.44, -49541.914, 0.0, 10.000085, 9.999094 
5.7500476e+2, 2.1487834e+2, -882627.8, -956752.7, -11868.873, 0.014810837, -0.021171648, -880773.7, -46582.418, 0.0, 10.000089, 9.9991045 
5.750055e+2, 2.248775e+2, -777940.44, -842725.56, -16658.717, 0.013978175, -0.01950172, -773907.9, -37708.594, 0.0, 10.00008, 9.999218 
5.750064e+2, 2.3487693e+2, -681605.44, -743971.0, -12146.309, 0.028048178, -0.0016111338, -679323.4, -41119.066, 0.0, 10.000062, 9.999232 
5.750071e+2, 2.4487598e+2, -608518.25, -703831.56, -16289.287, 0.028323898, 0.00015322854, -605811.25, -65597.88, 0.0, 10.000088, 9.998821 
5.750075e+2, 2.5487465e+2, -499718.13, -600353.75, -14004.178, 0.014118301, -0.019605696, -497805.7, -55579.18, 0.0, 10.000161, 9.998823 
5.7500833e+2, 2.648734e+2, -419262.72, -528586.56, -7636.5713, 0.02701338, -0.019238329, -418731.88, -74492.93, 0.0, 10.000118, 9.998664 
5.750095e+2, 2.7487212e+2, -345468.75, -440422.7, -8776.686, 0.065987684, -0.014844505, -344664.34, -98412.85, 0.0, 9.999945, 9.998679 
5.750102e+2, 2.8487068e+2, -254680.47, -340815.88, -12920.982, 0.062877364, -0.028578825, -252783.97, -104518.5, 0.0, 9.999872, 9.998727 
5.750104e+2, 2.9486936e+2, -150182.45, -238028.61, -3374.798, 0.021216976, -0.039535575, -150053.0, -99774.805, 0.0, 9.999909, 9.998742 
5.750117e+2, 3.0486885e+2, -64471.918, -104526.945, -18135.78, 0.085279055, 0.0084954575, -57480.773, -57480.773, 0.00000000021282408, 9.999873, 9.999343 
5.7501155e+2, 3.148679e+2, -68408.39, -86776.44, -12055.19, 0.026716523, -0.023235409, -62437.418, -62437.418, 0.0000000699572, 9.999761, 9.999518 
5.8499724e+2, 1.2488317e+2, -1734263.5, -1689876.5, -20206.215, -0.08992498, -0.0570034, -1682055.9, 34084.79, 0.00000011738098, 9.999746, 10.000278 
5.8500224e+2, 1.348828e+2, -1630649.3, -1676392.4, 33641.96, 0.2967583, -0.053845305, -1612840.5, 5303.352, 0.0000000014227642, 10.000111, 9.999551 
5.849983e+2, 1.4488211e+2, -1511815.9, -1581540.4, 4215.449, -0.26157779, -0.067345686, -1511561.9, 8588.779, 0.0, 10.000333, 9.999407 
5.8500147e+2, 1.5488179e+2, -1405197.4, -1478199.4, -26341.87, 0.026073964, -0.04407962, -1396684.9, 25469.646, 0.0, 10.00039, 9.999414 
5.850027e+2, 1.6488127e+2, -1332264.0, -1422088.3, -14180.038, 0.121217616, -0.024051853, -1330078.6, -5917.7876, 0.0, 10.000344, 9.99915 
5.850018e+2, 1.7488055e+2, -1255034.6, -1333325.1, -3240.6611, -0.019011606, -0.013842304, -1254900.8, -28731.283, 0.0, 10.000199, 9.999156 
5.8500195e+2, 1.8487991e+2, -1151492.3, -1198060.0, 3986.5112, -0.06398187, -0.007685292, -1151153.4, -22977.373, 0.0, 10.000087, 9.999466 
5.850033e+2, 1.9487938e+2, -1064765.1, -1103371.8, -3272.1436, 0.0022840302, -0.013047202, -1064489.8, -34309.355, 0.0, 10.000001, 9.999485 
5.8500427e+2, 2.0487861e+2, -990122.94, -1064041.5, 6200.7993, 0.030033002, -0.015547974, -989606.44, -57418.836, 0.0, 10.000044, 9.999062 
5.850049e+2, 2.1487765e+2, -864586.3, -951759.3, 18817.691, 0.0132218115, -0.021540128, -860697.7, -26500.082, 0.0, 10.000229, 9.999071 
5.8500564e+2, 2.2487679e+2, -759060.3, -844416.06, 15309.709, 0.008867254, -0.016755473, -756397.4, -20191.201, 0.0, 10.000256, 9.999123 
5.850064e+2, 2.3487602e+2, -680571.94, -754190.56, 3828.3003, 0.019625155, -0.00870365, -680373.44, -42159.953, 0.0, 10.000115, 9.999136 
5.850071e+2, 2.4487509e+2, -615161.5, -698005.25, -3415.0164, 0.027101548, -0.0043393616, -615020.94, -74798.34, 0.0, 10.000004, 9.998901 
5.850077e+2, 2.54874e+2, -528726.8, -604738.25, 1539.1798, 0.030539643, -0.007993376, -528695.6, -86462.24, 0.0, 9.999921, 9.998909 
5.850085e+2, 2.6487282e+2, -448765.7, -547271.2, 10436.596, 0.038768638, -0.0010902982, -447672.1, -103427.055, 0.0, 9.999935, 9.998624 
5.850094e+2, 2.748715e+2, -331826.34, -438856.7, 9814.91, 0.050406005, 0.00008523422, -330933.75, -84675.41, 0.0, 10.000059, 9.998636 
5.8501e+2, 2.848699e+2, -214065.34, -313288.7, 3115.822, 0.04548068, -0.028406326, -213967.6, -65694.22, 0.0, 10.000116, 9.998798 
5.8501047e+2, 2.9486838e+2, -120183.22, -216796.7, 3114.8977, 0.028179102, -0.06660807, -120082.9, -69795.48, 0.0, 10.000087, 9.998802 
5.850117e+2, 3.0486813e+2, -65198.254, -141904.3, -15037.677, 0.091339186, 0.020026293, -62355.57, -62355.57, 0.000000006848287, 10.000028, 9.999012 
5.8501136e+2, 3.1486705e+2, -45291.086, -86443.64, -360.2019, 0.024096614, 0.005945472, -45287.934, -45287.934, 0.00000018333391, 9.999967, 9.999421 
5.949971e+2, 1.2488205e+2, -1732010.5, -1686754.1, -26960.104, -0.08239796, -0.06832457, -1674184.6, 41967.715, 0.000000058921596, 9.999751, 10.0002985 
5.950021e+2, 1.348825e+2, -1621327.8, -1658280.5, 47819.01, 0.27351418, 0.0031696982, -1588539.8, 29608.0, 0.000000000010343272, 10.000114, 9.999673 
5.949985e+2, 1.4488177e+2, -1517614.9, -1593211.3, 6366.509, -0.27914098, -0.015257019, -1517082.4, 3072.561, 0.0, 10.000331, 9.999328 
5.950018e+2, 1.5488072e+2, -1410959.5, -1490266.0, -23590.943, 0.0207036, -0.058137804, -1404472.6, 17693.494, 0.0, 10.00039, 9.999332 
5.950031e+2, 1.6488016e+2, -1315736.5, -1387046.6, -20083.232, 0.12556161, -0.049911655, -1310469.4, 13702.904, 0.0, 10.000341, 9.999392 
5.9500223e+2, 1.7488012e+2, -1237112.1, -1296514.0, -8417.278, 0.000991763, 0.0017058695, -1235942.5, -9769.121, 0.0, 10.0002, 9.999409 
5.9500223e+2, 1.8487948e+2, -1163471.6, -1222719.6, 503.91336, -0.04565118, 0.005208471, -1163467.4, -35287.832, 0.0, 10.000086, 9.999298 
5.9500325e+2, 1.9487831e+2, -1077080.0, -1129030.3, -6314.383, -0.0016631704, -0.046245586, -1076323.6, -46132.77, 0.0, 10.000001, 9.99931 
5.950042e+2, 2.048776e+2, -966966.0, -1015257.9, 12589.652, 0.018903742, -0.052216224, -963881.0, -31683.736, 0.0, 10.000041, 9.999398 
5.9500515e+2, 2.1487738e+2, -840924.0, -901855.75, 26044.072, 0.013131145, -0.017105326, -831309.2, 2889.399, 0.0, 10.000226, 9.999414 
5.9500587e+2, 2.2487657e+2, -779886.25, -886875.7, 9612.475, 0.007929461, -0.009917877, -779029.5, -42822.945, 0.0, 10.000252, 9.998833 
5.9500635e+2, 2.3487513e+2, -701856.7, -797958.2, -1325.5706, 0.003820359, -0.040653452, -701838.44, -63616.742, 0.0, 10.0001135, 9.9988365 
5.95007e+2, 2.4487406e+2, -606980.56, -681001.1, -6772.652, 0.015634978, -0.040677305, -606366.0, -66133.305, 0.0, 10.000004, 9.999019 
5.950078e+2, 2.548734e+2, -519688.75, -585823.2, -1340.4856, 0.043570787, -0.012160676, -519661.56, -77422.59, 0.0, 9.99992, 9.99904 
5.9500855e+2, 2.6487246e+2, -450392.28, -550364.3, 14731.029, 0.049224976, 0.0141725, -448266.8, -104018.7, 0.0, 9.999934, 9.998603 
5.950092e+2, 2.7487123e+2, -334419.72, -443969.6, 14940.726, 0.030992968, 0.023456348, -332418.63, -86157.586, 0.0, 10.000057, 9.998602 
5.9501e+2, 2.848694e+2, -218103.89, -320908.8, 1690.5938, 0.027953383, -0.022021296, -218076.1, -69797.91, 0.0, 10.0001135, 9.998748 
5.9501076e+2, 2.9486734e+2, -124595.97, -224527.92, 1645.9083, 0.04362086, -0.10893945, -124568.87, -74271.664, 0.0, 10.00008, 9.998753 
5.950118e+2, 3.0486724e+2, -84660.17, -179827.03, -18036.906, 0.100012444, 0.008517525, -81356.34, -81356.34, 0.000000033052434, 10.000017, 9.998756 
5.950112e+2, 3.1486654e+2, -42681.586, -79527.87, 2619.5916, 0.0035216946, 0.056596294, -42496.277, -42496.277, 0.00000037488923, 9.999961, 9.999472 
6.049969e+2, 1.2488119e+2, -1693597.6, -1673461.8, -27788.424, -0.08706241, -0.061871283, -1653973.6, 62187.707, 0.000000021349177, 10.000039, 10.000252 
6.0500234e+2, 1.3488176e+2, -1607552.1, -1642299.4, 59210.777, 0.27717564, 0.013817764, -1563218.8, 54936.69, 0.0, 10.000172, 9.999755 
6.049988e+2, 1.448811e+2, -1539289.5, -1599657.3, 11077.66, -0.2643393, -0.0045924783, -1537320.9, -17158.723, 0.0, 10.000166, 9.999363 
6.050018e+2, 1.5488008e+2, -1455086.3, -1506871.6, -10684.867, 0.00000015229386, -0.04641878, -1452968.4, -30795.23, 0.0, 10.000069, 9.9993725 
6.050031e+2, 1.6487955e+2, -1344440.6, -1387276.8, -5903.089, 0.10209457, -0.04408017, -1343642.1, -19463.307, 0.0, 10.000085, 9.999515 
6.050026e+2, 1.7487949e+2, -1229063.9, -1278664.3, -4594.558, 0.013371523, -0.0056008655, -1228641.9, -2462.7747, 0.0, 10.0001955, 9.999534 
6.0500264e+2, 1.848789e+2, -1149205.0, -1220779.4, 1965.2172, -0.02470487, -0.0023374152, -1149151.1, -20966.385, 0.0, 10.000205, 9.999254 
6.050033e+2, 1.948778e+2, -1062609.8, -1127376.3, 4125.6025, -0.0030450148, -0.04060752, -1062348.0, -32152.428, 0.0, 10.000123, 9.999262 
6.0500413e+2, 2.0487711e+2, -965872.1, -1008510.56, 22289.146, 0.007334174, -0.046124846, -956347.94, -24145.982, 0.0, 10.000022, 9.999454 
6.0500515e+2, 2.1487682e+2, -885683.7, -917276.94, 13699.535, 0.004674091, -0.024418091, -880570.75, -46367.246, 0.0, 9.999892, 9.99947 
6.050059e+2, 2.24876e+2, -828687.56, -906842.2, -1711.6887, 0.0032895342, -0.022100385, -828650.06, -92438.836, 0.0, 9.999902, 9.998864 
6.050064e+2, 2.3487464e+2, -707401.5, -797353.56, 11230.193, 0.0026652755, -0.04880815, -706020.6, -67794.92, 0.0, 10.000061, 9.998866 
6.0500705e+2, 2.4487355e+2, -592049.44, -678304.25, 10503.483, 0.015215322, -0.04742538, -590788.8, -50552.09, 0.0, 10.000126, 9.998979 
6.0500777e+2, 2.5487286e+2, -497649.16, -580126.6, 2360.4875, 0.041521322, -0.019297473, -497581.66, -55337.977, 0.0, 10.0000925, 9.998996 
6.0500854e+2, 2.648719e+2, -422499.06, -528608.0, 20418.463, 0.04979832, 0.0020484093, -418705.56, -74452.49, 0.0, 10.000089, 9.998679 
6.050094e+2, 2.748706e+2, -322600.88, -429398.16, 27972.357, 0.03821457, 0.0012156867, -315717.97, -69452.14, 0.0, 10.0001, 9.998681 
6.0501015e+2, 2.848689e+2, -220873.86, -334144.75, 16727.295, 0.031239295, -0.033960536, -218455.3, -70173.01, 0.0, 10.000145, 9.998642 
6.050108e+2, 2.9486704e+2, -111033.01, -232042.25, 10820.979, 0.031629875, -0.089233465, -110072.984, -59772.83, 0.00000000003092486, 10.000233, 9.998628 
6.050117e+2, 3.0486676e+2, -65246.383, -184391.39, -10626.217, 0.08004626, 0.02232447, -64306.08, -64306.08, 0.00000008707832, 10.000211, 9.9986315 
6.0501117e+2, 3.1486538e+2, -12232.689, -44033.477, 21350.164, 0.006124347, 0.01495327, -1512.5638, -1512.5638, 0.0000006525611, 10.000081, 9.999658 
6.1499685e+2, 1.2488065e+2, -1702147.0, -1691498.9, -41325.406, -0.103995904, -0.034767803, -1655156.0, 61011.313, 0.0000000039655865, 10.000039, 10.000128 
6.150028e+2, 1.3488062e+2, -1606351.4, -1638951.0, 64180.195, 0.305311, -0.021080643, -1556433.5, 61733.137, 0.0, 10.000168, 9.999779 
6.1499953e+2, 1.4488009e+2, -1529012.3, -1578312.1, 6441.116, -0.21992694, -0.03514313, -1528184.6, -8012.479, 0.0, 10.000165, 9.99951 
6.150015e+2, 1.548799e+2, -1443884.3, -1484591.3, -13813.607, -0.03795232, -0.009768326, -1439639.3, -17463.934, 0.0, 10.000071, 9.999525 
6.150027e+2, 1.6487944e+2, -1343940.6, -1386299.8, -2038.08, 0.048147287, -0.007202814, -1343842.8, -19662.54, 0.0, 10.000085, 9.999521 
6.150028e+2, 1.748787e+2, -1228883.1, -1278463.0, -252.59973, 0.01649498, -0.03605394, -1228881.9, -2695.1396, 0.0, 10.0001955, 9.999535 
6.15003e+2, 1.8487817e+2, -1144597.8, -1210620.9, -1743.2578, -0.0034811331, -0.030751776, -1144551.8, -16360.089, 0.0, 10.000202, 9.999325 
6.150034e+2, 1.9487788e+2, -1057308.1, -1116363.9, 1272.4491, -0.0033729658, 0.003556842, -1057280.8, -27085.814, 0.0, 10.000123, 9.999337 
6.15004e+2, 2.0487715e+2, -982115.0, -1041293.56, 16868.58, -0.00630222, 0.002300043, -977644.44, -45442.715, 0.0, 10.000018, 9.99923 
6.1500484e+2, 2.1487597e+2, -901649.6, -950096.8, 8933.739, -0.014425725, -0.0429423, -900054.7, -65842.51, 0.0, 9.99989, 9.999245 
6.150057e+2, 2.2487509e+2, -805105.0, -857255.94, 3627.7158, -0.0076041324, -0.052473694, -804853.9, -68633.72, 0.0, 9.9999, 9.999206 
6.150066e+2, 2.3487453e+2, -682453.2, -745423.6, 17451.627, 0.015942847, -0.033269364, -677940.1, -39714.563, 0.0, 10.000061, 9.999222 
6.150073e+2, 2.4487361e+2, -606719.3, -708477.9, 8804.521, 0.025734259, -0.024766326, -605963.1, -65728.32, 0.0, 10.000124, 9.998773 
6.1500764e+2, 2.5487235e+2, -513350.5, -612252.5, 1375.2386, 0.021332609, -0.030585984, -513331.38, -71083.71, 0.0, 10.000091, 9.998776 
6.150085e+2, 2.648711e+2, -410655.16, -503567.97, 20720.365, 0.03671279, -0.038017668, -406243.78, -61983.84, 0.0, 10.000087, 9.998852 
6.1500984e+2, 2.748697e+2, -309490.9, -401748.97, 28588.158, 0.07134209, -0.06379438, -301350.5, -55078.13, 0.0, 10.000098, 9.998872 
6.1501056e+2, 2.8486842e+2, -232471.5, -357570.6, 19729.52, 0.055745948, -0.061204776, -229433.7, -81148.29, 0.0, 10.000142, 9.998483 
6.150106e+2, 2.9486743e+2, -124490.25, -259537.27, 14582.647, -0.01125608, -0.010669287, -122933.53, -72636.97, 0.0000000010306047, 10.00023, 9.998441 
6.150114e+2, 3.048666e+2, -67454.69, -187063.81, -15769.033, 0.026640328, 0.05695969, -65410.66, -65410.66, 0.00000016756015, 10.000203, 9.998616 
6.1501145e+2, 3.1486353e+2, 7058.4746, -839.6685, 19961.115, 0.026480926, -0.121299505, 23457.406, 23457.406, 0.000001002472, 10.000069, 9.99996 
6.2499726e+2, 1.2488013e+2, -1672705.1, -1688595.9, -47776.58, -0.08232572, -0.015499479, -1632217.8, 83954.93, 0.00000000008306351, 10.000287, 10.000029 
6.2500274e+2, 1.3487978e+2, -1608387.6, -1637059.5, 71343.85, 0.28502065, -0.036930513, -1549953.6, 68221.51, 0.0, 10.000142, 9.999804 
6.249996e+2, 1.4487927e+2, -1535396.6, -1572040.6, 12607.44, -0.22241339, -0.05300016, -1531478.1, -11297.936, 0.0, 10.00008, 9.999595 
6.2500167e+2, 1.5487942e+2, -1425605.3, -1465499.4, -12722.89, -0.03853742, -0.0031444973, -1421893.1, 286.94824, 0.0, 10.000152, 9.999617 
6.2500274e+2, 1.6487908e+2, -1339116.0, -1383661.3, -2856.7612, 0.0443506, 0.007133092, -1338933.5, -14749.786, 0.0, 10.000117, 9.999523 
6.250028e+2, 1.7487825e+2, -1259739.1, -1293158.1, -2185.6367, 0.009801872, -0.031744134, -1259596.8, -33405.44, 0.0, 9.999984, 9.999536 
6.2500304e+2, 1.848777e+2, -1179016.5, -1227584.4, -4954.321, -0.005735784, -0.029453931, -1178516.3, -50319.69, 0.0, 9.999967, 9.999322 
6.250035e+2, 1.9487745e+2, -1066382.9, -1121219.1, -8533.317, 0.0031383017, 0.008761048, -1065085.6, -34886.34, 0.0, 10.000062, 9.999333 
6.250042e+2, 2.0487662e+2, -974882.4, -1047524.06, 7134.503, 0.0017982078, 0.0031455169, -974188.3, -41981.438, 0.0, 10.000109, 9.999145 
6.250048e+2, 2.148752e+2, -875899.9, -947633.9, 8742.493, -0.012638493, -0.05523767, -874849.75, -40630.234, 0.0, 10.000111, 9.999156 
6.2500566e+2, 2.2487436e+2, -778588.25, -833704.0, 2336.0007, -0.0056844284, -0.06346984, -778489.4, -42262.133, 0.0, 10.000035, 9.999302 
6.250067e+2, 2.3487405e+2, -703068.4, -744592.6, -3752.009, 0.02453619, -0.026861196, -702732.1, -64502.27, 0.0, 9.999873, 9.999319 
6.2500733e+2, 2.4487318e+2, -642204.4, -721250.7, -10477.391, 0.032856643, -0.020748494, -640839.2, -100600.85, 0.0, 9.999862, 9.998811 
6.250076e+2, 2.548717e+2, -523238.72, -612899.3, 239.18726, 0.017226256, -0.05214865, -523238.06, -80985.086, 0.0, 10.000005, 9.998813 
6.2500846e+2, 2.6487043e+2, -412917.4, -503302.03, 21708.658, 0.028467042, -0.06314454, -407973.78, -63708.52, 0.0, 10.000065, 9.998864 
6.2500983e+2, 2.748693e+2, -317122.84, -404137.97, 15941.178, 0.06761227, -0.06619229, -314294.34, -68018.78, 0.0, 10.00004, 9.998884 
6.250106e+2, 2.848681e+2, -242292.05, -361107.16, 10133.095, 0.054384142, -0.0550185, -241434.03, -93146.21, 0.0, 10.000069, 9.998493 
6.250107e+2, 2.9486704e+2, -136852.0, -265129.72, 17107.781, -0.013712098, -0.016024303, -134609.61, -84309.48, 0.000000004235602, 10.000144, 9.998443 
6.2501156e+2, 3.0486584e+2, -67735.39, -194869.25, -9489.712, 0.017628431, 0.021236569, -67030.945, -67030.945, 0.000000262113, 10.000234, 9.9985485 
6.2501174e+2, 3.1486288e+2, 62337.67, 45685.93, 22777.375, 0.030352773, -0.13886717, 78263.17, 78263.17, 0.0000013873902, 10.000361, 10.000138 
6.349981e+2, 1.2487965e+2, -1676583.3, -1698274.9, -70035.586, -0.022767916, -0.004917288, -1616558.6, 99618.97, 0.0, 10.000292, 9.999961 
6.350022e+2, 1.3487923e+2, -1606889.6, -1634069.8, 65314.906, 0.21353184, -0.03492396, -1553765.9, 64415.02, 0.0, 10.000142, 9.999825 
6.3499916e+2, 1.4487867e+2, -1533542.1, -1568353.4, 13509.525, -0.27452582, -0.058462135, -1528914.5, -8728.182, 0.0, 10.000081, 9.9996195 
6.3500214e+2, 1.5487868e+2, -1423782.3, -1461700.9, -10045.238, -0.0040149773, -0.026539125, -1421285.5, 901.58777, 0.0, 10.000152, 9.999643 
6.3500327e+2, 1.648785e+2, -1339404.6, -1384165.4, -8697.266, 0.0874334, -0.0011691249, -1337774.1, -13584.942, 0.0, 10.000116, 9.99952 
6.350026e+2, 1.7487815e+2, -1259462.0, -1293395.6, -7110.3276, -0.008861742, 0.0068558743, -1258032.3, -31839.43, 0.0, 9.999987, 9.999534 
6.3500273e+2, 1.8487746e+2, -1184870.4, -1239336.5, -1952.9097, -0.03423025, 0.0010920169, -1184800.5, -56601.156, 0.0, 9.999966, 9.999242 
6.3500375e+2, 1.9487648e+2, -1071762.5, -1132724.3, -4884.4873, 0.0147650065, -0.024668414, -1071373.6, -41165.12, 0.0, 10.000063, 9.999254 
6.350045e+2, 2.0487551e+2, -972474.5, -1041857.7, 6450.568, 0.029254122, -0.04321993, -971879.9, -39662.637, 0.0, 10.000106, 9.999185 
6.350052e+2, 2.1487454e+2, -872702.8, -941109.94, 8974.791, 0.0087494375, -0.06255176, -871544.94, -37319.367, 0.0, 10.000111, 9.999201 
6.3500583e+2, 2.2487378e+2, -790124.5, -856530.94, -4284.8413, 0.007336598, -0.056562338, -789849.2, -53616.48, 0.0, 10.0000305, 9.999147 
6.350066e+2, 2.3487324e+2, -714037.5, -767245.8, -9479.983, 0.02613608, -0.03005612, -712398.94, -74160.43, 0.0, 9.999872, 9.999164 
6.350072e+2, 2.4487229e+2, -623275.56, -681560.94, -5539.7886, 0.03350458, -0.035314456, -622753.75, -82506.4, 0.0, 9.99986, 9.999084 
6.3500774e+2, 2.5487095e+2, -503021.34, -570969.5, 5837.524, 0.028444946, -0.08208161, -502523.47, -60264.117, 0.0, 10.000005, 9.999101 
6.350086e+2, 2.6486996e+2, -423844.53, -525894.56, 20617.084, 0.025026735, -0.071402125, -419836.7, -75567.86, 0.0, 10.000064, 9.99871 
6.3500947e+2, 2.7486932e+2, -329166.53, -428307.84, 15551.004, 0.023493033, -0.008842465, -326784.5, -80508.82, 0.0, 10.000036, 9.99872 
6.3501036e+2, 2.848679e+2, -230523.3, -335257.13, 12876.908, 0.022799646, -0.019375805, -228963.34, -80673.47, 0.0, 10.000063, 9.998673 
6.3501126e+2, 2.948658e+2, -124353.14, -237962.56, 20108.717, 0.022988604, -0.10253126, -120898.945, -70588.34, 0.000000008608103, 10.000139, 9.998632 
6.350121e+2, 3.048645e+2, -76597.586, -212558.52, -4939.9263, 0.05271564, -0.07975987, -76418.336, -76418.336, 0.00000035003856, 10.00023, 9.998429 
6.350119e+2, 3.1486344e+2, 66033.97, 54565.406, 30522.895, 0.012342248, -0.040126, 91356.555, 91356.555, 0.0000017531552, 10.000356, 10.000203 
6.4499825e+2, 1.2487907e+2, -1748375.4, -1746387.9, -84394.94, -0.021533038, 0.0022788392, -1662980.9, 53202.84, 0.0, 9.999856, 9.999842 
6.4500207e+2, 1.3487865e+2, -1612972.1, -1638641.8, 58273.902, 0.19511141, -0.024176152, -1566136.4, 52051.1, 0.0, 10.00011, 9.999807 
6.449994e+2, 1.4487818e+2, -1513802.4, -1549598.3, 7089.5317, -0.26229855, -0.0433989, -1512449.4, 7742.629, 0.0, 10.000176, 9.999702 
6.4500225e+2, 1.5487805e+2, -1420058.6, -1450574.9, -13260.242, -0.006368125, -0.031539943, -1415101.8, 7091.277, 0.0, 10.000137, 9.999727 
6.450034e+2, 1.6487785e+2, -1339683.3, -1391861.0, -13452.231, 0.082532875, -0.01030586, -1336419.3, -12223.921, 0.0, 10.000147, 9.999454 
6.450028e+2, 1.7487754e+2, -1234404.8, -1289184.6, -17887.947, 0.0003341526, 0.009681344, -1229081.0, -2881.8975, 0.0, 10.000192, 9.999463 
6.450029e+2, 1.8487684e+2, -1154028.8, -1223180.1, -9529.104, -0.021449426, 0.0053938264, -1152739.6, -24533.777, 0.0, 10.000173, 9.999252 
6.4500386e+2, 1.9487579e+2, -1066923.8, -1128850.6, -6301.915, 0.0176368, -0.028533705, -1066289.0, -36073.61, 0.0, 10.000092, 9.999266 
6.450046e+2, 2.0487484e+2, -980949.0, -1039908.3, 8148.6206, 0.029689975, -0.048485894, -979843.5, -47619.895, 0.0, 10.000023, 9.999238 
6.450052e+2, 2.1487398e+2, -891812.7, -944797.25, 10466.701, 0.0148109095, -0.062966086, -889820.0, -55589.23, 0.0, 9.999955, 9.99925 
6.450059e+2, 2.248732e+2, -804446.44, -870439.7, 1369.3278, 0.010832915, -0.05659393, -804418.0, -68180.02, 0.0, 9.999962, 9.999084 
6.450065e+2, 2.3487255e+2, -693397.7, -764542.4, 1842.9502, 0.017360196, -0.034647886, -693350.0, -55104.848, 0.0, 10.000046, 9.999098 
6.450071e+2, 2.448716e+2, -591412.06, -662279.44, 3893.539, 0.025382638, -0.040077064, -591198.75, -50944.69, 0.0, 10.000062, 9.999119 
6.450078e+2, 2.5487033e+2, -500686.16, -565884.9, -3952.318, 0.034393314, -0.082069546, -500447.47, -58182.527, 0.0, 10.000004, 9.999136 
6.450086e+2, 2.6486936e+2, -431301.75, -528004.6, 6791.3857, 0.028968267, -0.0732606, -430827.13, -86552.93, 0.0, 10.000008, 9.998721 
6.4500934e+2, 2.748686e+2, -323082.25, -423862.94, 13913.471, 0.008552109, -0.01985144, -321196.7, -74914.76, 0.0, 10.0000725, 9.998733 
6.450103e+2, 2.8486726e+2, -221370.17, -333478.13, 12754.309, 0.006306636, -0.027138803, -219937.45, -71641.52, 0.0, 10.000137, 9.99865 
6.450114e+2, 2.9486522e+2, -118011.54, -237717.36, 3190.3948, 0.023664918, -0.09705537, -117926.56, -67610.945, 0.000000011710588, 10.000195, 9.998607 
6.450124e+2, 3.048637e+2, -82663.14, -221467.16, -26654.229, 0.05666382, -0.09819913, -77720.766, -77720.766, 0.00000040808163, 10.000213, 9.998377 
6.450123e+2, 3.14863e+2, 45711.313, 44979.855, 13704.03, 0.028013969, -0.013976206, 59054.496, 59054.496, 0.0000020409286, 10.000214, 10.000206 
6.549976e+2, 1.2487838e+2, -1758794.5, -1770258.5, -86013.16, -0.07695466, 0.0052941567, -1678322.6, 37868.133, 0.0, 9.999864, 9.999676 
6.550025e+2, 1.3487808e+2, -1617641.1, -1647410.5, 66527.6, 0.22580081, -0.0048436807, -1564353.4, 53840.977, 0.0, 10.000107, 9.999748 
6.550003e+2, 1.4487779e+2, -1504646.5, -1529930.9, 3606.5667, -0.18930145, -0.008853599, -1504142.1, 16054.922, 0.0, 10.000174, 9.999839 
6.5500194e+2, 1.5487759e+2, -1410170.4, -1430891.1, -14503.023, -0.04823809, -0.018402107, -1402707.4, 19490.385, 0.0, 10.000139, 9.999861 
6.5500295e+2, 1.6487716e+2, -1349166.5, -1411845.0, -12542.141, 0.027027931, -0.02000886, -1346749.9, -22548.031, 0.0, 10.000148, 9.999316 
6.5500337e+2, 1.7487647e+2, -1244146.4, -1309597.3, -16342.268, 0.03572525, -0.023595184, -1240292.9, -14082.973, 0.0, 10.000193, 9.999323 
6.5500367e+2, 1.8487588e+2, -1147777.0, -1209275.9, -13372.675, 0.029977206, -0.016894894, -1144995.0, -16779.092, 0.0, 10.000168, 9.999351 
6.5500385e+2, 1.9487537e+2, -1059753.9, -1114125.1, -9274.814, 0.010325824, -0.00441703, -1058215.3, -27995.527, 0.0, 10.000092, 9.999367 
6.550043e+2, 2.048746e+2, -977449.6, -1031658.75, 5154.9175, 0.0014163502, -0.014454794, -976963.8, -44737.813, 0.0, 10.000019, 9.999296 
6.550051e+2, 2.1487352e+2, -887833.1, -936492.06, 8198.977, 0.0040849145, -0.056566663, -886488.75, -52253.668, 0.0, 9.999955, 9.999308 
6.5500575e+2, 2.2487265e+2, -803434.7, -867570.0, 3790.2761, 0.0025988088, -0.06316702, -803211.44, -66968.484, 0.0, 9.999959, 9.999106 
6.550063e+2, 2.3487203e+2, -691629.1, -761268.3, 5191.742, -0.0026893076, -0.040820964, -691244.2, -52994.594, 0.0, 10.000047, 9.99912 
6.5500695e+2, 2.4487108e+2, -606680.44, -693441.7, 1344.1448, 0.00683175, -0.03560525, -606659.6, -66401.02, 0.0, 10.00006, 9.998906 
6.5500784e+2, 2.5486985e+2, -516019.0, -596912.4, -5793.0034, 0.032579493, -0.0539805, -515606.25, -73336.43, 0.0, 10.000001, 9.998924 
6.5500873e+2, 2.648686e+2, -419515.94, -502947.16, 8992.463, 0.0381916, -0.070887335, -418557.7, -74276.17, 0.0, 10.000005, 9.998896 
6.5500957e+2, 2.7486724e+2, -310508.2, -397333.75, 16819.305, 0.021428872, -0.096580364, -307363.94, -61069.918, 0.0, 10.000071, 9.998915 
6.5501046e+2, 2.8486615e+2, -238015.84, -367583.8, 14815.696, 0.0033527005, -0.074040584, -236343.31, -88037.77, 0.0, 10.000135, 9.998417 
6.5501124e+2, 2.9486534e+2, -135391.64, -272440.47, 5608.6104, -0.014864071, -0.0015612431, -135162.48, -84847.13, 0.000000011654482, 10.000188, 9.998371 
6.5501225e+2, 3.048633e+2, -82598.37, -219495.27, -26816.908, 0.02645209, -0.038598027, -77532.625, -77532.625, 0.00000041978168, 10.000205, 9.998394 
6.55013e+2, 3.1486154e+2, 41372.04, 37979.3, 15157.481, 0.07343982, -0.062260248, 54927.78, 54927.78, 0.000002202322, 10.000206, 10.000161 
6.649976e+2, 1.2487751e+2, -1724517.3, -1752723.8, -100446.9, -0.0702928, 0.009676667, -1637188.4, 79011.28, 0.0, 10.000093, 9.999686 
6.650025e+2, 1.3487719e+2, -1603374.6, -1631406.6, 66893.125, 0.21083602, -0.00915677, -1549044.9, 69158.7, 0.0, 10.000168, 9.999828 
6.650006e+2, 1.448771e+2, -1513858.6, -1530139.6, -2040.6669, -0.16967684, 0.0018277226, -1513606.8, 6597.4, 0.0, 10.0000925, 9.999876 
6.65002e+2, 1.54877e+2, -1434480.5, -1438491.6, -27381.676, -0.04902437, -0.0017944823, -1409031.0, 13172.872, 0.0, 9.999955, 9.999898 
6.6500294e+2, 1.6487655e+2, -1376277.3, -1426144.0, -16745.99, 0.01776467, -0.00709047, -1371175.6, -46967.395, 0.0, 9.999969, 9.999303 
6.650035e+2, 1.7487572e+2, -1253788.9, -1315556.4, -12222.693, 0.03411508, -0.024166312, -1251458.1, -25240.648, 0.0, 10.000134, 9.99931 
6.6500384e+2, 1.8487509e+2, -1145184.5, -1207369.5, -13780.296, 0.033972632, -0.019933304, -1142267.5, -14043.656, 0.0, 10.000184, 9.999355 
6.65004e+2, 1.9487467e+2, -1056620.0, -1112607.9, -18253.172, 0.015446537, 0.0008680629, -1051194.8, -20967.719, 0.0, 10.0001135, 9.999368 
6.650044e+2, 2.0487396e+2, -975319.1, -1030034.75, -9373.586, 0.0036063597, -0.004283685, -973757.8, -41524.98, 0.0, 10.0000305, 9.999302 
6.65005e+2, 2.1487291e+2, -889905.25, -936190.7, -11059.62, -0.0010043435, -0.04373058, -887398.44, -53157.125, 0.0, 9.999937, 9.999317 
6.650057e+2, 2.24872e+2, -812318.75, -872699.75, -12766.096, 0.00017249615, -0.055271495, -809730.56, -73481.2, 0.0, 9.999902, 9.999098 
6.6500634e+2, 2.3487121e+2, -710280.4, -771392.2, -14081.947, 0.007031227, -0.046614718, -707191.6, -68934.3, 0.0, 9.999924, 9.99911 
6.650071e+2, 2.4487025e+2, -617711.4, -703240.06, -12496.731, 0.0178221, -0.04257065, -615922.8, -75656.25, 0.0, 10.000003, 9.998866 
6.6500795e+2, 2.5486907e+2, -498287.97, -592968.56, -7781.7876, 0.033267535, -0.05001998, -497652.63, -55375.54, 0.0, 10.000142, 9.998883 
6.650088e+2, 2.6486772e+2, -400445.56, -501743.8, 2754.9622, 0.03607303, -0.068007804, -400370.7, -56081.07, 0.0, 10.000171, 9.998823 
6.650096e+2, 2.7486625e+2, -314758.78, -407451.13, -9068.791, 0.024471343, -0.10581804, -313879.84, -67575.48, 0.0, 10.000076, 9.998842 
6.650106e+2, 2.8486517e+2, -240539.8, -361862.28, -5139.4063, 0.0072009964, -0.077313714, -240322.47, -92007.055, 0.0, 10.00009, 9.998477 
6.650114e+2, 2.9486462e+2, -125234.05, -259872.89, 7050.333, -0.016155694, 0.016461926, -124865.87, -74543.6, 0.000000008469742, 10.000227, 9.998438 
6.650124e+2, 3.048624e+2, -67476.6, -209141.88, -16748.467, 0.0135895675, -0.045980804, -65523.434, -65523.434, 0.00000038345433, 10.000297, 9.998419 
6.650132e+2, 3.148608e+2, 41095.625, 22970.771, 24506.34, 0.06719212, -0.056958053, 58161.5, 58161.5, 0.0000022156387, 10.000268, 10.000027 
6.7499834e+2, 1.2487646e+2, -1711011.4, -1725875.0, -105972.914, -0.0022632133, 0.011947934, -1612210.0, 104000.42, 0.0, 10.000095, 9.999871 
6.7500204e+2, 1.3487606e+2, -1587439.4, -1599763.9, 68863.22, 0.14642967, -0.03672964, -1524463.3, 93751.17, 0.0, 10.0001745, 10.000042 
6.7500037e+2, 1.448762e+2, -1517475.3, -1539061.9, -9493.568, -0.20600131, -0.010918475, -1513894.1, 6318.803, 0.0, 10.000098, 9.999812 
6.7500234e+2, 1.5487634e+2, -1439120.9, -1447820.9, -32668.865, -0.0115978075, 0.017354807, -1410513.6, 11697.778, 0.0, 9.999953, 9.999835 
6.7500323e+2, 1.6487607e+2, -1369545.3, -1410655.0, -11222.764, 0.05140194, 0.027268521, -1366681.0, -42466.836, 0.0, 9.999962, 9.999413 
6.7500323e+2, 1.748753e+2, -1245904.6, -1299169.8, -5631.4316, -0.0061101015, 0.0073258905, -1245315.8, -19094.03, 0.0, 10.000134, 9.999422 
6.750036e+2, 1.8487452e+2, -1152469.9, -1222226.6, -16958.988, -0.011517321, -0.004156505, -1148565.5, -20336.049, 0.0, 10.000183, 9.999253 
6.7500424e+2, 1.9487374e+2, -1064346.1, -1128253.9, -21024.004, 0.0314344, -0.012492927, -1058050.1, -27812.809, 0.0, 10.000111, 9.999262 
6.750047e+2, 2.0487294e+2, -979327.9, -1037340.56, -13586.379, 0.03420792, -0.017568724, -976303.6, -44059.688, 0.0, 10.000026, 9.999254 
6.7500496e+2, 2.1487215e+2, -893093.25, -942810.9, -14470.042, -0.0017826416, -0.02575216, -889188.5, -54939.195, 0.0, 9.999936, 9.999272 
6.7500556e+2, 2.2487122e+2, -815269.0, -878217.9, -12483.943, 0.0013505575, -0.034587324, -812883.56, -76626.27, 0.0, 9.999899, 9.999061 
6.750066e+2, 2.3487014e+2, -712977.4, -776754.25, -12841.771, 0.045613233, -0.052724887, -710488.75, -72220.55, 0.0, 9.999922, 9.999074 
6.750075e+2, 2.4486908e+2, -608898.4, -684826.06, -7670.3887, 0.057020016, -0.061679758, -608131.2, -67853.32, 0.0, 10.000003, 9.998993 
6.7500806e+2, 2.5486803e+2, -489362.34, -574570.94, -2277.1875, 0.03433932, -0.06890832, -489301.53, -47015.09, 0.0, 10.000142, 9.999009 
6.750088e+2, 2.6486686e+2, -423263.66, -548603.25, -883.5699, 0.02004504, -0.0627966, -423257.44, -78959.24, 0.0, 10.000168, 9.998502 
6.7500967e+2, 2.748655e+2, -338218.25, -454748.5, -12252.303, 0.015856707, -0.049540557, -336943.94, -90630.86, 0.0, 10.000071, 9.99852 
6.7501074e+2, 2.8486428e+2, -216739.8, -311366.7, -332.05612, 0.01629322, -0.040003505, -216738.64, -68412.88, 0.0, 10.000085, 9.998826 
6.7501205e+2, 2.9486313e+2, -100759.93, -207783.6, 12831.657, 0.017461075, -0.041440677, -99242.98, -48906.855, 0.0000000040864183, 10.000221, 9.998798 
6.750127e+2, 3.0486095e+2, -65739.25, -204270.03, -17548.666, 0.015929155, -0.11785893, -63550.81, -63550.81, 0.0000003121116, 10.000292, 9.998455 
6.750128e+2, 3.1486076e+2, 25688.004, -7495.5293, 24372.873, 0.004345297, 0.0068922145, 38580.53, 38580.53, 0.0000020914758, 10.000261, 9.999821 
6.849984e+2, 1.2487547e+2, -1723949.4, -1734444.0, -81564.21, -0.0012600208, -0.010793551, -1647463.9, 68755.28, 0.0, 10.000018, 9.999849 
6.8500197e+2, 1.3487525e+2, -1610310.6, -1610858.5, 78573.66, 0.12823604, -0.039061863, -1532010.4, 86211.13, 0.0, 10.000021, 10.000039 
6.8500066e+2, 1.4487551e+2, -1533850.8, -1558500.0, -10784.93, -0.18606228, 0.0030578729, -1529798.3, -9578.836, 0.0, 10.000037, 9.999708 
6.850024e+2, 1.5487532e+2, -1416343.0, -1448914.3, -37487.273, -0.010699171, 0.0077637816, -1391756.6, 30465.209, 0.0, 10.000164, 9.999725 
6.850032e+2, 1.6487503e+2, -1325979.0, -1372147.8, -13134.189, 0.04338962, 0.014600439, -1322504.1, 1720.5126, 0.0, 10.000188, 9.999567 
6.850033e+2, 1.7487462e+2, -1239795.4, -1278759.5, -5559.0176, -0.00800876, 0.01283621, -1239017.8, -12789.8, 0.0, 10.000101, 9.9995775 
6.850037e+2, 1.8487392e+2, -1179387.3, -1254768.6, -19434.371, -0.012126811, 0.009700496, -1174671.8, -46436.676, 0.0, 10.000083, 9.999078 
6.8500435e+2, 1.9487293e+2, -1071329.6, -1150527.0, -28934.133, 0.024450516, -0.00019159788, -1061885.0, -31639.068, 0.0, 10.000148, 9.999089 
6.850048e+2, 2.04872e+2, -958503.94, -1021766.8, -22331.498, 0.031348187, -0.0113884285, -951415.3, -19161.293, 0.0, 10.000147, 9.999302 
6.8500507e+2, 2.1487114e+2, -868856.44, -925809.5, -17075.033, 0.0100828335, -0.030852394, -864129.5, -29870.387, 0.0, 10.000079, 9.99932 
6.850057e+2, 2.2487016e+2, -802491.9, -881770.2, -9931.408, 0.018559994, -0.043078374, -801266.7, -64999.33, 0.0, 10.000028, 9.998975 
6.850068e+2, 2.3486905e+2, -707937.06, -783390.5, -15115.209, 0.05827276, -0.056097493, -705021.75, -66742.875, 0.0, 9.999996, 9.998992 
6.850076e+2, 2.4486798e+2, -606665.7, -679698.7, -10730.654, 0.062646694, -0.064225964, -605121.7, -64832.9, 0.0, 10.000001, 9.999029 
6.850081e+2, 2.5486696e+2, -501156.56, -575796.75, -12282.496, 0.029380452, -0.07571351, -499187.38, -56890.293, 0.0, 10.000043, 9.999048 
6.8500876e+2, 2.648658e+2, -439176.03, -561779.6, -7659.3994, 0.008928612, -0.06685408, -438699.4, -94390.734, 0.0, 10.000084, 9.998452 
6.8500966e+2, 2.748645e+2, -333484.97, -458249.94, 379.8308, 0.0039964477, -0.044194583, -333483.8, -87160.16, 0.0, 10.000128, 9.998468 
6.850108e+2, 2.848633e+2, -213499.86, -302293.2, 12819.844, 0.013787556, -0.030873857, -211686.0, -63349.99, 0.0, 10.000075, 9.998893 
6.850123e+2, 2.9486218e+2, -140833.86, -218678.55, 3810.772, 0.034726903, -0.03527244, -140647.77, -90302.06, 0.0000000009738006, 9.99991, 9.998873 
6.8501294e+2, 3.0486003e+2, -95416.14, -200756.83, -24450.125, 0.023130434, -0.124267966, -90017.78, -90017.78, 0.00000022618863, 10.000011, 9.998615 
6.8501306e+2, 3.1485996e+2, 37437.066, -13570.62, 24790.838, -0.008336666, 0.001729836, 47500.508, 47500.508, 0.0000018666766, 10.000394, 9.999715 
6.949978e+2, 1.24874555e+2, -1739813.4, -1770385.0, -82953.24, -0.068438515, -0.062296927, -1670749.4, 45476.297, 0.0, 10.00003, 9.9995985 
6.950022e+2, 1.3487485e+2, -1626975.1, -1643612.3, 77251.87, 0.15289046, -0.017514361, -1557595.3, 60629.3, 0.0, 10.000014, 9.999817 
6.950014e+2, 1.448751e+2, -1545279.3, -1580302.3, -7395.503, -0.11272733, 0.04199758, -1543781.6, -23558.367, 0.0, 10.00003, 9.999562 
6.950022e+2, 1.5487398e+2, -1425930.0, -1469913.1, -31519.848, -0.04843898, -0.030481733, -1409488.1, 12746.598, 0.0, 10.000169, 9.999579 
6.9500285e+2, 1.6487351e+2, -1313313.1, -1346358.9, -17148.482, -0.00919901, -0.04477114, -1306022.6, 18216.412, 0.0, 10.00019, 9.999743 
6.950038e+2, 1.7487365e+2, -1227743.1, -1252532.9, -9161.843, 0.025498807, -0.007556398, -1224724.6, 1511.503, 0.0, 10.000095, 9.999761 
6.950042e+2, 1.8487324e+2, -1196831.9, -1289379.8, -17687.984, 0.029118432, 0.021560216, -1193566.5, -65325.72, 0.0, 10.000076, 9.998844 
6.950042e+2, 1.9487227e+2, -1088259.8, -1185256.4, -26206.459, -0.0062819985, 0.036560442, -1081632.1, -51379.016, 0.0, 10.000146, 9.998852 
6.950046e+2, 2.0487116e+2, -948988.94, -1001934.0, -25476.754, -0.006312965, 0.013118988, -938721.06, -6458.031, 0.0, 10.000146, 9.999438 
6.9500536e+2, 2.1486993e+2, -859699.44, -906056.8, -19493.576, 0.03287297, -0.058520462, -852592.0, -18321.494, 0.0, 10.000075, 9.999458 
6.95006e+2, 2.2486886e+2, -811944.3, -900976.4, -11669.888, 0.049769927, -0.080141485, -810440.1, -74160.84, 0.0, 10.000026, 9.998844 
6.950066e+2, 2.3486798e+2, -717552.94, -803542.3, -16135.83, 0.04344062, -0.056370232, -714624.75, -76335.44, 0.0, 9.999997, 9.998854 
6.9500726e+2, 2.4486695e+2, -609752.7, -686058.06, -9598.924, 0.032615274, -0.050304852, -608563.75, -68264.53, 0.0, 10.0, 9.998985 
6.9500804e+2, 2.5486577e+2, -504513.53, -581926.2, -10404.626, 0.017478636, -0.07143661, -503139.47, -60830.574, 0.0, 10.000039, 9.999008 
6.950088e+2, 2.648645e+2, -424475.25, -530474.25, -6172.8237, 0.0018251525, -0.08199679, -424117.0, -79795.914, 0.0, 10.00008, 9.998669 
6.950096e+2, 2.7486312e+2, -319100.75, -427563.0, 2468.46, -0.013576084, -0.08869069, -319044.6, -72708.67, 0.0, 10.000125, 9.998681 
6.950107e+2, 2.8486222e+2, -228777.17, -333260.6, 6597.5728, -0.0030533117, -0.04825091, -228362.22, -80016.266, 0.0, 10.000072, 9.998682 
6.9501215e+2, 2.9486176e+2, -155906.63, -248830.45, -1816.1879, 0.033563223, 0.0338549, -155871.14, -105520.14, 0.000000000021633938, 9.999906, 9.998669 
6.9501305e+2, 3.048595e+2, -76855.96, -160716.69, -10815.993, 0.03354557, -0.06705945, -75483.43, -75483.43, 0.00000014519733, 10.000005, 9.998892 
6.9501376e+2, 3.148585e+2, 34693.03, -16028.004, 38601.4, 0.023131087, -0.06386148, 55519.35, 55519.35, 0.0000015881137, 10.0003805, 9.999704 
7.0499784e+2, 1.2487377e+2, -1721279.1, -1762612.6, -116717.05, -0.072510354, -0.052835856, -1623413.3, 92819.98, 0.0, 10.000162, 9.999588 
7.0500207e+2, 1.3487384e+2, -1611937.6, -1637851.9, 55084.637, 0.13397719, -0.028270021, -1568306.8, 49927.184, 0.0, 10.000127, 9.999801 
7.0500165e+2, 1.4487413e+2, -1543352.0, -1582398.3, -12172.299, -0.09085504, 0.036531165, -1539868.3, -19636.021, 0.0, 10.000056, 9.999535 
7.0500237e+2, 1.5487295e+2, -1441881.3, -1481250.4, -27256.965, -0.04375163, -0.03864903, -1427944.1, -5699.8325, 0.0, 10.000075, 9.999546 
7.0500296e+2, 1.6487241e+2, -1333109.9, -1362563.4, -21724.924, -0.010138015, -0.053880364, -1321590.6, 2658.6204, 0.0, 10.000083, 9.999682 
7.050039e+2, 1.7487252e+2, -1235842.9, -1262479.4, -32283.172, 0.030788478, -0.015684644, -1214238.6, 12008.446, 0.0, 10.000069, 9.999703 
7.050044e+2, 1.8487212e+2, -1181802.9, -1270084.6, -30373.031, 0.03703672, 0.011324611, -1172362.6, -44111.05, 0.0, 10.000129, 9.99895 
7.0500445e+2, 1.9487119e+2, -1062823.8, -1161770.8, -14389.958, -0.0001200326, 0.020273032, -1060773.5, -30510.574, 0.0, 10.000271, 9.998954 
7.0500475e+2, 2.0487015e+2, -941747.56, -1008047.06, -17554.582, -0.0020198605, 0.0025677332, -937386.4, -5113.98, 0.0, 10.000236, 9.999353 
7.050054e+2, 2.1486901e+2, -873263.2, -921551.1, -29362.83, 0.035520133, -0.05151085, -859392.6, -25112.59, 0.0, 10.000023, 9.999376 
7.05006e+2, 2.2486795e+2, -819103.25, -905047.1, -16971.59, 0.042580333, -0.067288086, -815873.2, -79584.234, 0.0, 9.99998, 9.998838 
7.050064e+2, 2.34867e+2, -699858.75, -795566.56, -11956.691, 0.016684687, -0.04903448, -698387.6, -60088.336, 0.0, 10.00012, 9.99885 
7.0500714e+2, 2.4486592e+2, -594895.06, -691038.56, -4622.9126, 0.01147651, -0.04328058, -594673.3, -54363.438, 0.0, 10.0001545, 9.998877 
7.0500815e+2, 2.548647e+2, -505469.78, -594670.8, -11781.006, 0.028809061, -0.059274983, -503940.06, -61619.32, 0.0, 10.000085, 9.9988985 
7.0500904e+2, 2.648634e+2, -423736.5, -522901.0, -13900.714, 0.020351369, -0.07006381, -421824.78, -77491.586, 0.0, 10.000054, 9.9987335 
7.0500964e+2, 2.7486202e+2, -323341.72, -421644.44, -16701.883, -0.014693227, -0.08246034, -320581.53, -74234.26, 0.0, 10.000062, 9.998752 
7.0501065e+2, 2.848611e+2, -235374.16, -349244.72, -16773.377, -0.012053454, -0.041914236, -232954.81, -84597.27, 0.0, 10.000082, 9.998568 
7.050121e+2, 2.948606e+2, -131862.61, -249834.5, -18485.363, 0.029240299, 0.04722858, -129033.914, -78670.11, 0.0, 10.000124, 9.998557 
7.0501304e+2, 3.048585e+2, -50165.94, -128273.32, -19913.117, 0.029125422, -0.038424164, -45382.17, -45382.17, 0.00000008201181, 10.000104, 9.999067 
7.0501405e+2, 3.1485742e+2, -26834.28, -53313.098, 18070.137, 0.032110564, -0.062391303, -17672.533, -17672.533, 0.0000012936833, 9.9999895, 9.999638 
7.149986e+2, 1.24873124e+2, -1705568.6, -1730514.9, -115690.42, -0.014715036, 0.013207351, -1601680.9, 114560.94, 0.0, 10.000162, 9.99981 
7.150016e+2, 1.348723e+2, -1596794.9, -1608323.3, 53679.523, 0.067590244, -0.07084499, -1548571.0, 69678.19, 0.0, 10.000134, 9.999999 
7.150014e+2, 1.4487264e+2, -1538215.8, -1572322.0, -13871.838, -0.12511337, -0.013102006, -1533286.1, -13040.379, 0.0, 10.00006, 9.999601 
7.150029e+2, 1.5487225e+2, -1437914.0, -1471731.0, -26480.467, 0.00039540467, -0.017195348, -1423404.1, -1153.7655, 0.0, 10.00007, 9.999614 
7.150036e+2, 1.648718e+2, -1353691.1, -1403746.4, -22142.48, 0.037906647, -0.013887173, -1345302.1, -21046.852, 0.0, 10.000076, 9.999404 
7.150037e+2, 1.7487125e+2, -1255561.1, -1303802.1, -32057.049, 0.006788556, -0.012180251, -1239563.8, -13303.06, 0.0, 10.000071, 9.999419 
7.1500427e+2, 1.8487054e+2, -1152099.6, -1208307.9, -25693.83, 0.009421531, -0.021377716, -1142124.8, -13857.449, 0.0, 10.000128, 9.999374 
7.150051e+2, 1.948697e+2, -1033202.6, -1099067.6, -9053.778, 0.040357646, -0.04776246, -1031980.75, -1705.5176, 0.0, 10.000265, 9.999387 
7.150055e+2, 2.0486896e+2, -963392.0, -1052266.0, -26157.912, 0.04214728, -0.04188936, -956264.6, -23982.635, 0.0, 10.000232, 9.999052 
7.150053e+2, 2.1486837e+2, -895418.6, -967183.0, -37377.527, 0.016920516, -0.010227348, -879487.56, -45199.95, 0.0, 10.00002, 9.999065 
7.150055e+2, 2.2486743e+2, -809769.8, -885752.4, -12612.936, -0.004473857, -0.004997251, -807730.8, -71434.34, 0.0, 9.99998, 9.998971 
7.150061e+2, 2.3486616e+2, -690815.44, -776088.9, -6365.8145, -0.023054836, -0.03419293, -690342.9, -52034.254, 0.0, 10.000117, 9.998985 
7.150071e+2, 2.448649e+2, -607708.2, -717204.44, -7523.339, -0.0021950053, -0.04302265, -607193.7, -66873.13, 0.0, 10.000154, 9.998698 
7.150086e+2, 2.5486368e+2, -518807.8, -622300.56, -14156.408, 0.061264254, -0.03820646, -516906.34, -74573.92, 0.0, 10.000085, 9.99871 
7.150095e+2, 2.6486242e+2, -428908.16, -533854.1, -13912.195, 0.06247115, -0.03043229, -427095.2, -82750.38, 0.0, 10.000055, 9.998658 
7.1500987e+2, 2.748612e+2, -328638.2, -431901.1, -16132.702, -0.0011625757, -0.026914854, -326176.47, -79818.734, 0.0, 10.000059, 9.998683 
7.1501076e+2, 2.8485993e+2, -237620.86, -352635.94, -15555.246, -0.01512823, -0.0131386155, -235554.22, -87183.46, 0.0, 10.000076, 9.998547 
7.1501213e+2, 2.948587e+2, -134286.97, -253063.03, -16033.95, 0.019557575, 0.0062356554, -132160.56, -81776.7, 0.0, 10.000117, 9.998538 
7.1501297e+2, 3.0485708e+2, -45590.797, -117677.38, -24179.24, 0.007817124, -0.03748976, -38231.848, -38231.848, 0.00000004119849, 10.000098, 9.999144 
7.1501386e+2, 3.148568e+2, -36894.695, -72666.805, 12911.1455, 0.012896798, 0.015813982, -32721.541, -32721.541, 0.0000010048329, 9.999982, 9.999508 
7.2499883e+2, 1.2487202e+2, -1690692.3, -1712046.9, -100011.13, -0.0077965274, 0.018871242, -1600790.0, 115463.49, 0.0, 10.000213, 9.999912 
7.250015e+2, 1.3487121e+2, -1588776.6, -1597144.0, 53107.227, 0.048861686, -0.06976597, -1539688.5, 78571.48, 0.0, 10.00016, 10.000063 
7.2500163e+2, 1.448717e+2, -1539078.3, -1569277.3, -19677.143, -0.10427353, -0.0020209062, -1529374.9, -9119.994, 0.0, 10.000039, 9.999631 
7.2500306e+2, 1.5487134e+2, -1454586.9, -1476733.3, -34757.6, 0.019123053, -0.006977625, -1429181.3, -6921.8955, 0.0, 9.999944, 9.9996395 
7.2500366e+2, 1.6487081e+2, -1376971.8, -1420671.9, -19440.299, 0.04666755, -0.007672156, -1369575.4, -45310.59, 0.0, 9.999941, 9.999352 
7.250037e+2, 1.7487015e+2, -1263546.5, -1314114.1, -13140.824, -0.00042238017, -0.013153043, -1260335.5, -34063.883, 0.0, 10.000042, 9.999363 
7.2500426e+2, 1.8486944e+2, -1157234.9, -1198146.5, -10253.8125, 0.0014170582, -0.025811613, -1154808.8, -26530.633, 0.0, 10.000038, 9.999488 
7.250053e+2, 1.948687e+2, -1074279.1, -1105274.0, -17540.895, 0.045583922, -0.052595984, -1066370.3, -36085.66, 0.0, 9.999927, 9.999506 
7.250056e+2, 2.0486808e+2, -1003055.2, -1073489.8, -35605.21, 0.04644689, -0.04187618, -988192.6, -55902.105, 0.0, 9.99997, 9.999032 
7.2500527e+2, 2.1486756e+2, -874136.9, -959586.56, -25878.295, 0.0051684487, 0.0008664463, -866910.75, -32614.69, 0.0, 10.000176, 9.9990425 
7.250055e+2, 2.2486666e+2, -774216.75, -871110.25, 5726.0093, -0.014787985, 0.009891759, -773879.56, -37574.563, 0.0, 10.000235, 9.998949 
7.2500634e+2, 2.348653e+2, -688090.4, -776925.75, -988.18835, -0.0131771, -0.024335256, -688079.4, -49761.742, 0.0, 10.000145, 9.998965 
7.250074e+2, 2.44864e+2, -620898.4, -731071.6, -5585.0117, 0.007440454, -0.032843947, -620616.0, -80285.95, 0.0, 10.000094, 9.998632 
7.2500855e+2, 2.548628e+2, -523465.34, -631549.06, -3305.5847, 0.04861371, -0.021438533, -523364.34, -81022.1, 0.0, 10.000084, 9.998647 
7.2500944e+2, 2.648615e+2, -431025.2, -549083.44, 3042.8245, 0.048223425, -0.009851553, -430946.8, -86591.44, 0.0, 10.000102, 9.998532 
7.2501004e+2, 2.748601e+2, -323194.13, -443863.13, -4374.042, 0.0050821914, -0.0058957567, -323035.78, -76666.2, 0.0, 10.000158, 9.998554 
7.2501093e+2, 2.8485867e+2, -235652.34, -351837.44, -8807.769, -0.007728476, -0.00348266, -234988.44, -86604.12, 0.0, 10.00009, 9.998547 
7.25012e+2, 2.948572e+2, -166418.44, -268178.9, -8029.016, 0.007362105, -0.006327131, -165788.84, -115389.37, 0.0, 9.999894, 9.998542 
7.250127e+2, 3.0485606e+2, -75404.32, -119442.6, -10851.295, -0.01458244, -0.012267984, -72875.69, -72875.69, 0.000000018939705, 9.99984, 9.999256 
7.2501373e+2, 3.148559e+2, -44632.094, -75656.46, 25706.91, 0.00481698, 0.04140934, -30119.736, -30119.736, 0.0000007295325, 9.999926, 9.999516 
7.349985e+2, 1.2487048e+2, -1693021.8, -1716905.4, -97019.39, -0.059389926, -0.03798784, -1607212.0, 109056.37, 0.0, 10.000211, 9.999881 
7.35002e+2, 1.348706e+2, -1594274.6, -1607541.9, 49956.35, 0.07578202, -0.025567371, -1550513.4, 67752.98, 0.0, 10.000156, 9.999992 
7.3500246e+2, 1.4487134e+2, -1539116.6, -1568719.1, -24299.941, -0.030399065, 0.06844699, -1525465.0, -5205.8267, 0.0, 10.000036, 9.999637 
7.3500293e+2, 1.5487024e+2, -1454034.4, -1476945.6, -37319.188, 0.009785163, -0.008443764, -1426452.1, -4181.3276, 0.0, 9.9999485, 9.999636 
7.350033e+2, 1.6486953e+2, -1366083.0, -1398061.3, -16334.067, 0.012578196, -0.03553051, -1359214.9, -34937.086, 0.0, 9.999941, 9.999508 
7.350038e+2, 1.7486927e+2, -1252567.6, -1290643.4, -9321.753, 0.007339884, -0.017468464, -1250407.9, -24128.15, 0.0, 10.000039, 9.999526 
7.3500437e+2, 1.8486883e+2, -1170750.4, -1225419.1, -14903.935, 0.011258165, -0.0016344425, -1166951.3, -38667.105, 0.0, 10.000033, 9.999303 
7.350049e+2, 1.9486822e+2, -1087726.5, -1133094.1, -21714.852, 0.014369167, 0.0050389124, -1079008.3, -48717.31, 0.0, 9.999925, 9.999316 
7.350052e+2, 2.0486751e+2, -984938.1, -1035498.44, -28686.21, 0.008893582, 0.0021122287, -971982.4, -39684.477, 0.0, 9.999969, 9.999294 
7.350054e+2, 2.1486664e+2, -856126.0, -921192.5, -18012.262, -0.0015744256, -0.017648373, -851472.5, -17167.45, 0.0, 10.000173, 9.999308 
7.35006e+2, 2.2486563e+2, -786979.6, -897108.1, 1696.4843, 0.010178529, -0.021978881, -786953.5, -50639.113, 0.0, 10.000233, 9.998772 
7.350071e+2, 2.3486447e+2, -701048.44, -803898.56, -4294.245, 0.044766158, -0.018722868, -700869.5, -62543.223, 0.0, 10.000145, 9.998781 
7.350078e+2, 2.4486326e+2, -616651.25, -722308.6, -6503.329, 0.03862465, -0.01256077, -616252.44, -75914.24, 0.0, 10.000094, 9.9986925 
7.3500806e+2, 2.54862e+2, -519333.5, -621945.5, -3536.8223, -0.010887232, -0.009739985, -519211.75, -76861.64, 0.0, 10.000079, 9.998715 
7.3500884e+2, 2.6486057e+2, -444295.6, -575867.1, 4964.9443, -0.023927446, -0.008859938, -444108.5, -99743.74, 0.0, 10.000098, 9.99835 
7.350102e+2, 2.7485886e+2, -337188.9, -472456.4, -1727.7692, 0.0027329263, -0.017609723, -337166.84, -90784.34, 0.0, 10.000156, 9.998359 
7.3501116e+2, 2.8485736e+2, -233553.95, -347265.56, -16144.834, 0.008546064, -0.011423754, -231306.13, -82908.19, 0.0, 10.000089, 9.998578 
7.350117e+2, 2.9485616e+2, -164357.78, -262651.8, -14399.378, -0.010555432, 0.0075006336, -162291.8, -111881.21, 0.0, 9.999888, 9.998582 
7.350123e+2, 3.048554e+2, -67224.016, -101012.9, -7653.4067, -0.041627415, 0.035471108, -65571.305, -65571.305, 0.0000000073965225, 9.999834, 9.999386 
7.350136e+2, 3.148548e+2, -39487.336, -61178.313, 27502.906, 0.0029496476, 0.028363261, -20768.75, -20768.75, 0.0000004773962, 9.99991, 9.999621 
7.4499863e+2, 1.24869674e+2, -1704082.6, -1714739.4, -75341.41, -0.06522808, -0.04001209, -1633881.5, 82393.89, 0.0, 10.000105, 9.999946 
7.4500203e+2, 1.3486968e+2, -1610111.5, -1613587.4, 67933.89, 0.07204119, -0.04235603, -1543893.4, 74381.234, 0.0, 10.000043, 10.000005 
7.4500275e+2, 1.448704e+2, -1549389.8, -1582568.5, -3664.7, -0.0018049674, 0.056172185, -1548989.9, -28722.332, 0.0, 10.000003, 9.999558 
7.450029e+2, 1.548693e+2, -1437404.9, -1478191.3, -21965.045, 0.008816885, -0.013741452, -1427825.6, -5545.9287, 0.0, 10.000102, 9.999553 
7.450032e+2, 1.6486864e+2, -1335583.1, -1369566.0, -4661.621, 0.0062061753, -0.039656006, -1334955.4, -10669.044, 0.0, 10.000091, 9.999632 
7.4500394e+2, 1.7486842e+2, -1256211.8, -1278676.6, -968.0271, 0.020875446, -0.026746197, -1256170.1, -29883.096, 0.0, 9.999955, 9.999648 
7.4500453e+2, 1.848681e+2, -1195618.9, -1246024.0, -3897.3384, 0.025028335, -0.003353232, -1195319.4, -67028.77, 0.0, 9.9999, 9.999227 
7.450048e+2, 1.9486763e+2, -1092425.1, -1144717.3, -3261.1416, 0.0064773383, 0.024168741, -1092222.5, -61925.426, 0.0, 9.999931, 9.999234 
7.450051e+2, 2.0486686e+2, -982572.44, -1031244.56, -8010.6084, -0.0030467845, 0.018348869, -981287.94, -48983.16, 0.0, 9.99997, 9.999323 
7.450055e+2, 2.1486573e+2, -876422.56, -927255.9, -15873.448, 0.0009074702, -0.02997413, -871873.06, -37559.242, 0.0, 10.000017, 9.999341 
7.4500614e+2, 2.248647e+2, -807710.25, -901778.94, -1240.142, 0.015701985, -0.040222622, -807693.9, -71370.766, 0.0, 10.000067, 9.998819 
7.4500716e+2, 2.3486377e+2, -702129.06, -798737.3, 9621.636, 0.04104377, -0.018424865, -701180.1, -62847.188, 0.0, 10.000114, 9.998831 
7.450079e+2, 2.4486262e+2, -604388.0, -719168.0, 16259.362, 0.029955784, -0.008711967, -602129.2, -61784.75, 0.0, 10.000192, 9.998667 
7.450082e+2, 2.5486124e+2, -488670.4, -610538.1, 11246.904, -0.019828416, -0.018035447, -487641.13, -45283.33, 0.0, 10.000303, 9.998686 
7.450089e+2, 2.6485974e+2, -420324.5, -562974.4, 19016.924, -0.037816912, -0.018493082, -417832.8, -73460.25, 0.0, 10.000256, 9.998363 
7.4501e+2, 2.7485815e+2, -351556.2, -477821.47, 27140.785, -0.020899571, -0.017716806, -345969.47, -99580.4, 0.0, 10.000051, 9.998374 
7.45011e+2, 2.8485665e+2, -252662.39, -361868.44, 18882.855, -0.012936541, -0.011035986, -249489.53, -101084.86, 0.0, 9.999981, 9.99853 
7.450117e+2, 2.9485533e+2, -144054.63, -258597.75, 13227.221, -0.016583938, -0.00026690547, -142547.02, -92128.09, 0.0, 10.000052, 9.998531 
7.450121e+2, 3.048548e+2, -68428.01, -103550.4, 6746.971, -0.04222712, 0.0529149, -67176.516, -67176.516, 0.0000000015345106, 9.999835, 9.999368 
7.4501324e+2, 3.148537e+2, -118920.19, -92722.336, 26085.783, 0.0059660114, 0.0012733014, -76631.37, -76631.37, 0.00000026410652, 9.999335, 9.999681 
7.549991e+2, 1.2486965e+2, -1695421.9, -1696758.5, -70703.58, -0.03306743, 0.011393762, -1625383.4, 90890.68, 0.0, 10.000103, 10.000071 
7.550017e+2, 1.3486843e+2, -1604472.9, -1601667.1, 64630.258, 0.034586832, -0.12065358, -1538424.5, 79859.96, 0.0, 10.000042, 10.000087 
7.5500256e+2, 1.4486896e+2, -1561255.5, -1606483.4, -1805.1458, -0.021709569, -0.03892528, -1561183.5, -40904.035, 0.0, 10.0, 9.999395 
7.550031e+2, 1.5486856e+2, -1448186.3, -1500616.6, -17846.707, 0.015119821, -0.021777011, -1442688.1, -20402.38, 0.0, 10.000102, 9.999399 
7.550035e+2, 1.6486813e+2, -1328976.5, -1355847.5, -10018.943, 0.025477285, -0.02024177, -1325652.1, -1361.9525, 0.0, 10.00009, 9.999726 
7.550041e+2, 1.7486767e+2, -1249567.0, -1265579.4, -5909.5244, 0.03826686, -0.042092606, -1247622.3, -21328.922, 0.0, 9.999957, 9.999738 
7.550046e+2, 1.8486728e+2, -1194325.8, -1242409.6, -3344.613, 0.039795727, -0.031928014, -1194094.3, -65796.77, 0.0, 9.999896, 9.999253 
7.550048e+2, 1.9486693e+2, -1091019.9, -1141332.5, -1942.5787, 0.02094106, 0.0052036685, -1090945.0, -60642.188, 0.0, 9.999929, 9.999258 
7.550051e+2, 2.0486614e+2, -997329.3, -1061396.5, -7036.9624, 0.009877566, 0.0070545864, -996565.5, -64254.555, 0.0, 9.999968, 9.999117 
7.550056e+2, 2.1486485e+2, -891227.1, -957525.0, -14259.578, 0.010609763, -0.036004383, -888290.25, -53968.023, 0.0, 10.000015, 9.999135 
7.550061e+2, 2.2486387e+2, -788520.5, -861124.4, -144.1282, -0.000705899, -0.044708747, -788520.2, -52189.14, 0.0, 10.000064, 9.999101 
7.550066e+2, 2.3486322e+2, -682691.25, -757478.06, 11404.743, -0.025562998, -0.023924893, -680990.75, -42653.266, 0.0, 10.000111, 9.999116 
7.5500757e+2, 2.4486208e+2, -612913.75, -736168.44, 20114.775, -0.019288732, -0.021458019, -609714.1, -69365.42, 0.0, 10.000189, 9.998551 
7.550089e+2, 2.5486043e+2, -497905.22, -629332.44, 15755.288, 0.020191398, -0.04495097, -496042.88, -53677.816, 0.0, 10.000302, 9.998557 
7.550096e+2, 2.6485908e+2, -405444.75, -531726.4, 11129.515, 0.0047242846, -0.037709717, -404471.38, -60092.83, 0.0, 10.000255, 9.998578 
7.550096e+2, 2.7485797e+2, -336300.8, -444780.44, 20078.047, -0.06843121, -0.008444981, -332703.9, -86314.63, 0.0, 10.000044, 9.998603 
7.550103e+2, 2.848565e+2, -263194.8, -382787.2, 21596.727, -0.0744691, -0.003796938, -259414.25, -111009.72, 0.0, 9.999976, 9.998389 
7.5501174e+2, 2.9485473e+2, -155447.89, -281282.6, 16743.004, -0.012731164, -0.024769444, -153258.23, -102834.32, 0.0, 10.000048, 9.998379 
7.5501215e+2, 3.048542e+2, -78684.33, -124204.83, -12216.899, -0.018731417, 0.044974826, -75612.78, -75612.78, 0.00000000001992495, 9.999832, 9.999227 
7.5501263e+2, 3.1485268e+2, -120103.66, -91933.8, 6416.2783, 0.0075375047, -0.034692895, -90541.2, -90541.2, 0.000000109993245, 9.999322, 9.999693 
7.649994e+2, 1.2486891e+2, -1705117.4, -1719056.4, -64056.64, -0.013801168, -0.009429382, -1647652.3, 68627.57, 0.0, 10.00011, 9.999916 
7.6500154e+2, 1.3486761e+2, -1621815.4, -1633595.8, 39043.867, 0.019437628, -0.12614039, -1588219.9, 30072.398, 0.0, 10.000025, 9.999876 
7.6500255e+2, 1.4486817e+2, -1552037.8, -1580719.9, -17284.947, -0.015790125, -0.04210075, -1543919.1, -23631.848, 0.0, 9.999971, 9.999586 
7.6500326e+2, 1.5486781e+2, -1440255.1, -1475380.4, -6358.718, 0.01754712, -0.040282693, -1439139.5, -16847.842, 0.0, 10.000063, 9.999592 
7.650036e+2, 1.6486743e+2, -1337478.8, -1367963.0, 1473.8424, 0.025646739, -0.04036889, -1337407.6, -13112.208, 0.0, 10.000065, 9.999657 
7.6500404e+2, 1.7486703e+2, -1252186.6, -1274823.6, -7767.255, 0.035909068, -0.048914712, -1249777.8, -23478.975, 0.0, 9.999973, 9.999666 
7.6500446e+2, 1.8486662e+2, -1183458.0, -1231247.3, -4254.679, 0.037976623, -0.03806517, -1183082.3, -54778.98, 0.0, 9.999945, 9.999307 
7.650048e+2, 1.948662e+2, -1079930.6, -1129884.6, -880.42377, 0.022704938, -0.014521053, -1079915.1, -49606.29, 0.0, 9.99998, 9.999312 
7.650052e+2, 2.048654e+2, -998510.4, -1064655.0, 1564.4763, 0.013714159, -0.014156706, -998473.44, -66156.445, 0.0, 9.999971, 9.999093 
7.650056e+2, 2.1486421e+2, -908229.0, -968604.06, 7371.6953, 0.014096204, -0.046196453, -907341.94, -73014.24, 0.0, 9.999911, 9.999108 
7.6500607e+2, 2.2486328e+2, -812940.4, -879138.94, 18984.11, -0.0026877515, -0.045890976, -807882.7, -71546.11, 0.0, 9.999924, 9.999043 
7.6500654e+2, 2.3486264e+2, -701171.2, -773312.94, 3498.8462, -0.03859979, -0.018412726, -701001.94, -62658.426, 0.0, 10.000013, 9.999055 
7.650075e+2, 2.4486151e+2, -628260.5, -728691.9, 6855.9424, -0.03404398, -0.01696778, -627794.6, -87440.11, 0.0, 10.000018, 9.998685 
7.650089e+2, 2.548599e+2, -540632.56, -634591.7, 21452.775, 0.01304133, -0.0500013, -535966.2, -93596.29, 0.0, 9.999943, 9.998693 
7.650097e+2, 2.648586e+2, -440173.88, -539736.25, 20434.215, 0.004443177, -0.04521673, -436143.13, -91760.96, 0.0, 9.99998, 9.998654 
7.6500976e+2, 2.7485767e+2, -319232.03, -428323.97, 16885.875, -0.061773982, -0.011414457, -316678.13, -70286.61, 0.0, 10.000126, 9.998676 
7.6501036e+2, 2.8485617e+2, -258722.06, -384684.3, 13518.134, -0.06946347, -0.010006829, -257287.66, -108880.73, 0.0, 10.000024, 9.998353 
7.6501155e+2, 2.9485425e+2, -210657.39, -312625.78, 16042.713, -0.019253166, -0.041456632, -208192.95, -157764.92, 0.0, 9.999688, 9.998337 
7.650118e+2, 3.0485386e+2, -119145.84, -153707.8, -8404.223, -0.031192144, 0.046538696, -117210.6, -117210.6, 0.0, 9.999597, 9.999138 
7.650121e+2, 3.1485212e+2, -50691.34, -43234.88, 10554.96, 0.003398859, -0.04852388, -35769.055, -35769.055, 0.000000028836135, 9.999732, 9.99983 
7.749995e+2, 1.2486749e+2, -1736469.1, -1782187.0, -59033.063, -0.015130124, -0.09924713, -1696023.8, 20268.28, 0.00000000003061157, 10.000101, 9.999487 
7.7500165e+2, 1.3486728e+2, -1656908.3, -1705708.6, 34898.402, 0.023727003, -0.058326833, -1638726.0, -20428.234, 0.0, 10.000023, 9.999381 
7.750029e+2, 1.4486806e+2, -1513532.0, -1501322.4, -15688.456, 0.011830033, 0.046136092, -1490592.9, 29697.758, 0.0, 9.999972, 10.000131 
7.7500325e+2, 1.5486707e+2, -1401758.3, -1396358.8, -2588.0444, 0.014262765, -0.07088913, -1395318.6, 26978.75, 0.0, 10.000066, 10.000134 
7.750035e+2, 1.6486655e+2, -1354586.4, -1402531.6, -2608.6514, 0.004516665, -0.1011963, -1354444.9, -30143.207, 0.0, 10.000061, 9.99942 
7.750038e+2, 1.7486653e+2, -1269069.4, -1309462.6, -11155.039, 0.012397486, -0.046862494, -1266193.5, -39890.14, 0.0, 9.999971, 9.999429 
7.750042e+2, 1.8486618e+2, -1178100.0, -1219200.4, -3513.8384, 0.017329946, -0.02193161, -1177801.8, -49494.0, 0.0, 9.99994, 9.999392 
7.750046e+2, 1.9486548e+2, -1074195.5, -1117624.8, 443.1527, 0.010163583, -0.03483853, -1074190.9, -43875.754, 0.0, 9.999977, 9.999398 
7.7500504e+2, 2.048647e+2, -987995.44, -1041573.5, -1507.2852, 0.0060719545, -0.045477606, -987953.1, -55630.52, 0.0, 9.999966, 9.999254 
7.750055e+2, 2.1486384e+2, -897744.5, -946184.7, 4935.422, 0.009964663, -0.060842033, -897246.75, -62916.633, 0.0, 9.999908, 9.999264 
7.750061e+2, 2.2486295e+2, -841210.1, -937453.6, 21529.117, 0.008506226, -0.044480745, -836613.75, -100274.28, 0.0, 9.999923, 9.998644 
7.7500695e+2, 2.3486204e+2, -729884.5, -832586.1, 7050.824, 0.00032198644, -0.0013688584, -729402.7, -91051.92, 0.0, 10.000011, 9.998649 
7.7500767e+2, 2.4486096e+2, -601870.8, -673068.5, 3625.7737, -0.016601183, 0.0050002187, -601686.6, -61324.926, 0.0, 10.000015, 9.999068 
7.750083e+2, 2.548597e+2, -513243.66, -576663.56, 18939.436, -0.043139555, -0.03465702, -508018.22, -65645.94, 0.0, 9.999939, 9.999094 
7.750092e+2, 2.6485845e+2, -445649.28, -550363.5, 25892.451, -0.039768524, -0.041487113, -439596.75, -95213.38, 0.0, 9.999976, 9.998584 
7.750105e+2, 2.7485725e+2, -325756.22, -441095.97, 23044.385, -0.0035352558, -0.022349203, -321322.5, -74927.2, 0.0, 10.000122, 9.99859 
7.750111e+2, 2.8485572e+2, -252713.88, -371772.1, 623.1184, -0.001284336, -0.02659036, -252710.61, -104299.2, 0.0, 10.000022, 9.998443 
7.7501106e+2, 2.9485393e+2, -205624.05, -300485.94, 4808.6123, -0.038476877, -0.056094635, -205380.92, -154949.42, 0.0, 9.9996805, 9.998424 
7.750109e+2, 3.0485374e+2, -124341.98, -163068.58, -2435.7964, -0.08125768, 0.05394444, -124189.375, -124189.375, 0.0, 9.99959, 9.999077 
7.7501166e+2, 3.1485203e+2, -36589.113, -12145.508, 14517.141, -0.014329775, -0.030727843, -5390.4873, -5390.4873, 0.0000000029769756, 9.999724, 10.000049 
7.849998e+2, 1.2486699e+2, -1722224.3, -1763874.6, -60950.633, 0.0055854777, -0.08451936, -1678639.3, 37658.598, 0.0000000009851104, 10.000151, 9.999589 
7.850016e+2, 1.3486677e+2, -1644096.4, -1693903.5, 62202.473, 0.016632214, -0.0493455, -1601997.5, 16305.639, 0.0, 10.000087, 9.999432 
7.850029e+2, 1.4486754e+2, -1512392.5, -1496298.9, 17233.77, 0.019304866, 0.049694404, -1485325.9, 34969.61, 0.0, 9.999959, 10.000174 
7.8500324e+2, 1.5486656e+2, -1429492.9, -1404853.0, -7358.7124, 0.015927918, -0.06880565, -1402822.6, 19479.125, 0.0, 9.999854, 10.000177 
7.8500336e+2, 1.6486603e+2, -1389784.8, -1419275.9, -17046.496, 0.00062788115, -0.10376542, -1381991.1, -57684.887, 0.0, 9.999819, 9.999423 
7.850036e+2, 1.7486595e+2, -1285186.5, -1317432.8, -8345.123, 0.0033419873, -0.055997524, -1283154.8, -56845.89, 0.0, 9.999862, 9.999428 
7.85004e+2, 1.8486567e+2, -1183190.3, -1205071.8, 11300.437, 0.011707344, -0.033025738, -1178402.0, -50089.477, 0.0, 9.999833, 9.99954 
7.8500456e+2, 1.9486512e+2, -1099605.8, -1112672.9, 19444.498, 0.014978066, -0.043150146, -1085626.5, -55309.094, 0.0, 9.999729, 9.999552 
7.8500503e+2, 2.0486446e+2, -1010349.0, -1057489.1, 19303.293, 0.010490582, -0.049067933, -1003453.25, -71129.414, 0.0, 9.999835, 9.9992075 
7.8500545e+2, 2.148636e+2, -864009.6, -935855.44, 9518.599, 0.0032327694, -0.05740937, -862769.94, -28437.748, 0.0, 10.000166, 9.99921 
7.850061e+2, 2.2486268e+2, -796717.3, -908358.56, 27611.096, 0.0026892337, -0.044008974, -790261.8, -53919.934, 0.0, 10.0001955, 9.998712 
7.8500694e+2, 2.3486173e+2, -738851.75, -828774.75, 47690.36, 0.006993639, -0.015423187, -718270.06, -79916.94, 0.0, 9.999916, 9.99872 
7.850077e+2, 2.4486068e+2, -627830.7, -683600.1, 53603.473, -0.009256548, -0.008954362, -595292.8, -54929.34, 0.0, 9.999829, 9.999084 
7.850082e+2, 2.5485957e+2, -512208.2, -574884.4, 39275.945, -0.047233164, -0.03258683, -493300.13, -50927.266, 0.0, 9.99994, 9.9991045 
7.850091e+2, 2.6485837e+2, -460112.1, -553099.1, 33139.15, -0.04660931, -0.038154583, -449510.53, -105126.78, 0.0, 9.999858, 9.998622 
7.8501034e+2, 2.7485707e+2, -400040.63, -472761.28, 38429.297, -0.0046129683, -0.033302277, -383496.47, -137099.95, 0.0, 9.999595, 9.998627 
7.85011e+2, 2.8485557e+2, -303311.7, -389210.78, 22383.494, 0.0026586114, -0.041338675, -297828.97, -149416.67, 0.0, 9.999644, 9.998505 
7.85011e+2, 2.9485387e+2, -155111.8, -269416.0, 23384.55, -0.028154578, -0.0648105, -150512.78, -100081.79, 0.0, 9.999999, 9.998483 
7.850107e+2, 3.0485368e+2, -77748.98, -165723.36, 7592.292, -0.074746765, 0.051650994, -77098.56, -77098.56, 0.0, 10.000019, 9.998852 
7.8501135e+2, 3.1485182e+2, -32721.834, -4942.7075, 6733.905, -0.021127842, -0.025981054, -3396.4219, -3396.4219, 0.0, 9.999727, 10.000096 
7.950003e+2, 1.2486744e+2, -1678447.4, -1673877.1, -55418.875, 0.036290545, 0.036548186, -1620696.4, 95600.53, 0.0000000034592607, 10.000153, 10.000207 
7.950015e+2, 1.348661e+2, -1602134.4, -1607804.5, 59041.477, -0.0027780968, -0.100410454, -1545860.0, 72448.19, 0.0, 10.000091, 10.000022 
7.950027e+2, 1.4486665e+2, -1544565.1, -1562519.5, 11325.893, 0.0049478733, -0.03181801, -1539090.1, -18788.262, 0.0, 9.999958, 9.999719 
7.950031e+2, 1.5486637e+2, -1461938.5, -1471131.3, -11075.926, 0.018515604, -0.033835642, -1454543.1, -32238.807, 0.0, 9.999851, 9.999724 
7.950033e+2, 1.6486593e+2, -1373484.4, -1384855.4, -16101.581, 0.009920003, -0.047914468, -1362094.0, -37785.21, 0.0, 9.999815, 9.999661 
7.950035e+2, 1.748653e+2, -1268340.6, -1282822.3, -6486.602, 0.008212873, -0.0763796, -1265860.0, -39544.895, 0.0, 9.999862, 9.999666 
7.950039e+2, 1.8486507e+2, -1168755.4, -1174185.1, 6780.868, 0.01938091, -0.07197284, -1164166.1, -35848.85, 0.0, 9.999829, 9.999754 
7.950044e+2, 1.9486517e+2, -1084962.0, -1081741.8, 15366.864, 0.03492953, -0.040947393, -1067900.9, -37585.566, 0.0, 9.999726, 9.999765 
7.95005e+2, 2.0486468e+2, -1028446.7, -1094338.9, 30662.086, 0.0250295, -0.02614815, -1016386.0, -84065.42, 0.0, 9.999832, 9.998956 
7.950055e+2, 2.1486357e+2, -882577.75, -973531.94, 21898.414, -0.0073663867, -0.0352271, -877580.0, -43246.438, 0.0, 10.000161, 9.998954 
7.9500604e+2, 2.2486256e+2, -760220.7, -831565.94, 16531.166, -0.02222209, -0.04404019, -756576.44, -20232.922, 0.0, 10.000191, 9.999242 
7.9500663e+2, 2.3486167e+2, -701142.2, -750179.44, 37155.58, -0.019781157, -0.06071417, -681144.5, -42794.043, 0.0, 9.999915, 9.99926 
7.950075e+2, 2.4486071e+2, -652657.25, -735017.1, 57254.875, -0.013247522, -0.058811866, -623311.25, -82951.53, 0.0, 9.999828, 9.998733 
7.950086e+2, 2.5485963e+2, -538537.44, -628794.3, 43808.15, -0.0019568326, -0.041974068, -520771.28, -78399.99, 0.0, 9.999936, 9.998736 
7.950092e+2, 2.6485845e+2, -449905.16, -531396.8, 22843.13, -0.018993508, -0.034739025, -443938.75, -99555.74, 0.0, 9.999856, 9.998773 
7.9500926e+2, 2.748571e+2, -389473.22, -449835.38, 29123.049, -0.066093236, -0.048233524, -377713.28, -131317.95, 0.0, 9.99959, 9.998787 
7.9501003e+2, 2.848557e+2, -302981.84, -387245.1, 36100.895, -0.058592528, -0.056103073, -289630.63, -141220.94, 0.0, 9.999639, 9.998521 
7.9501134e+2, 2.9485422e+2, -154824.22, -267498.63, 37720.598, 0.005799794, -0.059706867, -143362.28, -92936.53, 0.0, 9.999993, 9.998499 
7.950113e+2, 3.0485377e+2, -103227.05, -218619.2, -3955.8213, -0.018496156, 0.046851777, -103091.59, -103091.59, 0.0, 10.000018, 9.998489 
7.9501104e+2, 3.1485137e+2, -41461.785, -21499.082, -4873.178, -0.020585388, -0.045850668, -20372.992, -20372.992, 0.0, 9.999721, 9.999987 
8.050006e+2, 1.2486717e+2, -1671772.0, -1657680.5, -19547.59, 0.053810596, 0.048189253, -1643947.6, 72352.305, 0.0000000057252847, 10.000141, 10.000325 
8.050015e+2, 1.3486564e+2, -1605415.8, -1599792.6, 45173.168, -0.005175241, -0.115617275, -1557343.6, 60968.457, 0.0, 10.000028, 10.000107 
8.050027e+2, 1.4486612e+2, -1555961.4, -1574412.1, -5027.9097, 0.0104947025, -0.0543675, -1554680.3, -34374.086, 0.0, 9.999909, 9.9996605 
8.050029e+2, 1.5486604e+2, -1461090.1, -1478099.3, 2440.2893, 0.011107317, -0.030830797, -1460747.0, -38439.53, 0.0, 9.999887, 9.999659 
8.0500305e+2, 1.6486564e+2, -1364835.9, -1375266.3, 8531.413, 0.0064724376, -0.038616505, -1360051.9, -35740.375, 0.0, 9.99985, 9.99971 
8.0500346e+2, 1.7486496e+2, -1274359.6, -1280116.3, 2839.8313, 0.023762353, -0.080751315, -1273194.5, -46876.293, 0.0, 9.999797, 9.999717 
8.050039e+2, 1.848647e+2, -1167562.4, -1168819.4, 3457.101, 0.033532538, -0.0824347, -1164677.1, -36356.758, 0.0, 9.999818, 9.999796 
8.0500424e+2, 1.9486485e+2, -1053243.0, -1062046.8, -1368.9237, 0.027129559, -0.049611464, -1053035.1, -22717.33, 0.0, 9.999927, 9.9998045 
8.050047e+2, 2.0486446e+2, -1017345.3, -1082025.0, 21811.588, 0.013327995, -0.031636853, -1010677.3, -78355.07, 0.0, 9.999879, 9.999018 
8.0500543e+2, 2.1486343e+2, -950401.56, -998782.2, 36143.15, -0.0058552762, -0.03656009, -931100.5, -96766.19, 0.0, 9.999665, 9.999019 
8.05006e+2, 2.2486252e+2, -823123.2, -843615.5, 27459.05, -0.017265966, -0.048586838, -804060.94, -67717.74, 0.0, 9.9996805, 9.999404 
8.050065e+2, 2.348617e+2, -686534.8, -724964.9, 19094.066, -0.020585386, -0.07534411, -678661.06, -40312.297, 0.0, 9.999937, 9.999423 
8.050074e+2, 2.4486074e+2, -639233.2, -736678.75, 33691.78, -0.013577747, -0.07554792, -628718.75, -88361.05, 0.0, 9.999956, 9.998659 
8.050085e+2, 2.5485966e+2, -573117.25, -653911.6, 41094.895, 0.0036283962, -0.053659182, -555888.75, -113518.56, 0.0, 9.999736, 9.99866 
8.0500907e+2, 2.6485845e+2, -460551.8, -534637.8, 29460.74, -0.012129907, -0.043234598, -450264.9, -105882.72, 0.0, 9.999775, 9.998789 
8.050091e+2, 2.7485716e+2, -317355.72, -413186.5, 24250.941, -0.061591692, -0.055035375, -311568.28, -65174.05, 0.0, 10.000077, 9.998804 
8.050099e+2, 2.848558e+2, -233438.75, -341699.2, 30160.941, -0.052967377, -0.06275252, -225603.14, -77195.6, 0.0, 10.000065, 9.998628 
8.050113e+2, 2.9485443e+2, -184807.83, -269743.8, 37457.438, 0.014981376, -0.06843884, -170649.06, -120227.26, 0.0, 9.999735, 9.998608 
8.050112e+2, 3.048537e+2, -166714.06, -266520.53, 4377.176, -0.007264762, 0.015505851, -166522.45, -166522.45, 0.0, 9.999657, 9.998334 
8.05011e+2, 3.1485128e+2, -22389.602, -4155.163, 16016.047, -0.0061204927, -0.064069055, 5156.873, 5156.873, 0.0, 9.999817, 10.000059 
8.1500065e+2, 1.2486626e+2, -1698248.3, -1712553.3, -16024.693, 0.045434516, -0.044128798, -1687852.4, 28453.998, 0.000000004999778, 10.000141, 9.999948 
8.1500167e+2, 1.3486545e+2, -1636275.5, -1661644.9, 39895.777, 0.0044205436, -0.094397634, -1607096.4, 11217.957, 0.0, 10.00002, 9.999684 
8.150028e+2, 1.4486605e+2, -1532470.1, -1525730.4, -7363.6616, 0.030933911, -0.016766889, -1521002.1, -694.2405, 0.0, 9.9999075, 9.999996 
8.150026e+2, 1.5486565e+2, -1436590.8, -1429235.3, 2520.958, -0.006761084, -0.05964741, -1428454.1, -6143.4746, 0.0, 9.999895, 9.999992 
8.1500274e+2, 1.6486526e+2, -1374834.0, -1396496.0, 5910.0176, -0.011336919, -0.07692763, -1373326.5, -49012.285, 0.0, 9.999853, 9.999563 
8.150035e+2, 1.748649e+2, -1285382.0, -1301580.5, 757.36316, 0.046238426, -0.071044035, -1285346.6, -59028.367, 0.0, 9.999791, 9.999571 
8.1500393e+2, 1.8486458e+2, -1177261.4, -1187880.1, 6879.209, 0.050515514, -0.06491641, -1173881.0, -45559.51, 0.0, 9.999812, 9.999668 
8.150038e+2, 1.9486424e+2, -1062482.1, -1081188.0, 2736.3982, -0.00917759, -0.067394145, -1062090.0, -31765.895, 0.0, 9.999926, 9.999674 
8.150042e+2, 2.048638e+2, -991761.9, -1028278.56, 13099.473, -0.025899708, -0.064720966, -987548.9, -55220.473, 0.0, 9.999876, 9.999388 
8.150052e+2, 2.1486324e+2, -924277.9, -944095.2, 27892.588, 0.005444243, -0.062188517, -904586.25, -70251.93, 0.0, 9.999663, 9.999395 
8.15006e+2, 2.2486258e+2, -836952.0, -872328.56, 36039.69, 0.0153472405, -0.058352523, -814493.9, -78153.15, 0.0, 9.9996805, 9.9992075 
8.1500673e+2, 2.3486182e+2, -701274.44, -755170.06, 28815.498, 0.0028182925, -0.05912916, -688769.5, -50421.848, 0.0, 9.999934, 9.999216 
8.150073e+2, 2.4486084e+2, -625728.7, -708197.06, 25018.195, -0.012417329, -0.059656993, -618732.5, -78375.4, 0.0, 9.999953, 9.998857 
8.1500787e+2, 2.5485963e+2, -558986.8, -624058.6, 32904.637, -0.031227395, -0.06873367, -545248.5, -102879.21, 0.0, 9.999733, 9.998867 
8.150087e+2, 2.6485845e+2, -469634.84, -552696.9, 40674.875, -0.026779948, -0.0630957, -453034.38, -108653.26, 0.0, 9.999771, 9.998667 
8.150099e+2, 2.748573e+2, -327088.72, -432335.13, 36470.297, 0.0036168632, -0.049108103, -315686.25, -69293.586, 0.0, 10.0000725, 9.998675 
8.150106e+2, 2.8485596e+2, -218615.53, -310868.66, 17370.146, 0.0135581, -0.059030585, -215453.33, -67047.836, 0.0, 10.000064, 9.99884 
8.1501085e+2, 2.9485443e+2, -170865.36, -240178.92, 25891.07, -0.0014382101, -0.09776689, -162262.0, -111842.375, 0.0, 9.999731, 9.998814 
8.1501055e+2, 3.0485353e+2, -164944.9, -260884.95, 11117.146, -0.04127486, -0.04710506, -163673.55, -163673.55, 0.0, 9.99965, 9.998376 
8.1501096e+2, 3.1485158e+2, -7041.845, 29675.672, 21279.61, 0.011513801, -0.082552, 39421.465, 39421.465, 0.0000000016901937, 9.999809, 10.000295 
8.250009e+2, 1.2486597e+2, -1689353.3, -1720523.9, -14252.996, 0.04576239, -0.07218992, -1683818.6, 32489.707, 0.0000000017683296, 10.000257, 9.999836 
8.2500166e+2, 1.3486546e+2, -1646149.1, -1682521.3, 52851.39, 0.0052851574, -0.077968925, -1608442.4, 9871.911, 0.0, 10.00002, 9.999542 
8.2500285e+2, 1.4486603e+2, -1528713.6, -1521807.5, 14410.888, 0.045655426, 0.0016946397, -1510441.8, 9866.932, 0.0, 9.999924, 10.000016 
8.250027e+2, 1.5486535e+2, -1411442.9, -1414437.1, 36.915367, -0.0000952063, -0.069268905, -1411442.5, 10871.143, 0.0, 10.000056, 10.000015 
8.250027e+2, 1.6486493e+2, -1344832.4, -1381401.3, -7685.082, -0.012862979, -0.09155939, -1343283.0, -18965.766, 0.0, 10.000058, 9.999566 
8.2500327e+2, 1.748648e+2, -1264567.4, -1291667.9, -1864.43, 0.036407016, -0.06484342, -1264439.8, -38120.734, 0.0, 9.999935, 9.999569 
8.250036e+2, 1.8486445e+2, -1178956.5, -1206764.0, 15528.227, 0.040744137, -0.05347796, -1172017.0, -43694.258, 0.0, 9.99988, 9.999506 
8.250037e+2, 1.9486383e+2, -1077948.5, -1106874.6, 8055.2104, -0.011782218, -0.067846514, -1075856.6, -45527.58, 0.0, 9.999898, 9.99951 
8.250041e+2, 2.0486331e+2, -977663.2, -1001701.44, 3252.8586, -0.024349876, -0.07285552, -977230.8, -44897.05, 0.0, 9.999888, 9.999564 
8.25005e+2, 2.1486291e+2, -884901.25, -904912.56, 2956.2454, 0.008899631, -0.072644934, -884473.7, -50136.887, 0.0, 9.999846, 9.999577 
8.2500577e+2, 2.2486234e+2, -831172.0, -879757.44, 15076.072, 0.02139956, -0.06487784, -826874.06, -90531.94, 0.0, 9.9997635, 9.999117 
8.250066e+2, 2.3486155e+2, -751410.0, -789805.5, 15239.168, 0.010971073, -0.05611563, -746096.8, -107746.68, 0.0, 9.999636, 9.999123 
8.250072e+2, 2.448606e+2, -659139.25, -709032.4, 10994.192, -0.0054284525, -0.056699615, -656824.0, -116464.55, 0.0, 9.999659, 9.998993 
8.250077e+2, 2.5485945e+2, -532893.1, -595699.1, 13194.052, -0.027915029, -0.07552988, -530233.94, -87863.43, 0.0, 9.999845, 9.999008 
8.2500863e+2, 2.648583e+2, -452696.78, -540884.9, 28151.74, -0.017109074, -0.075529255, -444476.3, -100094.69, 0.0, 9.999872, 9.998698 
8.2501006e+2, 2.7485713e+2, -374125.4, -451436.22, 35098.094, 0.029975196, -0.062241275, -360568.6, -114175.5, 0.0, 9.999735, 9.998706 
8.250107e+2, 2.848559e+2, -268498.44, -328658.9, 8412.519, 0.03698835, -0.06903205, -267344.22, -118939.12, 0.0, 9.999695, 9.998897 
8.250106e+2, 2.948545e+2, -163185.8, -229819.42, 4104.164, -0.00078367785, -0.102126956, -162933.95, -112516.055, 0.0, 9.999756, 9.998872 
8.2501024e+2, 3.0485326e+2, -131609.06, -248618.6, -5512.2485, -0.046927676, -0.081813686, -131349.95, -131349.95, 0.0, 9.999894, 9.9983425 
8.25011e+2, 3.148516e+2, 39644.996, 61350.34, -5656.922, 0.016256958, -0.088930316, 62736.184, 62736.184, 0.000000023716037, 10.000091, 10.000377 
8.350011e+2, 1.2486637e+2, -1678362.5, -1698096.1, -16327.798, 0.042120777, -0.034167383, -1669151.9, 47153.555, 0.000000000051048894, 10.000256, 9.999991 
8.350016e+2, 1.3486573e+2, -1633925.8, -1660001.1, 44344.504, -0.0045704143, -0.06692521, -1600742.0, 17569.395, 0.0, 10.0000305, 9.999692 
8.3500284e+2, 1.4486608e+2, -1550376.0, -1567826.1, 17557.873, 0.051935263, -0.0003486658, -1539494.8, -19186.807, 0.0, 9.999929, 9.999697 
8.35003e+2, 1.5486522e+2, -1434003.6, -1459142.1, 4966.884, 0.028421937, -0.060543884, -1433057.9, -10741.72, 0.0, 10.000049, 9.999712 
8.3500284e+2, 1.6486473e+2, -1333728.3, -1357656.1, -12584.658, -0.001180527, -0.08126753, -1328328.1, -4007.8074, 0.0, 10.000053, 9.999732 
8.350028e+2, 1.748647e+2, -1252643.5, -1268123.9, -6000.3413, -0.0069322004, -0.060084876, -1250590.1, -24270.168, 0.0, 9.999939, 9.999729 
8.3500314e+2, 1.8486433e+2, -1193427.1, -1236661.5, 15623.623, 0.002147108, -0.0475356, -1188372.1, -60048.43, 0.0, 9.999879, 9.999301 
8.3500385e+2, 1.9486362e+2, -1093185.8, -1137418.6, 8593.376, 0.016782898, -0.052798178, -1091574.9, -61242.645, 0.0, 9.999894, 9.999302 
8.350044e+2, 2.04863e+2, -978872.5, -1003727.9, 859.0976, 0.015807748, -0.057035636, -978842.8, -46504.613, 0.0, 9.999886, 9.999552 
8.3500475e+2, 2.1486248e+2, -885695.9, -906259.6, 958.5608, 0.0031011382, -0.06717067, -885651.25, -51309.832, 0.0, 9.999845, 9.999568 
8.3500534e+2, 2.2486182e+2, -830875.25, -878868.75, 9308.33, -0.0005406101, -0.06785535, -829133.1, -92785.93, 0.0, 9.999762, 9.999124 
8.350062e+2, 2.3486099e+2, -750733.2, -788470.3, 10220.457, 0.0030581718, -0.06592121, -748142.94, -109787.125, 0.0, 9.999636, 9.999132 
8.35007e+2, 2.448601e+2, -653813.75, -697855.0, 17313.145, 0.006600983, -0.06556704, -647822.75, -107458.234, 0.0, 9.999658, 9.99907 
8.350079e+2, 2.5485912e+2, -528236.25, -585146.3, 20648.445, 0.009984972, -0.07323487, -521533.78, -79160.414, 0.0, 9.999841, 9.999083 
8.350088e+2, 2.6485804e+2, -440048.1, -514601.1, 22711.52, 0.013063122, -0.08111212, -433674.28, -89290.66, 0.0, 9.999871, 9.998879 
8.350097e+2, 2.7485678e+2, -361601.7, -424935.6, 30139.316, 0.016812468, -0.0976789, -349551.66, -103156.07, 0.0, 9.999731, 9.99889 
8.3501023e+2, 2.8485566e+2, -276763.94, -344434.28, 10829.656, 0.017212763, -0.093892455, -275073.06, -126666.71, 0.0, 9.999689, 9.998791 
8.3501047e+2, 2.9485464e+2, -171705.45, -245739.13, 7478.623, 0.011287135, -0.07672585, -170957.55, -120541.414, 0.0, 9.999749, 9.998766 
8.350103e+2, 3.0485302e+2, -138538.94, -262700.3, 1746.8298, -0.030091407, -0.08465808, -138514.36, -138514.36, 0.0, 9.999892, 9.998247 
8.3501095e+2, 3.148512e+2, 34694.168, 51887.402, 1320.7632, 0.0026200889, -0.09959354, 51988.27, 51988.27, 0.00000010288848, 10.000086, 10.000315 
8.450014e+2, 1.2486651e+2, -1661808.0, -1684856.5, -9665.2, 0.039977517, -0.023053095, -1658291.5, 58012.777, 0.0, 10.000346, 10.000038 
8.4500164e+2, 1.3486584e+2, -1590785.8, -1634157.5, 31963.96, -0.0151775405, -0.06466347, -1573845.6, 44464.79, 0.0, 10.000308, 9.999733 
8.4500295e+2, 1.4486608e+2, -1529130.9, -1572815.8, 11331.789, 0.05236644, -0.0040839883, -1526366.4, -6058.331, 0.0, 10.000142, 9.999558 
8.4500307e+2, 1.5486519e+2, -1464426.5, -1489366.8, 12697.963, 0.03406335, -0.051348988, -1459099.4, -36782.45, 0.0, 9.9999075, 9.999572 
8.450029e+2, 1.648647e+2, -1359968.4, -1368550.3, -142.8423, 0.003664673, -0.06731494, -1359966.0, -35644.52, 0.0, 9.999866, 9.999747 
8.450027e+2, 1.7486463e+2, -1237724.8, -1258902.5, -5863.142, -0.012184183, -0.050942793, -1236209.9, -9888.68, 0.0, 10.000032, 9.999747 
8.4500307e+2, 1.8486425e+2, -1173870.1, -1229167.1, 13359.5625, -0.0014743421, -0.03936833, -1170811.6, -42486.72, 0.0, 10.00002, 9.999285 
8.4500384e+2, 1.9486356e+2, -1105626.8, -1144964.8, 20917.348, 0.027498681, -0.040774886, -1096583.4, -66250.24, 0.0, 9.999814, 9.9992895 
8.450044e+2, 2.0486286e+2, -1000376.6, -1026319.44, 24066.11, 0.028991502, -0.046740927, -986008.75, -53669.063, 0.0, 9.99979, 9.999443 
8.450047e+2, 2.1486215e+2, -877159.4, -914598.2, 16032.748, 0.0057701245, -0.065939374, -871232.0, -36887.125, 0.0, 9.999956, 9.999456 
8.450053e+2, 2.2486137e+2, -790936.1, -857648.1, 16208.53, -0.0015913448, -0.07401403, -787206.56, -50854.957, 0.0, 10.000029, 9.99914 
8.45006e+2, 2.3486052e+2, -695360.2, -759912.56, 16484.703, 0.0057302616, -0.07657228, -691394.1, -53034.098, 0.0, 10.000009, 9.999148 
8.450068e+2, 2.4485964e+2, -624819.06, -684995.5, 21520.62, 0.014497287, -0.07438353, -617914.9, -77546.49, 0.0, 9.999862, 9.99906 
8.450078e+2, 2.5485873e+2, -566703.8, -604944.8, 17416.605, 0.024685103, -0.074509926, -559960.6, -117583.71, 0.0, 9.999582, 9.99907 
8.4500855e+2, 2.6485768e+2, -489343.75, -533376.06, 13909.572, 0.01986013, -0.08163586, -485317.88, -140930.94, 0.0, 9.999512, 9.998923 
8.450092e+2, 2.748564e+2, -366796.94, -422353.7, 9751.438, 0.00044674, -0.10366003, -365135.06, -118736.16, 0.0, 9.999676, 9.998934 
8.4500986e+2, 2.8485528e+2, -263841.56, -345378.78, -10649.607, 0.0035202722, -0.09691794, -262473.56, -114064.06, 0.0, 9.999809, 9.998725 
8.450105e+2, 2.948543e+2, -155628.13, -245009.83, -11767.005, 0.029553667, -0.06976714, -154104.97, -103685.76, 0.0, 9.99989, 9.998702 
8.450105e+2, 3.0485246e+2, -124236.57, -250009.17, -7381.172, -0.006038375, -0.103212535, -123804.875, -123804.875, 0.00000000024035085, 9.999966, 9.998298 
8.45011e+2, 3.1485102e+2, 29138.287, 51326.38, 55.716034, -0.00045356655, -0.08161874, 51326.52, 51326.52, 0.00000026211356, 10.000037, 10.000333 
8.5500157e+2, 1.2486646e+2, -1667307.9, -1697064.3, -4561.976, 0.024908347, -0.037475824, -1666624.1, 49680.12, 0.0, 10.00035, 9.999952 
8.5500187e+2, 1.3486579e+2, -1598795.5, -1649462.5, 29688.068, -0.02641166, -0.07025965, -1585101.3, 33209.637, 0.0, 10.000302, 9.999631 
8.55003e+2, 1.4486603e+2, -1524620.3, -1562994.3, 1413.2122, 0.0452782, -0.007439632, -1524568.3, -4259.76, 0.0, 10.000138, 9.999629 
8.5500276e+2, 1.5486534e+2, -1459672.8, -1481486.0, 4781.514, 0.013221731, -0.04043603, -1458670.6, -36355.28, 0.0, 9.999914, 9.999623 
8.550027e+2, 1.6486485e+2, -1370411.0, -1390812.4, 5662.703, -0.002333815, -0.050289102, -1368944.6, -44624.426, 0.0, 9.999868, 9.999594 
8.5500306e+2, 1.7486459e+2, -1248251.3, -1279765.3, 407.97937, 0.01953092, -0.038862918, -1248246.0, -21923.334, 0.0, 10.000028, 9.999606 
8.5500336e+2, 1.8486422e+2, -1161294.3, -1202408.0, 5273.348, 0.028321598, -0.029335164, -1160628.6, -32302.53, 0.0, 10.000016, 9.999471 
8.5500354e+2, 1.9486372e+2, -1092288.5, -1117620.3, 12937.075, 0.018752182, -0.030552773, -1086849.3, -56518.31, 0.0, 9.999815, 9.999476 
8.55004e+2, 2.0486298e+2, -1014755.94, -1055789.9, 29166.814, 0.0137156965, -0.041525636, -999612.7, -67274.88, 0.0, 9.999788, 9.999242 
8.550048e+2, 2.1486197e+2, -892192.44, -945115.75, 21961.07, 0.0151791535, -0.0688604, -884266.5, -49919.824, 0.0, 9.999953, 9.9992485 
8.5500544e+2, 2.2486103e+2, -790037.4, -855511.44, 14464.287, 0.016577017, -0.08256867, -786984.4, -50629.47, 0.0, 10.000027, 9.999155 
8.550061e+2, 2.3486015e+2, -693894.44, -756737.1, 15736.278, 0.016727662, -0.08871594, -690174.2, -51811.66, 0.0, 10.000008, 9.99917 
8.550067e+2, 2.4485925e+2, -632369.25, -700839.7, 10643.533, 0.015891388, -0.084639825, -630752.9, -90381.84, 0.0, 9.999862, 9.998952 
8.550073e+2, 2.548583e+2, -574355.3, -620607.7, 6867.8574, 0.015258299, -0.079184204, -573357.06, -130976.27, 0.0, 9.999581, 9.998964 
8.5500795e+2, 2.6485723e+2, -496174.84, -547381.1, 19286.14, 0.003228684, -0.07532188, -489723.72, -145332.44, 0.0, 9.999511, 9.998828 
8.5500866e+2, 2.7485606e+2, -374475.94, -437139.53, 16542.271, -0.02262744, -0.0782568, -370377.13, -123974.51, 0.0, 9.99967, 9.998835 
8.5500956e+2, 2.8485483e+2, -266187.03, -349731.72, -7287.559, -0.007909043, -0.077405624, -265556.13, -117141.72, 0.0, 9.999806, 9.998697 
8.5501057e+2, 2.948535e+2, -157885.1, -248817.78, -7851.834, 0.05039019, -0.08348631, -157212.08, -106784.836, 0.0, 9.999886, 9.998678 
8.5501075e+2, 3.048515e+2, -111126.74, -221945.05, -4672.879, 0.023217313, -0.1394525, -110930.055, -110930.055, 0.0000000059514194, 9.999962, 9.998492 
8.5501105e+2, 3.1485102e+2, 35206.813, 66376.16, 2685.2688, 0.0016486632, -0.04484693, 66605.805, 66605.805, 0.0000005093443, 10.000028, 10.000442 
8.650019e+2, 1.2486638e+2, -1664643.8, -1700027.5, -13272.084, 0.017379662, -0.044960514, -1660218.9, 56086.152, 0.00000000000000000000885557, 10.000388, 9.999912 
8.6500204e+2, 1.3486575e+2, -1641702.9, -1674728.9, 18922.0, -0.03002633, -0.068370976, -1633101.8, -14790.357, 0.0, 10.000028, 9.999589 
8.65003e+2, 1.4486596e+2, -1553957.1, -1571059.0, -434.51794, 0.046871196, -0.009459707, -1553946.1, -33636.848, 0.0, 9.999911, 9.999682 
8.650027e+2, 1.5486534e+2, -1430247.1, -1461412.3, 1262.9386, 0.010415849, -0.042611327, -1430196.0, -7880.811, 0.0, 10.000091, 9.999676 
8.650027e+2, 1.6486481e+2, -1347665.5, -1391803.8, 4457.4517, -0.00034911657, -0.053388793, -1347219.8, -22899.434, 0.0, 10.000073, 9.99949 
8.650031e+2, 1.7486444e+2, -1281307.8, -1306872.4, 3015.4102, 0.034198612, -0.04239102, -1280956.9, -54632.51, 0.0, 9.999849, 9.999507 
8.650034e+2, 1.8486404e+2, -1185572.0, -1209759.9, 6238.64, 0.039351705, -0.03253497, -1184057.8, -55729.664, 0.0, 9.999832, 9.999509 
8.6500335e+2, 1.9486357e+2, -1057528.1, -1096832.6, 1904.0337, 0.008975367, -0.03359517, -1057436.1, -27104.17, 0.0, 10.000036, 9.999513 
8.650038e+2, 2.0486277e+2, -980479.1, -1057007.0, 15959.138, 0.0009756395, -0.04285444, -977284.4, -44945.152, 0.0, 10.000099, 9.9990835 
8.650048e+2, 2.1486166e+2, -895217.7, -964563.5, 11754.999, 0.017122779, -0.065322205, -893279.25, -58929.414, 0.0, 10.00001, 9.999088 
8.6500555e+2, 2.2486065e+2, -806439.0, -861886.6, 2555.8403, 0.027487257, -0.07883767, -806321.44, -69962.51, 0.0, 9.9999075, 9.999169 
8.6500615e+2, 2.3485973e+2, -723828.1, -769036.3, 2336.0266, 0.031280965, -0.09184655, -723707.7, -85341.11, 0.0, 9.999793, 9.999188 
8.6500657e+2, 2.4485882e+2, -642289.3, -714599.8, 9.746258, 0.022105133, -0.087752074, -642289.25, -101913.945, 0.0, 9.999833, 9.99887 
8.650069e+2, 2.5485784e+2, -512257.75, -600186.2, -2816.823, -0.00045360072, -0.07361094, -512167.63, -69782.2, 0.0, 10.000049, 9.9988785 
8.650076e+2, 2.648567e+2, -424816.6, -521406.5, 10594.675, -0.009687577, -0.07007914, -423668.16, -79271.336, 0.0, 10.000038, 9.998752 
8.6500853e+2, 2.7485535e+2, -364401.28, -441128.75, 8484.869, -0.0049474174, -0.08301144, -363474.2, -117064.4, 0.0, 9.999778, 9.998755 
8.6500955e+2, 2.848541e+2, -279099.94, -354908.4, -6179.5894, 0.014572023, -0.07855579, -278599.5, -130178.07, 0.0, 9.999714, 9.998706 
8.6501044e+2, 2.9485297e+2, -158793.86, -247649.27, -5376.5317, 0.04891118, -0.06693183, -158469.72, -108037.33, 0.0, 9.999873, 9.998692 
8.650107e+2, 3.048507e+2, -103813.766, -221658.16, -9247.617, 0.014651169, -0.14865176, -103092.49, -103092.49, 0.000000027135602, 10.000027, 9.998463 
8.650111e+2, 3.148502e+2, 36245.508, 47122.465, -22271.615, 0.00021700443, -0.048485138, 64609.996, 64609.996, 0.00000083365, 10.000118, 10.000265 
8.750022e+2, 1.2486629e+2, -1663392.6, -1696511.6, -23852.732, 0.006892317, -0.043833096, -1650914.8, 65391.23, 0.0000000055054987, 10.000383, 9.999939 
8.75002e+2, 1.3486579e+2, -1638312.8, -1668133.0, 5547.7446, -0.032018885, -0.059773047, -1637314.1, -19002.59, 0.0, 10.00003, 9.999634 
8.75003e+2, 1.448659e+2, -1553349.1, -1570645.0, 5415.848, 0.050571594, -0.011721069, -1551793.1, -31483.047, 0.0, 9.999914, 9.999684 
8.750029e+2, 1.5486518e+2, -1428609.5, -1457904.0, 8225.33, 0.02600735, -0.057763938, -1426458.0, -4141.8467, 0.0, 10.00009, 9.999701 
8.7500286e+2, 1.648646e+2, -1349897.9, -1396428.1, -4662.155, 0.009785525, -0.07500503, -1349435.3, -25113.674, 0.0, 10.000073, 9.999458 
8.750029e+2, 1.7486422e+2, -1284051.8, -1313056.5, -5459.1157, 0.029084278, -0.060251687, -1283058.3, -56732.332, 0.0, 9.999851, 9.999464 
8.750031e+2, 1.8486376e+2, -1193871.0, -1226661.6, 13038.547, 0.02821712, -0.04862978, -1189318.5, -60988.04, 0.0, 9.99983, 9.999393 
8.750033e+2, 1.9486316e+2, -1065689.6, -1113452.4, 9393.829, -0.0031947088, -0.050267357, -1063908.5, -33572.72, 0.0, 10.000034, 9.9994 
8.7500376e+2, 2.0486236e+2, -989058.7, -1074345.3, 11853.653, -0.01088641, -0.050783105, -987441.8, -55098.266, 0.0, 10.000096, 9.998966 
8.750047e+2, 2.148613e+2, -903229.5, -980970.44, 7991.0225, 0.009714261, -0.05567994, -902416.6, -68062.62, 0.0, 10.000009, 9.998977 
8.750055e+2, 2.2486028e+2, -806014.9, -861059.6, -2801.0586, 0.029509753, -0.063907295, -805872.7, -69509.31, 0.0, 9.9999075, 9.999176 
8.750061e+2, 2.3485929e+2, -723488.6, -768066.25, -2140.8594, 0.048813123, -0.08488344, -723386.06, -85014.21, 0.0, 9.999791, 9.999197 
8.7500656e+2, 2.4485834e+2, -646071.25, -722430.44, 7114.0356, 0.03190015, -0.08116441, -645414.1, -105033.31, 0.0, 9.999832, 9.998817 
8.7500674e+2, 2.5485742e+2, -516613.03, -608650.75, 5631.2266, -0.02518452, -0.057722937, -516269.78, -73879.37, 0.0, 10.000046, 9.998822 
8.750075e+2, 2.6485607e+2, -430009.3, -532030.56, 1376.5865, -0.021168077, -0.0671712, -429990.72, -85587.29, 0.0, 10.000037, 9.99868 
8.7500894e+2, 2.7485424e+2, -369135.78, -450689.56, -638.81067, 0.05065051, -0.118642464, -369130.78, -122710.53, 0.0, 9.999776, 9.998692 
8.7500983e+2, 2.848532e+2, -276445.72, -349179.9, -991.33984, 0.06832473, -0.09965195, -276432.22, -128001.78, 0.0, 9.999712, 9.998746 
8.750101e+2, 2.9485276e+2, -156625.8, -241330.31, 1511.8982, 0.024055555, -0.019385893, -156598.83, -106164.41, 0.0, 9.999866, 9.998739 
8.7501025e+2, 3.048501e+2, -122941.05, -259246.94, -4629.3228, -0.03222498, -0.13037716, -122784.0, -122784.0, 0.00000006425192, 10.000017, 9.998208 
8.750111e+2, 3.1484863e+2, 4282.221, -17530.336, -17840.988, -0.013991308, -0.10322271, 14286.413, 14286.413, 0.0000011924308, 10.000113, 9.999823 
8.850023e+2, 1.2486638e+2, -1747802.1, -1738954.3, -2080.391, 0.010399813, -0.04595859, -1738489.5, -22185.201, 0.00000006865042, 9.999812, 9.999925 
8.850021e+2, 1.3486588e+2, -1620112.6, -1660641.8, 16400.537, -0.030919518, -0.060449887, -1614307.5, 4002.715, 0.0, 10.00016, 9.999624 
8.8500303e+2, 1.4486589e+2, -1511127.8, -1556057.9, 13806.205, 0.05372497, -0.020062657, -1507224.5, 13085.523, 0.0, 10.000228, 9.999634 
8.850031e+2, 1.5486509e+2, -1437175.6, -1466985.0, 12125.561, 0.03234924, -0.06824265, -1432866.4, -10549.839, 0.0, 10.000053, 9.999656 
8.850029e+2, 1.6486448e+2, -1361512.6, -1405268.1, -4960.216, 0.012368277, -0.0835575, -1360957.4, -36635.273, 0.0, 10.00001, 9.999427 
8.850028e+2, 1.7486414e+2, -1250486.3, -1301536.9, -6927.992, 0.020395108, -0.06311475, -1249562.8, -23236.445, 0.0, 10.0001, 9.999423 
8.85003e+2, 1.848636e+2, -1160778.8, -1231857.8, 16067.193, 0.017923916, -0.04801038, -1157315.5, -28983.578, 0.0, 10.000147, 9.999207 
8.850033e+2, 1.9486284e+2, -1061623.0, -1132028.3, 6387.0825, -0.0074736984, -0.04695346, -1061048.3, -30708.879, 0.0, 10.000151, 9.999216 
8.850039e+2, 2.0486192e+2, -987688.0, -1072967.3, 4139.823, -0.0071905637, -0.04873416, -987487.5, -55139.086, 0.0, 10.000105, 9.998971 
8.850048e+2, 2.1486081e+2, -903494.06, -980179.3, 8653.791, 0.02419048, -0.060472194, -902529.6, -68170.59, 0.0, 10.000004, 9.998983 
8.850055e+2, 2.2485982e+2, -797696.1, -866389.2, 3274.312, 0.037561957, -0.062894315, -797540.44, -61172.08, 0.0, 10.000005, 9.999092 
8.850059e+2, 2.3485895e+2, -682090.0, -758081.9, -4506.1772, 0.030801484, -0.06257144, -681823.75, -43447.37, 0.0, 10.000118, 9.999108 
8.8500637e+2, 2.4485797e+2, -618227.06, -711582.9, 1117.0771, 0.017245136, -0.054636158, -618213.7, -77828.03, 0.0, 10.000035, 9.998794 
8.8500684e+2, 2.5485688e+2, -561247.0, -632356.4, 1158.4753, -0.004764513, -0.046451397, -561228.1, -118831.57, 0.0, 9.999749, 9.998802 
8.850076e+2, 2.648554e+2, -476556.4, -554108.7, 2715.534, 0.005324633, -0.0667829, -476461.44, -132051.16, 0.0, 9.999716, 9.998683 
8.850088e+2, 2.748536e+2, -342670.1, -437545.44, 5203.1563, 0.0513272, -0.12337147, -342385.6, -95958.52, 0.0, 9.999956, 9.998693 
8.8500965e+2, 2.8485245e+2, -241524.94, -351428.72, 1408.8038, 0.06301486, -0.09888437, -241506.89, -93069.2, 0.0, 10.000035, 9.998574 
8.8501006e+2, 2.9485202e+2, -160478.0, -262898.06, -13585.136, 0.0357954, -0.0016467181, -158706.69, -108264.06, 0.0, 9.999923, 9.998564 
8.850103e+2, 3.048492e+2, -122936.125, -237022.95, -7536.472, -0.018970987, -0.12807807, -122440.42, -122440.42, 0.00000010587227, 9.999921, 9.998408 
8.850111e+2, 3.1484783e+2, -7831.5767, -22950.629, 11167.467, -0.02391424, -0.111005016, -1905.6016, -1905.6016, 0.0000015115112, 10.000029, 9.999826 
8.950021e+2, 1.2486668e+2, -1753357.3, -1750172.8, 14179.85, 0.009217371, -0.052184876, -1737496.0, -21196.371, 0.00000033535434, 9.99981, 9.999848 
8.950023e+2, 1.3486607e+2, -1626651.3, -1674081.4, 29302.7, -0.025344444, -0.06795124, -1612669.5, 5637.437, 0.00000000007521531, 10.000159, 9.999532 
8.950034e+2, 1.4486596e+2, -1515598.3, -1567130.6, 5379.317, 0.05803829, -0.030709544, -1515042.8, 5265.523, 0.0, 10.000235, 9.999556 
8.950031e+2, 1.5486513e+2, -1443562.8, -1480275.4, 5470.0044, 0.02485133, -0.07360035, -1442765.1, -20449.406, 0.0, 10.000053, 9.999565 
8.950028e+2, 1.6486456e+2, -1365281.5, -1412838.0, -1884.1995, 0.0015596983, -0.079885945, -1365207.0, -40885.6, 0.0, 10.000008, 9.999376 
8.950028e+2, 1.7486423e+2, -1253364.5, -1307653.0, -3382.6287, 0.00678063, -0.05154755, -1253154.5, -26829.383, 0.0, 10.0001, 9.999381 
8.950031e+2, 1.848636e+2, -1179086.4, -1270029.6, 15360.558, 0.0065647666, -0.029938197, -1176562.0, -48229.914, 0.0, 10.000147, 9.998944 
8.9500356e+2, 1.9486265e+2, -1079931.0, -1170181.8, 6055.488, -0.0049559656, -0.023332177, -1079526.5, -49183.813, 0.0, 10.000152, 9.998954 
8.950042e+2, 2.0486154e+2, -978980.06, -1054686.8, -919.2552, 0.010972903, -0.036819465, -978968.94, -46615.496, 0.0, 10.000103, 9.999098 
8.9500517e+2, 2.1486025e+2, -894778.9, -961466.56, 4349.8745, 0.058752168, -0.07910563, -894496.4, -60131.867, 0.0, 10.000001, 9.999114 
8.9500564e+2, 2.2485931e+2, -810419.0, -892527.44, 6404.997, 0.048703723, -0.074168675, -809922.4, -73549.016, 0.0, 10.000003, 9.998914 
8.950054e+2, 2.3485875e+2, -695000.6, -784849.9, -226.43945, -0.024472564, -0.025249563, -695000.06, -56620.22, 0.0, 10.000117, 9.998925 
8.95006e+2, 2.4485776e+2, -618346.94, -712122.75, -9848.6, -0.02309119, -0.009728021, -617323.75, -76934.03, 0.0, 10.000035, 9.99879 
8.950072e+2, 2.548563e+2, -561135.7, -631787.1, -9211.852, 0.058944453, -0.039619174, -559954.4, -117550.74, 0.0, 9.999747, 9.998808 
8.950079e+2, 2.648548e+2, -471031.94, -542377.9, 10829.918, 0.067016736, -0.066961475, -469424.25, -125007.266, 0.0, 9.999714, 9.998764 
8.950082e+2, 2.748533e+2, -337925.9, -426540.4, 14811.066, -0.0039540716, -0.09665475, -335515.9, -89086.055, 0.0, 9.999951, 9.998772 
8.9500904e+2, 2.84852e+2, -269556.63, -408704.28, -1808.2014, -0.0017011935, -0.07629007, -269533.16, -121090.24, 0.0, 10.0000305, 9.998183 
8.950104e+2, 2.948508e+2, -188236.28, -320517.88, -16298.898, 0.07831305, -0.013148843, -186257.64, -135800.92, 0.0, 9.999922, 9.998169 
8.9501095e+2, 3.048481e+2, -78554.414, -144162.06, -4031.1345, 0.04789023, -0.141524, -78307.66, -78307.66, 0.00000013409642, 9.999918, 9.999047 
8.95011e+2, 3.148478e+2, 21676.473, 41672.477, 15835.814, -0.03332516, -0.08309083, 50402.344, 50402.344, 0.0000016978646, 10.000014, 10.000277 
9.0500194e+2, 1.2486646e+2, -1719238.0, -1736296.6, -11525.774, -0.0021555275, -0.06291828, -1713428.8, 2871.8813, 0.0000010631732, 10.0000515, 9.999829 
9.0500236e+2, 1.3486584e+2, -1664370.1, -1692647.3, 6666.492, -0.02262482, -0.08217731, -1662877.3, -44568.74, 0.000000007369457, 9.999902, 9.999529 
9.050035e+2, 1.4486574e+2, -1562936.3, -1587889.4, -13362.067, 0.06353238, -0.04454601, -1557131.5, -36821.363, 0.0, 9.999904, 9.999571 
9.050031e+2, 1.5486515e+2, -1440304.8, -1477753.1, -7276.1475, 0.019106928, -0.06439457, -1438940.8, -16625.088, 0.0, 10.00007, 9.999576 
9.0500283e+2, 1.6486458e+2, -1350772.3, -1413589.4, -8682.606, -0.0060881064, -0.06451136, -1349594.3, -25273.025, 0.0, 10.00014, 9.999308 
9.050029e+2, 1.7486408e+2, -1253683.0, -1314511.4, -12842.23, 0.002375523, -0.047199942, -1251082.9, -24756.129, 0.0, 10.00013, 9.999319 
9.050032e+2, 1.848634e+2, -1184754.8, -1274226.5, 13399.2295, 0.0059546405, -0.028691607, -1182791.1, -54456.742, 0.0, 10.000117, 9.998929 
9.050037e+2, 1.9486247e+2, -1088659.1, -1176733.3, 22324.887, 0.00073391706, -0.016676946, -1083323.5, -52978.703, 0.0, 10.000102, 9.998934 
9.050043e+2, 2.0486136e+2, -978099.7, -1053778.9, 19549.018, 0.01417984, -0.029090723, -973348.25, -40992.797, 0.0, 10.000107, 9.999103 
9.050051e+2, 2.1486005e+2, -874585.6, -951243.6, 13876.571, 0.04791836, -0.07414646, -872151.0, -37784.523, 0.0, 10.000137, 9.999119 
9.0500563e+2, 2.2485906e+2, -803127.9, -898472.8, 16036.312, 0.040842015, -0.071630664, -800503.0, -64127.047, 0.0, 10.000094, 9.998829 
9.0500563e+2, 2.3485836e+2, -720681.8, -806705.6, 15918.732, -0.011020954, -0.025487484, -717830.5, -79446.8, 0.0, 9.999983, 9.998839 
9.050061e+2, 2.4485731e+2, -626206.9, -722338.75, 6488.4375, -0.009505307, -0.009697089, -625770.9, -85376.445, 0.0, 10.0000105, 9.998733 
9.0500706e+2, 2.548558e+2, -501743.3, -609729.4, 1614.2123, 0.049715463, -0.035563324, -501719.2, -59310.637, 0.0, 10.000183, 9.998749 
9.0500784e+2, 2.6485428e+2, -409669.4, -525038.4, 15936.654, 0.059334513, -0.059413332, -407508.44, -63085.793, 0.0, 10.000189, 9.998654 
9.050084e+2, 2.748527e+2, -336090.22, -437960.94, 4552.936, 0.016000107, -0.08616815, -335887.16, -89450.3, 0.0, 10.000016, 9.998662 
9.050092e+2, 2.8485137e+2, -275441.06, -408650.9, -4475.19, 0.019540448, -0.0623559, -275290.88, -126840.72, 0.0, 9.999977, 9.998211 
9.050104e+2, 2.948503e+2, -164501.22, -304989.3, 12111.06, 0.073033854, 0.004846195, -163464.81, -113001.734, 0.0, 10.000069, 9.998204 
9.050108e+2, 3.0484772e+2, -63432.99, -120790.98, 19695.725, 0.04182027, -0.12080128, -57321.09, -57321.09, 0.0000001316986, 9.999954, 9.99919 
9.0501094e+2, 3.148476e+2, -43693.332, 1477.4714, -1956.4098, -0.022036158, -0.05741383, 1562.0479, 1562.0479, 0.0000016698094, 9.9996, 10.000201 
9.150017e+2, 1.2486583e+2, -1711451.5, -1724089.1, -17961.588, -0.03272164, -0.07455066, -1698729.6, 17577.043, 0.0000026057617, 10.000068, 9.999907 
9.150022e+2, 1.348652e+2, -1657443.4, -1677157.1, 420.19635, -0.02872413, -0.103459045, -1657434.4, -39119.918, 0.00000007607973, 9.999896, 9.999638 
9.1500336e+2, 1.4486523e+2, -1557080.0, -1574911.3, -7353.9873, 0.0623987, -0.06286509, -1554438.5, -34123.508, 0.0, 9.999899, 9.999662 
9.150031e+2, 1.5486516e+2, -1433380.4, -1463393.9, -479.63794, 0.01351418, -0.040163092, -1433372.8, -11057.085, 0.0, 10.000071, 9.999673 
9.1500294e+2, 1.6486467e+2, -1356172.4, -1426431.9, -10286.263, -0.011531937, -0.03464522, -1354697.4, -30376.473, 0.0, 10.000146, 9.999218 
9.1500306e+2, 1.7486377e+2, -1259974.3, -1327781.1, -13601.179, 0.005709856, -0.049002793, -1257347.8, -31017.344, 0.0, 10.00013, 9.9992285 
9.1500336e+2, 1.84863e+2, -1168764.1, -1240589.3, 11912.554, 0.013793011, -0.044148684, -1166839.9, -38501.465, 0.0, 10.000114, 9.999162 
9.1500384e+2, 1.9486237e+2, -1072705.6, -1143105.9, 21408.895, 0.00718571, -0.02728483, -1066706.4, -36361.203, 0.0, 10.000099, 9.999166 
9.150043e+2, 2.0486145e+2, -987786.44, -1073516.1, 19614.955, -0.00081247167, -0.025001554, -983511.7, -51157.76, 0.0, 10.000105, 9.998968 
9.150047e+2, 2.1486025e+2, -884200.06, -970847.3, 14486.795, -0.00903562, -0.04570975, -881842.1, -47477.49, 0.0, 10.000135, 9.998985 
9.1500545e+2, 2.2485906e+2, -802711.1, -897807.6, 10667.121, 0.013766424, -0.055919208, -801529.25, -65153.363, 0.0, 10.000095, 9.998834 
9.150064e+2, 2.3485784e+2, -720376.56, -805626.06, 11626.296, 0.06957338, -0.062627405, -718819.44, -80431.65, 0.0, 9.99998, 9.998848 
9.1500676e+2, 2.4485669e+2, -634092.6, -738479.7, 12378.111, 0.05490927, -0.05292337, -632644.94, -92245.57, 0.0, 10.000009, 9.998623 
9.150064e+2, 2.5485554e+2, -510519.0, -627356.3, 8434.163, -0.034031592, -0.033757985, -509913.28, -67502.37, 0.0, 10.000181, 9.99863 
9.1500723e+2, 2.6485392e+2, -431077.94, -569301.8, 9783.523, -0.018526347, -0.04454594, -430388.88, -85961.89, 0.0, 10.000187, 9.998351 
9.1500926e+2, 2.748518e+2, -357382.34, -482232.03, -968.8061, 0.10734242, -0.09233664, -357374.8, -110927.02, 0.0, 10.000015, 9.998359 
9.150103e+2, 2.848507e+2, -245243.63, -344817.2, -1710.4148, 0.12187983, -0.05697046, -245214.27, -96755.04, 0.0, 9.999972, 9.9986515 
9.1501e+2, 2.9485047e+2, -133873.98, -238966.33, 16245.073, 0.019047404, 0.052598983, -131420.13, -80958.64, 0.0, 10.000059, 9.998663 
9.1501004e+2, 3.0484802e+2, -88536.97, -171205.2, 7100.604, -0.03694222, -0.066169076, -87931.516, -87931.516, 0.00000009563079, 9.999946, 9.998849 
9.1501075e+2, 3.148471e+2, -83487.77, -81151.49, -13290.64, 0.0013461784, -0.043979075, -68977.76, -68977.76, 0.0000014046396, 9.9996, 9.999634 
9.250015e+2, 1.24865234e+2, -1807354.8, -1755494.6, -8448.19, -0.023356201, -0.08179345, -1754153.0, -37840.285, 0.0000053561066, 9.999351, 10.000033 
9.25002e+2, 1.3486484e+2, -1668509.9, -1666819.8, 9640.49, -0.037904847, -0.10191293, -1657987.4, -39669.47, 0.00000033393198, 9.999754, 9.999777 
9.250032e+2, 1.448649e+2, -1545489.8, -1566372.3, 1717.2208, 0.048751995, -0.066254295, -1545349.5, -25031.572, 0.0, 9.999968, 9.999688 
9.250032e+2, 1.5486482e+2, -1441235.8, -1463505.8, 1669.6359, 0.016916273, -0.0477243, -1441111.3, -18792.451, 0.0, 10.000003, 9.999703 
9.250031e+2, 1.6486435e+2, -1365259.5, -1425748.3, -7284.235, -0.0042368467, -0.0427491, -1364394.8, -40070.957, 0.0, 10.000066, 9.999259 
9.250032e+2, 1.7486355e+2, -1252421.5, -1320019.8, -1240.148, 0.002994878, -0.052763328, -1252398.8, -26066.285, 0.0, 10.000164, 9.999265 
9.250034e+2, 1.8486279e+2, -1161361.1, -1234380.5, 17920.883, 0.007333451, -0.049653113, -1157200.0, -28859.71, 0.0, 10.0001545, 9.999185 
9.250038e+2, 1.9486211e+2, -1079924.5, -1143287.8, 10197.579, 0.0009549779, -0.040244047, -1078323.8, -47976.316, 0.0, 10.000037, 9.999193 
9.250044e+2, 2.0486124e+2, -995419.3, -1078505.8, 12154.58, -0.0042970334, -0.033913802, -993677.75, -61322.023, 0.0, 10.000059, 9.998955 
9.2500496e+2, 2.1486019e+2, -871337.2, -966479.9, 15698.848, -0.0065173963, -0.03802104, -868813.75, -34448.41, 0.0, 10.000232, 9.998968 
9.250056e+2, 2.2485895e+2, -777590.75, -889438.94, 8454.963, 0.016752915, -0.048791792, -776955.2, -40578.254, 0.0, 10.000284, 9.998799 
9.250065e+2, 2.3485753e+2, -689273.6, -794335.0, 4417.8184, 0.06695967, -0.074608415, -689088.2, -50697.453, 0.0, 10.000211, 9.998815 
9.250068e+2, 2.4485627e+2, -617050.94, -736802.5, 11802.666, 0.051926535, -0.06945255, -615898.75, -75495.51, 0.0, 10.000154, 9.998564 
9.2500657e+2, 2.548552e+2, -522038.13, -639346.5, 11384.635, -0.03251582, -0.038133275, -520943.47, -78528.95, 0.0, 10.00013, 9.998571 
9.2500746e+2, 2.648536e+2, -436235.63, -578905.0, 21307.941, -0.018061958, -0.036193885, -433121.22, -88690.875, 0.0, 10.000182, 9.998289 
9.2500937e+2, 2.748516e+2, -319793.16, -470735.22, 28051.436, 0.10159665, -0.070912965, -314748.6, -68297.58, 0.0, 10.000303, 9.9983 
9.250103e+2, 2.8485036e+2, -203816.78, -324043.28, 19811.52, 0.12080222, -0.04007795, -200636.28, -52173.19, 0.0, 10.000254, 9.998658 
9.2501014e+2, 2.9484993e+2, -138051.25, -239937.78, 2418.5576, 0.03447183, 0.047110565, -137993.88, -87527.11, 0.0, 10.000025, 9.998673 
9.250101e+2, 3.048476e+2, -93594.695, -179132.25, -14818.596, -0.022168899, -0.062571995, -91100.25, -91100.25, 0.00000004550982, 9.999933, 9.9988 
9.2501044e+2, 3.1484678e+2, -44845.586, -88135.86, -12902.587, -0.010126181, -0.025110198, -41291.742, -41291.742, 0.0000009683944, 9.999976, 9.999405 
9.3500113e+2, 1.2486472e+2, -1796976.5, -1732684.5, 6994.631, 0.007852484, -0.08987646, -1731932.3, -15613.712, 0.000009830683, 9.999344, 10.000193 
9.350016e+2, 1.3486484e+2, -1657070.1, -1643840.6, 25486.732, -0.051553465, -0.0749217, -1624124.3, -5806.2856, 0.0000009955157, 9.999758, 9.999932 
9.3500286e+2, 1.4486486e+2, -1546132.8, -1571385.9, 2020.5378, 0.021439685, -0.050154727, -1545972.0, -25654.133, 0.00000000002439963, 9.999981, 9.999648 
9.350032e+2, 1.5486418e+2, -1444564.1, -1470283.4, 2912.988, 0.026755318, -0.08580945, -1444238.4, -21914.104, 0.0, 10.000001, 9.999659 
9.350033e+2, 1.648637e+2, -1353645.4, -1400862.1, -4229.538, 0.012118211, -0.08862004, -1353269.5, -28940.326, 0.0, 10.000063, 9.999432 
9.3500316e+2, 1.7486344e+2, -1240925.1, -1295492.6, 2509.0093, -0.008195708, -0.05898905, -1240810.0, -14477.623, 0.0, 10.000162, 9.999434 
9.3500334e+2, 1.848628e+2, -1175529.6, -1263554.5, 12752.51, -0.016812455, -0.04452589, -1173719.4, -45379.844, 0.0, 10.000153, 9.998986 
9.350037e+2, 1.9486171e+2, -1093347.4, -1171451.3, 5309.181, -0.018369745, -0.055225834, -1092988.1, -62637.246, 0.0, 10.000038, 9.999 
9.3500453e+2, 2.0486075e+2, -987418.94, -1062403.4, 17108.936, 0.0035317892, -0.05557329, -983699.7, -51339.223, 0.0, 10.000061, 9.999065 
9.350057e+2, 2.1485989e+2, -864160.3, -950862.06, 21747.0, 0.052882604, -0.050241742, -859011.4, -24643.375, 0.0, 10.000228, 9.999078 
9.350062e+2, 2.2485879e+2, -783706.3, -901604.8, 4773.6885, 0.046453476, -0.049190693, -783513.4, -47134.867, 0.0, 10.000281, 9.998717 
9.3500584e+2, 2.3485743e+2, -695632.75, -807023.2, 1398.4553, -0.019971024, -0.061198153, -695615.25, -57222.953, 0.0, 10.000208, 9.998729 
9.3500626e+2, 2.4485607e+2, -617441.75, -737889.4, 10144.506, -0.019234044, -0.059173968, -616593.3, -76187.55, 0.0, 10.0001545, 9.998557 
9.350076e+2, 2.5485477e+2, -522164.44, -639727.56, 10893.041, 0.05174607, -0.049300738, -521163.66, -78744.59, 0.0, 10.000129, 9.99857 
9.3500835e+2, 2.6485345e+2, -423831.78, -552489.75, 25630.754, 0.057954364, -0.034800377, -418913.72, -74481.22, 0.0, 10.000179, 9.998471 
9.3500865e+2, 2.7485204e+2, -307902.78, -444787.25, 33097.863, -0.0030546687, -0.02186979, -300319.97, -53873.77, 0.0, 10.000298, 9.998481 
9.3500954e+2, 2.8485054e+2, -233787.2, -385759.28, 11336.22, 0.0146812275, -0.011334931, -232946.23, -84484.83, 0.0, 10.000251, 9.998237 
9.350109e+2, 2.948488e+2, -168192.23, -303053.97, -5129.8564, 0.11399016, -0.011467053, -167997.39, -117518.9, 0.0, 10.000026, 9.99824 
9.35011e+2, 3.0484644e+2, -77890.086, -144922.7, -13716.669, 0.080672994, -0.11061778, -75191.89, -75191.89, 0.000000010385675, 9.9999275, 9.999039 
9.350099e+2, 3.1484652e+2, -39528.26, -73019.13, -9721.861, -0.06237795, -0.009011668, -36910.74, -36910.74, 0.00000050425, 9.999959, 9.9995165 
9.450007e+2, 1.2486462e+2, -1739378.6, -1711178.6, 33028.52, 0.008661438, -0.0747213, -1689366.3, 26953.238, 0.000016700973, 9.999766, 10.000137 
9.450015e+2, 1.3486457e+2, -1656667.9, -1647336.4, 34823.613, -0.040810466, -0.0737987, -1616867.3, 1453.2291, 0.0000023433604, 9.999778, 9.999898 
9.450028e+2, 1.4486448e+2, -1566293.5, -1574466.4, 2110.4495, 0.025250766, -0.060170054, -1565780.8, -45459.43, 0.0000000053592455, 9.999818, 9.999704 
9.450031e+2, 1.548639e+2, -1456418.9, -1469436.9, 9871.457, 0.01713531, -0.0926764, -1451103.6, -28777.074, 0.0, 9.999893, 9.999716 
9.450032e+2, 1.6486348e+2, -1373402.8, -1411169.4, 757.3829, 0.001903317, -0.09106832, -1373387.5, -49056.59, 0.0, 9.999931, 9.999424 
9.450032e+2, 1.7486328e+2, -1274865.3, -1312147.3, -7259.555, -0.00896475, -0.05599304, -1273501.6, -47167.54, 0.0, 9.999932, 9.99943 
9.4500345e+2, 1.8486264e+2, -1187073.5, -1265333.3, 6940.0522, -0.015043896, -0.041871253, -1186462.8, -58121.664, 0.0, 10.000059, 9.999018 
9.450039e+2, 1.9486153e+2, -1049486.5, -1147053.6, 16489.64, -0.020718955, -0.05840669, -1046774.94, -16422.432, 0.0, 10.000325, 9.999029 
9.450047e+2, 2.0486055e+2, -948629.25, -1043779.1, 28372.676, 0.00089286803, -0.06086981, -940811.2, -8449.05, 0.0, 10.000328, 9.999064 
9.450059e+2, 2.1485971e+2, -889850.1, -963129.1, 23266.086, 0.05297196, -0.05398598, -883087.25, -48717.43, 0.0, 10.000052, 9.999078 
9.450064e+2, 2.2485869e+2, -825586.0, -924488.94, 9068.051, 0.043954644, -0.045038827, -824761.44, -88381.41, 0.0, 10.000007, 9.9986925 
9.450059e+2, 2.3485744e+2, -697162.4, -810906.1, 9660.395, -0.030793337, -0.041556433, -696347.75, -57954.754, 0.0, 10.000211, 9.998701 
9.4500643e+2, 2.4485609e+2, -595005.2, -724472.06, 18640.174, -0.025857246, -0.03976916, -592374.9, -51968.33, 0.0, 10.000298, 9.99858 
9.4500786e+2, 2.5485462e+2, -502865.4, -627572.3, 20237.316, 0.06356089, -0.047814615, -499663.53, -57242.734, 0.0, 10.00025, 9.998595 
9.450087e+2, 2.6485327e+2, -412008.2, -540543.6, 35488.906, 0.06761062, -0.039474733, -402860.63, -58426.605, 0.0, 10.000234, 9.998528 
9.450088e+2, 2.74852e+2, -308770.1, -438777.8, 32772.996, -0.017659293, -0.019075567, -300975.78, -54529.62, 0.0, 10.000264, 9.998538 
9.450096e+2, 2.8485042e+2, -234952.63, -401707.0, 11611.961, -0.0061155246, -0.011179702, -234147.9, -85685.83, 0.0, 10.000309, 9.998099 
9.45011e+2, 2.948484e+2, -130763.48, -300389.84, 16516.27, 0.1071463, -0.023610165, -129170.27, -78688.11, 0.0, 10.00035, 9.998102 
9.4501126e+2, 3.0484614e+2, -24521.705, -118730.1, 12998.359, 0.0905811, -0.10843162, -22761.162, -22761.162, 0.00000000032400083, 10.000293, 9.9990425 
9.450102e+2, 3.1484625e+2, -21644.479, -77896.36, -4153.3794, -0.03809946, -0.0071448735, -21339.467, -21339.467, 0.00000016973306, 10.00014, 9.999396 
9.5500004e+2, 1.2486504e+2, -1755945.0, -1750131.0, 30849.41, -0.03755567, -0.033759315, -1722052.0, -5737.249, 0.000026645826, 9.999784, 9.999863 
9.5500153e+2, 1.348641e+2, -1673372.9, -1681453.1, 35278.89, -0.008123043, -0.097939305, -1641903.5, -23578.701, 0.00000475329, 9.999774, 9.999666 
9.550029e+2, 1.4486384e+2, -1556889.1, -1553380.1, 4645.4175, 0.056736358, -0.09685805, -1550168.9, -29841.434, 0.000000046136613, 9.999811, 9.999852 
9.5500267e+2, 1.5486403e+2, -1445844.3, -1447175.4, 13169.165, -0.014179066, -0.068409525, -1433323.8, -10998.698, 0.0, 9.999892, 9.999869 
9.550027e+2, 1.6486377e+2, -1386387.1, -1438696.8, 414.4181, -0.038195882, -0.049313437, -1386383.9, -62055.566, 0.0, 9.999932, 9.999234 
9.5500326e+2, 1.7486309e+2, -1287870.8, -1339623.3, -7141.598, -0.0003689818, -0.043319218, -1286903.4, -60566.41, 0.0, 9.999933, 9.999241 
9.550038e+2, 1.8486236e+2, -1168732.3, -1227452.8, 15813.496, 0.011056585, -0.04086443, -1164744.5, -36399.797, 0.0, 10.00006, 9.999278 
9.5500433e+2, 1.948616e+2, -1031643.1, -1109469.5, 26061.203, -0.008303302, -0.048797593, -1023722.3, 6629.236, 0.0, 10.000323, 9.999289 
9.550048e+2, 2.048607e+2, -957551.0, -1061702.4, 17086.709, -0.0150744, -0.04946127, -954819.44, -22459.348, 0.0, 10.000324, 9.998943 
9.5500535e+2, 2.1485968e+2, -898516.7, -980689.44, 12228.089, -0.0073646526, -0.049517356, -896735.6, -62365.184, 0.0, 10.000051, 9.998959 
9.55006e+2, 2.2485866e+2, -823179.6, -919513.3, 15145.84, 0.008606922, -0.03616196, -820854.44, -84473.21, 0.0, 10.000006, 9.998728 
9.550068e+2, 2.3485762e+2, -694464.94, -805256.06, 17356.697, 0.032388043, -0.015773177, -691809.5, -53416.918, 0.0, 10.000211, 9.998741 
9.550073e+2, 2.4485634e+2, -592016.5, -717968.2, 16726.637, 0.030097505, -0.011670886, -589833.0, -49427.86, 0.0, 10.000297, 9.998626 
9.550075e+2, 2.5485477e+2, -500438.4, -621575.6, 18721.102, 0.0009343852, -0.032710824, -497611.16, -55191.863, 0.0, 10.000245, 9.998638 
9.550084e+2, 2.6485318e+2, -416805.34, -550584.56, 36230.305, 0.009059668, -0.048339278, -407623.56, -63189.117, 0.0, 10.000233, 9.99846 
9.5500976e+2, 2.7485153e+2, -313238.7, -448406.53, 34499.438, 0.054576583, -0.06282915, -304942.47, -58491.82, 0.0, 10.000264, 9.998473 
9.550105e+2, 2.848501e+2, -225549.06, -381009.6, 13216.842, 0.05599669, -0.041006133, -224433.42, -75968.49, 0.0, 10.000304, 9.998243 
9.550104e+2, 2.948489e+2, -121604.6, -278818.16, 19025.188, 0.011508184, 0.009918268, -119335.03, -68857.51, 0.0, 10.0003395, 9.998255 
9.5501065e+2, 3.0484673e+2, -41677.617, -152622.17, 7332.7173, 0.005105918, -0.0558848, -41195.074, -41195.074, 0.0, 10.000283, 9.998815 
9.550113e+2, 3.1484595e+2, -46134.184, -127180.836, -7503.54, 0.054602068, -0.020630686, -45445.336, -45445.336, 0.000000027453995, 10.000133, 9.999062 
9.649999e+2, 1.2486445e+2, -1783372.4, -1758241.3, -13360.259, -0.014110995, -0.033124506, -1752465.9, -36145.12, 0.000040247374, 9.9995775, 9.999904 
9.6500117e+2, 1.3486362e+2, -1693180.6, -1683496.9, 14625.597, -0.013124716, -0.09350757, -1672932.5, -54602.805, 0.0000086557575, 9.999608, 9.999731 
9.650025e+2, 1.448634e+2, -1572036.4, -1559331.6, -4762.3936, 0.03782333, -0.092404336, -1557744.8, -37412.61, 0.00000019058375, 9.999702, 9.999863 
9.6500254e+2, 1.5486364e+2, -1454047.8, -1449673.8, -9195.909, -0.013302706, -0.05849006, -1442408.4, -20078.89, 0.0, 9.99983, 9.999881 
9.650028e+2, 1.6486344e+2, -1383002.0, -1429827.5, -19635.605, -0.032312714, -0.038723875, -1375858.0, -51525.82, 0.0, 9.999926, 9.999298 
9.650032e+2, 1.7486277e+2, -1273070.6, -1324784.1, -8076.749, -0.0073537803, -0.036769122, -1271838.5, -45498.188, 0.0, 10.000003, 9.999309 
9.650037e+2, 1.8486209e+2, -1176568.6, -1220599.0, 19580.465, 0.004566403, -0.03820706, -1169120.9, -40773.49, 0.0, 9.999961, 9.9993725 
9.6500444e+2, 1.9486138e+2, -1101839.9, -1132299.0, 16598.332, -0.0008958831, -0.050113842, -1094542.9, -64189.324, 0.0, 9.999795, 9.999385 
9.650049e+2, 2.048606e+2, -1022083.25, -1083423.8, 8289.755, -0.01229249, -0.049494922, -1020982.7, -88621.63, 0.0, 9.999843, 9.999025 
9.6500516e+2, 2.1485971e+2, -882986.6, -964320.8, 18305.525, -0.0292229, -0.043095447, -879056.56, -44686.58, 0.0, 10.000119, 9.999038 
9.6500593e+2, 2.2485872e+2, -792677.44, -907083.5, 29792.621, -0.012014123, -0.030403975, -785384.06, -49003.4, 0.0, 10.000225, 9.998708 
9.65007e+2, 2.3485756e+2, -704784.3, -812420.94, 25952.754, 0.040297158, -0.018987913, -698853.5, -60460.313, 0.0, 10.00015, 9.99872 
9.6500766e+2, 2.4485628e+2, -601192.8, -716429.44, 23762.94, 0.042545054, -0.01745984, -596485.0, -56079.3, 0.0, 10.000208, 9.998678 
9.650077e+2, 2.5485483e+2, -471922.78, -601674.3, 26079.404, -0.0075718164, -0.03299324, -466877.16, -24458.842, 0.0, 10.000416, 9.9986925 
9.650086e+2, 2.6485318e+2, -389232.5, -543563.94, 39764.77, 0.00041136163, -0.05128969, -379589.3, -35155.742, 0.0, 10.000451, 9.998403 
9.6501017e+2, 2.7485135e+2, -314480.28, -455544.7, 37736.105, 0.06887659, -0.07780959, -305019.94, -58568.285, 0.0, 10.000285, 9.998414 
9.6501094e+2, 2.8484994e+2, -224939.03, -372706.94, 20654.236, 0.06914864, -0.055454448, -222106.39, -73640.42, 0.0, 10.000275, 9.998315 
9.6501076e+2, 2.9484895e+2, -100718.875, -260604.02, 18988.559, -0.0014593232, 0.009673346, -98494.664, -48018.098, 0.0, 10.000448, 9.998328 
9.65011e+2, 3.0484697e+2, -6297.801, -127195.164, 7367.6787, -0.0027989536, -0.045351133, -5850.458, -5850.458, 0.0, 10.000492, 9.998888 
9.650118e+2, 3.1484604e+2, -8476.848, -107510.695, 15111.5625, 0.08137958, -0.032338712, -6222.302, -6222.302, 0.00000000015790982, 10.000386, 9.999074 
9.750003e+2, 1.2486287e+2, -1758248.3, -1704930.1, -14052.301, 0.060393646, -0.07796594, -1701453.3, 14884.146, 0.000057975532, 9.999572, 10.000273 
9.750004e+2, 1.3486317e+2, -1667162.5, -1630172.0, 17135.674, -0.059112977, -0.06040392, -1623454.0, -5119.6855, 0.000014441633, 9.99961, 10.000096 
9.7500145e+2, 1.448632e+2, -1581501.5, -1579452.0, 241.57414, -0.03584197, -0.04642194, -1579424.0, -59089.582, 0.0000005546723, 9.999704, 9.999723 
9.750027e+2, 1.548628e+2, -1464386.9, -1470883.3, -4033.897, 0.018113296, -0.062374733, -1462456.0, -40116.953, 0.0, 9.999829, 9.999736 
9.750032e+2, 1.6486251e+2, -1360753.9, -1383569.0, -17563.297, 0.017386543, -0.058183998, -1351218.6, -26876.35, 0.0, 9.999925, 9.999617 
9.7500294e+2, 1.748624e+2, -1250572.6, -1277812.3, -5305.578, -0.03194763, -0.035505593, -1249575.8, -23232.21, 0.0, 10.000001, 9.999633 
9.750033e+2, 1.8486188e+2, -1181636.1, -1230605.5, 12553.704, -0.037813198, -0.034381203, -1178605.5, -50256.75, 0.0, 9.999958, 9.999306 
9.7500426e+2, 1.9486094e+2, -1106705.0, -1142457.4, 9923.393, 0.00039735428, -0.0631331, -1104135.4, -73777.25, 0.0, 9.999795, 9.999315 
9.7500503e+2, 2.0486026e+2, -1001940.25, -1041807.1, 17085.496, 0.008138062, -0.061085798, -995620.0, -63255.426, 0.0, 9.999843, 9.999311 
9.750055e+2, 2.1485987e+2, -862829.94, -922133.5, 28159.11, -0.014780837, -0.033821624, -851589.6, -17221.695, 0.0, 10.000116, 9.999329 
9.7500604e+2, 2.2485891e+2, -799152.06, -919936.56, 26035.816, -0.020284997, -0.027747683, -793778.9, -57401.168, 0.0, 10.000222, 9.998621 
9.750067e+2, 2.3485734e+2, -711684.5, -825896.25, 22861.438, -0.008004185, -0.050514508, -707278.4, -68884.01, 0.0, 10.000146, 9.99863 
9.750076e+2, 2.4485596e+2, -597004.75, -707565.4, 30669.838, 0.010603392, -0.055400424, -589066.75, -48659.082, 0.0, 10.000206, 9.99874 
9.750086e+2, 2.548548e+2, -467029.1, -591597.4, 34160.137, 0.035346266, -0.049429834, -458276.44, -15858.842, 0.0, 10.000416, 9.998762 
9.7500944e+2, 2.6485333e+2, -393317.38, -551421.5, 34011.406, 0.03972449, -0.050422244, -386311.3, -41880.04, 0.0, 10.000448, 9.99835 
9.7501004e+2, 2.748516e+2, -318869.38, -463674.53, 32423.566, 0.022898003, -0.06461757, -311940.84, -65491.93, 0.0, 10.00028, 9.998361 
9.750109e+2, 2.8485003e+2, -225978.45, -374614.47, 26874.89, 0.030512761, -0.053062763, -221268.45, -72803.69, 0.0, 10.000272, 9.998303 
9.750118e+2, 2.9484865e+2, -101863.43, -262219.72, 26598.193, 0.063262105, -0.022293806, -97566.73, -47087.867, 0.0, 10.000443, 9.99832 
9.750121e+2, 3.0484688e+2, 17915.865, -75226.07, 3591.781, 0.06303605, -0.075732425, 18054.168, 18054.168, 0.0, 10.000484, 9.99925 
9.750117e+2, 3.1484643e+2, 13188.097, -58636.04, 13209.391, 0.036349818, -0.053011384, 15540.433, 15540.433, 0.0, 10.000369, 9.999418 
9.8499984e+2, 1.2486178e+2, -1772761.6, -1697886.0, 448.8817, 0.06121279, -0.08943593, -1697883.3, 18465.625, 0.00008015815, 9.999411, 10.0004 
9.85e+2, 1.3486244e+2, -1678428.3, -1620664.1, 14534.899, -0.04827227, -0.048945844, -1617213.0, 1129.2031, 0.000022452736, 9.999468, 10.000231 
9.850011e+2, 1.4486258e+2, -1603083.5, -1582624.6, -1736.648, -0.037009392, -0.034206126, -1582478.3, -62137.203, 0.0000013019285, 9.999524, 9.999789 
9.8500234e+2, 1.548621e+2, -1501187.3, -1480480.1, 9472.505, 0.010274906, -0.06520974, -1476800.6, -54454.363, 0.0, 9.999542, 9.999807 
9.850029e+2, 1.6486186e+2, -1389967.1, -1382050.6, 1496.9623, 0.009613649, -0.06782127, -1381777.0, -57428.117, 0.0, 9.999658, 9.999755 
9.850028e+2, 1.7486188e+2, -1258250.1, -1265945.1, -1196.937, -0.03398015, -0.044380777, -1258068.3, -31719.928, 0.0, 9.999881, 9.999771 
9.8500323e+2, 1.8486147e+2, -1181347.8, -1225153.5, 4230.3936, -0.04003446, -0.041652177, -1180943.0, -52590.61, 0.0, 9.999937, 9.999353 
9.8500395e+2, 1.9486059e+2, -1099744.3, -1133867.1, 9899.7705, -0.0097819185, -0.0677646, -1097080.1, -66718.92, 0.0, 9.999819, 9.999364 
9.850048e+2, 2.0485999e+2, -1005867.2, -1034130.44, 26007.756, 0.0015198023, -0.06537821, -990399.75, -58032.793, 0.0, 9.999774, 9.999398 
9.850055e+2, 2.1485966e+2, -900849.44, -930588.6, 20994.574, -0.006584273, -0.04110995, -889992.06, -55622.58, 0.0, 9.999813, 9.999416 
9.850062e+2, 2.2485875e+2, -830747.5, -924978.56, 15981.08, -0.011775601, -0.039012156, -828110.94, -91732.48, 0.0, 9.999963, 9.99871 
9.850068e+2, 2.3485722e+2, -693507.0, -807445.3, 25566.795, -0.014430934, -0.06576085, -688033.06, -49638.926, 0.0, 10.00023, 9.998715 
9.8500776e+2, 2.4485585e+2, -582915.44, -707820.4, 35205.348, 0.0017563838, -0.07130627, -573676.0, -33268.617, 0.0, 10.000336, 9.998676 
9.8500896e+2, 2.5485465e+2, -494513.28, -612567.4, 26907.977, 0.03648635, -0.063749634, -488669.44, -46250.953, 0.0, 10.00026, 9.9986925 
9.8500985e+2, 2.6485324e+2, -409932.75, -552415.06, 23291.797, 0.040432647, -0.058260918, -406221.84, -61790.098, 0.0, 10.000304, 9.998412 
9.850103e+2, 2.7485168e+2, -284984.47, -439853.25, 29251.686, 0.012633065, -0.060069863, -279643.6, -33196.336, 0.0, 10.000483, 9.9984255 
9.8501116e+2, 2.848501e+2, -192402.16, -361564.72, 28466.955, 0.024642447, -0.053201243, -187740.17, -39277.01, 0.0, 10.000518, 9.998275 
9.850124e+2, 2.9484847e+2, -114153.17, -271586.63, 26365.816, 0.07852581, -0.044760358, -109854.97, -59375.332, 0.0, 10.000375, 9.998288 
9.850128e+2, 3.048467e+2, 13464.947, -74857.98, -5497.7476, 0.08516755, -0.096178934, 13805.845, 13805.845, 0.0, 10.000444, 9.99927 
9.850124e+2, 3.1484628e+2, 68851.125, -33323.047, -24937.365, 0.04861963, -0.07264061, 74612.63, 74612.63, 0.0, 10.000757, 9.999406 
9.9499834e+2, 1.24861196e+2, -1782894.8, -1718396.9, -1377.562, -0.025766619, -0.071562156, -1718367.5, -2012.6034, 0.00010704937, 9.999409, 10.000259 
9.950001e+2, 1.3486148e+2, -1686597.5, -1637341.1, 17711.959, 0.017676698, -0.058319207, -1631633.5, -13280.885, 0.000032992957, 9.999467, 10.000116 
9.9500126e+2, 1.448616e+2, -1583559.4, -1541997.8, -1272.427, 0.031271763, -0.054383412, -1541958.8, -21607.229, 0.0000026281716, 9.999522, 10.000069 
9.950013e+2, 1.5486158e+2, -1480747.4, -1437842.3, 10591.466, -0.039829995, -0.0675273, -1435370.1, -13019.188, 0.00000000019976186, 9.99954, 10.000101 
9.9500185e+2, 1.6486149e+2, -1393685.8, -1389007.5, 9085.873, -0.05902928, -0.069196835, -1381964.5, -57612.668, 0.0, 9.999654, 9.999709 
9.950029e+2, 1.7486127e+2, -1261666.0, -1273286.3, 7139.6646, -0.015173553, -0.06355062, -1258271.1, -31916.924, 0.0, 9.999882, 9.999722 
9.9500346e+2, 1.8486093e+2, -1169826.9, -1201411.0, -1117.3737, -0.0049311626, -0.059162606, -1169787.4, -41429.79, 0.0, 9.999937, 9.9995165 
9.950035e+2, 1.9486044e+2, -1088078.6, -1109517.8, 4823.1963, -0.032982294, -0.06257964, -1087043.5, -56681.348, 0.0, 9.999818, 9.999532 
9.950042e+2, 2.0485985e+2, -1014249.2, -1051094.0, 25961.35, -0.034219705, -0.06219684, -1000838.0, -68470.32, 0.0, 9.999772, 9.999283 
9.9500537e+2, 2.1485913e+2, -909515.8, -947910.25, 21749.855, -0.0056201057, -0.065219425, -899702.9, -65328.547, 0.0, 9.99981, 9.999299 
9.950064e+2, 2.248583e+2, -812448.44, -886644.4, 24630.2, 0.01221613, -0.06395349, -805016.56, -68634.164, 0.0, 9.999961, 9.998975 
9.950074e+2, 2.3485729e+2, -674411.2, -767630.3, 35443.793, 0.018745456, -0.06522532, -662465.5, -24073.557, 0.0, 10.000229, 9.998989 
9.950082e+2, 2.44856e+2, -597603.94, -737619.75, 32276.664, 0.013327791, -0.06649101, -590521.7, -50117.168, 0.0, 10.000332, 9.998473 
9.9500877e+2, 2.548544e+2, -509451.6, -643257.25, 24698.658, -0.0051993458, -0.075618744, -505038.16, -62617.656, 0.0, 10.000258, 9.998483 
9.950097e+2, 2.6485297e+2, -398494.5, -529012.9, 29683.096, 0.0015440217, -0.07215014, -392060.97, -47626.527, 0.0, 10.000304, 9.998573 
9.95011e+2, 2.7485168e+2, -273522.0, -415315.4, 36631.875, 0.0342085, -0.06224515, -264617.47, -18171.225, 0.0, 10.000479, 9.998596 
9.950119e+2, 2.8485015e+2, -196351.72, -367947.03, 23798.734, 0.047600385, -0.05628677, -193112.2, -44651.188, 0.0, 10.000509, 9.998235 
9.950124e+2, 2.9484838e+2, -117217.48, -276850.53, 22704.588, 0.041882582, -0.060170516, -114051.016, -63572.227, 0.0, 10.000371, 9.998254 
9.95013e+2, 3.0484647e+2, -10240.322, -124000.125, 6695.353, 0.06114609, -0.10835879, -9847.622, -9847.622, 0.0, 10.0004425, 9.998934 
9.950138e+2, 3.1484562e+2, 40583.684, -88581.51, -10088.053, 0.11085972, -0.09247521, 41366.832, 41366.832, 0.0, 10.000742, 9.999034 
1.00499794e+3, 1.2486093e+2, -1769335.4, -1724473.6, 11586.527, -0.018597353, -0.044873532, -1721657.9, -5300.0596, 0.0001389771, 9.999554, 10.000151 
1.00499965e+3, 1.3486087e+2, -1698773.4, -1653247.8, 35989.36, 0.022234764, -0.056466363, -1633426.8, -15067.24, 0.000046326506, 9.999426, 10.000028 
1.0050006e+3, 1.4486095e+2, -1588836.5, -1523856.4, 18485.756, 0.018370565, -0.059168924, -1518965.6, 1392.9851, 0.00000474816, 9.999398, 10.000253 
1.0050007e+3, 1.548613e+2, -1482800.0, -1418624.9, 19593.238, -0.051549405, -0.055517294, -1413115.8, 9237.777, 0.000000004412824, 9.999438, 10.000284 
1.0050014e+3, 1.6486125e+2, -1426213.0, -1407644.6, 18263.332, -0.06454334, -0.058284547, -1396441.1, -72087.61, 0.0, 9.999442, 9.999685 
1.00500256e+3, 1.7486084e+2, -1331385.8, -1309394.8, 17873.576, -0.012271389, -0.07154435, -1299405.4, -73046.984, 0.0, 9.9994135, 9.9997 
1.0050033e+3, 1.8486048e+2, -1222825.4, -1220751.5, 7363.3267, 0.0017527463, -0.06840007, -1214352.5, -85990.51, 0.0, 9.999547, 9.999571 
1.00500345e+3, 1.9486023e+2, -1078194.1, -1098468.6, 4341.0723, -0.027249664, -0.055103377, -1077303.8, -46939.523, 0.0, 9.999859, 9.999587 
1.0050041e+3, 2.0485963e+2, -985117.5, -1043330.06, 20797.701, -0.031339973, -0.05526961, -978450.6, -46080.97, 0.0, 10.0, 9.999225 
1.0050052e+3, 2.1485868e+2, -891502.0, -946114.75, 20381.771, -0.008469763, -0.07592834, -884734.1, -50355.566, 0.0, 9.999965, 9.999237 
1.00500636e+3, 2.2485782e+2, -812715.9, -877547.7, 23283.836, 0.009676574, -0.07662426, -805220.25, -68833.66, 0.0, 9.99992, 9.999056 
1.0050075e+3, 2.3485702e+2, -720912.1, -780762.75, 18282.037, 0.021761281, -0.065491796, -715769.5, -77375.555, 0.0, 9.999869, 9.999072 
1.0050084e+3, 2.4485579e+2, -643680.94, -757067.1, 17085.684, 0.015693033, -0.06670666, -641162.3, -100756.46, 0.0, 10.000004, 9.998497 
1.00500904e+3, 2.548541e+2, -496435.63, -633959.8, 26200.904, -0.009502998, -0.08635337, -491612.97, -49190.555, 0.0, 10.000338, 9.9985075 
1.0050101e+3, 2.6485264e+2, -371237.44, -514057.47, 32331.408, -0.0022805356, -0.08921154, -364259.25, -19822.713, 0.0, 10.000486, 9.998587 
1.0050115e+3, 2.7485132e+2, -280905.63, -417562.4, 26748.496, 0.037597008, -0.08232867, -275856.56, -29408.28, 0.0, 10.000423, 9.998607 
1.0050125e+3, 2.848498e+2, -193754.92, -367718.75, 10635.338, 0.050355162, -0.07656002, -193107.13, -44644.207, 0.0, 10.000533, 9.998224 
1.0050129e+3, 2.9484805e+2, -50178.477, -245635.53, 8825.872, 0.036519952, -0.077853836, -49780.754, 699.72754, 0.0, 10.000836, 9.998243 
1.0050137e+3, 3.048462e+2, 59674.11, -113650.94, 1667.9147, 0.06133331, -0.11051711, 59690.156, 59690.156, 0.0, 10.001023, 9.998726 
1.0050149e+3, 3.1484517e+2, 71691.5, -98714.73, -5190.2466, 0.12958416, -0.086107746, 71849.44, 71849.44, 0.0, 10.001066, 9.998807 
1.01499826e+3, 1.24860935e+2, -1773859.9, -1731861.1, 4200.8237, 0.060576584, -0.013060255, -1731445.1, -15087.263, 0.00017643356, 9.999547, 10.000103 
1.0149984e+3, 1.3486063e+2, -1702120.4, -1658997.0, 32486.574, -0.038525015, -0.044705667, -1641567.9, -23205.47, 0.00006271102, 9.999422, 9.9999895 
1.0149991e+3, 1.448607e+2, -1584435.6, -1514766.1, 19755.691, -0.07892548, -0.050190497, -1509554.0, 10807.57, 0.000007860604, 9.999397, 10.000317 
1.0150004e+3, 1.548613e+2, -1478186.5, -1409643.5, 21284.035, -0.027884234, -0.028539399, -1403572.1, 18781.666, 0.000000028517778, 9.999439, 10.000345 
1.0150013e+3, 1.6486126e+2, -1426143.6, -1408003.1, 16303.082, -0.011104605, -0.032794688, -1398417.0, -74063.664, 0.0, 9.999443, 9.999681 
1.0150018e+3, 1.7486063e+2, -1331302.4, -1308794.9, 16534.93, -0.027239872, -0.068180114, -1300047.3, -73686.93, 0.0, 9.999412, 9.999704 
1.01500265e+3, 1.8486021e+2, -1226912.3, -1228897.5, 17677.361, -0.021934098, -0.07034722, -1210199.8, -81834.875, 0.0, 9.999544, 9.9995165 
1.0150037e+3, 1.9486001e+2, -1081939.1, -1106389.1, 15548.698, 0.0055443435, -0.04593369, -1074385.0, -44018.223, 0.0, 9.999859, 9.999533 
1.01500444e+3, 2.048594e+2, -985347.44, -1043702.8, 18258.043, 0.0073780064, -0.04451722, -980105.75, -47733.41, 0.0, 9.999999, 9.999223 
1.015005e+3, 2.1485837e+2, -891783.3, -946295.5, 18415.295, -0.017278139, -0.072798885, -886145.4, -51763.83, 0.0, 9.999962, 9.999237 
1.0150059e+3, 2.2485742e+2, -821066.06, -894197.75, 20190.652, -0.022070082, -0.07716709, -815862.0, -79471.48, 0.0, 9.999917, 9.998943 
1.01500705e+3, 2.348565e+2, -728817.9, -797222.0, 16271.255, -0.005793725, -0.06625507, -725144.7, -86745.12, 0.0, 9.999869, 9.998959 
1.0150083e+3, 2.4485531e+2, -626478.8, -721584.56, 28744.639, 0.007957376, -0.069998704, -618466.2, -78055.5, 0.0, 10.000005, 9.99874 
1.0150097e+3, 2.5485384e+2, -479171.53, -597506.44, 39024.07, 0.019889545, -0.095692396, -467461.16, -25037.307, 0.0, 10.000334, 9.99876 
1.01501085e+3, 2.648523e+2, -381304.63, -533371.4, 30457.648, 0.024706006, -0.11125396, -375431.1, -30993.115, 0.0, 10.00048, 9.998457 
1.01501174e+3, 2.7485067e+2, -289997.9, -436680.38, 25814.588, 0.020839846, -0.12230293, -285587.4, -39134.324, 0.0, 10.000424, 9.998475 
1.0150128e+3, 2.8484908e+2, -194034.86, -369444.47, 22320.977, 0.030969791, -0.11397473, -191239.06, -42770.62, 0.0, 10.000537, 9.998211 
1.015014e+3, 2.9484755e+2, -52733.18, -248587.9, 21604.125, 0.0571277, -0.09311046, -50378.406, 105.73288, 0.0, 10.000825, 9.998229 
1.01501495e+3, 3.0484593e+2, 52165.39, -125622.95, 3958.6147, 0.07998328, -0.09860631, 52253.49, 52253.49, 0.0, 10.001008, 9.9986515 
1.0150156e+3, 3.1484497e+2, 65431.813, -109737.92, -904.8176, 0.09787837, -0.06163784, 65436.49, 65436.49, 0.0, 10.001059, 9.998734 
1.0249978e+3, 1.2486024e+2, -1801250.4, -1747634.8, -10918.585, 0.06421795, -0.0313696, -1745496.5, -29132.707, 0.00021988727, 9.9993725, 10.000076 
1.0249978e+3, 1.3486022e+2, -1713964.3, -1667422.3, 17734.867, -0.043973047, -0.03490459, -1661434.6, -43067.945, 0.000082442966, 9.9993515, 9.999967 
1.0249983e+3, 1.448603e+2, -1592887.5, -1523998.1, 6060.9, -0.0940828, -0.036251236, -1523469.0, -3102.743, 0.000012107546, 9.999359, 10.000273 
1.02499984e+3, 1.5486068e+2, -1493625.5, -1421506.1, -1354.2813, -0.014917756, -0.03047983, -1421480.8, 879.50336, 0.00000009714164, 9.999353, 10.000305 
1.02500096e+3, 1.6486064e+2, -1426159.8, -1403139.6, -5432.5957, 0.008815816, -0.03502273, -1401922.0, -77562.17, 0.0, 9.999424, 9.999723 
1.0250013e+3, 1.748602e+2, -1302535.9, -1290828.0, -3320.441, -0.022801865, -0.055037584, -1289951.9, -63586.99, 0.0, 9.999591, 9.999742 
1.0250022e+3, 1.848598e+2, -1209386.9, -1223241.4, 4852.5625, -0.025477292, -0.055504095, -1207856.3, -79487.06, 0.0, 9.999677, 9.999492 
1.0250034e+3, 1.9485946e+2, -1107946.9, -1121547.6, 4330.7695, 0.0005611605, -0.042930443, -1106684.9, -76312.26, 0.0, 9.999692, 9.999509 
1.02500424e+3, 2.0485884e+2, -1012774.25, -1050048.1, 7302.4526, 0.0038859518, -0.04408597, -1011394.6, -79016.445, 0.0, 9.999782, 9.999284 
1.025005e+3, 2.1485794e+2, -888329.44, -937619.3, 11331.932, -0.01709685, -0.06610442, -885849.0, -51463.03, 0.0, 9.999956, 9.999299 
1.02500595e+3, 2.2485697e+2, -796941.3, -890692.5, 16916.762, -0.020789737, -0.07107101, -793982.2, -57587.2, 0.0, 10.000118, 9.99887 
1.0250071e+3, 2.3485592e+2, -675773.56, -779785.94, 15149.774, -0.006213324, -0.065322936, -673611.9, -35206.395, 0.0, 10.000271, 9.998884 
1.02500856e+3, 2.4485473e+2, -579793.5, -692255.8, 24687.22, 0.011874201, -0.068684064, -574612.94, -34196.51, 0.0, 10.000298, 9.998799 
1.02501e+3, 2.5485337e+2, -497056.3, -599569.7, 19330.744, 0.033207163, -0.090128735, -493532.3, -51104.336, 0.0, 10.000183, 9.998818 
1.0250113e+3, 2.6485175e+2, -423124.66, -562334.75, 4672.514, 0.03690719, -0.11095552, -422968.0, -78525.53, 0.0, 10.00023, 9.998378 
1.0250122e+3, 2.7484992e+2, -292185.6, -446107.56, 2140.06, 0.022172613, -0.1369302, -292155.84, -45695.977, 0.0, 10.000447, 9.998398 
1.0250134e+3, 2.8484824e+2, -179337.97, -361788.53, 6484.2686, 0.028721796, -0.13265827, -179107.81, -30631.836, 0.0, 10.000637, 9.998215 
1.02501474e+3, 2.9484677e+2, -57202.12, -250331.2, 7167.901, 0.058229372, -0.10487271, -56936.453, -6445.556, 0.0, 10.000793, 9.998231 
1.025016e+3, 3.0484524e+2, 52629.574, -122385.64, -6670.7505, 0.078247406, -0.10194927, 52883.46, 52883.46, 0.0, 10.000999, 9.998676 
1.02501675e+3, 3.1484428e+2, 91979.266, -95973.48, -7486.369, 0.08623861, -0.07324567, 92276.984, 92276.984, 0.0, 10.001234, 9.998745 
1.0349962e+3, 1.2485889e+2, -1804882.5, -1754312.6, -14014.852, -0.022419892, -0.10336366, -1750688.3, -34312.96, 0.00026982953, 9.999369, 10.000032 
1.03499755e+3, 1.3485965e+2, -1715901.5, -1670997.0, 17715.713, 0.0021285953, -0.026075494, -1664849.5, -46477.79, 0.00010582585, 9.999349, 9.999943 
1.0349983e+3, 1.4485976e+2, -1603294.3, -1545470.5, 5556.5005, -0.031629324, -0.01486164, -1544941.5, -24569.93, 0.000017580334, 9.999358, 10.000126 
1.0349993e+3, 1.5485948e+2, -1503622.8, -1441489.3, -1352.2325, -0.014228982, -0.061677758, -1441459.8, -19087.533, 0.00000023822265, 9.999351, 10.000169 
1.0350002e+3, 1.6485941e+2, -1420358.8, -1391885.3, -308.23157, -0.006014185, -0.06638341, -1391882.0, -67509.64, 0.0, 9.999426, 9.999801 
1.0350012e+3, 1.748596e+2, -1297080.9, -1279779.0, 2715.7317, -0.0018529558, -0.032283805, -1279362.8, -52991.297, 0.0, 9.999591, 9.999818 
1.03500195e+3, 1.8485935e+2, -1209721.8, -1223908.3, 4329.16, -0.01319324, -0.022331195, -1208505.0, -80130.67, 0.0, 9.999677, 9.999487 
1.0350027e+3, 1.9485864e+2, -1108298.0, -1121834.5, 4247.7417, -0.04314247, -0.045201715, -1107075.5, -76694.375, 0.0, 9.99969, 9.999508 
1.03500366e+3, 2.0485802e+2, -1004794.44, -1033089.25, 12353.235, -0.04260579, -0.053867914, -1000160.2, -67773.445, 0.0, 9.99978, 9.999402 
1.03500515e+3, 2.1485743e+2, -879890.8, -919971.8, 17217.857, -0.009097836, -0.056604672, -873510.2, -39118.844, 0.0, 9.999955, 9.999421 
1.0350065e+3, 2.2485654e+2, -799332.75, -895660.1, 21359.826, 0.011402589, -0.057756603, -794808.9, -58409.42, 0.0, 10.000117, 9.9988365 
1.0350077e+3, 2.3485535e+2, -678489.06, -785339.25, 20736.463, 0.018540755, -0.06297463, -674605.8, -36194.65, 0.0, 10.000269, 9.998848 
1.0350089e+3, 2.448541e+2, -589356.94, -711138.7, 20209.893, 0.024481613, -0.064585336, -586090.6, -45667.86, 0.0, 10.000293, 9.998672 
1.0350102e+3, 2.5485274e+2, -505752.3, -618276.44, 15736.86, 0.029038442, -0.07065863, -503592.9, -61158.543, 0.0, 10.000185, 9.998689 
1.0350115e+3, 2.6485106e+2, -426210.7, -569428.3, 12868.117, 0.033377733, -0.08701374, -425063.7, -80614.32, 0.0, 10.000232, 9.998329 
1.0350128e+3, 2.748491e+2, -296576.7, -453617.53, 11035.833, 0.038107283, -0.122798465, -295804.94, -49336.902, 0.0, 10.000439, 9.998351 
1.0350142e+3, 2.848473e+2, -178286.48, -356757.78, 12680.8125, 0.03931004, -0.13153845, -177389.98, -28904.72, 0.0, 10.000625, 9.998255 
1.03501536e+3, 2.9484576e+2, -53526.9, -242837.86, 15172.244, 0.03657538, -0.1165781, -52318.637, -1818.0271, 0.0, 10.000794, 9.9982815 
1.0350167e+3, 3.048442e+2, 60675.48, -107534.03, 3636.0823, 0.053672172, -0.123803206, 60754.043, 60754.043, 0.0, 10.001005, 9.998776 
1.035018e+3, 3.148431e+2, 96397.12, -84788.64, 4071.3367, 0.08948677, -0.11825221, 96488.555, 96488.555, 0.0, 10.0012245, 9.998827 
1.0449953e+3, 1.24857895e+2, -1817028.8, -1761292.3, -31508.768, -0.051734693, -0.11388354, -1747095.8, -30710.71, 0.00032683904, 9.999287, 10.000025 
1.04499705e+3, 1.3485871e+2, -1709772.4, -1666850.3, 4277.583, 0.020399202, -0.030652927, -1666428.1, -48047.387, 0.00013321284, 9.999384, 9.999954 
1.0449978e+3, 1.4485885e+2, -1593503.5, -1541157.3, -1768.3999, -0.018122563, -0.017660236, -1541097.5, -20717.098, 0.000024406861, 9.99943, 10.00012 
1.04499854e+3, 1.5485857e+2, -1498203.1, -1440240.0, -1239.113, -0.02226279, -0.062819734, -1440213.5, -17832.158, 0.0000004785213, 9.999392, 10.000159 
1.0449995e+3, 1.648585e+2, -1423243.4, -1395930.1, 7652.792, -0.016042069, -0.06823742, -1393932.1, -69550.38, 0.0, 9.999417, 9.999777 
1.04500085e+3, 1.7485864e+2, -1307630.4, -1286816.1, 2598.8206, 0.004013615, -0.035672072, -1286496.5, -60115.46, 0.0, 9.999528, 9.999799 
1.04500175e+3, 1.8485838e+2, -1217699.1, -1223526.8, -1305.5422, -0.0024745802, -0.026399763, -1217420.0, -89036.15, 0.0, 9.999605, 9.999523 
1.04500234e+3, 1.9485773e+2, -1110819.4, -1119172.0, 906.59607, -0.039450202, -0.048874054, -1110722.1, -80332.04, 0.0, 9.999657, 9.999542 
1.0450034e+3, 2.0485713e+2, -1012897.9, -1040236.25, 10159.16, -0.04266907, -0.05411429, -1009536.06, -77140.67, 0.0, 9.999739, 9.999372 
1.045005e+3, 2.1485658e+2, -895745.4, -930854.5, 2991.9868, -0.010096914, -0.04883521, -895492.25, -61092.49, 0.0, 9.999861, 9.999391 
1.04500644e+3, 2.2485569e+2, -811944.7, -900936.56, 4545.0386, 0.013250477, -0.049866866, -811713.2, -75305.23, 0.0, 10.000028, 9.998843 
1.0450079e+3, 2.3485442e+2, -681966.2, -786434.7, 5655.7266, 0.026580153, -0.064112455, -681660.9, -43240.617, 0.0, 10.000242, 9.998853 
1.0450094e+3, 2.448531e+2, -578122.4, -711695.5, 2725.3857, 0.032214567, -0.070776746, -578066.75, -37634.25, 0.0, 10.000395, 9.998619 
1.04501046e+3, 2.548517e+2, -466253.88, -604432.94, 2967.269, 0.029771807, -0.076368, -466190.2, -23745.496, 0.0, 10.00048, 9.99864 
1.0450119e+3, 2.6485008e+2, -385214.44, -548073.9, 9287.415, 0.033091202, -0.08776158, -384686.53, -40227.164, 0.0, 10.000508, 9.998342 
1.0450133e+3, 2.7484816e+2, -290512.4, -449343.06, 11732.07, 0.04259844, -0.11510091, -289650.5, -43173.59, 0.0, 10.000474, 9.998363 
1.0450148e+3, 2.848463e+2, -195453.14, -375396.44, 14928.726, 0.043304067, -0.12566458, -194223.02, -45728.285, 0.0, 10.00055, 9.998161 
1.0450161e+3, 2.9484457e+2, -69951.49, -260899.19, 4547.338, 0.036284875, -0.12279454, -69843.26, -19330.857, 0.0, 10.000726, 9.99819 
1.0450176e+3, 3.0484295e+2, 63143.1, -97754.1, -8888.321, 0.047576837, -0.13448045, 63632.62, 63632.62, 0.0, 10.000986, 9.998852 
1.045019e+3, 3.148419e+2, 120319.83, -65505.688, -10077.0625, 0.0750741, -0.13120058, 120864.695, 120864.695, 0.0, 10.001356, 9.998896 
1.05499476e+3, 1.2485728e+2, -1813932.1, -1754078.6, -29510.191, -0.041891653, -0.06530026, -1741976.1, -25583.496, 0.00039134276, 9.999283, 10.000076 
1.0549965e+3, 1.348575e+2, -1705330.9, -1657566.0, 9182.244, 0.010438622, -0.04821324, -1655861.6, -37468.6, 0.00016489324, 9.999384, 10.000019 
1.05499685e+3, 1.4485763e+2, -1584554.8, -1523599.6, -3470.4512, -0.05482751, -0.044739034, -1523402.8, -3010.5273, 0.000032768054, 9.999433, 10.000239 
1.0549978e+3, 1.5485805e+2, -1491012.3, -1424268.3, -2689.9067, -0.04271717, -0.03336389, -1424160.0, -1773.3708, 0.0000008393984, 9.999387, 10.000271 
1.0549989e+3, 1.6485795e+2, -1432498.4, -1414745.1, 10928.7705, -0.026421905, -0.03807815, -1409542.3, -85155.29, 0.0, 9.999415, 9.999649 
1.0550003e+3, 1.7485738e+2, -1316469.9, -1304941.9, 6568.7983, -0.005888511, -0.06447336, -1301966.8, -75573.54, 0.0, 9.999527, 9.999675 
1.0550015e+3, 1.8485698e+2, -1212559.3, -1213169.6, -563.85645, 0.005930208, -0.06796682, -1212223.3, -83826.09, 0.0, 9.999606, 9.999595 
1.0550024e+3, 1.9485673e+2, -1105698.5, -1108532.1, 2290.8928, 0.009311743, -0.055329885, -1104421.8, -74022.58, 0.0, 9.999657, 9.999616 
1.05500355e+3, 2.0485625e+2, -1025699.06, -1066698.3, 13503.897, 0.00028816142, -0.044500533, -1021651.0, -89247.46, 0.0, 9.999738, 9.99919 
1.05500475e+3, 2.1485549e+2, -908912.25, -958020.3, 7126.07, -0.021502778, -0.042485643, -907899.1, -73488.52, 0.0, 9.99986, 9.999206 
1.0550062e+3, 2.2485448e+2, -809354.1, -895256.7, 11439.234, -0.016901325, -0.047918916, -807856.9, -71436.82, 0.0, 10.000026, 9.998883 
1.0550082e+3, 2.3485318e+2, -678556.9, -779806.9, 13563.123, 0.016367031, -0.06934911, -676771.5, -38339.215, 0.0, 10.000243, 9.9988985 
1.05500974e+3, 2.4485178e+2, -576599.56, -708844.25, 5586.725, 0.03339982, -0.08621865, -576363.94, -35918.92, 0.0, 10.000395, 9.998639 
1.0550111e+3, 2.5485027e+2, -465151.88, -601633.06, 6527.276, 0.033566326, -0.10606661, -464840.4, -22381.982, 0.0, 10.000476, 9.998663 
1.0550124e+3, 2.6484874e+2, -380023.16, -535835.1, 8005.5674, 0.033927966, -0.11428922, -379612.9, -35140.734, 0.0, 10.000502, 9.998429 
1.0550137e+3, 2.7484718e+2, -284171.97, -436477.28, 11608.869, 0.03249339, -0.116356425, -283292.22, -36806.03, 0.0, 10.000475, 9.998451 
1.05501525e+3, 2.8484532e+2, -212572.28, -411722.0, 22234.225, 0.03816038, -0.11631005, -210120.11, -61616.117, 0.0, 10.000552, 9.997911 
1.0550171e+3, 2.9484326e+2, -89195.12, -299020.94, 12361.86, 0.05458848, -0.12022404, -88469.336, -37943.65, 0.0, 10.000716, 9.997933 
1.0550187e+3, 3.0484155e+2, 66030.1, -89352.555, 4915.487, 0.056660857, -0.1309615, 66185.445, 66185.445, 0.0, 10.000976, 9.998915 
1.05502e+3, 3.1484073e+2, 126223.01, -54064.965, 6408.701, 0.035803534, -0.112099506, 126450.53, 126450.53, 0.0, 10.001359, 9.998973 
1.0649941e+3, 1.24856435e+2, -1806571.8, -1735344.8, -29916.232, -0.02270254, -0.033599053, -1724446.9, -8044.737, 0.00046328275, 9.99927, 10.00021 
1.0649956e+3, 1.3485649e+2, -1730815.9, -1654166.1, 12860.802, 0.010135403, -0.04775711, -1652065.8, -33662.934, 0.00020096678, 9.99914, 10.00016 
1.064996e+3, 1.4485656e+2, -1620555.4, -1550027.8, 1463.081, -0.07464425, -0.05414763, -1549997.5, -29595.127, 0.000042859534, 9.999225, 10.000157 
1.0649972e+3, 1.5485707e+2, -1480673.0, -1428150.8, -13826.336, -0.040308286, -0.025019309, -1424733.4, -2336.8105, 0.0000013547858, 9.999498, 10.000189 
1.0649984e+3, 1.64857e+2, -1402531.5, -1396507.3, -3534.053, -0.019446453, -0.02544579, -1394875.9, -70479.03, 0.0, 9.999607, 9.9996805 
1.0649998e+3, 1.7485633e+2, -1308706.6, -1297835.9, 3384.8696, -0.014854255, -0.06257257, -1296868.1, -70464.75, 0.0, 9.999565, 9.999705 
1.065001e+3, 1.848559e+2, -1213435.1, -1219757.4, 1362.9053, 0.0011266243, -0.06933914, -1213153.9, -84746.195, 0.0, 9.999626, 9.999538 
1.06500246e+3, 1.9485565e+2, -1087247.9, -1105802.9, -6278.4595, 0.028777331, -0.05069204, -1085323.0, -54913.516, 0.0, 9.99981, 9.999559 
1.06500365e+3, 2.0485505e+2, -1000648.7, -1063451.5, 3764.56, 0.024913464, -0.04469892, -1000423.8, -68008.8, 0.0, 9.9999485, 9.999111 
1.0650048e+3, 2.1485405e+2, -887776.75, -956754.2, 4435.282, -0.012534684, -0.058921807, -887492.7, -53068.4, 0.0, 10.000043, 9.9991255 
1.06500626e+3, 2.2485298e+2, -801077.75, -891656.9, 11664.56, -0.017818699, -0.06598823, -799599.75, -63165.344, 0.0, 10.000084, 9.998879 
1.0650082e+3, 2.3485184e+2, -703628.9, -791573.8, 9683.543, 0.011292245, -0.07300432, -702575.25, -64129.92, 0.0, 10.000071, 9.998899 
1.06501e+3, 2.448505e+2, -609318.2, -724568.3, 1480.6632, 0.02735998, -0.08365656, -609299.2, -68841.48, 0.0, 10.000172, 9.998639 
1.0650115e+3, 2.5484893e+2, -477183.75, -607717.56, -283.93143, 0.029583009, -0.10714398, -477183.13, -34711.37, 0.0, 10.000395, 9.99866 
1.06501296e+3, 2.6484737e+2, -370329.25, -535043.25, -7374.3135, 0.03186156, -0.11356076, -369999.75, -25513.963, 0.0, 10.000584, 9.998395 
1.0650143e+3, 2.748459e+2, -250670.63, -423615.75, -13894.698, 0.03355906, -0.1069556, -249561.42, -3061.9395, 0.0, 10.00072, 9.998421 
1.065016e+3, 2.8484413e+2, -173451.05, -387434.72, 5125.112, 0.042597376, -0.10337147, -173328.38, -24811.662, 0.0, 10.000799, 9.997959 
1.06501795e+3, 2.9484203e+2, -67574.516, -283272.78, 17794.887, 0.061202955, -0.11085616, -66116.31, -15578.623, 0.0, 10.000842, 9.99798 
1.0650197e+3, 3.0484024e+2, 58520.934, -106671.04, 23483.314, 0.052720454, -0.12771395, 61794.4, 61794.4, 0.0, 10.000983, 9.998791 
1.0650211e+3, 3.1483936e+2, 91373.65, -84440.41, 6629.6357, 0.010836593, -0.101399645, 91623.29, 91623.29, 0.0, 10.00118, 9.99885 
1.0749937e+3, 1.24855466e+2, -1793685.1, -1707323.9, -34374.074, -0.007046904, -0.018245783, -1695312.6, 21100.115, 0.000542142, 9.999268, 10.000403 
1.0749949e+3, 1.3485576e+2, -1717858.1, -1625123.3, 8668.784, 0.01596127, -0.02901208, -1624319.9, -5910.289, 0.00024133897, 9.999131, 10.000364 
1.0749951e+3, 1.448557e+2, -1640582.1, -1590342.5, 11543.419, -0.08287454, -0.045247763, -1587817.1, -67406.914, 0.0000548195, 9.999219, 9.999884 
1.074997e+3, 1.5485571e+2, -1500031.8, -1468635.5, -3286.1294, -0.015621655, -0.036655493, -1468295.3, -45885.03, 0.000002073113, 9.999499, 9.99991 
1.0749983e+3, 1.6485567e+2, -1388852.0, -1368946.8, -6027.293, 0.0038828526, -0.03026781, -1367264.0, -42853.305, 0.0000000000166348, 9.999611, 9.999868 
1.0749991e+3, 1.7485557e+2, -1295788.3, -1270423.8, 1732.4402, -0.025204128, -0.030716158, -1270306.0, -43894.797, 0.0, 9.999563, 9.999895 
1.0750004e+3, 1.8485521e+2, -1227021.3, -1247421.1, 7083.731, -0.021285461, -0.02967086, -1224802.8, -96388.28, 0.0, 9.999623, 9.999351 
1.0750021e+3, 1.9485454e+2, -1101190.9, -1134449.4, 122.679535, 0.018075773, -0.03403809, -1101190.4, -70769.74, 0.0, 9.999808, 9.999364 
1.0750037e+3, 2.0485358e+2, -999395.06, -1061015.6, 5976.1953, 0.030276855, -0.054381732, -998820.8, -66391.484, 0.0, 9.999948, 9.999128 
1.07500516e+3, 2.148523e+2, -886347.9, -953815.7, 7289.8647, 0.014646842, -0.098919615, -885569.25, -51128.695, 0.0, 10.000042, 9.999146 
1.0750066e+3, 2.2485124e+2, -803973.7, -897722.2, 9997.458, 0.007970395, -0.10390771, -802919.4, -66469.016, 0.0, 10.000083, 9.998838 
1.0750083e+3, 2.3485042e+2, -706570.4, -797893.5, 9147.873, 0.010580663, -0.07464906, -705663.06, -67204.17, 0.0, 10.000071, 9.9988575 
1.07501e+3, 2.4484926e+2, -611124.25, -728132.3, 9302.636, 0.012886369, -0.06389896, -610389.25, -69919.17, 0.0, 10.00017, 9.998615 
1.0750117e+3, 2.5484774e+2, -478978.7, -611393.6, 8514.26, 0.01479306, -0.080643766, -478433.47, -35949.2, 0.0, 10.000394, 9.998635 
1.0750134e+3, 2.6484612e+2, -381381.13, -558169.44, -1741.9414, 0.024793964, -0.085925765, -381363.97, -36864.26, 0.0, 10.000583, 9.998238 
1.07501514e+3, 2.7484438e+2, -262323.72, -446851.75, -7972.447, 0.044257134, -0.085750535, -261979.92, -15463.603, 0.0, 10.000714, 9.998264 
1.07501686e+3, 2.8484267e+2, -149887.72, -336848.25, 6390.7935, 0.05471901, -0.08666339, -149669.52, -1137.0518, 0.0, 10.000792, 9.99831 
1.07501864e+3, 2.948409e+2, -42272.273, -230703.72, 20852.168, 0.05271269, -0.09669649, -39992.32, 10555.81, 0.0, 10.000842, 9.998342 
1.0750205e+3, 3.0483902e+2, 35836.117, -154715.61, 32348.348, 0.03324556, -0.1262628, 41177.875, 41177.875, 0.0, 10.000986, 9.998461 
1.0750221e+3, 3.1483787e+2, 67002.08, -133863.8, 15932.057, -0.004079518, -0.09333323, 68257.914, 68257.914, 0.0, 10.001173, 9.998514 
1.0849926e+3, 1.2485408e+2, -1825470.8, -1733252.8, -32365.992, -0.023798753, -0.035840537, -1723027.1, -6601.403, 0.0006273791, 9.999096, 10.000307 
1.0849942e+3, 1.3485453e+2, -1670941.0, -1611720.0, -12879.607, 0.029255887, -0.021567209, -1609040.1, 9381.355, 0.0002858709, 9.999495, 10.00028 
1.0849946e+3, 1.4485441e+2, -1592233.1, -1569640.9, -14803.463, -0.07749842, -0.037117522, -1562316.0, -41893.215, 0.00006870092, 9.999565, 9.999858 
1.08499646e+3, 1.5485421e+2, -1534647.0, -1488554.3, -13151.543, -0.0069868416, -0.04896273, -1485065.8, -62640.95, 0.0000030594845, 9.999276, 9.999881 
1.08499795e+3, 1.6485412e+2, -1436225.6, -1392026.8, -7234.9185, 0.015380875, -0.044106714, -1390872.6, -66447.06, 0.000000000186287, 9.999286, 9.9998665 
1.0849989e+3, 1.7485422e+2, -1288399.6, -1266491.6, -14595.635, -0.012910058, -0.02530536, -1259196.6, -32772.41, 0.0, 9.999614, 9.999896 
1.0850001e+3, 1.8485387e+2, -1201604.0, -1241079.9, -10607.105, -0.017315367, -0.020578777, -1198934.5, -70506.96, 0.0, 9.9998255, 9.999296 
1.0850018e+3, 1.9485301e+2, -1087923.9, -1134172.1, -7474.6553, 0.002821719, -0.038836896, -1086745.9, -56310.203, 0.0, 9.999927, 9.999309 
1.08500354e+3, 2.0485197e+2, -992241.06, -1060839.5, 840.84863, 0.019301537, -0.06211753, -992230.75, -59785.703, 0.0, 10.000011, 9.999099 
1.0850054e+3, 2.1485077e+2, -881865.9, -954757.5, -2261.9167, 0.031872723, -0.09711056, -881795.75, -47339.926, 0.0, 10.000088, 9.999118 
1.085007e+3, 2.2484975e+2, -791133.8, -896383.4, -1883.0886, 0.028625347, -0.09485502, -791100.1, -54634.613, 0.0, 10.000193, 9.9987955 
1.08500846e+3, 2.348489e+2, -671545.44, -785999.8, -4436.0947, 0.008015827, -0.060934342, -671373.75, -32899.58, 0.0, 10.000332, 9.998813 
1.0850101e+3, 2.448477e+2, -586585.5, -726962.94, -5887.5933, 0.0022786648, -0.04784313, -586339.0, -45852.9, 0.0, 10.000383, 9.998521 
1.0850121e+3, 2.548461e+2, -494217.16, -629029.3, -12256.27, 0.012434687, -0.06436467, -493111.97, -50610.504, 0.0, 10.000334, 9.998544 
1.0850139e+3, 2.6484445e+2, -401967.63, -565069.9, -13801.013, 0.025796661, -0.07025407, -400808.1, -56290.62, 0.0, 10.00043, 9.998263 
1.0850158e+3, 2.748427e+2, -263221.66, -444581.0, -6878.1377, 0.042870488, -0.07217644, -262961.16, -16427.033, 0.0, 10.000696, 9.998289 
1.08501755e+3, 2.84841e+2, -144480.95, -332161.66, -4934.6143, 0.04957165, -0.07386144, -144351.3, 4198.869, 0.0, 10.000819, 9.998329 
1.0850194e+3, 2.948393e+2, -52432.57, -233561.22, -17625.951, 0.044447035, -0.08170949, -50733.297, -167.88205, 0.0, 10.000764, 9.99836 
1.0850213e+3, 3.048374e+2, 11475.811, -146912.88, 4093.5405, 0.022940898, -0.120336786, 11581.537, 11581.537, 0.0, 10.000735, 9.998634 
1.085023e+3, 3.1483647e+2, 23464.873, -132973.67, 25237.395, -0.015861984, -0.0786154, 27435.506, 27435.506, 0.0, 10.000781, 9.998708 
1.0949911e+3, 1.2485229e+2, -1852669.1, -1787052.8, -16173.473, -0.08448484, -0.08986597, -1783282.9, -66842.29, 0.0007190712, 9.999085, 9.999943 
1.094994e+3, 1.3485289e+2, -1696229.3, -1664894.6, 3354.4924, 0.047645323, -0.023633745, -1664539.5, -46101.887, 0.00033462446, 9.999496, 9.999915 
1.09499425e+3, 1.4485282e+2, -1576850.3, -1538094.3, -25852.164, -0.061071858, -0.028299062, -1525163.8, -4724.5757, 0.000084530904, 9.999567, 10.000073 
1.0949956e+3, 1.5485258e+2, -1520409.8, -1458218.8, -23741.43, -0.016976893, -0.062888846, -1450191.6, -27751.754, 0.0000043925156, 9.999272, 10.000092 
1.0949971e+3, 1.6485243e+2, -1449923.3, -1419706.3, 4077.4827, 0.010682942, -0.067496784, -1419165.8, -94724.89, 0.0000000006358386, 9.999282, 9.999678 
1.0949988e+3, 1.7485236e+2, -1302250.5, -1295422.9, -2418.125, 0.020495208, -0.045511533, -1294653.3, -68211.164, 0.0, 9.999615, 9.999698 
1.0950002e+3, 1.8485193e+2, -1195865.1, -1229282.0, -7990.457, 0.010684201, -0.04194417, -1194052.8, -65606.42, 0.0, 9.9998255, 9.999377 
1.0950016e+3, 1.948511e+2, -1081989.6, -1121629.8, -4278.0435, -0.018492589, -0.06565593, -1081533.1, -51079.29, 0.0, 9.999925, 9.999395 
1.09500326e+3, 2.048503e+2, -997739.5, -1072139.3, 2357.5386, -0.010215044, -0.06766745, -997664.9, -65203.258, 0.0, 10.0000105, 9.9990225 
1.0950055e+3, 2.148495e+2, -887766.6, -966883.25, 145.45657, 0.037681308, -0.05306182, -887766.3, -53296.746, 0.0, 10.000086, 9.999036 
1.09500736e+3, 2.2484852e+2, -794837.9, -904189.1, 2051.777, 0.042440645, -0.038553502, -794799.4, -58320.137, 0.0, 10.000193, 9.998742 
1.0950088e+3, 2.3484737e+2, -675355.3, -793831.3, 492.62668, 0.0016776099, -0.032375712, -675353.25, -36862.49, 0.0, 10.000331, 9.99876 
1.0950105e+3, 2.4484588e+2, -597763.3, -750260.94, -7976.0654, -0.0061985874, -0.036046833, -597347.3, -56842.023, 0.0, 10.000383, 9.998362 
1.0950124e+3, 2.5484407e+2, -505587.5, -652012.7, -13712.357, 0.021203956, -0.057870343, -504314.44, -61791.637, 0.0, 10.000331, 9.998387 
1.09501444e+3, 2.6484242e+2, -388121.06, -535635.5, -4076.9927, 0.033363037, -0.065972984, -388008.47, -43469.88, 0.0, 10.000426, 9.998467 
1.0950164e+3, 2.7484092e+2, -248728.86, -414280.5, 4179.118, 0.027055452, -0.06639253, -248623.44, -2070.9722, 0.0, 10.000695, 9.998497 
1.0950182e+3, 2.848392e+2, -167212.95, -379266.2, -6073.212, 0.025660444, -0.06449545, -167039.17, -18469.836, 0.0, 10.000818, 9.998007 
1.09502e+3, 2.948372e+2, -76504.81, -281881.66, -18451.371, 0.03335222, -0.066039704, -74860.28, -24271.137, 0.0, 10.000756, 9.998032 
1.0950218e+3, 3.048354e+2, 57266.47, -50268.86, 5111.551, 0.01790599, -0.11054528, 57508.89, 57508.89, 0.0, 10.000728, 9.999302 
1.0950237e+3, 3.1483537e+2, 74207.98, -27776.775, 29081.87, -0.029165173, -0.05523562, 81918.05, 81918.05, 0.0, 10.000781, 9.999432 
1.10499024e+3, 1.2485047e+2, -1814712.9, -1767712.8, -36347.484, -0.093892075, -0.106579445, -1747930.1, -31472.357, 0.000818133, 9.999341, 9.999951 
1.1049934e+3, 1.3485117e+2, -1746361.3, -1686207.8, 7103.7593, 0.055154316, -0.033713292, -1685380.3, -66925.99, 0.00038809632, 9.999137, 9.999943 
1.1049937e+3, 1.4485116e+2, -1614751.3, -1551526.8, -12540.738, -0.0697205, -0.034582347, -1549130.1, -28675.076, 0.000102482416, 9.999285, 10.000118 
1.1049951e+3, 1.5485103e+2, -1445584.3, -1416769.5, -24371.23, -0.017513515, -0.063771345, -1402865.5, 19588.97, 0.0000061708192, 9.999764, 10.000138 
1.1049967e+3, 1.6485083e+2, -1368121.5, -1391941.0, 214.54234, 0.012499743, -0.06987289, -1368119.6, -43663.59, 0.0000000015512864, 9.999897, 9.999571 
1.10499844e+3, 1.7485055e+2, -1299695.5, -1306449.4, -569.6856, 0.014361585, -0.057528526, -1299647.9, -73188.31, 0.0, 9.999685, 9.999587 
1.105e+3, 1.8485007e+2, -1222569.4, -1240696.4, -2248.414, 0.0077044046, -0.05429011, -1222294.8, -93830.24, 0.0, 9.999636, 9.999391 
1.1050015e+3, 1.9484937e+2, -1104504.9, -1130478.3, -4306.4727, -0.00649704, -0.067613594, -1103809.5, -73338.555, 0.0, 9.999763, 9.9994135 
1.1050033e+3, 2.0484862e+2, -1012175.3, -1085487.0, 2401.8435, -0.00038719145, -0.060721718, -1012096.75, -79618.52, 0.0, 9.999939, 9.998965 
1.1050055e+3, 2.1484782e+2, -879642.2, -969410.2, 845.38324, 0.026275538, -0.039790794, -879634.2, -45147.69, 0.0, 10.00017, 9.998978 
1.10500745e+3, 2.2484681e+2, -782307.1, -903809.7, 1827.5313, 0.02808277, -0.023965118, -782279.7, -45782.832, 0.0, 10.000303, 9.998692 
1.1050092e+3, 2.3484556e+2, -678534.06, -801139.44, -92.392654, 0.0038231646, -0.021846747, -678534.0, -40024.547, 0.0, 10.000335, 9.998708 
1.10501096e+3, 2.4484402e+2, -594807.4, -745698.8, -3682.8804, 0.002209095, -0.030973649, -594717.5, -54193.094, 0.0, 10.000391, 9.998388 
1.105013e+3, 2.5484216e+2, -481710.78, -637729.1, 2997.802, 0.024460666, -0.05949271, -481653.2, -39111.305, 0.0, 10.000483, 9.998413 
1.1050149e+3, 2.648405e+2, -383031.13, -538701.8, 12567.557, 0.029612862, -0.066503026, -382023.06, -37465.31, 0.0, 10.000484, 9.998418 
1.1050167e+3, 2.7483904e+2, -298086.03, -443626.34, 597.65436, 0.015419689, -0.056738656, -298083.6, -51511.87, 0.0, 10.000381, 9.998446 
1.1050188e+3, 2.848374e+2, -215252.47, -397997.03, -4125.018, 0.014641468, -0.047774464, -215159.4, -66571.055, 0.0, 10.000471, 9.998045 
1.1050207e+3, 2.9483548e+2, -70608.83, -275104.56, 10224.265, 0.031209059, -0.04683552, -70098.914, -19491.123, 0.0, 10.000779, 9.998067 
1.1050227e+3, 3.0483362e+2, 79574.34, -34776.957, 18690.56, 0.01616285, -0.10284056, 82551.766, 82551.766, 0.0, 10.00086, 9.999345 
1.1050243e+3, 3.148337e+2, 67139.305, -21226.352, -8991.52, -0.036802284, -0.03363862, 68044.945, 68044.945, 0.0, 10.00069, 9.99952 
1.1149899e+3, 1.2484863e+2, -1788457.5, -1712380.5, -39479.918, -0.059747513, -0.08977788, -1695595.8, 20881.287, 0.00092609524, 9.999338, 10.000333 
1.1149924e+3, 1.3484935e+2, -1717974.0, -1627099.0, 501.5052, 0.04872671, -0.053608906, -1627096.3, -8625.171, 0.00044726714, 9.999135, 10.00035 
1.1149926e+3, 1.4484948e+2, -1623155.3, -1567768.4, 4607.2173, -0.10696913, -0.058066066, -1567387.8, -46917.633, 0.00012295434, 9.99928, 10.000009 
1.11499496e+3, 1.5484959e+2, -1453913.5, -1433977.5, -6297.1753, -0.011647387, -0.05036975, -1432155.0, -9686.715, 0.000008505592, 9.999764, 10.00002 
1.1149967e+3, 1.6484939e+2, -1369906.4, -1395896.5, -8466.43, 0.017362617, -0.050071035, -1367391.8, -42921.418, 0.0000000033697685, 9.999898, 9.999543 
1.1149977e+3, 1.7484884e+2, -1301371.1, -1309975.5, -8713.327, -0.032596722, -0.06166596, -1295955.8, -69479.62, 0.0, 9.999685, 9.999563 
1.1149993e+3, 1.8484832e+2, -1226459.1, -1248506.9, 1171.0886, -0.02859054, -0.05759154, -1226397.1, -97915.67, 0.0, 9.999634, 9.999338 
1.11500174e+3, 1.9484784e+2, -1108626.3, -1139152.6, -27.863714, 0.036774967, -0.04427453, -1108626.3, -78140.11, 0.0, 9.999763, 9.999354 
1.11500375e+3, 2.04847e+2, -1015098.8, -1091579.1, 9566.582, 0.046567883, -0.041392494, -1013920.3, -81426.04, 0.0, 9.999939, 9.998924 
1.1150054e+3, 2.1484579e+2, -882666.25, -975142.0, 8704.658, -0.00345873, -0.05744362, -881854.0, -47347.88, 0.0, 10.000168, 9.99894 
1.1150073e+3, 2.2484465e+2, -785638.9, -910405.1, 1906.5225, -0.015741037, -0.051407367, -785609.75, -49091.883, 0.0, 10.000301, 9.998648 
1.1150095e+3, 2.3484357e+2, -681841.5, -807621.94, 1007.9919, 0.012883262, -0.02853886, -681833.44, -43303.977, 0.0, 10.000333, 9.998665 
1.1150116e+3, 2.4484216e+2, -581036.44, -716492.94, -709.1116, 0.025551142, -0.03129575, -581032.75, -40489.836, 0.0, 10.000388, 9.99859 
1.1150133e+3, 2.548404e+2, -467693.53, -608455.06, 6952.5923, 0.020624263, -0.069291815, -467350.97, -24792.639, 0.0, 10.000482, 9.998614 
1.1150152e+3, 2.6483876e+2, -404310.3, -583178.1, 8919.079, 0.0136196725, -0.07253271, -403866.66, -59292.055, 0.0, 10.000486, 9.998112 
1.1150171e+3, 2.7483717e+2, -320855.28, -489508.53, -2509.9492, 0.0048434483, -0.04420428, -320817.94, -74226.375, 0.0, 10.000376, 9.998135 
1.1150192e+3, 2.8483567e+2, -188372.7, -340386.63, 7292.7344, 0.012595349, -0.02400265, -188023.66, -39416.75, 0.0, 10.000463, 9.998445 
1.1150216e+3, 2.9483417e+2, -41296.664, -215046.81, 23732.193, 0.036271907, -0.023244776, -38113.445, 12507.335, 0.0, 10.000782, 9.998479 
1.1150236e+3, 3.0483204e+2, 37917.953, -122159.26, 13180.439, 0.017093267, -0.09504205, 38995.945, 38995.945, 0.0, 10.000864, 9.998744 
1.1150249e+3, 3.1483173e+2, 27550.36, -101551.086, -13426.918, -0.04495462, -0.0061220494, 28932.01, 28932.01, 0.0, 10.000681, 9.998973 
1.12498924e+3, 1.24846995e+2, -1802600.4, -1713423.9, -17146.951, -0.054311145, -0.07272039, -1710240.5, 6253.336, 0.0010446907, 9.999217, 10.000383 
1.1249917e+3, 1.3484767e+2, -1691363.8, -1606635.1, -10381.913, 0.058762122, -0.04708471, -1605381.6, 13105.788, 0.0005132032, 9.999286, 10.000418 
1.1249917e+3, 1.4484774e+2, -1620735.5, -1568433.3, -3651.948, -0.120475926, -0.061034374, -1568179.5, -47692.617, 0.00014641856, 9.999306, 9.999991 
1.1249945e+3, 1.5484783e+2, -1529441.4, -1473152.6, -9060.503, -0.010341631, -0.054315463, -1471730.1, -49244.543, 0.00001150662, 9.999257, 9.999996 
1.1249963e+3, 1.6484761e+2, -1437744.9, -1428860.1, -9921.961, 0.022465043, -0.05122019, -1422431.5, -97943.914, 0.0000000061074554, 9.999432, 9.999543 
1.1249973e+3, 1.7484714e+2, -1277016.9, -1298078.1, -9054.771, -0.037840072, -0.056195732, -1273659.3, -47166.582, 0.0, 9.999852, 9.999564 
1.124999e+3, 1.8484661e+2, -1169140.9, -1230598.1, -7.089408, -0.036361624, -0.050519206, -1169140.9, -40642.57, 0.0, 10.00007, 9.99925 
1.1250016e+3, 1.9484597e+2, -1069416.4, -1130314.3, -4598.004, 0.033837657, -0.041648693, -1069071.3, -38566.62, 0.0, 10.000075, 9.999264 
1.1250038e+3, 2.0484509e+2, -990761.6, -1073838.6, 10432.358, 0.047541484, -0.042557735, -989471.6, -56958.41, 0.0, 10.00008, 9.998978 
1.1250055e+3, 2.1484391e+2, -889605.44, -972225.25, 16332.3125, -0.00008184791, -0.061428234, -886494.0, -51969.64, 0.0, 10.0000925, 9.998996 
1.1250076e+3, 2.2484273e+2, -818237.75, -935058.4, 9194.394, -0.010160814, -0.05807141, -817518.5, -80982.01, 0.0, 10.000117, 9.998567 
1.1250099e+3, 2.3484154e+2, -713370.94, -831730.94, 3386.9133, 0.019839372, -0.03665537, -713274.1, -74724.6, 0.0, 10.000156, 9.998584 
1.1250118e+3, 2.4484017e+2, -598778.44, -720685.5, -2629.8818, 0.025105031, -0.032681674, -598721.75, -58158.934, 0.0, 10.000249, 9.998629 
1.1250137e+3, 2.5483862e+2, -478243.2, -608941.25, -7505.1587, 0.0033959902, -0.05590959, -477813.63, -35237.082, 0.0, 10.000391, 9.998654 
1.1250156e+3, 2.6483694e+2, -386830.56, -575825.06, -1125.505, -0.001646659, -0.059343763, -386823.84, -42231.113, 0.0, 10.000613, 9.998101 
1.12501785e+3, 2.748352e+2, -242012.81, -453526.5, 8755.887, 0.012000553, -0.0464271, -241650.97, 4960.3203, 0.0, 10.000926, 9.998117 
1.12502e+3, 2.8483376e+2, -127839.234, -308682.3, 10139.042, 0.021395536, -0.020228375, -127272.555, 21353.549, 0.0, 10.000867, 9.998468 
1.1250221e+3, 2.948326e+2, -93367.445, -237494.92, -4622.601, 0.024727704, 0.009986978, -93219.336, -42582.16, 0.0, 10.000415, 9.998501 
1.125024e+3, 3.0483025e+2, -33689.855, -172422.23, -3726.1135, 0.001830495, -0.07622465, -33589.85, -33589.85, 0.0, 10.000442, 9.998601 
1.12502575e+3, 3.1482962e+2, 66002.5, -88958.195, 4805.544, -0.04248367, -0.0054721907, 66151.38, 66151.38, 0.0, 10.000972, 9.9989195 
1.13498814e+3, 1.24845594e+2, -1822137.4, -1751672.5, -6624.6304, -0.08256623, -0.056549344, -1751055.1, -34547.227, 0.001174958, 9.99921, 10.000124 
1.1349912e+3, 1.3484621e+2, -1709943.1, -1644940.9, -7198.76, 0.08072884, -0.012248554, -1644153.1, -25650.797, 0.00058639556, 9.999284, 10.000156 
1.1349911e+3, 1.44846e+2, -1616736.3, -1559419.3, -5806.699, -0.115033306, -0.041522413, -1558837.0, -38332.758, 0.00017311395, 9.999303, 10.000055 
1.13499366e+3, 1.5484574e+2, -1524627.8, -1463381.6, -10732.922, -0.015377686, -0.07663811, -1461555.3, -39049.305, 0.000015247707, 9.999258, 10.000063 
1.1349958e+3, 1.6484559e+2, -1436070.3, -1425326.3, 4598.907, 0.025358442, -0.07456959, -1423626.6, -99119.234, 0.000000009421829, 9.999432, 9.999567 
1.1349975e+3, 1.7484552e+2, -1275439.4, -1294954.4, 6545.689, -0.0039734887, -0.040753808, -1273447.3, -46938.723, 0.0, 9.999853, 9.999586 
1.13499925e+3, 1.8484496e+2, -1177816.5, -1248624.8, -901.1619, -0.018787228, -0.032996923, -1177805.0, -49290.473, 0.0, 10.00007, 9.999127 
1.13500126e+3, 1.9484384e+2, -1078082.1, -1148113.9, -5129.1265, -0.01606113, -0.05966134, -1077708.5, -47182.816, 0.0, 10.000074, 9.999143 
1.1350034e+3, 2.0484294e+2, -980475.8, -1052194.4, 9560.098, 0.001132804, -0.06381847, -979223.3, -46688.92, 0.0, 10.000078, 9.999127 
1.13500595e+3, 2.1484223e+2, -879115.7, -950354.94, 16346.98, 0.03368011, -0.05107086, -875543.7, -41003.105, 0.0, 10.000092, 9.999146 
1.1350082e+3, 2.2484109e+2, -827464.7, -953741.5, 9303.052, 0.041838102, -0.043162327, -826783.0, -90230.94, 0.0, 10.000114, 9.99844 
1.13501e+3, 2.3483954e+2, -722708.7, -850865.6, 4528.382, 0.024159104, -0.046895888, -722548.9, -83979.71, 0.0, 10.0001545, 9.998454 
1.1350118e+3, 2.448381e+2, -607299.7, -738307.25, 2168.3252, 0.00023961128, -0.0366059, -607263.8, -66679.94, 0.0, 10.000248, 9.998508 
1.1350137e+3, 2.5483683e+2, -487234.66, -626367.6, -1703.0581, -0.030132137, -0.019346068, -487213.8, -44617.73, 0.0, 10.000385, 9.998537 
1.135016e+3, 2.6483524e+2, -368105.4, -535315.06, 10848.943, -0.019392947, -0.025476431, -367404.44, -22792.959, 0.0, 10.000606, 9.998383 
1.1350189e+3, 2.748333e+2, -221323.94, -411243.72, 22110.848, 0.034734204, -0.062454507, -218783.72, 27846.49, 0.0, 10.000928, 9.998406 
1.135021e+3, 2.848318e+2, -154023.69, -364018.7, -6262.855, 0.039427053, -0.035928007, -153837.06, -5191.6484, 0.0, 10.000871, 9.998087 
1.1350222e+3, 2.9483077e+2, -122207.76, -295267.28, -20617.055, -0.0074751987, 0.050527252, -119785.49, -69128.586, 0.0, 10.000405, 9.998109 
1.1350242e+3, 3.0482832e+2, -12112.828, -124218.05, 16021.846, -0.03418763, -0.048231985, -9867.972, -9867.972, 0.0, 10.000426, 9.9989395 
1.1350269e+3, 3.1482753e+2, 100412.5, -18873.34, 27999.117, -0.035521813, -0.023806453, 106657.586, 106657.586, 0.0, 10.000976, 9.999399 
1.1449874e+3, 1.2484397e+2, -1791409.6, -1746856.9, -3635.07, -0.09542462, -0.047760427, -1746562.3, -30038.777, 0.0013167423, 9.999464, 10.000034 
1.1449907e+3, 1.3484429e+2, -1699425.6, -1648971.8, -4166.9893, 0.09793485, -0.024983458, -1648629.9, -30109.05, 0.0006665531, 9.999393, 10.000078 
1.1449905e+3, 1.4484395e+2, -1600132.5, -1560021.9, 3295.8518, -0.111679666, -0.05942992, -1559752.9, -39228.83, 0.00020295075, 9.999453, 9.99998 
1.14499316e+3, 1.5484387e+2, -1472274.9, -1446292.9, -13237.922, -0.008771672, -0.06891411, -1440736.4, -18211.908, 0.000019742625, 9.999653, 9.9999895 
1.1449955e+3, 1.6484374e+2, -1390516.1, -1400663.8, 1883.5648, 0.034469575, -0.061960813, -1390177.8, -65651.97, 0.000000013934886, 9.999732, 9.999592 
1.1449973e+3, 1.7484352e+2, -1298178.6, -1303568.5, 3257.1519, 0.0024633498, -0.04578231, -1296646.0, -70117.9, 0.0, 9.999685, 9.999609 
1.1449991e+3, 1.8484291e+2, -1223940.9, -1267501.8, -1042.0294, -0.019059666, -0.044155043, -1223915.9, -95381.66, 0.0, 9.999739, 9.999157 
1.1450011e+3, 1.948419e+2, -1099110.9, -1154729.1, 5508.945, -0.026782626, -0.06466024, -1098570.5, -68026.016, 0.0, 9.999915, 9.999174 
1.1450033e+3, 2.0484103e+2, -996010.6, -1070411.3, 14854.691, -0.0059132837, -0.06073827, -993154.4, -60601.363, 0.0, 10.000019, 9.99903 
1.1450061e+3, 2.1484034e+2, -893160.8, -967858.6, 1511.3888, 0.043864615, -0.037372444, -893130.25, -58570.34, 0.0, 10.000043, 9.999049 
1.1450084e+3, 2.248392e+2, -819282.6, -936889.3, -3206.4128, 0.052694034, -0.030307272, -819195.25, -82623.81, 0.0, 10.000117, 9.998554 
1.14501014e+3, 2.3483762e+2, -701755.3, -827719.1, 10513.255, 0.017496418, -0.048154052, -700883.9, -62295.832, 0.0, 10.000243, 9.9985695 
1.1450121e+3, 2.448362e+2, -590510.44, -738340.1, 22555.516, -0.011792971, -0.039477322, -587145.56, -46543.047, 0.0, 10.0004, 9.998434 
1.1450142e+3, 2.5483498e+2, -463076.0, -623644.94, 20067.799, -0.034440517, -0.009178258, -460605.94, -17991.176, 0.0, 10.00059, 9.998457 
1.1450166e+3, 2.648334e+2, -364689.44, -521410.53, 23272.21, -0.019739972, -0.013627415, -361306.7, -16676.78, 0.0, 10.000575, 9.998493 
1.1450195e+3, 2.7483144e+2, -298617.38, -435410.0, 20580.951, 0.033285756, -0.06215626, -295588.0, -48939.863, 0.0, 10.000342, 9.998522 
1.1450217e+3, 2.8482994e+2, -214670.25, -405641.5, -3445.102, 0.03761268, -0.03736376, -214608.13, -65944.805, 0.0, 10.000509, 9.997973 
1.14502296e+3, 2.9482892e+2, -31348.865, -265590.9, 2607.9546, -0.0069354256, 0.05790805, -31319.832, 19355.541, 0.0, 10.00109, 9.997984 
1.1450249e+3, 3.0482623e+2, 68914.87, -85165.67, 30697.912, -0.030637752, -0.055120416, 74805.69, 74805.69, 0.0, 10.000984, 9.99894 
1.1450274e+3, 3.1482545e+2, -7158.2627, -52769.844, 11497.416, -0.025883405, -0.032981057, -4423.993, -4423.993, 0.0, 10.000165, 9.999556 
1.15498684e+3, 1.24842174e+2, -1788008.4, -1736356.4, 7585.3784, -0.0990625, -0.045312963, -1735265.5, -18725.332, 0.0014692028, 9.999451, 10.000112 
1.1549903e+3, 1.3484193e+2, -1692701.6, -1635273.0, -6567.5874, 0.10850102, -0.08709589, -1634531.5, -15989.127, 0.00075311697, 9.999393, 10.000172 
1.15499e+3, 1.4484161e+2, -1613961.3, -1589421.9, 9645.289, -0.112117164, -0.116392404, -1586084.6, -65538.62, 0.000235787, 9.9994545, 9.999777 
1.154993e+3, 1.5484227e+2, -1486956.4, -1476832.3, -5552.3076, 0.0067028385, -0.03018057, -1474380.8, -51840.25, 0.000024990082, 9.999652, 9.999781 
1.1549953e+3, 1.6484214e+2, -1389346.1, -1397651.9, -725.2955, 0.04598369, -0.012303944, -1389283.3, -64741.156, 0.000000023716384, 9.99973, 9.999614 
1.1549968e+3, 1.748412e+2, -1296714.5, -1300041.0, 1102.6827, -0.020019619, -0.07123044, -1296382.1, -69831.3, 0.0, 9.999683, 9.999634 
1.1549988e+3, 1.8484056e+2, -1211410.0, -1241418.0, 4383.7554, -0.03967119, -0.08416944, -1210782.6, -82225.75, 0.0, 9.999738, 9.999337 
1.1550012e+3, 1.9484021e+2, -1086316.8, -1128593.1, 11776.112, -0.0007201326, -0.05683449, -1083257.8, -52697.434, 0.0, 9.999916, 9.999352 
1.1550037e+3, 2.0483947e+2, -1020634.3, -1121391.4, 14435.556, 0.02381489, -0.03346764, -1018606.9, -86038.32, 0.0, 10.000018, 9.998681 
1.155006e+3, 2.1483828e+2, -918368.4, -1019706.75, 1572.5402, 0.03032471, -0.020762162, -918344.0, -83762.12, 0.0, 10.000041, 9.998695 
1.15500815e+3, 2.248371e+2, -794494.75, -884592.75, 259.31494, 0.021617273, -0.02020705, -794494.06, -57899.9, 0.0, 10.0001135, 9.998915 
1.15501024e+3, 2.3483586e+2, -676041.94, -773885.25, 15155.327, -0.002436823, -0.039876956, -673748.25, -35142.83, 0.0, 10.000241, 9.99894 
1.1550125e+3, 2.4483451e+2, -593690.06, -744032.75, 29343.29, -0.013922132, -0.039963912, -588165.94, -47547.89, 0.0, 10.000395, 9.998398 
1.15501486e+3, 2.548331e+2, -466057.7, -630010.7, 27674.94, -0.01141352, -0.025532678, -461512.22, -18880.125, 0.0, 10.00059, 9.998414 
1.1550173e+3, 2.648315e+2, -369672.6, -532105.7, 14602.916, -0.0042997897, -0.025403941, -368370.22, -23722.53, 0.0, 10.000577, 9.99842 
1.1550196e+3, 2.7482975e+2, -304783.53, -446536.06, 12218.487, 0.005748346, -0.046651058, -303738.06, -57073.22, 0.0, 10.000335, 9.998449 
1.1550219e+3, 2.8482828e+2, -203072.75, -378866.28, 18584.477, 0.013677544, -0.024467813, -201129.52, -52450.12, 0.0, 10.000498, 9.998164 
1.1550243e+3, 2.9482704e+2, -17459.025, -237497.22, 26985.158, 0.020515144, 0.03281189, -14197.937, 36493.793, 0.0, 10.001093, 9.998176 
1.15502626e+3, 3.0482408e+2, 40803.92, -145236.94, 908.2943, 0.0077267373, -0.09678324, 40808.355, 40808.355, 0.0, 10.00099, 9.998526 
1.1550278e+3, 3.1482336e+2, -24501.783, -88577.59, -17983.824, -0.016825415, -0.028296499, -19799.45, -19799.45, 0.0, 10.000162, 9.999311 
1.1649862e+3, 1.2484004e+2, -1818711.8, -1757424.3, 30004.547, -0.09405452, -0.07797417, -1745180.8, -28621.139, 0.0016317561, 9.999269, 10.000055 
1.1649898e+3, 1.3484007e+2, -1691646.4, -1641017.9, -12824.829, 0.120061405, -0.08767804, -1637954.6, -19394.422, 0.00084588735, 9.999427, 10.000117 
1.1649894e+3, 1.4483973e+2, -1602986.8, -1585480.1, 9574.543, -0.11837524, -0.114605956, -1581260.8, -60696.473, 0.00027161013, 9.999535, 9.999765 
1.1649925e+3, 1.548403e+2, -1494172.5, -1481361.9, 8136.9214, 0.0018824859, -0.037734002, -1477411.6, -54852.15, 0.000031011183, 9.999606, 9.999773 
1.1649951e+3, 1.6484013e+2, -1400189.3, -1406790.6, 15140.304, 0.04547824, -0.020737126, -1387994.0, -63432.695, 0.00000004774233, 9.999673, 9.999579 
1.16499655e+3, 1.7483923e+2, -1288926.1, -1300143.6, 11494.307, -0.017452884, -0.072388284, -1281745.1, -55175.12, 0.0, 9.999754, 9.9995985 
1.16499856e+3, 1.848386e+2, -1193845.5, -1238407.8, 11106.398, -0.034294173, -0.080993176, -1191230.9, -62654.523, 0.0, 9.999882, 9.999289 
1.1650013e+3, 1.9483821e+2, -1067905.4, -1124817.1, 821.36115, 0.006740352, -0.051324718, -1067893.5, -37313.29, 0.0, 10.000065, 9.999307 
1.1650038e+3, 2.0483744e+2, -1002684.4, -1109493.8, 2298.7556, 0.028443044, -0.029015258, -1002634.94, -70046.3, 0.0, 10.000129, 9.998709 
1.165006e+3, 2.1483625e+2, -911793.94, -1013549.25, 17946.416, 0.026377603, -0.021940567, -908721.56, -74119.58, 0.0, 10.0000725, 9.998722 
1.1650082e+3, 2.2483508e+2, -791282.3, -887710.9, 24027.434, 0.011604565, -0.01802448, -785627.0, -49012.902, 0.0, 10.000155, 9.998873 
1.1650104e+3, 2.3483394e+2, -658275.5, -770017.4, 6118.7876, -0.015841862, -0.023551194, -657941.44, -19316.535, 0.0, 10.000384, 9.998898 
1.1650128e+3, 2.4483262e+2, -574299.6, -712736.7, 7606.936, -0.02036456, -0.029820599, -573882.9, -33245.99, 0.0, 10.000434, 9.998594 
1.1650155e+3, 2.548311e+2, -495279.47, -621601.9, 24083.143, -0.0014890082, -0.044751365, -490843.8, -48193.53, 0.0, 10.000294, 9.998614 
1.1650179e+3, 2.6482946e+2, -396836.7, -560528.06, 21630.193, 0.0036718992, -0.051217463, -394026.72, -49360.813, 0.0, 10.000458, 9.998281 
1.1650202e+3, 2.7482778e+2, -227726.95, -426642.3, 13136.029, -0.0051928815, -0.052857712, -226863.22, 19820.508, 0.0, 10.000937, 9.998297 
1.16502255e+3, 2.8482634e+2, -130656.44, -326980.03, 12151.561, 0.0027079727, -0.027592646, -129907.17, 18790.92, 0.0, 10.00092, 9.998317 
1.16502516e+3, 2.948251e+2, -109607.98, -264152.53, 15246.97, 0.028033609, 0.012511602, -108118.11, -57408.605, 0.0, 10.000384, 9.998333 
1.1650271e+3, 3.0482206e+2, -52131.297, -215327.13, -7709.8394, 0.021093251, -0.12126703, -51767.87, -51767.87, 0.0, 10.000462, 9.998298 
1.1650286e+3, 3.1482136e+2, 117682.92, -25637.557, -10627.712, -0.0043184394, -0.024309097, 118466.71, 118466.71, 0.0, 10.001161, 9.999266 
1.1749856e+3, 1.2483766e+2, -1832035.0, -1784932.9, 50746.9, -0.08110198, -0.14374006, -1752538.4, -35957.2, 0.0018049687, 9.999269, 9.9998665 
1.1749893e+3, 1.3483876e+2, -1706097.0, -1670755.5, -6837.7417, 0.12845159, -0.025735455, -1669478.8, -50905.258, 0.0009453062, 9.999424, 9.999916 
1.17498875e+3, 1.4483841e+2, -1591140.4, -1559548.3, 11088.7705, -0.13545288, -0.052630063, -1556044.6, -35466.79, 0.0003105983, 9.99953, 9.999946 
1.17499195e+3, 1.54838e+2, -1481204.9, -1453885.6, 10715.854, -0.02529201, -0.09185431, -1450183.9, -27603.217, 0.000037854974, 9.999604, 9.999962 
1.1749946e+3, 1.6483775e+2, -1406363.8, -1420346.0, 17193.693, 0.030294668, -0.08872518, -1394794.3, -70211.2, 0.00000010132158, 9.999675, 9.999486 
1.1749966e+3, 1.7483766e+2, -1295736.3, -1314613.6, 14418.413, 0.0083927885, -0.049609087, -1287941.9, -61356.8, 0.0, 9.999754, 9.9995 
1.1749988e+3, 1.8483709e+2, -1213278.9, -1278365.5, 16707.668, -0.0057826815, -0.033634998, -1209240.6, -80648.83, 0.0, 9.99988, 9.999015 
1.1750012e+3, 1.9483599e+2, -1087690.5, -1165355.3, 7172.599, -0.0049815285, -0.04773185, -1087033.6, -56430.2, 0.0, 10.000062, 9.99903 
1.17500365e+3, 2.0483506e+2, -974400.7, -1050455.5, -852.77686, 0.006476676, -0.04755004, -974391.1, -41778.48, 0.0, 10.000127, 9.999115 
1.1750061e+3, 2.1483427e+2, -882682.0, -953054.4, 15369.335, 0.029055875, -0.041346803, -879471.75, -44852.13, 0.0, 10.000072, 9.999138 
1.1750084e+3, 2.2483324e+2, -823732.06, -954463.3, 31291.451, 0.019276252, -0.023581965, -816628.25, -79997.56, 0.0, 10.000152, 9.998416 
1.1750107e+3, 2.3483191e+2, -691142.2, -838194.5, 14382.482, -0.023401393, 0.0002042202, -689748.7, -51102.69, 0.0, 10.000382, 9.99843 
1.1750132e+3, 2.4483052e+2, -544333.3, -650074.1, 1740.8446, -0.032121386, -0.0102574555, -544304.6, -3645.9534, 0.0, 10.000432, 9.999025 
1.1750157e+3, 2.5482905e+2, -464504.4, -556668.5, 19044.244, -0.006121091, -0.0666309, -460724.25, -18055.496, 0.0, 10.00029, 9.999062 
1.1750184e+3, 2.648274e+2, -410961.13, -589006.7, 39784.746, 0.0028928993, -0.089839056, -402475.56, -57791.7, 0.0, 10.000453, 9.998089 
1.1750211e+3, 2.748256e+2, -242248.3, -456420.06, 32755.639, -0.0055239494, -0.080939494, -237350.61, 9353.436, 0.0, 10.000935, 9.998094 
1.1750235e+3, 2.8482416e+2, -126409.71, -318000.4, -7290.828, -0.001295934, -0.04820431, -126132.664, 22586.225, 0.0, 10.000919, 9.99838 
1.1750254e+3, 2.9482302e+2, -105496.62, -254127.22, -4591.7803, 0.015579787, -0.0028313475, -105354.9, -54626.32, 0.0, 10.000379, 9.9984045 
1.1750275e+3, 3.0482012e+2, -50710.41, -210858.16, 18586.809, 0.010276295, -0.1281999, -48581.516, -48581.516, 0.0, 10.000454, 9.998333 
1.1750298e+3, 3.148196e+2, 134517.03, 9579.032, 19816.6, 0.00030802956, -0.016612247, 137584.84, 137584.84, 0.0, 10.00116, 9.999508 
1.1849853e+3, 1.2483565e+2, -1754834.3, -1754378.3, 50000.62, -0.07564934, -0.1493381, -1704605.1, 11995.442, 0.001990702, 9.999828, 9.999805 
1.1849888e+3, 1.3483687e+2, -1704471.4, -1680373.0, -18449.62, 0.13132124, -0.009743814, -1670386.5, -51794.504, 0.0010523666, 9.99948, 9.999823 
1.1849882e+3, 1.448364e+2, -1610577.5, -1565954.6, 8348.603, -0.14132467, -0.044614907, -1564443.9, -43846.258, 0.00035315592, 9.999385, 9.999971 
1.1849916e+3, 1.5483582e+2, -1479250.8, -1449444.5, -4581.174, -0.021767914, -0.1040601, -1448756.3, -26154.41, 0.000045623692, 9.999603, 9.999991 
1.18499435e+3, 1.6483559e+2, -1394197.5, -1417688.5, -2662.3904, 0.035940282, -0.099881254, -1393899.6, -69295.43, 0.00000019883093, 9.999771, 9.999457 
1.1849964e+3, 1.7483571e+2, -1277501.0, -1308509.8, -917.2563, 0.005687484, -0.03584695, -1277474.0, -50869.566, 0.0, 9.999891, 9.9994755 
1.1849987e+3, 1.8483518e+2, -1204773.9, -1275972.1, 14053.469, -0.009276707, -0.014276742, -1202100.4, -73489.516, 0.0, 9.999947, 9.998999 
1.1850012e+3, 1.9483389e+2, -1106352.1, -1176138.4, 23325.113, -0.0017093002, -0.044414405, -1099274.0, -68649.98, 0.0, 9.999942, 9.999014 
1.1850038e+3, 2.0483284e+2, -987457.4, -1055566.4, 10758.641, 0.008560295, -0.05633562, -985798.3, -53164.105, 0.0, 10.0000305, 9.999126 
1.1850062e+3, 2.1483202e+2, -859841.4, -939753.5, -4122.915, 0.020221733, -0.056730907, -859629.2, -24987.8, 0.0, 10.00022, 9.999157 
1.18500866e+3, 2.2483101e+2, -803036.5, -939282.2, 15708.719, 0.014369288, -0.037885122, -801248.75, -64596.99, 0.0, 10.000273, 9.998462 
1.1850111e+3, 2.3482981e+2, -717903.2, -845969.3, 36992.85, -0.009608852, -0.005637227, -707985.56, -69320.01, 0.0, 10.000176, 9.998476 
1.1850136e+3, 2.4482843e+2, -571216.8, -672295.75, 26335.408, -0.022419287, -0.015729567, -564766.9, -24088.43, 0.0, 10.000288, 9.998942 
1.18501596e+3, 2.5482675e+2, -422775.84, -546479.06, 2158.696, -0.02339529, -0.079801634, -422738.2, 19952.35, 0.0, 10.000618, 9.998974 
1.1850188e+3, 2.6482514e+2, -373547.7, -558041.56, 14043.622, -0.015175178, -0.10358589, -372484.8, -27779.262, 0.0, 10.000654, 9.998204 
1.18502185e+3, 2.748235e+2, -313969.72, -477379.9, 29728.6, 0.0016938536, -0.089397974, -308729.34, -62005.74, 0.0, 10.000385, 9.998214 
1.1850243e+3, 2.8482208e+2, -182318.31, -347445.44, -2720.655, 0.006597589, -0.0581552, -182273.5, -33535.71, 0.0, 10.000548, 9.998355 
1.185026e+3, 2.9482087e+2, 6058.9644, -204547.95, -6753.9478, 0.0005520711, -0.019674383, 6275.3345, 57023.66, 0.0, 10.001161, 9.998369 
1.1850281e+3, 3.0481797e+2, 48776.96, -177761.55, 7840.1094, -0.004303201, -0.1391381, 49047.97, 49047.97, 0.0, 10.001203, 9.998199 
1.18503086e+3, 3.148173e+2, 64961.668, -14126.592, -8599.108, 0.015449396, -0.025583861, 65885.83, 65885.83, 0.0, 10.000641, 9.999594 
1.194985e+3, 1.2483408e+2, -1751679.9, -1745825.4, 52942.164, -0.08479374, -0.09321521, -1695729.6, 20887.174, 0.0021913827, 9.999821, 9.999867 
1.1949882e+3, 1.3483444e+2, -1704018.6, -1679904.9, -31899.855, 0.1266388, -0.039757356, -1657859.4, -39244.375, 0.0011682742, 9.999481, 9.9998255 
1.1949875e+3, 1.4483376e+2, -1618672.0, -1583820.1, 14742.661, -0.13773558, -0.09151599, -1578420.4, -57797.617, 0.00039982723, 9.999388, 9.999847 
1.1949915e+3, 1.5483382e+2, -1488119.3, -1468320.5, 3619.8308, 0.01032011, -0.07413658, -1467679.5, -45057.063, 0.00005450218, 9.999604, 9.999863 
1.1949944e+3, 1.6483371e+2, -1391779.1, -1412550.6, 1013.95544, 0.058756705, -0.052397367, -1391729.8, -67105.73, 0.00000035173326, 9.99977, 9.999493 
1.19499594e+3, 1.7483345e+2, -1274730.1, -1302596.1, 3336.854, -0.027089445, -0.030942565, -1274336.1, -47708.797, 0.0, 9.99989, 9.9995165 
1.1949982e+3, 1.848329e+2, -1187949.1, -1241214.0, 12920.653, -0.047461037, -0.024501339, -1184980.4, -56347.273, 0.0, 9.999947, 9.999238 
1.1950014e+3, 1.9483198e+2, -1089320.0, -1141136.4, 22569.867, 0.014138331, -0.042696953, -1080867.8, -50226.273, 0.0, 9.999942, 9.999254 
1.19500406e+3, 2.0483087e+2, -1014481.56, -1111015.3, 16473.734, 0.03182296, -0.054644246, -1011747.7, -79095.05, 0.0, 10.000028, 9.998747 
1.1950062e+3, 2.1482952e+2, -887379.06, -996791.94, 2330.954, -0.00026224816, -0.067844324, -887329.44, -52662.754, 0.0, 10.000219, 9.998766 
1.1950087e+3, 2.2482847e+2, -764586.25, -859048.3, 11091.87, -0.0040810527, -0.061331023, -763301.3, -26624.45, 0.0, 10.000271, 9.999014 
1.1950116e+3, 2.3482773e+2, -678172.8, -763481.4, 33216.434, 0.023784112, -0.041122127, -666764.9, -28081.979, 0.0, 10.000176, 9.999043 
1.1950142e+3, 2.4482638e+2, -613727.75, -760430.94, 38024.023, 0.006805145, -0.045849696, -604458.0, -63762.523, 0.0, 10.000286, 9.998338 
1.19501635e+3, 2.5482437e+2, -466943.63, -637338.44, 15032.195, -0.057332832, -0.084755704, -465627.66, -22912.613, 0.0, 10.000614, 9.998352 
1.195019e+3, 2.6482272e+2, -346234.94, -500652.25, 4109.069, -0.054493856, -0.09368029, -346125.7, -1395.0493, 0.0, 10.00065, 9.9986 
1.1950223e+3, 2.7482152e+2, -285194.5, -416979.3, 20016.627, 0.017250009, -0.077031635, -282221.28, -35479.258, 0.0, 10.000382, 9.998631 
1.195025e+3, 2.8482023e+2, -187056.97, -357350.4, 20187.102, 0.027100453, -0.05585047, -184696.64, -35942.316, 0.0, 10.000547, 9.998288 
1.195027e+3, 2.948187e+2, -1109.103, -217386.61, 18597.342, -0.027545352, -0.03990874, 478.39886, 51246.477, 0.0, 10.001152, 9.998285 
1.195029e+3, 3.0481556e+2, 20122.125, -235776.34, -12021.642, -0.03354554, -0.15576859, 20685.639, 20685.639, 0.0, 10.001195, 9.997805 
1.1950317e+3, 3.1481457e+2, 52008.26, -40421.336, -27783.41, 0.04160008, -0.040085398, 59716.793, 59716.793, 0.0, 10.000638, 9.999414 
1.2049847e+3, 1.24831915e+2, -1772240.0, -1742002.0, 48170.273, -0.07815373, -0.07128843, -1706633.8, 10004.719, 0.0024090873, 9.999621, 9.999989 
1.2049877e+3, 1.3483189e+2, -1684994.4, -1664190.1, -53421.637, 0.12532102, -0.061665665, -1620167.3, -1527.9498, 0.0012942023, 9.999582, 9.999885 
1.20498694e+3, 1.4483114e+2, -1604440.9, -1584614.5, 9243.339, -0.14257787, -0.12032699, -1580973.6, -60325.938, 0.00045114366, 9.999518, 9.999779 
1.204991e+3, 1.5483162e+2, -1509798.6, -1485919.3, 2112.1501, 0.0058253845, -0.05377221, -1485733.9, -63089.504, 0.00006471426, 9.999488, 9.999797 
1.204994e+3, 1.6483158e+2, -1414780.3, -1415639.4, 7130.278, 0.06170578, -0.026651837, -1408066.6, -83421.03, 0.00000057087306, 9.99958, 9.999562 
1.20499596e+3, 1.7483096e+2, -1280588.4, -1297813.6, 10807.109, -0.013598213, -0.04753707, -1275381.8, -48730.22, 0.0, 9.999818, 9.999583 
1.2049983e+3, 1.8483034e+2, -1184640.5, -1235695.6, 8558.366, -0.037930768, -0.05265218, -1183244.0, -54586.56, 0.0, 9.999951, 9.999273 
1.20500125e+3, 1.9482969e+2, -1082177.8, -1132860.0, 2217.459, 0.0048340033, -0.048522346, -1082080.9, -51417.555, 0.0, 9.999972, 9.999296 
1.2050039e+3, 2.048287e+2, -1017019.3, -1118971.0, 6342.021, 0.018458493, -0.047720794, -1016626.3, -83952.68, 0.0, 10.00004, 9.998686 
1.2050063e+3, 2.148273e+2, -900545.0, -1010372.7, 16166.66, -0.003167009, -0.05847129, -898214.7, -63525.996, 0.0, 10.000159, 9.998702 
1.205009e+3, 2.2482617e+2, -758928.0, -844552.1, 15258.467, -0.0033913052, -0.06098728, -756290.2, -19590.943, 0.0, 10.0002575, 9.999121 
1.2050118e+3, 2.3482533e+2, -647119.75, -735681.9, 1873.587, 0.021340825, -0.06176244, -647080.1, -8375.238, 0.0, 10.000336, 9.999157 
1.2050145e+3, 2.44824e+2, -604497.75, -770051.1, 14914.119, 0.008412885, -0.06367681, -603164.94, -62447.664, 0.0, 10.000411, 9.998211 
1.205017e+3, 2.5482213e+2, -494865.1, -665182.6, 27982.658, -0.045214996, -0.07543631, -490385.44, -47648.5, 0.0, 10.000484, 9.998223 
1.20501965e+3, 2.6482052e+2, -350148.63, -492047.0, 14879.298, -0.04982758, -0.08099391, -348605.2, -3852.6406, 0.0, 10.00058, 9.9986925 
1.2050227e+3, 2.7481923e+2, -232627.7, -381168.3, 6438.4746, -0.0023705282, -0.086053446, -232349.16, 14414.634, 0.0, 10.000698, 9.998725 
1.20502554e+3, 2.8481787e+2, -158683.78, -338661.88, 10963.66, 0.009910546, -0.07305452, -158018.38, -9242.602, 0.0, 10.000721, 9.998332 
1.2050279e+3, 2.9481643e+2, -71669.99, -246704.8, 15462.754, -0.014920639, -0.05189338, -70314.49, -19525.367, 0.0, 10.0006485, 9.998325 
1.2050303e+3, 3.0481333e+2, -37924.45, -285512.44, -10921.749, -0.018065747, -0.15773259, -37443.598, -37443.598, 0.0, 10.000891, 9.997608 
1.2050327e+3, 3.1481183e+2, 170727.61, 16096.516, -9933.448, 0.038749065, -0.07559375, 171363.11, 171363.11, 0.0, 10.001456, 9.999409 
1.21498466e+3, 1.24829225e+2, -1760357.1, -1717475.6, 63386.3, -0.056382533, -0.08245908, -1672002.0, 44662.938, 0.002645014, 9.999621, 10.000157 
1.21498734e+3, 1.3482927e+2, -1676685.3, -1648364.9, -55817.86, 0.12324296, -0.076183565, -1604939.1, 13725.27, 0.0014309159, 9.999586, 9.999992 
1.2149863e+3, 1.448286e+2, -1604898.4, -1585559.8, 6409.0435, -0.161355, -0.13134657, -1583628.5, -62956.715, 0.00050734985, 9.999518, 9.999772 
1.2149901e+3, 1.5482928e+2, -1510339.3, -1486822.9, 1118.6478, -0.036875136, -0.043489296, -1486769.9, -64102.703, 0.000076397075, 9.999486, 9.999792 
1.2149934e+3, 1.6482921e+2, -1408547.0, -1402497.1, 14693.305, 0.042222563, -0.024356872, -1390520.6, -65852.06, 0.0000008702971, 9.999578, 9.999653 
1.21499635e+3, 1.7482828e+2, -1274298.0, -1285124.3, 19353.754, 0.044181526, -0.08583048, -1259614.6, -32938.137, 0.0, 9.999818, 9.999671 
1.2149988e+3, 1.8482757e+2, -1196101.3, -1259119.8, 8381.501, 0.016753439, -0.096534885, -1195005.5, -66322.22, 0.0, 9.999949, 9.999113 
1.2150008e+3, 1.9482705e+2, -1093498.3, -1156769.1, 2620.675, -0.030468687, -0.06185901, -1093389.9, -62701.004, 0.0, 9.999973, 9.999131 
1.2150035e+3, 2.0482634e+2, -998960.0, -1081870.1, 9449.668, -0.033199027, -0.03714412, -997896.6, -65199.906, 0.0, 10.000041, 9.99894 
1.21500656e+3, 2.1482539e+2, -882423.25, -972432.4, 19971.94, 0.008924714, -0.029823713, -878190.75, -43483.805, 0.0, 10.000156, 9.998964 
1.2150094e+3, 2.2482419e+2, -783570.75, -894683.56, 16905.213, 0.014121146, -0.037015293, -781055.6, -44337.293, 0.0, 10.000253, 9.998778 
1.21501185e+3, 2.348227e+2, -671974.25, -786933.56, 4565.9434, -0.018363152, -0.067514114, -671793.2, -33062.227, 0.0, 10.000333, 9.998806 
1.2150147e+3, 2.4482137e+2, -580322.8, -719708.4, 17000.674, -0.019294644, -0.06956795, -578279.25, -37535.895, 0.0, 10.000409, 9.998558 
1.215018e+3, 2.5482014e+2, -469569.8, -612838.8, 31143.059, 0.011992139, -0.051145464, -463092.9, -20337.184, 0.0, 10.000484, 9.998583 
1.2150207e+3, 2.6481855e+2, -364393.3, -521916.6, 19420.414, -0.0017689359, -0.06487967, -362034.38, -17263.604, 0.0, 10.000581, 9.998487 
1.2150228e+3, 2.7481657e+2, -248774.89, -412471.38, 12186.679, -0.06396536, -0.11746871, -247872.61, -1084.1788, 0.0, 10.000688, 9.998515 
1.2150255e+3, 2.848151e+2, -152172.47, -323645.8, 8613.184, -0.052233998, -0.1107233, -151740.92, -2939.1614, 0.0, 10.000713, 9.99844 
1.2150292e+3, 2.9481414e+2, -63783.37, -230264.45, 13270.714, 0.039071508, -0.053165264, -62732.16, -11920.968, 0.0, 10.000648, 9.998439 
1.21503174e+3, 3.048113e+2, -32881.05, -275806.06, 10428.8125, 0.042969417, -0.14195712, -32434.162, -32434.162, 0.0, 10.000894, 9.997674 
1.2150338e+3, 3.1480917e+2, 185441.28, 49730.613, 15538.022, -0.0054141963, -0.12818314, 187197.55, 187197.55, 0.0, 10.001443, 9.999645 
1.22498415e+3, 1.2482632e+2, -1775820.5, -1712834.3, 77553.58, -0.052812252, -0.108833306, -1660623.3, 56069.62, 0.002898859, 9.999465, 10.000264 
1.2249868e+3, 1.3482666e+2, -1711874.6, -1661769.1, -67772.945, 0.13062014, -0.07635071, -1614566.6, 4123.017, 0.0015783015, 9.999331, 10.000022 
1.2249859e+3, 1.4482608e+2, -1622820.1, -1587855.1, 2793.384, -0.14982723, -0.12549737, -1587633.4, -66937.24, 0.0005682736, 9.99937, 9.999826 
1.2249895e+3, 1.5482667e+2, -1480658.1, -1466724.1, 1372.3475, -0.046243258, -0.052804187, -1466590.3, -43898.207, 0.00008951281, 9.999666, 9.999842 
1.224993e+3, 1.6482656e+2, -1375633.0, -1393826.1, 12383.064, 0.029760288, -0.036607098, -1369364.4, -44670.574, 0.0000012652538, 9.999834, 9.99959 
1.2249962e+3, 1.7482568e+2, -1272906.5, -1290846.5, 4747.661, 0.04879157, -0.08604111, -1271727.6, -45026.02, 0.0, 9.999857, 9.999612 
1.22499876e+3, 1.8482496e+2, -1196620.4, -1261297.1, -6952.083, 0.027568234, -0.09465948, -1195881.6, -67172.92, 0.0, 9.999956, 9.999095 
1.225001e+3, 1.9482432e+2, -1069414.1, -1147267.6, -2742.122, -0.028514655, -0.07005167, -1069317.6, -38602.21, 0.0, 10.000148, 9.999112 
1.2250035e+3, 2.0482364e+2, -980518.8, -1069341.3, -3327.7131, -0.035830606, -0.043493234, -980394.3, -47671.316, 0.0, 10.000152, 9.998973 
1.2250067e+3, 2.1482287e+2, -909392.06, -980873.6, -10440.38, 0.007586256, -0.020942494, -907898.4, -73167.27, 0.0, 9.999953, 9.999003 
1.2250095e+3, 2.2482163e+2, -823181.2, -926244.94, -2858.9382, 0.009520435, -0.029614868, -823102.0, -86358.98, 0.0, 10.000035, 9.998666 
1.2250121e+3, 2.3481983e+2, -668473.25, -798407.25, 1024.6558, -0.03206082, -0.07945109, -668465.2, -29706.268, 0.0, 10.000414, 9.998689 
1.225015e+3, 2.4481846e+2, -559941.3, -697333.56, 2633.3171, -0.02968478, -0.083707206, -559890.9, -19119.35, 0.0, 10.000495, 9.998671 
1.2250184e+3, 2.5481752e+2, -492535.94, -610473.25, -2441.0894, 0.018607264, -0.048684947, -492485.44, -49704.6, 0.0, 10.00027, 9.998702 
1.2250213e+3, 2.64816e+2, -404508.53, -535620.44, -4287.0444, 0.010929463, -0.06465344, -404368.5, -59573.652, 0.0, 10.000281, 9.998537 
1.2250234e+3, 2.7481377e+2, -267724.03, -416384.44, 5888.809, -0.056743123, -0.14106497, -267491.13, -20677.24, 0.0, 10.000536, 9.99856 
1.22502625e+3, 2.8481227e+2, -164835.11, -337402.56, -1285.1823, -0.05240305, -0.13932166, -164825.55, -15997.549, 0.0, 10.000661, 9.998369 
1.2250297e+3, 2.9481143e+2, -68062.42, -240932.83, -10760.291, 0.029421244, -0.06415016, -67395.23, -16557.879, 0.0, 10.000655, 9.998362 
1.2250326e+3, 3.0480888e+2, -20305.912, -260672.67, 2393.3696, 0.034083582, -0.12073332, -20282.084, -20282.084, 0.0, 10.000941, 9.997754 
1.2250354e+3, 3.148065e+2, 211891.03, 86011.26, 6202.4746, 0.0047416203, -0.14394009, 212195.9, 212195.9, 0.0, 10.001523, 9.999856 
1.2349834e+3, 1.2482327e+2, -1773555.4, -1707004.4, 86753.414, -0.07411925, -0.15106623, -1647363.6, 69357.84, 0.0031684104, 9.999459, 10.000306 
1.2349863e+3, 1.3482411e+2, -1715759.6, -1669997.4, -73379.99, 0.14677955, -0.062420085, -1616013.9, 2700.784, 0.001735363, 9.9993305, 9.999967 
1.2349856e+3, 1.4482367e+2, -1616088.6, -1573324.6, 11497.189, -0.109617494, -0.10258734, -1570429.6, -49709.695, 0.00063353236, 9.999367, 9.999928 
1.2349894e+3, 1.5482384e+2, -1473254.0, -1452712.0, 12449.159, -0.025219664, -0.08171711, -1446843.8, -24125.074, 0.00010392506, 9.99967, 9.999937 
1.2349928e+3, 1.6482367e+2, -1390315.6, -1424263.3, 12667.471, 0.020465393, -0.06303525, -1386109.8, -61389.008, 0.0000017603737, 9.999834, 9.999381 
1.2349956e+3, 1.7482322e+2, -1287608.8, -1321738.8, 5482.297, -0.0011336955, -0.049298685, -1286749.8, -60023.53, 0.0, 9.999857, 9.9994 
1.2349984e+3, 1.8482253e+2, -1188656.5, -1244707.8, -1306.4082, -0.008363402, -0.04947423, -1188626.0, -59892.652, 0.0, 9.999955, 9.999209 
1.23500146e+3, 1.9482155e+2, -1060979.6, -1129727.6, 3764.228, 0.008730352, -0.07322766, -1060774.1, -30031.44, 0.0, 10.000147, 9.999233 
1.23500414e+3, 2.0482063e+2, -993824.94, -1096425.0, -11807.964, 0.009373811, -0.06532556, -992483.56, -59731.754, 0.0, 10.00015, 9.998789 
1.23500645e+3, 2.1481979e+2, -922632.0, -1008569.56, -18437.148, -0.00888757, -0.03163601, -918843.5, -84082.81, 0.0, 9.999953, 9.998813 
1.2350093e+3, 2.2481851e+2, -815163.3, -909884.75, 9883.579, -0.019406298, -0.03907624, -814143.0, -77370.29, 0.0, 10.000036, 9.998778 
1.23501256e+3, 2.3481674e+2, -660600.44, -781898.8, 15245.499, -0.021191359, -0.09792989, -658713.7, -19925.445, 0.0, 10.000412, 9.998803 
1.2350155e+3, 2.4481533e+2, -569130.7, -716100.8, -6120.0864, -0.024011599, -0.106393635, -568876.25, -28074.928, 0.0, 10.000493, 9.998543 
1.2350183e+3, 2.548143e+2, -502234.88, -629432.06, -10367.408, -0.028558033, -0.06816112, -501395.4, -58583.598, 0.0, 10.000264, 9.998574 
1.23502135e+3, 2.648129e+2, -384917.34, -494286.06, 5199.425, -0.015047474, -0.08003037, -384670.72, -39846.28, 0.0, 10.000277, 9.998824 
1.2350248e+3, 2.74811e+2, -247110.05, -374002.78, 16367.748, 0.017838249, -0.15510753, -245032.8, 1806.996, 0.0, 10.000537, 9.998852 
1.23502746e+3, 2.8480947e+2, -181071.84, -371433.8, -1129.0916, 0.0074885553, -0.15723613, -181065.16, -32211.057, 0.0, 10.000662, 9.998136 
1.23502955e+3, 2.9480836e+2, -86707.86, -277173.47, -9143.123, -0.049751133, -0.08697935, -86269.96, -35402.62, 0.0, 10.000645, 9.998117 
1.2350327e+3, 3.0480617e+2, -18369.873, -254724.06, 24921.023, -0.05095135, -0.09590011, -15770.799, -15770.799, 0.0, 10.000932, 9.997801 
1.23503745e+3, 3.1480393e+2, 219399.16, 102912.12, 31935.045, 0.06545098, -0.110272616, 227579.69, 227579.69, 0.0, 10.001516, 9.999976 
1.2449829e+3, 1.2482046e+2, -1769434.3, -1707736.6, 87200.6, -0.075203516, -0.14716531, -1646089.0, 70659.76, 0.0034511252, 9.999502, 10.000279 
1.2449856e+3, 1.348212e+2, -1693699.5, -1670390.1, -94236.875, 0.1320785, -0.05715559, -1587090.0, 31653.266, 0.0019010409, 9.999531, 9.9998665 
1.24498524e+3, 1.4482075e+2, -1581431.4, -1553727.5, -2466.405, -0.10398622, -0.094501935, -1553509.8, -32761.193, 0.0007028683, 9.999591, 9.999954 
1.24498926e+3, 1.5482081e+2, -1459159.6, -1441638.6, -6547.985, -0.008230647, -0.08730426, -1439461.9, -16714.402, 0.00011956255, 9.999751, 9.999972 
1.2449928e+3, 1.6482061e+2, -1395355.6, -1438037.4, -11533.741, 0.031676885, -0.070818946, -1392438.4, -67688.16, 0.0000023468863, 9.99985, 9.999278 
1.2449952e+3, 1.7482014e+2, -1291459.8, -1335728.5, -11900.193, -0.01635106, -0.04879895, -1288463.5, -61707.035, 0.0, 9.999884, 9.99929 
1.2449982e+3, 1.8481949e+2, -1195856.6, -1242969.6, -14678.411, -0.024287537, -0.041355226, -1191657.6, -62894.043, 0.0, 9.999883, 9.999256 
1.24500155e+3, 1.9481862e+2, -1103908.1, -1144500.4, -15451.361, 0.020792268, -0.057094134, -1098695.9, -67924.37, 0.0, 9.999827, 9.999286 
1.2450044e+3, 2.0481761e+2, -1021352.7, -1109140.6, -26106.537, 0.026605975, -0.062336553, -1014175.8, -81394.69, 0.0, 9.999959, 9.998793 
1.2450066e+3, 2.1481642e+2, -873235.6, -984469.56, -19608.137, -0.013345048, -0.06526489, -869880.4, -35087.742, 0.0, 10.000292, 9.998816 
1.2450094e+3, 2.2481513e+2, -778265.94, -891333.75, 10155.955, -0.024713205, -0.073997796, -777360.94, -40556.41, 0.0, 10.000286, 9.998785 
1.24501295e+3, 2.3481372e+2, -731033.1, -814081.6, 6715.291, -0.004291946, -0.09690626, -730493.6, -91676.59, 0.0, 9.999922, 9.998817 
1.245016e+3, 2.4481231e+2, -647051.06, -757103.4, -9830.057, -0.005781953, -0.10323987, -646179.94, -105349.83, 0.0, 9.999974, 9.99851 
1.24501854e+3, 2.548109e+2, -475602.84, -620687.7, -8487.006, -0.030995023, -0.09912512, -475108.06, -32264.22, 0.0, 10.000464, 9.998538 
1.24502175e+3, 2.6480952e+2, -347245.3, -479746.44, -7019.628, -0.019040672, -0.10757877, -346874.47, -2017.7589, 0.0, 10.000551, 9.998791 
1.24502525e+3, 2.7480802e+2, -295020.13, -400415.16, -20773.777, 0.032128092, -0.13961288, -291073.34, -44204.25, 0.0, 10.000222, 9.99882 
1.2450282e+3, 2.848065e+2, -206653.03, -374127.78, -23102.313, 0.024377633, -0.1435391, -203524.61, -54641.266, 0.0, 10.000444, 9.99822 
1.2450305e+3, 2.9480496e+2, 4668.159, -223284.92, -8603.148, -0.046456076, -0.12183045, 4992.3887, 55891.953, 0.0, 10.001229, 9.998205 
1.2450337e+3, 3.0480313e+2, 21822.02, -231924.06, 19185.828, -0.05803412, -0.10341606, 23264.467, 23264.467, 0.0, 10.001194, 9.997829 
1.24503836e+3, 3.1480098e+2, 44219.973, 23214.037, 25891.375, 0.05869174, -0.111240044, 61657.58, 61657.58, 0.0, 10.000293, 10.000017 
1.2549825e+3, 1.2481799e+2, -1777420.1, -1724822.0, 100561.59, -0.05896186, -0.09483877, -1647177.5, 69595.984, 0.0037460001, 9.999503, 10.000163 
1.2549846e+3, 1.34818e+2, -1704277.0, -1694108.1, -94289.52, 0.08261845, -0.0618155, -1604766.0, 14008.97, 0.0020748412, 9.9995365, 9.999702 
1.2549844e+3, 1.448174e+2, -1584236.5, -1559143.8, 1451.8558, -0.13794336, -0.10407285, -1559060.0, -38278.457, 0.00077620865, 9.99959, 9.999918 
1.2549892e+3, 1.5481769e+2, -1460746.8, -1445417.6, -355.1167, 0.0036600914, -0.070971996, -1445409.5, -22631.246, 0.00013646827, 9.999752, 9.999947 
1.254993e+3, 1.648174e+2, -1396336.5, -1439602.5, -11563.295, 0.06140724, -0.061578773, -1393440.0, -68658.49, 0.0000030208696, 9.999847, 9.999269 
1.2549953e+3, 1.7481647e+2, -1291639.9, -1336977.0, -10983.528, 0.0011833763, -0.0836321, -1289119.1, -62327.15, 0.0, 9.9998865, 9.999281 
1.254998e+3, 1.8481587e+2, -1197141.6, -1245477.8, -17583.682, -0.022166038, -0.06914986, -1191421.9, -62623.07, 0.0, 9.999882, 9.99924 
1.2550013e+3, 1.9481562e+2, -1105000.3, -1147140.8, -17909.816, 0.0058887065, -0.022584638, -1098417.0, -67615.38, 0.0, 9.999828, 9.999268 
1.2550041e+3, 2.0481461e+2, -1008743.06, -1082641.9, -15238.73, 0.013006498, -0.03625855, -1005724.0, -72913.3, 0.0, 9.999957, 9.998976 
1.255007e+3, 2.1481277e+2, -860490.0, -957461.6, -7623.7485, -0.006840902, -0.12184303, -859894.25, -25067.775, 0.0, 10.000289, 9.999002 
1.2550099e+3, 2.248115e+2, -785193.94, -905313.7, -4472.864, -0.0069972877, -0.13428438, -785027.6, -48189.58, 0.0, 10.000283, 9.998691 
1.255013e+3, 2.348108e+2, -737820.56, -828014.25, -7194.519, 0.016581772, -0.07608711, -737250.3, -98405.41, 0.0, 9.999921, 9.998723 
1.2550162e+3, 2.4480948e+2, -642946.94, -748365.56, 7661.3765, 0.022350762, -0.07387908, -642393.06, -101535.58, 0.0, 9.999972, 9.998572 
1.2550196e+3, 2.548074e+2, -471585.47, -612294.94, 10605.48, 0.009146549, -0.14069745, -470790.6, -27914.082, 0.0, 10.0004635, 9.998596 
1.2550224e+3, 2.6480588e+2, -372154.47, -531437.9, -18791.635, -0.003319858, -0.14692943, -369967.53, -25076.252, 0.0, 10.000551, 9.998436 
1.255025e+3, 2.7480486e+2, -320600.7, -452380.75, -31907.963, -0.0163666, -0.09568996, -313281.3, -66379.78, 0.0, 10.0002165, 9.9984665 
1.2550284e+3, 2.8480333e+2, -180614.8, -318765.72, 6617.1475, -0.00411243, -0.09935931, -180298.58, -31382.95, 0.0, 10.000438, 9.998605 
1.2550326e+3, 2.9480132e+2, 31812.428, -165804.28, 22202.66, 0.03533645, -0.16675632, 34276.227, 85210.03, 0.0, 10.0012245, 9.998603 
1.2550355e+3, 3.047998e+2, 23739.932, -227115.05, -13561.837, 0.008222112, -0.14089195, 24470.986, 24470.986, 0.0, 10.001189, 9.997866 
1.2550378e+3, 3.1479776e+2, 40919.88, 18557.707, -3509.4685, -0.02127857, -0.13915125, 41457.715, 41457.715, 0.0, 10.000283, 9.9999895 
1.2649822e+3, 1.2481464e+2, -1789627.4, -1724294.3, 88044.23, -0.047314454, -0.0873227, -1663051.9, 53754.8, 0.0040529803, 9.999389, 10.000222 
1.2649842e+3, 1.3481449e+2, -1696929.8, -1688179.9, -107770.664, 0.07321202, -0.07280892, -1584695.4, 34113.71, 0.0022565385, 9.9995775, 9.9997225 
1.2649842e+3, 1.448139e+2, -1582736.1, -1568218.0, -6489.749, -0.13493027, -0.11034483, -1565740.0, -44924.656, 0.0008535736, 9.999643, 9.999829 
1.2649888e+3, 1.5481415e+2, -1484133.9, -1467807.4, -13718.223, -0.010464836, -0.07130259, -1460007.3, -37194.266, 0.00015477135, 9.9996395, 9.999846 
1.2649925e+3, 1.6481385e+2, -1409720.6, -1431116.4, -21846.1, 0.05018903, -0.064225525, -1396093.8, -71277.41, 0.0000038088367, 9.999691, 9.999402 
1.2649953e+3, 1.7481294e+2, -1295422.6, -1322713.0, -10937.787, 0.018471545, -0.09783802, -1291579.9, -64754.27, 0.0, 9.999793, 9.999423 
1.2649982e+3, 1.8481238e+2, -1196397.1, -1253065.4, -13966.005, -0.0022944983, -0.0843758, -1193142.1, -64310.145, 0.0, 9.999923, 9.999167 
1.2650011e+3, 1.9481213e+2, -1073473.8, -1140421.1, -19765.93, -0.0037410858, -0.02902023, -1068073.5, -37238.035, 0.0, 10.000083, 9.99919 
1.265004e+3, 2.0481117e+2, -980962.6, -1058983.4, -20147.42, -0.0020806582, -0.03775062, -976067.1, -43222.832, 0.0, 10.000104, 9.999067 
1.2650071e+3, 2.1480943e+2, -900952.56, -966142.8, -20201.986, 0.00007516934, -0.12256944, -895199.75, -60341.188, 0.0, 9.999966, 9.999098 
1.2650101e+3, 2.2480817e+2, -821567.4, -931785.6, -22632.438, 0.007831623, -0.13412026, -817101.0, -80231.07, 0.0, 10.0000725, 9.99861 
1.2650134e+3, 2.3480742e+2, -667291.75, -803648.8, -26081.46, 0.02318564, -0.07491477, -662473.3, -23595.34, 0.0, 10.000446, 9.998636 
1.2650165e+3, 2.4480607e+2, -571551.75, -709264.8, -10032.551, 0.0327022, -0.07327266, -570824.7, -29933.72, 0.0, 10.000442, 9.998614 
1.26502e+3, 2.5480402e+2, -530342.94, -634964.4, -9154.109, 0.034982678, -0.1426888, -529548.06, -86638.49, 0.0, 10.000036, 9.998646 
1.2650229e+3, 2.648025e+2, -441684.94, -577248.8, -26232.908, 0.016049359, -0.14386465, -436785.7, -91861.4, 0.0, 10.000126, 9.998326 
1.2650254e+3, 2.748015e+2, -254012.98, -433092.66, -22187.334, -0.02537046, -0.07982535, -251305.0, -4369.916, 0.0, 10.000729, 9.998353 
1.2650289e+3, 2.847999e+2, -135945.64, -288338.75, 12418.774, -0.01232912, -0.091057405, -134940.25, 14009.871, 0.0, 10.000707, 9.998684 
1.2650335e+3, 2.9479766e+2, -136715.17, -237789.19, 3364.0408, 0.05864926, -0.1864224, -136603.33, -85633.86, 0.0, 10.000027, 9.998685 
1.2650363e+3, 3.0479652e+2, -110891.12, -281160.8, -39829.156, 0.026894765, -0.13481124, -102034.984, -102034.984, 0.0, 10.000218, 9.997961 
1.2650384e+3, 3.147944e+2, 190980.19, 87689.48, -24544.182, -0.041715305, -0.1469513, 196515.77, 196515.77, 0.0, 10.001327, 9.999962 
1.2749815e+3, 1.2481046e+2, -1773426.5, -1688965.1, 104236.47, -0.045360453, -0.12476237, -1618729.5, 98118.36, 0.0043717744, 9.999381, 10.00047 
1.274984e+3, 1.348107e+2, -1681259.6, -1656452.9, -101211.336, 0.10301991, -0.09052114, -1566887.8, 51957.11, 0.0024458782, 9.99958, 9.999939 
1.2749842e+3, 1.448103e+2, -1592966.5, -1590185.8, -8411.885, -0.09693074, -0.11356525, -1583050.1, -62200.957, 0.00093509414, 9.999645, 9.999678 
1.2749879e+3, 1.5481023e+2, -1496074.3, -1493594.6, -13939.66, -0.05394546, -0.088363625, -1480839.8, -57988.48, 0.00017466526, 9.999642, 9.999669 
1.2749916e+3, 1.6481e+2, -1390935.6, -1391370.5, -19024.61, -0.005113857, -0.07951257, -1372127.1, -47273.19, 0.0000047674703, 9.999687, 9.999677 
1.2749954e+3, 1.748096e+2, -1275058.6, -1280677.3, -7431.3496, 0.03382231, -0.09215083, -1269923.4, -43066.5, 0.0, 9.999793, 9.999712 
1.2749985e+3, 1.84809e+2, -1205849.0, -1272244.4, -9296.391, 0.032244265, -0.08867835, -1204571.9, -75708.85, 0.0, 9.99992, 9.999037 
1.2750012e+3, 1.9480821e+2, -1083000.8, -1160378.1, -14174.96, -0.008862775, -0.07594478, -1080485.8, -49612.91, 0.0, 10.000083, 9.999054 
1.275004e+3, 2.0480736e+2, -980975.4, -1058963.6, -26241.133, -0.018925149, -0.0664608, -972968.0, -40086.67, 0.0, 10.000103, 9.999067 
1.2750071e+3, 2.1480645e+2, -901040.8, -966047.8, -25910.672, 0.004885294, -0.067668535, -891977.0, -57088.613, 0.0, 9.999963, 9.9991 
1.2750104e+3, 2.2480522e+2, -827121.1, -942359.0, -10203.735, 0.01614723, -0.07370651, -826224.6, -89324.83, 0.0, 10.000069, 9.99854 
1.2750137e+3, 2.348036e+2, -672786.75, -814764.3, -12083.731, 0.014655868, -0.093297094, -671765.6, -32849.754, 0.0, 10.000444, 9.998562 
1.2750168e+3, 2.448021e+2, -570371.75, -706552.56, -25224.594, 0.024136694, -0.10174148, -565849.56, -24919.36, 0.0, 10.00044, 9.998634 
1.2750201e+3, 2.5480074e+2, -528532.0, -630856.56, -23781.342, 0.04459047, -0.10553776, -523275.03, -80332.43, 0.0, 10.000033, 9.998676 
1.2750234e+3, 2.647994e+2, -433113.56, -558709.8, -3751.4797, 0.037544332, -0.0989311, -433001.63, -88046.12, 0.0, 10.000122, 9.998456 
1.2750264e+3, 2.7479795e+2, -245322.7, -414381.03, 1844.0471, 0.0014390135, -0.09094048, -245302.6, 1666.8193, 0.0, 10.000725, 9.998484 
1.2750296e+3, 2.8479618e+2, -151684.25, -320963.38, -12126.683, -0.004599083, -0.11754887, -150819.94, -1833.5033, 0.0, 10.000705, 9.998461 
1.275033e+3, 2.9479402e+2, -153880.84, -271548.56, -20820.148, 0.02113256, -0.18105243, -150305.56, -99299.26, 0.0, 10.000018, 9.998458 
1.2750363e+3, 3.0479324e+2, -102238.34, -261147.56, 2103.6592, -0.002906092, -0.08636792, -102210.5, -102210.5, 0.0, 10.00021, 9.998103 
1.2750402e+3, 3.1479105e+2, 185457.61, 79781.46, 23054.775, -0.0096980715, -0.1233966, 190268.34, 190268.34, 0.0, 10.001312, 9.999914 
1.2849812e+3, 1.2480663e+2, -1724347.6, -1650917.0, 122108.59, -0.03450789, -0.13276842, -1560123.4, 156762.02, 0.004702038, 9.999657, 10.000598 
1.2849835e+3, 1.3480699e+2, -1690063.4, -1647484.5, -101589.16, 0.09225551, -0.09745225, -1564978.0, 53902.254, 0.0026428213, 9.999464, 10.000056 
1.2849838e+3, 1.448067e+2, -1618843.8, -1606983.4, -3016.5313, -0.086970486, -0.11561193, -1606260.3, -85376.836, 0.001020959, 9.999486, 9.9996395 
1.2849876e+3, 1.5480646e+2, -1476864.4, -1488962.4, 1233.4613, -0.053768303, -0.10408957, -1476740.0, -53852.434, 0.00019628371, 9.999795, 9.999626 
1.2849915e+3, 1.6480617e+2, -1359041.4, -1378740.9, -13775.725, -0.010410161, -0.09506686, -1351956.4, -27065.643, 0.0000059623408, 9.999919, 9.999651 
1.2849951e+3, 1.7480591e+2, -1271544.0, -1282006.4, -26779.621, 0.029210838, -0.0923894, -1249489.4, -22596.99, 0.0, 9.999831, 9.999684 
1.2849984e+3, 1.8480533e+2, -1220061.1, -1273168.5, -30135.318, 0.032212347, -0.0888211, -1206449.8, -77551.305, 0.0, 9.999798, 9.999089 
1.2850012e+3, 1.9480442e+2, -1117290.4, -1170754.9, -21344.014, -0.00059397414, -0.09302913, -1109814.8, -78905.65, 0.0, 9.999822, 9.999107 
1.2850042e+3, 2.0480359e+2, -1003075.44, -1078538.6, -28619.617, -0.010478215, -0.07920843, -993449.3, -60531.668, 0.0, 9.99999, 9.998987 
1.2850071e+3, 2.1480289e+2, -855250.25, -952682.5, -35552.707, 0.0033958734, -0.05360834, -843656.7, -8732.887, 0.0, 10.000317, 9.999021 
1.2850104e+3, 2.2480166e+2, -781633.8, -908320.94, -18344.6, 0.013443515, -0.05866291, -779030.94, -42095.82, 0.0, 10.000329, 9.998648 
1.2850139e+3, 2.3479988e+2, -729731.9, -829329.06, -7308.696, 0.019768499, -0.10546819, -729198.4, -90246.41, 0.0, 9.999999, 9.998676 
1.2850173e+3, 2.4479842e+2, -632683.56, -741507.4, -15731.351, 0.030905506, -0.114567496, -630455.1, -89489.08, 0.0, 10.000033, 9.9985895 
1.2850204e+3, 2.547973e+2, -470268.7, -608271.6, -20984.965, 0.04690645, -0.08991058, -467148.25, -24171.387, 0.0, 10.000457, 9.998628 
1.2850237e+3, 2.6479596e+2, -376583.53, -523591.1, -2503.271, 0.041953523, -0.080745794, -376540.94, -31551.436, 0.0, 10.000476, 9.998527 
1.285027e+3, 2.7479434e+2, -336180.97, -449892.3, -2235.4434, 0.014553943, -0.09982196, -336137.03, -89132.41, 0.0, 10.000065, 9.998557 
1.2850302e+3, 2.847925e+2, -224165.0, -367890.03, -14492.361, 0.0026934557, -0.12971829, -222718.25, -73696.086, 0.0, 10.000258, 9.998354 
1.2850334e+3, 2.947905e+2, -5975.1333, -212609.52, -15870.47, 0.0082083475, -0.16906981, -4763.315, 46278.22, 0.0, 10.001085, 9.998349 
1.2850368e+3, 3.0478993e+2, 27993.598, -183987.44, 13030.807, -0.007837428, -0.053370718, 28791.617, 28791.617, 0.0, 10.001043, 9.99823 
1.2850411e+3, 3.1478742e+2, 392.6617, -22759.934, 33060.47, 0.025048608, -0.13511278, 23845.0, 23845.0, 0.0, 10.000098, 9.999794 
1.294981e+3, 1.2480323e+2, -1724965.6, -1653724.8, 119466.664, -0.02100215, -0.11161433, -1564681.3, 152237.11, 0.0050433725, 9.999661, 10.000578 
1.2949823e+3, 1.3480341e+2, -1690694.4, -1647892.1, -109655.17, 0.038022596, -0.09446826, -1557569.3, 61345.49, 0.0028472822, 9.99946, 10.000055 
1.294983e+3, 1.4480312e+2, -1614328.0, -1595992.3, 6587.529, -0.10900493, -0.11743875, -1593870.9, -72953.555, 0.0011110725, 9.999478, 9.999719 
1.294988e+3, 1.5480283e+2, -1469646.9, -1475029.1, 13145.233, -0.011546061, -0.11836856, -1458920.1, -35999.07, 0.000219555, 9.999799, 9.999721 
1.2949918e+3, 1.6480242e+2, -1381661.1, -1426275.5, -17735.904, 0.03186766, -0.11183846, -1375469.6, -50543.723, 0.0000074533, 9.999921, 9.999325 
1.2949947e+3, 1.7480192e+2, -1295355.9, -1331874.3, -30409.912, 0.0029521196, -0.099106595, -1278144.5, -51212.676, 0.0, 9.999832, 9.999343 
1.2949978e+3, 1.8480136e+2, -1204302.3, -1240261.0, -30375.572, -0.004192673, -0.08532988, -1186983.8, -58046.168, 0.0, 9.999797, 9.999316 
1.2950012e+3, 1.9480078e+2, -1100782.3, -1136271.6, -20859.41, 0.018916642, -0.079684496, -1091141.0, -60197.33, 0.0, 9.99982, 9.999346 
1.2950043e+3, 2.047999e+2, -1014654.6, -1101828.8, -17858.86, 0.019894782, -0.0757215, -1011137.8, -78185.2, 0.0, 9.999987, 9.99883 
1.2950075e+3, 2.1479872e+2, -866801.9, -976746.0, -23790.967, -0.005089208, -0.08107721, -861874.56, -26910.14, 0.0, 10.000317, 9.998857 
1.2950106e+3, 2.2479753e+2, -761539.9, -866509.56, -31380.432, -0.0009042478, -0.0899578, -752874.2, -15898.627, 0.0, 10.000328, 9.998936 
1.295014e+3, 2.347963e+2, -708931.2, -786134.9, -19730.36, 0.036385696, -0.111307405, -704181.1, -65195.15, 0.0, 9.999997, 9.998974 
1.2950175e+3, 2.4479502e+2, -640998.8, -758026.44, -667.057, 0.050377905, -0.11150578, -640995.0, -99996.96, 0.0, 10.00003, 9.998479 
1.2950207e+3, 2.547937e+2, -479261.03, -626431.6, -4407.1675, 0.03973212, -0.095166765, -479129.2, -36117.23, 0.0, 10.000454, 9.998505 
1.2950239e+3, 2.6479226e+2, -375959.78, -522420.2, -17184.223, 0.026922807, -0.089195944, -373970.6, -28944.664, 0.0, 10.000475, 9.998535 
1.295027e+3, 2.7479067e+2, -335895.22, -447895.16, -16379.67, 0.0113809835, -0.106044725, -333548.9, -86508.46, 0.0, 10.000058, 9.998574 
1.2950306e+3, 2.8478894e+2, -225114.77, -368583.22, 16879.242, 0.007840725, -0.12764727, -223155.66, -74098.6, 0.0, 10.000253, 9.998353 
1.2950347e+3, 2.947871e+2, -6565.6475, -212010.45, 17009.336, 0.015277944, -0.14878632, -5166.921, 45907.92, 0.0, 10.001079, 9.998356 
1.295038e+3, 3.047866e+2, 35984.465, -168040.77, -21397.67, 0.007284704, -0.034370266, 38204.445, 38204.445, 0.0, 10.001043, 9.998341 
1.2950414e+3, 3.1478366e+2, -15685.652, -51762.89, 2460.843, 0.05569291, -0.17035238, -15518.571, -15518.571, 0.0, 10.000079, 9.999604 
1.3049805e+3, 1.2479955e+2, -1769379.0, -1690249.5, 120772.37, -0.023861988, -0.1088523, -1602726.4, 114226.625, 0.0053935107, 9.999424, 10.000442 
1.3049817e+3, 1.3479944e+2, -1664907.6, -1649088.6, -124405.93, 0.02286091, -0.1093866, -1532341.0, 86611.86, 0.0030578757, 9.999698, 9.999932 
1.3049828e+3, 1.447991e+2, -1568681.5, -1568794.9, -9702.931, -0.095210895, -0.13130672, -1559035.1, -38079.19, 0.0012046372, 9.99977, 9.999764 
1.3049877e+3, 1.5479895e+2, -1488748.6, -1478913.9, -7062.846, -0.006876083, -0.12347292, -1475225.1, -52267.18, 0.000244213, 9.999645, 9.999768 
1.3049915e+3, 1.6479856e+2, -1420806.5, -1449293.1, -30489.22, 0.03004462, -0.11624931, -1401397.8, -76434.92, 0.000009295233, 9.999671, 9.999287 
1.3049945e+3, 1.7479791e+2, -1292399.5, -1334302.6, -20767.266, 0.0012834686, -0.11182632, -1283851.1, -56881.04, 0.0, 9.99987, 9.999307 
1.3049977e+3, 1.8479735e+2, -1176983.3, -1231530.1, -18585.346, -0.005741891, -0.09735372, -1171252.9, -42276.395, 0.0, 10.000004, 9.999275 
1.3050011e+3, 1.9479683e+2, -1068459.5, -1124650.3, -30892.91, 0.013994152, -0.081012346, -1054797.0, -23814.896, 0.0, 10.00006, 9.999309 
1.3050044e+3, 2.0479597e+2, -1005395.3, -1088931.4, -27231.516, 0.016459566, -0.07780758, -997302.3, -64311.457, 0.0, 10.000015, 9.998904 
1.3050076e+3, 2.1479474e+2, -928235.1, -997716.2, -15765.902, -0.0013775908, -0.09601842, -924825.06, -89822.086, 0.0, 9.999858, 9.998933 
1.3050109e+3, 2.2479358e+2, -815725.8, -890963.44, -26333.078, 0.003555528, -0.1048032, -807425.06, -70411.37, 0.0, 9.9999485, 9.99895 
1.3050142e+3, 2.3479252e+2, -662346.3, -761741.1, -37343.87, 0.03373601, -0.11216331, -649879.5, -10856.5625, 0.0, 10.00031, 9.99899 
1.3050176e+3, 2.4479131e+2, -587108.6, -723415.5, -19766.914, 0.045815513, -0.10885468, -584299.94, -43265.676, 0.0, 10.000362, 9.998556 
1.305021e+3, 2.5479e+2, -528492.3, -641443.9, -9261.244, 0.038841043, -0.100625336, -527738.0, -84690.07, 0.0, 10.000079, 9.998583 
1.3050243e+3, 2.6478857e+2, -425317.72, -552894.1, -18020.832, 0.029566973, -0.094338566, -422821.03, -77759.195, 0.0, 10.000166, 9.998475 
1.3050273e+3, 2.74787e+2, -253326.06, -415318.2, -24628.617, 0.01792002, -0.102427386, -249664.4, -2587.8833, 0.0, 10.000656, 9.99851 
1.3050312e+3, 2.8478527e+2, -162555.64, -334793.16, 12514.02, 0.019775791, -0.122036345, -161651.17, -12557.863, 0.0, 10.000668, 9.998384 
1.3050355e+3, 2.947834e+2, -136255.84, -270640.8, 13738.589, 0.034528915, -0.14938994, -134865.69, -83754.3, 0.0, 10.000171, 9.998392 
1.305039e+3, 3.04783e+2, -73776.98, -194764.27, -32013.525, 0.023260552, -0.04019634, -65828.33, -65828.33, 0.0, 10.000179, 9.998573 
1.3050419e+3, 3.1478024e+2, 76296.05, -16466.045, 1311.4102, 0.051647697, -0.17735156, 76314.586, 76314.586, 0.0, 10.000748, 9.999527 
1.3149796e+3, 1.2479569e+2, -1788322.5, -1727789.5, 132715.88, -0.04984765, -0.119487494, -1621932.6, 95055.54, 0.0057480065, 9.999414, 10.000189 
1.3149817e+3, 1.347951e+2, -1680971.6, -1684186.4, -113959.625, 0.044871423, -0.14325455, -1568608.1, 50385.992, 0.0032717513, 9.999705, 9.999688 
1.314983e+3, 1.447947e+2, -1567250.1, -1567482.3, -15443.161, -0.049590267, -0.15877998, -1551922.5, -30924.152, 0.0013003696, 9.999777, 9.999771 
1.314987e+3, 1.5479486e+2, -1489813.4, -1480393.5, -12089.1455, -0.042330217, -0.119921684, -1472129.1, -49131.32, 0.00026992275, 9.999642, 9.99976 
1.3149907e+3, 1.6479462e+2, -1403707.8, -1413052.6, -24393.932, -0.01849508, -0.10857447, -1383542.8, -58542.11, 0.00001153221, 9.999667, 9.999537 
1.3149945e+3, 1.7479399e+2, -1273391.9, -1295372.9, -13427.571, 0.022257788, -0.12962735, -1267030.5, -40023.836, 0.0, 9.999871, 9.999574 
1.314998e+3, 1.8479332e+2, -1198250.4, -1275557.9, -17360.236, 0.024080573, -0.12440884, -1194530.9, -65516.656, 0.0, 10.000003, 9.998975 
1.3150008e+3, 1.9479258e+2, -1090348.6, -1170571.4, -29227.508, -0.016599385, -0.09872971, -1080829.8, -49806.02, 0.0, 10.000062, 9.998994 
1.3150041e+3, 2.047918e+2, -983952.06, -1044608.25, -34239.805, -0.02195396, -0.08690577, -968540.0, -35508.035, 0.0, 10.000015, 9.999208 
1.3150075e+3, 2.1479096e+2, -906392.9, -952239.44, -21977.775, 0.012388817, -0.09782668, -897559.25, -62520.316, 0.0, 9.999856, 9.999247 
1.315011e+3, 2.2478987e+2, -834572.3, -929112.2, -14203.519, 0.023605837, -0.10212252, -832484.5, -95435.49, 0.0, 9.999945, 9.998691 
1.3150142e+3, 2.3478854e+2, -681732.75, -801796.25, -23813.59, 0.010613733, -0.10860215, -677182.06, -38119.473, 0.0, 10.000309, 9.998716 
1.3150176e+3, 2.447873e+2, -568365.1, -684353.06, -30376.342, 0.015999557, -0.10792519, -560891.4, -19816.912, 0.0, 10.000361, 9.998825 
1.315021e+3, 2.5478622e+2, -509147.6, -600542.25, -19190.172, 0.04176309, -0.10596164, -505281.72, -62197.293, 0.0, 10.000074, 9.998866 
1.3150246e+3, 2.647849e+2, -435868.28, -574236.06, 542.361, 0.04745155, -0.095916584, -435866.16, -90769.23, 0.0, 10.000163, 9.99833 
1.3150282e+3, 2.7478334e+2, -264561.8, -438222.0, -4605.0044, 0.031243006, -0.08774385, -264439.8, -17327.244, 0.0, 10.000654, 9.998354 
1.315032e+3, 2.8478152e+2, -157618.83, -325445.53, -5354.2925, 0.03530972, -0.111711726, -157448.19, -8317.508, 0.0, 10.0006695, 9.998448 
1.3150358e+3, 2.9477945e+2, -133497.8, -261138.66, -3303.1912, 0.061398428, -0.16872658, -133412.36, -82261.66, 0.0, 10.0001545, 9.998465 
1.3150392e+3, 3.047791e+2, -51736.957, -146752.9, -10046.703, 0.035916056, -0.06945787, -50686.266, -50686.266, 0.0, 10.000168, 9.998909 
1.3150422e+3, 3.1477728e+2, 78962.46, -9667.114, 28392.855, 0.008022827, -0.14824332, 87278.03, 87278.03, 0.0, 10.000743, 9.999576 
1.3249794e+3, 1.2479127e+2, -1740041.3, -1706577.4, 117300.79, -0.039716095, -0.15723331, -1604821.3, 112208.28, 0.006102575, 9.999752, 10.000173 
1.3249812e+3, 1.3479088e+2, -1703787.5, -1696000.4, -114245.2, 0.037886783, -0.16018204, -1585582.4, 33451.703, 0.0034860687, 9.999554, 9.999679 
1.3249828e+3, 1.4479055e+2, -1604415.1, -1587196.5, -8194.203, -0.03542959, -0.16840053, -1583920.4, -62882.17, 0.0013970501, 9.999531, 9.999754 
1.3249865e+3, 1.547906e+2, -1479671.9, -1478001.3, -6054.351, -0.044744126, -0.13808458, -1472724.9, -49686.043, 0.00029637254, 9.9997225, 9.999738 
1.3249904e+3, 1.647904e+2, -1371942.5, -1385341.4, -19655.76, -0.030132063, -0.12549676, -1357875.9, -32834.688, 0.000014169166, 9.999832, 9.999648 
1.3249944e+3, 1.7479004e+2, -1269977.6, -1280981.0, -21677.582, 0.013992913, -0.1325202, -1253114.5, -26069.992, 0.0, 9.999841, 9.999688 
1.3249978e+3, 1.8478945e+2, -1224639.9, -1290267.4, -23700.494, 0.023864407, -0.12344583, -1216975.8, -87924.42, 0.0, 9.99983, 9.998957 
1.3250008e+3, 1.9478862e+2, -1128510.8, -1191083.4, -13634.648, -0.00667866, -0.10611537, -1125668.8, -94606.625, 0.0, 9.999808, 9.998975 
1.3250041e+3, 2.047878e+2, -996301.7, -1047327.1, -15995.139, -0.012514283, -0.09572517, -991702.2, -58631.547, 0.0, 9.999917, 9.999237 
1.3250075e+3, 2.1478707e+2, -860033.44, -925811.25, -26558.475, 0.009698533, -0.099475585, -850649.0, -15572.482, 0.0, 10.000159, 9.999282 
1.325011e+3, 2.2478604e+2, -795585.3, -912001.56, -17391.73, 0.016382832, -0.0998277, -793042.7, -55956.465, 0.0, 10.00022, 9.998675 
1.3250144e+3, 2.3478469e+2, -715798.8, -819836.94, -8381.872, 0.0066866535, -0.10586848, -715127.9, -76027.8, 0.0, 10.000082, 9.998701 
1.3250178e+3, 2.4478343e+2, -600016.3, -697589.94, -18570.258, 0.0118310945, -0.109083734, -596601.56, -55489.164, 0.0, 10.000136, 9.998842 
1.3250212e+3, 2.5478226e+2, -460405.03, -574174.0, -28925.35, 0.032925483, -0.116256915, -453473.22, -10350.397, 0.0, 10.000399, 9.99889 
1.325025e+3, 2.6478097e+2, -393929.6, -548440.25, -6672.562, 0.043011002, -0.107212536, -393641.97, -48506.977, 0.0, 10.000428, 9.99838 
1.3250287e+3, 2.7477953e+2, -326778.84, -462809.38, 2948.8635, 0.041806597, -0.091652215, -326714.94, -79565.42, 0.0, 10.000204, 9.998403 
1.3250324e+3, 2.8477776e+2, -219932.13, -357177.63, -510.1175, 0.04606951, -0.11006643, -219930.23, -70763.17, 0.0, 10.000251, 9.998431 
1.3250363e+3, 2.947757e+2, -70034.75, -231198.78, -7371.2817, 0.056847543, -0.16477656, -69698.305, -18511.137, 0.0, 10.000594, 9.998458 
1.3250397e+3, 3.0477524e+2, 30824.484, -100978.17, -14366.157, 0.034621805, -0.08276992, 32372.186, 32372.186, 0.0, 10.000712, 9.9989605 
1.325043e+3, 3.1477383e+2, 44476.31, -48894.86, 4258.363, 0.017336959, -0.12510578, 44670.117, 44670.117, 0.0, 10.000605, 9.9993725 
1.3349795e+3, 1.2478635e+2, -1724745.6, -1676451.3, 106396.914, -0.0018150579, -0.22356544, -1591495.9, 125580.664, 0.0064544743, 9.999758, 10.000379 
1.3349804e+3, 1.3478683e+2, -1690323.9, -1665999.5, -122307.12, 0.0013044602, -0.15888038, -1555251.4, 63820.85, 0.0036991173, 9.999545, 9.999889 
1.3349822e+3, 1.4478667e+2, -1607490.9, -1591689.6, -2559.4946, -0.055210356, -0.15919651, -1591285.4, -70210.78, 0.0014937163, 9.999522, 9.999727 
1.3349865e+3, 1.5478621e+2, -1480705.3, -1481217.6, 1518.4218, -0.016951686, -0.17860787, -1479421.5, -56341.266, 0.00032323142, 9.999727, 9.999713 
1.3349904e+3, 1.6478597e+2, -1374706.9, -1391973.3, -19966.838, -0.008883939, -0.1677106, -1361586.8, -36503.117, 0.000017128494, 9.999835, 9.999601 
1.3349938e+3, 1.7478608e+2, -1273417.8, -1288480.0, -21852.271, -0.025247375, -0.12127947, -1257835.3, -30751.88, 0.00000000003443261, 9.999842, 9.999637 
1.3349973e+3, 1.8478577e+2, -1205628.4, -1251007.6, -25800.42, -0.008418027, -0.095218614, -1193959.9, -64872.31, 0.0, 9.99983, 9.999227 
1.3350013e+3, 1.9478495e+2, -1108861.5, -1150686.5, -14833.724, 0.042099737, -0.102521986, -1104134.8, -73037.86, 0.0, 9.999809, 9.999252 
1.3350046e+3, 2.0478407e+2, -1014179.8, -1083790.4, -8284.541, 0.0421127, -0.10302461, -1013207.44, -80101.15, 0.0, 9.999913, 9.998989 
1.3350075e+3, 2.1478312e+2, -878566.0, -964113.3, -18014.334, -0.011116277, -0.10237827, -874927.3, -39811.844, 0.0, 10.000157, 9.99902 
1.3350108e+3, 2.247821e+2, -779149.3, -877738.94, -23415.127, -0.019500813, -0.09983858, -773870.8, -36745.715, 0.0, 10.000219, 9.998911 
1.3350147e+3, 2.3478101e+2, -698832.0, -784326.56, -13396.605, 0.020584725, -0.103759184, -696781.94, -57646.94, 0.0, 10.00008, 9.998947 
1.3350181e+3, 2.447797e+2, -617716.4, -733471.1, -9169.178, 0.031389352, -0.11157332, -616994.56, -75847.01, 0.0, 10.000132, 9.998598 
1.3350216e+3, 2.5477815e+2, -479022.72, -612365.3, -18425.783, 0.0102750715, -0.13060287, -476523.44, -33360.64, 0.0, 10.000397, 9.998629 
1.335025e+3, 2.647768e+2, -376341.9, -512152.3, -14593.426, 0.01452278, -0.12808406, -374791.47, -29615.564, 0.0, 10.000428, 9.998629 
1.3350289e+3, 2.747756e+2, -309692.84, -425159.4, -3997.3064, 0.04655459, -0.11387261, -309554.63, -62367.484, 0.0, 10.000195, 9.998666 
1.3350329e+3, 2.8477407e+2, -229102.83, -374865.2, 13048.61, 0.04878264, -0.1167349, -227943.94, -78741.695, 0.0, 10.000244, 9.998314 
1.3350365e+3, 2.9477224e+2, -78318.22, -248634.08, 7321.9307, 0.018843276, -0.1345497, -78004.03, -26783.512, 0.0, 10.000594, 9.998339 
1.3350402e+3, 3.0477136e+2, 16668.717, -131624.52, -17453.924, 0.01604371, -0.078093894, 18695.326, 18695.326, 0.0, 10.000716, 9.998748 
1.3350442e+3, 3.1476986e+2, 12450.689, -110281.29, 5172.982, 0.07198288, -0.10596879, 12668.338, 12668.338, 0.0, 10.000583, 9.9989605 
1.3449791e+3, 1.2478225e+2, -1773698.0, -1694197.3, 122368.12, -0.0009888086, -0.22448574, -1605285.1, 111831.0, 0.0068022367, 9.999398, 10.00043 
1.3449799e+3, 1.3478272e+2, -1666930.8, -1650530.9, -117924.85, -0.010440381, -0.16598661, -1540521.3, 78590.63, 0.0039100754, 9.99969, 9.999926 
1.344982e+3, 1.4478254e+2, -1561959.5, -1563764.5, 462.35812, -0.045028947, -0.17171837, -1561848.0, -40733.965, 0.0015897118, 9.999808, 9.999782 
1.3449863e+3, 1.5478216e+2, -1478473.9, -1474690.8, 8077.37, -0.01853836, -0.18613046, -1468286.4, -45167.78, 0.0003501717, 9.999719, 9.999763 
1.3449901e+3, 1.6478196e+2, -1403359.1, -1410339.3, -12085.572, -0.014151338, -0.17388509, -1394269.9, -69147.89, 0.000020254476, 9.999658, 9.999561 
1.3449936e+3, 1.74782e+2, -1304561.8, -1307935.3, -13139.903, -0.022407765, -0.12976117, -1293000.8, -65878.1, 0.0000000014653116, 9.999646, 9.999597 
1.3449971e+3, 1.8478169e+2, -1212669.5, -1245019.9, -19215.328, -0.0024284888, -0.10516425, -1203727.6, -74600.85, 0.0, 9.999742, 9.9993105 
1.3450012e+3, 1.9478098e+2, -1083642.8, -1128546.6, -24104.375, 0.04388824, -0.11200094, -1073153.6, -42019.016, 0.0, 9.99994, 9.999341 
1.3450046e+3, 2.047801e+2, -1001856.6, -1090164.9, -17237.307, 0.044429403, -0.10928282, -998611.25, -65467.33, 0.0, 10.0000515, 9.998879 
1.3450077e+3, 2.147791e+2, -899155.75, -986796.8, -16294.681, -0.0034122292, -0.10345229, -896224.2, -61069.63, 0.0, 10.000071, 9.998907 
1.3450111e+3, 2.2477803e+2, -793611.1, -880527.4, -29301.262, -0.0126466155, -0.10121501, -784655.8, -47490.965, 0.0, 10.000102, 9.998948 
1.3450147e+3, 2.3477693e+2, -685362.94, -772367.56, -36848.11, 0.019462643, -0.110718824, -671854.44, -32679.93, 0.0, 10.000152, 9.998993 
1.3450183e+3, 2.4477565e+2, -613145.6, -734333.25, -25549.738, 0.026930975, -0.11808819, -607979.25, -66792.43, 0.0, 10.000179, 9.998569 
1.3450217e+3, 2.5477412e+2, -512385.88, -631867.4, -18351.193, 0.007989109, -0.13072178, -509630.84, -66428.73, 0.0, 10.000184, 9.998596 
1.3450254e+3, 2.6477277e+2, -391773.97, -514783.3, -17820.602, 0.012282556, -0.12867732, -389244.28, -44028.89, 0.0, 10.000304, 9.99867 
1.3450293e+3, 2.7477154e+2, -254244.38, -392683.34, -25791.389, 0.041969884, -0.12201498, -249595.5, -2368.7349, 0.0, 10.000554, 9.998714 
1.3450332e+3, 2.847701e+2, -167743.81, -344590.53, -6421.9473, 0.04046731, -0.11876901, -167510.92, -18270.02, 0.0, 10.000666, 9.998318 
1.3450369e+3, 2.9476845e+2, -72010.14, -244588.42, -2904.9106, 0.005163377, -0.11770068, -71961.26, -20704.064, 0.0, 10.000636, 9.998345 
1.345041e+3, 3.0476725e+2, 6898.0703, -136648.2, -22960.818, 0.016674811, -0.096078984, 10481.302, 10481.302, 0.0, 10.000652, 9.998745 
1.345045e+3, 3.1476608e+2, 22977.822, -115204.305, 14678.904, 0.09315033, -0.09006343, 24519.932, 24519.932, 0.0, 10.0007, 9.998871 
1.3549781e+3, 1.2477907e+2, -1782740.8, -1710904.1, 128758.48, -0.04149563, -0.15864088, -1613147.9, 103999.66, 0.007146109, 9.999388, 10.00032 
1.3549797e+3, 1.3477856e+2, -1675143.9, -1668297.6, -106576.49, -0.0008637098, -0.18344045, -1565089.3, 54063.164, 0.0041188756, 9.999693, 9.999801 
1.3549821e+3, 1.4477819e+2, -1553583.1, -1547941.4, -3176.629, -0.010914787, -0.20835257, -1546513.9, -25357.646, 0.001684743, 9.999815, 9.999887 
1.3549857e+3, 1.5477857e+2, -1471233.9, -1459949.3, 4270.5884, -0.051079076, -0.15911542, -1458515.3, -35361.992, 0.00037697863, 9.99972, 9.999864 
1.3549896e+3, 1.6477843e+2, -1405088.1, -1413607.0, -14056.026, -0.047258332, -0.1427106, -1394660.3, -69504.805, 0.000023370363, 9.999657, 9.99954 
1.3549936e+3, 1.7477787e+2, -1305455.4, -1310441.1, -13760.22, 0.020445434, -0.15850869, -1293964.0, -66801.96, 0.0000000068048798, 9.999649, 9.999578 
1.3549973e+3, 1.847773e+2, -1220398.3, -1261197.9, -12923.209, 0.038097437, -0.15313761, -1216649.4, -87480.87, 0.0, 9.999742, 9.9992 
1.3550004e+3, 1.9477671e+2, -1091208.9, -1144563.9, -17092.479, -0.00302772, -0.13531685, -1086203.0, -55027.895, 0.0, 9.999941, 9.999231 
1.3550042e+3, 2.0477597e+2, -999386.0, -1085467.1, -17700.416, -0.006877436, -0.11601259, -995888.44, -62705.12, 0.0, 10.000052, 9.998911 
1.3550082e+3, 2.1477507e+2, -896619.2, -981378.3, -16025.991, 0.031198753, -0.102204606, -893690.25, -58496.926, 0.0, 10.000069, 9.998945 
1.3550118e+3, 2.2477391e+2, -806093.9, -905549.2, -28504.104, 0.03511126, -0.102953725, -798503.8, -61298.883, 0.0, 10.000098, 9.998778 
1.3550147e+3, 2.347725e+2, -698312.1, -798669.3, -35107.56, 0.0011313405, -0.12690343, -687249.94, -48031.793, 0.0, 10.000149, 9.998815 
1.3550182e+3, 2.4477126e+2, -599736.0, -706175.2, -25818.563, -0.0036086282, -0.12968041, -593803.94, -52573.813, 0.0, 10.000177, 9.998763 
1.355022e+3, 2.547702e+2, -498530.2, -602198.1, -17321.236, 0.023820791, -0.1171867, -495712.66, -52472.12, 0.0, 10.000179, 9.998803 
1.3550259e+3, 2.6476893e+2, -405742.47, -542684.06, -8012.418, 0.034310203, -0.109376065, -405275.25, -60022.082, 0.0, 10.000299, 9.998481 
1.3550296e+3, 2.747674e+2, -268560.9, -421988.75, -15019.599, 0.025274394, -0.1140345, -267104.4, -19836.227, 0.0, 10.000552, 9.998514 
1.3550335e+3, 2.8476587e+2, -158104.95, -324887.75, -6785.5444, 0.01748646, -0.114388846, -157829.34, -8546.376, 0.0, 10.000667, 9.998453 
1.3550377e+3, 2.9476434e+2, -64131.848, -225301.97, -1808.3838, 0.011449852, -0.11533869, -64111.56, -12814.199, 0.0, 10.000623, 9.998486 
1.3550416e+3, 3.047628e+2, 18334.918, -110676.97, -19849.074, 0.032392878, -0.13809384, 21319.734, 21319.734, 0.0, 10.000642, 9.998929 
1.3550456e+3, 3.1476232e+2, 38424.406, -81877.72, 20248.62, 0.07721955, -0.082908586, 41741.105, 41741.105, 0.0, 10.000694, 9.999104 
1.3649777e+3, 1.2477505e+2, -1740342.3, -1688153.3, 118030.9, -0.03482175, -0.15712102, -1593366.8, 123820.15, 0.0074891904, 9.999666, 10.000344 
1.3649793e+3, 1.347746e+2, -1686762.6, -1675517.4, -105634.77, -0.015198209, -0.1751791, -1575355.8, 43835.71, 0.0043270662, 9.999621, 9.999785 
1.3649818e+3, 1.4477415e+2, -1586056.1, -1565921.6, -8847.349, -0.004990571, -0.20622009, -1562586.5, -41390.613, 0.0017791736, 9.999602, 9.9998665 
1.3649854e+3, 1.5477441e+2, -1488029.9, -1471062.5, -11404.904, -0.03785419, -0.16435814, -1465331.9, -42138.426, 0.00040358416, 9.999618, 9.999837 
1.3649893e+3, 1.6477421e+2, -1394829.3, -1412998.3, -28666.59, -0.03625367, -0.15089384, -1373842.1, -48645.99, 0.000026350568, 9.999745, 9.999501 
1.3649935e+3, 1.7477363e+2, -1259793.5, -1292979.9, -30921.64, 0.02340122, -0.16357954, -1241294.3, -14091.244, 0.000000016360648, 9.999982, 9.999538 
1.3649972e+3, 1.8477303e+2, -1173431.9, -1242047.3, -28703.336, 0.03596456, -0.15957658, -1163008.1, -33798.293, 0.0, 10.000079, 9.999168 
1.3650005e+3, 1.9477233e+2, -1079176.1, -1142300.3, -27183.807, -0.010462182, -0.15010627, -1069083.4, -37866.043, 0.0, 10.000038, 9.9992 
1.3650042e+3, 2.047716e+2, -998028.3, -1078976.1, -25291.21, -0.013374858, -0.13193548, -990776.1, -57550.543, 0.0, 10.000038, 9.998962 
1.3650082e+3, 2.1477082e+2, -891261.6, -972366.06, -23460.102, 0.03340802, -0.11000521, -884964.5, -49730.22, 0.0, 10.00008, 9.999001 
1.3650118e+3, 2.247697e+2, -795748.7, -903452.44, -26716.725, 0.040225618, -0.10865374, -789485.6, -52239.93, 0.0, 10.000184, 9.99875 
1.365015e+3, 2.347682e+2, -671182.5, -789452.06, -23178.41, 0.0022156774, -0.1380566, -666802.2, -27542.203, 0.0, 10.000352, 9.998779 
1.3650185e+3, 2.4476701e+2, -565110.2, -691570.9, -20325.057, -0.003173448, -0.13299026, -561923.8, -20652.135, 0.0, 10.000425, 9.998742 
1.3650224e+3, 2.5476614e+2, -467852.1, -588848.6, -30547.738, 0.027624082, -0.09910965, -460577.2, -17296.814, 0.0, 10.0004, 9.998787 
1.3650262e+3, 2.6476476e+2, -394694.1, -547283.75, -19683.953, 0.035902694, -0.09548291, -392195.78, -46901.79, 0.0, 10.000421, 9.998389 
1.3650301e+3, 2.7476284e+2, -284291.22, -439963.8, -19715.576, 0.018432306, -0.13052776, -281833.1, -34520.344, 0.0, 10.000491, 9.998419 
1.365034e+3, 2.8476134e+2, -178184.78, -319921.44, -16742.826, 0.012420053, -0.1279342, -176233.86, -26906.924, 0.0, 10.000467, 9.998583 
1.3650382e+3, 2.9476035e+2, -96935.45, -224915.6, -14034.786, 0.021885255, -0.094943404, -95414.42, -44078.043, 0.0, 10.000329, 9.998628 
1.3650423e+3, 3.047584e+2, -3370.1309, -133312.66, -25947.484, 0.045679353, -0.15870105, 1619.5735, 1619.5735, 0.0, 10.000546, 9.998819 
1.3650462e+3, 3.1475785e+2, 106957.55, -45024.49, -9322.661, 0.056815825, -0.100359075, 107527.266, 107527.266, 0.0, 10.001147, 9.999138 
1.3749778e+3, 1.24770194e+2, -1730097.3, -1667425.9, 107696.06, 0.012046165, -0.22606394, -1586599.4, 130634.77, 0.007836575, 9.999666, 10.000488 
1.3749784e+3, 1.3477087e+2, -1681427.0, -1663400.0, -107712.2, -0.053500295, -0.13864625, -1564324.8, 54903.176, 0.0045376513, 9.999618, 9.99987 
1.3749813e+3, 1.4477047e+2, -1596106.1, -1586567.1, -9473.63, -0.028112907, -0.16272222, -1580730.1, -59498.016, 0.001874079, 9.9996, 9.999726 
1.3749857e+3, 1.5476976e+2, -1497696.5, -1491832.1, -10741.216, 0.018508418, -0.20384946, -1483630.0, -60391.15, 0.00043006166, 9.9996195, 9.999694 
1.3749894e+3, 1.6476935e+2, -1399301.6, -1422713.8, -20580.283, 0.014697842, -0.2003608, -1387331.1, -62087.395, 0.000029160963, 9.999746, 9.999434 
1.374993e+3, 1.7476942e+2, -1264012.5, -1302400.6, -22365.654, -0.014603871, -0.14425242, -1253734.0, -26489.1, 0.000000027808229, 9.999984, 9.999474 
1.3749969e+3, 1.8476893e+2, -1170089.4, -1235510.5, -31346.701, -0.010432538, -0.12460482, -1157494.4, -28243.928, 0.0, 10.00008, 9.999213 
1.3750009e+3, 1.9476788e+2, -1075554.5, -1135133.6, -29175.943, 0.020087603, -0.15648097, -1063647.0, -32385.896, 0.0, 10.000039, 9.999249 
1.3750045e+3, 2.0476702e+2, -993426.2, -1069039.3, -24915.967, 0.02321113, -0.15645239, -985954.25, -52684.14, 0.0, 10.000035, 9.999032 
1.375008e+3, 2.1476638e+2, -886777.2, -962548.1, -22212.84, 0.0011131095, -0.12690985, -880745.44, -45468.29, 0.0, 10.000077, 9.999069 
1.3750117e+3, 2.247654e+2, -788384.4, -887566.6, -21438.547, 0.0004719858, -0.11960652, -783948.75, -46661.813, 0.0, 10.000181, 9.998861 
1.3750155e+3, 2.3476408e+2, -663468.6, -772905.0, -16717.338, 0.0214935, -0.14392608, -660971.9, -21672.307, 0.0, 10.000349, 9.998895 
1.3750191e+3, 2.4476294e+2, -582937.8, -727714.4, -21391.393, 0.027156988, -0.12783162, -579843.3, -38532.18, 0.0, 10.000422, 9.998497 
1.3750227e+3, 2.54762e+2, -486593.38, -626610.56, -30855.646, 0.016352728, -0.07506131, -480095.28, -36773.92, 0.0, 10.000394, 9.99853 
1.3750266e+3, 2.6476035e+2, -394459.63, -546640.94, -16809.676, 0.014255128, -0.08613555, -392624.97, -47287.25, 0.0, 10.000419, 9.998395 
1.3750306e+3, 2.747579e+2, -284047.44, -438526.28, -15431.344, 0.018489301, -0.1731223, -282521.06, -35160.426, 0.0, 10.000486, 9.998431 
1.3750346e+3, 2.847566e+2, -171131.08, -303970.7, -20722.016, 0.022261076, -0.1609717, -167973.64, -18600.691, 0.0, 10.000461, 9.998695 
1.3750386e+3, 2.9475644e+2, -89922.16, -208054.6, -17103.84, 0.031065345, -0.05191587, -87495.62, -36121.664, 0.0, 10.0003195, 9.998749 
1.375043e+3, 3.04754e+2, -31260.09, -191428.02, -2682.5637, 0.050457977, -0.15383363, -31215.174, -31215.174, 0.0, 10.0005455, 9.998421 
1.3750471e+3, 3.147524e+2, 94668.64, -68408.84, 16207.828, 0.02619503, -0.15646535, 96263.88, 96263.88, 0.0, 10.001138, 9.998982 
1.3849774e+3, 1.2476593e+2, -1748768.5, -1680191.8, 108327.89, 0.01717047, -0.23538229, -1600855.3, 116420.63, 0.00819284, 9.999557, 10.000453 
1.3849781e+3, 1.3476668e+2, -1662033.5, -1664750.1, -114963.14, -0.05493825, -0.13134724, -1548420.6, 70849.04, 0.004753623, 9.999799, 9.999774 
1.3849811e+3, 1.4476624e+2, -1544780.3, -1562449.0, -20784.402, -0.015293336, -0.15472113, -1531030.6, -9756.176, 0.001970775, 9.999956, 9.999721 
1.3849856e+3, 1.5476544e+2, -1443432.6, -1466536.9, -13549.546, 0.02652542, -0.20320715, -1437179.1, -13897.301, 0.0004566524, 9.999995, 9.999686 
1.3849893e+3, 1.64765e+2, -1367759.0, -1410517.3, -13639.105, 0.014543852, -0.20142764, -1363778.9, -38492.188, 0.00003186285, 9.999975, 9.999409 
1.3849929e+3, 1.7476507e+2, -1275874.3, -1311087.6, -12734.197, -0.024982534, -0.14086321, -1271751.9, -44464.188, 0.000000039188958, 9.999915, 9.999446 
1.3849968e+3, 1.847646e+2, -1190292.1, -1246277.3, -23259.639, -0.01934171, -0.12050337, -1181889.8, -52596.42, 0.0, 9.999947, 9.999204 
1.3850008e+3, 1.9476348e+2, -1071086.1, -1133914.3, -26372.143, 0.024215369, -0.1543129, -1061484.0, -30179.63, 0.0, 10.000075, 9.99924 
1.3850047e+3, 2.0476265e+2, -973481.6, -1056674.1, -25536.525, 0.028610518, -0.15325528, -966268.44, -32955.28, 0.0, 10.000161, 9.999055 
1.3850081e+3, 2.1476208e+2, -866836.1, -950571.5, -26833.58, -0.005897641, -0.12123107, -858975.1, -23655.639, 0.0, 10.000203, 9.99909 
1.3850117e+3, 2.2476113e+2, -786740.8, -889206.5, -31471.486, -0.0070576863, -0.11188129, -777846.6, -40517.676, 0.0, 10.000203, 9.998838 
1.3850158e+3, 2.3475978e+2, -692524.56, -788750.1, -38384.688, 0.02632393, -0.13479224, -679088.8, -39746.98, 0.0, 10.00016, 9.998876 
1.3850197e+3, 2.4475853e+2, -605751.75, -746376.56, -38203.92, 0.031008113, -0.12435476, -596043.06, -54688.746, 0.0, 10.0003, 9.9984255 
1.385023e+3, 2.5475737e+2, -456017.94, -620150.56, -34526.105, 0.004237715, -0.084834225, -449050.94, -5684.5693, 0.0, 10.000641, 9.998455 
1.385027e+3, 2.647557e+2, -345014.63, -508621.9, -17986.959, 0.0037813138, -0.10036861, -343060.5, 2322.1687, 0.0, 10.000699, 9.99852 
1.3850312e+3, 2.7475345e+2, -279881.84, -421795.22, -9733.098, 0.030487763, -0.18315947, -279217.4, -31813.975, 0.0, 10.000452, 9.998562 
1.3850352e+3, 2.847522e+2, -179871.38, -325134.8, -12552.999, 0.035990845, -0.16405898, -178794.6, -29379.322, 0.0, 10.000477, 9.998541 
1.3850392e+3, 2.9475197e+2, -30368.305, -196755.33, -31327.977, 0.023327824, -0.04645513, -24665.234, 26752.379, 0.0, 10.000806, 9.99859 
1.3850436e+3, 3.0474922e+2, 14582.566, -177175.19, -11216.267, 0.044327613, -0.16962647, 15236.397, 15236.397, 0.0, 10.000896, 9.998349 
1.385048e+3, 3.1474766e+2, 50757.61, -58899.363, 32164.385, 0.029440543, -0.16213399, 59495.707, 59495.707, 0.0, 10.000707, 9.999254 
1.3949767e+3, 1.2476231e+2, -1763446.4, -1710597.1, 110199.03, -0.02210391, -0.18594234, -1623698.9, 93612.7, 0.008561277, 9.999555, 10.000245 
1.3949783e+3, 1.3476203e+2, -1682195.3, -1705757.1, -105403.84, -0.022473136, -0.15484339, -1587916.0, 31400.018, 0.004977431, 9.999795, 9.999494 
1.3949816e+3, 1.4476144e+2, -1536714.9, -1545740.6, -19885.059, 0.028242433, -0.18497771, -1520837.0, 485.62222, 0.0020706747, 9.999955, 9.999835 
1.3949852e+3, 1.5476151e+2, -1434768.3, -1448871.8, -12555.398, -0.014604117, -0.1610384, -1427419.9, -4098.335, 0.0004838168, 9.999996, 9.999807 
1.3949889e+3, 1.647612e+2, -1366147.5, -1408257.3, -17175.717, -0.03807696, -0.15193644, -1360030.4, -34705.83, 0.000034571214, 9.999979, 9.999423 
1.394993e+3, 1.7476065e+2, -1274339.9, -1308701.8, -15298.659, -0.009606652, -0.15410782, -1268515.8, -41184.98, 0.00000005013657, 9.999918, 9.999462 
1.394997e+3, 1.8476e+2, -1195171.9, -1256231.6, -19488.23, 0.0063328547, -0.14794329, -1189482.1, -60144.094, 0.0, 9.999946, 9.999136 
1.3950007e+3, 1.9475923e+2, -1075846.9, -1144319.0, -21834.354, 0.00043973612, -0.14352413, -1069477.0, -38130.22, 0.0, 10.000076, 9.999168 
1.3950045e+3, 2.0475852e+2, -975215.94, -1060173.1, -24717.854, 0.0003500234, -0.123506375, -968547.75, -35193.35, 0.0, 10.00016, 9.999032 
1.3950084e+3, 2.1475792e+2, -868467.4, -953939.75, -25385.777, 0.011000805, -0.092682414, -861496.2, -26135.469, 0.0, 10.000203, 9.999068 
1.3950121e+3, 2.2475685e+2, -798298.2, -913029.7, -33883.633, 0.01631168, -0.08508065, -789038.6, -51667.31, 0.0, 10.000201, 9.998676 
1.3950159e+3, 2.3475532e+2, -704461.5, -813112.5, -39966.527, 0.0144126825, -0.10993831, -691343.8, -51957.48, 0.0, 10.000157, 9.998711 
1.3950196e+3, 2.4475381e+2, -598565.3, -730986.5, -26029.848, 0.005742805, -0.12250875, -593632.44, -52231.355, 0.0, 10.000298, 9.998533 
1.3950236e+3, 2.5475234e+2, -448586.8, -603723.3, -20999.383, -0.01085044, -0.1291106, -445794.56, -2379.2678, 0.0, 10.000636, 9.99857 
1.3950276e+3, 2.647509e+2, -329203.25, -475286.88, -26157.69, 0.0024695704, -0.13891324, -324660.7, 20768.012, 0.0, 10.000696, 9.998751 
1.3950318e+3, 2.7474952e+2, -264106.34, -387618.03, -17342.117, 0.04934652, -0.15723866, -261717.56, -14276.768, 0.0, 10.000445, 9.9988 
1.3950358e+3, 2.847482e+2, -209461.7, -387151.06, 130.65668, 0.048470497, -0.13393337, -209461.61, -60008.074, 0.0, 10.000477, 9.998116 
1.3950397e+3, 2.9474688e+2, -63002.6, -263748.13, -16784.56, -0.0051390696, -0.08145587, -61608.902, -10141.15, 0.0, 10.000801, 9.998134 
1.3950443e+3, 3.0474395e+2, 32679.799, -139182.17, -17165.41, 0.023491347, -0.20804262, 34377.492, 34377.492, 0.0, 10.000894, 9.998611 
1.3950491e+3, 3.1474346e+2, 96835.055, 40474.484, 26412.97, 0.057320893, -0.12734553, 107278.25, 107278.25, 0.0, 10.00069, 9.999945 
1.4049762e+3, 1.2475817e+2, -1702386.6, -1681677.8, 95809.69, -0.023078986, -0.17125057, -1595664.6, 121688.31, 0.008945781, 9.999976, 10.000242 
1.404978e+3, 1.3475777e+2, -1679709.1, -1714052.6, -99832.62, -0.03202066, -0.14564003, -1595582.3, 23776.824, 0.0052122944, 9.999853, 9.999408 
1.4049815e+3, 1.4475712e+2, -1557480.4, -1554119.9, -10149.868, 0.02688457, -0.17608976, -1545512.1, -24146.018, 0.0021757921, 9.999806, 9.999849 
1.404985e+3, 1.547573e+2, -1455625.5, -1457035.0, -11326.093, -0.016129328, -0.14064606, -1444982.3, -21618.613, 0.0005121799, 9.999846, 9.999824 
1.4049888e+3, 1.6475698e+2, -1369694.9, -1405153.0, -18373.496, -0.040465362, -0.13504459, -1361891.5, -36525.105, 0.000037386584, 9.999936, 9.999464 
1.404993e+3, 1.747563e+2, -1246444.5, -1290312.9, -15597.161, -0.0111363325, -0.15639694, -1241464.4, -14090.998, 0.00000006103049, 10.00009, 9.999505 
1.4049971e+3, 1.8475561e+2, -1165893.5, -1252216.3, -17410.12, 0.0062284777, -0.15204935, -1162514.4, -33133.434, 0.0, 10.00019, 9.999045 
1.4050008e+3, 1.9475491e+2, -1058119.0, -1146155.5, -22199.494, -0.0006808974, -0.1307626, -1052837.9, -21448.465, 0.0, 10.000243, 9.999075 
1.4050047e+3, 2.0475413e+2, -965436.0, -1062955.3, -30100.209, 0.00008219685, -0.11027274, -956893.6, -23495.662, 0.0, 10.00026, 9.998964 
1.4050087e+3, 2.1475329e+2, -867376.25, -960379.9, -34619.715, 0.013809223, -0.09692878, -855904.4, -20498.168, 0.0, 10.000242, 9.999003 
1.4050125e+3, 2.2475213e+2, -783951.06, -914772.9, -38627.75, 0.01747953, -0.09312782, -773396.94, -35979.145, 0.0, 10.000339, 9.998598 
1.4050162e+3, 2.3475061e+2, -652356.3, -797393.9, -38956.26, 0.007496768, -0.107063234, -642555.2, -3122.468, 0.0, 10.000555, 9.998627 
1.40502e+3, 2.4474907e+2, -552607.2, -698757.3, -22606.262, -0.0005652728, -0.123444654, -549190.4, -7742.8813, 0.0, 10.000569, 9.998623 
1.4050241e+3, 2.5474745e+2, -481251.47, -609139.4, -20473.836, -0.0068520796, -0.15215547, -478053.72, -34591.547, 0.0, 10.000366, 9.998663 
1.4050283e+3, 2.647461e+2, -380498.06, -509854.72, -40363.742, 0.007157567, -0.154529, -368936.5, -23461.47, 0.0, 10.000387, 9.998661 
1.4050323e+3, 2.7474502e+2, -240315.83, -385955.3, -57919.914, 0.043562442, -0.13075693, -220090.25, 27394.904, 0.0, 10.000653, 9.99871 
1.4050364e+3, 2.8474373e+2, -169486.2, -359271.63, -31134.492, 0.039939623, -0.10922154, -164509.08, -15010.774, 0.0, 10.000715, 9.998192 
1.4050403e+3, 2.9474193e+2, -92773.97, -269873.9, -9366.762, -0.0060010487, -0.110141054, -92279.945, -40764.043, 0.0, 10.00056, 9.998207 
1.4050451e+3, 3.0473912e+2, -32957.773, -195390.08, -9872.899, 0.028705673, -0.21990871, -32359.883, -32359.883, 0.0, 10.000549, 9.998392 
1.4050497e+3, 3.1473896e+2, 107102.48, 61780.582, -9959.3955, 0.04794471, -0.08188323, 109194.47, 109194.47, 0.0, 10.00069, 10.000092 
1.4149767e+3, 1.2475353e+2, -1689380.1, -1654434.4, 81910.89, 0.008262934, -0.19547968, -1588153.5, 129246.36, 0.009352543, 9.999972, 10.000432 
1.4149773e+3, 1.347539e+2, -1673499.4, -1700375.1, -104514.97, -0.08424375, -0.10120686, -1581561.9, 37835.996, 0.0054630674, 9.999851, 9.999502 
1.4149807e+3, 1.4475334e+2, -1561996.6, -1564816.9, -10006.575, -0.020838792, -0.12452689, -1553301.4, -31897.334, 0.002288969, 9.99981, 9.999775 
1.4149852e+3, 1.5475291e+2, -1461382.3, -1469111.5, -9796.572, 0.018755233, -0.14266816, -1454715.6, -31307.82, 0.00054253166, 9.9998455, 9.999742 
1.4149891e+3, 1.6475244e+2, -1365993.5, -1397248.3, -13800.356, 0.0032909818, -0.15165761, -1360772.3, -35360.39, 0.000040406845, 9.999934, 9.999519 
1.414993e+3, 1.7475206e+2, -1241758.8, -1281586.6, -10094.236, -0.030738264, -0.14786679, -1239346.6, -11931.519, 0.00000007226826, 10.0000925, 9.999564 
1.414997e+3, 1.8475145e+2, -1173621.9, -1268933.1, -16279.576, -0.022130454, -0.13281624, -1170918.0, -41496.406, 0.0, 10.000193, 9.99893 
1.4150013e+3, 1.9475058e+2, -1066329.4, -1163880.3, -20401.92, 0.019667942, -0.11586566, -1062234.4, -30802.332, 0.0, 10.000245, 9.998953 
1.4150052e+3, 2.047495e+2, -973325.1, -1079195.6, -31720.564, 0.02641539, -0.11342515, -964548.6, -31105.207, 0.0, 10.000259, 9.998854 
1.4150088e+3, 2.147482e+2, -875178.06, -976481.1, -35509.383, 0.00050259265, -0.13382904, -863970.94, -28515.342, 0.0, 10.00024, 9.998895 
1.4150126e+3, 2.2474691e+2, -784353.9, -914761.94, -31274.867, -0.0067586857, -0.13661477, -777241.4, -39773.297, 0.0, 10.000334, 9.9986 
1.4150167e+3, 2.3474567e+2, -652057.2, -796725.7, -30450.309, 0.004546439, -0.12635484, -645909.2, -6428.5723, 0.0, 10.000554, 9.998632 
1.4150208e+3, 2.4474432e+2, -547974.75, -689393.5, -29848.486, 0.010699245, -0.12768073, -541932.94, -439.49677, 0.0, 10.000569, 9.998688 
1.4150247e+3, 2.547428e+2, -477100.16, -599684.5, -27303.133, 0.013198638, -0.15180899, -471293.94, -27787.355, 0.0, 10.000361, 9.998731 
1.4150287e+3, 2.6474136e+2, -409723.6, -570655.56, -30110.264, 0.014306604, -0.1451019, -404274.5, -58753.254, 0.0, 10.000386, 9.998245 
1.4150327e+3, 2.7474004e+2, -271099.84, -449196.8, -46383.63, 0.010412064, -0.105790846, -259743.78, -12207.166, 0.0, 10.000649, 9.998279 
1.4150368e+3, 2.8473872e+2, -128376.04, -273354.72, -35912.23, 0.0075966683, -0.09187168, -119967.96, 29581.715, 0.0, 10.000712, 9.998783 
1.4150411e+3, 2.947372e+2, -51200.285, -181762.77, -12796.536, 0.014553471, -0.1285014, -49957.906, 1603.5095, 0.0, 10.000552, 9.9988165 
1.4150459e+3, 3.047347e+2, -82691.75, -299641.56, -3183.0203, 0.053670403, -0.19970885, -82645.055, -82645.055, 0.0, 10.000551, 9.997675 
1.4150497e+3, 3.147341e+2, 75593.28, -2921.5715, -5084.5693, -0.0033309015, -0.034337226, 75921.19, 75921.19, 0.0, 10.000687, 9.999649 
1.4249764e+3, 1.24749176e+2, -1736216.0, -1663600.8, 70693.73, 0.004787931, -0.17630067, -1620436.0, 97008.086, 0.009788863, 9.999592, 10.000552 
1.4249772e+3, 1.3474953e+2, -1670452.4, -1693234.3, -112892.914, -0.081037655, -0.08813884, -1568377.3, 51064.246, 0.0057347612, 9.999848, 9.999553 
1.4249808e+3, 1.4474893e+2, -1535852.6, -1555774.4, -19619.2, -0.013093241, -0.116474845, -1523810.5, -2362.8904, 0.0024130836, 10.000008, 9.999741 
1.4249851e+3, 1.5474842e+2, -1432674.0, -1459523.9, -17823.486, 0.01654134, -0.13831826, -1423785.3, -332.9815, 0.0005758784, 10.000061, 9.999702 
1.4249891e+3, 1.6474791e+2, -1339656.5, -1387266.1, -19063.621, -0.0025247016, -0.1491049, -1332963.9, -7507.0923, 0.00004378684, 10.000127, 9.999495 
1.424993e+3, 1.7474748e+2, -1225555.6, -1276261.4, -22451.22, -0.03246517, -0.14634511, -1217043.8, 10416.488, 0.00000008454083, 10.0002165, 9.99954 
1.4249972e+3, 1.8474688e+2, -1170807.3, -1266724.5, -32570.994, -0.022371506, -0.13167228, -1160792.6, -31325.947, 0.0, 10.00021, 9.998936 
1.4250015e+3, 1.9474603e+2, -1085357.5, -1171680.9, -27648.604, 0.01750005, -0.11290657, -1077261.3, -45784.652, 0.0, 10.000112, 9.998962 
1.4250055e+3, 2.0474489e+2, -990549.1, -1094516.4, -26741.875, 0.026460754, -0.114469714, -984074.0, -50585.492, 0.0, 10.000172, 9.99879 
1.4250092e+3, 2.147434e+2, -855366.1, -974528.94, -27933.248, 0.0058584344, -0.14545795, -849143.2, -13640.896, 0.0, 10.000409, 9.998827 
1.4250131e+3, 2.2474207e+2, -759280.94, -902371.2, -22540.893, -0.0024335692, -0.15050723, -755814.1, -18298.834, 0.0, 10.000504, 9.998604 
1.4250171e+3, 2.3474088e+2, -667803.7, -803446.06, -23103.092, 0.0007793984, -0.13401619, -663976.6, -24449.465, 0.0, 10.000442, 9.998639 
1.4250211e+3, 2.4473958e+2, -571780.2, -707244.1, -32706.31, 0.006403245, -0.12698273, -564297.0, -22757.508, 0.0, 10.000433, 9.9986315 
1.4250252e+3, 2.5473815e+2, -463611.38, -599181.6, -40323.93, 0.01607651, -0.13970906, -452524.2, -8972.018, 0.0, 10.000481, 9.998676 
1.4250292e+3, 2.6473656e+2, -400691.13, -577507.2, -27980.986, 0.015093442, -0.13637063, -396368.8, -50800.77, 0.0, 10.000496, 9.998145 
1.425033e+3, 2.7473494e+2, -301684.16, -475762.84, -20603.244, -0.0012150893, -0.11864682, -299278.88, -51692.094, 0.0, 10.000487, 9.998176 
1.4250372e+3, 2.847336e+2, -153169.92, -273582.7, -21958.035, -0.0035857658, -0.1072685, -149290.72, 309.46057, 0.0, 10.00049, 9.998889 
1.4250416e+3, 2.947324e+2, -50390.55, -169216.73, -38918.895, 0.018882109, -0.12272246, -38778.32, 12830.204, 0.0, 10.000506, 9.998924 
1.4250465e+3, 3.0473027e+2, -94068.04, -326348.0, -20998.885, 0.056625113, -0.1546133, -92184.94, -92184.94, 0.0, 10.000566, 9.997484 
1.4250503e+3, 3.1472877e+2, 75275.86, -3247.1995, 14339.306, -0.03135799, -0.058190964, 77812.45, 77812.45, 0.0, 10.000684, 9.999648 
1.4349756e+3, 1.2474514e+2, -1732404.8, -1655320.9, 73175.3, -0.034530792, -0.11575544, -1611157.9, 106327.62, 0.010261075, 9.999588, 10.000612 
1.4349775e+3, 1.3474472e+2, -1670096.3, -1691599.0, -102910.25, -0.027120372, -0.106870085, -1577377.3, 42111.914, 0.0060308045, 9.9998455, 9.999565 
1.4349814e+3, 1.4474395e+2, -1536608.5, -1557495.4, -18579.82, 0.0441678, -0.15304503, -1525738.3, -4241.7417, 0.002550165, 10.000007, 9.99973 
1.4349848e+3, 1.5474391e+2, -1432635.8, -1460059.0, -15964.393, -0.024479633, -0.12756184, -1425302.9, -1806.2876, 0.00061331474, 10.000063, 9.999699 
1.4349887e+3, 1.6474345e+2, -1346678.5, -1402786.1, -17081.447, -0.0594801, -0.12589332, -1341887.4, -16386.639, 0.000047750204, 10.000131, 9.999387 
1.4349934e+3, 1.7474264e+2, -1233260.3, -1292684.4, -19406.342, -0.018445639, -0.15199597, -1227484.1, 24.339134, 0.00000010052836, 10.000217, 9.999427 
1.4349976e+3, 1.8474191e+2, -1162079.6, -1248424.0, -37195.22, 0.0027247448, -0.14876832, -1148266.5, -18750.723, 0.0, 10.000208, 9.999063 
1.4350013e+3, 1.947413e+2, -1075462.0, -1151993.1, -31551.678, -0.009255667, -0.12280985, -1064131.6, -32608.654, 0.0, 10.0001135, 9.999097 
1.4350054e+3, 2.047403e+2, -992077.75, -1097531.0, -18791.953, -0.0028417152, -0.114105344, -988829.06, -55296.098, 0.0, 10.000171, 9.998771 
1.4350098e+3, 2.1473894e+2, -857069.1, -978378.06, -18888.328, 0.02867789, -0.13209082, -854196.1, -18650.133, 0.0, 10.00041, 9.9988 
1.4350139e+3, 2.247376e+2, -759499.7, -902836.56, -25164.85, 0.029384617, -0.13535582, -755210.0, -17650.836, 0.0, 10.000503, 9.998602 
1.4350174e+3, 2.347363e+2, -668370.44, -804309.6, -25184.13, -0.0055669504, -0.1291702, -663854.8, -24282.74, 0.0, 10.00044, 9.998635 
1.4350213e+3, 2.4473493e+2, -584348.25, -732769.2, -31088.1, -0.0165216, -0.12044163, -578099.7, -36514.258, 0.0, 10.000429, 9.998458 
1.4350253e+3, 2.5473347e+2, -476599.44, -625582.94, -37734.24, 0.000010478584, -0.11711379, -467587.34, -23988.49, 0.0, 10.000477, 9.998498 
1.4350295e+3, 2.647318e+2, -385144.56, -545060.6, -27611.768, 0.008164489, -0.12939875, -380511.25, -34895.836, 0.0, 10.000494, 9.998369 
1.4350337e+3, 2.7472982e+2, -285929.53, -442089.1, -19026.707, 0.0056808456, -0.16580503, -283644.72, -36009.645, 0.0, 10.000482, 9.998409 
1.4350379e+3, 2.847284e+2, -181143.98, -331847.7, -19983.781, 0.0023111082, -0.15219003, -178539.11, -28889.848, 0.0, 10.00049, 9.998489 
1.435042e+3, 2.9472753e+2, -81369.12, -232407.4, -36355.563, 0.0024447453, -0.09589134, -73073.78, -21416.29, 0.0, 10.0005, 9.998494 
1.435047e+3, 3.0472577e+2, -69217.336, -273648.72, -16206.215, 0.034282167, -0.08658764, -67940.57, -67940.57, 0.0, 10.00056, 9.997849 
1.435051e+3, 3.1472313e+2, 104490.836, 59541.254, 18397.137, -0.041633986, -0.14282694, 111060.336, 111060.336, 0.0, 10.000675, 10.000084 
1.4449751e+3, 1.24740645e+2, -1706332.3, -1641006.4, 81846.4, -0.049352508, -0.10495526, -1585546.1, 131983.94, 0.01077456, 9.999763, 10.000626 
1.4449775e+3, 1.3474e+2, -1661512.8, -1690121.6, -93271.586, -0.023019053, -0.1175732, -1581455.1, 38080.58, 0.00635403, 9.999917, 9.999539 
1.4449814e+3, 1.4473914e+2, -1531778.0, -1561565.6, -15232.533, 0.05544407, -0.16782248, -1525367.9, -3824.2646, 0.0027018294, 10.000069, 9.999671 
1.444985e+3, 1.547392e+2, -1414599.6, -1457454.0, -17340.11, -0.020318855, -0.12677905, -1408462.3, 15080.585, 0.0006557922, 10.000216, 9.999641 
1.4449888e+3, 1.6473877e+2, -1341210.6, -1406199.4, -23595.014, -0.056844965, -0.11695364, -1333547.8, -8000.733, 0.000052490832, 10.000197, 9.999329 
1.4449935e+3, 1.7473789e+2, -1267454.4, -1315851.6, -23495.21, -0.011222876, -0.14393039, -1257924.6, -30368.797, 0.00000012546444, 10.000013, 9.999366 
1.4449978e+3, 1.8473712e+2, -1178733.5, -1247722.6, -34898.754, 0.008340816, -0.14458328, -1164158.8, -34595.24, 0.0, 10.000057, 9.99914 
1.4450015e+3, 1.9473651e+2, -1034474.1, -1123374.9, -34384.445, -0.014732462, -0.12435968, -1022727.3, 8842.315, 0.0, 10.000358, 9.999175 
1.4450057e+3, 2.0473556e+2, -957163.06, -1083485.3, -26580.846, -0.011188371, -0.11464707, -951797.8, -18218.69, 0.0, 10.0004225, 9.998746 
1.4450102e+3, 2.1473426e+2, -885605.4, -994996.94, -27749.373, 0.027101414, -0.12417931, -878968.8, -43376.723, 0.0, 10.000228, 9.998774 
1.4450143e+3, 2.2473294e+2, -804009.7, -925133.9, -32964.86, 0.033901643, -0.12245486, -795619.25, -58014.145, 0.0, 10.000202, 9.998593 
1.4450179e+3, 2.3473166e+2, -680616.7, -811235.94, -34157.188, 0.003128002, -0.11527756, -672223.8, -32605.822, 0.0, 10.0003605, 9.998626 
1.4450218e+3, 2.4473022e+2, -585532.06, -738026.25, -35561.348, -0.012649137, -0.11023176, -577647.0, -36014.996, 0.0, 10.000441, 9.998417 
1.4450258e+3, 2.5472862e+2, -485377.28, -634886.3, -33639.13, -0.011135136, -0.11667406, -478157.22, -34510.203, 0.0, 10.000437, 9.998453 
1.44503e+3, 2.6472694e+2, -388480.13, -533708.2, -24305.525, 0.0004899174, -0.13213365, -384520.28, -38857.13, 0.0, 10.000414, 9.998486 
1.4450343e+3, 2.7472517e+2, -294170.88, -431730.4, -25158.965, 0.022618141, -0.16459984, -289713.84, -42033.785, 0.0, 10.000364, 9.998536 
1.4450385e+3, 2.8472364e+2, -204626.38, -362887.88, -16388.6, 0.016574427, -0.15825479, -202947.08, -53251.95, 0.0, 10.000414, 9.998312 
1.4450423e+3, 2.9472238e+2, -82799.58, -255043.11, -16554.688, -0.016335346, -0.12019238, -81222.91, -29514.682, 0.0, 10.000583, 9.998299 
1.4450471e+3, 3.04721e+2, -67797.336, -243113.9, 435.0224, 0.014242461, -0.072769016, -67796.26, -67796.26, 0.0, 10.000442, 9.998115 
1.4450513e+3, 3.1471822e+2, 13824.236, 37664.11, 20567.1, -0.027895484, -0.1749117, 49515.805, 49515.805, 0.0, 9.999959, 10.000277 
1.454975e+3, 1.2473575e+2, -1709666.3, -1648911.6, 79964.7, -0.046564315, -0.14517094, -1593748.6, 123828.53, 0.011332716, 9.999765, 10.000571 
1.454977e+3, 1.3473539e+2, -1667494.5, -1702560.3, -87281.56, -0.06973501, -0.12023919, -1596002.3, 23578.055, 0.006706996, 9.999916, 9.9994545 
1.4549813e+3, 1.4473456e+2, -1538924.1, -1576674.5, -11509.046, 0.02012709, -0.15877913, -1535692.0, -14103.678, 0.002869533, 10.00007, 9.999567 
1.4549857e+3, 1.5473433e+2, -1421692.6, -1472162.8, -12004.959, 0.025805445, -0.13619581, -1418982.6, 4607.849, 0.00070392614, 10.000216, 9.99954 
1.4549896e+3, 1.6473389e+2, -1342339.0, -1409489.0, -31348.443, 0.0007216817, -0.12210363, -1329979.1, -4383.975, 0.000058062662, 10.0002, 9.999306 
1.4549935e+3, 1.7473325e+2, -1267830.4, -1318038.4, -30475.549, -0.012869137, -0.12284677, -1253450.5, -25848.3, 0.00000016567238, 10.000017, 9.999349 
1.4549977e+3, 1.8473253e+2, -1177146.4, -1244968.6, -25028.242, -0.008586934, -0.11890595, -1168910.4, -39301.02, 0.0, 10.000058, 9.999158 
1.4550021e+3, 1.9473174e+2, -1032833.6, -1120775.4, -23026.176, -0.00012868011, -0.11785205, -1027169.44, 4447.055, 0.0, 10.0003605, 9.999192 
1.4550062e+3, 2.047307e+2, -959708.1, -1088732.9, -34403.332, 0.00021279456, -0.11663251, -951108.06, -17481.27, 0.0, 10.000422, 9.998711 
1.45501e+3, 2.147294e+2, -887894.7, -1000090.1, -35126.67, -0.0011001597, -0.12208977, -877804.5, -42164.15, 0.0, 10.000228, 9.998739 
1.4550142e+3, 2.2472815e+2, -805455.6, -927510.6, -27890.375, 0.007883775, -0.11210382, -799384.5, -61731.387, 0.0, 10.000198, 9.998579 
1.4550185e+3, 2.3472698e+2, -681387.5, -812855.7, -27635.836, 0.025655279, -0.09278825, -675814.44, -36149.773, 0.0, 10.00036, 9.998615 
1.4550225e+3, 2.4472548e+2, -579616.3, -725802.5, -35364.414, 0.017297208, -0.097287744, -571510.6, -29831.58, 0.0, 10.00044, 9.998502 
1.4550261e+3, 2.5472364e+2, -480090.97, -623061.6, -32673.445, -0.019385438, -0.13705881, -472977.9, -29281.496, 0.0, 10.000432, 9.998538 
1.4550303e+3, 2.6472208e+2, -388881.56, -533384.44, -25371.523, -0.010768476, -0.1431519, -384556.34, -38845.277, 0.0, 10.000409, 9.998491 
1.4550349e+3, 2.7472088e+2, -294640.78, -431423.22, -25526.996, 0.04632637, -0.116369635, -290032.1, -42310.227, 0.0, 10.000359, 9.998542 
1.4550391e+3, 2.8471923e+2, -200268.25, -353533.4, -9421.8545, 0.03707142, -0.12701204, -199691.22, -49953.277, 0.0, 10.000411, 9.998379 
1.4550427e+3, 2.94717e+2, -79608.19, -247729.45, -8055.5635, -0.040260557, -0.19328867, -79223.08, -27462.8, 0.0, 10.000579, 9.998352 
1.4550474e+3, 3.0471608e+2, -57276.29, -221317.63, -15414.451, -0.007760824, -0.1102686, -55840.41, -55840.41, 0.0, 10.000442, 9.998264 
1.4550516e+3, 3.147142e+2, 4749.6514, 20944.813, 860.7211, 0.0030644918, -0.13905567, 20990.428, 20990.428, 0.0, 9.999949, 10.000167 
1.4649749e+3, 1.24731205e+2, -1672936.4, -1657297.1, 86841.46, -0.045522805, -0.15265907, -1577924.0, 139697.03, 0.011933646, 10.000132, 10.000337 
1.464977e+3, 1.3473077e+2, -1621513.8, -1707194.4, -87351.08, -0.08165233, -0.111189514, -1567063.3, 52562.832, 0.0070893364, 10.000349, 9.999213 
1.4649811e+3, 1.4472987e+2, -1498173.8, -1549924.5, -20587.77, 0.008130748, -0.14588436, -1490982.6, 30652.354, 0.0030533436, 10.000322, 9.999627 
1.4649859e+3, 1.5472963e+2, -1443028.9, -1474563.3, -10119.562, 0.03721254, -0.13381183, -1440060.9, -16424.24, 0.0007578694, 10.000035, 9.999611 
1.46499e+3, 1.6472916e+2, -1373720.0, -1430181.1, -18828.717, 0.014980471, -0.12267419, -1368017.0, -42375.69, 0.00006440502, 10.00001, 9.999255 
1.4649937e+3, 1.747285e+2, -1233510.8, -1307307.3, -21723.307, -0.01938658, -0.11909558, -1227591.0, 57.85374, 0.00000022299002, 10.000281, 9.999294 
1.4649978e+3, 1.8472774e+2, -1142905.6, -1229807.3, -19444.338, -0.01786587, -0.116372295, -1138753.4, -9096.873, 0.0, 10.000301, 9.999144 
1.4650023e+3, 1.9472688e+2, -1079202.5, -1144729.1, -20548.412, 0.007011383, -0.1216919, -1073291.9, -41627.883, 0.0, 10.000051, 9.999176 
1.4650065e+3, 2.0472583e+2, -1016585.4, -1115309.3, -31243.191, 0.014447958, -0.1210089, -1007528.6, -73854.19, 0.0, 10.000029, 9.998717 
1.4650103e+3, 2.147246e+2, -883537.06, -997425.06, -29812.916, 0.008383443, -0.12024256, -876204.9, -40517.168, 0.0, 10.000257, 9.998743 
1.4650145e+3, 2.2472338e+2, -784111.3, -910420.2, -17930.076, 0.0121301245, -0.10984625, -781615.4, -43915.41, 0.0, 10.000316, 9.99864 
1.4650188e+3, 2.347222e+2, -702541.44, -815909.6, -13563.025, 0.024119927, -0.09801091, -700941.4, -61230.313, 0.0, 10.000184, 9.998679 
1.4650229e+3, 2.4472068e+2, -624717.44, -748213.8, -21715.676, 0.014068923, -0.10643577, -621010.25, -79284.74, 0.0, 10.0001335, 9.998495 
1.4650264e+3, 2.5471884e+2, -519167.84, -642555.94, -26814.012, -0.01972228, -0.14565459, -513592.7, -69849.18, 0.0, 10.000168, 9.99853 
1.4650305e+3, 2.6471737e+2, -407364.66, -538502.8, -19501.12, -0.012486494, -0.14292172, -404526.16, -58768.742, 0.0, 10.000266, 9.998524 
1.4650352e+3, 2.747164e+2, -280988.4, -421196.16, -18971.934, 0.03899803, -0.09916654, -278466.6, -30700.498, 0.0, 10.000436, 9.998574 
1.4650394e+3, 2.8471476e+2, -197459.4, -347859.47, -5765.314, 0.034500852, -0.114433125, -197238.73, -47456.484, 0.0, 10.000411, 9.998418 
1.4650433e+3, 2.947123e+2, -135575.39, -270266.2, -7541.955, -0.026259305, -0.2061116, -135154.39, -83347.63, 0.0, 10.000176, 9.99839 
1.4650477e+3, 3.0471173e+2, -95715.81, -211582.05, -17729.172, 0.0023247707, -0.10370987, -93063.7, -93063.7, 0.0, 10.000055, 9.998517 
1.4650515e+3, 3.1471002e+2, 16108.733, 17397.246, -288.44098, -0.003653228, -0.14031342, 17458.87, 17458.87, 0.0, 10.000067, 10.000085 
1.474975e+3, 1.24727085e+2, -1700698.5, -1715364.4, 90331.89, -0.044940267, -0.124790415, -1617402.4, 100258.3, 0.012570836, 10.000133, 9.999937 
1.4749776e+3, 1.3472621e+2, -1647721.3, -1762677.5, -79274.75, -0.06335418, -0.09063836, -1607279.9, 12392.384, 0.007496925, 10.000353, 9.99883 
1.4749816e+3, 1.4472517e+2, -1482806.5, -1519851.1, -31876.586, 0.013025223, -0.12856889, -1464461.6, 57221.246, 0.00325146, 10.00033, 9.999831 
1.4749858e+3, 1.5472513e+2, -1426818.6, -1441073.6, -20871.834, 0.012518582, -0.11975477, -1411890.9, 11790.038, 0.0008173103, 10.000035, 9.999841 
1.4749897e+3, 1.6472463e+2, -1379492.4, -1442641.1, -10640.304, -0.015984394, -0.11775765, -1377747.6, -52062.77, 0.000071419374, 10.0000105, 9.999169 
1.4749938e+3, 1.7472371e+2, -1239629.0, -1321288.1, -11743.76, -0.032814104, -0.13292989, -1237973.6, -10278.34, 0.0000002932695, 10.000285, 9.999197 
1.474998e+3, 1.847228e+2, -1146108.8, -1237282.8, -29191.746, -0.022617305, -0.13726781, -1137563.3, -7858.7065, 0.0, 10.000304, 9.999092 
1.4750023e+3, 1.9472194e+2, -1082047.5, -1151949.8, -30108.203, 0.004713243, -0.13635883, -1070867.4, -39155.254, 0.0, 10.000054, 9.9991255 
1.4750066e+3, 2.0472096e+2, -1013742.56, -1109335.3, -23889.416, 0.028602991, -0.1281189, -1008104.9, -74382.87, 0.0, 10.000027, 9.998759 
1.4750111e+3, 2.1471986e+2, -880417.3, -991247.4, -21061.186, 0.05382452, -0.118893676, -876549.94, -40815.984, 0.0, 10.000257, 9.998786 
1.4750151e+3, 2.2471865e+2, -775583.8, -892288.4, -23080.146, 0.045455843, -0.116501376, -771185.1, -33439.414, 0.0, 10.000313, 9.998766 
1.4750189e+3, 2.3471732e+2, -693892.0, -797691.1, -18065.676, -0.0030195543, -0.13024572, -690837.6, -51080.62, 0.0, 10.000182, 9.998805 
1.4750226e+3, 2.4471585e+2, -631998.75, -762497.4, -20518.336, -0.024488755, -0.13714048, -628848.7, -87077.49, 0.0, 10.00013, 9.9984 
1.4750266e+3, 2.5471425e+2, -526735.44, -657406.25, -24497.898, -0.014690113, -0.14290948, -522293.63, -78505.4, 0.0, 10.000164, 9.99843 
1.475031e+3, 2.6471287e+2, -403047.4, -529605.8, -12357.713, -0.006085168, -0.13219947, -401852.03, -56049.824, 0.0, 10.000265, 9.998587 
1.4750353e+3, 2.747117e+2, -277469.28, -412698.53, -10766.749, -0.0011949776, -0.1121013, -276617.4, -28804.838, 0.0, 10.000429, 9.998637 
1.4750396e+3, 2.8471014e+2, -198231.23, -347988.22, -13321.709, 0.0060088807, -0.119002104, -197055.44, -47227.58, 0.0, 10.000405, 9.99842 
1.4750439e+3, 2.9470822e+2, -136896.45, -271143.25, -14430.279, 0.021483358, -0.15956844, -135362.84, -83515.01, 0.0, 10.000168, 9.998387 
1.4750482e+3, 3.0470785e+2, -69184.51, -156864.23, -16592.508, 0.041792333, -0.05499867, -66149.586, -66149.586, 0.0, 10.000054, 9.998895 
1.4750512e+3, 3.1470588e+2, 12656.504, 10006.136, -784.098, -0.05322869, -0.15504071, 12871.1, 12871.1, 0.0, 10.000066, 10.000035 
1.4849752e+3, 1.2472242e+2, -1671530.1, -1699257.8, 60661.96, -0.055933643, -0.115150616, -1623168.0, 94538.63, 0.013241886, 10.000327, 9.999951 
1.4849778e+3, 1.3472155e+2, -1699096.5, -1780986.4, -74364.53, -0.04605772, -0.08844477, -1655149.9, -35431.793, 0.007927433, 9.999972, 9.998888 
1.4849819e+3, 1.447205e+2, -1532446.8, -1542372.0, -11941.817, 0.025115905, -0.13094018, -1524477.4, -2748.7097, 0.0034623703, 9.999982, 9.999844 
1.4849856e+3, 1.5472041e+2, -1373326.5, -1412646.8, -17042.88, -0.000048087673, -0.1260545, -1366967.9, 56758.805, 0.00088177144, 10.000393, 9.999862 
1.4849897e+3, 1.6471992e+2, -1317025.4, -1414961.3, -14807.43, -0.030878484, -0.124924645, -1314835.6, 10895.005, 0.00007901186, 10.000452, 9.999145 
1.484994e+3, 1.7471898e+2, -1263449.9, -1335991.8, -12063.795, -0.027627988, -0.13772085, -1261496.3, -33755.215, 0.00000037325287, 10.000136, 9.999167 
1.4849985e+3, 1.8471804e+2, -1181700.0, -1259765.9, -25742.428, -0.011791607, -0.14100818, -1173975.6, -44224.918, 0.0, 10.000083, 9.999043 
1.4850026e+3, 1.9471717e+2, -1046504.6, -1139796.1, -27274.846, 0.0043964814, -0.13903514, -1039115.75, -7356.798, 0.0, 10.000322, 9.999079 
1.4850068e+3, 2.0471618e+2, -961748.44, -1084131.1, -20213.242, 0.025243126, -0.12820931, -958496.4, -24727.49, 0.0, 10.000384, 9.998759 
1.4850113e+3, 2.1471511e+2, -881806.9, -991946.5, -21561.402, 0.05580956, -0.11640225, -877736.3, -41955.81, 0.0, 10.000248, 9.998785 
1.4850155e+3, 2.2471388e+2, -791288.06, -892772.94, -31111.559, 0.048469067, -0.11806357, -782509.7, -44717.395, 0.0, 10.000176, 9.998828 
1.4850189e+3, 2.3471251e+2, -691388.25, -789822.4, -32167.346, -0.0041111982, -0.14311574, -681808.56, -42004.6, 0.0, 10.000172, 9.998864 
1.4850228e+3, 2.4471112e+2, -625118.75, -753253.6, -28987.908, -0.023656676, -0.14690816, -618865.94, -77048.54, 0.0, 10.000153, 9.998451 
1.485027e+3, 2.5470975e+2, -530771.6, -653828.75, -23204.896, -0.0051423674, -0.13406868, -526541.25, -82708.92, 0.0, 10.0001135, 9.998479 
1.4850311e+3, 2.647084e+2, -429694.06, -540326.75, -4404.369, 0.00071909465, -0.120365456, -429519.0, -83673.17, 0.0, 10.000074, 9.998604 
1.4850354e+3, 2.747071e+2, -332623.5, -437383.44, -7083.163, -0.010316883, -0.11614315, -332146.78, -84289.16, 0.0, 10.000044, 9.998652 
1.4850397e+3, 2.847056e+2, -240644.66, -358408.47, -12315.286, -0.00514006, -0.12595762, -239370.56, -89497.875, 0.0, 10.0000725, 9.9985075 
1.485044e+3, 2.947039e+2, -132619.28, -259392.42, -9268.524, 0.02492384, -0.15284511, -131945.23, -80054.74, 0.0, 10.000156, 9.998474 
1.4850482e+3, 3.0470356e+2, -42628.02, -121324.64, -12365.074, 0.042347174, -0.057864796, -40730.91, -40730.91, 0.0, 10.000141, 9.999096 
1.4850512e+3, 3.1470194e+2, -4833.2524, -16148.021, -13904.619, -0.054296825, -0.14388597, 4520.8394, 4520.8394, 0.0, 10.000024, 9.999874 
1.4949752e+3, 1.2471727e+2, -1643771.6, -1641798.3, 42827.395, -0.08209862, -0.12275728, -1599946.3, 117811.79, 0.013954315, 10.000328, 10.000349 
1.494978e+3, 1.347168e+2, -1666691.9, -1712299.5, -87579.02, -0.029897463, -0.10419161, -1598996.6, 20766.678, 0.0083850045, 9.999968, 9.999361 
1.4949821e+3, 1.4471585e+2, -1543765.0, -1566388.1, 1295.2391, 0.04393503, -0.15150815, -1543691.1, -21919.117, 0.003687204, 9.999983, 9.99968 
1.4949861e+3, 1.5471555e+2, -1385094.6, -1438592.3, -1788.5249, -0.003829886, -0.15310255, -1385035.0, 38738.44, 0.00095130136, 10.000399, 9.999682 
1.4949901e+3, 1.6471504e+2, -1314393.1, -1410845.0, -26977.75, -0.03418477, -0.14412275, -1307360.1, 18417.771, 0.00008722728, 10.000458, 9.999171 
1.4949943e+3, 1.7471437e+2, -1260999.3, -1331541.1, -24159.85, -0.0048646103, -0.1337875, -1253518.1, -25732.316, 0.0000004647829, 10.000138, 9.999197 
1.4949986e+3, 1.8471351e+2, -1185004.0, -1266687.6, -18208.117, 0.012662042, -0.12710483, -1181129.0, -51334.277, 0.0, 10.000083, 9.998997 
1.4950028e+3, 1.9471253e+2, -1049175.1, -1146649.6, -18351.422, 0.004314874, -0.1301405, -1045834.56, -14030.415, 0.0, 10.000327, 9.99903 
1.495007e+3, 2.0471147e+2, -965229.44, -1091285.5, -25698.324, 0.002612661, -0.12251144, -960191.75, -26376.84, 0.0, 10.000384, 9.998711 
1.4950113e+3, 2.1471034e+2, -884742.3, -998512.25, -26665.852, 0.012858458, -0.11247791, -878802.44, -42975.227, 0.0, 10.000249, 9.998739 
1.4950153e+3, 2.2470908e+2, -792024.44, -893921.0, -31896.533, 0.018873373, -0.11484274, -782863.56, -45023.918, 0.0, 10.000174, 9.998821 
1.4950193e+3, 2.3470773e+2, -691808.9, -790296.1, -31901.002, 0.018679269, -0.13678789, -682378.75, -42526.914, 0.0, 10.00017, 9.998862 
1.4950234e+3, 2.4470648e+2, -612708.4, -726982.2, -30169.32, 0.014718866, -0.13631618, -605232.5, -63368.5, 0.0, 10.00015, 9.998633 
1.4950271e+3, 2.5470534e+2, -518383.75, -627210.9, -23488.496, 0.007331853, -0.11859462, -513530.6, -69654.82, 0.0, 10.00011, 9.998664 
1.4950313e+3, 2.6470408e+2, -431744.38, -543827.5, -5087.967, 0.0057655335, -0.10697496, -431513.88, -85625.64, 0.0, 10.000071, 9.998582 
1.4950356e+3, 2.7470267e+2, -334899.88, -441342.03, -6646.3047, 0.008262181, -0.11169719, -334486.5, -86585.23, 0.0, 10.00004, 9.998627 
1.4950398e+3, 2.8470105e+2, -229331.45, -335281.5, -7975.2275, -0.0012995675, -0.13586925, -228734.48, -78817.625, 0.0, 10.0000725, 9.998667 
1.4950438e+3, 2.946993e+2, -122821.11, -237418.48, -4089.4182, -0.019289715, -0.18414018, -122675.37, -70740.71, 0.0, 10.000148, 9.99863 
1.495048e+3, 3.0469885e+2, -40891.117, -116559.33, -16099.703, -0.00010568128, -0.11088755, -37608.074, -37608.074, 0.0, 10.000135, 9.999131 
1.4950517e+3, 3.146983e+2, -23430.598, -54158.684, -17064.492, -0.013388863, -0.09434238, -15832.701, -15832.701, 0.0, 10.000022, 9.999615 
1.5049756e+3, 1.2471231e+2, -1690938.1, -1662612.8, 69248.88, -0.06623698, -0.14519902, -1606093.1, 111712.81, 0.014719213, 9.999991, 10.000369 
1.5049781e+3, 1.3471194e+2, -1592437.0, -1664763.5, -87302.58, -0.03255667, -0.12843482, -1534104.1, 85705.52, 0.008876167, 10.00043, 9.999465 
1.5049821e+3, 1.4471108e+2, -1473731.1, -1539744.6, -7921.7383, 0.026316712, -0.16817518, -1472793.9, 49023.676, 0.003928814, 10.000498, 9.999614 
1.5049863e+3, 1.5471084e+2, -1422114.6, -1463660.4, -4039.9163, -0.008302371, -0.15445976, -1421725.4, 2093.368, 0.0010266986, 10.000175, 9.999619 
1.5049905e+3, 1.6471034e+2, -1362756.8, -1440416.1, -29307.248, -0.031359643, -0.1415947, -1352938.1, -27114.344, 0.00009630864, 10.000151, 9.999117 
1.5049948e+3, 1.747095e+2, -1219586.3, -1317500.1, -33470.816, -0.0023564775, -0.14116256, -1209238.3, 18594.986, 0.000000575819, 10.000448, 9.999144 
1.504999e+3, 1.8470864e+2, -1125293.4, -1239142.8, -28076.496, 0.014173672, -0.13400453, -1118746.0, 11096.491, 0.0, 10.0005, 9.998984 
1.5050031e+3, 1.9470775e+2, -1056551.4, -1151956.0, -26706.975, 0.0029766825, -0.12488744, -1049584.0, -17732.895, 0.0, 10.000284, 9.999014 
1.5050071e+3, 2.0470671e+2, -997821.5, -1100982.1, -32918.65, -0.0023296739, -0.116317436, -988212.25, -54350.58, 0.0, 10.000134, 9.998764 
1.5050112e+3, 2.1470553e+2, -909813.8, -1004280.8, -27311.883, 0.0030538496, -0.117305726, -902486.0, -66611.87, 0.0, 10.0000515, 9.998795 
1.5050153e+3, 2.247043e+2, -821905.25, -909157.8, -25882.186, 0.012345398, -0.118145026, -814805.4, -76919.016, 0.0, 9.999974, 9.998813 
1.5050194e+3, 2.347031e+2, -732271.9, -811290.3, -27667.754, 0.024573231, -0.12514867, -723547.44, -83649.35, 0.0, 9.9999, 9.998848 
1.5050234e+3, 2.4470194e+2, -630470.75, -719837.6, -22784.717, 0.024057878, -0.120337956, -624996.9, -83087.59, 0.0, 9.999962, 9.998772 
1.5050274e+3, 2.5470084e+2, -498149.94, -601508.2, -20873.059, 0.008810921, -0.11155795, -494093.8, -50174.12, 0.0, 10.000181, 9.998806 
1.5050314e+3, 2.6469955e+2, -406405.28, -525750.25, -7925.6313, 0.006435781, -0.11216275, -405881.25, -59949.28, 0.0, 10.000221, 9.998633 
1.5050358e+3, 2.7469805e+2, -329809.56, -433481.8, -5220.9155, 0.017047724, -0.1319634, -329547.3, -81601.336, 0.0, 10.000053, 9.998674 
1.5050398e+3, 2.846966e+2, -243137.58, -334436.97, -2116.7383, 0.0017335607, -0.14697757, -243088.53, -93128.414, 0.0, 9.999947, 9.9987335 
1.5050437e+3, 2.9469526e+2, -150808.36, -243121.8, -6301.554, -0.03862668, -0.15911844, -150380.17, -98406.48, 0.0, 9.999924, 9.998698 
1.5050478e+3, 3.046944e+2, -54370.14, -124000.73, -19849.256, -0.025902368, -0.12913594, -49109.29, -49109.29, 0.0, 10.000048, 9.999124 
1.5050519e+3, 3.14694e+2, 9680.159, -54117.58, -26296.768, 0.0012462627, -0.09730762, 19122.043, 19122.043, 0.0, 10.000318, 9.999474 
1.5149762e+3, 1.2470764e+2, -1714966.9, -1711973.9, 82741.75, -0.006944189, -0.174586, -1630715.1, 87134.18, 0.015541437, 9.99999, 10.000029 
1.5149783e+3, 1.3470697e+2, -1609656.9, -1701255.0, -70959.734, -0.058099218, -0.162076, -1570999.9, 48857.094, 0.00940343, 10.000432, 9.999213 
1.514982e+3, 1.447062e+2, -1471950.3, -1537228.5, -20332.816, -0.032708425, -0.18062444, -1466135.0, 55729.652, 0.004188714, 10.000502, 9.999629 
1.5149865e+3, 1.5470639e+2, -1419837.0, -1459315.5, -16134.713, -0.014415025, -0.1296611, -1414081.8, 9780.538, 0.0011086961, 10.000176, 9.999648 
1.5149908e+3, 1.6470583e+2, -1371031.4, -1458258.6, -19682.975, -0.023983829, -0.116371945, -1366795.6, -40927.703, 0.000106542946, 10.000153, 9.998994 
1.514995e+3, 1.7470442e+2, -1228090.6, -1336418.6, -22414.521, -0.022869954, -0.16061167, -1223635.9, 4246.8, 0.0000007145684, 10.000453, 9.999012 
1.5149993e+3, 1.8470338e+2, -1124499.8, -1238028.4, -36334.17, -0.0106410915, -0.16283129, -1113867.0, 16026.606, 0.0, 10.000501, 9.998992 
1.5150034e+3, 1.9470283e+2, -1055119.5, -1150040.5, -34801.46, -0.0007646536, -0.12321159, -1043727.3, -11827.744, 0.0, 10.000287, 9.999026 
1.5150075e+3, 2.0470192e+2, -987252.8, -1079227.0, -36772.758, 0.008951909, -0.10929759, -974358.25, -40449.508, 0.0, 10.000134, 9.998914 
1.5150115e+3, 2.1470067e+2, -899238.25, -982313.94, -30393.12, 0.02421701, -0.13112974, -889306.3, -53385.223, 0.0, 10.000051, 9.998946 
1.5150155e+3, 2.2469956e+2, -824045.75, -912553.3, -29132.316, 0.026613453, -0.12909439, -815317.56, -77385.04, 0.0, 9.999969, 9.998792 
1.5150192e+3, 2.3469861e+2, -733995.2, -815057.4, -29847.021, 0.012674778, -0.107960396, -724191.25, -84248.63, 0.0, 9.9999, 9.998821 
1.5150233e+3, 2.4469753e+2, -624330.44, -707080.44, -14751.9, 0.0024902541, -0.09912234, -621779.25, -79826.05, 0.0, 9.999961, 9.99886 
1.5150273e+3, 2.546963e+2, -492126.25, -588058.94, -11641.295, -0.0029412028, -0.11292589, -490733.8, -46769.715, 0.0, 10.000176, 9.9989 
1.5150316e+3, 2.646949e+2, -399134.63, -509520.38, -12837.767, 0.0008989215, -0.13569754, -397661.28, -51684.293, 0.0, 10.000216, 9.998748 
1.5150358e+3, 2.746933e+2, -322953.4, -418112.47, -9741.938, 0.014107826, -0.17567289, -321966.3, -73974.555, 0.0, 10.000049, 9.998782 
1.5150398e+3, 2.846922e+2, -244363.64, -336971.88, -2912.4612, 0.0013426851, -0.15805964, -244272.14, -94269.73, 0.0, 9.999946, 9.998717 
1.5150435e+3, 2.9469177e+2, -152296.38, -245990.7, -5532.144, -0.037301723, -0.07893552, -151970.86, -99963.14, 0.0, 9.999922, 9.99868 
1.5150477e+3, 3.046902e+2, -58087.11, -132782.83, -8486.713, -0.038711805, -0.1154884, -57135.008, -57135.008, 0.0, 10.000051, 9.999063 
1.5150522e+3, 3.1468898e+2, 9544.892, -52775.277, -12106.144, -0.016993789, -0.15495509, 11813.98, 11813.98, 0.0, 10.000309, 9.999487 
1.5249765e+3, 1.2470307e+2, -1620469.1, -1688737.4, 80713.18, -0.007928894, -0.18619102, -1566969.0, 150923.67, 0.016418394, 10.000745, 9.9998255 
1.5249787e+3, 1.3470235e+2, -1618690.8, -1718728.8, -63104.6, -0.059047166, -0.16733539, -1588185.9, 31715.35, 0.009964891, 10.000425, 9.999097 
1.5249823e+3, 1.4470153e+2, -1498923.1, -1566477.5, -15604.479, -0.045587413, -0.17980309, -1495492.9, 26417.28, 0.0044658356, 10.000384, 9.999486 
1.5249869e+3, 1.5470147e+2, -1362820.4, -1447006.9, -24819.46, -0.015666658, -0.13655248, -1356048.0, 67862.29, 0.0011971197, 10.000633, 9.999513 
1.5249911e+3, 1.6470087e+2, -1297919.4, -1417540.1, -25877.676, -0.020376157, -0.12510346, -1292561.3, 33355.203, 0.000118069845, 10.000633, 9.999041 
1.5249954e+3, 1.7469956e+2, -1236179.9, -1334852.4, -16090.102, -0.024464086, -0.16365126, -1233622.4, -5692.6797, 0.0000008766353, 10.000375, 9.999061 
1.5249996e+3, 1.8469855e+2, -1160957.1, -1260571.1, -27840.424, -0.0151101835, -0.16484164, -1153704.3, -23763.756, 0.0, 10.000272, 9.998948 
1.5250036e+3, 1.946979e+2, -1050795.0, -1153180.8, -31347.896, -0.0055599674, -0.12813063, -1041959.5, -10011.594, 0.0, 10.00034, 9.99898 
1.5250076e+3, 2.0469703e+2, -962684.06, -1057638.5, -41079.72, 0.006337018, -0.113668285, -947378.9, -13421.949, 0.0, 10.000263, 9.999 
1.5250117e+3, 2.146959e+2, -897096.3, -971845.75, -40652.336, 0.025960052, -0.13097543, -879248.9, -43281.336, 0.0, 10.000025, 9.999031 
1.5250154e+3, 2.2469483e+2, -820856.94, -909821.06, -32272.984, 0.026965665, -0.12789412, -810382.6, -72404.35, 0.0, 9.999986, 9.998802 
1.5250191e+3, 2.3469387e+2, -694403.25, -795153.3, -31769.639, 0.003922139, -0.11033841, -685221.94, -45233.04, 0.0, 10.000169, 9.998829 
1.5250231e+3, 2.4469277e+2, -595374.06, -688356.4, -20063.287, -0.0071498263, -0.10370614, -591229.6, -49230.11, 0.0, 10.00014, 9.998902 
1.5250273e+3, 2.546916e+2, -534395.2, -603753.8, -21695.852, -0.0040476755, -0.11698808, -528167.7, -84157.92, 0.0, 9.9998665, 9.998941 
1.5250316e+3, 2.6469025e+2, -455990.7, -531683.7, -25896.412, 0.0011548379, -0.13811767, -447978.9, -101956.81, 0.0, 9.9998045, 9.998794 
1.5250358e+3, 2.746887e+2, -330269.44, -416488.75, -29147.602, 0.0076160906, -0.1772482, -321340.4, -73303.87, 0.0, 9.999977, 9.998828 
1.5250398e+3, 2.8468773e+2, -227714.1, -321191.16, -22832.379, -0.0007421426, -0.15626073, -222435.25, -72389.05, 0.0, 10.000028, 9.998786 
1.5250437e+3, 2.9468742e+2, -144855.98, -234373.75, -20057.242, -0.023664633, -0.07073957, -140567.42, -88517.664, 0.0, 9.99994, 9.998752 
1.5250477e+3, 3.046854e+2, -78008.83, -144430.11, -8989.075, -0.035387464, -0.15274826, -76813.8, -76813.8, 0.0, 9.999925, 9.9990425 
1.5250522e+3, 3.1468445e+2, -21810.928, -45472.816, -7872.4917, -0.025517957, -0.16652548, -19431.055, -19431.055, 0.0, 9.999999, 9.999686 
1.5349767e+3, 1.2469867e+2, -1625605.4, -1700264.4, 67153.69, -0.069683336, -0.17667608, -1586103.3, 131832.3, 0.017345058, 10.000748, 9.999744 
1.5349793e+3, 1.3469812e+2, -1617990.5, -1717838.4, -75187.33, -0.037791446, -0.14316659, -1577661.8, 42280.395, 0.01055819, 10.000427, 9.999104 
1.534983e+3, 1.4469706e+2, -1518477.0, -1608405.4, -7913.8574, -0.013989203, -0.16427265, -1517785.9, 4167.5703, 0.004758545, 10.000389, 9.999196 
1.5349875e+3, 1.5469618e+2, -1383040.1, -1489321.8, -15607.163, -0.014700522, -0.17610444, -1380795.6, 43166.71, 0.0012911803, 10.000634, 9.999222 
1.5349917e+3, 1.6469547e+2, -1283045.0, -1387802.3, -35906.0, -0.024354812, -0.16797571, -1271919.6, 54049.656, 0.00013084838, 10.000637, 9.999244 
1.5349959e+3, 1.7469496e+2, -1220058.8, -1302664.0, -25725.797, -0.008484068, -0.14968817, -1212702.1, 15271.754, 0.0000010420176, 10.000379, 9.99928 
1.535e+3, 1.8469413e+2, -1167470.1, -1274695.6, -26213.514, -0.0008186182, -0.13875146, -1161404.9, -31421.96, 0.0, 10.000274, 9.998851 
1.535004e+3, 1.94693e+2, -1058448.1, -1169413.3, -28774.316, -0.013614836, -0.14061917, -1051430.5, -19434.533, 0.0, 10.000341, 9.998868 
1.5350077e+3, 2.0469202e+2, -961832.3, -1055731.8, -50310.207, -0.013111541, -0.13103735, -939967.9, -5961.5303, 0.0, 10.000261, 9.999014 
1.5350114e+3, 2.1469124e+2, -895557.6, -969186.44, -49133.313, 0.0069109225, -0.11679237, -870976.75, -34963.473, 0.0, 10.000027, 9.999049 
1.5350153e+3, 2.2469018e+2, -818890.56, -905581.6, -26189.922, 0.01151861, -0.113903835, -811592.75, -73569.36, 0.0, 9.999985, 9.998833 
1.5350193e+3, 2.346889e+2, -692582.94, -790971.44, -24252.918, -0.0029502541, -0.13208897, -686929.44, -46892.586, 0.0, 10.000167, 9.998859 
1.5350233e+3, 2.4468774e+2, -596498.94, -689441.56, -29728.404, -0.006463223, -0.13430399, -587803.6, -45755.38, 0.0, 10.000134, 9.9988985 
1.5350273e+3, 2.5468677e+2, -535622.25, -606052.8, -30653.7, 0.0034852927, -0.123223774, -524149.53, -80092.86, 0.0, 9.999866, 9.998927 
1.5350313e+3, 2.6468566e+2, -457054.8, -534199.9, -19102.158, 0.0041250708, -0.12017089, -452583.97, -106516.65, 0.0, 9.9998045, 9.998776 
1.5350355e+3, 2.746843e+2, -331595.13, -418956.1, -20981.883, -0.005798902, -0.13914679, -326817.16, -78736.7, 0.0, 9.999974, 9.998813 
1.5350397e+3, 2.846831e+2, -218548.11, -301134.5, -24574.828, -0.007423735, -0.14320353, -211788.73, -61697.137, 0.0, 10.000023, 9.998926 
1.5350439e+3, 2.9468223e+2, -135768.55, -214135.14, -21303.947, -0.00022828826, -0.13000031, -130351.52, -78252.05, 0.0, 9.999934, 9.998894 
1.5350479e+3, 3.0468008e+2, -75671.47, -139939.28, -5838.4214, -0.017712547, -0.23728013, -75145.38, -75145.38, 0.0, 9.999925, 9.999074 
1.535052e+3, 3.1468007e+2, 7521.2485, 15920.364, 1548.281, -0.03452076, -0.15744537, 16196.682, 16196.682, 0.0, 9.999995, 10.000111 
1.5449774e+3, 1.24694e+2, -1633590.1, -1712978.0, 50811.207, -0.06810147, -0.17438348, -1608806.3, 109174.98, 0.018319318, 10.000732, 9.999663 
1.5449803e+3, 1.3469344e+2, -1555936.1, -1688380.8, -93729.195, -0.021663316, -0.14026009, -1507395.4, 112592.41, 0.011183906, 10.000862, 9.999097 
1.5449837e+3, 1.4469236e+2, -1463226.3, -1588345.3, -15093.249, -0.012513546, -0.1598065, -1461431.4, 60567.91, 0.005067253, 10.0008, 9.999135 
1.544988e+3, 1.5469131e+2, -1402128.3, -1504887.5, -6322.237, -0.016244475, -0.18345314, -1401740.8, 22269.164, 0.001390617, 10.00053, 9.999166 
1.5449922e+3, 1.6469055e+2, -1312399.8, -1402577.6, -26703.402, -0.027421491, -0.1775627, -1305085.6, 20931.688, 0.00014484508, 10.000438, 9.999239 
1.5449964e+3, 1.7469013e+2, -1195688.9, -1291465.5, -34191.29, -0.013288006, -0.15007128, -1184735.6, 43285.6, 0.000001197513, 10.000548, 9.999275 
1.5450004e+3, 1.8468933e+2, -1138642.0, -1263830.3, -41547.234, -0.0030803885, -0.13448565, -1126108.3, 3921.672, 0.0, 10.000485, 9.998822 
1.5450042e+3, 1.9468817e+2, -1076365.1, -1181597.3, -38887.19, -0.009479757, -0.13603799, -1063554.5, -31510.908, 0.0, 10.000234, 9.998836 
1.545008e+3, 2.0468713e+2, -971201.5, -1061352.3, -54605.33, -0.010932244, -0.12895876, -945470.6, -11416.258, 0.0, 10.000202, 9.999003 
1.5450114e+3, 2.1468629e+2, -838533.75, -942684.75, -56635.68, -0.0033936962, -0.12017886, -813671.25, 22390.453, 0.0, 10.000423, 9.999039 
1.5450154e+3, 2.246852e+2, -766315.1, -882142.25, -39963.855, 0.0027635538, -0.11888879, -753864.7, -15792.7, 0.0, 10.000355, 9.998816 
1.5450194e+3, 2.3468392e+2, -724833.9, -808948.5, -42282.49, 0.006068359, -0.13413154, -707253.75, -67168.25, 0.0, 9.999956, 9.9988365 
1.5450233e+3, 2.4468279e+2, -640219.1, -704545.4, -45684.453, 0.0045575933, -0.13557391, -616511.5, -74414.94, 0.0, 9.99981, 9.998951 
1.545027e+3, 2.5468186e+2, -519909.66, -592590.8, -43615.965, -0.0028669576, -0.12693663, -499478.84, -55374.348, 0.0, 9.999949, 9.99898 
1.545031e+3, 2.6468077e+2, -429122.9, -516516.1, -23170.652, -0.00852529, -0.12501575, -423359.72, -77244.97, 0.0, 9.999978, 9.998815 
1.5450354e+3, 2.7467945e+2, -342311.8, -420293.28, -21873.404, -0.011527844, -0.14370365, -336595.47, -88467.8, 0.0, 9.999886, 9.998847 
1.5450397e+3, 2.846783e+2, -245543.14, -304410.53, -29372.164, -0.0073178196, -0.14754905, -233394.8, -83256.57, 0.0, 9.999798, 9.999012 
1.5450437e+3, 2.9467756e+2, -164094.92, -218071.7, -32480.32, 0.0046563377, -0.13357581, -148853.66, -96708.67, 0.0, 9.999699, 9.99898 
1.5450478e+3, 3.0467534e+2, -111653.99, -174096.39, -15557.149, -0.014926946, -0.24059333, -107992.7, -107992.7, 0.0, 9.999753, 9.998921 
1.5450521e+3, 3.1467524e+2, 25209.697, 50703.258, -19236.96, -0.030330753, -0.15728867, 61033.33, 61033.33, 0.0, 10.000008, 10.000342 
1.5549788e+3, 1.24689154e+2, -1639230.8, -1724339.5, 54199.508, -0.00115237, -0.17155388, -1612876.0, 105152.95, 0.019345792, 10.000731, 9.999586 
1.554981e+3, 1.3468836e+2, -1557066.6, -1690657.5, -88924.195, -0.012792741, -0.15948613, -1512645.5, 107392.305, 0.011846598, 10.000863, 9.999081 
1.5549842e+3, 1.4468749e+2, -1451431.6, -1565254.6, -25578.158, -0.044328697, -0.16551274, -1445947.9, 76099.11, 0.0053950804, 10.000806, 9.999292 
1.5549885e+3, 1.5468691e+2, -1389730.0, -1480418.0, -16409.21, -0.023099352, -0.15720555, -1386852.3, 37200.145, 0.0014964977, 10.000535, 9.999331 
1.5549925e+3, 1.6468614e+2, -1326522.8, -1433267.3, -23722.36, -0.031895548, -0.15242068, -1321488.3, 4572.118, 0.00016027692, 10.0004425, 9.999026 
1.5549965e+3, 1.7468508e+2, -1211698.5, -1324945.1, -30017.16, -0.04082265, -0.16607092, -1204234.1, 23837.332, 0.0000013687348, 10.000549, 9.999046 
1.5550005e+3, 1.8468414e+2, -1136283.5, -1258903.9, -51117.863, -0.025665652, -0.15254581, -1117769.0, 12312.709, 0.0, 10.000484, 9.9988575 
1.5550046e+3, 1.9468345e+2, -1072545.3, -1174661.1, -47956.355, 0.0056746965, -0.11368745, -1053555.1, -21464.8, 0.0, 10.0002365, 9.998882 
1.5550084e+3, 2.0468242e+2, -974340.56, -1068278.6, -47142.55, 0.011751482, -0.10618933, -954762.56, -20661.813, 0.0, 10.000203, 9.998957 
1.555012e+3, 2.1468107e+2, -842575.5, -950498.9, -48129.434, -0.0069592968, -0.1414853, -824230.2, 11882.603, 0.0, 10.00042, 9.998988 
1.5550156e+3, 2.246799e+2, -771049.0, -891031.5, -54595.64, -0.0021038193, -0.14404947, -749925.3, -11801.088, 0.0, 10.00035, 9.998756 
1.5550195e+3, 2.3467898e+2, -729196.2, -818236.8, -56395.535, 0.029294325, -0.116790384, -701865.8, -61731.105, 0.0, 9.999956, 9.998774 
1.5550233e+3, 2.4467796e+2, -633646.3, -690798.2, -40494.938, 0.023330797, -0.10811946, -612659.94, -70515.375, 0.0, 9.999809, 9.999046 
1.5550269e+3, 2.5467685e+2, -512783.03, -577699.3, -37037.535, -0.025064094, -0.12930372, -495993.72, -51840.375, 0.0, 9.999948, 9.9990835 
1.555031e+3, 2.646756e+2, -422772.5, -502738.38, -25533.037, -0.03787661, -0.15289907, -415315.25, -69150.8, 0.0, 9.999975, 9.998911 
1.5550354e+3, 2.746742e+2, -336534.1, -408217.97, -23282.398, -0.01157692, -0.18766296, -329635.97, -81458.03, 0.0, 9.999885, 9.998931 
1.5550394e+3, 2.8467336e+2, -243059.16, -299505.2, -31846.996, -0.0034105978, -0.16805553, -228729.03, -78543.07, 0.0, 9.999798, 9.999046 
1.5550432e+3, 2.9467326e+2, -162095.27, -213697.73, -34624.03, -0.015029091, -0.087271586, -144716.33, -92529.57, 0.0, 9.999697, 9.999011 
1.5550473e+3, 3.046712e+2, -137853.97, -227831.98, -5505.439, -0.032670006, -0.16794464, -137518.36, -137518.36, 0.0, 9.999749, 9.998555 
1.5550523e+3, 3.1466973e+2, 26352.3, 52993.418, -1562.4491, -0.017420053, -0.18279141, 53084.74, 53084.74, 0.0, 10.000007, 10.00036 
1.5649797e+3, 1.246842e+2, -1604627.6, -1707557.9, 59683.58, 0.0073911687, -0.18422958, -1577284.1, 140793.14, 0.020435693, 10.000976, 9.999584 
1.5649821e+3, 1.3468343e+2, -1555249.4, -1685034.9, -80118.25, -0.003874983, -0.17530337, -1517040.3, 103045.664, 0.012553852, 10.000855, 9.999123 
1.5649849e+3, 1.4468269e+2, -1458576.8, -1569041.4, -25993.865, -0.057537086, -0.16802613, -1452765.8, 69327.97, 0.0057467376, 10.000759, 9.999289 
1.5649891e+3, 1.5468226e+2, -1365685.6, -1469089.6, -31206.61, -0.025328418, -0.1457104, -1356997.6, 67100.43, 0.0016107617, 10.000703, 9.999329 
1.5649931e+3, 1.6468145e+2, -1302193.1, -1431483.8, -33000.227, -0.029151788, -0.13924874, -1294257.3, 31849.408, 0.00017757353, 10.000654, 9.998937 
1.5649971e+3, 1.7468019e+2, -1208818.8, -1334153.4, -29915.451, -0.04115899, -0.16238348, -1202044.5, 26075.646, 0.0000016137079, 10.000616, 9.99895 
1.5650012e+3, 1.8467924e+2, -1109095.1, -1237806.8, -47586.434, -0.031246316, -0.14917059, -1093412.6, 36718.0, 0.0, 10.000637, 9.998928 
1.565005e+3, 1.9467872e+2, -994512.1, -1128626.9, -43645.773, -0.008033363, -0.0997267, -981559.2, 50577.543, 0.0, 10.000737, 9.998957 
1.5650086e+3, 2.0467767e+2, -928461.25, -1059261.8, -45693.246, 0.0016480554, -0.09311387, -914080.1, 20067.145, 0.0, 10.000575, 9.998838 
1.5650122e+3, 2.1467607e+2, -896057.0, -990564.0, -52522.656, -0.0003974344, -0.14206707, -872659.8, -36497.383, 0.0, 10.000114, 9.998859 
1.5650159e+3, 2.2467485e+2, -823874.4, -910529.44, -56351.41, 0.007973005, -0.1455241, -796119.2, -57944.734, 0.0, 9.999963, 9.998809 
1.5650196e+3, 2.3467411e+2, -695102.6, -795708.56, -51556.293, 0.027025959, -0.10437506, -673374.75, -33192.246, 0.0, 10.000165, 9.998827 
1.5650234e+3, 2.4467306e+2, -580725.6, -671726.9, -33010.11, 0.019337267, -0.09869298, -570012.56, -27820.23, 0.0, 10.000199, 9.998989 
1.565027e+3, 2.5467166e+2, -502646.78, -579555.2, -42237.402, -0.018071983, -0.14231136, -483980.72, -39776.9, 0.0, 10.000048, 9.999022 
1.5650308e+3, 2.646704e+2, -439833.06, -504248.03, -44909.566, -0.029930342, -0.16619109, -416775.8, -70560.86, 0.0, 9.999831, 9.99897 
1.565035e+3, 2.7466932e+2, -384483.34, -424767.22, -46551.27, -0.013647299, -0.17747298, -353903.3, -105677.75, 0.0, 9.999529, 9.998988 
1.565039e+3, 2.8466845e+2, -284413.72, -328697.0, -47006.49, -0.008872707, -0.16014816, -254595.16, -104361.07, 0.0, 9.999554, 9.998963 
1.565043e+3, 2.94668e+2, -131356.64, -208376.95, -59409.938, -0.01727561, -0.10683842, -99067.266, -46828.516, 0.0, 9.999949, 9.998926 
1.5650472e+3, 3.0466622e+2, -106487.56, -223293.69, -29698.807, -0.027271284, -0.14886458, -99370.12, -99370.12, 0.0, 10.0000105, 9.99846 
1.5650521e+3, 3.1466454e+2, -10688.601, 47211.055, -2023.5302, -0.0083184615, -0.17308436, 47281.69, 47281.69, 0.0, 9.999699, 10.000469 
1.5749802e+3, 1.2467919e+2, -1599454.3, -1697445.5, 52579.887, -0.0412643, -0.20856173, -1576580.5, 141545.14, 0.021602063, 10.000978, 9.999653 
1.574983e+3, 1.3467866e+2, -1548283.3, -1671513.1, -84940.38, 0.0021105742, -0.18584828, -1504963.5, 115168.11, 0.013314004, 10.000859, 9.999215 
1.5749855e+3, 1.4467801e+2, -1470006.1, -1593792.0, -29379.537, -0.054307472, -0.16568479, -1463387.0, 58752.04, 0.006126935, 10.000763, 9.999117 
1.5749899e+3, 1.5467735e+2, -1378024.4, -1495240.5, -33101.363, -0.024465783, -0.14979416, -1369322.6, 54824.12, 0.0017352505, 10.000705, 9.999148 
1.5749939e+3, 1.6467652e+2, -1299273.5, -1426599.4, -35063.367, -0.02253992, -0.13713093, -1290256.3, 35899.83, 0.00019699702, 10.000658, 9.998968 
1.574998e+3, 1.7467552e+2, -1205740.6, -1328801.4, -31179.182, -0.015649227, -0.13860759, -1198291.9, 29875.3, 0.0000019795527, 10.000619, 9.998985 
1.5750018e+3, 1.8467465e+2, -1102266.3, -1224272.4, -44408.445, -0.021237245, -0.123806, -1087814.1, 42362.23, 0.0, 10.000639, 9.999021 
1.5750052e+3, 1.9467402e+2, -988392.8, -1115789.3, -39871.44, -0.053141724, -0.09505956, -976943.2, 55239.598, 0.0, 10.000736, 9.999046 
1.5750088e+3, 2.046729e+2, -941496.8, -1085687.4, -62694.79, -0.04448504, -0.09035559, -918049.6, 16144.399, 0.0, 10.000571, 9.998659 
1.5750125e+3, 2.1467128e+2, -909446.1, -1018490.7, -69154.36, 0.014911888, -0.12198003, -875905.9, -39695.395, 0.0, 10.000114, 9.998669 
1.5750161e+3, 2.2467005e+2, -814100.6, -890341.3, -49379.31, 0.031536464, -0.12308124, -789839.25, -51616.758, 0.0, 9.999963, 9.998948 
1.5750195e+3, 2.3466933e+2, -684439.9, -773562.06, -43220.613, -0.002043958, -0.097262196, -666922.7, -26693.68, 0.0, 10.000164, 9.9989805 
1.5750232e+3, 2.446681e+2, -595017.94, -701134.3, -37976.45, -0.008532173, -0.10761921, -582827.5, -40587.38, 0.0, 10.000197, 9.998788 
1.5750274e+3, 2.5466636e+2, -518143.72, -611287.25, -46497.19, 0.0150996605, -0.1648335, -498905.78, -54649.906, 0.0, 10.000044, 9.998806 
1.5750311e+3, 2.6466522e+2, -439166.3, -502599.72, -54738.21, 0.011685423, -0.16548638, -407619.9, -61353.62, 0.0, 9.999828, 9.998983 
1.5750344e+3, 2.7466473e+2, -382502.22, -421379.25, -56011.344, -0.021336393, -0.11745635, -342652.22, -94381.16, 0.0, 9.999531, 9.999012 
1.5750384e+3, 2.846635e+2, -298068.38, -357538.2, -31702.316, -0.026733903, -0.12675563, -284338.34, -134055.34, 0.0, 9.999555, 9.998766 
1.575043e+3, 2.946617e+2, -145120.97, -238041.86, -42346.05, -0.0041960985, -0.18785797, -128718.38, -76417.71, 0.0, 9.999952, 9.998721 
1.5750475e+3, 3.0466044e+2, -93650.51, -196989.39, -39444.914, -0.0014927511, -0.17954326, -80315.086, -80315.086, 0.0, 10.000011, 9.998641 
1.5750518e+3, 3.1465957e+2, 1936.6764, 74156.47, -7154.381, -0.01554954, -0.1394612, 74858.38, 74858.38, 0.0, 9.999695, 10.000657 
1.5849811e+3, 1.2467457e+2, -1577256.1, -1690514.5, 62483.92, -0.060488965, -0.21242532, -1549557.9, 168612.52, 0.022855148, 10.001155, 9.999615 
1.584984e+3, 1.3467406e+2, -1537560.8, -1670562.1, -85720.15, 0.012796438, -0.18652618, -1495570.5, 124606.1, 0.014133484, 10.000955, 9.999174 
1.5849863e+3, 1.4467339e+2, -1459286.8, -1592232.6, -24356.275, -0.056802798, -0.16436282, -1454965.1, 67219.195, 0.006539009, 10.0008545, 9.999082 
1.5849908e+3, 1.5467262e+2, -1356922.6, -1488565.1, -18543.64, -0.020104911, -0.15476803, -1354360.4, 69832.7, 0.0018710105, 10.000867, 9.999115 
1.5849948e+3, 1.6467175e+2, -1276512.4, -1420174.9, -17928.566, -0.017547086, -0.1415351, -1274308.9, 51893.906, 0.00021839465, 10.000836, 9.998925 
1.5849987e+3, 1.7467079e+2, -1186498.3, -1324429.5, -21493.738, -0.018468853, -0.13547285, -1183226.5, 44987.008, 0.000002466339, 10.000774, 9.9989395 
1.5850025e+3, 1.846699e+2, -1102825.5, -1225532.4, -41770.52, -0.022128897, -0.121427335, -1089956.1, 40266.902, 0.0, 10.000641, 9.99901 
1.585006e+3, 1.9466914e+2, -1034292.7, -1139131.8, -45359.246, -0.041642927, -0.10164545, -1017392.2, 14838.312, 0.0, 10.000427, 9.999034 
1.5850094e+3, 2.0466803e+2, -965384.44, -1096750.1, -67450.83, -0.032785565, -0.0961022, -936919.25, -2677.494, 0.0, 10.000407, 9.998662 
1.5850128e+3, 2.1466653e+2, -837069.56, -983330.1, -61455.76, 0.012169297, -0.11561179, -814675.8, 21581.336, 0.0, 10.000611, 9.99867 
1.5850163e+3, 2.246653e+2, -724301.9, -852115.5, -36774.23, 0.023525622, -0.116084576, -714476.56, 23792.504, 0.0, 10.000601, 9.998903 
1.5850198e+3, 2.3466438e+2, -660240.9, -766912.0, -45291.64, -0.00429884, -0.103141636, -643604.9, -3328.1272, 0.0, 10.000353, 9.998935 
1.5850234e+3, 2.4466304e+2, -615578.4, -721237.0, -50154.35, -0.0064413156, -0.11822033, -595562.7, -53273.68, 0.0, 10.000103, 9.998694 
1.5850273e+3, 2.5466126e+2, -553918.2, -639814.3, -51965.94, 0.019100523, -0.1694668, -529449.7, -85143.89, 0.0, 9.999848, 9.998704 
1.5850309e+3, 2.6466012e+2, -450308.13, -516420.56, -53418.188, 0.012987525, -0.16260488, -420545.44, -74228.75, 0.0, 9.999788, 9.998907 
1.5850341e+3, 2.7465963e+2, -325960.16, -402140.44, -62646.156, -0.026905624, -0.106298625, -290733.2, -42411.76, 0.0, 9.999954, 9.998939 
1.5850382e+3, 2.846583e+2, -243980.19, -330219.72, -29198.656, -0.030726688, -0.12259931, -235024.28, -84690.01, 0.0, 9.999923, 9.998775 
1.5850429e+3, 2.946563e+2, -188580.7, -256971.4, -25302.135, 0.0032542306, -0.20433971, -180237.6, -127883.91, 0.0, 9.999648, 9.998737 
1.5850475e+3, 3.0465543e+2, -153697.05, -222642.98, -23021.203, 0.014182996, -0.16024186, -146716.89, -146716.89, 0.0, 9.999586, 9.998669 
1.5850514e+3, 3.146543e+2, 4753.0303, 60485.27, -2494.6086, -0.027187007, -0.14937088, 60596.707, 60596.707, 0.0, 9.999781, 10.00052 
1.5949824e+3, 1.2467047e+2, -1587764.0, -1712395.9, 52959.992, -0.048124302, -0.18910581, -1568299.5, 149911.17, 0.02420314, 10.001155, 9.999463 
1.5949851e+3, 1.3466962e+2, -1549129.1, -1696453.5, -92856.42, 0.026110757, -0.17895783, -1504265.3, 115955.2, 0.015016924, 10.000961, 9.998994 
1.5949872e+3, 1.4466882e+2, -1451999.5, -1578079.8, -25247.752, -0.068444856, -0.16451187, -1447131.5, 75097.67, 0.0069850083, 10.000859, 9.999177 
1.5949915e+3, 1.5466811e+2, -1349605.0, -1473772.4, -18124.121, -0.013867417, -0.16009393, -1347013.6, 77223.086, 0.0020184768, 10.000869, 9.999216 
1.5949956e+3, 1.6466717e+2, -1284925.1, -1438234.5, -21014.193, -0.016342381, -0.1519268, -1282096.9, 44149.59, 0.00024140984, 10.000838, 9.9988 
1.5949991e+3, 1.74666e+2, -1195854.1, -1344335.8, -23584.15, -0.052575823, -0.15311831, -1192198.1, 36060.95, 0.0000030340082, 10.000776, 9.998802 
1.5950029e+3, 1.8466496e+2, -1110438.0, -1241506.4, -50053.145, -0.03807986, -0.14115623, -1093509.8, 36760.715, 0.0, 10.000641, 9.9989 
1.595007e+3, 1.9466414e+2, -1041699.75, -1155112.3, -52842.08, 0.025413126, -0.119373694, -1020895.5, 11384.294, 0.0, 10.000429, 9.998923 
1.5950105e+3, 2.0466308e+2, -953478.6, -1072693.9, -60366.152, 0.03574714, -0.11030271, -928250.3, 6040.1987, 0.0, 10.000408, 9.998827 
1.5950131e+3, 2.1466182e+2, -825251.25, -958261.44, -53405.29, -0.0112141445, -0.12295314, -806462.4, 29840.084, 0.0, 10.000608, 9.998844 
1.5950164e+3, 2.2466058e+2, -739994.4, -884114.75, -45944.023, -0.018660871, -0.12434554, -726593.9, 11720.455, 0.0, 10.000597, 9.998686 
1.5950203e+3, 2.3465933e+2, -676803.94, -800675.8, -53493.656, 0.017754786, -0.12157179, -656900.8, -16575.074, 0.0, 10.000349, 9.998705 
1.5950239e+3, 2.4465792e+2, -616389.75, -722772.0, -58995.707, 0.022854714, -0.1300989, -590146.7, -47807.664, 0.0, 10.000101, 9.998686 
1.5950269e+3, 2.5465637e+2, -553452.1, -639632.25, -59990.83, -0.0076303096, -0.15764473, -522679.78, -78325.88, 0.0, 9.99985, 9.998705 
1.5950303e+3, 2.6465508e+2, -461397.7, -540296.0, -46714.313, -0.026574697, -0.15787515, -439703.88, -93337.445, 0.0, 9.999791, 9.998742 
1.595034e+3, 2.7465406e+2, -338234.3, -427409.5, -54360.895, -0.033640485, -0.14118734, -312514.28, -64137.715, 0.0, 9.999952, 9.998767 
1.595038e+3, 2.8465283e+2, -229860.11, -300579.56, -37552.23, -0.025323182, -0.1464159, -213639.98, -63251.84, 0.0, 9.999921, 9.9989805 
1.5950426e+3, 2.9465175e+2, -172563.22, -224468.75, -33864.188, -0.00063921674, -0.1616376, -155850.66, -103451.84, 0.0, 9.99965, 9.99896 
1.5950471e+3, 3.0465108e+2, -162983.8, -241309.75, -15446.445, 0.014920614, -0.09470629, -160047.7, -160047.7, 0.0, 9.999583, 9.998542 
1.595051e+3, 3.146488e+2, -29552.168, -10637.983, 7576.3516, -0.047109116, -0.18777218, -7977.415, -7977.415, 0.0, 9.999779, 10.000032 
1.6049832e+3, 1.2466602e+2, -1640922.6, -1734427.8, 37305.07, -0.050738815, -0.17693035, -1627863.3, 90391.484, 0.025656627, 10.000765, 9.999498 
1.6049863e+3, 1.3466507e+2, -1532656.8, -1686493.6, -92963.164, 0.044095036, -0.1776193, -1488916.1, 131348.97, 0.015970975, 10.001069, 9.999009 
1.604988e+3, 1.446642e+2, -1412452.6, -1567386.9, -27228.78, -0.07691944, -0.16833974, -1407806.6, 114467.84, 0.007468348, 10.001172, 9.999099 
1.6049926e+3, 1.5466344e+2, -1327725.9, -1471928.6, -35365.625, -0.018279497, -0.1596819, -1319519.5, 104763.016, 0.002178835, 10.001059, 9.999136 
1.6049965e+3, 1.6466253e+2, -1263864.4, -1414998.8, -37959.574, -0.016081318, -0.15267682, -1254866.0, 71426.016, 0.00026599475, 10.000929, 9.998916 
1.605e+3, 1.7466143e+2, -1186895.0, -1326258.0, -22400.707, -0.048112433, -0.15765113, -1183382.9, 44920.297, 0.0000036433328, 10.00078, 9.998923 
1.6050036e+3, 1.8466036e+2, -1114674.6, -1256675.1, -39892.258, -0.031811506, -0.14875968, -1104235.1, 26079.602, 0.0, 10.00067, 9.998782 
1.6050075e+3, 1.9465937e+2, -1024984.3, -1161577.9, -45587.492, 0.029482534, -0.1308259, -1011167.3, 21159.002, 0.0, 10.000608, 9.998792 
1.605011e+3, 2.0465828e+2, -924762.25, -1053127.1, -48884.984, 0.03884453, -0.120273836, -908265.56, 26071.885, 0.0, 10.000583, 9.998877 
1.6050139e+3, 2.1465717e+2, -822254.6, -950773.75, -50559.063, -0.007647104, -0.124467276, -804749.25, 31598.266, 0.0, 10.000604, 9.998897 
1.605017e+3, 2.2465587e+2, -755126.44, -898740.5, -53732.4, -0.015599274, -0.12832668, -737248.4, 1111.1838, 0.0, 10.000526, 9.998618 
1.6050206e+3, 2.346544e+2, -684442.7, -813262.8, -52554.22, 0.0176498, -0.1401872, -665722.7, -25349.17, 0.0, 10.000336, 9.998625 
1.6050239e+3, 2.4465302e+2, -597759.94, -719461.44, -49248.848, 0.018982165, -0.14125066, -580327.44, -37940.266, 0.0, 10.000254, 9.998635 
1.6050269e+3, 2.5465176e+2, -491407.4, -614944.56, -54535.85, -0.015105771, -0.13606043, -470777.47, -26377.652, 0.0, 10.0003, 9.998656 
1.6050303e+3, 2.6465043e+2, -418731.97, -521303.4, -40110.11, -0.02700572, -0.13633536, -404909.72, -58497.082, 0.0, 10.000094, 9.998725 
1.605034e+3, 2.74649e+2, -391778.78, -455633.47, -37906.617, -0.015663514, -0.1563213, -374145.38, -125719.44, 0.0, 9.999598, 9.998742 
1.6050379e+3, 2.8464776e+2, -302244.56, -335729.84, -17263.92, -0.014002305, -0.16349544, -294938.1, -144500.19, 0.0, 9.999426, 9.998977 
1.6050419e+3, 2.94647e+2, -177506.11, -226114.86, -31535.473, -0.022881951, -0.14140886, -161996.05, -109550.3, 0.0, 9.999614, 9.998965 
1.6050465e+3, 3.0464658e+2, -143726.7, -210906.53, -7585.93, 0.005112284, -0.065287344, -142880.75, -142880.75, 0.0, 9.999625, 9.99873 
1.6050507e+3, 3.1464422e+2, -91324.24, -55378.12, 34409.574, -0.027936647, -0.18014857, -34530.44, -34530.44, 0.0, 9.999421, 9.999896 
1.614984e+3, 1.2466124e+2, -1625479.6, -1701977.8, 40769.24, -0.064681254, -0.17759895, -1607825.9, 110476.67, 0.02723079, 10.000766, 9.9997225 
1.6149876e+3, 1.3466047e+2, -1518165.9, -1657270.5, -81413.95, 0.06476213, -0.18062724, -1480639.9, 139670.19, 0.017007278, 10.001074, 9.999209 
1.6149892e+3, 1.4465955e+2, -1429680.3, -1603873.9, -32048.328, -0.08499533, -0.17427896, -1423971.1, 98348.766, 0.007996257, 10.001174, 9.998848 
1.6149934e+3, 1.5465863e+2, -1346139.0, -1511495.5, -39084.223, -0.036695853, -0.15435454, -1337366.4, 86964.08, 0.0023553798, 10.001063, 9.998862 
1.6149974e+3, 1.6465779e+2, -1238567.6, -1363292.1, -44110.66, -0.021097055, -0.1436458, -1224544.0, 101795.34, 0.00029283657, 10.000931, 9.9992695 
1.6150013e+3, 1.7465706e+2, -1160201.9, -1271801.5, -27618.56, -0.005998761, -0.14925548, -1153740.9, 74604.79, 0.000004294035, 10.000783, 9.999296 
1.6150047e+3, 1.8465607e+2, -1124589.6, -1277405.0, -42839.117, -0.004782659, -0.14483938, -1113399.9, 16956.158, 0.0, 10.00067, 9.99864 
1.6150075e+3, 1.9465482e+2, -1036523.4, -1185694.4, -47641.21, -0.03191698, -0.135641, -1022606.44, 9763.894, 0.0, 10.000608, 9.998627 
1.615011e+3, 2.0465362e+2, -928971.4, -1061758.1, -48592.477, -0.026694335, -0.12496059, -913088.94, 21293.713, 0.0, 10.000581, 9.998818 
1.6150148e+3, 2.1465255e+2, -826087.56, -958486.0, -48725.695, 0.02103307, -0.120284006, -810088.7, 26303.518, 0.0, 10.000602, 9.998845 
1.6150181e+3, 2.2465122e+2, -751693.56, -891536.0, -60548.094, 0.030377386, -0.12784567, -729121.25, 9283.447, 0.0, 10.0005245, 9.998669 
1.6150208e+3, 2.3464961e+2, -680518.2, -805393.06, -58909.582, -0.005774242, -0.15878324, -657114.06, -16693.637, 0.0, 10.000336, 9.998679 
1.6150238e+3, 2.4464828e+2, -604427.8, -733161.0, -47474.21, -0.019172244, -0.15136436, -588814.0, -46380.207, 0.0, 10.000252, 9.998543 
1.6150272e+3, 2.5464734e+2, -498833.47, -629316.5, -51017.973, -0.0070411055, -0.10418317, -481254.16, -36810.406, 0.0, 10.000296, 9.998561 
1.6150306e+3, 2.6464608e+2, -411275.3, -505657.22, -56902.887, 0.0071612895, -0.097415216, -384541.13, -38085.53, 0.0, 10.000092, 9.998834 
1.615034e+3, 2.7464443e+2, -382730.13, -438589.44, -54688.938, 0.023862261, -0.15286295, -349251.75, -100781.58, 0.0, 9.999603, 9.9988575 
1.6150375e+3, 2.84643e+2, -316834.0, -366984.38, -10143.547, 0.0013572611, -0.1743771, -314860.03, -164375.86, 0.0, 9.999429, 9.998761 
1.6150412e+3, 2.9464212e+2, -192885.39, -257857.03, -22525.729, -0.06711625, -0.14232048, -185839.75, -133344.83, 0.0, 9.999612, 9.998749 
1.615046e+3, 3.0464178e+2, -110217.67, -140952.05, -13452.564, -0.019965982, -0.0710317, -105161.3, -105161.3, 0.0, 9.999622, 9.999211 
1.6150507e+3, 3.1464064e+2, -77810.56, -26917.824, 23031.016, 0.023274312, -0.11291079, -18042.986, -18042.986, 0.0, 9.999419, 10.0000925 
1.6249847e+3, 1.2465656e+2, -1572645.1, -1679395.1, 59062.39, -0.0762173, -0.19000328, -1546413.3, 171935.27, 0.028943626, 10.001155, 9.999694 
1.6249889e+3, 1.34656e+2, -1492562.9, -1650367.1, -75317.03, 0.07602357, -0.16669944, -1462386.1, 157967.97, 0.01813978, 10.001278, 9.999157 
1.6249903e+3, 1.4465497e+2, -1417504.0, -1596495.5, -38577.51, -0.09683706, -0.16928937, -1409543.5, 112821.37, 0.008577549, 10.001252, 9.998859 
1.6249946e+3, 1.5465385e+2, -1342624.8, -1507564.4, -25972.348, -0.030983737, -0.17054185, -1338631.6, 85745.47, 0.0025525978, 10.0010805, 9.998879 
1.6249985e+3, 1.6465306e+2, -1243672.9, -1367345.8, -33349.684, -0.008360189, -0.1556836, -1235253.1, 91132.61, 0.00032325884, 10.000905, 9.999253 
1.625002e+3, 1.7465264e+2, -1170140.4, -1278717.3, -47201.81, 0.001915789, -0.12904592, -1152489.6, 75900.02, 0.000005034694, 10.000726, 9.999275 
1.6250053e+3, 1.8465166e+2, -1119182.3, -1276792.9, -64678.83, -0.00404156, -0.12009879, -1096038.5, 34361.38, 0.0, 10.000717, 9.99862 
1.6250083e+3, 1.9465013e+2, -995095.0, -1168026.1, -59315.88, -0.04193005, -0.13768332, -976705.1, 55711.49, 0.0, 10.000904, 9.998605 
1.6250114e+3, 2.0464887e+2, -895976.75, -1038501.5, -60600.824, -0.038254943, -0.13607538, -873693.5, 60735.758, 0.0, 10.000776, 9.998883 
1.6250151e+3, 2.1464796e+2, -868105.8, -971285.7, -53967.59, 0.017387018, -0.12102982, -845036.4, -8599.618, 0.0, 10.000282, 9.998911 
1.6250184e+3, 2.246467e+2, -813285.0, -926695.56, -54861.48, 0.030781135, -0.12237602, -791089.94, -52641.19, 0.0, 10.000126, 9.99862 
1.6250211e+3, 2.3464507e+2, -680099.94, -811066.25, -61244.832, -0.005634288, -0.15146661, -655922.75, -15457.3, 0.0, 10.000365, 9.998625 
1.6250241e+3, 2.4464372e+2, -589707.4, -716967.44, -54577.426, -0.017430546, -0.1455604, -569507.4, -27028.32, 0.0, 10.000316, 9.998621 
1.6250275e+3, 2.546428e+2, -545928.8, -643096.3, -47018.336, -0.0029627662, -0.10269948, -526902.6, -82414.58, 0.0, 9.999934, 9.998639 
1.6250306e+3, 2.6464158e+2, -458232.1, -528595.4, -50979.0, 0.011849252, -0.098486565, -431473.4, -84973.87, 0.0, 9.999771, 9.998831 
1.6250338e+3, 2.746399e+2, -347961.7, -422107.06, -58595.395, 0.028592827, -0.15499197, -315696.03, -67181.6, 0.0, 9.999845, 9.998854 
1.625037e+3, 2.8463852e+2, -281427.8, -351858.0, -8227.005, 0.006142322, -0.1711946, -280479.56, -129951.34, 0.0, 9.999681, 9.998741 
1.6250406e+3, 2.9463777e+2, -246925.4, -285454.25, -7331.4873, -0.06312467, -0.12711276, -245577.48, -193039.2, 0.0, 9.99925, 9.998732 
1.6250452e+3, 3.0463713e+2, -173007.94, -139874.52, 5582.0547, -0.014644603, -0.09588391, -138959.38, -138959.38, 0.0, 9.999056, 9.999492 
1.62505e+3, 3.1463653e+2, -110057.33, -21415.719, 18101.52, 0.023936952, -0.114743955, -17861.7, -17861.7, 0.0, 9.9991045, 10.000283 
1.6349858e+3, 1.24652036e+2, -1592142.0, -1720192.1, 53672.188, -0.08327571, -0.21089889, -1572621.1, 145770.47, 0.030811023, 10.001157, 9.999409 
1.6349901e+3, 1.3465166e+2, -1512977.3, -1695303.1, -70238.54, 0.07404082, -0.13850245, -1489057.0, 131340.1, 0.01937926, 10.001286, 9.998845 
1.6349913e+3, 1.4465044e+2, -1398298.4, -1556968.0, -45833.973, -0.11685824, -0.1556177, -1386010.3, 136399.47, 0.009218335, 10.001255, 9.99913 
1.634996e+3, 1.5464912e+2, -1321640.3, -1464906.6, -32013.791, -0.0023744167, -0.20753644, -1314812.0, 109610.3, 0.0027736868, 10.001082, 9.999172 
1.6349995e+3, 1.6464832e+2, -1270579.0, -1422996.9, -40540.832, 0.020510396, -0.18860929, -1260466.8, 65964.32, 0.00035863268, 10.000903, 9.998873 
1.6350025e+3, 1.7464815e+2, -1198722.8, -1338918.6, -53517.555, -0.026693366, -0.09713742, -1180628.6, 47806.55, 0.000005927034, 10.000729, 9.998861 
1.6350058e+3, 1.8464716e+2, -1111975.4, -1262075.0, -58185.707, -0.03312652, -0.0744485, -1092061.8, 38384.61, 0.0, 10.000718, 9.998721 
1.6350095e+3, 1.9464529e+2, -986558.56, -1150469.1, -51426.06, -0.0021483046, -0.13721746, -971760.0, 60705.227, 0.0, 10.000904, 9.998726 
1.6350126e+3, 2.0464398e+2, -884093.9, -1013665.3, -78338.9, 0.0023384697, -0.15414965, -847222.44, 87254.96, 0.0, 10.000775, 9.999056 
1.635015e+3, 2.1464337e+2, -856356.44, -947009.7, -72025.37, -0.02013661, -0.12642193, -816582.25, 19899.258, 0.0, 10.000281, 9.999078 
1.6350181e+3, 2.246423e+2, -823347.44, -947294.56, -47013.355, -0.016447084, -0.11107064, -807532.94, -69041.17, 0.0, 10.000124, 9.99848 
1.6350216e+3, 2.3464073e+2, -691166.06, -833545.5, -50983.086, 0.015670095, -0.11854736, -674792.94, -34284.027, 0.0, 10.000362, 9.998472 
1.6350248e+3, 2.446393e+2, -573987.2, -683950.2, -67301.25, 0.021026084, -0.12335453, -542064.0, 458.97412, 0.0, 10.000313, 9.99885 
1.6350274e+3, 2.5463817e+2, -528601.2, -608170.0, -59689.45, -0.0045593996, -0.13102117, -496652.53, -52119.56, 0.0, 9.999937, 9.9988785 
1.6350302e+3, 2.6463684e+2, -466066.53, -545269.1, -47893.176, -0.01396382, -0.13939339, -443522.7, -96977.805, 0.0, 9.999771, 9.998716 
1.6350333e+3, 2.7463537e+2, -356982.47, -440770.88, -54075.41, -0.0045398204, -0.163093, -330471.44, -81912.24, 0.0, 9.999843, 9.998726 
1.6350368e+3, 2.8463423e+2, -270313.97, -328851.3, -22816.127, -0.0039076614, -0.15425257, -262471.6, -111900.91, 0.0, 9.9996805, 9.9989 
1.6350403e+3, 2.946338e+2, -234380.75, -260862.95, -21442.883, -0.016210891, -0.0947587, -222420.19, -169843.66, 0.0, 9.999254, 9.9988985 
1.6350447e+3, 3.0463257e+2, -166420.45, -126594.0, 7307.0923, 0.017121002, -0.13779706, -125295.67, -125295.67, 0.0, 9.999057, 9.999583 
1.6350487e+3, 3.1463176e+2, -94466.35, 11608.191, 13863.85, -0.026098706, -0.18332954, 13390.245, 13390.245, 0.0, 9.999102, 10.000511 
1.6449869e+3, 1.2464758e+2, -1617013.3, -1729933.5, 37021.52, -0.07975845, -0.20772819, -1605957.9, 112477.33, 0.032841798, 10.000972, 9.999429 
1.6449915e+3, 1.3464716e+2, -1517154.5, -1692419.4, -49811.113, 0.0839844, -0.14390466, -1503987.3, 116453.586, 0.020730624, 10.001238, 9.998886 
1.6449924e+3, 1.4464588e+2, -1385904.4, -1550510.0, -32169.688, -0.13585506, -0.1699267, -1379840.6, 142613.4, 0.0099211065, 10.00134, 9.999133 
1.644997e+3, 1.546448e+2, -1295770.9, -1452684.9, -41647.7, -0.0023597027, -0.19697891, -1285402.0, 139062.56, 0.0030197303, 10.001263, 9.999169 
1.6450006e+3, 1.6464402e+2, -1231827.0, -1418761.1, -50292.133, 0.024917297, -0.17251502, -1219155.5, 107318.22, 0.00039977487, 10.001232, 9.998743 
1.6450033e+3, 1.7464353e+2, -1131139.1, -1321311.6, -43119.105, -0.0348432, -0.09713904, -1121819.1, 106661.98, 0.0000070009137, 10.001258, 9.998726 
1.6450065e+3, 1.846425e+2, -1065883.3, -1230555.0, -42056.984, -0.03798743, -0.07560542, -1055763.8, 74728.99, 0.0, 10.000996, 9.998803 
1.6450104e+3, 1.9464087e+2, -1054746.0, -1173608.3, -38974.88, 0.012940388, -0.12321593, -1043106.0, -10596.987, 0.0, 10.000395, 9.998812 
1.6450132e+3, 2.0463958e+2, -960838.0, -1054237.9, -67715.93, 0.016890118, -0.14051192, -925280.25, 9240.537, 0.0, 10.000265, 9.9990225 
1.6450155e+3, 2.1463877e+2, -801109.7, -924987.4, -77817.51, -0.029914588, -0.13041766, -763590.06, 72936.91, 0.0, 10.000682, 9.999036 
1.6450182e+3, 2.2463766e+2, -746156.94, -902734.5, -58092.125, -0.03262625, -0.11852552, -726958.1, 11579.37, 0.0, 10.000623, 9.998545 
1.6450219e+3, 2.3463629e+2, -736901.94, -848253.1, -47782.945, 0.013228017, -0.11297275, -719208.7, -78656.125, 0.0, 10.000017, 9.998537 
1.6450249e+3, 2.4463493e+2, -646935.2, -709791.94, -57549.46, 0.027142562, -0.119187966, -612791.56, -70225.78, 0.0, 9.999771, 9.998933 
1.6450274e+3, 2.5463367e+2, -523417.78, -596425.3, -62431.17, 0.0043508452, -0.1457688, -487601.6, -43025.2, 0.0, 9.999933, 9.9989605 
1.6450301e+3, 2.6463237e+2, -452536.2, -545994.0, -54042.402, -0.010506075, -0.15372084, -427821.6, -81233.195, 0.0, 9.999897, 9.99865 
1.6450329e+3, 2.7463108e+2, -392611.0, -466520.25, -57794.094, -0.016228126, -0.15313391, -360966.78, -112364.56, 0.0, 9.999637, 9.998648 
1.6450362e+3, 2.8463006e+2, -302503.47, -331462.13, -34052.617, -0.009695163, -0.1340403, -279979.66, -129366.92, 0.0, 9.999405, 9.999014 
1.6450398e+3, 2.9462966e+2, -238645.45, -248841.94, -37808.777, 0.009633206, -0.08296543, -205592.75, -152975.42, 0.0, 9.999166, 9.999023 
1.6450438e+3, 3.0462813e+2, -195251.19, -158747.13, -8753.232, 0.027218759, -0.15194738, -156756.72, -156756.72, 0.0, 9.998939, 9.999417 
1.6450474e+3, 3.1462744e+2, -135887.3, 3999.4573, -31085.102, -0.047492854, -0.17063333, 10596.001, 10596.001, 0.0, 9.998765, 10.00062 
1.6549882e+3, 1.24643154e+2, -1594251.0, -1681718.5, 29796.621, -0.06322315, -0.18584962, -1585065.3, 133414.31, 0.035036184, 10.000973, 9.999766 
1.6549928e+3, 1.3464251e+2, -1489452.6, -1635507.0, -38765.36, 0.104593664, -0.18141365, -1479801.4, 140683.55, 0.022193609, 10.001245, 9.999275 
1.6549936e+3, 1.4464128e+2, -1404751.8, -1589460.1, -35350.176, -0.15693761, -0.21228877, -1398217.5, 124280.35, 0.010686469, 10.001338, 9.998867 
1.654998e+3, 1.546409e+2, -1316191.9, -1496655.5, -44078.34, -0.034528714, -0.1405717, -1306001.1, 118502.86, 0.0032910502, 10.001268, 9.998865 
1.6550016e+3, 1.6464005e+2, -1222754.4, -1400738.6, -49680.164, 0.0009302324, -0.108720325, -1209826.4, 116687.56, 0.00044696988, 10.001234, 9.998866 
1.6550048e+3, 1.7463876e+2, -1121003.4, -1300639.5, -41329.895, -0.02397347, -0.1285356, -1111950.6, 116576.914, 0.000008273259, 10.001259, 9.998869 
1.6550077e+3, 1.8463768e+2, -1062069.8, -1222576.9, -63896.645, -0.0208972, -0.12316064, -1039739.56, 90799.65, 0.0, 10.000995, 9.998859 
1.6550106e+3, 1.9463685e+2, -1051202.8, -1166689.6, -61158.594, 0.0018430077, -0.09567866, -1024835.1, 7713.045, 0.0, 10.000396, 9.998858 
1.6550134e+3, 2.0463566e+2, -977007.25, -1088219.8, -53400.6, 0.0033570551, -0.094935566, -955518.2, -20958.658, 0.0, 10.000266, 9.998789 
1.6550162e+3, 2.146341e+2, -818562.56, -961038.94, -61110.848, -0.01441183, -0.13332738, -795942.25, 40631.105, 0.0, 10.00068, 9.99879 
1.6550191e+3, 2.2463277e+2, -728382.94, -865616.75, -79480.31, -0.020543259, -0.14492959, -691997.94, 46588.07, 0.0, 10.000621, 9.998801 
1.6550216e+3, 2.3463172e+2, -717619.3, -808584.3, -69502.836, -0.01458463, -0.13455953, -680039.8, -39443.01, 0.0, 10.000017, 9.998811 
1.6550244e+3, 2.4463056e+2, -651187.56, -718562.7, -51736.8, -0.0009030467, -0.13311222, -623137.4, -80529.55, 0.0, 9.99977, 9.998874 
1.6550274e+3, 2.5462934e+2, -528368.56, -606790.75, -54582.08, 0.021252755, -0.14773847, -500373.16, -55754.508, 0.0, 9.999932, 9.99889 
1.6550303e+3, 2.6462814e+2, -454726.53, -550934.06, -62051.12, 0.01942591, -0.14126903, -424317.13, -77686.64, 0.0, 9.999897, 9.998617 
1.6550326e+3, 2.7462697e+2, -394427.16, -471992.8, -65133.21, -0.01024765, -0.123088606, -357404.7, -108760.945, 0.0, 9.999641, 9.998609 
1.6550355e+3, 2.8462592e+2, -297399.3, -321518.1, -42024.484, -0.013859101, -0.11011245, -265738.16, -115083.266, 0.0, 9.999407, 9.999083 
1.655039e+3, 2.9462522e+2, -232667.25, -236515.88, -45486.46, 0.011324471, -0.09435935, -189064.42, -136402.94, 0.0, 9.999165, 9.999109 
1.6550426e+3, 3.0462378e+2, -225362.83, -220768.08, -14302.578, 0.012475612, -0.14119731, -208579.55, -208579.55, 0.0, 9.998936, 9.998994 
1.6550462e+3, 3.1462342e+2, -137381.45, 1336.9581, -40428.777, -0.044801515, -0.08278214, 12259.666, 12259.666, 0.0, 9.998764, 10.000602 
1.6649893e+3, 1.2463866e+2, -1536530.0, -1652433.4, 26305.02, -0.0638348, -0.18188307, -1530839.3, 187684.98, 0.03738901, 10.001381, 9.999779 
1.6649944e+3, 1.3463813e+2, -1465206.4, -1612542.1, -47773.387, 0.12300283, -0.17683284, -1451071.9, 169456.14, 0.02376597, 10.00137, 9.999372 
1.6649948e+3, 1.4463682e+2, -1404599.3, -1596643.1, -53736.26, -0.1637933, -0.21540591, -1390585.8, 131955.73, 0.011515061, 10.00137, 9.998803 
1.6649993e+3, 1.5463655e+2, -1300955.8, -1496789.1, -45479.94, -0.043716934, -0.12639372, -1290909.0, 133638.28, 0.0035885083, 10.001406, 9.998797 
1.6650029e+3, 1.646357e+2, -1214784.9, -1387319.0, -48319.04, -0.0028964821, -0.09701242, -1202174.5, 124382.83, 0.00050038745, 10.001247, 9.998951 
1.6650058e+3, 1.7463426e+2, -1172578.5, -1315626.6, -45201.46, -0.012725381, -0.1412022, -1159492.5, 69079.305, 0.0000097975735, 10.000861, 9.998957 
1.6650087e+3, 1.846332e+2, -1097768.3, -1239397.4, -71540.266, -0.012514113, -0.13681218, -1067921.5, 62661.47, 0.0, 10.000748, 9.998862 
1.665011e+3, 1.9463263e+2, -969424.44, -1127045.1, -73084.07, -0.014725087, -0.08434366, -940752.9, 91836.96, 0.0, 10.0009575, 9.99886 
1.6650139e+3, 2.046315e+2, -900656.8, -1052441.0, -54930.973, -0.010787159, -0.07759555, -882863.1, 51737.816, 0.0, 10.000795, 9.998779 
1.665017e+3, 2.1462977e+2, -889632.75, -996579.4, -46094.17, 0.0053131925, -0.13171911, -872508.1, -35891.73, 0.0, 10.000198, 9.998777 
1.6650195e+3, 2.2462839e+2, -825437.9, -904462.56, -67273.96, 0.002897459, -0.1499404, -786930.94, -48301.684, 0.0, 9.999921, 9.998872 
1.6650215e+3, 2.3462746e+2, -713296.75, -798484.06, -73606.11, -0.02307134, -0.13514866, -670848.8, -30210.19, 0.0, 10.000013, 9.998881 
1.665024e+3, 2.4462636e+2, -627408.4, -706082.7, -53573.65, -0.020940369, -0.1312772, -600280.9, -57631.89, 0.0, 9.999929, 9.998882 
1.6650273e+3, 2.5462514e+2, -569322.0, -626224.6, -52088.875, 0.013039357, -0.1448226, -538420.75, -93760.94, 0.0, 9.999651, 9.998892 
1.66503e+3, 2.6462406e+2, -507389.66, -561433.7, -54446.652, 0.020857427, -0.13577738, -473628.22, -126957.4, 0.0, 9.999472, 9.998749 
1.6650322e+3, 2.7462304e+2, -421645.2, -470455.34, -45524.28, -0.00039006348, -0.11553482, -394396.94, -145714.56, 0.0, 9.999392, 9.998739 
1.665035e+3, 2.8462195e+2, -316268.03, -337577.84, -19576.88, -0.0034180207, -0.109530784, -304634.34, -153940.44, 0.0, 9.999308, 9.999019 
1.6650382e+3, 2.9462102e+2, -230123.27, -242071.25, -36473.926, 0.011821625, -0.10811656, -199137.33, -146434.38, 0.0, 9.999213, 9.999046 
1.6650413e+3, 3.0461997e+2, -237279.13, -237404.78, -4651.66, -0.010525756, -0.11318525, -232689.86, -232689.86, 0.0, 9.998901, 9.998895 
1.6650449e+3, 3.1461942e+2, -185801.06, -5709.4946, -8922.929, -0.025206702, -0.060348734, -5268.4736, -5268.4736, 0.0, 9.998363, 10.000747 
1.6749905e+3, 1.24634065e+2, -1557782.9, -1695873.9, 5051.239, -0.081304, -0.20089856, -1557598.4, 160971.5, 0.039892897, 10.001381, 9.99947 
1.674996e+3, 1.3463397e+2, -1478157.8, -1642236.5, -47928.152, 0.13557515, -0.13175447, -1465183.6, 155386.63, 0.025446536, 10.00138, 9.999165 
1.6749962e+3, 1.446325e+2, -1394243.3, -1575155.9, -53070.05, -0.16019617, -0.18088795, -1379824.6, 142760.53, 0.012409162, 10.001372, 9.998949 
1.6750008e+3, 1.546318e+2, -1289090.3, -1472268.5, -43053.313, -0.0312071, -0.15384841, -1279475.8, 145118.34, 0.003914194, 10.001407, 9.998966 
1.6750042e+3, 1.6463092e+2, -1211719.6, -1381048.0, -62355.203, 0.011096957, -0.1370881, -1191235.4, 135368.6, 0.0005604397, 10.001247, 9.998995 
1.6750069e+3, 1.7462997e+2, -1170086.1, -1311147.4, -59394.098, -0.003518075, -0.13542683, -1148409.3, 80204.695, 0.000011659806, 10.000864, 9.998987 
1.6750094e+3, 1.8462904e+2, -1100616.8, -1245497.5, -64509.11, -0.015503743, -0.11709247, -1076057.0, 54567.152, 0.0, 10.000748, 9.998821 
1.6750118e+3, 1.9462818e+2, -972838.7, -1134176.1, -64226.527, -0.03834598, -0.08910411, -950393.44, 82240.8, 0.0, 10.000957, 9.998812 
1.6750145e+3, 2.0462707e+2, -886052.2, -1022182.44, -76301.445, -0.027849203, -0.08815422, -851868.75, 82776.34, 0.0, 10.000795, 9.998987 
1.6750173e+3, 2.1462573e+2, -874815.25, -965653.56, -67777.59, 0.02760912, -0.1255993, -838645.75, -1989.5432, 0.0, 10.000196, 9.998991 
1.6750197e+3, 2.2462451e+2, -833329.8, -920568.44, -64444.258, 0.035695057, -0.13319707, -799130.7, -60463.28, 0.0, 9.999919, 9.998762 
1.6750216e+3, 2.3462349e+2, -721956.94, -816819.44, -68802.28, -0.013745909, -0.115061454, -685820.94, -45142.637, 0.0, 10.000013, 9.998755 
1.6750237e+3, 2.4462233e+2, -622702.1, -696733.1, -62950.31, -0.03493096, -0.11374271, -586691.0, -44001.477, 0.0, 9.999929, 9.998947 
1.6750264e+3, 2.5462112e+2, -564534.06, -616686.75, -60739.086, -0.023241935, -0.13636334, -524510.4, -79810.14, 0.0, 9.999651, 9.998958 
1.6750292e+3, 2.6462007e+2, -486918.47, -519129.78, -56359.895, -0.008436095, -0.1378019, -444408.16, -97698.3, 0.0, 9.999472, 9.999041 
1.6750318e+3, 2.746192e+2, -400209.13, -426146.72, -46531.797, 0.0114753, -0.1320225, -364872.66, -116153.92, 0.0, 9.999392, 9.999043 
1.6750346e+3, 2.8461814e+2, -330601.8, -367664.63, -21823.422, 0.01938892, -0.13263255, -320503.25, -169772.9, 0.0, 9.999308, 9.998813 
1.6750373e+3, 2.946171e+2, -244684.33, -273064.34, -37806.36, 0.006503236, -0.11897227, -218492.69, -165750.86, 0.0, 9.999215, 9.998834 
1.6750398e+3, 3.046166e+2, -221869.16, -205893.94, -23677.238, -0.0453095, -0.065400824, -188893.28, -188893.28, 0.0, 9.998903, 9.999111 
1.6750437e+3, 3.1461537e+2, -167510.97, 32606.166, -22597.326, 0.006706456, -0.10405254, 35126.133, 35126.133, 0.0, 9.998362, 10.00101 
1.6849922e+3, 1.2463005e+2, -1535469.4, -1705907.3, 5455.665, -0.07027724, -0.18661408, -1535294.9, 183314.97, 0.042540483, 10.00164, 9.999272 
1.6849975e+3, 1.3462986e+2, -1423786.4, -1624181.5, -17073.213, 0.14034694, -0.11819397, -1422342.3, 198269.11, 0.027235117, 10.001804, 9.999083 
1.6849977e+3, 1.446283e+2, -1341909.9, -1544471.4, -28910.291, -0.16757031, -0.17737715, -1337864.5, 184762.8, 0.013372134, 10.001714, 9.998996 
1.6850023e+3, 1.5462753e+2, -1293217.6, -1468539.3, -29192.682, -0.015445831, -0.15942411, -1288484.5, 136151.73, 0.0042713434, 10.001353, 9.999018 
1.6850056e+3, 1.6462672e+2, -1226006.1, -1383164.9, -54474.313, 0.028316865, -0.14117618, -1208970.8, 117674.41, 0.0006280315, 10.001128, 9.999039 
1.6850078e+3, 1.7462595e+2, -1137391.8, -1290381.3, -50966.234, -0.009052314, -0.12712558, -1121968.0, 106685.61, 0.00001399049, 10.001066, 9.999032 
1.6850102e+3, 1.8462504e+2, -1073368.0, -1230384.3, -45285.656, -0.024209075, -0.10949685, -1061243.3, 69420.41, 0.0, 10.000926, 9.998839 
1.6850129e+3, 1.9462405e+2, -1011341.56, -1151325.3, -41130.375, -0.029231679, -0.09568286, -1000151.1, 32523.887, 0.0, 10.000685, 9.998826 
1.6850153e+3, 2.0462297e+2, -925381.25, -1038815.0, -68802.54, -0.01841977, -0.09232587, -892932.0, 41753.66, 0.0, 10.000515, 9.999008 
1.6850176e+3, 2.1462187e+2, -838713.0, -945234.9, -76053.086, 0.016819876, -0.10797837, -799125.7, 37569.184, 0.0, 10.000433, 9.999017 
1.6850197e+3, 2.2462073e+2, -785187.75, -899579.0, -67480.664, 0.026938152, -0.109847136, -753924.44, -15218.852, 0.0, 10.00026, 9.998741 
1.6850218e+3, 2.3461956e+2, -728235.56, -822596.1, -64983.047, 0.005253858, -0.10455537, -695111.56, -54393.785, 0.0, 9.999984, 9.99873 
1.6850238e+3, 2.4461834e+2, -649922.8, -695166.4, -60462.887, -0.014235609, -0.11216434, -607988.4, -65259.266, 0.0, 9.9996805, 9.999078 
1.6850258e+3, 2.546172e+2, -600349.25, -619022.44, -54806.19, -0.031116018, -0.13956943, -554090.06, -109351.48, 0.0, 9.999341, 9.999091 
1.6850282e+3, 2.6461628e+2, -527577.44, -532212.4, -45465.47, -0.027431086, -0.14021167, -484370.4, -137623.48, 0.0, 9.999166, 9.999098 
1.6850309e+3, 2.7461553e+2, -426164.03, -432703.6, -54849.066, 0.001904509, -0.1266569, -374487.38, -125732.984, 0.0, 9.999189, 9.999096 
1.6850337e+3, 2.8461444e+2, -354387.63, -370227.84, -33933.4, 0.018503789, -0.1350844, -327462.3, -176696.3, 0.0, 9.999106, 9.998892 
1.6850366e+3, 2.9461324e+2, -289113.66, -283875.78, -29343.379, 0.014150774, -0.14879137, -257034.7, -204255.42, 0.0, 9.998864, 9.998928 
1.6850385e+3, 3.0461335e+2, -252285.58, -188581.17, -9192.942, -0.060793087, -0.054720003, -187281.11, -187281.11, 0.0, 9.998557, 9.999396 
1.685042e+3, 3.1461194e+2, -186965.16, 22448.81, 3439.561, 0.013907966, -0.1340357, 22505.29, 22505.29, 0.0, 9.998228, 10.001006 
1.6949941e+3, 1.24626555e+2, -1542957.1, -1719719.1, -13028.664, -0.031595234, -0.14677547, -1542002.0, 176642.9, 0.045329686, 10.0016365, 9.999176 
1.6949993e+3, 1.3462582e+2, -1420496.3, -1617066.1, -10085.891, 0.13525002, -0.13700406, -1419980.1, 200671.23, 0.029132646, 10.001806, 9.999131 
1.6949993e+3, 1.4462414e+2, -1346841.5, -1554988.4, -42412.563, -0.18953499, -0.20605506, -1338531.1, 184137.0, 0.0144071635, 10.001715, 9.998924 
1.695004e+3, 1.5462376e+2, -1298007.3, -1479934.9, -42326.113, -0.000120690675, -0.14259179, -1288642.1, 136031.63, 0.004663711, 10.001358, 9.998938 
1.695007e+3, 1.646231e+2, -1221814.0, -1374853.9, -57463.32, 0.04544362, -0.10859266, -1202640.0, 124041.34, 0.0007046785, 10.001129, 9.999096 
1.6950087e+3, 1.7462216e+2, -1132589.9, -1281009.9, -52396.156, -0.030653592, -0.116860524, -1115956.8, 112734.35, 0.000016975888, 10.001068, 9.999096 
1.695011e+3, 1.8462117e+2, -1068456.8, -1220321.4, -53963.72, -0.040922817, -0.11389739, -1051234.4, 79467.11, 0.0, 10.000925, 9.998909 
1.695014e+3, 1.946202e+2, -1006711.1, -1141570.6, -49564.793, 0.010810989, -0.10380561, -990454.3, 42257.95, 0.0, 10.000684, 9.998895 
1.6950162e+3, 2.046192e+2, -937132.75, -1062510.0, -72069.84, 0.015686106, -0.08974559, -904302.1, 30420.656, 0.0, 10.000511, 9.998848 
1.6950175e+3, 2.1461819e+2, -850668.4, -970164.44, -78195.94, -0.028314753, -0.07931223, -812006.9, 24725.643, 0.0, 10.000433, 9.998847 
1.6950196e+3, 2.24617e+2, -780321.5, -889540.0, -77458.38, -0.0252552, -0.08036119, -740157.5, -1413.4243, 0.0, 10.00026, 9.998811 
1.6950221e+3, 2.3461561e+2, -723524.3, -812527.5, -73989.64, 0.03174161, -0.10362046, -681684.4, -40927.023, 0.0, 9.999981, 9.998801 
1.695024e+3, 2.4461439e+2, -637247.1, -668136.3, -72082.32, 0.038975485, -0.12650716, -578973.3, -36205.215, 0.0, 9.999678, 9.999266 
1.6950254e+3, 2.5461343e+2, -586546.06, -590728.7, -65836.16, -0.011857206, -0.1540577, -522768.0, -77992.805, 0.0, 9.999342, 9.999285 
1.6950274e+3, 2.6461264e+2, -539760.75, -558278.0, -44059.332, -0.037593365, -0.14251408, -503997.75, -157215.42, 0.0, 9.999167, 9.998919 
1.6950297e+3, 2.7461204e+2, -439719.03, -461967.03, -51613.934, -0.03306971, -0.098019615, -398043.97, -149254.27, 0.0, 9.999193, 9.998894 
1.6950326e+3, 2.846109e+2, -329502.56, -319390.94, -41450.746, -0.009273753, -0.116410874, -282688.8, -131887.34, 0.0, 9.999109, 9.999241 
1.6950355e+3, 2.9460937e+2, -262079.0, -226553.36, -36696.14, 0.03218436, -0.19769804, -203547.02, -150731.02, 0.0, 9.998858, 9.999326 
1.695037e+3, 3.0461004e+2, -227527.14, -136928.88, -20959.953, -0.06031826, -0.085224606, -132314.78, -132314.78, 0.0, 9.998555, 9.999753 
1.69504e+3, 3.146094e+2, -202461.22, -11863.41, 9314.084, -0.013398273, -0.12079422, -11409.334, -11409.334, 0.0, 9.998237, 10.000766 
1.704996e+3, 1.24623045e+2, -1521349.8, -1725536.8, 55.74396, -0.024325933, -0.14986204, -1521349.8, 197329.28, 0.048263274, 10.001871, 9.9990225 
1.7050013e+3, 1.3462229e+2, -1391497.1, -1605288.0, 20129.662, 0.1506098, -0.14188898, -1389618.4, 231067.95, 0.03114109, 10.002027, 9.999107 
1.7050013e+3, 1.4462067e+2, -1314806.6, -1543796.5, -30110.457, -0.1776489, -0.20067632, -1310913.5, 211789.22, 0.015516711, 10.001961, 9.998882 
1.7050053e+3, 1.5462029e+2, -1257165.1, -1465203.1, -28426.756, -0.0024612884, -0.13232873, -1253350.8, 171357.28, 0.0050944346, 10.001662, 9.998893 
1.7050081e+3, 1.6461955e+2, -1185594.6, -1369744.0, -39115.31, 0.041345675, -0.09759693, -1177630.5, 149086.03, 0.0007920333, 10.00143, 9.998986 
1.70501e+3, 1.7461848e+2, -1110383.0, -1283316.8, -48570.426, -0.022433972, -0.108142585, -1097675.3, 131052.85, 0.000020835878, 10.001275, 9.998981 
1.705012e+3, 1.8461747e+2, -1054104.0, -1205955.4, -64937.49, -0.028213082, -0.10488919, -1030121.9, 100616.91, 0.0, 10.000992, 9.998977 
1.7050146e+3, 1.946166e+2, -1018914.56, -1138624.5, -61084.082, 0.017826363, -0.09256456, -993248.3, 39499.703, 0.0, 10.000564, 9.998972 
1.7050166e+3, 2.0461564e+2, -959502.06, -1076613.0, -65652.36, 0.017849632, -0.07877784, -930086.1, 4672.097, 0.0, 10.000373, 9.9988165 
1.705018e+3, 2.1461457e+2, -851179.4, -974790.6, -62239.973, -0.031139093, -0.07027813, -825271.0, 11498.05, 0.0, 10.000448, 9.998807 
1.7050198e+3, 2.2461335e+2, -773005.94, -876248.06, -68969.24, -0.029019704, -0.07367173, -738478.94, 301.69, 0.0, 10.000269, 9.998898 
1.705022e+3, 2.3461205e+2, -744288.0, -812133.4, -66455.1, 0.031603195, -0.09932496, -703598.2, -62805.395, 0.0, 9.999796, 9.998893 
1.7050236e+3, 2.4461088e+2, -659437.0, -684562.4, -64105.04, 0.044760812, -0.11860873, -606675.3, -63872.336, 0.0, 9.99955, 9.999213 
1.705025e+3, 2.5460994e+2, -557799.7, -583120.9, -77190.695, 0.0026146558, -0.13751107, -492238.22, -47427.92, 0.0, 9.999569, 9.999228 
1.7050268e+3, 2.646091e+2, -502275.16, -537037.44, -57872.79, -0.025409533, -0.12913698, -459229.78, -112411.79, 0.0, 9.999413, 9.998945 
1.7050289e+3, 2.746084e+2, -460494.97, -468937.4, -49832.395, -0.035599716, -0.0989391, -414705.34, -165879.27, 0.0, 9.999038, 9.99892 
1.7050315e+3, 2.8460732e+2, -377562.22, -329458.2, -40209.35, -0.013095997, -0.11464087, -306656.28, -155819.75, 0.0, 9.998724, 9.999357 
1.7050344e+3, 2.946061e+2, -303947.38, -232234.75, -55291.387, 0.043876253, -0.18396464, -202191.05, -149342.64, 0.0, 9.998509, 9.9994545 
1.7050354e+3, 3.0460668e+2, -247821.94, -114281.805, -55803.223, -0.058931235, -0.09744369, -94033.24, -94033.24, 0.0, 9.998278, 10.000042 
1.705038e+3, 3.146064e+2, -258797.03, -67243.4, -11640.514, -0.02336401, -0.12915695, -66538.61, -66538.61, 0.0, 9.997974, 10.000511 
1.7149976e+3, 1.24619454e+2, -1537165.5, -1759138.8, -19478.488, -0.0513935, -0.20345631, -1535469.3, 183243.66, 0.051340032, 10.00187, 9.998794 
1.7150038e+3, 1.3461925e+2, -1397620.9, -1619406.9, 26544.322, 0.1822406, -0.12989604, -1394488.3, 226227.95, 0.033260748, 10.002034, 9.999006 
1.7150036e+3, 1.4461787e+2, -1315588.3, -1544940.8, -41605.492, -0.13724895, -0.15826297, -1308274.0, 214456.67, 0.016702162, 10.00196, 9.998876 
1.7150068e+3, 1.5461709e+2, -1257321.1, -1465702.0, -38823.438, -0.024548108, -0.13099068, -1250323.0, 174416.69, 0.0055656503, 10.001663, 9.998889 
1.7150092e+3, 1.6461608e+2, -1205560.8, -1411587.3, -45089.902, 0.01368829, -0.10958683, -1196124.8, 130626.34, 0.00089159166, 10.0014305, 9.9987 
1.7150114e+3, 1.7461489e+2, -1131020.9, -1327016.0, -53632.063, 0.013090349, -0.100129165, -1117304.9, 111459.86, 0.000025809924, 10.001278, 9.998681 
1.7150134e+3, 1.8461393e+2, -1049610.3, -1196423.6, -80878.445, 0.010393324, -0.0818386, -1013793.0, 116982.42, 0.0, 10.00099, 9.999043 
1.7150149e+3, 1.946132e+2, -1012878.06, -1126827.0, -76409.02, -0.0097404355, -0.06330956, -974540.25, 58242.18, 0.0, 10.000566, 9.999052 
1.7150167e+3, 2.046122e+2, -952589.0, -1062152.3, -63152.277, -0.013903682, -0.05999442, -923768.94, 11023.216, 0.0, 10.000372, 9.998918 
1.7150187e+3, 2.1461095e+2, -845264.3, -961727.0, -58251.617, 0.0062536513, -0.08058053, -821129.75, 15674.775, 0.0, 10.000444, 9.998899 
1.7150204e+3, 2.2460978e+2, -767498.56, -863298.1, -85693.14, 0.013472247, -0.08941404, -717226.56, 21589.076, 0.0, 10.000262, 9.99899 
1.7150214e+3, 2.3460878e+2, -737512.44, -798313.9, -83056.89, 0.003915525, -0.09196366, -679467.44, -38642.883, 0.0, 9.999796, 9.998988 
1.7150228e+3, 2.4460776e+2, -679593.94, -726161.6, -63267.25, 0.0015810935, -0.08934316, -635462.06, -92627.84, 0.0, 9.999549, 9.998928 
1.7150247e+3, 2.546067e+2, -579452.9, -628157.5, -74482.19, 0.00874387, -0.08980657, -525443.0, -80598.695, 0.0, 9.999568, 9.998919 
1.7150265e+3, 2.646056e+2, -486597.28, -505101.22, -70154.07, 0.006325027, -0.10046262, -425087.72, -78233.26, 0.0, 9.999414, 9.999165 
1.7150281e+3, 2.7460456e+2, -443329.13, -433351.28, -62469.63, -0.0077322186, -0.12914065, -375671.7, -126807.54, 0.0, 9.999037, 9.999166 
1.7150304e+3, 2.8460371e+2, -385865.03, -346018.6, -47745.063, 0.0043263435, -0.12928346, -314206.66, -163334.84, 0.0, 9.998721, 9.999245 
1.7150329e+3, 2.9460326e+2, -313021.94, -252087.36, -60112.785, 0.045089312, -0.10525367, -215161.75, -162284.83, 0.0, 9.998514, 9.999316 
1.7150337e+3, 3.046032e+2, -233717.98, -87637.05, -66717.27, -0.060789473, -0.09187572, -61752.777, -61752.777, 0.0, 9.998287, 10.000221 
1.7150359e+3, 3.1460276e+2, -273259.1, -98827.06, 3170.367, -0.028320348, -0.15185916, -98769.45, -98769.45, 0.0, 9.997978, 10.000295 
1.7249997e+3, 1.2461652e+2, -1452711.0, -1722665.3, -46220.42, -0.056309663, -0.19485898, -1445016.6, 273725.8, 0.054555926, 10.002519, 9.998733 
1.7250058e+3, 1.3461629e+2, -1402491.0, -1620010.5, 29501.77, 0.17460494, -0.124440655, -1398560.8, 222185.16, 0.035489924, 10.001998, 9.999021 
1.7250055e+3, 1.4461507e+2, -1344056.8, -1560554.8, -29019.107, -0.12728864, -0.1393892, -1340234.6, 182524.44, 0.017963212, 10.00177, 9.99886 
1.7250086e+3, 1.546141e+2, -1218282.9, -1449051.6, -28053.328, -0.012647938, -0.1262316, -1214921.5, 209847.89, 0.006078312, 10.001944, 9.998868 
1.725011e+3, 1.6461302e+2, -1156087.6, -1395808.6, -35952.754, 0.023935627, -0.10766005, -1150811.6, 175969.88, 0.0010047217, 10.001806, 9.998627 
1.7250128e+3, 1.7461185e+2, -1133273.4, -1336740.4, -28931.158, 0.017621111, -0.090315245, -1129239.6, 99555.58, 0.000032150663, 10.001301, 9.998603 
1.7250144e+3, 1.8461075e+2, -1049888.4, -1207350.9, -48058.75, 0.012346402, -0.07561188, -1036379.44, 94427.57, 0.0, 10.001035, 9.998946 
1.7250156e+3, 1.9460979e+2, -949942.4, -1107959.1, -58197.17, -0.008452395, -0.070914485, -930822.06, 101994.125, 0.0, 10.001046, 9.99895 
1.7250173e+3, 2.0460874e+2, -891178.56, -1027154.4, -55717.754, -0.009163318, -0.070360765, -871264.1, 63562.293, 0.0, 10.000771, 9.998965 
1.7250192e+3, 2.1460763e+2, -882614.8, -973292.7, -55334.875, 0.019521011, -0.082275905, -856416.56, -19579.332, 0.0, 10.000162, 9.998955 
1.7250206e+3, 2.2460653e+2, -823203.0, -888235.9, -83722.91, 0.022856938, -0.08773184, -765903.8, -27056.238, 0.0, 9.999872, 9.999005 
1.7250213e+3, 2.3460554e+2, -715240.6, -785552.75, -87849.484, -0.005808442, -0.09141979, -655773.9, -14917.24, 0.0, 9.999942, 9.999003 
1.7250223e+3, 2.4460453e+2, -649167.2, -717918.5, -62707.613, -0.010905764, -0.08399036, -612031.06, -69164.79, 0.0, 9.999787, 9.998869 
1.7250241e+3, 2.546035e+2, -612688.1, -651526.1, -57275.55, 0.013061267, -0.075529784, -571629.1, -126752.54, 0.0, 9.999373, 9.998851 
1.7250259e+3, 2.646024e+2, -522183.44, -510102.6, -47943.87, 0.019391514, -0.09231611, -467820.13, -120932.92, 0.0, 9.999119, 9.999272 
1.7250274e+3, 2.7460122e+2, -433755.9, -415778.9, -51161.8, 0.0037086569, -0.1385203, -372822.03, -123925.03, 0.0, 9.999049, 9.999281 
1.7250292e+3, 2.8460062e+2, -371670.9, -347660.6, -40868.156, 0.008408768, -0.120869964, -317070.8, -166168.14, 0.0, 9.998857, 9.999167 
1.7250314e+3, 2.946005e+2, -319377.44, -267531.22, -50673.87, 0.04002345, -0.054627065, -236534.67, -183629.73, 0.0, 9.998525, 9.999205 
1.725032e+3, 3.0459952e+2, -243426.6, -100281.78, -67052.125, -0.04475747, -0.118803374, -73779.74, -73779.74, 0.0, 9.998256, 10.000151 
1.725034e+3, 3.1459972e+2, -267552.6, -95704.9, 8256.961, -0.025918357, -0.110845886, -95309.08, -95309.08, 0.0, 9.998017, 10.000297 
1.7350022e+3, 1.2461423e+2, -1449693.8, -1713061.3, -89134.68, -0.049588148, -0.124298505, -1422363.0, 296404.75, 0.057917222, 10.002511, 9.99881 
1.7350072e+3, 1.346134e+2, -1393761.8, -1601385.6, 10222.87, 0.12574166, -0.12871209, -1393259.6, 227516.2, 0.037830163, 10.002, 9.999151 
1.735007e+3, 1.4461218e+2, -1346719.1, -1565961.3, -24187.182, -0.15039058, -0.14685795, -1344082.5, 178705.58, 0.01929914, 10.001769, 9.998824 
1.735011e+3, 1.5461136e+2, -1220413.4, -1454957.9, -20441.035, 0.029564489, -0.11541317, -1218645.3, 206151.84, 0.006632228, 10.001949, 9.998825 
1.7350133e+3, 1.6461042e+2, -1145923.6, -1375061.3, -54215.617, 0.06672919, -0.08907203, -1133743.3, 193064.3, 0.0011323413, 10.001807, 9.998769 
1.7350139e+3, 1.746093e+2, -1122550.0, -1315079.0, -47289.605, -0.010630067, -0.08036713, -1111561.8, 117257.914, 0.000040117335, 10.001303, 9.998751 
1.735015e+3, 1.8460792e+2, -1068900.9, -1246595.4, -47934.066, -0.024164636, -0.08706204, -1056795.1, 74038.77, 0.0, 10.001033, 9.998679 
1.735017e+3, 1.9460635e+2, -970067.25, -1149818.5, -56576.56, 0.019432517, -0.1150101, -953742.44, 79107.16, 0.0, 10.001045, 9.998664 
1.7350185e+3, 2.0460519e+2, -892168.56, -1028564.6, -77682.84, 0.029303433, -0.109732784, -856995.44, 77865.664, 0.0, 10.000767, 9.998958 
1.7350192e+3, 2.1460454e+2, -882186.7, -973001.06, -77136.93, 0.0067939083, -0.07686615, -838084.56, -1216.9827, 0.0, 10.000163, 9.998957 
1.7350201e+3, 2.2460353e+2, -827322.7, -896255.4, -81385.48, -0.0030252386, -0.06972731, -773406.2, -34529.1, 0.0, 9.99987, 9.998952 
1.7350212e+3, 2.3460224e+2, -720258.7, -795205.0, -83603.13, -0.000027107197, -0.09698476, -666114.6, -25225.234, 0.0, 9.999938, 9.99894 
1.7350224e+3, 2.4460116e+2, -639048.9, -695998.8, -76794.84, 0.0050023138, -0.101785555, -585619.8, -42720.145, 0.0, 9.9997835, 9.999022 
1.7350236e+3, 2.546003e+2, -601107.5, -627667.25, -71245.77, 0.01391059, -0.0947714, -541914.5, -97006.74, 0.0, 9.999373, 9.999016 
1.7350249e+3, 2.645993e+2, -522904.16, -511572.1, -49955.117, 0.012092876, -0.10495212, -466962.72, -120045.78, 0.0, 9.999118, 9.999263 
1.7350264e+3, 2.7459842e+2, -434338.28, -418458.88, -52035.227, -0.005632735, -0.12612322, -373761.1, -124835.87, 0.0, 9.999055, 9.999259 
1.735028e+3, 2.8459796e+2, -373580.72, -353899.4, -52184.133, -0.0050200424, -0.08971974, -310636.2, -159706.4, 0.0, 9.998865, 9.999122 
1.7350298e+3, 2.9459766e+2, -325861.4, -281973.34, -60481.47, 0.025516067, -0.034150433, -239578.06, -186644.6, 0.0, 9.998527, 9.999105 
1.7350307e+3, 3.0459568e+2, -267655.03, -149898.42, -76108.87, -0.0141638145, -0.17415248, -112551.914, -112551.914, 0.0, 9.998253, 9.999811 
1.735032e+3, 3.145969e+2, -249435.23, -59150.676, 23162.414, -0.026299383, -0.03983485, -56371.81, -56371.81, 0.0, 9.998022, 10.0005455 
1.7450048e+3, 1.2461222e+2, -1482224.9, -1740846.4, -60379.445, -0.046007775, -0.10132702, -1468822.9, 249965.34, 0.061441712, 10.002336, 9.998697 
1.7450094e+3, 1.3461098e+2, -1316071.1, -1576458.1, 40800.813, 0.11682526, -0.13472345, -1309827.6, 310972.56, 0.040288195, 10.002618, 9.999031 
1.7450093e+3, 1.446098e+2, -1250868.6, -1522516.3, -5394.665, -0.13608155, -0.14151533, -1250761.6, 272050.47, 0.020710532, 10.002461, 9.998787 
1.745013e+3, 1.5460895e+2, -1237384.5, -1466870.6, -2019.1782, 0.031960737, -0.1093001, -1237366.8, 187454.42, 0.007226658, 10.00185, 9.998791 
1.745015e+3, 1.6460796e+2, -1189347.5, -1393445.1, -41053.707, 0.06651293, -0.0856118, -1181399.1, 145432.63, 0.0012746613, 10.001498, 9.998792 
1.7450152e+3, 1.7460681e+2, -1099197.5, -1301334.3, -44800.62, -0.0030792716, -0.08359843, -1089713.1, 139130.92, 0.0000499031, 10.001452, 9.998773 
1.7450164e+3, 1.8460543e+2, -1037684.8, -1238344.8, -37935.16, -0.015033867, -0.08882108, -1030752.56, 100105.65, 0.0000000000000006446772, 10.001278, 9.998617 
1.745018e+3, 1.9460389e+2, -988650.44, -1166223.9, -30967.582, 0.021572657, -0.10651076, -983404.8, 49469.016, 0.0, 10.000952, 9.998596 
1.7450191e+3, 2.0460267e+2, -909079.6, -1042544.06, -53738.617, 0.026453722, -0.101123855, -890132.06, 44753.965, 0.0, 10.000677, 9.998904 
1.7450196e+3, 2.1460186e+2, -842909.56, -960133.9, -58914.082, 0.00082978886, -0.0783361, -818417.8, 18476.059, 0.0, 10.00046, 9.998902 
1.7450203e+3, 2.246008e+2, -778748.25, -878871.7, -53507.656, -0.004735093, -0.07249463, -755534.8, -16630.688, 0.0, 10.00023, 9.998898 
1.7450212e+3, 2.3459955e+2, -717132.5, -799944.8, -56215.633, 0.010694505, -0.09151394, -688719.9, -47803.453, 0.0, 9.999988, 9.998883 
1.7450222e+3, 2.4459846e+2, -646375.0, -690245.5, -61875.27, 0.015204381, -0.09581451, -602661.94, -59735.406, 0.0, 9.999694, 9.9991045 
1.7450228e+3, 2.545976e+2, -600959.1, -617649.8, -63355.883, 0.009532111, -0.09724104, -545401.3, -100467.19, 0.0, 9.999333, 9.999103 
1.7450239e+3, 2.6459664e+2, -536939.1, -524406.6, -36961.203, 0.0049964967, -0.10752765, -493184.28, -146241.1, 0.0, 9.99905, 9.999207 
1.7450252e+3, 2.7459577e+2, -467818.6, -441599.72, -42866.86, -0.004676767, -0.11908446, -409882.56, -160930.73, 0.0, 9.9988575, 9.999194 
1.7450266e+3, 2.8459537e+2, -391287.6, -342282.9, -42029.996, -0.011620104, -0.08084406, -318134.6, -167178.9, 0.0, 9.998658, 9.999301 
1.7450279e+3, 2.9459518e+2, -332705.53, -270313.22, -34212.063, 0.0011531138, -0.03318292, -255209.64, -202251.98, 0.0, 9.998417, 9.999238 
1.7450292e+3, 3.0459288e+2, -305552.5, -210308.52, -37936.78, 0.021446332, -0.19310391, -197044.92, -197044.92, 0.0, 9.998175, 9.999434 
1.7450298e+3, 3.145941e+2, -230592.58, -7157.5566, 68195.75, -0.03066516, -0.024990857, 12012.145, 12012.145, 0.0, 9.997966, 10.000931 
1.755007e+3, 1.2461044e+2, -1504869.5, -1788763.9, -71451.84, -0.05211156, -0.13082887, -1487900.4, 230903.77, 0.06514403, 10.002335, 9.998371 
1.7550123e+3, 1.3460906e+2, -1341365.8, -1629768.0, 51442.59, 0.1440724, -0.1403546, -1332464.6, 288354.2, 0.042871077, 10.002623, 9.998654 
1.7550123e+3, 1.4460793e+2, -1254481.0, -1528915.3, -27721.24, -0.090281665, -0.119723864, -1251708.8, 271121.9, 0.022198899, 10.0024605, 9.998745 
1.7550144e+3, 1.5460683e+2, -1239568.9, -1471424.0, -24266.486, -0.0069875703, -0.10974761, -1237056.3, 187785.78, 0.007860936, 10.001851, 9.998759 
1.755016e+3, 1.6460565e+2, -1196636.0, -1408637.3, -43419.56, 0.021601716, -0.09917829, -1188088.0, 138766.61, 0.0014314154, 10.001497, 9.998689 
1.7550172e+3, 1.7460436e+2, -1106114.1, -1316673.1, -45625.3, 0.037185136, -0.09911816, -1096652.9, 132215.66, 0.00006152053, 10.001455, 9.998667 
1.7550182e+3, 1.8460324e+2, -1027662.06, -1217821.9, -49506.047, 0.035315495, -0.08032286, -1015545.7, 115334.67, 0.0000000010737394, 10.001278, 9.998758 
1.7550187e+3, 1.9460237e+2, -978130.0, -1145018.1, -42089.742, -0.0035133562, -0.04675929, -968115.75, 64773.707, 0.0, 10.000954, 9.998741 
1.7550193e+3, 2.0460115e+2, -916654.25, -1058035.8, -61540.68, -0.018917484, -0.04464461, -893619.7, 41281.875, 0.0, 10.000675, 9.998799 
1.7550199e+3, 2.1459956e+2, -851511.06, -977620.6, -65688.414, -0.00028500007, -0.086278565, -823511.56, 13404.973, 0.0, 10.000457, 9.998784 
1.7550206e+3, 2.2459826e+2, -783548.0, -887944.06, -62008.57, 0.015179669, -0.09619873, -754692.4, -15763.136, 0.0, 10.000226, 9.998837 
1.7550214e+3, 2.3459733e+2, -721322.5, -808868.44, -63792.164, 0.024267754, -0.07642636, -687729.4, -46790.934, 0.0, 9.999988, 9.998822 
1.7550218e+3, 2.4459636e+2, -646052.75, -689150.8, -74511.625, 0.017439738, -0.06734312, -590036.7, -47089.176, 0.0, 9.999691, 9.999113 
1.7550221e+3, 2.5459537e+2, -600038.1, -616195.06, -75260.375, -0.0032009457, -0.082254626, -532423.94, -87467.695, 0.0, 9.999334, 9.999112 
1.7550229e+3, 2.645943e+2, -544036.2, -540117.75, -43563.83, -0.0050781765, -0.09932643, -498469.1, -151502.55, 0.0, 9.999054, 9.999097 
1.7550243e+3, 2.7459323e+2, -475779.47, -458677.94, -47956.08, 0.005146813, -0.11718575, -418516.28, -169538.89, 0.0, 9.998858, 9.999077 
1.7550252e+3, 2.8459284e+2, -363543.5, -284527.03, -49943.36, -0.013038561, -0.09471161, -260354.48, -109373.266, 0.0, 9.998657, 9.999698 
1.755026e+3, 2.9459298e+2, -305479.94, -216825.53, -42374.633, -0.03876191, -0.054854732, -199829.73, -146851.08, 0.0, 9.99843, 9.999599 
1.7550278e+3, 3.0459106e+2, -332511.34, -268990.16, -45692.758, 0.056032777, -0.17014205, -245103.98, -245103.98, 0.0, 9.998185, 9.999026 
1.7550278e+3, 3.1459144e+2, -207564.7, 42910.035, 61936.773, -0.039052043, -0.049680196, 57388.67, 57388.67, 0.0, 9.997956, 10.00128 
1.7650096e+3, 1.24608785e+2, -1458976.3, -1766811.4, -85484.76, -0.045754455, -0.1446428, -1436830.6, 281988.97, 0.06903026, 10.002689, 9.998352 
1.7650148e+3, 1.3460734e+2, -1350763.4, -1644739.0, 71834.164, 0.14004818, -0.15133533, -1334149.4, 286685.78, 0.045582972, 10.002608, 9.99856 
1.765015e+3, 1.4460626e+2, -1271137.8, -1550728.8, -17131.484, -0.061159316, -0.11548546, -1270092.0, 252754.86, 0.023764612, 10.002406, 9.99862 
1.7650165e+3, 1.5460497e+2, -1203995.4, -1468031.3, -20992.654, -0.007131464, -0.1124654, -1202336.8, 222523.66, 0.008533529, 10.00216, 9.998633 
1.7650175e+3, 1.6460368e+2, -1140733.6, -1388528.1, -31133.746, 0.01129174, -0.101688705, -1136881.8, 189992.22, 0.0016018841, 10.001915, 9.998624 
1.7650187e+3, 1.7460242e+2, -1079711.0, -1310967.0, -31248.164, 0.0363283, -0.09402037, -1075563.1, 153324.8, 0.00007476828, 10.001669, 9.998602 
1.7650194e+3, 1.846013e+2, -1015161.1, -1206955.9, -45053.125, 0.034349307, -0.073431544, -1005105.25, 125794.516, 0.000000009428086, 10.001344, 9.9988 
1.7650196e+3, 1.9460043e+2, -978450.5, -1140141.4, -46805.34, -0.015901694, -0.04357609, -965879.0, 67029.61, 0.0, 10.00093, 9.998786 
1.7650197e+3, 2.0459923e+2, -924044.7, -1064746.9, -59940.42, -0.03256392, -0.040649414, -901972.1, 32948.402, 0.0, 10.000638, 9.998771 
1.7650203e+3, 2.1459767e+2, -849266.7, -979753.6, -58656.035, -0.0040017064, -0.076405704, -826776.25, 10159.022, 0.0, 10.000487, 9.998754 
1.765021e+3, 2.245963e+2, -787664.2, -890780.0, -54779.95, 0.017327886, -0.08936759, -763995.4, -25047.123, 0.0, 10.000201, 9.998829 
1.7650214e+3, 2.3459524e+2, -756380.3, -826795.3, -53922.52, 0.02713605, -0.08349057, -727189.0, -86230.45, 0.0, 9.999752, 9.998812 
1.7650215e+3, 2.445942e+2, -674435.6, -714736.75, -58547.617, 0.018763242, -0.07547126, -632667.94, -89699.43, 0.0, 9.999548, 9.999006 
1.7650215e+3, 2.5459328e+2, -563348.25, -610852.2, -69032.195, -0.006039496, -0.07322576, -514096.13, -69118.7, 0.0, 9.9996395, 9.9990015 
1.7650221e+3, 2.645923e+2, -499345.3, -509476.5, -48358.445, -0.0023440006, -0.08069204, -455787.88, -108800.69, 0.0, 9.999322, 9.999178 
1.765023e+3, 2.7459124e+2, -518979.1, -469283.34, -38675.625, 0.023878938, -0.10588593, -448161.44, -199164.1, 0.0, 9.998519, 9.999167 
1.7650236e+3, 2.845907e+2, -426310.56, -305853.38, -25327.594, -0.0110313855, -0.10441973, -300744.63, -149742.45, 0.0, 9.998188, 9.999777 
1.7650239e+3, 2.9459077e+2, -308313.16, -212995.1, -43740.645, -0.085085645, -0.08128539, -195965.42, -142964.83, 0.0, 9.998389, 9.999644 
1.7650263e+3, 3.0458957e+2, -324143.47, -270522.63, -55876.31, 0.081220694, -0.122838974, -235357.55, -235357.55, 0.0, 9.998267, 9.998976 
1.7650257e+3, 3.1458887e+2, -222373.45, 61794.754, 56043.824, -0.045237653, -0.10812825, 72448.34, 72448.34, 0.0, 9.997745, 10.001509 
1.7750125e+3, 1.2460737e+2, -1444348.1, -1730936.9, -105248.47, -0.03545098, -0.13522118, -1409849.0, 308984.7, 0.07310775, 10.002682, 9.99861 
1.7750171e+3, 1.3460581e+2, -1340263.0, -1621004.8, 68015.55, 0.10128141, -0.1692945, -1324652.8, 296196.78, 0.0484276, 10.00261, 9.998723 
1.7750175e+3, 1.4460474e+2, -1285035.8, -1579319.6, -27386.7, -0.05282426, -0.1303641, -1282508.9, 240352.1, 0.025407394, 10.002404, 9.998426 
1.775019e+3, 1.5460335e+2, -1218646.6, -1499541.6, -29217.879, 0.028314877, -0.116615556, -1215639.6, 209236.64, 0.009242489, 10.002164, 9.998416 
1.7750196e+3, 1.6460209e+2, -1142838.9, -1393451.0, -40216.72, 0.031390373, -0.09210568, -1136543.3, 190346.88, 0.0017851728, 10.001917, 9.9985895 
1.77502e+3, 1.7460094e+2, -1081684.3, -1315330.6, -39538.242, -0.006795308, -0.06868881, -1075174.9, 153727.67, 0.000089384695, 10.00167, 9.998572 
1.7750202e+3, 1.8459958e+2, -1019877.7, -1216538.0, -59864.4, -0.019234534, -0.06780962, -1003088.06, 127828.58, 0.000000028818846, 10.001342, 9.998736 
1.7750205e+3, 1.9459805e+2, -982673.1, -1149333.5, -61140.02, -0.017617583, -0.096834265, -962649.44, 70282.33, 0.0, 10.000931, 9.998723 
1.7750207e+3, 2.0459688e+2, -920915.3, -1058238.8, -65341.87, -0.017593203, -0.08970555, -894793.1, 40150.316, 0.0, 10.000637, 9.9988165 
1.7750208e+3, 2.1459614e+2, -846051.06, -973305.75, -62878.766, -0.01289406, -0.049975205, -820223.56, 16727.04, 0.0, 10.000487, 9.998799 
1.7750208e+3, 2.2459492e+2, -784863.7, -884619.3, -70615.23, -0.00032848382, -0.051942173, -748287.44, -9325.63, 0.0, 10.000199, 9.998873 
1.775021e+3, 2.3459323e+2, -753517.8, -820882.75, -69369.64, 0.018396026, -0.11162962, -710085.7, -69108.43, 0.0, 9.99975, 9.998855 
1.7750211e+3, 2.4459195e+2, -690084.0, -747229.7, -54897.992, 0.017313762, -0.12031815, -656768.25, -113778.195, 0.0, 9.999547, 9.998784 
1.7750213e+3, 2.5459126e+2, -580008.06, -645997.06, -63739.742, -0.0015110871, -0.07231717, -541229.4, -96230.82, 0.0, 9.999641, 9.99876 
1.7750216e+3, 2.645905e+2, -480563.63, -470904.0, -76346.87, 0.010722762, -0.05292602, -399234.3, -52228.414, 0.0, 9.999323, 9.999443 
1.7750219e+3, 2.7458972e+2, -497447.4, -426248.56, -67051.266, 0.045811716, -0.083675615, -385932.28, -136920.03, 0.0, 9.998525, 9.99946 
1.7750219e+3, 2.8458893e+2, -441584.72, -339081.3, -18473.543, -0.0109374225, -0.109695844, -335853.6, -184834.42, 0.0, 9.998194, 9.999546 
1.7750219e+3, 2.9458848e+2, -326366.03, -251276.25, -34700.477, -0.13696606, -0.11453803, -237696.38, -184672.1, 0.0, 9.998391, 9.999381 
1.7750247e+3, 3.0458832e+2, -300020.2, -220081.4, -71487.78, 0.09655347, -0.05417492, -178148.08, -178148.08, 0.0, 9.998264, 9.999324 
1.7750235e+3, 3.1458753e+2, -220641.94, 64948.863, -23.153107, -0.03771886, -0.083755374, 64948.863, 64948.863, 0.0, 9.997749, 10.001528 
1.7850153e+3, 1.2460599e+2, -1415233.8, -1711517.3, -104496.96, -0.02238471, -0.14360984, -1382086.8, 336760.84, 0.077386774, 10.0028925, 9.998642 
1.7850195e+3, 1.3460456e+2, -1325780.6, -1620760.3, 61152.81, 0.07094067, -0.15753596, -1313605.5, 307256.88, 0.051407844, 10.002756, 9.998652 
1.7850201e+3, 1.4460352e+2, -1262602.4, -1569691.5, -38771.07, -0.04016391, -0.11171316, -1257783.0, 265090.4, 0.027127795, 10.002576, 9.998408 
1.7850214e+3, 1.5460193e+2, -1178455.9, -1482068.1, -27244.842, 0.035442933, -0.114793, -1176030.4, 248860.06, 0.009987896, 10.002455, 9.998394 
1.7850217e+3, 1.6460055e+2, -1111570.6, -1380074.8, -37490.8, 0.032473244, -0.09798016, -1106434.1, 220471.02, 0.0019811615, 10.00214, 9.998573 
1.7850214e+3, 1.7459942e+2, -1093574.1, -1322927.8, -37141.07, -0.012898391, -0.07184091, -1087709.5, 141207.78, 0.00010526353, 10.001597, 9.998554 
1.7850214e+3, 1.8459806e+2, -1037519.06, -1230592.8, -51059.508, -0.025212113, -0.068947226, -1024847.7, 106083.8, 0.0000000562377, 10.001246, 9.998685 
1.7850214e+3, 1.945965e+2, -957496.25, -1143047.3, -52625.816, -0.01638481, -0.09635164, -943609.8, 89337.35, 0.0, 10.001131, 9.998669 
1.7850214e+3, 2.0459528e+2, -887263.25, -1038019.3, -58226.49, -0.014503312, -0.09217107, -867393.3, 67565.836, 0.0, 10.000852, 9.998852 
1.7850213e+3, 2.145945e+2, -858892.9, -975479.6, -57437.492, -0.014351477, -0.05980082, -835349.94, 1616.5583, 0.0, 10.000382, 9.998835 
1.785021e+3, 2.2459334e+2, -800436.1, -895841.2, -65269.074, -0.006919592, -0.057743527, -767295.7, -28318.436, 0.0, 10.000108, 9.99884 
1.7850207e+3, 2.3459178e+2, -710236.7, -803429.0, -70995.54, 0.0056994464, -0.101211324, -671911.9, -30920.191, 0.0, 10.000063, 9.998823 
1.7850207e+3, 2.4459046e+2, -662610.56, -733106.3, -52262.047, 0.004721265, -0.11131738, -634820.9, -91815.97, 0.0, 9.999732, 9.998793 
1.7850205e+3, 2.5458956e+2, -665443.56, -686869.9, -43559.77, -0.0052841078, -0.0840916, -631298.9, -186283.36, 0.0, 9.999052, 9.998764 
1.7850207e+3, 2.645889e+2, -560795.7, -503227.53, -54339.6, 0.013089346, -0.058473993, -470519.2, -123497.07, 0.0, 9.998743, 9.9995 
1.7850207e+3, 2.745885e+2, -441293.56, -392661.28, -62561.938, 0.04877422, -0.056371782, -349856.1, -100831.44, 0.0, 9.998881, 9.99952 
1.7850202e+3, 2.845877e+2, -390098.56, -313033.06, -14855.74, -0.014596626, -0.08882997, -310268.5, -159236.72, 0.0, 9.998542, 9.999558 
1.7850198e+3, 2.9458687e+2, -433583.78, -298033.72, -13193.576, -0.14944606, -0.13049158, -296761.47, -243721.3, 0.0, 9.997634, 9.999425 
1.7850228e+3, 3.0458713e+2, -395671.6, -242812.94, -22319.352, 0.111549534, -0.044600926, -239620.69, -239620.69, 0.0, 9.997505, 9.999535 
1.7850214e+3, 3.1458622e+2, -185066.14, 42160.523, -16165.087, -0.046591546, -0.10238223, 43304.76, 43304.76, 0.0, 9.998168, 10.001167 
1.7950183e+3, 1.2460466e+2, -1430739.3, -1741365.3, -119041.69, -0.020550761, -0.16752498, -1390366.1, 328495.2, 0.08187141, 10.002886, 9.998445 
1.795022e+3, 1.3460356e+2, -1346697.4, -1664933.8, 56372.043, 0.04771695, -0.11644821, -1337006.8, 283866.88, 0.05452556, 10.002758, 9.998348 
1.7950228e+3, 1.4460255e+2, -1253362.9, -1548826.1, -44469.2, -0.025650734, -0.059029397, -1246815.1, 276069.38, 0.02892929, 10.002575, 9.998552 
1.7950235e+3, 1.546007e+2, -1167801.8, -1459023.5, -30548.182, 0.011087699, -0.10676812, -1164631.8, 260271.31, 0.010773709, 10.002453, 9.998553 
1.7950237e+3, 1.645991e+2, -1112123.0, -1380773.3, -56959.973, 0.011299494, -0.11875584, -1100545.1, 226374.05, 0.0021913187, 10.002137, 9.99857 
1.7950234e+3, 1.7459786e+2, -1093624.1, -1323838.4, -56503.957, 0.01592456, -0.10368711, -1080503.5, 148428.88, 0.00012255237, 10.0016, 9.998548 
1.7950231e+3, 1.8459669e+2, -1040546.94, -1237666.9, -55665.766, 0.012791342, -0.07719109, -1025913.5, 105031.2, 0.000000085167756, 10.001248, 9.998635 
1.7950226e+3, 1.9459572e+2, -960984.3, -1150928.8, -55625.6, -0.014565127, -0.04234347, -945893.25, 87061.98, 0.0, 10.001132, 9.998614 
1.795022e+3, 2.0459439e+2, -885850.0, -1034804.94, -74661.914, -0.024837825, -0.047264885, -854869.94, 80098.266, 0.0, 10.00085, 9.998876 
1.7950216e+3, 2.1459271e+2, -857149.9, -972015.44, -73377.62, -0.008917142, -0.10604277, -821401.1, 15582.3955, 0.0, 10.000381, 9.998859 
1.7950211e+3, 2.2459148e+2, -808482.6, -912361.0, -66693.11, -0.0041424483, -0.108159676, -775889.9, -36894.51, 0.0, 10.000106, 9.998728 
1.7950207e+3, 2.3459077e+2, -718853.1, -821430.7, -71091.65, -0.014526804, -0.053935412, -682480.3, -41477.688, 0.0, 10.000062, 9.9987 
1.79502e+3, 2.4458966e+2, -645962.0, -698020.44, -75920.734, -0.021866495, -0.04892042, -591732.4, -48718.566, 0.0, 9.999729, 9.999035 
1.7950194e+3, 2.545882e+2, -647196.0, -649109.8, -67489.336, -0.019399593, -0.105833985, -580656.75, -135628.02, 0.0, 9.999052, 9.999024 
1.7950194e+3, 2.6458743e+2, -570357.4, -524094.53, -49049.906, 0.002723459, -0.09716108, -492995.38, -145959.06, 0.0, 9.998747, 9.999356 
1.7950194e+3, 2.7458748e+2, -452194.5, -417553.78, -54904.344, 0.03121073, -0.029777037, -377302.6, -128267.0, 0.0, 9.99889, 9.999346 
1.7950186e+3, 2.845869e+2, -372314.8, -276635.13, -46831.047, -0.022695528, -0.043983806, -257528.73, -106488.02, 0.0, 9.998544, 9.999806 
1.7950176e+3, 2.94586e+2, -410040.34, -248309.48, -45264.25, -0.13019733, -0.12122167, -236503.08, -183455.0, 0.0, 9.99763, 9.999769 
1.7950203e+3, 3.0458584e+2, -389603.5, -231063.2, 4472.7983, 0.1135097, -0.10211407, -230937.11, -230937.11, 0.0, 9.997506, 9.999616 
1.7950195e+3, 3.145853e+2, -218911.61, -32734.193, -41904.008, -0.049446, -0.12413725, -23737.383, -23737.383, 0.0, 9.998188, 10.000643 
1.8050218e+3, 1.24604076e+2, -1387270.5, -1720758.3, -110261.18, 0.011773734, -0.13766712, -1354111.8, 364756.75, 0.086558245, 10.003236, 9.998415 
1.8050246e+3, 1.3460259e+2, -1298418.8, -1650852.5, 79156.61, 0.022361953, -0.11636963, -1281456.5, 339427.25, 0.057785597, 10.003163, 9.998252 
1.8050256e+3, 1.446014e+2, -1221185.9, -1535154.6, -26358.629, -0.009908778, -0.07060612, -1218988.4, 303907.72, 0.030819772, 10.002819, 9.998528 
1.805026e+3, 1.5459976e+2, -1199162.4, -1477280.8, -26768.04, 0.008345822, -0.093340956, -1196609.5, 228303.39, 0.011606396, 10.002251, 9.998525 
1.8050256e+3, 1.6459824e+2, -1146345.4, -1397469.3, -58116.35, 0.0055303946, -0.098647974, -1133547.9, 193380.66, 0.0024181777, 10.001906, 9.998567 
1.8050252e+3, 1.7459683e+2, -1060219.1, -1307871.9, -58814.203, 0.019302633, -0.09763767, -1046961.25, 181981.78, 0.00014164914, 10.001833, 9.998544 
1.8050246e+3, 1.8459563e+2, -990945.1, -1207060.9, -53550.047, 0.020244863, -0.07867187, -978404.06, 152551.47, 0.00000010953618, 10.001561, 9.998694 
1.8050238e+3, 1.9459471e+2, -966571.4, -1146629.0, -45944.55, -0.008330203, -0.043134745, -955525.5, 77439.38, 0.0, 10.001065, 9.998675 
1.805023e+3, 2.045934e+2, -913707.44, -1058135.5, -65052.7, -0.022969283, -0.044743128, -888727.2, 46250.504, 0.0, 10.000702, 9.998786 
1.8050219e+3, 2.1459171e+2, -847353.8, -977426.7, -74397.9, -0.016550252, -0.09720735, -813573.3, 23420.682, 0.0, 10.000495, 9.998766 
1.8050212e+3, 2.2459042e+2, -797859.6, -901513.8, -63233.16, -0.014623641, -0.099847846, -767928.06, -28921.6, 0.0, 10.0001545, 9.998779 
1.8050204e+3, 2.3458971e+2, -773815.2, -841904.44, -54702.023, -0.01939198, -0.053165864, -743428.9, -102415.016, 0.0, 9.999659, 9.9987545 
1.8050195e+3, 2.445887e+2, -700979.1, -706097.5, -61801.63, -0.0212903, -0.048036825, -641683.7, -98660.055, 0.0, 9.99927, 9.999201 
1.8050185e+3, 2.5458747e+2, -641671.8, -626976.3, -61295.33, -0.015961194, -0.097307846, -572589.9, -127554.445, 0.0, 9.999006, 9.999198 
1.8050179e+3, 2.6458675e+2, -570687.94, -519803.06, -25496.14, -0.004439272, -0.096205674, -509226.47, -162184.11, 0.0, 9.998724, 9.999397 
1.8050177e+3, 2.7458662e+2, -521918.4, -448365.1, -17118.541, 0.004569144, -0.052616496, -444576.2, -195532.33, 0.0, 9.998397, 9.9993725 
1.8050168e+3, 2.8458616e+2, -443865.34, -310649.1, -27367.402, -0.031548716, -0.05546491, -305245.97, -154198.08, 0.0, 9.99805, 9.999812 
1.8050157e+3, 2.945857e+2, -390535.38, -232459.75, -45789.24, -0.090417325, -0.08672875, -220154.1, -167103.2, 0.0, 9.997736, 9.999826 
1.8050176e+3, 3.0458516e+2, -365277.53, -202060.8, 29880.31, 0.09422817, -0.12072966, -196762.56, -196762.56, 0.0, 9.997601, 9.999769 
1.8050176e+3, 3.145854e+2, -314900.97, -77274.25, -52146.418, -0.022255804, -0.07565543, -66334.52, -66334.52, 0.0, 9.997525, 10.000656 
1.8150254e+3, 1.2460426e+2, -1379718.1, -1701170.0, -112272.3, 0.06030826, -0.050068837, -1344388.1, 374480.66, 0.091442265, 10.003238, 9.998552 
1.8150276e+3, 1.346016e+2, -1292790.6, -1636062.8, 76460.82, -0.011681151, -0.15770042, -1276529.9, 344363.13, 0.061196603, 10.003162, 9.998355 
1.8150286e+3, 1.4460002e+2, -1236081.3, -1565016.9, -47674.73, 0.00012899743, -0.14596692, -1229310.9, 293597.72, 0.032810155, 10.002814, 9.998326 
1.8150283e+3, 1.545991e+2, -1214463.9, -1509506.3, -46983.62, 0.025529142, -0.07451617, -1207162.6, 217757.42, 0.012492813, 10.002253, 9.998303 
1.8150276e+3, 1.6459787e+2, -1146393.0, -1399051.5, -61293.918, 0.01219843, -0.03781089, -1132308.5, 194625.13, 0.0026645006, 10.001911, 9.998554 
1.8150267e+3, 1.7459631e+2, -1059747.3, -1308025.8, -60198.188, -0.0052267862, -0.053722903, -1045921.44, 183028.06, 0.00016313064, 10.001836, 9.998542 
1.8150258e+3, 1.8459478e+2, -979947.7, -1184068.0, -70977.945, -0.0055389116, -0.07260178, -957693.2, 173271.02, 0.00000012908751, 10.00156, 9.998853 
1.815025e+3, 1.9459343e+2, -954253.6, -1122013.0, -63211.85, 0.0013756629, -0.099533305, -933102.2, 99874.54, 0.0, 10.001068, 9.998843 
1.8150239e+3, 2.0459226e+2, -928058.6, -1088570.6, -72589.984, -0.011137233, -0.085782915, -900100.3, 34888.074, 0.0, 10.000704, 9.998576 
1.8150222e+3, 2.1459137e+2, -863125.8, -1010685.7, -80641.84, -0.04080613, -0.03388299, -827605.3, 9393.389, 0.0, 10.000495, 9.998539 
1.815021e+3, 2.2459014e+2, -782879.4, -869559.5, -80679.6, -0.041252643, -0.03220474, -734635.8, 4375.444, 0.0, 10.000151, 9.999001 
1.8150201e+3, 2.3458852e+2, -756700.9, -806892.5, -71547.79, -0.009200074, -0.09827761, -705975.25, -64949.313, 0.0, 9.99966, 9.998996 
1.8150191e+3, 2.4458753e+2, -694822.4, -693887.9, -70978.94, 0.005528725, -0.109850705, -623374.6, -80339.58, 0.0, 9.999271, 9.999285 
1.8150178e+3, 2.5458735e+2, -635898.0, -616178.4, -69282.28, 0.0012539165, -0.061056096, -556057.8, -111021.28, 0.0, 9.99901, 9.999271 
1.8150166e+3, 2.645868e+2, -554464.5, -486286.34, -36708.4, -0.011256, -0.05704377, -470279.78, -123238.625, 0.0, 9.998725, 9.999627 
1.8150157e+3, 2.745858e+2, -505779.2, -414054.56, -28235.602, -0.03607748, -0.121562876, -406059.66, -157009.97, 0.0, 9.998393, 9.99961 
1.8150148e+3, 2.8458542e+2, -458993.84, -343564.7, -37966.89, -0.045618553, -0.12120032, -332196.3, -181142.63, 0.0, 9.998054, 9.999585 
1.815014e+3, 2.9458594e+2, -402245.1, -263197.84, -53452.78, -0.0288801, -0.0313789, -245024.63, -191975.11, 0.0, 9.997761, 9.999605 
1.8150148e+3, 3.0458495e+2, -351570.22, -175714.67, 27621.209, 0.05224392, -0.104794145, -171478.33, -171478.33, 0.0, 9.997611, 9.999945 
1.8150152e+3, 3.1458506e+2, -269692.38, 19784.43, -71663.234, -0.014985712, -0.08990907, 36553.996, 36553.996, 0.0, 9.99751, 10.00133 
1.8250293e+3, 1.246042e+2, -1287908.3, -1666396.6, -78553.23, 0.08044335, -0.04588008, -1272252.5, 446617.16, 0.09651855, 10.004005, 9.998437 
1.8250306e+3, 1.3460143e+2, -1279609.6, -1643959.8, 83704.125, -0.025521228, -0.15014172, -1261299.9, 359595.13, 0.0647644, 10.003335, 9.998219 
1.8250318e+3, 1.4459968e+2, -1237350.5, -1570414.5, -42824.203, 0.035498064, -0.14795646, -1231932.5, 290979.84, 0.03490882, 10.002833, 9.998279 
1.8250307e+3, 1.5459865e+2, -1162029.0, -1488618.1, -29080.54, 0.025864543, -0.08182915, -1159459.9, 265464.72, 0.01343824, 10.002642, 9.998259 
1.8250297e+3, 1.6459739e+2, -1084612.1, -1370659.5, -31422.906, 0.0015951049, -0.044810243, -1081201.0, 245737.31, 0.0029326566, 10.002345, 9.998538 
1.8250287e+3, 1.745959e+2, -1048466.7, -1304170.4, -32619.15, -0.001857988, -0.05214856, -1044371.2, 184582.34, 0.00018758782, 10.001922, 9.998526 
1.8250275e+3, 1.8459438e+2, -991134.9, -1190204.0, -57183.9, 0.0023056509, -0.06992581, -975877.75, 155090.6, 0.00000015151502, 10.001488, 9.998845 
1.825026e+3, 1.9459292e+2, -958173.0, -1124649.4, -63854.023, 0.0019482913, -0.103746414, -936502.06, 96479.766, 0.0, 10.001047, 9.998835 
1.8250245e+3, 2.045918e+2, -920926.06, -1078225.5, -60163.004, -0.010382009, -0.08890793, -900553.75, 34439.453, 0.0, 10.000724, 9.998637 
1.8250228e+3, 2.145911e+2, -852219.44, -997977.5, -47127.79, -0.03163783, -0.026052088, -838309.1, -1307.3666, 0.0, 10.000539, 9.998604 
1.8250212e+3, 2.2458993e+2, -783508.44, -867033.8, -55758.504, -0.031046415, -0.020148445, -755606.7, -16593.076, 0.0, 10.0001335, 9.999026 
1.8250197e+3, 2.3458833e+2, -783534.7, -816322.06, -64546.746, -0.006161083, -0.08992718, -733332.3, -92303.6, 0.0, 9.999462, 9.999024 
1.8250182e+3, 2.4458735e+2, -717264.7, -696774.56, -56730.54, 0.003457789, -0.10399066, -649371.44, -106334.03, 0.0, 9.999084, 9.999354 
1.8250167e+3, 2.545872e+2, -626263.56, -603908.2, -55036.094, -0.0044986047, -0.057707902, -558926.2, -113888.36, 0.0, 9.999043, 9.999339 
1.8250151e+3, 2.6458663e+2, -556505.2, -479627.06, -41851.16, -0.019752339, -0.06144831, -461241.13, -114198.984, 0.0, 9.998678, 9.999696 
1.8250138e+3, 2.7458563e+2, -570076.44, -437567.6, -48403.23, -0.041211426, -0.13671023, -421770.1, -172719.03, 0.0, 9.997922, 9.999675 
1.8250129e+3, 2.845853e+2, -508501.2, -362025.53, -33960.805, -0.030931484, -0.13381514, -354534.72, -203480.31, 0.0, 9.997691, 9.999633 
1.8250123e+3, 2.9458594e+2, -361146.88, -236642.2, -27858.115, 0.010509897, -0.03589381, -230693.17, -177643.9, 0.0, 9.9980135, 9.999666 
1.8250117e+3, 3.0458507e+2, -358063.4, -177642.27, 35388.42, -0.009751686, -0.101893276, -170949.34, -170949.34, 0.0, 9.997563, 9.999953 
1.8250126e+3, 3.1458536e+2, -391752.94, 13495.537, -66403.22, 0.018375343, -0.06994515, 24098.805, 24098.805, 0.0, 9.996443, 10.001803 
1.835033e+3, 1.24603875e+2, -1314774.4, -1717764.1, -90196.7, 0.050913416, -0.12409819, -1295507.9, 423363.4, 0.10178351, 10.004, 9.998064 
1.835034e+3, 1.3460207e+2, -1306486.1, -1699973.5, 59548.87, -0.020391556, -0.09242377, -1297671.6, 323218.16, 0.06849085, 10.003335, 9.99783 
1.8350351e+3, 1.4460032e+2, -1230170.1, -1554958.6, -51328.945, 0.09417977, -0.07525367, -1222251.3, 300656.25, 0.037120853, 10.002838, 9.998384 
1.8350331e+3, 1.5459834e+2, -1152944.1, -1469703.5, -34705.055, 0.005306933, -0.11571475, -1149186.3, 275740.34, 0.014446704, 10.002644, 9.998388 
1.8350318e+3, 1.6459674e+2, -1087179.0, -1375575.9, -46501.277, -0.03063084, -0.11956518, -1079866.5, 247076.36, 0.0032247442, 10.002343, 9.998507 
1.8350309e+3, 1.7459553e+2, -1050759.3, -1309960.3, -47523.527, 0.02745453, -0.09329644, -1042320.7, 186635.06, 0.00021561696, 10.001925, 9.998486 
1.8350294e+3, 1.8459432e+2, -1002794.75, -1215773.0, -73215.05, 0.040657695, -0.07057501, -980053.94, 150914.7, 0.00000018976193, 10.0014925, 9.998668 
1.835027e+3, 1.9459318e+2, -970551.3, -1151696.1, -79007.73, -0.008920031, -0.055961862, -940933.94, 92046.734, 0.0, 10.001051, 9.998648 
1.8350251e+3, 2.0459197e+2, -898143.1, -1030940.7, -66566.91, -0.022596164, -0.053720616, -870520.9, 64471.793, 0.0, 10.000724, 9.998962 
1.8350238e+3, 2.1459077e+2, -827182.4, -946802.0, -52275.91, 0.0097607495, -0.07494646, -807556.75, 29447.262, 0.0, 10.000541, 9.998956 
1.8350218e+3, 2.2458975e+2, -795804.5, -892414.25, -79494.62, 0.01414456, -0.06579932, -751089.2, -12074.868, 0.0, 10.000133, 9.998853 
1.8350191e+3, 2.3458901e+2, -797223.3, -845052.7, -88133.08, -0.013940591, -0.02897577, -729817.94, -88795.1, 0.0, 9.999462, 9.998828 
1.8350169e+3, 2.4458808e+2, -713800.5, -688696.75, -58232.168, -0.029957626, -0.030674541, -641679.06, -98647.58, 0.0, 9.999081, 9.999412 
1.8350154e+3, 2.5458696e+2, -621001.1, -592873.2, -54654.55, -0.034689862, -0.086237416, -550502.1, -105462.28, 0.0, 9.9990425, 9.999415 
1.8350138e+3, 2.6458624e+2, -563637.75, -495411.97, -68178.94, -0.031665787, -0.10910517, -453288.0, -106242.05, 0.0, 9.99868, 9.999587 
1.835012e+3, 2.7458596e+2, -577724.1, -455729.47, -74674.19, -0.013341676, -0.09961228, -420306.3, -171257.45, 0.0, 9.99793, 9.999548 
1.835011e+3, 2.8458568e+2, -484534.63, -314381.8, -22467.846, 0.009985796, -0.09706909, -311465.03, -160413.73, 0.0, 9.9977, 9.999956 
1.8350103e+3, 2.9458565e+2, -336539.47, -186828.31, -16309.732, 0.019486167, -0.10424496, -185072.11, -132020.72, 0.0, 9.998019, 10.000006 
1.8350086e+3, 3.045856e+2, -370202.66, -201795.05, -8382.961, -0.09301308, -0.0986212, -201378.78, -201378.78, 0.0, 9.997559, 9.999789 
1.8350087e+3, 3.1458595e+2, -389670.38, 12065.296, -63218.938, -0.01308586, -0.037493683, 21778.85, 21778.85, 0.0, 9.996459, 10.00179 
1.8450373e+3, 1.24604516e+2, -1262111.1, -1716598.4, -66686.51, 0.06019432, -0.14723961, -1252528.4, 466335.34, 0.107240826, 10.00455, 9.997799 
1.8450375e+3, 1.3460271e+2, -1251645.4, -1701267.3, 70887.43, -0.04033048, -0.08856567, -1240734.1, 380149.53, 0.07238276, 10.003883, 9.997557 
1.8450384e+3, 1.4460088e+2, -1166866.8, -1523799.8, -25065.006, 0.11916364, -0.06414999, -1165115.1, 357787.44, 0.039453857, 10.003302, 9.998372 
1.845036e+3, 1.5459882e+2, -1122848.0, -1455594.8, -19409.086, 0.011993906, -0.11368379, -1121719.6, 303202.4, 0.015523585, 10.002859, 9.998381 
1.845034e+3, 1.6459711e+2, -1086826.9, -1384088.8, -42661.99, -0.026650757, -0.12350313, -1080825.4, 246113.78, 0.003543386, 10.002385, 9.998427 
1.845033e+3, 1.745958e+2, -1062743.6, -1324860.8, -47410.22, 0.038172044, -0.098570146, -1054431.9, 174521.2, 0.00024800916, 10.001884, 9.998402 
1.845031e+3, 1.8459459e+2, -1001083.06, -1223426.0, -64784.414, 0.050875027, -0.06887473, -983584.0, 147382.45, 0.00000025167606, 10.001542, 9.99859 
1.8450283e+3, 1.9459352e+2, -926482.7, -1138873.1, -63901.94, -0.0055212807, -0.037514567, -908738.9, 124239.266, 0.0, 10.001391, 9.998571 
1.8450259e+3, 2.0459233e+2, -860111.75, -1001412.1, -61938.41, -0.021452831, -0.036060788, -836805.5, 98184.65, 0.0, 10.000937, 9.999063 
1.8450242e+3, 2.1459101e+2, -879944.25, -959968.4, -66700.195, 0.012893231, -0.077805676, -842175.3, -5173.5093, 0.0, 10.000128, 9.9990635 
1.8450218e+3, 2.2459005e+2, -848584.4, -912064.1, -86841.47, 0.016114669, -0.07194475, -787864.2, -48852.793, 0.0, 9.999747, 9.998903 
1.8450189e+3, 2.345895e+2, -735611.6, -810432.9, -78113.98, -0.01588898, -0.018197479, -686411.9, -45393.957, 0.0, 9.999866, 9.998871 
1.8450162e+3, 2.445886e+2, -652978.6, -661591.5, -48301.516, -0.030291818, -0.020387342, -608791.94, -65765.43, 0.0, 9.999508, 9.9993925 
1.8450142e+3, 2.5458726e+2, -689190.4, -627259.75, -53109.805, -0.027174845, -0.09698631, -596747.44, -151710.47, 0.0, 9.998584, 9.9994 
1.8450122e+3, 2.6458654e+2, -644885.44, -540004.25, -61354.965, -0.02501363, -0.11556009, -511732.72, -164689.61, 0.0, 9.99815, 9.999535 
1.84501e+3, 2.7458653e+2, -527038.0, -437800.8, -62299.242, -0.016154561, -0.07359551, -405790.34, -156746.39, 0.0, 9.998307, 9.999487 
1.8450087e+3, 2.8458622e+2, -432545.63, -280112.66, -15657.692, 0.005575693, -0.07629965, -278520.94, -127473.99, 0.0, 9.998018, 10.000038 
1.845008e+3, 2.945858e+2, -465339.28, -238910.67, -34270.098, 0.022755614, -0.12895565, -233837.55, -180787.33, 0.0, 9.997094, 10.000092 
1.8450055e+3, 3.0458632e+2, -503436.13, -244110.53, -27959.822, -0.098208465, -0.07882208, -241130.22, -241130.22, 0.0, 9.996555, 9.999979 
1.8450052e+3, 3.1458604e+2, -338263.38, 37556.4, -5799.5415, -0.022427095, -0.1077283, 37645.875, 37645.875, 0.0, 9.996805, 10.0018 
1.8550423e+3, 1.2460607e+2, -1273996.3, -1737656.1, -68489.16, 0.09213287, -0.1173726, -1264091.0, 454756.56, 0.11290866, 10.004549, 9.997656 
1.8550408e+3, 1.3460332e+2, -1263513.5, -1722964.5, 48133.637, -0.09171997, -0.14046559, -1258525.0, 362351.94, 0.07645924, 10.003878, 9.997408 
1.8550417e+3, 1.4460132e+2, -1179080.5, -1546666.1, -41940.16, 0.104437426, -0.11693969, -1174356.0, 348542.0, 0.041922398, 10.003293, 9.998221 
1.8550391e+3, 1.5460002e+2, -1134232.1, -1479507.6, -35057.95, 0.043352254, -0.074956544, -1130708.5, 294202.75, 0.016677836, 10.002862, 9.998217 
1.8550369e+3, 1.6459846e+2, -1094409.8, -1401430.0, -61088.72, 0.010651263, -0.05425494, -1082701.3, 244225.94, 0.0038926734, 10.002391, 9.998306 
1.8550347e+3, 1.7459667e+2, -1070389.0, -1341803.6, -64911.965, 0.028816432, -0.068174556, -1055663.5, 173282.45, 0.000285931, 10.001887, 9.998284 
1.8550323e+3, 1.8459511e+2, -1000345.94, -1222125.1, -70331.195, 0.031188099, -0.06574301, -979923.0, 151039.19, 0.0000003514084, 10.001542, 9.9986 
1.8550298e+3, 1.945939e+2, -924970.7, -1136512.9, -68109.02, 0.010244457, -0.049610727, -904938.9, 128036.02, 0.0, 10.001393, 9.998587 
1.855027e+3, 2.0459278e+2, -868316.3, -1019190.25, -90784.27, -0.009249636, -0.036604248, -825717.2, 109269.22, 0.0, 10.000939, 9.9989395 
1.855024e+3, 2.1459179e+2, -889274.0, -979463.7, -95552.805, -0.024631126, -0.034415364, -828709.56, 8286.215, 0.0, 10.000128, 9.99893 
1.8550211e+3, 2.2459078e+2, -830442.2, -873853.75, -82833.52, -0.026526576, -0.038109638, -766517.75, -27512.367, 0.0, 9.999743, 9.999167 
1.8550187e+3, 2.3458977e+2, -715892.06, -769904.2, -71738.62, -0.012864359, -0.05812799, -666244.6, -25229.83, 0.0, 9.999866, 9.999149 
1.855016e+3, 2.445888e+2, -660139.25, -677004.3, -80812.266, 0.00062063825, -0.0743262, -587320.75, -44297.34, 0.0, 9.99951, 9.999287 
1.8550134e+3, 2.5458798e+2, -697126.2, -644672.6, -86673.1, 0.013724117, -0.09056813, -580345.2, -135315.13, 0.0, 9.998586, 9.999279 
1.8550107e+3, 2.6458746e+2, -645205.8, -540864.44, -56704.125, -0.0016619335, -0.081235565, -515982.3, -168947.7, 0.0, 9.99815, 9.999529 
1.855008e+3, 2.7458724e+2, -526778.8, -437314.25, -53713.37, -0.050612826, -0.057335813, -412145.88, -163108.72, 0.0, 9.998307, 9.999491 
1.8550062e+3, 2.8458676e+2, -444078.8, -305832.8, -48083.36, -0.047971353, -0.07033829, -290753.7, -139711.42, 0.0, 9.998023, 9.99986 
1.855005e+3, 2.9458627e+2, -476362.6, -264873.28, -71912.586, 0.011791932, -0.111018345, -242737.72, -189690.64, 0.0, 9.997106, 9.999909 
1.8550028e+3, 3.0458713e+2, -461430.84, -159051.17, -24941.664, -0.019403048, -0.04767222, -157007.67, -157007.67, 0.0, 9.996566, 10.000558 
1.8550019e+3, 3.145872e+2, -344448.28, 19931.492, 43399.324, -0.026897345, -0.095462956, 25029.234, 25029.234, 0.0, 9.996822, 10.001673 
1.8650472e+3, 1.2460753e+2, -1220567.6, -1708478.1, -57168.426, 0.11354259, -0.11431276, -1213958.8, 504874.94, 0.11882032, 10.0049925, 9.997643 
1.8650447e+3, 1.346047e+2, -1236780.8, -1714450.1, 34615.375, -0.10549486, -0.13858947, -1234285.4, 386578.2, 0.08074838, 10.004118, 9.997349 
1.8650451e+3, 1.4460263e+2, -1165634.0, -1554673.0, -36925.188, 0.112226605, -0.113074556, -1162160.3, 360725.22, 0.044545207, 10.003463, 9.998083 
1.8650422e+3, 1.546013e+2, -1111241.6, -1484223.4, -28271.98, 0.040671833, -0.05952192, -1109110.9, 315788.7, 0.017920034, 10.003096, 9.998071 
1.8650393e+3, 1.6459969e+2, -1045810.7, -1384212.4, -50507.26, 0.005268825, -0.035233364, -1038433.2, 288483.13, 0.004277451, 10.002755, 9.998248 
1.865037e+3, 1.7459777e+2, -992933.56, -1310770.5, -52031.27, 0.02393357, -0.055120915, -984632.6, 244303.2, 0.0003307565, 10.002447, 9.998228 
1.8650341e+3, 1.8459612e+2, -947748.8, -1195800.4, -57261.992, 0.031645555, -0.059621926, -935168.1, 195784.72, 0.00000050835786, 10.0019, 9.998609 
1.8650311e+3, 1.9459485e+2, -969503.4, -1156587.9, -55814.797, 0.021966774, -0.051009104, -954117.0, 78848.87, 0.0, 10.001082, 9.998598 
1.8650278e+3, 2.0459369e+2, -919253.8, -1047259.6, -73332.0, 0.003095011, -0.039462674, -885922.44, 49055.055, 0.0, 10.000607, 9.998907 
1.8650243e+3, 2.1459273e+2, -832684.94, -956332.5, -72541.48, -0.024497433, -0.031622943, -799196.4, 37790.46, 0.0, 10.000535, 9.998893 
1.8650211e+3, 2.2459169e+2, -771547.2, -843004.2, -59706.953, -0.028823582, -0.036641546, -737695.2, 1301.3934, 0.0, 10.000138, 9.999189 
1.8650185e+3, 2.3459062e+2, -787249.0, -801183.25, -68413.07, -0.0077250944, -0.065866716, -725449.2, -84442.85, 0.0, 9.999365, 9.999176 
1.8650153e+3, 2.4458969e+2, -732783.5, -710117.94, -84736.25, 0.005903231, -0.08067356, -635960.0, -92945.46, 0.0, 9.999005, 9.9993 
1.8650122e+3, 2.54589e+2, -617989.25, -605918.5, -81872.29, 0.015185594, -0.083626986, -529859.44, -84839.45, 0.0, 9.999128, 9.999284 
1.8650092e+3, 2.6458848e+2, -557653.06, -503298.13, -47552.715, 0.002129969, -0.07391584, -475704.5, -128679.6, 0.0, 9.998772, 9.999487 
1.8650062e+3, 2.7458808e+2, -599059.1, -475316.8, -48408.875, -0.046104077, -0.06331912, -458629.34, -209600.08, 0.0, 9.997828, 9.99946 
1.8650037e+3, 2.8458765e+2, -562098.5, -367789.1, -43324.68, -0.06415513, -0.06775883, -358566.78, -207532.69, 0.0, 9.997237, 9.999811 
1.8650018e+3, 2.945874e+2, -479064.5, -271628.66, -58520.934, -0.024767071, -0.07987873, -256257.9, -203220.9, 0.0, 9.997112, 9.999858 
1.8650001e+3, 3.0458796e+2, -408398.2, -120634.086, -11641.509, 0.035702173, -0.047905084, -120163.9, -120163.9, 0.0, 9.996875, 10.000672 
1.864998e+3, 3.145882e+2, -423719.13, -39408.906, 30198.883, -0.07491966, -0.09076835, -37050.367, -37050.367, 0.0, 9.996371, 10.00148 
1.8750522e+3, 1.246088e+2, -1220648.9, -1699301.1, -58907.984, 0.10658159, -0.14406393, -1213505.6, 505317.06, 0.1250204, 10.00498, 9.997724 
1.8750489e+3, 1.3460687e+2, -1237728.6, -1712979.3, 3799.9434, -0.08603069, -0.0804225, -1237698.3, 383145.25, 0.08528182, 10.004121, 9.997356 
1.8750489e+3, 1.4460482e+2, -1173428.6, -1570640.9, -50547.273, 0.13808082, -0.048049066, -1167097.1, 355767.97, 0.047340706, 10.003468, 9.997973 
1.8750449e+3, 1.5460263e+2, -1119690.9, -1500534.6, -40122.445, 0.001505155, -0.06855745, -1115509.9, 309377.4, 0.019259468, 10.003092, 9.997961 
1.8750416e+3, 1.646007e+2, -1048049.25, -1387368.6, -61947.113, -0.045431856, -0.0695544, -1037093.75, 289813.22, 0.0047020656, 10.002748, 9.998231 
1.8750392e+3, 1.7459908e+2, -993996.56, -1313300.0, -62471.137, 0.021277267, -0.059039146, -982209.3, 246714.08, 0.0003838387, 10.002447, 9.998211 
1.875036e+3, 1.8459757e+2, -946005.7, -1193277.0, -86672.516, 0.04875132, -0.047981456, -918651.6, 212287.03, 0.000000733184, 10.001904, 9.998625 
1.8750323e+3, 1.9459632e+2, -968518.3, -1154887.5, -85232.61, 0.027790032, -0.04046761, -935417.7, 97533.85, 0.0, 10.001083, 9.9986105 
1.8750286e+3, 2.0459503e+2, -915857.7, -1040440.4, -76309.96, 0.014223474, -0.04458928, -879643.1, 55320.98, 0.0, 10.000607, 9.998954 
1.8750252e+3, 2.1459377e+2, -829568.56, -949950.8, -73502.73, 0.011532873, -0.07004119, -794756.44, 42219.27, 0.0, 10.000534, 9.998937 
1.8750216e+3, 2.2459272e+2, -786482.1, -874436.9, -87048.71, 0.006793125, -0.06794609, -732932.6, 6053.115, 0.0, 10.000139, 9.998973 
1.8750179e+3, 2.3459199e+2, -803067.9, -834091.9, -95874.35, -0.00334028, -0.040878184, -721458.75, -80465.42, 0.0, 9.999364, 9.998951 
1.8750142e+3, 2.4459118e+2, -723822.3, -691816.1, -80408.59, -0.015898002, -0.03923105, -625833.6, -82832.87, 0.0, 9.999005, 9.999427 
1.8750109e+3, 2.5459027e+2, -608377.5, -587428.44, -75353.36, -0.024831245, -0.076025516, -521825.1, -76817.54, 0.0, 9.999133, 9.999409 
1.8750077e+3, 2.645895e+2, -562762.3, -515583.72, -80875.38, -0.015920497, -0.09401741, -454927.63, -107912.79, 0.0, 9.998778, 9.999399 
1.8750043e+3, 2.7458888e+2, -603308.56, -486410.1, -83215.91, -0.005239653, -0.09347118, -443167.63, -194146.22, 0.0, 9.997836, 9.999381 
1.875001e+3, 2.8458878e+2, -556053.2, -355608.4, -50184.02, -0.045628335, -0.06758267, -343746.2, -192722.78, 0.0, 9.997239, 9.999894 
1.8749982e+3, 2.9458913e+2, -475402.2, -261373.31, -60941.098, -0.091445126, -0.027406361, -245237.81, -192217.56, 0.0, 9.997101, 9.999935 
1.8749973e+3, 3.045886e+2, -432854.0, -175519.72, -28250.111, 0.065810554, -0.09115427, -172454.92, -172454.92, 0.0, 9.996887, 10.000292 
1.8749945e+3, 3.1458902e+2, -416792.8, -35342.938, -20778.713, -0.07685221, -0.07263023, -34214.4, -34214.4, 0.0, 9.996417, 10.001485 
1.8850572e+3, 1.2461109e+2, -1190557.0, -1681051.3, -15546.31, 0.105264336, -0.13568257, -1190064.8, 528737.0, 0.13155828, 10.005239, 9.997744 
1.8850534e+3, 1.346092e+2, -1191777.0, -1693819.9, 12424.527, -0.08703486, -0.062724024, -1191469.6, 429351.66, 0.09008896, 10.004511, 9.9973 
1.8850526e+3, 1.4460692e+2, -1124373.1, -1560321.4, -30891.16, 0.1432337, -0.042612396, -1122195.1, 400649.56, 0.05032272, 10.003896, 9.997836 
1.8850482e+3, 1.5460446e+2, -1090081.3, -1502002.4, -24315.078, 0.0032289138, -0.076564275, -1088651.0, 336218.78, 0.02070163, 10.003372, 9.997816 
1.8850444e+3, 1.6460243e+2, -1032872.3, -1375607.0, -43180.22, -0.044318352, -0.08121682, -1027515.9, 299374.47, 0.005169309, 10.002834, 9.998269 
1.8850414e+3, 1.7460093e+2, -1012471.56, -1317284.4, -39834.67, 0.015990844, -0.062402833, -1007351.7, 221553.53, 0.00044631175, 10.002299, 9.998255 
1.885038e+3, 1.8459949e+2, -955007.06, -1199379.3, -68178.78, 0.04256791, -0.047068126, -937272.5, 193647.23, 0.0000010252129, 10.00185, 9.998608 
1.8850335e+3, 1.9459821e+2, -907849.0, -1127910.4, -70939.86, 0.028396612, -0.04064372, -886962.9, 145969.95, 0.0, 10.00151, 9.9985895 
1.8850295e+3, 2.0459686e+2, -856351.7, -1021631.44, -58146.453, 0.018667275, -0.043826614, -837945.25, 97000.695, 0.0, 10.001059, 9.998865 
1.8850258e+3, 2.1459556e+2, -843239.94, -966832.6, -66513.04, 0.01540574, -0.06624988, -814246.56, 22711.906, 0.0, 10.000485, 9.998844 
1.8850218e+3, 2.245944e+2, -795840.2, -880959.1, -83352.836, 0.010589435, -0.067057125, -744810.1, -5840.7197, 0.0, 10.000086, 9.998954 
1.8850175e+3, 2.3459359e+2, -727396.44, -799628.2, -77600.94, 0.0006694818, -0.04852618, -677918.75, -36941.074, 0.0, 9.999893, 9.998931 
1.8850134e+3, 2.4459276e+2, -662441.9, -661957.7, -52424.77, -0.020272566, -0.04549268, -609774.44, -66789.41, 0.0, 9.999427, 9.999428 
1.8850097e+3, 2.5459197e+2, -681321.44, -622740.75, -58134.344, -0.044610072, -0.07171317, -586934.8, -141943.72, 0.0, 9.998634, 9.999406 
1.8850061e+3, 2.645912e+2, -651324.7, -553981.5, -70109.8, -0.023888653, -0.090364054, -517304.9, -170306.48, 0.0, 9.998153, 9.999437 
1.8850026e+3, 2.7459058e+2, -572812.75, -466636.88, -64468.598, 0.021380508, -0.09675232, -436211.2, -187205.98, 0.0, 9.998024, 9.999426 
1.8849985e+3, 2.845906e+2, -508061.22, -318784.22, -23198.148, -0.039564647, -0.06595567, -315982.47, -164976.84, 0.0, 9.997511, 10.000016 
1.8849945e+3, 2.945911e+2, -538927.7, -283000.94, -28272.996, -0.14003211, -0.024420207, -279914.75, -226914.0, 0.0, 9.996627, 10.000014 
1.8849939e+3, 3.0459017e+2, -528770.7, -263287.56, 14529.561, 0.06629809, -0.1080965, -262494.72, -262494.72, 0.0, 9.996405, 9.999924 
1.8849908e+3, 3.14591e+2, -394232.6, 795.606, -34103.418, -0.09415994, -0.016730838, 3718.1863, 3718.1863, 0.0, 9.996472, 10.001701 
1.8950623e+3, 1.2461438e+2, -1198719.5, -1689988.3, -12375.334, 0.09423045, -0.086103976, -1198408.0, 520362.4, 0.13846882, 10.0052395, 9.997675 
1.8950576e+3, 1.346116e+2, -1204054.6, -1713763.3, -10783.984, -0.11249686, -0.08811793, -1203826.5, 416970.97, 0.095186785, 10.004499, 9.997169 
1.8950562e+3, 1.4460886e+2, -1138806.1, -1586160.9, -49581.12, 0.12330756, -0.10036639, -1133376.9, 389448.16, 0.053496286, 10.003881, 9.997667 
1.8950519e+3, 1.5460674e+2, -1103313.8, -1529504.5, -42652.773, 0.041435678, -0.081487894, -1099087.0, 325760.22, 0.022247404, 10.003373, 9.997627 
1.8950477e+3, 1.6460487e+2, -1025683.2, -1361685.9, -62587.758, 0.002525612, -0.065530606, -1014403.5, 312462.97, 0.005680365, 10.002839, 9.9983635 
1.8950437e+3, 1.7460328e+2, -1005221.8, -1302315.5, -58617.992, 0.0057370747, -0.065046296, -994074.44, 234807.36, 0.00051906763, 10.002298, 9.998359 
1.8950395e+3, 1.8460177e+2, -958993.4, -1207379.5, -80771.73, 0.011338122, -0.059140474, -935037.94, 195858.92, 0.0000013718216, 10.001847, 9.998555 
1.895035e+3, 1.9460045e+2, -912002.94, -1136843.1, -82258.6, 0.022070264, -0.051653344, -885122.1, 147788.38, 0.0, 10.00151, 9.998529 
1.8950306e+3, 2.0459917e+2, -872078.44, -1055025.1, -78505.38, 0.013905182, -0.03626684, -843009.4, 91914.3, 0.0, 10.0010605, 9.998635 
1.8950258e+3, 2.1459799e+2, -860654.44, -1002410.2, -86261.77, -0.01527854, -0.01953261, -819886.6, 17049.137, 0.0, 10.000482, 9.998603 
1.8950215e+3, 2.2459668e+2, -783263.5, -854800.3, -90317.484, -0.01885875, -0.033906735, -721889.6, 17058.598, 0.0, 10.000084, 9.999134 
1.8950173e+3, 2.3459533e+2, -714088.0, -772562.7, -83064.766, 0.0025374498, -0.08886816, -655265.25, -14305.083, 0.0, 9.999895, 9.999117 
1.895013e+3, 2.445944e+2, -670880.5, -680477.9, -80417.75, -0.00921839, -0.09875999, -595118.4, -52150.188, 0.0, 9.999431, 9.9993 
1.8950082e+3, 2.54594e+2, -690178.4, -642209.2, -86357.016, -0.046277713, -0.070605814, -576567.94, -131596.45, 0.0, 9.998638, 9.999271 
1.8950042e+3, 2.645935e+2, -638350.44, -528814.2, -74944.445, -0.023608686, -0.06371702, -490758.72, -143782.23, 0.0, 9.998158, 9.999608 
1.8950008e+3, 2.7459306e+2, -559097.75, -441033.78, -69101.13, 0.02871919, -0.073358156, -409182.66, -160201.31, 0.0, 9.9980345, 9.999598 
1.894996e+3, 2.8459302e+2, -496033.84, -294188.13, -55285.34, -0.048412453, -0.063799985, -280037.56, -129056.0, 0.0, 9.997513, 10.000184 
1.894991e+3, 2.9459313e+2, -533848.94, -272854.9, -54195.348, -0.16799513, -0.07379625, -262048.67, -209069.11, 0.0, 9.996628, 10.000084 
1.89499e+3, 3.0459267e+2, -553565.6, -320228.4, 21877.637, 0.02568016, -0.09204768, -318194.9, -318194.9, 0.0, 9.996423, 9.999526 
1.8949878e+3, 3.1459278e+2, -369101.78, 55567.813, -107249.04, -0.04258363, -0.042516794, 81116.23, 81116.23, 0.0, 9.99647, 10.002074 
1.9050676e+3, 1.24617904e+2, -1153295.9, -1680400.3, 19494.377, 0.06737999, -0.0683965, -1152575.9, 566160.06, 0.14573228, 10.00571, 9.997529 
1.9050623e+3, 1.3461484e+2, -1177630.3, -1716014.4, -6625.5547, -0.097405314, -0.08253412, -1177548.8, 443217.16, 0.10055739, 10.004797, 9.99701 
1.9050603e+3, 1.4461175e+2, -1118100.6, -1582974.5, -30472.484, 0.13005824, -0.11990518, -1116111.6, 406685.25, 0.056849293, 10.004077, 9.997594 
1.9050553e+3, 1.5460974e+2, -1087784.5, -1529996.9, -17440.813, 0.035789844, -0.08175363, -1087097.8, 337720.1, 0.023891566, 10.003523, 9.997551 
1.9050506e+3, 1.6460787e+2, -1011101.0, -1363524.5, -37813.016, -0.002227014, -0.05685524, -1007089.5, 319747.5, 0.006234686, 10.00298, 9.998282 
1.9050461e+3, 1.7460617e+2, -986045.56, -1302246.5, -48818.26, 0.011393032, -0.061006278, -978680.1, 250173.8, 0.00060267263, 10.00247, 9.998277 
1.9050415e+3, 1.8460457e+2, -937243.75, -1201425.5, -70842.14, 0.018076053, -0.057696182, -919445.94, 211423.94, 0.0000017786746, 10.002017, 9.998514 
1.9050366e+3, 1.946032e+2, -896775.1, -1134343.5, -71972.805, 0.019208021, -0.04901148, -876671.7, 156212.06, 0.0, 10.001636, 9.998486 
1.9050315e+3, 2.0460188e+2, -857449.8, -1047784.3, -66933.09, 0.007677202, -0.034621436, -836269.1, 98628.06, 0.0, 10.001161, 9.998636 
1.9050264e+3, 2.1460068e+2, -845488.06, -994473.6, -57852.664, -0.017614555, -0.022365335, -825661.6, 11247.838, 0.0, 10.000584, 9.998608 
1.9050217e+3, 2.2459939e+2, -788443.9, -859927.8, -49625.4, -0.02103662, -0.033389747, -763028.94, -24107.164, 0.0, 10.000061, 9.999109 
1.905017e+3, 2.3459812e+2, -758590.2, -797398.5, -59286.54, -0.0046489346, -0.07586577, -715613.1, -74680.13, 0.0, 9.999604, 9.999086 
1.9050121e+3, 2.4459718e+2, -707461.1, -695368.7, -68648.67, -0.016192574, -0.08769928, -632500.5, -89559.19, 0.0, 9.999168, 9.999324 
1.9050069e+3, 2.5459662e+2, -671600.94, -630434.8, -63498.836, -0.04450901, -0.07725785, -584266.4, -139320.44, 0.0, 9.9987545, 9.999295 
1.9050024e+3, 2.645962e+2, -617284.5, -511731.22, -39974.51, -0.025682114, -0.06771172, -498301.1, -151350.97, 0.0, 9.998275, 9.999669 
1.9049984e+3, 2.7459604e+2, -602582.94, -454550.1, -43886.645, 0.00682166, -0.054292522, -442517.28, -193565.36, 0.0, 9.997705, 9.999662 
1.9049934e+3, 2.8459588e+2, -549319.7, -319495.34, -51306.13, -0.057959475, -0.057653457, -308561.88, -157608.78, 0.0, 9.997148, 10.000186 
1.904988e+3, 2.9459554e+2, -537425.56, -283750.6, -59158.973, -0.1229383, -0.11353014, -270632.63, -217676.72, 0.0, 9.996644, 10.000001 
1.9049859e+3, 3.045958e+2, -557929.6, -292866.2, 54789.863, -0.015121555, -0.06799163, -281987.38, -281987.38, 0.0, 9.996262, 9.999794 
1.904984e+3, 3.1459534e+2, -479053.0, 37133.85, -85032.52, -0.020712193, -0.108112924, 50780.64, 50780.64, 0.0, 9.995572, 10.002378 
1.9150728e+3, 1.2462166e+2, -1173004.3, -1707046.8, 11654.065, 0.013150605, -0.07780256, -1172750.0, 545948.5, 0.15324315, 10.005688, 9.997327 
1.9150676e+3, 1.346189e+2, -1192276.8, -1743536.4, -36113.688, -0.048101667, -0.04378995, -1189921.0, 430805.63, 0.106131606, 10.004797, 9.996822 
1.9150648e+3, 1.4461553e+2, -1117325.1, -1580274.5, -49729.938, 0.1566756, -0.09828958, -1112043.4, 410717.1, 0.060347535, 10.004085, 9.997611 
1.9150582e+3, 1.5461338e+2, -1086420.4, -1526059.5, -36836.86, -0.015916618, -0.07863214, -1083355.3, 341427.0, 0.025622223, 10.003523, 9.99758 
1.915053e+3, 1.6461134e+2, -1029729.75, -1401170.8, -56692.63, -0.060301095, -0.05840132, -1021269.5, 305533.34, 0.006830016, 10.002975, 9.998028 
1.9150488e+3, 1.746095e+2, -1004888.56, -1341510.0, -66407.33, 0.030205028, -0.0499623, -992261.6, 236560.33, 0.00069744006, 10.00247, 9.998008 
1.9150439e+3, 1.846078e+2, -939602.5, -1207031.3, -84439.336, 0.058167905, -0.040332034, -915172.9, 215666.38, 0.0000023137907, 10.002019, 9.998476 
1.9150382e+3, 1.9460641e+2, -899368.0, -1139711.1, -84963.664, 0.017218528, -0.031711727, -872366.1, 160487.13, 0.0, 10.001635, 9.99845 
1.9150326e+3, 2.0460497e+2, -841564.7, -1014762.25, -87335.39, -0.0013147726, -0.039090168, -805172.4, 129694.805, 0.0, 10.00116, 9.998864 
1.9150272e+3, 2.1460351e+2, -828920.44, -959972.4, -77774.1, 0.0063200486, -0.074487254, -792748.5, 44131.926, 0.0, 10.000583, 9.998845 
1.9150218e+3, 2.2460246e+2, -804414.56, -893185.25, -65964.81, 0.0016633568, -0.064777136, -769292.56, -30401.809, 0.0, 10.00006, 9.998883 
1.9150165e+3, 2.3460191e+2, -775630.7, -832728.25, -74750.85, -0.022928253, -0.0093605695, -724162.44, -83265.516, 0.0, 9.999603, 9.998845 
1.9150111e+3, 2.4460101e+2, -695188.5, -670592.1, -83205.57, -0.04227706, -0.013419224, -598780.75, -55875.51, 0.0, 9.99917, 9.999494 
1.9150057e+3, 2.5459975e+2, -658329.5, -604331.4, -77434.945, -0.042988304, -0.09210252, -549323.6, -104408.305, 0.0, 9.998759, 9.999473 
1.9150007e+3, 2.645992e+2, -619680.2, -517712.8, -60362.285, -0.033064034, -0.10096376, -489684.22, -142764.23, 0.0, 9.998278, 9.999627 
1.9149956e+3, 2.745995e+2, -604505.3, -460114.2, -64387.973, -0.04702211, -0.038441986, -435572.94, -186655.27, 0.0, 9.99771, 9.999623 
1.9149902e+3, 2.8459918e+2, -559042.3, -342060.63, -69903.305, -0.06854639, -0.049745366, -321490.5, -170569.33, 0.0, 9.997156, 10.000027 
1.9149858e+3, 2.9459822e+2, -551349.56, -317446.63, -72282.414, -0.004695336, -0.1496412, -296912.13, -243981.03, 0.0, 9.996663, 9.999762 
1.9149816e+3, 3.0459958e+2, -485818.06, -147345.1, 37497.71, -0.070763215, -0.02762827, -143240.67, -143240.67, 0.0, 9.996277, 10.000788 
1.9149792e+3, 3.1460038e+2, -482178.56, 35857.01, -121348.766, -0.056141503, -0.05005926, 62873.727, 62873.727, 0.0, 9.995553, 10.0023775 
1.9250785e+3, 1.246254e+2, -1174511.9, -1712963.4, 13184.28, 0.010605138, -0.105832055, -1174189.1, 544472.44, 0.16083011, 10.0057535, 9.997247 
1.9250727e+3, 1.3462308e+2, -1174376.9, -1728406.3, -40970.715, -0.037714325, -0.030610159, -1171363.5, 449322.5, 0.11180453, 10.00494, 9.996857 
1.9250686e+3, 1.4461967e+2, -1088223.9, -1566746.8, -34593.984, 0.13354786, -0.08900153, -1085736.0, 436984.38, 0.06394196, 10.004322, 9.997589 
1.925062e+3, 1.5461746e+2, -1038804.25, -1505793.1, -26960.537, -0.016709557, -0.07240747, -1037252.94, 387489.47, 0.027422296, 10.003879, 9.997547 
1.9250563e+3, 1.6461533e+2, -982644.7, -1392869.6, -45342.62, -0.05163355, -0.054971673, -977692.7, 349071.34, 0.007462403, 10.003367, 9.997895 
1.9250514e+3, 1.7461334e+2, -970050.0, -1340136.6, -47269.656, 0.026239896, -0.047107585, -964107.9, 264676.97, 0.0008036164, 10.002778, 9.997869 
1.9250458e+3, 1.8461156e+2, -917836.7, -1199987.1, -57504.195, 0.04949865, -0.036438175, -906567.06, 224235.88, 0.0000031359323, 10.002184, 9.998444 
1.9250397e+3, 1.9461015e+2, -906663.8, -1146625.8, -58213.383, 0.014795819, -0.02633934, -893287.25, 139529.72, 0.0, 10.0016, 9.998419 
1.9250338e+3, 2.046087e+2, -855682.56, -1026422.0, -70124.5, 0.0014791987, -0.031937826, -830574.06, 104257.11, 0.0, 10.001085, 9.998818 
1.9250278e+3, 2.1460722e+2, -821875.8, -962217.4, -83788.48, 0.011396554, -0.06366045, -782755.94, 54088.973, 0.0, 10.000656, 9.998794 
1.925022e+3, 2.2460616e+2, -790955.7, -876467.8, -73510.414, 0.0031857223, -0.05613673, -748671.4, -9816.239, 0.0, 10.00011, 9.998973 
1.9250159e+3, 2.346056e+2, -794518.44, -831184.56, -57200.16, -0.02929403, -0.012355257, -752785.2, -111924.42, 0.0, 9.999428, 9.99894 
1.9250101e+3, 2.446047e+2, -726498.8, -680774.7, -48180.43, -0.043945264, -0.021998627, -650307.3, -107438.625, 0.0, 9.998935, 9.999536 
1.9250046e+3, 2.5460356e+2, -670155.1, -605937.75, -54027.426, -0.028894337, -0.094275, -575197.94, -130319.945, 0.0, 9.998662, 9.999509 
1.9249989e+3, 2.6460305e+2, -627519.2, -518409.72, -48417.445, -0.035521816, -0.099485874, -500022.94, -153140.86, 0.0, 9.998213, 9.999653 
1.9249927e+3, 2.7460328e+2, -625671.4, -467271.7, -48382.77, -0.091289535, -0.045609005, -453662.53, -204782.27, 0.0, 9.997555, 9.999648 
1.9249873e+3, 2.84603e+2, -575765.25, -347581.88, -38794.01, -0.080196545, -0.05881597, -341166.78, -190282.98, 0.0, 9.997032, 10.000049 
1.9249833e+3, 2.9460233e+2, -552678.9, -315319.53, -24050.014, 0.07508526, -0.13076852, -312907.25, -260016.25, 0.0, 9.996643, 9.999784 
1.924977e+3, 3.0460376e+2, -495507.97, -101392.234, 67288.48, -0.13877374, -0.026329145, -90220.56, -90220.56, 0.0, 9.9959955, 10.001238 
1.9249749e+3, 3.1460467e+2, -594354.56, -47511.633, -115549.18, -0.008624546, -0.079979114, -24098.277, -24098.277, 0.0, 9.994912, 10.002112 
1.9350848e+3, 1.24629065e+2, -1176781.1, -1706939.6, -386.58197, 0.053556, -0.15478201, -1176780.9, 541844.94, 0.16833848, 10.005748, 9.997301 
1.9350773e+3, 1.3462736e+2, -1163359.6, -1694686.6, -66209.29, -0.07057408, -0.0421307, -1155233.5, 465410.66, 0.11748182, 10.004933, 9.997096 
1.9350722e+3, 1.4462413e+2, -1095011.8, -1576985.5, -49471.41, 0.057251263, -0.0920344, -1089986.1, 432690.72, 0.06758784, 10.004316, 9.997522 
1.9350663e+3, 1.5462197e+2, -1045547.0, -1518491.8, -41382.84, 0.028938033, -0.06185129, -1041953.3, 382745.4, 0.029275542, 10.003878, 9.99746 
1.9350603e+3, 1.6461979e+2, -984081.7, -1396906.1, -66541.06, 0.017578132, -0.043844525, -973621.3, 353099.6, 0.008127708, 10.003371, 9.997867 
1.9350539e+3, 1.7461762e+2, -971740.1, -1344252.4, -68136.4, -0.0027667605, -0.05195303, -959668.5, 269074.63, 0.00092162896, 10.002779, 9.99784 
1.9350477e+3, 1.8461575e+2, -919742.2, -1203787.3, -78606.21, -0.008836793, -0.04713363, -899439.94, 231321.9, 0.0000044945964, 10.002183, 9.998419 
1.9350414e+3, 1.9461435e+2, -907880.0, -1149288.3, -78318.914, 0.010225748, -0.033638444, -884697.6, 148078.13, 0.0, 10.001599, 9.998402 
1.9350348e+3, 2.0461297e+2, -879283.4, -1075637.1, -85342.66, 0.013391732, -0.013023681, -847375.4, 87414.555, 0.0, 10.001084, 9.998483 
1.9350284e+3, 2.1461172e+2, -847069.0, -1013817.5, -97765.51, -0.004594124, 0.011005941, -801954.5, 34849.176, 0.0, 10.000652, 9.998443 
1.9350219e+3, 2.2461042e+2, -762392.75, -817209.44, -97618.47, -0.01784046, -0.007195175, -688407.94, 50407.777, 0.0, 10.000109, 9.999381 
1.9350153e+3, 2.3460908e+2, -763710.7, -767435.06, -80841.15, -0.026346393, -0.08447403, -684710.3, -43884.94, 0.0, 9.999428, 9.999378 
1.9350092e+3, 2.4460818e+2, -733105.7, -695328.44, -58030.293, -0.02316627, -0.112310566, -653190.06, -110357.73, 0.0, 9.998937, 9.999436 
1.9350034e+3, 2.5460792e+2, -676820.44, -621403.9, -62898.453, -0.0039865896, -0.08455013, -580381.06, -135546.11, 0.0, 9.998668, 9.999401 
1.9349971e+3, 2.6460767e+2, -620248.0, -504430.72, -72040.21, -0.03449572, -0.065340124, -469909.9, -123072.39, 0.0, 9.998217, 9.999747 
1.9349898e+3, 2.7460733e+2, -619839.9, -455812.8, -71673.46, -0.13192166, -0.07580802, -428907.56, -180066.86, 0.0, 9.997556, 9.999726 
1.9349842e+3, 2.8460723e+2, -560020.8, -317507.2, -53423.676, -0.09689472, -0.082995735, -306260.03, -155418.22, 0.0, 9.997041, 10.000252 
1.9349803e+3, 2.9460782e+2, -528322.4, -270641.47, -36451.18, 0.11568515, -0.052534744, -265584.38, -212748.22, 0.0, 9.996666, 10.000082 
1.9349723e+3, 3.0460817e+2, -498154.7, -108745.99, 30927.855, -0.22101873, -0.0743105, -106304.92, -106304.92, 0.0, 9.996003, 10.0011835 
1.9349697e+3, 3.1460908e+2, -605199.06, -75558.15, -64852.055, -0.016951341, -0.11471547, -67732.93, -67732.93, 0.0, 9.994926, 10.001918 
1.9450903e+3, 1.24634124e+2, -1229834.8, -1730257.6, 32046.94, 0.06726822, -0.13434063, -1227790.9, 490786.8, 0.17571254, 10.005335, 9.997326 
1.9450824e+3, 1.3463245e+2, -1133048.6, -1651417.1, -39827.867, -0.058993097, -0.040439483, -1130006.4, 490588.6, 0.1231214, 10.005086, 9.997316 
1.9450764e+3, 1.4462925e+2, -1043894.94, -1554417.9, -21270.76, 0.026142264, -0.0966223, -1043010.2, 479616.9, 0.07126008, 10.004728, 9.997477 
1.9450703e+3, 1.5462713e+2, -1014801.94, -1508565.3, -13672.1455, 0.030554391, -0.055833805, -1014423.7, 410224.94, 0.031171337, 10.004128, 9.997407 
1.9450638e+3, 1.6462494e+2, -970009.7, -1389806.9, -39753.176, 0.0319294, -0.036150265, -966278.44, 360392.4, 0.008822963, 10.003474, 9.997864 
1.9450568e+3, 1.7462268e+2, -969392.94, -1343256.3, -40167.23, -0.0031114449, -0.052180495, -965126.1, 263567.28, 0.0010518691, 10.002798, 9.997837 
1.9450496e+3, 1.8462071e+2, -915282.25, -1217869.4, -46872.492, -0.014263599, -0.051278394, -908187.75, 222525.34, 0.0000066792695, 10.002285, 9.998272 
1.945043e+3, 1.9461916e+2, -866732.06, -1146632.8, -57507.06, 0.010898405, -0.03649543, -855377.56, 177351.05, 0.0, 10.001958, 9.998246 
1.9450362e+3, 2.0461774e+2, -835996.8, -1058397.5, -64965.527, 0.017576862, -0.0115613025, -818410.4, 116333.31, 0.0, 10.001398, 9.998448 
1.945029e+3, 2.1461654e+2, -859968.9, -1023546.94, -54742.36, -0.0009630547, 0.019815128, -843339.56, -6582.1343, 0.0, 10.000579, 9.99841 
1.9450219e+3, 2.2461523e+2, -778298.8, -814170.4, -49508.336, -0.015095042, 0.00032539613, -743577.5, -4808.314, 0.0, 9.999955, 9.999475 
1.9450149e+3, 2.346139e+2, -737491.8, -743710.25, -59060.74, -0.023068054, -0.08807004, -681458.5, -40680.227, 0.0, 9.999562, 9.999475 
1.9450082e+3, 2.4461302e+2, -724321.56, -695581.06, -44727.215, -0.01967849, -0.115851, -662972.3, -120187.45, 0.0, 9.99902, 9.999393 
1.945002e+3, 2.5461283e+2, -732775.1, -653704.4, -44654.934, -0.0044618845, -0.07557651, -633598.25, -188810.9, 0.0, 9.998308, 9.9993515 
1.944995e+3, 2.6461262e+2, -680435.4, -518926.25, -51775.63, -0.04012315, -0.0567944, -503753.7, -156964.02, 0.0, 9.997743, 9.999875 
1.9449873e+3, 2.7461225e+2, -644558.6, -453950.7, -49489.586, -0.13250412, -0.08353653, -441867.22, -193074.56, 0.0, 9.99733, 9.999847 
1.9449812e+3, 2.846122e+2, -574647.44, -319319.03, -29291.523, -0.08835059, -0.09088082, -316001.78, -165209.13, 0.0, 9.996921, 10.000297 
1.9449769e+3, 2.946131e+2, -544638.75, -260911.55, -25753.887, 0.10948861, -0.03395871, -258592.83, -205809.08, 0.0, 9.996482, 10.000236 
1.9449678e+3, 3.0461305e+2, -555773.94, -135660.2, 10442.033, -0.25275442, -0.107095994, -135400.83, -135400.83, 0.0, 9.995612, 10.0011835 
1.944965e+3, 3.1461495e+2, -667128.44, -77066.75, 9622.225, 0.037787784, -0.039021183, -76909.88, -76909.88, 0.0, 9.99438, 10.0021715 
1.9550954e+3, 1.2464047e+2, -1236090.6, -1735091.8, 26429.459, 0.037146628, -0.049532726, -1234694.8, 483823.44, 0.18300885, 10.005334, 9.997293 
1.9550881e+3, 1.3463831e+2, -1124726.5, -1623676.3, -44582.457, -0.0076539535, -0.024497041, -1120774.3, 499764.6, 0.12874828, 10.005083, 9.997509 
1.9550812e+3, 1.4463498e+2, -1048317.75, -1560879.8, -40718.063, 0.03492482, -0.10149248, -1045103.25, 477468.25, 0.074963965, 10.004729, 9.997434 
1.9550739e+3, 1.546329e+2, -1018390.06, -1514538.6, -34862.594, -0.014099606, -0.053787336, -1015952.4, 408640.3, 0.0331087, 10.004128, 9.997366 
1.9550669e+3, 1.6463071e+2, -968471.25, -1386619.8, -64352.28, -0.009969736, -0.03142346, -958791.6, 367822.84, 0.009546925, 10.003475, 9.997887 
1.9550598e+3, 1.7462847e+2, -967152.1, -1339835.1, -63951.61, 0.023000335, -0.04812366, -956483.56, 272152.84, 0.0011943025, 10.002802, 9.997859 
1.9550525e+3, 1.8462637e+2, -934644.06, -1258605.0, -58253.832, 0.028709024, -0.04820445, -924487.44, 206169.92, 0.000009907366, 10.002286, 9.997993 
1.9550452e+3, 1.9462453e+2, -887712.4, -1189975.9, -67774.375, 0.014262336, -0.033614, -873211.5, 159464.81, 0.0, 10.001955, 9.997951 
1.9550376e+3, 2.0462288e+2, -818288.2, -1021608.4, -93871.914, 0.0124133015, -0.027013112, -781576.7, 153116.5, 0.0, 10.001397, 9.998702 
1.9550298e+3, 2.1462153e+2, -840603.4, -983282.0, -83582.93, 0.020257676, -0.037202623, -802054.56, 34652.51, 0.0, 10.000578, 9.998688 
1.955022e+3, 2.2462052e+2, -793789.1, -846845.44, -63732.13, 0.009159421, -0.033520237, -751284.44, -12567.894, 0.0, 9.999955, 9.999251 
1.9550145e+3, 2.346199e+2, -754460.44, -779087.94, -72017.06, -0.021674553, -0.02275285, -693711.94, -52991.5, 0.0, 9.999561, 9.999233 
1.955007e+3, 2.4461912e+2, -723484.4, -694568.75, -70096.46, -0.035774954, -0.032704085, -637454.6, -94727.38, 0.0, 9.999022, 9.999399 
1.955e+3, 2.546182e+2, -731854.06, -652647.75, -69900.92, -0.033888247, -0.06657904, -611910.7, -167174.55, 0.0, 9.998311, 9.999357 
1.9549926e+3, 2.646178e+2, -669459.2, -497037.88, -67244.516, -0.054561596, -0.07246909, -473913.72, -127174.24, 0.0, 9.997745, 10.000026 
1.954985e+3, 2.7461785e+2, -631958.75, -431394.7, -63829.633, -0.094428845, -0.07130218, -412804.06, -164066.52, 0.0, 9.997343, 9.999997 
1.9549784e+3, 2.846178e+2, -581136.25, -336127.34, -46402.637, -0.057978064, -0.08414149, -327633.53, -176895.78, 0.0, 9.996933, 10.000175 
1.9549727e+3, 2.9461813e+2, -544957.75, -263430.25, -42953.043, 0.04525365, -0.07197069, -257022.67, -204287.86, 0.0, 9.996488, 10.000217 
1.9549637e+3, 3.0461827e+2, -556322.8, -135427.88, -39742.41, -0.22701451, -0.12835206, -131708.13, -131708.13, 0.0, 9.995608, 10.001185 
1.9549595e+3, 3.1461984e+2, -611014.44, 25872.625, 45868.35, 0.051853042, -0.08538979, 29159.086, 29159.086, 0.0, 9.994424, 10.002865 
1.965101e+3, 1.246472e+2, -1138453.0, -1707267.5, 66074.48, 0.020654075, -0.028255112, -1130878.5, 587574.5, 0.19033293, 10.0063305, 9.997019 
1.9650935e+3, 1.346448e+2, -1095321.0, -1617434.6, -20042.19, 0.017474283, -0.014366416, -1094552.8, 525923.7, 0.13442867, 10.005397, 9.997398 
1.9650859e+3, 1.4464158e+2, -1050627.5, -1558181.3, -19426.945, 0.029381592, -0.07757792, -1049885.0, 472623.16, 0.078729294, 10.004723, 9.997451 
1.9650783e+3, 1.5463929e+2, -996092.7, -1500856.0, -11677.192, -0.010982729, -0.051126488, -995822.7, 428707.88, 0.035094656, 10.004285, 9.997384 
1.9650707e+3, 1.6463703e+2, -926156.8, -1380454.8, -44696.98, 0.000113917966, -0.031904623, -921800.94, 404752.1, 0.010298599, 10.003835, 9.997755 
1.9650629e+3, 1.7463483e+2, -892182.44, -1318420.8, -57650.027, 0.03509846, -0.02991068, -884522.75, 344052.25, 0.0013479488, 10.003385, 9.997724 
1.965055e+3, 1.8463264e+2, -872691.2, -1225568.5, -50273.375, 0.039005566, -0.031498246, -865668.6, 264928.0, 0.000014253208, 10.002701, 9.998018 
1.965047e+3, 1.946306e+2, -915877.3, -1200139.3, -36746.06, 0.018353296, -0.04054746, -911204.06, 121412.73, 0.0, 10.00175, 9.997978 
1.9650388e+3, 2.0462888e+2, -863924.56, -1042076.2, -55902.39, 0.013828022, -0.042354565, -847835.8, 86798.09, 0.0, 10.001079, 9.9987135 
1.9650306e+3, 2.1462762e+2, -817269.7, -970753.06, -66585.78, 0.023132987, -0.0448195, -792409.44, 44237.64, 0.0, 10.000734, 9.998697 
1.9650222e+3, 2.2462666e+2, -761385.6, -843125.6, -50345.07, 0.012616515, -0.030523831, -737409.75, 1246.6563, 0.0, 10.000232, 9.999143 
1.965014e+3, 2.346261e+2, -763788.94, -796482.25, -50159.063, -0.018795747, -0.004878094, -727380.06, -86719.21, 0.0, 9.999554, 9.999117 
1.9650061e+3, 2.446253e+2, -728030.25, -685986.56, -42600.64, -0.036068343, -0.011214126, -659503.4, -116835.695, 0.0, 9.998944, 9.999495 
1.9649982e+3, 2.546244e+2, -711399.44, -630897.0, -36729.055, -0.039975677, -0.05522877, -616658.0, -171982.05, 0.0, 9.998403, 9.99946 
1.9649903e+3, 2.6462397e+2, -665959.5, -497958.53, -33432.887, -0.05558355, -0.068776466, -491549.72, -144870.31, 0.0, 9.997784, 9.999999 
1.9649825e+3, 2.74624e+2, -676615.1, -456302.28, -44594.695, -0.075348146, -0.06757701, -447617.97, -198940.06, 0.0, 9.997055, 9.999963 
1.9649751e+3, 2.8462395e+2, -654865.7, -364487.1, -24890.54, -0.051079787, -0.07949588, -362368.97, -211691.16, 0.0, 9.996398, 10.000237 
1.9649684e+3, 2.946242e+2, -630293.8, -289347.66, -7558.9487, -0.002583335, -0.080444634, -289180.16, -236505.06, 0.0, 9.99584, 10.000349 
1.9649597e+3, 3.046245e+2, -612874.94, -186840.14, -22676.078, -0.16526496, -0.12038012, -185636.58, -185636.58, 0.0, 9.995329, 10.000965 
1.9649534e+3, 3.1462568e+2, -536372.5, 64891.406, 81707.79, -0.025825271, -0.08979772, 75797.15, 75797.15, 0.0, 9.994919, 10.002896 
1.9751073e+3, 1.2465416e+2, -1170887.9, -1775676.5, 32357.875, 0.012088407, -0.07668887, -1169161.6, 549222.2, 0.19776708, 10.0063305, 9.996535 
1.9750987e+3, 1.3465191e+2, -1122873.3, -1674182.0, -48708.645, 0.011684785, -0.007118158, -1118602.9, 501805.16, 0.14021894, 10.005391, 9.997013 
1.9750905e+3, 1.4464898e+2, -1049360.9, -1551460.5, -32930.92, 0.0034797704, -0.023033382, -1047210.25, 475227.1, 0.08258405, 10.004722, 9.9974985 
1.975083e+3, 1.5464628e+2, -992297.2, -1491945.8, -25624.922, 0.035927854, -0.047320474, -990986.44, 433476.3, 0.037136063, 10.00429, 9.997443 
1.975075e+3, 1.646438e+2, -946436.44, -1423403.8, -61121.434, 0.05695756, -0.03625268, -938728.56, 387758.53, 0.011076195, 10.003838, 9.99746 
1.9750662e+3, 1.7464167e+2, -913735.8, -1363574.6, -72899.84, 0.03134883, 0.0024680903, -902216.8, 326293.13, 0.0015109085, 10.003386, 9.997415 
1.9750574e+3, 1.8463947e+2, -850146.6, -1179026.0, -84106.67, 0.015382992, -0.0013827588, -829885.6, 300646.03, 0.000019590076, 10.002701, 9.998338 
1.9750488e+3, 1.946373e+2, -891288.25, -1149859.1, -70747.32, 0.021187142, -0.057725236, -873196.94, 159354.1, 0.0, 10.001752, 9.998323 
1.97504e+3, 2.0463566e+2, -880018.56, -1076132.5, -68352.33, 0.019555999, -0.058119938, -858546.44, 76020.46, 0.0, 10.0010805, 9.998481 
1.975031e+3, 2.1463472e+2, -835663.44, -1008591.5, -77162.78, 0.0056331223, -0.0022415249, -806239.06, 30339.03, 0.0, 10.000731, 9.99844 
1.9750223e+3, 2.246336e+2, -761914.6, -844464.44, -73975.02, -0.0069699567, 0.009808243, -718478.75, 20110.813, 0.0, 10.000231, 9.999134 
1.9750136e+3, 2.3463233e+2, -763981.94, -797389.25, -73673.445, -0.0166199, -0.03482124, -705142.3, -64541.766, 0.0, 9.999555, 9.99911 
1.9750051e+3, 2.4463153e+2, -714886.9, -659809.75, -62511.207, -0.022035012, -0.05086806, -619040.06, -76432.92, 0.0, 9.998947, 9.999675 
1.9749968e+3, 2.5463134e+2, -697309.4, -603770.9, -56150.617, -0.026175154, -0.041977752, -577463.06, -132855.08, 0.0, 9.99841, 9.999645 
1.9749883e+3, 2.6463097e+2, -679388.56, -527815.94, -60778.6, -0.046298478, -0.0467233, -506454.9, -159844.1, 0.0, 9.997791, 9.99979 
1.9749795e+3, 2.7463052e+2, -691811.94, -489827.94, -71940.41, -0.0771377, -0.07253834, -466824.75, -218209.83, 0.0, 9.997061, 9.99973 
1.9749713e+3, 2.8463057e+2, -637601.9, -329715.3, -47054.43, -0.07092482, -0.07608659, -322684.5, -172070.45, 0.0, 9.996402, 10.000475 
1.9749638e+3, 2.946312e+2, -609174.7, -250004.64, -28127.113, -0.04364761, -0.061923176, -247815.31, -195209.02, 0.0, 9.995858, 10.000612 
1.9749561e+3, 3.0463162e+2, -645951.5, -259718.78, -44203.52, -0.062079616, -0.08028493, -254724.38, -254724.38, 0.0, 9.995346, 10.000457 
1.974948e+3, 3.1463236e+2, -594730.5, -61391.82, 23836.762, -0.06082969, -0.039332893, -60328.59, -60328.59, 0.0, 9.994939, 10.00202 
1.9851136e+3, 1.24662384e+2, -1208266.0, -1817256.5, 46250.113, 0.026326036, -0.06276726, -1204773.6, 513529.47, 0.20533167, 10.006151, 9.996338 
1.9851047e+3, 1.3465954e+2, -1064985.3, -1664642.1, -16694.31, 0.021700263, -0.030454028, -1064520.9, 555812.75, 0.14612402, 10.005993, 9.996786 
1.9850953e+3, 1.4465672e+2, -946272.25, -1506445.0, -783.7535, -0.014777101, -0.019349027, -946271.2, 576090.94, 0.086525895, 10.005552, 9.9974165 
1.9850877e+3, 1.5465401e+2, -945110.2, -1475386.3, -4666.62, 0.052519042, -0.03594336, -945069.1, 479318.3, 0.039229237, 10.00467, 9.997372 
1.9850792e+3, 1.6465144e+2, -938235.56, -1423746.9, -30022.021, 0.079045884, -0.028483558, -936386.1, 390026.44, 0.011876548, 10.0039215, 9.997414 
1.9850695e+3, 1.7464909e+2, -922854.6, -1373047.1, -23347.564, 0.023500795, -0.0058214967, -921647.06, 306790.25, 0.0016810263, 10.003348, 9.997366 
1.9850601e+3, 1.8464687e+2, -846907.4, -1181113.4, -46751.813, 0.0016379828, -0.0074342038, -840490.5, 289968.84, 0.000025644316, 10.00274, 9.998304 
1.9850507e+3, 1.946449e+2, -842796.94, -1129987.0, -62730.83, 0.028101394, -0.0412024, -829692.6, 202784.72, 0.0, 10.002102, 9.99829 
1.9850414e+3, 2.046433e+2, -825769.2, -1050242.3, -56197.03, 0.02986051, -0.036024805, -812486.2, 122006.695, 0.0, 10.001456, 9.998477 
1.9850317e+3, 2.1464223e+2, -825985.75, -1004259.2, -47382.453, -0.0006531992, 0.006507872, -814174.7, 22330.28, 0.0, 10.000801, 9.998435 
1.9850223e+3, 2.24641e+2, -774428.44, -847487.56, -39062.727, -0.013701109, 0.0076922663, -757476.2, -18959.07, 0.0, 10.000133, 9.99916 
1.9850133e+3, 2.3463967e+2, -778322.0, -800882.5, -36827.246, -0.0037499634, -0.044468995, -751086.1, -110557.555, 0.0, 9.999444, 9.999139 
1.9850041e+3, 2.4463893e+2, -742479.56, -675077.8, -27463.248, -0.007240225, -0.056032486, -665304.8, -122770.0, 0.0, 9.998771, 9.999653 
1.984995e+3, 2.5463885e+2, -740471.56, -627126.75, -36728.402, -0.029887097, -0.032394323, -616265.94, -171731.13, 0.0, 9.998127, 9.9996195 
1.9849858e+3, 2.6463848e+2, -708071.2, -533449.5, -39711.633, -0.052408453, -0.03941132, -524842.7, -178305.02, 0.0, 9.99756, 9.999864 
1.9849767e+3, 2.74638e+2, -689187.8, -480024.63, -30122.715, -0.06606709, -0.076019935, -475772.9, -227231.0, 0.0, 9.9970455, 9.999804 
1.9849677e+3, 2.846382e+2, -630592.56, -323722.3, -64.35579, -0.06837248, -0.06891409, -323722.28, -173182.73, 0.0, 9.99644, 10.000497 
1.9849594e+3, 2.94639e+2, -630538.25, -264026.13, 316.06116, -0.07318498, -0.043341704, -264025.84, -211495.05, 0.0, 9.995729, 10.000577 
1.9849513e+3, 3.0463916e+2, -690075.25, -287090.94, -9387.938, -0.047273096, -0.076486655, -286872.34, -286872.34, 0.0, 9.995069, 10.000402 
1.984942e+3, 3.146398e+2, -654212.9, -75159.38, 55587.266, -0.12926644, -0.044000797, -69871.48, -69871.48, 0.0, 9.994469, 10.002151 
1.99512e+3, 1.2467175e+2, -1214049.1, -1815645.8, 29428.238, 0.047286242, 0.0058403937, -1212613.0, 505598.94, 0.21299794, 10.006134, 9.996354 
1.9951108e+3, 1.3466763e+2, -1074882.8, -1680237.4, -18816.615, 0.04264901, -0.081718706, -1074298.4, 545955.3, 0.15210845, 10.005997, 9.996676 
1.9951007e+3, 1.4466473e+2, -960258.6, -1534609.3, -29250.57, -0.029745212, -0.06184894, -958772.8, 563510.0, 0.09052857, 10.005564, 9.9972105 
1.9950922e+3, 1.5466242e+2, -959116.0, -1504388.3, -35674.207, 0.03773317, -0.017358884, -956791.94, 467513.34, 0.041362833, 10.004672, 9.997173 
1.995083e+3, 1.6465986e+2, -926361.2, -1397889.5, -50725.316, 0.06387567, -0.008853128, -920966.06, 405364.25, 0.01269671, 10.00392, 9.997593 
1.9950728e+3, 1.7465703e+2, -909175.3, -1344909.0, -43072.836, 0.008946168, -0.05331565, -904958.3, 323399.6, 0.0018570487, 10.003349, 9.99756 
1.9950627e+3, 1.8465479e+2, -873758.7, -1237245.5, -69554.76, -0.0055457484, -0.04848031, -860903.75, 269476.78, 0.000032100925, 10.00274, 9.99792 
1.995053e+3, 1.946533e+2, -871473.9, -1189916.3, -84423.16, 0.037325412, 0.009014152, -850476.7, 181919.83, 0.0, 10.002102, 9.99788 
1.995043e+3, 2.046517e+2, -811096.6, -1020430.4, -79457.77, 0.043028075, 0.023665845, -784353.06, 150059.69, 0.0, 10.001457, 9.998681 
1.9950326e+3, 2.1465e+2, -810249.44, -971657.7, -69857.12, 0.0015643337, -0.018130058, -784214.75, 52213.926, 0.0, 10.0008, 9.99866 
1.9950226e+3, 2.2464873e+2, -769153.7, -837156.7, -63855.61, -0.009216658, -0.03657883, -730811.3, 7628.94, 0.0, 10.0001335, 9.999231 
1.9950129e+3, 2.3464802e+2, -773912.8, -792023.4, -60981.297, 0.017455613, -0.033426527, -721318.1, -80872.19, 0.0, 9.999443, 9.999201 
1.995003e+3, 2.4464738e+2, -758368.7, -709133.4, -51209.582, 0.00550908, -0.02678991, -676931.56, -134479.77, 0.0, 9.998774, 9.999418 
1.994993e+3, 2.546468e+2, -756284.1, -662027.0, -59579.36, -0.053632986, -0.027814755, -633189.8, -188732.19, 0.0, 9.998135, 9.999377 
1.9949831e+3, 2.6464638e+2, -682749.94, -482963.1, -59388.156, -0.07444391, -0.046009984, -466642.7, -120181.61, 0.0, 9.997566, 10.000207 
1.9949739e+3, 2.746463e+2, -662044.9, -427718.16, -49475.285, -0.047258124, -0.0774337, -417700.3, -169240.25, 0.0, 9.997061, 10.000157 
1.9949645e+3, 2.846467e+2, -642374.56, -350766.75, -27788.47, -0.047564484, -0.059486695, -348142.3, -197686.5, 0.0, 9.996451, 10.000306 
1.9949548e+3, 2.9464734e+2, -653090.9, -312305.22, -27146.79, -0.09231284, -0.029473243, -310156.25, -257705.94, 0.0, 9.995734, 10.000243 
1.9949457e+3, 3.0464703e+2, -658256.1, -224677.69, -32970.348, -0.12914018, -0.10548422, -222184.88, -222184.88, 0.0, 9.995082, 10.000827 
1.994937e+3, 3.1464857e+2, -578058.8, 83618.5, -19160.234, -0.07323818, -0.04217015, 84172.86, 84172.86, 0.0, 9.994474, 10.003234 
2.0051263e+3, 1.2468085e+2, -1123580.6, -1726675.9, 16375.074, 0.032030977, 0.017342279, -1123136.3, 594987.4, 0.22077191, 10.006846, 9.996621 
2.0051171e+3, 1.3467662e+2, -1076842.6, -1671090.4, -6617.4263, 0.07330269, -0.08754124, -1076769.0, 543396.25, 0.15816468, 10.0059805, 9.996745 
2.0051064e+3, 1.446738e+2, -999588.06, -1573089.3, -13054.549, -0.014960664, -0.054370437, -999291.06, 522902.25, 0.094582655, 10.005372, 9.997035 
2.0050968e+3, 1.5467131e+2, -927406.75, -1508592.0, -21193.148, 0.013445156, -0.009293015, -926634.94, 497583.8, 0.04353205, 10.004998, 9.996986 
2.0050868e+3, 1.6466865e+2, -861995.1, -1361264.8, -44416.32, 0.03652409, -0.0021421069, -858074.5, 468170.34, 0.013535736, 10.00435, 9.997638 
2.0050763e+3, 1.7466582e+2, -897570.7, -1333417.1, -48539.85, 0.020576093, -0.052490253, -892230.25, 336041.44, 0.0020388814, 10.003407, 9.99761 
2.0050657e+3, 1.8466356e+2, -887067.75, -1251024.9, -61948.46, 0.015984856, -0.048597235, -876812.56, 253481.78, 0.00003871262, 10.002684, 9.997851 
2.0050551e+3, 1.9466206e+2, -862285.25, -1193450.0, -52885.535, 0.034628388, 0.0154827135, -854044.75, 178266.42, 0.0, 10.002202, 9.997806 
2.0050444e+3, 2.0466043e+2, -793768.2, -1004823.0, -46402.176, 0.033446707, 0.028472207, -784016.8, 150310.84, 0.0, 10.001547, 9.998744 
2.0050333e+3, 2.1465868e+2, -820742.2, -969512.25, -49655.73, 0.0057440447, -0.026057852, -805691.06, 30652.412, 0.0, 10.000698, 9.998724 
2.0050228e+3, 2.2465745e+2, -786256.4, -849010.0, -46121.176, -0.0043914174, -0.043021165, -761850.9, -23496.273, 0.0, 10.000033, 9.999198 
2.0050123e+3, 2.3465686e+2, -755294.44, -787717.44, -52110.855, 0.0076156263, -0.022033568, -716931.6, -76572.06, 0.0, 9.999592, 9.999159 
2.0050019e+3, 2.4465619e+2, -730418.06, -694120.3, -43142.953, -0.0020426984, -0.016556492, -665464.3, -123098.35, 0.0, 9.998959, 9.999433 
2.0049912e+3, 2.5465545e+2, -761813.0, -662156.4, -32668.646, -0.03802488, -0.03764417, -652402.0, -208028.52, 0.0, 9.998087, 9.999398 
2.0049807e+3, 2.646551e+2, -717219.94, -490259.97, -25589.8, -0.059000876, -0.050997052, -487410.47, -141034.55, 0.0, 9.997293, 10.000287 
2.0049706e+3, 2.746554e+2, -721634.25, -446830.2, -35983.14, -0.057235714, -0.054842025, -442196.63, -193825.11, 0.0, 9.996613, 10.00024 
2.0049606e+3, 2.8465572e+2, -695373.25, -363522.28, -14561.375, -0.057044435, -0.04919039, -362884.56, -212517.13, 0.0, 9.996035, 10.000419 
2.0049506e+3, 2.9465607e+2, -692018.5, -327483.47, 6883.4297, -0.072233796, -0.05980272, -327353.53, -274988.66, 0.0, 9.995454, 10.000273 
2.00494e+3, 3.0465624e+2, -705548.25, -222782.61, 9460.689, -0.16897637, -0.099878475, -222597.28, -222597.28, 0.0, 9.99465, 10.001048 
2.0049316e+3, 3.146575e+2, -654225.9, 91884.53, -4674.1563, -0.028112013, -0.09254657, 91913.81, 91913.81, 0.0, 9.993766, 10.003628 
2.0151328e+3, 1.2468968e+2, -1100245.5, -1664475.5, -22889.6, -0.024453618, -0.019804006, -1099318.4, 618719.94, 0.22882561, 10.006853, 9.997151 
2.0151234e+3, 1.3468643e+2, -1066323.3, -1633961.8, -31424.248, 0.10944462, -0.05240383, -1064588.9, 555479.75, 0.16439715, 10.005975, 9.997006 
2.0151122e+3, 1.4468385e+2, -1014462.1, -1600120.3, -24611.861, 0.022417076, -0.0013081764, -1013429.6, 508664.72, 0.098737426, 10.0053625, 9.996855 
2.0151013e+3, 1.5468062e+2, -941962.44, -1538100.6, -32789.684, -0.024063941, -0.009852016, -940164.3, 483963.9, 0.04575367, 10.004999, 9.996784 
2.0150907e+3, 1.646778e+2, -868598.9, -1375426.9, -77804.4, -0.006110821, -0.00504021, -856923.9, 469232.78, 0.014397913, 10.004352, 9.99754 
2.01508e+3, 1.7467538e+2, -904350.5, -1348307.8, -81986.15, 0.056595754, -0.0047956672, -889693.9, 338485.66, 0.0022278295, 10.003408, 9.997508 
2.0150688e+3, 1.8467309e+2, -870398.0, -1216722.0, -79074.11, 0.06363957, -0.009445524, -853197.75, 277004.03, 0.000045408513, 10.002684, 9.998087 
2.015057e+3, 1.946711e+2, -844844.8, -1157475.9, -69069.06, 0.01761001, -0.020349339, -830265.44, 201956.61, 0.0, 10.002202, 9.998054 
2.0150456e+3, 2.0466942e+2, -798810.4, -1016209.56, -76388.336, -0.00039565965, -0.020718712, -774653.75, 159584.77, 0.0, 10.001549, 9.998666 
2.0150341e+3, 2.1466814e+2, -827376.75, -983401.8, -79335.266, 0.009605469, -0.017143866, -794123.6, 42126.563, 0.0, 10.000697, 9.99863 
2.0150226e+3, 2.2466701e+2, -797001.06, -872015.25, -61915.492, -0.0016296323, -0.011582412, -762118.2, -23857.06, 0.0, 10.000035, 9.999041 
2.0150115e+3, 2.3466608e+2, -765964.5, -810952.7, -67090.79, -0.035423372, -0.010072718, -717697.3, -77426.734, 0.0, 9.999596, 9.998999 
2.0150004e+3, 2.4466524e+2, -710720.3, -655069.7, -74705.98, -0.030733213, -0.024796192, -603175.3, -60896.918, 0.0, 9.998964, 9.999699 
2.0149897e+3, 2.546646e+2, -741778.0, -622455.1, -64982.5, 0.013829302, -0.06235796, -593899.7, -149616.22, 0.0, 9.998094, 9.999669 
2.0149785e+3, 2.6466456e+2, -729723.9, -517653.47, -52044.46, -0.009121586, -0.05429306, -505569.72, -159286.34, 0.0, 9.997298, 10.000096 
2.0149668e+3, 2.746651e+2, -732811.7, -472966.6, -59823.805, -0.10019835, -0.009057646, -459855.03, -211577.53, 0.0, 9.996623, 10.000056 
2.0149562e+3, 2.8466523e+2, -665833.1, -304222.94, -36881.637, -0.09711955, -0.038950276, -300499.63, -150223.88, 0.0, 9.996041, 10.000823 
2.0149466e+3, 2.946651e+2, -663281.4, -270305.66, -18368.244, -0.013565013, -0.1364328, -269448.97, -217173.13, 0.0, 9.995462, 10.000663 
2.0149347e+3, 3.046667e+2, -699472.3, -212205.11, -24129.264, -0.17874227, -0.05593405, -211013.16, -211013.16, 0.0, 9.9946575, 10.001118 
2.014925e+3, 3.146679e+2, -682647.56, 30159.438, 19204.324, -0.062153026, -0.061466258, 30676.463, 30676.463, 0.0, 9.993779, 10.003198 
2.0251395e+3, 1.2469957e+2, -1102949.6, -1655186.0, 9816.988, -0.029204786, -0.06253239, -1102775.1, 615165.3, 0.23752707, 10.006845, 9.997244 
2.0251295e+3, 1.3469668e+2, -1014825.4, -1616091.0, -8843.228, 0.098898396, -0.047893547, -1014695.3, 605272.44, 0.17103107, 10.006497, 9.99688 
2.0251177e+3, 1.44694e+2, -946679.56, -1562910.9, -7548.5483, 0.020498537, 0.0021426745, -946587.1, 575407.2, 0.10310036, 10.005903, 9.99685 
2.0251065e+3, 1.5469065e+2, -946864.25, -1541434.6, -3420.237, -0.007922261, -0.017076772, -946844.56, 477184.75, 0.04806642, 10.004979, 9.99677 
2.0250952e+3, 1.6468775e+2, -892383.8, -1390202.8, -42562.445, 0.0089484295, -0.016625952, -888771.0, 437287.44, 0.015294355, 10.004207, 9.997506 
2.0250835e+3, 1.7468533e+2, -877178.0, -1338709.5, -42864.016, 0.051195737, -0.013000989, -873230.8, 354850.6, 0.0024268308, 10.003613, 9.997473 
2.0250715e+3, 1.8468304e+2, -828106.3, -1191117.5, -37447.47, 0.050335523, -0.0178516, -824283.56, 305820.03, 0.000052349504, 10.002954, 9.998132 
2.0250592e+3, 1.9468105e+2, -838421.7, -1149867.1, -43495.49, 0.008686313, -0.034431875, -832461.3, 199662.5, 0.0, 10.002228, 9.998094 
2.025047e+3, 2.0467938e+2, -798875.2, -1021067.06, -61305.684, -0.006529673, -0.032766797, -783082.6, 151057.58, 0.0, 10.001571, 9.998622 
2.0250349e+3, 2.1467818e+2, -787727.0, -969085.7, -62696.113, 0.0053359796, -0.017651469, -768163.2, 67988.43, 0.0, 10.000992, 9.998585 
2.0250228e+3, 2.2467706e+2, -775840.75, -864060.44, -38764.203, -0.0017366626, -0.0055898377, -761228.0, -23065.35, 0.0, 10.000191, 9.99902 
2.0250109e+3, 2.3467612e+2, -834684.4, -846328.7, -33411.594, -0.028414784, -0.0048000384, -806591.5, -166418.73, 0.0, 9.999134, 9.998978 
2.0249993e+3, 2.446753e+2, -794311.06, -689946.5, -39073.508, -0.021956608, -0.01939166, -676938.8, -134758.23, 0.0, 9.99837, 9.999744 
2.0249878e+3, 2.5467473e+2, -760318.3, -626666.3, -47577.676, 0.018303916, -0.052648384, -611459.7, -167274.94, 0.0, 9.997947, 9.99971 
2.0249759e+3, 2.6467472e+2, -718345.06, -512690.53, -37917.848, -0.010556473, -0.041523404, -505922.13, -159737.88, 0.0, 9.997378, 10.0000925 
2.0249633e+3, 2.7467522e+2, -734031.1, -474061.7, -31164.541, -0.10616098, -0.00054535334, -470377.94, -222198.7, 0.0, 9.996618, 10.000051 
2.0249522e+3, 2.8467533e+2, -681207.3, -302243.2, -10355.0, -0.09727955, -0.03617573, -301960.44, -151782.64, 0.0, 9.995898, 10.000904 
2.0249422e+3, 2.9467538e+2, -688553.94, -266299.97, -19088.072, -0.0000019532717, -0.123007216, -265438.84, -213263.0, 0.0, 9.995223, 10.000804 
2.0249294e+3, 3.046773e+2, -723854.94, -216362.11, -38652.105, -0.15675943, -0.025030889, -213435.14, -213435.14, 0.0, 9.994458, 10.001184 
2.0249186e+3, 3.1467813e+2, -726531.06, -14091.686, 39505.324, -0.06038353, -0.06903584, -11907.778, -11907.778, 0.0, 9.993579, 10.00299 
2.0351467e+3, 1.2471055e+2, -1132264.5, -1697933.4, -11458.773, 0.0024543002, -0.10271523, -1132032.5, 585797.56, 0.2472744, 10.00683, 9.996868 
2.0351353e+3, 1.347073e+2, -1050130.6, -1692921.9, -17066.08, 0.03698893, -0.06792926, -1049677.9, 570184.9, 0.17831163, 10.006503, 9.9963455 
2.0351231e+3, 1.4470428e+2, -938276.7, -1539306.3, -36561.598, -0.024415681, -0.035231214, -936060.75, 585832.4, 0.10779218, 10.005912, 9.99701 
2.0351122e+3, 1.5470132e+2, -936846.56, -1517149.5, -35142.44, 0.058049843, -0.03269085, -934726.1, 489196.9, 0.050518733, 10.004978, 9.996938 
2.0351002e+3, 1.6469844e+2, -891738.4, -1387294.3, -63712.293, 0.077179655, -0.03995589, -883678.1, 442273.22, 0.016241658, 10.004202, 9.99753 
2.0350866e+3, 1.7469564e+2, -875594.8, -1335440.4, -63053.223, 0.003062214, -0.07519141, -867105.75, 360872.4, 0.0026405435, 10.0036125, 9.997497 
2.0350738e+3, 1.846934e+2, -838854.3, -1213823.6, -63233.734, -0.024928812, -0.07118812, -828477.9, 301522.72, 0.00006006165, 10.002954, 9.997977 
2.0350614e+3, 1.9469185e+2, -850338.56, -1174687.8, -68604.03, 0.005581758, -0.025787294, -836424.8, 195592.52, 0.0, 10.002227, 9.997925 
2.0350489e+3, 2.0469025e+2, -800164.56, -1024200.3, -81789.28, 0.012814932, -0.007719934, -773483.1, 160550.48, 0.0, 10.001571, 9.998602 
2.0350358e+3, 2.1468869e+2, -788751.2, -971333.3, -82191.75, -0.008698156, -0.026943153, -757202.75, 78846.04, 0.0, 10.000991, 9.99857 
2.035023e+3, 2.2468753e+2, -766808.06, -846429.9, -76749.03, -0.0061080186, -0.02468387, -720159.0, 17901.225, 0.0, 10.000195, 9.99914 
2.0350106e+3, 2.3468688e+2, -825817.2, -828332.7, -71371.94, 0.026069252, -0.006715148, -755691.94, -115624.805, 0.0, 9.999134, 9.999102 
2.0349981e+3, 2.4468623e+2, -807080.56, -717784.2, -55287.55, 0.022097558, 0.00017351517, -691367.8, -149294.34, 0.0, 9.998374, 9.999553 
2.0349854e+3, 2.5468573e+2, -772865.94, -655106.6, -62489.535, -0.027583934, -0.008113987, -628127.3, -184049.06, 0.0, 9.997955, 9.999512 
2.0349726e+3, 2.6468554e+2, -704097.06, -485395.4, -66315.36, -0.06518461, -0.013799054, -466858.25, -120778.48, 0.0, 9.997387, 10.000277 
2.0349602e+3, 2.7468565e+2, -720633.8, -448979.63, -59562.402, -0.078085914, -0.032563765, -436493.94, -188415.92, 0.0, 9.996629, 10.000218 
2.0349485e+3, 2.8468597e+2, -698413.44, -339180.66, -37091.117, -0.059595853, -0.03875864, -335390.94, -185316.4, 0.0, 9.995902, 10.000649 
2.034937e+3, 2.9468694e+2, -694787.0, -282291.6, -45165.17, -0.035912722, -0.009319422, -277404.25, -225339.2, 0.0, 9.9952345, 10.000689 
2.0349245e+3, 3.0468774e+2, -719711.75, -209474.8, -73155.31, -0.10439964, -0.02489901, -199193.31, -199193.31, 0.0, 9.994464, 10.00123 
2.0349118e+3, 3.146879e+2, -689883.56, 52872.805, 34574.1, -0.104543194, -0.12966189, 54478.703, 54478.703, 0.0, 9.9936075, 10.003441 
2.0451538e+3, 1.2472251e+2, -1120791.8, -1713913.0, 7751.9907, 0.02002918, -0.11112422, -1120690.5, 597020.56, 0.25826585, 10.007161, 9.996563 
2.045142e+3, 1.3471895e+2, -1007068.75, -1701317.3, 26245.357, 0.02358731, -0.0734173, -1006077.94, 613669.56, 0.18637188, 10.007074, 9.996014 
2.0451292e+3, 1.4471543e+2, -878871.1, -1511084.9, -18995.215, -0.02675344, -0.07101687, -878300.94, 643482.3, 0.11288935, 10.006419, 9.996965 
2.0451172e+3, 1.5471265e+2, -923426.56, -1514327.3, -34545.15, 0.062242817, -0.046545208, -921413.9, 502397.53, 0.053149197, 10.005106, 9.996896 
2.0451042e+3, 1.6470988e+2, -889759.1, -1381409.1, -47138.086, 0.078712136, -0.041641477, -885280.44, 440558.2, 0.01725641, 10.004199, 9.997571 
2.0450902e+3, 1.7470714e+2, -851559.25, -1319681.5, -45622.566, -0.0054199477, -0.0759826, -847154.4, 380710.8, 0.0028745243, 10.003761, 9.997534 
2.0450766e+3, 1.8470488e+2, -817226.94, -1209472.9, -51704.98, -0.031930815, -0.071881056, -810525.8, 319362.1, 0.00006955834, 10.003128, 9.997923 
2.0450637e+3, 1.9470327e+2, -847442.56, -1178644.8, -50053.145, 0.011707765, -0.026951628, -840043.56, 191861.73, 0.0, 10.002272, 9.997874 
2.0450504e+3, 2.0470166e+2, -814530.9, -1029224.3, -52125.76, 0.021776555, -0.0072134472, -802544.4, 131377.34, 0.0, 10.001467, 9.998616 
2.0450366e+3, 2.1470015e+2, -826656.8, -988213.8, -50730.39, -0.008794947, -0.022755694, -812048.0, 23888.49, 0.0, 10.000725, 9.998583 
2.0450231e+3, 2.2469896e+2, -785103.44, -860829.2, -54410.652, -0.009014137, -0.02155182, -756678.2, -18729.762, 0.0, 10.000094, 9.999088 
2.04501e+3, 2.3469819e+2, -762624.44, -803423.25, -63806.746, 0.02856897, -0.009216278, -716035.5, -76078.91, 0.0, 9.999594, 9.99905 
2.0449968e+3, 2.4469759e+2, -733629.25, -672902.44, -41496.586, 0.021429604, -0.0018549903, -651846.94, -109884.26, 0.0, 9.998837, 9.999638 
2.044983e+3, 2.5469723e+2, -788993.0, -652486.94, -26492.1, -0.040792245, -0.00436791, -647525.8, -203560.23, 0.0, 9.997801, 9.999603 
2.0449698e+3, 2.6469705e+2, -758173.6, -516112.97, -23044.744, -0.07215593, -0.008809666, -513938.56, -167971.72, 0.0, 9.997038, 10.000233 
2.044957e+3, 2.7469715e+2, -734478.7, -461544.9, -35289.12, -0.05700752, -0.024638668, -457056.0, -209089.9, 0.0, 9.996561, 10.000164 
2.0449445e+3, 2.8469753e+2, -704450.44, -332453.9, -15309.464, -0.04667479, -0.02542845, -331824.9, -181862.63, 0.0, 9.99582, 10.000734 
2.0449318e+3, 2.9469854e+2, -752860.3, -295930.94, 1027.2804, -0.06976028, -0.0025277385, -295928.63, -243976.28, 0.0, 9.994775, 10.000816 
2.0449191e+3, 3.0469942e+2, -797479.9, -278049.5, -23734.754, -0.060504925, -0.0029756054, -276967.22, -276967.22, 0.0, 9.99407, 10.000946 
2.0449054e+3, 3.1470016e+2, -646389.56, 113351.766, 50967.953, -0.12780549, -0.015876098, 116755.74, 116755.74, 0.0, 9.993739, 10.003792 
2.0551609e+3, 1.2473549e+2, -1140382.9, -1742942.0, -1310.7015, 0.010876806, -0.07286804, -1140380.0, 577203.06, 0.2704013, 10.007171, 9.996351 
2.0551494e+3, 1.3473143e+2, -1021359.6, -1720393.9, 25487.695, 0.053529542, -0.07146485, -1020431.56, 599192.44, 0.19517595, 10.007071, 9.995884 
2.055136e+3, 1.4472729e+2, -899586.56, -1547521.1, -60844.754, 0.008104854, -0.11183631, -893922.4, 627743.7, 0.1183987, 10.006407, 9.996719 
2.0551218e+3, 1.5472457e+2, -941582.56, -1551434.0, -79520.6, 0.0030057146, -0.056971826, -931384.2, 492310.75, 0.05597651, 10.005106, 9.996645 
2.0551077e+3, 1.6472204e+2, -886956.6, -1375284.3, -62397.066, 0.011798274, -0.01850054, -879109.8, 446610.8, 0.018351829, 10.004201, 9.997614 
2.0550942e+3, 1.7471969e+2, -848911.25, -1314312.5, -59919.207, 0.022109037, -0.016497908, -841320.6, 386422.88, 0.0031344055, 10.003761, 9.997571 
2.0550804e+3, 1.8471737e+2, -814087.94, -1202706.3, -81896.766, 0.025338005, -0.022719113, -797534.25, 332232.3, 0.00008216845, 10.003126, 9.997972 
2.0550662e+3, 1.947152e+2, -843804.25, -1171167.0, -80073.68, 0.025630578, -0.038740315, -825267.7, 206521.06, 0.0, 10.002271, 9.997927 
2.0550518e+3, 2.0471354e+2, -810894.7, -1022588.7, -78729.375, 0.019130956, -0.030810095, -784825.44, 148979.97, 0.0, 10.001469, 9.998661 
2.0550373e+3, 2.1471249e+2, -824332.5, -982995.8, -76204.4, 0.0020919754, -0.004435863, -793661.4, 42154.227, 0.0, 10.000722, 9.998621 
2.0550232e+3, 2.2471127e+2, -801711.0, -895911.2, -72051.87, -0.012770722, 0.0045416593, -762730.4, -24902.346, 0.0, 10.000095, 9.998848 
2.055009e+3, 2.3470998e+2, -779628.5, -839515.1, -81015.83, -0.022809537, -0.011684792, -723199.56, -83357.33, 0.0, 9.999596, 9.998803 
2.0549951e+3, 2.447092e+2, -707172.56, -619555.06, -79842.77, -0.025293097, -0.02503769, -572292.0, -30442.732, 0.0, 9.998843, 10.000001 
2.054981e+3, 2.5470906e+2, -761596.3, -596944.56, -64762.37, -0.02323881, -0.042860936, -574524.5, -130676.57, 0.0, 9.997805, 9.999984 
2.0549673e+3, 2.647092e+2, -777303.56, -556960.5, -42011.965, -0.03292219, -0.025750056, -549222.0, -203375.52, 0.0, 9.997042, 9.999951 
2.0549536e+3, 2.7470964e+2, -752588.0, -501620.28, -53365.695, -0.047391374, 0.025328094, -490743.97, -242899.7, 0.0, 9.99657, 9.999886 
2.0549402e+3, 2.8470987e+2, -672826.1, -269330.5, -54625.85, -0.062660314, 0.0013743246, -262065.97, -112223.734, 0.0, 9.995829, 10.001164 
2.0549263e+3, 2.9470992e+2, -724469.5, -241222.08, -37736.92, -0.103846796, -0.115097985, -238292.94, -186453.17, 0.0, 9.994791, 10.001185 
2.0549136e+3, 3.0471236e+2, -846310.5, -378712.34, -40624.36, -0.022779647, 0.054612167, -375209.2, -375209.2, 0.0, 9.994068, 10.000256 
2.0548995e+3, 3.147124e+2, -647868.6, 110351.09, -25486.787, -0.09060651, 0.03804634, 111206.836, 111206.836, 0.0, 9.993734, 10.003775 
2.0651688e+3, 1.2474836e+2, -1035096.0, -1686912.3, -13540.198, 0.010047218, -0.06874487, -1034814.9, 682642.7, 0.2833526, 10.008322, 9.996263 
2.0651563e+3, 1.3474444e+2, -1050307.1, -1724745.5, 23713.59, 0.045919217, -0.061364815, -1049474.4, 570022.6, 0.20455536, 10.006843, 9.995964 
2.0651424e+3, 1.4474018e+2, -976097.94, -1585558.8, -49765.99, 0.01807962, -0.11814708, -972061.0, 549479.1, 0.12426702, 10.005834, 9.996733 
2.0651269e+3, 1.5473758e+2, -903979.06, -1530749.5, -50667.06, -0.008778816, -0.05027526, -899909.6, 523658.13, 0.05899838, 10.005388, 9.996649 
2.065112e+3, 1.6473506e+2, -822547.06, -1352165.6, -21527.754, -0.0020870254, -0.007351594, -821673.5, 503920.16, 0.019534763, 10.004692, 9.997536 
2.0650981e+3, 1.7473263e+2, -862675.06, -1329265.4, -27547.34, 0.030380739, -0.007104257, -861054.3, 366563.63, 0.0034239725, 10.003704, 9.997496 
2.0650835e+3, 1.847303e+2, -839354.6, -1204643.9, -51476.95, 0.037784588, -0.013021655, -832239.06, 297401.84, 0.0000990456, 10.002911, 9.998061 
2.0650683e+3, 1.9472823e+2, -827779.6, -1153386.9, -48019.664, 0.020538963, -0.027503254, -820845.44, 210815.94, 0.0, 10.0023365, 9.998017 
2.0650533e+3, 2.0472652e+2, -781998.0, -1018724.25, -49570.297, 0.010409496, -0.023751644, -772037.1, 161641.2, 0.0, 10.001711, 9.998571 
2.0650384e+3, 2.1472527e+2, -786503.7, -974774.4, -59205.55, 0.0069446946, -0.008547051, -769433.06, 66257.81, 0.0, 10.001027, 9.998529 
2.0650235e+3, 2.2472402e+2, -776584.56, -879265.8, -47854.64, -0.008194998, 0.00080231496, -757740.25, -20036.65, 0.0, 10.000251, 9.998886 
2.0650083e+3, 2.3472291e+2, -808477.44, -848868.25, -35530.965, -0.034453418, -0.0012095325, -787803.5, -148087.78, 0.0, 9.99938, 9.998841 
2.0649937e+3, 2.4472211e+2, -744334.0, -643166.0, -43071.85, -0.034587387, -0.016134849, -627312.6, -85589.695, 0.0, 9.998614, 9.9999485 
2.0649791e+3, 2.5472173e+2, -743334.44, -594095.2, -62031.273, -0.008495943, -0.052460175, -571678.9, -127954.72, 0.0, 9.997958, 9.999928 
2.0649646e+3, 2.6472187e+2, -756248.5, -539713.56, -37689.35, -0.01785142, -0.03364002, -533341.0, -187618.55, 0.0, 9.997156, 10.000015 
2.06495e+3, 2.7472264e+2, -800980.56, -516781.63, -21994.434, -0.056187205, 0.039808404, -515089.53, -267372.4, 0.0, 9.996203, 9.999958 
2.0649356e+3, 2.8472275e+2, -720555.0, -294219.28, -27316.783, -0.07443157, 0.00082544785, -292476.13, -142759.95, 0.0, 9.995511, 10.001146 
2.0649211e+3, 2.9472226e+2, -692214.3, -231803.89, -48336.973, -0.09756472, -0.1665171, -226783.89, -175064.75, 0.0, 9.995042, 10.001127 
2.0649077e+3, 3.0472565e+2, -789761.0, -326508.72, -23548.443, -0.020757016, 0.09593236, -325314.75, -325314.75, 0.0, 9.9943495, 10.000478 
2.0648931e+3, 3.147242e+2, -690590.94, 69592.82, 21069.063, -0.0853992, -0.096745856, 70176.32, 70176.32, 0.0, 9.993525, 10.003598 
2.075177e+3, 1.2476115e+2, -1047774.2, -1684842.6, -51047.74, 0.008134777, -0.09117147, -1043709.75, 673624.4, 0.29671577, 10.008304, 9.996297 
2.0751625e+3, 1.3475792e+2, -1044059.9, -1687643.1, -19053.41, -0.0053590895, -0.0393085, -1043496.25, 575870.44, 0.21429652, 10.00683, 9.996225 
2.075148e+3, 1.4475401e+2, -965958.1, -1551498.9, -63410.656, -0.0031620672, -0.0865378, -959169.9, 562236.0, 0.13041559, 10.005826, 9.996975 
2.0751326e+3, 1.5475154e+2, -889989.1, -1497173.9, -63878.855, 0.022324974, -0.028715473, -883341.56, 540089.6, 0.062198523, 10.005392, 9.996881 
2.0751172e+3, 1.647488e+2, -835187.3, -1378620.6, -55712.785, 0.032732043, -0.011139008, -829534.44, 495924.63, 0.020804672, 10.004695, 9.9973545 
2.0751016e+3, 1.747458e+2, -875458.7, -1356147.0, -62164.06, 0.017936075, -0.047469243, -867549.56, 359939.78, 0.0037439119, 10.003704, 9.997313 
2.0750862e+3, 1.8474358e+2, -831319.5, -1188105.9, -71599.48, 0.004371096, -0.04110943, -817487.25, 312024.28, 0.000120829114, 10.00291, 9.998176 
2.0750703e+3, 1.9474226e+2, -820206.44, -1137294.5, -67041.39, -0.005944886, 0.008044936, -806614.6, 224909.56, 0.0, 10.002334, 9.99813 
2.075055e+3, 2.0474052e+2, -798028.3, -1052415.1, -73485.94, -0.0060655675, 0.013971218, -778326.06, 155215.48, 0.0, 10.001711, 9.998341 
2.0750393e+3, 2.1473838e+2, -803746.56, -1010239.7, -82671.984, 0.0040665907, -0.034701776, -774726.3, 60837.188, 0.0, 10.001024, 9.998288 
2.0750237e+3, 2.2473712e+2, -754038.7, -833378.6, -79134.02, 0.003157883, -0.031440113, -705188.0, 32388.19, 0.0, 10.000253, 9.999201 
2.075008e+3, 2.3473689e+2, -785758.1, -802040.5, -66404.3, -0.008698477, 0.02189307, -726997.9, -87419.6, 0.0, 9.99938, 9.999164 
2.0749924e+3, 2.447362e+2, -777640.44, -713383.06, -67655.33, -0.0085293865, 0.024728632, -670615.2, -129030.414, 0.0, 9.998617, 9.999466 
2.074977e+3, 2.5473508e+2, -777873.7, -667415.6, -86839.31, -0.0004628522, -0.032722943, -619730.56, -176135.1, 0.0, 9.997963, 9.999424 
2.0749614e+3, 2.6473498e+2, -727280.44, -481312.5, -74121.77, -0.028702112, -0.03201503, -460702.97, -115106.89, 0.0, 9.997162, 10.000414 
2.0749459e+3, 2.7473593e+2, -769994.7, -455064.38, -57196.637, -0.08415488, 0.017977748, -444998.25, -197412.22, 0.0, 9.996213, 10.000379 
2.0749311e+3, 2.8473592e+2, -754185.7, -366798.34, -47294.594, -0.08385786, -0.028272968, -361107.94, -211522.3, 0.0, 9.995521, 10.000645 
2.0749165e+3, 2.947353e+2, -725023.8, -303874.56, -69777.5, -0.059564147, -0.15662786, -292614.63, -241022.48, 0.0, 9.995057, 10.000627 
2.0749019e+3, 3.0473927e+2, -701330.7, -144374.38, -57102.367, -0.05791508, 0.12242781, -138580.19, -138580.19, 0.0, 9.994356, 10.001725 
2.0748867e+3, 3.1473902e+2, -744909.94, -44587.67, -20876.639, -0.07407809, -0.075998165, -43965.89, -43965.89, 0.0, 9.993531, 10.0028105 
2.0851855e+3, 1.24775715e+2, -1074816.1, -1692483.4, -21281.24, 0.034969185, -0.0687639, -1074083.8, 643109.8, 0.31014818, 10.008162, 9.996296 
2.0851693e+3, 1.347727e+2, -1076617.0, -1680779.0, 3507.9033, -0.02325368, -0.013504136, -1076596.6, 542627.0, 0.22421965, 10.006512, 9.996424 
2.0851536e+3, 1.4476898e+2, -994962.8, -1552283.9, -3170.6763, -0.008047712, -0.060009073, -994944.75, 526315.8, 0.136772, 10.005573, 9.997084 
2.0851381e+3, 1.547663e+2, -878837.3, -1477318.9, -5624.635, 0.03944387, -0.032627136, -878784.44, 544502.4, 0.06555322, 10.005433, 9.996994 
2.085122e+3, 1.6476351e+2, -811466.7, -1378197.4, -19981.69, 0.046401978, -0.021162814, -810763.06, 514552.1, 0.022153916, 10.004918, 9.997249 
2.0851052e+3, 1.7476065e+2, -841539.7, -1352559.8, -22887.055, 0.0012680916, -0.032789737, -840516.7, 386828.22, 0.004092031, 10.003993, 9.997198 
2.085089e+3, 1.847584e+2, -796565.5, -1173951.9, -23126.951, -0.017773839, -0.02170787, -795153.56, 334214.0, 0.00014761007, 10.003159, 9.998154 
2.0850727e+3, 1.9475687e+2, -808194.75, -1133082.4, -29399.438, -0.0061659417, 0.008228741, -805555.8, 225825.9, 0.0, 10.002424, 9.998115 
2.0850566e+3, 2.0475505e+2, -803573.25, -1060194.6, -35189.793, -0.0002122731, 0.010023069, -798835.25, 134564.5, 0.0, 10.0016985, 9.998292 
2.0850402e+3, 2.1475299e+2, -813059.9, -1020159.5, -30947.67, -0.0011615576, -0.024991779, -808534.2, 26887.076, 0.0, 10.000986, 9.998238 
2.085024e+3, 2.2475176e+2, -748338.25, -826771.5, -32775.723, 0.00084139215, -0.017982814, -736445.25, 988.44635, 0.0, 10.0002775, 9.999233 
2.0850076e+3, 2.3475146e+2, -754649.7, -783073.0, -43478.258, 0.008313487, 0.026879307, -723119.4, -83683.62, 0.0, 9.9995775, 9.999198 
2.0849915e+3, 2.4475071e+2, -760750.0, -721883.0, -41026.35, 0.0037042485, 0.029069034, -695920.25, -154477.17, 0.0, 9.998806, 9.999316 
2.0849748e+3, 2.5474957e+2, -788797.6, -689716.06, -33888.473, -0.017578227, -0.017703012, -679234.25, -235779.14, 0.0, 9.997963, 9.99927 
2.0849586e+3, 2.647494e+2, -721171.75, -474621.47, -23097.953, -0.044920795, -0.013984961, -472476.22, -127020.06, 0.0, 9.997189, 10.000446 
2.0849423e+3, 2.747503e+2, -728834.56, -431617.44, -35681.633, -0.06669192, 0.028322639, -427393.8, -179948.02, 0.0, 9.996481, 10.000409 
2.084927e+3, 2.8475025e+2, -732027.94, -360803.44, -17361.45, -0.059673224, -0.023647666, -359993.25, -210547.53, 0.0, 9.995692, 10.000604 
2.0849116e+3, 2.9474965e+2, -763135.9, -325116.97, -4674.53, -0.05330907, -0.1477481, -325067.06, -273614.47, 0.0, 9.994806, 10.000604 
2.0848958e+3, 3.0475366e+2, -718602.75, -101136.08, -8063.9116, -0.083847485, 0.11832498, -101030.78, -101030.78, 0.0, 9.994016, 10.002187 
2.0848803e+3, 3.1475428e+2, -793917.4, -103019.695, -28068.41, -0.04892872, -0.035310026, -101881.26, -101881.26, 0.0, 9.99335, 10.002495 
2.0951942e+3, 1.247919e+2, -1093742.5, -1699841.9, -56801.234, 0.07957115, -0.00824757, -1088465.3, 628572.6, 0.32346407, 10.008119, 9.996246 
2.0951758e+3, 1.3478868e+2, -1078361.8, -1667385.8, -43291.707, -0.012995555, 0.0149990525, -1075197.0, 543872.25, 0.23423342, 10.006511, 9.996523 
2.0951591e+3, 1.4478488e+2, -998261.0, -1551616.9, -7770.1387, -0.0009049677, -0.041274793, -998151.9, 522953.94, 0.14329797, 10.005576, 9.9970875 
2.0951435e+3, 1.5478177e+2, -879793.5, -1474702.8, -7924.6826, 0.039486792, -0.061258156, -879687.94, 543447.75, 0.06904449, 10.00543, 9.997013 
2.095127e+3, 1.6477908e+2, -817081.94, -1387300.5, -51510.48, 0.03641216, -0.035974078, -812466.1, 512696.63, 0.02357321, 10.00491, 9.997192 
2.0951091e+3, 1.74777e+2, -846251.2, -1362398.6, -55129.695, -0.021863805, 0.0365984, -840428.5, 386757.38, 0.004464835, 10.003993, 9.997132 
2.0950918e+3, 1.8477459e+2, -806702.56, -1196218.0, -49054.547, -0.030637965, 0.043736704, -800619.75, 328590.38, 0.00017909522, 10.003161, 9.998 
2.0950754e+3, 1.9477192e+2, -819527.4, -1156537.0, -54579.33, 0.017149609, -0.026627952, -810908.56, 220326.55, 0.0, 10.002422, 9.997955 
2.0950586e+3, 2.0476998e+2, -794034.56, -1040863.4, -60583.168, 0.025685875, -0.034105945, -779966.5, 153287.42, 0.0, 10.0016985, 9.9984255 
2.095041e+3, 2.1476896e+2, -804019.8, -1000549.25, -54965.55, -0.011135973, 0.020637767, -789691.6, 45573.664, 0.0, 10.00098, 9.998376 
2.095024e+3, 2.247678e+2, -766961.4, -865681.94, -57702.457, -0.016414003, 0.040336285, -740387.4, -3110.1619, 0.0, 10.000277, 9.998967 
2.0950073e+3, 2.3476651e+2, -774292.9, -824058.1, -68284.4, 0.0139635205, 0.013900354, -726498.8, -87209.45, 0.0, 9.9995775, 9.998918 
2.09499e+3, 2.4476553e+2, -746867.1, -694479.25, -72827.055, 0.0005240125, -0.00087970064, -643278.7, -101979.99, 0.0, 9.998811, 9.999503 
2.0949724e+3, 2.54765e+2, -773611.56, -660527.5, -65310.6, -0.06328118, -0.0064019463, -630683.94, -187379.83, 0.0, 9.997972, 9.999468 
2.0949556e+3, 2.6476502e+2, -743693.5, -524344.1, -50886.91, -0.06884932, 0.019461121, -513113.84, -167809.92, 0.0, 9.9972, 10.0001 
2.0949395e+3, 2.7476558e+2, -752427.0, -484336.16, -62895.195, -0.0058134682, 0.067230284, -470314.1, -223016.2, 0.0, 9.996495, 10.000041 
2.0949231e+3, 2.847656e+2, -701085.25, -297989.6, -52272.434, -0.0024927168, 0.017585497, -291321.34, -142024.03, 0.0, 9.995698, 10.001033 
2.094906e+3, 2.947652e+2, -729944.75, -256704.22, -37914.234, -0.08298334, -0.12863617, -253685.92, -202385.66, 0.0, 9.994807, 10.001074 
2.0948894e+3, 3.047685e+2, -747124.5, -163228.22, -36858.9, -0.09880966, 0.059920307, -160910.67, -160910.67, 0.0, 9.994025, 10.001758 
2.0948738e+3, 3.1476873e+2, -731862.5, 13550.837, -30818.758, -0.05068696, -0.08469422, 14822.853, 14822.853, 0.0, 9.993398, 10.003275 
2.1052016e+3, 1.2480881e+2, -1198796.6, -1744674.1, -20895.74, 0.07482058, 0.016443959, -1197997.9, 518875.75, 0.33666444, 10.007092, 9.996381 
2.1051826e+3, 1.3480549e+2, -1035131.8, -1619058.4, -8093.5815, 0.0070360927, 0.013660702, -1035019.7, 583885.5, 0.24433514, 10.006901, 9.996661 
2.1051653e+3, 1.4480186e+2, -918091.25, -1516825.0, 39402.77, 0.021014024, -0.027598714, -915509.25, 605430.7, 0.14998367, 10.00631, 9.996977 
2.1051487e+3, 1.547986e+2, -902742.1, -1497351.6, 33301.137, 0.026295254, -0.048556313, -900882.9, 522088.47, 0.07265883, 10.005326, 9.996909 
2.1051313e+3, 1.6479583e+2, -860407.6, -1408954.4, -14142.279, 0.014861462, -0.027050016, -860043.3, 464956.16, 0.025052259, 10.004613, 9.997187 
2.105113e+3, 1.7479366e+2, -818238.06, -1348845.4, -13272.258, -0.022359183, 0.0377396, -817906.3, 409116.8, 0.004857598, 10.004189, 9.99713 
2.1050952e+3, 1.847912e+2, -766309.6, -1192182.9, -9861.163, -0.023832703, 0.04725938, -766081.44, 362966.5, 0.0002146127, 10.003509, 9.99786 
2.105078e+3, 1.947885e+2, -810907.0, -1168529.8, -15504.896, 0.015374566, -0.009978976, -810236.06, 220837.5, 0.0, 10.002552, 9.997811 
2.1050604e+3, 2.0478652e+2, -790242.9, -1039313.8, -19620.867, 0.022790657, -0.014602271, -788706.7, 144386.19, 0.0, 10.001727, 9.998422 
2.1050422e+3, 2.1478541e+2, -793485.8, -995626.44, -26193.828, -0.005687017, 0.030945549, -790146.75, 44958.0, 0.0, 10.001054, 9.998373 
2.1050245e+3, 2.2478415e+2, -763439.06, -876210.0, -28420.627, -0.016086537, 0.046468116, -756681.44, -19563.81, 0.0, 10.000355, 9.998857 
2.1050066e+3, 2.3478276e+2, -775585.6, -837165.75, -26891.512, -0.0051074806, 0.021906553, -765495.6, -126364.56, 0.0, 9.999624, 9.998804 
2.1049888e+3, 2.4478176e+2, -736851.7, -682713.7, -32208.252, -0.01424726, 0.007552527, -667710.1, -126569.48, 0.0, 9.998852, 9.999563 
2.1049705e+3, 2.5478128e+2, -761196.7, -648402.4, -35679.883, -0.04566202, 0.0011992883, -638063.56, -194918.5, 0.0, 9.998032, 9.999521 
2.104953e+3, 2.647812e+2, -741686.44, -539798.06, -13429.266, -0.046169747, 0.02686746, -538908.7, -193763.28, 0.0, 9.997285, 9.999953 
2.1049361e+3, 2.7478167e+2, -745272.5, -497393.06, -10539.512, -0.011663355, 0.07433384, -496945.75, -249804.34, 0.0, 9.996615, 9.999895 
2.1049187e+3, 2.8478163e+2, -709040.06, -290290.75, -18442.816, -0.019638732, 0.02732433, -289480.06, -140339.05, 0.0, 9.995594, 10.001136 
2.1049006e+3, 2.9478148e+2, -811987.9, -289610.56, -30627.898, -0.07386926, -0.10984466, -287820.9, -236678.94, 0.0, 9.994217, 10.001131 
2.1048838e+3, 3.0478474e+2, -810157.0, -201803.47, -3467.2595, -0.051398676, 0.08200606, -201783.7, -201783.7, 0.0, 9.993629, 10.001682 
2.104867e+3, 3.1478485e+2, -693949.2, 39313.223, 10584.483, -0.08741317, -0.072237305, 39465.977, 39465.977, 0.0, 9.993629, 10.003338 
2.115208e+3, 1.2482627e+2, -1197075.5, -1707312.1, -17779.242, 0.016876414, -0.0019157203, -1196456.8, 520246.34, 0.34986994, 10.007077, 9.996675 
2.1151897e+3, 1.3482302e+2, -1032977.94, -1598511.5, -11447.915, 0.029939145, -0.016448237, -1032746.3, 585986.1, 0.25456068, 10.006903, 9.996847 
2.1151718e+3, 1.4481977e+2, -938040.8, -1553319.5, 9074.56, 0.05186756, -0.017674066, -937907.06, 582856.8, 0.15681759, 10.006308, 9.996725 
2.1151538e+3, 1.548167e+2, -920165.25, -1532967.3, 439.22595, -0.0026542898, 0.004820451, -920164.94, 502630.13, 0.076375216, 10.00533, 9.996663 
2.1151358e+3, 1.648136e+2, -857570.9, -1402075.6, -28633.092, -0.02036188, 0.0040334635, -856069.3, 468757.16, 0.026577758, 10.004614, 9.997233 
2.1151175e+3, 1.7481053e+2, -814627.25, -1340707.3, -26808.807, -0.0033955926, -0.027046138, -813264.6, 413592.94, 0.0052648713, 10.004187, 9.997188 
2.1150988e+3, 1.8480814e+2, -775587.0, -1211274.5, -43868.16, -0.0005458158, -0.008731095, -771213.94, 357667.84, 0.0002533039, 10.003506, 9.997731 
2.11508e+3, 1.9480653e+2, -820203.9, -1188108.8, -48886.46, -0.012895277, 0.057637617, -813818.75, 217079.34, 0.00000000000010610821, 10.002551, 9.997678 
2.1150616e+3, 2.0480455e+2, -800249.6, -1061594.9, -43354.14, -0.008978507, 0.066692114, -793245.44, 139672.45, 0.0, 10.001731, 9.998268 
2.1150434e+3, 2.1480224e+2, -804899.9, -1018829.5, -48935.15, 0.01214763, 0.0075917994, -794237.6, 40702.992, 0.0, 10.001051, 9.998217 
2.1150249e+3, 2.2480072e+2, -760312.1, -870067.6, -54449.344, -0.00087574346, 0.0037842842, -737883.3, -927.6256, 0.0, 10.000355, 9.9989 
2.1150059e+3, 2.348001e+2, -771257.7, -829194.5, -52792.113, -0.051356494, 0.051309068, -740008.4, -101046.42, 0.0, 9.999627, 9.998858 
2.1149874e+3, 2.4479924e+2, -741413.1, -693708.2, -63158.035, -0.041749176, 0.05223433, -650048.6, -109078.51, 0.0, 9.998857, 9.999486 
2.1149692e+3, 2.5479823e+2, -767187.44, -662592.06, -66699.875, 0.03395243, 0.0029509866, -630131.75, -187152.44, 0.0, 9.998037, 9.999421 
2.1149509e+3, 2.64798e+2, -737015.9, -531919.94, -39547.133, 0.022452615, 0.009790689, -524558.6, -179577.14, 0.0, 9.997291, 10.000005 
2.114932e+3, 2.7479842e+2, -737332.4, -484120.8, -36410.05, -0.09124404, 0.05372229, -478989.3, -232012.45, 0.0, 9.996627, 9.999981 
2.1149133e+3, 2.8479832e+2, -724808.06, -325285.28, -71665.85, -0.117136, 0.002120797, -312818.94, -163840.88, 0.0, 9.995603, 10.000893 
2.1148953e+3, 2.9479814e+2, -837059.7, -344147.7, -81325.76, -0.024167683, -0.10805701, -331076.34, -280095.9, 0.0, 9.994226, 10.000753 
2.1148784e+3, 3.0480266e+2, -789683.9, -160631.86, -1621.9143, 0.058708932, 0.21703856, -160627.67, -160627.67, 0.0, 9.993634, 10.001964 
2.1148604e+3, 3.1480232e+2, -771784.6, -121957.26, -67881.875, -0.10847932, -0.019443663, -114941.96, -114941.96, 0.0, 9.993631, 10.002228 
2.1252151e+3, 1.2484481e+2, -1163840.8, -1690142.6, 27528.658, -0.010405821, -0.018002296, -1162404.8, 554115.75, 0.3631841, 10.007574, 9.996622 
2.125197e+3, 1.3484141e+2, -1026204.3, -1605893.8, 12239.445, 0.05226028, -0.030106757, -1025946.0, 592606.0, 0.2649156, 10.007127, 9.996671 
2.1251784e+3, 1.4483811e+2, -932472.56, -1564445.8, 10589.408, 0.07169567, -0.01862192, -932295.2, 588289.2, 0.16376103, 10.00647, 9.996569 
2.1251592e+3, 1.54835e+2, -894994.75, -1535744.6, 8138.6865, -0.009704204, 0.0154092545, -894891.4, 527725.44, 0.080158405, 10.005609, 9.996509 
2.1251401e+3, 1.648319e+2, -827382.56, -1377711.4, -3680.7908, -0.03098599, 0.01937438, -827357.94, 497290.3, 0.028132733, 10.004797, 9.997311 
2.1251217e+3, 1.7482889e+2, -830477.75, -1339507.1, -1058.4025, 0.007290169, -0.014944217, -830475.56, 396202.56, 0.0056812447, 10.004042, 9.997266 
2.1251026e+3, 1.8482643e+2, -796019.3, -1230985.4, -20479.406, 0.011489095, -0.00199833, -795057.2, 333645.53, 0.000294366, 10.003408, 9.9976425 
2.1250828e+3, 1.9482465e+2, -773734.2, -1175845.3, -24185.229, -0.021209318, 0.05593637, -772284.75, 258436.4, 0.0000000000129771185, 10.002915, 9.997586 
2.1250635e+3, 2.0482258e+2, -735389.9, -1039484.2, -16310.617, -0.0201693, 0.06532496, -734517.56, 198224.36, 0.0, 10.002217, 9.998184 
2.1250446e+3, 2.148203e+2, -774134.2, -1013134.1, -17385.063, 0.017063947, 0.017043736, -772876.25, 61888.13, 0.0, 10.001304, 9.998133 
2.1250251e+3, 2.2481874e+2, -754820.44, -868719.6, -21663.277, 0.006106461, 0.015333346, -750839.3, -14059.598, 0.0, 10.000401, 9.998886 
2.1250054e+3, 2.3481801e+2, -789031.7, -839720.25, -25544.98, -0.05732874, 0.05392575, -778391.56, -139604.45, 0.0, 9.999514, 9.99884 
2.124986e+3, 2.4481712e+2, -760429.25, -704762.3, -32760.008, -0.049510363, 0.053105056, -689608.3, -148812.66, 0.0, 9.998734, 9.999469 
2.1249676e+3, 2.5481617e+2, -765059.06, -663297.94, -31679.426, 0.0384889, 0.012306528, -654241.75, -211437.6, 0.0, 9.99806, 9.999406 
2.1249482e+3, 2.6481596e+2, -740798.06, -520180.6, -1480.713, 0.02661135, 0.017731942, -520170.66, -175364.83, 0.0, 9.997208, 10.000125 
2.124928e+3, 2.7481633e+2, -799066.3, -500213.3, 4820.726, -0.10251543, 0.04435582, -500135.56, -253334.05, 0.0, 9.996147, 10.000101 
2.1249087e+3, 2.848163e+2, -762310.3, -352702.16, -23652.256, -0.119120345, -0.0032620665, -351340.9, -202538.48, 0.0, 9.995387, 10.000807 
2.1248904e+3, 2.9481643e+2, -733493.2, -306318.28, -18810.482, 0.013661528, -0.06854472, -305491.56, -254689.42, 0.0, 9.99499, 10.000645 
2.124872e+3, 3.048205e+2, -710481.75, -125026.77, 71410.64, 0.015536725, 0.21634553, -116442.36, -116442.36, 0.0, 9.994185, 10.001945 
2.1248536e+3, 3.1481984e+2, -930017.9, -192251.83, -66388.69, -0.10524213, -0.048241403, -186325.38, -186325.38, 0.0, 9.992522, 10.002279 
2.1352227e+3, 1.24864325e+2, -1194055.0, -1736993.3, 19294.85, -0.013956307, -0.031285092, -1193370.1, 522957.34, 0.37661672, 10.007568, 9.996205 
2.1352044e+3, 1.3486055e+2, -1062101.3, -1681235.8, 1004.9841, 0.06900087, -0.027463427, -1062099.6, 556265.0, 0.27535114, 10.007129, 9.996124 
2.135185e+3, 1.448568e+2, -940565.5, -1572519.4, -15527.782, 0.07733973, -0.030184144, -940184.2, 580218.25, 0.17075297, 10.006468, 9.996515 
2.1351647e+3, 1.5485345e+2, -899379.56, -1542723.3, -19863.598, 0.0014665633, -0.015077429, -898766.8, 523670.47, 0.083968736, 10.005616, 9.996458 
2.135145e+3, 1.648507e+2, -821227.56, -1365165.6, -29455.691, -0.021200666, 0.020029133, -819637.1, 504828.38, 0.02970144, 10.004804, 9.9973955 
2.1351257e+3, 1.7484862e+2, -823850.5, -1326797.9, -27045.225, 0.0074974503, 0.0715284, -822400.4, 404085.6, 0.006102565, 10.0040455, 9.997352 
2.135106e+3, 1.8484598e+2, -800388.75, -1240688.0, -37453.633, 0.0109115075, 0.06477031, -797225.5, 331286.47, 0.00033722504, 10.003409, 9.997576 
2.1350858e+3, 1.9484277e+2, -779009.75, -1185917.4, -40175.7, -0.011783523, -0.011682538, -775081.0, 255462.58, 0.0000000000136278775, 10.00291, 9.99752 
2.1350656e+3, 2.0484054e+2, -736664.94, -1041696.3, -48703.668, -0.0133059, -0.014271954, -729077.25, 203488.5, 0.0, 10.0022135, 9.998173 
2.1350458e+3, 2.1483944e+2, -774822.1, -1014957.3, -49123.52, 0.0073662885, 0.05815249, -765161.75, 69415.36, 0.0, 10.001303, 9.998122 
2.1350256e+3, 2.2483806e+2, -760521.75, -881400.5, -53543.406, 0.0037996883, 0.07748342, -740215.75, -3624.6306, 0.0, 10.000402, 9.998798 
2.1350051e+3, 2.348364e+2, -795754.2, -853828.3, -57210.336, -0.025535168, 0.030094296, -760633.8, -122026.13, 0.0, 9.999513, 9.998744 
2.1349849e+3, 2.4483532e+2, -757116.1, -698991.7, -58280.453, -0.03981981, 0.013290055, -662929.25, -122311.11, 0.0, 9.998737, 9.999508 
2.1349649e+3, 2.5483498e+2, -759715.9, -654769.7, -56724.113, -0.03680852, 0.030621057, -629970.2, -187349.61, 0.0, 9.99807, 9.99946 
2.1349448e+3, 2.6483503e+2, -726180.06, -491775.34, -42481.15, -0.037624277, 0.049387284, -484314.0, -139694.28, 0.0, 9.997214, 10.000318 
2.1349248e+3, 2.7483526e+2, -786253.75, -475677.56, -36638.39, -0.04615244, 0.042358946, -471413.9, -224797.08, 0.0, 9.996154, 10.000266 
2.134905e+3, 2.8483552e+2, -757713.25, -345083.13, -40639.598, -0.02195547, 0.012500812, -341118.66, -192503.69, 0.0, 9.995394, 10.000856 
2.1348855e+3, 2.9483643e+2, -718502.3, -280662.66, -30167.338, 0.039571196, 0.01776064, -278593.88, -227986.77, 0.0, 9.995011, 10.000811 
2.134864e+3, 3.04838e+2, -723340.75, -155382.11, 17328.568, -0.20689431, 0.053309787, -154853.9, -154853.9, 0.0, 9.994199, 10.00173 
2.1348464e+3, 3.1483868e+2, -816638.06, 45160.004, -98057.625, -0.056383632, -0.047658343, 56176.434, 56176.434, 0.0, 9.992514, 10.003913 
2.1452309e+3, 1.248844e+2, -1167358.6, -1724201.5, 19287.215, 0.033074755, -0.020506093, -1166691.4, 549440.1, 0.39008427, 10.008071, 9.996049 
2.1452114e+3, 1.3488048e+2, -1055349.5, -1695368.8, 16713.58, 0.06570516, -0.007916535, -1054913.3, 563257.25, 0.28576973, 10.007374, 9.99591 
2.1451914e+3, 1.448765e+2, -913053.0, -1549535.6, 11017.07, 0.048060827, -0.025224874, -912862.4, 607348.44, 0.1777123, 10.006723, 9.996548 
2.1451709e+3, 1.5487327e+2, -831158.5, -1501084.3, 13100.176, 0.02413752, -0.003339652, -830902.44, 591341.8, 0.08775965, 10.006129, 9.996494 
2.1451505e+3, 1.648705e+2, -751034.75, -1336860.3, -2228.9968, 0.011155743, 0.033161085, -751026.25, 573246.0, 0.03126619, 10.005341, 9.99733 
2.1451299e+3, 1.7486827e+2, -783762.0, -1315093.5, -11533.807, 0.0019257081, 0.07850232, -783511.75, 442782.28, 0.006524691, 10.00436, 9.997279 
2.1451092e+3, 1.8486558e+2, -788025.6, -1226391.6, -14231.701, 0.000014632447, 0.06806161, -787564.06, 340756.22, 0.0003813976, 10.003461, 9.997648 
2.1450886e+3, 1.9486247e+2, -812025.2, -1193432.3, -7190.295, 0.006981428, -0.00821603, -811889.7, 218461.2, 0.000000000027357056, 10.002649, 9.997593 
2.1450679e+3, 2.0486027e+2, -775683.44, -1056385.0, -12359.781, 0.0037040145, -0.012423692, -775140.25, 157232.25, 0.0, 10.00193, 9.998207 
2.1450469e+3, 2.1485916e+2, -772362.44, -1010411.6, -11065.392, -0.010734568, 0.05521927, -771849.2, 62534.85, 0.0, 10.001306, 9.998151 
2.1450259e+3, 2.2485778e+2, -745376.0, -882214.0, -17710.854, -0.014684522, 0.077646196, -743120.8, -6722.646, 0.0, 10.000541, 9.998726 
2.1450049e+3, 2.3485616e+2, -784655.56, -856150.94, -20258.654, -0.0057603717, 0.04261577, -779314.2, -140899.5, 0.0, 9.999624, 9.998674 
2.1449837e+3, 2.4485505e+2, -754631.3, -695200.0, -13805.6875, -0.019312607, 0.026574308, -692149.56, -151724.16, 0.0, 9.998746, 9.999529 
2.1449624e+3, 2.5485462e+2, -780419.1, -661213.8, -13976.817, -0.059462123, 0.029848829, -659596.94, -217168.17, 0.0, 9.997913, 9.999491 
2.1449414e+3, 2.6485467e+2, -750934.9, -499425.34, -15467.758, -0.07144176, 0.04723517, -498477.66, -154049.89, 0.0, 9.997027, 10.000355 
2.1449208e+3, 2.7485514e+2, -798041.06, -478537.3, -22166.47, -0.0425363, 0.05859266, -477006.78, -230583.75, 0.0, 9.996061, 10.000292 
2.1449006e+3, 2.8485548e+2, -765184.6, -337432.03, -7968.2827, 0.011964134, 0.036747653, -337283.63, -188863.73, 0.0, 9.995295, 10.000957 
2.1448806e+3, 2.9485628e+2, -748564.6, -277469.56, 6785.8145, 0.061511286, 0.020636564, -277371.84, -226958.9, 0.0, 9.99473, 10.000968 
2.1448569e+3, 3.0485788e+2, -826967.9, -196290.9, 15296.306, -0.2802253, 0.041228577, -195920.14, -195920.14, 0.0, 9.993451, 10.001808 
2.1448396e+3, 3.1486014e+2, -900830.4, 89220.63, -4022.7424, 0.066731855, 0.095768794, 89236.984, 89236.984, 0.0, 9.991582, 10.00466 
2.15524e+3, 1.2490496e+2, -1177309.3, -1715570.8, 1918.5465, 0.1270181, 0.0140277585, -1177302.4, 538630.5, 0.403431, 10.008064, 9.996109 
2.1552186e+3, 1.3490114e+2, -1059679.4, -1683239.3, -1014.0438, 0.037938084, 0.027275067, -1059677.8, 558292.56, 0.29603055, 10.007368, 9.995995 
2.1551973e+3, 1.4489709e+2, -913157.06, -1536070.5, -5929.958, -0.019685604, -0.0036299631, -913100.6, 606909.7, 0.1845351, 10.006717, 9.996645 
2.1551774e+3, 1.5489428e+2, -827110.94, -1485984.6, -5310.638, 0.055949256, 0.04867194, -827068.1, 594970.7, 0.09147278, 10.006125, 9.996601 
2.1551563e+3, 1.6489117e+2, -767802.1, -1369896.1, -36405.6, 0.06303891, 0.057834826, -765608.9, 558460.9, 0.032804642, 10.005335, 9.9971075 
2.1551341e+3, 1.748878e+2, -799351.8, -1347825.0, -45876.113, -0.010420731, 0.010338762, -795541.06, 430561.94, 0.006942666, 10.004361, 9.997055 
2.1551125e+3, 1.8488522e+2, -773704.0, -1197634.4, -42578.61, -0.022414308, 0.01181835, -769469.8, 358658.6, 0.00042643305, 10.003464, 9.997846 
2.1550916e+3, 1.9488357e+2, -796660.7, -1163248.6, -35011.47, 0.033010874, 0.06283954, -793346.8, 236797.73, 0.00000000007381513, 10.002654, 9.997799 
2.15507e+3, 2.0488161e+2, -770707.9, -1047010.1, -34234.273, 0.028972346, 0.06587243, -766529.4, 165634.44, 0.0, 10.001932, 9.998271 
2.1550478e+3, 2.1487932e+2, -768670.3, -1001873.8, -31988.27, -0.03920558, 0.010416473, -764362.06, 69824.09, 0.0, 10.0013, 9.998214 
2.1550262e+3, 2.248778e+2, -750388.2, -891935.3, -50351.17, -0.050687447, 0.019795623, -734304.8, 1896.894, 0.0, 10.000537, 9.998663 
2.1550046e+3, 2.3487718e+2, -788276.9, -864867.1, -53424.164, 0.000120655015, 0.09134159, -760840.3, -122630.98, 0.0, 9.999627, 9.998614 
2.154983e+3, 2.4487619e+2, -753908.6, -694948.5, -45680.207, 0.010342837, 0.09029967, -670061.7, -129842.734, 0.0, 9.99875, 9.999529 
2.1549606e+3, 2.548749e+2, -779467.4, -660904.06, -45215.38, -0.031673227, 0.008924487, -645628.75, -203398.7, 0.0, 9.997919, 9.999491 
2.1549384e+3, 2.6487476e+2, -757880.4, -515752.72, -52698.727, -0.075804055, 0.011185262, -504780.16, -160549.16, 0.0, 9.997033, 10.000241 
2.1549165e+3, 2.7487582e+2, -804807.8, -494452.13, -59205.227, -0.096996106, 0.09267246, -483541.34, -237320.06, 0.0, 9.996068, 10.00018 
2.1548955e+3, 2.8487617e+2, -754430.06, -316323.97, -30933.45, -0.02360178, 0.06940351, -314150.63, -165932.34, 0.0, 9.995298, 10.0011 
2.1548755e+3, 2.9487595e+2, -737263.6, -257320.48, -15381.532, 0.07502334, -0.0623267, -256828.03, -206607.31, 0.0, 9.994742, 10.0011015 
2.1548513e+3, 3.0488005e+2, -807047.75, -154414.53, -63345.13, -0.19056863, 0.18952256, -148323.06, -148323.06, 0.0, 9.993446, 10.002099 
2.1548305e+3, 3.1488106e+2, -931945.5, 17182.148, 51973.74, -0.01385589, 0.08241922, 20019.72, 20019.72, 0.0, 9.991599, 10.004164 
2.1652485e+3, 1.2492625e+2, -1131313.0, -1684459.0, 9811.623, 0.13899598, 0.048483934, -1131139.0, 584588.4, 0.41641527, 10.008721, 9.996154 
2.165226e+3, 1.349226e+2, -1022824.75, -1636418.0, 13483.178, 0.05084806, 0.062973686, -1022528.6, 595233.6, 0.30594045, 10.007742, 9.996137 
2.1652041e+3, 1.4491843e+2, -907947.4, -1524785.9, 14464.062, -0.024423638, 0.010142996, -907608.44, 612194.25, 0.19109146, 10.006783, 9.99669 
2.1651833e+3, 1.5491556e+2, -863346.3, -1499968.1, 11603.511, 0.058232248, 0.056278113, -863134.9, 558696.06, 0.09504025, 10.005853, 9.996635 
2.1651617e+3, 1.649124e+2, -802098.75, -1387351.5, -13004.444, 0.07206241, 0.057670932, -801809.94, 522052.13, 0.034291834, 10.005102, 9.997098 
2.1651387e+3, 1.749089e+2, -773444.6, -1335965.4, -6916.4653, 0.004981251, -0.00014237393, -773359.6, 452536.75, 0.00735081, 10.004547, 9.9970455 
2.1651162e+3, 1.8490635e+2, -718798.6, -1172159.0, -5323.5386, -0.012464527, 0.004620465, -718736.1, 409185.53, 0.00047172597, 10.003847, 9.997834 
2.1650942e+3, 1.9490488e+2, -747659.4, -1141113.1, -15110.468, 0.0251661, 0.07438995, -747079.94, 282856.44, 0.00000000020128568, 10.002998, 9.997785 
2.165072e+3, 2.0490293e+2, -746016.6, -1035053.44, -22884.645, 0.021077558, 0.08367387, -744215.94, 187739.42, 0.0, 10.002103, 9.998271 
2.1650493e+3, 2.1490057e+2, -789122.5, -1010372.6, -26060.857, -0.028730957, 0.020105245, -786094.25, 47884.242, 0.0, 10.001157, 9.998223 
2.1650267e+3, 2.2489904e+2, -769667.5, -893602.75, -39779.438, -0.04459156, 0.02267993, -757998.25, -22004.086, 0.0, 10.000374, 9.998728 
2.1650039e+3, 2.3489843e+2, -764379.94, -845955.44, -33148.516, -0.019452674, 0.09060642, -752608.56, -114607.28, 0.0, 9.999761, 9.998679 
2.1649815e+3, 2.4489756e+2, -727114.56, -678866.75, -25343.178, -0.004576943, 0.09538674, -668001.5, -127991.58, 0.0, 9.9989195, 9.9995575 
2.1649587e+3, 2.548964e+2, -790376.3, -662317.7, -23133.318, -0.01164644, 0.026015509, -658266.9, -216247.1, 0.0, 9.9978285, 9.999525 
2.1649356e+3, 2.648962e+2, -775677.2, -527207.06, -21169.63, -0.055875026, 0.02114683, -525416.3, -181394.83, 0.0, 9.996925, 10.000214 
2.1649124e+3, 2.74897e+2, -782767.5, -486754.34, -20845.91, -0.107990906, 0.081683636, -485293.53, -239279.56, 0.0, 9.996234, 10.000152 
2.1648906e+3, 2.8489745e+2, -758123.06, -311022.9, 2358.847, -0.046949722, 0.06783173, -311010.47, -163000.72, 0.0, 9.995245, 10.001162 
2.1648695e+3, 2.9489756e+2, -870168.44, -317283.0, 6166.05, 0.047449257, -0.040868215, -317214.25, -267205.06, 0.0, 9.993816, 10.001134 
2.1648452e+3, 3.0490142e+2, -869337.7, -141202.5, -44294.434, -0.11278017, 0.16794741, -138517.84, -138517.84, 0.0, 9.992841, 10.002479 
2.164822e+3, 3.149011e+2, -803645.6, -1419.7128, 127073.414, -0.08948327, -0.110864796, 18227.662, 18227.662, 0.0, 9.992823, 10.0034485 
2.1752563e+3, 1.2494822e+2, -1146186.3, -1685747.5, -16167.231, 0.07028802, 0.08610964, -1145702.3, 569813.1, 0.4287186, 10.008686, 9.996162 
2.1752344e+3, 1.3494472e+2, -1022004.2, -1611303.6, -9756.315, 0.09939589, 0.099161424, -1021842.7, 595704.56, 0.31527835, 10.007737, 9.996328 
2.1752115e+3, 1.4494033e+2, -913742.9, -1528992.9, -12286.91, 0.025740681, 0.016306845, -913497.56, 606091.4, 0.197255, 10.006784, 9.996661 
2.175189e+3, 1.5493704e+2, -867112.1, -1505639.5, -17857.64, 0.029430514, 0.022420865, -866613.06, 555008.06, 0.098407, 10.005858, 9.996594 
2.1751663e+3, 1.6493407e+2, -789556.25, -1360263.9, -31100.473, 0.038197067, 0.0354851, -787866.5, 535783.6, 0.035710853, 10.005107, 9.997283 
2.1751435e+3, 1.7493142e+2, -759453.9, -1308087.3, -25153.73, 0.044958744, 0.04335966, -758303.06, 467372.56, 0.007745546, 10.004553, 9.997235 
2.1751204e+3, 1.8492879e+2, -734330.3, -1205289.9, -35218.016, 0.026254773, 0.04225434, -731711.3, 395990.3, 0.0005166469, 10.003849, 9.997607 
2.1750969e+3, 1.9492625e+2, -764374.25, -1175864.3, -44505.434, -0.01715049, 0.029869052, -759615.75, 270111.56, 0.0000000009394869, 10.002997, 9.997547 
2.1750738e+3, 2.0492424e+2, -750651.5, -1044755.25, -56397.67, -0.019462718, 0.045481108, -740207.5, 191540.27, 0.0, 10.002101, 9.998206 
2.1750508e+3, 2.149228e+2, -793391.25, -1019739.56, -58964.125, 0.017694429, 0.08228074, -778952.1, 54810.18, 0.0, 10.001157, 9.99816 
2.1750273e+3, 2.2492132e+2, -755813.56, -865508.75, -61393.74, 0.0006165545, 0.08257139, -728335.9, 7441.2915, 0.0, 10.000375, 9.998921 
2.1750031e+3, 2.3491982e+2, -750872.0, -818373.1, -54673.96, -0.06755658, 0.040976766, -720370.4, -82578.695, 0.0, 9.999761, 9.998869 
2.1749797e+3, 2.4491902e+2, -723471.56, -671748.2, -66483.49, -0.06550845, 0.04302021, -626273.5, -86474.25, 0.0, 9.99892, 9.999608 
2.1749565e+3, 2.54919e+2, -785922.56, -654719.8, -64924.766, -0.0023107987, 0.08193963, -628024.06, -186224.94, 0.0, 9.997834, 9.999576 
2.1749328e+3, 2.6491886e+2, -771264.4, -519257.22, -48695.12, -0.012760569, 0.07737458, -510175.22, -166374.9, 0.0, 9.996929, 10.000267 
2.174909e+3, 2.7491862e+2, -777048.3, -477909.66, -45010.97, -0.07553987, 0.026068896, -471283.7, -225481.47, 0.0, 9.996245, 10.000208 
2.1748857e+3, 2.8491926e+2, -759046.56, -316483.44, -53762.047, -0.06200837, 0.029926907, -310046.13, -162250.4, 0.0, 9.995257, 10.00112 
2.1748623e+3, 2.949209e+2, -876366.1, -330295.9, -56430.504, -0.036324162, 0.081965245, -324525.4, -274745.5, 0.0, 9.993815, 10.001047 
2.174839e+3, 3.049217e+2, -840479.8, -79293.03, -54472.836, -0.03150482, -0.028870214, -75414.555, -75414.555, 0.0, 9.992832, 10.002908 
2.1748152e+3, 3.1492501e+2, -869398.44, -147377.2, 51537.234, -0.04892502, 0.007929582, -143717.08, -143717.08, 0.0, 9.992859, 10.00243 
2.1852648e+3, 1.2497121e+2, -1162293.1, -1694374.6, 8239.613, 0.04375127, 0.102129884, -1162165.6, 553125.7, 0.4400188, 10.008667, 9.996074 
2.1852425e+3, 1.3496771e+2, -1006681.2, -1595361.8, 20163.963, 0.114235625, 0.109623276, -1005991.4, 611331.9, 0.32385698, 10.007937, 9.996395 
2.1852185e+3, 1.4496337e+2, -870831.7, -1502810.5, 21412.115, 0.03955812, 0.02640652, -870107.0, 649257.3, 0.20294355, 10.007188, 9.996672 
2.1851948e+3, 1.5495993e+2, -791318.2, -1464063.9, 21586.945, 0.015800575, 0.019263772, -790626.25, 630771.25, 0.10154896, 10.006455, 9.996592 
2.1851717e+3, 1.6495699e+2, -713086.2, -1319128.4, 11319.6455, 0.024606777, 0.034758765, -712874.9, 610551.06, 0.037057936, 10.005649, 9.997304 
2.1851484e+3, 1.7495455e+2, -728533.1, -1290496.8, 5159.507, 0.0591956, 0.06166638, -728485.75, 496963.56, 0.008126569, 10.004759, 9.997256 
2.1851245e+3, 1.8495184e+2, -738837.44, -1226884.0, -12741.769, 0.04116672, 0.06162108, -738505.0, 388971.22, 0.0005607686, 10.003904, 9.997432 
2.1850999e+3, 1.9494894e+2, -761681.44, -1193478.8, -18715.545, -0.029449869, 0.031024747, -760871.75, 268634.25, 0.00000000393543, 10.003099, 9.9973755 
2.1850757e+3, 2.0494685e+2, -727910.7, -1026558.6, -26708.64, -0.0343825, 0.042197485, -725540.9, 205986.56, 0.0, 10.002229, 9.998268 
2.185052e+3, 2.1494557e+2, -769173.4, -1001039.0, -21237.209, 0.026975473, 0.09088741, -767244.25, 66295.5, 0.0, 10.001294, 9.998221 
2.1850279e+3, 2.2494413e+2, -753537.0, -857079.06, -16850.842, 0.012894861, 0.08969991, -750863.6, -15309.787, 0.0, 10.0003605, 9.998986 
2.1850027e+3, 2.3494251e+2, -796246.0, -832683.7, -20114.363, -0.07456857, 0.030138593, -787326.06, -149756.73, 0.0, 9.999418, 9.998935 
2.1849783e+3, 2.4494176e+2, -774557.44, -692857.06, -41603.6, -0.08103468, 0.032491602, -675401.2, -135824.64, 0.0, 9.998556, 9.999638 
2.1849543e+3, 2.54942e+2, -794481.25, -656312.8, -42497.4, -0.0108418465, 0.093842335, -644288.1, -202713.48, 0.0, 9.9977665, 9.999597 
2.1849297e+3, 2.64942e+2, -780206.7, -502729.78, -21338.504, -0.008941193, 0.094039455, -501098.4, -157524.02, 0.0, 9.996779, 10.000453 
2.184905e+3, 2.7494168e+2, -859891.0, -497404.94, -7051.475, -0.059726164, 0.020601608, -497267.84, -251691.88, 0.0, 9.995589, 10.00039 
2.1848807e+3, 2.8494242e+2, -834582.7, -345518.56, -9548.572, -0.06169175, 0.018270865, -345332.22, -197763.72, 0.0, 9.994709, 10.0011835 
2.1848562e+3, 2.9494444e+2, -825196.06, -297812.03, -8742.408, -0.061168708, 0.10289177, -297667.16, -248118.19, 0.0, 9.994133, 10.001117 
2.1848318e+3, 3.0494472e+2, -762142.9, -38704.082, 4841.2305, -0.033945613, -0.06180623, -38671.688, -38671.688, 0.0, 9.993354, 10.002937 
2.184807e+3, 3.149502e+2, -976245.94, -219381.67, 22087.594, -0.103572436, 0.18795852, -218737.63, -218737.63, 0.0, 9.992217, 10.002244 
2.1952735e+3, 1.2499501e+2, -1182911.6, -1710170.3, -13426.746, 0.043152213, 0.08950976, -1182570.0, 532487.8, 0.45013863, 10.008619, 9.995901 
2.19525e+3, 1.3499145e+2, -1019316.9, -1601456.6, 3750.1423, 0.09366989, 0.09707191, -1019292.75, 597798.4, 0.33161646, 10.007901, 9.99635 
2.1952254e+3, 1.4498737e+2, -875896.2, -1501292.8, 1378.7261, 0.0154505195, 0.041284446, -875893.1, 643236.8, 0.2081638, 10.007166, 9.996698 
2.1952014e+3, 1.5498407e+2, -791274.75, -1460085.5, -488.74344, 0.013586098, 0.044307593, -791274.44, 629887.1, 0.10448651, 10.006457, 9.996619 
2.1951772e+3, 1.64981e+2, -722986.25, -1339883.9, -19133.088, 0.027209477, 0.052659232, -722393.4, 600797.75, 0.038344257, 10.005652, 9.99716 
2.1951531e+3, 1.7497818e+2, -738804.8, -1312031.3, -25958.537, 0.047487795, 0.056742147, -737631.7, 487586.72, 0.008496963, 10.00476, 9.997108 
2.1951282e+3, 1.8497542e+2, -747482.5, -1246011.5, -40869.023, 0.032406766, 0.06576949, -744154.3, 383091.94, 0.00060419086, 10.003907, 9.9973 
2.195103e+3, 1.9497281e+2, -769650.06, -1211027.8, -46204.62, -0.015620641, 0.07535076, -764865.06, 264408.75, 0.000000012004619, 10.003102, 9.997255 
2.1950778e+3, 2.0497057e+2, -714905.9, -1000460.0, -60085.773, -0.02671465, 0.07070223, -702777.9, 228518.14, 0.0, 10.002231, 9.998447 
2.195053e+3, 2.1496877e+2, -757111.1, -975758.25, -53730.29, -0.0022784895, 0.04785108, -744620.94, 88690.96, 0.0, 10.001291, 9.998398 
2.1950278e+3, 2.2496736e+2, -758551.1, -867468.8, -50570.957, -0.007895913, 0.046426833, -738691.8, -3366.6702, 0.0, 10.000359, 9.998917 
2.1950024e+3, 2.3496638e+2, -800537.1, -842662.94, -54067.336, -0.04315474, 0.057932727, -763574.9, -126239.484, 0.0, 9.999421, 9.998866 
2.1949771e+3, 2.4496564e+2, -774057.2, -692683.1, -72028.414, -0.053614795, 0.06295677, -650644.56, -111301.305, 0.0, 9.998559, 9.999638 
2.1949516e+3, 2.5496525e+2, -794315.5, -657668.8, -72603.234, -0.041954793, 0.06197839, -626296.06, -184948.55, 0.0, 9.997771, 9.999585 
2.1949263e+3, 2.6496547e+2, -757023.3, -456079.3, -67834.78, -0.04773538, 0.07020021, -441495.6, -98150.766, 0.0, 9.996783, 10.000772 
2.1949007e+3, 2.7496615e+2, -836772.25, -449893.63, -52713.53, -0.06285138, 0.06493354, -442839.84, -197503.67, 0.0, 9.99559, 10.000717 
2.1948755e+3, 2.8496683e+2, -823567.0, -322803.6, -32205.07, -0.04538305, 0.032839507, -320740.9, -173411.98, 0.0, 9.994707, 10.001342 
2.1948506e+3, 2.9496804e+2, -806541.1, -262872.84, -29196.404, -0.024975978, 0.021824952, -261309.42, -211992.23, 0.0, 9.994147, 10.001351 
2.1948242e+3, 3.0497056e+2, -781807.2, -86719.29, -35145.336, -0.14365827, 0.07666794, -84946.78, -84946.78, 0.0, 9.993383, 10.002595 
2.1947998e+3, 3.1497267e+2, -900913.06, -60064.543, -51778.008, -0.053842817, 0.038260523, -56888.14, -56888.14, 0.0, 9.992212, 10.003337 
2.2052823e+3, 1.2501986e+2, -1195981.5, -1714224.3, 5941.0483, 0.056788635, 0.07537324, -1195913.5, 518901.0, 0.45916128, 10.008575, 9.995872 
2.2052579e+3, 1.3501646e+2, -1037704.0, -1608140.4, 34167.113, 0.07961425, 0.09795101, -1035664.8, 581182.0, 0.33867043, 10.007776, 9.996344 
2.2052324e+3, 1.4501256e+2, -897170.56, -1519484.9, 39421.992, 0.007603973, 0.06689201, -894683.25, 624200.9, 0.21301492, 10.007065, 9.996595 
2.205208e+3, 1.5500903e+2, -801982.0, -1477387.0, 33241.6, 0.028940232, 0.058356613, -800349.94, 620567.94, 0.10727584, 10.006444, 9.996509 
2.205183e+3, 1.6500576e+2, -721495.75, -1356635.0, 6512.021, 0.038966484, 0.06048184, -721429.0, 601520.56, 0.039589267, 10.005748, 9.996998 
2.2051577e+3, 1.7500277e+2, -715189.0, -1318142.3, -1809.6453, 0.028093517, 0.0635289, -715183.56, 509795.22, 0.008860344, 10.005003, 9.996949 
2.2051321e+3, 1.8499997e+2, -700533.9, -1215595.6, -9258.698, 0.016292775, 0.074184395, -700367.5, 426639.34, 0.00064722495, 10.004199, 9.997368 
2.2051065e+3, 1.9499746e+2, -728760.4, -1183106.4, -1227.3033, 0.006076008, 0.08828956, -728757.06, 300275.97, 0.00000003061151, 10.003349, 9.997328 
2.2050804e+3, 2.0499524e+2, -690621.75, -986657.8, -20092.611, -0.007367135, 0.08170991, -689264.25, 241790.48, 0.0, 10.002391, 9.998465 
2.2050542e+3, 2.1499336e+2, -751511.1, -970740.4, -27103.959, -0.024301412, 0.049662653, -748209.9, 84861.56, 0.0, 10.001323, 9.998416 
2.2050281e+3, 2.24992e+2, -762896.06, -865237.75, -22673.598, -0.03096555, 0.050705265, -758097.75, -23013.508, 0.0, 10.000312, 9.998953 
2.205002e+3, 2.3499122e+2, -806500.44, -840712.75, -17713.512, -0.025926664, 0.07790764, -798981.6, -161888.88, 0.0, 9.999362, 9.998907 
2.2049758e+3, 2.449905e+2, -790320.4, -691721.3, -24632.75, -0.030938614, 0.07886626, -685909.9, -146809.55, 0.0, 9.998411, 9.999715 
2.2049493e+3, 2.5498992e+2, -836514.5, -669839.75, -19570.424, -0.048339736, 0.05103988, -667572.7, -226466.56, 0.0, 9.997449, 9.999657 
2.2049226e+3, 2.6499012e+2, -778247.3, -461082.8, -25246.771, -0.063545376, 0.053935293, -459085.72, -115982.27, 0.0, 9.996617, 10.000816 
2.2048962e+3, 2.7499107e+2, -793335.44, -423626.47, -33114.766, -0.06703973, 0.06961242, -420683.78, -175591.14, 0.0, 9.995867, 10.000763 
2.2048704e+3, 2.8499195e+2, -788889.44, -287412.16, -16294.103, -0.042449974, 0.047959253, -286883.28, -139799.84, 0.0, 9.994866, 10.001508 
2.2048445e+3, 2.9499316e+2, -850188.44, -258189.69, -10924.654, -0.015195603, 0.021328771, -257988.16, -208916.86, 0.0, 9.993739, 10.001579 
2.2048166e+3, 3.0499578e+2, -881352.1, -152327.05, -19330.252, -0.18593578, 0.08384058, -151814.88, -151814.88, 0.0, 9.992777, 10.002437 
2.2047928e+3, 3.1499696e+2, -929916.06, 6868.404, -13846.43, 0.035686526, -0.026973644, 7073.0205, 7073.0205, 0.0, 9.99167, 10.004056 
2.2152908e+3, 1.2504561e+2, -1206327.9, -1710653.9, -13916.675, 0.071723536, 0.055499695, -1205944.1, 508618.66, 0.4674375, 10.008509, 9.995946 
2.2152653e+3, 1.3504255e+2, -1043915.94, -1607928.8, 16979.545, 0.063181415, 0.110711, -1043405.25, 573186.6, 0.3452814, 10.00777, 9.996348 
2.2152396e+3, 1.4503874e+2, -911525.3, -1551347.9, 22614.027, 0.006710878, 0.10135458, -910727.06, 607901.3, 0.21766202, 10.007078, 9.996368 
2.2152147e+3, 1.5503469e+2, -817245.4, -1510812.9, 14085.435, 0.0592531, 0.06295821, -816959.44, 603708.1, 0.10999594, 10.006452, 9.996275 
2.2151889e+3, 1.6503116e+2, -733911.9, -1383980.6, -18262.44, 0.058077887, 0.060492687, -733399.2, 589302.94, 0.040816825, 10.005754, 9.996808 
2.2151624e+3, 1.7502815e+2, -726518.06, -1344079.3, -27133.113, -0.0012565238, 0.08161603, -725328.25, 499403.47, 0.009219796, 10.005012, 9.996768 
2.215136e+3, 1.8502535e+2, -681975.0, -1178436.5, -39131.332, -0.009178293, 0.085652694, -678909.56, 447849.9, 0.00068994466, 10.004203, 9.997622 
2.21511e+3, 1.950228e+2, -711813.6, -1147071.4, -30692.617, 0.03377012, 0.07179732, -709659.94, 319124.6, 0.000000067517966, 10.003344, 9.997579 
2.215083e+3, 2.0502076e+2, -701807.06, -1009536.1, -58469.88, 0.022445174, 0.07750642, -691072.0, 239732.66, 0.0, 10.002387, 9.99831 
2.2150552e+3, 2.1501923e+2, -762160.6, -992959.75, -64629.324, -0.042714026, 0.09501938, -745295.25, 87524.28, 0.0, 10.001321, 9.998265 
2.2150281e+3, 2.2501792e+2, -753051.7, -844878.4, -56886.85, -0.05894936, 0.100620545, -725861.4, 8971.07, 0.0, 10.000311, 9.999095 
2.2150014e+3, 2.3501688e+2, -796253.4, -820108.8, -52270.61, -0.025258873, 0.090117216, -754566.8, -117724.23, 0.0, 9.999363, 9.999049 
2.2149743e+3, 2.4501619e+2, -779780.6, -670263.2, -61477.25, -0.013843055, 0.07990606, -642693.5, -103844.44, 0.0, 9.998411, 9.999864 
2.2149467e+3, 2.5501585e+2, -824902.8, -647521.6, -55522.37, -0.030844511, 0.06132803, -631575.94, -190724.47, 0.0, 9.997455, 9.999808 
2.2149192e+3, 2.650158e+2, -794281.75, -496073.84, -54383.453, -0.057984967, 0.04446904, -486465.63, -143614.44, 0.0, 9.996622, 10.000575 
2.2148919e+3, 2.7501628e+2, -808992.7, -459353.97, -64163.35, -0.08142921, 0.034034267, -447951.03, -203104.48, 0.0, 9.995878, 10.000513 
2.214865e+3, 2.850176e+2, -776433.7, -263108.75, -62337.477, -0.05705491, 0.06566149, -255647.05, -108814.06, 0.0, 9.994872, 10.001672 
2.2148381e+3, 2.950197e+2, -835334.6, -226383.28, -50141.14, -0.024120832, 0.10565742, -222282.27, -173470.11, 0.0, 9.993733, 10.0018015 
2.2148095e+3, 3.0502024e+2, -874350.94, -137750.19, -59328.74, -0.16628045, -0.059070315, -133002.22, -133002.22, 0.0, 9.992772, 10.002542 
2.2147834e+3, 3.1502387e+2, -944918.5, -32545.762, 21526.56, -0.04263985, 0.07210831, -32038.145, -32038.145, 0.0, 9.991698, 10.003776 
2.225299e+3, 1.2507325e+2, -1236476.8, -1737617.5, 26416.01, 0.0627669, 0.08640013, -1235088.1, 479203.47, 0.47554818, 10.008244, 9.995881 
2.2252733e+3, 1.3506971e+2, -1007117.7, -1601641.9, 61162.953, 0.06519889, 0.11316526, -1000890.6, 615435.5, 0.35183468, 10.008311, 9.996155 
2.225247e+3, 1.4506565e+2, -833829.75, -1531005.1, 58376.977, 0.02879965, 0.09981638, -828975.44, 689390.3, 0.22231928, 10.007923, 9.996108 
2.2252214e+3, 1.5506144e+2, -749207.6, -1500912.1, 51547.082, 0.06444273, 0.071601965, -745689.3, 674717.1, 0.112737425, 10.007113, 9.996026 
2.2251949e+3, 1.6505775e+2, -666720.3, -1357954.9, 25302.145, 0.055273943, 0.07139082, -665795.4, 656647.06, 0.042050965, 10.006278, 9.996735 
2.2251675e+3, 1.7505462e+2, -663820.0, -1320577.5, 25107.842, -0.0015232646, 0.08892203, -662861.5, 561611.8, 0.009577499, 10.00548, 9.996703 
2.2251402e+3, 1.850518e+2, -653938.1, -1157720.8, -2840.1216, -0.011248497, 0.09131702, -653922.1, 472579.0, 0.00073202676, 10.004367, 9.997684 
2.225113e+3, 1.9504933e+2, -763840.56, -1164242.1, -9178.376, 0.025790744, 0.07823227, -763630.3, 264894.78, 0.00000012235222, 10.0029545, 9.997647 
2.2250852e+3, 2.0504734e+2, -760845.3, -1033523.0, -23739.918, 0.02180255, 0.08430873, -758793.9, 171750.72, 0.0, 10.001965, 9.998348 
2.2250566e+3, 2.1504584e+2, -749044.2, -981403.2, -16939.53, -0.022946563, 0.10173446, -747815.75, 84743.76, 0.0, 10.001391, 9.998309 
2.2250286e+3, 2.2504455e+2, -723917.3, -829295.94, -15542.325, -0.04364368, 0.10807903, -721672.75, 12899.535, 0.0, 10.000507, 9.999106 
2.2250006e+3, 2.3504357e+2, -803536.44, -821977.0, -20612.984, -0.03734818, 0.100232825, -790175.56, -153593.27, 0.0, 9.999309, 9.999062 
2.2249727e+3, 2.4504294e+2, -782712.1, -661962.6, -26742.873, -0.023587823, 0.09337072, -656304.9, -117717.0, 0.0, 9.998352, 9.999948 
2.2249445e+3, 2.550427e+2, -794908.0, -622031.7, -25715.611, -0.008464352, 0.076370746, -618287.56, -177698.5, 0.0, 9.997617, 9.999904 
2.224916e+3, 2.6504263e+2, -783043.7, -489271.1, -18875.334, -0.03685168, 0.05251135, -488063.28, -145474.52, 0.0, 9.996696, 10.000585 
2.2248875e+3, 2.7504304e+2, -848495.75, -476690.66, -11639.542, -0.091673695, 0.033708952, -476326.63, -231741.86, 0.0, 9.995603, 10.000526 
2.2248596e+3, 2.8504437e+2, -816825.3, -290256.56, -10633.908, -0.07327781, 0.06925605, -290041.9, -143470.48, 0.0, 9.994631, 10.001601 
2.2248317e+3, 2.950463e+2, -847737.6, -248529.69, -16790.441, -0.0265395, 0.10319524, -248059.58, -199506.89, 0.0, 9.99372, 10.001655 
2.2248027e+3, 3.0504727e+2, -851993.3, -86451.73, -35466.51, -0.12976763, -0.026292963, -84812.12, -84812.12, 0.0, 9.992755, 10.002899 
2.2247747e+3, 3.1505138e+2, -939400.25, -56669.582, 91543.875, -0.099030465, 0.10963297, -47275.957, -47275.957, 0.0, 9.99186, 10.003527 
2.235307e+3, 1.2510264e+2, -1260305.4, -1772657.8, 23718.23, 0.011248268, 0.17380145, -1259209.8, 454793.13, 0.4843104, 10.008119, 9.995698 
2.2352818e+3, 1.3509786e+2, -1029162.3, -1649222.3, 64069.613, 0.082653135, 0.107605025, -1022611.4, 593439.56, 0.3588902, 10.008319, 9.995797 
2.2352554e+3, 1.4509317e+2, -850670.56, -1572215.5, 34692.19, 0.07057571, 0.06803628, -849006.4, 669090.5, 0.22728671, 10.007956, 9.995805 
2.2352283e+3, 1.5508911e+2, -767522.56, -1541174.9, 24606.342, 0.04178771, 0.084627815, -766740.75, 653394.94, 0.11561233, 10.007123, 9.995745 
2.235201e+3, 1.6508539e+2, -665745.8, -1353708.5, -1949.9789, 0.027181258, 0.09223641, -665740.3, 656431.56, 0.04331613, 10.006275, 9.996766 
2.2351731e+3, 1.7508206e+2, -662682.94, -1316407.5, -2669.5188, 0.0234546, 0.0857849, -662672.0, 561532.9, 0.009935588, 10.005471, 9.9967375 
2.2351448e+3, 1.8507922e+2, -663155.2, -1176615.1, -53987.11, 0.007554363, 0.09241509, -657540.2, 468692.75, 0.00077337795, 10.004364, 9.997557 
2.2351155e+3, 1.950769e+2, -771501.9, -1181732.0, -59376.85, -0.019222286, 0.10662553, -763080.5, 265175.28, 0.00000018696807, 10.002959, 9.997526 
2.2350869e+3, 2.0507485e+2, -744691.1, -1001552.44, -43473.13, -0.009777635, 0.10103905, -737532.9, 192742.86, 0.0, 10.001969, 9.998567 
2.2350585e+3, 2.150731e+2, -733762.8, -949800.9, -35988.613, 0.032828104, 0.07055907, -727925.4, 104367.016, 0.0, 10.0013895, 9.9985285 
2.2350295e+3, 2.2507182e+2, -732831.2, -847538.6, -59137.387, 0.0126610845, 0.07446506, -707803.56, 26501.385, 0.0, 10.0005045, 9.998982 
2.2349995e+3, 2.3507112e+2, -811668.3, -839723.44, -64374.594, -0.0658556, 0.10806136, -759810.7, -123497.77, 0.0, 9.9993105, 9.9989395 
2.2349705e+3, 2.4507062e+2, -781339.7, -659905.75, -55026.99, -0.062415667, 0.11828403, -638680.5, -100362.516, 0.0, 9.998354, 9.999962 
2.2349423e+3, 2.5507033e+2, -791920.44, -617574.0, -54301.63, 0.0148718795, 0.096741006, -602044.56, -161724.52, 0.0, 9.997622, 9.999932 
2.2349131e+3, 2.650705e+2, -764508.9, -451315.94, -62026.7, -0.0017463709, 0.07917552, -439479.13, -97162.01, 0.0, 9.996697, 10.000846 
2.234883e+3, 2.7507123e+2, -828467.56, -435259.4, -52709.902, -0.0964615, 0.06984533, -428316.22, -184008.13, 0.0, 9.995602, 10.000813 
2.234854e+3, 2.850721e+2, -837507.5, -334905.53, -45791.992, -0.09343162, 0.0544754, -330767.5, -184467.56, 0.0, 9.994636, 10.001293 
2.2348255e+3, 2.9507285e+2, -883691.5, -327914.7, -53210.75, -0.037180185, 0.00479189, -322866.1, -274571.5, 0.0, 9.993737, 10.001102 
2.2347961e+3, 3.0507705e+2, -818004.1, -16545.02, -75049.69, -0.06908761, 0.2135119, -9577.834, -9577.834, 0.0, 9.992759, 10.003378 
2.2347662e+3, 3.1507915e+2, -960096.4, -101166.54, 1772.0841, -0.13340318, 0.07270716, -101162.88, -101162.88, 0.0, 9.991859, 10.003225 
2.2453143e+3, 1.2512967e+2, -1353054.8, -1869420.9, 54632.348, 0.0035559903, 0.02880965, -1347337.9, 366399.8, 0.49475712, 10.007056, 9.995568 
2.2452906e+3, 1.3512608e+2, -960818.75, -1617604.8, 92756.38, 0.085072234, 0.102033846, -947970.3, 667805.0, 0.36718285, 10.009237, 9.9956 
2.2452642e+3, 1.4512168e+2, -707562.2, -1483880.0, 15739.698, 0.09503003, 0.09962127, -707243.2, 810575.9, 0.23294233, 10.009262, 9.995847 
2.2452356e+3, 1.5511756e+2, -705445.1, -1500092.4, 23002.201, 0.04783332, 0.10655671, -704779.9, 715078.5, 0.11874078, 10.007601, 9.995795 
2.245207e+3, 1.6511385e+2, -668979.56, -1345938.8, 21395.72, 0.028913872, 0.10937492, -668304.0, 653590.3, 0.044628236, 10.006223, 9.996844 
2.2451785e+3, 1.7511058e+2, -704900.56, -1327254.3, 23163.063, 0.035616882, 0.101281166, -704039.7, 519886.97, 0.010293216, 10.005141, 9.99682 
2.2451492e+3, 1.8510777e+2, -672913.06, -1169257.6, -21692.188, 0.01821091, 0.1003799, -671966.9, 453987.28, 0.00081393385, 10.004248, 9.997663 
2.2451186e+3, 1.9510542e+2, -680148.06, -1126014.8, -11210.357, -0.02245521, 0.102113344, -679866.44, 348110.28, 0.000000258046, 10.003538, 9.997628 
2.2450888e+3, 2.051034e+2, -663515.44, -967958.5, 8137.9585, -0.016461272, 0.09909283, -663298.06, 266698.22, 0.0, 10.002553, 9.998514 
2.24506e+3, 2.1510176e+2, -749997.75, -962823.3, -5408.4224, 0.03457618, 0.08623492, -749860.4, 82152.06, 0.0, 10.001303, 9.99848 
2.24503e+3, 2.251005e+2, -756447.25, -850602.0, -32424.37, 0.020758526, 0.090566315, -746361.56, -12336.539, 0.0, 10.000308, 9.999055 
2.244999e+3, 2.3509972e+2, -771832.06, -811701.75, -22475.803, -0.053449716, 0.107944295, -761724.25, -125690.914, 0.0, 9.999549, 9.999015 
2.244969e+3, 2.4509923e+2, -750835.44, -639522.6, -4088.2603, -0.060169436, 0.11433637, -639372.7, -101334.39, 0.0, 9.998542, 10.00001 
2.2449395e+3, 2.5509912e+2, -838258.06, -634169.5, -1848.6852, -0.005577185, 0.103372775, -634152.75, -194113.45, 0.0, 9.997282, 9.999981 
2.2449094e+3, 2.650995e+2, -812086.9, -464217.8, -10279.737, -0.016881762, 0.10341553, -463914.3, -121880.08, 0.0, 9.996332, 10.000932 
2.2448787e+3, 2.7510047e+2, -810878.75, -415974.22, -14310.446, -0.07788366, 0.10934234, -415456.3, -171433.55, 0.0, 9.995681, 10.000904 
2.2448486e+3, 2.8510106e+2, -808282.0, -317608.5, -8669.3545, -0.079579785, 0.063312784, -317455.38, -171438.33, 0.0, 9.994826, 10.001317 
2.2448188e+3, 2.951013e+2, -889495.0, -332261.5, 5526.5347, -0.063495025, -0.037930157, -332206.7, -284190.13, 0.0, 9.99371, 10.001083 
2.2447889e+3, 3.0510655e+2, -855979.9, -52871.793, -8112.8364, -0.066748306, 0.28264135, -52789.848, -52789.848, 0.0, 9.9925785, 10.003213 
2.2447579e+3, 3.1510687e+2, -1013018.1, -132146.7, -16938.77, -0.1374811, -0.025999552, -131821.1, -131821.1, 0.0, 9.991518, 10.003179 
2.2552995e+3, 1.3515443e+2, -965977.8, -1635702.1, 142608.33, 0.065002404, 0.09728125, -936875.94, 678623.06, 0.37744236, 10.009358, 9.995483 
2.2552735e+3, 1.4515106e+2, -700850.06, -1448334.6, -29668.328, 0.09370969, 0.18807507, -699674.4, 817858.8, 0.23959488, 10.009216, 9.996194 
2.2552437e+3, 1.551467e+2, -686545.8, -1449955.8, -29337.992, 0.07810779, 0.1365085, -685420.0, 734155.25, 0.1221915, 10.007604, 9.9961405 
2.2552136e+3, 1.6514307e+2, -660788.7, -1330191.9, -14888.445, 0.057955336, 0.123593144, -660457.7, 661152.9, 0.04598351, 10.006238, 9.996945 
2.2551836e+3, 1.751401e+2, -696988.7, -1311531.1, -14310.583, 0.033272978, 0.1347176, -696655.6, 526984.0, 0.010644518, 10.005144, 9.996928 
2.2551534e+3, 1.851373e+2, -651168.9, -1123971.1, -46271.387, 0.018369636, 0.11525673, -646683.0, 478982.94, 0.0008530002, 10.004245, 9.997976 
2.2551225e+3, 1.9513474e+2, -659234.1, -1081672.0, -35562.957, 0.011645183, 0.065390885, -656261.2, 371427.7, 0.0000003336063, 10.003532, 9.997937 
2.2550915e+3, 2.0513289e+2, -686947.44, -1016193.06, -36906.8, -0.0010123652, 0.07952666, -682861.06, 246846.25, 0.0, 10.002549, 9.998186 
2.2550608e+3, 2.1513173e+2, -772290.3, -1009488.25, -49515.9, -0.01968801, 0.1469701, -762368.7, 69352.31, 0.0, 10.001302, 9.99816 
2.2550298e+3, 2.2513048e+2, -738405.8, -812968.7, -59332.68, -0.019924352, 0.15393083, -705613.94, 28119.807, 0.0, 10.000305, 9.999316 
2.254999e+3, 2.351292e+2, -752883.6, -773276.94, -50166.82, -0.0013686036, 0.09888365, -711887.7, -76142.81, 0.0, 9.999551, 9.99928 
2.2549678e+3, 2.4512866e+2, -746040.44, -629715.44, -52182.344, -0.018526334, 0.08167161, -609737.8, -71988.09, 0.0, 9.998541, 10.000077 
2.2549361e+3, 2.5512886e+2, -833764.0, -626027.2, -49953.258, -0.07528725, 0.096674256, -614639.44, -174891.64, 0.0, 9.997286, 10.000036 
2.254905e+3, 2.6512948e+2, -819329.0, -480060.34, -36819.29, -0.08628195, 0.123726584, -476110.5, -134369.19, 0.0, 9.996333, 10.000823 
2.2548747e+3, 2.7513054e+2, -819941.2, -435619.34, -39428.0, -0.039282225, 0.1510153, -431616.06, -187885.78, 0.0, 9.995682, 10.00077 
2.254844e+3, 2.851312e+2, -783617.8, -268435.03, -53143.363, -0.031697832, 0.10062582, -263010.2, -117286.49, 0.0, 9.994832, 10.001654 
2.254812e+3, 2.951317e+2, -850503.9, -255639.66, -40941.367, -0.10588169, -0.010240005, -252835.1, -205116.53, 0.0, 9.993726, 10.001604 
2.2547805e+3, 3.051352e+2, -905857.25, -156912.28, -48927.234, -0.13520569, 0.13683538, -153729.48, -153729.48, 0.0, 9.99258, 10.002498 
2.2547497e+3, 3.151369e+2, -959709.7, -21045.398, -29951.496, -0.09395471, 0.063917264, -20090.658, -20090.658, 0.0, 9.991509, 10.003949 
2.265311e+3, 1.3518535e+2, -687890.3, -1509211.3, 140865.38, 0.10902082, 0.12329052, -664402.06, 950795.06, 0.38984758, 10.012854, 9.995013 
2.2652815e+3, 1.4518172e+2, -811857.9, -1493368.9, 48224.82, 0.02822081, 0.20517297, -808462.3, 708771.9, 0.24716805, 10.008252, 9.99625 
2.2652513e+3, 1.5517733e+2, -647423.44, -1419709.6, 40850.535, 0.076648, 0.14687012, -645268.6, 774007.9, 0.12588072, 10.007907, 9.9962015 
2.2652203e+3, 1.6517371e+2, -553796.3, -1276980.1, 38967.0, 0.0775232, 0.13273174, -551702.75, 769609.0, 0.047344163, 10.007015, 9.99695 
2.265189e+3, 1.7517075e+2, -627498.56, -1276589.4, 34227.082, 0.035482336, 0.14579749, -625698.7, 597641.8, 0.010978249, 10.005627, 9.996935 
2.2651574e+3, 1.8516801e+2, -628163.3, -1109743.0, 1517.0104, 0.018746858, 0.1317186, -628158.5, 497207.88, 0.00088904257, 10.004393, 9.998001 
2.265126e+3, 1.9516559e+2, -691591.4, -1093610.6, -10398.731, 0.025348345, 0.09216353, -691322.56, 336065.84, 0.00000039847941, 10.003297, 9.997967 
2.2650942e+3, 2.0516373e+2, -710086.9, -1021976.75, -11738.056, 0.012397365, 0.10260947, -709645.75, 219761.02, 0.0, 10.002369, 9.998233 
2.265062e+3, 2.1516244e+2, -727335.9, -982198.3, 2405.5637, -0.018765446, 0.15434794, -727313.2, 104108.03, 0.0, 10.00159, 9.998208 
2.2650303e+3, 2.2516122e+2, -690176.56, -780499.9, 1341.4651, -0.024296766, 0.15775715, -690156.6, 43276.918, 0.0, 10.000599, 9.999396 
2.2649986e+3, 2.3516011e+2, -769211.25, -771799.56, -2935.7886, -0.00219295, 0.11049287, -767297.06, -131853.75, 0.0, 9.9994, 9.999362 
2.2649664e+3, 2.4515967e+2, -763962.3, -628975.4, -12763.688, -0.0176481, 0.096562065, -627779.1, -90332.14, 0.0, 9.998379, 10.00016 
2.2649333e+3, 2.5515994e+2, -794956.44, -598299.75, -9524.682, -0.07511418, 0.11143675, -597839.5, -158395.45, 0.0, 9.997516, 10.0001135 
2.2649014e+3, 2.651605e+2, -796753.0, -471599.75, 13190.964, -0.08483953, 0.12931764, -471065.47, -129627.08, 0.0, 9.996501, 10.000799 
2.2648704e+3, 2.7516136e+2, -878831.2, -467593.2, 15771.658, -0.03045344, 0.13870382, -466989.22, -223559.25, 0.0, 9.9952965, 10.000734 
2.2648384e+3, 2.851623e+2, -859355.7, -296684.97, -3411.766, -0.03053011, 0.11573554, -296664.28, -151243.58, 0.0, 9.99428, 10.001725 
2.2648054e+3, 2.9516357e+2, -871540.25, -247752.77, -14183.098, -0.1293168, 0.0749542, -247430.44, -200022.86, 0.0, 9.993506, 10.001761 
2.2647734e+3, 3.0516547e+2, -908493.4, -197331.05, -25736.781, -0.109390125, 0.07126299, -196400.86, -196400.86, 0.0, 9.992737, 10.002141 
2.2647415e+3, 3.151687e+2, -874955.8, 66125.26, 28314.824, -0.07655545, 0.19467631, 66976.41, 66976.41, 0.0, 9.991897, 10.004358 
2.2753249e+3, 1.352186e+2, -750306.3, -1580901.4, -64694.37, 0.20733118, 0.17755178, -745297.5, 869574.94, 0.40325603, 10.012727, 9.994273 
2.2752884e+3, 1.4521351e+2, -825255.3, -1517496.1, 39667.79, -0.098975755, 0.15858488, -822989.6, 693933.9, 0.25496218, 10.008308, 9.996013 
2.2752587e+3, 1.5520929e+2, -663578.06, -1452937.9, 31338.8, 0.042478357, 0.13983546, -662335.8, 756627.94, 0.12953223, 10.0079155, 9.99597 
2.2752273e+3, 1.6520563e+2, -563400.44, -1291142.6, -8692.43, 0.08363326, 0.1381489, -563296.6, 757702.56, 0.04863773, 10.006996, 9.99686 
2.2751945e+3, 1.7520243e+2, -634280.0, -1290193.4, -14067.698, 0.038829867, 0.13497932, -633978.44, 589052.3, 0.011280942, 10.005623, 9.996844 
2.2751619e+3, 1.851998e+2, -646553.1, -1149442.1, -37161.176, 0.017983781, 0.14903186, -643821.94, 481234.84, 0.00092055736, 10.004397, 9.997727 
2.2751291e+3, 1.9519779e+2, -709860.06, -1132334.5, -48180.863, 0.01700797, 0.17910208, -704435.0, 322641.63, 0.00000043907016, 10.003298, 9.997703 
2.2750966e+3, 2.0519577e+2, -681641.75, -962524.3, -39087.406, 0.022639392, 0.16632377, -676303.8, 252792.14, 0.0, 10.002365, 9.998644 
2.2750641e+3, 2.1519381e+2, -699944.0, -924624.8, -24105.514, 0.033911724, 0.10772326, -697386.9, 133727.3, 0.0, 10.001583, 9.998608 
2.275031e+3, 2.2519262e+2, -699126.8, -797938.06, -42066.16, 0.0043171486, 0.103501365, -683644.25, 49481.258, 0.0, 10.000592, 9.999281 
2.2749974e+3, 2.3519227e+2, -776605.5, -787676.4, -46795.418, -0.060589798, 0.14331356, -735019.3, -99889.52, 0.0, 9.9994, 9.999253 
2.2749642e+3, 2.4519211e+2, -757390.9, -615947.06, -46135.05, -0.059376083, 0.15795194, -602229.44, -65098.242, 0.0, 9.99838, 10.00025 
2.2749317e+3, 2.5519222e+2, -787379.94, -584804.0, -42104.87, -0.004613195, 0.14606789, -576401.1, -137271.95, 0.0, 9.997523, 10.000204 
2.2748987e+3, 2.6519242e+2, -792354.75, -464138.06, -34053.26, -0.011045974, 0.120218664, -460642.2, -119515.7, 0.0, 9.996506, 10.000849 
2.2748652e+3, 2.7519277e+2, -873383.7, -458366.63, -32078.143, -0.05725724, 0.07539717, -455901.8, -212779.39, 0.0, 9.995303, 10.000796 
2.2748323e+3, 2.8519416e+2, -874285.56, -327734.66, -35275.2, -0.0837779, 0.10416122, -325467.34, -180357.94, 0.0, 9.994278, 10.0015135 
2.2747989e+3, 2.951966e+2, -891416.9, -285882.72, -43263.582, -0.14101481, 0.20104541, -282807.28, -235720.88, 0.0, 9.99349, 10.001509 
2.2747676e+3, 3.0519772e+2, -910128.7, -202850.72, -58967.03, 0.029805308, 0.13751316, -197968.25, -197968.25, 0.0, 9.992743, 10.002102 
2.2747327e+3, 3.1519923e+2, -913624.44, -35121.664, -43192.445, -0.1529998, 0.08469681, -33003.176, -33003.176, 0.0, 9.991975, 10.003632 
2.2853352e+3, 1.3525257e+2, -987706.8, -1745349.6, -67075.89, 0.11659232, 0.20075521, -981814.25, 632726.56, 0.41539314, 10.010152, 9.994254 
2.2852996e+3, 1.4524683e+2, -549064.44, -1407653.5, 62412.445, 0.04001517, 0.13356896, -544551.25, 972046.5, 0.26188543, 10.011102, 9.995678 
2.2852668e+3, 1.5524264e+2, -597188.2, -1448909.5, 53456.105, 0.040331732, 0.15258579, -593846.25, 824791.9, 0.1327541, 10.008614, 9.995662 
2.2852336e+3, 1.6523895e+2, -575128.8, -1298873.3, 26116.104, 0.036130078, 0.16481636, -574187.6, 746486.4, 0.049765725, 10.006932, 9.996831 
2.2852002e+3, 1.7523563e+2, -594724.2, -1274138.9, 24996.986, 0.033652525, 0.15310448, -593805.75, 628900.94, 0.011537547, 10.005917, 9.996812 
2.2851665e+3, 1.852329e+2, -589711.94, -1134793.1, 12852.979, 0.026037408, 0.1662419, -589409.06, 535324.9, 0.00094657997, 10.004846, 9.99761 
2.2851326e+3, 1.9523083e+2, -657351.2, -1119029.1, 12685.232, 0.010450318, 0.20227605, -657002.94, 369752.3, 0.00000045672675, 10.003714, 9.997592 
2.2850989e+3, 2.0522882e+2, -649531.25, -929954.1, 21311.139, 0.012664242, 0.18879956, -647920.94, 280853.47, 0.0, 10.002515, 9.998794 
2.2850655e+3, 2.1522693e+2, -739269.4, -927100.6, 15389.11, 0.0320323, 0.123871386, -738016.94, 92774.17, 0.0, 10.001245, 9.998753 
2.2850312e+3, 2.2522584e+2, -755012.75, -820156.44, -4947.419, 0.0067662126, 0.118994124, -754639.1, -21837.719, 0.0, 10.000189, 9.999322 
2.2849965e+3, 2.3522557e+2, -785648.8, -787291.3, 2366.0486, -0.057208724, 0.16452505, -783965.56, -149160.42, 0.0, 9.99932, 9.999293 
2.2849627e+3, 2.4522543e+2, -751646.0, -609707.7, 12104.992, -0.053592764, 0.1792724, -608682.75, -71876.44, 0.0, 9.998405, 10.000279 
2.2849292e+3, 2.5522548e+2, -797734.0, -585251.5, 11480.291, 0.007883733, 0.16053165, -584633.06, -145828.58, 0.0, 9.997434, 10.000244 
2.2848953e+3, 2.6522568e+2, -790175.06, -458830.7, 13153.973, -0.0040420056, 0.13111418, -458309.3, -117507.61, 0.0, 9.996504, 10.000886 
2.2848606e+3, 2.7522612e+2, -824306.4, -429730.7, 12965.62, -0.06682827, 0.08845263, -429305.1, -186507.97, 0.0, 9.995618, 10.00084 
2.2848265e+3, 2.8522748e+2, -816765.56, -297301.3, 23149.646, -0.09069571, 0.116216525, -296271.7, -151487.69, 0.0, 9.994662, 10.001536 
2.2847925e+3, 2.9522982e+2, -881960.1, -283735.47, 30317.514, -0.12648545, 0.19881614, -282202.94, -235440.5, 0.0, 9.993568, 10.001485 
2.28476e+3, 3.0523157e+2, -946343.4, -204756.66, 31717.037, 0.033756133, 0.19683364, -203402.63, -203402.63, 0.0, 9.992431, 10.002237 
2.2847237e+3, 3.1523225e+2, -1002606.7, -92545.414, 23037.344, -0.22587998, 0.039775178, -91962.62, -91962.62, 0.0, 9.991433, 10.003494 
2.2953428e+3, 1.352871e+2, -971729.75, -1655771.8, 38050.477, -0.13892761, 0.19673428, -969619.7, 644583.1, 0.42433015, 10.010171, 9.994843 
2.2953142e+3, 1.4528145e+2, -588801.75, -1458222.8, -7482.778, 0.40048015, 0.12918667, -588737.4, 927521.8, 0.26701695, 10.010986, 9.995268 
2.2952756e+3, 1.552772e+2, -622818.0, -1503231.8, -23133.75, 0.061365988, 0.18279393, -622210.56, 796090.7, 0.13518067, 10.008605, 9.995291 
2.2952397e+3, 1.652735e+2, -573937.44, -1297718.3, -7373.992, -0.06342185, 0.2099058, -573862.3, 746475.4, 0.05062361, 10.006943, 9.996837 
2.295206e+3, 1.7527018e+2, -595064.1, -1273422.3, -9434.599, 0.018206611, 0.19949839, -594932.94, 627436.9, 0.011732164, 10.00591, 9.99682 
2.2951713e+3, 1.852672e+2, -589663.75, -1132482.6, -27516.658, 0.03986396, 0.18428625, -588272.44, 536126.9, 0.00096666336, 10.004833, 9.997634 
2.2951363e+3, 1.9526458e+2, -656737.9, -1116047.1, -26457.586, 0.002713818, 0.1625738, -655218.8, 371206.66, 0.00000046342706, 10.003703, 9.997619 
2.2951011e+3, 2.0526274e+2, -658546.3, -948151.9, -24107.404, -0.019129347, 0.17131214, -656553.25, 271890.16, 0.0, 10.00251, 9.998672 
2.2950661e+3, 2.1526167e+2, -747342.2, -943759.0, -29086.738, -0.02621122, 0.20117514, -743125.4, 87327.97, 0.0, 10.001241, 9.998642 
2.2950312e+3, 2.2526067e+2, -742188.25, -793291.44, -36121.742, -0.017752137, 0.20192493, -723494.4, 8968.359, 0.0, 10.000186, 9.999509 
2.2949965e+3, 2.3525986e+2, -772587.1, -761065.6, -29414.6, 0.0063413926, 0.17233442, -736852.94, -102382.305, 0.0, 9.999321, 9.999475 
2.2949614e+3, 2.4525952e+2, -753788.0, -614780.6, -25404.2, -0.0020380414, 0.16040084, -610283.4, -73810.02, 0.0, 9.998406, 10.000245 
2.294926e+3, 2.552597e+2, -798082.8, -587412.8, -26007.695, -0.045715753, 0.15685017, -584249.56, -145778.94, 0.0, 9.9974375, 10.000228 
2.2948909e+3, 2.6526025e+2, -787463.4, -454989.53, -21644.105, -0.06942106, 0.1618756, -453586.44, -113121.586, 0.0, 9.996509, 10.000911 
2.2948562e+3, 2.7526125e+2, -820271.1, -424619.84, -19866.38, -0.058665246, 0.17644377, -423624.8, -181169.8, 0.0, 9.99563, 10.000871 
2.2948216e+3, 2.852623e+2, -797646.5, -259732.56, -19614.31, -0.048424054, 0.15531433, -259018.3, -114573.52, 0.0, 9.99467, 10.001793 
2.2947861e+3, 2.9526332e+2, -867636.94, -254064.44, -15009.771, -0.09073625, 0.0790932, -253697.47, -207262.58, 0.0, 9.993566, 10.001691 
2.294751e+3, 3.052666e+2, -923014.25, -158099.73, -6299.34, -0.11645173, 0.20894833, -158047.86, -158047.86, 0.0, 9.992434, 10.002559 
2.2947161e+3, 3.152694e+2, -950061.1, 21772.75, -70280.1, -0.115348734, 0.22452958, 26828.89, 26828.89, 0.0, 9.991418, 10.004282 
2.3053548e+3, 1.353222e+2, -811616.94, -1565626.3, 53192.535, -0.06754306, 0.17581181, -807882.94, 805976.44, 0.42908552, 10.012228, 9.994702 
2.3053232e+3, 1.4531709e+2, -756876.75, -1531550.4, -14441.007, 0.29007754, 0.16291364, -756607.6, 759303.5, 0.26981747, 10.009381, 9.99539 
2.3052844e+3, 1.5531276e+2, -582486.3, -1466545.6, 18.469551, 0.06758006, 0.1976687, -582486.3, 835467.3, 0.13654217, 10.008882, 9.995407 
2.3052473e+3, 1.65309e+2, -464228.9, -1252048.6, 30130.092, -0.021809887, 0.21679589, -463078.28, 856912.44, 0.05111322, 10.007776, 9.996764 
2.3052119e+3, 1.7530566e+2, -581646.25, -1273485.4, 24456.797, 0.017744258, 0.2123803, -580782.8, 641240.44, 0.011845196, 10.006035, 9.996758 
2.305176e+3, 1.8530269e+2, -610610.4, -1136859.6, 16133.945, 0.02634212, 0.20025596, -610116.2, 513936.5, 0.0009795991, 10.004668, 9.997681 
2.3051396e+3, 1.9530012e+2, -666815.6, -1115614.0, 16843.816, 0.0021158138, 0.17849612, -666184.4, 359894.16, 0.0000004800292, 10.003613, 9.9976635 
2.3051035e+3, 2.0529827e+2, -659391.3, -953178.6, 19511.81, -0.017265735, 0.18902837, -658101.06, 269995.4, 0.0, 10.002525, 9.998629 
2.3050673e+3, 2.152972e+2, -727196.44, -937610.75, 20295.264, -0.030231256, 0.22354442, -725256.75, 104849.91, 0.0, 10.001398, 9.998607 
2.3050316e+3, 2.252962e+2, -716821.2, -776814.9, 21051.035, -0.019748233, 0.2230911, -710171.6, 21944.549, 0.0, 10.000344, 9.999545 
2.3049958e+3, 2.3529536e+2, -765802.5, -753665.0, 16827.936, 0.015133053, 0.18713659, -741844.94, -107720.664, 0.0, 9.9993515, 9.99951 
2.3049597e+3, 2.4529499e+2, -757760.06, -615932.75, 17132.566, 0.004919291, 0.1711862, -613892.56, -77765.38, 0.0, 9.998376, 10.000252 
2.3049234e+3, 2.5529516e+2, -803542.75, -589478.4, 18513.408, -0.052721463, 0.16672131, -587889.06, -149764.47, 0.0, 9.997398, 10.000233 
2.3048872e+3, 2.6529574e+2, -801692.0, -459274.5, 24986.209, -0.07918648, 0.17732939, -457460.88, -117342.47, 0.0, 9.996402, 10.000933 
2.3048519e+3, 2.7529687e+2, -853235.06, -437436.63, 27021.61, -0.05578393, 0.2020294, -435687.9, -193580.11, 0.0, 9.995392, 10.000897 
2.3048161e+3, 2.8529805e+2, -820777.1, -263776.38, 17519.576, -0.033644233, 0.18820432, -263225.88, -119129.46, 0.0, 9.994481, 10.001855 
2.30478e+3, 2.9529917e+2, -857554.75, -240015.44, 2448.437, -0.07022409, 0.11714836, -240005.73, -193920.69, 0.0, 9.993595, 10.001774 
2.3047426e+3, 3.0530173e+2, -922051.94, -143745.86, -1201.1736, -0.17607242, 0.16317937, -143744.02, -143744.02, 0.0, 9.992373, 10.00269 
2.304708e+3, 3.1530496e+2, -963650.94, 43244.8, -37293.695, -0.03404827, 0.21067014, 44624.207, 44624.207, 0.0, 9.991213, 10.004525 
2.3153701e+3, 1.3535778e+2, -850603.5, -1653062.5, -60810.84, 0.25170007, 0.14122674, -846021.4, 767489.4, 0.42911658, 10.012132, 9.993928 
2.3153271e+3, 1.4535366e+2, -732371.44, -1469778.4, -26585.166, -0.25441223, 0.23104373, -731414.25, 784140.5, 0.26998296, 10.009344, 9.995946 
2.3152933e+3, 1.5534922e+2, -554317.7, -1395645.3, -12212.286, 0.062093075, 0.20056057, -554140.5, 863456.1, 0.13666266, 10.008854, 9.99593 
2.3152569e+3, 1.6534534e+2, -477946.1, -1274046.5, -29923.26, 0.14400806, 0.18992138, -476822.94, 842811.56, 0.05115547, 10.007744, 9.996622 
2.315218e+3, 1.7534193e+2, -592557.1, -1294155.4, -35774.2, 0.027157892, 0.1923215, -590737.75, 630930.6, 0.011855064, 10.006022, 9.996624 
2.3151802e+3, 1.8533924e+2, -607397.7, -1130757.4, -20977.719, -0.015460001, 0.21354355, -606558.2, 517137.34, 0.0009830974, 10.004668, 9.997725 
2.3151433e+3, 1.9533728e+2, -664453.94, -1110051.3, -19802.441, 0.0053474493, 0.2485579, -663575.7, 362140.28, 0.0000005356273, 10.003609, 9.997705 
2.3151062e+3, 2.0533532e+2, -657291.75, -948259.1, -20922.313, 0.015558025, 0.24113092, -655795.0, 271940.1, 0.0, 10.002521, 9.998667 
2.3150691e+3, 2.1533343e+2, -725555.9, -933002.7, -19066.037, 0.01613588, 0.19032496, -723818.1, 105934.125, 0.0, 10.00139, 9.998643 
2.315032e+3, 2.253323e+2, -726210.3, -795976.56, -14566.17, -0.0025964081, 0.18348005, -723291.25, 8471.696, 0.0, 10.00034, 9.999416 
2.3149946e+3, 2.3533194e+2, -773703.25, -770543.3, -19539.611, -0.035395905, 0.20938979, -752519.9, -118752.85, 0.0, 9.999351, 9.999396 
2.3149578e+3, 2.4533172e+2, -754634.0, -610264.1, -20553.418, -0.03432584, 0.21119574, -607395.06, -71626.3, 0.0, 9.998377, 10.000291 
2.3149212e+3, 2.5533175e+2, -800668.5, -585792.06, -19317.834, -0.012670291, 0.18951087, -584069.2, -146301.92, 0.0, 9.997406, 10.000256 
2.314884e+3, 2.6533216e+2, -800318.3, -457413.66, -15291.768, -0.033246044, 0.17742972, -456733.06, -116969.9, 0.0, 9.996403, 10.000946 
2.314847e+3, 2.7533296e+2, -851796.25, -433722.1, -10883.808, -0.06812404, 0.1657175, -433438.94, -191682.84, 0.0, 9.995386, 10.000927 
2.3148106e+3, 2.8533465e+2, -830897.1, -284451.75, -16081.044, -0.0499089, 0.2129537, -283978.94, -140239.23, 0.0, 9.994477, 10.001716 
2.3147736e+3, 2.9533732e+2, -858224.5, -245784.66, -33923.965, -0.05244175, 0.31240755, -243911.3, -198197.69, 0.0, 9.993611, 10.001728 
2.314735e+3, 3.0533707e+2, -923579.06, -149380.89, -56144.566, -0.16011341, 0.07443521, -145330.48, -145330.48, 0.0, 9.99238, 10.002651 
2.3146987e+3, 3.153406e+2, -970933.06, 25579.877, 109518.016, -0.09473343, 0.17002836, 37474.08, 37474.08, 0.0, 9.991223, 10.004399 
2.3253809e+3, 1.353954e+2, -931918.56, -1739270.0, -42582.07, 0.1844857, 0.1399227, -929678.9, 683463.5, 0.424164, 10.011148, 9.993795 
2.3253378e+3, 1.4539127e+2, -597635.2, -1398432.0, 21681.762, -0.17219068, 0.2370166, -597048.6, 918137.75, 0.26733795, 10.010537, 9.9960375 
2.3253015e+3, 1.5538697e+2, -593568.56, -1406222.6, 16353.397, 0.043621767, 0.209646, -593239.56, 823987.6, 0.13544057, 10.008491, 9.996019 
2.3252636e+3, 1.6538304e+2, -576526.8, -1318316.0, -8878.368, 0.10527266, 0.19142406, -576420.56, 742844.9, 0.050698433, 10.007016, 9.99665 
2.3252238e+3, 1.7537956e+2, -590552.2, -1289368.0, -2213.369, 0.026946949, 0.18412589, -590545.1, 630755.0, 0.011742984, 10.006022, 9.996655 
2.3251851e+3, 1.8537694e+2, -576487.4, -1115028.5, 23867.941, -0.0038276832, 0.20949705, -575431.6, 547895.25, 0.0009745526, 10.00488, 9.997729 
2.3251468e+3, 1.9537508e+2, -666525.06, -1109212.4, 22352.59, 0.007706789, 0.2581771, -665399.3, 359946.72, 0.0000006560454, 10.00359, 9.997719 
2.3251086e+3, 2.0537315e+2, -671080.94, -954809.8, 22047.963, 0.018321153, 0.25287727, -669377.9, 257987.13, 0.0, 10.002429, 9.998664 
2.3250705e+3, 2.1537119e+2, -727153.4, -933330.6, 19594.084, 0.027892707, 0.19551408, -725307.75, 104075.305, 0.0, 10.001379, 9.998645 
2.3250322e+3, 2.2537002e+2, -734303.06, -807035.8, 28273.6, 0.0010921016, 0.18756151, -724605.25, 6789.0464, 0.0, 10.000317, 9.9993515 
2.3249936e+3, 2.3536961e+2, -795517.9, -787099.0, 29016.75, -0.053616278, 0.21767521, -761987.94, -128589.25, 0.0, 9.999229, 9.999339 
2.3249558e+3, 2.4536939e+2, -762087.5, -614770.3, 36361.844, -0.04700496, 0.22226126, -606284.06, -70883.44, 0.0, 9.998332, 10.00028 
2.3249187e+3, 2.5536942e+2, -774241.5, -574285.0, 33536.38, 0.008090469, 0.20406187, -568810.2, -131411.03, 0.0, 9.997594, 10.000242 
2.3248807e+3, 2.653698e+2, -761735.3, -437385.38, 28918.71, -0.012602521, 0.1916606, -434827.2, -95431.98, 0.0, 9.996663, 10.0009575 
2.3248422e+3, 2.7537048e+2, -831774.3, -423273.47, 30825.666, -0.08149493, 0.1684163, -420960.47, -179571.38, 0.0, 9.995522, 10.000933 
2.3248047e+3, 2.853722e+2, -835101.44, -295528.47, 35146.87, -0.0750209, 0.22032265, -293248.72, -149875.86, 0.0, 9.994491, 10.001633 
2.3247673e+3, 2.9537526e+2, -861190.2, -254804.48, 19307.057, -0.051581863, 0.36463997, -254190.38, -208846.75, 0.0, 9.9936285, 10.001656 
2.324728e+3, 3.0537426e+2, -899536.8, -167205.8, -31826.727, -0.11176406, 0.070418485, -165825.23, -165825.23, 0.0, 9.992674, 10.002385 
2.3246895e+3, 3.1537828e+2, -950652.1, 49766.625, 173389.11, -0.13789324, 0.2430261, 78965.6, 78965.6, 0.0, 9.991305, 10.004524 
2.3353882e+3, 1.3543472e+2, -911407.25, -1692619.5, -27881.502, -0.2133586, 0.16731383, -910413.44, 702343.6, 0.4144992, 10.011095, 9.99413 
2.3353545e+3, 1.4542979e+2, -614342.25, -1436230.8, -35163.434, 0.4414724, 0.18933262, -612840.56, 901967.0, 0.26192972, 10.010473, 9.99571 
2.3353095e+3, 1.554258e+2, -612044.3, -1450149.5, -46394.4, 0.0036488671, 0.22393705, -609483.9, 807363.2, 0.13287538, 10.008466, 9.995723 
2.3352683e+3, 1.6542193e+2, -566250.2, -1296182.1, -41588.387, -0.12112879, 0.21807295, -563888.25, 754996.94, 0.049730107, 10.007003, 9.996817 
2.3352297e+3, 1.754184e+2, -581126.94, -1266295.4, -35764.457, 0.017917749, 0.18860632, -579265.2, 641654.8, 0.011499387, 10.006004, 9.996823 
2.3351905e+3, 1.8541561e+2, -580641.4, -1120885.1, -22476.607, 0.05530691, 0.1902604, -579707.9, 543240.1, 0.0009519176, 10.004866, 9.997697 
2.3351504e+3, 1.9541344e+2, -669793.5, -1114050.3, -22729.953, 0.0055953767, 0.20867051, -668633.56, 356336.38, 0.00000084444054, 10.003578, 9.997692 
2.3351109e+3, 2.0541167e+2, -675035.2, -963252.06, -15382.783, -0.010040249, 0.22554585, -674216.5, 252771.03, 0.0, 10.002427, 9.998609 
2.3350716e+3, 2.1541035e+2, -731361.2, -941568.75, -16763.305, 0.0027786405, 0.23850264, -730032.75, 98967.6, 0.0, 10.001374, 9.998592 
2.3350322e+3, 2.2540921e+2, -734433.94, -807733.25, -11423.559, -0.009664422, 0.23510684, -732694.9, -1683.3993, 0.0, 10.000316, 9.999348 
2.3349929e+3, 2.3540826e+2, -795545.4, -787987.1, -10776.53, -0.04223303, 0.21146289, -780346.3, -147325.9, 0.0, 9.99923, 9.999334 
2.3349543e+3, 2.4540788e+2, -766286.5, -624545.25, 7419.5327, -0.035055466, 0.20434652, -624157.94, -89134.13, 0.0, 9.998335, 10.000214 
2.3349163e+3, 2.554081e+2, -777382.56, -582151.6, 4965.915, 0.004095923, 0.21096551, -582025.44, -145004.3, 0.0, 9.997598, 10.000188 
2.3348773e+3, 2.654087e+2, -761545.6, -438000.28, -15546.104, -0.019500338, 0.22013712, -437255.03, -98239.7, 0.0, 9.996665, 10.000954 
2.3348375e+3, 2.754095e+2, -831609.44, -426493.25, -14136.566, -0.095653996, 0.21004225, -426000.53, -184993.02, 0.0, 9.995535, 10.000906 
2.3347986e+3, 2.854106e+2, -837217.6, -302861.88, 175.59268, -0.11496365, 0.2087799, -302861.8, -159865.06, 0.0, 9.994501, 10.001578 
2.3347604e+3, 2.9541272e+2, -868867.5, -272469.25, -11663.175, -0.08867064, 0.26638705, -272241.25, -227264.63, 0.0, 9.993632, 10.0015335 
2.334722e+3, 3.054132e+2, -936483.5, -243946.22, -79530.72, -0.0016272672, 0.1525288, -234930.31, -234930.31, 0.0, 9.992672, 10.001861 
2.3346807e+3, 3.1541538e+2, -958723.25, 26068.139, 16257.368, -0.15077934, 0.19182678, 26336.45, 26336.45, 0.0, 9.991322, 10.004359 
2.345399e+3, 1.3547452e+2, -726991.75, -1538413.3, -60466.51, -0.3147311, 0.17756566, -722510.56, 889857.2, 0.40106446, 10.012733, 9.994732 
2.3453645e+3, 1.4546986e+2, -739268.5, -1497070.8, -29098.01, 0.48652503, 0.20031059, -738152.8, 776262.5, 0.2541268, 10.009223, 9.99574 
2.3453179e+3, 1.5546575e+2, -650777.06, -1469133.5, -19370.828, 0.0048120525, 0.22243583, -650318.8, 766137.44, 0.12908818, 10.008118, 9.995755 
2.3452751e+3, 1.65462e+2, -577407.7, -1294009.1, 7419.4053, -0.13496284, 0.22188328, -577330.9, 741162.6, 0.048278153, 10.006881, 9.996889 
2.3452353e+3, 1.7545873e+2, -648235.6, -1290254.9, 8148.586, 0.014613791, 0.21182844, -648132.2, 572393.5, 0.011124024, 10.005503, 9.996898 
2.3451951e+3, 1.8545589e+2, -651541.3, -1154178.9, 23028.076, 0.05648745, 0.20751165, -650488.5, 472065.2, 0.00091346167, 10.004377, 9.997702 
2.3451538e+3, 1.9545345e+2, -687288.0, -1121388.1, 24116.79, 0.0060562557, 0.19880614, -685952.25, 338625.5, 0.0000010415317, 10.003457, 9.997699 
2.345113e+3, 2.0545161e+2, -679451.4, -979865.2, 31792.248, -0.018871015, 0.21534087, -676123.75, 250472.5, 0.0, 10.002462, 9.998476 
2.3450728e+3, 2.1545039e+2, -736713.44, -957072.3, 24268.336, -0.020604972, 0.25196093, -734072.4, 94536.39, 0.0, 10.001397, 9.998473 
2.3450325e+3, 2.2544919e+2, -718583.8, -801585.5, 30425.541, -0.019994445, 0.25106135, -708625.6, 21994.885, 0.0, 10.000435, 9.999331 
2.3449925e+3, 2.3544808e+2, -749055.1, -766346.5, 30740.635, -0.015733555, 0.21193679, -725767.56, -93136.73, 0.0, 9.999555, 9.999325 
2.3449528e+3, 2.4544767e+2, -742759.56, -613840.75, 52665.047, -0.016864026, 0.20338699, -595061.8, -60427.504, 0.0, 9.998502, 10.000206 
2.3449133e+3, 2.5544798e+2, -822607.06, -603712.8, 54155.16, -0.020007392, 0.22004741, -591047.5, -154416.67, 0.0, 9.99729, 10.000187 
2.3448735e+3, 2.6544848e+2, -808144.94, -471247.47, 35379.516, -0.04337124, 0.22950737, -467572.16, -128946.5, 0.0, 9.996396, 10.000854 
2.3448333e+3, 2.7544916e+2, -805836.2, -422269.16, 27953.014, -0.08581053, 0.21646757, -420242.75, -179623.38, 0.0, 9.99575, 10.000829 
2.3447935e+3, 2.8545022e+2, -797670.4, -278275.97, 38648.22, -0.10047862, 0.21124613, -275415.9, -132806.78, 0.0, 9.994751, 10.001626 
2.3447539e+3, 2.9545218e+2, -903049.75, -294673.63, 34699.125, -0.08057518, 0.24937631, -292700.94, -248110.5, 0.0, 9.993425, 10.00148 
2.3447138e+3, 3.0545297e+2, -958446.25, -257068.5, -5336.7183, -0.048144355, 0.17676374, -257027.89, -257027.89, 0.0, 9.992537, 10.001833 
2.3446724e+3, 3.1545523e+2, -890798.06, 60362.418, 78398.81, -0.11291144, 0.21906075, 66781.08, 66781.08, 0.0, 9.991789, 10.004366 
2.3554128e+3, 1.3551475e+2, -678842.44, -1462703.8, -192606.16, -0.19130754, 0.17574152, -634073.25, 977901.75, 0.38547114, 10.012566, 9.995645 
2.3553692e+3, 1.4551128e+2, -718108.56, -1466975.1, -59025.27, 0.033159472, 0.25999507, -713484.8, 800526.4, 0.24463935, 10.009184, 9.996031 
2.3553264e+3, 1.5550673e+2, -632264.8, -1427606.9, -52736.555, 0.046376437, 0.20727713, -628783.25, 787272.7, 0.124328695, 10.008081, 9.996062 
2.3552835e+3, 1.6550311e+2, -580842.75, -1299683.5, -39940.98, 0.037367392, 0.20665158, -578630.4, 739461.4, 0.046408225, 10.006858, 9.9968605 
2.3552407e+3, 1.7550036e+2, -649689.56, -1293978.6, -39483.92, 0.010686107, 0.2513453, -647278.9, 572840.2, 0.010625739, 10.0055, 9.996876 
2.3551987e+3, 1.8549764e+2, -649454.94, -1151363.8, -9548.626, 0.0020778407, 0.25771087, -649273.4, 472872.28, 0.0008584451, 10.004381, 9.997721 
2.3551573e+3, 1.9549498e+2, -686973.6, -1120002.1, -7959.3853, 0.007378189, 0.2269624, -686827.4, 337343.66, 0.0000011539311, 10.003451, 9.997712 
2.3551154e+3, 2.0549284e+2, -694330.94, -1010731.56, -6522.192, -0.010031204, 0.22276506, -694196.56, 231995.81, 0.0, 10.00246, 9.998267 
2.3550737e+3, 2.1549118e+2, -751544.56, -986818.06, -12781.576, -0.045935925, 0.23620003, -750852.25, 77357.26, 0.0, 10.0013895, 9.998275 
2.3550327e+3, 2.2548988e+2, -721012.06, -807025.2, -1084.3853, -0.03203961, 0.23592854, -720998.4, 9223.997, 0.0, 10.000434, 9.999296 
2.3549925e+3, 2.3548895e+2, -750706.25, -770846.25, -2124.2937, 0.022464402, 0.219157, -750484.6, -118253.63, 0.0, 9.9995575, 9.999294 
2.3549514e+3, 2.4548864e+2, -739212.2, -607804.6, 5768.5557, 0.0058176154, 0.22028755, -607551.9, -73318.74, 0.0, 9.998505, 10.000247 
2.35491e+3, 2.5548893e+2, -819154.8, -598483.8, 8407.77, -0.0705774, 0.23125842, -598163.94, -161934.84, 0.0, 9.997295, 10.000221 
2.3548694e+3, 2.6548913e+2, -822501.94, -501829.22, 9188.717, -0.08737712, 0.21842979, -501566.13, -163338.89, 0.0, 9.996398, 10.000644 
2.3548292e+3, 2.7548942e+2, -814840.6, -442311.0, 1868.875, -0.051463526, 0.18484886, -442301.63, -202075.77, 0.0, 9.995754, 10.00069 
2.3547888e+3, 2.8549102e+2, -785706.5, -254177.78, -12919.167, -0.027537813, 0.22976269, -253863.97, -111653.516, 0.0, 9.994751, 10.001792 
2.3547478e+3, 2.954937e+2, -900487.94, -292262.2, -13902.162, -0.028616758, 0.32418942, -291944.6, -247760.17, 0.0, 9.993434, 10.001494 
2.3547038e+3, 3.054934e+2, -922253.75, -186263.28, -25956.893, -0.28196186, 0.12740687, -185348.97, -185348.97, 0.0, 9.992552, 10.002314 
2.3546648e+3, 3.154976e+2, -888282.6, 67847.3, 52643.11, -0.040282294, 0.29387352, 70737.016, 70737.016, 0.0, 9.991784, 10.004417 
2.3654778e+3, 1.2556066e+2, -1430461.9, -1909917.6, -126342.8, 0.21376479, 0.1329086, -1399206.4, 310316.56, 0.49683493, 10.005892, 9.995943 
2.3654243e+3, 1.3555726e+2, -977936.6, -1582398.3, -130582.1, -0.092635736, 0.17645672, -950933.25, 660626.7, 0.36948407, 10.008819, 9.996104 
2.365377e+3, 1.4555414e+2, -715704.0, -1472952.1, 106.379875, -0.10823241, 0.27695215, -715703.94, 797888.3, 0.23436934, 10.009133, 9.995991 
2.365334e+3, 1.5554956e+2, -709252.9, -1477171.9, -6695.766, 0.05827157, 0.22802447, -709194.5, 706442.56, 0.11893998, 10.007473, 9.996008 
2.3652905e+3, 1.6554576e+2, -654334.75, -1346025.1, 9684.59, 0.0836929, 0.21866584, -654199.2, 663475.2, 0.04421521, 10.006364, 9.996771 
2.3652461e+3, 1.7554273e+2, -617283.56, -1287035.3, 6278.1743, -0.009990331, 0.2444078, -617224.7, 602479.56, 0.0100216875, 10.005765, 9.996793 
2.3652029e+3, 1.8553995e+2, -600916.3, -1134152.0, 24712.44, -0.030061452, 0.25356063, -599773.44, 521957.88, 0.00078811793, 10.004746, 9.997661 
2.3651604e+3, 1.9553745e+2, -700700.06, -1132135.5, 20095.209, 0.010390717, 0.24438196, -699766.1, 323989.34, 0.0000011146645, 10.003385, 9.997659 
2.365118e+3, 2.0553522e+2, -717768.06, -1024354.2, 33009.973, 0.0046729823, 0.2362987, -714254.1, 211523.28, 0.0, 10.002312, 9.998243 
2.3650752e+3, 2.1553329e+2, -741856.6, -984422.06, 39293.836, -0.03748697, 0.22472116, -735650.1, 92146.766, 0.0, 10.001469, 9.998252 
2.3650332e+3, 2.2553189e+2, -721646.94, -822393.3, 53092.527, -0.03343458, 0.22579332, -698833.5, 30977.121, 0.0, 10.000497, 9.999159 
2.3649918e+3, 2.3553105e+2, -780067.0, -798614.0, 45335.4, 0.011422991, 0.2323944, -743066.4, -111247.54, 0.0, 9.999418, 9.999169 
2.3649497e+3, 2.4553065e+2, -747079.56, -621999.06, 44107.215, 0.0020131015, 0.2354765, -608010.06, -74187.82, 0.0, 9.998499, 10.000151 
2.3649074e+3, 2.5553071e+2, -768193.56, -582642.94, 35824.11, -0.055846885, 0.23159426, -575966.6, -140145.81, 0.0, 9.997686, 10.00014 
2.3648657e+3, 2.655309e+2, -788897.7, -472017.44, 46749.074, -0.07807521, 0.21697149, -465264.5, -127445.78, 0.0, 9.996573, 10.000762 
2.3648244e+3, 2.7553135e+2, -884600.2, -463128.75, 63209.35, -0.054986272, 0.1905091, -453853.2, -214038.14, 0.0, 9.995227, 10.000799 
2.3647831e+3, 2.8553295e+2, -837258.94, -283214.56, 49996.434, -0.027988175, 0.23458965, -278739.1, -136939.53, 0.0, 9.994422, 10.001749 
2.3647414e+3, 2.9553553e+2, -820178.44, -249646.16, 31114.234, -0.034535512, 0.32486218, -247954.34, -204179.55, 0.0, 9.993975, 10.001523 
2.3646966e+3, 3.055355e+2, -873911.06, -144733.13, 10697.761, -0.2928963, 0.13982302, -144576.22, -144576.22, 0.0, 9.992806, 10.002477 
2.3646568e+3, 3.1553835e+2, -972493.5, -23036.951, 45249.094, -0.00428342, 0.1608976, -20885.352, -20885.352, 0.0, 9.991427, 10.003963 
2.3754817e+3, 1.256063e+2, -1399429.5, -1867097.8, -55920.13, 0.03549042, 0.24338266, -1392836.0, 316243.97, 0.47728372, 10.006014, 9.996082 
2.3754339e+3, 1.3560182e+2, -967560.4, -1583786.9, -70484.47, -0.009635805, 0.17926607, -959601.1, 651523.6, 0.3541248, 10.008763, 9.996106 
2.375387e+3, 1.4559832e+2, -733278.7, -1521803.4, -49160.53, 0.007944428, 0.262161, -730225.6, 782933.9, 0.22403947, 10.009058, 9.995617 
2.3753414e+3, 1.5559405e+2, -731069.4, -1537816.8, -61031.285, 0.03809351, 0.2803879, -726478.44, 688723.2, 0.113265224, 10.0074625, 9.995603 
2.3752962e+3, 1.6558978e+2, -663923.7, -1370549.4, -10386.67, 0.01778631, 0.2525416, -663771.06, 653472.25, 0.04181508, 10.006362, 9.996605 
2.3752515e+3, 1.7558572e+2, -631851.5, -1313276.3, -15073.959, -0.04581223, 0.19359495, -631518.25, 587764.2, 0.009340339, 10.00574, 9.996626 
2.3752072e+3, 1.8558276e+2, -614261.06, -1157711.6, -24426.396, -0.043279354, 0.20048688, -613165.4, 508146.1, 0.0007064642, 10.004725, 9.997511 
2.3751639e+3, 1.9558072e+2, -711823.6, -1153522.5, -26989.87, 0.011384814, 0.25225154, -710180.5, 313151.63, 0.00000092378025, 10.003375, 9.997519 
2.3751204e+3, 2.0557861e+2, -706958.6, -1002879.8, 3240.3108, 0.023363477, 0.25551543, -706923.1, 218429.56, 0.0, 10.002313, 9.998391 
2.3750769e+3, 2.1557657e+2, -733674.56, -967259.3, 9821.758, 0.00018098539, 0.21763642, -733262.3, 94109.836, 0.0, 10.001465, 9.998373 
2.3750335e+3, 2.2557515e+2, -738340.3, -857891.7, 13622.488, -0.026818803, 0.22208738, -736807.75, -7421.509, 0.0, 10.000498, 9.998917 
2.3749903e+3, 2.3557429e+2, -796668.56, -833754.9, 6002.5957, -0.05302462, 0.252064, -795721.2, -164325.81, 0.0, 9.999418, 9.998929 
2.374948e+3, 2.4557358e+2, -763592.9, -657508.75, 12395.161, -0.028922897, 0.24856643, -656079.7, -122677.03, 0.0, 9.998502, 9.999907 
2.374906e+3, 2.5557315e+2, -781035.7, -612142.8, 2799.7517, 0.025625147, 0.2216433, -612096.44, -176689.6, 0.0, 9.997696, 9.999934 
2.3748627e+3, 2.655737e+2, -757088.75, -407426.78, -6617.2563, -0.015487286, 0.22627081, -407301.6, -69900.77, 0.0, 9.996576, 10.001205 
2.374819e+3, 2.755749e+2, -860622.3, -413578.7, 14361.697, -0.111591056, 0.23290737, -413117.78, -173730.16, 0.0, 9.995224, 10.0011425 
2.3747769e+3, 2.8557596e+2, -858126.1, -327764.72, 32279.867, -0.110647604, 0.22316074, -325807.28, -184429.75, 0.0, 9.994425, 10.001443 
2.3747349e+3, 2.9557765e+2, -814529.2, -243779.83, 7645.727, -0.0902945, 0.25110647, -243677.42, -200314.56, 0.0, 9.993997, 10.0015545 
2.3746914e+3, 3.0557916e+2, -882060.75, -160268.81, -53819.84, -0.06590905, 0.21228218, -156277.84, -156277.84, 0.0, 9.992799, 10.002375 
2.3746474e+3, 3.1557977e+2, -955391.3, 3026.8875, 7110.7324, -0.06860172, 0.054082546, 3079.6406, 3079.6406, 0.0, 9.991452, 10.004139 
2.3854883e+3, 1.256512e+2, -1158867.5, -1678761.8, -34940.76, -0.052182954, 0.29262155, -1156529.8, 552113.25, 0.4590561, 10.008886, 9.996137 
2.3854424e+3, 1.3564648e+2, -1018198.8, -1622034.4, -59546.625, 0.030313332, 0.21011138, -1012382.7, 598305.75, 0.33956936, 10.008097, 9.996084 
2.3853958e+3, 1.4564276e+2, -874270.9, -1604105.4, -70899.27, 0.056479942, 0.26387605, -867447.2, 645277.3, 0.21396938, 10.007694, 9.995712 
2.3853484e+3, 1.5563844e+2, -708880.75, -1520029.3, -58049.707, 0.0129814055, 0.26972827, -704747.5, 710019.0, 0.10754404, 10.007566, 9.995672 
2.3853022e+3, 1.656342e+2, -621856.25, -1351036.8, 7262.743, -0.013253751, 0.24376881, -621783.94, 695023.9, 0.039322134, 10.006659, 9.996593 
2.3852569e+3, 1.7563023e+2, -713034.2, -1354644.3, 12857.634, -0.029158117, 0.19604726, -712776.6, 506069.6, 0.008618335, 10.005187, 9.996607 
2.3852119e+3, 1.8562724e+2, -700265.3, -1199356.5, 15086.632, -0.023126675, 0.20192671, -699809.7, 421065.9, 0.00061929045, 10.004139, 9.997504 
2.385167e+3, 1.956251e+2, -704415.75, -1151282.3, 21730.027, 0.001819689, 0.2429163, -703361.56, 319535.75, 0.0000006457051, 10.003435, 9.997502 
2.3851226e+3, 2.0562297e+2, -679532.44, -997333.75, 50542.855, 0.010882322, 0.2510746, -671687.75, 253230.34, 0.0, 10.002538, 9.99832 
2.3850784e+3, 2.1562102e+2, -734946.6, -975206.6, 39611.33, 0.006537665, 0.23107605, -728584.44, 98352.66, 0.0, 10.001492, 9.998303 
2.385034e+3, 2.2561951e+2, -743649.5, -867032.0, 41967.38, -0.019307047, 0.23455346, -730727.94, -1776.0072, 0.0, 10.000493, 9.998855 
2.3849897e+3, 2.3561844e+2, -786105.06, -835721.5, 48705.09, -0.05739639, 0.24988684, -756254.0, -125291.12, 0.0, 9.999523, 9.998864 
2.3849463e+3, 2.4561763e+2, -771810.0, -671307.56, 71759.0, -0.03568912, 0.24524403, -633954.3, -100982.945, 0.0, 9.998492, 9.999815 
2.3849036e+3, 2.5561717e+2, -828346.3, -644353.8, 72391.445, 0.028899018, 0.22527063, -619286.7, -184310.22, 0.0, 9.9974165, 9.9998455 
2.3848593e+3, 2.656177e+2, -755606.5, -407856.72, 45757.957, -0.011587248, 0.23707427, -401936.53, -64966.18, 0.0, 9.996596, 10.00119 
2.3848145e+3, 2.7561903e+2, -760361.6, -367370.78, 31146.43, -0.11622728, 0.2559169, -364917.6, -125961.805, 0.0, 9.995925, 10.001121 
2.384771e+3, 2.856199e+2, -797487.5, -301031.4, 55857.742, -0.12944253, 0.23070453, -294824.3, -153876.89, 0.0, 9.994856, 10.001417 
2.384728e+3, 2.9562104e+2, -880008.06, -274329.16, 48247.63, -0.12279696, 0.20988455, -270509.9, -227571.83, 0.0, 9.993549, 10.001558 
2.3846848e+3, 3.056235e+2, -891663.4, -128382.305, -26030.129, 0.012644787, 0.24719366, -127495.63, -127495.63, 0.0, 9.992579, 10.002697 
2.3846377e+3, 3.15627e+2, -883382.5, 150821.02, 88422.36, -0.18713573, 0.3532217, 158326.48, 158326.48, 0.0, 9.991468, 10.005142 
2.3954965e+3, 1.2569554e+2, -1145644.4, -1677192.3, -52800.15, -0.08474953, 0.29598913, -1140450.4, 567760.2, 0.44175005, 10.008814, 9.996176 
2.3954505e+3, 1.3569126e+2, -1009567.1, -1629134.0, -76425.76, 0.029846627, 0.2607201, -1000278.94, 609972.25, 0.32564703, 10.008069, 9.996058 
2.3954034e+3, 1.4568734e+2, -842282.44, -1537135.0, -71801.24, 0.046008885, 0.2727993, -834940.6, 677347.44, 0.20420876, 10.0076685, 9.996188 
2.3953554e+3, 1.5568276e+2, -682593.1, -1457110.4, -63331.246, -0.019164627, 0.20281684, -677448.8, 736882.8, 0.10190418, 10.007508, 9.996135 
2.3953089e+3, 1.6567904e+2, -618469.6, -1338013.8, -44150.234, -0.01660867, 0.20066434, -615770.75, 700597.2, 0.036827482, 10.006613, 9.996708 
2.3952627e+3, 1.7567615e+2, -707775.2, -1342383.3, -38182.62, 0.03165738, 0.25014994, -705486.06, 512910.84, 0.007891023, 10.005176, 9.996698 
2.3952164e+3, 1.8567324e+2, -691964.6, -1182894.0, -9717.46, 0.025505567, 0.2532456, -691772.4, 428653.0, 0.00053250155, 10.004139, 9.997619 
2.3951702e+3, 1.956704e+2, -700130.7, -1140569.8, -3233.6548, -0.020760143, 0.2157977, -700106.94, 322345.38, 0.00000036108204, 10.003425, 9.997582 
2.3951246e+3, 2.0566817e+2, -700955.56, -1041121.9, 12574.987, -0.032478347, 0.22515167, -700491.3, 223983.44, 0.0, 10.002532, 9.998023 
2.3950796e+3, 2.156665e+2, -755124.3, -1015749.1, 3105.8364, -0.019564008, 0.26476744, -755087.3, 71405.44, 0.0, 10.001483, 9.998032 
2.3950344e+3, 2.2566488e+2, -735618.3, -850733.7, 6860.23, -0.011593913, 0.26243192, -735210.94, -6702.1143, 0.0, 10.000492, 9.998968 
2.3949894e+3, 2.356634e+2, -778356.44, -820718.56, 12347.513, -0.00599188, 0.22672015, -775020.2, -144497.97, 0.0, 9.999525, 9.998968 
2.3949449e+3, 2.4566272e+2, -767748.0, -664349.94, 29772.46, -0.021363089, 0.22636792, -656390.0, -123861.0, 0.0, 9.998495, 9.999864 
2.3948999e+3, 2.5566265e+2, -827482.2, -643732.7, 32360.727, -0.055180762, 0.2424165, -638200.1, -203669.77, 0.0, 9.997418, 9.999851 
2.3948555e+3, 2.6566288e+2, -790259.56, -481610.1, 19419.44, -0.06987666, 0.24936278, -480393.1, -143864.94, 0.0, 9.996602, 10.000683 
2.394811e+3, 2.7566364e+2, -784221.75, -423452.38, 2043.0271, -0.06260835, 0.26350415, -423440.8, -184920.58, 0.0, 9.995951, 10.000724 
2.3947664e+3, 2.856647e+2, -778152.9, -263464.94, 2734.9006, -0.080053195, 0.25808972, -263450.4, -122940.305, 0.0, 9.9948635, 10.001673 
2.3947215e+3, 2.9566553e+2, -886598.7, -283765.22, 2520.355, -0.14459191, 0.18381535, -283754.7, -241251.9, 0.0, 9.993527, 10.001506 
2.3946762e+3, 3.0566865e+2, -843305.8, -28211.95, -61734.188, -0.077244624, 0.2660011, -23562.797, -23562.797, 0.0, 9.992576, 10.003389 
2.3946291e+3, 3.1567377e+2, -994746.2, -85861.55, 31916.06, -0.18331237, 0.4375333, -84742.17, -84742.17, 0.0, 9.991491, 10.003505 
2.4055056e+3, 1.2574138e+2, -1184512.6, -1714929.5, -10136.681, -0.030960083, 0.30231076, -1184319.0, 523442.3, 0.42505, 10.008205, 9.996048 
2.4054585e+3, 1.3573673e+2, -1013365.4, -1650392.9, -28880.209, 0.0421886, 0.24959935, -1012058.75, 597746.8, 0.31219205, 10.007966, 9.995938 
2.4054107e+3, 1.4573283e+2, -855287.8, -1508788.8, -23128.238, 0.040974732, 0.24973686, -854470.3, 657371.94, 0.19474469, 10.00732, 9.99654 
2.4053623e+3, 1.5572876e+2, -808135.06, -1489045.0, -18311.416, -0.0117842285, 0.19774428, -807642.94, 606237.44, 0.09641145, 10.006363, 9.996462 
2.4053147e+3, 1.6572529e+2, -743908.06, -1397566.8, -13980.943, -0.012658201, 0.20553404, -743609.2, 572305.25, 0.034390524, 10.005693, 9.996739 
2.4052675e+3, 1.7572248e+2, -693423.06, -1332200.5, -13920.17, 0.021014972, 0.25923035, -693119.9, 524823.75, 0.0071840184, 10.005259, 9.996726 
2.4052204e+3, 1.8571961e+2, -649654.75, -1152468.3, 10889.88, 0.019880092, 0.26180887, -649419.0, 470552.75, 0.00045075055, 10.00439, 9.997705 
2.4051733e+3, 1.9571683e+2, -728389.0, -1145786.5, 14555.157, -0.007776061, 0.22287829, -727882.06, 294115.63, 0.00000014397028, 10.0032, 9.997654 
2.405127e+3, 2.0571458e+2, -754564.06, -1077784.1, 38695.387, -0.021942543, 0.23368321, -749996.06, 174024.33, 0.0, 10.002214, 9.997923 
2.4050808e+3, 2.1571285e+2, -774857.6, -1035299.6, 42030.58, -0.023534352, 0.2755977, -768242.7, 57797.117, 0.0, 10.001393, 9.997938 
2.4050349e+3, 2.2571118e+2, -729015.56, -838454.75, 50395.902, -0.010290643, 0.27035454, -709344.44, 18711.818, 0.0, 10.000502, 9.999046 
2.4049893e+3, 2.3570971e+2, -769667.9, -808480.7, 53785.07, 0.017044006, 0.22922099, -731895.25, -101826.16, 0.0, 9.999554, 9.999037 
2.4049434e+3, 2.4570908e+2, -747932.6, -659199.1, 66449.33, -0.014116793, 0.23386349, -623666.44, -91591.26, 0.0, 9.998652, 9.999822 
2.4048969e+3, 2.5570905e+2, -781682.4, -627346.5, 62349.563, -0.09188932, 0.25953904, -605305.75, -171229.7, 0.0, 9.99776, 9.999798 
2.4048518e+3, 2.6570904e+2, -770288.25, -485020.47, 69610.83, -0.091567606, 0.25183427, -468940.5, -132864.11, 0.0, 9.996799, 10.000563 
2.404807e+3, 2.7570942e+2, -813977.25, -449370.88, 78034.125, -0.02007912, 0.24220411, -433371.8, -195299.45, 0.0, 9.995802, 10.000615 
2.4047615e+3, 2.8571075e+2, -794650.1, -276126.53, 60768.516, -0.04514639, 0.27318114, -269099.97, -129040.18, 0.0, 9.994776, 10.001626 
2.4047147e+3, 2.95712e+2, -868795.6, -285950.3, 42646.176, -0.17102316, 0.24781562, -282846.47, -240797.86, 0.0, 9.993699, 10.001407 
2.4046686e+3, 3.0571425e+2, -770439.6, 15708.739, -21880.125, -0.10810111, 0.24848945, 16317.237, 16317.237, 0.0, 9.993039, 10.003468 
2.4046218e+3, 3.1571665e+2, -972516.1, -259566.33, 19850.07, -0.10371881, 0.13381393, -259014.08, -259014.08, 0.0, 9.992448, 10.001845 
2.4155149e+3, 1.2578827e+2, -1179415.0, -1751246.5, -17943.889, 0.082064435, 0.29357243, -1178852.4, 528447.1, 0.4088444, 10.008215, 9.995794 
2.4154666e+3, 1.3578291e+2, -1015279.4, -1683270.5, -34350.13, 0.058057845, 0.19408612, -1013517.7, 595834.3, 0.29916596, 10.007937, 9.995727 
2.4154177e+3, 1.457792e+2, -836919.1, -1482378.0, -50580.207, 0.03483395, 0.21006162, -832979.56, 678407.75, 0.18559816, 10.007295, 9.9967785 
2.4153692e+3, 1.5577626e+2, -792075.2, -1460199.6, -48116.3, 0.025888199, 0.24780047, -788627.8, 624786.9, 0.09111288, 10.006356, 9.996668 
2.4153206e+3, 1.657728e+2, -747755.06, -1406959.5, -28012.988, -0.0045381445, 0.24867652, -746566.75, 568882.5, 0.03204896, 10.005682, 9.996682 
2.415272e+3, 1.7576912e+2, -701012.56, -1341357.8, -29698.904, -0.056101456, 0.22264889, -699638.06, 517849.34, 0.0065141064, 10.005223, 9.996682 
2.4152242e+3, 1.8576632e+2, -649841.6, -1147230.4, -31831.08, -0.036153484, 0.23197368, -647812.9, 471702.4, 0.0003772802, 10.004362, 9.997757 
2.415177e+3, 1.957643e+2, -727141.75, -1140994.1, -26498.57, 0.03569931, 0.26415324, -725452.0, 296082.22, 0.00000003444413, 10.003187, 9.997694 
2.4151297e+3, 2.0576212e+2, -749350.8, -1067496.1, 9559.3, 0.03786782, 0.27517495, -749063.9, 174492.2, 0.0, 10.002214, 9.997994 
2.4150823e+3, 2.1575992e+2, -771394.9, -1026957.44, 13366.565, -0.011541627, 0.26483592, -770697.7, 54881.5, 0.0, 10.001386, 9.998001 
2.4150352e+3, 2.2575831e+2, -726389.56, -833796.94, 16096.394, -0.018112853, 0.2605452, -724029.2, 3565.8767, 0.0, 10.000502, 9.99908 
2.4149886e+3, 2.3575726e+2, -768170.25, -806804.25, 19057.563, 0.009386813, 0.2579686, -760351.7, -130747.28, 0.0, 9.999557, 9.999048 
2.414942e+3, 2.457566e+2, -757136.06, -679533.9, 31562.775, -0.014063659, 0.2669583, -668317.6, -136706.77, 0.0, 9.998655, 9.999681 
2.4148948e+3, 2.557563e+2, -787807.4, -642840.1, 26920.807, -0.08308629, 0.27736545, -638002.3, -204387.86, 0.0, 9.997768, 9.999689 
2.4148487e+3, 2.657561e+2, -750558.4, -446147.06, 29923.264, -0.07748003, 0.24420668, -443233.53, -107617.78, 0.0, 9.996804, 10.000829 
2.4148029e+3, 2.757563e+2, -802402.2, -425488.3, 39784.566, 0.0025041522, 0.18930064, -421334.7, -183721.94, 0.0, 9.995799, 10.000782 
2.4147564e+3, 2.8575802e+2, -820391.9, -329337.1, 19748.92, -0.028182147, 0.27474213, -328544.13, -188947.31, 0.0, 9.994772, 10.001264 
2.414708e+3, 2.957606e+2, -875238.94, -305276.28, 6034.2583, -0.19607256, 0.41410065, -305212.4, -263637.88, 0.0, 9.993721, 10.001265 
2.4146618e+3, 3.0576026e+2, -812893.94, -78424.164, -39428.867, -0.07775748, 0.1842507, -76313.55, -76313.55, 0.0, 9.993062, 10.002811 
2.4146135e+3, 3.1576377e+2, -891927.44, -100542.33, 72271.93, -0.15890168, 0.2722665, -93996.36, -93996.36, 0.0, 9.992478, 10.002926 
2.425524e+3, 1.2583584e+2, -1053370.5, -1672077.9, -9140.104, 0.129451, 0.27232608, -1053235.5, 653597.56, 0.3931405, 10.009426, 9.995905 
2.4254741e+3, 1.3583086e+2, -1020621.1, -1682916.9, -5508.727, 0.0625928, 0.2026405, -1020575.3, 588306.6, 0.2865851, 10.007735, 9.995822 
2.4254246e+3, 1.4582717e+2, -890262.75, -1513083.9, -8262.834, 0.030863045, 0.21729328, -890153.1, 620764.56, 0.17679434, 10.006797, 9.99676 
2.4253754e+3, 1.5582424e+2, -780779.75, -1455941.5, -17373.994, 0.042918663, 0.25887716, -780332.94, 632612.56, 0.08603729, 10.006417, 9.996664 
2.4253261e+3, 1.6582087e+2, -752033.06, -1389459.9, 1415.1509, 0.01500188, 0.25893912, -752029.94, 562949.56, 0.02982493, 10.005559, 9.99686 
2.4252766e+3, 1.758173e+2, -815468.25, -1378397.6, 16163.027, -0.048837144, 0.22751792, -815004.56, 402011.7, 0.005891462, 10.0043545, 9.996844 
2.425228e+3, 1.8581459e+2, -759571.5, -1202988.3, 20437.807, -0.04029968, 0.24192038, -758631.44, 360411.84, 0.00031384884, 10.003624, 9.997727 
2.42518e+3, 1.9581264e+2, -719539.2, -1139263.8, 17740.191, 0.025295869, 0.28518498, -718790.7, 302271.56, 0.000000003872902, 10.003247, 9.997676 
2.4251318e+3, 2.0581047e+2, -703440.6, -1022182.56, 50216.53, 0.035785146, 0.28775954, -695716.4, 227367.27, 0.0, 10.002433, 9.998199 
2.4250835e+3, 2.1580827e+2, -771737.4, -1006027.2, 62873.41, 0.004602308, 0.2581493, -755931.2, 69174.336, 0.0, 10.001298, 9.998185 
2.4250357e+3, 2.2580673e+2, -746019.7, -852343.6, 71135.12, -0.009302886, 0.25939834, -710376.25, 16744.447, 0.0, 10.00041, 9.998995 
2.424988e+3, 2.358058e+2, -752164.56, -807227.4, 65421.266, -0.004508803, 0.2777234, -708717.6, -79587.67, 0.0, 9.999705, 9.998972 
2.4249405e+3, 2.4580508e+2, -738817.8, -668077.56, 76931.164, -0.02016248, 0.28386417, -618775.06, -87638.03, 0.0, 9.998775, 9.9997015 
2.4248928e+3, 2.558046e+2, -799932.25, -646169.94, 84065.92, -0.056730743, 0.27788287, -609130.94, -175989.6, 0.0, 9.99768, 9.999706 
2.4248454e+3, 2.6580444e+2, -753796.4, -455033.5, 81295.625, -0.06035741, 0.25082064, -434344.97, -99202.45, 0.0, 9.996817, 10.00076 
2.4247986e+3, 2.7580464e+2, -770045.4, -420646.66, 63182.65, -0.017326357, 0.2039673, -409572.2, -172431.89, 0.0, 9.996068, 10.000686 
2.4247509e+3, 2.8580624e+2, -775865.6, -320822.3, 40014.523, -0.045880005, 0.28700915, -317330.4, -178204.44, 0.0, 9.995136, 10.001144 
2.4247019e+3, 2.95809e+2, -821176.8, -284327.13, 45600.926, -0.1872373, 0.46047837, -280481.25, -239379.94, 0.0, 9.994121, 10.001213 
2.4246553e+3, 3.0580762e+2, -824316.5, -146553.78, 14904.1, -0.049784124, 0.15406387, -146226.19, -146226.19, 0.0, 9.993257, 10.002248 
2.424605e+3, 3.158116e+2, -819689.2, 85722.945, 135151.05, -0.24085577, 0.35031915, 105466.445, 105466.445, 0.0, 9.992321, 10.004281 
2.4355333e+3, 1.2588413e+2, -1033617.75, -1643174.4, -48169.03, 0.11107251, 0.252782, -1029834.75, 676526.2, 0.3778695, 10.009284, 9.996279 
2.4354817e+3, 1.3588028e+2, -996359.7, -1639275.3, -47249.58, 0.05308096, 0.25717255, -992905.75, 615493.0, 0.2744111, 10.007717, 9.996139 
2.4354312e+3, 1.4587642e+2, -896346.94, -1548398.9, -19297.309, 0.025270568, 0.25453132, -895776.3, 614660.2, 0.16832414, 10.006808, 9.996516 
2.4353819e+3, 1.5587263e+2, -792597.75, -1484786.1, -30191.555, 0.03981581, 0.23443401, -791283.4, 621190.25, 0.08119216, 10.00639, 9.996482 
2.4353318e+3, 1.6586946e+2, -728554.06, -1336291.8, -39833.434, 0.042621642, 0.24436268, -725954.3, 588550.8, 0.027728366, 10.00553, 9.997241 
2.4352817e+3, 1.758669e+2, -792849.06, -1331080.5, -23714.201, 0.029659411, 0.27421632, -791806.25, 424724.9, 0.0053207134, 10.00435, 9.997173 
2.435232e+3, 1.8586427e+2, -768576.5, -1222287.5, 8452.992, -0.0005266456, 0.28826317, -768419.06, 350138.44, 0.00026077838, 10.003623, 9.997597 
2.4351823e+3, 1.9586173e+2, -728769.56, -1154753.4, 4144.1665, -0.03936612, 0.28505352, -728729.25, 291853.88, 0.0000000002134854, 10.003228, 9.997581 
2.4351336e+3, 2.0585954e+2, -682166.2, -975949.06, 9001.027, -0.025626918, 0.2733762, -681890.7, 240713.34, 0.0, 10.00242, 9.998524 
2.435085e+3, 2.1585776e+2, -753453.7, -967602.8, 23661.188, 0.022583552, 0.25459227, -750870.5, 73749.625, 0.0, 10.001292, 9.998453 
2.4350362e+3, 2.2585633e+2, -760407.9, -883180.25, 45727.715, 0.01443174, 0.26551014, -745248.06, -18613.627, 0.0, 10.000412, 9.998783 
2.4349873e+3, 2.3585527e+2, -764917.44, -834100.5, 37855.383, -0.030874403, 0.29108498, -748229.3, -119582.766, 0.0, 9.999704, 9.99879 
2.434939e+3, 2.4585445e+2, -726414.1, -643256.0, 34134.555, -0.034968384, 0.28616428, -631039.3, -100384.94, 0.0, 9.998775, 9.999873 
2.4348906e+3, 2.5585395e+2, -790275.3, -628239.3, 43651.44, -0.015714852, 0.26124576, -617228.2, -184570.69, 0.0, 9.997685, 9.999828 
2.4348423e+3, 2.65854e+2, -783470.75, -518042.2, 51943.38, -0.040948976, 0.27269664, -508239.13, -173581.7, 0.0, 9.99682, 10.000327 
2.434794e+3, 2.7585444e+2, -794405.8, -475373.47, 32147.305, -0.0823225, 0.29292828, -472166.38, -235511.08, 0.0, 9.996083, 10.000304 
2.4347454e+3, 2.8585523e+2, -767106.06, -307243.75, -1121.9517, -0.1046414, 0.30938476, -307241.0, -168592.64, 0.0, 9.995152, 10.001232 
2.4346961e+3, 2.9585695e+2, -818928.25, -282431.44, 7695.9395, -0.16139735, 0.36910602, -282321.06, -241689.39, 0.0, 9.994129, 10.001224 
2.4346489e+3, 3.0585638e+2, -851580.4, -201965.72, -19419.393, -0.0041145403, 0.16768393, -201385.72, -201385.72, 0.0, 9.993251, 10.001871 
2.4345975e+3, 3.158592e+2, -843719.25, 34891.082, -31692.865, -0.22800486, 0.27250034, 36032.813, 36032.813, 0.0, 9.992317, 10.003939 
2.4455413e+3, 1.2593414e+2, -1171609.0, -1741214.1, 1608.1934, 0.098261304, 0.24711788, -1171604.5, 534266.44, 0.3628294, 10.007697, 9.996113 
2.4454895e+3, 1.3593046e+2, -970800.94, -1641116.5, -11936.119, 0.06382342, 0.28488, -970588.44, 637320.0, 0.26252812, 10.0079155, 9.996022 
2.4454382e+3, 1.459266e+2, -837692.0, -1515296.8, 12094.081, 0.0352758, 0.28482676, -837476.2, 672470.94, 0.16013809, 10.007235, 9.996533 
2.4453877e+3, 1.5592268e+2, -844841.94, -1510552.1, 17641.922, 0.033315625, 0.25351343, -844374.75, 567610.7, 0.07656297, 10.005968, 9.996506 
2.4453372e+3, 1.6591966e+2, -769779.7, -1339855.3, 8792.523, 0.03871364, 0.2696874, -769644.1, 544371.25, 0.025756363, 10.0051565, 9.9973955 
2.445286e+3, 1.759174e+2, -736791.4, -1288293.5, 9191.616, 0.04344799, 0.31735155, -736638.25, 479399.78, 0.0048005194, 10.004665, 9.997314 
2.4452356e+3, 1.8591475e+2, -745313.4, -1201141.4, 44970.875, 0.017220413, 0.3169841, -740919.0, 377145.4, 0.0002172008, 10.003742, 9.997684 
2.4451853e+3, 1.9591194e+2, -825502.1, -1190042.3, 55886.453, -0.029338092, 0.27929842, -817126.8, 202965.36, 0.00000000008671795, 10.002523, 9.997675 
2.4451356e+3, 2.0590982e+2, -766813.6, -1009993.6, 59430.9, -0.028816469, 0.2688644, -753066.44, 169045.64, 0.0, 10.001815, 9.99858 
2.445086e+3, 2.1590832e+2, -724307.75, -948538.4, 53111.77, 0.0068986774, 0.27410626, -712363.8, 111761.55, 0.0, 10.001472, 9.998496 
2.4450366e+3, 2.2590692e+2, -720400.56, -865912.0, 70003.49, 0.00268432, 0.28583503, -692191.5, 33948.133, 0.0, 10.000698, 9.998762 
2.4449869e+3, 2.3590568e+2, -778603.06, -841907.4, 76689.59, -0.0268251, 0.2968146, -727290.44, -99136.84, 0.0, 9.99962, 9.998775 
2.4449377e+3, 2.4590479e+2, -714456.7, -637526.8, 74841.13, -0.031887323, 0.28851756, -591844.6, -61682.688, 0.0, 9.998859, 9.99987 
2.4448884e+3, 2.5590432e+2, -703272.7, -588855.7, 69670.52, -0.022232734, 0.2677959, -555915.44, -123750.836, 0.0, 9.998295, 9.9998045 
2.4448392e+3, 2.659044e+2, -738128.9, -523456.13, 73216.164, -0.047252204, 0.29393432, -500862.88, -166697.83, 0.0, 9.9972515, 10.000081 
2.4447899e+3, 2.7590472e+2, -837557.0, -519531.4, 67991.45, -0.08083956, 0.33309865, -505605.16, -269440.66, 0.0, 9.995893, 10.000091 
2.4447402e+3, 2.8590518e+2, -768625.8, -304906.0, 48948.938, -0.11373716, 0.32183236, -299795.4, -161634.45, 0.0, 9.995131, 10.001258 
2.4446902e+3, 2.9590636e+2, -741826.25, -252010.7, 49455.16, -0.18946858, 0.32628548, -247067.27, -206918.63, 0.0, 9.994683, 10.001167 
2.4446428e+3, 3.0590677e+2, -807955.25, -212270.08, 14236.554, 0.052881353, 0.2421528, -211930.02, -211930.02, 0.0, 9.993685, 10.001591 
2.4445899e+3, 3.1591013e+2, -829726.2, -4849.373, -19542.83, -0.22450836, 0.42787087, -4386.6274, -4386.6274, 0.0, 9.992622, 10.003513 
2.4555488e+3, 1.2598547e+2, -1180562.5, -1812246.6, 5659.611, 0.08244541, 0.24501295, -1180511.8, 524855.25, 0.3478212, 10.00771, 9.995616 
2.4554975e+3, 1.3598144e+2, -989074.3, -1707967.6, -8218.551, 0.08271743, 0.2961037, -988980.4, 618430.44, 0.25081328, 10.007864, 9.995587 
2.4554455e+3, 1.4597768e+2, -826256.5, -1496097.5, -26235.416, 0.051215034, 0.31662682, -825230.5, 684218.8, 0.15217298, 10.007189, 9.996705 
2.4553934e+3, 1.5597421e+2, -834837.7, -1489535.6, -21927.836, 0.018800365, 0.31179804, -834104.06, 577378.7, 0.07212128, 10.005943, 9.996664 
2.4553418e+3, 1.6597122e+2, -775953.8, -1351706.0, -7233.009, 0.0041141664, 0.32742265, -775862.94, 537649.44, 0.023896713, 10.005138, 9.997325 
2.4552903e+3, 1.7596869e+2, -743045.7, -1296427.1, -9290.964, -0.00224511, 0.35392272, -742889.75, 472648.56, 0.00432555, 10.00464, 9.997273 
2.4552393e+3, 1.8596593e+2, -726926.44, -1160546.9, 471.53815, 0.014986154, 0.32993066, -726925.9, 390638.94, 0.000181599, 10.003728, 9.997972 
2.4551885e+3, 1.9596316e+2, -808915.2, -1155768.8, 14931.838, 0.047480684, 0.2697693, -808273.56, 211316.78, 0.00000000016280782, 10.002521, 9.997913 
2.4551377e+3, 2.0596121e+2, -781059.56, -1040978.1, 48031.65, 0.020531014, 0.2742385, -772467.56, 149141.44, 0.0, 10.001819, 9.998366 
2.4550869e+3, 2.1595989e+2, -738618.5, -976369.8, 40333.832, -0.046719484, 0.3181107, -731962.3, 91659.53, 0.0, 10.001461, 9.998313 
2.4550366e+3, 2.2595839e+2, -710388.1, -845448.5, 30901.484, -0.045126006, 0.32140958, -703653.7, 21983.238, 0.0, 10.000696, 9.998905 
2.4549869e+3, 2.3595688e+2, -769579.2, -825723.1, 38183.76, 0.00547608, 0.29346976, -750258.8, -122606.48, 0.0, 9.999628, 9.998883 
2.4549365e+3, 2.45956e+2, -726324.44, -664404.25, 52153.383, -0.012360176, 0.289877, -634713.7, -105052.85, 0.0, 9.998866, 9.999684 
2.454886e+3, 2.5595567e+2, -714307.0, -614793.7, 43936.168, -0.08345503, 0.30197492, -598171.8, -166508.6, 0.0, 9.998304, 9.999623 
2.4548359e+3, 2.6595548e+2, -741686.6, -532597.25, 19188.387, -0.08233492, 0.31371567, -530850.9, -197184.58, 0.0, 9.997256, 10.000018 
2.4547864e+3, 2.759554e+2, -840543.56, -525621.06, 20398.361, -0.013893329, 0.3164624, -524305.3, -288636.06, 0.0, 9.995889, 10.0000515 
2.4547358e+3, 2.8595605e+2, -768755.25, -305778.16, 32753.125, -0.06854463, 0.32690865, -303472.53, -165808.81, 0.0, 9.995129, 10.001255 
2.4546838e+3, 2.9595748e+2, -744555.25, -263847.53, 28160.217, -0.26432702, 0.35825953, -262203.5, -222554.1, 0.0, 9.994706, 10.001077 
2.4546367e+3, 3.059585e+2, -821224.8, -247378.38, -32228.041, 0.09395042, 0.35542655, -245574.08, -245574.08, 0.0, 9.993712, 10.001339 
2.4545819e+3, 3.159598e+2, -823080.8, 8532.221, 27734.125, -0.28277308, 0.3528562, 9456.121, 9456.121, 0.0, 9.992633, 10.003595 
2.4655567e+3, 1.2603696e+2, -1092003.5, -1742278.9, 3008.686, 0.076070644, 0.2540209, -1091989.6, 612875.0, 0.3327525, 10.008425, 9.995755 
2.4655049e+3, 1.3603319e+2, -993300.75, -1700688.9, 14160.701, 0.07396373, 0.31704715, -993017.44, 613888.2, 0.2391763, 10.007667, 9.995732 
2.4654521e+3, 1.460296e+2, -871313.75, -1508401.9, -12428.632, 0.044667214, 0.34240374, -871071.4, 637870.8, 0.14435586, 10.006715, 9.996834 
2.4653992e+3, 1.5602624e+2, -863817.75, -1492498.9, -8058.4897, 0.020952161, 0.33642188, -863714.44, 547260.2, 0.06782051, 10.005653, 9.996783 
2.4653468e+3, 1.6602322e+2, -824037.44, -1369175.9, 29124.688, 0.008166673, 0.34150386, -822485.9, 490518.63, 0.022126991, 10.004769, 9.997381 
2.4652945e+3, 1.7602056e+2, -829210.9, -1329999.8, 35569.656, -0.002247919, 0.35067338, -826697.06, 388334.25, 0.003887677, 10.004015, 9.997341 
2.4652427e+3, 1.8601798e+2, -763210.56, -1173653.0, 33170.492, 0.014841387, 0.33875155, -760547.1, 356509.16, 0.00015214282, 10.003464, 9.998007 
2.4651912e+3, 1.9601555e+2, -729430.06, -1115224.0, 28592.848, 0.052922253, 0.30996123, -727322.44, 291756.28, 0.00000000021615258, 10.003055, 9.997935 
2.4651396e+3, 2.060135e+2, -727967.56, -1016553.06, 63682.33, 0.028638067, 0.30591914, -714539.56, 206558.58, 0.0, 10.00219, 9.998355 
2.465088e+3, 2.160118e+2, -802457.56, -1005537.25, 68521.6, -0.038572412, 0.3153685, -781500.25, 41614.027, 0.0, 10.001023, 9.99832 
2.4650368e+3, 2.260103e+2, -762806.75, -861752.4, 64397.48, -0.044818975, 0.31388763, -731072.44, -5943.3115, 0.0, 10.000302, 9.998981 
2.4649863e+3, 2.3600902e+2, -728822.06, -799457.7, 68041.35, -0.0030600997, 0.3003922, -687478.5, -60336.41, 0.0, 9.999882, 9.99894 
2.4649353e+3, 2.4600817e+2, -711432.3, -673616.9, 79402.695, -0.024745125, 0.3080377, -610901.75, -81751.19, 0.0, 9.9990425, 9.999534 
2.4648838e+3, 2.560078e+2, -780026.44, -660733.4, 72769.79, -0.0978683, 0.32667375, -626288.75, -195133.8, 0.0, 9.997919, 9.999492 
2.464833e+3, 2.6600748e+2, -745187.5, -527467.44, 51999.574, -0.08546593, 0.33212695, -515685.56, -182526.73, 0.0, 9.997204, 10.000078 
2.4647827e+3, 2.7600735e+2, -716396.06, -461639.7, 61530.18, 0.01245864, 0.3264293, -447557.03, -212395.81, 0.0, 9.996722, 10.000091 
2.4647312e+3, 2.8600797e+2, -692829.5, -278698.56, 72193.93, -0.05797712, 0.3364325, -266474.13, -129318.13, 0.0, 9.995693, 10.001168 
2.4646777e+3, 2.960091e+2, -810372.1, -302606.03, 58835.754, -0.31892854, 0.35006014, -295877.78, -256732.98, 0.0, 9.994292, 10.001007 
2.4646306e+3, 3.0601063e+2, -859222.75, -297267.5, 10149.74, 0.13643211, 0.41371867, -297084.25, -297084.25, 0.0, 9.993593, 10.001052 
2.4645747e+3, 3.160109e+2, -719278.1, 60788.86, 52200.246, -0.2677388, 0.34010807, 64266.477, 64266.477, 0.0, 9.99334, 10.0036125 
2.475565e+3, 1.2608868e+2, -1056534.5, -1673357.4, -13060.601, 0.06911253, 0.27376512, -1056258.1, 648104.1, 0.31757468, 10.008353, 9.996356 
2.4755122e+3, 1.360856e+2, -965020.75, -1627068.1, -6135.529, 0.03362785, 0.34579763, -964963.94, 641429.75, 0.22752479, 10.007568, 9.9962845 
2.4754585e+3, 1.4608221e+2, -867120.9, -1501114.5, -45401.305, 0.015440358, 0.36142498, -863886.1, 644541.4, 0.13659371, 10.006656, 9.9969225 
2.4754047e+3, 1.5607873e+2, -856216.0, -1479907.1, -41914.453, 0.036713477, 0.3328456, -853411.8, 557050.0, 0.063597865, 10.005643, 9.996878 
2.4753515e+3, 1.6607565e+2, -810929.7, -1344885.6, 3452.926, 0.044744622, 0.3195651, -810907.4, 501584.47, 0.020417854, 10.004773, 9.997547 
2.4752988e+3, 1.76073e+2, -819646.2, -1309927.0, 10661.281, 0.03470905, 0.31383836, -819414.5, 395103.1, 0.0034779054, 10.004009, 9.997483 
2.475246e+3, 1.8607078e+2, -779025.25, -1206132.3, 19783.777, 0.013568504, 0.34416768, -778110.8, 338428.9, 0.00012714189, 10.003458, 9.997789 
2.4751933e+3, 1.9606896e+2, -744920.94, -1144602.3, 13081.377, -0.011782769, 0.39591625, -744493.25, 274065.1, 0.00000000023303823, 10.003038, 9.997744 
2.4751413e+3, 2.060666e+2, -717793.1, -994308.5, 21076.195, -0.0021556674, 0.36156973, -716195.9, 204384.58, 0.0, 10.002182, 9.998513 
2.4750896e+3, 2.1606402e+2, -792802.94, -985178.2, 29166.049, 0.027042594, 0.26680484, -788478.25, 34125.305, 0.0, 10.001018, 9.998465 
2.4750376e+3, 2.260626e+2, -760539.3, -858590.9, 49629.56, 0.00032607222, 0.26488522, -739803.94, -15186.743, 0.0, 10.000306, 9.999003 
2.4749856e+3, 2.36062e+2, -728215.94, -799295.06, 49899.637, -0.057589922, 0.32070407, -702493.5, -75870.11, 0.0, 9.999884, 9.998942 
2.4749339e+3, 2.4606125e+2, -720367.06, -693262.75, 35479.97, -0.07018619, 0.34354323, -668834.8, -140202.92, 0.0, 9.999044, 9.999399 
2.474882e+3, 2.5606048e+2, -786314.56, -675547.8, 31804.832, -0.06618242, 0.33994833, -667065.2, -236424.4, 0.0, 9.997923, 9.99939 
2.4748303e+3, 2.6606026e+2, -731673.94, -500931.97, 32967.727, -0.056455977, 0.3494482, -496314.03, -163670.61, 0.0, 9.997207, 10.000261 
2.474779e+3, 2.760606e+2, -705010.06, -444234.13, 39942.5, -0.0076883826, 0.370099, -438253.38, -203613.23, 0.0, 9.996745, 10.000201 
2.4747263e+3, 2.8606078e+2, -707345.7, -312783.56, 15993.499, -0.089453675, 0.3472088, -312136.3, -175497.5, 0.0, 9.995707, 10.000929 
2.4746715e+3, 2.9606092e+2, -816888.8, -314266.63, 6454.0166, -0.36372426, 0.27908072, -314183.75, -275545.53, 0.0, 9.994281, 10.000934 
2.4746248e+3, 3.060633e+2, -878275.75, -332052.25, 2144.168, 0.19738716, 0.44032344, -332043.84, -332043.84, 0.0, 9.993571, 10.000825 
2.4745683e+3, 3.1606442e+2, -692864.94, 92418.4, -33687.637, -0.22905529, 0.48807222, 93860.91, 93860.91, 0.0, 9.993409, 10.003813 
2.485573e+3, 1.2614253e+2, -1057489.9, -1654677.1, 22680.967, 0.073404446, 0.35232595, -1056629.8, 647208.94, 0.3021577, 10.008036, 9.996688 
2.485519e+3, 1.3613905e+2, -1074852.3, -1666089.4, 24876.117, 0.04166265, 0.35328135, -1073807.5, 532064.1, 0.21572246, 10.00637, 9.996596 
2.4854647e+3, 1.4613563e+2, -983967.2, -1558087.9, 4789.9863, 0.021145558, 0.34956634, -983927.25, 523977.6, 0.12877688, 10.005652, 9.997004 
2.4854101e+3, 1.5613236e+2, -857593.3, -1473542.5, 8914.96, 0.039865423, 0.33570758, -857464.3, 552472.94, 0.05938818, 10.005583, 9.996947 
2.4853565e+3, 1.661294e+2, -769664.6, -1326230.4, 39762.305, 0.04829469, 0.33172262, -766838.25, 545128.0, 0.018742139, 10.005063, 9.997536 
2.4853027e+3, 1.7612681e+2, -785100.7, -1295102.0, 34832.563, 0.04052848, 0.33271196, -782732.6, 431258.75, 0.0030887965, 10.004253, 9.997468 
2.4852493e+3, 1.861245e+2, -789578.3, -1210293.4, 52072.72, 0.015126449, 0.35638118, -783229.0, 332785.38, 0.00010530549, 10.003385, 9.997794 
2.485196e+3, 1.9612251e+2, -825583.06, -1180720.8, 59749.848, -0.01826423, 0.39267844, -815800.0, 202234.66, 0.00000000017417703, 10.0024805, 9.99776 
2.4851431e+3, 2.0612024e+2, -764831.1, -1015683.25, 64641.52, -0.0061808703, 0.36641964, -749153.56, 170902.56, 0.0, 10.001858, 9.99852 
2.4850908e+3, 2.1611789e+2, -734489.8, -956091.06, 62079.348, 0.035429806, 0.2941111, -718284.06, 103793.16, 0.0, 10.001415, 9.998472 
2.4850379e+3, 2.2611645e+2, -718162.3, -834964.06, 79656.26, 0.005259088, 0.29131064, -677791.8, 46298.957, 0.0, 10.000586, 9.999029 
2.4849848e+3, 2.3611575e+2, -782108.4, -822094.7, 79017.62, -0.06615209, 0.3329652, -720593.8, -94495.74, 0.0, 9.999504, 9.998966 
2.4849324e+3, 2.4611498e+2, -756589.4, -709841.75, 70946.98, -0.07659979, 0.35454115, -658517.44, -130410.75, 0.0, 9.998795, 9.999405 
2.4848801e+3, 2.5611424e+2, -730395.44, -647969.3, 77418.25, -0.05591288, 0.3569681, -601477.75, -171362.53, 0.0, 9.998308, 9.9993925 
2.4848276e+3, 2.6611403e+2, -700963.9, -488759.53, 73401.65, -0.04671011, 0.3638121, -465844.34, -133726.05, 0.0, 9.997433, 10.000234 
2.4847753e+3, 2.7611423e+2, -773499.06, -479401.97, 62416.66, -0.01185471, 0.37543976, -466703.47, -232587.39, 0.0, 9.996289, 10.000176 
2.4847217e+3, 2.8611454e+2, -756298.4, -337512.9, 34836.098, -0.09158313, 0.37005576, -334634.9, -198521.89, 0.0, 9.9953785, 10.000916 
2.484666e+3, 2.9611498e+2, -768560.56, -290553.5, 42618.36, -0.3440261, 0.3373097, -286783.47, -248674.48, 0.0, 9.99461, 10.000938 
2.484618e+3, 3.0611616e+2, -803750.44, -269017.66, 76635.89, 0.15432979, 0.36281034, -258251.27, -258251.27, 0.0, 9.993973, 10.00106 
2.484561e+3, 3.1611666e+2, -702446.6, 107172.15, 15902.661, -0.27633727, 0.3312772, 107484.39, 107484.39, 0.0, 9.993268, 10.003977 
2.4955808e+3, 1.2619808e+2, -1040409.8, -1637935.9, -20751.904, 0.083217844, 0.4804957, -1039690.0, 663608.0, 0.2863152, 10.007975, 9.996864 
2.4955256e+3, 1.3619342e+2, -1057698.3, -1643489.3, -18533.283, 0.084604, 0.3449948, -1057112.5, 548227.9, 0.20363297, 10.0063715, 9.996751 
2.4954705e+3, 1.4618982e+2, -974943.4, -1552887.4, 3696.787, 0.051023856, 0.31392336, -974919.75, 532454.94, 0.12082152, 10.005668, 9.997034 
2.4954155e+3, 1.5618701e+2, -855521.9, -1471817.0, 5064.384, 0.027637668, 0.34356597, -855480.25, 553922.25, 0.055151634, 10.0055685, 9.996967 
2.4953611e+3, 1.6618429e+2, -784008.06, -1355178.1, 11193.182, 0.02121471, 0.3730471, -783788.8, 527640.6, 0.017086886, 10.005045, 9.997347 
2.4953066e+3, 1.7618178e+2, -797647.06, -1319762.6, 5873.139, 0.01663876, 0.40190345, -797581.0, 415873.28, 0.0027169439, 10.004242, 9.997306 
2.4952526e+3, 1.86179e+2, -775842.06, -1181755.1, 19139.438, 0.018840386, 0.37447545, -774941.6, 340539.56, 0.00008573085, 10.003381, 9.997993 
2.4951987e+3, 1.9617617e+2, -813285.8, -1155285.8, 29033.064, 0.026938774, 0.30737177, -810838.7, 206669.52, 0.00000000005180779, 10.002478, 9.997938 
2.495145e+3, 2.0617436e+2, -773839.6, -1035296.06, 49075.06, 0.012872698, 0.32562438, -764931.75, 154594.0, 0.0, 10.001859, 9.998387 
2.4950916e+3, 2.1617329e+2, -744218.56, -975236.7, 45115.555, -0.016290722, 0.39445505, -735720.5, 85815.71, 0.0, 10.001407, 9.998346 
2.495038e+3, 2.2617176e+2, -718818.94, -836479.75, 40092.227, -0.029662376, 0.38988766, -706456.6, 17094.365, 0.0, 10.000584, 9.999021 
2.4949846e+3, 2.3617011e+2, -781354.0, -822076.06, 40627.03, -0.031213898, 0.33657217, -756271.4, -130704.234, 0.0, 9.999507, 9.998966 
2.4949314e+3, 2.4616927e+2, -745072.25, -687573.06, 51051.0, -0.045518324, 0.34143573, -657733.0, -130157.14, 0.0, 9.998798, 9.9995575 
2.4948782e+3, 2.5616908e+2, -721563.06, -632742.2, 55501.098, -0.07386159, 0.37972444, -606070.56, -176491.9, 0.0, 9.998318, 9.999494 
2.494825e+3, 2.6616856e+2, -718930.7, -527730.3, 28080.453, -0.058585264, 0.37463608, -523691.66, -192107.42, 0.0, 9.997436, 9.999966 
2.4947718e+3, 2.7616805e+2, -786030.5, -504839.3, 18828.379, 0.0020329915, 0.3386604, -503584.16, -269993.97, 0.0, 9.996284, 10.000006 
2.4947172e+3, 2.8616923e+2, -739982.9, -302608.63, 5259.2856, -0.06188307, 0.40786007, -302545.4, -166966.52, 0.0, 9.99537, 10.001162 
2.494661e+3, 2.9617155e+2, -761173.2, -279426.63, 16908.316, -0.26453763, 0.54183257, -278833.9, -241278.61, 0.0, 9.994624, 10.00101 
2.4946104e+3, 3.061688e+2, -764087.8, -191788.03, 50285.805, -0.0031724428, 0.1538298, -187403.2, -187403.2, 0.0, 9.993993, 10.001581 
2.494555e+3, 3.1617224e+2, -739299.44, 31112.611, -79643.59, -0.1916171, 0.34919176, 39259.844, 39259.844, 0.0, 9.993262, 10.003459 
2.5055888e+3, 1.2625347e+2, -1062780.1, -1665597.1, 1420.0988, 0.10349506, 0.47928187, -1062776.8, 639979.6, 0.26994437, 10.00768, 9.996731 
2.505532e+3, 1.3624889e+2, -997969.0, -1625181.6, -9248.484, 0.08404599, 0.36711788, -997832.6, 606965.9, 0.19120306, 10.006858, 9.99664 
2.5054762e+3, 1.4624533e+2, -910020.25, -1516583.4, 31861.465, 0.056725718, 0.34360284, -908351.25, 598481.1, 0.11270752, 10.006121, 9.997065 
2.505421e+3, 1.5624252e+2, -866933.2, -1476496.0, 32811.03, 0.054753955, 0.37131506, -865172.2, 543687.6, 0.050884776, 10.005461, 9.996985 
2.505366e+3, 1.6623963e+2, -831503.2, -1385155.8, 32051.227, 0.0450322, 0.38742664, -829653.94, 481234.13, 0.015453632, 10.004738, 9.997287 
2.5053108e+3, 1.7623685e+2, -838917.94, -1345194.8, 35433.8, 0.023157299, 0.39519295, -836450.0, 376465.4, 0.002362257, 10.003985, 9.9972515 
2.505256e+3, 1.8623409e+2, -780899.3, -1186767.4, 44987.727, 0.021061998, 0.37446994, -775972.5, 338969.75, 0.000067926434, 10.003361, 9.997967 
2.5052014e+3, 1.9623147e+2, -765381.7, -1133814.6, 37986.02, 0.034297008, 0.3315532, -761506.0, 255461.5, 0.0000000000010010511, 10.002814, 9.997923 
2.505147e+3, 2.0622966e+2, -756821.5, -1022291.6, 57274.387, 0.016765807, 0.3488645, -744991.9, 173993.22, 0.0, 10.001958, 9.998427 
2.5050926e+3, 2.1622847e+2, -814952.25, -1005136.06, 63040.09, -0.020103008, 0.4033344, -795954.2, 25042.3, 0.0, 10.000909, 9.998378 
2.5050384e+3, 2.2622694e+2, -783567.25, -874129.44, 59490.473, -0.032980453, 0.40020746, -754085.44, -31073.783, 0.0, 10.000171, 9.99896 
2.504984e+3, 2.362253e+2, -768438.5, -820482.06, 58710.504, -0.026577402, 0.3553435, -730241.44, -105213.44, 0.0, 9.9996195, 9.998921 
2.5049302e+3, 2.4622448e+2, -730370.94, -677239.25, 67899.18, -0.039441463, 0.36283967, -630893.9, -103857.27, 0.0, 9.998889, 9.999583 
2.5048763e+3, 2.562243e+2, -761320.8, -647525.94, 60462.9, -0.06780908, 0.40291145, -621398.75, -192360.02, 0.0, 9.998029, 9.99953 
2.504822e+3, 2.662238e+2, -736058.75, -524691.44, 38204.62, -0.060087934, 0.38868228, -517997.9, -186953.78, 0.0, 9.997273, 10.000063 
2.5047678e+3, 2.7622318e+2, -738016.4, -470939.6, 55129.44, -0.013722078, 0.3329931, -460007.38, -226956.73, 0.0, 9.996569, 10.0001 
2.504713e+3, 2.8622437e+2, -679472.2, -275434.88, 43139.168, -0.05601203, 0.40356165, -270880.25, -135841.3, 0.0, 9.995797, 10.001141 
2.5046566e+3, 2.9622692e+2, -713564.56, -262835.8, 35583.06, -0.19820431, 0.5632706, -260043.97, -223030.5, 0.0, 9.994984, 10.000948 
2.504604e+3, 3.062241e+2, -744048.8, -167434.97, 51514.82, -0.039940313, 0.16942462, -162868.78, -162868.78, 0.0, 9.994068, 10.001711 
2.5045487e+3, 3.162285e+2, -805359.9, -32747.148, -79923.445, -0.12756121, 0.44302493, -24566.041, -24566.041, 0.0, 9.9929495, 10.003169 
2.5155964e+3, 1.2630877e+2, -1079355.0, -1717559.1, -23112.309, 0.11907426, 0.37501028, -1078519.1, 623694.44, 0.2531036, 10.007588, 9.9963255 
2.5155383e+3, 1.3630533e+2, -1009640.4, -1677315.8, -32664.205, 0.045635294, 0.41627294, -1008046.2, 596201.06, 0.17849873, 10.00685, 9.996287 
2.515482e+3, 1.4630198e+2, -900922.4, -1513139.1, 11127.721, 0.042698517, 0.4287331, -900720.2, 605559.4, 0.10448569, 10.006136, 9.997083 
2.515427e+3, 1.562988e+2, -864037.5, -1474945.8, 9637.155, 0.113273606, 0.41738755, -863885.5, 544424.44, 0.04661602, 10.005454, 9.997001 
2.5153714e+3, 1.662954e+2, -828802.0, -1380202.6, 4904.3647, 0.11030134, 0.37824854, -828758.4, 481584.13, 0.013853661, 10.004731, 9.997325 
2.5153148e+3, 1.7629199e+2, -837402.9, -1342835.1, 9666.156, 0.0537924, 0.32019213, -837218.1, 375156.9, 0.0020267107, 10.003984, 9.99727 
2.515259e+3, 1.862897e+2, -797874.06, -1222904.8, 26054.527, 0.020074688, 0.35946912, -796282.9, 318115.2, 0.000051899184, 10.003361, 9.997721 
2.5152037e+3, 1.9628824e+2, -781227.9, -1165051.1, 17492.672, 0.002891067, 0.45655406, -780432.3, 235981.66, 0.0, 10.002804, 9.997715 
2.5151488e+3, 2.06286e+2, -745058.94, -997478.4, 19054.633, 0.0061044167, 0.4298542, -743628.6, 174806.63, 0.0, 10.001952, 9.998601 
2.5150937e+3, 2.162834e+2, -805993.25, -985909.7, 27484.51, 0.01969012, 0.32505813, -801888.3, 18570.217, 0.0, 10.000902, 9.998515 
2.5150385e+3, 2.2628193e+2, -790354.44, -889466.75, 39776.977, -0.007698538, 0.32726836, -776365.2, -53891.996, 0.0, 10.000173, 9.998856 
2.5149834e+3, 2.3628125e+2, -774469.94, -835293.94, 36970.254, -0.057484444, 0.3891147, -757010.4, -132528.9, 0.0, 9.999626, 9.998818 
2.5149286e+3, 2.462805e+2, -738607.56, -695949.0, 34038.184, -0.059295, 0.41779897, -677109.44, -150619.6, 0.0, 9.998893, 9.9994545 
2.5148743e+3, 2.5627992e+2, -764547.44, -655612.56, 26877.121, -0.03825328, 0.42673776, -649342.2, -220845.64, 0.0, 9.998032, 9.999475 
2.5148192e+3, 2.6627958e+2, -703027.0, -456227.38, 9894.166, -0.053032894, 0.40603137, -455831.34, -125332.46, 0.0, 9.997271, 10.000536 
2.5147638e+3, 2.7627948e+2, -712186.1, -419386.8, 27429.998, -0.07195719, 0.35808226, -416839.28, -184341.5, 0.0, 9.996574, 10.000453 
2.5147083e+3, 2.862799e+2, -701482.2, -324581.78, 10962.389, -0.076699115, 0.35250992, -324263.2, -189768.97, 0.0, 9.995808, 10.0008 
2.514652e+3, 2.9628092e+2, -723644.8, -289047.66, 4685.336, -0.12799603, 0.3929076, -288997.13, -252511.75, 0.0, 9.995002, 10.000761 
2.5145984e+3, 3.0628234e+2, -753021.06, -187396.39, 10198.127, 0.03200693, 0.43256775, -187212.58, -187212.58, 0.0, 9.99407, 10.0015745 
2.5145406e+3, 3.162825e+2, -794026.9, -3165.7356, 41765.805, -0.22193395, 0.3023365, -966.1781, -966.1781, 0.0, 9.992931, 10.003377 
2.5256035e+3, 1.2636556e+2, -1120425.6, -1741664.4, -6533.3, 0.1219812, 0.37544036, -1120356.9, 581300.1, 0.23595288, 10.00704, 9.996424 
2.5255454e+3, 1.3636215e+2, -965780.25, -1651297.5, 9574.023, 0.064305544, 0.4101935, -965646.56, 638043.44, 0.1656522, 10.007109, 9.99634 
2.525488e+3, 1.463587e+2, -868712.56, -1526312.5, 41222.316, 0.06263594, 0.42553842, -866138.56, 639585.25, 0.09624233, 10.006461, 9.996832 
2.5254324e+3, 1.5635535e+2, -882198.75, -1507128.0, 24126.434, 0.12564598, 0.42160246, -881268.75, 526488.3, 0.042388204, 10.005404, 9.996801 
2.5253758e+3, 1.6635199e+2, -821755.5, -1361137.1, 26411.44, 0.116153404, 0.39040485, -820465.3, 489323.75, 0.012302178, 10.00471, 9.997464 
2.525319e+3, 1.763488e+2, -791960.75, -1307100.4, 36426.035, 0.055556536, 0.34072456, -789397.8, 422421.2, 0.0017133701, 10.00424, 9.99739 
2.5252622e+3, 1.8634646e+2, -788510.25, -1222292.1, 57825.68, 0.020768922, 0.37071234, -780934.06, 332908.44, 0.00003798913, 10.003446, 9.997682 
2.5252062e+3, 1.9634475e+2, -833267.44, -1193035.4, 62452.574, 0.0038927537, 0.44850707, -822734.56, 193126.19, 0.0, 10.002463, 9.9976845 
2.5251505e+3, 2.063425e+2, -775044.44, -1009771.8, 62254.766, 0.009674148, 0.42438817, -759555.2, 158326.84, 0.0, 10.001741, 9.998616 
2.5250947e+3, 2.1634005e+2, -765877.44, -965205.56, 59376.45, 0.029325249, 0.33367488, -749530.8, 70373.305, 0.0, 10.001176, 9.998524 
2.5250387e+3, 2.263386e+2, -752778.2, -878032.1, 73595.54, -0.0008295839, 0.34128967, -718769.56, 3149.3801, 0.0, 10.0004635, 9.998792 
2.524983e+3, 2.3633787e+2, -772722.94, -837786.7, 72646.18, -0.057007436, 0.4067885, -725657.1, -101729.23, 0.0, 9.999657, 9.998784 
2.5249276e+3, 2.4633709e+2, -743416.6, -686439.5, 76236.88, -0.059470158, 0.4251844, -633542.2, -107605.52, 0.0, 9.998813, 9.999556 
2.5248724e+3, 2.5633633e+2, -770905.7, -646485.7, 86282.66, -0.034616657, 0.41287044, -602324.75, -174380.78, 0.0, 9.99794, 9.999578 
2.524816e+3, 2.6633617e+2, -706560.5, -449860.88, 62814.418, -0.05844355, 0.40086594, -435314.47, -105369.94, 0.0, 9.997215, 10.000604 
2.52476e+3, 2.7633646e+2, -712225.75, -414635.6, 47599.72, -0.09142522, 0.38469929, -407207.4, -175267.56, 0.0, 9.996558, 10.000491 
2.5247037e+3, 2.863366e+2, -706819.4, -340232.47, 26763.518, -0.0823739, 0.360005, -338288.84, -204349.89, 0.0, 9.995832, 10.000678 
2.524647e+3, 2.963369e+2, -726298.56, -297407.94, 34532.293, -0.1023707, 0.33551604, -294645.38, -258707.36, 0.0, 9.99502, 10.000691 
2.5245923e+3, 3.063396e+2, -757705.2, -204879.34, 33980.95, 0.017759802, 0.5127555, -202798.44, -202798.44, 0.0, 9.994111, 10.0014305 
2.524534e+3, 3.1633976e+2, -708655.3, 68922.44, 100453.836, -0.17646663, 0.4037327, 81690.234, 81690.234, 0.0, 9.993387, 10.003651 
2.5356105e+3, 1.2642363e+2, -1080692.1, -1675002.8, -5226.7354, 0.10827899, 0.45900685, -1080646.1, 620442.8, 0.21868339, 10.00703, 9.996933 
2.535553e+3, 1.3641934e+2, -939663.8, -1601244.6, 6786.243, 0.1264175, 0.35744095, -939594.2, 663533.06, 0.15280454, 10.007064, 9.996706 
2.5354952e+3, 1.4641555e+2, -898300.94, -1601380.5, 4161.279, 0.106822535, 0.34989408, -898276.3, 606888.75, 0.08806745, 10.0064335, 9.996331 
2.5354376e+3, 1.5641214e+2, -907650.3, -1565595.4, -10175.727, 0.09476556, 0.39077023, -907492.94, 499708.28, 0.038247205, 10.005395, 9.996406 
2.5353798e+3, 1.6640937e+2, -807230.2, -1331413.1, 10842.061, 0.069703005, 0.42248762, -807006.06, 502222.34, 0.010815954, 10.004703, 9.997673 
2.5353226e+3, 1.7640713e+2, -781561.25, -1281256.6, 17570.69, 0.03034114, 0.4473948, -780944.2, 430304.66, 0.0014260266, 10.004218, 9.99758 
2.5352657e+3, 1.8640418e+2, -781669.06, -1205232.5, 21617.057, 0.022052344, 0.40364155, -780568.7, 332708.13, 0.000026579513, 10.00343, 9.9978075 
2.5352088e+3, 1.9640099e+2, -827264.2, -1179593.5, 28904.887, 0.032317955, 0.31797066, -824908.6, 190399.28, 0.0, 10.002456, 9.997782 
2.535152e+3, 2.0639919e+2, -784427.25, -1030265.9, 41960.758, 0.024861453, 0.34139398, -777462.5, 139863.16, 0.0, 10.001742, 9.998477 
2.5350955e+3, 2.1639833e+2, -775128.06, -984983.7, 38883.93, 0.0058127637, 0.4243735, -768155.0, 51179.47, 0.0, 10.001175, 9.99839 
2.5350392e+3, 2.2639683e+2, -755718.4, -885071.7, 44309.723, -0.01229965, 0.43768793, -741995.94, -20645.867, 0.0, 10.000464, 9.998744 
2.5349826e+3, 2.3639514e+2, -772026.1, -837524.4, 41735.01, -0.0269652, 0.40860996, -751725.1, -128357.055, 0.0, 9.999659, 9.998787 
2.5349262e+3, 2.463941e+2, -720013.44, -638223.4, 42005.902, -0.04181319, 0.38505605, -620493.4, -95115.625, 0.0, 9.998812, 9.999889 
2.5348696e+3, 2.5639358e+2, -753201.0, -611363.2, 53955.28, -0.06441081, 0.35881433, -593171.7, -165790.23, 0.0, 9.997944, 9.99982 
2.5348133e+3, 2.6639354e+2, -733409.9, -506643.06, 37036.684, -0.07674743, 0.37220135, -500747.34, -171365.64, 0.0, 9.997216, 10.000216 
2.5347567e+3, 2.7639404e+2, -733010.0, -460489.6, 21310.781, -0.06480853, 0.41618165, -458833.2, -227455.64, 0.0, 9.996566, 10.0001745 
2.5346994e+3, 2.863945e+2, -700278.6, -327074.97, -6386.518, -0.07703618, 0.43183723, -326965.72, -193592.05, 0.0, 9.995831, 10.000771 
2.5346416e+3, 2.963947e+2, -725446.8, -294297.66, -288.17358, -0.15558676, 0.39192733, -294297.47, -258925.47, 0.0, 9.995011, 10.000719 
2.5345856e+3, 3.063956e+2, -771883.9, -232173.22, -876.5037, -0.059252135, 0.39917672, -232171.8, -232171.8, 0.0, 9.994099, 10.00125 
2.534528e+3, 3.163982e+2, -698722.8, 59830.246, -43269.613, -0.096724086, 0.5438363, 62290.465, 62290.465, 0.0, 9.993477, 10.003565 
2.5456172e+3, 1.2648103e+2, -1013850.56, -1640158.9, 8526.052, 0.08754954, 0.43596858, -1013734.56, 686792.2, 0.2014803, 10.007438, 9.997033 
2.5455597e+3, 1.3647728e+2, -969106.9, -1611493.4, -2866.0127, 0.14416042, 0.37760213, -969094.1, 633465.94, 0.14008212, 10.006696, 9.996812 
2.5455013e+3, 1.4647354e+2, -942318.6, -1617907.6, -6265.926, 0.11872264, 0.36744264, -942260.5, 562336.6, 0.08003993, 10.00603, 9.996408 
2.5454423e+3, 1.5646994e+2, -896383.75, -1552757.3, 14136.058, 0.07662275, 0.38175464, -896079.44, 510555.53, 0.034234043, 10.005429, 9.996475 
2.5453842e+3, 1.6646722e+2, -819356.5, -1335300.8, 43896.113, 0.05130464, 0.41587827, -815648.5, 493013.38, 0.0094102025, 10.004607, 9.997691 
2.5453264e+3, 1.764652e+2, -859472.4, -1314612.4, 37047.664, 0.028883401, 0.46048442, -856476.5, 354204.44, 0.0011679446, 10.003665, 9.997616 
2.5452688e+3, 1.8646239e+2, -833027.9, -1211630.9, 37501.105, 0.027926866, 0.4192727, -829349.06, 283358.44, 0.000017841303, 10.003002, 9.997968 
2.5452113e+3, 1.9645925e+2, -811131.5, -1156769.6, 46255.563, 0.04181851, 0.3248798, -805048.3, 209688.97, 0.0, 10.002506, 9.997912 
2.5451535e+3, 2.064574e+2, -778976.2, -1037055.7, 63961.605, 0.024687441, 0.3461093, -763993.9, 152761.64, 0.0, 10.001824, 9.998389 
2.5450963e+3, 2.1645652e+2, -798619.9, -1000253.3, 62913.85, -0.010442825, 0.4342229, -780599.9, 38165.605, 0.0, 10.001036, 9.99835 
2.545039e+3, 2.2645514e+2, -772792.9, -869786.06, 78312.78, -0.015804293, 0.45002007, -729176.44, -8396.657, 0.0, 10.000251, 9.99895 
2.544982e+3, 2.3645362e+2, -789062.0, -825824.1, 94980.445, -0.00039685078, 0.41960225, -710700.4, -87904.99, 0.0, 9.99946, 9.9989605 
2.544925e+3, 2.464526e+2, -729943.56, -646415.06, 86160.945, -0.024587931, 0.39329144, -592429.8, -67625.016, 0.0, 9.998762, 9.999855 
2.5448674e+3, 2.5645202e+2, -734031.9, -605412.7, 69576.62, -0.07584345, 0.36590028, -574977.25, -148167.9, 0.0, 9.998095, 9.999786 
2.5448102e+3, 2.6645195e+2, -722724.56, -507233.1, 59227.902, -0.09083174, 0.38229802, -492027.25, -163217.19, 0.0, 9.997318, 10.00016 
2.544753e+3, 2.7645242e+2, -750872.44, -472314.28, 68514.46, -0.0663561, 0.42957684, -456374.5, -225567.9, 0.0, 9.996462, 10.000141 
2.544695e+3, 2.8645292e+2, -692246.0, -313647.03, 53292.234, -0.08092659, 0.44584206, -306288.53, -173486.27, 0.0, 9.995848, 10.000854 
2.5446364e+3, 2.9645327e+2, -666539.75, -260398.48, 55357.805, -0.16458622, 0.41330394, -252988.31, -218189.47, 0.0, 9.995393, 10.000768 
2.5445792e+3, 3.064538e+2, -698854.94, -189686.2, 49915.523, -0.06623536, 0.38050544, -184838.95, -184838.95, 0.0, 9.9945755, 10.001308 
2.544521e+3, 3.1645432e+2, -778509.4, -19630.361, 4087.3474, -0.11524574, 0.3128101, -19608.348, -19608.348, 0.0, 9.993121, 10.003182 
2.555624e+3, 1.2653805e+2, -1014888.8, -1664856.9, -11622.591, 0.054550037, 0.33531126, -1014681.06, 685287.06, 0.1845118, 10.007409, 9.996824 
2.555566e+3, 1.3653594e+2, -969153.06, -1628614.0, -23112.842, 0.1206143, 0.4599561, -968344.0, 633644.06, 0.12759833, 10.006675, 9.996705 
2.555507e+3, 1.4653258e+2, -904597.56, -1542769.9, -25159.633, 0.1012918, 0.46121123, -903607.25, 600413.6, 0.07222905, 10.006018, 9.996935 
2.5554475e+3, 1.5652864e+2, -869189.1, -1492767.1, -7788.3916, 0.06759247, 0.39041784, -869091.9, 536967.56, 0.030384216, 10.005398, 9.996904 
2.5553888e+3, 1.6652553e+2, -832671.1, -1360647.1, 10293.23, 0.055431895, 0.3759345, -832470.56, 475619.6, 0.008097492, 10.004587, 9.997528 
2.55533e+3, 1.7652306e+2, -867069.5, -1331548.0, 5854.5283, 0.045850188, 0.39214033, -866995.75, 343119.06, 0.00094083627, 10.003667, 9.9975 
2.5552717e+3, 1.8652101e+2, -819524.1, -1186090.4, 20497.996, 0.036535148, 0.42241585, -818381.5, 293753.16, 0.00001159609, 10.003009, 9.998142 
2.5552133e+3, 1.9651933e+2, -801853.8, -1137331.6, 27694.836, 0.030450765, 0.45753908, -799582.9, 214567.63, 0.0, 10.002502, 9.99805 
2.5551552e+3, 2.0651704e+2, -783358.06, -1046035.6, 35270.645, 0.009441654, 0.43010613, -778704.56, 137468.34, 0.0, 10.001821, 9.998331 
2.555097e+3, 2.1651457e+2, -797579.44, -997264.8, 35094.777, -0.021696797, 0.36611098, -791591.1, 26606.35, 0.0, 10.001028, 9.998376 
2.5550392e+3, 2.2651349e+2, -741323.4, -804707.2, 49582.492, -0.013222801, 0.38254184, -714169.7, 6038.6206, 0.0, 10.000249, 9.999399 
2.5549817e+3, 2.3651326e+2, -765820.6, -779556.2, 66122.9, 0.017882396, 0.43892655, -706209.8, -83999.336, 0.0, 9.999465, 9.999278 
2.554924e+3, 2.4651252e+2, -759363.2, -708975.56, 60059.492, -0.008025474, 0.44997498, -669039.75, -144821.13, 0.0, 9.998765, 9.999426 
2.5548655e+3, 2.5651163e+2, -755656.2, -653004.5, 42318.043, -0.07039639, 0.43624684, -637808.5, -211580.22, 0.0, 9.998102, 9.999457 
2.554807e+3, 2.665114e+2, -701666.1, -464301.06, 25086.63, -0.10370275, 0.433551, -461678.7, -133448.58, 0.0, 9.997319, 10.000456 
2.5547487e+3, 2.7651164e+2, -731415.5, -432917.47, 37164.19, -0.107572936, 0.42404795, -428359.97, -198132.83, 0.0, 9.996463, 10.000413 
2.5546905e+3, 2.865118e+2, -686947.2, -303413.44, 36384.082, -0.09196594, 0.39473572, -299992.38, -167767.0, 0.0, 9.995847, 10.000926 
2.5546324e+3, 2.965125e+2, -660015.9, -250457.66, 40150.69, -0.10812833, 0.39146444, -246558.64, -212339.63, 0.0, 9.995404, 10.000832 
2.5545743e+3, 3.065143e+2, -689518.7, -176825.27, 2404.7239, -0.026342623, 0.47405225, -176813.98, -176813.98, 0.0, 9.994598, 10.001389 
2.5545135e+3, 3.165135e+2, -767339.3, 14128.764, 31697.154, -0.16846772, 0.27485523, 15412.325, 15412.325, 0.0, 9.993089, 10.003424 
2.5656316e+3, 1.2659769e+2, -997754.3, -1684996.1, 33366.09, 0.075511545, 0.37140763, -996138.1, 703246.3, 0.16794315, 10.007543, 9.9965925 
2.5655726e+3, 1.3659503e+2, -953983.44, -1640572.9, 22633.584, 0.09561635, 0.46588174, -953238.1, 648172.6, 0.1154637, 10.00679, 9.996568 
2.5655124e+3, 1.4659175e+2, -899083.9, -1505873.3, 13190.97, 0.08009229, 0.4646598, -898797.25, 604645.06, 0.06469952, 10.005869, 9.997258 
2.5654528e+3, 1.5658824e+2, -923538.1, -1490220.3, 19643.13, 0.07568475, 0.40538317, -922858.06, 482617.7, 0.026728932, 10.004871, 9.997175 
2.5653931e+3, 1.6658519e+2, -880828.56, -1388338.1, 44437.64, 0.06919007, 0.38796163, -876966.94, 430538.9, 0.0068872473, 10.00427, 9.99749 
2.5653338e+3, 1.7658255e+2, -835431.5, -1318138.3, 47622.848, 0.053429846, 0.39259872, -830778.0, 378754.66, 0.0007445751, 10.003895, 9.997481 
2.5652745e+3, 1.8658057e+2, -788480.06, -1163989.0, 58579.48, 0.031245861, 0.42792147, -779553.9, 331998.22, 0.000007363407, 10.003196, 9.998202 
2.5652152e+3, 1.965791e+2, -822566.6, -1137895.5, 57129.57, 0.009212501, 0.4800431, -812535.4, 201030.6, 0.0, 10.002322, 9.998132 
2.5651565e+3, 2.0657688e+2, -808690.4, -1037633.06, 71214.95, -0.0021683336, 0.44589376, -788346.06, 127241.33, 0.0, 10.001562, 9.998511 
2.5650978e+3, 2.1657437e+2, -809604.56, -984500.1, 86317.086, -0.009146082, 0.36016044, -774179.44, 43432.52, 0.0, 10.00087, 9.998538 
2.5650394e+3, 2.2657335e+2, -739753.6, -797598.6, 89956.31, -0.010992693, 0.37495488, -674184.56, 45437.387, 0.0, 10.000236, 9.999453 
2.564981e+3, 2.365733e+2, -738911.94, -760685.56, 78213.09, -0.0056787836, 0.4434885, -670831.56, -49208.97, 0.0, 9.99963, 9.999326 
2.5649223e+3, 2.4657263e+2, -735908.25, -701911.5, 81618.4, -0.021814791, 0.46431687, -635540.2, -111909.81, 0.0, 9.998949, 9.999383 
2.5648636e+3, 2.5657177e+2, -742058.56, -649168.6, 91188.68, -0.054985233, 0.45985186, -593278.3, -167637.94, 0.0, 9.998212, 9.99943 
2.5648046e+3, 2.6657155e+2, -680914.9, -447930.66, 68171.62, -0.087222815, 0.45654556, -429449.5, -101807.37, 0.0, 9.9974375, 10.00051 
2.5647452e+3, 2.7657172e+2, -704459.2, -413909.2, 60957.09, -0.10176843, 0.43731815, -401638.66, -171999.4, 0.0, 9.996625, 10.0004635 
2.5646865e+3, 2.865718e+2, -686283.2, -296706.13, 59008.938, -0.092621304, 0.39528313, -287964.25, -156326.1, 0.0, 9.99583, 10.000978 
2.5646272e+3, 2.9657257e+2, -716584.6, -272321.56, 59665.004, -0.111501575, 0.39040586, -264448.03, -230816.47, 0.0, 9.995, 10.000874 
2.5645685e+3, 3.0657473e+2, -757803.94, -209796.31, 6969.9556, -0.000337188, 0.51224875, -209707.67, -209707.67, 0.0, 9.994131, 10.001389 
2.5645065e+3, 3.165761e+2, -654006.0, 146145.86, 83169.13, -0.1651459, 0.5210914, 154699.17, 154699.17, 0.0, 9.993534, 10.004116 
2.5756398e+3, 1.2665935e+2, -1003201.44, -1716752.6, 11313.86, 0.13272311, 0.5089301, -1003022.06, 695759.4, 0.1519527, 10.0075, 9.996373 
2.575579e+3, 1.3665454e+2, -963153.1, -1670039.6, 11.899766, 0.064543605, 0.41078237, -963153.1, 637675.1, 0.10379617, 10.006741, 9.996389 
2.575518e+3, 1.4665115e+2, -887609.8, -1488334.1, -19520.688, 0.052609418, 0.39872798, -886976.1, 615884.7, 0.057518277, 10.005849, 9.997396 
2.5754574e+3, 1.5664867e+2, -911547.5, -1471939.1, -11070.045, 0.09660215, 0.42795745, -911328.9, 493555.63, 0.023297947, 10.004883, 9.997297 
2.5753975e+3, 1.6664603e+2, -875173.7, -1380014.6, 32525.457, 0.08984578, 0.44398394, -873086.8, 433823.75, 0.0057865726, 10.004277, 9.997545 
2.5753373e+3, 1.7664348e+2, -834459.7, -1312958.0, 32294.088, 0.04935596, 0.45147493, -832290.0, 376646.4, 0.00057804864, 10.003877, 9.997527 
2.5752774e+3, 1.8664096e+2, -793898.8, -1173210.6, 27177.45, 0.0119793415, 0.43372017, -791961.5, 318999.47, 0.000004588243, 10.003183, 9.998147 
2.5752172e+3, 1.9663861e+2, -821890.75, -1136265.0, 27472.773, -0.022221169, 0.40210563, -819508.0, 193475.25, 0.0, 10.002318, 9.998146 
2.575158e+3, 2.0663695e+2, -781500.4, -982278.9, 46223.4, -0.010871266, 0.4012721, -771369.94, 143629.02, 0.0, 10.001564, 9.998892 
2.575099e+3, 2.1663578e+2, -791353.4, -946892.0, 62181.69, 0.021804417, 0.41300339, -769550.44, 47459.438, 0.0, 10.000868, 9.998799 
2.5750393e+3, 2.2663462e+2, -763577.3, -848278.5, 67889.95, -0.010730569, 0.42383897, -725911.56, -6889.7915, 0.0, 10.000237, 9.999106 
2.5749797e+3, 2.3663364e+2, -754908.25, -794924.1, 54487.05, -0.07402908, 0.43195364, -716871.75, -95839.17, 0.0, 9.999631, 9.999092 
2.5749207e+3, 2.466329e+2, -711590.6, -651711.3, 52644.69, -0.06789211, 0.43595508, -621088.25, -98047.57, 0.0, 9.998949, 9.999729 
2.574862e+3, 2.5663245e+2, -721969.06, -609619.4, 62405.6, -0.03393185, 0.43516773, -581829.5, -156783.52, 0.0, 9.998218, 9.9997 
2.5748023e+3, 2.6663238e+2, -695907.3, -480714.03, 36741.176, -0.038492367, 0.44860384, -474613.94, -147567.19, 0.0, 9.99744, 10.000286 
2.574742e+3, 2.766327e+2, -717239.4, -442296.03, 30457.105, -0.045750827, 0.46721798, -438962.53, -209918.84, 0.0, 9.99663, 10.000269 
2.5746822e+3, 2.8663298e+2, -686792.06, -297994.63, 25859.33, -0.088480905, 0.45514217, -296282.25, -165241.6, 0.0, 9.995828, 10.000972 
2.574621e+3, 2.966335e+2, -716082.56, -270325.28, 24558.11, -0.19860847, 0.42672944, -268976.38, -235940.53, 0.0, 9.994992, 10.000893 
2.574563e+3, 3.06635e+2, -748370.2, -187558.3, -23375.084, 0.030397134, 0.46990994, -186585.69, -186585.69, 0.0, 9.994116, 10.001551 
2.5745e+3, 3.1663656e+2, -669062.44, 109273.63, 60604.594, -0.15750632, 0.48315936, 113964.3, 113964.3, 0.0, 9.993551, 10.003859 
2.585647e+3, 1.2672065e+2, -935670.5, -1675112.0, 29804.52, 0.12911811, 0.5158425, -934471.1, 763709.7, 0.13670358, 10.007869, 9.9965105 
2.585585e+3, 1.367157e+2, -1009822.3, -1686388.5, 41837.33, 0.081093274, 0.3916766, -1007245.06, 592983.44, 0.092708714, 10.006272, 9.996505 
2.5855234e+3, 1.467124e+2, -932054.56, -1518652.9, 42438.594, 0.06194554, 0.38576454, -929000.1, 573260.5, 0.0507494, 10.005527, 9.997336 
2.5854623e+3, 1.5671007e+2, -860465.75, -1452226.8, 39028.4, 0.086672306, 0.43948814, -857902.8, 546380.44, 0.02011757, 10.005254, 9.997252 
2.5854012e+3, 1.6670744e+2, -842845.6, -1360951.8, 74268.2, 0.07809316, 0.4573222, -832409.8, 473899.53, 0.0048002834, 10.004485, 9.997576 
2.5853407e+3, 1.7670481e+2, -892111.94, -1336140.5, 72448.08, 0.04518623, 0.45487085, -880590.25, 327745.53, 0.00043978123, 10.003464, 9.997567 
2.58528e+3, 1.8670224e+2, -846949.9, -1192883.6, 72577.875, 0.011582916, 0.4288755, -832339.9, 278020.94, 0.0000027949502, 10.002797, 9.998197 
2.5852194e+3, 1.9669984e+2, -817468.2, -1127862.8, 77587.18, -0.020604294, 0.388593, -799154.75, 213229.13, 0.0, 10.002325, 9.998199 
2.5851592e+3, 2.0669839e+2, -762865.8, -965216.3, 82783.336, -0.013952402, 0.40453225, -733314.2, 181083.4, 0.0, 10.001661, 9.9989605 
2.5850993e+3, 2.166976e+2, -783335.94, -935569.44, 76841.77, 0.01330834, 0.44852138, -751293.44, 65111.555, 0.0, 10.0008955, 9.998861 
2.5850394e+3, 2.2669631e+2, -777410.3, -859070.94, 91783.54, -0.016608229, 0.44729015, -717785.0, 633.06415, 0.0, 10.000166, 9.9990635 
2.584979e+3, 2.3669493e+2, -782227.75, -809529.0, 100588.516, -0.07374511, 0.4207025, -694367.8, -73935.09, 0.0, 9.999454, 9.999076 
2.5849193e+3, 2.4669431e+2, -721514.8, -640815.4, 95984.07, -0.07402666, 0.4278344, -577044.75, -54605.01, 0.0, 9.9988165, 9.9998665 
2.5848597e+3, 2.566942e+2, -716399.06, -593708.94, 88482.97, -0.048736226, 0.44831267, -547385.75, -122944.18, 0.0, 9.998203, 9.999813 
2.5847995e+3, 2.666942e+2, -693095.06, -488524.75, 60101.285, -0.03780719, 0.46742496, -472174.25, -145732.06, 0.0, 9.997504, 10.000199 
2.584739e+3, 2.766944e+2, -708426.56, -445944.34, 63570.234, -0.014233726, 0.48869434, -431358.8, -202918.34, 0.0, 9.996728, 10.000195 
2.584678e+3, 2.8669465e+2, -670624.6, -290399.1, 61986.688, -0.07882608, 0.47390893, -280548.84, -150111.0, 0.0, 9.995941, 10.000968 
2.5846156e+3, 2.966949e+2, -690098.5, -252933.56, 60193.824, -0.24400243, 0.4230087, -244796.84, -212362.23, 0.0, 9.99515, 10.000937 
2.5845575e+3, 3.066966e+2, -645573.7, -117714.21, 23292.07, 0.06833335, 0.4754044, -116688.43, -116688.43, 0.0, 9.994739, 10.001729 
2.5844935e+3, 3.1669703e+2, -673316.7, -24676.232, 60205.75, -0.18441461, 0.36314696, -19135.365, -19135.365, 0.0, 9.994102, 10.002668 
2.595654e+3, 1.2678185e+2, -914366.3, -1628164.4, -22293.697, 0.070078135, 0.42827687, -913670.7, 783909.94, 0.12230503, 10.007735, 9.996934 
2.5955918e+3, 1.3677828e+2, -985845.9, -1642399.1, -6107.4253, 0.13271138, 0.40051436, -985789.06, 613825.0, 0.08228846, 10.00625, 9.996816 
2.5955293e+3, 1.4677513e+2, -942763.1, -1553039.0, 32735.658, 0.099257804, 0.41238412, -941012.2, 560632.8, 0.044446673, 10.005533, 9.9971 
2.595467e+3, 1.5677233e+2, -874956.25, -1481634.4, 25836.541, 0.04606286, 0.44075665, -873857.94, 529815.3, 0.01720993, 10.00523, 9.997064 
2.5954053e+3, 1.6676939e+2, -844149.1, -1362191.5, 37346.66, 0.036702704, 0.43481228, -841470.56, 464231.97, 0.003931469, 10.004472, 9.997575 
2.595344e+3, 1.7676654e+2, -889946.94, -1333926.9, 39231.188, 0.040679436, 0.4119571, -886507.06, 321223.63, 0.00032786964, 10.00347, 9.997581 
2.595283e+3, 1.8676436e+2, -837898.7, -1176547.6, 56255.063, 0.027200893, 0.41687578, -828798.4, 280953.94, 0.0000016192165, 10.002804, 9.998307 
2.595222e+3, 1.9676264e+2, -814232.6, -1120175.1, 59183.53, 0.00654964, 0.4332045, -803182.8, 208586.53, 0.0, 10.002317, 9.998258 
2.5951606e+3, 2.0676109e+2, -778646.25, -998579.7, 54835.914, -0.013825068, 0.4506379, -765732.3, 148052.38, 0.0, 10.00166, 9.9987335 
2.5950995e+3, 2.167598e+2, -793880.0, -957420.1, 50200.42, -0.03443126, 0.4659836, -779699.94, 36097.848, 0.0, 10.000893, 9.998714 
2.5950393e+3, 2.2675842e+2, -761047.3, -825201.6, 65779.87, -0.028255397, 0.44751403, -719940.25, -2128.9983, 0.0, 10.000165, 9.999298 
2.594979e+3, 2.3675716e+2, -769306.75, -783713.2, 74286.695, -0.008607159, 0.41014197, -701874.9, -82051.27, 0.0, 9.9994545, 9.999254 
2.5949183e+3, 2.4675678e+2, -727750.44, -654748.56, 72065.016, -0.041160878, 0.43983126, -610467.8, -88639.59, 0.0, 9.9988165, 9.999773 
2.5948572e+3, 2.5675696e+2, -720772.4, -604223.1, 63650.46, -0.10558127, 0.5008487, -576199.94, -152372.34, 0.0, 9.998207, 9.999742 
2.5947964e+3, 2.667569e+2, -690227.0, -482132.34, 29658.2, -0.091890015, 0.51563954, -477987.94, -152159.11, 0.0, 9.9975, 10.000246 
2.5947356e+3, 2.7675685e+2, -704719.3, -439504.34, 33560.082, -0.018890468, 0.50389034, -435323.6, -207493.8, 0.0, 9.996731, 10.000238 
2.594674e+3, 2.867567e+2, -669479.0, -289399.9, 31397.854, -0.05840327, 0.4454917, -286823.63, -156993.23, 0.0, 9.995943, 10.0009775 
2.5946108e+3, 2.9675668e+2, -683019.06, -239182.45, 35448.684, -0.22323303, 0.36748374, -236369.03, -204540.38, 0.0, 9.995151, 10.001033 
2.594552e+3, 3.067598e+2, -634932.5, -101011.05, 14596.855, 0.06970301, 0.54773635, -100612.28, -100612.28, 0.0, 9.994757, 10.001838 
2.5944877e+3, 3.1676024e+2, -767644.6, -229488.39, -6168.811, -0.15406778, 0.44938004, -229417.69, -229417.69, 0.0, 9.994132, 10.00125 
2.6056612e+3, 1.2684469e+2, -1034312.3, -1685753.9, 8482.283, 0.07812179, 0.41133127, -1034201.9, 662762.7, 0.108810015, 10.006686, 9.99699 
2.605598e+3, 1.3684157e+2, -957661.7, -1624817.3, 6858.649, 0.12183422, 0.42296228, -957591.2, 641402.9, 0.072589144, 10.006384, 9.996873 
2.6055348e+3, 1.468384e+2, -912206.75, -1539696.8, 56819.49, 0.087839805, 0.43110937, -907103.25, 593922.2, 0.038647804, 10.005736, 9.997091 
2.605472e+3, 1.5683533e+2, -915714.8, -1501964.8, 60733.78, 0.045934085, 0.43412438, -909489.06, 493567.38, 0.014591013, 10.004939, 9.997064 
2.6054093e+3, 1.668324e+2, -868985.56, -1367634.0, 71719.82, 0.033953104, 0.4274308, -858875.2, 446210.44, 0.0031808794, 10.004273, 9.997632 
2.6053473e+3, 1.768297e+2, -856790.94, -1312369.5, 77241.0, 0.029335566, 0.4151915, -844051.3, 363061.03, 0.00023978163, 10.003677, 9.997626 
2.6052856e+3, 1.8682764e+2, -813002.7, -1163872.9, 96482.375, 0.021495685, 0.43392393, -788222.06, 320910.75, 0.00000086705097, 10.002977, 9.998309 
2.605224e+3, 1.968261e+2, -826790.1, -1125065.4, 91397.88, 0.014980297, 0.46628153, -801011.75, 210136.94, 0.0, 10.002232, 9.998263 
2.605162e+3, 2.0682442e+2, -797544.25, -1010494.44, 90555.38, -0.010680222, 0.4717825, -764243.75, 148921.77, 0.0, 10.001548, 9.998705 
2.6051003e+3, 2.1682283e+2, -794042.8, -959137.0, 97700.41, -0.04664386, 0.46283913, -748686.06, 66495.26, 0.0, 10.000901, 9.998697 
2.6050392e+3, 2.2682156e+2, -738496.0, -807176.2, 111906.48, -0.037134424, 0.453426, -655779.25, 61414.42, 0.0, 10.000291, 9.99936 
2.6049784e+3, 2.368206e+2, -731014.8, -756374.75, 107860.7, -0.00039931983, 0.44047266, -635091.3, -15888.335, 0.0, 9.999684, 9.999329 
2.604917e+3, 2.468201e+2, -718263.6, -643833.5, 105483.4, -0.031799722, 0.4561888, -569192.8, -47984.906, 0.0, 9.998859, 9.999825 
2.604855e+3, 2.5682002e+2, -761518.9, -620118.44, 108122.664, -0.104003526, 0.48707995, -561632.6, -138423.44, 0.0, 9.997915, 9.999771 
2.6047933e+3, 2.6682e+2, -711316.25, -497048.66, 79433.91, -0.10559611, 0.50474066, -470813.06, -145602.48, 0.0, 9.99738, 10.000199 
2.604732e+3, 2.7682003e+2, -662592.8, -421461.16, 73035.31, -0.047358144, 0.50830704, -401065.0, -173853.88, 0.0, 9.997034, 10.000215 
2.60467e+3, 2.8681988e+2, -626441.9, -262409.38, 56976.652, -0.040374145, 0.4492168, -253700.02, -124488.266, 0.0, 9.996219, 10.001026 
2.6046067e+3, 2.9681993e+2, -687422.1, -232538.33, 65821.74, -0.13019644, 0.36871913, -223205.4, -191995.89, 0.0, 9.9950905, 10.001103 
2.6045454e+3, 3.0682337e+2, -652419.75, -99709.86, 66747.26, -0.04752953, 0.57597035, -91763.47, -91763.47, 0.0, 9.994604, 10.001915 
2.6044825e+3, 3.1682432e+2, -669849.94, -201381.75, -13733.729, -0.09047417, 0.52702266, -200979.47, -200979.47, 0.0, 9.994891, 10.001075 
2.6156682e+3, 1.2690888e+2, -1046171.75, -1716197.4, -4317.635, 0.13423148, 0.44520527, -1046143.94, 650191.94, 0.0962433, 10.00662, 9.9968 
2.6156032e+3, 1.3690558e+2, -969455.56, -1649579.4, -6146.1577, 0.051461875, 0.45654035, -969400.0, 628968.2, 0.06363582, 10.006319, 9.996734 
2.6155394e+3, 1.4690222e+2, -904771.94, -1524446.4, 27875.113, 0.032980777, 0.44506788, -903520.5, 596880.75, 0.033369206, 10.005704, 9.997214 
2.615477e+3, 1.5689902e+2, -908514.06, -1486237.6, 32895.367, 0.07891587, 0.42236167, -906647.0, 495786.03, 0.012265291, 10.004923, 9.997181 
2.615414e+3, 1.6689636e+2, -864686.5, -1356867.5, 49875.824, 0.062312987, 0.43385056, -859683.1, 444776.47, 0.002545209, 10.004259, 9.997714 
2.6153505e+3, 1.7689413e+2, -855667.94, -1306135.5, 54246.84, 0.0071357023, 0.45896003, -849227.44, 357254.9, 0.00017260519, 10.003657, 9.997681 
2.6152882e+3, 1.8689203e+2, -820145.7, -1178678.3, 69215.984, -0.0049404437, 0.47543263, -807247.3, 301256.22, 0.00000042407203, 10.002974, 9.998211 
2.6152262e+3, 1.9689015e+2, -830684.75, -1134122.8, 65492.164, 0.0063489345, 0.48658532, -817152.8, 193369.67, 0.0, 10.002233, 9.998202 
2.6151636e+3, 2.0688832e+2, -789130.9, -993371.0, 67066.63, -0.004986605, 0.47084305, -769077.1, 143463.22, 0.0, 10.001546, 9.998824 
2.615101e+3, 2.1688662e+2, -789692.75, -948734.75, 75174.29, -0.030241957, 0.44038254, -759784.5, 54771.89, 0.0, 10.000892, 9.9987755 
2.615039e+3, 2.2688566e+2, -746103.7, -823624.4, 90171.33, -0.046162393, 0.4647002, -686715.0, 29851.143, 0.0, 10.000291, 9.999249 
2.6149777e+3, 2.3688518e+2, -733979.06, -764309.3, 82667.15, -0.052597877, 0.5105049, -665097.56, -46525.934, 0.0, 9.999688, 9.999274 
2.6149157e+3, 2.4688429e+2, -705686.94, -617364.25, 68284.59, -0.046685237, 0.4760079, -580205.2, -59625.727, 0.0, 9.998856, 10.00001 
2.6148534e+3, 2.5688335e+2, -753128.4, -603482.9, 75378.71, -0.04541714, 0.40328866, -572096.44, -149509.34, 0.0, 9.997915, 9.9998865 
2.6147908e+3, 2.6688337e+2, -722938.3, -521810.4, 66152.79, -0.076156445, 0.4300898, -502002.88, -177414.67, 0.0, 9.997379, 10.000031 
2.6147282e+3, 2.768839e+2, -669473.0, -438323.47, 55980.918, -0.09954458, 0.50265265, -425479.44, -198894.53, 0.0, 9.997042, 10.000096 
2.614666e+3, 2.8688422e+2, -622796.6, -256198.28, 12824.597, -0.03157394, 0.4906457, -255750.19, -127168.266, 0.0, 9.996221, 10.001069 
2.614603e+3, 2.9688457e+2, -688971.9, -237362.98, 24625.559, 0.012135417, 0.43751773, -236024.16, -205446.9, 0.0, 9.995094, 10.00107 
2.6145378e+3, 3.06887e+2, -656765.1, -107673.93, 62043.043, -0.25723362, 0.55174416, -100750.836, -100750.836, 0.0, 9.9945965, 10.001865 
2.614478e+3, 3.1688756e+2, -609019.56, -97241.84, -95403.87, -0.030150624, 0.45611855, -80035.48, -80035.48, 0.0, 9.994958, 10.001772 
2.6256746e+3, 1.2697299e+2, -1077314.5, -1712873.9, -977.3203, 0.15462326, 0.46080908, -1077313.0, 618396.5, 0.08461435, 10.006209, 9.9970255 
2.625609e+3, 1.3696972e+2, -992691.56, -1640871.0, 16330.102, 0.039003864, 0.4534476, -992280.44, 605460.7, 0.055426233, 10.006009, 9.9969425 
2.6255447e+3, 1.4696659e+2, -936158.2, -1526780.1, 44186.082, 0.014243958, 0.4508991, -932870.8, 566901.0, 0.028602686, 10.005404, 9.997338 
2.6254815e+3, 1.569637e+2, -943599.7, -1489944.3, 49596.293, 0.069763444, 0.44767436, -939133.9, 462666.84, 0.010222569, 10.004619, 9.997299 
2.6254177e+3, 1.6696118e+2, -896657.56, -1361432.1, 73423.52, 0.056815207, 0.46190825, -885334.2, 418491.9, 0.0020161576, 10.003997, 9.997807 
2.625354e+3, 1.7695896e+2, -877364.3, -1306096.9, 77213.18, 0.001175117, 0.48250648, -863882.44, 341965.94, 0.00012298183, 10.003469, 9.997769 
2.6252908e+3, 1.8695682e+2, -836954.5, -1183467.8, 92834.47, -0.015856918, 0.4882846, -813650.5, 294219.4, 0.00000019125741, 10.00285, 9.998235 
2.625228e+3, 1.9695483e+2, -835757.1, -1133870.5, 95332.59, -0.010113078, 0.48742265, -807878.25, 202011.23, 0.0, 10.002191, 9.998222 
2.625165e+3, 2.06953e+2, -782810.3, -989615.1, 97362.67, -0.008585911, 0.4733288, -744186.2, 167720.92, 0.0, 10.00159, 9.998828 
2.625102e+3, 2.169514e+2, -772324.75, -938412.25, 96217.805, -0.010553649, 0.45059615, -728269.6, 85652.84, 0.0, 10.001009, 9.998787 
2.6250392e+3, 2.2695045e+2, -761282.9, -831496.56, 108910.98, -0.038866747, 0.4766972, -681960.3, 33971.848, 0.0, 10.000193, 9.99924 
2.6249766e+3, 2.3694997e+2, -796304.2, -795166.0, 109352.22, -0.073620014, 0.52449965, -686381.4, -68443.68, 0.0, 9.999269, 9.999263 
2.624914e+3, 2.4694902e+2, -728584.8, -629928.75, 90290.47, -0.053168178, 0.48673868, -576370.3, -56424.375, 0.0, 9.998708, 9.999993 
2.6248515e+3, 2.5694796e+2, -697833.5, -575884.4, 83610.63, -0.013454256, 0.40522596, -533376.44, -111422.1, 0.0, 9.998294, 9.999892 
2.6247883e+3, 2.669479e+2, -674419.6, -487722.1, 86870.62, -0.05631912, 0.42163453, -453554.22, -129598.81, 0.0, 9.99767, 10.000124 
2.6247248e+3, 2.7694848e+2, -685162.3, -439132.2, 92956.4, -0.11424928, 0.48551455, -407960.38, -182008.89, 0.0, 9.99691, 10.000153 
2.624662e+3, 2.8694892e+2, -611929.9, -263124.06, 40497.98, -0.04218835, 0.49217427, -258483.78, -130536.15, 0.0, 9.996351, 10.0009575 
2.6245984e+3, 2.9694942e+2, -580560.0, -206410.5, 42935.723, 0.024705803, 0.46759593, -201546.61, -171604.19, 0.0, 9.995932, 10.000878 
2.6245326e+3, 3.0695108e+2, -548762.75, -85197.97, 78590.984, -0.25165218, 0.5317145, -72236.375, -72236.375, 0.0, 9.99547, 10.001596 
2.6244727e+3, 3.16951e+2, -631308.7, -66223.36, -76561.5, -0.013815191, 0.38914144, -56034.03, -56034.03, 0.0, 9.994634, 10.002138 
2.6356804e+3, 1.2703715e+2, -1038441.44, -1638704.3, -5001.2915, 0.14135614, 0.4632162, -1038399.75, 656683.9, 0.07391567, 10.006184, 9.997573 
2.6356152e+3, 1.370341e+2, -965216.56, -1579872.1, 6564.4683, 0.06766504, 0.42571774, -965146.5, 631964.94, 0.04794059, 10.005957, 9.997392 
2.63555e+3, 1.4703153e+2, -929781.8, -1513157.3, 15340.728, 0.020726182, 0.45256072, -929378.7, 569758.25, 0.024326831, 10.005376, 9.997449 
2.6354852e+3, 1.5702929e+2, -936805.2, -1475719.3, 22593.912, 0.022358116, 0.50363207, -935859.6, 465300.63, 0.008444933, 10.004606, 9.997405 
2.6354212e+3, 1.6702673e+2, -891070.7, -1349933.9, 54425.465, 0.021478392, 0.5060785, -884703.6, 418482.1, 0.0015826024, 10.003993, 9.997889 
2.635357e+3, 1.770242e+2, -871854.25, -1293900.3, 57212.34, 0.008278236, 0.48589712, -864236.06, 340974.56, 0.00008731026, 10.003463, 9.997858 
2.6352933e+3, 1.87022e+2, -831507.94, -1170275.0, 68682.66, -0.014977417, 0.47706503, -818112.7, 289119.22, 0.00000008629741, 10.002838, 9.998333 
2.6352295e+3, 1.9702007e+2, -834160.8, -1126976.1, 72171.23, -0.039003443, 0.47215942, -817338.94, 191911.28, 0.0, 10.0021715, 9.998281 
2.6351663e+3, 2.0701842e+2, -790474.25, -1005204.2, 76430.09, -0.022020554, 0.47897655, -766048.5, 145217.97, 0.0, 10.001586, 9.998724 
2.6351032e+3, 2.1701701e+2, -776770.2, -948485.2, 73267.82, 0.010829944, 0.4879107, -749757.5, 63523.074, 0.0, 10.001008, 9.99872 
2.6350397e+3, 2.2701582e+2, -756563.5, -821376.7, 74355.29, -0.016191376, 0.48794153, -707859.7, 7432.671, 0.0, 10.000189, 9.999312 
2.6349756e+3, 2.3701487e+2, -795437.75, -793328.44, 78047.07, -0.068038724, 0.48254776, -716328.9, -99027.125, 0.0, 9.999265, 9.999279 
2.6349127e+3, 2.4701425e+2, -744487.9, -663402.4, 74456.12, -0.052425556, 0.4898031, -619166.44, -99858.64, 0.0, 9.998707, 9.999765 
2.6348495e+3, 2.5701392e+2, -703768.2, -592057.1, 65350.94, -0.014097826, 0.4997906, -561944.1, -140633.08, 0.0, 9.998307, 9.999776 
2.6347858e+3, 2.670137e+2, -648334.7, -435521.94, 56833.145, -0.049000986, 0.48369837, -421295.3, -97983.0, 0.0, 9.997676, 10.000482 
2.634722e+3, 2.7701366e+2, -668412.75, -406244.16, 64559.39, -0.09525893, 0.45421374, -391208.63, -165897.25, 0.0, 9.996915, 10.000378 
2.6346576e+3, 2.870139e+2, -630839.1, -303535.9, 23671.197, -0.07468061, 0.44738582, -301832.84, -174523.2, 0.0, 9.996354, 10.00068 
2.634593e+3, 2.9701442e+2, -603160.56, -256919.98, 31222.205, -0.09489268, 0.45615405, -254127.06, -224821.61, 0.0, 9.995944, 10.000527 
2.6345304e+3, 3.0701557e+2, -578128.8, -161738.45, 54555.438, -0.019414105, 0.51489234, -154709.27, -154709.27, 0.0, 9.995528, 10.001047 
2.6344657e+3, 3.1701577e+2, -610339.3, -16315.42, 11478.145, -0.14381889, 0.44846845, -16093.714, -16093.714, 0.0, 9.994626, 10.002474 
2.6456866e+3, 1.2710294e+2, -990781.44, -1623281.1, 58169.14, 0.12481946, 0.49064168, -985476.3, 708965.0, 0.064119555, 10.006499, 9.997532 
2.6456207e+3, 1.3710001e+2, -1025844.44, -1610324.4, 38304.332, 0.073308274, 0.47001618, -1023344.8, 573123.7, 0.041154016, 10.005484, 9.997405 
2.6455548e+3, 1.4709744e+2, -978605.4, -1517667.5, 42998.438, 0.024098555, 0.48682845, -975197.1, 523296.44, 0.020519301, 10.004937, 9.997625 
2.64549e+3, 1.5709515e+2, -922149.1, -1451975.8, 51746.06, 0.013653239, 0.51763755, -917142.6, 483373.97, 0.0069133416, 10.004636, 9.997551 
2.645425e+3, 1.6709265e+2, -887140.75, -1344929.3, 78193.42, 0.016980875, 0.5191451, -874153.25, 428388.03, 0.0012326007, 10.004011, 9.997912 
2.6453605e+3, 1.7709023e+2, -902029.2, -1302789.6, 75886.21, 0.017388841, 0.50648624, -888141.0, 316424.2, 0.00006223652, 10.003236, 9.997903 
2.645296e+3, 1.87088e+2, -860113.06, -1170708.1, 86963.234, -0.0087184645, 0.48822573, -837422.06, 269164.0, 0.000000036839044, 10.002589, 9.998446 
2.6452315e+3, 1.9708599e+2, -851715.4, -1125219.9, 91321.58, -0.042549662, 0.46636996, -824026.75, 184577.56, 0.0, 10.002013, 9.998365 
2.6451674e+3, 2.0708442e+2, -820024.75, -1024967.06, 99481.45, -0.026795002, 0.47999468, -779678.2, 130941.945, 0.0, 10.001411, 9.99867 
2.6451036e+3, 2.1708316e+2, -809997.06, -966803.06, 96738.92, 0.011174996, 0.5089569, -763879.2, 48754.26, 0.0, 10.000795, 9.998694 
2.6450396e+3, 2.2708187e+2, -754391.8, -813358.1, 93118.29, -0.010511992, 0.4970179, -686200.6, 28445.309, 0.0, 10.000176, 9.9993725 
2.6449752e+3, 2.370807e+2, -752716.3, -768907.8, 99341.47, -0.05386197, 0.46483976, -661141.25, -44484.4, 0.0, 9.999545, 9.99931 
2.6449114e+3, 2.4708015e+2, -709061.7, -657586.75, 112267.74, -0.047382787, 0.48589557, -568144.1, -49481.652, 0.0, 9.9990015, 9.999661 
2.644848e+3, 2.5708005e+2, -685184.7, -590967.5, 109162.695, -0.024884304, 0.5296795, -519182.38, -98518.15, 0.0, 9.998473, 9.999702 
2.6447836e+3, 2.670797e+2, -625762.56, -422403.4, 77518.664, -0.044912383, 0.5065095, -396224.13, -73557.98, 0.0, 9.997823, 10.0005 
2.644719e+3, 2.770794e+2, -640610.5, -391490.25, 61538.9, -0.058143515, 0.44717607, -377117.8, -152450.63, 0.0, 9.997101, 10.000389 
2.644654e+3, 2.870796e+2, -603971.1, -292940.9, 35730.266, -0.086996935, 0.43882674, -288889.1, -162223.55, 0.0, 9.9965515, 10.000656 
2.6445878e+3, 2.9708025e+2, -596059.25, -266127.75, 64925.31, -0.19505249, 0.46357325, -253811.27, -225150.88, 0.0, 9.996051, 10.00041 
2.644527e+3, 3.0708066e+2, -587890.75, -223921.11, 98939.586, 0.1166847, 0.48394462, -198764.63, -198764.63, 0.0, 9.9957075, 10.000535 
2.6444596e+3, 3.1708136e+2, -507849.66, 86978.67, 21027.773, -0.22619873, 0.511705, 87721.1, 87721.1, 0.0, 9.99511, 10.002945 
2.6556924e+3, 1.2717007e+2, -1024858.8, -1690702.8, 21182.232, 0.09870426, 0.5396948, -1024185.6, 669599.44, 0.05518124, 10.00643, 9.997067 
2.6556256e+3, 1.3716719e+2, -1043638.3, -1656989.6, 8039.365, 0.057514127, 0.5676938, -1043532.94, 552281.25, 0.0350363, 10.005486, 9.997083 
2.6555595e+3, 1.471642e+2, -961933.5, -1489884.9, 32435.504, 0.023930928, 0.54434335, -959948.25, 537894.44, 0.01715535, 10.004947, 9.997814 
2.6554945e+3, 1.5716131e+2, -914492.5, -1432215.9, 37013.57, 0.032652233, 0.4967006, -911859.6, 488009.9, 0.0056074006, 10.00461, 9.9977 
2.655429e+3, 1.6715896e+2, -893487.75, -1353279.8, 49183.117, 0.035311975, 0.5088736, -888285.56, 413606.84, 0.00095384417, 10.003985, 9.997869 
2.6553634e+3, 1.7715698e+2, -905276.1, -1306958.0, 48982.703, 0.025129722, 0.5447875, -899389.25, 304523.03, 0.00004479405, 10.0032215, 9.997883 
2.6552984e+3, 1.8715473e+2, -851903.75, -1154992.9, 65822.18, 0.0015479202, 0.5179014, -838226.25, 267706.78, 0.000000014947995, 10.002592, 9.998555 
2.6552334e+3, 1.9715251e+2, -845054.75, -1112585.3, 69794.555, -0.025514154, 0.46338835, -827941.2, 180011.66, 0.0, 10.002015, 9.998453 
2.6551688e+3, 2.0715094e+2, -821808.9, -1028477.44, 76716.08, -0.02512767, 0.47620025, -796444.56, 113524.016, 0.0, 10.001408, 9.99865 
2.655104e+3, 2.1714976e+2, -812822.6, -969097.6, 74776.16, -0.0144993095, 0.5157053, -782807.75, 29173.695, 0.0, 10.000776, 9.99869 
2.6550394e+3, 2.2714852e+2, -752266.0, -808288.3, 70345.62, -0.022150872, 0.50457084, -704559.7, 9433.655, 0.0, 10.000173, 9.99941 
2.6549745e+3, 2.3714735e+2, -749095.06, -763840.3, 76656.305, -0.035247732, 0.4699312, -679457.6, -63453.977, 0.0, 9.999553, 9.999342 
2.65491e+3, 2.4714665e+2, -706694.3, -654593.9, 91534.27, -0.040081155, 0.47274294, -585475.1, -67464.63, 0.0, 9.999006, 9.999681 
2.654846e+3, 2.571463e+2, -687023.06, -597210.06, 87234.61, -0.05082849, 0.49100626, -544002.0, -123987.52, 0.0, 9.99848, 9.999658 
2.6547813e+3, 2.6714593e+2, -650128.3, -473161.34, 49425.824, -0.043662734, 0.48724586, -460292.78, -138275.19, 0.0, 9.997821, 10.000154 
2.6547167e+3, 2.771457e+2, -654714.3, -421425.72, 35773.19, -0.004455781, 0.4699539, -416063.4, -192044.23, 0.0, 9.997101, 10.000185 
2.6546505e+3, 2.8714612e+2, -585038.9, -256148.19, 16591.197, -0.07966817, 0.47342926, -255313.34, -129298.16, 0.0, 9.996558, 10.000907 
2.654583e+3, 2.9714698e+2, -582332.2, -242549.61, 48037.94, -0.28279206, 0.49550825, -235888.66, -207881.98, 0.0, 9.996068, 10.000566 
2.6545227e+3, 3.0714643e+2, -612120.1, -275624.34, 90260.0, 0.14266823, 0.4328389, -252942.36, -252942.36, 0.0, 9.995709, 10.00018 
2.6544547e+3, 3.1714764e+2, -483468.28, 135660.08, -181589.23, -0.19228944, 0.5404156, 184989.52, 184989.52, 0.0, 9.995102, 10.003292 
2.665698e+3, 1.272373e+2, -1104256.9, -1754428.9, 41314.145, 0.06213991, 0.55088884, -1101642.1, 591484.1, 0.047049467, 10.005901, 9.996887 
2.6656315e+3, 1.372343e+2, -987004.75, -1647188.1, 40564.72, 0.061411563, 0.5848068, -984521.6, 610636.25, 0.02954601, 10.005937, 9.996933 
2.6655647e+3, 1.4723125e+2, -930626.0, -1483630.3, 51363.45, 0.03895698, 0.56641495, -925895.8, 571291.75, 0.014201068, 10.005195, 9.997735 
2.6654986e+3, 1.572283e+2, -982197.25, -1466598.5, 39319.203, 0.047188226, 0.52107084, -979026.44, 420188.7, 0.004502261, 10.004149, 9.997684 
2.6654324e+3, 1.6722594e+2, -937088.7, -1352479.8, 60474.965, 0.037788954, 0.52103823, -928463.5, 372773.97, 0.0007332153, 10.003596, 9.998059 
2.6653665e+3, 1.7722394e+2, -889888.06, -1283960.3, 73666.55, 0.011093264, 0.53935194, -876567.4, 326689.0, 0.000032466538, 10.003264, 9.998017 
2.6653007e+3, 1.8722177e+2, -846479.1, -1158629.4, 84647.78, 0.00064129697, 0.51986146, -825002.3, 280274.13, 0.0000000057994387, 10.002662, 9.998494 
2.6652354e+3, 1.972197e+2, -857191.7, -1119938.3, 76685.98, 0.0005624649, 0.48502442, -836447.7, 170847.83, 0.0, 10.001943, 9.998435 
2.6651698e+3, 2.0721808e+2, -831687.94, -1021917.75, 85445.76, -0.010205017, 0.48883712, -798944.25, 110367.32, 0.0, 10.001295, 9.998746 
2.6651046e+3, 2.1721677e+2, -820558.2, -963555.7, 90765.4, -0.025068616, 0.5071685, -776512.9, 34812.324, 0.0, 10.000688, 9.998768 
2.6650393e+3, 2.2721563e+2, -750953.3, -807790.4, 89828.305, -0.025418252, 0.5050281, -685155.4, 28180.621, 0.0, 10.000185, 9.999406 
2.664974e+3, 2.3721468e+2, -725367.9, -752488.75, 93939.2, -0.0147473905, 0.49270898, -644015.4, -28671.055, 0.0, 9.99972, 9.999337 
2.664909e+3, 2.472139e+2, -687256.1, -648814.6, 104237.8, -0.030013133, 0.48797905, -562040.3, -44688.09, 0.0, 9.999158, 9.999646 
2.664844e+3, 2.572133e+2, -680812.25, -597311.44, 95609.53, -0.061809227, 0.4850162, -534734.06, -115375.39, 0.0, 9.998538, 9.999627 
2.6647788e+3, 2.6721293e+2, -623594.3, -466773.3, 70692.164, -0.053340998, 0.48526853, -439611.16, -118249.016, 0.0, 9.9980345, 10.0000925 
2.6647136e+3, 2.772128e+2, -593508.25, -398511.16, 77274.88, -0.0025858502, 0.48343706, -371601.63, -148238.38, 0.0, 9.997554, 10.000121 
2.664647e+3, 2.872132e+2, -521811.75, -236298.73, 47572.008, -0.06975935, 0.49887776, -228580.94, -103221.875, 0.0, 9.997042, 10.000809 
2.664579e+3, 2.9721406e+2, -522481.34, -214824.13, 52321.723, -0.2600184, 0.52718806, -206169.5, -178818.78, 0.0, 9.996486, 10.000554 
2.6645178e+3, 3.0721325e+2, -586259.7, -238759.67, 115432.91, 0.086766444, 0.4291963, -203910.02, -203910.02, 0.0, 9.99579, 10.000392 
2.6644495e+3, 3.1721482e+2, -450652.63, 136808.19, -168191.73, -0.21236151, 0.55082756, 181553.78, 181553.78, 0.0, 9.995396, 10.003154 
2.6757032e+3, 1.273047e+2, -1098720.9, -1747303.9, 40376.27, 0.012953805, 0.5331018, -1096217.0, 596247.7, 0.039677434, 10.005885, 9.996941 
2.6756373e+3, 1.3730149e+2, -997742.44, -1657614.9, 32842.2, 0.0748625, 0.5422863, -996111.9, 598386.56, 0.02463362, 10.005855, 9.9969015 
2.67557e+3, 1.4729863e+2, -957855.56, -1533641.9, 12090.746, 0.061334044, 0.5632986, -957601.75, 538925.94, 0.011614942, 10.005146, 9.9974165 
2.6755026e+3, 1.5729605e+2, -993086.2, -1491281.4, 7610.9727, 0.056182202, 0.5841585, -992969.94, 405583.8, 0.0035699774, 10.00415, 9.997516 
2.6754358e+3, 1.6729349e+2, -910547.6, -1300075.0, 49311.41, 0.025601577, 0.5491389, -904402.06, 396175.03, 0.0005580716, 10.003604, 9.998416 
2.675369e+3, 1.772911e+2, -874405.56, -1249543.9, 57835.324, -0.025255527, 0.4920196, -865691.5, 336906.47, 0.000023528748, 10.003252, 9.998261 
2.675303e+3, 1.8728915e+2, -863171.1, -1190866.4, 57945.58, -0.011528883, 0.49888045, -853226.56, 251389.69, 0.000000001728097, 10.002647, 9.9982815 
2.6752374e+3, 1.9728753e+2, -868993.56, -1141112.0, 51884.62, 0.03136165, 0.5314236, -859436.44, 147195.9, 0.0, 10.001925, 9.9983 
2.6751715e+3, 2.0728579e+2, -819588.5, -996994.56, 63219.84, 0.015962109, 0.51644593, -799365.06, 109284.41, 0.0, 10.001293, 9.998919 
2.675105e+3, 2.1728413e+2, -810981.8, -944502.7, 69833.32, -0.025860516, 0.4809774, -781131.44, 29534.18, 0.0, 10.000688, 9.9989 
2.6750392e+3, 2.2728321e+2, -753271.6, -813703.4, 72763.73, -0.022035822, 0.4982522, -704699.44, 7974.989, 0.0, 10.000186, 9.999366 
2.674974e+3, 2.372827e+2, -729246.25, -760568.94, 75359.52, 0.0029723395, 0.53476804, -667937.9, -53258.69, 0.0, 9.999717, 9.999285 
2.6749083e+3, 2.4728185e+2, -695021.0, -664689.56, 80490.48, -0.017236402, 0.5325801, -597948.5, -81260.47, 0.0, 9.999156, 9.999539 
2.6748422e+3, 2.57281e+2, -681224.0, -600604.06, 72863.55, -0.06407776, 0.5151311, -557643.44, -138946.28, 0.0, 9.998546, 9.999602 
2.6747763e+3, 2.6728064e+2, -605973.06, -432152.0, 51827.633, -0.078563645, 0.50234824, -417871.88, -97171.84, 0.0, 9.998038, 10.00033 
2.6747105e+3, 2.772806e+2, -586993.44, -388736.28, 59027.445, -0.05941229, 0.4886529, -372492.78, -149793.31, 0.0, 9.997566, 10.000184 
2.674644e+3, 2.8728083e+2, -555011.94, -309519.6, 26009.227, -0.05599907, 0.5121639, -306794.25, -182096.33, 0.0, 9.997057, 10.0003 
2.6745766e+3, 2.9728135e+2, -534549.94, -244192.5, 28474.541, -0.11881106, 0.55787736, -241426.44, -214732.72, 0.0, 9.996502, 10.000347 
2.6745117e+3, 3.0728126e+2, -533053.56, -126744.695, 83251.85, -0.064104095, 0.489965, -110348.234, -110348.234, 0.0, 9.995778, 10.001169 
2.6744452e+3, 3.172821e+2, -507323.3, 8801.909, -33232.484, -0.18868445, 0.4855848, 10932.897, 10932.897, 0.0, 9.995435, 10.002259 
2.6857087e+3, 1.2737213e+2, -1060127.0, -1694275.6, 10803.032, -0.007586836, 0.53620267, -1059943.0, 631862.0, 0.033019427, 10.005966, 9.997268 
2.6856425e+3, 1.3736895e+2, -1116599.8, -1685212.9, 19336.291, 0.096123844, 0.51786447, -1115942.9, 477894.22, 0.020249361, 10.004862, 9.9971895 
2.6855746e+3, 1.4736637e+2, -1047011.9, -1562364.4, 26510.932, 0.07572318, 0.54933435, -1045651.7, 450211.84, 0.0093551, 10.004457, 9.997549 
2.6855066e+3, 1.5736417e+2, -959469.25, -1465086.8, 48391.184, 0.045097332, 0.595983, -954879.5, 443006.97, 0.0027840738, 10.00434, 9.9976015 
2.6854393e+3, 1.673616e+2, -901601.4, -1302734.1, 77753.93, 0.021842448, 0.56147224, -887057.2, 412853.1, 0.0004181405, 10.003698, 9.99835 
2.685372e+3, 1.7735904e+2, -932112.25, -1277299.1, 59563.418, -0.0077948268, 0.49455142, -922123.4, 279809.53, 0.000016829097, 10.002859, 9.998258 
2.6853055e+3, 1.8735719e+2, -898455.75, -1191411.1, 68161.32, -0.000055635785, 0.50216824, -883373.3, 220577.03, 0.0000000002885943, 10.002337, 9.998425 
2.685239e+3, 1.9735576e+2, -858564.44, -1124890.4, 83460.67, 0.026860699, 0.53956395, -834571.25, 171393.53, 0.0, 10.001952, 9.998396 
2.6851723e+3, 2.0735407e+2, -807894.7, -994826.75, 90788.055, 0.014861297, 0.5294294, -771059.6, 136921.7, 0.0, 10.001392, 9.998884 
2.6851058e+3, 2.1735242e+2, -801572.56, -940582.94, 84411.57, -0.013551736, 0.49854076, -761732.94, 48264.508, 0.0, 10.00076, 9.99889 
2.6850393e+3, 2.2735141e+2, -749817.0, -810620.0, 88242.89, -0.01564935, 0.5081788, -686885.44, 25121.469, 0.0, 10.000208, 9.999375 
2.6849732e+3, 2.373508e+2, -733746.44, -759704.56, 94098.35, -0.001184496, 0.53347015, -651736.25, -37723.61, 0.0, 9.999677, 9.999308 
2.6849073e+3, 2.4735004e+2, -689220.9, -657802.8, 106497.08, -0.017625658, 0.5379004, -565862.4, -49841.695, 0.0, 9.999182, 9.999573 
2.684841e+3, 2.5734934e+2, -660472.25, -587071.7, 108411.32, -0.0534519, 0.53260595, -509317.06, -91288.54, 0.0, 9.998678, 9.999629 
2.684774e+3, 2.6734906e+2, -589249.9, -423743.66, 78262.52, -0.07700481, 0.5270417, -392597.25, -72566.39, 0.0, 9.998157, 10.000329 
2.6847076e+3, 2.7734903e+2, -584765.3, -391845.03, 69085.12, -0.07097427, 0.51596063, -369657.34, -147627.06, 0.0, 9.997602, 10.000144 
2.684641e+3, 2.8734893e+2, -538796.7, -320846.84, 52032.56, -0.055692974, 0.52315027, -309062.0, -185030.45, 0.0, 9.997255, 10.000124 
2.6845735e+3, 2.9734907e+2, -472287.0, -220582.98, 74738.51, -0.09517554, 0.5438548, -200063.64, -174032.28, 0.0, 9.996963, 10.000283 
2.6845077e+3, 3.073498e+2, -421234.97, -35466.926, 100506.08, -0.07185042, 0.54007465, -10852.171, -10852.171, 0.0, 9.99639, 10.001496 
2.684441e+3, 3.173501e+2, -512152.47, -64689.734, 30081.787, -0.11807623, 0.45981038, -62676.47, -62676.47, 0.0, 9.995712, 10.001617 
2.6957142e+3, 1.2743962e+2, -1031014.3, -1622709.3, -27315.996, -0.01336557, 0.5549179, -1029755.94, 661390.2, 0.02702777, 10.005886, 9.9978075 
2.6956475e+3, 1.3743669e+2, -1078966.0, -1609070.4, -10945.774, 0.12086918, 0.5080133, -1078740.1, 514433.34, 0.01634968, 10.004857, 9.997715 
2.695579e+3, 1.4743449e+2, -1012327.8, -1492810.8, 22717.27, 0.08150286, 0.52554077, -1011256.1, 483939.03, 0.0073861307, 10.004457, 9.998029 
2.6955104e+3, 1.5743266e+2, -944481.75, -1427397.6, 36791.402, 0.013373672, 0.5646553, -941694.9, 455518.9, 0.00212303, 10.004306, 9.997878 
2.6954427e+3, 1.6743025e+2, -934454.94, -1365873.4, 45912.14, 0.024119973, 0.5618396, -929623.06, 369614.34, 0.00030584994, 10.003673, 9.997931 
2.6953754e+3, 1.7742777e+2, -949539.44, -1311798.5, 33341.664, 0.054902215, 0.5417662, -946496.25, 254765.22, 0.000011617903, 10.002849, 9.998028 
2.6953077e+3, 1.8742585e+2, -869286.56, -1131235.4, 54750.03, 0.029405987, 0.52563196, -858303.75, 244975.45, 0.000000000007316074, 10.0023365, 9.998839 
2.6952404e+3, 1.9742431e+2, -840192.7, -1085546.1, 66788.625, -0.014830894, 0.5115581, -823190.1, 182103.14, 0.0, 10.001944, 9.998672 
2.6951733e+3, 2.0742287e+2, -823404.1, -1026536.8, 67032.63, -0.011788819, 0.52995265, -803277.8, 104029.836, 0.0, 10.001388, 9.998671 
2.6951066e+3, 2.174216e+2, -814553.4, -964687.2, 62612.375, 0.0074007423, 0.55775124, -791868.8, 17452.291, 0.0, 10.000744, 9.9987335 
2.6950392e+3, 2.2742021e+2, -748385.7, -806851.25, 69340.79, -0.008343261, 0.53298956, -702367.56, 8966.361, 0.0, 10.000203, 9.999403 
2.6949725e+3, 2.3741896e+2, -727797.9, -749328.9, 74641.12, -0.034379482, 0.48944837, -663149.94, -49804.88, 0.0, 9.999682, 9.999377 
2.694906e+3, 2.4741843e+2, -676109.8, -631688.5, 86550.73, -0.03307834, 0.50333893, -564544.0, -49193.496, 0.0, 9.999184, 9.999752 
2.6948395e+3, 2.574183e+2, -655218.1, -577694.06, 88942.28, -0.031371754, 0.53926843, -519434.3, -102081.54, 0.0, 9.998682, 9.999693 
2.6947725e+3, 2.6741812e+2, -608740.06, -464356.28, 56857.58, -0.04641971, 0.5598467, -444654.47, -125299.66, 0.0, 9.998155, 10.0000515 
2.6947054e+3, 2.7741805e+2, -594867.56, -414402.22, 50052.613, -0.04271471, 0.5718838, -401449.63, -180093.95, 0.0, 9.997607, 9.999989 
2.6946378e+3, 2.8741756e+2, -523895.0, -293117.72, 40448.45, -0.07329553, 0.53093266, -286233.66, -162873.36, 0.0, 9.997264, 10.000313 
2.6945692e+3, 2.9741707e+2, -463751.1, -208297.58, 61585.523, -0.19551466, 0.47552297, -194225.53, -168861.19, 0.0, 9.996982, 10.0003605 
2.6945052e+3, 3.0741882e+2, -432981.28, -69945.91, 74338.945, 0.069873594, 0.5832489, -55313.273, -55313.273, 0.0, 9.996432, 10.001241 
2.6944363e+3, 3.1741887e+2, -525963.0, -100219.54, -52690.016, -0.14176211, 0.50769067, -93795.555, -93795.555, 0.0, 9.995726, 10.001375 
2.70572e+3, 1.2750825e+2, -1114509.3, -1655975.6, 30990.686, 0.03543112, 0.55706376, -1112741.4, 577732.94, 0.021666458, 10.005232, 9.9978895 
2.7056515e+3, 1.3750556e+2, -1066764.1, -1592077.0, 23578.777, 0.086804256, 0.52502966, -1065707.9, 526791.5, 0.01290368, 10.004879, 9.997821 
2.7055827e+3, 1.475034e+2, -1024183.94, -1486240.4, 41055.94, 0.049269926, 0.53713477, -1020564.25, 473956.3, 0.0056825965, 10.00432, 9.998137 
2.705514e+3, 1.5750155e+2, -1024085.3, -1452280.6, 29633.752, 0.015940651, 0.5627493, -1022044.25, 374495.2, 0.0015712961, 10.003701, 9.997997 
2.7054462e+3, 1.6749932e+2, -990180.0, -1379143.0, 49928.305, 0.03393825, 0.56572914, -983873.3, 314688.03, 0.00021599261, 10.003234, 9.998049 
2.7053782e+3, 1.7749706e+2, -946936.06, -1301010.3, 71520.63, 0.06148346, 0.55896133, -933035.1, 267548.25, 0.0000075416983, 10.002828, 9.99811 
2.70531e+3, 1.8749519e+2, -881502.25, -1138628.1, 85836.88, 0.029641334, 0.54588914, -855480.6, 247120.4, 0.0, 10.002263, 9.998822 
2.705242e+3, 1.9749361e+2, -882878.25, -1102905.6, 69830.695, -0.020516206, 0.53026867, -862587.2, 142028.52, 0.0, 10.001641, 9.998695 
2.7051744e+3, 2.0749219e+2, -847928.25, -1028392.6, 75353.016, -0.014424605, 0.5441706, -820602.25, 86027.4, 0.0, 10.00118, 9.998755 
2.705107e+3, 2.1749096e+2, -805503.56, -954126.3, 89985.43, 0.013256664, 0.5684139, -763112.06, 45530.285, 0.0, 10.000783, 9.998784 
2.7050397e+3, 2.2748953e+2, -734712.4, -806819.4, 99308.99, -0.007127507, 0.54236615, -665114.9, 45540.543, 0.0, 10.000328, 9.999342 
2.704972e+3, 2.3748818e+2, -708218.1, -743974.75, 98070.96, -0.04047551, 0.49585542, -626409.2, -13741.755, 0.0, 9.999839, 9.999337 
2.704905e+3, 2.474876e+2, -659909.6, -623033.06, 96830.625, -0.035113122, 0.50731784, -542900.9, -28227.553, 0.0, 9.999294, 9.999757 
2.7048382e+3, 2.5748745e+2, -651878.94, -577109.2, 87995.81, -0.020566842, 0.54041916, -518886.03, -102210.195, 0.0, 9.998713, 9.9996805 
2.7047706e+3, 2.674873e+2, -582778.2, -464155.53, 65984.92, -0.037340574, 0.5676176, -434743.47, -116065.3, 0.0, 9.998391, 9.999937 
2.704703e+3, 2.774872e+2, -522946.97, -388429.2, 69363.35, -0.039879683, 0.5883969, -359070.1, -138390.5, 0.0, 9.998144, 9.999905 
2.704635e+3, 2.874866e+2, -465539.6, -259823.64, 52885.03, -0.059039753, 0.5399105, -247024.4, -124339.51, 0.0, 9.997647, 10.000355 
2.704566e+3, 2.9748604e+2, -464185.16, -215210.48, 60316.8, -0.16317022, 0.4709843, -201367.73, -176678.11, 0.0, 9.99701, 10.000298 
2.704501e+3, 3.074878e+2, -463307.1, -129801.46, 57969.387, 0.012982578, 0.61157185, -120012.63, -120012.63, 0.0, 9.996424, 10.000831 
2.704432e+3, 3.174874e+2, -447844.13, -44358.07, -44826.805, -0.15327913, 0.52091205, -39437.867, -39437.867, 0.0, 9.996187, 10.0015335 
2.715726e+3, 1.2757784e+2, -1135256.6, -1691269.1, 15767.678, 0.11773844, 0.54893416, -1134809.9, 554982.0, 0.016925406, 10.00518, 9.9976635 
2.7156556e+3, 1.3757539e+2, -1083939.5, -1626493.4, 8831.183, 0.0014664151, 0.5632233, -1083795.8, 508020.56, 0.00989735, 10.004858, 9.997595 
2.715586e+3, 1.4757302e+2, -1038949.2, -1517350.3, 18302.725, -0.014403704, 0.5766636, -1038250.0, 455590.25, 0.0042301174, 10.004311, 9.997931 
2.715518e+3, 1.5757082e+2, -1027412.25, -1456584.3, 9828.479, 0.045843378, 0.58555824, -1027187.25, 368675.63, 0.0011190496, 10.003685, 9.997977 
2.715449e+3, 1.6756877e+2, -954141.4, -1301196.5, 35674.426, 0.047083218, 0.5721, -950512.3, 347369.88, 0.00014545815, 10.003218, 9.998592 
2.7153802e+3, 1.7756689e+2, -927136.5, -1256079.1, 53876.35, 0.015464555, 0.5504115, -918537.06, 281362.06, 0.0000045032148, 10.00281, 9.998428 
2.7153116e+3, 1.8756515e+2, -909880.75, -1196254.9, 62511.773, 0.0045318096, 0.56408995, -896830.0, 205086.34, 0.0, 10.0022545, 9.998432 
2.7152434e+3, 1.975636e+2, -898819.1, -1134162.4, 49506.66, 0.0040234425, 0.5888417, -888829.0, 115103.48, 0.0, 10.001631, 9.998487 
2.7151754e+3, 2.07562e+2, -825428.3, -981001.75, 61316.34, 0.002660548, 0.56953984, -804167.25, 101780.414, 0.0, 10.001175, 9.9990835 
2.7151075e+3, 2.1756049e+2, -791053.44, -923264.44, 75020.99, -0.0014175936, 0.5352099, -757168.5, 50792.79, 0.0, 10.000777, 9.999001 
2.7150396e+3, 2.2755936e+2, -744144.2, -827121.56, 81098.27, -0.012009855, 0.5390149, -694538.2, 15433.445, 0.0, 10.000329, 9.999203 
2.7149716e+3, 2.3755847e+2, -719834.25, -767881.56, 79048.79, -0.023128783, 0.5541791, -661239.25, -49259.293, 0.0, 9.999835, 9.999176 
2.714904e+3, 2.4755755e+2, -674292.4, -652337.6, 74637.12, -0.025218584, 0.5491526, -587874.94, -73885.484, 0.0, 9.99929, 9.9995575 
2.7148363e+3, 2.575568e+2, -658038.06, -593049.6, 68593.46, -0.030908322, 0.5394587, -549643.0, -133645.13, 0.0, 9.998724, 9.999567 
2.7147686e+3, 2.6755643e+2, -577376.44, -456017.34, 55679.816, -0.052833226, 0.5485191, -434342.5, -116340.945, 0.0, 9.998401, 9.99999 
2.7147007e+3, 2.7755627e+2, -520917.06, -388788.84, 56885.727, -0.062149934, 0.56058997, -367672.38, -147669.5, 0.0, 9.99816, 9.999896 
2.714633e+3, 2.87556e+2, -473917.6, -280438.94, 28071.184, -0.010847355, 0.5519812, -276448.5, -154442.73, 0.0, 9.997658, 10.00021 
2.7145648e+3, 2.9755595e+2, -479691.7, -248136.2, 34619.727, -0.0015334293, 0.550909, -243071.02, -219064.75, 0.0, 9.997011, 10.000073 
2.7144945e+3, 3.0755645e+2, -504521.9, -212907.73, 33973.227, -0.25898463, 0.61113274, -209002.14, -209002.14, 0.0, 9.996408, 10.000269 
2.714429e+3, 3.1755596e+2, -399130.13, 47507.973, 84666.46, -0.03658636, 0.54938406, 63019.004, 63019.004, 0.0, 9.99623, 10.002143 
2.7257308e+3, 1.2764767e+2, -1163788.0, -1699595.6, 20645.508, 0.12812546, 0.54929256, -1162993.6, 526114.94, 0.012813735, 10.004932, 9.997729 
2.7256596e+3, 1.3764556e+2, -1110213.6, -1632843.6, 25623.957, -0.033298, 0.5924014, -1108960.3, 482169.72, 0.007329847, 10.004638, 9.997656 
2.72559e+3, 1.4764321e+2, -1075080.5, -1532786.3, 40423.05, -0.030228741, 0.6040252, -1071537.9, 421616.1, 0.0030230223, 10.004052, 9.997947 
2.7255216e+3, 1.5764089e+2, -1068219.9, -1470438.8, 46598.633, 0.072665386, 0.6001133, -1062891.9, 332285.9, 0.0007601916, 10.003382, 9.998026 
2.725452e+3, 1.6763885e+2, -994542.3, -1304881.3, 64113.16, 0.055584215, 0.5808518, -981818.75, 315377.7, 0.00009222209, 10.002877, 9.99873 
2.7253824e+3, 1.7763709e+2, -971700.94, -1263237.4, 55893.734, -0.01433078, 0.557513, -961352.25, 237859.67, 0.0000024128854, 10.002446, 9.998552 
2.7253136e+3, 1.8763544e+2, -942537.25, -1206962.6, 74414.195, -0.01202742, 0.57217634, -923034.2, 178194.08, 0.0, 10.002012, 9.998473 
2.725245e+3, 1.9763394e+2, -901554.1, -1128244.0, 88980.48, 0.020349843, 0.5987336, -870799.8, 132444.19, 0.0, 10.001584, 9.9985485 
2.7251765e+3, 2.0763241e+2, -830045.6, -969994.1, 100381.99, 0.011411969, 0.5778995, -777655.94, 127602.44, 0.0, 10.001089, 9.999199 
2.7251077e+3, 2.1763095e+2, -816316.0, -927176.7, 100306.43, -0.01287559, 0.5398642, -757143.1, 50128.023, 0.0, 10.000572, 9.999071 
2.7250394e+3, 2.2762981e+2, -765532.75, -845961.1, 106459.164, -0.019812003, 0.54329073, -691945.6, 17336.158, 0.0, 10.000222, 9.999124 
2.7249715e+3, 2.3762885e+2, -714071.7, -774789.3, 107540.34, -0.014800377, 0.5604414, -632687.1, -21396.174, 0.0, 9.999921, 9.999085 
2.7249032e+3, 2.4762782e+2, -657656.2, -661288.9, 103194.79, -0.012099106, 0.55957836, -556261.75, -42960.043, 0.0, 9.999483, 9.999401 
2.7248353e+3, 2.5762692e+2, -629937.2, -592091.5, 101527.8, -0.01714663, 0.5529831, -507738.16, -92426.38, 0.0, 9.998978, 9.999449 
2.7247667e+3, 2.6762646e+2, -546949.3, -440819.34, 92147.445, -0.05660764, 0.5572006, -387549.75, -70233.57, 0.0, 9.998612, 9.9999895 
2.7246985e+3, 2.776262e+2, -507251.13, -384416.38, 87020.56, -0.0822638, 0.5575402, -339322.38, -120004.08, 0.0, 9.998267, 9.999872 
2.7246305e+3, 2.8762588e+2, -454667.03, -283017.53, 52030.117, -0.006135721, 0.55539364, -268477.84, -147156.4, 0.0, 9.997847, 10.000098 
2.724562e+3, 2.976259e+2, -441484.22, -253448.38, 59984.18, 0.03214394, 0.5718745, -235942.89, -212620.95, 0.0, 9.997384, 9.999853 
2.7244902e+3, 3.0762583e+2, -437881.66, -231216.64, 67733.14, -0.30973306, 0.6127918, -210995.98, -210995.98, 0.0, 9.997089, 9.999812 
2.7244258e+3, 3.176253e+2, -363757.03, 102224.33, 100675.89, 0.031423096, 0.5836394, 123045.18, 123045.18, 0.0, 9.996317, 10.002474 
2.7357352e+3, 1.2771778e+2, -1147798.8, -1660278.3, 10719.05, 0.07888263, 0.55696446, -1147574.6, 540848.94, 0.009341022, 10.004895, 9.998015 
2.735664e+3, 1.3771608e+2, -1098504.0, -1599205.1, 11284.55, -0.03103094, 0.614259, -1098249.9, 492190.28, 0.0052032005, 10.004588, 9.997911 
2.735594e+3, 1.477139e+2, -1065968.3, -1509586.8, 14194.754, -0.010079305, 0.62126714, -1065514.5, 426947.63, 0.002057534, 10.004026, 9.99812 
2.7355248e+3, 1.5771164e+2, -1063561.6, -1458918.0, 23429.459, 0.09298187, 0.6070382, -1062178.0, 332307.1, 0.0004884361, 10.00337, 9.998112 
2.7354547e+3, 1.6770954e+2, -1009230.44, -1335862.8, 48565.574, 0.05883278, 0.5918456, -1002162.4, 294342.3, 0.000054314478, 10.002877, 9.998519 
2.7353844e+3, 1.7770767e+2, -975325.0, -1270479.1, 40561.277, -0.032564096, 0.577452, -969852.4, 228669.38, 0.0000011019603, 10.002443, 9.998506 
2.7353153e+3, 1.8770605e+2, -915605.0, -1150106.3, 58941.133, -0.022649521, 0.57078636, -901623.9, 198913.0, 0.0, 10.002007, 9.998867 
2.7352464e+3, 1.9770464e+2, -884483.56, -1089782.0, 72248.49, 0.025275838, 0.56740195, -861607.06, 140943.23, 0.0, 10.001569, 9.99882 
2.7351773e+3, 2.0770341e+2, -835895.0, -982264.0, 80660.734, 0.011874538, 0.57261044, -800166.06, 104395.96, 0.0, 10.001088, 9.999116 
2.7351078e+3, 2.1770231e+2, -822680.4, -938780.44, 83395.71, -0.025894247, 0.5779149, -779120.1, 27452.39, 0.0, 10.000563, 9.998998 
2.7350393e+3, 2.277008e+2, -768653.06, -852601.25, 96173.5, -0.032394625, 0.5521194, -705693.06, 2893.3577, 0.0, 10.000221, 9.99908 
2.734971e+3, 2.376993e+2, -715796.6, -781028.3, 94403.586, -0.022168918, 0.51835495, -648533.4, -37933.063, 0.0, 9.999929, 9.99904 
2.7349028e+3, 2.4769844e+2, -664325.25, -676953.6, 83102.29, 0.0043292083, 0.5405467, -587297.6, -74687.484, 0.0, 9.999488, 9.999293 
2.7348346e+3, 2.576979e+2, -637226.44, -609178.7, 84447.2, 0.01971591, 0.58370364, -537598.8, -122981.51, 0.0, 9.998982, 9.9993305 
2.7347654e+3, 2.6769745e+2, -552127.1, -452490.16, 79999.17, -0.05054164, 0.5947841, -408065.6, -91443.67, 0.0, 9.998614, 9.999909 
2.7346963e+3, 2.7769703e+2, -509391.66, -391901.1, 73133.79, -0.111942545, 0.5874227, -356840.4, -138215.34, 0.0, 9.998279, 9.999817 
2.7346277e+3, 2.8769627e+2, -460246.63, -296703.38, 33317.05, -0.05037549, 0.54864204, -290176.5, -169544.34, 0.0, 9.997851, 10.000004 
2.734558e+3, 2.9769564e+2, -455473.25, -284274.78, 44894.73, -0.06315007, 0.5182155, -273216.03, -250577.83, 0.0, 9.997388, 9.99964 
2.734489e+3, 3.0769593e+2, -457870.25, -281603.22, 61330.414, -0.12995364, 0.6212126, -262363.84, -262363.84, 0.0, 9.997126, 9.99945 
2.734421e+3, 3.176949e+2, -380392.4, 65699.63, -154877.33, -0.05770973, 0.58298665, 114198.3, 114198.3, 0.0, 9.996309, 10.002235 
2.7457392e+3, 1.277889e+2, -1188969.3, -1672518.8, 40506.07, 0.05487166, 0.59882146, -1185599.6, 502128.1, 0.006502528, 10.004558, 9.998096 
2.7456686e+3, 1.3778673e+2, -1179747.4, -1625477.6, 28526.984, 0.005293999, 0.6011403, -1177929.0, 411819.7, 0.0035099706, 10.003966, 9.99803 
2.7455977e+3, 1.4778471e+2, -1121498.9, -1517624.9, 27742.336, 0.0046394006, 0.6099549, -1119565.4, 372203.53, 0.0013224896, 10.003569, 9.998282 
2.7455276e+3, 1.5778282e+2, -1070071.4, -1447165.8, 35627.2, 0.060592342, 0.6172061, -1066734.9, 327053.16, 0.00029401068, 10.003265, 9.998241 
2.745457e+3, 1.6778083e+2, -1014855.0, -1338852.1, 70666.21, 0.04044677, 0.60871536, -1000112.94, 295693.78, 0.000029276536, 10.002842, 9.998514 
2.7453867e+3, 1.7777894e+2, -982470.56, -1269284.0, 73990.8, -0.015470201, 0.5935371, -964507.75, 233316.48, 0.00000039166414, 10.002376, 9.998544 
2.745317e+3, 1.8777724e+2, -929299.06, -1140035.0, 81542.1, -0.009964218, 0.56799406, -901432.2, 198407.58, 0.0, 10.001845, 9.999012 
2.7452475e+3, 1.9777574e+2, -916980.8, -1095157.3, 79516.54, 0.020406757, 0.5435009, -886655.56, 115197.77, 0.0, 10.001307, 9.998909 
2.745178e+3, 2.0777467e+2, -853617.5, -1001351.2, 85916.79, 0.0077939704, 0.5679385, -814179.44, 89684.6, 0.0, 10.001016, 9.999019 
2.7451083e+3, 2.177738e+2, -788237.06, -924351.06, 86758.016, -0.020060962, 0.6038995, -746027.56, 59845.785, 0.0, 10.000812, 9.998974 
2.7450392e+3, 2.2777233e+2, -739549.3, -823081.0, 107880.63, -0.031562626, 0.5731442, -665631.9, 42254.813, 0.0, 10.000358, 9.999214 
2.7449706e+3, 2.3777075e+2, -728143.44, -780084.56, 119382.9, -0.02881292, 0.5218802, -631938.94, -22038.395, 0.0, 9.999819, 9.999097 
2.744902e+3, 2.4776979e+2, -673034.0, -697613.0, 108888.86, -0.00026034936, 0.5434417, -575743.3, -63831.98, 0.0, 9.999502, 9.999143 
2.7448332e+3, 2.5776917e+2, -609185.6, -608450.75, 107395.61, 0.021529393, 0.5901039, -501421.97, -87501.91, 0.0, 9.999234, 9.999212 
2.7447638e+3, 2.6776868e+2, -524896.8, -445821.66, 103744.78, -0.056898873, 0.608529, -374335.8, -58410.96, 0.0, 9.998835, 9.999846 
2.744694e+3, 2.7776828e+2, -501209.34, -396020.8, 97136.61, -0.1254454, 0.61065066, -338153.88, -120226.1, 0.0, 9.998377, 9.999739 
2.7446252e+3, 2.8776726e+2, -425581.56, -293025.4, 58258.78, -0.063637964, 0.55898476, -271060.25, -151122.92, 0.0, 9.998151, 9.999883 
2.7445555e+3, 2.9776633e+2, -374401.63, -253068.56, 69134.72, -0.08265291, 0.5060335, -221756.64, -199809.72, 0.0, 9.99798, 9.99957 
2.7444866e+3, 3.0776706e+2, -434881.6, -262131.39, 102697.02, -0.068711266, 0.6538882, -214315.08, -214315.08, 0.0, 9.997247, 9.999526 
2.7444166e+3, 3.1776574e+2, -398948.28, 44346.484, -149836.75, -0.097816676, 0.5818244, 90240.91, 90240.91, 0.0, 9.996243, 10.002117 
2.7557433e+3, 1.2786084e+2, -1194992.1, -1679789.3, 17462.992, 0.048369635, 0.66371346, -1194363.9, 492659.25, 0.0042740568, 10.00453, 9.998057 
2.7556726e+3, 1.378576e+2, -1182681.3, -1626330.0, 9130.745, 0.06183049, 0.56138915, -1182493.4, 406561.53, 0.0022245613, 10.003938, 9.998038 
2.755601e+3, 1.4785574e+2, -1113564.4, -1500597.6, 17108.924, 0.010108474, 0.5781436, -1112809.6, 378263.84, 0.00079366524, 10.003561, 9.998405 
2.75553e+3, 1.5785445e+2, -1060549.5, -1426805.5, 23846.326, -0.017649578, 0.63193023, -1059003.5, 334083.13, 0.0001635243, 10.003261, 9.998384 
2.7554592e+3, 1.6785267e+2, -1005921.5, -1317536.0, 53555.45, 0.0049772537, 0.6291655, -996974.1, 298129.0, 0.000014106576, 10.002828, 9.998668 
2.7553892e+3, 1.7785084e+2, -980295.25, -1258899.5, 55293.875, 0.031095441, 0.60470074, -969722.44, 227397.7, 0.00000009505926, 10.002349, 9.99863 
2.755319e+3, 1.8784896e+2, -936573.44, -1153869.0, 60858.78, 0.020542372, 0.56433004, -920689.56, 178447.78, 0.0, 10.001839, 9.998921 
2.7552485e+3, 1.9784722e+2, -923860.4, -1109419.4, 62658.02, 0.0014037974, 0.5246072, -904684.25, 96469.08, 0.0, 10.001305, 9.998814 
2.7551788e+3, 2.0784618e+2, -862237.6, -1019472.3, 79103.94, -0.0011423276, 0.56292075, -829328.6, 73835.75, 0.0, 10.001015, 9.998896 
2.755109e+3, 2.1784543e+2, -788794.3, -924016.06, 76546.21, -0.0010954972, 0.623742, -754275.1, 50897.93, 0.0, 10.000803, 9.998982 
2.7550396e+3, 2.2784433e+2, -717149.75, -777569.25, 87317.28, -0.018976735, 0.6093244, -654963.94, 52218.574, 0.0, 10.00036, 9.999527 
2.75497e+3, 2.3784317e+2, -718012.25, -758444.9, 101832.984, -0.038884226, 0.57039267, -634408.25, -25216.492, 0.0, 9.999814, 9.999249 
2.7549008e+3, 2.4784188e+2, -688489.56, -729379.7, 99739.86, -0.028628444, 0.56513244, -607120.9, -95915.164, 0.0, 9.999499, 9.998926 
2.754832e+3, 2.5784063e+2, -616304.56, -627213.0, 95671.93, -0.020939225, 0.5734858, -525931.5, -112711.56, 0.0, 9.999249, 9.999078 
2.7547622e+3, 2.6784015e+2, -526936.25, -452319.06, 85135.28, -0.0759488, 0.59850514, -396676.34, -81451.266, 0.0, 9.99884, 9.999802 
2.7546924e+3, 2.7783993e+2, -506808.38, -408412.13, 82414.74, -0.12016269, 0.62488073, -361627.72, -144401.03, 0.0, 9.998378, 9.999655 
2.7546236e+3, 2.8783897e+2, -435685.3, -314543.03, 54026.215, -0.045887582, 0.5872354, -293949.56, -174712.72, 0.0, 9.998153, 9.999735 
2.754554e+3, 2.9783803e+2, -364409.53, -235876.25, 58669.95, -0.031731676, 0.5458107, -213123.56, -191876.55, 0.0, 9.997993, 9.999682 
2.754483e+3, 3.0783948e+2, -391048.66, -171778.08, 64403.895, -0.12534477, 0.7211273, -154260.88, -154260.88, 0.0, 9.997244, 10.000152 
2.7544126e+3, 3.17838e+2, -394951.2, 63994.58, -25262.979, -0.09000398, 0.5742309, 65381.004, 65381.004, 0.0, 9.996215, 10.0022545 
2.765748e+3, 1.2793235e+2, -1231448.0, -1705618.3, 27439.408, 0.06406459, 0.6397076, -1229865.4, 456457.1, 0.0026115924, 10.004303, 9.9979925 
2.765676e+3, 1.3792951e+2, -1213967.8, -1637502.6, 19660.645, 0.038970493, 0.5847225, -1213057.0, 375294.53, 0.0013027429, 10.003704, 9.998075 
2.765604e+3, 1.479278e+2, -1131597.5, -1482137.5, 41830.31, -0.011072446, 0.5990866, -1126674.9, 363693.47, 0.0004365499, 10.003321, 9.998647 
2.7655324e+3, 1.5792653e+2, -1084870.6, -1420077.1, 51673.008, -0.022252921, 0.6344364, -1077085.9, 315294.6, 0.000081928505, 10.0030155, 9.998548 
2.7654618e+3, 1.6792476e+2, -1049767.5, -1340004.8, 69040.42, 0.008670961, 0.6262499, -1034181.44, 260215.98, 0.000005757098, 10.002538, 9.998651 
2.7653915e+3, 1.7792293e+2, -1027831.3, -1280386.6, 62295.336, 0.040052176, 0.60366917, -1013301.5, 183113.38, 0.00000000965895, 10.002024, 9.998636 
2.7653202e+3, 1.8792127e+2, -951786.9, -1162470.4, 72788.17, 0.020737672, 0.5864301, -929085.6, 169344.52, 0.0, 10.001742, 9.998907 
2.7652496e+3, 1.9791974e+2, -889961.0, -1091691.6, 78759.625, -0.008143083, 0.57048374, -862854.06, 137590.08, 0.0, 10.001532, 9.998824 
2.7651796e+3, 2.079185e+2, -861284.9, -1012731.4, 103683.9, -0.0033312647, 0.58443207, -808616.7, 93840.04, 0.0, 10.000997, 9.998949 
2.7651095e+3, 2.1791743e+2, -852084.8, -953526.2, 112826.24, 0.00964694, 0.6099183, -779102.9, 25364.988, 0.0, 10.000369, 9.998987 
2.7650398e+3, 2.2791635e+2, -758718.94, -812821.7, 103793.18, -0.011191752, 0.6067944, -678509.9, 27967.846, 0.0, 10.000144, 9.999388 
2.7649698e+3, 2.379153e+2, -687443.56, -745901.25, 87675.734, -0.036736447, 0.5921676, -624252.94, -15766.189, 0.0, 10.000037, 9.999227 
2.7649e+3, 2.4791414e+2, -648083.1, -683621.4, 102354.54, -0.038150996, 0.58566266, -561966.8, -51468.184, 0.0, 9.999669, 9.999157 
2.7648306e+3, 2.5791302e+2, -614677.0, -612262.7, 129242.35, -0.039105628, 0.5837052, -484221.84, -71711.33, 0.0, 9.999206, 9.999198 
2.764761e+3, 2.6791236e+2, -529550.44, -473461.2, 117374.2, -0.08245432, 0.5984897, -380827.72, -66310.09, 0.0, 9.998914, 9.9996195 
2.7646908e+3, 2.7791187e+2, -476088.6, -408639.84, 106403.555, -0.111723736, 0.61516815, -330744.1, -114221.35, 0.0, 9.998655, 9.999517 
2.7646217e+3, 2.8791097e+2, -413414.4, -308307.94, 83444.61, -0.04105876, 0.596277, -262246.53, -143714.22, 0.0, 9.998331, 9.999688 
2.7645516e+3, 2.979103e+2, -372302.84, -227527.47, 84706.01, -0.018767897, 0.5825201, -188492.16, -167951.75, 0.0, 9.997897, 9.999782 
2.7644795e+3, 3.0791202e+2, -387424.13, -129718.48, 58910.09, -0.15282407, 0.7582291, -116890.5, -116890.5, 0.0, 9.997104, 10.000504 
2.7644086e+3, 3.1791034e+2, -276383.3, 100410.97, 39078.367, -0.11190198, 0.5653237, 104421.21, 104421.21, 0.0, 9.997124, 10.002064 
2.7757522e+3, 1.2800366e+2, -1244028.0, -1721737.0, 6280.479, 0.08863363, 0.55372906, -1243945.5, 441678.16, 0.0014514166, 10.004261, 9.997898 
2.7756783e+3, 1.3800235e+2, -1214479.9, -1633971.3, 3455.8997, -0.050529394, 0.6584086, -1214451.5, 373188.2, 0.00068780803, 10.003682, 9.998109 
2.7756068e+3, 1.4800072e+2, -1112209.5, -1437731.1, 31928.98, -0.052387327, 0.65853363, -1109107.4, 380548.1, 0.00021371112, 10.003298, 9.998964 
2.775536e+3, 1.5799904e+2, -1078496.9, -1397935.9, 37646.61, 0.033387624, 0.6233479, -1074120.0, 317550.44, 0.000035174562, 10.002975, 9.99872 
2.7754644e+3, 1.6799714e+2, -1062429.4, -1364453.0, 50053.477, 0.04056526, 0.60552365, -1054350.3, 239338.9, 0.0000017161015, 10.002529, 9.998488 
2.7753928e+3, 1.7799526e+2, -1031573.4, -1292152.1, 47473.332, 0.009627268, 0.5962863, -1023193.94, 172513.77, 0.00000000000031198744, 10.00204, 9.998549 
2.7753216e+3, 1.8799414e+2, -948237.5, -1155862.5, 66742.6, -0.005686541, 0.6320339, -928633.56, 169084.7, 0.0, 10.001743, 9.998954 
2.7752507e+3, 1.9799326e+2, -886830.25, -1080059.8, 67139.32, -0.010760367, 0.67622125, -865792.5, 133933.66, 0.0, 10.001508, 9.998917 
2.77518e+3, 2.0799157e+2, -847608.0, -983477.0, 79333.555, -0.0012319821, 0.6296877, -811096.8, 90644.74, 0.0, 10.000993, 9.999153 
2.77511e+3, 2.1798974e+2, -854918.3, -958584.6, 94645.76, 0.007850874, 0.55948067, -798841.8, 4916.551, 0.0, 10.000363, 9.998956 
2.7750397e+3, 2.2798835e+2, -799942.56, -899514.25, 100920.695, -0.008755925, 0.5637712, -737195.6, -31422.807, 0.0, 10.000147, 9.998793 
2.7749696e+3, 2.3798718e+2, -700241.3, -774784.94, 79794.516, -0.02934691, 0.5913284, -649442.94, -41657.605, 0.0, 10.000045, 9.999025 
2.7748996e+3, 2.4798663e+2, -598885.8, -582790.2, 83866.82, -0.029343823, 0.60873973, -506585.9, 3203.8813, 0.0, 9.999672, 9.99985 
2.7748296e+3, 2.5798634e+2, -588808.2, -558421.9, 114214.016, -0.03449699, 0.62268835, -458394.94, -46603.566, 0.0, 9.999203, 9.999571 
2.7747592e+3, 2.6798522e+2, -555432.75, -526110.5, 108365.68, -0.07685526, 0.60605097, -431418.66, -117615.99, 0.0, 9.998908, 9.999261 
2.7746892e+3, 2.7798396e+2, -490573.9, -439831.1, 96319.62, -0.10390834, 0.5791579, -365597.4, -149781.08, 0.0, 9.998659, 9.999302 
2.7746195e+3, 2.879833e+2, -410444.34, -303784.34, 67253.37, -0.051952124, 0.5851591, -271282.5, -153458.39, 0.0, 9.998334, 9.999721 
2.7745488e+3, 2.9798305e+2, -366217.38, -218198.86, 59922.977, -0.054763973, 0.61383647, -196981.38, -177153.78, 0.0, 9.997907, 9.999843 
2.7744764e+3, 3.0798444e+2, -391368.9, -131975.89, 26023.92, -0.1549061, 0.7503481, -129390.77, -129390.77, 0.0, 9.997079, 10.0005 
2.7744058e+3, 3.17983e+2, -314883.7, -6381.0254, 75757.195, -0.09678632, 0.5986646, 11218.236, 11218.236, 0.0, 9.997198, 10.001315 
2.7857557e+3, 1.2807682e+2, -1293171.5, -1730669.6, 29854.135, 0.07361461, 0.58770776, -1291143.8, 393764.3, 0.00071235735, 10.00385, 9.998039 
2.7856818e+3, 1.3807529e+2, -1248015.3, -1636772.0, 41556.96, -0.054981217, 0.6560168, -1243622.6, 343302.88, 0.0003166471, 10.003392, 9.998231 
2.7856094e+3, 1.4807373e+2, -1173907.1, -1464913.4, 63808.164, -0.046131097, 0.6581743, -1160531.0, 328409.7, 0.000088819485, 10.002869, 9.998983 
2.7855384e+3, 1.5807219e+2, -1160559.3, -1430627.3, 55337.715, 0.05159048, 0.63607734, -1149660.3, 241294.4, 0.000011727656, 10.002387, 9.998778 
2.7854666e+3, 1.6807048e+2, -1084305.0, -1364671.1, 81334.19, 0.043324627, 0.62983495, -1062418.5, 230552.94, 0.00000025139548, 10.002335, 9.998581 
2.7853945e+3, 1.7806877e+2, -977114.2, -1261614.8, 88666.37, -0.007837092, 0.62854654, -951743.25, 243245.16, 0.0, 10.002391, 9.99859 
2.785323e+3, 1.8806736e+2, -946702.0, -1160007.6, 97876.2, -0.010193694, 0.6391364, -908597.9, 188403.61, 0.0, 10.00178, 9.998906 
2.785252e+3, 1.9806615e+2, -963437.75, -1117820.8, 96016.92, 0.004879323, 0.65392375, -917431.1, 81581.266, 0.0, 10.000995, 9.998901 
2.7851808e+3, 2.080646e+2, -858192.5, -989244.6, 103403.516, 0.0020966707, 0.6241271, -801301.44, 99724.914, 0.0, 10.000928, 9.999143 
2.7851102e+3, 2.1806301e+2, -754090.56, -911091.44, 103508.16, -0.00436773, 0.5798586, -702682.4, 100358.68, 0.0, 10.001062, 9.998944 
2.7850398e+3, 2.2806154e+2, -753119.2, -881097.6, 131042.375, -0.010071285, 0.58070064, -671277.25, 33778.91, 0.0, 10.000489, 9.998753 
2.7849695e+3, 2.3806022e+2, -749275.06, -800169.75, 149381.75, -0.01199469, 0.5966464, -623188.7, -16118.351, 0.0, 9.999721, 9.999006 
2.7848992e+3, 2.4805953e+2, -610706.75, -587950.06, 128569.3, -0.022335446, 0.6013638, -470256.6, 38819.26, 0.0, 9.999592, 9.999851 
2.7848285e+3, 2.5805908e+2, -528509.0, -532026.8, 107905.42, -0.04422105, 0.6035576, -422348.13, -11269.883, 0.0, 9.99963, 9.999545 
2.7847582e+3, 2.680581e+2, -515691.97, -516990.34, 99416.68, -0.074297175, 0.6051679, -416922.34, -103833.586, 0.0, 9.999229, 9.999166 
2.784688e+3, 2.78057e+2, -494066.16, -447146.97, 106770.875, -0.0768983, 0.6040559, -361288.8, -146187.5, 0.0, 9.998669, 9.999244 
2.7846175e+3, 2.880562e+2, -395634.5, -295911.25, 84295.83, -0.06011556, 0.5973349, -247834.28, -130724.13, 0.0, 9.998438, 9.9997225 
2.784546e+3, 2.980557e+2, -314327.1, -207812.69, 68293.0, -0.11503026, 0.60351944, -174465.83, -155350.34, 0.0, 9.998328, 9.999709 
2.7844742e+3, 3.0805662e+2, -275931.13, -117667.25, -6050.955, -0.120630786, 0.7236131, -117436.24, -117436.24, 0.0, 9.998056, 10.000123 
2.784403e+3, 3.1805527e+2, -322908.84, -35368.168, 93739.43, -0.06486219, 0.6118286, -7508.117, -7508.117, 0.0, 9.997256, 10.001085 
2.7957588e+3, 1.2815139e+2, -1278741.6, -1682688.0, 10751.357, 0.027593138, 0.70796996, -1278455.8, 405724.28, 0.00029753995, 10.003775, 9.998403 
2.7956855e+3, 1.3814838e+2, -1239284.4, -1610389.3, 23433.594, 0.0051321457, 0.5948675, -1237810.5, 348398.4, 0.00012121894, 10.003356, 9.998429 
2.7956125e+3, 1.4814691e+2, -1188260.8, -1496228.3, 44651.074, -0.007158953, 0.614499, -1181917.5, 306305.84, 0.000028714292, 10.002872, 9.998767 
2.7955404e+3, 1.5814598e+2, -1161713.0, -1437158.1, 44415.543, 0.030695055, 0.67190707, -1154728.1, 235504.75, 0.0000024460635, 10.002403, 9.998726 
2.7954686e+3, 1.6814469e+2, -1066429.9, -1325820.4, 85251.38, 0.021680586, 0.69018793, -1040919.9, 251325.5, 0.0000000042322403, 10.002324, 9.998854 
2.7953967e+3, 1.7814323e+2, -973953.56, -1244269.6, 80189.98, -0.011764142, 0.69065493, -951955.25, 242303.66, 0.0, 10.002343, 9.998734 
2.7953246e+3, 1.881409e+2, -957950.2, -1180226.4, 66166.44, 0.0023884964, 0.610247, -939745.06, 156535.16, 0.0, 10.001765, 9.998775 
2.7952528e+3, 1.9813846e+2, -971876.4, -1137644.8, 76619.625, 0.030037198, 0.51556045, -941887.4, 56414.89, 0.0, 10.001003, 9.998762 
2.7951816e+3, 2.0813762e+2, -871332.44, -1018882.44, 110626.88, 0.005592212, 0.5737755, -812137.3, 88173.695, 0.0, 10.000936, 9.998937 
2.7951106e+3, 2.1813728e+2, -755200.6, -910780.94, 99374.47, -0.032474853, 0.6729899, -706790.1, 95525.32, 0.0, 10.00105, 9.998954 
2.7950397e+3, 2.2813597e+2, -719039.2, -809967.1, 100851.68, -0.016202666, 0.65754074, -653877.5, 50450.113, 0.0, 10.000485, 9.999244 
2.7949694e+3, 2.381344e+2, -742437.9, -784601.1, 129401.78, 0.013921021, 0.60549897, -632411.7, -26069.91, 0.0, 9.999712, 9.999118 
2.7948985e+3, 2.4813274e+2, -662510.25, -695546.4, 131456.19, -0.018616464, 0.55811864, -546538.44, -38180.836, 0.0, 9.999591, 9.999114 
2.7948278e+3, 2.5813124e+2, -556858.5, -595093.5, 102718.13, -0.07714108, 0.5222072, -471493.97, -61121.754, 0.0, 9.999647, 9.999105 
2.7947572e+3, 2.68131e+2, -502104.88, -490797.53, 76224.14, -0.0761319, 0.59901017, -420017.7, -107641.49, 0.0, 9.999235, 9.999345 
2.794687e+3, 2.7813104e+2, -486693.47, -432814.94, 88965.93, -0.034145404, 0.6983921, -366799.03, -152421.77, 0.0, 9.998671, 9.999342 
2.7946156e+3, 2.8812966e+2, -399455.88, -302925.1, 78918.3, -0.06700426, 0.6342423, -258682.94, -142292.17, 0.0, 9.998433, 9.999677 
2.7945432e+3, 2.981281e+2, -343554.3, -265930.72, 62918.617, -0.19815907, 0.5442234, -230816.14, -212410.84, 0.0, 9.998316, 9.999317 
2.7944726e+3, 3.0812836e+2, -333407.03, -249082.98, -23685.895, -0.05057624, 0.67734987, -242885.34, -242885.34, 0.0, 9.998101, 9.999203 
2.7943996e+3, 3.1812674e+2, -301118.6, 19117.367, 74748.12, -0.11678936, 0.6028501, 35705.496, 35705.496, 0.0, 9.997238, 10.001458 
2.8057617e+3, 1.2822512e+2, -1328562.1, -1659911.8, 13372.748, -0.009429677, 0.72043777, -1328023.4, 355435.6, 0.00010001419, 10.003229, 9.998823 
2.8056884e+3, 1.382225e+2, -1322373.5, -1623981.8, 29649.635, 0.03982495, 0.6110147, -1319486.4, 265995.8, 0.00003524401, 10.00267, 9.998668 
2.8056154e+3, 1.4822091e+2, -1239201.0, -1536513.4, 61270.266, 0.012494745, 0.6193821, -1227069.4, 260428.56, 0.000006022763, 10.002593, 9.998625 
2.8055423e+3, 1.5821972e+2, -1130510.5, -1429763.5, 60653.805, 0.012735518, 0.6633184, -1118684.3, 270826.47, 0.00000016363987, 10.002649, 9.998659 
2.8054702e+3, 1.6821845e+2, -1090165.0, -1323337.6, 92284.54, 0.012424889, 0.67908955, -1058061.0, 233461.75, 0.0, 10.002107, 9.998974 
2.8053984e+3, 1.7821714e+2, -1097814.1, -1289182.1, 81975.484, -0.0012717254, 0.6816284, -1067500.4, 126033.96, 0.0, 10.001439, 9.998857 
2.8053263e+3, 1.88215e+2, -993326.9, -1193960.1, 76520.29, 0.0048422655, 0.6146084, -967473.9, 128080.01, 0.0, 10.001511, 9.998802 
2.805254e+3, 1.982127e+2, -862613.25, -1088271.3, 95143.73, 0.023410605, 0.5330432, -827852.56, 169722.31, 0.0, 10.001763, 9.998736 
2.8051826e+3, 2.0821168e+2, -847967.8, -1021859.2, 130963.4, 0.011441944, 0.582345, -777716.25, 121869.44, 0.0, 10.001159, 9.998808 
2.8051114e+3, 2.182111e+2, -861885.44, -965121.1, 124270.0, -0.0115288375, 0.6700833, -778939.4, 22653.393, 0.0, 10.000335, 9.998922 
2.8050402e+3, 2.2820993e+2, -729435.4, -796535.3, 110378.586, -0.0108238645, 0.6595672, -647620.56, 55982.59, 0.0, 10.0003395, 9.999404 
2.804969e+3, 2.3820859e+2, -618278.06, -720804.2, 117818.76, 0.0013794111, 0.6161126, -541053.1, 64561.516, 0.0, 10.00055, 9.999151 
2.8048983e+3, 2.4820685e+2, -614029.9, -700993.75, 140840.78, -0.020757316, 0.5764218, -510111.66, -2479.7275, 0.0, 10.000051, 9.998853 
2.804827e+3, 2.5820515e+2, -612396.06, -638412.5, 145420.77, -0.059542146, 0.5463002, -479402.88, -69753.39, 0.0, 9.999342, 9.998952 
2.8047562e+3, 2.6820475e+2, -499581.84, -484475.53, 120540.93, -0.075690426, 0.61142254, -371251.34, -59596.99, 0.0, 9.999231, 9.99939 
2.8046852e+3, 2.7820468e+2, -399747.6, -392654.1, 122845.64, -0.057783794, 0.6949328, -273304.03, -59648.152, 0.0, 9.999271, 9.9993305 
2.804614e+3, 2.8820318e+2, -342168.88, -288802.4, 103656.96, -0.06884856, 0.62992895, -208449.38, -92779.13, 0.0, 9.998886, 9.999555 
2.8045416e+3, 2.9820153e+2, -357049.94, -299430.06, 86716.336, -0.17066701, 0.5442895, -236863.13, -219177.13, 0.0, 9.998344, 9.999071 
2.8044704e+3, 3.0820155e+2, -338375.8, -307269.97, 36309.438, -0.06521956, 0.69250196, -283322.66, -283322.66, 0.0, 9.998306, 9.998704 
2.8043962e+3, 3.1819943e+2, -175998.6, 95111.89, 76688.86, -0.18196414, 0.6112499, 115301.33, 115301.33, 0.0, 9.998034, 10.001594 
2.8157642e+3, 1.2829834e+2, -1300240.9, -1598538.0, -7134.602, -0.05008465, 0.65515596, -1300070.4, 382671.63, 0.000023984428, 10.003223, 9.999244 
2.8156912e+3, 1.3829753e+2, -1311949.0, -1593140.6, 16110.779, 0.04936803, 0.68660897, -1311029.0, 273718.03, 0.0000064487667, 10.002631, 9.998898 
2.8156173e+3, 1.4829561e+2, -1252869.3, -1558282.0, 64264.902, 0.016339805, 0.66065603, -1239897.5, 246868.39, 0.00000052844416, 10.002561, 9.998493 
2.8155446e+3, 1.5829343e+2, -1139755.3, -1442165.1, 54268.83, -0.0011044655, 0.6186342, -1130311.4, 258476.66, 0.0000000005064632, 10.002619, 9.9985895 
2.8154722e+3, 1.6829188e+2, -1088527.0, -1319693.4, 66107.45, 0.009739013, 0.60964996, -1070957.4, 219844.89, 0.0, 10.002104, 9.999001 
2.8153998e+3, 1.7829065e+2, -1090062.9, -1276759.9, 68376.23, 0.012253556, 0.6131787, -1067699.5, 125113.94, 0.0, 10.001453, 9.998937 
2.815327e+3, 1.8828967e+2, -983037.8, -1172453.6, 88852.414, -0.003332212, 0.6507103, -947883.0, 146939.52, 0.0, 10.001507, 9.998953 
2.8152552e+3, 1.9828874e+2, -862542.56, -1080712.8, 92225.2, -0.014149192, 0.691837, -828781.44, 168050.03, 0.0, 10.001731, 9.998805 
2.8151837e+3, 2.082867e+2, -855149.9, -1034226.44, 97614.02, 0.01924328, 0.6422059, -812228.3, 86623.07, 0.0, 10.001146, 9.99873 
2.8151122e+3, 2.1828446e+2, -869863.06, -979938.1, 104943.91, 0.053443708, 0.5718327, -806400.1, -5526.869, 0.0, 10.000326, 9.998826 
2.8150403e+3, 2.2828342e+2, -740248.06, -820879.6, 120629.91, 0.0032616847, 0.58828896, -653375.25, 49507.83, 0.0, 10.000346, 9.999234 
2.8149685e+3, 2.3828278e+2, -618279.44, -724388.3, 115711.2, -0.060868677, 0.6311072, -544039.5, 60849.32, 0.0, 10.000565, 9.999121 
2.8148976e+3, 2.4828191e+2, -597167.56, -666910.25, 112128.27, -0.029025003, 0.66251624, -514613.34, -7715.0444, 0.0, 10.000052, 9.999088 
2.814827e+3, 2.5828093e+2, -605134.56, -621689.75, 127380.96, 0.011007317, 0.6847393, -485762.53, -76853.68, 0.0, 9.999333, 9.999073 
2.814755e+3, 2.6827937e+2, -507914.9, -501569.34, 124314.68, -0.07585084, 0.6399418, -380386.97, -69463.65, 0.0, 9.999229, 9.999274 
2.814683e+3, 2.782778e+2, -405201.66, -409052.34, 119544.29, -0.16033061, 0.58007896, -287567.22, -74629.17, 0.0, 9.999291, 9.999209 
2.8146127e+3, 2.8827676e+2, -355584.7, -319907.28, 82417.0, -0.063112356, 0.5802602, -253420.53, -138471.73, 0.0, 9.998897, 9.999338 
2.8145412e+3, 2.9827613e+2, -358092.2, -303832.97, 72800.89, -0.02315146, 0.6127169, -253270.98, -236314.42, 0.0, 9.998352, 9.999039 
2.814467e+3, 3.0827647e+2, -330625.88, -293400.22, 45582.39, -0.19149192, 0.7909119, -262776.97, -262776.97, 0.0, 9.998315, 9.998796 
2.8143942e+3, 3.1827322e+2, -183439.36, 71326.45, -51318.074, -0.15440181, 0.5918095, 81275.08, 81275.08, 0.0, 9.9980545, 10.001427 
2.8257668e+3, 1.2837273e+2, -1353740.0, -1636939.1, 14294.111, -0.06840273, 0.63937455, -1353020.4, 328991.63, 0.0000033281458, 10.002905, 9.999137 
2.8256935e+3, 1.383719e+2, -1334203.9, -1606148.5, 14221.141, 0.06054716, 0.67910475, -1333462.3, 250555.77, 0.00000050691085, 10.002489, 9.998876 
2.8256196e+3, 1.4837009e+2, -1302326.6, -1569371.6, 81008.52, 0.02802435, 0.65863216, -1279674.1, 206361.42, 0.0000000023756648, 10.0021715, 9.998602 
2.8255466e+3, 1.5836802e+2, -1233513.4, -1476429.0, 81672.44, 0.0037943483, 0.61730224, -1208607.4, 179448.83, 0.0, 10.001932, 9.998683 
2.8254738e+3, 1.6836645e+2, -1128681.4, -1341656.6, 85614.05, 0.009929558, 0.60116667, -1098533.0, 191537.98, 0.0, 10.00184, 9.998979 
2.8254008e+3, 1.7836508e+2, -1045951.5, -1259950.1, 84873.69, 0.012163511, 0.5981352, -1016377.0, 175706.36, 0.0, 10.001771, 9.998901 
2.8253284e+3, 1.8836415e+2, -1009925.8, -1188391.8, 101026.43, -0.00025610244, 0.64268816, -964366.9, 129725.58, 0.0, 10.001339, 9.998922 
2.825256e+3, 1.9836332e+2, -990198.06, -1138546.5, 92937.29, -0.010054243, 0.69584066, -945464.06, 50636.668, 0.0, 10.000847, 9.998829 
2.8251845e+3, 2.0836134e+2, -879713.7, -1037246.5, 100307.28, 0.022073286, 0.6476589, -830943.06, 67176.766, 0.0, 10.000945, 9.998803 
2.8251126e+3, 2.1835913e+2, -745559.25, -918652.06, 119840.52, 0.060359146, 0.5727028, -684281.3, 115860.06, 0.0, 10.001175, 9.9988365 
2.8250405e+3, 2.2835791e+2, -697724.1, -816636.8, 140756.63, 0.00658211, 0.58005136, -604381.6, 97771.53, 0.0, 10.00071, 9.999087 
2.8249687e+3, 2.3835708e+2, -694093.1, -764932.94, 134544.0, -0.061808538, 0.6170993, -590384.8, 13776.317, 0.0, 10.000064, 9.999082 
2.8248975e+3, 2.4835648e+2, -597838.8, -649060.9, 122425.37, -0.032211155, 0.6670627, -498374.28, 7793.613, 0.0, 9.99997, 9.9992485 
2.8248265e+3, 2.5835586e+2, -502251.72, -565970.8, 134997.86, 0.007178075, 0.71221673, -395404.9, 12769.89, 0.0, 10.000011, 9.999129 
2.824754e+3, 2.6835406e+2, -445989.56, -486770.97, 133982.44, -0.083167166, 0.648967, -330855.1, -20663.252, 0.0, 9.9997225, 9.999138 
2.824682e+3, 2.7835205e+2, -408903.47, -416362.16, 124663.65, -0.16400075, 0.5604642, -287913.4, -75702.78, 0.0, 9.999298, 9.999152 
2.8246114e+3, 2.883513e+2, -339749.22, -308977.7, 96824.28, -0.053490177, 0.5848196, -226324.36, -112105.4, 0.0, 9.998994, 9.999366 
2.8245395e+3, 2.9835102e+2, -293018.28, -260232.53, 109322.46, -0.0069682477, 0.6526103, -166080.72, -149857.67, 0.0, 9.998743, 9.999151 
2.8244647e+3, 3.0835098e+2, -288512.25, -247717.08, 97695.27, -0.24342732, 0.7689219, -168312.73, -168312.73, 0.0, 9.998497, 9.999021 
2.824393e+3, 3.183479e+2, -170588.75, 66468.15, -46432.273, -0.08772502, 0.57457143, 75238.36, 75238.36, 0.0, 9.998199, 10.00132 
2.8357697e+3, 1.28448e+2, -1400001.6, -1708763.6, -4274.9746, -0.06461244, 0.6631007, -1399942.4, 281329.75, 0.00000016214108, 10.002806, 9.998689 
2.8356957e+3, 1.3844588e+2, -1345559.0, -1631872.4, 1328.619, 0.061045043, 0.61241055, -1345552.9, 237739.8, 0.0000000020979667, 10.002499, 9.998695 
2.8356215e+3, 1.4844452e+2, -1277123.4, -1523770.0, 71916.86, 0.035146724, 0.623699, -1257685.8, 227619.9, 0.0, 10.002197, 9.998904 
2.8355485e+3, 1.584434e+2, -1221586.9, -1451329.5, 74721.04, 0.018619228, 0.64862096, -1199422.9, 187893.52, 0.0, 10.001929, 9.998858 
2.8354752e+3, 1.6844192e+2, -1138000.8, -1358137.9, 83073.664, 0.013571754, 0.6433457, -1110169.6, 179160.97, 0.0, 10.001825, 9.998873 
2.8354025e+3, 1.7844035e+2, -1058482.8, -1280787.9, 75344.38, 0.0018186675, 0.62981015, -1035353.25, 155992.22, 0.0, 10.001748, 9.99877 
2.8353295e+3, 1.8843845e+2, -1021526.6, -1213307.5, 80544.64, 0.010947694, 0.59353447, -992187.6, 101176.0, 0.0, 10.001341, 9.998752 
2.835257e+3, 1.9843657e+2, -991511.06, -1142615.3, 83547.74, 0.025472155, 0.5574973, -954420.6, 40960.91, 0.0, 10.000852, 9.9988 
2.835185e+3, 2.0843571e+2, -863463.25, -1005164.44, 111151.79, 0.017165888, 0.60595065, -802501.4, 94889.02, 0.0, 10.00095, 9.9990225 
2.8351128e+3, 2.1843508e+2, -739567.2, -904014.7, 118519.34, 0.0020762966, 0.6696143, -677542.6, 121854.68, 0.0, 10.001164, 9.998943 
2.835041e+3, 2.2843337e+2, -708230.2, -836904.8, 115128.805, -0.00023072798, 0.6324214, -640681.5, 60732.15, 0.0, 10.000702, 9.998953 
2.834969e+3, 2.3843144e+2, -700696.94, -776327.75, 118324.2, 0.00070632604, 0.5721642, -614292.25, -10860.618, 0.0, 10.000052, 9.99901 
2.8348973e+3, 2.4843048e+2, -593757.75, -641293.3, 125256.29, -0.03375841, 0.5849744, -490034.16, 15407.225, 0.0, 9.999973, 9.999301 
2.8348252e+3, 2.5842983e+2, -498159.3, -564232.75, 131393.63, -0.08796489, 0.6214012, -395712.78, 11735.585, 0.0, 10.000038, 9.999129 
2.8347537e+3, 2.6842877e+2, -454619.6, -507703.94, 116958.805, -0.09703018, 0.6407414, -361229.1, -51769.074, 0.0, 9.999732, 9.998991 
2.8346825e+3, 2.7842757e+2, -406186.56, -411552.56, 109376.52, -0.061350077, 0.6488905, -299460.16, -87987.48, 0.0, 9.9993, 9.999186 
2.8346103e+3, 2.8842685e+2, -318734.3, -264046.34, 87642.95, -0.0462946, 0.65092456, -199580.84, -86100.96, 0.0, 9.998988, 9.999678 
2.8345367e+3, 2.9842627e+2, -273236.63, -218465.11, 102919.27, -0.14459755, 0.66080725, -139350.36, -123865.61, 0.0, 9.998738, 9.999442 
2.8344634e+3, 3.084247e+2, -264667.34, -198224.08, 87761.86, -0.19820343, 0.5913463, -137606.38, -137606.38, 0.0, 9.998494, 9.999365 
2.834391e+3, 3.1842446e+2, -185426.45, 42533.637, -25109.223, -0.06811787, 0.65208995, 45266.59, 45266.59, 0.0, 9.998178, 10.001163 
2.845772e+3, 1.2852289e+2, -1530596.4, -1771691.6, -2016.7336, -0.02920583, 0.6629369, -1530579.5, 149957.58, 0.00000000032983427, 10.001902, 9.998695 
2.8456977e+3, 1.385205e+2, -1345065.1, -1623357.6, 18240.184, 0.05252727, 0.5823984, -1343874.6, 238686.31, 0.0, 10.002465, 9.998771 
2.8456235e+3, 1.4851934e+2, -1268885.8, -1503159.4, 72867.71, 0.022662902, 0.60131174, -1248070.6, 236501.22, 0.0, 10.002184, 9.999052 
2.8455502e+3, 1.5851852e+2, -1251215.5, -1462182.4, 70060.8, 0.017498974, 0.64568186, -1230068.5, 156510.73, 0.0, 10.001711, 9.998889 
2.845477e+3, 1.6851704e+2, -1195190.6, -1404158.0, 82140.125, 0.023807017, 0.65154785, -1166768.9, 121824.93, 0.0, 10.001517, 9.998703 
2.8454039e+3, 1.7851537e+2, -1110071.3, -1308384.5, 70966.86, 0.018825455, 0.64133054, -1087292.1, 103318.51, 0.0, 10.001412, 9.998738 
2.8453308e+3, 1.8851343e+2, -1012796.1, -1192847.9, 85720.234, 0.019291801, 0.5910956, -978513.44, 114115.43, 0.0, 10.001333, 9.998896 
2.8452578e+3, 1.9851151e+2, -928614.75, -1106759.4, 110351.4, 0.02697137, 0.53992164, -875872.75, 118773.87, 0.0, 10.001257, 9.998853 
2.8451854e+3, 2.0851068e+2, -866379.0, -1018483.2, 129992.73, 0.016105197, 0.5962671, -791825.5, 104830.055, 0.0, 10.000981, 9.998916 
2.8451136e+3, 2.1851012e+2, -813148.5, -941311.6, 112854.04, -0.0009627535, 0.6762695, -747451.5, 51210.75, 0.0, 10.0006695, 9.998924 
2.8450415e+3, 2.2850849e+2, -707690.75, -824611.1, 110361.48, 0.0016008264, 0.64078826, -641262.0, 59415.688, 0.0, 10.000656, 9.999058 
2.8449693e+3, 2.385066e+2, -606586.44, -727435.5, 132090.5, 0.012295355, 0.57635003, -521755.94, 80939.13, 0.0, 10.000686, 9.99904 
2.8448972e+3, 2.4850544e+2, -547423.4, -631679.2, 136040.03, -0.02801852, 0.5765369, -447137.6, 57568.91, 0.0, 10.000347, 9.9991865 
2.844825e+3, 2.5850457e+2, -527094.1, -581870.1, 128523.32, -0.08649009, 0.5992536, -423073.06, -16357.361, 0.0, 9.999861, 9.999092 
2.844753e+3, 2.6850364e+2, -484766.7, -513702.0, 119727.49, -0.0905672, 0.62712526, -378635.9, -69909.31, 0.0, 9.999489, 9.999068 
2.8446814e+3, 2.785027e+2, -419891.22, -413146.88, 129201.35, -0.04927595, 0.6538657, -287273.7, -76536.23, 0.0, 9.999178, 9.999238 
2.844609e+3, 2.885024e+2, -291684.13, -250404.2, 97227.99, -0.04664069, 0.69605005, -171649.55, -58909.04, 0.0, 9.999171, 9.999683 
2.8445354e+3, 2.985021e+2, -205116.08, -169962.77, 85281.59, -0.15313882, 0.7296223, -100465.38, -85722.89, 0.0, 9.999147, 9.999574 
2.8444618e+3, 3.084987e+2, -221322.13, -133198.38, 61453.48, -0.17519131, 0.45204502, -101642.93, -101642.93, 0.0, 9.99861, 9.999754 
2.8443888e+3, 3.1850088e+2, -153052.73, 3077.9382, -5076.0864, -0.090018734, 0.7249027, 3242.7966, 3242.7966, 0.0, 9.998636, 10.000671 
2.855774e+3, 1.285975e+2, -1511438.0, -1725392.3, 20618.748, 0.007120934, 0.6429327, -1509469.1, 170336.28, 0.0, 10.00188, 9.999021 
2.8557e+3, 1.3859561e+2, -1332498.0, -1590832.8, 25209.576, 0.042133603, 0.5808101, -1330060.9, 251763.31, 0.0, 10.002439, 9.999005 
2.8556252e+3, 1.4859448e+2, -1268895.9, -1501168.4, 51601.73, 0.0018069603, 0.5918519, -1257948.0, 225886.6, 0.0, 10.002172, 9.999072 
2.8555512e+3, 1.5859352e+2, -1256366.3, -1471234.6, 54864.91, 0.0016022923, 0.6207351, -1243167.8, 142675.55, 0.0, 10.001703, 9.998831 
2.8554782e+3, 1.6859193e+2, -1207738.0, -1431849.1, 78405.86, 0.033150483, 0.6299948, -1183031.3, 104828.63, 0.0, 10.001523, 9.99851 
2.8554052e+3, 1.7859022e+2, -1108209.6, -1304794.6, 68665.984, 0.051975712, 0.631445, -1086600.4, 103277.664, 0.0, 10.001412, 9.998764 
2.855332e+3, 1.8858905e+2, -985230.44, -1135770.4, 83802.875, 0.02367743, 0.6314539, -947857.2, 144031.28, 0.0, 10.00133, 9.9992895 
2.8552586e+3, 1.98588e+2, -923369.3, -1091961.8, 103895.56, -0.006291382, 0.6312549, -873874.1, 120023.234, 0.0, 10.00124, 9.998963 
2.8551862e+3, 2.0858617e+2, -895810.44, -1078984.6, 117371.33, 0.019422378, 0.6134735, -838521.0, 57394.97, 0.0, 10.000978, 9.998502 
2.8551146e+3, 2.1858424e+2, -824981.9, -963160.0, 105894.01, 0.04902359, 0.5940776, -767631.9, 30304.176, 0.0, 10.000657, 9.998781 
2.8550416e+3, 2.2858329e+2, -684461.1, -777536.56, 113168.305, 0.007944591, 0.60859334, -608635.3, 91309.734, 0.0, 10.00066, 9.99938 
2.8549692e+3, 2.3858258e+2, -595223.4, -708552.4, 127779.04, -0.043377183, 0.6319981, -512108.22, 89843.09, 0.0, 10.000704, 9.999162 
2.8548974e+3, 2.4858141e+2, -565699.7, -670072.44, 117422.48, -0.014324171, 0.6446492, -489389.13, 14573.984, 0.0, 10.000347, 9.998924 
2.8548256e+3, 2.5858012e+2, -532102.94, -592192.9, 111360.4, 0.018679466, 0.6488771, -446805.63, -40829.188, 0.0, 9.999859, 9.9990225 
2.8547525e+3, 2.6857862e+2, -466056.94, -473390.63, 107146.35, -0.06534801, 0.6047811, -362514.72, -54522.82, 0.0, 9.99948, 9.99935 
2.8546795e+3, 2.785773e+2, -415779.34, -404593.4, 122199.48, -0.1437762, 0.5660597, -287858.97, -77853.18, 0.0, 9.999176, 9.999298 
2.854608e+3, 2.8857782e+2, -317500.0, -304825.47, 98554.086, -0.054903865, 0.7198056, -212405.1, -100403.75, 0.0, 9.999173, 9.9993105 
2.8545353e+3, 2.985784e+2, -203512.4, -174079.8, 72940.74, -0.025455475, 0.86946684, -114385.61, -100389.04, 0.0, 9.99918, 9.999531 
2.8544602e+3, 3.0857295e+2, -191322.67, -69304.9, 33806.203, -0.18490098, 0.35214263, -60564.637, -60564.637, 0.0, 9.998603, 10.000196 
2.854387e+3, 3.1857637e+2, -217005.72, -141439.14, 82821.164, -0.1157218, 0.7332335, -88189.91, -88189.91, 0.0, 9.9986725, 9.999669 
2.8657755e+3, 1.2867221e+2, -1526094.1, -1716454.6, 45156.9, 0.015854133, 0.6181697, -1515925.4, 163147.67, 0.0, 10.001703, 9.99917 
2.8657016e+3, 1.3867095e+2, -1410879.8, -1615708.0, 30773.646, 0.037412982, 0.6057833, -1406356.1, 174729.77, 0.0, 10.001843, 9.999121 
2.8656268e+3, 1.4866985e+2, -1329967.3, -1527962.0, 37943.777, 0.004666266, 0.61549264, -1322944.8, 160151.3, 0.0, 10.001745, 9.999091 
2.865553e+3, 1.5866876e+2, -1266211.1, -1464011.1, 44580.027, 0.016534453, 0.6266501, -1256628.0, 128478.13, 0.0, 10.001586, 9.998935 
2.8654796e+3, 1.6866708e+2, -1207601.0, -1407217.6, 92290.164, 0.0387958, 0.6095916, -1171471.3, 115651.8, 0.0, 10.001419, 9.998729 
2.8654063e+3, 1.7866538e+2, -1121276.9, -1299114.5, 105483.6, 0.04870761, 0.59263843, -1072234.3, 116906.13, 0.0, 10.001268, 9.998874 
2.8653327e+3, 1.8866459e+2, -1013720.1, -1157345.8, 102725.44, 0.02694001, 0.6308739, -960195.0, 130953.016, 0.0, 10.001171, 9.999218 
2.8652596e+3, 1.9866389e+2, -945766.8, -1102430.5, 94827.555, 0.0039523067, 0.67491984, -901102.1, 92051.94, 0.0, 10.001088, 9.998961 
2.8651872e+3, 2.0866185e+2, -890908.8, -1067681.0, 124273.07, 0.028699623, 0.62897456, -826796.06, 68378.52, 0.0, 10.0009775, 9.998578 
2.865115e+3, 2.1865958e+2, -793778.75, -944728.94, 145774.61, 0.060292747, 0.5685862, -705099.25, 92098.266, 0.0, 10.000858, 9.99881 
2.865042e+3, 2.2865875e+2, -693106.06, -789421.4, 140741.3, 0.010385496, 0.60057366, -592511.3, 106694.37, 0.0, 10.000634, 9.9993105 
2.8649694e+3, 2.3865831e+2, -641896.3, -730433.75, 128129.71, -0.048226412, 0.6557785, -550603.44, 50606.637, 0.0, 10.000384, 9.999164 
2.8648975e+3, 2.4865715e+2, -566814.0, -661066.0, 127085.28, -0.011199654, 0.66304517, -478398.4, 24823.371, 0.0, 10.000301, 9.999007 
2.8648254e+3, 2.5865576e+2, -478194.9, -562966.9, 142331.64, 0.03343739, 0.65323824, -372072.1, 33163.57, 0.0, 10.000214, 9.999053 
2.8647518e+3, 2.6865426e+2, -404339.97, -448951.75, 120641.25, -0.052767284, 0.6111981, -303959.8, 3291.208, 0.0, 9.999928, 9.999301 
2.8646785e+3, 2.7865294e+2, -370648.78, -384227.22, 114481.16, -0.13163778, 0.5769576, -262755.7, -53490.92, 0.0, 9.9995, 9.999278 
2.8646067e+3, 2.8865325e+2, -347262.38, -318318.13, 115791.945, -0.060172558, 0.7083147, -216097.42, -104835.055, 0.0, 9.998969, 9.999315 
2.864534e+3, 2.9865357e+2, -288693.78, -216959.34, 119385.01, -0.04373458, 0.8352729, -128170.086, -114910.23, 0.0, 9.998602, 9.999518 
2.8644595e+3, 3.0864874e+2, -64149.07, -18018.744, 61112.258, -0.12082556, 0.38537696, 24236.148, 24236.148, 0.0, 9.999522, 10.000108 
2.8643858e+3, 3.1865162e+2, -76932.96, -129673.336, 99052.57, -0.12808971, 0.730292, -800.4724, -800.4724, 0.0, 9.999884, 9.999163 
2.875777e+3, 1.2874708e+2, -1520491.1, -1704255.4, 48054.324, 0.008019981, 0.5975324, -1508683.6, 169655.69, 0.0, 10.001707, 9.9992485 
2.875703e+3, 1.3874651e+2, -1415311.9, -1612965.9, 31727.729, 0.026503226, 0.65016603, -1410343.8, 170001.92, 0.0, 10.001793, 9.999164 
2.8756285e+3, 1.4874545e+2, -1333298.0, -1529414.3, 31805.838, 0.016423788, 0.6599444, -1328268.8, 154087.44, 0.0, 10.001719, 9.999095 
2.8755546e+3, 1.587442e+2, -1253022.0, -1435654.5, 38905.434, 0.050720748, 0.65251505, -1245079.5, 139288.58, 0.0, 10.001581, 9.999132 
2.8754807e+3, 1.6874254e+2, -1170587.8, -1330486.3, 85673.914, 0.042283464, 0.59219474, -1133353.9, 153029.19, 0.0, 10.001417, 9.999257 
2.875407e+3, 1.7874087e+2, -1111595.5, -1275981.4, 98438.375, 0.014754023, 0.5333644, -1065547.3, 122850.58, 0.0, 10.001256, 9.999039 
2.8753337e+3, 1.8874002e+2, -1046310.1, -1225301.9, 98996.01, 0.028159736, 0.5935268, -1002352.94, 88054.51, 0.0, 10.001172, 9.998751 
2.8752607e+3, 1.9873929e+2, -954299.56, -1118003.9, 91810.695, 0.04914206, 0.672436, -913151.8, 79264.39, 0.0, 10.001078, 9.998859 
2.875188e+3, 2.0873775e+2, -854343.8, -992498.4, 120319.44, 0.039868277, 0.64454705, -784682.4, 109748.85, 0.0, 10.0009775, 9.999097 
2.8751153e+3, 2.1873605e+2, -783355.5, -920221.06, 139224.34, 0.021749571, 0.5961877, -696654.56, 99792.78, 0.0, 10.000845, 9.998985 
2.875043e+3, 2.2873484e+2, -724689.75, -853844.25, 130984.65, 0.010256345, 0.61356395, -643228.7, 55231.316, 0.0, 10.00063, 9.998871 
2.8749698e+3, 2.3873375e+2, -649902.7, -746774.94, 121764.56, 0.0018802481, 0.64348024, -567294.3, 33177.305, 0.0, 10.000382, 9.999053 
2.8748974e+3, 2.4873264e+2, -537758.75, -602424.94, 125379.0, -0.023656428, 0.6301633, -440610.9, 61871.656, 0.0, 10.000306, 9.999408 
2.8748244e+3, 2.5873154e+2, -467182.8, -545458.75, 136217.08, -0.06330288, 0.6136707, -364592.63, 39900.523, 0.0, 10.000236, 9.999164 
2.8747517e+3, 2.687306e+2, -431173.0, -506141.56, 105777.56, -0.054560404, 0.6523478, -356434.44, -49930.887, 0.0, 9.999934, 9.998905 
2.874679e+3, 2.7872974e+2, -371731.7, -392633.13, 94511.09, -0.009394249, 0.6955832, -287095.25, -78581.555, 0.0, 9.999523, 9.99921 
2.8746054e+3, 2.8872854e+2, -317309.1, -254905.56, 96855.55, -0.06764551, 0.64896446, -184350.03, -73825.7, 0.0, 9.9989605, 9.999756 
2.8745306e+3, 2.9872745e+2, -293680.7, -216754.3, 128037.984, -0.22517055, 0.5954316, -121527.016, -108993.07, 0.0, 9.99856, 9.999539 
2.8744602e+3, 3.0872682e+2, -112456.21, -127410.21, 113383.6, 0.020212382, 0.6177661, -6303.3447, -6303.3447, 0.0, 9.999567, 9.999332 
2.874385e+3, 3.1872633e+2, -52705.1, -81658.75, -1760.6226, -0.1761134, 0.6822409, -52598.434, -52598.434, 0.0, 9.9999, 9.999481 
2.8857785e+3, 1.2882228e+2, -1522006.0, -1684407.9, 34462.926, 0.05318061, 0.62417513, -1514995.4, 162607.52, 0.0, 10.0016, 9.99944 
2.885704e+3, 1.3882165e+2, -1510411.0, -1637130.8, 28805.81, 0.017898483, 0.6479982, -1504170.3, 75439.52, 0.0, 10.001045, 9.999358 
2.8856295e+3, 1.4882061e+2, -1412390.9, -1550125.0, 45798.816, 0.0068634567, 0.6434719, -1398552.4, 83067.45, 0.0, 10.001102, 9.999249 
2.8855556e+3, 1.5881944e+2, -1284051.1, -1435817.0, 56809.324, 0.053387787, 0.63028777, -1265142.1, 118488.68, 0.0, 10.001305, 9.999265 
2.8854817e+3, 1.6881819e+2, -1186600.5, -1328021.0, 77955.57, 0.04463214, 0.6030895, -1152063.4, 133578.34, 0.0, 10.001264, 9.999348 
2.885408e+3, 1.7881694e+2, -1118347.5, -1266655.9, 68020.58, 0.011874645, 0.57492673, -1091875.5, 95777.19, 0.0, 10.001156, 9.999148 
2.8853348e+3, 1.8881577e+2, -1055672.1, -1216095.6, 94068.695, 0.02848076, 0.5911313, -1012260.06, 77404.88, 0.0, 10.00105, 9.998871 
2.8852618e+3, 1.9881466e+2, -964753.56, -1112091.0, 122084.86, 0.059491538, 0.62051934, -895832.7, 95844.4, 0.0, 10.0009575, 9.99896 
2.8851888e+3, 2.0881358e+2, -859969.1, -986120.2, 133495.36, 0.037518777, 0.6306894, -775398.0, 118289.94, 0.0, 10.0009, 9.999178 
2.8851157e+3, 2.1881248e+2, -780140.8, -912776.7, 124252.195, 0.004259318, 0.63513166, -705616.0, 90082.65, 0.0, 10.000843, 9.999037 
2.885043e+3, 2.2881106e+2, -719198.7, -852189.75, 129859.836, 0.013714065, 0.62917006, -639799.6, 57914.004, 0.0, 10.000673, 9.99886 
2.8849706e+3, 2.3880959e+2, -635851.1, -735364.44, 149690.78, 0.033398964, 0.62261903, -527864.1, 71864.79, 0.0, 10.000459, 9.999094 
2.8848976e+3, 2.4880873e+2, -549258.1, -596292.44, 141039.44, -0.017252441, 0.62681615, -429788.66, 71949.055, 0.0, 10.00018, 9.99951 
2.884824e+3, 2.5880805e+2, -510363.5, -554035.9, 134262.69, -0.085317664, 0.6394371, -396172.9, 7571.8853, 0.0, 9.999894, 9.999264 
2.8847513e+3, 2.688072e+2, -453137.28, -512360.0, 122307.06, -0.060369283, 0.679466, -356908.06, -51153.914, 0.0, 9.999771, 9.998937 
2.8846785e+3, 2.788062e+2, -373008.16, -394603.03, 132246.89, 0.010344608, 0.7137462, -251118.66, -43353.957, 0.0, 9.999522, 9.999195 
2.8846043e+3, 2.888046e+2, -269629.28, -263210.03, 108650.17, -0.06537631, 0.6392598, -157722.08, -47942.594, 0.0, 9.999428, 9.999471 
2.884529e+3, 2.98803e+2, -164885.25, -191165.47, 103404.61, -0.24470949, 0.5688135, -73789.21, -61995.668, 0.0, 9.999606, 9.999211 
2.88446e+3, 3.0880314e+2, -115182.59, -191880.72, 116718.68, 0.045964647, 0.7105204, -30674.414, -30674.414, 0.0, 9.999832, 9.99877 
2.8843844e+3, 3.1880096e+2, 48310.133, -28579.576, -52851.777, -0.22981165, 0.65726656, 75220.59, 75220.59, 0.0, 10.000569, 9.99954 
2.8957808e+3, 1.2889777e+2, -1512537.8, -1649038.4, 12283.539, 0.12964322, 0.6793568, -1511441.1, 165423.19, 0.0, 10.001542, 9.999706 
2.8957048e+3, 1.388965e+2, -1489359.8, -1596059.8, 18316.822, 0.007931835, 0.61290073, -1486303.0, 92573.29, 0.0, 10.001058, 9.999634 
2.89563e+3, 1.4889549e+2, -1392371.5, -1512023.6, 52966.563, -0.018628182, 0.5847469, -1372293.8, 108591.52, 0.0, 10.001116, 9.999505 
2.8955564e+3, 1.5889458e+2, -1281774.4, -1427685.9, 59278.477, 0.031384908, 0.5740438, -1260727.6, 122165.95, 0.0, 10.001288, 9.999329 
2.8954828e+3, 1.6889404e+2, -1206222.0, -1366949.3, 73790.805, 0.042579878, 0.634533, -1177483.0, 107416.31, 0.0, 10.001255, 9.999085 
2.895409e+3, 1.7889349e+2, -1115304.1, -1258597.0, 64633.63, 0.028096708, 0.6967906, -1090458.5, 96446.914, 0.0, 10.001147, 9.9992075 
2.8953356e+3, 1.8889181e+2, -1012958.1, -1127170.4, 90606.0, 0.025914446, 0.61785895, -962963.6, 125956.96, 0.0, 10.001046, 9.999485 
2.8952622e+3, 1.9889002e+2, -949523.75, -1076223.8, 118267.93, 0.03216534, 0.5235989, -878707.75, 112228.96, 0.0, 10.000939, 9.999214 
2.8951892e+3, 2.0888935e+2, -882862.44, -1032869.9, 131375.3, 0.023012413, 0.58976567, -806588.2, 86356.61, 0.0, 10.000896, 9.998859 
2.8951162e+3, 2.1888885e+2, -785697.25, -921870.8, 120475.57, 0.006606142, 0.6818739, -715399.9, 79551.72, 0.0, 10.000832, 9.9989805 
2.8950435e+3, 2.2888741e+2, -692064.25, -795370.6, 122734.34, 0.016125249, 0.64865196, -610556.75, 86409.59, 0.0, 10.0006695, 9.999253 
2.8949708e+3, 2.3888585e+2, -623853.75, -710810.7, 139819.56, 0.03103749, 0.5956727, -520908.6, 78073.336, 0.0, 10.00046, 9.999263 
2.8948978e+3, 2.4888542e+2, -564556.1, -626434.44, 129185.06, 0.009621336, 0.65415776, -462657.0, 38330.32, 0.0, 10.0001745, 9.999306 
2.894824e+3, 2.5888523e+2, -502144.0, -538698.5, 127406.59, -0.030492157, 0.731171, -391710.38, 11280.424, 0.0, 9.999902, 9.999365 
2.8947505e+3, 2.6888394e+2, -419440.25, -442694.03, 115801.625, -0.07482454, 0.6885613, -314683.28, -9680.256, 0.0, 9.999769, 9.999415 
2.8946766e+3, 2.7888232e+2, -370400.0, -393222.56, 120184.62, -0.08832218, 0.6203004, -261086.14, -54068.05, 0.0, 9.999536, 9.999199 
2.8946036e+3, 2.8888148e+2, -348940.9, -425700.13, 115979.51, -0.052182794, 0.6904973, -265155.72, -156128.56, 0.0, 9.999427, 9.998349 
2.8945297e+3, 2.9888046e+2, -206737.77, -286389.03, 109528.305, -0.09824788, 0.78254306, -130019.28, -118981.83, 0.0, 9.999645, 9.998535 
2.8944582e+3, 3.088765e+2, -136361.69, -229548.89, 118118.05, -0.05930207, 0.5488654, -55979.55, -55979.55, 0.0, 9.999812, 9.99852 
2.894385e+3, 3.188757e+2, 17022.068, -107067.42, 78628.27, -0.21960264, 0.6765814, 55136.973, 55136.973, 0.0, 10.000616, 9.998988 
2.905782e+3, 1.2897268e+2, -1601956.4, -1698252.0, 30166.916, 0.12728184, 0.6428082, -1593286.5, 82843.42, 0.0, 10.000945, 9.9996605 
2.905706e+3, 1.3897198e+2, -1475523.3, -1587620.6, 19861.586, 0.02124995, 0.6362196, -1472108.3, 106029.02, 0.0, 10.001143, 9.999652 
2.905631e+3, 1.4897108e+2, -1396021.4, -1504009.6, 44343.594, -0.010391551, 0.6119138, -1380146.1, 99999.24, 0.0, 10.001048, 9.999592 
2.9055575e+3, 1.5897015e+2, -1332437.4, -1439001.3, 42213.473, 0.03045421, 0.5894287, -1317741.8, 64411.95, 0.0, 10.000883, 9.999446 
2.9054835e+3, 1.6896959e+2, -1243091.1, -1364865.5, 77034.555, 0.04418106, 0.6307308, -1205786.8, 78372.77, 0.0, 10.0009165, 9.999263 
2.90541e+3, 1.7896907e+2, -1130577.0, -1251641.4, 90598.836, 0.036329795, 0.6801032, -1082149.1, 104016.03, 0.0, 10.000979, 9.999338 
2.905336e+3, 1.8896778e+2, -1035762.06, -1132692.9, 87445.3, 0.020497035, 0.6324128, -984249.56, 103927.41, 0.0, 10.000864, 9.999536 
2.9052624e+3, 1.9896634e+2, -975875.94, -1080014.5, 83750.99, 0.010241269, 0.56887937, -929327.56, 60862.355, 0.0, 10.000717, 9.999296 
2.9051894e+3, 2.0896548e+2, -903122.75, -1026843.44, 117034.38, 0.014414642, 0.60372627, -832605.8, 59593.875, 0.0, 10.000689, 9.999001 
2.905117e+3, 2.1896479e+2, -796635.3, -908655.7, 133213.25, 0.017839592, 0.66047156, -708136.3, 86071.97, 0.0, 10.000675, 9.999147 
2.9050437e+3, 2.2896379e+2, -702720.4, -774066.25, 127193.12, 0.013240815, 0.65314984, -606292.44, 89926.15, 0.0, 10.000482, 9.99949 
2.9049706e+3, 2.3896278e+2, -646243.5, -706485.56, 135721.11, 0.015456191, 0.634749, -537341.2, 60887.62, 0.0, 10.000244, 9.999395 
2.9048973e+3, 2.4896225e+2, -568722.3, -623327.3, 135700.33, 0.016425816, 0.67596895, -457605.13, 42630.28, 0.0, 10.000125, 9.999351 
2.9048243e+3, 2.589619e+2, -484710.8, -508152.78, 149316.5, 0.00048747833, 0.7282359, -346655.97, 55584.574, 0.0, 9.999926, 9.999562 
2.90475e+3, 2.6896098e+2, -431093.9, -395075.22, 130907.32, -0.06599735, 0.68533707, -280944.25, 23304.617, 0.0, 9.999461, 9.999888 
2.904676e+3, 2.7895987e+2, -409840.13, -367318.75, 145550.38, -0.096169844, 0.62125015, -241484.48, -35225.758, 0.0, 9.999084, 9.999588 
2.904602e+3, 2.8895947e+2, -477159.03, -419047.06, 202433.47, -0.056118075, 0.6967387, -243594.95, -135331.78, 0.0, 9.998256, 9.99896 
2.9157817e+3, 1.2904727e+2, -1624585.6, -1735779.5, 34000.66, 0.06341905, 0.54683894, -1615013.1, 60384.7, 0.0, 10.000912, 9.999415 
2.915707e+3, 1.39048e+2, -1489984.3, -1613587.1, 23281.29, 0.049456205, 0.70472026, -1485744.5, 91649.38, 0.0, 10.001127, 9.99948 
2.915632e+3, 1.4904721e+2, -1401007.9, -1512669.6, 37862.36, 0.020761333, 0.70229816, -1389380.4, 90021.18, 0.0, 10.001039, 9.999538 
2.9155582e+3, 1.5904605e+2, -1322969.5, -1415697.3, 40212.316, 0.04178727, 0.65975946, -1307960.4, 73451.69, 0.0, 10.000867, 9.999614 
2.9154843e+3, 1.690449e+2, -1207046.6, -1287589.4, 80514.805, 0.04863512, 0.5977807, -1157293.5, 126128.27, 0.0, 10.000904, 9.9998 
2.9154107e+3, 1.7904387e+2, -1123049.8, -1231486.0, 88829.29, 0.03543343, 0.5491842, -1073199.4, 112231.03, 0.0, 10.00096, 9.999486 
2.9153365e+3, 1.8904367e+2, -1068414.9, -1198949.0, 81120.836, 0.010431464, 0.6386796, -1029564.8, 57869.234, 0.0, 10.000856, 9.999084 
2.9152626e+3, 1.990435e+2, -981946.2, -1090176.3, 80992.13, -0.009909135, 0.7398721, -938654.0, 50783.668, 0.0, 10.000706, 9.999232 
2.91519e+3, 2.0904195e+2, -864498.25, -945580.06, 117307.66, 0.008219536, 0.6670754, -780923.7, 110529.1, 0.0, 10.000682, 9.999562 
2.9151174e+3, 2.1904027e+2, -773751.9, -856852.5, 129244.66, 0.026987718, 0.5732536, -679542.8, 113925.72, 0.0, 10.000657, 9.999513 
2.9150438e+3, 2.2904022e+2, -696709.06, -760886.8, 117867.39, 0.005449857, 0.64383775, -606640.56, 88829.695, 0.0, 10.000479, 9.999583 
2.9149702e+3, 2.3904042e+2, -637876.56, -690627.5, 128903.336, -0.015932385, 0.73770714, -532677.94, 64791.86, 0.0, 10.00025, 9.9995 
2.9148972e+3, 2.4903923e+2, -549544.8, -581780.75, 131873.77, -0.0026661658, 0.6910204, -432807.7, 66674.2, 0.0, 10.000118, 9.999637 
2.9148236e+3, 2.5903797e+2, -463744.88, -470912.75, 135188.44, -0.0053624716, 0.62551147, -332092.88, 69401.61, 0.0, 9.9999485, 9.999809 
2.9147494e+3, 2.6903823e+2, -401313.6, -336529.56, 109976.15, -0.03519846, 0.671527, -254274.31, 49217.63, 0.0, 9.999469, 10.000291 
2.9146752e+3, 2.7903885e+2, -358551.6, -256885.52, 141852.34, -0.026536077, 0.73079664, -157033.17, 48453.086, 0.0, 9.999077, 10.000349 
2.9145995e+3, 2.8903857e+2, -308422.9, -64346.195, 134812.39, -0.078963354, 0.6475387, -4539.177, 102948.586, 0.0, 9.998254, 10.001393 
2.9257816e+3, 1.2912251e+2, -1649835.6, -1709611.4, 6072.087, 0.024743076, 0.5803166, -1649225.1, 25437.168, 0.0, 10.000572, 9.999758 
2.9257077e+3, 1.3912325e+2, -1519217.1, -1604035.6, 20420.887, 0.05647635, 0.70895827, -1514556.6, 62100.48, 0.0, 10.000822, 9.999695 
2.925633e+3, 1.4912263e+2, -1443288.4, -1523926.9, 36544.813, 0.03026861, 0.71000594, -1429191.0, 49472.344, 0.0, 10.000709, 9.99962 
2.9255587e+3, 1.5912166e+2, -1369383.8, -1429728.4, 48923.387, 0.04649083, 0.67816454, -1342076.8, 38595.816, 0.0, 10.000509, 9.999692 
2.9254845e+3, 1.6912058e+2, -1259068.9, -1303774.0, 70867.88, 0.042631228, 0.6169748, -1207112.0, 75569.63, 0.0, 10.0005045, 9.999883 
2.925411e+3, 1.7911959e+2, -1177145.9, -1245789.8, 52803.855, 0.021223225, 0.56351364, -1148489.8, 36200.1, 0.0, 10.000531, 9.999597 
2.925337e+3, 1.891194e+2, -1098782.9, -1195662.9, 71491.664, 0.0077435616, 0.63955283, -1060866.1, 25826.852, 0.0, 10.000569, 9.999247 
2.925263e+3, 1.9911933e+2, -987719.0, -1075932.5, 108826.69, 0.0016965335, 0.7325658, -914400.6, 74294.945, 0.0, 10.000591, 9.999386 
2.9251903e+3, 2.0911808e+2, -896123.56, -945031.75, 125902.11, 0.01073742, 0.6783624, -792322.6, 98385.016, 0.0, 10.000395, 9.999705 
2.9251173e+3, 2.1911675e+2, -836909.0, -872534.5, 111515.51, 0.020401318, 0.60293216, -741792.56, 50927.824, 0.0, 10.000156, 9.999646 
2.9250437e+3, 2.2911668e+2, -753027.5, -769950.2, 95924.71, 0.0007477891, 0.6581741, -665191.7, 29530.443, 0.0, 10.000011, 9.999747 
2.92497e+3, 2.3911688e+2, -676463.6, -690541.4, 115202.95, -0.017934596, 0.7348594, -568084.7, 28636.924, 0.0, 9.9999, 9.999674 
2.924897e+3, 2.4911593e+2, -555269.94, -552207.44, 121790.93, -0.0032269086, 0.6891469, -431938.13, 66792.97, 0.0, 9.999934, 9.999931 
2.9248235e+3, 2.5911498e+2, -459260.2, -443620.84, 116461.67, 0.00088137214, 0.6279197, -334716.63, 66023.625, 0.0, 9.999863, 10.000043 
2.9247487e+3, 2.6911563e+2, -413333.66, -306349.66, 74711.41, -0.014034419, 0.68301505, -267954.8, 34779.383, 0.0, 9.999225, 10.000618 
2.9246742e+3, 2.791166e+2, -402105.7, -232889.95, 117859.35, 0.015463466, 0.74424267, -172414.0, 32310.781, 0.0, 9.998564, 10.000776 
2.9245982e+3, 2.891165e+2, -105148.83, 99193.945, 3674.0537, -0.08061162, 0.62423825, 99259.98, 205984.5, 0.0, 9.999351, 10.002006 
2.9357818e+3, 1.2919818e+2, -1598775.9, -1597638.0, 20227.494, 0.002163201, 0.7032797, -1577971.5, 95953.28, 0.0, 10.000552, 10.000533 
2.9357082e+3, 1.391979e+2, -1492049.3, -1535310.4, 25035.594, 0.04411764, 0.6612442, -1480594.1, 95331.32, 0.0, 10.00077, 10.000191 
2.935633e+3, 1.4919747e+2, -1433920.3, -1499228.8, 28143.576, 0.021071436, 0.6528916, -1423465.8, 54464.004, 0.0, 10.000686, 9.999802 
2.9355586e+3, 1.5919699e+2, -1371208.1, -1433383.1, 44275.62, 0.041979376, 0.6550743, -1348196.1, 31738.982, 0.0, 10.000509, 9.999667 
2.9354846e+3, 1.6919653e+2, -1280104.4, -1348235.4, 72901.4, 0.024658835, 0.6784242, -1233702.0, 48237.91, 0.0, 10.000508, 9.999576 
2.935411e+3, 1.7919606e+2, -1170630.8, -1231123.6, 54942.48, -0.005687674, 0.6992457, -1138159.4, 45785.316, 0.0, 10.000526, 9.9997 
2.935337e+3, 1.8919498e+2, -1049299.3, -1092525.4, 73164.65, 0.009611091, 0.6320708, -994622.1, 91331.69, 0.0, 10.000566, 9.999956 
2.9352638e+3, 1.9919392e+2, -967196.6, -1029497.56, 105119.86, 0.03350808, 0.562719, -888708.9, 99253.83, 0.0, 10.000575, 9.999712 
2.9351905e+3, 2.0919394e+2, -913175.3, -979567.25, 115681.945, 0.02061329, 0.64350706, -826020.6, 63943.473, 0.0, 10.000391, 9.99947 
2.9351172e+3, 2.1919414e+2, -843233.4, -883573.7, 104360.33, -0.0017133176, 0.74231076, -757111.9, 34852.47, 0.0, 10.000148, 9.999575 
2.9350436e+3, 2.2919318e+2, -739810.6, -739037.06, 90804.51, -0.00451359, 0.6950099, -648618.5, 45355.625, 0.0, 9.999997, 9.999966 
2.93497e+3, 2.3919216e+2, -659558.1, -656722.44, 113571.14, 0.002417587, 0.6268632, -544560.25, 51424.117, 0.0, 9.999903, 9.999906 
2.9348966e+3, 2.491924e+2, -531519.44, -507548.13, 123914.09, 0.014989202, 0.67372596, -395041.38, 102941.49, 0.0, 9.99995, 10.000234 
2.9348233e+3, 2.591931e+2, -436264.47, -402096.97, 103205.44, 0.008967229, 0.7457872, -314570.9, 85406.086, 0.0, 9.99989, 10.000313 
2.934748e+3, 2.6919317e+2, -395843.2, -270585.84, 45592.16, -0.009274903, 0.7205753, -255748.42, 46226.777, 0.0, 9.99923, 10.000856 
2.9346722e+3, 2.7919295e+2, -388917.4, -231346.77, 107572.4, 0.006245538, 0.64795506, -176794.36, 27181.87, 0.0, 9.998662, 10.000747 
2.934597e+3, 2.891938e+2, -163720.28, -38537.367, 56080.473, -0.08521572, 0.6838307, -17088.893, 88880.06, 0.0, 9.9994135, 10.001031 
2.9457825e+3, 1.292733e+2, -1632263.1, -1617216.9, 48639.61, 0.052305095, 0.7116097, -1575522.0, 97668.23, 0.0, 10.000326, 10.000516 
2.945708e+3, 1.3927288e+2, -1596051.1, -1574142.0, 17386.94, 0.032592986, 0.65390575, -1564546.4, 10645.862, 0.0, 10.000007, 10.000292 
2.9456332e+3, 1.4927265e+2, -1492702.9, -1511843.3, 12745.267, 0.015185758, 0.65055937, -1486334.6, -9140.091, 0.0, 10.000213, 9.999945 
2.945559e+3, 1.5927236e+2, -1370693.5, -1420342.9, 26606.586, 0.05293262, 0.66200775, -1359129.0, 20068.662, 0.0, 10.000455, 9.9997835 
2.945485e+3, 1.6927232e+2, -1275586.6, -1328066.5, 78834.81, 0.04710333, 0.71209526, -1218739.5, 62459.125, 0.0, 10.000459, 9.999741 
2.9454112e+3, 1.7927222e+2, -1189015.0, -1231203.5, 85419.46, 0.017361753, 0.7557817, -1122123.8, 61076.27, 0.0, 10.0003605, 9.999781 
2.9453373e+3, 1.8927091e+2, -1087620.4, -1115371.3, 67664.83, 0.008571322, 0.6672488, -1032423.0, 52788.406, 0.0, 10.000315, 9.999924 
2.9452637e+3, 1.992696e+2, -1000044.56, -1036597.0, 55823.848, 0.012226779, 0.56969786, -959581.4, 27641.537, 0.0, 10.000302, 9.9998 
2.9451904e+3, 2.0926979e+2, -910044.4, -956457.4, 78979.01, 0.0084171705, 0.6506454, -850933.06, 38289.254, 0.0, 10.000312, 9.999671 
2.945117e+3, 2.1927027e+2, -802094.6, -844661.44, 95620.375, -0.0015323119, 0.7601483, -725417.6, 65801.81, 0.0, 10.0003395, 9.999754 
2.945043e+3, 2.2926956e+2, -710838.94, -701821.8, 83209.43, 0.0010057107, 0.71680874, -622998.9, 70227.59, 0.0, 10.000087, 10.000181 
2.9449695e+3, 2.3926866e+2, -677728.2, -651071.8, 109767.54, 0.015370834, 0.6419364, -553826.25, 41408.887, 0.0, 9.999711, 10.000038 
2.9448962e+3, 2.4926892e+2, -589041.44, -529603.9, 109900.1, 0.018348878, 0.6822311, -445475.22, 51758.383, 0.0, 9.999526, 10.000289 
2.9448226e+3, 2.5926974e+2, -492508.28, -413571.7, 67217.23, 0.0013203818, 0.7599527, -375091.9, 24134.555, 0.0, 9.999436, 10.000456 
2.944747e+3, 2.6927e+2, -316377.5, -222338.42, -62.130196, -0.020724619, 0.7340618, -222338.39, 78884.89, 0.0, 9.999723, 10.000959 
2.9446715e+3, 2.792694e+2, -215869.39, -167608.81, 54041.1, -0.00876014, 0.6271734, -132555.39, 70672.34, 0.0, 9.999935, 10.000564 
2.9445967e+3, 2.8927088e+2, -212891.1, -97007.62, 35614.73, -0.037018307, 0.7609385, -86937.195, 18278.0, 0.0, 9.999212, 10.000717 
2.9557833e+3, 1.2934798e+2, -1674943.4, -1699654.1, 31583.256, 0.14463133, 0.64122576, -1653384.8, 19073.375, 0.0, 10.000306, 9.999957 
2.955708e+3, 1.3934815e+2, -1607548.9, -1602360.1, 17364.004, 0.018596344, 0.6848294, -1587397.8, -12940.214, 0.0, 10.000028, 10.000088 
2.955633e+3, 1.4934807e+2, -1485181.6, -1497003.3, 23873.525, 0.012294861, 0.6970413, -1466498.0, 9959.914, 0.0, 10.000215, 10.000046 
2.9555592e+3, 1.5934779e+2, -1358443.4, -1386976.5, 31866.723, 0.07793791, 0.69940275, -1337795.4, 40664.516, 0.0, 10.000421, 10.0000305 
2.955486e+3, 1.6934799e+2, -1238079.6, -1245497.1, 75642.35, 0.10184411, 0.7233698, -1166055.1, 114402.375, 0.0, 10.000438, 10.000319 
2.955412e+3, 1.7934811e+2, -1189314.5, -1229387.5, 77884.46, 0.076840885, 0.74462175, -1128930.5, 53525.38, 0.0, 10.00035, 9.999798 
2.9553375e+3, 1.893472e+2, -1135343.1, -1214527.5, 65814.055, 0.003772181, 0.74345183, -1098130.1, -13664.0625, 0.0, 10.000316, 9.999243 
2.9552633e+3, 1.9934627e+2, -1008248.2, -1052131.8, 56839.906, -0.055195592, 0.74062335, -969262.0, 17214.377, 0.0, 10.000296, 9.999697 
2.9551902e+3, 2.0934562e+2, -869907.06, -871151.5, 78967.875, -0.026305964, 0.6975348, -791558.94, 96923.11, 0.0, 10.000301, 10.000262 
2.9551172e+3, 2.1934521e+2, -776343.8, -785347.1, 92421.15, 0.009644817, 0.66240937, -688314.75, 102170.53, 0.0, 10.000314, 10.000174 
2.9550433e+3, 2.2934587e+2, -696277.5, -669197.1, 69775.16, 0.016102891, 0.72676116, -611660.5, 80818.445, 0.0, 10.000077, 10.00041 
2.954969e+3, 2.3934644e+2, -672085.9, -641037.4, 97651.16, 0.018718356, 0.7821338, -557684.2, 36789.336, 0.0, 9.999717, 10.000105 
2.9548955e+3, 2.4934553e+2, -601206.4, -554101.2, 104227.766, 0.0019556726, 0.7129326, -470798.03, 25685.227, 0.0, 9.999521, 10.000124 
2.9548213e+3, 2.5934497e+2, -490484.1, -411256.9, 70048.555, -0.030212857, 0.66462743, -370396.66, 28092.541, 0.0, 9.999443, 10.000469 
2.9547462e+3, 2.6934612e+2, -309656.72, -217212.92, 21427.29, -0.054831896, 0.7254267, -212487.86, 87989.92, 0.0, 9.999761, 10.000977 
2.9546708e+3, 2.7934623e+2, -222084.66, -204764.84, 40021.016, -0.052067388, 0.6971819, -172477.52, 29999.057, 0.0, 10.00003, 10.000267 
2.9545966e+3, 2.8934664e+2, -193525.88, -63661.297, 8047.8447, 0.030903937, 0.748612, -63164.465, 41309.32, 0.0, 9.999237, 10.0009365 
2.9657838e+3, 1.2942412e+2, -1657205.8, -1722582.0, 19722.668, 0.15662004, 0.71461695, -1651716.8, 19996.541, 0.0, 10.000567, 9.999672 
2.9657078e+3, 1.3942397e+2, -1566319.0, -1615109.8, 19734.611, 0.04000664, 0.76252383, -1559336.3, 14381.12, 0.0, 10.000447, 9.999803 
2.965633e+3, 1.4942345e+2, -1487006.6, -1496492.0, 19903.758, 0.011431746, 0.73792034, -1471288.3, 4433.4766, 0.0, 10.000195, 10.000062 
2.965559e+3, 1.5942289e+2, -1438061.0, -1421922.8, 29085.168, 0.061610576, 0.70368487, -1399808.1, -22082.158, 0.0, 9.999854, 10.000067 
2.9654855e+3, 1.6942255e+2, -1314082.1, -1298275.8, 39487.355, 0.05715878, 0.68425655, -1265908.5, 13819.98, 0.0, 9.999979, 10.000181 
2.9654112e+3, 1.7942233e+2, -1209546.0, -1239618.1, 3804.6816, 0.02837576, 0.681553, -1209072.1, -27342.143, 0.0, 10.000204, 9.999804 
2.9653373e+3, 1.894222e+2, -1094748.9, -1170997.8, 35306.297, -0.004860043, 0.7427791, -1080911.8, 2820.9585, 0.0, 10.000484, 9.999463 
2.9652637e+3, 1.9942199e+2, -952219.0, -1015595.25, 64416.734, -0.031220263, 0.79568803, -912118.2, 73618.21, 0.0, 10.000636, 9.999784 
2.96519e+3, 2.0942113e+2, -898620.94, -867062.5, 58177.785, -0.010308896, 0.7171418, -822562.06, 65181.305, 0.0, 10.000026, 10.000424 
2.9651168e+3, 2.1942046e+2, -885800.1, -821975.25, 59719.773, 0.020374458, 0.638861, -786176.1, 3572.0115, 0.0, 9.99949, 10.00032 
2.9650432e+3, 2.2942135e+2, -703887.4, -672325.44, 28840.047, 0.02350807, 0.7192377, -655231.06, 36508.57, 0.0, 10.000014, 10.000423 
2.964969e+3, 2.3942229e+2, -546482.6, -567474.7, 33991.74, 0.018886345, 0.8024629, -521403.34, 72327.586, 0.0, 10.000512, 10.000235 
2.9648948e+3, 2.494213e+2, -529456.0, -515484.78, 43915.56, -0.000922698, 0.7180854, -478002.72, 17738.342, 0.0, 9.999984, 10.0001745 
2.9648206e+3, 2.5942054e+2, -490340.8, -409245.56, 36588.38, -0.027274651, 0.6438945, -395178.0, 2570.9878, 0.0, 9.999427, 10.000497 
2.9647455e+3, 2.6942194e+2, -330088.47, -236518.84, 1020.87506, -0.054620173, 0.7330002, -236507.7, 63227.9, 0.0, 9.999663, 10.000893 
2.96467e+3, 2.7942234e+2, -234161.22, -207684.16, 2125.3018, -0.060436636, 0.7380373, -207514.66, -5782.5127, 0.0, 9.999946, 10.000294 
2.9645956e+3, 2.8942215e+2, -116173.9, -266.95752, -26679.627, 0.047710866, 0.72832507, 5579.3154, 109313.016, 0.0, 9.999692, 10.001155 
2.9757836e+3, 1.2950124e+2, -1707358.3, -1767870.6, -69.32829, 0.1216686, 0.8862612, -1707358.1, -36398.246, 0.0, 10.000319, 9.999478 
2.9757085e+3, 1.3949999e+2, -1592150.5, -1664369.1, 11218.145, 0.08140408, 0.85774887, -1590448.1, -17472.652, 0.0, 10.000431, 9.999471 
2.9756328e+3, 1.4949854e+2, -1464805.0, -1488571.3, 2245.1868, 0.0037207878, 0.75380284, -1464594.8, 10393.54, 0.0, 10.00036, 10.000036 
2.975558e+3, 1.5949744e+2, -1412202.3, -1425702.3, 20678.297, -0.0008815557, 0.66226524, -1397200.1, -20202.924, 0.0, 10.000104, 9.999919 
2.9754835e+3, 1.6949606e+2, -1341106.3, -1392262.4, 48750.73, -0.0760514, 0.59545416, -1311631.0, -32620.582, 0.0, 10.000144, 9.999455 
2.97541e+3, 1.7949513e+2, -1196511.3, -1233176.6, 15361.75, -0.11100332, 0.5758226, -1190925.9, -9906.297, 0.0, 10.000293, 9.9998045 
2.9753375e+3, 1.8949606e+2, -1020792.9, -1024396.7, 45365.086, -0.02059124, 0.66894263, -977193.94, 105816.32, 0.0, 10.000515, 10.000455 
2.9752648e+3, 1.9949667e+2, -938281.25, -982785.7, 53447.15, 0.062480144, 0.7358277, -902639.06, 82364.44, 0.0, 10.00062, 10.000017 
2.9751903e+3, 2.0949624e+2, -912576.8, -895906.75, 28940.8, 0.051369656, 0.70697606, -874124.6, 12882.029, 0.0, 10.000026, 10.000226 
2.975116e+3, 2.1949597e+2, -894190.9, -837974.4, 59975.508, 0.033058524, 0.683974, -799847.2, -10839.003, 0.0, 9.999483, 10.000215 
2.9750428e+3, 2.2949603e+2, -716023.0, -698611.1, 55986.742, 0.021500528, 0.69678783, -650657.5, 40350.285, 0.0, 10.000016, 10.000243 
2.9749689e+3, 2.3949625e+2, -535147.56, -543056.8, 32792.508, 0.006527808, 0.71122426, -506072.1, 86934.17, 0.0, 10.000508, 10.000403 
2.9748946e+3, 2.494963e+2, -511629.47, -480275.56, 18879.871, 0.008331118, 0.70448905, -471412.4, 23593.9, 0.0, 9.999992, 10.000411 
2.97482e+3, 2.5949648e+2, -483911.16, -400130.78, 27849.621, 0.007599, 0.7088335, -391717.97, 5286.979, 0.0, 9.999444, 10.000551 
2.974745e+3, 2.694974e+2, -338473.84, -257550.13, 17037.836, -0.023083812, 0.7556066, -254109.25, 44887.664, 0.0, 9.999676, 10.000745 
2.9746702e+3, 2.7949777e+2, -202141.77, -146610.13, -361.30362, -0.049402725, 0.75211525, -146607.78, 54386.254, 0.0, 9.999985, 10.000691 
2.9745948e+3, 2.8949773e+2, -106796.32, 10656.534, -26563.346, 0.024381898, 0.7108869, 16384.777, 119376.43, 0.0, 9.999758, 10.001186 
2.9857826e+3, 1.2957284e+2, -1760775.1, -1763344.8, -24237.018, 0.06693181, 0.60385936, -1737788.9, -67526.555, 0.0, 9.999805, 9.999773 
2.985707e+3, 1.3957256e+2, -1634840.6, -1632636.1, 19139.568, -0.037790105, 0.62682617, -1614567.0, -42301.58, 0.0, 9.999918, 9.999936 
2.985634e+3, 1.4957392e+2, -1411743.6, -1456040.1, 41289.73, 0.09070392, 0.78414774, -1387036.9, 87213.734, 0.0, 10.000706, 10.000088 
2.9855612e+3, 1.5957502e+2, -1244974.3, -1358134.5, 24909.846, 0.27199495, 0.9168875, -1239733.5, 136505.06, 0.0, 10.001329, 9.999783 
2.985487e+3, 1.6957417e+2, -1164416.0, -1306718.1, 83321.38, 0.19295181, 0.9080474, -1126000.1, 152246.72, 0.0, 10.001376, 9.999437 
2.985412e+3, 1.7957273e+2, -1046373.44, -1162714.9, 82832.27, 0.0058535873, 0.84254444, -1003326.5, 176934.34, 0.0, 10.001353, 9.999766 
2.9853377e+3, 1.8957213e+2, -1034062.7, -1048837.4, 43329.855, -0.02104897, 0.79943115, -997494.94, 84770.32, 0.0, 10.000514, 10.000283 
2.9852644e+3, 1.9957216e+2, -1035231.8, -1015229.5, 14622.839, 0.012415646, 0.80613804, -1007514.8, -23251.424, 0.0, 9.999897, 10.000145 
2.98519e+3, 2.0957169e+2, -874529.4, -885940.06, -6290.2593, 0.01775881, 0.7742542, -871742.44, 14524.638, 0.0, 10.0003195, 10.000156 
2.9851156e+3, 2.19571e+2, -754997.0, -779074.6, 24540.648, 0.0016848004, 0.7194885, -739701.25, 48571.91, 0.0, 10.000467, 10.000148 
2.9850423e+3, 2.2957064e+2, -720863.06, -689414.7, 43975.62, -0.012757266, 0.68590117, -658436.56, 31840.174, 0.0, 9.999935, 10.000346 
2.9849684e+3, 2.3957053e+2, -657299.94, -592727.44, 26428.426, -0.019070089, 0.6630129, -583290.0, 8988.214, 0.0, 9.999632, 10.000484 
2.9848942e+3, 2.495712e+2, -478665.75, -438445.13, 5492.454, -0.008165531, 0.6980865, -437708.56, 56563.51, 0.0, 10.000106, 10.000644 
2.9848197e+3, 2.5957206e+2, -314329.78, -307992.03, 16852.443, 0.00724859, 0.746813, -294013.13, 102251.28, 0.0, 10.000556, 10.000656 
2.984745e+3, 2.695725e+2, -311871.8, -257261.5, 4151.9614, 0.011390174, 0.7486501, -256947.63, 41313.48, 0.0, 9.999893, 10.000655 
2.9846698e+3, 2.7957276e+2, -293352.63, -175773.9, -5606.0186, -0.009516796, 0.7344745, -175507.22, 24752.063, 0.0, 9.9992895, 10.000853 
2.9845944e+3, 2.895727e+2, -9423.008, -7535.8857, -42351.27, -0.013993939, 0.6947436, 33882.332, 136139.45, 0.0, 10.000639, 10.000724 
2.9957834e+3, 1.2965028e+2, -1557389.4, -1554191.1, 23931.959, 0.17486517, 0.97433984, -1531804.9, 137703.97, 0.0, 10.000743, 10.000745 
2.9957077e+3, 1.3964976e+2, -1664095.3, -1526070.8, 15440.305, 0.066275656, 0.85001296, -1524364.6, 47144.23, 0.0, 9.999193, 10.001019 
2.9956338e+3, 1.4964858e+2, -1563207.5, -1533844.4, -21836.684, 0.036722664, 0.7210411, -1522212.6, -48693.188, 0.0, 9.999647, 10.000082 
2.9955593e+3, 1.5964814e+2, -1508181.5, -1511994.0, -102882.766, -0.018400446, 0.7249319, -1407187.4, -31663.77, 0.0, 9.999586, 9.999592 
2.995487e+3, 1.696477e+2, -1362153.3, -1354344.4, -29311.545, 0.07865565, 0.7216164, -1328678.4, -51150.813, 0.0, 9.99976, 9.999914 
2.9954126e+3, 1.7964849e+2, -1243810.1, -1281938.3, -36778.53, -0.015676882, 0.8383416, -1221448.4, -41929.035, 0.0, 10.000049, 9.999602 
2.9953384e+3, 1.8964587e+2, -1135376.0, -1231024.1, -48812.242, 0.02841588, 0.67846763, -1114864.4, -33321.348, 0.0, 10.000349, 9.999132 
2.9952642e+3, 1.9964446e+2, -1070625.8, -1044567.44, -22413.82, 0.027053636, 0.5997835, -1031671.0, -48116.02, 0.0, 9.999671, 10.000068 
2.9951906e+3, 2.096452e+2, -908230.6, -903388.25, 23745.781, 0.08822802, 0.68880445, -881940.56, 3606.2754, 0.0, 10.0000725, 10.000163 
2.995116e+3, 2.1964514e+2, -715663.0, -768417.25, 456.45108, 0.041958146, 0.7050514, -715659.06, 71887.945, 0.0, 10.00077, 10.000076 
2.9950416e+3, 2.2964554e+2, -754615.94, -664180.94, -40709.34, -0.010569539, 0.7221102, -648555.44, 40987.543, 0.0, 9.999526, 10.000713 
2.9949677e+3, 2.3964521e+2, -656218.0, -591084.4, 5265.7764, -0.030115217, 0.6644309, -590661.4, 884.58044, 0.0, 9.999636, 10.00049 
2.9948938e+3, 2.4964613e+2, -455177.22, -393365.22, 27450.738, -0.049848266, 0.7004864, -382934.5, 110602.84, 0.0, 10.000125, 10.000938 
2.99482e+3, 2.5964728e+2, -305098.66, -292263.88, 16783.338, -0.02923199, 0.7542455, -280712.88, 114813.51, 0.0, 10.000562, 10.000765 
2.9947448e+3, 2.6964715e+2, -315072.94, -275536.97, -24499.55, 0.040811535, 0.70671666, -263824.78, 33703.48, 0.0, 9.9999275, 10.000521 
2.994669e+3, 2.796471e+2, -319883.8, -202236.1, 2166.51, 0.037408557, 0.667538, -202196.2, -2666.7769, 0.0, 9.999212, 10.000685 
2.9945934e+3, 2.8964826e+2, -63118.285, -76962.87, 54385.29, -0.10988163, 0.7766703, -15216.516, 86300.91, 0.0, 10.000524, 10.000275 
