coord_x,coord_y,stress_xx,stress_yy,tau_xy,velocity_x,velocity_y,stress_1,eps,damage,lx,ly
5.000299e+0, 1.2432188e+2, -1592364.8, -1593095.8, 16625.912, 0.0013206364, 0.048040684, -1576100.4, 145551.27, 0.0013801174, 10.000564, 10.000561 
5.00034e+0, 1.343226e+2, -1543894.4, -1618211.4, -7771.9717, 0.0009505654, 0.15579085, -1543090.4, 80551.04, 0.0008364695, 10.000654, 9.99967 
5.0003874e+0, 1.4432013e+2, -1466573.0, -1573752.5, -13885.901, 0.003387535, -0.045148414, -1464803.3, 60861.86, 0.00038681776, 10.000701, 9.999274 
5.000416e+0, 1.5432017e+2, -1383976.3, -1504389.6, 5598.545, 0.007078374, 0.03934323, -1383716.5, 43950.766, 0.00011816065, 10.000688, 9.9990835 
5.000397e+0, 1.643202e+2, -1247695.3, -1328211.1, 14458.892, 0.0049032117, 0.111627504, -1245177.5, 84490.234, 0.000016018055, 10.000692, 9.99962 
5.0003153e+0, 1.7431976e+2, -1142045.3, -1223077.1, 3797.8845, -0.005198943, 0.09502537, -1141867.6, 89803.3, 0.00000013955699, 10.0007305, 9.999651 
5.000276e+0, 1.8431889e+2, -1067213.4, -1181721.5, -3631.2515, -0.010979435, 0.060909033, -1067098.4, 66580.45, 0.0, 10.000769, 9.999246 
5.000297e+0, 1.9431758e+2, -968656.06, -1090145.3, -8380.752, -0.010446011, 0.005623736, -968080.7, 67610.25, 0.0, 10.000801, 9.999186 
5.00032e+0, 2.0431662e+2, -899754.94, -1045387.44, -5798.956, -0.006643727, 0.008363028, -899524.4, 38176.793, 0.0, 10.000771, 9.998834 
5.0003386e+0, 2.1431604e+2, -821259.75, -961943.0, 8937.454, 0.0008177746, 0.06375543, -820694.25, 19015.04, 0.0, 10.000659, 9.998787 
5.0003135e+0, 2.2431527e+2, -710729.1, -819986.0, 15481.382, 0.002175715, 0.094346404, -708577.8, 33140.156, 0.0, 10.000582, 9.999126 
5.000226e+0, 2.343143e+2, -616912.9, -722829.3, 4678.7393, -0.0048439084, 0.0736593, -616706.56, 27020.684, 0.0, 10.000547, 9.999137 
5.0001943e+0, 2.4431333e+2, -561357.56, -688754.3, -3979.2903, -0.0028100947, 0.08196296, -561233.4, -15495.815, 0.0, 10.000443, 9.998749 
5.0002396e+0, 2.543124e+2, -495060.78, -612845.9, -5466.3257, 0.01107686, 0.1110431, -494807.63, -47058.496, 0.0, 10.000256, 9.998688 
5.0002396e+0, 2.6431125e+2, -395306.25, -499598.5, -2742.7754, 0.013631542, 0.124448925, -395234.2, -45473.1, 0.0, 10.000205, 9.998816 
5.000182e+0, 2.7430996e+2, -278735.34, -392222.5, -11438.165, 0.0015493192, 0.10683637, -277594.0, -25821.727, 0.0, 10.000331, 9.998819 
5.000168e+0, 2.8430867e+2, -204765.13, -353008.3, -17320.254, -0.0017152433, 0.116327204, -202768.39, -48984.35, 0.000000004221918, 10.000369, 9.998397 
5.000212e+0, 2.943072e+2, -116216.6, -258633.17, -11883.75, 0.006130115, 0.122821465, -115231.79, -59433.164, 0.0000065845143, 10.000299, 9.998405 
5.000249e+0, 3.043044e+2, -135489.53, -357285.63, 1180.1199, 0.008595829, 0.051664922, -135483.25, -135483.25, 0.00007542163, 10.000323, 9.997387 
5.0002825e+0, 3.1430173e+2, 83610.766, 66288.055, 13446.657, 0.005092857, 0.04970439, 90944.15, 90944.15, 0.00027006015, 10.000457, 10.000233 
1.5000892e+1, 1.2432135e+2, -1639901.6, -1689619.5, 16671.379, 0.0034173972, -0.04571103, -1634829.0, 86822.836, 0.00135349, 10.000556, 9.999902 
1.5001021e+1, 1.3432214e+2, -1589644.1, -1712167.1, -4160.525, 0.0029718333, 0.13410209, -1589503.0, 34142.41, 0.0008181531, 10.000651, 9.999027 
1.500116e+1, 1.4431971e+2, -1434755.5, -1506003.1, -14924.118, 0.010147398, -0.048503827, -1431755.8, 93913.875, 0.00037595516, 10.000694, 9.9997425 
1.500125e+1, 1.5431991e+2, -1346266.8, -1424777.0, 5392.1685, 0.02129453, 0.0004419386, -1345898.1, 81768.53, 0.00011312574, 10.000682, 9.999634 
1.5001193e+1, 1.6431986e+2, -1262898.8, -1358520.5, 14901.279, 0.014741729, 0.040700406, -1260630.4, 69036.67, 0.000014709239, 10.000688, 9.999415 
1.5000945e+1, 1.7431894e+2, -1161694.5, -1262886.9, 5456.8125, -0.015558298, 0.0049676006, -1161401.1, 70275.24, 0.00000010097208, 10.000728, 9.99938 
1.5000826e+1, 1.843182e+2, -1076475.3, -1199438.9, -2711.8076, -0.032965366, 0.0067239115, -1076415.5, 57268.87, 0.0, 10.000763, 9.999127 
1.5000893e+1, 1.943179e+2, -976399.0, -1105352.5, -6583.9893, -0.031236487, 0.060411643, -976063.75, 59625.082, 0.0, 10.000798, 9.9990835 
1.5000959e+1, 2.0431724e+2, -873586.56, -989681.06, -10208.421, -0.02002064, 0.081286564, -872695.75, 65000.418, 0.0, 10.000765, 9.99922 
1.5001017e+1, 2.143161e+2, -792878.0, -901848.56, 5384.016, 0.0027330073, 0.040538155, -792612.6, 47095.008, 0.0, 10.000654, 9.999203 
1.5000938e+1, 2.243151e+2, -726451.06, -851081.9, 13511.393, 0.0062474664, 0.035228774, -725003.06, 16714.791, 0.0, 10.000576, 9.998916 
1.500068e+1, 2.3431437e+2, -636494.9, -762709.1, 4050.8276, -0.014371362, 0.066264585, -636365.0, 7360.733, 0.0, 10.000545, 9.998865 
1.500058e+1, 2.4431351e+2, -564737.06, -694796.25, -11295.623, -0.008703012, 0.10251604, -563763.3, -18027.781, 0.0, 10.00044, 9.99871 
1.5000717e+1, 2.543125e+2, -495877.38, -613523.6, -12087.362, 0.03315063, 0.12718484, -494648.3, -46900.586, 0.0, 10.000251, 9.998686 
1.5000719e+1, 2.6431108e+2, -409543.03, -527969.06, 815.3922, 0.04087953, 0.118280664, -409537.4, -59774.516, 0.0, 10.0002, 9.998624 
1.5000543e+1, 2.743092e+2, -296132.72, -427112.7, -6218.561, 0.004376104, 0.06339073, -295838.16, -44057.48, 0.0, 10.000326, 9.998583 
1.5000506e+1, 2.8430793e+2, -196250.81, -334034.97, -20111.393, -0.004865798, 0.08392547, -193375.3, -39582.61, 0.0000000059189293, 10.000364, 9.99853 
1.5000632e+1, 2.943074e+2, -104064.03, -231955.42, -13512.039, 0.017894356, 0.17245862, -102652.04, -46853.82, 0.0000065077284, 10.000295, 9.998591 
1.500075e+1, 3.0430496e+2, -115910.8, -315114.34, 5208.7144, 0.026345016, 0.113064885, -115774.69, -115774.69, 0.000074265045, 10.000319, 9.99768 
1.5000838e+1, 3.1430185e+2, 102523.66, 108074.734, 23707.436, 0.01438762, 0.037432637, 129168.555, 129168.555, 0.00026651216, 10.000448, 10.000524 
2.500154e+1, 1.2432098e+2, -1632368.1, -1714803.8, -14146.073, 0.0035031047, -0.08127162, -1630008.3, 91645.03, 0.0013145427, 10.000736, 9.999642 
2.5001732e+1, 1.3432176e+2, -1600167.8, -1744236.0, -4486.827, 0.0064809397, 0.121769905, -1600028.1, 23620.514, 0.0007913486, 10.000697, 9.998787 
2.500189e+1, 1.4431931e+2, -1425821.3, -1487705.5, -9096.637, 0.013578578, -0.05760413, -1424511.8, 101161.836, 0.00036019128, 10.000695, 9.99987 
2.500192e+1, 1.5431951e+2, -1325299.0, -1397556.5, -19030.07, 0.016549403, -0.024666898, -1320593.5, 107076.125, 0.00010584406, 10.000752, 9.999787 
2.5001872e+1, 1.6431944e+2, -1250688.9, -1357231.8, -17862.115, 0.008430502, 0.010363579, -1247774.0, 81895.54, 0.000012859098, 10.000792, 9.999374 
2.500173e+1, 1.7431855e+2, -1153185.6, -1265254.3, -12377.786, -0.014130665, -0.016541356, -1151834.9, 79844.33, 0.00000006033416, 10.000814, 9.999323 
2.5001633e+1, 1.8431789e+2, -1070026.5, -1194406.6, -7238.7725, -0.030200606, -0.006302823, -1069606.6, 64080.375, 0.0, 10.000798, 9.999145 
2.5001603e+1, 1.943177e+2, -983340.5, -1105688.0, -1905.3802, -0.03709286, 0.056450605, -983310.8, 52379.88, 0.0, 10.000738, 9.99911 
2.5001597e+1, 2.0431718e+2, -880143.94, -985224.2, -12606.588, -0.028794775, 0.08655598, -878652.7, 59044.277, 0.0, 10.000688, 9.999288 
2.5001615e+1, 2.1431619e+2, -789325.6, -891944.25, -23981.69, -0.0022168087, 0.053621504, -783997.8, 55709.188, 0.0, 10.000644, 9.999276 
2.5001532e+1, 2.2431521e+2, -718102.0, -840293.6, -16928.55, 0.006749295, 0.043116447, -715800.06, 25916.686, 0.0, 10.000604, 9.998978 
2.5001317e+1, 2.3431435e+2, -628349.75, -751811.2, -2564.9333, -0.0065491553, 0.055114646, -628296.5, 15428.793, 0.0, 10.000571, 9.998927 
2.5001156e+1, 2.443134e+2, -553853.9, -707196.0, -7764.3716, -0.0026014813, 0.08667783, -553461.75, -7725.829, 0.0, 10.00059, 9.998552 
2.5001088e+1, 2.5431234e+2, -446907.9, -608457.1, -20598.043, 0.024283294, 0.12253038, -444322.97, 3426.4465, 0.0, 10.000668, 9.99852 
2.5000966e+1, 2.6431093e+2, -366396.97, -506229.72, -10903.643, 0.031193042, 0.1241982, -365551.84, -15787.081, 0.0, 10.000493, 9.998632 
2.5000802e+1, 2.7430913e+2, -341034.7, -447315.66, -453.83395, 0.013289466, 0.07890657, -341032.75, -89251.3, 0.0, 10.000011, 9.998596 
2.5000787e+1, 2.843079e+2, -262479.9, -357362.88, 5736.231, 0.0115683405, 0.094339065, -262134.38, -108340.766, 0.0000000086392555, 9.999872, 9.998607 
2.5000927e+1, 2.943072e+2, -120467.94, -231006.14, 5401.8726, 0.02560036, 0.15789172, -120204.58, -64403.7, 0.0000063841276, 10.000143, 9.998671 
2.5001064e+1, 3.0430496e+2, -113893.555, -293277.9, 14700.74, 0.029730618, 0.10560859, -112696.8, -112696.8, 0.00007245626, 10.000244, 9.997865 
2.5001183e+1, 3.143027e+2, 73084.125, 113770.734, 28331.59, 0.018535124, 0.09899893, 128306.2, 128306.2, 0.0002610093, 10.000163, 10.000701 
3.5002244e+1, 1.24320745e+2, -1623160.9, -1694842.6, -19756.047, -0.002219947, -0.06257836, -1618076.6, 103579.4, 0.0012623775, 10.000733, 9.999781 
3.500246e+1, 1.3432145e+2, -1588327.3, -1719732.1, -5133.3667, 0.008680985, 0.11771283, -1588127.1, 35524.055, 0.000755357, 10.000698, 9.998955 
3.5002568e+1, 1.4431888e+2, -1439994.5, -1517002.9, -8443.686, 0.010410227, -0.07340561, -1439079.6, 86597.586, 0.00033918672, 10.000694, 9.999669 
3.500243e+1, 1.5431891e+2, -1342061.9, -1431776.1, -16677.512, -0.008853126, -0.03390569, -1339061.9, 88614.05, 0.00009620481, 10.000751, 9.999554 
3.5002425e+1, 1.6431896e+2, -1242268.6, -1338360.4, -17395.672, -0.016125452, 0.020241277, -1239216.4, 90458.73, 0.000010539653, 10.000787, 9.999506 
3.5002664e+1, 1.7431861e+2, -1142431.1, -1242029.9, -10957.097, -0.0030932496, 0.029904764, -1141240.0, 90439.445, 0.000000028001644, 10.000812, 9.999483 
3.5002694e+1, 1.8431792e+2, -1059039.1, -1170620.6, -9913.659, -0.0051861117, 0.020825565, -1058165.1, 75521.836, 0.0, 10.000794, 9.9993105 
3.5002425e+1, 1.9431698e+2, -972836.56, -1082960.8, -3680.7878, -0.029148906, -0.005674161, -972713.7, 62982.86, 0.0, 10.000734, 9.999269 
3.500223e+1, 2.0431644e+2, -898066.7, -1020489.44, -14579.965, -0.03501993, 0.023689711, -896354.25, 41349.17, 0.0, 10.000681, 9.999048 
3.5002133e+1, 2.143163e+2, -808816.0, -931446.44, -24986.49, -0.015656654, 0.102988675, -803920.4, 35786.99, 0.0, 10.00064, 9.999007 
3.5002086e+1, 2.2431558e+2, -694128.56, -789294.0, -18718.771, 0.0013058312, 0.116608664, -690579.0, 51135.81, 0.0, 10.000599, 9.9993305 
3.5002133e+1, 2.343142e+2, -600871.1, -694414.3, -3119.315, 0.017414687, 0.040268116, -600767.25, 42958.69, 0.0, 10.000569, 9.999323 
3.5001916e+1, 2.4431297e+2, -572879.7, -745071.3, -5542.303, 0.01355957, 0.033046793, -572701.5, -26962.682, 0.0, 10.000585, 9.998295 
3.5001346e+1, 2.543119e+2, -470244.78, -655484.94, -17326.43, -0.0173204, 0.097805835, -468638.1, -20883.973, 0.0, 10.000662, 9.998199 
3.5000977e+1, 2.643108e+2, -351717.63, -474749.75, -28240.42, -0.017714012, 0.14120965, -345545.1, 4221.66, 0.0, 10.000489, 9.998851 
3.5000947e+1, 2.7430987e+2, -322298.56, -407060.94, -17861.943, 0.02585811, 0.15451488, -318688.28, -66913.8, 0.0, 10.000007, 9.998875 
3.5001007e+1, 2.8430855e+2, -261624.3, -354181.28, 13820.05, 0.045864727, 0.14668038, -259604.83, -105818.05, 0.000000011844628, 9.999867, 9.9986315 
3.5001087e+1, 2.9430655e+2, -122234.02, -232624.78, 16058.214, 0.026338652, 0.079715535, -119945.52, -64138.883, 0.0000061783935, 10.000136, 9.998663 
3.5001191e+1, 3.0430436e+2, -108734.195, -281427.0, 11391.412, 0.017444016, 0.028473152, -107986.02, -107986.02, 0.00006980898, 10.00024, 9.997949 
3.5001308e+1, 3.1430435e+2, 78093.63, 125591.164, 30537.045, 0.013025887, 0.2368174, 140527.22, 140527.22, 0.00025310565, 10.000158, 10.000783 
4.5003113e+1, 1.2432052e+2, -1602427.3, -1670889.8, -38513.223, 0.007986406, -0.017435072, -1585131.3, 136529.52, 0.0011988538, 10.000814, 9.999909 
4.500329e+1, 1.3432105e+2, -1540412.1, -1676865.3, -22827.232, 0.009528544, 0.12788372, -1536694.6, 86961.5, 0.0007112032, 10.000944, 9.999131 
4.5003363e+1, 1.4431846e+2, -1407570.4, -1503624.4, -21484.525, 0.009002891, -0.07197015, -1402983.9, 122697.81, 0.00031351, 10.000928, 9.999649 
4.5003167e+1, 1.5431874e+2, -1344429.3, -1437405.8, -16977.674, -0.00990195, -0.004565436, -1341426.1, 86252.75, 0.000084590996, 10.000753, 9.999516 
4.5003074e+1, 1.643189e+2, -1257537.5, -1336436.3, -7739.3394, -0.022372866, 0.058162324, -1256785.5, 72891.61, 0.000007991499, 10.000643, 9.99959 
4.5003188e+1, 1.7431849e+2, -1163591.0, -1241337.4, -6531.2905, -0.021755815, 0.052510668, -1163046.1, 68635.336, 0.000000008983813, 10.00062, 9.99958 
4.5003235e+1, 1.8431775e+2, -1079604.5, -1171216.6, -10822.067, -0.02114289, 0.029762609, -1078343.4, 55345.57, 0.0, 10.000614, 9.999393 
4.5003146e+1, 1.9431679e+2, -981352.9, -1078022.6, -11623.235, -0.025328454, -0.008747559, -979974.94, 55723.563, 0.0, 10.000637, 9.99935 
4.5002982e+1, 2.043162e+2, -907287.75, -1026021.5, -17305.213, -0.02434768, 0.013939305, -904816.94, 32888.477, 0.0, 10.000621, 9.999041 
4.5002735e+1, 2.1431607e+2, -822993.0, -939108.75, -9439.742, -0.0144731905, 0.09507118, -822230.56, 17478.637, 0.0, 10.000546, 9.999 
4.500264e+1, 2.243154e+2, -716008.7, -809095.6, -6022.449, 0.0023829478, 0.11624048, -715620.6, 26096.104, 0.0, 10.000488, 9.999248 
4.500276e+1, 2.3431407e+2, -624252.7, -714742.44, -27232.816, 0.029630078, 0.053759787, -616689.2, 27039.053, 0.0, 10.000448, 9.999242 
4.5002505e+1, 2.4431287e+2, -585414.9, -731060.6, -30345.936, 0.02317237, 0.045157503, -579345.1, -33604.32, 0.0, 10.000411, 9.998475 
4.5001748e+1, 2.5431177e+2, -497090.44, -646337.7, -4424.6685, -0.028998788, 0.08861718, -496959.38, -49204.492, 0.0, 10.000382, 9.998398 
4.500127e+1, 2.6431072e+2, -361070.06, -474523.2, -7327.638, -0.032988, 0.124119185, -360598.72, -10832.298, 0.0, 10.000404, 9.998894 
4.5001236e+1, 2.743099e+2, -251256.84, -368733.84, -15297.322, 0.030901114, 0.14518382, -249297.56, 2475.7268, 0.0, 10.000476, 9.998913 
4.5001218e+1, 2.8430867e+2, -197533.55, -332393.38, 9458.764, 0.056679346, 0.1468034, -196873.36, -43088.23, 0.000000014278152, 10.000347, 9.99855 
4.5001116e+1, 2.9430667e+2, -150105.22, -257795.3, 4373.687, 0.023198836, 0.089499824, -149927.89, -94122.51, 0.0000058442592, 9.999995, 9.99856 
4.5001152e+1, 3.0430433e+2, -161090.5, -297753.22, -1328.682, 0.010073943, 0.025027186, -161077.6, -161077.6, 0.00006621042, 9.999843, 9.998029 
4.500137e+1, 3.1430438e+2, 43456.066, 115215.34, 19151.0, 0.017276661, 0.23094137, 120006.445, 120006.445, 0.0002425997, 9.999889, 10.000844 
5.500411e+1, 1.243203e+2, -1592385.6, -1651865.3, -35817.098, 0.024314823, 0.0558176, -1575570.9, 146096.69, 0.0011275938, 10.000822, 10.000037 
5.500422e+1, 1.3432056e+2, -1526343.1, -1647989.1, -18192.809, 0.0073714308, 0.15584335, -1523680.6, 99982.88, 0.00066134764, 10.000945, 9.9993305 
5.500428e+1, 1.4431807e+2, -1396202.5, -1479164.5, -27575.656, 0.0065812827, -0.053807948, -1387873.0, 137814.23, 0.00028458898, 10.000925, 9.999819 
5.500411e+1, 1.5431899e+2, -1333091.4, -1414096.8, -22758.09, 0.0075925747, 0.061949555, -1327135.5, 100543.01, 0.00007188515, 10.000754, 9.999675 
5.50038e+1, 1.6431925e+2, -1254383.9, -1329898.3, -9650.655, -0.015878541, 0.123229936, -1253170.0, 76505.74, 0.0000055425044, 10.000643, 9.999635 
5.500332e+1, 1.7431821e+2, -1161547.4, -1236293.9, -7179.9253, -0.07147048, 0.052614957, -1160864.0, 70821.31, 0.00000000116644, 10.000616, 9.999618 
5.5003256e+1, 1.843174e+2, -1080263.8, -1170985.6, -10286.299, -0.08123101, 0.020927647, -1079112.0, 54581.027, 0.0, 10.0006075, 9.999398 
5.500375e+1, 1.9431706e+2, -981589.44, -1077809.6, -10152.346, -0.02923607, 0.046380516, -980529.9, 55166.863, 0.0, 10.000634, 9.9993515 
5.500385e+1, 2.0431647e+2, -890864.7, -991228.9, -20142.146, -0.00023126687, 0.056199916, -886973.25, 50729.758, 0.0, 10.000618, 9.999281 
5.5003417e+1, 2.143155e+2, -805954.3, -902961.1, -11618.507, -0.0012305044, 0.029457942, -804582.1, 35130.46, 0.0, 10.000543, 9.99925 
5.500318e+1, 2.2431463e+2, -752408.3, -882801.8, -7915.237, 0.006849072, 0.041024406, -751929.6, -10207.04, 0.0, 10.000482, 9.998745 
5.500319e+1, 2.3431394e+2, -664002.9, -796825.94, -28208.924, 0.027318582, 0.09600134, -658260.2, -14527.965, 0.0, 10.000447, 9.998679 
5.500292e+1, 2.4431305e+2, -541369.44, -639269.25, -31874.543, 0.022810917, 0.121758774, -531906.4, 13835.648, 0.0, 10.00041, 9.999106 
5.500229e+1, 2.5431198e+2, -447408.3, -542374.4, -4945.9126, -0.013792151, 0.09492479, -447151.4, 600.38586, 0.0, 10.000379, 9.999114 
5.5001837e+1, 2.6431066e+2, -370303.63, -492403.38, -5049.72, -0.01729484, 0.071694896, -370095.13, -20331.178, 0.0, 10.0004, 9.998773 
5.500166e+1, 2.7430928e+2, -265380.1, -396703.16, -12494.531, 0.024885362, 0.05148066, -264201.9, -12424.099, 0.0, 10.000472, 9.998722 
5.50014e+1, 2.8430822e+2, -211090.9, -360474.22, -3444.8926, 0.039845254, 0.094498634, -211011.5, -57222.887, 0.000000014996283, 10.000346, 9.998358 
5.5001014e+1, 2.9430756e+2, -163112.88, -283836.25, -7647.6, 0.012638114, 0.18897438, -162630.34, -106833.44, 0.0000053587105, 9.999991, 9.998383 
5.5000937e+1, 3.0430484e+2, -156607.86, -287782.13, -639.4956, 0.0036936773, 0.09444736, -156604.75, -156604.75, 0.000061679886, 9.99984, 9.998099 
5.500134e+1, 3.1430277e+2, 45983.184, 121341.32, 26186.51, 0.023544434, 0.07891641, 129547.38, 129547.38, 0.00022953504, 9.999887, 10.000888 
6.500495e+1, 1.24319926e+2, -1582755.4, -1644823.6, 585.1405, 0.024417393, 0.067843266, -1582749.9, 138922.67, 0.001052614, 10.000879, 10.000055 
6.500513e+1, 1.3432029e+2, -1532713.0, -1638986.9, 10818.443, 0.009359237, 0.1663719, -1531623.0, 92043.95, 0.00060904585, 10.00085, 9.999436 
6.500516e+1, 1.443178e+2, -1415164.1, -1486650.8, -12260.958, 0.009296683, -0.047339126, -1413119.6, 112570.516, 0.000254567, 10.000788, 9.999834 
6.500482e+1, 1.5431875e+2, -1339516.8, -1416185.8, -19832.658, 0.0059766727, 0.07112903, -1334690.4, 92990.99, 0.00005931439, 10.000708, 9.999682 
6.500445e+1, 1.6431898e+2, -1247863.1, -1321471.0, -7308.677, -0.01581369, 0.12663424, -1247144.5, 82534.29, 0.0000034805446, 10.000666, 9.999681 
6.500402e+1, 1.7431784e+2, -1147665.8, -1224136.1, -4176.129, -0.06572754, 0.039598774, -1147438.4, 84250.2, 0.00000000000024211628, 10.000689, 9.999665 
6.500391e+1, 1.8431708e+2, -1073370.3, -1165780.1, -6927.954, -0.078237526, 0.010065415, -1072853.8, 60841.99, 0.0, 10.0006485, 9.9994135 
6.5004236e+1, 1.9431701e+2, -996827.7, -1083067.4, -6393.6753, -0.038357694, 0.06035881, -996356.25, 39341.207, 0.0, 10.000522, 9.99937 
6.500435e+1, 2.0431648e+2, -903354.7, -989523.25, -18502.754, -0.0059900996, 0.07173269, -899549.6, 38153.52, 0.0, 10.000501, 9.999349 
6.500416e+1, 2.1431533e+2, -789375.75, -886525.3, -23861.285, 0.014347329, 0.016949652, -783831.5, 55882.51, 0.0, 10.000622, 9.999324 
6.500389e+1, 2.2431439e+2, -729908.1, -879157.94, -13357.65, 0.020768974, 0.02383112, -728722.06, 13002.283, 0.0, 10.000667, 9.998681 
6.500355e+1, 2.3431386e+2, -646222.2, -795879.8, 2486.8435, 0.010200023, 0.10230485, -646180.9, -2447.4294, 0.0, 10.000602, 9.9986105 
6.50032e+1, 2.4431312e+2, -523056.16, -610618.9, 212.52805, 0.0078032915, 0.137503, -523055.66, 22686.287, 0.0, 10.00045, 9.999285 
6.5002877e+1, 2.5431213e+2, -461130.0, -526261.3, -12289.973, 0.016747141, 0.10156416, -458888.13, -11138.703, 0.0, 10.000186, 9.999317 
6.500244e+1, 2.6431075e+2, -426482.06, -536488.94, -24640.35, 0.018917259, 0.0661042, -421215.06, -71453.01, 0.0, 10.000087, 9.998621 
6.5001905e+1, 2.7430898e+2, -315266.25, -441329.25, -31567.602, 0.015480557, 0.028810691, -307803.2, -56022.88, 0.0, 10.000217, 9.998538 
6.5001494e+1, 2.84308e+2, -217791.73, -357965.94, -23707.623, 0.018006163, 0.079626635, -213890.64, -60099.266, 0.000000013847158, 10.000277, 9.998409 
6.500118e+1, 2.9430777e+2, -125723.26, -257068.42, -10173.192, 0.019314958, 0.21343294, -124939.98, -69145.6, 0.0000047556837, 10.000211, 9.998461 
6.5000975e+1, 3.043048e+2, -138721.72, -288168.72, 5107.9185, 0.016116105, 0.09294238, -138547.34, -138547.34, 0.000056396846, 10.000002, 9.998017 
6.5001035e+1, 3.1430212e+2, -719.9342, 80189.086, 20447.617, 0.01645164, 0.026299981, 85063.07, 85063.07, 0.00021421611, 9.999648, 10.000718 
7.5005645e+1, 1.2431937e+2, -1588282.9, -1657447.6, -3461.212, 0.00285086, 0.013647713, -1588110.0, 133566.02, 0.0009783517, 10.000883, 9.999967 
7.500597e+1, 1.3432017e+2, -1530865.5, -1637018.1, 10358.699, 0.0069795935, 0.15641561, -1529864.1, 93802.53, 0.00055803865, 10.000856, 9.999447 
7.500596e+1, 1.4431767e+2, -1424206.0, -1506026.3, -15623.557, 0.008972122, -0.054447867, -1421324.1, 104366.51, 0.00022607559, 10.000791, 9.9997 
7.500532e+1, 1.5431808e+2, -1349644.9, -1437004.0, -22585.57, -0.014932728, 0.024279106, -1344151.1, 83536.15, 0.000048170983, 10.000707, 9.999541 
7.500504e+1, 1.6431814e+2, -1244517.4, -1313414.8, -6924.5073, -0.02371263, 0.06893194, -1243828.4, 85857.66, 0.0000019773436, 10.000661, 9.999738 
7.500528e+1, 1.7431739e+2, -1142954.3, -1214521.3, -2562.7493, -0.009794408, 0.012911519, -1142862.6, 88828.95, 0.0, 10.0006895, 9.999731 
7.5005174e+1, 1.843168e+2, -1071094.5, -1161023.8, -11393.941, -0.017789345, -0.003838553, -1069673.3, 64023.766, 0.0, 10.0006485, 9.999446 
7.50046e+1, 1.9431664e+2, -995117.5, -1078668.6, -10878.95, -0.054277577, 0.033945035, -993724.25, 41976.4, 0.0, 10.000519, 9.999402 
7.5004476e+1, 2.0431623e+2, -910900.5, -1003804.7, -14733.231, -0.043446362, 0.0606133, -908620.0, 29085.867, 0.0, 10.000495, 9.999253 
7.500493e+1, 2.1431547e+2, -797463.2, -902485.7, -18700.95, 0.028771266, 0.057769086, -794232.56, 45480.88, 0.0, 10.000619, 9.999215 
7.500476e+1, 2.2431467e+2, -702947.3, -822733.56, -15574.402, 0.040857345, 0.064045936, -700955.5, 40766.742, 0.0, 10.000665, 9.999069 
7.500381e+1, 2.3431386e+2, -616971.4, -734635.56, 408.55045, -0.023910353, 0.07228107, -616969.94, 26762.13, 0.0, 10.000599, 9.999033 
7.500333e+1, 2.4431306e+2, -542163.44, -649281.44, -9566.582, -0.023870265, 0.09070846, -541315.75, 4425.0444, 0.0, 10.000446, 9.999021 
7.500349e+1, 2.543123e+2, -483517.53, -572272.2, -22216.576, 0.059102606, 0.10913251, -478267.0, -30519.27, 0.0, 10.000185, 9.9990015 
7.500307e+1, 2.6431105e+2, -438949.06, -562210.2, -21337.955, 0.0724413, 0.107808396, -435359.75, -85598.945, 0.0, 10.000087, 9.998444 
7.5001985e+1, 2.743092e+2, -328279.3, -467112.88, -25787.95, 0.00058217783, 0.07697369, -323644.06, -71863.23, 0.0, 10.000213, 9.9983635 
7.500148e+1, 2.8430793e+2, -197781.58, -315517.72, -26049.557, -0.011909622, 0.101535685, -192275.52, -38482.094, 0.000000011324871, 10.000273, 9.998702 
7.5001603e+1, 2.9430732e+2, -102314.75, -208159.67, -12559.107, 0.03956413, 0.1621369, -100844.95, -45047.14, 0.000004098041, 10.00021, 9.998797 
7.5001246e+1, 3.0430424e+2, -155144.83, -322339.5, -8307.018, 0.041954603, 0.021276549, -154733.11, -154733.11, 0.000050636394, 10.000003, 9.997782 
7.500043e+1, 3.1430247e+2, -27065.715, 26590.066, 11797.833, -0.010554337, 0.07434364, 29069.592, 29069.592, 0.00019719645, 9.999643, 10.000351 
8.5006815e+1, 1.2431935e+2, -1520127.9, -1645959.5, 331.3022, 0.0033371763, -0.0091704335, -1520127.0, 201548.19, 0.00090933184, 10.001442, 9.999777 
8.500672e+1, 1.343203e+2, -1538116.3, -1652366.3, 5552.3257, -0.0034656, 0.15895027, -1537847.0, 85818.336, 0.0005120121, 10.000857, 9.999341 
8.50066e+1, 1.4431775e+2, -1447765.1, -1525101.1, -5794.725, 0.0007737207, -0.049532834, -1447333.4, 78356.9, 0.00020159004, 10.000663, 9.99963 
8.500622e+1, 1.5431786e+2, -1308845.3, -1425097.1, -6826.7773, -0.011912818, 0.0078977905, -1308445.8, 119243.35, 0.000039447743, 10.001021, 9.999471 
8.5005987e+1, 1.6431783e+2, -1183803.5, -1280436.3, 671.27435, -0.01468423, 0.04479348, -1183798.9, 145889.78, 0.0000010481418, 10.001062, 9.999771 
8.500608e+1, 1.7431723e+2, -1140731.5, -1208827.5, 1155.7855, 0.0018919136, 0.0016827577, -1140711.9, 90980.805, 0.0, 10.000686, 9.999772 
8.500588e+1, 1.8431675e+2, -1093847.0, -1168560.0, -3642.933, -0.003004825, -0.008165304, -1093669.8, 40027.484, 0.0, 10.000477, 9.999477 
8.500525e+1, 1.9431663e+2, -995160.44, -1074681.3, -2927.259, -0.0401607, 0.02838645, -995052.8, 40647.92, 0.0, 10.000502, 9.999436 
8.500499e+1, 2.0431626e+2, -913640.0, -1004870.56, -434.65125, -0.04047432, 0.057994094, -913637.94, 24067.734, 0.0, 10.000475, 9.999255 
8.5005224e+1, 2.143156e+2, -833301.56, -920033.9, 2963.535, 0.009020623, 0.064066865, -833200.44, 6511.9736, 0.0, 10.000373, 9.999214 
8.5005033e+1, 2.2431482e+2, -748498.25, -825388.5, 276.88443, 0.021499941, 0.06520128, -748497.25, -6776.689, 0.0, 10.000268, 9.999242 
8.5004294e+1, 2.3431396e+2, -666603.4, -737193.1, -2767.251, -0.013313057, 0.051399603, -666495.06, -22765.125, 0.0, 10.000167, 9.999223 
8.5003805e+1, 2.443132e+2, -586769.6, -686769.0, -14629.116, -0.009344976, 0.069563285, -584673.44, -38935.16, 0.0, 10.000208, 9.998878 
8.500364e+1, 2.5431257e+2, -458406.7, -579155.8, -16416.959, 0.04254797, 0.117028154, -456214.44, -8469.279, 0.0, 10.000439, 9.998833 
8.500312e+1, 2.6431128e+2, -389069.53, -542997.7, -6984.417, 0.051257793, 0.12772112, -388753.28, -38994.582, 0.0, 10.000449, 9.998402 
8.5002273e+1, 2.743093e+2, -336662.63, -474226.8, -2308.212, 0.011273604, 0.08770134, -336623.9, -84844.2, 0.0, 10.000168, 9.998337 
8.5001814e+1, 2.84308e+2, -229207.86, -327098.38, -1087.3383, 0.0067906957, 0.10391595, -229195.78, -75402.78, 0.000000007967864, 10.00004, 9.998736 
8.5001695e+1, 2.9430735e+2, -111707.52, -208510.7, -10416.131, 0.032502897, 0.15824272, -110599.42, -54801.664, 0.0000034232567, 10.000127, 9.998835 
8.500115e+1, 3.0430424e+2, -144004.44, -301284.34, -18655.799, 0.032836296, 0.007071445, -141821.88, -141821.88, 0.00004462947, 10.0000105, 9.997924 
8.5000306e+1, 3.1430313e+2, -34244.492, 25108.434, 34185.02, 0.016144954, 0.111714095, 40701.254, 40701.254, 0.00017905688, 9.999584, 10.00037 
9.500839e+1, 1.2431987e+2, -1540593.9, -1688492.4, -24049.83, 0.01590529, -0.0005869754, -1536781.5, 184888.75, 0.0008487081, 10.001442, 9.999485 
9.5007414e+1, 1.3432065e+2, -1553043.6, -1685018.5, -16238.615, -0.021076825, 0.17406638, -1551074.9, 72588.17, 0.00047347447, 10.000864, 9.999114 
9.5007104e+1, 1.4431801e+2, -1447087.1, -1524263.9, 4631.494, -0.016321003, -0.031758104, -1446810.1, 78878.766, 0.00018256163, 10.000666, 9.999635 
9.500744e+1, 1.5431808e+2, -1307990.9, -1423920.8, 7619.6914, 0.0073370463, 0.020541446, -1307492.1, 120195.02, 0.00003354367, 10.001023, 9.999478 
9.500724e+1, 1.6431801e+2, -1184214.5, -1280788.6, -11594.877, 0.0033538344, 0.05272636, -1182842.0, 146845.0, 0.00000057940093, 10.001061, 9.999769 
9.500644e+1, 1.7431737e+2, -1140544.4, -1208089.3, -12761.884, -0.031313237, 0.0058500674, -1138213.5, 93478.52, 0.0, 10.000684, 9.999778 
9.500604e+1, 1.8431693e+2, -1091183.1, -1162789.9, -4155.4478, -0.035206627, -0.0019937656, -1090942.8, 42753.563, 0.0, 10.000476, 9.999517 
9.500616e+1, 1.9431694e+2, -992464.56, -1069026.3, -1471.9291, 0.00040874231, 0.043629058, -992436.3, 43261.64, 0.0, 10.000502, 9.9994755 
9.5005876e+1, 2.0431654e+2, -907199.5, -990933.4, -4150.18, -0.0001803364, 0.064065024, -906994.3, 30708.193, 0.0, 10.000472, 9.999352 
9.5005035e+1, 2.1431564e+2, -826270.4, -904917.75, -476.43634, -0.047310956, 0.03576372, -826267.5, 13443.533, 0.0, 10.000371, 9.99932 
9.500469e+1, 2.2431481e+2, -752181.9, -832146.3, -3920.8926, -0.0398638, 0.027350575, -751990.06, -10270.551, 0.0, 10.000264, 9.999198 
9.5005006e+1, 2.3431416e+2, -670644.0, -744967.06, -6369.8, 0.03982945, 0.03922563, -670102.06, -26374.984, 0.0, 10.000164, 9.999171 
9.5004606e+1, 2.4431354e+2, -588236.56, -689460.6, -7379.5815, 0.04924221, 0.07498437, -587701.4, -41966.93, 0.0, 10.000207, 9.998859 
9.50033e+1, 2.543129e+2, -460526.63, -582718.9, -7237.2017, -0.035216544, 0.12397122, -460099.47, -12357.634, 0.0, 10.000435, 9.99881 
9.5002604e+1, 2.6431155e+2, -383780.34, -531049.56, -16722.26, -0.04643193, 0.12499151, -381905.44, -32149.557, 0.0, 10.000445, 9.9984865 
9.5002776e+1, 2.7430943e+2, -329102.34, -458556.75, -12941.619, 0.04387541, 0.061420105, -327821.25, -76044.25, 0.0, 10.000168, 9.998445 
9.5002496e+1, 2.8430817e+2, -244548.39, -358850.75, 330.9571, 0.069956616, 0.08849281, -244547.44, -90757.41, 0.0000000042394483, 10.00004, 9.998518 
9.5001465e+1, 2.9430786e+2, -130896.71, -246949.72, -6257.1587, -0.0042056586, 0.20047857, -130560.33, -74766.06, 0.000002739973, 10.000121, 9.998574 
9.50007e+1, 3.0430484e+2, -109094.19, -226875.38, -33651.215, -0.013609322, 0.04889701, -100157.75, -100157.75, 0.000038513957, 10.000003, 9.998437 
9.500065e+1, 3.1430414e+2, -6281.1255, 83452.79, 22632.338, 0.09011268, 0.13504295, 88837.86, 88837.86, 0.00016021931, 9.999583, 10.0007715 
1.0500972e+2, 1.24320395e+2, -1621280.6, -1733131.0, -36031.49, 0.03082098, 0.022850586, -1610678.4, 110988.22, 0.00079770345, 10.000915, 9.999432 
1.0500872e+2, 1.3432114e+2, -1460871.1, -1634082.6, -7271.538, -0.0069089406, 0.1889168, -1460566.4, 163093.28, 0.0004431459, 10.001471, 9.99917 
1.05008215e+2, 1.4431854e+2, -1328927.9, -1459298.9, 20879.0, -0.009882679, -0.019146735, -1325665.6, 200019.06, 0.00016917764, 10.001441, 9.999707 
1.0500813e+2, 1.5431869e+2, -1356300.4, -1439598.0, 26530.758, -0.007272848, 0.03436414, -1348568.0, 79113.445, 0.000030278157, 10.000658, 9.999547 
1.0500775e+2, 1.643186e+2, -1300380.3, -1350188.9, 12619.691, -0.014202427, 0.06679844, -1297365.4, 32315.916, 0.0000004316036, 10.00032, 9.999651 
1.0500706e+2, 1.7431787e+2, -1165637.1, -1234537.1, 1470.1389, -0.032649636, 0.022283128, -1165605.8, 66082.77, 0.0, 10.000574, 9.999649 
1.0500669e+2, 1.843174e+2, -1056214.8, -1136482.1, 7772.4067, -0.027886068, 0.014106732, -1055469.1, 78224.13, 0.0, 10.000675, 9.999602 
1.0500679e+2, 1.9431745e+2, -974607.2, -1049741.8, 13803.208, 0.008741975, 0.054879088, -972151.6, 63541.477, 0.0, 10.000577, 9.999572 
1.05006404e+2, 2.0431702e+2, -900285.3, -984166.56, 10739.011, 0.004090326, 0.06550107, -898932.25, 38765.027, 0.0, 10.000504, 9.999385 
1.0500536e+2, 2.1431598e+2, -811000.56, -893761.9, 8211.623, -0.055901513, 0.020863483, -810193.7, 29513.361, 0.0, 10.000461, 9.999352 
1.0500495e+2, 2.2431512e+2, -730479.44, -832469.2, 2397.6392, -0.049999386, 0.012742519, -730423.1, 11292.75, 0.0, 10.000461, 9.999101 
1.0500537e+2, 2.343146e+2, -627540.1, -736818.44, -4483.707, 0.042590503, 0.047425047, -627356.44, 16366.155, 0.0, 10.000514, 9.999059 
1.0500497e+2, 2.4431393e+2, -558204.0, -677982.2, -7678.118, 0.054243047, 0.08519493, -557713.8, -11983.204, 0.0, 10.000425, 9.998834 
1.05003536e+2, 2.54313e+2, -502969.1, -605102.4, -9099.831, -0.04169917, 0.10746853, -502164.66, -54424.105, 0.0, 10.000152, 9.998793 
1.05002776e+2, 2.6431158e+2, -419349.34, -530430.2, -13453.077, -0.057028223, 0.09513501, -417743.25, -67988.48, 0.0, 10.000123, 9.998648 
1.0500301e+2, 2.743097e+2, -283520.0, -417585.28, -4545.518, 0.039042752, 0.03712328, -283366.03, -31593.127, 0.0, 10.000398, 9.998616 
1.0500268e+2, 2.843086e+2, -214289.17, -361381.28, 5780.8584, 0.07063929, 0.08090024, -214062.33, -60277.84, 0.0000000012344323, 10.00032, 9.998366 
1.05001464e+2, 2.9430845e+2, -192502.64, -296319.5, 3432.109, 0.00176648, 0.22466516, -192389.3, -136600.16, 0.0000020653147, 9.99978, 9.998401 
1.05000444e+2, 3.0430534e+2, -166346.08, -226037.08, -26598.926, -0.013603482, 0.0631344, -156213.38, -156213.38, 0.00003243676, 9.999484, 9.998695 
1.0500014e+2, 3.1430486e+2, -15042.55, 88202.82, 9153.283, 0.08611601, 0.1424712, 89008.03, 89008.03, 0.00014106146, 9.999484, 10.000854 
1.1501079e+2, 1.2432091e+2, -1607768.1, -1706492.3, -17794.586, 0.043937933, 0.05880538, -1604658.8, 117006.125, 0.0007564602, 10.00092, 9.999612 
1.15010574e+2, 1.3432176e+2, -1437620.6, -1585181.1, 14049.155, 0.030774659, 0.20245588, -1436294.9, 187360.55, 0.00042056636, 10.001467, 9.999509 
1.1500988e+2, 1.4431933e+2, -1320934.6, -1441176.6, -5136.9683, 0.011008704, -0.012924511, -1320715.5, 204962.38, 0.00016082273, 10.001435, 9.999835 
1.1500831e+2, 1.5431969e+2, -1347209.1, -1422043.6, -2264.4302, -0.056498498, 0.048925947, -1347140.6, 80531.38, 0.000029173776, 10.000664, 9.999665 
1.1500754e+2, 1.643196e+2, -1315023.5, -1381824.3, 18795.91, -0.06815738, 0.08785941, -1310098.0, 19573.924, 0.0000005105562, 10.000325, 9.999432 
1.150079e+2, 1.7431872e+2, -1183229.3, -1271354.4, 11577.444, -0.006634812, 0.05132269, -1181733.6, 49948.48, 0.0, 10.000575, 9.999396 
1.1500779e+2, 1.8431813e+2, -1048313.94, -1119239.5, 4869.7847, 0.013899761, 0.039644327, -1047981.1, 85706.79, 0.0, 10.000671, 9.999722 
1.1500711e+2, 1.9431813e+2, -963929.7, -1027449.75, 10566.579, -0.016811244, 0.061516896, -962218.06, 73468.27, 0.0, 10.000576, 9.999725 
1.1500657e+2, 2.0431767e+2, -903087.25, -989059.2, 8597.0, -0.029492546, 0.06244062, -902236.0, 35454.016, 0.0, 10.0005, 9.999352 
1.150062e+2, 2.1431662e+2, -814125.2, -899795.3, 6940.7153, -0.018693283, 0.018881653, -813566.5, 26134.035, 0.0, 10.000458, 9.999312 
1.15005806e+2, 2.2431576e+2, -741713.1, -854779.3, 3900.7793, -0.011031335, 0.020929068, -741578.7, 131.086, 0.0, 10.000456, 9.99895 
1.150054e+2, 2.3431528e+2, -639242.3, -760702.94, -1904.6913, -0.0069210907, 0.07601926, -639212.44, 4504.1387, 0.0, 10.000512, 9.998896 
1.150049e+2, 2.4431436e+2, -562005.6, -684949.06, -17596.99, 0.0035808727, 0.10039344, -559536.56, -13809.742, 0.0, 10.000422, 9.998788 
1.1500431e+2, 2.5431287e+2, -504605.03, -608097.0, -19164.443, 0.020255083, 0.06768157, -501170.22, -53428.81, 0.0, 10.00015, 9.998774 
1.15003645e+2, 2.6431137e+2, -402815.78, -495412.0, -5068.5117, 0.01725012, 0.038588405, -402539.2, -52783.688, 0.0, 10.00012, 9.998889 
1.1500297e+2, 2.7431005e+2, -267200.1, -382605.8, 6272.0884, -0.0051737763, 0.0129566565, -266860.22, -15092.541, 0.0, 10.000393, 9.998858 
1.1500237e+2, 2.843093e+2, -221553.81, -374549.28, -13175.519, 0.00754179, 0.07911788, -220427.47, -66650.94, 0.00000000006210851, 10.000313, 9.99828 
1.1500169e+2, 2.943091e+2, -198898.69, -309347.72, -16167.088, 0.046117138, 0.23150453, -196580.86, -140798.63, 0.0000014487281, 9.999779, 9.998312 
1.1500036e+2, 3.0430582e+2, -166200.33, -224523.38, -28493.912, 0.029603347, 0.051279925, -154590.58, -154590.58, 0.000026628812, 9.99948, 9.998708 
1.14998765e+2, 3.1430534e+2, -33379.785, 52790.24, 12850.545, -0.00084465044, 0.1315548, 54665.82, 54665.82, 0.00012208533, 9.999474, 10.000615 
1.2501185e+2, 1.2432175e+2, -1529551.4, -1664020.6, 17222.162, 0.032102052, 0.07462851, -1527380.8, 194277.13, 0.0007247361, 10.001438, 9.999655 
1.2501162e+2, 1.3432273e+2, -1535213.5, -1614879.5, 35367.582, 0.02757714, 0.2171115, -1521778.0, 101868.82, 0.00040489552, 10.000724, 9.999662 
1.2501092e+2, 1.4432035e+2, -1452537.8, -1507236.0, 4044.5706, 0.0171792, 0.0015049912, -1452240.3, 73428.06, 0.00015657058, 10.000542, 9.999812 
1.2500928e+2, 1.5432058e+2, -1290239.9, -1398249.6, -5315.1353, -0.046032343, 0.053085275, -1289979.0, 137684.78, 0.000029665785, 10.00107, 9.999632 
1.2500842e+2, 1.6432047e+2, -1193304.4, -1330531.8, 17135.47, -0.056341264, 0.09122538, -1191197.0, 138467.2, 0.0000007617598, 10.001191, 9.999367 
1.2500867e+2, 1.7431964e+2, -1158730.0, -1267517.1, 22180.682, 0.0035830305, 0.06865943, -1154381.4, 77292.36, 0.0, 10.000775, 9.999327 
1.2500846e+2, 1.8431897e+2, -1065895.5, -1124559.6, 21979.658, 0.021907546, 0.05058274, -1058574.1, 75105.84, 0.0, 10.000535, 9.999752 
1.2500769e+2, 1.9431868e+2, -968846.56, -1025235.6, 18994.91, -0.01461028, 0.040054735, -963044.94, 72635.38, 0.0, 10.000523, 9.999766 
1.2500714e+2, 2.0431818e+2, -905578.44, -1000407.75, 12814.241, -0.025278123, 0.037170857, -903877.4, 33807.074, 0.0, 10.000526, 9.999263 
1.2500687e+2, 2.1431735e+2, -807928.6, -908452.4, 5785.577, -0.002176308, 0.027404197, -807596.75, 32096.857, 0.0, 10.000549, 9.999209 
1.2500642e+2, 2.2431658e+2, -733396.75, -849901.3, 5660.331, 0.0015307205, 0.04277223, -733122.44, 8580.001, 0.0, 10.000508, 9.99896 
1.250057e+2, 2.3431598e+2, -657141.8, -767126.5, 12314.919, -0.02016177, 0.08403638, -655779.8, -12069.848, 0.0, 10.0003805, 9.998916 
1.2500514e+2, 2.4431492e+2, -570921.3, -687075.2, 5498.696, -0.010760306, 0.094660155, -570661.56, -24940.639, 0.0, 10.000351, 9.998808 
1.2500475e+2, 2.5431335e+2, -461994.16, -585808.25, 7246.9956, 0.03626278, 0.050297324, -461571.44, -13835.247, 0.0, 10.000435, 9.99879 
1.2500402e+2, 2.643119e+2, -375471.72, -478803.16, 16549.545, 0.03542386, 0.025383005, -372885.84, -23136.225, 0.0, 10.000294, 9.9989195 
1.2500295e+2, 2.7431086e+2, -342155.34, -415852.47, 9532.063, -0.019980669, 0.022422789, -340942.4, -89182.69, 0.0, 9.999865, 9.998886 
1.2500219e+2, 2.843101e+2, -289477.16, -400413.03, -10841.002, -0.016356496, 0.085009485, -288427.66, -134659.28, 0.0, 9.999815, 9.9983425 
1.2500167e+2, 2.9430965e+2, -130640.7, -269045.72, -2472.8481, 0.04316894, 0.20142809, -130596.53, -74820.375, 0.00000094519226, 10.0002165, 9.998378 
1.2500013e+2, 3.043063e+2, -61800.066, -171514.8, -15837.185, 0.023951482, 0.013089308, -59559.734, -59559.734, 0.000021325412, 10.000186, 9.998733 
1.2499809e+2, 3.143064e+2, -35546.438, 21593.787, 26432.26, -0.020682907, 0.15157, 31945.592, 31945.592, 0.000103857135, 9.999587, 10.000348 
1.3501285e+2, 1.2432296e+2, -1539084.3, -1681323.9, -13053.403, -0.012814745, 0.073915526, -1537896.3, 183749.22, 0.0007016644, 10.001427, 9.999541 
1.3501191e+2, 1.3432404e+2, -1536681.8, -1620866.8, 9386.644, -0.018228171, 0.23262331, -1535647.9, 87986.07, 0.00039489288, 10.000736, 9.999617 
1.3501137e+2, 1.4432165e+2, -1462209.5, -1529522.8, 19425.877, 0.0060852985, 0.0236249, -1457005.8, 68650.54, 0.00015526546, 10.000552, 9.999654 
1.3501099e+2, 1.5432143e+2, -1302957.3, -1423776.4, 15088.119, 0.01789652, 0.047425427, -1301101.5, 126555.01, 0.000031126172, 10.001066, 9.999459 
1.3501033e+2, 1.6432117e+2, -1188303.3, -1318933.3, 3586.5972, 0.01446057, 0.076849975, -1188204.9, 141453.27, 0.0000011270397, 10.001185, 9.99945 
1.3500938e+2, 1.7432062e+2, -1150793.9, -1251694.3, 6994.4565, -0.0038063014, 0.07315405, -1150311.3, 81352.25, 0.0, 10.000778, 9.999434 
1.3500874e+2, 1.843199e+2, -1069183.6, -1131663.3, 20005.03, -0.00541147, 0.046718642, -1063327.3, 70342.37, 0.0, 10.000537, 9.999702 
1.3500848e+2, 1.9431911e+2, -973519.1, -1034967.25, 18914.38, 0.013037391, -0.009756381, -968163.8, 67511.25, 0.0, 10.000523, 9.999701 
1.3500805e+2, 2.043185e+2, -916950.3, -1023016.7, 13267.143, 0.013797065, -0.010659459, -915316.0, 22364.643, 0.0, 10.000522, 9.999109 
1.3500737e+2, 2.1431817e+2, -819723.8, -932141.75, 7321.8755, -0.008219547, 0.046066202, -819248.94, 20437.338, 0.0, 10.0005455, 9.999049 
1.3500676e+2, 2.2431758e+2, -722873.5, -826658.7, 946.60345, -0.014960985, 0.07882618, -722864.9, 18828.824, 0.0, 10.000503, 9.999122 
1.3500631e+2, 2.3431666e+2, -643228.9, -738261.4, 8000.703, 0.00034220744, 0.07049233, -642560.06, 1142.8654, 0.0, 10.00038, 9.999114 
1.350057e+2, 2.4431562e+2, -565150.2, -674271.9, 7803.257, 0.008708791, 0.06630834, -564595.0, -18881.725, 0.0, 10.000347, 9.998898 
1.3500488e+2, 2.5431445e+2, -457409.34, -575630.2, 10814.307, 0.0043058246, 0.05448006, -456428.25, -8703.25, 0.0, 10.000431, 9.998861 
1.3500394e+2, 2.643132e+2, -389574.72, -506860.1, 1263.0935, -0.0041767503, 0.054819692, -389561.13, -39823.914, 0.0, 10.000289, 9.99873 
1.3500293e+2, 2.743121e+2, -355130.78, -442830.56, -5750.158, -0.00971892, 0.06641656, -354755.38, -103006.414, 0.0, 9.999866, 9.9987 
1.3500212e+2, 2.8431103e+2, -275092.94, -369727.88, 1831.4348, -0.004731731, 0.0990506, -275057.5, -121297.5, 0.0, 9.999811, 9.998555 
1.3500135e+2, 2.9430997e+2, -115577.65, -236206.97, 13489.594, -0.010461731, 0.13213779, -114087.56, -58316.414, 0.0000005800232, 10.00021, 9.998608 
1.3499975e+2, 3.043068e+2, -60704.625, -166308.27, -36707.85, -0.032819074, -0.054920908, -49198.6, -49198.6, 0.000016654767, 10.000175, 9.998773 
1.349981e+2, 3.143081e+2, -55550.965, -18633.309, 6856.08, 0.019219464, 0.2017537, -17401.17, -17401.17, 0.000086807726, 9.999584, 10.000072 
1.4501402e+2, 1.24324165e+2, -1634707.3, -1745731.3, -8793.196, -0.007883657, 0.06138847, -1634015.3, 87617.24, 0.0006852014, 10.000849, 9.999378 
1.450128e+2, 1.3432513e+2, -1449886.0, -1586431.5, 12918.59, -0.03453181, 0.21378182, -1448674.5, 174948.13, 0.00038852147, 10.001364, 9.99955 
1.4501227e+2, 1.4432277e+2, -1328698.1, -1476530.8, 31208.27, -0.007111956, 0.01694951, -1322379.9, 203265.08, 0.00015533686, 10.001516, 9.999554 
1.4501229e+2, 1.5432253e+2, -1293977.5, -1431387.3, 30855.572, 0.03453411, 0.05035772, -1287366.9, 140278.94, 0.00003278088, 10.001179, 9.999352 
1.4501171e+2, 1.6432223e+2, -1217617.9, -1328173.6, 11181.018, 0.04477396, 0.078419656, -1216498.4, 113149.38, 0.0000015078091, 10.000963, 9.999494 
1.4501044e+2, 1.7432162e+2, -1126880.8, -1233937.9, 9284.817, 0.016639953, 0.063185856, -1126081.5, 105571.63, 0.0, 10.000915, 9.999491 
1.4500955e+2, 1.8432085e+2, -1040953.3, -1138028.4, 21520.492, 0.007753018, 0.03727137, -1036396.4, 97263.32, 0.0, 10.000815, 9.999525 
1.4500917e+2, 1.9432e+2, -968690.25, -1054927.3, 9780.011, 0.022620806, -0.005746365, -967595.06, 68071.734, 0.0, 10.00065, 9.999502 
1.4500864e+2, 2.0431936e+2, -899636.56, -1007675.1, 13079.332, 0.016422477, -0.0028163888, -898075.7, 39597.41, 0.0, 10.00061, 9.999172 
1.4500791e+2, 2.1431905e+2, -786589.7, -906765.6, 24909.928, -0.017863544, 0.04807736, -781630.94, 58046.984, 0.0, 10.000733, 9.999132 
1.4500725e+2, 2.2431846e+2, -689692.3, -804082.6, 16744.258, -0.026059894, 0.07570097, -687291.7, 54393.156, 0.0, 10.000701, 9.999181 
1.4500673e+2, 2.3431757e+2, -627250.0, -724106.44, 12642.989, 0.0015415807, 0.06190642, -625626.9, 18067.045, 0.0, 10.000462, 9.999172 
1.4500605e+2, 2.4431661e+2, -578411.2, -680225.9, 9689.009, 0.014596887, 0.06278819, -577497.4, -31793.828, 0.0, 10.000255, 9.998901 
1.4500514e+2, 2.543156e+2, -506996.6, -600140.6, 6036.668, 0.0042414228, 0.07082752, -506607.0, -58893.37, 0.0, 10.000093, 9.998856 
1.4500411e+2, 2.6431444e+2, -418809.4, -527248.6, -2842.0935, -0.007056615, 0.07917759, -418734.97, -69009.24, 0.0, 10.000114, 9.998673 
1.4500302e+2, 2.7431318e+2, -291152.06, -418289.06, 249.53119, -0.010279573, 0.08124766, -291151.6, -39412.14, 0.0, 10.000333, 9.998643 
1.4500217e+2, 2.8431204e+2, -201288.98, -324081.56, 13272.254, -0.0046712123, 0.104713865, -199870.81, -46119.703, 0.0, 10.000277, 9.998645 
1.4500135e+2, 2.9431102e+2, -156777.23, -246392.72, 13658.879, -0.012801334, 0.13170743, -154741.64, -98980.74, 0.00000034163278, 9.999884, 9.998694 
1.449996e+2, 3.0430797e+2, -110169.76, -171102.44, -44084.168, -0.043498054, -0.054450102, -87048.68, -87048.68, 0.000012640429, 9.999751, 9.998945 
1.4499776e+2, 3.1430933e+2, -26832.03, -21343.742, 8109.95, 0.01552965, 0.19120437, -15526.249, -15526.249, 0.00007115946, 9.999851, 9.999925 
1.5501536e+2, 1.2432531e+2, -1647184.0, -1774213.3, 7240.8516, 0.038529605, 0.033031434, -1646772.6, 74846.64, 0.0006719969, 10.000859, 9.999177 
1.5501422e+2, 1.3432595e+2, -1455657.5, -1598037.6, 32520.168, -0.028086044, 0.16138572, -1448581.5, 175031.47, 0.00038301162, 10.001361, 9.999472 
1.5501358e+2, 1.4432372e+2, -1332846.3, -1483566.3, 20147.725, -0.02890438, -0.0174573, -1330199.5, 195434.98, 0.00015494693, 10.00151, 9.999508 
1.5501314e+2, 1.543239e+2, -1296205.3, -1437067.9, 18598.113, 0.00166418, 0.06135496, -1293791.1, 133840.5, 0.000033834087, 10.0011835, 9.999311 
1.5501256e+2, 1.6432363e+2, -1216080.8, -1326168.9, 7874.1533, 0.03215754, 0.09494203, -1215520.4, 114113.03, 0.0000017896223, 10.000968, 9.999504 
1.5501179e+2, 1.7432263e+2, -1126199.4, -1232217.8, 7809.4336, 0.061126713, 0.039389137, -1125627.3, 106015.164, 0.0, 10.000914, 9.999502 
1.5501086e+2, 1.843218e+2, -1062821.4, -1182943.6, 15177.419, 0.056807823, 0.022612525, -1060933.5, 72716.84, 0.0, 10.0008135, 9.999219 
1.5500972e+2, 1.9432133e+2, -991722.3, -1102628.5, 3921.4795, 0.011688911, 0.05134801, -991583.8, 44071.81, 0.0, 10.000649, 9.999175 
1.550089e+2, 2.0432071e+2, -880653.8, -967596.7, 16653.043, -0.019673426, 0.060468607, -877573.25, 60088.637, 0.0, 10.0006075, 9.99945 
1.5500848e+2, 2.1431994e+2, -764140.2, -859950.25, 30138.793, -0.033717297, 0.032025605, -755448.06, 84220.82, 0.0, 10.000731, 9.9994545 
1.5500787e+2, 2.2431925e+2, -693022.44, -810024.3, 8239.194, -0.03464115, 0.03194583, -692445.1, 49230.94, 0.0, 10.000697, 9.999142 
1.55007e+2, 2.3431866e+2, -632572.44, -734574.3, 3959.8804, -0.018024, 0.058188412, -632418.94, 11264.06, 0.0, 10.000459, 9.999102 
1.5500621e+2, 2.4431789e+2, -585086.9, -693221.06, 3146.3513, 0.004517329, 0.08453545, -584995.4, -39303.734, 0.0, 10.000251, 9.998815 
1.5500553e+2, 2.5431687e+2, -512531.78, -611796.2, 733.1453, 0.03186012, 0.09921078, -512526.38, -64824.207, 0.0, 10.000094, 9.9987755 
1.5500452e+2, 2.6431558e+2, -413478.66, -515729.38, 4323.0664, 0.023176532, 0.09714628, -413296.22, -63580.82, 0.0, 10.000113, 9.998754 
1.550032e+2, 2.7431408e+2, -285540.1, -405606.34, 8743.393, -0.024454802, 0.06563107, -284906.72, -33175.37, 0.0, 10.000328, 9.998732 
1.5500231e+2, 2.8431308e+2, -204594.89, -330166.13, -561.4647, -0.018477656, 0.10025059, -204592.38, -50850.543, 0.0, 10.000272, 9.998606 
1.5500171e+2, 2.9431275e+2, -159035.67, -252097.3, 666.4399, 0.031503662, 0.20106328, -159030.89, -103285.56, 0.00000019535571, 9.999887, 9.998654 
1.5499964e+2, 3.0430982e+2, -89725.555, -128237.74, -41276.758, -0.013734093, 0.015379941, -63434.22, -63434.22, 0.000009261703, 9.999749, 9.999239 
1.5499705e+2, 3.143101e+2, -28946.297, -23974.818, 14632.652, -0.04204011, 0.11889987, -11618.272, -11618.272, 0.00005700469, 9.999845, 9.999908 
1.6501635e+2, 1.24326535e+2, -1580811.4, -1750248.8, -1213.2506, 0.027660297, 0.03197438, -1580802.8, 140804.31, 0.00065754744, 10.001348, 9.999106 
1.6501574e+2, 1.3432704e+2, -1468064.3, -1602326.9, 32189.63, -0.0079658255, 0.14433359, -1460745.8, 162856.08, 0.00037533476, 10.001267, 9.999486 
1.6501516e+2, 1.4432485e+2, -1376891.9, -1500317.4, 12894.8125, -0.0054646116, -0.0301628, -1375559.1, 150063.23, 0.00015252095, 10.001187, 9.999548 
1.6501412e+2, 1.5432504e+2, -1306173.9, -1436674.6, 15371.663, -0.013872478, 0.044746984, -1304387.8, 123231.586, 0.000033788867, 10.001092, 9.999358 
1.6501333e+2, 1.6432478e+2, -1209980.6, -1334022.8, 12543.804, 0.0078387745, 0.079740904, -1208724.9, 120896.484, 0.0000018950186, 10.001057, 9.999408 
1.6501285e+2, 1.7432378e+2, -1107266.9, -1235468.0, 2693.1714, 0.06581558, 0.034377735, -1107210.4, 124420.67, 0.0, 10.001097, 9.9993925 
1.6501196e+2, 1.8432295e+2, -1030199.75, -1177762.9, 9377.7, 0.0719434, 0.028269317, -1029606.2, 104033.266, 0.0, 10.001083, 9.999124 
1.6501054e+2, 1.9432251e+2, -946161.7, -1091090.4, 14603.133, 0.01156287, 0.069077864, -944704.9, 90940.055, 0.0, 10.001008, 9.999083 
1.6500954e+2, 2.0432189e+2, -858510.2, -951624.44, 26752.684, -0.023186216, 0.080380835, -851371.25, 86280.03, 0.0, 10.000736, 9.999497 
1.6500904e+2, 2.1432106e+2, -835625.7, -887863.3, 19593.85, -0.02545408, 0.040764242, -829093.2, 10565.134, 0.0, 10.000213, 9.999514 
1.6500838e+2, 2.2432029e+2, -792022.1, -868476.2, -5033.9995, -0.022747273, 0.036264565, -791692.06, -50026.1, 0.0, 10.000064, 9.999045 
1.6500747e+2, 2.3431967e+2, -647300.06, -753784.7, -12654.68, -0.013339154, 0.0685631, -645816.8, -2142.8596, 0.0, 10.00041, 9.998993 
1.6500664e+2, 2.4431886e+2, -532217.06, -654718.44, -13867.951, 0.007955753, 0.09219349, -530666.75, 15016.148, 0.0, 10.000557, 9.998931 
1.6500588e+2, 2.5431785e+2, -454041.56, -568175.0, -397.38635, 0.041442234, 0.09314556, -454040.2, -6347.394, 0.0, 10.00043, 9.998914 
1.6500477e+2, 2.6431662e+2, -390378.72, -502404.72, 15617.54, 0.029452218, 0.089015834, -388242.22, -38536.99, 0.0, 10.000262, 9.998772 
1.6500331e+2, 2.7431524e+2, -325693.84, -424391.78, 12956.84, -0.03290323, 0.06851811, -324021.25, -72300.72, 0.0, 10.00005, 9.998736 
1.6500235e+2, 2.8431433e+2, -242683.95, -338725.28, 44.57191, -0.0264054, 0.10874086, -242683.94, -88953.69, 0.0, 9.999969, 9.998692 
1.6500178e+2, 2.9431412e+2, -132387.52, -229049.48, 10301.543, 0.043311056, 0.21367554, -131301.84, -75569.6, 0.00000010392393, 10.000029, 9.998743 
1.6499959e+2, 3.0431142e+2, -39090.23, -94148.82, -25868.143, -0.009033279, 0.04194829, -28843.568, -28843.568, 0.0000064948904, 10.000056, 9.999324 
1.6499688e+2, 3.143112e+2, -18713.338, -43144.164, 10817.557, -0.05314224, 0.090485275, -14612.016, -14612.016, 0.000044405664, 10.000017, 9.999693 
1.7501697e+2, 1.2432785e+2, -1577086.3, -1741991.9, -8947.543, -0.047579594, 0.060332164, -1576602.1, 144993.31, 0.0006370072, 10.001345, 9.999164 
1.7501733e+2, 1.3432834e+2, -1459866.0, -1587072.8, 30153.95, 0.023248691, 0.16126342, -1453080.1, 170509.19, 0.00036284848, 10.001274, 9.999588 
1.7501701e+2, 1.4432617e+2, -1367319.6, -1481537.9, 8452.333, 0.059682164, -0.023347594, -1366697.5, 158911.34, 0.00014707113, 10.001192, 9.999675 
1.750152e+2, 1.54326e+2, -1296962.1, -1417537.9, 12064.793, -0.016997866, 0.0016294116, -1295766.9, 131842.03, 0.00003249045, 10.001092, 9.99949 
1.7501397e+2, 1.6432567e+2, -1224379.0, -1363758.1, 13113.567, -0.032980677, 0.033990495, -1223156.0, 106455.73, 0.0000018022155, 10.001055, 9.999205 
1.7501359e+2, 1.7432503e+2, -1123348.1, -1268880.0, 4650.4326, 0.02863959, 0.047841676, -1123199.6, 108419.41, 0.0, 10.001097, 9.999164 
1.7501283e+2, 1.8432428e+2, -1022221.75, -1161347.3, 6484.5327, 0.050118998, 0.05398367, -1021920.2, 111707.03, 0.0, 10.001083, 9.999236 
1.7501165e+2, 1.9432348e+2, -936617.94, -1070887.8, 12154.372, 0.020429146, 0.04708592, -935526.56, 100108.27, 0.0, 10.001006, 9.999222 
1.7501055e+2, 2.0432283e+2, -871511.5, -977915.7, 7772.399, 0.003719859, 0.056928277, -870946.75, 66694.65, 0.0, 10.000733, 9.999318 
1.7500955e+2, 2.1432237e+2, -850415.9, -917756.7, 241.31514, 0.004232888, 0.074213244, -850415.0, -10768.672, 0.0, 10.000209, 9.9993105 
1.7500873e+2, 2.2432162e+2, -803245.4, -890998.7, 5446.212, 0.0066504953, 0.08906008, -802908.7, -61254.02, 0.0, 10.000061, 9.998893 
1.7500816e+2, 2.3432055e+2, -657638.0, -775403.7, 1065.5159, 0.012881807, 0.09158226, -657628.3, -13961.412, 0.0, 10.000411, 9.998844 
1.7500736e+2, 2.443195e+2, -509898.7, -607994.06, -17819.654, 0.022176826, 0.08419679, -506761.94, 38915.6, 0.0, 10.000556, 9.999252 
1.7500621e+2, 2.543185e+2, -429241.8, -515925.88, -5018.947, 0.030939486, 0.052542873, -428952.2, 18733.33, 0.0, 10.000426, 9.999273 
1.7500485e+2, 2.6431754e+2, -393785.2, -509248.38, 7463.478, 0.010301219, 0.054762043, -393304.75, -43609.47, 0.0, 10.00026, 9.998726 
1.750033e+2, 2.743166e+2, -330612.1, -435012.47, 5831.679, -0.039115414, 0.08975568, -330287.34, -78580.29, 0.0, 10.0000515, 9.998663 
1.7500226e+2, 2.843158e+2, -228548.86, -309367.13, 1141.1766, -0.033161208, 0.13039511, -228532.75, -74816.29, 0.0, 9.999969, 9.998893 
1.7500158e+2, 2.9431513e+2, -118084.16, -198099.81, 13305.057, 0.018461196, 0.16890171, -115929.79, -60207.926, 0.00000004563321, 10.000023, 9.998958 
1.7499942e+2, 3.0431277e+2, -47369.965, -111151.06, -27122.727, -0.033446755, 0.024580574, -37395.86, -37395.86, 0.000004309572, 10.000054, 9.999208 
1.749972e+2, 3.1431282e+2, -45573.64, -100664.45, 10236.163, -0.024288889, 0.111605234, -43733.19, -43733.19, 0.000033397264, 10.000023, 9.999295 
1.850183e+2, 1.24329165e+2, -1577702.1, -1730753.8, -4281.918, -0.046976835, 0.075862825, -1577582.4, 144000.81, 0.0006065531, 10.001291, 9.999266 
1.8501857e+2, 1.3432969e+2, -1454212.9, -1566443.6, 41294.426, 0.02087574, 0.16457771, -1440656.5, 182919.47, 0.00034376056, 10.001236, 9.999747 
1.8501827e+2, 1.4432766e+2, -1370152.1, -1491805.9, 15630.298, 0.064115226, -0.01206207, -1368176.0, 157418.14, 0.00013809917, 10.001211, 9.999595 
1.8501651e+2, 1.5432732e+2, -1286213.6, -1422560.8, 1328.5891, -0.000056678724, 0.0064490144, -1286200.6, 141395.4, 0.000029920388, 10.00121, 9.999397 
1.8501523e+2, 1.6432689e+2, -1201620.3, -1353964.3, 3862.8271, -0.02152408, 0.03495965, -1201522.4, 128077.55, 0.0000015280342, 10.001217, 9.999194 
1.8501456e+2, 1.743263e+2, -1103940.5, -1259842.0, 11291.714, 0.009112005, 0.05266492, -1103126.9, 128479.76, 0.0, 10.001231, 9.99916 
1.8501371e+2, 1.8432552e+2, -1016757.8, -1152823.6, 12756.081, 0.029557267, 0.054269675, -1015572.25, 118042.31, 0.0, 10.001096, 9.9992895 
1.850127e+2, 1.9432461e+2, -966912.3, -1078802.6, 11187.362, 0.036843155, 0.030294843, -965804.7, 69818.18, 0.0, 10.000769, 9.999282 
1.8501155e+2, 2.0432389e+2, -899180.8, -1018663.5, 3343.8286, 0.034652885, 0.040473122, -899087.3, 38543.246, 0.0, 10.000661, 9.999073 
1.8501022e+2, 2.143234e+2, -776313.4, -911967.4, -9999.002, 0.01940925, 0.0817437, -775580.3, 64056.715, 0.0, 10.000846, 9.999043 
1.8500918e+2, 2.2432262e+2, -694812.25, -821606.1, 7587.7163, 0.012649142, 0.10062517, -694359.8, 47286.113, 0.0, 10.000731, 9.999045 
1.8500853e+2, 2.3432152e+2, -671427.6, -761412.4, 27874.58, 0.018677002, 0.08213636, -663492.6, -19835.451, 0.0, 10.000227, 9.999029 
1.8500759e+2, 2.4432051e+2, -598044.44, -653614.2, 12403.969, 0.019846616, 0.07042171, -595401.4, -49734.29, 0.0, 9.999965, 9.999224 
1.8500622e+2, 2.5431967e+2, -491837.97, -551233.7, -6049.833, 0.009819497, 0.056915026, -491228.0, -43553.313, 0.0, 10.000019, 9.999227 
1.8500482e+2, 2.643188e+2, -420098.47, -508874.28, -7379.1323, -0.0059911474, 0.06737044, -419489.3, -69805.63, 0.0, 10.000025, 9.998841 
1.850035e+2, 2.7431792e+2, -335834.88, -422917.63, 5402.116, -0.019163948, 0.09560442, -335501.03, -83806.8, 0.0, 9.999953, 9.998793 
1.8500246e+2, 2.8431705e+2, -233400.72, -304272.0, 10706.167, -0.006546964, 0.1204693, -231818.7, -78114.85, 0.0, 9.999905, 9.998959 
1.8500145e+2, 2.9431626e+2, -134189.0, -199810.9, 9812.017, 0.012029506, 0.1390317, -132753.3, -77042.586, 0.000000013949684, 9.999887, 9.999011 
1.8499926e+2, 3.0431443e+2, -46663.7, -107309.82, -26122.51, -0.0542844, 0.04266168, -36963.348, -36963.348, 0.0000026617806, 10.000044, 9.99924 
1.8499757e+2, 3.1431448e+2, -5410.918, -95520.22, 21106.625, -0.006470096, 0.12868343, -712.06464, -712.06464, 0.000023992492, 10.000362, 9.999166 
1.9502033e+2, 1.2433046e+2, -1566983.5, -1709391.4, -10841.774, 0.024905175, 0.077796586, -1566162.8, 155407.53, 0.0005643703, 10.001294, 9.999412 
1.9501942e+2, 1.343311e+2, -1438983.6, -1535016.5, 39827.688, -0.018405741, 0.1552436, -1424615.6, 198946.11, 0.00031730495, 10.001237, 9.999963 
1.9501889e+2, 1.443293e+2, -1389962.1, -1533321.1, 15036.221, 0.0037303115, 0.0046797576, -1388402.0, 137176.02, 0.00012543245, 10.001212, 9.99931 
1.9501808e+2, 1.5432902e+2, -1307777.1, -1468293.6, 1949.4662, 0.03496545, 0.058461893, -1307753.5, 119827.484, 0.000026112697, 10.001214, 9.999083 
1.9501707e+2, 1.6432843e+2, -1188980.3, -1327748.4, 3973.9702, 0.039307635, 0.08157372, -1188866.5, 140719.53, 0.0000011234973, 10.001217, 9.999373 
1.9501574e+2, 1.7432755e+2, -1088795.5, -1228006.9, 12257.296, 0.005364564, 0.04915665, -1087724.5, 143869.2, 0.0, 10.00123, 9.99938 
1.950146e+2, 1.8432668e+2, -1017150.9, -1153225.5, 920.7502, 0.007316298, 0.0296093, -1017144.6, 116457.05, 0.0, 10.001094, 9.999287 
1.9501369e+2, 1.943259e+2, -968691.0, -1082119.5, -946.24695, 0.05876555, 0.019213444, -968683.1, 66926.01, 0.0, 10.000767, 9.99926 
1.9501254e+2, 2.0432502e+2, -921233.56, -1063917.3, 8673.563, 0.06683046, 0.031881787, -920708.2, 16910.525, 0.0, 10.000659, 9.998763 
1.9501106e+2, 2.1432412e+2, -799620.75, -959856.06, -2268.5405, 0.017957041, 0.06233909, -799588.6, 40042.027, 0.0, 10.000844, 9.998715 
1.9500974e+2, 2.2432326e+2, -663368.3, -755705.6, -10176.211, -0.0066971662, 0.07054454, -662260.1, 79379.72, 0.0, 10.000729, 9.999499 
1.9500859e+2, 2.3432256e+2, -635671.3, -686631.0, 9179.938, 0.002126092, 0.04030741, -634068.06, 9576.7705, 0.0, 10.000225, 9.999543 
1.9500735e+2, 2.4432187e+2, -624982.8, -709309.4, 12599.333, -0.00091593165, 0.05134483, -623140.56, -77488.88, 0.0, 9.999964, 9.998841 
1.9500591e+2, 2.5432125e+2, -523494.8, -616905.0, -3480.2144, -0.024407562, 0.10567254, -523365.3, -75704.86, 0.0, 10.000019, 9.9987755 
1.950047e+2, 2.6432037e+2, -401325.88, -469772.0, -10291.44, -0.022128005, 0.12656486, -399811.97, -50141.46, 0.0, 10.000024, 9.999111 
1.9500391e+2, 2.7431914e+2, -313002.66, -375071.97, 2822.0059, 0.02429411, 0.085847504, -312874.63, -61192.383, 0.0, 9.999951, 9.999123 
1.9500294e+2, 2.843181e+2, -238645.44, -314468.2, 9568.674, 0.050823975, 0.07938387, -237456.53, -83763.95, 0.0, 9.999902, 9.99889 
1.9500145e+2, 2.9431745e+2, -141967.13, -216404.08, 10606.224, 0.021413978, 0.12392127, -140485.38, -84786.48, 0.0000000023315327, 9.999888, 9.998897 
1.949991e+2, 3.0431634e+2, -34101.813, -81432.625, -15525.348, -0.074763805, 0.09645649, -29463.725, -29463.725, 0.0000014940416, 10.000046, 9.999416 
1.9499794e+2, 3.1431627e+2, 2675.978, -78228.68, 32015.688, -0.0077211843, 0.1489041, 13812.361, 13812.361, 0.00001627015, 10.0003605, 9.999286 
2.0502193e+2, 1.24331675e+2, -1549891.4, -1731676.6, 1863.4058, 0.0417829, 0.04644475, -1549872.3, 171683.75, 0.0005112227, 10.001546, 9.999137 
2.0502068e+2, 1.3433218e+2, -1435201.3, -1561116.4, 18834.482, -0.023994679, 0.13521582, -1432444.4, 191105.83, 0.00028397882, 10.001384, 9.999713 
2.0502008e+2, 1.4433047e+2, -1368607.8, -1525289.6, -7784.8325, -0.006565829, 0.009789255, -1368222.0, 157344.33, 0.000109345056, 10.0013685, 9.99929 
2.0501944e+2, 1.5433021e+2, -1262664.5, -1445473.8, 2383.5293, 0.033231102, 0.06549639, -1262633.4, 164935.48, 0.000021261263, 10.001519, 9.999092 
2.0501848e+2, 1.6432959e+2, -1157027.8, -1306410.9, 3861.1682, 0.049272895, 0.08016265, -1156928.0, 172646.28, 0.00000067965186, 10.0014105, 9.999428 
2.0501707e+2, 1.7432857e+2, -1121224.3, -1237232.9, -1389.3153, 0.027428217, 0.028786171, -1121207.6, 110375.12, 0.0, 10.000979, 9.999437 
2.0501567e+2, 1.843277e+2, -1069133.5, -1188415.8, -18084.4, 0.021959526, 0.012491121, -1066452.0, 67138.59, 0.0, 10.00078, 9.999197 
2.0501433e+2, 1.9432715e+2, -958476.25, -1088160.9, -26479.285, 0.040552355, 0.033231642, -953278.06, 82318.875, 0.0, 10.000885, 9.999162 
2.0501305e+2, 2.0432626e+2, -895528.1, -1046544.44, -4625.5625, 0.043986358, 0.047175445, -895386.6, 42220.4, 0.0, 10.000814, 9.998808 
2.0501183e+2, 2.1432503e+2, -842854.44, -974422.4, 12600.101, 0.026022943, 0.040985327, -841658.6, -2037.1039, 0.0, 10.000521, 9.998772 
2.0501044e+2, 2.243242e+2, -716067.5, -779782.1, -997.27625, 0.0087956935, 0.047111176, -716051.9, 25578.563, 0.0, 10.000361, 9.999512 
2.0500882e+2, 2.3432392e+2, -612478.1, -674291.9, -20865.393, -0.005965714, 0.058335755, -606094.25, 37537.457, 0.0, 10.00038, 9.999554 
2.0500739e+2, 2.4432331e+2, -576096.94, -693328.7, -18807.092, -0.012493323, 0.08112787, -573153.7, -27515.635, 0.0, 10.000333, 9.998774 
2.0500612e+2, 2.5432238e+2, -502299.06, -615067.4, -6944.3794, -0.012936152, 0.11057368, -501873.03, -54222.7, 0.0, 10.000201, 9.998701 
2.0500489e+2, 2.6432145e+2, -394883.72, -460013.03, -8745.363, -0.005844643, 0.12756681, -393729.88, -44068.996, 0.0, 10.000039, 9.999171 
2.0500377e+2, 2.743205e+2, -326218.47, -373723.7, -16741.453, 0.022117868, 0.109795354, -320911.44, -69242.13, 0.0, 9.999827, 9.999192 
2.050027e+2, 2.843194e+2, -254936.64, -324111.97, -9710.637, 0.042503703, 0.09478005, -253599.34, -99919.41, 0.0, 9.999797, 9.998875 
2.050014e+2, 2.9431832e+2, -127773.83, -212578.97, -2168.311, 0.022815347, 0.095919326, -127718.42, -72027.87, 0.000000000097020676, 10.0, 9.99887 
2.0499918e+2, 3.043176e+2, -17661.96, -63341.984, -24984.633, -0.075332664, 0.106661074, -6650.858, -6650.858, 0.00000072960836, 10.000114, 9.999509 
2.0499822e+2, 3.1431755e+2, -35402.086, -82908.36, 9775.629, 0.0018189488, 0.14961252, -33469.15, -33469.15, 0.00001031642, 10.000038, 9.999411 
2.1502306e+2, 1.2433281e+2, -1599189.3, -1834703.4, -7735.6504, -0.0016845136, -0.01667869, -1598935.5, 122604.766, 0.00045034575, 10.001548, 9.998429 
2.1502234e+2, 1.3433293e+2, -1485310.8, -1666276.5, 13861.61, 0.0019548167, 0.1040327, -1484255.1, 139286.31, 0.0002457903, 10.001389, 9.99899 
2.1502182e+2, 1.4433119e+2, -1350762.3, -1488833.0, -3300.7295, 0.029600572, 0.0033758706, -1350683.4, 174875.48, 0.00009091271, 10.001371, 9.999539 
2.1502055e+2, 1.5433095e+2, -1239606.6, -1397114.8, 8589.486, -0.007175744, 0.028223174, -1239139.6, 188420.28, 0.000015871614, 10.001516, 9.999426 
2.1501946e+2, 1.6433035e+2, -1162224.1, -1316887.9, -11317.937, 0.0055747028, 0.031399883, -1161400.3, 168164.31, 0.00000031009594, 10.00141, 9.999356 
2.1501853e+2, 1.7432936e+2, -1128317.5, -1252664.4, -17280.344, 0.07324589, -0.008129652, -1125960.8, 105613.055, 0.0, 10.000982, 9.9993305 
2.1501695e+2, 1.8432865e+2, -1081132.0, -1213453.5, -15654.086, 0.07003059, 0.0029495452, -1079305.3, 54276.152, 0.0, 10.000781, 9.999024 
2.1501462e+2, 1.9432837e+2, -970773.75, -1113440.0, -21957.621, -0.019320782, 0.07169566, -967470.75, 68115.555, 0.0, 10.000884, 9.998989 
2.1501306e+2, 2.0432757e+2, -868291.8, -989237.8, -14953.215, -0.03554101, 0.08568654, -866470.5, 71124.914, 0.0, 10.000812, 9.999203 
2.150125e+2, 2.1432617e+2, -812719.4, -911165.2, 2047.2273, 0.04170791, 0.018378537, -812676.8, 26932.738, 0.0, 10.000518, 9.9992075 
2.1501127e+2, 2.2432542e+2, -746659.9, -842411.7, -1561.2491, 0.056727123, 0.03066421, -746634.44, -5016.6265, 0.0, 10.000358, 9.9990835 
2.1500918e+2, 2.343256e+2, -647579.0, -746333.3, -19703.375, -0.0076552834, 0.13542713, -643792.94, -175.0008, 0.0, 10.000377, 9.999061 
2.1500768e+2, 2.4432488e+2, -559459.06, -658501.5, -24034.773, -0.016811768, 0.16001622, -553934.6, -8308.357, 0.0, 10.000331, 9.999014 
2.1500689e+2, 2.5432304e+2, -481167.9, -570827.2, -11554.571, 0.04176444, 0.07119649, -479702.78, -32058.42, 0.0, 10.000199, 9.999006 
2.150054e+2, 2.64322e+2, -406375.8, -483273.22, -16818.35, 0.040666874, 0.070686705, -402858.34, -53203.53, 0.0, 10.000036, 9.999013 
2.150031e+2, 2.7432206e+2, -340396.7, -402975.7, -24188.084, -0.028215135, 0.16666515, -332137.53, -80481.87, 0.0, 9.999826, 9.998992 
2.1500173e+2, 2.8432098e+2, -252429.53, -318439.13, -4253.798, -0.03387562, 0.16634125, -252156.53, -98490.41, 0.0, 9.999795, 9.998916 
2.150013e+2, 2.9431883e+2, -123533.305, -204053.05, 5993.8003, 0.012004717, 0.054445393, -123089.58, -67403.68, 0.0, 10.0, 9.998929 
2.1499944e+2, 3.0431825e+2, -17334.488, -60956.836, -26654.754, -0.059502892, 0.0731169, -4704.3613, -4704.3613, 0.0000002906552, 10.000109, 9.999528 
2.1499842e+2, 3.1431842e+2, -26784.238, -64634.52, 4368.764, 0.015974116, 0.1374855, -26286.531, -26286.531, 0.0000060416633, 10.000037, 9.9995365 
2.2502461e+2, 1.24333814e+2, -1604594.8, -1826318.1, -67592.055, 0.0034506645, -0.01573374, -1585614.3, 135916.02, 0.0003861587, 10.001467, 9.998527 
2.25024e+2, 1.3433371e+2, -1424458.6, -1624449.3, 19641.783, 0.011764707, 0.071913965, -1422547.8, 200984.36, 0.00020573656, 10.001756, 9.9991 
2.2502342e+2, 1.4433202e+2, -1317086.0, -1486486.9, 13741.031, 0.038233653, -0.025692862, -1315978.6, 209570.44, 0.00007189719, 10.001663, 9.999415 
2.2502172e+2, 1.543317e+2, -1310168.0, -1445586.9, -11134.845, -0.021029465, 0.0060439394, -1309258.5, 118293.23, 0.000010694928, 10.001095, 9.999296 
2.250204e+2, 1.6433117e+2, -1237703.1, -1353071.8, -41584.785, -0.015183147, 0.020377064, -1224276.5, 105280.26, 0.000000092361944, 10.00089, 9.999359 
2.2501948e+2, 1.7433035e+2, -1103139.5, -1238480.4, -39129.57, 0.06342924, -0.00085877633, -1092640.8, 138923.47, 0.0, 10.001146, 9.999349 
2.2501794e+2, 1.8432969e+2, -1021439.3, -1182780.5, -24522.482, 0.069571584, 0.014402479, -1017794.44, 115777.164, 0.0, 10.001183, 9.9990425 
2.250156e+2, 1.9432929e+2, -960944.2, -1106663.6, -17037.8, -0.01368486, 0.067771405, -958978.6, 76599.28, 0.0, 10.000942, 9.999008 
2.2501384e+2, 2.0432861e+2, -883818.5, -984070.1, -20313.328, -0.030295901, 0.08629151, -879858.94, 57727.1, 0.0, 10.000649, 9.999316 
2.2501288e+2, 2.1432762e+2, -836912.5, -909280.0, -28242.906, 0.03774068, 0.049577873, -827195.0, 12400.968, 0.0, 10.000294, 9.999328 
2.2501153e+2, 2.2432692e+2, -784295.2, -870913.1, -17878.836, 0.05557361, 0.0642379, -780749.94, -39146.14, 0.0, 10.000145, 9.99899 
2.2500968e+2, 2.3432665e+2, -671671.3, -770470.2, -7017.9336, 0.009640343, 0.13532664, -671175.3, -27566.72, 0.0, 10.000265, 9.998949 
2.2500816e+2, 2.4432577e+2, -560480.9, -644785.6, -6352.547, 0.002430296, 0.14647293, -560004.9, -14386.873, 0.0, 10.000263, 9.999141 
2.2500701e+2, 2.5432423e+2, -486139.9, -557317.5, -7454.855, 0.041048773, 0.07032268, -485367.5, -37734.816, 0.0, 10.000097, 9.999148 
2.250053e+2, 2.643233e+2, -413102.7, -499474.56, -13786.286, 0.025997728, 0.07582607, -410955.56, -61313.39, 0.0, 10.000047, 9.998897 
2.2500288e+2, 2.7432317e+2, -303286.34, -400135.97, -16702.848, -0.048254643, 0.16918576, -300486.7, -48841.434, 0.0, 10.000147, 9.9988575 
2.2500154e+2, 2.84322e+2, -211705.78, -290677.47, 6935.733, -0.044721738, 0.16297531, -211101.27, -57444.57, 0.0, 10.000039, 9.998989 
2.2500129e+2, 2.9431987e+2, -171526.61, -218829.89, 17114.385, 0.029896798, 0.04410511, -165984.03, -110308.48, 0.0, 9.999634, 9.999004 
2.249995e+2, 3.0431947e+2, -93411.766, -115705.77, -7419.4995, -0.04283828, 0.08676826, -91168.305, -91168.305, 0.000000085825576, 9.999661, 9.999368 
2.2499855e+2, 3.143189e+2, 5671.2974, -42572.754, 4734.4556, 0.015540013, 0.09551605, 6131.5254, 6131.5254, 0.0000031779714, 10.000233, 9.999595 
2.3502657e+2, 1.2433471e+2, -1541578.9, -1695860.6, -63543.26, 0.04944859, 0.052997597, -1518777.5, 202748.25, 0.00032267286, 10.001469, 9.999421 
2.3502567e+2, 1.3433455e+2, -1359700.1, -1488887.9, 30939.545, 0.0031449217, 0.0396397, -1352672.6, 270849.78, 0.0001666326, 10.00175, 10.000033 
2.3502488e+2, 1.4433292e+2, -1352477.5, -1559043.6, -5981.1626, 0.016788634, -0.07741807, -1352304.4, 173232.42, 0.00005400246, 10.001659, 9.9989195 
2.3502292e+2, 1.5433244e+2, -1351524.0, -1532753.0, -31980.207, -0.011096293, -0.0013054587, -1346046.3, 81498.34, 0.000006396683, 10.001101, 9.998696 
2.350213e+2, 1.6433196e+2, -1231000.3, -1340130.3, -34251.707, -0.017279342, 0.046833612, -1221140.8, 108410.13, 0.000000013163342, 10.000894, 9.999446 
2.3501995e+2, 1.7433153e+2, -1092986.0, -1217565.8, -28937.596, -0.003981347, 0.049993727, -1086592.4, 144961.97, 0.0, 10.001146, 9.999493 
2.350186e+2, 1.8433085e+2, -1007459.7, -1153024.0, -32657.738, 0.018438822, 0.046181355, -1000468.56, 133092.55, 0.0, 10.00118, 9.999248 
2.3501723e+2, 1.9432989e+2, -946422.94, -1076414.5, -25815.66, 0.055542003, 0.022627518, -941483.75, 94088.04, 0.0, 10.000941, 9.999216 
2.3501536e+2, 2.0432933e+2, -895674.75, -1007886.6, -33758.688, 0.05691089, 0.04970718, -886301.5, 51277.35, 0.0, 10.000647, 9.999154 
2.350129e+2, 2.1432938e+2, -850863.75, -937247.0, -41047.73, 0.011388535, 0.13387568, -834469.9, 5110.913, 0.0, 10.00029, 9.999138 
2.3501115e+2, 2.2432867e+2, -767943.1, -836279.9, -14901.328, 0.0029484353, 0.14764315, -764835.1, -23246.564, 0.0, 10.000141, 9.999229 
2.3501028e+2, 2.3432708e+2, -652167.0, -729693.94, -1847.3464, 0.0443538, 0.05875284, -652123.0, -8519.47, 0.0, 10.000264, 9.999229 
2.3500884e+2, 2.4432607e+2, -560343.56, -644554.06, -12290.906, 0.04319564, 0.0406515, -558586.3, -12973.068, 0.0, 10.000262, 9.999144 
2.3500653e+2, 2.5432593e+2, -488467.1, -561420.06, -13404.252, -0.017902639, 0.10767356, -486082.2, -38466.78, 0.0, 10.000093, 9.999122 
2.3500456e+2, 2.6432523e+2, -418517.38, -509815.4, -11538.852, -0.052294362, 0.14343368, -417081.6, -67458.555, 0.0, 10.000043, 9.998828 
2.3500311e+2, 2.7432382e+2, -307321.22, -408028.8, -12492.869, -0.04135246, 0.11705179, -305794.63, -54156.477, 0.0, 10.000145, 9.998804 
2.350021e+2, 2.843224e+2, -205080.69, -276666.34, -7046.811, 0.007198854, 0.084361546, -204393.6, -50741.91, 0.0, 10.000037, 9.999086 
2.3500137e+2, 2.943214e+2, -165230.0, -206353.61, 2559.9094, 0.07344357, 0.0638084, -165071.27, -109411.484, 0.0, 9.999636, 9.99909 
2.3499931e+2, 3.0432123e+2, -117455.88, -163881.94, 10839.911, -0.027464496, 0.14566536, -115049.62, -115049.62, 0.000000016806371, 9.999656, 9.99904 
2.3499857e+2, 3.1431913e+2, 3636.7773, -44886.977, 22346.127, -0.008476185, 0.029420605, 12359.565, 12359.565, 0.0000014346882, 10.000225, 9.999581 
2.450282e+2, 1.2433576e+2, -1526187.8, -1675123.3, -16646.693, 0.063545965, 0.07345847, -1524349.8, 197166.88, 0.00026299746, 10.001514, 9.999541 
2.4502718e+2, 1.343356e+2, -1402263.0, -1494932.3, 20206.953, -0.002329456, 0.047264203, -1398048.5, 225464.33, 0.0001305452, 10.001394, 10.000163 
2.4502638e+2, 1.4433415e+2, -1395378.8, -1576689.5, -41504.758, 0.017194359, -0.060478337, -1386329.4, 139195.9, 0.000038366878, 10.001351, 9.998948 
2.450244e+2, 1.543337e+2, -1309534.1, -1508767.1, -22415.36, 0.013428024, 0.013430587, -1307043.4, 120489.24, 0.000003303544, 10.001373, 9.998731 
2.4502258e+2, 1.6433312e+2, -1181122.1, -1324589.5, 5855.0894, 0.0039292546, 0.055149928, -1180883.6, 148656.13, 0.00000000018007511, 10.001273, 9.99937 
2.4502084e+2, 1.7433251e+2, -1114277.9, -1236836.6, -5978.2065, -0.025573008, 0.049146127, -1113986.9, 117558.28, 0.0, 10.00104, 9.999412 
2.450193e+2, 1.8433183e+2, -1048795.5, -1160335.8, -28587.102, -0.0128874695, 0.042854764, -1041895.6, 91656.43, 0.0, 10.000841, 9.999361 
2.4501806e+2, 1.9433104e+2, -975017.4, -1075532.9, -28686.246, 0.058421306, 0.024579024, -967406.8, 68153.695, 0.0, 10.000683, 9.999347 
2.4501617e+2, 2.0433053e+2, -902158.94, -1019481.9, -33223.44, 0.072933085, 0.053372517, -893404.06, 44162.98, 0.0, 10.000639, 9.999079 
2.4501343e+2, 2.1433046e+2, -791032.56, -918662.25, -34034.84, 0.012313969, 0.13482788, -782523.8, 57046.813, 0.0, 10.000744, 9.999047 
2.4501143e+2, 2.2432972e+2, -694078.44, -792244.56, -9305.307, -0.005921139, 0.14610046, -693204.2, 48374.633, 0.0, 10.000612, 9.999306 
2.4501039e+2, 2.3432815e+2, -658644.3, -722943.3, -11190.009, 0.032658104, 0.05294004, -656752.56, -13159.73, 0.0, 10.000176, 9.999318 
2.4500883e+2, 2.4432719e+2, -610105.44, -670256.2, -26451.055, 0.032353185, 0.034968507, -600128.5, -54526.582, 0.0, 9.999928, 9.999127 
2.4500649e+2, 2.543271e+2, -513596.6, -576304.75, -28045.938, -0.023459302, 0.109600894, -502883.44, -55279.848, 0.0, 9.999932, 9.999098 
2.4500458e+2, 2.6432642e+2, -434614.38, -520787.6, -18403.686, -0.049945455, 0.14691491, -430848.53, -81237.125, 0.0, 9.999947, 9.998798 
2.450033e+2, 2.743249e+2, -336743.72, -425812.28, -17979.365, -0.027896786, 0.113400124, -333251.34, -81623.64, 0.0, 9.999958, 9.998773 
2.4500223e+2, 2.843235e+2, -216818.69, -281091.66, -23371.1, 0.020972565, 0.08314319, -209219.02, -55577.875, 0.0, 9.999951, 9.999098 
2.4500118e+2, 2.9432264e+2, -120634.06, -184352.19, -21716.686, 0.07487172, 0.07796929, -113936.484, -58289.023, 0.0, 9.999942, 9.999093 
2.4499911e+2, 3.0432245e+2, -86846.66, -182120.83, 5736.035, -0.029933386, 0.17005636, -86502.56, -86502.56, 0.0000000018495133, 10.00001, 9.998743 
2.449989e+2, 3.1431973e+2, -10844.33, -48057.27, 12719.101, 0.009789724, 0.02263751, -6912.471, -6912.471, 0.00000052479436, 10.000109, 9.999617 
2.550295e+2, 1.2433693e+2, -1571984.4, -1768969.9, -25930.607, 0.04195006, 0.04294265, -1568628.1, 152875.42, 0.000209724, 10.001509, 9.9989 
2.5502855e+2, 1.3433687e+2, -1448220.0, -1592517.8, 16538.385, -0.00916604, 0.093383275, -1446348.8, 177154.86, 0.00009902971, 10.001403, 9.99949 
2.5502792e+2, 1.4433569e+2, -1355416.0, -1495098.0, -41807.45, 0.033623874, 0.024769954, -1343859.0, 181655.3, 0.000025643241, 10.001357, 9.999505 
2.5502613e+2, 1.5433542e+2, -1263075.8, -1411817.6, -21717.477, 0.049305078, 0.050422, -1259969.6, 167546.33, 0.0000014046367, 10.00137, 9.999397 
2.5502428e+2, 1.6433463e+2, -1198746.3, -1360094.8, -2939.2295, 0.045946587, 0.045722723, -1198692.8, 130830.6, 0.0, 10.001269, 9.999128 
2.550221e+2, 1.743333e+2, -1135778.9, -1282266.0, -14397.399, -0.0039866157, -0.002812927, -1134377.3, 97159.6, 0.0, 10.001043, 9.999099 
2.5502e+2, 1.843326e+2, -1046367.5, -1155633.4, -35002.613, -0.027635898, 0.004614241, -1036116.4, 97428.19, 0.0, 10.000843, 9.9993925 
2.550181e+2, 1.9433272e+2, -970998.8, -1066948.0, -34233.484, -0.0073659658, 0.072673894, -960037.06, 75507.266, 0.0, 10.000682, 9.999406 
2.5501624e+2, 2.043322e+2, -902269.2, -1018635.2, -30090.012, 0.015739681, 0.09624536, -894949.0, 42601.79, 0.0, 10.000635, 9.999086 
2.5501445e+2, 2.1433088e+2, -790995.9, -917596.4, -29479.186, 0.03882538, 0.05410235, -784468.1, 55097.227, 0.0, 10.00074, 9.999057 
2.5501236e+2, 2.2433007e+2, -700398.56, -804943.56, -24911.215, 0.026968852, 0.060183376, -694766.1, 46808.53, 0.0, 10.000609, 9.99922 
2.5500995e+2, 2.3432992e+2, -666259.4, -737627.1, -27228.855, -0.028121399, 0.11792789, -657057.3, -13480.57, 0.0, 10.000172, 9.99922 
2.550081e+2, 2.443292e+2, -612444.5, -674526.75, -27894.193, -0.03345073, 0.12988715, -601752.7, -56168.668, 0.0, 9.999927, 9.999099 
2.5500688e+2, 2.543278e+2, -514343.53, -577625.25, -27270.791, 0.022253662, 0.07598893, -504213.13, -56615.887, 0.0, 9.999932, 9.999088 
2.5500533e+2, 2.643268e+2, -434378.56, -521090.8, -18006.818, 0.031053279, 0.0855415, -430787.94, -81180.57, 0.0, 9.999949, 9.9987955 
2.5500342e+2, 2.7432635e+2, -337788.1, -428154.94, -17184.672, -0.011595536, 0.1579751, -334630.47, -83016.45, 0.0, 9.999958, 9.998757 
2.550019e+2, 2.843252e+2, -222625.14, -291804.53, -24801.652, -0.0073060403, 0.15936585, -214652.31, -61027.117, 0.0, 9.999947, 9.999026 
2.5500068e+2, 2.9432362e+2, -125966.87, -194008.83, -21393.334, 0.029805586, 0.08646529, -119799.516, -64160.84, 0.0, 9.999936, 9.999029 
2.549989e+2, 3.0432308e+2, -106253.88, -222106.92, 10113.074, -0.053440757, 0.15926652, -105377.72, -105377.72, 0.000000000039700524, 10.000007, 9.998471 
2.5499958e+2, 3.1432068e+2, -4844.1685, -36927.48, 12592.448, 0.06392873, 0.07199716, -492.08762, -492.08762, 0.00000015406697, 10.0001135, 9.999692 
2.6503116e+2, 1.2433833e+2, -1514253.9, -1775628.5, -38976.992, 0.031153016, 0.031362593, -1508565.3, 212923.53, 0.0001649167, 10.002052, 9.998593 
2.650301e+2, 1.3433824e+2, -1451742.3, -1631855.3, 32510.941, -0.00047765658, 0.11140682, -1446053.6, 177438.27, 0.000073287774, 10.00154, 9.999154 
2.6502943e+2, 1.4433716e+2, -1354978.8, -1474789.9, -11485.449, 0.053654246, 0.062143534, -1353887.6, 171614.7, 0.000016155976, 10.001274, 9.999685 
2.6502746e+2, 1.543368e+2, -1250503.9, -1379913.3, -24875.03, 0.046060655, 0.057020947, -1245887.1, 181615.86, 0.00000046134082, 10.001347, 9.999628 
2.6502553e+2, 1.6433597e+2, -1194571.4, -1359119.5, -23889.266, 0.039371364, 0.036933586, -1191173.4, 138336.56, 0.0, 10.001303, 9.999119 
2.650233e+2, 1.7433466e+2, -1130145.4, -1282564.8, -15701.568, 0.008106275, -0.0063300086, -1128544.6, 102978.95, 0.0, 10.001096, 9.999071 
2.6502097e+2, 1.84334e+2, -1036459.4, -1150429.6, -22719.52, -0.01779718, 0.0067143217, -1032097.3, 101433.81, 0.0, 10.00091, 9.999396 
2.650186e+2, 1.943342e+2, -958273.44, -1060043.3, -26639.156, -0.026842145, 0.08039352, -951722.1, 83808.08, 0.0, 10.000767, 9.999413 
2.6501665e+2, 2.0433363e+2, -907191.8, -1020336.94, -20197.688, -0.006948013, 0.09930934, -903694.44, 33842.46, 0.0, 10.000598, 9.999093 
2.6501507e+2, 2.1433213e+2, -840686.1, -940802.1, -19451.367, 0.04604815, 0.038391624, -837039.75, 2513.1167, 0.0, 10.000396, 9.9990635 
2.6501295e+2, 2.2433132e+2, -763384.6, -849290.1, -23202.79, 0.04327187, 0.048986048, -757518.25, -15955.81, 0.0, 10.000238, 9.999094 
2.650101e+2, 2.3433138e+2, -680071.75, -759391.6, -30029.736, -0.03030779, 0.1426078, -669985.4, -26422.094, 0.0, 10.000142, 9.999085 
2.6500803e+2, 2.4433064e+2, -582483.25, -664060.44, -19177.105, -0.04326665, 0.16330566, -578200.0, -32629.096, 0.0, 10.00015, 9.9990635 
2.6500696e+2, 2.5432894e+2, -463857.4, -556083.3, -19179.885, 0.019015554, 0.08056858, -460027.66, -12440.931, 0.0, 10.000292, 9.9990635 
2.6500544e+2, 2.643278e+2, -402647.28, -510044.6, -20953.215, 0.03390514, 0.07664453, -398704.1, -49106.086, 0.0, 10.000185, 9.998758 
2.6500335e+2, 2.743274e+2, -367886.53, -446789.5, -23526.568, -0.0038525772, 0.15879115, -361404.16, -109800.59, 0.0, 9.99977, 9.998719 
2.6500177e+2, 2.8432623e+2, -267014.38, -331833.53, -20284.121, -0.002899109, 0.1645588, -261190.13, -107574.76, 0.0, 9.999724, 9.9988575 
2.650006e+2, 2.9432434e+2, -113177.78, -208228.9, -25972.959, 0.021305654, 0.08405271, -106543.64, -50911.39, 0.0, 10.000113, 9.998847 
2.6499885e+2, 3.0432355e+2, -98587.77, -216112.95, -2906.27, -0.061477695, 0.140389, -98515.945, -98515.945, 0.0, 10.00005, 9.998491 
2.6499948e+2, 3.1432164e+2, -76833.625, -31170.81, 14975.705, 0.076930344, 0.09570062, -26697.549, -26697.549, 0.000000038019415, 9.999449, 10.000049 
2.7503318e+2, 1.2433994e+2, -1511808.3, -1770273.1, -66299.805, 0.024164086, 0.040192395, -1495793.8, 225678.8, 0.00012966055, 10.002051, 9.99863 
2.7503183e+2, 1.3433969e+2, -1451932.9, -1631117.8, 12646.1875, 0.019700442, 0.102633625, -1451044.8, 172432.69, 0.00005392466, 10.001535, 9.999162 
2.750309e+2, 1.4433852e+2, -1369038.5, -1503113.9, -10928.301, 0.0731841, 0.05241601, -1368153.6, 157335.64, 0.0000098627, 10.00127, 9.999493 
2.7502835e+2, 1.543378e+2, -1264500.1, -1409652.8, -21610.66, 0.00072638394, 0.032718547, -1261351.0, 166142.88, 0.00000011248763, 10.001349, 9.999423 
2.7502623e+2, 1.6433713e+2, -1178793.8, -1327014.4, -31659.105, -0.018808354, 0.028080396, -1172314.8, 157184.78, 0.0, 10.001306, 9.999338 
2.7502438e+2, 1.7433661e+2, -1112067.8, -1244909.1, -23510.436, 0.0078070224, 0.038472172, -1108029.6, 123475.875, 0.0, 10.001096, 9.9993305 
2.7502218e+2, 1.8433605e+2, -1039072.0, -1154956.5, -28809.799, 0.013209028, 0.049100943, -1032304.8, 101206.89, 0.0, 10.000906, 9.999367 
2.7501965e+2, 1.9433545e+2, -962149.5, -1067813.9, -31768.22, -0.0021564623, 0.048835155, -953333.8, 82184.34, 0.0, 10.000765, 9.99936 
2.7501732e+2, 2.0433483e+2, -906592.4, -1018360.7, -27925.121, 0.0027520151, 0.06303676, -900003.75, 37521.67, 0.0, 10.000595, 9.999108 
2.7501532e+2, 2.143342e+2, -839912.94, -938442.3, -26454.574, 0.03146552, 0.087112896, -833259.4, 6273.881, 0.0, 10.000392, 9.999082 
2.7501315e+2, 2.2433344e+2, -775987.7, -874347.94, -27269.984, 0.03968785, 0.11164135, -768933.2, -27390.87, 0.0, 10.000234, 9.998924 
2.750108e+2, 2.3433255e+2, -692440.75, -784980.1, -33087.516, 0.024736978, 0.12704343, -681827.5, -38274.95, 0.0, 10.000142, 9.998909 
2.7500865e+2, 2.4433157e+2, -585304.8, -670307.94, -14890.031, 0.0011005029, 0.13473552, -582772.0, -37209.31, 0.0, 10.000152, 9.99902 
2.7500668e+2, 2.5433055e+2, -467288.78, -562475.8, -13569.118, -0.037063807, 0.12354265, -465392.25, -17820.047, 0.0, 10.000288, 9.999022 
2.7500483e+2, 2.6432937e+2, -407889.84, -519634.34, -35939.83, -0.045621302, 0.1211009, -397328.84, -47745.527, 0.0, 10.00018, 9.998694 
2.750031e+2, 2.7432802e+2, -372167.2, -454679.47, -38394.793, -0.006871199, 0.11562049, -357065.28, -105468.95, 0.0, 9.999766, 9.998666 
2.7500185e+2, 2.8432643e+2, -286323.78, -372066.94, -7407.402, 0.032295737, 0.09730994, -285688.56, -132076.75, 0.0, 9.999723, 9.998582 
2.75001e+2, 2.943248e+2, -134160.28, -252644.31, -10886.049, 0.04536419, 0.069856904, -133168.39, -77540.055, 0.0, 10.000114, 9.998541 
2.749989e+2, 3.0432385e+2, -77128.734, -171599.5, -24276.201, -0.05942335, 0.1135522, -71255.59, -71255.59, 0.0, 10.000051, 9.9987955 
2.7499858e+2, 3.1432247e+2, -33954.703, 59407.633, -13225.8, 0.039622597, 0.08786875, 61245.05, 61245.05, 0.00000000643165, 9.999442, 10.000673 
2.8503513e+2, 1.243413e+2, -1641721.0, -1808040.6, -82036.78, 0.06355173, 0.04140674, -1608066.5, 113393.69, 0.00010364884, 10.001054, 9.998852 
2.8503332e+2, 1.3434112e+2, -1420677.5, -1592100.3, 16371.451, 0.009990881, 0.08886353, -1419128.0, 204335.6, 0.000040612387, 10.001647, 9.999376 
2.850322e+2, 1.4434011e+2, -1296854.6, -1478885.1, -2578.7375, 0.0510064, 0.048941933, -1296818.1, 228655.47, 0.0000062724685, 10.001812, 9.999397 
2.8502953e+2, 1.5433934e+2, -1267157.3, -1422956.0, -7927.511, -0.018050475, 0.033733644, -1266754.9, 160724.89, 0.000000028346124, 10.001384, 9.999315 
2.850273e+2, 1.6433878e+2, -1206937.0, -1322704.1, -16265.921, -0.030159589, 0.039098907, -1204695.0, 124789.73, 0.0, 10.001037, 9.999497 
2.8502536e+2, 1.7433862e+2, -1138447.1, -1237267.8, -15002.151, 0.0077520506, 0.067587525, -1136219.8, 95266.94, 0.0, 10.000828, 9.999512 
2.850231e+2, 1.843381e+2, -1071231.1, -1177399.8, -19018.57, 0.022737734, 0.07471426, -1067927.1, 65565.375, 0.0, 10.000717, 9.999304 
2.8502053e+2, 1.9433711e+2, -973402.7, -1082482.9, -24768.398, 0.013307917, 0.044179793, -968042.06, 67460.7, 0.0, 10.000728, 9.999277 
2.8501806e+2, 2.0433642e+2, -890353.9, -1009027.4, -24413.11, 0.0129209375, 0.056601845, -885527.94, 51982.58, 0.0, 10.000699, 9.999123 
2.8501576e+2, 2.1433617e+2, -805383.1, -918921.8, -23812.371, 0.021886548, 0.11544957, -800591.25, 38923.22, 0.0, 10.000618, 9.999106 
2.8501344e+2, 2.2433537e+2, -733494.75, -862695.8, -17121.195, 0.026642349, 0.13788912, -731264.4, 10259.2295, 0.0, 10.000564, 9.998846 
2.8501117e+2, 2.3433389e+2, -639785.4, -769156.8, -15937.704, 0.02906283, 0.1035612, -637850.94, 5688.2065, 0.0, 10.000544, 9.998825 
2.85009e+2, 2.4433278e+2, -567897.1, -671705.5, 833.53955, 0.013172022, 0.10580847, -567890.44, -22339.719, 0.0, 10.000313, 9.998933 
2.850068e+2, 2.5433218e+2, -543055.6, -608643.6, -2731.345, -0.030667234, 0.14722888, -542942.06, -95385.414, 0.0, 9.999809, 9.998935 
2.8500476e+2, 2.64331e+2, -468536.5, -548575.25, -15443.007, -0.048899375, 0.15057293, -465660.22, -116092.66, 0.0, 9.999764, 9.998696 
2.8500295e+2, 2.7432913e+2, -294618.6, -415743.03, -13065.73, -0.023690203, 0.09056095, -293225.22, -41640.418, 0.0, 10.000293, 9.99868 
2.8500178e+2, 2.8432745e+2, -208287.28, -339311.94, 22366.246, 0.021978017, 0.06308988, -204574.52, -50973.684, 0.0, 10.000281, 9.998538 
2.8500104e+2, 2.9432625e+2, -213255.67, -295919.75, 36147.344, 0.067785434, 0.081455864, -199678.98, -144065.28, 0.0, 9.999597, 9.998492 
2.8499886e+2, 3.0432495e+2, -165154.55, -209323.25, 27554.348, -0.03658061, 0.0926142, -151926.58, -151926.58, 0.0, 9.999427, 9.998836 
2.84998e+2, 3.143237e+2, 40387.777, 112683.6, 6937.063, 0.014904401, 0.07262829, 113343.22, 113343.22, 0.00000000043435586, 9.999876, 10.000833 
2.9503697e+2, 1.2434243e+2, -1613137.0, -1749965.1, -67259.93, 0.14052328, 0.03439603, -1585611.5, 135839.95, 0.000085497144, 10.00106, 9.999248 
2.9503456e+2, 1.3434254e+2, -1391887.5, -1532431.4, 39465.277, -0.03170695, 0.069046274, -1381563.9, 241886.16, 0.000032281903, 10.001648, 9.999785 
2.950334e+2, 1.4434196e+2, -1297334.1, -1479490.3, -16607.89, -0.014398124, 0.05148029, -1295832.4, 229622.9, 0.0000046245973, 10.00181, 9.999394 
2.9503095e+2, 1.5434143e+2, -1268661.3, -1425334.4, -24153.738, -0.015355588, 0.06183245, -1265022.1, 162438.38, 0.00000001715619, 10.001381, 9.9993 
2.9502863e+2, 1.6434096e+2, -1200344.1, -1308371.0, -25443.26, -0.00045779493, 0.07180549, -1194651.5, 134813.53, 0.0, 10.001034, 9.999598 
2.9502615e+2, 1.743407e+2, -1131491.4, -1222207.9, -22433.898, 0.0060960297, 0.08016548, -1126246.8, 105220.55, 0.0, 10.000825, 9.999616 
2.9502368e+2, 1.8434013e+2, -1079156.3, -1193104.4, -19235.11, 0.009221019, 0.08272276, -1075996.9, 57476.52, 0.0, 10.000713, 9.999197 
2.950213e+2, 1.9433917e+2, -981839.6, -1099757.9, -23877.504, 0.017610723, 0.06591908, -977188.1, 58296.016, 0.0, 10.000727, 9.99916 
2.9501885e+2, 2.0433845e+2, -890072.9, -1007366.9, -27442.55, 0.021001805, 0.07949899, -883969.9, 53522.426, 0.0, 10.000695, 9.999136 
2.950163e+2, 2.1433806e+2, -804074.9, -915652.0, -26310.486, 0.015425163, 0.12330963, -798181.94, 41314.69, 0.0, 10.000615, 9.999131 
2.9501373e+2, 2.2433709e+2, -732798.8, -860409.7, -18422.459, 0.0016684994, 0.12772788, -730192.5, 11314.002, 0.0, 10.00056, 9.998863 
2.9501122e+2, 2.3433542e+2, -639226.2, -767285.06, -16206.748, -0.019754067, 0.07215967, -637206.94, 6316.1147, 0.0, 10.000541, 9.998839 
2.9500908e+2, 2.4433428e+2, -577577.4, -690759.0, -17242.55, -0.009902443, 0.076717734, -575008.8, -29473.898, 0.0, 10.000308, 9.998804 
2.950073e+2, 2.5433385e+2, -552911.8, -628715.25, -21051.934, 0.03651513, 0.15085667, -547457.75, -99917.6, 0.0, 9.999808, 9.998797 
2.9500526e+2, 2.6433277e+2, -464578.53, -540150.4, 1554.1873, 0.022872154, 0.16394305, -464546.56, -114995.57, 0.0, 9.9997635, 9.998754 
2.950029e+2, 2.7433074e+2, -289563.03, -405005.13, 7076.115, -0.05899985, 0.08364067, -289130.9, -37561.855, 0.0, 10.000292, 9.9987545 
2.9500145e+2, 2.843293e+2, -195339.78, -311985.88, -1444.8837, -0.039100166, 0.06285071, -195321.89, -41739.438, 0.0, 10.00028, 9.998726 
2.9500082e+2, 2.943286e+2, -199927.83, -266544.7, 10989.179, 0.08570593, 0.118820466, -198161.84, -142573.38, 0.0, 9.99959, 9.998697 
2.949987e+2, 3.043268e+2, -181884.42, -242743.25, 41748.83, 0.005650491, 0.07764208, -160652.3, -160652.3, 0.0, 9.999421, 9.99861 
2.949977e+2, 3.1432503e+2, 20991.656, 71178.12, 20064.047, -0.0044223503, 0.034886666, 78213.32, 78213.32, 0.0, 9.999881, 10.000545 
3.0503827e+2, 1.2434478e+2, -1490717.9, -1689940.0, 5192.039, 0.123104185, 0.048444826, -1490582.6, 230846.61, 0.000073591786, 10.0019, 9.999254 
3.050359e+2, 1.3434476e+2, -1436381.5, -1557433.4, 84053.35, -0.049090214, 0.07182532, -1393329.8, 230098.98, 0.000027638554, 10.001358, 9.999754 
3.0503488e+2, 1.4434429e+2, -1400948.6, -1526043.6, 6181.6665, -0.009393054, 0.064194545, -1400644.0, 124788.95, 0.000004191702, 10.001086, 9.999424 
3.0503234e+2, 1.5434377e+2, -1300209.3, -1436374.0, -62.286686, -0.0010413711, 0.07345983, -1300209.3, 127228.984, 0.000000032166714, 10.001147, 9.999337 
3.0502984e+2, 1.6434324e+2, -1187990.4, -1307146.4, -2564.9548, 0.01271635, 0.078280374, -1187935.1, 141508.31, 0.0, 10.001141, 9.999554 
3.05027e+2, 1.7434284e+2, -1101895.8, -1213684.3, -12248.884, -0.0030230153, 0.077342, -1100569.4, 130877.66, 0.0, 10.001054, 9.999565 
3.0502433e+2, 1.8434228e+2, -1047872.1, -1176654.8, -7976.8965, -0.007333438, 0.0833063, -1047379.94, 86072.81, 0.0, 10.000923, 9.999209 
3.0502203e+2, 1.9434154e+2, -976851.4, -1094339.8, -2793.0125, 0.015252366, 0.08653677, -976785.0, 58676.16, 0.0, 10.000751, 9.999184 
3.050196e+2, 2.0434074e+2, -897666.7, -1019268.06, -850.47485, 0.024945145, 0.096433066, -897660.75, 39809.04, 0.0, 10.00068, 9.999061 
3.0501693e+2, 2.1433996e+2, -791974.7, -919068.94, -8136.2554, 0.013168503, 0.107931465, -791455.94, 48022.117, 0.0, 10.000738, 9.999048 
3.0501428e+2, 2.243389e+2, -726157.6, -862484.75, -11425.13, -0.0022600114, 0.10879659, -725206.75, 16282.184, 0.0, 10.000627, 9.998817 
3.0501166e+2, 2.3433751e+2, -677638.0, -790247.9, -15099.658, -0.01977881, 0.08644805, -675648.5, -32145.74, 0.0, 10.000297, 9.998799 
3.0500937e+2, 2.4433637e+2, -599375.5, -703492.56, -14207.017, -0.0034315826, 0.09368498, -597471.7, -51957.234, 0.0, 10.000169, 9.998784 
3.0500752e+2, 2.5433555e+2, -482130.5, -596475.7, -9417.918, 0.05374608, 0.13049026, -481360.0, -33836.98, 0.0, 10.000301, 9.998781 
3.0500546e+2, 2.6433438e+2, -397410.75, -510429.3, 26718.846, 0.044999413, 0.13832518, -391412.47, -41877.98, 0.0, 10.0002365, 9.99873 
3.050032e+2, 2.7433273e+2, -345766.72, -434826.5, 24236.238, -0.040299878, 0.09705827, -339598.4, -88049.01, 0.0, 9.99992, 9.998728 
3.050016e+2, 2.8433138e+2, -249705.67, -337525.3, -3891.8665, -0.032941278, 0.09082822, -249533.53, -95972.05, 0.0, 9.999905, 9.998732 
3.050006e+2, 2.943305e+2, -101595.83, -218139.67, -7697.7617, 0.07118545, 0.12395549, -101089.586, -45520.51, 0.0, 10.00026, 9.998708 
3.0499834e+2, 3.0432826e+2, -82723.97, -200751.95, 23493.078, -0.007732519, 0.03995858, -78219.66, -78219.66, 0.0, 10.000127, 9.998558 
3.0499732e+2, 3.1432712e+2, -71251.93, 3190.5764, 8955.172, -0.0018445562, 0.06328785, 4252.698, 4252.698, 0.0, 9.99935, 10.000333 
3.1503907e+2, 1.2434837e+2, -1517895.5, -1746259.5, -20814.232, 0.01052262, 0.0843328, -1516013.9, 205379.39, 0.00006650563, 10.001898, 9.998869 
3.1503722e+2, 1.3434781e+2, -1467427.0, -1623125.9, 64847.383, -0.051361267, 0.09917881, -1443956.5, 179442.7, 0.000025576577, 10.001364, 9.999301 
3.1503662e+2, 1.4434709e+2, -1396703.4, -1518552.1, 6557.282, 0.05532269, 0.089299336, -1396351.5, 129054.61, 0.000004447986, 10.001091, 9.999474 
3.1503376e+2, 1.5434635e+2, -1294929.0, -1424301.1, 2762.3977, 0.0235805, 0.06720174, -1294870.1, 132543.0, 0.00000006594377, 10.0011425, 9.999422 
3.1503093e+2, 1.6434562e+2, -1202657.1, -1336280.1, -5967.12, 0.008685175, 0.057807207, -1202391.3, 127028.664, 0.0, 10.001135, 9.999356 
3.1502786e+2, 1.7434505e+2, -1117181.4, -1245190.6, -15179.525, -0.023420248, 0.060365934, -1115406.0, 116019.58, 0.0, 10.001053, 9.999349 
3.1502503e+2, 1.8434456e+2, -1038675.5, -1157519.0, -14776.766, -0.032219056, 0.07859082, -1036865.75, 96564.66, 0.0, 10.000922, 9.999342 
3.1502268e+2, 1.9434421e+2, -966032.5, -1071428.4, -8838.861, 0.0044567715, 0.104853556, -965296.4, 70137.74, 0.0, 10.000748, 9.999344 
3.1502023e+2, 2.0434333e+2, -910168.1, -1043535.06, 584.14746, 0.022700457, 0.10655858, -910165.56, 27277.611, 0.0, 10.000672, 9.998898 
3.1501767e+2, 2.1434188e+2, -805769.8, -946769.2, -5290.8506, 0.012783852, 0.06899126, -805571.56, 33887.215, 0.0, 10.000733, 9.99886 
3.1501508e+2, 2.2434078e+2, -734316.3, -878596.8, -23078.775, 0.012227445, 0.080836244, -730714.6, 10756.245, 0.0, 10.000624, 9.998709 
3.1501243e+2, 2.3434016e+2, -684879.56, -805286.4, -27018.71, 0.027012095, 0.14574134, -679094.6, -35616.402, 0.0, 10.000297, 9.998696 
3.150099e+2, 2.4433903e+2, -593409.1, -690666.94, -10925.664, 0.030378416, 0.15590903, -592196.9, -46707.344, 0.0, 10.000167, 9.998873 
3.1500745e+2, 2.5433725e+2, -474591.8, -580326.94, -4148.564, 0.01691479, 0.08592479, -474429.3, -26923.941, 0.0, 10.000299, 9.998894 
3.150054e+2, 2.643359e+2, -405367.97, -526505.5, 15407.169, 0.014149866, 0.07419839, -403439.06, -53921.07, 0.0, 10.000235, 9.99862 
3.150038e+2, 2.7433512e+2, -355401.94, -453712.28, 12984.453, 0.030200321, 0.13045001, -353715.9, -102189.98, 0.0, 9.999915, 9.9986 
3.1500223e+2, 2.8433383e+2, -263781.88, -364975.66, 7191.224, 0.03956489, 0.14637044, -263273.4, -109735.31, 0.0, 9.999897, 9.998547 
3.1500036e+2, 2.943319e+2, -113828.04, -244081.02, 6263.141, 0.019099806, 0.09582246, -113527.57, -57971.895, 0.0, 10.000263, 9.998528 
3.1499773e+2, 3.043293e+2, -74053.9, -184072.28, -3632.0042, -0.08202191, -0.021088434, -73934.125, -73934.125, 0.0, 10.000132, 9.998671 
3.1499687e+2, 3.1432974e+2, -80745.93, -14690.257, -25124.447, 0.014722166, 0.14822806, -6220.192, -6220.192, 0.0, 9.999341, 10.000215 
3.250405e+2, 1.2435147e+2, -1582122.8, -1772655.1, -53718.465, -0.009922531, 0.09736202, -1568021.1, 153341.63, 0.00006287029, 10.001441, 9.998906 
3.2503858e+2, 1.3435075e+2, -1460833.3, -1621174.5, 68870.29, -0.05381668, 0.09735029, -1435313.5, 188056.63, 0.000025189593, 10.001414, 9.9992895 
3.2503808e+2, 1.4435e+2, -1367587.6, -1521258.9, 29682.426, 0.07674457, 0.09277389, -1362053.6, 163323.94, 0.0000050024137, 10.001364, 9.999323 
3.2503486e+2, 1.5434907e+2, -1293104.0, -1440343.9, 6900.119, 0.016603803, 0.06730258, -1292781.4, 134605.34, 0.000000115129794, 10.001227, 9.99927 
3.2503194e+2, 1.6434824e+2, -1213827.6, -1345420.8, -6668.9736, -0.0047296216, 0.056808688, -1213490.5, 115904.02, 0.0, 10.001076, 9.999322 
3.250289e+2, 1.7434768e+2, -1137968.0, -1257406.5, -2782.2773, -0.016500106, 0.06272551, -1137903.3, 93496.36, 0.0, 10.000921, 9.999327 
3.25026e+2, 1.8434708e+2, -1057374.6, -1172032.6, 295.78366, -0.01975501, 0.072747886, -1057373.9, 76031.31, 0.0, 10.000818, 9.999291 
3.2502338e+2, 1.9434646e+2, -963465.44, -1076351.3, -10671.367, -0.0005592507, 0.07763048, -962465.5, 72945.79, 0.0, 10.000791, 9.9992895 
3.2502085e+2, 2.0434557e+2, -905945.3, -1046368.3, -2400.3325, 0.013773159, 0.08191122, -905904.3, 31516.373, 0.0, 10.000721, 9.998856 
3.250184e+2, 2.143444e+2, -828963.25, -961612.1, 2007.5925, 0.018143816, 0.077699855, -828932.9, 10501.001, 0.0, 10.000591, 9.998827 
3.250158e+2, 2.2434337e+2, -743189.4, -881011.0, -7485.299, 0.027982594, 0.09885422, -742784.0, -1338.6954, 0.0, 10.000556, 9.998725 
3.250131e+2, 2.3434258e+2, -632927.4, -777970.3, -2915.6826, 0.0474417, 0.14303043, -632868.8, 10585.31, 0.0, 10.000644, 9.998717 
3.2501042e+2, 2.4434133e+2, -528261.0, -676761.94, 17105.188, 0.041268308, 0.14696835, -526316.2, 19150.346, 0.0, 10.0006895, 9.998717 
3.2500774e+2, 2.5433952e+2, -431154.88, -578399.7, 2454.0112, -0.0005510617, 0.089661255, -431114.0, 16369.193, 0.0, 10.00068, 9.998724 
3.2500565e+2, 2.6433802e+2, -355636.5, -506918.6, 2568.9768, -0.003713085, 0.07420515, -355592.9, -6095.6177, 0.0, 10.000595, 9.998582 
3.250042e+2, 2.7433693e+2, -284302.13, -422638.78, 6015.816, 0.04895823, 0.105922036, -284041.03, -32533.488, 0.0, 10.000416, 9.998573 
3.250025e+2, 2.8433567e+2, -217160.66, -339037.84, 24054.236, 0.06335171, 0.12397895, -212584.98, -59065.527, 0.0, 10.000202, 9.998578 
3.2500035e+2, 2.9433417e+2, -161418.06, -263161.8, 38851.043, 0.008974657, 0.10988969, -148279.39, -92745.73, 0.0, 9.99992, 9.998562 
3.2499754e+2, 3.0433157e+2, -118621.56, -191117.11, 23739.14, -0.09585568, -0.01173439, -111539.81, -111539.81, 0.0, 9.9997635, 9.998799 
3.2499644e+2, 3.1433204e+2, -32268.63, -13574.2, -5182.0273, 0.017167814, 0.14680065, -12233.86, -12233.86, 0.0, 9.999767, 10.000018 
3.3504254e+2, 1.2435413e+2, -1550500.4, -1709273.1, -60709.91, 0.04555488, 0.090377934, -1529947.3, 191389.9, 0.000061273975, 10.00145, 9.999337 
3.3503997e+2, 1.3435361e+2, -1432544.9, -1561086.9, 69367.25, -0.055394106, 0.06673078, -1402250.6, 221090.77, 0.000025556885, 10.001408, 9.999705 
3.3503926e+2, 1.4435305e+2, -1392884.5, -1572596.0, 25087.146, 0.056425016, 0.074993916, -1389448.1, 135898.83, 0.0000055599335, 10.001359, 9.998973 
3.3503565e+2, 1.5435198e+2, -1320094.0, -1496478.3, 2635.2551, -0.029832039, 0.075332575, -1320054.6, 107304.234, 0.00000016881297, 10.001229, 9.998884 
3.3503267e+2, 1.6435114e+2, -1204178.5, -1326521.4, -12864.028, -0.036963787, 0.077607214, -1202840.6, 126526.52, 0.0, 10.001079, 9.999451 
3.3503017e+2, 1.7435072e+2, -1126572.4, -1233462.3, -7964.347, 0.017060442, 0.08247939, -1125982.1, 105387.23, 0.0, 10.000919, 9.999494 
3.350273e+2, 1.843498e+2, -1074907.1, -1207034.6, -1352.8353, 0.028294297, 0.06442188, -1074893.3, 58484.13, 0.0, 10.000813, 9.999054 
3.3502418e+2, 1.9434828e+2, -982934.8, -1116507.1, -11096.484, -0.0027816521, 0.0051531973, -982019.25, 53373.543, 0.0, 10.000789, 9.999015 
3.3502138e+2, 2.0434743e+2, -900756.56, -1034657.94, -7253.34, -0.0053062295, 0.02382549, -900364.8, 37037.434, 0.0, 10.000716, 9.998939 
3.3501908e+2, 2.143475e+2, -821364.9, -945670.56, -2218.5906, 0.026772711, 0.13318752, -821325.3, 18078.34, 0.0, 10.000589, 9.998938 
3.3501652e+2, 2.2434668e+2, -733762.1, -860732.75, -5198.27, 0.042281806, 0.16220665, -733549.7, 7862.813, 0.0, 10.000552, 9.998866 
3.3501366e+2, 2.3434475e+2, -622511.56, -756201.75, 865.1776, 0.03931117, 0.07824707, -622505.94, 20924.607, 0.0, 10.000643, 9.998867 
3.3501095e+2, 2.4434324e+2, -557062.06, -736103.9, 16717.553, 0.026810415, 0.06728615, -555514.5, -10068.836, 0.0, 10.000688, 9.99831 
3.3500844e+2, 2.543423e+2, -463172.78, -644119.5, 2688.7993, -0.0010436344, 0.1417953, -463132.84, -15676.336, 0.0, 10.000677, 9.998274 
3.3500618e+2, 2.6434067e+2, -354247.47, -502989.34, -4571.9897, -0.009841462, 0.13777623, -354107.06, -4634.6514, 0.0, 10.00059, 9.998611 
3.3500424e+2, 2.743382e+2, -278660.03, -410821.4, -461.33798, 0.011763794, 0.022461457, -278658.44, -27164.104, 0.0, 10.000416, 9.998654 
3.3500242e+2, 2.8433695e+2, -200338.11, -304002.94, 13307.074, 0.033999473, 0.023520516, -198657.19, -45151.586, 0.0, 10.000201, 9.998819 
3.3500054e+2, 2.9433724e+2, -144613.19, -226660.14, 29159.773, 0.037334047, 0.16672094, -135305.58, -79802.625, 0.0, 9.999913, 9.998816 
3.3499777e+2, 3.0433512e+2, -110347.25, -171977.7, 21987.268, -0.051216833, 0.06778755, -103307.25, -103307.25, 0.0, 9.999756, 9.998935 
3.34996e+2, 3.1433395e+2, -49577.195, -49444.6, -7181.54, -0.0024646076, 0.05354727, -42329.05, -42329.05, 0.0, 9.999768, 9.999771 
3.4504384e+2, 1.243568e+2, -1627688.1, -1743438.9, -44852.26, 0.0583669, 0.061224878, -1612342.6, 108967.51, 0.000060228966, 10.000908, 9.999363 
3.4504113e+2, 1.343564e+2, -1470497.9, -1583314.6, 55573.74, -0.069021694, 0.053548038, -1447720.8, 175593.22, 0.000025763518, 10.001162, 9.999672 
3.4504056e+2, 1.4435606e+2, -1395152.5, -1566245.8, 3041.5684, 0.05512567, 0.083587945, -1395098.5, 130219.04, 0.000005876301, 10.001312, 9.999038 
3.4503683e+2, 1.5435508e+2, -1309686.3, -1482791.6, 12623.953, -0.032807067, 0.083223596, -1308770.4, 118558.03, 0.0000002059256, 10.001264, 9.998961 
3.450338e+2, 1.643542e+2, -1197207.9, -1332214.3, 7251.7783, -0.036762703, 0.08177208, -1196819.5, 132517.52, 0.0, 10.001166, 9.99937 
3.4503117e+2, 1.7435363e+2, -1114780.1, -1237883.4, -8253.424, 0.018664164, 0.08079355, -1114229.3, 117111.78, 0.0, 10.001042, 9.999404 
3.450282e+2, 1.8435264e+2, -1063312.8, -1213885.4, -3067.3484, 0.030261498, 0.06410794, -1063250.4, 70099.734, 0.0, 10.000945, 9.998943 
3.4502503e+2, 1.943511e+2, -978186.6, -1125622.3, -1206.4897, 0.001019706, 0.016443096, -978176.75, 57188.727, 0.0, 10.000874, 9.99891 
3.4502217e+2, 2.0435017e+2, -880745.3, -1021775.7, 8283.288, -0.0018519092, 0.030829286, -880260.5, 57115.074, 0.0, 10.000841, 9.998966 
3.450198e+2, 2.1435003e+2, -778680.75, -921008.44, 7077.554, 0.024081044, 0.11558787, -778329.7, 61048.7, 0.0, 10.000865, 9.998974 
3.450172e+2, 2.2434914e+2, -690094.4, -844389.8, -1142.3411, 0.036114696, 0.13677879, -690085.94, 51301.664, 0.0, 10.000872, 9.998824 
3.4501433e+2, 2.3434728e+2, -594637.1, -747803.2, -10422.157, 0.033255666, 0.06632782, -593931.2, 49473.547, 0.0, 10.000856, 9.998821 
3.4501174e+2, 2.4434583e+2, -550922.2, -739241.75, 5467.962, 0.032067183, 0.06454768, -550763.56, -5343.877, 0.0, 10.000755, 9.998256 
3.4500936e+2, 2.5434485e+2, -485403.25, -660961.6, 19932.553, 0.030205196, 0.14267571, -483168.6, -35737.3, 0.0, 10.00055, 9.9982195 
3.450069e+2, 2.6434323e+2, -367533.75, -503439.22, 32995.29, 0.01300462, 0.13704096, -359946.7, -10499.175, 0.0, 10.000473, 9.998665 
3.4500438e+2, 2.7434072e+2, -255758.08, -393751.72, 35416.28, -0.018447472, 0.012522969, -247199.28, 4269.9946, 0.0, 10.000546, 9.99871 
3.4500235e+2, 2.843395e+2, -175286.4, -291943.63, 29075.662, -0.0012478912, 0.0121249715, -168441.25, -14960.82, 0.0, 10.000373, 9.998819 
3.450007e+2, 2.9433987e+2, -144409.83, -227539.84, 23635.348, 0.061253436, 0.16604051, -138159.78, -82682.35, 0.0, 9.999917, 9.998808 
3.4499788e+2, 3.0433807e+2, -98083.63, -144975.72, 24853.33, -0.013630955, 0.09221984, -87362.375, -87362.375, 0.0, 9.99975, 9.999123 
3.4499553e+2, 3.143369e+2, -46117.55, -61832.09, -5119.9243, -0.03321942, 0.05403351, -44596.637, -44596.637, 0.0, 9.999855, 9.999642 
3.5504445e+2, 1.2435944e+2, -1653675.3, -1797505.8, -39302.633, 0.027519397, 0.009880697, -1643636.3, 77645.63, 0.00005843651, 10.000907, 9.998993 
3.5504192e+2, 1.3435914e+2, -1502404.0, -1650621.8, 67369.98, -0.105059996, 0.05854968, -1476358.8, 146928.88, 0.000025162195, 10.001165, 9.999208 
3.5504192e+2, 1.443591e+2, -1361540.0, -1497855.3, 2638.3938, 0.060656562, 0.11997593, -1361489.0, 163800.1, 0.0000057861466, 10.001316, 9.999506 
3.5503852e+2, 1.5435834e+2, -1272978.3, -1405729.8, 11352.139, 0.008040673, 0.09046287, -1272014.4, 155281.27, 0.00000020730299, 10.001259, 9.999493 
3.5503528e+2, 1.6435742e+2, -1218383.9, -1375394.6, 2109.4634, -0.004633207, 0.06973471, -1218355.6, 110948.76, 0.0, 10.001163, 9.999075 
3.5503185e+2, 1.743564e+2, -1139259.6, -1289158.5, -12209.639, -0.016872432, 0.058356106, -1138271.6, 93043.0, 0.0, 10.001044, 9.999051 
3.5502866e+2, 1.8435554e+2, -1061496.6, -1210127.0, -6013.9653, -0.019855531, 0.07287579, -1061253.6, 72069.586, 0.0, 10.000944, 9.998969 
3.5502598e+2, 1.9435492e+2, -974087.06, -1117094.0, -3262.6013, 0.009086011, 0.10961026, -974012.7, 61316.957, 0.0, 10.000872, 9.99897 
3.550233e+2, 2.0435378e+2, -883274.9, -1025833.06, 8656.004, 0.022068443, 0.10106448, -882751.2, 54589.707, 0.0, 10.000835, 9.998941 
3.5502046e+2, 2.14352e+2, -781689.9, -926275.25, 8678.221, 0.007610794, 0.025420468, -781170.9, 58187.26, 0.0, 10.00086, 9.99894 
3.5501775e+2, 2.2435074e+2, -706591.5, -877661.75, -2027.9448, 0.006707035, 0.023373004, -706567.5, 34803.203, 0.0, 10.000868, 9.998598 
3.5501513e+2, 2.343502e+2, -611892.7, -783389.1, -10584.801, 0.02704376, 0.10722533, -611241.9, 32134.996, 0.0, 10.0008545, 9.998578 
3.550127e+2, 2.4434906e+2, -530290.2, -695925.8, -2431.572, 0.054984972, 0.13810664, -530254.5, 15134.299, 0.0, 10.000753, 9.998555 
3.5501054e+2, 2.543472e+2, -461220.25, -610131.5, 12328.37, 0.09025871, 0.09181712, -460206.47, -12798.838, 0.0, 10.000548, 9.9985695 
3.550079e+2, 2.6434565e+2, -362803.28, -492794.53, 34960.62, 0.061513428, 0.07183785, -353997.28, -4574.69, 0.0, 10.00047, 9.998739 
3.550047e+2, 2.7434447e+2, -252908.7, -387165.9, 38887.418, -0.044897284, 0.07648892, -242458.44, 8973.904, 0.0, 10.000544, 9.998756 
3.5500228e+2, 2.8434327e+2, -193432.69, -328927.2, 11973.733, -0.044856038, 0.08976252, -192382.7, -38938.824, 0.0, 10.00037, 9.998568 
3.550008e+2, 2.9434204e+2, -163050.77, -265659.5, 7248.4214, 0.076721475, 0.10729982, -162541.25, -107084.13, 0.0, 9.999914, 9.998548 
3.549979e+2, 3.0434048e+2, -83038.625, -113107.15, 27886.656, 0.011794657, 0.0612434, -66391.74, -66391.74, 0.0, 9.999746, 9.999343 
3.5499483e+2, 3.1434086e+2, -47219.836, -63067.555, -3524.5022, -0.08627115, 0.15254639, -46471.344, -46471.344, 0.0, 9.99985, 9.999637 
3.6504537e+2, 1.2436273e+2, -1588005.5, -1769137.5, -47655.414, 0.0056033256, 0.029953957, -1576232.6, 145016.52, 0.000055122826, 10.001372, 9.998961 
3.6504287e+2, 1.3436192e+2, -1519558.6, -1671196.3, 88836.43, -0.12294927, 0.037695266, -1478585.3, 144674.77, 0.000023501116, 10.0011, 9.999099 
3.6504322e+2, 1.4436188e+2, -1408199.8, -1508826.0, 24297.36, 0.07571357, 0.09852278, -1402640.1, 122621.55, 0.00000526637, 10.000946, 9.999609 
3.6503965e+2, 1.5436146e+2, -1319703.5, -1414270.6, 345.39508, 0.012497037, 0.09027095, -1319702.3, 107562.51, 0.00000017249042, 10.000876, 9.999619 
3.6503634e+2, 1.6436064e+2, -1260284.4, -1403012.4, -12576.004, -0.0026567546, 0.07755222, -1259184.8, 70087.71, 0.0, 10.000906, 9.999007 
3.6503297e+2, 1.7435944e+2, -1141711.8, -1298836.8, -7156.653, -0.010391453, 0.056955814, -1141386.4, 89898.52, 0.0, 10.001065, 9.998974 
3.6502975e+2, 1.843586e+2, -1035694.3, -1188183.6, 8375.994, -0.009577858, 0.072259925, -1035235.56, 98058.08, 0.0, 10.00108, 9.999055 
3.6502698e+2, 1.9435821e+2, -958871.94, -1098847.4, 12974.677, 0.019711277, 0.123079956, -957679.44, 77617.914, 0.0, 10.000927, 9.999069 
3.6502415e+2, 2.0435707e+2, -900476.0, -1056523.1, 24468.676, 0.028134545, 0.118830465, -896729.2, 40579.387, 0.0, 10.000813, 9.998743 
3.6502123e+2, 2.1435499e+2, -814648.44, -966077.44, 10146.264, 0.002969401, 0.03472971, -813971.6, 25357.691, 0.0, 10.000737, 9.998727 
3.6501846e+2, 2.2435357e+2, -730097.4, -887820.2, 2603.0596, 0.00020252143, 0.025633771, -730054.44, 11289.291, 0.0, 10.000702, 9.998608 
3.6501595e+2, 2.3435299e+2, -629736.8, -789170.0, 13232.938, 0.029652154, 0.10485685, -628645.94, 14703.649, 0.0, 10.00072, 9.998603 
3.650135e+2, 2.4435185e+2, -531973.94, -690585.75, 20482.15, 0.05981017, 0.13145567, -529371.7, 15989.553, 0.0, 10.000715, 9.99861 
3.650111e+2, 2.5435e+2, -437890.0, -592775.75, 12682.482, 0.08783264, 0.080868945, -436858.4, 10521.368, 0.0, 10.000681, 9.998625 
3.6500838e+2, 2.643486e+2, -354359.03, -490653.72, 21795.832, 0.063320026, 0.07388384, -350958.38, -1564.713, 0.0, 10.000535, 9.998723 
3.6500528e+2, 2.7434778e+2, -294679.6, -409864.06, 19021.857, -0.024715308, 0.11297299, -291619.56, -40218.145, 0.0, 10.000266, 9.998734 
3.650027e+2, 2.8434652e+2, -222566.7, -342481.53, -3510.5889, -0.030315407, 0.12416725, -222464.02, -69050.37, 0.0, 10.000167, 9.998572 
3.6500067e+2, 2.9434484e+2, -115445.65, -242243.52, 11440.674, 0.0574996, 0.0953108, -114421.65, -58990.87, 0.0, 10.000238, 9.998553 
3.6499768e+2, 3.043436e+2, -28141.178, -86575.586, 40320.715, -0.0035359417, 0.0793962, -7564.758, -7564.758, 0.0, 10.000123, 9.999345 
3.649948e+2, 3.143438e+2, -62917.43, -86238.34, -15442.472, -0.07603152, 0.15834571, -55227.53, -55227.53, 0.0, 9.999806, 9.9995 
3.7504655e+2, 1.2436667e+2, -1568802.0, -1727554.0, -62042.223, -0.017586011, 0.1206604, -1547431.8, 173780.31, 0.00005010573, 10.001365, 9.99925 
3.7504402e+2, 1.3436474e+2, -1503035.3, -1637232.1, 80297.195, -0.122195154, -0.0075195157, -1465492.3, 157739.06, 0.000020857056, 10.0011, 9.999332 
3.750444e+2, 1.4436439e+2, -1425700.0, -1545459.5, 21096.52, 0.09938226, 0.02122048, -1422092.4, 103142.79, 0.000004428325, 10.000947, 9.999357 
3.7504014e+2, 1.5436436e+2, -1338712.1, -1454012.9, -1743.0779, -0.025763912, 0.08261866, -1338685.8, 88550.05, 0.00000011962439, 10.000877, 9.999345 
3.7503693e+2, 1.6436385e+2, -1248729.0, -1379152.3, -7341.38, -0.038163863, 0.10552697, -1248317.1, 80924.2, 0.0, 10.000906, 9.999171 
3.750345e+2, 1.7436276e+2, -1128116.9, -1270645.9, -575.43774, 0.03669803, 0.07578242, -1128114.5, 103137.73, 0.0, 10.001064, 9.999167 
3.7503153e+2, 1.8436179e+2, -1026149.25, -1167763.8, 2740.381, 0.058202308, 0.062046275, -1026096.25, 107165.31, 0.0, 10.001077, 9.999197 
3.75028e+2, 1.9436099e+2, -949565.7, -1079132.9, 7629.888, 0.029932177, 0.058155276, -949117.94, 86150.69, 0.0, 10.000925, 9.999206 
3.7502483e+2, 2.0436007e+2, -926501.44, -1109719.5, 21136.174, 0.013504709, 0.0850392, -924094.75, 13183.882, 0.0, 10.000809, 9.99838 
3.75022e+2, 2.1435902e+2, -842761.44, -1023652.75, 7915.3315, 0.0075838077, 0.14229357, -842415.75, -3123.6719, 0.0, 10.000733, 9.998333 
3.750193e+2, 2.2435758e+2, -713340.1, -852321.4, 2583.847, 0.013981775, 0.14221682, -713292.06, 28014.766, 0.0, 10.000698, 9.998854 
3.7501678e+2, 2.3435569e+2, -609381.56, -746286.0, 14199.614, 0.039079398, 0.059247676, -607924.3, 35398.785, 0.0, 10.000717, 9.998899 
3.7501407e+2, 2.4435419e+2, -545695.3, -718168.5, 19001.205, 0.043886263, 0.044652488, -543626.75, 1710.3175, 0.0, 10.000711, 9.998422 
3.7501115e+2, 2.5435328e+2, -453883.16, -625857.25, 11792.45, 0.020795507, 0.10988257, -453078.28, -5730.573, 0.0, 10.000681, 9.998398 
3.750085e+2, 2.643521e+2, -362424.06, -507419.13, 11447.052, 0.016660618, 0.14300404, -361525.9, -12165.234, 0.0, 10.000535, 9.998609 
3.750062e+2, 2.7435055e+2, -301983.3, -423724.6, 9316.9795, 0.039396904, 0.12177735, -301274.4, -49897.867, 0.0, 10.00026, 9.998642 
3.7500355e+2, 2.843492e+2, -204623.36, -303545.28, -1611.2219, 0.03848042, 0.11560605, -204597.13, -51207.363, 0.0, 10.000159, 9.998843 
3.750003e+2, 2.943483e+2, -95303.05, -200517.16, 14892.204, -0.0010790196, 0.13089187, -93235.79, -37837.535, 0.0, 10.000239, 9.998839 
3.749972e+2, 3.0434743e+2, -43115.87, -118384.42, 28169.791, -0.06358748, 0.14657293, -33740.83, -33740.83, 0.0, 10.000126, 9.999125 
3.7499526e+2, 3.143459e+2, -82361.73, -123921.65, -29018.67, -0.009455644, 0.07785481, -67450.09, -67450.09, 0.0, 9.999796, 9.999246 
3.8504788e+2, 1.2436968e+2, -1641693.6, -1745884.8, -65121.688, 0.009249922, 0.11999386, -1610393.9, 110789.266, 0.00004363311, 10.000793, 9.999399 
3.8504496e+2, 1.343679e+2, -1503924.5, -1630166.3, 67760.086, -0.1342099, -0.0013981062, -1474440.5, 148759.58, 0.000017489165, 10.001059, 9.999401 
3.850455e+2, 1.4436756e+2, -1393412.6, -1541752.9, 5383.974, 0.10147209, 0.031002026, -1393217.5, 131986.05, 0.0000034194288, 10.001219, 9.999251 
3.8504112e+2, 1.5436721e+2, -1312136.3, -1454089.5, -8518.535, -0.027562145, 0.06855795, -1311626.9, 115580.95, 0.00000006772674, 10.001116, 9.999229 
3.850378e+2, 1.643666e+2, -1236229.4, -1362095.6, -6957.5835, -0.039891496, 0.08570844, -1235845.9, 93368.08, 0.0, 10.000943, 9.999272 
3.850354e+2, 1.743658e+2, -1168778.9, -1277053.8, -6565.947, 0.035752166, 0.07337456, -1168382.3, 62839.56, 0.0, 10.000727, 9.999288 
3.8503242e+2, 1.8436487e+2, -1088984.0, -1211194.1, -12370.541, 0.05868446, 0.062403638, -1087744.4, 45486.41, 0.0, 10.000701, 9.99908 
3.8502896e+2, 1.9436379e+2, -961609.94, -1099429.9, -28191.682, 0.03213572, 0.04275411, -956066.2, 79175.28, 0.0, 10.000905, 9.999076 
3.850258e+2, 2.0436287e+2, -888947.94, -1079281.4, -10119.241, 0.019250471, 0.07265614, -888411.44, 48840.105, 0.0, 10.001014, 9.998488 
3.8502297e+2, 2.1436223e+2, -793903.6, -985934.94, 14460.925, 0.018777369, 0.15775715, -792820.75, 46439.793, 0.0, 10.001008, 9.99846 
3.8502026e+2, 2.243609e+2, -683633.3, -852919.9, 18043.334, 0.024964755, 0.1682086, -681731.5, 59542.85, 0.0, 10.000966, 9.99872 
3.8501757e+2, 2.3435871e+2, -595654.0, -756500.0, -4314.9883, 0.041460726, 0.07215752, -595538.3, 47755.918, 0.0, 10.000883, 9.99875 
3.850147e+2, 2.4435712e+2, -532899.25, -703873.3, -9687.123, 0.035195112, 0.04953012, -532352.1, 12957.542, 0.0, 10.000764, 9.998495 
3.8501152e+2, 2.543563e+2, -458873.8, -618370.1, 5331.4565, -0.0023731, 0.114916235, -458695.78, -11376.95, 0.0, 10.000604, 9.9984865 
3.8500878e+2, 2.6435518e+2, -378735.56, -519217.88, 16606.91, -0.0015251256, 0.15289216, -376799.1, -27468.115, 0.0, 10.00044, 9.998573 
3.850066e+2, 2.743537e+2, -305572.16, -430035.75, 18164.695, 0.05125718, 0.14046918, -302975.3, -51628.152, 0.0, 10.000255, 9.998602 
3.850038e+2, 2.8435236e+2, -217148.02, -293915.84, 10633.985, 0.05624986, 0.13010842, -215702.2, -62341.64, 0.0, 10.000005, 9.998984 
3.850002e+2, 2.943514e+2, -162878.39, -217443.28, 14613.154, -0.0074794847, 0.1281134, -159211.27, -103842.36, 0.0, 9.999705, 9.9989805 
3.8499716e+2, 3.043509e+2, -104978.89, -148464.66, 34503.418, -0.059830178, 0.17674913, -85938.945, -85938.945, 0.0, 9.999701, 9.999124 
3.849955e+2, 3.143489e+2, -41587.465, -90975.875, -7560.05, 0.02097422, 0.059432507, -40456.137, -40456.137, 0.000000000002787424, 10.000016, 9.999367 
3.950494e+2, 1.2437179e+2, -1641497.6, -1744835.3, -58957.8, 0.08070595, 0.02950799, -1614772.0, 106390.09, 0.0000362571, 10.0007925, 9.999406 
3.9504576e+2, 1.343714e+2, -1509584.8, -1642367.4, 79483.26, -0.16321887, 0.0541734, -1472412.6, 150753.97, 0.000013744367, 10.00106, 9.999317 
3.950465e+2, 1.4437142e+2, -1392603.1, -1538787.5, 3245.3767, 0.07618365, 0.12638822, -1392531.1, 132635.5, 0.0000023661473, 10.001213, 9.999274 
3.9504254e+2, 1.5436994e+2, -1309586.6, -1449066.8, -12063.158, 0.0038512994, 0.048338205, -1308551.0, 118629.88, 0.000000028035489, 10.001117, 9.999264 
3.9503905e+2, 1.6436891e+2, -1233584.6, -1356605.9, -16063.801, -0.011603153, 0.019402247, -1231521.6, 97668.88, 0.0, 10.000943, 9.9993105 
3.9503562e+2, 1.7436859e+2, -1165723.9, -1270445.0, -14378.618, -0.015038365, 0.050249856, -1163785.5, 67407.89, 0.0, 10.000726, 9.999333 
3.9503244e+2, 1.8436785e+2, -1115112.4, -1265111.0, -5768.2256, -0.010643797, 0.073409565, -1114891.0, 18310.43, 0.0, 10.0007, 9.998711 
3.9502978e+2, 1.9436659e+2, -989804.1, -1157232.1, -19954.48, 0.024093322, 0.07593393, -987458.75, 47757.105, 0.0, 10.000902, 9.99868 
3.9502704e+2, 2.0436549e+2, -849034.5, -995322.75, -10234.765, 0.0424387, 0.08124919, -848321.94, 88905.47, 0.0, 10.001009, 9.999067 
3.9502418e+2, 2.1436463e+2, -749338.3, -892291.5, 14783.262, 0.033860516, 0.08254939, -747825.56, 91409.16, 0.0, 10.001003, 9.9991045 
3.9502126e+2, 2.2436354e+2, -720026.94, -927269.8, 14759.484, 0.03018578, 0.10464316, -718981.06, 22265.238, 0.0, 10.000961, 9.998213 
3.950184e+2, 2.3436213e+2, -637231.44, -842185.9, -6978.539, 0.03528774, 0.14268686, -636994.1, 6269.1055, 0.0, 10.00088, 9.998162 
3.9501545e+2, 2.443606e+2, -510255.5, -656230.56, -16009.957, 0.031758677, 0.14522663, -508520.22, 36758.94, 0.0, 10.000761, 9.998824 
3.9501232e+2, 2.5435904e+2, -431943.3, -560825.1, -328.79105, 0.015273309, 0.09610723, -431942.5, 15350.691, 0.0, 10.000597, 9.998885 
3.9500928e+2, 2.6435784e+2, -375997.84, -511914.7, 9468.966, 0.005489099, 0.103917114, -375341.3, -26036.68, 0.0, 10.000432, 9.998627 
3.9500642e+2, 2.7435717e+2, -303733.66, -426596.2, 11567.123, 0.007977988, 0.16946323, -302654.13, -51340.96, 0.0, 10.000257, 9.998625 
3.9500344e+2, 2.8435594e+2, -216410.75, -292998.72, -1275.8484, 0.01994448, 0.1674725, -216389.5, -63063.46, 0.0, 10.000008, 9.99899 
3.9500037e+2, 2.943542e+2, -164491.83, -217835.73, 4151.8447, 0.034638256, 0.08743264, -164170.61, -108827.984, 0.0, 9.999693, 9.998984 
3.949975e+2, 3.0435416e+2, -91667.78, -117773.81, 44999.016, 0.004355704, 0.17044738, -57866.848, -57866.848, 0.0, 9.999689, 9.99934 
3.9499536e+2, 3.1435296e+2, -7895.3433, -19871.406, 4401.9043, 0.005989147, 0.10945429, -6451.465, -6451.465, 0.000000001718879, 10.000014, 9.999855 
4.0505034e+2, 1.24374606e+2, -1559999.4, -1698811.5, -78979.0, 0.06842945, 0.03497092, -1524263.3, 196872.23, 0.000028702449, 10.001325, 9.999466 
4.050468e+2, 1.3437428e+2, -1509717.6, -1645679.4, 65146.375, -0.16620696, 0.07036677, -1483542.0, 139597.08, 0.000010028613, 10.001073, 9.9992895 
4.050479e+2, 1.4437434e+2, -1435420.4, -1557865.1, -11524.927, 0.10972111, 0.14779611, -1434345.0, 90793.55, 0.0000013962007, 10.000911, 9.99929 
4.050436e+2, 1.5437269e+2, -1355718.3, -1468672.9, -31030.88, 0.016217897, 0.050487615, -1347754.9, 79399.39, 0.000000006286357, 10.000788, 9.999289 
4.0503994e+2, 1.6437164e+2, -1250247.9, -1367534.3, -31872.674, -0.012155928, 0.017325457, -1242146.1, 87018.15, 0.0, 10.00084, 9.999285 
4.0503648e+2, 1.7437142e+2, -1112562.9, -1248223.9, -36106.316, -0.02244016, 0.06180455, -1103551.6, 127614.695, 0.0, 10.001104, 9.999304 
4.0503326e+2, 1.8437073e+2, -1053739.6, -1234801.8, -18330.188, -0.019980062, 0.09039757, -1051902.5, 81271.52, 0.0, 10.001119, 9.998716 
4.050306e+2, 1.9436942e+2, -997813.94, -1159907.9, -3393.3396, 0.020417295, 0.087774254, -997742.94, 37445.99, 0.0, 10.000842, 9.998691 
4.050279e+2, 2.043683e+2, -889780.7, -998692.7, 8035.4966, 0.044624373, 0.081260026, -889191.0, 48009.504, 0.0, 10.00066, 9.999212 
4.0502504e+2, 2.1436737e+2, -797332.44, -897860.6, -4287.8623, 0.039583072, 0.061479714, -797149.9, 42057.688, 0.0, 10.000598, 9.999262 
4.0502203e+2, 2.2436637e+2, -784944.25, -954145.5, -6529.6143, 0.032756645, 0.08276126, -784692.6, -43474.72, 0.0, 10.000497, 9.998252 
4.0501896e+2, 2.3436524e+2, -712781.7, -874755.0, 17090.33, 0.026636157, 0.14645196, -710998.06, -67765.68, 0.0, 10.000346, 9.998197 
4.0501592e+2, 2.4436383e+2, -575981.2, -688824.75, 25402.51, 0.025812333, 0.15870258, -570526.44, -25278.771, 0.0, 10.000314, 9.998816 
4.0501297e+2, 2.5436214e+2, -455881.88, -573177.9, 10329.754, 0.030128177, 0.09797097, -454979.13, -7715.7183, 0.0, 10.000435, 9.9988785 
4.0500984e+2, 2.64361e+2, -375994.03, -493866.5, 815.0791, 0.018790081, 0.10062233, -375988.4, -26713.816, 0.0, 10.000354, 9.998789 
4.0500638e+2, 2.743605e+2, -324031.25, -417601.75, 12017.9795, -0.009788718, 0.17037763, -322512.34, -71232.11, 0.0, 10.000036, 9.998793 
4.0500316e+2, 2.843593e+2, -237395.84, -315853.34, 6587.0195, -0.0032459968, 0.1681536, -236846.66, -83553.766, 0.0, 9.999917, 9.998877 
4.0500027e+2, 2.9435736e+2, -125275.86, -213379.94, 1602.161, 0.04168632, 0.079324685, -125246.73, -69933.89, 0.0, 10.000024, 9.998856 
4.0499753e+2, 3.043576e+2, -68186.85, -111093.91, 32565.37, 0.031336974, 0.19712934, -50643.492, -50643.492, 0.0, 9.999869, 9.999298 
4.0499505e+2, 3.1435657e+2, -72732.92, -18638.928, -32599.957, 0.006171506, 0.15908743, -3326.779, -3326.779, 0.00000001196501, 9.999427, 10.000147 
4.1505066e+2, 1.2437807e+2, -1552905.5, -1682748.1, -89831.625, -0.03266611, 0.1314635, -1506991.4, 214112.4, 0.000021697306, 10.00132, 9.9995775 
4.1504806e+2, 1.3437659e+2, -1506654.3, -1641395.6, 57424.266, -0.14689685, 0.046809487, -1485501.8, 137615.73, 0.000006740833, 10.00108, 9.999316 
4.1504967e+2, 1.4437638e+2, -1435178.5, -1557392.8, -16079.69, 0.19653527, 0.09603387, -1433098.4, 92020.836, 0.0000006540361, 10.000912, 9.999293 
4.1504434e+2, 1.5437551e+2, -1354708.1, -1466576.6, -35160.344, 0.008714974, 0.074489996, -1344575.0, 82552.84, 0.0000000002364484, 10.000788, 9.999303 
4.1504046e+2, 1.6437478e+2, -1257181.0, -1381235.0, -23127.395, -0.04341095, 0.07850693, -1253009.6, 76125.63, 0.0, 10.000838, 9.999192 
4.150379e+2, 1.7437431e+2, -1120320.6, -1263229.3, -25602.818, 0.00946417, 0.10794712, -1115872.3, 115268.37, 0.0, 10.001101, 9.999203 
4.1503486e+2, 1.843735e+2, -1027995.6, -1180290.8, -28035.99, 0.025809733, 0.11339259, -1022998.44, 110150.39, 0.0, 10.001115, 9.999092 
4.1503146e+2, 1.943723e+2, -969794.44, -1100655.1, -13340.666, 0.019517172, 0.07925172, -968448.25, 66712.336, 0.0, 10.000838, 9.9991 
4.1502836e+2, 2.0437124e+2, -910203.5, -1040174.56, 4928.329, 0.024130622, 0.073247194, -910016.9, 27154.076, 0.0, 10.000656, 9.99893 
4.1502553e+2, 2.143704e+2, -820919.5, -945715.5, -6112.1367, 0.03390026, 0.09370495, -820620.8, 18558.395, 0.0, 10.000594, 9.998936 
4.150225e+2, 2.2436938e+2, -744333.1, -869215.3, -12350.852, 0.030339926, 0.10161044, -743123.4, -1933.9448, 0.0, 10.000494, 9.998836 
4.1501915e+2, 2.3436807e+2, -667772.8, -780599.0, 11805.252, 0.012888427, 0.084612414, -666550.8, -23349.066, 0.0, 10.000343, 9.998844 
4.1501614e+2, 2.4436681e+2, -600021.8, -738060.75, 28931.023, 0.014553767, 0.09123852, -594203.5, -48988.3, 0.0, 10.000311, 9.998479 
4.1501352e+2, 2.543656e+2, -484517.03, -632409.3, 15168.594, 0.04022064, 0.11983952, -482977.3, -35747.676, 0.0, 10.000434, 9.998472 
4.1501033e+2, 2.6436457e+2, -357730.56, -455187.8, -10708.014, 0.0364567, 0.14202677, -356567.9, -7326.95, 0.0, 10.000352, 9.999055 
4.1500646e+2, 2.743637e+2, -303539.8, -372667.13, 936.6962, -0.005314834, 0.1433587, -303527.1, -52278.69, 0.0, 10.000026, 9.999106 
4.1500297e+2, 2.8436247e+2, -254522.69, -349442.44, 9252.604, -0.016779289, 0.13224721, -253629.17, -100368.01, 0.0, 9.999909, 9.99865 
4.15e+2, 2.9436088e+2, -143249.58, -250705.27, 5530.3286, 0.010306085, 0.10494031, -142965.7, -87686.28, 0.0, 10.000025, 9.998599 
4.1499728e+2, 3.0436113e+2, -88760.71, -154173.9, 16472.93, 0.017321376, 0.2581525, -84846.57, -84846.57, 0.0, 9.999871, 9.9990015 
4.1499457e+2, 3.1435975e+2, -68042.766, -6057.35, -49483.516, 0.0127017675, 0.20599546, 21338.01, 21338.01, 0.000000036873733, 9.999416, 10.000237 
4.250522e+2, 1.24381155e+2, -1559019.3, -1687558.8, -64512.19, -0.009203622, 0.1456345, -1532226.3, 188847.78, 0.000015823704, 10.001289, 9.999558 
4.2504907e+2, 1.343793e+2, -1513024.0, -1657023.5, 71620.1, -0.15417406, 0.034591924, -1483468.8, 139622.56, 0.0000041887733, 10.00109, 9.999205 
4.2505082e+2, 1.4437903e+2, -1401727.0, -1540575.1, 3418.0435, 0.20792829, 0.08294445, -1401642.9, 123450.82, 0.00000021832761, 10.00114, 9.999299 
4.2504534e+2, 1.5437837e+2, -1271100.3, -1424260.9, -16811.932, 0.0022350885, 0.081805386, -1269276.5, 157823.64, 0.0, 10.001354, 9.99932 
4.250414e+2, 1.6437776e+2, -1209506.3, -1353992.1, -8014.2686, -0.047230013, 0.09462077, -1209063.1, 120043.45, 0.0, 10.001148, 9.9992285 
4.2503887e+2, 1.7437725e+2, -1211652.5, -1303057.5, -2234.598, 0.031962622, 0.116565935, -1211597.9, 19514.705, 0.0, 10.000456, 9.99924 
4.250358e+2, 1.8437648e+2, -1140729.3, -1216863.9, 4354.8096, 0.054353464, 0.115805745, -1140481.0, -7360.73, 0.0, 10.000264, 9.99925 
4.250323e+2, 1.943754e+2, -977573.0, -1085808.3, 1151.8691, 0.026454063, 0.0780203, -977560.75, 57569.133, 0.0, 10.000705, 9.999266 
4.2502904e+2, 2.043744e+2, -890555.06, -1052013.9, 7097.5728, 0.01727915, 0.07822219, -890243.7, 46896.063, 0.0, 10.000884, 9.998738 
4.2502612e+2, 2.1437353e+2, -816074.44, -967332.6, 3318.3916, 0.024215875, 0.11635835, -816001.7, 23148.088, 0.0, 10.0007305, 9.998721 
4.25023e+2, 2.2437242e+2, -707188.56, -827506.94, -9268.746, 0.020915333, 0.11880491, -706478.75, 34681.934, 0.0, 10.000648, 9.999048 
4.250196e+2, 2.3437105e+2, -604940.1, -723090.5, -16429.281, 0.007001968, 0.06864389, -602698.1, 40474.156, 0.0, 10.000658, 9.999087 
4.2501646e+2, 2.4436985e+2, -580459.8, -726933.1, -6668.8984, 0.010155244, 0.0689665, -580156.8, -34972.33, 0.0, 10.000438, 9.998493 
4.2501363e+2, 2.543689e+2, -557785.1, -668064.5, 8550.337, 0.03452594, 0.12459588, -557126.1, -109929.02, 0.0, 9.999932, 9.998468 
4.250104e+2, 2.6436794e+2, -435916.44, -490079.06, -1845.2079, 0.034944646, 0.15577538, -435853.66, -86645.69, 0.0, 9.999802, 9.999082 
4.2500663e+2, 2.74367e+2, -284981.16, -359802.28, -11665.921, 0.0048589697, 0.14321466, -283204.4, -31987.875, 0.0, 10.000136, 9.999142 
4.2500305e+2, 2.843658e+2, -212540.38, -316831.28, -6036.4463, -0.012030095, 0.12946488, -212192.14, -58963.5, 0.0, 10.000144, 9.998761 
4.2499965e+2, 2.9436445e+2, -175349.61, -252936.22, 16280.359, -0.010649686, 0.111099176, -172071.9, -116827.484, 0.0, 9.999746, 9.998718 
4.249969e+2, 3.043646e+2, -152085.67, -214133.64, 43568.254, 0.008731035, 0.2574115, -129624.33, -129624.33, 0.0, 9.999563, 9.998737 
4.249943e+2, 3.1436288e+2, -25867.063, 24005.016, -22710.377, 0.029294657, 0.20607245, 32796.816, 32796.816, 0.00000007454206, 9.999662, 10.000326 
4.350549e+2, 1.2438388e+2, -1570704.1, -1711409.3, -72496.14, 0.13009523, 0.079813145, -1540036.0, 181010.02, 0.0000113764345, 10.001288, 9.999394 
4.350498e+2, 1.3438243e+2, -1530298.1, -1694554.8, 66570.83, -0.18925151, 0.03393309, -1506706.4, 116354.445, 0.0000025044064, 10.001096, 9.998945 
4.350513e+2, 1.4438228e+2, -1400533.9, -1538102.8, 11624.27, 0.14221586, 0.10806869, -1399558.6, 125503.734, 0.000000047491298, 10.00114, 9.999316 
4.350466e+2, 1.5438129e+2, -1269674.4, -1420292.8, -8163.5034, -0.0074652666, 0.071529694, -1269233.1, 157838.19, 0.0, 10.001349, 9.99935 
4.3504277e+2, 1.6438058e+2, -1199605.6, -1331987.8, -32529.953, -0.028781345, 0.06523902, -1192044.0, 137034.3, 0.0, 10.0011425, 9.999382 
4.3503946e+2, 1.7438024e+2, -1199999.0, -1278719.9, -27725.596, 0.043468628, 0.08841854, -1191214.3, 39868.156, 0.0, 10.000456, 9.999407 
4.3503615e+2, 1.8437965e+2, -1145132.1, -1225609.6, 17998.537, 0.063252375, 0.098965235, -1141290.3, -8201.734, 0.0, 10.000263, 9.999191 
4.350331e+2, 1.9437872e+2, -983306.8, -1096715.5, 18157.865, 0.038559828, 0.084480196, -980470.5, 54626.348, 0.0, 10.000701, 9.999192 
4.3502995e+2, 2.0437776e+2, -898393.56, -1066843.8, 2442.6235, 0.021573637, 0.09566169, -898358.1, 38748.875, 0.0, 10.000877, 9.99864 
4.3502668e+2, 2.1437675e+2, -823868.75, -982362.3, -1866.5215, 0.007936058, 0.13000098, -823846.75, 15272.367, 0.0, 10.000726, 9.99862 
4.3502343e+2, 2.2437555e+2, -718689.9, -850745.94, -9618.115, 0.0016454231, 0.13545048, -717993.0, 23138.63, 0.0, 10.000644, 9.99889 
4.3502027e+2, 2.3437412e+2, -616617.4, -746703.6, -15680.924, 0.007236894, 0.097253926, -614753.8, 28390.363, 0.0, 10.000655, 9.998926 
4.350169e+2, 2.4437293e+2, -555520.44, -674366.5, -24878.883, 0.010885651, 0.09046761, -550522.56, -5366.812, 0.0, 10.000435, 9.998857 
4.3501332e+2, 2.5437206e+2, -530389.3, -610400.75, -9980.076, 0.009702267, 0.1129781, -529163.25, -81997.28, 0.0, 9.999928, 9.998866 
4.3501e+2, 2.6437122e+2, -451059.72, -520765.22, 8390.551, 0.011130048, 0.14267904, -450063.97, -100888.27, 0.0, 9.999799, 9.998873 
4.350069e+2, 2.7437043e+2, -302680.8, -395971.97, 1023.7698, 0.018086296, 0.17046565, -302669.56, -51484.918, 0.0, 10.0001335, 9.998895 
4.350034e+2, 2.8436935e+2, -181381.06, -250909.7, -19837.375, 0.007967045, 0.16002277, -176119.39, -22923.953, 0.0, 10.000139, 9.999215 
4.3499926e+2, 2.94368e+2, -141169.14, -180672.55, 2136.5244, -0.02532543, 0.0971246, -141053.92, -85845.96, 0.0, 9.999742, 9.999216 
4.349964e+2, 3.043678e+2, -168809.19, -247556.48, 45189.34, 0.0016179509, 0.19405347, -148246.53, -148246.53, 0.0, 9.999558, 9.99851 
4.3499413e+2, 3.1436595e+2, -21085.105, 35813.15, -16368.815, 0.048408143, 0.15301795, 40186.133, 40186.133, 0.0000001100893, 9.999656, 10.000411 
4.4505662e+2, 1.2438727e+2, -1564204.3, -1708120.4, -73245.88, 0.1708196, 0.081915334, -1533483.5, 187529.77, 0.000008277144, 10.001334, 9.999394 
4.4505095e+2, 1.3438585e+2, -1478527.9, -1679420.4, 78189.5, -0.20396839, 0.048714045, -1451682.9, 171344.78, 0.0000015575915, 10.001492, 9.99886 
4.450526e+2, 1.4438568e+2, -1369946.6, -1520780.3, 24595.756, 0.144262, 0.124420285, -1366037.3, 158992.05, 0.000000013935479, 10.001339, 9.999339 
4.4504774e+2, 1.5438455e+2, -1362815.5, -1461636.1, 696.7137, 0.0026886961, 0.06936824, -1362810.6, 64228.836, 0.0, 10.000696, 9.999381 
4.4504368e+2, 1.6438375e+2, -1286624.0, -1376979.5, -24330.379, -0.022146598, 0.05543501, -1280489.0, 48558.03, 0.0, 10.000559, 9.999355 
4.450401e+2, 1.7438346e+2, -1111585.3, -1239138.3, -33738.26, 0.03012799, 0.084716, -1103211.1, 127839.87, 0.0, 10.001077, 9.999378 
4.4503668e+2, 1.843829e+2, -1016858.06, -1167167.5, 8693.619, 0.04506578, 0.1020851, -1016356.9, 116699.875, 0.0, 10.001159, 9.99916 
4.450338e+2, 1.9438201e+2, -986691.4, -1101826.4, 11317.314, 0.034760006, 0.0947691, -985589.5, 49475.473, 0.0, 10.000693, 9.999161 
4.450307e+2, 2.0438103e+2, -951173.75, -1083127.0, 3851.121, 0.025539903, 0.10101894, -951061.44, -13986.21, 0.0, 10.000476, 9.998721 
4.4502735e+2, 2.143799e+2, -839490.9, -980084.6, 13039.465, 0.010506835, 0.11566882, -838291.75, 796.1899, 0.0, 10.000577, 9.998707 
4.4502404e+2, 2.2437875e+2, -746109.56, -876290.5, 11162.869, 0.0059945355, 0.12617287, -745159.3, -4058.9797, 0.0, 10.00051, 9.998779 
4.450208e+2, 2.3437755e+2, -686993.25, -794844.06, 6693.784, 0.016818447, 0.12270927, -686579.4, -43467.277, 0.0, 10.000233, 9.998799 
4.4501722e+2, 2.4437642e+2, -589814.8, -669947.25, -9463.948, 0.0145511, 0.12058067, -588712.3, -43589.184, 0.0, 10.000108, 9.999044 
4.4501323e+2, 2.5437543e+2, -479134.75, -561394.44, -9574.871, -0.0060732313, 0.11007542, -478034.94, -30902.043, 0.0, 10.000176, 9.9990835 
4.4500977e+2, 2.6437458e+2, -407772.63, -501981.13, 18542.781, -0.0037224717, 0.12705183, -404254.28, -55112.047, 0.0, 10.000105, 9.998853 
4.4500703e+2, 2.743739e+2, -344357.72, -420389.06, 26931.81, 0.029998554, 0.17125271, -335784.63, -84633.99, 0.0, 9.999866, 9.998856 
4.450035e+2, 2.8437296e+2, -237087.03, -272539.22, -8052.344, 0.02636992, 0.17246321, -235343.8, -82183.26, 0.0, 9.999733, 9.999264 
4.44999e+2, 2.9437163e+2, -141786.05, -173779.75, -21803.23, -0.023504093, 0.10853061, -130740.7, -75568.414, 0.0, 9.999706, 9.999281 
4.4499597e+2, 3.0437103e+2, -170543.39, -240461.72, 19223.563, 0.0056679873, 0.1576367, -165606.58, -165606.58, 0.00000000000009396187, 9.999512, 9.998583 
4.4499347e+2, 3.143694e+2, -72942.68, 47483.695, -17095.865, 0.040093675, 0.13167192, 49863.613, 49863.613, 0.00000013361628, 9.999142, 10.000738 
4.5505732e+2, 1.2439126e+2, -1550377.4, -1681045.5, -66459.58, 0.10794513, 0.14729585, -1522515.9, 198460.45, 0.0000061456926, 10.001342, 9.999577 
4.550525e+2, 1.3438958e+2, -1472038.3, -1665914.1, 86260.8, -0.20108145, 0.07681641, -1439215.3, 183776.92, 0.0000010596042, 10.00149, 9.998955 
4.5505455e+2, 1.4438926e+2, -1369576.1, -1518505.3, 3513.1208, 0.209163, 0.13144217, -1369493.3, 155501.42, 0.000000007555667, 10.001332, 9.999357 
4.550487e+2, 1.5438814e+2, -1361429.6, -1458914.1, -22613.635, 0.028640388, 0.07688322, -1356439.4, 70565.33, 0.0, 10.000697, 9.999399 
4.5504415e+2, 1.6438732e+2, -1299809.3, -1405187.9, -7918.391, -0.030937957, 0.067116015, -1299217.5, 29795.256, 0.0, 10.000563, 9.99916 
4.5504078e+2, 1.7438689e+2, -1127054.6, -1270450.5, -13406.847, -0.009442421, 0.10485193, -1125811.9, 105206.44, 0.0, 10.001074, 9.999166 
4.550374e+2, 1.8438621e+2, -1018434.2, -1168322.4, -6610.5645, -0.0022318936, 0.12352563, -1018143.2, 114882.18, 0.0, 10.00115, 9.999156 
4.5503423e+2, 1.9438528e+2, -986571.8, -1100429.6, -5811.4756, 0.012398442, 0.108698815, -986275.94, 48758.23, 0.0, 10.000689, 9.999171 
4.550312e+2, 2.0438421e+2, -933761.7, -1045984.2, 5909.4746, 0.025958221, 0.09496063, -933451.4, 3593.0076, 0.0, 10.000472, 9.998978 
4.5502815e+2, 2.14383e+2, -820451.0, -939773.6, 17360.781, 0.030072797, 0.07403, -817976.4, 21079.686, 0.0, 10.000573, 9.998985 
4.550248e+2, 2.2438201e+2, -751874.06, -887367.5, 1188.3208, 0.03235919, 0.09091635, -751863.6, -10796.847, 0.0, 10.000506, 9.998705 
4.5502117e+2, 2.343813e+2, -693990.1, -809050.3, -3520.1182, 0.033655845, 0.14587566, -693882.5, -50806.453, 0.0, 10.000232, 9.998702 
4.5501736e+2, 2.4438031e+2, -588920.9, -667659.2, -8267.523, 0.018772792, 0.16053312, -588062.1, -42975.605, 0.0, 10.000106, 9.999061 
4.550133e+2, 2.54379e+2, -477876.1, -557217.4, -6946.582, -0.015380871, 0.11498211, -477272.47, -30174.338, 0.0, 10.00017, 9.999115 
4.550098e+2, 2.6437798e+2, -396467.53, -477512.44, 9838.711, -0.011529136, 0.10814997, -395290.25, -46182.414, 0.0, 10.000101, 9.999023 
4.5500696e+2, 2.743774e+2, -332136.97, -395179.25, 18763.783, 0.037065532, 0.14481302, -326974.84, -75860.15, 0.0, 9.999866, 9.999029 
4.5500335e+2, 2.843766e+2, -262999.22, -325281.6, -10155.732, 0.039680406, 0.16588503, -261385.08, -108260.97, 0.0, 9.999729, 9.998902 
4.5499888e+2, 2.9437533e+2, -169211.3, -228841.33, -23189.535, -0.009119987, 0.1462436, -161254.77, -106117.336, 0.0, 9.999699, 9.998906 
4.549956e+2, 3.0437428e+2, -146102.97, -187486.89, 5221.977, 0.017408136, 0.14941272, -145454.2, -145454.2, 0.00000000000087855477, 9.999502, 9.99895 
4.5499218e+2, 3.143731e+2, -33518.69, 130453.5, -27243.984, -0.0029231613, 0.13093212, 134861.6, 134861.6, 0.00000014519496, 9.999138, 10.001309 
4.6505886e+2, 1.24394864e+2, -1469397.9, -1630080.5, -69456.234, 0.10410338, 0.1679832, -1443537.0, 277405.2, 0.000004581255, 10.001852, 9.999677 
4.650537e+2, 1.3439307e+2, -1529066.3, -1690360.0, 73877.51, -0.2065704, 0.08225075, -1500343.1, 122615.836, 0.0000007444035, 10.001084, 9.998982 
4.6505597e+2, 1.4439274e+2, -1433724.6, -1544932.0, -2742.5198, 0.23875949, 0.13367106, -1433657.0, 91304.26, 0.0000000034677494, 10.000874, 9.999397 
4.6504977e+2, 1.5439184e+2, -1274070.0, -1411719.1, -28312.383, 0.03866887, 0.0969308, -1268474.0, 158494.95, 0.0, 10.001275, 9.999444 
4.650451e+2, 1.64391e+2, -1199704.0, -1369001.5, -2885.595, -0.030148238, 0.08692177, -1199654.9, 129322.34, 0.0, 10.001302, 9.999052 
4.650418e+2, 1.7439021e+2, -1165778.5, -1302325.0, -1894.741, -0.004999276, 0.10138134, -1165752.3, 65233.652, 0.0, 10.000864, 9.999048 
4.650383e+2, 1.8438944e+2, -1096847.1, -1205782.4, 247.95981, 0.00089757296, 0.114082545, -1096846.6, 36147.6, 0.0, 10.00061, 9.99916 
4.6503484e+2, 1.9438867e+2, -997849.56, -1104773.5, 694.3679, 0.007310805, 0.11664737, -997845.06, 37156.68, 0.0, 10.000607, 9.999182 
4.6503162e+2, 2.0438774e+2, -915842.5, -1023465.7, 15471.656, 0.019180203, 0.11077979, -913662.44, 23348.037, 0.0, 10.000535, 9.999102 
4.6502855e+2, 2.1438664e+2, -840792.8, -935318.9, 15099.364, 0.02773715, 0.0855014, -838439.44, 581.19806, 0.0, 10.000372, 9.999113 
4.650252e+2, 2.2438563e+2, -787049.44, -902360.6, -7805.7437, 0.031128852, 0.09368798, -786523.44, -45492.26, 0.0, 10.000256, 9.998723 
4.6502137e+2, 2.343848e+2, -698195.75, -809403.94, -5207.0527, 0.029266674, 0.13581292, -697952.5, -54910.57, 0.0, 10.000196, 9.998716 
4.650175e+2, 2.4438387e+2, -573677.8, -657772.94, 4035.4685, 0.016185584, 0.15391274, -573484.6, -28432.596, 0.0, 10.000201, 9.999083 
4.650136e+2, 2.543828e+2, -458641.34, -546302.9, 4399.585, -0.009749811, 0.1313134, -458421.1, -11359.85, 0.0, 10.000295, 9.99913 
4.6501e+2, 2.6438177e+2, -386614.34, -472811.9, 1078.7573, -0.006838414, 0.12200821, -386600.88, -37529.844, 0.0, 10.000168, 9.999023 
4.6500668e+2, 2.743809e+2, -348111.66, -402511.0, -5584.848, 0.029132154, 0.12618986, -347544.22, -96463.3, 0.0, 9.999756, 9.999032 
4.650029e+2, 2.843801e+2, -280314.6, -332937.1, -13108.198, 0.026475903, 0.15149686, -277230.13, -124140.34, 0.0, 9.999608, 9.998908 
4.6499854e+2, 2.943793e+2, -156111.64, -220700.69, 3175.927, -0.015377404, 0.17782436, -155955.84, -100857.25, 0.0, 9.99978, 9.998923 
4.6499532e+2, 3.0437785e+2, -126061.664, -184559.44, 16844.668, 0.030831093, 0.14642136, -121557.92, -121557.92, 0.00000000000042122027, 9.999667, 9.998892 
4.6499148e+2, 3.1437692e+2, -26184.611, 128340.57, -51313.605, 0.011500656, 0.15640938, 143828.16, 143828.16, 0.00000014428599, 9.99921, 10.001263 
4.7506118e+2, 1.243981e+2, -1470155.9, -1630092.8, -93739.48, 0.14880927, 0.14428389, -1426908.9, 294002.28, 0.0000033199578, 10.001844, 9.9996805 
4.750546e+2, 1.3439634e+2, -1531649.6, -1697740.1, 47579.973, -0.22606874, 0.069092855, -1518985.0, 103942.805, 0.00000048107097, 10.001091, 9.99893 
4.7505674e+2, 1.4439619e+2, -1426888.1, -1533742.0, 10551.383, 0.22745958, 0.13535213, -1425856.3, 99072.61, 0.000000000765976, 10.000885, 9.999469 
4.75051e+2, 1.5439565e+2, -1269003.9, -1400498.9, -12290.585, 0.031854816, 0.12794755, -1267865.0, 159067.78, 0.0, 10.001272, 9.999522 
4.750465e+2, 1.643948e+2, -1202130.3, -1372643.0, -17468.527, -0.021819964, 0.11374779, -1200359.1, 128581.49, 0.0, 10.001296, 9.999029 
4.750431e+2, 1.7439346e+2, -1167654.3, -1305854.8, -17544.637, 0.037555225, 0.07519514, -1165461.8, 65492.0, 0.0, 10.000863, 9.999023 
4.7503936e+2, 1.8439256e+2, -1095699.5, -1203356.0, -1141.285, 0.04774551, 0.07614092, -1095687.4, 37275.758, 0.0, 10.000609, 9.999176 
4.7503555e+2, 1.9439222e+2, -996431.5, -1101887.5, 1339.0133, 0.018469108, 0.1188232, -996414.5, 38553.04, 0.0, 10.000607, 9.999202 
4.7503197e+2, 2.0439164e+2, -918503.25, -1027378.3, 9512.4795, 0.0039455444, 0.14790557, -917678.4, 19295.225, 0.0, 10.000528, 9.999078 
4.750287e+2, 2.1439078e+2, -842720.6, -938969.3, 9260.051, 0.0010930164, 0.14963204, -841837.8, -2856.0955, 0.0, 10.000371, 9.999088 
4.7502512e+2, 2.2438958e+2, -779734.56, -886527.3, -10919.241, -0.0008133543, 0.13471377, -778629.56, -37635.965, 0.0, 10.000252, 9.998834 
4.7502127e+2, 2.3438802e+2, -689587.4, -790820.7, -7035.6074, 0.0017167918, 0.09172005, -689100.75, -46090.984, 0.0, 10.000193, 9.998846 
4.7501758e+2, 2.4438708e+2, -573236.7, -656238.8, 6755.097, 0.0046714544, 0.09988578, -572690.5, -27670.717, 0.0, 10.000198, 9.999095 
4.7501406e+2, 2.543868e+2, -458608.4, -546397.0, 8243.849, 0.007918139, 0.15947083, -457840.97, -10818.767, 0.0, 10.000295, 9.99913 
4.7501028e+2, 2.643859e+2, -399034.72, -498081.97, -13779.466, 0.007978117, 0.16957153, -397153.44, -48121.668, 0.0, 10.000166, 9.998852 
4.750062e+2, 2.7438426e+2, -361394.16, -428240.38, -20906.79, 0.002762475, 0.11593601, -355393.94, -104344.586, 0.0, 9.999748, 9.998858 
4.7500208e+2, 2.8438345e+2, -255111.52, -279094.94, -8195.756, -0.016105548, 0.12980624, -252578.36, -99520.66, 0.0, 9.999601, 9.999282 
4.7499803e+2, 2.9438353e+2, -126637.15, -159742.72, 10472.179, -0.046297792, 0.20125014, -123602.664, -68546.63, 0.0, 9.999781, 9.999342 
4.749951e+2, 3.0438185e+2, -161456.25, -256371.25, -258.08728, 0.042705044, 0.14601561, -161455.55, -161455.55, 0.0, 9.999661, 9.998402 
4.7499135e+2, 3.1438076e+2, -73275.695, 33753.35, -61901.953, 0.07521631, 0.19868143, 62065.816, 62065.816, 0.00000012581201, 9.999198, 10.000617 
4.850632e+2, 1.2440216e+2, -1521369.4, -1667557.8, -37617.168, 0.17954394, 0.1209425, -1512257.6, 208612.88, 0.0000022837717, 10.001552, 9.999563 
4.8505586e+2, 1.3440041e+2, -1460280.8, -1683534.0, 87129.37, -0.23748903, 0.06279923, -1430302.3, 192585.67, 0.0000002759338, 10.001667, 9.998751 
4.8505798e+2, 1.4440015e+2, -1325583.8, -1498266.9, 51899.8, 0.22830696, 0.13517012, -1311185.8, 213704.5, 0.000000000009128432, 10.001639, 9.999349 
4.8505217e+2, 1.5439957e+2, -1275323.9, -1417069.1, 12249.503, 0.02013244, 0.1332215, -1274273.0, 152622.44, 0.0, 10.0012865, 9.999403 
4.8504752e+2, 1.6439869e+2, -1237150.0, -1374542.9, -5280.2085, -0.031663828, 0.118120074, -1236947.4, 91955.93, 0.0, 10.000991, 9.999164 
4.8504403e+2, 1.7439741e+2, -1163188.9, -1286809.9, 6324.4263, 0.049671024, 0.071599215, -1162866.3, 68048.54, 0.0, 10.000821, 9.999175 
4.8504025e+2, 1.8439649e+2, -1083196.8, -1209016.3, 37325.125, 0.06641535, 0.06659058, -1072957.4, 59966.617, 0.0, 10.000744, 9.999074 
4.8503625e+2, 1.9439603e+2, -981393.5, -1107985.5, 29129.07, 0.02012594, 0.10804408, -975012.5, 59917.52, 0.0, 10.000766, 9.9990835 
4.8503253e+2, 2.0439538e+2, -899478.75, -1028141.06, 24426.541, -0.0026683444, 0.14153442, -894997.44, 41939.703, 0.0, 10.000701, 9.998991 
4.850291e+2, 2.1439454e+2, -826787.1, -940576.2, 19153.762, -0.0018967387, 0.1550577, -823649.56, 15295.931, 0.0, 10.00052, 9.999006 
4.8502547e+2, 2.2439338e+2, -753008.94, -861183.4, 819.145, -0.0012337847, 0.14293823, -753002.75, -12045.762, 0.0, 10.000382, 9.998944 
4.850215e+2, 2.3439187e+2, -665143.4, -765822.7, 3193.173, -0.00016099031, 0.09118282, -665042.2, -22070.162, 0.0, 10.000303, 9.998964 
4.8501772e+2, 2.4439093e+2, -589174.3, -667684.06, 13613.051, 0.004649863, 0.09783138, -586880.94, -41899.285, 0.0, 10.000104, 9.999062 
4.8501414e+2, 2.5439072e+2, -541140.3, -590486.9, 10620.653, 0.013487335, 0.1641878, -538951.56, -91966.92, 0.0, 9.999747, 9.99909 
4.850103e+2, 2.6438987e+2, -461954.5, -520043.88, -508.93497, 0.0136951, 0.17780913, -461950.03, -112956.08, 0.0, 9.9997, 9.998925 
4.8500606e+2, 2.7438828e+2, -314609.16, -397203.06, 11629.962, 0.0018262961, 0.124286726, -313002.8, -61992.523, 0.0, 10.000033, 9.998935 
4.8500186e+2, 2.8438747e+2, -187628.86, -240763.31, 21357.79, -0.018779136, 0.13395439, -180108.38, -27090.596, 0.0, 10.000039, 9.999334 
4.8499775e+2, 2.9438752e+2, -145191.03, -161972.97, 10790.316, -0.043646168, 0.19441664, -139913.1, -84897.17, 0.0, 9.999624, 9.999402 
4.849947e+2, 3.0438545e+2, -199174.83, -271586.2, 651.37317, 0.0516138, 0.09723396, -199168.97, -199168.97, 0.0, 9.999389, 9.998428 
4.8499054e+2, 3.1438488e+2, -62830.395, 16725.545, -14867.331, 0.06634501, 0.19997834, 19413.143, 19413.143, 0.00000009052117, 9.999365, 10.000421 
4.9506482e+2, 1.2440704e+2, -1537649.9, -1702509.3, -26892.506, 0.18473713, 0.098413855, -1533374.0, 187446.9, 0.0000015131136, 10.001557, 9.999321 
4.950575e+2, 1.3440517e+2, -1482103.9, -1728656.1, 93436.56, -0.24215865, 0.0615205, -1450695.3, 172144.48, 0.00000014199817, 10.001665, 9.998443 
4.9505976e+2, 1.444046e+2, -1347729.1, -1543416.4, 40880.457, 0.23820075, 0.13264681, -1339532.3, 185313.81, 0.0, 10.001635, 9.999042 
4.950532e+2, 1.5440357e+2, -1297020.9, -1462087.0, -342.0461, -0.0030509196, 0.115937546, -1297020.3, 129836.95, 0.0, 10.0012865, 9.999094 
4.950482e+2, 1.644027e+2, -1216161.1, -1332396.1, -13077.75, -0.06664351, 0.105105676, -1214707.9, 114157.25, 0.0, 10.000997, 9.999451 
4.9504468e+2, 1.7440207e+2, -1140260.0, -1239666.5, 621.1049, 0.031337287, 0.089957245, -1140256.1, 90612.88, 0.0, 10.000822, 9.999498 
4.950409e+2, 1.844012e+2, -1099573.3, -1241849.9, 37639.0, 0.05588665, 0.08480057, -1090229.6, 42647.266, 0.0, 10.000739, 9.998851 
4.9503693e+2, 1.9440006e+2, -999188.7, -1145101.8, 30480.625, 0.009205717, 0.083967656, -993077.4, 41811.96, 0.0, 10.000767, 9.998829 
4.950332e+2, 2.0439896e+2, -910080.44, -1049225.4, 17605.273, -0.0051206257, 0.09202284, -907887.5, 29013.633, 0.0, 10.000696, 9.998849 
4.950298e+2, 2.1439795e+2, -836431.6, -960144.8, 13169.673, 0.017031303, 0.101024345, -835045.2, 3866.7852, 0.0, 10.000517, 9.998874 
4.9502608e+2, 2.2439705e+2, -747254.94, -848037.56, -2740.561, 0.026598085, 0.11714384, -747180.44, -6259.039, 0.0, 10.000378, 9.999037 
4.9502203e+2, 2.3439634e+2, -657644.75, -750642.4, 528.2768, 0.022024516, 0.1348817, -657641.75, -14713.087, 0.0, 10.000304, 9.999068 
4.9501795e+2, 2.4439548e+2, -595095.4, -679419.94, 287.03113, 0.014288727, 0.14872417, -595094.4, -50156.84, 0.0, 10.000102, 9.998982 
4.950138e+2, 2.5439447e+2, -547339.7, -602628.44, -2433.1555, 0.0041348343, 0.14528921, -547232.8, -100284.26, 0.0, 9.999744, 9.999008 
4.9500993e+2, 2.643936e+2, -440371.72, -474733.94, 10124.332, 0.007059464, 0.14594932, -437610.6, -88652.84, 0.0, 9.999697, 9.999237 
4.9500632e+2, 2.7439293e+2, -291175.47, -348660.1, 24814.451, 0.023208717, 0.15003802, -281945.72, -30981.867, 0.0, 10.000033, 9.999269 
4.9500227e+2, 2.843922e+2, -208049.03, -281833.63, 6951.313, 0.016142864, 0.16340959, -207399.84, -54429.754, 0.0, 10.000034, 9.999055 
4.949977e+2, 2.9439127e+2, -166904.67, -205236.66, -3976.1765, -0.01073614, 0.1590388, -166496.56, -111518.41, 0.0, 9.999618, 9.999108 
4.9499413e+2, 3.0438873e+2, -162938.95, -194282.47, -1483.1208, 0.054551877, 0.0017013869, -162868.94, -162868.94, 0.0, 9.99938, 9.998963 
4.94989e+2, 3.1438923e+2, -44573.402, 56462.867, -8435.176, -0.023681665, 0.15339656, 57162.25, 57162.25, 0.000000050936965, 9.999358, 10.000695 
5.050665e+2, 1.2441214e+2, -1415173.8, -1650785.0, -42719.766, 0.15812573, 0.12108001, -1407667.1, 313104.22, 0.0000009949754, 10.002434, 9.999251 
5.050591e+2, 1.3441005e+2, -1457148.9, -1728182.1, 84812.84, -0.25411174, 0.070879586, -1432796.9, 189995.23, 0.000000065122016, 10.0018835, 9.9983425 
5.050615e+2, 1.4440925e+2, -1385166.0, -1569987.1, 44557.375, 0.26468942, 0.12882467, -1374984.9, 149815.81, 0.0, 10.001414, 9.998966 
5.050544e+2, 1.5440817e+2, -1341577.3, -1492379.5, 16907.416, 0.0073995935, 0.115473986, -1339704.9, 87107.37, 0.0, 10.001018, 9.999016 
5.050491e+2, 1.6440728e+2, -1229244.9, -1349721.8, 16943.36, -0.06666616, 0.11233165, -1226907.4, 101913.2, 0.0, 10.000954, 9.999353 
5.050457e+2, 1.7440672e+2, -1081421.6, -1222396.4, -543.6899, 0.029730557, 0.1124831, -1081419.6, 149404.86, 0.0, 10.001273, 9.9994 
5.050419e+2, 1.844058e+2, -1023653.3, -1204422.5, 19822.217, 0.057638526, 0.10778891, -1021505.25, 111327.39, 0.0, 10.001256, 9.998859 
5.050378e+2, 1.9440451e+2, -987105.44, -1137526.6, 31544.219, 0.018388322, 0.08973236, -980758.25, 54087.7, 0.0, 10.000842, 9.998845 
5.0503397e+2, 2.044033e+2, -926354.2, -1059218.5, 37309.89, 0.005711821, 0.08600321, -916594.06, 20264.389, 0.0, 10.000592, 9.998831 
5.050304e+2, 2.1440221e+2, -833556.7, -960969.2, 40129.563, 0.019573057, 0.08999588, -821971.06, 16898.795, 0.0, 10.0005455, 9.998854 
5.0502646e+2, 2.2440131e+2, -742252.56, -856876.9, 23350.848, 0.02466981, 0.11164641, -737678.2, 3201.3384, 0.0, 10.00046, 9.998938 
5.0502235e+2, 2.3440066e+2, -663485.8, -764926.6, 10265.788, 0.020480955, 0.14767432, -662457.3, -19570.678, 0.0, 10.000315, 9.998965 
5.0501806e+2, 2.443998e+2, -584312.94, -672982.75, 774.88086, 0.015896283, 0.16450359, -584306.2, -39410.254, 0.0, 10.000171, 9.998993 
5.0501376e+2, 2.5439864e+2, -503617.38, -579891.9, 4990.3013, 0.01146615, 0.14445932, -503292.28, -56384.24, 0.0, 10.000037, 9.999023 
5.0500983e+2, 2.6439774e+2, -402391.22, -446111.3, 26879.209, 0.016996838, 0.13643457, -389605.13, -40687.94, 0.0, 9.999914, 9.999329 
5.050063e+2, 2.7439716e+2, -318636.5, -351596.66, 22384.012, 0.030553527, 0.14080943, -307320.25, -56398.164, 0.0, 9.999801, 9.999359 
5.050022e+2, 2.843966e+2, -259499.45, -311514.06, -9360.5205, 0.025504814, 0.1633865, -257866.23, -104939.055, 0.0, 9.9997015, 9.99901 
5.049975e+2, 2.9439577e+2, -173202.61, -212856.55, -2183.17, 0.008934888, 0.18180464, -173082.77, -118148.836, 0.0, 9.999595, 9.999066 
5.0499374e+2, 3.0439308e+2, -121943.414, -139149.63, 11856.517, 0.06847724, -0.003762847, -115897.62, -115897.62, 0.0, 9.99951, 9.999279 
5.0498813e+2, 3.1439352e+2, -33180.555, 56991.375, -10616.25, -0.053418264, 0.1088447, 58224.402, 58224.402, 0.000000020855737, 9.999457, 10.000652 
5.150683e+2, 1.2441741e+2, -1409235.4, -1635947.6, -57016.535, 0.09111281, 0.18405749, -1395703.9, 325018.88, 0.00000067894854, 10.002421, 9.999359 
5.150608e+2, 1.3441508e+2, -1448393.9, -1710868.0, 65369.63, -0.2793207, 0.09522897, -1433014.6, 189730.44, 0.000000029496794, 10.001885, 9.998461 
5.150633e+2, 1.4441416e+2, -1374684.1, -1550445.3, 28536.645, 0.29874003, 0.13020714, -1370167.0, 154586.63, 0.0, 10.001423, 9.999096 
5.150559e+2, 1.5441334e+2, -1331494.0, -1472280.6, 2353.0593, 0.048241183, 0.13094386, -1331454.6, 95306.67, 0.0, 10.001021, 9.999152 
5.150504e+2, 1.6441244e+2, -1261510.3, -1416913.8, 26896.592, -0.034638606, 0.13892822, -1256986.8, 71783.51, 0.0, 10.000954, 9.998892 
5.1504713e+2, 1.7441137e+2, -1116083.8, -1294872.0, 12044.221, 0.040279582, 0.1387401, -1115276.0, 115504.984, 0.0, 10.001275, 9.998901 
5.150432e+2, 1.8441032e+2, -1007284.25, -1170394.6, 5102.633, 0.065301314, 0.13655601, -1007124.75, 125666.375, 0.0, 10.001256, 9.999093 
5.1503897e+2, 1.9440936e+2, -967624.25, -1096846.9, 16323.189, 0.046213962, 0.12449668, -965594.25, 69205.68, 0.0, 10.00084, 9.9991255 
5.150348e+2, 2.0440836e+2, -920425.75, -1045192.4, 34242.89, 0.027468128, 0.12223564, -911645.5, 25163.777, 0.0, 10.000586, 9.99893 
5.1503074e+2, 2.1440732e+2, -827351.1, -948260.1, 38807.55, 0.003926562, 0.12170868, -815967.1, 22852.08, 0.0, 10.0005455, 9.998942 
5.150266e+2, 2.2440615e+2, -762843.25, -898800.6, 17623.604, -0.009521754, 0.12608525, -760595.94, -19764.557, 0.0, 10.000456, 9.9986515 
5.1502234e+2, 2.3440486e+2, -685273.75, -809922.6, 5391.9854, -0.006932904, 0.12852184, -685040.94, -42194.78, 0.0, 10.000313, 9.998658 
5.150181e+2, 2.4440387e+2, -578174.4, -659660.9, -4959.6807, 0.005762642, 0.143151, -577873.6, -33016.58, 0.0, 10.000169, 9.999086 
5.1501405e+2, 2.544032e+2, -495623.16, -563162.3, 247.00027, 0.03325635, 0.16142222, -495622.25, -48759.19, 0.0, 10.000036, 9.99914 
5.1501e+2, 2.6440224e+2, -412644.75, -466635.3, 22440.691, 0.04196869, 0.14979503, -404535.47, -55663.176, 0.0, 9.99991, 9.999189 
5.1500607e+2, 2.7440095e+2, -329489.63, -373759.9, 18984.598, 0.021331685, 0.097171, -322463.5, -71578.555, 0.0, 9.999799, 9.999208 
5.150017e+2, 2.8440052e+2, -247363.3, -285126.03, -13657.354, 0.0055145957, 0.1337529, -242941.67, -90052.53, 0.0, 9.999697, 9.999194 
5.149971e+2, 2.9440102e+2, -159149.69, -182022.61, -5395.537, 0.010202354, 0.2611656, -157940.81, -103057.29, 0.0, 9.999588, 9.999281 
5.149934e+2, 3.0439857e+2, -116865.68, -126605.29, 8629.79, 0.08946014, 0.079198256, -111826.484, -111826.484, 0.0, 9.999501, 9.999371 
5.149878e+2, 3.1439775e+2, -57438.64, 8079.089, -4885.619, -0.02753207, 0.065843895, 8441.403, 8441.403, 0.0000000053166334, 9.999453, 10.000319 
5.250706e+2, 1.2442237e+2, -1508153.3, -1677595.5, -46587.734, 0.11634525, 0.19957687, -1496188.9, 224486.75, 0.0000005002885, 10.00172, 9.999409 
5.2506244e+2, 1.3442007e+2, -1482457.1, -1720963.5, 59156.52, -0.29091963, 0.110808395, -1468590.8, 154106.63, 0.000000016983103, 10.001623, 9.998518 
5.250649e+2, 1.4441913e+2, -1327754.9, -1527604.0, 26206.297, 0.29869217, 0.13904776, -1324375.5, 200330.44, 0.0, 10.001744, 9.999098 
5.2505744e+2, 1.5441836e+2, -1188439.5, -1403605.6, -11302.843, 0.0534089, 0.14446303, -1187847.4, 238865.22, 0.0, 10.002005, 9.999149 
5.2505183e+2, 1.6441733e+2, -1154083.4, -1384697.0, 13014.384, -0.02887025, 0.14854817, -1153351.3, 175371.2, 0.0, 10.001775, 9.998718 
5.2504826e+2, 1.7441595e+2, -1172173.6, -1343123.0, 19264.47, 0.045665678, 0.13436778, -1170029.6, 60707.3, 0.0, 10.000979, 9.998714 
5.2504426e+2, 1.8441477e+2, -1088897.0, -1210228.9, 24281.344, 0.07122328, 0.13172011, -1084218.3, 48530.11, 0.0, 10.000697, 9.999089 
5.250399e+2, 1.94414e+2, -937924.7, -1081220.5, 14657.057, 0.0497391, 0.1372767, -936440.8, 98314.625, 0.0, 10.001039, 9.999136 
5.250356e+2, 2.0441312e+2, -845257.25, -1004777.3, 15782.561, 0.030384263, 0.14367153, -843710.75, 93052.89, 0.0, 10.001083, 9.998968 
5.2503145e+2, 2.1441211e+2, -794100.2, -927612.2, 15348.794, 0.008899699, 0.14195395, -792358.44, 46414.41, 0.0, 10.000755, 9.998982 
5.2502716e+2, 2.2441086e+2, -760070.8, -904173.06, 2315.8638, -0.001047762, 0.1393364, -760033.6, -19248.027, 0.0, 10.000504, 9.998592 
5.250228e+2, 2.3440935e+2, -683641.2, -816213.2, 7517.5186, 0.0052971197, 0.12560688, -683216.3, -40413.5, 0.0, 10.000355, 9.998594 
5.250185e+2, 2.4440826e+2, -560912.4, -647594.25, 8446.014, 0.015378838, 0.13462786, -560097.06, -15282.774, 0.0, 10.000271, 9.99912 
5.2501416e+2, 2.5440773e+2, -460370.34, -541709.8, 6615.4795, 0.031593025, 0.1618337, -459835.8, -13017.139, 0.0, 10.00026, 9.999179 
5.2500993e+2, 2.6440683e+2, -387345.53, -463688.72, 23581.205, 0.03793295, 0.1575536, -380649.06, -31821.78, 0.0, 10.000123, 9.999107 
5.250059e+2, 2.7440545e+2, -332451.5, -384526.72, 24545.314, 0.026653098, 0.10663974, -322706.0, -71865.055, 0.0, 9.99982, 9.999124 
5.250014e+2, 2.844049e+2, -251318.42, -285027.78, -4228.519, 0.0077399993, 0.13512585, -250796.08, -97949.57, 0.0, 9.999661, 9.999211 
5.249966e+2, 2.9440534e+2, -143914.81, -172895.3, -11243.591, -0.007326733, 0.24917255, -140064.25, -85222.14, 0.0, 9.999683, 9.999298 
5.2499294e+2, 3.0440322e+2, -97752.766, -99677.3, -7489.607, 0.08697432, 0.09688357, -91163.86, -91163.86, 0.0, 9.999556, 9.999529 
5.249877e+2, 3.1440297e+2, -107220.06, -38546.617, -9263.971, 0.02284803, 0.11935429, -37318.867, -37318.867, 0.00000000056215, 9.999206, 10.000117 
5.3507334e+2, 1.2442706e+2, -1509604.4, -1683258.5, -42456.777, 0.21615939, 0.17231146, -1499780.0, 220849.83, 0.00000041209, 10.001732, 9.999365 
5.3506404e+2, 1.3442504e+2, -1483503.4, -1724828.0, 56467.563, -0.29237366, 0.11676543, -1470944.1, 151705.36, 0.000000018082496, 10.001629, 9.99849 
5.350663e+2, 1.4442414e+2, -1335809.1, -1543679.5, 35164.66, 0.2621258, 0.15397036, -1330021.6, 194636.47, 0.0, 10.001741, 9.998989 
5.3505915e+2, 1.5442324e+2, -1197121.3, -1420990.1, -1474.5061, 0.019243529, 0.15681508, -1197111.6, 229554.44, 0.0, 10.002003, 9.99903 
5.350534e+2, 1.64422e+2, -1147476.8, -1371085.5, -15830.534, -0.05501841, 0.14424422, -1146361.6, 182315.5, 0.0, 10.001775, 9.998812 
5.3504926e+2, 1.7442043e+2, -1164052.0, -1326943.6, -10166.257, 0.04387451, 0.09995436, -1163420.0, 67272.15, 0.0, 10.000982, 9.998824 
5.3504497e+2, 1.8441918e+2, -1105330.5, -1244304.5, 34338.703, 0.07258643, 0.093554646, -1097308.9, 35395.4, 0.0, 10.000697, 9.998856 
5.3504074e+2, 1.9441843e+2, -955991.75, -1118844.6, 27867.79, 0.026501914, 0.12721334, -951355.0, 83357.7, 0.0, 10.001039, 9.998879 
5.3503656e+2, 2.0441756e+2, -847573.75, -1008210.4, 4438.0176, 0.011230692, 0.15008928, -847451.2, 89270.32, 0.0, 10.001078, 9.998946 
5.350324e+2, 2.1441655e+2, -795383.7, -929295.5, 3431.575, 0.03175655, 0.15018634, -795295.75, 43434.99, 0.0, 10.000751, 9.998973 
5.3502816e+2, 2.244154e+2, -749031.75, -880305.3, -4365.7744, 0.046340484, 0.149795, -748886.75, -8144.413, 0.0, 10.0005, 9.998758 
5.350237e+2, 2.3441409e+2, -671109.56, -790718.94, 2330.921, 0.05504927, 0.1385868, -671064.1, -28307.502, 0.0, 10.000357, 9.99877 
5.35019e+2, 2.4441299e+2, -563086.6, -651657.7, 7631.5605, 0.04238307, 0.1383783, -562433.9, -17666.008, 0.0, 10.000269, 9.999093 
5.3501415e+2, 2.5441223e+2, -463433.38, -548165.56, 6782.0073, 0.0037882093, 0.14510316, -462893.97, -16118.996, 0.0, 10.000259, 9.999135 
5.350097e+2, 2.6441148e+2, -389545.72, -467552.47, 12392.196, 0.0017920915, 0.15809783, -387624.4, -38841.984, 0.0, 10.00012, 9.999083 
5.3500587e+2, 2.7441067e+2, -334350.66, -387519.7, 13466.35, 0.043004375, 0.1682349, -331134.5, -80344.195, 0.0, 9.999816, 9.999105 
5.350013e+2, 2.8440976e+2, -262582.06, -306939.3, -4541.049, 0.028705105, 0.16746642, -262121.97, -109322.555, 0.0, 9.999655, 9.999064 
5.349959e+2, 2.9440865e+2, -155677.77, -197079.14, -9078.145, -0.045121234, 0.14629638, -153774.66, -98965.016, 0.0, 9.999682, 9.999133 
5.3499216e+2, 3.044071e+2, -83343.375, -68259.4, -20187.088, 0.058346584, 0.0485652, -54251.44, -54251.44, 0.0, 9.99955, 9.999747 
5.3498757e+2, 3.1440908e+2, -113126.2, -47767.184, -14267.801, 0.08813437, 0.2704971, -44788.31, -44788.31, 0.0000000000003731001, 9.999193, 10.000059 
5.4507536e+2, 1.2443205e+2, -1465782.3, -1675588.3, -17925.842, 0.22526674, 0.15487222, -1464261.6, 256318.5, 0.00000036785775, 10.00209, 9.999245 
5.450658e+2, 1.3443016e+2, -1429376.0, -1708670.4, 66670.805, -0.2964901, 0.12023145, -1414277.1, 208322.17, 0.000000024396927, 10.002043, 9.998402 
5.45068e+2, 1.4442916e+2, -1334252.6, -1550431.4, 44390.9, 0.26753315, 0.15794931, -1325492.3, 199116.86, 0.0, 10.001786, 9.99892 
5.4506075e+2, 1.5442812e+2, -1306296.5, -1481844.0, 7505.431, 0.016012844, 0.15476237, -1305976.3, 120642.26, 0.0, 10.001288, 9.998958 
5.450548e+2, 1.644269e+2, -1219774.5, -1397927.6, -5842.772, -0.063191615, 0.14022931, -1219583.1, 109046.625, 0.0, 10.0012455, 9.998882 
5.4505056e+2, 1.7442541e+2, -1048635.1, -1261554.8, -3013.9055, 0.04066879, 0.09988285, -1048592.5, 182050.39, 0.0, 10.001736, 9.998908 
5.450462e+2, 1.8442415e+2, -971707.5, -1198290.9, 42701.414, 0.07486661, 0.09317148, -963927.25, 168727.97, 0.0, 10.001695, 9.998691 
5.450418e+2, 1.9442315e+2, -973944.3, -1147722.6, 40631.51, 0.032154504, 0.12151612, -964913.44, 69752.79, 0.0, 10.001002, 9.998698 
5.4503745e+2, 2.0442215e+2, -910050.75, -1043425.4, 22680.254, 0.016771257, 0.14312848, -906299.5, 30377.273, 0.0, 10.00067, 9.998902 
5.450332e+2, 2.1442114e+2, -792623.4, -931743.4, 19089.363, 0.032871682, 0.14617391, -790051.56, 48634.938, 0.0, 10.000786, 9.9989395 
5.450288e+2, 2.2442007e+2, -707579.7, -848918.25, 5646.4116, 0.047345325, 0.150106, -707354.5, 33342.816, 0.0, 10.000735, 9.998859 
5.4502416e+2, 2.3441893e+2, -645660.2, -765885.06, 6122.0747, 0.060958166, 0.14504503, -645349.25, -2639.8687, 0.0, 10.000478, 9.99888 
5.450194e+2, 2.444179e+2, -559535.4, -654009.06, 15312.225, 0.051647622, 0.14792532, -557115.56, -12395.804, 0.0, 10.000312, 9.999056 
5.4501444e+2, 2.544171e+2, -466432.7, -554530.25, 14181.282, 0.0142083485, 0.15405841, -464206.16, -17478.555, 0.0, 10.000262, 9.999089 
5.4501e+2, 2.6441625e+2, -389464.28, -471507.75, 12025.88, 0.012984538, 0.16619267, -387737.84, -39002.21, 0.0, 10.000139, 9.999046 
5.4500586e+2, 2.7441543e+2, -322681.13, -386369.66, 9838.643, 0.054394964, 0.1731372, -321195.88, -70451.76, 0.0, 9.999915, 9.999065 
5.450011e+2, 2.8441438e+2, -247134.08, -297996.38, 5544.5903, 0.039082397, 0.16104627, -246536.66, -93782.34, 0.0, 9.999755, 9.999078 
5.449956e+2, 2.9441315e+2, -156807.5, -195228.39, 14106.94, -0.03775352, 0.1251812, -152184.2, -97418.695, 0.0, 9.999666, 9.999152 
5.4499173e+2, 3.0441198e+2, -74135.125, -63773.293, -2037.5522, 0.054500725, 0.065055385, -63387.027, -63387.027, 0.0, 9.999612, 9.999748 
5.449868e+2, 3.1441373e+2, -71059.414, -51021.41, -9778.751, 0.06752196, 0.26479074, -47040.254, -47040.254, 0.000000000015387011, 9.999584, 9.999848 
5.5507666e+2, 1.244373e+2, -1477724.4, -1699419.3, -12022.88, 0.14149721, 0.1436209, -1477074.3, 243453.05, 0.0000003291145, 10.002088, 9.999083 
5.550678e+2, 1.3443545e+2, -1437076.0, -1725205.3, 64729.67, -0.3066734, 0.12261703, -1423202.1, 199344.52, 0.000000025104656, 10.002046, 9.998287 
5.550703e+2, 1.444343e+2, -1337619.4, -1558404.6, 25627.057, 0.30764535, 0.15322262, -1334683.9, 189874.69, 0.0, 10.001789, 9.998865 
5.5506223e+2, 1.5443309e+2, -1308971.6, -1488457.4, -10775.401, 0.039775252, 0.13875785, -1308327.0, 118243.0, 0.0, 10.001291, 9.998911 
5.550561e+2, 1.6443196e+2, -1216309.8, -1390161.3, 9820.605, -0.056787085, 0.13611597, -1215756.9, 112823.45, 0.0, 10.001243, 9.998937 
5.550522e+2, 1.7443094e+2, -1044879.5, -1253051.6, 15482.171, 0.03327899, 0.13323696, -1043734.4, 186854.88, 0.0, 10.001733, 9.998968 
5.550479e+2, 1.8442968e+2, -979430.56, -1213321.1, 18402.307, 0.07443966, 0.12993214, -977991.56, 154609.6, 0.0, 10.00169, 9.99859 
5.550431e+2, 1.9442819e+2, -982053.25, -1164032.5, 14820.322, 0.064330176, 0.12003187, -980854.2, 53762.082, 0.0, 10.000999, 9.998588 
5.550384e+2, 2.0442691e+2, -914841.56, -1052516.0, 24864.27, 0.044245824, 0.122090526, -910488.6, 26140.799, 0.0, 10.000667, 9.998841 
5.5503374e+2, 2.1442589e+2, -797449.44, -940840.94, 23891.104, 0.009772948, 0.12952727, -793573.56, 45066.426, 0.0, 10.000781, 9.998879 
5.5502903e+2, 2.2442487e+2, -705592.9, -843573.8, -3712.4734, -0.00006782811, 0.13997345, -705493.06, 35157.543, 0.0, 10.00073, 9.9988985 
5.550242e+2, 2.3442386e+2, -642821.8, -759770.56, -3338.83, 0.021294009, 0.14502238, -642726.56, -65.48356, 0.0, 10.000476, 9.998923 
5.550196e+2, 2.4442299e+2, -562923.5, -660792.3, 12482.404, 0.041144773, 0.1625596, -561356.56, -16686.537, 0.0, 10.000311, 9.999009 
5.550152e+2, 2.544223e+2, -469775.72, -561401.2, 12760.529, 0.060250733, 0.18801913, -468031.78, -21355.074, 0.0, 10.000261, 9.9990425 
5.550107e+2, 2.6442125e+2, -393328.72, -478920.0, 3671.9734, 0.06843272, 0.18134409, -393171.47, -44484.426, 0.0, 10.000136, 9.998997 
5.550058e+2, 2.7441967e+2, -327072.22, -395532.97, 1981.7604, 0.058640882, 0.12017707, -327014.9, -76312.375, 0.0, 9.999914, 9.999003 
5.5500084e+2, 2.8441873e+2, -236300.48, -274333.7, 1542.8505, 0.03677938, 0.11470831, -236238.0, -83526.61, 0.0, 9.999749, 9.999243 
5.549958e+2, 2.9441875e+2, -145071.4, -168908.34, 11248.838, 0.010188962, 0.1867916, -140601.28, -85891.46, 0.0, 9.999658, 9.999337 
5.5499154e+2, 3.0441785e+2, -90000.9, -93844.05, -4110.326, 0.07044512, 0.14772147, -87385.16, -87385.16, 0.0, 9.999599, 9.999547 
5.549852e+2, 3.1441694e+2, -95197.55, -100181.34, -3676.451, -0.044880193, 0.10551936, -93248.06, -93248.06, 0.0000000020600701, 9.999579, 9.999513 
5.650785e+2, 1.2444208e+2, -1514339.8, -1704706.9, -44440.492, 0.13697782, 0.14342123, -1504476.4, 216004.66, 0.00000027083397, 10.001785, 9.999189 
5.650696e+2, 1.3444059e+2, -1485500.6, -1729868.4, 38772.97, -0.30256304, 0.1414456, -1479496.3, 143000.3, 0.000000017878008, 10.00163, 9.998456 
5.650721e+2, 1.4443944e+2, -1363155.4, -1571516.0, 11531.565, 0.32321712, 0.16495255, -1362519.1, 161988.9, 0.0, 10.0016165, 9.9988575 
5.650638e+2, 1.5443802e+2, -1237322.9, -1455401.6, -22841.422, 0.041853834, 0.12959601, -1234956.1, 191565.38, 0.0, 10.001792, 9.998896 
5.650576e+2, 1.6443688e+2, -1149223.8, -1365475.5, 3952.193, -0.061459374, 0.1290769, -1149151.5, 179380.75, 0.0, 10.001739, 9.998866 
5.650538e+2, 1.7443608e+2, -1097778.6, -1287502.0, -2029.014, 0.035589352, 0.15801808, -1097757.0, 132782.89, 0.0, 10.001409, 9.998888 
5.6504935e+2, 1.8443489e+2, -1042532.1, -1236276.1, -13005.931, 0.07917859, 0.16174598, -1041663.0, 90888.34, 0.0, 10.0012245, 9.998656 
5.6504416e+2, 1.9443324e+2, -943882.8, -1136806.5, -4438.9653, 0.06268302, 0.12770341, -943780.75, 90786.27, 0.0, 10.0012245, 9.998666 
5.6503916e+2, 2.0443186e+2, -864238.7, -1033070.9, 21124.734, 0.03892015, 0.117612176, -861635.7, 74945.17, 0.0, 10.001036, 9.998796 
5.6503445e+2, 2.144308e+2, -825054.44, -959689.75, 20196.904, 0.004661118, 0.12815867, -822089.94, 16502.129, 0.0, 10.000616, 9.99883 
5.650296e+2, 2.2442983e+2, -739714.4, -854462.44, -1142.6453, -0.006423202, 0.14222628, -739703.0, 899.4204, 0.0, 10.000472, 9.998948 
5.6502473e+2, 2.3442893e+2, -610424.6, -737875.5, -194.26189, 0.0119267665, 0.15176807, -610424.3, 32187.27, 0.0, 10.000671, 9.99898 
5.6502e+2, 2.4442802e+2, -519784.13, -646463.1, 10860.184, 0.03828088, 0.16618061, -518859.8, 25760.873, 0.0, 10.000634, 9.998952 
5.650156e+2, 2.5442716e+2, -468343.66, -568063.44, 8359.823, 0.07550218, 0.17986286, -467647.7, -21018.309, 0.0, 10.000302, 9.998978 
5.650109e+2, 2.6442608e+2, -400506.63, -478996.75, 2572.3125, 0.0850685, 0.17385206, -400422.4, -51782.367, 0.0, 10.000073, 9.999025 
5.650057e+2, 2.7442467e+2, -316498.78, -385557.16, 7154.4805, 0.055694483, 0.12548868, -315765.34, -65111.406, 0.0, 9.999969, 9.999043 
5.6500053e+2, 2.8442377e+2, -217385.39, -258563.89, 10161.169, 0.030990008, 0.11947473, -215014.53, -62352.28, 0.0, 9.999851, 9.999301 
5.649956e+2, 2.944238e+2, -133391.06, -158759.7, 9428.512, 0.023395522, 0.18397152, -130270.67, -75610.16, 0.0, 9.999718, 9.999378 
5.6499124e+2, 3.0442318e+2, -98582.26, -107810.26, -5605.4233, 0.08201023, 0.1793039, -95936.11, -95936.11, 0.0, 9.999582, 9.99946 
5.649847e+2, 3.1442156e+2, -120199.45, -119612.04, 8619.839, -0.047833327, 0.07422483, -111280.91, -111280.91, 0.000000017271022, 9.999438, 9.999448 
5.7508093e+2, 1.2444647e+2, -1489620.3, -1657371.4, -42248.355, 0.20023488, 0.1542194, -1479580.8, 240859.89, 0.00000019303324, 10.001801, 9.999508 
5.750714e+2, 1.3444562e+2, -1454737.8, -1667587.1, 32888.23, -0.28763467, 0.17648947, -1449771.9, 172676.75, 0.000000007774616, 10.001635, 9.998882 
5.750736e+2, 1.4444464e+2, -1361175.1, -1565982.6, 16201.482, 0.31142795, 0.19260366, -1359901.4, 164556.13, 0.0, 10.001612, 9.998898 
5.750654e+2, 1.5444295e+2, -1235712.0, -1451668.6, -15895.939, 0.019571193, 0.12712546, -1234548.3, 191924.52, 0.0, 10.00179, 9.998921 
5.7505906e+2, 1.6444165e+2, -1163762.3, -1395544.3, -7867.9297, -0.08075697, 0.119271785, -1163495.5, 164989.9, 0.0, 10.001737, 9.998661 
5.750553e+2, 1.7444089e+2, -1113323.3, -1319961.3, -13890.759, 0.04522581, 0.17419347, -1112393.6, 118100.96, 0.0, 10.001408, 9.998667 
5.7505065e+2, 1.844398e+2, -1027177.6, -1203407.6, -14220.263, 0.08570004, 0.18839084, -1026037.56, 106468.07, 0.0, 10.001221, 9.998883 
5.7504505e+2, 1.944383e+2, -926463.6, -1099653.1, -4284.1475, 0.025048187, 0.14426905, -926357.75, 108160.805, 0.0, 10.001221, 9.998922 
5.7503986e+2, 2.0443699e+2, -866770.94, -1037417.25, 5521.9375, -0.0009416696, 0.12945491, -866592.44, 69938.57, 0.0, 10.001032, 9.998769 
5.7503515e+2, 2.1443594e+2, -828475.25, -966148.6, 4643.73, 0.014726351, 0.1422382, -828318.75, 10223.939, 0.0, 10.000613, 9.998787 
5.750304e+2, 2.2443496e+2, -735640.06, -845401.0, 4699.591, 0.025248049, 0.15690085, -735439.2, 5113.6333, 0.0, 10.000469, 9.999012 
5.7502556e+2, 2.344341e+2, -605805.75, -727637.5, 7867.7944, 0.030627234, 0.16436061, -605299.75, 37261.168, 0.0, 10.000669, 9.999051 
5.750207e+2, 2.44433e+2, -525190.25, -657135.75, -1046.0289, 0.040651586, 0.15792482, -525181.94, 19389.863, 0.0, 10.000631, 9.99888 
5.750157e+2, 2.5443164e+2, -474861.8, -581118.2, -3892.6257, 0.057662103, 0.12954724, -474719.4, -28133.74, 0.0, 10.000299, 9.998889 
5.750107e+2, 2.6443076e+2, -393389.13, -463804.84, -2243.3674, 0.061204378, 0.14424488, -393317.72, -44723.09, 0.0, 10.000071, 9.999131 
5.7500553e+2, 2.7443042e+2, -307766.97, -366494.63, 3572.298, 0.04257125, 0.19006616, -307550.47, -56952.074, 0.0, 9.999964, 9.999178 
5.750003e+2, 2.8442946e+2, -220985.63, -264634.38, 4630.0806, 0.018079223, 0.1760686, -220499.89, -67892.945, 0.0, 9.999845, 9.999263 
5.7499504e+2, 2.944282e+2, -139362.25, -171055.84, 5300.7993, -0.001738952, 0.1140408, -138499.19, -83881.32, 0.0, 9.999717, 9.999294 
5.7499087e+2, 3.04428e+2, -98326.125, -106690.72, -11595.976, 0.086567715, 0.15738961, -90181.28, -90181.28, 0.00000000021282408, 9.999578, 9.99947 
5.749851e+2, 3.1442767e+2, -109282.19, -93747.734, 9542.107, 0.052693963, 0.17574267, -89211.234, -89211.234, 0.0000000699572, 9.999424, 9.999632 
5.850829e+2, 1.2445133e+2, -1489679.6, -1661182.6, -1664.0476, 0.21188071, 0.1670697, -1489663.5, 230729.95, 0.00000011738098, 10.001819, 9.999472 
5.8507305e+2, 1.3445027e+2, -1453123.4, -1660864.1, 33524.063, -0.28565872, 0.16370426, -1447847.5, 174555.77, 0.0000000014227642, 10.001623, 9.998932 
5.850752e+2, 1.444493e+2, -1364620.3, -1554899.0, 17724.74, 0.31003413, 0.17245948, -1362983.3, 161428.38, 0.0, 10.001534, 9.99901 
5.8506715e+2, 1.5444797e+2, -1251111.5, -1446234.1, -8817.4375, 0.023990853, 0.13181816, -1250713.9, 175709.11, 0.0, 10.00163, 9.999036 
5.850608e+2, 1.6444673e+2, -1199547.8, -1425585.0, -9665.077, -0.07741898, 0.12861562, -1199135.3, 129299.875, 0.0, 10.001546, 9.998548 
5.8505666e+2, 1.7444563e+2, -1145141.0, -1349437.5, -10213.41, 0.04583411, 0.16235118, -1144631.6, 85816.59, 0.0, 10.00125, 9.998539 
5.8505183e+2, 1.8444444e+2, -1033735.8, -1198740.4, 1686.4293, 0.08092744, 0.1721861, -1033718.56, 98741.74, 0.0, 10.0011425, 9.998953 
5.850462e+2, 1.944432e+2, -915720.06, -1085348.9, -1443.7913, 0.0081925, 0.14403306, -915707.8, 118763.016, 0.0, 10.001255, 9.999003 
5.8504075e+2, 2.0444207e+2, -844298.56, -1023502.1, -10923.202, -0.017633513, 0.1409015, -843635.2, 92846.41, 0.0, 10.001173, 9.9987955 
5.850358e+2, 2.1444109e+2, -791905.9, -945924.56, -8664.678, 0.013978452, 0.16026884, -791420.0, 47072.637, 0.0, 10.000854, 9.99881 
5.8503103e+2, 2.2444011e+2, -716459.4, -833488.1, 6601.3906, 0.03507923, 0.17241752, -716088.2, 24414.518, 0.0, 10.000589, 9.999037 
5.8502626e+2, 2.3443913e+2, -643713.0, -743222.94, 6200.0757, 0.04369305, 0.16512837, -643328.2, -816.46716, 0.0, 10.000398, 9.999076 
5.850212e+2, 2.4443801e+2, -575199.3, -671903.3, -6182.09, 0.047033112, 0.15091042, -574805.7, -30283.023, 0.0, 10.000249, 9.998963 
5.850159e+2, 2.5443673e+2, -490666.22, -578676.44, 2663.209, 0.04403645, 0.12383541, -490585.72, -44050.184, 0.0, 10.000149, 9.998978 
5.850107e+2, 2.64436e+2, -389007.06, -459362.44, 15140.137, 0.042555686, 0.1455552, -385887.34, -37344.1, 0.0, 10.000091, 9.999152 
5.850056e+2, 2.7443582e+2, -287872.16, -355543.0, 12249.568, 0.039191276, 0.2057435, -285723.03, -35177.547, 0.0, 10.000093, 9.999191 
5.850002e+2, 2.8443483e+2, -205022.31, -263717.38, 3090.4893, 0.020284466, 0.18767507, -204860.05, -52305.137, 0.0, 9.999984, 9.999203 
5.849947e+2, 2.944332e+2, -144909.23, -182479.22, 999.6137, -0.008017457, 0.09911535, -144882.66, -90313.03, 0.0, 9.999718, 9.999215 
5.849904e+2, 3.0443323e+2, -110002.28, -114224.6, -12709.123, 0.08339362, 0.17006096, -99230.164, -99230.164, 0.000000006848287, 9.999508, 9.999452 
5.849849e+2, 3.1443286e+2, -95806.46, -61633.652, 10061.962, 0.08908173, 0.18561032, -58891.08, -58891.08, 0.00000018333391, 9.999408, 9.999861 
5.950843e+2, 1.2445671e+2, -1515225.3, -1716215.4, 901.5188, 0.16969879, 0.18370757, -1515221.1, 205118.17, 0.000000058921596, 10.001826, 9.999091 
5.950746e+2, 1.3445458e+2, -1473803.6, -1705853.3, 25697.799, -0.29930988, 0.102773495, -1470991.9, 151368.2, 0.000000000010343272, 10.001631, 9.99862 
5.950768e+2, 1.4445345e+2, -1352194.6, -1529754.0, 19912.623, 0.31493968, 0.10458588, -1349988.9, 174381.33, 0.0, 10.001536, 9.999183 
5.9506905e+2, 1.5445311e+2, -1237423.9, -1417807.0, -4561.0728, 0.05213951, 0.14345217, -1237308.6, 189063.22, 0.0, 10.001629, 9.999232 
5.9506255e+2, 1.644521e+2, -1202394.1, -1430545.0, -20831.893, -0.055415563, 0.15608498, -1200507.6, 127873.72, 0.0, 10.001541, 9.998515 
5.950578e+2, 1.7445031e+2, -1147191.1, -1354461.5, -21047.592, 0.034705393, 0.12290736, -1145075.5, 85325.29, 0.0, 10.001253, 9.998504 
5.950528e+2, 1.8444888e+2, -1039592.5, -1210896.9, 4823.0635, 0.06164041, 0.113671154, -1039456.8, 92958.586, 0.0, 10.001142, 9.99887 
5.950474e+2, 1.9444795e+2, -922254.9, -1098440.9, 3149.2266, 0.009512362, 0.12763478, -922198.56, 112225.13, 0.0, 10.001253, 9.998916 
5.95042e+2, 2.0444708e+2, -839915.94, -1012810.0, -22666.775, -0.013833404, 0.15218256, -836993.7, 99438.91, 0.0, 10.001166, 9.998873 
5.9503657e+2, 2.144463e+2, -786518.75, -933488.56, -20375.104, 0.0004171632, 0.1816143, -783746.3, 54695.56, 0.0, 10.000848, 9.998898 
5.9503144e+2, 2.2444531e+2, -718175.2, -836077.0, -1620.4462, 0.021099295, 0.18805139, -718152.94, 22299.275, 0.0, 10.000585, 9.999022 
5.950267e+2, 2.3444407e+2, -645713.25, -746877.0, -732.48413, 0.048721664, 0.15508498, -645707.94, -3244.096, 0.0, 10.000395, 9.999051 
5.9502155e+2, 2.4444307e+2, -558870.56, -637616.7, -10407.492, 0.05439432, 0.14643274, -557518.3, -13045.145, 0.0, 10.000247, 9.9992 
5.9501594e+2, 2.544425e+2, -472666.3, -540748.3, -693.3304, 0.032695264, 0.16281202, -472659.25, -26180.334, 0.0, 10.000146, 9.99924 
5.9501064e+2, 2.644418e+2, -393960.0, -469003.4, 14677.4795, 0.02746652, 0.17728058, -391191.4, -42705.477, 0.0, 10.000088, 9.999087 
5.950057e+2, 2.7444085e+2, -294970.84, -369864.9, 13093.107, 0.041511446, 0.17098306, -292747.88, -42252.523, 0.0, 10.000091, 9.999094 
5.950004e+2, 2.8443977e+2, -212334.75, -278140.06, -6885.6704, 0.033174228, 0.15321776, -211621.98, -59115.723, 0.0, 9.99998, 9.999105 
5.949945e+2, 2.944388e+2, -152951.95, -196879.44, -9300.771, 0.0017670221, 0.14210555, -151063.86, -96548.21, 0.0, 9.999707, 9.999122 
5.949897e+2, 3.0443886e+2, -113994.664, -119360.625, -17488.568, 0.0707626, 0.22118194, -98984.47, -98984.47, 0.000000033052434, 9.9994955, 9.999423 
5.9498394e+2, 3.1443715e+2, -76813.125, -19961.096, 12303.376, 0.05390944, 0.102298945, -17412.744, -17412.744, 0.00000037488923, 9.999399, 10.000151 
6.050861e+2, 1.2446167e+2, -1523039.9, -1735305.8, 5297.85, 0.16483934, 0.17020546, -1522907.8, 197381.88, 0.000000021349177, 10.00184, 9.998954 
6.0507643e+2, 1.3445957e+2, -1414513.4, -1682619.4, 34640.715, -0.30003804, 0.09721344, -1410109.9, 212200.2, 0.0, 10.002063, 9.99857 
6.050785e+2, 1.4445834e+2, -1307215.5, -1523749.9, 21871.164, 0.31285208, 0.10058543, -1305028.5, 219293.03, 0.0, 10.001914, 9.999041 
6.0507065e+2, 1.5445787e+2, -1273442.9, -1450819.6, -28310.158, 0.063046746, 0.1410055, -1269034.0, 157291.39, 0.0, 10.001451, 9.999091 
6.050641e+2, 1.6445686e+2, -1222455.1, -1425462.0, -43960.043, -0.046612293, 0.15299533, -1213344.8, 114990.31, 0.0, 10.00134, 9.998647 
6.0505915e+2, 1.7445518e+2, -1081932.3, -1306322.5, -31122.928, 0.02669736, 0.11726902, -1077695.5, 152656.45, 0.0, 10.00163, 9.9986515 
6.05054e+2, 1.844538e+2, -996376.44, -1197143.5, -7435.0513, 0.054833084, 0.10730433, -996101.44, 136264.52, 0.0, 10.00147, 9.998807 
6.0504854e+2, 1.944528e+2, -998149.3, -1143758.0, -9886.509, 0.023640534, 0.12260083, -997481.1, 36894.89, 0.0, 10.00077, 9.998837 
6.05043e+2, 2.0445193e+2, -929024.2, -1050463.9, -24790.064, 0.0017982443, 0.1483393, -924158.6, 12226.756, 0.0, 10.000531, 9.99892 
6.0503733e+2, 2.1445121e+2, -782003.0, -925465.8, -25014.006, -0.006272621, 0.178391, -777766.6, 60627.094, 0.0, 10.000854, 9.99895 
6.0503197e+2, 2.2445026e+2, -685910.8, -820354.0, -18667.793, 0.004571487, 0.18592972, -683366.9, 57036.754, 0.0, 10.000806, 9.999022 
6.050269e+2, 2.3444901e+2, -659844.25, -754190.06, -18265.18, 0.036847617, 0.15466908, -656431.56, -14016.015, 0.0, 10.0003, 9.999046 
6.050216e+2, 2.4444811e+2, -576039.9, -637999.94, -18568.14, 0.047899257, 0.14975369, -570901.5, -26477.207, 0.0, 10.000095, 9.99927 
6.050161e+2, 2.5444767e+2, -450343.72, -521970.94, -22937.879, 0.032811593, 0.1734055, -443627.8, 2800.68, 0.0, 10.000265, 9.999311 
6.050108e+2, 2.6444703e+2, -378145.56, -457297.8, -19647.922, 0.03281164, 0.18742271, -373536.75, -25101.877, 0.0, 10.000177, 9.9991255 
6.050057e+2, 2.74446e+2, -341474.34, -388168.88, -13281.454, 0.050201304, 0.1706826, -337961.03, -87516.16, 0.0, 9.999754, 9.999131 
6.050002e+2, 2.8444493e+2, -275916.34, -305740.66, -18641.39, 0.042170368, 0.14980881, -266956.47, -114500.64, 0.0, 9.99953, 9.999133 
6.049942e+2, 2.9444405e+2, -172279.8, -205252.22, -13383.016, 0.0065566497, 0.14425665, -167531.6, -113066.96, 0.00000000003092486, 9.999569, 9.999132 
6.049892e+2, 3.044441e+2, -110564.35, -134544.33, -17980.385, 0.062110614, 0.2308302, -100942.91, -100942.91, 0.00000008707832, 9.999591, 9.999272 
6.049834e+2, 3.1444225e+2, -35183.293, 17698.82, 2381.3057, 0.044984393, 0.110813715, 17805.836, 17805.836, 0.0000006525611, 9.99961, 10.000308 
6.150883e+2, 1.2446626e+2, -1515997.3, -1722101.3, 21201.207, 0.19622834, 0.1302062, -1513838.9, 206404.81, 0.0000000039655865, 10.001844, 9.9990425 
6.1507857e+2, 1.3446525e+2, -1401892.1, -1654690.6, 41709.04, -0.2910986, 0.14672154, -1395188.4, 227064.94, 0.0, 10.002056, 9.998765 
6.1508024e+2, 1.4446399e+2, -1339456.8, -1589910.3, 3491.3567, 0.29996496, 0.15856384, -1339408.1, 184857.61, 0.0, 10.00191, 9.9985895 
6.150721e+2, 1.544623e+2, -1306155.5, -1520354.4, -45044.35, 0.054238643, 0.12361437, -1297068.5, 129215.0, 0.0, 10.001456, 9.998612 
6.1506534e+2, 1.6446102e+2, -1201545.3, -1382439.1, -34580.082, -0.05443028, 0.11973924, -1195160.3, 133135.72, 0.0, 10.001341, 9.998941 
6.1506075e+2, 1.7446026e+2, -1058936.1, -1258006.5, -19786.564, 0.019930737, 0.14466463, -1056988.5, 173313.34, 0.0, 10.001627, 9.998984 
6.150555e+2, 1.844592e+2, -1001262.7, -1205937.9, -32726.035, 0.057550393, 0.15166512, -996157.4, 136154.8, 0.0, 10.001463, 9.99875 
6.1504954e+2, 1.9445775e+2, -1003167.75, -1154495.0, -36028.523, 0.04817839, 0.12802838, -995027.8, 39299.895, 0.0, 10.000771, 9.998763 
6.1504376e+2, 2.044566e+2, -928104.75, -1047742.5, -15276.132, 0.02635271, 0.12892033, -926185.0, 10155.001, 0.0, 10.000528, 9.99894 
6.150382e+2, 2.1445583e+2, -780675.75, -921745.06, -12508.748, -0.009304193, 0.15170506, -779575.2, 58772.816, 0.0, 10.00085, 9.998977 
6.150326e+2, 2.2445497e+2, -686381.7, -819983.94, -36673.207, -0.017638868, 0.16744733, -676977.06, 63379.77, 0.0, 10.0008, 9.999027 
6.150269e+2, 2.34454e+2, -659096.9, -752388.0, -36973.535, 0.007317837, 0.16335532, -646220.56, -3853.8093, 0.0, 10.000299, 9.99906 
6.1502147e+2, 2.4445307e+2, -583499.1, -653122.44, -14092.33, 0.026769178, 0.16019006, -580754.9, -36378.73, 0.0, 10.0000925, 9.999167 
6.150164e+2, 2.5445226e+2, -458901.5, -539163.8, -16000.224, 0.04071739, 0.15506457, -455829.47, -9445.196, 0.0, 10.000262, 9.999195 
6.1501116e+2, 2.6445165e+2, -368733.13, -437223.1, -34570.367, 0.054310884, 0.17589228, -354317.75, -5927.768, 0.0, 10.0001745, 9.999265 
6.1500555e+2, 2.744513e+2, -330250.88, -364020.3, -28960.59, 0.06391306, 0.20711245, -313612.3, -63218.516, 0.0, 9.999749, 9.999299 
6.149998e+2, 2.8445032e+2, -265759.9, -283469.16, -18407.7, 0.046592865, 0.17967515, -254187.88, -101784.47, 0.0, 9.999524, 9.999289 
6.149937e+2, 2.9444888e+2, -163826.13, -186641.53, -11008.263, 0.0014407312, 0.103193805, -159380.83, -104964.01, 0.0000000010306047, 9.999564, 9.999262 
6.149886e+2, 3.0444887e+2, -132728.83, -178850.11, -17798.176, 0.05146696, 0.19572721, -126659.266, -126659.266, 0.00000016756015, 9.999584, 9.998971 
6.149831e+2, 3.144481e+2, -37925.547, 16247.6, 6811.931, 0.05672883, 0.20941664, 17091.025, 17091.025, 0.000001002472, 9.999593, 10.000306 
6.250902e+2, 1.2447079e+2, -1457888.9, -1691723.6, -15740.056, 0.18964788, 0.1392052, -1456834.1, 263365.72, 0.00000000008306351, 10.00223, 9.999065 
6.250805e+2, 1.3446994e+2, -1460209.6, -1668697.5, -13889.548, -0.2770378, 0.16029856, -1459288.4, 162918.98, 0.0, 10.001594, 9.998892 
6.2508196e+2, 1.4446877e+2, -1421437.3, -1627816.4, -30447.664, 0.30514598, 0.1717895, -1417039.0, 107180.06, 0.0, 10.001338, 9.998606 
6.250737e+2, 1.5446703e+2, -1272244.0, -1502286.6, -42022.953, 0.06024568, 0.13142592, -1264807.8, 161429.83, 0.0, 10.001681, 9.998628 
6.250668e+2, 1.6446577e+2, -1148582.1, -1337615.9, -18615.318, -0.052417725, 0.12105276, -1146766.4, 181483.3, 0.0, 10.001623, 9.999113 
6.2506205e+2, 1.7446513e+2, -1124598.1, -1269534.9, -16596.564, 0.016880333, 0.13847104, -1122722.0, 107531.73, 0.0, 10.001091, 9.999164 
6.250566e+2, 1.8446414e+2, -1082756.1, -1251736.3, -37205.867, 0.054802846, 0.1466672, -1074926.9, 57336.297, 0.0, 10.000931, 9.998692 
6.2505054e+2, 1.9446273e+2, -943476.1, -1133843.1, -41262.83, 0.048564512, 0.13429992, -934917.06, 99362.14, 0.0, 10.001215, 9.998692 
6.2504464e+2, 2.044616e+2, -835976.1, -987474.7, -13430.812, 0.032245275, 0.13542004, -834794.6, 101496.56, 0.0, 10.001092, 9.999083 
6.25039e+2, 2.1446085e+2, -824447.56, -925806.0, -2147.8003, 0.0042568264, 0.14455543, -824402.06, 13896.011, 0.0, 10.000476, 9.999129 
6.250332e+2, 2.2446e+2, -767721.75, -865998.4, -21356.26, -0.005487451, 0.15583701, -763281.5, -22974.834, 0.0, 10.000271, 9.998966 
6.2502736e+2, 2.3445904e+2, -625800.9, -744773.0, -28676.014, 0.006447671, 0.1594772, -619249.8, 23067.604, 0.0, 10.000565, 9.998984 
6.2502176e+2, 2.4445812e+2, -521162.7, -620328.2, -5930.646, 0.019471794, 0.16012113, -520809.25, 23517.732, 0.0, 10.000509, 9.999192 
6.2501657e+2, 2.544573e+2, -492888.75, -552486.6, 1484.7152, 0.034056373, 0.15132591, -492851.78, -46517.02, 0.0, 10.000016, 9.999222 
6.25011e+2, 2.6445666e+2, -428097.06, -467217.84, -16377.009, 0.047407307, 0.16661125, -422146.38, -73805.586, 0.0, 9.999773, 9.999252 
6.2500525e+2, 2.7445623e+2, -316626.13, -359006.13, -24780.707, 0.05651604, 0.19301704, -305210.9, -54865.637, 0.0, 9.999849, 9.999286 
6.2499946e+2, 2.8445533e+2, -212640.44, -260617.42, -20355.086, 0.044071753, 0.17393926, -205168.2, -52813.84, 0.0, 9.999901, 9.999264 
6.249935e+2, 2.9445404e+2, -116583.34, -167663.78, -27719.744, 0.009580811, 0.11562141, -104431.56, -50065.15, 0.000000004235602, 9.999905, 9.999228 
6.2498826e+2, 3.044538e+2, -129089.055, -192941.86, -42363.84, 0.050457906, 0.19140331, -107968.4, -107968.4, 0.000000262113, 9.999676, 9.998831 
6.249824e+2, 3.1445298e+2, -87183.92, 4231.37, -4138.9907, 0.048353102, 0.21895365, 4418.3877, 4418.3877, 0.0000013873902, 9.999202, 10.000412 
6.35092e+2, 1.2447528e+2, -1459441.8, -1696419.5, -31425.629, 0.14541648, 0.19474769, -1455345.1, 264812.84, 0.0, 10.0022335, 9.999033 
6.350823e+2, 1.3447371e+2, -1455223.4, -1659558.4, -38790.074, -0.2612417, 0.1375318, -1448107.4, 174064.52, 0.0, 10.001598, 9.998952 
6.350835e+2, 1.4447272e+2, -1387996.3, -1559365.5, -21584.697, 0.32416767, 0.1417114, -1385319.4, 138861.72, 0.0, 10.001343, 9.999073 
6.3507557e+2, 1.544721e+2, -1238438.4, -1431060.5, -28755.98, 0.078209855, 0.16398077, -1234237.1, 191950.63, 0.0, 10.001677, 9.999119 
6.3506854e+2, 1.6447115e+2, -1146041.3, -1331057.0, -37954.57, -0.04489692, 0.15585399, -1138557.8, 189638.6, 0.0, 10.0016165, 9.999162 
6.350631e+2, 1.7446977e+2, -1122202.5, -1265611.5, -36409.977, 0.0145487385, 0.09880831, -1113487.9, 116719.555, 0.0, 10.001094, 9.99919 
6.350575e+2, 1.8446863e+2, -1087186.1, -1260645.4, -28563.727, 0.042770494, 0.092986815, -1082603.5, 49615.31, 0.0, 10.00093, 9.998631 
6.350515e+2, 1.9446777e+2, -948337.7, -1143571.9, -30189.67, 0.023110032, 0.14197019, -943776.0, 90454.375, 0.0, 10.001213, 9.998626 
6.350456e+2, 2.0446698e+2, -819133.5, -951333.75, -35640.848, 0.016992485, 0.16774142, -810137.06, 126101.94, 0.0, 10.001087, 9.999333 
6.3503975e+2, 2.1446627e+2, -805348.0, -886212.5, -25119.355, 0.032173157, 0.15514998, -798180.4, 40063.664, 0.0, 10.000476, 9.999402 
6.3503397e+2, 2.2446534e+2, -777787.2, -885614.5, -12730.152, 0.03791282, 0.1491182, -776304.7, -36051.45, 0.0, 10.000266, 9.998834 
6.350281e+2, 2.3446412e+2, -636924.1, -767321.6, -17031.152, 0.031124687, 0.14302818, -634736.4, 7530.9795, 0.0, 10.000562, 9.998831 
6.350223e+2, 2.4446325e+2, -511734.78, -599913.3, -23312.47, 0.022219228, 0.14994219, -505950.88, 38325.79, 0.0, 10.000505, 9.999334 
6.350163e+2, 2.544628e+2, -481216.7, -528082.75, -16822.299, 0.011158637, 0.16352017, -475803.66, -29523.842, 0.0, 10.000014, 9.999391 
6.350105e+2, 2.64462e+2, -440142.75, -492076.28, -14902.804, 0.01109094, 0.16096099, -436170.16, -87883.06, 0.0, 9.999772, 9.999083 
6.350048e+2, 2.744608e+2, -330821.2, -387484.28, -21038.168, 0.023738395, 0.12699562, -323864.2, -73564.734, 0.0, 9.999845, 9.999092 
6.349992e+2, 2.844599e+2, -227906.73, -291061.22, -20002.205, 0.029502226, 0.12984659, -222104.69, -69795.734, 0.0, 9.999895, 9.999058 
6.349937e+2, 2.9445952e+2, -131814.23, -197764.36, -27121.219, 0.029562846, 0.18333988, -122093.68, -67780.38, 0.000000008608103, 9.999899, 9.999024 
6.34988e+2, 3.044588e+2, -128057.64, -189488.02, -59732.664, 0.05805899, 0.22201696, -91605.766, -91605.766, 0.00000035003856, 9.99967, 9.9988575 
6.349813e+2, 3.1445694e+2, -72385.734, 37265.754, -18460.791, 0.011438298, 0.13855916, 40290.363, 40290.363, 0.0000017531552, 9.999191, 10.000645 
6.450941e+2, 1.2447981e+2, -1463280.4, -1696501.9, 26218.682, 0.13586533, 0.16983543, -1460369.3, 259743.78, 0.0, 10.002199, 9.99905 
6.4508414e+2, 1.3447833e+2, -1385924.6, -1613995.4, 9886.434, -0.25587028, 0.11257711, -1385496.9, 236628.89, 0.0, 10.002026, 9.999058 
6.4508486e+2, 1.4447747e+2, -1337691.9, -1521811.3, 29772.053, 0.30926725, 0.12067386, -1332997.4, 191135.9, 0.0, 10.001632, 9.999191 
6.450769e+2, 1.54477e+2, -1307524.5, -1450995.0, -4697.0576, 0.067735806, 0.1459429, -1307371.0, 118767.37, 0.0, 10.001145, 9.999238 
6.4506984e+2, 1.6447619e+2, -1238040.6, -1376881.6, -31529.654, -0.04667858, 0.1446999, -1231216.0, 96930.055, 0.0, 10.00099, 9.999149 
6.450644e+2, 1.7447491e+2, -1104903.6, -1259610.9, -34724.184, 0.029757198, 0.09881716, -1097467.1, 132689.86, 0.0, 10.001223, 9.99917 
6.450587e+2, 1.8447386e+2, -1035121.7, -1213656.9, -14853.75, 0.060969666, 0.09488237, -1033894.3, 98273.11, 0.0, 10.001194, 9.998826 
6.4505255e+2, 1.9447313e+2, -985302.06, -1137877.8, 3031.2803, 0.02450892, 0.13565819, -985241.9, 48934.805, 0.0, 10.00086, 9.998834 
6.450465e+2, 2.0447235e+2, -884991.9, -997942.44, -13525.587, 0.013834776, 0.15841067, -883394.8, 52790.242, 0.0, 10.000699, 9.9992 
6.450404e+2, 2.1447153e+2, -777613.5, -890370.4, -36240.188, 0.039618824, 0.14826238, -766970.44, 71221.92, 0.0, 10.000742, 9.999245 
6.450345e+2, 2.244706e+2, -723712.25, -849716.4, -23317.707, 0.05142523, 0.14725654, -719535.7, 20666.299, 0.0, 10.000594, 9.998922 
6.4502865e+2, 2.3446958e+2, -680674.44, -777169.7, -9529.971, 0.043941285, 0.14945658, -679742.25, -37528.08, 0.0, 10.000214, 9.99893 
6.4502263e+2, 2.444688e+2, -580905.5, -625658.5, -15217.754, 0.032152105, 0.15803143, -576221.2, -31998.898, 0.0, 9.999998, 9.999401 
6.450164e+2, 2.5446835e+2, -481018.88, -520670.8, -17260.953, 0.01450534, 0.1648286, -474557.78, -28332.678, 0.0, 9.999985, 9.999455 
6.450103e+2, 2.6446748e+2, -409758.94, -489022.72, -4293.0674, 0.006052929, 0.15659997, -409527.1, -61294.074, 0.0, 10.000032, 9.998978 
6.4500463e+2, 2.744661e+2, -295096.94, -383056.34, -5346.8506, 0.009069831, 0.11951067, -294773.1, -44525.984, 0.0, 10.000147, 9.998977 
6.44999e+2, 2.8446513e+2, -225663.47, -298500.78, -9493.545, 0.018514253, 0.12806551, -224446.42, -72189.41, 0.0, 9.999948, 9.998981 
6.4499336e+2, 2.9446486e+2, -215092.75, -246034.4, -8755.359, 0.03714624, 0.19247042, -212787.11, -158526.4, 0.000000011710588, 9.999362, 9.998951 
6.449875e+2, 3.044636e+2, -185381.89, -231919.72, -26313.057, 0.058806214, 0.19053467, -173525.05, -173525.05, 0.00000040808163, 9.999339, 9.998726 
6.449808e+2, 3.1446174e+2, 45407.367, 85191.81, 1420.7908, 0.00058770453, 0.119508915, 85242.49, 85242.49, 0.0000020409286, 10.000037, 10.0005665 
6.550966e+2, 1.2448439e+2, -1458039.8, -1687564.0, 25604.502, 0.1619147, 0.06665319, -1455218.1, 264846.72, 0.0, 10.002206, 9.999109 
6.550861e+2, 1.3448383e+2, -1376879.1, -1593664.0, 1107.3042, -0.26471385, 0.08563469, -1376873.5, 245195.31, 0.0, 10.00202, 9.9992 
6.550859e+2, 1.4448307e+2, -1354122.5, -1554923.5, 8942.583, 0.2573724, 0.10727241, -1353725.0, 170350.69, 0.0, 10.001627, 9.998966 
6.550776e+2, 1.5448181e+2, -1323886.9, -1486710.1, -22522.635, 0.026214732, 0.07849829, -1320828.9, 105260.195, 0.0, 10.001152, 9.99899 
6.5507066e+2, 1.6448094e+2, -1242828.4, -1388051.0, -24950.896, -0.061224762, 0.08910746, -1238661.1, 89437.086, 0.0, 10.000996, 9.999071 
6.5506595e+2, 1.7448054e+2, -1109886.4, -1269954.1, -25964.764, 0.060064748, 0.1370243, -1105780.0, 124322.46, 0.0, 10.001222, 9.9991 
6.5506035e+2, 1.8447985e+2, -1004926.7, -1149464.9, -27404.07, 0.10541991, 0.15037991, -999905.4, 132203.67, 0.0, 10.001187, 9.9992695 
6.550537e+2, 1.9447881e+2, -952320.4, -1069054.1, -9490.916, 0.050024163, 0.11422122, -951553.75, 82564.56, 0.0, 10.000858, 9.999307 
6.550472e+2, 2.0447774e+2, -922240.8, -1074076.4, -13262.4795, 0.020046204, 0.10674098, -921091.06, 15038.349, 0.0, 10.000694, 9.998679 
6.5504104e+2, 2.1447662e+2, -818381.4, -974625.3, -34207.37, 0.024807505, 0.1242586, -811220.4, 26922.543, 0.0, 10.00074, 9.998668 
6.550349e+2, 2.2447579e+2, -703253.5, -806419.44, -37478.414, 0.032399066, 0.15080665, -691075.7, 49076.957, 0.0, 10.00059, 9.999222 
6.550289e+2, 2.3447536e+2, -655990.8, -726322.4, -23578.42, 0.04339364, 0.17810269, -648817.8, -6659.956, 0.0, 10.000215, 9.999279 
6.5502274e+2, 2.4447474e+2, -582397.8, -628306.4, -16913.18, 0.046690006, 0.1833994, -576839.75, -32675.818, 0.0, 9.999995, 9.999385 
6.550166e+2, 2.544739e+2, -483856.78, -525724.6, -17200.557, 0.041016623, 0.1542062, -477696.63, -31525.928, 0.0, 9.999981, 9.999423 
6.5501064e+2, 2.6447305e+2, -413522.25, -496145.38, -330.3862, 0.029569568, 0.1520627, -413520.94, -65342.285, 0.0, 10.000029, 9.99893 
6.550048e+2, 2.744722e+2, -298614.4, -389695.2, -289.47974, 0.010428533, 0.17204583, -298613.47, -48425.418, 0.0, 10.000144, 9.998933 
6.5499884e+2, 2.8447115e+2, -222584.39, -291733.72, -30371.709, 0.008326546, 0.17204921, -211138.98, -58940.746, 0.0, 9.999946, 9.999029 
6.5499264e+2, 2.9446998e+2, -212392.94, -238575.73, -30278.94, 0.028015077, 0.14260712, -192496.48, -138287.77, 0.000000011654482, 9.999353, 9.999006 
6.5498674e+2, 3.0446818e+2, -207003.94, -274557.22, -2660.8743, 0.04891564, 0.09412554, -206899.28, -206899.28, 0.00000041978168, 9.99933, 9.998437 
6.549809e+2, 3.144673e+2, 17556.352, 29863.914, 29945.377, 0.011801305, 0.15905261, 54281.273, 54281.273, 0.000002202322, 10.000028, 10.000191 
6.6509867e+2, 1.2449018e+2, -1505391.3, -1724995.1, 43402.086, 0.15957946, 0.06655321, -1497124.5, 222882.48, 0.0, 10.001943, 9.99898 
6.650881e+2, 1.3448955e+2, -1405560.1, -1614463.8, -8074.19, -0.25351045, 0.086805455, -1405248.6, 216763.63, 0.0, 10.001856, 9.999135 
6.6508746e+2, 1.4448877e+2, -1348323.0, -1561528.1, -5835.4937, 0.2447762, 0.11146216, -1348163.4, 175856.42, 0.0, 10.001708, 9.998882 
6.65079e+2, 1.544874e+2, -1257189.8, -1464063.1, -25036.842, 0.027892929, 0.08019874, -1254202.9, 171831.19, 0.0, 10.001651, 9.998904 
6.6507196e+2, 1.6448642e+2, -1176122.4, -1356285.4, -10569.978, -0.056918435, 0.08512043, -1175504.4, 152539.81, 0.0, 10.001457, 9.999065 
6.65067e+2, 1.7448592e+2, -1128219.1, -1278511.0, -7586.996, 0.054298848, 0.12359879, -1127837.1, 102212.12, 0.0, 10.001098, 9.999099 
6.6506135e+2, 1.8448526e+2, -1048333.4, -1160329.4, -23197.867, 0.10235232, 0.13590422, -1043718.5, 88336.92, 0.0, 10.000848, 9.999358 
6.650546e+2, 1.9448438e+2, -964395.5, -1065061.5, -35527.09, 0.06331575, 0.10794639, -953120.2, 80942.6, 0.0, 10.000732, 9.999395 
6.65048e+2, 2.0448336e+2, -928228.6, -1080059.0, -27575.02, 0.03178224, 0.10106971, -923375.7, 12697.968, 0.0, 10.000667, 9.9986515 
6.6504157e+2, 2.1448211e+2, -831420.94, -983920.94, -8423.617, 0.012314219, 0.11122553, -830957.0, 7131.6455, 0.0, 10.000666, 9.998638 
6.650353e+2, 2.2448133e+2, -705987.4, -800838.06, -10241.289, 0.017841354, 0.13883325, -704894.2, 35204.027, 0.0, 10.000543, 9.999282 
6.6502917e+2, 2.3448108e+2, -643456.44, -713192.0, -18889.426, 0.052689727, 0.1768217, -638668.5, 3432.6064, 0.0, 10.00027, 9.999343 
6.65023e+2, 2.4448049e+2, -565457.2, -635050.4, -13120.494, 0.06168234, 0.18938904, -563065.75, -18958.9, 0.0, 10.000176, 9.999251 
6.650167e+2, 2.5447953e+2, -447837.7, -524574.8, -22351.842, 0.039553568, 0.16215526, -441801.84, 4313.972, 0.0, 10.000298, 9.999278 
6.650107e+2, 2.644786e+2, -400039.6, -487489.78, -16979.0, 0.02874998, 0.15891479, -396858.7, -48733.81, 0.0, 10.000113, 9.998948 
6.650049e+2, 2.7447775e+2, -383497.72, -427263.28, -12724.737, 0.030613631, 0.17601381, -380066.94, -129932.92, 0.0, 9.999547, 9.9989605 
6.6499877e+2, 2.844768e+2, -273964.0, -311840.5, -28075.45, 0.025719853, 0.17754014, -259036.52, -106893.13, 0.0, 9.999575, 9.999068 
6.6499233e+2, 2.9447562e+2, -65367.063, -162574.28, -30108.223, 0.0129008815, 0.14968516, -56797.113, -2644.1892, 0.000000008469742, 10.000342, 9.99905 
6.6498625e+2, 3.0447364e+2, -74005.8, -203193.31, -2082.4792, 0.019685999, 0.077770434, -73972.24, -73972.24, 0.00000038345433, 10.000213, 9.998501 
6.649805e+2, 3.1447327e+2, -145085.3, -59117.805, 56452.473, 0.016660713, 0.18268538, -31147.455, -31147.455, 0.0000022156387, 9.998956, 10.000095 
6.751003e+2, 1.2449717e+2, -1526644.5, -1771417.1, 43420.76, 0.12926403, 0.16460036, -1519170.3, 200769.25, 0.0, 10.001949, 9.998659 
6.7509025e+2, 1.3449557e+2, -1423566.6, -1652918.5, -12834.017, -0.22799034, 0.11501297, -1422850.6, 199104.75, 0.0, 10.001862, 9.998868 
6.750894e+2, 1.444946e+2, -1344575.6, -1554635.3, -11054.206, 0.2656915, 0.1327118, -1343995.5, 179969.6, 0.0, 10.001711, 9.998928 
6.750811e+2, 1.5449376e+2, -1253023.1, -1454589.1, -27004.387, 0.06825782, 0.14784712, -1249468.0, 176505.31, 0.0, 10.001646, 9.998973 
6.750736e+2, 1.6449262e+2, -1172674.9, -1346934.8, -24303.299, -0.038320668, 0.13005595, -1169348.9, 158634.88, 0.0, 10.001448, 9.999134 
6.7506766e+2, 1.7449111e+2, -1123561.8, -1268517.4, -20536.352, 0.010727929, 0.059630778, -1120708.5, 109288.66, 0.0, 10.001096, 9.999168 
6.7506164e+2, 1.8449014e+2, -1067966.9, -1200778.0, -28592.105, 0.049672186, 0.05297911, -1062073.0, 69933.234, 0.0, 10.000846, 9.999082 
6.750553e+2, 1.9448991e+2, -985743.8, -1108885.8, -39734.5, 0.06262391, 0.11679266, -974035.8, 59974.094, 0.0, 10.00073, 9.999097 
6.7504877e+2, 2.0448925e+2, -896490.44, -1012986.75, -28597.469, 0.046265263, 0.14078903, -889849.0, 46168.504, 0.0, 10.000661, 9.999115 
6.750421e+2, 2.1448809e+2, -796344.5, -910415.4, -8225.873, 0.00031581233, 0.10784363, -795754.4, 42275.344, 0.0, 10.000662, 9.999145 
6.750357e+2, 2.2448722e+2, -719109.25, -827069.44, -20629.057, 0.004925412, 0.1102083, -715301.75, 24737.012, 0.0, 10.000538, 9.9991045 
6.7502964e+2, 2.3448673e+2, -658545.8, -744515.4, -28645.66, 0.07030442, 0.14554413, -649875.3, -7831.344, 0.0, 10.00027, 9.999128 
6.750233e+2, 2.4448608e+2, -583331.9, -672070.94, -9599.89, 0.07518317, 0.17576598, -582305.25, -38254.215, 0.0, 10.000175, 9.998998 
6.7501664e+2, 2.5448525e+2, -466159.4, -562445.06, -17215.053, 0.007582731, 0.1893393, -463174.06, -17113.828, 0.0, 10.000297, 9.999019 
6.750105e+2, 2.6448417e+2, -394810.3, -475985.1, -37184.355, 0.0002625386, 0.17849362, -380352.16, -32280.576, 0.0, 10.00011, 9.999029 
6.750048e+2, 2.7448276e+2, -377206.97, -412546.7, -33461.09, 0.06688581, 0.13065916, -357036.78, -106951.72, 0.0, 9.99954, 9.999065 
6.7499876e+2, 2.8448197e+2, -272791.13, -307950.44, -1933.5219, 0.06869095, 0.14266299, -272685.1, -120592.51, 0.0, 9.999568, 9.999098 
6.7499244e+2, 2.944818e+2, -64548.94, -159446.66, -18.489153, -0.010921551, 0.2146966, -64548.938, -10455.734, 0.0000000040864183, 10.000337, 9.999075 
6.7498595e+2, 3.0448008e+2, -45158.06, -142230.89, -45386.914, -0.032285813, 0.1432703, -27243.322, -27243.322, 0.0000003121116, 10.000208, 9.998921 
6.749793e+2, 3.1447962e+2, -132790.27, -30693.113, 10563.676, 0.0074837855, 0.19614628, -29611.58, -29611.58, 0.0000020914758, 9.998943, 10.000296 
6.8510234e+2, 1.245033e+2, -1428465.3, -1737798.3, 20410.752, 0.09941288, 0.19584543, -1427124.4, 292755.84, 0.0, 10.002683, 9.998537 
6.8509233e+2, 1.3450147e+2, -1431969.4, -1665554.5, -30391.627, -0.20488194, 0.13112961, -1428079.9, 193818.95, 0.0, 10.0018425, 9.99879 
6.85091e+2, 1.445005e+2, -1390531.5, -1558525.8, 226.3305, 0.27169186, 0.14451206, -1390531.1, 133377.39, 0.0, 10.001318, 9.99909 
6.850825e+2, 1.5449977e+2, -1284574.1, -1450302.6, -6806.1636, 0.06664178, 0.15486702, -1284295.1, 141619.53, 0.0, 10.001348, 9.999145 
6.8507487e+2, 1.6449873e+2, -1199625.1, -1354746.5, -10113.775, -0.0407172, 0.13514318, -1198968.5, 128955.26, 0.0, 10.001243, 9.999178 
6.850688e+2, 1.7449725e+2, -1139481.8, -1272256.9, -11286.346, 0.017738778, 0.06514855, -1138529.3, 91407.57, 0.0, 10.000971, 9.999203 
6.850626e+2, 1.8449622e+2, -1080719.0, -1221512.1, -5566.9014, 0.056009274, 0.055699877, -1080499.3, 51447.566, 0.0, 10.000821, 9.998951 
6.8505603e+2, 1.9449578e+2, -979781.9, -1120277.0, -4237.817, 0.053264182, 0.11329539, -979654.2, 54298.67, 0.0, 10.000835, 9.998965 
6.850494e+2, 2.0449518e+2, -877167.7, -989194.3, 278.54193, 0.038947247, 0.14360766, -877167.0, 58793.0, 0.0, 10.000733, 9.999242 
6.8504286e+2, 2.1449436e+2, -811165.0, -902213.75, -8188.5127, 0.015700715, 0.13169204, -810434.4, 27534.002, 0.0, 10.000493, 9.999283 
6.8503636e+2, 2.2449349e+2, -731272.9, -836191.56, -24965.445, 0.018784361, 0.1259747, -725635.25, 14341.778, 0.0, 10.000468, 9.999076 
6.8503e+2, 2.3449253e+2, -596820.06, -718091.06, -20691.598, 0.05275319, 0.11823558, -593386.75, 48599.07, 0.0, 10.000709, 9.999097 
6.850234e+2, 2.4449168e+2, -540416.44, -665370.9, 1327.7161, 0.05493418, 0.13671406, -540402.4, 3592.2866, 0.0, 10.000531, 9.998872 
6.850169e+2, 2.54491e+2, -541421.1, -613163.2, 2179.1045, 0.018086351, 0.1760544, -541355.0, -95351.48, 0.0, 9.999844, 9.998888 
6.850105e+2, 2.6448992e+2, -449299.5, -499889.78, -3214.5564, 0.011246145, 0.17435223, -449096.06, -101081.26, 0.0, 9.999726, 9.999049 
6.850045e+2, 2.7448842e+2, -262529.53, -354196.88, -5878.632, 0.042955704, 0.1148599, -262154.06, -12125.34, 0.0, 10.000314, 9.999093 
6.8499845e+2, 2.8448766e+2, -182657.64, -274155.28, 15996.281, 0.047329005, 0.1320232, -179941.67, -27905.492, 0.0, 10.00023, 9.999011 
6.849925e+2, 2.9448768e+2, -219858.75, -243524.89, 8243.401, 0.014329508, 0.22804824, -217270.48, -163234.2, 0.0000000009738006, 9.9993105, 9.998991 
6.8498576e+2, 3.0448598e+2, -190886.03, -190974.75, -55589.266, -0.013268356, 0.15508729, -135341.11, -135341.11, 0.00000022618863, 9.999115, 9.999113 
6.8497837e+2, 3.1448564e+2, -12288.345, 20467.768, -21220.828, -0.01981398, 0.20133497, 30895.762, 30895.762, 0.0000018666766, 9.999803, 10.000233 
6.951047e+2, 1.2450863e+2, -1424564.1, -1731436.4, -6433.29, 0.06951572, 0.15959544, -1424429.3, 295399.16, 0.0, 10.002687, 9.99858 
6.9509435e+2, 1.345073e+2, -1425681.9, -1650790.9, -63419.176, -0.18797854, 0.13456386, -1409044.6, 212797.52, 0.0, 10.001836, 9.998894 
6.9509214e+2, 1.4450647e+2, -1371950.4, -1518534.0, -2054.8809, 0.25941765, 0.14546627, -1371921.6, 151928.25, 0.0, 10.001312, 9.999368 
6.9508344e+2, 1.545055e+2, -1264110.4, -1408428.1, -4064.0862, 0.02076735, 0.103206895, -1263996.0, 161861.63, 0.0, 10.00135, 9.999432 
6.9507587e+2, 1.645048e+2, -1200240.0, -1356036.8, -20664.428, -0.06824226, 0.10166257, -1197545.8, 130318.11, 0.0, 10.001243, 9.999169 
6.950703e+2, 1.7450437e+2, -1141546.6, -1275861.4, -21778.287, 0.07076508, 0.13850589, -1138103.6, 91764.66, 0.0, 10.000967, 9.99918 
6.9506395e+2, 1.8450348e+2, -1079131.9, -1216917.8, -6419.023, 0.11596818, 0.14167625, -1078833.5, 53043.793, 0.0, 10.000815, 9.998985 
6.950566e+2, 1.9450204e+2, -977478.25, -1114819.5, -3215.6672, 0.033875022, 0.096508436, -977403.0, 56488.63, 0.0, 10.000833, 9.999004 
6.950499e+2, 2.0450118e+2, -892468.3, -1020518.3, -8967.083, 0.007974356, 0.1092163, -891843.4, 44057.66, 0.0, 10.0007305, 9.999029 
6.9504374e+2, 2.14501e+2, -827761.9, -936145.9, -16923.73, 0.05528667, 0.18281248, -825180.75, 12723.882, 0.0, 10.00049, 9.999052 
6.950372e+2, 2.2450013e+2, -722814.44, -818079.94, -17447.422, 0.055595785, 0.18606322, -719719.56, 20193.295, 0.0, 10.000465, 9.999202 
6.950301e+2, 2.3449849e+2, -587151.06, -697764.94, -11265.954, -0.0015772941, 0.09496656, -586015.25, 55911.348, 0.0, 10.000707, 9.999238 
6.950234e+2, 2.4449731e+2, -540055.2, -664175.6, -23283.008, -0.0013437666, 0.07215474, -535831.44, 8106.304, 0.0, 10.000529, 9.998881 
6.950172e+2, 2.5449672e+2, -541504.4, -612726.6, -23257.201, 0.068921305, 0.12183278, -534582.6, -88637.016, 0.0, 9.999841, 9.998893 
6.950107e+2, 2.644959e+2, -452758.94, -506287.38, 16389.3, 0.059579033, 0.14529519, -448139.53, -100184.91, 0.0, 9.9997225, 9.999007 
6.950039e+2, 2.7449477e+2, -266952.97, -362425.56, 17103.32, -0.044267684, 0.12935448, -263981.5, -14016.628, 0.0, 10.00031, 9.999039 
6.949978e+2, 2.844939e+2, -197141.9, -303390.38, -15817.771, -0.042112872, 0.14658442, -194837.03, -42863.035, 0.0, 10.000226, 9.998813 
6.949925e+2, 2.9449317e+2, -234460.86, -272193.66, -25553.428, 0.08538943, 0.18936792, -221563.78, -167581.64, 0.000000000021633938, 9.999304, 9.998797 
6.949858e+2, 3.044913e+2, -194986.44, -197433.61, -33129.77, 0.07464252, 0.112231776, -163057.66, -163057.66, 0.00000014519733, 9.999106, 9.999073 
6.949777e+2, 3.144914e+2, -37622.957, -29296.313, 4967.737, -0.07219514, 0.20710713, -26977.994, -26977.994, 0.0000015881137, 9.999791, 9.999896 
7.051072e+2, 1.24514796e+2, -1524110.9, -1772741.8, 51320.863, 0.08810657, 0.11382603, -1513934.0, 205832.11, 0.0, 10.001976, 9.99864 
7.0509624e+2, 1.3451365e+2, -1405263.5, -1629923.6, -13460.452, -0.18496458, 0.09746939, -1404459.9, 217317.9, 0.0, 10.001932, 9.998988 
7.0509326e+2, 1.4451297e+2, -1332169.6, -1504943.9, 45496.86, 0.22480956, 0.12023493, -1320921.1, 202863.08, 0.0, 10.001611, 9.999316 
7.050846e+2, 1.54512e+2, -1302576.0, -1433951.1, 18659.588, 0.013944811, 0.08433404, -1299977.3, 125815.91, 0.0, 10.001118, 9.999368 
7.0507705e+2, 1.6451137e+2, -1247917.6, -1385208.5, -5013.477, -0.05936562, 0.097421, -1247734.8, 80064.555, 0.0, 10.000941, 9.999114 
7.050714e+2, 1.7451113e+2, -1118844.0, -1270224.5, -8330.232, 0.07792708, 0.1587723, -1118386.9, 111415.664, 0.0, 10.001148, 9.99913 
7.05065e+2, 1.8451029e+2, -1032330.7, -1189742.3, 3256.931, 0.122445896, 0.1662474, -1032263.3, 99547.96, 0.0, 10.00112, 9.999024 
7.0505756e+2, 1.9450869e+2, -978052.75, -1111059.3, 4399.3564, 0.040420607, 0.10014327, -977907.4, 55919.066, 0.0, 10.00081, 9.999042 
7.050505e+2, 2.0450766e+2, -909815.8, -1042726.6, 4924.6416, 0.008713662, 0.10105134, -909633.6, 26203.441, 0.0, 10.00067, 9.998906 
7.0504427e+2, 2.1450733e+2, -799602.4, -936415.1, 3836.5544, 0.04297357, 0.17320752, -799494.9, 38347.336, 0.0, 10.000745, 9.998926 
7.050376e+2, 2.2450644e+2, -705632.9, -812883.2, 2956.596, 0.044533946, 0.18147357, -705551.44, 34299.582, 0.0, 10.000598, 9.999173 
7.050306e+2, 2.345049e+2, -665558.75, -738242.4, -4153.2144, 0.004732573, 0.10397019, -665322.2, -23458.143, 0.0, 10.00018, 9.999214 
7.050239e+2, 2.4450375e+2, -594739.06, -681755.0, -21625.79, 0.011296203, 0.080776885, -589660.8, -45786.066, 0.0, 10.000115, 9.99896 
7.0501745e+2, 2.5450307e+2, -440583.8, -554598.44, -17143.092, 0.07473024, 0.11314707, -438061.97, 7820.666, 0.0, 10.000492, 9.998978 
7.0501083e+2, 2.6450223e+2, -352637.78, -464302.25, 31294.652, 0.058842063, 0.13378021, -344465.38, 3426.0547, 0.0, 10.000437, 9.998951 
7.050039e+2, 2.7450123e+2, -338325.47, -403383.38, 30893.662, -0.05192482, 0.13198456, -325992.94, -76091.74, 0.0, 9.999849, 9.99898 
7.049976e+2, 2.8450024e+2, -288962.9, -355856.75, -8589.514, -0.05610686, 0.14905867, -287877.56, -135966.31, 0.0, 9.999631, 9.998739 
7.0499194e+2, 2.944993e+2, -154778.7, -241671.73, -10222.361, 0.066496156, 0.17627516, -153592.3, -99670.375, 0.0, 9.999885, 9.998728 
7.049851e+2, 3.0449748e+2, -85638.2, -130937.47, 8684.818, 0.0645721, 0.1016934, -84030.22, -84030.22, 0.00000008201181, 9.999798, 9.999197 
7.049776e+2, 3.1449738e+2, -124049.4, -84046.73, 56281.492, -0.03759827, 0.1659125, -44318.176, -44318.176, 0.0000012936833, 9.999252, 9.999781 
7.151099e+2, 1.2452179e+2, -1519331.6, -1762857.4, 49901.527, 0.15098391, 0.057010174, -1509502.9, 210190.42, 0.0, 10.001973, 9.998711 
7.15098e+2, 1.3452055e+2, -1398039.4, -1615714.3, -15685.679, -0.20018421, 0.021212125, -1396914.9, 224790.52, 0.0, 10.001936, 9.9990835 
7.150943e+2, 1.4451997e+2, -1359932.4, -1562370.5, 24874.379, 0.1629629, 0.06964819, -1356920.9, 166790.78, 0.0, 10.001611, 9.998921 
7.15086e+2, 1.5451925e+2, -1332348.3, -1495053.5, 301.4853, 0.04146786, 0.09686325, -1332347.8, 93373.45, 0.0, 10.001114, 9.99895 
7.1507835e+2, 1.6451845e+2, -1253950.3, -1396840.3, 1324.9176, -0.018965516, 0.120285645, -1253937.9, 73792.42, 0.0, 10.000937, 9.999036 
7.150722e+2, 1.7451759e+2, -1123042.1, -1279167.0, 437.10416, 0.038311902, 0.12644659, -1123040.9, 106698.516, 0.0, 10.001148, 9.999069 
7.1506566e+2, 1.8451668e+2, -1031323.25, -1187080.0, -8015.391, 0.07333434, 0.13036966, -1030911.9, 100836.5, 0.0, 10.001116, 9.999043 
7.150587e+2, 1.9451572e+2, -976988.94, -1108105.3, -7100.7324, 0.06913703, 0.12511586, -976605.56, 57151.62, 0.0, 10.000806, 9.9990635 
7.1505153e+2, 2.0451464e+2, -912073.6, -1046741.1, 6188.4487, 0.037442554, 0.11942431, -911789.8, 23978.068, 0.0, 10.000668, 9.99888 
7.150443e+2, 2.1451338e+2, -802039.5, -940849.5, 6921.3887, -0.022012368, 0.103104405, -801695.25, 36085.84, 0.0, 10.000742, 9.9988985 
7.150376e+2, 2.2451243e+2, -717792.5, -837723.8, -12600.288, -0.015646307, 0.11255632, -716483.0, 23308.363, 0.0, 10.000595, 9.999004 
7.1503145e+2, 2.345118e+2, -678632.8, -764818.4, -19381.377, 0.06886124, 0.14505629, -674474.9, -32676.873, 0.0, 10.000177, 9.999033 
7.1502477e+2, 2.4451102e+2, -585204.2, -661330.3, -9314.997, 0.0891692, 0.16203012, -584080.94, -40275.25, 0.0, 10.0001135, 9.999101 
7.150175e+2, 2.5451005e+2, -429915.75, -532459.4, -2393.6765, 0.033167794, 0.15050843, -429859.9, 15954.674, 0.0, 10.000492, 9.99913 
7.1501076e+2, 2.6450893e+2, -356690.53, -472656.94, 10709.317, 0.006929322, 0.13974234, -355709.84, -7884.626, 0.0, 10.000437, 9.998895 
7.1500444e+2, 2.745077e+2, -343444.78, -412787.16, 9220.085, 0.017282449, 0.121733874, -342239.78, -92402.04, 0.0, 9.999844, 9.998918 
7.149978e+2, 2.845067e+2, -286263.84, -348913.1, -1004.1309, 0.0023638024, 0.13896507, -286247.78, -134399.83, 0.0, 9.999625, 9.998789 
7.149907e+2, 2.9450607e+2, -151980.63, -234202.84, 633.1826, -0.04607164, 0.19013768, -151975.75, -98120.32, 0.0, 9.999878, 9.998782 
7.149838e+2, 3.0450448e+2, -65902.04, -88579.09, -10085.393, -0.04673966, 0.12343212, -62065.676, -62065.676, 0.00000004119849, 9.999791, 9.999492 
7.14978e+2, 3.145037e+2, -119014.35, -70755.51, 35386.797, 0.077611476, 0.08720863, -52054.4, -52054.4, 0.0000010048329, 9.99924, 9.999878 
7.251116e+2, 1.2452896e+2, -1542573.4, -1750330.4, 16091.625, 0.14286743, 0.06034595, -1541334.4, 178288.39, 0.0, 10.001708, 9.998925 
7.2509986e+2, 1.3452774e+2, -1444432.3, -1612346.4, -43753.918, -0.18630378, 0.0063286102, -1433715.1, 187918.03, 0.0, 10.00151, 9.999311 
7.250956e+2, 1.4452726e+2, -1412764.8, -1609496.3, 6503.037, 0.15150654, 0.05744681, -1412550.1, 111088.74, 0.0, 10.001342, 9.998727 
7.250872e+2, 1.5452643e+2, -1313317.5, -1510104.1, -3105.585, 0.043028872, 0.09924184, -1313268.5, 112381.74, 0.0, 10.00135, 9.998732 
7.2507954e+2, 1.645255e+2, -1210325.4, -1378787.8, 16718.137, -0.016163, 0.12068715, -1208682.3, 118978.875, 0.0, 10.00125, 9.999009 
7.2507316e+2, 1.745244e+2, -1142876.4, -1291304.5, 17726.32, 0.027204355, 0.10430937, -1140788.8, 88883.34, 0.0, 10.001022, 9.999047 
7.2506654e+2, 1.845234e+2, -1055927.9, -1205413.4, 7002.6885, 0.058685213, 0.10424817, -1055600.5, 76081.14, 0.0, 10.000975, 9.998986 
7.250595e+2, 1.9452257e+2, -930834.25, -1091657.4, 1716.9148, 0.062467217, 0.11634241, -930815.94, 102873.73, 0.0, 10.00115, 9.999009 
7.2505236e+2, 2.0452152e+2, -851795.3, -1015832.1, 11671.182, 0.038408183, 0.117243804, -850969.06, 84730.93, 0.0, 10.001074, 9.998897 
7.250451e+2, 2.1452023e+2, -808273.06, -941954.4, 14525.724, -0.014683661, 0.095144026, -806712.94, 31000.264, 0.0, 10.0006895, 9.998917 
7.2503823e+2, 2.2451924e+2, -742832.44, -863083.3, -2210.055, -0.008332335, 0.10657192, -742791.8, -3067.8835, 0.0, 10.000481, 9.998886 
7.2503173e+2, 2.345186e+2, -640484.8, -760150.6, -6319.272, 0.06889524, 0.1492936, -640152.0, 1579.678, 0.0, 10.000499, 9.99891 
7.2502494e+2, 2.445178e+2, -536647.06, -636233.94, 13510.326, 0.08341624, 0.17008942, -534846.75, 8893.023, 0.0, 10.000439, 9.999117 
7.250178e+2, 2.5451684e+2, -459439.16, -543718.56, 10724.045, 0.022526965, 0.15508576, -458096.0, -12347.867, 0.0, 10.0002775, 9.999156 
7.2501093e+2, 2.6451573e+2, -411976.4, -503059.9, 1573.3179, 0.002364668, 0.14453535, -411949.25, -64190.543, 0.0, 10.000074, 9.998861 
7.250044e+2, 2.7451447e+2, -347744.53, -419195.1, -99.80577, 0.032541964, 0.13049132, -347744.38, -97972.52, 0.0, 9.999832, 9.998879 
7.2499764e+2, 2.8451344e+2, -267955.3, -325108.28, 13401.018, 0.018734694, 0.13958898, -264969.13, -113186.72, 0.0, 9.999685, 9.998924 
7.2499037e+2, 2.9451272e+2, -173895.77, -228432.97, 22314.17, -0.05248554, 0.17023207, -165929.47, -112139.77, 0.0, 9.999656, 9.998929 
7.2498333e+2, 3.045117e+2, -87159.945, -75532.17, -4525.296, -0.05810374, 0.1356632, -73978.59, -73978.59, 0.000000018939705, 9.999546, 9.9997 
7.249775e+2, 3.1451094e+2, -100486.234, -50602.023, 29142.87, 0.09931111, 0.08795573, -37185.098, -37185.098, 0.0000007295325, 9.999318, 9.999979 
7.3511255e+2, 1.2453629e+2, -1519140.6, -1701488.4, 9402.798, 0.060571846, 0.119518735, -1518657.0, 200897.2, 0.0, 10.001706, 9.999263 
7.351018e+2, 1.3453528e+2, -1420306.3, -1560964.9, -52450.816, -0.14747432, 0.04975519, -1402901.3, 218659.9, 0.0, 10.001505, 9.999665 
7.3509735e+2, 1.4453478e+2, -1412100.5, -1607833.3, 4753.612, 0.18414944, 0.08067419, -1411985.1, 111580.68, 0.0, 10.00134, 9.998739 
7.350883e+2, 1.5453362e+2, -1313486.6, -1511978.0, -1576.738, 0.01578514, 0.09089841, -1313474.1, 112105.766, 0.0, 10.001356, 9.998716 
7.3508036e+2, 1.6453254e+2, -1210401.4, -1378863.8, 7908.222, -0.054040913, 0.09853773, -1210031.0, 117560.586, 0.0, 10.00125, 9.999008 
7.3507434e+2, 1.7453155e+2, -1142717.6, -1290847.4, 9285.783, 0.041519146, 0.09317046, -1142137.9, 87462.625, 0.0, 10.001021, 9.999051 
7.3506767e+2, 1.8453045e+2, -1064721.5, -1222925.3, 12131.071, 0.074611425, 0.08768025, -1063796.6, 67814.414, 0.0, 10.000971, 9.998868 
7.350602e+2, 1.9452922e+2, -940076.06, -1110116.9, 8519.389, 0.018774074, 0.0734445, -939650.3, 93973.48, 0.0, 10.001146, 9.998885 
7.350532e+2, 2.0452833e+2, -848680.2, -1008002.06, -2536.5554, 0.009396406, 0.094318554, -848639.8, 86993.28, 0.0, 10.001067, 9.998953 
7.3504657e+2, 2.1452789e+2, -804685.25, -933218.25, 299.35153, 0.061107874, 0.14912589, -804684.56, 32953.844, 0.0, 10.000684, 9.99898 
7.350394e+2, 2.2452691e+2, -748325.7, -873665.94, -3223.6184, 0.06280852, 0.16303687, -748242.8, -8594.156, 0.0, 10.000477, 9.998815 
7.350316e+2, 2.3452531e+2, -645755.56, -771354.94, -5351.9097, 0.0034876652, 0.11723777, -645527.9, -3862.8782, 0.0, 10.000499, 9.998834 
7.350245e+2, 2.445241e+2, -543364.5, -650311.1, 7355.079, -0.0073307687, 0.105458595, -542861.0, 815.88, 0.0, 10.000439, 9.999021 
7.3501825e+2, 2.545234e+2, -466776.28, -557763.9, 5075.1533, 0.039738033, 0.12651932, -466494.06, -20810.85, 0.0, 10.000272, 9.999063 
7.350114e+2, 2.6452255e+2, -413811.7, -505636.1, -7621.012, 0.041745648, 0.14774522, -413183.47, -65491.645, 0.0, 10.000069, 9.998846 
7.350038e+2, 2.7452156e+2, -349573.97, -422465.72, -8427.57, -0.008450129, 0.15987827, -348612.28, -98908.945, 0.0, 9.99983, 9.998858 
7.3499703e+2, 2.8452048e+2, -251647.72, -291094.0, 11921.082, -0.009323667, 0.15169415, -248324.94, -96610.47, 0.0, 9.999684, 9.999158 
7.34991e+2, 2.945193e+2, -157067.9, -191959.81, 22596.824, 0.044191074, 0.11475579, -145966.05, -92241.38, 0.0, 9.999649, 9.999183 
7.3498374e+2, 3.04519e+2, -80916.17, -60873.49, -12376.739, 0.026406607, 0.13744535, -54969.664, -54969.664, 0.0000000073965225, 9.999538, 9.999804 
7.34976e+2, 3.1451935e+2, -98048.57, -41495.984, 19627.49, 0.018266847, 0.18334818, -35351.543, -35351.543, 0.0000004773962, 9.999302, 10.00005 
7.451141e+2, 1.2454352e+2, -1539250.9, -1712196.3, 32912.145, 0.053924486, 0.12951115, -1533199.4, 186284.92, 0.0, 10.001574, 9.999251 
7.451034e+2, 1.3454272e+2, -1441342.3, -1572937.8, -60864.934, -0.12937324, 0.08355741, -1417508.0, 203981.7, 0.0, 10.00137, 9.999646 
7.4509853e+2, 1.4454226e+2, -1420189.5, -1598080.8, -4545.882, 0.17634226, 0.114793405, -1420073.4, 103420.27, 0.0, 10.0012245, 9.998863 
7.4508953e+2, 1.5454093e+2, -1314412.1, -1497856.8, 452.46112, 0.009567411, 0.09265236, -1314411.0, 111097.586, 0.0, 10.0012865, 9.998847 
7.4508166e+2, 1.6453977e+2, -1207011.5, -1382977.0, 9198.654, -0.05528611, 0.086969934, -1206532.0, 120988.56, 0.0, 10.001298, 9.998957 
7.450755e+2, 1.745388e+2, -1114277.6, -1284015.3, 4659.179, 0.047302995, 0.09027168, -1114149.8, 115379.44, 0.0, 10.001247, 9.998988 
7.450688e+2, 1.8453774e+2, -1048615.1, -1217543.8, 12563.477, 0.08289877, 0.092975326, -1047685.8, 83853.77, 0.0, 10.001091, 9.998848 
7.450613e+2, 1.9453657e+2, -990505.8, -1136992.4, 15765.572, 0.022535464, 0.0861905, -988828.25, 44723.813, 0.0, 10.000809, 9.998864 
7.4505407e+2, 2.0453565e+2, -909380.1, -1039855.7, 2078.3213, 0.013888107, 0.10535079, -909347.06, 26214.826, 0.0, 10.000662, 9.99893 
7.450474e+2, 2.1453503e+2, -806791.75, -936403.2, -2899.7566, 0.07255143, 0.14690982, -806726.9, 30841.576, 0.0, 10.00068, 9.998959 
7.4504006e+2, 2.2453399e+2, -713175.7, -850591.6, 2855.764, 0.06970295, 0.15309937, -713116.3, 26462.602, 0.0, 10.00069, 9.998871 
7.4503213e+2, 2.3453245e+2, -614866.94, -749657.56, 10412.899, -0.008578562, 0.10659629, -614067.25, 27526.922, 0.0, 10.000682, 9.998895 
7.4502486e+2, 2.4453123e+2, -532041.6, -651021.0, 22303.54, -0.021404015, 0.093623884, -527998.06, 15607.921, 0.0, 10.000545, 9.998964 
7.4501854e+2, 2.5453043e+2, -472572.9, -567889.2, 20744.885, 0.04412533, 0.11337499, -468253.66, -22640.123, 0.0, 10.000263, 9.998998 
7.450115e+2, 2.645296e+2, -411058.84, -514695.22, 11636.704, 0.04685291, 0.13932663, -409768.3, -62145.477, 0.0, 10.000131, 9.9987545 
7.450037e+2, 2.745286e+2, -304677.5, -411393.34, 4538.3584, -0.023701727, 0.16181388, -304484.84, -54850.36, 0.0, 10.000183, 9.998766 
7.449967e+2, 2.8452748e+2, -199924.44, -252624.64, 12561.704, -0.023590514, 0.15015557, -197083.38, -45437.59, 0.0, 9.999982, 9.99928 
7.4499065e+2, 2.9452628e+2, -173003.19, -184980.47, 12740.633, 0.05707537, 0.09632042, -164913.92, -111258.06, 0.0, 9.999476, 9.999314 
7.449834e+2, 3.045263e+2, -118774.31, -110002.67, -25077.121, 0.041897345, 0.15904732, -88930.734, -88930.734, 0.0000000015345106, 9.999413, 9.999527 
7.449755e+2, 3.1452632e+2, -26903.41, -31790.291, -27056.05, 0.015976578, 0.20068637, -2180.69, -2180.69, 0.00000026410652, 9.999896, 9.99983 
7.551162e+2, 1.2455069e+2, -1565994.8, -1767971.3, 24013.662, 0.109091416, 0.09351554, -1563179.0, 156233.38, 0.0, 10.001573, 9.99887 
7.5510466e+2, 1.3455011e+2, -1468809.8, -1629996.9, -69255.01, -0.1345987, 0.107531704, -1443141.5, 178277.25, 0.0, 10.001371, 9.999254 
7.5509924e+2, 1.4454976e+2, -1403733.9, -1563855.1, -4352.6216, 0.12667108, 0.15886097, -1403615.6, 119806.82, 0.0, 10.0012245, 9.999098 
7.5509095e+2, 1.5454838e+2, -1295142.9, -1457760.5, 3520.6284, 0.021497699, 0.10501967, -1295066.8, 130369.42, 0.0, 10.001286, 9.999124 
7.5508326e+2, 1.6454716e+2, -1213900.0, -1397006.0, 6877.297, -0.025270237, 0.08523443, -1213642.0, 113805.95, 0.0, 10.001296, 9.998862 
7.550767e+2, 1.7454614e+2, -1122665.8, -1302035.5, 3119.5105, 0.04164198, 0.094038635, -1122611.5, 106846.67, 0.0, 10.001248, 9.998864 
7.5506985e+2, 1.8454526e+2, -1044406.6, -1207549.6, 1748.7538, 0.07990242, 0.11835462, -1044387.94, 87079.23, 0.0, 10.001085, 9.9989195 
7.550626e+2, 1.9454458e+2, -985389.2, -1125712.1, 5396.0645, 0.071412995, 0.15376948, -985182.0, 48292.414, 0.0, 10.000807, 9.998943 
7.550551e+2, 2.0454341e+2, -917210.75, -1055496.3, 1262.1445, 0.04971112, 0.14968118, -917199.2, 18286.96, 0.0, 10.000658, 9.998825 
7.550475e+2, 2.1454167e+2, -814910.44, -952715.5, -2197.3513, 0.017501485, 0.089005105, -814875.44, 22627.842, 0.0, 10.000676, 9.998849 
7.5504017e+2, 2.245405e+2, -700760.75, -823505.75, 1938.177, 0.009852083, 0.07773382, -700730.1, 38784.45, 0.0, 10.000685, 9.99906 
7.5503314e+2, 2.3454002e+2, -601745.94, -720995.2, 10287.81, 0.030315751, 0.11704231, -600864.94, 40654.152, 0.0, 10.000676, 9.999094 
7.55026e+2, 2.4453919e+2, -534308.25, -654698.0, 11672.77, 0.03892548, 0.13408156, -533186.9, 10340.092, 0.0, 10.00054, 9.998941 
7.5501865e+2, 2.54538e+2, -475535.3, -573781.8, 10587.616, 0.033248756, 0.116452895, -474407.28, -28868.291, 0.0, 10.000262, 9.998958 
7.550114e+2, 2.645368e+2, -422487.3, -538226.0, 12856.623, 0.015361668, 0.1198372, -421076.34, -73524.78, 0.0, 10.00013, 9.998593 
7.55004e+2, 2.7453557e+2, -316619.78, -434733.94, 7624.9263, -0.01638346, 0.13435937, -316129.56, -66564.27, 0.0, 10.000176, 9.998609 
7.5499666e+2, 2.8453448e+2, -201197.84, -254119.31, -5398.588, -0.027533205, 0.13419017, -200652.75, -49076.473, 0.0, 9.999976, 9.999272 
7.5498945e+2, 2.945337e+2, -174356.7, -186583.31, -5207.364, -0.018022276, 0.119895, -172439.5, -118856.71, 0.0, 9.999471, 9.999307 
7.549822e+2, 3.0453363e+2, -163875.14, -202592.2, -8800.274, -0.015662123, 0.20488179, -161968.73, -161968.73, 0.00000000001992495, 9.999408, 9.998893 
7.549762e+2, 3.1453192e+2, -64835.367, -107137.555, -8937.358, 0.08737751, 0.14424384, -63024.64, -63024.64, 0.000000109993245, 9.999882, 9.999319 
7.651176e+2, 1.2455814e+2, -1620147.9, -1808808.4, 36389.594, 0.10535083, 0.07147017, -1613372.3, 105965.195, 0.0, 10.001261, 9.998742 
7.6510614e+2, 1.3455728e+2, -1446612.9, -1635802.9, -40597.676, -0.13650943, 0.074154265, -1438269.1, 183078.28, 0.0, 10.0015955, 9.999106 
7.651004e+2, 1.4455695e+2, -1358514.4, -1539189.4, 19498.16, 0.10531529, 0.13378663, -1356434.1, 166917.3, 0.0, 10.001522, 9.999124 
7.650923e+2, 1.5455586e+2, -1320570.3, -1466409.6, 9510.967, 0.03345158, 0.10618289, -1319952.6, 105409.63, 0.0, 10.001095, 9.999156 
7.650846e+2, 1.6455483e+2, -1264352.8, -1416543.6, 17986.39, -0.001943956, 0.09978579, -1262255.9, 65116.54, 0.0, 10.000927, 9.998907 
7.650779e+2, 1.7455383e+2, -1144598.8, -1307206.3, 25826.115, 0.045324553, 0.10670613, -1140595.5, 88787.22, 0.0, 10.001075, 9.998914 
7.650709e+2, 1.8455288e+2, -1049575.9, -1220127.8, 17057.39, 0.080186695, 0.12355811, -1047886.6, 83505.98, 0.0, 10.001094, 9.998829 
7.650636e+2, 1.9455194e+2, -970064.1, -1129171.0, 6557.627, 0.08850469, 0.14409135, -969794.3, 63607.957, 0.0, 10.000958, 9.998845 
7.6505595e+2, 2.0455071e+2, -886051.56, -1034048.4, 8823.119, 0.06241473, 0.13644417, -885527.44, 49887.06, 0.0, 10.000844, 9.998882 
7.6504797e+2, 2.1454914e+2, -800504.0, -938889.75, 17797.43, -0.0011825176, 0.08500323, -798251.8, 39178.027, 0.0, 10.000746, 9.99891 
7.650406e+2, 2.2454801e+2, -708656.5, -826412.56, 21570.055, -0.010041498, 0.076106824, -704829.75, 34610.62, 0.0, 10.000629, 9.999065 
7.650339e+2, 2.3454747e+2, -628280.6, -733989.0, 13421.686, 0.044956274, 0.10957572, -626603.06, 14842.209, 0.0, 10.000495, 9.999092 
7.6502675e+2, 2.4454664e+2, -554398.44, -676658.8, 3440.8167, 0.06294685, 0.13101465, -554301.7, -10847.941, 0.0, 10.000454, 9.998832 
7.650191e+2, 2.5454548e+2, -444933.56, -571916.9, -4603.436, 0.035878204, 0.12954028, -444766.9, 699.4195, 0.0, 10.000528, 9.998842 
7.650116e+2, 2.6454428e+2, -370661.28, -496798.53, 4877.959, 0.011635224, 0.13004433, -370472.9, -22994.055, 0.0, 10.000416, 9.998739 
7.6500416e+2, 2.7454293e+2, -320103.1, -418792.56, 22119.05, -0.007457645, 0.11871239, -315372.38, -65880.63, 0.0, 10.000077, 9.998765 
7.649967e+2, 2.8454176e+2, -224252.33, -298459.63, 11599.841, -0.019430462, 0.11332026, -222481.34, -70977.805, 0.0, 9.99996, 9.998976 
7.6498914e+2, 2.9454082e+2, -99881.86, -187021.6, -13449.126, -0.027271725, 0.11977289, -97853.34, -44340.586, 0.0, 10.000137, 9.998982 
7.6498175e+2, 3.0454075e+2, -77137.92, -163875.98, -1501.8561, -0.029842544, 0.21782862, -77111.93, -77111.93, 0.0, 10.000015, 9.998867 
7.649759e+2, 3.1453842e+2, -105334.17, -101915.34, 43913.4, 0.091453284, 0.094365776, -59678.1, -59678.1, 0.000000028836135, 9.9994955, 9.999541 
7.7511823e+2, 1.245659e+2, -1612696.0, -1791889.4, 46090.78, 0.03876444, 0.06627553, -1601536.0, 117723.13, 0.00000000003061157, 10.001255, 9.998861 
7.7510774e+2, 1.345643e+2, -1441230.4, -1622878.1, -28881.664, -0.1397478, -0.014170653, -1436748.9, 184526.58, 0.0, 10.001589, 9.999197 
7.751019e+2, 1.4456391e+2, -1370558.5, -1564196.1, 2484.6104, 0.10459134, 0.04187094, -1370526.6, 152753.7, 0.0, 10.001521, 9.998953 
7.7509344e+2, 1.5456343e+2, -1333827.8, -1495509.3, -6129.464, 0.042824786, 0.09478767, -1333595.6, 91691.18, 0.0, 10.0011, 9.998955 
7.750857e+2, 1.6456279e+2, -1251644.8, -1389924.0, 21833.924, 0.0122604575, 0.1286608, -1248279.1, 79014.93, 0.0, 10.000927, 9.999089 
7.7507913e+2, 1.7456192e+2, -1130135.8, -1276753.9, 31514.89, 0.056047734, 0.1286346, -1123648.9, 105653.61, 0.0, 10.001073, 9.999124 
7.7507204e+2, 1.8456058e+2, -1067401.1, -1256095.1, 11637.388, 0.08034712, 0.10894213, -1066686.1, 64629.74, 0.0, 10.001088, 9.998586 
7.750644e+2, 1.9455868e+2, -989227.06, -1168582.3, 1693.5135, 0.07168047, 0.05870429, -989211.06, 44124.266, 0.0, 10.000956, 9.998577 
7.7505666e+2, 2.0455758e+2, -871631.25, -1002452.25, 4273.9893, 0.048825543, 0.06663787, -871491.75, 63854.766, 0.0, 10.000837, 9.999103 
7.750489e+2, 2.1455742e+2, -784597.06, -904761.06, 14095.961, 0.014315545, 0.13440825, -782965.7, 54382.316, 0.0, 10.000741, 9.999146 
7.750414e+2, 2.2455655e+2, -722069.8, -853723.75, 15673.644, 0.007667385, 0.14672206, -720229.56, 19126.734, 0.0, 10.000627, 9.998879 
7.7503425e+2, 2.3455484e+2, -642780.0, -763651.8, 8758.698, 0.032704275, 0.084449194, -642148.6, -775.919, 0.0, 10.000493, 9.99889 
7.7502704e+2, 2.4455361e+2, -568845.06, -705489.44, 5398.998, 0.04751905, 0.084941976, -568632.06, -25246.07, 0.0, 10.000449, 9.998636 
7.7501976e+2, 2.5455296e+2, -459068.78, -599965.44, -1165.5906, 0.049710464, 0.15148683, -459059.16, -13663.625, 0.0, 10.000523, 9.998652 
7.750122e+2, 2.6455203e+2, -340106.0, -432733.2, -7190.164, 0.034046646, 0.16980797, -339551.2, 7853.402, 0.0, 10.000412, 9.999181 
7.7500427e+2, 2.7455074e+2, -287897.22, -351351.84, 10238.841, -0.0012763261, 0.11870491, -286286.0, -36872.59, 0.0, 10.000074, 9.999229 
7.749968e+2, 2.8454933e+2, -264259.47, -380959.2, 16959.14, -0.0041724714, 0.09004229, -261844.86, -110417.65, 0.0, 9.999958, 9.99841 
7.749898e+2, 2.945477e+2, -144408.73, -278061.1, -4831.8623, 0.02721986, 0.089791, -144234.27, -90788.195, 0.0, 10.000131, 9.998361 
7.7498204e+2, 3.045476e+2, -38422.55, -82014.695, -18659.236, -0.0028798857, 0.1945323, -31526.535, -31526.535, 0.0, 10.000009, 9.999433 
7.7497464e+2, 3.145458e+2, -42992.793, 29629.525, 23861.104, 0.015832646, 0.060434416, 36767.793, 36767.793, 0.0000000029769756, 9.999485, 10.00045 
7.851194e+2, 1.2457341e+2, -1595932.9, -1756453.8, 27452.754, 0.0327799, 0.067574345, -1591367.8, 127817.98, 0.0000000009851104, 10.001251, 9.999107 
7.8510934e+2, 1.3457206e+2, -1491297.1, -1622412.6, -39949.902, -0.116653234, -0.010583471, -1480083.6, 141115.02, 0.0, 10.001141, 9.999416 
7.8510326e+2, 1.4457169e+2, -1427312.8, -1588868.3, -3600.8901, 0.10583975, 0.035496894, -1427232.6, 95970.17, 0.0, 10.001118, 9.99898 
7.8509456e+2, 1.5457103e+2, -1304437.9, -1479275.1, 2959.3467, 0.032262217, 0.068198584, -1304387.8, 120823.07, 0.0, 10.001292, 9.998974 
7.850867e+2, 1.6457032e+2, -1206528.5, -1376423.4, 34408.723, 0.0020831935, 0.09812882, -1199824.3, 127394.77, 0.0, 10.001272, 9.999016 
7.8508013e+2, 1.7456953e+2, -1141861.9, -1291446.4, 22054.133, 0.05868405, 0.11457384, -1138678.0, 90549.27, 0.0, 10.00103, 9.999043 
7.8507304e+2, 1.8456829e+2, -1083579.0, -1248600.9, 5586.866, 0.08326159, 0.101824015, -1083390.0, 47849.91, 0.0, 10.000911, 9.998723 
7.850652e+2, 1.9456649e+2, -981777.6, -1148346.5, 25311.871, 0.058176037, 0.04688899, -978016.2, 55241.563, 0.0, 10.000936, 9.998726 
7.850574e+2, 2.0456544e+2, -869474.2, -1016681.4, 31151.45, 0.040366083, 0.057423647, -863153.44, 72115.21, 0.0, 10.000919, 9.998965 
7.850499e+2, 2.1456523e+2, -778643.4, -919131.9, 10975.792, 0.03647263, 0.13677421, -777791.0, 59480.47, 0.0, 10.000856, 9.998992 
7.8504235e+2, 2.2456433e+2, -712584.06, -853544.8, -279.2153, 0.035387862, 0.15671833, -712583.5, 26697.111, 0.0, 10.000711, 9.998839 
7.850347e+2, 2.345626e+2, -647582.0, -769654.5, 3616.871, 0.035002477, 0.095990136, -647474.94, -6177.6753, 0.0, 10.000477, 9.998856 
7.850273e+2, 2.445613e+2, -584598.8, -718165.2, 21436.953, 0.037373923, 0.09333076, -581242.6, -37931.297, 0.0, 10.000364, 9.9985895 
7.850201e+2, 2.545605e+2, -481897.25, -616658.25, 24862.373, 0.042777803, 0.15216817, -477456.66, -32134.48, 0.0, 10.000391, 9.998601 
7.850126e+2, 2.645596e+2, -346264.1, -434102.1, 496.54202, 0.032098558, 0.17472781, -346261.28, 1069.7292, 0.0, 10.000362, 9.999196 
7.850045e+2, 2.7455854e+2, -255157.03, -333986.56, -17705.18, 0.0032603506, 0.14196464, -251363.03, -2025.2255, 0.0, 10.000292, 9.999245 
7.849969e+2, 2.8455707e+2, -243131.44, -362825.44, -2453.9028, 0.008249117, 0.10628435, -243081.14, -91729.59, 0.0, 10.000069, 9.998482 
7.8498995e+2, 2.945552e+2, -211763.52, -302264.38, 26544.463, 0.05094904, 0.06853185, -204552.44, -151179.69, 0.0, 9.999634, 9.998433 
7.8498197e+2, 3.04555e+2, -114337.47, -127064.984, 20126.412, 0.012964909, 0.16735628, -99592.7, -99592.7, 0.0, 9.999525, 9.999355 
7.8497416e+2, 3.1455344e+2, 23311.996, 83655.016, 3337.9402, 0.0037479135, 0.06449738, 83839.1, 83839.1, 0.0, 9.999846, 10.0006485 
7.95121e+2, 1.24580726e+2, -1569458.3, -1703851.8, 21123.719, 0.07036486, 0.07738503, -1566216.4, 152900.11, 0.0000000034592607, 10.001259, 9.999466 
7.951109e+2, 1.3458052e+2, -1466953.3, -1573027.3, -44449.023, -0.069900766, 0.07985364, -1450790.3, 170326.95, 0.0, 10.001144, 9.999754 
7.951044e+2, 1.4458027e+2, -1412244.8, -1556729.8, 540.3562, 0.10688186, 0.1102881, -1412242.8, 110876.04, 0.0, 10.001115, 9.999201 
7.950955e+2, 1.5457867e+2, -1289047.0, -1445857.8, 9845.303, -0.0025095886, 0.027225569, -1288431.4, 136702.58, 0.0, 10.0012865, 9.999206 
7.950875e+2, 1.6457747e+2, -1229893.1, -1424095.0, 25114.219, -0.036939304, 0.010440416, -1226697.9, 100448.84, 0.0, 10.001267, 9.9986925 
7.9508114e+2, 1.745767e+2, -1166922.9, -1343862.0, 13410.023, 0.051881295, 0.06531314, -1165912.4, 63244.484, 0.0, 10.001031, 9.998684 
7.95074e+2, 1.84576e+2, -1048508.44, -1174681.4, 5419.064, 0.086023144, 0.10125734, -1048276.1, 82888.41, 0.0, 10.000906, 9.999232 
7.9506606e+2, 1.9457535e+2, -943922.7, -1068799.9, 26148.217, 0.04562026, 0.10599446, -938668.56, 94501.01, 0.0, 10.000931, 9.999274 
7.950583e+2, 2.0457423e+2, -904510.2, -1088338.1, 27888.656, 0.034465585, 0.10636842, -900372.3, 34808.664, 0.0, 10.000914, 9.998476 
7.9505104e+2, 2.1457258e+2, -816969.5, -997431.75, 8802.535, 0.06260435, 0.09315259, -816541.2, 20658.785, 0.0, 10.000851, 9.998458 
7.950434e+2, 2.245714e+2, -706653.5, -839823.1, -9730.008, 0.069507234, 0.107475504, -705946.3, 33266.56, 0.0, 10.000705, 9.998937 
7.950354e+2, 2.3457077e+2, -639012.25, -751486.2, -4966.898, 0.050306253, 0.14411709, -638793.3, 2425.448, 0.0, 10.000476, 9.9989805 
7.950277e+2, 2.4456972e+2, -577739.0, -704099.9, 21728.95, 0.03062118, 0.1559833, -574106.94, -30877.28, 0.0, 10.000364, 9.998687 
7.950203e+2, 2.5456822e+2, -475714.75, -603308.5, 26543.809, 0.010732324, 0.13284132, -470413.06, -25166.969, 0.0, 10.000387, 9.998694 
7.9501265e+2, 2.6456705e+2, -375476.78, -493888.44, -2573.367, 0.0013321326, 0.14492732, -375420.88, -28162.91, 0.0, 10.000359, 9.998788 
7.9500484e+2, 2.745663e+2, -286172.13, -397243.78, -19361.416, 0.0047295247, 0.18464275, -282893.9, -33628.816, 0.0, 10.000286, 9.998813 
7.949971e+2, 2.8456503e+2, -195273.64, -262515.56, -17361.875, 0.016286176, 0.16091757, -191055.42, -39778.92, 0.0, 10.000064, 9.999173 
7.949894e+2, 2.945633e+2, -159964.89, -193705.44, 11579.046, 0.035393845, 0.06338827, -156373.48, -103081.41, 0.0, 9.999628, 9.999182 
7.949814e+2, 3.04563e+2, -163887.27, -229204.8, 30232.014, 0.008857242, 0.14275418, -152042.45, -152042.45, 0.0, 9.999521, 9.998655 
7.949745e+2, 3.145612e+2, -13719.096, 8953.753, 15516.129, 0.050830286, 0.09528885, 16833.592, 16833.592, 0.0, 9.999837, 10.000139 
8.051225e+2, 1.24588445e+2, -1533677.6, -1684639.3, 60873.816, 0.080965266, 0.06046463, -1512189.5, 206851.14, 0.0000000057252847, 10.001495, 9.999485 
8.0511206e+2, 1.3458848e+2, -1482101.3, -1581530.9, -31865.334, -0.062541306, 0.08895176, -1472765.6, 148273.8, 0.0, 10.001047, 9.999742 
8.051052e+2, 1.445883e+2, -1449977.1, -1572332.5, 11147.892, 0.093316376, 0.1255793, -1448969.6, 74070.555, 0.0, 10.000847, 9.999223 
8.050967e+2, 1.5458663e+2, -1323539.5, -1460483.1, 5705.685, -0.001565006, 0.032397017, -1323302.1, 101753.766, 0.0, 10.001041, 9.999224 
8.050888e+2, 1.6458534e+2, -1251346.5, -1430831.0, 14274.874, -0.030762803, 0.005796842, -1250218.3, 76851.0, 0.0, 10.001104, 9.998725 
8.050821e+2, 1.7458454e+2, -1167271.8, -1340418.1, 29389.719, 0.04796683, 0.051216643, -1162419.1, 66660.67, 0.0, 10.001013, 9.998716 
8.050748e+2, 1.8458393e+2, -1038537.9, -1161744.8, 27367.982, 0.078544915, 0.09267342, -1032732.2, 98354.48, 0.0, 10.00094, 9.999304 
8.050669e+2, 1.9458356e+2, -943792.6, -1060640.1, 12538.27, 0.043136217, 0.12068569, -942462.4, 90626.78, 0.0, 10.000898, 9.999345 
8.050592e+2, 2.0458251e+2, -916640.2, -1093640.6, 11792.843, 0.034944065, 0.12250148, -915857.94, 19242.13, 0.0, 10.000829, 9.99848 
8.050518e+2, 2.1458061e+2, -835092.2, -1005572.3, 31225.127, 0.06164022, 0.08407958, -829552.94, 7568.1978, 0.0, 10.000725, 9.998462 
8.0504405e+2, 2.2457936e+2, -712364.5, -853259.7, 28075.133, 0.067995824, 0.09517821, -706976.25, 32158.777, 0.0, 10.000712, 9.99884 
8.05036e+2, 2.3457888e+2, -598086.1, -743148.5, 15141.018, 0.050009653, 0.1561305, -596522.6, 44617.73, 0.0, 10.000806, 9.998879 
8.050282e+2, 2.4457787e+2, -523482.53, -667982.2, 29911.404, 0.031288907, 0.17326756, -517535.63, 25615.08, 0.0, 10.000694, 9.9987755 
8.0502063e+2, 2.5457624e+2, -473839.34, -591577.1, 33289.113, 0.010678356, 0.13086714, -465079.03, -19912.143, 0.0, 10.000355, 9.998791 
8.050129e+2, 2.64575e+2, -416334.06, -525078.6, 18401.59, 0.0027124356, 0.13417448, -413304.6, -66125.03, 0.0, 10.000128, 9.998684 
8.050051e+2, 2.745742e+2, -332452.7, -432092.66, 24665.926, 0.011411017, 0.1788532, -326680.97, -77492.41, 0.0, 10.000023, 9.9987 
8.049972e+2, 2.8457302e+2, -203068.73, -261553.3, 13892.424, 0.02188698, 0.16918084, -199936.48, -48737.06, 0.0, 9.99999, 9.999214 
8.049892e+2, 2.9457158e+2, -92971.39, -156130.7, -11836.686, 0.030905345, 0.0944513, -90825.95, -37614.246, 0.0, 10.000066, 9.999229 
8.049812e+2, 3.04571e+2, -119201.805, -230704.42, 2302.525, 0.010310707, 0.15765221, -119154.27, -119154.27, 0.0, 9.999928, 9.998449 
8.049745e+2, 3.14569e+2, -61682.36, -12415.592, 25672.04, 0.08012601, 0.109102085, -1470.0886, -1470.0886, 0.0, 9.9995, 10.0001545 
8.151238e+2, 1.24596655e+2, -1555774.9, -1729502.1, 41216.465, 0.052868776, 0.023877457, -1546492.4, 172465.38, 0.000000004999778, 10.001492, 9.999179 
8.1511277e+2, 1.3459602e+2, -1507160.6, -1632877.8, -49261.125, -0.0984421, 0.02074976, -1490157.6, 130806.766, 0.0, 10.001047, 9.999389 
8.151058e+2, 1.4459588e+2, -1460626.4, -1596880.4, 16277.317, 0.059816435, 0.08554807, -1458708.9, 64257.67, 0.0, 10.0008545, 9.999051 
8.1509805e+2, 1.5459491e+2, -1334233.8, -1485615.3, 14491.517, 0.032174192, 0.08202036, -1332859.0, 92117.6, 0.0, 10.001052, 9.999047 
8.150904e+2, 1.6459395e+2, -1225116.3, -1376669.0, 10840.344, 0.016286572, 0.07980374, -1224344.8, 102641.805, 0.0, 10.001106, 9.999095 
8.150831e+2, 1.7459299e+2, -1140201.3, -1282183.5, 26107.34, 0.042803388, 0.06940847, -1135552.9, 93443.65, 0.0, 10.001005, 9.999119 
8.150756e+2, 1.8459207e+2, -1064610.5, -1214075.1, 25028.83, 0.056901734, 0.07590051, -1060530.6, 70475.516, 0.0, 10.000932, 9.998949 
8.150679e+2, 1.9459124e+2, -971585.6, -1117846.4, 11223.764, 0.048515618, 0.09351645, -970729.3, 62286.477, 0.0, 10.0008955, 9.998955 
8.150601e+2, 2.0459032e+2, -883175.9, -1023146.56, 7199.643, 0.039143763, 0.10721955, -882806.5, 52218.94, 0.0, 10.000825, 9.998966 
8.150523e+2, 2.1458934e+2, -798851.6, -929578.56, 27338.35, 0.031498138, 0.10837061, -793364.75, 43670.336, 0.0, 10.000721, 9.998985 
8.1504446e+2, 2.2458822e+2, -732363.7, -894509.75, 30437.188, 0.02853167, 0.11856266, -726838.5, 12208.592, 0.0, 10.0007105, 9.998558 
8.150366e+2, 2.3458692e+2, -620903.6, -789897.5, 19009.277, 0.03156301, 0.13214585, -618791.75, 22270.03, 0.0, 10.000802, 9.99856 
8.150289e+2, 2.4458574e+2, -519081.44, -658080.44, 17152.752, 0.036170617, 0.14487895, -516996.03, 26078.256, 0.0, 10.00069, 9.998846 
8.150212e+2, 2.5458464e+2, -468012.22, -578758.6, 20881.623, 0.041475434, 0.14568193, -464205.75, -19121.28, 0.0, 10.00035, 9.998881 
8.1501335e+2, 2.645835e+2, -403013.56, -496713.13, 14271.501, 0.034673113, 0.14370742, -400888.06, -53792.53, 0.0, 10.000124, 9.998881 
8.150051e+2, 2.7458227e+2, -318996.97, -403177.53, 21897.965, 0.01634094, 0.128939, -313641.38, -64533.57, 0.0, 10.000018, 9.998901 
8.1499714e+2, 2.8458107e+2, -245147.38, -348763.03, 15805.029, 0.017564306, 0.13271183, -242790.17, -91670.1, 0.0, 9.999989, 9.998617 
8.149893e+2, 2.9457992e+2, -139012.47, -251078.33, -7572.0933, 0.036402136, 0.15557133, -138503.16, -85371.05, 0.0, 10.000062, 9.99858 
8.149812e+2, 3.0457908e+2, -100533.94, -190372.66, -11654.251, 0.01666859, 0.20832808, -99046.72, -99046.72, 0.0, 9.999922, 9.998729 
8.1497395e+2, 3.1457683e+2, -26412.125, 63424.98, 9557.786, 0.07801911, 0.10370299, 64430.58, 64430.58, 0.0000000016901937, 9.99949, 10.00068 
8.251248e+2, 1.2460535e+2, -1635683.4, -1784636.3, 58217.426, 0.034519114, 0.019891296, -1615629.4, 103241.85, 0.0000000017683296, 10.001016, 9.999028 
8.2511413e+2, 1.3460433e+2, -1422390.3, -1615018.3, -21330.809, -0.096341364, -0.0003840696, -1420056.4, 200825.6, 0.0, 10.001727, 9.999184 
8.2510704e+2, 1.4460403e+2, -1327118.6, -1542275.1, 42482.688, 0.054789353, 0.06376262, -1319034.1, 203852.05, 0.0, 10.001814, 9.998964 
8.2509923e+2, 1.5460323e+2, -1311153.4, -1483563.0, 45543.805, 0.03754484, 0.08435671, -1299862.0, 125033.54, 0.0, 10.00125, 9.998965 
8.250914e+2, 1.646024e+2, -1246495.8, -1372318.8, 41191.137, 0.021345649, 0.09278762, -1234210.4, 92693.87, 0.0, 10.000897, 9.999225 
8.2508385e+2, 1.7460153e+2, -1159849.4, -1276635.4, 36826.89, 0.03256863, 0.07880813, -1149206.4, 79705.836, 0.0, 10.000806, 9.999252 
8.250763e+2, 1.8460056e+2, -1101903.5, -1250284.6, 36528.62, 0.043714177, 0.07926082, -1093398.4, 37524.37, 0.0, 10.000755, 9.998785 
8.2506865e+2, 1.9459942e+2, -1004099.6, -1153377.8, 37418.11, 0.04605579, 0.08705666, -995245.56, 37690.895, 0.0, 10.000758, 9.9987755 
8.2506084e+2, 2.0459859e+2, -876538.75, -993449.5, 32011.12, 0.04076564, 0.10455955, -868347.7, 66597.91, 0.0, 10.000756, 9.999203 
8.250529e+2, 2.1459806e+2, -776856.25, -890505.9, 31473.932, 0.029408852, 0.12685953, -768722.1, 68227.32, 0.0, 10.000751, 9.999239 
8.2504505e+2, 2.24597e+2, -743145.75, -909938.56, 32574.016, 0.024700703, 0.13525532, -737009.9, 1950.398, 0.0, 10.00068, 9.998467 
8.2503724e+2, 2.3459531e+2, -667404.4, -823971.0, 35716.406, 0.027326347, 0.11856649, -659641.56, -18662.074, 0.0, 10.000533, 9.998455 
8.250295e+2, 2.4459401e+2, -552004.75, -669403.8, 36428.88, 0.03344133, 0.12334218, -541619.56, 1373.6647, 0.0, 10.000445, 9.998886 
8.250217e+2, 2.5459316e+2, -452943.9, -566046.94, 35806.36, 0.04304947, 0.14354815, -442561.34, 2439.429, 0.0, 10.000431, 9.998929 
8.2501364e+2, 2.645921e+2, -371180.7, -486753.22, 21568.3, 0.040191714, 0.15120676, -367286.75, -20275.887, 0.0, 10.000368, 9.998831 
8.250053e+2, 2.7459082e+2, -289096.9, -394503.1, 8751.456, 0.024885736, 0.1349113, -288375.25, -39351.06, 0.0, 10.000249, 9.998849 
8.249973e+2, 2.845895e+2, -231348.8, -364768.78, 12450.47, 0.027623584, 0.1415343, -230196.89, -79158.984, 0.0, 10.000181, 9.998414 
8.2498956e+2, 2.9458824e+2, -137909.66, -273445.38, 20809.266, 0.04716317, 0.1701759, -134786.7, -81734.57, 0.0, 10.000169, 9.998374 
8.249811e+2, 3.0458707e+2, -112394.125, -196125.03, 4336.6743, 0.020523973, 0.20332001, -112170.12, -112170.12, 0.0, 9.99984, 9.99873 
8.2497317e+2, 3.145854e+2, -71353.41, 56255.824, -5061.181, 0.064801656, 0.15072557, 56456.242, 56456.242, 0.000000023716037, 9.999119, 10.00081 
8.351256e+2, 1.24614544e+2, -1634240.0, -1784444.0, 81355.57, 0.010910814, 0.04749173, -1598621.5, 120159.375, 0.000000000051048894, 10.001024, 9.999027 
8.3511627e+2, 1.3461345e+2, -1424643.3, -1621192.0, 5930.9917, -0.061117604, 0.022512183, -1424464.5, 196327.47, 0.0, 10.001732, 9.99914 
8.35109e+2, 1.446128e+2, -1330453.5, -1547816.8, 21209.434, 0.07322186, 0.057191636, -1328403.4, 194395.92, 0.0, 10.001808, 9.998928 
8.351003e+2, 1.5461162e+2, -1313753.9, -1486143.5, 24138.934, 0.012831847, 0.040636223, -1310437.6, 114374.87, 0.0, 10.00124, 9.998952 
8.3509195e+2, 1.6461073e+2, -1253155.0, -1385815.0, 36407.99, -0.01771487, 0.048746247, -1243819.9, 83002.0, 0.0, 10.000894, 9.999134 
8.350845e+2, 1.7461023e+2, -1166298.1, -1291847.5, 34019.51, 0.014735143, 0.081937805, -1157672.6, 71154.01, 0.0, 10.000813, 9.9991455 
8.35077e+2, 1.846094e+2, -1100982.5, -1248814.1, 35866.16, 0.03532378, 0.10253856, -1092740.4, 38095.652, 0.0, 10.000757, 9.998794 
8.350693e+2, 1.9460818e+2, -1003559.3, -1151063.1, 37497.75, 0.03342863, 0.0988956, -994574.1, 38276.906, 0.0, 10.000753, 9.998795 
8.350616e+2, 2.0460731e+2, -877393.1, -994596.75, 30828.42, 0.03737536, 0.113401964, -869778.94, 65081.66, 0.0, 10.000752, 9.999196 
8.350539e+2, 2.1460682e+2, -777703.3, -891768.1, 30906.902, 0.052341327, 0.14030555, -769867.1, 66996.76, 0.0, 10.000748, 9.999232 
8.35046e+2, 2.2460577e+2, -737133.25, -896955.44, 26087.883, 0.053297915, 0.14549397, -732982.7, 5891.6245, 0.0, 10.000677, 9.998559 
8.350378e+2, 2.3460405e+2, -660697.7, -809913.9, 30128.979, 0.03588153, 0.11594379, -654843.9, -13950.67, 0.0, 10.000532, 9.998553 
8.350298e+2, 2.4460271e+2, -551260.75, -667715.25, 35078.297, 0.021535158, 0.11030026, -541510.8, 1396.3976, 0.0, 10.000443, 9.9988985 
8.350218e+2, 2.546018e+2, -453264.6, -565753.25, 35946.113, 0.010968047, 0.12481277, -442759.03, 2156.5542, 0.0, 10.000426, 9.998934 
8.3501375e+2, 2.6460087e+2, -392223.56, -530582.8, 16900.15, 0.014623884, 0.15531486, -390189.2, -43263.6, 0.0, 10.000367, 9.998531 
8.350057e+2, 2.745998e+2, -311498.78, -440630.56, 4949.603, 0.035830647, 0.19401275, -311309.34, -62371.48, 0.0, 10.000246, 9.998534 
8.349977e+2, 2.8459835e+2, -218923.84, -337626.8, 12261.578, 0.050913908, 0.19531025, -217670.52, -66717.664, 0.0, 10.000176, 9.998603 
8.349898e+2, 2.9459646e+2, -123948.625, -242243.33, 21886.313, 0.056201678, 0.14251533, -120029.19, -67057.805, 0.0, 10.00016, 9.998592 
8.349809e+2, 3.04595e+2, -131776.08, -235992.84, -21631.137, 0.014596467, 0.14584698, -127464.695, -127464.695, 0.0, 9.999837, 9.998458 
8.349719e+2, 3.1459442e+2, -90449.164, 17241.09, -31941.271, 0.033272464, 0.23451573, 26002.213, 26002.213, 0.00000010288848, 9.999115, 10.000544 
8.4512687e+2, 1.246232e+2, -1543570.3, -1727386.1, 44537.69, 0.010424299, 0.07503954, -1533347.5, 185349.7, 0.0, 10.001589, 9.999146 
8.451177e+2, 1.3462201e+2, -1524817.9, -1659716.9, -22863.055, -0.053588256, 0.031913, -1521048.3, 99660.33, 0.0, 10.001005, 9.999223 
8.451103e+2, 1.4462136e+2, -1471947.5, -1606257.8, -4568.7593, 0.07186953, 0.056660052, -1471792.4, 50923.465, 0.0, 10.000796, 9.999014 
8.451014e+2, 1.5462035e+2, -1330926.0, -1484813.0, 6616.747, 0.014157528, 0.04990911, -1330642.0, 94085.32, 0.0, 10.001081, 9.999037 
8.4509295e+2, 1.646195e+2, -1210278.0, -1365036.4, 28987.273, -0.01908745, 0.05724495, -1205026.6, 121709.586, 0.0, 10.001189, 9.999134 
8.450853e+2, 1.7461886e+2, -1124666.8, -1272479.5, 32110.252, 0.0011294786, 0.07644155, -1117992.6, 110749.64, 0.0, 10.0011015, 9.999139 
8.4507763e+2, 1.8461803e+2, -1062205.3, -1224899.6, 40661.313, 0.018872218, 0.09506351, -1052609.0, 78142.33, 0.0, 10.000999, 9.998842 
8.4507e+2, 1.9461699e+2, -981493.5, -1134384.9, 44798.79, 0.024477137, 0.10418627, -969334.0, 63430.207, 0.0, 10.000877, 9.998849 
8.450623e+2, 2.0461607e+2, -882508.75, -1014219.4, 36965.043, 0.03468855, 0.11964862, -872843.6, 61930.688, 0.0, 10.000792, 9.999043 
8.450547e+2, 2.146153e+2, -789408.1, -915681.5, 24781.336, 0.05435575, 0.13210884, -784718.9, 52062.484, 0.0, 10.000745, 9.999069 
8.4504676e+2, 2.2461423e+2, -723100.8, -873312.6, 14566.966, 0.057455488, 0.13648383, -721701.2, 17090.887, 0.0, 10.000702, 9.998708 
8.4503853e+2, 2.3461282e+2, -628909.3, -776539.8, 21795.906, 0.03902946, 0.12390513, -625758.6, 15048.436, 0.0, 10.000673, 9.9987135 
8.4503025e+2, 2.446116e+2, -542711.0, -673107.7, 24268.246, 0.022319075, 0.12675744, -538340.9, 4478.8833, 0.0, 10.000545, 9.998813 
8.450221e+2, 2.5461057e+2, -478866.4, -588737.8, 16114.438, 0.007889252, 0.13818802, -476551.75, -31721.705, 0.0, 10.000298, 9.998837 
8.4501404e+2, 2.6460946e+2, -422477.8, -555374.94, 5818.515, 0.013880978, 0.16258168, -422223.56, -75381.63, 0.0, 10.000204, 9.998439 
8.4500605e+2, 2.7460825e+2, -308962.94, -449441.66, 9310.961, 0.044946816, 0.19355626, -308348.47, -59492.63, 0.0, 10.000309, 9.998442 
8.4499806e+2, 2.846069e+2, -213693.03, -313658.53, 16174.257, 0.06736221, 0.19905555, -211141.2, -60271.457, 0.0, 10.000121, 9.998793 
8.449899e+2, 2.9460534e+2, -196350.47, -254069.48, 22933.947, 0.07861734, 0.16101253, -188347.58, -135463.31, 0.0, 9.999565, 9.998796 
8.4498066e+2, 3.046036e+2, -179751.13, -274371.7, -5984.49, 0.020470472, 0.13383467, -179374.13, -179374.13, 0.00000000024035085, 9.999575, 9.998319 
8.449712e+2, 3.146031e+2, 61790.316, 69502.2, -8710.456, -0.008486692, 0.24385288, 75172.03, 75172.03, 0.00000026211356, 10.000251, 10.000356 
8.551286e+2, 1.2463142e+2, -1528622.1, -1697290.8, 19383.393, 0.016530003, 0.10408626, -1526423.3, 192195.78, 0.0, 10.001592, 9.9993515 
8.551185e+2, 1.3463008e+2, -1514034.0, -1636272.3, -45064.527, -0.07274594, 0.029782088, -1499216.5, 121414.76, 0.0, 10.001, 9.999386 
8.551109e+2, 1.4462972e+2, -1455464.9, -1572378.9, 3998.055, 0.04931333, 0.06485115, -1455328.4, 67306.836, 0.0, 10.000795, 9.999248 
8.551027e+2, 1.5462947e+2, -1314594.9, -1453143.4, 18613.06, 0.03533757, 0.11101904, -1312137.9, 112501.7, 0.0, 10.001089, 9.999251 
8.5509443e+2, 1.6462873e+2, -1206036.0, -1356694.3, 25851.94, 0.010675071, 0.114988096, -1201723.5, 124923.83, 0.0, 10.001191, 9.99919 
8.550863e+2, 1.7462741e+2, -1120860.1, -1262925.6, 28818.705, -0.009318543, 0.061110463, -1115236.6, 113422.234, 0.0, 10.001094, 9.999208 
8.5507846e+2, 1.8462645e+2, -1056018.5, -1210843.0, 35381.37, -0.007424295, 0.05796789, -1048316.2, 82352.234, 0.0, 10.000993, 9.998942 
8.550708e+2, 1.9462588e+2, -974683.8, -1120298.5, 40002.883, 0.016425107, 0.104754396, -964418.06, 68257.586, 0.0, 10.000877, 9.998946 
8.55063e+2, 2.0462492e+2, -903431.06, -1057351.9, 33974.246, 0.030168904, 0.12395586, -896265.6, 38420.793, 0.0, 10.00079, 9.998749 
8.550552e+2, 2.146235e+2, -811782.2, -961197.6, 22892.043, 0.033839487, 0.10267921, -808353.56, 28347.857, 0.0, 10.00074, 9.998759 
8.550472e+2, 2.2462237e+2, -709618.56, -844808.8, 12290.271, 0.035485625, 0.109677136, -708510.3, 30202.734, 0.0, 10.000699, 9.998905 
8.550391e+2, 2.3462164e+2, -613789.3, -744711.44, 20942.057, 0.034054164, 0.14136565, -610521.06, 30199.734, 0.0, 10.00067, 9.998933 
8.5503095e+2, 2.4462071e+2, -556356.8, -701465.8, 14765.2, 0.032494232, 0.17033114, -554869.6, -12138.841, 0.0, 10.000544, 9.998619 
8.5502267e+2, 2.5461948e+2, -493684.66, -619133.8, 7054.2393, 0.03177837, 0.18421541, -493289.25, -48545.355, 0.0, 10.000296, 9.998631 
8.5501444e+2, 2.64618e+2, -414657.88, -538901.75, 8645.772, 0.036840186, 0.17563857, -414059.13, -67299.67, 0.0, 10.000203, 9.998552 
8.550064e+2, 2.7461618e+2, -301170.9, -431893.2, 14245.348, 0.0478499, 0.13508065, -299636.53, -50858.61, 0.0, 10.000303, 9.998566 
8.549982e+2, 2.846151e+2, -201177.98, -286863.38, -3411.5977, 0.072222374, 0.15287067, -201042.38, -50253.81, 0.0, 10.000117, 9.998979 
8.5498977e+2, 2.9461488e+2, -183973.02, -227149.56, 3276.0188, 0.1103899, 0.22415917, -183725.86, -130935.0, 0.0, 9.999559, 9.998984 
8.5498035e+2, 3.046129e+2, -180908.81, -276072.2, 18027.588, 0.035670914, 0.16599917, -177608.17, -177608.17, 0.0000000059514194, 9.999571, 9.998309 
8.549709e+2, 3.1461126e+2, 53221.344, 53621.863, 17597.879, -0.06792404, 0.16796675, 71020.625, 71020.625, 0.0000005093443, 10.000243, 10.00025 
8.6513e+2, 1.24639794e+2, -1545194.4, -1699886.9, 44943.215, 0.008872526, 0.09212823, -1533084.9, 185452.75, 0.00000000000000000000885557, 10.001457, 9.999396 
8.651196e+2, 1.3463868e+2, -1489294.3, -1624904.5, -30966.443, -0.07574733, 0.040842805, -1482557.8, 137990.19, 0.0, 10.001174, 9.99938 
8.651117e+2, 1.446384e+2, -1418295.3, -1547923.6, 28265.658, 0.041863143, 0.08022546, -1412400.0, 110151.03, 0.0, 10.001024, 9.999305 
8.651038e+2, 1.5463807e+2, -1313131.5, -1446375.6, 29505.555, 0.03555035, 0.11380834, -1306890.1, 117665.54, 0.0, 10.001073, 9.999306 
8.6509556e+2, 1.6463734e+2, -1229582.0, -1364616.1, 19498.885, 0.016881693, 0.1151715, -1226822.8, 99740.34, 0.0, 10.001012, 9.999224 
8.650873e+2, 1.7463617e+2, -1157127.1, -1275774.6, 20627.305, -0.0028370216, 0.071767315, -1153643.4, 74930.16, 0.0, 10.000825, 9.999249 
8.6507934e+2, 1.8463524e+2, -1087689.9, -1223760.6, 29264.729, -0.0020509334, 0.06852002, -1081662.9, 48919.625, 0.0, 10.000767, 9.998961 
8.650717e+2, 1.9463457e+2, -976219.2, -1119524.3, 26946.215, 0.019889131, 0.102174625, -971319.9, 61270.363, 0.0, 10.00086, 9.9989605 
8.650639e+2, 2.0463349e+2, -903986.94, -1069250.8, 21952.582, 0.03236424, 0.11476653, -901120.6, 33481.523, 0.0, 10.000835, 9.998645 
8.650559e+2, 2.1463197e+2, -829319.4, -981570.9, 24825.62, 0.03338222, 0.09616265, -825373.6, 11244.985, 0.0, 10.000671, 9.998652 
8.650479e+2, 2.2463088e+2, -721848.75, -844029.6, 21217.71, 0.03326997, 0.107122496, -718269.0, 20361.21, 0.0, 10.0005865, 9.998964 
8.650397e+2, 2.3463024e+2, -620785.9, -740251.2, 17254.016, 0.03208235, 0.1419341, -618343.9, 22292.486, 0.0, 10.00059, 9.999002 
8.650315e+2, 2.4462932e+2, -552665.5, -704114.7, 7836.4507, 0.033326376, 0.17081335, -552261.1, -9614.998, 0.0, 10.000589, 9.998578 
8.6502314e+2, 2.5462803e+2, -452486.5, -604465.5, 10918.417, 0.037106078, 0.18242934, -451706.1, -7045.6987, 0.0, 10.000601, 9.998583 
8.6501485e+2, 2.6462656e+2, -364190.47, -486398.38, 22908.615, 0.04228784, 0.16570815, -360037.25, -13361.679, 0.0, 10.000429, 9.998803 
8.6500657e+2, 2.7462485e+2, -322723.28, -413252.78, 37568.402, 0.049878705, 0.11005206, -309163.84, -60472.043, 0.0, 10.00003, 9.998825 
8.6499816e+2, 2.8462395e+2, -236964.48, -310213.78, 16229.931, 0.069673516, 0.13416575, -233529.48, -82828.93, 0.0, 9.999898, 9.998923 
8.649895e+2, 2.9462394e+2, -109590.77, -198325.97, 1710.9304, 0.10095056, 0.23554446, -109557.8, -56856.33, 0.0, 10.000101, 9.99892 
8.649801e+2, 3.046218e+2, -120321.3, -219274.38, 21795.527, 0.039774504, 0.15129037, -115733.31, -115733.31, 0.000000027135602, 9.999868, 9.998555 
8.6497086e+2, 3.1462032e+2, -110343.11, -12685.197, 38688.05, -0.030508345, 0.14229763, 783.77844, 783.77844, 0.00000083365, 9.999065, 10.000361 
8.751312e+2, 1.2464836e+2, -1552817.3, -1712530.3, 32757.352, -0.024345163, 0.04186065, -1546359.8, 172092.89, 0.0000000055054987, 10.001443, 9.999317 
8.7512076e+2, 1.3464785e+2, -1497879.8, -1643683.0, -41027.48, -0.06991367, 0.06332176, -1487127.9, 133330.38, 0.0, 10.001178, 9.999249 
8.751127e+2, 1.4464739e+2, -1428105.0, -1570884.0, 29323.27, 0.04151236, 0.10019433, -1422317.3, 100145.984, 0.0, 10.001034, 9.999143 
8.7510467e+2, 1.5464619e+2, -1322637.9, -1466338.3, 31922.396, 0.01605509, 0.06123229, -1315865.6, 108609.62, 0.0, 10.001073, 9.999169 
8.7509644e+2, 1.6464542e+2, -1226775.9, -1358728.4, 11949.663, 0.00003611705, 0.062729165, -1225702.5, 100780.58, 0.0, 10.001011, 9.999265 
8.7508833e+2, 1.7464517e+2, -1154267.0, -1270733.0, 13808.095, 0.016262783, 0.10908538, -1152652.4, 75833.19, 0.0, 10.000829, 9.999283 
8.7508047e+2, 1.8464443e+2, -1092462.4, -1233740.1, 31736.688, 0.029495222, 0.12522651, -1085660.5, 44832.82, 0.0, 10.000767, 9.998894 
8.750727e+2, 1.9464305e+2, -981411.75, -1129616.4, 30473.486, 0.032950923, 0.095858485, -975390.5, 57117.203, 0.0, 10.000856, 9.998893 
8.750648e+2, 2.0464182e+2, -898958.4, -1057814.3, 15187.354, 0.038906354, 0.09253753, -897519.44, 37001.52, 0.0, 10.000831, 9.998726 
8.7505674e+2, 2.1464078e+2, -823063.56, -968553.44, 18508.205, 0.05002262, 0.1117724, -820746.0, 15786.689, 0.0, 10.00067, 9.998743 
8.750486e+2, 2.2463973e+2, -727524.94, -855828.06, 20006.361, 0.047920603, 0.12705442, -724477.7, 14065.802, 0.0, 10.000586, 9.998885 
8.750403e+2, 2.3463868e+2, -627267.0, -753198.3, 17457.395, 0.03164659, 0.12730148, -624891.75, 15661.615, 0.0, 10.000587, 9.998916 
8.75032e+2, 2.4463752e+2, -544744.44, -687583.06, 7360.101, 0.022821065, 0.1317494, -544366.2, -1801.0443, 0.0, 10.000587, 9.9986925 
8.7502354e+2, 2.5463626e+2, -444764.13, -587676.75, 12016.041, 0.020570809, 0.13291399, -443760.88, 818.4252, 0.0, 10.000597, 9.9987 
8.750151e+2, 2.6463515e+2, -338543.34, -432381.66, 8840.943, 0.027242346, 0.13101523, -337717.66, 8872.546, 0.0, 10.000425, 9.999176 
8.750066e+2, 2.7463424e+2, -296029.9, -356906.88, 23542.916, 0.047372364, 0.11807486, -287987.6, -39390.184, 0.0, 10.000026, 9.999214 
8.749979e+2, 2.8463343e+2, -258388.6, -354750.78, 22498.404, 0.056118943, 0.14383946, -253394.55, -102788.98, 0.0, 9.999897, 9.998618 
8.749891e+2, 2.9463255e+2, -133274.64, -246260.88, 10736.897, 0.0474624, 0.19571033, -132263.38, -79647.375, 0.0, 10.000095, 9.998594 
8.749799e+2, 3.046303e+2, -86231.99, -146104.8, -5926.2563, 0.030836482, 0.08985179, -85651.05, -85651.05, 0.00000006425192, 9.99986, 9.999061 
8.749712e+2, 3.1463012e+2, -87876.914, 37713.44, 9848.11, 0.09439086, 0.15636852, 38480.984, 38480.984, 0.0000011924308, 9.999051, 10.000712 
8.851322e+2, 1.246575e+2, -1679726.9, -1777424.5, 47067.395, -0.01787645, 0.043867774, -1660741.0, 57621.68, 0.00000006865043, 10.000588, 9.999285 
8.851221e+2, 1.3465689e+2, -1466527.3, -1638412.1, -24495.715, -0.06377776, 0.06530477, -1463104.5, 157265.08, 0.0, 10.001436, 9.999162 
8.851141e+2, 1.4465626e+2, -1342636.5, -1532903.5, 34990.6, 0.04201668, 0.091032684, -1336405.8, 185970.39, 0.0, 10.001635, 9.999115 
8.851058e+2, 1.5465489e+2, -1314213.0, -1464286.0, 46107.46, 0.01651615, 0.038024835, -1301179.3, 123209.484, 0.0, 10.001142, 9.999149 
8.850974e+2, 1.6465406e+2, -1241461.4, -1375993.6, 35060.05, -0.0010987121, 0.03913102, -1232872.9, 93524.164, 0.0, 10.000957, 9.999171 
8.850892e+2, 1.7465387e+2, -1118904.3, -1265832.0, 25247.396, 0.0116714025, 0.100540884, -1114686.9, 113712.97, 0.0, 10.001122, 9.999176 
8.850813e+2, 1.8465312e+2, -1055543.0, -1219524.9, 35203.13, 0.025595684, 0.12371677, -1048305.1, 82103.09, 0.0, 10.001034, 9.998863 
8.850734e+2, 1.9465172e+2, -1011598.9, -1146243.8, 36246.254, 0.031036872, 0.09341973, -1002461.5, 29961.467, 0.0, 10.000659, 9.998874 
8.850655e+2, 2.0465058e+2, -930687.44, -1064521.5, 30540.615, 0.039979346, 0.09584742, -924047.56, 10387.719, 0.0, 10.000577, 9.998801 
8.8505757e+2, 2.1464972e+2, -794788.5, -946123.44, 32399.1, 0.056183655, 0.12732404, -788144.0, 48300.89, 0.0, 10.000828, 9.99882 
8.850494e+2, 2.2464865e+2, -691855.44, -843283.94, 29911.84, 0.055966124, 0.13788523, -686161.06, 52294.676, 0.0, 10.000852, 9.998843 
8.8504094e+2, 2.346473e+2, -626256.44, -758196.56, 28417.047, 0.03622969, 0.11609119, -620396.3, 20071.822, 0.0, 10.000618, 9.998867 
8.850325e+2, 2.446461e+2, -571121.94, -685836.4, 19322.488, 0.02611884, 0.111808725, -567954.7, -25474.479, 0.0, 10.000345, 9.998821 
8.8502395e+2, 2.5464502e+2, -517747.06, -607327.94, 23923.143, 0.025752261, 0.11771633, -511758.56, -67266.305, 0.0, 10.00003, 9.998838 
8.850153e+2, 2.646441e+2, -402971.97, -458914.2, 12906.257, 0.032187324, 0.122674376, -400137.97, -53636.387, 0.0, 9.999964, 9.999217 
8.850067e+2, 2.7464333e+2, -269156.78, -339588.5, 228.48384, 0.048357673, 0.12011198, -269156.06, -20648.38, 0.0, 10.000193, 9.999252 
8.8499796e+2, 2.8464255e+2, -213412.02, -332843.3, -314.62717, 0.054520275, 0.14792125, -213411.19, -62895.61, 0.0, 10.000207, 9.998619 
8.849891e+2, 2.9464164e+2, -154032.34, -256520.23, 11582.04, 0.04682996, 0.19202456, -152739.78, -100212.95, 0.0, 9.999952, 9.998593 
8.849798e+2, 3.0463928e+2, -94462.766, -143335.19, -23068.59, 0.040092282, 0.07617265, -85294.09, -85294.09, 0.00000010587227, 9.999772, 9.999123 
8.849708e+2, 3.1463945e+2, -7174.0044, 60744.582, -47551.27, 0.1149577, 0.17127979, 85217.79, 85217.79, 0.0000015115112, 9.999674, 10.000572 
8.951331e+2, 1.2466719e+2, -1678950.3, -1779072.5, 73511.16, 0.0070751687, 0.09430794, -1640073.1, 78194.45, 0.00000033567557, 10.000602, 9.999268 
8.9512366e+2, 1.3466588e+2, -1473013.6, -1650716.1, 7266.6396, -0.05642436, 0.05117889, -1472717.0, 147564.36, 0.00000000007521531, 10.001431, 9.99908 
8.9511573e+2, 1.4466509e+2, -1333420.5, -1513532.8, 15586.547, 0.044301897, 0.05900071, -1332081.6, 190207.22, 0.0, 10.001632, 9.999249 
8.9510703e+2, 1.5466422e+2, -1305673.9, -1446571.5, 27241.777, 0.030639598, 0.042938262, -1300590.3, 123705.67, 0.0, 10.001141, 9.999272 
8.9509845e+2, 1.646633e+2, -1258923.3, -1412338.6, 39898.22, 0.0060457103, 0.041346215, -1249167.4, 77137.4, 0.0, 10.000957, 9.998922 
8.950901e+2, 1.746623e+2, -1137094.4, -1302726.4, 31538.625, -0.017516341, 0.04695222, -1131292.3, 97023.87, 0.0, 10.001119, 9.998924 
8.9508194e+2, 1.8466139e+2, -1055440.0, -1218616.3, 20625.117, -0.015228327, 0.06710334, -1052873.4, 77453.01, 0.0, 10.00103, 9.998872 
8.950739e+2, 1.9466059e+2, -1009676.0, -1143346.9, 21708.012, 0.012684493, 0.09530852, -1006239.0, 26096.664, 0.0, 10.000663, 9.998892 
8.95066e+2, 2.0465975e+2, -925705.5, -1054542.3, 37816.785, 0.033717852, 0.12371119, -915425.56, 18919.543, 0.0, 10.000578, 9.99887 
8.950583e+2, 2.1465884e+2, -790731.06, -936522.75, 41516.58, 0.049431324, 0.14338382, -779737.56, 56617.277, 0.0, 10.000822, 9.998889 
8.950502e+2, 2.2465768e+2, -693148.44, -844815.4, 20529.541, 0.053825106, 0.14136165, -690418.7, 47947.82, 0.0, 10.000846, 9.998836 
8.9504164e+2, 2.3465621e+2, -627291.3, -760139.44, 19816.541, 0.043230306, 0.107669964, -624398.4, 15982.042, 0.0, 10.000616, 9.998855 
8.9503294e+2, 2.4465512e+2, -561904.1, -666710.44, 7141.023, 0.040872466, 0.10871503, -561419.8, -19028.527, 0.0, 10.000344, 9.998953 
8.9502424e+2, 2.546544e+2, -507921.1, -586467.1, 12681.576, 0.049726, 0.13709249, -505924.38, -61525.22, 0.0, 10.000027, 9.998983 
8.950155e+2, 2.646534e+2, -422912.5, -500325.4, 20096.746, 0.053462785, 0.14256868, -418006.25, -71596.87, 0.0, 9.999963, 9.998934 
8.950069e+2, 2.746521e+2, -291203.6, -384459.03, 9727.301, 0.05053391, 0.116912514, -290199.78, -41777.484, 0.0, 10.000188, 9.998947 
8.949983e+2, 2.8465134e+2, -192840.0, -289136.97, -8318.851, 0.06304389, 0.14669274, -192126.64, -41696.3, 0.0, 10.000202, 9.998921 
8.949895e+2, 2.946511e+2, -131620.03, -209035.83, 3921.0684, 0.093172014, 0.22528902, -131421.94, -78988.28, 0.0, 9.9999485, 9.998921 
8.949798e+2, 3.0464876e+2, -123169.43, -202400.36, -27291.086, 0.06057833, 0.11072507, -114678.875, -114678.875, 0.00000013409642, 9.999769, 9.998719 
8.949695e+2, 3.1464815e+2, -53563.992, -33012.77, -49982.027, 0.023672312, 0.17685941, 7738.9775, 7738.9775, 0.0000016978646, 9.999662, 9.999932 
9.0513414e+2, 1.2467597e+2, -1511645.6, -1691008.5, 40858.848, 0.0015206427, 0.098011605, -1502776.5, 215405.36, 0.0000010657902, 10.001714, 9.999338 
9.0512496e+2, 1.3467471e+2, -1542456.8, -1681358.1, -15990.929, -0.042851944, 0.059614137, -1540639.6, 79555.21, 0.000000007369457, 10.000941, 9.999105 
9.051171e+2, 1.4467397e+2, -1463899.6, -1576480.0, -8592.545, 0.056612972, 0.070918635, -1463247.6, 58954.254, 0.0, 10.000739, 9.999247 
9.0510815e+2, 1.5467319e+2, -1298730.3, -1444876.3, -8832.597, 0.021918172, 0.063568935, -1298198.4, 126010.08, 0.0, 10.001193, 9.999259 
9.0509945e+2, 1.6467221e+2, -1224728.1, -1397904.3, 2866.6099, -0.0023423205, 0.057255693, -1224680.6, 101537.34, 0.0, 10.0012, 9.998904 
9.050911e+2, 1.7467101e+2, -1196660.8, -1332038.8, 10794.511, -0.0063582873, 0.043332066, -1195805.5, 32425.473, 0.0, 10.000715, 9.998917 
9.050829e+2, 1.8467008e+2, -1104013.3, -1232356.9, 20132.463, -0.001273242, 0.05692956, -1100929.4, 29311.76, 0.0, 10.000658, 9.998956 
9.050748e+2, 1.9466944e+2, -942079.75, -1101784.6, 25720.275, 0.012083668, 0.09390165, -938039.75, 94208.52, 0.0, 10.001089, 9.998972 
9.050668e+2, 2.046686e+2, -855672.44, -1022180.3, 35308.586, 0.025963653, 0.1187959, -848494.56, 85762.85, 0.0, 10.001065, 9.9988575 
9.050589e+2, 2.1466751e+2, -835658.7, -959918.06, 30829.527, 0.04076736, 0.12164113, -828430.2, 7838.6563, 0.0, 10.000522, 9.998874 
9.050507e+2, 2.2466639e+2, -768794.44, -870782.8, 13788.688, 0.046483047, 0.11942819, -766963.1, -28682.844, 0.0, 10.000281, 9.998929 
9.050421e+2, 2.3466519e+2, -653052.9, -761672.44, 20124.094, 0.04029839, 0.103428565, -649444.4, -9152.573, 0.0, 10.000393, 9.998951 
9.050334e+2, 2.4466422e+2, -548588.5, -659227.5, 3724.9485, 0.044292796, 0.111426204, -548463.2, -6161.769, 0.0, 10.000432, 9.998962 
9.050245e+2, 2.5466344e+2, -455080.22, -560394.7, -2313.1248, 0.06103466, 0.13507505, -455029.44, -10720.105, 0.0, 10.000388, 9.998988 
9.0501577e+2, 2.6466238e+2, -384600.1, -488416.66, 14822.115, 0.06656055, 0.13460973, -382525.38, -36204.883, 0.0, 10.000255, 9.998874 
9.0500706e+2, 2.7466094e+2, -319703.4, -405206.63, 21426.275, 0.058894794, 0.10141214, -314634.66, -66299.39, 0.0, 10.000022, 9.998884 
9.0499836e+2, 2.846602e+2, -227525.88, -291525.4, 3077.7993, 0.068956025, 0.13070907, -227378.19, -77035.11, 0.0, 9.999901, 9.999051 
9.049895e+2, 2.9466015e+2, -128667.31, -191447.77, -577.9686, 0.09905883, 0.21673155, -128661.99, -76318.26, 0.0, 9.9999, 9.999064 
9.0497965e+2, 3.046579e+2, -95029.88, -193636.28, -17982.92, 0.06466806, 0.10605637, -91852.7, -91852.7, 0.0000001316986, 9.999985, 9.998674 
9.0496933e+2, 3.1465733e+2, -1525.5681, -38964.145, -15109.973, 0.015374959, 0.17603265, 3811.8064, 3811.8064, 0.0000016698094, 10.00015, 9.999659 
9.1513544e+2, 1.2468393e+2, -1496107.8, -1660843.4, 8538.292, -0.044921305, 0.060454585, -1495666.5, 222438.1, 0.000002613721, 10.001721, 9.999542 
9.15126e+2, 1.346835e+2, -1531395.5, -1658250.0, -45584.59, -0.029258179, 0.08834137, -1516714.1, 103395.04, 0.00000007607973, 10.00094, 9.999265 
9.151179e+2, 1.4468299e+2, -1474598.8, -1599540.6, 7069.966, 0.07023022, 0.122260906, -1474200.0, 47914.574, 0.0, 10.000742, 9.999087 
9.1510904e+2, 1.546819e+2, -1310276.6, -1468330.4, 9194.194, -0.011125656, 0.100187056, -1309743.5, 114382.086, 0.0, 10.001192, 9.999099 
9.151004e+2, 1.646809e+2, -1209599.3, -1367365.9, -15464.621, -0.027660767, 0.090039305, -1208097.6, 118037.91, 0.0, 10.001202, 9.999115 
9.150923e+2, 1.7468004e+2, -1180511.4, -1299779.6, -7685.004, 0.041204493, 0.08901745, -1180018.3, 48125.59, 0.0, 10.000719, 9.999137 
9.150842e+2, 1.8467918e+2, -1092995.4, -1209675.3, 34251.633, 0.062332146, 0.09128136, -1083683.9, 46468.168, 0.0, 10.000658, 9.999112 
9.15076e+2, 1.9467829e+2, -932716.44, -1080486.3, 41665.9, 0.025864072, 0.08866305, -921777.8, 110382.44, 0.0, 10.0010805, 9.999123 
9.150677e+2, 2.0467716e+2, -864609.06, -1038688.6, 14830.459, 0.013187987, 0.08237153, -863354.6, 70816.984, 0.0, 10.001055, 9.99875 
9.1505927e+2, 2.1467575e+2, -843655.8, -976216.7, 10051.151, 0.02818193, 0.06268451, -842898.0, -6711.522, 0.0, 10.00052, 9.998763 
9.1505086e+2, 2.2467476e+2, -755612.9, -843631.06, 15913.225, 0.03263959, 0.07178745, -752824.25, -14627.4375, 0.0, 10.000281, 9.999116 
9.1504234e+2, 2.3467426e+2, -639481.8, -732786.5, 24422.357, 0.02552711, 0.1042021, -633475.9, 6726.07, 0.0, 10.000389, 9.999152 
9.150337e+2, 2.4467343e+2, -556607.7, -675487.4, 1690.7969, 0.032966964, 0.12137887, -556583.6, -14373.338, 0.0, 10.000429, 9.998853 
9.150248e+2, 2.546722e+2, -464552.13, -579620.94, -3386.5017, 0.056848012, 0.11241455, -464452.53, -20230.072, 0.0, 10.000385, 9.998858 
9.1501606e+2, 2.6467103e+2, -373664.75, -465500.78, 6449.4736, 0.06927346, 0.098574966, -373214.03, -26979.441, 0.0, 10.000254, 9.999032 
9.150072e+2, 2.7466983e+2, -307863.66, -380149.38, 13936.51, 0.069146655, 0.07313395, -305269.78, -57023.344, 0.0, 10.000019, 9.999059 
9.1499823e+2, 2.8466913e+2, -231675.39, -298948.72, 2207.585, 0.06696235, 0.10007643, -231603.03, -81349.34, 0.0, 9.999895, 9.999003 
9.14989e+2, 2.9466882e+2, -133634.55, -199520.36, 581.771, 0.061771985, 0.16707586, -133629.4, -81372.62, 0.0, 9.99989, 9.999014 
9.149796e+2, 3.046668e+2, -72738.21, -146288.33, -11403.342, 0.05098023, 0.06269969, -71010.79, -71010.79, 0.00000009563079, 9.999979, 9.999003 
9.1497016e+2, 3.1466678e+2, 6741.2954, -20735.262, -6069.859, 0.080592975, 0.15922523, 8022.4536, 8022.4536, 0.0000014046396, 10.000146, 9.999785 
9.25137e+2, 1.2469233e+2, -1602026.6, -1707002.4, 14447.613, -0.027383149, 0.052142594, -1600074.5, 117947.75, 0.0000053718704, 10.0009775, 9.99958 
9.251271e+2, 1.3469191e+2, -1462990.9, -1626210.1, -51527.438, -0.04023568, 0.08225451, -1448085.1, 171941.34, 0.00000033393198, 10.001414, 9.999256 
9.2511886e+2, 1.4469144e+2, -1374372.1, -1545098.3, 9564.746, 0.05263454, 0.11748339, -1373838.0, 148193.73, 0.0, 10.001405, 9.999141 
9.2511004e+2, 1.5469047e+2, -1346436.5, -1478401.9, 26005.127, -0.011442341, 0.102866925, -1341496.8, 82545.15, 0.0, 10.000915, 9.999162 
9.2510146e+2, 1.6468957e+2, -1261389.5, -1382884.6, 4621.305, -0.022144213, 0.095644586, -1261214.0, 64836.945, 0.0, 10.00081, 9.999194 
9.250932e+2, 1.746888e+2, -1112361.5, -1258549.4, 1327.853, 0.03908806, 0.094160676, -1112349.5, 115708.54, 0.0, 10.001152, 9.999211 
9.25085e+2, 1.8468794e+2, -1037722.9, -1180196.4, 31892.785, 0.060885675, 0.0921336, -1030909.44, 99156.35, 0.0, 10.001026, 9.999137 
9.250768e+2, 1.94687e+2, -1034025.7, -1126139.9, 28299.15, 0.03219287, 0.08146168, -1026026.4, 6048.079, 0.0, 10.000373, 9.999149 
9.2506844e+2, 2.0468588e+2, -981728.2, -1082458.1, 7074.005, 0.023473674, 0.0689381, -981233.8, -47148.387, 0.0, 10.000198, 9.998861 
9.250599e+2, 2.1468455e+2, -828941.9, -956679.7, 18054.357, 0.03828243, 0.045282707, -826439.1, 9660.013, 0.0, 10.000567, 9.998874 
9.250514e+2, 2.2468361e+2, -710583.0, -827750.2, 23883.936, 0.041828047, 0.05697827, -705901.44, 32207.598, 0.0, 10.000617, 9.999063 
9.250428e+2, 2.3468314e+2, -656879.0, -747577.5, 11167.343, 0.032912493, 0.099303626, -655524.25, -15409.763, 0.0, 10.000298, 9.999094 
9.25034e+2, 2.4468231e+2, -584386.6, -674565.7, -7470.9365, 0.033421148, 0.114071414, -583771.9, -41649.082, 0.0, 10.000177, 9.9989805 
9.250251e+2, 2.5468108e+2, -468124.38, -566430.2, 5942.355, 0.043923758, 0.089951724, -467766.47, -23632.117, 0.0, 10.000297, 9.998992 
9.250161e+2, 2.6467997e+2, -372904.0, -460334.84, 12480.42, 0.055394452, 0.076163046, -371157.38, -25012.041, 0.0, 10.000237, 9.999076 
9.250072e+2, 2.7467898e+2, -313119.16, -377850.22, 8604.666, 0.06843048, 0.06755066, -311994.88, -63839.34, 0.0, 9.999962, 9.999102 
9.2499816e+2, 2.8467834e+2, -230527.66, -287040.25, 9397.328, 0.07009773, 0.09208418, -229005.97, -78843.766, 0.0, 9.999855, 9.999104 
9.2498887e+2, 2.946779e+2, -117984.59, -180268.75, 17683.313, 0.05931555, 0.1361271, -113314.266, -61148.355, 0.0, 9.999947, 9.99912 
9.2497957e+2, 3.0467606e+2, -65738.9, -111694.13, 8774.875, 0.057518356, 0.029617937, -64120.39, -64120.39, 0.00000004550982, 9.999892, 9.999283 
9.249703e+2, 3.1467623e+2, -56326.297, -39382.75, 8463.464, 0.1045812, 0.11921872, -35879.5, -35879.5, 0.0000009683944, 9.999662, 9.999891 
9.351385e+2, 1.24701165e+2, -1612813.0, -1728031.3, 26938.467, 0.033099134, 0.06423647, -1606825.8, 111109.266, 0.000009857008, 10.000972, 9.999439 
9.351281e+2, 1.3470009e+2, -1476325.3, -1653836.8, -33674.16, -0.07751538, 0.04629834, -1470151.9, 149793.84, 0.0000009955157, 10.001415, 9.999065 
9.3511975e+2, 1.4469948e+2, -1354171.4, -1506296.6, -8726.398, 0.0027566983, 0.064967394, -1353672.5, 168279.55, 0.00000000002439963, 10.001416, 9.999404 
9.351112e+2, 1.5469903e+2, -1327522.3, -1439237.8, 7670.5273, 0.01663394, 0.07399248, -1326998.0, 96958.64, 0.0, 10.000914, 9.999433 
9.351025e+2, 1.6469832e+2, -1265194.5, -1390112.8, 15890.285, 0.008731546, 0.07463947, -1263204.9, 62758.664, 0.0, 10.000807, 9.999146 
9.350938e+2, 1.7469732e+2, -1117578.6, -1267979.3, 14479.489, -0.013981659, 0.059575547, -1116197.4, 111775.62, 0.0, 10.001146, 9.999148 
9.3508536e+2, 1.8469642e+2, -1046502.25, -1197533.3, 7661.57, -0.0073304223, 0.061494008, -1046114.6, 83867.24, 0.0, 10.00102, 9.999022 
9.3507713e+2, 1.946956e+2, -1040815.44, -1141419.5, 3465.9678, 0.029638283, 0.072826795, -1040696.1, -8705.88, 0.0, 10.000377, 9.999043 
9.350689e+2, 2.0469475e+2, -958262.56, -1035111.56, 18416.137, 0.054833934, 0.07799413, -954077.25, -20078.723, 0.0, 10.000203, 9.999185 
9.350608e+2, 2.1469389e+2, -806123.9, -908478.25, 31689.11, 0.068011954, 0.069163114, -797107.1, 38899.348, 0.0, 10.000564, 9.9992075 
9.3505234e+2, 2.2469293e+2, -732530.44, -871845.3, 11423.429, 0.07025541, 0.07524663, -731600.0, 6416.5806, 0.0, 10.00061, 9.998764 
9.3504333e+2, 2.3469186e+2, -680022.4, -794721.4, -829.49664, 0.05979589, 0.0890274, -680016.4, -39987.313, 0.0, 10.000294, 9.998773 
9.350343e+2, 2.4469091e+2, -559123.44, -622106.4, -4187.297, 0.043274045, 0.090010494, -558846.3, -16807.748, 0.0, 10.000176, 9.999341 
9.3502516e+2, 2.5469008e+2, -440861.78, -509776.53, 11220.687, 0.019642293, 0.06682882, -439080.88, 4963.962, 0.0, 10.000295, 9.999383 
9.3501604e+2, 2.6468927e+2, -378116.47, -470176.72, 2414.4631, 0.02180127, 0.06638731, -378053.2, -32000.559, 0.0, 10.000233, 9.999011 
9.3500704e+2, 2.7468848e+2, -320244.06, -391263.44, -824.6216, 0.053468242, 0.08493902, -320234.5, -72172.305, 0.0, 9.999956, 9.999013 
9.3499804e+2, 2.8468788e+2, -213245.27, -250938.3, 12325.167, 0.07504025, 0.10790799, -209572.89, -59504.633, 0.0, 9.999853, 9.999353 
9.3498915e+2, 2.9468745e+2, -99763.164, -142439.66, 22733.129, 0.085585974, 0.12455469, -89922.63, -37851.91, 0.0, 9.999946, 9.999381 
9.349796e+2, 3.046857e+2, -51203.87, -79509.67, 8.69318, 0.077781945, 0.0063893157, -51203.867, -51203.867, 0.000000010385675, 9.999885, 9.999508 
9.349697e+2, 3.1468564e+2, -53629.01, -28649.729, 2268.714, 0.07864591, 0.047101293, -28445.348, -28445.348, 0.00000050425, 9.999641, 9.999974 
9.451397e+2, 1.2471013e+2, -1582762.5, -1705168.4, 55362.426, 0.04504565, 0.062004708, -1561437.9, 156407.95, 0.000016753027, 10.001142, 9.999515 
9.4512933e+2, 1.3470875e+2, -1515033.0, -1668611.8, 12482.339, -0.0834703, 0.010019516, -1514025.1, 105833.63, 0.000002343361, 10.001134, 9.999099 
9.4512093e+2, 1.4470808e+2, -1404230.0, -1532461.4, 18023.408, -0.0016094967, 0.022586169, -1401744.9, 120120.586, 0.0000000053592455, 10.001085, 9.999381 
9.451122e+2, 1.5470785e+2, -1316094.1, -1436451.5, 11315.795, 0.022991402, 0.057598107, -1315039.5, 108829.14, 0.0, 10.001005, 9.999407 
9.451035e+2, 1.6470724e+2, -1246235.1, -1377862.3, 27255.32, 0.015920864, 0.0681235, -1240814.8, 85060.28, 0.0, 10.000924, 9.999174 
9.450947e+2, 1.747062e+2, -1160088.9, -1284635.9, 31483.17, -0.019273588, 0.044249423, -1152582.9, 75302.05, 0.0, 10.000839, 9.999182 
9.450862e+2, 1.8470524e+2, -1073420.4, -1215558.6, 18543.87, -0.016758297, 0.041809116, -1071041.0, 58853.336, 0.0, 10.00086, 9.998973 
9.450778e+2, 1.947044e+2, -952252.5, -1104706.6, 17653.223, 0.024949363, 0.054826822, -950235.06, 81668.18, 0.0, 10.001012, 9.998988 
9.4506943e+2, 2.0470361e+2, -861028.56, -989523.9, 30251.215, 0.052446038, 0.07097135, -854262.8, 79648.2, 0.0, 10.000876, 9.999173 
9.450612e+2, 2.1470296e+2, -828309.8, -920255.25, 16638.77, 0.06454558, 0.08366326, -825391.44, 10526.054, 0.0, 10.000417, 9.999196 
9.450527e+2, 2.2470202e+2, -788048.06, -893967.2, -6280.6045, 0.06811338, 0.08925278, -787676.94, -49749.426, 0.0, 10.00021, 9.998804 
9.450436e+2, 2.3470072e+2, -677488.94, -789167.44, 7186.1313, 0.061169937, 0.078648664, -677028.44, -37086.88, 0.0, 10.000293, 9.998811 
9.4503456e+2, 2.4469978e+2, -549921.7, -613809.5, 8676.077, 0.048056204, 0.07580873, -548764.44, -6813.3267, 0.0, 10.000223, 9.999376 
9.450253e+2, 2.5469917e+2, -485573.72, -527094.44, -3957.6035, 0.028083347, 0.070681125, -485199.88, -41244.16, 0.0, 9.99997, 9.99942 
9.4501615e+2, 2.6469845e+2, -422921.8, -483727.2, -21496.97, 0.02805059, 0.075713016, -416089.53, -70126.99, 0.0, 9.99989, 9.999083 
9.4500697e+2, 2.7469766e+2, -305392.94, -375605.25, -13672.604, 0.051245295, 0.08677589, -302824.4, -54852.637, 0.0, 10.000022, 9.999088 
9.449979e+2, 2.846971e+2, -198160.06, -237567.66, -1966.165, 0.07478829, 0.10383904, -198062.2, -48084.74, 0.0, 9.99993, 9.999409 
9.44989e+2, 2.946967e+2, -151126.25, -160926.0, -8329.065, 0.09910032, 0.11763672, -146362.67, -94383.305, 0.0, 9.999565, 9.999437 
9.4497955e+2, 3.0469507e+2, -77675.06, -89274.586, -31500.307, 0.09149858, 0.008072151, -51445.047, -51445.047, 0.00000000032400083, 9.99969, 9.999535 
9.4496965e+2, 3.146948e+2, 47268.223, 9151.914, -47552.895, 0.07259452, 0.026130103, 79439.86, 79439.86, 0.00000016973306, 10.000381, 9.999878 
9.5514035e+2, 1.2471933e+2, -1558617.3, -1661640.4, 48193.29, -0.0072467895, 0.0497777, -1539587.8, 178165.92, 0.00002677623, 10.001168, 9.999802 
9.551307e+2, 1.3471794e+2, -1498735.6, -1633877.8, 11810.47, -0.061986867, -0.026459683, -1497711.3, 122053.73, 0.0000047533053, 10.001129, 9.99934 
9.5512235e+2, 1.4471728e+2, -1426793.9, -1577163.1, 14154.115, 0.03368762, -0.011518831, -1425473.1, 96298.625, 0.000000046136613, 10.001076, 9.99908 
9.551131e+2, 1.5471704e+2, -1338595.1, -1482759.4, 8677.25, 0.0051028393, 0.053151917, -1338074.6, 85702.62, 0.0, 10.001004, 9.999089 
9.5510423e+2, 1.6471645e+2, -1238903.1, -1363480.8, 23460.703, -0.0037807038, 0.077100165, -1234631.5, 91152.93, 0.0, 10.000926, 9.999272 
9.55096e+2, 1.7471547e+2, -1151611.1, -1267594.1, 28268.742, 0.019745525, 0.048229035, -1145088.0, 82705.3, 0.0, 10.00084, 9.999299 
9.550875e+2, 1.8471447e+2, -1072641.0, -1213978.5, 22601.592, 0.027691305, 0.033629447, -1069114.8, 60688.047, 0.0, 10.00086, 9.998984 
9.5507866e+2, 1.9471343e+2, -952667.3, -1104693.1, 22858.71, 0.015608719, 0.028493792, -949304.6, 82508.24, 0.0, 10.001008, 9.998991 
9.5506996e+2, 2.0471253e+2, -886433.8, -1041198.3, 12216.582, 0.014181085, 0.048829816, -885475.44, 48347.137, 0.0, 10.000871, 9.998821 
9.5506126e+2, 2.1471177e+2, -853728.9, -972246.8, -971.706, 0.026072413, 0.08861564, -853720.9, -17889.111, 0.0, 10.000413, 9.998841 
9.5505255e+2, 2.2471088e+2, -762177.6, -839942.06, -5041.687, 0.033439998, 0.098988794, -761852.1, -24010.621, 0.0, 10.000207, 9.999177 
9.550436e+2, 2.3470978e+2, -649586.1, -731256.6, 10566.04, 0.03511617, 0.06743834, -648241.3, -8389.459, 0.0, 10.000292, 9.99921 
9.5503473e+2, 2.4470896e+2, -571161.9, -657423.44, -840.1847, 0.04535289, 0.07033023, -571153.75, -29293.496, 0.0, 10.00022, 9.999079 
9.550257e+2, 2.5470838e+2, -509087.94, -574868.7, -12930.574, 0.06546818, 0.102784276, -506637.44, -62770.863, 0.0, 9.999966, 9.999094 
9.550165e+2, 2.6470762e+2, -407847.6, -452574.88, -17429.186, 0.070388354, 0.10663771, -401857.94, -55983.41, 0.0, 9.99989, 9.999297 
9.550071e+2, 2.747066e+2, -288496.3, -340898.97, -7741.2754, 0.057704918, 0.07258317, -287376.66, -39492.555, 0.0, 10.000022, 9.999328 
9.549978e+2, 2.8470597e+2, -208679.1, -258005.4, -15025.187, 0.065533824, 0.07769212, -204462.72, -54572.906, 0.0, 9.999925, 9.999271 
9.5498854e+2, 2.9470563e+2, -163391.3, -183587.88, -20539.41, 0.095708266, 0.11397318, -150601.98, -98710.234, 0.0, 9.999554, 9.999288 
9.549793e+2, 3.0470413e+2, -91332.76, -116110.18, -6694.2944, 0.094851054, 0.035327975, -89639.79, -89639.79, 0.0, 9.999681, 9.999355 
9.549701e+2, 3.1470373e+2, 27050.73, -31615.871, -18404.938, 0.07610607, 0.057273775, 32346.67, 32346.67, 0.000000027453995, 10.000375, 9.999601 
9.6514153e+2, 1.24728195e+2, -1484414.5, -1622745.5, 9436.786, -0.032814983, 0.03768652, -1483773.8, 233892.56, 0.000040530904, 10.001668, 9.9998255 
9.651318e+2, 1.3472706e+2, -1509008.6, -1638785.4, -40686.42, -0.054621235, -0.011623666, -1497307.9, 122367.125, 0.000008656152, 10.0010605, 9.999338 
9.6512353e+2, 1.447264e+2, -1465794.9, -1599511.5, -22784.996, 0.053831838, 0.0035988283, -1462018.9, 59663.086, 0.00000019058375, 10.000825, 9.999045 
9.6511394e+2, 1.5472585e+2, -1346445.0, -1490163.0, -9817.496, -0.0019439644, 0.040467046, -1345777.5, 77912.98, 0.0, 10.000966, 9.999055 
9.651051e+2, 1.647252e+2, -1233210.1, -1364194.8, 7160.7207, -0.012364967, 0.062955454, -1232819.8, 92878.43, 0.0, 10.000981, 9.99924 
9.65097e+2, 1.7472449e+2, -1148259.9, -1268973.4, 520.2882, 0.036315054, 0.062898554, -1148257.6, 79447.35, 0.0, 10.000877, 9.99927 
9.650885e+2, 1.8472354e+2, -1073115.4, -1207337.6, -1727.9165, 0.045651924, 0.052945416, -1073093.1, 56620.7, 0.0, 10.000828, 9.999045 
9.6507955e+2, 1.9472234e+2, -973121.75, -1107182.4, 2268.5647, 0.007600618, 0.025318855, -973083.4, 58641.57, 0.0, 10.000836, 9.999056 
9.6507055e+2, 2.0472138e+2, -907778.6, -1052361.6, -7897.745, -0.0053207553, 0.03576813, -907348.44, 26386.723, 0.0, 10.0007305, 9.998812 
9.650616e+2, 2.1472065e+2, -842369.3, -968392.44, 2862.1729, 0.010562273, 0.07947869, -842304.3, -6559.8804, 0.0, 10.000499, 9.998827 
9.6505266e+2, 2.2471982e+2, -738222.56, -817335.25, 14971.83, 0.025372157, 0.09207286, -735484.0, 2269.6113, 0.0, 10.000324, 9.999276 
9.6504396e+2, 2.3471883e+2, -653938.7, -721464.9, 7135.2437, 0.037892386, 0.059949003, -653192.94, -13430.212, 0.0, 10.000212, 9.999315 
9.6503496e+2, 2.4471804e+2, -582542.44, -666006.3, -9448.807, 0.052383456, 0.06494245, -581486.1, -39715.547, 0.0, 10.000157, 9.999048 
9.650258e+2, 2.5471753e+2, -481174.6, -564958.44, -591.3041, 0.069500186, 0.10451104, -481170.44, -37393.54, 0.0, 10.0001745, 9.999062 
9.650165e+2, 2.6471674e+2, -379223.16, -436288.94, 2588.3484, 0.07545692, 0.11004206, -379106.0, -33321.207, 0.0, 10.000077, 9.99932 
9.6500707e+2, 2.7471572e+2, -314968.1, -351035.88, -5267.3867, 0.068808824, 0.07041252, -314214.6, -66420.26, 0.0, 9.999829, 9.9993515 
9.649977e+2, 2.847149e+2, -230930.66, -283370.28, -19184.951, 0.06913819, 0.06556957, -224661.38, -74859.88, 0.0, 9.999835, 9.999141 
9.6498823e+2, 2.947143e+2, -85625.99, -160988.05, -25768.313, 0.07745804, 0.087490946, -77657.64, -25851.166, 0.0, 10.000154, 9.999154 
9.6497905e+2, 3.04713e+2, -22932.703, -91764.63, 1911.5376, 0.07996979, 0.03854093, -22879.658, -22879.658, 0.0, 10.000191, 9.999277 
9.6497035e+2, 3.14713e+2, -55284.605, -87081.94, -2663.3428, 0.089849375, 0.10915551, -55063.066, -55063.066, 0.00000000015790982, 9.999879, 9.999459 
9.75143e+2, 1.24736756e+2, -1502704.4, -1655998.4, -18060.154, -0.051142484, 0.019991225, -1500605.4, 216977.67, 0.000058506626, 10.001646, 9.999608 
9.751328e+2, 1.3473623e+2, -1524832.4, -1672481.9, -61696.45, -0.0650707, 0.05287411, -1502446.1, 117141.69, 0.00001444443, 10.001063, 9.999106 
9.751243e+2, 1.4473552e+2, -1449571.6, -1568020.5, -17636.123, 0.054138336, 0.06724455, -1447001.5, 74593.51, 0.0000005546723, 10.0008335, 9.999258 
9.75115e+2, 1.5473436e+2, -1330702.9, -1457547.8, -3824.472, -0.00064029667, 0.0203132, -1330587.6, 93019.68, 0.0, 10.000966, 9.99928 
9.7510606e+2, 1.647336e+2, -1244513.4, -1387669.3, 2566.2034, -0.013399197, 0.027692774, -1244467.4, 81148.24, 0.0, 10.000981, 9.99908 
9.750978e+2, 1.7473333e+2, -1160163.8, -1294096.8, -3285.5874, 0.028755637, 0.08861203, -1160083.1, 67536.195, 0.0, 10.000879, 9.999098 
9.7508925e+2, 1.8473254e+2, -1065350.5, -1191041.8, -2314.2078, 0.03447549, 0.098577924, -1065307.9, 64319.12, 0.0, 10.000826, 9.999159 
9.7508025e+2, 1.947312e+2, -965118.56, -1089435.8, 2523.8098, -0.00116812, 0.043834474, -965067.3, 66571.664, 0.0, 10.000831, 9.999181 
9.7507125e+2, 2.0473021e+2, -886256.94, -1006463.25, -17784.162, -0.009246882, 0.03114419, -883681.0, 49967.46, 0.0, 10.000724, 9.99913 
9.7506213e+2, 2.1472965e+2, -820277.94, -921605.1, -6306.245, 0.014855669, 0.057190515, -819887.0, 15768.046, 0.0, 10.000494, 9.999151 
9.750532e+2, 2.2472887e+2, -751374.5, -843961.06, 9230.178, 0.04043775, 0.069248356, -750463.3, -12799.888, 0.0, 10.00032, 9.999095 
9.750444e+2, 2.3472789e+2, -668401.5, -750299.0, 2831.5596, 0.06686773, 0.057354365, -668303.75, -28629.922, 0.0, 10.000206, 9.99912 
9.7503525e+2, 2.4472712e+2, -565980.7, -631265.94, -9723.55, 0.06676806, 0.061695054, -564563.2, -22881.646, 0.0, 10.0001545, 9.9992895 
9.7502565e+2, 2.547266e+2, -462910.56, -527196.6, 605.8699, 0.037150986, 0.074322134, -462904.84, -19218.34, 0.0, 10.000174, 9.999321 
9.7501624e+2, 2.647259e+2, -392277.53, -462647.0, -6095.065, 0.040687926, 0.08271354, -391753.5, -46060.152, 0.0, 10.000073, 9.999141 
9.7500706e+2, 2.7472505e+2, -329251.56, -379765.66, -13276.231, 0.080780566, 0.07945028, -325974.8, -78272.586, 0.0, 9.999825, 9.999156 
9.7499764e+2, 2.84724e+2, -240886.36, -303875.0, -8049.847, 0.08157726, 0.069511764, -239873.89, -90161.79, 0.0, 9.999833, 9.9990015 
9.74988e+2, 2.9472277e+2, -94997.734, -180193.55, -12330.662, 0.03841382, 0.04164712, -93248.97, -41525.773, 0.0, 10.000151, 9.999024 
9.7497886e+2, 3.0472168e+2, -22436.45, -88764.93, -9035.38, 0.04191131, 0.019103635, -21227.662, -21227.662, 0.0, 10.000181, 9.999303 
9.749704e+2, 3.1472254e+2, -58312.133, -88343.305, -11352.117, 0.10515603, 0.16897531, -54503.84, -54503.84, 0.0, 9.999857, 9.999461 
9.8514456e+2, 1.24745466e+2, -1649210.1, -1717473.6, -16233.119, -0.01042707, 0.011872531, -1645546.5, 71951.15, 0.00008108169, 10.000602, 9.99969 
9.8513377e+2, 1.3474509e+2, -1506530.9, -1657347.9, -35352.145, -0.07987129, 0.05427857, -1498655.4, 120845.83, 0.000022462764, 10.001162, 9.999163 
9.851252e+2, 1.4474443e+2, -1374085.1, -1534896.5, 10696.152, 0.029950406, 0.07108526, -1373376.8, 148131.19, 0.0000013019285, 10.001365, 9.999229 
9.8511595e+2, 1.547432e+2, -1306135.4, -1448102.4, 5175.8667, -0.0039341506, 0.020065375, -1305947.0, 117573.45, 0.0, 10.001146, 9.999256 
9.851071e+2, 1.6474234e+2, -1230493.3, -1385726.5, 10257.893, -0.014232407, 0.020551473, -1229818.4, 95711.24, 0.0, 10.001099, 9.999036 
9.850987e+2, 1.747419e+2, -1110567.8, -1275251.0, 12628.537, 0.010270955, 0.07023067, -1109604.9, 117930.15, 0.0, 10.001241, 9.999053 
9.8508996e+2, 1.8474121e+2, -1029588.1, -1163397.3, 7265.066, 0.018307267, 0.086474605, -1029194.8, 100347.27, 0.0, 10.001026, 9.999252 
9.8508096e+2, 1.9474022e+2, -1017188.7, -1103436.4, 8958.873, 0.0045240717, 0.057423625, -1016267.9, 15282.892, 0.0, 10.000425, 9.999281 
9.8507184e+2, 2.0473932e+2, -963953.9, -1033941.8, -10948.088, 0.006685407, 0.043418046, -962281.25, -28722.006, 0.0, 10.000147, 9.99922 
9.8506254e+2, 2.147385e+2, -851708.9, -926499.7, -17482.508, 0.027307896, 0.03709905, -847824.06, -12256.525, 0.0, 10.000235, 9.999242 
9.8505354e+2, 2.2473776e+2, -761815.0, -850541.0, -4233.69, 0.04606366, 0.04777831, -761613.44, -24037.713, 0.0, 10.0002575, 9.999079 
9.850446e+2, 2.3473711e+2, -669111.75, -753181.6, 1015.8444, 0.06203612, 0.070574544, -669099.5, -29515.861, 0.0, 10.000213, 9.999096 
9.8503536e+2, 2.447364e+2, -562308.56, -626383.25, -9471.6045, 0.057850692, 0.08111891, -560937.8, -19346.936, 0.0, 10.000168, 9.999316 
9.850257e+2, 2.5473562e+2, -470037.0, -527660.9, -18426.422, 0.030442597, 0.06649439, -464648.63, -21051.066, 0.0, 10.000113, 9.999348 
9.850162e+2, 2.647348e+2, -402370.22, -484376.56, -37052.367, 0.032747176, 0.067656115, -388109.13, -42503.363, 0.0, 10.000078, 9.998988 
9.8500687e+2, 2.7473396e+2, -303022.0, -384101.06, -43079.11, 0.0681338, 0.08061654, -284406.97, -36791.547, 0.0, 10.000081, 9.9990015 
9.849975e+2, 2.8473297e+2, -208854.69, -278829.2, -20067.957, 0.0734649, 0.08165403, -203507.95, -53883.223, 0.0, 10.000013, 9.999085 
9.8498803e+2, 2.9473191e+2, -136204.27, -190141.77, -7787.5283, 0.04651549, 0.059496522, -135102.4, -83468.57, 0.0, 9.9998255, 9.999112 
9.849789e+2, 3.047308e+2, -66404.984, -112705.45, 2465.815, 0.046000376, 0.033488587, -66274.03, -66274.03, 0.0, 9.999893, 9.999276 
9.849702e+2, 3.147312e+2, -1150.1536, -67971.445, -8910.57, 0.080629155, 0.14228046, 17.65527, 17.65527, 0.0, 10.000279, 9.999398 
9.951459e+2, 1.2475436e+2, -1624258.3, -1666902.4, -3307.7273, 0.07065229, 0.009266103, -1624003.3, 93406.71, 0.000108580556, 10.0006075, 10.000034 
9.951347e+2, 1.3475375e+2, -1484761.5, -1611623.5, -13093.743, -0.100805536, -0.004008975, -1483424.1, 135990.6, 0.000033028722, 10.00116, 9.999477 
9.95126e+2, 1.4475317e+2, -1392390.3, -1571978.9, 2624.291, -0.021039102, 0.018990774, -1392351.9, 129068.445, 0.0000026281716, 10.00136, 9.998978 
9.95117e+2, 1.5475239e+2, -1324647.5, -1485936.3, -2366.4695, -0.015282813, 0.038795386, -1324612.8, 98816.68, 0.00000000019976186, 10.0011425, 9.999 
9.951081e+2, 1.6475144e+2, -1226606.5, -1376395.3, 14861.41, -0.019290907, 0.03890263, -1225146.3, 100293.53, 0.0, 10.001093, 9.999103 
9.950996e+2, 1.7475028e+2, -1105942.8, -1264702.0, 18316.643, -0.021194892, 0.008996412, -1103856.9, 123594.65, 0.0, 10.001236, 9.999128 
9.950908e+2, 1.847496e+2, -1025068.3, -1153281.4, -15730.751, -0.0066434527, 0.019448161, -1023166.44, 106292.01, 0.0, 10.001022, 9.999324 
9.9508154e+2, 1.9474944e+2, -1011925.2, -1092937.5, -14195.191, 0.022008128, 0.068165295, -1009509.9, 21949.848, 0.0, 10.000426, 9.999352 
9.9507225e+2, 2.0474872e+2, -972847.0, -1053024.6, -9920.1455, 0.039222278, 0.07286698, -971637.9, -38170.69, 0.0, 10.000149, 9.999087 
9.95063e+2, 2.147473e+2, -861546.4, -946256.7, -14614.739, 0.0459357, 0.01907862, -859095.8, -23614.37, 0.0, 10.000232, 9.999107 
9.950537e+2, 2.2474654e+2, -752202.1, -830184.06, -7048.646, 0.040264927, 0.027879536, -751570.1, -14080.183, 0.0, 10.000255, 9.999221 
9.9504435e+2, 2.347465e+2, -658551.25, -731101.25, -619.14404, 0.021029541, 0.09814957, -658546.0, -19054.094, 0.0, 10.000212, 9.999249 
9.950352e+2, 2.4474591e+2, -576742.1, -655789.7, -11899.825, 0.022591548, 0.12108926, -574989.56, -33491.34, 0.0, 10.000164, 9.999116 
9.95026e+2, 2.5474468e+2, -484953.5, -558290.2, -19624.496, 0.046713553, 0.082028225, -480032.3, -36522.73, 0.0, 10.000111, 9.999138 
9.9501646e+2, 2.6474354e+2, -412042.38, -505047.25, -37285.89, 0.049294095, 0.06888645, -398940.16, -53418.805, 0.0, 10.000079, 9.998847 
9.950065e+2, 2.7474248e+2, -312767.9, -403934.28, -42038.31, 0.026389074, 0.07613942, -296342.66, -48809.133, 0.0, 10.000078, 9.998868 
9.949972e+2, 2.8474185e+2, -187508.3, -232327.22, -26188.969, 0.04019353, 0.10080394, -175449.72, -25910.213, 0.0, 10.000004, 9.99941 
9.949883e+2, 2.9474166e+2, -113040.29, -140620.42, -12427.256, 0.097024746, 0.13689446, -108266.88, -56728.426, 0.0, 9.99982, 9.9994545 
9.9497926e+2, 3.047404e+2, -75030.76, -130468.984, 16999.27, 0.08808215, 0.07885194, -70233.35, -70233.35, 0.0, 9.99989, 9.999156 
9.949698e+2, 3.1473908e+2, -14250.295, -91861.58, 9249.724, 0.0073523945, 0.029412903, -13163.14, -13163.14, 0.0, 10.000265, 9.999241 
1.0051468e+3, 1.24763496e+2, -1561040.0, -1645912.8, 22052.553, 0.06716954, 0.0010069546, -1555652.1, 161667.16, 0.00014134821, 10.00108, 9.999953 
1.00513585e+3, 1.3476278e+2, -1498230.8, -1628894.1, -9263.672, -0.098918565, -0.013100826, -1497577.3, 121748.766, 0.000046426092, 10.001113, 9.999383 
1.00512736e+3, 1.4476223e+2, -1422986.5, -1573006.4, -10561.282, -0.012959944, 0.012392978, -1422246.6, 99084.67, 0.00000474816, 10.001092, 9.9991 
1.005118e+3, 1.5476161e+2, -1342554.4, -1481193.3, 9013.753, -0.01991459, 0.035726372, -1341970.8, 81367.4, 0.000000004412824, 10.00096, 9.999121 
1.005109e+3, 1.6476068e+2, -1262403.4, -1390721.3, 47043.66, -0.025337806, 0.031032728, -1247004.3, 78343.6, 0.0, 10.000833, 9.99913 
1.0051006e+3, 1.7475942e+2, -1179314.0, -1296393.1, 46409.145, -0.017053524, -0.012233891, -1163149.5, 64211.184, 0.0, 10.000717, 9.99916 
1.0050917e+3, 1.8475874e+2, -1073694.9, -1183559.5, -1929.7972, -0.0027295637, -0.00022539221, -1073661.0, 55707.047, 0.0, 10.000719, 9.999262 
1.00508206e+3, 1.947587e+2, -954100.44, -1072235.8, -11068.625, 0.013349076, 0.06582759, -953072.3, 78296.73, 0.0, 10.0008545, 9.999288 
1.0050727e+3, 2.0475799e+2, -878991.8, -1010099.4, -1390.8632, 0.028045008, 0.07846316, -878977.06, 54399.363, 0.0, 10.000805, 9.999065 
1.00506335e+3, 2.1475655e+2, -815723.25, -926802.8, 1222.4293, 0.042585626, 0.023370912, -815709.75, 19681.03, 0.0, 10.000558, 9.9990835 
1.00505404e+3, 2.2475573e+2, -738351.0, -828688.8, 7203.9165, 0.03965814, 0.031419124, -737780.1, -380.4917, 0.0, 10.000374, 9.999173 
1.0050446e+3, 2.3475564e+2, -654867.94, -734628.3, -3002.3005, 0.01623487, 0.09887796, -654755.1, -15352.589, 0.0, 10.00026, 9.9992 
1.0050353e+3, 2.4475497e+2, -577418.0, -665017.56, -15439.354, 0.017296813, 0.12237375, -574776.5, -33366.72, 0.0, 10.0002, 9.999034 
1.0050261e+3, 2.5475374e+2, -477986.1, -563744.06, -14841.91, 0.045050967, 0.09086627, -475490.1, -32068.453, 0.0, 10.000199, 9.999056 
1.0050166e+3, 2.6475257e+2, -398824.97, -493897.38, -21621.906, 0.04723254, 0.078665785, -394138.6, -48705.12, 0.0, 10.000153, 9.998886 
1.0050065e+3, 2.7475148e+2, -317185.72, -401609.28, -13975.986, 0.019741263, 0.077874094, -314932.2, -67486.766, 0.0, 10.000029, 9.998906 
1.00499704e+3, 2.8475082e+2, -200296.45, -246801.1, -6416.846, 0.035691205, 0.10049685, -199427.28, -49975.53, 0.0, 9.999953, 9.999333 
1.00498825e+3, 2.947506e+2, -100040.96, -142961.34, -28147.91, 0.1018844, 0.14144772, -86105.6, -34653.99, 0.0, 9.999948, 9.999376 
1.00497924e+3, 3.0474937e+2, -62966.55, -111928.58, 2620.4246, 0.097220905, 0.084966846, -62826.707, -62826.707, 0.0, 9.999919, 9.9992695 
1.00496985e+3, 3.1474793e+2, -72482.96, -108427.91, 14432.584, 0.015628645, 0.011572166, -67405.29, -67405.29, 0.0, 9.999817, 9.999342 
1.0151468e+3, 1.2477283e+2, -1593654.0, -1712345.5, 14188.275, -0.03698906, -0.01639664, -1591981.5, 125244.47, 0.0001798155, 10.001075, 9.999499 
1.0151371e+3, 1.3477218e+2, -1531568.8, -1696516.4, -6259.9326, -0.07997001, 0.02368942, -1531331.5, 87902.83, 0.000062927356, 10.001107, 9.998921 
1.015129e+3, 1.4477164e+2, -1391455.6, -1506833.4, -15339.487, 0.046823293, 0.0477689, -1389451.1, 131789.16, 0.000007860604, 10.001087, 9.999557 
1.01511896e+3, 1.5477091e+2, -1308882.8, -1412039.9, 4158.1567, -0.021588638, 0.012250076, -1308715.4, 114530.6, 0.000000028517778, 10.000962, 9.999595 
1.0151097e+3, 1.6477013e+2, -1262856.5, -1392581.9, 41339.453, -0.036788773, 0.00037597978, -1250802.9, 74450.39, 0.0, 10.000835, 9.999117 
1.0151017e+3, 1.7476933e+2, -1180540.4, -1299009.4, 41582.938, 0.018692866, 0.005738168, -1167401.8, 59860.47, 0.0, 10.000716, 9.999143 
1.01509266e+3, 1.8476862e+2, -1087235.8, -1211129.1, 1387.1971, 0.025932929, 0.02464416, -1087220.3, 42050.313, 0.0, 10.000715, 9.999075 
1.0150826e+3, 1.94768e+2, -967631.1, -1100021.0, -6411.05, -0.023106182, 0.049554173, -967321.4, 63956.844, 0.0, 10.000853, 9.999099 
1.0150729e+3, 2.0476721e+2, -873899.94, -999028.75, -11790.911, -0.028851133, 0.0606342, -872798.56, 60487.906, 0.0, 10.000802, 9.999143 
1.0150637e+3, 2.1476628e+2, -810227.3, -914858.8, -8509.257, 0.014852487, 0.05017686, -809539.8, 25755.258, 0.0, 10.000554, 9.999167 
1.01505436e+3, 2.247654e+2, -756191.0, -864636.1, 1479.3975, 0.04039317, 0.05801926, -756170.8, -18866.36, 0.0, 10.000368, 9.998929 
1.0150451e+3, 2.3476453e+2, -672520.06, -771056.56, -7105.8296, 0.046011653, 0.074099466, -672010.25, -32695.283, 0.0, 10.000259, 9.998951 
1.0150357e+3, 2.4476367e+2, -575554.5, -661189.8, -16181.475, 0.03981129, 0.08823366, -572598.9, -31274.191, 0.0, 10.000199, 9.999062 
1.01502605e+3, 2.5476283e+2, -475885.63, -558830.44, -14252.902, 0.021302179, 0.09285317, -473504.8, -30171.365, 0.0, 10.0001955, 9.999092 
1.0150164e+3, 2.6476192e+2, -384080.28, -461504.16, -25670.615, 0.022088632, 0.09379433, -376342.28, -31000.057, 0.0, 10.000144, 9.999113 
1.01500675e+3, 2.74761e+2, -300530.9, -367219.44, -16631.979, 0.04412404, 0.083174475, -296613.1, -49262.133, 0.0, 10.00003, 9.999143 
1.0149973e+3, 2.847599e+2, -236214.83, -322941.25, -6319.117, 0.055821847, 0.081235334, -235756.83, -86395.74, 0.0, 9.999958, 9.99881 
1.0149878e+3, 2.9475877e+2, -139904.47, -223465.9, -26771.555, 0.055539507, 0.07973561, -132063.17, -80690.37, 0.0, 9.999937, 9.998829 
1.0149789e+3, 3.047577e+2, -39319.316, -58597.53, -316.29688, 0.06780352, 0.057041273, -39314.13, -39314.13, 0.0, 9.999901, 9.999644 
1.01497054e+3, 3.1475765e+2, -46016.47, -50329.277, 14249.877, 0.09431258, 0.07932466, -33760.758, -33760.758, 0.0, 9.9998045, 9.999746 
1.0251476e+3, 1.2478226e+2, -1570972.3, -1706168.1, -15629.939, -0.07323654, 0.0010775022, -1569188.9, 147944.61, 0.00022439056, 10.001253, 9.999454 
1.0251383e+3, 1.3478138e+2, -1563553.9, -1718012.5, 116.170456, -0.0689542, 0.022300266, -1563553.8, 55590.46, 0.0000828242, 10.000912, 9.998868 
1.0251304e+3, 1.4478071e+2, -1421271.3, -1515533.6, 133.52339, 0.07657873, 0.035882127, -1421271.1, 99880.08, 0.000012107546, 10.000856, 9.999609 
1.02512e+3, 1.5478005e+2, -1292489.8, -1397530.6, -12388.876, -0.016987363, 0.0016340344, -1291048.4, 132107.78, 0.00000009714164, 10.001048, 9.999653 
1.0251106e+3, 1.6477947e+2, -1228301.3, -1364060.8, 6837.8994, -0.042127177, 0.0017474608, -1227957.8, 97203.77, 0.0, 10.001024, 9.999221 
1.0251024e+3, 1.7477901e+2, -1164569.8, -1280206.4, 14740.053, 0.021735342, 0.030259201, -1162720.4, 64446.863, 0.0, 10.000777, 9.999243 
1.02509335e+3, 1.8477827e+2, -1097944.9, -1221838.5, -4724.9556, 0.030646842, 0.044759165, -1097765.0, 31410.846, 0.0, 10.000667, 9.999024 
1.0250834e+3, 1.9477725e+2, -991087.8, -1116987.4, -3381.9053, -0.026165029, 0.035891905, -990997.06, 40190.25, 0.0, 10.000716, 9.999047 
1.02507345e+3, 2.0477644e+2, -888779.5, -1001253.3, -14698.489, -0.03751942, 0.043936517, -886890.4, 46305.5, 0.0, 10.000679, 9.9991865 
1.0250641e+3, 2.1477586e+2, -807752.6, -908323.75, -15313.254, 0.0020358104, 0.06288316, -805472.7, 29728.54, 0.0, 10.000549, 9.999214 
1.0250547e+3, 2.2477499e+2, -753763.94, -867330.4, 3729.809, 0.03245955, 0.07227865, -753641.56, -16431.402, 0.0, 10.000402, 9.998893 
1.02504544e+3, 2.3477383e+2, -678069.06, -777709.06, 9772.544, 0.052200288, 0.062609226, -677119.6, -37896.484, 0.0, 10.00024, 9.998913 
1.0250359e+3, 2.4477285e+2, -595966.56, -678210.75, 8167.1865, 0.04713559, 0.0712513, -595163.4, -53929.402, 0.0, 10.000092, 9.998996 
1.02502614e+3, 2.5477207e+2, -516827.8, -586229.9, 900.80743, 0.014588464, 0.08973891, -516816.13, -73573.49, 0.0, 9.999948, 9.999023 
1.02501646e+3, 2.6477128e+2, -402062.8, -460296.06, -14319.262, 0.017394248, 0.0973378, -398732.25, -53481.547, 0.0, 9.999978, 9.9992 
1.0250071e+3, 2.747704e+2, -269816.38, -341365.78, -18210.99, 0.0592575, 0.0864446, -265447.97, -18190.055, 0.0, 10.0001955, 9.999238 
1.0249975e+3, 2.8476927e+2, -197342.69, -325278.7, -2944.2136, 0.07026894, 0.07850421, -197274.95, -48005.89, 0.0, 10.000318, 9.998618 
1.0249878e+3, 2.9476774e+2, -96757.12, -225039.34, 3038.0967, 0.04705302, 0.06338932, -96685.21, -45400.4, 0.0, 10.00033, 9.998629 
1.02497876e+3, 3.047668e+2, 2639.1758, -31415.254, 25559.182, 0.06096579, 0.05631874, 16323.487, 16323.487, 0.0, 10.00016, 9.999705 
1.0249705e+3, 3.147671e+2, -47261.766, -45603.88, 9269.417, 0.11502364, 0.10790734, -37126.414, -37126.414, 0.0, 9.999771, 9.999796 
1.035149e+3, 1.2479181e+2, -1551547.6, -1662767.0, -39347.59, -0.06070758, 0.049070552, -1539034.9, 178006.31, 0.00027553758, 10.00124, 9.999758 
1.0351392e+3, 1.347904e+2, -1541210.4, -1671301.4, -11419.422, -0.06947504, -0.0143737905, -1540215.5, 78839.266, 0.000106410545, 10.00091, 9.999188 
1.0351311e+3, 1.4478956e+2, -1444476.1, -1564195.5, 6800.7183, 0.073096424, -0.018375216, -1444091.0, 76972.15, 0.000017580353, 10.000858, 9.999274 
1.0351211e+3, 1.547891e+2, -1316916.1, -1447150.5, -4540.445, -0.008769125, 0.002769501, -1316758.0, 106309.91, 0.00000023822265, 10.001043, 9.999314 
1.0351117e+3, 1.6478875e+2, -1213568.5, -1333595.9, -2878.0154, -0.044133052, 0.031851128, -1213499.5, 111572.5, 0.0, 10.001022, 9.999432 
1.0351029e+3, 1.7478853e+2, -1148805.9, -1248097.0, 5487.521, -0.00972145, 0.060273193, -1148503.5, 78571.67, 0.0, 10.000779, 9.999463 
1.0350939e+3, 1.8478781e+2, -1093048.3, -1211855.4, -4257.4727, 0.00798334, 0.061538476, -1092895.9, 36187.12, 0.0, 10.000667, 9.999093 
1.03508435e+3, 1.947866e+2, -986918.44, -1107403.0, -1853.0695, 0.0013811515, 0.026135266, -986889.94, 44205.57, 0.0, 10.000712, 9.999115 
1.0350746e+3, 2.0478575e+2, -888999.2, -1000437.1, -20825.355, -0.0014379899, 0.028425047, -885234.56, 47869.617, 0.0, 10.000673, 9.999196 
1.0350646e+3, 2.1478531e+2, -807201.25, -907017.44, -20534.375, 0.0022725202, 0.06050739, -803141.94, 31966.9, 0.0, 10.000547, 9.999225 
1.0350549e+3, 2.247846e+2, -742116.56, -843140.8, -3647.0059, 0.01344669, 0.074769415, -741985.06, -4868.7417, 0.0, 10.0004015, 9.99906 
1.0350455e+3, 2.3478357e+2, -666357.3, -753485.75, 3767.485, 0.032727815, 0.06345737, -666194.75, -27068.043, 0.0, 10.000239, 9.999081 
1.0350359e+3, 2.4478257e+2, -607902.44, -702114.7, 2479.2993, 0.035805106, 0.06836329, -607837.2, -66699.77, 0.0, 10.000087, 9.998834 
1.0350261e+3, 2.5478157e+2, -527977.75, -610520.6, -3387.3855, 0.022324687, 0.08085678, -527839.0, -84690.21, 0.0, 9.999951, 9.998855 
1.0350166e+3, 2.6478064e+2, -406963.7, -471225.53, -6163.54, 0.030476183, 0.09203603, -406377.84, -61219.59, 0.0, 9.999981, 9.999124 
1.0350073e+3, 2.7477986e+2, -276216.78, -352985.34, -9079.688, 0.06164263, 0.09222316, -275157.5, -27991.756, 0.0, 10.000187, 9.999163 
1.0349979e+3, 2.847788e+2, -186745.6, -300580.2, -1870.8893, 0.07507434, 0.09306852, -186714.84, -37539.28, 0.0, 10.000306, 9.998794 
1.0349884e+3, 2.947776e+2, -82809.26, -196596.22, 6411.2153, 0.07098683, 0.08767002, -82449.164, -31261.53, 0.0, 10.000332, 9.998822 
1.03497915e+3, 3.047766e+2, -17261.867, -74902.74, 12858.542, 0.07121019, 0.07895133, -14523.475, -14523.475, 0.0, 10.000167, 9.999404 
1.0349698e+3, 3.1477627e+2, -72506.64, -95169.9, -2131.6714, 0.07135164, 0.10215812, -72307.88, -72307.88, 0.0, 9.999758, 9.999462 
1.0451504e+3, 1.2480098e+2, -1627751.9, -1687105.5, -31174.732, -0.00802008, 0.038130913, -1614387.1, 102564.03, 0.0003338259, 10.00066, 9.99987 
1.04514e+3, 1.3479978e+2, -1518424.8, -1646724.4, -8059.355, -0.078059316, -0.0170339, -1517920.5, 101041.79, 0.00013404706, 10.001008, 9.9993105 
1.0451318e+3, 1.4479898e+2, -1411396.8, -1549250.0, 14246.423, 0.04871634, -0.021370344, -1409939.8, 111030.01, 0.000024406929, 10.001092, 9.999263 
1.0451222e+3, 1.5479839e+2, -1349444.1, -1465222.6, 23435.307, -0.00027951453, -0.0126396995, -1344880.4, 78095.52, 0.0000004785213, 10.000829, 9.999294 
1.0451127e+3, 1.6479798e+2, -1254384.8, -1357331.0, 29232.41, -0.03134333, 0.013210139, -1246663.1, 78317.734, 0.0, 10.00076, 9.999395 
1.0451037e+3, 1.7479779e+2, -1130287.9, -1242429.3, 17848.27, -0.023569308, 0.049612843, -1127515.8, 99468.695, 0.0, 10.000922, 9.999433 
1.0450945e+3, 1.8479721e+2, -1052170.0, -1168526.3, 754.87775, -0.0095617315, 0.05595457, -1052165.1, 76825.664, 0.0, 10.000848, 9.999302 
1.045085e+3, 1.9479622e+2, -999143.6, -1089335.4, 13272.575, 0.0033048894, 0.02261068, -997231.0, 33769.035, 0.0, 10.000525, 9.999328 
1.0450752e+3, 2.0479542e+2, -932338.94, -1027573.75, 3377.8643, 0.009382442, 0.021318516, -932219.3, 788.7796, 0.0, 10.000403, 9.999138 
1.04506515e+3, 2.1479484e+2, -817704.06, -918835.56, -2741.1199, 0.01002594, 0.045520123, -817629.8, 17384.984, 0.0, 10.000506, 9.999162 
1.0450553e+3, 2.247941e+2, -721162.94, -833565.25, 2787.7957, 0.011157381, 0.060532235, -721093.9, 15928.942, 0.0, 10.000548, 9.999055 
1.0450456e+3, 2.3479316e+2, -625035.1, -733868.3, -4437.414, 0.012333131, 0.05749956, -624854.5, 14177.692, 0.0, 10.000524, 9.999078 
1.045036e+3, 2.4479216e+2, -545120.56, -668317.06, -3868.8477, 0.023292748, 0.06185351, -544999.2, -3956.683, 0.0, 10.000502, 9.998865 
1.0450265e+3, 2.547911e+2, -448743.6, -567842.5, 4082.615, 0.045211744, 0.06645396, -448603.78, -5550.1313, 0.0, 10.000478, 9.998893 
1.04501694e+3, 2.647901e+2, -355922.03, -474918.38, 9269.764, 0.055587735, 0.0782326, -355204.25, -10139.887, 0.0, 10.000455, 9.99887 
1.0450075e+3, 2.747891e+2, -258687.67, -373846.56, -7965.803, 0.052881856, 0.086000085, -258139.28, -11064.434, 0.0, 10.000433, 9.9989 
1.044998e+3, 2.8478804e+2, -171244.52, -281025.28, -14906.711, 0.05877969, 0.09438569, -169256.39, -20171.36, 0.0, 10.00036, 9.998901 
1.0449888e+3, 2.9478705e+2, -92817.41, -187854.4, -15619.668, 0.07699841, 0.09777538, -90316.09, -39221.656, 0.0, 10.000206, 9.998942 
1.0449794e+3, 3.047861e+2, -20378.113, -97598.336, -8313.341, 0.08452569, 0.09100094, -19493.258, -19493.258, 0.0, 10.000238, 9.999213 
1.04497e+3, 3.1478542e+2, 19589.676, -73981.945, -14233.914, 0.07478146, 0.102574654, 21706.998, 21706.998, 0.0, 10.00049, 9.999253 
1.0551518e+3, 1.2480982e+2, -1631422.3, -1694561.0, -28328.56, 0.06318229, -0.031259075, -1620575.4, 96287.46, 0.00039971265, 10.000658, 9.999821 
1.0551409e+3, 1.3480954e+2, -1522342.5, -1654685.4, 6871.6523, -0.09545248, 0.01242937, -1521986.8, 96879.36, 0.00016604259, 10.001006, 9.999257 
1.05513245e+3, 1.4480902e+2, -1391407.4, -1508278.3, 4741.025, 0.0024112167, 0.023606697, -1391215.4, 129655.234, 0.000032768716, 10.001093, 9.999544 
1.05512306e+3, 1.5480796e+2, -1330447.6, -1424809.4, 13478.589, 0.004439059, -0.043178305, -1328560.1, 94319.28, 0.0000008393984, 10.000824, 9.999575 
1.0551137e+3, 1.6480722e+2, -1274691.5, -1398798.6, 33922.598, -0.009966945, -0.04909298, -1266024.6, 58862.695, 0.0, 10.000756, 9.999113 
1.0551046e+3, 1.7480688e+2, -1151271.1, -1284689.5, 24008.668, -0.02237598, 0.00087602437, -1147082.3, 79811.9, 0.0, 10.000916, 9.9991455 
1.0550951e+3, 1.8480654e+2, -1028452.75, -1118548.3, -12072.747, -0.024517395, 0.02818225, -1026863.06, 102035.59, 0.0, 10.000843, 9.999648 
1.0550852e+3, 1.9480619e+2, -973820.7, -1037199.06, 757.16077, -0.021900851, 0.022962563, -973811.6, 57089.05, 0.0, 10.000526, 9.999686 
1.05507545e+3, 2.0480552e+2, -941097.44, -1046283.25, 5508.148, -0.007577703, 0.022334188, -940809.8, -7902.5815, 0.0, 10.000405, 9.999009 
1.0550658e+3, 2.1480452e+2, -827762.3, -939514.94, 886.87555, 0.022454109, 0.018803408, -827755.25, 7163.238, 0.0, 10.0005045, 9.999022 
1.055056e+3, 2.2480355e+2, -733986.9, -859690.6, 801.4676, 0.021989904, 0.029126788, -733981.8, 2947.3777, 0.0, 10.000545, 9.998878 
1.0550459e+3, 2.3480265e+2, -636953.75, -759432.6, -5195.214, -0.01106384, 0.044215832, -636733.75, 2205.595, 0.0, 10.000525, 9.998902 
1.0550364e+3, 2.4480172e+2, -529495.0, -636043.5, -5138.815, 0.007070744, 0.05338876, -529247.7, 11700.926, 0.0, 10.000502, 9.999087 
1.0550273e+3, 2.548008e+2, -432937.8, -534539.4, 3813.4866, 0.0806276, 0.04731543, -432794.88, 10162.017, 0.0, 10.000475, 9.999125 
1.05501786e+3, 2.6479962e+2, -386116.25, -536466.94, 8456.837, 0.08985653, 0.05327345, -385642.06, -40673.082, 0.0, 10.000449, 9.99845 
1.0550077e+3, 2.747982e+2, -288410.6, -436410.03, -7080.9795, 0.02838455, 0.06444671, -288072.56, -41087.53, 0.0, 10.000436, 9.99847 
1.05499804e+3, 2.8479707e+2, -170608.83, -280175.72, -19688.826, 0.01683395, 0.08184575, -167178.22, -18181.11, 0.0, 10.0003605, 9.998907 
1.0549888e+3, 2.947962e+2, -93512.33, -187273.48, -19860.572, 0.06203477, 0.09844327, -89478.95, -38474.258, 0.0, 10.0001955, 9.998951 
1.0549797e+3, 3.0479524e+2, -25769.36, -106522.5, 995.4734, 0.0979407, 0.09632714, -25757.09, -25757.09, 0.0, 10.000228, 9.999157 
1.0549709e+3, 3.1479457e+2, 17641.73, -79688.09, -1192.9967, 0.11608231, 0.10806411, 17656.35, 17656.35, 0.0, 10.000497, 9.999211 
1.0651524e+3, 1.2481907e+2, -1600704.0, -1677779.4, -31802.283, 0.050485395, -0.05085822, -1589276.3, 127494.93, 0.00047318285, 10.000865, 9.999836 
1.0651419e+3, 1.348189e+2, -1535939.1, -1659286.1, 17000.318, -0.08650818, 0.0006166628, -1533638.9, 85134.59, 0.00020250746, 10.000903, 9.999276 
1.06513366e+3, 1.4481848e+2, -1408324.4, -1507650.6, -1512.3102, 0.012994173, 0.017325778, -1408301.3, 112475.766, 0.000042863663, 10.000939, 9.999622 
1.0651239e+3, 1.5481752e+2, -1315633.6, -1408254.6, -9944.833, 0.004748352, -0.045556247, -1314577.8, 108206.95, 0.0000013547858, 10.000888, 9.999656 
1.0651144e+3, 1.6481683e+2, -1271311.8, -1381223.4, 23183.48, -0.009972381, -0.058777355, -1266621.8, 58170.176, 0.0, 10.000714, 9.999251 
1.06510535e+3, 1.7481643e+2, -1211709.8, -1298229.0, 43834.637, -0.012345458, -0.028719392, -1193383.1, 33415.426, 0.0, 10.000434, 9.999284 
1.0650958e+3, 1.8481617e+2, -1088435.3, -1146345.9, 14653.85, -0.015703946, -0.0017312674, -1084938.4, 43864.004, 0.0, 10.000427, 9.999657 
1.0650858e+3, 1.9481604e+2, -943774.5, -1021817.44, 609.87573, -0.02777706, 0.015427564, -943769.7, 87033.2, 0.0, 10.0007305, 9.999693 
1.0650759e+3, 2.0481546e+2, -880459.2, -1020283.5, -3641.1753, -0.018615166, 0.023751212, -880364.44, 52444.582, 0.0, 10.000836, 9.99898 
1.0650664e+3, 2.1481436e+2, -796352.4, -927478.7, -1309.2693, 0.016064921, 0.014180427, -796339.25, 38481.945, 0.0, 10.000733, 9.998994 
1.0650566e+3, 2.2481336e+2, -721982.6, -854172.9, 8137.1074, 0.025614053, 0.020208735, -721483.6, 15348.923, 0.0, 10.000628, 9.998875 
1.06504664e+3, 2.3481241e+2, -637145.75, -759186.44, 14051.504, 0.007467627, 0.0346038, -635548.8, 3294.0916, 0.0, 10.0005245, 9.998903 
1.06503695e+3, 2.4481149e+2, -531842.75, -641666.1, 14892.077, 0.021629166, 0.046645824, -529859.25, 10992.885, 0.0, 10.000506, 9.999046 
1.0650279e+3, 2.5481057e+2, -420058.16, -533082.7, 2142.1538, 0.0709319, 0.045128476, -420017.56, 22842.744, 0.0, 10.000584, 9.999082 
1.0650182e+3, 2.6480934e+2, -355646.56, -524319.3, 11805.194, 0.07480764, 0.045661964, -354824.34, -9951.397, 0.0, 10.000668, 9.998428 
1.0650083e+3, 2.7480778e+2, -246087.05, -417828.34, 25593.23, 0.029411511, 0.04269951, -242354.23, 4535.689, 0.0, 10.000735, 9.998453 
1.0649985e+3, 2.848065e+2, -128059.94, -282716.72, 17136.48, 0.021912742, 0.05802689, -126183.914, 22719.271, 0.0, 10.000753, 9.9987 
1.0649891e+3, 2.9480547e+2, -28073.133, -179441.31, -558.5195, 0.056611337, 0.083557144, -28071.072, 22841.398, 0.0, 10.000748, 9.998738 
1.0649801e+3, 3.0480433e+2, 25760.117, -88818.27, 15305.689, 0.09437548, 0.07632623, 27769.455, 27769.455, 0.0, 10.000613, 9.999092 
1.06497146e+3, 3.1480354e+2, -19677.025, -104291.12, 7488.1953, 0.13168141, 0.08470484, -19019.443, -19019.443, 0.0, 10.000271, 9.999151 
1.0751523e+3, 1.2482883e+2, -1598170.0, -1670746.1, -41344.344, -0.052902564, -0.022839574, -1579447.4, 137228.1, 0.00055371417, 10.000858, 9.9998865 
1.0751431e+3, 1.3482794e+2, -1532192.8, -1649084.0, 20442.576, -0.056547366, -0.049573176, -1528720.9, 89962.76, 0.00024334127, 10.000894, 9.999351 
1.0751351e+3, 1.4482747e+2, -1417039.0, -1524660.3, -2853.6873, 0.07123046, -0.035892237, -1416963.4, 103724.65, 0.00005483326, 10.000934, 9.999508 
1.0751247e+3, 1.5482719e+2, -1323475.1, -1424894.1, -11433.228, -0.000983684, -0.020095298, -1322202.3, 100488.93, 0.000002073113, 10.000889, 9.999541 
1.0751148e+3, 1.6482686e+2, -1232543.0, -1301906.3, 11613.655, -0.032421418, -0.018924793, -1230650.1, 94044.17, 0.0000000000166348, 10.000718, 9.999794 
1.075106e+3, 1.7482649e+2, -1173180.4, -1218158.1, 33025.15, 0.0035764074, -0.041129168, -1155714.1, 70983.32, 0.0, 10.000433, 9.999834 
1.0750966e+3, 1.8482614e+2, -1111650.5, -1194301.4, 24072.64, 0.01143578, -0.032531437, -1105150.4, 23551.031, 0.0, 10.000425, 9.999329 
1.0750867e+3, 1.9482586e+2, -968631.06, -1072485.8, 11580.081, -0.01734035, 0.0017943665, -967355.56, 63350.46, 0.0, 10.000726, 9.999348 
1.0750767e+3, 2.0482528e+2, -876372.75, -1011214.1, -8671.15, -0.026445601, 0.025940705, -875817.44, 56895.633, 0.0, 10.000833, 9.999044 
1.0750669e+3, 2.1482441e+2, -791263.25, -916902.44, -5674.8584, -0.01110801, 0.029911561, -791007.44, 43715.3, 0.0, 10.000732, 9.999067 
1.07505724e+3, 2.2482349e+2, -709721.5, -828908.0, 2867.9272, 0.019572822, 0.03361573, -709652.56, 27079.977, 0.0, 10.000628, 9.999049 
1.0750477e+3, 2.3482254e+2, -625010.5, -734015.94, 10311.557, 0.0655077, 0.028789045, -624043.6, 14698.734, 0.0, 10.000524, 9.999078 
1.07503794e+3, 2.4482155e+2, -553377.06, -686281.6, 17231.84, 0.06408152, 0.039934993, -551179.2, -10426.474, 0.0, 10.000505, 9.998741 
1.0750278e+3, 2.5482053e+2, -441861.16, -578969.1, 5850.084, 0.012549725, 0.05864987, -441612.0, 1151.6006, 0.0, 10.000586, 9.998766 
1.0750182e+3, 2.6481923e+2, -329748.6, -470715.56, 14974.81, 0.007810215, 0.05598738, -328175.38, 16600.36, 0.0, 10.000667, 9.998797 
1.07500926e+3, 2.7481776e+2, -219628.23, -362221.88, 29343.416, 0.053554017, 0.02193611, -213825.94, 32963.145, 0.0, 10.0007305, 9.998838 
1.0749999e+3, 2.8481632e+2, -158004.13, -343419.13, 16545.148, 0.07119247, 0.022269655, -156539.33, -7736.264, 0.0, 10.000747, 9.998286 
1.07498996e+3, 2.9481494e+2, -57190.957, -240637.77, 1411.203, 0.055832397, 0.050136343, -57180.1, -6362.464, 0.0, 10.000751, 9.998317 
1.0749806e+3, 3.0481336e+2, 18803.125, -103848.84, 4551.947, 0.06989998, 0.029098928, 18971.828, 18971.828, 0.0, 10.000614, 9.998989 
1.07497156e+3, 3.1481248e+2, -26992.557, -118618.15, -2671.4414, 0.115313806, 0.037891068, -26914.734, -26914.734, 0.0, 10.000266, 9.999056 
1.08515285e+3, 1.2483871e+2, -1634135.9, -1686682.8, -25013.746, -0.074684255, -0.007392037, -1624132.8, 92445.23, 0.00064071716, 10.000607, 9.999898 
1.0851441e+3, 1.3483748e+2, -1528967.9, -1643132.5, 44613.5, -0.042773884, -0.071502775, -1513601.9, 104987.0, 0.00028839763, 10.000899, 9.999388 
1.0851362e+3, 1.4483695e+2, -1413956.0, -1535046.1, 12436.668, 0.08690116, -0.06090054, -1412691.9, 107902.445, 0.00006873226, 10.00101, 9.999399 
1.0851256e+3, 1.5483685e+2, -1337588.4, -1444698.8, 471.1128, 0.003227222, -0.014908577, -1337586.3, 85010.53, 0.0000030594845, 10.000849, 9.999424 
1.0851156e+3, 1.6483665e+2, -1221610.6, -1278904.8, 7480.1855, -0.030846924, -0.0039907163, -1220650.1, 103948.766, 0.000000000186287, 10.000717, 9.999952 
1.0851066e+3, 1.7483631e+2, -1133786.8, -1180501.1, -664.0087, 0.012913273, -0.03752837, -1133777.3, 92823.18, 0.0, 10.000626, 9.999998 
1.0850972e+3, 1.8483597e+2, -1094418.4, -1187303.6, -46.380703, 0.023419118, -0.03746733, -1094418.4, 34185.64, 0.0, 10.000551, 9.999316 
1.0850873e+3, 1.9483559e+2, -1001558.5, -1090030.3, 10975.6875, -0.010692732, -0.009805584, -1000217.2, 30392.555, 0.0, 10.000507, 9.999332 
1.0850774e+3, 2.0483503e+2, -913666.6, -1017308.1, 981.60315, -0.02496043, 0.009848885, -913657.3, 18959.516, 0.0, 10.000525, 9.99915 
1.08506754e+3, 2.1483424e+2, -800159.8, -908986.25, 5657.8228, -0.015565989, 0.012863662, -799866.44, 34758.816, 0.0, 10.00062, 9.999176 
1.0850577e+3, 2.2483344e+2, -704456.1, -823709.06, 8340.641, 0.013515002, 0.022731293, -703875.6, 32758.127, 0.0, 10.000654, 9.999072 
1.0850483e+3, 2.3483264e+2, -607880.3, -723398.06, 2294.8545, 0.062092472, 0.030946797, -607834.75, 30807.59, 0.0, 10.000631, 9.999099 
1.08503856e+3, 2.4483167e+2, -533534.2, -683618.2, 18489.586, 0.06426367, 0.044171017, -531289.94, 9362.904, 0.0, 10.00067, 9.99868 
1.0850286e+3, 2.5483048e+2, -419307.56, -574692.5, 25370.605, 0.017257735, 0.054540828, -415270.06, 27395.256, 0.0, 10.000769, 9.998707 
1.085019e+3, 2.648292e+2, -308436.44, -447750.3, 31189.291, 0.013428053, 0.045147497, -301772.6, 42904.98, 0.0, 10.00076, 9.99891 
1.08501e+3, 2.7482772e+2, -222867.94, -351253.16, 24250.559, 0.05574399, 0.005001863, -218439.98, 28249.592, 0.0, 10.000655, 9.99895 
1.0850006e+3, 2.848263e+2, -163287.98, -348943.63, 20925.234, 0.07118572, 0.001385365, -160958.73, -12255.598, 0.0, 10.000723, 9.9982605 
1.0849909e+3, 2.948249e+2, -32560.723, -232281.6, 33513.684, 0.0578465, 0.029779356, -27087.053, 23631.025, 0.0, 10.000936, 9.998285 
1.0849812e+3, 3.0482316e+2, 54025.035, -83462.58, 39922.863, 0.069340475, -0.0060610874, 64776.8, 64776.8, 0.0, 10.000842, 9.999019 
1.0849718e+3, 3.148223e+2, 6429.4263, -96866.74, 40110.492, 0.106078126, 0.0011410316, 20175.35, 20175.35, 0.0, 10.000473, 9.9991045 
1.09515384e+3, 1.2484875e+2, -1635705.1, -1687932.6, -26091.676, -0.0310207, -0.0050585303, -1624904.1, 91574.52, 0.000734217, 10.000598, 9.999893 
1.09514505e+3, 1.3484757e+2, -1528713.5, -1642633.1, 57616.477, -0.0474765, -0.06530985, -1504654.3, 113834.62, 0.00033773432, 10.000898, 9.999392 
1.095137e+3, 1.4484696e+2, -1422031.0, -1551147.0, 6678.294, 0.058771033, -0.058617923, -1421686.5, 98808.8, 0.0000845864, 10.001007, 9.9992895 
1.0951266e+3, 1.5484658e+2, -1347343.5, -1463567.5, -4953.115, 0.013624476, -0.0296919, -1347132.8, 75368.4, 0.0000043925156, 10.000842, 9.999298 
1.0951164e+3, 1.6484624e+2, -1237046.0, -1310403.0, 3414.1587, -0.011219504, -0.012405011, -1236887.5, 87617.57, 0.0000000006358386, 10.000713, 9.999739 
1.0951072e+3, 1.7484598e+2, -1149128.3, -1212383.6, -3824.9944, 0.013272496, -0.01738779, -1148897.9, 77608.89, 0.0, 10.000625, 9.999781 
1.09509766e+3, 1.8484566e+2, -1074291.0, -1145142.3, -2850.8489, 0.01703156, -0.017691351, -1074176.5, 54333.2, 0.0, 10.000549, 9.999606 
1.09508775e+3, 1.9484529e+2, -980814.7, -1046338.75, 8923.616, -0.00949184, -0.020480847, -979621.2, 50892.563, 0.0, 10.0005045, 9.999634 
1.095078e+3, 2.0484471e+2, -903673.2, -996241.25, 2947.1245, -0.016828043, -0.023710236, -903579.44, 28940.455, 0.0, 10.000523, 9.999297 
1.0950682e+3, 2.1484393e+2, -790708.3, -888856.6, 9043.455, -0.0003352486, -0.035317812, -789882.0, 44646.215, 0.0, 10.000616, 9.999316 
1.0950583e+3, 2.2484328e+2, -714230.7, -843769.0, 6236.301, 0.0043105506, -0.011373914, -713931.1, 22604.557, 0.0, 10.000652, 9.998936 
1.0950482e+3, 2.3484278e+2, -617796.5, -743993.44, 1442.9756, -0.004257795, 0.04053498, -617780.0, 20762.398, 0.0, 10.00063, 9.998958 
1.0950388e+3, 2.4484186e+2, -520586.78, -656917.3, 21900.914, 0.02076172, 0.0590549, -517154.88, 23397.273, 0.0, 10.00067, 9.998864 
1.0950299e+3, 2.5484052e+2, -406180.03, -546600.6, 29799.268, 0.08230051, 0.032985326, -400117.9, 42447.203, 0.0, 10.000765, 9.998902 
1.0950205e+3, 2.6483914e+2, -319470.88, -469596.2, 27201.725, 0.08830886, 0.012955682, -314694.1, 29884.018, 0.0, 10.000755, 9.998762 
1.09501034e+3, 2.7483773e+2, -233768.06, -373769.97, 21784.936, 0.032607205, -0.008373431, -230456.56, 16134.439, 0.0, 10.000654, 9.9987955 
1.0950007e+3, 2.8483647e+2, -139155.8, -298815.47, 29946.19, 0.02006383, -0.0037857401, -133723.83, 14879.109, 0.0, 10.000722, 9.998606 
1.0949917e+3, 2.9483536e+2, -8118.2305, -180847.66, 43530.535, 0.05816483, 0.02124884, 2231.953, 52845.57, 0.0, 10.000931, 9.998641 
1.0949823e+3, 3.0483374e+2, 63465.707, -61946.742, 25516.502, 0.08690372, -0.03121617, 68458.54, 68458.54, 0.0, 10.0008335, 9.999171 
1.0949722e+3, 3.1483305e+2, 19694.434, -68713.41, 29270.273, 0.09707345, -0.023229675, 28506.885, 28506.885, 0.0, 10.000469, 9.999299 
1.1051549e+3, 1.2485841e+2, -1609690.1, -1676651.8, -46299.61, 0.0024669985, -0.019347828, -1586034.1, 130348.99, 0.00083503575, 10.000782, 9.999882 
1.10514574e+3, 1.3485745e+2, -1562217.3, -1657616.1, 47520.84, -0.045830492, -0.05821025, -1542585.6, 75806.06, 0.0003918232, 10.00066, 9.999406 
1.10513754e+3, 1.4485691e+2, -1455597.1, -1550791.4, 3001.7485, 0.036746677, -0.05136744, -1455502.5, 64894.473, 0.000102570426, 10.000705, 9.999438 
1.1051273e+3, 1.548564e+2, -1343441.0, -1444752.8, 8467.889, 0.013442672, -0.05047939, -1342738.1, 79664.94, 0.0000061708192, 10.000798, 9.999448 
1.1051173e+3, 1.6485602e+2, -1242691.0, -1325988.0, 27935.717, -0.0050383816, -0.03970223, -1234189.8, 90217.57, 0.0000000015512864, 10.000734, 9.99962 
1.1051077e+3, 1.748558e+2, -1170847.0, -1236516.1, 26337.545, 0.0067384215, -0.028863693, -1161589.1, 64820.43, 0.0, 10.000536, 9.999657 
1.10509805e+3, 1.8485548e+2, -1086219.1, -1141553.5, 29084.084, 0.012843447, -0.028219368, -1073744.6, 54668.234, 0.0, 10.000426, 9.99969 
1.1050884e+3, 1.9485503e+2, -987434.0, -1039561.25, 24508.172, 0.0037456448, -0.04485983, -977721.06, 52695.844, 0.0, 10.000417, 9.999722 
1.1050786e+3, 2.0485453e+2, -911466.1, -993628.06, 11928.228, -0.001347934, -0.047263585, -909769.44, 22652.682, 0.0, 10.000443, 9.999352 
1.10506885e+3, 2.1485397e+2, -802136.94, -887872.0, 9966.062, 0.00036142606, -0.04335634, -800993.7, 33434.934, 0.0, 10.000511, 9.999373 
1.1050589e+3, 2.2485335e+2, -719533.3, -843198.9, 9694.513, -0.0022689237, -0.020953348, -718777.94, 17657.889, 0.0, 10.000603, 9.998963 
1.1050488e+3, 2.3485267e+2, -602712.2, -733601.25, 16772.89, -0.010649806, 0.011513649, -600596.94, 37846.9, 0.0, 10.000721, 9.998985 
1.1050394e+3, 2.4485174e+2, -509107.88, -639670.94, 38318.316, 0.017939515, 0.0211222, -498692.8, 41760.65, 0.0, 10.0007, 9.998968 
1.1050306e+3, 2.548505e+2, -431476.56, -547427.3, 37764.2, 0.08589256, -0.0028435497, -420261.75, 22202.898, 0.0, 10.000542, 9.999004 
1.10502124e+3, 2.6484922e+2, -352120.2, -496129.13, 37165.51, 0.0925735, -0.01454617, -343094.28, 1382.7058, 0.0, 10.000577, 9.998666 
1.1050111e+3, 2.7484787e+2, -219442.1, -377923.88, 34706.85, 0.033029515, -0.01962859, -212174.7, 34315.57, 0.0, 10.000801, 9.998695 
1.1050015e+3, 2.848467e+2, -123143.6, -281353.9, 33444.246, 0.018534264, -0.006411941, -116364.28, 32137.584, 0.0, 10.000792, 9.998692 
1.1049924e+3, 2.9484567e+2, -57011.0, -194839.8, 25528.781, 0.054897547, 0.017237762, -52434.492, -1922.832, 0.0, 10.000555, 9.998727 
1.10498294e+3, 3.04844e+2, 28329.361, -77316.21, -7530.2383, 0.079587236, -0.043228503, 28863.404, 28863.404, 0.0, 10.000586, 9.999186 
1.1049728e+3, 3.1484357e+2, 81666.87, -32726.607, -18548.7, 0.08734708, -0.009929052, 84599.33, 84599.33, 0.0, 10.000868, 9.999355 
1.1151559e+3, 1.2486771e+2, -1613010.1, -1680948.4, -63155.145, 0.018808855, -0.05455038, -1575268.3, 141022.61, 0.000944546, 10.0007715, 9.999857 
1.1151465e+3, 1.3486718e+2, -1562111.8, -1656527.8, 45601.215, -0.041991156, -0.051237646, -1543683.9, 74612.734, 0.00045159098, 10.000655, 9.999415 
1.11513816e+3, 1.448669e+2, -1427677.4, -1492093.8, 6711.523, 0.016477907, -0.040319975, -1426985.6, 93313.36, 0.00012308804, 10.000701, 9.999844 
1.115128e+3, 1.5486643e+2, -1314873.1, -1384967.3, 11808.983, -0.0008366935, -0.075620815, -1312937.1, 109364.82, 0.000008505592, 10.000795, 9.999859 
1.1151179e+3, 1.6486605e+2, -1245578.0, -1331217.6, 18874.709, -0.016597338, -0.084229134, -1241602.6, 82702.71, 0.0000000033697685, 10.0007305, 9.999586 
1.11510806e+3, 1.748658e+2, -1173898.4, -1242090.1, 18533.832, -0.008311769, -0.071259424, -1169186.6, 57121.953, 0.0, 10.000532, 9.99962 
1.1150985e+3, 1.8486543e+2, -1094773.1, -1158622.0, 27116.674, 0.007900571, -0.06749584, -1084811.0, 43501.973, 0.0, 10.0004225, 9.999576 
1.115089e+3, 1.948649e+2, -996206.56, -1057591.3, 23761.01, 0.02590167, -0.08177861, -988083.9, 42234.77, 0.0, 10.000415, 9.999599 
1.1150792e+3, 2.0486456e+2, -914877.1, -1000099.5, 12848.218, 0.017675096, -0.061054625, -912982.25, 19340.785, 0.0, 10.00044, 9.9993105 
1.11506924e+3, 2.1486439e+2, -805403.75, -893537.44, 11915.405, -0.015028149, -0.01259418, -803821.25, 30504.914, 0.0, 10.000505, 9.999337 
1.1150595e+3, 2.2486368e+2, -706449.94, -814923.44, 12786.277, -0.008238973, -0.007116466, -704963.1, 31370.705, 0.0, 10.000597, 9.999161 
1.11505e+3, 2.3486242e+2, -589268.7, -704706.94, 21332.676, 0.04003228, -0.054767765, -585452.6, 52893.633, 0.0, 10.000716, 9.999187 
1.11504056e+3, 2.4486136e+2, -508690.75, -637890.5, 32003.145, 0.05217107, -0.06755775, -501198.0, 39158.184, 0.0, 10.000695, 9.998982 
1.1150305e+3, 2.5486052e+2, -431114.53, -546758.94, 32591.797, 0.025899116, -0.052760992, -422561.8, 19801.752, 0.0, 10.000542, 9.999009 
1.1150211e+3, 2.6485947e+2, -355718.2, -503915.94, 45696.39, 0.02518003, -0.038168937, -342760.75, 1613.2363, 0.0, 10.000579, 9.998611 
1.1150121e+3, 2.748582e+2, -223889.11, -385721.3, 44294.227, 0.052753925, -0.030703375, -212558.84, 33828.484, 0.0, 10.000794, 9.998646 
1.1150027e+3, 2.84857e+2, -136253.72, -306765.1, 24554.086, 0.060732555, -0.0076414645, -132788.3, 15611.498, 0.0, 10.000783, 9.998522 
1.11499295e+3, 2.9485583e+2, -68684.64, -219666.73, 18972.41, 0.045363046, 0.019845521, -66337.07, -15925.441, 0.0, 10.000556, 9.998556 
1.1149832e+3, 3.0485404e+2, 18287.309, -98638.24, 4000.2375, 0.046236664, -0.03884242, 18424.004, 18424.004, 0.0, 10.0005865, 9.999039 
1.1149735e+3, 3.14854e+2, 75229.555, -44871.707, -4913.363, 0.06790253, 0.047363505, 75430.23, 75430.23, 0.0, 10.000862, 9.999275 
1.12515636e+3, 1.2487716e+2, -1671055.1, -1702527.3, -65233.344, 0.024770478, -0.078785226, -1619686.8, 96510.72, 0.0010643419, 10.000346, 9.999914 
1.1251472e+3, 1.3487683e+2, -1561144.9, -1645163.8, 60945.07, -0.03589199, -0.06343947, -1529133.4, 89067.86, 0.00051804923, 10.000617, 9.999512 
1.1251387e+3, 1.4487667e+2, -1414184.9, -1472816.1, 12724.458, 0.0014134672, -0.05019053, -1411542.5, 108659.6, 0.00014661087, 10.00074, 9.999956 
1.12512864e+3, 1.5487622e+2, -1336889.0, -1383877.4, -7795.4526, -0.0032566725, -0.09548383, -1335629.5, 86575.09, 0.00001150662, 10.000593, 9.999965 
1.1251185e+3, 1.6487591e+2, -1280420.0, -1341446.9, -11888.042, -0.013405461, -0.1048918, -1278186.0, 46021.215, 0.0000000061074554, 10.000461, 9.999647 
1.1251085e+3, 1.7487583e+2, -1195256.4, -1245731.1, -6042.1035, -0.008412754, -0.082725175, -1194543.1, 31666.232, 0.0, 10.000357, 9.9996805 
1.1250989e+3, 1.8487556e+2, -1116110.1, -1169657.6, 15802.71, 0.011030239, -0.07022053, -1111794.4, 16418.62, 0.0, 10.00028, 9.999568 
1.12508945e+3, 1.948751e+2, -1022143.75, -1070999.1, 19073.865, 0.037451472, -0.07702276, -1015579.1, 14639.126, 0.0, 10.000241, 9.999591 
1.1250797e+3, 2.0487477e+2, -942479.0, -1008558.94, 19350.814, 0.032360874, -0.05697358, -937229.4, -5006.8403, 0.0, 10.00023, 9.999353 
1.1250697e+3, 2.1487455e+2, -839405.2, -905000.25, 23812.807, -0.0036816075, -0.017430915, -831672.2, 2553.5454, 0.0, 10.000252, 9.999381 
1.12505995e+3, 2.2487384e+2, -753131.2, -837947.56, 22459.934, 0.0012851988, -0.015354453, -747550.8, -11317.425, 0.0, 10.000279, 9.999156 
1.1250506e+3, 2.348726e+2, -647881.5, -733105.4, 13270.811, 0.04843933, -0.059541892, -645862.9, -7617.222, 0.0, 10.000316, 9.999185 
1.125041e+3, 2.4487156e+2, -538626.8, -657034.06, 15267.463, 0.051861234, -0.069325, -536689.9, 3565.676, 0.0, 10.000511, 9.9989395 
1.1250311e+3, 2.5487068e+2, -387148.88, -530084.9, 11496.942, 0.008805368, -0.05260459, -386230.03, 56033.223, 0.0, 10.000865, 9.998967 
1.1250216e+3, 2.6486957e+2, -307652.94, -481645.4, 20516.2, 0.0053597046, -0.04198899, -305266.5, 39007.734, 0.0, 10.000915, 9.998602 
1.1250127e+3, 2.748682e+2, -245973.17, -398048.8, 20600.596, 0.04494171, -0.04434948, -243231.97, 3056.525, 0.0, 10.00065, 9.998631 
1.1250034e+3, 2.8486693e+2, -161813.61, -330215.25, 7518.4194, 0.05919337, -0.019635191, -161478.61, -13177.286, 0.0, 10.000655, 9.998423 
1.1249936e+3, 2.9486585e+2, -20308.326, -207659.67, 4805.109, 0.045241404, 0.023017766, -20185.168, 30127.656, 0.0, 10.000938, 9.998454 
1.1249839e+3, 3.0486372e+2, 73446.67, -97956.94, -5945.998, 0.040379364, -0.053823445, 73652.695, 73652.695, 0.0, 10.001079, 9.998805 
1.1249743e+3, 3.1486332e+2, 95138.35, -51009.86, -22656.834, 0.051409584, 0.02125624, 98570.17, 98570.17, 0.0, 10.001068, 9.999133 
1.13515675e+3, 1.2488682e+2, -1661276.8, -1680670.8, -66691.61, 0.016393008, -0.09108401, -1603580.9, 112521.375, 0.0011953667, 10.000341, 10.000067 
1.1351478e+3, 1.3488652e+2, -1548405.9, -1617673.4, 73345.266, -0.032777645, -0.09220063, -1501928.4, 116176.17, 0.00059164723, 10.000611, 9.999703 
1.1351393e+3, 1.4488639e+2, -1427981.1, -1499496.8, 8138.8135, -0.014929009, -0.07846655, -1427066.6, 93038.83, 0.00017336896, 10.000731, 9.999778 
1.13512926e+3, 1.5488584e+2, -1350618.3, -1411690.5, -12798.502, 0.0030326548, -0.1113427, -1348044.6, 74065.695, 0.000015247707, 10.00059, 9.999776 
1.1351191e+3, 1.6488571e+2, -1270604.8, -1320252.5, -16955.77, 0.0004508405, -0.10358282, -1265366.6, 58745.586, 0.000000009421829, 10.000457, 9.999795 
1.135109e+3, 1.7488594e+2, -1184824.5, -1223692.1, -10023.996, 0.002105665, -0.06417693, -1182391.6, 43719.605, 0.0, 10.000355, 9.999833 
1.13509916e+3, 1.8488593e+2, -1110171.6, -1157110.0, 12732.503, 0.017077636, -0.037711952, -1106940.3, 21171.902, 0.0, 10.000278, 9.999656 
1.1350897e+3, 1.948857e+2, -1015768.4, -1057544.4, 16956.182, 0.037028693, -0.031928185, -1009752.44, 20362.79, 0.0, 10.00024, 9.999684 
1.1350801e+3, 2.0488524e+2, -933733.25, -989993.4, 18565.568, 0.040600367, -0.035246592, -928159.0, 3960.9954, 0.0, 10.000227, 9.999482 
1.1350702e+3, 2.1488455e+2, -830502.56, -886873.4, 24200.213, 0.030763615, -0.05641208, -821538.7, 12587.901, 0.0, 10.000252, 9.999506 
1.1350604e+3, 2.2488388e+2, -768328.0, -869462.44, 22221.484, 0.022040766, -0.04416403, -763660.8, -27526.967, 0.0, 10.000278, 9.99894 
1.13505065e+3, 2.3488325e+2, -663182.06, -765005.44, 14403.439, 0.013306631, -0.004747203, -661183.9, -23042.094, 0.0, 10.000315, 9.998966 
1.1350413e+3, 2.4488233e+2, -545626.9, -670925.0, 27841.855, 0.015687322, 0.012364489, -539718.9, 432.6879, 0.0, 10.000508, 9.998846 
1.13503225e+3, 2.5488105e+2, -394246.2, -543251.6, 25483.867, 0.03089289, -0.0032114387, -390008.28, 52155.086, 0.0, 10.000858, 9.99888 
1.1350229e+3, 2.6487958e+2, -306103.78, -476700.0, 11023.897, 0.02860953, -0.024537088, -305394.34, 38782.855, 0.0, 10.000906, 9.998641 
1.135013e+3, 2.7487794e+2, -242801.84, -392498.13, 12669.591, 0.0062777237, -0.058956712, -241737.13, 4455.952, 0.0, 10.000653, 9.998668 
1.13500364e+3, 2.8487659e+2, -165972.47, -339285.06, 18268.225, 0.011362182, -0.041659202, -164067.81, -15861.847, 0.0, 10.000657, 9.99836 
1.1349946e+3, 2.9487565e+2, -26184.414, -217463.02, 17067.803, 0.048727393, 0.022552874, -24673.389, 25542.146, 0.0, 10.000928, 9.998391 
1.1349851e+3, 3.0487296e+2, 50545.246, -142266.33, -6109.876, 0.055200826, -0.09187561, 50738.66, 50738.66, 0.0, 10.001063, 9.998509 
1.1349751e+3, 3.148716e+2, 84386.71, -75005.27, -19233.008, 0.029847318, -0.07882901, 86674.62, 86674.62, 0.0, 10.001074, 9.998967 
1.145157e+3, 1.248968e+2, -1633876.8, -1654596.4, -61617.69, 0.003669254, -0.08080018, -1581754.0, 134250.58, 0.0013373722, 10.000475, 10.00018 
1.1451484e+3, 1.3489649e+2, -1571091.3, -1612007.4, 84395.08, -0.0152171245, -0.09999238, -1504710.0, 113296.73, 0.000672049, 10.000382, 9.999855 
1.1451398e+3, 1.4489642e+2, -1484173.8, -1531031.0, 16807.69, -0.020818228, -0.08370009, -1478768.4, 41238.45, 0.0002032588, 10.000363, 9.99974 
1.14512965e+3, 1.5489604e+2, -1395657.5, -1437743.9, 4023.244, -0.0057796226, -0.09732333, -1395276.4, 26734.617, 0.000019742625, 10.0003, 9.999737 
1.1451195e+3, 1.648959e+2, -1301555.1, -1334553.8, 2991.3496, -0.0006392732, -0.08756717, -1301286.3, 22726.8, 0.000000013934886, 10.000242, 9.9998 
1.1451094e+3, 1.7489599e+2, -1206875.5, -1234272.6, -1971.6676, 0.0152154025, -0.064397044, -1206734.3, 19278.752, 0.0, 10.000202, 9.999835 
1.1450996e+3, 1.8489593e+2, -1114556.5, -1156061.6, 18610.559, 0.02956454, -0.04360958, -1107434.0, 20580.217, 0.0, 10.0002365, 9.999682 
1.14508994e+3, 1.9489577e+2, -996302.4, -1045150.5, 17124.557, 0.033605076, -0.032235343, -990897.2, 39119.09, 0.0, 10.000361, 9.999711 
1.1450802e+3, 2.048953e+2, -907627.5, -983595.3, 9566.154, 0.028943628, -0.034585543, -906441.44, 25579.598, 0.0, 10.000434, 9.999426 
1.1450704e+3, 2.1489453e+2, -805225.5, -880655.7, 0.55823475, 0.017575484, -0.058900245, -805225.5, 28802.977, 0.0, 10.000453, 9.999451 
1.1450608e+3, 2.2489378e+2, -737750.6, -868941.06, -1519.0227, 0.014853687, -0.046055365, -737733.06, -1696.3048, 0.0, 10.000552, 9.998811 
1.1450513e+3, 2.3489305e+2, -611247.4, -754566.5, -3266.3115, 0.018892206, -0.0030431035, -611173.0, 26872.887, 0.0, 10.000736, 9.998834 
1.14504196e+3, 2.4489209e+2, -522279.28, -669000.6, 12129.432, 0.027981749, 0.021018025, -521283.3, 18773.203, 0.0, 10.00071, 9.998761 
1.14503294e+3, 2.5489086e+2, -458159.6, -583764.94, 7820.052, 0.04379023, 0.017402822, -457674.6, -15606.023, 0.0, 10.000462, 9.998794 
1.14502355e+3, 2.6488936e+2, -370146.38, -497099.28, -7767.747, 0.034482215, -0.005936669, -369672.88, -25590.398, 0.0, 10.00042, 9.998735 
1.1450136e+3, 2.7488762e+2, -244160.4, -381768.47, -2735.7488, -0.0034026871, -0.058102395, -244106.05, 1992.2367, 0.0, 10.000597, 9.998768 
1.1450042e+3, 2.8488633e+2, -152647.92, -317647.66, 19584.447, -0.0042106276, -0.050453093, -150355.22, -2245.0007, 0.0, 10.000685, 9.998493 
1.1449954e+3, 2.948855e+2, -57313.227, -218446.08, 32511.83, 0.0386402, 0.011609132, -51000.61, -882.5117, 0.0, 10.000654, 9.998517 
1.1449861e+3, 3.048827e+2, 8913.229, -168365.03, 29415.564, 0.0522825, -0.11472224, 13666.661, 13666.661, 0.0, 10.000805, 9.998455 
1.1449763e+3, 3.1488147e+2, 104702.92, -53996.676, 29170.033, 0.039566617, -0.08687437, 109894.72, 109894.72, 0.0, 10.001169, 9.9990635 
1.15515724e+3, 1.2490719e+2, -1631741.1, -1646437.8, -75563.26, -0.019121263, -0.04834792, -1563169.8, 152734.34, 0.001489488, 10.00046, 10.000244 
1.1551492e+3, 1.3490674e+2, -1564406.3, -1597931.9, 83252.6, 0.013385684, -0.08946245, -1496245.6, 121661.58, 0.00075867696, 10.000381, 9.999952 
1.1551401e+3, 1.4490683e+2, -1476589.5, -1515805.5, 14502.507, -0.019731933, -0.068331264, -1471809.0, 48096.71, 0.0002361324, 10.000364, 9.999844 
1.15512975e+3, 1.5490684e+2, -1387717.5, -1421591.6, 1755.3878, -0.032649368, -0.05384762, -1387626.9, 34279.13, 0.000024990082, 10.0003, 9.999848 
1.15511954e+3, 1.6490658e+2, -1311249.9, -1354508.0, 272.69083, -0.020989448, -0.056520484, -1311248.3, 12660.663, 0.000000023716384, 10.000241, 9.999663 
1.1551098e+3, 1.74906e+2, -1216801.5, -1254815.5, -3583.1804, 0.02862021, -0.08230682, -1216466.6, 9447.612, 0.0, 10.000201, 9.999694 
1.15509994e+3, 1.8490562e+2, -1117299.4, -1161585.9, 22082.9, 0.04482688, -0.08633249, -1108170.0, 19748.195, 0.0, 10.000234, 9.999646 
1.1550902e+3, 1.9490542e+2, -998934.3, -1050722.0, 21536.11, 0.024292147, -0.07688273, -991148.9, 38771.746, 0.0, 10.0003605, 9.999674 
1.15508035e+3, 2.0490506e+2, -925096.8, -1019648.56, 8682.679, -0.005634879, -0.054416507, -924306.06, 7618.8013, 0.0, 10.000432, 9.99918 
1.1550703e+3, 2.1490456e+2, -822609.8, -916176.6, 99.99545, -0.043711428, -0.026211126, -822609.7, 11321.204, 0.0, 10.000449, 9.999209 
1.1550609e+3, 2.2490358e+2, -741434.25, -875005.75, 4075.382, -0.021570161, -0.022584457, -741310.0, -5368.405, 0.0, 10.0005455, 9.998773 
1.1550523e+3, 2.3490208e+2, -614355.75, -760331.6, 3941.6614, 0.062122688, -0.053264435, -614249.4, 23707.938, 0.0, 10.000733, 9.998796 
1.15504324e+3, 2.4490093e+2, -528989.3, -681973.06, 2780.5403, 0.08440095, -0.040889736, -528938.8, 11030.842, 0.0, 10.000705, 9.998675 
1.1550335e+3, 2.5490016e+2, -463985.97, -596599.4, -657.5951, 0.043802742, 0.009173868, -463982.72, -22004.344, 0.0, 10.000463, 9.998705 
1.1550238e+3, 2.6489896e+2, -360655.8, -477484.38, -1392.34, 0.020159833, 0.011375819, -360639.22, -16649.346, 0.0, 10.000421, 9.99887 
1.15501426e+3, 2.748973e+2, -235266.72, -361556.56, 4715.7676, 0.01262719, -0.043945633, -235090.88, 10913.244, 0.0, 10.000589, 9.998911 
1.1550049e+3, 2.8489614e+2, -128301.45, -264513.16, 19299.842, 0.008347226, -0.047004882, -125619.66, 22394.271, 0.0, 10.000672, 9.998865 
1.1549957e+3, 2.9489544e+2, -30609.977, -164431.98, 34486.0, 0.0078000166, -0.007682453, -22245.709, 27773.902, 0.0, 10.000659, 9.998886 
1.15498655e+3, 3.0489305e+2, 17054.635, -152390.27, 43067.76, 0.026202999, -0.12099601, 27372.838, 27372.838, 0.0, 10.000809, 9.998564 
1.1549779e+3, 3.1489286e+2, 123629.586, -12882.218, 45134.35, 0.07486218, 0.00039910458, 137202.64, 137202.64, 0.0, 10.001161, 9.999351 
1.1651577e+3, 1.24917574e+2, -1642941.8, -1670347.8, -57650.53, -0.015051556, -0.051767696, -1597388.1, 118413.81, 0.0016512593, 10.0004635, 10.000078 
1.16514966e+3, 1.349172e+2, -1588056.0, -1624770.5, 90871.695, 0.026380448, -0.07000955, -1513705.9, 104099.49, 0.0008513687, 10.000284, 9.999816 
1.1651403e+3, 1.4491731e+2, -1481061.8, -1509241.5, 20340.83, -0.0408228, -0.04443948, -1470407.5, 49396.625, 0.00027198074, 10.000296, 9.999922 
1.16513e+3, 1.5491723e+2, -1366502.3, -1402481.9, 2197.156, -0.03669365, -0.049526956, -1366368.5, 55436.0, 0.00003101119, 10.000407, 9.999928 
1.16511986e+3, 1.6491689e+2, -1281430.6, -1341781.4, 3541.833, -0.0176754, -0.05979776, -1281223.5, 42583.86, 0.00000004774233, 10.000453, 9.999649 
1.16511e+3, 1.7491637e+2, -1179762.6, -1238504.4, 7828.8564, 0.023126716, -0.081033446, -1178737.1, 47074.92, 0.0, 10.0004635, 9.99968 
1.1651002e+3, 1.849158e+2, -1109010.6, -1182358.6, 33000.902, 0.04186926, -0.0915182, -1096348.6, 31469.113, 0.0, 10.000397, 9.999425 
1.1650907e+3, 1.9491519e+2, -1029882.3, -1090108.6, 18009.975, 0.03528609, -0.09938329, -1024907.56, 4916.7236, 0.0, 10.000254, 9.9994545 
1.1650808e+3, 2.0491472e+2, -948924.8, -1038615.9, 11395.488, 0.006822689, -0.07354132, -947499.6, -15669.624, 0.0, 10.000303, 9.999111 
1.1650708e+3, 2.149144e+2, -811412.06, -918664.06, 15061.243, -0.043367125, -0.02158758, -809337.1, 24497.742, 0.0, 10.00056, 9.999139 
1.1650615e+3, 2.2491342e+2, -725219.44, -866548.7, 24653.543, -0.026072577, -0.013742269, -721042.3, 14803.22, 0.0, 10.000653, 9.998778 
1.16505295e+3, 2.3491178e+2, -636956.6, -770346.25, 25550.236, 0.06056847, -0.058838412, -632230.06, 5632.061, 0.0, 10.000575, 9.998803 
1.1650438e+3, 2.449106e+2, -545549.8, -689941.56, 25172.664, 0.08280716, -0.051230665, -541287.2, -1412.5068, 0.0, 10.000591, 9.998675 
1.16503395e+3, 2.5490984e+2, -428337.97, -579194.8, 27889.652, 0.037459116, 0.002763585, -423347.0, 18536.078, 0.0, 10.000709, 9.998706 
1.1650243e+3, 2.649086e+2, -322192.06, -468310.1, 26512.426, 0.01910708, 0.0046278983, -317530.25, 26364.822, 0.0, 10.000728, 9.998784 
1.165015e+3, 2.7490684e+2, -236854.44, -373235.16, 14207.928, 0.029846981, -0.053739455, -235390.02, 10520.623, 0.0, 10.000625, 9.998814 
1.1650057e+3, 2.8490576e+2, -149491.88, -274601.53, 3653.5269, 0.025421629, -0.045936443, -149385.28, -1465.0764, 0.0, 10.000525, 9.998868 
1.16499625e+3, 2.949053e+2, -60973.906, -178509.33, -12112.266, 0.0042390297, 0.016615275, -59738.695, -9814.55, 0.0, 10.000449, 9.99889 
1.1649871e+3, 3.0490288e+2, -14488.028, -167645.45, -5816.8237, 0.00924031, -0.093740426, -14267.427, -14267.427, 0.0, 10.000593, 9.998562 
1.16497874e+3, 3.1490272e+2, 99624.24, -4223.702, -10709.719, 0.059618726, 0.027193138, 100717.22, 100717.22, 0.0, 10.000906, 9.999536 
1.1751585e+3, 1.2492805e+2, -1670196.3, -1725627.1, -71206.4, 0.01128718, -0.08545272, -1621501.6, 94195.625, 0.0018234614, 10.000458, 9.9997015 
1.17514975e+3, 1.3492796e+2, -1612626.4, -1675765.5, 85827.39, 0.020047164, -0.04095071, -1552746.6, 64954.008, 0.0009506097, 10.000282, 9.999468 
1.17514e+3, 1.4492796e+2, -1478382.3, -1502759.6, 24486.232, -0.08835024, -0.0112275705, -1463218.9, 56482.043, 0.00031097958, 10.000292, 9.999969 
1.1751306e+3, 1.5492724e+2, -1363733.6, -1395833.0, 6245.1826, -0.021729589, -0.083258465, -1362561.4, 59144.566, 0.00003785508, 10.000403, 9.999975 
1.1751205e+3, 1.6492695e+2, -1274758.5, -1327953.0, 2446.9104, 0.0042198985, -0.09757482, -1274646.1, 49061.684, 0.00000010132158, 10.000451, 9.999746 
1.1751101e+3, 1.749271e+2, -1172548.6, -1223792.9, 7843.486, -0.0031335393, -0.06172918, -1171375.0, 54331.152, 0.0, 10.000463, 9.999783 
1.17510036e+3, 1.8492651e+2, -1137114.0, -1240363.4, 26091.31, 0.0174384, -0.059758946, -1130895.3, -3182.8955, 0.0, 10.000395, 9.999028 
1.1750912e+3, 1.9492519e+2, -1058020.6, -1148532.3, 12273.198, 0.06424227, -0.099638596, -1056385.9, -26659.328, 0.0, 10.000254, 9.999053 
1.17508166e+3, 2.0492437e+2, -941750.1, -1023885.94, 19791.166, 0.062552564, -0.09192199, -937230.06, -5494.2695, 0.0, 10.000303, 9.999212 
1.1750719e+3, 2.149241e+2, -804251.3, -903607.1, 24509.762, 0.013492332, -0.045159306, -798534.06, 35205.88, 0.0, 10.000559, 9.999243 
1.17506236e+3, 2.2492339e+2, -723648.94, -862446.4, 20490.229, -0.0037900335, -0.018878162, -720687.25, 15060.826, 0.0, 10.0006485, 9.998809 
1.1750531e+3, 2.3492222e+2, -634529.2, -765266.7, 22398.986, 0.012746925, -0.021454848, -630798.1, 6962.008, 0.0, 10.000573, 9.998839 
1.1750438e+3, 2.449211e+2, -539825.6, -677457.7, 28608.525, 0.022157526, -0.012333941, -534115.9, 5655.6133, 0.0, 10.000588, 9.998762 
1.1750346e+3, 2.5492e+2, -422418.34, -566194.25, 32851.742, 0.02275108, -0.001972325, -415267.6, 26514.73, 0.0, 10.000706, 9.998796 
1.1750252e+3, 2.649184e+2, -343598.1, -512143.9, 23372.986, 0.02871748, -0.025023175, -340416.9, 3380.69, 0.0, 10.000723, 9.998486 
1.1750159e+3, 2.7491632e+2, -257853.78, -417366.53, 12377.59, 0.040766142, -0.087140046, -256899.05, -11081.892, 0.0, 10.000626, 9.998511 
1.1750063e+3, 2.8491515e+2, -179266.23, -336687.22, 747.45496, 0.040205963, -0.048365522, -179262.67, -31434.08, 0.0, 10.000525, 9.998442 
1.1749968e+3, 2.94915e+2, -91545.64, -240196.02, -14137.62, 0.025663609, 0.08307025, -90213.01, -40381.08, 0.0, 10.000442, 9.99847 
1.17498755e+3, 3.0491227e+2, -17910.73, -172477.05, 7062.296, -0.0011235421, -0.03474541, -17588.717, -17588.717, 0.0, 10.000582, 9.998535 
1.1749789e+3, 3.149112e+2, 112594.43, 22683.588, 5901.1685, -0.021072991, -0.0007498502, 112980.086, 112980.086, 0.0, 10.000906, 9.99972 
1.1851587e+3, 1.2493828e+2, -1712730.1, -1746808.6, -99954.82, 0.0057932036, -0.09749897, -1628372.6, 87223.65, 0.0020081834, 10.000171, 9.999693 
1.1851503e+3, 1.349382e+2, -1590193.6, -1661675.9, 84217.055, 0.035576377, -0.054279573, -1534447.4, 83152.07, 0.0010574218, 10.0004225, 9.999496 
1.1851402e+3, 1.4493822e+2, -1457453.1, -1498858.1, 30347.334, -0.10438415, -0.022072487, -1441419.4, 78180.2, 0.00035351914, 10.0004635, 9.999911 
1.18513085e+3, 1.5493739e+2, -1390842.0, -1414674.0, 2639.3306, -0.01894647, -0.098999985, -1390553.3, 31052.658, 0.00004562391, 10.000243, 9.999923 
1.18512094e+3, 1.6493706e+2, -1315974.3, -1357303.0, -4605.547, 0.014778911, -0.10996952, -1315467.3, 8141.1997, 0.00000019883093, 10.00021, 9.9996605 
1.1851106e+3, 1.7493726e+2, -1191152.6, -1241874.8, -13666.177, -0.0024564397, -0.06115143, -1187704.9, 37902.117, 0.0, 10.000375, 9.9997 
1.1851008e+3, 1.8493675e+2, -1111175.6, -1222232.9, 12573.171, 0.012258334, -0.049814627, -1109770.0, 17842.494, 0.0, 10.00055, 9.999077 
1.18509166e+3, 1.9493552e+2, -982411.9, -1106708.0, 30529.938, 0.058033597, -0.085053496, -975317.94, 54307.207, 0.0, 10.00075, 9.999102 
1.1850823e+3, 2.0493461e+2, -894112.1, -1024226.4, 43391.574, 0.06538774, -0.07940422, -880969.1, 50666.242, 0.0, 10.00073, 9.999005 
1.18507266e+3, 2.1493405e+2, -829606.44, -938237.06, 23857.283, 0.033676066, -0.04022794, -824597.9, 9045.235, 0.0, 10.0004835, 9.999041 
1.1850631e+3, 2.2493328e+2, -742806.6, -858746.44, 14675.892, 0.008769538, -0.014462256, -740977.75, -5326.005, 0.0, 10.000463, 9.998923 
1.18505344e+3, 2.349323e+2, -611891.8, -741277.3, 21847.586, -0.009235637, -0.010862989, -608302.3, 29358.959, 0.0, 10.000672, 9.998957 
1.18504435e+3, 2.4493116e+2, -518984.56, -683395.4, 23536.396, -0.0035142635, -0.0018553913, -515681.56, 23990.959, 0.0, 10.000801, 9.998618 
1.18503526e+3, 2.5492987e+2, -412680.53, -578253.94, 8209.602, 0.026535245, 0.0027342334, -412274.47, 29411.158, 0.0, 10.000844, 9.998648 
1.185026e+3, 2.649282e+2, -329894.3, -514041.44, -7138.3447, 0.040401135, -0.017842915, -329618.03, 14084.013, 0.0, 10.000854, 9.99841 
1.1850165e+3, 2.749261e+2, -231350.03, -412508.4, -2998.2292, 0.036409467, -0.07066951, -231300.42, 14421.237, 0.0, 10.000844, 9.998439 
1.18500695e+3, 2.8492478e+2, -143301.19, -349254.0, 3782.19, 0.03110488, -0.033756725, -143231.75, 4503.4023, 0.0, 10.000904, 9.998171 
1.18499756e+3, 2.9492417e+2, -28120.68, -241208.77, 441.28973, 0.026517194, 0.085585184, -28119.768, 21622.748, 0.0, 10.001012, 9.998189 
1.18498825e+3, 3.049212e+2, -132.11923, -173286.5, 19332.117, 0.0051614763, -0.040999256, 1999.9945, 1999.9945, 0.0, 10.000746, 9.998449 
1.1849795e+3, 3.1491983e+2, 7221.756, -12611.549, 7941.1396, -0.010750951, -0.029840613, 10009.5, 10009.5, 0.0, 10.000116, 9.999856 
1.1951584e+3, 1.24948375e+2, -1691282.4, -1700914.6, -90571.68, -0.03672313, -0.08811504, -1605398.9, 110098.83, 0.0022081332, 10.000165, 10.000011 
1.1951511e+3, 1.3494803e+2, -1565092.6, -1608447.0, 94741.016, 0.068865485, -0.10846847, -1489580.5, 127920.4, 0.0011730703, 10.000417, 9.999866 
1.19514085e+3, 1.4494817e+2, -1468386.1, -1521091.4, 21249.506, -0.09387487, -0.07547011, -1460886.0, 58613.496, 0.00040013902, 10.00046, 9.999762 
1.19513094e+3, 1.5494776e+2, -1400886.4, -1436146.4, -5857.339, -0.030654643, -0.09676543, -1399938.9, 21564.762, 0.00005450229, 10.000244, 9.999775 
1.1951211e+3, 1.6494733e+2, -1334162.5, -1395478.1, 505.31012, 0.010507241, -0.09621941, -1334158.3, -10649.802, 0.00000035173326, 10.000211, 9.999398 
1.1951112e+3, 1.7494695e+2, -1209694.9, -1280454.5, -7411.515, 0.021874113, -0.07852418, -1208927.0, 16586.855, 0.0, 10.000375, 9.999435 
1.19510144e+3, 1.849466e+2, -1078124.9, -1153731.1, 18924.242, 0.021687957, -0.062413644, -1073652.6, 53864.848, 0.0, 10.000549, 9.999548 
1.1950919e+3, 1.9494624e+2, -949010.2, -1037331.6, 37277.117, 0.014740635, -0.05734816, -935380.3, 94139.29, 0.0, 10.000748, 9.999579 
1.1950824e+3, 2.0494547e+2, -930603.75, -1099072.6, 32451.885, 0.013326676, -0.036048822, -924568.8, 6959.612, 0.0, 10.000725, 9.998494 
1.195073e+3, 2.149443e+2, -865703.25, -1013503.0, 13976.265, 0.01723174, -0.0074694734, -864393.25, -30849.273, 0.0, 10.0004835, 9.998525 
1.1950636e+3, 2.2494318e+2, -728611.6, -829400.75, 21202.357, 0.010144702, -0.0012658356, -724333.06, 11223.116, 0.0, 10.000463, 9.9991255 
1.1950542e+3, 2.349421e+2, -597331.5, -711368.56, 29771.174, -0.007823397, -0.026741624, -590027.1, 47537.867, 0.0, 10.000673, 9.999162 
1.1950452e+3, 2.4494086e+2, -546375.5, -739959.1, 24664.69, 0.00247727, -0.018514117, -543282.4, -3705.2498, 0.0, 10.000799, 9.998232 
1.19503625e+3, 2.549395e+2, -440405.06, -635081.9, 10576.666, 0.043236114, 0.016390804, -439832.13, 1760.4032, 0.0, 10.00084, 9.99826 
1.195027e+3, 2.6493797e+2, -322060.94, -497281.53, -7588.5366, 0.049311846, 0.024378164, -321732.9, 21875.248, 0.0, 10.000851, 9.998528 
1.1950171e+3, 2.7493626e+2, -222979.55, -394449.88, -2495.6323, 0.01637897, -0.0042036735, -222943.23, 22680.791, 0.0, 10.00084, 9.998565 
1.19500756e+3, 2.849346e+2, -148280.92, -359503.34, 8547.62, -0.0028947887, -0.0017272041, -147935.58, -295.9377, 0.0, 10.000902, 9.998102 
1.1949983e+3, 2.94933e+2, -34582.77, -253286.08, 7281.2925, -0.0045943772, 0.023497544, -34340.62, 15314.612, 0.0, 10.001006, 9.998109 
1.19498916e+3, 3.0492976e+2, -18137.662, -209746.34, -3740.4207, 0.017478053, -0.11262605, -18064.672, -18064.672, 0.0, 10.00074, 9.998202 
1.1949806e+3, 3.1492865e+2, 4023.8618, -16822.586, -13216.648, 0.08966105, -0.05012683, 10432.851, 10432.851, 0.0, 10.000107, 9.999832 
1.20515846e+3, 1.2495862e+2, -1648089.8, -1668952.1, -73656.57, -0.06472846, -0.08171556, -1584129.4, 131268.27, 0.0024257244, 10.000416, 10.000108 
1.2051516e+3, 1.3495807e+2, -1612080.3, -1614977.0, 91621.945, 0.098982, -0.13648073, -1521895.3, 95506.23, 0.0012988481, 10.000024, 10.00001 
1.2051411e+3, 1.4495827e+2, -1543398.1, -1569836.3, 17934.031, -0.08731286, -0.09871958, -1534337.8, -14938.47, 0.00045139206, 10.0, 9.999648 
1.20513126e+3, 1.5495805e+2, -1396774.5, -1446570.4, -8959.845, -0.033770803, -0.08768296, -1395211.4, 26191.15, 0.00006471426, 10.000327, 9.999662 
1.2051214e+3, 1.6495763e+2, -1294705.5, -1380684.1, 9270.918, 0.009644578, -0.08071772, -1293717.1, 29690.813, 0.00000057087306, 10.000502, 9.999358 
1.2051117e+3, 1.7495702e+2, -1187293.9, -1274483.9, 16525.299, 0.02650291, -0.08296026, -1184266.9, 41148.527, 0.0, 10.00055, 9.999391 
1.20510206e+3, 1.849566e+2, -1078711.3, -1163868.4, 31878.7, 0.022746675, -0.06635386, -1068099.8, 59320.016, 0.0, 10.000588, 9.999459 
1.2050925e+3, 1.9495638e+2, -975476.44, -1059015.1, 8038.6704, 0.0045586783, -0.03933081, -974709.94, 54711.016, 0.0, 10.000607, 9.999497 
1.205083e+3, 2.0495553e+2, -937049.2, -1104730.1, -4283.3843, -0.0014563653, -0.02077657, -936939.8, -5509.475, 0.0, 10.000693, 9.998469 
1.2050735e+3, 2.1495405e+2, -814024.0, -991542.2, 12523.118, 0.002960599, -0.020110995, -813144.94, 20303.268, 0.0, 10.000851, 9.998498 
1.2050642e+3, 2.2495283e+2, -678519.1, -823064.75, 28898.262, 0.0075108577, -0.013753511, -672955.75, 62505.6, 0.0, 10.000883, 9.998966 
1.2050552e+3, 2.3495188e+2, -591293.1, -725635.1, 8774.529, 0.012695142, -0.009953871, -590722.44, 46747.168, 0.0, 10.000791, 9.999007 
1.2050462e+3, 2.4495058e+2, -546682.1, -731064.4, 6917.598, 0.02357579, -0.0054476573, -546422.94, -6940.595, 0.0, 10.000759, 9.998311 
1.2050371e+3, 2.5494888e+2, -442059.66, -626297.56, 26601.842, 0.04047657, -0.009257178, -438295.56, 3204.0813, 0.0, 10.000789, 9.998343 
1.2050277e+3, 2.6494735e+2, -338789.88, -512700.5, 16986.182, 0.038653456, -0.0021599194, -337146.34, 6368.8525, 0.0, 10.00077, 9.99846 
1.20501794e+3, 2.7494594e+2, -248330.14, -414769.06, 7014.98, 0.016687764, 0.007407404, -248035.0, -2505.9307, 0.0, 10.000701, 9.998493 
1.2050084e+3, 2.849444e+2, -177513.25, -358058.1, 20801.016, 0.004517216, 0.015673684, -175147.7, -27603.71, 0.0, 10.000635, 9.99824 
1.2049992e+3, 2.9494265e+2, -86777.29, -262849.44, 31995.326, 0.004388335, 0.012203238, -81143.45, -31583.084, 0.0, 10.000583, 9.998246 
1.20498985e+3, 3.049395e+2, -62588.39, -254318.22, 18575.547, 0.027731732, -0.110956, -60805.3, -60805.3, 0.0, 10.000536, 9.997993 
1.20498106e+3, 3.1493828e+2, 55326.14, 5359.198, 12948.162, 0.109420806, -0.040015206, 58482.12, 58482.12, 0.0, 10.000468, 9.99981 
1.2151587e+3, 1.249691e+2, -1658971.0, -1688657.9, -88482.89, -0.081586614, -0.075220905, -1584095.1, 131200.03, 0.0026624324, 10.0004015, 9.999981 
1.21515185e+3, 1.3496839e+2, -1615270.1, -1624249.4, 76902.7, 0.12181538, -0.13941571, -1542726.1, 74574.1, 0.0014356553, 10.000033, 9.999942 
1.2151411e+3, 1.449686e+2, -1547624.8, -1580945.5, 29140.137, -0.08976891, -0.093377374, -1530718.6, -11420.423, 0.0005075534, 10.00001, 9.999567 
1.2151316e+3, 1.549684e+2, -1402952.8, -1458737.3, 3423.2563, -0.03112994, -0.07335605, -1402743.5, 18558.512, 0.000076397075, 10.000323, 9.999581 
1.215122e+3, 1.6496801e+2, -1284333.8, -1358247.6, 9346.774, 0.0081612645, -0.06538085, -1283170.1, 40136.355, 0.0000008702971, 10.000496, 9.999516 
1.21511206e+3, 1.7496748e+2, -1175865.0, -1251389.1, 17652.488, 0.009445061, -0.07473136, -1171942.8, 53368.652, 0.0, 10.000551, 9.999549 
1.2151025e+3, 1.8496683e+2, -1122620.9, -1254671.8, 31199.984, 0.012384576, -0.05958863, -1115620.3, 11698.242, 0.0, 10.000586, 9.998837 
1.21509336e+3, 1.9496599e+2, -1019461.7, -1150456.4, 8633.702, 0.025022823, -0.030631948, -1018895.06, 10433.119, 0.0, 10.000607, 9.99887 
1.2150839e+3, 2.0496485e+2, -905558.3, -1039497.2, 412.05423, 0.017214274, -0.03422715, -905557.06, 25783.406, 0.0, 10.000692, 9.998919 
1.2150742e+3, 2.1496338e+2, -782599.56, -925780.94, 18027.258, -0.012456976, -0.07785269, -780364.75, 52990.453, 0.0, 10.000847, 9.998953 
1.215065e+3, 2.2496232e+2, -716235.6, -899933.75, 24024.684, -0.0022421319, -0.050904546, -713145.56, 22221.135, 0.0, 10.000876, 9.998443 
1.21505626e+3, 2.3496172e+2, -628557.5, -802600.3, 5391.288, 0.049587723, 0.03864068, -628390.6, 8984.222, 0.0, 10.000788, 9.99848 
1.21504724e+3, 2.4496034e+2, -509052.2, -652728.9, 7512.295, 0.056910966, 0.03544207, -508660.47, 30727.547, 0.0, 10.000757, 9.998851 
1.2150376e+3, 2.5495815e+2, -403672.97, -546817.1, 28499.617, 0.017297043, -0.07309146, -398207.44, 43199.05, 0.0, 10.000789, 9.99889 
1.2150282e+3, 2.6495647e+2, -356423.13, -549499.7, 14582.689, 0.0076970747, -0.095538765, -355327.94, -11905.209, 0.0, 10.00077, 9.998207 
1.2150187e+3, 2.7495533e+2, -267401.4, -452319.4, 6121.7666, 0.029220395, -0.03590199, -267198.97, -21762.605, 0.0, 10.000691, 9.9982395 
1.2150094e+3, 2.8495422e+2, -157833.63, -316001.1, 19271.275, 0.04460664, 0.018103454, -155519.45, -8071.546, 0.0, 10.000628, 9.998533 
1.2150002e+3, 2.9495317e+2, -66044.195, -219617.86, 31162.342, 0.052956704, 0.0535982, -59961.8, -10503.887, 0.0, 10.000581, 9.998544 
1.2149905e+3, 3.0495048e+2, -69458.516, -269175.22, 16969.83, 0.035019357, -0.0338878, -68026.86, -68026.86, 0.0, 10.000538, 9.99789 
1.21498086e+3, 3.1494883e+2, 58036.906, 13993.332, 15587.079, 0.033830885, 0.0056397715, 62995.04, 62995.04, 0.0, 10.000456, 9.999876 
1.2251588e+3, 1.2497933e+2, -1755065.0, -1740294.3, -92492.87, -0.07398483, -0.0628741, -1654892.4, 60302.918, 0.0029179724, 9.999767, 9.999929 
1.22515224e+3, 1.349787e+2, -1539030.9, -1584513.8, 71581.09, 0.12854728, -0.12040815, -1486665.5, 130534.12, 0.0015834377, 10.0005455, 9.999967 
1.2251412e+3, 1.4497893e+2, -1450322.5, -1538197.6, 18984.918, -0.10651675, -0.072094746, -1446396.3, 72801.04, 0.00056846405, 10.000698, 9.999527 
1.22513205e+3, 1.5497853e+2, -1414789.9, -1469048.8, -5424.9507, -0.0084880395, -0.067246296, -1414252.9, 6950.047, 0.00008951281, 10.000264, 9.999537 
1.2251226e+3, 1.6497801e+2, -1325803.1, -1385781.8, 6002.1245, 0.034652423, -0.06718372, -1325208.4, -1999.9182, 0.0000012652538, 10.000244, 9.999447 
1.2251125e+3, 1.7497744e+2, -1169171.9, -1255069.4, -3399.4197, -0.00050390785, -0.07515832, -1169037.6, 56175.81, 0.0, 10.000628, 9.999486 
1.2251029e+3, 1.8497665e+2, -1105493.9, -1252307.6, 12254.933, -0.00849884, -0.065368205, -1104478.0, 22743.516, 0.0, 10.0007305, 9.998783 
1.2250939e+3, 1.9497564e+2, -1029621.6, -1161537.9, 30403.977, 0.017337186, -0.04988625, -1022951.44, 6281.798, 0.0, 10.000564, 9.998815 
1.22508444e+3, 2.0497449e+2, -925970.6, -1049102.6, 35970.77, 0.0207247, -0.051560596, -916232.56, 15012.978, 0.0, 10.000551, 9.9989195 
1.22507505e+3, 2.1497321e+2, -804799.25, -935324.9, 19558.262, 0.00023038925, -0.0768161, -801931.6, 31326.494, 0.0, 10.000691, 9.9989605 
1.2250659e+3, 2.249721e+2, -734198.4, -918491.3, 20082.28, 0.011331497, -0.051978942, -732035.4, 3234.7668, 0.0, 10.000797, 9.998352 
1.2250571e+3, 2.3497117e+2, -624434.9, -810964.25, 31940.0, 0.05520927, 0.014507148, -619117.25, 18164.463, 0.0, 10.00086, 9.998387 
1.225048e+3, 2.4496982e+2, -499637.13, -634986.4, 31418.412, 0.05712838, 0.013579661, -492699.63, 46595.016, 0.0, 10.000765, 9.998968 
1.2250383e+3, 2.5496805e+2, -433770.97, -547604.25, 19299.59, 0.015123369, -0.06648254, -430587.88, 10721.215, 0.0, 10.000524, 9.999011 
1.2250288e+3, 2.6496643e+2, -381178.22, -552218.9, 10416.645, 0.0044722967, -0.089875005, -380546.16, -37221.973, 0.0, 10.000561, 9.998288 
1.2250194e+3, 2.7496505e+2, -237055.92, -428549.2, 24487.006, 0.026195819, -0.06225646, -233974.27, 11365.6045, 0.0, 10.000862, 9.998319 
1.22501016e+3, 2.84964e+2, -131534.55, -303461.34, 27976.086, 0.04487479, -0.010553726, -127096.8, 20254.832, 0.0, 10.000812, 9.998529 
1.2250008e+3, 2.9496318e+2, -90468.7, -232176.27, 16615.957, 0.059849862, 0.05468646, -88546.47, -39186.734, 0.0, 10.000416, 9.998536 
1.2249909e+3, 3.04961e+2, -103356.52, -276781.7, 6800.938, 0.03763989, 0.010314295, -103090.23, -103090.23, 0.0, 10.000268, 9.997969 
1.2249811e+3, 3.1495917e+2, 56515.145, 36596.69, 15558.54, 0.027792918, 0.023060007, 65028.992, 65028.992, 0.0, 10.000345, 10.000084 
1.2351588e+3, 1.2498941e+2, -1753889.4, -1739194.3, -56764.387, -0.053725835, -0.045716032, -1689303.9, 25793.117, 0.0031899144, 9.999772, 9.999934 
1.23515256e+3, 1.3498908e+2, -1533754.8, -1570414.0, 100780.92, 0.11809842, -0.081328414, -1449650.1, 167448.7, 0.0017411282, 10.000531, 10.000072 
1.2351416e+3, 1.4498936e+2, -1453979.6, -1542095.9, 225.239, -0.14039692, -0.03574799, -1453979.1, 65116.977, 0.0006337289, 10.000681, 9.99951 
1.2351328e+3, 1.5498856e+2, -1414400.9, -1471126.5, -22076.893, 0.02935828, -0.06809188, -1406821.5, 14282.805, 0.00010392506, 10.000275, 9.999519 
1.2351233e+3, 1.6498773e+2, -1344363.0, -1426178.5, 19437.115, 0.083095714, -0.08421296, -1339980.1, -16867.283, 0.0000017603737, 10.000252, 9.9991665 
1.23511314e+3, 1.7498694e+2, -1189391.4, -1296605.9, 11076.972, -0.005649457, -0.08504372, -1188258.9, 36861.777, 0.0, 10.000626, 9.999203 
1.2351032e+3, 1.8498614e+2, -1072406.1, -1182331.5, 4251.9673, -0.04331172, -0.08570909, -1072241.9, 54886.336, 0.0, 10.000724, 9.999268 
1.235094e+3, 1.9498536e+2, -995185.75, -1090291.6, 23195.451, -0.02027659, -0.09613585, -989830.2, 39305.348, 0.0, 10.000564, 9.999304 
1.235085e+3, 2.049845e+2, -956336.2, -1112241.1, 39637.582, 0.007411683, -0.07099846, -946837.4, -15692.321, 0.0, 10.000551, 9.9984865 
1.2350762e+3, 2.1498357e+2, -835068.75, -998625.5, 24433.602, 0.03806932, -0.018714597, -831496.7, 1659.9259, 0.0, 10.000692, 9.998526 
1.235067e+3, 2.2498216e+2, -710674.56, -869773.9, 21399.705, 0.04466825, -0.019075131, -707846.44, 27325.021, 0.0, 10.000796, 9.998688 
1.2350577e+3, 2.3498027e+2, -601425.94, -762687.5, 34540.234, 0.028051019, -0.08110517, -594339.3, 42850.465, 0.0, 10.000857, 9.998721 
1.2350483e+3, 2.4497907e+2, -521882.94, -680635.06, 21546.258, 0.022983031, -0.06906929, -519010.6, 20191.156, 0.0, 10.000761, 9.998657 
1.2350389e+3, 2.5497857e+2, -456215.97, -593031.5, 11054.482, 0.029027246, 0.009257428, -455328.53, -14121.353, 0.0, 10.000518, 9.998703 
1.23502955e+3, 2.649773e+2, -353954.2, -494813.63, 22168.686, 0.023718316, 0.012507831, -350547.63, -7328.024, 0.0, 10.000555, 9.998686 
1.23502016e+3, 2.7497518e+2, -208821.61, -370573.06, 37250.348, 0.006089191, -0.07065824, -200655.38, 44584.125, 0.0, 10.000863, 9.998717 
1.2350105e+3, 2.8497365e+2, -151473.84, -345339.72, 13206.784, 0.0034782414, -0.06846146, -150578.28, -3323.348, 0.0, 10.0008135, 9.998241 
1.2350007e+3, 2.9497278e+2, -112694.41, -275686.16, 3917.0923, 0.017350676, 0.013620331, -112600.32, -63334.516, 0.0, 10.000404, 9.998243 
1.2349911e+3, 3.04971e+2, -90061.49, -246831.52, 11002.725, 0.026879663, 0.020009944, -89293.04, -89293.04, 0.0, 10.000256, 9.99818 
1.2349821e+3, 3.1496933e+2, 75813.72, 77067.51, 23113.945, 0.08643844, 0.025574416, 99563.055, 99563.055, 0.0, 10.000341, 10.000364 
1.24515906e+3, 1.2499896e+2, -1654564.9, -1706540.5, -42027.04, -0.041556343, -0.07966335, -1631139.8, 83861.734, 0.003475539, 10.000524, 9.999795 
1.24515295e+3, 1.349988e+2, -1638764.3, -1625642.6, 92699.74, 0.13735305, -0.09477445, -1539271.9, 77730.84, 0.0019075654, 9.99983, 10.00003 
1.24514185e+3, 1.449991e+2, -1571396.4, -1605147.6, -4654.7686, -0.15304463, -0.040422324, -1570766.1, -51766.258, 0.0007030745, 9.999903, 9.999452 
1.2451332e+3, 1.5499817e+2, -1343002.5, -1442313.3, -30916.701, 0.021703497, -0.0806064, -1334164.3, 86845.04, 0.00011956255, 10.000792, 9.999467 
1.2451239e+3, 1.649973e+2, -1242535.0, -1377879.0, 7147.6836, 0.086282186, -0.097745754, -1242158.5, 80859.65, 0.0000023468863, 10.000957, 9.999158 
1.24511376e+3, 1.7499655e+2, -1222556.8, -1313952.8, 17379.545, 0.006481975, -0.09372897, -1219363.5, 5662.2905, 0.0, 10.000405, 9.999188 
1.245104e+3, 1.849958e+2, -1126284.4, -1206246.1, 12957.603, -0.028392702, -0.090943135, -1124237.0, 2796.0444, 0.0, 10.000346, 9.999285 
1.2450948e+3, 1.9499506e+2, -965677.5, -1073732.8, -3632.4375, -0.006483125, -0.0984939, -965555.5, 63484.363, 0.0, 10.000757, 9.999323 
1.2450858e+3, 2.0499422e+2, -906005.75, -1091032.5, 7049.8726, 0.017668253, -0.07132459, -905737.56, 25311.676, 0.0, 10.000911, 9.998458 
1.2450769e+3, 2.1499325e+2, -819940.44, -994497.9, 20131.955, 0.039500594, -0.018689068, -817648.7, 15412.436, 0.0, 10.000811, 9.998497 
1.2450677e+3, 2.2499184e+2, -719998.9, -862301.06, 21537.855, 0.03778001, -0.023132123, -716810.5, 18265.332, 0.0, 10.000681, 9.998795 
1.24505825e+3, 2.3498997e+2, -640883.9, -768727.9, 16768.338, 0.01377045, -0.09400256, -638721.06, -1627.619, 0.0, 10.000531, 9.998836 
1.24504894e+3, 2.4498881e+2, -564375.56, -710065.7, 3794.3306, 0.012853511, -0.07871605, -564276.8, -25171.514, 0.0, 10.00051, 9.998575 
1.24503955e+3, 2.549884e+2, -449867.25, -599431.5, 8346.731, 0.034965828, 0.015137742, -449402.88, -8291.797, 0.0, 10.000603, 9.998617 
1.2450302e+3, 2.649872e+2, -350647.28, -483060.6, 21589.125, 0.034249097, 0.027368303, -347216.25, -4093.2844, 0.0, 10.000535, 9.9987755 
1.2450208e+3, 2.749852e+2, -280160.84, -394492.22, 12664.053, 0.009441775, -0.05364957, -278774.9, -33633.64, 0.0, 10.000329, 9.998809 
1.2450111e+3, 2.8498363e+2, -200143.45, -357528.2, -10533.387, -0.0009932384, -0.06660167, -199441.61, -52284.832, 0.0, 10.000431, 9.998342 
1.24500126e+3, 2.9498255e+2, -47650.086, -232870.31, 6527.336, 0.005095835, -0.016292369, -47420.34, 1748.9706, 0.0, 10.000803, 9.998344 
1.2449914e+3, 3.0498108e+2, -43472.66, -226600.75, 9441.844, 0.017834857, 0.014051118, -42987.137, -42987.137, 0.0, 10.0005865, 9.998158 
1.2449823e+3, 3.1497917e+2, -4238.3013, 37880.703, 5008.9946, 0.09888159, 0.00048342856, 38468.2, 38468.2, 0.0, 9.999796, 10.000356 
1.2551595e+3, 1.2500812e+2, -1675699.0, -1749495.3, -60334.785, -0.04203236, -0.15989053, -1641874.0, 73033.484, 0.0037739007, 10.000517, 9.999505 
1.2551533e+3, 1.3500795e+2, -1648905.4, -1651865.3, 65648.07, 0.18002754, -0.15789506, -1584720.5, 32189.566, 0.0020822603, 9.999849, 9.999841 
1.2551418e+3, 1.4500827e+2, -1576441.0, -1618428.8, 26523.871, -0.15098332, -0.08603431, -1563608.0, -44700.03, 0.0007764397, 9.999914, 9.999355 
1.2551336e+3, 1.5500747e+2, -1350713.8, -1456131.8, 2660.9202, -0.030961592, -0.10602158, -1350646.6, 70270.49, 0.00013646827, 10.00078, 9.999377 
1.2551245e+3, 1.650068e+2, -1228255.9, -1344515.3, -15483.331, 0.043197528, -0.10961378, -1226229.1, 96694.82, 0.0000030208696, 10.000939, 9.999395 
1.2551144e+3, 1.7500633e+2, -1204472.5, -1278373.3, -3976.6487, 0.032153517, -0.10012108, -1204259.1, 20669.11, 0.0, 10.000413, 9.99943 
1.255105e+3, 1.8500568e+2, -1155747.6, -1269139.6, 27190.574, 0.030763837, -0.08016736, -1149564.8, -22629.297, 0.0, 10.000352, 9.998851 
1.2550962e+3, 1.9500478e+2, -996310.25, -1137385.3, 11534.006, 0.054577842, -0.059249297, -995373.5, 33572.24, 0.0, 10.000756, 9.998887 
1.2550871e+3, 2.0500366e+2, -881890.5, -1039739.7, 1749.2968, 0.04730057, -0.05507412, -881871.1, 49086.484, 0.0, 10.000905, 9.998814 
1.2550774e+3, 2.1500231e+2, -795665.06, -942995.8, 15869.267, 0.0035582413, -0.075106196, -793975.1, 38995.867, 0.0, 10.000805, 9.998854 
1.2550679e+3, 2.250012e+2, -728642.0, -879739.4, 14393.683, -0.009966985, -0.062442034, -727283.06, 7699.6567, 0.0, 10.000677, 9.998677 
1.2550586e+3, 2.3500031e+2, -649038.06, -785406.8, 11172.722, 0.009435106, -0.025780926, -648128.75, -11136.127, 0.0, 10.000529, 9.998723 
1.2550496e+3, 2.449991e+2, -554356.1, -688930.1, 6969.643, 0.022868054, -0.017296502, -553996.1, -14991.038, 0.0, 10.000507, 9.998722 
1.2550402e+3, 2.5499758e+2, -439843.88, -578874.3, 12819.522, 0.030357761, -0.047118396, -438671.7, 2348.6614, 0.0, 10.000603, 9.998759 
1.2550308e+3, 2.6499626e+2, -366472.13, -516333.75, 13859.525, 0.033641353, -0.042701762, -365201.13, -22167.412, 0.0, 10.000536, 9.998548 
1.2550214e+3, 2.7499515e+2, -296533.5, -427169.34, 6445.7065, 0.031452868, -0.012378538, -296216.22, -51171.11, 0.0, 10.000322, 9.998589 
1.2550119e+3, 2.849939e+2, -168218.31, -289470.72, 4621.1406, 0.02648951, -0.0071081426, -168042.44, -20985.15, 0.0, 10.000422, 9.998814 
1.2550022e+3, 2.949925e+2, -14263.99, -164148.92, 22459.316, 0.018621707, -0.033415183, -10970.952, 38099.285, 0.0, 10.000804, 9.9988165 
1.2549919e+3, 3.0499113e+2, -59631.9, -260682.36, -20465.893, 0.0059171543, -0.0055086934, -57569.73, -57569.73, 0.0, 10.000587, 9.997925 
1.2549818e+3, 3.149887e+2, -26962.365, -6185.7837, -19779.805, 0.05541131, -0.04784695, 5767.754, 5767.754, 0.0, 9.999782, 10.000061 
1.2651598e+3, 1.2501764e+2, -1731156.5, -1799951.6, -70389.17, -0.06531011, -0.16706492, -1687209.8, 27602.783, 0.004085261, 10.000237, 9.999293 
1.2651537e+3, 1.350172e+2, -1501487.0, -1593321.8, 46252.617, 0.19236006, -0.18074436, -1482229.9, 134588.2, 0.0022650692, 10.000919, 9.999726 
1.2651421e+3, 1.4501742e+2, -1439770.0, -1547119.1, 17129.496, -0.14754505, -0.11678804, -1437103.0, 81714.0, 0.00085386867, 10.000832, 9.999401 
1.265134e+3, 1.5501672e+2, -1453975.1, -1501734.6, 2452.2314, -0.024009695, -0.12766498, -1453849.5, -33024.926, 0.00015477135, 10.000055, 9.9994135 
1.265125e+3, 1.6501613e+2, -1357741.4, -1413357.9, -16280.696, 0.049608465, -0.123457566, -1353326.0, -30494.963, 0.0000038088367, 10.000079, 9.999336 
1.2651151e+3, 1.7501567e+2, -1139640.8, -1253264.3, -28071.498, 0.032621875, -0.10766003, -1133083.9, 91751.93, 0.0, 10.000886, 9.999373 
1.2651058e+3, 1.8501501e+2, -1057800.4, -1229620.1, -529.47833, 0.032421652, -0.08035255, -1057798.8, 69044.61, 0.0, 10.00106, 9.99878 
1.265097e+3, 1.9501413e+2, -1022898.7, -1157958.3, 9216.476, 0.061677683, -0.052593812, -1022272.6, 6581.361, 0.0, 10.000609, 9.998816 
1.2650876e+3, 2.0501295e+2, -939649.2, -1052179.4, 6924.8193, 0.05297674, -0.056764897, -939224.6, -8358.389, 0.0, 10.0004425, 9.99895 
1.265078e+3, 2.1501152e+2, -823474.1, -940720.94, 3722.2686, 0.0015793309, -0.100296944, -823356.06, 9523.824, 0.0, 10.000547, 9.998992 
1.2650685e+3, 2.2501054e+2, -741533.1, -881273.56, -2963.3826, -0.0107604, -0.08318029, -741470.3, -6580.0786, 0.0, 10.000569, 9.998717 
1.2650593e+3, 2.3501001e+2, -649092.8, -780958.75, 3555.9119, 0.01789551, -0.014092658, -648997.0, -12099.865, 0.0, 10.00051, 9.998762 
1.26505e+3, 2.4500887e+2, -555807.56, -679672.8, 8027.65, 0.031263176, -0.005520741, -555289.44, -16380.342, 0.0, 10.000454, 9.998812 
1.2650406e+3, 2.5500712e+2, -460950.03, -578540.8, 8439.474, 0.028303824, -0.06789643, -460347.44, -19421.076, 0.0, 10.000413, 9.998852 
1.2650311e+3, 2.6500583e+2, -372061.78, -513066.03, 16130.67, 0.027981035, -0.06647342, -370240.0, -27300.924, 0.0, 10.000472, 9.9986 
1.2650217e+3, 2.7500507e+2, -251805.72, -399726.9, 27897.291, 0.030802155, -0.009600463, -246719.31, -1772.0203, 0.0, 10.000604, 9.998641 
1.2650123e+3, 2.850038e+2, -164435.11, -280976.84, 21922.664, 0.032668244, -0.007827833, -160447.67, -13488.453, 0.0, 10.00042, 9.998872 
1.2650026e+3, 2.9500213e+2, -136121.52, -216225.52, 7253.168, 0.033057567, -0.0665014, -135470.06, -86495.375, 0.0, 9.999939, 9.998875 
1.2649924e+3, 3.050011e+2, -125023.6, -272716.38, -35724.67, 0.011390558, -0.01630224, -116836.2, -116836.2, 0.0, 10.000055, 9.998097 
1.2649816e+3, 3.1499866e+2, 113436.38, 65360.95, -4824.5776, 0.039398495, -0.08005383, 113915.77, 113915.77, 0.0, 10.000729, 10.000095 
1.2751594e+3, 1.250276e+2, -1740994.5, -1820452.1, -35196.656, -0.11663333, -0.10430252, -1727646.1, -12930.312, 0.0044096503, 10.0002365, 9.999153 
1.2751545e+3, 1.3502659e+2, -1505953.3, -1600134.9, 70521.68, 0.17454575, -0.16629449, -1468245.1, 148480.61, 0.0024558255, 10.000909, 9.999685 
1.2751429e+3, 1.4502658e+2, -1429025.1, -1522755.6, -14816.305, -0.14623657, -0.13377269, -1426738.8, 91987.21, 0.00093550276, 10.00082, 9.999575 
1.2751347e+3, 1.5502605e+2, -1441565.1, -1478676.6, -27004.602, 0.034960512, -0.14553893, -1427355.6, -6624.5186, 0.00017466526, 10.000065, 9.999568 
1.2751256e+3, 1.6502535e+2, -1381656.6, -1464637.1, 12643.871, 0.0986997, -0.1393184, -1379772.9, -57034.27, 0.0000047674703, 10.000085, 9.998982 
1.2751158e+3, 1.7502463e+2, -1164585.4, -1304097.5, 1894.1863, 0.006809156, -0.116911136, -1164559.8, 60188.117, 0.0, 10.000881, 9.999027 
1.2751062e+3, 1.850239e+2, -1040120.25, -1190570.4, -18964.854, -0.024799803, -0.09260163, -1037766.5, 88989.734, 0.0, 10.001048, 9.999054 
1.275097e+3, 1.9502318e+2, -1003384.06, -1117808.9, -8163.4287, 0.015069984, -0.07653132, -1002804.56, 25959.533, 0.0, 10.00061, 9.999092 
1.275088e+3, 2.0502216e+2, -944687.1, -1063403.9, 9643.833, 0.03407177, -0.07483822, -943908.8, -13134.259, 0.0, 10.000445, 9.998873 
1.2750788e+3, 2.150209e+2, -829280.0, -952330.25, 7334.367, 0.02974532, -0.095249265, -828844.4, 3943.058, 0.0, 10.000545, 9.998915 
1.2750694e+3, 2.2501987e+2, -728892.44, -853670.6, -6467.2744, 0.029987851, -0.08624241, -728558.1, 6240.0166, 0.0, 10.000563, 9.998911 
1.27506e+3, 2.3501913e+2, -636032.06, -753458.1, 1473.4769, 0.036887173, -0.0573467, -636013.6, 792.9702, 0.0, 10.000507, 9.998953 
1.2750505e+3, 2.4501815e+2, -554381.2, -676635.8, 5972.969, 0.035807095, -0.041830685, -554090.06, -15273.173, 0.0, 10.000452, 9.998834 
1.275041e+3, 2.55017e+2, -459274.0, -574463.1, 7831.7993, 0.025675088, -0.048135374, -458743.94, -17915.018, 0.0, 10.000408, 9.998883 
1.2750316e+3, 2.650159e+2, -349609.6, -465421.0, 21686.709, 0.014611803, -0.045588877, -345681.78, -2842.7205, 0.0, 10.000466, 9.998931 
1.275022e+3, 2.750149e+2, -228537.89, -351718.16, 34543.145, 0.0030448504, -0.044229046, -219512.34, 25335.21, 0.0, 10.000605, 9.998971 
1.2750126e+3, 2.850134e+2, -189221.42, -333131.28, 3760.6394, 0.01285087, -0.067076355, -189123.22, -42260.95, 0.0, 10.000421, 9.998514 
1.2750028e+3, 2.9501146e+2, -162552.4, -268417.78, -9284.375, 0.043585945, -0.116143286, -161744.34, -112861.68, 0.0, 9.999927, 9.998524 
1.2749925e+3, 3.05011e+2, -86893.97, -191117.52, -8392.497, 0.031026293, -0.019946657, -86222.5, -86222.5, 0.0, 10.000044, 9.998664 
1.2749825e+3, 3.1500912e+2, 137669.1, 116496.39, 27483.342, 0.041923013, -0.08227879, 156534.48, 156534.48, 0.0, 10.000726, 10.000449 
1.2851599e+3, 1.2503657e+2, -1665599.0, -1774215.0, -55849.2, -0.114054136, -0.08225869, -1642006.4, 72622.59, 0.0047468157, 10.000715, 9.999238 
1.2851551e+3, 1.3503559e+2, -1601740.6, -1628113.9, 49277.99, 0.18315393, -0.15867539, -1563915.4, 52722.46, 0.0026545508, 10.000172, 9.999847 
1.2851435e+3, 1.450355e+2, -1530289.1, -1570678.3, -40484.81, -0.14408039, -0.14061354, -1505241.6, 13396.556, 0.0010215283, 10.000121, 9.999581 
1.2851351e+3, 1.5503505e+2, -1354013.6, -1436028.0, -64410.375, 0.052287266, -0.14539082, -1318664.5, 101978.09, 0.00019628371, 10.000665, 9.999571 
1.2851262e+3, 1.650344e+2, -1275857.1, -1406360.4, -1041.5887, 0.11973895, -0.14034466, -1275848.9, 46800.723, 0.0000059623408, 10.000782, 9.999045 
1.2851165e+3, 1.7503363e+2, -1221210.9, -1324461.9, 16985.545, 0.016637515, -0.12686862, -1218488.4, 6170.078, 0.0, 10.000464, 9.999087 
1.2851068e+3, 1.8503283e+2, -1124281.1, -1227848.9, -8435.423, -0.029006002, -0.113340355, -1123598.5, 3068.7505, 0.0, 10.000459, 9.999082 
1.2850976e+3, 1.9503202e+2, -980157.1, -1103395.6, -17071.947, -0.0048264116, -0.10991531, -977835.9, 50840.344, 0.0, 10.000756, 9.99912 
1.2850884e+3, 2.0503116e+2, -891271.2, -1023198.56, -1613.9608, 0.017813163, -0.098838836, -891251.44, 39433.746, 0.0, 10.000751, 9.999001 
1.2850794e+3, 2.1503033e+2, -834319.6, -939897.8, 10067.633, 0.03401456, -0.08831261, -833368.2, -674.2082, 0.0, 10.000447, 9.999045 
1.28507e+3, 2.2502941e+2, -760262.6, -863386.7, 3181.6804, 0.041897215, -0.08009036, -760164.56, -25460.791, 0.0, 10.000325, 9.998958 
1.2850605e+3, 2.3502839e+2, -651335.6, -754958.1, -1087.9663, 0.043412913, -0.08362222, -651324.2, -14609.677, 0.0, 10.000379, 9.999003 
1.285051e+3, 2.4502741e+2, -564414.9, -678633.3, -3271.5667, 0.037968393, -0.07238173, -564321.25, -25596.326, 0.0, 10.000372, 9.998858 
1.2850413e+3, 2.5502652e+2, -472886.5, -578252.44, -2907.1428, 0.02477415, -0.054312482, -472806.34, -32071.65, 0.0, 10.000303, 9.998907 
1.2850319e+3, 2.6502556e+2, -372889.6, -459734.25, 8275.201, 0.013352229, -0.047764763, -372108.13, -29364.56, 0.0, 10.000233, 9.999082 
1.2850225e+3, 2.7502453e+2, -281173.8, -360241.84, 6212.712, 0.003602471, -0.064101584, -280688.63, -35936.797, 0.0, 10.00017, 9.999123 
1.2850128e+3, 2.8502303e+2, -210019.86, -347647.4, -23748.568, 0.011956051, -0.09102705, -206037.14, -59270.633, 0.0, 10.000298, 9.998474 
1.285003e+3, 2.9502118e+2, -68044.88, -227397.48, -14937.634, 0.039475784, -0.12999581, -66656.73, -17869.764, 0.0, 10.000593, 9.998484 
1.2849928e+3, 3.0502102e+2, -9008.154, -136726.22, -7366.024, 0.032976795, -0.0063191424, -8584.7295, -8584.7295, 0.0, 10.000508, 9.998813 
1.284983e+3, 3.150192e+2, 35708.523, 53521.2, -3252.6108, 0.0586901, -0.08103242, 54096.543, 54096.543, 0.0, 10.000085, 10.000324 
1.2951611e+3, 1.2504472e+2, -1646482.0, -1735271.9, -64693.133, -0.06923625, -0.097895294, -1612416.0, 102134.39, 0.0050962004, 10.000717, 9.999507 
1.2951556e+3, 1.3504425e+2, -1577590.4, -1577631.6, 27999.11, 0.21263339, -0.15766883, -1549611.9, 66941.41, 0.0028611089, 10.00017, 10.000195 
1.2951435e+3, 1.4504428e+2, -1541995.0, -1594654.1, -22542.734, -0.14632203, -0.13807558, -1533663.0, -15110.391, 0.00111182, 10.000119, 9.999419 
1.2951356e+3, 1.5504381e+2, -1363591.9, -1456630.8, -43661.855, 0.0276998, -0.12788422, -1346311.5, 74246.59, 0.000219555, 10.000667, 9.999429 
1.295127e+3, 1.6504328e+2, -1243460.4, -1339337.0, -13979.018, 0.110702954, -0.12778546, -1241463.8, 81099.43, 0.0000074533, 10.000781, 9.999507 
1.2951173e+3, 1.7504272e+2, -1189238.9, -1258915.8, 4619.0244, 0.057970703, -0.13782415, -1188934.0, 35633.098, 0.0, 10.000466, 9.999537 
1.2951078e+3, 1.8504187e+2, -1140100.5, -1260625.0, 1301.8225, 0.014578481, -0.1422863, -1140086.4, -13510.441, 0.0, 10.000457, 9.998858 
1.2950984e+3, 1.9504067e+2, -996279.56, -1135670.1, -6282.167, -0.0017419878, -0.15210788, -995997.0, 32592.8, 0.0, 10.000751, 9.998902 
1.295089e+3, 2.0504002e+2, -869447.44, -976266.4, -14482.717, 0.000064909764, -0.1284355, -867518.7, 63078.895, 0.0, 10.000743, 9.999328 
1.2950796e+3, 2.1503991e+2, -811358.8, -892460.4, -1935.1575, 0.013361672, -0.07991724, -811312.7, 21286.459, 0.0, 10.000447, 9.9993725 
1.2950702e+3, 2.2503914e+2, -766943.5, -877507.75, 3870.925, 0.024174934, -0.06524812, -766808.2, -32201.252, 0.0, 10.000326, 9.998861 
1.295061e+3, 2.3503777e+2, -658274.1, -769166.5, 1110.5892, 0.035395853, -0.09342481, -658263.0, -21642.234, 0.0, 10.000376, 9.998908 
1.2950513e+3, 2.4503662e+2, -563262.6, -675388.0, -6244.734, 0.034557547, -0.097495854, -562915.94, -24282.928, 0.0, 10.000367, 9.998884 
1.2950416e+3, 2.550357e+2, -471294.78, -574960.2, -4594.1763, 0.02224816, -0.085535996, -471091.6, -30448.232, 0.0, 10.000302, 9.998931 
1.295032e+3, 2.650348e+2, -374932.25, -464670.78, 6092.8145, 0.020608412, -0.07247834, -374520.47, -31868.21, 0.0, 10.000235, 9.999048 
1.295023e+3, 2.7503392e+2, -284200.53, -364788.66, 5491.927, 0.02842576, -0.06892642, -283827.97, -39168.1, 0.0, 10.000161, 9.999096 
1.2950133e+3, 2.8503272e+2, -192426.95, -309623.75, -11356.115, 0.026693339, -0.07988025, -191336.72, -44664.91, 0.0, 10.00029, 9.998739 
1.2950033e+3, 2.9503125e+2, -49249.445, -187929.08, -1561.2363, 0.015379367, -0.10563265, -49231.87, -544.58167, 0.0, 10.000592, 9.998755 
1.2949932e+3, 3.0503118e+2, -27806.459, -177672.72, -23670.793, 0.012023325, 0.026451737, -24156.635, -24156.635, 0.0, 10.000513, 9.998529 
1.2949833e+3, 3.1502888e+2, -9435.641, -35294.785, -13765.878, 0.08084265, -0.06686908, -3479.4185, -3479.4185, 0.0, 10.000064, 9.999724 
1.305162e+3, 1.2505336e+2, -1660263.1, -1744177.1, -15701.019, -0.05508773, -0.12696, -1657421.5, 57043.28, 0.0054552136, 10.000632, 9.999485 
1.305156e+3, 1.3505325e+2, -1528212.5, -1552869.4, 36746.535, 0.22228491, -0.15057999, -1501781.4, 114683.08, 0.003073975, 10.000506, 10.000203 
1.305144e+3, 1.4505328e+2, -1488231.0, -1571337.1, 7907.5923, -0.14542271, -0.13066366, -1487485.3, 30978.844, 0.0012055306, 10.000501, 9.999394 
1.3051362e+3, 1.5505268e+2, -1363376.4, -1459382.1, -4563.175, 0.02377919, -0.13256124, -1363160.0, 57311.113, 0.000244213, 10.000682, 9.999402 
1.3051277e+3, 1.6505209e+2, -1252061.9, -1339414.9, -7604.383, 0.10569479, -0.13594748, -1251404.9, 71071.59, 0.000009295233, 10.000706, 9.999541 
1.3051178e+3, 1.7505163e+2, -1168402.0, -1244766.5, -20533.465, 0.056019265, -0.14113489, -1163230.9, 61248.406, 0.0, 10.000592, 9.999573 
1.3051082e+3, 1.8505083e+2, -1127954.0, -1241210.4, -13941.011, 0.021208055, -0.147968, -1126263.3, 224.0982, 0.0, 10.000483, 9.998979 
1.305099e+3, 1.9504969e+2, -1043341.25, -1144421.8, 2176.599, 0.01583381, -0.16710874, -1043294.4, -14794.032, 0.0, 10.000369, 9.999024 
1.3050897e+3, 2.0504907e+2, -929437.0, -1013842.8, -14312.391, 0.016111828, -0.13933949, -927076.1, 3431.729, 0.0, 10.00037, 9.9992485 
1.30508e+3, 2.1504906e+2, -812295.3, -901450.75, -32990.574, 0.01581694, -0.07282308, -801415.4, 31094.16, 0.0, 10.000479, 9.999295 
1.3050705e+3, 2.2504832e+2, -740351.7, -849683.4, -31921.463, 0.018534226, -0.058523398, -731714.06, 2803.099, 0.0, 10.000443, 9.998996 
1.305061e+3, 2.3504692e+2, -664251.56, -756663.56, -19261.15, 0.02613894, -0.105068795, -660397.75, -23867.271, 0.0, 10.00027, 9.999044 
1.3050516e+3, 2.450458e+2, -579530.7, -677729.4, -13715.591, 0.030421017, -0.11505757, -577651.0, -39109.0, 0.0, 10.000232, 9.998933 
1.305042e+3, 2.5504497e+2, -464778.88, -566377.06, -11417.832, 0.031680368, -0.09759329, -463511.5, -22959.91, 0.0, 10.000324, 9.99898 
1.3050325e+3, 2.6504412e+2, -369516.06, -467389.34, -4776.2666, 0.033313613, -0.07680407, -369283.53, -26723.266, 0.0, 10.000296, 9.999 
1.3050231e+3, 2.7504334e+2, -288683.16, -372283.0, -8544.605, 0.03517319, -0.06374763, -287818.78, -43250.59, 0.0, 10.000154, 9.999047 
1.3050136e+3, 2.850422e+2, -205153.38, -296402.78, -17029.59, 0.029508574, -0.07371497, -202078.78, -55499.492, 0.0, 10.00012, 9.998912 
1.3050038e+3, 2.9504085e+2, -93782.75, -190022.25, -16435.918, 0.016142925, -0.107313514, -91053.21, -42460.3, 0.0, 10.000202, 9.99893 
1.3049935e+3, 3.0504078e+2, -37328.01, -178341.36, -37900.7, 0.009836157, 0.0150826955, -27786.861, -27786.861, 0.0, 10.000433, 9.998565 
1.3049836e+3, 3.1503847e+2, 79732.03, -25400.154, -3941.1204, 0.068277344, -0.076176636, 79879.56, 79879.56, 0.0, 10.000815, 9.999433 
1.3151623e+3, 1.2506258e+2, -1682790.8, -1789797.5, -11095.801, -0.07946245, -0.16348125, -1681652.4, 32718.99, 0.005819013, 10.000625, 9.999177 
1.3151564e+3, 1.3506266e+2, -1548879.8, -1598037.6, 31218.38, 0.2109743, -0.13833459, -1533725.8, 82645.38, 0.0032902497, 10.000516, 9.999887 
1.3151444e+3, 1.4506258e+2, -1479775.6, -1555659.8, 12460.077, -0.14642735, -0.119566165, -1477782.1, 40590.06, 0.0013013786, 10.000507, 9.999499 
1.315137e+3, 1.5506168e+2, -1358972.9, -1448332.6, 1932.584, 0.036109045, -0.15855822, -1358931.1, 61449.867, 0.00026992275, 10.000673, 9.999482 
1.3151284e+3, 1.6506092e+2, -1280304.3, -1396303.5, -13458.511, 0.10069924, -0.1636868, -1278763.1, 43625.504, 0.00001153221, 10.000697, 9.999156 
1.315118e+3, 1.7506042e+2, -1193319.4, -1297499.9, -24767.885, 0.009939178, -0.13632311, -1187730.9, 36663.508, 0.0, 10.000595, 9.99921 
1.3151084e+3, 1.8505979e+2, -1095909.6, -1175379.4, -19195.01, -0.012086415, -0.13082348, -1091516.1, 34884.48, 0.0, 10.000484, 9.999431 
1.3150997e+3, 1.95059e+2, -1011628.06, -1079754.6, -2652.468, 0.045667768, -0.15721333, -1011524.94, 16882.672, 0.0, 10.000373, 9.999468 
1.3150905e+3, 2.0505835e+2, -963016.25, -1083574.1, -11663.537, 0.06308958, -0.13303183, -961898.25, -31482.486, 0.0, 10.000369, 9.998771 
1.3150808e+3, 2.1505785e+2, -846156.6, -970999.9, -28878.59, 0.038104303, -0.06699031, -839800.1, -7375.4795, 0.0, 10.000474, 9.99882 
1.315071e+3, 2.2505699e+2, -716512.75, -798724.1, -39527.59, 0.020688152, -0.059289902, -700591.1, 33842.684, 0.0, 10.000436, 9.99935 
1.3150613e+3, 2.3505582e+2, -639599.94, -705726.56, -25626.62, 0.013414171, -0.11871659, -630831.4, 5611.901, 0.0, 10.00027, 9.999395 
1.3150518e+3, 2.4505492e+2, -574149.56, -666864.56, -10548.404, 0.02345672, -0.12609987, -572964.6, -34512.848, 0.0, 10.000233, 9.999007 
1.3150425e+3, 2.5505435e+2, -460098.16, -555662.94, -6878.341, 0.049978796, -0.090383075, -459605.63, -19146.514, 0.0, 10.000319, 9.999057 
1.315033e+3, 2.6505363e+2, -375698.53, -479530.06, -9473.355, 0.0484933, -0.060786266, -374841.28, -32373.943, 0.0, 10.000291, 9.998919 
1.3150232e+3, 2.7505273e+2, -294291.7, -384260.06, -11973.57, 0.020009656, -0.047438595, -292725.44, -48248.875, 0.0, 10.0001545, 9.998965 
1.3150136e+3, 2.8505147e+2, -198909.02, -285011.56, -13846.986, 0.016130107, -0.07154647, -196736.94, -50248.04, 0.0, 10.000125, 9.998988 
1.3150041e+3, 2.9504988e+2, -90106.61, -179118.23, -11276.253, 0.036044914, -0.13396989, -88700.32, -40196.652, 0.0, 10.000188, 9.999012 
1.3149941e+3, 3.0504975e+2, -15176.368, -129945.53, -22001.03, 0.020361366, -0.03965179, -11103.359, -11103.359, 0.0, 10.000422, 9.998903 
1.314984e+3, 3.150481e+2, 82442.49, -18913.846, 17218.117, 0.013101876, -0.10215261, 85287.59, 85287.59, 0.0, 10.000813, 9.999478 
1.3251632e+3, 1.2507175e+2, -1647825.8, -1790061.4, -20533.883, -0.073479675, -0.17759247, -1644920.8, 69359.21, 0.006183249, 10.000938, 9.999025 
1.3251571e+3, 1.3507159e+2, -1509256.0, -1595062.9, 20126.617, 0.2101871, -0.15892279, -1504769.8, 111512.76, 0.0035072896, 10.000861, 9.999741 
1.3251449e+3, 1.4507146e+2, -1453989.4, -1536256.5, 8133.495, -0.14647111, -0.14172542, -1453193.0, 65091.22, 0.0013982238, 10.000657, 9.99956 
1.3251376e+3, 1.5507077e+2, -1391399.8, -1458322.6, -4699.1797, 0.035236545, -0.16587462, -1391071.4, 29219.205, 0.00029637254, 10.000426, 9.999534 
1.325129e+3, 1.6507003e+2, -1313942.3, -1419465.3, -1260.2054, 0.09758945, -0.1690183, -1313927.3, 8371.242, 0.000014169166, 10.000497, 9.999094 
1.3251187e+3, 1.7506936e+2, -1162200.6, -1289324.1, 7822.1694, 0.004413975, -0.15038721, -1161721.1, 62585.266, 0.0, 10.000839, 9.999149 
1.325109e+3, 1.8506882e+2, -1047086.56, -1154002.9, -5432.257, -0.015955834, -0.13271946, -1046811.3, 79501.086, 0.0, 10.000831, 9.99941 
1.3251e+3, 1.9506834e+2, -995633.2, -1074139.5, -23875.45, 0.045116246, -0.12684192, -988942.4, 39374.227, 0.0, 10.000492, 9.999448 
1.325091e+3, 2.0506756e+2, -973034.1, -1089213.6, -22295.16, 0.06874707, -0.11232609, -968902.56, -38576.992, 0.0, 10.000304, 9.998763 
1.3250813e+3, 2.1506655e+2, -878904.94, -986886.1, -6587.851, 0.05179449, -0.09628748, -878504.5, -46165.59, 0.0, 10.000252, 9.998817 
1.3250715e+3, 2.250657e+2, -733830.7, -800794.94, -12137.178, 0.028789591, -0.092461154, -731698.75, 2649.5142, 0.0, 10.000292, 9.999404 
1.3250615e+3, 2.3506497e+2, -614689.8, -687205.3, -21489.027, 0.002232572, -0.11086212, -608800.1, 27553.494, 0.0, 10.000414, 9.999453 
1.325052e+3, 2.4506429e+2, -547879.25, -646798.8, -18212.414, 0.008209054, -0.10385478, -544632.7, -6272.4165, 0.0, 10.000382, 9.999073 
1.3250427e+3, 2.5506365e+2, -471556.75, -552957.9, -17266.23, 0.045042958, -0.080052726, -468045.8, -27677.965, 0.0, 10.000207, 9.999128 
1.3250332e+3, 2.650629e+2, -394478.94, -483824.6, -15219.542, 0.046088584, -0.06078165, -391957.53, -49581.273, 0.0, 10.000144, 9.99896 
1.3250232e+3, 2.7506196e+2, -286972.75, -376257.97, -9659.802, 0.013406287, -0.056959163, -285939.63, -41553.883, 0.0, 10.000187, 9.999005 
1.3250136e+3, 2.850607e+2, -185875.72, -284560.28, -6888.818, 0.017327372, -0.078012496, -185397.16, -38999.246, 0.0, 10.000242, 9.998935 
1.3250047e+3, 2.950592e+2, -74688.836, -176224.83, -16664.645, 0.05734039, -0.12545024, -72023.695, -23611.676, 0.0, 10.000314, 9.998971 
1.3249947e+3, 3.0505884e+2, -2527.1843, -103380.26, -28592.414, 0.03863467, -0.06157839, 5014.906, 5014.906, 0.0, 10.0004225, 9.999084 
1.3249844e+3, 3.1505752e+2, 43917.105, -43415.992, -925.7123, -0.008464826, -0.10943074, 43926.918, 43926.918, 0.0, 10.000575, 9.999424 
1.3351643e+3, 1.2508093e+2, -1648470.4, -1792371.1, -15624.352, -0.05036072, -0.16985805, -1646793.4, 67396.28, 0.0065457188, 10.000941, 9.999009 
1.335158e+3, 1.3508019e+2, -1511116.1, -1595482.0, 15897.04, 0.21768552, -0.20947869, -1508220.0, 107977.53, 0.0037237175, 10.000847, 9.999744 
1.3351457e+3, 1.4508003e+2, -1454227.8, -1534478.0, -2911.8276, -0.1496387, -0.19422299, -1454122.3, 64076.95, 0.0014951822, 10.000646, 9.999578 
1.3351378e+3, 1.5507999e+2, -1387480.8, -1452598.0, -12709.492, 0.017920516, -0.15582679, -1385088.0, 35111.434, 0.00032323142, 10.000436, 9.999568 
1.3351293e+3, 1.6507946e+2, -1297124.5, -1386121.9, 10721.007, 0.09053069, -0.15329435, -1295851.3, 26353.979, 0.000017128494, 10.000502, 9.999321 
1.3351198e+3, 1.7507853e+2, -1147927.0, -1258722.9, 19846.842, 0.035509806, -0.18302447, -1144479.1, 79735.91, 0.00000000003443261, 10.0008335, 9.999362 
1.33511e+3, 1.8507795e+2, -1081534.0, -1223936.1, -19915.748, 0.0055738287, -0.15317118, -1078801.1, 47421.074, 0.0, 10.000822, 9.998935 
1.3351004e+3, 1.9507772e+2, -1027906.8, -1141805.9, -36615.844, 0.012865666, -0.07690949, -1017151.4, 11075.347, 0.0, 10.000494, 9.998983 
1.3350908e+3, 2.0507678e+2, -942213.9, -1025292.44, -25282.307, 0.03057044, -0.07757725, -935124.94, -4888.1157, 0.0, 10.000303, 9.999203 
1.3350816e+3, 2.1507522e+2, -848203.06, -923769.75, -8889.272, 0.054704543, -0.16046196, -847171.44, -14919.3955, 0.0, 10.000254, 9.999251 
1.3350719e+3, 2.2507444e+2, -750000.56, -834554.3, -8611.346, 0.040421076, -0.15812695, -749132.5, -14872.249, 0.0, 10.000292, 9.999173 
1.3350618e+3, 2.3507443e+2, -631239.75, -721129.4, -16488.941, -0.0092173675, -0.08195774, -628310.56, 7950.809, 0.0, 10.00041, 9.999223 
1.335052e+3, 2.4507391e+2, -545581.0, -641113.94, -25055.707, -0.017513914, -0.049025588, -539408.44, -1141.1312, 0.0, 10.000377, 9.999115 
1.3350426e+3, 2.5507292e+2, -468986.22, -547698.1, -23014.691, 0.013750629, -0.06589524, -462750.88, -22473.264, 0.0, 10.000206, 9.999165 
1.335033e+3, 2.6507196e+2, -382275.2, -459267.9, -13344.106, 0.023120606, -0.07637528, -380028.0, -37741.02, 0.0, 10.000146, 9.999128 
1.3350235e+3, 2.75071e+2, -276265.53, -352277.47, -6231.3687, 0.010966312, -0.09218092, -275758.1, -31462.436, 0.0, 10.000178, 9.999174 
1.3350141e+3, 2.850699e+2, -201167.42, -315073.2, -3080.953, 0.028873041, -0.09276284, -201084.14, -54777.895, 0.0, 10.000235, 9.998729 
1.3350052e+3, 2.9506886e+2, -88399.15, -205178.92, -11538.024, 0.07673246, -0.07840927, -87270.086, -38952.26, 0.0, 10.000315, 9.998772 
1.3349953e+3, 3.0506808e+2, 209.30313, -98682.16, -22153.287, 0.0601248, -0.048076127, 4945.1973, 4945.1973, 0.0, 10.000425, 9.999115 
1.334985e+3, 3.1506675e+2, 32880.047, -62468.77, 9963.807, -0.0061296723, -0.10008995, 33910.12, 33910.12, 0.0, 10.000559, 9.999301 
1.3451654e+3, 1.2509014e+2, -1651069.6, -1777719.8, -5953.263, -0.03737982, -0.16076314, -1650790.4, 63309.82, 0.0069055543, 10.000857, 9.999149 
1.3451587e+3, 1.3508943e+2, -1527476.9, -1589429.8, 23566.205, 0.21160533, -0.21003582, -1519531.5, 96575.266, 0.0039389143, 10.000675, 9.999868 
1.3451463e+3, 1.4508925e+2, -1451019.1, -1536820.0, 15296.255, -0.15319324, -0.20183061, -1448373.8, 69734.52, 0.0015916337, 10.000685, 9.999543 
1.3451384e+3, 1.5508911e+2, -1320579.8, -1424616.6, -1273.4513, 0.011910744, -0.16838339, -1320564.3, 99545.32, 0.0003501717, 10.000916, 9.999529 
1.3451299e+3, 1.650886e+2, -1257384.9, -1367474.0, 8317.54, 0.0887224, -0.16049416, -1256760.0, 65355.164, 0.000020254476, 10.000778, 9.999316 
1.3451205e+3, 1.7508782e+2, -1225082.5, -1296243.9, 777.13776, 0.045594633, -0.17438594, -1225074.0, -950.35736, 0.0000000014653116, 10.000306, 9.999359 
1.3451107e+3, 1.8508723e+2, -1160531.0, -1261525.5, -23955.422, 0.015277407, -0.14861421, -1155137.0, -29005.7, 0.0, 10.000278, 9.998939 
1.3451008e+3, 1.9508676e+2, -1003230.4, -1129008.4, -7721.4785, 0.007895802, -0.09505216, -1002758.1, 25379.918, 0.0, 10.000661, 9.998991 
1.3450912e+3, 2.0508587e+2, -873938.8, -982724.56, 2307.5215, 0.018414125, -0.09549259, -873889.9, 56257.59, 0.0, 10.000731, 9.9992895 
1.3450818e+3, 2.1508463e+2, -805704.0, -893679.25, -8075.7725, 0.041935056, -0.15662132, -804968.8, 27190.438, 0.0, 10.000504, 9.999337 
1.3450721e+3, 2.2508389e+2, -748029.94, -848882.2, -9670.446, 0.036771137, -0.14585255, -747111.0, -12944.004, 0.0, 10.000373, 9.999035 
1.3450623e+3, 2.3508373e+2, -650703.25, -744567.0, -12804.287, 0.0052874186, -0.07346982, -648987.94, -12817.367, 0.0, 10.000341, 9.999092 
1.3450524e+3, 2.4508303e+2, -558389.44, -653453.3, -26096.924, -0.009142192, -0.04701768, -551696.5, -13518.267, 0.0, 10.0003195, 9.999056 
1.3450426e+3, 2.550819e+2, -459207.75, -549342.7, -32374.871, -0.007191715, -0.073955424, -448784.6, -8594.663, 0.0, 10.000303, 9.999106 
1.345033e+3, 2.6508087e+2, -367463.6, -447889.66, -29005.73, 0.0045019467, -0.08742985, -358094.16, -15894.64, 0.0, 10.000233, 9.999164 
1.3450237e+3, 2.7508e+2, -282288.88, -350226.94, -34112.848, 0.025448205, -0.09911505, -268116.66, -23909.484, 0.0, 10.000119, 9.999215 
1.3450144e+3, 2.85079e+2, -222564.31, -330868.84, -24414.012, 0.04099867, -0.09034074, -217315.31, -71098.42, 0.0, 10.000115, 9.998676 
1.3450052e+3, 2.9507804e+2, -106140.89, -218638.66, -22635.996, 0.052128576, -0.061879266, -101757.07, -53529.32, 0.0, 10.000218, 9.998725 
1.3449958e+3, 3.0507687e+2, 9218.603, -97504.016, -22028.2, 0.04492313, -0.06680916, 13586.583, 13586.583, 0.0, 10.000504, 9.999085 
1.344986e+3, 3.15076e+2, 85359.3, -43463.59, 4196.8535, 0.01574339, -0.06854258, 85495.875, 85495.875, 0.0, 10.000948, 9.999244 
1.3551663e+3, 1.2509948e+2, -1634573.8, -1740021.0, -7746.059, -0.039256148, -0.14887284, -1634007.8, 80002.47, 0.0072628423, 10.000842, 9.999416 
1.3551591e+3, 1.3509935e+2, -1509977.4, -1553600.1, 16234.357, 0.18833552, -0.16488218, -1504598.9, 111410.93, 0.004152666, 10.000679, 10.0001135 
1.3551468e+3, 1.4509912e+2, -1458039.8, -1553087.1, 22161.71, -0.1652839, -0.16901249, -1453126.4, 64884.758, 0.0016872559, 10.00069, 9.99943 
1.3551395e+3, 1.550982e+2, -1330165.0, -1443866.3, 6564.516, 0.014594146, -0.20131078, -1329787.3, 90232.836, 0.0003769789, 10.000911, 9.9994 
1.3551307e+3, 1.6509756e+2, -1273422.9, -1399619.8, -11323.951, 0.08997127, -0.18840583, -1272414.9, 49612.676, 0.000023370363, 10.0007715, 9.999099 
1.3551205e+3, 1.7509733e+2, -1237818.6, -1324723.5, -16685.395, 0.032640625, -0.12714784, -1234725.3, -10693.526, 0.0000000068048798, 10.000314, 9.99916 
1.355111e+3, 1.8509667e+2, -1127903.6, -1195313.6, -10593.753, 0.007938255, -0.12052149, -1126278.0, -238.77003, 0.0, 10.000283, 9.999391 
1.3551016e+3, 1.9509554e+2, -971970.6, -1064071.0, 5841.2856, 0.027015943, -0.1792821, -971601.6, 56448.465, 0.0, 10.000659, 9.999438 
1.3550921e+3, 2.0509489e+2, -892442.1, -1020444.2, -8002.1235, 0.029574353, -0.16475438, -891943.8, 38113.395, 0.0, 10.000728, 9.999033 
1.3550821e+3, 2.1509477e+2, -823372.44, -930372.94, -17062.9, 0.011780171, -0.08666636, -820717.4, 11342.91, 0.0, 10.000503, 9.999086 
1.3550723e+3, 2.2509407e+2, -752322.3, -857358.2, -12152.85, 0.015709288, -0.057927392, -750934.56, -16866.225, 0.0, 10.00037, 9.998979 
1.355063e+3, 2.3509285e+2, -655197.56, -753712.44, -13963.391, 0.042045627, -0.08485374, -653256.6, -17175.725, 0.0, 10.000339, 9.999032 
1.355053e+3, 2.4509168e+2, -568895.94, -675032.44, -27080.51, 0.02944359, -0.09734063, -562385.75, -24292.643, 0.0, 10.000318, 9.998909 
1.3550429e+3, 2.5509056e+2, -469916.3, -570661.44, -31914.047, -0.02085981, -0.104461126, -460657.5, -20552.846, 0.0, 10.0002985, 9.998962 
1.355033e+3, 2.6508966e+2, -376503.3, -465912.9, -32629.719, -0.012073011, -0.094325386, -365861.78, -23748.037, 0.0, 10.000228, 9.9990425 
1.355024e+3, 2.7508897e+2, -290882.28, -368004.56, -36518.645, 0.052979227, -0.075666904, -276334.38, -32214.172, 0.0, 10.000118, 9.999094 
1.3550146e+3, 2.8508794e+2, -214989.05, -315721.6, -19836.846, 0.04862104, -0.06890731, -211223.44, -65093.52, 0.0, 10.000116, 9.998781 
1.3550046e+3, 2.950867e+2, -100126.23, -204574.16, -16218.703, -0.02243675, -0.0782804, -97665.74, -49523.406, 0.0, 10.00021, 9.998826 
1.3549957e+3, 3.0508515e+2, 1016.0021, -112945.734, -3923.905, -0.012189959, -0.12035893, 1150.9493, 1150.9493, 0.0, 10.000496, 9.998984 
1.3549873e+3, 3.1508514e+2, 86184.34, -39870.51, 25103.215, 0.05163957, -0.025856761, 90999.59, 90999.59, 0.0, 10.00094, 9.999273 
1.365167e+3, 1.2510906e+2, -1638162.3, -1746271.1, 7242.843, -0.038603783, -0.12646139, -1637679.3, 76237.84, 0.0076198755, 10.0008335, 9.999379 
1.3651599e+3, 1.3510866e+2, -1489432.5, -1547734.0, 2952.2327, 0.18440922, -0.16392902, -1489283.4, 126635.7, 0.004366158, 10.000839, 10.000076 
1.3651475e+3, 1.451085e+2, -1450341.6, -1547339.1, 8576.596, -0.1520225, -0.160084, -1449589.1, 68330.65, 0.0017823466, 10.000736, 9.999448 
1.3651402e+3, 1.5510772e+2, -1374917.3, -1464501.1, 2971.7317, 0.03535383, -0.17944837, -1374818.8, 45108.855, 0.0004035849, 10.000599, 9.999409 
1.3651314e+3, 1.6510701e+2, -1290005.1, -1409838.1, -6613.347, 0.097951576, -0.17374437, -1289641.3, 32294.355, 0.000026350568, 10.000668, 9.999079 
1.3651212e+3, 1.7510653e+2, -1152365.1, -1285813.9, 6.184159, 0.012474539, -0.13754565, -1152365.1, 71576.66, 0.000000016360648, 10.000911, 9.99914 
1.3651112e+3, 1.8510583e+2, -1052382.4, -1155371.6, -60.928684, -0.015170698, -0.13309191, -1052382.4, 73566.89, 0.0, 10.000787, 9.999423 
1.3651022e+3, 1.951049e+2, -1017283.75, -1082380.5, -15147.083, 0.021132873, -0.17408265, -1013931.8, 14026.504, 0.0, 10.000332, 9.99947 
1.3650925e+3, 2.051043e+2, -961512.25, -1064371.6, -33008.313, 0.029194769, -0.15139358, -951830.9, -21865.639, 0.0, 10.0003, 9.998936 
1.3650826e+3, 2.1510412e+2, -805800.44, -932034.75, -31875.447, 0.006598101, -0.072701275, -798208.2, 33761.285, 0.0, 10.0006695, 9.998993 
1.3650727e+3, 2.251033e+2, -701564.56, -829768.06, -26306.79, 0.010306312, -0.050801616, -696376.5, 37601.88, 0.0, 10.000708, 9.999003 
1.3650633e+3, 2.3510194e+2, -641845.0, -745092.75, -23358.912, 0.03993412, -0.093227275, -636806.2, -814.53986, 0.0, 10.0004225, 9.99905 
1.3650535e+3, 2.4510074e+2, -571341.56, -686681.44, -23189.459, 0.032071818, -0.10541878, -566853.9, -28849.816, 0.0, 10.000348, 9.998814 
1.3650434e+3, 2.550997e+2, -449774.22, -570556.44, -26228.504, -0.012024952, -0.097451165, -444324.47, -4309.043, 0.0, 10.000481, 9.998873 
1.3650335e+3, 2.6509872e+2, -344873.25, -463429.47, -30461.148, -0.010099187, -0.08432851, -337504.72, 4520.806, 0.0, 10.0005045, 9.998924 
1.3650241e+3, 2.7509782e+2, -256482.44, -364314.72, -35575.855, 0.035603397, -0.07305098, -245802.98, -1768.8785, 0.0, 10.000414, 9.998976 
1.3650146e+3, 2.850968e+2, -175628.6, -286993.88, -14267.792, 0.029798783, -0.06528664, -173829.7, -27786.125, 0.0, 10.000347, 9.998866 
1.365005e+3, 2.9509568e+2, -81128.766, -185147.64, -13728.816, -0.023652114, -0.069646604, -79347.29, -31293.5, 0.0, 10.0002985, 9.998916 
1.3649961e+3, 3.0509374e+2, -41703.695, -144233.8, 6097.343, 0.0012861539, -0.1513291, -41342.367, -41342.367, 0.0, 10.00025, 9.998887 
1.364988e+3, 3.1509393e+2, -12534.698, -72192.49, 32292.252, 0.05371946, -0.027902463, 1597.214, 1597.214, 0.0, 10.0001955, 9.99941 
1.3751678e+3, 1.2511884e+2, -1661448.4, -1795208.1, 8569.997, -0.044685923, -0.10031867, -1660901.6, 52919.215, 0.0079810945, 10.000833, 9.999045 
1.375161e+3, 1.3511747e+2, -1511761.8, -1592652.1, 2359.9126, 0.19828923, -0.20254825, -1511692.9, 104140.4, 0.0045821774, 10.0008335, 9.999769 
1.3751487e+3, 1.451175e+2, -1440440.9, -1526089.8, 1500.1759, -0.11636772, -0.17125577, -1440414.6, 77418.336, 0.0018779465, 10.000732, 9.999596 
1.3751413e+3, 1.5511772e+2, -1363569.9, -1441978.4, -1840.3691, 0.06912623, -0.107242785, -1363526.8, 56304.953, 0.00043006244, 10.000603, 9.999562 
1.3751322e+3, 1.6511698e+2, -1278987.5, -1387721.0, 1575.0781, 0.10577778, -0.12044413, -1278964.8, 42874.375, 0.000029160963, 10.0006695, 9.99923 
1.3751218e+3, 1.7511545e+2, -1142503.3, -1265131.8, 8272.921, -0.016125364, -0.20216548, -1141947.6, 81905.57, 0.000000027808229, 10.000908, 9.999284 
1.3751116e+3, 1.8511477e+2, -1079170.9, -1210769.0, -19021.06, -0.05517108, -0.18401727, -1076476.8, 49384.137, 0.0, 10.000784, 9.999044 
1.3751021e+3, 1.951149e+2, -1042131.94, -1135705.0, -32314.436, -0.010943072, -0.0832428, -1032057.25, -4194.7266, 0.0, 10.000339, 9.999102 
1.3750927e+3, 2.0511417e+2, -957077.7, -1056048.3, -20202.021, 0.014813854, -0.05875454, -953112.8, -23241.623, 0.0, 10.000303, 9.998993 
1.3750833e+3, 2.1511269e+2, -802584.8, -924325.8, -18255.318, 0.022653056, -0.11289595, -799906.3, 31979.873, 0.0, 10.000664, 9.999049 
1.3750736e+3, 2.2511165e+2, -695719.1, -816197.6, -37959.246, 0.016822198, -0.12263413, -684756.75, 49139.805, 0.0, 10.000701, 9.999101 
1.3750634e+3, 2.3511106e+2, -635199.56, -730990.5, -33711.066, -0.0016877238, -0.09862629, -624525.3, 11377.013, 0.0, 10.00042, 9.999148 
1.3750535e+3, 2.4511024e+2, -575656.56, -695362.44, -18378.834, -0.0018302765, -0.072523974, -572898.4, -34987.34, 0.0, 10.000345, 9.998756 
1.3750441e+3, 2.5510928e+2, -454497.63, -579567.6, -20287.357, 0.015047443, -0.05179931, -451289.16, -11367.112, 0.0, 10.000477, 9.998814 
1.3750342e+3, 2.6510802e+2, -353268.47, -480686.75, -33520.88, 0.005852242, -0.05655515, -344988.0, -3053.1018, 0.0, 10.000503, 9.998808 
1.3750239e+3, 2.7510652e+2, -264783.8, -381216.84, -37163.668, -0.030605063, -0.093715705, -253932.98, -9983.7, 0.0, 10.000411, 9.998861 
1.3750145e+3, 2.851055e+2, -172217.9, -279191.88, -15157.342, -0.019344153, -0.0814648, -170111.7, -24153.441, 0.0, 10.000343, 9.998921 
1.3750058e+3, 2.95105e+2, -78767.125, -177466.81, -12925.957, 0.04243195, -0.03011404, -77102.39, -29140.568, 0.0, 10.000286, 9.998975 
1.3749972e+3, 3.0510262e+2, -49258.22, -159414.64, 5440.6587, 0.078046836, -0.15455453, -48990.156, -48990.156, 0.0, 10.000245, 9.998786 
1.3749877e+3, 3.1510204e+2, 3183.0596, -38823.47, 32821.383, 0.012983728, -0.09564464, 21146.195, 21146.195, 0.0, 10.000191, 9.999641 
1.3851689e+3, 1.2512806e+2, -1641375.4, -1784244.9, 17128.25, -0.025721489, -0.13600798, -1639350.6, 74378.234, 0.008351057, 10.000969, 9.999053 
1.3851617e+3, 1.3512695e+2, -1514434.5, -1591273.9, 31013.043, 0.2020222, -0.21557124, -1503479.3, 112260.27, 0.004803759, 10.000805, 9.999792 
1.3851495e+3, 1.4512715e+2, -1449800.9, -1553905.9, 32808.21, -0.11147293, -0.15856087, -1440324.1, 77414.16, 0.0019753822, 10.000769, 9.999388 
1.3851419e+3, 1.5512706e+2, -1338471.6, -1453194.3, 1597.4114, 0.052401677, -0.10346769, -1338449.4, 81291.54, 0.00045665295, 10.000875, 9.999354 
1.3851328e+3, 1.6512623e+2, -1250213.9, -1359831.8, -7119.46, 0.09220581, -0.11981843, -1249753.4, 71995.83, 0.00003186285, 10.000807, 9.999355 
1.3851225e+3, 1.7512487e+2, -1179274.6, -1269220.3, -3065.2285, -0.0011136304, -0.19866197, -1179170.3, 44590.707, 0.000000039188958, 10.000598, 9.999405 
1.3851126e+3, 1.8512422e+2, -1109961.6, -1244072.5, -25368.227, -0.040235072, -0.17563313, -1105323.5, 20444.973, 0.0, 10.000654, 9.998878 
1.3851027e+3, 1.9512425e+2, -963590.6, -1116179.3, -24713.94, -0.024689268, -0.06664059, -959687.7, 68084.07, 0.0, 10.000958, 9.998936 
1.3850932e+3, 2.0512344e+2, -870777.0, -1006414.44, -3853.1482, -0.0021418545, -0.046131305, -870667.6, 59113.637, 0.0, 10.000862, 9.9990635 
1.3850838e+3, 2.1512185e+2, -838279.7, -934238.1, -1896.182, 0.025376096, -0.11761559, -838242.25, -6445.855, 0.0, 10.000387, 9.999115 
1.3850741e+3, 2.2512072e+2, -762575.4, -860570.9, -25958.615, 0.018726287, -0.13364385, -756123.75, -22316.38, 0.0, 10.000295, 9.998992 
1.3850635e+3, 2.3512007e+2, -620201.6, -734737.2, -38580.254, -0.020288307, -0.104985714, -608418.44, 27395.754, 0.0, 10.000573, 9.999048 
1.3850538e+3, 2.4511933e+2, -532559.4, -666252.5, -26829.387, -0.018352438, -0.070003994, -527376.2, 10445.925, 0.0, 10.000609, 9.998826 
1.3850446e+3, 2.5511855e+2, -459404.56, -574344.0, -20277.625, 0.021518085, -0.03607932, -455932.1, -16101.315, 0.0, 10.000413, 9.9988785 
1.3850346e+3, 2.6511726e+2, -378341.16, -501390.56, -25505.887, 0.015591627, -0.047623646, -373263.75, -31419.596, 0.0, 10.000369, 9.998728 
1.3850243e+3, 2.751154e+2, -260863.06, -387955.25, -28193.99, -0.035070322, -0.11231867, -254889.33, -11027.393, 0.0, 10.000476, 9.998782 
1.3850148e+3, 2.8511432e+2, -157159.39, -287456.4, -13197.862, -0.025468977, -0.09352923, -155836.02, -9964.229, 0.0, 10.000517, 9.99878 
1.3850062e+3, 2.951141e+2, -57076.223, -181611.47, -28549.172, 0.04619312, -0.002860568, -50843.395, -2969.7544, 0.0, 10.000502, 9.99884 
1.3849975e+3, 3.051115e+2, -36248.563, -170119.17, -21169.063, 0.08875108, -0.13363591, -32980.848, -32980.848, 0.0, 10.000411, 9.9986315 
1.384988e+3, 3.1511053e+2, 24319.363, -1830.2722, 63.532066, 0.011235842, -0.100497454, 24319.518, 24319.518, 0.0, 10.000224, 9.999878 
1.3951702e+3, 1.2513684e+2, -1620275.8, -1737539.5, 10200.192, 0.012430846, -0.23156376, -1619395.1, 94245.266, 0.008733579, 10.000956, 9.999381 
1.3951623e+3, 1.3513711e+2, -1492062.1, -1543886.0, 23707.209, 0.19159415, -0.20555477, -1482853.4, 132784.05, 0.005033633, 10.000801, 10.000121 
1.39515e+3, 1.4513741e+2, -1488814.3, -1635834.9, 34469.117, -0.14278552, -0.12581617, -1481134.1, 36501.797, 0.002076125, 10.000771, 9.998824 
1.395142e+3, 1.5513584e+2, -1377271.9, -1534461.8, 4963.284, -0.013510121, -0.16343266, -1377115.4, 42539.215, 0.00048381835, 10.000878, 9.9987955 
1.3951333e+3, 1.651349e+2, -1242744.8, -1345692.0, -16602.26, 0.056486197, -0.16691957, -1240133.5, 81531.234, 0.000034571214, 10.000812, 9.999452 
1.3951236e+3, 1.751348e+2, -1171162.3, -1253852.1, -11048.69, 0.05252546, -0.13067952, -1169711.4, 53953.465, 0.00000005013657, 10.000603, 9.999509 
1.3951138e+3, 1.8513417e+2, -1108117.3, -1240364.1, -15089.195, 0.022529654, -0.111521944, -1106417.4, 19254.43, 0.0, 10.000653, 9.998903 
1.3951036e+3, 1.9513305e+2, -962353.7, -1113050.5, -13886.782, -0.023232153, -0.12148595, -961084.7, 66600.73, 0.0, 10.000955, 9.99896 
1.3950938e+3, 2.0513219e+2, -866016.0, -995511.44, -22878.434, -0.024886588, -0.11090582, -862092.8, 67602.02, 0.0, 10.000856, 9.999142 
1.3950841e+3, 2.1513163e+2, -832635.6, -923244.2, -19674.479, 0.0133327255, -0.0876714, -828548.0, 3151.9263, 0.0, 10.000389, 9.99919 
1.3950743e+3, 2.2513056e+2, -784291.3, -906664.3, -16521.486, 0.014214812, -0.08553826, -782100.0, -48389.2, 0.0, 10.000298, 9.998674 
1.3950641e+3, 2.3512904e+2, -642386.4, -780321.06, -27913.486, -0.019631676, -0.11127443, -636951.75, -1224.8354, 0.0, 10.000569, 9.998737 
1.3950543e+3, 2.4512805e+2, -519215.9, -637913.1, -34304.52, -0.02205718, -0.09670323, -510014.84, 27722.31, 0.0, 10.000605, 9.999024 
1.3950448e+3, 2.551276e+2, -445824.0, -546103.56, -26577.645, 0.004748285, -0.051407095, -439215.47, 526.1026, 0.0, 10.000411, 9.999074 
1.3950351e+3, 2.6512638e+2, -382061.72, -509452.47, -20806.914, 0.01674339, -0.058872238, -378749.4, -36996.098, 0.0, 10.000369, 9.998673 
1.3950253e+3, 2.7512446e+2, -265669.06, -396461.75, -22145.205, 0.016110713, -0.12430787, -262021.27, -18249.605, 0.0, 10.000468, 9.998728 
1.3950156e+3, 2.851233e+2, -181805.89, -339258.38, -12898.784, 0.004751724, -0.09738522, -180756.19, -34972.313, 0.0, 10.000517, 9.9984255 
1.395006e+3, 2.9512283e+2, -82492.32, -234885.05, -26938.322, -0.018119168, 0.007092365, -77870.62, -30080.473, 0.0, 10.000502, 9.998476 
1.3949974e+3, 3.0512026e+2, -49014.637, -197045.28, -27619.398, 0.028004752, -0.09236128, -44029.332, -44029.332, 0.0, 10.000412, 9.998446 
1.3949884e+3, 3.1511924e+2, 38160.566, 31193.35, -5792.7256, 0.038013738, -0.04956668, 41436.484, 41436.484, 0.0, 10.000206, 10.0001135 
1.4051712e+3, 1.251462e+2, -1682258.0, -1784115.8, -3740.944, 0.016002776, -0.23659718, -1682120.9, 31427.152, 0.009133226, 10.000597, 9.999235 
1.4051633e+3, 1.3514644e+2, -1472717.6, -1549234.5, -26351.23, 0.18055919, -0.20046112, -1464520.8, 151026.0, 0.005275387, 10.000999, 9.999989 
1.4051509e+3, 1.4514685e+2, -1427044.5, -1592184.9, -10011.369, -0.14239939, -0.11009056, -1426439.9, 91104.42, 0.0021822979, 10.001138, 9.998946 
1.405143e+3, 1.5514503e+2, -1342703.6, -1504794.3, 9289.794, -0.013707837, -0.18313818, -1342172.9, 77391.0, 0.00051218417, 10.001061, 9.99891 
1.4051342e+3, 1.651441e+2, -1229923.8, -1355973.4, -2506.3796, 0.050082874, -0.18380365, -1229873.9, 91700.32, 0.000037386584, 10.000973, 9.999302 
1.4051242e+3, 1.7514426e+2, -1140226.4, -1255088.3, -16775.375, 0.038221452, -0.10706458, -1137826.5, 85746.945, 0.00000006103049, 10.000886, 9.999364 
1.4051144e+3, 1.8514363e+2, -1086754.9, -1215888.3, -18178.318, 0.018868268, -0.08656857, -1084244.8, 41335.684, 0.0, 10.00074, 9.999029 
1.4051045e+3, 1.9514225e+2, -1012946.9, -1123536.1, -10988.026, -0.0032384945, -0.1328395, -1011865.7, 15729.28, 0.0, 10.000549, 9.999083 
1.4050946e+3, 2.0514135e+2, -917062.75, -1033304.56, -29637.725, -0.01001987, -0.12647113, -909942.25, 19662.373, 0.0, 10.000565, 9.999022 
1.4050846e+3, 2.1514094e+2, -783690.25, -912040.25, -41673.51, -0.0035192943, -0.076736905, -771346.56, 60262.617, 0.0, 10.000781, 9.999076 
1.4050747e+3, 2.2513995e+2, -710032.7, -858843.4, -24467.914, -0.00171153, -0.06838799, -706112.8, 27506.604, 0.0, 10.000757, 9.998779 
1.4050649e+3, 2.351384e+2, -645320.3, -770749.7, -6089.807, -0.005621136, -0.10680601, -645025.4, -9390.576, 0.0, 10.000503, 9.998835 
1.4050551e+3, 2.4513727e+2, -547844.44, -659273.5, -8238.103, -0.009823666, -0.10730452, -547238.7, -9592.666, 0.0, 10.000441, 9.998957 
1.4050451e+3, 2.5513655e+2, -427330.38, -544454.56, -21672.9, -0.014605313, -0.08172708, -423448.63, 16204.5, 0.0, 10.000569, 9.999009 
1.4050354e+3, 2.6513535e+2, -351519.56, -492027.13, -21811.21, 0.0006757616, -0.083985515, -348211.66, -6547.0654, 0.0, 10.000569, 9.998695 
1.405026e+3, 2.751338e+2, -267340.7, -393976.38, -19441.2, 0.03565894, -0.11767944, -264423.28, -20743.803, 0.0, 10.000446, 9.9987545 
1.4050163e+3, 2.8513253e+2, -203920.0, -364433.44, 4397.726, 0.027808407, -0.092122935, -203799.61, -58106.99, 0.0, 10.000429, 9.998294 
1.4050066e+3, 2.951316e+2, -89485.04, -253644.38, 6656.003, -0.02098561, -0.024904454, -89215.61, -41511.137, 0.0, 10.000519, 9.998339 
1.4049979e+3, 3.051292e+2, -43650.7, -217665.25, 9162.454, 0.02051222, -0.087375775, -43169.598, -43169.598, 0.0, 10.000549, 9.998239 
1.4049886e+3, 3.1512824e+2, 91552.31, 71251.625, 21417.025, 0.030594697, -0.017725367, 105102.57, 105102.57, 0.0, 10.00051, 10.000242 
1.4151713e+3, 1.2515613e+2, -1724082.5, -1872204.8, 6056.2, -0.019340146, -0.16183752, -1723835.3, -10383.473, 0.009556688, 10.000598, 9.9986315 
1.415164e+3, 1.3515505e+2, -1513816.4, -1633134.9, -11744.345, 0.16804361, -0.197922, -1512671.4, 102794.71, 0.0055341963, 10.000994, 9.999413 
1.4151524e+3, 1.4515558e+2, -1372832.9, -1479710.3, -14343.433, -0.11455703, -0.10711055, -1370941.5, 146520.25, 0.0022969088, 10.001137, 9.999721 
1.4151447e+3, 1.5515468e+2, -1290451.8, -1395214.3, 6126.1, 0.043880932, -0.16490494, -1290094.8, 129373.8, 0.0005425403, 10.001055, 9.999666 
1.4151353e+3, 1.6515386e+2, -1258988.3, -1415207.5, -7721.6045, 0.065765336, -0.17244114, -1258607.5, 62869.81, 0.000040406845, 10.000967, 9.9988985 
1.4151244e+3, 1.751533e+2, -1167768.0, -1312726.4, -20412.139, -0.042681023, -0.12601212, -1164948.5, 58537.426, 0.00000007226826, 10.000886, 9.998968 
1.4151146e+3, 1.8515266e+2, -1071366.6, -1184661.9, -26401.99, -0.051718745, -0.0985072, -1065516.1, 59977.332, 0.0, 10.000742, 9.999244 
1.4151055e+3, 1.9515194e+2, -997579.5, -1093111.0, -18146.424, 0.032958355, -0.10197014, -994248.7, 33251.46, 0.0, 10.000554, 9.99929 
1.4150958e+3, 2.0515099e+2, -938625.2, -1078706.5, -22614.535, 0.038782425, -0.09471116, -935064.8, -5554.3716, 0.0, 10.000566, 9.99871 
1.415085e+3, 2.1514986e+2, -805164.5, -956058.75, -33476.58, -0.02799964, -0.08431744, -798071.06, 33452.707, 0.0, 10.000777, 9.998776 
1.415075e+3, 2.2514893e+2, -675365.2, -785450.2, -34556.254, -0.033032898, -0.081214435, -665416.8, 68116.07, 0.0, 10.000751, 9.999288 
1.4150657e+3, 2.3514816e+2, -610198.25, -698504.25, -15073.476, 0.020266777, -0.09238311, -607696.2, 27841.656, 0.0, 10.000504, 9.999331 
1.4150557e+3, 2.45147e+2, -570757.6, -707780.4, -3465.596, 0.016359774, -0.10335385, -570670.0, -33121.3, 0.0, 10.000443, 9.998623 
1.4150454e+3, 2.551455e+2, -450871.22, -592645.8, -15834.254, -0.040269062, -0.12400674, -449124.28, -9559.273, 0.0, 10.000565, 9.998681 
1.4150356e+3, 2.6514426e+2, -345470.94, -479706.0, -25757.188, -0.03731004, -0.11956485, -340698.3, 879.26245, 0.0, 10.000567, 9.998782 
1.4150262e+3, 2.7514336e+2, -261261.73, -381835.53, -22322.691, 0.019768607, -0.095459245, -257261.67, -13675.918, 0.0, 10.000446, 9.998838 
1.4150168e+3, 2.851421e+2, -195518.25, -347394.2, 8387.449, 0.04004357, -0.081089355, -195056.45, -49457.996, 0.0, 10.00043, 9.998411 
1.4150076e+3, 2.9514045e+2, -83204.52, -238966.5, 12737.093, 0.03164633, -0.093412094, -82169.84, -34553.895, 0.0, 10.000511, 9.998444 
1.4149986e+3, 3.0513844e+2, -61710.54, -255914.92, 9656.667, 0.059447058, -0.111265965, -61231.55, -61231.55, 0.0, 10.00055, 9.997976 
1.4149888e+3, 3.1513754e+2, 87590.86, 62810.83, 18779.62, -0.019177984, -0.009475854, 97699.44, 97699.44, 0.0, 10.00051, 10.000185 
1.4251721e+3, 1.2516557e+2, -1643159.9, -1829948.6, -780.63635, -0.03189622, -0.11988275, -1643156.6, 70204.05, 0.010011913, 10.001146, 9.998656 
1.4251651e+3, 1.3516392e+2, -1517894.1, -1633974.5, 27160.055, 0.17314751, -0.21351846, -1511853.6, 103526.19, 0.0058154534, 10.00096, 9.999422 
1.4251536e+3, 1.4516462e+2, -1408935.6, -1483443.3, 15645.331, -0.092767075, -0.11132186, -1405783.8, 111589.695, 0.002423067, 10.000832, 9.999841 
1.4251456e+3, 1.5516412e+2, -1319258.5, -1395985.8, -12956.126, 0.04753047, -0.14290111, -1317129.9, 102246.91, 0.00057589856, 10.000801, 9.999783 
1.4251362e+3, 1.6516343e+2, -1282639.5, -1420035.3, -30951.771, 0.063513435, -0.14600007, -1275988.9, 45395.523, 0.00004378684, 10.000777, 9.998956 
1.4251253e+3, 1.7516275e+2, -1182689.9, -1313244.3, -11563.848, -0.03786932, -0.115971185, -1181673.5, 41720.46, 0.00000008454083, 10.000758, 9.999025 
1.4251152e+3, 1.8516204e+2, -1069604.3, -1188025.5, -10769.46, -0.0500185, -0.098410964, -1068632.8, 56769.445, 0.0, 10.000775, 9.999204 
1.4251061e+3, 1.9516124e+2, -957469.7, -1077392.9, -21933.768, 0.020938862, -0.104240894, -953583.94, 73825.43, 0.0, 10.000848, 9.999255 
1.4250962e+3, 2.0516032e+2, -900334.3, -1050325.4, -17159.84, 0.031215848, -0.09553265, -898396.2, 31022.92, 0.0, 10.000787, 9.998797 
1.425086e+3, 2.1515934e+2, -825256.4, -956266.8, -290.91223, -0.01601399, -0.07964172, -825255.75, 6175.147, 0.0, 10.000599, 9.998861 
1.425076e+3, 2.2515842e+2, -704551.7, -802316.5, -9431.098, -0.019902544, -0.07762327, -703650.25, 29789.594, 0.0, 10.000561, 9.999264 
1.4250661e+3, 2.3515756e+2, -587495.06, -689364.75, -30692.965, 0.017337257, -0.097048536, -578962.1, 56483.63, 0.0, 10.000668, 9.999314 
1.4250562e+3, 2.4515642e+2, -537141.9, -687104.1, -21316.904, 0.010996603, -0.1071231, -534170.56, 3285.89, 0.0, 10.000655, 9.998662 
1.425046e+3, 2.5515506e+2, -453366.2, -588896.44, -6912.3696, -0.036293376, -0.117064886, -453014.53, -13543.303, 0.0, 10.000527, 9.998725 
1.4250362e+3, 2.651539e+2, -346353.13, -477294.28, -3330.6155, -0.033231873, -0.10820773, -346268.47, -4785.361, 0.0, 10.000549, 9.998807 
1.4250268e+3, 2.7515298e+2, -219178.6, -359004.47, -5674.766, 0.015408047, -0.0875635, -218948.66, 24542.818, 0.0, 10.000721, 9.998864 
1.4250174e+3, 2.8515166e+2, -146784.25, -314629.97, 19814.623, 0.036025926, -0.084817946, -144476.8, 1027.7322, 0.0, 10.000724, 9.998494 
1.4250082e+3, 2.9514992e+2, -69122.74, -222670.08, 19110.156, 0.037015915, -0.115196474, -66780.08, -19257.81, 0.0, 10.000568, 9.998528 
1.4249992e+3, 3.051483e+2, -85758.6, -263814.7, 24083.053, 0.06967697, -0.09737391, -82558.74, -82558.74, 0.0, 10.000369, 9.998009 
1.424989e+3, 3.1514686e+2, 37865.203, 48945.47, 50391.332, -0.015366043, -0.058028676, 94100.3, 94100.3, 0.0, 10.000124, 10.000276 
1.4351733e+3, 1.251746e+2, -1600789.6, -1740056.1, -12739.096, -0.024872677, -0.11149746, -1599633.9, 113639.945, 0.010506618, 10.001141, 9.999277 
1.4351662e+3, 1.3517313e+2, -1479674.6, -1552423.6, 19871.94, 0.18874219, -0.24590513, -1474600.4, 140687.05, 0.006123269, 10.000953, 9.999988 
1.4351544e+3, 1.4517406e+2, -1445675.0, -1559671.0, 12067.644, -0.084532075, -0.122319706, -1444411.5, 72867.69, 0.002563054, 10.000829, 9.999319 
1.4351459e+3, 1.5517339e+2, -1353756.8, -1468262.5, -14254.226, -0.0023200647, -0.117497236, -1352009.0, 67278.875, 0.0006133788, 10.000802, 9.999287 
1.4351366e+3, 1.6517286e+2, -1248105.6, -1348853.5, -32979.957, 0.04176683, -0.10378892, -1238269.8, 83024.59, 0.000047750204, 10.000778, 9.999444 
1.4351268e+3, 1.7517266e+2, -1149513.3, -1244316.0, -12582.79, 0.04630144, -0.07797357, -1147871.5, 75425.68, 0.00000010052836, 10.000756, 9.999499 
1.4351167e+3, 1.8517175e+2, -1090112.9, -1230391.5, -9655.943, 0.016809821, -0.086441875, -1089451.4, 35855.375, 0.0, 10.000772, 9.998915 
1.4351064e+3, 1.951702e+2, -976452.5, -1117508.6, -19272.912, -0.04060905, -0.13968281, -973866.6, 53455.703, 0.0, 10.000848, 9.9989805 
1.4350964e+3, 2.0516942e+2, -868095.7, -983019.5, -24865.355, -0.034763645, -0.12812723, -862946.44, 66383.836, 0.0, 10.000784, 9.999261 
1.4350869e+3, 2.151694e+2, -793530.06, -891428.9, -7137.2153, 0.030013641, -0.063207805, -793012.5, 38318.086, 0.0, 10.000602, 9.999306 
1.435077e+3, 2.2516842e+2, -742431.9, -881649.25, -6303.365, 0.034647636, -0.058771085, -742147.06, -8806.808, 0.0, 10.000563, 9.998719 
1.4350665e+3, 2.3516661e+2, -625135.6, -767228.06, -26217.574, -0.016876703, -0.119440876, -620452.56, 14905.791, 0.0, 10.000665, 9.998782 
1.4350565e+3, 2.4516554e+2, -509270.6, -628263.2, -26024.416, -0.02954859, -0.116864145, -503827.84, 33541.063, 0.0, 10.000649, 9.99907 
1.4350468e+3, 2.5516522e+2, -425339.2, -530850.5, -10522.406, -0.005633514, -0.06330838, -424300.06, 15071.961, 0.0, 10.000526, 9.999125 
1.4350371e+3, 2.651643e+2, -347682.78, -480518.13, 3770.6245, 0.010555509, -0.05303992, -347575.8, -6194.4263, 0.0, 10.00055, 9.998786 
1.4350276e+3, 2.7516276e+2, -221183.11, -362695.2, 2689.673, 0.019242551, -0.09058359, -221132.02, 22264.107, 0.0, 10.000718, 9.998841 
1.4350179e+3, 2.8516132e+2, -145275.06, -311768.9, 15200.253, 0.010917544, -0.099263445, -143898.7, 1511.6349, 0.0, 10.000724, 9.998515 
1.4350083e+3, 2.9515997e+2, -68855.89, -221510.25, 15397.896, -0.0112970825, -0.093718074, -67318.23, -19894.234, 0.0, 10.000564, 9.998538 
1.4349994e+3, 3.0515882e+2, -60036.914, -209840.27, 15291.214, 0.046727978, -0.04914914, -58491.992, -58491.992, 0.0, 10.000366, 9.998381 
1.4349897e+3, 3.1515634e+2, 54069.566, 83659.11, 40508.04, 0.03710028, -0.14497666, 111989.586, 111989.586, 0.0, 10.000119, 10.000517 
1.4451745e+3, 1.2518364e+2, -1573217.4, -1708726.0, -2926.4763, -0.016782414, -0.12660319, -1573154.1, 140031.13, 0.011047917, 10.001259, 9.9994335 
1.445167e+3, 1.351825e+2, -1476101.6, -1539707.1, -2885.0845, 0.18311304, -0.23948465, -1475971.0, 139224.22, 0.00646129, 10.000932, 10.000085 
1.4451553e+3, 1.4518353e+2, -1459176.9, -1578705.4, -1405.827, -0.07980816, -0.10309939, -1459160.3, 58025.508, 0.0027186894, 10.0007925, 9.999205 
1.4451468e+3, 1.5518247e+2, -1358555.5, -1482190.1, 423.70364, 0.0038878124, -0.12857868, -1358554.0, 60645.105, 0.0006559602, 10.000822, 9.999179 
1.4451374e+3, 1.651819e+2, -1235832.6, -1325739.6, -17890.018, 0.04524326, -0.12193315, -1232403.6, 88802.56, 0.000052490832, 10.0007925, 9.999594 
1.4451276e+3, 1.7518197e+2, -1142612.0, -1224394.0, -24323.693, 0.044981267, -0.08156675, -1135924.5, 87281.33, 0.00000012546444, 10.000734, 9.999645 
1.4451174e+3, 1.851813e+2, -1087665.3, -1215804.6, -13347.178, 0.018663686, -0.079849504, -1086289.8, 38923.164, 0.0, 10.000732, 9.999033 
1.4451072e+3, 1.9517995e+2, -978636.6, -1105605.3, 4908.423, -0.03230974, -0.12552749, -978447.2, 48779.57, 0.0, 10.000779, 9.999094 
1.4450973e+3, 2.0517913e+2, -869167.9, -989478.7, -10917.224, -0.026414193, -0.12177775, -868185.25, 61049.758, 0.0, 10.000804, 9.9992075 
1.4450876e+3, 2.1517882e+2, -766545.94, -883918.1, -32285.37, 0.03364999, -0.07882324, -758251.44, 72986.18, 0.0, 10.000813, 9.999254 
1.4450777e+3, 2.2517785e+2, -721353.8, -874400.56, -27950.23, 0.03307268, -0.07092285, -716409.1, 16838.424, 0.0, 10.000721, 9.998692 
1.4450671e+3, 2.3517628e+2, -646598.94, -780794.44, -10961.947, -0.025907403, -0.10398207, -645709.4, -10445.384, 0.0, 10.000532, 9.998752 
1.445057e+3, 2.4517521e+2, -534930.9, -636722.3, -5560.75, -0.030942317, -0.101035215, -534628.0, 2646.5627, 0.0, 10.000456, 9.999105 
1.4450476e+3, 2.5517467e+2, -428930.03, -528826.25, -19398.104, 0.014753285, -0.07375344, -425295.5, 13983.76, 0.0, 10.0004835, 9.99916 
1.4450379e+3, 2.6517373e+2, -353732.75, -485612.44, -12975.531, 0.029478239, -0.06217467, -352468.25, -11179.675, 0.0, 10.000517, 9.998767 
1.445028e+3, 2.7517244e+2, -246542.25, -376036.38, -15045.479, 0.015344104, -0.071798176, -244817.14, -1515.6431, 0.0, 10.000549, 9.99883 
1.4450185e+3, 2.851711e+2, -160498.58, -306315.88, -3621.7905, 0.0010514223, -0.08243697, -160408.69, -15093.244, 0.0, 10.000565, 9.998629 
1.4450088e+3, 2.9516953e+2, -60774.094, -206053.53, 2239.1558, -0.011510836, -0.10809609, -60739.59, -13409.233, 0.0, 10.000568, 9.998642 
1.4449999e+3, 3.0516884e+2, -35562.375, -182829.17, -7210.3257, 0.053378448, -0.030191066, -35210.19, -35210.19, 0.0, 10.00047, 9.998516 
1.44499e+3, 3.1516626e+2, 68800.88, 78846.836, -6838.1094, 0.05358428, -0.15014254, 82308.555, 82308.555, 0.0, 10.000273, 10.000409 
1.4551759e+3, 1.251928e+2, -1594677.0, -1752808.9, -24285.367, -0.015846897, -0.1641966, -1591031.4, 122062.81, 0.011640448, 10.001251, 9.999136 
1.4551677e+3, 1.351921e+2, -1501060.0, -1592729.3, -14580.029, 0.15627539, -0.19675744, -1498796.9, 116305.47, 0.0068325973, 10.0009365, 9.999717 
1.455156e+3, 1.4519316e+2, -1439279.5, -1538530.8, -2234.2244, -0.079447225, -0.053835828, -1439229.3, 77863.31, 0.0028915813, 10.000798, 9.999478 
1.455148e+3, 1.5519142e+2, -1340353.9, -1443551.0, 1387.1768, 0.05898847, -0.17417637, -1340335.3, 78774.61, 0.00070428615, 10.00082, 9.999445 
1.4551385e+3, 1.6519058e+2, -1249178.3, -1354490.9, -21795.867, 0.065890834, -0.19610046, -1244845.6, 76273.484, 0.000058062662, 10.000794, 9.999397 
1.4551274e+3, 1.7519078e+2, -1154132.1, -1250135.8, -26326.629, -0.041390363, -0.12579525, -1147386.8, 75732.41, 0.00000016567238, 10.00074, 9.999468 
1.4551176e+3, 1.8519074e+2, -1052803.5, -1143355.9, -12814.767, -0.045777284, -0.078360066, -1051024.9, 74095.42, 0.0, 10.000731, 9.999532 
1.4551087e+3, 1.9519047e+2, -945252.5, -1036523.25, 6239.619, 0.041844133, -0.06364711, -944827.94, 82294.734, 0.0, 10.000779, 9.999569 
1.4550988e+3, 2.051894e+2, -908726.5, -1071331.3, -12225.358, 0.05144015, -0.07814638, -907812.44, 21321.064, 0.0, 10.000801, 9.998648 
1.4550881e+3, 2.1518765e+2, -804319.8, -962484.1, -31850.777, -0.0078559555, -0.12633157, -798146.75, 33004.99, 0.0, 10.000812, 9.998716 
1.4550778e+3, 2.251867e+2, -689000.56, -806348.56, -35622.258, -0.027536724, -0.11331968, -679033.56, 54127.87, 0.0, 10.000716, 9.999162 
1.4550677e+3, 2.3518653e+2, -614078.6, -713917.8, -17328.225, -0.011882813, -0.052258, -611156.6, 24006.242, 0.0, 10.000533, 9.999211 
1.4550579e+3, 2.451854e+2, -558052.3, -685416.3, -4514.7573, 0.004766132, -0.061805792, -557892.44, -20718.807, 0.0, 10.000457, 9.998772 
1.455048e+3, 2.551834e+2, -452384.53, -577429.56, -16988.195, 0.022153053, -0.14613579, -450117.66, -10924.975, 0.0, 10.000482, 9.998828 
1.4550383e+3, 2.6518232e+2, -355850.47, -489373.34, -10958.023, 0.020192064, -0.13271187, -354957.13, -13752.853, 0.0, 10.000513, 9.998743 
1.4550285e+3, 2.7518213e+2, -248280.44, -378748.34, -12141.223, -0.00057306647, -0.03242168, -247160.2, -3952.3208, 0.0, 10.000545, 9.998814 
1.4550191e+3, 2.851809e+2, -144401.83, -273063.34, -2638.9324, 0.0034340983, -0.036828034, -144347.73, 872.4387, 0.0, 10.000564, 9.998858 
1.4550099e+3, 2.9517865e+2, -46315.26, -176048.73, 4565.7173, 0.03338187, -0.15661845, -46154.78, 1086.3184, 0.0, 10.0005665, 9.99885 
1.4550006e+3, 3.0517837e+2, -43757.715, -200650.72, -13029.997, 0.084962144, -0.037689134, -42682.934, -42682.934, 0.0, 10.000472, 9.998393 
1.45499e+3, 3.151768e+2, 31162.129, 1930.9246, -15492.459, 0.024470676, -0.0487944, 37845.168, 37845.168, 0.0, 10.000266, 9.999885 
1.4651768e+3, 1.2520234e+2, -1662232.5, -1803922.5, -10203.947, -0.026853776, -0.18441169, -1661501.4, 51497.848, 0.012283001, 10.000861, 9.998972 
1.4651687e+3, 1.3520144e+2, -1463418.1, -1603905.4, 13327.667, 0.1451639, -0.20894414, -1462164.9, 152845.81, 0.00723705, 10.001325, 9.999452 
1.4651573e+3, 1.452025e+2, -1358294.5, -1491702.3, 11990.682, -0.075041115, -0.057015434, -1357225.4, 159776.06, 0.0030819494, 10.001327, 9.999543 
1.4651491e+3, 1.552008e+2, -1321347.8, -1426654.8, -1578.6948, 0.06396576, -0.18078573, -1321324.1, 97693.46, 0.0007585455, 10.000917, 9.999514 
1.4651392e+3, 1.6519995e+2, -1259798.5, -1361897.9, -17213.932, 0.07305445, -0.20670635, -1256974.3, 64052.258, 0.00006440502, 10.000733, 9.999374 
1.4651284e+3, 1.7520006e+2, -1153063.0, -1251694.5, -11049.987, -0.029799078, -0.14159133, -1151840.3, 71187.05, 0.00000022299002, 10.00076, 9.999445 
1.4651182e+3, 1.8520002e+2, -1064924.3, -1156839.5, -14453.514, -0.036032517, -0.08722979, -1062705.0, 62323.625, 0.0, 10.000684, 9.99946 
1.4651094e+3, 1.951999e+2, -987570.75, -1064402.1, -37913.953, 0.042524748, -0.05294152, -972012.06, 55018.457, 0.0, 10.000524, 9.999499 
1.4650995e+3, 2.0519884e+2, -939029.4, -1073367.9, -44465.473, 0.045208223, -0.06983281, -925645.0, 3396.475, 0.0, 10.00054, 9.998758 
1.4650887e+3, 2.1519697e+2, -811175.0, -953802.6, -16711.541, -0.02093732, -0.14104812, -809243.1, 21817.066, 0.0, 10.000714, 9.998822 
1.4650784e+3, 2.2519606e+2, -683291.6, -801139.1, -22154.182, -0.032829326, -0.12843129, -679264.5, 53804.76, 0.0, 10.000745, 9.999184 
1.4650685e+3, 2.3519614e+2, -596891.2, -702949.56, -38804.75, 0.004680367, -0.047398366, -584209.6, 50859.35, 0.0, 10.000641, 9.999234 
1.4650585e+3, 2.4519503e+2, -534063.1, -670392.6, -21619.127, 0.018293409, -0.055954598, -530716.9, 6362.538, 0.0, 10.000608, 9.998801 
1.4650485e+3, 2.551929e+2, -428079.66, -562285.9, -8168.194, 0.009309401, -0.15676798, -427584.34, 11515.061, 0.0, 10.000636, 9.998857 
1.4650387e+3, 2.6519176e+2, -342593.25, -482047.22, 11058.794, 0.0066774525, -0.14752172, -341721.72, -610.58496, 0.0, 10.000602, 9.998751 
1.4650291e+3, 2.7519166e+2, -252936.56, -380356.03, 10206.18, 0.009369742, -0.04090114, -252124.23, -9010.008, 0.0, 10.000509, 9.998819 
1.4650196e+3, 2.851905e+2, -163267.97, -277066.03, 13547.22, 0.021358717, -0.040972617, -161677.45, -16551.375, 0.0, 10.000412, 9.998903 
1.4650103e+3, 2.9518834e+2, -79737.21, -187000.88, 5527.045, 0.04540499, -0.15626916, -79453.17, -32306.814, 0.0, 10.000317, 9.998894 
1.4650011e+3, 3.051882e+2, -57072.17, -192332.75, -6977.1987, 0.08516687, -0.031830426, -56713.215, -56713.215, 0.0, 10.000318, 9.998523 
1.4649904e+3, 3.1518677e+2, 34161.645, -26760.135, 3139.8123, 0.023960095, -0.04379695, 34323.04, 34323.04, 0.0, 10.000418, 9.999612 
1.4751776e+3, 1.252123e+2, -1664079.9, -1808087.6, -1984.6116, -0.04882987, -0.18579578, -1664052.5, 48847.22, 0.012969934, 10.000861, 9.998944 
1.4751701e+3, 1.3521065e+2, -1475429.0, -1627409.9, 29774.531, 0.14237143, -0.27271616, -1469804.0, 145115.38, 0.0076708426, 10.001319, 9.999292 
1.4751586e+3, 1.4521165e+2, -1368583.5, -1514295.6, -4901.4453, -0.07566213, -0.10790184, -1368418.8, 148492.52, 0.0032881629, 10.001329, 9.999387 
1.4751495e+3, 1.5521061e+2, -1330323.9, -1446155.3, -16549.582, 0.019181559, -0.15072773, -1328005.8, 90916.08, 0.00081847684, 10.000919, 9.99938 
1.47514e+3, 1.6521e+2, -1249900.9, -1342182.5, -18122.8, 0.064719945, -0.15622213, -1246469.4, 74458.97, 0.000071419374, 10.000735, 9.999509 
1.4751302e+3, 1.7520984e+2, -1144477.1, -1234927.6, -10608.958, 0.07246608, -0.13000886, -1143249.5, 79680.55, 0.0000002932695, 10.000764, 9.999558 
1.4751197e+3, 1.8520926e+2, -1107859.3, -1247464.9, -21659.047, 0.039918393, -0.10558179, -1104576.1, 20361.322, 0.0, 10.000689, 9.998837 
1.4751092e+3, 1.952083e+2, -1028071.4, -1150665.8, -43240.465, -0.03097899, -0.092338875, -1014354.7, 12595.104, 0.0, 10.00053, 9.998905 
1.4750992e+3, 2.0520744e+2, -886710.0, -964738.2, -38399.902, -0.045868177, -0.0960978, -870982.4, 57975.9, 0.0, 10.000538, 9.999506 
1.4750896e+3, 2.1520676e+2, -760772.0, -848804.56, -10212.075, -0.008321624, -0.12369366, -759602.94, 71359.98, 0.0, 10.000711, 9.999545 
1.4750797e+3, 2.2520593e+2, -713866.94, -863758.6, -26890.572, 0.013805216, -0.11728679, -709188.75, 23782.283, 0.0, 10.00074, 9.998756 
1.4750692e+3, 2.3520505e+2, -625905.25, -762971.56, -41778.676, 0.020814488, -0.088028625, -614174.8, 20807.248, 0.0, 10.000639, 9.998824 
1.475059e+3, 2.4520409e+2, -507982.97, -615415.44, -20339.977, 0.0067724134, -0.08245999, -504260.97, 32730.707, 0.0, 10.000604, 9.999181 
1.4750487e+3, 2.552031e+2, -402280.53, -507803.2, -5948.039, -0.026742341, -0.10696442, -401946.3, 37053.227, 0.0, 10.000631, 9.999233 
1.4750391e+3, 2.6520208e+2, -339992.72, -476906.75, 8448.462, -0.013256824, -0.10842836, -339473.34, 1536.0667, 0.0, 10.000601, 9.998787 
1.47503e+3, 2.7520105e+2, -251403.11, -376705.44, 8638.345, 0.04215633, -0.09601642, -250810.39, -7789.8525, 0.0, 10.000505, 9.998847 
1.4750203e+3, 2.8519985e+2, -174205.84, -299352.6, 10710.9375, 0.05095734, -0.09246777, -173295.75, -28262.686, 0.0, 10.000409, 9.998752 
1.4750105e+3, 2.9519856e+2, -90945.19, -208951.03, 4111.824, 0.019682635, -0.10711409, -90802.086, -43755.652, 0.0, 10.00031, 9.998747 
1.4750011e+3, 3.0519825e+2, -28622.654, -133615.31, -2477.096, 0.050687533, -0.014605764, -28564.244, -28564.244, 0.0, 10.000317, 9.998927 
1.4749911e+3, 3.1519634e+2, 33831.758, -27915.844, 6972.903, 0.044377714, -0.11178579, 34609.387, 34609.387, 0.0, 10.000418, 9.999605 
1.4851783e+3, 1.2522215e+2, -1624938.1, -1779294.0, -18811.807, -0.05989731, -0.1699864, -1622678.6, 90125.01, 0.013700743, 10.001095, 9.999028 
1.4851713e+3, 1.3522027e+2, -1515400.0, -1650198.8, 27353.666, 0.14913048, -0.27539107, -1510060.8, 104764.375, 0.00813248, 10.001058, 9.999263 
1.4851598e+3, 1.4522123e+2, -1410508.9, -1537851.5, -12123.081, -0.06314257, -0.11179654, -1409365.0, 107452.72, 0.0035089266, 10.001056, 9.999357 
1.4851503e+3, 1.552205e+2, -1310229.5, -1438280.4, -15973.395, -0.002036872, -0.12453339, -1308267.0, 110558.85, 0.0008836724, 10.001068, 9.999361 
1.4851406e+3, 1.6521981e+2, -1218696.6, -1333149.5, -15034.061, 0.044096068, -0.12977253, -1216754.8, 104077.8, 0.00007901186, 10.000979, 9.999452 
1.485131e+3, 1.7521933e+2, -1140569.6, -1239621.4, -22966.092, 0.0830477, -0.13170375, -1135503.9, 87333.01, 0.00000037325287, 10.000819, 9.999499 
1.4851207e+3, 1.8521851e+2, -1095897.4, -1242662.1, -16071.267, 0.05543652, -0.12701036, -1094158.1, 30687.896, 0.0, 10.000775, 9.998828 
1.4851098e+3, 1.9521743e+2, -984114.7, -1129960.5, 5661.3184, -0.03637804, -0.12408609, -983895.25, 42964.01, 0.0, 10.000836, 9.9988985 
1.4850996e+3, 2.0521674e+2, -864591.06, -951644.44, 3122.7017, -0.054339882, -0.11383472, -864479.25, 64387.49, 0.0, 10.000682, 9.999525 
1.4850901e+3, 2.1521641e+2, -815312.0, -872914.6, -23266.518, -0.0035146696, -0.10578134, -807088.4, 23779.98, 0.0, 10.000329, 9.999563 
1.4850803e+3, 2.2521564e+2, -775865.7, -883814.94, -39678.266, 0.021763919, -0.10050114, -762850.56, -29974.318, 0.0, 10.000274, 9.998842 
1.4850698e+3, 2.3521449e+2, -641988.1, -761916.75, -18707.977, 0.021506436, -0.10636549, -639137.56, -4248.244, 0.0, 10.000492, 9.998901 
1.4850596e+3, 2.4521363e+2, -518903.78, -614894.0, 3459.2278, 0.008493693, -0.09722508, -518779.28, 18118.865, 0.0, 10.000505, 9.999231 
1.4850493e+3, 2.5521308e+2, -443145.66, -521916.28, -8888.552, -0.016059766, -0.082626514, -442155.13, -3252.7012, 0.0, 10.000328, 9.999282 
1.4850397e+3, 2.652121e+2, -375253.9, -480175.44, 184.40193, -0.0011879299, -0.08700463, -375253.56, -34342.14, 0.0, 10.000301, 9.998908 
1.4850305e+3, 2.752108e+2, -255875.64, -365586.22, 5829.031, 0.04832001, -0.117690556, -255566.8, -12642.493, 0.0, 10.00042, 9.998964 
1.4850208e+3, 2.8520963e+2, -169341.34, -297721.88, 14572.309, 0.048272263, -0.11648027, -167708.03, -22771.771, 0.0, 10.000448, 9.998743 
1.4850107e+3, 2.952087e+2, -80411.1, -205110.64, 16138.295, 0.006452903, -0.093251355, -78356.38, -31409.71, 0.0, 10.000389, 9.998734 
1.4850011e+3, 3.052081e+2, -3439.3828, -103930.23, 13340.133, 0.032626253, -0.033826392, -1698.6378, -1698.6378, 0.0, 10.000417, 9.999083 
1.4849916e+3, 3.152065e+2, 43738.82, -33447.74, 887.6352, 0.053276684, -0.11751687, 43749.027, 43749.027, 0.0, 10.000532, 9.999511 
1.4951794e+3, 1.2523197e+2, -1614375.5, -1756432.4, -31819.39, -0.064045385, -0.13496588, -1607573.9, 105135.766, 0.014485369, 10.001093, 9.9991865 
1.4951725e+3, 1.3523039e+2, -1512540.9, -1642180.6, 25996.3, 0.16450559, -0.21990275, -1507522.1, 107205.445, 0.008627366, 10.00105, 9.999321 
1.4951612e+3, 1.4523129e+2, -1403579.9, -1523409.5, -13666.933, -0.039485328, -0.06976714, -1402040.9, 114679.21, 0.0037456865, 10.001054, 9.999458 
1.4951512e+3, 1.5523045e+2, -1303487.6, -1424784.5, -16259.774, -0.0054940986, -0.101731636, -1301345.8, 117383.14, 0.0009542572, 10.001068, 9.9994545 
1.4951412e+3, 1.6522951e+2, -1235709.3, -1369675.4, -22560.146, 0.005728278, -0.12527134, -1232012.1, 88726.18, 0.00008722728, 10.000982, 9.999201 
1.495131e+3, 1.7522858e+2, -1156720.5, -1273803.1, -28832.814, 0.0046418165, -0.14674512, -1150005.3, 72741.836, 0.0000004647829, 10.00082, 9.999265 
1.495121e+3, 1.8522784e+2, -1056210.9, -1160019.5, -14955.205, 0.010787672, -0.15104754, -1054099.4, 70654.836, 0.0, 10.000772, 9.999397 
1.4951111e+3, 1.9522734e+2, -945978.0, -1051120.3, 7197.972, 0.021281924, -0.14813642, -945487.56, 81271.62, 0.0, 10.000836, 9.99944 
1.495101e+3, 2.052267e+2, -913361.75, -1052415.8, -11350.016, 0.013713625, -0.12352494, -912441.44, 16325.3955, 0.0, 10.000679, 9.998836 
1.4950904e+3, 2.1522596e+2, -861030.94, -968659.1, -35735.41, -0.008929018, -0.087616235, -850246.5, -19470.064, 0.0, 10.000331, 9.998905 
1.4950801e+3, 2.252252e+2, -736098.1, -801387.3, -31887.504, -0.011043301, -0.07896658, -723108.5, 9676.096, 0.0, 10.000274, 9.99941 
1.49507e+3, 2.3522444e+2, -603478.2, -681581.44, -10290.745, 0.0045799026, -0.10273541, -602145.06, 32645.813, 0.0, 10.000489, 9.9994545 
1.4950602e+3, 2.4522361e+2, -539762.2, -657897.5, -3125.78, 0.020949336, -0.10024999, -539679.56, -2880.6343, 0.0, 10.000503, 9.998938 
1.4950502e+3, 2.552228e+2, -463408.66, -563721.44, -14025.243, 0.03838045, -0.082672544, -461484.63, -22676.625, 0.0, 10.000325, 9.998996 
1.4950404e+3, 2.6522183e+2, -360919.2, -450275.9, 5130.9326, 0.039461825, -0.08271118, -360625.53, -19808.328, 0.0, 10.000299, 9.999114 
1.4950307e+3, 2.7522078e+2, -241505.77, -335385.34, 11795.017, 0.024176208, -0.106662445, -240046.52, 2779.2422, 0.0, 10.000418, 9.999173 
1.4950208e+3, 2.852197e+2, -160673.64, -280739.0, 13345.366, 0.010468675, -0.11411916, -159208.17, -14372.15, 0.0, 10.00045, 9.998859 
1.4950112e+3, 2.9521865e+2, -74220.914, -191187.48, 15955.001, 0.0008323853, -0.113608606, -72083.6, -25236.326, 0.0, 10.000382, 9.998835 
1.4950016e+3, 3.0521774e+2, -10468.355, -117393.28, 18011.623, 0.02573898, -0.08821166, -7515.807, -7515.807, 0.0, 10.000411, 9.998993 
1.4949921e+3, 3.1521723e+2, 32432.215, -56157.457, 8183.2813, 0.042517047, -0.055608567, 33181.785, 33181.785, 0.0, 10.000529, 9.999356 
1.5051807e+3, 1.2524153e+2, -1593799.3, -1724613.8, -50277.58, -0.039852224, -0.11728812, -1576708.4, 135909.8, 0.015336017, 10.001142, 9.999383 
1.5051731e+3, 1.3524014e+2, -1519522.6, -1633258.5, 20927.63, 0.1362685, -0.19438721, -1515794.1, 98838.664, 0.009162785, 10.00095, 9.99943 
1.5051618e+3, 1.452409e+2, -1428039.4, -1535663.6, -13983.667, -0.057133857, -0.062923625, -1426252.1, 90373.984, 0.0040015904, 10.000889, 9.999453 
1.5051524e+3, 1.5523997e+2, -1320051.6, -1432450.5, -26419.781, 0.014137782, -0.10475648, -1314151.4, 104484.76, 0.001031135, 10.000953, 9.999457 
1.5051423e+3, 1.6523904e+2, -1239341.3, -1369088.4, -30839.785, 0.018167133, -0.12878992, -1232384.0, 88261.4, 0.000096309515, 10.000946, 9.999223 
1.5051314e+3, 1.7523819e+2, -1148927.0, -1267047.8, -17952.957, -0.028167259, -0.14338413, -1146258.6, 76394.555, 0.000000575819, 10.000862, 9.99929 
1.5051214e+3, 1.8523759e+2, -1064411.5, -1154097.0, -11438.259, -0.015950205, -0.14122102, -1062975.8, 61683.273, 0.0, 10.000677, 9.999482 
1.505112e+3, 1.9523723e+2, -1001545.06, -1068950.8, -26307.62, 0.044562284, -0.13216987, -992493.1, 34169.36, 0.0, 10.000418, 9.999519 
1.5051018e+3, 2.0523654e+2, -957301.44, -1075303.1, -35019.613, 0.043909755, -0.11383607, -947691.25, -19020.88, 0.0, 10.000385, 9.998819 
1.5050909e+3, 2.1523562e+2, -830014.56, -955297.25, -11565.344, -0.011218926, -0.09493268, -828955.9, 1725.8724, 0.0, 10.000553, 9.99889 
1.5050805e+3, 2.2523487e+2, -694633.0, -775429.6, 133.73328, -0.022185337, -0.08747604, -694632.8, 38056.945, 0.0, 10.000534, 9.999461 
1.5050706e+3, 2.3523429e+2, -621387.6, -685035.1, -18276.783, 0.005904599, -0.09854009, -616512.75, 18181.412, 0.0, 10.000346, 9.999499 
1.5050606e+3, 2.4523349e+2, -570094.9, -684970.0, -22414.91, 0.032378204, -0.09039459, -565876.1, -29173.816, 0.0, 10.000351, 9.998824 
1.5050508e+3, 2.5523254e+2, -440795.34, -565172.2, -21860.96, 0.056712665, -0.074171394, -437064.88, 1648.5529, 0.0, 10.000536, 9.998884 
1.5050408e+3, 2.6523152e+2, -322115.78, -426311.0, -2755.3413, 0.052483097, -0.07712893, -322042.97, 18680.398, 0.0, 10.0005455, 9.99916 
1.505031e+3, 2.7523047e+2, -242357.58, -330683.75, -9857.822, 0.021328487, -0.10556112, -241270.75, 1460.8191, 0.0, 10.000392, 9.999217 
1.5050213e+3, 2.8522947e+2, -181005.73, -283681.4, -17831.186, 0.0075324774, -0.11009925, -177997.22, -33256.49, 0.0, 10.000283, 9.99892 
1.5050115e+3, 2.9522857e+2, -94095.89, -194073.45, -20582.4, 0.012380126, -0.09739461, -90024.4, -43274.42, 0.0, 10.000218, 9.998894 
1.5050018e+3, 3.0522725e+2, -39093.54, -133677.9, -9467.141, 0.020882456, -0.11581052, -38155.26, -38155.26, 0.0, 10.000226, 9.998971 
1.5049922e+3, 3.152272e+2, 6372.367, -58708.52, -15244.9375, 0.021533977, -0.03390426, 9766.428, 9766.428, 0.0, 10.000307, 9.999447 
1.5151824e+3, 1.2525097e+2, -1577420.4, -1687955.0, -69960.805, 0.011329838, -0.106624864, -1543530.5, 168997.23, 0.01625663, 10.001131, 9.999642 
1.5151735e+3, 1.3524963e+2, -1506798.8, -1607938.3, 14436.187, 0.062229495, -0.19719817, -1504778.5, 109761.375, 0.0097409645, 10.000955, 9.999602 
1.5151623e+3, 1.4525019e+2, -1435811.4, -1553619.4, -12500.026, -0.11914211, -0.08885582, -1434499.8, 82035.09, 0.0042781597, 10.0008955, 9.999327 
1.5151538e+3, 1.5524912e+2, -1327849.1, -1448481.3, -23743.703, 0.054541957, -0.13193333, -1323343.9, 95202.6, 0.0011151112, 10.000951, 9.99935 
1.5151438e+3, 1.6524844e+2, -1218854.8, -1326114.8, -35207.117, 0.07611213, -0.13879731, -1208330.9, 112222.36, 0.000106548556, 10.000942, 9.99952 
1.5151325e+3, 1.7524822e+2, -1129541.0, -1227010.9, -21621.99, -0.021600869, -0.12224402, -1124959.9, 97594.875, 0.0000007145684, 10.000861, 9.999566 
1.5151219e+3, 1.8524775e+2, -1091944.4, -1211638.8, -22279.662, -0.03048503, -0.09927878, -1087931.8, 36628.48, 0.0, 10.000677, 9.999088 
1.5151124e+3, 1.9524711e+2, -1026426.2, -1122443.4, -35553.06, 0.033396326, -0.077941984, -1014694.94, 11873.822, 0.0, 10.000423, 9.99915 
1.5151021e+3, 2.0524631e+2, -913061.44, -984532.94, -29501.11, 0.03603972, -0.08565961, -902457.56, 26119.375, 0.0, 10.000388, 9.999442 
1.5150914e+3, 2.1524543e+2, -788588.56, -868911.5, -5627.758, -0.013322102, -0.12671432, -788196.1, 42388.004, 0.0, 10.00055, 9.999485 
1.5150811e+3, 2.2524464e+2, -727870.4, -843100.1, -7835.913, -0.015663072, -0.12506895, -727340.0, 5251.704, 0.0, 10.000527, 9.999001 
1.5150711e+3, 2.3524404e+2, -652713.56, -750526.9, -24341.127, 0.023673877, -0.09361809, -646991.0, -12392.007, 0.0, 10.000347, 9.99905 
1.5150611e+3, 2.4524322e+2, -566258.56, -677487.7, -15211.567, 0.040189207, -0.06838521, -564215.75, -27607.516, 0.0, 10.000351, 9.998876 
1.5150511e+3, 2.552423e+2, -437456.2, -557751.06, -13855.519, 0.03620329, -0.05727601, -435880.94, 2737.715, 0.0, 10.000533, 9.998938 
1.5150414e+3, 2.6524112e+2, -331613.94, -445455.6, -7583.376, 0.035592597, -0.069993444, -331111.0, 9519.022, 0.0, 10.000543, 9.99903 
1.5150316e+3, 2.7523977e+2, -252256.2, -350477.5, -13563.601, 0.03704684, -0.11307301, -250417.6, -7775.8145, 0.0, 10.000388, 9.9990835 
1.5150218e+3, 2.8523886e+2, -180040.08, -281908.8, -19792.809, 0.03598938, -0.10292708, -176329.55, -31679.111, 0.0, 10.000282, 9.998933 
1.515012e+3, 2.9523847e+2, -92742.85, -191784.17, -21200.975, 0.036009904, -0.045263994, -88395.37, -41740.406, 0.0, 10.000219, 9.99891 
1.515002e+3, 3.052366e+2, -35779.813, -128644.805, -5408.569, 0.013576744, -0.118916586, -35465.875, -35465.875, 0.0, 10.000231, 9.999004 
1.5149921e+3, 3.1523627e+2, 31879.225, -4432.225, -6201.149, -0.019003127, -0.068282716, 32909.03, 32909.03, 0.0, 10.000299, 9.999825 
1.5251832e+3, 1.252608e+2, -1605716.5, -1703845.9, -26127.16, -0.0019305832, -0.120612904, -1599193.8, 113237.16, 0.017243471, 10.000947, 9.999619 
1.5251745e+3, 1.352595e+2, -1458885.3, -1593270.4, 48615.93, 0.06139042, -0.20358872, -1443142.0, 171300.6, 0.010359546, 10.001324, 9.999527 
1.5251634e+3, 1.4525981e+2, -1384883.4, -1540121.0, 4308.7656, -0.11058708, -0.10836179, -1384763.9, 131675.9, 0.0045741852, 10.001293, 9.999229 
1.5251546e+3, 1.552587e+2, -1350507.5, -1468697.5, -5815.937, 0.032069575, -0.14809114, -1350222.0, 68230.266, 0.0012060112, 10.000835, 9.999267 
1.5251444e+3, 1.6525808e+2, -1263816.1, -1343053.5, -18926.773, 0.061451036, -0.14762671, -1259527.4, 60931.31, 0.000118081814, 10.000616, 9.99956 
1.5251334e+3, 1.7525798e+2, -1159725.9, -1237830.4, -25679.482, 0.0055196164, -0.120775305, -1152039.4, 70419.75, 0.0000008766353, 10.000639, 9.999599 
1.525123e+3, 1.8525752e+2, -1095793.3, -1226169.3, -25340.307, -0.003035107, -0.09179387, -1091041.3, 33423.652, 0.0, 10.000704, 9.998977 
1.5251128e+3, 1.9525681e+2, -978894.2, -1111404.8, -18553.582, 0.02320255, -0.066654906, -976345.4, 50129.406, 0.0, 10.000802, 9.999044 
1.5251024e+3, 2.0525604e+2, -854512.9, -941003.25, -19638.639, 0.016839717, -0.07360555, -850262.56, 78219.98, 0.0, 10.000727, 9.999577 
1.5250918e+3, 2.1525526e+2, -786526.25, -854146.2, -33348.906, -0.016527308, -0.117120035, -772846.6, 57641.254, 0.0, 10.000505, 9.999607 
1.5250817e+3, 2.2525446e+2, -750833.25, -865793.94, -39656.992, -0.003937955, -0.11906283, -738480.44, -5984.8877, 0.0, 10.000422, 9.998895 
1.5250717e+3, 2.3525369e+2, -643403.44, -757130.75, -31643.307, 0.048131227, -0.09208243, -635192.0, -687.0722, 0.0, 10.000461, 9.998949 
1.5250616e+3, 2.4525282e+2, -538640.6, -650701.3, -1067.8785, 0.056666903, -0.07283765, -538630.44, -2116.0632, 0.0, 10.000485, 9.998995 
1.5250514e+3, 2.5525194e+2, -435617.6, -544335.1, 3628.533, 0.026019117, -0.06816022, -435496.63, 3026.6794, 0.0, 10.000493, 9.999048 
1.5250416e+3, 2.6525086e+2, -355403.47, -466191.75, 5102.827, 0.02184858, -0.07547737, -355168.94, -14634.673, 0.0, 10.000421, 9.998946 
1.5250319e+3, 2.7524957e+2, -275276.72, -370583.5, 1057.0457, 0.040614024, -0.10465749, -275265.0, -32718.264, 0.0, 10.00027, 9.999002 
1.5250221e+3, 2.8524873e+2, -185239.89, -279161.5, 4793.9883, 0.048013847, -0.08535818, -184995.83, -40440.832, 0.0, 10.000226, 9.998979 
1.5250123e+3, 2.9524845e+2, -80072.13, -180471.73, 3934.5608, 0.04701531, -0.020193452, -79918.17, -33360.313, 0.0, 10.000286, 9.998954 
1.5250023e+3, 3.0524626e+2, -58251.184, -154645.94, 10775.403, 0.012147529, -0.1203475, -57061.35, -57061.35, 0.0, 10.000146, 9.998865 
1.5249921e+3, 3.152457e+2, -20866.807, -2087.1487, -493.60257, -0.02106964, -0.078203276, -2074.1838, -2074.1838, 0.0, 9.99982, 10.000071 
1.5351835e+3, 1.2527111e+2, -1627451.9, -1750493.8, -25969.34, -0.0755484, -0.15566176, -1622195.4, 90131.77, 0.018292114, 10.000949, 9.999298 
1.5351765e+3, 1.3526973e+2, -1482130.6, -1642075.5, 62243.74, 0.12591958, -0.21356285, -1460762.8, 153578.19, 0.011016453, 10.001323, 9.999194 
1.5351655e+3, 1.4526984e+2, -1389218.3, -1548326.4, -14205.424, -0.039703336, -0.12068864, -1387959.9, 128380.875, 0.0048880493, 10.00129, 9.999175 
1.5351546e+3, 1.5526873e+2, -1353726.8, -1476090.6, -22867.813, -0.053634237, -0.15398937, -1349592.9, 68760.234, 0.0013030368, 10.000839, 9.999214 
1.5351442e+3, 1.6526796e+2, -1278193.6, -1375065.8, -19250.152, -0.026754368, -0.15530184, -1274508.5, 45852.926, 0.00013086536, 10.000624, 9.999338 
1.5351345e+3, 1.7526755e+2, -1173418.0, -1268246.8, -24516.475, 0.050801735, -0.13775156, -1167454.6, 54911.066, 0.0000010420176, 10.000646, 9.999389 
1.5351243e+3, 1.85267e+2, -1084569.6, -1203162.3, -22603.16, 0.06210955, -0.1163865, -1080407.6, 43964.723, 0.0, 10.000704, 9.999135 
1.5351135e+3, 1.952664e+2, -969457.6, -1091234.0, -15185.098, 0.01047585, -0.09695692, -967592.7, 58787.55, 0.0, 10.000798, 9.999186 
1.5351027e+3, 2.0526576e+2, -879364.3, -992216.0, -28800.156, -0.01754993, -0.07775583, -872439.3, 55947.805, 0.0, 10.000723, 9.9992285 
1.5350923e+3, 2.1526517e+2, -809620.44, -902809.2, -40722.96, -0.022451859, -0.06752618, -794332.7, 36059.91, 0.0, 10.000507, 9.999273 
1.5350822e+3, 2.2526431e+2, -734655.4, -832642.8, -38524.582, 0.010501626, -0.07050153, -721323.1, 11077.98, 0.0, 10.0004225, 9.999123 
1.5350725e+3, 2.3526327e+2, -627747.5, -724408.5, -29273.83, 0.07685203, -0.09377393, -619573.2, 14838.54, 0.0, 10.000459, 9.999176 
1.5350623e+3, 2.4526231e+2, -526794.2, -625137.06, -721.62164, 0.07885289, -0.10326074, -526788.94, 9631.811, 0.0, 10.00048, 9.999173 
1.535052e+3, 2.5526154e+2, -424396.53, -520813.1, 5262.717, 0.023880005, -0.10583818, -424110.13, 14317.283, 0.0, 10.000491, 9.999211 
1.535042e+3, 2.6526067e+2, -357784.47, -471686.34, 148.26143, 0.007883479, -0.09361471, -357784.28, -17348.1, 0.0, 10.000422, 9.998909 
1.5350321e+3, 2.752598e+2, -277257.22, -375271.84, -2668.1394, 0.027190661, -0.08266863, -277184.66, -34737.895, 0.0, 10.000271, 9.99897 
1.5350224e+3, 2.85259e+2, -181192.2, -270732.2, 7998.696, 0.038965076, -0.059229314, -180483.28, -36028.504, 0.0, 10.000226, 9.999038 
1.5350126e+3, 2.9525852e+2, -77160.47, -173573.83, 7971.892, 0.043025125, -0.018575389, -76505.766, -30047.152, 0.0, 10.000282, 9.999004 
1.5350023e+3, 3.0525625e+2, -78944.71, -197992.95, -881.4589, 0.01532754, -0.116989516, -78938.19, -78938.19, 0.0, 10.000145, 9.9985695 
1.5349923e+3, 3.1525517e+2, -10826.443, 18655.885, -4391.3237, 0.002218494, -0.09655435, 19296.06, 19296.06, 0.0, 9.999819, 10.000215 
1.5451847e+3, 1.2528133e+2, -1582863.0, -1723132.1, -59292.81, -0.06956532, -0.16000356, -1561158.0, 151068.92, 0.019402182, 10.00124, 9.999349 
1.5451775e+3, 1.3528001e+2, -1514152.4, -1655036.4, 65753.25, 0.11121065, -0.21382564, -1488232.8, 126007.086, 0.011713042, 10.001093, 9.999215 
1.5451667e+3, 1.4528003e+2, -1421287.0, -1570877.5, -7955.0444, -0.037652235, -0.12614352, -1420865.1, 95375.38, 0.005220401, 10.0011015, 9.99911 
1.5451555e+3, 1.5527903e+2, -1302393.0, -1458191.9, -19884.479, -0.057695363, -0.14445387, -1299895.3, 118356.84, 0.0014059248, 10.001222, 9.999153 
1.545145e+3, 1.6527817e+2, -1220319.3, -1369505.3, -14075.789, -0.03388363, -0.14130476, -1219002.8, 101258.77, 0.00014487762, 10.001116, 9.999141 
1.5451352e+3, 1.7527752e+2, -1163119.0, -1284801.5, -18287.643, 0.045737494, -0.12869193, -1160430.0, 61838.59, 0.000001197513, 10.000809, 9.999196 
1.545125e+3, 1.8527679e+2, -1086093.9, -1196403.0, -12148.988, 0.05703344, -0.117452666, -1084771.8, 39504.67, 0.0, 10.000664, 9.9992 
1.545114e+3, 1.9527611e+2, -984133.0, -1091871.0, -13154.137, 0.000035144407, -0.11288754, -982550.25, 43733.75, 0.0, 10.00067, 9.999241 
1.5451035e+3, 2.0527542e+2, -900965.75, -1021779.0, -28478.182, -0.020132955, -0.09267841, -894589.44, 33702.188, 0.0, 10.000659, 9.999056 
1.545093e+3, 2.1527481e+2, -802409.8, -917696.6, -28592.732, -0.0052918987, -0.06676124, -795708.0, 34590.637, 0.0, 10.000637, 9.999107 
1.545083e+3, 2.2527401e+2, -700273.44, -807105.8, -20784.385, 0.025907064, -0.059822723, -696372.25, 35934.63, 0.0, 10.000621, 9.999202 
1.545073e+3, 2.352731e+2, -600171.25, -702883.4, -23925.416, 0.070724085, -0.078518555, -594871.56, 39444.164, 0.0, 10.000613, 9.9992485 
1.5450628e+3, 2.4527213e+2, -526363.8, -619569.7, -10689.702, 0.07454868, -0.09579171, -525153.56, 11170.96, 0.0, 10.000462, 9.99922 
1.5450525e+3, 2.552712e+2, -466381.56, -535697.75, -16158.213, 0.041036822, -0.11741861, -462800.0, -24467.72, 0.0, 10.000181, 9.999258 
1.5450424e+3, 2.652704e+2, -398585.22, -486568.4, -16829.064, 0.026596615, -0.10254148, -395476.1, -55135.668, 0.0, 10.000122, 9.998951 
1.5450324e+3, 2.7526978e+2, -275170.16, -369758.53, -15237.066, 0.02967402, -0.06966658, -272776.25, -30427.422, 0.0, 10.000268, 9.999009 
1.5450224e+3, 2.8526896e+2, -181718.31, -264250.75, -5137.3013, 0.033427928, -0.05349746, -181399.77, -37042.71, 0.0, 10.0001955, 9.999097 
1.5450126e+3, 2.952682e+2, -128052.875, -191730.16, -7488.4063, 0.03781363, -0.045196667, -127184.09, -80820.98, 0.0, 9.999907, 9.999061 
1.5450023e+3, 3.0526623e+2, -135459.95, -234214.39, -7259.5366, 0.019014115, -0.111995585, -134929.16, -134929.16, 0.0, 9.999799, 9.998486 
1.5449923e+3, 3.1526506e+2, 10198.469, 53169.473, 7319.866, 0.020092903, -0.09584623, 54382.15, 54382.15, 0.0, 9.999862, 10.000429 
1.5551867e+3, 1.2529159e+2, -1557047.4, -1665655.3, -79789.98, 0.010625283, -0.12712625, -1514835.3, 197293.83, 0.020579461, 10.001226, 9.999753 
1.5551777e+3, 1.3529038e+2, -1489044.8, -1602904.5, 60267.49, 0.019776272, -0.20542751, -1463070.0, 151068.88, 0.012454377, 10.001096, 9.999572 
1.555167e+3, 1.4529046e+2, -1426600.6, -1584176.5, -4946.9316, -0.10368727, -0.12500247, -1426445.5, 89692.875, 0.005574592, 10.001108, 9.999017 
1.5551573e+3, 1.5528959e+2, -1307905.9, -1471321.9, -16173.7, 0.011458309, -0.12090665, -1306320.5, 111828.41, 0.001515748, 10.001226, 9.999062 
1.5551467e+3, 1.6528872e+2, -1232341.6, -1394702.1, -27281.357, 0.03149968, -0.10657367, -1227880.1, 92278.61, 0.00016035176, 10.001117, 9.998967 
1.5551355e+3, 1.7528787e+2, -1174885.9, -1309990.8, -29668.982, -0.010391035, -0.095462084, -1168657.6, 53509.98, 0.0000013687348, 10.000812, 9.9990225 
1.5551248e+3, 1.8528692e+2, -1088161.6, -1201736.6, -12688.201, -0.020083738, -0.09615239, -1086761.4, 37415.574, 0.0, 10.000666, 9.999163 
1.5551147e+3, 1.9528599e+2, -985897.0, -1096688.1, -12511.353, -0.009606109, -0.114120044, -984501.7, 41684.11, 0.0, 10.000673, 9.9992075 
1.5551044e+3, 2.0528504e+2, -901859.8, -1023743.6, -29967.21, 0.006370268, -0.11702804, -894890.4, 33305.34, 0.0, 10.000658, 9.999043 
1.555094e+3, 2.152842e+2, -804452.25, -920607.9, -29051.309, 0.030937519, -0.11345546, -797591.56, 32614.229, 0.0, 10.00063, 9.999092 
1.5550837e+3, 2.2528355e+2, -705621.9, -817225.8, -21575.309, 0.037841316, -0.08647893, -701596.1, 30616.793, 0.0, 10.000615, 9.999136 
1.5550731e+3, 2.3528315e+2, -605129.9, -713631.3, -23377.725, 0.028909152, -0.046898674, -600307.25, 33909.7, 0.0, 10.000613, 9.999176 
1.555063e+3, 2.4528223e+2, -532697.5, -633095.3, -20697.627, 0.0415516, -0.051698912, -528598.0, 7627.7515, 0.0, 10.000462, 9.999128 
1.555053e+3, 2.552809e+2, -472170.28, -548227.9, -24793.393, 0.07355407, -0.10469592, -464801.94, -26563.832, 0.0, 10.000182, 9.999173 
1.555043e+3, 2.6528e+2, -390152.84, -469108.75, -10605.536, 0.074405596, -0.10296574, -388753.1, -48505.953, 0.0, 10.000121, 9.999071 
1.5550329e+3, 2.7527955e+2, -267587.56, -354391.78, -7969.6167, 0.046072982, -0.06256554, -266861.94, -24609.146, 0.0, 10.000268, 9.999116 
1.5550226e+3, 2.8527862e+2, -177206.94, -255492.58, -14775.602, 0.028503219, -0.06665335, -174511.03, -30249.203, 0.0, 10.000196, 9.999157 
1.5550123e+3, 2.9527748e+2, -123329.586, -182519.05, -15981.693, 0.023049943, -0.105832286, -119290.06, -73018.04, 0.0, 9.9999075, 9.999125 
1.555002e+3, 3.052762e+2, -129506.445, -221605.36, -3807.533, 0.014849592, -0.11009401, -129349.3, -129349.3, 0.0, 9.999796, 9.998575 
1.5549922e+3, 3.1527513e+2, 27183.738, 87576.76, 17234.047, 0.02653094, -0.08502192, 92148.65, 92148.65, 0.0, 9.999865, 10.000666 
1.5651879e+3, 1.2530202e+2, -1573881.0, -1682148.3, -62863.52, 0.015653877, -0.10832714, -1545055.3, 166972.3, 0.02183582, 10.001148, 9.999675 
1.5651788e+3, 1.3530079e+2, -1461192.4, -1603460.6, 51618.645, -0.0037259785, -0.17949477, -1444437.1, 169601.08, 0.013248415, 10.001349, 9.999446 
1.5651684e+3, 1.4530067e+2, -1398118.3, -1576708.4, -31605.71, -0.099113025, -0.10724051, -1392689.9, 123349.53, 0.0059555885, 10.001333, 9.99896 
1.5651587e+3, 1.5529966e+2, -1326727.3, -1485591.6, -42400.164, 0.020417722, -0.1113495, -1316119.1, 101931.77, 0.0016345053, 10.0011215, 9.999013 
1.5651478e+3, 1.6529869e+2, -1235169.4, -1394931.9, -45872.535, 0.030631792, -0.10522817, -1222934.9, 97126.49, 0.00017771397, 10.001096, 9.998974 
1.5651362e+3, 1.752978e+2, -1113784.4, -1279919.0, -36914.06, -0.031032797, -0.10064735, -1105951.6, 116118.72, 0.0000016137079, 10.001231, 9.999025 
1.5651256e+3, 1.8529679e+2, -1029985.56, -1175910.6, -16359.874, -0.03141684, -0.106165595, -1028173.94, 95905.84, 0.0, 10.001076, 9.999142 
1.5651156e+3, 1.952958e+2, -987050.0, -1099674.6, -16640.666, 0.013086577, -0.12680054, -984642.75, 41446.11, 0.0, 10.000678, 9.999185 
1.5651052e+3, 2.0529485e+2, -927299.6, -1037755.75, -26692.736, 0.032351404, -0.12939253, -921187.3, 6911.574, 0.0, 10.000491, 9.999027 
1.5650946e+3, 2.1529399e+2, -826128.94, -933221.06, -26974.842, 0.03253661, -0.12322128, -819718.1, 10390.962, 0.0, 10.000492, 9.999072 
1.5650842e+3, 2.252933e+2, -718252.7, -822927.6, -14343.681, 0.029720921, -0.101310596, -716322.75, 15793.99, 0.0, 10.000529, 9.999137 
1.5650736e+3, 2.3529279e+2, -606831.0, -714764.8, -13754.7705, 0.023133665, -0.07326793, -605105.75, 29015.668, 0.0, 10.000605, 9.99917 
1.5650634e+3, 2.4529187e+2, -525716.6, -644704.44, -18314.807, 0.03976204, -0.0688269, -522961.38, 13169.104, 0.0, 10.000575, 9.998993 
1.5650533e+3, 2.552907e+2, -441572.44, -547785.1, -26357.316, 0.077669635, -0.094449475, -435391.44, 2751.3674, 0.0, 10.000456, 9.999043 
1.5650432e+3, 2.6528975e+2, -367807.78, -450373.9, -10820.159, 0.08494915, -0.09145896, -366413.38, -26261.295, 0.0, 10.000242, 9.999142 
1.565033e+3, 2.7528915e+2, -312356.4, -368519.78, -13330.114, 0.06388125, -0.07299257, -309353.16, -67194.91, 0.0, 9.99993, 9.999181 
1.5650228e+3, 2.8528818e+2, -225358.58, -277528.28, -22069.63, 0.040939633, -0.085381515, -217274.9, -73107.17, 0.0, 9.999861, 9.9991665 
1.5650122e+3, 2.9528707e+2, -106592.914, -172357.06, -28504.92, 0.017462885, -0.12019476, -95957.625, -49779.48, 0.0, 10.000015, 9.999141 
1.5650019e+3, 3.052864e+2, -120464.51, -209257.31, -22712.832, 0.015368824, -0.06857366, -114991.95, -114991.95, 0.0, 9.999825, 9.998647 
1.5649918e+3, 3.152851e+2, -56366.723, 44989.402, -2897.2708, 0.03385548, -0.07894192, 45072.156, 45072.156, 0.0, 9.999299, 10.000646 
1.5751885e+3, 1.2531269e+2, -1611224.3, -1761673.0, -69672.18, -0.04945153, -0.10218086, -1583916.1, 128005.83, 0.023184983, 10.001151, 9.999127 
1.5751804e+3, 1.3531122e+2, -1501420.0, -1689242.5, 58934.758, 0.032169275, -0.137242, -1484459.1, 129478.27, 0.014104312, 10.001354, 9.998856 
1.5751703e+3, 1.4531073e+2, -1400370.1, -1581497.6, -40935.137, -0.032480463, -0.07259706, -1391548.4, 124394.61, 0.006368667, 10.001333, 9.998927 
1.5751593e+3, 1.553093e+2, -1327577.8, -1488320.4, -49313.758, -0.029540898, -0.114820756, -1313654.9, 104302.49, 0.00176415, 10.001125, 9.998993 
1.5751483e+3, 1.6530816e+2, -1222354.4, -1369379.4, -41217.152, -0.03676177, -0.1342453, -1211587.9, 108380.6, 0.00019721544, 10.001099, 9.999148 
1.5751375e+3, 1.753073e+2, -1102830.4, -1256715.3, -32084.992, -0.020026863, -0.14243914, -1096408.6, 125567.43, 0.0000019795527, 10.001228, 9.9991865 
1.5751272e+3, 1.8530639e+2, -1032165.2, -1179617.8, -32258.215, 0.017913127, -0.14610553, -1025416.9, 98567.75, 0.0, 10.001071, 9.99912 
1.5751168e+3, 1.9530553e+2, -988901.8, -1103656.6, -31159.492, 0.06303404, -0.15117426, -980986.94, 45006.11, 0.0, 10.000677, 9.999158 
1.575106e+3, 2.0530477e+2, -928256.06, -1040369.25, -27142.969, 0.052917156, -0.1307113, -922030.4, 5970.8296, 0.0, 10.000492, 9.999009 
1.5750948e+3, 2.153042e+2, -826932.25, -935857.6, -26088.723, -0.001133129, -0.09702943, -821006.1, 9002.506, 0.0, 10.000494, 9.999053 
1.5750843e+3, 2.2530322e+2, -714630.3, -816023.5, -11646.635, 0.00054513785, -0.1043917, -713309.7, 18708.59, 0.0, 10.00053, 9.999186 
1.5750746e+3, 2.3530194e+2, -604026.56, -708791.75, -10394.328, 0.04995491, -0.15640745, -603005.25, 31023.96, 0.0, 10.000603, 9.999214 
1.5750644e+3, 2.4530102e+2, -538090.94, -670001.44, -22499.842, 0.06566362, -0.14572304, -534358.75, 1680.0651, 0.0, 10.000571, 9.998822 
1.5750536e+3, 2.5530055e+2, -453770.16, -572974.5, -29407.11, 0.051149726, -0.08552851, -446910.3, -8863.899, 0.0, 10.000453, 9.998872 
1.5750432e+3, 2.6529968e+2, -366691.2, -448161.34, -21253.342, 0.05555688, -0.06892101, -361480.1, -21424.57, 0.0, 10.000241, 9.999159 
1.5750332e+3, 2.7529857e+2, -310583.56, -366129.4, -22500.523, 0.07776728, -0.105457105, -302612.84, -60546.902, 0.0, 9.999934, 9.999197 
1.5750228e+3, 2.852976e+2, -228338.72, -284681.88, -15234.961, 0.065582745, -0.11255228, -224483.1, -80407.75, 0.0, 9.999864, 9.999117 
1.5750124e+3, 2.952971e+2, -108609.016, -178278.34, -21147.002, 0.019286409, -0.08361571, -102692.61, -56611.16, 0.0, 10.000021, 9.9991 
1.5750018e+3, 3.052969e+2, -115558.82, -199562.69, -41308.723, 0.018319352, 0.015641129, -98649.19, -98649.19, 0.0, 9.9998255, 9.998713 
1.574991e+3, 3.1529483e+2, -76423.81, 3041.1292, -18208.477, 0.027593203, -0.07544266, 7014.6973, 7014.6973, 0.0, 9.999299, 10.000359 
1.5851897e+3, 1.2532282e+2, -1582372.4, -1744691.5, -85937.49, -0.04314455, -0.12614088, -1545328.3, 166493.55, 0.024637632, 10.001348, 9.999147 
1.5851817e+3, 1.3532136e+2, -1500515.5, -1696838.9, 86544.11, 0.015074271, -0.1527636, -1467812.4, 146024.6, 0.01502948, 10.001401, 9.998779 
1.5851718e+3, 1.4532076e+2, -1392045.3, -1578341.8, -2486.781, -0.012359926, -0.09503572, -1392012.0, 123831.68, 0.0068178168, 10.0014, 9.998914 
1.5851605e+3, 1.5531938e+2, -1295698.3, -1473961.4, -11934.901, -0.02670361, -0.13333091, -1294902.8, 122955.03, 0.0019058621, 10.001351, 9.9989805 
1.5851495e+3, 1.6531824e+2, -1218761.4, -1372036.5, -10049.885, -0.033546552, -0.14934209, -1218105.3, 101763.875, 0.0002187055, 10.001143, 9.999108 
1.5851387e+3, 1.7531733e+2, -1166320.3, -1291908.3, -17888.916, 0.0037020969, -0.15580583, -1163821.9, 58055.58, 0.000002466339, 10.0008135, 9.999144 
1.5851283e+3, 1.8531649e+2, -1084438.6, -1209133.3, -26290.861, 0.03783517, -0.14956233, -1079122.0, 44763.727, 0.0, 10.000734, 9.999078 
1.5851174e+3, 1.9531576e+2, -963436.44, -1096191.0, -27291.668, 0.054756753, -0.13652492, -958044.8, 67848.24, 0.0, 10.000875, 9.999113 
1.5851064e+3, 2.0531496e+2, -873468.0, -1023232.7, -22328.186, 0.03699308, -0.11550544, -870210.0, 57691.75, 0.0, 10.000912, 9.998923 
1.5850954e+3, 2.1531413e+2, -779230.06, -922351.56, -28607.314, -0.0062094573, -0.09678588, -773723.8, 56187.383, 0.0, 10.000865, 9.998966 
1.585085e+3, 2.2531305e+2, -686220.5, -804506.25, -20072.48, 0.0022229154, -0.108495384, -682907.1, 49014.664, 0.0, 10.000735, 9.999166 
1.5850753e+3, 2.353118e+2, -614690.9, -715831.94, -24475.5, 0.054795854, -0.15546222, -609079.3, 24853.375, 0.0, 10.000539, 9.999196 
1.5850647e+3, 2.4531098e+2, -567196.44, -679479.0, -33398.633, 0.06699389, -0.13840726, -558013.06, -22071.26, 0.0, 10.000355, 9.99886 
1.5850538e+3, 2.553106e+2, -491682.78, -587569.6, -26725.732, 0.042194106, -0.06969997, -484736.9, -46788.516, 0.0, 10.000178, 9.998903 
1.5850432e+3, 2.6530975e+2, -391516.72, -461425.66, -12599.705, 0.04358501, -0.054824453, -389315.22, -49357.73, 0.0, 10.000077, 9.9991455 
1.5850331e+3, 2.7530846e+2, -295651.8, -359748.75, -17327.2, 0.07051782, -0.102307506, -291267.66, -49298.95, 0.0, 10.000043, 9.9991865 
1.5850225e+3, 2.8530753e+2, -234218.19, -286822.47, -6120.699, 0.06297703, -0.110902414, -233515.4, -89537.086, 0.0, 9.999823, 9.999121 
1.585012e+3, 2.9530707e+2, -194840.02, -218293.45, -9986.691, 0.02049648, -0.07405908, -191163.81, -145179.84, 0.0, 9.999425, 9.99911 
1.5850015e+3, 3.053071e+2, -170716.61, -197847.86, -22573.367, 0.034040865, 0.031396706, -157946.27, -157946.27, 0.0, 9.999327, 9.998963 
1.5849906e+3, 3.153049e+2, -58473.605, -1675.435, 11139.506, 0.036839113, -0.09722527, 431.16174, 431.16174, 0.0, 9.999482, 10.000236 
1.5951918e+3, 1.2533261e+2, -1546042.5, -1668315.3, -93088.86, 0.026674472, -0.17015703, -1495809.3, 215915.73, 0.026202215, 10.001348, 9.999678 
1.5951824e+3, 1.3533132e+2, -1472500.9, -1639526.6, 88054.09, -0.05426438, -0.22301379, -1434655.1, 179081.22, 0.016029086, 10.001406, 9.999173 
1.595173e+3, 1.4533083e+2, -1392157.5, -1579070.6, -6505.0894, -0.039461263, -0.17060456, -1391931.4, 123809.81, 0.007305444, 10.001401, 9.998909 
1.5951623e+3, 1.5532987e+2, -1297393.0, -1477142.3, -14627.983, 0.023097105, -0.16637032, -1296210.4, 121541.79, 0.002060233, 10.001349, 9.998961 
1.5951513e+3, 1.6532889e+2, -1236159.5, -1409158.1, -24139.748, 0.033009585, -0.1513068, -1232854.3, 86908.92, 0.00024185247, 10.001146, 9.998853 
1.59514e+3, 1.753279e+2, -1182179.6, -1327728.1, -29759.797, 0.035628043, -0.14208393, -1176329.9, 45444.46, 0.0000030340082, 10.000825, 9.998894 
1.5951289e+3, 1.8532708e+2, -1086919.4, -1216620.5, -21733.66, 0.024475543, -0.11721095, -1083374.4, 40408.684, 0.0, 10.000743, 9.999023 
1.5951177e+3, 1.953265e+2, -967364.44, -1105310.0, -21779.39, -0.010717066, -0.083961844, -964007.5, 61781.305, 0.0, 10.000878, 9.999049 
1.5951069e+3, 2.0532537e+2, -885958.7, -1049360.8, -24610.377, -0.01504665, -0.08418172, -882332.56, 45468.008, 0.0, 10.000911, 9.998746 
1.5950964e+3, 2.1532379e+2, -792377.5, -948272.0, -29918.422, 0.012725479, -0.121794365, -786832.94, 42983.926, 0.0, 10.000857, 9.998793 
1.595086e+3, 2.253228e+2, -692484.5, -816426.4, -27684.195, 0.029633528, -0.11330058, -686581.94, 45245.438, 0.0, 10.000729, 9.999087 
1.5950754e+3, 2.3532236e+2, -619823.7, -726119.44, -30408.475, 0.035531837, -0.072633676, -611739.44, 22092.617, 0.0, 10.000536, 9.999127 
1.5950648e+3, 2.4532168e+2, -551733.6, -647466.56, -39394.266, 0.041446723, -0.04919981, -537607.3, -1767.5963, 0.0, 10.000353, 9.999083 
1.5950541e+3, 2.5532082e+2, -476286.63, -556253.6, -31516.988, 0.047600925, -0.04863972, -465358.44, -27509.223, 0.0, 10.000179, 9.99912 
1.5950434e+3, 2.6531988e+2, -394485.28, -468330.06, -13010.22, 0.04653232, -0.04897809, -392260.16, -52401.785, 0.0, 10.000078, 9.999098 
1.5950328e+3, 2.7531895e+2, -298800.84, -366764.78, -17084.242, 0.038527805, -0.060981255, -294748.03, -52881.184, 0.0, 10.000043, 9.999139 
1.5950221e+3, 2.8531787e+2, -230156.77, -278787.94, -19978.729, 0.028595334, -0.07996859, -223001.78, -79124.63, 0.0, 9.999823, 9.999177 
1.5950114e+3, 2.9531696e+2, -189632.97, -208905.42, -22193.848, 0.014291297, -0.097974636, -175073.67, -129186.71, 0.0, 9.999429, 9.999174 
1.5950009e+3, 3.053169e+2, -142116.11, -138377.56, -15631.053, 0.056049503, -0.0259632, -124504.414, -124504.414, 0.0, 9.999325, 9.999373 
1.5949903e+3, 3.1531543e+2, -57053.063, -277.8209, 15686.74, 0.0584005, -0.12046643, 3768.0415, 3768.0415, 0.0, 9.999487, 10.000244 
1.6051935e+3, 1.2534298e+2, -1511232.9, -1632214.8, -71096.8, 0.049472317, -0.18696584, -1478375.5, 233247.58, 0.027890507, 10.0015135, 9.999849 
1.6051836e+3, 1.3534197e+2, -1476244.6, -1633905.9, 85852.05, -0.0725632, -0.2197848, -1438521.1, 175110.06, 0.017110147, 10.001349, 9.999239 
1.6051745e+3, 1.453413e+2, -1415280.1, -1593286.4, -18459.945, -0.014468432, -0.18553586, -1413386.0, 102251.5, 0.007835286, 10.001258, 9.998879 
1.6051637e+3, 1.5534034e+2, -1310652.5, -1486891.4, -29496.115, 0.02955679, -0.178714, -1305847.0, 111801.5, 0.0022287087, 10.001276, 9.998927 
1.6051523e+3, 1.653394e+2, -1215209.0, -1418750.3, -37490.688, 0.025600389, -0.14923468, -1208523.1, 111136.68, 0.00026665046, 10.00138, 9.998671 
1.6051412e+3, 1.7533849e+2, -1087010.8, -1301348.5, -39758.46, 0.023637757, -0.114239186, -1079873.4, 141797.73, 0.0000036433328, 10.001567, 9.998714 
1.6051298e+3, 1.8533756e+2, -992362.06, -1182689.6, -33181.984, 0.014405461, -0.08690393, -986742.94, 136938.56, 0.0, 10.001445, 9.998917 
1.6051185e+3, 1.9533668e+2, -948833.2, -1107969.6, -38398.47, -0.016788624, -0.07178145, -940052.44, 85637.63, 0.0, 10.001058, 9.998943 
1.6051076e+3, 2.0533542e+2, -903710.4, -1049070.4, -33131.945, -0.0145421475, -0.08343354, -896514.8, 31187.777, 0.0, 10.000752, 9.998823 
1.6050972e+3, 2.1533388e+2, -836357.7, -961466.25, -20484.299, 0.022822145, -0.12613402, -833089.1, -3371.322, 0.0, 10.000523, 9.998862 
1.6050865e+3, 2.2533293e+2, -746491.94, -852177.75, -8176.3164, 0.038093563, -0.11022426, -745863.1, -14135.199, 0.0, 10.0004015, 9.998998 
1.6050759e+3, 2.353326e+2, -649310.2, -749983.56, -14515.164, 0.030636227, -0.050636806, -647259.2, -13526.513, 0.0, 10.000377, 9.99904 
1.605065e+3, 2.4533188e+2, -554498.94, -635080.6, -29860.193, 0.030830685, -0.0315013, -544640.2, -8899.67, 0.0, 10.000277, 9.999204 
1.6050541e+3, 2.553309e+2, -477947.8, -543240.6, -30562.32, 0.039038613, -0.055806138, -465874.6, -28124.293, 0.0, 10.000112, 9.99924 
1.6050433e+3, 2.6533002e+2, -412553.2, -465713.66, -8117.9375, 0.042240813, -0.061885398, -411341.16, -71582.58, 0.0, 9.999909, 9.999195 
1.6050325e+3, 2.753293e+2, -346027.6, -379601.16, -3242.6045, 0.039518278, -0.061859958, -345717.28, -103952.25, 0.0, 9.999678, 9.999226 
1.6050218e+3, 2.853283e+2, -272422.13, -297388.8, -6191.4004, 0.03059711, -0.077039585, -270971.1, -127196.67, 0.0, 9.999527, 9.99919 
1.6050108e+3, 2.9532737e+2, -188521.63, -205350.11, -13305.476, 0.014968874, -0.09933511, -181193.08, -135408.88, 0.0, 9.999426, 9.999198 
1.6050003e+3, 3.05327e+2, -132017.58, -120158.54, -6535.939, 0.06398022, -0.064318866, -117263.22, -117263.22, 0.0, 9.999338, 9.999491 
1.6049898e+3, 3.1532592e+2, -94298.195, -27979.406, -6364.731, 0.06746459, -0.13035373, -27374.098, -27374.098, 0.0, 9.999277, 10.000153 
1.6151947e+3, 1.2535404e+2, -1522912.0, -1658273.8, -78812.92, 0.024012946, -0.17294863, -1486707.4, 224807.75, 0.029721467, 10.001523, 9.999662 
1.6151851e+3, 1.3535333e+2, -1492819.1, -1671096.9, 78948.734, -0.04541172, -0.14634079, -1462883.9, 150637.38, 0.018286213, 10.001359, 9.998979 
1.6151765e+3, 1.4535223e+2, -1418292.9, -1600919.1, -20266.906, 0.05546269, -0.14194421, -1416070.8, 99461.27, 0.008415702, 10.001263, 9.998825 
1.6151647e+3, 1.5535085e+2, -1313643.6, -1494930.4, -28482.348, -0.008446127, -0.1721969, -1309274.0, 108272.31, 0.0024150638, 10.001283, 9.99887 
1.615153e+3, 1.6534983e+2, -1222992.1, -1435672.3, -31614.568, -0.05619274, -0.14263082, -1218392.3, 101166.055, 0.0002938315, 10.001382, 9.998555 
1.6151421e+3, 1.7534913e+2, -1096637.0, -1320293.8, -33019.45, -0.03118399, -0.07277035, -1091864.1, 129703.66, 0.000004294035, 10.00156, 9.998589 
1.6151312e+3, 1.8534791e+2, -1005227.2, -1207711.9, -48358.95, 0.0051727486, -0.058764312, -994270.6, 129310.38, 0.0, 10.001436, 9.99875 
1.6151202e+3, 1.9534633e+2, -960107.5, -1130923.0, -52058.29, 0.030352881, -0.09833713, -945492.5, 80104.016, 0.0, 10.001055, 9.998788 
1.6151088e+3, 2.0534514e+2, -880882.75, -1002041.06, -42057.836, 0.031819202, -0.111196816, -867714.4, 59893.254, 0.0, 10.0007515, 9.999146 
1.6150977e+3, 2.1534437e+2, -814365.5, -916342.9, -27760.465, 0.022082325, -0.11017026, -807298.25, 22315.932, 0.0, 10.000524, 9.999172 
1.615087e+3, 2.2534347e+2, -755199.1, -870841.3, -9237.728, 0.025536919, -0.09893308, -754465.8, -22842.26, 0.0, 10.000402, 9.998871 
1.6150764e+3, 2.3534252e+2, -657901.6, -768007.44, -14479.093, 0.037613865, -0.08746174, -656029.44, -22394.76, 0.0, 10.000376, 9.998918 
1.6150653e+3, 2.453416e+2, -553623.56, -632632.5, -35580.836, 0.03246775, -0.08295708, -539962.25, -4317.786, 0.0, 10.000272, 9.999223 
1.615054e+3, 2.553408e+2, -476489.44, -539591.1, -34933.34, 0.0125378035, -0.08997322, -460968.06, -23316.043, 0.0, 10.000107, 9.999268 
1.6150431e+3, 2.6534012e+2, -396898.13, -433598.44, -15749.74, 0.026193548, -0.0932449, -391066.0, -51407.465, 0.0, 9.999909, 9.999417 
1.6150326e+3, 2.7533945e+2, -330470.03, -349172.3, -9653.749, 0.06997602, -0.106402114, -326380.97, -84716.89, 0.0, 9.999683, 9.999433 
1.6150217e+3, 2.8533876e+2, -274878.78, -303479.38, -9182.767, 0.066026546, -0.10254061, -272184.34, -128513.47, 0.0, 9.99953, 9.999148 
1.6150102e+3, 2.953382e+2, -190823.22, -210989.17, -15656.508, 0.017096624, -0.075817004, -182283.83, -136607.47, 0.0, 9.999428, 9.999159 
1.6149996e+3, 3.0533734e+2, -143799.16, -145575.4, -8410.955, 0.051727135, -0.08185282, -136229.58, -136229.58, 0.0, 9.999341, 9.999315 
1.614989e+3, 3.1533638e+2, -105735.79, -52419.48, -13919.72, 0.05920872, -0.12332001, -49004.125, -49004.125, 0.0, 9.999279, 9.999985 
1.6251963e+3, 1.2536487e+2, -1488426.3, -1671935.5, -83194.22, 0.022257537, -0.16460536, -1456325.4, 255084.03, 0.031719536, 10.001907, 9.999379 
1.6251867e+3, 1.3536431e+2, -1454849.9, -1682378.8, 62738.664, -0.05078521, -0.09827547, -1438697.0, 174718.27, 0.019575521, 10.001755, 9.99871 
1.6251783e+3, 1.4536275e+2, -1369688.9, -1578754.3, -28195.3, 0.10082496, -0.12422728, -1365953.0, 149477.47, 0.009057564, 10.001608, 9.99881 
1.625166e+3, 1.5536125e+2, -1271355.3, -1475555.5, -35268.184, -0.020286314, -0.16486838, -1265435.5, 152009.72, 0.002624381, 10.001582, 9.998857 
1.6251542e+3, 1.6536017e+2, -1215163.1, -1423685.9, -31859.832, -0.0786794, -0.14400819, -1210403.9, 109053.03, 0.00032476612, 10.001403, 9.998627 
1.6251436e+3, 1.7535946e+2, -1161444.0, -1344192.5, -20770.723, -0.017846493, -0.08331588, -1159112.9, 62352.984, 0.000005034694, 10.001085, 9.998652 
1.6251326e+3, 1.8535815e+2, -1081809.3, -1248851.9, -28496.916, 0.025697472, -0.0784261, -1077081.5, 46398.26, 0.0, 10.000931, 9.99871 
1.6251211e+3, 1.9535644e+2, -982505.2, -1145390.1, -24153.428, 0.030272812, -0.12626079, -978999.06, 46497.81, 0.0, 10.000918, 9.998753 
1.6251098e+3, 2.0535538e+2, -858099.75, -983376.56, -17306.008, 0.028677877, -0.12923072, -855753.0, 71754.06, 0.0, 10.000876, 9.999214 
1.6250984e+3, 2.1535492e+2, -769282.25, -887252.2, -23822.223, 0.030511342, -0.1030261, -764653.3, 64857.19, 0.0, 10.000802, 9.999237 
1.6250874e+3, 2.2535405e+2, -727191.0, -848621.9, -7659.088, 0.029920833, -0.095476136, -726709.9, 4809.399, 0.0, 10.000559, 9.998947 
1.6250764e+3, 2.3535289e+2, -682467.4, -771794.9, 958.09064, 0.02430629, -0.11242676, -682457.06, -48925.285, 0.0, 10.000174, 9.998987 
1.6250654e+3, 2.4535191e+2, -604585.25, -658822.8, -11710.386, 0.02355976, -0.11646197, -602164.9, -66622.85, 0.0, 9.999931, 9.999206 
1.6250539e+3, 2.5535122e+2, -520626.1, -562759.75, -16043.507, 0.025541477, -0.11354665, -515212.66, -77663.66, 0.0, 9.999813, 9.9992485 
1.625043e+3, 2.653506e+2, -428160.6, -447688.25, -7800.0483, 0.038092453, -0.10361419, -425427.5, -85872.72, 0.0, 9.999691, 9.999425 
1.6250323e+3, 2.7535012e+2, -350054.0, -356951.03, -18540.988, 0.062658824, -0.10244838, -334643.56, -93084.05, 0.0, 9.999544, 9.999445 
1.625021e+3, 2.8534946e+2, -290479.25, -310071.13, -19367.008, 0.05444053, -0.09724309, -278571.7, -135005.52, 0.0, 9.999421, 9.999153 
1.6250095e+3, 2.9534885e+2, -206882.78, -217853.23, -25048.299, 0.012625833, -0.07778331, -186726.14, -141154.17, 0.0, 9.999316, 9.999164 
1.6249987e+3, 3.0534774e+2, -185145.27, -167387.05, -12510.731, 0.045180388, -0.105849765, -160924.81, -160924.81, 0.0, 9.999064, 9.999299 
1.624988e+3, 3.153474e+2, -179209.39, -68267.27, -13606.89, 0.06984319, -0.07942677, -66622.78, -66622.78, 0.0, 9.998688, 10.000162 
1.6351983e+3, 1.253757e+2, -1512583.3, -1724062.5, -77215.87, 0.03359816, -0.1500704, -1487391.0, 223912.78, 0.03390636, 10.001916, 9.999015 
1.635188e+3, 1.353749e+2, -1472881.0, -1722613.8, 56924.457, -0.091014415, -0.07637625, -1460517.6, 152795.2, 0.020992927, 10.001764, 9.998429 
1.6351801e+3, 1.4537294e+2, -1369082.4, -1577652.6, -31412.865, 0.11673108, -0.13195771, -1364454.0, 150878.28, 0.009768749, 10.001608, 9.998818 
1.6351676e+3, 1.5537159e+2, -1271255.6, -1474923.5, -35561.367, -0.009697272, -0.15560198, -1265225.0, 152119.6, 0.0028602842, 10.001577, 9.998865 
1.6351558e+3, 1.6537046e+2, -1198533.6, -1387713.8, -44085.406, -0.048151933, -0.15214676, -1188764.8, 130590.73, 0.00036087315, 10.001395, 9.998878 
1.6351454e+3, 1.7536949e+2, -1144904.3, -1310115.8, -31650.006, 0.05683192, -0.1434074, -1139048.6, 82316.87, 0.000005927034, 10.001085, 9.998887 
1.6351339e+3, 1.853683e+2, -1075755.6, -1237095.0, -29253.846, 0.06994457, -0.14339325, -1070615.1, 52762.77, 0.0, 10.000933, 9.99879 
1.6351216e+3, 1.9536704e+2, -977258.2, -1135346.4, -23720.406, -0.017287578, -0.15497167, -973775.75, 51615.47, 0.0, 10.00092, 9.998821 
1.63511e+3, 2.053661e+2, -871464.6, -1011132.56, -20273.668, -0.024637664, -0.13762833, -868581.25, 58819.742, 0.0, 10.000875, 9.999025 
1.6350994e+3, 2.1536553e+2, -782302.5, -913707.3, -26064.418, 0.04518929, -0.10442918, -777321.4, 52085.598, 0.0, 10.000798, 9.999059 
1.6350882e+3, 2.2536469e+2, -708788.56, -809557.44, -22334.533, 0.04739953, -0.099176235, -704060.2, 27354.916, 0.0, 10.000553, 9.999219 
1.6350763e+3, 2.3536369e+2, -664609.0, -734624.2, -11895.074, -0.011904741, -0.12623455, -662643.3, -29218.969, 0.0, 10.000172, 9.999244 
1.6350651e+3, 2.4536279e+2, -609578.94, -669538.3, -15603.054, 0.00059233315, -0.13213646, -605761.6, -70328.09, 0.0, 9.99993, 9.999134 
1.6350543e+3, 2.5536203e+2, -525479.44, -574281.0, -18718.088, 0.07511336, -0.12654395, -519126.9, -81685.086, 0.0, 9.999817, 9.999169 
1.635043e+3, 2.6536155e+2, -442399.53, -477908.03, -12492.683, 0.07517871, -0.09323851, -438444.78, -98996.88, 0.0, 9.999692, 9.999217 
1.6350313e+3, 2.7536127e+2, -363451.56, -385694.94, -22206.766, 0.012412091, -0.050020766, -349737.13, -108285.22, 0.0, 9.999547, 9.999247 
1.6350198e+3, 2.853603e+2, -286176.63, -302809.38, -22514.424, -0.0096650105, -0.06160603, -270491.72, -127030.58, 0.0, 9.999426, 9.999202 
1.6350088e+3, 2.9535916e+2, -202622.06, -211087.53, -27345.748, -0.0027820263, -0.10618596, -179183.4, -133711.4, 0.0, 9.999322, 9.999208 
1.6349979e+3, 3.053581e+2, -175774.69, -147741.0, -26731.184, 0.040890522, -0.13536848, -131574.61, -131574.61, 0.0, 9.9990635, 9.999434 
1.634987e+3, 3.1535888e+2, -142169.98, 9132.005, -29811.291, 0.09503567, -0.013074781, 14793.9, 14793.9, 0.0, 9.998686, 10.000694 
1.645201e+3, 1.253866e+2, -1451316.8, -1714336.3, -49669.555, 0.082557626, -0.14851475, -1442249.5, 268947.6, 0.036291655, 10.00245, 9.998819 
1.6451895e+3, 1.3538547e+2, -1430470.9, -1703952.1, 77648.73, -0.1318622, -0.10290595, -1409962.3, 203246.55, 0.022544228, 10.002074, 9.998408 
1.6451819e+3, 1.4538331e+2, -1362032.5, -1570509.6, 3697.6145, 0.1255746, -0.17748047, -1361966.9, 153263.08, 0.010552243, 10.001641, 9.998851 
1.6451694e+3, 1.5538257e+2, -1309230.9, -1490121.5, 1717.367, 0.0230687, -0.14529136, -1309214.5, 108022.41, 0.0031239854, 10.001304, 9.998892 
1.6451573e+3, 1.6538149e+2, -1233326.8, -1397554.5, -11759.086, -0.02257469, -0.14237449, -1232489.0, 86758.18, 0.0004029895, 10.001127, 9.998938 
1.6451463e+3, 1.7538007e+2, -1140101.3, -1300563.9, -13687.64, 0.054132055, -0.1830928, -1138942.1, 82318.53, 0.0000070009137, 10.001089, 9.998949 
1.6451348e+3, 1.8537898e+2, -1049235.1, -1215842.5, -10647.682, 0.06124605, -0.17906533, -1048557.44, 74714.45, 0.0, 10.00108, 9.998863 
1.6451226e+3, 1.9537829e+2, -948060.8, -1114246.0, -7319.662, -0.0168098, -0.14069296, -947739.0, 77541.14, 0.0, 10.001092, 9.998883 
1.645111e+3, 2.0537739e+2, -878046.2, -1031106.56, -9653.944, -0.021498585, -0.11655263, -877439.7, 49850.57, 0.0, 10.000904, 9.998873 
1.6451001e+3, 2.1537635e+2, -829199.1, -952515.2, -14319.887, 0.04632449, -0.11330487, -827558.06, 1743.132, 0.0, 10.000548, 9.998911 
1.6450885e+3, 2.2537546e+2, -740471.06, -815779.06, -17823.908, 0.048433322, -0.10957996, -736465.5, -5155.62, 0.0, 10.000298, 9.999298 
1.6450764e+3, 2.353748e+2, -664036.0, -725902.4, -23297.373, -0.010380878, -0.11360549, -656244.1, -22928.371, 0.0, 10.00014, 9.999318 
1.645065e+3, 2.4537395e+2, -607472.6, -670669.44, -26962.295, -0.00039293518, -0.11472507, -597532.8, -62208.664, 0.0, 9.999955, 9.999113 
1.645054e+3, 2.5537306e+2, -539516.7, -583931.06, -27396.229, 0.0697632, -0.120383196, -526457.56, -89123.805, 0.0, 9.999735, 9.999142 
1.6450426e+3, 2.6537243e+2, -455999.25, -494284.72, -10151.818, 0.06523438, -0.09275347, -453473.94, -114132.67, 0.0, 9.999642, 9.999127 
1.6450307e+3, 2.7537206e+2, -351630.4, -389500.13, -13259.784, -0.003282885, -0.049740274, -347449.22, -106102.555, 0.0, 9.99967, 9.99916 
1.6450192e+3, 2.853712e+2, -268281.34, -276999.3, -12139.998, -0.020211391, -0.056221396, -259741.47, -116386.27, 0.0, 9.9994755, 9.999354 
1.6450079e+3, 2.953703e+2, -231875.84, -208096.13, -11019.117, 0.0044186492, -0.091674976, -203775.19, -158411.64, 0.0, 9.99905, 9.999358 
1.6449966e+3, 3.053694e+2, -224412.73, -193148.11, -14645.796, 0.029962996, -0.104532145, -187359.2, -187359.2, 0.0, 9.998826, 9.999235 
1.6449857e+3, 3.1536984e+2, -115132.26, 35123.89, -47074.105, 0.09060741, 0.0048407717, 48653.58, 48653.58, 0.0, 9.998815, 10.000811 
1.6552043e+3, 1.253976e+2, -1452681.1, -1718322.6, -39062.758, 0.15237083, -0.15592453, -1447056.0, 264032.56, 0.038870342, 10.002459, 9.998789 
1.6551912e+3, 1.3539606e+2, -1416903.9, -1674964.4, 62115.027, -0.17482826, -0.1724488, -1402731.3, 210371.58, 0.024226949, 10.002072, 9.99861 
1.6551834e+3, 1.4539394e+2, -1360107.0, -1563664.6, -11905.692, 0.1248902, -0.2573689, -1359413.1, 155710.6, 0.011408221, 10.00163, 9.998903 
1.6551712e+3, 1.5539414e+2, -1306179.8, -1484920.4, -10377.333, 0.07255769, -0.13507023, -1305579.3, 111543.41, 0.0034157853, 10.0013075, 9.998926 
1.6551585e+3, 1.6539316e+2, -1240029.3, -1413666.1, -13967.843, -0.0066633434, -0.11663391, -1238912.9, 80219.58, 0.00045137366, 10.001135, 9.998825 
1.6551468e+3, 1.7539117e+2, -1147060.0, -1316346.9, -14502.545, -0.024555005, -0.20264667, -1145826.5, 75325.01, 0.000008273259, 10.001093, 9.99884 
1.6551353e+3, 1.853902e+2, -1045013.1, -1206928.9, -10783.36, -0.0011200259, -0.1859256, -1044298.1, 78863.875, 0.0, 10.001078, 9.998926 
1.655124e+3, 1.9539018e+2, -945375.06, -1107662.0, -7268.113, 0.027596043, -0.08543692, -945050.2, 80113.79, 0.0, 10.001086, 9.998932 
1.6551124e+3, 2.0538916e+2, -886816.6, -1048738.1, -23642.46, 0.033007413, -0.067560144, -883435.1, 43740.043, 0.0, 10.0009, 9.9987545 
1.6551004e+3, 2.1538736e+2, -837728.5, -970487.75, -26589.3, 0.03082681, -0.12961915, -832601.2, -3407.6816, 0.0, 10.000547, 9.998789 
1.6550887e+3, 2.2538635e+2, -748339.4, -832499.7, -23886.463, 0.02980577, -0.12595567, -742032.56, -10828.745, 0.0, 10.000298, 9.999185 
1.6550769e+3, 2.353861e+2, -671183.8, -741764.75, -27929.318, 0.025437964, -0.07533102, -661469.1, -28262.732, 0.0, 10.000143, 9.999209 
1.6550651e+3, 2.4538535e+2, -605379.5, -666807.7, -34558.254, 0.017128862, -0.06550371, -589859.1, -54644.93, 0.0, 9.999955, 9.999141 
1.655053e+3, 2.5538424e+2, -537204.5, -580262.44, -33549.484, 0.0065193973, -0.096176766, -518870.38, -81645.08, 0.0, 9.999738, 9.9991665 
1.6550416e+3, 2.653833e+2, -454814.1, -493115.63, -8073.2217, 0.005648711, -0.10185951, -453181.97, -113946.62, 0.0, 9.999646, 9.999135 
1.6550305e+3, 2.7538255e+2, -350111.06, -387993.75, -10279.56, 0.011835632, -0.09935965, -347501.44, -106257.24, 0.0, 9.999675, 9.999169 
1.6550191e+3, 2.853821e+2, -250282.55, -240799.36, -27366.51, 0.01939435, -0.08030333, -217766.7, -74517.68, 0.0, 9.999478, 9.999602 
1.6550073e+3, 2.953822e+2, -214130.73, -173102.55, -25366.75, 0.027472118, -0.035879225, -160993.03, -115745.41, 0.0, 9.999056, 9.999597 
1.6549952e+3, 3.053815e+2, -260636.56, -268670.72, -14813.817, 0.0064968048, -0.015098338, -249304.83, -249304.83, 0.0, 9.998826, 9.998717 
1.654984e+3, 3.153801e+2, -138463.31, -12879.42, -41864.617, 0.047323532, -0.03379228, -202.99701, -202.99701, 0.0, 9.998814, 10.000481 
1.6652071e+3, 1.2540881e+2, -1404852.0, -1695366.1, -25855.664, 0.17632152, -0.14783354, -1402568.8, 308411.1, 0.04162856, 10.002814, 9.9987755 
1.6651931e+3, 1.3540773e+2, -1444944.8, -1660008.5, 41354.35, -0.17252563, -0.14408027, -1437266.9, 175721.94, 0.026035924, 10.001759, 9.99886 
1.6651852e+3, 1.4540559e+2, -1412317.3, -1594267.5, -8109.6563, 0.15250546, -0.2405109, -1411956.5, 103053.09, 0.012337034, 10.001291, 9.998857 
1.6651726e+3, 1.5540546e+2, -1278172.9, -1477126.9, -12459.858, 0.0700494, -0.1453515, -1277395.6, 139616.19, 0.003736676, 10.001526, 9.998874 
1.6651598e+3, 1.6540451e+2, -1187819.0, -1400006.3, -20521.182, -0.018696504, -0.11654345, -1185852.6, 133169.14, 0.00050616945, 10.001543, 9.998722 
1.665148e+3, 1.7540288e+2, -1115905.3, -1313376.3, -22304.809, -0.025307735, -0.15826938, -1113417.1, 107621.125, 0.000009797576, 10.001358, 9.9987335 
1.6651365e+3, 1.8540178e+2, -1058035.0, -1228445.3, -28217.158, 0.0076204473, -0.14080647, -1053484.3, 69566.07, 0.0, 10.001054, 9.99879 
1.6651252e+3, 1.9540127e+2, -1016737.0, -1155168.0, -39743.04, 0.04263123, -0.07772475, -1006138.4, 18918.896, 0.0, 10.000654, 9.998813 
1.6651131e+3, 2.0540021e+2, -925845.06, -1044459.94, -46232.652, 0.039665855, -0.06892611, -909953.9, 17114.406, 0.0, 10.000535, 9.998959 
1.6651009e+3, 2.1539876e+2, -810128.7, -936084.8, -27141.674, 0.016368154, -0.11546382, -804529.0, 24552.953, 0.0, 10.000648, 9.998977 
1.665089e+3, 2.2539775e+2, -727554.94, -837875.06, -18597.16, 0.017533641, -0.11350009, -724504.25, 6587.874, 0.0, 10.000508, 9.999045 
1.6650772e+3, 2.353972e+2, -679982.0, -761163.6, -26139.43, 0.034757443, -0.07859572, -672293.56, -39195.266, 0.0, 10.000149, 9.999073 
1.6650651e+3, 2.453964e+2, -597963.94, -658226.75, -26997.367, 0.028388731, -0.06777267, -587638.44, -52531.74, 0.0, 9.999985, 9.999185 
1.6650529e+3, 2.553955e+2, -496496.84, -555472.06, -26831.982, 0.0027454868, -0.08305871, -486116.25, -49000.383, 0.0, 9.999996, 9.999211 
1.6650413e+3, 2.653947e+2, -438488.97, -466471.1, -949.4521, 0.0042442433, -0.08863755, -438456.78, -99332.37, 0.0, 9.999679, 9.999301 
1.66503e+3, 2.7539393e+2, -429532.88, -409239.97, 7762.1973, 0.02896884, -0.10015013, -406611.34, -165479.08, 0.0, 9.999058, 9.99932 
1.6650185e+3, 2.8539345e+2, -351048.56, -302423.72, -11201.785, 0.041866843, -0.08484594, -299967.25, -156829.63, 0.0, 9.998845, 9.999483 
1.6650064e+3, 2.953935e+2, -230294.88, -191784.2, -39494.48, 0.044412117, -0.035405155, -167101.16, -121963.21, 0.0, 9.998993, 9.999497 
1.6649939e+3, 3.053931e+2, -235412.19, -237596.3, -13766.0205, -0.012307801, 0.009998347, -222694.98, -222694.98, 0.0, 9.9989195, 9.998885 
1.6649826e+3, 3.1539106e+2, -161245.67, -16559.182, 15275.769, 0.01969654, -0.086438395, -14963.977, -14963.977, 0.0, 9.998628, 10.000544 
1.6752096e+3, 1.2542017e+2, -1404303.1, -1691847.0, -27480.523, 0.146389, -0.1328436, -1401700.4, 309170.94, 0.04455171, 10.00281, 9.998806 
1.6751952e+3, 1.3542044e+2, -1423410.3, -1616831.6, 1309.073, -0.13287437, -0.025561456, -1423401.5, 189465.97, 0.027968736, 10.001771, 9.999151 
1.675187e+3, 1.4541821e+2, -1420736.9, -1613923.9, -2436.9348, 0.20018968, -0.13567872, -1420706.1, 94182.27, 0.013341848, 10.001299, 9.998718 
1.6751736e+3, 1.5541661e+2, -1288416.5, -1497792.0, -3097.5, 0.016110586, -0.1744774, -1288370.6, 128533.266, 0.004089343, 10.001522, 9.998734 
1.675161e+3, 1.6541561e+2, -1195551.3, -1415300.4, -27761.451, -0.059530735, -0.13919139, -1192098.4, 126816.33, 0.0005678562, 10.001537, 9.99862 
1.6751501e+3, 1.7541514e+2, -1123892.1, -1330453.0, -29221.494, 0.044863705, -0.053184018, -1119837.9, 101083.29, 0.000011659807, 10.001358, 9.998617 
1.6751382e+3, 1.8541372e+2, -1080049.5, -1274811.8, -43315.145, 0.0803044, -0.047115207, -1070850.8, 52086.227, 0.0, 10.001056, 9.998472 
1.6751257e+3, 1.9541156e+2, -1035938.5, -1196953.4, -52505.098, 0.026569828, -0.11550189, -1020330.25, 4629.441, 0.0, 10.000661, 9.998524 
1.6751133e+3, 2.0541053e+2, -889128.06, -969554.9, -41746.504, -0.0027895519, -0.117685616, -871376.94, 55592.367, 0.0, 10.00054, 9.999472 
1.6751014e+3, 2.154105e+2, -776608.06, -866491.6, -22592.125, 0.0009775345, -0.072163396, -771249.06, 57717.89, 0.0, 10.000647, 9.999455 
1.6750893e+3, 2.2540961e+2, -739886.5, -862842.75, -32048.66, 0.009073737, -0.07366051, -732034.44, -1059.0868, 0.0, 10.000504, 9.998877 
1.6750771e+3, 2.3540805e+2, -691287.5, -785254.56, -37680.69, 0.016146135, -0.12265979, -678044.1, -45052.313, 0.0, 10.00015, 9.998908 
1.6750652e+3, 2.4540712e+2, -594509.6, -651641.25, -26044.59, 0.030955741, -0.119694315, -584418.9, -49416.9, 0.0, 9.999986, 9.99923 
1.6750535e+3, 2.5540683e+2, -492513.28, -547819.56, -25275.623, 0.05334639, -0.079777636, -482702.4, -45696.547, 0.0, 9.999996, 9.999265 
1.6750415e+3, 2.654065e+2, -416015.94, -420432.4, -23282.324, 0.056699086, -0.05419529, -394837.38, -55828.19, 0.0, 9.99968, 9.999619 
1.6750292e+3, 2.7540615e+2, -408370.28, -366892.72, -12664.447, 0.04397971, -0.05442128, -363331.6, -122319.82, 0.0, 9.999063, 9.99961 
1.6750173e+3, 2.8540525e+2, -384853.13, -374186.56, -4852.1543, 0.04367396, -0.07041139, -372309.63, -229287.95, 0.0, 9.99885, 9.998989 
1.6750056e+3, 2.9540414e+2, -260146.17, -254945.7, -31747.828, 0.050453793, -0.08510251, -225691.8, -180657.11, 0.0, 9.998997, 9.9990635 
1.6749927e+3, 3.0540413e+2, -176097.2, -115605.27, -24012.023, -0.029757358, -0.028066868, -107232.65, -107232.65, 0.0, 9.998922, 9.9997225 
1.674981e+3, 3.1540284e+2, -133407.73, 39349.355, 20859.098, -0.0062967855, -0.12932438, 41832.25, 41832.25, 0.0, 9.998635, 10.000925 
1.6852121e+3, 1.2543184e+2, -1445921.9, -1744467.0, 18114.633, 0.12993751, -0.12949008, -1444826.9, 265930.47, 0.04763037, 10.002661, 9.998508 
1.6851974e+3, 1.3543212e+2, -1367429.8, -1599827.9, -25299.547, -0.11557516, -0.01009647, -1364707.5, 248047.25, 0.030026976, 10.002215, 9.999056 
1.6851887e+3, 1.4543016e+2, -1352536.8, -1573244.3, -8586.736, 0.22243096, -0.09349695, -1352203.1, 162570.36, 0.014428621, 10.001742, 9.998784 
1.6851749e+3, 1.554284e+2, -1294456.1, -1494114.6, 5510.9385, 0.0062484816, -0.15505724, -1294304.1, 122485.74, 0.0044782558, 10.0014515, 9.998794 
1.6851623e+3, 1.6542728e+2, -1235986.3, -1444772.5, -13277.43, -0.06769727, -0.12953281, -1235145.4, 83656.32, 0.0006375465, 10.001304, 9.998531 
1.6851515e+3, 1.7542675e+2, -1143428.5, -1348981.1, -14484.385, 0.06603286, -0.03885225, -1142412.9, 78396.14, 0.00001399049, 10.001265, 9.998534 
1.6851395e+3, 1.854253e+2, -1046917.25, -1254676.8, -16171.735, 0.09898171, -0.034632545, -1045666.0, 77159.04, 0.0, 10.0012665, 9.998508 
1.6851264e+3, 1.954231e+2, -942727.4, -1149056.0, -1067.535, 0.014685824, -0.11033182, -942721.9, 82125.625, 0.0, 10.001287, 9.998551 
1.6851139e+3, 2.0542203e+2, -818571.44, -941215.9, 199.90018, -0.014421294, -0.11435137, -818571.06, 108286.18, 0.0, 10.001048, 9.999422 
1.6851021e+3, 2.15422e+2, -788091.25, -876606.9, -22734.885, 0.0155129535, -0.06521847, -782593.4, 46261.785, 0.0, 10.000588, 9.9994135 
1.6850899e+3, 2.2542107e+2, -760569.56, -871857.25, -43925.08, 0.022821657, -0.06762964, -745321.56, -14457.816, 0.0, 10.00036, 9.998883 
1.6850773e+3, 2.3541948e+2, -665607.4, -771947.5, -38036.914, 0.0060129785, -0.12130387, -653402.6, -20522.21, 0.0, 10.000325, 9.998914 
1.685065e+3, 2.4541858e+2, -586364.3, -639174.94, -21653.916, 0.022745308, -0.118208304, -578620.94, -43730.797, 0.0, 10.000008, 9.999305 
1.6850534e+3, 2.554184e+2, -568421.75, -576968.0, -20591.047, 0.06916865, -0.074668825, -551665.1, -114772.09, 0.0, 9.999445, 9.99933 
1.685041e+3, 2.654181e+2, -481206.88, -453002.16, -29431.217, 0.07203476, -0.045152087, -434469.06, -95573.25, 0.0, 9.999238, 9.999606 
1.6850284e+3, 2.7541783e+2, -368642.84, -349277.63, -44651.805, 0.037901472, -0.039689895, -313270.66, -72372.58, 0.0, 9.999343, 9.999595 
1.6850163e+3, 2.854169e+2, -318185.06, -341632.75, -18747.613, 0.033591285, -0.05886783, -307797.34, -164889.02, 0.0, 9.999308, 9.998991 
1.6850047e+3, 2.9541564e+2, -240344.8, -242398.7, -10991.658, 0.054381605, -0.08996664, -230332.22, -185409.34, 0.0, 9.999121, 9.999089 
1.6849916e+3, 3.0541578e+2, -170380.98, -73223.89, -16742.867, -0.025303507, -0.03304979, -70419.57, -70419.57, 0.0, 9.998793, 10.000075 
1.6849795e+3, 3.154151e+2, -180151.25, 7052.1846, 4953.4478, -0.0042248266, -0.10871072, 7183.1626, 7183.1626, 0.0, 9.998355, 10.000839 
1.6952147e+3, 1.2544365e+2, -1488798.5, -1836255.9, 41266.4, 0.11459394, -0.15463147, -1483964.6, 226675.03, 0.05086495, 10.002659, 9.997882 
1.6951996e+3, 1.354429e+2, -1400356.9, -1666652.9, -43164.453, -0.122274704, -0.089765094, -1393535.0, 219114.81, 0.032215923, 10.002206, 9.998601 
1.6951904e+3, 1.4544149e+2, -1336863.1, -1539189.5, -21765.43, 0.21789175, -0.10933524, -1334548.1, 180116.14, 0.015604373, 10.001737, 9.9990225 
1.6951767e+3, 1.5544078e+2, -1276944.3, -1460191.3, -4294.594, 0.033405144, -0.08904048, -1276843.6, 139826.17, 0.0049088504, 10.001462, 9.999023 
1.6951638e+3, 1.6543949e+2, -1239401.3, -1454129.8, -15050.765, -0.050228313, -0.08879405, -1238351.5, 80331.44, 0.0007170378, 10.001311, 9.998464 
1.6951525e+3, 1.7543778e+2, -1146263.6, -1356191.6, -14774.225, 0.0383562, -0.11129303, -1145229.0, 75472.55, 0.000016975888, 10.001268, 9.998484 
1.6951405e+3, 1.8543655e+2, -1022000.9, -1202466.3, -15325.806, 0.06362351, -0.09882902, -1020708.6, 102005.76, 0.0, 10.001263, 9.99887 
1.6951276e+3, 1.9543582e+2, -921185.2, -1103308.6, -525.466, 0.0048167985, -0.06406412, -921183.7, 103537.8, 0.0, 10.001282, 9.998869 
1.6951151e+3, 2.0543465e+2, -860854.44, -1027604.56, -17420.016, 0.0012973316, -0.06128383, -859054.06, 67678.76, 0.0, 10.00104, 9.998833 
1.6951032e+3, 2.1543323e+2, -826918.25, -957807.25, -38219.707, 0.056378882, -0.09373422, -816575.3, 12171.372, 0.0, 10.000589, 9.998857 
1.6950905e+3, 2.2543214e+2, -747891.6, -845995.75, -44988.82, 0.054604333, -0.094014876, -730384.7, 372.75424, 0.0, 10.0003605, 9.999062 
1.6950776e+3, 2.3543145e+2, -653894.56, -747965.9, -38436.63, 0.0009805363, -0.0760606, -640187.06, -7422.457, 0.0, 10.000324, 9.99908 
1.6950648e+3, 2.4543075e+2, -580325.1, -626675.94, -41990.74, 0.0012982716, -0.06553898, -555538.9, -20767.05, 0.0, 10.000006, 9.999392 
1.6950527e+3, 2.5543016e+2, -562834.3, -566734.44, -38881.723, 0.048826955, -0.06787864, -525853.8, -89075.96, 0.0, 9.999449, 9.999399 
1.69504e+3, 2.6542953e+2, -504610.25, -503232.6, -24537.729, 0.048572067, -0.060549922, -479374.03, -140589.27, 0.0, 9.999243, 9.99926 
1.6950274e+3, 2.7542892e+2, -390030.75, -395765.72, -38676.3, 0.0054719164, -0.053589687, -354115.78, -113324.16, 0.0, 9.999351, 9.999272 
1.6950153e+3, 2.8542832e+2, -283353.44, -271035.75, -24865.79, 0.0071070846, -0.04943683, -251577.44, -108779.14, 0.0, 9.999312, 9.9994755 
1.6950037e+3, 2.9542783e+2, -207155.36, -173647.05, -16237.542, 0.05137853, -0.050204832, -167069.69, -122266.37, 0.0, 9.99912, 9.999563 
1.6949905e+3, 3.0542797e+2, -179301.13, -92801.74, -32915.016, -0.0037462665, -0.009769346, -81701.33, -81701.33, 0.0, 9.998795, 9.999941 
1.694978e+3, 3.154282e+2, -211420.47, -60976.62, 9228.114, 0.011486067, 0.020815382, -60412.688, -60412.688, 0.0, 9.998367, 10.000365 
1.7052177e+3, 1.2545602e+2, -1486492.4, -1827472.3, 64271.36, 0.1381355, -0.12711407, -1474780.1, 235738.8, 0.054258425, 10.002649, 9.997949 
1.7052016e+3, 1.3545458e+2, -1425570.6, -1672217.3, -24542.309, -0.13000195, -0.14027126, -1423152.4, 189382.89, 0.034540452, 10.002003, 9.998659 
1.7051917e+3, 1.4545341e+2, -1351557.0, -1556801.4, 22039.021, 0.18051858, -0.13057022, -1349217.1, 165330.16, 0.016874576, 10.001683, 9.998926 
1.7051785e+3, 1.5545301e+2, -1234328.4, -1449394.6, 16212.012, 0.04956329, -0.07026498, -1233113.1, 183437.75, 0.0053858333, 10.001799, 9.998935 
1.7051655e+3, 1.6545172e+2, -1175922.4, -1417109.3, -2488.1243, -0.026103066, -0.068694465, -1175896.6, 142667.4, 0.00080826663, 10.001719, 9.998522 
1.7051537e+3, 1.7544979e+2, -1113587.5, -1334727.1, 4879.086, 0.027530909, -0.11871397, -1113480.0, 107104.15, 0.000020835996, 10.001468, 9.998536 
1.7051417e+3, 1.8544857e+2, -1029803.75, -1202315.1, -3444.6155, 0.04725305, -0.108262286, -1029735.0, 92861.37, 0.0, 10.001192, 9.998905 
1.7051287e+3, 1.9544807e+2, -975726.4, -1126150.4, -13473.104, 0.007580743, -0.055107273, -974529.2, 50071.98, 0.0, 10.000895, 9.998898 
1.7051162e+3, 2.0544688e+2, -909563.4, -1072490.6, -26258.21, 0.011624674, -0.045368727, -905436.06, 21177.184, 0.0, 10.0008, 9.998639 
1.7051038e+3, 2.1544525e+2, -800459.25, -966223.8, -19863.504, 0.063178435, -0.07917398, -798112.25, 30518.098, 0.0, 10.000864, 9.998666 
1.7050911e+3, 2.254441e+2, -698161.5, -818466.4, -19342.666, 0.06200024, -0.08039641, -695128.06, 35514.008, 0.0, 10.000689, 9.999092 
1.705078e+3, 2.354434e+2, -653558.2, -744852.25, -25872.154, 0.012553273, -0.063025735, -646736.0, -14087.537, 0.0, 10.000316, 9.999104 
1.7050649e+3, 2.454427e+2, -567557.06, -627549.9, -42979.316, 0.004233192, -0.051543143, -545141.56, -10486.001, 0.0, 10.000125, 9.999328 
1.7050521e+3, 2.5544208e+2, -475146.94, -531217.4, -52213.99, 0.032704588, -0.05272537, -443917.72, -7255.4873, 0.0, 10.000083, 9.999336 
1.7050394e+3, 2.654414e+2, -418662.28, -465767.03, -24076.59, 0.029589852, -0.047085155, -408533.88, -69863.83, 0.0, 9.999853, 9.999222 
1.7050268e+3, 2.754407e+2, -377485.28, -393641.38, -17177.89, -0.0028911096, -0.04317129, -366580.84, -125902.93, 0.0, 9.999455, 9.999236 
1.7050144e+3, 2.8544018e+2, -324994.06, -280753.72, -14755.883, 0.007849293, -0.031911913, -276283.7, -133600.48, 0.0, 9.998984, 9.999566 
1.7050026e+3, 2.9543987e+2, -296249.0, -207780.5, -36322.1, 0.06241725, -0.023426645, -194778.72, -150093.31, 0.0, 9.998472, 9.99964 
1.7049894e+3, 3.0543947e+2, -244247.72, -144461.28, -58572.38, 0.021913297, -0.031573698, -117412.586, -117412.586, 0.0, 9.998438, 9.999758 
1.7049764e+3, 3.1544018e+2, -167648.78, -57552.168, -7119.817, -0.0036608272, 0.0669224, -57093.645, -57093.645, 0.0, 9.998747, 10.000205 
1.7152208e+3, 1.2546873e+2, -1444640.5, -1730921.9, 73170.54, 0.19075379, -0.07051671, -1427023.0, 283374.06, 0.05779923, 10.002632, 9.998626 
1.7152034e+3, 1.3546708e+2, -1388892.4, -1594496.6, -49107.613, -0.14430346, -0.16132548, -1377765.4, 234645.83, 0.03699678, 10.002008, 9.999195 
1.7151928e+3, 1.4546596e+2, -1379251.6, -1616237.9, 23193.5, 0.10586664, -0.15405525, -1377003.0, 137419.67, 0.018240586, 10.001687, 9.998518 
1.7151803e+3, 1.554651e+2, -1261580.3, -1505690.1, 20364.346, 0.05276465, -0.09780531, -1259893.0, 156540.06, 0.0059123994, 10.001796, 9.99855 
1.7151675e+3, 1.6546398e+2, -1165450.9, -1394294.5, -12515.329, 0.0014309076, -0.06880632, -1164768.5, 153676.64, 0.0009130127, 10.001714, 9.998682 
1.7151551e+3, 1.7546275e+2, -1103258.5, -1314466.8, -4396.221, 0.029740637, -0.06410999, -1103167.0, 117290.22, 0.000025810483, 10.001471, 9.998674 
1.7151427e+3, 1.8546134e+2, -1048630.6, -1242430.8, -15437.848, 0.044308085, -0.06568833, -1047408.6, 75062.77, 0.0, 10.001194, 9.99863 
1.7151298e+3, 1.9545987e+2, -992271.9, -1162849.5, -23240.813, 0.0197914, -0.08345854, -989162.06, 35324.43, 0.0, 10.000902, 9.998643 
1.715117e+3, 2.0545875e+2, -896385.4, -1045897.44, -23710.365, 0.013757145, -0.06539194, -892715.4, 33783.02, 0.0, 10.000803, 9.998821 
1.7151044e+3, 2.1545804e+2, -789750.06, -943407.2, -17046.96, 0.034278255, -0.023359692, -787881.56, 40624.89, 0.0, 10.00086, 9.998825 
1.7150916e+3, 2.2545683e+2, -708192.5, -837991.9, -33409.727, 0.043259237, -0.028494205, -700097.8, 30420.525, 0.0, 10.000682, 9.998961 
1.7150785e+3, 2.3545532e+2, -662499.9, -764116.1, -37888.16, 0.03878429, -0.08152474, -649928.4, -17396.053, 0.0, 10.000317, 9.998972 
1.7150652e+3, 2.4545439e+2, -582434.9, -658467.06, -43731.34, 0.028288145, -0.07536482, -562505.7, -27963.818, 0.0, 10.000124, 9.999116 
1.7150521e+3, 2.5545403e+2, -488671.78, -560059.44, -52182.6, 0.015581777, -0.028807487, -461143.2, -24596.502, 0.0, 10.000085, 9.999138 
1.715039e+3, 2.6545355e+2, -400382.5, -428831.25, -38073.613, 0.011307547, -0.0056501, -373962.9, -35410.496, 0.0, 9.999856, 9.999476 
1.7150262e+3, 2.7545303e+2, -361079.97, -360019.7, -30879.527, 0.01024316, -0.008783309, -329665.75, -89107.93, 0.0, 9.999455, 9.999469 
1.7150137e+3, 2.854524e+2, -346086.4, -324422.0, -33643.688, 0.032336775, -0.0060702804, -299909.7, -157345.77, 0.0, 9.998983, 9.999267 
1.7150013e+3, 2.954517e+2, -317744.63, -254098.17, -51053.082, 0.08157216, -0.0070515918, -225762.16, -181192.39, 0.0, 9.998479, 9.99932 
1.7149882e+3, 3.0545017e+2, -262330.7, -185488.4, -46588.254, 0.04570771, -0.09809356, -163522.06, -163522.06, 0.0, 9.99845, 9.999472 
1.7149746e+3, 3.1545064e+2, -148266.56, -20176.592, 18032.396, -0.061884593, 0.0030878151, -17686.418, -17686.418, 0.0, 9.998757, 10.000459 
1.7252229e+3, 1.254812e+2, -1470416.8, -1713956.6, 98868.59, 0.15859637, -0.052915327, -1435333.5, 274943.2, 0.061463173, 10.002322, 9.9988985 
1.7252058e+3, 1.354799e+2, -1374248.9, -1577005.4, -87479.0, -0.104659215, -0.122138515, -1341723.6, 270563.2, 0.03957232, 10.002075, 9.999288 
1.7251943e+3, 1.4547884e+2, -1366009.8, -1620818.0, -2521.3994, 0.09569893, -0.10527776, -1365984.8, 148312.5, 0.019698907, 10.001829, 9.998418 
1.7251821e+3, 1.5547754e+2, -1280306.4, -1525565.5, 15859.097, 0.062082604, -0.08632323, -1279285.1, 137027.39, 0.0064899237, 10.001715, 9.998454 
1.7251693e+3, 1.6547625e+2, -1177357.8, -1400432.9, -17482.45, 0.013192138, -0.068584554, -1175996.0, 142330.08, 0.001032905, 10.001635, 9.998678 
1.7251566e+3, 1.754751e+2, -1090425.1, -1309057.9, -22667.307, 0.020041062, -0.054086894, -1088099.8, 132237.2, 0.00003215152, 10.001563, 9.998667 
1.725144e+3, 1.854737e+2, -1002887.5, -1221095.8, -27861.646, 0.03194701, -0.05549499, -999386.25, 122964.75, 0.0, 10.001513, 9.998622 
1.725131e+3, 1.9547214e+2, -908740.4, -1124018.8, -18162.6, 0.022406897, -0.0795211, -907218.75, 117148.03, 0.0, 10.001483, 9.998631 
1.725118e+3, 2.0547104e+2, -828655.75, -1012767.44, -16405.332, 0.017078405, -0.059265833, -827205.4, 99173.375, 0.0, 10.0012665, 9.998825 
1.7251052e+3, 2.1547042e+2, -784023.8, -939463.94, -24543.598, 0.025026921, -0.008599927, -780240.5, 48145.824, 0.0, 10.000897, 9.998833 
1.7250922e+3, 2.2546926e+2, -710114.1, -832258.94, -42105.074, 0.03433092, -0.011509572, -697006.5, 33391.07, 0.0, 10.000641, 9.99902 
1.725079e+3, 2.354678e+2, -637037.75, -745781.4, -34187.582, 0.04086944, -0.06635206, -627182.75, 5227.962, 0.0, 10.000469, 9.9990225 
1.7250656e+3, 2.4546678e+2, -578384.56, -665902.25, -25602.25, 0.033495244, -0.06598937, -571445.2, -37024.395, 0.0, 10.000196, 9.999029 
1.725052e+3, 2.5546622e+2, -530884.56, -590545.6, -27119.38, 0.016878074, -0.029800294, -520399.78, -83972.31, 0.0, 9.999842, 9.999043 
1.7250389e+3, 2.6546565e+2, -465145.5, -466667.94, -29075.271, 0.019326063, -0.009480417, -436821.5, -98387.125, 0.0, 9.999441, 9.999415 
1.7250258e+3, 2.7546513e+2, -431611.78, -399725.25, -46077.164, 0.0345941, -0.006864386, -366911.03, -126470.97, 0.0, 9.998999, 9.999414 
1.7250127e+3, 2.8546456e+2, -341431.22, -312949.44, -30679.648, 0.038250297, 0.0016161775, -293366.63, -150921.5, 0.0, 9.998978, 9.999348 
1.7249997e+3, 2.9546395e+2, -195494.64, -191402.13, -20777.342, 0.04108254, -0.000121965146, -172570.52, -128121.07, 0.0, 9.999304, 9.9993515 
1.7249869e+3, 3.0546197e+2, -208283.73, -211927.38, -16177.2295, 0.053870913, -0.1109857, -193826.06, -193826.06, 0.0, 9.999049, 9.9990015 
1.7249733e+3, 3.1546196e+2, -207688.75, -27745.844, 35969.883, -0.047286198, -0.01360016, -20822.02, -20822.02, 0.0, 9.9982605, 10.000646 
1.7352241e+3, 1.254935e+2, -1483329.5, -1738770.8, 107157.82, 0.04025124, -0.072032385, -1444330.8, 265826.6, 0.06523749, 10.002315, 9.9987335 
1.7352088e+3, 1.3549297e+2, -1397675.4, -1625102.0, -99004.13, -0.018365812, -0.030185178, -1360615.5, 251546.77, 0.042257246, 10.002071, 9.998959 
1.7351967e+3, 1.4549206e+2, -1354226.1, -1594867.4, -8371.987, 0.142414, 0.008397923, -1353935.1, 160236.11, 0.021244539, 10.001825, 9.998599 
1.7351839e+3, 1.554903e+2, -1267896.6, -1501246.8, 12593.358, 0.0730085, -0.03683907, -1267219.0, 148970.1, 0.007118056, 10.001719, 9.998619 
1.735171e+3, 1.6548853e+2, -1188349.1, -1423755.4, -20557.313, 0.0035195113, -0.06620998, -1186567.4, 131639.25, 0.0011691411, 10.001636, 9.998518 
1.735158e+3, 1.7548688e+2, -1100077.3, -1329786.5, -24298.727, -0.0034082907, -0.08781988, -1097535.1, 122687.79, 0.00004011834, 10.001564, 9.998525 
1.7351452e+3, 1.8548565e+2, -987367.75, -1187826.0, -28635.453, 0.008284303, -0.07670851, -983357.44, 138877.52, 0.0, 10.001507, 9.998855 
1.7351323e+3, 1.9548488e+2, -895521.06, -1094662.8, -18659.729, 0.0131620355, -0.04452433, -893787.75, 130454.625, 0.0, 10.001472, 9.998837 
1.7351192e+3, 2.0548373e+2, -842321.2, -1038957.3, -30611.047, 0.017975103, -0.028181888, -837666.06, 88588.695, 0.0, 10.001256, 9.9986515 
1.7351063e+3, 2.1548237e+2, -795207.56, -962845.6, -36719.277, 0.03222943, -0.034902167, -787517.4, 40752.92, 0.0, 10.0008955, 9.998674 
1.7350928e+3, 2.2548138e+2, -693504.9, -797226.25, -47924.582, 0.031730343, -0.028687824, -674751.8, 55528.348, 0.0, 10.000638, 9.999262 
1.7350791e+3, 2.3548079e+2, -621581.3, -713315.8, -39192.555, 0.015978018, -0.01816504, -607117.3, 25166.771, 0.0, 10.000465, 9.9992485 
1.7350656e+3, 2.4547982e+2, -577798.9, -664188.3, -38404.434, 0.01716086, -0.024434993, -563194.94, -28901.898, 0.0, 10.000193, 9.999043 
1.735052e+3, 2.5547862e+2, -530867.9, -591258.8, -38952.957, 0.034251124, -0.05602013, -511777.44, -75472.09, 0.0, 9.999843, 9.99904 
1.7350386e+3, 2.654776e+2, -491344.1, -521513.3, -44888.57, 0.050766148, -0.058028296, -459073.34, -120756.695, 0.0, 9.999442, 9.999039 
1.735025e+3, 2.754769e+2, -454149.4, -449270.22, -59650.02, 0.06380394, -0.035306003, -392009.9, -151684.63, 0.0, 9.999009, 9.99907 
1.7350115e+3, 2.854766e+2, -307851.63, -246334.45, -17783.68, 0.019629251, -0.008966308, -241563.48, -99235.78, 0.0, 9.998989, 9.999801 
1.7349981e+3, 2.9547647e+2, -168607.77, -137712.88, -7888.4424, -0.062414143, -0.006298288, -135815.27, -91489.42, 0.0, 9.9993105, 9.999719 
1.7349859e+3, 3.0547482e+2, -255428.58, -309782.38, -45647.35, 0.04287263, -0.06507427, -229480.48, -229480.48, 0.0, 9.999048, 9.99833 
1.7349723e+3, 3.1547326e+2, -200400.31, -13278.262, -1094.6538, 0.035827752, -0.060929228, -13271.858, -13271.858, 0.0, 9.998263, 10.000744 
1.7452261e+3, 1.2550585e+2, -1473401.3, -1736488.1, 111233.69, 0.009715606, -0.08558896, -1432675.8, 277360.28, 0.069128506, 10.00241, 9.998704 
1.7452115e+3, 1.3550544e+2, -1393585.8, -1639425.3, -95304.586, 0.0361897, -0.016476141, -1360966.9, 251074.03, 0.045049455, 10.002181, 9.998805 
1.7451984e+3, 1.4550439e+2, -1332287.4, -1573429.9, 2341.9758, 0.12167831, 0.0098904045, -1332264.6, 181786.83, 0.022873743, 10.001939, 9.99869 
1.7451856e+3, 1.555025e+2, -1263298.4, -1489034.8, 15121.116, 0.06094868, -0.05493337, -1262290.0, 153779.31, 0.0077954754, 10.001712, 9.998706 
1.7451724e+3, 1.6550086e+2, -1186510.0, -1415009.0, -6250.0576, 0.0029714052, -0.07858791, -1186339.3, 131746.13, 0.0013223072, 10.001615, 9.998588 
1.7451595e+3, 1.7549953e+2, -1084962.0, -1315237.1, 4485.378, 0.00031690922, -0.07672031, -1084874.6, 135224.47, 0.000049909977, 10.001639, 9.998588 
1.7451467e+3, 1.8549834e+2, -1004616.6, -1198687.6, -9982.711, 0.013160108, -0.062220033, -1004104.5, 118006.43, 0.0000000000000006446772, 10.001401, 9.99883 
1.7451335e+3, 1.9549742e+2, -974395.44, -1134490.0, -19679.688, 0.018168483, -0.042528223, -972011.8, 52108.168, 0.0, 10.000942, 9.998818 
1.7451203e+3, 2.0549624e+2, -910856.1, -1060048.8, -25111.566, 0.023784705, -0.035841685, -906742.8, 19389.648, 0.0, 10.000735, 9.998756 
1.745107e+3, 2.154949e+2, -811244.5, -959667.94, -12181.952, 0.03801665, -0.04880277, -810251.3, 17895.703, 0.0, 10.00074, 9.998771 
1.7450935e+3, 2.2549398e+2, -687322.6, -793869.06, -22103.0, 0.030197244, -0.038233496, -682919.3, 47236.707, 0.0, 10.000681, 9.999264 
1.7450795e+3, 2.3549354e+2, -606459.25, -705919.1, -33359.824, 0.001161396, -0.014937159, -596306.44, 35852.87, 0.0, 10.000571, 9.999247 
1.7450656e+3, 2.4549265e+2, -564247.25, -657632.94, -49308.098, 0.004142561, -0.01343733, -543032.0, -8864.176, 0.0, 10.000286, 9.9990425 
1.7450519e+3, 2.5549147e+2, -530648.0, -591294.25, -51930.2, 0.03552345, -0.041076045, -500836.0, -64656.18, 0.0, 9.999847, 9.999036 
1.745038e+3, 2.6549032e+2, -465697.16, -510536.44, -37187.855, 0.056493826, -0.05290431, -444693.56, -106501.97, 0.0, 9.999627, 9.999023 
1.7450243e+3, 2.7548945e+2, -372532.66, -412197.2, -26294.906, 0.065024115, -0.051342145, -359429.53, -119228.12, 0.0, 9.999582, 9.999047 
1.7450105e+3, 2.85489e+2, -278823.53, -238841.52, 10123.057, 0.014736339, -0.033718955, -236424.56, -94219.06, 0.0, 9.999218, 9.999742 
1.7449968e+3, 2.9548883e+2, -282511.44, -201800.36, -20217.4, -0.07286852, -0.02856347, -197019.3, -152813.73, 0.0, 9.998571, 9.999634 
1.744985e+3, 3.0548805e+2, -349341.94, -338192.3, -45477.965, 0.083456635, -0.0038329442, -297948.75, -297948.75, 0.0, 9.998332, 9.998482 
1.7449707e+3, 3.154858e+2, -148957.0, 61125.75, 33109.855, 0.03882989, -0.08499078, 66220.44, 66220.44, 0.0, 9.9984045, 10.001187 
1.755229e+3, 1.2551838e+2, -1472886.0, -1728124.3, 100985.79, 0.058694027, -0.08600289, -1437763.8, 272147.94, 0.0731461, 10.002384, 9.998775 
1.7552139e+3, 1.3551737e+2, -1393887.3, -1639855.1, -103556.02, 0.056752108, -0.07498392, -1356095.3, 255826.9, 0.04794812, 10.002183, 9.998804 
1.7551993e+3, 1.4551592e+2, -1332284.3, -1573932.0, -6963.6587, 0.032299224, -0.089594565, -1332083.8, 181852.97, 0.02458278, 10.001944, 9.998685 
1.7551869e+3, 1.555142e+2, -1262902.9, -1488952.9, 7487.0317, 0.02475143, -0.13717507, -1262655.1, 153297.75, 0.008520388, 10.001715, 9.998705 
1.7551741e+3, 1.6551325e+2, -1167566.1, -1375168.3, -5996.7256, 0.008364847, -0.10629746, -1167393.1, 150569.42, 0.0014925124, 10.001612, 9.998864 
1.7551614e+3, 1.75513e+2, -1068777.4, -1280351.9, 4735.544, 0.026158696, -0.022499792, -1068671.5, 151294.63, 0.00006156021, 10.001632, 9.998832 
1.7551483e+3, 1.8551174e+2, -1024289.9, -1238159.1, -27633.598, 0.039480187, -0.013580031, -1020777.06, 101202.4, 0.0000000010737394, 10.001393, 9.998563 
1.7551346e+3, 1.9550975e+2, -990666.2, -1169515.5, -34806.81, 0.034080185, -0.07319725, -984131.06, 39868.688, 0.0, 10.000945, 9.998577 
1.7551212e+3, 2.055085e+2, -884562.44, -1006459.2, -24504.4, 0.03218435, -0.080054246, -879820.8, 46191.31, 0.0, 10.000738, 9.999124 
1.755108e+3, 2.1550797e+2, -788137.3, -911422.2, -10879.565, 0.039522056, -0.05060163, -787184.56, 40832.406, 0.0, 10.000736, 9.9991045 
1.7550941e+3, 2.2550707e+2, -705319.06, -829926.94, -25972.139, 0.025973907, -0.041150704, -700122.4, 29903.459, 0.0, 10.000673, 9.999021 
1.7550799e+3, 2.35506e+2, -623523.8, -741171.44, -36386.563, -0.006395579, -0.05649361, -613179.56, 18857.34, 0.0, 10.000568, 9.999007 
1.7550658e+3, 2.455052e+2, -565847.9, -660246.0, -65384.63, -0.008596866, -0.032276545, -532406.4, 1639.2631, 0.0, 10.000282, 9.999026 
1.7550515e+3, 2.5550476e+2, -530041.9, -591322.75, -65974.25, 0.016689578, 0.014711638, -487940.03, -51888.555, 0.0, 9.999851, 9.999035 
1.7550376e+3, 2.6550382e+2, -441697.66, -462563.97, -38092.46, 0.032473147, 0.004650389, -412635.4, -74575.4, 0.0, 9.999633, 9.999351 
1.7550237e+3, 2.755026e+2, -352316.78, -371630.44, -27029.809, 0.036185116, -0.05619009, -333270.56, -93201.195, 0.0, 9.999585, 9.999325 
1.7550099e+3, 2.8550163e+2, -319322.0, -322902.72, -13894.098, 0.021483857, -0.07360878, -307103.38, -165023.84, 0.0, 9.999217, 9.999165 
1.7549962e+3, 2.9550087e+2, -318349.63, -279661.03, -42489.266, 0.003462927, -0.06918853, -252319.8, -208229.92, 0.0, 9.998585, 9.999093 
1.7549841e+3, 3.0550155e+2, -277845.0, -192420.64, -41321.926, 0.16751269, 0.078144, -175703.61, -175703.61, 0.0, 9.9983425, 9.999477 
1.7549685e+3, 3.1550005e+2, -114882.16, 133322.77, -2833.5212, -0.02616092, -0.035745617, 133355.11, 133355.11, 0.0, 9.998398, 10.001687 
1.7652309e+3, 1.2553066e+2, -1545330.3, -1746169.1, 97966.305, 0.04678006, -0.10994475, -1505459.0, 204331.61, 0.07730057, 10.001775, 9.998944 
1.7652163e+3, 1.3552992e+2, -1377830.8, -1612471.4, -87858.336, 0.083238155, -0.08942693, -1348579.8, 263218.75, 0.050952706, 10.002225, 9.998969 
1.7652011e+3, 1.4552845e+2, -1285422.6, -1552094.0, 1461.9631, -0.015208366, -0.109812334, -1285414.6, 228398.23, 0.026366603, 10.002284, 9.99867 
1.7651889e+3, 1.5552697e+2, -1217365.9, -1468798.9, 14589.651, 0.031701054, -0.133864, -1216522.1, 199305.14, 0.009289176, 10.002043, 9.998684 
1.765176e+3, 1.6552603e+2, -1160223.5, -1370352.0, -8725.963, 0.032676812, -0.100613326, -1159861.8, 157975.11, 0.0016790415, 10.001661, 9.998871 
1.7651628e+3, 1.7552562e+2, -1135988.3, -1311029.1, -19016.184, 0.025875479, -0.033225697, -1133946.3, 85895.945, 0.000074904594, 10.001165, 9.998844 
1.7651494e+3, 1.855245e+2, -1067502.9, -1237505.6, -38363.813, 0.028783858, -0.02205656, -1059246.5, 62607.71, 0.000000009428086, 10.001006, 9.998754 
1.7651357e+3, 1.9552287e+2, -950996.25, -1130952.9, -14176.487, 0.02812022, -0.06287643, -949886.3, 73984.19, 0.0, 10.001136, 9.99875 
1.7651221e+3, 2.0552164e+2, -842445.44, -993209.75, -4378.79, 0.03485192, -0.073431216, -842318.4, 83564.18, 0.0, 10.00106, 9.99906 
1.7651087e+3, 2.1552081e+2, -781148.44, -914419.0, -24104.832, 0.051921025, -0.06656789, -776922.56, 50967.336, 0.0, 10.000814, 9.999044 
1.7650948e+3, 2.2551987e+2, -738545.44, -848810.3, -49100.79, 0.039720256, -0.058177207, -719850.56, 10048.993, 0.0, 10.00046, 9.998993 
1.7650804e+3, 2.3551893e+2, -707259.9, -784742.75, -44618.47, 0.0022883317, -0.05622873, -686910.6, -55000.734, 0.0, 10.00001, 9.998977 
1.7650658e+3, 2.4551816e+2, -620140.94, -686236.6, -58926.97, -0.011038243, -0.029432777, -585627.4, -51708.516, 0.0, 9.99991, 9.999027 
1.7650513e+3, 2.5551763e+2, -492943.34, -572407.94, -60182.01, -0.0024519102, 0.009382157, -460560.94, -24635.54, 0.0, 10.000104, 9.9990425 
1.7650372e+3, 2.655168e+2, -406990.34, -430505.3, -48564.535, 0.02137111, 0.0032358633, -368780.3, -30847.879, 0.0, 9.999807, 9.999486 
1.7650232e+3, 2.755158e+2, -414633.6, -387421.88, -52926.027, 0.054781936, -0.047868796, -346380.84, -106441.99, 0.0, 9.999099, 9.99945 
1.765009e+3, 2.8551477e+2, -403048.34, -369641.38, -24938.434, 0.043405376, -0.07526384, -356329.34, -214379.55, 0.0, 9.998671, 9.999106 
1.7649947e+3, 2.955138e+2, -341946.25, -298541.94, -15001.389, 0.005778186, -0.08694478, -293861.8, -249898.81, 0.0, 9.998457, 9.999024 
1.7649825e+3, 3.055149e+2, -229057.63, -138810.3, 218.8182, 0.16431706, 0.09276216, -138809.77, -138809.77, 0.0, 9.998548, 9.999746 
1.764967e+3, 3.1551307e+2, -71132.74, 112240.55, -67085.95, -0.023420338, -0.08292294, 134162.73, 134162.73, 0.0, 9.998882, 10.001307 
1.7752321e+3, 1.2554294e+2, -1530713.3, -1713104.0, 88314.88, -0.014264997, -0.13750921, -1494959.4, 214710.95, 0.081620745, 10.001775, 9.999174 
1.7752187e+3, 1.3554303e+2, -1360404.3, -1573135.8, -72477.195, 0.109723955, -0.06366706, -1338058.6, 273611.3, 0.054072574, 10.002221, 9.999247 
1.7752032e+3, 1.4554198e+2, -1287857.6, -1554750.1, -8975.854, -0.028722879, -0.05713164, -1287556.1, 226124.47, 0.028222809, 10.002275, 9.998657 
1.7751913e+3, 1.5554075e+2, -1220903.0, -1475259.4, 5673.842, 0.07530236, -0.050897267, -1220776.5, 194916.23, 0.010097322, 10.002038, 9.998643 
1.775178e+3, 1.6553922e+2, -1178090.0, -1407516.3, -27595.656, 0.06967752, -0.06354548, -1174817.5, 142891.03, 0.0018804749, 10.001659, 9.998617 
1.7751637e+3, 1.7553745e+2, -1149918.5, -1341320.4, -35298.793, -0.0016438905, -0.10546115, -1143616.1, 76110.73, 0.00008970714, 10.00117, 9.998635 
1.7751499e+3, 1.8553664e+2, -1024088.4, -1148938.0, -33378.89, -0.018992495, -0.08360631, -1015724.75, 106010.07, 0.000000028818846, 10.001011, 9.99936 
1.7751364e+3, 1.9553675e+2, -912487.44, -1051440.8, -9441.058, -0.001224211, -0.0133713335, -911848.94, 111884.09, 0.0, 10.001135, 9.999297 
1.775123e+3, 2.0553555e+2, -876711.75, -1063704.9, -13807.594, 0.028400863, -0.019192636, -875697.7, 50046.875, 0.0, 10.001055, 9.998578 
1.7751098e+3, 2.1553342e+2, -813393.8, -980880.44, -32148.77, 0.07176543, -0.0972731, -807434.94, 20331.227, 0.0, 10.000811, 9.998591 
1.7750956e+3, 2.2553235e+2, -726052.94, -822548.4, -65426.723, 0.067977354, -0.08782857, -693008.0, 36769.332, 0.0, 10.000457, 9.999175 
1.7750806e+3, 2.355323e+2, -694820.8, -759881.8, -58619.617, 0.024801714, -0.015381307, -660310.3, -28531.355, 0.0, 10.000011, 9.999147 
1.7750658e+3, 2.4553142e+2, -618878.5, -684695.6, -50756.11, -0.0061695483, -0.0078030527, -591296.1, -57507.83, 0.0, 9.999913, 9.999037 
1.7750512e+3, 2.5553e+2, -492648.8, -572859.3, -52612.273, -0.02551466, -0.057966303, -466599.06, -30796.725, 0.0, 10.000106, 9.999039 
1.7750369e+3, 2.6552925e+2, -410810.25, -438940.72, -74629.055, 0.019508408, -0.05613845, -348932.56, -11123.038, 0.0, 9.999808, 9.999428 
1.7750229e+3, 2.7552903e+2, -415357.28, -391364.88, -76822.22, 0.11438299, -0.024822278, -325607.88, -85797.43, 0.0, 9.999107, 9.999419 
1.775008e+3, 2.8552833e+2, -369214.1, -301710.22, -32525.234, 0.07447192, -0.039084908, -288589.1, -146772.1, 0.0, 9.998679, 9.999569 
1.7749925e+3, 2.955275e+2, -312891.16, -240101.31, -20603.86, -0.06772328, -0.08404293, -234673.88, -190848.05, 0.0, 9.998463, 9.999424 
1.7749801e+3, 3.0552793e+2, -258877.03, -200862.28, 15330.129, 0.07026739, 0.032810207, -197060.5, -197060.5, 0.0, 9.998548, 9.99932 
1.774967e+3, 3.1552663e+2, -163644.53, -82265.85, -102391.445, 0.08190971, -0.039939694, -12775.205, -12775.205, 0.0, 9.998894, 9.999965 
1.785234e+3, 1.255561e+2, -1460626.0, -1695764.8, 99189.234, -0.036058567, -0.13130686, -1424373.9, 285167.03, 0.08616123, 10.002394, 9.998997 
1.7852212e+3, 1.3555604e+2, -1364118.0, -1581459.3, -56098.805, 0.1329169, -0.06282774, -1350492.4, 261049.81, 0.057330903, 10.002234, 9.999179 
1.785205e+3, 1.45555e+2, -1318083.0, -1562584.9, -13772.157, -0.05453277, -0.053757012, -1317309.8, 196242.95, 0.030156005, 10.002039, 9.998714 
1.7851932e+3, 1.5555401e+2, -1254817.9, -1486811.1, 3121.1094, 0.08515184, -0.029673189, -1254775.9, 160786.9, 0.0109433, 10.001786, 9.998684 
1.7851798e+3, 1.6555236e+2, -1184823.4, -1411705.4, -19397.89, 0.089304894, -0.053890996, -1183176.9, 134402.33, 0.0020959685, 10.001619, 9.998607 
1.785165e+3, 1.7555025e+2, -1098881.8, -1318471.5, -10321.872, -0.00062937086, -0.13220501, -1098397.6, 121202.69, 0.000105867584, 10.001531, 9.998617 
1.785151e+3, 1.8554933e+2, -975855.2, -1137785.1, -18883.264, -0.024285747, -0.112805165, -973682.3, 147927.08, 0.0000000562377, 10.001398, 9.9992485 
1.7851377e+3, 1.9554959e+2, -903594.25, -1057318.9, -49341.02, -0.001600922, -0.016940406, -889120.06, 134486.98, 0.0, 10.001244, 9.999203 
1.7851241e+3, 2.0554854e+2, -882949.4, -1040037.6, -60100.824, 0.02816232, -0.017388718, -862593.1, 63024.164, 0.0, 10.000898, 9.998815 
1.7851104e+3, 2.1554652e+2, -857696.5, -978128.5, -26953.287, 0.06660819, -0.10492198, -851939.44, -24302.773, 0.0, 10.000403, 9.998806 
1.785096e+3, 2.2554553e+2, -748104.6, -840689.5, -35542.73, 0.06537474, -0.09565493, -736033.75, -6386.553, 0.0, 10.000338, 9.999108 
1.7850809e+3, 2.3554547e+2, -609786.25, -724568.94, -49052.324, 0.031484943, -0.017677333, -591679.94, 39969.574, 0.0, 10.000621, 9.999096 
1.785066e+3, 2.455445e+2, -548118.06, -636259.0, -50614.168, 0.0067952382, -0.022811793, -525076.7, 8582.638, 0.0, 10.000338, 9.999166 
1.7850511e+3, 2.5554296e+2, -559716.44, -592196.9, -44767.83, -0.008635646, -0.09907796, -528334.1, -92660.42, 0.0, 9.999589, 9.999155 
1.7850365e+3, 2.6554236e+2, -487598.1, -472389.38, -59733.3, 0.031192914, -0.0851342, -419778.34, -82099.09, 0.0, 9.999265, 9.99946 
1.785022e+3, 2.7554256e+2, -386161.2, -373732.13, -55820.734, 0.11355909, -0.013295681, -323781.06, -84103.945, 0.0, 9.999292, 9.999452 
1.7850068e+3, 2.855419e+2, -305228.8, -263346.34, -23950.004, 0.074321195, -0.03080826, -252473.47, -110790.17, 0.0, 9.999086, 9.999637 
1.784991e+3, 2.9554087e+2, -278186.56, -212195.1, -43912.266, -0.053816546, -0.10474231, -190263.55, -146570.73, 0.0, 9.998653, 9.999523 
1.784978e+3, 3.055408e+2, -251306.67, -173996.34, 31236.438, 0.009365419, -0.051794637, -162953.05, -162953.05, 0.0, 9.998499, 9.999529 
1.784966e+3, 3.1554052e+2, -222293.02, -137065.89, -72217.164, 0.10958812, -0.042202067, -95827.0, -95827.0, 0.0, 9.998608, 9.999723 
1.7952366e+3, 1.2557012e+2, -1499410.5, -1773698.3, 55586.098, -0.025114939, -0.09109099, -1488573.8, 220828.6, 0.09098768, 10.00237, 9.998458 
1.7952237e+3, 1.35569e+2, -1390288.9, -1637257.8, -60498.19, 0.15102035, -0.08567835, -1376265.4, 235149.47, 0.060760994, 10.002239, 9.998788 
1.7952067e+3, 1.4556766e+2, -1310264.1, -1547650.8, -23520.012, -0.09454338, -0.09542982, -1307956.3, 205472.31, 0.03217915, 10.002048, 9.998815 
1.7951949e+3, 1.5556681e+2, -1247387.1, -1472529.8, -5135.4326, 0.05915592, -0.06470219, -1247270.0, 168166.81, 0.011831271, 10.001792, 9.998779 
1.7951815e+3, 1.6556554e+2, -1169490.9, -1380709.1, -23183.582, 0.088429, -0.068181686, -1166976.1, 150472.66, 0.0023264778, 10.001622, 9.998819 
1.7951669e+3, 1.7556392e+2, -1087460.3, -1295814.6, -13323.936, 0.024650883, -0.11584933, -1086611.6, 132851.8, 0.00012352158, 10.0015335, 9.998772 
1.7951529e+3, 1.8556252e+2, -1031758.44, -1254578.8, -24710.965, 0.0063014333, -0.111947194, -1029050.9, 92427.69, 0.000000085167756, 10.001399, 9.998447 
1.7951392e+3, 1.9556142e+2, -953369.44, -1160724.4, -53763.566, 0.022193488, -0.07125055, -940258.5, 83234.016, 0.0, 10.001242, 9.998495 
1.795125e+3, 2.055606e+2, -818856.44, -906828.7, -77680.79, 0.031148998, -0.06389314, -773572.8, 151927.44, 0.0, 10.000896, 9.999732 
1.7951104e+3, 2.1556011e+2, -797965.2, -855374.25, -42251.176, 0.036000557, -0.09082015, -775590.25, 51911.74, 0.0, 10.000407, 9.999648 
1.795096e+3, 2.255593e+2, -769776.8, -886536.25, -24409.928, 0.030763919, -0.08477271, -764879.06, -35369.0, 0.0, 10.0003395, 9.998794 
1.7950813e+3, 2.3555838e+2, -630696.1, -767466.56, -38775.816, 0.018140405, -0.062305894, -620467.75, 11054.35, 0.0, 10.000616, 9.998805 
1.7950666e+3, 2.4555735e+2, -531124.3, -600141.94, -78099.125, 0.023597736, -0.07159751, -480249.7, 53282.72, 0.0, 10.000333, 9.999416 
1.7950514e+3, 2.555564e+2, -542048.3, -556540.56, -69608.81, 0.04495138, -0.11232033, -479309.5, -43769.516, 0.0, 9.999592, 9.9994 
1.795036e+3, 2.6555613e+2, -477674.44, -454125.72, -57447.28, 0.053689916, -0.08628787, -407258.56, -69716.16, 0.0, 9.999273, 9.999583 
1.7950207e+3, 2.7555642e+2, -378232.63, -360734.13, -52768.457, 0.048187837, -0.020065561, -315994.5, -76454.39, 0.0, 9.999305, 9.9995365 
1.7950056e+3, 2.8555545e+2, -327906.44, -311708.16, -39737.074, 0.03992888, -0.05216864, -279253.25, -137703.77, 0.0, 9.999091, 9.999302 
1.7949907e+3, 2.9555392e+2, -292631.34, -243453.64, -58184.95, 0.040402062, -0.14051677, -204875.27, -161311.38, 0.0, 9.998657, 9.999308 
1.7949761e+3, 3.0555344e+2, -191023.17, -50518.17, 36248.383, -0.031181674, -0.16796985, -41717.78, -41717.78, 0.0, 9.998505, 10.000375 
1.7949644e+3, 3.1555465e+2, -130914.055, 47167.62, -63925.867, 0.07107463, -0.09087002, 67738.77, 67738.77, 0.0, 9.99863, 10.000979 
1.8052387e+3, 1.2558377e+2, -1532563.3, -1788842.0, 15131.811, -0.021466294, -0.075637065, -1531673.0, 177595.61, 0.09616451, 10.002121, 9.998468 
1.8052262e+3, 1.3558227e+2, -1330130.4, -1596772.6, -26723.486, 0.1677012, -0.11552354, -1327478.4, 283804.9, 0.06440308, 10.002647, 9.998869 
1.8052089e+3, 1.4558086e+2, -1228016.9, -1517359.5, 143.96109, -0.109611444, -0.13220522, -1228016.9, 285280.8, 0.03431206, 10.002686, 9.998713 
1.8051967e+3, 1.5557997e+2, -1185639.4, -1453831.9, 3081.4004, 0.0359489, -0.09540677, -1185604.0, 229702.86, 0.01276939, 10.002274, 9.998674 
1.8051831e+3, 1.6557878e+2, -1120158.0, -1357619.9, -21974.656, 0.079661846, -0.082707435, -1118141.6, 199176.53, 0.002574409, 10.001969, 9.998808 
1.8051687e+3, 1.7557742e+2, -1053137.9, -1279856.0, -30550.248, 0.04137851, -0.103909835, -1049093.4, 170237.19, 0.00014305822, 10.001775, 9.998763 
1.8051544e+3, 1.8557593e+2, -1022671.25, -1243564.5, -19926.775, 0.028329633, -0.111266546, -1020888.0, 100458.305, 0.00000010953618, 10.001435, 9.998505 
1.8051404e+3, 1.9557448e+2, -987104.44, -1171071.6, 11842.801, 0.03433399, -0.1113755, -986345.2, 37018.04, 0.0, 10.000987, 9.998545 
1.8051259e+3, 2.0557375e+2, -828392.06, -914571.75, -17726.229, 0.03709011, -0.09546285, -824888.4, 100482.164, 0.0, 10.000847, 9.9997015 
1.805111e+3, 2.155737e+2, -720079.9, -819423.6, -53239.145, 0.03760277, -0.07494557, -696938.94, 130430.164, 0.0, 10.000952, 9.999631 
1.8050963e+3, 2.25573e+2, -726479.0, -850613.7, -48694.85, 0.029005835, -0.065361045, -709656.9, 19719.416, 0.0, 10.000573, 9.998926 
1.8050815e+3, 2.355719e+2, -739322.0, -804837.2, -30957.395, 0.013824543, -0.072583966, -727008.3, -95619.08, 0.0, 9.999806, 9.998938 
1.8050665e+3, 2.4557102e+2, -625470.8, -624895.06, -57261.848, 0.0250693, -0.08531205, -567920.4, -34522.58, 0.0, 9.999595, 9.999602 
1.8050511e+3, 2.555704e+2, -495879.5, -514278.5, -54998.664, 0.058856692, -0.10965097, -449316.25, -13914.768, 0.0, 9.999824, 9.9995775 
1.8050355e+3, 2.655701e+2, -420553.56, -428832.72, -49016.57, 0.052624933, -0.09407646, -375502.1, -38097.85, 0.0, 9.999674, 9.999564 
1.8050195e+3, 2.7557003e+2, -394050.78, -369950.66, -55947.82, 0.012460611, -0.060612407, -324769.94, -85364.28, 0.0, 9.999203, 9.999522 
1.8050045e+3, 2.8556925e+2, -340585.22, -300684.28, -26563.55, 0.037155498, -0.08425166, -287413.63, -146000.16, 0.0, 9.99893, 9.999455 
1.8049902e+3, 2.955683e+2, -251673.17, -202189.8, -9749.262, 0.12233535, -0.12944928, -200338.27, -156916.39, 0.0, 9.998846, 9.999499 
1.8049742e+3, 3.0556783e+2, -210706.84, -59717.27, 62704.227, -0.058265865, -0.16488053, -37072.957, -37072.957, 0.0, 9.99837, 10.000376 
1.8049626e+3, 3.1556943e+2, -258288.19, 32299.86, -78652.945, 0.09414943, -0.045511454, 52222.78, 52222.78, 0.0, 9.997558, 10.001394 
1.8152408e+3, 1.2559713e+2, -1500211.5, -1714669.9, -12426.896, -0.029871041, -0.07872785, -1499493.9, 209644.39, 0.10174683, 10.0021305, 9.998974 
1.8152289e+3, 1.3559587e+2, -1298106.4, -1528439.0, -7917.047, 0.17544341, -0.1508315, -1297834.5, 313313.25, 0.06829826, 10.002647, 9.999373 
1.8152115e+3, 1.4559457e+2, -1249521.9, -1561139.9, -16122.864, -0.10946489, -0.16405301, -1248689.9, 264470.38, 0.0365772, 10.00268, 9.998416 
1.8151987e+3, 1.5559343e+2, -1206642.4, -1497690.4, -11138.067, 0.0127295125, -0.122210816, -1206216.8, 208956.33, 0.013766695, 10.002274, 9.998374 
1.815185e+3, 1.6559212e+2, -1135669.8, -1391235.0, -29207.79, 0.059643134, -0.09700901, -1132374.1, 184813.1, 0.0028426799, 10.001973, 9.998578 
1.8151705e+3, 1.7559074e+2, -1064670.8, -1303999.9, -36645.61, 0.046540234, -0.09583524, -1059185.4, 160016.17, 0.00016504708, 10.001774, 9.9986 
1.815156e+3, 1.8558957e+2, -963116.6, -1119374.0, -36360.125, 0.038193148, -0.10913146, -955070.2, 166142.63, 0.00000012908751, 10.0014305, 9.99936 
1.8151413e+3, 1.9558868e+2, -933463.4, -1061651.6, -2992.8145, 0.033748627, -0.13873422, -933393.5, 89826.82, 0.0, 10.000994, 9.999294 
1.8151268e+3, 2.0558788e+2, -893755.9, -1051789.1, -13813.327, 0.043343708, -0.11427434, -892557.56, 32671.742, 0.0, 10.000851, 9.998758 
1.8151122e+3, 2.1558724e+2, -780354.9, -944844.5, -49346.586, 0.065571114, -0.057518855, -766686.75, 60551.688, 0.0, 10.00095, 9.998772 
1.8150972e+3, 2.2558658e+2, -686929.3, -767641.3, -76830.016, 0.054674797, -0.035908934, -640501.3, 88744.84, 0.0, 10.000568, 9.999499 
1.8150814e+3, 2.3558599e+2, -700129.4, -725260.8, -55694.734, 0.017335802, -0.04989752, -655600.44, -24348.85, 0.0, 9.999813, 9.999482 
1.8150659e+3, 2.4558534e+2, -616267.7, -608074.3, -47741.043, 0.010336246, -0.068097666, -564254.5, -30998.008, 0.0, 9.999602, 9.999715 
1.8150507e+3, 2.5558487e+2, -488835.0, -501421.47, -45985.516, 0.028063007, -0.093830645, -448714.1, -13454.813, 0.0, 9.999828, 9.999665 
1.8150349e+3, 2.655842e+2, -431076.3, -451094.16, -66238.48, 0.023641843, -0.108177006, -374094.8, -36829.313, 0.0, 9.999675, 9.999411 
1.8150187e+3, 2.7558345e+2, -401292.72, -385461.6, -71550.36, 0.0012140803, -0.13064727, -321390.28, -82116.23, 0.0, 9.999204, 9.999416 
1.8150036e+3, 2.855832e+2, -293127.0, -205429.22, -28621.52, 0.061380696, -0.12581448, -196914.8, -55638.984, 0.0, 9.99894, 10.000107 
1.8149899e+3, 2.955838e+2, -205258.16, -113919.695, -10811.739, 0.18896194, -0.07936904, -112657.35, -69389.195, 0.0, 9.998877, 10.000093 
1.8149725e+3, 3.055839e+2, -273359.03, -191088.75, 29536.225, -0.07416693, -0.04366771, -181583.11, -181583.11, 0.0, 9.998377, 9.999469 
1.8149596e+3, 3.155825e+2, -290005.6, -31516.969, -43892.766, 0.048610922, -0.12775098, -24267.078, -24267.078, 0.0, 9.997546, 10.000962 
1.8252435e+3, 1.256109e+2, -1402551.8, -1676994.5, -2017.7654, -0.0204071, -0.10653581, -1402536.9, 306465.38, 0.10776605, 10.002946, 9.998864 
1.8252315e+3, 1.3560984e+2, -1273842.8, -1523750.8, 872.3969, 0.1501354, -0.15277721, -1273839.6, 337170.97, 0.072472624, 10.0028715, 9.999303 
1.8252142e+3, 1.4560866e+2, -1243545.8, -1554277.1, -32275.238, -0.111314304, -0.15092136, -1240228.8, 272793.2, 0.038990494, 10.002714, 9.9984455 
1.825201e+3, 1.5560739e+2, -1178537.3, -1480684.8, -6397.4233, 0.02401686, -0.12483199, -1178401.9, 236633.9, 0.01482972, 10.0024605, 9.9984 
1.825187e+3, 1.6560602e+2, -1119715.4, -1381561.3, -3948.8984, 0.06429972, -0.10625411, -1119655.8, 197394.88, 0.0031336541, 10.002077, 9.998592 
1.825172e+3, 1.756047e+2, -1089753.1, -1314182.6, 4322.1416, 0.027487956, -0.10204743, -1089669.9, 129395.1, 0.00019006866, 10.0015955, 9.998614 
1.8251573e+3, 1.8560366e+2, -970930.2, -1117896.5, -15844.362, 0.021857709, -0.10287512, -969241.44, 151833.53, 0.00000015151502, 10.001357, 9.999404 
1.8251427e+3, 1.9560303e+2, -883898.1, -1033856.44, -42394.793, 0.039869674, -0.11228396, -872742.56, 150337.36, 0.0, 10.00132, 9.999327 
1.8251278e+3, 2.0560214e+2, -868165.8, -1056270.0, -42757.33, 0.053937342, -0.08893624, -858902.9, 66187.16, 0.0, 10.001101, 9.998607 
1.8251131e+3, 2.156012e+2, -820963.5, -978716.9, -22794.367, 0.06627039, -0.04852477, -817735.94, 9367.187, 0.0, 10.000735, 9.998642 
1.8250977e+3, 2.256005e+2, -680565.1, -741744.75, -48989.26, 0.05225698, -0.035533164, -653399.56, 75711.414, 0.0, 10.000514, 9.999704 
1.8250816e+3, 2.3560007e+2, -600768.44, -654551.44, -55844.57, 0.017468069, -0.053330895, -565677.94, 65435.688, 0.0, 10.000399, 9.999684 
1.8250658e+3, 2.4559961e+2, -537771.1, -562256.94, -49168.26, 0.008755958, -0.06608928, -499344.44, 33772.05, 0.0, 10.00011, 9.999784 
1.8250503e+3, 2.5559932e+2, -507118.2, -502628.94, -51669.395, 0.021376085, -0.079210006, -453155.44, -18037.418, 0.0, 9.999672, 9.999732 
1.8250343e+3, 2.6559874e+2, -467148.1, -457289.6, -69577.79, 0.021376334, -0.09235675, -392466.7, -55343.426, 0.0, 9.99938, 9.99951 
1.825018e+3, 2.7559802e+2, -397272.4, -373810.0, -58080.957, 0.012606193, -0.11975172, -326287.34, -87156.68, 0.0, 9.999191, 9.999501 
1.8250029e+3, 2.8559774e+2, -293940.0, -218558.31, -31387.086, 0.07358066, -0.117368564, -207200.72, -66067.56, 0.0, 9.998991, 9.999992 
1.8249886e+3, 2.9559815e+2, -227311.89, -133865.55, -73692.02, 0.1893773, -0.08066291, -93332.95, -50204.527, 0.0, 9.998767, 10.000009 
1.8249708e+3, 3.0559856e+2, -269148.28, -175562.33, -35628.695, -0.074062556, -0.015336308, -163542.16, -163542.16, 0.0, 9.998351, 9.999586 
1.8249577e+3, 3.1559658e+2, -228816.33, 16691.566, 27414.357, 0.08712936, -0.16884506, 19715.514, 19715.514, 0.0, 9.997883, 10.001132 
1.8352465e+3, 1.2562507e+2, -1448065.1, -1774278.9, -43201.44, -0.015547729, -0.15774475, -1442440.8, 266420.34, 0.11422007, 10.002943, 9.998177 
1.8352337e+3, 1.3562414e+2, -1315336.9, -1606414.5, 345.5604, 0.091598764, -0.12183194, -1315336.4, 295535.22, 0.07692826, 10.00287, 9.998693 
1.8352169e+3, 1.4562312e+2, -1222215.4, -1507645.1, -41036.277, -0.119143166, -0.092900194, -1216432.8, 296449.56, 0.041556932, 10.002715, 9.998768 
1.8352039e+3, 1.5562181e+2, -1155888.3, -1433711.0, -14789.995, 0.062273543, -0.10517209, -1155103.1, 259792.22, 0.015961973, 10.002463, 9.998721 
1.8351893e+3, 1.6562046e+2, -1103417.3, -1348213.1, -22283.787, 0.08604316, -0.11126387, -1101405.3, 215503.69, 0.003449119, 10.002079, 9.998821 
1.835173e+3, 1.7561921e+2, -1076911.8, -1289746.0, -12370.088, -0.016641416, -0.12255615, -1076195.1, 142726.67, 0.00021871291, 10.001604, 9.998779 
1.835158e+3, 1.8561818e+2, -1020845.4, -1223657.5, -17065.867, -0.02242475, -0.09261872, -1019419.4, 101514.01, 0.00000018976193, 10.001365, 9.998675 
1.8351439e+3, 1.9561748e+2, -928942.1, -1128687.6, -42382.977, 0.048937544, -0.034828, -920321.2, 102621.07, 0.0, 10.001323, 9.998675 
1.835129e+3, 2.0561652e+2, -826276.7, -969114.25, -55333.984, 0.06526629, -0.020666905, -807348.94, 117603.984, 0.0, 10.001099, 9.999207 
1.8351136e+3, 2.156155e+2, -781375.5, -897721.75, -33824.992, 0.039130032, -0.04948612, -772256.4, 54707.473, 0.0, 10.000738, 9.999198 
1.8350978e+3, 2.2561465e+2, -691869.94, -765477.5, -52519.555, 0.020952923, -0.066082604, -664542.44, 64429.277, 0.0, 10.000514, 9.999541 
1.8350817e+3, 2.3561409e+2, -611619.4, -677243.25, -58866.004, 0.009500936, -0.081821494, -577038.25, 53937.637, 0.0, 10.000398, 9.99953 
1.835066e+3, 2.4561375e+2, -536310.3, -558235.1, -64821.78, 0.015973419, -0.07728886, -481530.53, 51447.85, 0.0, 10.000104, 9.999816 
1.8350501e+3, 2.556137e+2, -502969.9, -494858.56, -65499.406, 0.035641585, -0.06532352, -433289.38, 1688.9656, 0.0, 9.999674, 9.999785 
1.8350339e+3, 2.6561368e+2, -442823.75, -409132.63, -75816.984, 0.0433417, -0.047926296, -348312.3, -11333.971, 0.0, 9.999388, 9.999839 
1.8350175e+3, 2.756137e+2, -378156.47, -337580.47, -63435.59, 0.04253948, -0.031344123, -291267.6, -52290.758, 0.0, 9.999203, 9.999746 
1.8350017e+3, 2.8561273e+2, -355005.97, -347539.1, -39780.52, 0.06878281, -0.062495857, -311317.2, -170330.23, 0.0, 9.999, 9.999103 
1.8349867e+3, 2.9561117e+2, -280469.56, -246383.23, -82562.91, 0.112500116, -0.13474813, -179122.77, -136118.67, 0.0, 9.9987755, 9.999232 
1.8349694e+3, 3.0561185e+2, -187433.92, -6509.808, -56431.965, -0.056329962, -0.069867864, 9648.725, 9648.725, 0.0, 9.998352, 10.000748 
1.8349555e+3, 3.1561238e+2, -201581.75, 64400.02, 58351.57, 0.06750995, -0.08771145, 76638.2, 76638.2, 0.0, 9.997911, 10.001451 
1.8452497e+3, 1.2564003e+2, -1376112.9, -1752902.4, -58182.43, -0.012637977, -0.1616326, -1367333.1, 341381.28, 0.121078186, 10.003603, 9.998008 
1.8452364e+3, 1.3563901e+2, -1298982.6, -1612925.0, 46986.395, 0.07152109, -0.12194198, -1292101.1, 318625.03, 0.08165061, 10.003072, 9.99855 
1.84522e+3, 1.4563799e+2, -1213884.0, -1509847.6, 13558.091, -0.0871929, -0.082448184, -1213264.3, 299472.8, 0.044275217, 10.002813, 9.998703 
1.8452065e+3, 1.5563649e+2, -1125189.4, -1425363.4, 9716.032, 0.050850756, -0.1054652, -1124875.3, 289876.75, 0.017166656, 10.002711, 9.998659 
1.8451913e+3, 1.6563518e+2, -1056462.0, -1325420.1, -28230.727, 0.066361524, -0.10619923, -1053530.8, 263234.8, 0.0037913383, 10.002405, 9.998819 
1.8451749e+3, 1.7563413e+2, -1025938.5, -1265665.9, -34735.418, -0.017434837, -0.09674515, -1021006.94, 197769.67, 0.00025177147, 10.001959, 9.998772 
1.8451595e+3, 1.8563303e+2, -985778.0, -1211581.8, -7033.7188, -0.022842309, -0.07034195, -985559.1, 135229.67, 0.00000025167606, 10.001628, 9.998631 
1.8451451e+3, 1.9563206e+2, -921935.2, -1129212.9, 14413.718, 0.033670265, -0.035475235, -920937.7, 101862.62, 0.0, 10.0013895, 9.998638 
1.84513e+3, 2.0563108e+2, -817872.44, -952052.6, -2907.7139, 0.047339305, -0.028091287, -817809.44, 107001.6, 0.0, 10.0011015, 9.999322 
1.8451142e+3, 2.1563022e+2, -768627.2, -878869.06, -17834.643, 0.027656784, -0.05047969, -765813.75, 61006.125, 0.0, 10.000773, 9.999309 
1.8450983e+3, 2.2562948e+2, -694807.7, -764865.7, -38354.684, 0.01194559, -0.062242977, -677893.4, 50933.094, 0.0, 10.000487, 9.9995575 
1.845082e+3, 2.3562896e+2, -636105.3, -688383.44, -33772.21, 0.00079289085, -0.07377599, -619538.25, 11291.734, 0.0, 10.000228, 9.999535 
1.845066e+3, 2.4562857e+2, -576756.44, -588658.8, -46953.78, 0.010154818, -0.07044788, -535378.2, -2544.7986, 0.0, 9.999875, 9.999717 
1.8450497e+3, 2.5562838e+2, -543071.44, -522832.06, -57994.68, 0.034823354, -0.06459385, -474080.78, -39245.3, 0.0, 9.999439, 9.999704 
1.8450333e+3, 2.6562834e+2, -454988.2, -406988.53, -69815.914, 0.052520424, -0.04810987, -357162.53, -20326.953, 0.0, 9.999273, 9.999907 
1.845017e+3, 2.7562848e+2, -357288.44, -321072.84, -77714.98, 0.06656147, -0.028121902, -259383.95, -20551.3, 0.0, 9.999322, 9.999801 
1.8450008e+3, 2.8562754e+2, -341281.44, -345527.72, -35804.56, 0.07172937, -0.05650539, -307537.13, -166694.9, 0.0, 9.999115, 9.99906 
1.8449849e+3, 2.9562593e+2, -304816.72, -263318.25, -19771.533, 0.06702344, -0.12828334, -255406.64, -212547.0, 0.0, 9.998633, 9.999183 
1.844968e+3, 3.0562612e+2, -198716.23, -12040.237, -10542.729, -0.023260187, -0.103846446, -11446.712, -11446.712, 0.0, 9.998281, 10.000742 
1.8449533e+3, 3.1562656e+2, -171147.19, 51959.953, 33886.797, 0.044345006, -0.13505441, 56993.32, 56993.32, 0.0, 9.998236, 10.00121 
1.8552531e+3, 1.2565577e+2, -1362284.0, -1711560.6, -96616.28, -0.03668649, -0.11975426, -1337339.6, 371222.47, 0.12828696, 10.003583, 9.998318 
1.8552396e+3, 1.3565436e+2, -1280193.0, -1573008.4, 31639.688, 0.08023629, -0.15402842, -1276813.3, 333761.72, 0.08661796, 10.003086, 9.998838 
1.8552233e+3, 1.4565319e+2, -1243004.4, -1574172.5, 8942.98, -0.026565913, -0.11964092, -1242763.0, 269823.97, 0.047144454, 10.002824, 9.998258 
1.8552084e+3, 1.5565144e+2, -1155935.3, -1489701.1, 5717.334, -0.010477889, -0.12318065, -1155837.4, 258768.64, 0.018449815, 10.00271, 9.998219 
1.8551931e+3, 1.6565014e+2, -1071669.3, -1357208.4, -44638.625, 0.0044662743, -0.08789175, -1064853.5, 251766.88, 0.0041641076, 10.002404, 9.998603 
1.8551773e+3, 1.7564942e+2, -1036486.5, -1289217.8, -49075.316, 0.019684, -0.026778167, -1027291.56, 191338.02, 0.00029041685, 10.001964, 9.998609 
1.8551616e+3, 1.8564817e+2, -944676.4, -1126853.3, -15492.074, 0.014071185, -0.037775073, -943368.3, 177273.4, 0.0000003514084, 10.001628, 9.999213 
1.8551461e+3, 1.9564669e+2, -885816.06, -1053961.3, 6421.0547, -0.0072913845, -0.112212315, -885571.25, 137083.64, 0.0, 10.001387, 9.999158 
1.8551306e+3, 2.0564573e+2, -842927.3, -1003580.44, -15158.656, -0.00082869525, -0.108101755, -841509.56, 83155.625, 0.0, 10.001098, 9.998971 
1.855115e+3, 2.1564533e+2, -791576.56, -926047.06, -28221.637, 0.027544482, -0.050345622, -785893.75, 40778.004, 0.0, 10.00077, 9.998988 
1.8550988e+3, 2.2564492e+2, -682708.8, -738917.06, -47465.277, 0.021571575, -0.024278974, -655651.4, 73024.516, 0.0, 10.000482, 9.999739 
1.8550822e+3, 2.3564461e+2, -625457.5, -666572.5, -41982.465, -0.010482533, -0.031862166, -599269.56, 31407.383, 0.0, 10.000228, 9.999685 
1.8550655e+3, 2.4564397e+2, -592956.06, -623313.5, -62801.836, -0.010646975, -0.048310447, -543524.7, -10842.025, 0.0, 9.999877, 9.999478 
1.855049e+3, 2.556432e+2, -558112.3, -556280.8, -71737.55, 0.014239629, -0.07728594, -485453.2, -50762.715, 0.0, 9.999446, 9.999473 
1.8550326e+3, 2.656426e+2, -468282.7, -435731.97, -67748.87, 0.04618021, -0.09248044, -382330.97, -45634.95, 0.0, 9.999277, 9.999708 
1.8550164e+3, 2.756422e+2, -366185.66, -340968.38, -74513.44, 0.082035094, -0.10843476, -278004.3, -39305.258, 0.0, 9.999327, 9.999662 
1.855e+3, 2.85642e+2, -284093.7, -229476.47, -53791.918, 0.078256555, -0.09796319, -196458.22, -55758.234, 0.0, 9.999124, 9.999854 
1.8549833e+3, 2.9564226e+2, -256541.45, -166613.5, -39236.56, 0.044801004, -0.062469766, -151901.13, -109204.7, 0.0, 9.998645, 9.999843 
1.8549667e+3, 3.0564126e+2, -279376.2, -182756.0, -14453.154, 0.027293924, -0.12578464, -180640.31, -180640.31, 0.0, 9.998294, 9.999563 
1.854952e+3, 3.1564125e+2, -217598.8, -50871.29, -2362.1826, 0.08530463, -0.08173358, -50837.832, -50837.832, 0.0, 9.998261, 10.000492 
1.8652569e+3, 1.2567215e+2, -1422324.1, -1760655.3, -57716.47, -0.007843893, -0.07938759, -1412749.1, 295653.5, 0.13577262, 10.003213, 9.998144 
1.8652426e+3, 1.3566998e+2, -1168567.0, -1536497.0, 42124.258, 0.022970589, -0.16904631, -1163805.8, 446616.47, 0.091802955, 10.004029, 9.998661 
1.8652268e+3, 1.4566877e+2, -1120890.5, -1525517.3, -8182.688, -0.01489544, -0.123709604, -1120725.0, 391709.56, 0.05016522, 10.003774, 9.998133 
1.8652111e+3, 1.556671e+2, -1164649.1, -1507495.1, 10990.899, -0.015870849, -0.10644956, -1164297.1, 250155.92, 0.019819729, 10.002712, 9.998095 
1.8651953e+3, 1.6566569e+2, -1099214.1, -1378195.6, -8972.147, -0.0051615112, -0.0746339, -1098925.9, 217542.92, 0.0045722285, 10.002249, 9.998532 
1.8651794e+3, 1.7566466e+2, -1000704.9, -1279000.8, -6515.9644, 0.019797733, -0.03491263, -1000552.4, 217928.34, 0.0003360051, 10.002239, 9.998546 
1.8651633e+3, 1.8566346e+2, -917818.7, -1104996.0, 899.9554, 0.01864993, -0.042841915, -917814.4, 202678.11, 0.00000050835786, 10.001776, 9.999291 
1.8651474e+3, 1.9566227e+2, -941743.6, -1072299.6, -13536.058, -0.005321384, -0.09517589, -940354.94, 82147.766, 0.0, 10.000968, 9.999232 
1.8651314e+3, 2.0566136e+2, -908983.7, -1035222.56, -21652.664, -0.007388778, -0.09008223, -905373.06, 19139.205, 0.0, 10.000646, 9.99897 
1.8651155e+3, 2.156608e+2, -801931.1, -931728.25, -11957.29, 0.008902124, -0.047221035, -800838.8, 25681.107, 0.0, 10.000703, 9.9989805 
1.865099e+3, 2.2566034e+2, -698724.25, -749792.06, -37841.902, 0.013266564, -0.024456568, -678607.4, 49917.25, 0.0, 10.000387, 9.999709 
1.8650822e+3, 2.3566006e+2, -691739.25, -701090.9, -48401.918, 0.0076676374, -0.026283998, -647787.8, -17261.89, 0.0, 9.999786, 9.99966 
1.8650655e+3, 2.456594e+2, -621710.5, -637344.44, -52442.043, 0.00981534, -0.044163253, -576506.0, -43974.086, 0.0, 9.999684, 9.999473 
1.8650487e+3, 2.5565857e+2, -484158.25, -521679.4, -46386.918, 0.02067226, -0.08018975, -452881.78, -18341.736, 0.0, 9.999961, 9.999461 
1.865032e+3, 2.6565787e+2, -399436.94, -400021.1, -32650.31, 0.03735307, -0.101874165, -367077.4, -30531.338, 0.0, 9.999742, 9.999729 
1.8650153e+3, 2.7565742e+2, -393390.84, -348801.8, -23599.744, 0.05479877, -0.12416577, -338631.06, -100081.42, 0.0, 9.99912, 9.999706 
1.8649988e+3, 2.856574e+2, -305267.9, -215254.64, -16348.485, 0.059969574, -0.10853268, -212377.34, -71828.85, 0.0, 9.998876, 10.00007 
1.8649822e+3, 2.9565805e+2, -203869.56, -121229.65, -48293.113, 0.06618675, -0.058120903, -98992.05, -56451.09, 0.0, 9.998923, 10.000019 
1.8649653e+3, 3.0565697e+2, -278568.7, -231231.88, -16952.123, 0.047902163, -0.113217436, -225787.27, -225787.27, 0.0, 9.998509, 9.9991255 
1.8649492e+3, 3.156571e+2, -298896.9, -94366.625, 12593.438, 0.015187021, -0.015230762, -93594.13, -93594.13, 0.0, 9.997725, 10.000449 
1.8752605e+3, 1.2568894e+2, -1459309.6, -1850152.8, -32241.477, 0.036647826, -0.054455243, -1456667.9, 251570.0, 0.14346069, 10.003241, 9.997512 
1.8752454e+3, 1.3568594e+2, -1212755.4, -1622216.9, 65522.652, -0.09905198, -0.16341566, -1202526.0, 407741.66, 0.09718228, 10.004014, 9.998037 
1.87523e+3, 1.4568478e+2, -1113959.9, -1502364.3, -46409.133, -0.05397679, -0.09009304, -1108491.6, 403787.9, 0.05334204, 10.003748, 9.998308 
1.8752143e+3, 1.5568343e+2, -1153423.9, -1482341.0, -24139.438, 0.027164834, -0.05964983, -1151661.6, 262632.13, 0.021286089, 10.0027075, 9.998271 
1.8751979e+3, 1.6568169e+2, -1096489.6, -1372228.8, -9489.358, 0.02924913, -0.071059935, -1096163.5, 220148.22, 0.0050208755, 10.002246, 9.998576 
1.8751812e+3, 1.7567983e+2, -1001463.0, -1278953.9, -7686.9165, -0.017677821, -0.11721346, -1001250.2, 217080.27, 0.00038988978, 10.002231, 9.998551 
1.8751648e+3, 1.856789e+2, -945662.44, -1162418.1, -29191.463, -0.010492101, -0.08019206, -941799.94, 178541.25, 0.000000733184, 10.001772, 9.9989 
1.8751487e+3, 1.9567877e+2, -964806.94, -1122511.5, -40093.6, 0.034655977, 0.013073678, -955199.2, 67145.14, 0.0, 10.000976, 9.998885 
1.8751323e+3, 2.0567788e+2, -884847.6, -987337.75, -18786.78, 0.022857267, 0.021055283, -881512.44, 42840.72, 0.0, 10.000653, 9.999296 
1.8751158e+3, 2.1567659e+2, -782738.44, -891164.2, -9541.003, -0.030144649, -0.042945527, -781905.25, 44459.74, 0.0, 10.000698, 9.999262 
1.8750992e+3, 2.256757e+2, -715642.9, -784715.9, -59938.805, -0.014942812, -0.062085476, -681002.56, 47370.754, 0.0, 10.000384, 9.999472 
1.8750826e+3, 2.3567529e+2, -706142.7, -731476.9, -67030.336, 0.050659277, -0.054870628, -650593.06, -20215.557, 0.0, 9.999786, 9.999452 
1.8750659e+3, 2.4567479e+2, -606240.2, -606023.06, -41144.016, 0.06774089, -0.056897882, -564987.5, -32605.596, 0.0, 9.999686, 9.999688 
1.8750489e+3, 2.5567433e+2, -469307.94, -492616.13, -36295.14, 0.049902517, -0.07389881, -442841.75, -8456.604, 0.0, 9.999967, 9.999659 
1.8750316e+3, 2.6567408e+2, -382113.28, -366113.78, -55742.367, 0.022597468, -0.07725482, -317800.06, 18586.71, 0.0, 9.999748, 9.99996 
1.8750137e+3, 2.7567407e+2, -377253.9, -318479.94, -43829.043, -0.019344855, -0.07703461, -295097.8, -56712.234, 0.0, 9.999131, 9.99991 
1.8749972e+3, 2.856737e+2, -330101.9, -268178.8, -15123.958, 0.013180099, -0.08790179, -264682.38, -124293.49, 0.0, 9.998881, 9.999703 
1.8749818e+3, 2.9567322e+2, -226211.63, -167389.08, -47167.17, 0.12831154, -0.11085318, -141214.69, -98820.69, 0.0, 9.998921, 9.999704 
1.8749638e+3, 3.0567315e+2, -254854.0, -186767.52, -46383.94, 0.03170424, -0.07006454, -163274.56, -163274.56, 0.0, 9.998525, 9.999426 
1.874947e+3, 3.1567228e+2, -228576.52, 43306.273, -58122.3, 0.01823906, -0.09741251, 55210.29, 55210.29, 0.0, 9.997762, 10.001377 
1.8852647e+3, 1.2570502e+2, -1235910.4, -1714004.0, -64263.15, 0.04733324, -0.04376971, -1227423.1, 480658.44, 0.15130895, 10.005029, 9.99759 
1.8852492e+3, 1.3570209e+2, -1301990.0, -1674361.6, 52180.65, -0.09014086, -0.13858432, -1294816.1, 315294.34, 0.1027529, 10.003376, 9.997984 
1.885234e+3, 1.4570116e+2, -1244367.9, -1550706.5, -41109.54, 0.011402301, -0.04938504, -1238947.1, 273172.94, 0.05668712, 10.002735, 9.998463 
1.885217e+3, 1.556996e+2, -1118373.8, -1447859.8, -22780.748, 0.01760469, -0.055097476, -1116806.1, 297329.88, 0.022858981, 10.002884, 9.998423 
1.8852e+3, 1.6569784e+2, -1049783.0, -1337965.8, -4390.4873, 0.00045041682, -0.08066087, -1049716.1, 266437.3, 0.0055146767, 10.00252, 9.998679 
1.8851832e+3, 1.7569616e+2, -1063333.6, -1299873.6, 847.1188, -0.023731174, -0.12053026, -1063330.5, 154839.34, 0.0004532519, 10.001769, 9.99863 
1.8851665e+3, 1.8569516e+2, -994358.2, -1211669.4, -7862.759, -0.002724434, -0.079336464, -994074.06, 126107.24, 0.0000010252129, 10.001551, 9.998668 
1.8851501e+3, 1.956948e+2, -868306.56, -1099895.9, -9220.704, 0.04825629, 0.01464568, -867940.0, 154247.6, 0.0, 10.001741, 9.998671 
1.8851332e+3, 2.0569386e+2, -783647.7, -927569.1, 3479.4114, 0.031799305, 0.020807033, -783563.6, 140633.44, 0.0, 10.001303, 9.999393 
1.8851164e+3, 2.1569261e+2, -822209.75, -901219.06, -5420.7686, -0.034047335, -0.04682597, -821839.56, 4367.857, 0.0, 10.00039, 9.999341 
1.8850994e+3, 2.2569168e+2, -783843.0, -837183.75, -53865.12, -0.019134043, -0.06519633, -750407.1, -22190.697, 0.0, 10.000005, 9.999293 
1.8850826e+3, 2.3569113e+2, -682642.56, -737696.2, -57549.555, 0.056045964, -0.05329183, -646375.4, -16152.465, 0.0, 10.000027, 9.999292 
1.8850654e+3, 2.4569067e+2, -588862.8, -580022.94, -26149.799, 0.07019495, -0.052646514, -557922.2, -25695.188, 0.0, 9.999731, 9.999844 
1.8850484e+3, 2.556904e+2, -573089.0, -526714.25, -27076.3, 0.04184678, -0.069177486, -514253.63, -80025.65, 0.0, 9.999188, 9.999798 
1.8850309e+3, 2.656902e+2, -491969.56, -422258.4, -61982.03, 0.01756253, -0.06766791, -386003.63, -49774.863, 0.0, 9.999009, 9.999928 
1.8850128e+3, 2.7569032e+2, -383852.63, -323961.1, -71579.63, -0.017120594, -0.054396436, -276315.66, -38088.367, 0.0, 9.999098, 9.999887 
1.884996e+3, 2.8568995e+2, -347074.7, -272271.9, -35051.723, 0.015435239, -0.06542832, -258414.28, -118183.23, 0.0, 9.99875, 9.999739 
1.8849805e+3, 2.9568928e+2, -343324.75, -219579.25, -35584.906, 0.14832172, -0.11256494, -210076.06, -167837.55, 0.0, 9.998101, 9.999739 
1.8849614e+3, 3.0568984e+2, -294962.72, -160742.02, -21181.012, -0.022618938, -0.027488159, -157478.84, -157478.84, 0.0, 9.998054, 9.999832 
1.8849452e+3, 3.156888e+2, -140635.5, 126397.5, -33855.99, 0.03307216, -0.11405098, 130623.09, 130623.09, 0.0, 9.9981985, 10.001733 
1.8952693e+3, 1.2572041e+2, -1202753.9, -1630507.5, -94306.77, -0.0021367176, -0.053739652, -1182885.0, 525048.44, 0.1593207, 10.005012, 9.998261 
1.8952538e+3, 1.3571845e+2, -1277744.1, -1609935.3, 2337.5293, 0.033755142, -0.10099512, -1277727.6, 332223.44, 0.108536236, 10.003363, 9.998429 
1.8952383e+3, 1.457178e+2, -1238569.4, -1533555.9, -35001.016, 0.1653863, -0.009112509, -1234473.3, 277483.97, 0.060219586, 10.002724, 9.998587 
1.8952192e+3, 1.5571564e+2, -1111148.0, -1431643.0, -17685.38, -0.044957392, -0.08785834, -1110175.0, 303804.44, 0.024547812, 10.002883, 9.998535 
1.8952015e+3, 1.6571419e+2, -1038520.25, -1315152.6, -32099.715, -0.091933206, -0.09596842, -1034844.3, 281149.47, 0.0060573337, 10.002522, 9.998836 
1.8951851e+3, 1.7571352e+2, -1052852.9, -1279805.9, -23838.451, -0.0033425437, -0.048502866, -1050376.0, 167623.73, 0.0005270964, 10.001775, 9.998766 
1.8951684e+3, 1.8571216e+2, -1000205.7, -1224206.4, -560.8214, 0.035975493, -0.045967396, -1000204.25, 119809.66, 0.0000013718216, 10.00155, 9.998583 
1.8951517e+3, 1.9571039e+2, -876545.7, -1114450.6, -3105.6143, 0.034127045, -0.08643434, -876505.2, 145527.86, 0.0, 10.001729, 9.998578 
1.8951344e+3, 2.0570928e+2, -793916.06, -947745.7, -30285.95, 0.017668217, -0.08414342, -788168.1, 135875.98, 0.0, 10.001295, 9.999259 
1.895117e+3, 2.1570885e+2, -832097.94, -921878.1, -35492.094, -0.007722369, -0.05630926, -819762.06, 6285.5767, 0.0, 10.000389, 9.999201 
1.8950994e+3, 2.2570819e+2, -791212.56, -853895.4, -52356.957, -0.0030257888, -0.03441012, -761533.2, -33478.434, 0.0, 10.000009, 9.999177 
1.8950821e+3, 2.3570752e+2, -690092.7, -754401.75, -56018.59, 0.021534586, -0.023118032, -657656.25, -27593.213, 0.0, 10.00003, 9.999177 
1.8950647e+3, 2.4570696e+2, -581707.4, -566879.94, -45800.99, 0.015810296, -0.03144015, -527896.5, 4171.5127, 0.0, 9.999737, 9.999932 
1.8950471e+3, 2.5570658e+2, -567210.44, -516799.8, -44308.336, -0.0057408875, -0.06615847, -491029.28, -56959.89, 0.0, 9.999196, 9.999864 
1.8950298e+3, 2.6570618e+2, -510446.53, -463121.28, -57921.848, 0.019408384, -0.07421957, -424215.06, -88142.016, 0.0, 9.999018, 9.999645 
1.8950127e+3, 2.7570602e+2, -399570.44, -360465.94, -69650.45, 0.055129558, -0.05774268, -307675.4, -69599.516, 0.0, 9.999111, 9.999632 
1.8949953e+3, 2.8570604e+2, -315335.6, -207422.2, -59723.49, 0.062826015, -0.04202778, -180891.52, -40815.5, 0.0, 9.998754, 10.000182 
1.8949784e+3, 2.9570606e+2, -316568.1, -165844.63, -51102.563, 0.12562619, -0.06397039, -150152.17, -108076.625, 0.0, 9.998107, 10.000107 
1.8949585e+3, 3.05707e+2, -257082.67, -87062.74, -14020.106, -0.12809165, 0.016855674, -85914.375, -85914.375, 0.0, 9.998071, 10.000332 
1.894944e+3, 3.1570637e+2, -187583.19, 26988.787, 22698.9, 0.090244524, -0.07995895, 29363.746, 29363.746, 0.0, 9.998211, 10.001041 
1.9052741e+3, 1.257374e+2, -1213945.5, -1619401.9, -5824.096, -0.010365327, -0.08794411, -1213861.9, 493903.72, 0.1675287, 10.004881, 9.998424 
1.9052571e+3, 1.3573536e+2, -1253711.9, -1606046.6, 34529.395, 0.020540075, -0.13407578, -1250359.8, 359424.0, 0.11456048, 10.003609, 9.998341 
1.9052415e+3, 1.4573471e+2, -1203004.4, -1518288.9, 30036.643, 0.19491293, -0.03741106, -1200168.4, 311621.88, 0.0639551, 10.003008, 9.998553 
1.9052222e+3, 1.557326e+2, -1106341.5, -1433602.1, 35072.23, -0.037223857, -0.10511339, -1102625.0, 311187.0, 0.02635815, 10.002942, 9.998492 
1.9052042e+3, 1.657312e+2, -1030170.9, -1331139.6, -16838.396, -0.08827149, -0.0967717, -1029231.7, 286594.8, 0.0066510234, 10.002669, 9.998655 
1.905187e+3, 1.7573054e+2, -995363.06, -1269822.8, -32957.527, 0.010396228, -0.030971117, -991461.0, 226372.3, 0.0006122247, 10.002246, 9.998607 
1.9051702e+3, 1.8572907e+2, -967126.2, -1192110.6, 2623.4172, 0.045699894, -0.03993613, -967095.56, 152752.61, 0.0000017786746, 10.001709, 9.998726 
1.9051531e+3, 1.957271e+2, -961822.8, -1142370.9, 13789.06, 0.027149953, -0.11319701, -960775.8, 61092.07, 0.0, 10.001088, 9.998693 
1.9051355e+3, 2.0572594e+2, -876125.8, -1009104.9, -15545.946, 0.015108983, -0.11182501, -874332.6, 49546.875, 0.0, 10.000827, 9.999063 
1.9051178e+3, 2.1572553e+2, -778438.0, -916182.0, -25917.406, 0.0110700885, -0.061892994, -773722.9, 52160.684, 0.0, 10.000846, 9.999019 
1.9050999e+3, 2.2572482e+2, -706335.5, -811687.75, -30522.123, 0.005898229, -0.036099803, -698131.6, 29759.621, 0.0, 10.0005865, 9.999187 
1.9050819e+3, 2.3572408e+2, -678272.06, -749994.9, -26397.658, -0.0038545565, -0.033915352, -669603.94, -39703.92, 0.0, 10.000117, 9.999165 
1.9050641e+3, 2.4572346e+2, -590585.4, -596598.75, -29581.107, -0.0067772088, -0.03402558, -563858.56, -31952.465, 0.0, 9.999788, 9.999702 
1.9050467e+3, 2.5572306e+2, -528860.75, -521856.75, -52877.188, 0.0056689302, -0.04797471, -472365.72, -38456.777, 0.0, 9.999563, 9.999651 
1.9050291e+3, 2.6572263e+2, -495938.97, -448822.22, -58185.207, 0.036948446, -0.054180104, -409607.06, -73693.6, 0.0, 9.999089, 9.999708 
1.9050114e+3, 2.757224e+2, -496566.5, -398560.75, -45182.598, 0.05404227, -0.0496439, -380909.66, -142993.03, 0.0, 9.998412, 9.999706 
1.9049937e+3, 2.8572252e+2, -386072.9, -223617.98, -31435.1, 0.05479178, -0.033241995, -217747.42, -77832.36, 0.0, 9.998193, 10.00034 
1.9049767e+3, 2.957228e+2, -276471.97, -138084.1, -41165.3, 0.1356322, -0.044383723, -126764.79, -84853.414, 0.0, 9.998349, 10.000179 
1.9049565e+3, 3.0572334e+2, -241922.88, -52133.707, -30757.645, -0.120571084, -0.019416941, -47273.52, -47273.52, 0.0, 9.9980545, 10.000582 
1.9049421e+3, 3.157226e+2, -364422.56, -69918.99, 47125.25, 0.14113829, -0.15557984, -62561.99, -62561.99, 0.0, 9.997053, 10.000932 
1.915279e+3, 1.2575577e+2, -1242443.3, -1659410.6, -18870.242, -0.004772541, -0.14887992, -1241591.0, 465989.7, 0.17597261, 10.004832, 9.998121 
1.9152592e+3, 1.3575284e+2, -1289293.0, -1687873.4, -4489.3887, -0.12220554, -0.22713356, -1289242.5, 320366.44, 0.12084206, 10.003628, 9.9977665 
1.9152436e+3, 1.457519e+2, -1212181.3, -1542930.5, 26940.613, 0.104707085, -0.12214294, -1210001.3, 301617.7, 0.06789752, 10.003036, 9.998372 
1.9152258e+3, 1.5575042e+2, -1120691.9, -1463064.3, 31949.67, 0.030242251, -0.10907436, -1117735.9, 295898.94, 0.028290106, 10.00294, 9.998293 
1.9152078e+3, 1.6574878e+2, -1066242.6, -1404126.1, -33069.645, -0.00088150764, -0.0890493, -1063036.4, 252616.5, 0.007296161, 10.002659, 9.99816 
1.9151895e+3, 1.757472e+2, -1026262.94, -1333899.0, -47257.742, 0.014483982, -0.06502838, -1019167.06, 198503.42, 0.0007092475, 10.002245, 9.998169 
1.9151716e+3, 1.8574588e+2, -942075.75, -1141814.9, -20016.127, 0.023912, -0.05637045, -940089.6, 179594.28, 0.0000023137907, 10.001714, 9.999071 
1.915154e+3, 1.9574489e+2, -940147.4, -1099377.0, -6990.5903, 0.023561342, -0.0663658, -939841.06, 81851.73, 0.0, 10.001095, 9.998987 
1.9151364e+3, 2.0574372e+2, -893065.2, -1046200.2, -14510.993, 0.021019753, -0.06572305, -891702.3, 32001.932, 0.0, 10.0008335, 9.998806 
1.9151187e+3, 2.1574257e+2, -794940.7, -950065.8, -24583.543, 0.0190147, -0.064581424, -791138.06, 34577.992, 0.0, 10.000842, 9.998788 
1.9151005e+3, 2.2574154e+2, -697747.4, -793456.3, -47420.816, 0.0048166215, -0.06879855, -678231.3, 49495.25, 0.0, 10.000583, 9.999316 
1.9150819e+3, 2.3574072e+2, -673123.06, -738639.9, -41874.86, -0.022969522, -0.083811305, -652715.5, -22980.846, 0.0, 10.000113, 9.999247 
1.915064e+3, 2.4574009e+2, -628519.44, -676301.9, -37257.38, -0.00019594518, -0.060336653, -608151.2, -76409.055, 0.0, 9.99979, 9.999156 
1.9150467e+3, 2.5573972e+2, -561935.06, -592956.4, -60736.47, 0.0697253, -0.015346421, -514760.0, -81012.46, 0.0, 9.999571, 9.99916 
1.9150284e+3, 2.657394e+2, -466374.44, -389131.0, -83155.38, 0.06599852, -0.0064634127, -336066.0, -315.22372, 0.0, 9.999095, 10.000116 
1.915009e+3, 2.7573934e+2, -468233.28, -342565.56, -67515.87, -0.023907768, -0.030119909, -313168.8, -75418.28, 0.0, 9.998422, 10.000088 
1.9149911e+3, 2.8573933e+2, -392428.66, -239938.2, -25633.006, -0.011457785, -0.041087072, -235744.73, -95995.33, 0.0, 9.998204, 10.000223 
1.9149755e+3, 2.957394e+2, -290094.8, -172413.56, -31926.098, 0.17359728, -0.058294993, -164310.22, -122562.7, 0.0, 9.998372, 9.999934 
1.9149558e+3, 3.0573872e+2, -239129.64, -50481.24, -63446.766, -0.0058227205, -0.1368992, -31128.059, -31128.059, 0.0, 9.998071, 10.0005865 
1.9149378e+3, 3.157403e+2, -323406.47, 13318.61, 111002.16, 0.0027367903, -0.055620085, 46617.727, 46617.727, 0.0, 9.997057, 10.001505 
1.9252838e+3, 1.2577444e+2, -1302940.3, -1704591.0, -11939.247, 0.021237193, -0.16370523, -1302585.6, 404810.28, 0.18468411, 10.004457, 9.997924 
1.9252633e+3, 1.3577147e+2, -1184623.4, -1669742.3, -18695.986, -0.14459342, -0.21004705, -1183903.9, 425521.84, 0.12738569, 10.004648, 9.997398 
1.9252469e+3, 1.4576997e+2, -1085209.6, -1509077.3, 14057.365, 0.079203516, -0.12616062, -1084744.0, 426697.4, 0.07204244, 10.00413, 9.998076 
1.9252288e+3, 1.5576825e+2, -1116520.8, -1492250.5, 9070.363, 0.033152785, -0.1088783, -1116302.0, 297157.7, 0.030339934, 10.003111, 9.99801 
1.9252105e+3, 1.6576634e+2, -1079624.8, -1412663.0, -30303.143, 0.013863907, -0.10097462, -1076890.0, 238589.94, 0.007991714, 10.002579, 9.998138 
1.9251919e+3, 1.757645e+2, -1005015.75, -1327529.6, -14145.915, 0.021539813, -0.10287015, -1004396.44, 213103.23, 0.000818734, 10.00241, 9.998132 
1.9251734e+3, 1.8576317e+2, -894918.75, -1141197.1, -816.8575, 0.02003959, -0.08104342, -894916.0, 224597.42, 0.0000031359323, 10.002135, 9.998871 
1.9251554e+3, 1.957624e+2, -851810.94, -1077452.1, -26984.963, 0.008852628, -0.049063083, -848628.6, 172892.61, 0.0, 10.001792, 9.998801 
1.9251373e+3, 2.0576116e+2, -815639.7, -1002046.0, -29746.611, 0.0075641223, -0.0475674, -811007.8, 112525.375, 0.0, 10.001337, 9.998864 
1.9251193e+3, 2.1575978e+2, -798271.4, -947396.75, -19957.166, 0.014489997, -0.07557973, -795646.75, 29899.98, 0.0, 10.000803, 9.998825 
1.925101e+3, 2.2575869e+2, -745658.9, -833438.3, -50278.04, 0.014123206, -0.07927677, -722808.9, 4749.036, 0.0, 10.00033, 9.999163 
1.9250822e+3, 2.3575792e+2, -713226.94, -773795.7, -65747.06, 0.0046092845, -0.07399972, -671124.75, -41558.66, 0.0, 9.9999075, 9.999103 
1.9250639e+3, 2.4575719e+2, -658896.0, -686429.7, -37720.453, 0.013348269, -0.05657902, -632508.6, -100934.14, 0.0, 9.999563, 9.999194 
1.925046e+3, 2.5575665e+2, -603260.25, -609368.94, -19798.309, 0.045744196, -0.032328762, -586282.06, -152700.84, 0.0, 9.999274, 9.999189 
1.9250274e+3, 2.6575634e+2, -479503.9, -398130.84, -47134.402, 0.046679944, -0.021469021, -376551.44, -40967.32, 0.0, 9.999019, 10.000091 
1.9250078e+3, 2.757564e+2, -417962.06, -320399.13, -64970.49, -0.0037180812, -0.03414543, -287935.3, -50352.313, 0.0, 9.998779, 10.000066 
1.9249895e+3, 2.8575626e+2, -367854.16, -229110.22, -22768.82, -0.004185786, -0.053967834, -225469.25, -85886.46, 0.0, 9.99838, 10.000213 
1.924973e+3, 2.9575628e+2, -369784.6, -217470.86, -18238.793, 0.12443897, -0.07183436, -215317.31, -173736.42, 0.0, 9.997857, 9.999871 
1.9249547e+3, 3.0575532e+2, -318255.44, -141249.8, -67012.88, 0.0843752, -0.15033829, -118741.47, -118741.47, 0.0, 9.997758, 10.000112 
1.9249351e+3, 3.1575733e+2, -250671.86, 38298.62, 93275.445, 0.007993127, 0.013035815, 65790.98, 65790.98, 0.0, 9.997603, 10.0014105 
1.9352888e+3, 1.2579347e+2, -1314111.1, -1719564.9, 16917.748, 0.0547447, -0.13014194, -1313406.5, 393804.2, 0.1936955, 10.004447, 9.997825 
1.9352686e+3, 1.3579114e+2, -1203161.5, -1700291.4, -15983.224, -0.06604734, -0.09470271, -1202648.1, 406587.0, 0.13419835, 10.0046215, 9.997203 
1.9352512e+3, 1.4578885e+2, -1116229.8, -1569598.8, -21920.826, 0.104641974, -0.05938405, -1115172.3, 396086.28, 0.07638745, 10.004109, 9.997671 
1.9352314e+3, 1.557861e+2, -1140360.4, -1543512.5, -24121.482, -0.027269172, -0.10364001, -1138922.3, 274363.97, 0.032504734, 10.003117, 9.997655 
1.9352125e+3, 1.6578393e+2, -1050093.0, -1354671.0, -36503.363, -0.043081284, -0.12687029, -1045779.2, 269527.97, 0.008736665, 10.002593, 9.998531 
1.9351943e+3, 1.7578234e+2, -983271.44, -1283071.0, -20492.645, 0.027668936, -0.14228, -981877.2, 235444.38, 0.0009414751, 10.002412, 9.998437 
1.9351757e+3, 1.8578082e+2, -945236.5, -1245011.8, -13708.205, 0.029618016, -0.114544906, -944611.0, 174726.75, 0.0000044945964, 10.0021305, 9.998161 
1.9351569e+3, 1.9577956e+2, -896304.9, -1168714.1, -38182.152, -0.019594071, -0.0614533, -891054.3, 130299.27, 0.0, 10.001785, 9.9981785 
1.9351383e+3, 2.0577826e+2, -792653.56, -953762.3, -48690.363, -0.027485156, -0.05621695, -779081.6, 144285.02, 0.0, 10.001332, 9.9992 
1.93512e+3, 2.1577713e+2, -780149.06, -908502.4, -37736.863, -0.0044219857, -0.092045985, -769876.3, 55499.73, 0.0, 10.000795, 9.999096 
1.9351014e+3, 2.2577621e+2, -775240.1, -895677.56, -65353.246, 0.031389214, -0.06683068, -746591.9, -19205.816, 0.0, 10.000331, 9.998735 
1.9350828e+3, 2.3577559e+2, -736783.9, -824411.2, -78852.46, 0.07337504, -0.0062322067, -690390.3, -60995.242, 0.0, 9.999913, 9.998754 
1.9350635e+3, 2.4577467e+2, -616067.44, -599750.3, -47672.563, 0.030284528, -0.022931483, -559543.25, -28139.21, 0.0, 9.999571, 9.999787 
1.9350441e+3, 2.5577372e+2, -565301.56, -533004.44, -29256.033, -0.068667784, -0.099466294, -515736.1, -82325.016, 0.0, 9.999283, 9.999712 
1.9350256e+3, 2.6577333e+2, -510311.2, -464064.75, -55812.004, -0.022504114, -0.100059174, -426775.53, -91360.83, 0.0, 9.999025, 9.999635 
1.9350077e+3, 2.7577338e+2, -447261.6, -384032.28, -73410.625, 0.10861269, -0.061833687, -335718.2, -98302.91, 0.0, 9.998788, 9.999626 
1.9349886e+3, 2.857732e+2, -359015.4, -214118.69, -43027.47, 0.07170941, -0.07219533, -202304.78, -62888.33, 0.0, 9.998391, 10.000312 
1.9349694e+3, 2.9577336e+2, -358760.2, -200516.44, -32857.867, -0.020212857, -0.08651648, -193965.05, -152552.05, 0.0, 9.997878, 9.999981 
1.934953e+3, 3.057731e+2, -381727.22, -276434.8, -63636.633, 0.15147941, -0.053943228, -246490.2, -246490.2, 0.0, 9.997772, 9.999176 
1.9349323e+3, 3.1577176e+2, -270128.88, -10716.218, 51577.355, -0.030720929, -0.12335473, -837.60706, -837.60706, 0.0, 9.997631, 10.001065 
1.9452931e+3, 1.2581177e+2, -1318896.8, -1710797.5, 8369.401, 0.055579625, -0.11926261, -1318718.1, 388314.63, 0.20304601, 10.004409, 9.997902 
1.9452731e+3, 1.358097e+2, -1264233.0, -1719510.3, -32778.52, -0.047811184, -0.06762389, -1261885.1, 347168.72, 0.1412911, 10.004101, 9.997323 
1.9452551e+3, 1.4580712e+2, -1147839.6, -1587193.1, -30210.924, 0.091675945, -0.06788584, -1145772.0, 365307.94, 0.08093128, 10.003897, 9.997652 
1.9452347e+3, 1.5580443e+2, -1057446.8, -1504448.3, -9623.001, -0.04261991, -0.10472652, -1057239.6, 355867.06, 0.034782283, 10.003726, 9.997628 
1.9452152e+3, 1.658022e+2, -968018.5, -1325149.5, -25352.666, -0.05291853, -0.12546563, -966227.7, 348899.97, 0.009530246, 10.003216, 9.998431 
1.9451967e+3, 1.7580046e+2, -978918.8, -1291937.9, -44788.285, 0.02328297, -0.14492595, -972636.4, 244506.61, 0.0010781297, 10.002492, 9.998336 
1.9451778e+3, 1.857988e+2, -970775.4, -1263715.3, -21631.887, 0.030011982, -0.1252497, -969186.56, 149974.05, 0.0000066792873, 10.001986, 9.998101 
1.9451585e+3, 1.9579737e+2, -923157.5, -1189471.8, -2401.6694, -0.014561065, -0.08164637, -923135.8, 98042.39, 0.0, 10.001637, 9.998106 
1.9451395e+3, 2.0579605e+2, -817169.6, -981956.2, -18098.773, -0.026795676, -0.06690195, -815205.25, 107986.77, 0.0, 10.001238, 9.99905 
1.9451207e+3, 2.15795e+2, -788171.9, -927611.94, -43229.203, -0.01547617, -0.08009124, -775857.5, 49343.918, 0.0, 10.000809, 9.998958 
1.9451018e+3, 2.2579397e+2, -739665.5, -873909.2, -57495.758, 0.023744814, -0.061440196, -718406.9, 8805.462, 0.0, 10.000557, 9.998775 
1.945083e+3, 2.3579313e+2, -657786.9, -781537.9, -38736.254, 0.08211039, -0.027774932, -646661.9, -17438.926, 0.0, 10.000438, 9.998794 
1.9450633e+3, 2.4579228e+2, -547476.6, -556180.75, -20744.47, 0.038288034, -0.04212555, -530632.6, 598.2024, 0.0, 10.000001, 9.999878 
1.9450434e+3, 2.5579163e+2, -553174.6, -518532.63, -39924.14, -0.077479854, -0.09579023, -492334.03, -59099.26, 0.0, 9.999331, 9.999786 
1.9450246e+3, 2.6579127e+2, -538405.94, -486973.97, -59126.54, -0.028670613, -0.094755225, -448213.16, -112974.836, 0.0, 9.998874, 9.99955 
1.9450065e+3, 2.7579108e+2, -489590.5, -415649.06, -50778.023, 0.13041124, -0.07118605, -389808.63, -152567.48, 0.0, 9.9985485, 9.999523 
1.9449869e+3, 2.857907e+2, -399398.8, -253794.55, -23725.115, 0.07869007, -0.08345876, -250026.25, -110781.81, 0.0, 9.998204, 10.000129 
1.9449666e+3, 2.9579088e+2, -367784.6, -210329.61, -32654.574, -0.085003555, -0.07956497, -203826.02, -162584.4, 0.0, 9.997845, 9.999927 
1.9449511e+3, 3.05791e+2, -396884.5, -295306.53, -17879.754, 0.18475458, -0.009636565, -292251.25, -292251.25, 0.0, 9.997724, 9.999068 
1.9449297e+3, 3.157891e+2, -277499.6, -11863.259, 76023.05, -0.05940559, -0.11081636, 8355.069, 8355.069, 0.0, 9.997573, 10.001085 
1.955297e+3, 1.258295e+2, -1310796.9, -1685031.1, 14212.23, 0.010218234, -0.11941876, -1310258.0, 396602.25, 0.21274033, 10.004417, 9.998114 
1.9552769e+3, 1.3582735e+2, -1244385.9, -1663303.5, -39548.01, -0.08845555, -0.118604556, -1240685.0, 368195.53, 0.1486592, 10.004097, 9.997712 
1.9552584e+3, 1.4582488e+2, -1130235.0, -1542255.5, -35565.21, 0.03886071, -0.14177492, -1127187.6, 383717.0, 0.08566713, 10.00389, 9.997966 
1.9552386e+3, 1.5582317e+2, -1043532.0, -1469751.5, -17503.387, -0.0214859, -0.11071277, -1042814.4, 370107.22, 0.03716917, 10.003713, 9.997873 
1.9552188e+3, 1.6582109e+2, -1008163.5, -1407007.6, -52645.945, -0.02443344, -0.09917423, -1001331.5, 313610.72, 0.01037135, 10.003206, 9.997875 
1.955199e+3, 1.7581883e+2, -1011490.2, -1360792.6, -68646.76, 0.0063568177, -0.11435835, -998483.7, 218480.63, 0.0012287758, 10.002496, 9.997863 
1.9551796e+3, 1.8581705e+2, -933104.75, -1186717.4, -33155.934, 0.017764162, -0.114315145, -928841.75, 190140.61, 0.000009908067, 10.001989, 9.99863 
1.9551605e+3, 1.9581577e+2, -893204.0, -1127293.1, -14093.74, 0.019055426, -0.10682251, -892358.5, 128637.234, 0.0, 10.001636, 9.998535 
1.9551411e+3, 2.0581447e+2, -860816.9, -1073327.6, -33691.598, 0.0048118006, -0.07774747, -855603.3, 67406.77, 0.0, 10.001239, 9.998424 
1.9551215e+3, 2.1581328e+2, -825026.25, -1005429.4, -56065.586, -0.022683993, -0.041642763, -809022.0, 16001.648, 0.0, 10.000813, 9.998423 
1.9551021e+3, 2.2581185e+2, -705225.5, -803680.44, -60612.996, -0.011093371, -0.06378942, -676367.9, 50669.85, 0.0, 10.00056, 9.999257 
1.9550829e+3, 2.3581043e+2, -629554.56, -722231.8, -42845.863, 0.029506214, -0.13533846, -612781.94, 16268.666, 0.0, 10.000432, 9.999205 
1.9550633e+3, 2.4580994e+2, -576216.1, -616216.9, -45201.965, 0.03476807, -0.111917496, -546787.44, -15731.667, 0.0, 10.0, 9.999467 
1.9550435e+3, 2.5581032e+2, -577224.9, -571092.94, -62327.72, 0.013679245, -0.02210006, -511755.8, -78702.414, 0.0, 9.99934, 9.999422 
1.9550239e+3, 2.6581007e+2, -517961.25, -447104.88, -71067.26, 0.024140362, -0.006029692, -403124.53, -68068.55, 0.0, 9.998882, 9.999821 
1.9550043e+3, 2.7580932e+2, -472310.63, -384596.6, -62085.17, 0.054935932, -0.06460284, -352440.4, -115378.36, 0.0, 9.998567, 9.99973 
1.9549845e+3, 2.858087e+2, -429899.7, -320748.9, -38726.723, 0.011821006, -0.08747764, -308404.72, -169336.67, 0.0, 9.998218, 9.999662 
1.9549645e+3, 2.9580882e+2, -383328.06, -244803.97, -44112.86, -0.074455455, -0.046140056, -231949.17, -190881.38, 0.0, 9.99785, 9.999689 
1.9549488e+3, 3.058087e+2, -343295.88, -186020.14, -18338.195, 0.17943256, -0.03168532, -183910.22, -183910.22, 0.0, 9.997731, 9.999815 
1.9549283e+3, 3.1580818e+2, -274745.75, -17468.154, -74481.53, 0.04709747, -0.05733558, 2538.394, 2538.394, 0.0, 9.997615, 10.00103 
1.965302e+3, 1.2584823e+2, -1211302.9, -1647615.8, 56133.492, 0.0030043141, -0.11522026, -1204196.8, 502480.28, 0.22268574, 10.005409, 9.997969 
1.965281e+3, 1.3584606e+2, -1208552.0, -1628161.1, -21577.715, -0.081009865, -0.12516402, -1207445.3, 401251.8, 0.15625653, 10.004363, 9.997821 
1.965262e+3, 1.4584355e+2, -1153556.4, -1550392.8, -19742.781, 0.011575029, -0.15962961, -1152576.5, 358145.06, 0.09057789, 10.003726, 9.997984 
1.965242e+3, 1.5584199e+2, -1092919.1, -1492510.5, -26320.602, -0.014945428, -0.11489926, -1091192.9, 321544.38, 0.039660398, 10.003363, 9.997885 
1.965222e+3, 1.6583999e+2, -1031768.56, -1415642.4, -53518.824, -0.009778291, -0.0972936, -1024446.75, 290310.25, 0.0112578245, 10.003034, 9.997899 
1.9652015e+3, 1.7583776e+2, -973822.8, -1340395.5, -30407.203, 0.0021396284, -0.11244254, -971317.6, 245460.94, 0.001392616, 10.0027485, 9.997879 
1.9651817e+3, 1.8583585e+2, -895463.5, -1178450.6, -2480.3188, 0.011085128, -0.11899026, -895441.8, 223355.72, 0.000014255441, 10.002295, 9.998536 
1.9651622e+3, 1.9583438e+2, -887505.44, -1133645.5, -28261.266, 0.024265796, -0.12131917, -884302.25, 136510.31, 0.0, 10.0017185, 9.998449 
1.9651425e+3, 2.0583305e+2, -835631.3, -1058952.9, -31439.57, 0.011030684, -0.091074444, -831289.6, 91537.6, 0.0, 10.001405, 9.998441 
1.9651224e+3, 2.1583197e+2, -755763.75, -970497.94, -9814.094, -0.02406961, -0.046987638, -755316.1, 69524.14, 0.0, 10.001283, 9.998434 
1.9651026e+3, 2.2583064e+2, -674549.2, -785515.44, -20127.922, -0.019714765, -0.06161119, -671011.06, 55842.387, 0.0, 10.00076, 9.999283 
1.9650829e+3, 2.358293e+2, -699790.44, -755444.2, -37541.516, 0.014201358, -0.12603521, -680887.2, -52022.098, 0.0, 9.999949, 9.9992075 
1.9650629e+3, 2.4582867e+2, -665937.3, -685942.5, -43847.938, 0.034262393, -0.10285121, -630965.56, -100093.52, 0.0, 9.999499, 9.999228 
1.9650431e+3, 2.5582877e+2, -597318.5, -603181.94, -48757.887, 0.043775104, -0.017787877, -551404.25, -118530.83, 0.0, 9.999303, 9.999217 
1.965023e+3, 2.658285e+2, -472568.25, -405010.78, -48667.742, 0.031504735, -0.0035689422, -379548.06, -44671.953, 0.0, 9.999112, 9.999997 
1.9650026e+3, 2.7582794e+2, -410716.5, -336421.72, -48388.848, 0.0070437556, -0.058797844, -312565.75, -75686.56, 0.0, 9.998914, 9.99989 
1.9649826e+3, 2.8582746e+2, -406052.2, -309416.34, -17887.14, 0.003229013, -0.07802388, -306211.72, -167327.72, 0.0, 9.998384, 9.99966 
1.9649631e+3, 2.9582745e+2, -412770.53, -244888.86, 11872.17, 0.00418208, -0.047771145, -244053.45, -203168.11, 0.0, 9.997591, 9.999811 
1.9649453e+3, 3.058274e+2, -409010.7, -149923.28, 53854.62, 0.10555602, -0.06459603, -139174.81, -139174.81, 0.0, 9.996989, 10.000421 
1.9649246e+3, 3.1582773e+2, -384950.4, -32439.848, -79817.62, -0.02896492, -0.060536135, -15209.273, -15209.273, 0.0, 9.996696, 10.001368 
1.9753075e+3, 1.2586781e+2, -1245283.4, -1696721.5, 27356.838, 0.023631826, -0.10969814, -1243631.6, 462853.16, 0.23270482, 10.005357, 9.997561 
1.9752859e+3, 1.358658e+2, -1221357.9, -1649609.8, -52241.984, -0.037097078, -0.090131044, -1215077.0, 393427.25, 0.16399464, 10.0043545, 9.9976845 
1.9752656e+3, 1.4586309e+2, -1171428.1, -1589937.3, -31037.389, -0.0008811748, -0.12423131, -1169138.9, 341392.3, 0.09563428, 10.0037365, 9.997709 
1.9752453e+3, 1.5586087e+2, -1107721.9, -1524326.9, -37235.78, -0.025669008, -0.117318645, -1104419.9, 308133.7, 0.04225016, 10.003367, 9.997665 
1.9752249e+3, 1.6585888e+2, -994068.6, -1336973.3, -63864.51, -0.012720533, -0.116551824, -982560.4, 332011.53, 0.012187517, 10.003036, 9.99844 
1.9752043e+3, 1.7585714e+2, -943517.25, -1277760.0, -41242.69, 0.007028187, -0.13612816, -938503.44, 278083.03, 0.0015681973, 10.0027485, 9.99831 
1.975184e+3, 1.8585514e+2, -943235.94, -1277320.9, -24034.953, 0.0064161383, -0.13732554, -941515.6, 177091.28, 0.000019593592, 10.002292, 9.99786 
1.9751637e+3, 1.9585311e+2, -927215.9, -1216202.8, -46372.76, -0.0007947731, -0.1272865, -919956.94, 100672.51, 0.0, 10.001717, 9.997885 
1.9751437e+3, 2.0585175e+2, -792664.44, -969392.94, -34556.695, -0.009918932, -0.10881367, -786147.7, 136496.48, 0.0, 10.001401, 9.999059 
1.9751236e+3, 2.1585098e+2, -720574.0, -895132.5, -14364.244, -0.0231408, -0.09264485, -719399.9, 105252.01, 0.0, 10.001271, 9.99896 
1.9751035e+3, 2.2585021e+2, -705451.6, -849213.2, -50019.066, -0.006960283, -0.053152043, -689761.0, 36899.383, 0.0, 10.000755, 9.998849 
1.975083e+3, 2.3584956e+2, -727238.8, -814854.9, -64241.492, 0.031448554, -0.0040227296, -693290.06, -64622.16, 0.0, 9.999958, 9.998797 
1.9750625e+3, 2.4584834e+2, -669364.5, -696093.5, -50815.25, 0.034035508, -0.017503228, -630185.7, -99504.86, 0.0, 9.99951, 9.999155 
1.9750421e+3, 2.558469e+2, -600172.75, -612019.06, -55113.313, 0.008124726, -0.08201212, -550665.2, -117969.25, 0.0, 9.999312, 9.999154 
1.9750217e+3, 2.658464e+2, -465510.28, -392800.06, -56140.348, -0.011040365, -0.086829916, -362271.44, -27571.623, 0.0, 9.999121, 10.000077 
1.9750012e+3, 2.7584684e+2, -401623.4, -320829.28, -56601.445, -0.017194398, -0.05547519, -291687.53, -54993.59, 0.0, 9.998925, 9.999993 
1.9749816e+3, 2.858468e+2, -372087.38, -241145.98, -48511.69, 0.050984394, -0.056016997, -225131.73, -86438.05, 0.0, 9.998392, 10.000125 
1.974962e+3, 2.9584667e+2, -376895.88, -176070.56, -16243.918, 0.14530173, -0.08532121, -174765.16, -134069.64, 0.0, 9.997613, 10.000276 
1.9749407e+3, 3.0584708e+2, -377850.5, -89953.875, 33501.063, -0.048090756, -0.1044108, -86106.93, -86106.93, 0.0, 9.997007, 10.000824 
1.974922e+3, 3.1584796e+2, -326625.34, 84956.37, -81567.695, 0.0343037, -0.082214855, 100532.09, 100532.09, 0.0, 9.99671, 10.00217 
1.9853121e+3, 1.2588759e+2, -1410346.3, -1808273.8, 32366.264, 0.016696619, -0.09323273, -1407730.9, 298560.53, 0.24261937, 10.003975, 9.997445 
1.9852906e+3, 1.3588537e+2, -1176681.3, -1615456.1, -40694.902, -0.010773925, -0.0967121, -1172938.9, 435373.94, 0.1717647, 10.004728, 9.997737 
1.9852695e+3, 1.4588289e+2, -1064110.9, -1530388.1, -18913.646, -0.015561079, -0.11140558, -1063344.9, 446992.47, 0.100789234, 10.004567, 9.997717 
1.9852488e+3, 1.5588064e+2, -1063771.5, -1500827.3, -7713.5474, -0.03432991, -0.10799142, -1063635.4, 348724.3, 0.04492615, 10.003692, 9.997667 
1.9852282e+3, 1.6587856e+2, -987735.44, -1341503.9, -38655.4, -0.007928977, -0.11088172, -983560.9, 330818.16, 0.013157884, 10.003122, 9.998363 
1.9852073e+3, 1.7587675e+2, -943491.7, -1285073.3, -61715.953, 0.023975413, -0.13065602, -932683.06, 283711.97, 0.0017538491, 10.002786, 9.9982395 
1.9851863e+3, 1.8587467e+2, -943824.0, -1277394.0, -43299.64, 0.020706506, -0.13521026, -938295.06, 180120.75, 0.0000256483, 10.002288, 9.997861 
1.9851655e+3, 1.9587258e+2, -932813.44, -1219617.3, -18101.809, 0.0016266602, -0.13254121, -931675.44, 88762.74, 0.0, 10.001683, 9.997877 
1.9851449e+3, 2.0587113e+2, -832169.0, -996303.56, -5086.0435, -0.007958769, -0.11702615, -832011.56, 90441.84, 0.0, 10.001165, 9.998986 
1.9851248e+3, 2.1587032e+2, -807163.3, -944427.44, -37196.105, -0.0139928125, -0.09967804, -797731.9, 26730.023, 0.0, 10.000711, 9.998889 
1.9851041e+3, 2.2586954e+2, -744249.0, -877429.0, -80909.84, -0.00063079665, -0.052859873, -706050.44, 20420.457, 0.0, 10.000532, 9.998762 
1.985083e+3, 2.3586893e+2, -647019.44, -783371.4, -70173.64, 0.02954277, 0.00878142, -617357.25, 11121.394, 0.0, 10.000543, 9.99873 
1.9850622e+3, 2.4586771e+2, -570263.75, -630142.06, -37910.367, 0.028215216, -0.009507982, -551896.1, -21404.867, 0.0, 10.000116, 9.999313 
1.9850412e+3, 2.558662e+2, -580164.7, -585562.9, -25486.217, 0.00036195896, -0.09480088, -557235.06, -124729.12, 0.0, 9.99938, 9.999302 
1.9850203e+3, 2.658657e+2, -522056.84, -413073.47, -17880.672, -0.018962206, -0.11126441, -410214.8, -75705.16, 0.0, 9.998704, 10.000138 
1.9849996e+3, 2.758662e+2, -525270.2, -372026.97, -21515.309, -0.02071011, -0.0763238, -369063.53, -132560.53, 0.0, 9.998045, 10.000064 
1.9849798e+3, 2.8586644e+2, -464241.6, -259508.92, -26361.438, 0.06658324, -0.07080583, -256169.1, -117668.56, 0.0, 9.997651, 10.000354 
1.9849601e+3, 2.958664e+2, -392989.0, -163636.1, -13696.765, 0.19056113, -0.11098682, -162821.03, -122320.17, 0.0, 9.99742, 10.000451 
1.9849367e+3, 3.0586705e+2, -378319.25, -75491.57, 12677.199, -0.14180592, -0.116327904, -74961.8, -74961.8, 0.0, 9.996942, 10.000955 
1.984919e+3, 3.1586844e+2, -343459.0, 101934.695, -65810.48, 0.07187291, -0.06371102, 111455.22, 111455.22, 0.0, 9.99649, 10.00239 
1.9953156e+3, 1.2590744e+2, -1406009.3, -1792383.6, 46821.305, -0.029275317, -0.07969477, -1400416.4, 305681.47, 0.25232962, 10.004002, 9.997547 
1.9952954e+3, 1.3590485e+2, -1172455.8, -1593680.5, -19384.94, -0.006529858, -0.13865872, -1171565.5, 436557.13, 0.17948137, 10.004714, 9.997909 
1.995274e+3, 1.4590296e+2, -1051243.6, -1494586.8, -48620.832, -0.03797932, -0.11513338, -1045974.1, 464166.3, 0.10599275, 10.004556, 9.997982 
1.9952524e+3, 1.5590121e+2, -1052425.1, -1473870.1, -37658.652, -0.04426091, -0.08860888, -1049086.5, 363070.25, 0.047671728, 10.003687, 9.997857 
1.9952314e+3, 1.6589898e+2, -1034228.7, -1437677.0, -51340.375, -0.0006689485, -0.08242433, -1027797.94, 286381.3, 0.0141666755, 10.003117, 9.997705 
1.9952102e+3, 1.7589654e+2, -982201.06, -1365015.0, -73095.13, 0.04821883, -0.09852229, -968718.94, 247485.44, 0.0019487245, 10.002782, 9.997694 
1.9951889e+3, 1.8589443e+2, -899727.44, -1186709.1, -65129.234, 0.04874334, -0.114622205, -885638.3, 232586.2, 0.000032105352, 10.00229, 9.998484 
1.9951673e+3, 1.9589272e+2, -896934.75, -1147314.1, -38559.57, 0.026647493, -0.1358632, -891130.94, 129108.586, 0.0, 10.00169, 9.998371 
1.9951464e+3, 2.0589115e+2, -883242.25, -1104541.1, -21814.525, 0.012690161, -0.11462345, -881112.4, 41143.445, 0.0, 10.001173, 9.99824 
1.9951256e+3, 2.1588984e+2, -853039.25, -1040541.2, -50378.67, -0.00067925284, -0.07027277, -840360.6, -16089.223, 0.0, 10.000713, 9.998229 
1.9951046e+3, 2.2588852e+2, -726128.94, -840137.25, -79117.69, -0.002781362, -0.061740674, -685618.56, 40667.3, 0.0, 10.000531, 9.99902 
1.9950835e+3, 2.3588733e+2, -629695.2, -746163.8, -69875.27, 0.0055955555, -0.084006526, -596969.1, 31328.748, 0.0, 10.000534, 9.998991 
1.9950622e+3, 2.458867e+2, -544906.25, -577275.2, -65168.117, 0.012820108, -0.076416135, -493943.0, 36361.03, 0.0, 10.0001135, 9.999679 
1.9950409e+3, 2.5588658e+2, -555421.25, -536475.56, -51571.426, 0.01661549, -0.058204792, -493514.22, -61209.434, 0.0, 9.999388, 9.999637 
1.9950195e+3, 2.6588622e+2, -518596.34, -408423.7, -43469.953, 0.006651586, -0.07686793, -393337.8, -59030.87, 0.0, 9.998713, 10.000167 
1.9949979e+3, 2.75886e+2, -522997.6, -371374.47, -44955.703, -0.00965888, -0.11895452, -359047.44, -122739.82, 0.0, 9.998059, 10.000063 
1.994977e+3, 2.8588608e+2, -463240.3, -261037.9, -36376.875, 0.042620055, -0.12289089, -254692.7, -116386.39, 0.0, 9.997665, 10.000338 
1.9949569e+3, 2.9588634e+2, -399963.5, -182236.11, -25148.57, 0.13057892, -0.13312714, -179369.08, -139065.06, 0.0, 9.997436, 10.000317 
1.9949335e+3, 3.0588725e+2, -386217.56, -95686.65, -13975.242, -0.16914836, -0.0942565, -95015.95, -95015.95, 0.0, 9.996955, 10.000812 
1.9949152e+3, 3.1588897e+2, -391584.22, -1654.925, 30307.354, 0.038074784, -0.0013901795, 686.6601, 686.6601, 0.0, 9.996506, 10.00167 
2.0053203e+3, 1.259277e+2, -1226083.9, -1668942.8, 48622.746, -0.040731955, -0.06614549, -1220808.3, 485092.2, 0.26187965, 10.005642, 9.997684 
2.0053001e+3, 1.3592508e+2, -1209305.1, -1605680.8, -11005.119, 0.0066673146, -0.13294338, -1208999.9, 398925.4, 0.18714523, 10.00442, 9.997949 
2.005278e+3, 1.4592342e+2, -1141166.0, -1534697.1, -56667.227, -0.04420025, -0.089652985, -1133168.6, 376771.88, 0.111231335, 10.003862, 9.998031 
2.0052561e+3, 1.5592144e+2, -1048390.1, -1467857.8, -65323.32, -0.030103814, -0.09092016, -1038452.8, 373506.1, 0.05047923, 10.003711, 9.997888 
2.0052347e+3, 1.6591914e+2, -1018137.75, -1443226.1, -62907.17, 0.019318597, -0.085139275, -1009023.75, 304958.5, 0.01521361, 10.003291, 9.997584 
2.0052132e+3, 1.7591679e+2, -1001017.4, -1385720.5, -48633.797, 0.060726743, -0.08057113, -994964.4, 221043.06, 0.0021533365, 10.002706, 9.997587 
2.0051913e+3, 1.8591474e+2, -875255.7, -1165007.1, -42930.793, 0.054010406, -0.090556644, -869028.7, 248998.27, 0.00003871999, 10.0024185, 9.998569 
2.0051692e+3, 1.9591308e+2, -799217.9, -1092198.9, -56976.01, 0.026185982, -0.115084074, -788527.8, 231512.94, 0.0, 10.002331, 9.998438 
2.0051478e+3, 2.0591135e+2, -799668.4, -1077955.1, -39120.406, 0.012545806, -0.10494058, -794273.56, 127784.44, 0.0, 10.00181, 9.998116 
2.0051265e+3, 2.1590976e+2, -821170.1, -1037436.4, -23556.895, 0.004250763, -0.07821661, -818633.94, 5442.3027, 0.0, 10.000987, 9.998118 
2.0051052e+3, 2.2590831e+2, -759167.44, -840358.2, -27818.826, 0.0066190967, -0.08311513, -750550.25, -24458.855, 0.0, 10.000239, 9.999158 
2.0050836e+3, 2.3590715e+2, -764147.1, -796193.56, -29843.172, 0.01893184, -0.115984395, -746297.7, -118194.99, 0.0, 9.99955, 9.999121 
2.005062e+3, 2.4590671e+2, -694729.25, -641759.94, -47146.05, 0.026085362, -0.099078685, -614168.8, -84061.72, 0.0, 9.999052, 9.999746 
2.0050399e+3, 2.559069e+2, -653821.4, -575141.5, -55827.086, 0.029512964, -0.054924008, -546185.8, -114080.664, 0.0, 9.998677, 9.999711 
2.005018e+3, 2.6590675e+2, -546377.3, -407398.8, -46077.336, 0.012976786, -0.065805666, -393510.16, -59404.54, 0.0, 9.998465, 10.000291 
2.004996e+3, 2.7590656e+2, -471915.94, -335661.63, -40220.52, -0.016037041, -0.116462834, -324674.94, -88569.125, 0.0, 9.998366, 10.000158 
2.0049748e+3, 2.859066e+2, -409066.16, -250795.3, -30017.404, 0.018315647, -0.117159836, -245293.5, -107188.63, 0.0, 9.998109, 10.000193 
2.0049539e+3, 2.9590693e+2, -381935.4, -199439.48, -34270.797, 0.093873754, -0.10662933, -193216.02, -153113.27, 0.0, 9.997674, 10.000082 
2.0049308e+3, 3.0590746e+2, -416351.0, -124358.22, -41019.074, -0.12483181, -0.081884064, -118705.305, -118705.305, 0.0, 9.99681, 10.000684 
2.0049116e+3, 3.159076e+2, -516037.6, -52854.133, 62284.47, 0.07976765, -0.146529, -44624.918, -44624.918, 0.0, 9.995625, 10.001738 
2.015326e+3, 1.2594827e+2, -1226578.1, -1650971.1, 891.14, -0.02891428, -0.060141563, -1226576.3, 479124.1, 0.2715635, 10.005604, 9.997875 
2.0153047e+3, 1.3594599e+2, -1220329.5, -1619156.6, -41915.97, 0.02064676, -0.086972974, -1215971.9, 391749.47, 0.1949194, 10.0043955, 9.997872 
2.0152819e+3, 1.4594424e+2, -1155749.0, -1561899.4, -59511.7, -0.043653816, -0.039590742, -1147208.5, 362529.28, 0.11657132, 10.003852, 9.99785 
2.0152602e+3, 1.559414e+2, -1058724.3, -1488813.0, -69501.31, 0.0003963678, -0.110845454, -1047771.94, 363993.66, 0.053367708, 10.003712, 9.9977455 
2.0152381e+3, 1.6593914e+2, -992846.6, -1391804.6, -83512.54, 0.04575527, -0.1129449, -976070.6, 337717.25, 0.016304638, 10.003299, 9.997935 
2.0152158e+3, 1.7593746e+2, -980434.5, -1345701.3, -66862.195, 0.059283413, -0.0756043, -968580.1, 247224.8, 0.0023698893, 10.002716, 9.997859 
2.0151936e+3, 1.8593551e+2, -904219.8, -1225718.5, -44969.953, 0.035283387, -0.06335991, -898048.06, 219775.92, 0.00004542485, 10.002419, 9.998153 
2.0151713e+3, 1.959336e+2, -824596.8, -1142605.0, -60329.68, -0.001999986, -0.07211536, -813536.3, 206306.25, 0.0, 10.002319, 9.998098 
2.0151493e+3, 2.059317e+2, -768948.94, -1012677.25, -68694.46, -0.010165155, -0.08999767, -750921.0, 170939.78, 0.0, 10.001801, 9.9985695 
2.0151274e+3, 2.1592994e+2, -793528.5, -979012.44, -51667.273, -0.0027392737, -0.12151039, -780107.5, 43769.684, 0.0, 10.00098, 9.998524 
2.0151055e+3, 2.259288e+2, -758876.94, -840622.56, -52882.16, 0.023719836, -0.11495181, -732913.3, -7024.8022, 0.0, 10.00024, 9.999157 
2.0150836e+3, 2.3592824e+2, -764319.8, -799130.44, -53130.93, 0.064736865, -0.08856384, -725815.94, -97921.38, 0.0, 9.999558, 9.999098 
2.0150612e+3, 2.459276e+2, -708182.44, -673088.44, -60934.12, 0.064565815, -0.07846598, -627225.1, -97323.35, 0.0, 9.999064, 9.999527 
2.0150387e+3, 2.559271e+2, -665553.1, -602659.06, -68122.71, 0.03407844, -0.08515843, -559075.3, -127167.23, 0.0, 9.998689, 9.999518 
2.0150162e+3, 2.6592714e+2, -530334.44, -377037.25, -50219.906, -0.0036477542, -0.07839765, -362050.47, -28143.56, 0.0, 9.998475, 10.000496 
2.014994e+3, 2.7592766e+2, -455970.97, -307561.6, -43645.69, -0.044374086, -0.071281046, -295677.47, -59778.363, 0.0, 9.998385, 10.000343 
2.0149726e+3, 2.859279e+2, -427160.47, -292189.2, -47667.906, -0.008372838, -0.05307043, -277051.94, -139154.42, 0.0, 9.998123, 9.999902 
2.0149516e+3, 2.9592806e+2, -404686.4, -250305.63, -55841.48, 0.074745014, -0.025182337, -232224.69, -192326.75, 0.0, 9.997687, 9.999728 
2.0149288e+3, 3.0592752e+2, -422146.7, -139973.72, -83535.266, -0.013516973, -0.0856069, -117098.21, -117098.21, 0.0, 9.996822, 10.000572 
2.0149067e+3, 3.1592694e+2, -446549.94, 89233.18, 3928.73, 0.030698448, -0.21749173, 89261.984, 89261.984, 0.0, 9.995635, 10.0027075 
2.0253311e+3, 1.2596972e+2, -1341968.8, -1689128.9, 20999.984, -0.02921982, -0.061584763, -1340703.0, 364786.75, 0.2819741, 10.004472, 9.998063 
2.0253092e+3, 1.3596728e+2, -1225148.8, -1627194.9, -7139.919, 0.041197654, -0.09708752, -1225022.0, 382489.75, 0.20314889, 10.004421, 9.997798 
2.025286e+3, 1.4596547e+2, -1112897.8, -1545598.9, -4807.0596, -0.034414653, -0.049276613, -1112844.4, 396684.8, 0.12216539, 10.004243, 9.997767 
2.0252639e+3, 1.5596265e+2, -1042423.25, -1488251.8, -8116.7305, -0.0034907358, -0.107436314, -1042275.56, 369281.9, 0.05638721, 10.003877, 9.997665 
2.0252414e+3, 1.6596033e+2, -952054.9, -1366195.1, -34242.855, 0.033635974, -0.11427698, -949242.7, 364337.66, 0.017454358, 10.003567, 9.997978 
2.0252186e+3, 1.7595851e+2, -892405.8, -1300662.5, -39955.02, 0.043536812, -0.093766205, -888532.25, 327065.56, 0.002602448, 10.003314, 9.997878 
2.025196e+3, 1.8595658e+2, -883203.2, -1239307.9, -20585.676, 0.03319822, -0.06890347, -882017.1, 235600.39, 0.0000523828, 10.002669, 9.997938 
2.0251736e+3, 1.9595475e+2, -918803.4, -1208807.1, -24073.098, 0.020411953, -0.045992047, -916818.7, 102818.2, 0.0, 10.001762, 9.997912 
2.025151e+3, 2.0595285e+2, -848789.2, -1031254.44, -40814.84, 0.011318559, -0.065712884, -840075.6, 81579.5, 0.0, 10.001168, 9.998746 
2.0251283e+3, 2.1595106e+2, -809915.2, -968572.1, -45537.656, 0.0014657171, -0.1215793, -797774.06, 25896.871, 0.0, 10.000792, 9.998685 
2.0251057e+3, 2.2594997e+2, -740973.56, -835542.1, -53646.063, 0.02415035, -0.114022136, -716747.7, 8933.448, 0.0, 10.0003805, 9.999123 
2.0250833e+3, 2.3594955e+2, -710987.25, -777159.7, -56482.926, 0.07097611, -0.06923737, -678613.4, -50927.555, 0.0, 9.999943, 9.999063 
2.0250605e+3, 2.459488e+2, -646377.5, -643316.0, -50081.605, 0.06574753, -0.066004604, -594741.75, -65047.977, 0.0, 9.999493, 9.999523 
2.0250374e+3, 2.5594804e+2, -616602.44, -581052.7, -42450.83, 0.022615375, -0.09570897, -552805.6, -121103.62, 0.0, 9.999036, 9.999497 
2.0250146e+3, 2.6594803e+2, -548397.4, -400363.9, -31221.207, -0.011844575, -0.084836595, -394048.6, -60346.926, 0.0, 9.998415, 10.000363 
2.0249923e+3, 2.7594867e+2, -568693.1, -372410.06, -50596.36, -0.034692306, -0.058485143, -360135.3, -124441.15, 0.0, 9.997659, 10.000247 
2.0249702e+3, 2.859488e+2, -552128.8, -324223.97, -41178.766, 0.0024195255, -0.054893453, -317011.84, -179319.1, 0.0, 9.997148, 10.000151 
2.0249486e+3, 2.9594904e+2, -514988.28, -271702.0, -11491.724, 0.068204075, -0.050008986, -271160.38, -231468.61, 0.0, 9.996798, 10.000007 
2.0249255e+3, 3.059488e+2, -470939.53, -165185.97, -14521.091, 0.011418302, -0.093539, -164497.88, -164497.88, 0.0, 9.996493, 10.000558 
2.0249023e+3, 3.159493e+2, -375269.63, 109935.41, 47524.492, -0.010636295, -0.113916434, 114546.48, 114546.48, 0.0, 9.996185, 10.002584 
2.0353352e+3, 1.2599207e+2, -1342464.3, -1676780.1, 4910.999, -0.056125753, -0.063180685, -1342392.1, 362876.94, 0.29384652, 10.004464, 9.998189 
2.0353138e+3, 1.3598898e+2, -1235464.5, -1644376.0, -6501.169, 0.059815492, -0.15095524, -1235361.3, 371935.3, 0.21226616, 10.004427, 9.997678 
2.0352903e+3, 1.4598708e+2, -1114648.6, -1544621.5, -16552.553, -0.023666732, -0.105981804, -1114012.4, 395302.56, 0.12821175, 10.004245, 9.997775 
2.0352674e+3, 1.5598504e+2, -1047303.2, -1493505.5, -20473.627, -0.042493872, -0.08563259, -1046365.75, 364970.6, 0.05960919, 10.003863, 9.997637 
2.0352446e+3, 1.6598256e+2, -971143.06, -1402143.4, -43374.313, -0.017055707, -0.09504543, -966821.4, 346539.88, 0.018685577, 10.00355, 9.997742 
2.0352216e+3, 1.7597991e+2, -909550.4, -1333597.1, -49638.832, 0.011143129, -0.1331982, -903817.2, 311569.66, 0.002857233, 10.003301, 9.99766 
2.0351987e+3, 1.8597794e+2, -887036.94, -1246762.6, -53582.066, 0.04287836, -0.10332846, -879225.4, 238182.55, 0.000060137387, 10.002665, 9.99789 
2.035176e+3, 1.9597653e+2, -922432.25, -1217579.4, -53829.156, 0.08628095, -0.0331368, -912921.3, 106503.07, 0.0, 10.001765, 9.997852 
2.0351528e+3, 2.0597474e+2, -854097.2, -1044682.2, -53715.137, 0.071365125, -0.030780496, -840000.6, 81441.42, 0.0, 10.001177, 9.998651 
2.0351292e+3, 2.1597292e+2, -815693.5, -981942.56, -57488.934, 0.013205818, -0.080653094, -797750.44, 25708.166, 0.0, 10.000795, 9.998592 
2.035106e+3, 2.2597167e+2, -744917.5, -845339.7, -69112.984, 0.005788332, -0.082342066, -709701.7, 15768.758, 0.0, 10.000385, 9.999054 
2.035083e+3, 2.3597096e+2, -714344.75, -784367.0, -70948.36, 0.035086695, -0.05878092, -670239.2, -42761.676, 0.0, 9.999942, 9.999015 
2.0350596e+3, 2.4597025e+2, -632386.56, -615888.75, -66987.45, 0.027785944, -0.061262727, -556644.25, -27160.25, 0.0, 9.999496, 9.999711 
2.0350361e+3, 2.559697e+2, -605702.6, -561514.5, -59640.2, -0.008114714, -0.08635685, -520007.44, -88519.34, 0.0, 9.999046, 9.999629 
2.035013e+3, 2.6596943e+2, -579400.3, -467581.8, -60245.99, -0.014884169, -0.085009575, -441299.7, -107808.63, 0.0, 9.9984255, 9.999898 
2.0349902e+3, 2.759694e+2, -593020.2, -426452.63, -77353.8, 0.0069952845, -0.07840494, -396071.13, -160578.97, 0.0, 9.997671, 9.999871 
2.0349678e+3, 2.859693e+2, -496731.66, -211237.02, -55651.777, 0.04863576, -0.12392648, -200772.34, -63280.496, 0.0, 9.997153, 10.000925 
2.0349455e+3, 2.959696e+2, -448404.03, -137692.95, -25078.486, 0.07526309, -0.18662901, -135681.8, -96195.87, 0.0, 9.996813, 10.000921 
2.0349212e+3, 3.0597124e+2, -459751.84, -144317.69, -25493.701, -0.069272354, -0.104961134, -142270.55, -142270.55, 0.0, 9.996502, 10.000698 
2.034899e+3, 3.1597212e+2, -431656.16, -13707.533, 14121.373, 0.04196987, -0.07284745, -13230.953, -13230.953, 0.0, 9.996208, 10.001727 
2.0453404e+3, 1.260145e+2, -1240189.0, -1623781.0, -2503.3137, -0.03588701, -0.087323844, -1240172.6, 464875.56, 0.30774787, 10.005542, 9.998199 
2.0453182e+3, 1.3601145e+2, -1209532.1, -1639172.0, -2417.1946, 0.048468813, -0.15918913, -1209518.5, 397556.3, 0.22261897, 10.004757, 9.997554 
2.0452945e+3, 1.4600916e+2, -1136796.4, -1573049.4, -17661.383, -0.017172968, -0.13767296, -1136082.6, 373014.88, 0.13488278, 10.004171, 9.997615 
2.0452714e+3, 1.5600714e+2, -1083819.8, -1527356.6, -35231.84, -0.012642094, -0.09826732, -1081038.5, 330081.06, 0.06310441, 10.003674, 9.997497 
2.045248e+3, 1.6600482e+2, -1004307.0, -1407532.1, -42461.965, 0.002614011, -0.090443164, -999884.0, 313259.28, 0.02002416, 10.003276, 9.997836 
2.0452246e+3, 1.760024e+2, -953380.7, -1345832.3, -29289.307, 0.0017670837, -0.1162015, -951206.8, 263960.0, 0.0031421313, 10.00296, 9.99774 
2.0452012e+3, 1.8600033e+2, -897746.8, -1249510.4, -33299.5, 0.028300274, -0.096537165, -894622.3, 222565.92, 0.00006977841, 10.002581, 9.997911 
2.0451778e+3, 1.9599873e+2, -865575.06, -1189039.5, -28579.99, 0.08140431, -0.049263988, -863069.3, 156137.02, 0.0, 10.002154, 9.997859 
2.0451541e+3, 2.0599698e+2, -791052.06, -1036029.3, -21587.85, 0.07062271, -0.033495415, -789164.25, 132060.06, 0.0, 10.001706, 9.998453 
2.0451301e+3, 2.1599531e+2, -763352.75, -977497.44, -35050.816, 0.0130713945, -0.04650632, -757761.6, 65478.883, 0.0, 10.0012455, 9.998405 
2.0451063e+3, 2.259939e+2, -725110.8, -840302.94, -56027.29, 0.0073424797, -0.053254385, -702355.4, 22898.664, 0.0, 10.000544, 9.999012 
2.0450827e+3, 2.3599283e+2, -754317.4, -806309.3, -56682.14, 0.040271267, -0.06255721, -717954.25, -90690.23, 0.0, 9.9996805, 9.998988 
2.045059e+3, 2.4599208e+2, -684564.0, -630935.3, -46927.895, 0.03901192, -0.07168468, -603701.2, -74431.14, 0.0, 9.999097, 9.9998 
2.0450352e+3, 2.5599176e+2, -649983.4, -573835.3, -47964.793, 0.010340292, -0.08616321, -550670.06, -119398.47, 0.0, 9.998706, 9.999707 
2.0450114e+3, 2.6599136e+2, -609186.4, -484751.97, -39636.977, -0.0054944856, -0.095370166, -473198.78, -139923.52, 0.0, 9.998236, 9.999871 
2.0449878e+3, 2.759911e+2, -590996.7, -426357.1, -24000.541, 0.0006361239, -0.10750722, -422929.72, -187650.86, 0.0, 9.997693, 9.99986 
2.044965e+3, 2.8599125e+2, -470251.38, -176935.61, -2247.762, 0.049482163, -0.13992402, -176918.39, -39642.273, 0.0, 9.997244, 10.001116 
2.0449425e+3, 2.9599193e+2, -428875.06, -104089.5, -19437.465, 0.08940117, -0.18460107, -102930.37, -63664.496, 0.0, 9.996844, 10.001136 
2.0449172e+3, 3.059933e+2, -510377.38, -179263.92, -63677.434, -0.09622883, -0.13338973, -167440.14, -167440.14, 0.0, 9.996206, 10.000597 
2.0448948e+3, 3.1599447e+2, -504438.72, -21814.102, -12483.337, 0.03575455, -0.05694328, -21491.43, -21491.43, 0.0, 9.995598, 10.001962 
2.0553464e+3, 1.2603717e+2, -1257900.9, -1635061.3, -32183.316, 0.00659385, -0.1099018, -1255174.4, 449650.94, 0.32383204, 10.005508, 9.998119 
2.0553225e+3, 1.360345e+2, -1222288.8, -1656827.1, -22360.729, 0.0038661256, -0.13284884, -1221141.1, 385707.06, 0.23433305, 10.004752, 9.9974375 
2.0552988e+3, 1.4603157e+2, -1158891.1, -1620165.9, -33537.51, -0.019197483, -0.1527917, -1156465.5, 352412.2, 0.14226848, 10.004174, 9.9972925 
2.0552759e+3, 1.5602897e+2, -1101323.1, -1564222.5, -49158.926, 0.07357257, -0.13906059, -1096160.1, 314746.47, 0.06692593, 10.003675, 9.997245 
2.0552522e+3, 1.6602713e+2, -978542.75, -1352869.3, -51975.363, 0.07936385, -0.09386653, -971460.0, 341466.03, 0.021495463, 10.003277, 9.998213 
2.0552276e+3, 1.7602582e+2, -930005.0, -1297511.3, -39710.61, 0.009315629, -0.0462532, -925763.06, 289175.7, 0.0034661766, 10.00296, 9.998073 
2.0552033e+3, 1.860237e+2, -891443.2, -1236710.1, -48556.555, -0.011298686, -0.052903667, -884744.44, 232215.25, 0.0000827448, 10.00258, 9.998001 
2.0551792e+3, 1.9602129e+2, -862440.44, -1182045.8, -42803.11, 0.00785826, -0.09431739, -856807.3, 162176.33, 0.0, 10.002151, 9.9979105 
2.0551553e+3, 2.0601946e+2, -812439.9, -1080472.9, -37918.66, 0.010204607, -0.072052196, -807178.8, 113824.086, 0.0, 10.001704, 9.99815 
2.055131e+3, 2.1601816e+2, -784500.25, -1019653.1, -51258.355, -0.0021654316, -0.017364662, -773812.75, 49204.83, 0.0, 10.001236, 9.998121 
2.0551072e+3, 2.2601658e+2, -727546.6, -845851.0, -87249.0, 0.025316967, -0.024980653, -681288.4, 43744.426, 0.0, 10.000543, 9.998976 
2.0550828e+3, 2.3601504e+2, -755572.75, -810872.3, -85417.445, 0.08235697, -0.07958432, -693441.4, -66395.016, 0.0, 9.999687, 9.998956 
2.0550586e+3, 2.460142e+2, -683704.56, -632147.2, -61559.01, 0.09558196, -0.09607539, -591187.2, -62134.15, 0.0, 9.999107, 9.999786 
2.0550345e+3, 2.56014e+2, -647185.1, -570354.9, -62332.445, 0.07374231, -0.09612384, -535550.75, -104497.1, 0.0, 9.9987135, 9.999728 
2.0550098e+3, 2.660137e+2, -580165.06, -426539.7, -60738.723, 0.013436243, -0.11657156, -405426.97, -72371.445, 0.0, 9.998241, 10.000269 
2.0549849e+3, 2.7601367e+2, -564964.0, -375971.78, -43742.36, -0.06008515, -0.14814745, -366338.6, -131282.89, 0.0, 9.997705, 10.000201 
2.0549616e+3, 2.8601453e+2, -496120.5, -234119.72, -18052.502, -0.00057009014, -0.101253, -232881.7, -95835.13, 0.0, 9.997257, 10.000718 
2.0549394e+3, 2.960159e+2, -460702.4, -175674.33, -35795.92, 0.10778776, -0.03678268, -171247.56, -132215.44, 0.0, 9.996866, 10.000636 
2.0549138e+3, 3.0601472e+2, -542361.0, -243864.27, -98725.51, -0.06368912, -0.19034141, -214166.27, -214166.27, 0.0, 9.996199, 10.000157 
2.05489e+3, 3.1601614e+2, -444932.56, 95191.4, 40683.27, -0.012055863, -0.059673663, 98238.555, 98238.555, 0.0, 9.995612, 10.002766 
2.0653516e+3, 1.2606037e+2, -1316208.3, -1672132.8, -21922.006, -0.0044670887, -0.12511113, -1314863.1, 389734.38, 0.34178972, 10.00511, 9.997943 
2.0653275e+3, 1.36058e+2, -1189667.4, -1635312.8, -6879.2896, 0.0041796104, -0.11341126, -1189561.3, 417057.22, 0.24727768, 10.005126, 9.997403 
2.0653032e+3, 1.4605492e+2, -1089881.0, -1567618.1, -6205.0522, -0.0018552128, -0.152786, -1089800.4, 418849.0, 0.150355, 10.00471, 9.997393 
2.0652795e+3, 1.5605247e+2, -1050713.5, -1529393.1, 5601.639, 0.06051814, -0.13192622, -1050648.0, 360027.97, 0.07109915, 10.004025, 9.9973135 
2.0652553e+3, 1.6605054e+2, -958405.5, -1358563.5, 2836.6682, 0.06634384, -0.0897687, -958385.44, 354310.84, 0.023120005, 10.0034895, 9.998071 
2.0652308e+3, 1.7604898e+2, -925448.7, -1307349.6, -20069.525, 0.02039103, -0.052449625, -924396.9, 290315.03, 0.0038376052, 10.003046, 9.997963 
2.065206e+3, 1.8604685e+2, -873878.9, -1215208.6, -41593.758, -0.0069521843, -0.060683858, -868883.44, 247849.14, 0.00010035138, 10.002647, 9.998115 
2.0651811e+3, 1.9604458e+2, -837852.94, -1160782.8, -37146.95, -0.016674096, -0.09901738, -833635.0, 185119.44, 0.0, 10.002278, 9.997995 
2.0651567e+3, 2.060427e+2, -827863.4, -1099639.4, -30555.88, -0.005429557, -0.078359194, -824470.3, 96303.734, 0.0, 10.00165, 9.998045 
2.0651323e+3, 2.1604128e+2, -846825.7, -1059192.6, -31465.877, 0.01806866, -0.027818384, -842261.56, -19470.871, 0.0, 10.000852, 9.998034 
2.0651077e+3, 2.2603966e+2, -735493.5, -846599.0, -51817.14, 0.045502976, -0.037474535, -715078.4, 9727.989, 0.0, 10.000479, 9.999 
2.0650828e+3, 2.3603812e+2, -653614.94, -761305.9, -47580.152, 0.078385346, -0.09182906, -635605.0, -8785.672, 0.0, 10.000388, 9.998957 
2.065058e+3, 2.4603721e+2, -602637.7, -612074.2, -35553.305, 0.09074547, -0.10307906, -571490.94, -42664.15, 0.0, 9.999748, 9.999615 
2.0650332e+3, 2.5603694e+2, -654367.0, -589295.5, -48375.56, 0.085496776, -0.0949386, -563532.25, -132703.17, 0.0, 9.9987335, 9.999587 
2.065008e+3, 2.6603672e+2, -592972.44, -418679.75, -54287.1, 0.026669119, -0.10917855, -403153.9, -70323.54, 0.0, 9.9980955, 10.000393 
2.0649827e+3, 2.7603686e+2, -558324.75, -362225.53, -59468.73, -0.055879753, -0.13552237, -345600.56, -110772.21, 0.0, 9.997707, 10.000295 
2.0649588e+3, 2.8603768e+2, -533763.3, -276717.28, -38474.285, -0.011389061, -0.08261378, -271082.03, -134262.3, 0.0, 9.997107, 10.000497 
2.0649359e+3, 2.960389e+2, -561587.2, -255808.4, -45274.824, 0.08448398, -0.012250736, -249245.67, -210437.77, 0.0, 9.996314, 10.000349 
2.0649104e+3, 3.0603725e+2, -592871.3, -286163.84, -80338.61, -0.00966751, -0.18423598, -266394.34, -266394.34, 0.0, 9.9959345, 9.99999 
2.0648858e+3, 3.160376e+2, -388764.53, 153992.7, 99178.42, 0.014078386, -0.15884681, 171547.84, 171547.84, 0.0, 9.99586, 10.003052 
2.075356e+3, 1.2608418e+2, -1340305.5, -1697585.1, -23598.04, -0.07613915, -0.12220548, -1338753.6, 365610.25, 0.3609425, 10.005094, 9.997688 
2.0753327e+3, 1.360819e+2, -1199452.8, -1635375.0, -6353.365, 0.03353544, -0.095835865, -1199360.1, 407025.28, 0.26111254, 10.005098, 9.9974165 
2.0753081e+3, 1.4607911e+2, -1069491.5, -1504083.9, -27958.578, 0.0219619, -0.13378845, -1067700.3, 440712.66, 0.15903774, 10.004691, 9.997845 
2.0752825e+3, 1.5607741e+2, -1030915.2, -1481648.4, -17004.291, -0.045916647, -0.083653845, -1030274.56, 380155.44, 0.07562105, 10.004025, 9.997643 
2.0752577e+3, 1.6607487e+2, -998619.6, -1445020.8, -13331.733, -0.029989488, -0.08269492, -998221.9, 314234.06, 0.024911137, 10.003496, 9.997476 
2.0752339e+3, 1.7607188e+2, -960649.75, -1381908.0, -34151.44, 0.03184492, -0.12936746, -957899.06, 256587.55, 0.0042627356, 10.00305, 9.997451 
2.075209e+3, 1.8606983e+2, -865560.56, -1198155.8, -53770.62, 0.034037177, -0.1151685, -857083.56, 259423.72, 0.00012354909, 10.0026455, 9.998234 
2.0751835e+3, 1.9606856e+2, -832187.0, -1147032.1, -50304.9, 0.00013211482, -0.063974254, -824344.8, 194174.58, 0.0, 10.002268, 9.9980955 
2.0751587e+3, 2.0606667e+2, -823252.4, -1089997.6, -59619.992, 0.01840562, -0.053328283, -810533.25, 110005.445, 0.0, 10.001647, 9.998114 
2.0751338e+3, 2.1606456e+2, -842060.7, -1049537.4, -56540.695, 0.06927704, -0.07636597, -827652.94, -5092.0474, 0.0, 10.000851, 9.998102 
2.0751084e+3, 2.2606298e+2, -729139.25, -835037.06, -54019.7, 0.0651803, -0.08832259, -706446.1, 18129.676, 0.0, 10.0004835, 9.999078 
2.0750828e+3, 2.3606195e+2, -651835.25, -758122.56, -52512.75, 0.025487585, -0.09947605, -630267.2, -3683.1782, 0.0, 10.000388, 9.99898 
2.0750572e+3, 2.4606107e+2, -625551.2, -661095.9, -73974.06, 0.02242249, -0.09339378, -567244.5, -38652.1, 0.0, 9.999752, 9.999278 
2.0750315e+3, 2.5606045e+2, -675142.7, -635248.94, -83988.12, 0.04099673, -0.08330127, -568871.5, -138272.38, 0.0, 9.998743, 9.9992695 
2.075006e+3, 2.6606026e+2, -603457.25, -442785.38, -69733.55, 0.03286632, -0.07170546, -416741.66, -84140.68, 0.0, 9.998104, 10.000224 
2.0749809e+3, 2.7606055e+2, -567920.1, -385772.94, -74846.42, 0.013789474, -0.065690696, -358963.6, -124365.64, 0.0, 9.997721, 10.000128 
2.074956e+3, 2.8606054e+2, -536586.2, -286055.13, -70989.9, 0.012090283, -0.08823765, -267337.94, -130740.266, 0.0, 9.997118, 10.000429 
2.0749311e+3, 2.960606e+2, -565823.56, -268864.63, -76645.93, -0.0027122083, -0.12766467, -250249.06, -211652.4, 0.0, 9.996328, 10.000254 
2.0749073e+3, 3.0606103e+2, -583063.1, -267033.3, -84160.76, 0.07804767, -0.09011342, -246018.22, -246018.22, 0.0, 9.995941, 10.000119 
2.0748818e+3, 3.160608e+2, -392880.2, 141505.13, 52503.832, 0.0144670755, -0.13251445, 146614.81, 146614.81, 0.0, 9.995874, 10.002961 
2.0853613e+3, 1.2610832e+2, -1331189.8, -1697344.1, -12106.02, -0.04924853, -0.12117596, -1330789.9, 373337.03, 0.3804167, 10.00538, 9.997554 
2.0853376e+3, 1.3610607e+2, -1227766.4, -1638620.8, 7068.423, 0.009390755, -0.10043773, -1227644.9, 378504.47, 0.27538317, 10.004859, 9.99751 
2.0853128e+3, 1.4610344e+2, -1097325.9, -1505484.9, -26358.258, 0.009666241, -0.13110843, -1095630.8, 412544.38, 0.16815598, 10.00445, 9.997949 
2.0852867e+3, 1.5610194e+2, -1009933.44, -1459831.8, -36484.254, -0.05232727, -0.070621185, -1006993.94, 403195.5, 0.08046635, 10.004154, 9.997731 
2.0852615e+3, 1.6609932e+2, -959498.56, -1431212.3, -17374.613, -0.037461568, -0.07952704, -958859.5, 353356.38, 0.02687599, 10.003804, 9.997421 
2.0852368e+3, 1.7609608e+2, -911623.4, -1365776.6, -4635.3735, 0.022702761, -0.14552875, -911576.06, 302672.84, 0.0047472673, 10.003421, 9.997383 
2.0852117e+3, 1.8609396e+2, -854626.06, -1205810.6, -25367.041, 0.034911834, -0.12656194, -852803.2, 263467.0, 0.00015303373, 10.002776, 9.998118 
2.0851858e+3, 1.9609278e+2, -882983.8, -1180485.6, -38820.805, 0.01740882, -0.055830315, -878001.56, 140280.39, 0.0, 10.00196, 9.998013 
2.0851605e+3, 2.0609082e+2, -827501.75, -1077445.5, -45981.035, 0.03271344, -0.05650158, -819311.2, 100990.305, 0.0, 10.001559, 9.9982395 
2.0851348e+3, 2.1608852e+2, -750872.6, -994983.75, -40127.082, 0.069081314, -0.11063294, -744445.7, 77878.75, 0.0, 10.001433, 9.998194 
2.0851089e+3, 2.26087e+2, -680680.25, -828022.44, -44856.977, 0.055322237, -0.112070695, -668098.4, 56240.688, 0.0, 10.000889, 9.998929 
2.0850828e+3, 2.3608619e+2, -707790.1, -800156.56, -62581.633, 0.009932349, -0.08606116, -676195.8, -49849.44, 0.0, 10.000072, 9.998842 
2.0850566e+3, 2.4608526e+2, -660042.25, -683721.7, -83408.16, 0.008443301, -0.07679999, -587637.7, -59281.973, 0.0, 9.999543, 9.999223 
2.0850305e+3, 2.560844e+2, -613776.8, -614161.4, -73269.58, 0.0362315, -0.08351405, -540699.25, -110334.82, 0.0, 9.999203, 9.999191 
2.0850046e+3, 2.6608407e+2, -572070.1, -458707.72, -55575.633, 0.046548616, -0.068077564, -436007.5, -103639.28, 0.0, 9.998454, 9.999945 
2.084979e+3, 2.760842e+2, -628352.1, -441656.06, -68211.81, 0.05166521, -0.047461517, -419389.63, -185022.3, 0.0, 9.997424, 9.999886 
2.0849533e+3, 2.8608406e+2, -547234.4, -277465.47, -48568.7, 0.030244144, -0.07933045, -268987.7, -132619.42, 0.0, 9.996986, 10.000551 
2.0849276e+3, 2.9608405e+2, -471172.16, -208100.61, -43069.645, -0.025912736, -0.13470519, -201228.83, -162861.95, 0.0, 9.996912, 10.000392 
2.0849031e+3, 3.0608475e+2, -539788.4, -224178.47, -42068.56, 0.08120304, -0.08889041, -218667.27, -218667.27, 0.0, 9.996142, 10.000318 
2.0848769e+3, 3.1608567e+2, -555046.06, 36408.715, 57478.832, 0.010026595, -0.037255675, 41942.848, 41942.848, 0.0, 9.994878, 10.002719 
2.0953676e+3, 1.2613274e+2, -1347697.5, -1702135.8, -19662.406, 0.047209177, -0.123043634, -1346610.0, 357277.2, 0.39938104, 10.005336, 9.997523 
2.0953415e+3, 1.3613044e+2, -1230475.8, -1621181.0, -4780.2813, -0.06795893, -0.124045625, -1230417.3, 375493.38, 0.28966805, 10.004843, 9.997637 
2.0953166e+3, 1.4612785e+2, -1113540.6, -1533307.8, -34863.145, -0.039038725, -0.14365649, -1110664.8, 397271.66, 0.1775674, 10.00444, 9.997765 
2.0952915e+3, 1.5612614e+2, -1019647.56, -1475807.4, -43798.24, 0.02564559, -0.08862406, -1015480.3, 394473.44, 0.085618705, 10.004148, 9.997626 
2.0952658e+3, 1.661239e+2, -933681.94, -1373392.8, -29343.94, 0.029820923, -0.07825942, -931732.3, 380243.7, 0.029026998, 10.003798, 9.997824 
2.09524e+3, 1.7612143e+2, -890578.3, -1321034.3, -18850.328, -0.008847229, -0.1049906, -889754.4, 324245.7, 0.0052997805, 10.003417, 9.997694 
2.0952141e+3, 1.8611915e+2, -877307.25, -1254013.8, -55279.75, -0.003092993, -0.097877935, -869362.8, 246660.08, 0.0001898094, 10.002778, 9.997788 
2.095188e+3, 1.9611719e+2, -901799.0, -1220647.3, -64407.21, 0.03199008, -0.07277699, -889280.25, 128762.63, 0.0, 10.001963, 9.997737 
2.0951618e+3, 2.0611508e+2, -813699.8, -1050593.0, -49407.094, 0.03493621, -0.08583407, -803808.3, 116254.98, 0.0, 10.001565, 9.998423 
2.0951357e+3, 2.1611305e+2, -743354.94, -978746.7, -44909.574, 0.015934592, -0.13093768, -735077.9, 87004.484, 0.0, 10.001429, 9.998309 
2.0951094e+3, 2.261116e+2, -707877.44, -884632.06, -74690.63, 0.015236321, -0.10973286, -680542.8, 43554.29, 0.0, 10.000887, 9.998543 
2.095083e+3, 2.3611072e+2, -730620.94, -848002.94, -89668.72, 0.027116388, -0.052220248, -682143.3, -56035.95, 0.0, 10.000072, 9.998515 
2.0950563e+3, 2.4610965e+2, -643304.3, -651036.6, -96340.9, 0.045087136, -0.051811486, -550752.0, -22634.348, 0.0, 9.999551, 9.999444 
2.0950301e+3, 2.5610867e+2, -601575.8, -592061.94, -88262.695, 0.06512345, -0.09394765, -508428.1, -78301.984, 0.0, 9.999214, 9.999338 
2.0950031e+3, 2.6610798e+2, -597450.75, -515025.7, -96052.76, 0.062597156, -0.100186124, -451717.38, -119583.83, 0.0, 9.998467, 9.999553 
2.0949763e+3, 2.7610764e+2, -648616.4, -488620.75, -103543.97, 0.049932662, -0.088388056, -437771.3, -203632.88, 0.0, 9.997442, 9.999555 
2.0949504e+3, 2.861082e+2, -524348.7, -232313.14, -53200.137, 0.04258451, -0.05179492, -222923.56, -86791.21, 0.0, 9.996996, 10.000858 
2.094925e+3, 2.9610947e+2, -443140.72, -151251.81, -51032.867, 0.019269027, -0.010174939, -142586.63, -104469.19, 0.0, 9.996917, 10.000781 
2.0948982e+3, 3.0610797e+2, -517944.25, -182604.45, -89459.46, -0.019396476, -0.22132364, -160231.75, -160231.75, 0.0, 9.996155, 10.000599 
2.0948723e+3, 3.1611007e+2, -578876.8, -20084.857, -29698.13, 0.05858503, -0.063347094, -18510.924, -18510.924, 0.0, 9.994909, 10.002315 
2.105373e+3, 1.2615803e+2, -1350425.6, -1700988.1, 27281.314, 0.0380016, -0.16678481, -1348315.3, 355322.9, 0.41725957, 10.00545, 9.997478 
2.1053462e+3, 1.3615629e+2, -1237916.6, -1625520.5, 35332.914, -0.08485129, -0.10995102, -1234722.1, 370934.5, 0.30368894, 10.004854, 9.997612 
2.105321e+3, 1.461538e+2, -1130433.1, -1550266.5, 19666.764, -0.039028354, -0.11484768, -1129513.9, 378168.16, 0.18719518, 10.004382, 9.997672 
2.1052957e+3, 1.5615144e+2, -1035665.5, -1491572.9, 19095.598, 0.04360659, -0.11517525, -1034867.06, 374838.47, 0.09108824, 10.004083, 9.997547 
2.1052697e+3, 1.6614917e+2, -948004.0, -1388111.9, 17667.342, 0.042167652, -0.0986092, -947295.9, 364432.16, 0.031387325, 10.0037365, 9.997751 
2.1052432e+3, 1.761471e+2, -905720.4, -1335967.1, -5090.68, -0.016654028, -0.078056954, -905660.2, 308088.25, 0.0059327246, 10.003349, 9.9976225 
2.1052168e+3, 1.8614465e+2, -858582.1, -1253595.3, -49889.39, -0.006831062, -0.0805491, -852378.6, 263394.06, 0.00023581006, 10.002948, 9.997707 
2.1051905e+3, 1.9614214e+2, -823853.8, -1192706.3, -42009.875, 0.047708247, -0.102400616, -819129.7, 198667.94, 0.0, 10.002541, 9.99765 
2.1051638e+3, 2.0614e+2, -754187.3, -1031302.06, -22957.973, 0.043456703, -0.10926345, -752298.2, 167520.1, 0.0, 10.002015, 9.998337 
2.105137e+3, 2.1613827e+2, -750937.2, -991536.7, -41026.066, 0.001362769, -0.11455668, -744133.94, 77700.61, 0.0, 10.001418, 9.998225 
2.1051101e+3, 2.2613671e+2, -709447.7, -893846.3, -72490.2, 0.0056573823, -0.0965315, -684363.0, 39487.62, 0.0, 10.000916, 9.998465 
2.1050833e+3, 2.3613545e+2, -679084.44, -830716.1, -65265.875, 0.042066716, -0.068975665, -654861.94, -28997.305, 0.0, 10.000461, 9.998445 
2.1050562e+3, 2.461344e+2, -616927.75, -637794.44, -70033.77, 0.059649397, -0.063349254, -556554.44, -28679.506, 0.0, 9.999732, 9.999446 
2.1050288e+3, 2.561337e+2, -659540.25, -620997.25, -79148.42, 0.064603984, -0.078044415, -558807.94, -128927.055, 0.0, 9.998824, 9.999327 
2.1050015e+3, 2.6613283e+2, -623170.9, -534796.06, -77841.03, 0.055340465, -0.09408693, -489475.06, -157585.77, 0.0, 9.998323, 9.999487 
2.104974e+3, 2.761321e+2, -561368.6, -455157.28, -62592.07, 0.04139505, -0.11728615, -426177.75, -192280.19, 0.0, 9.998076, 9.99948 
2.1049476e+3, 2.8613254e+2, -517381.44, -246916.84, -24986.158, 0.054716397, -0.07912776, -244627.94, -108734.984, 0.0, 9.997121, 10.000697 
2.104922e+3, 2.9613394e+2, -625648.8, -250293.13, -59050.598, 0.07663349, -0.006937616, -241222.53, -203344.75, 0.0, 9.995712, 10.000681 
2.1048938e+3, 3.0613303e+2, -583921.3, -125701.67, -88534.21, -0.038402382, -0.19807523, -109190.62, -109190.62, 0.0, 9.995323, 10.0013895 
2.1048672e+3, 3.161356e+2, -518166.47, -60923.016, 20876.084, 0.013703993, -0.069942124, -59971.867, -59971.867, 0.0, 9.995635, 10.001681 
2.1153775e+3, 1.2618399e+2, -1369860.4, -1716768.8, 18624.7, -0.07644669, -0.25786668, -1368863.4, 334518.5, 0.43380913, 10.005372, 9.997402 
2.1153513e+3, 1.361835e+2, -1253520.3, -1647333.3, 20906.842, -0.05706092, -0.06334508, -1252413.4, 352975.7, 0.31733304, 10.004841, 9.997462 
2.1153256e+3, 1.4618109e+2, -1137051.8, -1557896.4, 9661.97, -0.00372289, -0.048955996, -1136830.0, 370583.5, 0.19702242, 10.004387, 9.99762 
2.1152993e+3, 1.5617768e+2, -1042635.7, -1504346.3, 8950.078, 0.0029845773, -0.14839958, -1042462.3, 366984.0, 0.09690337, 10.004089, 9.9974575 
2.1152729e+3, 1.6617505e+2, -981597.6, -1460126.6, 3615.0996, 0.0013151746, -0.13764475, -981570.3, 329902.78, 0.033987835, 10.003743, 9.997255 
2.1152467e+3, 1.7617305e+2, -933668.44, -1396263.8, -17513.357, -0.006590021, -0.063058645, -933006.4, 280488.28, 0.006662534, 10.003357, 9.997206 
2.11522e+3, 1.861704e+2, -847028.4, -1232523.1, -63605.87, 0.017620113, -0.074162036, -836804.7, 278715.66, 0.00029476336, 10.002957, 9.997849 
2.1151929e+3, 1.9616754e+2, -817225.06, -1180710.4, -55396.813, 0.061075244, -0.14416613, -808969.8, 208577.17, 0.00000000000010610821, 10.002545, 9.997731 
2.1151657e+3, 2.0616548e+2, -778159.0, -1082837.9, -44077.395, 0.056011304, -0.12683904, -771910.56, 147656.83, 0.0, 10.002021, 9.997982 
2.1151386e+3, 2.1616411e+2, -772275.0, -1034968.8, -60077.063, 0.019316148, -0.06153423, -759187.6, 62394.477, 0.0, 10.001412, 9.9979315 
2.1151114e+3, 2.2616225e+2, -694276.0, -862275.0, -87972.734, 0.02190208, -0.07141451, -656640.3, 66960.13, 0.0, 10.000913, 9.998684 
2.1150838e+3, 2.361603e+2, -666544.25, -805729.1, -82386.73, 0.0498323, -0.13487059, -628291.06, -2671.84, 0.0, 10.000463, 9.998616 
2.1150559e+3, 2.4615937e+2, -631148.56, -669183.8, -104839.86, 0.049565185, -0.11218677, -543615.4, -15986.725, 0.0, 9.999738, 9.9992285 
2.1150273e+3, 2.5615934e+2, -670703.0, -647142.2, -110631.28, 0.031230899, -0.03869458, -547665.9, -118035.7, 0.0, 9.998835, 9.999143 
2.1149994e+3, 2.661586e+2, -603896.44, -497103.53, -87865.16, 0.023453875, -0.048217364, -447682.34, -116045.79, 0.0, 9.998332, 9.9997425 
2.1149717e+3, 2.7615756e+2, -546179.2, -426771.97, -76643.625, 0.018713398, -0.1259077, -389322.28, -155677.33, 0.0, 9.998089, 9.99967 
2.1149448e+3, 2.8615695e+2, -560162.7, -338900.66, -80085.03, 0.060388975, -0.16614525, -312956.28, -177304.88, 0.0, 9.997131, 10.000062 
2.1149182e+3, 2.9615715e+2, -665781.5, -338451.28, -105036.35, 0.14377494, -0.15339899, -307645.56, -269993.97, 0.0, 9.995729, 10.000069 
2.1148896e+3, 3.0616033e+2, -497735.8, 53842.863, -83702.39, 0.02548369, 0.031648107, 66264.99, 66264.99, 0.0, 9.995321, 10.002624 
2.114862e+3, 3.16162e+2, -577776.06, -191206.14, 108703.69, -0.064352416, -0.058701195, -162735.45, -162735.45, 0.0, 9.995659, 10.000778 
2.1253818e+3, 1.2621178e+2, -1439275.5, -1760315.4, 43298.88, -0.121352494, -0.20914009, -1433538.3, 269570.7, 0.4491424, 10.004571, 9.997512 
2.1253566e+3, 1.3621049e+2, -1245414.1, -1645061.6, 43026.043, -0.015061963, -0.09349442, -1240834.4, 364288.44, 0.33065802, 10.005026, 9.997399 
2.1253306e+3, 1.4620775e+2, -1112607.1, -1587872.3, 18770.852, 0.02764457, -0.08346927, -1111866.9, 395283.63, 0.2070902, 10.004848, 9.9971895 
2.1253031e+3, 1.5620424e+2, -1035680.44, -1540236.8, -5355.1694, -0.01704235, -0.15263379, -1035623.56, 373562.03, 0.103105776, 10.00434, 9.997088 
2.1252766e+3, 1.6620146e+2, -938477.6, -1428794.1, 6575.04, -0.011696944, -0.14358789, -938389.5, 372824.2, 0.036863636, 10.004023, 9.997333 
2.1252505e+3, 1.7619932e+2, -862397.44, -1355924.0, 21593.0, 0.02327721, -0.08978825, -861454.5, 351781.13, 0.0075095748, 10.00383, 9.997254 
2.1252234e+3, 1.8619666e+2, -783708.1, -1214019.9, -25415.441, 0.033572137, -0.09815425, -782212.25, 333049.2, 0.0003731331, 10.003448, 9.997739 
2.1251953e+3, 1.9619383e+2, -767543.3, -1169103.4, -37601.094, 0.027962068, -0.15233055, -764052.8, 253235.25, 0.0000000000129771185, 10.002943, 9.997618 
2.1251677e+3, 2.0619166e+2, -740341.5, -1078217.0, -28147.996, 0.036779456, -0.13299283, -738012.56, 181297.22, 0.0, 10.002342, 9.997857 
2.1251404e+3, 2.1619014e+2, -741885.9, -1031713.56, -29032.072, 0.054076783, -0.07175477, -739006.3, 82320.164, 0.0, 10.001674, 9.997827 
2.1251123e+3, 2.2618826e+2, -694485.44, -853202.25, -56211.117, 0.05489476, -0.08363748, -676594.44, 46750.344, 0.0, 10.0008745, 9.998763 
2.125084e+3, 2.3618634e+2, -730966.44, -831342.7, -61698.355, 0.04594333, -0.15061541, -701621.3, -76258.93, 0.0, 9.999999, 9.998663 
2.1250552e+3, 2.4618526e+2, -667526.25, -704241.2, -79492.984, 0.03308806, -0.13636391, -604298.6, -76925.09, 0.0, 9.999564, 9.999071 
2.1250264e+3, 2.5618497e+2, -598227.75, -626733.5, -81611.15, 0.021133259, -0.071444705, -529634.25, -100256.15, 0.0, 9.999395, 9.999012 
2.124998e+3, 2.6618445e+2, -534396.8, -455362.16, -64808.992, 0.024271892, -0.05848976, -418972.8, -87590.11, 0.0, 9.9987755, 9.999814 
2.1249697e+3, 2.7618384e+2, -577781.9, -435503.88, -71389.0, 0.028662253, -0.09925596, -405860.2, -172473.48, 0.0, 9.997848, 9.999724 
2.1249416e+3, 2.86183e+2, -577801.7, -354028.1, -70267.945, 0.04796587, -0.16121857, -333792.8, -198397.23, 0.0, 9.997042, 9.999999 
2.1249138e+3, 2.9618272e+2, -583683.3, -312053.25, -48187.89, 0.10741014, -0.19050182, -303757.94, -266356.97, 0.0, 9.996354, 9.999947 
2.1248855e+3, 3.0618632e+2, -476702.16, 15743.535, -51212.406, 0.060450185, 0.06821298, 21013.037, 21013.037, 0.0, 9.995672, 10.0021925 
2.1248576e+3, 3.161873e+2, -741586.2, -226392.83, 23960.354, -0.00017598624, -0.05244912, -225280.89, -225280.89, 0.0, 9.994342, 10.001172 
2.1353865e+3, 1.2624113e+2, -1449490.1, -1741723.3, 50868.305, -0.11592093, -0.042052187, -1440888.8, 261932.94, 0.4638392, 10.004426, 9.997726 
2.135362e+3, 1.3623731e+2, -1257101.8, -1652660.3, 49525.125, 0.032605104, -0.18883888, -1250995.3, 353862.06, 0.34399402, 10.004993, 9.997368 
2.1353357e+3, 1.4623389e+2, -1158456.0, -1698113.5, 2073.4424, 0.049147934, -0.20439437, -1158448.0, 348444.4, 0.21756577, 10.004855, 9.99643 
2.1353076e+3, 1.5623105e+2, -1072058.4, -1625324.0, -19721.988, -0.02301492, -0.13098283, -1071356.3, 337567.5, 0.10978112, 10.004368, 9.996493 
2.1352808e+3, 1.6622834e+2, -898789.2, -1345552.0, 1531.6565, -0.0037696008, -0.12056985, -898783.9, 412166.34, 0.04006316, 10.004042, 9.997897 
2.1352549e+3, 1.7622587e+2, -831212.4, -1290530.8, 14815.64, 0.06797656, -0.15442659, -830735.0, 382237.16, 0.008500012, 10.00383, 9.997704 
2.1352269e+3, 1.8622334e+2, -809568.1, -1267352.9, -43361.305, 0.038853474, -0.14887068, -805497.1, 309499.66, 0.00048067368, 10.003444, 9.9973755 
2.1351975e+3, 1.9622092e+2, -789595.94, -1214499.6, -54543.344, -0.051878635, -0.1269826, -782706.1, 234315.63, 0.000000000014668022, 10.002939, 9.99731 
2.1351695e+3, 2.0621848e+2, -734004.06, -1065231.1, -51687.605, -0.0146398395, -0.12719634, -726125.6, 192920.86, 0.0, 10.00234, 9.997949 
2.1351425e+3, 2.1621625e+2, -736892.75, -1021673.0, -52371.8, 0.10178363, -0.14391758, -727566.8, 93502.11, 0.0, 10.001672, 9.997897 
2.1351138e+3, 2.2621459e+2, -699078.0, -863761.4, -88132.33, 0.10143373, -0.13391311, -660806.8, 62278.18, 0.0, 10.000877, 9.99869 
2.1350837e+3, 2.3621343e+2, -736609.0, -843947.9, -89771.53, 0.02710169, -0.11702067, -685687.2, -60591.65, 0.0, 10.000001, 9.998576 
2.1350545e+3, 2.4621195e+2, -673345.8, -718640.7, -85757.65, 0.00845877, -0.13446692, -607295.56, -80185.125, 0.0, 9.999573, 9.99897 
2.1350259e+3, 2.562105e+2, -603065.2, -640343.44, -90646.195, 0.028075507, -0.17374492, -529161.6, -100036.07, 0.0, 9.999409, 9.998914 
2.1349971e+3, 2.6621023e+2, -540746.6, -471327.88, -101491.24, 0.052923158, -0.12589514, -398774.88, -67645.77, 0.0, 9.998786, 9.999701 
2.134968e+3, 2.7621076e+2, -581265.44, -446578.44, -107312.13, 0.068546735, -0.043079298, -387229.22, -154104.5, 0.0, 9.997862, 9.999642 
2.1349382e+3, 2.8621057e+2, -543268.3, -284615.7, -99126.19, 0.01563712, -0.060478408, -250996.31, -115869.84, 0.0, 9.99705, 10.000472 
2.1349087e+3, 2.9621065e+2, -556092.7, -258087.23, -71371.25, -0.04403722, -0.099719025, -241875.97, -204750.55, 0.0, 9.9963665, 10.000312 
2.1348812e+3, 3.062105e+2, -614741.25, -274344.47, -85082.04, 0.059733093, -0.13073581, -254262.94, -254262.94, 0.0, 9.995684, 10.000196 
2.1348523e+3, 3.1621087e+2, -611728.75, 46899.273, -74030.73, 0.021065222, -0.10937838, 55117.88, 55117.88, 0.0, 9.994329, 10.003053 
2.14539e+3, 1.2626742e+2, -1580282.3, -1793001.1, 54686.29, -0.07509052, -0.09128494, -1567046.9, 135516.13, 0.47899276, 10.00256, 9.998276 
2.145367e+3, 1.3626428e+2, -1284826.9, -1620799.1, 51135.18, 0.044532854, -0.21801938, -1277216.4, 327374.66, 0.35803205, 10.004562, 9.997803 
2.1453406e+3, 1.46261e+2, -1113421.3, -1655165.5, 5962.9927, 0.036175624, -0.24273244, -1113355.6, 393268.72, 0.2287987, 10.005255, 9.99653 
2.1453124e+3, 1.5625837e+2, -957226.6, -1551340.6, 34115.23, -0.017033849, -0.15620124, -955274.06, 453379.53, 0.117076546, 10.005244, 9.996577 
2.1452852e+3, 1.662558e+2, -807677.06, -1298699.6, 46177.09, -0.000986995, -0.13700521, -803372.2, 507307.03, 0.043651044, 10.004709, 9.997898 
2.1452583e+3, 1.7625335e+2, -829884.44, -1290472.4, 21413.79, 0.04929486, -0.16976143, -828891.0, 383810.5, 0.009666209, 10.00385, 9.997692 
2.14523e+3, 1.8625082e+2, -823073.94, -1274283.3, -30977.227, 0.029777478, -0.16167432, -820957.1, 293769.25, 0.000630019, 10.003356, 9.997369 
2.1452007e+3, 1.9624846e+2, -770920.7, -1206587.1, -20118.588, -0.030819025, -0.13220365, -769993.56, 246757.52, 0.000000045114895, 10.003076, 9.997296 
2.145172e+3, 2.06246e+2, -714087.44, -1055343.3, -22703.842, 0.0038888075, -0.13333926, -712583.56, 206192.53, 0.0, 10.002479, 9.997949 
2.145144e+3, 2.1624367e+2, -736356.94, -1022367.7, -31641.576, 0.097865276, -0.15991598, -732898.2, 87901.18, 0.0, 10.001681, 9.997888 
2.1451145e+3, 2.26242e+2, -666223.56, -851509.25, -64581.242, 0.0923386, -0.14688462, -645935.3, 76880.01, 0.0, 10.001119, 9.998657 
2.145084e+3, 2.3624095e+2, -638302.94, -799989.6, -62849.297, 0.025149437, -0.116200216, -616746.7, 8078.0503, 0.0, 10.000692, 9.998544 
2.1450542e+3, 2.4623936e+2, -614855.4, -695429.06, -48208.344, 0.00643295, -0.13804428, -592316.5, -65476.24, 0.0, 9.999998, 9.998922 
2.1450248e+3, 2.5623772e+2, -644862.3, -664031.06, -51217.93, 0.019793691, -0.19665264, -602339.7, -173482.31, 0.0, 9.99914, 9.998879 
2.1449953e+3, 2.6623735e+2, -601385.8, -499218.3, -63939.363, 0.043822553, -0.15664971, -468462.03, -137599.94, 0.0, 9.998364, 9.999711 
2.1449658e+3, 2.762379e+2, -615952.9, -464425.7, -60781.188, 0.07256099, -0.06681393, -443058.06, -210200.44, 0.0, 9.997628, 9.999633 
2.1449353e+3, 2.86238e+2, -545799.5, -290414.9, -60428.027, 0.01958842, -0.053944275, -276838.4, -141981.42, 0.0, 9.997053, 10.000432 
2.1449047e+3, 2.9623824e+2, -523140.16, -241932.64, -72732.266, -0.07547333, -0.07154794, -224234.8, -187380.61, 0.0, 9.996591, 10.000316 
2.1448764e+3, 3.062372e+2, -685960.06, -337413.78, -58435.71, 0.053582318, -0.18310922, -327877.63, -327877.63, 0.0, 9.995317, 9.999939 
2.1448466e+3, 3.1623745e+2, -682596.9, 104027.1, 66895.7, 0.0868616, -0.14610913, 109675.45, 109675.45, 0.0, 9.993467, 10.003852 
2.1553935e+3, 1.2629119e+2, -1521005.3, -1674041.0, 82128.48, -0.01091001, -0.31641194, -1485273.1, 217054.55, 0.49607787, 10.003002, 9.99907 
2.1553713e+3, 1.3629143e+2, -1246426.3, -1532696.1, 90115.93, 0.015923563, -0.18822904, -1220420.8, 383902.66, 0.37371534, 10.004665, 9.998625 
2.1553452e+3, 1.4628902e+2, -1077680.3, -1536446.8, 6304.705, -0.015181926, -0.20800865, -1077593.6, 428753.53, 0.24124269, 10.005235, 9.997355 
2.1553178e+3, 1.5628622e+2, -922684.8, -1457632.9, 31092.596, -0.0029121689, -0.22231494, -920883.7, 487492.22, 0.1251673, 10.005233, 9.997228 
2.1552898e+3, 1.6628379e+2, -846525.8, -1376037.1, 15409.474, -0.0060029533, -0.18711358, -846077.75, 464323.78, 0.047703877, 10.004697, 9.997371 
2.1552615e+3, 1.762816e+2, -860703.7, -1353330.8, -5824.6753, -0.029964339, -0.13949592, -860634.8, 351789.84, 0.011049121, 10.003844, 9.997265 
2.1552332e+3, 1.8627897e+2, -801885.44, -1230185.6, -39419.383, 0.0055440455, -0.13999093, -798287.6, 316163.47, 0.0008379428, 10.003354, 9.997674 
2.1552049e+3, 1.9627635e+2, -753173.1, -1170362.3, -30147.504, 0.08113526, -0.16835791, -751005.9, 265471.22, 0.00000065828607, 10.003075, 9.997547 
2.1551754e+3, 2.062741e+2, -721463.9, -1071131.4, -51464.656, 0.08437656, -0.152393, -714046.56, 204453.22, 0.0, 10.002479, 9.997842 
2.1551453e+3, 2.1627225e+2, -743564.2, -1036699.4, -57343.363, 0.041084494, -0.119994015, -732745.9, 87773.14, 0.0, 10.001677, 9.997792 
2.155115e+3, 2.262704e+2, -666499.8, -852103.4, -78940.914, 0.02874037, -0.12165342, -637466.3, 85070.38, 0.0, 10.001117, 9.998656 
2.1550848e+3, 2.3626877e+2, -637145.8, -799458.1, -79339.484, 0.036064826, -0.14768673, -604807.2, 19744.01, 0.0, 10.000698, 9.998547 
2.1550545e+3, 2.4626741e+2, -613668.94, -694758.75, -81413.98, 0.023087002, -0.14876251, -563262.6, -36698.258, 0.0, 10.000004, 9.998925 
2.1550237e+3, 2.562664e+2, -641985.8, -660171.44, -82954.52, -0.007387022, -0.14211184, -567627.25, -139052.23, 0.0, 9.999146, 9.998903 
2.1549931e+3, 2.6626563e+2, -589677.44, -477827.63, -92663.28, -0.0052233646, -0.15159063, -425520.94, -94938.23, 0.0, 9.998375, 9.999854 
2.1549629e+3, 2.7626526e+2, -608777.94, -452634.88, -88025.25, 0.031878386, -0.17080785, -413047.53, -180461.25, 0.0, 9.99764, 9.99971 
2.1549329e+3, 2.862652e+2, -584925.6, -372531.75, -78839.43, 0.057321075, -0.144658, -346465.9, -211877.61, 0.0, 9.997056, 9.9998665 
2.1549024e+3, 2.962654e+2, -546946.3, -295011.94, -93845.9, 0.021737434, -0.1132691, -263897.03, -227308.19, 0.0, 9.996605, 9.999945 
2.1548715e+3, 3.0626652e+2, -583254.25, -126526.24, -133276.53, 0.024615142, -0.069470264, -90480.05, -90480.05, 0.0, 9.995322, 10.001389 
2.1548404e+3, 3.1626722e+2, -728918.7, 3273.015, 27935.814, 0.10545644, -0.13326268, 4337.3223, 4337.3223, 0.0, 9.99348, 10.003158 
2.1653764e+3, 1.3631944e+2, -1064060.6, -1450444.8, 92416.24, -0.0396953, -0.19502267, -1043094.0, 560954.25, 0.39168778, 10.0069, 9.998497 
2.1653508e+3, 1.4631763e+2, -1102038.9, -1495913.0, 39862.734, 0.0497323, -0.17916071, -1098045.0, 408021.03, 0.25513658, 10.00485, 9.99784 
2.1653228e+3, 1.5631486e+2, -947056.75, -1426414.8, 43695.156, 0.003276749, -0.23499916, -943106.3, 464987.44, 0.13415481, 10.004897, 9.997604 
2.1652944e+3, 1.6631244e+2, -882937.1, -1414163.1, 11429.552, -0.010645846, -0.20457576, -882691.4, 427428.44, 0.052301157, 10.0045395, 9.997184 
2.1652654e+3, 1.7631023e+2, -859638.44, -1368279.5, 14429.01, -0.020394921, -0.14088666, -859229.44, 352914.97, 0.012704766, 10.003926, 9.997123 
2.1652366e+3, 1.8630773e+2, -770766.25, -1192542.0, -1030.0795, 0.01300264, -0.13341823, -770763.75, 343405.94, 0.0011285327, 10.003472, 9.997874 
2.1652077e+3, 1.9630532e+2, -737079.06, -1144621.4, -3117.2144, 0.078900605, -0.15881994, -737055.25, 279137.56, 0.0000036037882, 10.003109, 9.997706 
2.1651778e+3, 2.0630305e+2, -703806.5, -1067741.4, -35847.082, 0.07337294, -0.15098846, -700309.25, 217906.23, 0.0, 10.002622, 9.997795 
2.1651468e+3, 2.16301e+2, -691697.94, -1016090.6, -38099.02, 0.021293627, -0.13208845, -687283.4, 132952.83, 0.0, 10.002054, 9.997751 
2.1651159e+3, 2.2629906e+2, -622957.9, -837763.06, -53968.89, 0.010503038, -0.13737243, -610160.8, 112094.16, 0.0, 10.001448, 9.998593 
2.1650854e+3, 2.3629738e+2, -623032.94, -797058.1, -61435.02, 0.028806262, -0.16178639, -603530.5, 20739.93, 0.0, 10.000816, 9.998505 
2.1650544e+3, 2.4629615e+2, -616257.6, -681990.9, -72491.516, 0.028468916, -0.15278432, -569530.06, -43248.02, 0.0, 9.999927, 9.99905 
2.165023e+3, 2.562954e+2, -674647.3, -662746.94, -64822.387, 0.009601585, -0.1311338, -603602.25, -175312.7, 0.0, 9.998866, 9.999021 
2.1649915e+3, 2.6629463e+2, -643588.2, -503566.56, -69617.984, -0.00094580953, -0.14767076, -474844.5, -144547.36, 0.0, 9.998006, 9.999854 
2.1649602e+3, 2.7629402e+2, -660098.9, -474561.1, -75032.51, 0.018198077, -0.18823178, -448015.53, -215712.86, 0.0, 9.997279, 9.999731 
2.1649297e+3, 2.8629383e+2, -632489.3, -379387.5, -31374.158, 0.06280749, -0.1889051, -375556.4, -241249.95, 0.0, 9.996664, 10.000007 
2.1648987e+3, 2.9629382e+2, -628731.94, -318461.0, -2638.2952, 0.04498114, -0.18594085, -318438.6, -282129.9, 0.0, 9.99598, 10.000083 
2.1648666e+3, 3.062968e+2, -594706.44, -76499.12, -90282.33, 0.041368164, 0.009592604, -61220.55, -61220.55, 0.0, 9.995012, 10.001878 
2.1648335e+3, 3.162961e+2, -633149.2, -35316.926, 1707.237, 0.03045393, -0.24273516, -35312.05, -35312.05, 0.0, 9.994501, 10.002401 
2.1753825e+3, 1.3634823e+2, -1122676.0, -1536176.6, -16451.217, -0.1184891, -0.2316598, -1122022.5, 481743.66, 0.4114063, 10.006873, 9.997563 
2.1753575e+3, 1.4634676e+2, -1101544.1, -1480070.6, 44067.94, 0.20865576, -0.15317436, -1096481.5, 409299.84, 0.27015248, 10.004857, 9.997989 
2.1753277e+3, 1.5634422e+2, -943905.94, -1408585.0, 46332.723, -0.0031884161, -0.20120497, -939331.2, 468476.56, 0.14399241, 10.004904, 9.997726 
2.1752988e+3, 1.6634168e+2, -876817.8, -1398101.8, -7459.7993, -0.018757647, -0.19289404, -876711.06, 433123.6, 0.057528663, 10.004548, 9.997292 
2.17527e+3, 1.7633913e+2, -849806.7, -1352376.5, -3280.2268, 0.06599888, -0.1721547, -849785.25, 362076.22, 0.014713983, 10.00395, 9.997221 
2.1752402e+3, 1.8633698e+2, -762646.9, -1179438.6, -12453.255, 0.045477882, -0.14120473, -762275.1, 351608.0, 0.0015379064, 10.003489, 9.997957 
2.1752097e+3, 1.9633526e+2, -733442.75, -1136046.5, -15298.93, -0.0323469, -0.10490781, -732862.25, 283037.2, 0.000013465528, 10.003102, 9.997769 
2.1751794e+3, 2.0633268e+2, -704280.75, -1067684.6, -55835.266, -0.024056505, -0.12902243, -695895.44, 222028.73, 0.0, 10.002615, 9.997801 
2.1751489e+3, 2.1632978e+2, -693122.06, -1018871.06, -57120.496, 0.03229696, -0.19616166, -683396.25, 136555.77, 0.0, 10.00205, 9.997735 
2.1751177e+3, 2.2632784e+2, -632075.5, -856543.7, -76417.17, 0.03151091, -0.19473232, -608530.1, 113441.28, 0.0, 10.001445, 9.9984665 
2.175086e+3, 2.3632665e+2, -629634.4, -809549.44, -85681.234, -0.00008993634, -0.15774146, -595359.7, 28623.838, 0.0, 10.000809, 9.998424 
2.1750543e+3, 2.4632554e+2, -599538.75, -647906.4, -112728.5, 0.021197364, -0.14935918, -508429.16, 17565.105, 0.0, 9.9999275, 9.999286 
2.1750222e+3, 2.5632465e+2, -659529.56, -634836.2, -103542.305, 0.06457471, -0.16318037, -542907.06, -114905.03, 0.0, 9.998879, 9.9992075 
2.17499e+3, 2.6632422e+2, -653795.4, -526293.56, -98850.9, 0.053550057, -0.14452498, -472419.28, -142412.72, 0.0, 9.998011, 9.999697 
2.1749575e+3, 2.7632415e+2, -661620.4, -479777.6, -99946.73, 0.031072749, -0.116774, -435584.03, -203576.14, 0.0, 9.997286, 9.999693 
2.174926e+3, 2.863237e+2, -570645.8, -255206.95, -58855.074, 0.028283082, -0.18640958, -244583.45, -110570.72, 0.0, 9.996678, 10.0008545 
2.174894e+3, 2.9632342e+2, -581260.25, -224872.39, -38447.688, -0.030636065, -0.29518574, -220771.77, -184756.6, 0.0, 9.995998, 10.000718 
2.1748628e+3, 3.063278e+2, -639385.6, -165216.5, -125707.4, 0.13441393, 0.05067934, -133951.6, -133951.6, 0.0, 9.994997, 10.001275 
2.1748279e+3, 3.1632635e+2, -660996.3, -105609.52, -54827.59, 0.017345132, -0.22179832, -100248.71, -100248.71, 0.0, 9.994536, 10.001911 
2.1853897e+3, 1.3637981e+2, -1200057.0, -1634986.5, -2622.69, -0.0874794, -0.23134805, -1200041.3, 403414.34, 0.43120572, 10.006537, 9.996727 
2.1853623e+3, 1.4637668e+2, -1068074.3, -1504608.4, 148500.8, 0.18555996, -0.2607645, -1022347.0, 483141.06, 0.28557998, 10.005472, 9.997574 
2.1853325e+3, 1.5637499e+2, -910809.75, -1431724.1, 132541.72, -0.016020235, -0.18205047, -879025.1, 528481.9, 0.15457538, 10.005402, 9.997358 
2.1853034e+3, 1.6637251e+2, -780573.3, -1341098.5, 60302.69, -0.03590051, -0.1518543, -774159.25, 535373.56, 0.0634992, 10.005246, 9.99735 
2.1852742e+3, 1.7636962e+2, -703186.2, -1279390.8, 61115.414, 0.03494479, -0.17159997, -696775.3, 514786.75, 0.017186461, 10.004979, 9.997228 
2.185244e+3, 1.8636711e+2, -683781.75, -1177841.4, 24181.635, 0.028729651, -0.1562505, -682601.0, 430986.22, 0.0021175717, 10.004191, 9.99763 
2.1852128e+3, 1.9636507e+2, -750730.8, -1172516.3, -6331.269, -0.018242525, -0.11986464, -750635.8, 264971.63, 0.000039463976, 10.003107, 9.997517 
2.1851818e+3, 2.0636249e+2, -708850.25, -1049558.0, -38070.45, -0.010014753, -0.14301048, -704648.1, 212983.77, 0.0, 10.0025, 9.997979 
2.1851508e+3, 2.1635976e+2, -664710.9, -989068.8, -31204.135, 0.030224212, -0.20927845, -661736.25, 157920.88, 0.0, 10.002178, 9.997877 
2.185119e+3, 2.263579e+2, -643836.94, -867895.25, -54676.195, 0.026252173, -0.2016079, -631206.5, 90469.28, 0.0, 10.0013895, 9.998415 
2.1850865e+3, 2.3635677e+2, -702813.8, -847201.94, -58951.07, -0.00068224, -0.15553202, -681802.7, -58114.277, 0.0, 10.000318, 9.998401 
2.185054e+3, 2.4635562e+2, -626299.1, -641190.6, -80250.21, 0.023364186, -0.1563619, -553150.0, -27450.89, 0.0, 9.999662, 9.999457 
2.1850212e+3, 2.5635475e+2, -596049.56, -588973.7, -78296.664, 0.07269197, -0.18859386, -514135.06, -86428.62, 0.0, 9.999252, 9.999341 
2.1849883e+3, 2.6635444e+2, -599043.9, -504171.66, -75719.03, 0.06236285, -0.15761717, -462257.03, -132547.2, 0.0, 9.998407, 9.999657 
2.1849549e+3, 2.763546e+2, -661712.8, -479201.5, -67831.42, 0.030898, -0.10476082, -456752.72, -225042.78, 0.0, 9.997285, 9.999697 
2.1849221e+3, 2.8635433e+2, -629399.44, -243829.88, -47024.383, 0.020337313, -0.17436896, -238177.61, -104465.055, 0.0, 9.996106, 10.001207 
2.1848895e+3, 2.9635447e+2, -716479.4, -249226.4, -66251.34, -0.020979028, -0.27968636, -240014.31, -204304.14, 0.0, 9.994897, 10.0010805 
2.1848574e+3, 3.063585e+2, -665820.0, -142965.36, -94523.22, 0.13393466, 0.0006884818, -126401.88, -126401.88, 0.0, 9.994665, 10.001589 
2.184822e+3, 3.1635863e+2, -660419.56, -132312.0, 6236.962, -0.028964574, -0.13824287, -132238.36, -132238.36, 0.0, 9.994659, 10.001667 
2.1953972e+3, 1.364137e+2, -1263129.0, -1759236.0, -63957.258, 0.01955105, -0.205847, -1255016.5, 348104.94, 0.44998407, 10.006272, 9.996028 
2.1953657e+3, 1.4640725e+2, -1122240.3, -1634450.1, 152461.03, -0.0031736572, -0.48345348, -1080294.6, 424892.97, 0.30114934, 10.005505, 9.996643 
2.1953379e+3, 1.5640692e+2, -959820.7, -1545375.4, 133922.63, -0.03746696, -0.17521517, -930644.9, 476548.8, 0.16601965, 10.005446, 9.9965515 
2.1953084e+3, 1.664047e+2, -781051.7, -1338049.8, 51316.914, -0.06562593, -0.086083345, -776363.3, 532853.25, 0.070408925, 10.005264, 9.997363 
2.1952778e+3, 1.7640144e+2, -712079.9, -1292980.6, 48107.32, -0.105730005, -0.14233187, -708122.8, 503125.47, 0.020264626, 10.004969, 9.99714 
2.1952476e+3, 1.86398e+2, -732658.3, -1279898.4, -15598.035, -0.034138422, -0.17704181, -732214.1, 381069.1, 0.0029357232, 10.004193, 9.99693 
2.1952173e+3, 1.9639468e+2, -786501.06, -1251640.4, -39909.785, 0.10737746, -0.19957666, -783101.56, 232215.75, 0.00009790344, 10.003125, 9.996966 
2.1951856e+3, 2.0639236e+2, -683315.0, -1000668.56, -48016.26, 0.10354632, -0.19108912, -676209.2, 241130.17, 0.000000012688071, 10.002515, 9.998309 
2.1951528e+3, 2.1639083e+2, -646204.9, -948804.25, -44315.58, 0.011564147, -0.17131883, -639848.44, 179504.02, 0.0, 10.002168, 9.998159 
2.1951202e+3, 2.2638915e+2, -643895.75, -866870.44, -93896.85, -0.00580223, -0.15866686, -609622.9, 111746.36, 0.0, 10.001383, 9.998426 
2.195087e+3, 2.3638758e+2, -700343.8, -843874.6, -94537.11, 0.021013299, -0.15639295, -653418.25, -30032.11, 0.0, 10.000323, 9.998423 
2.1950537e+3, 2.4638633e+2, -618410.25, -626811.3, -96250.91, 0.030506356, -0.17475152, -526268.25, -870.522, 0.0, 9.999668, 9.999555 
2.19502e+3, 2.5638554e+2, -589326.2, -577424.94, -97168.86, 0.028819865, -0.20716067, -486024.66, -58620.805, 0.0, 9.999261, 9.999418 
2.194986e+3, 2.663852e+2, -592600.1, -492990.94, -119526.76, 0.021971712, -0.18767914, -413307.5, -83899.52, 0.0, 9.998415, 9.999731 
2.1949519e+3, 2.7638522e+2, -655906.7, -470494.56, -110931.97, 0.012543852, -0.154704, -418631.2, -187221.17, 0.0, 9.997296, 9.999752 
2.1949184e+3, 2.863856e+2, -642685.3, -271417.5, -95659.48, 0.03813402, -0.15344682, -248219.7, -114812.69, 0.0, 9.996104, 10.00102 
2.1948853e+3, 2.963868e+2, -712256.8, -238857.3, -104868.05, 0.07511941, -0.13216825, -216666.97, -181272.47, 0.0, 9.994887, 10.001159 
2.1948509e+3, 3.0638874e+2, -565001.75, 59900.383, -82262.625, 0.0148554575, -0.14855874, 70548.08, 70548.08, 0.0, 9.99469, 10.002972 
2.1948169e+3, 3.1639102e+2, -696045.7, -205089.23, -34074.2, 0.0022933586, -0.18233146, -202735.64, -202735.64, 0.0, 9.994669, 10.001156 
2.2054018e+3, 1.3644536e+2, -1503246.4, -1727604.5, -5513.7847, 0.08162103, -0.19620462, -1503111.0, 99702.625, 0.46858954, 10.002282, 9.998138 
2.2053719e+3, 1.4644101e+2, -933645.75, -1528418.1, 99614.62, -0.047286898, -0.3329324, -917405.4, 587452.44, 0.31764206, 10.007618, 9.996314 
2.2053435e+3, 1.5643881e+2, -831613.3, -1500224.8, 114495.77, -0.072788715, -0.18073215, -812550.1, 594331.7, 0.17887297, 10.006718, 9.996245 
2.2053137e+3, 1.6643605e+2, -727984.6, -1320572.5, 41002.65, -0.07420281, -0.124809965, -725161.0, 583748.56, 0.07858134, 10.005751, 9.997247 
2.2052829e+3, 1.7643309e+2, -740017.75, -1316237.4, 28616.375, -0.078876056, -0.14086461, -738600.06, 472338.34, 0.02412153, 10.004831, 9.9970455 
2.2052519e+3, 1.8642971e+2, -699397.9, -1259031.4, -3801.5237, -0.016747097, -0.16699629, -699372.06, 413600.25, 0.0040745195, 10.004408, 9.996968 
2.2052208e+3, 1.964263e+2, -620831.7, -1169675.4, 19673.146, 0.09167715, -0.20114216, -620127.44, 394879.44, 0.00021412318, 10.004257, 9.996983 
2.2051883e+3, 2.0642394e+2, -574173.56, -962008.0, 2707.2292, 0.09182202, -0.19110687, -574154.6, 342875.03, 0.00000016341261, 10.003327, 9.998181 
2.205155e+3, 2.1642238e+2, -682371.5, -973935.44, -26824.664, 0.025918229, -0.16118221, -679924.1, 139119.58, 0.0, 10.001955, 9.998088 
2.2051214e+3, 2.2642075e+2, -658886.25, -849558.1, -73229.44, 0.008952639, -0.15247698, -634007.8, 87052.086, 0.0, 10.001177, 9.998643 
2.2050874e+3, 2.3641925e+2, -625764.3, -785754.1, -59895.89, 0.023081355, -0.16301192, -605825.7, 17249.848, 0.0, 10.000743, 9.998618 
2.2050533e+3, 2.464182e+2, -606649.2, -615260.8, -61029.508, 0.026790606, -0.1738557, -549773.8, -24688.262, 0.0, 9.999725, 9.999605 
2.2050188e+3, 2.564176e+2, -716068.94, -629931.7, -65322.953, 0.024141166, -0.18829495, -594757.1, -167667.14, 0.0, 9.998355, 9.999493 
2.2049841e+3, 2.664173e+2, -690891.4, -507381.44, -73222.54, 0.022446498, -0.18650119, -481745.97, -152652.27, 0.0, 9.997601, 10.000023 
2.2049493e+3, 2.7641726e+2, -659088.4, -445199.22, -52989.92, 0.024754426, -0.18802676, -432791.06, -201695.47, 0.0, 9.997162, 9.9999895 
2.2049145e+3, 2.8641802e+2, -625483.25, -274282.63, -38621.297, 0.049535897, -0.14981343, -270085.63, -136996.95, 0.0, 9.996272, 10.000919 
2.2048804e+3, 2.9641977e+2, -664920.5, -215526.44, -35266.785, 0.08026622, -0.06663536, -212775.67, -177704.05, 0.0, 9.995213, 10.001161 
2.204845e+3, 3.0642006e+2, -606827.5, 38710.38, -47091.313, -0.027197422, -0.24901904, 42127.55, 42127.55, 0.0, 9.994405, 10.002965 
2.204812e+3, 3.1642357e+2, -802832.5, -184769.55, -73840.59, 0.11354304, -0.15780585, -176070.19, -176070.19, 0.0, 9.993633, 10.001791 
2.2154021e+3, 1.364739e+2, -1357570.3, -1336771.6, 251609.53, -0.1324502, -0.314754, -1095346.6, 507193.88, 0.4895733, 10.002117, 10.002649 
2.21538e+3, 1.4647743e+2, -938433.44, -1494229.1, 73601.8, 0.021528846, 0.13515769, -928851.9, 575652.06, 0.33676514, 10.007621, 9.996534 
2.2153497e+3, 1.5647058e+2, -833886.75, -1477566.3, 84540.79, -0.12563339, -0.19945012, -822968.4, 583603.56, 0.19408053, 10.006712, 9.996397 
2.2153196e+3, 1.6646664e+2, -746961.6, -1353703.8, 10814.007, -0.06646234, -0.25421125, -746768.94, 561842.1, 0.088458344, 10.005767, 9.997011 
2.2152896e+3, 1.7646454e+2, -742609.6, -1327255.9, 1920.4321, 0.09482788, -0.1632622, -742603.3, 468028.88, 0.028952949, 10.004874, 9.99695 
2.2152571e+3, 1.8646212e+2, -646756.6, -1154476.3, -7447.158, 0.06857259, -0.12902607, -646647.44, 466008.1, 0.0056229397, 10.004436, 9.997674 
2.2152235e+3, 1.9645974e+2, -585857.5, -1094853.6, 8927.696, -0.059133828, -0.12889232, -585700.94, 428976.94, 0.00042103324, 10.004247, 9.997502 
2.2151904e+3, 2.0645702e+2, -614629.6, -1044267.9, -48550.395, -0.0373902, -0.14577149, -609211.56, 307493.1, 0.0000010850493, 10.003317, 9.9976225 
2.2151574e+3, 2.1645428e+2, -712162.25, -1034912.3, -70841.5, 0.06687727, -0.17881446, -697297.6, 121434.33, 0.0, 10.001949, 9.997674 
2.215123e+3, 2.2645257e+2, -630447.2, -790504.3, -87544.96, 0.06388837, -0.18242247, -591864.25, 128884.54, 0.0, 10.001175, 9.999051 
2.2150879e+3, 2.3645167e+2, -601229.06, -734827.06, -79550.63, 0.0014310543, -0.17433608, -564151.2, 58606.457, 0.0, 10.000741, 9.99897 
2.2150527e+3, 2.4645108e+2, -606829.4, -615802.75, -113810.58, 0.010500905, -0.15335536, -497417.1, 27346.402, 0.0, 9.999725, 9.999603 
2.2150174e+3, 2.5645086e+2, -709091.6, -618372.7, -111771.484, 0.054949816, -0.13162358, -543107.3, -116341.56, 0.0, 9.998365, 9.999568 
2.2149819e+3, 2.664506e+2, -653671.94, -432762.13, -90398.34, 0.060197495, -0.15551831, -400486.0, -71718.06, 0.0, 9.997609, 10.000533 
2.2149466e+3, 2.764506e+2, -627774.0, -384010.16, -74937.98, 0.054922443, -0.2062663, -362815.5, -132047.95, 0.0, 9.997175, 10.000405 
2.2149108e+3, 2.864516e+2, -626405.7, -277053.84, -81064.875, 0.050287865, -0.16203925, -259159.81, -126401.78, 0.0, 9.996276, 10.000898 
2.2148748e+3, 2.9645324e+2, -668934.7, -225436.81, -68132.58, 0.003984525, -0.08361473, -215205.92, -180463.81, 0.0, 9.995218, 10.001091 
2.2148393e+3, 3.0645236e+2, -705135.8, -165366.56, -82195.945, -0.011602877, -0.3095444, -153127.3, -153127.3, 0.0, 9.994398, 10.00157 
2.2148055e+3, 3.1645572e+2, -660755.06, 99547.14, 20448.502, 0.08071856, -0.10401449, 100096.71, 100096.71, 0.0, 9.99367, 10.003731 
2.225388e+3, 1.4651057e+2, -899332.75, -1464426.3, 101790.49, -0.0023421298, 0.1384813, -881556.4, 622623.44, 0.3605029, 10.008249, 9.996553 
2.2253567e+3, 1.5650377e+2, -835062.94, -1470982.3, 111886.22, -0.08156348, -0.19282715, -815951.56, 590295.8, 0.21269788, 10.006814, 9.9964075 
2.225326e+3, 1.6649964e+2, -687903.7, -1332261.0, 67417.87, -0.02918132, -0.2584306, -680925.44, 627362.3, 0.10051597, 10.006333, 9.996891 
2.2252949e+3, 1.7649727e+2, -548560.8, -1239682.9, 65583.555, 0.08545838, -0.1809713, -542392.4, 667918.3, 0.03495963, 10.006324, 9.996855 
2.2252618e+3, 1.8649493e+2, -506548.6, -1082330.5, 19714.924, 0.054468956, -0.13519071, -505874.34, 606458.94, 0.0076656668, 10.005398, 9.997707 
2.2252275e+3, 1.9649287e+2, -619923.44, -1103580.4, -12647.11, -0.055877034, -0.10959014, -619593.0, 394760.4, 0.0007528049, 10.003983, 9.997569 
2.2251934e+3, 2.064902e+2, -653439.3, -1041217.2, -60269.6, -0.029540379, -0.132807, -644288.0, 272091.4, 0.000005509597, 10.00296, 9.997815 
2.2251594e+3, 2.1648741e+2, -668348.3, -992963.7, -29921.436, 0.07467701, -0.19067526, -665613.3, 152793.66, 0.0, 10.002164, 9.997857 
2.2251242e+3, 2.2648585e+2, -622427.1, -774901.44, -29265.14, 0.07017483, -0.19316378, -617003.06, 103419.414, 0.0, 10.0011835, 9.999152 
2.2250883e+3, 2.3648521e+2, -686543.0, -761959.75, -44890.81, 0.006088454, -0.1681076, -665624.56, -43195.582, 0.0, 10.000099, 9.999091 
2.2250523e+3, 2.4648479e+2, -649921.1, -613241.9, -82220.92, 0.0130193, -0.14725822, -547340.06, -22906.777, 0.0, 9.999332, 9.999807 
2.2250159e+3, 2.5648466e+2, -640852.06, -561107.6, -64499.523, 0.0561495, -0.13707201, -525151.2, -98716.61, 0.0, 9.998734, 9.999782 
2.2249797e+3, 2.6648465e+2, -606608.06, -390948.75, -44579.105, 0.064892225, -0.15379253, -382097.06, -53662.992, 0.0, 9.997852, 10.000702 
2.2249436e+3, 2.7648503e+2, -671604.06, -388106.75, -58172.79, 0.069502115, -0.18232125, -376634.13, -146204.45, 0.0, 9.996803, 10.000555 
2.224907e+3, 2.864859e+2, -672322.75, -294856.5, -73535.82, 0.046891402, -0.15561411, -281036.66, -148615.73, 0.0, 9.995945, 10.000935 
2.2248694e+3, 2.9648703e+2, -691858.5, -250786.47, -56275.438, -0.039934505, -0.13281605, -243719.63, -209309.45, 0.0, 9.995124, 10.000962 
2.2248344e+3, 3.0648667e+2, -737603.94, -225980.89, -35329.668, 0.057208586, -0.2745601, -223552.77, -223552.77, 0.0, 9.994375, 10.001162 
2.2247984e+3, 3.164886e+2, -642830.6, 157290.86, 125746.41, 0.013548034, -0.18511574, 176587.67, 176587.67, 0.0, 9.993597, 10.004156 
2.235395e+3, 1.4654098e+2, -950263.8, -1489844.8, 60880.4, -0.11413364, -0.24766462, -943480.0, 560400.25, 0.39051884, 10.008082, 9.9963665 
2.2353648e+3, 1.5653819e+2, -852978.9, -1486338.9, 74281.99, 0.04332266, -0.16015024, -844383.56, 561526.25, 0.23558298, 10.006869, 9.996262 
2.2353327e+3, 1.6653475e+2, -690103.8, -1330650.4, 66579.805, 0.026153198, -0.1527613, -683256.56, 624686.25, 0.11516582, 10.006403, 9.996871 
2.2352993e+3, 1.7653112e+2, -562377.7, -1257710.4, 57915.906, -0.09493972, -0.19602233, -557586.75, 652388.94, 0.04231666, 10.006317, 9.996736 
2.2352661e+3, 1.865281e+2, -550568.1, -1167966.1, -31920.19, -0.050617073, -0.18086886, -548922.2, 563084.1, 0.010263153, 10.005382, 9.997127 
2.2352329e+3, 1.9652562e+2, -644726.4, -1155065.1, -59119.977, 0.0870165, -0.13899046, -637967.1, 376066.2, 0.0012336408, 10.003981, 9.997217 
2.2351977e+3, 2.0652345e+2, -591741.3, -913358.0, -87950.72, 0.10134052, -0.14983803, -569261.2, 346793.06, 0.000017494829, 10.002959, 9.998694 
2.2351614e+3, 2.1652164e+2, -618730.0, -888644.25, -58953.367, 0.04550009, -0.19578208, -606415.5, 211654.48, 0.0, 10.002156, 9.998578 
2.235125e+3, 2.2652042e+2, -636627.06, -803859.0, -69232.234, 0.02782488, -0.18472952, -611685.56, 108396.87, 0.0, 10.00118, 9.998956 
2.2350886e+3, 2.3651972e+2, -692832.94, -776399.1, -81961.7, 0.032234985, -0.145937, -642618.5, -20527.658, 0.0, 10.000103, 9.998991 
2.2350515e+3, 2.4651916e+2, -620902.94, -554555.7, -105214.57, 0.029746223, -0.15779753, -477408.88, 46687.117, 0.0, 9.999337, 10.00021 
2.2350141e+3, 2.5651887e+2, -616127.7, -512363.2, -89675.195, 0.019913798, -0.20452024, -460643.25, -34545.81, 0.0, 9.998743, 10.0001135 
2.2349773e+3, 2.665193e+2, -619832.9, -418687.94, -86112.46, 0.03397835, -0.17954794, -386858.8, -58765.832, 0.0, 9.997852, 10.000512 
2.2349404e+3, 2.7652046e+2, -679173.8, -404461.97, -95904.98, 0.06986366, -0.114584304, -374293.5, -144210.53, 0.0, 9.996804, 10.000443 
2.2349025e+3, 2.865209e+2, -663280.4, -278577.06, -105471.99, 0.03274507, -0.13432743, -251558.03, -119479.38, 0.0, 9.995951, 10.001045 
2.2348641e+3, 2.96521e+2, -704231.2, -282650.5, -89011.65, -0.07755879, -0.2211566, -264627.28, -230550.1, 0.0, 9.995146, 10.000734 
2.2348303e+3, 3.0652297e+2, -710441.4, -167731.7, -63488.25, 0.20810631, -0.1206156, -160403.56, -160403.56, 0.0, 9.9943695, 10.001562 
2.2347912e+3, 3.165237e+2, -762433.25, -90708.04, -81039.94, -0.03804049, -0.22170837, -81069.33, -81069.33, 0.0, 9.99358, 10.002468 
2.2454008e+3, 1.465737e+2, -1263825.6, -1662261.0, 85068.17, -0.13066141, -0.35170493, -1246423.1, 257135.03, 0.42790085, 10.004498, 9.996907 
2.2453725e+3, 1.5657254e+2, -676252.44, -1332648.6, 108340.6, 0.0512752, -0.15257944, -658832.75, 746738.9, 0.26334345, 10.00849, 9.996699 
2.24534e+3, 1.6656943e+2, -440546.0, -1202322.6, 52437.844, 0.028270314, -0.12825964, -436953.3, 870648.2, 0.13271128, 10.008488, 9.996852 
2.2453055e+3, 1.7656542e+2, -564427.7, -1253659.5, 41970.348, -0.11122263, -0.20844975, -561881.3, 647757.3, 0.051117014, 10.006338, 9.996753 
2.2452712e+3, 1.8656228e+2, -595401.6, -1173081.8, -12671.357, -0.05459403, -0.21277677, -595123.8, 516546.5, 0.013415029, 10.005015, 9.997267 
2.2452372e+3, 1.9655986e+2, -605356.7, -1118060.3, 8465.934, 0.11283406, -0.17905042, -605216.94, 408479.9, 0.0018622631, 10.00418, 9.997375 
2.2452009e+3, 2.0655803e+2, -539677.75, -858962.5, -23821.205, 0.115530774, -0.17604327, -537910.25, 377804.13, 0.000040102543, 10.003194, 9.998953 
2.245163e+3, 2.1655674e+2, -604111.0, -853203.1, -39674.25, 0.026322227, -0.19514613, -597944.56, 219780.53, 0.0, 10.002137, 9.998829 
2.2451259e+3, 2.2655575e+2, -615021.06, -775050.7, -47979.305, 0.021471167, -0.17994466, -601738.56, 117996.54, 0.0, 10.00125, 9.999119 
2.2450891e+3, 2.3655513e+2, -632588.2, -730353.3, -34878.293, 0.065217905, -0.15040253, -621420.8, 322.0619, 0.0, 10.000446, 9.99914 
2.245051e+3, 2.4655457e+2, -613167.0, -545054.8, -63617.18, 0.054145977, -0.1711707, -506951.6, 16796.525, 0.0, 9.999369, 10.000258 
2.2450125e+3, 2.5655422e+2, -702032.1, -546923.1, -75304.86, 0.011137733, -0.22487687, -516378.0, -90627.94, 0.0, 9.998127, 10.000172 
2.2449747e+3, 2.6655486e+2, -707382.75, -447304.34, -65647.97, 0.017878713, -0.19087784, -431673.2, -103929.32, 0.0, 9.997198, 10.0006275 
2.2449368e+3, 2.7655622e+2, -724081.2, -410445.78, -52469.59, 0.0620206, -0.11308282, -401900.72, -172169.34, 0.0, 9.996435, 10.000576 
2.2448984e+3, 2.8655654e+2, -698535.06, -273478.75, -51593.58, 0.035906896, -0.1619818, -267305.94, -135577.64, 0.0, 9.99562, 10.001237 
2.2448592e+3, 2.965565e+2, -757374.75, -290851.16, -30865.557, -0.056842897, -0.28541946, -288817.9, -255089.25, 0.0, 9.994714, 10.000882 
2.2448245e+3, 3.0656013e+2, -712994.5, -134790.4, 37516.598, 0.1947474, -0.03869286, -132366.31, -132366.31, 0.0, 9.994208, 10.001864 
2.2447851e+3, 3.1656033e+2, -777568.7, -185674.25, -114143.27, -0.033885896, -0.22251222, -164425.25, -164425.25, 0.0, 9.993846, 10.001692 
2.255406e+3, 1.4660837e+2, -1175380.8, -1479255.5, 159085.13, -0.08199346, -0.2162438, -1107334.0, 395882.75, 0.47355714, 10.005335, 9.998088 
2.2553802e+3, 1.5660682e+2, -649205.06, -1233807.8, 188638.66, -0.050222494, -0.16943292, -593620.5, 811612.06, 0.29658085, 10.008624, 9.997632 
2.2553481e+3, 1.6660377e+2, -472596.94, -1214276.6, -14047.829, -0.017452538, -0.17450349, -472330.97, 834932.25, 0.1533557, 10.008411, 9.996812 
2.255313e+3, 1.7660011e+2, -563258.0, -1237643.0, -22889.188, 0.016347352, -0.21787465, -562482.0, 646817.56, 0.06130538, 10.006344, 9.9968605 
2.255277e+3, 1.8659739e+2, -541002.3, -1059821.3, -39885.367, 0.026750326, -0.23124005, -537954.0, 573372.4, 0.017023219, 10.005034, 9.998042 
2.2552405e+3, 1.965954e+2, -563570.3, -1030649.06, -21459.926, 0.024163002, -0.23002774, -562586.44, 450759.2, 0.0026001364, 10.004178, 9.997976 
2.2552028e+3, 2.065938e+2, -562907.44, -907049.75, -61662.34, 0.01955247, -0.21135066, -552192.6, 363168.8, 0.00007356237, 10.003191, 9.998625 
2.255165e+3, 2.165926e+2, -617709.2, -881383.5, -74943.96, 0.013470375, -0.19043832, -597896.6, 219476.78, 0.0, 10.002134, 9.998638 
2.2551274e+3, 2.2659177e+2, -581233.75, -703118.25, -76410.555, 0.04636876, -0.18024848, -544438.94, 174942.67, 0.0, 10.001241, 9.999619 
2.2550899e+3, 2.3659132e+2, -606716.3, -676015.5, -66784.664, 0.099938154, -0.18085572, -566127.75, 55258.223, 0.0, 10.000442, 9.9995165 
2.2550508e+3, 2.4659088e+2, -635586.9, -591128.25, -111425.74, 0.08342782, -0.18597044, -499736.1, 23654.56, 0.0, 9.999365, 9.999944 
2.2550108e+3, 2.5659066e+2, -715558.3, -577241.7, -119747.63, 0.024679847, -0.19791296, -508116.34, -82722.88, 0.0, 9.998135, 9.99996 
2.2549714e+3, 2.665912e+2, -677759.5, -387109.44, -96298.16, 0.011722533, -0.19082743, -358099.44, -30711.502, 0.0, 9.997201, 10.001041 
2.2549328e+3, 2.7659225e+2, -699139.8, -359658.25, -81751.11, 0.035460286, -0.18176806, -340997.4, -111621.17, 0.0, 9.996436, 10.000926 
2.2548941e+3, 2.865928e+2, -682757.94, -241260.48, -88357.0, 0.05656642, -0.23624195, -224234.19, -92863.336, 0.0, 9.995619, 10.00146 
2.2548547e+3, 2.9659343e+2, -717843.4, -211896.34, -65826.45, 0.032883085, -0.31509075, -203472.23, -170107.13, 0.0, 9.994724, 10.001421 
2.2548164e+3, 3.0659774e+2, -682133.8, -72303.21, 32160.273, -0.021781214, -0.058993064, -70611.88, -70611.88, 0.0, 9.994215, 10.002291 
2.2547798e+3, 3.1659806e+2, -725552.5, -74362.39, -143982.55, 0.05551351, -0.24358004, -43947.457, -43947.457, 0.0, 9.993833, 10.002461 
2.2653906e+3, 1.566442e+2, -435256.78, -1223615.1, 172714.94, -0.026919972, -0.1761956, -399078.34, 1005784.1, 0.3358455, 10.011951, 9.996231 
2.2653545e+3, 1.6663934e+2, -686367.3, -1280735.0, 83234.68, -0.13002189, -0.31719157, -674931.25, 631982.2, 0.17699419, 10.006679, 9.99711 
2.2653203e+3, 1.7663762e+2, -473712.44, -1163247.4, 102881.46, 0.082892194, -0.19471304, -458689.4, 750241.75, 0.07256134, 10.006951, 9.997102 
2.2652832e+3, 1.8663521e+2, -396973.75, -994674.94, 55484.27, 0.08783169, -0.18240534, -391866.8, 719088.2, 0.020868583, 10.006088, 9.997992 
2.2652444e+3, 1.9663267e+2, -505549.97, -1006993.9, 17284.05, -0.018612623, -0.22880928, -504954.9, 508024.66, 0.0033726362, 10.004604, 9.997932 
2.2652058e+3, 2.0663084e+2, -536755.7, -903849.75, -26392.715, -0.022508148, -0.22524513, -534867.9, 380129.8, 0.00011271184, 10.003413, 9.998539 
2.2651675e+3, 2.166296e+2, -583676.94, -868676.75, -24648.398, 0.030479072, -0.20067847, -581560.94, 235449.52, 0.0, 10.002387, 9.998602 
2.2651286e+3, 2.2662884e+2, -581750.7, -679116.8, -33730.52, 0.0636929, -0.19241643, -571207.2, 147810.44, 0.0, 10.001135, 9.999833 
2.2650899e+3, 2.3662858e+2, -691653.56, -694204.6, -43081.293, 0.088115074, -0.1969933, -649828.9, -28809.035, 0.0, 9.999762, 9.999719 
2.2650498e+3, 2.4662833e+2, -690297.44, -602477.94, -65506.918, 0.0836845, -0.19827043, -567525.6, -44503.05, 0.0, 9.998926, 10.000076 
2.2650093e+3, 2.5662833e+2, -672687.25, -543064.25, -41880.336, 0.058282036, -0.20136157, -530710.4, -105686.9, 0.0, 9.998373, 10.000079 
2.264969e+3, 2.6662883e+2, -621212.6, -350658.38, -22066.906, 0.025217531, -0.20265512, -348870.38, -21852.322, 0.0, 9.997552, 10.0011215 
2.264929e+3, 2.766298e+2, -680639.4, -342867.7, -34814.84, 0.0065639494, -0.2128527, -339316.6, -110309.01, 0.0, 9.9965315, 10.000995 
2.2648895e+3, 2.8663057e+2, -704525.25, -243553.92, -57776.684, 0.04905746, -0.24545605, -236422.69, -105422.87, 0.0, 9.995437, 10.001532 
2.2648494e+3, 2.966318e+2, -755504.56, -200719.63, -47362.03, 0.070905484, -0.27530116, -196705.36, -163716.47, 0.0, 9.994341, 10.001681 
2.2648093e+3, 3.066356e+2, -784072.1, -75236.27, 47623.043, -0.09453732, -0.11323379, -72051.04, -72051.04, 0.0, 9.993321, 10.002698 
2.2647734e+3, 3.166369e+2, -847710.3, -26573.654, -118090.98, 0.13036296, -0.22295025, -9927.949, -9927.949, 0.0, 9.992545, 10.003405 
2.2754036e+3, 1.566842e+2, -659153.3, -1648986.0, -147822.58, 0.09301971, -0.17742445, -637548.9, 766917.06, 0.38030028, 10.011863, 9.992798 
2.2753593e+3, 1.6667603e+2, -659797.3, -1208012.6, 93464.8, -0.30983654, -0.539121, -644300.6, 662252.25, 0.20256078, 10.006794, 9.997687 
2.2753271e+3, 1.7667761e+2, -458053.4, -1117256.6, 104369.734, 0.08847438, -0.14312737, -441923.53, 766613.2, 0.08413294, 10.006973, 9.997439 
2.2752896e+3, 1.8667541e+2, -457116.7, -1112211.3, 2091.3347, 0.12782513, -0.07466546, -457110.0, 653449.5, 0.024613377, 10.006076, 9.997174 
2.2752488e+3, 1.966715e+2, -554056.94, -1104510.8, -32334.95, -0.022960795, -0.18067195, -552164.0, 460436.38, 0.0040858528, 10.004589, 9.997271 
2.2752093e+3, 2.0666903e+2, -528652.2, -884620.06, -62535.2, -0.017592896, -0.21876913, -517985.84, 396638.6, 0.00014869681, 10.003402, 9.998677 
2.2751702e+3, 2.1666759e+2, -577812.8, -854556.56, -61740.43, 0.069678925, -0.22700332, -564663.56, 251973.97, 0.0, 10.002377, 9.998705 
2.2751299e+3, 2.2666687e+2, -587566.0, -690001.3, -84021.82, 0.069538385, -0.2161915, -540381.9, 178262.45, 0.0, 10.001129, 9.999762 
2.2750889e+3, 2.3666675e+2, -688410.1, -688549.4, -88616.58, 0.025614932, -0.20043164, -599863.1, 20782.523, 0.0, 9.999764, 9.999757 
2.2750483e+3, 2.4666676e+2, -649895.6, -520172.47, -86791.23, 0.052140392, -0.21017136, -476683.97, 45960.93, 0.0, 9.998931, 10.000641 
2.2750081e+3, 2.5666708e+2, -640878.7, -479859.13, -64551.703, 0.10760676, -0.23684084, -457176.13, -32535.098, 0.0, 9.998383, 10.000509 
2.2749668e+3, 2.6666775e+2, -639767.44, -390552.9, -61640.082, 0.05747665, -0.22454242, -376140.5, -49505.652, 0.0, 9.997556, 10.000847 
2.2749253e+3, 2.766688e+2, -693482.56, -373531.75, -75453.555, -0.030028643, -0.19928113, -356630.44, -128004.8, 0.0, 9.996547, 10.000778 
2.2748843e+3, 2.8666988e+2, -709074.4, -254403.6, -101540.89, 0.0033519834, -0.19082156, -232757.2, -102141.164, 0.0, 9.99544, 10.001456 
2.2748435e+3, 2.966714e+2, -761865.56, -210508.25, -87225.76, 0.03938749, -0.18320271, -197038.06, -164435.64, 0.0, 9.994324, 10.001624 
2.2748035e+3, 3.0667388e+2, -767827.8, -35641.168, 5880.463, 0.006502871, -0.16260152, -35593.94, -35593.94, 0.0, 9.993294, 10.002985 
2.2747657e+3, 3.166764e+2, -797088.1, 56629.97, -119496.39, 0.09883658, -0.19187742, 73040.63, 73040.63, 0.0, 9.992617, 10.003954 
2.2854148e+3, 1.567264e+2, -788725.44, -1767308.6, -175429.23, 0.08188044, -0.15274929, -758227.0, 645825.25, 0.42586797, 10.01124, 9.992311 
2.2853692e+3, 1.667169e+2, -288097.8, -1096777.3, 175581.6, -0.21195199, -0.5756613, -251620.67, 1054530.6, 0.22743523, 10.0107, 9.996821 
2.2853342e+3, 1.7671782e+2, -378371.28, -1149365.4, 112001.36, 0.05120142, -0.16045658, -362430.56, 845711.0, 0.09477294, 10.007998, 9.996708 
2.2852951e+3, 1.8671535e+2, -472873.6, -1135455.5, 4184.934, 0.08895622, -0.080482155, -472847.16, 637320.2, 0.027838564, 10.006054, 9.997024 
2.2852537e+3, 1.9671133e+2, -568928.2, -1124370.4, 17289.297, 0.005022627, -0.1788626, -568390.56, 443818.88, 0.0046488317, 10.004547, 9.997153 
2.2852126e+3, 2.0670882e+2, -526620.25, -880394.1, 16395.121, 0.0072358116, -0.21974422, -525862.06, 388371.97, 0.00017373536, 10.003403, 9.998705 
2.2851723e+3, 2.167073e+2, -567423.44, -847724.56, 5774.138, 0.05672413, -0.23566663, -567304.56, 248942.84, 0.0, 10.002441, 9.99872 
2.2851309e+3, 2.2670649e+2, -556314.06, -681176.5, -25097.234, 0.05956956, -0.23013835, -551458.4, 166796.69, 0.0, 10.001369, 9.999707 
2.2850889e+3, 2.3670627e+2, -620873.94, -657489.4, -26158.959, 0.039631154, -0.21803874, -607252.6, 13004.99, 0.0, 10.000236, 9.9997425 
2.2850473e+3, 2.4670647e+2, -600368.4, -476498.56, -26162.576, 0.05694714, -0.21862037, -471199.47, 51055.594, 0.0, 9.999186, 10.000817 
2.285006e+3, 2.567071e+2, -662395.8, -473717.06, -34207.62, 0.09013159, -0.23032227, -467706.66, -43458.785, 0.0, 9.998164, 10.000656 
2.2849639e+3, 2.6670778e+2, -703240.7, -427528.22, -36432.19, 0.044294666, -0.21989697, -422795.38, -96553.336, 0.0, 9.997148, 10.000789 
2.2849214e+3, 2.767087e+2, -755243.1, -405591.16, -34804.484, -0.026885405, -0.20120132, -402160.38, -173925.6, 0.0, 9.996133, 10.000757 
2.2848798e+3, 2.8671002e+2, -711086.0, -243308.72, -42355.15, 0.010041632, -0.17471988, -239504.6, -109282.09, 0.0, 9.995376, 10.001563 
2.284838e+3, 2.9671174e+2, -709442.56, -184323.33, -20206.74, 0.05011067, -0.15346663, -183546.92, -151341.22, 0.0, 9.994682, 10.00163 
2.2847968e+3, 3.0671316e+2, -762481.9, -41516.664, 44674.26, 0.010287522, -0.2315168, -38758.992, -38758.992, 0.0, 9.993373, 10.002904 
2.2847573e+3, 3.1671622e+2, -906159.2, 1487.3813, -55824.297, 0.04903658, -0.21334298, 4907.933, 4907.933, 0.0, 9.991885, 10.003923 
2.2954248e+3, 1.5677057e+2, -758375.56, -1478413.0, -95208.52, -0.03557604, -0.10169366, -745999.1, 657624.2, 0.46523127, 10.011159, 9.9943 
2.295383e+3, 1.6676134e+2, -427076.2, -1348508.8, 94934.47, 0.11429541, -0.45749873, -417396.84, 888318.0, 0.24780284, 10.0107, 9.994692 
2.2953413e+3, 1.767582e+2, -493133.2, -1387398.6, 30092.096, -0.032124486, -0.23859888, -492121.72, 715624.44, 0.102977216, 10.007978, 9.995044 
2.2953e+3, 1.8675503e+2, -446132.2, -1073552.9, -48025.02, -0.024656309, -0.18507929, -442477.47, 667300.6, 0.030127583, 10.006042, 9.997463 
2.2952585e+3, 1.9675209e+2, -542729.6, -1071338.1, -31568.482, 0.05715647, -0.22148389, -540851.0, 470957.06, 0.004992761, 10.004553, 9.997516 
2.2952166e+3, 2.0675e+2, -532074.3, -893373.0, -17583.086, 0.045831576, -0.22933672, -531220.6, 382607.72, 0.00018395417, 10.003408, 9.998614 
2.295174e+3, 2.1674857e+2, -574653.44, -860408.1, -28607.738, -0.010253199, -0.22801746, -571817.56, 244024.03, 0.0, 10.002429, 9.998641 
2.2951318e+3, 2.2674757e+2, -561088.3, -689312.2, -66662.95, 0.032175854, -0.23527163, -532710.8, 185140.48, 0.0, 10.00136, 9.999657 
2.2950898e+3, 2.3674703e+2, -626004.94, -668609.8, -66917.43, 0.123162545, -0.25057328, -577081.06, 42775.938, 0.0, 10.000235, 9.999668 
2.2950469e+3, 2.4674736e+2, -614418.1, -506462.22, -65486.5, 0.09296835, -0.22262464, -475574.97, 46278.938, 0.0, 9.999187, 10.000611 
2.2950032e+3, 2.5674832e+2, -670156.8, -492269.28, -72988.37, -0.0021347497, -0.1804008, -466155.25, -42310.617, 0.0, 9.998173, 10.000526 
2.2949605e+3, 2.6674885e+2, -691091.2, -403513.56, -76014.625, -0.019329365, -0.19131206, -384657.25, -58816.805, 0.0, 9.997151, 10.000954 
2.294918e+3, 2.767494e+2, -741443.3, -379169.44, -69932.08, 0.0137162125, -0.22606893, -366138.7, -138302.56, 0.0, 9.99614, 10.0009365 
2.2948757e+3, 2.8675097e+2, -691943.5, -203683.8, -69046.58, 0.06961847, -0.19513303, -194107.48, -64288.19, 0.0, 9.995374, 10.001837 
2.294833e+3, 2.9675305e+2, -706638.6, -179214.02, -53504.035, 0.096813284, -0.1658282, -173841.08, -142044.17, 0.0, 9.994682, 10.001666 
2.2947891e+3, 3.0675292e+2, -795424.6, -114278.28, -14027.188, -0.09825504, -0.36617795, -113989.53, -113989.53, 0.0, 9.993386, 10.002399 
2.2947495e+3, 3.167574e+2, -950137.75, -82983.63, -65338.41, 0.07781816, -0.15762264, -78088.14, -78088.14, 0.0, 9.991868, 10.0033455 
2.3054352e+3, 1.5681313e+2, -843022.9, -1372255.9, 38462.734, -0.0148729915, -0.17140682, -840242.2, 562965.8, 0.4901505, 10.00965, 9.99588 
2.3053935e+3, 1.6680606e+2, -345453.3, -1370283.8, 10226.745, 0.055726178, -0.33059725, -345351.28, 959923.6, 0.25985783, 10.011963, 9.993914 
2.3053496e+3, 1.768007e+2, -512314.06, -1463598.4, 23606.908, -0.01087861, -0.25707206, -511728.6, 695600.9, 0.10736417, 10.008152, 9.994435 
2.3053063e+3, 1.8679693e+2, -397638.44, -1047116.25, 25114.516, 0.00073657243, -0.23918703, -396668.75, 712698.2, 0.03113447, 10.00638, 9.997486 
2.3052634e+3, 1.9679423e+2, -389918.44, -995184.06, 10806.98, 0.050363388, -0.25375733, -389725.53, 621668.0, 0.0050756354, 10.005602, 9.997532 
2.3052199e+3, 2.0679227e+2, -438631.5, -857440.3, 6670.5728, 0.040191334, -0.24407443, -438525.28, 474887.44, 0.00017910982, 10.00409, 9.998532 
2.3051766e+3, 2.1679091e+2, -608597.6, -881557.8, -667.6007, 0.0023068946, -0.2277678, -608596.0, 206830.25, 0.0, 10.002218, 9.998595 
2.305133e+3, 2.2678994e+2, -593429.4, -695350.5, -14466.758, 0.031739738, -0.23362792, -591415.75, 126019.9, 0.0, 10.001098, 9.999741 
2.3050898e+3, 2.3678942e+2, -606756.6, -655018.3, -6649.7695, 0.097721204, -0.25376126, -605857.2, 13583.589, 0.0, 10.000349, 9.999706 
2.3050457e+3, 2.4678959e+2, -620291.4, -529086.7, -6343.266, 0.07678018, -0.23034279, -528647.6, -7208.3726, 0.0, 9.999231, 10.000436 
2.3050012e+3, 2.5679037e+2, -715451.9, -527341.3, -11284.976, 0.0074593597, -0.19088517, -526666.75, -103234.22, 0.0, 9.997918, 10.000408 
2.3049575e+3, 2.667909e+2, -703955.8, -392038.84, -4890.6484, 0.002306488, -0.20184305, -391962.2, -66534.56, 0.0, 9.996986, 10.001112 
2.3049143e+3, 2.7679157e+2, -719636.7, -355790.84, 598.19867, 0.046874136, -0.23779586, -355789.88, -128368.66, 0.0, 9.996235, 10.001051 
2.3048711e+3, 2.86793e+2, -699298.6, -220848.77, -15710.076, 0.08078395, -0.22092046, -220333.47, -90927.55, 0.0, 9.995382, 10.001715 
2.3048271e+3, 2.9679483e+2, -749716.9, -208636.61, -36374.88, 0.06266336, -0.20481253, -206202.2, -174816.02, 0.0, 9.994423, 10.001591 
2.3047824e+3, 3.0679503e+2, -831106.75, -135919.78, 9775.522, -0.08686085, -0.3638082, -135782.34, -135782.34, 0.0, 9.993151, 10.00237 
2.3047422e+3, 3.1679907e+2, -978327.2, -137862.19, 19159.533, 0.15606345, -0.19575411, -137425.66, -137425.66, 0.0, 9.991861, 10.002968 
2.315446e+3, 1.5685439e+2, -794638.2, -1279084.8, 252885.02, 0.08929664, -0.33796683, -686685.8, 716117.9, 0.49445257, 10.009792, 9.99708 
2.3154016e+3, 1.6685104e+2, -343949.44, -1326767.6, -99835.23, -0.34308836, -0.19509779, -333910.66, 970921.2, 0.26091012, 10.011798, 9.994314 
2.3153587e+3, 1.7684501e+2, -496475.75, -1424187.4, -86807.09, 0.09979274, -0.22705996, -488423.0, 718471.56, 0.106989205, 10.008137, 9.994718 
2.315314e+3, 1.8684076e+2, -420948.56, -1097714.5, -1530.4148, 0.14259966, -0.25117892, -420945.1, 687991.94, 0.030649755, 10.006385, 9.997127 
2.3152684e+3, 1.9683759e+2, -416604.06, -1042850.0, -22232.959, -0.017847475, -0.2756812, -415815.75, 595151.56, 0.004886849, 10.005565, 9.997224 
2.3152237e+3, 2.0683551e+2, -447591.22, -869380.6, -62255.11, -0.008902942, -0.26202533, -438594.4, 474393.8, 0.00016147105, 10.004061, 9.998465 
2.3151794e+3, 2.1683419e+2, -611414.4, -884309.94, -60152.176, 0.084195815, -0.2356566, -598743.8, 216258.5, 0.0, 10.002203, 9.998586 
2.3151343e+3, 2.2683349e+2, -580162.06, -666992.1, -40375.71, 0.051622286, -0.22591756, -564289.1, 152719.88, 0.0, 10.001092, 9.999939 
2.3150887e+3, 2.3683332e+2, -597530.06, -635355.9, -37291.2, -0.039780404, -0.23007682, -574629.94, 44380.19, 0.0, 10.000344, 9.9998455 
2.3150443e+3, 2.468331e+2, -631042.7, -552200.25, -56911.156, 0.00796843, -0.24377684, -522390.63, -1378.4148, 0.0, 9.999233, 10.0002775 
2.3150003e+3, 2.568331e+2, -721814.5, -543389.94, -57288.93, 0.11530955, -0.26354092, -526579.3, -103566.92, 0.0, 9.997928, 10.000295 
2.3149556e+3, 2.6683393e+2, -692712.94, -369802.6, -34465.613, 0.10602311, -0.24965498, -366164.9, -41161.004, 0.0, 9.996988, 10.001266 
2.3149106e+3, 2.7683532e+2, -715433.5, -348717.28, -27847.686, 0.05987008, -0.23059963, -346614.63, -119624.945, 0.0, 9.996239, 10.001099 
2.314866e+3, 2.8683603e+2, -735651.56, -297510.97, -51099.688, 0.03746652, -0.2573496, -291630.22, -162647.17, 0.0, 9.995386, 10.001188 
2.3148203e+3, 2.9683682e+2, -759387.7, -233051.69, -75399.98, -0.04617744, -0.29198802, -222463.31, -191487.34, 0.0, 9.994438, 10.001417 
2.3147766e+3, 3.0684015e+2, -793612.8, -58368.258, -43238.406, 0.030953823, -0.17543936, -55834.22, -55834.22, 0.0, 9.993147, 10.002907 
2.3147337e+3, 3.1684145e+2, -958758.06, -97676.36, 1626.0015, 0.12870488, -0.30942386, -97673.29, -97673.29, 0.0, 9.991865, 10.003241 
2.3254582e+3, 1.5689774e+2, -529913.0, -1145054.3, 287628.2, 0.16601934, -0.33573645, -416378.3, 986001.4, 0.47589064, 10.012886, 9.997278 
2.3254108e+3, 1.6689543e+2, -568145.8, -1409319.5, -156746.61, -0.43017516, -0.13355826, -539886.6, 764509.94, 0.24997492, 10.009301, 9.994978 
2.3253672e+3, 1.7688926e+2, -378480.1, -1299164.0, -129864.66, 0.11602511, -0.2464239, -360513.0, 845948.25, 0.10159764, 10.008732, 9.995294 
2.3253208e+3, 1.8688527e+2, -328516.38, -1041824.8, -7125.1855, 0.16954823, -0.2724242, -328445.22, 780055.8, 0.028685905, 10.006979, 9.997232 
2.3252732e+3, 1.9688253e+2, -538831.9, -1087994.9, 4895.1, -0.026099991, -0.26207265, -538788.25, 471738.5, 0.0044565666, 10.004661, 9.997347 
2.3252271e+3, 2.068806e+2, -544798.2, -898539.75, -5415.2754, -0.028400626, -0.24864121, -544715.25, 367830.8, 0.00013530007, 10.003317, 9.998622 
2.3251814e+3, 2.1687926e+2, -569687.8, -851450.06, 12164.196, 0.067563355, -0.23765886, -569163.6, 245396.42, 0.0, 10.002436, 9.998698 
2.3251353e+3, 2.268785e+2, -578200.5, -681192.56, 30759.854, 0.052751187, -0.2303748, -569713.1, 146854.47, 0.0, 10.001171, 9.999804 
2.3250888e+3, 2.3687822e+2, -693452.6, -690749.5, 12649.645, -0.014224816, -0.23041113, -679379.44, -60809.406, 0.0, 9.999726, 9.999762 
2.3250432e+3, 2.4687794e+2, -652737.06, -550827.1, 8614.496, 0.016363442, -0.25177947, -550104.06, -29531.877, 0.0, 9.999034, 10.000381 
2.3249981e+3, 2.5687793e+2, -607910.94, -482316.84, 24517.953, 0.0915309, -0.28421706, -477700.25, -55128.277, 0.0, 9.998685, 10.000348 
2.3249523e+3, 2.6687872e+2, -615200.5, -349401.7, 30422.086, 0.085088074, -0.2640431, -345964.2, -21400.496, 0.0, 9.997595, 10.001113 
2.3249067e+3, 2.7688006e+2, -743200.9, -375510.84, 12953.913, 0.058508206, -0.23296797, -375055.03, -148504.77, 0.0, 9.996107, 10.000978 
2.3248611e+3, 2.8688067e+2, -802839.8, -326002.94, 14961.73, 0.05314313, -0.26532298, -325533.94, -196988.89, 0.0, 9.994909, 10.001222 
2.3248146e+3, 2.9688153e+2, -834093.0, -263112.22, 28994.2, -0.012547491, -0.29487547, -261643.69, -231105.97, 0.0, 9.993906, 10.001465 
2.3247695e+3, 3.0688527e+2, -814502.06, -85946.02, 24707.996, 0.035741758, -0.13309215, -85109.05, -85109.05, 0.0, 9.993081, 10.0027485 
2.3247243e+3, 3.168855e+2, -899120.4, -25056.354, 11333.568, 0.030993871, -0.35769525, -24909.422, -24909.422, 0.0, 9.992092, 10.003628 
2.3354714e+3, 1.5694274e+2, -493936.6, -1181459.4, 135711.11, 0.20983024, -0.20321944, -468117.94, 933822.25, 0.43729946, 10.012859, 9.996611 
2.3354219e+3, 1.6693932e+2, -506987.28, -1288260.9, -167644.61, -0.2665688, -0.13634269, -472533.72, 831433.94, 0.22845036, 10.009229, 9.995855 
2.335375e+3, 1.7693342e+2, -329739.63, -1188380.4, -153086.64, 0.03957756, -0.30727634, -303262.34, 902766.75, 0.09190713, 10.008641, 9.996104 
2.335327e+3, 1.8693042e+2, -299273.34, -972478.7, -89183.55, 0.09104431, -0.29988122, -287659.03, 820400.44, 0.025538148, 10.006918, 9.99775 
2.3352781e+3, 1.969289e+2, -507344.0, -1018450.9, -67182.555, 0.014879311, -0.21866694, -498660.7, 511412.84, 0.0038570573, 10.00464, 9.997837 
2.3352303e+3, 2.0692734e+2, -520783.4, -847657.7, -35964.95, -0.026092906, -0.20885655, -516873.1, 395215.2, 0.000106064545, 10.00331, 9.998977 
2.3351826e+3, 2.1692596e+2, -558224.5, -823918.44, -21845.309, -0.047118247, -0.23561141, -556440.4, 257660.75, 0.0, 10.002417, 9.9988985 
2.3351362e+3, 2.2692484e+2, -610839.6, -748032.5, -23504.166, 0.035273056, -0.24588376, -606924.56, 109188.06, 0.0, 10.001164, 9.999349 
2.3350903e+3, 2.3692404e+2, -713276.2, -733688.75, -33218.41, 0.16369961, -0.25343484, -688731.5, -70610.19, 0.0, 9.999731, 9.999465 
2.335043e+3, 2.4692409e+2, -626346.25, -497806.1, -4615.9985, 0.09426186, -0.25302655, -497640.53, 22479.393, 0.0, 9.99904, 10.000744 
2.3349951e+3, 2.5692475e+2, -591826.0, -451483.25, 4249.0513, -0.07163778, -0.2524929, -451354.72, -29242.96, 0.0, 9.998693, 10.000558 
2.3349485e+3, 2.6692522e+2, -648172.9, -419132.56, -26859.492, -0.0633015, -0.24678311, -416024.94, -91917.23, 0.0, 9.997598, 10.000633 
2.3349026e+3, 2.7692574e+2, -761773.9, -417988.2, -41355.484, 0.039819676, -0.25024804, -413083.34, -186979.2, 0.0, 9.996121, 10.000682 
2.3348567e+3, 2.86927e+2, -760260.56, -238832.03, -25003.268, 0.125173, -0.23984128, -237635.83, -109544.11, 0.0, 9.994912, 10.00182 
2.3348103e+3, 2.9692918e+2, -817584.75, -228095.89, -3394.1924, 0.15512268, -0.19532838, -228076.34, -198006.77, 0.0, 9.993899, 10.00171 
2.3347615e+3, 3.0692998e+2, -878442.7, -218188.39, -8776.103, -0.068004556, -0.28086287, -218071.75, -218071.75, 0.0, 9.993078, 10.0018425 
2.334717e+3, 3.1693146e+2, -908868.3, -58845.33, -69089.23, 0.09540959, -0.2981924, -53266.42, -53266.42, 0.0, 9.992133, 10.003385 
2.3454836e+3, 1.5698823e+2, -335107.53, -1149488.0, 13202.627, 0.113369614, -0.20999001, -334893.53, 1066601.0, 0.3861749, 10.013893, 9.996243 
2.3454314e+3, 1.6698469e+2, -478385.13, -1192250.3, -95761.8, -0.18351853, -0.20285991, -465762.3, 837762.44, 0.20013522, 10.008734, 9.996871 
2.3453826e+3, 1.7698067e+2, -501098.78, -1186093.0, -61178.46, 0.032871388, -0.28563628, -495677.7, 709888.8, 0.07950735, 10.006856, 9.996969 
2.3453328e+3, 1.8697827e+2, -461448.66, -1021687.6, -8809.917, 0.067019336, -0.26516774, -461310.16, 646280.3, 0.021690033, 10.005626, 9.998021 
2.3452827e+3, 1.9697681e+2, -488079.3, -983840.75, -163.78105, 0.015084927, -0.20522903, -488079.25, 521525.16, 0.0031736633, 10.004663, 9.998061 
2.3452334e+3, 2.0697516e+2, -516536.1, -849584.75, 21688.285, -0.022842122, -0.2088634, -515129.7, 396490.2, 0.00007783831, 10.003359, 9.998939 
2.3451845e+3, 2.1697365e+2, -634086.56, -863377.8, 10133.802, -0.05070198, -0.2444192, -633639.56, 179994.17, 0.0, 10.001911, 9.998869 
2.3451371e+3, 2.2697246e+2, -625398.4, -759431.25, 27030.074, 0.036174104, -0.25671616, -620152.56, 95493.15, 0.0, 10.001085, 9.999308 
2.3450904e+3, 2.3697162e+2, -599582.56, -682708.7, 46760.72, 0.17776734, -0.26258034, -578583.25, 39071.54, 0.0, 10.00053, 9.99943 
2.3450422e+3, 2.4697171e+2, -595275.2, -488381.22, 66284.36, 0.10160105, -0.2522975, -456680.13, 62973.203, 0.0, 9.999279, 10.000692 
2.3449932e+3, 2.5697243e+2, -740099.75, -526961.75, 43804.027, -0.078156725, -0.23737858, -518310.38, -96665.59, 0.0, 9.997696, 10.000519 
2.3449455e+3, 2.669728e+2, -763505.56, -480530.94, 24246.643, -0.07192426, -0.23764545, -478468.4, -154826.56, 0.0, 9.996834, 10.000579 
2.3448984e+3, 2.7697313e+2, -739525.25, -408400.2, 39256.227, 0.033017874, -0.25453362, -403809.84, -178169.78, 0.0, 9.996283, 10.000668 
2.3448518e+3, 2.8697446e+2, -677623.94, -188700.88, 41928.695, 0.12787497, -0.24185044, -185131.25, -57504.465, 0.0, 9.995438, 10.001909 
2.3448047e+3, 2.9697672e+2, -748799.3, -201953.03, 25878.627, 0.19447884, -0.19676538, -200731.11, -171127.45, 0.0, 9.994403, 10.001646 
2.3447543e+3, 3.069772e+2, -875674.44, -228834.61, 41925.93, -0.08306584, -0.29325476, -226128.44, -226128.44, 0.0, 9.993151, 10.001734 
2.34471e+3, 3.169802e+2, -993658.2, -54228.094, 1971.9912, 0.21509063, -0.16576472, -54223.953, -54223.953, 0.0, 9.991365, 10.003781 
2.3554954e+3, 1.5703419e+2, -282762.0, -1158082.1, -225280.72, -0.10766924, -0.33492747, -228184.58, 1172859.0, 0.33143345, 10.013518, 9.996107 
2.3554403e+3, 1.6703138e+2, -390103.47, -1056527.0, -152413.48, -0.1763346, -0.3200274, -356900.25, 946169.25, 0.16967031, 10.008664, 9.9979925 
2.3553899e+3, 1.7703053e+2, -433770.16, -1065561.5, -115326.19, 0.081709966, -0.19455288, -413376.97, 791700.7, 0.06623081, 10.006847, 9.997859 
2.3553386e+3, 1.8702847e+2, -456629.56, -1015811.44, -41594.754, 0.086056456, -0.17869362, -453552.47, 653545.25, 0.017625827, 10.005619, 9.998065 
2.355287e+3, 1.9702603e+2, -494801.9, -991926.1, -36462.086, -0.02755009, -0.21911438, -492141.78, 516979.56, 0.002473187, 10.004632, 9.998022 
2.3552369e+3, 2.0702392e+2, -546199.8, -908404.44, -31505.664, -0.019547153, -0.24295944, -543479.75, 367662.1, 0.000052228803, 10.003345, 9.998543 
2.3551872e+3, 2.170222e+2, -652524.3, -900190.0, -34223.11, 0.04381534, -0.26255307, -647882.3, 165276.44, 0.0, 10.001902, 9.998622 
2.3551382e+3, 2.2702125e+2, -601194.94, -709227.1, 8822.409, 0.0484094, -0.26311424, -600479.2, 114688.72, 0.0, 10.001083, 9.999655 
2.3550893e+3, 2.3702084e+2, -586761.3, -656179.94, 19733.688, 0.026544217, -0.26016763, -581543.75, 35627.895, 0.0, 10.000528, 9.999615 
2.3550408e+3, 2.470207e+2, -628096.2, -557631.56, 4787.3276, 0.0397328, -0.24974719, -557307.8, -38134.48, 0.0, 9.999281, 10.000217 
2.3549922e+3, 2.5702092e+2, -759081.7, -569642.1, -9066.572, 0.06564023, -0.23897794, -569209.2, -148037.33, 0.0, 9.997706, 10.000222 
2.3549433e+3, 2.6702145e+2, -736337.94, -425117.9, 2404.0142, 0.056573544, -0.23639345, -425099.34, -101932.71, 0.0, 9.996837, 10.000959 
2.3548947e+3, 2.770222e+2, -720317.8, -370599.25, 16170.548, 0.034204982, -0.2447578, -369853.13, -144695.02, 0.0, 9.996289, 10.000925 
2.3548461e+3, 2.8702298e+2, -706600.3, -251708.53, 3490.3599, 0.05306698, -0.27509347, -251681.75, -124530.96, 0.0, 9.995448, 10.001473 
2.3547979e+3, 2.9702398e+2, -770566.94, -256596.89, -14460.856, 0.08162292, -0.30987975, -256190.34, -227049.05, 0.0, 9.99444, 10.001255 
2.3547482e+3, 3.0702725e+2, -824711.94, -127278.04, -11668.904, 0.008172004, -0.1472409, -127082.85, -127082.85, 0.0, 9.993166, 10.002425 
2.3547003e+3, 3.170297e+2, -921367.5, 108438.79, -93826.95, 0.1224219, -0.16792987, 116917.67, 116917.67, 0.0, 9.991316, 10.00492 
2.3655723e+3, 1.4709157e+2, -927708.2, -1501518.5, -209575.3, 0.21455555, -0.09955742, -859315.75, 639164.44, 0.4522377, 10.009287, 9.995978 
2.3655058e+3, 1.5708582e+2, -738393.4, -1408624.8, -200136.69, -0.104858674, -0.2639126, -683179.44, 717359.75, 0.27996728, 10.00831, 9.996205 
2.3654489e+3, 1.6708277e+2, -475347.5, -1107970.9, -18496.45, -0.10468036, -0.2691215, -474807.2, 827761.0, 0.14068957, 10.007748, 9.9979515 
2.3653962e+3, 1.7708135e+2, -372785.88, -1043842.94, -39282.363, 0.04192165, -0.19660982, -370494.2, 834086.06, 0.053505808, 10.007238, 9.997811 
2.3653437e+3, 1.8707913e+2, -437652.53, -1015522.06, 1552.3853, 0.043311298, -0.18719469, -437648.34, 668952.94, 0.01371008, 10.005773, 9.997989 
2.365291e+3, 1.9707674e+2, -601797.2, -1052268.8, 1903.3082, -0.021734664, -0.21446122, -601789.2, 406835.56, 0.0018023103, 10.003933, 9.997943 
2.36524e+3, 2.0707448e+2, -615176.8, -953599.7, 30068.045, 0.011935067, -0.24371117, -612526.1, 298120.63, 0.000030234289, 10.002925, 9.998433 
2.3651896e+3, 2.170725e+2, -601730.0, -883754.56, 46401.484, 0.091410555, -0.2762253, -594291.75, 218374.16, 0.0, 10.002288, 9.998548 
2.3651394e+3, 2.2707158e+2, -584277.94, -697097.8, 84571.02, 0.059694894, -0.26901618, -539029.9, 175644.66, 0.0, 10.001186, 9.999687 
2.3650889e+3, 2.3707137e+2, -681411.1, -700745.4, 72940.55, -0.019545654, -0.2483688, -617499.9, -823.39087, 0.0, 9.999878, 9.9996195 
2.3650396e+3, 2.470712e+2, -675021.8, -597452.0, 62755.535, 0.018723734, -0.2316907, -562463.44, -43784.313, 0.0, 9.999037, 10.000061 
2.3649904e+3, 2.570713e+2, -667802.9, -537106.1, 73668.38, 0.10915673, -0.22015159, -503978.9, -83298.99, 0.0, 9.998386, 10.000116 
2.364941e+3, 2.6707175e+2, -635598.06, -366921.88, 87061.875, 0.09177301, -0.22061832, -341177.2, -18502.496, 0.0, 9.99749, 10.001041 
2.3648912e+3, 2.7707255e+2, -693179.75, -352475.06, 74748.66, 0.035910755, -0.23374788, -336797.06, -112132.016, 0.0, 9.996459, 10.000965 
2.3648416e+3, 2.8707302e+2, -730064.5, -278761.56, 58009.9, 0.048836283, -0.28312075, -271424.34, -144764.03, 0.0, 9.99536, 10.0013275 
2.364792e+3, 2.9707366e+2, -811709.6, -277490.06, 57429.848, 0.06517761, -0.3411098, -271385.97, -242731.14, 0.0, 9.99417, 10.001239 
2.3647413e+3, 3.0707777e+2, -849233.94, -122860.086, 52741.12, 0.0067456774, -0.106360085, -119050.59, -119050.59, 0.0, 9.992929, 10.002569 
2.3646912e+3, 3.1707793e+2, -799902.75, 109006.72, -60475.51, 0.042306814, -0.36088583, 113012.88, 113012.88, 0.0, 9.992403, 10.004398 
2.3755793e+3, 1.4714274e+2, -859366.56, -1439073.3, -252181.11, 0.029202033, -0.326702, -765019.06, 732960.5, 0.38787675, 10.008975, 9.996603 
2.3755158e+3, 1.5714219e+2, -690623.56, -1381471.6, -230445.56, 0.072372295, -0.02776302, -620809.2, 779180.4, 0.23557533, 10.008262, 9.996421 
2.3754577e+3, 1.6713811e+2, -517437.97, -1235902.8, -34173.887, 0.0156638, -0.08317702, -515816.13, 786212.5, 0.11528177, 10.007722, 9.996929 
2.3754022e+3, 1.7713295e+2, -430259.06, -1166819.8, -65137.023, -0.08096739, -0.28111205, -424543.1, 779532.56, 0.04220473, 10.007168, 9.996952 
2.3753484e+3, 1.8713024e+2, -454893.56, -1046960.1, -65000.18, -0.055536382, -0.27558786, -447841.47, 658259.75, 0.010196781, 10.005731, 9.997789 
2.3752952e+3, 1.9712877e+2, -611838.7, -1072880.8, -53959.12, 0.022593794, -0.19152732, -605607.6, 402508.3, 0.0012059528, 10.003927, 9.997806 
2.3752435e+3, 2.071266e+2, -602915.6, -931797.3, 8866.123, 0.06489474, -0.21472006, -602676.75, 307459.53, 0.000013777543, 10.002937, 9.998579 
2.3751919e+3, 2.1712436e+2, -597809.9, -876396.94, 20548.781, 0.08878465, -0.2863375, -596302.3, 215854.47, 0.0, 10.002288, 9.9986 
2.3751406e+3, 2.2712338e+2, -602681.56, -736726.5, 35742.633, 0.06850923, -0.27241853, -593746.5, 120420.336, 0.0, 10.001189, 9.999415 
2.3750894e+3, 2.3712315e+2, -693712.4, -727354.8, 29429.066, 0.030510841, -0.22643141, -676636.3, -60466.043, 0.0, 9.999879, 9.999438 
2.3750386e+3, 2.4712312e+2, -663099.4, -574743.0, 37487.457, 0.03326612, -0.19849305, -560981.4, -42809.89, 0.0, 9.9990425, 10.000215 
2.3749883e+3, 2.571234e+2, -660979.4, -526820.1, 46320.547, 0.046689164, -0.1807122, -512381.22, -92211.66, 0.0, 9.998401, 10.000181 
2.3749375e+3, 2.6712367e+2, -650940.75, -401899.3, 46983.324, 0.02948057, -0.1903772, -393330.44, -71163.85, 0.0, 9.9975, 10.000799 
2.3748872e+3, 2.77124e+2, -704215.7, -380979.94, 35437.215, 0.022162225, -0.22580096, -377140.47, -152978.52, 0.0, 9.99648, 10.000762 
2.3748374e+3, 2.8712457e+2, -719980.25, -260551.0, 10998.046, 0.11844568, -0.26378742, -260287.88, -134132.13, 0.0, 9.99537, 10.00145 
2.3747872e+3, 2.9712582e+2, -785745.75, -224439.11, 8886.804, 0.17281622, -0.27327326, -224298.45, -196155.42, 0.0, 9.99417, 10.001604 
2.3747326e+3, 3.071284e+2, -874765.25, -173788.6, 9690.739, -0.14115717, -0.2041742, -173654.64, -173654.64, 0.0, 9.992919, 10.002226 
2.3746848e+3, 3.1712827e+2, -883379.2, -92976.03, 28641.828, 0.16810197, -0.40898815, -91939.5, -91939.5, 0.0, 9.992509, 10.002969 
2.3856445e+3, 1.3720073e+2, -1172193.6, -1510780.4, 72202.63, -0.0768156, -0.25862563, -1157439.5, 437972.25, 0.47842297, 10.006672, 9.998039 
2.3855844e+3, 1.4719701e+2, -1159108.3, -1639605.4, -219908.63, -0.14260261, -0.34208724, -1073658.9, 423788.22, 0.33681083, 10.00531, 9.996793 
2.3855242e+3, 1.5719637e+2, -700256.06, -1396492.6, -189288.11, 0.12103216, -0.070787214, -652121.5, 747336.1, 0.19957027, 10.007879, 9.996439 
2.3854658e+3, 1.671922e+2, -563635.4, -1313399.3, -18555.783, 0.08516106, -0.10360987, -563176.44, 738321.5, 0.094312444, 10.007456, 9.996465 
2.3854084e+3, 1.7718698e+2, -631183.25, -1315157.1, -16581.715, -0.082350604, -0.26004773, -630781.5, 572765.1, 0.03276317, 10.005887, 9.996538 
2.3853533e+3, 1.8718392e+2, -572781.3, -1122229.3, -4432.5996, -0.06715879, -0.2625926, -572745.56, 532830.2, 0.007256209, 10.004982, 9.997626 
2.3852994e+3, 1.9718197e+2, -559013.9, -1064406.0, 11252.652, 0.031584397, -0.20682342, -558763.44, 448831.2, 0.0007275047, 10.004366, 9.997649 
2.3852463e+3, 2.0717973e+2, -523446.6, -903033.4, 76417.02, 0.066937864, -0.22517568, -508640.13, 400975.66, 0.000004432612, 10.003529, 9.998489 
2.3851942e+3, 2.1717758e+2, -561106.7, -870941.94, 66552.664, 0.07220941, -0.27641264, -547416.06, 264219.34, 0.0, 10.002597, 9.998487 
2.3851416e+3, 2.271765e+2, -575667.3, -747386.8, 66396.555, 0.05989964, -0.25335443, -552989.5, 160657.22, 0.0, 10.001478, 9.999202 
2.3850894e+3, 2.371761e+2, -648454.94, -724255.2, 68217.21, 0.044987377, -0.2037536, -608316.56, 7335.8276, 0.0, 10.000273, 9.9992695 
2.3850378e+3, 2.4717586e+2, -632094.56, -559051.1, 85507.89, 0.04743846, -0.18885505, -502592.0, 15063.239, 0.0, 9.999257, 10.000217 
2.3849863e+3, 2.5717592e+2, -673824.25, -533252.2, 79848.516, 0.051500265, -0.1915448, -497161.94, -77507.31, 0.0, 9.998318, 10.000175 
2.3849349e+3, 2.6717612e+2, -685466.44, -422291.2, 80280.97, 0.028586637, -0.20367147, -399734.94, -78082.59, 0.0, 9.997284, 10.00076 
2.3848833e+3, 2.7717647e+2, -749201.4, -404392.25, 83014.54, 0.021003094, -0.23002534, -385447.0, -161799.14, 0.0, 9.996182, 10.000743 
2.3848328e+3, 2.871775e+2, -721822.75, -248395.28, 67787.33, 0.12730114, -0.2295973, -238880.44, -113242.99, 0.0, 9.995304, 10.001562 
2.3847815e+3, 2.9717922e+2, -733518.9, -196764.95, 58953.113, 0.19525053, -0.2016208, -190366.25, -162746.28, 0.0, 9.994522, 10.001623 
2.3847258e+3, 3.0718002e+2, -803974.06, -173544.08, 30454.445, -0.11654296, -0.28835946, -172076.33, -172076.33, 0.0, 9.993555, 10.001918 
2.3846772e+3, 3.1718332e+2, -884715.7, 13996.369, 104782.29, 0.18677808, -0.120488934, 26051.402, 26051.402, 0.0, 9.992048, 10.003921 
2.3956524e+3, 1.372568e+2, -1092368.6, -1401792.4, -107720.914, 0.056368347, -0.14681368, -1058561.1, 536300.4, 0.43195572, 10.006567, 9.9993105 
2.3955882e+3, 1.4725369e+2, -1125999.6, -1636615.1, -147528.61, -0.30773792, -0.20519705, -1086440.0, 410449.6, 0.29802722, 10.005437, 9.996643 
2.3955312e+3, 1.5724875e+2, -694417.2, -1421148.0, -143825.95, 0.0560207, -0.34614578, -666988.1, 731951.5, 0.17164087, 10.0078, 9.99627 
2.3954734e+3, 1.672454e+2, -562705.0, -1324301.9, -73157.64, 0.10730899, -0.28848964, -555741.25, 745232.06, 0.07779464, 10.007375, 9.996435 
2.3954153e+3, 1.7724314e+2, -634121.7, -1327334.3, -64436.336, 0.015451186, -0.14423342, -628183.0, 574812.94, 0.025278257, 10.005868, 9.996467 
2.3953588e+3, 1.872398e+2, -581392.0, -1143389.9, -25670.48, -0.0072411853, -0.16305286, -580221.9, 524806.3, 0.0049622655, 10.004981, 9.997483 
2.3953032e+3, 1.9723621e+2, -574128.6, -1094131.3, -11852.508, 0.0030230996, -0.2584954, -573858.6, 433203.8, 0.00038886457, 10.0043545, 9.997453 
2.3952493e+3, 2.0723373e+2, -547301.9, -950830.1, 42797.33, 0.020921085, -0.26950207, -542812.9, 366273.34, 0.00000085980406, 10.003518, 9.998168 
2.3951961e+3, 2.17232e+2, -584515.5, -914937.9, 32255.627, 0.0388799, -0.24706902, -581396.2, 229706.88, 0.0, 10.002574, 9.9981985 
2.3951428e+3, 2.2723083e+2, -587716.5, -771421.5, 22179.201, 0.032211166, -0.21341354, -585076.7, 128038.67, 0.0, 10.0014715, 9.999042 
2.3950891e+3, 2.372301e+2, -659264.25, -748681.2, 25861.457, 0.01803956, -0.17993341, -652323.3, -37199.65, 0.0, 10.000278, 9.999101 
2.3950371e+3, 2.4722932e+2, -642006.94, -582644.9, 49034.8, 0.058805227, -0.20188716, -555007.7, -37876.668, 0.0, 9.999266, 10.000053 
2.3949854e+3, 2.5722876e+2, -678365.3, -546225.4, 42716.824, 0.11685869, -0.25377712, -533619.0, -114482.984, 0.0, 9.998329, 10.000083 
2.3949327e+3, 2.6722902e+2, -673276.5, -398545.25, 36825.53, 0.087760516, -0.26083964, -393694.72, -72562.04, 0.0, 9.997289, 10.000922 
2.3948796e+3, 2.7723005e+2, -734286.56, -377306.9, 43393.426, 0.0323646, -0.24104884, -372107.84, -148985.27, 0.0, 9.996196, 10.000924 
2.3948275e+3, 2.8723177e+2, -714326.9, -235694.14, 38121.996, 0.06586724, -0.18115002, -232676.83, -107571.195, 0.0, 9.995313, 10.001648 
2.3947749e+3, 2.972336e+2, -757382.3, -252186.72, 30515.584, 0.101033054, -0.1484261, -250350.16, -223262.11, 0.0, 9.994544, 10.001233 
2.3947217e+3, 3.0723292e+2, -829434.44, -231969.11, -17009.146, 0.12638511, -0.3262212, -231485.27, -231485.27, 0.0, 9.993575, 10.001509 
2.3946674e+3, 3.1723675e+2, -852847.7, 75387.14, -23252.504, 0.033701845, -0.10829234, 75969.25, 75969.25, 0.0, 9.992063, 10.004338 
2.405659e+3, 1.3731234e+2, -1113097.3, -1447786.3, -140871.56, 0.11099309, -0.16551404, -1061697.8, 532619.4, 0.39859402, 10.006227, 9.998821 
2.405595e+3, 1.4730956e+2, -950563.4, -1517082.5, -101912.25, -0.22006907, -0.17420942, -932787.94, 563554.5, 0.269361, 10.006867, 9.996736 
2.4055377e+3, 1.5730427e+2, -822291.6, -1487878.8, -102612.43, 0.00031683967, -0.35742328, -806831.2, 591562.75, 0.15055212, 10.006565, 9.996386 
2.4054796e+3, 1.6730091e+2, -697598.7, -1386424.4, -60354.59, 0.059941422, -0.31494832, -692350.44, 608077.2, 0.065180585, 10.006257, 9.996544 
2.4054211e+3, 1.7729872e+2, -627018.9, -1321847.8, -41160.355, 0.041322757, -0.17162795, -624589.1, 577860.5, 0.019584533, 10.00588, 9.996496 
2.405364e+3, 1.8729533e+2, -576030.1, -1164923.0, 3029.9558, 0.017735561, -0.18148293, -576014.56, 528468.2, 0.0032869373, 10.005118, 9.997268 
2.4053074e+3, 1.9729166e+2, -610224.3, -1133359.8, 8938.506, -0.004337602, -0.26270506, -610071.6, 396446.63, 0.00018011851, 10.004204, 9.997254 
2.4052525e+3, 2.0728917e+2, -610029.06, -995121.94, 64760.78, 0.010641115, -0.26004478, -599430.0, 309112.75, 0.000000053009718, 10.003152, 9.998038 
2.4051982e+3, 2.1728742e+2, -667502.8, -966470.7, 66953.34, 0.04133203, -0.22607063, -653193.56, 157366.56, 0.0, 10.002057, 9.998092 
2.4051438e+3, 2.2728594e+2, -615887.6, -786693.75, 72709.19, 0.028502205, -0.21518183, -589128.7, 123446.04, 0.0, 10.001289, 9.9990225 
2.4050893e+3, 2.3728482e+2, -610156.5, -732130.56, 85326.41, 0.002970007, -0.21637855, -566262.6, 48323.188, 0.0, 10.00065, 9.999033 
2.4050364e+3, 2.4728392e+2, -605578.94, -590101.44, 105103.76, 0.055009563, -0.23268075, -492451.94, 24142.607, 0.0, 9.999626, 9.999827 
2.4049836e+3, 2.5728333e+2, -677486.7, -565556.25, 93750.43, 0.13545834, -0.26436943, -512336.97, -93736.445, 0.0, 9.998423, 9.999904 
2.40493e+3, 2.6728356e+2, -652321.75, -386925.8, 80141.41, 0.10624902, -0.2673083, -364603.16, -44005.45, 0.0, 9.99743, 10.000933 
2.4048759e+3, 2.772846e+2, -690375.9, -356351.3, 72990.15, 0.044504825, -0.24458666, -341098.22, -118510.95, 0.0, 9.996505, 10.0009165 
2.4048226e+3, 2.8728625e+2, -707037.06, -243019.7, 54038.91, 0.06740771, -0.18550839, -236809.52, -112237.875, 0.0, 9.995415, 10.001546 
2.404769e+3, 2.9728776e+2, -805239.0, -287567.56, 38853.453, 0.09112333, -0.17321382, -284667.7, -258109.75, 0.0, 9.994272, 10.001121 
2.4047156e+3, 3.072877e+2, -761621.75, -181926.33, 48932.26, 0.14707294, -0.29000592, -177824.95, -177824.95, 0.0, 9.993968, 10.001662 
2.4046601e+3, 3.1728914e+2, -723357.9, 10221.06, -15621.164, 0.029297374, -0.32654092, 10553.553, 10553.553, 0.0, 9.993508, 10.003189 
2.4157245e+3, 1.2737067e+2, -1541741.1, -1855925.1, -52275.09, 0.0037242852, -0.24713239, -1533271.8, 158472.0, 0.49063268, 10.003481, 9.997378 
2.4156651e+3, 1.3736741e+2, -1171003.3, -1620479.0, -95502.87, 0.11651823, -0.2861617, -1151552.9, 442224.78, 0.37487745, 10.006245, 9.997039 
2.4156044e+3, 1.4736494e+2, -921311.1, -1476392.0, -110415.96, 0.05415545, -0.21188746, -900153.75, 595648.0, 0.24829972, 10.006838, 9.997039 
2.4155435e+3, 1.5736243e+2, -793941.2, -1438020.8, -110296.7, -0.055755023, -0.15083668, -775576.9, 622248.4, 0.1347206, 10.006524, 9.996753 
2.4154846e+3, 1.6735826e+2, -680974.2, -1356857.5, -72853.62, -0.04679761, -0.21735832, -673210.5, 626654.2, 0.055658814, 10.006224, 9.996766 
2.4154265e+3, 1.7735375e+2, -621276.5, -1309925.9, -59310.23, 0.0026207566, -0.32793745, -616205.7, 585701.8, 0.015362583, 10.005855, 9.996593 
2.4153689e+3, 1.873506e+2, -598437.5, -1209606.6, -30885.914, 0.010078985, -0.29991198, -596880.6, 507058.25, 0.0021305506, 10.0051, 9.996971 
2.4153115e+3, 1.9734822e+2, -628189.0, -1167336.0, -24575.873, 0.0020633237, -0.22163418, -627071.06, 378892.25, 0.00006995371, 10.004186, 9.997032 
2.4152556e+3, 2.0734584e+2, -608345.8, -991219.94, 24250.914, 0.030259743, -0.20183554, -606815.94, 301170.97, 0.0, 10.003147, 9.998069 
2.4152005e+3, 2.1734367e+2, -665632.06, -961595.4, 31743.271, 0.07018533, -0.21263745, -662265.75, 147742.16, 0.0, 10.002049, 9.998131 
2.4151453e+3, 2.2734176e+2, -608266.8, -771693.94, 50078.066, 0.043907307, -0.25523454, -594142.4, 117883.26, 0.0, 10.00129, 9.999126 
2.4150899e+3, 2.3734017e+2, -609899.2, -731884.56, 57309.41, -0.0054123965, -0.3111405, -587199.1, 26840.537, 0.0, 10.000648, 9.999038 
2.4150357e+3, 2.4733958e+2, -625924.6, -633203.8, 57950.363, 0.03397144, -0.28077883, -571499.7, -55453.016, 0.0, 9.999627, 9.999532 
2.4149817e+3, 2.5733957e+2, -694940.94, -604768.2, 49969.21, 0.10082269, -0.22207597, -582551.5, -164502.63, 0.0, 9.998432, 9.999631 
2.414927e+3, 2.6733962e+2, -662694.1, -411396.94, 44179.01, 0.079962775, -0.22196005, -403856.34, -83808.414, 0.0, 9.997438, 10.000763 
2.4148723e+3, 2.7734008e+2, -703950.75, -389125.03, 35226.023, 0.047145933, -0.24125008, -385231.72, -163189.06, 0.0, 9.99652, 10.000686 
2.4148186e+3, 2.873408e+2, -726777.3, -285282.75, 7533.5337, 0.13494149, -0.24865279, -285154.22, -161117.52, 0.0, 9.995419, 10.001255 
2.4147642e+3, 2.9734156e+2, -787555.44, -254308.69, 5993.105, 0.18119465, -0.28256094, -254241.33, -228210.6, 0.0, 9.994283, 10.001345 
2.4147068e+3, 3.0734453e+2, -702395.3, -68309.49, 51680.03, -0.10868744, -0.16780479, -64125.016, -64125.016, 0.0, 9.994003, 10.002428 
2.4146543e+3, 3.1734696e+2, -758539.06, -71474.0, -61677.008, 0.114166625, -0.13566072, -65981.24, -65981.24, 0.0, 9.993546, 10.00261 
2.4257241e+3, 1.2742859e+2, -1379681.1, -1780487.6, -21553.732, -0.49554047, -0.24659343, -1378525.4, 312646.88, 0.47377914, 10.005805, 9.996751 
2.425671e+3, 1.3742445e+2, -1141027.6, -1657612.5, -22169.059, 0.09288759, -0.30895996, -1140078.0, 453138.66, 0.35746542, 10.006693, 9.996495 
2.4256116e+3, 1.4742166e+2, -957916.0, -1509290.3, -63366.563, 0.11767391, -0.23937564, -950727.3, 544517.1, 0.23239364, 10.006434, 9.996971 
2.4255493e+3, 1.5741935e+2, -879343.1, -1490946.0, -74880.58, -0.071542, -0.15044932, -870308.7, 526957.1, 0.1225883, 10.005803, 9.996724 
2.42549e+3, 1.6741516e+2, -771264.44, -1410131.4, -47137.793, -0.06510747, -0.21584101, -767805.2, 531500.75, 0.048398487, 10.005565, 9.996714 
2.425432e+3, 1.7741047e+2, -676871.4, -1340111.9, -55900.234, 0.013615516, -0.34086418, -672192.9, 529158.25, 0.012254228, 10.005469, 9.996569 
2.4253738e+3, 1.874073e+2, -628574.56, -1219694.9, -34565.83, 0.016168525, -0.31334564, -626560.2, 476822.16, 0.0013665085, 10.004875, 9.997009 
2.4253154e+3, 1.9740503e+2, -644468.56, -1171454.1, -9789.679, -0.0072256275, -0.22844188, -644286.75, 361118.84, 0.00002188698, 10.00406, 9.997063 
2.4252586e+3, 2.0740254e+2, -610582.5, -991220.2, 39976.42, 0.016730921, -0.21961227, -606429.25, 301000.47, 0.0, 10.00313, 9.9980755 
2.4252024e+3, 2.1740021e+2, -651705.8, -956594.4, 45340.61, 0.058138464, -0.24604374, -645106.0, 164345.95, 0.0, 10.002157, 9.998111 
2.4251463e+3, 2.2739826e+2, -640498.7, -800724.75, 58198.203, 0.046522316, -0.28289962, -621590.9, 89879.55, 0.0, 10.001131, 9.999002 
2.4250904e+3, 2.3739667e+2, -695922.6, -781567.44, 49765.72, 0.018931866, -0.32713807, -673091.5, -59606.316, 0.0, 10.000096, 9.9989605 
2.425035e+3, 2.4739611e+2, -654890.06, -640304.56, 64693.445, 0.042490512, -0.2912622, -582494.1, -67002.53, 0.0, 9.999404, 9.999589 
2.42498e+3, 2.5739622e+2, -635029.2, -571904.6, 80876.89, 0.08133184, -0.2266424, -516649.56, -99157.15, 0.0, 9.998833, 9.999661 
2.4249244e+3, 2.6739627e+2, -593730.9, -386560.56, 85646.58, 0.06464562, -0.22534277, -355738.78, -36247.1, 0.0, 9.9979515, 10.000684 
2.424869e+3, 2.773965e+2, -654963.0, -375024.4, 79031.6, 0.05103279, -0.25447497, -354253.56, -132765.25, 0.0, 9.996899, 10.0006 
2.424814e+3, 2.8739694e+2, -692938.2, -271756.72, 61910.0, 0.13486126, -0.2821497, -262845.03, -139360.03, 0.0, 9.995665, 10.001228 
2.4247581e+3, 2.9739776e+2, -765803.94, -230372.38, 85454.38, 0.168823, -0.30804688, -217064.69, -191586.16, 0.0, 9.994382, 10.001458 
2.4247003e+3, 3.0740127e+2, -767000.5, -93415.16, 112210.36, -0.13994054, -0.15203203, -75214.21, -75214.21, 0.0, 9.993539, 10.002478 
2.4246477e+3, 3.1740302e+2, -812117.6, -24488.07, -80072.086, 0.13921833, -0.17878912, -16430.209, -16430.209, 0.0, 9.992867, 10.003259 
2.4357334e+3, 1.2748526e+2, -1343624.0, -1691905.0, -3268.485, -0.13952753, -0.33973595, -1343593.4, 347022.0, 0.4604498, 10.005884, 9.997316 
2.435677e+3, 1.3748309e+2, -1118896.3, -1610867.9, -13038.478, 0.02847213, -0.26162925, -1118551.0, 474087.25, 0.3435121, 10.006653, 9.996836 
2.4356167e+3, 1.4747941e+2, -972236.0, -1568117.1, -89059.54, 0.01251267, -0.26910535, -959210.06, 535464.25, 0.21957211, 10.0064125, 9.99659 
2.4355549e+3, 1.5747532e+2, -893949.1, -1544832.8, -94005.54, -0.056403905, -0.31941462, -880644.1, 516069.72, 0.11286333, 10.005826, 9.996347 
2.4354959e+3, 1.6747178e+2, -786425.75, -1452452.6, -49770.97, -0.014928359, -0.28718805, -782727.0, 516022.7, 0.042706497, 10.005571, 9.996422 
2.4354377e+3, 1.7746866e+2, -688981.7, -1362095.4, -62588.58, 0.059576638, -0.22684802, -683211.44, 517570.5, 0.009945714, 10.00544, 9.996434 
2.4353787e+3, 1.8746528e+2, -610355.94, -1177788.9, -63104.055, 0.030913206, -0.23737751, -603422.9, 499391.88, 0.00087677484, 10.004851, 9.99731 
2.4353188e+3, 1.97462e+2, -631767.1, -1141372.8, -39306.977, -0.034766596, -0.28056267, -628753.1, 376092.6, 0.000005286762, 10.00404, 9.997281 
2.435261e+3, 2.0745924e+2, -613424.2, -995894.3, 4344.821, -0.029251479, -0.30592486, -613374.8, 293496.78, 0.0, 10.003121, 9.998049 
2.4352038e+3, 2.1745697e+2, -661411.44, -974256.2, 10426.632, 0.0035754717, -0.32391217, -661064.4, 147828.7, 0.0, 10.002143, 9.997998 
2.4351472e+3, 2.2745536e+2, -664978.4, -852156.9, 19803.482, 0.03609234, -0.29848832, -662906.1, 48003.785, 0.0, 10.001131, 9.998651 
2.4350905e+3, 2.3745424e+2, -707454.4, -807026.0, 15657.814, 0.06810961, -0.26341948, -705050.2, -92127.25, 0.0, 10.000099, 9.998786 
2.4350347e+3, 2.4745351e+2, -626157.3, -582815.3, 42364.117, 0.07627533, -0.26415604, -556901.1, -41971.19, 0.0, 9.99941, 9.999982 
2.4349785e+3, 2.574532e+2, -611133.94, -526156.8, 54945.223, 0.0709422, -0.27887046, -499188.53, -82256.52, 0.0, 9.998845, 9.999971 
2.4349222e+3, 2.6745337e+2, -591829.9, -384997.03, 44801.043, 0.059354905, -0.2786911, -375709.9, -56780.168, 0.0, 9.997959, 10.000693 
2.4348657e+3, 2.7745387e+2, -647522.4, -364450.34, 36611.098, 0.055796515, -0.2847777, -359791.9, -138867.33, 0.0, 9.996916, 10.000666 
2.4348086e+3, 2.8745475e+2, -677191.2, -243384.6, 11613.298, 0.055149794, -0.2823869, -243073.92, -120157.55, 0.0, 9.995679, 10.001418 
2.434751e+3, 2.974564e+2, -767988.9, -238967.38, 42744.93, 0.018251788, -0.24127339, -235535.84, -210635.03, 0.0, 9.994396, 10.001394 
2.4346963e+3, 3.0745763e+2, -817358.8, -191416.58, 81534.61, 0.12050002, -0.2665133, -180970.31, -180970.31, 0.0, 9.99351, 10.001819 
2.4346401e+3, 3.1745854e+2, -793314.8, 6768.6787, -160653.28, 0.10798013, -0.3364423, 37821.906, 37821.906, 0.0, 9.992883, 10.003476 
2.4457411e+3, 1.275434e+2, -1250277.9, -1667659.9, 12651.243, -0.0059025413, -0.33009753, -1249894.8, 440150.47, 0.44793564, 10.007073, 9.997035 
2.445683e+3, 1.3754092e+2, -1155012.0, -1664349.6, -28382.852, 0.019933054, -0.25718072, -1153435.3, 438635.28, 0.33086133, 10.006272, 9.996657 
2.4456225e+3, 1.4753696e+2, -990117.2, -1583865.6, -105722.07, -0.016814325, -0.28774345, -971854.2, 522255.0, 0.20833002, 10.006202, 9.996583 
2.445561e+3, 1.5753263e+2, -810050.9, -1499861.6, -95762.6, -0.052230436, -0.35995236, -797003.44, 599147.44, 0.10462489, 10.006426, 9.996366 
2.4455015e+3, 1.6752937e+2, -730632.44, -1406060.5, -34163.73, -0.021585096, -0.310799, -728908.8, 569275.4, 0.038082384, 10.005868, 9.996597 
2.4454427e+3, 1.7752673e+2, -738185.9, -1368454.3, -21003.656, 0.026420137, -0.21909563, -737486.75, 462725.34, 0.008199734, 10.005014, 9.996595 
2.4453828e+3, 1.8752341e+2, -676373.5, -1197407.6, -27250.998, 0.015193005, -0.23492734, -674952.1, 427292.06, 0.00056875823, 10.004348, 9.9974165 
2.4453227e+3, 1.9752005e+2, -666676.5, -1144667.8, -19906.535, -0.016447213, -0.29780307, -665848.94, 338426.9, 0.00000082284765, 10.00375, 9.997395 
2.4452639e+3, 2.0751736e+2, -646791.06, -1003019.3, 17267.705, -0.01782122, -0.32551035, -645956.0, 260345.23, 0.0, 10.00286, 9.998123 
2.4452056e+3, 2.1751516e+2, -698964.75, -987806.75, 31322.7, -0.004542887, -0.33963507, -695607.06, 112714.875, 0.0, 10.001868, 9.998035 
2.445148e+3, 2.275137e+2, -661475.25, -856862.4, 63623.266, 0.02119597, -0.29578534, -642584.3, 67753.55, 0.0, 10.001187, 9.998589 
2.4450909e+3, 2.3751275e+2, -635703.44, -774980.5, 78051.32, 0.054707196, -0.23641604, -600740.2, 11609.554, 0.0, 10.000609, 9.998757 
2.445034e+3, 2.4751185e+2, -601136.56, -566646.75, 90607.375, 0.068642974, -0.25463936, -491657.78, 22700.15, 0.0, 9.999567, 10.000016 
2.444977e+3, 2.5751123e+2, -684002.5, -556355.5, 74597.47, 0.072211064, -0.30363512, -522004.56, -105642.29, 0.0, 9.998325, 10.000014 
2.4449196e+3, 2.675114e+2, -693894.94, -428796.3, 54723.082, 0.063904636, -0.30729082, -417944.3, -99584.4, 0.0, 9.997238, 10.000738 
2.4448623e+3, 2.7751198e+2, -745887.8, -406902.28, 49564.348, 0.06336792, -0.30561835, -399803.94, -179450.06, 0.0, 9.996225, 10.000704 
2.444804e+3, 2.8751314e+2, -678463.6, -248244.13, 18313.914, 0.034042228, -0.2776921, -247465.94, -125122.766, 0.0, 9.99569, 10.001378 
2.4447449e+3, 2.9751503e+2, -656024.25, -199359.19, 28170.768, -0.034994613, -0.20723036, -197627.95, -173302.89, 0.0, 9.995222, 10.00127 
2.4446909e+3, 3.0751488e+2, -766797.1, -175576.81, 85582.45, 0.23873353, -0.35698768, -163437.52, -163437.52, 0.0, 9.9938965, 10.00174 
2.444632e+3, 3.1751794e+2, -781966.94, 36880.715, -69390.586, 0.05503954, -0.2164562, 42719.363, 42719.363, 0.0, 9.992864, 10.003686 
2.4557476e+3, 1.2760265e+2, -1265629.9, -1763053.6, -5645.595, -0.048109964, -0.24938951, -1265565.9, 423899.34, 0.43439496, 10.007148, 9.996222 
2.4556895e+3, 1.3759838e+2, -1166522.3, -1739306.9, -41683.8, 0.04441786, -0.2800276, -1163504.6, 428004.5, 0.31815127, 10.006333, 9.996115 
2.4556287e+3, 1.4759456e+2, -967710.06, -1550836.9, -93904.32, 0.004066663, -0.2888844, -952961.1, 540584.9, 0.19774315, 10.006226, 9.996798 
2.4555671e+3, 1.5759112e+2, -791878.0, -1459579.9, -93089.65, -0.06374147, -0.29512268, -779142.5, 616435.6, 0.09729397, 10.006379, 9.996667 
2.4555066e+3, 1.6758779e+2, -698839.9, -1332226.0, -63632.82, -0.07873109, -0.29937896, -692510.3, 605100.56, 0.034194723, 10.005818, 9.99713 
2.4554463e+3, 1.7758468e+2, -716562.9, -1317210.1, -49753.605, -0.076611936, -0.30399662, -712469.5, 487172.13, 0.0068503534, 10.004979, 9.996966 
2.4553865e+3, 1.8758172e+2, -684157.44, -1209411.1, -48563.21, -0.02749369, -0.29396838, -679705.2, 421965.6, 0.000377371, 10.004324, 9.997348 
2.4553269e+3, 1.9757904e+2, -671738.6, -1148413.4, -42926.406, 0.037529852, -0.2815839, -667903.8, 335793.16, 0.000000047828348, 10.003716, 9.997387 
2.4552673e+3, 2.0757669e+2, -637829.2, -982274.6, -18931.463, 0.04309425, -0.284048, -636791.8, 268928.06, 0.0, 10.002848, 9.998274 
2.4552076e+3, 2.1757467e+2, -689490.94, -966296.56, 546.9279, 0.02394317, -0.29546544, -689489.8, 118249.77, 0.0, 10.001857, 9.998191 
2.4551487e+3, 2.2757317e+2, -647914.7, -829859.5, 44007.277, -0.0018193313, -0.27531633, -637829.6, 71925.46, 0.0, 10.001188, 9.998775 
2.4550903e+3, 2.3757207e+2, -630528.7, -766315.8, 50888.93, -0.024896143, -0.2477137, -613574.06, -1807.2593, 0.0, 10.000614, 9.9988165 
2.4550328e+3, 2.4757102e+2, -623472.75, -614212.75, 41542.996, 0.019268481, -0.2631466, -577042.56, -63265.797, 0.0, 9.999569, 9.99969 
2.4549751e+3, 2.575702e+2, -699669.1, -590271.75, 28100.13, 0.07999835, -0.29692504, -583476.06, -167692.38, 0.0, 9.998328, 9.999782 
2.4549167e+3, 2.6757026e+2, -690009.1, -420451.56, 13558.856, 0.07457284, -0.31074002, -419771.25, -101988.25, 0.0, 9.997233, 10.000799 
2.4548581e+3, 2.7757078e+2, -745967.7, -407756.2, 16995.287, 0.063356146, -0.32048455, -406904.3, -187126.83, 0.0, 9.996225, 10.000699 
2.4547999e+3, 2.8757203e+2, -694481.25, -283021.94, 1681.4893, 0.07912535, -0.26601255, -283015.06, -161249.1, 0.0, 9.995693, 10.001141 
2.4547407e+3, 2.9757378e+2, -661640.4, -217954.33, -1447.8475, 0.03581236, -0.19031669, -217949.61, -194199.53, 0.0, 9.995248, 10.001132 
2.4546838e+3, 3.0757272e+2, -730890.56, -109874.5, 27253.574, 0.14633308, -0.44543415, -108680.76, -108680.76, 0.0, 9.993929, 10.002178 
2.4546243e+3, 3.1757638e+2, -724725.7, 153933.36, 18131.096, -0.0022232817, -0.29846767, 154307.34, 154307.34, 0.0, 9.99288, 10.0044775 
2.4657549e+3, 1.276618e+2, -1148805.3, -1700207.5, 11360.5205, -0.08573047, -0.2615224, -1148571.3, 540313.8, 0.41901878, 10.008482, 9.9960165 
2.4656965e+3, 1.3765742e+2, -1023107.56, -1657789.6, 4351.702, 0.053083535, -0.28203207, -1023077.75, 567852.25, 0.30473524, 10.007718, 9.996 
2.465635e+3, 1.4765358e+2, -895647.75, -1505001.0, -31267.98, 0.012662398, -0.2911688, -894047.5, 598919.6, 0.18731162, 10.006752, 9.99684 
2.465573e+3, 1.5765013e+2, -868271.0, -1495031.6, -37227.242, -0.06943495, -0.30171552, -866067.56, 528931.75, 0.090510935, 10.005738, 9.996725 
2.4655117e+3, 1.6764687e+2, -799629.5, -1372123.1, -32612.863, -0.087271355, -0.30499527, -797777.6, 499253.9, 0.03081779, 10.005046, 9.997226 
2.4654509e+3, 1.7764387e+2, -776042.6, -1324998.5, -44694.273, -0.085290566, -0.30951613, -772427.56, 426634.1, 0.005780606, 10.00448, 9.997149 
2.4653904e+3, 1.876411e+2, -733267.1, -1190553.6, -27724.756, -0.03669239, -0.30905667, -731592.4, 369495.75, 0.0002587623, 10.003807, 9.997724 
2.46533e+3, 1.9763866e+2, -743320.44, -1155938.9, 3678.905, 0.031439614, -0.30719587, -743287.6, 259823.45, 0.0000000002215969, 10.003107, 9.99763 
2.4652697e+3, 2.0763654e+2, -692960.94, -1019245.6, 19921.76, 0.038069353, -0.28891626, -691749.06, 213383.52, 0.0, 10.002518, 9.998178 
2.4652092e+3, 2.1763474e+2, -675082.2, -959201.8, 20297.035, 0.02024897, -0.2707087, -673639.5, 133512.02, 0.0, 10.001964, 9.998184 
2.4651496e+3, 2.2763312e+2, -647828.06, -809902.8, 59979.65, -0.001970253, -0.27086672, -628045.7, 81121.484, 0.0, 10.001107, 9.998949 
2.4650906e+3, 2.3763181e+2, -694150.2, -786678.0, 64887.832, -0.019186582, -0.28097406, -660722.3, -49542.703, 0.0, 10.000136, 9.998905 
2.465032e+3, 2.4763077e+2, -675576.3, -656683.94, 57920.86, 0.013231556, -0.28727698, -607444.06, -94254.33, 0.0, 9.9992895, 9.999531 
2.4649732e+3, 2.5763005e+2, -687247.6, -596944.6, 55486.926, 0.058251463, -0.29623488, -570559.75, -155362.9, 0.0, 9.998473, 9.999662 
2.4649139e+3, 2.6763007e+2, -642908.1, -399626.28, 41529.453, 0.05907978, -0.30603963, -392732.34, -75535.8, 0.0, 9.997567, 10.000781 
2.4648544e+3, 2.7763057e+2, -695722.25, -390783.13, 41978.605, 0.070851676, -0.3153702, -385109.8, -165918.61, 0.0, 9.996599, 10.000637 
2.4647957e+3, 2.8763166e+2, -694730.6, -298959.6, 38878.234, 0.113442674, -0.2642471, -295176.6, -173995.33, 0.0, 9.995762, 10.000996 
2.4647361e+3, 2.97633e+2, -712424.3, -251702.6, 31899.76, 0.06918035, -0.21292655, -249504.39, -226335.11, 0.0, 9.994947, 10.001041 
2.4646765e+3, 3.076321e+2, -707130.9, -102982.5, 31271.465, 0.04340567, -0.45195, -101368.164, -101368.164, 0.0, 9.994118, 10.0021305 
2.464618e+3, 3.1763574e+2, -687580.25, 114538.65, 18533.064, 0.070133485, -0.28895494, 114966.625, 114966.625, 0.0, 9.993385, 10.0039625 
2.4757627e+3, 1.2772101e+2, -1131815.0, -1679303.0, -7004.6704, -0.13050069, -0.33942837, -1131725.4, 556578.0, 0.40172988, 10.008386, 9.99624 
2.4757038e+3, 1.3771775e+2, -1015250.1, -1645009.9, -18555.422, 0.0406041, -0.26927716, -1014703.9, 575632.6, 0.29040942, 10.007613, 9.99614 
2.4756417e+3, 1.4771372e+2, -898358.75, -1523237.8, -64306.83, 0.0068013677, -0.29704803, -891809.56, 600566.1, 0.17677452, 10.006706, 9.996747 
2.4755783e+3, 1.5770963e+2, -872924.3, -1516123.8, -66915.54, -0.072858945, -0.36333537, -866036.5, 528378.4, 0.08403941, 10.005742, 9.996583 
2.4755168e+3, 1.677066e+2, -815531.9, -1411462.8, -50212.21, -0.05755639, -0.32009056, -811330.7, 485115.66, 0.027790336, 10.005051, 9.996956 
2.4754559e+3, 1.7770416e+2, -776854.2, -1324036.9, -62979.51, -0.019695546, -0.24523886, -769699.0, 428773.84, 0.0049069263, 10.004461, 9.997168 
2.475394e+3, 1.8770145e+2, -682745.75, -1084843.1, -51537.195, -0.021171363, -0.2881549, -676245.25, 424252.0, 0.0001841839, 10.003799, 9.998456 
2.4753323e+3, 1.9769885e+2, -714261.2, -1094489.4, -19409.957, -0.033018224, -0.3704066, -713272.94, 289246.16, 0.00000000023303823, 10.0030985, 9.998057 
2.4752712e+3, 2.0769684e+2, -716392.6, -1069283.0, 266.01065, -0.028075833, -0.33468333, -716392.44, 188147.63, 0.0, 10.00252, 9.997835 
2.4752107e+3, 2.1769524e+2, -689813.6, -989065.3, -2037.5469, -0.017912958, -0.26374882, -689799.75, 116758.94, 0.0, 10.001956, 9.997985 
2.4751508e+3, 2.276935e+2, -635289.7, -785108.8, 24045.377, 0.018667271, -0.2812125, -631525.06, 77049.98, 0.0, 10.001109, 9.99912 
2.4750915e+3, 2.3769192e+2, -685546.6, -770001.6, 30248.096, 0.06399115, -0.33204755, -675830.75, -65242.336, 0.0, 10.000137, 9.999022 
2.4750315e+3, 2.4769104e+2, -675982.1, -659132.1, 26278.215, 0.046410725, -0.3257297, -639961.4, -127363.92, 0.0, 9.999293, 9.999514 
2.474971e+3, 2.576906e+2, -687312.8, -601466.56, 22678.262, -0.0002849912, -0.30359712, -595843.9, -181241.1, 0.0, 9.998488, 9.999626 
2.4749109e+3, 2.6769075e+2, -649075.2, -414578.47, 3038.0894, 0.015668832, -0.29290846, -414539.13, -97937.766, 0.0, 9.997572, 10.000678 
2.474851e+3, 2.7769133e+2, -702188.25, -407994.97, 6870.7065, 0.0843271, -0.2832563, -407834.6, -189239.66, 0.0, 9.996612, 10.000515 
2.4747916e+3, 2.8769186e+2, -701838.0, -316227.63, 5817.19, 0.1290847, -0.2763876, -316139.88, -195549.67, 0.0, 9.9957695, 10.000875 
2.4747305e+3, 2.976924e+2, -716194.75, -261916.66, -2453.3567, 0.041696522, -0.29507223, -261903.4, -239317.53, 0.0, 9.994954, 10.00097 
2.4746697e+3, 3.0769327e+2, -740254.8, -170350.03, -177.18237, -0.044703938, -0.33016232, -170349.97, -170349.97, 0.0, 9.99411, 10.001674 
2.4746127e+3, 3.1769615e+2, -802423.56, -148277.33, -24723.547, 0.21779524, -0.16634412, -147344.22, -147344.22, 0.0, 9.993461, 10.002136 
2.485771e+3, 1.2778132e+2, -1145206.5, -1676972.0, -19178.2, -0.113792084, -0.331839, -1144515.8, 543197.4, 0.38271305, 10.00792, 9.996486 
2.4857107e+3, 1.3777803e+2, -1079820.3, -1668459.1, -30539.273, 0.020022774, -0.28697878, -1078240.0, 511505.6, 0.2751559, 10.006759, 9.996394 
2.485648e+3, 1.4777441e+2, -932897.94, -1512621.9, -51244.055, 0.0012441339, -0.300844, -928403.1, 563377.4, 0.16599835, 10.006215, 9.997047 
2.4855845e+3, 1.5777086e+2, -829887.6, -1468181.9, -32656.484, -0.04244277, -0.34092262, -828221.2, 565593.4, 0.077727035, 10.005923, 9.996819 
2.485522e+3, 1.6776782e+2, -786384.0, -1389702.8, 4764.7925, -0.028617023, -0.30925375, -786346.4, 509499.63, 0.025001675, 10.005214, 9.9970255 
2.4854602e+3, 1.7776524e+2, -786386.4, -1321812.5, 12361.216, -0.0050941226, -0.25592762, -786101.1, 411772.9, 0.0041714213, 10.004362, 9.9972315 
2.4853978e+3, 1.8776266e+2, -693231.94, -1083913.4, -1376.4718, -0.022922222, -0.2878971, -693227.06, 406670.2, 0.00013555438, 10.003704, 9.998507 
2.4853352e+3, 1.977603e+2, -706326.06, -1081474.9, -12906.31, -0.050295822, -0.35165265, -705882.56, 296034.44, 0.00000000017417703, 10.003121, 9.998132 
2.4852736e+3, 2.0775823e+2, -707333.0, -1055630.8, 20043.922, -0.039175082, -0.32907897, -706183.3, 197754.9, 0.0, 10.002546, 9.997913 
2.4852124e+3, 2.1775647e+2, -686332.25, -982755.4, 41867.68, -0.013055325, -0.28035465, -680532.2, 125425.7, 0.0, 10.001962, 9.998025 
2.4851519e+3, 2.2775467e+2, -628809.5, -786523.0, 54015.31, 0.016931191, -0.3005611, -612083.56, 95891.27, 0.0, 10.001179, 9.999075 
2.4850912e+3, 2.3775311e+2, -659542.6, -754064.56, 43953.33, 0.051558003, -0.34664539, -642263.0, -32274.496, 0.0, 10.000308, 9.999045 
2.4850306e+3, 2.4775246e+2, -662782.4, -631738.0, 48574.207, 0.044788744, -0.33027098, -596266.2, -84271.125, 0.0, 9.999297, 9.999699 
2.4849692e+3, 2.577523e+2, -719475.25, -609746.06, 60076.965, 0.01657397, -0.2972174, -583251.2, -169253.92, 0.0, 9.99824, 9.999687 
2.4849083e+3, 2.6775214e+2, -671342.1, -453927.5, 39902.58, 0.014874396, -0.30010858, -446835.44, -130836.65, 0.0, 9.997547, 10.000417 
2.4848475e+3, 2.7775222e+2, -669226.0, -414121.88, 30210.764, 0.053340912, -0.31274855, -410592.97, -192595.58, 0.0, 9.99694, 10.000311 
2.4847871e+3, 2.8775272e+2, -657257.4, -300346.1, 29207.309, 0.11066417, -0.29871964, -297971.75, -177978.3, 0.0, 9.996103, 10.000822 
2.4847256e+3, 2.977534e+2, -686399.6, -258000.95, 26316.852, 0.06691879, -0.29396793, -256390.34, -234402.5, 0.0, 9.995203, 10.000877 
2.4846636e+3, 3.0775473e+2, -680334.8, -158794.11, 37942.098, -0.062987454, -0.26972586, -156048.28, -156048.28, 0.0, 9.994603, 10.001512 
2.4846058e+3, 3.1775555e+2, -809560.94, -178303.34, 3949.1052, 0.18869646, -0.29157394, -178278.64, -178278.64, 0.0, 9.993535, 10.00189 
2.4957791e+3, 1.278425e+2, -1117371.4, -1651311.3, -43822.84, -0.061435904, -0.25689194, -1113798.5, 573317.0, 0.3622063, 10.007889, 9.996768 
2.4957171e+3, 1.3783841e+2, -1049616.4, -1616990.6, -52194.492, -0.015264499, -0.32446912, -1044854.9, 544300.3, 0.25905496, 10.006759, 9.996755 
2.4956538e+3, 1.4783566e+2, -892562.4, -1440109.5, -57811.535, -0.009285219, -0.29909837, -886525.0, 604656.06, 0.15495409, 10.006207, 9.99761 
2.4955906e+3, 1.5783355e+2, -798792.1, -1397682.6, -47001.22, 0.008978307, -0.25229415, -795125.9, 598075.1, 0.07150166, 10.005877, 9.997329 
2.4955274e+3, 1.6783032e+2, -766125.06, -1344453.9, -27052.293, -0.0039677327, -0.28004956, -764862.4, 530370.6, 0.022388346, 10.005187, 9.997352 
2.495464e+3, 1.7782699e+2, -781631.4, -1312550.6, -16565.574, -0.03672614, -0.3291861, -781115.0, 416151.66, 0.0035371515, 10.004359, 9.997299 
2.4954009e+3, 1.8782468e+2, -731354.4, -1163837.5, -22431.25, -0.040095266, -0.30208457, -730194.06, 369094.97, 0.00010185649, 10.003703, 9.99796 
2.4953382e+3, 1.9782291e+2, -726331.3, -1119497.4, -32007.283, -0.029888805, -0.25769463, -723742.7, 277563.22, 0.00000000005180779, 10.003102, 9.997883 
2.4952763e+3, 2.0782062e+2, -676352.9, -989585.8, 231.92632, -0.0026250908, -0.27799377, -676352.7, 226975.31, 0.0, 10.002535, 9.998375 
2.4952146e+3, 2.1781836e+2, -671029.94, -948250.0, 19977.623, 0.025409322, -0.32052544, -669597.7, 135752.31, 0.0, 10.0019455, 9.998272 
2.4951527e+3, 2.2781661e+2, -649691.25, -829224.3, 23134.178, -0.009585063, -0.32820743, -646758.2, 60609.273, 0.0, 10.001172, 9.998787 
2.4950904e+3, 2.3781525e+2, -666151.5, -769473.0, 9692.368, -0.058815893, -0.32625693, -665250.1, -55869.324, 0.0, 10.000311, 9.99894 
2.4950293e+3, 2.4781488e+2, -634979.5, -575800.44, 6043.9116, 0.008311494, -0.30148035, -575189.5, -63806.03, 0.0, 9.999302, 10.000082 
2.4949683e+3, 2.57815e+2, -707384.06, -587069.4, 23855.39, 0.104090475, -0.27508202, -582512.06, -169131.2, 0.0, 9.998247, 9.999842 
2.494906e+3, 2.6781413e+2, -701662.4, -518700.88, 16300.912, 0.054291017, -0.32858452, -517259.9, -201870.22, 0.0, 9.997551, 9.999972 
2.4948433e+3, 2.778131e+2, -687447.44, -457050.72, 2939.5122, -0.027481634, -0.40773907, -457013.22, -239613.36, 0.0, 9.996958, 10.00001 
2.4947825e+3, 2.8781414e+2, -653158.56, -294925.0, -7193.186, 0.053469103, -0.33178148, -294780.63, -175388.88, 0.0, 9.996112, 10.000857 
2.4947214e+3, 2.978161e+2, -692841.5, -275607.4, -1152.1375, 0.13569689, -0.2021638, -275604.22, -254229.44, 0.0, 9.995217, 10.0007515 
2.4946587e+3, 3.0781615e+2, -682237.4, -170028.1, 12145.05, 0.01241839, -0.2848039, -169740.28, -169740.28, 0.0, 9.994632, 10.001423 
2.4945979e+3, 3.17818e+2, -728903.2, -12287.854, -132931.14, 0.06611668, -0.2270229, 11576.0, 11576.0, 0.0, 9.993538, 10.00303 
2.505787e+3, 1.27905e+2, -1081479.3, -1653965.0, 20036.225, -0.047148447, -0.27321666, -1080778.9, 605723.1, 0.34051305, 10.008126, 9.996615 
2.5057235e+3, 1.3790087e+2, -1006648.7, -1608226.3, 3613.6973, -0.046138942, -0.32622263, -1006627.0, 581915.5, 0.2422873, 10.007091, 9.996644 
2.5056595e+3, 1.4789799e+2, -897039.25, -1453405.9, -13774.593, -0.0285298, -0.30446693, -896698.44, 593872.25, 0.14370757, 10.006153, 9.997522 
2.5055963e+3, 1.578957e+2, -870558.75, -1431264.6, -36207.664, 0.020888148, -0.26459908, -868230.3, 524362.56, 0.06535606, 10.0053, 9.997374 
2.5055322e+3, 1.6789287e+2, -795796.94, -1318731.0, -23987.41, -0.0029415148, -0.2790973, -794698.94, 499921.6, 0.019920724, 10.004798, 9.997712 
2.505468e+3, 1.7789002e+2, -757944.75, -1273825.6, -12403.297, -0.05820442, -0.31273845, -757646.7, 439001.5, 0.0029812045, 10.004408, 9.997537 
2.5054047e+3, 1.8788762e+2, -740022.6, -1177791.8, 2412.6992, -0.03934916, -0.2980252, -740009.3, 358662.38, 0.00007665515, 10.00369, 9.997869 
2.5053412e+3, 1.9788557e+2, -761599.6, -1137200.9, 21938.15, 0.008249995, -0.27078104, -760322.6, 240369.11, 0.0000000000010010511, 10.002865, 9.997874 
2.5052786e+3, 2.078834e+2, -714020.0, -983272.7, 51443.28, 0.020122066, -0.29154384, -704526.06, 198186.27, 0.0, 10.002174, 9.9985895 
2.505216e+3, 2.178814e+2, -720678.5, -952596.06, 50210.06, 0.01823193, -0.33087143, -710274.75, 94456.46, 0.0, 10.001527, 9.998441 
2.5051534e+3, 2.278798e+2, -713919.56, -858772.9, 59721.043, -0.017274702, -0.3262529, -692472.75, 14274.374, 0.0, 10.000729, 9.998796 
2.5050902e+3, 2.3787859e+2, -729028.94, -799188.06, 68347.375, -0.056796484, -0.3098508, -687284.44, -78524.695, 0.0, 9.999881, 9.998941 
2.5050282e+3, 2.4787797e+2, -641040.7, -581952.2, 49888.12, 0.00951864, -0.30590865, -553516.4, -42751.824, 0.0, 9.999278, 10.000049 
2.5049666e+3, 2.5787777e+2, -640303.2, -558648.1, 38419.645, 0.105964206, -0.30882674, -543413.6, -130648.734, 0.0, 9.998729, 9.999803 
2.5049037e+3, 2.6787698e+2, -641054.94, -497581.9, 47472.586, 0.057184312, -0.34335205, -483296.5, -168523.53, 0.0, 9.998006, 9.999896 
2.5048402e+3, 2.7787626e+2, -654432.2, -443661.22, 55189.605, -0.025135066, -0.39139226, -430084.56, -213302.9, 0.0, 9.997198, 9.999984 
2.5047782e+3, 2.878773e+2, -647221.9, -282231.53, 45303.39, 0.049628112, -0.31577834, -276692.44, -157919.31, 0.0, 9.996115, 10.00094 
2.5047162e+3, 2.9787925e+2, -733691.4, -294564.22, 60358.633, 0.1360786, -0.19347632, -286418.94, -265663.03, 0.0, 9.99494, 10.0007515 
2.5046533e+3, 3.0787867e+2, -764530.25, -219908.06, 91190.95, 0.04689211, -0.33217818, -205044.78, -205044.78, 0.0, 9.994112, 10.001329 
2.5045907e+3, 3.1788096e+2, -713599.5, 88111.375, -88262.68, 0.03609541, -0.23420821, 97713.46, 97713.46, 0.0, 9.993248, 10.003857 
2.5157946e+3, 1.2796852e+2, -1099025.0, -1716576.5, -10894.912, -0.07553274, -0.35661566, -1098832.9, 587043.06, 0.3180149, 10.007967, 9.996148 
2.51573e+3, 1.3796504e+2, -1026839.7, -1686223.4, -25469.674, -0.07674016, -0.2989266, -1025857.3, 562054.44, 0.22511834, 10.007039, 9.996135 
2.5156653e+3, 1.4796121e+2, -925967.2, -1537194.4, -40848.715, -0.056493957, -0.31407845, -923249.3, 566701.56, 0.13239357, 10.006152, 9.996911 
2.5156012e+3, 1.5795755e+2, -887082.0, -1478587.9, -57931.766, -0.0030532335, -0.35505217, -881461.6, 510526.47, 0.059326578, 10.005309, 9.997047 
2.5155365e+3, 1.6795555e+2, -768992.3, -1265382.8, -33753.027, -0.023695571, -0.29832286, -766707.75, 527299.75, 0.017590899, 10.004795, 9.998085 
2.515472e+3, 1.779542e+2, -736075.1, -1223033.1, -28052.305, -0.075132266, -0.22087437, -734464.44, 461555.47, 0.0024899684, 10.004379, 9.997901 
2.515408e+3, 1.8795136e+2, -721549.1, -1137714.8, -27095.78, -0.02516708, -0.2813637, -719792.44, 378253.97, 0.000056666635, 10.003677, 9.998152 
2.5153446e+3, 1.979483e+2, -749549.56, -1112436.6, -5325.229, 0.05639113, -0.380648, -749471.44, 250603.39, 0.0, 10.002862, 9.998048 
2.5152808e+3, 2.0794657e+2, -716092.9, -989004.44, 28044.97, 0.027729072, -0.36159343, -713240.7, 188850.75, 0.0, 10.002176, 9.99855 
2.5152168e+3, 2.1794546e+2, -717936.06, -945201.2, 25117.256, -0.035425216, -0.30968642, -715193.25, 88909.2, 0.0, 10.001515, 9.998499 
2.515154e+3, 2.2794418e+2, -692875.56, -815682.75, 27899.902, -0.0075425175, -0.29490086, -686834.3, 19280.633, 0.0, 10.000728, 9.999094 
2.515091e+3, 2.3794302e+2, -721988.7, -786872.5, 39847.773, 0.048445586, -0.29888138, -703046.5, -94920.26, 0.0, 9.9998865, 9.999025 
2.5150278e+3, 2.4794164e+2, -673029.8, -650599.5, 28592.654, 0.04381444, -0.34474704, -631101.2, -120961.88, 0.0, 9.999284, 9.999577 
2.514964e+3, 2.579405e+2, -656112.06, -595344.9, 14212.933, 0.016033003, -0.3992491, -592184.94, -180034.83, 0.0, 9.998741, 9.999546 
2.5149012e+3, 2.6794073e+2, -619215.8, -454589.56, 15676.618, 0.02147159, -0.3429909, -453110.06, -138960.84, 0.0, 9.998012, 10.00019 
2.5148383e+3, 2.7794158e+2, -635081.7, -406097.03, 20263.344, 0.055220876, -0.2587691, -404317.7, -188174.94, 0.0, 9.997205, 10.00024 
2.5147748e+3, 2.8794217e+2, -639514.9, -266888.22, -438.2804, 0.10285387, -0.24486741, -266887.7, -148750.44, 0.0, 9.996113, 10.001049 
2.5147104e+3, 2.9794288e+2, -721334.1, -269609.66, 22483.803, 0.07821529, -0.25848097, -268493.34, -248363.14, 0.0, 9.994938, 10.000926 
2.5146466e+3, 3.0794194e+2, -758825.5, -206881.36, 64126.23, -0.011679338, -0.44916305, -199528.95, -199528.95, 0.0, 9.994102, 10.001426 
2.514584e+3, 3.1794348e+2, -681133.06, 161157.69, -47281.242, 0.05860207, -0.43960705, 163803.47, 163803.47, 0.0, 9.993233, 10.00436 
2.5258017e+3, 1.2803291e+2, -1177132.8, -1743606.0, -27366.871, -0.114926, -0.33292976, -1175813.8, 509431.28, 0.2951077, 10.00684, 9.996509 
2.525737e+3, 1.3802943e+2, -1044015.94, -1680726.9, -8570.159, -0.030292775, -0.30956128, -1043900.6, 543379.3, 0.20782721, 10.006677, 9.996346 
2.5256714e+3, 1.4802565e+2, -924314.4, -1552721.0, 4774.9575, -0.036533378, -0.31807905, -924278.06, 565040.44, 0.12116234, 10.006169, 9.996788 
2.525606e+3, 1.5802203e+2, -852795.75, -1466470.1, 18063.018, -0.04098075, -0.34159917, -852264.56, 539091.2, 0.053464968, 10.005557, 9.997005 
2.525541e+3, 1.6801986e+2, -759918.4, -1245629.0, 44711.754, -0.03894278, -0.30791512, -755836.75, 537539.56, 0.0154018905, 10.004785, 9.998225 
2.5254762e+3, 1.7801832e+2, -786972.9, -1236458.8, 35114.023, -0.042563498, -0.26110905, -784246.3, 411143.53, 0.002055818, 10.0039835, 9.997998 
2.5254115e+3, 1.8801568e+2, -759214.25, -1158186.8, 15819.032, -0.0064002145, -0.30072403, -758588.06, 338826.84, 0.00004051296, 10.003433, 9.998127 
2.5253472e+3, 1.9801292e+2, -736643.94, -1107416.6, 15546.049, 0.043383654, -0.36850876, -735993.25, 263448.34, 0.0, 10.00296, 9.998033 
2.5252825e+3, 2.0801106e+2, -707935.5, -987117.56, 43106.535, 0.011491491, -0.3591027, -701431.25, 200028.02, 0.0, 10.002246, 9.998528 
2.525218e+3, 2.1800974e+2, -723678.8, -941246.25, 39683.543, -0.04273356, -0.3260555, -716666.7, 86805.21, 0.0, 10.001451, 9.998555 
2.5251547e+3, 2.2800861e+2, -680215.44, -784535.5, 36897.637, 0.0077960063, -0.312574, -668484.1, 36998.58, 0.0, 10.000711, 9.999313 
2.5250912e+3, 2.3800771e+2, -699521.6, -762461.8, 44904.55, 0.09135418, -0.31184977, -676157.56, -68666.13, 0.0, 9.999988, 9.999142 
2.5250268e+3, 2.4800634e+2, -687368.7, -674880.06, 54698.94, 0.05840782, -0.34925112, -626070.1, -116565.3, 0.0, 9.999266, 9.999416 
2.5249624e+3, 2.5800508e+2, -690307.2, -615345.94, 59320.29, -0.013634181, -0.39636722, -582657.5, -171140.23, 0.0, 9.998528, 9.999509 
2.5248984e+3, 2.680055e+2, -653108.3, -444062.06, 57411.168, 0.009019226, -0.3384342, -429332.84, -115818.13, 0.0, 9.997669, 10.000424 
2.5248352e+3, 2.7800658e+2, -688778.3, -413380.1, 54782.613, 0.08353929, -0.24936984, -402882.78, -187377.67, 0.0, 9.996762, 10.000401 
2.5247708e+3, 2.8800717e+2, -634169.7, -266175.28, 24460.832, 0.111831166, -0.24211495, -264556.5, -147056.98, 0.0, 9.996163, 10.001026 
2.5247052e+3, 2.980076e+2, -623203.2, -213314.8, 33526.492, 0.049529348, -0.2804325, -210590.64, -191095.97, 0.0, 9.99558, 10.000999 
2.524641e+3, 3.0800682e+2, -735037.06, -173884.55, 65253.477, 0.020065181, -0.47032875, -166396.48, -166396.48, 0.0, 9.994181, 10.00161 
2.5245774e+3, 3.180102e+2, -689334.06, 145889.08, 3508.409, 0.099472225, -0.28492653, 145903.81, 145903.81, 0.0, 9.993231, 10.004253 
2.5358075e+3, 1.2809812e+2, -1114240.3, -1626890.1, -28888.686, -0.16963899, -0.22779144, -1112617.4, 571991.56, 0.27216446, 10.006817, 9.997462 
2.5357443e+3, 1.3809407e+2, -997816.06, -1579859.1, -15764.449, 0.06991784, -0.35116798, -997389.4, 589256.5, 0.19066273, 10.006615, 9.997078 
2.5356779e+3, 1.4809114e+2, -908392.3, -1523008.1, -16502.893, 0.015288274, -0.31685418, -907949.5, 580725.75, 0.11014912, 10.0061245, 9.997017 
2.5356105e+3, 1.580887e+2, -845402.44, -1447898.5, -5863.044, -0.09477239, -0.24580516, -845345.44, 545355.3, 0.04782353, 10.005512, 9.997156 
2.5355455e+3, 1.6808555e+2, -767457.56, -1257261.8, 14818.16, -0.050820883, -0.31147712, -767009.7, 525720.3, 0.013362129, 10.004753, 9.99816 
2.535481e+3, 1.7808245e+2, -801197.2, -1260770.4, 9450.967, 0.027857414, -0.41061604, -801002.9, 393754.9, 0.0016752151, 10.003955, 9.997847 
2.535415e+3, 1.8808061e+2, -782297.44, -1204848.6, -196.68127, 0.0129451705, -0.34717658, -782297.4, 314480.1, 0.000027817086, 10.003425, 9.997812 
2.535349e+3, 1.9807924e+2, -752347.94, -1139142.0, -3157.2332, -0.027873104, -0.24588001, -752322.2, 246471.3, 0.0, 10.002953, 9.99782 
2.5352842e+3, 2.0807675e+2, -708298.0, -988613.8, 14814.629, -0.026504291, -0.29242507, -707517.2, 193299.78, 0.0, 10.002245, 9.99852 
2.5352198e+3, 2.1807419e+2, -722110.94, -937990.0, 13427.9375, -0.012316211, -0.3819353, -721278.9, 81561.24, 0.0, 10.001447, 9.998581 
2.5351554e+3, 2.2807305e+2, -672053.5, -768396.5, 11112.41, 0.02540781, -0.37747577, -670788.4, 34062.297, 0.0, 10.000711, 9.999426 
2.5350907e+3, 2.3807257e+2, -691324.25, -746226.5, 17803.867, 0.069793776, -0.34556153, -686056.25, -79200.836, 0.0, 9.999987, 9.999256 
2.5350258e+3, 2.4807201e+2, -676964.06, -654529.44, 25746.605, 0.05289769, -0.31696662, -637662.7, -128801.0, 0.0, 9.999268, 9.999557 
2.5349608e+3, 2.5807157e+2, -677546.9, -591677.7, 28874.77, 0.011245181, -0.29826975, -582871.25, -172004.48, 0.0, 9.998536, 9.99967 
2.534896e+3, 2.680712e+2, -642472.1, -422758.7, 21387.814, 0.018551197, -0.33119372, -420696.06, -107825.96, 0.0, 9.997668, 10.000573 
2.5348315e+3, 2.7807117e+2, -685550.1, -408609.44, 24255.182, 0.056535758, -0.36989707, -406501.16, -191631.33, 0.0, 9.996766, 10.000434 
2.5347665e+3, 2.8807208e+2, -646863.06, -294854.13, 2660.1184, 0.066973925, -0.31547698, -294834.0, -177972.55, 0.0, 9.99617, 10.000829 
2.5347003e+3, 2.9807317e+2, -624036.56, -221482.94, -1980.9999, 0.025540488, -0.27014706, -221473.19, -202621.6, 0.0, 9.995604, 10.000934 
2.534637e+3, 3.0807373e+2, -719657.25, -138470.48, -796.8219, 0.19970606, -0.34183708, -138469.39, -138469.39, 0.0, 9.994163, 10.001863 
2.5345698e+3, 3.1807733e+2, -759157.4, -34975.395, 21001.531, 0.022883808, -0.135327, -34366.855, -34366.855, 0.0, 9.99334, 10.002982 
2.5458145e+3, 1.2816314e+2, -1071002.0, -1610641.4, 22716.477, -0.14910372, -0.28002083, -1070047.5, 613922.75, 0.24950728, 10.007032, 9.997493 
2.5457504e+3, 1.3815968e+2, -1030864.0, -1589787.1, -3551.9658, 0.06706399, -0.34922883, -1030841.44, 555160.75, 0.17382966, 10.006172, 9.997212 
2.5456834e+3, 1.4815687e+2, -961118.4, -1521496.0, -11964.904, 0.0005481763, -0.32680658, -960863.0, 527167.0, 0.09946237, 10.00553, 9.997311 
2.5456154e+3, 1.581544e+2, -901946.8, -1451376.8, -819.3684, -0.114304386, -0.28396124, -901945.6, 488109.28, 0.04244421, 10.004974, 9.99739 
2.54555e+3, 1.6815153e+2, -831618.56, -1281027.9, 21767.883, -0.0453853, -0.3331529, -830566.6, 461514.8, 0.0114790695, 10.004271, 9.998226 
2.5454846e+3, 1.7814876e+2, -859904.5, -1288026.4, 29435.986, 0.06430112, -0.40636826, -857890.06, 336216.6, 0.0013461964, 10.003548, 9.997855 
2.545418e+3, 1.8814677e+2, -819333.3, -1233779.3, 44749.457, 0.0243481, -0.34959987, -814556.6, 281571.63, 0.000018404051, 10.0032215, 9.997709 
2.5453517e+3, 1.9814518e+2, -746570.1, -1136394.0, 48440.94, -0.053484425, -0.2601892, -740640.9, 257506.08, 0.0, 10.002996, 9.997815 
2.5452864e+3, 2.0814288e+2, -693744.44, -960613.06, 66029.234, -0.02582873, -0.29840726, -678301.06, 221867.25, 0.0, 10.002259, 9.998703 
2.5452211e+3, 2.1814056e+2, -730560.2, -934087.8, 75359.51, 0.032622293, -0.37703702, -705694.9, 96493.54, 0.0, 10.00136, 9.998648 
2.545156e+3, 2.2813927e+2, -717701.44, -814088.2, 60763.508, 0.04300453, -0.3759364, -688339.6, 15861.678, 0.0, 10.0005045, 9.999209 
2.54509e+3, 2.3813854e+2, -742889.44, -778626.3, 47741.69, 0.041816264, -0.35039958, -709781.9, -103572.3, 0.0, 9.999671, 9.999182 
2.545025e+3, 2.4813813e+2, -685241.3, -632664.4, 60743.37, 0.040720023, -0.3165365, -592764.94, -84550.97, 0.0, 9.9991045, 9.9997835 
2.5449595e+3, 2.58138e+2, -657975.0, -562239.4, 64515.39, 0.03570917, -0.28800172, -529773.1, -119557.61, 0.0, 9.998589, 9.999845 
2.544894e+3, 2.6813757e+2, -611722.25, -401626.5, 45610.824, 0.027275678, -0.33420116, -392151.88, -79933.19, 0.0, 9.997857, 10.000625 
2.5448278e+3, 2.7813733e+2, -646888.1, -389124.72, 43464.97, 0.034980137, -0.3969159, -381992.84, -167772.92, 0.0, 9.997034, 10.000436 
2.5447622e+3, 2.881381e+2, -649356.0, -307531.7, 31604.125, 0.05563173, -0.349496, -304634.22, -188420.97, 0.0, 9.996206, 10.000722 
2.5446957e+3, 2.981392e+2, -666929.56, -260488.45, 24773.254, 0.04347232, -0.290513, -258984.05, -240780.17, 0.0, 9.99539, 10.000768 
2.544631e+3, 3.0814028e+2, -631126.44, -111413.57, -16023.36, 0.21577667, -0.28935897, -110920.016, -110920.016, 0.0, 9.994845, 10.001716 
2.5445625e+3, 3.181407e+2, -770428.9, -103571.086, 26274.887, -0.018862123, -0.3931985, -102537.43, -102537.43, 0.0, 9.99355, 10.0024 
2.555822e+3, 1.2822817e+2, -1088308.1, -1678697.8, -720.3409, -0.08666171, -0.4404678, -1088307.3, 595020.8, 0.22738059, 10.00702, 9.99687 
2.5557557e+3, 1.3822615e+2, -1040762.3, -1638371.3, -23304.02, -0.021447938, -0.3103166, -1039854.94, 545494.75, 0.1574852, 10.006157, 9.996888 
2.555688e+3, 1.4822283e+2, -935485.94, -1477165.1, -27152.787, -0.06822252, -0.34621283, -934128.25, 553254.06, 0.08918628, 10.005521, 9.997629 
2.5556204e+3, 1.5821947e+2, -884343.94, -1414066.3, -20075.357, -0.10918896, -0.42794755, -883584.2, 505831.25, 0.03735961, 10.004948, 9.997662 
2.555554e+3, 1.682179e+2, -821298.1, -1259648.4, -4198.332, -0.029080383, -0.36605132, -821257.94, 470172.16, 0.009757595, 10.004261, 9.998381 
2.555488e+3, 1.7821693e+2, -850310.56, -1270701.9, 9397.709, 0.06835942, -0.27214947, -850100.56, 343338.22, 0.0010661418, 10.003555, 9.997972 
2.5554213e+3, 1.88214e+2, -814267.4, -1225079.1, 38794.24, 0.028269822, -0.31732962, -810636.06, 284832.66, 0.000011845724, 10.003225, 9.99777 
2.5553545e+3, 1.982108e+2, -738503.8, -1116018.0, 34544.797, -0.043453336, -0.39725116, -735368.75, 262132.89, 0.0, 10.002977, 9.997967 
2.5552887e+3, 2.0820946e+2, -672103.6, -913875.06, 32650.62, 0.0076610083, -0.36708656, -667771.9, 231741.64, 0.0, 10.002248, 9.999032 
2.5552228e+3, 2.1820877e+2, -727902.1, -926578.75, 42937.293, 0.08725675, -0.31200016, -719019.75, 82498.36, 0.0, 10.001347, 9.998708 
2.5551564e+3, 2.2820716e+2, -754694.3, -891846.06, 29345.818, 0.05825836, -0.3108496, -748679.1, -45143.35, 0.0, 10.000505, 9.998677 
2.555089e+3, 2.3820548e+2, -759577.7, -816543.2, 20683.566, 0.0014594707, -0.32934868, -752859.94, -147305.06, 0.0, 9.999681, 9.9989195 
2.5550234e+3, 2.4820462e+2, -663678.44, -590313.5, 41029.418, 0.020834574, -0.3501384, -571959.44, -64396.945, 0.0, 9.999111, 10.000073 
2.554958e+3, 2.5820428e+2, -644638.56, -537781.0, 41132.625, 0.0551251, -0.36902538, -523781.8, -114217.57, 0.0, 9.998599, 10.00001 
2.5548914e+3, 2.6820457e+2, -615481.0, -411171.2, 13217.516, 0.03155273, -0.34548226, -410319.63, -98758.734, 0.0, 9.997862, 10.00056 
2.5548244e+3, 2.7820513e+2, -646496.2, -392843.28, 11296.133, 0.00950188, -0.3212236, -392341.22, -178786.1, 0.0, 9.997049, 10.000405 
2.5547582e+3, 2.8820524e+2, -649537.2, -308877.6, -1212.6621, 0.08336631, -0.34099662, -308873.28, -193318.28, 0.0, 9.996205, 10.000715 
2.5546917e+3, 2.982056e+2, -689894.94, -306667.4, 326.683, 0.11898733, -0.34743047, -306667.13, -289114.9, 0.0, 9.995379, 10.000458 
2.5546235e+3, 3.082061e+2, -685414.06, -235887.5, -40109.105, -0.00043004943, -0.33605415, -232336.8, -232336.8, 0.0, 9.99489, 10.000843 
2.5545573e+3, 3.1820613e+2, -685840.9, 81158.766, -70688.27, 0.122783706, -0.42336234, 87619.125, 87619.125, 0.0, 9.993527, 10.003673 
2.5658292e+3, 1.2829557e+2, -1039674.25, -1675703.0, 27037.361, -0.072351076, -0.47382683, -1038526.94, 644138.6, 0.20597221, 10.0073595, 9.996736 
2.5657615e+3, 1.3829377e+2, -1016605.56, -1638411.9, 32317.88, -0.051978018, -0.3046877, -1014930.4, 569755.56, 0.14175266, 10.006304, 9.996818 
2.5656933e+3, 1.4829049e+2, -939868.6, -1478656.3, 32931.215, -0.07488866, -0.33806297, -937863.3, 548855.6, 0.07938955, 10.005432, 9.997659 
2.5656253e+3, 1.5828702e+2, -922051.9, -1431730.1, 26903.072, -0.07452356, -0.42934152, -920635.75, 468117.13, 0.032597557, 10.004655, 9.997681 
2.565558e+3, 1.6828534e+2, -834588.7, -1269205.4, 34550.348, -0.021452086, -0.37770826, -831859.2, 458909.5, 0.0082006715, 10.004178, 9.998352 
2.5654912e+3, 1.7828427e+2, -813175.75, -1246992.9, 38424.617, 0.034047436, -0.29089808, -809798.6, 382979.66, 0.0008310689, 10.003788, 9.99802 
2.5654244e+3, 1.882815e+2, -807254.25, -1199473.9, 74287.195, 0.020302588, -0.33295596, -793655.56, 301150.5, 0.000007464854, 10.003181, 9.997965 
2.5653574e+3, 1.982785e+2, -797540.75, -1129943.3, 72382.4, -0.0076566017, -0.41034997, -782463.06, 214373.53, 0.0, 10.002513, 9.998094 
2.5652906e+3, 2.0827712e+2, -730533.1, -945354.25, 45067.594, 0.019163666, -0.3856701, -721461.44, 177387.7, 0.0, 10.001866, 9.998997 
2.565224e+3, 2.1827637e+2, -745234.7, -934383.06, 32201.52, 0.059222568, -0.33355498, -739902.9, 60952.133, 0.0, 10.001231, 9.998708 
2.5651562e+3, 2.2827494e+2, -732138.6, -873686.4, 47518.68, 0.039980303, -0.31504515, -717666.0, -14795.207, 0.0, 10.000633, 9.998738 
2.565089e+3, 2.3827352e+2, -706286.94, -783621.5, 78175.17, 0.008538451, -0.3134946, -657738.9, -52851.273, 0.0, 10.000022, 9.99898 
2.5650224e+3, 2.4827254e+2, -663692.44, -586020.9, 93180.81, 0.03358045, -0.3513003, -523906.75, -17010.514, 0.0, 9.999098, 10.000107 
2.5649562e+3, 2.5827193e+2, -719303.0, -572607.3, 75149.83, 0.06859263, -0.39619723, -540943.7, -132043.8, 0.0, 9.998086, 10.000014 
2.564889e+3, 2.682723e+2, -687652.44, -452594.94, 44693.586, 0.03484064, -0.3605758, -444383.78, -133487.61, 0.0, 9.997399, 10.000495 
2.564821e+3, 2.7827305e+2, -683556.4, -408605.8, 42353.39, 0.0056158574, -0.31414104, -402229.56, -189340.28, 0.0, 9.99679, 10.000421 
2.5647548e+3, 2.882731e+2, -613525.9, -269499.06, 43287.59, 0.10286324, -0.3492038, -264135.97, -149247.11, 0.0, 9.996364, 10.000907 
2.5646874e+3, 2.9827344e+2, -608424.0, -260501.25, 59814.438, 0.15595204, -0.3770111, -250505.22, -233619.47, 0.0, 9.995916, 10.000513 
2.5646168e+3, 3.082737e+2, -719285.6, -286598.5, 56008.6, -0.14260976, -0.36990768, -279466.1, -279466.1, 0.0, 9.994805, 10.000536 
2.5645518e+3, 3.1827614e+2, -613985.5, 203084.39, -610.6565, 0.22966489, -0.19310014, 203084.84, 203084.84, 0.0, 9.9936495, 10.00445 
2.575836e+3, 1.2836474e+2, -1021511.5, -1650332.6, -2608.8025, -0.09855055, -0.41760147, -1021500.7, 660487.0, 0.18547368, 10.007252, 9.996996 
2.5757676e+3, 1.3836242e+2, -1005192.6, -1628031.8, 3448.0488, -0.043808095, -0.32317555, -1005173.56, 578839.0, 0.12675725, 10.006274, 9.9969015 
2.5756988e+3, 1.4835954e+2, -944956.44, -1507676.4, 7438.342, -0.038662095, -0.3044239, -944858.1, 541183.94, 0.070140935, 10.005452, 9.997448 
2.5756302e+3, 1.5835664e+2, -929006.3, -1459323.4, 6376.7065, -0.021011366, -0.3175665, -928929.6, 459141.5, 0.0281851, 10.004686, 9.9974785 
2.575562e+3, 1.6835366e+2, -843538.3, -1295577.0, 23716.463, -0.02334995, -0.3759009, -842297.44, 447801.4, 0.0068104547, 10.004202, 9.998161 
2.5754938e+3, 1.7835096e+2, -814260.5, -1250658.4, 23343.16, -0.036558077, -0.43826875, -813015.44, 379108.0, 0.0006366626, 10.00379, 9.997996 
2.575427e+3, 1.8834932e+2, -787532.8, -1157728.9, 50689.51, 0.0011597442, -0.385952, -780717.56, 313422.47, 0.0000046197197, 10.003175, 9.998257 
2.5753602e+3, 1.9834809e+2, -795318.4, -1121290.1, 48989.15, 0.047972474, -0.31188765, -788115.2, 208038.38, 0.0, 10.002492, 9.998165 
2.5752923e+3, 2.0834574e+2, -758638.4, -1001990.1, 22085.14, 0.008100509, -0.36072809, -756650.3, 141525.98, 0.0, 10.001855, 9.998616 
2.5752237e+3, 2.1834335e+2, -750395.6, -943303.7, 11011.1875, -0.05106184, -0.43807748, -749769.2, 50429.62, 0.0, 10.001219, 9.998654 
2.5751564e+3, 2.2834268e+2, -689788.5, -786229.75, 26463.855, -0.009512886, -0.38429412, -683003.94, 19202.46, 0.0, 10.000631, 9.999342 
2.575089e+3, 2.3834263e+2, -682813.25, -735269.56, 50623.605, 0.058796767, -0.3021474, -652026.75, -47818.29, 0.0, 10.000019, 9.999314 
2.5750217e+3, 2.483418e+2, -680268.06, -620421.44, 52933.543, 0.07553837, -0.31919244, -589538.75, -83322.96, 0.0, 9.999095, 9.999873 
2.574954e+3, 2.5834098e+2, -729276.9, -595884.56, 40813.555, 0.06860939, -0.36657798, -584387.9, -176165.11, 0.0, 9.998094, 9.999853 
2.574886e+3, 2.6834074e+2, -693076.56, -464901.94, 20352.332, 0.037194747, -0.3818107, -463100.78, -152875.64, 0.0, 9.997398, 10.000414 
2.5748178e+3, 2.7834088e+2, -678926.75, -400296.34, 22000.166, 0.021549245, -0.38620973, -398569.97, -186346.13, 0.0, 9.996791, 10.00048 
2.5747508e+3, 2.8834167e+2, -585645.7, -214734.55, 27965.492, 0.10564569, -0.37447754, -212637.9, -98422.77, 0.0, 9.996373, 10.001281 
2.574683e+3, 2.983428e+2, -568571.8, -187223.53, 33268.586, 0.1344261, -0.36434808, -184342.97, -168139.9, 0.0, 9.995953, 10.001001 
2.574611e+3, 3.0834326e+2, -675045.0, -195404.5, 9935.982, -0.17476524, -0.3953316, -195198.77, -195198.77, 0.0, 9.994803, 10.001166 
2.574545e+3, 3.183451e+2, -709764.7, -42.739353, -61293.273, 0.21721002, -0.31156337, 5211.7905, 5211.7905, 0.0, 9.993657, 10.003057 
2.585843e+3, 1.2843508e+2, -1053563.4, -1690726.8, 45924.727, -0.07396075, -0.37946853, -1050270.3, 631026.4, 0.16607822, 10.006931, 9.996835 
2.5857732e+3, 1.3843136e+2, -1004171.5, -1641573.5, 34906.277, -0.06581917, -0.40761796, -1002265.6, 581069.3, 0.112629965, 10.006247, 9.996824 
2.5857037e+3, 1.4842872e+2, -903941.4, -1485024.0, 52582.8, -0.05815367, -0.3613795, -899221.44, 586140.3, 0.06150971, 10.005702, 9.997483 
2.585635e+3, 1.584265e+2, -855533.7, -1430281.8, 67447.59, -0.023270082, -0.30813628, -847724.7, 539659.6, 0.024145594, 10.00522, 9.997419 
2.585566e+3, 1.6842325e+2, -804787.9, -1305689.1, 88313.41, -0.028337184, -0.37302023, -789673.5, 499741.78, 0.005586803, 10.004593, 9.997903 
2.5854975e+3, 1.7842e+2, -808173.75, -1264313.9, 79073.04, -0.04994761, -0.46211076, -794855.1, 396590.56, 0.00047878033, 10.003905, 9.997847 
2.5854295e+3, 1.884185e+2, -808554.94, -1161086.4, 84868.805, -0.01048765, -0.3974691, -789187.5, 304273.9, 0.0000028007903, 10.003005, 9.998314 
2.5853622e+3, 1.9841751e+2, -855623.44, -1148172.1, 70299.42, 0.04424684, -0.29988313, -839607.3, 155864.86, 0.0, 10.002071, 9.998181 
2.5852937e+3, 2.0841502e+2, -827336.44, -1044221.9, 62656.324, 0.015393165, -0.35608453, -810536.9, 86959.81, 0.0, 10.001427, 9.99853 
2.5852245e+3, 2.1841241e+2, -800166.8, -965004.25, 69598.45, -0.03381714, -0.45056677, -774711.56, 24810.607, 0.0, 10.000874, 9.99867 
2.5851566e+3, 2.2841173e+2, -712205.1, -775197.56, 68395.25, -0.00665903, -0.40836114, -668402.44, 33126.527, 0.0, 10.00039, 9.999531 
2.585089e+3, 2.3841177e+2, -692398.2, -727493.9, 60205.523, 0.045836337, -0.33194017, -647235.3, -43706.426, 0.0, 9.999905, 9.999421 
2.5850207e+3, 2.4841115e+2, -666748.25, -620928.94, 56756.49, 0.0714327, -0.32846257, -582632.8, -77097.9, 0.0, 9.999222, 9.999807 
2.5849524e+3, 2.584105e+2, -677615.56, -570615.7, 57941.824, 0.081051655, -0.35154438, -545251.9, -137710.88, 0.0, 9.998452, 9.999852 
2.5848836e+3, 2.6841012e+2, -654740.56, -435918.66, 53504.17, 0.05628162, -0.38504162, -423536.94, -113992.51, 0.0, 9.9976225, 10.000503 
2.5848147e+3, 2.784101e+2, -678905.56, -395274.97, 68535.14, 0.046554904, -0.4160605, -379582.66, -168038.13, 0.0, 9.996775, 10.00052 
2.5847465e+3, 2.8841102e+2, -622533.94, -239148.08, 57803.574, 0.091585286, -0.38902807, -230622.55, -117087.82, 0.0, 9.996152, 10.001219 
2.584678e+3, 2.9841226e+2, -614793.1, -182796.97, 19357.854, 0.07068132, -0.36220607, -181931.28, -166409.97, 0.0, 9.995521, 10.00124 
2.584606e+3, 3.084133e+2, -651973.7, -92321.8, -18847.234, -0.094487645, -0.40029463, -91687.805, -91687.805, 0.0, 9.994574, 10.001982 
2.5845385e+3, 3.1841394e+2, -686082.94, -114597.984, 6257.807, 0.16819014, -0.48895234, -114529.48, -114529.48, 0.0, 9.994374, 10.001919 
2.5958502e+3, 1.2850636e+2, -1071321.4, -1758599.0, 19596.396, -0.026829809, -0.35105002, -1070763.0, 609831.94, 0.14792217, 10.006905, 9.996373 
2.5957787e+3, 1.3850062e+2, -1014001.7, -1676837.6, 11932.631, -0.117631026, -0.5428311, -1013787.0, 568866.25, 0.099474594, 10.006216, 9.996596 
2.5957087e+3, 1.4849812e+2, -888756.06, -1458693.1, 33471.008, -0.12210431, -0.48910654, -886797.1, 597880.94, 0.05355356, 10.005674, 9.997688 
2.5956395e+3, 1.5849665e+2, -857222.75, -1428967.5, 45591.945, -0.073923625, -0.37832066, -853610.0, 533082.6, 0.02049637, 10.0051775, 9.997451 
2.5955704e+3, 1.6849396e+2, -830216.6, -1354776.1, 61870.2, -0.03755988, -0.36655292, -823018.06, 465701.63, 0.0045267097, 10.004568, 9.99758 
2.5955015e+3, 1.7849115e+2, -829769.44, -1306478.5, 50209.477, -0.017966133, -0.38178185, -824538.5, 366209.6, 0.00035322845, 10.003891, 9.997566 
2.5954324e+3, 1.8848881e+2, -820642.2, -1187194.9, 49279.28, -0.018984526, -0.37538582, -814132.7, 278639.13, 0.0000016193491, 10.003005, 9.9981365 
2.5953636e+3, 1.9848682e+2, -858461.7, -1155289.0, 40315.047, -0.017566038, -0.36554122, -853083.56, 141708.75, 0.0, 10.002073, 9.998134 
2.595295e+3, 2.0848498e+2, -813083.2, -1018512.9, 41918.25, 0.039384115, -0.36820745, -804858.94, 91951.734, 0.0, 10.001439, 9.998703 
2.5952265e+3, 2.1848336e+2, -796512.1, -958961.44, 50797.332, 0.09891299, -0.37829626, -781935.9, 16890.832, 0.0, 10.000876, 9.998712 
2.5951573e+3, 2.28482e+2, -727635.25, -807876.5, 51311.523, 0.04129814, -0.39052334, -702621.1, -1781.5865, 0.0, 10.00039, 9.999308 
2.5950876e+3, 2.3848096e+2, -699948.0, -744611.3, 38879.285, -0.036323268, -0.40201348, -677443.25, -74593.94, 0.0, 9.9999075, 9.999304 
2.5950193e+3, 2.4848054e+2, -660453.94, -609166.44, 27168.295, 0.021335885, -0.37911072, -597450.9, -92596.96, 0.0, 9.999223, 9.999889 
2.5949508e+3, 2.584805e+2, -666721.6, -550543.0, 27065.076, 0.10255408, -0.35229754, -544547.3, -137692.03, 0.0, 9.998459, 9.999989 
2.594881e+3, 2.684805e+2, -636973.5, -399400.16, 19686.191, 0.08855418, -0.36825207, -397779.94, -88925.695, 0.0, 9.997622, 10.000755 
2.5948116e+3, 2.784807e+2, -678153.3, -395806.13, 39836.703, 0.069908954, -0.39684716, -390293.2, -179442.13, 0.0, 9.99678, 10.000515 
2.5947422e+3, 2.8848103e+2, -660690.2, -318392.0, 34308.125, 0.06260828, -0.39250976, -314987.22, -202138.92, 0.0, 9.996147, 10.000679 
2.594672e+3, 2.984817e+2, -618135.8, -186927.02, -11676.784, -0.023035128, -0.37730846, -186611.05, -171768.8, 0.0, 9.995505, 10.001222 
2.5946024e+3, 3.0848378e+2, -589801.1, 39754.58, -59917.324, 0.072045244, -0.37781802, 45406.41, 45406.41, 0.0, 9.994555, 10.002901 
2.5945318e+3, 3.1848574e+2, -660972.44, -87174.7, 207345.31, 0.097442485, -0.4025139, -20091.871, -20091.871, 0.0, 9.994469, 10.0020685 
2.605857e+3, 1.2857673e+2, -1009681.6, -1722709.0, -13963.621, -0.032949828, -0.39222556, -1009408.25, 670497.3, 0.13105226, 10.00725, 9.996457 
2.6057848e+3, 1.3857213e+2, -1005990.5, -1671374.6, 7082.8, -0.10695061, -0.47394124, -1005915.1, 576037.44, 0.08733898, 10.006197, 9.996643 
2.605714e+3, 1.4856912e+2, -926873.44, -1485887.6, 28872.102, -0.12272956, -0.46921822, -925386.25, 558595.3, 0.04630293, 10.005404, 9.997619 
2.605644e+3, 1.5856677e+2, -924515.4, -1467868.1, 22943.45, -0.08892514, -0.44000182, -923548.25, 462455.5, 0.017245114, 10.004722, 9.997401 
2.6055744e+3, 1.685643e+2, -888358.2, -1384455.8, 49439.285, -0.04136416, -0.4029092, -883479.25, 404549.66, 0.003624247, 10.004174, 9.997563 
2.605505e+3, 1.7856197e+2, -864536.94, -1324565.3, 52467.777, -0.003706074, -0.36868382, -858628.7, 331424.66, 0.0002556899, 10.003661, 9.997551 
2.6054353e+3, 1.8855944e+2, -818287.0, -1188680.9, 59011.766, -0.011009062, -0.37772235, -809112.4, 282966.4, 0.00000086705097, 10.003038, 9.998108 
2.6053655e+3, 1.9855712e+2, -814221.06, -1136523.6, 60937.266, -0.021206768, -0.3977897, -803084.56, 191017.86, 0.0, 10.002395, 9.998105 
2.6052964e+3, 2.0855549e+2, -762504.5, -998501.44, 57669.94, 0.03533789, -0.3737161, -749165.8, 146953.33, 0.0, 10.001811, 9.998659 
2.6052275e+3, 2.1855423e+2, -744700.3, -934393.5, 49920.33, 0.10068656, -0.34299734, -732365.2, 65766.98, 0.0, 10.001237, 9.998705 
2.6051575e+3, 2.2855271e+2, -708706.8, -793677.44, 61304.37, 0.043335028, -0.3737479, -676605.06, 23541.031, 0.0, 10.000501, 9.9993515 
2.6050872e+3, 2.3855138e+2, -726692.94, -750447.25, 64727.98, -0.035012554, -0.41950792, -672761.44, -70603.28, 0.0, 9.999699, 9.999362 
2.605018e+3, 2.4855098e+2, -716748.7, -630609.56, 50552.22, 0.021519365, -0.40010747, -607267.44, -103104.64, 0.0, 9.998817, 9.999935 
2.604949e+3, 2.5855103e+2, -741957.06, -586472.4, 49873.777, 0.10442623, -0.36494893, -571849.9, -165686.52, 0.0, 9.997946, 9.999987 
2.6048785e+3, 2.6855117e+2, -637489.44, -407903.47, 29567.654, 0.09108643, -0.36225358, -404156.72, -95995.18, 0.0, 9.997658, 10.000677 
2.6048082e+3, 2.7855146e+2, -587234.1, -358288.34, 22999.201, 0.07398497, -0.3743184, -356000.78, -145842.94, 0.0, 9.997437, 10.000454 
2.6047385e+3, 2.8855154e+2, -609976.4, -297567.38, 32873.066, 0.06715569, -0.3868584, -294145.8, -181988.72, 0.0, 9.996518, 10.00064 
2.6046675e+3, 2.9855198e+2, -631735.06, -198424.86, 19164.025, -0.008869938, -0.392512, -197578.94, -183425.66, 0.0, 9.995442, 10.001168 
2.604597e+3, 3.0855396e+2, -513169.66, 71367.375, -75574.625, 0.085636586, -0.39323342, 80980.31, 80980.31, 0.0, 9.995113, 10.002845 
2.604526e+3, 3.1855696e+2, -645663.4, -67796.85, 181449.4, 0.094720066, -0.31075954, -15546.411, -15546.411, 0.0, 9.994528, 10.002171 
2.6158634e+3, 1.2864658e+2, -988614.8, -1659795.8, -51316.883, -0.0785503, -0.48054853, -984713.94, 694509.6, 0.115458444, 10.00707, 9.996987 
2.6157913e+3, 1.3864556e+2, -987078.56, -1640283.3, -25391.096, -0.05908445, -0.25335303, -986093.06, 595142.7, 0.07622145, 10.006178, 9.996865 
2.6157194e+3, 1.486415e+2, -941423.1, -1533644.0, 3122.2007, -0.08189295, -0.33918026, -941406.7, 541867.44, 0.03975619, 10.005433, 9.99728 
2.6156485e+3, 1.5863697e+2, -931331.56, -1489089.9, 424.00677, -0.07970963, -0.4951133, -931331.25, 453984.8, 0.014385221, 10.004736, 9.9972515 
2.6155785e+3, 1.6863444e+2, -873135.44, -1354595.5, 31105.846, -0.042871542, -0.47333628, -871134.1, 416206.94, 0.0028696826, 10.004175, 9.997769 
2.6155084e+3, 1.786326e+2, -854702.75, -1300256.4, 31839.537, -0.009526502, -0.41043878, -852438.94, 336921.2, 0.0001820931, 10.003641, 9.997729 
2.615438e+3, 1.8863042e+2, -811489.6, -1175381.5, 34828.18, 0.009444329, -0.4002299, -808186.2, 283196.1, 0.00000042407203, 10.003038, 9.998201 
2.615368e+3, 1.9862832e+2, -816812.9, -1142927.1, 38431.234, 0.023750974, -0.40247172, -812345.06, 181058.38, 0.0, 10.002395, 9.998063 
2.6152977e+3, 2.0862655e+2, -782261.4, -1038989.25, 37520.848, 0.002400639, -0.37311178, -776890.06, 118532.26, 0.0, 10.001805, 9.998385 
2.6152274e+3, 2.1862504e+2, -752242.75, -946064.8, 28021.914, -0.025266988, -0.34222502, -748272.75, 49165.8, 0.0, 10.001216, 9.998637 
2.6151574e+3, 2.2862387e+2, -689189.9, -752322.9, 32669.617, 0.0025162394, -0.3580613, -675327.9, 24121.127, 0.0, 10.000494, 9.9996395 
2.6150873e+3, 2.3862295e+2, -713092.06, -723332.56, 32916.63, 0.044569623, -0.3879947, -684899.8, -83443.54, 0.0, 9.9997, 9.99955 
2.615017e+3, 2.4862237e+2, -717489.5, -632022.75, 14618.401, 0.06757394, -0.39234197, -629591.56, -126129.5, 0.0, 9.998815, 9.9999275 
2.6149464e+3, 2.5862208e+2, -752051.06, -609879.75, 25013.268, 0.07738215, -0.38908282, -605607.4, -200141.66, 0.0, 9.997952, 9.999825 
2.6148757e+3, 2.6862204e+2, -667917.3, -473446.28, 22737.217, 0.06312994, -0.36785993, -470823.25, -163356.1, 0.0, 9.9976635, 10.000226 
2.6148054e+3, 2.7862224e+2, -592821.1, -374846.13, 2681.2878, 0.06056618, -0.3477341, -374813.16, -165347.02, 0.0, 9.997454, 10.000334 
2.614735e+3, 2.8862253e+2, -575955.4, -229200.1, -13278.043, 0.09951268, -0.37114102, -228692.39, -117230.47, 0.0, 9.996524, 10.001108 
2.6146638e+3, 2.9862303e+2, -642545.56, -224324.64, -12261.478, 0.08625429, -0.4065794, -223965.47, -210510.47, 0.0, 9.995453, 10.000988 
2.6145905e+3, 3.0862358e+2, -598099.94, -112759.94, -83758.84, -0.023073737, -0.45039815, -98711.664, -98711.664, 0.0, 9.995143, 10.001568 
2.6145208e+3, 3.1862533e+2, -694620.7, -173357.92, -13210.835, 0.1377701, -0.3857213, -173023.31, -173023.31, 0.0, 9.994523, 10.001458 
2.625869e+3, 1.2871812e+2, -1142468.8, -1718465.1, -1125.0955, -0.14008889, -0.46782395, -1142466.6, 536055.9, 0.10111036, 10.005681, 9.99724 
2.6257977e+3, 1.3871694e+2, -916853.4, -1594267.9, -3313.0378, -0.023729788, -0.27838692, -916837.2, 663698.7, 0.06608859, 10.00659, 9.996983 
2.6257253e+3, 1.4871305e+2, -873765.7, -1515711.4, 9805.57, -0.050884202, -0.33899623, -873615.94, 608956.9, 0.033884287, 10.00596, 9.997145 
2.625653e+3, 1.5870875e+2, -900310.6, -1477099.8, 21227.105, -0.07484941, -0.46181375, -899530.5, 485083.0, 0.011894725, 10.004961, 9.997222 
2.6255822e+3, 1.6870613e+2, -856467.44, -1329677.4, 57888.82, -0.049368057, -0.4586531, -849488.7, 437150.13, 0.002248928, 10.004223, 9.997914 
2.6255116e+3, 1.787041e+2, -858315.4, -1291131.5, 53471.086, -0.022884998, -0.4248012, -851807.3, 336851.34, 0.00012833992, 10.003576, 9.99782 
2.625441e+3, 1.8870193e+2, -819366.7, -1180847.6, 48018.676, -0.00063380395, -0.41368994, -813096.7, 277584.03, 0.00000019125741, 10.002998, 9.99818 
2.62537e+3, 1.9869992e+2, -807063.44, -1128883.0, 42643.65, 0.021586314, -0.40705884, -801508.7, 191192.69, 0.0, 10.002426, 9.998142 
2.625299e+3, 2.086982e+2, -785605.5, -1015114.8, 66390.695, -0.005519985, -0.3911153, -767784.3, 126934.65, 0.0, 10.001676, 9.99861 
2.625228e+3, 2.1869671e+2, -793648.25, -954094.2, 87135.07, -0.039897352, -0.37692437, -755430.3, 41303.594, 0.0, 10.000887, 9.998737 
2.6251575e+3, 2.2869556e+2, -738831.0, -791682.0, 73640.47, 0.008140302, -0.38331777, -687018.25, 11726.55, 0.0, 10.000223, 9.999497 
2.6250872e+3, 2.3869467e+2, -732931.06, -740096.44, 45009.363, 0.078123175, -0.39564827, -691362.0, -90609.42, 0.0, 9.999598, 9.999481 
2.625016e+3, 2.486941e+2, -670511.06, -603190.56, 24870.11, 0.086519, -0.39931276, -594999.5, -92241.42, 0.0, 9.999113, 9.99998 
2.6249442e+3, 2.5869378e+2, -661156.44, -572984.56, 42928.29, 0.074123904, -0.40110564, -555536.7, -150775.06, 0.0, 9.9986105, 9.999759 
2.6248732e+3, 2.6869357e+2, -661612.4, -501638.06, 55877.15, 0.056274652, -0.37583977, -484053.7, -177287.84, 0.0, 9.997846, 9.999943 
2.6248026e+3, 2.7869362e+2, -664132.1, -418517.2, 40768.613, 0.059485216, -0.34855437, -411927.0, -203159.17, 0.0, 9.997009, 10.000245 
2.6247314e+3, 2.88694e+2, -571587.94, -199108.39, 5764.335, 0.11369789, -0.37305114, -199019.2, -88257.414, 0.0, 9.996437, 10.001355 
2.6246595e+3, 2.9869464e+2, -582091.2, -206800.27, 1206.5729, 0.11474782, -0.41208947, -206796.39, -194043.97, 0.0, 9.995919, 10.000882 
2.624586e+3, 3.0869508e+2, -595246.4, -187145.69, -22054.852, -0.007378286, -0.41815442, -185957.25, -185957.25, 0.0, 9.995493, 10.000886 
2.6245153e+3, 3.1869504e+2, -623500.3, -121438.484, 38149.656, 0.13870977, -0.48113316, -118556.195, -118556.195, 0.0, 9.994945, 10.001607 
2.6358736e+3, 1.2879097e+2, -1129384.3, -1710692.3, 31848.469, -0.22107472, -0.387883, -1127644.5, 550162.2, 0.087968774, 10.005706, 9.997279 
2.635804e+3, 1.38787e+2, -928349.0, -1602166.8, 4905.7236, -0.0043936404, -0.48088863, -928313.3, 651533.25, 0.05689556, 10.0064535, 9.996993 
2.635731e+3, 1.4878424e+2, -880773.25, -1521183.0, -28534.535, -0.030448742, -0.43048936, -879504.4, 602370.0, 0.028648334, 10.005881, 9.997149 
2.6356578e+3, 1.587819e+2, -898422.6, -1472334.5, -11202.194, -0.07746363, -0.35782197, -898204.0, 485693.78, 0.009745057, 10.004943, 9.997266 
2.635586e+3, 1.687791e+2, -852262.7, -1319800.5, 34254.13, -0.06277846, -0.37897956, -849766.4, 436157.9, 0.0017459076, 10.004213, 9.997989 
2.6355147e+3, 1.7877638e+2, -862409.1, -1295194.3, 31507.76, -0.046339087, -0.41985717, -860127.3, 327822.47, 0.0000901775, 10.003553, 9.997805 
2.6354432e+3, 1.8877402e+2, -833805.6, -1205732.5, 29113.627, -0.03887608, -0.41842914, -831540.44, 258433.78, 0.00000008629741, 10.002972, 9.998025 
2.6353717e+3, 1.9877192e+2, -801366.8, -1108788.5, 21046.58, -0.027336339, -0.41030225, -799932.6, 192063.52, 0.0, 10.002387, 9.998301 
2.6353005e+3, 2.0877038e+2, -739027.9, -917861.5, 37151.98, 0.008592617, -0.42642346, -731616.8, 162392.63, 0.0, 10.001672, 9.999281 
2.6352292e+3, 2.1876912e+2, -777278.06, -922981.7, 59766.395, 0.044469345, -0.4488373, -755899.25, 40120.23, 0.0, 10.000895, 9.998949 
2.635158e+3, 2.2876772e+2, -778144.44, -874716.4, 49940.887, 0.053812593, -0.4470744, -756963.7, -58929.63, 0.0, 10.000227, 9.998927 
2.6350865e+3, 2.387665e+2, -754646.7, -786369.8, 23482.111, 0.059293564, -0.44009304, -742171.0, -142123.63, 0.0, 9.999599, 9.999165 
2.6350147e+3, 2.4876614e+2, -662715.44, -588352.25, 6541.2437, 0.078493334, -0.4205497, -587781.25, -85730.08, 0.0, 9.999116, 10.000083 
2.6349428e+3, 2.587661e+2, -657122.9, -568871.7, 19384.809, 0.090908475, -0.40015772, -564801.5, -160749.92, 0.0, 9.998625, 9.999782 
2.6348707e+3, 2.6876572e+2, -669495.7, -519160.47, 22018.166, 0.06717274, -0.3866184, -516002.03, -209944.08, 0.0, 9.997848, 9.999824 
2.6347992e+3, 2.7876544e+2, -668095.25, -428473.75, 12343.649, 0.05962751, -0.37889433, -427839.56, -219776.25, 0.0, 9.997014, 10.000176 
2.6347277e+3, 2.8876594e+2, -570948.6, -198228.16, -14092.906, 0.11119313, -0.39451364, -197696.06, -87638.875, 0.0, 9.996435, 10.001364 
2.6346546e+3, 2.9876688e+2, -579836.4, -202640.11, -16326.963, 0.0911524, -0.40230122, -201934.7, -189889.28, 0.0, 9.995918, 10.000913 
2.6345822e+3, 3.0876863e+2, -589110.8, -183580.95, -36557.105, 0.100885235, -0.2820629, -180311.81, -180311.81, 0.0, 9.995524, 10.000899 
2.6345098e+3, 3.1876746e+2, -506173.9, 116521.83, 87371.375, 0.1088716, -0.48267427, 128548.74, 128548.74, 0.0, 9.994983, 10.003216 
2.6458794e+3, 1.2886299e+2, -1029528.44, -1661871.6, 44386.664, -0.19889224, -0.4172368, -1026427.94, 650671.44, 0.075981244, 10.00638, 9.997299 
2.6458097e+3, 1.3885927e+2, -1089371.0, -1675688.4, 14810.172, -0.03162745, -0.4886737, -1088997.1, 490139.75, 0.048598155, 10.005201, 9.997093 
2.645736e+3, 1.488567e+2, -995725.1, -1553228.4, -10783.876, -0.053634927, -0.43711013, -995516.6, 485646.5, 0.02401158, 10.004948, 9.997375 
2.6456624e+3, 1.5885457e+2, -890419.25, -1445807.3, 11782.43, -0.079904795, -0.36506978, -890169.4, 493015.78, 0.007907442, 10.004899, 9.997465 
2.64559e+3, 1.6885187e+2, -857039.6, -1306232.5, 53811.473, -0.052561503, -0.39032596, -850683.2, 434526.94, 0.0013442318, 10.004116, 9.998126 
2.6455182e+3, 1.7884925e+2, -908852.1, -1300807.1, 58191.066, -0.027106715, -0.4358562, -900395.3, 286838.75, 0.00006369034, 10.003168, 9.997949 
2.6454458e+3, 1.8884706e+2, -898883.8, -1221058.3, 76944.17, -0.03466868, -0.4278692, -881450.75, 207805.89, 0.000000036839044, 10.002461, 9.998161 
2.6453736e+3, 1.9884513e+2, -873876.8, -1135892.1, 85078.81, -0.040224724, -0.4126201, -848674.94, 142601.95, 0.0, 10.001862, 9.998364 
2.645302e+3, 2.0884345e+2, -754112.44, -933040.3, 66785.96, 0.0048505873, -0.4392361, -731933.4, 161358.4, 0.0, 10.001607, 9.999206 
2.6452303e+3, 2.1884201e+2, -707521.0, -891055.56, 37959.285, 0.059065856, -0.47306097, -699980.0, 95323.72, 0.0, 10.001386, 9.998929 
2.6451582e+3, 2.2884068e+2, -714997.94, -839186.1, 46993.816, 0.06427217, -0.46696055, -699219.75, -1902.2396, 0.0, 10.000642, 9.99897 
2.645086e+3, 2.3883957e+2, -730163.0, -774295.5, 65133.18, 0.06274423, -0.45238307, -683459.7, -84129.94, 0.0, 9.999771, 9.999163 
2.6450133e+3, 2.4883913e+2, -662570.0, -597983.9, 51966.746, 0.079891, -0.43484044, -569093.75, -67759.1, 0.0, 9.999162, 9.999992 
2.6449412e+3, 2.5883898e+2, -662951.1, -573601.3, 49279.953, 0.09394356, -0.41684642, -551760.4, -148424.08, 0.0, 9.998597, 9.999761 
2.6448688e+3, 2.688387e+2, -629712.1, -490431.2, 57227.625, 0.07335327, -0.3952946, -469934.0, -164592.78, 0.0, 9.998082, 9.999907 
2.6447964e+3, 2.7883855e+2, -595709.3, -401392.8, 61741.047, 0.07315229, -0.38084495, -383435.13, -176089.9, 0.0, 9.997545, 10.000107 
2.644724e+3, 2.888387e+2, -510247.34, -206327.47, 20782.27, 0.10336591, -0.40046194, -204912.94, -95570.11, 0.0, 9.997017, 10.001026 
2.6446503e+3, 2.9883933e+2, -522884.34, -199600.52, -11231.082, 0.055641897, -0.40989858, -199210.8, -187875.36, 0.0, 9.99642, 10.0006895 
2.6445782e+3, 3.088411e+2, -607686.4, -201650.58, -45314.24, 0.16650294, -0.2769527, -196654.89, -196654.89, 0.0, 9.995438, 10.000816 
2.6445043e+3, 3.1884027e+2, -487083.22, 181643.44, 98478.63, 0.11068064, -0.44163033, 195844.13, 195844.13, 0.0, 9.994887, 10.003702 
2.6558864e+3, 1.2893467e+2, -1025306.75, -1658946.8, 1538.7771, -0.116040364, -0.5146504, -1025303.0, 651092.9, 0.065081805, 10.006344, 9.997332 
2.6558137e+3, 1.389333e+2, -1076786.9, -1653226.4, -9831.499, -0.09957231, -0.3544388, -1076619.3, 501791.28, 0.04114932, 10.005186, 9.997253 
2.6557404e+3, 1.489302e+2, -970810.5, -1503636.5, -8124.6094, -0.11183397, -0.38546756, -970686.7, 509754.88, 0.019936366, 10.004937, 9.997723 
2.655667e+3, 1.5892693e+2, -875087.5, -1407376.3, -329.3958, -0.087912366, -0.45989317, -875087.25, 507386.63, 0.006352744, 10.004861, 9.997749 
2.6555943e+3, 1.689246e+2, -848118.94, -1283177.5, 18093.8, -0.026436845, -0.47060704, -847367.75, 437127.16, 0.0010277799, 10.004092, 9.998298 
2.6555216e+3, 1.7892268e+2, -893198.7, -1266747.4, 26865.924, 0.023368882, -0.46491182, -891276.4, 295235.34, 0.000045503482, 10.003158, 9.998189 
2.6554483e+3, 1.8892097e+2, -871385.6, -1167524.3, 52549.598, 0.0029747947, -0.44191986, -862337.2, 226191.92, 0.000000014947995, 10.002474, 9.998525 
2.6553753e+3, 1.9891942e+2, -876414.25, -1144585.6, 67374.98, -0.027675929, -0.41963932, -860438.75, 130107.01, 0.0, 10.001872, 9.9983015 
2.655303e+3, 2.0891733e+2, -806871.8, -1043579.25, 60886.496, -0.017613456, -0.43194088, -792128.7, 100438.25, 0.0, 10.001607, 9.998448 
2.655231e+3, 2.1891537e+2, -727036.44, -925974.06, 23357.066, 0.0024512068, -0.452154, -724330.94, 70255.68, 0.0, 10.001358, 9.998705 
2.6551583e+3, 2.289144e+2, -673453.06, -751038.4, 14982.91, 0.041490797, -0.44566673, -670660.1, 25935.234, 0.0, 10.000631, 9.999581 
2.6550853e+3, 2.3891377e+2, -710246.7, -734876.8, 36546.176, 0.08224585, -0.43586454, -683996.44, -85395.91, 0.0, 9.999775, 9.9994335 
2.6550123e+3, 2.4891296e+2, -682475.56, -640716.5, 29589.8, 0.087347746, -0.44352445, -625381.25, -124772.18, 0.0, 9.999165, 9.9997 
2.6549393e+3, 2.5891232e+2, -665462.6, -581803.94, 28220.895, 0.07617232, -0.45104805, -573174.25, -170558.0, 0.0, 9.998607, 9.9997015 
2.6548666e+3, 2.689125e+2, -608091.0, -446879.06, 37228.4, 0.07511059, -0.4017021, -438697.22, -134081.55, 0.0, 9.998084, 10.000206 
2.654794e+3, 2.7891293e+2, -599011.9, -411953.78, 42593.0, 0.096365325, -0.3495962, -402712.0, -196099.22, 0.0, 9.997558, 10.00003 
2.6547205e+3, 2.8891242e+2, -559280.94, -313269.38, 200.79643, 0.08349842, -0.3879128, -313269.22, -204650.92, 0.0, 9.997035, 10.000284 
2.654646e+3, 2.9891193e+2, -553468.94, -272191.13, -41151.4, -0.007936076, -0.43640178, -266294.25, -255671.22, 0.0, 9.996454, 10.000176 
2.6545736e+3, 3.089122e+2, -615886.0, -217258.14, -88716.36, 0.19872075, -0.42995927, -198405.53, -198405.53, 0.0, 9.995426, 10.000717 
2.6544994e+3, 3.1891346e+2, -573657.44, -6758.3965, 127740.695, 0.15295395, -0.35327223, 20696.111, 20696.111, 0.0, 9.9949045, 10.002411 
2.6658925e+3, 1.2900832e+2, -995373.4, -1619211.4, 23011.943, -0.11904709, -0.5110792, -994525.7, 681147.5, 0.055204395, 10.006377, 9.997606 
2.665819e+3, 1.3900675e+2, -1037159.6, -1611799.3, 34801.34, -0.082808465, -0.39627135, -1035059.7, 542628.6, 0.03449398, 10.005342, 9.997463 
2.6657447e+3, 1.490038e+2, -984231.25, -1501068.8, 49677.5, -0.11290256, -0.42358902, -979499.6, 500218.13, 0.016377965, 10.004793, 9.997807 
2.665671e+3, 1.5900072e+2, -937743.56, -1426772.3, 33296.54, -0.109293684, -0.48641783, -935486.9, 446261.5, 0.005048668, 10.004379, 9.997846 
2.6655978e+3, 1.6899852e+2, -877419.44, -1286707.4, 31615.97, -0.04308518, -0.49201122, -874991.6, 408777.03, 0.0007803977, 10.003849, 9.998387 
2.6655245e+3, 1.789967e+2, -866241.44, -1242739.4, 35367.56, 0.018667929, -0.4836373, -862947.9, 322837.13, 0.000032798478, 10.003299, 9.998284 
2.6654506e+3, 1.8899497e+2, -829230.6, -1136057.3, 49164.766, 0.014132994, -0.47089294, -821545.2, 266256.88, 0.0000000057994387, 10.00272, 9.99862 
2.6653776e+3, 1.9899343e+2, -833488.3, -1116968.6, 53911.754, 0.0007793662, -0.45696217, -823581.7, 166236.31, 0.0, 10.002143, 9.998359 
2.6653045e+3, 2.0899154e+2, -810205.9, -1048395.4, 88882.14, 0.0064806095, -0.4473406, -780695.1, 111142.664, 0.0, 10.001602, 9.998415 
2.6652318e+3, 2.189898e+2, -769355.44, -942639.5, 87091.92, 0.01715874, -0.44285297, -733148.56, 60707.75, 0.0, 10.001056, 9.9987335 
2.6651585e+3, 2.2898877e+2, -704574.94, -753367.25, 49785.246, 0.03647221, -0.44894496, -673529.75, 22335.54, 0.0, 10.000367, 9.99969 
2.6650846e+3, 2.3898806e+2, -722822.8, -737400.2, 45496.074, 0.0627655, -0.45769352, -684035.3, -86164.5, 0.0, 9.999679, 9.99946 
2.6650116e+3, 2.4898717e+2, -662115.06, -643943.4, 51280.61, 0.078160316, -0.4658124, -600949.94, -101069.67, 0.0, 9.999364, 9.999579 
2.664938e+3, 2.589864e+2, -604358.94, -559323.06, 55499.402, 0.08437248, -0.47103712, -521947.4, -120058.836, 0.0, 9.999059, 9.999637 
2.6648644e+3, 2.6898658e+2, -574477.9, -429953.03, 41346.49, 0.072349794, -0.4252535, -418960.5, -115072.4, 0.0, 9.998316, 10.000209 
2.6647907e+3, 2.7898693e+2, -618754.9, -427682.4, 29026.307, 0.079511635, -0.37775508, -423370.25, -217485.1, 0.0, 9.997455, 9.999969 
2.664717e+3, 2.8898627e+2, -613136.9, -360739.53, 18800.92, 0.08370249, -0.41471153, -359346.75, -251454.34, 0.0, 9.996761, 10.000088 
2.6646423e+3, 2.989856e+2, -604394.7, -317015.94, 20511.348, 0.022124078, -0.4613521, -315559.34, -305659.8, 0.0, 9.996195, 9.999992 
2.6645687e+3, 3.089856e+2, -458603.2, -154788.08, -17183.81, 0.16586274, -0.4656405, -153819.25, -153819.25, 0.0, 9.996572, 10.00059 
2.6644945e+3, 3.1898728e+2, -497964.44, -60169.426, 149882.0, 0.14785992, -0.32178771, -13773.26, -13773.26, 0.0, 9.995819, 10.001598 
2.675898e+3, 1.2908345e+2, -973625.6, -1560565.4, -11328.194, -0.18711823, -0.44079188, -973407.1, 701529.0, 0.046294887, 10.006265, 9.9980755 
2.6758248e+3, 1.3907993e+2, -1018075.7, -1580410.5, 7746.85, -0.0111097265, -0.5643489, -1017969.0, 558998.5, 0.028572239, 10.005352, 9.997673 
2.6757497e+3, 1.4907762e+2, -991975.1, -1521803.9, 36358.645, -0.07764394, -0.5235399, -989491.7, 489498.8, 0.013285339, 10.004792, 9.997667 
2.675675e+3, 1.5907569e+2, -950934.2, -1442776.9, 18615.03, -0.14487404, -0.45738056, -950230.7, 430779.88, 0.0039603314, 10.004321, 9.9977665 
2.675601e+3, 1.6907343e+2, -881571.3, -1289702.9, 13413.919, -0.095774576, -0.46934444, -881130.9, 401902.2, 0.0005869594, 10.00382, 9.998383 
2.6755267e+3, 1.7907122e+2, -870018.8, -1250310.4, 16140.857, -0.03641662, -0.498132, -869335.0, 315719.63, 0.000023679344, 10.003294, 9.998236 
2.675453e+3, 1.8906912e+2, -837732.9, -1155616.6, 29461.482, 0.00179033, -0.5124919, -835025.44, 252049.22, 0.000000001728097, 10.002724, 9.998486 
2.6753795e+3, 1.9906728e+2, -824287.7, -1096767.9, 35448.22, 0.038782872, -0.51817423, -819751.6, 169340.77, 0.0, 10.002135, 9.998503 
2.6753065e+3, 2.0906614e+2, -769509.6, -964311.1, 70011.69, 0.070667304, -0.4821933, -746958.1, 144146.19, 0.0, 10.001601, 9.998994 
2.6752335e+3, 2.190652e+2, -755810.56, -912831.44, 64316.703, 0.08978791, -0.44678888, -732829.5, 60284.758, 0.0, 10.001045, 9.998945 
2.6751587e+3, 2.2906375e+2, -730172.25, -807067.9, 22682.805, 0.044681635, -0.4765215, -723979.94, -28851.834, 0.0, 10.000366, 9.999324 
2.6750836e+3, 2.390624e+2, -736574.9, -766759.44, 26137.926, -0.0013600896, -0.5160535, -721484.9, -124344.01, 0.0, 9.999679, 9.999261 
2.6750103e+3, 2.4906169e+2, -658773.4, -638114.5, 42044.01, 0.0524395, -0.50108594, -605149.6, -106001.21, 0.0, 9.999366, 9.9996195 
2.674937e+3, 2.5906128e+2, -608377.2, -572710.1, 36548.4, 0.110102996, -0.47534856, -549876.5, -148723.05, 0.0, 9.999078, 9.999537 
2.6748624e+3, 2.690608e+2, -597228.25, -478526.97, 6748.236, 0.060572937, -0.4673834, -478144.56, -174985.34, 0.0, 9.998318, 9.999876 
2.6747873e+3, 2.790604e+2, -621192.5, -433769.97, -2437.8386, 0.01727226, -0.4687499, -433738.28, -228574.48, 0.0, 9.997455, 9.999928 
2.6747137e+3, 2.8906018e+2, -585060.25, -301162.03, -7596.1094, 0.10582799, -0.48658633, -300958.94, -193792.94, 0.0, 9.996753, 10.0005045 
2.6746395e+3, 2.9906037e+2, -593162.7, -293367.66, 17211.727, 0.14464022, -0.48368844, -292382.72, -283218.38, 0.0, 9.99619, 10.000159 
2.674564e+3, 3.090616e+2, -469026.6, -192048.31, 7026.758, 0.060828198, -0.35221145, -191870.16, -191870.16, 0.0, 9.996633, 10.000308 
2.67449e+3, 3.1906092e+2, -509740.1, -87840.09, -40001.816, 0.12493899, -0.4161856, -84080.875, -84080.875, 0.0, 9.995829, 10.001405 
2.6859036e+3, 1.2915894e+2, -1101869.5, -1665703.5, 66811.69, -0.17308913, -0.47680143, -1094060.8, 580131.94, 0.0383007, 10.00548, 9.997702 
2.6858297e+3, 1.3915533e+2, -968537.44, -1570863.6, 32854.76, -0.027240377, -0.5746415, -966750.6, 609475.8, 0.023325166, 10.005736, 9.997554 
2.6857543e+3, 1.491529e+2, -981313.94, -1495787.6, 57122.164, -0.07012623, -0.55585104, -975048.0, 503202.06, 0.0106073795, 10.004769, 9.997855 
2.6856786e+3, 1.5915091e+2, -1044404.56, -1478461.8, 66096.4, -0.10872951, -0.5138867, -1034562.8, 345707.2, 0.0030545553, 10.003636, 9.9978485 
2.685604e+3, 1.6914886e+2, -957546.4, -1334771.6, 74556.05, -0.096697725, -0.49664572, -943345.5, 338945.66, 0.00043506903, 10.003338, 9.998302 
2.6855293e+3, 1.7914692e+2, -885642.6, -1263735.8, 70341.4, -0.07952819, -0.49060422, -872980.2, 311331.2, 0.000016890075, 10.003218, 9.998178 
2.6854557e+3, 1.8914463e+2, -820166.9, -1153085.6, 80845.6, -0.013815895, -0.5182953, -801572.94, 284760.56, 0.0000000002885943, 10.002875, 9.998427 
2.6853818e+3, 1.991425e+2, -775825.5, -1066567.3, 84556.31, 0.061565157, -0.5473582, -753022.5, 235331.2, 0.0, 10.002441, 9.99856 
2.6853082e+3, 2.0914145e+2, -751264.9, -931380.8, 95031.02, 0.07960826, -0.5172879, -710397.94, 179966.34, 0.0, 10.001628, 9.999205 
2.6852342e+3, 2.1914072e+2, -785667.4, -911154.94, 70895.74, 0.081013635, -0.48069865, -753738.1, 38633.742, 0.0, 10.000776, 9.9990835 
2.6851586e+3, 2.2913945e+2, -730026.56, -806498.4, 50447.293, 0.04804036, -0.49524972, -704962.25, -10578.122, 0.0, 10.000368, 9.999325 
2.6850832e+3, 2.3913822e+2, -690708.44, -747152.44, 78383.48, 0.018520702, -0.5205424, -635621.06, -39224.938, 0.0, 10.000009, 9.999233 
2.6850092e+3, 2.4913733e+2, -663382.56, -649864.44, 92597.85, 0.05234745, -0.51713187, -563779.25, -65373.633, 0.0, 9.99938, 9.99953 
2.6849356e+3, 2.5913668e+2, -664353.4, -603699.8, 78623.57, 0.08982608, -0.5056841, -549756.94, -149343.98, 0.0, 9.998716, 9.9994955 
2.6848602e+3, 2.6913622e+2, -574621.1, -465482.34, 66702.21, 0.054294795, -0.49135783, -433871.66, -131453.56, 0.0, 9.998468, 9.999891 
2.684785e+3, 2.7913588e+2, -512708.53, -382862.22, 74608.92, 0.034664843, -0.4852409, -348883.88, -144461.89, 0.0, 9.998209, 9.999913 
2.6847106e+3, 2.891357e+2, -485528.72, -258071.38, 38678.793, 0.12391952, -0.49885324, -251674.03, -145249.47, 0.0, 9.997462, 10.000455 
2.6846358e+3, 2.9913583e+2, -533858.9, -264720.1, 44732.855, 0.15258762, -0.4943392, -257479.92, -249056.58, 0.0, 9.996603, 10.000154 
2.6845598e+3, 3.0913702e+2, -555017.1, -229478.75, 66410.85, 0.027423391, -0.36813712, -216452.02, -216452.02, 0.0, 9.996032, 10.000336 
2.6844856e+3, 3.1913581e+2, -473249.6, -17696.262, -68984.72, 0.13256261, -0.4963985, -7479.018, -7479.018, 0.0, 9.995861, 10.001867 
2.6959094e+3, 1.2923485e+2, -1158027.0, -1800410.4, 76535.414, -0.11385082, -0.5795676, -1149034.3, 524409.3, 0.031163054, 10.00551, 9.9967575 
2.6958343e+3, 1.3923253e+2, -1005121.8, -1630463.9, 24553.598, -0.1122599, -0.46659184, -1004159.2, 571310.2, 0.018699365, 10.005632, 9.997195 
2.6957586e+3, 1.4922938e+2, -954421.1, -1437146.3, 11710.199, -0.08398927, -0.5411765, -954137.2, 523361.75, 0.00829973, 10.004743, 9.998275 
2.6956832e+3, 1.5922634e+2, -1023593.06, -1447659.4, 36244.215, -0.02227241, -0.6382038, -1020517.6, 359008.97, 0.0023036976, 10.003685, 9.998038 
2.6956075e+3, 1.6922486e+2, -963302.9, -1353294.3, 70502.13, -0.06001658, -0.5619705, -950948.94, 330594.1, 0.00031532926, 10.003363, 9.998165 
2.6955318e+3, 1.7922372e+2, -896054.1, -1280535.1, 62352.223, -0.11589243, -0.4631193, -886195.06, 297361.63, 0.000011633443, 10.003194, 9.9980755 
2.6954576e+3, 1.8922132e+2, -825319.1, -1160057.0, 66628.14, -0.034781784, -0.4939904, -812544.56, 273035.63, 0.000000000007316074, 10.002856, 9.998389 
2.695384e+3, 1.992189e+2, -782204.56, -1075943.0, 62329.305, 0.06427474, -0.5493808, -769525.94, 218077.73, 0.0, 10.002422, 9.998507 
2.695309e+3, 2.0921743e+2, -759642.44, -947825.6, 61772.25, 0.03737598, -0.553457, -741177.2, 148441.17, 0.0, 10.00162, 9.999097 
2.6952335e+3, 2.1921636e+2, -783022.75, -902391.75, 47441.906, -0.007188689, -0.54282564, -766464.4, 25164.654, 0.0, 10.000758, 9.999154 
2.6951587e+3, 2.2921588e+2, -707694.3, -760153.6, 39488.74, 0.04727191, -0.5045054, -686517.7, 7115.8213, 0.0, 10.000367, 9.999644 
2.695084e+3, 2.392155e+2, -682080.25, -732245.44, 60479.695, 0.11113445, -0.4711227, -641688.2, -46051.156, 0.0, 10.000018, 9.999332 
2.6950085e+3, 2.4921401e+2, -678488.75, -682510.75, 64583.84, 0.07331799, -0.5150483, -615884.6, -118232.086, 0.0, 9.999382, 9.999307 
2.694933e+3, 2.592126e+2, -661816.1, -600061.1, 60278.406, 0.017597968, -0.56187093, -563211.94, -163544.6, 0.0, 9.998719, 9.999521 
2.6948586e+3, 2.6921296e+2, -547781.44, -411174.38, 60664.324, 0.054432653, -0.4949327, -388124.03, -86459.54, 0.0, 9.998471, 10.000264 
2.6947838e+3, 2.7921367e+2, -509731.63, -384042.78, 58303.56, 0.12500489, -0.41641894, -361162.5, -157504.16, 0.0, 9.998238, 9.999893 
2.694708e+3, 2.8921285e+2, -523664.88, -343625.38, 4726.008, 0.13459791, -0.44456702, -343501.4, -237833.97, 0.0, 9.997484, 9.99986 
2.694631e+3, 2.9921195e+2, -543882.8, -291513.63, 15763.768, 0.04421816, -0.4952852, -290532.8, -282855.3, 0.0, 9.996624, 9.999961 
2.6945558e+3, 3.0921164e+2, -530391.06, -175453.11, 46433.785, 0.04423319, -0.54006934, -169479.1, -169479.1, 0.0, 9.9960165, 10.000715 
2.694481e+3, 3.192126e+2, -380784.44, 160827.94, -75583.27, 0.11297547, -0.5060765, 171177.98, 171177.98, 0.0, 9.995895, 10.003089 
2.7059153e+3, 1.2931141e+2, -1064077.6, -1731064.3, 42975.11, -0.09036945, -0.59410834, -1061320.0, 611370.7, 0.024831975, 10.006036, 9.996983 
2.705839e+3, 1.3930908e+2, -1147207.3, -1689621.6, 54282.22, -0.12818475, -0.5022048, -1141828.3, 432888.34, 0.014652219, 10.004575, 9.997298 
2.7057627e+3, 1.4930607e+2, -1012186.75, -1474470.9, 34021.914, -0.08611078, -0.55723816, -1009696.3, 467049.06, 0.006327743, 10.004381, 9.998187 
2.705687e+3, 1.5930317e+2, -919623.6, -1397042.3, 29404.893, -0.0008488607, -0.6338127, -917819.4, 460953.16, 0.0016865785, 10.004399, 9.998039 
2.7056107e+3, 1.6930155e+2, -906691.94, -1315684.5, 68691.5, -0.048303545, -0.57805616, -895463.3, 385326.47, 0.00022097027, 10.003708, 9.998256 
2.7055347e+3, 1.7930025e+2, -931313.0, -1287165.9, 75841.84, -0.11905004, -0.50219774, -915823.3, 266980.9, 0.000007542903, 10.002909, 9.998165 
2.7054602e+3, 1.8929814e+2, -880613.3, -1177962.0, 92213.88, -0.041408964, -0.5135217, -854337.75, 230487.8, 0.0, 10.002442, 9.998465 
2.705386e+3, 1.9929604e+2, -835720.06, -1095842.1, 89793.03, 0.05780368, -0.5430825, -807734.7, 179111.88, 0.0, 10.002033, 9.998555 
2.70531e+3, 2.0929453e+2, -781004.8, -960395.06, 86537.266, 0.01882854, -0.54990417, -746064.8, 142797.0, 0.0, 10.001487, 9.999073 
2.705234e+3, 2.1929334e+2, -758461.6, -890829.1, 80101.87, -0.034988813, -0.5489178, -720738.7, 70135.15, 0.0, 10.000933, 9.999146 
2.705159e+3, 2.2929272e+2, -682205.06, -748358.25, 63536.188, 0.033390798, -0.52243966, -643651.3, 49228.324, 0.0, 10.000547, 9.999636 
2.705084e+3, 2.3929226e+2, -656618.44, -717278.06, 61435.06, 0.119062886, -0.4967918, -618434.25, -23550.37, 0.0, 10.000187, 9.9993515 
2.705008e+3, 2.4929103e+2, -617450.9, -646957.1, 72478.44, 0.08239187, -0.5178129, -558239.3, -61342.32, 0.0, 9.999779, 9.999357 
2.7049318e+3, 2.592899e+2, -575986.3, -548332.75, 84490.016, 0.026540296, -0.5440897, -476545.63, -77636.21, 0.0, 9.999269, 9.999609 
2.7048567e+3, 2.6929012e+2, -560706.06, -404871.25, 70909.42, 0.06556348, -0.49821398, -377435.6, -76528.49, 0.0, 9.998335, 10.00037 
2.7047816e+3, 2.7929068e+2, -630090.3, -436683.6, 55340.664, 0.13832869, -0.44276294, -421968.25, -219066.5, 0.0, 9.9973955, 9.999933 
2.704705e+3, 2.8929e+2, -561792.06, -366935.03, 36266.547, 0.11803657, -0.45524085, -360404.03, -255494.2, 0.0, 9.997249, 9.99981 
2.7046272e+3, 2.9928923e+2, -468893.8, -254246.34, 78965.766, 0.012465948, -0.4897848, -228326.03, -221406.86, 0.0, 9.997137, 9.999969 
2.7045524e+3, 3.0928874e+2, -461719.5, -131239.27, 93753.8, 0.11320716, -0.558219, -106494.99, -106494.99, 0.0, 9.996446, 10.00081 
2.704476e+3, 3.1928986e+2, -438367.22, 158003.28, -53818.203, 0.10142997, -0.51945686, 162821.06, 162821.06, 0.0, 9.9954, 10.003304 
2.7159208e+3, 1.2938854e+2, -1007497.5, -1583554.4, -16302.358, -0.09858866, -0.5504414, -1007036.5, 664898.3, 0.019282201, 10.005886, 9.998074 
2.7158436e+3, 1.3938528e+2, -1112429.4, -1629001.8, 19796.295, -0.09876045, -0.6435465, -1111671.9, 462293.9, 0.011156776, 10.004615, 9.997694 
2.7157667e+3, 1.493831e+2, -1041821.5, -1543795.0, 37107.43, -0.08355458, -0.5930099, -1039093.25, 436895.5, 0.00466756, 10.004401, 9.9977045 
2.715691e+3, 1.593812e+2, -937904.3, -1424154.3, 20373.81, -0.03314604, -0.5290495, -937052.1, 440957.03, 0.0011883881, 10.004347, 9.99788 
2.715614e+3, 1.6937888e+2, -891957.5, -1281226.8, 38899.08, -0.057848744, -0.5573662, -888108.44, 391923.38, 0.00014779682, 10.00369, 9.998502 
2.7155375e+3, 1.7937666e+2, -913237.8, -1253997.4, 52217.1, -0.09990203, -0.5958029, -905415.75, 276637.25, 0.0000045032148, 10.002926, 9.998386 
2.7154624e+3, 1.8937512e+2, -866887.0, -1152169.9, 77941.17, -0.037844446, -0.56930655, -846981.8, 237087.38, 0.0, 10.002451, 9.998639 
2.7153873e+3, 1.9937386e+2, -830940.25, -1081349.8, 72038.14, 0.038743366, -0.5320612, -811695.3, 174387.69, 0.0, 10.00201, 9.998667 
2.7153113e+3, 2.0937267e+2, -780948.1, -959168.44, 65086.797, 0.01973166, -0.51082796, -759709.25, 128386.19, 0.0, 10.00148, 9.999085 
2.7152348e+3, 2.1937156e+2, -766881.56, -908383.56, 62695.938, -0.016553499, -0.5009017, -743099.6, 47007.44, 0.0, 10.000931, 9.999028 
2.7151588e+3, 2.2936994e+2, -702882.25, -792790.56, 50445.574, 0.003756077, -0.5493774, -680266.94, 11855.788, 0.0, 10.000551, 9.9993305 
2.715083e+3, 2.393685e+2, -660229.2, -724755.3, 47469.207, 0.03906709, -0.59546083, -635096.9, -40960.18, 0.0, 10.000183, 9.999304 
2.7150077e+3, 2.4936841e+2, -596380.56, -603427.9, 56346.945, 0.080079585, -0.52436435, -543447.2, -47308.188, 0.0, 9.999778, 9.999658 
2.714932e+3, 2.5936857e+2, -564831.4, -530681.5, 57565.844, 0.10781566, -0.44629264, -487711.66, -89572.805, 0.0, 9.9992895, 9.9997225 
2.714855e+3, 2.6936767e+2, -573817.0, -432849.66, 29548.855, 0.08426142, -0.50331825, -426906.38, -126759.67, 0.0, 9.998334, 10.00018 
2.7147782e+3, 2.7936682e+2, -622499.25, -418798.6, 32453.643, 0.068291485, -0.5754871, -413753.06, -211599.0, 0.0, 9.997382, 10.000065 
2.7147013e+3, 2.893671e+2, -522991.25, -286391.28, 36955.844, 0.06680101, -0.5376968, -280753.3, -176600.92, 0.0, 9.997245, 10.000367 
2.7146244e+3, 2.9936785e+2, -449329.9, -220394.03, 66974.18, 0.039380565, -0.46605036, -202240.52, -196094.11, 0.0, 9.997163, 10.000191 
2.7145502e+3, 3.093686e+2, -474916.75, -162849.94, 62928.617, 0.28349158, -0.39481562, -150638.19, -150638.19, 0.0, 9.996458, 10.000588 
2.714471e+3, 3.193675e+2, -526031.75, -14361.643, -73172.58, 0.072584614, -0.54643685, -4103.102, -4103.102, 0.0, 9.995364, 10.002133 
2.7259257e+3, 1.2946554e+2, -1134307.1, -1629656.3, 18857.2, -0.101046436, -0.5923317, -1133590.3, 537589.1, 0.014506651, 10.004901, 9.998228 
2.7258486e+3, 1.394627e+2, -1020240.9, -1563858.8, 5973.6924, -0.060955606, -0.6591795, -1020175.2, 553030.9, 0.0081995735, 10.005154, 9.997882 
2.7257708e+3, 1.4946078e+2, -1024449.56, -1515297.3, 48370.99, -0.09676806, -0.5999204, -1019728.25, 455498.22, 0.0033045332, 10.004432, 9.997883 
2.725694e+3, 1.594591e+2, -1035006.9, -1457525.9, 67374.1, -0.100235604, -0.5300099, -1024523.6, 352721.28, 0.0007989122, 10.003624, 9.997997 
2.7256173e+3, 1.6945672e+2, -926444.06, -1294299.0, 82148.82, -0.075745605, -0.5666952, -908932.4, 370335.44, 0.00009313198, 10.003443, 9.9985285 
2.7255407e+3, 1.7945443e+2, -853923.3, -1220938.4, 77533.4, -0.059566025, -0.6161848, -838216.3, 343073.44, 0.0000024128854, 10.003318, 9.998423 
2.7254647e+3, 1.8945295e+2, -846357.5, -1138968.6, 86582.484, -0.040270973, -0.5876307, -822657.6, 260648.03, 0.0, 10.002583, 9.998664 
2.7253887e+3, 1.9945174e+2, -856115.2, -1080338.6, 75359.55, -0.012721783, -0.54564524, -833141.4, 152177.47, 0.0, 10.001785, 9.998779 
2.725312e+3, 2.0945078e+2, -777384.06, -935813.25, 82399.83, 0.01481959, -0.5196198, -742297.8, 145031.17, 0.0, 10.001415, 9.999275 
2.725236e+3, 2.1944986e+2, -737265.4, -888106.56, 92294.33, 0.034078155, -0.5048441, -693494.9, 95843.56, 0.0, 10.001111, 9.99908 
2.7251592e+3, 2.2944818e+2, -694478.0, -803348.44, 91574.05, 0.007675967, -0.5504077, -642381.56, 48973.855, 0.0, 10.000675, 9.999197 
2.7250826e+3, 2.3944665e+2, -661495.56, -721381.3, 96166.39, -0.008733325, -0.595803, -590718.25, 2652.7488, 0.0, 10.000162, 9.999335 
2.725007e+3, 2.4944675e+2, -633283.4, -597443.75, 97955.32, 0.07352958, -0.5200064, -515782.63, -20411.563, 0.0, 9.999428, 9.999865 
2.724931e+3, 2.5944713e+2, -648415.44, -568518.4, 92500.73, 0.15367846, -0.4372005, -507708.4, -110339.97, 0.0, 9.998712, 9.999738 
2.7248532e+3, 2.6944587e+2, -553276.75, -447534.1, 60204.406, 0.095469765, -0.51405925, -420280.84, -120900.9, 0.0, 9.998587, 9.999956 
2.7247754e+3, 2.7944455e+2, -468710.94, -348028.16, 62022.49, 0.041341547, -0.6123845, -321837.06, -120445.21, 0.0, 9.998456, 10.000031 
2.7246988e+3, 2.894451e+2, -411696.2, -209447.19, 48605.742, 0.06329429, -0.5617868, -198372.39, -94985.41, 0.0, 9.997916, 10.000569 
2.7246213e+3, 2.9944623e+2, -425483.56, -197270.86, 46056.305, 0.059275825, -0.46717703, -188326.64, -182950.2, 0.0, 9.997286, 10.000285 
2.7245468e+3, 3.0944693e+2, -465297.7, -160625.23, 38264.06, 0.30856004, -0.40680638, -155893.13, -155893.13, 0.0, 9.99654, 10.000562 
2.724466e+3, 3.1944603e+2, -376023.72, 6118.486, -28689.59, 0.028610747, -0.52433044, 8260.372, 8260.372, 0.0, 9.996627, 10.00166 
2.7359304e+3, 1.2954262e+2, -1160776.0, -1697215.6, 33952.89, -0.10652318, -0.68798214, -1158635.5, 511787.28, 0.010501029, 10.004943, 9.997737 
2.7358538e+3, 1.3954115e+2, -1023419.06, -1562416.5, 1419.5819, -0.023115002, -0.5820772, -1023415.3, 549023.4, 0.0057719788, 10.005106, 9.997914 
2.7357745e+3, 1.4953907e+2, -984433.0, -1424313.6, 15548.07, -0.12481035, -0.5885194, -983884.1, 490574.94, 0.0022269532, 10.004391, 9.998529 
2.7356964e+3, 1.59537e+2, -1019340.6, -1417527.1, 47047.824, -0.19775116, -0.6129865, -1013857.2, 362621.97, 0.0005081634, 10.003589, 9.998291 
2.73562e+3, 1.6953513e+2, -938981.25, -1318154.3, 80310.15, -0.10135219, -0.5974403, -922672.75, 355825.38, 0.00005459018, 10.003431, 9.998372 
2.735544e+3, 1.7953339e+2, -864585.9, -1241215.0, 62108.82, -0.005806182, -0.57672805, -854608.06, 325907.9, 0.0000011019603, 10.003308, 9.998289 
2.7354667e+3, 1.8953149e+2, -855633.25, -1157786.6, 55190.1, -0.050384134, -0.575506, -845868.06, 236667.66, 0.0, 10.002578, 9.998537 
2.7353892e+3, 1.9952978e+2, -850444.6, -1067282.1, 53708.78, -0.097599804, -0.57697535, -837870.56, 146682.97, 0.0, 10.001778, 9.998874 
2.7353132e+3, 2.0952891e+2, -752544.6, -885200.5, 72051.65, 0.0046854434, -0.57011247, -720939.75, 165622.23, 0.0, 10.001417, 9.999623 
2.7352375e+3, 2.1952826e+2, -726275.5, -861411.9, 78840.84, 0.10846383, -0.55918735, -690010.5, 98557.73, 0.0, 10.001092, 9.999273 
2.73516e+3, 2.2952741e+2, -695326.3, -803983.25, 74431.02, 0.040717866, -0.5269801, -657505.1, 33072.85, 0.0, 10.000669, 9.999197 
2.735082e+3, 2.3952667e+2, -655192.75, -710781.7, 72751.11, -0.0349166, -0.49633345, -605107.44, -12520.36, 0.0, 10.00017, 9.999405 
2.7350056e+3, 2.4952604e+2, -624438.2, -580676.75, 67047.19, 0.060324073, -0.50534534, -532030.25, -37436.797, 0.0, 9.999432, 9.99998 
2.7349293e+3, 2.5952548e+2, -652958.25, -579562.94, 75942.62, 0.15791635, -0.51929617, -531916.06, -135317.5, 0.0, 9.998715, 9.999661 
2.7348515e+3, 2.695247e+2, -572087.9, -488385.66, 59647.695, 0.096575625, -0.5291994, -457371.38, -158764.63, 0.0, 9.998592, 9.999674 
2.7347738e+3, 2.79524e+2, -479217.0, -379687.94, 50344.35, 0.047490414, -0.5388651, -358663.63, -158049.81, 0.0, 9.998496, 9.999796 
2.734697e+3, 2.8952396e+2, -424147.75, -241150.39, 22187.38, 0.115887836, -0.5211565, -238498.72, -135885.03, 0.0, 9.997937, 10.000343 
2.7346188e+3, 2.9952413e+2, -427381.5, -202463.19, 18313.713, 0.0881091, -0.5062192, -200981.78, -196369.89, 0.0, 9.997288, 10.000251 
2.734541e+3, 3.095231e+2, -452212.03, -134504.61, 7722.411, 0.09878603, -0.6314782, -134317.02, -134317.02, 0.0, 9.996543, 10.000741 
2.7344632e+3, 3.195257e+2, -336929.34, 49040.64, 46353.867, 0.075538434, -0.41064638, 54529.547, 54529.547, 0.0, 9.996768, 10.001901 
2.7459356e+3, 1.2962176e+2, -1111501.9, -1697539.6, 83738.45, -0.08878034, -0.66395646, -1099771.3, 569876.1, 0.0072515486, 10.00537, 9.997532 
2.7458578e+3, 1.396202e+2, -1086830.8, -1596661.9, 50329.73, -0.073317476, -0.5490174, -1081909.9, 489755.03, 0.0038576918, 10.004677, 9.997886 
2.7457786e+3, 1.4961797e+2, -1049185.6, -1438006.4, 29650.715, -0.12606327, -0.5794606, -1046937.56, 426748.63, 0.0014162977, 10.003875, 9.99868 
2.7456996e+3, 1.596158e+2, -1070076.4, -1427467.8, 49892.34, -0.14251114, -0.62921077, -1063242.0, 312464.72, 0.00030295522, 10.0031805, 9.998417 
2.745623e+3, 1.6961415e+2, -973791.1, -1327610.6, 107902.42, -0.09964942, -0.5982772, -943481.2, 334242.13, 0.000029338584, 10.003161, 9.998436 
2.7455467e+3, 1.7961264e+2, -879334.6, -1243163.9, 87714.71, -0.06087662, -0.55852634, -859291.8, 320447.03, 0.00000039166414, 10.003187, 9.998332 
2.7454686e+3, 1.8961063e+2, -856671.9, -1158584.0, 71945.37, -0.06353703, -0.57003015, -840403.94, 241355.86, 0.0, 10.002577, 9.99853 
2.745391e+3, 1.9960877e+2, -833328.0, -1054330.4, 83253.63, -0.06139282, -0.586451, -805475.75, 178303.3, 0.0, 10.00188, 9.998913 
2.7453145e+3, 2.0960791e+2, -747314.94, -874727.9, 94767.45, 0.010424787, -0.5832502, -696831.3, 188955.8, 0.0, 10.001423, 9.99969 
2.745238e+3, 2.196073e+2, -728876.44, -846090.4, 82334.234, 0.0811058, -0.5753499, -686420.56, 101371.95, 0.0, 10.001007, 9.999417 
2.74516e+3, 2.2960673e+2, -704204.75, -785199.44, 85161.734, 0.025438016, -0.53502667, -650401.75, 39397.68, 0.0, 10.000513, 9.999398 
2.7450818e+3, 2.3960625e+2, -669526.9, -710870.56, 95388.664, -0.031072345, -0.49463132, -592595.9, -790.0031, 0.0, 10.000047, 9.999462 
2.7450052e+3, 2.4960537e+2, -565728.44, -565432.06, 75901.945, 0.05801078, -0.51821196, -489678.16, 4136.5493, 0.0, 9.999895, 9.99986 
2.7449283e+3, 2.5960454e+2, -513017.6, -516863.88, 73791.78, 0.14928624, -0.5506704, -441123.9, -45300.85, 0.0, 9.999701, 9.999616 
2.7448502e+3, 2.69604e+2, -494856.94, -448136.84, 77741.4, 0.09500007, -0.53494734, -390321.66, -92492.78, 0.0, 9.999116, 9.999694 
2.7447718e+3, 2.7960363e+2, -491095.8, -397720.28, 84331.03, 0.05786824, -0.5109609, -348015.78, -148182.84, 0.0, 9.998477, 9.999678 
2.7446947e+3, 2.896033e+2, -427813.84, -274965.72, 51071.93, 0.11820238, -0.49968415, -259471.47, -157635.77, 0.0, 9.9980545, 10.000052 
2.7446157e+3, 2.9960287e+2, -386299.03, -198122.47, 42892.008, 0.07909519, -0.5154707, -188807.03, -184967.86, 0.0, 9.997638, 10.000112 
2.7445376e+3, 3.096009e+2, -318873.44, -67056.0, 19437.928, 0.09994098, -0.7365742, -65564.414, -65564.414, 0.0, 9.997446, 10.000769 
2.7444598e+3, 3.196049e+2, -413877.34, -9692.423, 75415.28, 0.12570223, -0.3705839, 3920.5327, 3920.5327, 0.0, 9.996344, 10.001697 
2.7559406e+3, 1.2970243e+2, -1117510.1, -1698590.0, 54163.938, -0.061933085, -0.5597232, -1112504.5, 556353.75, 0.004724761, 10.005313, 9.99755 
2.755861e+3, 1.3969983e+2, -1102644.5, -1616465.6, 22869.377, -0.19380455, -0.54792637, -1101628.6, 469256.44, 0.0024209693, 10.004614, 9.997781 
2.7557823e+3, 1.496975e+2, -1061600.4, -1472797.6, 1242.9585, -0.108433045, -0.56886613, -1061596.6, 411311.16, 0.0008407605, 10.003907, 9.998428 
2.7557042e+3, 1.5969537e+2, -1058428.6, -1424002.1, 38561.574, 0.025020964, -0.59259087, -1054405.4, 320522.63, 0.00016702582, 10.003267, 9.998401 
2.755626e+3, 1.6969374e+2, -957411.0, -1294598.6, 112999.4, -0.08075835, -0.5779956, -923044.9, 353898.94, 0.000014111729, 10.003164, 9.998663 
2.755548e+3, 1.7969222e+2, -880473.9, -1226377.9, 76462.695, -0.20721486, -0.5598756, -864325.5, 314633.03, 0.00000009505926, 10.003102, 9.998488 
2.755471e+3, 1.8969034e+2, -856384.56, -1150002.1, 45444.063, -0.078432426, -0.5694743, -849511.94, 231466.3, 0.0, 10.002541, 9.998609 
2.755394e+3, 1.996886e+2, -836230.2, -1059896.9, 62953.855, 0.072191246, -0.5786682, -819728.5, 163267.9, 0.0, 10.001876, 9.9988785 
2.7553156e+3, 2.096877e+2, -760802.75, -903761.3, 80436.62, 0.025511453, -0.5640379, -724674.7, 160330.19, 0.0, 10.001425, 9.999492 
2.7552375e+3, 2.1968701e+2, -724244.56, -834816.7, 65692.34, -0.04672581, -0.5512088, -693670.06, 93341.05, 0.0, 10.000998, 9.9995 
2.7551597e+3, 2.2968616e+2, -676297.9, -728441.7, 65956.984, -0.034979694, -0.57190233, -631446.8, 57572.703, 0.0, 10.000516, 9.999788 
2.7550817e+3, 2.3968539e+2, -667747.1, -707202.94, 83100.914, -0.0028860494, -0.58953136, -602064.5, -11037.198, 0.0, 10.000044, 9.999491 
2.7550048e+3, 2.4968478e+2, -592194.2, -620899.0, 71884.266, 0.06356286, -0.5593049, -533243.56, -40208.402, 0.0, 9.999895, 9.999479 
2.7549273e+3, 2.5968432e+2, -510501.78, -518026.6, 59011.33, 0.11791873, -0.5265851, -455133.06, -60091.31, 0.0, 9.999726, 9.999597 
2.754849e+3, 2.696838e+2, -469477.78, -398805.22, 51196.24, 0.09069373, -0.53069437, -371934.53, -74888.15, 0.0, 9.999126, 10.0000305 
2.7547702e+3, 2.796834e+2, -488662.72, -394840.94, 64210.703, 0.0700225, -0.53585553, -362230.47, -163180.66, 0.0, 9.998483, 9.999697 
2.7546915e+3, 2.8968304e+2, -453639.56, -327612.7, 36830.625, 0.055415038, -0.5011317, -317638.53, -216585.47, 0.0, 9.99805, 9.999694 
2.7546123e+3, 2.9968265e+2, -403671.75, -235959.55, 33323.527, 0.00812031, -0.48482686, -229580.94, -226524.0, 0.0, 9.997643, 9.99985 
2.7545378e+3, 3.096806e+2, -321960.06, -87143.92, 13898.344, 0.3986207, -0.68787897, -86324.164, -86324.164, 0.0, 9.9974985, 10.000609 
2.7544546e+3, 3.1968284e+2, -473020.56, -110382.38, -12495.296, 0.0025115525, -0.47632447, -109952.34, -109952.34, 0.0, 9.996266, 10.001033 
2.7659452e+3, 1.2978214e+2, -1140098.0, -1640174.3, 26765.063, -0.11716106, -0.5442064, -1138669.6, 529408.4, 0.0028611547, 10.004842, 9.998181 
2.7658656e+3, 1.3977957e+2, -1156674.4, -1610760.4, 36604.484, -0.15037377, -0.5825735, -1153742.5, 416359.56, 0.0014039407, 10.004102, 9.998067 
2.765786e+3, 1.4977752e+2, -1027574.25, -1470726.5, 39462.344, -0.10019858, -0.57352614, -1024087.56, 448034.94, 0.00045776018, 10.004204, 9.998299 
2.7657074e+3, 1.597756e+2, -915913.44, -1361415.1, 71004.89, -0.006443093, -0.56370616, -904870.3, 469271.22, 0.000083043655, 10.004274, 9.998344 
2.7656293e+3, 1.6977362e+2, -967243.9, -1297068.6, 123643.53, -0.06705217, -0.58294225, -926040.25, 350120.34, 0.000005757098, 10.003093, 9.998677 
2.765551e+3, 1.7977181e+2, -1043550.6, -1280993.1, 87678.97, -0.14935736, -0.60121185, -1014683.44, 163494.58, 0.00000000965895, 10.001887, 9.998697 
2.765473e+3, 1.8977045e+2, -920095.4, -1138012.0, 82972.43, -0.05699712, -0.5904584, -892099.9, 188091.97, 0.0, 10.001923, 9.998987 
2.7653956e+3, 1.9976921e+2, -802710.6, -1038253.94, 110300.59, 0.056420896, -0.5778411, -759124.4, 223080.23, 0.0, 10.002083, 9.998925 
2.765317e+3, 2.0976797e+2, -766320.94, -944977.56, 114449.13, 0.013883877, -0.57159907, -710466.06, 173750.86, 0.0, 10.001556, 9.999144 
2.765238e+3, 2.1976689e+2, -742489.0, -856207.6, 89197.12, -0.05201753, -0.5683614, -693569.7, 92658.01, 0.0, 10.000932, 9.999383 
2.7651596e+3, 2.2976603e+2, -673294.3, -713245.8, 71920.17, -0.04891757, -0.59565693, -618627.3, 69608.766, 0.0, 10.000481, 9.9999075 
2.7650815e+3, 2.3976529e+2, -657944.06, -688912.44, 80763.37, -0.018215284, -0.6199822, -591193.94, -950.79926, 0.0, 10.000056, 9.999608 
2.765004e+3, 2.4976498e+2, -613069.4, -621389.1, 101790.52, 0.059564997, -0.5712578, -515353.75, -23105.783, 0.0, 9.999716, 9.99956 
2.7649269e+3, 2.5976476e+2, -557565.56, -539815.5, 111220.98, 0.12521844, -0.5176517, -437116.0, -42864.08, 0.0, 9.999406, 9.9995985 
2.7648476e+3, 2.6976404e+2, -455942.2, -403051.78, 73722.26, 0.0881387, -0.53560495, -351175.1, -54916.094, 0.0, 9.99927, 9.999929 
2.7647686e+3, 2.7976337e+2, -406923.9, -365427.7, 60309.36, 0.061044175, -0.5584831, -322397.25, -124131.734, 0.0, 9.999089, 9.999604 
2.76469e+3, 2.8976306e+2, -356454.56, -292179.47, 44413.324, 0.076062866, -0.5085077, -269495.8, -169227.3, 0.0, 9.998773, 9.999585 
2.7646106e+3, 2.9976273e+2, -313955.97, -205897.72, 51631.125, 0.056441914, -0.47338623, -185194.53, -182922.66, 0.0, 9.998327, 9.9997225 
2.764534e+3, 3.0976054e+2, -377896.88, -134307.08, 30686.81, 0.33571112, -0.6772264, -130500.72, -130500.72, 0.0, 9.99721, 10.00042 
2.7644503e+3, 3.197618e+2, -351336.1, -45357.24, -12609.077, -0.04823981, -0.54525363, -44838.51, -44838.51, 0.0, 9.997084, 10.00108 
2.7759483e+3, 1.2986134e+2, -1067349.3, -1488995.3, 1193.8881, -0.23012394, -0.5863991, -1067345.9, 599956.3, 0.001575775, 10.004843, 9.999217 
2.775871e+3, 1.3985951e+2, -1124259.1, -1536997.1, 24939.236, 0.005273508, -0.64154756, -1122757.6, 446557.8, 0.0007341625, 10.004072, 9.998588 
2.77579e+3, 1.4985795e+2, -1040118.8, -1482852.5, 48833.67, -0.104981035, -0.59171724, -1034796.44, 436535.06, 0.00022181348, 10.004139, 9.998249 
2.7757096e+3, 1.5985638e+2, -938109.0, -1383024.5, 51000.74, -0.19027548, -0.54356325, -932337.6, 441010.9, 0.00003543484, 10.004168, 9.998249 
2.775632e+3, 1.6985382e+2, -982885.0, -1322285.4, 73179.055, -0.055985074, -0.60615206, -967779.0, 307594.6, 0.0000017161015, 10.00306, 9.998521 
2.7755547e+3, 1.7985149e+2, -1022921.75, -1245186.9, 67298.53, 0.0659987, -0.6703748, -1004133.06, 173263.16, 0.00000000000031198744, 10.001915, 9.998931 
2.775475e+3, 1.8985096e+2, -875189.1, -1047333.44, 93752.28, -0.011178014, -0.6289733, -833990.25, 245410.5, 0.0, 10.001931, 9.999607 
2.7753958e+3, 1.9985057e+2, -801036.2, -1027850.94, 102676.7, -0.09151126, -0.5812119, -761460.75, 219943.48, 0.0, 10.002051, 9.999013 
2.7753177e+3, 2.0984873e+2, -802939.5, -1018079.56, 90073.99, -0.01976335, -0.6029274, -770207.56, 113215.99, 0.0, 10.001543, 9.99865 
2.7752396e+3, 2.198469e+2, -767323.9, -903966.2, 70050.5, 0.049181197, -0.62675756, -737793.8, 47648.867, 0.0, 10.000913, 9.999066 
2.77516e+3, 2.298463e+2, -683646.4, -734870.56, 57103.375, -0.02321094, -0.6086677, -646674.3, 40775.24, 0.0, 10.00048, 9.999762 
2.7750805e+3, 2.39846e+2, -642685.0, -659503.44, 66553.35, -0.085818425, -0.5838688, -584011.7, 5441.347, 0.0, 10.000065, 9.999807 
2.7750033e+3, 2.4984598e+2, -574266.4, -542653.44, 88682.48, 0.045275882, -0.55188805, -468379.8, 23073.195, 0.0, 9.999721, 10.000101 
2.774926e+3, 2.5984588e+2, -557761.0, -541554.1, 102816.47, 0.16800746, -0.52497554, -446522.22, -53068.62, 0.0, 9.999409, 9.999587 
2.7748466e+3, 2.6984465e+2, -497560.03, -489402.75, 68982.93, 0.08421631, -0.5519156, -424378.0, -128910.84, 0.0, 9.999269, 9.999338 
2.774767e+3, 2.7984345e+2, -419540.97, -395549.25, 50497.88, 0.024008496, -0.5770719, -355641.97, -158161.52, 0.0, 9.9991045, 9.999392 
2.7746895e+3, 2.8984326e+2, -343053.8, -271168.94, 29237.82, 0.19471912, -0.5214121, -260778.78, -161296.11, 0.0, 9.998796, 9.999721 
2.7746102e+3, 2.9984298e+2, -304824.28, -199902.63, 20928.258, 0.23325384, -0.48760098, -195882.22, -194397.0, 0.0, 9.998378, 9.999742 
2.7745256e+3, 3.0984038e+2, -397220.22, -168298.27, -17937.586, -0.19909883, -0.7196071, -166901.25, -166901.25, 0.0, 9.997184, 10.000199 
2.77445e+3, 3.198423e+2, -279093.4, 75344.3, 57257.543, 0.21238783, -0.5211298, 84364.4, 84364.4, 0.0, 9.997168, 10.00189 
2.785953e+3, 1.2994204e+2, -1077149.4, -1541983.0, 52849.418, -0.22163391, -0.6328095, -1071216.4, 595291.56, 0.00076545187, 10.0049715, 9.998793 
2.7858746e+3, 1.3994019e+2, -1174982.4, -1572489.5, 21371.531, 0.0044279336, -0.6561633, -1173836.6, 394686.78, 0.0003341405, 10.003768, 9.99849 
2.7857932e+3, 1.4993857e+2, -1156645.3, -1515831.9, 68882.28, -0.09934987, -0.6260968, -1143888.6, 326651.56, 0.00009108268, 10.003243, 9.998452 
2.7857128e+3, 1.5993696e+2, -1111113.8, -1447542.6, 75532.484, -0.1789466, -0.5976597, -1094933.9, 277623.13, 0.000011753326, 10.002902, 9.998413 
2.7856344e+3, 1.6993481e+2, -1033467.25, -1337062.3, 99912.63, -0.058738, -0.6311431, -1003536.9, 271041.56, 0.00000025139548, 10.002671, 9.998607 
2.7855563e+3, 1.7993283e+2, -942696.5, -1199254.9, 112863.13, 0.0558744, -0.6655094, -900114.25, 276483.56, 0.0, 10.002431, 9.999 
2.7854767e+3, 1.899323e+2, -858937.3, -1034536.9, 120256.3, -0.013430833, -0.62822396, -797839.9, 280762.72, 0.0, 10.002026, 9.999648 
2.7853975e+3, 1.999319e+2, -856272.44, -1038418.25, 94680.77, -0.08954045, -0.58801615, -815972.9, 164633.3, 0.0, 10.001613, 9.999147 
2.7853188e+3, 2.0993015e+2, -831349.44, -1010387.56, 110328.49, -0.022075998, -0.6188741, -778790.94, 103833.37, 0.0, 10.001261, 9.998836 
2.78524e+3, 2.1992837e+2, -767772.0, -904085.9, 133036.39, 0.05267905, -0.6509321, -686449.7, 98192.984, 0.0, 10.000912, 9.999064 
2.7851605e+3, 2.2992781e+2, -693216.44, -763415.44, 123483.01, -0.007604624, -0.6104473, -599941.4, 86708.19, 0.0, 10.000521, 9.999543 
2.7850807e+3, 2.399275e+2, -634762.44, -666540.8, 127345.39, -0.064016245, -0.56555057, -522318.8, 66334.77, 0.0, 10.000171, 9.999705 
2.785003e+3, 2.4992707e+2, -521213.1, -516742.34, 116342.695, 0.036210418, -0.57117766, -402613.56, 88042.98, 0.0, 10.000087, 10.000101 
2.7849254e+3, 2.599266e+2, -483091.56, -509494.97, 96116.23, 0.13326605, -0.5834273, -399274.63, -6614.544, 0.0, 9.999941, 9.99955 
2.7848455e+3, 2.6992548e+2, -492620.6, -495681.7, 86730.36, 0.06971453, -0.5901202, -407407.28, -112734.35, 0.0, 9.999347, 9.999254 
2.784766e+3, 2.7992448e+2, -476341.75, -417268.84, 101439.71, 0.04007127, -0.5868464, -341152.94, -144468.13, 0.0, 9.9987, 9.999433 
2.784688e+3, 2.8992444e+2, -404807.94, -282514.97, 86671.305, 0.2197338, -0.52755934, -237591.64, -138905.89, 0.0, 9.9983, 9.999881 
2.7846083e+3, 2.9992422e+2, -362719.72, -238064.42, 78945.11, 0.2399109, -0.49641424, -199808.44, -199120.52, 0.0, 9.998027, 9.999647 
2.784522e+3, 3.099213e+2, -221183.6, -120479.39, 22397.547, -0.31980792, -0.7338728, -115722.65, -115722.65, 0.0, 9.998558, 9.999862 
2.7844486e+3, 3.1992322e+2, -229984.06, 86021.195, 60528.74, 0.37332603, -0.5050633, 97218.32, 97218.32, 0.0, 9.997567, 10.001768 
2.7959585e+3, 1.3002384e+2, -1186941.6, -1750144.1, -1507.933, -0.13911542, -0.68056446, -1186937.6, 478763.22, 0.00031490173, 10.004889, 9.997402 
2.7958766e+3, 1.400215e+2, -1207212.9, -1642947.6, -6832.612, -0.1134617, -0.6354858, -1207105.8, 360620.72, 0.00012577139, 10.003783, 9.998 
2.7957964e+3, 1.5001939e+2, -1121987.1, -1455843.5, 58146.418, -0.08621927, -0.6705197, -1112149.9, 357597.5, 0.00002907313, 10.003292, 9.998842 
2.795717e+3, 1.6001755e+2, -1083540.6, -1397581.6, 66804.586, -0.029241756, -0.7055364, -1069920.3, 301845.2, 0.0000024460635, 10.002933, 9.998742 
2.7956367e+3, 1.7001648e+2, -1014858.9, -1300695.5, 92071.164, -0.07877093, -0.6571767, -987769.1, 286007.16, 0.0000000042322403, 10.002679, 9.998855 
2.7955568e+3, 1.8001555e+2, -951636.7, -1213694.1, 98931.945, -0.13575318, -0.6034769, -918482.44, 257303.45, 0.0, 10.002412, 9.998911 
2.795478e+3, 1.9001438e+2, -893451.6, -1100996.9, 104314.86, -0.053536307, -0.5956783, -850083.7, 227714.55, 0.0, 10.002003, 9.999203 
2.7954e+3, 2.0001328e+2, -849767.7, -1015421.5, 81090.18, 0.03237568, -0.5968512, -816681.2, 163128.47, 0.0, 10.00157, 9.999328 
2.7953202e+3, 2.1001221e+2, -777706.06, -896303.06, 97863.25, -0.0013121336, -0.62085503, -722577.6, 159241.56, 0.0, 10.001246, 9.999627 
2.79524e+3, 2.2001125e+2, -751748.2, -868309.3, 118534.49, -0.041289154, -0.63891536, -677941.44, 105886.5, 0.0, 10.000899, 9.999317 
2.7951607e+3, 2.3001051e+2, -713643.2, -807748.3, 108239.36, -0.00060471543, -0.599658, -642671.56, 43164.97, 0.0, 10.000526, 9.999238 
2.7950814e+3, 2.4000975e+2, -664280.3, -728950.1, 119024.516, 0.041624706, -0.5672343, -573276.75, 14568.608, 0.0, 10.000173, 9.999277 
2.7950028e+3, 2.5000817e+2, -560274.44, -598403.8, 114152.62, 0.028132686, -0.6332232, -463605.44, 26253.89, 0.0, 10.000089, 9.999539 
2.7949235e+3, 2.600068e+2, -483820.13, -515579.97, 81301.484, 0.008658042, -0.6945934, -416862.22, -24990.355, 0.0, 9.999958, 9.9995 
2.7948442e+3, 2.700065e+2, -461027.78, -431465.63, 59868.81, 0.044329405, -0.6486876, -384580.22, -90704.04, 0.0, 9.999349, 9.999697 
2.794765e+3, 2.800065e+2, -455571.2, -374506.9, 82015.85, 0.10552231, -0.58715415, -323554.3, -127676.09, 0.0, 9.998699, 9.999728 
2.794685e+3, 2.900067e+2, -395849.28, -259005.66, 72493.83, 0.13029312, -0.52590746, -227743.47, -129866.39, 0.0, 9.998278, 10.000052 
2.7946043e+3, 3.0000657e+2, -385656.63, -277089.6, 85713.555, 0.058314756, -0.49603543, -229916.14, -229916.14, 0.0, 9.997989, 9.999398 
2.794524e+3, 3.100033e+2, -250630.55, -200156.23, 50412.11, 0.07470903, -0.7128642, -169017.02, -169017.02, 0.0, 9.9986315, 9.999283 
2.7944437e+3, 3.2000434e+2, -338723.1, -131284.83, -143960.77, 0.16666184, -0.49624157, -57571.273, -57571.273, 0.0, 9.997547, 10.000277 
2.805963e+3, 1.3010609e+2, -1252667.1, -1781075.5, -33065.996, -0.12385702, -0.67095387, -1250606.0, 414287.84, 0.00010351226, 10.004433, 9.997412 
2.80588e+3, 1.401034e+2, -1203249.1, -1638881.4, 38391.56, -0.13954234, -0.6612774, -1199891.6, 367031.84, 0.00003585604, 10.003799, 9.998022 
2.8057995e+3, 1.5010163e+2, -1087337.3, -1435760.1, 103995.62, -0.089524396, -0.6628936, -1058657.8, 410283.25, 0.00000603324, 10.003518, 9.99887 
2.80572e+3, 1.6010012e+2, -1031722.5, -1370115.5, 88167.66, -0.0017291225, -0.6666819, -1010128.56, 360827.44, 0.00000016363987, 10.003277, 9.998766 
2.8056392e+3, 1.7009874e+2, -993832.44, -1289547.4, 98361.38, -0.06970317, -0.64955026, -964103.94, 308865.47, 0.0, 10.002825, 9.998859 
2.8055584e+3, 1.8009749e+2, -963977.3, -1214781.9, 92696.13, -0.1532077, -0.62816584, -933436.3, 241545.22, 0.0, 10.002317, 9.998943 
2.8054795e+3, 1.9009635e+2, -956322.1, -1133090.3, 114710.89, -0.07044155, -0.61834687, -899894.8, 177098.72, 0.0, 10.001581, 9.999186 
2.8054005e+3, 2.000953e+2, -938480.1, -1046806.94, 119747.414, 0.030525917, -0.6139067, -861216.3, 117788.11, 0.0, 10.000908, 9.9994335 
2.805321e+3, 2.1009453e+2, -824576.3, -892700.25, 113628.02, 0.008225723, -0.6287057, -740014.7, 140996.08, 0.0, 10.000814, 9.999859 
2.8052408e+3, 2.2009382e+2, -759695.6, -868059.0, 100399.805, -0.026635407, -0.6398001, -699790.56, 83226.25, 0.0, 10.000833, 9.999348 
2.8051612e+3, 2.300928e+2, -669763.7, -806861.44, 92427.57, 0.009995385, -0.6164509, -623239.56, 61788.797, 0.0, 10.00092, 9.999052 
2.805082e+3, 2.4009173e+2, -570646.94, -695096.94, 110389.086, 0.053954296, -0.59877694, -506152.94, 80887.43, 0.0, 10.000868, 9.999174 
2.8050023e+3, 2.5009024e+2, -568001.3, -607035.4, 133328.11, 0.029341564, -0.6492881, -452769.34, 36284.17, 0.0, 10.000061, 9.999492 
2.8049228e+3, 2.6008892e+2, -587756.75, -562307.5, 131768.34, -0.00014622236, -0.69700927, -442650.8, -51585.656, 0.0, 9.999237, 9.999524 
2.804843e+3, 2.7008852e+2, -485994.6, -435628.4, 92246.71, 0.04180388, -0.67143154, -365189.1, -72118.43, 0.0, 9.999144, 9.999767 
2.8047633e+3, 2.8008837e+2, -393918.7, -336969.6, 89128.164, 0.1061067, -0.6296064, -271877.97, -76804.2, 0.0, 9.999084, 9.999803 
2.8046829e+3, 2.9008877e+2, -320041.4, -213565.13, 68505.2, 0.0854332, -0.55372727, -180043.47, -82973.02, 0.0, 9.998761, 10.000131 
2.8046015e+3, 3.0008894e+2, -322663.2, -236189.7, 93479.27, 0.0027586822, -0.5040834, -176432.31, -176432.31, 0.0, 9.998381, 9.999488 
2.804524e+3, 3.1008598e+2, -327113.47, -226823.66, 121593.71, 0.23980558, -0.6999375, -145440.83, -145440.83, 0.0, 9.998062, 9.999373 
2.8044397e+3, 3.2008675e+2, -270511.0, -147466.8, -127478.38, 0.026869906, -0.5034935, -67441.35, -67441.35, 0.0, 9.998231, 9.999833 
2.8159666e+3, 1.301888e+2, -1207203.5, -1653458.9, -59559.438, -0.16525158, -0.62137955, -1199391.1, 464694.56, 0.00002429662, 10.004295, 9.998348 
2.8158838e+3, 1.4018577e+2, -1184022.8, -1595149.3, 20525.273, -0.105925344, -0.72228897, -1183000.6, 383114.63, 0.000006466996, 10.003784, 9.998328 
2.8158024e+3, 1.50185e+2, -1111229.3, -1479549.6, 93995.58, -0.10818779, -0.61481106, -1088628.3, 379495.9, 0.00000052844416, 10.0034895, 9.998585 
2.8157225e+3, 1.6018423e+2, -1053291.9, -1403170.0, 73613.734, -0.06576836, -0.51506734, -1038434.56, 331698.1, 0.0000000005064632, 10.003225, 9.998566 
2.815642e+3, 1.7018151e+2, -1007809.5, -1313139.4, 81881.93, -0.039266236, -0.61711085, -987236.94, 284921.28, 0.0, 10.0028, 9.99871 
2.8155616e+3, 1.8017893e+2, -958872.06, -1200844.0, 71309.78, -0.041774172, -0.7223319, -939420.56, 234761.84, 0.0, 10.002301, 9.999048 
2.8154808e+3, 1.9017832e+2, -932036.6, -1085717.6, 86340.93, -0.073627144, -0.6858468, -893295.06, 182892.78, 0.0, 10.001592, 9.999506 
2.8154e+3, 2.0017797e+2, -935444.94, -1044364.9, 104160.68, -0.08202516, -0.6366403, -872366.25, 105824.7, 0.0, 10.000923, 9.999443 
2.8153214e+3, 2.1017708e+2, -843276.06, -934569.1, 112931.914, 0.0094125895, -0.6417049, -767114.44, 113084.94, 0.0, 10.000826, 9.999567 
2.815242e+3, 2.2017607e+2, -775386.4, -895484.2, 101884.375, 0.0824347, -0.6544933, -717171.56, 65037.637, 0.0, 10.000809, 9.999172 
2.815162e+3, 2.3017466e+2, -675874.6, -818370.9, 96226.11, 0.019286301, -0.66110986, -627390.7, 56834.12, 0.0, 10.000913, 9.998978 
2.8150815e+3, 2.4017344e+2, -555076.8, -663577.9, 93919.61, -0.0364008, -0.65731376, -500865.3, 85372.96, 0.0, 10.000869, 9.999391 
2.8150022e+3, 2.5017333e+2, -535934.5, -540471.56, 97452.06, 0.04104927, -0.6140802, -440724.56, 47513.906, 0.0, 10.000057, 9.999952 
2.814923e+3, 2.601731e+2, -584215.8, -554717.0, 114816.56, 0.107564166, -0.58521277, -453706.34, -63467.01, 0.0, 9.999233, 9.999579 
2.8148422e+3, 2.7017146e+2, -509735.28, -484847.75, 92885.56, 0.058476456, -0.65916026, -403576.13, -111319.51, 0.0, 9.999143, 9.99943 
2.8147614e+3, 2.8017005e+2, -401585.84, -357035.78, 81734.13, 0.031029236, -0.7183074, -294595.72, -100323.72, 0.0, 9.9991, 9.999658 
2.8146815e+3, 2.9017064e+2, -320390.5, -218335.64, 53534.844, 0.09369434, -0.61518824, -195405.11, -99138.56, 0.0, 9.998775, 10.000093 
2.8146005e+3, 3.001713e+2, -281166.6, -157418.61, 80369.72, 0.07599144, -0.5274958, -117864.38, -117864.38, 0.0, 9.99841, 10.000016 
2.8145203e+3, 3.1016958e+2, -262312.03, -88152.39, 110799.5, 0.109239295, -0.68621737, -34308.742, -34308.742, 0.0, 9.998042, 10.000337 
2.8144386e+3, 3.2017046e+2, -193797.9, -3871.856, -53315.176, 0.118389495, -0.57212317, 10070.97, 10070.97, 0.0, 9.998287, 10.000798 
2.8259698e+3, 1.3027148e+2, -1382958.8, -1683171.4, -25126.525, -0.17029005, -0.598037, -1380870.3, 282406.53, 0.000003329977, 10.002844, 9.998848 
2.8258875e+3, 1.4026867e+2, -1151601.6, -1555026.9, 12199.915, -0.075941816, -0.721104, -1151233.0, 414069.03, 0.00000050691085, 10.003902, 9.998547 
2.8258055e+3, 1.5026763e+2, -1155011.4, -1509321.6, 76793.24, -0.105050884, -0.6378911, -1139083.3, 328229.66, 0.0000000023756648, 10.003231, 9.998503 
2.8257245e+3, 1.6026667e+2, -1161897.5, -1446520.0, 75240.695, -0.09060482, -0.5541187, -1143231.5, 226091.39, 0.0, 10.002445, 9.998641 
2.825644e+3, 1.7026433e+2, -1080625.1, -1330297.4, 104990.125, -0.0438342, -0.6328762, -1042344.75, 229000.19, 0.0, 10.002223, 9.998871 
2.8255638e+3, 1.8026203e+2, -991647.44, -1219828.0, 102383.23, -0.01997198, -0.71889335, -952444.1, 220922.17, 0.0, 10.002086, 9.999025 
2.8254822e+3, 1.9026102e+2, -899310.25, -1091068.9, 87714.16, -0.06203995, -0.70679885, -865241.06, 210134.61, 0.0, 10.001911, 9.999313 
2.825401e+3, 2.0026024e+2, -833689.44, -1008803.9, 81823.93, -0.08563404, -0.6812285, -801407.5, 175975.28, 0.0, 10.00169, 9.999312 
2.8253222e+3, 2.1025936e+2, -799927.7, -926950.1, 99181.57, 0.015305572, -0.672963, -745665.1, 133726.28, 0.0, 10.001186, 9.999443 
2.825243e+3, 2.2025846e+2, -791029.94, -894416.3, 105256.33, 0.10387341, -0.6704601, -725458.1, 55942.668, 0.0, 10.000666, 9.999248 
2.825162e+3, 2.3025717e+2, -753081.56, -827910.75, 122876.92, 0.015341538, -0.6848192, -662049.3, 21365.19, 0.0, 10.000266, 9.999223 
2.8250813e+3, 2.4025609e+2, -683064.7, -711133.56, 128781.83, -0.062109154, -0.6879991, -567554.8, 17871.244, 0.0, 9.999932, 9.999514 
2.825002e+3, 2.5025612e+2, -557195.56, -550650.9, 97559.95, 0.043716036, -0.6318379, -456308.4, 31117.05, 0.0, 9.999912, 9.999951 
2.8249225e+3, 2.602561e+2, -492598.56, -506415.44, 93770.58, 0.13981684, -0.5864622, -405482.28, -16056.919, 0.0, 9.999842, 9.9996195 
2.824841e+3, 2.7025464e+2, -474602.72, -459632.78, 98821.305, 0.06523799, -0.6485964, -368013.38, -76572.805, 0.0, 9.999351, 9.999502 
2.82476e+3, 2.8025323e+2, -437841.03, -378064.25, 115583.28, 0.017750133, -0.7078229, -288567.5, -95112.3, 0.0, 9.998876, 9.999619 
2.82468e+3, 2.9025313e+2, -300965.34, -231528.55, 83575.11, 0.092632346, -0.66211313, -175747.4, -80290.734, 0.0, 9.999007, 9.999891 
2.8245986e+3, 3.0025324e+2, -187003.52, -109043.97, 80916.734, 0.079236716, -0.60873216, -58207.594, -58207.594, 0.0, 9.999041, 10.000047 
2.8245178e+3, 3.1025308e+2, -224320.17, -44302.996, 41915.47, 0.0775628, -0.63150644, -35021.844, -35021.844, 0.0, 9.998196, 10.000563 
2.824437e+3, 3.2025322e+2, -205237.08, 49332.617, -70047.05, 0.1680924, -0.6246529, 67333.766, 67333.766, 0.0, 9.997966, 10.001313 
2.8359723e+3, 1.3035421e+2, -1366373.4, -1647229.9, 25234.768, -0.14585802, -0.5865561, -1364124.1, 298342.47, 0.00000016214108, 10.002844, 9.999092 
2.8358912e+3, 1.4035201e+2, -1150103.9, -1535953.4, 18052.785, -0.061168365, -0.6712142, -1149261.0, 415223.0, 0.0000000020979667, 10.003834, 9.998711 
2.8358087e+3, 1.5034978e+2, -1152997.4, -1500726.4, 42636.28, -0.097326346, -0.7168605, -1147845.9, 318658.94, 0.0, 10.00321, 9.998573 
2.8357267e+3, 1.6034786e+2, -1144003.1, -1411699.8, 56156.18, -0.09304537, -0.74057835, -1132700.1, 235822.88, 0.0, 10.002454, 9.998877 
2.8356457e+3, 1.7034723e+2, -1054569.4, -1277476.6, 98568.016, -0.076324694, -0.68251806, -1017236.0, 253293.14, 0.0, 10.002227, 9.999232 
2.835565e+3, 1.8034652e+2, -1003725.44, -1242127.6, 93928.52, -0.06963979, -0.633357, -971165.3, 201370.83, 0.0, 10.002073, 9.998878 
2.8354838e+3, 1.9034432e+2, -941745.75, -1179293.3, 81476.23, -0.03874777, -0.6910139, -916486.25, 158071.78, 0.0, 10.001911, 9.998709 
2.8354034e+3, 2.0034222e+2, -854512.44, -1047809.1, 69690.59, -0.004412575, -0.746889, -832006.75, 144572.17, 0.0, 10.00167, 9.999056 
2.835323e+3, 2.103415e+2, -798398.06, -923378.44, 80177.82, 0.02029324, -0.72023284, -759234.44, 119351.664, 0.0, 10.001182, 9.999471 
2.8352427e+3, 2.2034097e+2, -771033.56, -850778.3, 89032.664, 0.033475485, -0.6879216, -713352.8, 67238.41, 0.0, 10.000655, 9.999554 
2.835162e+3, 2.3034032e+2, -716296.9, -751446.3, 108739.67, -0.0009218751, -0.68708414, -623720.9, 58876.434, 0.0, 10.000263, 9.99975 
2.8350812e+3, 2.4033962e+2, -684073.25, -712507.75, 121997.67, -0.026117677, -0.6922802, -575467.2, 9136.921, 0.0, 9.9999275, 9.999507 
2.8350013e+3, 2.5033858e+2, -590438.7, -621475.5, 98233.72, 0.032992918, -0.70579374, -506505.2, -19889.951, 0.0, 9.999919, 9.999462 
2.8349215e+3, 2.6033777e+2, -484763.16, -496194.53, 81654.62, 0.080985025, -0.70433855, -408624.44, -20000.34, 0.0, 9.9998665, 9.999679 
2.83484e+3, 2.70338e+2, -437833.47, -384609.53, 76321.07, 0.06164405, -0.6356922, -330393.88, -39771.676, 0.0, 9.999352, 10.000018 
2.834759e+3, 2.8033808e+2, -432337.16, -368131.0, 110282.21, 0.06381478, -0.59023154, -285374.28, -92751.99, 0.0, 9.99888, 9.999685 
2.8346786e+3, 2.9033622e+2, -326812.2, -287254.16, 92672.12, 0.075281255, -0.6942779, -212273.84, -117633.34, 0.0, 9.999016, 9.999505 
2.8345966e+3, 3.0033478e+2, -224502.47, -189678.1, 64749.555, 0.006210928, -0.75123847, -140040.38, -140040.38, 0.0, 9.99905, 9.99949 
2.8345165e+3, 3.1033638e+2, -275351.56, -149435.94, 5.05108, 0.16415004, -0.52929896, -149435.94, -149435.94, 0.0, 9.998188, 9.999846 
2.8344336e+3, 3.2033518e+2, -220503.27, 23892.527, 2919.6445, 0.08531024, -0.6079081, 23927.402, 23927.402, 0.0, 9.997943, 10.001146 
2.8459755e+3, 1.3043647e+2, -1344518.6, -1618732.0, 62256.297, -0.115692094, -0.64053714, -1331046.1, 330611.06, 0.00000000032983427, 10.00291, 9.999259 
2.845894e+3, 1.4043503e+2, -1273209.1, -1581106.0, 23529.273, -0.083436824, -0.6637645, -1271421.5, 292246.5, 0.0, 10.002927, 9.998838 
2.845811e+3, 1.5043257e+2, -1226866.3, -1531299.5, 27267.387, -0.09418292, -0.738239, -1224443.3, 241247.98, 0.0, 10.002683, 9.998617 
2.8457293e+3, 1.604304e+2, -1134462.8, -1390089.9, 45600.77, -0.060835507, -0.79531217, -1126571.6, 241140.45, 0.0, 10.002446, 9.999029 
2.8456476e+3, 1.7043012e+2, -1037527.56, -1242560.6, 87854.35, -0.078314625, -0.7222069, -1005032.9, 264681.66, 0.0, 10.002233, 9.999466 
2.8455663e+3, 1.8042983e+2, -1002288.7, -1224774.5, 82600.32, -0.10219841, -0.652786, -974975.5, 196742.0, 0.0, 10.002018, 9.99902 
2.8454855e+3, 1.9042781e+2, -962866.4, -1187808.9, 102922.12, -0.028953062, -0.69733167, -922881.9, 150856.23, 0.0, 10.0017605, 9.998722 
2.845405e+3, 2.004258e+2, -883808.06, -1067290.0, 119857.38, 0.045361176, -0.7428392, -824611.25, 151147.45, 0.0, 10.00149, 9.999011 
2.8453237e+3, 2.1042493e+2, -817838.3, -944269.3, 121681.25, 0.011335702, -0.72129387, -743931.5, 133836.13, 0.0, 10.001099, 9.999367 
2.8452423e+3, 2.2042426e+2, -761308.1, -845414.25, 122045.42, -0.027440347, -0.69334537, -674273.8, 105500.29, 0.0, 10.000723, 9.999556 
2.845162e+3, 2.3042372e+2, -673113.9, -722119.75, 113439.2, -0.004652222, -0.6874067, -581561.44, 100217.28, 0.0, 10.000526, 9.999823 
2.8450817e+3, 2.4042308e+2, -632077.5, -689138.7, 104655.48, 0.028125023, -0.6908123, -552133.4, 31651.143, 0.0, 10.000294, 9.99949 
2.845001e+3, 2.5042167e+2, -611635.7, -644474.94, 102760.8, 0.041016508, -0.7317517, -523991.0, -38191.695, 0.0, 9.99983, 9.999347 
2.8449202e+3, 2.6042056e+2, -553151.56, -528936.94, 106708.29, 0.04590999, -0.75147945, -433651.3, -45839.973, 0.0, 9.999401, 9.999676 
2.844839e+3, 2.704212e+2, -395447.0, -354154.16, 75755.28, 0.046402924, -0.6512181, -296282.2, -6476.579, 0.0, 9.999601, 10.000109 
2.844758e+3, 2.8042164e+2, -301063.1, -300628.03, 86747.086, 0.07218962, -0.5770416, -214098.22, -22296.256, 0.0, 9.999757, 9.999731 
2.8446773e+3, 2.9041946e+2, -271018.22, -260287.13, 92054.04, 0.081500605, -0.7112444, -173442.39, -79619.875, 0.0, 9.999399, 9.999506 
2.8445953e+3, 3.0041775e+2, -248609.42, -223703.2, 81833.05, 0.010383372, -0.7902669, -153381.14, -153381.14, 0.0, 9.998992, 9.99928 
2.8445145e+3, 3.104197e+2, -220536.27, -170535.92, 33337.56, 0.1480479, -0.50029445, -153865.94, -153865.94, 0.0, 9.998778, 9.999415 
2.8444314e+3, 3.2041755e+2, -160384.44, 71389.79, 77648.12, 0.06687262, -0.6434096, 94998.39, 94998.39, 0.0, 9.998276, 10.001315 
2.855978e+3, 1.3051839e+2, -1336679.9, -1604460.8, 61970.918, -0.10622989, -0.74290633, -1323033.8, 337814.63, 0.0, 10.002923, 9.999347 
2.855896e+3, 1.4051783e+2, -1276106.8, -1574376.5, 15097.0, -0.1271967, -0.68593174, -1275344.6, 287508.34, 0.0, 10.002872, 9.99891 
2.8558135e+3, 1.5051593e+2, -1232537.0, -1531819.4, 16867.826, -0.08731052, -0.71098787, -1231589.3, 233283.31, 0.0, 10.002632, 9.998639 
2.8557315e+3, 1.6051403e+2, -1135494.9, -1378505.0, 39431.363, -0.0057923454, -0.74454784, -1129256.8, 237635.22, 0.0, 10.002386, 9.999138 
2.8556496e+3, 1.7051303e+2, -1030169.9, -1221234.5, 81818.58, -0.064442806, -0.75929165, -999921.8, 268978.88, 0.0, 10.002206, 9.999626 
2.8555676e+3, 1.8051222e+2, -980675.94, -1175677.0, 73905.62, -0.13023694, -0.7621053, -955831.06, 215076.75, 0.0, 10.001998, 9.999367 
2.8554872e+3, 1.9051154e+2, -931039.94, -1116827.5, 92995.07, -0.031991474, -0.7195958, -892490.44, 180425.14, 0.0, 10.001737, 9.999224 
2.8554064e+3, 2.0051078e+2, -881827.75, -1053417.0, 105831.55, 0.062115975, -0.6789997, -831383.5, 143540.69, 0.0, 10.001448, 9.999126 
2.8553241e+3, 2.1050952e+2, -834631.06, -978116.9, 105689.664, -0.010907164, -0.6824475, -778634.56, 98302.83, 0.0, 10.001094, 9.999137 
2.8552422e+3, 2.2050828e+2, -783125.5, -889227.75, 111344.78, -0.08100192, -0.68930334, -712839.4, 66110.87, 0.0, 10.000715, 9.999259 
2.855162e+3, 2.3050736e+2, -698473.5, -776067.5, 107085.47, 0.00056436064, -0.68600494, -623373.56, 57585.566, 0.0, 10.00053, 9.999452 
2.8550822e+3, 2.4050647e+2, -630255.2, -688976.6, 91190.61, 0.08248857, -0.6850817, -563815.2, 19152.287, 0.0, 10.000308, 9.999486 
2.8550008e+3, 2.5050548e+2, -592396.1, -604740.75, 82495.45, 0.06523758, -0.7090672, -515842.4, -30864.875, 0.0, 9.999829, 9.999621 
2.854919e+3, 2.6050454e+2, -558193.06, -541270.8, 103235.71, 0.03293379, -0.7280937, -446150.1, -59163.246, 0.0, 9.999408, 9.999589 
2.854838e+3, 2.7050412e+2, -421810.03, -411788.97, 86682.49, 0.016843844, -0.700582, -329972.3, -40980.723, 0.0, 9.999612, 9.999709 
2.854757e+3, 2.8050375e+2, -293488.13, -291994.66, 80490.92, 0.034857735, -0.67567384, -212247.02, -21251.416, 0.0, 9.999785, 9.999778 
2.8546768e+3, 2.9050297e+2, -241549.95, -200211.75, 73799.33, 0.11247604, -0.70630676, -144241.73, -51239.195, 0.0, 9.999402, 9.999918 
2.8545946e+3, 3.0050233e+2, -232104.5, -192466.38, 69959.08, 0.08130547, -0.7137806, -139573.22, -139573.22, 0.0, 9.999004, 9.999489 
2.8545114e+3, 3.1050277e+2, -219754.88, -177962.22, 29941.75, 0.0034134656, -0.574555, -162346.02, -162346.02, 0.0, 9.9988165, 9.999348 
2.8544304e+3, 3.2050022e+2, -126000.44, 141035.52, 8437.437, 0.18174662, -0.76268303, 141301.84, 141301.84, 0.0, 9.998271, 10.0018015 
2.865981e+3, 1.3060074e+2, -1341958.5, -1654840.9, 47289.957, -0.082088016, -0.8077612, -1334967.3, 325070.53, 0.0, 10.003087, 9.998925 
2.8658983e+3, 1.4060009e+2, -1373226.0, -1600113.3, -12469.6455, -0.13311224, -0.7368348, -1372542.8, 189502.7, 0.0, 10.002113, 9.999098 
2.8658152e+3, 1.5059906e+2, -1311808.3, -1497939.8, 25874.6, -0.10701627, -0.7284858, -1308278.4, 155777.95, 0.0, 10.00178, 9.99928 
2.8657332e+3, 1.6059795e+2, -1234103.5, -1396945.1, 81754.59, -0.03107286, -0.73564893, -1200141.6, 165926.03, 0.0, 10.001586, 9.999394 
2.8656512e+3, 1.7059681e+2, -1120582.8, -1273228.4, 116020.01, -0.06867703, -0.76537305, -1058032.3, 210046.19, 0.0, 10.001622, 9.99955 
2.8655693e+3, 1.805958e+2, -1030731.94, -1190821.9, 84782.28, -0.1149062, -0.78183544, -994178.3, 175909.4, 0.0, 10.001615, 9.99945 
2.865488e+3, 1.905954e+2, -997382.75, -1125183.8, 80108.14, -0.037165314, -0.72977203, -958810.9, 113281.8, 0.0, 10.001182, 9.999432 
2.865407e+3, 2.0059489e+2, -965688.6, -1082180.3, 88030.3, 0.039745886, -0.6818478, -918379.2, 55719.383, 0.0, 10.000825, 9.999226 
2.865325e+3, 2.1059352e+2, -837237.6, -981419.4, 102825.32, -0.0036712254, -0.6978221, -783749.25, 92363.41, 0.0, 10.001088, 9.999116 
2.8652433e+3, 2.2059213e+2, -704881.0, -855703.0, 114932.266, -0.04425342, -0.71526945, -642828.44, 135298.3, 0.0, 10.001272, 9.999221 
2.8651625e+3, 2.3059115e+2, -688629.6, -780103.56, 123415.45, 0.007966828, -0.71320724, -602748.8, 77387.85, 0.0, 10.000637, 9.999372 
2.8650817e+3, 2.4059024e+2, -668357.25, -707687.25, 131387.89, 0.06638034, -0.7078937, -555170.9, 26974.613, 0.0, 10.000052, 9.999479 
2.8650004e+3, 2.505895e+2, -520786.4, -566724.9, 112526.586, 0.06762973, -0.7073356, -428908.72, 55244.082, 0.0, 10.000309, 9.99965 
2.864919e+3, 2.6058868e+2, -414015.16, -487235.06, 116421.61, 0.052540377, -0.71186584, -328583.0, 57577.664, 0.0, 10.000463, 9.999453 
2.8648373e+3, 2.7058756e+2, -410659.13, -438647.03, 103013.08, 0.020331234, -0.7305138, -320693.84, -32521.732, 0.0, 9.999829, 9.999418 
2.8647563e+3, 2.8058657e+2, -388240.1, -344480.22, 100253.52, 0.031103281, -0.7401608, -263746.8, -73565.18, 0.0, 9.999173, 9.999708 
2.8646758e+3, 2.9058638e+2, -259456.64, -196562.8, 77330.805, 0.11403062, -0.7181174, -144529.4, -52346.426, 0.0, 9.999231, 10.000024 
2.8645936e+3, 3.0058622e+2, -182011.08, -157243.1, 49886.402, 0.080492824, -0.69151, -118226.54, -118226.54, 0.0, 9.999299, 9.999593 
2.8645098e+3, 3.1058562e+2, -198635.77, -160537.1, 13321.534, -0.023772154, -0.664185, -156341.22, -156341.22, 0.0, 9.998935, 9.999411 
2.8644297e+3, 3.2058346e+2, 59531.49, 170689.1, 38954.395, 0.24384563, -0.80393237, 182981.11, 182981.11, 0.0, 9.999815, 10.001257 
2.875984e+3, 1.3068353e+2, -1399125.6, -1761139.5, 9797.118, -0.045469593, -0.8388152, -1398860.6, 260364.0, 0.0, 10.003038, 9.998215 
2.8759e+3, 1.4068204e+2, -1352927.5, -1556773.8, -24358.379, -0.12467363, -0.8094471, -1350057.3, 211184.98, 0.0, 10.00211, 9.999396 
2.8758162e+3, 1.5068208e+2, -1235877.0, -1342035.1, 21134.12, -0.15752041, -0.784346, -1231824.3, 231416.88, 0.0, 10.001785, 10.000348 
2.8757334e+3, 1.6068211e+2, -1214321.6, -1353685.8, 77996.99, -0.12235998, -0.7626868, -1179413.4, 185826.72, 0.0, 10.001575, 9.999697 
2.8756523e+3, 1.706813e+2, -1144246.8, -1316746.8, 119080.914, -0.084320895, -0.742665, -1083461.6, 183787.25, 0.0, 10.001596, 9.999265 
2.875571e+3, 1.8068042e+2, -1046866.9, -1213255.4, 76655.74, -0.065803744, -0.72460246, -1016935.56, 152323.05, 0.0, 10.001567, 9.999318 
2.8754887e+3, 1.9067937e+2, -999162.9, -1128660.9, 63537.9, -0.048162047, -0.7327662, -973195.25, 98074.164, 0.0, 10.00118, 9.999409 
2.8754067e+3, 2.0067827e+2, -959603.8, -1070998.0, 88726.234, -0.021655198, -0.745614, -910541.56, 62738.938, 0.0, 10.00083, 9.999301 
2.8753263e+3, 2.1067703e+2, -826810.4, -959891.4, 117167.7, 0.02817728, -0.7602216, -758607.0, 116685.38, 0.0, 10.001085, 9.999267 
2.8752452e+3, 2.2067589e+2, -696149.5, -829920.06, 105126.29, 0.059589863, -0.7702861, -638434.75, 138868.7, 0.0, 10.001238, 9.999414 
2.875163e+3, 2.306751e+2, -675685.2, -750919.44, 95287.32, 0.01411052, -0.76847845, -610858.56, 68452.73, 0.0, 10.000628, 9.999577 
2.8750807e+3, 2.4067435e+2, -669672.1, -712077.56, 127027.33, -0.016482146, -0.7601122, -562090.1, 19228.496, 0.0, 10.000058, 9.999446 
2.8750002e+3, 2.5067374e+2, -536538.75, -602973.4, 125925.65, 0.046451762, -0.72570086, -439522.97, 43802.113, 0.0, 10.000321, 9.999396 
2.8749195e+3, 2.6067305e+2, -423099.03, -513238.06, 105465.54, 0.089740776, -0.69970727, -353476.63, 31856.0, 0.0, 10.000492, 9.99926 
2.8748375e+3, 2.7067152e+2, -422646.97, -462835.56, 72773.125, 0.054889075, -0.738367, -367244.84, -79897.93, 0.0, 9.999826, 9.999253 
2.8747553e+3, 2.8067017e+2, -399779.75, -370556.25, 88981.03, 0.05031789, -0.77185047, -294995.22, -105635.375, 0.0, 9.999179, 9.999527 
2.8746742e+3, 2.9066974e+2, -274889.28, -231295.6, 85826.07, 0.07803752, -0.7531232, -164541.8, -73177.27, 0.0, 9.999239, 9.999784 
2.8745916e+3, 3.0066934e+2, -181417.73, -156739.73, 39969.832, 0.0078625865, -0.72952724, -127247.664, -127247.664, 0.0, 9.999306, 9.999592 
2.8745094e+3, 3.1066844e+2, -190282.33, -138230.17, -2232.5056, 0.07333125, -0.74677825, -138134.6, -138134.6, 0.0, 9.99892, 9.999568 
2.8744286e+3, 3.2066783e+2, -47049.89, -78507.88, 228727.7, 0.19164562, -0.6962718, 166488.98, 166488.98, 0.0, 9.999935, 9.999488 
2.885986e+3, 1.3076818e+2, -1431831.8, -1700686.3, 56119.16, -0.07323539, -0.8044738, -1420588.0, 237807.95, 0.0, 10.002479, 9.998903 
2.885902e+3, 1.4076686e+2, -1358016.8, -1545839.9, 84197.59, -0.10840379, -0.8065423, -1325799.0, 234610.83, 0.0, 10.002015, 9.999517 
2.8858176e+3, 1.5076657e+2, -1283068.1, -1402459.5, 67960.586, -0.1388445, -0.78875816, -1252308.3, 210104.05, 0.0, 10.001625, 10.00001 
2.8857347e+3, 1.6076635e+2, -1257529.9, -1374783.5, 64682.453, -0.10954813, -0.7697012, -1228858.8, 135555.55, 0.0, 10.00128, 9.999695 
2.8856534e+3, 1.7076564e+2, -1205785.0, -1321385.4, 129913.19, -0.08491561, -0.7555512, -1121394.1, 145027.11, 0.0, 10.001066, 9.999488 
2.8855717e+3, 1.8076485e+2, -1132632.5, -1243403.4, 114665.11, -0.075737044, -0.7461513, -1060677.4, 107751.97, 0.0, 10.000929, 9.999416 
2.8854895e+3, 1.9076373e+2, -1011173.8, -1133969.3, 103935.766, -0.053754974, -0.76217675, -951855.6, 118585.04, 0.0, 10.001098, 9.999411 
2.8854075e+3, 2.007626e+2, -902280.4, -1038140.3, 130925.086, -0.019120576, -0.7782762, -822711.7, 149740.36, 0.0, 10.001201, 9.99935 
2.8853267e+3, 2.107615e+2, -862381.2, -967552.5, 155437.72, 0.028063115, -0.78549844, -750875.0, 123587.58, 0.0, 10.000801, 9.9993515 
2.8852457e+3, 2.207605e+2, -812299.1, -889800.0, 133499.8, 0.059176847, -0.7869377, -712039.5, 64433.04, 0.0, 10.000459, 9.999379 
2.885163e+3, 2.3075965e+2, -683132.2, -768315.75, 96781.266, 0.015356407, -0.7786022, -619985.25, 58496.348, 0.0, 10.000638, 9.999453 
2.885081e+3, 2.4075887e+2, -567081.0, -664852.75, 117822.59, -0.012947603, -0.7648734, -488405.13, 92084.78, 0.0, 10.000772, 9.999426 
2.885e+3, 2.5075826e+2, -511257.28, -587661.9, 135510.1, 0.044206273, -0.73329955, -408667.53, 73828.445, 0.0, 10.000485, 9.99942 
2.8849193e+3, 2.607575e+2, -468846.44, -535989.56, 126365.336, 0.08921154, -0.70939326, -371669.22, 12834.009, 0.0, 10.000191, 9.999243 
2.8848368e+3, 2.7075592e+2, -385367.28, -454756.03, 90648.23, 0.055889156, -0.7517199, -323000.84, -36482.57, 0.0, 10.000132, 9.999157 
2.8847545e+3, 2.8075436e+2, -320108.2, -345447.22, 110863.92, 0.05298637, -0.79104745, -221192.2, -32659.42, 0.0, 9.999785, 9.999405 
2.8846732e+3, 2.9075375e+2, -314611.44, -287675.0, 121777.03, 0.08403473, -0.76581836, -178623.69, -88083.92, 0.0, 9.999133, 9.999444 
2.884591e+3, 3.0075315e+2, -239827.77, -231221.78, 74971.26, 0.017788716, -0.72927266, -160430.13, -160430.13, 0.0, 9.999111, 9.999174 
2.8845087e+3, 3.107517e+2, 20818.4, -107478.24, -10084.176, 0.062590465, -0.74458665, 21606.184, 21606.184, 0.0, 10.0006895, 9.998937 
2.8844285e+3, 3.207507e+2, -18127.586, -112602.84, 177058.02, 0.18232597, -0.6737371, 117885.8, 117885.8, 0.0, 10.000333, 9.999081 
2.8959876e+3, 1.3085414e+2, -1340158.4, -1472695.8, 35193.29, -0.15088746, -0.72886693, -1331393.0, 326163.06, 0.0, 10.002326, 10.000538 
2.895904e+3, 1.408538e+2, -1372802.5, -1563488.8, 60609.67, -0.088237196, -0.74652857, -1355168.4, 204387.33, 0.0, 10.001961, 9.999422 
2.8958195e+3, 1.5085222e+2, -1374800.3, -1600510.6, 51919.76, -0.06831046, -0.7501484, -1363430.0, 98142.766, 0.0, 10.001657, 9.998636 
2.8957367e+3, 1.6085067e+2, -1262530.5, -1400412.3, 58736.832, -0.019668674, -0.7578819, -1240901.8, 122687.375, 0.0, 10.001345, 9.999488 
2.895654e+3, 1.7084986e+2, -1158784.1, -1229565.1, 123088.77, -0.08057613, -0.80204433, -1066099.1, 199495.72, 0.0, 10.00109, 10.000107 
2.895572e+3, 1.8084912e+2, -1118716.9, -1209472.8, 113109.375, -0.14142917, -0.8364877, -1042222.44, 125377.51, 0.0, 10.000907, 9.9996605 
2.8954902e+3, 1.9084847e+2, -1013073.25, -1134676.6, 110641.51, -0.054782804, -0.81159294, -947627.6, 121979.28, 0.0, 10.0010805, 9.999415 
2.895409e+3, 2.0084779e+2, -905681.5, -1038104.75, 123697.76, 0.02948818, -0.78329974, -831589.5, 140024.81, 0.0, 10.00117, 9.999364 
2.895327e+3, 2.1084684e+2, -859365.06, -962667.4, 137852.9, -0.003910263, -0.77861667, -763804.6, 109819.7, 0.0, 10.000807, 9.999382 
2.895245e+3, 2.2084585e+2, -829849.6, -927973.56, 131057.06, -0.037700724, -0.7719653, -738972.2, 36662.773, 0.0, 10.000465, 9.999114 
2.8951633e+3, 2.3084478e+2, -714466.3, -834123.1, 106514.8, 0.010141881, -0.7446635, -652127.5, 25520.238, 0.0, 10.000639, 9.999001 
2.895082e+3, 2.4084379e+2, -567449.4, -665743.25, 113852.9, 0.057389073, -0.7223469, -492588.63, 87070.625, 0.0, 10.000772, 9.99942 
2.895001e+3, 2.50843e+2, -490298.03, -543143.4, 122233.38, 0.058000714, -0.73240614, -391664.1, 90001.69, 0.0, 10.000483, 9.999728 
2.894919e+3, 2.6084214e+2, -455142.47, -511623.2, 122000.67, 0.04436608, -0.7451337, -358156.3, 25516.54, 0.0, 10.000208, 9.999402 
2.8948364e+3, 2.7084073e+2, -386471.78, -460518.16, 86154.13, 0.019191159, -0.7701003, -329722.63, -44036.676, 0.0, 10.000143, 9.999112 
2.8947538e+3, 2.8083932e+2, -320297.56, -354240.2, 83452.414, 0.03500542, -0.7936258, -252108.27, -64408.547, 0.0, 9.999818, 9.99933 
2.8946725e+3, 2.9083857e+2, -351141.4, -354453.4, 106168.445, 0.13373254, -0.7555037, -246616.05, -156907.56, 0.0, 9.999103, 9.998994 
2.8945902e+3, 3.0083755e+2, -303087.63, -358877.78, 111778.32, 0.09231091, -0.69842684, -215776.25, -215776.25, 0.0, 9.999101, 9.998299 
2.8945076e+3, 3.108349e+2, -71851.18, -321773.94, 55305.426, -0.06390158, -0.7101966, -60159.582, -60159.582, 0.0, 10.00079, 9.9974165 
2.8944293e+3, 3.2083058e+2, 54021.574, 52839.45, -26153.256, 0.26328182, -0.8721407, 79590.445, 79590.445, 0.0, 10.000266, 10.000252 
2.9059884e+3, 1.3093916e+2, -1542522.9, -1574642.9, 23817.03, -0.15621012, -0.7255775, -1529857.0, 126865.34, 0.0, 10.000947, 10.000507 
2.9059052e+3, 1.4093892e+2, -1458982.8, -1600726.1, -14686.997, -0.06457758, -0.73259, -1457476.9, 101244.68, 0.0, 10.001348, 9.999463 
2.9058212e+3, 1.5093724e+2, -1345655.9, -1579766.5, 46468.08, -0.053352177, -0.75350773, -1336769.9, 123968.85, 0.0, 10.001825, 9.998696 
2.905738e+3, 1.6093555e+2, -1167468.9, -1367026.1, 100178.5, -0.01125767, -0.7765908, -1125856.1, 236899.6, 0.0, 10.00205, 9.999376 
2.905655e+3, 1.7093469e+2, -1146828.3, -1247477.5, 112121.53, -0.0630133, -0.80335534, -1074255.3, 190507.33, 0.0, 10.001275, 9.999894 
2.9055727e+3, 1.8093394e+2, -1166209.6, -1229483.6, 78454.95, -0.11732556, -0.8257184, -1113253.0, 53515.445, 0.0, 10.000567, 9.999688 
2.9054907e+3, 1.9093321e+2, -1069758.6, -1142391.3, 92478.89, -0.0522615, -0.82447827, -1006720.94, 62054.867, 0.0, 10.000605, 9.999592 
2.9054093e+3, 2.0093253e+2, -956823.1, -1049111.5, 111412.195, 0.014723784, -0.8128497, -882377.25, 88405.555, 0.0, 10.000756, 9.999489 
2.9053274e+3, 2.1093196e+2, -818775.3, -931212.75, 125773.484, -0.010609104, -0.7810052, -737227.9, 135561.61, 0.0, 10.001034, 9.99949 
2.9052454e+3, 2.2093129e+2, -722990.2, -869817.2, 126607.016, -0.032393314, -0.7509469, -650051.8, 124745.45, 0.0, 10.001169, 9.999174 
2.9051638e+3, 2.3093009e+2, -714687.25, -828354.4, 132504.84, 0.022393342, -0.7416001, -627341.8, 49468.953, 0.0, 10.000612, 9.999053 
2.9050824e+3, 2.4092892e+2, -664513.3, -711482.5, 170652.22, 0.0769487, -0.7379902, -515737.3, 63086.152, 0.0, 10.000104, 9.999428 
2.9050007e+3, 2.50928e+2, -522212.5, -553055.75, 162849.8, 0.055837918, -0.75961995, -374055.75, 106775.7, 0.0, 10.00024, 9.999777 
2.9049188e+3, 2.6092723e+2, -437829.06, -480974.56, 144489.77, 0.024711173, -0.774957, -313310.47, 69527.82, 0.0, 10.000231, 9.9996 
2.904836e+3, 2.7092645e+2, -433396.97, -440643.03, 122572.67, 0.026928755, -0.7675317, -314393.78, -29548.373, 0.0, 9.9996395, 9.999488 
2.9047534e+3, 2.809256e+2, -388223.53, -349574.22, 150844.2, 0.076339394, -0.7716739, -216821.88, -29967.94, 0.0, 9.999205, 9.99965 
2.9046705e+3, 2.9092476e+2, -414802.5, -314059.78, 190571.34, 0.117194206, -0.78445476, -167315.16, -78452.2, 0.0, 9.998366, 9.999624 
2.9159895e+3, 1.3102356e+2, -1621735.1, -1741193.0, 31747.553, -0.11840261, -0.7650834, -1613822.0, 42070.863, 0.0, 10.000962, 9.999352 
2.9159066e+3, 1.4102279e+2, -1443308.5, -1571863.1, 3587.3125, -0.04505301, -0.7519539, -1443208.5, 114692.76, 0.0, 10.001365, 9.999652 
2.9158223e+3, 1.5102181e+2, -1276459.6, -1423749.1, 61210.055, -0.08422621, -0.792082, -1254343.1, 205565.23, 0.0, 10.001771, 9.999796 
2.915739e+3, 1.6102082e+2, -1189613.1, -1387879.5, 82625.75, -0.06920164, -0.8191834, -1159694.4, 202221.98, 0.0, 10.001942, 9.999287 
2.9156563e+3, 1.7102006e+2, -1208323.1, -1373439.0, 78852.12, -0.033778038, -0.76556677, -1176716.9, 87208.62, 0.0, 10.001266, 9.999035 
2.9155734e+3, 1.8101926e+2, -1169480.0, -1247884.6, 70349.164, -0.025900539, -0.7301218, -1128147.8, 37787.152, 0.0, 10.000618, 9.999537 
2.915491e+3, 1.9101793e+2, -1045005.25, -1096163.9, 98167.516, -0.05207143, -0.81019187, -969139.2, 98807.766, 0.0, 10.000626, 9.9999 
2.9154092e+3, 2.0101684e+2, -946136.25, -1021382.9, 119801.875, -0.05860265, -0.8671251, -858188.9, 111767.96, 0.0, 10.000731, 9.999691 
2.915328e+3, 2.110169e+2, -809707.06, -908178.2, 136926.7, 0.0036724356, -0.78925145, -713432.94, 158524.52, 0.0, 10.001014, 9.999658 
2.915247e+3, 2.210168e+2, -702533.06, -819866.06, 116722.74, 0.05352265, -0.7245685, -630562.8, 143396.5, 0.0, 10.001137, 9.999534 
2.9151642e+3, 2.3101553e+2, -677597.7, -750541.1, 108240.164, 0.04886208, -0.7697203, -599849.8, 76121.195, 0.0, 10.0006075, 9.999591 
2.9150817e+3, 2.4101426e+2, -662488.5, -710194.6, 165611.73, 0.04327594, -0.81301606, -519020.88, 58962.047, 0.0, 10.000117, 9.99943 
2.9150003e+3, 2.5101337e+2, -538776.5, -586395.0, 170321.58, 0.0330208, -0.81212616, -390608.1, 89384.66, 0.0, 10.000237, 9.999546 
2.9149184e+3, 2.6101282e+2, -418450.84, -447787.63, 128786.77, 0.018663943, -0.79589313, -303499.8, 78499.62, 0.0, 10.000257, 9.999819 
2.9148358e+3, 2.7101308e+2, -378611.7, -329670.47, 97191.74, 0.076569766, -0.7425489, -253916.11, 30080.646, 0.0, 9.999644, 10.000253 
2.9147533e+3, 2.8101322e+2, -342989.72, -252267.52, 150064.25, 0.15430187, -0.7213111, -140858.39, 45136.94, 0.0, 9.9992, 10.00032 
2.9146677e+3, 2.9101226e+2, -295446.94, -68566.16, 121326.21, 0.025585191, -0.85775256, -15907.864, 72095.01, 0.0, 9.998392, 10.001296 
2.9259905e+3, 1.3110743e+2, -1616042.4, -1762697.5, 12394.673, -0.08955368, -0.79272187, -1615002.3, 40066.258, 0.0, 10.001105, 9.999135 
2.9259074e+3, 1.4110641e+2, -1429726.4, -1551152.4, 6285.1826, -0.052163783, -0.7904899, -1429401.9, 127678.77, 0.0, 10.001394, 9.999782 
2.9258233e+3, 1.5110587e+2, -1375499.5, -1427120.0, 18081.627, -0.09548692, -0.8239848, -1369796.0, 89287.44, 0.0, 10.000899, 10.000193 
2.92574e+3, 1.6110532e+2, -1381506.0, -1456502.0, 19466.365, -0.07596326, -0.8417581, -1376754.3, -15667.432, 0.0, 10.000517, 9.999504 
2.9256573e+3, 1.7110473e+2, -1227809.9, -1372323.5, 68061.016, -0.023553098, -0.78375804, -1200802.6, 62292.074, 0.0, 10.001082, 9.999132 
2.9255745e+3, 1.8110408e+2, -1044271.6, -1190039.3, 96785.88, -0.0015296617, -0.7398609, -995996.2, 169107.02, 0.0, 10.001481, 9.99952 
2.9254916e+3, 1.911029e+2, -1013258.94, -1090786.3, 100628.195, -0.038030084, -0.7940573, -944186.4, 122928.14, 0.0, 10.000884, 9.999813 
2.9254094e+3, 2.0110197e+2, -990965.9, -1025531.2, 117552.125, -0.054461118, -0.83543855, -889432.75, 79690.7, 0.0, 10.000347, 9.999848 
2.9253286e+3, 2.1110205e+2, -882857.25, -909144.4, 147564.42, 0.0055111325, -0.7826969, -747852.2, 123270.7, 0.0, 10.000361, 9.999967 
2.9252476e+3, 2.2110201e+2, -786965.0, -834999.75, 124305.14, 0.057672817, -0.74102324, -684378.25, 88745.05, 0.0, 10.000443, 9.999764 
2.9251647e+3, 2.3110087e+2, -663834.6, -716127.6, 89195.164, 0.04820651, -0.79584676, -597032.7, 78100.61, 0.0, 10.00058, 9.999842 
2.9250818e+3, 2.410998e+2, -589318.94, -663308.06, 135601.08, 0.03963108, -0.84065855, -485756.56, 91386.56, 0.0, 10.000565, 9.999539 
2.9250002e+3, 2.5109923e+2, -566087.2, -587350.1, 160990.92, 0.043071605, -0.81550926, -415377.1, 63773.55, 0.0, 9.999992, 9.9996605 
2.9249182e+3, 2.6109904e+2, -522333.78, -470836.03, 136330.95, 0.044970717, -0.77961105, -357843.66, 23310.969, 0.0, 9.999418, 10.00007 
2.924835e+3, 2.710996e+2, -391930.25, -279545.66, 88163.734, 0.10147773, -0.7361517, -231189.31, 51959.523, 0.0, 9.999303, 10.000764 
2.924752e+3, 2.811001e+2, -324968.8, -199568.53, 131959.63, 0.17943014, -0.7276804, -116170.586, 68972.91, 0.0, 9.999114, 10.000739 
2.924666e+3, 2.9109952e+2, -157602.53, 35186.098, 8601.559, 0.0075999554, -0.8657087, 35569.11, 122716.555, 0.0, 9.999158, 10.001658 
2.9359916e+3, 1.3119091e+2, -1593811.5, -1703880.1, 31023.783, -0.07378052, -0.81500536, -1585669.5, 68578.71, 0.0, 10.001056, 9.999559 
2.935908e+3, 1.411899e+2, -1441767.4, -1551793.1, 3496.4707, -0.080247186, -0.8431678, -1441656.4, 114603.51, 0.0, 10.00129, 9.9998255 
2.9358238e+3, 1.5118954e+2, -1386097.9, -1445838.6, -1866.3077, -0.09305826, -0.85010105, -1386039.6, 72223.13, 0.0, 10.000884, 10.000072 
2.9357404e+3, 1.6118923e+2, -1344413.5, -1387747.4, 27336.385, -0.04896989, -0.849628, -1331198.8, 29066.266, 0.0, 10.000553, 9.999959 
2.935658e+3, 1.7118882e+2, -1173292.5, -1253787.0, 92717.51, -0.032879185, -0.8504206, -1112463.6, 149805.58, 0.0, 10.001059, 9.999958 
2.9355755e+3, 1.8118845e+2, -1050218.4, -1185783.3, 87580.336, -0.032618705, -0.8351335, -1007254.4, 157019.17, 0.0, 10.00141, 9.999584 
2.9354924e+3, 1.9118813e+2, -1042193.56, -1150008.8, 74180.29, -0.0134942215, -0.77347624, -1004401.94, 61877.066, 0.0, 10.000879, 9.99941 
2.9354098e+3, 2.0118779e+2, -978808.4, -1005244.06, 111166.39, 0.005381209, -0.73241234, -880076.8, 88207.19, 0.0, 10.000369, 9.999977 
2.9353285e+3, 2.1118738e+2, -851687.8, -844347.2, 149817.3, -0.0063608163, -0.76775753, -698155.25, 172131.17, 0.0, 10.0003605, 10.000412 
2.9352468e+3, 2.2118694e+2, -783233.75, -820691.4, 128206.086, -0.014067504, -0.7999295, -672395.7, 99893.55, 0.0, 10.000415, 9.999876 
2.9351646e+3, 2.3118615e+2, -669219.4, -722753.94, 93949.945, 0.01863428, -0.8157708, -598297.94, 75999.26, 0.0, 10.000561, 9.9998045 
2.935082e+3, 2.4118555e+2, -573122.5, -631069.4, 123145.6, 0.056477163, -0.8187614, -475587.88, 100716.164, 0.0, 10.000567, 9.999761 
2.9350004e+3, 2.511856e+2, -532155.75, -520941.63, 136903.45, 0.08523198, -0.7696763, -389530.47, 88774.72, 0.0, 10.000005, 10.000114 
2.9349178e+3, 2.611859e+2, -496236.0, -421839.6, 123832.586, 0.09170894, -0.7241555, -329738.84, 50564.824, 0.0, 9.999441, 10.000393 
2.934834e+3, 2.7118605e+2, -374020.78, -244410.53, 85771.6, 0.09180436, -0.74928236, -201714.63, 80586.664, 0.0, 9.999315, 10.000995 
2.9347506e+3, 2.811862e+2, -300767.38, -180372.2, 115999.58, 0.1258413, -0.7945882, -109880.64, 74418.86, 0.0, 9.999233, 10.000821 
2.9346654e+3, 2.911871e+2, -192283.14, -50284.863, 25723.096, 0.043634217, -0.7477872, -45768.734, 40522.348, 0.0, 9.999209, 10.001048 
2.9459918e+3, 1.312745e+2, -1620033.9, -1658791.5, 25947.047, -0.11025475, -0.83897036, -1607027.8, 46400.875, 0.0, 10.000615, 10.00009 
2.9459083e+3, 1.4127411e+2, -1593774.4, -1603077.9, 15075.3125, -0.07956944, -0.8476656, -1582649.5, -27215.813, 0.0, 10.000152, 10.000024 
2.9458246e+3, 1.5127397e+2, -1431392.1, -1474092.9, 15869.631, -0.068148054, -0.83035433, -1426140.1, 31294.582, 0.0, 10.000599, 10.000017 
2.945741e+3, 1.6127372e+2, -1287108.0, -1345498.0, 40018.504, -0.0068512238, -0.82342744, -1266766.9, 92669.95, 0.0, 10.000881, 10.000092 
2.9456586e+3, 1.7127329e+2, -1229443.0, -1247154.3, 76887.35, -0.009434258, -0.852234, -1160903.0, 100537.44, 0.0, 10.0005245, 10.000263 
2.945576e+3, 1.8127298e+2, -1201584.9, -1237370.4, 51561.977, -0.031714868, -0.8597664, -1164899.4, -1455.9086, 0.0, 10.000276, 9.999779 
2.945493e+3, 1.9127294e+2, -1046532.1, -1143178.1, 65033.42, -0.02136606, -0.78062963, -1013833.75, 51612.58, 0.0, 10.000804, 9.999496 
2.9454103e+3, 2.0127286e+2, -860613.2, -941899.5, 114166.484, -0.00014691574, -0.72443765, -780071.1, 187378.17, 0.0, 10.0011425, 10.000045 
2.9453287e+3, 2.1127214e+2, -858218.56, -843241.94, 118553.33, 0.0063782292, -0.79346144, -731940.7, 137514.22, 0.0, 10.000289, 10.000459 
2.9452467e+3, 2.2127156e+2, -880678.2, -852187.06, 101418.03, 0.006445336, -0.84660524, -764019.0, 7440.4126, 0.0, 9.99967, 10.000025 
2.9451644e+3, 2.3127155e+2, -698849.94, -707336.0, 96615.71, 0.015190011, -0.8113602, -606384.1, 67076.414, 0.0, 10.000219, 10.000079 
2.9450822e+3, 2.4127153e+2, -560162.4, -600211.0, 120359.61, 0.04267198, -0.7798242, -458172.72, 117289.15, 0.0, 10.000545, 9.999985 
2.945e+3, 2.5127146e+2, -514353.75, -488841.9, 107332.61, 0.09324123, -0.7671729, -393509.88, 83953.734, 0.0, 10.00002, 10.00033 
2.9449174e+3, 2.6127172e+2, -462171.25, -388220.63, 93472.93, 0.11414593, -0.74644923, -324675.47, 54786.293, 0.0, 9.999599, 10.000551 
2.9448333e+3, 2.7127203e+2, -288104.66, -204768.66, 54213.523, 0.087672874, -0.7608596, -178060.28, 103397.63, 0.0, 9.999901, 10.000995 
2.9447496e+3, 2.812719e+2, -197381.52, -156553.11, 51181.457, 0.10201979, -0.81759, -121864.85, 61594.05, 0.0, 10.000053, 10.000583 
2.9446647e+3, 2.9127353e+2, -145238.03, -56189.6, -34068.918, 0.087387644, -0.66848284, -44650.49, 40794.613, 0.0, 9.99964, 10.0007925 
2.9559913e+3, 1.3135813e+2, -1597093.9, -1575271.5, -4424.7334, -0.18610738, -0.85980135, -1574408.4, 78201.48, 0.0, 10.000467, 10.000732 
2.9559085e+3, 1.4135884e+2, -1570249.5, -1560245.9, 15071.899, -0.063952416, -0.8133253, -1549367.5, 5235.8833, 0.0, 10.000179, 10.000304 
2.955825e+3, 1.5135898e+2, -1431986.4, -1476073.8, 32084.496, -0.030456012, -0.7733703, -1415102.8, 41498.7, 0.0, 10.000602, 10.000003 
2.9557422e+3, 1.6135864e+2, -1300986.0, -1365464.5, 34522.38, 0.04473747, -0.76625454, -1285990.1, 72613.836, 0.0, 10.000842, 9.999974 
2.955659e+3, 1.7135806e+2, -1234705.1, -1258407.5, 61675.27, 0.03663845, -0.80148053, -1183752.8, 76856.36, 0.0, 10.000525, 10.000186 
2.955576e+3, 1.813576e+2, -1179357.4, -1193563.5, 56711.816, -0.013528321, -0.82919943, -1129305.6, 33307.867, 0.0, 10.000287, 10.000073 
2.955493e+3, 1.9135742e+2, -1016430.9, -1073343.3, 87331.625, -0.05843749, -0.81189126, -953036.25, 111579.88, 0.0, 10.000773, 9.9999895 
2.9554105e+3, 2.013573e+2, -870883.3, -947552.6, 100960.414, -0.06007196, -0.79213095, -801224.7, 165393.64, 0.0, 10.001075, 10.000039 
2.9553288e+3, 2.1135646e+2, -882283.75, -890937.4, 80219.51, 0.038836084, -0.8477743, -806274.44, 62352.95, 0.0, 10.0002775, 10.000137 
2.9552472e+3, 2.2135592e+2, -865194.1, -821442.5, 105225.71, 0.09784417, -0.8796829, -735842.7, 34790.73, 0.0, 9.999676, 10.000233 
2.9551646e+3, 2.3135701e+2, -658804.7, -623090.5, 120211.83, 0.03339528, -0.78554153, -519416.7, 153206.88, 0.0, 10.000215, 10.00066 
2.955082e+3, 2.4135776e+2, -541840.25, -562934.6, 111264.23, -0.00376289, -0.7266169, -440624.4, 133992.44, 0.0, 10.000546, 10.000241 
2.9549995e+3, 2.513568e+2, -514404.72, -488385.84, 84458.36, 0.062045816, -0.8083939, -415940.84, 60685.04, 0.0, 10.000016, 10.000337 
2.9549164e+3, 2.6135647e+2, -459887.53, -388091.84, 93174.875, 0.103760615, -0.8446656, -324138.72, 54489.99, 0.0, 9.999619, 10.000544 
2.954833e+3, 2.7135763e+2, -295086.88, -228722.98, 75677.82, 0.084533766, -0.7673215, -179272.17, 101345.8, 0.0, 9.999942, 10.000811 
2.9547492e+3, 2.8135753e+2, -222603.44, -230004.08, 36037.82, 0.086527914, -0.7901133, -190076.47, -7456.5586, 0.0, 10.000135, 10.000043 
2.954664e+3, 2.913576e+2, -140530.22, -61898.86, -41115.027, 0.09463428, -0.74168885, -44327.21, 40294.133, 0.0, 9.999702, 10.000725 
2.9659918e+3, 1.3144211e+2, -1732548.8, -1665257.4, 4108.449, -0.09841933, -0.8364063, -1665007.4, -13221.042, 0.0, 9.999648, 10.000507 
2.9659083e+3, 1.4144298e+2, -1512656.8, -1528668.4, -24720.633, -0.08793776, -0.7551859, -1494677.9, 59101.016, 0.0, 10.000555, 10.000344 
2.965825e+3, 1.5144248e+2, -1415657.1, -1434018.6, -1518.3843, -0.066296555, -0.80375534, -1415532.4, 40250.06, 0.0, 10.000564, 10.000313 
2.965742e+3, 1.6144197e+2, -1355301.3, -1384238.9, 14480.408, 0.002338315, -0.8429294, -1349299.9, 8486.622, 0.0, 10.000432, 10.000047 
2.965659e+3, 1.7144156e+2, -1248383.5, -1287359.8, 36928.574, -0.007071033, -0.8485707, -1226116.3, 33674.684, 0.0, 10.00052, 9.999994 
2.9655758e+3, 1.8144128e+2, -1131839.6, -1152662.3, 24646.557, -0.038162168, -0.8479643, -1115495.6, 46298.316, 0.0, 10.0005245, 10.000246 
2.9654932e+3, 1.9144143e+2, -1065341.0, -1039382.56, 54910.484, -0.048237883, -0.8422959, -995938.2, 67854.09, 0.0, 10.000182, 10.000512 
2.965411e+3, 2.0144144e+2, -1029691.75, -1025704.2, 61470.97, -0.037523527, -0.8396178, -966194.7, -402.2036, 0.0, 9.999987, 10.000029 
2.9653287e+3, 2.1144107e+2, -885128.06, -904886.25, 45203.27, 0.019478055, -0.8385068, -848736.94, 19061.422, 0.0, 10.00031, 10.000028 
2.9652464e+3, 2.2144106e+2, -726297.8, -732424.94, 94832.29, 0.063744545, -0.8199574, -634479.6, 135320.78, 0.0, 10.000532, 10.000433 
2.9651645e+3, 2.3144206e+2, -656123.9, -598210.6, 91540.88, 0.03613407, -0.75834304, -531155.7, 140634.83, 0.0, 10.000123, 10.000879 
2.965082e+3, 2.4144275e+2, -636572.5, -578923.06, 59776.273, 0.01740403, -0.7321066, -541384.6, 32398.807, 0.0, 9.999757, 10.00052 
2.964999e+3, 2.5144184e+2, -492285.75, -464207.3, 42420.082, 0.056083612, -0.8278078, -433563.63, 42227.586, 0.0, 10.000096, 10.000472 
2.9649156e+3, 2.6144153e+2, -348136.03, -337827.4, 61259.04, 0.08415191, -0.8732168, -281506.22, 96287.48, 0.0, 10.000391, 10.000524 
2.9648322e+3, 2.7144283e+2, -281414.25, -245005.88, 46425.504, 0.07190331, -0.767759, -213343.05, 66438.91, 0.0, 10.000135, 10.0006075 
2.9647487e+3, 2.8144273e+2, -255430.89, -251587.66, 11931.276, 0.07976464, -0.7779197, -241424.25, -59639.94, 0.0, 9.999945, 9.999993 
2.9646638e+3, 2.9144192e+2, -62384.047, -12943.576, -26932.984, 0.11154213, -0.8069372, -1105.9705, 82687.27, 0.0, 10.000227, 10.000811 
2.975993e+3, 1.3152623e+2, -1800525.5, -1802128.6, 35797.004, 0.08876898, -0.7889647, -1765521.1, -114560.68, 0.0, 9.999634, 9.999573 
2.975908e+3, 1.4152649e+2, -1518304.9, -1543959.1, -11647.687, -0.14044689, -0.69435775, -1513805.6, 39154.953, 0.0, 10.000573, 10.000229 
2.9758242e+3, 1.5152474e+2, -1361577.5, -1346211.5, -13146.968, -0.1558943, -0.9140204, -1338667.3, 116308.64, 0.0, 10.00067, 10.000863 
2.975741e+3, 1.6152391e+2, -1326117.8, -1348227.3, 2884.107, -0.11724805, -1.0336976, -1325747.8, 31234.674, 0.0, 10.000541, 10.00024 
2.975658e+3, 1.7152393e+2, -1265327.4, -1326468.9, 37441.0, -0.12364076, -0.97888327, -1247561.8, 11422.426, 0.0, 10.00054, 9.999715 
2.9755753e+3, 1.8152417e+2, -1130745.4, -1146288.6, 14086.3955, -0.09464211, -0.9058972, -1122429.0, 38554.273, 0.0, 10.000508, 10.000297 
2.9754934e+3, 1.9152495e+2, -1027625.25, -961100.56, 36064.695, -0.0016373604, -0.87817144, -945301.25, 117673.45, 0.0, 10.000183, 10.001048 
2.9754114e+3, 2.0152515e+2, -1031023.94, -1027516.1, 62316.73, 0.040853523, -0.88274336, -966928.6, -1955.9797, 0.0, 9.999983, 10.000018 
2.975328e+3, 2.1152584e+2, -877601.06, -888407.7, 57872.973, -0.047939885, -0.7812933, -824879.75, 42089.027, 0.0, 10.000306, 10.000142 
2.9752454e+3, 2.2152686e+2, -718545.8, -708671.4, 89894.836, -0.08005595, -0.68027437, -623578.25, 145382.89, 0.0, 10.000499, 10.000612 
2.975164e+3, 2.3152676e+2, -664794.8, -614741.8, 73814.28, 0.025158854, -0.7264286, -561826.8, 109133.836, 0.0, 10.000114, 10.000771 
2.9750824e+3, 2.4152671e+2, -617265.2, -538380.44, 59388.906, 0.092768885, -0.7819899, -506529.47, 66430.43, 0.0, 9.999755, 10.000799 
2.974999e+3, 2.5152668e+2, -474038.72, -429760.97, 60673.43, 0.07084511, -0.8186916, -387313.5, 87645.38, 0.0, 10.000112, 10.0007 
2.9749155e+3, 2.6152685e+2, -345203.63, -338922.22, 57769.203, 0.048587456, -0.8266239, -284208.4, 92748.02, 0.0, 10.000422, 10.000502 
2.9748318e+3, 2.7152762e+2, -291191.5, -269863.38, 36324.31, 0.042707473, -0.7647433, -242670.11, 36280.04, 0.0, 10.000153, 10.00043 
2.974748e+3, 2.8152758e+2, -214954.42, -174316.53, 12210.148, 0.0631437, -0.77506125, -170930.05, 10021.075, 0.0, 9.9999895, 10.000499 
2.9746643e+3, 2.9152688e+2, -47969.902, 5367.974, 507.48718, 0.15852971, -0.8519621, 5372.8022, 88329.54, 0.0, 10.000306, 10.000886 
2.985991e+3, 1.3160656e+2, -1482779.1, -1600389.3, 41782.855, -0.133073, -1.0574392, -1469446.5, 180726.42, 0.0, 10.001581, 10.00004 
2.985908e+3, 1.4160821e+2, -1574165.0, -1568997.8, 673.63153, -0.11924841, -0.8571388, -1568911.4, -16754.943, 0.0, 10.000186, 10.000244 
2.9858252e+3, 1.5161039e+2, -1488892.3, -1440498.5, -7892.114, -0.07356747, -0.6584172, -1439243.9, 14891.492, 0.0, 9.999953, 10.000555 
2.9857427e+3, 1.6161117e+2, -1456338.8, -1399060.8, -62855.234, 0.067623384, -0.5987163, -1358627.5, -2499.351, 0.0, 9.999625, 10.000318 
2.98566e+3, 1.716105e+2, -1393809.4, -1339881.3, 9761.798, 0.12911299, -0.6466834, -1338168.5, -80033.06, 0.0, 9.99948, 10.000117 
2.9855773e+3, 1.8160956e+2, -1230480.6, -1186944.4, 30698.965, 0.10007616, -0.72450083, -1171079.0, -10933.64, 0.0, 9.999822, 10.000333 
2.9854935e+3, 1.916087e+2, -1129960.5, -1062866.5, -17371.578, 0.044453572, -0.82371646, -1058635.5, 3518.717, 0.0, 9.999726, 10.000562 
2.9854107e+3, 2.0160891e+2, -1025533.3, -963473.94, 10762.894, 0.025179217, -0.8215279, -961660.3, 2492.285, 0.0, 9.999765, 10.000561 
2.9853284e+3, 2.1161003e+2, -845520.7, -804292.0, 44897.008, 0.004562738, -0.74395204, -775503.0, 90639.984, 0.0, 10.00023, 10.000759 
2.985246e+3, 2.2161059e+2, -767943.75, -734292.8, 59112.043, -0.030154632, -0.72054166, -689658.3, 78479.914, 0.0, 10.000159, 10.000604 
2.985164e+3, 2.316102e+2, -687943.1, -631439.7, 42056.246, 0.021719206, -0.7915432, -609026.94, 61114.17, 0.0, 9.999981, 10.000722 
2.9850817e+3, 2.4161008e+2, -551861.06, -500668.66, 32704.01, 0.08508931, -0.84684575, -484735.13, 87405.95, 0.0, 10.000178, 10.000854 
2.9849988e+3, 2.5161076e+2, -456093.72, -400156.22, 27353.242, 0.07930527, -0.8317056, -389004.0, 85129.37, 0.0, 10.000143, 10.00089 
2.9849157e+3, 2.6161146e+2, -390955.8, -344694.06, 23037.895, 0.0612414, -0.80929685, -335178.63, 40947.59, 0.0, 10.00003, 10.000658 
2.9848316e+3, 2.7161172e+2, -297269.13, -263784.13, 16327.604, 0.046088126, -0.8085583, -257140.69, 20983.344, 0.0, 10.000052, 10.000534 
2.984748e+3, 2.8161183e+2, -166380.73, -140986.64, 8529.555, 0.05511872, -0.8188672, -138387.67, 41735.93, 0.0, 10.000275, 10.00062 
2.984665e+3, 2.9161122e+2, 26399.373, -39432.4, -39150.168, 0.1963007, -0.8635019, 44632.203, 126761.06, 0.0, 10.001096, 10.000287 
2.9959923e+3, 1.3169232e+2, -1628562.9, -1451218.5, 3334.9495, -0.109422214, -0.7158691, -1451155.8, 198177.5, 0.0, 9.999675, 10.001962 
2.9959074e+3, 1.4169091e+2, -1580417.3, -1533630.8, -36936.14, -0.20606801, -0.9731824, -1513303.1, 38037.37, 0.0, 9.999983, 10.000581 
2.995825e+3, 1.5168996e+2, -1484950.3, -1541056.8, 1488.1523, -0.001499057, -1.0208411, -1484910.9, -31556.299, 0.0, 10.000369, 9.999689 
2.9957405e+3, 1.6169062e+2, -1264564.6, -1319610.4, -94941.805, -0.048944853, -0.8965266, -1193236.8, 162114.81, 0.0, 10.000923, 10.000275 
2.9956576e+3, 1.7169043e+2, -982986.1, -1052235.5, 52473.71, -0.033547007, -0.9715057, -954743.0, 302608.25, 0.0, 10.001837, 10.000994 
2.9955754e+3, 1.816927e+2, -967996.4, -1085244.4, 91853.3, -0.017410487, -0.79634756, -917653.4, 241674.22, 0.0, 10.001652, 10.000189 
2.9954928e+3, 1.9169168e+2, -1047220.6, -1183335.4, 37214.926, 0.012124352, -0.80541736, -1037710.25, 23630.754, 0.0, 10.000921, 9.999188 
2.995408e+3, 2.0169146e+2, -986135.7, -855474.25, 44627.406, -0.19763684, -0.81284875, -841686.6, 121658.36, 0.0, 9.999607, 10.0014 
2.995327e+3, 2.1169238e+2, -922942.5, -734638.8, 56207.9, -0.08979961, -0.8581764, -719137.1, 146196.08, 0.0, 9.999214, 10.001735 
2.995247e+3, 2.2169262e+2, -790215.56, -772806.9, 14439.533, 0.09915718, -0.90634364, -764651.06, 2677.4543, 0.0, 10.000123, 10.000357 
2.9951638e+3, 2.3169315e+2, -709657.56, -640826.9, -13733.555, 0.07339104, -0.8752809, -638187.9, 31136.34, 0.0, 9.999827, 10.000729 
2.995081e+3, 2.4169298e+2, -556013.5, -519857.0, 17792.281, 0.022125488, -0.9208027, -512570.16, 58756.184, 0.0, 10.000226, 10.000695 
2.9949987e+3, 2.516942e+2, -438448.28, -366536.84, 21732.514, 0.08534179, -0.86602825, -360479.28, 112834.48, 0.0, 10.000159, 10.001106 
2.9949158e+3, 2.6169536e+2, -371919.1, -304020.53, 22707.723, 0.12420655, -0.82276744, -297126.28, 78175.766, 0.0, 10.000016, 10.000947 
2.9948315e+3, 2.7169508e+2, -269813.0, -219163.03, 24362.656, 0.07242343, -0.9063698, -209346.95, 67956.984, 0.0, 10.00009, 10.00083 
2.9947475e+3, 2.8169513e+2, -204505.73, -198259.81, 25276.436, 0.028505977, -0.9286076, -175914.14, 3389.5674, 0.0, 10.00023, 10.000223 
2.9946652e+3, 2.9169625e+2, -54374.12, -160518.5, 23488.236, 0.18559946, -0.74186206, -49408.78, 31888.559, 0.0, 10.000964, 9.999491 
